##TITLE=1,3-Butadiene
##JCAMP-DX=4.24
##DATA TYPE=INFRARED SPECTRUM
##CLASS=IUPAC A
##ORIGIN=NIST, Anayltical Chemistry Division, 301-975-3108
##OWNER=COPYRIGHT (C) 1998 by the U.S. Secretary of Commerce
##DATE=98/10/1
##$SPECTRA VERSION=1.00
##$UNCERTAINTY IN Y=2.5 % relative (B=1.6E-04,C=1.1E-09,D=2.7E-14)
##CAS NAME=1,3-Butadiene
##CAS REGISTRY NO=106-99-0
##MOLFORM=C H2: C H C H: C H2
##MP=-108.91 C
##BP=-4.41 C
##$NIST SOURCE=QUANT-IR
##SPECTROMETER/DATA SYSTEM=IFS66V (Bruker)
##INSTRUMENT PARAMETERS=KBr Beam splitter; MCT Detector; Multipass cell
##STATE=gas
##SAMPLE DESCRIPTION=1,3-Butadiene Primary Gas Standard
##PRESSURE=101.3 kPa
##TEMPERATURE=23 C
##SAMPLING PROCEDURE=1 L/min Flow
##RESOLUTION=0.9640
##DATA PROCESSING=Boxcar Apodization
##XUNITS=cm-1
##YUNITS=(micromol/mol)-1m-1 (base 10)
##XFACTOR=1.0
##YFACTOR=9.0949E-13
##DELTAX=0.4820
##FIRSTX=575.169
##LASTX=3975.077
##FIRSTY=4.57E-06
##MAXX=3974.59
##MINX=575.17
##MAXY=.0010228
##MINY=-3.04E-07
##NPOINTS=7053
##XYDATA=(X++(Y..Y))
575.17 5029472 4632302 4868870 4777202 5273110 4819828
577.58 4589274 4072278 4810718 4396108 3448846 3592442
580.47 3835394 4407730 4334044 3603526 3568224 3697008
583.37 3377040 3428106 3187010 2909310 2729538 3165624
586.26 3294974 2440634 2134632 2041728 1979540 2425828
589.15 2002772 1927514 2395712 1800838 1930474 2539320
592.04 2011686 1988608 2048764 2163160 2021004 2037848
594.94 1461022 1923380 1896104 1794548 1901406 1764024
597.83 1896720 2086620 1531990 1899744 1864566 1514370
600.72 2247430 2317440 1640646 1604956 1467296 1622412
603.61 1383954 1275692 1167420 1575558 1036220 1173904
606.51 1111284 1124824 1093032 1243124 937560 1028442
609.40 843490 980188 1086952 913256 1022510 907874
612.29 815640 944566 692332 605918 681672 798042
615.18 507322 466380 485946 816050 878436 715076
618.08 430114 834048 561252 614232 976480 728932
620.97 832744 895598 751438 688204 686404 724800
623.86 900724 645382 786982 758276 810526 851438
626.76 754670 949874 878856 952374 831888 885808
629.65 1151700 874840 910258 818802 866626 962786
632.54 1296892 827074 882036 1034184 1254072 1241054
635.43 1224164 1072760 1388246 1146678 1315034 1436102
638.33 1449422 1437118 1435900 1527482 1667868 1761658
641.22 1708376 1513646 1556206 1725822 1705428 1954324
644.11 2008422 1745090 1832546 2090376 1913084 1959538
647.00 2241948 2056222 2112984 2322582 2266054 2508872
649.90 2547530 2675086 2684420 2493128 2791128 2753460
652.79 2518698 2473784 2513698 2391864 2869772 2583652
655.68 2372670 2694008 3089876 2874786 2971392 2781130
658.58 2765808 2422852 2882286 3128808 3036372 3094462
661.47 2872532 2743484 3210616 3440120 2720618 3169602
664.36 3206328 3209330 3909336 3771264 3277264 3924840
667.25 4599130 4101530 3805458 3769256 4367360 3661748
670.15 3479060 3710856 3733122 3803422 4612574 3903072
673.04 3501254 3577200 3540802 4527426 4559502 3496822
675.93 3670956 3478688 3143552 2979900 2824920 2992260
678.82 2994052 2871146 2673372 3045072 2353776 2461546
681.72 3180090 3367126 2576010 2289636 2653350 2732092
684.61 2401436 2239328 2641818 2327282 2769712 2461222
687.50 2559510 1993622 2556978 2225766 2223258 2171454
690.40 2441616 2344298 2028412 2196364 2396206 2045590
693.29 1895694 2318620 2094594 1567546 2197788 1904220
696.18 1776054 1730016 1958036 1604312 1913540 1663840
699.07 1531510 1878316 1777958 1370746 1566714 1296142
701.97 1373768 1384000 1374354 1337024 1290568 1327258
704.86 1306120 1129618 1165514 977274 1241118 1035844
707.75 1001766 1097068 1090980 1013626 973538 791558
710.64 917842 715564 748524 684956 902088 780442
713.54 760734 698050 794538 800496 814730 725606
716.43 848044 525750 651874 606864 732784 674836
719.32 736102 675538 837664 660676 752042 644358
722.22 870872 709798 860418 717758 829502 650006
725.11 787748 735410 803712 764610 786408 737778
728.00 790984 839270 848204 843676 765714 922276
730.89 914824 831120 950622 927566 820846 851638
733.79 904404 1066522 963926 993460 981996 1013242
736.68 1071838 976358 993214 1144160 1116916 1109722
739.57 1173404 1093544 1149604 1162502 1067816 1076256
742.46 1050452 1166372 1156352 1115258 1099506 997622
745.36 946700 953462 1096248 941714 1053274 1039994
748.25 1096844 1027644 1001544 943278 1031288 1103224
751.14 1258006 1099048 1095384 979186 953328 985734
754.04 1193400 1073050 1199328 1169752 1205308 1184106
756.93 1133420 1085546 1203368 1173218 1250882 1062156
759.82 1173888 1127840 1211054 1165658 1125596 1004348
762.71 1231148 1012602 1119236 1002132 1109954 1038298
765.61 995850 996384 965818 904136 988018 956152
768.50 837004 924254 848522 782376 806230 772620
771.39 906338 885826 773358 804060 817060 728164
774.28 794054 740320 721534 745880 810888 678692
777.18 686908 642648 830250 616236 703092 611978
780.07 576146 651608 685868 477852 651006 703108
782.96 672210 576082 594118 712436 651318 592538
785.86 634414 642968 691118 563434 627972 649636
788.75 607708 608966 633280 617690 632028 576760
791.64 593458 535908 602010 546744 600712 694788
794.53 657252 560310 558194 498890 589724 629240
797.43 598162 620944 676934 674396 453832 515000
800.32 663546 542556 551474 600234 754190 664694
803.21 740486 736654 748392 713334 745032 753000
806.10 718580 770264 673700 610428 809488 792240
809.00 851886 806074 973096 816268 881842 824364
811.89 970752 918376 1050248 1036144 1082488 1070356
814.78 1124272 1211536 1158280 1242474 1275584 1266010
817.68 1172782 1293568 1274506 1434974 1411246 1579630
820.57 1595042 1603352 1627210 1858850 1798870 1864368
823.46 1915530 2075524 1968384 2130846 2373550 2364554
826.35 2261226 2477702 2450268 2725882 2789374 3268178
829.25 2982944 3011512 3143344 3578142 3403368 3809974
832.14 4274466 3949076 3773398 4196580 4407424 4742312
835.03 4892644 5693214 4928218 5098410 5342784 5938278
837.92 6019194 6794694 7446834 6345198 6666532 7100988
840.82 7784582 8009914 9008230 9652994 8199782 9125048
843.71 8969604 10805490 10056220 12947240 11416960 11262550
846.60 11069890 12604500 12886160 13741180 16541010 13832880
849.50 14949820 14166750 16806590 15508750 20084870 19614230
852.39 17399260 18776490 18468440 21728300 19674420 27940240
855.28 21201030 24439880 21226490 27757460 22959570 30763610
858.17 31642170 27625840 28028100 30316870 32852360 30042100
861.07 42787720 34883170 34117580 34353310 41692640 35454130
863.96 46798820 50219180 37405880 42639710 47537360 46359600
866.85 48029680 67583900 44718140 49482390 55765460 55815780
869.74 53902040 81419010 57552430 56492740 66395380 62809080
872.64 64238080 95569430 71414730 66812760 75121660 72192640
875.53 71684590 111268500 89373270 77175640 87635960 81592230
878.42 81066300 123148800 111328000 87432850 100106300 88254850
881.31 89921960 136457700 134118900 100702400 112430600 94921570
884.21 101765400 150589400 152423900 112549200 120700300 97290240
887.10 110252900 167181700 166761700 125136000 129174600 101597900
889.99 123034900 185876700 173180400 125307000 128298700 92556830
892.89 137997200 198871900 167163900 126753700 124793100 94943420
895.78 167701500 190158100 150267800 123906100 116119200 113737300
898.67 181164400 155970700 151403600 130352500 128069100 132958800
901.56 154072200 127097200 153252600 129724300 152031600 130817800
904.46 167951800 158596700 218457700 184153300 305245100 353122000
907.35 1015679000 1124587000 464818900 355805100 222729300 233054300
910.24 181745600 194706400 147332600 160947400 143221200 157097400
913.13 138299200 176254000 134013900 151143400 136425800 187367900
916.03 185331300 152797300 152563600 164110700 213663900 182408900
918.92 130712100 161402000 180114300 228158200 150986700 156133700
921.81 160136500 207134900 198517800 148240900 162713100 172920900
924.71 214321200 173136400 152576700 168737500 185901200 198784900
927.60 140192800 168886400 158444400 200130500 144433800 158124300
930.49 152760400 182533800 151928900 141542400 149444900 157709700
933.38 151390200 128308700 139638200 142544400 145254900 119568100
936.28 126922800 131545100 133316000 109802100 114577700 118159000
939.17 118967900 100375700 104310000 106470000 105730000 92289060
942.06 94895810 95861260 90956460 82592180 85639040 84001870
944.95 78373220 74145460 77297770 73396940 67163580 66241020
947.85 69925850 63529740 61174610 60421600 60421270 54987340
950.74 53609060 54004620 51621660 48266910 48338420 47175070
953.63 43897580 43696110 42522350 41071570 39967060 39312960
956.53 37873850 36068220 36384110 36023580 33074670 32973540
959.42 33368680 32370610 31931020 30427050 29664020 30556840
962.31 29755660 30071640 28829680 27585720 28426050 28779310
965.20 28402660 29109750 26639200 27466830 28659180 28562790
968.10 29526130 27984740 27054900 29319450 29150130 31571780
970.99 29925290 28128960 30891090 30339340 33486400 33708430
973.88 30472530 33150170 33395220 36680810 37910530 35567630
976.77 36905900 38822230 40072560 43609190 41877160 43716840
979.67 45049070 47999600 52121720 52281080 52101310 55118480
982.56 57971980 63583310 63823900 63026570 64986110 68014900
985.45 72339960 72581430 70503590 69677190 69008610 72154950
988.35 73507080 65537660 59311610 57994970 61764580 71323460
991.24 75138720 81307090 82889460 89820010 97133160 97679040
994.13 102079600 112483700 106074900 106916800 105534800 108126400
997.02 114679800 107182100 102994300 100185900 100635600 109919000
999.92 102276700 91863090 88959310 94167080 95537970 88556610
1002.81 85546900 82472620 85158630 94008190 94992240 90290260
1005.70 80904260 89401300 100888600 94284280 106178500 104459600
1008.59 100602600 112877600 113762900 137235500 154827700 133170700
1011.49 130087600 137264100 144034400 180560500 245988700 177207500
1014.38 143365800 110775700 107985400 103027600 88960830 78461160
1017.27 76581460 74292300 77232600 84460300 81696540 71997810
1020.17 70207270 72490200 73199250 85783820 88215440 73470860
1023.06 78246280 73112650 78724700 84585660 85715360 78163340
1025.95 76694770 79122320 82591700 80954830 81658040 80840470
1028.84 81384710 80296470 76637340 73510350 75692180 78467540
1031.74 81733460 80666580 72734800 71214480 74606060 72741990
1034.63 73471070 67780310 67625600 70310830 66420220 70256460
1037.52 67926300 64546740 65509720 58299240 63566850 64483320
1040.41 62124140 61242540 54716710 54716990 59299010 58907230
1043.31 56432090 49346760 49677020 49119310 54185810 57366430
1046.20 50457280 48117200 47597130 49627890 51637660 43249700
1049.09 42000800 38202480 42611740 45543740 43779290 41184060
1051.99 38856880 41168170 39209140 33333580 34077040 30757040
1054.88 31552140 33107660 28218180 29219630 28470900 27977970
1057.77 28521130 25884720 26133400 25200230 25158080 24686190
1060.66 23598860 23794770 22538360 23483250 22752730 20781450
1063.56 20957710 20512040 21162210 18922750 17712170 18823260
1066.45 19063910 17008000 16448200 16547830 16367190 15378060
1069.34 15082030 14246560 14520230 13519690 13886650 13814790
1072.23 13422820 13470810 12989240 12346930 13034690 12021960
1075.13 12637830 12068840 11766190 11617600 11079790 11245270
1078.02 10419570 10673250 10481300 9914060 9309274 9030472
1080.91 8854580 8556772 8235972 7903580 7336492 7241150
1083.81 6907260 6521440 6100976 5962720 5599210 5416990
1086.70 5143428 4858112 4648458 4657466 4511542 4315570
1089.59 4055594 3898852 3570596 3359246 3115182 2946952
1092.48 2780228 2642920 2374206 2330760 2221798 2103002
1095.38 1969116 1886156 1811894 1576964 1547694 1423372
1098.27 1291430 1196896 1201348 1136514 1098382 1006968
1101.16 939362 851828 816616 765836 707456 698460
1104.05 685556 647554 562416 529188 501558 475358
1106.95 472874 398722 399322 388674 347224 393668
1109.84 437942 349854 312240 378858 323584 342686
1112.73 340254 261434 279184 328552 274222 303598
1115.63 298846 252306 314652 245062 280600 267318
1118.52 294038 286288 285492 253926 266444 281992
1121.41 258834 253814 237824 285832 293606 226432
1124.30 313320 261220 242912 276840 252754 246086
1127.20 341050 222682 313412 311650 292312 286830
1130.09 281194 337706 298600 345070 298954 303734
1132.98 302758 259376 287110 221746 366078 291984
1135.87 272352 323424 291584 306944 379270 257010
1138.77 281720 255548 253198 324642 323956 300012
1141.66 326612 302400 319440 266916 236750 259160
1144.55 208928 230900 326012 269712 227736 285788
1147.45 287392 209084 260250 255672 292564 247146
1150.34 210570 243184 275982 225210 242874 224616
1153.23 210778 262366 164476 266194 208722 225300
1156.12 221136 220922 245226 108864 152858 202536
1159.02 234914 194682 158214 209562 244806 234514
1161.91 236346 171232 192474 155290 170658 212048
1164.80 172630 204202 235540 186828 242076 205214
1167.69 168544 285258 199238 201186 186146 235998
1170.59 156742 229414 167626 202410 219662 229064
1173.48 248456 157200 216640 189904 242930 228702
1176.37 214912 175242 270658 209570 287496 265248
1179.26 191948 269752 238244 208320 231756 223552
1182.16 267178 197448 197164 193904 213972 239230
1185.05 243486 195318 180294 150368 185340 215484
1187.94 166422 108654 134194 85614 114924 172458
1190.84 188972 170774 163640 128828 178080 152042
1193.73 211046 161126 153236 112160 153284 188104
1196.62 217652 195202 230492 207720 200324 177208
1199.51 228690 198926 213704 227692 252500 215544
1202.41 248170 192904 300348 170316 243934 247432
1205.30 324262 277648 278768 248178 268084 346472
1208.19 405016 296842 382940 327536 302244 415670
1211.08 405606 468102 509192 400454 446950 367016
1213.98 483204 489676 631336 564714 525406 512940
1216.87 550244 600678 714204 575060 546678 576794
1219.76 690804 687616 832118 724932 760086 769410
1222.66 823672 840060 954722 922730 820738 960282
1225.55 955776 983230 1167368 1040354 1043742 1059118
1228.44 1132716 1196344 1438742 1139358 1153054 1342494
1231.33 1310028 1526146 1601378 1380670 1465962 1466886
1234.23 1642202 1820022 1808406 1699376 1648292 1750352
1237.12 2087456 1971856 2218516 2024038 1972508 2239324
1240.01 2188716 2305214 2741794 2201828 2540516 2581228
1242.90 2679534 2930684 3179752 2531152 3046642 2774956
1245.80 3109942 4119152 3355888 3139134 3501376 3224774
1248.69 4100706 4634884 3617630 3828812 4180842 3927330
1251.58 5164074 4825154 4416030 4861516 4126980 5339688
1254.48 5968952 5194110 5189282 4753790 5310262 6791990
1257.37 6351846 5360816 5419148 5195454 6582774 7304266
1260.26 5801196 5759060 5757738 6075160 6951300 6053764
1263.15 5609850 5333166 6460388 6547364 5773488 5819406
1266.05 5790970 5688258 6083152 5506470 5631212 4966558
1268.94 5861738 6979506 6016284 5832794 5861612 5523334
1271.83 7196292 6699648 5809740 6198528 6026732 8676954
1274.72 8879012 6841284 7422968 7117812 9253414 10165190
1277.62 8043460 8020094 7706146 9586994 11062020 8703822
1280.51 8229322 7992066 9639098 11106840 8512024 7729278
1283.40 8052328 9324280 9950102 7855732 7447474 7514662
1286.30 8092922 8391078 6446450 6812470 6513180 6837116
1289.19 6088474 5471954 5344060 4820438 5259532 4398466
1292.08 4266324 4615558 4574108 4640172 4178638 4416330
1294.97 4375908 4946980 5267348 5270842 5546056 5661056
1297.87 6687140 6245130 6508180 6829664 7119372 6948358
1300.76 6842742 6993086 7516208 7303508 6666620 7073840
1303.65 6453660 8078792 6853632 5827528 6952578 5912830
1306.54 7464232 6364016 5040610 6435092 4977724 6077420
1309.44 6108656 4206398 5879060 4322402 4777386 6336282
1312.33 3649484 4837668 4106250 4028236 5289518 3741082
1315.22 3818906 3931894 3610406 4882416 3681542 3370226
1318.12 3801216 3197980 4549900 3422492 3356622 3377166
1321.01 2997596 3953178 3622716 3072592 3315356 2846104
1323.90 3680500 3511098 3041746 3143528 2849190 3333146
1326.79 3564040 2929374 3093584 2768854 3210850 3476156
1329.69 2899922 2806962 3008392 2962900 3507334 2949438
1332.58 2757996 2938794 3058458 3388272 3093222 2648476
1335.47 2885838 3104408 3537548 3082372 2737162 2950860
1338.36 3065780 3304802 3436068 2850860 3109428 2805798
1341.26 3291602 3410820 2767910 2945032 2914824 3282384
1344.15 3730942 2772460 3263798 2931070 3514144 3783452
1347.04 3010188 3321808 3210948 3592358 4402288 3053460
1349.94 3977054 3323468 4119628 4643088 3675714 4040302
1352.83 3884086 4308204 5492514 4209074 4814890 4474048
1355.72 5537834 6274292 5540618 5826186 5792880 6147542
1358.61 8413872 7265550 7516474 7687878 8708778 10898760
1361.51 10752670 10319400 11470290 11412790 14245670 14785160
1364.40 14334110 15054220 15322530 17964310 20070210 18864830
1367.29 19907820 19372380 22084650 23886380 22719690 23145090
1370.18 22928420 23674380 25656760 23855210 24061230 22555670
1373.08 23483390 23191520 20956900 19827210 18863440 15655850
1375.97 14869450 13252300 12159350 9036250 10632150 8514726
1378.86 9808316 6776104 31759520 44761460 13903740 9637138
1381.76 7892856 9784760 10643190 13918610 13724920 15935390
1384.65 17154580 18576690 19324900 21799460 21052580 22578850
1387.54 21478530 22448670 23411370 22250710 20725350 20751190
1390.43 20682220 22378350 19131660 17921020 16969940 17535200
1393.33 17795090 16969600 14703480 13285090 13386560 13628340
1396.22 12287130 10572020 10236960 9362188 9666118 10734170
1399.11 8053092 7605370 6834026 7203110 7415528 6638896
1402.00 6363510 6174020 6048192 6953592 6286988 5792678
1404.90 5790382 5267456 5883916 6030562 5099222 5510018
1407.79 5661360 5907688 6276852 5628416 5499982 6062684
1410.68 5448570 6218586 5722950 5875618 6030900 6283428
1413.58 6499750 6267698 5432982 6306588 5944916 6069246
1416.47 6388950 6353150 6423698 6237328 6486608 9193872
1419.36 7295280 6330726 6191828 6191580 6285742 6388930
1422.25 6275448 6165538 6207700 6196632 6191184 5574772
1425.15 5545640 5338748 5450524 5548400 4969418 5067396
1428.04 4913482 4641638 4884688 5503554 4667898 4629862
1430.93 4603530 4515122 4469434 4526166 4661206 4812364
1433.82 4971238 5203732 5107818 5295816 5603584 8269312
1436.72 6432656 5140106 5885924 5789478 5507972 5881242
1439.61 5626700 5657958 6048454 5487458 5978594 6188364
1442.50 5631968 5769094 5565378 5356998 6046006 5251094
1445.40 5091530 5389262 5041936 5184606 6120664 5037728
1448.29 4578222 4790682 4305350 4838308 4710256 4134260
1451.18 4026504 4349796 4039870 4064094 4313026 3786080
1454.07 3780544 3993236 4590950 3893216 5877584 7702794
1456.97 3678598 4382136 5155752 3948162 3920242 3461712
1459.86 3453662 3766858 4133320 3515950 3415182 3628152
1462.75 3638816 4194776 3896856 4808386 4945472 3567794
1465.64 4410696 4165044 4100712 3807144 4218846 4219348
1468.54 4731838 4387178 4512600 4425500 4855038 5185042
1471.43 7116544 6010588 4783120 7169986 6406816 5613594
1474.32 5846680 5500140 6387636 7157694 6896548 6765060
1477.21 6470784 6615700 6947222 6655192 7092376 6283478
1480.11 6343918 6216722 6379268 6199140 6175590 6005094
1483.00 5742506 5395092 5414994 5132230 5459622 5541780
1485.89 5851464 5254054 5713202 4719216 4475684 5180500
1488.79 5735906 6616504 6613180 6410162 5390624 4623536
1491.68 5028438 4856970 5353366 5357850 6059126 5626840
1494.57 6488940 5969868 8532246 8374242 6027512 6702970
1497.46 6048022 6613980 7104352 5941190 5692704 5400292
1500.36 5170812 4952448 5203236 4617646 4329168 3971466
1503.25 4037100 4388968 3891074 4363928 7309444 3444258
1506.14 5229660 7110934 3656258 3249908 3891900 3464826
1509.03 3384978 3146624 2768482 2804062 3029864 2984008
1511.93 3612266 2410104 2655894 2768682 2407658 2677114
1514.82 2730826 2227562 3065100 2486966 3161242 2801232
1517.71 2177328 1984786 1848760 1717126 3154218 1820958
1520.61 4676628 3841554 978086 3097806 1972346 1429224
1523.50 1173802 1463120 1427968 2949540 1496070 977276
1526.39 1215584 1763232 1109840 1270224 1254538 839202
1529.28 1045394 906012 901502 922342 1173928 852430
1532.18 1024066 1555882 1822004 2055472 596384 1058178
1535.07 680856 1039806 650972 1036928 529776 1438764
1537.96 764484 5288040 2825742 1484824 4346162 907276
1540.85 1037664 2537002 3578556 404450 1662944 931666
1543.75 1233424 1047416 2776722 967186 1208368 846330
1546.64 1240224 907222 1257612 959250 1392790 1385260
1549.53 1948660 1509162 1457422 1447716 1504324 1458074
1552.43 1728312 1743958 2245270 4460000 2283888 2226800
1555.32 2100750 2646468 2186658 4094468 4459692 5198618
1558.21 7515710 3047150 5384068 7449226 6215872 3618302
1561.10 5192150 4169608 5434572 4834086 6115532 5766578
1564.00 7334948 7140374 7484852 7362096 8561168 8602484
1566.89 10348440 9689870 10858530 11336570 12976080 15120040
1569.78 15230610 14447010 16537470 16720110 19497520 20442850
1572.67 22300590 22652320 25462770 26481640 30883400 31098770
1575.57 38649430 38393430 39480740 42469620 46453660 48346480
1578.46 51973300 55718140 60458660 63243500 67750770 71599070
1581.35 79135170 82182120 87082820 89958690 97329860 98987620
1584.25 103247400 106775100 110116800 111999800 115698400 116332400
1587.14 119637600 118385600 118929400 116897900 116094000 111866200
1590.03 110116700 102105500 97532340 89221950 82634200 74375380
1592.92 71210630 63717620 62322420 66537200 68930220 70027600
1595.82 164133900 105169100 80195920 99400680 63324430 65810850
1598.71 65545300 77796840 81605380 93917420 97965080 107975400
1601.60 111752900 119752000 122125300 127665600 127639100 130715900
1604.49 129829000 128987100 124913100 122904000 117995400 114612300
1607.39 107401500 102215800 95049870 90405560 83013580 76986530
1610.28 69734050 64103360 57387320 52207500 47113460 42294820
1613.17 36681570 33166290 28715930 26018060 22313100 19576180
1616.07 20534920 18002270 12764830 12107380 9878440 9548258
1618.96 7635732 8132968 6411020 6349766 5091684 5492906
1621.85 5075594 5008982 5080660 5648638 3532932 4532444
1624.74 3182656 3968022 3250306 4159860 2896932 4137616
1627.64 3312018 3664020 3104978 3360284 2824916 3397700
1630.53 2857298 3240820 2688366 3826114 3126892 3605330
1633.42 3112690 3301066 3560204 5359756 5973532 2998916
1636.31 2942138 3469750 3648654 3175206 3530566 3230202
1639.21 3245778 3424714 3364698 3518984 3513004 3663806
1642.10 3404588 3448106 3544892 3645182 3572852 3864646
1644.99 3870968 6691598 4167928 3674426 4651750 3912670
1647.89 4199730 3372336 3496238 3148776 3567136 2849306
1650.78 3540096 2507922 7063638 5611050 7335664 5113280
1653.67 2550976 4714560 1705046 2780076 1688588 2437084
1656.56 1546268 2298560 1545496 2135460 1437042 2024600
1659.46 1454024 2097310 1697204 2325618 1772714 2742112
1662.35 3457358 2570106 2013348 2476720 2045980 2452242
1665.24 2026138 2397702 1815858 2483430 1931080 2654348
1668.13 1712364 3455732 3680112 1833536 1696508 1806598
1671.03 2726032 1971970 1355958 1521568 1448070 1899720
1673.92 1049242 2335674 3673756 1881214 1068592 1177490
1676.81 1120436 1328486 886740 1076000 969018 1371268
1679.71 1009948 1336028 798124 1154496 675036 1191518
1682.60 1819700 2176494 1117466 4001252 5933436 398838
1685.49 1221322 559926 940814 527204 1000806 907118
1688.38 883630 590168 992322 871794 731762 567654
1691.28 738044 549852 711766 489016 841256 418884
1694.17 1005190 549148 4143366 5207254 171510 1066562
1697.06 621010 789022 575174 741540 1432304 4292244
1699.95 3028198 2988290 497294 888026 430760 783620
1702.85 545920 641662 1316452 1258732 423822 815752
1705.74 1397606 1301190 486198 894612 460022 882036
1708.63 516578 871748 802142 1004586 542718 918656
1711.53 591142 974970 668462 925954 1236080 1028416
1714.42 1534512 2351094 419096 1570680 525090 5370518
1717.31 2305040 1296100 2576814 1029378 1105342 1120398
1720.20 1183010 1233280 1190548 1255480 1253682 1298296
1723.10 1473442 1388076 1579012 1380482 1522650 1617344
1725.99 1806172 1686482 1726738 1767456 1917118 1849466
1728.88 1842280 2463396 2460306 1986460 2127650 2007678
1731.77 2528936 1971732 4901580 3897286 3067130 6119096
1734.67 2192490 2980608 2244020 2814936 2310072 2967352
1737.56 2337580 3046438 2521860 3530244 4418104 2905938
1740.45 2680134 2840402 2728288 3097054 3172994 3574466
1743.34 3206998 3591470 3451792 3799948 3903276 4094876
1746.24 4031622 4693794 4270114 4878170 5241674 5227150
1749.13 4911622 5176674 5079524 6890198 7199064 5391774
1752.02 5638372 5606774 5738796 6031834 5829104 5684992
1754.92 5766440 5788632 5865874 6657480 5459210 5412096
1757.81 5182390 5176304 4766138 5119398 4618644 4727914
1760.70 4293420 5766340 4942936 4004090 3937196 4011428
1763.59 4325614 4067882 3838666 3916684 4224180 4245446
1766.49 4408064 4249782 5378762 5462596 4051226 4583016
1769.38 4108998 4533368 4266486 5320780 3971832 4555142
1772.27 6690836 4282972 3683922 3712646 3484056 3671072
1775.16 3657332 3524446 3289824 3451844 3173560 3323456
1778.06 3140328 3350956 3165894 3401788 3455878 3630788
1780.95 3030876 3526900 3258840 3480064 3238186 3738744
1783.84 3395664 4562416 3747570 3817990 3630670 4001684
1786.74 3910766 4202752 3939536 4349864 4132682 4822036
1789.63 4579362 4989786 5335920 5141322 5183290 7607978
1792.52 6568056 5881448 6389744 6735000 7353120 7513178
1795.41 7901596 8188678 8358264 9028816 9567536 11002450
1798.31 11413770 13128980 14481490 15559830 17220120 19270160
1801.20 20557470 22563380 24531200 26811500 28902680 31343250
1804.09 33733090 36071440 38485050 41920860 43999740 46587030
1806.98 48848980 51410720 53704300 56326100 57906980 60109490
1809.88 61239420 62089780 61850910 61938490 60985390 60100520
1812.77 58081480 56497960 53617240 51708670 48286010 46429120
1815.66 43752380 43517180 42335840 45755800 48534880 57515540
1818.56 55024010 62662620 50205740 28532360 21076840 16879550
1821.45 20653020 24694440 32423870 38578720 44571150 49282760
1824.34 54974540 59385210 62534360 65096630 67279880 68220980
1827.23 68970140 69498170 69480180 68247190 66911530 65715160
1830.13 63558380 60356160 57583940 54610500 51931570 49173330
1833.02 45713140 42046940 39270960 36108270 33200390 30010910
1835.91 27174200 24736110 22513430 20442110 18334440 16005010
1838.80 14425830 12750770 11560730 10354750 9175094 8034376
1841.70 7552362 6365626 5957456 5131128 6572628 5115020
1844.59 3638776 3506228 3113324 3094110 2788680 2667914
1847.48 2419618 2187206 2142796 2059886 1932992 1753504
1850.38 1798266 1751248 1724162 1658602 1692706 1659284
1853.27 1699372 1640466 1598198 1770370 1837796 1838130
1856.16 1794256 1808532 1858750 1975654 2148104 2042618
1859.05 2154742 2114748 2233624 2290934 2391128 2337302
1861.95 2363114 2356250 2430008 2423290 2352560 2280438
1864.84 2335098 2272188 2447270 2322568 2265176 2486632
1867.73 2432084 2018850 2891712 2506922 1868300 2055178
1870.62 1894290 2028514 1867492 1793748 1441648 1467172
1873.52 1640230 1749188 1884518 2035020 2196656 2267190
1876.41 2327374 2484058 2629844 2613078 2622830 2634164
1879.30 2583176 2618546 2602666 2682220 2611286 2610360
1882.20 2634040 2691342 2611018 2599360 2547626 2531274
1885.09 2422392 2322784 2295650 2299356 2259924 2066822
1887.98 2081274 1951160 2348770 1981938 1535388 1636726
1890.87 1523164 1582060 1416040 1424708 1326520 1419426
1893.77 1328826 1365590 1481172 1367456 1235906 1244378
1896.66 1216148 1273362 1182198 1187446 1091470 1130212
1899.55 1094080 1099664 1073454 1174392 1190862 1374224
1902.44 1433722 1632826 1651676 1674750 1622916 1687190
1905.34 1634164 1759582 1595836 1640498 1607086 1671762
1908.23 1484548 1593418 1459462 1807980 1368472 1666830
1911.12 1469142 1672372 1525794 1571862 1475816 1531080
1914.02 1480606 1467058 1375428 1516228 1402028 1505232
1916.91 1290114 2117906 1730862 1283072 1411088 1276948
1919.80 1315344 1297224 1322008 1311320 1406236 1392092
1922.69 1505146 1401358 1396718 1402590 1317204 1403948
1925.59 1362130 1478890 1484814 1433196 1365526 1394538
1928.48 1448800 1492280 1476700 1461722 1419180 1458470
1931.37 1435462 1416674 1415988 1496938 1461944 1445580
1934.26 1432934 1412018 1426448 1447686 1466904 1492804
1937.16 1417770 1511220 1483856 1432332 1449500 1475158
1940.05 1427940 1436962 1497646 1573006 1915358 1717032
1942.94 1603868 1645850 1661396 1815922 1793468 1927228
1945.84 1942696 1998994 2008898 2157350 2135658 2209782
1948.73 2228006 2354016 2426734 2448380 2429758 2492140
1951.62 2505358 2657388 2636748 2832308 2766330 2858082
1954.51 3129284 3351150 3280186 3438880 3177898 3231158
1957.41 3370314 3428396 3466648 3602920 3641620 3820640
1960.30 3894872 3960772 4016814 4104044 4053582 4011426
1963.19 4089486 3963268 3947240 3866552 3683166 3609800
1966.08 3628162 3815990 3276328 3084206 3559268 3525560
1968.98 3295632 3052292 3105420 3840172 3111962 2840470
1971.87 2524178 2380218 2483444 2588328 2611738 2859654
1974.76 3063226 3305522 3294652 3402352 3362154 3428210
1977.66 3492318 3586216 3365624 3324908 3179668 3256996
1980.55 3148970 3105374 2980732 2834560 2734864 2694670
1983.44 2521448 2455164 2325262 2243012 2173666 2083996
1986.33 1916934 1850426 1669250 1731820 1721108 1582948
1989.23 1477796 1404774 1331622 1344906 1449766 1413774
1992.12 1118304 1084996 1065794 1111170 962516 980916
1995.01 802822 891566 866682 867324 784212 766916
1997.90 747314 804372 675460 711216 608760 692574
2000.80 647610 692238 602510 568734 605546 615586
2003.69 555402 570934 440526 541834 523758 554654
2006.58 503284 468418 442264 484654 420476 464326
2009.48 296454 348004 365330 372638 315720 316736
2012.37 241308 289188 233088 217878 225900 244776
2015.26 213306 189382 229654 228496 127804 226902
2018.15 159252 148476 106836 98574 64904 113328
2021.05 51930 83920 44866 110874 44356 81784
2023.94 25786 37504 2670 44286-28140 22114
2026.83-45936-6032 29552 24616-33640 86980
2029.72-6352 27466-1272 31752-15682 28676
2032.62-7174 64368-22600 5052-13788 54538
2035.51 20190 22920-32420-7206-100280-31786
2038.40-80798-7268 5062 17082-822 49386
2041.29-11736 47170-23408 8406-346 24924
2044.19-44166 14530 3870 74872 62692-25238
2047.08-25678-31322-43846-14898-41560 7558
2049.97-48166-43614-73260-18418-39300-35348
2052.87-83632-14606-73794-8952-42630-66868
2055.76-63742-17198-25036-62800-53418 9948
2058.65-54058 2156 20664-15886-37522 32566
2061.54-11278 10720-32196 41650-32916 20576
2064.44-204-7930 11958 9522-9748-5826
2067.33-11998-7358 62090 56778-37748 15394
2070.22-13282 24312-18714 44510 2308 106028
2073.11 70460 25420 24788 36406 18212 65672
2076.01 41754 60928 111126 129206 54104 108734
2078.90 25570 66438 34946 132102 52804 182950
2081.79 147664 32304 131182 116560 87368 91030
2084.69 104456 146738 204582 231546 123140 162142
2087.58 108498 237384 185076 196666 163514 372318
2090.47 292506 209984 217782 178528 247002 231364
2093.36 249118 268418 490428 313712 284066 339850
2096.26 305666 321266 290724 388598 392964 658778
2099.15 335738 369752 317816 344750 299434 353212
2102.04 260300 495074 479204 277560 287468 290852
2104.93 245066 226944 304600 256214 726876 308440
2107.83 175708 221658 242424 321366 317916 272188
2110.72 394140 678612 273088 396648 307058 441414
2113.61 315688 448906 324832 777506 498336 404126
2116.51 343336 439238 364212 436412 325920 511004
2119.40 586534 302074 384214 301838 308062 305470
2122.29 264286 294158 539090 228416 251980 229910
2125.18 264856 208740 206002 181074 478666 270054
2128.08 208494 215808 181692 179636 157830 168650
2130.97 324640 324226 144014 217804 123078 217452
2133.86 182072 205918 264232 328410 122490 248578
2136.75 146734 178938 161364 194240 187192 265234
2139.65 128220 196898 129894 231538 191332 191562
2142.54 189758 198938 160588 220464 196038 220450
2145.43 182364 215598 262610 283820 132240 225364
2148.33 203742 225186 226140 233916 354522 270324
2151.22 143370 262804 180250 268120 215668 284504
2154.11 452454 343914 209970 280936 221240 263352
2157.00 187530 370366 523004 323666 264014 336064
2159.90 314718 303958 243428 638594 500896 325186
2162.79 372708 334674 365992 353198 474602 769664
2165.68 407300 504898 421508 372632 447702 336290
2168.57 689370 574346 283760 486032 300558 424058
2171.47 366448 591126 698342 367604 424170 396500
2174.36 390226 381118 453638 855800 411944 372402
2177.25 369268 387558 411802 430542 720106 583278
2180.15 421178 502662 377814 417386 310270 646886
2183.04 579512 352994 439064 324256 451008 378810
2185.93 653866 678182 363542 480512 372292 541682
2188.82 438792 628946 570152 371090 486568 428572
2191.72 445362 415966 579714 511010 409436 496602
2194.61 407684 487882 388718 674524 498400 460528
2197.50 444636 493732 481322 518496 670454 511504
2200.39 518796 513694 449104 515066 476214 617914
2203.29 412914 510670 464506 468842 383700 496178
2206.18 440882 409794 382776 413596 409114 398602
2209.07 454408 378530 389556 428690 418412 459942
2211.97 516800 482250 401108 462530 410984 427498
2214.86 483648 496308 601368 567768 478592 512816
2217.75 467468 507146 456176 482604 424592 518048
2220.64 390202 478908 404906 436254 382588 441260
2223.54 396858 432034 442278 437384 377444 439594
2226.43 400124 483830 478532 405306 448320 451112
2229.32 409194 481228 437614 478342 463858 479360
2232.21 492722 562410 452006 564720 563924 565544
2235.11 483326 612386 567506 651880 602352 607424
2238.00 596314 652206 610382 708246 711320 701322
2240.89 714808 746892 733504 733726 635444 799244
2243.79 781242 834876 837714 831958 766774 845732
2246.68 887880 923360 976238 882672 865758 919392
2249.57 933290 1095936 967628 1011988 1054716 1118416
2252.46 1120504 1222350 1167694 1145812 1152732 1239062
2255.36 1362710 1344952 1193612 1298664 1293890 1383738
2258.25 1328204 1320378 1229128 1246938 1202980 1240330
2261.14 1207320 1243698 1166696 1210040 1160200 1186312
2264.03 1032386 1087478 952578 1020188 1010092 1088390
2266.93 996260 1136542 1098820 1221116 1182074 1256058
2269.82 1306192 1377248 1333600 1392868 1396892 1409784
2272.71 1352338 1375736 1277222 1257194 1262580 1365300
2275.61 1265394 1127458 1170512 1230542 1116232 1160838
2278.50 1025642 1063994 980124 1083690 1028552 972052
2281.39 903394 987710 957190 977846 851508 878188
2284.28 811044 944012 835848 793540 778648 847270
2287.18 809786 808122 784364 845338 705562 831968
2290.07 727772 714254 670218 762874 636082 654786
2292.96 615732 656486 630948 651104 539124 702330
2295.85 616554 716680 632850 653962 659080 769346
2298.75 643612 721034 637634 709636 662714 706844
2301.64 568200 744780 530720 616428 514768 652450
2304.53 542398 551558 466128 521192 597972 544666
2307.43 451296 469044 590404 616430 424962 525118
2310.32 580136 819782 387254 578642 407350 915574
2313.21 366684 570532 370722 1023492 404592 555730
2316.10 290202 1055394 610516 532370 235110 1118070
2319.00 706916 511058 298584 1130438 912078 408694
2321.89 333976 1186080 1015068 355606 362214 1273372
2324.78 1127086 268704 409450 1463142 1192138 154278
2327.67 598738 1710130 1073224 58418 826756 1844914
2330.57 916622 27272 1263442 1877288 548434 179616
2333.46 1726964 1601388 94916 616344 2038110 1036296
2336.35-46006 1299624 1890134 311902 382798 1808220
2339.24 1274392 44608 1096390 1758866 509410 387002
2342.14 1701334 990218 262834 1111138 1380696 371586
2345.03 651182 1099698 535036 315410 715270 536040
2347.92 314090 345144 336510 475300 395036 231166
2350.82 785158 686732 212814 1021758 1012940 79700
2353.71 1175302 1244946-12800 1340526 1558160-47894
2356.60 1573118 1627288-85146 1828216 1531306-63736
2359.49 2198328 1183668 115346 2465330 552714 584090
2362.39 2389674 19666 1398382 1767972-102882 2046414
2365.28 745244 450698 1979696-51342 1493922 953730
2368.17 195180 1624834 23674 1187726 630240 359662
2371.06 1170284-12250 1116988 170860 728108 416318
2373.96 354774 604164 148372 584384 142866 497392
2376.85 131892 417518 135504 294082 184682 245296
2379.74 178546 208578 175454 157504 183216 167774
2382.64 154460 217738 146134 196318 183240 140736
2385.53 145894 151892 155490 157968 170188 156122
2388.42 165242 168362 168770 190072 153604 175592
2391.31 123712 185042 203208 208214 168794 206122
2394.21 137530 267696 215478 236994 186454 193364
2397.10 199488 263266 181688 236212 233932 222446
2399.99 185702 231320 261806 266526 262118 305354
2402.88 298156 298168 250996 285092 249396 319408
2405.78 317278 360364 290514 322226 351290 340536
2408.67 303648 385500 367284 367202 387172 421566
2411.56 428292 378642 453588 369248 378934 424326
2414.46 385848 439992 388358 360812 454694 438264
2417.35 523766 397658 407476 418646 401602 490996
2420.24 416714 385902 429254 395696 411392 429516
2423.13 357226 422960 370876 377950 350410 372356
2426.03 403192 381846 371642 359372 446736 451358
2428.92 478962 475250 449892 477814 462092 483284
2431.81 465544 561696 459898 466276 485164 523114
2434.70 450440 511076 453440 455114 469128 463344
2437.60 462172 420842 438430 459128 430660 467862
2440.49 445256 427240 397010 475828 458240 453342
2443.38 440254 443696 439462 447416 423514 441440
2446.28 459022 413764 471482 506054 463508 491380
2449.17 467742 529456 548162 547664 513802 503374
2452.06 471082 521388 600966 580822 544590 557410
2454.95 530640 634064 640976 563902 564394 604968
2457.85 600440 658268 610662 578102 573856 660782
2460.74 657814 636186 647386 596098 682334 712816
2463.63 653128 671898 679186 725144 765798 744176
2466.52 677810 761608 838284 732546 826790 803424
2469.42 802758 882300 910308 846280 991252 930256
2472.31 964630 1080790 1002078 938912 1073522 1101158
2475.20 1252806 1232700 1171314 1250612 1263120 1461514
2478.10 1430174 1295784 1441998 1550006 1591868 1785748
2480.99 1632908 1712504 1741408 1759082 1924076 1796638
2483.88 1774782 1800642 1758784 1926608 1852806 1783716
2486.77 1760342 1761710 1763530 1748270 1595748 1595860
2489.67 1473530 1416398 1302090 1307722 1190084 1263744
2492.56 1255834 1393128 1415324 2088580 1626690 1170148
2495.45 1182540 1172346 1257032 1214072 1410510 1416680
2498.34 1517396 1628788 1641742 1689708 1795440 1858630
2501.24 1809550 1797096 1783070 1879698 1867886 1778718
2504.13 1693418 1617514 1723112 1674202 1416048 1392220
2507.02 1326106 1474804 1335380 1134562 1156354 1013188
2509.92 1157122 1003302 798386 838096 779546 867032
2512.81 787982 673628 569408 604446 666180 593466
2515.70 508784 543682 555448 510544 499440 435524
2518.59 514954 400328 424648 334782 473468 461634
2521.49 350474 386220 405770 463412 356574 357070
2524.38 333140 397522 456084 325632 315896 347782
2527.27 305188 426834 313774 302960 327172 330158
2530.16 360398 340986 337436 317850 349180 348886
2533.06 322328 286338 250276 273216 365848 273910
2535.95 237924 313324 263072 325940 297578 278516
2538.84 256554 282824 284648 282214 240642 312276
2541.74 219362 282166 250282 255000 259656 232970
2544.63 220556 191174 240116 207252 277742 271590
2547.52 229544 229288 249892 259122 268192 266798
2550.41 283166 244508 248190 277938 260230 306268
2553.31 292424 307590 284914 314332 315196 323646
2556.20 273980 339132 363766 340538 321732 386232
2559.09 331610 375166 361944 382516 387190 406326
2561.98 377392 387572 400038 388686 373522 308858
2564.88 380950 428062 471630 410744 397540 484446
2567.77 411804 483354 530542 542882 558154 589342
2570.66 617454 666774 608550 578074 621466 623934
2573.56 688246 662608 630824 716438 606328 629652
2576.45 646368 563982 540186 481010 498856 483686
2579.34 455708 386598 467174 401976 442092 465182
2582.23 504200 601266 564982 459992 416582 423268
2585.13 390718 489072 485688 508184 533652 539310
2588.02 539420 598044 516514 554980 577454 592684
2590.91 544898 534974 511450 506012 527900 506778
2593.80 512130 507084 492856 432352 390494 488054
2596.70 379284 367516 280488 323108 255740 323300
2599.59 224186 258162 170516 244822 194900 158288
2602.48 164234 158442 126024 172218 172682 169050
2605.37 115648 179690 172048 94664 168914 146976
2608.27 107398 144326 113354 54608 134084 117078
2611.16 122586 168236 115788 160214 112804 117648
2614.05 122346 124632 188676 114066 83482 122000
2616.95 168206 178774 118150 106760 166920 155914
2619.84 170824 142058 96778 138972 101462 190702
2622.73 169938 208544 160570 186460 184788 126896
2625.62 160722 156566 157428 205346 174076 213990
2628.52 205068 297312 212930 143590 204208 161568
2631.41 140996 183414 184804 222646 179972 213234
2634.30 188030 216006 176918 164504 198144 263670
2637.19 230696 254056 180570 193862 226880 204780
2640.09 189886 219876 185868 247000 217226 255180
2642.98 237246 248998 236334 220684 241722 225496
2645.87 261350 268110 190446 242542 205404 162752
2648.77 177298 214630 209998 205282 156568 216022
2651.66 243056 163682 148476 180620 141232 197550
2654.55 159036 149816 204112 220442 158514 186658
2657.44 141360 125196 167144 168442 204542 133398
2660.34 152588 129714 128068 185790 139614 189890
2663.23 161856 139160 203470 206392 164210 70878
2666.12 91592 173716 138220 117164 118494 113698
2669.01 93816 140704 115374 129462 149156 76462
2671.91 118610 103448 115584 49326 88518 97034
2674.80 123194 87722 79556 150828 111132 48532
2677.69 70820 94670 82560 120624 72012 55592
2680.59 80668 134470 56900 93268 90282 110648
2683.48 102012 134484 122488 167204 123426 179778
2686.37 73946 99318 105324 130378 105732 110546
2689.26 108060 151770 86392 138854 103384 179062
2692.16 127720 114506 120772 118962 173076 229674
2695.05 163038 161410 174918 206862 146664 159602
2697.94 181146 246058 184404 178570 223764 266738
2700.83 247928 241152 181580 180850 243068 217732
2703.73 204036 243206 205934 202264 252332 284336
2706.62 228402 270058 248184 270718 242464 244032
2709.51 239408 277630 215814 307324 260834 278462
2712.41 275946 309980 272134 347296 380502 352316
2715.30 413654 365736 354900 430096 433562 424336
2718.19 495872 429624 508672 453408 474712 465370
2721.08 468610 449826 482090 478154 441424 494424
2723.98 400850 412862 423558 362842 449618 387254
2726.87 358142 316644 334252 341402 293798 314892
2729.76 288732 319330 290922 270256 329318 363714
2732.65 212068 291836 342222 276692 288904 303894
2735.55 344466 511546 373086 448340 310474 308620
2738.44 307912 368394 342174 311450 318408 358550
2741.33 260716 328038 310200 281458 284936 270896
2744.23 283798 313378 319642 275792 283858 309458
2747.12 155052 218032 242176 207690 252198 284366
2750.01 195898 251634 160934 185810 223902 220618
2752.90 186798 231498 184708 194814 246388 212914
2755.80 201248 164320 221144 164388 216566 184990
2758.69 170574 107242 60164-15368 18208 161254
2761.58 229324 285728 232986 251318 216962 186990
2764.47 191134 196162 201284 167560 187276 164660
2767.37 166552 182024 285946 158524 198314 215154
2770.26 255062 151886 162474 204858 187166 150912
2773.15 207246 219926 220992 235508 240860 170156
2776.05 186528 296232 274430 269894 211896 243194
2778.94 193346 235794 250276 343168 224686 365842
2781.83 244276 354724 353282 366936 358744 354714
2784.72 391482 435548 374198 429002 377780 434562
2787.62 377996 398794 424674 409286 446486 363398
2790.51 397892 408842 442228 392514 444884 367850
2793.40 419084 387620 352366 347234 349610 424682
2796.29 411884 424252 435338 393730 513124 438960
2799.19 483634 477024 433698 436198 454894 460442
2802.08 448602 560734 502386 558028 557022 536698
2804.97 546738 574250 583204 590326 568230 566208
2807.87 503460 587958 557778 548770 548216 561794
2810.76 456094 482916 451492 392802 379320 356152
2813.65 398932 402186 363788 371202 371250 372036
2816.54 356220 395386 361970 425818 358732 347564
2819.44 366366 373524 349754 437306 408724 447792
2822.33 428542 496822 474112 452440 488108 453882
2825.22 435936 388250 524648 500694 519712 431928
2828.11 498426 551760 533078 567522 552378 476716
2831.01 541662 539658 623970 673672 683918 742932
2833.90 700778 760110 788750 803392 899916 902818
2836.79 936736 925906 958816 965924 974630 1067606
2839.69 1109072 1175510 1274032 1213892 1290746 1333102
2842.58 1298102 1497860 1453738 1483982 1586706 1643824
2845.47 1604324 1649238 1770308 1779412 1836644 1855400
2848.36 1820938 1895698 1846826 1907936 1950314 1978260
2851.26 1984866 1965610 1955024 2069606 1969768 2016922
2854.15 2071316 2184550 2139728 2180676 2212476 2183304
2857.04 2262632 2322446 2282322 2277014 2301430 2315004
2859.93 2375018 2366032 2416940 2427266 2447140 2478834
2862.83 2516378 2556722 2629008 2681752 2766898 2644622
2865.72 2722240 2644866 2680830 2765986 2786394 2785618
2868.61 2787274 2813258 2829730 2864266 2784090 2832608
2871.51 2884180 2950986 2902408 2848996 2851190 2917232
2874.40 2884194 2969086 2986226 3085172 3137994 3222424
2877.29 3357666 3368932 3567402 3609500 3690202 3916294
2880.18 3891250 3725782 3631976 3657868 3538150 3638876
2883.08 3657940 3636862 3728030 3709462 3801008 3871418
2885.97 3988258 4008042 4032158 3996842 4084174 4299450
2888.86 4369232 4361384 4485110 4534494 4757172 5228888
2891.75 5346206 5094024 4961116 4969008 4963672 5103058
2894.65 5153676 5002210 5063324 5005586 5088718 5159862
2897.54 5498192 5175136 5166920 5314232 5447820 5830142
2900.43 5926742 5566002 5579250 5499920 5639586 6180720
2903.32 6086282 5549146 5737286 5578510 6168924 6767128
2906.22 6107950 5872526 6132556 5989198 7010826 7093956
2909.11 6412764 6433638 6717586 6606112 7917296 7702628
2912.00 6778392 7138626 7072314 8126008 8845374 7828738
2914.90 8078498 8326808 9056728 10181430 9255854 8849146
2917.79 8721684 8634860 8766934 8784578 8752276 8664858
2920.68 8367008 8450826 8573824 8486596 8261852 8359174
2923.57 8358886 8581474 8513136 8574456 8781266 9026340
2926.47 9477598 9840366 10088890 10475910 10889370 10737260
2929.36 11131460 11415480 11297550 11491100 11771430 11736150
2932.25 11835800 12005460 12223580 12476620 12138560 12317110
2935.14 12584760 12609270 12629360 12216420 12351490 12580020
2938.04 13028690 12559660 12098370 12539610 12936160 13353840
2940.93 12820550 12565130 12922020 13433250 13974340 13328640
2943.82 13515900 13913910 14682680 14490610 13717580 14136070
2946.72 14543390 15660020 15122310 15034870 15456640 15933710
2949.61 17232100 16641670 16119500 16781430 18152300 18461070
2952.50 18040270 17113090 17401430 17902520 18738390 18263370
2955.39 17878650 18298100 18541490 19840920 19807620 19341970
2958.29 19741870 19729790 21655140 21594920 20742640 22011060
2961.18 21993680 23455540 24737210 23729680 25389560 26225450
2964.07 28006840 30506030 29532420 31494600 32934060 34941420
2966.96 38188840 36483840 36384050 37190840 35799110 39383580
2969.86 40133640 39363600 41425260 39551210 42866830 45471200
2972.75 44592120 46361050 45793880 45700920 47277980 47743020
2975.64 48778190 48463800 47439340 46408200 46357670 46633840
2978.54 47062350 45859920 43751960 42145030 42863710 41158280
2981.43 41561330 40731120 39393320 39987000 48818280 46873510
2984.32 41390530 42744130 41943440 42542040 42852660 47046870
2987.21 49433760 50825060 52878200 54069740 55466440 58594660
2990.11 60104560 57783410 59231550 60791660 66508660 63838220
2993.00 59646620 61446080 63168500 65940200 62150620 59688160
2995.89 60825390 64395940 67005100 66418220 62559720 64001670
2998.78 65068240 67782780 66725500 62621790 63370420 65361320
3001.68 68010360 65273950 61308060 61959340 61344300 62978450
3004.57 61993980 57288070 58511100 58445260 57650050 55194660
3007.46 51443100 50758230 50976120 52793220 51605330 49317820
3010.36 52514980 54384390 49569020 46635290 45262510 46802350
3013.25 48889200 52980940 52931600 53433300 54248420 55801530
3016.14 56144160 55399540 58026240 57605320 56890420 58918540
3019.03 60263840 58090520 59066710 57879040 59950950 61042040
3021.93 57864650 57715010 56318100 58721240 59275960 54623800
3024.82 54965400 53253000 55179740 53934950 51468650 52191540
3027.71 49225020 50259850 50596670 48401670 46253780 45580810
3030.60 49464220 46483270 45371250 46992730 47352610 48808920
3033.50 49687920 49196440 50398650 51044640 54167010 51992650
3036.39 50431560 55336060 58257540 57030890 56210580 56823100
3039.28 59767760 64562940 61059610 61611120 61422180 62804500
3042.18 65680560 63557780 64129110 66238390 62602360 64202980
3045.07 63852900 63309850 66315120 62284970 58971160 61150920
3047.96 59593370 61119250 58499130 53585950 54930860 54665570
3050.85 51240010 51769910 49419040 48791330 47918610 49141640
3053.75 52968720 53843450 53823320 49613860 47939890 48879960
3056.64 55146130 54667910 52803160 57922330 58836440 61134040
3059.53 65090930 65687610 65515340 65353320 66800160 73556370
3062.42 76120980 69667080 70397980 71022310 75211640 77516750
3065.32 70298060 72191080 72308380 70749460 74805780 70762520
3068.21 68734470 71734550 67168450 68617690 68436940 67421260
3071.10 69555550 67749840 65521600 66087650 66066410 68772760
3074.00 66077530 65311790 65317600 70779700 69263420 68490140
3076.89 68170650 69275590 70491530 75548820 75496910 68241530
3079.78 73410540 75646340 83046280 87214580 78847800 78518410
3082.67 81408750 86543150 98968430 94112300 87012610 90145690
3085.57 93955230 106004900 110163400 99494880 97658820 99359290
3088.46 105647400 116244200 103186100 99951680 102606600 102406800
3091.35 109264400 99841680 92391240 92319110 90354350 88736200
3094.24 82294490 79612970 76250890 68712420 67672220 72485000
3097.14 71974610 73833580 69610000 63638330 61679190 63424580
3100.03 78989500 63211500 60558710 62815580 67183020 68850320
3102.92 78464590 85451580 85535710 89259280 97001530 98264720
3105.82 101836300 104938700 99824030 100366900 103627000 105251800
3108.71 107811500 96739500 93807260 98900340 97483670 97605580
3111.60 86091180 80038910 84421480 83847950 82975340 74462500
3114.49 64290530 66687150 68204140 69024090 62022520 51863580
3117.39 54499360 55349640 58685860 54430220 43527170 44425060
3120.28 46981800 42684080 48350700 42615560 36419780 40583680
3123.17 39051060 43636050 36104890 33505190 34368690 35149280
3126.06 37723830 31702550 31104570 31123440 32411040 33062480
3128.96 29747050 27503410 28352940 28313390 27965920 26589310
3131.85 25549420 26531720 24493290 23811250 23350620 26207030
3134.74 21015270 21617480 20139060 22126120 22342820 17634980
3137.64 19612500 17434330 19190300 18825570 16356280 16236810
3140.53 15762540 16842040 14649220 15156090 14570620 13638200
3143.42 12591200 13772350 13119070 11555000 11942090 11345490
3146.31 11226110 10233000 11039120 9974814 9397766 8883612
3149.21 8910536 9119118 8270204 7810662 7431188 7381484
3152.10 7478576 6757888 6659702 6044602 6363630 5906360
3154.99 5612832 5292854 5095688 5000958 5052654 4415732
3157.88 4351684 4115384 4268694 3867660 3595882 3491204
3160.78 3312838 3386008 3286994 2990702 2916196 2603112
3163.67 2761986 2631988 2347302 2274556 2106142 2181944
3166.56 1985166 1983216 1957486 1856022 1722676 1591322
3169.46 1575584 1502274 1707890 1504644 1250166 1220432
3172.35 1167482 1346480 1418572 987848 957136 897164
3175.24 866580 862378 764788 668892 654790 678542
3178.13 669152 494272 641242 457550 514890 454808
3181.03 501960 454954 487506 440082 522068 403420
3183.92 470622 466044 460186 491018 449582 422296
3186.81 454080 495150 513836 373030 307758 290280
3189.70 339296 323486 284768 182456-2998-62
3192.60 256558 338554 347176 238578 201784 329732
3195.49 339096 303664 327028 233466 337012 218720
3198.38 130072 84110 108768-19972 48746 145912
3201.27 208700 125468 71056 133830 89804 58426
3204.17-38106-34148-26752 77626-26300-8886
3207.06 81078 124550 55020 25058 88864 50486
3209.95 156560 106618 174854 108728 251438 161184
3212.85 136680 205164 286520 138002 300144 247578
3215.74 329896 334968 392942 407986 398832 418842
3218.63 398918 549152 489878 591476 436800 611118
3221.52 701680 620562 477900 645994 634220 692038
3224.42 716048 578962 670286 672688 757650 638778
3227.31 680970 626792 623160 536492 633424 681710
3230.20 584610 641190 583224 660952 623202 709670
3233.09 776134 881236 930756 1076764 999578 1014658
3235.99 891472 795740 878634 921432 982238 1075218
3238.88 997956 983918 921694 1127922 998858 992890
3241.77 1071910 1011424 1047290 932954 916660 958364
3244.67 993910 781446 847208 757926 732766 777820
3247.56 656544 717730 573242 650766 563582 548382
3250.45 562368 538370 490482 540792 417558 456966
3253.34 391604 440362 360624 321368 403496 306108
3256.24 370176 561898 300034 322676 248954 322412
3259.13 333020 357410 386696 323238 292978 267604
3262.02 393724 368810 303666 308530 360028 328726
3264.91 374824 231360 357154 351774 268246 255946
3267.81 340348 176424 258886 261992 318048 254798
3270.70 164906 239090 228528 209722 189632 263326
3273.59 220050 106270 187008 147822 138384 192952
3276.49 170602 126786 266670 119702 175308 158088
3279.38 132806 143798 133556 55308 126540 78342
3282.27 114758 131842 92762 112228 37232 71846
3285.16 138876 55116 116452 174366 114694 95210
3288.06 173516 108948 221572 108904 101408 165460
3290.95 40008 32416 150576 123778 137268 142574
3293.84 170884 181628 148314 139552 178908 251898
3296.73 200358 81712 253928 254868 242974 259064
3299.63 257736 213780 289130 261082 267152 203646
3302.52 199528 256754 280794 128790 128768 316356
3305.41 136134 190258 222282 336986 225700 208792
3308.31 223504 248182 260410 232540 258116 293836
3311.20 246152 179916 237072 208450 303114 196790
3314.09 374648 303356 291008 302230 295280 252548
3316.98 291434 289550 273820 300100 306852 305276
3319.88 263162 266582 313988 252790 248628 236944
3322.77 286034 288584 236908 169714 164284 231492
3325.66 225182 150272 245872 271370 275752 196776
3328.55 188294 114576 140472 213286 204466 188354
3331.45 42110 239912 164382 22964 77470 121162
3334.34 195246 239420 125932 100502 129498 49738
3337.23 33650 89172 140290 154774 64020 99962
3340.13 54838 87030 154912 73456 88114 166724
3343.02 135122 107436 144892 93520 55100 4414
3345.91 114432-32550 100892-23304 226202 11314
3348.80 124556 108516 30206 92194-46598 63898
3351.70 68904 128622 137446 179094 44816 21612
3354.59 72144 96098 146156 64108 93392 84974
3357.48 105536 95326 145326 115136 50340 135764
3360.37 54834 199900 167594 124462 107994 119750
3363.27 106364 64290 185642 157588 163174 115024
3366.16 156812 88138 92996 155564 26246 129638
3369.05 73912 129384 135402 252996 131652 199062
3371.95 344860 305116 319204 184488 262282 213060
3374.84 217092 186866 247122 289202 286290 219522
3377.73 355580 342178 265220 323338 318278 347188
3380.62 436884 373572 440742 281222 446190 306228
3383.52 400650 455588 347722 550684 532000 582410
3386.41 528770 554962 635148 513018 601754 621856
3389.30 652926 640834 614012 653896 557790 710504
3392.19 753102 680118 690822 725390 678088 677244
3395.09 560224 514180 524864 683704 611992 494990
3397.98 655766 445060 529746 533046 668124 573156
3400.87 546042 636578 679012 667632 605870 738610
3403.77 754732 630410 699260 796572 681156 631662
3406.66 773704 697104 717226 698156 692472 663584
3409.55 576334 685554 664596 639904 683732 623474
3412.44 555574 562984 507452 473726 504590 281728
3415.34 390984 361970 415446 410688 527908 453416
3418.23 366926 395332 433458 357606 427160 314550
3421.12 265248 388814 255310 359636 236922 203632
3424.01 187644 297504 187076 214776 155806 216534
3426.91 282942 191930 302190 200728 191414 138602
3429.80 173438 170598 136554 221414 188102 238850
3432.69 164066 273316 156902 69324 183400 259660
3435.59 203998 222342 235650 245006 173226 287286
3438.48 288592 317980 342454 299266 362210 403886
3441.37 293078 433666 460972 307014 476764 278408
3444.26 404586 364662 273310 439310 370040 576914
3447.16 352084 359026 405684 397892 320190 273788
3450.05 326840 280526 359026 276850 282542 200504
3452.94 319306 359434 80212 212408 298990 175774
3455.83 317772 240334 212278 322074 313176 325894
3458.73 260988 358498 531586 316010 378344 313256
3461.62 398194 334328 397394 298420 454368 338678
3464.51 408438 359092 281724 253722 403448 480850
3467.40 390092 329918 261986 334416 312890 314488
3470.30 251472 280344 258892 213932 227698 167170
3473.19 196854 248922 248568 162352 184584 155284
3476.08 97704 112712 160760 204210 187454 159598
3478.98 183520 192348 190276 231330 163916 233444
3481.87 328242 216124 101004 133532 201900 68030
3484.76 239238 178964 189234 183620 91024 168772
3487.65 271520 157286 303484 180798 249400 220676
3490.55 224628 205642 150496 110304 183866 213448
3493.44 139932 129398 224374 257840 240570 214130
3496.33 279400 169084 152096 230668 211052 243142
3499.22 248356 332170 239502 315090 259516 291964
3502.12 284112 391280 316300 317226 346044 252528
3505.01 246272 232784 341876 251590 233896 184514
3507.90 225756 346620 378934 388196 317488 243120
3510.80 265688 340790 235528 281226 294394 277608
3513.69 209558 255464 324646 303000 301812 246574
3516.58 382590 276408 325714 237600 386940 191654
3519.47 281748 273016 317612 308478 340344 327082
3522.37 378172 291616 242936 285698 365610 308914
3525.26 319036 270304 367252 462802 413318 339992
3528.15 420866 515702 357082 259716 371262 380198
3531.04 400588 385222 307440 428440 345556 395826
3533.94 354186 287812 354964 218198 451688 420838
3536.83 234682 393232 293610 370276 273560 240838
3539.72 351824 269874 210030 271604 222690 198070
3542.62 317660 330418 302924 189710 409760 525224
3545.51 306448 243126 553784 414944 344636 292868
3548.40 272360 405524 330826 372234 341146 300266
3551.29 351468 519230 330770 321546 511828 355660
3554.19 374256 349676 280550 436488 297630 264488
3557.08 208830 358532 259188 254240 251094 389456
3559.97 335760 274516 339382 293488 361146 219316
3562.86 336950 384164 296750 297024 278590 629398
3565.76 510730 769284 320054 574858 1163470 368000
3568.65 340638 281796 282964 279650 283510 221254
3571.54 338292 277902 354350 300772 315904 238726
3574.44 410722 364420 315780 258788 423076 331420
3577.33 403122 337382 393314 293052 410160 303642
3580.22 353036 377672 191982 347414 432350 294228
3583.11 444008 423644 385308 229738 498686 371270
3586.01 1319194 774610 504552 362400 967098 1395862
3588.90 219176 584912 354110 507578 353204 481546
3591.79 346532 566416 769230 541128 527704 430252
3594.68 903942 772096 502898 717952 486156 645572
3597.58 687342 742632 502054 701882 729752 596584
3600.47 891554 653722 525634 692942 696928 677730
3603.36 497756 661054 647548 703028 570166 437134
3606.26 853340 1080776 560994 823760 411216 2179352
3609.15 1121640 477622 797326 369850 556036 491494
3612.04 1591762 815768 612424 546820 972794 744866
3614.93 689888 505100 800216 521830 971970 1241936
3617.83 869558 720412 1300390 2081176 524266 829700
3620.72 836106 816886 632630 865174 677284 588316
3623.61 545852 594882 712976 528296 540452 524654
3626.50 348292 406580 831412 2601368 209810 2450532
3629.40 1935924 173202 632266 129858 514648 253584
3632.29 511712 117002 835154 433018 228036 183004
3635.18 263750 159672 149256 95768 201624 230966
3638.08 165640 256288 422572 460034 593760 369298
3640.97 559398 434686 509852 296652 325512 153340
3643.86 295262 184328 385148 76220 464438 417884
3646.75 1445264 829012 452244 137344 2897690 1424060
3649.65 39000 1133270 872282 1047582-44628 247996
3652.54-29368 294352-15960 107946 102760 31136
3655.43 558830 2034652-86474 124470-79432 246772
3658.32-54250 75906-18894 123888 50310 81502
3661.22 63956 65446 16926 100028 21414 135228
3664.11-5082 52672 24618 14292-7936 65976
3667.00 182012 3914 671928 1192180 165504 134834
3669.90 1107610 3649584-152320 439762-335238 324586
3672.79-275142 535958-37604 1726102 1098368 1361300
3675.68 3132630-144672 468902 151426 117548-30596
3678.57 187040 617378 71472 175550-25722 129636
3681.47-20582 162786 14076 177402-19086 162544
3684.36 22496 184798-184292 285146-169146 636076
3687.25-287416 2999326 3060724-170450 368134 51312
3690.14 344692 974082 1081664-111648 240500-89502
3693.04 226786-15874 231822-44594 161298 64722
3695.93 287896 99496 130810 72550 172440 88126
3698.82 154494 123030 155596 37836 134316 1144156
3701.72 528298 60994 215068 144542 113964 31328
3704.61 191298 49136 210064 46958 148482-37588
3707.50 202596 8026 465982 1349440 343012-47774
3710.39 443900 110892 1233412 2632982 90816 225144
3713.29 16348 139074 289836 180828 24944 126064
3716.18 29656 86926 120084 78064 159006 468536
3719.07 50326 173236 56960 139988 46714 546390
3721.96 626456 184034 119484 43620 105334 293776
3724.86 265246 56696 512486 930916-43066 226578
3727.75 71818 153050-31194 203400 118350 71036
3730.64 192616 252018 2461926 947804-24288 331924
3733.54 33302 942632 919620 1166942-82668 1320146
3736.43 2061998-198262 242908 447670 245944 84826
3739.32 210176 119896 263974 445138 235502-49914
3742.21 262244 54364 779782 2159988 5641716 2103064
3745.11 112982 174016 74130 285470 252770 341832
3748.00 45822 1262200 4274822 786758 99800 459118
3750.89-19228 1763380 4638824 172696 435728-36130
3753.78 189186-135818 174392 16010 312816 641994
3756.68 99850 89586 167292 141064 204502 665250
3759.57 1032504-97776 241436 36640 233030-31986
3762.46 128604 41528 154286-4772 107866 258668
3765.35 1083702 19714 172610-118708 86154-59276
3768.25 265402-64490 1198492 920242-4914 180878
3771.14 70658 34092 28160 83044 86908 58922
3774.03 148870-27740 93466-8974 130920 85152
3776.93 67724 13990 149446 29166 773558 561216
3779.82 21468 59618 3554 138078 37640 111798
3782.71 26826 43038 160290 350752 154490 112076
3785.60 118958 191258 39278 63310 53330 115026
3788.50 2708 127944 51064 116634 81982 108408
3791.39 132526 127124 26142 144982 74868 161610
3794.28 17286 157112-20394 878938 731868 85978
3797.17 202904 285646 30948 251768 140436 420598
3800.07 89146 1457464 4189850 291130 260454 520618
3802.96 257572 186770 147948 216470 68586 374672
3805.85 74248 2281354 1949454-191098 397138-137816
3808.75 293212 30384 220994-42898 347752-26316
3811.64 326382-43034 328494-9560 357870-49568
3814.53 551766 13774 4117720 1951126-212776 351090
3817.42 33196 366494 123020 329222 292836 671068
3820.32 1860656 585396 2176832 478798 108072 394438
3823.21 154564 239970 248834 142222 307248 131672
3826.10 718642 615096 163502 356922 145638 256660
3828.99 246790 228728 269968 229476 772142 1335070
3831.89-80914 492078-16514 533650-120734 1527256
3834.78 950258 328056 126164 670342-158398 3644222
3837.67 3156452-224466 598214 180814 968030 155774
3840.57 1425866 212416 310904 261182 481458 686490
3843.46 1075650 154988 480564 182070 432940 160250
3846.35 406728 198470 559652 223656 501670 336192
3849.24 811092 248344 525626 168644 1346586 3953882
3852.14 556544 714754 1337326 5212836 4041520 181926
3855.03 538886 234936 407354 585868 772534 191752
3857.92 485192 299706 407420 264040 526778 349540
3860.81 437690 1174396 672344 263466 562760 354520
3863.71 743394 599636 2242794 441258 635170 234804
3866.60 586688 232748 673036 85974 1363442 591806
3869.49 2675122 1885180 84324 744534 333602 600832
3872.39 260114 719662 672190 1333394 650808 455150
3875.28 499122 367954 371606 394698 513404 513878
3878.17 394924 580920 568968 1504176 1060230 658920
3881.06 547164 318340 478610 399068 769756 322444
3883.96 674296 234142 1754406 2425714 645798 573898
3886.85 437608 484760 509690 421158 508094 436534
3889.74 604782 379558 1973520 1104698 432364 699672
3892.63 436888 346508 556260 422160 364866 473408
3895.53 306650 366802 363178 515170 517340 527152
3898.42 626226 1804422 675400 447822 506104 491150
3901.31 2009974 875490 564858 581334 650422 2230844
3904.21 738368 426258 572770 794256 484840 400612
3907.10 461152 443264 463428 513360 465552 455560
3909.99 400828 428904 402224 436856 440392 394458
3912.88 424992 419658 388006 376356 378178 323724
3915.78 607842 455332 1098914 704658 296152 484058
3918.67 408364 457484 933474 423282 387708 463132
3921.56 368892 456978 392546 508114 520398 475314
3924.45 782116 723620 340886 417916 458652 550782
3927.35 402864 497916 516816 588968 531862 545900
3930.24 608816 524026 416742 754546 917806 376240
3933.13 449244 544402 566602 494076 467414 534822
3936.03 542402 347550 409772 550626 518016 474212
3938.92 451944 492864 389788 487960 545978 386510
3941.81 570546 830494 559412 487080 509684 489700
3944.70 561422 549548 591458 500300 559170 658400
3947.60 714508 612698 791766 510436 442562 532392
3950.49 560608 564804 576304 454996 661284 679348
3953.38 664724 568096 603940 577128 659974 540062
3956.27 737528 648376 593122 650180 574770 635160
3959.17 699230 689540 777314 726612 822148 843404
3962.06 658424 820178 775388 895690 872464 942264
3964.95 907504 924246 982730 935956 1053000 1153566
3967.85 1018850 1214998 1266858 1188826 1358250 1350230
3970.74 1322448 1357848 1457492 1499584 1556906 1558402
3973.63 1553828 1596426 1535968
##END=
