##TITLE=Acrylonitrile
##JCAMP-DX=4.24
##DATA TYPE=INFRARED SPECTRUM
##CLASS=IUPAC A
##ORIGIN=NIST, Anayltical Chemistry Division, 301-975-3108
##OWNER=COPYRIGHT (C) 1998 by the U.S. Secretary of Commerce
##DATE=98/10/1
##$SPECTRA VERSION=1.00
##$UNCERTAINTY IN Y=2.0 % relative (B=1.0E-04,C=6.4E-09,D=2.7E-14)
##CAS NAME=Nitrile-Propenoic Acid
##CAS REGISTRY NO=107-13-1
##MOLFORM=C H2: C H C N
##MP=-83.5 C
##BP=77.5 C
##$NIST SOURCE=QUANT-IR
##SPECTROMETER/DATA SYSTEM=IFS66V (Bruker)
##INSTRUMENT PARAMETERS=KBr Beam splitter; MCT Detector; Multipass cell
##STATE=gas
##SAMPLE DESCRIPTION=Acrylonitrile Primary Gas Standard
##PRESSURE=101.3 kPa
##TEMPERATURE=23 C
##SAMPLING PROCEDURE=1 L/min Flow
##RESOLUTION=0.9640
##DATA PROCESSING=Happ Genzel Apodization
##XUNITS=cm-1
##YUNITS=(micromol/mol)-1m-1 (base 10)
##XFACTOR=1.0
##YFACTOR=2.2737E-13
##DELTAX=0.4820
##FIRSTX=575.169
##LASTX=3975.077
##FIRSTY=2.65E-07
##MAXX=3974.59
##MINX=575.17
##MAXY=.0004018
##MINY=-1.95E-07
##NPOINTS=7053
##XYDATA=(X++(Y..Y))
575.17 1166214 1854624 2353252 1968746 2682114 2252076
577.58 1342574 1993232 2195574 1339620-101594-397644
580.47-27992-114126-15630 1201016 2046590 1836714
583.37 1141526 1025196 1380540 909958 370198 610722
586.26 1652138 1298282 1624182 828756-78350-32644
589.15 348212 452414 1696046 2984270 2120646 1632060
592.04 1933376 1706010 1949382 2061714 1515806 208166
594.94-642124-1534 1364324 1530924 1406650 2282162
597.83 1793180 526126 688010 1207420 1737998 1787646
600.72 1646598 1224670 952958 928050 1324678 1715098
603.61 1653080 1123174 1650168 2743848 2501450 1833764
606.51 1622318 2058824 2278162 1666752 1926658 2285970
609.40 2517120 2954604 2997494 2550004 2880804 3325526
612.29 3676550 3331054 3268268 3569270 4137968 4159316
615.18 4010820 3824402 4384436 4737200 4806530 5024878
618.08 5038618 4669186 5234990 6124636 6001056 5871310
620.97 6325346 6929110 8058726 8263364 8252740 8933848
623.86 9644944 9663142 10083800 9990396 10125540 10807890
626.76 11697720 12195250 12547370 13153350 13736130 14214170
629.65 14833000 15620180 16621360 17058850 17122140 17194560
632.54 18248610 19032440 19591620 20886690 22162370 21815450
635.43 22494850 24431290 26119850 25781520 26625940 28328520
638.33 29696750 29145160 29293730 31484040 35818670 36116550
641.22 34941000 35560920 40077090 44912360 42802680 41077440
644.11 41762190 49130050 53079760 50500840 48525980 49876310
647.00 59256400 63602680 59975480 56633580 57528100 68982210
649.90 75195940 69847420 65028440 64620020 77730100 88836680
652.79 81210540 72835470 69815480 81258740 99813320 93924330
655.68 78305340 71451720 77544910 103079800 110012900 89316050
658.58 75864790 73247590 95083780 121778000 105874200 80601420
661.47 72046680 78053270 110397400 119863900 92709220 76420960
664.36 71058350 87771130 123592600 119630800 88340030 74659020
667.25 73724550 98102040 125703500 106160400 81114340 76100760
670.15 80326760 103022000 112940300 93206360 81636660 83167780
673.04 89711110 98815870 97859280 88564980 87264340 92954920
675.93 98844160 101243800 104590000 114305500 126721600 139522800
678.82 160444800 189918600 206394800 216244700 260570600 354122300
681.72 400171900 301732700 193917700 146048900 122715300 108026200
684.61 96583130 88980640 84686510 81558350 81214600 81082790
687.50 76967650 74325410 80202470 84927790 78949700 75359890
690.40 75180360 73402410 81199590 97568420 95649380 76791070
693.29 74845570 73792800 75664010 94586610 114406600 93866660
696.18 71739700 72930610 74547460 80221070 105531000 115125100
699.07 83011760 67241020 70279140 74315290 84038930 109578200
701.97 106779300 74470220 65243610 67329140 73308250 86363020
704.86 107603100 95483600 66883940 60960570 62553500 68573860
707.75 84535630 101110600 83814370 59919960 55683770 57196140
710.64 63529260 80478780 92091010 72711340 52793490 48742840
713.54 49812050 55772840 72963780 81583520 63002370 46523670
716.43 43026030 43359000 47762050 63562870 72417580 56152320
719.32 41415840 37708150 37300610 39038400 52224520 61591110
722.22 49335120 37349300 33857560 32818740 33136950 41813310
725.11 51429370 44187340 33579680 29653420 28726430 27829990
728.00 32308270 40986250 38223500 29742190 26108150 25035920
730.89 25128350 27130780 32767020 32457350 26305370 22804230
733.79 21517280 20624060 21131310 24756560 26472210 22669220
736.68 19433890 18160510 17421420 16879870 18726840 20839420
739.57 19469570 16692240 15212870 14553440 14211890 14469560
742.46 16217370 16000520 13941000 12527940 11989700 11713790
745.36 11731670 12144630 12942040 12134290 10691580 10017430
748.25 9699080 9275968 9070784 9460316 10064180 9845692
751.14 8920372 7979184 7573788 7255416 7351528 7902498
754.04 8114092 7557548 7123672 6741074 6659924 6512426
756.93 6679442 6921788 7515408 8048872 8234086 7938038
759.82 7249746 6636756 6731770 7126636 7623258 7800752
762.71 7881162 7503026 7298622 7155718 7772308 8181138
765.61 8787700 9472472 9904090 10086350 10569760 10811370
768.50 11266180 12109410 13543400 14647990 15123980 15427170
771.39 16249820 17102330 18209030 18933040 19413880 19821710
774.28 20368490 20961720 21748570 22200040 22369560 22393170
777.18 22242190 22018820 22398420 22345180 21737480 21015160
780.07 20169990 19376950 19254170 18770790 18115780 17273020
782.96 16649380 15922340 15324220 14832430 14450710 13120000
785.86 11791150 10908910 9818960 8544090 8417058 9251628
788.75 10566600 11602270 12781530 14142770 15667070 16459530
791.64 17014090 17487120 18309250 18628180 18970100 19070510
794.53 19016170 18967840 18541400 18116360 17922040 17282190
797.43 16772710 16239960 15506860 14567820 13727840 13005970
800.32 12639120 11764330 10936370 10171900 9653550 8828022
803.21 7916294 7220142 6836714 6402196 5924290 5095570
806.10 4526740 4157800 4012758 3747246 3375786 2685330
809.00 2562852 2474202 2154432 1660936 1891856 1878090
811.89 1543124 1038716 1150618 1380084 1304150 979304
814.78 889884 533954 411928 568992 1135146 1176246
817.68 876336 820366 963084 772488 586578 365976
820.57 251712 345668 969416 1099330 1021020 561694
823.46 552600 633596 696000 601582 569630 397260
826.35 678330 725348 684128 121750 8378 133714
829.25 408220 424168 637738 651520 659432 613290
832.14 701016 512558 652992 593784 833278 670376
835.03 579210 593120 803654 915610 1204952 1390114
837.92 1687032 1384288 1590918 1975114 2263098 2308502
840.82 2577492 2708472 3165816 3179694 3652042 4023222
843.71 4645854 5175488 5816050 6423054 7091318 7607834
846.60 8494364 9112586 10101590 10974310 12121170 13071190
849.50 13898650 14943550 16568420 17951440 19314740 20254990
852.39 21537160 22929890 24679660 26089940 27476070 28708290
855.28 30240190 31550740 32867540 34041140 35058810 35880210
858.17 36869560 37334670 37851840 38171560 38179560 37611510
861.07 37161880 36595600 35741520 34144130 32584470 30965310
863.96 29328430 27192350 25181900 22909670 21408060 20158840
866.85 19145350 20429390 34560230 50016810 34440930 18842660
869.74 19700390 23878490 25242520 21105400 19396830 21228040
872.64 23421440 24311290 25678000 27259540 29304430 30923190
875.53 32831310 34306660 35609580 36287630 37297330 37948950
878.42 38544540 38398980 38189350 37607360 37396170 36687860
881.31 36005240 34923230 34019060 33129200 33095270 32452800
884.21 31122040 29784260 28948590 28283800 29305460 29889530
887.10 28871230 27653330 27332200 26849480 28335000 31116740
889.99 31491160 29734330 28968360 28779910 30717240 34832980
892.89 37847880 36428440 34972560 34167460 35834470 41262600
895.78 47608060 47369940 45140480 42841620 43349960 48246380
898.67 58098890 60316960 56836780 54062080 53453400 57316930
901.56 68412070 75677740 72101420 68153580 67236970 69153990
904.46 79441820 92314290 91666820 84323440 82256180 83402290
907.35 91903020 108935800 116150300 107224600 100679400 99682500
910.24 109520700 125195800 141023500 137421200 124734200 117755100
913.13 119717000 136071600 163473300 173425200 156812500 140746700
916.03 136720700 148998400 178715800 210275900 201776000 174922400
918.92 160079200 164538200 185153700 230047200 251741700 222305100
921.81 192682200 184697500 196843300 232890500 288688500 283592800
924.71 242602700 214122600 215797200 232439000 295977000 334510800
927.60 300348000 257345400 238998900 242451100 282243200 366491400
930.49 361975200 311393100 280236700 272335000 277156900 356045100
933.38 415286800 357162300 311770700 299147600 289102100 317828200
936.28 425006900 415349300 338920000 322467500 329744800 315819300
939.17 388805600 442935700 370772800 326486800 357570500 360005300
942.06 364362300 421819500 390997200 348674900 390188900 444020700
944.95 417928300 413426900 400215200 373879700 410864200 526061600
947.85 568398100 472910600 416624400 388631500 399989200 486014000
950.74 574330900 537233600 550494600 710844700 1262495000 1767449000
953.63 1386367000 873899700 617018600 500355300 451666600 439749600
956.53 483640000 513395300 433517200 390805400 406253800 396708800
959.42 395186800 452044800 470077500 446689600 446777000 436188100
962.31 404066800 448502100 541305800 511498500 431491700 395814300
965.20 384798200 471760400 587166500 524596600 433370000 439908200
968.10 497123400 650991900 794631600 797825600 924673400 1186522000
970.99 1037571000 773805500 683600400 537503400 435775300 405768800
973.88 431990600 533498800 552911800 442528200 374171700 357418400
976.77 407022300 507670500 508119500 414709500 354167700 349036100
979.67 427725600 506050100 491528400 414298000 342476700 354213300
982.56 441355600 478789000 459351200 395234000 329355100 368002000
985.45 435282900 433237100 423666900 379083800 337342300 370247700
988.35 386516900 379745200 393222100 362646000 342557300 351026500
991.24 332260500 349593200 376279100 354451200 323516700 298981200
994.13 295806400 334400600 360944700 321861500 270866200 265202100
997.02 288046000 331408400 324521500 261613400 241218800 256090000
999.92 286208300 300264600 254545300 222345300 231503200 249054900
1002.81 262810700 241862400 208501000 208247700 219285900 224655400
1005.70 217782800 192589000 180440000 188502900 188623700 188154600
1008.59 172767400 156763400 158683500 159057500 159188800 151795000
1011.49 136007100 132066400 132102000 135556400 134990000 120969300
1014.38 112503300 113529400 117602600 120216800 108712900 101426700
1017.27 100338300 100945100 102109900 95380560 88831780 88276240
1020.17 88287240 86162060 80016480 77239800 75178780 74350500
1023.06 71803890 66948190 65013270 63874320 61786120 58239640
1025.95 53945320 52682300 51767060 50868650 46828260 43198090
1028.84 41788300 41723700 39490920 35820380 33819110 33307090
1031.74 32397070 30333380 27623010 26547000 25776720 24790380
1034.63 22777560 21547410 20680570 19840390 18201590 17451670
1037.52 16621410 16039430 15005700 14182780 13588630 13182000
1040.41 12164250 11383280 10888940 10763650 10193980 9677134
1043.31 9077884 8947484 8539012 8332640 8008920 7732708
1046.20 7194874 7182304 6863404 6481492 6212944 6330770
1049.09 6126252 6060540 5730594 5755476 5772524 5958034
1051.99 5659630 5385324 5214230 5321052 5440358 5820654
1054.88 5628722 5516488 5324270 5744314 5887940 5845048
1057.77 5607314 5518924 5344036 5724504 5854028 5554100
1060.66 5044596 5023642 5082470 5410576 5380770 5093790
1063.56 4675132 4752864 5206958 5831872 5475992 5362884
1066.45 5579078 6140034 7146266 7880972 7521892 7800956
1069.34 8190616 9150588 10635550 11609700 11819010 12631470
1072.23 13397260 14841040 17041610 18790300 19785630 21071830
1075.13 22526850 25036220 28042300 30131260 31481850 33732080
1078.02 36012310 38711980 41839100 44255320 45962640 48314670
1080.91 50056920 52168680 54483260 55637910 56234150 57467100
1083.81 58218220 58922760 59102860 58509440 57240550 56099240
1086.70 54405010 51978880 49116190 46590190 43163380 38658730
1089.59 33992380 29865920 26165940 22808360 20152380 21604710
1092.48 33110620 44579290 42776720 38093140 37316560 39188970
1095.38 40129470 37444290 33679660 34617020 34266940 32345220
1098.27 32534490 33924070 34178730 34836190 35829740 36523920
1101.16 36901250 37529610 37951130 38445880 38418320 37437500
1104.05 36379840 35934590 34895970 34113520 33483340 31808670
1106.95 29461290 28029850 26632680 25193620 23980260 22809340
1109.84 20542770 18728790 17272450 16361080 14991320 14275130
1112.73 12831850 10975410 9885518 9431694 8511026 8074810
1115.63 7683822 6388806 5340854 5164744 4879844 4412776
1118.52 4202506 3807104 3045408 2805304 2940652 2817562
1121.41 2605248 2831152 2281930 1872458 1781884 2066240
1124.30 1901074 1990526 1721002 1451800 1301110 1488534
1127.20 1426224 1667546 1680438 1472110 1259892 1364446
1130.09 1220418 1352646 1422874 1252336 1092560 1223580
1132.98 1113730 1093834 1065238 1076934 1010270 1013462
1135.87 862896 831646 602590 845288 842702 797556
1138.77 812676 849676 728272 921080 789546 752462
1141.66 697730 635794 569812 764072 599854 561582
1144.55 509970 580706 508468 515044 442540 510572
1147.45 456192 405184 314190 509542 536934 560316
1150.34 459804 493482 421284 447748 411290 527766
1153.23 619724 619576 511262 542760 445628 606532
1156.12 519942 438090 405804 621340 679476 682318
1159.02 680260 861984 781836 773016 657958 740780
1161.91 672852 682822 602922 687228 818838 933888
1164.80 762434 751778 733628 812778 890870 949462
1167.69 882952 1033152 933788 861042 776906 917328
1170.59 998442 1035148 1042202 1028484 978172 981152
1173.48 895834 967616 1029090 1088496 873808 797072
1176.37 781176 863890 930846 1084278 963346 899578
1179.26 837900 962426 919806 808500 759760 907634
1182.16 977218 1000876 702228 633246 698108 991178
1185.05 1167622 1072670 828126 776420 689096 963342
1187.94 1151826 1001902 916036 992766 959072 1282866
1190.84 1252350 1025546 981006 1098860 1027676 1168248
1193.73 1285758 1268200 1076258 1036436 1059750 1167536
1196.62 1102418 1102278 1178222 1286696 1175206 1206760
1199.51 1143564 1226900 1392676 1574388 1541394 1515734
1202.41 1585080 2235784 3398470 3793678 2896846 2184564
1205.30 1790412 1563366 1408780 1513362 1560742 1906426
1208.19 2078736 1840520 1479558 1320650 1169368 1066068
1211.08 1023648 1319716 1444042 1426446 1194494 1055406
1213.98 1065446 1329078 1339024 1260822 1151148 1052272
1216.87 981098 1035026 1222364 1356906 1139806 1022696
1219.76 903448 1041600 1269792 1477222 1298196 1185142
1222.66 988310 861390 955182 1364506 1489418 1327120
1225.55 1020380 909562 763124 932096 1179210 1389468
1228.44 1289162 1107886 967722 984344 1029310 1331182
1231.33 1413646 1232700 1055700 986916 844556 875032
1234.23 1019396 1195094 1045726 838582 678330 758572
1237.12 884080 1005540 999058 987842 890400 905256
1240.01 819996 738064 761532 952864 901892 685834
1242.90 674420 854078 813666 839806 775310 804414
1245.80 823910 799332 699222 694576 730374 781058
1248.69 747180 788980 707546 679646 706168 879846
1251.58 1023624 1083772 961268 941394 1073436 1342404
1254.48 1259094 1270464 1283424 1234730 1390158 1706374
1257.37 1887188 2037136 2136862 2456774 2923134 3169082
1260.26 3184602 3309264 3433788 3901976 4512314 4974894
1263.15 5267236 5656214 5974558 6507174 7070972 7573274
1266.05 8057162 8436032 8824202 9450682 9867552 10274110
1268.94 10719510 10988660 11402880 12003880 12202880 12208320
1271.83 12257510 12372980 12431700 12417120 12092650 11767430
1274.72 11453150 11052380 10606370 10204390 9810944 9479510
1277.62 9181932 8853602 8175516 7341578 6532336 6060824
1280.51 6473488 8336570 10202380 11622440 12624630 12984350
1283.40 12829510 12614710 12664670 12877290 13058540 13529200
1286.30 13967510 14320750 14741610 15131100 15429090 15783350
1289.19 15903630 15876540 15794660 15849270 16007090 15905500
1292.08 15557220 15097970 14516350 14243860 14057880 14045910
1294.97 14193820 13920950 12826950 11703460 10898870 10402580
1297.87 10136840 9572812 8809344 8363440 8344198 8214986
1300.76 7819522 7699518 7434834 7438576 7601716 7639372
1303.65 7719516 7878254 7787126 7727552 7861666 8043494
1306.54 8156700 8446004 8930628 9279662 9443388 9643744
1309.44 9762414 10037380 10443480 10890970 11282310 11508700
1312.33 11572210 11796460 11868410 11929080 12178000 12303960
1315.22 12074510 12032800 12043360 11815660 11637320 11451670
1318.12 11294780 11124000 10804920 10334230 10039960 10036740
1321.01 10029520 10198360 10599300 10841700 10414820 9431318
1323.90 8671822 8591402 8857568 9128480 9090764 8901018
1326.79 8773660 9145858 9734314 9920310 10136300 10739630
1329.69 11309760 11261760 11155780 11538710 12428330 12715270
1332.58 12382960 12375630 13189900 13620010 13127470 12802460
1335.47 13263690 14450050 14281130 13020390 12672420 13835110
1338.36 14831420 14077860 12978570 13036320 14268210 14305270
1341.26 12900230 12020180 12095680 13745280 14240010 12861970
1344.15 12188450 12352460 13831710 15100430 14112210 12987230
1347.04 12727260 13525570 15483920 15592580 14235190 13719550
1349.94 14228330 15486870 16234880 15078070 14159320 14346030
1352.83 15005810 15282950 14853980 14229340 14019150 14154200
1355.72 13874140 13018890 12821730 12842270 12478450 12023410
1358.61 11450850 10984740 11114690 11596280 12727690 12594400
1361.51 12003640 12496420 14447230 15285650 14463600 14170380
1364.40 14298520 15188430 16893750 17978560 17667350 16941840
1367.29 17424580 18743910 20974680 21943950 20447360 19248420
1370.18 19038740 19363720 22573320 25483300 24464860 21830560
1373.08 21510910 22518660 25403470 26628830 24610480 23663920
1375.97 22233780 22743380 26739200 26466340 23445720 22917590
1378.86 24578900 26755230 29739620 26855260 22236430 21492270
1381.76 23011990 28885650 34785830 29983960 23225100 21467690
1384.65 22894330 29455920 39864240 36644440 28935180 27610200
1387.54 26877040 32177150 42403980 40901960 33541750 29761740
1390.43 29806190 36813980 51468660 51207100 41970810 38919310
1393.33 41062120 48350030 63147200 66898120 56884850 51486830
1396.22 52411200 60772740 76601610 84404400 78746630 73642450
1399.11 72652220 76534390 91543090 104289700 97947520 91208060
1402.00 91039400 94828150 104607000 115245600 112272000 106362900
1404.90 104111300 103930100 105834000 106688900 102858500 99044570
1407.79 96954930 90809500 82992660 78587060 76879460 70794840
1410.68 61482220 54902570 49604190 46083810 44530420 48772800
1413.58 88101910 135153900 103775600 61937510 50787880 51855440
1416.47 54215630 59480510 68102400 76349930 82293850 90016730
1419.36 94318690 97399270 99588890 102595800 108384800 108697400
1422.25 105380200 104059300 104644400 108529200 114942600 109261400
1425.15 97905780 91939620 89076080 93072910 98285620 91023820
1428.04 79388380 72652670 69961300 72552130 78746360 75441310
1430.93 59230860 49886310 44855400 44669410 50427270 53645400
1433.82 43027360 37114980 35569300 37473290 47191130 56335270
1436.72 46270190 35817800 33014130 33391870 37234040 43185810
1439.61 39105360 32645090 31976720 32207400 33476880 37800420
1442.50 35838180 29830000 28192300 27451250 27613370 30560710
1445.40 29854570 24971900 23816080 24030040 24904990 26005440
1448.29 23894580 19969110 18877710 18424250 17622710 18726110
1451.18 18801990 16545380 15638010 15460310 14282690 14509610
1454.07 15042230 14340130 14079410 15461410 22035990 25406790
1456.97 17418890 13797370 14194800 12371720 11311050 11011390
1459.86 9978394 9222868 8901978 8489138 8503064 8621208
1462.75 8397360 8389890 8650306 11285880 10946890 8091768
1465.64 7489270 6764444 5937130 5779836 5953524 6369536
1468.54 6043654 5089446 4698790 4779684 5419334 7645018
1471.43 10561270 8588186 6509978 9906764 8716160 4787346
1474.32 3555698 3521332 4976938 6549542 4965282 3208888
1477.21 2739092 2671630 2630576 2667046 2393084 2295572
1480.11 2432282 2940350 2729468 2068288 1796434 1828180
1483.00 1756976 1722048 1556222 1542984 1534206 1697066
1485.89 1745494 2783250 3981356 2691426 1483274 1817832
1488.79 2727214 3841100 3608446 3950836 2901548 1233392
1491.68 920622 758704 741446 698054 772646 844686
1494.57 1100204 2672442 8088740 7967818 2308186 880982
1497.46 1065078 3313682 4441526 2184888 751992 699534
1500.36 632324 905920 1057404 876672 585006 638266
1503.25 625256 783158 1562212 7067028 11589200 7033270
1506.14 9046976 12837990 6517244 2969852 3259412 2168658
1509.03 1964812 2027678 1044960 697918 796806 2491118
1511.93 3229730 1363896 375498 448596 874248 1856980
1514.82 1661004 1208182 2264410 3443116 4575338 4031902
1517.71 1546264 739890 817522 2222378 4117030 5417078
1520.61 10738340 9480374 3661330 4689038 3528410 1332718
1523.50 646932 1228946 2961388 5520354 3337482 1057364
1526.39 1432834 2272086 1454670 1707468 1620016 900444
1529.28 529906 509482 482356 1081692 1364394 1088786
1532.18 1652142 3754110 5325650 4831498 1729348 965872
1535.07 840550 987466 731894 1081566 1166040 2243692
1537.96 6298886 14643450 11798000 8759628 10543170 5187840
1540.85 3247762 8326466 9110634 3811062 2593854 2441588
1543.75 1962772 3676000 5710774 3449246 1501616 1268290
1546.64 1327140 1361014 1411452 1608388 2045358 3022928
1549.53 3640016 3019274 1957532 1746166 1604584 1837786
1552.43 2006164 2526966 5535718 9124572 5396846 2453554
1555.32 2169762 2562296 3371622 7340484 10116940 14626320
1558.21 15604740 8911474 11284240 16677370 11372800 4020624
1561.10 2979786 2844456 3166842 3015250 3179210 3187282
1564.00 4293136 5144130 4472300 3649270 3573102 3475734
1566.89 3743068 3971506 4741886 5672356 7742420 9686350
1569.78 7061724 4862172 5184206 5109820 4818982 4687450
1572.67 4986740 5396426 6263670 6494786 6462056 10560640
1575.57 19515490 16504830 9182176 8145458 7012488 6358400
1578.46 6398716 7064788 8245062 9357778 8266488 7178884
1581.35 7110884 7733046 9215140 11051500 10274690 8477024
1584.25 8100922 8672724 10339900 12837560 13034300 10808010
1587.14 9873848 10169950 11701150 14768470 16585250 15065980
1590.03 13596700 14069320 15695150 19025700 22893540 22716080
1592.92 20462940 20454250 22048520 25377920 30113570 32849400
1595.82 31293650 31009490 32647530 35847880 40660390 45441760
1598.71 45158360 44082760 45638880 48169500 51917270 56790760
1601.60 58758830 56974480 57051580 58607820 60793480 63447770
1604.49 65071560 63447590 61765860 61973540 61809720 60693860
1607.39 59231480 57323230 55577810 54256000 50976280 47050660
1610.28 43735830 41991780 41033050 38127200 35638230 36730110
1613.17 45812940 64721150 73398860 64528740 46556880 32111990
1616.07 37210770 38994490 35245810 37027860 41499530 47056630
1618.96 53795800 58396450 61221620 64538040 67580620 69953780
1621.85 72591340 74649580 77524340 77217620 73407630 72881080
1624.74 72747650 71706870 69935700 66345310 64616570 66231590
1627.64 64328530 60438220 56556800 52262180 51054610 51996510
1630.53 49473360 46530380 43824310 40680150 40342280 41377500
1633.42 39421980 39386420 41297490 44360370 45617570 41628480
1636.31 38407020 38764810 37878670 34769930 36033570 38803050
1639.21 38921230 38889260 38439600 36940080 38217080 40359260
1642.10 41038730 40404200 38986980 37624040 37908240 38272850
1644.99 42149530 45832870 40043990 35145680 34655240 33002680
1647.89 32220910 28928140 25709250 24505900 24019350 22699480
1650.78 22205370 24678660 36028980 44854000 49720380 44275420
1653.67 34805040 31490160 27358360 26258000 27900460 30086310
1656.56 29087820 28457230 29406870 31631840 33204440 33822350
1659.46 33554380 33095430 32380040 33059410 33507150 35384940
1662.35 37899390 35538860 31126360 29448990 28682050 28455310
1665.24 28632590 29374160 26875600 23825600 22665660 23121530
1668.13 24540150 28577040 27606350 20373350 16894660 17500490
1671.03 19038950 18235480 17058820 15094450 12699570 11858970
1673.92 12800720 17683910 20577570 15956730 10716310 8735748
1676.81 8608976 9253178 9996790 10240520 9202526 7931812
1679.71 7995952 8005190 7851008 8582708 8447726 8028756
1682.60 9937124 10320200 11702490 20649520 23271950 11103630
1685.49 5719952 4918464 5042322 5491486 6989648 6615090
1688.38 5403288 4672004 5015892 5139216 5488902 5198436
1691.28 4459528 3850258 3711790 3481508 4257044 4728268
1694.17 4734776 7439784 17238370 18201320 7764280 4440158
1697.06 4438924 3405596 3116526 4029218 8919878 15653320
1699.95 15991210 11323190 4987926 2555100 2273226 2306908
1702.85 2475356 3164874 4614448 3973496 2266160 2924824
1705.74 4744758 4083762 2207450 1700932 1440132 1472498
1708.63 1469246 1844830 2205596 1822308 1166922 1159408
1711.53 1221420 1403592 1483928 1756922 2342890 2665134
1714.42 4449956 4757884 2199730 1795960 5422254 13137240
1717.31 9553976 4774698 5066278 2721388 1335208 986642
1720.20 869216 863878 917470 840570 973762 1384148
1723.10 1605128 1114982 851260 749836 787486 839678
1725.99 904022 802724 814666 823784 889436 836670
1728.88 1345058 2304630 2180480 1062866 862648 976350
1731.77 1243194 3047234 8784454 8470550 8261554 10695050
1734.67 5173676 1708472 949756 855334 796880 1073676
1737.56 982376 1097732 1621774 4609704 5859940 2729064
1740.45 1032474 915098 946328 1297240 1999406 2324908
1743.34 1805096 1454006 1294556 1280280 1461336 1501498
1746.24 1771024 2165624 1820868 2285608 3134030 2606262
1749.13 1710436 1363584 2582842 6461904 6843286 2590332
1752.02 940538 874906 698880 613702 600898 673246
1754.92 674978 654952 1808594 3113990 1679778 619436
1757.81 480676 441840 351004 419258 450846 602658
1760.70 1526296 4177824 3506098 858294 325998 270356
1763.59 229076 195096 263620 253540 275454 268334
1766.49 300842 858428 3488160 3502652 797702 207358
1769.38 274156 504388 1769634 3230506 2184946 4946064
1772.27 8551350 4134032 674668 364812 434070 956748
1775.16 1485550 1377226 970642 589582 511310 586498
1778.06 495352 460750 327846 623464 1500688 1292992
1780.95 288836 161300 148912 186584 131186 138598
1783.84 469140 1851054 1441268 257578-3014 80328
1786.74 102430 66538 90408 166294 185604 359592
1789.63 497144 1362700 1726148 836520 1905530 5516780
1792.52 4377402 1036178 282586 58774 141966 368414
1795.41 677108 462382 144496 61526 15086-1724
1798.31 238862 1339514 1865670 704400 351930 884842
1801.20 810152 790366 935806 305864 48790 18862
1804.09 163700 143810 128014 110744 137830 114436
1806.98 317234 320662 173706 105212 128160 314580
1809.88 992494 1133356 556672 391200 466642 348394
1812.77 235932 215678 248388 271042 250938 213746
1815.66 322312 412916 593186 739438 620046 612158
1818.56 721100 808854 801568 807380 915918 908302
1821.45 1007432 1222576 1329116 1217732 1218378 1547646
1824.34 3024858 4046876 2751754 2002174 2044902 2124912
1827.23 2176238 2375234 2952290 3634008 4492862 5625832
1830.13 4249440 2983352 2945696 3022492 3095050 3135266
1833.02 3120004 3081920 3033090 2888302 2826792 2803558
1835.91 2859098 3051232 3047166 2640690 2354972 2104150
1838.80 1990660 1908354 1946262 1952784 2061002 2301328
1841.70 2721936 2578154 2355202 4018466 7685350 6221834
1844.59 3005694 2621340 2574424 2712856 2974238 3530816
1847.48 3673752 3438166 3492110 3660970 3923880 4150270
1850.38 4167010 4105132 3965326 3875786 3824064 3802892
1853.27 3843232 3773128 3624736 3605640 3631212 3621478
1856.16 3542696 3642332 3648120 3511922 3388546 3183204
1859.05 3094518 3143692 3282924 3448090 3328986 3107814
1861.95 3109738 3315558 3625916 3853162 4022602 3868060
1864.84 3641840 3603466 3861300 3911676 4429922 5518920
1867.73 5411838 5464626 7028280 6572050 5263922 5637898
1870.62 5984266 5796954 5539622 5436374 5493058 6106214
1873.52 7044574 7718860 7642048 7385172 7295456 7683862
1876.41 8604620 9721658 10551760 10764500 10581450 10476190
1879.30 11034540 12665560 14417290 15407180 15699050 15867470
1882.20 16104120 17111200 19312330 22109710 23511610 23863870
1885.09 24291290 24966750 26716790 29854460 33477300 34845680
1887.98 35514620 36782060 38754120 40813920 44184190 48211680
1890.87 49381140 50164780 51286260 52848070 55665120 60168740
1893.77 63576550 64452880 65189830 65537000 66979940 69953920
1896.66 73109830 74292750 74198240 74233110 73499160 72390460
1899.55 72197070 70897700 69565380 70396280 70241110 68392580
1902.44 66932370 66563030 66022970 64940220 63969420 63828600
1905.34 63226200 63043160 63003050 60729340 53557730 43065590
1908.23 36496220 35977280 40643100 46874640 52160020 58486870
1911.12 66384230 72256080 74639940 77916320 80744320 82582800
1914.02 84822360 88505220 89676840 87479980 85948300 84711350
1916.91 84365340 87774090 87706260 80876980 75411050 72875250
1919.80 72186660 71509620 68147580 64254800 60315250 57522950
1922.69 57068390 54737840 49932820 47248930 44856810 42877440
1925.59 42232400 38737400 34628160 32704800 32034450 32370360
1928.48 30877050 27034610 24105850 23374860 23923020 23644290
1931.37 21070740 18275440 17741880 18700950 18956360 17400470
1934.26 15322590 14343700 14301830 14678490 13799920 12794270
1937.16 13199100 14597130 16176060 16147820 15660100 15747090
1940.05 16582870 17754780 17375680 16897970 17947610 18171800
1942.94 17303060 16269180 15673890 15989650 16945950 16743140
1945.84 15118730 13994690 13979540 14438960 14513160 13605760
1948.73 12009340 11397700 11357310 11872030 12176150 10757360
1951.62 9339536 9150544 9357592 9887174 9262636 7662978
1954.51 7183598 7424890 7661826 7868772 7203680 6500514
1957.41 6279336 6201876 6317226 6141154 5513302 5308254
1960.30 5199554 5379258 5470150 4976036 4793066 5037282
1963.19 5154854 5210866 4621892 4223020 4164366 4472340
1966.08 4749308 4454410 4247254 4049590 4133452 4310724
1968.98 3911508 3524458 3375094 3522780 3313664 2876226
1971.87 2945364 3101620 3141858 2925260 2774518 2784684
1974.76 2845072 3018648 2771506 2523800 2632886 2728616
1977.66 2524784 2396670 2332198 2290100 2295650 2208360
1980.55 2053478 2020126 2036854 1917742 1820860 1921554
1983.44 1959864 1921220 1723832 1587236 1515310 1507334
1986.33 1562310 1580738 1538604 1572574 1430754 1268850
1989.23 1187140 1155830 1068580 1110988 1558462 1671208
1992.12 1315150 1108798 904988 836820 763880 797062
1995.01 804358 651110 573046 703234 826376 894582
1997.90 881706 867952 727778 651182 675960 654768
2000.80 491104 618722 807108 646426 515216 531144
2003.69 525514 510492 522976 457706 368774 417582
2006.58 459518 554866 507540 484516 513106 421024
2009.48 347772 302572 205194 228988 214194 340090
2012.37 444270 351084 240376 170422 179022 170606
2015.26 266022 502386 682346 578542 397192 488674
2018.15 488164 368030 302642 276146 315426 343352
2021.05 298312 302800 300214 382594 422268 380600
2023.94 246612 180058 197062 222138 234094 122892
2026.83 129018 234700 239402 219752 204772 159174
2029.72 135380 161558 198686 226654 190068 302886
2032.62 402828 318614 211470 275458 278004 167634
2035.51 164918 260884 292456 348628 353100 359942
2038.40 329084 315624 316728 333932 388036 408508
2041.29 362356 319786 246688 281056 284184 312224
2044.19 260560 273038 367016 565018 812528 1142528
2047.08 1266932 812212 307366 197190 283120 414426
2049.97 324920 221798 291718 400766 378748 345632
2052.87 401406 396728 432518 429460 411752 519392
2055.76 431932 333766 367974 467298 457072 401334
2058.65 354098 412414 486210 580554 608452 677692
2061.54 644590 837778 1335562 1619202 1235986 987012
2064.44 886642 757636 647606 536318 533650 547920
2067.33 427454 414542 378914 359238 346530 374858
2070.22 411086 396730 282652 246704 224840 287302
2073.11 394452 487770 265258 120068 142358 287054
2076.01 406838 497508 315100 226612 341250 373552
2078.90 377404 541756 399558 253308 329564 435026
2081.79 478916 606900 501770 283302 228982 280662
2084.69 321448 570612 574732 374314 300152 275232
2087.58 301678 503738 549270 353774 352334 360700
2090.47 278808 377436 398858 298830 264012 335758
2093.36 325642 396380 501688 403882 345900 294340
2096.26 264104 403894 331826 249172 276798 351640
2099.15 325148 337640 342238 211516 189578 223152
2102.04 265648 342278 249820 124486 167812 164446
2104.93 150966 280026 254882 97718 80868 141408
2107.83 167464 143348 120028 151000 119300 122174
2110.72 114024 20390 17958 83416 112346 88702
2113.61 63348 87548 91552 99034 103534 16306
2116.51-91712-47514-10960-18438 59554 123788
2119.40 96928 94906 48130-17636-43638-82058
2122.29-81470-20870-8814 74026 120822 114910
2125.18 73900-43100-105592 58000 138438 66440
2128.08 45050 31374-44198-69166-82680-28648
2130.97 5852 15376-50674-87922-50868 26828
2133.86 36744 90298 155470 126432 58392 35806
2136.75 35016-5796-10216 123648 198456 210006
2139.65 185522 234078 237372 152460 166720 220636
2142.54 226532 225926 216712 208560 190686 204404
2145.43 178592 255586 297088 246124 142032 158838
2148.33 193408 197174 126716 119304 205056 268952
2151.22 231860 258264 298992 408016 375074 264504
2154.11 289742 297854 250166 308580 351900 330626
2157.00 224892 248138 331572 310226 319848 322572
2159.90 301674 292620 295262 315340 303180 305930
2162.79 328266 301826 243464 196618 221668 350950
2165.68 364212 345900 282560 253274 308508 342672
2168.57 349876 265144 195976 228782 200452 223546
2171.47 332798 383378 395950 334304 284786 325130
2174.36 301474 331524 411490 344620 254280 359016
2177.25 365950 338044 435858 519542 527142 431050
2180.15 456622 534412 455958 405642 355566 374494
2183.04 433752 517502 429108 297282 332162 347126
2185.93 305068 267048 204090 242642 303784 363142
2188.82 354642 293568 258668 292682 340544 411620
2191.72 481534 486032 479608 440274 312528 289842
2194.61 401354 458948 401696 338836 410714 388788
2197.50 325560 358542 408864 493036 505772 517526
2200.39 415104 326402 388494 509306 546850 550558
2203.29 550456 557318 568898 638538 657686 719080
2206.18 704720 660742 699698 773474 933010 1083962
2209.07 1099494 1107554 1156030 1210502 1446564 1704486
2211.97 1710296 1699990 1796164 1977450 2303958 2610296
2214.86 2800098 2873542 2941624 3192416 3488456 3789226
2217.75 4073288 4350260 4629198 4893892 5280752 5663948
2220.64 6055428 6446354 6748864 7098996 7497416 7878908
2223.54 8266428 8652500 8870850 9015758 9329182 9673612
2226.43 10131680 10426780 10491330 10499230 10616500 10690070
2229.32 10852710 10961310 10868620 10728710 10494830 10265300
2232.21 10262940 10197410 10168880 9894338 9186742 8567070
2235.11 8194586 8403200 9344828 9214476 8672944 8426042
2238.00 7009900 6185032 7020366 9472460 13867970 14404170
2240.89 9232292 6717460 6977968 7616518 8203462 8886602
2243.79 9630842 10444800 11079960 11714880 12115060 12368210
2246.68 12581560 12784440 12854590 12782310 12476080 12176290
2249.57 11908100 11748510 11419580 10858240 10110020 9480368
2252.46 8913450 8415830 7917984 7316316 6608794 6041766
2255.36 5599380 5262786 4949040 4593076 4058440 3696218
2258.25 3526122 3476468 3458522 3421508 3170648 3041078
2261.14 3116878 3243258 3395878 3470492 3288666 3243274
2264.03 3388550 3567560 3845928 4109998 4258558 4235582
2266.93 4356296 4634384 4828960 4971270 4984054 5070088
2269.82 5299918 5426978 5414128 5428096 5489072 5599672
2272.71 5589216 5456886 5362162 5209390 5060140 4960032
2275.61 4740866 4458256 4156990 3844936 3565852 3547504
2278.50 3725496 4440126 6926568 7675400 4815050 3403490
2281.39 3562466 4026698 4194394 4128456 3905056 4044318
2284.28 4379402 4761074 5058234 5335506 5573026 5925518
2287.18 6265014 6495824 6640284 6811884 6965756 7161820
2290.07 7264606 7262530 7220428 7329336 7106828 6625926
2292.96 6307212 6026992 5618258 5228108 4950352 4889156
2295.85 4684322 4290764 3913962 3760592 3757804 3693378
2298.75 3369162 2913402 2468022 2221790 2027210 2001974
2301.64 1995572 2025402 1932008 1887178 1895794 1830984
2304.53 1864634 1925906 1987492 2086550 2092026 2012632
2307.43 1994060 2097596 2177878 2084348 2016646 2127760
2310.32 2180252 2177030 2001278 1890034 1863214 1797418
2313.21 1620198 1706102 1729196 1798456 1691474 1497172
2316.10 1441482 1535864 1427734 1279188 1178978 1203738
2319.00 1098020 900484 804400 1074696 1055804 879302
2321.89 825946 989566 900236 558506 535346 905316
2324.78 902270 548750 648254 1064828 874246 590236
2327.67 817168 1165674 955030 565996 812368 1193350
2330.57 891006 561678 901358 1151116 833280 825070
2333.46 1372360 1326044 708790 743584 1191266 977040
2336.35 581502 958430 1248652 843820 701522 1077492
2339.24 938552 649630 948030 1079132 732312 748392
2342.14 1017206 987084 796758 953728 1011868 785668
2345.03 840372 994670 814984 666406 744386 875776
2347.92 719260 510990 524410 692156 913324 1129078
2350.82 1054646 808846 841380 1239948 1389428 1261076
2353.71 1373668 1301470 1024894 1558698 1784476 1402518
2356.60 1652204 1698048 1363086 1886052 2003008 1718162
2359.49 2046600 1809864 1735304 2287404 1957856 1926190
2362.39 2267476 1964994 2315626 2523126 2258934 2430556
2365.28 2182474 2227234 2551536 2249398 2284264 2285860
2368.17 2239154 2402894 2235682 2381628 2345312 2167744
2371.06 2110242 2035034 2047054 1936394 1990288 2104880
2373.96 2182276 2317020 2311776 2406854 2558128 2660922
2376.85 2744572 2855894 2872892 2979678 3002834 3020026
2379.74 3057114 3146318 3223926 3169232 3048666 3003214
2382.64 2966120 2767998 2687032 2688310 2511322 2299118
2385.53 2148652 2173448 2343332 2510440 2542798 2615196
2388.42 2558602 2425796 2454876 2466178 2440736 2403624
2391.31 2426504 2306896 2256116 2365870 2345150 2344306
2394.21 2397830 2478846 2415396 2302506 2233848 2363544
2397.10 2431714 2425762 2321974 2200028 2095248 2175898
2399.99 2307890 2248970 2184772 2175692 2025426 1929166
2402.88 1874146 1857720 1907392 1896440 1852370 1729064
2405.78 1678246 1687560 1616748 1471982 1424924 1457558
2408.67 1308084 1270966 1346446 1339304 1290912 1300136
2411.56 1231450 1157638 1084954 1176000 1136888 989492
2414.46 956350 1004504 955830 967228 1112120 1096842
2417.35 1012120 1026946 998554 834488 779386 778036
2420.24 796064 878620 989402 1059360 1049240 993526
2423.13 956688 1013038 1092000 1151928 1036726 867930
2426.03 908178 1045096 1057112 1102898 1121160 1119810
2428.92 1111688 1045212 1059760 1103988 1110790 1090536
2431.81 1132954 1144032 1059580 1107164 1122440 1099190
2434.70 1094224 1187820 1270070 1216220 1228934 1276700
2437.60 1132892 1125484 1301602 1375198 1268546 1281640
2440.49 1366048 1399518 1457078 1587022 1604854 1519082
2443.38 1591996 1596604 1447762 1585282 1918196 1958124
2446.28 1849768 2023766 1995208 1913574 2000380 2346830
2449.17 2307494 2156642 2297254 2277084 2266424 2382452
2452.06 2607298 2613266 2613410 2634254 2520822 2548484
2454.95 2694366 2772862 2619298 2453840 2382440 2482058
2457.85 2448238 2442094 2419408 2320804 2361408 2318456
2460.74 2163526 2141214 2170834 2190104 2179102 2209298
2463.63 2228576 2102076 2087812 2238068 2296756 2333010
2466.52 2368088 2460896 2658848 2883362 2950278 3027150
2469.42 3199110 3388382 3530612 3781380 3809568 3652948
2472.31 3566784 3620360 3865180 3960784 3751494 3603386
2475.20 3480940 3707444 4064614 3667866 3082272 2926866
2478.10 3092594 3558526 3433418 2759490 2633604 2783488
2480.99 3034524 3220412 2711044 2377736 2406240 2608012
2483.88 2894016 2696852 2321642 2410612 2560136 2734344
2486.77 2740218 2567514 2357538 2318694 2416724 2460642
2489.67 2245080 2164600 2137636 2148526 2110964 1944416
2492.56 1953834 2004866 1995162 2061460 1904154 1750130
2495.45 1810902 1894758 1873882 1652854 1512490 1465770
2498.34 1551182 1632472 1572090 1447208 1383516 1313224
2501.24 1274030 1360790 1331346 1248806 1170426 1135496
2504.13 1123604 1128404 1186374 1227422 1142482 1123790
2507.02 1107836 1030810 1034726 1061248 1029470 1001026
2509.92 1015600 1091356 1007870 962900 1021364 994670
2512.81 982688 1076400 1050726 969796 939710 1001698
2515.70 976624 923798 912902 879038 860820 916574
2518.59 1004298 974954 859260 870640 919878 946028
2521.49 980062 968270 816644 831016 939490 937086
2524.38 936864 944258 918160 999232 1088890 1032134
2527.27 931664 974316 1016344 984698 923426 1001532
2530.16 1054674 1087300 1132424 1089484 1048312 956312
2533.06 944236 1111052 1133310 1001524 878006 946304
2535.95 1077418 1106970 1187882 1188940 1117718 1261518
2538.84 1338378 1299736 1225758 1282738 1349408 1259250
2541.74 1196378 1218706 1180266 1193316 1331324 1467914
2544.63 1430408 1456016 1369954 1275266 1261344 1540294
2547.52 1649154 1455370 1093140 986302 1147546 1500630
2550.41 1635958 1391908 1021130 1027500 1333690 1692352
2553.31 1629928 1085400 926180 1140886 1290688 1533230
2556.20 1567652 1413048 1445976 1358266 1335936 1555678
2559.09 1491860 1231686 1175006 1242376 1442908 1799594
2561.98 1915308 2027108 2142422 1882536 1685402 1675964
2564.88 1566256 1492472 1546116 1523506 1548370 2172484
2567.77 3106816 3961138 3980742 2844388 1829146 1510914
2570.66 1384886 1228480 1182260 1089132 918076 783110
2573.56 880244 1045894 1078026 981704 872806 794350
2576.45 795298 951544 1024876 905764 808874 904932
2579.34 1143906 1308254 1145626 777680 744652 833554
2582.23 903876 1093382 1239502 1006382 730048 725304
2585.13 791950 877444 848436 860348 871960 758654
2588.02 793146 872692 887346 916492 1009770 902414
2590.91 834824 864230 778290 790428 874692 862724
2593.80 680380 622768 645794 591670 509278 567960
2596.70 586438 522214 565732 589452 566076 610668
2599.59 702312 700932 499146 372372 414086 478466
2602.48 461038 402818 339670 234454 214622 322530
2605.37 382490 329872 339400 400630 323138 230344
2608.27 226242 226942 307722 334140 241624 201816
2611.16 157992 189084 195928 178612 237882 327204
2614.05 335270 312678 295862 351584 356274 182628
2616.95 114514 117252 55636-25972 6854 58354
2619.84 56896 142504 96306-88656-123134 1774
2622.73-2248-20798-15610 23818 4812-79256
2625.62-133234-123626-77174-16440-43256-72836
2628.52-92380-37906-11190-788 36392 67566
2631.41-13060-95954-83142-63478-2544-35126
2634.30-52034-45530-92924-126252-171328-126170
2637.19-166820-137908-61012-59408-107912-109596
2640.09-55992-201828-253366-157842-136432-157720
2642.98-25060 161806 127652-58740-131194-52442
2645.87-32240 11484-20480-2268-101170-173556
2648.77-182430-99826-108820-136778-66462-3940
2651.66-19908 5184 63220 9288-64780-104946
2654.55-91544-47680 20428 111418 210466 148200
2657.44-3302-18120 104982 79656-73308-117174
2660.34-19966 73024 115866 146864 158928 152818
2663.23 166460 215226 186906 62726 26228-8674
2666.12 84092 275720 330058 329188 242012 169538
2669.01 290476 361618 286504 211552 141484 240000
2671.91 351034 291918 308260 348476 361604 441744
2674.80 493576 388876 285532 309558 394818 455074
2677.69 597426 722340 811364 831086 806782 788798
2680.59 978876 1133842 1050390 1067402 998658 950890
2683.48 1135210 1324728 1273490 1322596 1298440 1191020
2686.37 1352254 1641030 1771360 1792974 1667052 1662040
2689.26 1902284 1935954 1810306 1855070 2056452 2152760
2692.16 2140318 2117264 2125522 2363178 2493542 2449520
2695.05 2349334 2329172 2390524 2426320 2399436 2521000
2697.94 2421348 2330288 2214858 2188154 2406216 2832346
2700.83 2770192 2564604 2567298 2475512 2376600 2259474
2703.73 2135086 1965618 1930540 2019754 2044432 2104288
2706.62 2065382 2146534 2963408 3796624 3309332 2632596
2709.51 2402596 2318452 2307874 2312204 2422410 2622030
2712.41 2577050 2654044 2983242 3063662 2835368 2772612
2715.30 2736704 2805996 2830054 2833154 2682036 2583212
2718.19 2451392 2531630 2568286 2390810 2236836 2156492
2721.08 2043642 2052736 2097758 1946304 1744872 1623910
2723.98 1502802 1505212 1553558 1560754 1459382 1199328
2726.87 1054086 1030976 1017884 1073550 963338 820796
2729.76 855616 857796 794422 714844 590424 590148
2732.65 648156 610502 568452 613208 668332 695576
2735.55 598852 505584 537410 484918 402548 480086
2738.44 549898 547340 512414 626390 685110 658180
2741.33 653468 613852 496790 502404 597576 560128
2744.23 524572 443886 362462 355390 385696 346080
2747.12 342312 438590 392566 227376 250418 320270
2750.01 257306 257622 305022 284566 245018 111318
2752.90 95598 100196 119408 91358 138452 171318
2755.80 211880 179490 187066 172474 72214 127662
2758.69 172826 135418 178824 203648 226998 216502
2761.58 185216 186402 262676 278716 251614 336322
2764.47 376706 213850 85752 204992 424268 368120
2767.37 389688 564912 454324 350764 437016 579368
2770.26 551924 520722 402784 291158 466976 748384
2773.15 767044 786492 708654 621502 611914 549456
2776.05 639276 792082 682262 543106 619630 757118
2778.94 856428 959816 1040312 891786 686062 672416
2781.83 785824 944824 1128380 1108062 840320 732024
2784.72 833830 927804 1191594 1304302 1054506 724414
2787.62 599334 508216 547812 619162 715232 888164
2790.51 811746 623232 500574 430382 407688 464974
2793.40 395656 245414 313206 343112 463236 557302
2796.29 624582 526778 336208 473260 615036 488636
2799.19 482836 445554 328576 539600 761442 944800
2802.08 1174742 1112736 913746 995836 1005344 1007794
2804.97 1001190 890730 855870 872548 858280 809916
2807.87 778334 762244 766668 708492 726802 565756
2810.76 385598 319690 304192 383898 450912 299628
2813.65 53310 17108 54632 96826 225362 312016
2816.54 281720 126726 93488 134060 155694 121584
2819.44 102246 179036 107012 240958 367058 341244
2822.33 166522-10850 42312 271118 289850 176028
2825.22 109240 66652 34204 103040-67802-406060
2828.11-673046-512496-121580-51908 101202 160056
2831.01 48578 182388 155576 11386-56188 63778
2833.90 30424-147926-123512-133570-270894-266978
2836.79-366460-496356-358246-357436-342036-384786
2839.69-488078-510656-398422-466622-672644-613738
2842.58-534714-622074-605044-630954-574274-571194
2845.47-566554-491182-488210-449454-567674-694492
2848.36-685420-637960-545374-541748-624128-506284
2851.26-377236-454702-536140-414588-418202-539184
2854.15-586902-516222-492018-437298-365006-347170
2857.04-458382-546062-484800-405970-390310-475734
2859.93-581200-638062-501514-139014 22842 37016
2862.83-74172-101908-102426-150718-197540-186530
2865.72-233334-175752-177216-249788-48362 145484
2868.61 241604-5260-124698 129094 241076 233876
2871.51 62788-54206-52986 28640 96082 221852
2874.40 364442 374610 553012 754510 646256 447310
2877.29 396396 411538 404498 460684 483270 528320
2880.18 513346 434596 536126 780040 712550 548462
2883.08 508194 497908 598938 598470 587660 716802
2885.97 772936 915226 1212078 1471984 1371446 1143800
2888.86 1059826 1163374 1213846 1072038 946340 1144568
2891.75 1367198 1306506 1130472 1012994 1060692 1125136
2894.65 1150880 1146068 966310 784314 810776 984610
2897.54 1132280 1103554 932192 897192 1359304 1648726
2900.43 1264218 937900 768518 630566 740972 1186280
2903.32 1426848 1124136 848026 827008 830898 1026188
2906.22 1237256 1210552 1086222 1011284 1028616 1126484
2909.11 1173898 985800 881802 808456 721636 909824
2912.00 1140538 1013078 829210 942230 1085636 1032686
2914.90 970042 1045856 1216448 1308968 1108066 939048
2917.79 1090806 1445486 1684396 1505782 1023888 797580
2920.68 596898 524360 559798 510250 508906 538674
2923.57 464162 453502 400590 353310 259470 124100
2926.47 165974 234996 237080 366838 322566 118482
2929.36 156026 294396 376190 376150 275356 336562
2932.25 368690 463700 576018 289124 131960 296506
2935.14 250442 144184 287236 363244 258416 343120
2938.04 443538 511744 403026 384164 368450 291668
2940.93 337272 375378 228446 184790 55010 1724
2943.82 216612 310868 238132 68366-58698 34194
2946.72 195416 188650 106260 48932 58068 186428
2949.61 174294 192668 181354 82938 48454 149508
2952.50 154180 69854 79434 168700 131642-108402
2955.39-148506-58916 30852 102412 39846 47078
2958.29 90348 152976 198530 123762 33990 10740
2961.18 118424 169698 156472 166444 163966 220948
2964.07 248860 53226-17268 140874 158582 96248
2966.96 127028 277624 362096 373504 276810 308634
2969.86 387054 408286 593188 383746 213046 221018
2972.75 272918 465482 482936 314060 410406 420076
2975.64 383442 493032 505966 450906 414384 507106
2978.54 695422 839000 815392 743010 791092 893814
2981.43 1196972 1413206 1192448 1099494 1216576 1507286
2984.32 1663904 1553268 1344436 1319484 1538844 1761084
2987.21 1869064 1886338 1739078 1699676 1787854 1668022
2990.11 1695724 1700226 1552508 1452498 1404008 1265140
2993.00 1289180 1477926 1439624 1329320 1240366 1137938
2995.89 1259736 1646326 1576542 1471006 1622814 1538880
2998.78 1201400 1032950 1063386 1273842 1364406 1401828
3001.68 1692594 1878480 1953278 2008458 2137504 2266120
3004.57 2333204 2572720 2836216 2712094 2545170 2678604
3007.46 2821854 2953974 3167692 3000296 2726688 2588302
3010.36 2555930 2819356 3235782 3186820 2754160 2542546
3013.25 2529986 2920098 3548660 3745250 3703534 3770794
3016.14 3887868 4134192 4551142 5053116 5389770 5593374
3019.03 5855668 6352186 6998554 7689364 8267478 8919144
3021.93 9571290 10241670 11049850 11960330 12799430 13621300
3024.82 14658310 15753040 16710770 17794860 18770910 19792540
3027.71 20845930 21830630 22884200 24026890 25083600 26089710
3030.60 26887910 27543700 28274450 29005680 29841280 30177080
3033.50 30248590 30242800 30162760 29997730 29650800 28729710
3036.39 27563840 26700930 25902420 25192860 25041600 24668420
3039.28 23572450 22541710 22299530 22923190 26120080 33887540
3042.18 44732080 44183340 31761540 23791610 20834450 19426220
3045.07 19102840 19893350 21292010 23375700 25307040 26927030
3047.96 28024690 29263560 31053200 33924830 35241520 34642860
3050.85 34770520 34777760 34383710 34173990 34020750 33734400
3053.75 33256390 32822720 32313230 31663470 30977650 30042550
3056.64 28735720 27489280 26274620 25080280 23902890 22744300
3059.53 21467290 19992760 18583380 17380820 16500560 15659660
3062.42 14824280 13779950 12400800 11464400 10541180 9762198
3065.32 9333632 8991496 8262552 7640440 7286226 6991504
3068.21 6769068 6841070 6695246 6401352 6169786 6068568
3071.10 5834192 5726770 5629378 5594148 5495156 5214876
3074.00 4926240 5116146 5185420 4955420 4651108 4450902
3076.89 4245120 4383224 4718536 4983142 5088806 4963268
3079.78 4670304 4662128 4548494 4313704 4320798 4572524
3082.67 4787604 5367988 5787464 5669952 5764232 6079130
3085.57 6325702 7089466 7529674 7077934 6899194 7230392
3088.46 7569998 8379276 9066506 8707916 8266522 8288620
3091.35 8609212 9623284 10882980 10079730 8904978 8993222
3094.24 9877998 11151900 12745470 11900920 10243830 10118470
3097.14 10826940 11923400 13774770 13738480 11674450 11302550
3100.03 12103490 13639130 15998330 17292660 14725370 13808160
3102.92 14627050 16414570 18862130 21939870 20892140 20236740
3105.82 21765620 24676560 26231700 28168880 28062960 27128710
3108.71 28178440 30220990 33397540 38000150 39851080 38539280
3111.60 38995090 40651840 42905300 45443190 46725300 45067770
3114.49 43909550 44100520 44322290 43872730 42688920 40752870
3117.39 38833350 36710360 33706350 30943920 28965520 27014470
3120.28 24816250 22985970 22299740 23792200 29032990 39129540
3123.17 49991320 46610900 25935490 12504300 11630940 14044400
3126.06 16729440 19631720 23142360 27465760 30912840 32928900
3128.96 35467970 38843400 41113640 42303550 43732360 45172800
3131.85 45164100 44487470 44319660 44362110 44791050 45337770
3134.74 42566570 39064800 37658150 37144240 37510040 37442480
3137.64 33301050 28853340 27050090 26792080 27430600 27339690
3140.53 23522010 19147690 17463660 17050360 17544270 18436910
3143.42 16301820 12377970 11011560 11221500 12175910 13411060
3146.31 11912790 8402416 7152198 7295350 8174696 9984520
3149.21 9123154 6122162 5382040 5844424 6771240 8251842
3152.10 7879022 5901044 5294468 5191290 5862406 7244786
3154.99 6631744 4714698 4502184 4884960 5706710 6518152
3157.88 5538588 4190732 4185678 4295136 5005704 5435376
3160.78 4537892 3838750 3937892 4054120 4750928 4501558
3163.67 3375208 3031404 3257852 3524580 3918348 3350452
3166.56 2743574 2708804 2870392 3035616 3167010 2616056
3169.46 2170682 2157062 2496598 2656074 2487678 2073100
3172.35 1801348 1723914 2080084 2268160 1940870 1532996
3175.24 1440640 1584160 1851880 1675234 1557974 1575394
3178.13 1622198 1577298 1471006 1225990 1205626 1146920
3181.03 1075656 902500 858410 858686 1003726 958182
3183.92 701006 434836 381100 458256 679246 594300
3186.81 426018 371608 450408 468000 467082 218672
3189.70-26494-3828 97564 140514 221022 93826
3192.60 92214-41374-197818-220850-109798-52978
3195.49-77330-128948-140000-254920-299512-258250
3198.38-200100-217464-74898-6550-38426-275842
3201.27-418106-469938-373968-423690-420530-371530
3204.17-388884-297376-209146-352632-326542-413602
3207.06-531038-433992-234444-410574-518318-258472
3209.95-325722-661860-583612-479030-283970-405228
3212.85-450554-373528-365632-446524-333182-227834
3215.74-344202-463244-375770-421904-604372-490884
3218.63-248108-166248-113314-198960-457478-463562
3221.52-272970-154470-213664-403430-431548-419454
3224.42-294600-151212-71180-149426-312656-525262
3227.31-653996-769198-667408-463400-401974-329134
3230.20 88582 377196 253828-43546-150412-208362
3233.09-151740-214726-290366-269140-149998-152200
3235.99-182858-283662-426824-364782-397656-463400
3238.88-589988-735904-683770-610438-500516-540920
3241.77-339294-306232-445646-556680-678256-587808
3244.67-498964-555832-627626-727480-766882-794082
3247.56-858992-773090-568268-416900-530974-671788
3250.45-604980-695464-730410-415460-399012-592216
3253.34-607048-513628-626748-693162-692008-610614
3256.24-538836-615814-610652-451934-316058-328522
3259.13-343400-365650-289594-279092-365726-483030
3262.02-463512-356432-278360-148854-73730-259888
3264.91-369174-302632-480256-718406-626664-517544
3267.81-500552-520610-307510-337400-509756-477286
3270.70-314426-185606-242054-418374-439888-407276
3273.59-416558-521456-512822-436454-320036-404458
3276.49-503192-404854-436036-439350-263124-240406
3279.38-296014-206122-227958-329976-449560-542588
3282.27-512024-430890-384408-239962-102252-136692
3285.16-176708-141320-157166-303360-397896-353768
3288.06-353376-378508-361156-282234-200666-355982
3290.95-502362-409356-254628-393972-219878-159594
3293.84-381056-359058-302272-245980-93914-17444
3296.73 18752-33488-188508-3792 136994-18986
3299.63 54050 6698-158610-157160 50128 57982
3302.52-89922-187920-289826-324400-319956-283364
3305.41-324938-301882-117910-32572-13038 126594
3308.31 137424 72290 156996 147966 51462 142432
3311.20 472318 422804 308396 339764 418166 496748
3314.09 560190 555874 640462 730448 829186 900866
3316.98 973592 1018664 1030124 1128684 1100710 1106818
3319.88 1310242 1377370 1157016 1040598 1105442 1114638
3322.77 1191988 1236634 1193138 1281226 1178026 996606
3325.66 959860 1153746 1320634 1172038 861828 710764
3328.55 1017514 998358 758834 520436 372684 426548
3331.45 965056 1197660 1476150 1821118 1468556 1228820
3334.34 1150690 1107930 1081558 1318536 1661102 1603642
3337.23 1527028 1727164 1855644 2077474 2240140 2231440
3340.13 2239118 2254596 2313652 2322212 2161498 2178066
3343.02 2173580 1990934 1814468 1745746 1670040 1734600
3345.91 1758490 1546654 1287136 1165950 884812 645304
3348.80 602750 653234 632036 590112 610168 705580
3351.70 638328 549960 368882 202348 182788 239406
3354.59 288040 292226 206774 305510 423952 328052
3357.48 493558 723194 852322 845116 766140 622252
3360.37 617716 770706 972016 834030 713054 635766
3363.27 523112 519578 559214 591968 551338 281992
3366.16 157256 301690 324566 190134 138884 14216
3369.05-79966 138920 314380 309974 258432 228710
3371.95 158814-6948 95434 342906 243422 39156
3374.84-36754-83632 106176 177580-51780-86964
3377.73-14568-57952 37806-157504-398548-132438
3380.62 108692 152452 130548-42300-63170-43360
3383.52-168128-209436-181042-160964-136864-176212
3386.41-242236-250690-350872-505030-500572-469124
3389.30-331386-242432-552432-583578-446228-129274
3392.19 282654 233916-66844-253156-253704-116540
3395.09-24934-303106-472366-322526-227208-382766
3397.98-471864-413664-613332-648442-412876-392092
3400.87-281788-80408 5004-108870-74556-138536
3403.77-309302-330058-298730-387120-408436-391392
3406.66-629464-829704-577336-297284-20238 77880
3409.55-192866-468654-439660-395428-397708-282968
3412.44-88868 23476-195600-437866-299818-125376
3415.34-232334-442660-382000-204606-256020-310314
3418.23-194100-53830-117362-118726-25472-85122
3421.12 55750-9938-202876-150770-93462-113964
3424.01-2060-206582-299388-134778-160100-362452
3426.91-211982-57486-205618-107256 14440-73320
3429.80-266040-313556-79346 58634 74456-32544
3432.69-58708-75972-327316-382292-104740-2400
3435.59-69340-130380-243146-388686-218094 122800
3438.48 262158 21862-267596-176764-94728-267538
3441.37-195878 85902 330134 213160-46304-157230
3444.26-154494-191846-382042-264250 270850 325616
3447.16-45876-200666-155056-97364 44700 194844
3450.05 100806-93712-48596 102556 148918 26632
3452.94 62996 36524 166674 274754 325662 345214
3455.83 284458 288650 355470 420736 96728-130012
3458.73-15460-62068-111568-52700 185498 126064
3461.62-28120 150752 154608-6508-71504-192928
3464.51-179030-123054-290900-346792-37580-55898
3467.40-44586-243446-297666 26626 266994 224238
3470.30 183756 88544 58914-18258-169582-115692
3473.19-158156-184946-78482 2312 132472 270508
3476.08 230584 74288-35264 18792 41384-71906
3478.98-73740-25218-11468-89242-137738-1410
3481.87 202878 250330 312954 350804 291170-32444
3484.76-61692 61542 155426 17008-8564 113240
3487.65 49440-195874-97116 150764 150602 106632
3490.55 97778 183968 106356-99826-195534 118074
3493.44 449596 438300 483188 552948 437522 379654
3496.33 230006 172040 384008 351246 298252 426932
3499.22 349094 188400 279686 429934 343544 318830
3502.12 575456 948474 1113066 870040 694830 433570
3505.01 160026 34854 132184 220622 158924 213902
3507.90 379882 519010 818982 651386 427648 520842
3510.80 454688 280696 227056 265384 484250 821230
3513.69 995664 793444 579994 539144 794064 1022788
3516.58 917120 871398 991950 1024876 919756 805282
3519.47 686320 525626 661248 861750 814862 674324
3522.37 787942 858232 874130 740804 715180 817370
3525.26 970090 798568 892302 1110140 963894 681950
3528.15 764346 732218 318062 350760 628264 498456
3531.04 316976 345196 397816 551202 848522 890068
3533.94 448768 148288 167700 375924 848986 738466
3536.83 497244 498088 430734 360346 339000 384472
3539.72 601148 585514 516234 425546 626608 735762
3542.62 790688 815224 796996 626512 964434 1122624
3545.51 653292 719986 1244824 850610 524800 673802
3548.40 420356 271096 357370 216758-4084 209258
3551.29 702674 854616 370786 257106 376148 119848
3554.19-135020-49244 150640 160688 120020 84174
3557.08 4478-10950 65520-80878-97236 477224
3559.97 537540 49054-65264 131456 203196 270244
3562.86 568316 592402 255738 272780 728876 1347192
3565.76 1807730 1818410 1188608 1927132 2672932 1369182
3568.65 452110 335066 492368 526434 377228 96834
3571.54 74624 176586 241942 282110 298982 242234
3574.44 213362-14194-88718 39022 369136 339766
3577.33 45220-166260-6094 312864 511424 493410
3580.22 123444-41668 221418 294992 354220 534858
3583.11 525118 120806 102312 344772 506390 1221550
3586.01 2840288 2149188 790230 984168 2951710 3292158
3588.90 1125550 420824 407508 206342 27150 146726
3591.79 358068 977906 1361624 853550 337150 587630
3594.68 1387222 1257840 761132 641636 489616 629964
3597.58 755586 693812 563982 676054 747438 905938
3600.47 1139824 711394 300784 377304 559922 506954
3603.36 442760 578726 487296 390368 401712 748250
3606.26 1645566 1915348 901596 658116 2043520 5060666
3609.15 3723348 1103304 628016 524280 932950 2215494
3612.04 3933892 2727602 979040 885764 1786350 1705552
3614.93 1175126 845716 777370 884244 1951320 2713530
3617.83 1769930 1401474 3911694 5251230 2256040 1034232
3620.72 1247898 936064 635232 775078 842644 829878
3623.61 588956 692598 955416 1230214 1485998 1426592
3626.50 1087934 1571566 4845638 7531206 5703678 8009986
3629.40 7075638 2501006 1531028 1293706 1338454 1498922
3632.29 1443866 1838044 2838202 2135964 1317806 1484792
3635.18 1551256 1474530 1446720 1449706 1745946 1906914
3638.08 1583462 1418138 1534110 1576748 1463256 1397488
3640.97 1688810 2019200 2018324 1735162 1570472 1449326
3643.86 1683686 1730268 1754264 1944058 2694552 3631080
3646.75 5232470 4638170 2987198 4910368 9961588 7782050
3649.65 4165444 5305414 5870086 4939934 2711382 2057352
3652.54 1923368 1710580 1609416 1800274 2066520 2765120
3655.43 5708932 7714772 4352654 2354060 2000254 2035376
3658.32 1942276 1989848 2044946 2118792 2037304 1988152
3661.22 1865192 1687628 1541516 1629402 1520056 1452400
3664.11 1409642 1315288 1308520 1498800 1268776 946848
3667.00 1033750 1623982 3776574 4912992 2796472 2838224
3669.90 8227218 11378760 4950496 1642238 1139334 1388896
3672.79 1344492 2054022 3444020 6689226 7180164 9181376
3675.68 10434430 4387432 1527036 1388600 1083010 993920
3678.57 1842960 2414372 1439352 809422 418212 395268
3681.47 471166 540990 480810 484122 293274 455088
3684.36 326074 215660-10718 187368 434188 808976
3687.25 3050432 10716910 10776910 3145896 704374 894866
3690.14 2057326 4183650 3669612 1052658 539170 396876
3693.04 489172 499522 583220 316050 275686 409002
3695.93 483878 239738 263328 323306 306318 257626
3698.82 288676 176910 115994 267018 1402818 3176960
3701.72 2344274 635170 263458 252142 297090 50744
3704.61 71122 201592 216374 36080 220410 89420
3707.50 138912 330776 1916882 3473390 1801368 467732
3710.39 822314 1609512 5659446 7907026 3022612 271468
3713.29 40778 248382 627006 291750-96436-9688
3716.18-67612-32694 82824 267514 775332 1068260
3719.07 276110-11624 44090 51550 422416 1785650
3721.96 1952646 679594-14842-33096 366692 983194
3724.86 775480 532356 1877120 2328322 666528 62236
3727.75-49868-151214-48370 40824-132250 44668
3730.64 427944 2920068 6690108 4351324 614594 162504
3733.54 1009956 2880886 3980644 3312156 2105972 5101116
3736.43 5977442 1577168 609142 1288950 769220 121924
3739.32-3836-11474 726686 1421354 874680 185888
3742.21 384660 1063008 4014590 11734890 18166550 10983480
3745.11 2289456 334984 216696 391294 683478 704406
3748.00 1440518 7447950 12590500 6361392 1062020 779526
3750.89 1983518 8777758 13057820 5242866 471200 98006
3753.78 90270-37042 94956 228722 1242674 1851428
3756.68 749964 24746 29038 148216 950260 2442620
3759.57 2550056 633232-69586-185298-221462-148882
3762.46 69484 29952 59466-112886-18710 1239308
3765.35 2323994 891554-22946-270628-140952 270
3768.25 141154 820380 3421998 3336414 805844-83448
3771.14-172610-358478-393926-333258-217570-286756
3774.03-264612-258598-275382-96350 29444-137998
3776.93-55678-54584-204404 312338 2035474 1989482
3779.82 243818-357734-319624-134718-170606-236936
3782.71-257370-216270-106 460976 283514-3178
3785.60-101180-217304-382176-428620-334072-209878
3788.50-169404-219598-451986-396302-91674-30800
3791.39-288214-416590-342164-240740-310464-202312
3794.28-267458 17760 602292 2364724 2450786 861536
3797.17 445480 175770-63148 39320 73632 451356
3800.07 1735744 7720776 11813390 4960934 1058062 1195584
3802.96 456546-20226 7026 24068 250816 557340
3805.85 2204104 7033376 6489438 1383098 45360-60362
3808.75-94992-423530-104912-62068-5270-117532
3811.64 119726 76150 118162-71508 179366 316690
3814.53 828432 4558606 11939310 8702224 1681368 392668
3817.42 472520 688744 654230 696356 1194006 3353598
3820.32 5417824 5227550 5981714 3152144 547992 443034
3823.21 551958 826848 728144 580230 808512 1216442
3826.10 2328490 2223220 990874 894580 906398 696340
3828.99 645822 772634 860222 1545878 3786882 4352060
3831.89 2104292 1505662 1481898 1670030 2236832 4800660
3834.78 4563160 2117046 1540292 2142708 4926638 12992820
3837.67 12260190 4063980 2048566 2591380 3090158 3283730
3840.57 4344912 3094532 2095254 1897718 2333450 3661464
3843.46 3859952 2106204 1394288 1138268 1184954 1268436
3846.35 1461442 1345164 1429592 1333792 1494980 1794954
3849.24 2265040 2078814 1859140 2354158 7779552 11897120
3852.14 6171052 3608806 9964314 19421030 16508740 5897958
3855.03 2184734 2046818 2415274 3209104 3422736 2682640
3857.92 2399484 2278088 2381766 2100648 1987432 1962774
3860.81 2989998 4201238 3022834 1692146 1677156 1668742
3863.71 2037450 4131900 6063050 2981150 933160 596716
3866.60 718288 568844 768374 1289648 3044370 4633486
3869.49 7991390 6207640 1482498 758330 461672 295156
3872.39 208586 817902 2023426 2974462 1694414 406400
3875.28 332846 229588 109364 75698 322892 450652
3878.17 490110 505442 1429260 3452742 3230500 1881172
3881.06 1043470 523464 470002 668604 892284 654206
3883.96 500508 1148886 5290530 6904158 3004066 869182
3886.85 682842 545284 499552 686276 594960 308724
3889.74 442624 2135880 5240546 4025400 1287208 756266
3892.63 700710 928932 1059130 834434 763870 782622
3895.53 901052 933296 736620 829338 1093950 1270214
3898.42 2968602 4805514 2886070 1304176 1278718 2965798
3901.31 5383788 3837504 1779408 1557852 3339948 5759332
3904.21 3752638 1600930 1649900 1815670 1263298 1019680
3907.10 1106976 1220704 1272266 1253768 1103642 783094
3909.99 667504 762258 787248 622252 577066 564970
3912.88 669654 881522 762250 669576 940544 1232056
3915.78 1511318 1822498 2786108 2141432 1286560 1283296
3918.67 1246120 1969916 2677384 1791176 1159914 1128422
3921.56 978854 971354 1213844 1521732 1564232 1537536
3924.45 1965396 1904228 1250222 911220 594952 704060
3927.35 805676 762076 849840 1134958 1027098 837250
3930.24 807272 577302 757844 1531132 1728656 969202
3933.13 732840 813386 762462 458122 315776 251714
3936.03 220968 266978 497918 775640 714492 251156
3938.92 203918 418992 487014 441246 426824 354488
3941.81 844016 1410756 899844 503492 577522 608498
3944.70 487144 377256 319792 399056 646096 820324
3947.60 773368 573892 425306 949380 1293410 722768
3950.49 275042 383786 617348 513130 382006 367990
3953.38 452260 522992 583854 539592 479050 475928
3956.27 595592 573940 433130 450494 450292 516052
3959.17 562486 551234 623876 769996 926498 930500
3962.06 699000 431660 287332 384404 471886 588050
3964.95 599330 499750 509934 548358 676632 925960
3967.85 947616 921198 988930 987300 990206 910214
3970.74 851278 1057522 1103032 1083064 1024366 1077434
3973.63 1075298 1179598 1607346
##END=
