##TITLE=1,2-Dichloroethane
##JCAMP-DX=4.24
##DATA TYPE=INFRARED SPECTRUM
##CLASS=IUPAC A
##ORIGIN=NIST, Analytical Chemistry Division, 301-975-3108
##OWNER=COPYRIGHT (C) 2001 by the U.S. Secretary of Commerce
##DATE=01/06/01
##$SPECTRA VERSION=1.10
##$UNCERTAINTY IN Y=2.1 % relative (B=1.10E-04,C=7.45E-10,D=1.46E-14)
##CAS NAME=1,2-Dichloroethane
##CAS REGISTRY NO=107-06-2
##MOLFORM=Cl C H2 C H2 Cl
##MP=-35.36 C
##BP=83.47 C
##$NIST SOURCE=QUANT-IR
##SPECTROMETER/DATA SYSTEM=IFS66V (Bruker)
##INSTRUMENT PARAMETERS=KBr Beam Splitter; MCT Detector; Multipass cell
##STATE=gas
##SAMPLE DESCRIPTION=1,2-Dichloroethane Primary Gas Standard
##PRESSURE=101.3 Pa
##TEMPERATURE=23 C
##SAMPLING PROCEDURE=1 L/min Flow
##RESOLUTION=0.9640
##DATA PROCESSING=NB Strong Apodization
##XUNITS=cm-1
##YUNITS=(micromol/mol)-1m-1 (base 10)
##XFACTOR=1.0
##YFACTOR=9.0949E-13
##DELTAX=0.4820
##FIRSTX=575.17
##LASTX=3974.605
##FIRSTY=8.45E-08
##MAXX=3974.12
##MINX=575.17
##MAXY=.0005865
##MINY=-1.16E-06
##NPOINTS=7052
##XYDATA=(X++(Y..Y))
575.17 93008 276393 969528 1295319 1231421 734725
577.58 855394 1119240 1004832 1011214 1297038 631306
580.47 89469 70453 632124 183389 330308 919035
583.37 862606 717270 234835 49882 635452 605258
586.26 551645 398419 161343 564085 397381-26810
589.15-146405 264761 404950 481022 586701 613913
592.04 773879 717595 504526 125135 124023 193644
594.94 168911-147280-112568 274986 261667-36185
597.83-4185 40555 219181 302961 42285-345768
600.72-161690 200830-37916-293323-179557-311149
603.62-275447 247329 153380-112366 25882 40459
606.51 80612 41783 113713-38193-158560-336722
609.40-484887-232288 39080 290432 284357-207566
612.29-456525-293895 36728 266048 365194 216942
615.19-15495 37049 95719 325057-32689-123320
618.08 21494-102217-93562 91793-29694-231092
620.97-324483-113650 23915-63193 86189 360586
623.86 390904 294265 148781 59476 49984 160988
626.76 478025 439611 549305 684059 438072 400781
629.65 471140 528547 718657 665477 536548 591946
632.54 866788 920866 804872 799239 766710 779741
635.44 821714 1105486 1307597 1280929 1343225 1449366
638.33 1321999 1401075 1912390 2193164 2090557 2004389
641.22 2288259 2600146 2849530 2973963 2997877 3285973
644.11 3596989 3652799 3721131 3991064 4346081 4537026
647.01 4722699 5034123 5282067 5700175 6271544 6561258
649.90 6762234 7177005 7695884 8041728 8447815 8952049
652.79 9208300 9464518 9949049 10371362 10748675 11342803
655.68 11929579 12594466 13092965 13628609 14129354 14515204
658.58 14961009 15626408 16042892 16248538 16648865 16884216
661.47 16974458 17293017 17411825 17413077 17415146 17237634
664.36 17082650 16712044 16295405 15965683 15583979 14544908
667.26 13701836 14246297 14984129 15550260 15943802 16451499
670.15 17063677 17755284 18755787 20139916 21213455 22066774
673.04 23087174 24060470 24689407 25158542 25016966 25049335
675.93 25410299 25602755 26231285 27086053 27678257 28148134
678.83 28718672 29591427 30460469 31366616 32404832 33749591
681.72 35037786 36513139 38098669 39461674 40840848 42137278
684.61 43215623 44197361 44671753 44683370 44546770 44337709
687.50 43724253 43099994 42886024 41938394 39070210 36574996
690.40 38065586 43457342 45869744 40062573 35474886 43131046
693.29 53148454 50288722 39048768 33819779 32616445 32256221
696.18 33993921 36557837 38872671 41275035 43326027 44783915
699.08 45607321 46031832 45965269 45562224 44795931 44038975
701.97 43405981 42971597 42581967 42482041 42895024 43800676
704.86 45168945 47296109 49987933 53518931 57544291 62591398
707.75 68608331 75426574 82985922 91752061 101604406 112316030
710.65 123756651 136858758 151423753 167216324 183930999 201840748
713.54 221073633 241409082 263379004 286734200 310402280 334963604
716.43 360456302 387244171 414264862 440318192 465789706 490635927
719.32 513432939 534280040 553688943 571472173 586469031 597762110
722.22 604380428 608615511 611388012 610560793 605355815 597996846
725.11 594201739 590572767 582010147 570320942 567446070 573771857
728.00 583100472 578693383 576280854 581846155 605966077 634018180
730.90 644873290 624157841 616230051 621498381 620107111 607489752
733.79 583340129 548643731 505415451 456535676 403956919 349410184
736.68 296079158 245092808 197995165 155709480 119402502 88960676
739.57 64456647 45419864 31484803 21580508 14966521 10862846
742.47 8687414 7615459 7375015 7170839 7046523 6987535
745.36 7026712 6933934 6872046 6807327 6989440 7033197
748.25 6842839 6860539 7054629 6983740 6869369 6980474
751.14 7155410 7103293 6974231 7155817 7336152 7094237
754.04 7005301 7450604 7655606 7266941 7277351 7817937
756.93 7745141 7328677 7524055 7737968 7577085 7386748
759.82 7771123 7846344 7422803 7243306 7714289 7927182
762.72 7690077 7786460 8120708 8088878 7807376 7915699
765.61 8414408 8305180 7778176 7657577 7643840 7522069
768.50 7459029 7536501 7749128 7959635 8347483 8966997
771.39 9573363 9718387 8921818 7752955 7146600 6816711
774.29 6790505 6856038 6585241 6335178 6401924 6359047
777.18 6122805 5828020 5828335 5815845 5670929 5536339
780.07 5786592 5877346 5534543 5292095 5453343 5444172
782.96 5141746 5015674 5326265 5400919 5218745 5108665
785.86 5243710 5172019 4832927 4586892 4683902 4665232
788.75 4339417 4347104 4558072 4209925 3855386 4118698
791.64 4209127 3731473 3660497 3818798 3663551 3430421
794.54 3501124 3658926 3491711 3305001 3257881 3279496
797.43 3167304 2784446 2750104 2966998 2852320 2750222
800.32 2824147 2523556 2276597 2386559 2488432 2311980
803.21 2317042 2363264 2210139 2119846 2063161 2140449
806.11 2153096 2006612 1991135 2013398 1960976 1866751
809.00 1943580 1916557 1795045 1787832 1814348 1872420
811.89 1921710 1716441 1593996 1581466 1579621 1545757
814.78 1605406 1607277 1618251 1661951 1518319 1624756
817.68 1771154 1662961 1696030 1713280 1691994 1683887
820.57 1681970 1783790 2047777 2037925 1896397 2014998
823.46 2041434 1962273 1937240 1967354 2093775 2237068
826.36 2263712 2268031 2353810 2399340 2410300 2343207
829.25 2378134 2378841 2371940 2400368 2423179 2469928
832.14 2378080 2209323 2209324 2243706 2122909 2067542
835.03 2082132 2128344 2103388 1990537 1986830 1975294
837.93 1904311 1819749 1823905 1834608 1837556 1921888
840.82 2016483 1892011 1842197 1833187 1670310 1471134
843.71 1304459 1291303 1269523 1134461 1156251 1157666
846.60 1022666 844114 721106 721205 747129 720151
849.50 617532 607547 726541 717135 623124 669195
852.39 669640 562700 643274 625950 636463 766367
855.28 811626 749197 816465 949743 939509 891624
858.18 792301 643268 673715 860026 955379 980171
861.07 956107 974586 1077567 1205589 1300406 1310570
863.96 1274984 1304402 1388462 1464316 1619168 1786337
866.85 1933581 2148478 2225218 2180618 2363184 2495993
869.75 2594553 2737447 3005528 3273744 3635592 3894830
872.64 4200390 4695948 5153652 5583776 6233094 7006615
875.53 7878680 8656531 9550352 10633895 11763151 12711153
878.42 13742628 14845407 16021309 17303604 18515063 19731867
881.32 20916602 21899800 22742875 23483142 24109440 24796194
884.21 25380016 25352438 24509104 23433291 22574159 21990240
887.10 21833462 22394368 23516060 24968473 26570796 27990631
889.99 27869891 24309577 20471357 18145962 17676707 17777718
892.89 18259506 19396954 20527683 21655902 22592190 23274760
895.78 23778779 23781496 23493072 23073773 22357574 21456663
898.67 20441408 19313881 18134675 16813515 15490917 14331790
901.57 13148498 11978211 10864772 9768714 8740155 7895922
904.46 7107190 6438221 5934664 5412707 4904180 4500002
907.35 4086259 3785130 3380479 3076185 3022771 2936977
910.24 2752313 2690786 2616693 2433803 2314622 2294027
913.14 2242164 2100464 2006294 1974812 2031375 2097501
916.03 2042287 1889885 1878876 1959045 1979241 1996952
918.92 2106777 2209275 2241674 2288757 2271824 2329414
921.81 2444216 2620120 2806046 2951362 2939724 3057244
924.71 3187100 3276608 3460283 3719858 3946693 4107033
927.60 4304973 4560602 4808444 5048351 5232391 5410622
930.49 5637482 5878897 6130306 6383950 6642349 7028110
933.39 7293240 7508918 7786304 8067527 8314131 8557725
936.28 8815443 9060431 9270963 9470645 9757399 9914118
939.17 10067731 10176964 10135429 10224024 10335042 10211062
942.06 10112850 10134538 9965641 9687181 9519426 9375999
944.96 9112786 8825080 8549021 8296988 8134039 8155651
947.85 8354102 8563320 8765671 9165515 9862704 10295959
950.74 10404164 10676366 10946413 10968515 10761318 10592615
953.63 10465395 10353072 10234590 10057360 9881089 9648913
956.53 9371190 9082636 8655285 8174838 7755604 7423104
959.42 7125737 6768748 6352331 6018377 5734047 5396062
962.31 5159635 5003154 4786757 4557013 4366934 4143674
965.21 3957230 3793007 3682009 3570311 3443162 3221939
968.10 3069359 2969550 2897451 2825455 2637058 2454138
970.99 2345685 2381977 2358070 2253672 2207414 2052969
973.88 1944641 1947869 1981119 1955831 1938166 1928514
976.78 1980441 2086752 2215155 2265718 2331200 2421230
979.67 2571047 2623880 2629440 2723539 2800143 2863196
982.56 2891757 2869508 2937640 3056901 3165859 3150931
985.45 3088807 3029255 3015655 3028077 3047165 3059334
988.35 3181956 3297583 3324435 3312027 3391252 3509985
991.24 3595303 3680317 3753568 3740699 3627766 3641105
994.13 3680876 3541572 3404601 3328331 3241997 3098306
997.03 2972299 2855924 2711566 2600323 2491837 2397672
999.92 2338557 2268868 2118066 1938052 1842521 1788855
1002.81 1771285 1783074 1756342 1759653 1716638 1742329
1005.70 1820551 1769281 1690802 1744239 1819277 1849706
1008.60 1879304 1947122 2025289 2112191 2175142 2266594
1011.49 2363706 2457971 2558279 2559320 2559419 2719690
1014.38 2840813 3017146 3269096 3434318 3497177 3555293
1017.27 3668723 3813554 3914556 4003975 4080491 4194450
1020.17 4234441 4311033 4496634 4675951 4812357 4860577
1023.06 4758155 4739029 4897224 5090326 5044342 5068545
1025.95 5206990 5217790 5193031 5111373 5010976 4979490
1028.85 4903139 4755169 4578471 4458809 4385670 4214070
1031.74 3973526 3850781 3858216 3800151 3771714 3730225
1034.63 3507759 3280236 3034825 2776302 2734244 2649253
1037.52 2419151 2215139 2110285 1935183 1755446 1696023
1040.42 1634746 1571546 1505469 1461858 1332529 1252135
1043.31 1251290 1223192 1162454 1107832 1083265 975640
1046.20 861393 847653 838882 786416 802438 798522
1049.09 682887 609527 602493 648854 637289 598536
1051.99 493675 387084 402483 384870 345203 365580
1054.88 366934 284768 239579 238495 207696 164928
1057.77 223858 252205 266526 295326 270320 216994
1060.67 144872 158243 106754 52514 67305 99361
1063.56 147814 124933 83521 65584 149327 171293
1066.45 73307 25258 94822 105295 91762 148523
1069.34 122750 61615 49956 108883 140086 133139
1072.24 106612 78781 58803 93711 85098 98088
1075.13 136927 178516 149809 193914 219985 292957
1078.02 317966 320826 309888 321046 297845 332974
1080.91 430921 426684 441286 480787 454476 555538
1083.81 527274 462294 480578 583807 656190 581851
1086.70 560827 637616 650179 666636 806989 822518
1089.59 788462 935117 1000779 983876 958680 879693
1092.49 917273 1048470 1136576 1274853 1325508 1283682
1095.38 1193970 1160744 1195443 1342947 1429441 1384952
1098.27 1476685 1558300 1519852 1547006 1710042 1756558
1101.16 1702080 1670990 1838433 1875676 1816802 1897393
1104.06 2000732 2083721 2058870 2090172 2189818 2197301
1106.95 2226909 2252124 2273763 2294864 2320681 2477654
1109.84 2548268 2426669 2403809 2517378 2604854 2511176
1112.73 2501319 2700132 2721621 2584694 2640042 2724672
1115.63 2645171 2556620 2631102 2684251 2705530 2788700
1118.52 2839431 2808534 2776968 2892883 3097980 3488346
1121.41 4509822 5505572 5453441 4974599 4639053 4185273
1124.31 3806900 3510188 3205347 3093357 3189565 3103530
1127.20 2927258 3080600 3396353 3164078 2811880 3267048
1130.09 3598473 3033975 2862572 3593768 3588489 2834342
1132.98 2990735 3664578 3432877 3086087 3462697 3693466
1135.88 3246845 3022141 3324085 3512640 3227657 3087357
1138.77 3298606 3381339 3094885 2884960 3053231 3081463
1141.66 2887253 2967095 3161530 3019896 2851369 2934117
1144.55 3102312 3294317 3566973 3394911 2948991 2739480
1147.45 2684955 2761319 2803623 2737467 2765218 2818806
1150.34 2669745 2542572 2513659 2486408 2414178 2389236
1153.23 2316736 2205694 2149677 2174695 2214626 2189926
1156.13 2134301 2085078 2047726 2004869 2041431 2070653
1159.02 2043716 1928655 1792751 1819767 1717314 1587518
1161.91 1620051 1594283 1525609 1498153 1464480 1400802
1164.80 1370983 1329430 1230337 1253025 1263375 1205434
1167.70 1194188 1155619 1039707 971482 1007878 996468
1170.59 989791 955983 900927 887462 833704 849102
1173.48 897565 911469 917282 979653 955022 926140
1176.37 908880 940159 909715 859595 800813 788571
1179.27 850044 908948 935365 972649 988364 983564
1182.16 1044725 1081502 1105657 1132193 1173757 1246168
1185.05 1247247 1308564 1366928 1367797 1420262 1501269
1187.95 1525734 1573917 1613859 1704903 1854350 1945278
1190.84 2011834 2151502 2313194 2329031 2294765 2523824
1193.73 2699194 2620085 2652598 2919379 3000257 2896379
1196.62 3038849 3445331 3609434 3498497 3626253 4080773
1199.52 4113173 3873663 4227237 4848546 4719706 4403126
1202.41 5019684 5623813 5150948 4944806 5811156 6339050
1205.30 5886779 5938911 6733914 6933424 6545128 6867498
1208.19 7512928 7637084 7665868 8018420 8421833 8716298
1211.09 8779687 9185470 9993678 10305425 10462873 11468283
1213.98 12699350 13115676 13855833 15891981 17797962 18545069
1216.87 20602758 24539457 27592963 29966540 34917146 41154544
1219.77 46126935 51816077 60578544 69914867 78167988 87811441
1222.66 99870391 111828793 122923019 134494969 147027815 158359566
1225.55 167782834 175752571 182509554 186622962 187786866 185665222
1228.44 181230822 173159640 160336482 145589735 133841791 135257536
1231.34 148551866 140675447 131138240 131956174 137097367 146206409
1234.23 156606079 167571717 177648112 187339650 194868743 199060511
1237.12 200893365 201323575 197100233 188475205 179071610 169272241
1240.01 156220147 141363789 128022947 115783717 101924761 88303387
1242.91 77672458 68509481 58218994 49182181 43357327 38208314
1245.80 31806310 27081598 25029112 22547862 18605271 16554945
1248.69 16675353 15582042 12976189 12285858 12953017 12181914
1251.59 10677835 10902331 11193956 10055575 9336432 10140570
1254.48 9951969 8638584 8547258 9367415 8852220 7872878
1257.37 8162218 8540799 7650089 7077883 7600590 7758604
1260.26 6947670 6624158 7020742 6929014 6278278 6352686
1263.16 6611351 6161412 5658063 6041783 6136656 5570310
1266.05 5351207 5626709 5573580 5243501 5311012 5505396
1268.94 5230919 5073646 5383751 5608293 5413610 5597326
1271.83 5956931 6250131 6405283 6829826 7434712 7974700
1274.73 8557341 9606082 10629350 11647730 12993512 14683621
1277.62 16365762 18262755 20391324 22798049 25133456 27651663
1280.51 30341233 33130370 35792067 38457234 40968706 43337805
1283.41 45237079 46882909 47928333 48410598 48428644 48234933
1286.30 47237495 45481628 42878063 40379709 37290933 34438038
1289.19 32773971 33914458 39098367 51132131 67343940 75811979
1292.08 56147950 29413522 22439595 24362239 28538899 33397382
1294.98 38682830 43339090 47444315 50568881 52861728 53903457
1297.87 54083796 53313015 51980765 49934816 47552094 44794357
1300.76 42002119 39130129 36350163 33511585 30962434 28606052
1303.65 26326378 24258123 22643088 21098391 19707146 18429394
1306.55 17449416 16566396 15864563 15174694 14525333 13903801
1309.44 13432166 12932776 12439249 11866814 11329840 10804954
1312.33 10468224 10286082 10284516 10444615 10850061 11478714
1315.23 12216882 12944239 13626034 14067175 14342648 14507719
1318.12 14485701 14371581 14220276 13869842 13456695 12992129
1321.01 12646391 12354834 11964510 11563527 11216997 10892164
1323.90 10655273 10361740 10057426 9830855 9584640 9344121
1326.80 9156571 8958126 8747309 8503098 8301361 8094774
1329.69 7800783 7557278 7377275 7186083 6991655 6753291
1332.58 6479072 6296641 6110057 5824034 5675305 5625310
1335.47 5445754 5194699 4990226 4902794 4819217 4627987
1338.37 4473840 4375046 4268744 4223904 4187594 4115026
1341.26 4036600 3910835 3868019 3803390 3691951 3694960
1344.15 3652862 3576038 3493306 3439584 3503726 3399851
1347.05 3310565 3299169 3234622 3191512 3144024 3120001
1349.94 3133789 3021514 2936263 2839169 2849913 2904372
1352.83 2933991 3111655 3196735 3197792 3168482 3282596
1355.72 3261301 3264263 3267603 3048992 2937450 3000411
1358.62 2906593 2923125 3040260 2947625 2804465 2757507
1361.51 2722001 2678992 2622476 2665192 2623236 2513815
1364.40 2472870 2386703 2371865 2451690 2463454 2473338
1367.29 2385752 2245954 2091723 2090439 2074916 1933671
1370.19 1854569 1801655 1665496 1529224 1455420 1424150
1373.08 1342379 1376826 1467710 1522022 1413348 1334153
1375.97 1407192 1443704 1469282 1465448 1383545 1330175
1378.87 1358944 1419499 1357753 1303148 1231404 1189872
1381.76 1224387 1209269 1224350 1272436 1213489 1166511
1384.65 1202530 1224336 1078650 989954 938046 838276
1387.54 918271 1049148 1110827 1150144 1098850 1063565
1390.44 982172 915449 904414 989961 988282 905841
1393.33 847450 750225 694885 812935 823885 846377
1396.22 888211 955081 886636 879795 885618 846088
1399.11 902832 1000126 1109745 1213692 1155889 1075005
1402.01 1144161 1289418 1225836 1226862 1315247 1349754
1404.90 1416192 1541886 1543989 1580552 1633014 1746725
1407.79 1882816 2008414 2084690 2231511 2305904 2404153
1410.69 2433916 2592466 2815276 2969871 3036656 3161934
1413.58 3254727 3474569 3610318 3802986 3996091 4218895
1416.47 4316368 4477814 4764182 5030956 5019149 5150043
1419.36 5778831 6342448 6601570 7058275 7574730 8051257
1422.26 8359112 8894305 9475521 10043741 10549158 11388044
1425.15 12246006 12915382 13479569 14333503 15131288 15800436
1428.04 16306307 16988250 17621118 18102607 18381044 18917949
1430.93 19400767 19622322 19473838 19594739 19581262 19610439
1433.83 19792697 21067469 22289143 23704356 27701088 37299276
1436.72 37124619 24926185 19641807 20248422 22474990 24182363
1439.61 25341606 25945741 26766821 27024849 27186906 27726158
1442.51 28649427 28421519 28109852 28531615 29144026 28659159
1445.40 28317584 28692489 29051620 28469821 28096321 28919512
1448.29 29827889 29607473 30128151 31943651 33099110 32688348
1451.18 33759060 36400176 36894965 35814939 37653785 39745645
1454.08 38282337 36875497 37728028 36912063 33958127 31685732
1456.97 30481054 28366896 25263293 23741808 23311757 22066180
1459.86 20344660 20278322 23038497 26547835 30255258 33029562
1462.75 34184098 35218321 36372916 36441571 35376855 34446790
1465.65 34689714 34145794 31319452 29149952 29154613 28258960
1468.54 25138455 23235361 23385156 22464364 19843040 18624929
1471.43 18872687 18149523 16271000 15618340 16349652 15832887
1474.33 14417296 14363628 14800035 13927452 13016828 13331813
1477.22 13620624 12779719 12148026 12445086 12357673 11578971
1480.11 11294899 11400854 11105987 10400703 10242114 10403587
1483.00 9928155 9274873 9352588 9353185 8775939 8400245
1485.90 8474596 8131591 7486799 7349495 7424072 7064865
1488.79 6622739 6405018 6346158 5970695 5759041 5794218
1491.68 5600619 5285095 5146669 4969476 4690837 4479339
1494.57 4386129 4078145 3469579 3317916 3637662 3540597
1497.47 3291194 2999402 2833349 2823682 2822067 2704966
1500.36 2543300 2351939 2291596 2206495 2048368 1964032
1503.25 1916570 1750342 1580514 1182221 886144 1041073
1506.15 764853 479679 857491 1024803 1036755 1126784
1509.04 1165282 1094790 1036603 1016735 1025321 902140
1511.93 895953 1069173 1141143 1156063 1195880 1204114
1514.82 1291366 1343051 1383757 1468180 1504429 1606614
1517.72 1895158 2061844 2119628 2039178 2034031 2062236
1520.61 1795998 1926175 2240115 2105220 2196902 2363617
1523.50 2390916 2289597 2205207 2135445 2361865 2527386
1526.39 2580225 2617863 2807564 2858733 2907928 2981470
1529.29 3045258 3078475 3126811 3057394 2951357 2879168
1532.18 2804890 2644071 2512262 2463344 2547354 2483179
1535.07 2397755 2267444 2183731 2090337 2050562 1889710
1537.97 1534303 878899 1028336 1113170 912151 1160352
1540.86 1164809 763346 707055 1083007 1095302 952066
1543.75 933610 751455 558750 705112 809336 791254
1546.64 783857 732496 690553 632081 534703 409420
1549.54 385759 427006 451418 424119 390273 342801
1552.43 355213 304238 100339-127792 115937 236069
1555.32 245493 271986 285710-19100-236034-633033
1558.21-734197-229747-344233-618643-248456 184721
1561.11 236002 230045 196746 231202 264630 251144
1564.00 179225 139588 169050 217897 215711 261389
1566.89 228675 235691 227250 136693 10391-84083
1569.79 80071 217203 231536 263296 253420 253035
1572.68 260507 241115 222919 256203 184150-131207
1575.57-695196-409738 92763 152864 234250 290806
1578.46 291315 280889 274179 264511 252650 217392
1581.36 225387 252299 240996 217089 238009 268275
1584.25 238241 209111 190738 117078 131226 136940
1587.14 104838 90730 96473 116508 135445 108592
1590.03 82462 47374 104138 117951 77333 41763
1592.93 61677 3812-78893-36180 20758 49174
1595.82 60812 36514 22404-22870-45809-40706
1598.71 20798 18876-4739 3533-18355-6010
1601.61-14378 13552-72333-108096-42419-7200
1604.50 10203-25513-4575-13111-52350-7100
1607.39 14744-13130-22413-58075-30643 3300
1610.28 50966 46172-12668 28 73793 114586
1613.18 99100 62741-3646 420 5537-258079
1616.07-812946-634615-117758 5593 18189-23458
1618.96 7651 18869-7238-22962 30812 42375
1621.85 48268-27632-242254-305991-68074-3353
1624.75 16532-8566-19321-90768-161480-222992
1627.64-149161-65634 1052 6549-21084-30065
1630.53-1333-41061-43931-40758-21650-40520
1633.43-86866-231823-452725-813742-756443-248693
1636.32-113133-215553-183255-114178-92510-30668
1639.21-20793-31948-28923 18989-20282-118014
1642.10-158897-66574 2315-35875-68477-116644
1645.00-400317-655839-356043-211900-277030-213273
1647.89-200593-105181-89851-79968-47040-52882
1650.78-156359-422958-1013125-1167825-1237311-876318
1653.67-456952-386011-178593-147574-101732-61463
1656.57 4564-11922-12389 2920 19572-47753
1659.46-22309 10757 71020 36226-14279-162251
1662.35-283583-108252 3352 15771 29464 36610
1665.25 69658 56495 64856 76127 125002 74247
1668.14-37585-313904-268465 29002 156399 69786
1671.03 9853 135775 217945 209442 217361 223439
1673.92 185013-92823-280947-45425 179749 180780
1676.82 224117 280465 283889 261149 240574 195435
1679.71 205686 239851 252206 202552 221181 192350
1682.60 49101-13121-134074-668108-747298-45795
1685.49 203951 265307 244608 255327 236727 200803
1688.39 245586 246002 149218 141174 198471 193361
1691.28 190368 215576 156085 192345 257537 240753
1694.17 128980-143047-785421-795972-57034 165644
1697.07 111624 143103 155947 62498-279194-732750
1699.96-725338-457723-37108 99541 111772 118527
1702.85 113268 75676-33098-21186 102709 62217
1705.74-47845-17676 104839 150401 163684 156877
1708.64 168312 124642 120297 145838 171228 194125
1711.53 222784 173913 176304 110311 61748 44769
1714.42-65854-76392 120438 115905-154529-629446
1717.31-327580-61755-76309 83939 167272 153620
1720.21 173820 166649 150330 152817 144802 108067
1723.10 132872 180435 202584 192978 188245 180320
1725.99 158280 149582 153954 171088 153030 112249
1728.89 96722 29777 7937 60437 97446 100723
1731.78 17137-120327-452092-414841-448423-590973
1734.67-187505 3798 31042-1756 26805 24626
1737.56 9975-37690-39696-260253-358067-166264
1740.46-51487 18900 24924-37457-52273-47252
1743.35-39980-36632 8288 16285-30950-58612
1746.24-44274-6289 8220-73306-143277-67273
1749.13 11814-8117-112341-335516-316698-39690
1752.03 92322 115880 96711 90586 70028 41638
1754.92 67105 49548-31996-103760-20085 29423
1757.81 28463 81343 144725 145567 99111 15626
1760.71-46473-199496-118510 40344 50258 52029
1763.60 60426 92879 94466 141136 187651 117351
1766.49 65633 30329-94964-93362 50133 57596
1769.38 69417 66227 15023-90580-39485-253389
1772.28-465696-179672 47056 103122 111536 91662
1775.17 46848 97370 130418 126732 119221 74493
1778.06 82846 39094 94223 131812 86405 31484
1780.95 90245 113848 146854 187394 156750 128794
1783.85 88205-9177 59481 116502 103712 150620
1786.74 178856 145231 108462 76200 88195 112551
1789.63 94535 17860-32941 16584-51381-303093
1792.53-190016 28621 43195 3802 4642 14578
1795.42 15891 9182-16449-41951-38235-10322
1798.31-32975-114495-142192-72628-108235-137957
1801.20-72584-69951-86904-70813-76494-83027
1804.10-83427-96652-59826-13549-6263-36617
1806.99-84695-83067-43676-61200-100686-77636
1809.88-78224-90405-36242-16429-75973-74868
1812.77-84647-82069-38050-63732-34690 33811
1815.67 32212-49609-71892-27955 3598-26657
1818.56-66381-48091 16505 55979-4664-42494
1821.45 9707-4075 10410 73854 47816-12636
1824.35-115218-145356-16553 28398-828-16706
1827.24-4326 4970 9198-50300-115092-158918
1830.13-66684 5650 52005 49663 30910-12269
1833.02-16200 29643 66432 76663 72476 25370
1835.92 11605 17068 4643 22995 37646 24790
1838.81-4182-2867-1655-234 15498 17799
1841.70-2724 7965 737-100915-307737-182512
1844.59 20301 39537 78833 87927 52808 31810
1847.49 87713 115003 105951 100974 82597 76800
1850.38 88218 32842-30890-56953-19662 9129
1853.27-9652-3938 34781 11778-20952-51210
1856.17-64762-56969 3439 24369 29697 23684
1859.06 39773 53779 50657 34033 19365 37840
1861.95 48026 22072-37538-41141-39362-51112
1864.84-4705-5747-50729-22937-43335-102665
1867.74-64273-54440-141603-134542-22650-13276
1870.63-4851 30033 1526-64383-56204-13824
1873.52 28945 17237-19296-2876 4925 46451
1876.41 90556 71175 17158 37129 33270 725
1879.31-16003 48395 74215 15236-32896-47709
1882.20-16021 11412-99-12707 14517 59176
1885.09 105491 59319 8694 2434 47017 78793
1887.99 42077 27244-31383 7596 99840 92324
1890.88 86658 126012 140664 107805 91038 87474
1893.77 41903 34972 103319 127171 112756 80674
1896.66 89895 74624 68790 85257 126893 108682
1899.56 143337 184347 154156 114323 98861 61626
1902.45 58725 82682 67345 53704 90395 68786
1905.34 48011 51117 70297 56736 33604 44758
1908.23 72283 62563 31001-2953-10053-6328
1911.13-25898-44583-16841 13774 48301 12107
1914.02-26821-26251-864-22223-39997-52702
1916.91-78082-184024-120012-35617-17075-842
1919.81-2913 2986-28028-70250-52898-87903
1922.70-136139-85249-76949-78818-51306-80264
1925.59-123600-129228-74375-23282-46900-52748
1928.48-21583 6928-13072-49917-30548-57352
1931.38-85147-77068-67144-4875 7521-53486
1934.27-58281-39177-59479-77735-49697-46807
1937.16-56596-53457-49907-52880-24773-31680
1940.05-68267-82946-61733-89280-110123-93157
1942.95-98484-105078-86584-74905-66914-40493
1945.84-58816-55605-24926-23259-11291-39400
1948.73-76021-65215-47800-50562-51043-64159
1951.63-61429-62017-62086-69557-51385-34009
1954.52-45921-98350-123462-77448-34494-56826
1957.41-91697-92099-40304-43527-42616-34926
1960.30-35213-58275-69919-72423-62320-33907
1963.20-22479-33924-39078-49015-47668-74707
1966.09-80284-46534-52360-59480-17751 21444
1968.98 7218-5897 3311 13631 44400 36657
1971.87-15546-62507-48099-4161 12109-2348
1974.77 26606 68999 43348 34333 21725-33976
1977.66-66665-10160 51228 33754 26470 31895
1980.55 37341 50385 35950 24904-3132 10560
1983.45 91493 79426 25375 8831-7094-30845
1986.34-124 42027 57397 41459 31083 43523
1989.23 28193 55595 105908 116577 67975 53573
1992.12 80519 86777 85339 67598 83251 55576
1995.02 20958 102904 147071 92197 73517 47145
1997.91-14179 1218 32607 27841 56888 55986
2000.80 89904 108543 122344 106681 90479 68250
2003.69 89853 120829 149831 150859 159342 169654
2006.59 154109 135293 136855 128025 117596 145637
2009.48 175495 196135 208431 215233 255364 306088
2012.37 343946 330060 355008 395398 403391 386803
2015.27 426393 504305 543492 590384 661641 721485
2018.16 770438 807129 837610 870855 929865 1039040
2021.05 1139622 1228967 1294320 1356439 1449050 1540787
2023.94 1604655 1638951 1728533 1807694 1878233 1914163
2026.84 2007518 2065303 2032280 2040063 2074101 2147811
2029.73 2234212 2196514 2179164 2220804 2301869 2279600
2032.62 2254023 2268269 2309106 2326996 2305192 2207167
2035.51 2168961 2144358 2170747 2174852 2134787 2022466
2038.41 1978926 1937915 1807707 1747837 1691672 1638560
2041.30 1605606 1491108 1398177 1338318 1259207 1132850
2044.19 1027416 946187 888563 805222 729052 705765
2047.09 653731 549133 481066 429145 410648 387631
2049.98 354305 290820 263684 300852 334894 285257
2052.87 232076 238950 257133 220613 212833 196259
2055.76 193992 217345 227779 211390 161211 152295
2058.66 138408 157455 159931 161188 166662 144290
2061.55 115496 89517 90889 97825 116282 77960
2064.44 79059 99551 113007 96114 108997 114414
2067.33 84084 24592 37918 80238 66574 28257
2070.23 23240 30844 63278 53920 50171 77172
2073.12 83366 73260 78116 76681 62775 57464
2076.01 57293 23473 29612 40763 38734 55466
2078.91 40577 43730 70087 68873 60888 33775
2081.80 48304 72164 67956 73595 60571 46738
2084.69 77238 105737 96480 76557 91423 93996
2087.58 71250 73276 106525 95104 92233 141945
2090.48 169481 150108 107834 110089 125179 137662
2093.37 168678 227077 211689 191266 201064 166934
2096.26 187753 259587 298584 289142 311678 301249
2099.15 268271 271683 312146 339232 293206 269936
2102.05 343259 372471 362724 369899 379825 356192
2104.94 373524 384387 344253 345808 404083 377366
2107.83 348184 389046 451515 459858 363878 333565
2110.73 368498 400101 394394 377654 443177 465600
2113.62 431581 445308 476359 520261 532631 499048
2116.51 425734 400715 434489 434313 414451 390806
2119.40 333721 291897 327282 297072 270578 321712
2122.30 326611 291444 320076 298290 251131 273824
2125.19 301855 250003 230307 255843 284872 263742
2128.08 225480 260056 278075 281343 297491 324032
2130.97 394776 380677 375232 301880 264910 258722
2133.87 216024 199179 187093 184400 170750 173830
2136.76 205820 183324 153420 168997 166514 191021
2139.65 219621 218795 211482 166437 130188 81434
2142.55 104564 148191 128573 129880 196846 220411
2145.44 195436 170605 138654 80617 115919 159217
2148.33 162547 118941 85831 119892 112533 92965
2151.22 98697 98028 108013 75591 65787 89721
2154.12 93848 98094 102764 86903 105558 78976
2157.01 47243 85317 93143 60577 93410 95098
2159.90 76022 71154 103691 140890 115893 96049
2162.79 103205 128106 158370 154419 178379 165507
2165.69 171209 188100 223382 214591 176849 164235
2168.58 200789 217204 188547 237941 288732 303662
2171.47 336657 333590 312155 363800 407295 351729
2174.37 352860 392895 480852 488025 460045 503568
2177.26 489363 431553 482746 559402 530734 489312
2180.15 500811 503046 559439 565627 542497 562612
2183.04 607808 624839 662049 683352 694497 717140
2185.94 794962 843218 869819 857531 859049 888699
2188.83 911057 921215 948870 948045 953410 920931
2191.72 908049 930678 963329 934417 953648 973698
2194.61 993407 1031406 1017852 987620 994166 1037795
2197.51 1060577 1042283 1094603 1102565 1088815 1120519
2200.40 1238801 1275442 1267686 1295682 1329091 1323228
2203.29 1355603 1390378 1386135 1372867 1443288 1459722
2206.19 1402331 1436555 1552216 1550780 1449567 1428566
2209.08 1500257 1576431 1577742 1540953 1582800 1641517
2211.97 1615291 1656949 1767004 1714265 1596581 1607996
2214.86 1763327 1785173 1750263 1762495 1869100 1890626
2217.76 1917454 2004814 2091345 2129102 2064000 2095317
2220.65 2394766 2523746 2191277 1849822 1704862 1650335
2223.54 1641225 1662767 1649805 1628482 1622577 1621954
2226.43 1623651 1652924 1722741 1762521 1683975 1682218
2229.33 1765500 1724597 1639547 1638492 1702441 1707950
2232.22 1622022 1641024 1671208 1627731 1603668 1611334
2235.11 1569178 1507415 1497022 1470332 1474785 1435849
2238.01 1353041 1356096 1378221 1337895 1267656 1243981
2240.90 1215503 1142057 1073925 1074808 1075148 1049482
2243.79 1014318 1011308 1069120 1019650 1011761 969568
2246.68 927404 954368 904000 834144 870428 825921
2249.58 749115 749066 811109 798393 754486 752824
2252.47 722465 695772 655154 603455 589276 597401
2255.36 620812 556629 487952 487037 537372 510906
2258.25 440730 394474 404280 391695 368085 351627
2261.15 348907 358951 355426 365903 397758 394096
2264.04 354994 319145 306586 302048 300678 264765
2266.93 263066 251632 234548 280812 299189 277129
2269.83 248127 227552 231174 234058 236874 252014
2272.72 233876 173372 197662 270543 230170 182600
2275.61 178690 164229 201048 189896 186222 141012
2278.50 188197 268929 289752 224772 232531 251603
2281.40 181595 118681 162833 249336 235865 188092
2284.29 207593 214819 220592 223721 214300 171833
2287.18 207125 265971 306219 291418 262099 272081
2290.07 273285 214420 202128 221813 227810 207822
2292.97 207667 205765 214524 215605 196483 212810
2295.86 206573 176568 208806 211710 201218 155303
2298.75 155236 163954 143886 112969 145794 159717
2301.65 177031 167517 232188 240490 206997 133096
2304.54 133104 163421 205734 187987 170359 220380
2307.43 236297 153431 69148 134927 216789 167285
2310.32 92851 78716 250532 293418 161307 7132
2313.22 188835 255077 199309 26598 195153 283964
2316.11 201329-60702 92571 295349 185681-154914
2319.00 27457 335381 196396-239379-130581 234341
2321.89 186890-275845-172582 282545 136996-434744
2324.79-270269 273244 93212-349172-23982 460382
2327.68-10368-632130-248542 274240-318150-862564
2330.57-170589 242177-597875-898315-42695 27062
2333.47-909982-756982 70327-299279-991737-413678
2336.36 89444-599940-825985-33047-150511-914461
2339.25-550835 44904-498019-743183-73980-108705
2342.14-740263-409227-3377-432926-484728-23964
2345.04-193500-430555-112419 56408-83643 21375
2347.93 192886 258844 149407 26476 87730 23250
2350.82-250307-151609-31711-431923-380735-118655
2353.71-617643-606549-192531-776368-802914-327961
2356.61-977266-895240-323694-1074454-927079-459075
2359.50-1234317-861852-574042-1252634-674094-796750
2362.39-1276246-550158-938880-964747-481498-1028142
2365.29-586078-505413-878283-351510-646813-486823
2368.18-249740-447792-105994-351407-173441-65146
2371.07-221730 96812 25030 164509 116245 209763
2373.96 316560 344392 455002 501740 606881 625982
2376.86 786306 810646 889064 916675 948623 1029731
2379.75 1090599 1086777 1105939 1169021 1164361 1075535
2382.64 1061055 1050156 1020567 1013731 993523 976951
2385.53 985945 952802 900667 954268 1015804 1075471
2388.43 1204744 1271125 1292626 1260434 1237405 1241135
2391.32 1234260 1234832 1230790 1158129 1057580 1040844
2394.21 1009669 979379 945531 932836 879296 782843
2397.11 715441 699041 771219 742365 650302 631088
2400.00 670021 617640 579230 635079 607883 561387
2402.89 609073 679482 680743 648723 624496 593268
2405.78 654959 671377 641570 611550 570571 592431
2408.68 599783 604786 632058 657647 651418 659928
2411.57 668874 645121 624615 621271 610408 625078
2414.46 647724 629384 637706 650274 644770 570104
2417.35 534315 566464 570728 571288 606874 650892
2420.25 643358 734952 888951 933688 961867 914853
2423.14 842971 793049 712111 662293 653004 661192
2426.03 662844 655226 582619 546443 587167 654739
2428.93 668817 627939 635861 641167 627589 640715
2431.82 658588 655518 656541 680353 677315 611415
2434.71 600544 688533 682477 618063 654295 677260
2437.60 634358 651425 668736 567930 540506 636021
2440.50 673812 674944 638615 630895 612626 619570
2443.39 658705 638892 599609 603684 597083 588171
2446.28 530820 464097 489205 539083 545743 508680
2449.17 529380 563102 530924 515534 513234 531864
2452.07 523296 488862 525721 530802 476147 427716
2454.96 409078 436481 470760 525970 601441 711359
2457.85 797495 756146 742051 744630 752857 727112
2460.75 710427 749756 714370 660088 567765 564714
2463.64 626904 672621 650239 675987 702410 657491
2466.53 631157 644370 627867 608032 569530 514179
2469.42 529090 526672 572365 580163 508156 485382
2472.32 511104 487769 435043 431501 437745 457408
2475.21 422492 397749 372474 355019 360122 348229
2478.10 346884 278916 221880 228435 237159 255617
2480.99 298518 265066 252499 296252 263052 220133
2483.89 261089 282015 280637 320734 393682 375019
2486.78 355862 309260 294717 340087 356961 367063
2489.67 361399 317760 321321 357392 394200 392075
2492.57 389826 365275 361176 383149 392580 452303
2495.46 485375 510049 519613 482080 462703 480020
2498.35 485465 522579 576685 566680 552222 510463
2501.24 490686 567604 603819 588243 640464 718996
2504.14 704908 647369 679616 733993 729907 759014
2507.03 821223 832894 785044 760918 740505 692454
2509.92 710078 761558 774656 740186 725347 764362
2512.81 760879 725906 747943 754188 784113 783710
2515.71 803243 838609 832623 833199 835839 857392
2518.60 876067 867318 892471 907199 870140 874115
2521.49 858708 823317 779862 740761 697368 686052
2524.39 676898 645602 624390 696221 685752 635358
2527.28 630798 580766 515739 496296 478080 498413
2530.17 553656 573119 579035 564016 554088 615618
2533.06 687534 719036 668516 604727 583681 576144
2535.96 561461 557114 575968 586169 537999 586320
2538.85 587750 486680 413385 456624 440664 427192
2541.74 464573 483508 437662 397276 419796 458469
2544.63 396814 329811 369400 373310 372082 355300
2547.53 337762 317354 310618 361239 374367 294339
2550.42 236394 234912 245330 209104 219296 282705
2553.31 270780 201378 151308 155585 166077 138221
2556.21 123915 143627 123404 54809 42720 77605
2559.10 68964 34359 55711 38386 32605 6058
2561.99-46541-58056-50995-39779-80855-68497
2564.88-26343-25702-75712-66809-92572-110925
2567.78-112208-141164-141895-155487-162159-78398
2570.67 9096-4355-25033-90508-115561-109878
2573.56-84836-33156-28651-58901-39444-33955
2576.45-108860-93477-32317-97965-124221-128855
2579.35-95146-119136-185880-228865-189561-149139
2582.24-139445-218525-260335-188794-76691 80055
2585.13 170796 172991 99335 34697-23326-20366
2588.03-72068-142508-152368-168409-133551-104857
2590.92-126304-122384-150692-200870-224965-207386
2593.81-196895-144498-131860-115648-119916-136377
2596.70-144255-149763-149347-144805-152482-174096
2599.60-193974-219350-175229-142048-146146-150948
2602.49-141763-107039-91838-88313-103754-151406
2605.38-166693-123850-75052-70982-117968-208967
2608.27-197147-141994-102284-65248-65743-65313
2611.17-105166-76050-125407-126371-121895-138832
2614.06-142518-97735-78267-135275-159739-155005
2616.95-105046-79186 33110 78155-30426-118943
2619.85-114114-104197-128623-116345-64086-85879
2622.74-97284-57316-7133-92767-80990-61880
2625.63-64526-18865-39974-57007-24633-7193
2628.52-73217-71394-11979-18582-37036-40922
2631.42-11279-25662-82463-46618 11476 18587
2634.31-18890-36728-35711-40989-38354-81315
2637.20-117807-80091-25377-20575 41569 71486
2640.09 62419 23039-6438-3506 48273 15907
2642.99 3758 28797-9276-42952-47640-19659
2645.88-1933-6244 7230-1720 6078 15187
2648.77 768 61170 63448-15362 48818 89912
2651.67 74976 13079-21993 76531 112236 57864
2654.56-23924-57758 9710 13015 12789-32012
2657.45-47123-21896 51158 32641 47570 60906
2660.34 75738 75734 57919 16641-45898-26008
2663.24 48743 125553 161632 147802 152502 127484
2666.13 112442 179228 205103 196985 135919 127445
2669.02 196324 229856 289912 300120 312229 312059
2671.91 322698 339705 419458 412371 424024 498355
2674.81 606078 680604 764708 905187 963504 1003603
2677.70 1056558 1105539 1196810 1327357 1472754 1502158
2680.59 1562625 1648200 1758243 1827692 1874226 1952309
2683.49 1977453 2036423 2106411 2068930 1892795 1741056
2686.38 1695077 1593591 1580541 1647653 1588824 1459264
2689.27 1456564 1495231 1614041 1721641 1794226 1909666
2692.16 1967172 1953149 1936846 1920856 1851872 1774528
2695.06 1708663 1595930 1506922 1363669 1135231 991588
2697.95 950424 861231 745620 597706 559713 527221
2700.84 408426 418017 398910 339661 342608 349988
2703.73 331122 309590 228519 217303 290947 312714
2706.63 277285 220740 182797 172282 237795 214233
2709.52 217277 228946 187172 170695 179725 143702
2712.41 90664 128769 184581 190352 206928 244601
2715.31 198962 121475 130076 246560 364252 371168
2718.20 364488 393716 400415 406649 486081 584813
2721.09 558779 526335 569822 576206 576871 564147
2723.98 598182 573805 486336 478709 502611 474525
2726.88 462956 447047 396080 378164 494701 723917
2729.77 797691 626366 459951 410154 422721 464808
2732.66 495196 490720 559403 552129 550137 662687
2735.55 661642 587732 560796 617666 667113 613694
2738.45 629013 633066 642247 551530 478597 540311
2741.34 604145 613039 597648 563884 507628 474402
2744.23 459821 506575 563478 587622 613642 629084
2747.12 623444 636655 662308 717480 715686 718876
2750.02 768343 831697 868654 995050 1127940 1211706
2752.91 1255652 1322682 1509084 1671355 1697402 1734933
2755.80 1893038 2090388 2289740 2440559 2518092 2575581
2758.70 2606070 2717148 2774597 2795768 2725669 2602936
2761.59 2558191 2574026 2531175 2369497 2128311 1973631
2764.48 2078551 2150448 2064147 1889941 1808021 1991496
2767.37 2220233 2417173 2603880 2658442 2727261 2778056
2770.27 2696622 2619465 2572096 2372760 2068581 1827200
2773.16 1688633 1463687 1261631 1121553 1011626 849529
2776.05 676559 557242 479057 449126 419698 319649
2778.94 221684 250244 259141 244038 258800 208646
2781.84 132512 145929 141882 158450 194506 193184
2784.73 194983 174883 135672 128861 123455 134573
2787.62 117287 141762 146487 153047 149604 133547
2790.52 130544 85052 114769 148743 109945 110183
2793.41 126824 143388 63616 66681 99078 58538
2796.30 14718-15111-26941-15034 103991 103701
2799.19 40544 27979 2518-23649-107160-40168
2802.09 88998 75276 559 42735 52850-55304
2804.98-108519-87150-43770 29353 40082 50904
2807.87 53360 62171 37517-49324-57682 13995
2810.76 39165-1138-52809-58464 20240 87971
2813.66 59952 38783 5749 42805 7217 12234
2816.55 74026 91578 76165 62261 81083 102985
2819.44 101032 77534 131588 242301 247035 201562
2822.34 125389 117018 177883 192724 223854 273954
2825.23 297737 309861 289116 234165 223103 327972
2828.12 355867 336540 376691 445196 464539 527000
2831.01 531833 535456 570193 634471 680792 716163
2833.91 760172 777018 828028 915839 953272 937835
2836.80 1035042 1143557 1218782 1339711 1338595 1345020
2839.69 1472614 1586525 1664895 1726193 1757363 1842246
2842.58 1928962 2001469 2142438 2322088 2454379 2463101
2845.48 2552365 2643622 2816394 2963706 3062096 3158067
2848.37 3280819 3427851 3443090 3538851 3660836 3815673
2851.26 3924748 3984388 4053882 4116524 4108085 4157843
2854.16 4259613 4228511 4095762 3977554 3920240 3926973
2857.05 3909135 3919812 4154461 4322314 4282745 4164177
2859.94 4145708 4251256 4426816 4517203 4589353 4682240
2862.83 4865485 4994791 5072297 5161681 5307093 5244785
2865.73 5020970 5090002 5269193 5185609 5073075 5165351
2868.62 5173235 5018184 4911400 4971896 5039298 4992329
2871.51 4914126 4959489 5077393 5003096 4966844 5154535
2874.40 5362033 5356890 5275037 5392548 5511954 5481376
2877.30 5463754 5688545 6000473 6048523 6120740 6456877
2880.19 6862020 7115071 7456979 8105560 8865231 9401756
2883.08 9992022 11042746 12177499 12937525 13721370 14813600
2885.98 15802541 16345563 16891195 17687822 18200772 17946346
2888.87 17516030 17136598 16309890 15083969 13879926 13056471
2891.76 12412994 11474939 10629235 10380410 10723538 10808142
2894.65 11067568 12337194 13718495 15131473 16354324 16975075
2897.55 17244066 17426362 17373008 16916240 15981523 15288143
2900.44 14604961 13318535 12170767 11594050 10845358 9601011
2903.33 8779488 8390238 7543367 6676548 6306879 6079792
2906.22 5383608 4877598 4870931 4618895 4105146 3941371
2909.12 4003670 3778682 3476341 3565172 3586479 3384521
2912.01 3257719 3353556 3294272 3039706 3056977 3117485
2914.90 2942470 2837268 3005860 3067302 2787380 2593873
2917.80 2708119 2711863 2527013 2445208 2469091 2334750
2920.69 2244603 2208408 2191686 2180598 2126569 2097213
2923.58 2122158 2116818 2141692 2131591 2066718 2102742
2926.47 2207924 2222697 2303894 2327724 2297725 2376957
2929.37 2486914 2561397 2665457 2797122 2925962 3074150
2932.26 3243818 3450782 3721595 3929249 4171968 4413817
2935.15 4520158 4771895 5094290 5328524 5592725 6060345
2938.04 6572041 6869400 7134828 7549504 8043660 8385954
2940.94 8781152 9316441 9846959 10256492 10637992 11257381
2943.83 11887726 12389519 12939223 13599750 14272447 14987712
2946.72 15736619 16527116 17362353 18010806 18683635 19629656
2949.62 20763259 21618675 22348752 23372813 24496615 25648075
2952.51 26652946 27382609 28446116 29617127 30328227 31412738
2955.40 33090052 35198982 38885990 41465423 40003140 38052003
2958.29 36844166 36123925 36058403 35606979 34266151 32680029
2961.19 31186290 29642162 27934803 26834136 26854986 27851429
2964.08 29782084 32711681 35903739 38663593 40822809 42998265
2966.97 44984427 46068460 46685640 47863271 49204643 49508179
2969.86 49402414 50930947 52956256 52880423 52564690 54921909
2972.76 57812301 57246033 56890499 60315132 63238968 61958256
2975.65 61724615 64877030 66243925 64292675 63780904 64543664
2978.54 63621820 60788826 58557813 57301429 55353823 52723792
2981.44 52111958 52196169 51813646 49735786 49046914 52306900
2984.33 56083871 59880172 62710786 64126122 65008845 65372707
2987.22 65276025 64019798 62463271 61578810 59904992 56880842
2990.11 54888259 53906494 51759731 48959094 47438479 46727288
2993.01 44982544 42943534 42448586 42335986 40854597 39596711
2995.90 40075689 40319062 38887400 38179094 38793684 38446550
2998.79 36918954 36651581 37089730 36188909 34893656 34810908
3001.68 34848829 33835962 33106257 33205494 33063172 32038055
3004.58 31604905 31978351 32020624 31324544 31042435 31481772
3007.47 31391099 30786705 30797390 31266101 30894803 30703365
3010.36 32134985 34821384 35448943 33918814 31735710 29098444
3013.26 27121299 26208773 25546011 24518800 23943795 24281508
3016.15 24196771 23374237 23003488 22986848 22821958 22378991
3019.04 21894861 21661643 21487907 21041897 20500520 20219485
3021.93 20033958 19378005 18735392 18827219 18784334 17888007
3024.83 17119676 17358423 17429373 16566595 15933911 16174298
3027.72 16243224 15506297 15119123 15233653 15436186 15222247
3030.61 14957909 15528319 16391822 16567755 17095106 19064768
3033.50 21277651 20325341 17662583 15595756 14078729 12957409
3036.40 12398845 11894837 11349197 11283563 11495688 11101030
3039.29 10624361 10878604 11017231 10576957 10396174 10715696
3042.18 10636249 10144673 10121431 10246144 10020322 9753186
3045.08 9779865 9798887 9593211 9360163 9231398 9027141
3047.97 8783531 8662995 8568856 8349903 8150627 8038163
3050.86 7952252 7675103 7442176 7374157 7251874 6952920
3053.75 6663138 6646672 6634960 6324486 6021573 5958291
3056.65 5931559 5749366 5575718 5471763 5340004 5056232
3059.54 4840196 4761183 4641220 4460062 4355984 4217917
3062.43 4003597 3826054 3777638 3768542 3613886 3396514
3065.32 3239000 3223763 3214642 2941765 2779079 2858119
3068.22 2891843 2728577 2653447 2585923 2453006 2361478
3071.11 2294227 2206981 2121722 1955190 1919206 1928998
3074.00 1848343 1743365 1680362 1642728 1578824 1457144
3076.90 1346470 1335072 1323840 1312410 1344268 1279381
3079.79 1288929 1231594 1137298 1044482 1015635 1053882
3082.68 1062022 1027844 982807 1005462 1003662 966210
3085.57 952892 942897 884729 894196 884157 837476
3088.47 790816 738309 767466 770882 794635 779795
3091.36 716336 754584 770586 715332 720190 744746
3094.25 794586 794731 769823 720179 688453 737920
3097.14 697276 670357 651515 575451 592832 633161
3100.04 679398 672716 591239 654269 752763 811251
3102.93 784728 698082 668362 664696 627197 647168
3105.82 631593 661116 677463 650546 615186 585734
3108.72 573577 613949 599951 552418 561691 602296
3111.61 693948 642574 573910 555338 526101 564740
3114.50 624890 534484 487184 582735 604113 563218
3117.39 480646 443537 441691 484041 437258 448295
3120.29 514275 514391 439520 452869 475031 431913
3123.18 357032 311623 315709 356844 409543 424586
3126.07 380324 357220 366137 307370 309298 341188
3128.96 372922 341131 264366 280896 305616 201850
3131.86 155253 168060 109956 38912 105755 119084
3134.75 61663 141324 188933 131374 75957 26986
3137.64 87999 168099 150763 120134 156547 172634
3140.54 71856 58468 96379 110440 103836 61319
3143.43 98382 91540 97205 73042-29394-57532
3146.32-103536-14063 109554 60367 72896 80588
3149.21-22890-120987-109123-2596 20367 111501
3152.11 104177-4327-4827 60414 60161 5129
3155.00 7998 16737 1735-51531-131838-64128
3157.89-21091-56923-47942-6965-32039-56314
3160.78-43779 24353 110701 88640-40745-112680
3163.68-117273-70646 54806 63863-44808-106963
3166.57-1295-9176-50562-30698-35622-15012
3169.46-83733-118119-25411 27998 20568 35927
3172.36 17375 74795 127355 57045 66253 98037
3175.25 89342-40676-74029 75319 152823 37388
3178.14-85955-23917 113257 111170 10589 9848
3181.03 102324 160633 172527 98328-56394-14776
3183.93 85422 118038 71078 81866 186470 263852
3186.82 163881 112473 69619 58353 97596 62206
3189.71 90658 169244 210656 156887 67095 49637
3192.60 105473 110014 155890 273444 301452 310893
3195.50 315531 231144 137964 231205 247792 150341
3198.39 153569 236123 253521 251859 273822 266520
3201.28 180314 170842 222130 295147 241745 210396
3204.18 175783 221129 275111 238508 247621 289623
3207.07 216995 222352 287271 346521 294990 262033
3209.96 268762 198148 216651 250914 221650 158679
3212.85 68875 135645 225627 287037 342566 190421
3215.75 106906 170633 273180 247938 185118 218568
3218.64 229215 212141 146500 132241 159075 59448
3221.53 87104 193791 233366 198832 89843 48567
3224.42 79735 48008 29177 66491 179045 191459
3227.32 110243 127664 98970-51265-79461 65441
3230.21 175003 189282 114204 67412 80517 102766
3233.10 55819 18628 81131 159454 137957 20191
3236.00-55025-35778-33934-29726-52722-18866
3238.89 31768 105102 102041 45893 6883 50815
3241.78 25153-26345-7952 64332-4330-73088
3244.67-21479 8211 27130 47334 47516 35611
3247.57 77380 62867 39221 106942 65576 59055
3250.46 60968 62415 84762 13635-155342-177718
3253.35-76820 14610 137403 185257 143769 174434
3256.24 193020 92557 68933 75789 59733 160676
3259.14 178299 60075 69794 123958 160982 146492
3262.03 131004 140249 190512 190554 163273 100838
3264.92-2164 64860 192237 154653 103298 175531
3267.82 228931 209036 218576 236291 221935 174702
3270.71 220187 155030 151787 157690 139861 202455
3273.60 138482 117386 69431 137765 198899 126853
3276.49 166830 145218 132694 151026 174543 211767
3279.39 197579 111410 83214 105681 120805 123703
3282.28 84753 2706-1086-14586 2330 102770
3285.17 89881 70652 106278 91412-658 43970
3288.06 52670-14988-58705-63284-49598-13571
3290.96 88353 76428 102223 70250-85944-110660
3293.85-66766-47024 13057-19567-9817 87233
3296.74 92347 46094-12162-94469-105749-7454
3299.64-7355-27892-96316-110992-32686-3874
3302.53-67273-122701-78772-51308-77078-101383
3305.42-143583-81348-84609-88805-50907-11118
3308.31-15701-24652-63787-101483-20637 34578
3311.21-18707-15877-35006-73938-68739-56905
3314.10-55753-135868-209300-167919 25516 10091
3316.99-137822-168012-167103-127447-110964-86744
3319.88-66033-64381 31799 105146 48459-76456
3322.78-87357-65896-103283-9358 28381-149819
3325.67-189663-85536 56101 16578-41129 52047
3328.56-6970-102098-108660-106777-134153-53940
3331.46-8945-13914-12967 10077-10704-72094
3334.35-101112-94908-102375-39223-16050 623
3337.24 27194 55619 33174 12863-33976-76534
3340.13-21302-82694-62576-49835-32426-12960
3343.03-62085-52685 4672 64666 70752-3775
3345.92-100529-51021-277 50024 79398-40581
3348.81-97389-93653-51388 11102-29585-94651
3351.70-88091-56178-50158-12023 71569 10282
3354.60-31198-98816-80439-75513-103021-53404
3357.49-49723-57145-60046 5348 80063 82999
3360.38 19045-25727-76444-128937-81065-910
3363.28-30338-15313-96316-144795-66563 61202
3366.17 15725-92702-81712 20268 67725-80098
3369.06-78409-4009 43268 84326 52671-6073
3371.95-17575 70221 99366 134751 59755 5336
3374.85 40761 79003 71665-4081-72859-37986
3377.74 73500 133855 55268 10519 90439 51643
3380.63-1059-20947-113749-77972 59268-17719
3383.52-178646-130380-44301-55175-153239-238148
3386.42-109858 62624 18348-38876-30246 109859
3389.31 39341 11665 40084-10932-35356-34885
3392.20-20326 14575-20439-55188-98585-100798
3395.10-105087-76957-23342 36694 69290 83565
3397.99 136122 213578 127879 64943 61561 87400
3400.88 134166 258348 258237 142226 105329 149492
3403.77 166650 244323 240763 180166 150384 168751
3406.67 145587 157832 131094 150735 204173 171061
3409.56 230046 215352 164420 187496 219625 173581
3412.45 209164 206369 190837 147897 119350 82111
3415.34 82252 167975 216059 300739 298124 211742
3418.24 200064 146176 96506 21057 61917 95189
3421.13-12329 21319 52730 68101-42226-55153
3424.02-51933-49021 18497 163775 111926-46915
3426.92-84338-72747-96999-108646-143975-51149
3429.81-16829 13999 9166 90282 60536-44340
3432.70-81834-112254-52367-7458-67554-43908
3435.59 28551 48079 46300 59856 38312 52826
3438.49 117433-26574-145113-58819-57562-147063
3441.38-166862-136217-48236 16582 16692-38457
3444.27-71899-4336-14016-139771-201861-214488
3447.16-107557-8989 51342 19543-53584-125259
3450.06-122504-6667 55067 15755 44751 128887
3452.95 70364-85680-150172-9664 63417 12255
3455.84-68850-17755 59103-12672-170727-89955
3458.74-20845-39981-14020 30641 58957 81368
3461.63 5317 10965 111585 31203-92783-40874
3464.52-46655-82311-16547 44655-40744 2259
3467.41 100295 60234 25561 64883-19298-69851
3470.31-20488 33893 26605-3852-2822-71692
3473.20-117610 2680 60664-23719-101357-14321
3476.09-1876 6323 128283 164124 130103 37007
3478.98 37104 30106-43033-42667-51069-1271
3481.88 98115 212485 123892 9832-109895-44355
3484.77 44750 8675 13415 63925 64223-57300
3487.66-102092-10403 27271 7301-118756-26816
3490.56 31367-102350-164725-122683-15859 28179
3493.45-6138-101150-104237 509 135873 130409
3496.34-22453-48100-3419 63542 77079-43097
3499.23-82343-81642-124453-249144-208684-51831
3502.13-84253-201912-107044 37144 47315-32792
3505.02-27563-101913-133333-99779-12220-64608
3507.91-125093-157861-118044-145249-219915-179514
3510.80-120790-40367-114316-145939-116960-55973
3513.70 15086 72933 64854-20943-23629-50560
3516.59-107623-150545-243536-196632-117008-91127
3519.48-45654-16297-9298-40859-117448-107664
3522.38-73656-116268-238129-201930-158516-162792
3525.27-49820 16718-40414-53411-22655-66732
3528.16-103876-94964-11536-16354-40954-43922
3531.05-22600-71049-73347-31707-103728-84058
3533.95-139091-72409 21605-14822-78785-108281
3536.84-43541-9182 7912-36596-47991-92922
3539.73-88643-9976 28566 28813 122181 97621
3542.62-55568-91787-146587-96709-147096-178276
3545.52-97416-162497-163833-78143-71656-89615
3548.41-99006-102276-150563-103835-55088-54079
3551.30-39844-21099-51477-45939 69410-9504
3554.20-127408-106121-16935 18760-87359-90800
3557.09 14255-20192-120159-141846-234061-242061
3559.98-85411 32514 21423-31563-79129-83739
3562.87-72361-104443-185041-201782-141419-107804
3565.77-123730-230631-158752-218626-201707-122602
3568.66-158509-156189-209376-168553-108046-134306
3571.55-178916-143573-109581-73217-86507-105561
3574.44-17883 51207-52271-86882-119447-112614
3577.34-130526-77278-115349-125112-125394-166168
3580.23-134715-139291-275321-144175-30331-91789
3583.12-125467-83746-76634-69048-107404-206341
3586.02-225800-139729-97863-113223-250881-293470
3588.91-201377-134995-65304-74826-64577-36411
3591.80-151088-175051-222088-235777-146683-138771
3594.69-135634-38612 17270-37759-49875-47912
3597.59 1356 29214-22458-73890-131594-190180
3600.48-132305-40692 1021 8082 15689-26617
3603.37 4300-47032-114803-122582-85308-46405
3606.26-33694-11790 108711 144528-21930-299893
3609.16-164008-18236-54986-30617 3496-3656
3612.05-72364 14741 108899 34702 5980 18399
3614.94 89771 123811 98800 181175 81449-69054
3617.84 23563 71488-201753-246317 7489 71957
3620.73 147511 175614 143663 75601 84057 148926
3623.62 213465 256383 262081 229898 131247 73231
3626.51 151932 184772-53478-268273-122913-264909
3629.41-117831 61977-25926 60643 134636 137911
3632.30 116024 31341-21996 58603 176377 195126
3635.19 237294 243497 254817 287316 237077 243939
3638.08 295336 344017 300090 221768 209466 314221
3640.98 397139 281311 147724 141506 188384 244819
3643.87 279621 290998 285861 257726 149141 103855
3646.76 49935 124142 243005 150562-204535-59440
3649.66 159109 51211 57687 162811 280658 278024
3652.55 256079 346101 401901 402846 436319 380374
3655.44 108886 29143 343417 497860 412031 372965
3658.33 382668 357240 345456 344898 400575 381343
3661.23 381735 380992 390943 379427 317854 305709
3664.12 312586 289377 367055 448839 424409 471025
3667.01 462800 268317 100331 252298 459603 382053
3669.90-55074-208975 254764 372865 406341 388424
3672.80 408231 380930 314243 181632 164465-76069
3675.69-225193 131947 306175 314723 330131 358862
3678.58 291251 243415 355214 379387 348761 369613
3681.48 362414 398741 479237 451952 396059 325115
3684.37 318241 304456 404254 369237 290847 298205
3687.26 166128-286679-283631 94765 201219 161342
3690.15 16364-59708 35434 123977 99256 125917
3693.05 173315 183570 160850 238794 246292 188383
3695.94 162459 230245 304012 287944 290267 347009
3698.83 253652 229129 266789 276886 209214 83192
3701.72 53234 142385 204301 276784 274106 264003
3704.62 253471 301436 272944 227241 253797 267218
3707.51 241433 246677 93357-16863 214113 305629
3710.40 205141 72688-193278-219514 151552 298389
3713.30 277115 265797 299099 305094 315510 306257
3716.19 217761 207889 243357 210891 192260 193015
3719.08 247764 196548 145662 220744 251270 165087
3721.97 91109 168866 275570 341758 332640 274964
3724.87 248640 289593 253228 243535 319770 306709
3727.76 334472 405618 375120 331742 328322 392030
3730.65 361629 186938 3249 253482 461526 478967
3733.54 418240 247199 281970 434655 486393 228471
3736.44 206150 550766 624293 619255 716607 782972
3739.33 771923 787227 765267 742615 859419 902365
3742.22 955187 913138 709560 260093-16879 508386
3745.12 1033528 1071758 1145948 1238202 1270095 1194809
3748.01 1101400 652119 379181 915054 1219709 1174259
3750.90 1124070 676949 458971 1086168 1435644 1508386
3753.79 1557748 1511059 1351983 1270053 1315665 1320693
3756.69 1349919 1376777 1406567 1366339 1268516 1188953
3759.58 1175889 1306195 1401540 1424010 1302126 1265516
3762.47 1327982 1289244 1252574 1280976 1307481 1170522
3765.36 1065096 1165043 1169278 1180222 1153014 1109798
3768.26 1110605 1124724 978166 1066760 1197550 1134190
3771.15 1083534 1076310 1172047 1279766 1282900 1256841
3774.04 1276830 1353474 1385332 1302461 1289288 1275803
3776.94 1173007 1155112 1189849 1113574 1041140 998841
3779.83 1083857 1060551 1068103 1165175 1197948 1130710
3782.72 1139069 1171213 1115280 1052654 1103979 1088453
3785.61 1042351 1073801 1087676 984809 1009913 1097593
3788.51 1050468 988695 863993 803859 863434 938375
3791.40 963046 959663 905650 822705 696293 680946
3794.29 725245 684881 707331 503855 418190 526377
3797.18 491477 513045 628995 702916 590469 462410
3800.08 473786 159554 21424 537257 805882 875000
3802.97 967808 951944 907977 902303 762864 668721
3805.86 495724 81659 128539 538105 601535 501467
3808.76 530672 672757 654814 568306 500975 538547
3811.65 529558 487965 575700 658754 711043 754267
3814.54 644102 366948-72786 168930 540829 543278
3817.43 553377 597758 642337 564326 447189 265586
3820.33 174593 155567 122980 303019 469776 482075
3823.22 407034 481683 582095 509082 510743 470110
3826.11 452523 487577 527314 463537 400703 333417
3829.00 356318 395897 360816 312767 256026 320316
3831.90 408581 356168 283866 288054 306147 132512
3834.79 74859 181842 307277 341987 109038-510605
3837.68-386851 205847 307275 256231 239733 291405
3840.58 250487 287210 282461 197618 150021 141742
3843.47 164492 273378 294158 279967 248933 269154
3846.36 351991 381576 414053 379472 262186 226778
3849.25 198900 204224 247007 237147-123793-391108
3852.15-91726 56315-310943-885431-625686-63494
3855.04 91050 204645 206851 121492 80518 92528
3857.93 91009 135253 154124 144131 176242 112240
3860.82 21736-68395 43088 68281-36733-26992
3863.72-9260-73750-196720-49322 24126 58649
3866.61 79384 94679 48062 22210-44861-113680
3869.50-384673-305361-57088-38867 2315 51345
3872.40 46808-39000-121586-149290-93704 54787
3875.29 169963 131855-11500 30774 63670 919
3878.18 36519 91544-80229-179655-61235 37473
3881.07 46880 47963 103186 100047 89798 160723
3883.97 115347-13905-248953-250789 22606 191917
3886.86 237634 200993 45265-5945 34548 131603
3889.75 158017-1699-143752-79443 28978 73331
3892.64 156215 135684 123802 170938 233333 122619
3895.54 93929 145441 118443 99550 156520 137292
3898.43-10642-203177-126258 135652 199555 49330
3901.32-143448-4871 82592-7829-134827-206898
3904.22-93480-2295 30317 35233 113658 105899
3907.11 74888 68543 151622 140086 83647 117824
3910.00 167670 94286-52569-54430-82067-82396
3912.89-8836-21501-10523 31063 64399 142689
3915.79 51492-99105-176526-84159 65427 142108
3918.68 93893 108-13223 12100-17250-24156
3921.57-34705-23094-27642 47406 53089 28661
3924.46 17214 12975 53127 80113 26904 82087
3927.36 52936-4229 45333 77490 60482 93148
3930.25 75238 62022 96882 94606 123558 84224
3933.14 19081 88535 44325 99360 171181 163388
3936.04 143556 67967 112250 211031 223440 223849
3938.93 209197 213555 219469 297829 297951 248538
3941.82 147197 61895 83956 171499 172897 247336
3944.71 318835 275964 223537 205072 189376 268961
3947.61 325048 224695 144876 207839 255302 307404
3950.50 274441 177333 217369 290879 317991 376243
3953.39 387551 392951 399667 451548 440307 469898
3956.28 449229 378596 361597 388121 284290 259688
3959.18 316892 341324 361416 377665 410753 406306
3962.07 371706 403829 458042 446013 486226 536541
3964.96 446798 386834 400813 317295 268009 305444
3967.86 312801 265692 231349 296408 463004 515381
3970.75 436558 420620 483623 394142 257961 286801
3973.64 353022 423320
##END=
