##TITLE=1,2-Dichloroethane
##JCAMP-DX=4.24
##DATA TYPE=INFRARED SPECTRUM
##CLASS=IUPAC A
##ORIGIN=NIST, Analytical Chemistry Division, 301-975-3108
##OWNER=COPYRIGHT (C) 2001 by the U.S. Secretary of Commerce
##DATE=01/06/01
##$SPECTRA VERSION=1.10
##$UNCERTAINTY IN Y=2.1 % relative (B=1.10E-04,C=7.45E-10,D=1.46E-14)
##CAS NAME=1,2-Dichloroethane
##CAS REGISTRY NO=107-06-2
##MOLFORM=Cl C H2 C H2 Cl
##MP=-35.36 C
##BP=83.47 C
##$NIST SOURCE=QUANT-IR
##SPECTROMETER/DATA SYSTEM=IFS66V (Bruker)
##INSTRUMENT PARAMETERS=KBr Beam Splitter; MCT Detector; Multipass cell
##STATE=gas
##SAMPLE DESCRIPTION=1,2-Dichloroethane Primary Gas Standard
##PRESSURE=101.3 Pa
##TEMPERATURE=23 C
##SAMPLING PROCEDURE=1 L/min Flow
##RESOLUTION=1.9290
##DATA PROCESSING=Triangular Apodization
##XUNITS=cm-1
##YUNITS=(micromol/mol)-1m-1 (base 10)
##XFACTOR=1.0
##YFACTOR=9.0949E-13
##DELTAX=0.9645
##FIRSTX=575.652
##LASTX=3974.605
##FIRSTY=5.62E-07
##MAXX=3973.64
##MINX=575.65
##MAXY=.0005535
##MINY=-8.53E-07
##NPOINTS=3526
##XYDATA=(X++(Y..Y))
575.65 618125 1082543 1016161 999504 1094318 715270
580.47 407052 486269 745874 657911 450739 600927
586.26 506277 445749 263492 305624 563186 693066
592.04 670535 381763 250179 145335 224233 194596
597.83 201708 238724 39132 84319-10129-69421
603.62 139475 156331 149963 186175 92140-117109
609.40-26717 262267 52157-21620 321572 313513
615.19 236059 269928 153668 128168 158171 49731
620.97 75803 232866 432446 462085 334119 450046
626.76 676924 748488 695397 798015 870253 930956
632.54 1089244 1076696 1117717 1355214 1598752 1673278
638.33 1911063 2307862 2496082 2878185 3268264 3619314
644.11 3995567 4381377 4893753 5395842 6107296 6850413
649.90 7551591 8373807 9159149 9874985 10680378 11657701
655.68 12774385 13808020 14728590 15661699 16423377 16949284
661.47 17351192 17538522 17422303 16992821 16366927 15381429
667.25 15226551 16221721 17219007 18583892 20541860 22502063
673.04 24197722 25249149 25664081 26369214 27573059 28824711
678.83 30241922 32065044 34281560 36931254 39619374 42065956
684.61 43849956 44582108 44254444 43629438 41839342 39780475
690.40 42707519 41804898 44586443 46524638 37993578 35740909
696.18 38776061 42751945 45894391 47325582 47357682 46654600
701.97 46199786 46556353 48453895 52499835 59070690 68590558
707.75 81430205 97870073 118103087 142565008 171908171 205660108
713.54 244010595 286953300 333270625 382459254 432193005 479085634
719.32 520508139 555114313 579430901 591914355 593684786 586925993
725.11 577831088 566073168 566498374 569799244 579374512 607109064
730.89 608641151 597343129 578464121 523718641 441276511 345047964
736.68 250224086 167789839 104459345 61364099 35783108 22551831
742.47 16768116 14268477 12879458 11883327 11194712 10684217
748.25 10265912 9933511 9692745 9508094 9356956 9210240
754.04 9188855 9155184 9126274 9049650 8923767 8908809
759.82 8811415 8690244 8781532 8886614 8878962 8925761
765.61 8899194 8549671 8346419 8378623 8696624 9422607
771.39 9635700 8500627 7591875 7319145 7034722 6792288
777.18 6498095 6265296 6191931 6125041 5924388 5743731
782.96 5636810 5644250 5575216 5387433 5106708 4905071
788.75 4765661 4553715 4382065 4211935 4017375 3888956
794.53 3812817 3669506 3485243 3241481 3131514 3073589
800.32 2826715 2677527 2640933 2548316 2420568 2362582
806.11 2305767 2222125 2171898 2110505 2050069 2064412
811.89 1964501 1827084 1809741 1829987 1824207 1850029
817.68 1898108 1899585 1897653 2022489 2145239 2159243
823.46 2152487 2188981 2336595 2437202 2499476 2509840
829.25 2500126 2528947 2518741 2409726 2317857 2249237
835.03 2221230 2164623 2082639 2001802 1974257 2028959
840.82 2012265 1878967 1636854 1441780 1344541 1245578
846.60 1047001 919449 872514 836731 854128 827957
852.39 803873 821140 903894 966024 1050826 1036090
858.17 928369 1028221 1153135 1214293 1383954 1494412
863.96 1559901 1730096 2015704 2308548 2514089 2754905
869.75 3098673 3610663 4244316 5017684 6008003 7330570
875.53 8933687 10782866 12775488 14826467 17083254 19342366
881.32 21327585 22833039 24034355 24307128 23177249 22134250
887.10 22535846 24448530 26128385 23517747 19291287 18375011
892.89 19528988 21256667 22580052 22930078 22273761 20838808
898.67 18879125 16592400 14271849 12069474 9997596 8208146
904.46 6821336 5733558 4835713 4078136 3508571 3188150
910.24 2951628 2704930 2523369 2350586 2247534 2246233
916.03 2165640 2149053 2237078 2362341 2455844 2548250
921.81 2796250 3047478 3230017 3476354 3848642 4243734
927.60 4666192 5109710 5512928 5951200 6448975 7001964
933.39 7529599 8024719 8517627 8970803 9399223 9773674
939.17 9990406 10088171 10086473 9940779 9654588 9289785
944.96 8866391 8442205 8369811 8649099 9279072 10020371
950.74 10486230 10640921 10438768 10182271 9895423 9480460
956.53 8909832 8147359 7429125 6767632 6096558 5518788
962.31 5066823 4658408 4254097 3917312 3652975 3348782
968.10 3093041 2883494 2619593 2476262 2376200 2194184
973.88 2096008 2080762 2083449 2201432 2355221 2511142
979.67 2660217 2772949 2886328 2948019 3074985 3144227
985.45 3093027 3080606 3152906 3283996 3375187 3500418
991.24 3653221 3674586 3626423 3515616 3325351 3116850
997.03 2882661 2652775 2470319 2295240 2062428 1906076
1002.81 1868271 1837060 1847097 1844741 1854286 1935326
1008.60 2038929 2177996 2336894 2507905 2628903 2781159
1014.38 3086746 3394073 3590641 3795724 3998402 4161623
1020.17 4342230 4611292 4748160 4788061 4941502 5045977
1025.95 5102763 5029166 4892454 4688220 4441027 4170487
1031.74 3907393 3786590 3629404 3266277 2889624 2618218
1037.52 2305498 2001363 1778573 1639108 1496558 1353901
1043.31 1266979 1171872 1038364 920654 872897 810636
1049.09 708937 681676 623946 499686 443759 416565
1054.88 361099 295835 272053 300168 320528 266810
1060.67 200574 149048 165063 169204 164625 173307
1066.45 136652 152156 173444 143523 158303 176728
1072.24 149783 145726 176806 214818 257111 325103
1078.02 368681 368498 413908 476942 519234 557622
1083.81 561266 616726 660868 676556 768613 853139
1089.59 955993 1011923 993922 1092397 1272109 1296584
1095.38 1265329 1363903 1481749 1549899 1648649 1738058
1101.16 1794449 1872805 1962978 2072058 2151752 2229216
1106.95 2286740 2344421 2463178 2497159 2534897 2589253
1112.73 2658315 2694431 2699572 2684261 2739550 2839216
1118.52 2914477 3040671 3766314 4834820 4826056 4147254
1124.31 3582630 3260308 3165179 3188108 3204219 3236612
1130.09 3268802 3304466 3280535 3316877 3431043 3401611
1135.88 3325497 3320461 3298940 3238185 3116342 3047650
1141.66 3081238 3054959 3050419 3299648 3271053 2900561
1147.45 2818828 2831127 2787631 2652055 2542993 2449793
1153.23 2321934 2269383 2256402 2174184 2125007 2114128
1159.02 2015495 1872700 1761066 1683032 1613002 1528314
1164.80 1442812 1378597 1347420 1259291 1166095 1139243
1170.59 1104949 1042761 1034866 1072718 1109450 1100843
1176.37 1093063 1048632 1027476 1098193 1167352 1216570
1182.16 1290424 1362810 1453349 1541829 1634453 1736987
1187.95 1848890 2002843 2216757 2430261 2615309 2797850
1193.73 2996825 3172441 3385671 3688094 4009410 4276074
1199.52 4585072 4938367 5294254 5644240 5981882 6465447
1205.30 6899852 7336927 7792246 8375556 8983471 9655127
1211.09 10506725 11587707 13040144 14990564 17677449 21280406
1216.87 26400155 33421564 42805118 55040750 70539217 88944942
1222.66 109872453 131626552 152226373 168445276 177630338 177394361
1228.44 166295849 146460317 139542361 139062282 135775393 146441753
1234.23 164045103 180219462 190194538 190694085 180503607 161943395
1240.01 138489391 113568154 90034606 69576774 53033670 40315494
1245.80 31056757 24447342 19910522 16937551 14739256 13391136
1251.59 12320550 11433864 10800219 10138507 9676872 9232506
1257.37 8752408 8307305 8002469 7618697 7325449 7061275
1263.16 6761290 6540337 6324249 6111346 6049246 5959306
1268.94 5976950 6144053 6456857 6965473 7740842 8844146
1274.73 10464806 12590560 15422245 18922639 23112547 27740865
1280.51 32752601 37633482 42051536 45200240 46791912 46488160
1286.30 44334002 40059846 36313421 36675566 51112052 59107279
1292.08 38343728 27915803 34977291 42356835 48685157 51397066
1297.87 51134555 48128123 43702287 38518504 33462590 28755180
1303.65 24807735 21594183 19072717 17128207 15667938 14400270
1309.44 13365004 12328464 11414230 10910512 11051084 11846157
1315.23 13012304 13913168 14291567 14203598 13738069 13019658
1321.01 12341118 11645948 11009343 10452915 9931639 9466924
1326.80 9045510 8614491 8163563 7698427 7291607 6863021
1332.58 6424010 6021754 5708336 5361394 5049500 4787916
1338.37 4530675 4371350 4235429 4069285 3919113 3807114
1344.15 3692128 3592268 3509037 3397176 3304315 3235255
1349.94 3135785 3013663 3028305 3166592 3257194 3293802
1355.72 3296110 3156430 3032954 3025320 2976354 2841434
1361.51 2754682 2701481 2606788 2496407 2495499 2477695
1367.29 2312181 2155737 2030557 1853318 1668820 1526872
1373.08 1517164 1541722 1491548 1514811 1512305 1451509
1378.87 1449969 1384812 1310050 1309519 1310458 1281816
1384.65 1240487 1109664 1026790 1116415 1192182 1131942
1390.44 1048718 1052069 1010715 902264 907334 975153
1396.22 1017601 1012458 1015378 1134753 1255657 1271797
1402.01 1342943 1406498 1504503 1643318 1747736 1914533
1407.79 2141437 2359446 2544841 2786477 3088352 3334580
1413.58 3626443 3991790 4349964 4738788 5134512 5609807
1419.36 6426553 7288418 8164146 9100678 10186562 11495877
1425.15 12906030 14280375 15647348 16825667 17884042 18715994
1430.93 19390175 19538040 20027519 21158711 24910400 31161408
1436.72 26873532 21666317 24147558 25741928 26745019 27514485
1442.51 28076652 28299637 28489159 28489967 28543145 28877773
1448.29 29895946 31334433 33009157 34774104 36241652 37170327
1454.08 36814561 34998384 31788783 27977479 24817909 22694740
1459.86 22500667 26737243 31599682 34161095 34730311 33960575
1465.65 32262678 29570265 26903034 24074587 21688527 19486856
1471.43 17787801 16453839 15576485 14753033 14010254 13443101
1477.22 12930453 12362903 11837993 11269479 10711775 10184074
1483.00 9651275 9155173 8655427 8070153 7543739 7089538
1488.79 6565412 6133034 5793218 5432128 5004659 4618960
1494.57 4085980 3662452 3539171 3181137 2939390 2772567
1500.36 2504619 2275555 2074617 1812439 1396376 1062516
1506.15 924234 1070808 1207087 1183281 1126580 1069258
1511.93 1141307 1251248 1315763 1424418 1530037 1736197
1517.72 2006200 2085314 2012881 2049854 2194003 2321358
1523.50 2313651 2300920 2492118 2671740 2825500 2943823
1529.29 3022369 2987881 2842795 2645516 2506082 2443578
1535.07 2261565 2094509 1780876 1264971 1101845 1120851
1540.86 968613 989391 1009218 804479 754879 806689
1546.64 753073 643995 499169 464286 442428 396902
1552.43 267798 121808 199476 260971 4148-356644
1558.21-361926-259516 42222 235669 232777 245928
1564.00 194568 226225 247767 245047 146333 72205
1569.79 186805 260541 259209 245473 211238-117759
1575.57-202431 145853 264781 283356 269532 250107
1581.36 249539 248791 252813 221990 167593 143561
1587.14 123434 131960 120463 100752 105124 78455
1592.93 21460 5388 52191 50787 6903 1436
1598.71 24325 11992 9836-8970-38324-6314
1604.50 8247-6278 3237 3579-14662 18898
1610.28 36051 35714 85904 46081-2600-291517
1616.07-389882-68049 4454 2265 7289 32311
1621.85-64348-148868-34219-4689-81540-136340
1627.64-64998-6418-18182-26683-42906-60312
1633.43-258584-531626-348058-157681-127025-49199
1639.21-27124-22117-77882-78751-41595-203866
1645.00-380502-280397-199106-141824-94984-130401
1650.78-490713-938333-755339-348754-163693-67243
1656.57-18385-5385-13356 12685 16127-110788
1662.35-93807 13533 45739 58161 84809 31082
1668.14-130076-21993 89442 117942 199921 176310
1673.92-7318-5490 184202 242736 250030 213111
1679.71 221859 206981 146373-41972-359240-147007
1685.49 213252 217101 225225 200534 176024 184444
1691.28 188106 179404 177766-221447-388737-105
1697.07 117003-63032-445434-342148 24895 93791
1702.85 51513 31880 41097 39146 128229 154460
1708.64 140748 146535 185505 170466 121225 18405
1714.42 21781-25632-259046-141328 71393 140311
1720.21 160140 144200 139426 165263 189809 169886
1725.99 157246 149955 117698 52733 55571 46447
1731.78-146356-369178-332775-86819 11141 894
1737.56-33448-176768-152084-15984-19219-39688
1743.35-16136-6298-30436-16970-55884-51614
1749.13-52083-185816-73884 86084 73264 62026
1754.92 24377-22234 16957 82334 109536 20637
1760.71-75748-3630 61709 82157 126535 111876
1766.49 14718-20017 47336 37191-37432-193992
1772.28-143246 65269 82663 92125 118079 89805
1778.06 82497 97108 84254 113734 156378 117362
1783.85 67382 93532 142031 130983 98831 84942
1789.63 41700-31159-123286-44976 22391 7993
1795.42 4331-22764-29979-75130-95708-88726
1801.20-73810-67426-73215-67101-30025-38669
1806.99-60896-60328-74076-57885-42864-62257
1812.77-60782-36051 1135-20485-25709-23836
1818.56-18317 14842-2363 6653 38426-21175
1824.35-63555-5007-635-377-44042-83549
1830.13-5053 37012 10565 30866 62845 39319
1835.92 18945 26106 22379 5198 9576 10147
1841.70 1818-102572-112076 32476 64557 62169
1847.49 93582 92113 77787 31118-14901-2043
1853.27 12127 7311-30256-25149 17678 33347
1859.06 44932 37247 34775 13659-26163-24814
1864.84-15864-35212-54925-76934-75798-16714
1870.63 5154-25979-8661 12252 6353 45549
1876.41 56674 34113 17791 35007 20741-14455
1882.20 4169 12699 54793 54982 32380 55381
1887.99 28826 37868 90054 111574 112019 77887
1893.77 74000 105649 98341 83537 96980 124896
1899.56 148758 120461 81731 73346 74927 68297
1905.34 62095 55074 54616 50257 16321-7052
1911.13-14941 11632 11133-13942-17859-55999
1916.91-99327-55288-6402-15060-44831-79057
1922.70-85309-63902-80234-87692-49808-31243
1928.48-17137-26759-53145-58430-26682-29523
1934.27-49296-52049-48233-47346-40096-42143
1940.05-63692-78565-88706-85382-67934-50872
1945.84-41308-23666-38461-53449-47115-52361
1951.63-56790-53469-45548-75043-69605-57533
1957.41-64193-41488-35278-48193-56054-36363
1963.20-28798-41183-53598-50485-30590 1768
1968.98 6634 20832 17869-21975-8139 20161
1974.77 42174 34933-10107 2976 36845 37337
1980.55 44851 28329 39835 59929 20922 5534
1986.34 36638 51287 44404 72402 92825 79000
1992.12 85074 84217 67892 93369 102719 50725
1997.91 29948 51516 77951 110808 113038 101572
2003.69 129595 161297 167598 158640 148942 171057
2009.48 209759 249307 310595 359652 396837 435135
2015.27 510497 616198 723518 815101 897776 1045212
2021.05 1211422 1358057 1506064 1637303 1767828 1896982
2026.84 1986719 2023944 2105633 2158195 2190728 2227274
2032.62 2233503 2251204 2182097 2124213 2100303 2003909
2038.41 1871248 1731238 1614898 1476860 1315998 1138831
2044.19 963870 824437 709010 582452 470066 406273
2049.98 335831 318996 299956 261744 244724 219481
2055.76 224406 209453 171696 165456 170600 149037
2061.55 116459 110485 104975 104264 114524 102233
2067.33 69043 67267 55620 50098 66413 76314
2073.12 84224 77785 66486 48546 48896 54862
2078.91 61802 69393 60284 70913 75023 74878
2084.69 94725 97587 92724 95925 107879 139077
2090.48 146845 129839 156632 201806 205299 200211
2096.26 248768 295653 291017 294785 310917 314096
2102.05 352594 368163 370213 366530 370586 374807
2107.83 400813 412676 374401 385485 411883 438329
2113.62 454348 492597 474684 423910 420613 379042
2119.40 327503 308659 310836 314404 293470 282199
2125.19 267640 264728 266004 266225 289559 331945
2130.97 360164 311148 252401 214941 191779 192085
2136.76 187200 176577 195773 211494 171017 127237
2142.55 135768 161996 195299 168851 128013 144602
2148.33 133369 114699 112087 106198 95720 93844
2154.12 105454 103121 90917 85736 94956 94793
2159.90 102298 124009 122964 138566 170216 178243
2165.69 202146 208603 200524 216848 254775 310438
2171.47 335589 363906 379282 413878 474919 482144
2177.26 483758 518923 519215 529308 563637 584184
2183.04 638499 683935 742094 822501 858462 882047
2188.83 920400 939497 929964 935630 953094 977824
2194.61 1010679 1010875 1033477 1072003 1098841 1157518
2200.40 1247431 1290074 1331080 1364120 1399977 1421706
2206.19 1465546 1493465 1479134 1532780 1572178 1600195
2211.97 1671502 1671114 1672342 1742882 1796047 1869238
2217.76 1986607 2045090 2152457 2236921 1922512 1686140
2223.54 1665455 1640184 1629052 1666261 1701860 1701363
2229.33 1686387 1658602 1657948 1634421 1615296 1576701
2235.11 1514385 1468833 1412625 1359356 1315238 1239370
2240.90 1149654 1086606 1051405 1032856 1020830 973099
2246.68 924985 875692 816739 783296 781470 745410
2252.47 692303 627581 605049 559282 517146 494018
2258.25 431857 398276 375068 365753 380440 378609
2264.04 338323 309921 287740 265286 279448 277591
2269.83 247166 244402 242179 219458 232566 208700
2275.61 192542 195080 192052 238289 252733 217518
2281.40 183512 211847 220228 216635 223112 210814
2287.18 256417 280545 265015 235329 221733 218770
2292.97 213509 213549 207502 201902 202104 178594
2298.75 159236 148138 163074 192895 212978 167818
2304.54 172144 187473 205004 156848 156086 147473
2310.32 164321 191196 154780 165580 171588 163654
2316.11 129137 120624 88105 98107 27578 13885
2321.89 2088-16525-69984-67597 9530-12927
2327.68-144005-228883-282229-308781-360488-395241
2333.47-426911-426217-418195-395150-392477-426232
2339.25-401169-354616-342328-342171-287357-246730
2345.04-194824-83993 47831 126543 66807-58463
2350.82-161639-261953-367206-465014-560616-663165
2356.61-710119-753773-814760-839585-836056-858720
2362.39-833049-771138-702157-615996-545012-427846
2368.18-296874-212851-124397 5829 123944 227075
2373.96 369044 507037 653301 793928 894070 988038
2379.75 1061903 1100597 1075413 1027723 1002569 980277
2385.53 955750 969988 1087539 1210086 1230040 1208674
2391.32 1199356 1125702 1030836 970838 909666 800022
2397.11 741555 719635 664303 635952 618493 612388
2402.89 652126 650772 631682 649107 619459 599565
2408.68 620638 645365 658214 645668 627157 630034
2414.46 639793 637753 597737 573984 603268 645954
2420.25 754136 881716 874661 775165 687781 665780
2426.03 637607 597248 633919 646899 637833 645836
2431.82 658152 663786 642197 651623 655931 651427
2437.60 648301 605360 622014 657010 629384 630588
2443.39 625788 604478 569318 517763 525427 538394
2449.17 538967 532067 522777 521731 510062 465414
2454.96 465142 550430 682316 741859 731220 722886
2460.75 713509 651579 606313 646306 668230 655582
2466.53 630849 598877 544809 545645 545253 508802
2472.32 477681 447663 438891 405250 369817 353593
2478.10 296812 255162 273282 284633 278344 269751
2483.89 285150 336983 365018 334312 340735 363986
2489.67 346599 366091 393178 384749 395197 449921
2495.46 497500 492994 486840 531126 556920 536054
2501.24 560140 619186 672034 684711 708767 764178
2507.03 792189 757964 722992 743666 749458 747590
2512.81 749013 759979 789887 816792 831106 845905
2518.60 867371 872573 854978 808949 742139 691030
2524.39 661705 664379 647217 580906 520743 526112
2530.17 569253 573264 619096 666834 618189 575142
2535.96 567971 565943 560432 502965 447753 454361
2541.74 452836 429952 416202 377967 368665 357428
2547.53 330529 341121 303422 247501 236936 249933
2553.31 213631 164973 151625 130055 89255 68984
2559.10 60256 43887 6587-32106-44312-44161
2564.88-38796-65574-92373-115264-127806-70131
2570.67-19587-68072-84314-49919-38017-58725
2576.45-69294-85982-105067-129502-172527-153298
2582.24-175799-141899 39264 110244 34001-37303
2588.03-105541-134784-115191-127524-172759-186627
2593.81-146879-120697-127602-139679-141261-163785
2599.60-176070-148875-133652-110415-95073-128030
2605.38-112090-95576-150545-133957-76915-74839
2611.17-92225-112227-119060-102657-111143-124428
2616.95-45849 1175-68023-103884-88080-75716
2622.74-52730-56307-56159-37452-29247-33048
2628.52-36089-23958-20019-32377-23884-183
2634.31-19376-32722-58480-55986 4439 48893
2640.09 32442 18141 27901 13259-12882-11124
2645.88 9543 12351 23914 42174 45505 64496
2651.66 42689 59981 52166-445 17928-661
2657.45 11141 51685 69527 78175 34468 30838
2663.24 118067 160397 150507 183423 195264 187542
2669.02 254210 315049 338301 386410 447293 542254
2674.81 702612 877595 1008072 1125522 1314470 1483902
2680.59 1624367 1775364 1880715 1972179 1946476 1757301
2686.38 1627678 1595048 1520560 1536597 1690921 1835421
2692.16 1886368 1839487 1722379 1559978 1312225 1047937
2697.95 859680 674356 536702 451556 393689 368805
2703.73 318004 283590 302468 254811 223908 240844
2709.52 228975 204212 169778 168426 215858 230805
2715.30 197303 269101 374035 396983 451005 531712
2721.09 556907 566907 579892 553329 507292 494852
2726.88 458153 468817 639585 617306 471102 486574
2732.66 529711 570678 623800 618948 621074 642042
2738.45 634460 582593 568473 613031 576648 524677
2744.23 546799 614008 647472 679336 729008 781540
2750.02 866564 1035082 1210149 1389234 1612276 1788486
2755.80 2061050 2351733 2502900 2626090 2675555 2576216
2761.59 2499433 2311042 2096979 2082828 1973172 2043008
2767.37 2359932 2571603 2620518 2526801 2249560 1844262
2773.16 1474421 1163150 885769 639434 502155 382666
2778.94 302695 293494 242006 192782 202135 219407
2784.73 197449 166581 159590 165309 173828 159023
2790.52 142120 145274 145471 131699 106215 81343
2796.30 30302 52593 91662 56297-390 20476
2802.09 69151 55307-1100-27690 35538 72518
2807.87 68106 19951 30743 28312 18818 76737
2813.66 75724 57678 76620 107684 116897 129547
2819.44 153773 228714 227611 194030 241565 302991
2825.23 331516 311402 352602 411904 478085 554500
2831.01 601136 679739 766379 844975 945558 1036317
2836.80 1184205 1337506 1443786 1611216 1761956 1892661
2842.58 2076590 2325685 2514353 2703061 2954253 3180047
2848.37 3380875 3561358 3778426 3964822 4064091 4154085
2854.16 4160473 4037590 3965489 4056047 4243205 4250466
2859.94 4326931 4535737 4734338 4961633 5153195 5173964
2865.73 5150211 5180859 5160153 5083568 5042026 5051232
2871.51 5068767 5113667 5257208 5416026 5512643 5632053
2877.30 5878871 6224790 6676001 7340024 8300696 9519469
2883.08 11050034 12766320 14430798 15866292 16936940 17207198
2888.87 16430917 14837936 13132125 11726833 10964542 11212640
2894.65 12535768 14720172 16240335 16678205 16152766 14846516
2900.44 13141851 11420668 9809665 8324727 7090158 6097623
2906.22 5323985 4729090 4276233 3961056 3748283 3597414
2912.01 3452619 3314802 3179370 3113885 3054480 2886113
2917.80 2780899 2658626 2517249 2414858 2357547 2320773
2923.58 2326399 2327684 2352334 2460804 2541451 2643155
2929.37 2826773 3060420 3352647 3734248 4192796 4626159
2935.15 5079762 5624448 6340567 7097872 7832707 8653535
2940.94 9557455 10493928 11507357 12636397 13835871 15201462
2946.72 16697299 18170301 19821971 21628875 23458926 25508959
2952.51 27409405 29367407 31458212 35153536 38532822 37561223
2958.29 35895735 34899523 32746532 30161258 28409572 29370765
2964.08 33394398 38323175 42443276 45298095 47379925 48915530
2969.86 50664167 52369213 54525108 56707947 59160407 61304138
2975.65 62834065 63468619 62510195 60155229 56594874 53638808
2981.44 52139748 50995217 52985538 58619125 62362308 63458364
2987.22 62441923 59978084 56502539 52874043 49335061 46215168
2993.01 43746019 41838639 40494507 39602275 38756768 37866821
2998.79 36934556 35946910 34892296 33956047 33137203 32355780
3004.58 31872658 31545224 31244395 31070138 30902702 31328525
3010.36 33215958 32763482 29185540 26488286 24955131 24242051
3016.15 23613686 22968912 22388673 21701508 21023898 20277353
3021.93 19468836 18825200 18052785 17398921 16792683 16249299
3027.72 15798054 15465756 15416010 15788471 16665196 18553019
3033.50 18795279 15754774 13385830 12181338 11600183 11253887
3039.29 10969362 10793240 10614869 10396505 10145808 9929642
3045.08 9716587 9431433 9046186 8722095 8394883 8083957
3050.86 7735499 7400502 7023030 6706110 6385468 6046186
3056.65 5804702 5508460 5154970 4823828 4564510 4262795
3062.43 3977380 3781399 3517676 3298830 3080794 2922241
3068.22 2824324 2630787 2453028 2274651 2093248 1969554
3074.00 1840910 1705657 1552787 1431080 1398852 1363821
3079.79 1278085 1155313 1115584 1093344 1058589 1032988
3085.57 985250 946740 892539 832503 831028 819173
3091.36 800841 787211 798338 816396 774709 750301
3097.14 717030 661469 681758 691097 715601 788534
3102.93 747932 692117 677740 686556 673760 632809
3108.72 626894 609994 639633 650671 590076 594724
3114.50 577862 581739 566198 498381 484069 497944
3120.29 502292 481006 439532 372184 388240 418219
3126.07 386872 353291 356847 343148 298441 246916
3131.86 171715 130633 125511 159120 145202 108344
3137.64 146116 166520 144687 112162 115328 108397
3143.43 106326 68008-12735 22072 85810 51480
3149.21-32979 2503 79768 53925 47597 43070
3155.00 20052-26260-43782-18220-12297-15010
3160.78 37367 51358-51982-19147 19757-20014
3166.57-13078-10544-28438-37372 15748 46476
3172.36 74993 91729 81163 26134 58824 50647
3178.14 31175 80676 67961 137147 86914 46044
3183.93 96994 134953 189443 136256 93212 105619
3189.71 158388 152722 103881 146813 242438 293867
3195.50 241472 214998 206181 220516 265251 241163
3201.28 219358 250456 231316 230710 262635 255152
3207.07 262248 298713 277348 236096 232719 174938
3212.85 171672 265155 219802 197794 233203 217912
3218.64 199691 155062 123055 171363 170156 95016
3224.42 70015 105513 152053 114839 24724 71762
3230.21 145155 102946 82287 73625 109874 49287
3236.00-15490-15571 9585 71842 62398 32531
3241.78 20571 18832-5745 12933 47907 57505
3247.57 68199 76430 68955 68801-3885-81553
3253.35 34745 143998 159919 120968 90217 129548
3259.14 114710 122577 148969 155922 173835 107104
3264.92 104967 152839 174298 214482 216771 202671
3270.71 174942 162329 163878 130704 138615 162365
3276.49 148577 160338 181147 137267 109725 107442
3282.28 42738 21353 66413 90634 66688 41820
3288.06 3457-32352 11944 75190 26403-53663
3293.85-28516 4576 47553 35061-47704-30441
3299.64-38651-60083-41975-69761-68177-85086
3305.42-88853-61961-26979-33511-46652-8683
3311.21-19300-53003-58156-117416-99501-51052
3316.99-125382-116968-79493-26486 33566-27382
3322.78-68046-33036-84648-65339 6499-5288
3328.56-56570-95036-54104-13305-9735-49961
3334.35-77568-41490 4302 30946 3104-36323
3340.13-49715-38120-30027-21388 32110-2921
3345.92-32059 28259-18817-58605-27617-52621
3351.70-55546-107 1161-55592-72071-54603
3357.49-43719 8328 43748-21482-72872-30975
3363.28-43632-69391-12295-28988-10376-16279
3369.06-6075 53345 21987 56328 85694 46724
3374.85 55430 10272 6888 70656 52013 39156
3380.63-31329-31308-49452-85466-89397-117857
3386.42-26324 6634 27970 36031-4059-14700
3392.20-9263-40307-77540-43102 28262 99474
3397.99 141683 100100 109063 196989 170561 152242
3403.77 206057 190026 160984 154987 163804 194919
3409.56 197930 190154 195606 192710 156354 114221
3415.34 165077 244042 221537 138322 77797 53135
3421.13 40029 28898-26642-6181 70478 4118
3426.92-69887-85236-55228 7378 39057-17078
3432.70-61356-35675-14396 33088 44309 51671
3438.49-13272-72155-103972-96413-17911-25637
3444.27-36623-102395-142468-29068-7489-70868
3450.06-25436 38475 55329-28432-25605 3429
3455.84-6824-32499-67629-20533 24986 42013
3461.63 39494 15253-42083-30439-2402 24976
3467.41 52863 22837-16218 8344 5682-43467
3473.20-15019-8915-24703 48038 108300 67989
3478.98 14440-22271 28454 113806 24863-21965
3484.77 22989 32810-17445-22107-18665-33980
3490.56-68566-80601-10534-52760 11234 56683
3496.34-3394 21586-12688-98647-149997-121286
3502.13-100037-32696-11050-85465-75048-78137
3507.91-118279-149910-143580-94817-103903-51223
3513.70 26094-3962-61250-141621-157254-84970
3519.48-34750-58378-91760-129271-171638-110793
3525.27-39861-37216-64230-61179-31164-37189
3531.05-51468-61326-88161-56388-33892-62583
3536.84-23701-28819-59484-24554 45400 30301
3542.62-71766-117224-127170-130305-99169-83343
3548.41-103829-92374-48523-41347-13629-34206
3554.20-62075-39288-47718-52694-141989-153111
3559.98-33422-36077-76936-117515-153893-133990
3565.77-163449-182234-152341-160570-150198-136961
3571.55-127273-94365-62685-26910-73959-109752
3577.34-100728-118866-132634-163293-134331-90086
3583.12-92449-92911-160212-145316-151989-211383
3588.91-137607-74465-88686-160054-178587-128706
3594.69-56702-31572-31413-9367-68943-122415
3600.48-54732-3601-7834-51720-80506-54571
3606.26 24174 30410-109807-79971-12471-18125
3612.05 21688 43689 42821 102022 96702 35716
3617.84-34413-85175 57173 139287 108681 146307
3623.62 222547 185090 128241 71388-106485-130570
3629.41-15454 67601 113668 63025 89341 191471
3635.19 238931 252011 264164 293187 255583 290172
3640.98 266511 184295 234955 271153 226175 125380
3646.76 146581 82350 17171 99247 173913 269222
3652.55 320890 394318 295040 220771 375467 391410
3658.33 354386 364976 377501 379915 361016 320568
3664.12 334299 397066 428239 285874 291228 236738
3669.90 85928 294860 382677 335241 218233 27430
3675.69 111360 303782 312564 306454 349284 361352
3681.48 400362 414740 346017 328876 337001 218982
3687.26-45682 24822 124335 35110 95886 144035
3693.05 178851 213197 210272 232337 289807 285300
3698.83 259936 237520 148719 156628 248013 264520
3704.62 270220 251855 253504 191550 130939 213122
3710.40 60476-11455 212518 277260 293073 276557
3716.19 233914 220151 217639 207258 214549 188259
3721.97 205384 301488 294230 273179 285407 323975
3727.76 364923 353455 353048 232951 280052 418512
3733.54 352225 386798 367169 470523 653025 730792
3739.33 766764 778863 870094 811066 444092 578169
3745.12 1023427 1151423 1118884 791768 876211 1100845
3750.90 846289 1027557 1426903 1414089 1313687 1311927
3756.69 1355406 1323994 1232434 1290272 1345959 1293726
3762.47 1275335 1262807 1186290 1147622 1160918 1132279
3768.26 1084773 1099181 1127290 1131612 1223073 1266636
3774.04 1303884 1303688 1230140 1173838 1110414 1056703
3779.83 1076583 1129498 1145863 1124103 1090138 1070707
3785.61 1057424 1027006 1034464 963884 868105 909483
3791.40 921636 807589 716792 688703 573513 509521
3797.18 567129 615662 511968 316183 495558 831402
3802.97 880913 826161 615126 339546 430112 562995
3808.76 592953 584439 526553 545694 622322 659247
3814.54 364714 290225 511895 570655 516888 327759
3820.33 211190 325335 441991 482331 510503 474750
3826.11 478516 450126 376116 369441 324235 331175
3831.90 336177 289286 183701 208520 188308-125537
3837.68 45606 267822 247301 269922 212634 179199
3843.47 244064 272016 289269 351535 333477 222943
3849.25 219862 79584-113051-169544-432349-191598
3855.04 144559 113012 99208 116535 147165 86982
3860.82 21720 19310-6992-65421-45866 46198
3866.61 58217 10186-144005-188523-42604 21520
3872.40-32379-82011 35298 86543 30932 42658
3878.18 7825-58558 2961 68741 87376 110483
3883.97-29710-93981 117666 143699 48222 92732
3889.75 20783-27708 80301 132207 157225 147686
3895.54 113797 127147 72402-52715 50799 45755
3901.32-6578-19821-99724-19232 60572 85555
3907.11 99898 113212 116486 66427-33130-37976
3912.89-6854 35800 68650-43123-36329 76282
3918.68 36182 2068-8054-9911 29785 37632
3924.46 37276 59958 59013 45839 66291 82373
3930.25 84878 101815 89160 71506 117365 148320
3936.04 128894 179993 219127 218328 262285 223667
3941.82 133175 159733 244703 261988 223020 256947
3947.61 238346 224609 271614 244846 283697 359175
3953.39 390257 424871 436478 399784 348852 313403
3959.18 342869 384608 397262 411574 456449 468857
3964.96 412251 338588 313979 290836 348605 445198
3970.75 442450 380173 334116 412975
##END=
