##TITLE=Ether, chloromethyl methyl
##JCAMP-DX=4.24
$$ By DXEDIT 1.05 (RS McDonald)
##DATA TYPE=INFRARED SPECTRUM
##CLASS=COBLENTZ III
##ORIGIN=DOW CHEMICAL COMPANY
##OWNER=COPYRIGHT (C) 1988 by COBLENTZ SOCIETY INC.
Collection (C) 2018 copyright by the U.S. Secretary of Commerce
on behalf of the United States of America. All rights reserved.
##DATE=1963/01/03
##NAMES=chloromethyl methyl ether
chloro(methoxy)methane
##CAS REGISTRY NO=107-30-2
##MOLFORM=C2 H5 Cl O
##SOURCE REFERENCE=COBLENTZ NO. 6530
##$NIST SOURCE=COBLENTZ
##$NIST IMAGE=cob6530
##SPECTROMETER/DATA SYSTEM=DOW KBr FOREPRISM-GRATING
##INSTRUMENT PARAMETERS=BLAZED AT 3.5, 12.0, 20.0 MICRON AND CHANGED AT 5.0, 7.5, 14.9 MICRON
##STATE=SOLUTION (10% CCl4 FOR 3800-1340, 10% CS2 FOR 1340-450 CM^-^1)
##PATH LENGTH=0.011 CM, 0.010 CM
$$SPECTRAL CONTAMINATION DUE TO CS2 AROUND 850 AND CCl4 AROUND 1550 CM^-^1 HAVE BEEN SUBTRACTED
$$ SEE SPECTRUM NO. 2397 FOR "PRISM" SPECTRUM
##SAMPLING PROCEDURE=TRANSMISSION
##RESOLUTION=2
##DATA PROCESSING=DIGITIZED BY COBLENTZ SOCIETY (BATCH I) FROM HARD COPY
##XUNITS=1/CM
##YUNITS=TRANSMITTANCE
##XFACTOR=1
##YFACTOR=1
##DELTAX=1
##FIRSTX=3794
##LASTX=451
##FIRSTY=0.917
##MAXX=3794
##MINX=451
##MAXY=0.9216
##MINY=0.0012
##NPOINTS=3344
##XYDATA=(X++(Y..Y))
3794.000000 0.9170 0.9170 0.9170 0.9171 0.9172
3789.000000 0.9173 0.9174 0.9174 0.9175 0.9176
3784.000000 0.9171 0.9169 0.9170 0.9177 0.9181
3779.000000 0.9173 0.9181 0.9184 0.9185 0.9175
3774.000000 0.9186 0.9187 0.9188 0.9189 0.9190
3769.000000 0.9190 0.9191 0.9192 0.9193 0.9194
3764.000000 0.9195 0.9195 0.9196 0.9197 0.9203
3759.000000 0.9202 0.9198 0.9198 0.9197 0.9192
3754.000000 0.9187 0.9182 0.9178 0.9171 0.9164
3749.000000 0.9156 0.9149 0.9142 0.9136 0.9133
3744.000000 0.9131 0.9128 0.9125 0.9122 0.9120
3739.000000 0.9120 0.9125 0.9124 0.9123 0.9124
3734.000000 0.9122 0.9120 0.9129 0.9136 0.9139
3729.000000 0.9142 0.9146 0.9148 0.9151 0.9153
3724.000000 0.9156 0.9158 0.9159 0.9161 0.9162
3719.000000 0.9154 0.9157 0.9168 0.9169 0.9171
3714.000000 0.9173 0.9175 0.9180 0.9185 0.9184
3709.000000 0.9192 0.9194 0.9196 0.9198 0.9198
3704.000000 0.9199 0.9200 0.9201 0.9202 0.9203
3699.000000 0.9204 0.9205 0.9205 0.9197 0.9197
3694.000000 0.9198 0.9199 0.9200 0.9201 0.9202
3689.000000 0.9202 0.9203 0.9202 0.9195 0.9196
3684.000000 0.9196 0.9196 0.9195 0.9194 0.9193
3679.000000 0.9192 0.9191 0.9190 0.9189 0.9187
3674.000000 0.9186 0.9185 0.9184 0.9183 0.9190
3669.000000 0.9182 0.9179 0.9178 0.9177 0.9176
3664.000000 0.9175 0.9173 0.9172 0.9171 0.9170
3659.000000 0.9168 0.9167 0.9165 0.9164 0.9162
3654.000000 0.9161 0.9159 0.9158 0.9156 0.9156
3649.000000 0.9156 0.9156 0.9156 0.9156 0.9154
3644.000000 0.9154 0.9153 0.9153 0.9153 0.9153
3639.000000 0.9151 0.9151 0.9151 0.9151 0.9151
3634.000000 0.9151 0.9153 0.9161 0.9160 0.9157
3629.000000 0.9150 0.9155 0.9161 0.9161 0.9161
3624.000000 0.9161 0.9161 0.9161 0.9161 0.9161
3619.000000 0.9161 0.9163 0.9163 0.9163 0.9163
3614.000000 0.9163 0.9163 0.9164 0.9164 0.9164
3609.000000 0.9163 0.9156 0.9165 0.9165 0.9165
3604.000000 0.9165 0.9162 0.9158 0.9165 0.9163
3599.000000 0.9158 0.9163 0.9170 0.9171 0.9172
3594.000000 0.9174 0.9175 0.9176 0.9177 0.9178
3589.000000 0.9179 0.9180 0.9181 0.9182 0.9183
3584.000000 0.9186 0.9187 0.9188 0.9189 0.9190
3579.000000 0.9191 0.9192 0.9193 0.9192 0.9189
3574.000000 0.9197 0.9198 0.9194 0.9190 0.9191
3569.000000 0.9192 0.9194 0.9195 0.9196 0.9197
3564.000000 0.9198 0.9199 0.9199 0.9201 0.9202
3559.000000 0.9204 0.9205 0.9206 0.9207 0.9216
3554.000000 0.9206 0.9208 0.9216 0.9215 0.9213
3549.000000 0.9208 0.9215 0.9214 0.9214 0.9210
3544.000000 0.9209 0.9212 0.9212 0.9212 0.9206
3539.000000 0.9209 0.9205 0.9208 0.9211 0.9211
3534.000000 0.9211 0.9211 0.9212 0.9212 0.9212
3529.000000 0.9202 0.9204 0.9204 0.9205 0.9205
3524.000000 0.9205 0.9205 0.9206 0.9206 0.9206
3519.000000 0.9206 0.9208 0.9208 0.9208 0.9208
3514.000000 0.9208 0.9208 0.9208 0.9206 0.9206
3509.000000 0.9204 0.9202 0.9202 0.9201 0.9199
3504.000000 0.9199 0.9198 0.9196 0.9194 0.9193
3499.000000 0.9192 0.9191 0.9190 0.9189 0.9188
3494.000000 0.9187 0.9185 0.9184 0.9183 0.9182
3489.000000 0.9181 0.9180 0.9178 0.9177 0.9176
3484.000000 0.9175 0.9173 0.9172 0.9170 0.9169
3479.000000 0.9168 0.9167 0.9165 0.9164 0.9163
3474.000000 0.9162 0.9161 0.9160 0.9157 0.9157
3469.000000 0.9156 0.9154 0.9154 0.9153 0.9152
3464.000000 0.9152 0.9150 0.9150 0.9149 0.9149
3459.000000 0.9147 0.9147 0.9147 0.9146 0.9144
3454.000000 0.9144 0.9143 0.9143 0.9142 0.9142
3449.000000 0.9141 0.9140 0.9139 0.9139 0.9138
3444.000000 0.9137 0.9136 0.9135 0.9134 0.9134
3439.000000 0.9133 0.9132 0.9131 0.9130 0.9129
3434.000000 0.9128 0.9127 0.9126 0.9125 0.9125
3429.000000 0.9124 0.9123 0.9122 0.9120 0.9111
3424.000000 0.9117 0.9117 0.9116 0.9115 0.9115
3419.000000 0.9114 0.9113 0.9112 0.9111 0.9111
3414.000000 0.9111 0.9111 0.9111 0.9111 0.9111
3409.000000 0.9111 0.9111 0.9116 0.9115 0.9111
3404.000000 0.9111 0.9113 0.9116 0.9118 0.9121
3399.000000 0.9123 0.9126 0.9128 0.9132 0.9134
3394.000000 0.9137 0.9139 0.9142 0.9144 0.9146
3389.000000 0.9149 0.9152 0.9153 0.9153 0.9153
3384.000000 0.9153 0.9153 0.9153 0.9151 0.9149
3379.000000 0.9148 0.9146 0.9146 0.9145 0.9143
3374.000000 0.9142 0.9139 0.9136 0.9131 0.9136
3369.000000 0.9125 0.9121 0.9119 0.9118 0.9116
3364.000000 0.9114 0.9112 0.9111 0.9109 0.9106
3359.000000 0.9104 0.9103 0.9101 0.9100 0.9097
3354.000000 0.9097 0.9094 0.9094 0.9093 0.9092
3349.000000 0.9090 0.9089 0.9087 0.9086 0.9093
3344.000000 0.9094 0.9085 0.9092 0.9082 0.9082
3339.000000 0.9081 0.9089 0.9088 0.9087 0.9077
3334.000000 0.9076 0.9075 0.9075 0.9074 0.9073
3329.000000 0.9072 0.9072 0.9071 0.9070 0.9069
3324.000000 0.9069 0.9068 0.9068 0.9067 0.9066
3319.000000 0.9066 0.9067 0.9067 0.9068 0.9068
3314.000000 0.9069 0.9069 0.9080 0.9081 0.9082
3309.000000 0.9082 0.9081 0.9075 0.9084 0.9084
3304.000000 0.9082 0.9075 0.9076 0.9076 0.9076
3299.000000 0.9076 0.9076 0.9075 0.9075 0.9075
3294.000000 0.9075 0.9075 0.9075 0.9075 0.9075
3289.000000 0.9075 0.9075 0.9075 0.9075 0.9074
3284.000000 0.9074 0.9083 0.9078 0.9070 0.9073
3279.000000 0.9079 0.9077 0.9069 0.9071 0.9076
3274.000000 0.9075 0.9074 0.9074 0.9073 0.9072
3269.000000 0.9071 0.9071 0.9070 0.9069 0.9068
3264.000000 0.9067 0.9066 0.9066 0.9065 0.9064
3259.000000 0.9062 0.9062 0.9061 0.9052 0.9059
3254.000000 0.9059 0.9058 0.9058 0.9056 0.9054
3249.000000 0.9054 0.9054 0.9053 0.9051 0.9047
3244.000000 0.9046 0.9049 0.9048 0.9047 0.9046
3239.000000 0.9045 0.9044 0.9043 0.9042 0.9041
3234.000000 0.9040 0.9039 0.9038 0.9037 0.9036
3229.000000 0.9035 0.9034 0.9031 0.9022 0.9023
3224.000000 0.9029 0.9028 0.9027 0.9026 0.9025
3219.000000 0.9023 0.9022 0.9020 0.9019 0.9017
3214.000000 0.9016 0.9014 0.9013 0.9010 0.9010
3209.000000 0.9007 0.8998 0.8995 0.8993 0.8992
3204.000000 0.8990 0.8988 0.8987 0.8985 0.8986
3199.000000 0.8990 0.8983 0.8986 0.8981 0.8986
3194.000000 0.8985 0.8983 0.8981 0.8977 0.8970
3189.000000 0.8968 0.8970 0.8968 0.8960 0.8953
3184.000000 0.8951 0.8948 0.8945 0.8944 0.8941
3179.000000 0.8938 0.8937 0.8934 0.8932 0.8929
3174.000000 0.8927 0.8924 0.8922 0.8919 0.8917
3169.000000 0.8913 0.8910 0.8906 0.8903 0.8898
3164.000000 0.8900 0.8901 0.8893 0.8890 0.8890
3159.000000 0.8887 0.8878 0.8877 0.8870 0.8863
3154.000000 0.8868 0.8866 0.8863 0.8858 0.8854
3149.000000 0.8853 0.8842 0.8841 0.8839 0.8837
3144.000000 0.8834 0.8833 0.8832 0.8833 0.8839
3139.000000 0.8837 0.8835 0.8832 0.8831 0.8829
3134.000000 0.8828 0.8824 0.8821 0.8817 0.8814
3129.000000 0.8811 0.8808 0.8802 0.8799 0.8797
3124.000000 0.8794 0.8790 0.8787 0.8784 0.8781
3119.000000 0.8777 0.8773 0.8769 0.8766 0.8763
3114.000000 0.8760 0.8756 0.8753 0.8747 0.8740
3109.000000 0.8734 0.8728 0.8727 0.8726 0.8720
3104.000000 0.8714 0.8707 0.8701 0.8695 0.8697
3099.000000 0.8692 0.8686 0.8688 0.8692 0.8694
3094.000000 0.8689 0.8683 0.8676 0.8661 0.8654
3089.000000 0.8638 0.8625 0.8621 0.8617 0.8602
3084.000000 0.8590 0.8584 0.8578 0.8572 0.8566
3079.000000 0.8558 0.8558 0.8561 0.8558 0.8551
3074.000000 0.8552 0.8548 0.8534 0.8526 0.8520
3069.000000 0.8504 0.8508 0.8493 0.8487 0.8481
3064.000000 0.8474 0.8459 0.8452 0.8440 0.8435
3059.000000 0.8431 0.8422 0.8408 0.8392 0.8385
3054.000000 0.8372 0.8348 0.8329 0.8317 0.8301
3049.000000 0.8282 0.8263 0.8226 0.8197 0.8151
3044.000000 0.8113 0.8085 0.8058 0.8029 0.8002
3039.000000 0.7907 0.7813 0.7636 0.7453 0.7342
3034.000000 0.7240 0.7157 0.7078 0.6867 0.6653
3029.000000 0.6511 0.6372 0.6241 0.6111 0.6008
3024.000000 0.5906 0.5668 0.5430 0.5287 0.5146
3019.000000 0.5008 0.4868 0.4724 0.4403 0.4484
3014.000000 0.4391 0.4389 0.4387 0.4426 0.4464
3009.000000 0.4620 0.4775 0.4927 0.5085 0.5245
3004.000000 0.5401 0.5555 0.5707 0.5863 0.6023
2999.000000 0.6178 0.6331 0.6483 0.6634 0.6653
2994.000000 0.6671 0.6681 0.6689 0.6690 0.6690
2989.000000 0.6691 0.6691 0.6683 0.6677 0.6663
2984.000000 0.6648 0.6620 0.6593 0.6544 0.6497
2979.000000 0.6267 0.6031 0.5905 0.5786 0.5584
2974.000000 0.5383 0.5181 0.4980 0.4778 0.4576
2969.000000 0.4378 0.4177 0.3976 0.3775 0.3573
2964.000000 0.3371 0.3169 0.2967 0.2765 0.2564
2959.000000 0.2365 0.2162 0.2130 0.2087 0.2099
2954.000000 0.2099 0.2121 0.2141 0.2226 0.2311
2949.000000 0.2396 0.2482 0.2551 0.2621 0.2610
2944.000000 0.2601 0.2596 0.2594 0.2589 0.2587
2939.000000 0.2585 0.2582 0.2580 0.2578 0.2578
2934.000000 0.2584 0.2748 0.2912 0.3214 0.3517
2929.000000 0.3818 0.4121 0.4413 0.4707 0.4749
2924.000000 0.4793 0.4801 0.4807 0.4806 0.4806
2919.000000 0.4806 0.4804 0.4795 0.4785 0.4770
2914.000000 0.4755 0.4734 0.4714 0.4695 0.4676
2909.000000 0.4663 0.4655 0.4638 0.4617 0.4610
2904.000000 0.4604 0.4605 0.4575 0.4610 0.4615
2899.000000 0.4627 0.4638 0.4652 0.4666 0.4686
2894.000000 0.4705 0.4728 0.4752 0.4782 0.4812
2889.000000 0.4850 0.4889 0.4924 0.4960 0.4999
2884.000000 0.5039 0.5075 0.5112 0.5210 0.5308
2879.000000 0.5512 0.5716 0.5914 0.6124 0.6305
2874.000000 0.6487 0.6500 0.6514 0.6629 0.6744
2869.000000 0.6903 0.7066 0.7226 0.7388 0.7500
2864.000000 0.7613 0.7631 0.7650 0.7675 0.7701
2859.000000 0.7714 0.7728 0.7739 0.7751 0.7754
2854.000000 0.7747 0.7746 0.7744 0.7737 0.7730
2849.000000 0.7719 0.7707 0.7516 0.7331 0.6781
2844.000000 0.6230 0.5678 0.5134 0.4584 0.4034
2839.000000 0.3731 0.3416 0.3429 0.3427 0.3469
2834.000000 0.3515 0.3951 0.4388 0.4824 0.5260
2829.000000 0.5702 0.6134 0.6578 0.7019 0.7160
2824.000000 0.7309 0.7431 0.7537 0.7632 0.7721
2819.000000 0.7799 0.7871 0.7946 0.8020 0.8088
2814.000000 0.8157 0.8212 0.8268 0.8310 0.8353
2809.000000 0.8383 0.8419 0.8448 0.8476 0.8495
2804.000000 0.8514 0.8533 0.8553 0.8571 0.8591
2799.000000 0.8606 0.8621 0.8630 0.8641 0.8650
2794.000000 0.8660 0.8670 0.8678 0.8682 0.8696
2789.000000 0.8699 0.8708 0.8715 0.8724 0.8734
2784.000000 0.8745 0.8746 0.8747 0.8758 0.8766
2779.000000 0.8772 0.8778 0.8783 0.8790 0.8795
2774.000000 0.8801 0.8805 0.8810 0.8813 0.8816
2769.000000 0.8820 0.8823 0.8825 0.8830 0.8833
2764.000000 0.8836 0.8839 0.8842 0.8845 0.8848
2759.000000 0.8849 0.8851 0.8852 0.8853 0.8854
2754.000000 0.8855 0.8856 0.8858 0.8859 0.8860
2749.000000 0.8861 0.8862 0.8863 0.8864 0.8866
2744.000000 0.8869 0.8871 0.8874 0.8876 0.8878
2739.000000 0.8879 0.8883 0.8886 0.8888 0.8890
2734.000000 0.8893 0.8895 0.8898 0.8901 0.8904
2729.000000 0.8908 0.8912 0.8916 0.8921 0.8924
2724.000000 0.8928 0.8933 0.8937 0.8941 0.8945
2719.000000 0.8950 0.8954 0.8956 0.8958 0.8960
2714.000000 0.8962 0.8964 0.8966 0.8968 0.8970
2709.000000 0.8971 0.8972 0.8975 0.8977 0.8979
2704.000000 0.8981 0.8982 0.8982 0.8982 0.8982
2699.000000 0.8981 0.8979 0.8979 0.8979 0.8978
2694.000000 0.8978 0.8977 0.8977 0.8975 0.8975
2689.000000 0.8975 0.8975 0.8974 0.8974 0.8972
2684.000000 0.8972 0.8971 0.8971 0.8970 0.8970
2679.000000 0.8969 0.8969 0.8968 0.8968 0.8968
2674.000000 0.8968 0.8968 0.8968 0.8968 0.8968
2669.000000 0.8968 0.8968 0.8968 0.8968 0.8967
2664.000000 0.8967 0.8967 0.8967 0.8967 0.8967
2659.000000 0.8964 0.8964 0.8971 0.8970 0.8968
2654.000000 0.8967 0.8965 0.8964 0.8959 0.8952
2649.000000 0.8951 0.8956 0.8960 0.8959 0.8952
2644.000000 0.8948 0.8947 0.8952 0.8947 0.8944
2639.000000 0.8942 0.8940 0.8938 0.8937 0.8936
2634.000000 0.8945 0.8945 0.8944 0.8934 0.8936
2629.000000 0.8940 0.8937 0.8929 0.8923 0.8916
2624.000000 0.8909 0.8903 0.8899 0.8895 0.8895
2619.000000 0.8894 0.8897 0.8899 0.8902 0.8904
2614.000000 0.8907 0.8910 0.8913 0.8915 0.8918
2609.000000 0.8919 0.8920 0.8921 0.8922 0.8922
2604.000000 0.8923 0.8924 0.8925 0.8925 0.8926
2599.000000 0.8927 0.8928 0.8928 0.8929 0.8929
2594.000000 0.8929 0.8929 0.8929 0.8928 0.8928
2589.000000 0.8927 0.8927 0.8927 0.8927 0.8926
2584.000000 0.8926 0.8926 0.8926 0.8925 0.8925
2579.000000 0.8925 0.8925 0.8925 0.8926 0.8929
2574.000000 0.8932 0.8934 0.8936 0.8939 0.8943
2569.000000 0.8949 0.8954 0.8959 0.8965 0.8970
2564.000000 0.8975 0.8981 0.8986 0.8991 0.8996
2559.000000 0.8999 0.9002 0.9004 0.9006 0.9008
2554.000000 0.9012 0.9014 0.9016 0.9017 0.9019
2549.000000 0.9019 0.9019 0.9019 0.9019 0.9019
2544.000000 0.9019 0.9018 0.9018 0.9018 0.9018
2539.000000 0.9018 0.9018 0.9018 0.9018 0.9018
2534.000000 0.9018 0.9017 0.9017 0.9017 0.9018
2529.000000 0.9018 0.9019 0.9020 0.9021 0.9021
2524.000000 0.9022 0.9022 0.9023 0.9023 0.9024
2519.000000 0.9024 0.9025 0.9025 0.9025 0.9024
2514.000000 0.9024 0.9024 0.9024 0.9024 0.9024
2509.000000 0.9024 0.9024 0.9024 0.9024 0.9024
2504.000000 0.9024 0.9024 0.9024 0.9024 0.9024
2499.000000 0.9023 0.9023 0.9023 0.9024 0.9024
2494.000000 0.9024 0.9024 0.9024 0.9024 0.9025
2489.000000 0.9025 0.9025 0.9025 0.9025 0.9025
2484.000000 0.9025 0.9024 0.9024 0.9030 0.9034
2479.000000 0.9034 0.9035 0.9036 0.9037 0.9038
2474.000000 0.9039 0.9036 0.9034 0.9030 0.9027
2469.000000 0.9023 0.9019 0.9015 0.9012 0.9008
2464.000000 0.9005 0.9000 0.8997 0.8992 0.8989
2459.000000 0.8986 0.8979 0.8976 0.8974 0.8967
2454.000000 0.8966 0.8970 0.8973 0.8973 0.8966
2449.000000 0.8973 0.8977 0.8979 0.8981 0.8982
2444.000000 0.8984 0.8986 0.8988 0.8989 0.8991
2439.000000 0.8992 0.8994 0.8996 0.8998 0.8999
2434.000000 0.9002 0.9003 0.9004 0.9005 0.9006
2429.000000 0.9006 0.9007 0.9008 0.9009 0.9010
2424.000000 0.9011 0.9012 0.9013 0.9014 0.9015
2419.000000 0.9015 0.9016 0.9016 0.9017 0.9017
2414.000000 0.9018 0.9019 0.9019 0.9019 0.9018
2409.000000 0.9019 0.9020 0.9015 0.9019 0.9012
2404.000000 0.9006 0.8991 0.8978 0.8968 0.8959
2399.000000 0.8949 0.8939 0.8930 0.8921 0.8911
2394.000000 0.8902 0.8893 0.8883 0.8874 0.8866
2389.000000 0.8870 0.8865 0.8860 0.8855 0.8852
2384.000000 0.8856 0.8850 0.8849 0.8851 0.8846
2379.000000 0.8845 0.8847 0.8851 0.8856 0.8866
2374.000000 0.8880 0.8894 0.8903 0.8917 0.8930
2369.000000 0.8932 0.8940 0.8941 0.8941 0.8940
2364.000000 0.8935 0.8929 0.8924 0.8919 0.8923
2359.000000 0.8919 0.8922 0.8919 0.8925 0.8931
2354.000000 0.8929 0.8937 0.8944 0.8946 0.8948
2349.000000 0.8955 0.8969 0.8987 0.8999 0.9007
2344.000000 0.9008 0.9011 0.9017 0.9022 0.9029
2339.000000 0.9018 0.9024 0.9022 0.9011 0.9007
2334.000000 0.9015 0.9012 0.9010 0.9004 0.9005
2329.000000 0.8991 0.8981 0.8962 0.8946 0.8926
2324.000000 0.8909 0.8881 0.8855 0.8830 0.8806
2319.000000 0.8778 0.8751 0.8702 0.8650 0.8619
2314.000000 0.8587 0.8571 0.8554 0.8554 0.8554
2309.000000 0.8553 0.8523 0.8551 0.8550 0.8554
2304.000000 0.8558 0.8633 0.8709 0.8746 0.8782
2299.000000 0.8816 0.8853 0.8869 0.8885 0.8895
2294.000000 0.8906 0.8915 0.8926 0.8932 0.8938
2289.000000 0.8943 0.8943 0.8945 0.8950 0.8956
2284.000000 0.8961 0.8958 0.8963 0.8962 0.8962
2279.000000 0.8962 0.8955 0.8964 0.8973 0.8977
2274.000000 0.8988 0.9001 0.9011 0.9012 0.9020
2269.000000 0.9019 0.9020 0.9021 0.9023 0.9018
2264.000000 0.9016 0.9017 0.9019 0.9012 0.9011
2259.000000 0.9011 0.9002 0.9001 0.9000 0.8995
2254.000000 0.8982 0.8971 0.8961 0.8950 0.8931
2249.000000 0.8920 0.8908 0.8896 0.8883 0.8867
2244.000000 0.8847 0.8834 0.8823 0.8819 0.8815
2239.000000 0.8814 0.8814 0.8812 0.8812 0.8806
2234.000000 0.8803 0.8802 0.8789 0.8819 0.8837
2229.000000 0.8852 0.8869 0.8883 0.8896 0.8910
2224.000000 0.8924 0.8935 0.8943 0.8943 0.8953
2219.000000 0.8961 0.8971 0.8977 0.8984 0.8990
2214.000000 0.8997 0.8999 0.9002 0.9004 0.9007
2209.000000 0.9009 0.9010 0.9010 0.9010 0.9010
2204.000000 0.9010 0.8999 0.8989 0.8978 0.8967
2199.000000 0.8955 0.8942 0.8929 0.8913 0.8892
2194.000000 0.8886 0.8873 0.8855 0.8852 0.8849
2189.000000 0.8846 0.8846 0.8846 0.8849 0.8859
2184.000000 0.8875 0.8893 0.8910 0.8927 0.8945
2179.000000 0.8956 0.8976 0.8986 0.8993 0.8999
2174.000000 0.9006 0.9012 0.9017 0.9022 0.9027
2169.000000 0.9028 0.9021 0.9022 0.9023 0.9025
2164.000000 0.9027 0.9028 0.9029 0.9029 0.9032
2159.000000 0.9032 0.9032 0.9032 0.9034 0.9034
2154.000000 0.9035 0.9036 0.9036 0.9036 0.9038
2149.000000 0.9039 0.9039 0.9041 0.9043 0.9043
2144.000000 0.9043 0.9042 0.9042 0.9041 0.9041
2139.000000 0.9041 0.9041 0.9039 0.9039 0.9039
2134.000000 0.9039 0.9036 0.9031 0.9016 0.9001
2129.000000 0.8977 0.8952 0.8910 0.8869 0.8756
2124.000000 0.8643 0.8537 0.8425 0.8326 0.8223
2119.000000 0.8117 0.8012 0.7919 0.7827 0.7829
2114.000000 0.7856 0.7836 0.7840 0.7949 0.8060
2109.000000 0.8217 0.8376 0.8513 0.8653 0.8683
2104.000000 0.8713 0.8740 0.8767 0.8791 0.8816
2099.000000 0.8831 0.8842 0.8856 0.8880 0.8894
2094.000000 0.8899 0.8914 0.8923 0.8932 0.8940
2089.000000 0.8944 0.8949 0.8952 0.8955 0.8958
2084.000000 0.8961 0.8964 0.8967 0.8969 0.8972
2079.000000 0.8974 0.8976 0.8978 0.8979 0.8981
2074.000000 0.8982 0.8982 0.8982 0.8981 0.8981
2069.000000 0.8981 0.8981 0.8976 0.8974 0.8969
2064.000000 0.8965 0.8954 0.8945 0.8934 0.8926
2059.000000 0.8916 0.8907 0.8898 0.8896 0.8872
2054.000000 0.8847 0.8817 0.8781 0.8709 0.8641
2049.000000 0.8502 0.8362 0.8228 0.8095 0.7982
2044.000000 0.7869 0.7869 0.7869 0.7870 0.7889
2039.000000 0.7878 0.7888 0.7915 0.7941 0.8009
2034.000000 0.8075 0.8129 0.8181 0.8214 0.8245
2029.000000 0.8278 0.8313 0.8360 0.8402 0.8448
2024.000000 0.8497 0.8535 0.8574 0.8625 0.8676
2019.000000 0.8698 0.8720 0.8741 0.8762 0.8784
2014.000000 0.8807 0.8829 0.8850 0.8866 0.8882
2009.000000 0.8894 0.8906 0.8919 0.8932 0.8944
2004.000000 0.8956 0.8966 0.8977 0.8992 0.9008
1999.000000 0.9024 0.9000 0.8973 0.8954 0.8933
1994.000000 0.8913 0.8892 0.8872 0.8852 0.8841
1989.000000 0.8845 0.8850 0.8855 0.8851 0.8854
1984.000000 0.8859 0.8862 0.8867 0.8871 0.8872
1979.000000 0.8873 0.8867 0.8868 0.8868 0.8867
1974.000000 0.8867 0.8866 0.8866 0.8866 0.8867
1969.000000 0.8868 0.8870 0.8889 0.8932 0.8987
1964.000000 0.9043 0.9104 0.9159 0.9131 0.9065
1959.000000 0.9024 0.8999 0.8979 0.8971 0.8964
1954.000000 0.8947 0.8940 0.8936 0.8933 0.8929
1949.000000 0.8918 0.8915 0.8911 0.8903 0.8903
1944.000000 0.8901 0.8904 0.8910 0.8915 0.8919
1939.000000 0.8923 0.8922 0.8921 0.8920 0.8918
1934.000000 0.8917 0.8916 0.8915 0.8914 0.8913
1929.000000 0.8911 0.8910 0.8908 0.8901 0.8894
1924.000000 0.8887 0.8880 0.8868 0.8855 0.8842
1919.000000 0.8837 0.8837 0.8841 0.8845 0.8850
1914.000000 0.8853 0.8858 0.8861 0.8862 0.8863
1909.000000 0.8864 0.8865 0.8873 0.8877 0.8878
1904.000000 0.8879 0.8880 0.8881 0.8882 0.8883
1899.000000 0.8884 0.8885 0.8886 0.8887 0.8888
1894.000000 0.8889 0.8890 0.8891 0.8889 0.8882
1889.000000 0.8882 0.8881 0.8880 0.8880 0.8879
1884.000000 0.8885 0.8888 0.8887 0.8885 0.8883
1879.000000 0.8880 0.8878 0.8876 0.8874 0.8881
1874.000000 0.8879 0.8875 0.8871 0.8867 0.8864
1869.000000 0.8860 0.8853 0.8843 0.8834 0.8824
1864.000000 0.8814 0.8805 0.8797 0.8788 0.8779
1859.000000 0.8770 0.8760 0.8750 0.8732 0.8712
1854.000000 0.8697 0.8684 0.8671 0.8656 0.8643
1849.000000 0.8629 0.8617 0.8605 0.8600 0.8596
1844.000000 0.8592 0.8594 0.8596 0.8601 0.8609
1839.000000 0.8619 0.8628 0.8637 0.8643 0.8654
1834.000000 0.8669 0.8686 0.8702 0.8718 0.8729
1829.000000 0.8740 0.8748 0.8758 0.8765 0.8770
1824.000000 0.8775 0.8780 0.8785 0.8790 0.8794
1819.000000 0.8809 0.8814 0.8819 0.8823 0.8827
1814.000000 0.8832 0.8836 0.8840 0.8843 0.8847
1809.000000 0.8848 0.8842 0.8840 0.8837 0.8835
1804.000000 0.8828 0.8822 0.8820 0.8818 0.8815
1799.000000 0.8813 0.8811 0.8809 0.8807 0.8805
1794.000000 0.8797 0.8792 0.8788 0.8782 0.8778
1789.000000 0.8773 0.8769 0.8759 0.8745 0.8732
1784.000000 0.8718 0.8706 0.8697 0.8689 0.8686
1779.000000 0.8682 0.8677 0.8672 0.8668 0.8671
1774.000000 0.8676 0.8682 0.8687 0.8695 0.8704
1769.000000 0.8712 0.8720 0.8726 0.8730 0.8735
1764.000000 0.8762 0.8744 0.8749 0.8751 0.8753
1759.000000 0.8757 0.8766 0.8767 0.8766 0.8763
1754.000000 0.8761 0.8760 0.8758 0.8756 0.8756
1749.000000 0.8757 0.8757 0.8758 0.8758 0.8759
1744.000000 0.8760 0.8761 0.8762 0.8762 0.8764
1739.000000 0.8765 0.8766 0.8768 0.8769 0.8770
1734.000000 0.8770 0.8772 0.8773 0.8774 0.8776
1729.000000 0.8777 0.8778 0.8779 0.8781 0.8782
1724.000000 0.8783 0.8785 0.8786 0.8787 0.8787
1719.000000 0.8789 0.8790 0.8791 0.8792 0.8794
1714.000000 0.8795 0.8796 0.8798 0.8798 0.8800
1709.000000 0.8801 0.8802 0.8804 0.8805 0.8806
1704.000000 0.8807 0.8807 0.8809 0.8811 0.8811
1699.000000 0.8813 0.8815 0.8816 0.8816 0.8817
1694.000000 0.8819 0.8821 0.8822 0.8825 0.8826
1689.000000 0.8828 0.8830 0.8832 0.8834 0.8835
1684.000000 0.8837 0.8837 0.8834 0.8831 0.8829
1679.000000 0.8827 0.8824 0.8821 0.8819 0.8816
1674.000000 0.8812 0.8811 0.8815 0.8811 0.8807
1669.000000 0.8802 0.8797 0.8793 0.8789 0.8784
1664.000000 0.8781 0.8771 0.8759 0.8741 0.8728
1659.000000 0.8699 0.8676 0.8664 0.8637 0.8611
1654.000000 0.8595 0.8577 0.8565 0.8569 0.8564
1649.000000 0.8559 0.8556 0.8554 0.8557 0.8563
1644.000000 0.8577 0.8590 0.8600 0.8606 0.8610
1639.000000 0.8611 0.8610 0.8607 0.8607 0.8604
1634.000000 0.8597 0.8599 0.8593 0.8596 0.8589
1629.000000 0.8591 0.8582 0.8582 0.8574 0.8563
1624.000000 0.8571 0.8573 0.8585 0.8581 0.8564
1619.000000 0.8553 0.8545 0.8535 0.8531 0.8529
1614.000000 0.8512 0.8489 0.8470 0.8455 0.8389
1609.000000 0.8329 0.8267 0.8215 0.8180 0.8127
1604.000000 0.8109 0.8083 0.8070 0.8032 0.8024
1599.000000 0.7974 0.7932 0.7892 0.7864 0.7824
1594.000000 0.7786 0.7728 0.7682 0.7643 0.7585
1589.000000 0.7517 0.7377 0.7355 0.7365 0.7368
1584.000000 0.7376 0.7392 0.7387 0.7387 0.7375
1579.000000 0.7362 0.7341 0.7331 0.7303 0.7284
1574.000000 0.7264 0.7226 0.7198 0.7189 0.7164
1569.000000 0.7150 0.7099 0.7064 0.7019 0.6982
1564.000000 0.6949 0.6916 0.6875 0.6812 0.6769
1559.000000 0.6746 0.6721 0.6588 0.6591 0.6600
1554.000000 0.6589 0.6624 0.6684 0.6730 0.6765
1549.000000 0.6771 0.6763 0.6750 0.6773 0.6813
1544.000000 0.6885 0.7008 0.7101 0.7177 0.7250
1539.000000 0.7311 0.7372 0.7459 0.7594 0.7680
1534.000000 0.7713 0.7707 0.7704 0.7702 0.7697
1529.000000 0.7702 0.7701 0.7693 0.7691 0.7692
1524.000000 0.7702 0.7703 0.7709 0.7708 0.7715
1519.000000 0.7721 0.7719 0.7718 0.7716 0.7710
1514.000000 0.7710 0.7715 0.7724 0.7725 0.7738
1509.000000 0.7754 0.7763 0.7762 0.7761 0.7758
1504.000000 0.7753 0.7747 0.7735 0.7725 0.7715
1499.000000 0.7703 0.7689 0.7685 0.7680 0.7670
1494.000000 0.7654 0.7636 0.7619 0.7601 0.7580
1489.000000 0.7559 0.7520 0.7480 0.7430 0.7380
1484.000000 0.7294 0.7196 0.7098 0.6995 0.6818
1479.000000 0.6634 0.6439 0.6058 0.5687 0.5318
1474.000000 0.4950 0.4589 0.4230 0.3868 0.3509
1469.000000 0.3150 0.2973 0.3002 0.3007 0.3017
1464.000000 0.3029 0.3081 0.3329 0.3580 0.3833
1459.000000 0.4082 0.4331 0.4400 0.4407 0.4408
1454.000000 0.4287 0.4140 0.3990 0.3865 0.3859
1449.000000 0.3921 0.4224 0.4521 0.4821 0.5121
1444.000000 0.5422 0.5722 0.5996 0.6014 0.6023
1439.000000 0.6037 0.6071 0.6190 0.6495 0.6800
1434.000000 0.7105 0.7360 0.7493 0.7601 0.7689
1429.000000 0.7778 0.7864 0.7926 0.7987 0.8044
1424.000000 0.8079 0.8106 0.8131 0.8156 0.8177
1419.000000 0.8191 0.8206 0.8219 0.8222 0.8231
1414.000000 0.8242 0.8249 0.8256 0.8263 0.8266
1409.000000 0.8270 0.8273 0.8274 0.8275 0.8275
1404.000000 0.8275 0.8272 0.8269 0.8268 0.8265
1399.000000 0.8262 0.8264 0.8265 0.8260 0.8256
1394.000000 0.8252 0.8245 0.8232 0.8221 0.8213
1389.000000 0.8204 0.8191 0.8197 0.8206 0.8214
1384.000000 0.8204 0.8176 0.8150 0.8126 0.8109
1379.000000 0.8095 0.8087 0.8080 0.8073 0.8063
1374.000000 0.8059 0.8055 0.8051 0.8047 0.8043
1369.000000 0.8041 0.8039 0.8038 0.8035 0.8033
1364.000000 0.8032 0.8028 0.8022 0.8015 0.8008
1359.000000 0.8002 0.7994 0.7987 0.7969 0.7962
1354.000000 0.7952 0.7940 0.7929 0.7918 0.7904
1349.000000 0.7882 0.7861 0.7835 0.7804 0.7769
1344.000000 0.7730 0.7677 0.7616 0.7550 0.7482
1339.000000 0.7360 0.7230 0.7117 0.7010 0.6893
1334.000000 0.6728 0.6314 0.6110 0.5930 0.5432
1329.000000 0.5279 0.4720 0.4158 0.3596 0.3032
1324.000000 0.2471 0.1910 0.1348 0.0787 0.0705
1319.000000 0.0731 0.0710 0.1215 0.1740 0.2266
1314.000000 0.2792 0.3317 0.3843 0.4368 0.4913
1309.000000 0.5309 0.5471 0.5638 0.5890 0.6055
1304.000000 0.6166 0.6265 0.6326 0.6378 0.6422
1299.000000 0.6451 0.6482 0.6505 0.6516 0.6529
1294.000000 0.6561 0.6540 0.6540 0.6531 0.6514
1289.000000 0.6492 0.6340 0.6093 0.5848 0.5602
1284.000000 0.5357 0.5112 0.4866 0.4620 0.4374
1279.000000 0.4292 0.4278 0.4294 0.4490 0.4772
1274.000000 0.5055 0.5338 0.5621 0.5904 0.6116
1269.000000 0.6269 0.6392 0.6498 0.6593 0.6664
1264.000000 0.6740 0.6807 0.6866 0.6917 0.6951
1259.000000 0.6984 0.7009 0.7035 0.7059 0.7080
1254.000000 0.7099 0.7113 0.7126 0.7142 0.7149
1249.000000 0.7156 0.7160 0.7183 0.7159 0.7156
1244.000000 0.7148 0.7145 0.7142 0.7131 0.7120
1239.000000 0.7110 0.7094 0.7074 0.7052 0.7022
1234.000000 0.6990 0.6957 0.6908 0.6854 0.6799
1229.000000 0.6739 0.6680 0.6620 0.6555 0.6467
1224.000000 0.6378 0.6278 0.6168 0.6050 0.5889
1219.000000 0.5694 0.5500 0.5360 0.5221 0.5061
1214.000000 0.4898 0.4732 0.4542 0.4335 0.4092
1209.000000 0.3433 0.3201 0.2866 0.2530 0.2194
1204.000000 0.1859 0.1523 0.1187 0.0852 0.0516
1199.000000 0.0206 0.0115 0.0096 0.0076 0.0063
1194.000000 0.0059 0.0059 0.0062 0.0077 0.0119
1189.000000 0.0192 0.0302 0.0459 0.0590 0.0745
1184.000000 0.1046 0.1416 0.1785 0.2154 0.2526
1179.000000 0.2897 0.3270 0.3642 0.4013 0.4369
1174.000000 0.4510 0.4632 0.4787 0.4906 0.4944
1169.000000 0.4957 0.4967 0.4973 0.4974 0.4953
1164.000000 0.4783 0.4641 0.4500 0.4359 0.4218
1159.000000 0.4077 0.4043 0.4051 0.4079 0.4139
1154.000000 0.4200 0.4259 0.4319 0.4375 0.4411
1149.000000 0.4416 0.4329 0.4083 0.3838 0.3594
1144.000000 0.3347 0.3101 0.2859 0.2615 0.2371
1139.000000 0.2129 0.1885 0.1642 0.1397 0.1153
1134.000000 0.0907 0.0661 0.0437 0.0336 0.0213
1129.000000 0.0144 0.0101 0.0076 0.0059 0.0050
1124.000000 0.0043 0.0024 0.0045 0.0049 0.0054
1119.000000 0.0062 0.0071 0.0103 0.0147 0.0213
1114.000000 0.0312 0.0417 0.0511 0.0615 0.0755
1109.000000 0.0873 0.0988 0.1435 0.1786 0.2138
1104.000000 0.2490 0.2842 0.3195 0.3547 0.3899
1099.000000 0.4250 0.4507 0.4595 0.4691 0.4812
1094.000000 0.4987 0.5338 0.5551 0.5688 0.5880
1089.000000 0.6072 0.6221 0.6378 0.6516 0.6605
1084.000000 0.6693 0.6782 0.6871 0.6954 0.7023
1079.000000 0.7083 0.7141 0.7195 0.7248 0.7305
1074.000000 0.7348 0.7394 0.7440 0.7481 0.7525
1069.000000 0.7559 0.7591 0.7624 0.7656 0.7689
1064.000000 0.7720 0.7751 0.7789 0.7821 0.7849
1059.000000 0.7868 0.7900 0.7923 0.7929 0.7924
1054.000000 0.7920 0.7916 0.7910 0.7894 0.7881
1049.000000 0.7860 0.7846 0.7834 0.7833 0.7833
1044.000000 0.7836 0.7852 0.7878 0.7910 0.7943
1039.000000 0.7977 0.8010 0.8035 0.8053 0.8069
1034.000000 0.8086 0.8098 0.8108 0.8117 0.8118
1029.000000 0.8121 0.8120 0.8120 0.8113 0.8101
1024.000000 0.8094 0.8085 0.8073 0.8055 0.8037
1019.000000 0.8011 0.7981 0.7952 0.7908 0.7848
1014.000000 0.7789 0.7708 0.7623 0.7490 0.7352
1009.000000 0.7176 0.7032 0.6935 0.6838 0.6684
1004.000000 0.6509 0.6161 0.5687 0.4727 0.3342
999.000000 0.1956 0.1594 0.1601 0.1658 0.2256
994.000000 0.2854 0.3454 0.4054 0.4655 0.5254
989.000000 0.5853 0.6452 0.6635 0.6754 0.7033
984.000000 0.7233 0.7373 0.7479 0.7594 0.7686
979.000000 0.7753 0.7797 0.7832 0.7863 0.7884
974.000000 0.7903 0.7919 0.7930 0.7952 0.7968
969.000000 0.7970 0.7975 0.7979 0.7981 0.7982
964.000000 0.7975 0.7976 0.7969 0.7962 0.7945
959.000000 0.7929 0.7903 0.7872 0.7836 0.7792
954.000000 0.7747 0.7695 0.7641 0.7583 0.7521
949.000000 0.7459 0.7396 0.7326 0.7252 0.7176
944.000000 0.7101 0.6998 0.6874 0.6737 0.6600
939.000000 0.6207 0.5868 0.5702 0.5460 0.4986
934.000000 0.4343 0.3698 0.3056 0.2413 0.1769
929.000000 0.1125 0.0482 0.0382 0.0310 0.0292
924.000000 0.0275 0.0310 0.0361 0.0456 0.0676
919.000000 0.1160 0.1647 0.2130 0.2618 0.3102
914.000000 0.3588 0.4073 0.4559 0.5049 0.5535
909.000000 0.6020 0.6325 0.6433 0.6573 0.6738
904.000000 0.6883 0.7025 0.7134 0.7235 0.7336
899.000000 0.7430 0.7534 0.7616 0.7673 0.7729
894.000000 0.7773 0.7812 0.7857 0.7943 0.7946
889.000000 0.7966 0.7991 0.8011 0.8028 0.8040
884.000000 0.8052 0.8058 0.8057 0.8063 0.8066
879.000000 0.8064 0.8062 0.8057 0.8055 0.8050
874.000000 0.8047 0.8039 0.8030 0.8022 0.8012
869.000000 0.8006 0.7998 0.7998 0.7989 0.7983
864.000000 0.7990 0.8006 0.8012 0.8023 0.8043
859.000000 0.8058 0.8074 0.8100 0.8122 0.8162
854.000000 0.8211 0.8285 0.8344 0.8389 0.8431
849.000000 0.8469 0.8510 0.8546 0.8571 0.8604
844.000000 0.8616 0.8606 0.8595 0.8586 0.8586
839.000000 0.8595 0.8598 0.8617 0.8628 0.8635
834.000000 0.8647 0.8655 0.8667 0.8672 0.8683
829.000000 0.8688 0.8683 0.8682 0.8677 0.8673
824.000000 0.8671 0.8669 0.8668 0.8655 0.8644
819.000000 0.8636 0.8628 0.8618 0.8618 0.8608
814.000000 0.8598 0.8588 0.8586 0.8581 0.8569
809.000000 0.8563 0.8549 0.8532 0.8525 0.8519
804.000000 0.8506 0.8502 0.8494 0.8491 0.8499
799.000000 0.8506 0.8514 0.8522 0.8532 0.8541
794.000000 0.8543 0.8550 0.8560 0.8578 0.8581
789.000000 0.8591 0.8606 0.8611 0.8621 0.8631
784.000000 0.8636 0.8632 0.8630 0.8633 0.8632
779.000000 0.8638 0.8638 0.8635 0.8638 0.8641
774.000000 0.8645 0.8643 0.8642 0.8641 0.8640
769.000000 0.8632 0.8628 0.8627 0.8626 0.8617
764.000000 0.8614 0.8612 0.8610 0.8607 0.8604
759.000000 0.8600 0.8597 0.8594 0.8590 0.8587
754.000000 0.8585 0.8588 0.8584 0.8580 0.8575
749.000000 0.8571 0.8567 0.8563 0.8559 0.8555
744.000000 0.8550 0.8546 0.8540 0.8533 0.8525
739.000000 0.8519 0.8512 0.8505 0.8497 0.8490
734.000000 0.8483 0.8476 0.8468 0.8462 0.8463
729.000000 0.8455 0.8435 0.8414 0.8396 0.8384
724.000000 0.8364 0.8347 0.8333 0.8305 0.8267
719.000000 0.8223 0.8179 0.8143 0.8101 0.8060
714.000000 0.8016 0.7966 0.7916 0.7864 0.7813
709.000000 0.7701 0.7586 0.7470 0.7401 0.7331
704.000000 0.7262 0.7201 0.7115 0.7020 0.6932
699.000000 0.6831 0.6663 0.6497 0.6411 0.6335
694.000000 0.6261 0.6190 0.6128 0.6066 0.5985
689.000000 0.5898 0.5816 0.5731 0.5643 0.5330
684.000000 0.4500 0.4371 0.4234 0.4083 0.3935
679.000000 0.3414 0.3096 0.2773 0.2452 0.2127
674.000000 0.1798 0.1470 0.1142 0.0603 0.0465
669.000000 0.0381 0.0304 0.0242 0.0190 0.0148
664.000000 0.0109 0.0083 0.0074 0.0064 0.0058
659.000000 0.0053 0.0049 0.0046 0.0012 0.0039
654.000000 0.0041 0.0042 0.0054 0.0066 0.0081
649.000000 0.0097 0.0126 0.0161 0.0209 0.0257
644.000000 0.0343 0.0475 0.0609 0.0739 0.0932
639.000000 0.1287 0.1486 0.1652 0.1755 0.1857
634.000000 0.1966 0.2103 0.2348 0.2757 0.2939
629.000000 0.3275 0.3622 0.3899 0.4172 0.4449
624.000000 0.4726 0.4955 0.5132 0.5454 0.5647
619.000000 0.5774 0.5905 0.6038 0.6181 0.6329
614.000000 0.6441 0.6536 0.6633 0.6733 0.6809
609.000000 0.6887 0.6963 0.7035 0.7111 0.7187
604.000000 0.7248 0.7307 0.7367 0.7426 0.7486
599.000000 0.7539 0.7585 0.7632 0.7678 0.7725
594.000000 0.7771 0.7816 0.7860 0.7902 0.7943
589.000000 0.7985 0.8024 0.8061 0.8098 0.8136
584.000000 0.8170 0.8207 0.8245 0.8281 0.8312
579.000000 0.8343 0.8375 0.8398 0.8426 0.8458
574.000000 0.8497 0.8527 0.8554 0.8582 0.8608
569.000000 0.8634 0.8661 0.8679 0.8701 0.8724
564.000000 0.8737 0.8745 0.8760 0.8772 0.8781
559.000000 0.8788 0.8798 0.8807 0.8815 0.8819
554.000000 0.8821 0.8832 0.8833 0.8843 0.8852
549.000000 0.8859 0.8865 0.8871 0.8876 0.8884
544.000000 0.8886 0.8886 0.8888 0.8890 0.8891
539.000000 0.8894 0.8905 0.8908 0.8916 0.8914
534.000000 0.8911 0.8919 0.8919 0.8918 0.8916
529.000000 0.8913 0.8911 0.8924 0.8911 0.8912
524.000000 0.8909 0.8904 0.8897 0.8890 0.8883
519.000000 0.8877 0.8869 0.8862 0.8855 0.8848
514.000000 0.8841 0.8835 0.8827 0.8821 0.8814
509.000000 0.8808 0.8800 0.8792 0.8787 0.8776
504.000000 0.8764 0.8753 0.8741 0.8729 0.8717
499.000000 0.8706 0.8693 0.8682 0.8671 0.8659
494.000000 0.8648 0.8638 0.8626 0.8615 0.8603
489.000000 0.8592 0.8580 0.8567 0.8555 0.8542
484.000000 0.8524 0.8506 0.8487 0.8460 0.8431
479.000000 0.8393 0.8328 0.8274 0.8249 0.8222
474.000000 0.8196 0.8164 0.8129 0.8094 0.8057
469.000000 0.8026 0.7994 0.7952 0.7904 0.7854
464.000000 0.7801 0.7745 0.7688 0.7554 0.7432
459.000000 0.7332 0.7278 0.7229 0.7194 0.7162
454.000000 0.7128 0.7099 0.7069 0.7042
##END=
