##TITLE=1,2-Dichloroethane
##JCAMP-DX=4.24
##DATA TYPE=INFRARED SPECTRUM
##CLASS=IUPAC A
##ORIGIN=NIST, Analytical Chemistry Division, 301-975-3108
##OWNER=COPYRIGHT (C) 2001 by the U.S. Secretary of Commerce
##DATE=01/06/01
##$SPECTRA VERSION=1.10
##$UNCERTAINTY IN Y=2.1 % relative (B=1.10E-04,C=7.45E-10,D=1.46E-14)
##CAS NAME=1,2-Dichloroethane
##CAS REGISTRY NO=107-06-2
##MOLFORM=Cl C H2 C H2 Cl
##MP=-35.36 C
##BP=83.47 C
##$NIST SOURCE=QUANT-IR
##SPECTROMETER/DATA SYSTEM=IFS66V (Bruker)
##INSTRUMENT PARAMETERS=KBr Beam Splitter; MCT Detector; Multipass cell
##STATE=gas
##SAMPLE DESCRIPTION=1,2-Dichloroethane Primary Gas Standard
##PRESSURE=101.3 Pa
##TEMPERATURE=23 C
##SAMPLING PROCEDURE=1 L/min Flow
##RESOLUTION=1.9290
##DATA PROCESSING=NB Strong Apodization
##XUNITS=cm-1
##YUNITS=(micromol/mol)-1m-1 (base 10)
##XFACTOR=1.0
##YFACTOR=9.0949E-13
##DELTAX=0.9645
##FIRSTX=575.652
##LASTX=3974.605
##FIRSTY=5.15E-07
##MAXX=3973.64
##MINX=575.65
##MAXY=.0005708
##MINY=-9.27E-07
##NPOINTS=3526
##XYDATA=(X++(Y..Y))
575.65 566604 1006500 995145 976298 1042610 640524
580.47 300149 391584 659445 587742 370018 511682
586.26 420279 343025 143917 196120 480059 632004
592.04 606818 285188 134586 17577 105238 79000
597.83 98690 113503-71904-58754-152625-206760
603.62 4092 31759 36809 54194-55619-280356
609.40-171734 98205-95568-177394 166128 171361
615.19 99026 95434-10093-58150-34627-159283
620.97-131278 30528 248094 257446 125527 229347
626.76 468113 532305 479275 553676 631824 683557
632.54 834104 796417 838718 1059305 1305017 1366885
638.33 1607365 1981300 2192292 2550516 2954331 3285109
644.11 3666048 4022478 4544109 5028917 5771850 6498263
649.90 7246239 8045261 8863202 9547923 10386112 11359672
655.68 12545049 13582401 14573553 15492119 16309133 16801572
661.47 17234435 17349478 17221916 16651653 15888774 14712634
667.25 14515876 15440648 16544866 17941956 20037123 22083892
673.04 23886200 24845865 25229396 25793682 27006480 28186488
678.83 29665953 31437960 33826048 36518821 39475368 41954798
684.61 43938173 44468022 44216738 43087499 41102529 38915495
690.40 41561575 41158730 44084171 45495735 36495751 33605315
696.18 36466723 41130039 44254418 45776244 45268145 44190958
701.97 42996136 42890847 44132292 47831190 53952415 63345411
707.75 76006349 92588973 112963720 137980184 167948092 202825779
713.54 242480566 287232182 335657431 387432220 439787724 489338723
719.32 533073198 569422784 594705396 607077937 607755992 599376893
725.11 587914709 575405471 574606828 579268170 592047059 622673621
730.89 627603410 618726032 599042856 542288870 453808074 349978816
736.68 247983329 159970127 93379882 49113536 24076303 12250689
742.47 8197100 7205612 7047837 6916208 6922498 6919425
748.25 6948944 6947485 7020709 7069077 7147868 7175621
754.04 7335197 7441279 7557038 7573494 7565159 7615116
759.82 7607241 7547456 7727914 7889881 7980455 8064712
765.61 8088466 7738417 7562685 7613317 8084904 8914829
771.39 9174931 7994967 7021109 6708352 6476288 6244661
777.18 5963978 5753069 5701991 5664550 5474704 5308212
782.96 5216849 5259393 5208279 5031549 4745425 4550598
788.75 4411963 4215826 4045322 3879960 3691769 3575825
794.53 3509993 3380883 3186673 2951209 2842067 2790432
800.32 2543260 2401523 2361001 2286796 2156490 2109441
806.11 2050495 1982712 1926015 1876752 1820671 1842159
811.89 1735728 1601153 1577282 1607965 1608938 1643626
817.68 1694469 1696852 1704363 1836471 1975478 1988301
823.46 1983641 2019326 2185541 2294605 2372465 2374863
829.25 2378688 2402089 2400141 2279582 2186294 2110147
835.03 2089530 2028629 1946672 1860278 1844068 1909456
840.82 1903848 1760404 1501672 1292739 1192553 1084183
846.60 882467 739218 694182 658715 683421 648808
852.39 629722 639402 733233 799612 889107 852711
858.17 744435 825622 956222 1019366 1186001 1282711
863.96 1341796 1499359 1789990 2074615 2268438 2479701
869.75 2807795 3302567 3933123 4696545 5706895 7054245
875.53 8733389 10650616 12746677 14893659 17295832 19677529
881.32 21804034 23411250 24679535 24841769 23550760 22316137
887.10 22817228 25045082 26789628 23930308 19307161 18139812
892.89 19469326 21536946 23080332 23564473 22882767 21366756
898.67 19250226 16819981 14339342 12012653 9824052 7966970
904.46 6527598 5433229 4519965 3767086 3200162 2905748
910.24 2684037 2464560 2279067 2122715 2023219 2032752
916.03 1952632 1946208 2036922 2177391 2268876 2373944
921.81 2625462 2888298 3072943 3326850 3705475 4124802
927.60 4561504 5021896 5432810 5887529 6400542 6981915
933.39 7529972 8052434 8561457 9042820 9493658 9889492
939.17 10117322 10218998 10208278 10044558 9728621 9316602
944.96 8833559 8364368 8269083 8589180 9297120 10129978
950.74 10659460 10832233 10617157 10345641 10042276 9617478
956.53 9008199 8207515 7443147 6744463 6045566 5448429
962.31 4984021 4570184 4160269 3822420 3551346 3250192
968.10 2988720 2771490 2506991 2363232 2256462 2076783
973.88 1969809 1953752 1966360 2095185 2267312 2439428
979.67 2601804 2722786 2840496 2911125 3044707 3111739
985.45 3055923 3034374 3110745 3249816 3356312 3498423
991.24 3663462 3697155 3647109 3526898 3324950 3099904
997.03 2848365 2607723 2414277 2225625 1980281 1814763
1002.81 1772884 1749567 1759105 1756957 1765694 1848765
1008.60 1957279 2106169 2272246 2447374 2566312 2729542
1014.38 3047790 3374200 3584505 3794872 4000241 4168975
1020.17 4366796 4641421 4790713 4832919 4995014 5110388
1025.95 5180429 5101075 4959643 4737526 4476229 4184261
1031.74 3920703 3802488 3642459 3269188 2871498 2580876
1037.52 2255382 1940183 1710364 1571412 1430777 1291619
1043.31 1206384 1111185 976026 857236 810661 748030
1049.09 653232 622824 565545 438026 381334 351184
1054.88 299357 227393 210527 240993 270331 211005
1060.67 141237 84136 103286 109066 109944 113042
1066.45 80431 94067 115091 87332 101230 117190
1072.24 89695 82069 113013 153267 200656 271210
1078.02 314315 314581 358306 424075 469183 503697
1083.81 508513 559956 602806 619388 711627 803594
1089.59 911571 959545 942409 1044810 1228341 1252973
1095.38 1217078 1310653 1432651 1508362 1606366 1697054
1101.16 1752853 1830876 1923601 2035690 2119133 2194403
1106.95 2251544 2312104 2430130 2465473 2500465 2554242
1112.73 2622779 2658869 2649653 2632060 2672192 2773410
1118.52 2812757 2989517 3796729 4959275 4957591 4223931
1124.31 3540599 3196736 3080242 3128509 3142305 3194733
1130.09 3220829 3265252 3234353 3287094 3396386 3376590
1135.88 3291296 3284956 3261563 3194291 3061251 2989430
1141.66 3018388 2991044 3019142 3269473 3245697 2852060
1147.45 2757174 2761353 2737611 2582620 2478777 2360329
1153.23 2244530 2176630 2175633 2083523 2049333 2023135
1159.02 1935173 1768076 1661007 1564054 1506223 1400846
1164.80 1326297 1244015 1224148 1112961 1031307 979293
1170.59 957730 872122 879111 899044 955295 925109
1176.37 924686 848476 839463 884465 972159 998172
1182.16 1084482 1131425 1235401 1295473 1399740 1469250
1187.95 1592135 1718365 1950118 2136991 2335707 2482931
1193.73 2686327 2820614 3041863 3308629 3638593 3865977
1199.52 4175012 4484004 4837356 5128664 5460949 5876477
1205.30 6299150 6644902 7072690 7535673 8100088 8607823
1211.09 9385211 10251752 11611431 13304955 15887082 19229252
1216.87 24330557 31228188 40884823 53396046 69732336 89072245
1222.66 111544056 134782068 157177093 174532427 184522073 183505757
1228.44 170233469 148570852 139902568 138669507 135824804 147523656
1234.23 167041990 185900717 197177999 198406231 187355680 167497017
1240.01 141915694 115250707 89901941 68389699 50925487 37974061
1245.80 28477406 22094732 17630400 15003641 12945283 11913777
1251.59 10931276 10299602 9687538 9219922 8761038 8455579
1257.37 7959103 7622190 7282002 6995678 6662196 6470415
1263.16 6126976 5961967 5685160 5525151 5388072 5337724
1268.94 5275281 5467328 5698600 6230120 6921700 8066560
1274.73 9635821 11866179 14735092 18455770 22804567 27788297
1280.51 33061472 38380921 43035827 46501568 48060116 47728796
1286.30 44965015 40146666 35398383 37199774 52718398 60719301
1292.08 38793358 26943849 33593521 42860336 49879815 53198441
1297.87 52822375 49634579 44714938 39165296 33662376 28709195
1303.65 24505123 21210162 18593998 16678447 15194038 13984788
1309.44 12914938 11885855 10909212 10425981 10604908 11569734
1315.23 12880165 13949935 14382268 14323559 13799691 13057325
1321.01 12305996 11600209 10920406 10369771 9822809 9378359
1326.80 8937539 8527239 8050283 7601606 7167531 6752479
1332.58 6284374 5898766 5557545 5233281 4894402 4651263
1338.37 4374256 4244226 4089233 3953903 3780615 3695643
1344.15 3561070 3490186 3384095 3298519 3183789 3136388
1349.94 3007015 2905886 2906584 3085124 3177143 3250714
1355.72 3226799 3103438 2953803 2967255 2898075 2785456
1361.51 2672210 2640542 2520317 2438684 2419569 2429642
1367.29 2239638 2099014 1938136 1777597 1551792 1432837
1373.08 1399928 1457127 1392087 1443200 1416147 1387852
1378.87 1353455 1312663 1210052 1235197 1214150 1217070
1384.65 1136506 1023442 909501 1035534 1089713 1059632
1390.44 940204 966292 885358 802529 769925 873613
1396.22 884700 904866 873855 1028049 1115691 1168043
1402.01 1191184 1287421 1344763 1515967 1578045 1784810
1407.79 1969688 2229757 2367921 2652505 2902004 3193379
1413.58 3431160 3838684 4143790 4567684 4889927 5422601
1419.36 6187061 7135027 7960095 8976700 10017606 11452273
1425.15 12836018 14367482 15681220 17012345 17966024 18941858
1430.93 19381935 19631356 19756510 21286572 25552523 31919364
1436.72 27336501 21803360 23820537 25859201 27002521 27778595
1442.51 28362224 28554731 28703957 28637073 28627719 28952486
1448.29 30006980 31582805 33405425 35383697 37018136 38108632
1454.08 37724399 35768679 32158656 27988153 24348563 21984446
1459.86 21932094 26639008 32111872 35105230 35784660 34897909
1465.65 33068741 30113942 27279483 24192316 21733594 19343708
1471.43 17669912 16240062 15456055 14572529 13929211 13304344
1477.22 12881603 12265178 11804940 11180031 10677750 10094088
1483.00 9614209 9072267 8609405 7977479 7482381 6979538
1488.79 6489934 6022281 5720427 5331066 4941958 4497774
1494.57 3987389 3528828 3429831 3057790 2849839 2650981
1500.36 2420767 2166507 1989278 1690581 1268772 887422
1506.15 774498 926912 1110305 1079105 1031041 952985
1511.93 1048040 1147112 1241684 1331251 1469152 1679856
1517.72 1986276 2048983 1988998 1997683 2174861 2283729
1523.50 2295732 2259221 2480506 2658324 2856129 2965910
1529.29 3076751 3019373 2881017 2650477 2527091 2442653
1535.07 2290781 2092026 1758958 1204157 1041398 1040355
1540.86 933878 940553 975976 759075 724304 763673
1546.64 738688 600027 471233 412839 422264 350482
1552.43 236030 65953 186244 217102-29055-451665
1558.21-448545-343909 17263 207450 238727 215731
1564.00 184276 195350 241345 214050 123680 30296
1569.79 168442 236328 263524 235341 184006-176508
1575.57-250839 99406 263006 278857 262214 235225
1581.36 237987 234600 244093 204909 153388 118432
1587.14 107177 108893 106401 80647 92730 53795
1592.93 3208-21689 37712 27786-6288-23650
1598.71 10129-8497-3013-34676-52730-30424
1604.50-4033-25687-8254-19421-23986-2208
1610.28 30334 25990 88202 47912-24200-337628
1616.07-429873-103636 1640 1781 6167 21773
1621.85-79805-168327-46712-18635-91531-159546
1627.64-75287-18298-14337-34577-32765-75202
1633.43-292278-580516-391297-183926-125137-53531
1639.21-23476-24693-80898-75415-50146-222823
1645.00-409819-311859-211929-135501-74598-132137
1650.78-541943-1019819-834182-390095-159408-60703
1656.57-10966-5372-10689 12022 5407-125466
1662.35-112381 1992 41689 63949 79956 16326
1668.14-151949-42745 75820 127694 205814 169514
1673.92-23580-26049 176015 250465 259663 218369
1679.71 229122 216732 146270-85892-403614-187550
1685.49 206526 234606 239220 198006 183455 180768
1691.28 200126 198430 165097-256019-426110-16940
1697.07 127737-80159-492971-384313 5516 103593
1702.85 57910 21011 32381 29149 128728 150732
1708.64 146014 144641 192865 174391 118742 15048
1714.42 11046-56948-290564-173286 58220 148712
1720.21 165284 143793 139772 164444 193907 171426
1725.99 162424 149869 118182 51244 61567 40495
1731.78-170178-415238-369472-107670 20070 7401
1737.56-43031-196502-166879-30444-18954-45255
1743.35-20146-14170-30567-29945-57679-64006
1749.13-70741-207690-83993 77922 87232 57807
1754.92 19402-36340 12569 81344 113890 7991
1760.71-86708-23136 59022 83190 135884 107512
1766.49 12732-32479 46281 32301-54002-224582
1772.28-163087 50303 89522 95173 117183 87899
1778.06 79220 89217 81472 113096 157116 114642
1783.85 62572 89188 142539 134638 101167 84943
1789.63 36452-48743-139109-61128 18850 6466
1795.42 3843-29857-34121-89640-103883-105274
1801.20-78555-80912-77647-77454-31554-47274
1806.99-62786-74452-78171-69609-46761-74618
1812.77-65538-45379 37-27254-29472-34387
1818.56-20070 6691-3253 4854 35002-29085
1824.35-70210-15887-676-7677-54780-95908
1830.13-11848 29945 12371 25959 63886 34790
1835.92 18755 17639 20986-2818 8559 5468
1841.70-7598-122545-124718 19369 67851 64550
1847.49 96622 95110 79434 24303-21784-11968
1853.27 7923-1553-37810-35781 12998 30376
1859.06 45795 35371 34856 6653-30819-33796
1864.84-21202-43039-64433-91934-84529-24946
1870.63 770-31098-14869 4185 4846 42292
1876.41 56652 29990 16036 27676 16097-24445
1882.20-4370 5690 52978 49559 32003 45113
1887.99 23591 30038 88820 111580 113061 72293
1893.77 72343 99255 97522 77210 95737 124161
1899.56 153303 119127 80876 66404 72234 63400
1905.34 59698 50895 53644 45840 12024-16601
1911.13-20406 5626 9145-17238-23248-68990
1916.91-108571-65786-7100-17391-47988-90565
1922.70-91304-76693-86153-99250-53693-37096
1928.48-14882-34575-55750-67913-28229-36746
1934.27-50699-61759-51382-54611-41218-49127
1940.05-67108-89649-96453-96677-73401-58474
1945.84-41610-29411-39820-60999-50894-61302
1951.63-59782-61373-50179-84077-75696-68284
1957.41-67934-48821-39055-55972-61405-43879
1963.20-32930-49295-61532-61606-35822-5499
1968.98 6883 16261 14040-31345-14457 13106
1974.77 42832 26438-14660-8520 32696 31559
1980.55 41292 20408 37986 50545 15390-6484
1986.34 28976 40653 40770 64147 89941 72611
1992.12 81291 73189 64492 84755 97420 37180
1997.91 17210 32976 70208 98192 105088 87045
2003.69 120794 148080 160160 140205 133864 147376
2009.48 193355 228911 298240 340832 382373 412139
2015.27 495021 598632 715704 800629 892331 1037343
2021.05 1218428 1367248 1527389 1657116 1802190 1928436
2026.84 2026490 2059551 2146090 2196186 2236553 2268708
2032.62 2284825 2294488 2229741 2166398 2144953 2042616
2038.41 1907838 1756246 1640308 1493271 1329874 1138199
2044.19 959083 810862 693635 560932 447973 377926
2049.98 313741 295766 282325 243548 228507 203388
2055.76 212923 194590 160912 151707 160866 136639
2061.55 105692 95699 93968 93829 107061 91687
2067.33 60627 52990 44703 36889 57870 66742
2073.12 79749 68692 59655 36214 40063 42908
2078.91 55411 58130 54227 59420 68037 64934
2084.69 88969 87499 86406 83225 102695 129357
2090.48 141354 118681 151933 192293 201924 191498
2096.26 248025 290629 294318 288768 309694 309208
2102.05 354622 365996 373246 362703 369669 372423
2107.83 402708 410086 373220 380347 410413 438846
2113.62 462125 498819 482449 428287 422116 375312
2119.40 323537 299346 306751 307982 290939 273845
2125.19 262613 255119 260440 257160 289927 333432
2130.97 368716 311794 251634 202884 185338 180047
2136.76 181060 167394 194817 204789 167289 114017
2142.55 127189 154860 194520 162266 124856 133763
2148.33 128145 105048 105006 94527 88065 82155
2154.12 98796 91725 82968 72364 85066 81053
2159.90 93783 109874 114454 126175 161903 168906
2165.69 195378 196570 189674 201736 245582 300834
2171.47 331711 355133 373800 408228 472790 477407
2177.26 482629 509249 514763 517954 555318 572985
2183.04 632445 675395 744504 821320 865937 884425
2188.83 927807 939354 934037 929317 953381 972367
2194.61 1010985 1003439 1032231 1060842 1098112 1152656
2200.40 1253570 1293416 1341151 1367586 1408147 1426801
2206.19 1474585 1495878 1486222 1534012 1577789 1610091
2211.97 1679065 1678147 1678070 1747139 1804371 1889414
2217.76 2006045 2088571 2208373 2284525 1950053 1689414
2223.54 1649619 1634694 1628259 1670112 1714181 1713932
2229.33 1701297 1669649 1673141 1647196 1633600 1587385
2235.11 1530017 1474610 1424057 1364294 1324854 1238132
2240.90 1151211 1076186 1050520 1027220 1025877 969967
2246.68 929272 866342 816312 774016 784120 739809
2252.47 693066 618189 601235 548481 514048 480580
2258.25 424570 381743 363851 353011 376142 370039
2264.04 335037 297324 278748 252576 273716 266117
2269.83 243378 232346 236151 210049 226178 197689
2275.61 184737 180722 186976 232308 251672 209788
2281.40 178111 200393 217300 208661 218348 203329
2287.18 257876 278302 269389 229243 220402 210287
2292.97 212937 206109 207447 195743 201693 169973
2298.75 154851 135735 161034 188116 213811 163057
2304.54 170132 185162 203205 156385 147144 146764
2310.32 158138 195756 147804 174722 162267 177154
2316.11 117354 132173 75864 108453 11653 22613
2321.89-15639-10411-90582-55685 2833 5384
2327.68-155731-230406-307791-315042-386916-406745
2333.47-456102-439519-441449-403646-414360-438326
2339.25-421846-366066-359378-352548-304653-256216
2345.04-202400-75446 69810 159326 93240-41460
2350.82-158749-265518-376656-481279-583903-690653
2356.61-740365-788368-849086-878045-876585-900217
2362.39-874713-811214-736303-649849-573079-451535
2368.18-316077-229917-138116-8025 115528 221178
2373.96 368000 511956 668341 812669 921184 1016570
2379.75 1096246 1130493 1102066 1042912 1013666 980561
2385.53 955265 969063 1103247 1232032 1264513 1237285
2391.32 1227592 1143025 1047953 976525 913699 795687
2397.11 737121 708024 657894 622657 607725 603805
2402.89 647311 646663 631666 643147 614947 592071
2408.68 615582 643002 658938 643024 624972 625497
2414.46 639195 631963 590291 559903 589722 639030
2420.25 765224 900104 897830 783428 689464 656529
2426.03 630410 588050 628977 640858 638101 641387
2431.82 659872 660201 644053 647451 658210 649956
2437.60 647059 600127 622529 652693 634941 628077
2443.39 629998 600815 566817 506434 520317 528411
2449.17 538816 523064 521832 511837 502792 445242
2454.96 451637 540012 691145 752291 748088 731388
2460.75 720201 648944 605512 643478 673829 660908
2466.53 635875 596145 544666 541458 545894 505912
2472.32 475861 441547 436187 397453 366996 340554
2478.10 286159 237413 260903 269760 268870 253092
2483.89 277675 327853 362092 326532 335850 351484
2489.67 341865 355303 386658 372842 389516 442133
2495.46 497863 486553 486364 523829 555322 527391
2501.24 557019 613891 675940 684303 716148 769767
2507.03 802889 760634 726251 740209 751761 745445
2512.81 749478 757787 793999 819151 839823 852523
2518.60 880686 883964 869500 814437 745994 685486
2524.39 661445 661523 647930 570943 511384 511996
2530.17 562669 570025 626817 670340 627167 573790
2535.96 570085 567024 564605 498513 446246 446530
2541.74 453143 427308 414906 373320 366519 351560
2547.53 331926 337600 301476 240890 233588 244437
2553.31 212002 158269 146705 120356 83849 57812
2559.10 55601 33407-205-47519-53635-57379
2564.88-44534-78513-102059-136489-137752-81690
2570.67-22320-76781-88858-60243-39103-64916
2576.45-73209-94900-112108-145162-184266-176735
2582.24-194826-151825 45076 122575 48616-43224
2588.03-113987-148584-122949-140963-183208-203487
2593.81-154728-130403-130345-149391-148505-178381
2599.60-185303-163771-138348-117870-99858-135722
2605.38-116240-108817-157539-146249-81375-80129
2611.17-95763-124581-125777-116611-121702-135042
2616.95-46717-3505-68992-117563-98713-86464
2622.74-58605-66080-61533-46589-34021-41692
2628.52-42033-32330-27177-40854-29960-7916
2634.31-24858-45156-72686-69497-2287 43678
2640.09 30611 11306 21676 2122-22636-25208
2645.88-889 799 16082 31375 41041 52959
2651.66 39270 48403 43543-15523 2823-21474
2657.45-979 33740 63227 58755 17511 7544
2663.24 103666 142768 142122 161931 177725 163085
2669.02 235949 290013 321151 355925 423200 514476
2674.81 691700 866745 1010528 1126819 1329268 1502348
2680.59 1661327 1812325 1938370 2027221 1996254 1784073
2686.38 1642334 1587408 1519281 1534472 1713524 1873574
2692.16 1945915 1890721 1777048 1589026 1332810 1039994
2697.95 844818 640820 508786 410619 368621 332648
2703.73 295629 253773 281994 226098 206053 212222
2709.52 213091 174871 146545 137804 195845 198992
2715.30 177402 241534 360895 381738 449217 521599
2721.09 562585 561660 583235 540765 503586 468313
2726.88 441839 453665 639454 605391 464516 455140
2732.66 515686 554835 618733 605941 617220 628295
2738.45 625526 561653 554739 588530 556340 491446
2744.23 518034 579805 623053 645088 698140 739068
2750.02 836267 998967 1194304 1373754 1611220 1793667
2755.80 2094856 2391963 2573485 2691806 2744922 2635945
2761.59 2542108 2326227 2105596 2059102 1958960 2041057
2767.37 2395076 2640488 2718606 2607754 2317503 1867784
2773.16 1478332 1131717 850854 584322 452098 322128
2778.94 259837 240839 204385 147014 170272 181843
2784.73 172341 130039 133375 132155 152162 128072
2790.52 120765 115357 125954 103705 85332 45345
2796.30 4251 19082 70176 22024-25846-16886
2802.09 49396 20365-27666-70800 11195 38835
2807.87 47249-17549 1377-15465-8273 35877
2813.66 47177 16662 43737 65024 84237 84051
2819.44 124230 186105 195732 145471 205054 254543
2825.23 295826 256954 308556 353469 438094 497339
2831.01 560212 621493 722779 786903 898744 977915
2836.80 1142176 1281935 1407621 1559004 1723785 1840671
2842.58 2045208 2281739 2495240 2671187 2947304 3161852
2848.37 3388473 3554224 3801771 3970217 4100820 4160389
2854.16 4176909 4003824 3942742 4006790 4220450 4203668
2859.94 4303962 4488509 4734066 4953349 5173675 5168014
2865.73 5157014 5152241 5142366 5029478 4993351 4968483
2871.51 4996119 5015735 5175835 5307776 5409496 5490220
2877.30 5737712 6051443 6515094 7169615 8179052 9451643
2883.08 11102235 12933302 14753138 16314459 17489119 17760428
2888.87 16879086 15089652 13152977 11568829 10702380 11000573
2894.65 12518500 14970179 16707826 17248588 16663686 15242621
2900.44 13382871 11522006 9795506 8224021 6930493 5896730
2906.22 5112368 4503875 4063338 3747979 3561231 3411998
2912.01 3291562 3141246 3030097 2952388 2912943 2726159
2917.80 2632460 2479379 2352300 2216311 2174700 2112005
2923.58 2133063 2104658 2148342 2224030 2321502 2388912
2929.37 2587083 2788930 3106572 3463816 3951751 4353429
2935.15 4827040 5343352 6095295 6831766 7602578 8395750
2940.94 9331194 10243495 11291492 12394609 13641707 14999625
2946.72 16545584 18020797 19733079 21547246 23476313 25533366
2952.51 27530104 29448552 31838980 35802341 39380396 38343242
2958.29 36483732 35074964 32707995 29608956 27618928 28522344
2964.08 32956371 38274456 42833201 45751841 47921915 49348969
2969.86 51144440 52815023 55101405 57376175 60037680 62340232
2975.65 64042687 64713087 63643175 60975212 56992927 53729885
2981.44 51818968 50743658 53016535 59289556 63552925 64983916
2987.22 63761304 61159698 57281078 53442167 49552104 46337119
2993.01 43661843 41795300 40391445 39614165 38746674 37947909
2998.79 36952869 36005343 34872096 33962433 33067901 32333524
3004.58 31808771 31543761 31231441 31092599 30929848 31678738
3010.36 33687452 33296856 29447438 26476160 24758671 24150853
3016.15 23497210 22964857 22323036 21716667 20966842 20265555
3021.93 19391357 18773501 17942983 17311297 16647850 16122428
3027.72 15620702 15299413 15248769 15691248 16848013 18936975
3033.50 19196029 15963640 13307122 11934599 11411104 11069122
3039.29 10851179 10682373 10543953 10329404 10095805 9887882
3045.08 9683999 9401383 9008659 8682530 8348263 8044549
3050.86 7686984 7352142 6965330 6648873 6318385 5988847
3056.65 5741519 5449170 5085737 4753714 4482430 4184974
3062.43 3894222 3698787 3433291 3213098 2991470 2844379
3068.22 2745629 2561336 2376780 2195157 2013313 1889575
3074.00 1763340 1625206 1468578 1347628 1322716 1292854
3079.79 1208240 1082610 1043571 1024943 998134 972547
3085.57 929076 888313 832748 773565 772636 764846
3091.36 747790 737848 753033 774106 734144 708041
3097.14 667907 616577 631325 650261 681813 759831
3102.93 717990 661022 641483 655569 640352 602162
3108.72 589782 581168 610801 624817 563938 566377
3114.50 551760 559191 539297 470939 455326 471319
3120.29 482394 458390 413195 343012 362907 393934
3126.07 367115 331881 336704 324485 279288 220964
3131.86 141028 95974 95886 130685 119254 82791
3137.64 123843 145476 126516 89931 94154 89332
3143.43 87884 40942-38889-2718 66708 28415
3149.21-56446-22862 61442 39625 33700 24779
3155.00 1649-50770-67095-42448-34175-30655
3160.78 23953 32916-67655-40959 767-36554
3166.57-30243-33319-47890-61177-953 30515
3172.36 68332 80624 68618 12538 39743 34145
3178.14 14501 63646 58433 125629 71483 30273
3183.93 78404 128796 182009 126219 76935 90823
3189.71 144725 138841 85355 134584 235603 295442
3195.50 236767 206508 190883 215192 254370 236374
3201.28 209566 241214 220083 224831 250834 250952
3207.07 256845 297082 272140 234187 216675 163616
3212.85 160750 256827 213856 194437 224208 216777
3218.64 191430 143606 113659 163261 162401 82969
3224.42 55515 95189 147919 101419 14636 56878
3230.21 140315 96484 76592 65408 104832 37267
3236.00-30198-36329-1034 64026 57035 24925
3241.78 9137 4914-19022 421 38235 50794
3247.57 63451 69879 67950 57102-22743-103530
3253.35 20604 140879 164218 115682 85712 117852
3259.14 110114 114228 145726 153444 168996 97029
3264.92 95652 141417 174551 213345 220151 200461
3270.71 172943 156512 157518 122906 133683 154721
3276.49 147558 158954 180279 135703 107557 97454
3282.28 32733 9522 59296 86961 66087 33569
3288.06-8352-45907 7882 70293 22976-65708
3293.85-41036-1259 49261 29319-49994-43592
3299.64-45747-68907-49561-79549-76299-99418
3305.42-97475-71675-30994-40033-48110-13744
3311.21-20956-56133-70287-126674-108855-62687
3316.99-135425-131090-90743-24130 31818-27224
3322.78-73098-45714-93175-71426 3860-6828
3328.56-63741-107342-61687-17442-11438-59276
3334.35-86922-51110 4352 30707 2876-44644
3340.13-57176-49421-35888-24497 29789-7544
3345.92-30790 20271-20912-65588-36931-62848
3351.70-58387-5847 445-64051-80753-69199
3357.49-46048 6366 46611-28492-75705-46401
3363.28-48568-79422-18453-36216-14628-26462
3369.06-6304 44495 24893 54157 86558 48517
3374.85 50648 3449 4359 67634 57071 34763
3380.63-33629-42942-56303-100740-103469-134236
3386.42-32020 619 35015 29509-2807-24372
3392.20-14548-56813-90433-61860 24225 98919
3397.99 144256 96628 112368 192795 175728 152803
3403.77 208087 189679 161731 147714 164335 192286
3409.56 201724 189888 199971 190535 153025 106757
3415.34 168187 250265 233448 138763 73803 43254
3421.13 35933 15411-33318-12472 69779-1010
3426.92-79308-104523-62923 4419 39838-21879
3432.70-70107-47355-18023 32815 51100 53065
3438.49-13510-85792-116542-108529-20058-27217
3444.27-38714-120940-147930-42682-8401-78989
3450.06-25981 36858 59807-32912-28840-3169
3455.84-8357-42601-76492-27824 23123 46402
3461.63 40229 11621-50421-39563-8904 26632
3467.41 52861 21128-18875 3043-1169-48313
3473.20-24479-18641-28935 49087 112503 73588
3478.98 5961-28168 27320 115648 24366-23861
3484.77 16864 31614-19440-27769-22007-42635
3490.56-76388-89262-20363-54366 12796 56852
3496.34 4839 23509-15759-106951-165787-137026
3502.13-105128-32191-11156-84852-79462-84549
3507.91-126112-163125-153495-107390-107251-50571
3513.70 32796 2625-64091-156382-168548-92456
3519.48-33030-56973-95956-143745-183631-120406
3525.27-40820-37690-65346-65389-32141-39334
3531.05-52106-70916-91153-64314-36545-65519
3536.84-24654-36066-60525-25889 54280 33256
3542.62-71326-130698-139080-141784-104264-92337
3548.41-107830-100166-50995-40607-11963-35937
3554.20-62166-42486-44741-60618-151999-161037
3559.98-36626-31343-75181-125553-159368-145045
3565.77-171863-191545-162838-168265-158110-145152
3571.55-133135-97332-59356-24808-73203-112928
3577.34-106851-123977-142318-172242-141518-92599
3583.12-90500-98254-163582-155628-165212-222445
3588.91-143716-76901-88743-172429-191727-140190
3594.69-58424-30944-25302-12068-75626-131876
3600.48-62046-3297-7594-57457-92245-57023
3606.26 24611 27052-117773-92724-25268-19087
3612.05 17014 40479 46663 104051 102703 29004
3617.84-51983-102107 49956 136027 116298 151664
3623.62 232265 197501 136188 56883-128249-159958
3629.41-34276 63549 109139 55078 82705 188311
3635.19 244042 258006 270810 294863 264630 291505
3640.98 266486 181088 237050 271093 228653 120087
3646.76 133826 61278-2215 76826 166380 269529
3652.55 335422 398290 294363 217385 373109 394741
3658.33 363455 362181 384175 380045 362842 314101
3664.12 337139 404578 432125 295627 281127 216826
3669.90 73974 289407 392060 352003 196657 6869
3675.69 85963 298264 314720 314235 344981 373547
3681.48 406154 428395 349876 345246 338769 208529
3687.26-68183-308 98856 27353 78585 134749
3693.05 176430 208283 207965 232612 291841 290519
3698.83 263337 228205 137518 144686 242115 266977
3704.62 272607 255046 250675 183561 130559 192608
3710.40 39909-32515 197191 280985 303543 273795
3716.19 232960 210052 209759 198155 201534 174588
3721.97 196771 294526 290469 266514 275852 320171
3727.76 361674 356669 334591 221292 260511 407632
3733.54 341588 369980 341160 464932 647659 747481
3739.33 772409 801358 884409 792738 414510 549290
3745.12 1030096 1196073 1129490 790960 867907 1071589
3750.90 842464 1029382 1444054 1454359 1337888 1325949
3756.69 1370247 1331258 1241925 1296265 1358345 1307799
3762.47 1288837 1265287 1192239 1144073 1162618 1124243
3768.26 1084891 1086464 1126052 1127920 1233220 1277024
3774.04 1329568 1315948 1248989 1172786 1110488 1046377
3779.83 1078073 1129813 1160132 1128752 1101211 1071754
3785.61 1066035 1033055 1043869 961111 873578 910112
3791.40 929942 809551 717409 672262 559734 488152
3797.18 561214 604494 487999 281863 483068 840376
3802.97 929367 848686 608275 314028 403478 552829
3808.76 600158 583870 522697 548925 637934 657918
3814.54 353495 270757 504370 585869 524491 306730
3820.33 189488 299573 442827 487839 520979 480361
3826.11 487245 447844 380487 358455 325209 325326
3831.90 343153 276071 190485 194303 164903-156844
3837.68 24486 251494 267863 264942 211026 170809
3843.47 239380 271908 300718 365178 343889 243073
3849.25 217042 80071-135067-223073-482041-218571
3855.04 132880 133270 103056 122150 150896 87237
3860.82 18067 9919-20019-79556-55251 44202
3866.61 66264 871-162888-212821-53267 13772
3872.40-37071-93773 33330 82649 40024 33449
3878.18-274-73214-4847 62943 100639 100875
3883.97-40836-107818 113141 142959 61157 77236
3889.75 13841-43954 75779 129703 170226 143795
3895.54 126818 119588 68556-63788 43009 37913
3901.32-7768-42070-113252-34813 56036 87802
3907.11 102835 118551 120406 60912-43592-55693
3912.89-16013 34642 60856-51958-43987 67632
3918.68 36301-5849-20580-19447 21307 30717
3924.46 33088 53088 52835 38679 59176 75626
3930.25 81347 95030 80295 63306 109485 140067
3936.04 125713 174990 217756 223607 264169 217984
3941.82 123217 148630 239948 259959 224149 248614
3947.61 233443 217415 262039 235211 280379 354190
3953.39 399181 430050 446278 399112 345206 301132
3959.18 337721 377455 399068 411691 465547 473092
3964.96 415501 329585 298627 275939 343697 446840
3970.75 445566 374159 326522 404372
##END=
