##TITLE=Acrylonitrile
##JCAMP-DX=4.24
##DATA TYPE=INFRARED SPECTRUM
##CLASS=IUPAC A
##ORIGIN=NIST, Anayltical Chemistry Division, 301-975-3108
##OWNER=COPYRIGHT (C) 1998 by the U.S. Secretary of Commerce
##DATE=98/10/1
##$SPECTRA VERSION=1.00
##$UNCERTAINTY IN Y=2.0 % relative (B=1.0E-04,C=6.4E-09,D=2.7E-14)
##CAS NAME=Nitrile-Propenoic Acid
##CAS REGISTRY NO=107-13-1
##MOLFORM=C H2: C H C N
##MP=-83.5 C
##BP=77.5 C
##$NIST SOURCE=QUANT-IR
##SPECTROMETER/DATA SYSTEM=IFS66V (Bruker)
##INSTRUMENT PARAMETERS=KBr Beam splitter; MCT Detector; Multipass cell
##STATE=gas
##SAMPLE DESCRIPTION=Acrylonitrile Primary Gas Standard
##PRESSURE=101.3 kPa
##TEMPERATURE=23 C
##SAMPLING PROCEDURE=1 L/min Flow
##RESOLUTION=0.9640
##DATA PROCESSING=Triangular Apodization
##XUNITS=cm-1
##YUNITS=(micromol/mol)-1m-1 (base 10)
##XFACTOR=1.0
##YFACTOR=2.2737E-13
##DELTAX=0.4820
##FIRSTX=575.169
##LASTX=3975.077
##FIRSTY=2.87E-07
##MAXX=3974.59
##MINX=575.17
##MAXY=.0003778
##MINY=-1.86E-07
##NPOINTS=7053
##XYDATA=(X++(Y..Y))
575.17 1262262 1922096 2353352 1927522 2649472 2293912
577.58 1339006 2032520 2133164 1395156 76584-173988
580.47 190730 87172 122154 1262196 1971040 1831800
583.37 1164006 1123654 1404220 1059274 471318 759172
586.26 1679500 1290690 1610666 981464 54814 232640
589.15 542226 611414 1660230 2971520 2040134 1697150
592.04 2012400 1745074 1947280 2064682 1557074 448058
594.94-349724 230590 1462264 1602412 1375884 2324450
597.83 1835738 691742 892800 1348750 1774604 1851462
600.72 1701000 1379732 1110368 1127912 1437716 1823298
603.61 1788116 1306624 1748864 2817566 2515440 1996254
606.51 1772026 2211696 2414434 1843870 2100740 2490562
609.40 2590798 3099820 3097952 2745884 3024308 3479600
612.29 3756120 3522568 3419800 3774036 4229462 4322414
615.18 4168284 4054480 4542414 4931934 4918772 5218266
618.08 5239758 4935412 5420414 6347294 6154602 6155688
620.97 6579188 7142388 8187050 8460518 8389032 9151784
623.86 9770174 9826726 10257540 10261020 10362620 11088050
626.76 11871860 12420420 12721530 13400130 13919040 14465300
629.65 15022390 15830700 16730670 17255120 17327820 17510720
632.54 18477900 19362440 19760290 21127640 22310100 22147360
635.43 22716760 24686100 26200850 26050740 26792420 28568450
638.33 29780260 29544210 29708340 31725410 35847380 36129150
641.22 35363510 35948170 40074640 44690020 42759980 41678970
644.11 42158700 49022400 52715120 50391420 49282330 50117810
647.00 58981660 62889680 59712110 57482940 57811610 68510510
649.90 74201700 69246710 66013610 65102990 76943740 87442260
652.79 79974790 73736220 70959480 80421020 98061820 92051490
655.68 78702900 73761940 77618830 101157500 107455800 88162560
658.58 78327780 75114260 93465060 118934400 103115600 81555630
661.47 75628320 78548070 108220000 116983300 91162880 79367370
664.36 74212340 87142900 120622400 116359000 87785220 78455570
667.25 75968260 96696530 122933400 103827800 82132110 79680410
670.15 81156560 101941500 111185400 92584860 83320020 85256220
673.04 90054340 98772810 97939250 89805270 89149300 94691720
675.93 100147400 103024100 106422300 116276400 128274100 140801200
678.82 159684000 188432500 204246200 215067300 251475200 334429500
681.72 377545300 286445500 191109600 151067200 126365100 112028200
684.61 99680870 92120070 87263010 83828160 82779320 82645150
687.50 78578940 75813980 80827850 85393230 79202540 76498220
690.40 76632770 74962190 80738630 96450310 94326860 77058540
693.29 76323820 76185710 76097700 92927160 111613100 92468790
696.18 72553190 75477620 76522550 79687350 102804100 112283000
699.07 82109690 69138740 72967260 75710310 82652460 106560400
701.97 104207800 74199210 67588960 69733190 74069860 84487410
704.86 104468800 93435020 67124090 63532230 64710220 69047340
707.75 82435480 98211830 82087770 60644640 58150780 59151740
710.64 63658480 78360650 89392660 71349850 53770420 51149040
713.54 51675750 55938040 71007780 79255620 61807290 47594150
716.43 45074340 45172330 48019200 61976210 70293160 55011260
719.32 42221760 39481660 38969610 39615900 51148770 60006290
722.22 48198270 37921830 35156030 34196720 33858810 41236480
725.11 50213870 43193270 33784510 30662430 29797540 28693120
728.00 32135340 40311180 37411450 29777950 26846240 25846120
730.89 25772490 27163410 32274410 31966630 26160820 23334230
733.79 22111130 21277110 21399110 24634750 26143060 22559540
736.68 19706690 18668730 17902010 17299900 18780080 20754420
739.57 19321050 16890560 15547190 14988110 14567280 14675600
742.46 16213580 16013300 14022190 12877190 12302580 12065460
745.36 11976090 12287690 12980880 12240450 10861850 10329040
748.25 9967244 9596588 9330244 9672340 10147050 9956204
751.14 9074436 8261334 7870830 7597528 7584204 8117614
754.04 8238744 7757746 7342020 7038346 6923476 6825898
756.93 6937974 7189386 7662506 8187490 8284264 8099908
759.82 7443624 6959238 6999174 7401988 7774722 7993440
762.71 8024772 7766748 7562282 7494916 8036256 8472782
765.61 8955724 9697760 10042020 10302370 10750680 11074490
768.50 11478970 12332310 13604070 14715460 15133400 15528760
771.39 16298140 17139110 18139580 18888710 19312480 19791300
774.28 20275540 20876310 21566980 22040280 22146520 22253480
777.18 22086290 21893900 22198810 22177080 21524360 20949630
780.07 20106060 19387100 19207390 18761980 18070240 17332220
782.96 16669580 16034720 15371310 14912270 14493590 13289590
785.86 11977440 11262040 10206130 9100790 8944068 9753278
788.75 10880860 11894830 12923430 14247530 15608240 16420440
791.64 16910870 17424770 18167010 18497960 18778090 18939940
794.53 18808530 18851080 18378930 18017570 17800560 17206080
797.43 16663930 16204560 15432140 14607610 13747510 13079200
800.32 12663010 11851780 11004230 10311310 9738506 9002598
803.21 8064086 7455360 6996286 6600886 6082712 5345938
806.10 4743438 4437106 4192146 3981316 3569930 2965696
809.00 2770924 2744726 2365724 1942966 2088126 2116600
811.89 1738374 1334172 1356646 1624496 1462038 1218312
814.78 1099710 827276 660408 833476 1288768 1380140
817.68 1029760 1055022 1125790 999974 771936 658586
820.57 484312 615198 1120938 1278530 1160142 814650
823.46 739842 897834 853062 857422 757408 664120
826.35 846888 950072 855558 422708 251528 452918
829.25 613564 699028 819878 925628 843640 898826
832.14 909488 811098 883832 891512 1051350 993480
835.03 830180 957484 1063670 1264888 1449566 1702922
837.92 1939708 1745442 1871938 2348660 2514584 2682120
840.82 2869108 3092038 3479434 3587246 3987942 4448188
843.71 4960134 5587126 6112016 6820514 7396388 8000834
846.60 8813318 9500904 10406570 11341170 12372960 13426400
849.50 14167130 15291630 16779980 18183350 19453510 20483460
852.39 21682640 23114600 24724090 26169320 27456700 28737050
855.28 30157230 31496380 32689290 33913400 34829340 35685700
858.17 36593680 37092140 37523880 37893330 37846940 37375530
861.07 36889700 36391620 35527810 34065890 32560710 31062910
863.96 29501070 27491390 25699120 23531090 22336460 21104390
866.85 20883820 21168590 33349310 48308040 33405450 19705080
869.74 21318610 24292980 25662520 21764470 20332000 22169700
872.64 23998900 24909290 26143160 27759890 29581620 31216790
875.53 32908620 34437360 35579260 36367460 37229040 37970200
878.42 38421340 38433170 38151110 37737240 37435990 36886720
881.31 36136470 35265620 34323140 33562010 33392190 32904320
884.21 31531770 30464220 29636270 29035920 29839040 30491990
887.10 29412310 28477100 28227150 27857840 29011470 31749270
889.99 31941150 30556390 29965620 30048000 31561440 35498640
892.89 38140520 37088130 35864530 35672220 36875840 42023560
895.78 47660900 47693690 45746500 44392780 44735820 49190580
898.67 58140460 60353590 57183340 55534840 55141790 58546610
901.56 68562940 75481180 72124100 69286470 69092810 70735820
904.46 79782560 91945920 91261690 85123670 84148950 85608940
907.35 92548420 108571500 114999800 107430300 102357300 102239200
910.24 110843800 124787800 139291600 136519900 125522700 120776200
913.13 122658200 136709400 161630500 170797000 156368100 143166000
916.03 141047900 151295500 177418100 206367600 198995200 175665800
918.92 164358600 169329400 185797300 226608300 246506200 220468100
921.81 195074500 191121100 200381800 231684100 282278400 278458900
924.71 241384000 219413500 222361200 234388500 291551400 327002200
927.60 295757100 258866100 246749100 248308700 281183600 359131000
930.49 354113500 308346000 284820000 280442400 279553300 351143000
933.38 406209700 351305000 312145200 307835700 295048000 317445600
936.28 416735700 408547900 335322700 328388100 336588900 317809300
939.17 384001000 437124400 367937700 329035400 364217900 361542600
942.06 362993200 419654800 392799300 350415700 393209200 441406300
944.95 414747600 413904900 406760600 382309100 412841000 517777400
947.85 557518800 468965300 425955900 406391000 412862500 492166900
950.74 581808300 546503700 583665500 705328000 1189540000 1661971000
953.63 1296878000 848239700 641342500 518001900 477016700 450052500
956.53 489245400 513391100 438606500 397637900 417852100 403583600
959.42 400717600 452949300 469296100 444615200 448611600 441974400
962.31 410131300 447427100 535287800 504905100 433763400 410981000
965.20 395841700 470262100 581614300 521029000 444122500 460150900
968.10 508142100 644251700 787400100 779436200 884018400 1139216000
970.99 990246300 749239400 688015900 543533400 452082000 426205300
973.88 436907700 529203800 544684300 441710700 386236600 371518800
976.77 407687300 501055500 498131600 414818900 365526600 358726400
979.67 426068400 496456700 480172700 415873700 351529100 360851700
982.56 439030000 468241700 450893300 398885500 335305500 372190200
985.45 432280100 424085600 419368400 381206700 339071400 373378400
988.35 384882900 374814800 391761300 361089200 342284800 354105100
991.24 332073400 347712300 372906300 350134600 324376100 303147200
994.13 297873700 331181600 355657300 319142100 274022700 270732500
997.02 287099100 325888100 320739600 261512100 246595900 257901900
999.92 282159800 296764300 253524800 225318700 234582000 246846900
1002.81 259902800 240698700 209749400 210472600 219130400 222129600
1005.70 217105400 193051200 182159600 189537800 187513400 187399800
1008.59 173429600 157706900 160479400 158830900 158863700 152172600
1011.49 137063800 133913000 133103600 135205200 135302300 121494200
1014.38 114400300 114727100 117608600 120118400 109060800 102476000
1017.27 101643300 101026200 102504800 95671120 89789380 88984980
1020.17 88701360 86478340 80659850 78012610 75910230 74700900
1023.06 72497260 67468200 65870830 64314620 62363760 58861420
1025.95 54858130 53441560 52398680 51302270 47602150 43981980
1028.84 42677440 42260500 40225600 36540580 34792220 33977780
1031.74 33111860 30984770 28503200 27300170 26572940 25417570
1034.63 23601820 22234200 21494160 20491740 19006730 18136930
1037.52 17403670 16656910 15776770 14808540 14324890 13772700
1040.41 12894710 12013910 11619970 11335620 10865020 10248570
1043.31 9758872 9505312 9184640 8845346 8627480 8247028
1046.20 7805956 7681158 7468958 6979816 6820726 6809952
1049.09 6681772 6523672 6297200 6212602 6293806 6358432
1051.99 6172806 5817152 5771484 5752682 5929524 6187350
1054.88 6086588 5913674 5810048 6102940 6313926 6167172
1057.77 6055134 5902100 5799484 6057324 6257356 5895366
1060.66 5524444 5443052 5551304 5763168 5821970 5492088
1063.56 5223646 5215662 5691670 6225450 5970824 5839042
1066.45 6184542 6576112 7609930 8261336 8012178 8315652
1069.34 8804556 9597492 11114310 11984120 12299710 13133130
1072.23 13983950 15273580 17471640 19075310 20162070 21461140
1075.13 22967160 25270210 28232630 30190720 31617130 33823460
1078.02 36103580 38568800 41671940 43918010 45639340 47929370
1080.91 49660120 51568120 53905940 54920350 55595570 56751240
1083.81 57482720 58042490 58276900 57628010 56481670 55308850
1086.70 53744830 51359810 48654400 46176880 42975620 38688820
1089.59 34417880 30543260 27206500 24185370 22107990 22892000
1092.48 33209210 43603230 41753520 37705190 37415110 38759540
1095.38 39812760 37258110 33807410 34761560 34513720 32474800
1098.27 32876350 34025160 34266270 34778500 35805380 36325030
1101.16 36747150 37256570 37672180 38006200 38066160 37051970
1104.05 36117260 35649370 34663550 33764180 33234240 31537220
1106.95 29382850 27952340 26672890 25116300 24001970 22765830
1109.84 20675810 18859830 17528750 16524490 15197520 14399820
1112.73 13111530 11225990 10261850 9732098 8817756 8286640
1115.63 7973742 6656568 5706240 5481576 5199216 4651856
1118.52 4491140 4061654 3378770 3073406 3255036 3023080
1121.41 2847580 3010170 2544678 2086890 2074904 2242818
1124.30 2122144 2129492 1962700 1622564 1562064 1659650
1127.20 1637908 1781444 1867074 1592708 1464126 1513058
1130.09 1411364 1464116 1598732 1363228 1273330 1346266
1132.98 1283608 1203146 1239186 1174756 1174776 1110538
1135.87 1028354 955936 777948 952868 1006724 878506
1138.77 976176 940450 871650 1005672 930278 828930
1141.66 857576 725706 715782 847156 736964 648794
1144.55 659356 661648 649022 598938 584036 589034
1147.45 596178 497314 459226 590850 657214 627942
1150.34 586290 572590 553218 532068 546136 593752
1153.23 735174 675676 630070 621542 563744 673762
1156.12 643298 517912 542770 684740 792888 736240
1159.02 787650 908650 877710 828048 769568 801168
1161.91 784776 748432 728478 748296 915488 977630
1164.80 860250 817612 850246 866228 989462 997992
1167.69 968070 1079598 1021976 924876 886022 975946
1170.59 1086912 1072318 1126096 1071640 1065284 1036910
1173.48 991134 1018110 1104354 1126748 965818 862310
1176.37 894578 919438 1013122 1118364 1042276 952198
1179.26 931502 1004762 1010598 862066 865262 952726
1182.16 1045772 1041702 804228 717772 810034 1021094
1185.05 1226106 1095486 918080 859318 795266 1005144
1187.94 1228728 1030134 1011236 1058974 1031028 1308874
1190.84 1318788 1062798 1079020 1155776 1111214 1204254
1193.73 1349236 1295018 1161666 1095154 1149464 1214130
1196.62 1191182 1151406 1261076 1329510 1254328 1268172
1199.51 1246750 1288068 1477372 1614724 1628486 1601372
1202.41 1709388 2219372 3306188 3631648 2835136 2200396
1205.30 1899268 1640220 1526602 1590968 1637038 1905324
1208.19 2099426 1832648 1551768 1377096 1276350 1145792
1211.08 1125924 1360990 1493378 1442742 1276982 1120882
1213.98 1152904 1363570 1390826 1286382 1230516 1106310
1216.87 1082316 1083508 1283952 1375676 1203292 1082416
1219.76 1011174 1091158 1327226 1479762 1343074 1217564
1222.66 1092410 933708 1048524 1375232 1518496 1332978
1225.55 1100482 984132 876868 992356 1241352 1391254
1228.44 1338216 1144484 1061078 1051160 1101552 1346694
1231.33 1450704 1246534 1128100 1045012 939632 934738
1234.23 1083670 1214626 1103012 896630 783890 826404
1237.12 963090 1038904 1058682 1027240 959756 953778
1240.01 905446 802232 842542 991634 977784 745466
1242.90 769564 913640 883734 894964 858764 857924
1245.80 905790 856272 794744 765036 825346 846084
1248.69 835668 859680 812702 768252 822182 951008
1251.58 1110230 1144566 1071690 1034348 1176966 1416858
1254.48 1352068 1356454 1419836 1347784 1529262 1807116
1257.37 1996658 2139640 2266828 2543202 3013908 3227670
1260.26 3285214 3425766 3576920 4000230 4605320 5020276
1263.15 5335280 5717506 6048428 6547048 7113198 7566072
1266.05 8072330 8430056 8819876 9421822 9831990 10205880
1268.94 10679190 10913770 11320630 11880100 12080830 12083070
1271.83 12166180 12252610 12314250 12290210 11999230 11682050
1274.72 11411900 11011180 10613260 10215260 9860558 9515762
1277.62 9240304 8909936 8313264 7548340 6891574 6479802
1280.51 6859084 8555314 10240130 11491890 12470400 12813900
1283.40 12749660 12577040 12680010 12887720 13067840 13509020
1286.30 13940830 14249610 14676520 15027990 15314820 15643040
1289.19 15770110 15745360 15692450 15713330 15872530 15741160
1292.08 15433340 15010550 14473730 14211860 14029240 13945450
1294.97 14056950 13775210 12759100 11728060 10992860 10472320
1297.87 10217720 9659324 8958260 8507910 8492134 8333688
1300.76 7951226 7852326 7600816 7576762 7751936 7744394
1303.65 7831852 7975404 7906040 7845722 7997018 8161228
1306.54 8284410 8538304 9009994 9320218 9492488 9697282
1309.44 9832064 10087200 10486840 10879790 11266120 11476320
1312.33 11548410 11769920 11855760 11890860 12137650 12255380
1315.22 12034510 12001360 12023250 11788550 11637810 11454330
1318.12 11299920 11133480 10847520 10411030 10142500 10142860
1321.01 10120350 10245030 10588840 10784540 10412210 9526324
1323.90 8859568 8782270 9001670 9232448 9200028 9056024
1326.79 8943984 9289930 9845236 10020080 10216640 10790830
1329.69 11322990 11310010 11235720 11593030 12413460 12695730
1332.58 12414530 12407870 13176000 13570970 13141470 12881560
1335.47 13257450 14357250 14218920 13092020 12793820 13824250
1338.36 14728500 14033010 13081860 13092810 14228110 14237850
1341.26 12961440 12270390 12232060 13745480 14202510 12900550
1344.15 12437820 12526810 13804500 15027090 14051310 13160910
1347.04 12965510 13585010 15396930 15496410 14242950 13915700
1349.94 14297220 15413560 16113650 15054980 14250080 14461560
1352.83 14985760 15249690 14829110 14298910 14063150 14203690
1355.72 13929970 13134490 12940860 12989250 12572710 12232770
1358.61 11675720 11310910 11408250 11817820 12862910 12800130
1361.51 12266820 12736390 14507290 15321730 14527000 14444850
1364.40 14565500 15382080 16911970 17958030 17705370 17149050
1367.29 17657990 18822020 20784750 21807260 20369660 19504210
1370.18 19420660 19634130 22449020 25211240 24215790 21977960
1373.08 21861600 22652930 25204210 26460470 24382640 23968680
1375.97 22575330 22893300 26633510 26424670 23537410 23439620
1378.86 24782070 26568010 29380540 26915050 22613320 22575680
1381.76 23432700 28649500 34091880 29810090 23701970 22937060
1384.65 23780990 29355200 39076540 36126560 28963640 28997530
1387.54 27706560 32356610 41764160 40442690 33704310 31394690
1390.43 31146020 37067820 50622880 50485990 42027400 40467080
1393.33 42398310 48416680 62034410 65713130 56591290 52831480
1396.22 54006040 60999280 75541660 82662590 77708410 73797380
1399.11 73838180 76599920 90333980 102136100 96299540 90674520
1402.00 91581180 94330740 103161100 112890700 110119700 104846200
1404.90 103445600 102778200 104498600 105087700 101462900 97649540
1407.79 95940080 89981580 82825740 78340290 76856520 70813120
1410.68 62468060 56312150 52096380 48323920 49240220 50448600
1413.58 84862450 129039900 99116430 61951960 54831580 54134390
1416.47 56746060 60650340 69131660 76270380 81914770 89119500
1419.36 93290030 96237800 98670860 101101800 106800100 107042800
1422.25 104086000 103308800 103688200 106588100 112690500 107255200
1425.15 96904840 92096850 88915390 91866280 96707220 89504900
1428.04 79163770 73134180 70595620 71760910 77433460 74025980
1430.93 59217770 50873670 46746540 45197490 50599260 53128050
1433.82 43450490 38008490 37524780 37837730 46713410 54849830
1436.72 45657500 36069380 34527220 33949900 37288260 42568900
1439.61 38912600 32706150 32782770 32539540 33351030 37331890
1442.50 35536580 29793680 28743310 27898280 27639590 30390570
1445.40 29712700 25048950 24248750 24301920 24771440 25824070
1448.29 23844590 20162630 19295730 18839190 17839090 18839520
1451.18 18918700 16670850 15937040 15814870 14591110 14794980
1454.07 15366350 14602330 14681600 15402620 21335360 24645830
1456.97 16954990 13938980 14599530 12430650 11596090 11226440
1459.86 10241100 9460596 9240476 8704916 8787662 8793534
1462.75 8636792 8643282 8661416 11133770 10828640 8033022
1465.64 7750564 6977612 6187514 6052006 6121712 6491018
1468.54 6198200 5316300 5031976 5130040 5691332 7447492
1471.43 10392210 8462916 6348410 9776634 8553190 4820734
1474.32 4079284 3771420 5030142 6445670 4946072 3335970
1477.21 3034384 2839938 2824194 2794542 2577162 2437776
1480.11 2562060 2981254 2824272 2159836 1981632 1958190
1483.00 1909454 1845810 1721274 1691418 1699276 1876672
1485.89 1887394 2732300 3970916 2679658 1703258 2010650
1488.79 2780036 3805878 3461542 3857684 2937662 1353644
1491.68 1178672 975996 933434 936858 976334 1144734
1494.57 1461522 2480498 7623250 7508818 2207426 1366268
1497.46 1323210 3214132 4371970 2111478 994302 951998
1500.36 836644 1055126 1219104 1039820 809840 922942
1503.25 925980 1342508 1739272 6669916 11301130 6434248
1506.14 8475838 12429180 6058748 3141620 3650376 2254078
1509.03 2168796 2187220 1240976 994230 968980 2454880
1511.93 3215652 1385430 643410 724056 1007360 1967896
1514.82 1797656 1337900 2409228 3322142 4373190 3980764
1517.71 1664150 1166044 1171734 2426400 4365260 4880900
1520.61 10221050 8971596 3411558 4827390 3702070 1432008
1523.50 1208244 1377058 2962016 5240542 3345532 1094270
1526.39 1734652 2299012 1567558 1715542 1795224 945590
1529.28 800406 663174 728380 1155652 1611048 1196654
1532.18 1870834 3545356 5104536 4575530 1891950 1154102
1535.07 1261240 1119362 1189938 1293250 1804828 2576952
1537.96 5918054 13998650 11024340 8064794 10626510 5273820
1540.85 3351690 8255178 8742816 3754112 2899982 2905866
1543.75 2096550 3700384 5554428 3408384 1671594 1597848
1546.64 1529024 1579380 1613106 1797536 2181138 3005002
1549.53 3637282 3014206 2151212 1939214 1922794 2007954
1552.43 2461600 2610750 5360228 8733966 5306976 2663878
1555.32 2831288 3030994 3739436 7543936 9680782 13764500
1558.21 15238240 8578710 10826960 16105790 10767100 4306788
1561.10 3592262 3308064 3427756 3339552 3407782 3443730
1564.00 4325452 5222146 4485886 3853984 3793056 3721620
1566.89 3986554 4194478 4963840 5736154 7468902 9467152
1569.78 6933008 5041814 5460366 5326404 5024570 5011322
1572.67 5218966 5711722 6411444 6987628 6804598 10099450
1575.57 18664310 15680490 8936496 8641960 7336856 6708976
1578.46 6816736 7273538 8345740 9357616 8406392 7425062
1581.35 7528750 7988960 9289366 10998960 10330450 8724064
1584.25 8570740 9065330 10467870 12781370 13015790 11018220
1587.14 10377290 10733080 12003360 14806140 16536670 15214630
1590.03 14047360 14697470 16142280 19057820 22753170 22633600
1592.92 20773190 21037770 22636770 25511470 29954200 32558460
1595.82 31304750 31290690 33112630 35914790 40329700 44869270
1598.71 44742340 43942400 45743460 48069380 51406150 55968120
1601.60 57905780 56347390 56681910 58232400 60095790 62513820
1604.49 64064340 62607380 61081070 61360840 61102620 59989360
1607.39 58671370 56832960 55104930 53884960 50778720 47202600
1610.28 44161040 42434420 41693840 39059880 37118610 38322700
1613.17 45681270 62875750 70057920 62440300 46925410 33527140
1616.07 38737400 40148490 36101340 38506330 42327300 47423430
1618.96 53615210 57991300 60599340 63955320 66822610 69086860
1621.85 71678850 73386860 76158610 76019410 72399500 72128440
1624.74 71941900 70721640 69340290 65855340 64117380 65568090
1627.64 63578020 59841100 56572700 52328340 51114860 51879070
1630.53 49302380 46506080 44262180 41067410 40761760 41741180
1633.42 39730760 39766790 41360840 43895440 45169840 41454690
1636.31 38481060 38987250 38173960 35153420 36326000 38925960
1639.21 38691530 38839320 38514530 37084560 38235500 40205230
1642.10 40627160 40183500 38913160 37681300 38118720 38169610
1644.99 41340950 45107820 39334570 35133210 34806980 32958640
1647.89 32218070 29316250 26095670 25347860 24599620 23808560
1650.78 23362410 25455920 35784110 43190320 47741260 43016970
1653.67 34319150 31972240 27979580 26806860 28320870 30114710
1656.56 29282240 28615990 29667210 31483920 33020860 33436400
1659.46 33360850 32929000 32323300 32983060 33351750 34734510
1662.35 37249820 34893470 30981670 29511070 28817190 28379420
1665.24 28445780 29062200 26817440 23944190 23048700 23368820
1668.13 24231820 27892870 27069520 20341590 17393000 17840490
1671.03 19059680 18134630 17058070 15356550 13108740 12524500
1673.92 12992940 17288190 19933630 15583580 10983780 9342866
1676.81 9054328 9560844 10075710 10331230 9342894 8195368
1679.71 8261078 8324724 7992672 8861310 8670448 8284964
1682.60 10111120 10796890 11123320 19604060 22041600 10660860
1685.49 6222698 5791164 5314338 5875126 6938054 6783592
1688.38 5450844 5006944 5145246 5333172 5489866 5376084
1691.28 4556184 4168774 3968492 3844596 4489470 5145254
1694.17 5236000 7085070 16205860 17211460 7318648 4950976
1697.06 5039782 3763902 3860580 4376778 8712484 14671760
1699.95 14879090 10766550 5186978 3023064 2784140 2606478
1702.85 2785778 3201776 4622048 4010426 2430898 2985250
1705.74 4698510 3977746 2293534 1904486 1647576 1627762
1708.63 1636788 1889982 2285298 1878190 1328032 1320996
1711.53 1399418 1534030 1677478 1835042 2583834 2561466
1714.42 4445460 4634530 2565172 2155628 5068412 12446750
1717.31 8866132 4394908 5326184 2710772 1587754 1256142
1720.20 1042754 1045560 1043988 992012 1054560 1441570
1723.10 1624204 1178618 940110 878920 869438 943332
1725.99 973630 909782 898896 945160 996248 991780
1728.88 1353386 2329134 2156718 1237086 1057044 1342934
1731.77 1610752 2879756 8589402 7842202 7508956 10281530
1734.67 4878530 1887110 1434134 1019380 1091182 1192500
1737.56 1210696 1318194 1654054 4315874 5586432 2550418
1740.45 1227880 1153098 1103740 1387074 2002334 2300384
1743.34 1810824 1520804 1404322 1350414 1565712 1554606
1746.24 1804882 2220018 1858032 2255008 3107118 2568422
1749.13 1862448 1627552 2463510 6048058 6427244 2412100
1752.02 1157750 1098800 818598 752592 718944 762412
1754.92 843098 708622 1742486 2979706 1613524 670136
1757.81 661896 508406 503424 494990 627718 732342
1760.70 1412768 3922540 3292102 810622 526342 407710
1763.59 325964 312160 339240 368352 357542 416594
1766.49 488278 800756 3299910 3321650 782622 444592
1769.38 545094 654420 1757834 3363372 2060716 4509482
1772.27 8100346 3754672 810820 742556 562080 1059586
1775.16 1471566 1369744 1001020 664572 585340 655380
1778.06 550754 539574 428020 609988 1473774 1239352
1780.95 337168 247292 263256 227024 259774 219520
1783.84 467262 1754254 1388902 253742 145528 145408
1786.74 200562 120620 190928 229250 287506 447346
1789.63 571648 1315370 1821868 912466 1736332 5188914
1792.52 4041710 964862 524728 218878 255004 435166
1795.41 697874 506976 201476 166346 106484 137116
1798.31 270152 1280996 1796384 698698 393322 965340
1801.20 779520 789430 938548 350458 117758 116872
1804.09 202774 213864 161080 182732 183672 172230
1806.98 342942 370450 212012 192140 208366 347816
1809.88 965782 1113260 552930 447204 515908 395838
1812.77 294610 282928 303988 331022 314844 280322
1815.66 392678 465796 627314 778810 661044 669658
1818.56 772226 856906 854398 862180 981148 973172
1821.45 1068196 1272802 1392594 1294100 1376284 1581772
1824.34 2930942 3905014 2681302 2060064 2185116 2182002
1827.23 2311826 2422342 3041760 3581002 4309112 5427134
1830.13 4146558 3001488 3081300 3054512 3139448 3151548
1833.02 3142046 3099598 3061916 2926854 2869864 2859392
1835.91 2873854 3061536 3040564 2678372 2415560 2213296
1838.80 2079304 2038578 2036022 2097624 2145786 2421452
1841.70 2763996 2787494 2509924 3858224 7354494 5937270
1844.59 2978172 2903632 2731390 2857794 3060948 3565756
1847.48 3709984 3476742 3571932 3710652 3949164 4156844
1850.38 4167882 4124198 4001306 3923706 3882436 3849626
1853.27 3895456 3827132 3693756 3676564 3701246 3693742
1856.16 3609796 3707150 3710148 3576610 3484236 3294032
1859.05 3220256 3267258 3375668 3542826 3432678 3251358
1861.95 3260864 3458446 3730598 3940242 4101622 3989820
1864.84 3796580 3782298 4057374 4113768 4527736 5638994
1867.73 5506844 5468344 7049344 6599140 5374860 5839896
1870.62 6124768 5938102 5763514 5695510 5778050 6326230
1873.52 7196258 7819224 7791368 7616868 7608488 7984436
1876.41 8856106 9871922 10675960 10915910 10857030 10846110
1879.30 11409710 12922720 14564150 15501920 15878260 16161590
1882.20 16511550 17505460 19538630 22182110 23513950 23984480
1885.09 24566990 25361120 27030570 29948660 33384490 34728900
1887.98 35527680 36885540 38903240 40837930 43974240 47866310
1890.87 48977470 49927790 51221880 52789800 55405680 59620170
1893.77 62824790 63692030 64642240 65127310 66500420 69268510
1896.66 72153640 73282350 73194210 73381090 72745860 71664610
1899.55 71624620 70412920 69076620 69872570 69683350 67902220
1902.44 66610260 66207540 65688620 64612280 63667340 63510490
1905.34 62803760 62440800 62183990 60032270 53664440 44244530
1908.23 38559870 38066310 42233380 47897750 52737940 58496680
1911.12 65918160 71412550 73700570 76964140 79807300 81534520
1914.02 83624920 87020710 88221310 86114380 84993510 83927850
1916.91 83220290 86270630 86188050 79707190 74947490 72487380
1919.80 71543430 70775980 67430110 63835680 60177070 57257860
1922.69 56755590 54444000 49748100 47354350 44961080 42772630
1925.59 42210510 38778840 34923200 33149550 32211940 32355400
1928.48 30899280 27276340 24607440 23789670 24089210 23740800
1931.37 21341970 18747580 18211170 18923520 19064250 17581230
1934.26 15693980 14795260 14649120 14992970 14154150 13240910
1937.16 13624230 14798700 16246250 16189420 15785790 15916220
1940.05 16584920 17734300 17343040 16859860 17876020 18024120
1942.94 17213290 16336090 15773680 15982270 16814960 16607350
1945.84 15113610 14103880 14073930 14381010 14420470 13584570
1948.73 12108010 11577370 11473360 11815320 12140410 10769010
1951.62 9500306 9343480 9406490 9857850 9308756 7778458
1954.51 7408226 7568236 7702172 7891958 7263144 6600228
1957.41 6435536 6280320 6391182 6208428 5614800 5443018
1960.30 5319934 5432700 5559562 5043564 4909758 5105198
1963.19 5175296 5237758 4690800 4337536 4281290 4516542
1966.08 4786330 4464998 4319706 4108748 4166682 4333738
1968.98 3944612 3600966 3445008 3577168 3386540 2955718
1971.87 3041104 3149420 3187994 2975764 2847934 2851188
1974.76 2880632 3046746 2819552 2571578 2688234 2757266
1977.66 2562354 2443396 2391510 2328056 2341004 2248360
1980.55 2107890 2063292 2090586 1963112 1876508 1958718
1983.44 1987124 1942820 1769078 1635826 1582362 1550402
1986.33 1610434 1609648 1566518 1596578 1467810 1312144
1989.23 1245594 1212914 1145960 1140122 1567590 1647926
1992.12 1316524 1147080 961158 890224 823946 831944
1995.01 858798 698060 640542 746950 861016 906840
1997.90 901196 885234 766314 682306 715278 696546
2000.80 536162 644164 831804 659834 553766 568602
2003.69 561658 534276 558072 489492 412808 456054
2006.58 487866 573446 531300 496246 542422 436550
2009.48 383110 339396 247132 275998 252586 359820
2012.37 461936 365412 278108 211698 230090 217142
2015.26 302004 505798 676530 580708 411650 506856
2018.15 504774 383360 340880 302632 345178 363528
2021.05 324110 328584 325036 393492 430604 390802
2023.94 272564 211048 229014 240160 263092 151592
2026.83 159908 258234 255698 235646 231116 183058
2029.72 169206 186258 224424 250606 214706 310984
2032.62 413636 326892 234660 292326 305224 189912
2035.51 201258 282948 310798 358334 368092 369342
2038.40 350680 330630 343958 344494 405922 411758
2041.29 380350 337302 277812 304046 312534 334274
2044.19 299656 307476 404940 577436 794800 1071694
2047.08 1208626 786092 347792 254430 318728 431892
2049.97 351076 249396 321786 415252 396598 358520
2052.87 426960 404018 452184 442286 422662 526390
2055.76 451908 351476 399232 473978 477812 416662
2058.65 392960 432794 515854 588088 629172 692664
2061.54 684594 825452 1290930 1541620 1188482 969562
2064.44 903278 754280 677682 548088 558234 559166
2067.33 448526 431008 408028 372684 376364 379566
2070.22 428134 399290 310158 265950 264048 294960
2073.11 402176 478482 290396 146922 192424 295758
2076.01 411830 488416 338586 237148 376796 377186
2078.90 382712 537226 417302 265564 365512 437860
2081.79 477214 588518 510444 293348 271602 308920
2084.69 332488 559254 570640 371634 332080 302976
2087.58 316788 498338 550692 349852 372650 378430
2090.47 291302 385826 410244 309036 284996 354098
2093.36 338624 392490 506596 394560 363014 311854
2096.26 275362 411096 342108 260550 294710 358080
2099.15 329896 335938 354752 221196 213102 239724
2102.04 266850 343332 259644 137000 192096 181990
2104.93 157612 282472 260432 109624 105518 153724
2107.83 177526 152614 130364 162890 128032 128828
2110.72 130618 36370 39616 95494 121160 97874
2113.61 75916 98132 101250 100240 112258 31752
2116.51-67798-24356 12252-7694 71114 125546
2119.40 97844 98098 60462-7160-18272-62226
2122.29-57272-2328 4868 77470 124602 108040
2125.18 87388-21892-80696 67174 143544 61572
2128.08 57778 39978-25070-49602-58418-17106
2130.97 18468 21874-28404-68356-27452 39812
2133.86 49298 91528 160334 126384 72956 47902
2136.75 58494 15884 13646 134432 202838 211212
2139.65 191766 234372 248558 159220 184264 226914
2142.54 235128 228928 229660 214528 206114 215352
2145.43 193894 255170 302958 247588 162614 171192
2148.33 209968 204916 152618 133904 224484 273468
2151.22 245200 268752 304836 401356 381844 266022
2154.11 308498 308238 263906 315822 355940 338542
2157.00 241982 261570 346036 312578 329912 330316
2159.90 312546 304156 306780 324784 314546 311646
2162.79 338530 307952 264524 218620 240034 358396
2165.68 364834 350480 299378 266624 323760 343134
2168.57 357964 278624 215176 254230 223948 240528
2171.47 346758 381022 401844 344254 300032 343538
2174.36 319016 337134 423826 357860 271904 379622
2177.25 383804 350322 449208 514944 534326 436210
2180.15 466626 538582 462122 420234 379966 390560
2183.04 441564 516404 442106 310430 358150 359570
2185.93 323522 291770 234460 268528 323956 371988
2188.82 371322 313668 288478 319500 363296 422810
2191.72 491556 489326 486644 459108 341752 321070
2194.61 423146 472350 423772 359502 439016 412540
2197.50 357968 391216 435818 510376 521020 534784
2200.39 453050 365766 433682 535826 574840 574438
2203.29 587338 590882 607494 673748 690506 751468
2206.18 748254 707452 760274 822776 972746 1118180
2209.07 1135992 1154762 1219800 1266212 1488144 1738250
2211.97 1746596 1758268 1868902 2036478 2348326 2632856
2214.86 2823920 2914212 2993560 3247058 3529754 3821234
2217.75 4099804 4374390 4657026 4915410 5297854 5666288
2220.64 6042198 6431448 6725676 7074160 7461268 7831506
2223.54 8196498 8582704 8799184 8957490 9268490 9590532
2226.43 10013800 10305330 10368030 10398290 10519300 10587170
2229.32 10730360 10841680 10738490 10631450 10415430 10197710
2232.21 10198130 10107940 10062940 9827800 9163524 8639512
2235.11 8300842 8406272 9311896 9118950 8595564 8499530
2238.00 7215702 6509632 7376858 9255472 13289360 13850990
2240.89 9078214 7019388 7358608 7764886 8349142 8916632
2243.79 9646662 10367590 10981980 11553630 11963840 12178400
2246.68 12413370 12574530 12658630 12572800 12309020 12011150
2249.57 11764110 11574290 11265580 10714820 10025770 9415110
2252.46 8882164 8370482 7900916 7306976 6647276 6090968
2255.36 5672952 5313772 5011480 4657674 4161418 3805272
2258.25 3650276 3564920 3540756 3494646 3266998 3135686
2261.14 3218890 3305202 3445402 3519450 3355584 3322668
2264.03 3471700 3621824 3882740 4119540 4275544 4254804
2266.93 4379936 4640410 4814710 4956862 4979604 5054002
2269.82 5279354 5388786 5384412 5401100 5455664 5551912
2272.71 5545476 5410564 5337458 5184552 5043128 4945432
2275.61 4740048 4474736 4209118 3931808 3689084 3683574
2278.50 3918940 4364930 6665464 7387806 4718356 3558990
2281.39 3760808 4064042 4250376 4158568 4000634 4109684
2284.28 4450118 4768334 5073974 5319342 5566630 5878700
2287.18 6219252 6418170 6579652 6730818 6889738 7053834
2290.07 7166178 7149818 7105198 7195284 6998630 6526126
2292.96 6254358 5971038 5595292 5217878 4950066 4865960
2295.85 4672288 4286050 3948000 3773892 3760722 3664142
2298.75 3369108 2934296 2535354 2294318 2110778 2064690
2301.64 2052026 2065182 1979152 1923662 1947924 1866492
2304.53 1909746 1955222 2008164 2093896 2106018 2026970
2307.43 2018476 2097878 2186704 2083730 2033994 2123344
2310.32 2173098 2155808 2012968 1885388 1887608 1805078
2313.21 1650362 1717002 1740048 1777014 1708178 1497704
2316.10 1468692 1530416 1444332 1283784 1211690 1205690
2319.00 1135410 931760 848754 1084240 1074840 890382
2321.89 856688 987594 932354 597548 584616 913168
2324.78 928584 576546 678858 1069028 890168 619190
2327.67 837776 1150418 971082 596982 832018 1189040
2330.57 906984 593590 923858 1158442 853150 827104
2333.46 1351610 1308940 731554 766928 1201996 988912
2336.35 609924 966924 1250024 846474 720558 1091494
2339.24 957600 658906 967926 1082844 751124 769152
2342.14 1031018 988906 807418 958366 1029010 789630
2345.03 857514 999238 831374 692030 768540 883230
2347.92 748336 554756 588160 726352 921886 1116092
2350.82 1068856 845476 880604 1243392 1390698 1238388
2353.71 1385632 1340624 1041524 1562006 1792568 1370016
2356.60 1671676 1729154 1354786 1899006 2002528 1674568
2359.49 2077844 1820330 1716388 2314570 1937538 1919340
2362.39 2309046 1935344 2312304 2510248 2207236 2450836
2365.28 2179522 2210044 2563120 2213932 2300974 2289966
2368.17 2227888 2412802 2217656 2373018 2340928 2161442
2371.06 2135898 2045340 2080846 1961278 2024634 2127058
2373.96 2191700 2326776 2323402 2408016 2565002 2644286
2376.85 2735544 2837414 2855974 2956662 2985860 2997078
2379.74 3039698 3109716 3187004 3132264 3023016 2975940
2382.64 2953704 2754426 2681928 2682724 2515424 2325248
2385.53 2195824 2207484 2360544 2506794 2523816 2598160
2388.42 2551392 2421982 2459220 2462852 2439394 2396116
2391.31 2432262 2312720 2266460 2372120 2348626 2340172
2394.21 2395734 2458246 2411852 2303096 2246720 2356080
2397.10 2418332 2400360 2317712 2205176 2112704 2171528
2399.99 2302168 2227038 2171976 2169098 2023498 1938446
2402.88 1889112 1861916 1908590 1885692 1851592 1730956
2405.78 1683902 1686504 1624928 1481124 1438950 1471756
2408.67 1328158 1284390 1366352 1338578 1300422 1301814
2411.56 1244194 1172376 1101848 1181734 1151394 1004148
2414.46 982132 1027050 978146 978170 1118936 1097928
2417.35 1013698 1033824 1010576 854346 812670 812460
2420.24 824104 897734 996742 1057104 1053226 1003924
2423.13 974914 1023440 1090710 1144848 1051160 890166
2426.03 936688 1060020 1061156 1107060 1125522 1119886
2428.92 1123596 1055680 1075366 1112276 1122992 1095828
2431.81 1142504 1153680 1072102 1120600 1138466 1113208
2434.70 1114462 1191190 1280478 1215474 1235838 1288930
2437.60 1156904 1144486 1316300 1377752 1282476 1298288
2440.49 1386664 1409388 1463856 1583386 1611448 1518156
2443.38 1605498 1616044 1481980 1596100 1923776 1942242
2446.28 1846216 2021568 2005002 1926682 2002710 2332754
2449.17 2293870 2144682 2308030 2278610 2273846 2376620
2452.06 2591584 2585022 2590604 2624138 2517584 2538856
2454.95 2675514 2736730 2606128 2454512 2392254 2483532
2457.85 2444156 2432276 2427202 2313606 2366578 2322738
2460.74 2178262 2162620 2188888 2202424 2192924 2213972
2463.63 2249234 2124756 2119986 2261544 2314516 2349806
2466.52 2399056 2478004 2669266 2874942 2948404 3017014
2469.42 3193886 3364482 3489890 3724912 3761276 3616710
2472.31 3564362 3592828 3822038 3905354 3708202 3600216
2475.20 3476494 3648854 4001020 3614082 3099498 2979254
2478.10 3081772 3504068 3402330 2755586 2694396 2795362
2480.99 2994256 3185668 2704234 2414180 2460272 2587936
2483.88 2877804 2679584 2343334 2437356 2561060 2696916
2486.77 2716842 2545776 2375292 2319756 2413538 2445066
2489.67 2242890 2171888 2148030 2140696 2123710 1948096
2492.56 1970996 2009728 1981746 2056008 1905818 1761732
2495.45 1818540 1881246 1863554 1657822 1537474 1490280
2498.34 1557106 1628192 1568052 1450046 1400926 1331214
2501.24 1287376 1366996 1334874 1254952 1190674 1151582
2504.13 1147076 1138514 1193090 1229226 1146786 1129244
2507.02 1124224 1039480 1052172 1068856 1043778 1012560
2509.92 1024220 1096282 1019342 968850 1040110 1000560
2512.81 991080 1076226 1054644 976082 952312 1006828
2515.70 984540 928874 929954 892740 880050 921042
2518.59 1006680 976844 873426 884648 934652 944474
2521.49 980766 975368 834630 846224 956032 936752
2524.38 946908 954856 930220 997652 1088660 1030060
2527.27 944012 981650 1024872 992818 937576 1012114
2530.16 1059992 1079782 1132654 1081618 1060296 973294
2533.06 957176 1110960 1129594 1011700 906488 965366
2535.95 1095184 1100078 1191886 1192800 1123410 1259474
2538.84 1331898 1291732 1232772 1275448 1352320 1253048
2541.74 1210170 1227732 1204198 1198240 1339522 1449634
2544.63 1420846 1438502 1382312 1283918 1277798 1511788
2547.52 1622292 1434310 1132724 1029450 1177712 1470634
2550.41 1604834 1382476 1062792 1070976 1333304 1641080
2553.31 1610302 1100316 981802 1186412 1287548 1517198
2556.20 1554156 1395652 1458950 1370498 1334844 1550980
2559.09 1491202 1250002 1226576 1283206 1452664 1790948
2561.98 1879354 1973276 2107674 1855444 1687106 1693206
2564.88 1589666 1518228 1590642 1585568 1602858 2176328
2567.77 2978540 3724276 3766976 2736074 1838252 1571446
2570.66 1425910 1260106 1207258 1118576 957376 830520
2573.56 910230 1054928 1073848 987764 893506 827556
2576.45 816780 959590 1024526 919010 833788 922672
2579.34 1121292 1273956 1132228 796100 780300 864546
2582.23 904846 1071564 1211642 996640 748874 758220
2585.13 802862 885192 847316 860764 880854 768642
2588.02 803408 880952 884416 905544 1002840 894086
2590.91 833416 871660 782920 788720 867182 853368
2593.80 685558 630980 658984 602320 522938 578470
2596.70 598314 526334 576682 594352 571104 606498
2599.59 686726 688708 504190 389992 429540 479934
2602.48 459998 404360 354618 256750 235356 332326
2605.37 386586 331772 339528 401196 325976 240748
2608.27 247434 233324 310792 332314 244776 215766
2611.16 173186 200338 211980 187572 245490 324250
2614.05 329380 312182 291666 339834 350950 182464
2616.95 125740 129088 71760-9220 25570 69400
2619.84 56810 135542 103760-75580-98838 13822
2622.73 4818-15962-6500 21798 12446-71506
2625.62-110198-108724-64978-14034-35548-63026
2628.52-77798-30520-3202-382 34204 64934
2631.41-8562-84090-65804-59298 3770-34984
2634.30-46896-41102-84610-113214-158104-110216
2637.19-152482-129334-55796-57030-101200-108258
2640.09-45028-186592-232110-137084-118858-144880
2642.98-23442 142122 118694-57372-108122-42658
2645.87-24858 8540-17924-4004-85000-157884
2648.77-159572-89462-91726-127002-53984 994
2651.66-16028 5490 63712 11798-51816-83180
2654.55-72602-29976 27362 106038 197146 146886
2657.44 7612-4964 108158 85670-54718-87956
2660.34 166 81994 117400 149622 161294 159086
2663.23 166026 214734 190996 75200 56864 21036
2666.12 99720 279976 316510 325664 254928 180456
2669.01 299036 359728 287318 234906 163392 255318
2671.91 362292 298028 321642 365158 367188 444790
2674.80 494018 404204 311836 344310 422400 475464
2677.69 607896 723322 805552 830286 822972 797062
2680.59 979804 1124240 1038468 1071048 1023984 964478
2683.48 1147662 1319334 1264194 1320840 1321802 1209616
2686.37 1372242 1630614 1742184 1777666 1672850 1659972
2689.26 1898250 1923590 1815290 1858382 2053236 2128896
2692.16 2132292 2117004 2124952 2338674 2465952 2413010
2695.05 2348100 2312624 2391410 2406596 2385802 2496198
2697.94 2412188 2321868 2248344 2203662 2396388 2787182
2700.83 2723990 2524742 2558358 2452678 2370462 2256806
2703.73 2155700 1992636 1966518 2047332 2067432 2128416
2706.62 2132526 2159940 2893920 3665044 3199368 2602028
2709.51 2445022 2335440 2344786 2326748 2430948 2616190
2712.41 2580398 2624246 2953250 3004214 2807476 2753222
2715.30 2731788 2772012 2805346 2790378 2663716 2568754
2718.19 2448488 2502810 2549552 2360212 2234016 2155684
2721.08 2046088 2036918 2084386 1927624 1747734 1639534
2723.98 1520136 1513852 1549564 1540064 1457100 1207442
2726.87 1082112 1056784 1026324 1079690 976388 833022
2729.76 875320 862604 801960 733880 615700 610618
2732.65 667978 623514 587190 625408 669674 694374
2735.55 609334 514204 557758 502398 425744 496602
2738.44 561140 556596 522014 627840 682068 647848
2741.33 649470 619292 505886 510984 599624 553762
2744.23 524434 455408 375206 370684 396744 359748
2747.12 344070 440096 396612 240776 263680 335818
2750.01 259088 270168 304654 286660 250360 131690
2752.90 112702 123934 131712 111630 148466 181192
2755.80 215304 186158 189468 191342 82468 147166
2758.69 184826 145522 190346 211822 230468 227622
2761.58 197558 199410 269658 288852 253328 335776
2764.47 376074 232562 118134 221936 436306 366034
2767.37 386448 562774 457312 360696 450216 572638
2770.26 544918 519386 434954 316334 486126 739300
2773.15 741498 769870 706706 620414 632836 561034
2776.05 640264 789304 684774 562242 640358 763508
2778.94 845638 935376 1015878 886598 701286 701676
2781.83 798332 931446 1093134 1089652 838334 756420
2784.72 853590 918514 1147822 1258312 1021402 732572
2787.62 630700 538596 572982 635338 701526 869038
2790.51 789640 621326 516124 454264 416994 479828
2793.40 411310 271166 344958 362984 469396 551568
2796.29 610626 541430 349330 486812 622296 483480
2799.19 500740 479108 358404 567466 766428 908188
2802.08 1141716 1082436 897220 993764 990258 987038
2804.97 991946 882570 852984 869786 847770 808312
2807.87 771296 759044 758080 693982 715454 567094
2810.76 396956 348184 317958 382376 441598 306184
2813.65 76858 56012 85390 112998 227912 301048
2816.54 280444 133982 113934 142430 168680 128746
2819.44 114228 192934 116538 234174 355050 316684
2822.33 181828 9304 61918 261192 277186 161052
2825.22 117706 68726 29158 92018-62748-357580
2828.11-597656-463172-90344-70008 90950 151528
2831.01 31538 171420 145718 10344-51678 57130
2833.90 30644-151608-116354-124124-273732-247510
2836.79-346370-475742-338050-352016-344256-369840
2839.69-475042-496088-396690-448068-658060-584848
2842.58-518938-609876-581610-614288-557358-555832
2845.47-557598-480898-492570-447198-552974-672358
2848.36-649818-623450-531364-526952-605846-500856
2851.26-371516-453228-524714-410432-409262-527884
2854.15-559824-497262-475568-433190-363750-348230
2857.04-442188-526016-462012-401746-380168-461684
2859.93-536588-592242-468996-142408-666 12976
2862.83-76084-104852-91496-145382-183222-165718
2865.72-219328-156474-149708-228188-32764 124346
2868.61 232102 5784-103428 141974 224434 223248
2871.51 77126-26734-17006 56822 117430 228002
2874.40 375914 368788 534820 724638 625182 446872
2877.29 415826 425970 417468 469774 489722 527758
2880.18 530890 449266 539106 769648 700982 553746
2883.08 538428 512428 621276 615378 607526 738682
2885.97 792666 913562 1185254 1419510 1335868 1133316
2888.86 1068798 1154948 1208114 1080278 962668 1142336
2891.75 1343146 1278470 1131046 1023686 1070818 1121588
2894.65 1134828 1139400 978332 815956 842306 992122
2897.54 1121510 1101380 963368 906776 1328640 1594464
2900.43 1224160 951706 820552 685722 772826 1163968
2903.32 1389870 1101664 869076 870156 854894 1027978
2906.22 1220346 1189838 1082990 1023782 1031398 1115222
2909.11 1164206 982332 898018 845596 748254 916560
2912.00 1132882 1011350 844862 955170 1087984 1031416
2914.90 984920 1048090 1199644 1287384 1114236 958146
2917.79 1104722 1394958 1614430 1446856 1009006 821048
2920.68 635690 547878 594698 521350 526882 548588
2923.57 473722 463892 413590 363816 292278 151904
2926.47 201692 260494 245274 370742 340166 139770
2929.36 193016 306438 378724 385044 286274 355828
2932.25 377422 443810 576870 296316 156188 321706
2935.14 274740 157822 311664 370992 273754 351966
2938.04 444772 502094 406044 383112 388618 292596
2940.93 346750 378284 232932 207974 93930 26128
2943.82 234476 301196 240424 94690-21022 58540
2946.72 208388 188566 126226 73194 79516 199860
2949.61 181140 194436 197616 100064 70024 163268
2952.50 166756 86270 93014 172394 147686-80102
2955.39-103318-24950 45828 119804 55810 70860
2958.29 108740 160756 206548 139094 63628 40270
2961.18 140550 185614 168512 187868 178312 226340
2964.07 267214 81564 18612 172294 182918 126450
2966.96 158134 297076 365276 391752 291976 338344
2969.86 407112 406568 598264 400042 244610 280048
2972.75 292586 486828 501012 334994 445584 452942
2975.64 407190 523908 530610 488870 462376 546868
2978.54 717630 850462 837798 774548 843850 917118
2981.43 1198138 1407046 1203614 1137778 1248848 1501488
2984.32 1651566 1553098 1382210 1360296 1564978 1758528
2987.21 1848168 1883094 1742038 1709646 1805422 1675078
2990.11 1705144 1716916 1569422 1483534 1451928 1313886
2993.00 1332032 1507900 1466110 1361486 1310170 1203892
2995.89 1305068 1672810 1597756 1484678 1653420 1567380
2998.78 1267948 1132550 1154102 1354082 1439856 1465098
3001.68 1750220 1918872 1993680 2058188 2181478 2319752
3004.57 2372146 2594368 2850728 2744270 2593742 2745894
3007.46 2865388 2972704 3187530 3034316 2796702 2701848
3010.36 2665080 2890354 3278674 3239112 2856734 2712710
3013.25 2706316 3049114 3645634 3819132 3808670 3908604
3016.14 4043574 4285420 4689894 5166186 5511536 5730074
3019.03 6021856 6506976 7138866 7806582 8379668 9024186
3021.93 9684894 10340920 11143640 12027340 12867900 13664610
3024.82 14691040 15751910 16683210 17751760 18710370 19704950
3027.71 20751300 21705950 22735240 23844220 24850310 25838650
3030.60 26614310 27273070 27983930 28672080 29466500 29794880
3033.50 29867260 29899390 29806510 29650120 29323670 28493810
3036.39 27401400 26647200 25893310 25214730 25045400 24749430
3039.28 23741180 22930790 22826360 23532960 26398760 32849200
3042.18 42736330 42287220 30912230 24222730 21658690 20101940
3045.07 19821520 20424400 21709680 23547540 25364990 26848440
3047.96 27966050 29152950 30760150 33418730 34680650 34074020
3050.85 34346510 34357400 33981820 33804640 33645340 33359300
3053.75 32892030 32459250 31962980 31295180 30628810 29716310
3056.64 28463170 27268070 26097960 24922630 23772060 22626140
3059.53 21395890 19967920 18629890 17437660 16576740 15692790
3062.42 14872980 13855700 12529480 11631340 10752530 9944206
3065.32 9524270 9145214 8452174 7826408 7511768 7178778
3068.21 6953568 6976808 6838496 6520412 6321916 6196522
3071.10 5980318 5849106 5767646 5686834 5621660 5338632
3074.00 5073062 5223614 5292936 5043740 4795856 4607874
3076.89 4429776 4529964 4848814 5044912 5165110 5043790
3079.78 4785598 4781214 4707368 4471556 4512340 4749104
3082.67 4932038 5457416 5885452 5753322 5893262 6213842
3085.57 6406110 7115238 7563110 7139640 7029854 7388270
3088.46 7651492 8395772 9050226 8739294 8365486 8485176
3091.35 8720254 9614958 10811140 10109660 9054562 9274794
3094.24 10021570 11091320 12618810 11873250 10400180 10414680
3097.14 11083540 11912530 13712360 13683440 11889040 11617890
3100.03 12526750 13652880 15935650 17123230 14927730 14109810
3102.92 15205650 16553280 18904910 21726530 20972190 20336750
3105.82 22044710 24596520 26047810 27876050 28045520 27165430
3108.71 28465040 30320860 33129740 37430280 39230420 38075350
3111.60 38742450 40344080 42278820 44614460 45846370 44353000
3114.49 43343940 43575020 43644840 43182390 42056630 40218020
3117.39 38399720 36434600 33611320 31017950 29187980 27335910
3120.28 25361060 23730980 23256920 24588260 29239150 37591000
3123.17 47326880 44589650 25830480 14197040 13736340 15378030
3126.06 17763880 20324170 23557010 27524130 30825280 32701730
3128.96 35163640 38335120 40507180 41607540 43016690 44372430
3131.85 44441180 43798030 43778540 43699350 43972430 44495390
3134.74 41949240 38663480 37531900 36769510 36912440 36826030
3137.64 32967300 28854300 27294120 26754030 27106370 26964880
3140.53 23414000 19365700 17913840 17330970 17506420 18291560
3143.42 16297390 12645610 11495790 11574500 12162530 13287440
3146.31 11899020 8645520 7621328 7708738 8221516 9925586
3149.21 9109324 6327274 5781012 6177782 6794284 8199536
3152.10 7818706 5997024 5550242 5441154 5865994 7210120
3154.99 6598532 4844094 4741592 5048200 5643004 6478008
3157.88 5512036 4319070 4376134 4404552 4969404 5439140
3160.78 4525780 3962386 4055306 4082220 4698580 4517868
3163.67 3410470 3196848 3339472 3542434 3897068 3391210
3166.56 2799388 2835742 2902466 3054194 3157034 2674334
3169.46 2245950 2262734 2511554 2671226 2480292 2139628
3172.35 1878106 1809286 2089506 2285538 1943550 1618832
3175.24 1506646 1640662 1863290 1708746 1574344 1625390
3178.13 1618860 1604466 1480360 1273574 1229408 1194414
3181.03 1096598 962476 894242 904702 1001254 984450
3183.92 719178 511254 436370 509458 688422 624962
3186.81 446154 423486 466300 486368 470114 268434
3189.70 14832 68794 124554 169890 232180 116248
3192.60 106570 6308-162360-160426-87666-20056
3195.49-67566-96642-120086-207178-270978-209344
3198.38-178974-184000-75860 732-47896-240590
3201.27-385252-418232-346540-381666-403282-324074
3204.17-379688-272762-203604-336154-313602-369148
3207.06-506448-403302-228764-376282-517504-228490
3209.95-322024-616890-540734-449928-282136-379452
3212.85-443300-340414-354386-418496-330112-215188
3215.74-337348-440748-357826-385480-570830-452942
3218.63-237486-178206-129090-184818-433968-423292
3221.52-265110-156632-214498-378680-400756-384204
3224.42-289112-150664-97462-154268-311336-488310
3227.31-606304-701860-628124-417978-378022-309344
3230.20 57548 333652 203160-42742-138598-188590
3233.09-147774-194744-278418-251650-150794-158704
3235.99-189420-267734-420308-343156-397996-445648
3238.88-564826-692492-650184-583412-482836-534524
3241.77-346552-312224-454954-526300-658656-567458
3244.67-494028-554380-611140-705460-738882-756920
3247.56-821066-743836-566266-426170-526542-666116
3250.45-573734-667446-714936-413568-402174-590914
3253.34-589366-501612-612432-665794-663912-595776
3256.24-522064-593140-590558-438648-322704-330820
3259.13-341324-359168-294120-277978-359132-456656
3262.02-443834-336288-284668-165674-92712-262492
3264.91-376474-287874-465584-678068-594730-490932
3267.81-486204-509986-310294-327660-500272-447144
3270.70-321132-195152-253258-405658-427894-391782
3273.59-407066-497584-491702-426704-318460-391892
3276.49-493788-380126-418428-431190-255314-242660
3279.38-301648-207612-234222-325844-424048-512096
3282.27-481074-403884-371910-240134-111262-146034
3285.16-182664-146482-159872-290932-381610-330322
3288.06-342084-357158-351002-278082-206164-333768
3290.95-481816-383986-235482-389954-219246-145418
3293.84-376952-322570-279140-234752-89110-27258
3296.73 6086-16246-184774 3946 132686-32444
3299.63 51822 17562-144834-140200 46340 48668
3302.52-92908-166212-264358-291954-293710-252650
3305.41-290886-274348-97910-19252-15208 133984
3308.31 137664 80476 162534 172736 72834 157658
3311.20 466914 419396 311022 367676 423308 507228
3314.09 564196 566426 647218 734408 824690 893866
3316.98 963152 1012926 1015962 1122548 1097418 1093064
3319.88 1284776 1350408 1145388 1046584 1119848 1108998
3322.77 1185826 1228962 1171930 1269024 1170426 1013578
3325.66 972066 1147648 1283292 1163148 878816 737446
3328.55 1017112 997364 761858 587068 451752 484278
3331.45 1002298 1179932 1415156 1774458 1425400 1234140
3334.34 1183254 1141088 1121750 1317606 1658246 1587734
3337.23 1530766 1734828 1838922 2040260 2202864 2181360
3340.13 2210816 2211788 2272310 2282248 2126636 2138306
3343.02 2144188 1957552 1807800 1740104 1662300 1700072
3345.91 1729790 1514214 1278212 1169586 912490 678350
3348.80 647418 672932 657044 603100 621612 702068
3351.70 632632 552032 396210 235714 224844 266764
3354.59 304730 321916 227758 329612 446714 347752
3357.48 502586 718260 816078 827040 751858 639698
3360.37 622456 761032 941908 809450 697730 647476
3363.27 523870 532378 551260 575622 545994 299160
3366.16 176002 316544 324618 191136 159868 51214
3369.05-50624 157528 305212 296436 250804 226578
3371.95 175510 14858 97468 335560 224544 47270
3374.84-5656-67986 101614 179932-54638-67460
3377.73 1494-67014 43032-126708-369458-101232
3380.62 95840 123436 122206-45772-60172-33784
3383.52-161562-192800-168224-159608-136070-174134
3386.41-240984-244030-330538-482592-458366-452724
3389.30-330550-228806-528860-529002-407040-148088
3392.19 238712 185888-80922-228402-241562-126028
3395.09-35260-292560-451400-307070-227848-374338
3397.98-466006-379122-585416-611494-383730-377334
3400.87-286650-89432-19854-126038-90812-134764
3403.77-310470-314288-292524-375272-410728-368706
3406.66-592254-772840-532686-296404-64526 45860
3409.55-204872-445192-408058-368060-380736-273302
3412.44-112392 2582-194336-416450-286088-129358
3415.34-228236-419014-362528-191682-250226-293306
3418.23-192856-49162-126810-115346-22320-95686
3421.12 40832-2910-208376-125868-93876-122270
3424.01-4026-192200-293962-119510-149040-346320
3426.91-200724-44470-212216-102834 2190-72818
3429.80-242742-286814-72400 42222 56444-38244
3432.69-70324-58400-303016-351462-95972-11808
3435.59-84684-120516-216670-349354-202240 102784
3438.48 221188 20540-256386-150478-76682-241906
3441.37-175360 75288 288774 188020-49736-134168
3444.26-143636-154264-339404-248344 246690 291430
3447.16-56368-165910-126414-78724 33648 185986
3450.05 92326-71886-38302 110444 140970 33588
3452.94 77580 50926 165690 269918 303430 336194
3455.83 273100 282774 322024 407586 95680-107020
3458.73 11158-42172-90058-44384 176878 129112
3461.62-41622 156604 136394-8392-59188-167358
3464.51-178112-90240-273748-316510-28682-63356
3467.40-43926-199386-280158 43658 236706 197902
3470.30 169938 83080 56382-1468-159636-88034
3473.19-136208-163968-56130 7166 119640 250076
3476.08 209812 79192-27180 30178 47136-58630
3478.98-61292-11026-7322-59714-119190 20472
3481.87 191910 242188 281146 332110 277532-9816
3484.76-42858 78248 149336 31670-9148 121022
3487.65 62218-167256-73022 157514 142026 110408
3490.55 99608 180950 117718-59116-149514 133632
3493.44 442988 408528 461444 538448 415472 387620
3496.33 250494 182724 396926 352894 292012 432428
3499.22 355866 208586 293520 445420 355402 347582
3502.12 565970 903372 1046314 819836 671702 451014
3505.01 190742 88336 157900 257476 174506 248130
3507.90 392312 497772 789582 637690 414694 539442
3510.80 457076 311038 268848 309896 490190 798288
3513.69 953988 779104 600116 567256 786406 1009508
3516.58 892784 865138 971500 1005998 896048 809726
3519.47 703054 558162 664694 867122 800790 688054
3522.37 783834 857894 856206 759480 715288 821058
3525.26 959960 798272 865700 1090302 938020 676564
3528.15 755110 751402 336146 379130 638426 501600
3531.04 337708 384864 418746 547152 803300 864760
3533.94 443852 209334 222776 382640 823542 716812
3536.83 478126 527806 430194 395964 356756 407800
3539.72 591470 592708 519282 455662 622974 743420
3542.62 760036 813570 798584 630378 926784 1122416
3545.51 636648 704180 1221446 815318 511348 699264
3548.40 425844 285820 386688 248344 51190 227210
3551.29 668420 814598 352848 260554 392112 136884
3554.19-89824-11676 166468 161488 126864 101618
3557.08 30476 3928 100252-34448-83080 464610
3559.97 518998 59364-12000 172328 234422 273046
3562.86 567362 598670 304934 333312 759818 1289534
3565.76 1699118 1790920 1122234 1813602 2543308 1277856
3568.65 498920 426402 503438 545744 385410 147548
3571.54 107918 220084 241322 300280 291048 253274
3574.44 221372 32054-49884 69410 351512 339576
3577.33 65596-101218 28924 324530 469268 495964
3580.22 141884 12164 252672 326324 339758 547452
3583.11 522664 195404 148430 469014 544844 1143816
3586.01 2681864 2053228 845932 992838 2765098 3103812
3588.90 1030196 516320 517244 266656 127612 233480
3591.79 396476 937506 1309374 846438 401356 600916
3594.68 1355828 1196732 748900 688370 524020 648234
3597.58 768408 703486 585982 701840 756866 866526
3600.47 1121546 709336 352606 424116 598366 525372
3603.36 479404 603840 545718 439140 524604 730334
3606.26 1630470 1840372 1019466 789528 1901040 4763006
3609.15 3467582 1084568 863622 715968 1026030 2101378
3612.04 3710004 2613020 1010118 1017564 1781144 1695870
3614.93 1189434 952636 912156 952898 1916764 2651264
3617.83 1858398 1358186 3705650 4967184 2107274 1104612
3620.72 1418386 959758 762072 825802 925394 875330
3623.61 705714 760088 1072518 1236208 1592798 1479852
3626.50 1426058 1591698 4684790 7244394 5120694 7541170
3629.40 6810008 2343758 1859230 1476714 1444832 1637464
3632.29 1503554 1819736 2780938 2106514 1339018 1580560
3635.18 1573076 1514162 1494654 1480342 1740652 1908094
3638.08 1588926 1462854 1563722 1613116 1502150 1458746
3640.97 1696370 2025262 1987940 1780488 1616572 1549938
3643.86 1727104 1853122 1818366 2100934 2727354 3572022
3646.75 5017976 4706192 3084144 4676550 9546028 7358370
3649.65 4017364 5331776 5647300 4805036 2789220 2193610
3652.54 2135538 1806640 1819946 1899868 2335220 2673026
3655.43 5390492 7268328 4108270 2396274 2227672 2065362
3658.32 2064558 1990950 2113374 2096420 2078532 1968394
3661.22 1917720 1699674 1605204 1648902 1581056 1469836
3664.11 1493432 1354264 1385062 1535960 1398328 1057950
3667.00 1318736 1630810 3725292 4748082 3054350 2695372
3669.90 7763966 10618670 4640814 1808634 1671564 1534744
3672.79 1737938 2228908 3448606 6553782 6702574 8389976
3675.68 9973600 4080212 1784514 1730524 1259196 1136348
3678.57 1845842 2372218 1422326 885336 565182 466870
3681.47 589130 564700 575120 517802 399956 487462
3684.36 460448 283892 220760 314182 761400 1139734
3687.25 2702370 9882404 9990370 2804674 1145122 1253406
3690.14 1965236 4019276 3446022 1060194 691562 557960
3693.04 530382 586396 596396 400318 300536 469788
3695.93 496146 292776 294122 376338 331998 302222
3698.82 340964 244216 237944 352842 1272956 2976512
3701.72 2153948 623888 375030 325124 346706 125728
3704.61 113546 268080 255230 96540 297402 171220
3707.50 294902 395932 1773218 3317028 1731838 577224
3710.39 1190580 1479670 5179344 7356366 2703242 430760
3713.29 354204 285660 731926 304118 1930 60938
3716.18 25638 12098 180324 260354 755366 1021936
3719.07 303476 46292 173804 134622 426044 1661514
3721.96 1844456 637604 118314 85676 408416 987426
3724.86 837730 491382 1785650 2207234 618592 171408
3727.75 92556-57814 58720 174214-11494 310930
3730.64 559464 2614498 6268670 4017196 710672 548386
3733.54 1164374 2799998 3800060 3336392 1950354 4821010
3736.43 5721618 1453016 794406 1482184 797790 319672
3739.32 174034 191708 764952 1534998 951066 521676
3742.21 733606 1612640 3887430 10661250 16730510 10081580
3745.11 2306162 1064216 596620 791304 943892 1272866
3748.00 1481802 6876148 11769520 5921322 1275604 1703452
3750.89 1909626 8137414 12144520 4753132 671288 651224
3753.78 229388 240480 224990 367354 1163014 1843696
3756.68 703076 179044 165772 301724 875142 2291494
3759.57 2358702 615822 17764-15734-174840-35958
3762.46 81972 109672 76232 52430-27088 1176548
3765.35 2142220 837664 11042-79108-97670 163548
3768.25 232360 734888 3127332 3094630 664260 69340
3771.14-76632-265820-327418-268896-183976-240178
3774.03-237848-196452-257016-59572 40406-104832
3776.93-32082 26616-120590 257502 1867202 1821284
3779.82 193202-247194-230950-101734-125508-212090
3782.71-192896-184310 1562 428438 258480-13600
3785.60-66186-193150-328088-386004-289774-197516
3788.50-154998-193290-396900-365130-66414-35376
3791.39-242482-376238-269472-204360-239694-136354
3794.28-163640 126630 549122 2199112 2299496 785168
3797.17 555776 311714 56582 269468 238570 891626
3800.07 1600730 6991830 10987390 4417018 1140510 1571320
3802.96 535162 211490 191694 204506 457660 818506
3805.85 1903768 6539542 5955572 1245356 286700 193450
3808.75-9388-230256-60532 88724 5836 37632
3811.64 128854 240504 150402 180826 262148 751252
3814.53 993562 4061712 11036110 8005218 1500288 924866
3817.42 671286 928318 787094 991404 1240732 3307140
3820.32 5111356 4742336 5647270 3084460 631664 776472
3823.21 630450 961378 794978 694544 916422 1196830
3826.10 2241550 2166016 986254 995108 1001908 775598
3828.99 779684 889580 1061800 1481822 3638140 4120786
3831.89 2078376 1612612 1723904 1796158 2249664 4572838
3834.78 4514740 2123832 2005938 2559208 4492610 12135660
3837.67 11417820 3805610 2441370 2915852 3110296 3273782
3840.57 4228060 3117748 2135110 2150788 2272912 3601688
3843.46 3692440 2122418 1493184 1336180 1258964 1407338
3846.35 1508330 1461510 1504306 1485348 1598158 1910982
3849.24 2380798 2235580 2327508 2433078 7369500 11422760
3852.14 6140582 3962664 9456238 18015620 15349240 5585320
3855.03 2790156 2545304 2588844 3321412 3408520 2747934
3857.92 2465566 2379810 2427694 2196712 2093716 2070998
3860.81 2866336 4119620 2900950 1820506 1795772 1918934
3863.71 1994618 3918426 5707666 2864286 1004150 945730
3866.60 802982 862928 895614 1490374 3048442 4214124
3869.49 7408776 5845786 1381984 1083988 664768 464148
3872.39 416400 869420 1923152 2808638 1626440 457474
3875.28 483560 318014 223412 167472 418426 511112
3878.17 614558 613560 1357098 3270978 2993978 1794600
3881.06 1123358 651482 573646 771232 955194 796052
3883.96 767176 1100800 4885180 6444438 2703780 1014312
3886.85 890310 666316 595344 790988 680536 517978
3889.74 595628 1965302 4911730 3734828 1224444 964576
3892.63 791476 988166 1102068 868904 833110 833474
3895.53 948608 989622 825812 902298 1263778 1289164
3898.42 2790464 4595808 2734808 1472008 1487568 2796980
3901.31 5180134 3608368 1920174 1723124 3165680 5479094
3904.21 3544918 1590560 1793224 1829850 1319756 1078812
3907.10 1173972 1233852 1278618 1246072 1121920 823852
3909.99 713792 802070 814422 661920 625490 626770
3912.88 685838 928938 783690 744338 965398 1274774
3915.78 1500864 1733392 2672536 2078830 1266996 1413018
3918.67 1246016 1908198 2580260 1724622 1176984 1207462
3921.56 1019246 1029690 1225844 1513292 1553770 1483254
3924.45 1904824 1835704 1226356 964206 655772 747234
3927.35 849374 781892 855958 1128878 1014486 841282
3930.24 850146 640060 753924 1479040 1646698 941782
3933.13 745310 835874 755272 490924 349212 312660
3936.03 260770 316680 490780 756322 702920 282788
3938.92 245076 454680 493830 456324 478574 378184
3941.81 807250 1359062 855582 513810 610152 611724
3944.70 506448 409060 366066 423402 650926 797828
3947.60 762124 609914 438090 918368 1241644 705272
3950.49 313372 425998 622850 522316 400604 401850
3953.38 466230 531690 582246 548338 494150 485948
3956.27 599776 581138 445286 478258 469440 529346
3959.17 580146 562338 637118 756914 899160 899268
3962.06 698720 462712 334568 424664 492554 594108
3964.95 616602 516244 548144 578032 687496 925754
3967.85 940840 913958 996688 978578 1001792 929300
3970.74 870200 1070808 1104152 1094198 1042094 1110518
3973.63 1111452 1195816 1591526
##END=
