##TITLE=Acrylonitrile
##JCAMP-DX=4.24
##DATA TYPE=INFRARED SPECTRUM
##CLASS=IUPAC A
##ORIGIN=NIST, Anayltical Chemistry Division, 301-975-3108
##OWNER=COPYRIGHT (C) 1998 by the U.S. Secretary of Commerce
##DATE=98/10/1
##$SPECTRA VERSION=1.00
##$UNCERTAINTY IN Y=2.0 % relative (B=1.0E-04,C=6.4E-09,D=2.7E-14)
##CAS NAME=Nitrile-Propenoic Acid
##CAS REGISTRY NO=107-13-1
##MOLFORM=C H2: C H C N
##MP=-83.5 C
##BP=77.5 C
##$NIST SOURCE=QUANT-IR
##SPECTROMETER/DATA SYSTEM=IFS66V (Bruker)
##INSTRUMENT PARAMETERS=KBr Beam splitter; MCT Detector; Multipass cell
##STATE=gas
##SAMPLE DESCRIPTION=Acrylonitrile Primary Gas Standard
##PRESSURE=101.3 kPa
##TEMPERATURE=23 C
##SAMPLING PROCEDURE=1 L/min Flow
##RESOLUTION=0.9640
##DATA PROCESSING=Boxcar Apodization
##XUNITS=cm-1
##YUNITS=(micromol/mol)-1m-1 (base 10)
##XFACTOR=1.0
##YFACTOR=4.5474E-13
##DELTAX=0.4820
##FIRSTX=575.169
##LASTX=3975.077
##FIRSTY=3.99E-07
##MAXX=3974.59
##MINX=575.17
##MAXY=.0005176
##MINY=-5.57E-07
##NPOINTS=7053
##XYDATA=(X++(Y..Y))
575.17 878078 556380 1842388 242748 1857598 1233552
577.58 143466 1341208 1045350 976728-422196-211312
580.47 53738 25170-359822 780946 1139616 994074
583.37 520318 265242 1082290 200180 422416-383892
586.26 1797252-231054 1555706 119382-38372-199538
589.15 433404-57540 681410 2142532 784508 621984
592.04 1300542 532040 1154716 997108 985738-13168
594.94-503862-202174 972500 888704 270716 1527858
597.83 1108510-229394 567230 396342 1124240 745834
600.72 1008838 467656 553548 305414 744752 826894
603.61 1041880 323492 637124 1765466 1187998 882398
606.51 726270 938110 1545658 390936 1153918 1090840
609.40 1253746 1437548 1793618 871618 1698032 1407816
612.29 2222598 1371590 1794586 1522166 2387356 1872614
615.18 2255240 1555036 2402916 2337570 2406688 2460994
618.08 2738254 2066524 2556718 3310366 2988828 2718016
620.97 3390530 3075454 4446878 4008630 4103698 4297086
623.86 5226582 4404520 5433440 4765294 5093612 5288286
626.76 5984256 6093374 6220896 6577246 6931096 7011750
629.65 7505592 7613298 8573962 8393466 8802220 8165768
632.54 9399640 9440134 9810362 10117580 11836760 10280990
635.43 11441710 11760430 14052140 12043230 13707790 13661160
638.33 15795050 13825710 15093500 14425540 19463720 17764550
641.22 17338420 17484830 18912780 25220150 19547340 21910370
644.11 18328320 25811110 27892870 24110070 25269970 22065380
647.00 31312710 33258650 28887830 29284420 25487100 35893670
649.90 40220900 33179050 33699240 29083260 38453680 49607150
652.79 38269900 37055030 33078060 37032080 56578520 47206000
655.68 36776400 36646730 32526070 55480400 61354680 39712770
658.58 39505860 32479300 43417340 72233340 51877740 36113880
661.47 38497890 30156770 60262110 68420530 39785440 39624320
664.36 33335390 36555830 71547250 64273680 37675640 39227580
667.25 32552850 44557700 76038880 50361160 36469020 40297250
670.15 34386850 53514860 63957290 41946980 40118800 41323130
673.04 43657730 51184370 51010940 41816220 43311490 46197000
675.93 50298060 50602230 50991670 57030480 63599300 69134340
678.82 77387520 97928750 105598900 102860100 122930700 174882600
681.72 236278600 140801900 88953680 71806800 59938240 54222420
684.61 47599260 43977020 42579640 40157770 40429340 41472280
687.50 38480230 35503820 39717920 45593440 37904020 37023300
690.40 38988780 34892180 38636770 50890410 54014240 30310210
693.29 41651480 34664410 37351240 42122850 69305220 44032620
696.18 31332940 38298920 37317220 36147020 52157180 70803680
699.07 32057620 34264680 33680600 39419860 35354190 60179050
701.97 61641170 27337690 35934310 30173990 39542840 36391530
704.86 62670870 50506610 26358410 32913950 28921420 35137640
707.75 37667170 60137680 41073840 25622030 28973310 27420710
710.64 30971210 37961220 54825510 33633350 24240860 24193470
713.54 24917400 25592140 36211630 48002330 28539080 21914900
716.43 21129370 22006700 21465900 31393630 43002090 25165280
719.32 19945440 18030970 19684090 16856450 25570560 36632570
722.22 22394230 18009420 16508330 16829630 15329370 19200180
725.11 30467550 21133820 15960340 14382530 14730000 13487650
728.00 14097770 23621110 19586270 13494530 13369500 11877400
730.89 13161690 11856230 17959010 17232850 12154030 11403890
733.79 10646140 10376010 9828604 12475960 14699850 10579170
736.68 9732852 8817688 9040562 7833762 9254394 11147610
739.57 9885704 7969646 7685390 7058968 7376328 6521788
742.46 8757644 8180626 6821748 6107658 6071082 5704112
745.36 5999352 5715918 6977224 6044412 5210086 4963996
748.25 4911722 4589930 4476414 4618558 5244412 4949968
751.14 4537928 3788944 3909644 3498314 3647816 3918482
754.04 4331138 3555770 3746966 3135764 3542140 3028874
756.93 3500960 3274194 3856646 4010262 4225288 3971144
759.82 3707760 3085132 3473482 3395496 4044888 3683262
762.71 4262654 3446076 3953342 3142860 4217818 3855248
765.61 4512622 4655224 5148924 4789298 5530058 5208132
768.50 5742460 5802778 6955042 7312638 7719420 7443868
771.39 8337362 8310024 9327856 9377650 9812614 9789566
774.28 10292220 10326880 11028930 11060700 11262880 11126560
777.18 11293730 10712650 11417830 11175450 10920630 10440910
780.07 10250120 9343630 9931812 9199196 9273596 8413074
782.96 8520988 7778088 7828708 7157252 7608214 6399702
785.86 5885950 5413958 5117474 3919482 4249640 4401658
788.75 5525238 5600186 6546088 6818794 8186296 8024808
791.64 8751646 8418326 9494680 9097118 9639980 9511322
794.53 9486364 9555576 9314174 8884354 9207960 8461248
797.43 8494044 8060092 7885686 7138040 7022622 6219362
800.32 6645420 5659092 5639620 4877104 5019784 4325904
803.21 4013888 3460298 3555864 3055442 3186322 2345544
806.10 2381338 1905846 2180414 1700668 1970540 1015330
809.00 1478900 1086576 1346640 438942 1228252 793886
811.89 988650 242498 696354 625582 834166 253516
814.78 696348 49506 345240 37330 800718 553572
817.68 456150 280816 666190 251240 421422 36250
820.57 287066-160828 837480 306760 828844-28826
823.46 455726 162612 537760 90444 554816-151070
826.35 658756 83386 718514-278014 194312-157378
829.25 462824-38308 545828 146268 524660 58126
832.14 668736-99944 675352-61392 754776 105354
835.03 452080 94612 612430 217440 864248 376470
837.92 1269530 316106 992548 814776 1385858 854700
840.82 1621874 945180 2041450 1150252 2164392 1711942
843.71 2558338 2384412 3091768 3002748 3818616 3451416
846.60 4612060 4191216 5352724 5205582 6278846 6406108
849.50 7094572 7153530 8591862 8696750 10010760 9793064
852.39 11024890 11145790 12650000 12809830 13988800 14080890
855.28 15357360 15605470 16589980 16897440 17738540 17673180
858.17 18764740 18426140 19132950 18942420 19373210 18575530
861.07 18775700 18131720 18207560 16823590 16516590 15237170
863.96 15021730 13256680 12963100 11056490 10876480 9948998
866.85 9586868 9163132 13297850 34693310 14110180 7008274
869.74 10366120 11487770 14566180 9214462 9663210 10264730
872.64 12380140 11594040 13242110 13143010 15153650 14990930
875.53 16868200 16784010 18300520 17668370 19096920 18582610
878.42 19766730 18807710 19546760 18326360 19174800 17957000
881.31 18416230 17082760 17391340 16045040 16950670 16109420
884.21 15775130 14512850 14894480 13454940 14992970 15056320
887.10 14636050 13347080 14136820 12886330 13969530 15910890
889.99 16324160 14229630 14898420 13771840 15324410 17025410
892.89 20421380 17326820 18078510 16263370 18003920 19368970
895.78 26205340 22633480 23618970 20059020 22401510 21595240
898.67 31746120 30208530 28453700 26545940 26740780 26874770
901.56 34740190 40290320 35214600 33762920 33671760 33349710
904.46 38347450 49298470 46633430 40500660 41567720 40729360
907.35 44103200 55488760 62449280 50450440 52156270 45988890
910.24 56519150 59426640 76079540 68599260 61601300 57922860
913.13 58382600 65239940 84216180 92444820 75827210 70388210
916.03 64885440 74444460 84241640 116214900 100176000 87222500
918.92 75304500 83910600 85402320 117992300 137714900 106100100
921.81 96384730 86481590 102008900 101989400 164628500 139348400
924.71 124677200 95375750 116724300 99820060 153999300 182126700
927.60 145794600 128444700 112084600 127862900 114874700 215654700
930.49 175964000 158045900 129947200 145934400 119589200 175554200
933.38 242220800 159016100 160615700 141714800 156875900 118619800
936.28 255021900 207137600 161579600 150183000 186684400 128645600
939.17 197452700 253044200 171770500 149517400 186761700 189431500
942.06 151234800 247175200 185929900 166158900 181841400 254969100
944.95 185242800 218335200 201055800 179665600 189807100 267678900
947.85 325405800 204529400 222037400 180058000 199877100 220210000
950.74 339358800 232286100 282689600 300839000 555616400 1138402000
953.63 617468900 424851100 284716600 247718000 221385700 214330100
956.53 231310900 293842000 195377200 189591300 208997300 202956800
959.42 176969300 240377100 241567400 214458800 225867200 226531700
962.31 190623800 204172500 304755200 257525900 202597100 204663100
965.20 177446600 215043900 342962500 256854400 194347100 228665200
968.10 225227800 322934400 431755600 391299600 383848900 716641000
970.99 514689900 330525400 390740600 238836500 216606700 199932500
973.88 196053700 278615000 309746800 196584500 190399000 169855400
976.77 187689100 274107100 272658500 190596200 181175300 154023000
979.67 215707100 269401300 252112600 207307100 161818000 157164000
982.56 238953500 241530800 234846700 205748300 141407600 177932800
985.45 240763000 203375400 223388700 193317000 146883900 194888700
988.35 200569200 174561900 214918000 175924600 160330900 192190000
991.24 151765800 173604300 200611900 173558400 162400100 148460600
994.13 138986200 168163000 193167600 163144600 123527200 135516200
997.02 134870900 173895500 177415000 115249900 120516500 126186800
999.92 139911700 167473900 119870300 104352800 118396500 120976400
1002.81 138948000 124226000 95223380 105349100 110164700 112718600
1005.70 113577900 94123420 84079980 100650300 89485620 99239570
1008.59 86618100 72980730 82753950 77737350 80485400 79371200
1011.49 63200540 67848320 64628950 67573310 71405650 58287240
1014.38 54693500 57853630 56294140 65601380 51099900 50713710
1017.27 50326220 49257860 53454570 47250090 42953620 44995330
1020.17 43321680 45210450 37869520 39798600 36618870 37645680
1023.06 36633460 32450460 32704430 32101080 30787240 29931960
1025.95 25556630 27318900 24843330 26876290 22659250 21714080
1028.84 20270460 21530120 19893250 17615710 16614650 16891820
1031.74 16136240 15650570 13067610 13708960 12462930 13060800
1034.63 10773710 11152540 9889450 10580380 8409860 9234078
1037.52 7855444 8450032 7179512 7310410 6492046 6983778
1040.41 5773078 5901856 5119532 5745576 4795008 5153308
1043.31 4147444 4838448 3948712 4449374 3723214 4216030
1046.20 3193252 3922338 3215974 3444608 2789674 3507832
1049.09 2741728 3368644 2528954 3147070 2597840 3298700
1051.99 2613954 2864790 2369598 2903860 2383460 3322490
1054.88 2475074 3098212 2247838 3193160 2747166 3154150
1057.77 2557212 3028424 2333886 3104920 2824164 2989146
1060.66 2234848 2726446 2287808 2947592 2557160 2744130
1063.56 2076236 2541026 2292450 3391958 2428210 2807160
1066.45 2641242 3118070 3386664 4463436 3273546 4196216
1069.34 3837082 4597172 5262482 6167404 5500886 6605464
1072.23 6454274 7362200 8522964 9674328 9615628 10758330
1075.13 10937020 12530480 14070380 15396830 15287740 17142900
1078.02 17798060 19355160 20915900 22492400 22488000 24621840
1080.91 24742360 26102910 27383000 28050270 27714960 29122560
1083.81 28844050 29714370 29488140 29536150 28364340 28301840
1086.70 27146130 26234710 24260220 23576830 21672280 19375020
1089.59 16879880 14888880 13088960 11263070 10048830 8953256
1092.48 15872750 25750730 20626750 18803750 18033440 19971420
1095.38 20275660 19665490 14966560 18387190 17132450 15882010
1098.27 15891280 17530110 16706700 17541900 17840530 18461340
1101.16 18217990 18982940 18802420 19372350 19294690 18846250
1104.05 17845190 18338320 17223310 17082100 16831090 16192420
1106.95 14305070 14262320 13147320 12764880 11654010 11999970
1109.84 9765686 9723244 8125470 8741468 6926216 7579134
1112.73 6318140 5480938 4673134 5033978 4015928 4036324
1115.63 4061424 3135030 2466000 2683046 2463734 2141192
1118.52 2101254 2061288 1337634 1416140 1436216 1604102
1121.41 925420 1881664 817716 1154814 544528 1435700
1124.30 581960 1325738 637140 916634 369452 1040650
1127.20 427236 1052894 728822 887546 389678 933202
1130.09 388908 803798 666180 724690 356190 811594
1132.98 400982 666006 414874 674070 345528 708754
1135.87 196352 702916-34870 684398 269148 513570
1138.77 260466 639598 87896 733502 196000 520028
1141.66 220808 476604 44528 654322 83938 449710
1144.55 83350 460898 99258 409316 61456 406270
1147.45 96682 356664-51140 443614 119868 440182
1150.34 66910 400088 68616 352718 78378 355644
1153.23 235198 438352 84276 472898-11916 520668
1156.12 110966 347082 28260 466384 229600 470170
1159.02 151580 650216 198668 580378 121800 561194
1161.91 173592 491756 158288 445366 291430 648880
1164.80 217758 495112 255728 497816 343646 630646
1167.69 241868 718254 320506 557240 244742 555132
1170.59 447406 564246 478806 576676 403944 600234
1173.48 321236 591308 395450 715776 292642 494780
1176.37 279778 545052 320094 725028 337262 575412
1179.26 269082 612326 387288 476970 251474 582528
1182.16 355716 704890 167898 425022 212322 592254
1185.05 553214 646768 261678 537074 167250 565896
1187.94 599490 530862 332604 677926 236386 848738
1190.84 562554 552096 371218 707354 358992 681776
1193.73 581312 747684 421750 600232 423244 708420
1196.62 453316 622504 482382 804844 427328 744494
1199.51 450032 683264 613912 901810 692924 821124
1202.41 675158 1037974 1747214 2248456 1225634 1168458
1205.30 781136 888222 533546 919362 600068 1062268
1208.19 1051792 987436 631924 743888 493672 637922
1211.08 327564 815848 628020 847604 484734 609524
1213.98 379688 813154 602468 682356 537102 558586
1216.87 439428 541840 538826 849414 418994 642654
1219.76 297202 621496 509356 941336 494632 717424
1222.66 399068 492836 317282 836558 687024 787488
1225.55 350812 604926 208266 562724 498170 829910
1228.44 575746 619922 378134 594596 367128 779094
1231.33 699098 652562 449082 587004 319466 497542
1234.23 415452 741844 442802 490762 228954 444838
1237.12 376606 591976 420702 591084 340334 544104
1240.01 351390 412690 284768 572930 442836 347878
1242.90 231432 573460 280848 534290 291944 464436
1245.80 367212 463908 282162 392756 306284 475108
1248.69 277340 496748 272938 399486 267444 506592
1251.58 456782 645478 385172 538624 397672 859384
1254.48 505442 689406 638566 601346 633570 932390
1257.37 887914 1084764 994700 1224206 1471842 1674922
1260.26 1486256 1757222 1583532 1987884 2232328 2580036
1263.15 2526432 2937404 2874648 3300072 3524022 3797648
1266.05 4023554 4271238 4288244 4842092 4889894 5127886
1268.94 5405634 5484500 5605976 6141228 6072748 6128620
1271.83 6078482 6246228 6155048 6327394 5984666 5909186
1274.72 5723318 5551562 5269846 5132632 4863504 4776270
1277.62 4530770 4546170 4044176 3731068 3156700 3056804
1280.51 2842554 4336902 5100410 5867282 6391164 6573252
1283.40 6403920 6281538 6271072 6526150 6401952 6829608
1286.30 6975500 7157154 7352788 7626506 7636014 7985886
1289.19 7927400 7974726 7864030 7897662 8048214 8005138
1292.08 7734978 7653916 7118052 7189530 6968004 7010602
1294.97 7106758 7160200 6347928 5819752 5430188 5124054
1297.87 5152702 4816022 4350970 4118686 4159632 4254600
1300.76 3711950 4026686 3574556 3741634 3811870 3834364
1303.65 3793244 4040416 3848560 3851756 3907060 4065400
1306.54 4034530 4193592 4480134 4702430 4653398 4900382
1309.44 4807074 5035082 5192044 5477708 5623710 5845310
1312.33 5672646 5991752 5905502 5943662 6072322 6273264
1315.22 5948508 6008424 6102902 5845314 5858700 5698528
1318.12 5656710 5574486 5438136 5147152 4942708 5073186
1321.01 4966080 5069980 5300444 5527452 5292384 4688992
1323.90 4201194 4297324 4386432 4659102 4520596 4489514
1326.79 4289370 4511670 4999496 4913704 5029240 5313434
1329.69 5842000 5559504 5586368 5576512 6402524 6412098
1332.58 6185588 5984628 6664378 7043176 6411300 6440134
1335.47 6300384 7597314 7280558 6356970 6097548 6872630
1338.36 7842418 6962636 6413514 6192854 7382230 7496096
1341.26 6121224 6171888 5521302 7152974 7569546 6037584
1344.15 6210788 5878792 6836032 8139252 6889284 6362372
1347.04 6404342 6269880 8271878 7976974 6898856 6768874
1349.94 7032906 7649178 8673962 7286532 6993548 7073858
1352.83 7583960 7742728 7462606 7028100 6968824 7086202
1355.72 7164096 6257956 6441878 6491396 6236360 5993746
1358.61 5828954 5215450 5802216 5327664 6892322 6166358
1361.51 6007468 5824154 7478890 8027130 6909602 7188634
1364.40 7019316 7413234 8591620 9142616 9028948 8068892
1367.29 8851390 9031004 10688430 11474250 10082930 9301708
1370.18 9918324 8805752 11490620 13291490 12708990 10060890
1373.08 11116070 10608260 12922470 14279900 11452440 12321380
1375.97 11068940 10024420 14819570 13329930 11420740 10821200
1378.86 12985240 12133550 16674060 13394160 10259230 10847650
1381.76 10996050 13354940 20429090 14343090 11069500 10149980
1384.65 11761080 12011830 24035400 18273540 12722490 14735670
1387.54 12715310 13829890 24734590 20327450 16455450 13950910
1390.43 15477110 14515670 30420860 26012650 19830860 18653650
1393.33 20970010 21383980 33895600 36342560 26247610 25666000
1396.22 25420110 28578980 39572090 45054760 38173040 36493790
1399.11 36233940 36373620 44721260 57621170 46784170 45437600
1402.00 44812790 47251920 50394250 61811960 55071970 52943760
1404.90 51845980 51656960 52803430 54442130 51323020 48664390
1407.79 49724270 45379890 41143230 38437140 39443070 36099980
1410.68 29711710 27785280 24411350 22730980 22398560 21487830
1413.58 33142270 92080420 44811030 28215410 23555520 26863940
1416.47 26114700 29669860 33530430 39648050 39380850 46768450
1419.36 46527220 49025740 50110810 49824640 55924140 54517460
1422.25 52379150 51588620 52709780 52151300 60752660 55131020
1425.15 47340560 46538750 43270980 45495330 52232400 45577680
1428.04 38637840 36276780 34130680 35668720 39839480 41988680
1430.93 25638580 26525760 20553720 22704070 23253940 32297540
1433.82 17611060 19839970 16510550 18703360 21040980 34450950
1436.72 20626420 17675290 15737180 17135890 16627950 24741350
1439.61 19208040 15168390 16131600 16473890 15211720 20567000
1442.50 18697650 13453580 14544020 13693230 12982850 15843390
1445.40 16263390 10892110 12429220 11707420 12318860 13509570
1448.29 12503300 9087060 9560986 9505554 8178258 9595112
1451.18 10006120 7794212 7656270 8223698 6651886 7201618
1454.07 7981896 6764938 7303980 6697568 10569380 16385520
1456.97 6241710 6794110 7799984 5760448 5564872 5762230
1459.86 4847662 4546550 4526696 4178670 4116306 4640036
1462.75 3735910 4837564 3153912 6546904 6021712 3120030
1465.64 4231428 3232880 2881622 2907236 2857792 3324018
1468.54 3186660 2334836 2392756 2262748 2683612 3217458
1471.43 6373864 4791616 1052960 6858882 4405560 1746314
1474.32 1893098 1540342 2142620 4243918 2144494 1510694
1477.21 1283312 1429680 1169222 1541848 1011526 1283116
1480.11 968162 1728036 1370236 988552 804508 1026626
1483.00 760982 1004638 625828 907058 600708 1015566
1485.89 706440 1118178 2715148 1171906 382016 1150886
1488.79 871008 2726214 1089366 2550966 1517904 193840
1491.68 702638 161108 565518 125632 653998 22188
1494.57 1124758-263380 5281888 5463124-767248 1330314
1497.46-428862 1979052 2990390 665744 190624 519006
1500.36 113844 585600 482454 579736 64148 538332
1503.25 62430 670980 68486 2554952 9282816 891204
1506.14 3879424 9659358 1394048 1210602 2216346 679282
1509.03 897896 1482798 35042 700020-156602 1392414
1511.93 2304888 226456 122330 301784 145394 1253488
1514.82 952882 121824 1381136 1561486 2435650 2668352
1517.71 73254 511736 335660 476484 3368342 582924
1520.61 7010872 6322852-1225102 4471970 947912 961822
1523.50-304754 1151538 280130 4612356 916498 481050
1526.39 252232 2035292-79314 1302378 739524 482094
1529.28 86572 464184-65976 735170 694076 601428
1532.18 261642 2368290 2345802 3697264-505826 1231332
1535.07-275216 1232654-462136 1432200-537076 2348438
1537.96-82310 11494640 4984402 2438340 8307566 1017506
1540.85 560294 4713380 6481712-99784 2010602 1027760
1543.75 881502 1168318 4357742 1035316 700578 583644
1546.64 685578 692130 648296 853382 845282 1606094
1549.53 1956748 1714658 583940 1164536 481902 1187918
1552.43 727932 1460470 1339370 7409808 1137916 1629768
1555.32 375112 2196756 49912 4993696 4201140 7124632
1558.21 10865170 1330210 5342746 10653070 5931574 147424
1561.10 2437892 619454 2280476 920256 2105858 1053872
1564.00 2341440 2784390 2306960 1522632 2047296 1441814
1566.89 2119528 1722358 2466842 2795658 3300150 6279822
1569.78 3032400 1945510 2963372 2372002 2573392 2064404
1572.67 2766072 2285794 3593058 2901254 3709634 2443778
1575.57 13472690 8399362 2688968 5223318 2770588 3506438
1578.46 2823982 3768516 3689666 5486978 3781700 3600110
1581.35 3372344 3938178 4193486 6243584 5182262 3926220
1584.25 4023830 4236884 4881146 6777238 7119562 4850746
1587.14 4979988 4922618 5568980 7435936 9078746 7314122
1590.03 6498154 6983408 7690820 9077718 12350660 11705680
1592.92 9553830 10339180 10638920 12608880 14926030 17809810
1595.82 14689930 15717560 15822860 18099250 19615900 24228550
1598.71 22306280 21566810 22884410 23920390 25668780 28673570
1601.60 30472480 27533570 28728270 29045430 30482910 31546950
1604.49 33377850 31558820 30454840 31206440 31005900 30367380
1607.39 29640240 28806900 27343870 27809790 25320560 23557660
1610.28 21654670 20676020 21083850 19032610 17115720 18247680
1613.17 19888640 34610410 39580330 32062930 25418310 9499116
1616.07 22000460 19786370 16318800 18504010 20732240 23036490
1618.96 27472510 29417920 30411000 32270190 34124290 34530810
1621.85 36870810 36717940 39195420 39794920 35253290 36998870
1624.74 36324480 35863900 35357990 33160980 31014670 34475430
1627.64 32042940 30136230 28588810 25695910 24689390 27314750
1630.53 24233840 23332380 22139750 19960570 19426430 22120130
1633.42 18609650 19872810 20357630 22104290 24179850 20312550
1636.31 18619780 19457280 19970150 16015030 17997850 20062830
1639.21 19261340 19323610 19910390 17503870 19285130 20301050
1642.10 20790590 20104530 19841310 18070540 19513650 18531550
1644.99 20171320 25726970 19100420 16468390 18623590 15161590
1647.89 17506520 13800390 12970790 11637860 12970880 10137790
1650.78 12557610 8671474 20683370 21127470 27204040 23121240
1653.67 14775360 17816760 11878770 13744410 12942840 16507580
1656.56 13724960 14491930 14117720 16282190 16425720 17334180
1659.46 16409190 17079200 15445580 17038640 16425790 17233690
1662.35 20030150 18143330 14635860 15147800 13825050 14738690
1665.24 13437400 15945530 12999030 11954250 10729950 12118760
1668.13 11089070 15178380 15410540 8675592 8490362 8118778
1671.03 10484180 8668170 8800722 7757292 5803324 6217958
1673.92 5382278 8959474 12027250 7559644 4906910 4210156
1676.81 4197044 4649662 5002270 5338076 4729742 3564536
1679.71 4139046 4102116 3633796 4429904 4625424 3080448
1682.60 5583514 5421138 4127274 10306120 16565470 1458286
1685.49 4094144 1380980 3341204 1747206 4481160 2940008
1688.38 2991782 1786080 2963910 2165474 3118658 2449920
1691.28 2428226 1546376 2306144 1114408 2637464 1954626
1694.17 3046654 1194608 10288340 12147070 801230 2809460
1697.06 2263252 1527130 1552494 1602838 3438128 9702356
1699.95 7836508 6660028 1155992 1451294 993630 1155670
1702.85 1308124 1155242 2854012 2182726 661960 1183280
1705.74 2914508 2295850 576370 1142670 442474 945446
1708.63 541696 974152 1182376 1045634 326010 722274
1711.53 500598 756176 776056 648164 1518484 884568
1714.42 2192540 3641002-380772 2015034-430618 10741280
1717.31 3827104 1029992 4116400 340260 987078 249238
1720.20 569320 305538 589610 306428 516734 597668
1723.10 1087774 341664 531020 263592 478676 325640
1725.99 580884 277548 510856 295472 584678 267252
1728.88 604672 1236246 1503968-21554 849766-92530
1731.77 1482100-672898 6692732 4086938 2124130 8858936
1734.67 373820 1480736-127638 875428-62190 996682
1737.56 62464 986450 13822 2496040 4149536 516844
1740.45 558396 417274 450700 581504 1003224 1409666
1743.34 744576 764196 622618 587920 779572 759240
1746.24 702122 1439878 629960 1035738 1905602 1307848
1749.13 689648 789094 423500 3819898 4663468 124372
1752.02 660008 373312 364596 290202 287962 339846
1754.92 377764 241090 478904 2560510 292452 397176
1757.81 122888 357640-178 403442-32964 650544
1760.70-179518 3076328 2052260-268770 435312-40894
1763.59 246046-37000 263128-5910 300122-97704
1766.49 509460-439552 2377056 2450028-505512 458858
1769.38-116202 406512 260424 2820672 156098 1550268
1772.27 6944064 771856 213360 192364 128170 449184
1775.16 896706 677020 507564 241702 205956 385626
1778.06 164896 302964 126402 112478 962222 893560
1780.95-245980 306626-120208 296682-167964 379684
1783.84-417944 1612676 664906-41366-10066 58328
1786.74 48000 51596-24226 200880-84298 398130
1789.63-65762 832798 1074936 398708-192676 4180784
1792.52 2388928-270864 489056-258340 241370 2582
1795.41 551012 178566 34204 54750-28678 44896
1798.31-79862 659226 1443932 13304 51594 628996
1801.20 397676 198448 851934-159124 182382-160854
1804.09 233976-30552 148992-39802 183916-90810
1806.98 276074 133858 106368-5698 134944-31554
1809.88 620482 734026 122192 187156 288724 150148
1812.77 115808 90828 139580 121646 163848 39704
1815.66 206698 176294 276632 463486 243908 310896
1818.56 357010 418462 419074 340410 536024 393274
1821.45 514386 589258 759608 517966 670320 557710
1824.34 1381860 2771916 917728 1049326 971882 1113598
1827.23 1033660 1189752 1336622 2088210 1664328 3763480
1830.13 1742480 1378228 1505764 1490616 1564892 1563886
1833.02 1579120 1511488 1571596 1393092 1435896 1381178
1835.91 1415750 1510144 1671584 1191528 1269804 947950
1838.80 1077400 851138 1071470 865578 1139980 939884
1841.70 1653362 1099506 1367270 813042 5443592 3135040
1844.59 721860 1693876 1004936 1539476 1280636 1916768
1847.48 1896844 1616980 1779680 1796634 1960310 2131050
1850.38 2059428 2092160 1953272 1941772 1913460 1878956
1853.27 1941936 1916834 1760528 1828918 1784192 1875618
1856.16 1685834 1866700 1850202 1720388 1744758 1550302
1859.05 1534854 1573178 1605732 1793156 1681016 1497256
1861.95 1559044 1602746 1884978 1855052 2135152 1878428
1864.84 1862690 1665916 2057824 1898506 1987698 3061960
1867.73 2825024 2071856 4181398 3398732 2127516 3042810
1870.62 2987812 2951518 2685334 2785302 2594382 3062932
1873.52 3488916 4059526 3762832 3718354 3562200 3776764
1876.41 4273804 4894400 5369476 5438846 5262898 5207548
1879.30 5284620 6370104 7293828 7848296 7775542 8023450
1882.20 7882516 8476454 9413474 11402420 11884850 11807910
1885.09 12268520 12196550 13367800 14498360 17487810 17230060
1887.98 17807850 18166630 19498040 20305050 21553840 25135660
1890.87 24253800 25265010 25484710 26391050 27440400 30189570
1893.77 32482730 31765790 33045450 32372350 33416320 34779610
1896.66 36998290 37295170 36947080 37257990 36955820 35759710
1899.55 36451320 35613790 34061360 35635510 35313910 34154160
1902.44 33177040 33453210 32985180 32631120 31579210 32284910
1905.34 31384240 31475550 31766370 30909180 27691720 20517550
1908.23 17743950 17155760 20177730 23823120 25796290 28999240
1911.12 33260730 37224750 36435150 39480660 40261490 41521920
1914.02 41783230 44766340 45522680 43313070 42953940 42682400
1916.91 40994750 44456120 45450800 39520400 37569400 36208520
1919.80 35840720 36567810 33770990 32286570 30112250 28134610
1922.69 28874130 28140170 24063260 23900990 22540160 20694950
1925.59 22073570 19302500 16818350 16482950 15581730 16568140
1928.48 15894600 13244190 11777590 11504470 12024420 12271670
1931.37 10570440 8717200 8686734 9454730 9770816 8818436
1934.26 7353728 7222146 6872594 7729386 6895114 6081834
1937.16 6635220 7034028 8579436 7994864 7752884 7845388
1940.05 8059956 9277844 8759948 7929518 9350698 9138264
1942.94 8698818 8054408 7757544 7804872 8675546 8668168
1945.84 7375192 6880508 6892266 7326642 7296534 7093208
1948.73 5631476 5787332 5559700 5847682 6518534 5323546
1951.62 4367526 4721566 4441530 5189896 4870636 3514046
1954.51 3533410 3805866 3673406 4223632 3520134 3170770
1957.41 3165954 3047200 3161380 3263548 2529298 2780480
1960.30 2484006 2689324 2895964 2405218 2273372 2675354
1963.19 2398090 2898126 2129510 2147294 2009992 2185598
1966.08 2580402 2083398 2209708 1962908 1984358 2362820
1968.98 1842068 1814064 1561400 1855506 1741662 1260122
1971.87 1550072 1504588 1659438 1430648 1340478 1453070
1974.76 1302444 1672338 1335660 1216092 1295090 1466632
1977.66 1194654 1216272 1160146 1129816 1165516 1124528
1980.55 995340 1002248 1043034 977156 832028 1026726
1983.44 935580 1036664 808102 812784 734400 756804
1986.33 765612 841776 695122 869990 682056 638540
1989.23 577190 586830 557824 426810 853572 958098
1992.12 531680 650938 351770 489174 319862 419614
1995.01 427988 324486 225620 390730 386314 498372
1997.90 389028 504306 314748 338180 307054 409966
2000.80 154934 292680 502732 282894 237812 278534
2003.69 263070 246246 268432 260510 115378 269358
2006.58 160822 351080 222124 230332 290236 204138
2009.48 145670 209498 21014 186138 40732 182980
2012.37 269164 151496 138052 47178 121150 57984
2015.26 113230 254216 382094 332588 95324 305680
2018.15 250150 168312 154538 126820 147880 211558
2021.05 102372 195962 96408 229602 196766 226200
2023.94 100026 74752 115692 82246 173728 19532
2026.83 47014 150328 110698 110088 108560 80266
2029.72 49028 98674 70758 166732 31224 172288
2032.62 223004 180132 47000 168450 156742 68134
2035.51 47506 178376 101482 218530 143928 210716
2038.40 144242 165754 152844 163854 188354 237396
2041.29 142784 214574 49358 204818 81624 220510
2044.19 80270 156782 145470 299026 380992 572494
2047.08 758660 402166 62746 117488 90348 285178
2049.97 142072 87328 134760 230298 196166 132590
2052.87 243370 169208 221418 251258 122772 354488
2055.76 175338 172276 145848 284722 202222 233764
2058.65 121852 249176 190260 360384 226644 429168
2061.54 240204 407046 625236 1027812 484562 519646
2064.44 441442 371376 333572 253416 237166 349460
2067.33 134506 262916 150142 207764 143398 208476
2070.22 182328 256788 78020 173638 51302 193864
2073.11 118792 383668 42668 91582 3768 208128
2076.01 132492 364272 95348 96024 171622 242886
2078.90 70954 409380 147482 112250 139464 276410
2081.79 158076 392476 240998 132358 64008 214468
2084.69 43592 380410 305008 153128 148752 150112
2087.58 97312 276524 348864 99458 185664 230700
2090.47 57498 239312 201830 153928 86470 216384
2093.36 136058 171734 322082 163648 171190 186356
2096.26 31676 312062 115164 138224 102178 223122
2099.15 139040 156960 226282 56498 100228 120380
2102.04 102368 216362 134336 11452 108720 98432
2104.93 17888 186986 152482 9432 37274 78810
2107.83 85208 85204 26558 112920 37086 59050
2110.72 89844-21668 4934 49072 61288 51332
2113.61 11120 59998 38554 48410 63064 28746
2116.51-94830-6134 6178-32048 28674 94176
2119.40 19752 69776 23042-19262-16294-37274
2122.29-74526 34686-51676 66842 56074 64096
2125.18 43336-5108-124814 67636 92622 16164
2128.08 13638 49628-61494-1864-84048 18878
2130.97-22104 45400-50552-37216-53112 50952
2133.86-7688 46628 94534 69620 16948 17360
2136.75 20124 11546-59638 105534 81250 134880
2139.65 59008 129432 146136 43856 81902 126266
2142.54 101502 127722 89968 131906 54100 155050
2145.43 26936 169106 132214 166092 13466 110282
2148.33 73328 137686 32574 60888 83852 187758
2151.22 60720 172978 95192 252776 198978 95584
2154.11 151128 179542 75252 186946 157096 208958
2157.00 71644 111182 206578 125164 173560 162852
2159.90 145354 151622 134868 173430 143682 148208
2162.79 173356 158526 110696 110694 57014 236608
2165.68 151224 199690 132254 103940 174008 158452
2168.57 198740 135854 58744 151730 82870 89236
2171.47 193288 180792 215524 174186 102360 204052
2174.36 125922 155346 229920 199702 50758 232886
2177.25 183654 131478 242038 248098 304746 182922
2180.15 202414 334152 175720 243794 134276 213330
2183.04 179336 308052 223072 101166 185036 186742
2185.93 131322 167836 55624 144616 132638 204110
2188.82 177888 149206 110028 154528 163540 201730
2191.72 257602 240500 234300 251952 131704 117912
2194.61 221188 235556 223554 113134 246670 201138
2197.50 126376 209406 161822 298922 208882 309564
2200.39 190052 146386 175608 285612 261424 289244
2203.29 256534 304842 239666 368594 283730 394398
2206.18 353978 306544 362388 363880 464442 573942
2209.07 544904 536854 602150 562836 707372 920870
2211.97 836906 832006 905080 947822 1167852 1319080
2214.86 1409914 1457982 1414112 1616006 1732088 1900784
2217.75 2042732 2158294 2346826 2395672 2666756 2823496
2220.64 3016978 3256988 3350444 3547872 3752348 3941042
2223.54 4122852 4349576 4475188 4428454 4725980 4757430
2226.43 5132924 5217646 5283906 5184408 5367536 5293702
2229.32 5442366 5521626 5423286 5372724 5285886 5032298
2232.21 5213664 5038768 5123650 5038566 4557314 4232352
2235.11 4129236 3887688 5006774 4676580 4045824 4674850
2238.00 3302106 2808574 3545810 4128658 7345042 8779618
2240.89 3376438 3346684 3369260 3910728 4008074 4511344
2243.79 4719706 5342918 5443756 5961642 6027874 6222640
2246.68 6250380 6453206 6391690 6484496 6172738 6144004
2249.57 5873158 5952920 5691720 5508824 4980450 4775232
2252.46 4418104 4228364 3949992 3710618 3243866 3039474
2255.36 2754508 2665370 2428966 2390002 1945930 1862866
2258.25 1715848 1773462 1678388 1803806 1525898 1505560
2261.14 1550156 1630648 1672052 1825650 1587394 1595928
2264.03 1715898 1742146 1948852 2043346 2188342 2077330
2266.93 2141692 2364068 2383262 2537762 2466320 2506300
2269.82 2670872 2744792 2683032 2725434 2718484 2824450
2272.71 2823726 2696786 2707062 2604724 2502262 2520330
2275.61 2363656 2236346 2077746 1922384 1767380 1679760
2278.50 1999536 1726430 3592990 4897288 1608844 1782210
2281.39 1606888 2187218 2013946 2201486 1794106 2073380
2284.28 2130662 2443832 2482664 2722828 2724282 2995464
2287.18 3124894 3287312 3278960 3449100 3432178 3634998
2290.07 3603382 3697108 3505450 3767876 3582952 3269986
2292.96 3143312 3061254 2772194 2643216 2387846 2510996
2295.85 2346262 2163740 1901648 1879386 1861072 1920028
2298.75 1661102 1503930 1142054 1178746 921354 1063810
2301.64 933974 1080716 932656 929136 988266 872414
2304.53 943280 966626 974048 1066846 1057478 998412
2307.43 973610 1050320 1120430 1054034 936238 1130884
2310.32 1035110 1177782 933536 980130 874542 1016284
2313.21 648418 981334 758232 996150 813974 769452
2316.10 634502 873338 655306 691088 503688 688172
2319.00 498594 527522 221504 698688 476562 476944
2321.89 315694 576082 484086 244840 154764 554084
2324.78 513780 201930 204102 726512 407608 216618
2327.67 365896 700198 525794 142118 369090 756844
2330.57 450340 122864 480130 709736 357740 261048
2333.46 820974 796628 193164 288556 744738 554614
2336.35 78012 523526 776978 368748 190950 705842
2339.24 496458 169244 516354 679940 235078 358364
2342.14 550280 561536 278076 516062 584144 313222
2345.03 387382 603726 358920 324638 327490 524100
2347.92 347030 224568 236164 360630 422022 633552
2350.82 545946 377610 325500 685986 760346 550222
2353.71 688230 820172 217710 892772 1076206 462228
2356.60 884322 1054056 335092 1117800 1142956 554988
2359.49 1285092 880466 581888 1521934 822548 800982
2362.39 1482088 653296 1251402 1443852 846178 1476398
2365.28 974816 977856 1569344 888344 1231802 1186594
2368.17 952126 1443452 885836 1333814 1161972 1036426
2371.06 1116534 930452 1121744 887324 1003438 1083598
2373.96 1028704 1244418 1087770 1226368 1265536 1363332
2376.85 1318652 1506430 1354034 1558838 1464574 1529992
2379.74 1508818 1573196 1637412 1591316 1516176 1476390
2382.64 1545902 1343022 1317752 1404152 1230494 1165912
2385.53 1030452 1085162 1146648 1316566 1220584 1344848
2388.42 1307648 1147574 1270638 1206456 1257704 1147122
2391.31 1273584 1138538 1068118 1257504 1123678 1201788
2394.21 1151456 1306824 1170050 1196446 1026966 1247396
2397.10 1183392 1260094 1132156 1129178 999792 1077732
2399.99 1199958 1122738 1053092 1153756 968738 974324
2402.88 937692 898374 991196 921474 967676 834038
2405.78 832574 859496 818294 734090 658128 817666
2408.67 591928 635410 679212 697046 596148 708966
2411.56 566500 637386 454422 653120 569562 481148
2414.46 451678 537054 471580 433564 612484 546832
2417.35 488064 507300 553286 365170 402760 383714
2420.24 387656 436572 497354 546634 522424 507726
2423.13 445510 525606 522972 620146 525814 399178
2426.03 423326 580810 485762 576198 559364 547798
2428.92 588708 487168 539230 550768 567618 531484
2431.81 555096 628030 458172 598728 543600 564834
2434.70 520016 592642 670766 594008 578376 719172
2437.60 509648 546306 654212 747324 581562 644270
2440.49 692028 700756 705162 810894 841274 703268
2443.38 809172 857968 648140 766606 997926 1060932
2446.28 769078 1152544 926332 1009026 865306 1306224
2449.17 1171488 959850 1261716 1073410 1167408 1113198
2452.06 1397190 1275732 1288208 1380858 1197270 1287358
2454.95 1320602 1469050 1259390 1267562 1099586 1328784
2457.85 1177618 1228000 1248246 1101432 1210222 1191066
2460.74 1033906 1084176 1075632 1109498 1080752 1090146
2463.63 1162398 1026118 997854 1169200 1123104 1186552
2466.52 1163112 1230398 1297910 1502012 1444612 1519520
2469.42 1568666 1751692 1685488 1965240 1921856 1804466
2472.31 1782470 1764470 1944600 2072662 1800780 1853830
2475.20 1680896 1766186 2230894 1834826 1434882 1495492
2478.10 1417152 1898580 1862826 1193724 1330924 1406916
2480.99 1417152 1861294 1217108 1172854 1198022 1245284
2483.88 1547074 1415116 994096 1295734 1205426 1438634
2486.77 1362100 1320266 1120194 1174006 1164288 1345592
2489.67 1027262 1121898 1044906 1071552 1109944 912268
2492.56 974400 1047442 925396 1116226 936480 824334
2495.45 932080 924408 1016292 764230 781748 688730
2498.34 787094 835600 800170 703516 693934 674916
2501.24 576562 740232 644542 640432 566848 572860
2504.13 556714 562614 575396 665288 531622 569680
2507.02 573996 491280 513136 553310 495152 521866
2509.92 456030 614582 474476 462052 533710 505548
2512.81 441788 592818 507112 500506 426254 540984
2515.70 481750 450954 467600 435922 419836 449580
2518.59 517062 519898 382206 450066 454010 483644
2521.49 467206 549692 348024 407712 501194 458354
2524.38 459676 498946 421980 505818 562774 540276
2527.27 412848 515072 496310 528956 402930 531688
2530.16 526418 525130 604114 518810 545902 478734
2533.06 409062 612700 568522 516242 396866 460130
2535.95 579834 521280 602314 647046 463890 692364
2538.84 653818 681888 571174 641226 711898 621344
2541.74 566686 648576 560458 600956 622834 830336
2544.63 620094 822084 616316 708138 494374 871372
2547.52 809624 812664 447370 512042 494846 819746
2550.41 843704 756140 407704 505114 639964 891324
2553.31 946980 430410 400556 641758 573848 815828
2556.20 844492 610198 793420 671354 583002 862930
2559.09 774030 563324 580260 628590 644842 993162
2561.98 936798 970832 1190042 894182 802410 885276
2564.88 763144 727626 772772 819148 616758 1096730
2567.77 1531256 2061796 2240242 1335622 806240 746436
2570.66 725730 560742 627634 536300 480786 331012
2573.56 443660 540970 560150 487710 428888 402638
2576.45 352706 497574 547938 444424 377570 427174
2579.34 586402 683000 654434 272088 395796 417778
2582.23 435414 524674 709358 505638 291310 396494
2585.13 354996 491114 400142 413524 499072 311150
2588.02 418730 430276 468124 399992 584354 424260
2590.91 380966 495646 334954 409148 422954 499132
2593.80 281566 318098 325536 321528 206156 300930
2596.70 322236 217768 301148 305284 263658 306034
2599.59 345376 409764 217128 165120 204422 255084
2602.48 237040 190732 190700 100230 83430 170144
2605.37 218368 149026 148644 239522 160456 86212
2608.27 137494 83132 160270 209624 74528 140040
2611.16 35938 118464 97302 79006 105358 190582
2614.05 158862 165160 133220 165044 243448 38762
2616.95 61858 65014 40478-38930-5880 67514
2619.84-25258 114756 66208-60604-116864 66556
2622.73-34656 9466-32512 32598 8034-40930
2625.62-84250-51140-64284 33950-50598-9580
2628.52-84882 7522-14828 2838 6492 60872
2631.41-2166-84120-9414-74086 44788-35984
2634.30-36912 9382-83666-15464-153844 3294
2637.19-127280-67708-13534-32926-38354-111400
2640.09 60888-152086-143258-62578-52734-109994
2642.98-32298 131080 76966-34112-124628 40720
2645.87-84078 85670-91014 82402-106256-53620
2648.77-144690-3976-62364-86276-32652 18460
2651.66-18984-17290 70586-10478-25996-69224
2654.55-39846-36154 20910 31616 146750 81930
2657.44-16832-49790 93794 58352-57384-83262
2660.34-2186 45094 55176 77206 82872 73762
2663.23 76122 109292 135182-19798 46976-33020
2666.12 11312 188864 145342 187148 131192 31084
2669.01 163676 216350 114972 136166 25640 110608
2671.91 236282 98570 166258 181378 165546 215842
2674.80 287938 181668 130742 131936 232138 181812
2677.69 329674 343340 434280 401264 430134 343090
2680.59 478444 661446 434736 600108 477650 449150
2683.48 534634 763018 555124 701002 674786 537750
2686.37 651076 872986 867462 940896 821838 753442
2689.26 1021306 985042 874800 896120 1053606 1101074
2692.16 1041506 1106124 964900 1247842 1243616 1253052
2695.05 1139862 1177524 1159114 1297372 1070628 1403404
2697.94 1116784 1237106 1045526 1122246 1076886 1578620
2700.83 1376234 1212248 1351912 1195692 1221792 1102724
2703.73 1100738 954868 930106 1057758 977874 1090180
2706.62 1037620 963690 1364736 2272756 1557756 1262786
2709.51 1199778 1143356 1155724 1160342 1146590 1412902
2712.41 1237590 1283044 1519128 1635974 1301422 1470788
2715.30 1273984 1486194 1337810 1524102 1244346 1383596
2718.19 1124136 1304874 1316320 1188284 1091118 1112276
2721.08 985930 1015148 1092998 979610 838230 845112
2723.98 708280 758352 783522 779462 779364 563954
2726.87 503328 545496 457600 592238 486474 359876
2729.76 452262 438652 382762 389494 257210 289644
2732.65 345618 308226 257940 321588 320292 379128
2735.55 302120 213434 295344 261784 144460 273388
2738.44 257788 316562 189424 351750 346964 323060
2741.33 325288 333776 225880 215576 359686 239836
2744.23 294346 209898 177656 160912 216906 168620
2747.12 139490 247616 232978 59286 121396 200032
2750.01 105730 110790 193956 97482 195186-22118
2752.90 97694 1250 116526-14482 115272 45452
2755.80 149898 63810 90132 131198-22616 78106
2758.69 116956 23418 121850 79682 133480 100676
2761.58 100702 65650 150016 153422 95864 168096
2764.47 240606 86624 20628 51068 304414 157770
2767.37 125078 394776 177626 175176 173626 366604
2770.26 226176 301536 198430 108158 180098 483450
2773.15 313232 447670 346212 279922 347256 235576
2776.05 293594 464494 338684 223474 316660 380180
2778.94 436670 456506 577770 449308 306040 323112
2781.83 396946 453294 592508 608974 387286 308090
2784.72 479950 378594 646996 693478 560812 282684
2787.62 349240 200928 283120 325376 299172 526288
2790.51 397086 305964 239338 220168 179424 244528
2793.40 257432 11988 246442 91502 283542 250524
2796.29 339410 310746 76812 238578 391894 179478
2799.19 248104 287740 45798 317444 382582 439648
2802.08 638676 615312 336460 579528 468862 504734
2804.97 536976 411524 432754 433102 447196 383030
2807.87 413902 337564 450014 273450 447082 258004
2810.76 176734 165102 130684 189076 259916 181380
2813.65-33980 13484 39584 12510 141052 146620
2816.54 192872 13680 49836 72590 71244 98510
2819.44-37702 211088-67046 177342 175272 208978
2822.33 76432-26518-38032 207004 142366 88810
2825.22 31810 73674-59340 138974-41772-188408
2828.11-398418-340138 81758-114216 72370 164598
2831.01-109736 196850 45484 34124-100460 78616
2833.90 55152-141434-45566-19874-197518-106118
2836.79-133358-376760-62834-252946-121328-205080
2839.69-233846-306786-156686-190908-408924-312242
2842.58-192272-397746-227390-382680-246684-286022
2845.47-323516-186596-305380-158572-298504-374862
2848.36-331512-336698-265084-226426-380420-238124
2851.26-160916-203786-348788-143924-213726-263484
2854.15-339710-215430-276140-206252-190090-141040
2857.04-233054-308324-230614-203990-173010-238016
2859.93-302374-315698-343458 30584-29210 87100
2862.83-93890-28674-60022-53192-142438-42412
2865.72-162800-83224-23812-245246 54976 12102
2868.61 232056-30214-172918 163638 70698 193778
2871.51-16194-19900-54816 33028 39784 82328
2874.40 248826 126630 267426 447580 322906 199188
2877.29 181520 236136 159128 269020 211268 285132
2880.18 268094 201542 203288 485792 353172 233996
2883.08 289220 192208 341156 309412 233554 418956
2885.97 341888 458042 572344 832688 673904 566340
2888.86 482878 603284 630082 556490 394170 574274
2891.75 745754 647822 573428 463528 539876 574916
2894.65 556434 620328 479226 355148 391482 488092
2897.54 602958 558236 485510 328636 691728 1002468
2900.43 541212 473934 385058 292714 298198 617012
2903.32 832350 532196 361520 461720 352932 515122
2906.22 668522 605652 541146 485156 517956 534946
2909.11 674574 434396 447792 431316 297426 438312
2912.00 651148 513412 345884 476226 584416 512298
2914.90 457712 521496 591488 734012 531824 425894
2917.79 509084 749696 873484 861644 378418 473942
2920.68 243730 250688 307464 244758 226992 328248
2923.57 174158 271124 175760 186738 154008 16060
2926.47 77452 162830 51722 230230 205836-11672
2929.36 78198 167266 169352 252670 56010 213334
2932.25 175378 176288 418024 96212-16028 227198
2935.14 128240 16192 146444 264438 23472 240806
2938.04 158006 351568 130350 217576 194306 127334
2940.93 140554 275484 29870 149870 20748-79086
2943.82 167620 157234 139038 34272-70878 3980
2946.72 135696 102750 33286 49826-43552 177686
2949.61 32792 123486 96490 44290-20136 107726
2952.50 92672 10076 35192 79924 143832-130394
2955.39-74364-17848-11654 111918-27660 39006
2958.29 38634 66610 137400 42898 30674-40838
2961.18 87936 92210 64574 96154 71678 91872
2964.07 192692-2370-71800 132560 67652 53188
2966.96 16778 182938 157838 233334 106922 116974
2969.86 288880 47494 485080 105690 99844 122956
2972.75 92112 253488 324928 34616 274896 213098
2975.64 138028 295686 240216 240078 176552 245834
2978.54 348574 447568 424896 327672 420440 405306
2981.43 570494 857000 491618 579634 538116 800744
2984.32 859216 799504 640666 618592 774888 907488
2987.21 923290 987816 858818 776294 1012540 734668
2990.11 887384 868796 769218 700138 744230 605292
2993.00 584592 823946 694944 673724 613220 582888
2995.89 492238 998130 745638 677928 859780 831950
2998.78 533170 527090 475010 668620 724830 596278
3001.68 921264 921316 999050 979646 1066794 1162426
3004.57 1130772 1254422 1516498 1352098 1204810 1351294
3007.46 1445796 1389164 1713190 1476580 1342114 1299668
3010.36 1233304 1360524 1700802 1681696 1279912 1299294
3013.25 1197226 1388894 1888982 1892112 1810768 1907128
3016.14 1909296 2061596 2237740 2577854 2695628 2810172
3019.03 2866272 3189206 3455312 3911976 4076960 4488042
3021.93 4775728 5106396 5499654 6002438 6408678 6776058
3024.82 7293384 7965752 8251348 8987882 9332354 9906978
3027.71 10435190 10910420 11406870 12056020 12520640 13076990
3030.60 13494040 13694020 14231360 14360690 15106140 15047570
3033.50 15166570 15102350 15120700 14968620 14947630 14396840
3036.39 13707380 13341010 13015620 12411060 12609980 12422350
3039.28 11852630 10995090 11332820 10877170 12954690 15489010
3042.18 24328960 24660560 13857330 11824610 10100670 9748782
3045.07 9242340 10075570 10350170 11907020 12513930 13725840
3047.96 13800740 14792800 15086980 17286670 18080880 16880700
3050.85 17590840 17409920 17137790 17100010 17005830 16931360
3053.75 16578790 16440350 16176270 15826990 15498280 15128580
3056.64 14293780 13780060 13112830 12551720 11940420 11376900
3059.53 10792770 9952352 9302766 8605180 8277026 7832948
3062.42 7375366 7077168 5967602 5867066 5181986 4880932
3065.32 4580622 4653900 4041684 3817788 3604452 3558674
3068.21 3240178 3547372 3304808 3247798 2986554 3151540
3071.10 2808300 2936614 2747534 2849520 2724192 2700208
3074.00 2274132 2667200 2587272 2530888 2244012 2310558
3076.89 2008220 2201474 2351996 2534026 2532040 2583624
3079.78 2193148 2418172 2265644 2150392 2063156 2397402
3082.67 2249928 2726064 3019848 2766970 2808864 3168260
3085.57 2969840 3608012 3971900 3438268 3341110 3714184
3088.46 3658198 4151826 4809336 4270166 4094168 4087636
3091.35 4326738 4469952 6094172 4889376 4336816 4285690
3094.24 5148770 5102652 7107982 5926412 4849042 4954468
3097.14 5514004 5637794 7165562 7487532 5129560 5838882
3100.03 5735132 7003662 7474352 10219680 6145474 7347068
3102.92 6628746 8878430 8219240 12812470 9419454 10476080
3105.82 9982452 13391270 12236080 14894100 14042760 13142470
3108.71 14070900 15078750 16224230 19426580 20780210 18429290
3111.60 19720820 20044670 21587560 22545760 24266020 22070660
3114.49 21883070 22006320 22320000 21945130 21532250 20305400
3117.39 19386430 18598540 16755810 15335100 14507620 13572380
3120.28 12354780 11368400 10922060 11463190 13880840 19053800
3123.17 26441640 27561620 10233430 4757138 5761254 7000392
3126.06 8334084 9800546 11333420 13896860 15749540 16331670
3128.96 17489340 19707410 20687070 21102110 21732430 22942440
3131.85 22609190 22158260 22077850 22352760 21883470 23633600
3134.74 21202210 19122170 18820300 18556450 18360550 19874400
3137.64 16389930 14034950 13377950 13358540 13501710 14570630
3140.53 11735130 9011776 8724746 8468450 8458070 9808988
3143.42 8600222 5443930 5517060 5541340 5866482 7151590
3146.31 6503210 3484678 3571924 3677310 3654254 5508434
3149.21 5125230 2298890 2776236 2884266 3156760 4421254
3152.10 4405588 2369734 2851260 2448484 2683564 3992050
3154.99 3698226 1747110 2441038 2311696 2749214 3638134
3157.88 2884002 1632688 2386820 1866742 2563870 2996532
3160.78 2220518 1654428 2236724 1658384 2678024 2386240
3163.67 1507272 1409970 1770948 1516358 2327716 1541660
3166.56 1334508 1288972 1527022 1367078 1860440 1153456
3169.46 1116428 944684 1353076 1307332 1351304 929484
3172.35 971714 706042 1116164 1196344 1006618 660068
3175.24 774820 653364 1133144 714820 828732 727046
3178.13 888232 715102 860734 463574 714054 482386
3181.03 645454 342040 511972 323172 594548 464196
3183.92 398382 125052 252064 112468 478514 242550
3186.81 243226 112940 298464 166454 327202 81986
3189.70-44692-35058 118228-29480 255104-87028
3192.60 151386-66514-85792-161912-14868-41328
3195.49-3478-118134-208-184780-120910-182054
3198.38-13786-219410 54680-70546 95794-236344
3201.27-141888-338536-86288-270490-200508-172808
3204.17-201276-200110 23932-309014-66798-242726
3207.06-262952-294290 9388-235716-348936-73006
3209.95-40816-537610-138572-403688 42774-311578
3212.85-193646-212796-119120-301518-144726-82702
3215.74-155988-299110-149706-165784-377638-262438
3218.63-73564-103536-45030-36916-299982-254244
3221.52-111138-77892-41808-287560-161222-271320
3224.42-114450-99954 20068-101158-107774-324836
3227.31-272282-456880-328180-223414-154572-286904
3230.20 111020 219714 193518-121360-4592-193880
3233.09 5618-148084-125292-188702-17486-95556
3235.99-89298-92274-310046-108962-226146-224920
3238.88-253082-462898-261176-409266-106382-427106
3241.77-68866-147444-250616-233320-411158-276784
3244.67-216616-298904-290222-383790-390446-366734
3247.56-474380-387476-296534-151848-252502-409436
3250.45-247602-323678-504010-82700-203322-307410
3253.34-362496-161972-372528-326688-367068-316146
3256.24-218238-342166-317600-239826-101984-207064
3259.13-126618-241568-101906-148146-157114-277682
3262.02-241484-163112-150206-89500 36532-155578
3264.91-236578-92218-204018-472328-250304-301458
3267.81-167604-392076-45402-168376-292764-252924
3270.70-151182-75576-74644-274752-190672-233458
3273.59-146996-326150-221736-267604-99452-193818
3276.49-324636-138860-228608-272450-87534-93454
3279.38-215310-45444-125312-156060-225504-291810
3282.27-269186-189458-222368-124534-6964-80816
3285.16-100618-67260-48640-159806-235748-152178
3288.06-175696-203514-169524-183438-13914-218964
3290.95-246428-294476 46686-366342-45314-4390
3293.84-290318-143706-152360-155706-17244-7570
3296.73-2890 54956-197978-1318 192834-151944
3299.63 120718-12716-76522-152378 91638 47090
3302.52-75914-64752-180186-142734-189652-107948
3305.41-172458-193664-29682 7414-58224 100248
3308.31 98558-32494 133964 60014 46598-57252
3311.20 395728 157072 153892 152048 227494 223142
3314.09 328148 224872 351594 342378 432180 445750
3316.98 479616 544598 456720 621716 538024 507772
3319.88 675334 755278 546572 476290 596760 526342
3322.77 590190 679188 504344 729238 569994 493178
3325.66 438578 563220 747032 554978 497450 151538
3328.55 689166 444830 436046 181820 267392 1676
3331.45 653112 565162 623142 1179282 570658 671222
3334.34 525554 595692 484974 616142 934238 802896
3337.23 666892 949690 859260 1066002 1154564 1093602
3340.13 1128508 1124618 1132344 1246176 991274 1124188
3343.02 1104728 1007502 858114 921630 773818 891278
3345.91 904812 807516 562034 669946 400886 311778
3348.80 269806 364658 294626 317308 243546 436506
3351.70 266606 324504 167746 83346 76222 134854
3354.59 127814 191012 59594 117998 327046 37332
3357.48 296758 339560 477866 392064 438426 244856
3360.37 338520 303628 622958 348688 370568 331592
3363.27 233188 257750 291148 274524 350910 101164
3366.16 24066 183468 201464 49632 94734 30206
3369.05-134436 110322 177966 155550 130690 99440
3371.95 132832-65342 4648 261320 128458-33654
3374.84 34962-127612 81690 167020-86738-76746
3377.73 77424-135568 113450-47340-344280-12688
3380.62 86884 45422 137476-83422-34404 26834
3383.52-122214-105902-84452-89306-55908-76796
3386.41-146704-105708-149828-304942-232808-236432
3389.30-231940 59690-432804-246580-256300-122178
3392.19 261350 124640-45378-163570-121422-102800
3395.09 108826-205290-286490-149626-63204-195240
3397.98-310554-102420-346858-417078-84812-279720
3400.87-111956-69610 100184-153412 21992-59502
3403.77-183330-182838-105152-219098-222350-147006
3406.66-282714-557194-214700-192808 20512 101064
3409.55-87666-314392-194078-185382-230136-139294
3412.44-57942 81958-82514-313242-135186-20940
3415.34-87652-277958-222804-29792-151072-172390
3418.23-119002 29538-66620-128362 108960-181198
3421.12 129548-394-150174-88698 30474-184990
3424.01 154378-179858-182228-43564-8174-284320
3426.91-113604 90110-221342-19018 33294-27412
3429.80-128206-249854 31932 3352 87306-45798
3432.69-50924 37442-201140-277254 19868 3878
3435.59-34138-74456-74618-278296-118078 81296
3438.48 194428 32972-224022-89936 50880-234140
3441.37-84112 5996 256276 111214-53940-85640
3444.26-86886-46352-220684-266436 269974 223186
3447.16-85318-123432-61418-69228 12018 138048
3450.05 87980-124958 628 18180 179176-113710
3452.94 143980-85862 135610 130514 155156 213062
3455.83 95616 180208 109270 335084 20320-172886
3458.73 101508-97576-8244-124952 185724 93404
3461.62-130566 150454 106048-62948 26788-154546
3464.51-84134-37034-96110-369028 205996-193290
3467.40 124062-192942-201262 17688 217666 52818
3470.30 144996 6938 30696 49082-184848 14908
3473.19-100684-122630-13856-15108 54142 175816
3476.08 121672 39870-53744 9174 73052-90022
3478.98-18740-26034 24856-56846-85566-41902
3481.87 180322 60638 220628 102568 300184-172284
3484.76 31680-35354 184216-57836-12348 68110
3487.65 98754-191498-76214 158946 31900 92966
3490.55-17820 160538 41756-27526-193836 56262
3493.44 318386 174848 223332 350970 155708 233744
3496.33 121422-18716 295124 161996 87926 279126
3499.22 185724 43874 120160 281758 153848 103630
3502.12 295210 454364 699642 324624 428102 181856
3505.01 86996-38124 77536 143598 65368 48236
3507.90 285592 108366 586230 298032 129718 325966
3510.80 238108 103592 128392 88772 239518 401572
3513.69 602812 349020 301982 203002 392564 601490
3516.58 419892 405898 521076 527454 468740 371618
3519.47 408954 161116 354074 445400 473752 214646
3522.37 486572 357140 539664 277490 418026 296626
3525.26 660920 262900 456020 606376 534334 235224
3528.15 394484 500376 24286 132246 427170 232130
3531.04 111196 195246 181124 244084 443652 559166
3533.94 179968-6706 157062 3514 649434 320362
3536.83 203102 283160 215332 147656 220912 71336
3539.72 445776 190856 377596 46478 436140 293390
3542.62 473492 314880 558188 109338 544348 710060
3545.51 231014 166498 940668 335368 119884 522132
3548.40 121504 105222 220392 154776-111940 97690
3551.29 337408 637482 26566 104072 287694 39506
3554.19-120184-51554 133810 65648 61184 51632
3557.08 706-43572 77280 5154-264590 401786
3559.97 360894-79320-69406 99908 121068 57836
3562.86 329600 404388 10244 125936 286958 783804
3565.76 802976 1259416 197892 854610 1983578 307658
3568.65 265502 52404 338306 224920 277506-55196
3571.54 61200 74068 148582 103428 221352 27806
3574.44 238692-122604 16744-108738 321656 157856
3577.33 46164-167614-15198 189896 249936 335004
3580.22 37332-154612 233290 89878 196190 219818
3583.11 449788-131760 119598 74334 454030-36718
3586.01 2279022 872018 343000 39934 1696708 2396166
3588.90-155602 406386 118992 198958-136236 177906
3591.79 38928 507228 896314 351304 133408 67964
3594.68 981450 647306 233458 457240 89718 394412
3597.58 354830 414760 180586 385942 383610 338404
3600.47 789762 288184 79228 178736 321226 284842
3603.36 112514 412052 179810 224252 142718 313168
3606.26 747870 1507222-115376 716014-129704 4015470
3609.15 1723410 30574 596370-61686 683832 487304
3612.04 2979990 1081710 406070 92220 1298270 748472
3614.93 650728 279224 530274 167636 994752 1739108
3617.83 826194 168014 1818976 4063120 76482 647632
3620.72 653160 532016 133566 532842 302334 587540
3623.61 124638 397874 447584 627840 752924 834958
3626.50 389686 613096 1585160 6187852 291560 5492562
3629.40 4245850-69880 1337570 265542 846238 659732
3632.29 862110 456946 2054590 897748 478742 840666
3635.18 776636 708234 765660 639738 882740 1083406
3638.08 720806 665628 798744 794506 763680 593934
3640.97 878476 1015350 1127276 727254 935446 492592
3643.86 1055608 692106 1078534 592048 1752518 1156570
3646.75 3416826 2207008 1482870 805412 7278756 3791684
3649.65 735142 3519676 2546442 3257458 555204 1322570
3652.54 816146 940494 695568 923678 1049780 1104248
3655.43 2365150 5746852 938798 1494648 673938 1266998
3658.32 779490 1122626 912282 1179524 926106 1073800
3661.22 875952 923598 625446 957118 671508 769562
3664.11 679684 698742 539684 877232 660702 330102
3667.00 620740 461178 1822254 3469474 726016 896194
3669.90 3333182 9152658-39146 1667380-293868 1487656
3672.79-168768 1820000 371772 4775974 2976072 3837568
3675.68 7963340 186198 1110464 531074 659102 277450
3678.57 847260 1738750 326204 619104-17226 327440
3681.47 109508 438006 40472 509494-180612 547682
3684.36-111590 419438-400114 491308-340658 1244812
3687.25-811876 7261440 7086316-448206 777902 158906
3690.14 790480 2454504 2546424-446098 776280-197492
3693.04 544808-14126 570698-54134 240592 89994
3695.93 435690-58398 220184 115102 211778 54386
3698.82 219582 58636 26934 129864 248630 2329922
3701.72 1197450-44764 283626-46344 370986-175822
3704.61 149412-18804 331352-285758 413900-202762
3707.50 253206-87260 667398 2683544 595596-169980
3710.39 814934 49708 2557292 6245606-1032 307412
3713.29-128128 80026 479646 159092-218732 142514
3716.18-134942 25948 3530 145286 237096 981506
3719.07-213190 114542-79352 166222-196922 1208946
3721.96 1244602 117378-45768-42684 73698 665340
3724.86 503886-161000 1025726 1834598-262508 222712
3727.75-122472-44908-100382 174400-218270 48528
3730.64 201774 407984 5174202 2012042-440978 349426
3733.54-22494 1891856 1849622 2417142-314072 2880206
3736.43 4645594-770670 571554 756662 455422-152712
3739.32 165292-241432 373436 944580 501836-220436
3742.21 415594 83966 1692126 4666582 12845960 4716126
3745.11-51968 367154-79128 287202 256686 594828
3748.00-118686 2804342 9713348 1806764-144686 832820
3750.89-110112 3723162 10441770 200328 452908-236158
3753.78 310682-293392 293888-186826 637924 1390790
3756.68 127772-63720 74620-47526 357544 1272324
3759.57 1965918-335100 188672-256092 7526-241398
3762.46 233304-152618 187852-156998-66030 270666
3765.35 2119964-182958 239272-425258 166896-269766
3768.25 463378-505968 2495696 2096134-158322 19938
3771.14-69056-232820-164342-237244-4078-224744
3774.03-92742-132216-159058-93270 167968-235012
3776.93 81568-76058-22338-314744 1434002 1378448
3779.82-340288-55654-305040 75034-162074-66442
3782.71-196300-33098-195116 488336 54166-362
3785.60-60192-78410-227706-218284-191628-58388
3788.50-126914-12486-319848-220400-24502 78906
3791.39-226454-174898-268080 59146-391706 182396
3794.28-472504 340954-284886 1629388 1606044-67240
3797.17 418074 56750-169632 202398-217634 465238
3800.07 109750 3040468 9524926 326368 464542 882438
3802.96 66472-48148 2092 58488-86450 686870
3805.85-309046 4811382 4319952-832050 619904-516644
3808.75 455256-751906 382066-367298 340776-439576
3811.64 430600-306090 448904-485686 529844-362366
3814.53 1002286-181768 9301458 4343174-580854 656852
3817.42-101488 604102 183916 384418 427824 1204612
3820.32 4027974 1134028 4653834 965636-76746 401250
3823.21 100192 561080 381944 125350 582908 266134
3826.10 1432114 1437012 31462 636986 420304 346180
3828.99 280698 398180 464244 382360 1993466 3170938
3831.89 36064 1305274 180070 1485854-29262 3430100
3834.78 2426024 795744 304574 1831330 64178 8695980
3837.67 7793774-319636 1759982 650944 2336376 592108
3840.57 3397836 892312 1225550 787686 1048372 1822118
3843.46 2633124 396406 1006054 276826 814538 389794
3846.35 1024440 386018 989646 401996 962496 591110
3849.24 1547614 704948 1311940 261596 3179504 9175926
3852.14 1183506 1435186 3287568 12485010 9656432 750580
3855.03 1373674 777600 1246920 1546018 2098772 972372
3857.92 1445118 854344 1497542 811576 1160416 786734
3860.81 1256772 2759394 1406548 508254 1074214 618866
3863.71 1097554 1234690 4974744 292086 804088-146654
3866.60 831384-237376 955464-327732 2604454 845752
3869.49 5462890 3720538-694994 1114830-263958 501844
3872.39-267836 575416 697196 2182178 654946-38966
3875.28 316814 20738 132330-92624 247950 213578
3878.17 230122 311372 138444 2462944 1594802 815244
3881.06 578988 94586 334656 142808 780946-32068
3883.96 711674-544506 3049370 4891636 494158 465248
3886.85 303538 306002 163878 394076 403470-46528
3889.74 374192 132350 3945732 2013968 76646 596816
3892.63 169134 526932 613976 335136 412072 358386
3895.53 447408 549936 291456 366092 651290 484320
3898.42 970990 3682528 846966 594986 590566 797688
3901.31 3974794 1591220 627278 800838 879502 4384360
3904.21 1367204 556706 802856 1144738 459782 519758
3907.10 536764 626250 646830 621040 620576 322094
3909.99 324648 366672 471352 239124 318978 266878
3912.88 282424 525110 402174 188012 610030 426304
3915.78 1064884 363192 2036978 919722 456900 801962
3918.67 452144 843172 1848744 643516 530862 631032
3921.56 441558 459568 590746 792036 858212 594556
3924.45 1086014 1129642 403784 637242 83446 457338
3927.35 374794 413788 310840 702360 509240 334790
3930.24 523714 192170 278816 799386 1173336 207908
3933.13 441778 349040 506170 121768 202408 90090
3936.03 132790 78812 261820 389088 510840-33146
3938.92 110850 216324 292188 157050 297458 73572
3941.81 299056 1057458 289782 216206 296692 342792
3944.70 221826 195108 140302 170426 326694 467152
3947.60 360590 367118 26152 493570 879146 257204
3950.49 86814 136228 426910 205102 206344 141098
3953.38 261778 227948 339522 244800 258416 190154
3956.27 329116 332314 138968 281956 179146 275718
3959.17 295606 253230 307888 380100 473540 522364
3962.06 323628 237024 58562 248978 193310 322430
3964.95 328430 209744 265002 276760 277330 542236
3967.85 463610 429186 530926 474628 500780 502316
3970.74 299232 644044 489174 604508 446884 572290
3973.63 552174 469100 909184
##END=
