##TITLE=Acrylonitrile
##JCAMP-DX=4.24
##DATA TYPE=INFRARED SPECTRUM
##CLASS=IUPAC A
##ORIGIN=NIST, Anayltical Chemistry Division, 301-975-3108
##OWNER=COPYRIGHT (C) 1998 by the U.S. Secretary of Commerce
##DATE=98/10/1
##$SPECTRA VERSION=1.00
##$UNCERTAINTY IN Y=2.0 % relative (B=1.0E-04,C=6.4E-09,D=2.7E-14)
##CAS NAME=Nitrile-Propenoic Acid
##CAS REGISTRY NO=107-13-1
##MOLFORM=C H2: C H C N
##MP=-83.5 C
##BP=77.5 C
##$NIST SOURCE=QUANT-IR
##SPECTROMETER/DATA SYSTEM=IFS66V (Bruker)
##INSTRUMENT PARAMETERS=KBr Beam splitter; MCT Detector; Multipass cell
##STATE=gas
##SAMPLE DESCRIPTION=Acrylonitrile Primary Gas Standard
##PRESSURE=101.3 kPa
##TEMPERATURE=23 C
##SAMPLING PROCEDURE=1 L/min Flow
##RESOLUTION=0.9640
##DATA PROCESSING=NB Strong Apodization
##XUNITS=cm-1
##YUNITS=(micromol/mol)-1m-1 (base 10)
##XFACTOR=1.0
##YFACTOR=2.2737E-13
##DELTAX=0.4820
##FIRSTX=575.169
##LASTX=3975.077
##FIRSTY=2.70E-07
##MAXX=3974.59
##MINX=575.17
##MAXY=.0003996
##MINY=-1.94E-07
##NPOINTS=7053
##XYDATA=(X++(Y..Y))
575.17 1188740 1831974 2363644 1960060 2678426 2245892
577.58 1355296 1999774 2165760 1339798-90366-382136
580.47-35938-105866-4584 1200860 2025170 1828758
583.37 1153222 1025940 1377508 897108 400108 598278
586.26 1663830 1273008 1631336 813004-55858-32254
589.15 353126 467996 1688022 2963116 2115662 1642976
592.04 1936574 1701876 1955068 2043794 1507134 214298
594.94-613598 6734 1347916 1530370 1409940 2267604
597.83 1783400 538064 708086 1197628 1737860 1776294
600.72 1648016 1221954 962334 931446 1328224 1702126
603.61 1651802 1138430 1654914 2730022 2486814 1844378
606.51 1634212 2048870 2277056 1667142 1938028 2281160
609.40 2520846 2943846 2998632 2550660 2895636 3311464
612.29 3676762 3324860 3284274 3564272 4138714 4145658
615.18 4021474 3826408 4388734 4729392 4809706 5017692
618.08 5039294 4680132 5239450 6112148 5999254 5876048
620.97 6340032 6923532 8055164 8252960 8267922 8927428
623.86 9646534 9652818 10089560 9985482 10140070 10808210
626.76 11693660 12192050 12550550 13153480 13735850 14213610
629.65 14841050 15616680 16619300 17043440 17133470 17199150
632.54 18253770 19024710 19609210 20871880 22156630 21812470
635.43 22534270 24404730 26114930 25772230 26664730 28298210
638.33 29691470 29128280 29366250 31473920 35793520 36062870
641.22 34981790 35644070 40030650 44872160 42720100 41207280
644.11 41805440 49104410 52982500 50456010 48664740 49934380
647.00 59214260 63472630 59924550 56794150 57630040 68920230
649.90 75034570 69768020 65205650 64800380 77657730 88624190
652.79 81067900 73006750 70094990 81253710 99532690 93684500
655.68 78405910 71835700 77719550 102806600 109632500 89242150
658.58 76226980 73663340 94992450 121274300 105575500 80814190
661.47 72551660 78268850 110070800 119365900 92644310 76776080
664.36 71512450 87881150 123076700 119161400 88451710 75090690
667.25 74147100 97954140 125172900 105881600 81414300 76460380
670.15 80494750 102801000 112563200 93178470 81936300 83285880
673.04 89708310 98653680 97749100 88646030 87426020 92945310
675.93 98795500 101268000 104685100 114366100 126738300 139702100
678.82 160514000 189742200 206316700 216882900 261455600 352823300
681.72 398314400 301008000 195037600 146628800 122827300 108125300
684.61 96638550 89039530 84725840 81598430 81210060 81026470
687.50 77005580 74459460 80152820 84814270 78929960 75415150
690.40 75203790 73563360 81310740 97218940 95520450 76826810
693.29 75065140 73767300 76062270 94361530 113979700 93688650
696.18 72101150 73030780 74654540 80516860 105110200 114721700
699.07 82962250 67743790 70233840 74568250 84109710 109131300
701.97 106440700 74565530 65691280 67255290 73626550 86238220
704.86 107197000 95207460 67104060 61271740 62546520 68866260
707.75 84326430 100727600 83609080 60200360 55885360 57257170
710.64 63758260 80233620 91741330 72565580 53086150 48863670
713.54 49932920 55944820 72733980 81254170 62909000 46786480
716.43 43101200 43476710 47931250 63369040 72119270 56047710
719.32 41657830 37749220 37403560 39197620 52100300 61335750
722.22 49227820 37534090 33896740 32871560 33288340 41752120
725.11 51239670 44054320 33708860 29707520 28741870 27946950
728.00 32310880 40854120 38101010 29797780 26189180 25031510
730.89 25206510 27138470 32694230 32360740 26321710 22862420
733.79 21519190 20663250 21173310 24713600 26404950 22646630
736.68 19484350 18161260 17441190 16911490 18727110 20788700
739.57 19440220 16707880 15236650 14550780 14239940 14472540
742.46 16199190 15963830 13948860 12543790 11998760 11714110
745.36 11747960 12137090 12926150 12117660 10703780 10024960
748.25 9698634 9279412 9082580 9460670 10053520 9829584
751.14 8923528 7983230 7581402 7260056 7360906 7893062
754.04 8107528 7550308 7133568 6737700 6667956 6509688
756.93 6688612 6922100 7518114 8040240 8226550 7929024
759.82 7254994 6643838 6743788 7121744 7625744 7788676
762.71 7884468 7493300 7314234 7154262 7782344 8175604
765.61 8794312 9463290 9906488 10082330 10574900 10807660
768.50 11280540 12112820 13543160 14632440 15126550 15427770
771.39 16260450 17097430 18209710 18923300 19416510 19819970
774.28 20374400 20959620 21747150 22191760 22369070 22385940
777.18 22248450 22019950 22397740 22332190 21736210 21009770
780.07 20178680 19377550 19259400 18758010 18120810 17268580
782.96 16655380 15917520 15334390 14823200 14444860 13113120
785.86 11801030 10902560 9823354 8556300 8442432 9253332
788.75 10570260 11596920 12792870 14135520 15665000 16444410
791.64 17023370 17480740 18312710 18618740 18970980 19066420
794.53 19014340 18962740 18542990 18114100 17922630 17277100
797.43 16776850 16232810 15507250 14563980 13737940 13001620
800.32 12641660 11755170 10945740 10168650 9654418 8822316
803.21 7923606 7221500 6841434 6394570 5925758 5092914
806.10 4536726 4155870 4017312 3736900 3380762 2684550
809.00 2572402 2461882 2162304 1660938 1898704 1863640
811.89 1548550 1041720 1158522 1370154 1305922 974476
814.78 894772 529752 425180 567858 1132554 1166754
817.68 882608 819892 962972 766750 591086 362340
820.57 263948 343514 973486 1082948 1026162 558942
823.46 562516 626800 700046 594026 578230 392624
826.35 687126 710420 688364 117590 22554 127600
829.25 413194 418022 642678 643826 666386 605692
832.14 708538 504378 664128 584748 838586 662134
835.03 588500 589518 810114 909536 1214092 1378284
837.92 1691778 1379850 1603732 1965706 2267850 2300918
840.82 2589088 2697764 3175990 3170780 3664858 4016158
843.71 4653582 5169782 5822746 6415698 7099656 7600912
846.60 8504486 9104948 10112400 10968610 12125520 13063060
849.50 13909910 14943780 16576300 17938260 19320300 20248330
852.39 21551380 22924370 24685150 26078870 27483490 28703480
855.28 30245250 31543680 32870490 34032320 35063240 35872260
858.17 36871790 37325130 37856200 38157770 38178010 37604350
861.07 37167690 36581260 35738410 34133970 32593220 30953650
863.96 29332960 27178790 25194220 22907790 21426360 20149060
866.85 19210310 20701770 34396230 49712940 34285770 19139090
869.74 19816500 23776450 25201590 21101150 19483350 21221970
872.64 23418240 24297910 25701350 27249250 29316240 30909440
875.53 32840730 34286230 35616300 36274690 37308560 37930340
878.42 38548300 38380130 38200460 37595160 37405330 36671360
881.31 36013690 34910740 34036650 33126900 33098000 32431540
884.21 31130570 29779580 28972320 28293810 29309610 29856210
887.10 28874590 27653370 27349960 26874130 28356130 31075400
889.99 31463970 29729560 29001150 28805480 30767790 34788770
892.89 37807070 36386890 35013860 34193940 35928950 41228060
895.78 47556070 47272680 45184910 42850120 43492470 48250270
898.67 58035880 60179510 56852350 54095420 53565350 57412500
901.56 68340580 75526540 72050070 68213830 67311840 69304670
904.46 79438470 92129480 91536500 84375010 82356570 83544270
907.35 92021080 108745700 115952300 107134200 100903100 99771450
910.24 109749100 125049000 140803100 137192900 124833600 117936100
913.13 120007200 136211000 163159300 173033400 156705200 141041400
916.03 136969300 149427500 178518500 209804100 201286900 175206300
918.92 160333500 165028300 185408600 229615000 251028400 222065100
921.81 193209400 184936800 197600500 232699500 288129300 282594300
924.71 243059700 214322600 216600300 232817000 295642500 333408700
927.60 299922100 257932300 239206700 243672900 282089300 365830000
930.49 360592100 311977800 280328900 273140800 278080500 355436600
933.38 414018300 356548600 312786200 298872100 290643600 317861800
936.28 424108200 413694800 339991400 322561600 330263000 316581900
939.17 388464700 441317300 370808100 327691300 357279400 360480700
942.06 364201500 421345400 390279500 350337500 389900300 443592600
944.95 417321500 413765500 399926900 375126900 412065600 524465100
947.85 566937100 472350800 417971700 388980600 401809000 484953000
950.74 573778300 536481900 554745700 718026600 1257588000 1757700000
953.63 1379336000 879740500 619588500 501659800 452505600 440783600
956.53 482813300 512420700 433440400 391946100 405950800 397096500
959.42 395662800 451762800 469367700 446838500 446622900 436062700
962.31 405442500 448730500 539900900 510325200 431916000 396820000
965.20 386522200 471428400 585137200 523577000 434722400 441633300
968.10 498433700 650485500 792855700 800605200 924183200 1182320000
970.99 1034459000 775378900 684723300 537034000 437489300 407110100
973.88 432833500 532051300 551266800 442359500 375638500 358691200
976.77 407477300 506185000 506640100 414711500 355781500 350144300
979.67 427786600 504546500 490217300 414471800 344117700 355126700
982.56 441010800 477457400 458450900 395636200 330815600 368433000
985.45 434685200 432368900 423360200 379372400 338109600 370337000
988.35 386292500 379475300 393047100 362635400 342718800 351188800
991.24 332443600 349773400 375687800 354017800 323716700 299472600
994.13 296423900 334137900 359920100 321661000 271420400 266086400
997.02 288099900 330536700 323869700 261896300 242128400 256383800
999.92 285624700 299626700 254512200 223053600 231863300 248762700
1002.81 262312500 241713900 208887300 208600300 219170400 224351000
1005.70 217566000 192802800 180650500 188622800 188363000 188032900
1008.59 172770800 156937800 158826600 158953100 159044100 151758000
1011.49 136063500 132260700 132119900 135436900 134852300 120991400
1014.38 112673600 113658800 117439200 120133000 108658600 101581200
1017.27 100395600 100890500 102035200 95358720 88914700 88331600
1020.17 88192970 86164280 79997370 77315140 75164140 74326480
1023.06 71785600 66967570 65047140 63855480 61745730 58259090
1025.95 53953780 52737880 51717900 50857760 46803940 43257680
1028.84 41794100 41699070 39463960 35845900 33844630 33306700
1031.74 32366180 30339370 27629360 26574540 25751970 24795010
1034.63 22769380 21573040 20661140 19850560 18191890 17472910
1037.52 16607070 16047150 14997070 14197540 13580170 13184220
1040.41 12156490 11399400 10883760 10768780 10181840 9689180
1043.31 9071830 8956966 8529778 8342124 7997682 7741986
1046.20 7189570 7189476 6852600 6492894 6208548 6338156
1049.09 6115128 6069278 5724242 5767318 5763836 5960234
1051.99 5650982 5394956 5210970 5331974 5431638 5825280
1054.88 5615166 5530056 5320602 5751818 5874900 5850198
1057.77 5600170 5528890 5342516 5729022 5839236 5558118
1060.66 5043832 5035268 5077760 5412412 5368840 5098920
1063.56 4675976 4769486 5196772 5829654 5467808 5376072
1066.45 5581994 6152184 7131332 7878278 7514670 7817356
1069.34 8193536 9163436 10621160 11607300 11814740 12643770
1072.23 13403250 14856040 17031420 18784040 19779890 21086310
1075.13 22538320 25048200 28022520 30128050 31482930 33745660
1078.02 36013740 38721310 41822280 44254550 45955260 48321630
1080.91 50053290 52173410 54462490 55634080 56231460 57473570
1083.81 58204940 58921160 59081500 58505460 57232450 56097030
1086.70 54384640 51979560 49110900 46581030 43141210 38656510
1089.59 34000700 29874160 26174730 22814960 20256730 21765800
1092.48 33076830 44414300 42667120 38179520 37357390 39179330
1095.38 40050710 37462240 33707600 34636010 34228820 32381400
1098.27 32548780 33921430 34171070 34849730 35819800 36524550
1101.16 36897100 37534470 37945520 38439090 38399600 37441150
1104.05 36379020 35937290 34892340 34117610 33462620 31804790
1106.95 29464600 28041710 26624660 25206060 23966370 22809460
1109.84 20530740 18754030 17262360 16375820 14981050 14277090
1112.73 12818030 10993100 9889196 9434832 8512020 8075224
1115.63 7672466 6391514 5353184 5166620 4876678 4415616
1118.52 4198310 3805050 3050112 2814584 2933336 2824012
1121.41 2598636 2833622 2270556 1890082 1775548 2073468
1124.30 1890538 1996512 1711314 1462902 1296924 1495780
1127.20 1420810 1671544 1670424 1478518 1256878 1369806
1130.09 1217228 1356528 1415432 1256650 1091272 1226686
1132.98 1108976 1098710 1061342 1080708 1005106 1018670
1135.87 855080 840080 598692 851096 835152 803620
1138.77 807104 855364 723370 925580 783010 758112
1141.66 692248 642588 565356 767680 593130 568790
1144.55 505446 584652 503612 519760 439006 514136
1147.45 450530 411050 311858 513928 530174 564400
1150.34 455852 497716 417390 451842 409594 530918
1153.23 614488 622444 507014 548862 441180 610326
1156.12 513412 444892 404272 624196 673446 687778
1159.02 676398 865450 774856 779202 653470 745656
1161.91 667498 687200 600772 692732 813254 935016
1164.80 759026 756854 731294 816526 886022 953416
1167.69 879126 1036310 927708 866502 776012 920048
1170.59 995294 1036162 1040144 1030154 975770 983868
1173.48 894018 972210 1023640 1089520 870730 802752
1176.37 778818 868452 926442 1085828 958188 905318
1179.26 835800 964034 915110 813004 759060 911444
1182.16 970002 1002326 699460 641448 697740 992340
1185.05 1159896 1073810 825906 782490 689928 964722
1187.94 1145130 1004302 914516 998556 956470 1283672
1190.84 1244838 1031466 979832 1101322 1025856 1172024
1193.73 1279830 1268854 1074886 1041612 1057088 1168774
1196.62 1099774 1107196 1174292 1288644 1171328 1210886
1199.51 1141720 1231940 1389488 1574180 1538054 1520670
1202.41 1594626 2244278 3381986 3778024 2891026 2196014
1205.30 1789530 1569726 1407328 1519484 1559862 1906926
1208.19 2069576 1840170 1479962 1324426 1166496 1072294
1211.08 1023562 1322626 1436312 1427126 1191816 1062768
1213.98 1064696 1329610 1333882 1262186 1149998 1054040
1216.87 982232 1039132 1217904 1356044 1135300 1028634
1219.76 902874 1048260 1263632 1476948 1292814 1188600
1222.66 985958 869406 955860 1364352 1479894 1329068
1225.55 1017998 915548 762984 938342 1174298 1387754
1228.44 1284278 1111698 966866 989738 1028880 1330848
1231.33 1407066 1234156 1055002 989242 844190 880524
1234.23 1015918 1193626 1040684 842916 679376 762510
1237.12 881146 1006316 995428 990148 888410 906874
1240.01 817514 742556 761416 951076 897734 690848
1242.90 674414 855426 809370 842884 773322 806854
1245.80 820984 800190 698694 697476 728182 782772
1248.69 744658 790594 705230 683578 706068 881972
1251.58 1019214 1083816 959574 948256 1070304 1342530
1254.48 1255656 1272808 1282122 1238658 1391516 1706608
1257.37 1883802 2038898 2139108 2459924 2918426 3167410
1260.26 3182352 3314074 3436160 3906992 4507774 4974802
1263.15 5264660 5659616 5974626 6509948 7069222 7572960
1266.05 8054570 8438724 8824212 9451050 9865334 10274320
1268.94 10717670 10991600 11403110 12000470 12196770 12210430
1271.83 12257050 12374280 12427050 12415030 12089830 11768780
1274.72 11451090 11052220 10606100 10205850 9810696 9481940
1277.62 9178516 8850356 8169856 7344578 6535602 6083982
1280.51 6490656 8344620 10191370 11614380 12612960 12975090
1283.40 12827880 12619910 12665890 12880630 13059640 13531400
1286.30 13965200 14321990 14740220 15131640 15426800 15782030
1289.19 15898830 15876790 15796760 15850290 16003080 15901640
1292.08 15552460 15099980 14517320 14249120 14059560 14049160
1294.97 14183930 13910020 12823050 11709880 10905900 10404310
1297.87 10133590 9568956 8814976 8370840 8340988 8215306
1300.76 7816776 7704490 7434764 7443292 7599486 7640814
1303.65 7718478 7876758 7785848 7731690 7861838 8043666
1306.54 8159172 8449278 8928142 9277900 9441074 9645446
1309.44 9762842 10041250 10443350 10890860 11277520 11508960
1312.33 11570830 11797060 11866950 11932630 12174200 12300950
1315.22 12074900 12033740 12041450 11813690 11639200 11451080
1318.12 11294890 11120850 10802860 10337690 10043440 10039260
1321.01 10031550 10202780 10595560 10829940 10405110 9435532
1323.90 8682436 8600094 8855572 9125298 9085634 8904564
1326.79 8781466 9148254 9730516 9918882 10144060 10736310
1329.69 11303030 11256950 11168470 11542270 12422140 12702290
1332.58 12391010 12386400 13183790 13607870 13124170 12824550
1335.47 13265720 14434000 14260340 13035890 12699180 13828580
1338.36 14808080 14065100 13004670 13049760 14250430 14285560
1341.26 12896820 12053120 12109080 13729800 14215240 12859440
1344.15 12216220 12370990 13821830 15073330 14099600 13003000
1347.04 12756340 13530140 15463350 15564780 14244830 13742090
1349.94 14242690 15469420 16214130 15071760 14182880 14353620
1352.83 14999480 15270530 14850410 14236110 14025580 14144280
1355.72 13870630 13023360 12828430 12836690 12475080 12020470
1358.61 11457700 10986660 11135220 11589920 12721140 12576690
1361.51 12031040 12512890 14431170 15263210 14460360 14186750
1364.40 14310950 15200300 16885020 17951110 17666200 16952600
1367.29 17452550 18750670 20951710 21907970 20446720 19258020
1370.18 19071330 19394120 22574800 25412500 24446450 21847190
1373.08 21562880 22533720 25371370 26596910 24592720 23677760
1375.97 22280020 22764980 26702220 26403140 23490940 22944320
1378.86 24625060 26714920 29679320 26812450 22286930 21559150
1381.76 23093870 28834520 34663660 29905820 23319240 21523940
1384.65 23036810 29419750 39721530 36532620 29003630 27678310
1387.54 26988530 32192790 42280020 40752040 33609630 29818560
1390.43 30006620 36817290 51320360 51005170 42063960 39015380
1393.33 41211840 48401900 62982610 66695560 56889800 51643960
1396.22 52561400 60868840 76463920 84204590 78703130 73726150
1399.11 72776160 76717060 91437180 104075900 97832280 91361100
1402.00 91111570 94964810 104538200 115106700 112148000 106441000
1404.90 104158200 103963900 105803100 106624500 102855000 99045990
1407.79 96914860 90764700 83063260 78612160 76819690 70745750
1410.68 61503460 54945730 49640760 46089650 44703180 49508740
1413.58 87764350 134380900 103168300 62568440 51028460 51906090
1416.47 54251970 59551540 68073810 76360060 82254280 90017020
1419.36 94257510 97391390 99628420 102592000 108332500 108615800
1422.25 105411600 104088800 104747000 108488500 114799800 109144500
1425.15 97958290 92050490 89185140 93051140 98125480 90914440
1428.04 79461820 72749490 70057190 72608110 78534720 75321850
1430.93 59213260 50065560 44894900 44826510 50275260 53558360
1433.82 42961560 37277270 35605560 37658340 47058860 56154160
1436.72 46143270 35992040 33065220 33493300 37193280 43084400
1439.61 39032410 32729900 32010620 32249710 33478780 37724130
1442.50 35775490 29866680 28238030 27473190 27640910 30497910
1445.40 29814330 24987150 23876570 24032840 24901960 25950940
1448.29 23875720 19996630 18899420 18430510 17638600 18711910
1451.18 18773350 16555370 15648520 15459850 14293230 14514750
1454.07 15034750 14327290 14137950 15540340 21932720 25302880
1456.97 17407080 13893670 14175970 12365800 11328170 11004600
1459.86 9978714 9229876 8904500 8495174 8500424 8627586
1462.75 8379990 8429132 8652146 11255250 10911420 8101666
1465.64 7511786 6753664 5949118 5789982 5953012 6358092
1468.54 6035648 5093502 4712334 4786926 5459964 7630336
1471.43 10492870 8610592 6539240 9885860 8649498 4821022
1474.32 3594894 3545904 4963408 6517390 4944664 3236186
1477.21 2746202 2675522 2626152 2668740 2388942 2307752
1480.11 2429966 2934306 2719028 2075200 1800216 1830510
1483.00 1752482 1725444 1552856 1549664 1530038 1702402
1485.89 1762934 2772892 3955450 2683548 1505556 1843928
1488.79 2707772 3847288 3587654 3944096 2889776 1246104
1491.68 936774 751650 749328 691454 784208 829024
1494.57 1163738 2689276 8010894 7901270 2318676 967866
1497.46 1069386 3299316 4396280 2182736 779248 706914
1500.36 630860 909114 1047132 880514 582472 648180
1503.25 614152 815180 1646270 6991068 11535590 7068598
1506.14 9059904 12745710 6491712 3054598 3255384 2167548
1509.03 1969326 2023768 1036320 727110 809886 2473496
1511.93 3198998 1362582 399642 461726 872896 1843648
1514.82 1660486 1221884 2280924 3433696 4539946 4016402
1517.71 1552156 771148 846074 2201338 4170870 5409990
1520.61 10655770 9443262 3683014 4739478 3463358 1380350
1523.50 653248 1280472 2925980 5489104 3301026 1119186
1526.39 1424784 2271760 1443820 1719338 1602616 908640
1529.28 531764 518088 484500 1081380 1352718 1110272
1532.18 1666168 3762550 5260228 4826492 1723864 1015584
1535.07 817126 1008334 712120 1112110 1139804 2378650
1537.96 6246722 14567750 11750150 8782350 10516370 5194740
1540.85 3371392 8248152 9048686 3817386 2654180 2426334
1543.75 2009958 3653570 5674910 3424166 1541568 1274630
1546.64 1325946 1362640 1411914 1616848 2050780 3017844
1549.53 3616454 3017238 1960866 1760666 1600562 1845238
1552.43 2005386 2596826 5482446 9077928 5342710 2537060
1555.32 2155436 2614616 3370294 7377298 10118930 14525010
1558.21 15565210 8986442 11344830 16524790 11328370 4091672
1561.10 3048412 2816434 3187134 2996198 3198806 3190432
1564.00 4294392 5117998 4470432 3654464 3584834 3470278
1566.89 3754420 3971352 4751068 5699874 7710140 9642972
1569.78 7047326 4902276 5192808 5094898 4830184 4686098
1572.67 5000772 5390738 6265828 6473088 6590712 10542550
1575.57 19397560 16403810 9245624 8203266 6985750 6390846
1578.46 6397892 7087640 8223478 9340750 8250556 7203592
1581.35 7120636 7757364 9204242 11020540 10251680 8496778
1584.25 8123920 8695506 10346320 12797460 13002860 10813240
1587.14 9906704 10193640 11725350 14739940 16539490 15056810
1590.03 13630230 14096210 15730490 19017310 22836720 22680280
1592.92 20486590 20499310 22074480 25407830 30058170 32808010
1595.82 31280080 31066460 32664270 35895480 40625480 45387520
1598.71 45125850 44124840 45667330 48191940 51931030 56731790
1601.60 58717750 56974910 57098470 58611960 60808560 63413870
1604.49 65030760 63438720 61792340 61975580 61790590 60685600
1607.39 59222360 57334440 55566850 54240380 50951540 47067260
1610.28 43766320 41993930 41013270 38132950 35691380 36929330
1613.17 45908430 64581350 73093820 64290810 46755180 32281010
1616.07 37291510 38870700 35313670 37102050 41521540 47063360
1618.96 53769320 58363810 61223130 64532820 67579710 69937830
1621.85 72607100 74639590 77465770 77188490 73418540 72919060
1624.74 72723910 71685780 69911540 66390650 64637840 66209740
1627.64 64273390 60431960 56564630 52316620 51068310 51973500
1630.53 49438720 46537530 43827380 40729800 40340980 41372080
1633.42 39414940 39445010 41313500 44309610 45553370 41624030
1636.31 38468260 38737370 37872260 34813180 36069690 38770580
1639.21 38905290 38874250 38446620 36962820 38246970 40329780
1642.10 41017230 40380960 39005650 37627240 37938840 38333090
1644.99 42097410 45736060 40018120 35204680 34690300 32957930
1647.89 32224490 28901130 25760520 24499960 24038420 22664100
1650.78 22348160 24723150 36097990 44689950 49575820 44225840
1653.67 34829160 31572850 27345600 26354630 27867870 30073890
1656.56 29059990 28507090 29413470 31635150 33174440 33818730
1659.46 33533290 33114170 32378840 33077580 33529330 35376190
1662.35 37832210 35503530 31151540 29491540 28671240 28489140
1665.24 28605370 29352480 26842110 23873150 22677380 23173750
1668.13 24547860 28494740 27527660 20393250 17000870 17492650
1671.03 19026360 18204540 17051960 15094860 12709280 11920020
1673.92 12849560 17639450 20474350 15919880 10777060 8775250
1676.81 8621570 9257402 9983846 10219210 9203014 7945880
1679.71 8000892 8007062 7857392 8568638 8459820 8042380
1682.60 9924060 10365090 11803620 20493340 23139350 11074870
1685.49 5894848 4892832 5083682 5474448 6986434 6579656
1688.38 5426454 4675028 5030298 5127148 5489006 5182108
1691.28 4470328 3845536 3729496 3478266 4271972 4695256
1694.17 4839196 7493386 17097810 18065230 7790378 4555250
1697.06 4415868 3409822 3150574 4106500 8918640 15583430
1699.95 15858130 11329940 5022342 2616256 2274762 2308268
1702.85 2493720 3162022 4588924 3955950 2303222 2940238
1705.74 4709192 4064962 2216520 1721590 1433770 1481232
1708.63 1470190 1846144 2191508 1821480 1170972 1168040
1711.53 1219060 1403202 1491474 1751230 2356508 2676688
1714.42 4414958 4743120 2183456 1953244 5369808 13057750
1717.31 9478736 4833040 5082732 2691050 1378140 981162
1720.20 877074 860344 919494 841198 981528 1375334
1723.10 1600722 1110546 860076 748460 791334 835958
1725.99 905598 800050 819170 819970 892422 844686
1728.88 1351722 2283056 2173862 1061096 888690 952050
1731.77 1325852 3034876 8748370 8465222 8228930 10669560
1734.67 5115560 1806172 940524 873364 786084 1084566
1737.56 967182 1129494 1645370 4574470 5810612 2722488
1740.45 1075320 916800 952416 1303300 1989818 2315960
1743.34 1801510 1460654 1297344 1281964 1460702 1507482
1746.24 1764984 2164658 1827732 2289602 3116824 2596266
1749.13 1715532 1410006 2606260 6403014 6787828 2597884
1752.02 990756 868952 700676 615376 602424 670760
1754.92 677314 679828 1791868 3094008 1662744 646220
1757.81 478926 445304 348050 426208 441766 639590
1760.70 1523330 4142654 3471400 876656 352478 261530
1763.59 235080 191940 267114 248858 281740 257796
1766.49 332622 867344 3453720 3468492 806394 241392
1769.38 266066 538032 1741968 3228478 2234700 4921536
1772.27 8481820 4093166 748162 376688 438416 956840
1775.16 1476434 1369398 972342 594740 512586 586972
1778.06 492500 461630 337432 627674 1484402 1284492
1780.95 292276 174824 141428 192896 122208 161558
1783.84 464010 1839182 1419712 271576 6464 78592
1786.74 101424 68364 88878 170114 181100 368940
1789.63 501172 1355728 1705812 885250 1913042 5467480
1792.52 4331546 1062202 314354 51352 153738 361962
1795.41 673930 457608 148200 64038 13288 7652
1798.31 250528 1324490 1848270 708348 367710 879564
1801.20 810218 785478 934864 300150 61902 15486
1804.09 166252 139570 131534 107696 141802 113238
1806.98 317604 315984 176212 104846 135736 317752
1809.88 984918 1123726 559144 397140 464384 347266
1812.77 238166 216256 248778 269326 252384 214054
1815.66 324158 413698 591270 737460 619500 615458
1818.56 720328 807156 802792 806870 916766 908086
1821.45 1010802 1218804 1328392 1215388 1230424 1565646
1824.34 3007078 4025276 2743076 2024318 2044210 2125208
1827.23 2178618 2383380 2949176 3651440 4471370 5609226
1830.13 4233850 3008096 2951254 3020274 3095548 3133526
1833.02 3120442 3080202 3033352 2887964 2828648 2804840
1835.91 2861568 3045842 3044038 2637694 2360082 2102910
1838.80 1994884 1906956 1949462 1950774 2068692 2296928
1841.70 2720100 2567796 2412364 4009922 7634934 6179094
1844.59 3037942 2650348 2563740 2725080 2971784 3527448
1847.48 3667570 3440028 3497064 3661448 3922938 4147770
1850.38 4163834 4105162 3965182 3876846 3825032 3803198
1853.27 3841560 3772532 3625546 3607990 3628780 3622928
1856.16 3542994 3642210 3645906 3510370 3389092 3184008
1859.05 3097360 3146138 3281676 3444450 3327070 3110776
1861.95 3114944 3315606 3627206 3848404 4020320 3863706
1864.84 3648564 3604210 3861992 3921330 4432218 5504058
1867.73 5422030 5469790 7010692 6555940 5281278 5648860
1870.62 5970268 5797464 5539766 5443240 5499886 6114634
1873.52 7036528 7709570 7634828 7390474 7303442 7693790
1876.41 8608374 9715890 10541070 10757090 10582100 10491230
1879.30 11050260 12670190 14402530 15396460 15692640 15873200
1882.20 16115210 17137420 19315240 22091870 23491230 23860020
1885.09 24303030 24980030 26751850 29845860 33456990 34818710
1887.98 35532410 36788370 38762420 40841850 44174210 48190600
1890.87 49349880 50182040 51289790 52877840 55688300 60146480
1893.77 63547010 64426690 65202190 65545540 67014360 69949520
1896.66 73081180 74268980 74193640 74221300 73500320 72391430
1899.55 72186880 70905000 69584340 70393070 70208030 68399600
1902.44 66946850 66566280 66008370 64950620 63970480 63835170
1905.34 63225570 63045710 62960500 60632650 53518930 43113540
1908.23 36623650 36065760 40673680 46868540 52173050 58513930
1911.12 66337580 72221620 74620030 77930420 80714750 82603670
1914.02 84829360 88466220 89627340 87474500 85954920 84751230
1916.91 84400950 87714850 87615130 80864730 75480100 72910500
1919.80 72173270 71482900 68118720 64261120 60343480 57549750
1922.69 57038130 54713770 49940680 47270780 44873220 42873060
1925.59 42208850 38717820 34658380 32744050 32037580 32343040
1928.48 30840430 27043600 24148380 23398160 23904820 23608380
1931.37 21066800 18311810 17770940 18687750 18925200 17392890
1934.26 15335390 14370110 14298180 14666020 13796110 12814250
1937.16 13226290 14588220 16159820 16132270 15670600 15765580
1940.05 16578930 17735810 17376660 16911030 17945700 18146730
1942.94 17300820 16276700 15692920 15996520 16926640 16721790
1945.84 15122370 14016850 13987170 14434000 14490590 13602650
1948.73 12015690 11416480 11365900 11861590 12154580 10754160
1951.62 9355738 9168190 9353716 9869934 9250320 7674980
1954.51 7199460 7429202 7653074 7861152 7198840 6508384
1957.41 6284874 6203520 6310294 6139150 5512714 5316932
1960.30 5201392 5376414 5463928 4979180 4798272 5041664
1963.19 5144448 5209022 4617740 4233306 4170286 4468700
1966.08 4745374 4449144 4252066 4053608 4131686 4306488
1968.98 3906042 3533222 3376344 3518286 3312156 2880092
1971.87 2951602 3096226 3139796 2925294 2776306 2789014
1974.76 2841952 3015978 2769202 2530362 2631724 2725910
1977.66 2523438 2399094 2332616 2290388 2294290 2207554
1980.55 2055128 2020868 2034760 1919046 1822120 1923156
1983.44 1955816 1920846 1722880 1589612 1516000 1508824
1986.33 1560800 1581638 1536954 1572218 1428658 1271036
1989.23 1187660 1154626 1073274 1114630 1553910 1665288
1992.12 1312786 1113662 903486 840004 763730 797164
1995.01 801824 652702 575510 704812 823802 894924
1997.90 879296 868066 727150 654230 673316 655188
2000.80 494068 619338 803310 645042 518062 531206
2003.69 525332 510644 521476 458548 368922 420362
2006.58 457490 554814 506758 485030 511974 420964
2009.48 347234 304066 204196 231560 214500 340124
2012.37 441694 349372 242370 170478 180122 171850
2015.26 268672 501064 677210 578754 399004 489386
2018.15 485482 368486 303974 277092 314758 343386
2021.05 297308 304768 299784 383346 419562 380000
2023.94 247196 181396 198160 220294 233830 123778
2026.83 130650 233816 238314 219866 204378 159654
2029.72 135818 162640 197072 227606 190794 303486
2032.62 399346 318964 213024 275302 276140 169424
2035.51 165824 261520 290932 349442 351650 360402
2038.40 328644 316236 317024 334542 387086 408298
2041.29 360702 321574 245892 283298 281968 313218
2044.19 259848 275942 367824 567006 813562 1137272
2047.08 1258668 810626 312942 203086 281660 412620
2049.97 323634 224968 292212 398866 378852 345810
2052.87 402136 396148 431892 430866 410850 519072
2055.76 429768 337206 367970 466810 454828 402960
2058.65 354282 414664 484358 582108 605884 679212
2061.54 646620 844620 1328298 1612972 1232972 991946
2064.44 886098 757360 648366 538096 532766 548124
2067.33 426354 416596 377540 360568 346348 375856
2070.22 408896 396866 281738 249258 224240 290648
2073.11 390494 486420 263052 125534 142454 289320
2076.01 402832 496060 314732 230532 339546 375352
2078.90 375826 540680 397096 257922 329350 436138
2081.79 477228 605208 498680 286712 229364 283924
2084.69 320998 569028 570600 375642 301460 277104
2087.58 303476 500936 546976 354720 353154 360882
2090.47 279304 377972 395958 300630 264494 336058
2093.36 326416 395826 500284 402780 346126 296774
2096.26 263444 403938 329116 252540 276304 351334
2099.15 325044 336772 341654 211722 191288 223862
2102.04 264928 340272 249498 126164 167904 164990
2104.93 151692 278478 252794 99256 82768 140858
2107.83 166284 144048 119730 151294 119062 121754
2110.72 113542 21058 19522 82834 111260 89012
2113.61 63596 87818 91340 98848 101812 16780
2116.51-90272-46886-11442-17492 59226 123060
2119.40 96154 94862 47676-17262-43568-80990
2122.29-81580-19904-9322 74526 119414 114212
2125.18 72390-40968-103384 57728 135846 66746
2128.08 44968 31374-44798-67344-82988-27608
2130.97 4098 15200-51070-85812-51142 26892
2133.86 36634 90602 154008 125674 59044 36234
2136.75 34194-4240-9356 124272 195988 210546
2139.65 185778 233462 236592 153266 167748 220132
2142.54 225854 226352 215948 209556 189552 205898
2145.43 178254 256582 294104 246738 142416 160674
2148.33 191606 197046 126976 121546 203738 268882
2151.22 230826 260752 298116 406708 373848 265960
2154.11 289766 297842 250442 309806 349328 330632
2157.00 226178 248966 331008 309448 320404 322042
2159.90 301688 293198 295060 315290 303206 306136
2162.79 327582 301284 243286 198996 221670 351028
2165.68 361896 346052 283046 254206 309050 341266
2168.57 348772 265718 196566 229112 200868 224572
2171.47 332736 381786 395006 334956 285064 325546
2174.36 301674 332168 409052 345350 255424 359200
2177.25 365088 339320 436810 516908 526664 432456
2180.15 456722 533740 454104 407618 355232 376740
2183.04 432582 515492 428554 299024 332738 346226
2185.93 304156 268092 204380 244322 302852 362460
2188.82 353418 294294 259488 293400 340824 411344
2191.72 480772 485632 478488 439638 313932 291942
2194.61 400976 456316 402732 339416 410446 388004
2197.50 326224 360450 407640 493786 503650 517044
2200.39 414708 329248 389186 508594 545514 551044
2203.29 549830 558630 568212 639670 656556 718838
2206.18 704122 661550 701276 774472 932672 1082158
2209.07 1099050 1107696 1157422 1212974 1446306 1701558
2211.97 1708918 1701798 1798696 1979010 2304298 2608002
2214.86 2797646 2874480 2943408 3194554 3487924 3789114
2217.75 4073408 4349456 4630450 4894402 5281972 5663758
2220.64 6054820 6445858 6748834 7100168 7497130 7879234
2223.54 8265780 8649550 8870840 9016172 9332934 9672698
2226.43 10130710 10421390 10491630 10498930 10618240 10689900
2229.32 10851990 10958510 10866660 10726950 10496750 10266080
2232.21 10265430 10195520 10164400 9888308 9186726 8570856
2235.11 8211094 8405690 9334640 9207686 8665704 8419746
2238.00 7014370 6211474 7065074 9490322 13791510 14337920
2240.89 9238326 6787108 6982240 7618156 8202480 8890652
2243.79 9628504 10445780 11075650 11713760 12110330 12368760
2246.68 12579740 12783820 12849580 12780780 12473300 12179630
2249.57 11907160 11747880 11413090 10857250 10109580 9483468
2252.46 8913528 8416590 7915130 7316016 6609536 6045602
2255.36 5600028 5264810 4945894 4592968 4058856 3701544
2258.25 3527044 3478778 3455664 3420544 3170920 3045318
2261.14 3117944 3244214 3392678 3468480 3289282 3246790
2264.03 3390490 3567934 3846910 4106444 4257184 4237196
2266.93 4358484 4634634 4826028 4970574 4984722 5072222
2269.82 5298456 5424910 5413644 5429896 5489042 5597812
2272.71 5587656 5456208 5362066 5209472 5060006 4959070
2275.61 4738902 4458208 4156560 3845838 3571614 3546850
2278.50 3747004 4459868 6889554 7636450 4812274 3447156
2281.39 3562254 4026384 4185306 4130554 3906982 4051266
2284.28 4378076 4761620 5055772 5336944 5573140 5926556
2287.18 6262154 6495350 6639182 6813374 6964564 7161916
2290.07 7260716 7264702 7219246 7325924 7102000 6627690
2292.96 6307972 6025874 5616988 5232304 4951634 4888654
2295.85 4679892 4291876 3917104 3764150 3755582 3690218
2298.75 3364918 2915800 2468698 2226210 2027062 2005384
2301.64 1993440 2025526 1931718 1887666 1896082 1831196
2304.53 1865938 1926086 1987460 2085354 2090460 2013728
2307.43 1996122 2096926 2175186 2085416 2017796 2129444
2310.32 2176310 2176808 1999978 1893516 1859774 1800046
2313.21 1619144 1710592 1725446 1798364 1688146 1501308
2316.10 1441414 1535584 1424138 1282618 1178334 1204248
2319.00 1093554 906558 805046 1075044 1049528 884002
2321.89 827008 986818 895752 564684 539962 900586
2324.78 896678 556522 650502 1058910 870442 599294
2327.67 818300 1157070 953016 575150 813962 1183878
2330.57 890566 570882 900498 1143280 838288 831690
2333.46 1363982 1318130 717442 749906 1181842 975636
2336.35 590676 958330 1238668 847766 706832 1072634
2339.24 936204 656634 946092 1073808 735088 753982
2342.14 1011748 986296 799720 953034 1008714 788650
2345.03 841454 991364 813396 671706 743634 872600
2347.92 717444 514908 527158 694112 911578 1125040
2350.82 1051298 814526 846042 1236678 1385958 1262948
2353.71 1369118 1304824 1030692 1556366 1778652 1406156
2356.60 1650164 1698774 1367206 1884650 2000128 1717976
2359.49 2045812 1812746 1736490 2284498 1957268 1927398
2362.39 2269072 1964578 2316884 2520536 2255278 2433474
2365.28 2183928 2227330 2550754 2245632 2288258 2286738
2368.17 2235984 2406766 2231962 2384124 2341348 2168206
2371.06 2113104 2032686 2048952 1936436 1992262 2105496
2373.96 2180576 2317724 2311040 2409224 2556474 2661818
2376.85 2742816 2857266 2871204 2980870 3000974 3021390
2379.74 3057600 3145944 3221886 3167894 3050226 3002116
2382.64 2965226 2768882 2687890 2686766 2509164 2301414
2385.53 2150998 2176918 2342046 2510086 2541278 2613816
2388.42 2558092 2426646 2456574 2463924 2442308 2402396
2391.31 2425928 2307864 2257228 2366218 2343290 2347028
2394.21 2396394 2478302 2412474 2305680 2234600 2365064
2397.10 2428404 2425472 2320222 2201780 2097714 2176516
2399.99 2305490 2248654 2184284 2175418 2024558 1930706
2402.88 1875164 1857842 1907760 1894240 1852440 1729400
2405.78 1679472 1686250 1615426 1474318 1424288 1457278
2408.67 1307944 1273648 1344864 1339388 1290140 1300926
2411.56 1228996 1160470 1084860 1175790 1134326 991612
2414.46 957156 1003720 957058 968114 1110858 1095056
2417.35 1013700 1025626 997748 834668 781370 778274
2420.24 797126 879226 988516 1058146 1048024 994500
2423.13 957460 1014538 1090430 1149584 1035852 871400
2426.03 909160 1044784 1055820 1103458 1120642 1118980
2428.92 1111898 1045466 1061010 1102926 1110772 1091384
2431.81 1131642 1144360 1059400 1108548 1120634 1100310
2434.70 1095516 1187308 1268548 1217114 1228100 1275788
2437.60 1133596 1129240 1299264 1373486 1269046 1283564
2440.49 1365242 1400130 1457806 1584972 1604274 1520226
2443.38 1590982 1595550 1451420 1588724 1912928 1958204
2446.28 1849426 2025438 1990436 1920348 2000336 2343582
2449.17 2305620 2158080 2298870 2274038 2271296 2381392
2452.06 2606364 2611626 2612992 2634034 2521286 2552056
2454.95 2691512 2770880 2616682 2458128 2382308 2482948
2457.85 2446710 2441878 2419602 2321242 2360860 2317158
2460.74 2164488 2143238 2170052 2190028 2179790 2208200
2463.63 2227358 2103600 2089742 2238204 2294952 2333868
2466.52 2368640 2463422 2658076 2882212 2949172 3029698
2469.42 3198142 3389970 3529486 3779404 3805846 3653456
2472.31 3570506 3622782 3862070 3957682 3749184 3606702
2475.20 3486958 3706226 4055600 3662946 3087852 2936846
2478.10 3093608 3549402 3426998 2763776 2641664 2786664
2480.99 3027814 3215380 2708606 2385946 2410764 2606756
2483.88 2887066 2695440 2325252 2416566 2557180 2733388
2486.77 2735612 2568072 2359284 2322654 2413320 2459662
2489.67 2243854 2167866 2137542 2146940 2110616 1945710
2492.56 1954856 2005592 1993408 2060132 1903398 1753088
2495.45 1812834 1890958 1872716 1651856 1516066 1467008
2498.34 1551544 1629902 1571162 1447736 1383498 1314880
2501.24 1274236 1360796 1328996 1249630 1170730 1136192
2504.13 1123882 1129588 1185108 1226776 1142232 1124184
2507.02 1107386 1031538 1035208 1060786 1028646 1003148
2509.92 1014612 1090678 1007494 964406 1020506 995312
2512.81 983012 1076018 1048476 971804 939954 1001412
2515.70 975660 924242 912948 879166 862248 916894
2518.59 1002116 974330 860186 872250 919100 946668
2521.49 977822 967946 817908 832926 938356 936504
2524.38 936702 944692 919100 999680 1086180 1032126
2527.27 932780 975604 1013934 985708 924072 1002406
2530.16 1054156 1086618 1132212 1088124 1048158 958352
2533.06 945644 1110240 1129474 1002482 880850 947116
2535.95 1077032 1106510 1186386 1189668 1118490 1262854
2538.84 1334736 1300328 1227176 1282816 1347436 1259378
2541.74 1197128 1218930 1180278 1196462 1329414 1468042
2544.63 1427576 1457568 1366612 1280482 1262362 1540704
2547.52 1641064 1454986 1094974 993758 1148750 1498320
2550.41 1627816 1391534 1025652 1034662 1333766 1683742
2553.31 1624458 1089482 932548 1142872 1289286 1530478
2556.20 1565998 1412866 1446524 1359548 1337786 1552780
2559.09 1488292 1234100 1177890 1246064 1442944 1798218
2561.98 1914226 2025010 2138996 1881702 1688204 1675750
2564.88 1566200 1494660 1544162 1527424 1555586 2181018
2567.77 3103822 3944034 3964072 2843254 1841410 1515406
2570.66 1385484 1228682 1182822 1086778 919976 786054
2573.56 882094 1043444 1075794 981264 873172 796662
2576.45 796972 950544 1021726 905908 812382 907430
2579.34 1142634 1301466 1144458 780422 748804 833196
2582.23 906004 1091250 1234364 1005392 733270 728858
2585.13 790262 877208 848266 859510 871938 759030
2588.02 795310 870834 888868 915238 1008672 902074
2590.91 835460 864470 778098 792904 871624 861664
2593.80 680752 625054 644032 592160 510486 567736
2596.70 585842 522710 566210 588720 566868 611920
2599.59 699672 698784 499456 375584 414550 477140
2602.48 460362 402148 339640 235770 216666 321738
2605.37 380978 330686 339654 399096 322676 231106
2608.27 227666 227368 306726 333216 240664 203660
2611.16 157786 189560 195368 179956 238036 326466
2614.05 334024 313324 296970 349748 355016 182694
2616.95 116544 115926 55748-24388 6876 58908
2619.84 56482 141244 93804-85776-121726 1670
2622.73-4236-19272-15844 23242 3564-78686
2625.62-132384-122264-78006-16646-44690-71316
2628.52-92350-37384-11998 26 35676 66094
2631.41-12924-95320-81340-64598-2576-35682
2634.30-51930-45336-94386-124206-172416-125084
2637.19-167206-136654-62068-60842-105918-111018
2640.09-56644-201950-250514-158878-136810-155350
2642.98-24584 158594 124578-56234-130100-50804
2645.87-34858 13374-23010-1296-103070-170478
2648.77-182610-100034-109572-135266-66572-4942
2651.66-19308 5056 62314 8038-63642-104360
2654.55-90576-47624 21502 110496 208378 146382
2657.44-616-16588 103216 77352-71604-114786
2660.34-19728 72184 115416 146614 158592 153258
2663.23 166950 213398 186554 62360 27966-6868
2666.12 85006 274872 327618 328124 242968 171694
2669.01 290198 359662 285030 213280 143472 239828
2671.91 349770 291446 309452 348218 362464 440870
2674.80 491574 388352 288076 310040 395804 454938
2677.69 598464 720628 810988 829236 808346 791452
2680.59 977486 1132492 1048474 1068424 998294 955250
2683.48 1133854 1323546 1272056 1322600 1297744 1194774
2686.37 1354360 1639616 1767636 1791476 1669606 1664350
2689.26 1900572 1932690 1813160 1857454 2055134 2151094
2692.16 2138714 2120356 2126578 2363614 2489168 2449232
2695.05 2349992 2331534 2388380 2428644 2397044 2522262
2697.94 2417204 2332846 2214344 2195528 2405348 2827952
2700.83 2766238 2566314 2568484 2473116 2377862 2257920
2703.73 2135596 1967602 1931932 2020484 2043182 2103298
2706.62 2068968 2159580 2958172 3781740 3299838 2641168
2709.51 2406582 2319028 2308564 2314944 2421544 2620720
2712.41 2577854 2657988 2978648 3060702 2834068 2777252
2715.30 2734980 2808622 2826056 2834280 2678812 2586728
2718.19 2451966 2532204 2564714 2390844 2237490 2157268
2721.08 2045024 2052996 2095088 1945274 1745252 1625552
2723.98 1503748 1506660 1552916 1557870 1457940 1200382
2726.87 1056022 1032752 1017004 1072106 962812 822692
2729.76 856118 856552 793286 715318 591698 591300
2732.65 646854 610458 569394 614228 666932 693954
2735.55 599176 506696 536690 485014 403850 481486
2738.44 547246 548588 512950 626834 683244 658396
2741.33 652532 613244 498740 502932 597236 558184
2744.23 524986 443344 364098 355548 385040 346850
2747.12 343224 436418 391352 229476 251356 318988
2750.01 257602 258102 305238 281968 246112 110612
2752.90 98398 98328 120816 90454 140244 169614
2755.80 212144 179312 186214 172680 73108 128194
2758.69 172210 135256 179974 202550 227062 215662
2761.58 186396 186984 261998 278402 252912 335278
2764.47 374062 213740 90966 204864 421940 368734
2767.37 390176 563216 452086 355462 436372 578736
2770.26 549516 520356 403020 296360 467136 747090
2773.15 763594 786728 708144 621752 612756 551314
2776.05 639566 788862 681336 546218 621492 756220
2778.94 856958 958122 1037352 890546 689024 675014
2781.83 787136 944560 1124538 1104662 842602 734532
2784.72 836694 927952 1190212 1297358 1054016 725760
2787.62 602628 508818 549016 620654 714208 886006
2790.51 808472 624618 501354 431904 408362 462482
2793.40 396458 245488 316658 341452 465098 555364
2796.29 621556 526978 339870 473476 612536 488320
2799.19 482450 446760 330910 542204 760720 944138
2802.08 1170110 1112122 914904 998102 1003484 1007526
2804.97 1000466 890916 857404 871688 858172 809408
2807.87 779810 760716 768332 706486 726352 564132
2810.76 387552 321340 305478 383464 447068 298828
2813.65 55566 19258 55290 97238 225732 308578
2816.54 281172 127306 95608 133716 154074 123718
2819.44 100350 181206 106362 243446 363044 339090
2822.33 166356-6226 43962 269188 286522 177098
2825.22 108900 68814 33060 101314-72502-403542
2828.11-665232-511034-122448-54390 100030 159988
2831.01 48108 183584 151030 14664-54892 62060
2833.90 28874-146238-123554-134346-270614-268050
2836.79-364876-495922-355978-360662-341216-386764
2839.69-485662-509646-401068-467816-669736-613320
2842.58-535308-623746-602352-632224-573646-571136
2845.47-566824-489988-490394-450146-568554-692558
2848.36-683728-637844-547198-541768-622354-505358
2851.26-380986-453748-534862-414722-421306-537156
2854.15-586068-515402-492670-436284-366694-348888
2857.04-457924-544092-483694-407710-391662-476396
2859.93-580450-633128-500296-139224 17198 37132
2862.83-74654-100306-103904-149704-198224-185402
2865.72-233078-176978-175844-248846-44510 139900
2868.61 238456-3366-120760 130492 235536 233496
2871.51 61916-50958-52320 29138 97196 220754
2874.40 364482 375836 553188 750172 643962 449820
2877.29 397320 412384 403986 461714 482430 527686
2880.18 512410 438336 536534 776930 709934 549552
2883.08 510850 497734 598518 598664 588214 717894
2885.97 772958 919092 1209622 1467542 1367756 1147088
2888.86 1062400 1162966 1210132 1073436 950660 1145292
2891.75 1363116 1303260 1132442 1015018 1061576 1124808
2894.65 1149122 1144030 966012 787758 813816 983758
2897.54 1129608 1100146 936756 903790 1355556 1640538
2900.43 1261172 942144 769348 635600 745982 1182174
2903.32 1419098 1123278 851412 830066 832548 1026706
2906.22 1233736 1208096 1087344 1012702 1030778 1123814
2909.11 1172302 985050 882824 809546 725382 910104
2912.00 1135456 1011976 833368 943254 1082722 1032136
2914.90 972302 1048174 1213668 1305396 1107846 944852
2917.79 1094396 1443684 1675554 1503456 1023826 801886
2920.68 597536 526246 559260 510732 508472 538900
2923.57 462928 454624 399594 352486 259776 126162
2926.47 166424 235576 236968 364738 320812 120932
2929.36 158754 293858 373170 376878 275320 338102
2932.25 369944 461208 572514 289956 136056 295056
2935.14 249120 147562 285892 362560 258116 346860
2938.04 439686 511850 401992 385258 367682 293608
2940.93 335844 375024 226840 185440 56678 4424
2943.82 216638 306654 236650 69502-55194 35224
2946.72 193126 187018 106036 51810 57518 187008
2949.61 172464 193144 179566 84602 49750 148674
2952.50 152666 71046 81250 165250 130398-107176
2955.39-145186-58332 28962 102102 39204 48788
2958.29 90532 152038 197388 122428 36360 11772
2961.18 118378 168482 156294 166862 164976 219220
2964.07 246650 54908-14572 140366 155966 98810
2966.96 127812 278150 358986 373252 278320 308098
2969.86 390306 404658 592538 380572 216962 223126
2972.75 273926 462250 482330 314670 411708 419080
2975.64 384386 493140 503534 452084 416168 509126
2978.54 694342 836126 815088 743720 793900 896692
2981.43 1193466 1409550 1190510 1106262 1217636 1506062
2984.32 1658628 1551786 1347650 1323540 1539200 1759572
2987.21 1866094 1884564 1741202 1699280 1788486 1666842
2990.11 1697026 1697440 1553266 1452526 1403824 1267866
2993.00 1290408 1476350 1436688 1330080 1239888 1144174
2995.89 1259660 1643352 1573696 1474508 1619518 1535358
2998.78 1202348 1038590 1065012 1272342 1365180 1403028
3001.68 1693698 1874776 1953830 2009250 2137224 2266136
3004.57 2335758 2571790 2831234 2710914 2549262 2679608
3007.46 2823218 2951706 3164512 2996488 2728922 2591338
3010.36 2561176 2820770 3228162 3181504 2754836 2549018
3013.25 2536816 2922436 3543548 3740080 3704340 3773118
3016.14 3889398 4138142 4551516 5051336 5386550 5595360
3019.03 5858684 6356456 6997560 7689728 8266618 8920432
3021.93 9571368 10244290 11051310 11959410 12799600 13624830
3024.82 14658140 15753890 16708840 17796560 18769560 19793680
3027.71 20844980 21832000 22884740 24026940 25081140 26086270
3030.60 26886620 27541930 28279080 29001460 29837720 30168690
3033.50 30248500 30240410 30162430 29991930 29642170 28725480
3036.39 27567490 26702340 25907520 25198210 25039830 24655210
3039.28 23576320 22548630 22328470 22957990 26232820 33893130
3042.18 44542180 44011360 31774200 23916090 20857850 19451910
3045.07 19117090 19913380 21295620 23381630 25293210 26925940
3047.96 28018170 29285540 31059010 33901360 35216520 34639080
3050.85 34778370 34768580 34385440 34176430 34017000 33732800
3053.75 33255140 32822190 32310890 31662230 30972010 30038450
3056.64 28733660 27491840 26273970 25081230 23902900 22741520
3059.53 21465250 19992110 18589270 17384480 16503130 15659690
3062.42 14817350 13780640 12400600 11471080 10540760 9770562
3065.32 9331948 8989088 8261190 7646656 7286184 6996016
3068.21 6769694 6841484 6689746 6404874 6168618 6070632
3071.10 5832322 5730280 5628090 5594664 5489768 5218938
3074.00 4929314 5118186 5177922 4955812 4650028 4454658
3076.89 4248370 4388360 4716764 4980872 5082656 4963932
3079.78 4670722 4663486 4545280 4319144 4322308 4576954
3082.67 4789866 5365720 5780496 5671622 5766268 6083856
3085.57 6329220 7084318 7517582 7079696 6906630 7235742
3088.46 7575324 8374552 9053558 8702052 8275584 8294096
3091.35 8627320 9613114 10862490 10063720 8929996 9004008
3094.24 9897544 11136970 12719850 11879800 10268420 10134560
3097.14 10842060 11925720 13741690 13716950 11683300 11339530
3100.03 12108900 13666380 15948090 17270260 14709910 13870100
3102.92 14621710 16460310 18821710 21923210 20854710 20306290
3105.82 21759270 24691710 26199890 28155460 28044730 27155730
3108.71 28203540 30247940 33409640 37952320 39813120 38542810
3111.60 39036060 40654130 42917930 45403980 46695010 45058450
3114.49 43939560 44100230 44312280 43855230 42679260 40750280
3117.39 38826590 36700340 33707540 30956960 28967550 27010890
3120.28 24822770 23007470 22342890 23862490 29128550 39123760
3123.17 49704070 46384980 25984160 12747510 11711940 14044670
3126.06 16734370 19645780 23151670 27451180 30891610 32935390
3128.96 35477680 38829320 41093160 42307140 43726850 45153300
3131.85 45149470 44495070 44322040 44380190 44769090 45301300
3134.74 42545090 39095830 37682130 37164720 37480030 37396320
3137.64 33280970 28899640 27083200 26812010 27401830 27289930
3140.53 23507110 19187180 17495820 17070390 17538360 18389900
3143.42 16278840 12405400 11051980 11237400 12171130 13364600
3146.31 11889010 8423822 7187028 7316208 8175588 9943268
3149.21 9096798 6141428 5416608 5854920 6772702 8220546
3152.10 7861218 5906980 5317096 5204384 5866980 7213522
3154.99 6617216 4727646 4526640 4890142 5700188 6492690
3157.88 5534326 4201996 4203134 4296686 5000794 5416670
3160.78 4539574 3846384 3951486 4050678 4741482 4486898
3163.67 3385082 3041502 3265364 3515838 3911950 3343402
3166.56 2755472 2711356 2874324 3027802 3163036 2611488
3169.46 2182662 2159948 2496634 2647270 2486338 2071768
3172.35 1809462 1727528 2079166 2258674 1940090 1536216
3175.24 1448954 1580688 1850542 1671054 1563398 1573714
3178.13 1623136 1572586 1473276 1224706 1209748 1142518
3181.03 1077936 900770 863242 857512 1003076 952530
3183.92 702700 436028 387134 456392 678056 589822
3186.81 430056 371728 452214 464442 465164 217756
3189.70-21686-3084 99160 136764 222760 90604
3192.60 93822-43918-194148-219664-109516-55492
3195.49-76512-130320-139440-255692-296240-260134
3198.38-198086-218556-72512-12058-38292-277956
3201.27-412786-471076-372966-424952-419276-372142
3204.17-386840-299728-208814-354728-324874-415876
3207.06-525736-434986-238014-409924-513906-263480
3209.95-326944-661314-575532-484668-283182-408274
3212.85-446286-376206-365054-445208-332500-231760
3215.74-343558-461258-377364-423062-600710-488418
3218.63-249640-168020-116250-200146-454754-459548
3221.52-273652-158940-213816-403486-427970-419498
3224.42-292720-153760-72644-152636-311674-526072
3227.31-651160-767072-664848-466412-399628-326190
3230.20 88418 368586 252468-43364-145862-209742
3233.09-150974-216864-287100-269226-150260-153864
3235.99-184572-282158-426568-363362-400008-464484
3238.88-588536-735452-679404-614578-497288-542440
3241.77-338664-310122-446560-554458-676630-586940
3244.67-501006-557326-627060-726988-766932-793564
3247.56-857424-770084-570242-420882-530818-670378
3250.45-606094-692966-728376-416888-404394-588410
3253.34-607030-514284-628482-690492-690946-611486
3256.24-540060-615404-607442-453080-317166-330602
3259.13-341418-365954-289230-281884-365336-481246
3262.02-461924-356310-277662-150938-76744-259056
3264.91-367460-305694-480230-715480-623264-521902
3267.81-497512-521076-308450-340818-506692-474400
3270.70-315212-189298-242908-417552-437186-409702
3273.59-416102-521722-509422-437864-322194-404282
3276.49-501946-404914-435846-437526-264710-241128
3279.38-295642-206048-230538-330056-448826-540562
3282.27-511408-430486-383428-240356-104402-137454
3285.16-175360-142442-159012-302414-396270-353564
3288.06-354124-378022-359130-284118-202612-357528
3290.95-496270-412150-253488-394398-219654-162766
3293.84-380122-356206-302404-245278-94218-18430
3296.73 15784-32316-185236-4774 135630-20248
3299.63 55620 3004-154388-155472 48306 54980
3302.52-90228-186504-289916-322444-320630-283730
3305.41-323730-300002-118944-33008-12666 125302
3308.31 136880 72818 157194 145214 57092 142264
3311.20 470478 418620 311858 340362 418818 495272
3314.09 560744 555568 642100 729570 829354 900676
3316.98 972518 1019620 1029394 1128300 1101030 1109514
3319.88 1307840 1373368 1158094 1042942 1106344 1114654
3322.77 1190948 1237452 1191872 1280828 1175028 1000056
3325.66 963600 1152556 1316700 1166612 868994 712502
3328.55 1017908 990450 761218 519180 381620 428198
3331.45 965856 1197176 1472062 1817010 1463228 1235716
3334.34 1149244 1110108 1085744 1318774 1656346 1603038
3337.23 1529306 1729658 1854584 2077252 2237700 2230550
3340.13 2239998 2255438 2311224 2322106 2161652 2179158
3343.02 2170146 1991480 1814918 1747848 1670718 1734568
3345.91 1754006 1547000 1286758 1166076 883918 649550
3348.80 603750 653040 630632 592634 609170 705528
3351.70 635292 549954 368566 205018 184068 239912
3354.59 286006 292332 209144 304346 424154 328446
3357.48 497544 719796 851164 842100 766954 622744
3360.37 622986 768016 970102 831220 714702 635770
3363.27 524218 520744 559558 589046 549254 283744
3366.16 161300 300274 322522 189936 138306 16132
3369.05-76794 139908 310808 308824 259144 226868
3371.95 159050-3174 96876 338716 240982 39778
3374.84-33294-81908 104466 174040-50076-85784
3377.73-13216-59844 35118-156998-393106-130216
3380.62 105218 149194 130466-41578-62302-44556
3383.52-168002-207692-180926-161356-137822-176296
3386.41-242048-252074-350864-503844-498784-466668
3389.30-335884-243520-553248-577086-443196-129894
3392.19 277092 227916-64614-250110-250044-119892
3395.09-28340-302954-466792-323300-231150-381142
3397.98-471998-414840-611328-646136-412352-393900
3400.87-278184-84602 4652-109848-74254-140568
3403.77-307114-329470-299708-386510-408542-395300
3406.66-627068-825288-572994-299458-23390 71814
3409.55-192638-464844-438034-396048-396356-280712
3412.44-91678 18574-195414-432890-298124-130524
3415.34-233536-438560-380634-206824-257302-306736
3418.23-194706-56044-116334-119660-23306-86870
3421.12 55386-12606-199494-150940-91806-116880
3424.01-2466-207362-294670-138288-161090-358612
3426.91-212294-59174-205388-104782 10364-75560
3429.80-262096-311038-78236 54232 73812-31782
3432.69-59736-78030-324320-378082-105634-6380
3435.59-69234-132056-241760-384806-214234 118754
3438.48 255524 21936-262562-176968-96462-266316
3441.37-189846 83190 325410 209904-44138-154510
3444.26-156236-193222-375704-260338 265362 317846
3447.16-43552-196590-154094-96166 44286 190824
3450.05 99938-91288-44882 98456 149632 24498
3452.94 66878 35420 168580 273104 324380 345256
3455.83 283750 292156 351900 417174 97742-126686
3458.73-14140-65524-106434-53002 182430 125386
3461.62-25694 150310 151692-6978-69896-192144
3464.51-178106-127106-286000-346974-34870-63206
3467.40-42962-242894-291118 25076 263760 221450
3470.30 185072 88354 57712-17150-169466-114478
3473.19-158826-183196-77754 2676 132122 268048
3476.08 227898 75698-32954 18008 40482-71728
3478.98-71606-26654-12480-88896-134118-1498
3481.87 202534 247834 315264 345014 291856-32444
3484.76-54984 57766 154494 16896-5426 109214
3487.65 48432-191792-94676 148590 147320 109504
3490.55 97002 183104 102554-95984-189838 118222
3493.44 445704 437412 483006 552074 435692 379576
3496.33 232704 173534 383012 350050 299768 425038
3499.22 347482 192334 280160 427290 344020 323388
3502.12 578656 942324 1109792 866454 696550 431682
3505.01 163876 37978 132192 218752 160858 214000
3507.90 383916 515582 815868 648794 431274 520356
3510.80 452234 282000 230018 267854 487018 816786
3513.69 991272 790814 584962 543416 793016 1018898
3516.58 916620 874276 990904 1022228 919856 803738
3519.47 688366 528284 663784 856484 815448 675026
3522.37 791160 853600 875020 739350 721086 813324
3525.26 970340 798818 895702 1103660 962932 686100
3528.15 761902 729310 322588 354864 623596 496176
3531.04 319974 346940 399442 553396 842886 883740
3533.94 449840 152570 176054 373436 845294 732972
3536.83 500792 498552 430138 360334 342926 383132
3539.72 602120 579444 521230 425142 629862 731220
3542.62 793330 809860 800826 629650 962444 1114562
3545.51 661886 722070 1237432 847808 529684 673026
3548.40 418446 275482 353888 216650 1740 215902
3551.29 693354 848910 372428 261728 371694 118654
3554.19-128896-47712 148700 158678 120218 83514
3557.08 6166-10706 62106-75266-93008 472306
3559.97 528252 53262-59016 129772 204160 272156
3562.86 563800 588396 259030 283072 729486 1348558
3565.76 1790948 1820132 1203472 1922018 2653270 1360062
3568.65 474340 336784 493028 520398 377906 98614
3571.54 78570 175322 242248 280066 300378 238628
3574.44 214546-15780-80838 38096 366544 332672
3577.33 48272-160830-2884 311734 505342 489172
3580.22 127228-37270 222400 292128 357802 528276
3583.11 523668 122004 111020 338812 529712 1212968
3586.01 2823954 2122186 827182 1007120 2920956 3266178
3588.90 1126838 448232 398836 210704 27782 153930
3591.79 361686 972746 1349752 849484 355104 590172
3594.68 1378062 1249378 763372 647762 489228 633410
3597.58 749826 695356 565076 677404 750266 902016
3600.47 1134116 708386 309686 379442 556008 508092
3603.36 442652 578788 484392 393600 408590 757820
3606.26 1627558 1908202 894072 718474 2027902 5023874
3609.15 3684464 1131364 651906 520620 965628 2196514
3612.04 3909166 2700968 1015804 894956 1780188 1689826
3614.93 1182706 845572 788528 895176 1944570 2688262
3617.83 1782882 1447316 3875918 5212328 2249246 1076618
3620.72 1237300 937480 638718 779526 835330 832006
3623.61 589916 698372 955242 1229090 1480312 1422298
3626.50 1104502 1630944 4790038 7537838 5681196 8001770
3629.40 7020578 2523826 1580464 1280864 1348908 1490282
3632.29 1461344 1831072 2826202 2125094 1333196 1487966
3635.18 1546924 1474518 1449622 1452952 1742900 1901242
3638.08 1583778 1423332 1533672 1573146 1465826 1401694
3640.97 1691070 2011644 2016412 1731908 1578274 1447750
3643.86 1688250 1722504 1766664 1940930 2717924 3617408
3646.75 5213624 4607732 3076962 4907732 9892650 7740564
3649.65 4219058 5335420 5811752 4945662 2712898 2083650
3652.54 1915494 1715706 1613292 1800446 2080952 2806432
3655.43 5662394 7671784 4326798 2410486 1995820 2041812
3658.32 1938202 1994932 2041104 2119890 2034372 1989532
3661.22 1861618 1691868 1540660 1631064 1517136 1454710
3664.11 1407500 1319264 1308076 1494188 1268260 948606
3667.00 1053370 1644616 3749452 4876956 2822164 2944636
3669.90 8135300 11304860 4908004 1752090 1120338 1414262
3672.79 1325872 2108446 3423808 6691460 7188630 9124218
3675.68 10387910 4367290 1613348 1377238 1091874 1008260
3678.57 1831550 2401946 1428534 825884 417038 403004
3681.47 465950 544762 473714 491262 287340 462046
3684.36 314766 225848-16808 205290 410026 899038
3687.25 3071670 10618730 10667860 3175230 793936 905424
3690.14 2067160 4137228 3650084 1058938 572924 384090
3693.04 500348 489822 586788 312494 284164 402694
3695.93 484668 238276 268160 319456 308122 256074
3698.82 288926 176176 119898 292164 1396160 3148198
3701.72 2323142 651222 280392 244794 300230 48234
3704.61 78762 193504 221828 30706 227334 81264
3707.50 151750 354080 1901058 3439176 1795012 488298
3710.39 856194 1652686 5601344 7840294 3001572 343676
3713.29 46116 247648 619032 289878-92098-6550
3716.18-69824-29388 83616 275542 763062 1062446
3719.07 272108 2306 38308 67234 427806 1770684
3721.96 1930016 682638 890-23930 366554 970414
3724.86 781188 550812 1859376 2307884 663770 84226
3727.75-54090-145200-52354 42308-132480 51846
3730.64 481300 2899606 6627150 4307282 660624 209346
3733.54 1009218 2883364 3928162 3337748 2144270 5063754
3736.43 5926636 1585946 664696 1264884 767408 125976
3739.32 6434-3312 724902 1402906 872646 194534
3742.21 404006 1100844 4119326 11643660 18008550 10908100
3745.11 2399636 394258 210838 400446 668878 737300
3748.00 1531604 7381036 12472170 6318140 1151158 845504
3750.89 2064858 8684098 12944700 5201024 592232 96262
3753.78 95604-41594 105678 237360 1232166 1832262
3756.68 746370 40102 34120 160178 961284 2410804
3759.57 2532586 632290-44240-190506-214280-152252
3762.46 71728 24542 60532-109444 6600 1218880
3765.35 2306718 874662 5016-273488-131290-11992
3768.25 173804 824240 3392320 3296766 818504-58796
3771.14-175060-357428-389832-335352-217174-288282
3774.03-263392-258892-271916-99560 29280-139474
3776.93-52830-60804-183320 319434 2011496 1965502
3779.82 249780-335130-323096-133902-174528-233878
3782.71-258604-208518-3270 457348 276730 1348
3785.60-101686-217476-380708-425526-334294-209884
3788.50-173644-219594-449058-391416-96386-34710
3791.39-288428-410428-345566-237010-316884-193454
3794.28-275174 41852 603240 2344126 2428040 865774
3797.17 459724 174716-62116 48066 65882 489626
3800.07 1815830 7632778 11716280 4929028 1156770 1189826
3802.96 451588-7928 6684 30766 241572 613364
3805.85 2213344 6962856 6426900 1403194 106524-82260
3808.75-79818-431618-92574-76244 5268-125272
3811.64 128674 63746 128676-79024 193478 303050
3814.53 938448 4529766 11835290 8607758 1753758 454020
3817.42 455590 696408 647388 711486 1225708 3329222
3820.32 5425970 5178490 5973230 3128990 591650 459828
3823.21 544934 825914 727178 581482 822440 1216940
3826.10 2311094 2211030 996436 906976 899160 699758
3828.99 648834 770756 878830 1564306 3751052 4328744
3831.89 2097344 1545882 1460996 1709910 2232884 4778052
3834.78 4517920 2147406 1548268 2236764 4939980 12880530
3837.67 12153650 4103870 2150490 2558724 3118808 3256288
3840.57 4345076 3070568 2121626 1908854 2347426 3634506
3843.46 3843968 2101254 1420082 1132728 1195138 1260608
3846.35 1466802 1337288 1437418 1328272 1508232 1784666
3849.24 2269280 2058708 1898894 2432346 7712332 11806020
3852.14 6156654 3818076 9960110 19243290 16385650 5962388
3855.03 2291300 2046236 2425824 3193288 3416474 2677014
3857.92 2415006 2270384 2386544 2093278 1997454 1980758
3860.81 2981700 4174716 3012492 1710264 1686810 1669594
3863.71 2083308 4088438 6030816 2950066 990660 589912
3866.60 730208 555410 801556 1274164 3093854 4605622
3869.49 7933742 6165082 1511296 807034 439706 313180
3872.39 209340 840174 2002242 2951878 1685350 424658
3875.28 340214 223672 115738 76050 324584 447082
3878.17 488986 531494 1428402 3432754 3200910 1887980
3881.06 1054572 527004 480658 660538 896400 637834
3883.96 544646 1181744 5246392 6836822 2998018 921040
3886.85 682132 548366 501276 682280 594042 309858
3889.74 489972 2125058 5197040 3987384 1314218 780596
3892.63 697674 929616 1054536 833954 767936 783364
3895.53 898744 931446 740654 829982 1097968 1300880
3898.42 2946702 4774528 2864000 1341100 1320798 2948586
3901.31 5348696 3806554 1813884 1610232 3316106 5721944
3904.21 3724296 1643832 1653226 1807622 1263260 1028198
3907.10 1107108 1219626 1271232 1250070 1102748 784898
3909.99 672292 759852 786178 621782 579258 567480
3912.88 669276 877870 763270 672274 947140 1222890
3915.78 1527224 1812124 2777040 2129324 1297694 1291690
3918.67 1256002 1962790 2662368 1785140 1172584 1129104
3921.56 979462 976738 1214522 1516428 1566580 1540142
3924.45 1958516 1897838 1247276 920796 595246 708662
3927.35 800938 766760 849350 1131660 1024882 837056
3930.24 808024 583184 767584 1518572 1719434 969054
3933.13 744430 807524 761742 457326 319604 251076
3936.03 223592 269346 499474 767318 711760 254014
3938.92 210834 415766 486424 438718 429732 363534
3941.81 839842 1401012 894794 513602 577110 606192
3944.70 486536 378742 322420 401686 644620 817460
3947.60 768088 579346 433060 945786 1281744 720706
3950.49 286652 384326 614378 510060 385578 368548
3953.38 453490 521226 583442 538000 481452 476656
3956.27 593568 573184 433238 452914 449674 516350
3959.17 561838 552102 625684 769934 923278 927284
3962.06 696906 435754 289250 386912 470546 586690
3964.95 598122 500350 511262 550718 676638 924148
3967.85 945942 921912 989234 986220 988552 912984
3970.74 851792 1059122 1098302 1085200 1023956 1077644
3973.63 1078714 1181862 1605962
##END=
