##TITLE=2-PROPENALDEHYDE
##JCAMP-DX=4.24
##DATA TYPE=INFRARED SPECTRUM
##CLASS=COBLENTZ III
##ORIGIN=DOW CHEMICAL COMPANY
##OWNER=COBLENTZ SOCIETY
Collection (C) 2018 copyright by the U.S. Secretary of Commerce
on behalf of the United States of America. All rights reserved.
##DATE=1964/05/27
##NAMES=acrylaldehyde
ACROLEIN
##CAS REGISTRY NO=107-02-8
##MOLFORM=C3 H4 O
##SOURCE REFERENCE=COBLENTZ NO. 10193
##$NIST SOURCE=COBLENTZ
##$NIST IMAGE=cob10193
##SPECTROMETER/DATA SYSTEM=DOW KBr FOREPRISM-GRATING
##INSTRUMENT PARAMETERS=BLAZED AT 3.5, 12.0, 20.0 MICRON, CHANGED AT 5.0, 7.5, 14.9 MICRON
##STATE=SOLUTION (10% IN CCl4 FOR 3800-1333, 10% IN CS2 FOR 1333-450 CM^-^1)
##PATH LENGTH=0.011, 0.011 CM
$$SPECTRAL CONTAMINATION DUE TO CCl4 AROUND 1547, AND CS2 AROUND 850 CM^-^1
$$ SEE SPECTRUM NO. 8769 FOR "VAPOR" STATE
##SAMPLING PROCEDURE=TRANSMISSION
##RESOLUTION=4
##DATA PROCESSING=DIGITIZED BY NIST FROM HARD COPY (FROM TWO SEGMENTS)
##XUNITS=1/CM
##YUNITS=TRANSMITTANCE
##XFACTOR=1.000000
##YFACTOR=1
##DELTAX=0.857634
##FIRSTX=444.254
##LASTX=3802.75
##FIRSTY=0.951
##MAXX=3802.75
##MINX=444.254
##MAXY=1.016
##MINY=0.005
##NPOINTS=3917
##XYDATA=(X++(Y..Y))
444.254000 0.9510 0.9530 0.9540 0.9540 0.9540
448.542168 0.9540 0.9550 0.9570 0.9590 0.9630
452.830336 0.9650 0.9650 0.9650 0.9660 0.9670
457.118505 0.9690 0.9700 0.9730 0.9750 0.9750
461.406673 0.9750 0.9750 0.9750 0.9770 0.9770
465.694841 0.9770 0.9780 0.9780 0.9780 0.9790
469.983009 0.9790 0.9790 0.9790 0.9790 0.9790
474.271177 0.9810 0.9810 0.9810 0.9820 0.9820
478.559346 0.9820 0.9810 0.9810 0.9810 0.9820
482.847514 0.9830 0.9850 0.9850 0.9860 0.9870
487.135682 0.9870 0.9870 0.9870 0.9870 0.9870
491.423850 0.9870 0.9860 0.9860 0.9860 0.9860
495.712018 0.9870 0.9860 0.9850 0.9850 0.9850
500.000187 0.9850 0.9830 0.9830 0.9820 0.9820
504.288355 0.9820 0.9820 0.9810 0.9810 0.9810
508.576523 0.9810 0.9810 0.9810 0.9790 0.9780
512.864691 0.9780 0.9780 0.9780 0.9780 0.9770
517.152859 0.9750 0.9740 0.9690 0.9660 0.9660
521.441028 0.9660 0.9670 0.9690 0.9690 0.9690
525.729196 0.9690 0.9670 0.9670 0.9660 0.9660
530.017364 0.9650 0.9650 0.9630 0.9620 0.9590
534.305532 0.9590 0.9570 0.9540 0.9530 0.9490
538.593700 0.9460 0.9430 0.9420 0.9390 0.9370
542.881869 0.9330 0.9290 0.9230 0.9170 0.9100
547.170037 0.9040 0.8990 0.8920 0.8880 0.8720
551.458205 0.8660 0.8481 0.8341 0.8171 0.7991
555.746373 0.7750 0.7510 0.7250 0.6900 0.6720
560.034541 0.6371 0.6171 0.6150 0.6170 0.6339
564.322710 0.6450 0.6690 0.6890 0.7100 0.7240
568.610878 0.7330 0.7420 0.7440 0.7420 0.7410
572.899046 0.7380 0.7330 0.7280 0.7240 0.7210
577.187214 0.7001 0.6781 0.6730 0.6591 0.6461
581.475382 0.6330 0.6150 0.5970 0.5890 0.5780
585.763551 0.5620 0.5560 0.5520 0.5480 0.5470
590.051719 0.5600 0.5720 0.5870 0.6030 0.6180
594.339887 0.6330 0.6510 0.6759 0.6979 0.7219
598.628055 0.7410 0.7770 0.7930 0.8120 0.8230
602.916224 0.8380 0.8470 0.8510 0.8620 0.8759
607.204392 0.8880 0.8920 0.9000 0.9060 0.9080
611.492560 0.9180 0.9220 0.9250 0.9310 0.9340
615.780728 0.9420 0.9450 0.9460 0.9470 0.9500
620.068896 0.9530 0.9530 0.9540 0.9540 0.9550
624.357065 0.9570 0.9570 0.9570 0.9550 0.9550
628.645233 0.9540 0.9530 0.9500 0.9470 0.9450
632.933401 0.9430 0.9410 0.9390 0.9340 0.9270
637.221569 0.9220 0.9180 0.9140 0.9120 0.9110
641.509737 0.9100 0.9030 0.9020 0.9000 0.8950
645.797906 0.8920 0.8900 0.8880 0.8900 0.8980
650.086074 0.9060 0.9120 0.9220 0.9310 0.9340
654.374242 0.9370 0.9420 0.9460 0.9500 0.9540
658.662410 0.9540 0.9570 0.9570 0.9570 0.9580
662.950578 0.9590 0.9610 0.9610 0.9630 0.9650
667.238747 0.9650 0.9660 0.9710 0.9750 0.9770
671.526915 0.9780 0.9790 0.9810 0.9820 0.9820
675.815083 0.9830 0.9850 0.9850 0.9870 0.9870
680.103251 0.9870 0.9870 0.9870 0.9870 0.9890
684.391419 0.9890 0.9890 0.9890 0.9890 0.9900
688.679588 0.9900 0.9900 0.9910 0.9930 0.9930
692.967756 0.9930 0.9930 0.9940 0.9950 0.9950
697.255924 0.9940 0.9940 0.9940 0.9940 0.9940
701.544092 0.9940 0.9940 0.9940 0.9950 0.9950
705.832260 0.9950 0.9940 0.9930 0.9900 0.9900
710.120429 0.9900 0.9900 0.9900 0.9900 0.9900
714.408597 0.9900 0.9900 0.9900 0.9900 0.9900
718.696765 0.9900 0.9900 0.9900 0.9900 0.9890
722.984933 0.9890 0.9890 0.9890 0.9890 0.9890
727.273101 0.9890 0.9870 0.9870 0.9860 0.9860
731.561270 0.9860 0.9860 0.9860 0.9860 0.9860
735.849438 0.9860 0.9860 0.9860 0.9860 0.9870
740.137606 0.9870 0.9870 0.9870 0.9890 0.9890
744.425774 0.9890 0.9890 0.9900 0.9910 0.9910
748.713942 0.9910 0.9940 0.9940 0.9950 0.9970
753.002111 0.9970 0.9970 1.0010 1.0010 1.0010
757.290279 1.0020 1.0020 1.0020 1.0020 1.0040
761.578447 1.0050 1.0080 1.0080 1.0080 1.0080
765.866615 1.0080 1.0080 1.0060 1.0060 1.0050
770.154783 1.0040 1.0020 1.0020 1.0020 1.0020
774.442952 1.0010 1.0010 1.0020 1.0040 1.0040
778.731120 1.0040 1.0040 1.0040 1.0040 1.0040
783.019288 1.0040 1.0040 1.0040 1.0040 1.0040
787.307456 1.0040 1.0040 1.0040 1.0040 1.0040
791.595624 1.0040 1.0040 1.0040 1.0040 1.0020
795.883793 1.0000 1.0000 1.0000 1.0000 1.0010
800.171961 1.0010 1.0010 1.0010 1.0010 1.0010
804.460129 1.0010 1.0010 1.0010 1.0010 1.0000
808.748297 1.0000 0.9980 0.9980 0.9970 0.9910
813.036465 0.9890 0.9860 0.9850 0.9850 0.9820
817.324634 0.9810 0.9780 0.9780 0.9770 0.9770
821.612802 0.9770 0.9740 0.9710 0.9700 0.9670
825.900970 0.9650 0.9620 0.9590 0.9550 0.9550
830.189138 0.9420 0.9380 0.9330 0.9210 0.9140
834.477306 0.9060 0.9000 0.8920 0.8781 0.8641
838.765475 0.8560 0.8470 0.8380 0.8320 0.8270
843.053643 0.8250 0.8250 0.8250 0.8250 0.8270
847.341811 0.8280 0.8310 0.8320 0.8350 0.8360
851.629979 0.8400 0.8420 0.8440 0.8470 0.8500
855.918147 0.8510 0.8520 0.8550 0.8580 0.8590
860.206316 0.8600 0.8620 0.8630 0.8640 0.8670
864.494484 0.8680 0.8710 0.8710 0.8720 0.8740
868.782652 0.8740 0.8750 0.8760 0.8760 0.8760
873.070820 0.8780 0.8780 0.8780 0.8760 0.8740
877.358988 0.8710 0.8680 0.8640 0.8620 0.8560
881.647157 0.8520 0.8440 0.8360 0.8270 0.8150
885.935325 0.8040 0.7811 0.7710 0.7600 0.7520
890.223493 0.7340 0.7080 0.6880 0.6500 0.6111
894.511661 0.5930 0.5701 0.5580 0.5460 0.4853
898.799829 0.4519 0.3680 0.3290 0.2890 0.2700
903.087998 0.2241 0.1681 0.1441 0.1400 0.1470
907.376166 0.1640 0.1820 0.2020 0.2260 0.3248
911.664334 0.3400 0.3639 0.3899 0.4169 0.4479
915.952502 0.4790 0.5040 0.5630 0.5760 0.5940
920.240671 0.5980 0.6070 0.6170 0.6180 0.6180
924.528839 0.6180 0.6170 0.6130 0.6110 0.5980
928.817007 0.5930 0.5790 0.5720 0.5660 0.5540
933.105175 0.5480 0.5420 0.5320 0.5220 0.5060
937.393343 0.4990 0.4831 0.4611 0.4391 0.4271
941.681512 0.4050 0.3770 0.3460 0.3300 0.3130
945.969680 0.2811 0.2501 0.2241 0.2061 0.1642
950.257848 0.1510 0.1330 0.1160 0.1040 0.0990
954.546016 0.0920 0.0890 0.0880 0.0870 0.0880
958.834184 0.1000 0.1030 0.1120 0.1290 0.1370
963.122353 0.1470 0.1570 0.1719 0.1840 0.1979
967.410521 0.2040 0.2150 0.2190 0.2200 0.2200
971.698689 0.2150 0.2060 0.1980 0.1841 0.1681
975.986857 0.1530 0.1510 0.1310 0.1290 0.1290
980.275025 0.1320 0.1510 0.1560 0.1879 0.2179
984.563194 0.2400 0.2590 0.3329 0.3640 0.3810
988.851362 0.4319 0.4519 0.4799 0.4969 0.5139
993.139530 0.5280 0.5590 0.5740 0.5890 0.6030
997.427698 0.6170 0.6310 0.6460 0.6590 0.6739
1001.715866 0.6890 0.7040 0.7180 0.7330 0.7480
1006.004035 0.7750 0.7840 0.7970 0.8070 0.8090
1010.292203 0.8150 0.8230 0.8320 0.8380 0.8430
1014.580371 0.8470 0.8500 0.8510 0.8540 0.8600
1018.868539 0.8620 0.8640 0.8670 0.8710 0.8740
1023.156707 0.8790 0.8820 0.8830 0.8840 0.8860
1027.444876 0.8920 0.8940 0.8940 0.8950 0.8960
1031.733044 0.8990 0.9000 0.9020 0.9030 0.9040
1036.021212 0.9070 0.9080 0.9100 0.9110 0.9120
1040.309380 0.9140 0.9150 0.9170 0.9180 0.9210
1044.597548 0.9220 0.9230 0.9260 0.9290 0.9330
1048.885717 0.9340 0.9350 0.9380 0.9390 0.9410
1053.173885 0.9420 0.9430 0.9460 0.9470 0.9470
1057.462053 0.9490 0.9490 0.9490 0.9490 0.9490
1061.750221 0.9470 0.9470 0.9450 0.9450 0.9450
1066.038389 0.9430 0.9430 0.9430 0.9430 0.9420
1070.326558 0.9420 0.9410 0.9410 0.9390 0.9380
1074.614726 0.9370 0.9370 0.9370 0.9350 0.9350
1078.902894 0.9340 0.9340 0.9340 0.9330 0.9330
1083.191062 0.9340 0.9340 0.9340 0.9350 0.9370
1087.479230 0.9390 0.9420 0.9420 0.9420 0.9420
1091.767399 0.9420 0.9420 0.9420 0.9410 0.9410
1096.055567 0.9390 0.9390 0.9380 0.9370 0.9370
1100.343735 0.9350 0.9340 0.9310 0.9300 0.9270
1104.631903 0.9230 0.9220 0.9210 0.9180 0.9140
1108.920071 0.9120 0.9040 0.9000 0.8980 0.8940
1113.208240 0.8920 0.8800 0.8750 0.8720 0.8620
1117.496408 0.8500 0.8350 0.8191 0.8051 0.7960
1121.784576 0.7770 0.7710 0.7640 0.7510 0.7370
1126.072744 0.7260 0.7120 0.7020 0.6771 0.6412
1130.360912 0.6220 0.6010 0.5830 0.5660 0.5540
1134.649081 0.5400 0.5190 0.4811 0.4531 0.4241
1138.937249 0.4080 0.3480 0.2990 0.2501 0.2121
1143.225417 0.2040 0.1781 0.1511 0.1291 0.1111
1147.513585 0.1040 0.0960 0.0740 0.0720 0.0720
1151.801753 0.0740 0.0989 0.1110 0.1230 0.1399
1156.089922 0.1860 0.2280 0.2850 0.3600 0.4519
1160.378090 0.5109 0.5120 0.5748 0.5949 0.6329
1164.666258 0.6510 0.6760 0.6940 0.7140 0.7330
1168.954426 0.7839 0.7910 0.7970 0.8050 0.8150
1173.242594 0.8270 0.8380 0.8480 0.8560 0.8640
1177.530763 0.8720 0.8790 0.8870 0.8920 0.8940
1181.818931 0.8980 0.9020 0.9070 0.9150 0.9180
1186.107099 0.9190 0.9250 0.9270 0.9310 0.9350
1190.395267 0.9370 0.9380 0.9410 0.9450 0.9470
1194.683435 0.9490 0.9510 0.9530 0.9540 0.9550
1198.971604 0.9570 0.9580 0.9580 0.9580 0.9570
1203.259772 0.9570 0.9540 0.9530 0.9500 0.9450
1207.547940 0.9410 0.9330 0.9300 0.9300 0.9340
1211.836108 0.9340 0.9380 0.9450 0.9500 0.9570
1216.124276 0.9620 0.9660 0.9700 0.9740 0.9750
1220.412445 0.9780 0.9780 0.9790 0.9790 0.9790
1224.700613 0.9810 0.9810 0.9810 0.9810 0.9790
1228.988781 0.9770 0.9730 0.9710 0.9710 0.9700
1233.276949 0.9700 0.9690 0.9670 0.9660 0.9660
1237.565118 0.9630 0.9620 0.9590 0.9590 0.9580
1241.853286 0.9570 0.9570 0.9550 0.9540 0.9530
1246.141454 0.9510 0.9490 0.9460 0.9430 0.9390
1250.429622 0.9380 0.9370 0.9350 0.9310 0.9270
1254.717790 0.9250 0.9220 0.9170 0.9100 0.9020
1259.005959 0.8950 0.8880 0.8820 0.8740 0.8620
1263.294127 0.8440 0.8290 0.7931 0.7830 0.7720
1267.582295 0.7610 0.7600 0.7970 0.8080 0.8250
1271.870463 0.8470 0.8560 0.8680 0.8750 0.8830
1276.158631 0.8950 0.8980 0.9060 0.9150 0.9190
1280.446800 0.9230 0.9270 0.9340 0.9350 0.9370
1284.734968 0.9390 0.9420 0.9430 0.9450 0.9470
1289.023136 0.9500 0.9510 0.9510 0.9530 0.9540
1293.311304 0.9540 0.9550 0.9570 0.9570 0.9580
1297.599472 0.9590 0.9610 0.9610 0.9590 0.9590
1301.887641 0.9590 0.9590 0.9590 0.9610 0.9630
1306.175809 0.9630 0.9620 0.9610 0.9610 0.9590
1310.463977 0.9590 0.9590 0.9590 0.9590 0.9590
1314.752145 0.9580 0.9570 0.9570 0.9550 0.9540
1319.040313 0.9530 0.9510 0.9510 0.9490 0.9470
1323.328482 0.9450 0.9430 0.9410 0.9380 0.9370
1327.616650 0.9350 0.9330 0.9300 0.9290 0.9270
1331.904818 0.9270 0.9260 0.9230 0.9220 0.9210
1336.192986 0.9180 0.9170 0.9170 0.9100 0.8990
1340.481154 0.8960 0.8900 0.8820 0.8760 0.8670
1344.769323 0.8630 0.8550 0.8460 0.7850 0.7610
1349.057491 0.7360 0.6861 0.6720 0.6501 0.5713
1353.345659 0.5270 0.4830 0.3930 0.3031 0.2591
1357.633827 0.2151 0.1711 0.1281 0.1280 0.2624
1361.921995 0.4881 0.5910 0.6510 0.6840 0.7120
1366.210164 0.7959 0.8170 0.8379 0.8520 0.8669
1370.498332 0.8680 0.8750 0.8790 0.8830 0.8900
1374.786500 0.8940 0.8950 0.8950 0.8950 0.8940
1379.074668 0.8940 0.8920 0.8910 0.8900 0.8880
1383.362836 0.8860 0.8840 0.8800 0.8790 0.8780
1387.651005 0.8750 0.8680 0.8630 0.8560 0.8540
1391.939173 0.8470 0.8390 0.8340 0.8240 0.8130
1396.227341 0.8050 0.7750 0.7560 0.7370 0.7020
1400.515509 0.6800 0.6800 0.7020 0.7090 0.7090
1404.803677 0.7250 0.7370 0.7380 0.7340 0.7180
1409.091846 0.6861 0.6112 0.5472 0.4812 0.3466
1413.380014 0.3400 0.3270 0.2830 0.2380 0.1271
1417.668182 0.1270 0.1430 0.3355 0.5862 0.6498
1421.956350 0.6771 0.7220 0.7420 0.7890 0.8150
1426.244518 0.8320 0.8390 0.8510 0.8620 0.8680
1430.532687 0.8760 0.8830 0.8880 0.8940 0.8940
1434.820855 0.8950 0.8990 0.9030 0.9060 0.9070
1439.109023 0.9100 0.9120 0.9140 0.9150 0.9170
1443.397191 0.9170 0.9170 0.9170 0.9170 0.9170
1447.685359 0.9170 0.9150 0.9150 0.9150 0.9150
1451.973528 0.9150 0.9150 0.9150 0.9140 0.9140
1456.261696 0.9140 0.9140 0.9120 0.9120 0.9110
1460.549864 0.9110 0.9110 0.9080 0.9070 0.9040
1464.838032 0.9020 0.9000 0.8960 0.8950 0.8910
1469.126200 0.8860 0.8800 0.8760 0.8740 0.8670
1473.414369 0.8600 0.8550 0.8480 0.8440 0.8400
1477.702537 0.8380 0.8340 0.8270 0.8240 0.8210
1481.990705 0.8200 0.8190 0.8170 0.8170 0.8170
1486.278873 0.8170 0.8170 0.8160 0.8160 0.8150
1490.567041 0.8150 0.8150 0.8130 0.8120 0.8110
1494.855210 0.8090 0.8070 0.8040 0.8010 0.8000
1499.143378 0.7960 0.7890 0.7850 0.7830 0.7790
1503.431546 0.7790 0.7760 0.7730 0.7690 0.7650
1507.719714 0.7630 0.7610 0.7560 0.7510 0.7450
1512.007882 0.7440 0.7440 0.7370 0.7340 0.7290
1516.296051 0.7260 0.7200 0.7180 0.7160 0.7120
1520.584219 0.7080 0.7000 0.6970 0.6940 0.6860
1524.872387 0.6820 0.6800 0.6720 0.6660 0.6650
1529.160555 0.6470 0.6390 0.6330 0.6220 0.6170
1533.448723 0.6070 0.5930 0.5820 0.5680 0.5640
1537.736892 0.5550 0.5510 0.5470 0.5390 0.5300
1542.025060 0.5230 0.5190 0.5150 0.5100 0.5070
1546.313228 0.5060 0.5060 0.5070 0.5070 0.5100
1550.601396 0.5180 0.5220 0.5260 0.5280 0.5360
1554.889565 0.5520 0.5620 0.5660 0.5700 0.5760
1559.177733 0.5800 0.5890 0.5990 0.6050 0.6090
1563.465901 0.6140 0.6210 0.6270 0.6330 0.6340
1567.754069 0.6350 0.6380 0.6410 0.6420 0.6430
1572.042237 0.6430 0.6450 0.6450 0.6430 0.6430
1576.330406 0.6420 0.6420 0.6420 0.6430 0.6430
1580.618574 0.6460 0.6460 0.6470 0.6470 0.6500
1584.906742 0.6510 0.6550 0.6570 0.6610 0.6650
1589.194910 0.6690 0.6730 0.6770 0.6780 0.6780
1593.483078 0.6800 0.6800 0.6780 0.6760 0.6760
1597.771247 0.6740 0.6690 0.6590 0.6490 0.6370
1602.059415 0.6330 0.6190 0.5990 0.5820 0.5790
1606.347583 0.5800 0.5830 0.5910 0.5910 0.5900
1610.635751 0.5870 0.5850 0.5800 0.5670 0.5630
1614.923919 0.5630 0.5740 0.5870 0.5990 0.6418
1619.212088 0.6800 0.6970 0.7130 0.7260 0.7440
1623.500256 0.7570 0.7640 0.7790 0.7840 0.7880
1627.788424 0.7910 0.7970 0.8000 0.8010 0.8030
1632.076592 0.8030 0.8030 0.8010 0.8000 0.7990
1636.364760 0.7990 0.7970 0.7950 0.7910 0.7870
1640.652929 0.7810 0.7790 0.7770 0.7750 0.7720
1644.941097 0.7680 0.7640 0.7600 0.7490 0.7330
1649.229265 0.7200 0.6921 0.6730 0.6630 0.6451
1653.517433 0.5820 0.5640 0.5550 0.5440 0.5240
1657.805601 0.5040 0.4850 0.4850 0.5020 0.5110
1662.093770 0.5150 0.5260 0.5280 0.5260 0.5180
1666.381938 0.5140 0.5020 0.4890 0.4790 0.4651
1670.670106 0.4490 0.4280 0.4160 0.3970 0.3780
1674.958274 0.3441 0.3330 0.3210 0.2911 0.2581
1679.246442 0.2180 0.2069 0.1370 0.1120 0.0850
1683.534611 0.0690 0.0500 0.0340 0.0180 0.0100
1687.822779 0.0090 0.0060 0.0050 0.0050 0.0050
1692.110947 0.0050 0.0050 0.0050 0.0050 0.0050
1696.399115 0.0050 0.0050 0.0050 0.0050 0.0050
1700.687283 0.0050 0.0050 0.0050 0.0050 0.0050
1704.975452 0.0050 0.0060 0.0060 0.0080 0.0090
1709.263620 0.0130 0.0180 0.0250 0.0360 0.0529
1713.551788 0.0610 0.0690 0.0820 0.1040 0.1130
1717.839956 0.1280 0.1370 0.1609 0.1829 0.1989
1722.128124 0.2140 0.2300 0.2460 0.2650 0.2830
1726.416293 0.3309 0.3599 0.3839 0.3930 0.4289
1730.704461 0.4440 0.4640 0.4720 0.4830 0.4920
1734.992629 0.5160 0.5499 0.5600 0.5710 0.5800
1739.280797 0.6140 0.6300 0.6450 0.6530 0.6680
1743.568965 0.6800 0.6890 0.6980 0.7120 0.7220
1747.857134 0.7280 0.7320 0.7440 0.7550 0.7630
1752.145302 0.7680 0.7790 0.7830 0.7910 0.8000
1756.433470 0.8110 0.8150 0.8190 0.8210 0.8280
1760.721638 0.8380 0.8430 0.8470 0.8520 0.8520
1765.009806 0.8540 0.8600 0.8670 0.8710 0.8720
1769.297975 0.8740 0.8760 0.8800 0.8820 0.8840
1773.586143 0.8870 0.8940 0.8940 0.8960 0.8980
1777.874311 0.8990 0.9020 0.9040 0.9070 0.9070
1782.162479 0.9070 0.9080 0.9140 0.9150 0.9170
1786.450647 0.9180 0.9190 0.9210 0.9210 0.9220
1790.738816 0.9220 0.9220 0.9220 0.9220 0.9220
1795.026984 0.9210 0.9190 0.9180 0.9170 0.9170
1799.315152 0.9150 0.9140 0.9080 0.9070 0.9030
1803.603320 0.9000 0.8950 0.8940 0.8920 0.8840
1807.891488 0.8800 0.8780 0.8640 0.8560 0.8510
1812.179657 0.8430 0.8340 0.8210 0.8090 0.7970
1816.467825 0.7850 0.7790 0.7720 0.7610 0.7600
1820.755993 0.7600 0.7610 0.7789 0.7850 0.7989
1825.044161 0.8080 0.8170 0.8270 0.8350 0.8430
1829.332329 0.8520 0.8580 0.8630 0.8680 0.8720
1833.620498 0.8780 0.8820 0.8860 0.8920 0.8950
1837.908666 0.9000 0.9060 0.9100 0.9180 0.9180
1842.196834 0.9220 0.9250 0.9270 0.9300 0.9340
1846.485002 0.9350 0.9370 0.9390 0.9410 0.9420
1850.773170 0.9430 0.9450 0.9450 0.9460 0.9470
1855.061339 0.9500 0.9500 0.9490 0.9470 0.9470
1859.349507 0.9470 0.9470 0.9470 0.9470 0.9470
1863.637675 0.9460 0.9460 0.9460 0.9460 0.9470
1867.925843 0.9470 0.9470 0.9490 0.9490 0.9500
1872.214012 0.9500 0.9500 0.9500 0.9510 0.9510
1876.502180 0.9530 0.9570 0.9570 0.9570 0.9580
1880.790348 0.9580 0.9580 0.9590 0.9590 0.9590
1885.078516 0.9590 0.9590 0.9590 0.9590 0.9590
1889.366684 0.9590 0.9590 0.9590 0.9590 0.9590
1893.654853 0.9590 0.9580 0.9570 0.9540 0.9530
1897.943021 0.9510 0.9490 0.9460 0.9430 0.9410
1902.231189 0.9380 0.9350 0.9340 0.9290 0.9230
1906.519357 0.9180 0.9150 0.9120 0.9060 0.8960
1910.807525 0.8910 0.8820 0.8740 0.8670 0.8620
1915.095694 0.8560 0.8510 0.8460 0.8360 0.8270
1919.383862 0.8160 0.8070 0.7970 0.7950 0.7950
1923.672030 0.7960 0.7960 0.7990 0.8010 0.8080
1927.960198 0.8130 0.8160 0.8230 0.8290 0.8310
1932.248366 0.8340 0.8380 0.8440 0.8520 0.8560
1936.536535 0.8600 0.8630 0.8660 0.8680 0.8720
1940.824703 0.8780 0.8790 0.8820 0.8840 0.8870
1945.112871 0.8920 0.8940 0.8950 0.8990 0.9020
1949.401039 0.9030 0.9070 0.9120 0.9140 0.9140
1953.689207 0.9170 0.9180 0.9190 0.9220 0.9230
1957.977376 0.9250 0.9260 0.9270 0.9290 0.9310
1962.265544 0.9340 0.9350 0.9370 0.9370 0.9390
1966.553712 0.9420 0.9430 0.9460 0.9470 0.9500
1970.841880 0.9570 0.9580 0.9570 0.9550 0.9570
1975.130048 0.9570 0.9580 0.9590 0.9590 0.9610
1979.418217 0.9610 0.9610 0.9590 0.9590 0.9590
1983.706385 0.9610 0.9630 0.9630 0.9620 0.9620
1987.994553 0.9610 0.9550 0.9510 0.9490 0.9380
1992.282721 0.9490 0.9500 0.9530 0.9570 0.9580
1996.570889 0.9610 0.9620 0.9630 0.9660 0.9670
2000.859058 0.9680 0.9690 0.9700 0.9710 0.9720
2005.147226 0.9730 0.9740 0.9750 0.9760 0.9770
2009.435394 0.9780 0.9790 0.9800 0.9810 0.9810
2013.723562 0.9810 0.9800 0.9790 0.9785 0.9780
2018.011730 0.9775 0.9769 0.9748 0.9728 0.9708
2022.299899 0.9688 0.9668 0.9648 0.9628 0.9609
2026.588067 0.9594 0.9580 0.9574 0.9568 0.9553
2030.876235 0.9540 0.9540 0.9541 0.9546 0.9551
2035.164403 0.9561 0.9571 0.9576 0.9583 0.9603
2039.452571 0.9625 0.9660 0.9693 0.9713 0.9731
2043.740740 0.9736 0.9740 0.9740 0.9740 0.9740
2048.028908 0.9739 0.9734 0.9727 0.9712 0.9697
2052.317076 0.9682 0.9666 0.9646 0.9626 0.9606
2056.605244 0.9577 0.9517 0.9468 0.9458 0.9442
2060.893412 0.9407 0.9376 0.9361 0.9350 0.9350
2065.181581 0.9352 0.9363 0.9376 0.9402 0.9431
2069.469749 0.9471 0.9510 0.9545 0.9590 0.9660
2073.757917 0.9714 0.9729 0.9750 0.9785 0.9816
2078.046085 0.9836 0.9856 0.9876 0.9896 0.9916
2082.334253 0.9933 0.9943 0.9960 0.9990 1.0012
2086.622422 1.0017 1.0020 1.0020 1.0027 1.0047
2090.910590 1.0064 1.0074 1.0087 1.0107 1.0120
2095.198758 1.0120 1.0120 1.0120 1.0116 1.0106
2099.486926 1.0100 1.0100 1.0104 1.0114 1.0120
2103.775094 1.0120 1.0120 1.0120 1.0116 1.0106
2108.063263 1.0100 1.0100 1.0100 1.0100 1.0104
2112.351431 1.0114 1.0120 1.0120 1.0120 1.0120
2116.639599 1.0122 1.0127 1.0130 1.0130 1.0132
2120.927767 1.0137 1.0140 1.0140 1.0140 1.0140
2125.215935 1.0140 1.0140 1.0140 1.0140 1.0137
2129.504104 1.0133 1.0130 1.0130 1.0130 1.0130
2133.792272 1.0127 1.0122 1.0115 1.0105 1.0097
2138.080440 1.0092 1.0090 1.0090 1.0093 1.0098
2142.368608 1.0100 1.0100 1.0100 1.0100 1.0100
2146.656776 1.0100 1.0106 1.0116 1.0120 1.0120
2150.944945 1.0123 1.0128 1.0130 1.0130 1.0130
2155.233113 1.0130 1.0130 1.0130 1.0130 1.0130
2159.521281 1.0130 1.0130 1.0130 1.0130 1.0130
2163.809449 1.0130 1.0130 1.0130 1.0127 1.0122
2168.097617 1.0120 1.0120 1.0113 1.0103 1.0100
2172.385786 1.0100 1.0100 1.0100 1.0100 1.0100
2176.673954 1.0100 1.0100 1.0107 1.0117 1.0120
2180.962122 1.0120 1.0120 1.0120 1.0124 1.0129
2185.250290 1.0130 1.0130 1.0130 1.0130 1.0134
2189.538459 1.0139 1.0140 1.0140 1.0140 1.0140
2193.826627 1.0140 1.0140 1.0148 1.0158 1.0160
2198.114795 1.0160 1.0160 1.0160 1.0160 1.0160
2202.402963 1.0160 1.0160 1.0152 1.0142 1.0136
2206.691131 1.0131 1.0130 1.0130 1.0130 1.0130
2210.979300 1.0130 1.0130 1.0130 1.0130 1.0130
2215.267468 1.0130 1.0130 1.0130 1.0130 1.0130
2219.555636 1.0130 1.0130 1.0130 1.0130 1.0130
2223.843804 1.0130 1.0130 1.0130 1.0126 1.0120
2228.131972 1.0111 1.0101 1.0095 1.0090 1.0090
2232.420141 1.0090 1.0085 1.0080 1.0080 1.0080
2236.708309 1.0071 1.0061 1.0055 1.0050 1.0050
2240.996477 1.0050 1.0045 1.0040 1.0030 1.0020
2245.284645 1.0015 1.0010 1.0005 1.0000 0.9990
2249.572813 0.9980 0.9960 0.9940 0.9920 0.9900
2253.860982 0.9885 0.9870 0.9865 0.9860 0.9855
2258.149150 0.9849 0.9829 0.9809 0.9774 0.9740
2262.437318 0.9735 0.9730 0.9730 0.9729 0.9719
2266.725486 0.9710 0.9710 0.9711 0.9721 0.9731
2271.013654 0.9741 0.9751 0.9761 0.9770 0.9770
2275.301823 0.9770 0.9770 0.9770 0.9770 0.9770
2279.589991 0.9770 0.9770 0.9770 0.9770 0.9770
2283.878159 0.9769 0.9759 0.9749 0.9744 0.9739
2288.166327 0.9734 0.9728 0.9713 0.9699 0.9694
2292.454495 0.9687 0.9672 0.9659 0.9654 0.9650
2296.742664 0.9650 0.9650 0.9650 0.9650 0.9650
2301.030832 0.9651 0.9656 0.9661 0.9666 0.9672
2305.319000 0.9682 0.9692 0.9702 0.9712 0.9722
2309.607168 0.9730 0.9730 0.9730 0.9730 0.9730
2313.895336 0.9730 0.9730 0.9730 0.9727 0.9717
2318.183505 0.9710 0.9710 0.9714 0.9729 0.9744
2322.471673 0.9759 0.9773 0.9783 0.9799 0.9829
2326.759841 0.9853 0.9863 0.9870 0.9870 0.9892
2331.048009 0.9962 1.0012 1.0017 1.0020 1.0020
2335.336177 1.0020 1.0020 1.0020 1.0020 1.0023
2339.624346 1.0033 1.0042 1.0047 1.0052 1.0057
2343.912514 1.0064 1.0074 1.0082 1.0087 1.0090
2348.200682 1.0090 1.0090 1.0090 1.0090 1.0090
2352.488850 1.0090 1.0090 1.0088 1.0083 1.0080
2356.777018 1.0080 1.0076 1.0066 1.0060 1.0060
2361.065187 1.0058 1.0053 1.0050 1.0050 1.0052
2365.353355 1.0057 1.0060 1.0060 1.0065 1.0075
2369.641523 1.0080 1.0080 1.0080 1.0080 1.0080
2373.929691 1.0080 1.0075 1.0065 1.0060 1.0060
2378.217859 1.0055 1.0045 1.0040 1.0040 1.0040
2382.506028 1.0040 1.0040 1.0040 1.0043 1.0048
2386.794196 1.0050 1.0050 1.0050 1.0050 1.0050
2391.082364 1.0050 1.0050 1.0050 1.0047 1.0042
2395.370532 1.0040 1.0040 1.0040 1.0040 1.0034
2399.658700 1.0024 1.0014 1.0004 0.9991 0.9976
2403.946869 0.9961 0.9946 0.9931 0.9916 0.9907
2408.235037 0.9902 0.9878 0.9843 0.9814 0.9789
2412.523205 0.9744 0.9689 0.9667 0.9662 0.9660
2416.811373 0.9660 0.9663 0.9668 0.9680 0.9695
2421.099541 0.9714 0.9734 0.9764 0.9799 0.9817
2425.387710 0.9827 0.9844 0.9864 0.9891 0.9921
2429.675878 0.9934 0.9939 0.9965 1.0000 1.0010
2433.964046 1.0010 1.0014 1.0019 1.0020 1.0020
2438.252214 1.0027 1.0037 1.0048 1.0057 1.0071
2442.540382 1.0086 1.0090 1.0090 1.0094 1.0099
2446.828551 1.0100 1.0100 1.0100 1.0100 1.0100
2451.116719 1.0100 1.0108 1.0118 1.0120 1.0120
2455.404887 1.0120 1.0120 1.0120 1.0120 1.0120
2459.693055 1.0120 1.0120 1.0120 1.0120 1.0120
2463.981223 1.0120 1.0120 1.0120 1.0120 1.0120
2468.269392 1.0120 1.0120 1.0120 1.0120 1.0120
2472.557560 1.0120 1.0120 1.0120 1.0120 1.0120
2476.845728 1.0120 1.0120 1.0120 1.0111 1.0101
2481.133896 1.0100 1.0100 1.0095 1.0090 1.0090
2485.422064 1.0090 1.0085 1.0080 1.0080 1.0080
2489.710233 1.0066 1.0051 1.0050 1.0050 1.0050
2493.998401 1.0050 1.0045 1.0040 1.0040 1.0040
2498.286569 1.0030 1.0020 1.0015 1.0010 1.0010
2502.574737 1.0010 1.0010 1.0010 1.0010 1.0010
2506.862906 1.0010 1.0010 1.0010 1.0010 1.0010
2511.151074 1.0010 1.0010 1.0010 1.0015 1.0020
2515.439242 1.0020 1.0021 1.0031 1.0040 1.0040
2519.727410 1.0040 1.0040 1.0040 1.0040 1.0040
2524.015578 1.0040 1.0040 1.0040 1.0040 1.0046
2528.303747 1.0050 1.0050 1.0049 1.0044 1.0040
2532.591915 1.0040 1.0040 1.0040 1.0040 1.0040
2536.880083 1.0041 1.0046 1.0050 1.0050 1.0049
2541.168251 1.0044 1.0040 1.0040 1.0040 1.0040
2545.456419 1.0040 1.0040 1.0038 1.0028 1.0020
2549.744588 1.0020 1.0020 1.0020 1.0019 1.0014
2554.032756 1.0010 1.0010 1.0007 0.9992 0.9977
2558.320924 0.9962 0.9948 0.9938 0.9928 0.9918
2562.609092 0.9909 0.9904 0.9900 0.9900 0.9900
2566.897260 0.9900 0.9901 0.9906 0.9913 0.9923
2571.185429 0.9931 0.9936 0.9941 0.9946 0.9953
2575.473597 0.9963 0.9970 0.9970 0.9970 0.9970
2579.761765 0.9970 0.9970 0.9967 0.9957 0.9950
2584.049933 0.9950 0.9948 0.9943 0.9938 0.9933
2588.338101 0.9925 0.9910 0.9898 0.9893 0.9886
2592.626270 0.9876 0.9866 0.9856 0.9846 0.9836
2596.914438 0.9828 0.9823 0.9812 0.9792 0.9774
2601.202606 0.9759 0.9748 0.9743 0.9734 0.9719
2605.490774 0.9710 0.9710 0.9710 0.9710 0.9708
2609.778942 0.9703 0.9698 0.9693 0.9686 0.9676
2614.067111 0.9668 0.9663 0.9653 0.9638 0.9628
2618.355279 0.9623 0.9613 0.9598 0.9585 0.9575
2622.643447 0.9565 0.9555 0.9540 0.9520 0.9510
2626.931615 0.9510 0.9507 0.9502 0.9500 0.9500
2631.219783 0.9497 0.9492 0.9490 0.9490 0.9485
2635.507952 0.9475 0.9467 0.9462 0.9452 0.9437
2639.796120 0.9424 0.9414 0.9399 0.9379 0.9362
2644.084288 0.9347 0.9329 0.9309 0.9291 0.9276
2648.372456 0.9255 0.9230 0.9199 0.9164 0.9138
2652.660624 0.9118 0.9095 0.9070 0.9042 0.9011
2656.948793 0.8984 0.8959 0.8928 0.8893 0.8848
2661.236961 0.8798 0.8755 0.8714 0.8662 0.8601
2665.525129 0.8560 0.8530 0.8466 0.8386 0.8289
2669.813297 0.8184 0.8075 0.7965 0.7889 0.7829
2674.101465 0.7765 0.7700 0.7621 0.7536 0.7391
2678.389634 0.7221 0.7001 0.6760 0.6381 0.5945
2682.677802 0.5766 0.5690 0.5552 0.5391 0.5227
2686.965970 0.5062 0.4739 0.4363 0.4168 0.4033
2691.254138 0.4000 0.4000 0.4065 0.4150 0.4270
2695.542306 0.4400 0.4538 0.4679 0.4831 0.4986
2699.830475 0.5277 0.5606 0.5799 0.5960 0.6295
2704.118643 0.6671 0.6871 0.7031 0.7105 0.7160
2708.406811 0.7216 0.7271 0.7334 0.7399 0.7423
2712.694979 0.7438 0.7448 0.7458 0.7456 0.7451
2716.983147 0.7446 0.7441 0.7431 0.7421 0.7416
2721.271316 0.7411 0.7344 0.7268 0.7202 0.7137
2725.559484 0.7094 0.7054 0.6964 0.6869 0.6765
2729.847652 0.6660 0.6381 0.6086 0.5987 0.5907
2734.135820 0.5779 0.5648 0.5522 0.5397 0.5262
2738.423988 0.5126 0.4953 0.4778 0.4429 0.4074
2742.712157 0.3679 0.3283 0.3149 0.3024 0.2888
2747.000325 0.2753 0.2740 0.2730 0.2740 0.2750
2751.288493 0.3010 0.3271 0.3361 0.3451 0.3511
2755.576661 0.3573 0.3713 0.3854 0.3999 0.4150
2759.864829 0.4476 0.4806 0.5247 0.5672 0.5733
2764.152998 0.5794 0.5874 0.5956 0.6066 0.6170
2768.441166 0.6175 0.6180 0.6180 0.6175 0.6120
2772.729334 0.6068 0.6043 0.6013 0.5938 0.5862
2777.017502 0.5782 0.5701 0.5616 0.5530 0.5434
2781.305670 0.5322 0.5071 0.4840 0.4755 0.4660
2785.593839 0.4498 0.4332 0.4141 0.3929 0.3593
2789.882007 0.3272 0.3032 0.2790 0.2545 0.2291
2794.170175 0.2001 0.1760 0.1760 0.1767 0.1807
2798.458343 0.1861 0.1976 0.2085 0.2165 0.2241
2802.746511 0.2296 0.2350 0.2395 0.2442 0.2497
2807.034680 0.2555 0.2620 0.2692 0.2787 0.2931
2811.322848 0.3232 0.3531 0.3827 0.4092 0.4262
2815.611016 0.4411 0.4497 0.4586 0.4686 0.4774
2819.899184 0.4830 0.4908 0.5044 0.5140 0.5140
2824.187353 0.5137 0.5127 0.5098 0.5022 0.4958
2828.475521 0.4918 0.4847 0.4706 0.4607 0.4597
2832.763689 0.4592 0.4597 0.4611 0.4646 0.4680
2837.051857 0.4710 0.4741 0.4771 0.4801 0.4831
2841.340025 0.4903 0.5048 0.5223 0.5448 0.5627
2845.628194 0.5728 0.5832 0.5942 0.6048 0.6149
2849.916362 0.6251 0.6356 0.6459 0.6560 0.6688
2854.204530 0.6860 0.6987 0.7053 0.7118 0.7183
2858.492698 0.7337 0.7607 0.7812 0.7933 0.8009
2862.780866 0.8029 0.8049 0.8069 0.8098 0.8138
2867.069035 0.8176 0.8211 0.8248 0.8289 0.8326
2871.357203 0.8362 0.8392 0.8417 0.8440 0.8460
2875.645371 0.8483 0.8508 0.8530 0.8550 0.8578
2879.933539 0.8613 0.8643 0.8668 0.8696 0.8726
2884.221707 0.8745 0.8755 0.8771 0.8791 0.8808
2888.509876 0.8823 0.8838 0.8853 0.8871 0.8891
2892.798044 0.8906 0.8916 0.8926 0.8936 0.8943
2897.086212 0.8948 0.8965 0.8990 0.9006 0.9016
2901.374380 0.9026 0.9036 0.9052 0.9072 0.9086
2905.662548 0.9096 0.9100 0.9100 0.9103 0.9108
2909.950717 0.9110 0.9110 0.9110 0.9110 0.9113
2914.238885 0.9118 0.9120 0.9120 0.9120 0.9120
2918.527053 0.9127 0.9137 0.9143 0.9148 0.9157
2922.815221 0.9167 0.9173 0.9178 0.9184 0.9189
2927.103389 0.9201 0.9216 0.9220 0.9220 0.9224
2931.391558 0.9229 0.9230 0.9230 0.9230 0.9230
2935.679726 0.9230 0.9230 0.9230 0.9230 0.9226
2939.967894 0.9221 0.9216 0.9211 0.9210 0.9210
2944.256062 0.9198 0.9183 0.9168 0.9153 0.9146
2948.544230 0.9141 0.9128 0.9113 0.9066 0.9011
2952.832399 0.8976 0.8946 0.8932 0.8922 0.8912
2957.120567 0.8902 0.8842 0.8771 0.8701 0.8631
2961.408735 0.8595 0.8565 0.8543 0.8523 0.8516
2965.696903 0.8511 0.8514 0.8519 0.8529 0.8539
2969.985071 0.8549 0.8559 0.8560 0.8560 0.8556
2974.273240 0.8551 0.8536 0.8521 0.8497 0.8472
2978.561408 0.8411 0.8346 0.8239 0.8129 0.7959
2982.849576 0.7783 0.7742 0.7712 0.7677 0.7642
2987.137744 0.7729 0.7824 0.7943 0.8063 0.8209
2991.425912 0.8355 0.8569 0.8784 0.8795 0.8800
2995.714081 0.8810 0.8820 0.8840 0.8860 0.8900
3000.002249 0.8940 0.8960 0.8980 0.8990 0.9000
3004.290417 0.9000 0.9000 0.8995 0.8990 0.8990
3008.578585 0.8990 0.8985 0.8980 0.8970 0.8960
3012.866753 0.8950 0.8939 0.8929 0.8920 0.8915
3017.154922 0.8908 0.8867 0.8830 0.8825 0.8818
3021.443090 0.8788 0.8759 0.8749 0.8740 0.8740
3025.731258 0.8741 0.8746 0.8752 0.8772 0.8792
3030.019426 0.8807 0.8825 0.8865 0.8901 0.8906
3034.307594 0.8909 0.8904 0.8897 0.8877 0.8859
3038.595763 0.8849 0.8836 0.8806 0.8775 0.8745
3042.883931 0.8718 0.8708 0.8694 0.8659 0.8618
3047.172099 0.8553 0.8486 0.8411 0.8335 0.8260
3051.460267 0.8183 0.8098 0.8014 0.7933 0.7868
3055.748435 0.7858 0.7863 0.7923 0.7981 0.8032
3060.036604 0.8072 0.8082 0.8138 0.8334 0.8490
3064.324772 0.8530 0.8570 0.8610 0.8645 0.8665
3068.612940 0.8689 0.8724 0.8755 0.8775 0.8790
3072.901108 0.8790 0.8784 0.8764 0.8738 0.8698
3077.189276 0.8665 0.8650 0.8631 0.8600 0.8567
3081.477445 0.8527 0.8476 0.8400 0.8343 0.8323
3085.765613 0.8290 0.8230 0.8190 0.8190 0.8193
3090.053781 0.8203 0.8229 0.8284 0.8342 0.8402
3094.341949 0.8453 0.8488 0.8523 0.8559 0.8599
3098.630117 0.8650 0.8696 0.8736 0.8790 0.8865
3102.918286 0.8924 0.8959 0.8988 0.9008 0.9022
3107.206454 0.9027 0.9036 0.9051 0.9064 0.9074
3111.494622 0.9093 0.9124 0.9151 0.9176 0.9199
3115.782790 0.9219 0.9237 0.9252 0.9269 0.9289
3120.070959 0.9307 0.9322 0.9342 0.9367 0.9380
3124.359127 0.9380 0.9382 0.9387 0.9395 0.9405
3128.647295 0.9415 0.9425 0.9435 0.9445 0.9461
3132.935463 0.9481 0.9490 0.9490 0.9493 0.9498
3137.223631 0.9508 0.9523 0.9533 0.9538 0.9540
3141.511800 0.9540 0.9543 0.9548 0.9550 0.9550
3145.799968 0.9550 0.9550 0.9550 0.9550 0.9550
3150.088136 0.9550 0.9556 0.9566 0.9573 0.9578
3154.376304 0.9583 0.9588 0.9596 0.9606 0.9610
3158.664472 0.9610 0.9610 0.9610 0.9610 0.9610
3162.952641 0.9610 0.9610 0.9610 0.9610 0.9610
3167.240809 0.9610 0.9610 0.9610 0.9610 0.9610
3171.528977 0.9610 0.9610 0.9610 0.9610 0.9610
3175.817145 0.9610 0.9613 0.9618 0.9624 0.9629
3180.105313 0.9637 0.9647 0.9650 0.9650 0.9654
3184.393482 0.9659 0.9660 0.9660 0.9660 0.9660
3188.681650 0.9660 0.9660 0.9660 0.9660 0.9660
3192.969818 0.9660 0.9660 0.9660 0.9660 0.9660
3197.257986 0.9660 0.9660 0.9664 0.9669 0.9670
3201.546154 0.9670 0.9666 0.9661 0.9660 0.9660
3205.834323 0.9660 0.9660 0.9660 0.9660 0.9656
3210.122491 0.9651 0.9650 0.9650 0.9650 0.9650
3214.410659 0.9650 0.9650 0.9641 0.9631 0.9626
3218.698827 0.9621 0.9620 0.9620 0.9616 0.9611
3222.986995 0.9601 0.9591 0.9590 0.9590 0.9590
3227.275164 0.9590 0.9599 0.9609 0.9619 0.9629
3231.563332 0.9649 0.9669 0.9684 0.9699 0.9705
3235.851500 0.9710 0.9710 0.9710 0.9710 0.9710
3240.139668 0.9710 0.9710 0.9720 0.9730 0.9730
3244.427836 0.9730 0.9730 0.9730 0.9730 0.9730
3248.716005 0.9730 0.9730 0.9720 0.9710 0.9710
3253.004173 0.9710 0.9710 0.9710 0.9710 0.9710
3257.292341 0.9710 0.9710 0.9705 0.9700 0.9700
3261.580509 0.9700 0.9700 0.9700 0.9700 0.9700
3265.868677 0.9700 0.9700 0.9700 0.9700 0.9700
3270.156846 0.9700 0.9700 0.9700 0.9700 0.9700
3274.445014 0.9700 0.9700 0.9700 0.9700 0.9695
3278.733182 0.9689 0.9679 0.9670 0.9670 0.9670
3283.021350 0.9670 0.9669 0.9664 0.9660 0.9660
3287.309518 0.9659 0.9654 0.9647 0.9627 0.9605
3291.597687 0.9575 0.9550 0.9550 0.9548 0.9538
3295.885855 0.9528 0.9518 0.9506 0.9486 0.9465
3300.174023 0.9440 0.9415 0.9390 0.9364 0.9334
3304.462191 0.9305 0.9280 0.9257 0.9242 0.9229
3308.750359 0.9224 0.9221 0.9226 0.9234 0.9249
3313.038528 0.9265 0.9285 0.9309 0.9344 0.9378
3317.326696 0.9408 0.9441 0.9481 0.9513 0.9523
3321.614864 0.9533 0.9543 0.9554 0.9569 0.9581
3325.903032 0.9586 0.9590 0.9590 0.9588 0.9583
3330.191200 0.9580 0.9580 0.9580 0.9580 0.9580
3334.479369 0.9580 0.9580 0.9580 0.9578 0.9573
3338.767537 0.9566 0.9556 0.9548 0.9543 0.9538
3343.055705 0.9533 0.9530 0.9530 0.9526 0.9516
3347.343873 0.9502 0.9482 0.9455 0.9414 0.9378
3351.632041 0.9348 0.9318 0.9288 0.9258 0.9227
3355.920210 0.9191 0.9146 0.9099 0.9049 0.8938
3360.208378 0.8748 0.8612 0.8547 0.8475 0.8395
3364.496546 0.8314 0.8234 0.8113 0.7941 0.7822
3368.784714 0.7761 0.7701 0.7641 0.7554 0.7439
3373.072882 0.7326 0.7216 0.7103 0.6988 0.6927
3377.361051 0.6922 0.6930 0.6950 0.6993 0.7058
3381.649219 0.7144 0.7249 0.7360 0.7477 0.7622
3385.937387 0.7793 0.7928 0.8033 0.8169 0.8329
3390.225555 0.8487 0.8642 0.8721 0.8741 0.8764
3394.513723 0.8789 0.8832 0.8887 0.8924 0.8950
3398.801892 0.8989 0.9039 0.9087 0.9132 0.9171
3403.090060 0.9206 0.9229 0.9244 0.9269 0.9299
3407.378228 0.9316 0.9326 0.9336 0.9346 0.9360
3411.666396 0.9375 0.9390 0.9405 0.9413 0.9418
3415.954564 0.9423 0.9428 0.9437 0.9447 0.9453
3420.242733 0.9458 0.9470 0.9485 0.9507 0.9532
3424.530901 0.9540 0.9540 0.9544 0.9549 0.9550
3428.819069 0.9550 0.9550 0.9550 0.9550 0.9550
3433.107237 0.9550 0.9550 0.9550 0.9550 0.9550
3437.395406 0.9550 0.9550 0.9550 0.9558 0.9568
3441.683574 0.9570 0.9570 0.9574 0.9579 0.9580
3445.971742 0.9580 0.9580 0.9580 0.9580 0.9580
3450.259910 0.9580 0.9580 0.9584 0.9589 0.9590
3454.548078 0.9590 0.9598 0.9608 0.9610 0.9610
3458.836247 0.9610 0.9610 0.9610 0.9610 0.9602
3463.124415 0.9592 0.9590 0.9590 0.9586 0.9581
3467.412583 0.9576 0.9571 0.9570 0.9570 0.9561
3471.700751 0.9551 0.9550 0.9550 0.9550 0.9550
3475.988919 0.9550 0.9550 0.9550 0.9550 0.9559
3480.277088 0.9569 0.9570 0.9570 0.9570 0.9570
3484.565256 0.9570 0.9570 0.9561 0.9550 0.9545
3488.853424 0.9540 0.9540 0.9540 0.9540 0.9540
3493.141592 0.9540 0.9540 0.9535 0.9530 0.9530
3497.429760 0.9530 0.9520 0.9510 0.9505 0.9500
3501.717929 0.9495 0.9490 0.9480 0.9470 0.9470
3506.006097 0.9470 0.9470 0.9470 0.9465 0.9460
3510.294265 0.9455 0.9450 0.9450 0.9450 0.9450
3514.582433 0.9450 0.9450 0.9450 0.9450 0.9450
3518.870601 0.9450 0.9450 0.9450 0.9449 0.9439
3523.158770 0.9430 0.9430 0.9430 0.9430 0.9430
3527.446938 0.9430 0.9429 0.9424 0.9420 0.9420
3531.735106 0.9420 0.9420 0.9421 0.9426 0.9430
3536.023274 0.9430 0.9430 0.9430 0.9430 0.9430
3540.311442 0.9430 0.9430 0.9430 0.9430 0.9430
3544.599611 0.9430 0.9432 0.9442 0.9451 0.9456
3548.887779 0.9460 0.9460 0.9460 0.9460 0.9461
3553.175947 0.9466 0.9470 0.9470 0.9472 0.9482
3557.464115 0.9492 0.9502 0.9512 0.9522 0.9530
3561.752283 0.9530 0.9520 0.9480 0.9446 0.9431
3566.040452 0.9419 0.9414 0.9407 0.9397 0.9393
3570.328620 0.9403 0.9417 0.9442 0.9470 0.9505
3574.616788 0.9531 0.9537 0.9542 0.9547 0.9555
3578.904956 0.9570 0.9580 0.9580 0.9582 0.9587
3583.193124 0.9595 0.9610 0.9620 0.9620 0.9618
3587.481293 0.9613 0.9610 0.9610 0.9606 0.9596
3591.769461 0.9586 0.9576 0.9570 0.9570 0.9572
3596.057629 0.9577 0.9593 0.9628 0.9652 0.9657
3600.345797 0.9660 0.9660 0.9658 0.9653 0.9646
3604.633965 0.9636 0.9630 0.9630 0.9630 0.9630
3608.922134 0.9630 0.9630 0.9634 0.9644 0.9652
3613.210302 0.9657 0.9667 0.9682 0.9690 0.9690
3617.498470 0.9685 0.9675 0.9668 0.9663 0.9658
3621.786638 0.9653 0.9650 0.9650 0.9650 0.9650
3626.074806 0.9650 0.9650 0.9653 0.9658 0.9663
3630.362975 0.9668 0.9670 0.9670 0.9675 0.9685
3634.651143 0.9690 0.9690 0.9690 0.9690 0.9685
3638.939311 0.9675 0.9670 0.9670 0.9667 0.9662
3643.227479 0.9660 0.9660 0.9651 0.9636 0.9627
3647.515647 0.9622 0.9620 0.9620 0.9617 0.9612
3651.803816 0.9610 0.9610 0.9610 0.9610 0.9601
3656.091984 0.9586 0.9577 0.9572 0.9564 0.9554
3660.380152 0.9547 0.9542 0.9537 0.9532 0.9510
3664.668320 0.9480 0.9454 0.9429 0.9407 0.9387
3668.956488 0.9380 0.9380 0.9383 0.9388 0.9397
3673.244657 0.9407 0.9410 0.9410 0.9414 0.9419
3677.532825 0.9424 0.9429 0.9430 0.9430 0.9441
3681.820993 0.9456 0.9489 0.9529 0.9573 0.9618
3686.109161 0.9645 0.9665 0.9677 0.9687 0.9694
3690.397329 0.9699 0.9715 0.9735 0.9752 0.9767
3694.685498 0.9774 0.9779 0.9784 0.9789 0.9798
3698.973666 0.9808 0.9810 0.9810 0.9818 0.9828
3703.261834 0.9838 0.9848 0.9854 0.9859 0.9864
3707.550002 0.9869 0.9878 0.9888 0.9890 0.9890
3711.838170 0.9894 0.9899 0.9900 0.9900 0.9904
3716.126339 0.9909 0.9910 0.9910 0.9919 0.9929
3720.414507 0.9930 0.9930 0.9934 0.9939 0.9944
3724.702675 0.9949 0.9950 0.9950 0.9959 0.9969
3728.990843 0.9970 0.9970 0.9970 0.9970 0.9970
3733.279011 0.9970 0.9961 0.9951 0.9950 0.9950
3737.567180 0.9950 0.9950 0.9945 0.9940 0.9940
3741.855348 0.9940 0.9940 0.9940 0.9940 0.9940
3746.143516 0.9940 0.9940 0.9940 0.9940 0.9935
3750.431684 0.9930 0.9930 0.9930 0.9930 0.9930
3754.719853 0.9920 0.9910 0.9910 0.9910 0.9910
3759.008021 0.9910 0.9910 0.9910 0.9910 0.9910
3763.296189 0.9910 0.9910 0.9910 0.9910 0.9910
3767.584357 0.9910 0.9910 0.9910 0.9910 0.9911
3771.872525 0.9921 0.9930 0.9930 0.9930 0.9930
3776.160694 0.9930 0.9930 0.9930 0.9930 0.9930
3780.448862 0.9930 0.9930 0.9930 0.9930 0.9930
3784.737030 0.9930 0.9930 0.9930 0.9930 0.9931
3789.025198 0.9936 0.9940 0.9940 0.9940 0.9940
3793.313366 0.9940 0.9940 0.9940 0.9940 0.9940
3797.601535 0.9940 0.9940 0.9940 0.9940 0.9940
3801.889703 0.9940 0.9940
##END=
