##TITLE=2-PENTANONE
##JCAMP-DX=4.24
##DATA TYPE=INFRARED SPECTRUM
##CLASS=COBLENTZ
##ORIGIN=INFRACORD
##OWNER=COBLENTZ SOCIETY
Collection (C) 2018 copyright by the U.S. Secretary of Commerce
on behalf of the United States of America. All rights reserved.
##DATE=Not specified, most likely prior to 1970
##CAS REGISTRY NO=107-87-9
##MOLFORM=C5 H10 O
##SOURCE REFERENCE=COBLENTZ NO. 3728
##$NIST SOURCE=COBLENTZ
##$NIST IMAGE=cob3728
##SPECTROMETER/DATA SYSTEM=Not specified, most likely a prism, grating, or hybrid spectrometer.
##STATE=LIQUID
##PATH LENGTH=0.0025 CM
##SAMPLING PROCEDURE=TRANSMISSION
##RESOLUTION=4
##DATA PROCESSING=DIGITIZED BY NIST FROM HARD COPY
##XUNITS=MICROMETERS
##YUNITS=TRANSMITTANCE
##XFACTOR=1.000000
##YFACTOR=1
##DELTAX=000.005896
##FIRSTX=2.529
##LASTX=14.9887
##FIRSTY=0.901
##MAXX=14.9887
##MINX=2.529
##MAXY=0.903
##MINY=0.093
##NPOINTS=2114
##XYDATA=(X++(Y..Y))
2.529000 0.9010 0.9010 0.9010 0.9010 0.9010
2.558495 0.9010 0.9010 0.9010 0.9010 0.9030
2.588000 0.9010 0.9010 0.9000 0.8980 0.8980
2.617495 0.8970 0.8980 0.8970 0.8970 0.8970
2.647000 0.8970 0.8950 0.8970 0.8970 0.8970
2.676495 0.8970 0.8980 0.8980 0.8980 0.8970
2.706000 0.8970 0.8970 0.8950 0.8950 0.8950
2.735495 0.8940 0.8950 0.8940 0.8940 0.8940
2.765000 0.8930 0.8910 0.8910 0.8900 0.8910
2.794495 0.8910 0.8910 0.8910 0.8910 0.8910
2.824000 0.8900 0.8880 0.8880 0.8880 0.8880
2.853495 0.8880 0.8880 0.8870 0.8860 0.8850
2.883000 0.8800 0.8730 0.8620 0.8600 0.8540
2.912495 0.8490 0.8490 0.8530 0.8590 0.8660
2.942000 0.8690 0.8740 0.8770 0.8820 0.8860
2.971495 0.8870 0.8900 0.8910 0.8910 0.8910
3.001000 0.8920 0.8920 0.8910 0.8910 0.8910
3.030495 0.8900 0.8910 0.8910 0.8910 0.8920
3.060000 0.8910 0.8910 0.8900 0.8900 0.8880
3.089495 0.8880 0.8880 0.8870 0.8860 0.8850
3.119000 0.8820 0.8810 0.8810 0.8800 0.8800
3.148495 0.8790 0.8790 0.8780 0.8770 0.8770
3.178000 0.8750 0.8740 0.8740 0.8720 0.8710
3.207495 0.8690 0.8670 0.8650 0.8640 0.8580
3.237000 0.8520 0.8490 0.8480 0.8470 0.8420
3.266495 0.8400 0.8320 0.8250 0.8200 0.8080
3.296000 0.7910 0.7750 0.7500 0.7160 0.6850
3.325495 0.6540 0.6320 0.5680 0.5110 0.4250
3.355000 0.3640 0.3140 0.3080 0.3040 0.3410
3.384495 0.3620 0.3980 0.4130 0.4240 0.4530
3.414000 0.4760 0.5080 0.5420 0.5530 0.5680
3.443495 0.5680 0.5610 0.5610 0.5460 0.5200
3.473000 0.5200 0.5350 0.5570 0.6200 0.6730
3.502495 0.7160 0.7550 0.7740 0.7930 0.8090
3.532000 0.8150 0.8280 0.8320 0.8330 0.8390
3.561495 0.8420 0.8480 0.8510 0.8540 0.8590
3.591000 0.8660 0.8670 0.8680 0.8720 0.8730
3.620495 0.8750 0.8770 0.8770 0.8780 0.8780
3.650000 0.8790 0.8800 0.8800 0.8800 0.8800
3.679495 0.8810 0.8810 0.8840 0.8860 0.8870
3.709000 0.8880 0.8880 0.8910 0.8910 0.8900
3.738495 0.8900 0.8900 0.8900 0.8880 0.8880
3.768000 0.8880 0.8880 0.8880 0.8900 0.8900
3.797495 0.8910 0.8920 0.8920 0.8920 0.8930
3.827000 0.8940 0.8950 0.8950 0.8950 0.8950
3.856495 0.8970 0.8970 0.8950 0.8950 0.8950
3.886000 0.8950 0.8950 0.8950 0.8950 0.8950
3.915495 0.8940 0.8940 0.8940 0.8940 0.8940
3.945000 0.8940 0.8930 0.8940 0.8940 0.8940
3.974495 0.8930 0.8930 0.8930 0.8920 0.8930
4.004000 0.8930 0.8940 0.8940 0.8940 0.8940
4.033495 0.8940 0.8930 0.8940 0.8940 0.8940
4.063000 0.8950 0.8940 0.8940 0.8930 0.8930
4.092495 0.8930 0.8930 0.8930 0.8930 0.8930
4.121000 0.8930 0.8930 0.8920 0.8930 0.8930
4.150495 0.8940 0.8940 0.8950 0.8950 0.8950
4.180000 0.8950 0.8950 0.8950 0.8970 0.8970
4.209495 0.8970 0.8970 0.8970 0.8980 0.8980
4.239000 0.8980 0.8970 0.8970 0.8970 0.8970
4.268495 0.8950 0.8950 0.8950 0.8940 0.8940
4.298000 0.8940 0.8940 0.8940 0.8930 0.8930
4.327495 0.8930 0.8930 0.8930 0.8930 0.8920
4.357000 0.8920 0.8920 0.8920 0.8920 0.8910
4.386495 0.8910 0.8910 0.8910 0.8900 0.8900
4.416000 0.8900 0.8880 0.8880 0.8900 0.8900
4.445495 0.8900 0.8900 0.8900 0.8900 0.8900
4.475000 0.8900 0.8900 0.8900 0.8900 0.8900
4.504495 0.8900 0.8900 0.8900 0.8900 0.8880
4.534000 0.8880 0.8870 0.8870 0.8860 0.8860
4.563495 0.8850 0.8850 0.8850 0.8850 0.8860
4.593000 0.8860 0.8860 0.8870 0.8870 0.8880
4.622495 0.8880 0.8880 0.8870 0.8870 0.8870
4.652000 0.8870 0.8870 0.8870 0.8870 0.8870
4.681495 0.8870 0.8860 0.8860 0.8860 0.8860
4.711000 0.8860 0.8860 0.8860 0.8860 0.8860
4.740495 0.8870 0.8870 0.8880 0.8880 0.8900
4.770000 0.8880 0.8880 0.8880 0.8880 0.8880
4.799495 0.8880 0.8880 0.8900 0.8880 0.8880
4.829000 0.8870 0.8870 0.8880 0.8880 0.8900
4.858495 0.8880 0.8880 0.8880 0.8880 0.8880
4.888000 0.8870 0.8870 0.8870 0.8870 0.8870
4.917495 0.8870 0.8880 0.8880 0.8880 0.8880
4.947000 0.8880 0.8880 0.8880 0.8880 0.8880
4.976495 0.8880 0.8880 0.8880 0.8880 0.8880
5.006000 0.8880 0.8880 0.8880 0.8870 0.8870
5.035495 0.8870 0.8860 0.8870 0.8870 0.8870
5.065000 0.8870 0.8860 0.8850 0.8860 0.8860
5.094495 0.8870 0.8870 0.8870 0.8880 0.8880
5.124000 0.8880 0.8870 0.8870 0.8880 0.8880
5.153495 0.8880 0.8870 0.8880 0.8880 0.8880
5.183000 0.8880 0.8880 0.8880 0.8870 0.8870
5.212495 0.8870 0.8870 0.8860 0.8860 0.8860
5.242000 0.8860 0.8860 0.8860 0.8860 0.8860
5.271495 0.8860 0.8860 0.8860 0.8860 0.8860
5.301000 0.8860 0.8860 0.8860 0.8850 0.8850
5.330495 0.8850 0.8850 0.8850 0.8850 0.8850
5.360000 0.8850 0.8850 0.8850 0.8850 0.8850
5.389495 0.8840 0.8820 0.8820 0.8820 0.8810
5.419000 0.8810 0.8810 0.8800 0.8790 0.8790
5.448495 0.8800 0.8800 0.8800 0.8800 0.8790
5.478000 0.8790 0.8790 0.8780 0.8770 0.8750
5.507495 0.8720 0.8680 0.8670 0.8670 0.8670
5.537000 0.8660 0.8650 0.8640 0.8640 0.8620
5.566495 0.8610 0.8600 0.8580 0.8540 0.8510
5.596000 0.8490 0.8460 0.8450 0.8430 0.8410
5.625495 0.8390 0.8360 0.8350 0.8340 0.8320
5.654000 0.8290 0.8280 0.8270 0.8200 0.8150
5.683495 0.8120 0.8090 0.8060 0.7990 0.7940
5.713000 0.7930 0.7830 0.7780 0.7650 0.7640
5.742495 0.7560 0.7430 0.7260 0.7110 0.6900
5.772000 0.6710 0.6520 0.6350 0.6060 0.5620
5.801495 0.5340 0.4530 0.3810 0.3230 0.2570
5.831000 0.2110 0.1770 0.1310 0.1220 0.1090
5.860495 0.0950 0.0930 0.0960 0.1200 0.1350
5.890000 0.1660 0.2160 0.2540 0.2880 0.3480
5.919495 0.4530 0.5010 0.5290 0.5730 0.6070
5.949000 0.6370 0.6570 0.6800 0.6970 0.7090
5.978495 0.7240 0.7310 0.7370 0.7430 0.7520
6.008000 0.7630 0.7730 0.7820 0.7910 0.7950
6.037495 0.8100 0.8120 0.8140 0.8200 0.8220
6.067000 0.8320 0.8340 0.8390 0.8400 0.8410
6.096495 0.8410 0.8410 0.8420 0.8420 0.8420
6.126000 0.8430 0.8430 0.8430 0.8450 0.8450
6.155495 0.8460 0.8470 0.8480 0.8510 0.8520
6.185000 0.8520 0.8530 0.8530 0.8540 0.8540
6.214495 0.8550 0.8560 0.8560 0.8560 0.8560
6.244000 0.8560 0.8560 0.8580 0.8590 0.8590
6.273495 0.8600 0.8590 0.8600 0.8600 0.8610
6.303000 0.8620 0.8640 0.8640 0.8640 0.8620
6.332495 0.8620 0.8620 0.8610 0.8600 0.8600
6.362000 0.8590 0.8590 0.8580 0.8590 0.8580
6.391495 0.8580 0.8580 0.8580 0.8560 0.8550
6.421000 0.8530 0.8530 0.8520 0.8520 0.8510
6.450495 0.8490 0.8490 0.8480 0.8470 0.8460
6.480000 0.8450 0.8430 0.8420 0.8420 0.8430
6.509495 0.8490 0.8510 0.8510 0.8520 0.8520
6.539000 0.8510 0.8490 0.8480 0.8460 0.8460
6.568495 0.8450 0.8420 0.8420 0.8410 0.8410
6.598000 0.8410 0.8410 0.8400 0.8390 0.8380
6.627495 0.8360 0.8380 0.8390 0.8390 0.8400
6.657000 0.8400 0.8400 0.8390 0.8360 0.8330
6.686495 0.8300 0.8280 0.8280 0.8260 0.8260
6.716000 0.8220 0.8170 0.8140 0.8120 0.8090
6.745495 0.8070 0.8060 0.8030 0.8010 0.7990
6.775000 0.7950 0.7930 0.7910 0.7830 0.7740
6.804495 0.7630 0.7520 0.7480 0.7220 0.7060
6.834000 0.6760 0.6570 0.6380 0.6300 0.6140
6.863495 0.6000 0.5930 0.5910 0.5890 0.5890
6.893000 0.5890 0.5920 0.5980 0.6000 0.6060
6.922495 0.6090 0.6110 0.6170 0.6250 0.6340
6.952000 0.6340 0.6320 0.6320 0.6310 0.6300
6.981495 0.6280 0.6270 0.6260 0.6220 0.6190
7.011000 0.6140 0.6110 0.6060 0.6040 0.5920
7.040495 0.5850 0.5800 0.5750 0.5700 0.5690
7.070000 0.5690 0.5690 0.5610 0.5520 0.5520
7.099495 0.5570 0.5590 0.5680 0.5680 0.5570
7.129000 0.5570 0.5620 0.5690 0.5730 0.5910
7.158495 0.6110 0.6170 0.6380 0.6500 0.6570
7.188000 0.6660 0.6690 0.6780 0.6780 0.6760
7.217495 0.6740 0.6710 0.6590 0.6570 0.6470
7.246000 0.6310 0.6200 0.6090 0.5800 0.5660
7.275495 0.5530 0.5490 0.5360 0.5100 0.5000
7.305000 0.4710 0.4470 0.4400 0.4330 0.4040
7.334495 0.3970 0.3780 0.3610 0.3560 0.3550
7.364000 0.3510 0.3510 0.3550 0.3590 0.3610
7.393495 0.3680 0.3860 0.3950 0.3970 0.4100
7.423000 0.4130 0.4290 0.4340 0.4650 0.4890
7.452495 0.5020 0.5500 0.5800 0.6020 0.6170
7.482000 0.6350 0.6610 0.6850 0.7050 0.7080
7.511495 0.7240 0.7410 0.7570 0.7630 0.7650
7.541000 0.7700 0.7820 0.7840 0.7880 0.7900
7.570495 0.7910 0.7930 0.7940 0.7940 0.7950
7.600000 0.7960 0.7960 0.8000 0.8020 0.8030
7.629495 0.8030 0.8040 0.8060 0.8060 0.8060
7.659000 0.8060 0.8040 0.8030 0.7990 0.7950
7.688495 0.7950 0.7930 0.7840 0.7780 0.7710
7.718000 0.7680 0.7630 0.7620 0.7610 0.7570
7.747495 0.7540 0.7490 0.7440 0.7430 0.7410
7.777000 0.7430 0.7450 0.7480 0.7490 0.7540
7.806495 0.7580 0.7610 0.7630 0.7640 0.7670
7.836000 0.7670 0.7680 0.7670 0.7640 0.7610
7.865495 0.7580 0.7570 0.7550 0.7480 0.7440
7.895000 0.7420 0.7380 0.7350 0.7360 0.7440
7.924495 0.7470 0.7500 0.7560 0.7610 0.7650
7.954000 0.7710 0.7740 0.7740 0.7760 0.7760
7.983495 0.7750 0.7750 0.7750 0.7740 0.7740
8.013000 0.7730 0.7730 0.7690 0.7680 0.7680
8.042495 0.7670 0.7670 0.7650 0.7630 0.7610
8.072000 0.7560 0.7550 0.7540 0.7540 0.7480
8.101495 0.7410 0.7360 0.7350 0.7340 0.7320
8.131000 0.7320 0.7340 0.7360 0.7410 0.7470
8.160495 0.7470 0.7520 0.7600 0.7730 0.7730
8.190000 0.7770 0.7820 0.7860 0.7880 0.7900
8.219495 0.7930 0.7970 0.8000 0.8010 0.8010
8.249000 0.8000 0.7990 0.7990 0.7960 0.7930
8.278495 0.7910 0.7900 0.7860 0.7830 0.7810
8.308000 0.7770 0.7770 0.7670 0.7550 0.7450
8.337495 0.7310 0.7300 0.7290 0.7250 0.7230
8.367000 0.7190 0.7170 0.7100 0.7060 0.7060
8.396495 0.7050 0.7050 0.6980 0.6930 0.6900
8.426000 0.6820 0.6790 0.6780 0.6730 0.6720
8.455495 0.6690 0.6590 0.6430 0.6320 0.6240
8.485000 0.6170 0.6070 0.5940 0.5800 0.5630
8.514495 0.5430 0.5310 0.5160 0.4880 0.4660
8.544000 0.4470 0.4270 0.4050 0.3950 0.3880
8.573495 0.3770 0.3750 0.3720 0.3820 0.3970
8.603000 0.4030 0.4130 0.4330 0.4710 0.4850
8.632495 0.5090 0.5260 0.5350 0.5590 0.5740
8.662000 0.5950 0.6330 0.6440 0.6570 0.6740
8.691495 0.6820 0.7060 0.7150 0.7250 0.7370
8.721000 0.7450 0.7500 0.7630 0.7670 0.7730
8.750495 0.7770 0.7840 0.7950 0.7990 0.8020
8.779000 0.8070 0.8100 0.8130 0.8160 0.8190
8.808495 0.8220 0.8270 0.8270 0.8280 0.8290
8.838000 0.8320 0.8330 0.8330 0.8340 0.8340
8.867495 0.8330 0.8320 0.8320 0.8300 0.8300
8.897000 0.8300 0.8320 0.8320 0.8340 0.8340
8.926495 0.8350 0.8350 0.8330 0.8320 0.8290
8.956000 0.8260 0.8220 0.8220 0.8210 0.8210
8.985495 0.8170 0.8150 0.8120 0.8100 0.8100
9.015000 0.8090 0.8080 0.8080 0.8080 0.8080
9.044495 0.8080 0.8080 0.8090 0.8090 0.8090
9.074000 0.8090 0.8090 0.8100 0.8120 0.8120
9.103495 0.8130 0.8130 0.8130 0.8130 0.8130
9.133000 0.8130 0.8130 0.8130 0.8120 0.8120
9.162495 0.8120 0.8120 0.8100 0.8100 0.8120
9.192000 0.8120 0.8120 0.8130 0.8140 0.8140
9.221495 0.8160 0.8190 0.8200 0.8220 0.8250
9.251000 0.8340 0.8350 0.8360 0.8430 0.8470
9.280495 0.8470 0.8480 0.8480 0.8490 0.8510
9.310000 0.8520 0.8530 0.8540 0.8540 0.8550
9.339495 0.8550 0.8580 0.8580 0.8580 0.8580
9.369000 0.8580 0.8560 0.8560 0.8560 0.8550
9.398495 0.8550 0.8540 0.8540 0.8540 0.8540
9.428000 0.8540 0.8540 0.8540 0.8550 0.8550
9.457495 0.8560 0.8560 0.8580 0.8600 0.8600
9.487000 0.8590 0.8580 0.8560 0.8550 0.8540
9.516495 0.8540 0.8540 0.8530 0.8520 0.8520
9.546000 0.8520 0.8510 0.8510 0.8490 0.8490
9.575495 0.8480 0.8480 0.8470 0.8470 0.8470
9.605000 0.8480 0.8480 0.8490 0.8490 0.8480
9.634495 0.8470 0.8460 0.8450 0.8460 0.8460
9.664000 0.8470 0.8470 0.8480 0.8510 0.8520
9.693495 0.8530 0.8540 0.8540 0.8540 0.8550
9.723000 0.8550 0.8560 0.8560 0.8550 0.8550
9.752495 0.8550 0.8540 0.8550 0.8550 0.8560
9.782000 0.8580 0.8590 0.8590 0.8590 0.8590
9.811495 0.8590 0.8580 0.8580 0.8580 0.8580
9.841000 0.8580 0.8580 0.8590 0.8580 0.8580
9.870495 0.8560 0.8560 0.8580 0.8580 0.8580
9.900000 0.8580 0.8560 0.8560 0.8560 0.8560
9.929495 0.8560 0.8580 0.8580 0.8580 0.8590
9.959000 0.8600 0.8600 0.8610 0.8600 0.8600
9.988495 0.8590 0.8590 0.8580 0.8580 0.8580
10.018000 0.8560 0.8540 0.8530 0.8520 0.8530
10.047495 0.8520 0.8520 0.8520 0.8520 0.8510
10.077000 0.8510 0.8490 0.8480 0.8480 0.8470
10.106495 0.8470 0.8400 0.8390 0.8380 0.8380
10.136000 0.8360 0.8350 0.8340 0.8330 0.8320
10.165495 0.8280 0.8220 0.8220 0.8210 0.8200
10.195000 0.8190 0.8170 0.8150 0.8130 0.8120
10.224495 0.8090 0.8080 0.8020 0.8010 0.8000
10.254000 0.7970 0.7960 0.7940 0.7940 0.7840
10.283495 0.7830 0.7780 0.7750 0.7740 0.7730
10.313000 0.7730 0.7700 0.7700 0.7690 0.7680
10.342495 0.7650 0.7640 0.7620 0.7600 0.7580
10.371000 0.7580 0.7570 0.7560 0.7540 0.7540
10.400495 0.7520 0.7540 0.7560 0.7570 0.7620
10.430000 0.7640 0.7690 0.7700 0.7710 0.7730
10.459495 0.7730 0.7750 0.7760 0.7760 0.7820
10.489000 0.7900 0.7940 0.7950 0.7990 0.8090
10.518495 0.8140 0.8140 0.8160 0.8170 0.8190
10.548000 0.8280 0.8350 0.8390 0.8420 0.8420
10.577495 0.8430 0.8430 0.8450 0.8450 0.8460
10.607000 0.8460 0.8460 0.8460 0.8470 0.8470
10.636495 0.8470 0.8480 0.8480 0.8510 0.8520
10.666000 0.8530 0.8540 0.8550 0.8560 0.8580
10.695495 0.8580 0.8580 0.8580 0.8590 0.8600
10.725000 0.8600 0.8610 0.8610 0.8620 0.8620
10.754495 0.8640 0.8660 0.8670 0.8670 0.8670
10.784000 0.8670 0.8670 0.8670 0.8670 0.8660
10.813495 0.8660 0.8660 0.8650 0.8650 0.8640
10.843000 0.8650 0.8640 0.8640 0.8640 0.8620
10.872495 0.8620 0.8620 0.8620 0.8620 0.8610
10.902000 0.8600 0.8600 0.8590 0.8560 0.8560
10.931495 0.8550 0.8550 0.8530 0.8520 0.8520
10.961000 0.8490 0.8480 0.8480 0.8460 0.8450
10.990495 0.8410 0.8360 0.8290 0.8250 0.8220
11.020000 0.8200 0.8170 0.8100 0.7990 0.7960
11.049495 0.7940 0.7900 0.7870 0.7840 0.7840
11.079000 0.7860 0.7860 0.7890 0.7900 0.7930
11.108495 0.7940 0.7960 0.7960 0.7990 0.8010
11.138000 0.8010 0.8020 0.8030 0.8040 0.8040
11.167495 0.8060 0.8080 0.8080 0.8090 0.8090
11.197000 0.8090 0.8100 0.8100 0.8100 0.8120
11.226495 0.8120 0.8120 0.8120 0.8120 0.8130
11.256000 0.8140 0.8140 0.8190 0.8250 0.8320
11.285495 0.8330 0.8330 0.8340 0.8350 0.8360
11.315000 0.8380 0.8390 0.8400 0.8410 0.8430
11.344495 0.8470 0.8480 0.8480 0.8490 0.8510
11.374000 0.8520 0.8530 0.8540 0.8540 0.8540
11.403495 0.8550 0.8540 0.8540 0.8540 0.8550
11.433000 0.8540 0.8560 0.8580 0.8590 0.8600
11.462495 0.8600 0.8590 0.8590 0.8580 0.8580
11.492000 0.8580 0.8580 0.8580 0.8590 0.8580
11.521495 0.8580 0.8580 0.8580 0.8580 0.8550
11.551000 0.8550 0.8540 0.8550 0.8550 0.8540
11.580495 0.8540 0.8540 0.8540 0.8540 0.8530
11.610000 0.8530 0.8530 0.8540 0.8550 0.8550
11.639495 0.8560 0.8560 0.8560 0.8580 0.8590
11.669000 0.8580 0.8580 0.8560 0.8550 0.8550
11.698495 0.8540 0.8540 0.8540 0.8540 0.8530
11.728000 0.8530 0.8540 0.8540 0.8540 0.8550
11.757495 0.8550 0.8550 0.8540 0.8540 0.8530
11.787000 0.8530 0.8520 0.8480 0.8470 0.8410
11.816495 0.8380 0.8360 0.8360 0.8360 0.8380
11.846000 0.8380 0.8380 0.8380 0.8380 0.8380
11.875495 0.8380 0.8380 0.8380 0.8380 0.8390
11.904000 0.8390 0.8400 0.8400 0.8400 0.8410
11.933495 0.8400 0.8400 0.8390 0.8390 0.8390
11.963000 0.8380 0.8360 0.8340 0.8340 0.8330
11.992495 0.8330 0.8330 0.8330 0.8340 0.8350
12.022000 0.8350 0.8360 0.8360 0.8360 0.8360
12.051495 0.8390 0.8380 0.8390 0.8400 0.8400
12.081000 0.8410 0.8410 0.8410 0.8400 0.8410
12.110495 0.8400 0.8400 0.8400 0.8400 0.8380
12.140000 0.8380 0.8360 0.8360 0.8360 0.8350
12.169495 0.8360 0.8380 0.8390 0.8390 0.8400
12.199000 0.8400 0.8400 0.8410 0.8410 0.8400
12.228495 0.8410 0.8400 0.8400 0.8400 0.8400
12.258000 0.8380 0.8380 0.8380 0.8380 0.8380
12.287495 0.8390 0.8400 0.8400 0.8400 0.8400
12.317000 0.8410 0.8400 0.8400 0.8390 0.8360
12.346495 0.8360 0.8380 0.8380 0.8380 0.8390
12.376000 0.8390 0.8390 0.8400 0.8410 0.8420
12.405495 0.8420 0.8420 0.8410 0.8410 0.8400
12.435000 0.8410 0.8410 0.8410 0.8410 0.8400
12.464495 0.8400 0.8390 0.8390 0.8380 0.8380
12.494000 0.8380 0.8360 0.8360 0.8350 0.8350
12.523495 0.8340 0.8340 0.8340 0.8340 0.8330
12.553000 0.8330 0.8330 0.8330 0.8340 0.8340
12.582495 0.8340 0.8340 0.8340 0.8350 0.8360
12.612000 0.8360 0.8380 0.8380 0.8380 0.8390
12.641495 0.8390 0.8390 0.8390 0.8380 0.8380
12.671000 0.8380 0.8390 0.8390 0.8380 0.8360
12.700495 0.8380 0.8380 0.8380 0.8380 0.8380
12.730000 0.8380 0.8360 0.8360 0.8360 0.8340
12.759495 0.8340 0.8330 0.8330 0.8330 0.8330
12.789000 0.8330 0.8330 0.8330 0.8340 0.8340
12.818495 0.8350 0.8350 0.8360 0.8350 0.8360
12.848000 0.8360 0.8380 0.8360 0.8360 0.8360
12.877495 0.8350 0.8360 0.8360 0.8360 0.8360
12.907000 0.8360 0.8360 0.8340 0.8340 0.8330
12.936495 0.8340 0.8330 0.8330 0.8330 0.8330
12.966000 0.8340 0.8340 0.8340 0.8340 0.8340
12.995495 0.8340 0.8330 0.8340 0.8340 0.8330
13.025000 0.8330 0.8330 0.8320 0.8320 0.8300
13.054495 0.8300 0.8290 0.8280 0.8280 0.8270
13.084000 0.8270 0.8270 0.8270 0.8270 0.8270
13.113495 0.8280 0.8280 0.8280 0.8280 0.8290
13.143000 0.8280 0.8280 0.8280 0.8280 0.8280
13.172495 0.8290 0.8280 0.8280 0.8280 0.8270
13.202000 0.8270 0.8260 0.8260 0.8250 0.8230
13.231495 0.8220 0.8210 0.8200 0.8190 0.8190
13.261000 0.8170 0.8160 0.8160 0.8140 0.8140
13.290495 0.8150 0.8150 0.8150 0.8140 0.8140
13.320000 0.8130 0.8130 0.8120 0.8120 0.8100
13.349495 0.8090 0.8100 0.8100 0.8120 0.8120
13.379000 0.8130 0.8130 0.8120 0.8120 0.8090
13.408495 0.8060 0.8030 0.8020 0.8010 0.8010
13.438000 0.8000 0.7990 0.7960 0.7950 0.7940
13.467495 0.7930 0.7910 0.7910 0.7910 0.7900
13.496000 0.7900 0.7890 0.7880 0.7880 0.7870
13.525495 0.7870 0.7860 0.7830 0.7820 0.7820
13.555000 0.7810 0.7810 0.7800 0.7780 0.7770
13.584495 0.7760 0.7750 0.7740 0.7740 0.7730
13.614000 0.7710 0.7700 0.7670 0.7650 0.7630
13.643495 0.7620 0.7570 0.7550 0.7490 0.7430
13.673000 0.7380 0.7360 0.7350 0.7340 0.7250
13.702495 0.7240 0.7230 0.7220 0.7210 0.7180
13.732000 0.7150 0.7100 0.7060 0.7020 0.6970
13.761495 0.6970 0.6960 0.6950 0.6950 0.6950
13.791000 0.6960 0.6970 0.6970 0.7000 0.7030
13.820495 0.7050 0.7050 0.7060 0.7090 0.7120
13.850000 0.7170 0.7220 0.7240 0.7280 0.7290
13.879495 0.7300 0.7300 0.7340 0.7370 0.7390
13.909000 0.7420 0.7430 0.7440 0.7450 0.7480
13.938495 0.7490 0.7510 0.7550 0.7550 0.7570
13.968000 0.7570 0.7580 0.7580 0.7580 0.7600
13.997495 0.7610 0.7610 0.7620 0.7620 0.7630
14.027000 0.7630 0.7650 0.7670 0.7670 0.7670
14.056495 0.7670 0.7680 0.7670 0.7670 0.7670
14.086000 0.7670 0.7680 0.7670 0.7670 0.7650
14.115495 0.7650 0.7640 0.7640 0.7640 0.7650
14.145000 0.7650 0.7650 0.7680 0.7690 0.7690
14.174495 0.7690 0.7690 0.7700 0.7690 0.7700
14.204000 0.7700 0.7700 0.7690 0.7690 0.7680
14.233495 0.7680 0.7670 0.7650 0.7670 0.7670
14.263000 0.7670 0.7670 0.7650 0.7670 0.7670
14.292495 0.7680 0.7680 0.7680 0.7670 0.7670
14.322000 0.7650 0.7640 0.7640 0.7640 0.7630
14.351495 0.7640 0.7630 0.7630 0.7610 0.7600
14.381000 0.7600 0.7600 0.7580 0.7580 0.7560
14.410495 0.7510 0.7490 0.7480 0.7440 0.7440
14.440000 0.7450 0.7470 0.7480 0.7500 0.7500
14.469495 0.7500 0.7510 0.7510 0.7510 0.7520
14.499000 0.7520 0.7520 0.7510 0.7510 0.7500
14.528495 0.7500 0.7480 0.7480 0.7480 0.7470
14.558000 0.7470 0.7450 0.7440 0.7440 0.7430
14.587495 0.7410 0.7390 0.7390 0.7370 0.7380
14.617000 0.7380 0.7380 0.7380 0.7380 0.7380
14.646495 0.7370 0.7360 0.7360 0.7350 0.7350
14.676000 0.7340 0.7340 0.7340 0.7320 0.7310
14.705495 0.7300 0.7300 0.7300 0.7290 0.7290
14.735000 0.7290 0.7260 0.7280 0.7280 0.7280
14.764495 0.7280 0.7280 0.7280 0.7260 0.7250
14.794000 0.7250 0.7240 0.7220 0.7190 0.7170
14.823495 0.7160 0.7150 0.7130 0.7130 0.7160
14.853000 0.7160 0.7150 0.7150 0.7160 0.7160
14.882495 0.7130 0.7130 0.7120 0.7120 0.7110
14.912000 0.7110 0.7100 0.7100 0.7100 0.7090
14.941495 0.7060 0.7060 0.7050 0.7040 0.7040
14.971000 0.7030 0.7030 0.7030 0.7030
##END=
