##TITLE=1,2-Dichloroethane
##JCAMP-DX=4.24
##DATA TYPE=INFRARED SPECTRUM
##CLASS=IUPAC A
##ORIGIN=NIST, Analytical Chemistry Division, 301-975-3108
##OWNER=COPYRIGHT (C) 2001 by the U.S. Secretary of Commerce
##DATE=01/06/01
##$SPECTRA VERSION=1.10
##$UNCERTAINTY IN Y=2.1 % relative (B=1.10E-04,C=7.45E-10,D=1.46E-14)
##CAS NAME=1,2-Dichloroethane
##CAS REGISTRY NO=107-06-2
##MOLFORM=Cl C H2 C H2 Cl
##MP=-35.36 C
##BP=83.47 C
##$NIST SOURCE=QUANT-IR
##SPECTROMETER/DATA SYSTEM=IFS66V (Bruker)
##INSTRUMENT PARAMETERS=KBr Beam Splitter; MCT Detector; Multipass cell
##STATE=gas
##SAMPLE DESCRIPTION=1,2-Dichloroethane Primary Gas Standard
##PRESSURE=101.3 Pa
##TEMPERATURE=23 C
##SAMPLING PROCEDURE=1 L/min Flow
##RESOLUTION=0.9640
##DATA PROCESSING=3-Term B-H Apodization
##XUNITS=cm-1
##YUNITS=(micromol/mol)-1m-1 (base 10)
##XFACTOR=1.0
##YFACTOR=9.0949E-13
##DELTAX=0.4820
##FIRSTX=575.17
##LASTX=3974.605
##FIRSTY=1.83E-07
##MAXX=3974.12
##MINX=575.17
##MAXY=.0005814
##MINY=-1.06E-06
##NPOINTS=7052
##XYDATA=(X++(Y..Y))
575.17 201522 364068 900937 1241868 1148353 848355
577.58 873677 1056300 1020470 1074172 1120085 668206
580.47 159830 188152 436983 298948 403379 802900
583.37 859811 656052 279367 190851 516462 612426
586.26 535311 374422 283845 455634 362512 17450
589.15-50876 210566 398588 487192 569624 642242
592.04 732834 698454 469413 195340 129180 183732
594.94 113925-86027-52579 206652 211763 25767
597.83-9634 67008 202573 247805 16948-247666
600.72-130478 95868-38835-226824-226718-285738
603.62-185092 136061 126506-38661-3160 51436
606.51 61194 67605 70215-27851-169560-335364
609.40-414346-234261 38120 251575 199082-163060
612.29-391125-266483 18494 246737 325513 199358
615.19 38753 27294 137916 213535 20966-85156
618.08-27222-78944-60684 36168-38987-216749
620.97-271317-126947-16244-21332 107500 318028
623.86 372468 285857 157936 73163 65502 202332
626.76 410301 469859 555634 614813 478390 416682
629.65 465959 555559 674297 655065 565132 631114
632.54 827911 892378 826651 791283 777000 780123
635.44 865325 1090543 1268573 1297352 1352519 1407004
638.33 1355475 1476327 1870968 2131082 2091863 2068957
641.22 2288972 2591125 2829987 2954421 3044641 3289437
644.11 3552849 3656084 3754072 4005964 4317099 4536269
647.01 4745747 5019997 5310643 5728086 6221770 6547652
649.90 6797845 7195301 7664321 8052696 8466790 8907899
652.79 9208911 9504115 9937277 10361262 10788828 11335861
655.68 11947878 12561973 13103153 13621718 14110719 14523111
658.58 15001418 15583067 16006582 16285884 16619689 16857622
661.47 17018424 17255814 17393686 17416709 17381377 17247501
664.36 17043114 16707298 16308335 15963250 15471019 14569759
667.26 13942117 14263837 14960200 15518376 15965826 16466704
670.15 17075622 17802682 18824027 20083416 21178410 22096069
673.04 23082086 23999027 24674458 25049163 25050871 25106612
675.93 25372664 25679872 26267597 27039919 27660455 28161821
678.83 28772045 29585812 30468830 31383747 32460119 33733407
681.72 35071059 36532431 38058423 39467711 40828188 42099375
684.61 43206480 44112475 44598756 44660119 44539851 44268012
687.50 43722025 43173790 42774445 41612462 39122619 37219423
690.40 38720773 42988956 44482999 40231595 37543991 43530265
693.29 51003898 48892433 40133045 34431430 32722567 32610091
696.18 34119315 36507946 38895883 41214812 43234377 44679649
699.08 45549713 45949676 45916845 45499393 44801818 44056111
701.97 43441049 42974125 42629264 42562965 42974679 43867929
704.86 45296525 47375808 50130929 53584603 57714147 62740795
707.75 68737313 75536223 83183411 91919628 101744252 112417917
710.65 124031520 137083856 151621057 167355544 184120788 202052410
713.54 221240503 241670201 263606870 286765358 310554759 335100288
716.43 360673205 387280108 414102040 440227861 465704269 490298238
719.32 513127581 534054174 553442729 571025131 585896376 596997963
722.22 604015654 608408912 610802739 609872839 604966251 598643653
725.11 594208938 589794792 581398728 571854868 568824138 574456255
728.00 580568865 579251805 577336041 585058998 606468731 631485004
730.90 639303260 626646620 618322639 620364254 618327056 605668382
733.79 581674645 547294119 504530228 455958667 403627072 349624998
736.68 296433144 245717143 198741489 156665790 120316658 89904485
739.57 65310715 46232319 32112716 22102762 15356709 11172627
742.47 8852301 7755838 7370247 7188410 7052943 7008124
745.36 6999874 6943881 6865934 6853278 6964300 6993186
748.25 6878404 6891972 7007189 6977625 6907176 6991514
751.14 7117021 7089043 7027969 7156995 7262327 7119590
754.04 7097265 7410529 7552253 7335581 7370409 7711120
756.93 7685289 7438620 7521733 7677821 7566439 7491634
759.82 7714181 7764457 7461035 7356480 7667615 7849737
762.72 7749348 7826810 8058145 8046890 7871282 7985745
765.61 8309553 8235049 7851517 7671855 7624782 7532483
768.50 7480798 7559727 7745680 7988937 8385514 8965502
771.39 9502233 9563860 8859075 7852780 7184071 6867625
774.29 6806730 6797513 6588530 6391379 6379974 6329968
777.18 6109336 5881637 5822319 5796079 5667969 5605587
780.07 5758109 5804799 5550786 5362937 5421790 5395928
782.96 5168664 5093279 5281870 5360808 5229025 5153203
785.86 5206990 5128597 4847080 4646256 4664151 4610445
788.75 4397193 4384664 4459780 4208795 3962307 4089730
791.64 4107855 3806407 3697178 3764473 3650681 3481705
794.54 3517058 3601545 3491133 3327815 3268850 3259996
797.43 3117492 2845252 2793086 2907680 2855233 2785147
800.32 2755668 2534957 2335857 2386029 2437773 2346375
803.21 2323853 2327246 2224177 2122159 2087354 2129665
806.11 2124466 2031293 1995711 2002160 1951402 1898806
809.00 1924041 1900731 1815297 1792378 1818663 1874491
811.89 1875330 1733809 1610427 1583994 1572140 1563687
814.78 1594086 1608434 1627207 1625248 1563853 1631759
817.68 1724402 1691720 1690442 1707832 1694068 1684707
820.57 1697171 1814208 2000101 2014866 1944142 1996352
823.46 2024570 1972010 1945137 1983459 2096867 2217249
826.36 2259754 2283271 2345174 2396032 2394598 2363202
829.25 2370305 2378095 2378262 2398223 2429071 2446331
832.14 2364606 2238494 2215538 2215467 2135978 2077834
835.03 2087795 2117062 2087139 2011034 1984032 1966183
837.93 1901052 1835644 1823922 1833100 1850610 1926102
840.82 1976696 1907283 1849404 1806254 1666076 1474853
843.71 1330873 1290075 1247820 1163720 1151530 1135218
846.60 1016043 852602 741933 724625 739036 706705
849.50 632781 630252 704024 702477 648179 661770
852.39 648378 598915 622656 631812 656870 752073
855.28 792571 771848 828056 924268 935178 883408
858.18 782625 673190 700094 843072 945290 971488
861.07 963324 988473 1081331 1200494 1286540 1302856
863.96 1285947 1313661 1385542 1478318 1620801 1781897
866.85 1946640 2125850 2202057 2223205 2350728 2492334
869.75 2599725 2760464 3001715 3292760 3615582 3902715
872.64 4232835 4688538 5146870 5622227 6249900 7025588
875.53 7859153 8677396 9580000 10643435 11729410 12728007
878.42 13752774 14856467 16040334 17289760 18517185 19727792
881.32 20883008 21878097 22727525 23463043 24121531 24781696
884.21 25282843 25218236 24474395 23469545 22616927 22055818
887.10 21949900 22482794 23566776 24994765 26541815 27765924
889.99 27280537 24290612 20706387 18455072 17754581 17835619
892.89 18371637 19387745 20531466 21623953 22550579 23251194
895.78 23694640 23736787 23475019 23024258 22329408 21439129
898.67 20422734 19307511 18110486 16812682 15519987 14325297
901.57 13151288 11987401 10867312 9778126 8771814 7902521
904.46 7126354 6466038 5930219 5413876 4923531 4494553
907.35 4108820 3764188 3397354 3118509 3016259 2918933
910.24 2774942 2688142 2597644 2445095 2330862 2289028
913.14 2226176 2109576 2015307 1989717 2032941 2077965
916.03 2024925 1914609 1893568 1948231 1978622 2012740
918.92 2105651 2196391 2246566 2275628 2286062 2336981
921.81 2455259 2620353 2802051 2921769 2964738 3057558
924.71 3179796 3292544 3472630 3714386 3935201 4113586
927.60 4314739 4558495 4808048 5038579 5231598 5418851
930.49 5639572 5880202 6131474 6382330 6666701 7005460
933.39 7286091 7519520 7786718 8061646 8313716 8560395
936.28 8813035 9055498 9267366 9488268 9732865 9915713
939.17 10061524 10149593 10159194 10228702 10294005 10216394
942.06 10135003 10101133 9947924 9706554 9523756 9355093
944.96 9109925 8826800 8552568 8310801 8163475 8184853
947.85 8354518 8561449 8796078 9217982 9817445 10240430
950.74 10435928 10674940 10906786 10929949 10770082 10598566
953.63 10467771 10352658 10224046 10058835 9871626 9641238
956.53 9371310 9058681 8647275 8184812 7769691 7428883
959.42 7115962 6758226 6366525 6027040 5723149 5413789
962.31 5172812 4992461 4784448 4564760 4359794 4151070
965.21 3959411 3802886 3680554 3569619 3425489 3234976
968.10 3077148 2973699 2898864 2804581 2639462 2464606
970.99 2371129 2371050 2343638 2266469 2186590 2062032
973.88 1962334 1953254 1970181 1958357 1938285 1939280
976.78 1988337 2091666 2200548 2269835 2333632 2432951
979.67 2553871 2615805 2645562 2719341 2798466 2858110
982.56 2881968 2885819 2944786 3056589 3144281 3144518
985.45 3088614 3037378 3019167 3029891 3044199 3079208
988.35 3179869 3283369 3317258 3328019 3397401 3503906
991.24 3595782 3678567 3740294 3722531 3650242 3646191
994.13 3649338 3543665 3414401 3326930 3231845 3101868
997.03 2974104 2850459 2717888 2600110 2494175 2403518
999.92 2337153 2255378 2112853 1952714 1848592 1794346
1002.81 1776990 1775058 1763316 1750037 1728720 1751845
1005.70 1798084 1764567 1713727 1746853 1811828 1849446
1008.60 1886043 1948118 2027407 2107337 2180540 2267217
1011.49 2362937 2460040 2541398 2557952 2588428 2710093
1014.38 2850786 3030098 3254396 3417574 3496819 3564214
1017.27 3674417 3805311 3913841 4000535 4088621 4180425
1020.17 4240873 4329404 4494923 4669080 4799462 4833933
1023.06 4773194 4767104 4905257 5047191 5058176 5088544
1025.95 5183618 5214078 5183251 5107859 5023657 4971299
1028.85 4891854 4750208 4587928 4467264 4368867 4202382
1031.74 3992822 3873334 3845039 3806144 3770989 3698521
1034.63 3508983 3277602 3029860 2815178 2725267 2625283
1037.52 2423490 2232899 2097233 1933925 1776749 1693891
1040.42 1635454 1569881 1511094 1445700 1341539 1265425
1043.31 1246086 1218174 1162985 1114116 1068465 974540
1046.20 878601 848180 830572 798821 799535 778654
1049.09 691356 619183 612425 637932 634203 587347
1051.99 492479 408958 395436 381251 355636 362732
1054.88 352123 291823 246664 233678 204394 183543
1057.77 217242 250174 269776 285547 267003 212096
1060.67 161381 145563 106718 64387 68968 103405
1063.56 134790 123080 85919 83988 138466 151170
1066.45 81570 45796 83775 100875 105311 133274
1069.34 117712 69229 62325 103434 134353 129705
1072.24 106988 78925 69469 84642 89972 101232
1075.13 139062 164303 164799 188050 230118 283270
1078.02 315681 317568 314821 314041 307631 344503
1080.91 412296 430519 446905 466339 480111 530714
1083.81 522706 475565 494601 579508 630392 591696
1086.70 577551 625969 649890 689534 784733 813094
1089.59 821517 919325 987791 983874 948045 899575
1092.49 933207 1038906 1147498 1258939 1311679 1274979
1095.38 1204250 1170319 1215025 1333113 1405442 1410468
1098.27 1473999 1537874 1530337 1571552 1688546 1741657
1101.16 1703504 1707399 1814335 1859326 1842004 1899053
1104.06 1999182 2064154 2069016 2102543 2172433 2202804
1106.95 2225388 2251656 2274146 2293860 2344301 2463359
1109.84 2514791 2444802 2425582 2514124 2573039 2525159
1112.73 2538145 2669181 2694093 2619269 2644112 2696941
1115.63 2643177 2585393 2625879 2678664 2716833 2782948
1118.52 2826120 2807672 2801725 2906677 3123047 3595165
1121.41 4509590 5327990 5388067 5003720 4614878 4200037
1124.31 3819929 3506932 3236437 3129725 3157047 3087525
1127.20 2982210 3110874 3302664 3140077 2953110 3246381
1130.09 3443040 3100393 3021060 3465614 3459033 2992147
1132.98 3079984 3504750 3416175 3211271 3437552 3576178
1135.88 3287468 3109860 3305368 3430548 3254286 3146561
1138.77 3276925 3318960 3107237 2950902 3027626 3042376
1141.66 2935107 2987522 3102502 3016916 2893455 2947212
1144.55 3103518 3313276 3491004 3349735 2991379 2761578
1147.45 2707476 2755237 2784525 2753997 2771116 2782679
1150.34 2675365 2558382 2514141 2477636 2423764 2380445
1153.23 2310423 2214726 2162896 2177300 2203484 2185381
1156.13 2135159 2087629 2045423 2019202 2039498 2061820
1159.02 2029912 1923071 1823417 1795402 1712624 1616584
1161.91 1608298 1587623 1532906 1497016 1459074 1406790
1164.80 1369760 1317754 1252695 1249968 1251388 1214465
1167.70 1189478 1142463 1047257 990095 997964 998578
1170.59 985109 951788 909429 878670 846517 853820
1173.48 892140 909012 928892 962984 956231 926513
1176.37 918670 928376 907704 857467 808431 800846
1179.27 849325 903262 937698 969219 983998 995870
1182.16 1039539 1079843 1106164 1133916 1180456 1232136
1185.05 1259027 1307614 1356768 1376822 1425493 1490544
1187.95 1531110 1571375 1622386 1715084 1843949 1941112
1190.84 2024248 2155709 2289107 2318446 2341634 2513982
1193.73 2655490 2639035 2693685 2886755 2968693 2937455
1196.62 3084353 3403594 3563189 3537669 3684747 4007595
1199.52 4065508 3974772 4274746 4719735 4685523 4564472
1202.41 5019460 5436428 5197591 5128170 5753323 6168938
1205.30 5976217 6065724 6631607 6830682 6670644 6920034
1208.19 7421968 7622804 7722240 8023424 8407046 8673726
1211.09 8836621 9256847 9906198 10276648 10606967 11508290
1213.98 12554592 13168781 14074368 15872761 17587673 18765984
1216.87 20921130 24381988 27460560 30408049 35125954 40925390
1219.77 46235276 52335920 60660703 69716900 78396311 88217876
1222.66 99837681 111683802 122999006 134669371 146821841 158058410
1225.55 167548890 175580523 182075794 186170514 187249688 185324652
1228.44 180653097 172392699 160016570 146059317 135872555 137511636
1231.34 144693547 140599911 132842310 132577011 137763993 146374488
1234.23 156721167 167400531 177617132 186985973 194337734 198677956
1237.12 200713291 200559526 196389753 188370330 179036384 168725251
1240.01 155928447 141622706 128216933 115492384 101960117 88799164
1242.91 77915202 68293259 58422932 49715406 43463017 37973777
1245.80 32087228 27527240 24950726 22284462 18927310 16918732
1248.69 16466416 15314559 13309766 12510833 12705489 12050611
1251.59 10983679 10907490 10948496 10123298 9605808 9964019
1254.48 9759812 8848153 8705770 9133363 8774868 8092047
1257.37 8178694 8318278 7708373 7263851 7538427 7590469
1260.26 7034877 6745481 6937967 6828833 6408373 6381368
1263.16 6491610 6147881 5815869 5987903 6024400 5630790
1266.05 5435879 5568360 5526058 5312308 5334340 5421666
1268.94 5252814 5151527 5371361 5530751 5484679 5620928
1271.83 5948690 6222519 6453315 6857297 7424322 7976238
1274.73 8640454 9595502 10628736 11699514 13052519 14675397
1277.62 16404498 18295290 20441592 22778993 25167471 27675960
1280.51 30360811 33104739 35798128 38427820 40953130 43255135
1283.41 45206030 46781294 47843926 48331047 48407217 48096439
1286.30 47128871 45329799 42918588 40264427 37340049 34608717
1289.19 33235495 34516302 40233417 51791248 66266218 71070453
1292.08 54998998 32820337 23728911 24728611 28620536 33485662
1294.98 38563815 43266744 47276795 50450481 52651427 53778763
1297.87 53923792 53234859 51858653 49890331 47485292 44796155
1300.76 41983562 39151148 36333530 33563326 30990547 28618562
1303.65 26356241 24337057 22647120 21127295 19719918 18482323
1306.55 17459312 16599649 15862593 15183739 14526462 13931773
1309.44 13423926 12936881 12423351 11875531 11328367 10837731
1312.33 10490647 10316003 10308340 10484592 10885138 11496625
1315.23 12213630 12939418 13585365 14041825 14326136 14477098
1318.12 14470910 14368434 14185213 13862745 13445940 13013245
1321.01 12655187 12337652 11962993 11573283 11218666 10908535
1323.90 10644340 10359943 10071205 9826592 9585404 9353538
1326.80 9153877 8956955 8740875 8510807 8301084 8079050
1329.69 7809999 7567714 7374739 7186112 6984584 6746459
1332.58 6495203 6296343 6091465 5847959 5692125 5602554
1335.47 5434781 5201916 5009871 4903658 4800120 4635090
1338.37 4483111 4372538 4279611 4225158 4180941 4115539
1341.26 4026879 3926291 3863958 3794002 3713321 3685665
1344.15 3647725 3575590 3495974 3462743 3472165 3404149
1347.05 3324019 3288807 3239316 3190320 3147136 3128544
1349.94 3110004 3029023 2931809 2857992 2857306 2897181
1352.83 2962320 3093074 3185644 3189626 3196823 3255914
1355.72 3267498 3266046 3228148 3067677 2968753 2969876
1358.62 2926904 2941101 3003411 2940276 2821357 2758063
1361.51 2721790 2674794 2641292 2649847 2611683 2527149
1364.40 2463341 2398670 2388702 2438042 2465877 2455609
1367.29 2379089 2241366 2118986 2087508 2052835 1945411
1370.19 1859109 1786914 1666220 1538817 1463710 1413059
1373.08 1363578 1384568 1463360 1493611 1418505 1360740
1375.97 1399057 1442872 1464941 1451761 1388927 1342949
1378.87 1365713 1397084 1361173 1299292 1236079 1203540
1381.76 1214588 1214658 1231024 1253084 1216447 1179847
1384.65 1201745 1194277 1090098 996362 927339 870013
1387.54 925717 1036704 1109301 1133265 1103985 1054201
1390.44 985741 923032 922119 974273 975190 910858
1393.33 840699 755124 727074 790911 828801 847317
1396.22 895364 929407 899465 881312 876855 863104
1399.11 908714 1001589 1110718 1185407 1152906 1099027
1402.01 1159231 1250864 1239307 1240961 1305450 1354580
1404.90 1428276 1518341 1552486 1581068 1644367 1749077
1407.79 1882599 1997768 2099836 2215932 2313621 2389018
1410.69 2457779 2601547 2805179 2953246 3049938 3152002
1413.58 3280547 3455730 3623508 3799854 4004443 4194824
1416.47 4328914 4497227 4763553 4981645 5041999 5234759
1419.36 5766829 6287645 6640265 7063743 7572363 8017349
1422.26 8402685 8896905 9477233 10026972 10609981 11387103
1425.15 12217535 12893423 13533820 14318856 15114709 15768528
1428.04 16341433 16975931 17601081 18062742 18431520 18903658
1430.93 19364852 19552271 19531288 19560834 19599012 19615927
1433.83 19993435 21033749 22332336 24058152 28742882 35676890
1436.72 35055442 26210333 20530775 20514886 22366606 24110430
1439.61 25236516 26002223 26659352 27018804 27239312 27807985
1442.51 28440450 28418913 28226451 28574452 28946521 28693267
1445.40 28433273 28696040 28886205 28506321 28295362 28938696
1448.29 29623552 29737951 30343978 31839229 32819553 32944424
1451.18 34031030 36037396 36612083 36330284 37699897 39132785
1454.08 38301674 37277870 37434265 36557778 34082250 31867558
1456.97 30328073 28188842 25537438 23920246 23168266 21983883
1459.86 20604837 20752584 23134898 26589987 30105849 32758018
1462.75 34175432 35246639 36192868 36257713 35395518 34652249
1465.65 34565710 33753874 31433483 29522281 29002916 27873667
1468.54 25350742 23582965 23201581 22168616 20088545 18869111
1471.43 18706130 17950455 16477643 15857302 16130922 15678816
1474.33 14653891 14447311 14571139 13923521 13225758 13327446
1477.22 13425046 12817851 12308130 12377433 12237548 11668154
1480.11 11358325 11334623 11033053 10495857 10297163 10294086
1483.00 9895713 9403773 9336645 9254176 8810747 8479896
1485.90 8401085 8079668 7574285 7385680 7347279 7054859
1488.79 6657634 6435946 6286759 6001097 5801252 5754009
1491.68 5579961 5317401 5138516 4952571 4701707 4500587
1494.57 4351590 4024431 3545691 3400638 3560187 3522000
1497.47 3281600 3021286 2858207 2825548 2801673 2699812
1500.36 2536024 2376004 2286125 2194093 2060779 1971611
1503.25 1894258 1754098 1540425 1195969 969078 961976
1506.15 760931 598140 813620 1002030 1050624 1118489
1509.04 1146392 1098288 1041577 1023749 1000569 922308
1511.93 926710 1050463 1132129 1161627 1188500 1219331
1514.82 1283953 1341402 1391792 1459355 1513739 1640465
1517.72 1871780 2046926 2095337 2052064 2043770 2005829
1520.61 1865879 1959612 2156392 2151256 2205556 2342358
1523.50 2367980 2295938 2202090 2189752 2347132 2511411
1526.39 2574770 2647652 2780167 2861276 2910820 2980820
1529.29 3038871 3083341 3105715 3052605 2956607 2880051
1532.18 2788818 2650594 2523206 2488944 2518579 2483601
1535.07 2387511 2278088 2178744 2103346 2026710 1866000
1537.97 1470651 1026230 1009800 1060886 995864 1115956
1540.86 1095986 820967 782908 1016525 1071863 975776
1543.75 904649 747461 618743 694836 789216 794792
1546.64 775323 735240 687315 626425 528812 427151
1549.54 395649 424569 442161 424389 386343 354821
1552.43 343440 281556 89797-41311 87636 221609
1555.32 246065 275667 226123 4046-271670-587364
1558.21-624027-342665-369705-507786-240005 118484
1561.11 231382 223217 209815 229873 257813 240722
1564.00 185171 150370 173165 207324 226552 245702
1566.89 237242 232908 213313 132083 12584-38387
1569.79 73522 196359 236453 255070 255922 254016
1572.68 256446 240104 233889 236933 149915-183786
1575.57-545121-377800 14725 162370 228271 282330
1578.46 289436 281865 273324 264763 247915 225134
1581.36 228415 245813 238754 224754 239790 257830
1584.25 238542 212077 179432 133675 128638 130776
1587.14 107980 93951 98504 117056 126878 110181
1590.03 78973 64675 95486 109780 77427 52407
1592.93 47862-920-56902-34928 16010 47116
1595.82 54102 39492 16040-18195-42468-30021
1598.71 9221 15398 1696-3210-10717-11754
1601.61-5436-7908-62975-90828-48986-8521
1604.50-275-14356-10180-18935-37113-11561
1607.39 5982-8556-28600-46077-31015 6554
1610.28 42179 36671-285 9943 68321 105010
1613.18 96861 56330 9407 423-34990-315119
1616.07-684975-580261-188033-7217 6748-8918
1618.96 2771 13535-6614-9858 22063 42998
1621.85 35099-51256-219192-251765-102657-6439
1624.75 6779-3605-31408-88649-162484-198514
1627.64-149677-67121-9711 1817-18758-22192
1630.53-14860-32985-44493-36745-29203-43002
1633.43-104619-240892-480620-744666-678306-315754
1636.32-150595-191393-177666-123431-83907-40692
1639.21-23213-30609-19905 3481-29371-109427
1642.10-136013-70934-15891-34081-69544-155772
1645.00-400529-556676-387681-246975-251280-226411
1647.89-182816-121544-88854-76964-51816-70735
1650.78-176585-486485-929718-1165946-1161206-866804
1653.67-520922-354097-214578-140076-105775-54279
1656.57-11649-7128-11365 5345 2615-29270
1659.46-23952 17879 53079 36057-30986-160364
1662.35-230816-122225-12261 16914 27380 42417
1665.25 60227 61865 63283 85113 105730 68777
1668.14-70387-257674-227452-232 121442 73929
1671.03 42303 127065 202717 213467 216075 218865
1673.92 143207-79103-208471-49066 140919 190543
1676.82 225530 271928 279422 262449 235231 205635
1679.71 208748 237310 240275 215781 213100 172500
1682.60 63500-18998-208372-594767-609362-133510
1685.49 181419 248845 252563 249290 233548 215103
1688.39 238285 228659 165043 151939 187382 193591
1691.28 196845 198747 174210 196040 244942 224450
1694.17 108115-212168-680263-666201-152510 124780
1697.07 127159 139801 139406 23285-302466-651503
1699.96-689440-427650-88605 82372 110843 116703
1702.85 108779 62468-12851-1234 73708 51061
1705.74-24429-1936 90499 146603 159303 161606
1708.64 157414 132442 124437 146214 169936 196944
1711.53 207474 185450 162738 114206 67643 28119
1714.42-50882-37878 82574 79378-200251-488421
1717.31-341658-109564-42529 68746 151481 160583
1720.21 168466 165455 153445 151451 139048 119120
1723.10 136089 176430 197138 194175 187742 177735
1725.99 160747 151407 156428 165214 148844 117729
1728.89 86873 37503 20741 56586 93851 84188
1731.78 13526-160043-383855-429085-473761-489768
1734.67-232230-17845 18694 11380 19263 24905
1737.56 1750-25481-80191-239136-308230-182671
1740.46-56797 8370 13091-28502-49805-46453
1743.35-41493-28779 1808 7063-27457-51800
1746.24-40548-9502-8138-71872-118233-67192
1749.13-5030-19674-134875-294940-272689-66774
1752.03 76467 108495 99640 88071 68010 51793
1754.92 59143 39763-32089-75889-27562 21123
1757.81 37808 83365 133782 139129 91486 22350
1760.71-66174-157718-106443 13999 50914 52037
1763.60 65543 86435 102628 141875 167056 121490
1766.49 69252 13516-73854-67950 24063 61334
1769.38 65413 60506 2249-58790-87133-255622
1772.28-377801-194797 20438 95698 107837 85986
1775.17 64305 93419 124221 127410 111107 86053
1778.06 70851 58190 89846 118886 83489 52435
1780.95 82217 116293 148509 175004 157662 127895
1783.85 75933 21141 55927 104340 114883 147186
1786.74 168358 145470 108525 83909 90060 105841
1789.63 84619 21867-15527-1386-86854-237944
1792.53-174565-6321 35530 10791 5890 13090
1795.42 14814 5923-16399-37317-33793-18827
1798.31-42767-106203-124313-92131-106887-120945
1801.20-84425-72759-80901-74976-76467-81656
1804.10-86404-87736-58510-19985-12125-39876
1806.99-76364-76494-53494-65209-89283-82316
1809.88-80530-78661-41806-30794-64148-77781
1812.77-82900-73806-51617-53386-28378 22542
1815.67 18219-38971-61263-29930-6822-28215
1818.56-56706-40656 12913 38780-950-26145
1821.45-3163 1171 19528 57714 43651-20308
1824.35-104210-117192-32482 17023 1358-11619
1827.24-5611 5360-2530-49688-113875-134215
1830.13-72261 2841 43170 48052 26067-5465
1833.02-8068 28034 61840 75132 64534 31530
1835.92 14773 13381 10426 22006 33395 21714
1838.81 1419-3362-1576 2181 13537 13286
1841.70 3531 4294-12651-122821-248988-171087
1844.59-12273 45737 72807 81177 54361 45629
1847.49 82057 109196 107032 98536 84476 80588
1850.38 76201 32183-25303-46081-21332 976
1853.27-5564 2392 23444 11185-21108-47998
1856.17-62281-47081-4335 22760 27196 27890
1859.06 39164 51033 48563 34002 25329 36105
1861.95 42598 15704-27387-40601-42451-40298
1864.84-13037-13787-37075-31695-50557-85103
1867.74-69297-71509-125718-115967-41816-12160
1870.63-209 19479-5245-51244-51413-13302
1873.52 19857 12664-9382-5696 11259 46734
1876.41 80394 64522 31019 31919 29168 2403
1879.31-1509 41599 59870 17808-28020-39738
1882.20-16935 4953-470-5685 16578 60751
1885.09 89015 59482 15617 10787 45456 66119
1887.99 47909 17717-14163 16724 82022 93444
1890.88 94296 121874 132539 110814 93601 79825
1893.77 48118 48320 94775 121869 108920 88851
1896.66 84524 77041 71512 90818 115090 118868
1899.56 144166 172305 152749 119005 94312 67725
1902.45 63253 75902 67152 63420 79250 69887
1905.34 51445 54282 64424 55259 39266 47725
1908.23 65747 59377 30349 1681-8317-10221
1911.13-26210-36169-17453 15745 35490 12496
1914.02-20842-21338-9780-20462-40168-52754
1916.91-94837-152854-118378-46690-16567-4478
1919.81-823-3352-30413-59173-62344-90855
1922.70-118043-93881-78332-73105-61450-82217
1925.59-117696-119201-74640-36511-43210-46814
1928.48-21910-1006-16493-39190-39439-57188
1931.38-78790-77950-57377-13356-5279-43183
1934.27-54596-45930-59394-69303-54626-48592
1937.16-54492-53179-51668-46793-31180-36296
1940.05-64967-76162-70792-87846-103488-97404
1942.95-98608-100748-87831-75906-62926-48894
1945.84-54800-50706-30641-20445-18515-40782
1948.73-67907-64265-51487-49582-53749-60932
1951.63-62505-61462-63905-64808-51786-38457
1954.52-52956-93865-111555-77894-45759-58287
1957.41-86753-82261-50932-41755-41939-35825
1960.30-39417-55980-68670-70455-59139-36730
1963.20-26471-32346-40447-46410-53051-71083
1966.09-73237-53805-52499-51175-18083 12224
1968.98 7702-1979 2840 17763 37698 29562
1971.87-14962-52147-43446-8691 6626 5151
1974.77 29373 56635 47179 33671 14327-30445
1977.66-51654-9211 37293 36390 28354 31631
1980.55 39155 45197 37257 21540 3321 23015
1983.45 74810 73055 31943 8824-9075-21242
1986.34 1357 37740 52248 42228 35598 37738
1989.23 36018 59096 99729 106248 74059 60630
1992.12 76369 86298 81739 74247 75547 53525
1995.02 41653 96106 129966 99524 72085 40416
1997.91-651 3734 25484 35120 50121 63336
2000.80 86139 108817 116672 107509 88493 76300
2003.69 90617 121093 144661 152538 159690 165270
2006.59 153539 138952 134934 127442 124363 145566
2009.48 174011 194974 207039 221239 256549 304792
2012.37 334287 337502 357178 390242 398823 396370
2015.27 432924 497137 545110 594546 659485 719906
2018.16 768415 806138 838059 874631 938646 1036935
2021.05 1138224 1224895 1293627 1361873 1448532 1536789
2023.94 1598677 1649556 1725446 1807537 1871048 1925085
2026.84 2001534 2049454 2040228 2043670 2080257 2151483
2029.73 2211639 2201688 2187557 2229024 2282874 2280448
2032.62 2259939 2273221 2304573 2321938 2290801 2219196
2035.51 2169135 2154255 2165881 2169004 2121375 2035168
2038.41 1979678 1921376 1821307 1747326 1691943 1643210
2041.30 1590553 1495854 1403264 1335544 1250714 1137068
2044.19 1030749 950616 883762 806259 738291 700951
2047.09 644346 556244 482651 435348 409198 386630
2049.98 348600 297051 274139 300780 320348 285137
2052.87 241929 241294 246846 226735 210466 198806
2055.76 198403 214861 224051 204814 169392 150009
2058.66 144955 153887 160024 162171 161688 143714
2061.55 115414 94644 90836 101088 105246 85857
2064.44 81383 99075 107051 102037 107227 109118
2067.33 78326 37410 42508 70787 62364 34414
2070.23 24378 35924 55441 55215 55485 73480
2073.12 80589 76097 76886 74663 64067 58936
2076.01 50692 30961 30095 38164 42685 49402
2078.91 43887 47879 64881 68586 56866 41283
2081.80 49719 67061 70251 70205 60191 54473
2084.69 76685 99557 94478 82879 89078 89718
2087.58 75249 79044 98360 96565 101466 137803
2090.48 162171 145844 115877 111639 124841 140210
2093.37 174307 213855 211228 197180 192306 176824
2096.26 195910 254334 289822 295769 305525 297585
2099.15 274361 277692 310321 326666 296654 287100
2102.05 334722 366455 365583 370849 373276 363895
2104.94 372312 375503 351070 356333 388602 377442
2107.83 359961 392240 443538 441224 376037 343819
2110.73 367772 394188 391609 392688 435290 455854
2113.62 440465 447258 479089 514755 525647 492015
2116.51 433853 410812 428135 431429 414117 385210
2119.40 335461 306239 314830 297885 284222 313540
2122.30 319247 303680 310610 294085 263041 275121
2125.19 287443 256300 237355 256628 276551 260273
2128.08 238677 256389 275661 284021 297882 333494
2130.97 378228 384949 361956 309096 270039 251742
2133.87 221202 199258 189093 182201 173368 179313
2136.76 196150 182073 161753 164872 171578 191705
2139.65 214299 218734 204290 169133 126702 94130
2142.55 107872 137099 132043 141525 188933 212744
2145.44 195550 170129 132752 97544 116199 153069
2148.33 154760 120245 98031 111945 110767 97616
2151.22 96833 100829 99995 79831 71461 86031
2154.12 93974 98632 98410 93921 97212 77966
2157.01 59542 80011 85510 73033 87032 92174
2159.90 78126 77332 104919 129877 117307 100436
2162.79 105733 129711 151458 160702 170763 169727
2165.69 172117 192035 215551 210056 180829 172567
2168.58 197636 208531 202808 237525 282393 307562
2171.47 330339 330159 324719 363099 389100 363079
2174.37 357493 402335 466499 482029 473287 493278
2177.26 481440 450510 486980 541290 528835 499081
2180.15 497445 513758 549943 561129 549613 567149
2183.04 602126 629236 658690 682224 695486 727416
2185.94 788898 840715 862730 860277 863580 887575
2188.83 908499 925115 943037 950426 945997 924963
2191.72 913191 933429 951435 943986 952874 973587
2194.61 997122 1022337 1015278 993734 1000161 1034822
2197.51 1052282 1056098 1085606 1099815 1095150 1136526
2200.40 1223717 1268773 1273716 1296997 1321531 1330587
2203.29 1355524 1384301 1383591 1388260 1433638 1446953
2206.19 1417829 1450772 1532240 1534019 1463524 1443479
2209.08 1500999 1564025 1571049 1554567 1585938 1626111
2211.97 1626916 1669877 1738370 1704374 1616945 1633874
2214.86 1738473 1777597 1756682 1780165 1852719 1892467
2217.76 1927526 2004334 2084199 2111211 2078734 2141863
2220.65 2367329 2445412 2192691 1882161 1718548 1657211
2223.54 1646714 1656436 1648745 1631026 1623424 1622064
2226.43 1628142 1659545 1718793 1741355 1697561 1697305
2229.33 1743509 1717776 1653603 1649164 1693241 1691169
2232.22 1641356 1642203 1658475 1631435 1609275 1602800
2235.11 1565490 1517125 1492784 1476723 1467326 1427785
2238.01 1368294 1358808 1367908 1332660 1276110 1242903
2240.90 1208047 1142552 1085947 1074192 1070792 1048249
2243.79 1018457 1023738 1048255 1029412 1004644 969442
2246.68 940074 940690 899964 853997 855067 821211
2249.58 761478 760065 797836 793293 762524 747003
2252.47 723823 693346 652911 610215 592006 601303
2255.36 605030 556689 498531 496444 523625 504409
2258.25 444209 404495 399695 390249 369179 353784
2261.15 351211 356351 357742 369819 391638 388428
2264.04 355494 323239 307389 303325 293904 271432
2266.93 261048 250024 246074 275454 292764 276184
2269.83 249311 231754 230799 233958 239198 246748
2272.72 226031 187802 206483 250448 229656 190603
2275.61 175142 174811 190870 193484 176893 158059
2278.50 192691 259986 274172 238349 234275 236290
2281.40 182795 136429 170181 232139 230097 200405
2284.29 204341 215274 219692 222538 207366 185999
2287.18 210006 263512 296819 289170 268788 271086
2290.07 262223 223151 206872 219801 222982 211805
2292.97 206801 207811 213371 211688 203072 208968
2295.86 201679 188474 202383 210948 194002 164086
2298.75 155970 159708 140984 125106 140838 162061
2301.65 170324 182364 220801 235451 198655 146858
2304.54 136677 166451 194998 188021 182238 214604
2307.43 219979 152516 94768 137761 193683 165043
2310.32 99935 113148 226030 267632 152706 69700
2313.22 162826 241054 172530 91453 175122 261797
2316.11 163964 15539 96261 247328 140822-61370
2319.00 45195 263310 142202-143414-90623 168038
2321.89 112199-176760-113724 182007 61692-307589
2324.79-205919 148737 48110-217559 5192 296565
2327.68-36191-460927-222922 81720-311228-648919
2330.57-217936 25176-504432-698750-177652-149040
2333.47-719405-641312-137171-355685-770111-427634
2336.36-117817-519816-646380-193342-262720-717736
2339.25-510357-155926-444131-583249-197104-214417
2342.14-569041-398417-150758-364984-393909-137539
2345.04-203099-333640-140366 2161-37924 29553
2347.93 176836 229563 146598 59159 67091-15606
2350.82-184898-145154-126961-351403-339900-258156
2353.71-526592-530149-376299-675082-708528-536925
2356.61-844139-802137-570025-907033-866468-693488
2359.50-1018230-878368-757850-1011763-807947-866029
2362.39-1045420-766738-866405-866638-683018-834753
2365.29-657629-592470-701028-517728-553032-475232
2368.18-336052-335106-226969-264614-189400-117492
2371.07-126640 14017 75736 121856 146765 209419
2373.96 302127 361515 440102 516470 586553 656082
2376.86 757569 824529 877778 918596 956526 1026769
2379.75 1079230 1091039 1113551 1158108 1149290 1089577
2382.64 1060697 1046903 1024854 1011105 994039 981664
2385.53 978863 948679 919339 954679 1014544 1088686
2388.43 1192806 1265175 1283133 1262438 1241944 1238957
2391.32 1235701 1234432 1219559 1152667 1073056 1036819
2394.21 1010768 977993 949856 925899 871874 788346
2397.11 722315 715584 752953 732382 662299 641629
2400.00 653548 619928 596390 619731 604862 577399
2402.89 612684 667836 675282 650996 621519 610580
2405.78 646110 664077 642279 608521 582258 588887
2408.68 599740 608372 632079 651849 654358 660070
2411.57 663218 645804 627674 619546 614737 626864
2414.46 639944 634822 637696 648305 632324 576950
2417.35 545958 560929 570404 576857 609012 640761
2420.25 660378 746132 868919 933341 948525 911173
2423.14 847361 786903 717810 668520 656061 659572
2426.03 662403 643360 589196 558850 591597 646048
2428.93 659074 637144 634871 637830 632330 641430
2431.82 654962 656188 660548 676192 666344 620302
2434.71 618129 671907 672361 636137 651551 665566
2437.60 645147 652173 647610 580561 561797 624644
2440.50 669281 667713 644579 628192 616911 625437
2443.39 648426 635596 607585 601022 597543 579901
2446.28 528704 480021 492659 532283 537821 518938
2449.17 531785 551185 534773 516987 517130 527416
2452.07 518070 502033 519779 520910 477612 432118
2454.96 417008 436892 474408 528956 607039 708706
2457.85 774672 762646 743800 746168 746939 728005
2460.75 721406 735443 713372 651860 583767 574533
2463.64 624865 660078 659465 676076 689996 660975
2466.53 638095 638765 627772 605289 565532 527519
2469.42 524105 536124 565835 566371 516961 493536
2472.32 502694 482486 444149 431916 441219 447130
2475.21 425249 397221 373574 359339 356293 351429
2478.10 334723 281141 232581 228308 238331 260877
2480.99 284605 268942 262727 282529 261284 235082
2483.89 256712 278543 287056 327547 376707 376879
2486.78 350238 314692 305092 334524 356286 364888
2489.67 354259 326365 326011 358046 387057 392998
2492.57 385526 368771 365933 379776 402258 446772
2495.46 484593 507842 511437 485282 469068 477302
2498.35 490831 526042 565077 567140 547239 513457
2501.24 507770 560055 594820 600078 645076 703369
2504.14 697372 663000 683189 723362 736054 764590
2507.03 812906 822769 789590 761717 734917 704016
2509.92 715382 755250 766692 743358 734838 756990
2512.81 754980 736815 743622 759547 777916 787538
2515.71 806169 831048 834452 833035 839192 857069
2518.60 870931 873493 891037 897542 878406 869970
2521.49 855970 821697 781060 739351 703264 685952
2524.39 673632 645915 641834 680972 679470 644001
2527.28 622514 578234 523905 495584 484517 504511
2530.17 547096 571480 575533 564260 566553 616695
2533.06 681569 705146 666674 611953 585745 574681
2535.96 563331 560595 575647 574291 556489 577395
2538.85 571121 490534 434507 444641 441863 435648
2541.74 461704 472398 438789 407580 423084 441225
2544.63 395488 349132 361521 373695 368921 355583
2547.53 337162 319109 320710 355172 358309 298758
2550.42 245365 237281 236636 217078 228743 269574
2553.31 261660 204550 160400 156591 159322 140598
2556.21 129900 137005 114842 64666 50465 70291
2559.10 63904 45242 47663 41466 28941 1291
2561.99-39026-55876-49210-49971-70812-64159
2564.88-32586-35357-64014-74093-90753-107779
2567.78-117673-135585-144549-154864-146865-77295
2570.67-8948-3415-33972-82779-111098-106993
2573.56-79918-41207-34687-50055-41344-48639
2576.45-93148-84738-55881-88912-122522-120980
2579.35-105759-125494-182738-214360-190513-152972
2582.24-155113-212214-241186-183760-68047 68323
2585.13 157438 159840 102218 34287-11668-30532
2588.03-75281-131478-154927-159144-134627-113963
2590.92-120771-128473-153934-197016-217330-210108
2593.81-188345-152603-130045-119558-121711-134882
2596.70-143989-148769-148647-146700-155049-173156
2599.60-196091-206735-177759-148161-145994-148982
2602.49-137102-110720-93445-91158-109492-145940
2605.38-157174-122802-82673-78427-126612-190767
2608.27-190695-145100-101710-72641-63639-74515
2611.17-90473-92286-115066-126592-125166-137034
2614.06-134127-101574-91981-128466-156405-146053
2616.95-111458-62729 21618 52320-26465-103245
2619.85-113751-110202-122711-108608-77946-82969
2622.74-89878-53362-32972-73522-81206-66069
2625.63-54917-31451-38541-49003-26365-22412
2628.52-61090-61513-24020-19651-35196-34751
2631.42-18610-33678-65947-43621 3249 11049
2634.31-15286-33537-37307-38810-46586-80176
2637.20-105589-76797-35347-9112 34956 66001
2640.09 56915 25290-2157 6202 32516 20164
2642.99 10506 17265-7759-38635-42045-21431
2645.88-6005-2459 2741 1445 6614 10035
2648.77 14565 51545 47955 11237 42926 81596
2651.67 67225 16383 1920 64703 97927 53727
2654.56-17107-39118-3468 14764 3662-25697
2657.45-42129-11852 33371 40445 46009 61860
2660.34 73038 72978 54477 12164-31632-17561
2663.24 49054 119164 152887 151930 147102 128443
2666.13 127370 170973 200835 187351 144660 141149
2669.02 188430 236325 279961 301963 309080 314974
2671.91 321974 352461 402709 416788 433703 504188
2674.81 600085 681705 775573 890092 961398 1005924
2677.70 1055162 1113071 1202213 1331668 1451258 1509423
2680.59 1565476 1653079 1751140 1823542 1880865 1941967
2683.49 1984069 2038467 2089140 2045915 1896698 1760305
2686.38 1683064 1609240 1594276 1626311 1576178 1482268
2689.27 1460847 1509644 1611515 1715213 1802689 1899542
2692.16 1955584 1953140 1937398 1911732 1850617 1777330
2695.06 1699683 1601253 1497937 1348862 1149492 1009264
2697.95 940806 858463 738510 617139 560878 510318
2700.84 432695 411398 392226 350576 343096 345138
2703.73 331988 298299 240556 231743 281509 303968
2706.63 273473 224584 185637 187179 220408 220374
2709.52 218569 219490 191851 175087 172145 140168
2712.41 106567 131277 175919 192262 211330 230174
2715.31 193726 135582 147676 247107 345116 369620
2718.20 370848 389530 400049 418791 490140 563067
2721.09 558047 540099 562083 576600 573340 573340
2723.98 588041 562792 500378 483905 493075 478117
2726.88 462190 440925 401153 399726 514275 698384
2729.77 756692 628504 479093 419761 427247 463499
2732.66 487784 505152 545199 552549 571308 642038
2735.55 650344 595504 574439 617413 647754 627936
2738.45 624824 636152 624201 554561 501617 539754
2741.34 595150 609333 595017 559667 512058 476501
2744.23 470439 507971 557775 588320 612058 625131
2747.12 627221 637733 668458 706793 717210 726120
2750.02 771251 825609 884910 995263 1120059 1205287
2752.91 1258597 1343379 1504985 1648190 1699510 1755331
2755.80 1898507 2090943 2282187 2427957 2516372 2569157
2758.70 2621847 2706252 2770450 2780355 2716857 2616199
2761.59 2568253 2564446 2511837 2356723 2140732 2018701
2764.48 2071155 2124948 2049894 1903708 1853163 1997002
2767.37 2214431 2417549 2580145 2662626 2724875 2755327
2770.27 2698028 2625935 2546101 2356129 2078490 1845979
2773.16 1671752 1468897 1271056 1127140 1002295 847809
2776.05 685630 563304 487131 449344 407896 319050
2778.94 244170 245527 255146 249946 247682 203597
2781.84 148923 141336 145846 161906 187686 194406
2784.73 191332 171261 141871 128001 127377 128324
2787.62 125719 137310 147448 151378 147044 136928
2790.52 121786 98735 115486 135438 117968 111498
2793.41 128755 124994 79231 71217 86251 58909
2796.30 16417-11470-25038 5328 82264 93800
2799.19 50163 24346 4343-35923-80506-30115
2802.09 64896 64678 21599 37062 32315-45274
2804.98-96342-84666-37544 17605 41390 48863
2807.87 54912 57058 26238-35815-44317 5839
2810.76 28558-2886-45589-44450 18938 70742
2813.66 63277 34518 20033 28177 15136 21686
2816.55 66174 86526 76198 67986 81334 99318
2819.44 96840 90321 142004 223318 240359 195608
2822.34 136774 128978 168931 196102 227081 269212
2825.23 296416 304357 283607 240307 244101 313456
2828.12 348586 346347 382138 435183 473981 515719
2831.01 532637 540041 575442 631143 678910 718236
2833.91 754847 783047 834178 907818 943128 958020
2836.80 1036234 1136813 1228889 1317495 1340302 1365878
2839.69 1469312 1580785 1662785 1720256 1767167 1842180
2842.58 1925797 2013493 2148054 2315881 2431356 2479746
2845.48 2549579 2659154 2810990 2955828 3062166 3161477
2848.37 3287337 3402591 3459630 3540827 3667686 3807357
2851.26 3916911 3986137 4053613 4103522 4118298 4167410
2854.16 4236924 4212277 4098540 3987185 3930956 3922698
2857.05 3911436 3959670 4141762 4288770 4269603 4181451
2859.94 4164789 4263945 4410859 4515808 4591109 4699064
2862.83 4854959 4987206 5073268 5173329 5272483 5215815
2865.73 5072057 5108341 5223627 5180974 5109471 5149845
2868.62 5146223 5026158 4939692 4972517 5020082 4987148
2871.51 4934246 4973437 5042767 5010069 5004353 5157792
2874.40 5326506 5343283 5310348 5391855 5486681 5482910
2877.30 5503934 5704585 5953538 6053644 6164516 6468403
2880.19 6834525 7129722 7507348 8124610 8825816 9409192
2883.08 10069707 11056935 12112038 12942790 13773969 14797526
2885.98 15726343 16347962 16934976 17644101 18071504 17921965
2888.87 17529245 17061413 16245827 15087414 13942687 13088037
2891.76 12359265 11490892 10723779 10481717 10673540 10830743
2894.65 11243052 12343390 13727802 15102293 16255109 16919646
2897.55 17233899 17387509 17311843 16832736 16027357 15292957
2900.44 14499262 13343506 12268019 11564872 10757918 9673983
2903.33 8855109 8306556 7542195 6758606 6333215 5995349
2906.22 5416830 4963764 4826583 4573613 4165623 3979201
2909.12 3954033 3763521 3546185 3550549 3549560 3396583
2912.01 3296788 3327072 3259022 3088518 3063413 3076569
2914.90 2954073 2884344 2988117 3009086 2802185 2647198
2917.80 2687572 2680320 2544648 2464762 2439320 2344652
2920.69 2252422 2211549 2192937 2172988 2130529 2107057
2923.58 2115612 2123077 2135707 2121768 2083591 2115349
2926.47 2190069 2236546 2293258 2318181 2316876 2381450
2929.37 2480388 2566710 2669911 2796281 2929169 3077655
2932.26 3248999 3462734 3709352 3935792 4173445 4388165
2935.15 4546776 4782846 5078842 5332756 5626754 6068465
2938.04 6534644 6865334 7158969 7564214 8015651 8395973
2940.94 8804353 9315321 9827311 10249784 10679850 11257737
2943.83 11865624 12397880 12957938 13600320 14279722 14993092
2946.72 15742215 16537269 17328657 18015590 18727472 19662868
2949.62 20714834 21596898 22400396 23386077 24501895 25626323
2952.51 26602595 27441639 28466632 29533153 30392128 31512163
2955.40 33141135 35474412 38721519 40773318 39956863 38171046
2958.29 36916194 36237340 35993190 35459362 34231223 32696084
2961.19 31179978 29609077 28033244 27014325 27008023 27995982
2964.08 29946411 32750606 35834993 38561810 40832122 42971691
2966.97 44835165 45990405 46783347 47894345 49030930 49431647
2969.86 49680706 51021979 52593014 52837837 53013804 55027190
2972.76 57209078 57283811 57534943 60238398 62509101 62148611
2975.65 62305914 64573260 65672565 64563617 63990892 64264702
2978.54 63300033 60902227 58719384 57189341 55215822 53084071
2981.44 52202859 52138099 51513682 49952148 49721699 52348736
2984.33 56104260 59720797 62478443 64052674 64920518 65311201
2987.22 65079940 63971376 62586191 61450496 59668742 57061964
2990.11 55061777 53703614 51648476 49176073 47575734 46546905
2993.01 44928149 43207382 42513565 42096600 40890860 39893039
2995.90 40037291 40025590 39016900 38405090 38629953 38239730
2998.79 37140639 36771825 36857720 36123194 35102830 34831242
3001.68 34663587 33889583 33244230 33168174 32905990 32143455
3004.58 31738048 31923016 31893237 31395112 31167870 31387998
3007.47 31304417 30889727 30881646 31113176 30926480 30961776
3010.36 32360131 34469417 35102263 33829224 31652542 29209474
3013.26 27294834 26248079 25478646 24591488 24100916 24207816
3016.15 24069062 23457284 23058973 22961951 22776081 22371909
3019.04 21937484 21672087 21441491 21026079 20544054 20238439
3021.93 19952616 19377331 18862894 18804415 18639383 17907609
3024.83 17293024 17328844 17269070 16607346 16081296 16146548
3027.72 16100962 15572793 15197670 15250204 15364782 15210344
3030.61 15098199 15579816 16266913 16626878 17328594 19128379
3033.50 20738036 20058000 17771094 15680863 14137673 13052400
3036.40 12403820 11884334 11428795 11333557 11389759 11085565
3039.29 10752204 10856634 10917511 10621839 10482992 10646910
3042.18 10564143 10228550 10144376 10185953 10013561 9804152
3045.08 9777451 9761082 9589175 9379167 9217516 9020302
3047.97 8804502 8667922 8546475 8354551 8163852 8044844
3050.86 7917878 7683571 7470148 7364831 7222532 6953233
3053.75 6709932 6647869 6583383 6326779 6061773 5964239
3056.65 5904132 5752250 5586882 5468494 5312931 5068482
3059.54 4863135 4753845 4630051 4474581 4349663 4205151
3062.43 4009494 3847284 3784870 3743407 3604301 3406041
3065.32 3262059 3227196 3167135 2962115 2818877 2851000
3068.22 2856642 2746401 2653674 2574600 2460392 2365726
3071.11 2289777 2209479 2105329 1978957 1926086 1913546
3074.00 1844649 1750471 1684482 1638548 1569183 1458481
3076.90 1363612 1334431 1322748 1322116 1324746 1295408
3079.79 1275513 1226891 1136818 1054996 1027015 1048216
3082.68 1055649 1025168 995243 1000549 997897 970251
3085.57 954217 933274 897646 890085 878058 838363
3088.47 788240 753666 761206 775537 788235 770509
3091.36 734811 750361 757770 726811 721966 750095
3094.25 785484 791337 765794 722073 703990 720681
3097.14 700859 672260 640173 592682 595234 634574
3100.04 671484 658163 617468 658457 746884 797356
3102.93 774595 707967 673084 657335 638894 638973
3105.82 640723 658189 670550 649214 616386 587802
3108.72 583280 604334 594002 562905 564947 613318
3111.61 667987 641075 582549 552441 537513 569573
3114.50 598189 541926 512434 568335 595541 555189
3117.39 489490 447627 451098 466717 448430 457009
3120.29 503815 500682 455820 453600 464340 426691
3123.18 361990 319551 321567 358837 403523 414607
3126.07 383788 363788 352841 319080 313135 341843
3128.96 362393 333050 280540 282988 282425 212825
3131.86 165080 155978 106664 63636 95918 105903
3134.75 86652 135054 171080 133200 75372 46119
3137.64 91010 151355 148916 131432 154131 151222
3140.54 88177 66289 91881 108169 96080 76835
3143.43 89021 94758 92912 58240-14374-63594
3146.32-79888-7472 78137 73367 71852 61503
3149.21-21379-103909-91692-19909 35047 94009
3152.11 86957 14608 5766 49411 50572 15759
3155.00 8439 12800-3691-58106-105011-69650
3157.89-34351-49063-42063-18938-31193-50709
3160.78-34717 27883 92944 70463-30408-101879
3163.68-110266-55768 34320 45294-38532-76352
3166.57-22970-13916-39290-36676-29167-31569
3169.46-77843-96273-32726 17462 25940 28548
3172.36 30942 74805 104669 72775 68378 93103
3175.25 67403-24286-43066 62998 120687 36018
3178.14-54827-11485 89751 94599 27796 25179
3181.03 96060 153411 159659 82329-21181-7061
3183.93 75051 103899 81435 96772 183634 231900
3186.82 174907 112409 74567 68081 82980 74234
3189.71 98344 163581 194773 151097 78828 62482
3192.60 95495 116928 169025 256963 299558 310473
3195.50 301015 227825 171678 216692 228502 167776
3198.39 166984 224163 251039 255738 269945 251697
3201.28 194801 179013 227956 271502 248221 207676
3204.18 190151 222535 259150 246545 254593 267884
3207.07 232160 230710 287686 326837 298802 269845
3209.96 253503 214816 218674 239968 217465 152038
3212.85 96644 138297 219895 289453 304736 204196
3215.75 130062 177813 251114 241592 202602 213272
3218.64 225778 203351 154929 141005 134673 82899
3221.53 99444 182244 222230 185767 101414 61306
3224.42 67672 51157 37268 80250 161972 175059
3227.32 128642 119727 77587-30713-50306 58211
3230.21 160403 173965 119650 76919 82504 90638
3233.10 57330 35477 83702 143099 122015 27163
3236.00-38499-40384-32053-35906-41822-17700
3238.89 37062 91438 94250 47624 22443 37574
3241.78 21572-15467 2678 39147-3956-52002
3244.67-26708 7092 27237 44360 44664 45784
3247.57 67396 60265 57241 85544 73812 59357
3250.46 60888 66583 69713-3983-130029-157674
3253.35-80063 21188 124883 169766 156967 172995
3256.24 171463 107032 73708 70107 81226 146539
3259.14 154031 83816 75354 121941 151752 147079
3262.03 134317 148005 181358 186623 158249 92168
3264.92 27197 75148 163473 152807 124679 171884
3267.82 216072 215127 219184 232110 214193 193749
3270.71 198007 167813 152830 151865 156817 177346
3273.60 149521 109599 90489 137048 173816 149590
3276.49 153452 148259 137319 151671 177165 203666
3279.39 184834 121874 91220 104210 118971 117386
3282.28 76408 17230-3900-10319 18238 81697
3285.17 90106 79753 98691 76282 24934 36333
3288.06 40150-10524-52664-59992-47502-30
3290.96 66401 85300 92792 47907-62379-99891
3293.85-72360-38055-4367-11950 5725 70638
3296.74 84823 44414-16469-83679-85614-26413
3299.64-8311-37262-87139-95149-41304-19041
3302.53-66256-105429-82001-60687-75228-106791
3305.42-123420-94768-83564-82223-50178-19071
3308.31-15602-29729-64574-80747-24963 15155
3311.21-7252-20544-38446-65977-68493-57422
3314.10-70341-133969-192253-139843-11259-11697
3316.99-116252-165015-159553-132351-109200-86967
3319.88-70627-47256 27558 84135 36461-56499
3322.78-81950-77922-79500-17879-10396-123914
3325.67-168083-77629 24594 13161-12754 23583
3328.56-11499-87423-106989-113638-114076-61400
3331.46-16589-13118-8647 2495-17353-66831
3334.35-94594-99037-88704-47595-16112 1717
3337.24 28330 46417 34320 8695-35094-56864
3340.13-45027-65610-65948-48481-31320-25780
3343.03-51203-45558 5535 55662 58227-9048
3345.92-74299-52714-179 48407 52305-27943
3348.81-88501-87676-47040-6866-33319-82404
3351.70-84274-60626-45709-1885 44273 17134
3354.60-38370-82574-83555-81907-88306-62843
3357.49-50291-57564-47971 6568 68555 71611
3360.38 23169-27034-77366-112373-74478-21910
3363.28-19163-34036-89714-124795-56916 31149
3366.17 5641-72281-67638 13338 31771-51854
3369.06-68016-8989 43401 71546 49010 375
3371.95 906 57622 103513 114319 64189 20243
3374.85 40768 71928 60224-3150-55747-25477
3377.74 65492 110263 60638 33404 68241 50413
3380.63 5578-35290-91772-59750 22351-32241
3383.52-141902-125556-60150-69110-152331-202247
3386.42-101498 23868 19493-31270-3773 69816
3389.31 49734 20801 25692-5551-31517-33196
3392.20-15684 1521-18784-57948-90602-102397
3395.10-99156-73285-21922 31852 66484 89182
3397.99 142599 183821 133935 73686 66846 89159
3400.88 149182 236684 239170 155667 119452 142618
3403.77 179188 229279 232240 184732 159576 159895
3406.67 153430 149779 139077 157740 186759 189858
3409.56 215587 210035 176603 190006 204175 190076
3412.45 200521 205880 185296 151162 117383 87521
3415.34 97820 159436 224187 285939 283259 226667
3418.24 190716 148918 90057 41534 61611 68288
3421.13 15362 17294 53548 43631-22698-54648
3424.02-51410-39748 33961 129397 94644-25856
3426.92-76423-80116-92808-115814-119118-64448
3429.81-14412 5136 26676 70161 48234-31729
3432.70-82699-96232-54656-26490-52156-36219
3435.59 19419 44651 49500 53499 43653 63858
3438.49 80219-21942-109231-74818-72728-134397
3441.38-159868-126102-52470 6281 7708-35529
3444.27-53916-17388-34331-127178-196218-193008
3447.16-110763-13827 35513 13597-53708-113616
3450.06-103061-16063 37685 27653 54997 104278
3452.95 54936-71896-114199-22985 44116 6160
3455.84-45567-14041 35367-29692-127435-94428
3458.74-35561-31774-10968 27194 59720 63208
3461.63 19438 28261 80022 23416-60942-52932
3464.52-51321-65337-15990 17374-17031 11235
3467.41 76336 61273 40017 41789-12448-53519
3470.31-19842 23632 22558 2609-15241-68973
3473.20-88098-9047 37737-23833-71503-29143
3476.09-2844 27268 111886 154690 118610 54137
3478.98 35629 17599-28582-46577-39958 4949
3481.88 103809 175602 123508 5559-77073-41190
3484.77 22652 16852 20611 56489 42898-44442
3487.66-78163-21823 20952-14509-78555-33675
3490.56-1888-88551-148955-111126-27226 16558
3493.45-17318-85206-87245 6078 113170 104453
3496.34 906-38062 323 55999 52855-27323
3499.23-77063-87542-140295-220686-188724-84231
3502.13-99440-164498-100270 15651 30864-15103
3505.02-44165-92566-124755-88215-38202-63536
3507.91-122171-144376-129797-154294-198704-179321
3510.80-113937-69171-104805-137129-111581-54525
3513.70 13094 62888 50533-5083-28745-55819
3516.59-103604-161580-218326-192278-126555-86925
3519.48-48689-19770-14943-49629-101785-104465
3522.38-85239-131665-209441-201995-167910-141373
3525.27-58129-4354-32308-45388-36554-64304
3528.16-97792-80682-28209-18183-38186-38678
3531.05-35479-63284-63960-54524-83716-101069
3533.95-116227-68316-906-17995-74451-91070
3536.84-50612-10035-4129-28923-55336-84255
3539.73-76273-16695 20919 46502 102332 74492
3542.62-32313-99313-125397-116178-143807-157066
3545.52-125169-150133-149016-92635-74585-88798
3548.41-96737-111836-132994-104466-63149-51479
3551.30-38898-29385-46881-24457 34246-14846
3554.20-104007-95704-24623-6619-69156-72036
3557.09-9985-31311-104750-156143-219801-214352
3559.98-92369 11020 15480-30988-71825-81132
3562.87-79379-112905-174550-188284-147485-113184
3565.77-143280-194953-186207-203292-190815-144322
3568.66-148696-168594-191676-166057-122361-137878
3571.55-164424-145257-108098-81983-87790-87583
3574.44-19519 19585-37041-89576-110433-119803
3577.34-115335-95501-108645-123896-132889-153641
3580.23-138976-165808-226180-149430-59695-86451
3583.12-112250-90864-75429-76628-117925-193348
3586.02-207455-148694-105090-135405-234289-270729
3588.91-207651-132587-79634-71255-59408-63566
3591.80-132364-181194-216740-217322-161891-139321
3594.69-119424-45207-2397-28690-49121-39233
3597.59-2205 15652-21657-74756-133077-169895
3600.48-127575-48702-5195 9909 5012-11468
3603.37-11547-48770-105213-115115-85420-50354
3606.26-33606 6701 93449 113795-45492-225680
3609.16-165774-49666-42361-30339-1905-16213
3612.05-44625 16114 78894 44685 11180 28793
3614.94 83941 111745 120736 148363 72730-27113
3617.84 17333 14258-162192-194399-29674 78283
3620.73 137850 167176 136530 89097 92786 148701
3623.62 210139 250238 256625 218453 137448 96782
3626.51 144697 140084-53495-199287-183025-208990
3629.41-113863 13523 8265 55793 123598 134612
3632.30 105091 36293 116 65299 158066 201212
3635.19 230227 244431 259709 271556 248185 250196
3638.08 295913 328006 294834 232167 228978 311508
3640.98 363053 279101 169277 149192 190174 240950
3643.87 276272 287819 283741 242109 162552 99067
3646.76 73126 130504 211507 99896-114602-49456
3649.66 101160 74512 71661 166318 259643 274771
3652.55 275948 339444 392616 409267 422905 342576
3655.44 139792 97337 313823 458293 421457 381170
3658.33 375674 360701 345645 356376 385803 386478
3661.23 380474 383332 387619 370418 326685 309041
3664.12 306085 307101 368136 429207 438640 461853
3667.01 431848 271081 155158 260432 414050 321380
3669.90-11458-98163 185835 366839 394083 398102
3672.80 397943 377339 299706 206043 123792-63736
3675.69-135082 94906 281633 315762 333619 342005
3678.58 293652 272161 338546 370668 358442 363752
3681.48 369592 407481 459510 449445 391574 338177
3684.37 313393 327284 378824 363392 305432 278398
3687.26 106497-207581-220780 44869 181338 142539
3690.15 28144-31251 34347 103580 109691 128372
3693.05 168080 176221 180133 225356 236223 193176
3695.94 178372 231162 288703 290612 301951 318675
3698.83 267600 238446 262536 264279 199149 98848
3701.72 73821 135576 208315 262553 274703 262215
3704.62 265208 287214 270466 239645 251571 259614
3707.51 249141 218916 98277 43932 187549 274514
3710.40 202932 47780-155074-149751 109177 273256
3713.30 278650 274058 293592 306311 313064 291704
3716.19 231794 215694 230665 214653 193852 204030
3719.08 228523 196618 167755 212628 232084 166418
3721.97 117337 172283 269520 329272 324993 279582
3724.87 261196 275156 257685 259405 302660 314494
3727.76 342555 387283 374381 337036 341248 375153
3730.65 339998 180350 80698 242301 430398 469094
3733.54 396451 284230 299222 420995 431168 268258
3736.44 270626 500045 613978 636775 711313 769435
3739.33 777610 780898 763284 768817 843573 907042
3742.22 938614 888872 668297 283383 121030 505235
3745.12 949146 1083786 1146674 1230405 1250043 1197378
3748.01 1039008 676834 521369 869001 1162306 1180659
3750.90 1053846 710580 608229 1029627 1393999 1505846
3753.79 1542588 1491780 1364876 1292231 1306566 1326293
3756.69 1348402 1378380 1394742 1356798 1272168 1198088
3759.58 1201441 1298189 1392007 1398060 1317506 1282758
3762.47 1309257 1290653 1262952 1281946 1279284 1174784
3765.36 1102417 1144829 1173507 1172328 1151356 1115837
3768.26 1116014 1092814 1021294 1072821 1163561 1138656
3771.15 1089044 1093983 1174024 1261915 1278597 1264333
3774.04 1286285 1346818 1364737 1315868 1289196 1259705
3776.94 1187813 1164855 1169261 1116596 1043242 1023334
3779.83 1062360 1067172 1083009 1154740 1180189 1144775
3782.72 1142748 1156481 1113250 1073620 1091069 1083686
3785.61 1055543 1071778 1066045 1007608 1020871 1073110
3788.51 1050909 976409 875264 823407 865742 929593
3791.40 959472 950790 902099 814140 715048 692063
3794.29 707504 701021 664801 525350 452016 498658
3797.18 502936 528105 622866 671823 586641 490952
3800.08 414742 186017 137000 487969 775842 880791
3802.97 949051 947186 916781 877492 772468 658040
3805.86 449822 160599 190087 476004 577108 522433
3808.76 551362 643656 645650 570032 519966 529721
3811.65 523184 510893 573870 653068 712146 726831
3814.54 622060 330466 47961 186856 476440 548921
3817.43 557174 599914 620182 560463 434708 281325
3820.33 187107 149608 161290 298852 445298 466462
3823.22 433119 487040 549928 525702 500828 475337
3826.11 460227 489812 508400 465788 398169 349340
3829.00 358957 382725 360049 309675 276944 324706
3831.90 383989 354076 295720 292944 270603 154239
3834.79 100720 185330 291694 303623 35270-381594
3837.68-308637 117267 287998 259959 253953 272302
3840.58 266575 279027 269254 204135 156645 145195
3843.47 180896 256682 289998 276455 257293 280332
3846.36 341711 383416 403317 364462 277842 226097
3849.25 205201 209493 241645 176662-110776-291495
3852.15-121300-24829-352565-740751-578135-136446
3855.04 90600 184519 193237 128813 89820 88868
3857.93 99626 130802 148357 153494 158059 110408
3860.82 18375-31586 27005 45557-15100-27531
3863.72-20693-87999-146253-66751 20490 54948
3866.61 80476 82257 54433 12201-39717-154385
3869.50-322118-277974-98789-31660 2563 43437
3872.40 32852-37946-112872-136384-77874 49012
3875.29 145820 112228 22404 27611 46980 17939
3878.18 41629 51119-67158-142827-66007 22974
3881.07 45311 58043 92812 98009 105830 139066
3883.97 104640-34461-209846-204466 3089 172433
3886.86 226008 179279 64507 7570 44364 120665
3889.75 126484 1195-108964-72655 16454 82767
3892.64 136550 138946 132148 176116 201322 138577
3895.54 107057 131466 119679 113417 143177 117162
3898.43-19987-158077-94733 100832 166902 38648
3901.32-83824-16573 53599-12591-127793-174038
3904.22-99653-10436 23978 50201 96962 103887
3907.11 77185 85555 134293 132809 99325 120420
3910.00 147703 80479-25669-61234-77454-68774
3912.89-25094-16527-5177 27973 74905 112328
3915.79 43390-88365-147881-75584 53807 121603
3918.68 86419 13726-6417 1555-11935-26251
3921.57-29463-28098-11916 33964 49135 30746
3924.46 18128 20203 52161 64077 48434 65773
3927.36 48505 14347 41968 68389 70498 83468
3930.25 76173 70923 89163 101296 112087 77970
3933.14 45419 64836 63944 101223 157303 163329
3936.04 132135 89126 121252 195434 223033 220255
3938.93 213622 211826 233802 282948 291505 239270
3941.82 149992 78986 96032 154539 187057 246652
3944.71 299412 274925 229739 203939 206249 265313
3947.61 298375 228042 169957 203006 257676 293203
3950.50 262688 201499 222260 282007 324973 366936
3953.39 388009 391612 409293 438543 449498 460410
3956.28 441349 386948 370831 363572 299264 272911
3959.18 310550 341317 360223 381142 404355 400881
3962.07 383145 407878 445750 455506 488896 511824
3964.96 452476 400447 382579 323798 282619 300008
3967.86 303737 267749 247005 314348 443383 493607
3970.75 447292 435211 456998 385992 286812 291304
3973.64 353677 422162
##END=
