##TITLE=Acrylonitrile
##JCAMP-DX=4.24
##DATA TYPE=INFRARED SPECTRUM
##CLASS=IUPAC A
##ORIGIN=NIST, Anayltical Chemistry Division, 301-975-3108
##OWNER=COPYRIGHT (C) 1998 by the U.S. Secretary of Commerce
##DATE=98/10/1
##$SPECTRA VERSION=1.00
##$UNCERTAINTY IN Y=2.0 % relative (B=1.0E-04,C=6.4E-09,D=2.7E-14)
##CAS NAME=Nitrile-Propenoic Acid
##CAS REGISTRY NO=107-13-1
##MOLFORM=C H2: C H C N
##MP=-83.5 C
##BP=77.5 C
##$NIST SOURCE=QUANT-IR
##SPECTROMETER/DATA SYSTEM=IFS66V (Bruker)
##INSTRUMENT PARAMETERS=KBr Beam splitter; MCT Detector; Multipass cell
##STATE=gas
##SAMPLE DESCRIPTION=Acrylonitrile Primary Gas Standard
##PRESSURE=101.3 kPa
##TEMPERATURE=23 C
##SAMPLING PROCEDURE=1 L/min Flow
##RESOLUTION=0.9640
##DATA PROCESSING=3-Term B-H Apodization
##XUNITS=cm-1
##YUNITS=(micromol/mol)-1m-1 (base 10)
##XFACTOR=1.0
##YFACTOR=2.2737E-13
##DELTAX=0.4820
##FIRSTX=575.169
##LASTX=3975.077
##FIRSTY=2.76E-07
##MAXX=3974.59
##MINX=575.17
##MAXY=.0003648
##MINY=-1.82E-07
##NPOINTS=7053
##XYDATA=(X++(Y..Y))
575.17 1214432 1837530 2173854 2188178 2464264 2165278
577.58 1632438 1901884 2016090 1226338 110496-282844
580.47-109064-85864 191014 1129782 1860548 1750240
583.37 1243002 1116494 1222390 908720 494240 776982
586.26 1372070 1451722 1400644 821898 85182 32538
589.15 289892 659862 1710656 2587714 2196544 1775762
592.04 1828680 1800220 1919372 1950124 1375530 291572
594.94-378558 131378 1146330 1475846 1596344 2031776
597.83 1650762 791986 740064 1217994 1644784 1761088
600.72 1590636 1256496 992108 1007034 1320172 1638710
603.61 1563768 1314548 1755296 2498056 2431060 1913524
606.51 1737094 2025356 2118576 1834800 1935766 2266144
609.40 2552742 2888524 2901002 2700452 2889604 3320084
612.29 3540936 3391856 3324020 3626182 4030714 4138804
615.18 3993880 3967454 4340058 4689840 4831970 4991902
618.08 4963698 4840926 5293120 5940342 6000486 5980612
620.97 6341536 7035626 7882508 8231548 8372434 8946086
623.86 9509126 9750062 9979208 10039230 10218190 10848340
626.76 11624720 12170470 12593150 13149340 13715520 14242320
629.65 14858180 15665130 16513600 17000290 17113640 17381090
632.54 18190730 18997050 19717340 20896960 21852280 22017800
635.43 22702530 24407740 25730480 26019940 26756780 28292120
638.33 29327660 29296530 29625580 31907110 35060800 35875880
641.22 35254740 36242120 40178860 43604760 42946080 41433880
644.11 43016030 48491240 51902530 50652140 49054760 51374680
647.00 58321940 62173060 60070380 57320430 59477640 68024050
649.90 73101590 70011170 65736100 67075410 77403330 85404260
652.79 81179480 73728140 72374710 82629690 95338610 92243820
655.68 79909250 73635790 81143160 99721930 105004700 90766330
658.58 77658910 77618430 96089900 113991700 104310100 83646110
661.47 74443030 82944830 106258600 113222900 94848870 78237460
664.36 74939510 91357420 116356000 114753200 91634140 76767890
667.25 78249660 98843040 117059800 105329200 84723900 77593050
670.15 83738470 100745000 107537400 94802270 83914820 84039080
673.04 90200830 97014510 96341080 90040190 88477890 93000720
675.93 98208540 101407100 105737800 114774200 126777700 140943000
678.82 162031200 187563300 205157000 222382700 269327600 346058300
681.72 373856700 300542500 204542100 150311500 124258500 108574600
684.61 97271310 89570000 84876790 82062280 81258410 80360110
687.50 77220640 75857150 80020760 82959720 79425270 75972740
690.40 74847560 75121660 82753010 94341060 92483060 80031990
693.29 74822270 74387900 78611240 94956500 106972900 93715280
696.18 75932010 72927140 75242030 83757450 102858500 107412500
699.07 86211640 70442970 70511340 75197180 87032210 104488400
701.97 101368800 78845890 67047230 68143230 74402300 88051630
704.86 101506100 92539040 71072420 62149250 63411850 70244950
707.75 84832950 94895960 82716430 63475710 56623350 58072830
710.64 65384860 79657650 86404160 72732580 55607360 49629160
713.54 50651280 57796460 71503660 76612990 63486940 48808310
716.43 43699610 44044020 49819490 62386640 67821700 56536280
719.32 43340940 38309020 37625720 41114860 51591440 57635540
722.22 49476400 38835220 34296180 33034140 34623500 42045870
725.11 48336970 43649650 34761290 30186830 28716350 28770490
728.00 33115070 38891660 37222010 30631780 26534760 25262590
730.89 25431280 27825940 31680530 31412500 26802130 23184260
733.79 21589560 20861800 21697340 24424670 25463730 22798210
736.68 19770030 18263190 17441560 17315210 18776990 20211210
739.57 19221660 16930780 15350330 14617100 14303460 14755130
742.46 15853010 15676660 14058190 12684640 12031550 11770610
745.36 11793920 12225500 12645350 12026240 10829180 10080370
748.25 9678498 9315384 9175338 9501770 9914146 9723220
751.14 8914404 8079538 7583602 7331970 7430778 7845606
754.04 7970784 7587916 7124746 6802624 6639676 6575908
756.93 6685642 6989884 7500950 7989682 8146950 7870614
759.82 7259212 6768034 6778752 7151110 7558736 7793150
762.71 7789000 7545600 7296486 7304258 7722796 8224906
765.61 8796168 9432396 9853066 10148650 10518010 10856220
768.50 11328290 12221340 13479200 14540560 15087750 15527600
771.39 16246070 17156030 18134010 18895010 19396940 19850630
774.28 20371960 21001390 21684540 22153280 22341250 22366120
777.18 22222560 22134720 22314990 22249880 21715640 20996860
780.07 20172050 19506410 19179540 18749100 18074550 17319960
782.96 16623430 15952110 15335520 14862140 14271810 13127010
785.86 11868220 10874950 9778532 8755854 8580416 9343454
788.75 10508550 11635300 12806280 14181310 15526710 16427250
791.64 16989890 17560630 18208670 18641190 18922170 19044940
794.53 19018110 18899940 18539830 18163230 17835250 17312080
797.43 16764220 16208060 15465980 14590910 13741490 13078760
800.32 12538320 11781680 10940110 10222870 9592760 8816902
803.21 7950974 7280078 6822202 6400828 5854708 5148628
806.10 4556130 4203460 3984812 3736278 3309224 2796500
809.00 2560416 2440810 2113360 1801640 1838066 1829010
811.89 1504974 1156074 1165746 1330348 1253818 1029576
814.78 833636 583186 454024 649538 1035278 1119148
817.68 917462 859874 898156 778928 575274 390356
820.57 280726 450544 869914 1073726 942322 651912
823.46 560574 636840 661158 621086 534252 489700
826.35 624808 721860 578946 212978 41418 168682
829.25 353034 468546 593966 658006 642016 646646
832.14 640318 583888 604156 660020 750084 692286
835.03 590466 635304 777938 956096 1176140 1422598
837.92 1566304 1487430 1613172 1965810 2210838 2359390
840.82 2539892 2781576 3070544 3276750 3620548 4078898
843.71 4620062 5203018 5802618 6442286 7053872 7686070
846.60 8433072 9191478 10069020 11033120 12078260 13055550
849.50 13929910 15056400 16514060 17959700 19227360 20327650
852.39 21545440 23004510 24608430 26095610 27439180 28771140
855.28 30192290 31558910 32836430 34019510 35016380 35920180
858.17 36765790 37353680 37809300 38124030 38068840 37641450
861.07 37133720 36553130 35599860 34160980 32564890 30972510
863.96 29227810 27228090 25121430 23058590 21444190 20204750
866.85 19539150 22678660 34954060 44285220 34566920 21768350
869.74 20248830 23414260 24216960 21578170 20005960 21304790
872.64 23169720 24416600 25698050 27359400 29210350 30992510
875.53 32738130 34292480 35481610 36364410 37217140 37955690
878.42 38396660 38404340 38106560 37690940 37290930 36708420
881.31 35919410 34969580 34005570 33297820 32973980 32339530
884.21 31111900 29886290 28960380 28601990 29216140 29609800
887.10 28828600 27827300 27284810 27209840 28565780 30688760
889.99 31101140 29931050 29050210 29170640 31092630 34660330
892.89 37024140 36459240 35059550 34626080 36476510 41472770
895.78 46377620 47071990 45084780 43380370 44072910 49202710
898.67 56675730 59336670 56956420 54454160 54220540 58632820
901.56 67732370 73714180 72072550 68687040 67721180 70642220
904.46 79942860 89862220 90483970 85298530 82789440 84705390
907.35 93444860 107207700 113197000 107765300 101556000 101703300
910.24 110449300 125354400 137455600 135866300 125746000 119329800
913.13 122249400 138084700 160374200 168625600 157014100 142812900
916.03 139664500 151994400 179245600 202936500 198655000 176994200
918.92 163590400 167243100 189620800 225940700 242469700 222484000
921.81 196394900 188398100 200796600 236884400 277388200 277533100
924.71 244609300 219787000 217998100 241174000 291433400 321410200
927.60 299013200 261587400 243050400 248412300 290970300 349900300
930.49 354276800 314629600 284653300 274111400 290664200 352775000
933.38 393695200 360164700 317198500 299918100 295243300 332977700
936.28 403174500 403909000 349544900 327002400 325194300 331960800
939.17 385441000 419936900 376126600 339998300 352319300 359941700
942.06 374769800 405150700 389422400 363408200 392856500 428924300
944.95 422625100 411446500 397922600 385053200 424942500 513359100
947.85 543017700 480972600 420908200 395981800 412811700 487358600
950.74 550622300 547395100 575432800 780283500 1257612000 1604704000
953.63 1366956000 918266400 642078800 512126100 458164500 449561300
956.53 481652100 493023900 440789800 401032100 401718100 397894000
959.42 406069700 444780400 462694400 451090600 444840800 432139300
962.31 417685300 457643200 518833500 502806500 439650300 399765600
965.20 402241800 477512400 554552000 519904000 451085300 448243700
968.10 514688600 649341000 769082900 819370200 951122000 1110848000
970.99 1018028000 805950800 671961000 546367600 448140500 415544400
973.88 445746900 518910000 529239800 450772600 382891600 369179200
976.77 416445000 489622900 491230300 421051100 363508800 364280800
979.67 427585400 489427700 480498200 415219400 357213900 367990300
982.56 432058800 468937000 451465200 394591600 348270000 373170500
985.45 422416300 432498300 417173900 379413800 351066200 366984000
988.35 382256300 383860400 384895300 364671600 347916800 345654800
991.24 339057200 351248600 367430100 353040900 324588300 302691000
994.13 303349000 332291700 349148600 319724000 279145100 269974200
997.02 291950400 322440300 314271700 269560800 247276500 258784900
999.92 283584200 289279000 257175100 229729700 232833600 248551500
1002.81 256538300 239593900 214561400 210134900 218291000 222537500
1005.70 214441900 194919000 184166100 186872400 188724000 185378100
1008.59 172651700 160065900 158275600 159090600 157859800 150208900
1011.49 138241400 132673200 132748300 134874700 132517000 122014600
1014.38 114197800 114007000 117456800 117563900 109572900 102490600
1017.27 100622700 101091600 100654500 95429930 89921670 88337700
1020.17 87954850 85382980 80684090 77313440 75430910 74035870
1023.06 71376950 67492330 65141650 63704520 61540200 58077360
1025.95 54524800 52701180 51813380 50269080 46930200 43574460
1028.84 42045260 41323600 39237930 36119230 34087070 33228820
1031.74 32201620 30202170 27934630 26581310 25757390 24586380
1034.63 22937600 21593970 20703970 19675730 18383030 17416660
1037.52 16683040 15943920 15055390 14212910 13633440 13060690
1040.41 12217800 11423710 10965860 10672180 10215660 9649848
1043.31 9174714 8884522 8587098 8300678 8028816 7673198
1046.20 7301918 7115890 6861592 6492442 6292498 6261138
1049.09 6163498 6001054 5805548 5742888 5813484 5861616
1051.99 5672778 5395856 5271854 5313036 5499218 5705214
1054.88 5656568 5488564 5446672 5683462 5864138 5801930
1057.77 5643240 5492846 5453488 5671294 5784598 5509268
1060.66 5140464 5028378 5139276 5339020 5342184 5062952
1063.56 4771256 4810602 5249268 5643630 5530602 5414166
1066.45 5644452 6214468 7107438 7671372 7651790 7807594
1069.34 8299298 9239798 10550170 11463270 11939610 12611360
1072.23 13523850 14973390 16963950 18649320 19847130 21091520
1075.13 22721470 25120970 27882810 29990680 31655210 33725670
1078.02 36093000 38785390 41717210 44118400 46093910 48190600
1080.91 50132300 52202720 54278230 55532390 56360240 57368140
1083.81 58221290 58822170 58972710 58381740 57273140 55993790
1086.70 54281720 51893700 49186430 46423790 42974570 38629070
1089.59 34089920 29940970 26224460 22934690 20858770 23407770
1092.48 33132710 42156560 42313950 38773980 37797390 39013260
1095.38 39498260 37219600 34565040 34350970 33997180 32719740
1098.27 32756230 33705520 34263860 34888720 35781450 36461210
1101.16 36954060 37485000 37970930 38349980 38251100 37418980
1104.05 36499360 35817240 34949320 34138600 33300300 31681160
1106.95 29636290 28025410 26632540 25225350 24001580 22596400
1109.84 20641570 18775200 17387330 16258970 15127290 14131880
1112.73 12765010 11107290 10005970 9338270 8604192 8082620
1115.63 7519466 6433696 5499054 5141864 4847576 4459582
1118.52 4170726 3737638 3142674 2869194 2897710 2794092
1121.41 2696224 2678630 2319416 1918076 1860710 1972264
1124.30 1960170 1915106 1730382 1464182 1370888 1433290
1127.20 1490282 1619184 1647112 1465118 1324302 1311294
1130.09 1277080 1336680 1383432 1250070 1150416 1173888
1132.98 1135680 1087368 1077070 1057822 1028926 978632
1135.87 893194 785704 697610 792254 841750 803110
1138.77 822522 813516 793744 854004 814058 743428
1141.66 701840 628474 624522 691166 630492 552240
1144.55 538138 549042 528468 495132 473338 483256
1147.45 462256 391888 372040 472824 542448 532366
1150.34 489644 468904 444150 431568 442856 519726
1153.23 607030 595640 542416 512266 499724 554970
1156.12 526976 441254 455638 587820 674582 676092
1159.02 719680 807878 802106 746684 700576 706936
1161.91 693024 661118 637088 691100 820922 877110
1164.80 796862 745514 754968 808780 891772 921478
1167.69 928488 981892 944470 853796 821454 903118
1170.59 992982 1028110 1040402 1019596 990874 961416
1173.48 928092 961358 1033706 1034282 903512 803498
1176.37 802730 856464 951758 1029544 979188 894692
1179.26 876122 928258 911046 816204 798874 888822
1182.16 974882 937010 749304 651698 742992 967122
1185.05 1122310 1042380 867592 764090 758568 945104
1187.94 1092748 1011650 949184 966230 1030592 1213388
1190.84 1221310 1055194 1013864 1059814 1070492 1160212
1193.73 1265142 1233522 1107230 1043850 1078704 1132650
1196.62 1117660 1112360 1188262 1242194 1206454 1184604
1199.51 1173802 1238138 1398852 1532744 1545900 1529402
1202.41 1689780 2327010 3264716 3557198 2937830 2235996
1205.30 1823860 1571358 1460404 1496750 1619478 1872110
1208.19 2007744 1816644 1518746 1318470 1181404 1072140
1211.08 1089448 1283720 1423604 1384038 1215134 1077590
1213.98 1115368 1279324 1326692 1253250 1154608 1055672
1216.87 1004708 1056912 1216322 1289404 1163270 1016848
1219.76 954086 1052854 1271470 1402416 1315970 1165548
1222.66 1004282 896686 1016042 1309240 1442522 1297152
1225.55 1060668 897178 824504 941474 1176700 1330510
1228.44 1278136 1112190 999050 984934 1079572 1288778
1231.33 1368750 1231866 1077566 970380 878518 892076
1234.23 1028710 1133268 1039150 843648 724216 763606
1237.12 886116 979852 1001536 968984 914056 884250
1240.01 823014 754334 794356 907240 873890 720758
1242.90 711638 810186 830350 819472 795374 800166
1245.80 818212 783684 718426 699622 735388 763010
1248.69 764190 763556 720112 686498 735006 871930
1251.58 1011564 1048092 982872 964636 1102746 1274074
1254.48 1280530 1268476 1272970 1270440 1420328 1679824
1257.37 1884214 2025750 2177738 2482090 2884868 3125752
1260.26 3207766 3304956 3498352 3924838 4487942 4941804
1263.15 5288300 5639526 6016044 6510586 7060894 7569654
1266.05 8039344 8435406 8870282 9409824 9867614 10281160
1268.94 10687340 11013970 11438930 11929060 12170850 12214810
1271.83 12270980 12360740 12421650 12358960 12095100 11768250
1274.72 11438440 11043560 10615320 10204590 9823342 9483798
1277.62 9179166 8788578 8150582 7343302 6594882 6211504
1280.51 6738932 8329998 10125900 11548370 12511050 12892640
1283.40 12819670 12661240 12695150 12868250 13113540 13520930
1286.30 13953250 14332500 14736980 15112850 15442020 15739250
1289.19 15879350 15865610 15819480 15868110 15960690 15860960
1292.08 15539990 15072580 14575270 14255890 14090300 14073870
1294.97 14121170 13771650 12824620 11759540 10952600 10445380
1297.87 10082110 9537338 8866100 8439316 8325840 8163138
1300.76 7875068 7667294 7486878 7465008 7579714 7646052
1303.65 7735786 7831132 7794420 7761304 7870850 8029892
1306.54 8188760 8480762 8906734 9245238 9452528 9626444
1309.44 9792340 10059210 10451820 10879990 11254720 11476940
1312.33 11604540 11766410 11867680 11962270 12157590 12237890
1315.22 12110450 12042100 11999060 11826740 11634390 11457740
1318.12 11292000 11098020 10777410 10365350 10093150 10033770
1321.01 10061780 10239420 10572050 10722360 10315720 9470886
1323.90 8794020 8650832 8860150 9071538 9065700 8910100
1326.79 8863486 9185540 9659700 9927398 10204420 10736290
1329.69 11195840 11254790 11239360 11633740 12317010 12606690
1332.58 12438990 12525150 13121050 13451890 13162590 12935810
1335.47 13402010 14201850 14087850 13183480 12941720 13808420
1338.36 14513210 14021690 13180360 13251460 14052740 14043370
1341.26 13004080 12177460 12387890 13535330 13899750 12999340
1344.15 12327360 12590660 13798900 14688390 14095700 13141200
1347.04 12907230 13745290 15144270 15333360 14388820 13899200
1349.94 14360430 15403160 15884660 15129480 14352690 14431380
1352.83 14936740 15157510 14818900 14304100 14080120 14082560
1355.72 13765920 13142360 12857810 12773360 12462910 12003980
1358.61 11464800 11098620 11164830 11727480 12488520 12521330
1361.51 12189410 12764420 14245610 14984560 14567840 14238400
1364.40 14434710 15335970 16781190 17732510 17588080 17166040
1367.29 17562380 18914600 20749730 21499680 20504340 19431700
1370.18 19113860 19895490 22513370 24785960 24167570 22263580
1373.08 21723720 22868070 25109380 26031690 24830080 23560470
1375.97 22568770 23398100 25945870 25990600 23886210 23320060
1378.86 24638260 26945890 28656830 26558910 22937440 21876660
1381.76 23780700 28935620 32821890 29675100 24106360 22038650
1384.65 23762720 30229670 37353430 35875790 30104010 27672930
1387.54 27942940 33117200 40243040 39901460 34169530 30457080
1390.43 30977590 38289150 48712380 49649360 43080740 39844640
1393.33 41927020 49755640 61153980 64414460 57768760 52575390
1396.22 53720690 62130080 75170710 81974580 78891780 74362340
1399.11 73492480 78523500 91198590 100784100 97970740 92343000
1402.00 91748250 95863220 104834300 112733900 111812500 107000700
1404.90 104475500 104300900 105658700 105838800 102865800 99376400
1407.79 96206620 90523610 83592990 79085970 76086180 70211360
1410.68 61994350 55108570 49925730 46434460 45519740 54916990
1413.58 89882950 120667000 102275400 67320600 52961880 52038240
1416.47 54755720 60059730 68059860 75892970 82672970 89355980
1419.36 94135410 97232700 99715980 103134900 107372400 108067200
1422.25 105735900 104404900 105194700 109051500 112729300 108266400
1425.15 98898270 92448460 90306670 93325100 96015180 90270260
1428.04 80273590 73349010 70903550 73196070 77096180 73047690
1430.93 60575530 50560740 45765330 45674360 50073100 51041620
1433.82 43998090 37811050 36214670 38816060 47199290 52775360
1436.72 46308440 37140580 33592400 33968230 37679230 41332160
1439.61 38711210 33687560 32125070 32370270 34064910 36651780
1442.50 35111120 30641280 28327520 27607640 28125900 29910020
1445.40 29081820 25678210 24029460 24156350 24949280 25433010
1448.29 23559860 20493090 18982120 18352240 17976160 18540030
1451.18 18376310 16796980 15770060 15268050 14544240 14564310
1454.07 14811040 14432820 14350370 16395940 21504740 23303150
1456.97 18271480 14491660 13784270 12520360 11445480 10874790
1459.86 10031940 9300190 8883032 8565152 8526600 8548748
1462.75 8453824 8409048 9106942 10737510 10492060 8517124
1465.64 7447946 6753084 6055780 5835930 6000090 6236364
1468.54 5928910 5194950 4777928 4880906 5692692 7788828
1471.43 9676288 8549368 7541790 9039706 8244118 5277388
1474.32 3756416 3786308 5011462 5967152 4949852 3433670
1477.21 2811758 2672244 2649982 2605058 2431098 2330130
1480.11 2506386 2806164 2651936 2137026 1852464 1805808
1483.00 1768110 1693582 1588774 1538090 1570618 1670448
1485.89 1922272 2822194 3523996 2712720 1763120 1906408
1488.79 2782886 3576310 3737008 3687904 2792506 1483720
1491.68 936400 792648 728828 727634 761034 892886
1494.57 1302248 3399124 7086518 6955250 3114970 1120436
1497.46 1459620 3107836 3828390 2344114 996706 689934
1500.36 699276 879420 1002304 851726 653750 617738
1503.25 665040 878120 2403222 6939192 9885154 8270674
1506.14 9378974 10966850 7071184 3639984 2997960 2337822
1509.03 2014126 1828606 1174434 759810 1093858 2320926
1511.93 2753826 1533540 560452 505882 982060 1641066
1514.82 1611802 1487370 2275042 3441820 4281506 3671254
1517.71 1863758 885722 1048414 2332954 3960270 6196134
1520.61 9540366 8631314 4964270 4224552 3384800 1579586
1523.50 890794 1404016 3153398 4629012 3352192 1515232
1526.39 1531826 1950148 1672068 1630328 1514444 959032
1529.28 597456 499586 602722 1019224 1268054 1230428
1532.18 1939834 3642546 4984276 4330290 2188038 1044176
1535.07 916318 887524 870364 998826 1383290 2703628
1537.96 7170152 12548280 11803070 9668452 9190906 5839936
1540.85 4497062 7566264 7985834 4595592 2746874 2393584
1543.75 2343246 3759156 4910520 3531910 1798002 1320554
1546.64 1321934 1363372 1438998 1647540 2145568 2957096
1549.53 3421814 2935010 2119996 1745978 1682296 1815426
1552.43 2078146 2945842 5694940 7749678 5596656 2893280
1555.32 2315490 2595618 3982304 7080530 10450220 14028050
1558.21 14159890 10598300 11815240 14744300 11011060 5181844
1561.10 3095648 2956542 3056376 3093940 3130896 3398268
1564.00 4241250 4873846 4443388 3790090 3558578 3550702
1566.89 3726036 4075534 4765362 5869680 7744610 8842102
1569.78 7155506 5315318 5100652 5080298 4839488 4773068
1572.67 4994306 5492192 6135214 6463936 7151284 11512720
1575.57 17306310 15758470 10340680 8080894 7125406 6463946
1578.46 6521806 7143202 8251536 8945688 8281798 7353472
1581.35 7237004 7877676 9293244 10572940 10097570 8734100
1584.25 8264754 8864916 10494530 12427610 12593200 11052920
1587.14 10083240 10388750 11976600 14551630 15979740 15083700
1590.03 13942590 14269420 15994330 19136100 22161360 22345240
1592.92 20876530 20724750 22362470 25622670 29775720 32054850
1595.82 31551890 31330580 32936640 36117320 40684860 44509360
1598.71 45033760 44554360 45803450 48385300 52122620 56280380
1601.60 58069030 57333840 57297040 58726660 60870330 63278260
1604.49 64478870 63444560 62108090 61900600 61642070 60633520
1607.39 59153920 57345120 55669110 53891430 50872400 47154160
1610.28 44014380 42139950 40675110 38200060 36282300 38106780
1613.17 47625600 62870970 70266220 62974680 47072980 35740720
1616.07 36499940 38032680 36249700 37489980 41686580 47280080
1618.96 53404700 58082490 61314300 64490980 67451760 70017790
1621.85 72467880 74815090 76960100 76566700 74031850 72925260
1624.74 72593940 71581060 69607120 66665380 65244590 65570890
1627.64 63992450 60443210 56472900 52810300 51458590 51346710
1630.53 49422280 46568240 43739600 41177740 40609080 40804330
1633.42 39797550 39713090 41507370 44053560 44659720 41781200
1636.31 39045840 38548140 37454080 35577720 36292860 38320300
1639.21 38903780 38822610 38230540 37457050 38358230 40103090
1642.10 40801840 40273910 38981780 37937760 37898680 38901010
1644.99 42154060 44089460 40235350 35948480 34401640 33208100
1647.89 31731570 28968530 26050400 24654630 23836170 22891830
1650.78 22654030 26355670 35484040 44228700 47852420 43543320
1653.67 35971420 31263430 27953920 26703160 28035790 29478530
1656.56 29185170 28717510 29650250 31500390 33047920 33652620
1659.46 33536960 33029220 32650550 32998390 33766320 35513380
1662.35 37017410 35171000 31634610 29587610 28796320 28503330
1665.24 28766150 28765400 26799250 24148330 22968210 23263500
1668.13 25038930 27680260 26464210 21080930 17594040 17686950
1671.03 18596650 18190180 16912270 15011770 12989200 12152890
1673.92 13519840 17337470 19215000 15867850 11294750 9060562
1676.81 8745810 9269280 9910816 10011400 9157212 8177720
1679.71 7980636 7972980 8015264 8428142 8382208 8467276
1682.60 9649606 10480830 13073080 19564570 20527060 12439230
1685.49 6455036 5122322 5063932 5713252 6626988 6486708
1688.38 5473664 4879534 4958992 5194946 5363386 5127686
1691.28 4473498 3946890 3677230 3680322 4183558 4665582
1694.17 5169656 8762946 15651900 16117130 9113960 4985980
1697.06 4259914 3540696 3323064 4729292 9278882 14477110
1699.95 15138510 10995290 5713700 2917090 2333362 2329950
1702.85 2561864 3313186 4232746 3782250 2691994 3135830
1705.74 4296230 3864530 2464614 1730912 1502046 1457650
1708.63 1542334 1840126 2074544 1769984 1288888 1165390
1711.53 1246644 1383838 1515578 1820262 2283128 2934916
1714.42 4197778 4213184 2631376 2441152 6255310 11023500
1717.31 9388318 5701870 4547578 2928568 1499994 1036508
1720.20 882834 879272 889606 881388 1020102 1355574
1723.10 1471144 1162862 874722 778358 786436 845696
1725.99 870206 827332 809860 838350 863264 939308
1728.88 1425346 2115086 1992664 1243438 899070 1026878
1731.77 1471154 3814134 7649628 8494756 8798962 9182860
1734.67 5619042 2146932 1088942 842816 873660 991290
1737.56 1035750 1149620 2078020 4303420 5056934 3010676
1740.45 1301812 942286 1002144 1360340 1934598 2169476
1743.34 1840656 1485352 1320506 1315992 1435108 1540518
1746.24 1800152 2023794 1971542 2355944 2883648 2542884
1749.13 1811588 1627950 3075678 5836882 5995880 3086088
1752.02 1204564 858630 713844 626820 616038 660990
1754.92 669560 860040 1852406 2601794 1766816 773990
1757.81 502732 427206 385648 404872 482270 720574
1760.70 1862274 3566108 3154380 1250594 396452 280170
1763.59 224840 218310 244644 264570 263690 284814
1766.49 375990 1250418 3012784 3006644 1198468 305338
1769.38 312784 675626 1829284 2749906 2877522 5129506
1772.27 7062730 4352554 1220512 429472 515618 959018
1775.16 1369750 1326508 974096 643778 539728 554088
1778.06 508516 440844 402976 731626 1305596 1145952
1780.95 455622 171632 165632 162116 151718 181110
1783.84 676868 1514790 1310740 423148 56384 69056
1786.74 92610 76032 102236 151666 219550 344222
1789.63 635242 1270182 1502188 1173570 2389772 4641870
1792.52 3991060 1513328 359010 123486 159446 390116
1795.41 578386 446870 186412 66794 21684 40550
1798.31 394828 1241332 1554656 857394 509114 772746
1801.20 819888 826944 786666 382902 81188 55972
1804.09 129070 148790 124214 122332 124364 159446
1806.98 278104 295950 186360 123344 153264 406838
1809.88 895114 1003190 633782 432910 431080 350392
1812.77 251852 225480 246020 264282 246404 241572
1815.66 317328 429568 588180 689920 641948 632012
1818.56 717610 791952 803052 827656 892718 929168
1821.45 1026902 1204852 1287738 1240758 1272238 1753732
1824.34 2952168 3617852 2864534 2136172 2053412 2117852
1827.23 2203860 2440046 2976080 3653094 4564222 5155372
1830.13 4284334 3198970 2963968 3022626 3088772 3125898
1833.02 3115288 3081306 3014320 2904730 2832424 2817942
1835.91 2883124 3018196 2971906 2666798 2357108 2132072
1838.80 1992586 1933292 1936770 1974868 2079110 2341076
1841.70 2612842 2572474 2671084 4412362 6737792 5919960
1844.59 3524424 2663266 2618026 2726322 3033534 3453490
1847.48 3606270 3492132 3510432 3678528 3917680 4111946
1850.38 4154520 4090102 3975182 3882116 3829250 3814392
1853.27 3823424 3758424 3649096 3612218 3626462 3606916
1856.16 3576894 3624320 3622654 3515608 3372366 3204954
1859.05 3118702 3159098 3288868 3396406 3310774 3148478
1861.95 3144566 3335800 3608642 3846226 3961814 3858076
1864.84 3672342 3659984 3820376 3994388 4537390 5300962
1867.73 5434310 5751566 6653674 6421102 5573744 5623812
1870.62 5892832 5782720 5569600 5461028 5594938 6161630
1873.52 7000634 7581568 7613568 7412792 7381104 7777970
1876.41 8639504 9671000 10441870 10694190 10595960 10591380
1879.30 11228390 12684720 14282950 15281310 15680950 15875440
1882.20 16243450 17319480 19424820 21855640 23326030 23881950
1885.09 24328740 25163190 26954610 29955650 33059010 34733660
1887.98 35615260 36912380 38764130 41043140 44319490 47678060
1890.87 49333140 50215160 51368460 53064930 55971020 59976230
1893.77 63112990 64448180 65104110 65741640 67245850 69993390
1896.66 72752620 74067260 74226800 74095220 73426220 72565780
1899.55 71992480 70885150 69966840 70208740 69942340 68461000
1902.44 67131710 66526550 65930900 64952720 64128830 63733890
1905.34 63307750 63069620 62608560 59865800 52949590 43781370
1908.23 37555920 36902100 40917880 46696110 52350650 58766670
1911.12 66033650 71611530 74830100 77817540 80579070 82642020
1914.02 85096340 88052670 89070020 87612000 85999740 84850650
1916.91 85059510 87153520 86478850 81149350 75919740 73201910
1919.80 72199190 71014750 68069100 64240120 60514080 57950430
1922.69 56732150 54280860 50334650 47287470 44923000 43137560
1925.59 41703190 38634720 35024100 32914440 32225370 32040360
1928.48 30454740 27202860 24494630 23602090 23778440 23231580
1931.37 21031210 18681260 18005810 18575800 18633200 17305930
1934.26 15524090 14502450 14385290 14446720 13778300 13049560
1937.16 13368110 14639230 15879650 16072240 15761980 15876810
1940.05 16650230 17471800 17355740 17181850 17790170 17981990
1942.94 17272740 16347820 15833600 16107540 16738510 16486720
1945.84 15212320 14189920 14065080 14368360 14342980 13475360
1948.73 12193980 11492070 11457570 11839570 11862410 10759830
1951.62 9563102 9212422 9422866 9678768 9085250 7868546
1954.51 7309750 7420242 7663254 7706996 7200556 6586574
1957.41 6302910 6237220 6267084 6055542 5595374 5319518
1960.30 5253896 5364024 5363006 5032906 4871542 5008998
1963.19 5151774 5087924 4662100 4279930 4230318 4469130
1966.08 4642548 4475476 4245290 4100502 4152926 4203098
1968.98 3918342 3563098 3431354 3457598 3270926 2970618
1971.87 2957088 3083634 3094074 2937900 2804092 2790770
1974.76 2869516 2939620 2773500 2586962 2631484 2672920
1977.66 2540610 2406846 2336288 2298916 2278974 2195906
1980.55 2075652 2029050 2012508 1920794 1858050 1908092
1983.44 1948506 1890794 1736514 1597538 1527258 1518010
1986.33 1556684 1568196 1554766 1538902 1428698 1282444
1989.23 1196476 1145854 1089856 1185896 1497898 1585616
1992.12 1346106 1105204 932478 833046 784690 791738
1995.01 775720 664062 611338 700392 818066 878530
1997.90 883718 843314 740744 668060 669360 626862
2000.80 544890 629850 743044 653168 541302 526902
2003.69 523890 515590 509338 452322 395302 413874
2006.58 471564 527298 513034 493874 490984 424522
2009.48 353766 291184 229402 219372 241118 335822
2012.37 408426 349080 246626 185494 174780 189570
2015.26 291044 492576 631924 563420 448340 470322
2018.15 467376 378084 309184 287908 313888 329162
2021.05 308768 299726 317040 373664 408904 363252
2023.94 259160 195038 197730 221090 210586 144784
2026.83 146838 215988 235598 220544 199258 162888
2029.72 144738 162690 198306 213342 218380 299806
2032.62 370314 313808 243300 263628 257880 186770
2035.51 183318 247830 298548 337908 354870 352186
2038.40 332918 317792 319722 340398 382500 395686
2041.29 364574 312262 268224 273010 290984 295854
2044.19 273658 286184 386462 572826 827744 1107184
2047.08 1162290 803772 378914 230066 293048 373264
2049.97 323434 252488 298898 377016 376558 362570
2052.87 389246 404892 425634 425420 436740 481942
2055.76 431790 356266 380744 446360 450358 401412
2058.65 374522 413276 491944 566222 618788 656352
2061.54 686862 890560 1300576 1495614 1264602 1011432
2064.44 881806 761204 646982 555580 537796 521638
2067.33 449224 408320 383294 359260 354820 375334
2070.22 403370 377172 298706 247022 241866 292878
2073.11 395352 427716 282288 147502 166184 280082
2076.01 404802 445806 333820 262204 327074 366326
2078.90 409872 483348 401046 292106 335634 421998
2081.79 496750 563166 482726 311868 249286 275696
2084.69 362110 524576 538884 397410 308660 283528
2087.58 334060 475838 504794 390320 353620 343104
2090.47 313218 362070 377908 309836 284206 319680
2093.36 340640 403420 463846 412318 347076 296364
2096.26 297482 362928 332128 267534 286414 332270
2099.15 332822 336780 316704 232248 198880 224316
2102.04 272780 311364 243784 155560 158760 162034
2104.93 177840 251594 231174 123452 94286 135150
2107.83 158790 142920 130744 138678 126176 120366
2110.72 97978 37378 29782 76838 103108 88118
2113.61 72714 83404 92450 98568 87316 11876
2116.51-63538-49562-19006-2812 57238 106802
2119.40 102392 86292 44912-10372-46000-75518
2122.29-69758-31088 5310 66594 111954 108608
2125.18 60588-34430-63774 42112 111294 75840
2128.08 46746 19332-33866-68566-69302-33386
2130.97 2608 828-44676-75448-42736 13624
2133.86 45324 92230 138596 119470 66706 39570
2136.75 28036-152 15798 111684 188346 202572
2139.65 199470 225790 221084 170836 173588 211728
2142.54 225908 223832 217662 205738 197832 195412
2145.43 198844 247768 281896 235208 165188 160600
2148.33 189096 182800 138824 135246 202084 249392
2151.22 245064 258892 312984 381610 361270 289350
2154.11 286540 286996 270460 304626 341598 314306
2157.00 248738 259008 311882 316792 318094 318450
2159.90 303936 294406 298788 309148 306070 309492
2162.79 319508 296028 245900 208444 241808 328480
2165.68 360082 337054 288784 268732 304066 338582
2168.57 333100 267680 215120 216728 210004 239278
2171.47 321604 377308 382476 336092 301884 312412
2174.36 311730 340528 385274 339448 290956 339998
2177.25 359942 361194 432426 506968 507622 453296
2180.15 466668 504796 462970 403972 369228 380328
2183.04 439524 485892 421296 327882 327952 336788
2185.93 306646 261334 223454 245548 304282 350552
2188.82 345594 297960 271304 294718 344810 411590
2191.72 469602 484262 474188 423768 331590 314006
2194.61 391242 438978 399786 364316 392886 381416
2197.50 343596 360260 416454 478584 507440 495804
2200.39 418190 352990 399352 493718 541542 549322
2203.29 552432 557036 580734 627812 666822 704620
2206.18 699568 675974 705152 789150 931622 1059380
2209.07 1098414 1115198 1156052 1243446 1450982 1658342
2211.97 1708290 1719020 1810482 2004088 2299834 2589710
2214.86 2779712 2871736 2975356 3199356 3489774 3786100
2217.75 4071818 4351300 4625408 4917004 5279022 5665724
2220.64 6055780 6429764 6758040 7107354 7494358 7879876
2223.54 8266612 8622734 8856582 9048002 9331942 9696434
2226.43 10100900 10387020 10480010 10520730 10606520 10707510
2229.32 10842760 10925040 10860970 10712230 10493970 10308480
2232.21 10248660 10206260 10125010 9816180 9203342 8611640
2235.11 8293008 8542140 9146844 9140996 8735658 8206040
2238.00 7119870 6481886 7296418 9831448 13188300 13358420
2240.89 9740176 7194396 7047860 7603380 8223884 8894250
2243.79 9646806 10409070 11083930 11670230 12091060 12359770
2246.68 12581450 12759110 12831630 12738260 12479910 12179380
2249.57 11930120 11716160 11380440 10822830 10133480 9489672
2252.46 8926958 8414938 7900536 7295954 6635440 6062386
2255.36 5619428 5265290 4943694 4558502 4091514 3728582
2258.25 3548768 3480440 3457372 3380912 3193950 3076958
2261.14 3125906 3247386 3383568 3422696 3314464 3277078
2264.03 3393438 3586354 3842392 4090656 4226646 4261938
2266.93 4384834 4618090 4821292 4946860 4997702 5095972
2269.82 5281402 5401654 5419734 5435690 5498678 5577864
2272.71 5567078 5464664 5351112 5209994 5069738 4937910
2275.61 4730258 4454752 4155168 3850598 3611260 3585132
2278.50 3811906 4764898 6622864 7011588 5097104 3669740
2281.39 3622146 3968534 4157762 4095694 3973926 4075796
2284.28 4389864 4743924 5056760 5326382 5595362 5921922
2287.18 6246674 6479356 6646662 6807038 6975116 7143548
2290.07 7247812 7252910 7250726 7268134 7061238 6655564
2292.96 6314250 6002936 5622990 5246184 4991174 4861726
2295.85 4651754 4292874 3954628 3786480 3747966 3645720
2298.75 3347562 2913212 2506048 2227824 2060132 2002584
2301.64 2004456 2001408 1941736 1896956 1881504 1849686
2304.53 1868918 1925806 1994746 2069502 2076978 2023404
2307.43 2016000 2093540 2146726 2088288 2050352 2114898
2310.32 2172984 2143686 2015152 1903060 1858906 1773382
2313.21 1672118 1689964 1741562 1764154 1677810 1520096
2316.10 1470844 1496698 1423242 1285336 1204012 1177736
2319.00 1084362 914674 874840 1018316 1030890 898886
2321.89 867254 942748 855488 614630 607548 837048
2324.78 839490 629544 707696 952496 859440 681226
2327.67 839820 1064786 922390 680956 837026 1069358
2330.57 886172 683120 884692 1048076 888892 926756
2333.46 1264830 1222456 827456 817938 1071412 943156
2336.35 722992 941696 1122960 891108 797162 982122
2339.24 911670 756948 917542 991228 800082 792438
2342.14 964148 956744 861400 935126 959792 837214
2345.03 858840 932894 822352 705656 755422 822754
2347.92 710902 550338 551990 700718 913842 1076382
2350.82 1024450 857746 908190 1194432 1338994 1305792
2353.71 1341886 1259312 1176314 1501084 1672468 1520930
2356.60 1614780 1624116 1524828 1809056 1928126 1836138
2359.49 1938648 1838726 1854812 2120262 2015522 1996982
2362.39 2142418 2090856 2287148 2434542 2345578 2347604
2365.28 2237606 2280890 2431740 2317118 2274808 2275744
2368.17 2282272 2335978 2299126 2344370 2321510 2190336
2371.06 2104638 2053644 2021894 1968018 2000360 2097194
2373.96 2194726 2289402 2331842 2415542 2550370 2656262
2376.85 2751560 2836426 2891746 2962440 3003348 3022608
2379.74 3066884 3144326 3200152 3157644 3061902 3005702
2382.64 2935852 2789820 2702226 2655202 2506328 2309034
2385.53 2180570 2198420 2343900 2484748 2551792 2591496
2388.42 2544334 2456314 2450022 2460982 2437174 2416206
2391.31 2399524 2319334 2286178 2340358 2350604 2352402
2394.21 2404530 2451232 2408480 2308214 2271654 2350242
2397.10 2420344 2406996 2320060 2201756 2129078 2185138
2399.99 2273196 2248138 2195874 2148704 2036534 1935840
2402.88 1880746 1870340 1895420 1891872 1837036 1742782
2405.78 1688842 1673148 1603638 1488834 1440872 1422584
2408.67 1329964 1290298 1332012 1331078 1302860 1284302
2411.56 1232626 1155386 1116738 1150938 1118252 1009674
2414.46 971412 986430 966408 992234 1082268 1084988
2417.35 1029960 1019784 973008 855366 788068 781584
2420.24 807574 883580 982284 1044906 1041504 996308
2423.13 974056 1016122 1089694 1120020 1027214 905268
2426.03 926058 1021222 1064696 1097140 1117844 1119154
2428.92 1100298 1060600 1064464 1097614 1105634 1101870
2431.81 1128048 1125294 1085236 1099732 1116562 1101692
2434.70 1112276 1185926 1245214 1228236 1236458 1240438
2437.60 1158680 1157676 1283860 1341762 1291304 1293738
2440.49 1356928 1403612 1470480 1567050 1585446 1548672
2443.38 1579720 1567770 1500084 1619912 1866280 1929250
2446.28 1904744 1983122 1989072 1940308 2050582 2275058
2449.17 2287610 2211622 2264932 2281436 2286746 2404390
2452.06 2565818 2613556 2617736 2608542 2547680 2568232
2454.95 2683908 2729576 2619354 2468290 2415624 2455488
2457.85 2454930 2438964 2404766 2347164 2345832 2297904
2460.74 2188290 2149562 2169466 2184304 2186542 2208028
2463.63 2201542 2122384 2117978 2220254 2293960 2331972
2466.52 2378872 2478948 2664724 2853788 2953262 3043226
2469.42 3203372 3377906 3552576 3740058 3777130 3665962
2472.31 3590810 3655098 3839064 3904592 3765126 3605614
2475.20 3543330 3733530 3926900 3635410 3160556 2980654
2478.10 3149520 3452084 3333104 2861338 2680354 2800220
2480.99 3027520 3090576 2747046 2440514 2436196 2624922
2483.88 2806894 2663504 2408288 2417232 2567488 2702462
2486.77 2709896 2559592 2389362 2341578 2409276 2411286
2489.67 2272246 2172134 2145132 2140320 2086548 1977126
2492.56 1961082 1992560 2011222 2019506 1905368 1789122
2495.45 1813754 1877738 1836210 1669298 1527502 1490296
2498.34 1549994 1607344 1560428 1458552 1382292 1317798
2501.24 1298176 1338344 1323112 1248850 1178650 1139236
2504.13 1126682 1137598 1184212 1203640 1155508 1123934
2507.02 1096514 1045712 1038782 1050292 1030860 1007520
2509.92 1028264 1061142 1015712 981466 1005784 996852
2512.81 1002900 1053626 1042002 977872 957336 985076
2515.70 972132 931452 908494 881874 873960 922426
2518.59 983578 958778 883054 876522 916162 946938
2521.49 973148 941528 847658 847496 919142 937886
2524.38 938536 937388 938106 1000446 1062990 1023620
2527.27 958446 973044 1004192 978084 949806 995956
2530.16 1051192 1090220 1115724 1090870 1038678 970008
2533.06 977578 1083850 1106788 1002298 912694 957630
2535.95 1058266 1117132 1173824 1174336 1158594 1247454
2538.84 1319192 1292334 1249980 1284408 1320932 1264280
2541.74 1212320 1206636 1190344 1214588 1332870 1434004
2544.63 1445214 1432918 1371340 1286186 1317310 1506870
2547.52 1597824 1422906 1141124 1031534 1183774 1460350
2550.41 1569758 1367640 1090168 1079330 1343820 1618180
2553.31 1541656 1156232 992982 1126766 1309594 1495448
2556.20 1532670 1449262 1422326 1369814 1381040 1503448
2559.09 1456978 1268812 1196604 1264926 1472914 1754330
2561.98 1915508 2029496 2073052 1895276 1719306 1656776
2564.88 1573256 1515124 1533038 1529260 1657814 2225300
2567.77 3094006 3814454 3771872 2868794 1953322 1544284
2570.66 1378280 1249630 1172684 1076100 923364 825482
2573.56 891858 1022220 1055092 979676 878346 807752
2576.45 823834 936400 990358 909932 843118 930520
2579.34 1130492 1250918 1106972 840048 764604 830322
2582.23 925026 1086854 1170658 998862 779748 736146
2585.13 796898 855602 856466 860992 847882 786872
2588.02 799956 861806 888812 929934 972010 910366
2590.91 852998 841776 797390 802228 858772 830646
2593.80 704240 636332 632440 585744 535520 560350
2596.70 571030 542520 561570 580928 578554 618716
2599.59 686584 664054 513378 402176 418086 463762
2602.48 453764 402418 331578 249820 237548 313928
2605.37 362032 341204 349154 375180 320558 246778
2608.27 226048 241956 298122 311946 252604 199492
2611.16 172650 183922 191808 192190 243608 312128
2614.05 330372 313300 308928 343272 322932 202938
2616.95 126484 105938 51676-5244 10448 47662
2619.84 74084 118062 71730-62144-93464-23100
2622.73-3342-17552-8700 12922-6590-74036
2625.62-121582-117746-73648-33230-42520-72234
2628.52-78058-43776-13604 3672 35850 47242
2631.41-13630-78016-83308-54626-20520-31666
2634.30-47560-56126-88956-130260-152992-143672
2637.19-153048-129724-74646-67876-100526-97742
2640.09-93940-183504-227428-171246-144408-129992
2642.98-14930 121768 100968-38982-102772-65288
2645.87-25364-4844-8494-25860-94294-164036
2648.77-164494-117468-111742-119160-67824-18266
2651.66-12482 11670 42370 6462-59226-95050
2654.55-86562-43004 23910 113808 181040 132554
2657.44 20794 7256 77778 56972-53714-91926
2660.34-21016 64056 113948 143456 155666 156318
2663.23 172786 201924 168708 79914 25088 14440
2666.12 102346 250022 321402 313430 244110 204982
2669.01 281158 335026 287712 211122 172308 242542
2671.91 319288 306850 311852 343528 373744 437094
2674.80 464986 389642 307898 321022 389074 471076
2677.69 593140 716924 798274 824124 806750 826658
2680.59 973308 1088968 1071414 1049908 1003164 991830
2683.48 1137478 1279196 1294124 1308362 1283080 1239550
2686.37 1375194 1611638 1753458 1765792 1688296 1707382
2689.26 1863892 1907892 1840826 1883268 2037354 2133060
2692.16 2139692 2120656 2168988 2341994 2463738 2438698
2695.05 2364526 2342626 2387646 2412044 2430308 2477058
2697.94 2426742 2323100 2232674 2228996 2447204 2741742
2700.83 2745940 2603284 2548228 2476046 2372076 2259356
2703.73 2125962 1989854 1953344 2006676 2052322 2085746
2706.62 2085786 2277408 2971096 3554304 3280858 2711520
2709.51 2427698 2331744 2310358 2330202 2440458 2575786
2712.41 2600114 2699174 2939386 3006318 2868638 2773694
2715.30 2758702 2794758 2829680 2802192 2695050 2573708
2718.19 2492036 2522518 2530184 2395142 2250616 2149490
2721.08 2066074 2059372 2062188 1937456 1760114 1622502
2723.98 1525806 1512858 1546212 1542156 1430068 1220528
2726.87 1076042 1031444 1031832 1042758 957586 853352
2729.76 848992 846136 792244 705806 613322 600380
2732.65 630836 609624 584452 614362 664126 672986
2735.55 599334 528702 521824 478982 432370 477368
2738.44 538190 539992 540764 615296 670224 662246
2741.33 647536 599436 518788 519264 572266 562132
2744.23 515486 444262 375376 362506 372688 352418
2747.12 360808 412978 370578 261962 258614 295804
2750.01 269126 266458 291644 283160 225820 134818
2752.90 97004 104744 108922 106770 134088 174318
2755.80 197520 187434 183404 155890 101396 125300
2758.69 157376 151140 174280 204320 220354 213248
2761.58 190452 200442 251556 270722 272058 328716
2764.47 339634 220664 129140 224312 373134 382560
2767.37 418978 511158 457598 383358 448520 547008
2770.26 553358 504114 403990 342066 487332 698718
2773.15 770114 767518 707394 636104 601112 577230
2776.05 651176 744140 677328 582138 629810 750496
2778.94 856774 956862 998592 881824 720580 694772
2781.83 793482 949838 1092200 1063294 869064 770510
2784.72 829854 960518 1163520 1240346 1039320 762928
2787.62 603094 532876 552878 622746 730866 841928
2790.51 792870 634774 510038 438328 422438 442738
2793.40 379274 287464 302950 361942 456594 553878
2796.29 595112 508876 396262 473988 565476 512046
2799.19 477152 429160 389830 539468 754758 954164
2802.08 1122482 1086760 967026 979968 1005544 1006206
2804.97 981842 905120 864516 867368 851674 813712
2807.87 779960 767584 753138 724994 692518 563514
2810.76 405882 328124 321430 381840 411998 281996
2813.65 91912 29558 54922 113146 216988 292332
2816.54 258142 149702 106030 130576 146400 122546
2819.44 122456 148414 147404 237238 341324 314080
2822.33 166352 29604 74936 232072 267202 184070
2825.22 114348 66708 54782 58244-96212-394436
2828.11-597068-469448-182680-33900 84112 127284
2831.01 96282 150404 136774 23352-20972 35506
2833.90 3866-110300-130106-157376-244056-285870
2836.79-373764-444980-386672-351832-354094-394650
2839.69-474648-485364-431172-492052-624134-610060
2842.58-566410-600534-615552-613970-585164-570908
2845.47-552732-506074-479508-479162-568538-670012
2848.36-679298-629474-560962-558368-586902-504988
2851.26-413844-456368-497924-438720-438156-526862
2854.15-564646-525982-485522-434800-374038-370682
2857.04-454182-519020-482276-416772-408588-479168
2859.93-572364-605000-458856-177636-812 12632
2862.83-57474-98166-110260-151390-185788-198578
2865.72-213488-186082-192128-197728-52968 131240
2868.61 178080 17766-56010 100612 222698 202534
2871.51 74060-34212-38000 25424 106440 225934
2874.40 338930 406024 557356 698400 630696 473744
2877.29 408432 406462 417152 453302 488394 517140
2880.18 501920 466202 563272 722584 696096 571398
2883.08 511874 519386 579774 596270 614202 701740
2885.97 789586 941742 1207142 1406070 1350120 1168696
2888.86 1093980 1153362 1179872 1073948 1005246 1148674
2891.75 1315966 1286932 1140182 1043144 1063170 1117978
2894.65 1146428 1114062 966090 821644 836656 980294
2897.54 1100462 1078798 954790 987538 1329154 1525598
2900.43 1278002 964632 773880 674142 801482 1150136
2903.32 1328620 1129950 894426 829270 866366 1028812
2906.22 1194356 1193776 1094782 1027978 1042290 1119004
2909.11 1129810 1002680 886776 805012 771492 917816
2912.00 1075676 1003108 883044 947232 1050192 1031190
2914.90 994952 1062186 1203744 1255276 1114466 995936
2917.79 1127156 1424486 1611414 1449178 1073338 798840
2920.68 621180 543376 544058 518958 515394 518314
2923.57 477542 444396 402582 344896 251326 156446
2926.47 170864 221612 261786 335008 293272 162922
2929.36 173326 283846 362924 356158 306576 329690
2932.25 379860 468992 502058 313414 190612 257054
2935.14 239982 189316 275608 328742 295368 342926
2938.04 440670 477378 421422 383640 357546 313450
2940.93 337156 339946 249696 167606 68424 51100
2943.82 193428 282126 220640 75692-19204 46470
2946.72 164992 175316 111390 59282 81564 158784
2949.61 181800 186438 166160 93794 73574 131586
2952.50 138252 87012 93302 147198 93538-70898
2955.39-126236-59370 28858 76852 53814 52618
2958.29 93944 150458 176282 121978 44838 35146
2961.18 107542 158318 161026 163768 174604 216734
2964.07 207634 75918 24616 114172 145328 112022
2966.96 149548 264430 350522 353002 300186 318192
2969.86 373256 442922 517624 393996 243996 228038
2972.75 298916 434556 447464 364700 392616 411998
2975.64 410786 474386 494828 453478 437850 523838
2978.54 687706 809128 806302 765520 799432 929960
2981.43 1183218 1331910 1218754 1134302 1249312 1482300
2984.32 1616888 1535456 1377320 1363142 1539110 1740344
2987.21 1853962 1856230 1758042 1724648 1747194 1697496
2990.11 1690092 1673316 1560992 1462432 1386730 1294246
2993.00 1319960 1435402 1428302 1332606 1238342 1175850
2995.89 1310938 1560676 1572184 1517588 1580326 1492746
2998.78 1233236 1066650 1096656 1251936 1353504 1449688
3001.68 1671460 1860158 1948974 2022164 2137512 2254332
3004.57 2364300 2578170 2765568 2704912 2599562 2679788
3007.46 2818488 2971648 3096868 2983048 2750788 2606270
3010.36 2608572 2847674 3152430 3117266 2796164 2575546
3013.25 2601940 2964002 3469718 3703528 3723954 3778438
3016.14 3911502 4163712 4567316 5022594 5366898 5602886
3019.03 5898446 6377362 7008018 7667208 8282474 8918038
3021.93 9574834 10265930 11068460 11947140 12796100 13659680
3024.82 14669710 15725800 16736810 17772530 18780950 19797540
3027.71 20833630 21842660 22900970 24010350 25075800 26052680
3030.60 26861370 27559820 28270600 29029530 29747740 30133420
3033.50 30233550 30230850 30146530 29967770 29547140 28686350
3036.39 27618960 26712380 25915000 25296440 24999780 24540660
3039.28 23580870 22688590 22440520 23389320 26909090 34476510
3042.18 42694290 42037890 32610250 24655100 21113560 19610960
3045.07 19306960 19992370 21421950 23340400 25259420 26826420
3047.96 28057770 29351390 31257300 33644360 34893510 34785950
3050.85 34741260 34707990 34417610 34183140 33998090 33698820
3053.75 33266060 32808490 32288330 31657480 30934460 29974260
3056.64 28749180 27493260 26279130 25082710 23906580 22723770
3059.53 21430910 20005780 18618420 17439710 16506200 15660480
3062.42 14789950 13714660 12486520 11461030 10569640 9822358
3065.32 9352068 8918490 8284632 7686532 7298052 7001286
3068.21 6825640 6798380 6671614 6410084 6196268 6040814
3071.10 5860528 5725434 5642852 5581012 5465010 5209568
3074.00 5016280 5090880 5134270 4940442 4672384 4446392
3076.89 4308928 4416666 4706702 4954084 5049634 4930270
3079.78 4725122 4640388 4528054 4355498 4366852 4561592
3082.67 4856322 5338608 5690014 5709148 5805164 6062026
3085.57 6422544 7031280 7367912 7129004 6991262 7227702
3088.46 7655918 8359904 8875448 8697200 8347720 8342226
3091.35 8727336 9679716 10501590 10022240 9126622 9138764
3094.24 9936040 11226540 12296230 11762440 10518170 10265980
3097.14 10889350 12066520 13439110 13364570 11994480 11496060
3100.03 12242830 13772830 15837440 16564060 15059450 14087700
3102.92 14821920 16499860 19020900 21154740 21002350 20596780
3105.82 22040460 24399850 26334010 27784350 27920290 27486910
3108.71 28349640 30416980 33662160 37509970 39272470 38877810
3111.60 39191930 40766020 42948500 45234960 46182940 45172820
3114.49 44144150 44107640 44200420 43746320 42551940 40758670
3117.39 38799680 36548960 33751890 31084220 28969180 26969320
3120.28 24881640 23187560 22683260 24453730 29893090 39282240
3123.17 47486050 43464230 27293220 14722470 12197430 14091930
3126.06 16768010 19736790 23291810 27308480 30654940 33024220
3128.96 35621760 38641740 40922740 42346630 43739940 44909160
3131.85 45048300 44578390 44359180 44421290 44832650 44727920
3134.74 42444540 39441590 37811770 37295910 37452120 36694990
3137.64 33259350 29323660 27321490 26947550 27314300 26662320
3140.53 23427530 19632990 17682100 17208470 17625840 17892500
3143.42 15975990 12848100 11281690 11352200 12233350 12923200
3146.31 11544550 8820324 7391564 7420490 8352512 9504416
3149.21 8732320 6542100 5584910 5925734 6875862 7921342
3152.10 7584012 6160716 5372364 5330354 5994848 6886806
3154.99 6391928 5032788 4596444 4965776 5709290 6194870
3157.88 5470576 4440562 4193060 4410050 4954936 5195906
3160.78 4573962 3986850 3929644 4169178 4575868 4345354
3163.67 3517074 3133712 3258836 3556656 3737876 3349336
3166.56 2843344 2745244 2867182 3036102 3038312 2640634
3169.46 2243502 2223274 2461314 2600654 2440930 2102088
3172.35 1831740 1804858 2048050 2177090 1925526 1591602
3175.24 1478856 1611272 1766946 1690556 1579018 1582970
3178.13 1603236 1569828 1441964 1270794 1194400 1148568
3181.03 1053672 929216 862570 887970 967140 922474
3183.92 697464 475160 401002 487818 620928 582274
3186.81 444304 397516 436842 467642 420686 220370
3189.70 20796 11068 84632 151124 179328 120976
3192.60 65162-43384-175464-195682-120778-66292
3195.49-83480-119744-160744-240454-285978-253140
3198.38-216666-185390-91486-20946-78512-255400
3201.27-405386-440242-403182-412164-413068-383462
3204.17-369910-295792-254288-317982-349994-417316
3207.06-494326-413170-304222-397564-451466-316972
3209.95-376976-582096-585488-456644-345984-387644
3212.85-430870-384308-383532-409914-335468-267198
3215.74-345334-424974-400300-447194-550416-467980
3218.63-277840-170360-137588-231248-411170-428862
3221.52-286404-184948-238794-372096-426922-397524
3224.42-292790-161072-100676-162912-323160-508268
3227.31-653958-728930-650092-488224-401954-264824
3230.20 63632 305174 221176-6684-144962-184948
3233.09-175674-215198-274568-250072-173230-156272
3235.99-194988-293002-387562-384142-402158-474128
3238.88-595056-697942-683500-599814-532330-492832
3241.77-372438-336078-439614-560370-638852-588798
3244.67-525350-557518-633428-716264-764494-801820
3247.56-831228-752638-576926-464830-536106-633076
3250.45-634274-686934-664550-471922-434842-561124
3253.34-586004-553044-616260-682394-677354-611812
3256.24-566510-600284-583780-455276-343862-327148
3259.13-346548-346322-302638-295408-372066-458032
3262.02-448074-362042-269070-157560-121648-245620
3264.91-336818-347014-492154-657052-626312-531578
3267.81-510364-475082-353748-361870-473012-454306
3270.70-320522-218130-264568-389062-431820-413224
3273.59-435530-499234-502642-427518-357042-407266
3276.49-466312-429742-430810-406326-291314-254968
3279.38-268226-227708-241250-333364-444972-520514
3282.27-502794-437924-366332-240928-133648-137128
3285.16-163252-150256-180792-294152-372556-362308
3288.06-357800-370620-351048-280012-244940-352738
3290.95-461466-395012-312376-333094-242114-211108
3293.84-335096-354582-302306-228172-108132-24406
3296.73 4082-54126-125856-11356 80858 26274
3299.63 29472-12878-130098-118742 13112 30486
3302.52-80062-189810-276796-318516-313198-298190
3305.41-313426-272474-136064-44858 9736 102940
3308.31 123138 100878 138590 133532 82774 188810
3311.20 400526 413932 333434 348582 417428 495202
3314.09 546552 573350 640080 732904 823806 901240
3316.98 969144 1011422 1047512 1104566 1107074 1142596
3319.88 1286000 1325238 1176192 1073552 1094050 1127632
3322.77 1186616 1218962 1219578 1244688 1165392 1021656
3325.66 1001178 1149682 1262856 1145590 886370 797866
3328.55 954034 962798 756664 539270 403910 518578
3331.45 905420 1206944 1492360 1690156 1494756 1254190
3334.34 1158840 1109002 1129096 1338462 1588102 1600308
3337.23 1578572 1711268 1874532 2066178 2209282 2235176
3340.13 2240082 2262188 2306006 2289602 2195666 2172984
3343.02 2142246 1991492 1835016 1742512 1696674 1726618
3345.91 1716956 1537042 1314288 1134860 893692 679568
3348.80 620038 639340 629370 599822 625672 674162
3351.70 636898 531978 372076 228322 196498 237404
3354.59 281086 274964 240222 310344 382352 378216
3357.48 502480 706860 826760 834068 752686 648940
3360.37 643520 782414 908052 839804 719968 629122
3363.27 543030 527074 557550 580266 508934 308480
3366.16 205742 279460 295926 206310 125224 18484
3369.05-22280 129758 282636 301858 262116 222436
3371.95 140126 41666 122140 279592 225152 63412
3374.84-33996-39418 84656 122682-15906-67108
3377.73-37980-29616-16108-166666-305432-138960
3380.62 73452 142466 101622-13610-56070-70204
3383.52-152208-197422-182724-159904-148278-181264
3386.41-231284-267256-361206-475612-496668-450798
3389.30-336994-318472-498024-556542-414012-110568
3392.19 198562 190332-46698-219722-230290-122502
3395.09-93476-282166-415486-332372-272380-371196
3397.98-443462-462290-583404-598098-454824-373232
3400.87-267362-99088-33284-79298-93904-157274
3403.77-282352-320374-321128-374540-401094-437220
3406.66-624306-746064-575672-295956-52232 11964
3409.55-194096-412990-438120-403926-376314-269436
3412.44-102338-36348-200220-368642-294186-175426
3415.34-251270-393776-360632-246912-255552-280324
3418.23-189054-91174-106358-99602-56802-44910
3421.12 16046-31972-158776-149322-110042-85890
3424.01-62868-184208-253838-168378-193490-297580
3426.91-210972-114400-158354-104696-22604-91724
3429.80-241314-261308-98854 38748 51282-17434
3432.69-56280-119306-292042-321612-137834-31672
3435.59-68348-138874-250732-330912-188482 87372
3438.48 194340 12502-198546-178210-142578-221380
3441.37-160384 80998 264320 188506-19518-137424
3444.26-160974-220154-327934-187006 182774 249920
3447.16-6070-165300-153656-82022 46518 151230
3450.05 81988-49314-31434 85948 115594 59170
3452.94 47512 67758 160702 265226 320598 329738
3455.83 297554 297902 358062 348704 114596-66918
3458.73-47686-59786-94948-17798 130522 108530
3461.62 33918 117572 125088 12482-83802-167274
3464.51-172030-162500-273742-275948-103190-43908
3467.40-86776-215644-230498 12036 214876 227104
3470.30 172142 101360 50700-33418-130176-135270
3473.19-154564-160812-83948 11464 134328 238264
3476.08 210340 82198-5668 13400 15870-50516
3478.98-65852-30626-28456-83706-105312 11974
3481.87 172662 255630 306024 337110 239400 24604
3484.76-38126 59264 111102 39148 17070 80898
3487.65 15188-132902-70362 104694 144894 111004
3490.55 116878 152986 84762-81796-121258 121264
3493.44 386838 449796 488220 518048 450036 362064
3496.33 245476 222752 337690 348342 331994 388738
3499.22 334404 233758 290628 386522 354880 369456
3502.12 595124 913524 1037116 886292 676690 432920
3505.01 185204 75368 130180 193458 179542 235408
3507.90 371280 552932 731338 642904 485566 490750
3510.80 435726 302892 242224 298210 504636 793704
3513.69 926622 793508 609122 592696 789752 961622
3516.58 929026 901186 975860 1000552 917782 805806
3519.47 676408 580740 671408 818676 796016 723070
3522.37 776638 851898 844230 763172 734598 830722
3525.26 907086 849798 913194 1045496 938412 748910
3528.15 744172 661030 400396 394586 553622 490300
3531.04 354948 348438 415856 577226 803804 802414
3533.94 474796 206578 197056 429090 739412 718068
3536.83 540700 484956 430214 370122 348324 418908
3539.72 555206 580560 507570 482572 605702 729562
3542.62 782208 811754 764192 722302 930986 1008690
3545.51 749302 806712 1073766 866108 612260 596980
3548.40 441944 312796 316680 201048 75038 257626
3551.29 644636 736702 440960 298078 307554 120946
3554.19-74342-28530 115608 152596 120798 76248
3557.08 15574 6416 25400-60458 13204 382150
3559.97 439482 117622-10334 108574 201578 313130
3562.86 519384 525956 321368 348588 759958 1315506
3565.76 1734716 1693840 1440054 1932930 2294076 1451298
3568.65 587802 386968 467366 496570 350996 145482
3571.54 94942 170896 236466 279682 283344 250916
3574.44 173744 16898-56548 79116 301700 294746
3577.33 58496-98934 21672 290798 474486 429304
3580.22 159628 37424 183766 294934 374266 504164
3583.11 449566 195062 144252 334986 593030 1403698
3586.01 2407908 2042996 1058986 1307514 2663172 2830464
3588.90 1406500 531334 378798 206116 84692 158114
3591.79 434042 936610 1199536 855272 470266 691322
3594.68 1215732 1194014 832028 630358 546280 624120
3597.58 724374 679296 609742 667068 761980 923662
3600.47 1016948 717272 387378 395930 517756 503718
3603.36 481666 534568 489016 407740 461680 845346
3606.26 1540966 1672064 1057462 921586 2371708 4251146
3609.15 3508920 1493244 680008 625760 1073892 2316218
3612.04 3389528 2646288 1266682 1071014 1600966 1632720
3614.93 1206998 896528 801538 1060538 1898188 2404736
3617.83 1871116 1917890 3716440 4447088 2604372 1275206
3620.72 1156464 935282 718564 756604 833822 783506
3623.61 655198 717770 958730 1226418 1431476 1373574
3626.50 1235532 2057804 4779580 6655330 6520214 7391570
3629.40 6421160 3174932 1632916 1358044 1350930 1465668
3632.29 1515132 1961362 2519426 2123170 1494444 1463432
3635.18 1526632 1484138 1450240 1503602 1722316 1818330
3638.08 1613568 1468240 1520198 1549690 1470110 1463164
3640.97 1694094 1962092 1964934 1761358 1571676 1520042
3643.86 1642526 1733614 1774318 2056174 2709570 3772728
3646.75 4822122 4461450 3601208 5516228 8624368 7539500
3649.65 5038252 5170456 5629698 4684166 3015094 2134358
3652.54 1915914 1726186 1664102 1812232 2140048 3162170
3655.43 5568342 6714388 4638392 2623156 2080634 2002956
3658.32 1974426 1985808 2052766 2087112 2046720 1972154
3661.22 1858184 1689696 1587752 1589598 1530908 1454864
3664.11 1401834 1328608 1347130 1421310 1251902 1023014
3667.00 1115818 1906834 3604888 4312278 3195036 3778002
3669.90 7875702 9589640 5591072 2088496 1304554 1305318
3672.79 1509026 2137730 3818868 6156648 7465066 9084388
3675.68 9066602 5018276 1979822 1366714 1115266 1164130
3678.57 1798400 2126710 1515020 841452 490880 406818
3681.47 475388 511680 500056 439626 367476 391798
3684.36 340732 182744 78626 179134 479438 1094336
3687.25 4079302 9331680 9385732 4121142 1138426 1073762
3690.14 2232736 3715246 3278904 1454352 581738 453676
3693.04 462572 523130 511336 363842 301212 403750
3695.93 421024 293140 265880 312038 298428 274422
3698.82 261018 186884 153672 436224 1531304 2698500
3701.72 2192766 879884 318984 268998 237798 104932
3704.61 85270 186726 173568 111356 153602 130734
3707.50 155680 580670 1923954 2879628 1872196 774402
3710.39 879718 2201140 5361416 6587006 3451964 696978
3713.29 122216 279586 497520 282112-7786-40676
3716.18-47452-20622 96278 322504 744730 863310
3719.07 377366 42308 40038 108070 609812 1567098
3721.96 1694238 788210 102834 39756 408472 834450
3724.86 764550 822778 1720086 1937600 872940 138728
3727.75-43950-117442-47532-10626-65816 78996
3730.64 790472 3183368 5565060 4118174 1209698 374392
3733.54 1207672 2729656 3682968 3188076 2884278 4723622
3736.43 5002450 2231470 880874 1078342 744366 220374
3739.32 9458 126394 718798 1198492 847590 351336
3742.21 457664 1471924 4846378 11563810 15672270 10756480
3745.11 3496372 641854 274798 407658 640462 817044
3748.00 2380456 7337874 10495660 6578358 1951460 1016196
3750.89 2989182 8373950 10818150 5866378 1217200 172642
3753.78 58656 18948 84972 392396 1172424 1538424
3756.68 824874 153156 46250 270520 1073674 2202746
3759.57 2173714 868844 21868-164820-207730-116884
3762.46 16922 48802 18212-62934 183448 1224122
3765.35 1851892 1006716 81054-193746-148878 11478
3768.25 217170 1188642 2927934 2898826 1111030 51330
3771.14-189934-330418-378788-320864-253678-267680
3774.03-269032-262390-240874-103606-27290-88190
3776.93-74190-78456-93312 539096 1714396 1681686
3779.82 459520-253070-288362-178566-172628-231230
3782.71-243984-189350 50080 340594 268420 29162
3785.60-103890-226936-360316-404250-327956-226194
3788.50-183206-254938-398614-352638-134408-89376
3791.39-262624-383170-333480-277616-270056-243898
3794.28-193170 55278 828966 2058284 2147298 1083728
3797.17 462448 182354 1220 19990 143206 596994
3800.07 2574342 7430142 9783424 5557212 1754356 1033218
3802.96 508324 67886 5330 58128 273354 770372
3805.85 2809350 6056922 5661336 2093652 231920-27852
3808.75-166434-289886-170394-45634-48628-41632
3811.64 56038 105210 62116 22902 141498 402698
3814.53 1356378 5288030 9977486 8053008 2724740 608372
3817.42 510030 634858 673364 773040 1486370 3356938
3820.32 4975732 5451460 5297078 3216324 991664 472244
3823.21 587788 756550 718950 651688 831892 1351600
3826.10 2108334 2016154 1205268 905220 869682 723812
3828.99 678026 765404 961464 1829186 3495022 3827636
3831.89 2429814 1581284 1541686 1707864 2627570 4276774
3834.78 4177984 2448928 1762146 2485470 5933590 11390520
3837.67 10909480 5223198 2457010 2610732 3004730 3476496
3840.57 3896936 3164982 2225460 2013156 2491568 3467922
3843.46 3495464 2312470 1459654 1202436 1182000 1297442
3846.35 1396086 1391582 1387178 1388966 1509828 1836946
3849.24 2135044 2087034 1965862 3238762 7584696 10072550
3852.14 6793578 5155102 10567430 17181850 15128630 7173820
3855.03 2786746 2144002 2486658 3111946 3242840 2776486
3857.92 2417008 2328612 2302906 2139438 1995674 2151474
3860.81 3031534 3763512 3001070 1932112 1668446 1742476
3863.71 2330414 4138570 5121348 3208674 1212886 693918
3866.60 652048 650534 799758 1541990 2970756 4998544
3869.49 7047486 5676954 2229296 801004 504668 294092
3872.39 343580 913302 1992870 2562446 1701074 624994
3875.28 321466 230602 120982 129360 298778 435984
3878.17 486590 658950 1642090 3036474 3037872 1974236
3881.06 1095618 610532 509112 680904 799038 683684
3883.96 618932 1795280 4839684 5897534 3349174 1202402
3886.85 692794 559654 543044 636418 557074 389232
3889.74 703930 2417234 4443640 3763892 1689790 828742
3892.63 756990 909496 994682 864320 777944 801108
3895.53 886386 890520 789508 860874 1074426 1537808
3898.42 3013812 4107242 2968902 1573746 1574740 3119880
3901.31 4649694 3763318 2105636 1900896 3482350 4936702
3904.21 3749000 1988892 1670870 1682498 1323476 1076074
3907.10 1112212 1209368 1259792 1231416 1071516 821178
3909.99 703992 750886 751388 645826 581476 585668
3912.88 690242 821154 765938 738130 938236 1237872
3915.78 1503888 1957380 2483134 2111652 1440536 1270780
3918.67 1383890 1973034 2382508 1845466 1264924 1105362
3921.56 1005240 1015358 1225746 1474872 1549176 1622842
3924.45 1877134 1795046 1313538 907540 676910 698378
3927.35 781918 783260 888482 1061864 1013202 868194
3930.24 767926 651800 863778 1430880 1551474 1070552
3933.13 784098 793224 713744 490410 327356 258926
3936.03 233212 301006 505412 717414 639038 329214
3938.92 248578 393462 465448 449282 413372 455270
3941.81 862404 1211060 926196 585726 569800 580738
3944.70 490020 385984 344082 429072 633444 779976
3947.60 748274 579282 548566 917684 1126686 748218
3950.49 372686 407536 554426 510660 401470 386652
3953.38 448448 522698 563820 537840 488118 499002
3956.27 570024 551592 463522 445110 463536 511996
3959.17 551984 566570 636660 771982 899890 887688
3962.06 693928 451892 332326 380388 478590 568860
3964.95 579098 520268 514364 563674 699958 883568
3967.85 939790 938672 975500 988872 975738 911858
3970.74 902078 1025116 1094394 1073786 1046278 1066556
3973.63 1092962 1240162 1558828
##END=
