##TITLE=1,2-Dichloroethane
##JCAMP-DX=4.24
##DATA TYPE=INFRARED SPECTRUM
##CLASS=IUPAC A
##ORIGIN=NIST, Analytical Chemistry Division, 301-975-3108
##OWNER=COPYRIGHT (C) 2001 by the U.S. Secretary of Commerce
##DATE=01/06/01
##$SPECTRA VERSION=1.10
##$UNCERTAINTY IN Y=2.1 % relative (B=1.10E-04,C=7.45E-10,D=1.46E-14)
##CAS NAME=1,2-Dichloroethane
##CAS REGISTRY NO=107-06-2
##MOLFORM=Cl C H2 C H2 Cl
##MP=-35.36 C
##BP=83.47 C
##$NIST SOURCE=QUANT-IR
##SPECTROMETER/DATA SYSTEM=IFS66V (Bruker)
##INSTRUMENT PARAMETERS=KBr Beam Splitter; MCT Detector; Multipass cell
##STATE=gas
##SAMPLE DESCRIPTION=1,2-Dichloroethane Primary Gas Standard
##PRESSURE=101.3 Pa
##TEMPERATURE=23 C
##SAMPLING PROCEDURE=1 L/min Flow
##RESOLUTION=1.9290
##DATA PROCESSING=3-Term B-H Apodization
##XUNITS=cm-1
##YUNITS=(micromol/mol)-1m-1 (base 10)
##XFACTOR=1.0
##YFACTOR=9.0949E-13
##DELTAX=0.9645
##FIRSTX=575.652
##LASTX=3974.605
##FIRSTY=5.92E-07
##MAXX=3973.64
##MINX=575.65
##MAXY=.0005689
##MINY=-8.02E-07
##NPOINTS=3526
##XYDATA=(X++(Y..Y))
575.65 651674 923120 997985 995476 959080 653480
580.47 370805 421311 602435 559586 439314 462840
586.26 431131 316276 187959 234836 455128 608383
592.04 551908 321103 132642 57404 80934 88908
597.83 100076 75049-32518-80681-147296-158299
603.62-31690 31275 38603 34501-77819-223812
609.40-141903 15730-76495-100539 102201 162665
615.19 111311 76951-507-43676-63795-130717
620.97-111987 41880 212868 232879 166212 251609
626.76 438365 512376 502239 553761 625073 704563
632.54 798021 812370 866566 1065499 1270513 1398634
638.33 1630691 1949746 2219932 2557367 2940091 3296842
644.11 3656964 4055365 4530256 5077743 5763599 6504333
649.90 7252475 8051618 8836358 9577511 10402979 11399577
655.68 12515140 13579264 14558969 15481088 16250352 16800674
661.47 17176825 17318870 17142683 16632951 15805366 14879800
667.25 14697284 15462506 16586814 18064100 20019476 22054120
673.04 23743952 24756156 25254896 25909242 26987199 28243416
678.83 29702843 31545929 33864089 36573954 39384261 41896516
684.61 43683804 44367517 44055184 42988570 40977342 39843328
690.40 40909234 41786592 43913469 43606835 37660106 34462676
696.18 36782274 40842753 44028532 45426454 45201670 44153128
701.97 43186896 43084404 44538964 48194867 54484072 63845269
707.75 76638571 93171285 113704429 138756053 168727569 203564897
713.54 243305632 287787876 336210454 387516522 439351189 488403843
719.32 531931708 567668735 592646588 605253393 606270904 598979359
725.11 587605867 577418950 575437683 580328336 595456474 618025911
730.89 625612891 617227904 592937275 537297324 451358023 350310756
736.68 250188633 163387100 96902680 52164990 26143823 13478891
742.47 8659825 7334954 7043395 6943578 6916702 6927928
748.25 6940510 6963004 7013279 7077492 7135133 7201798
754.04 7322303 7446229 7538748 7570307 7575106 7606323
759.82 7595158 7591353 7721297 7879802 7977891 8060562
765.61 8019663 7773611 7593901 7682798 8143898 8830756
771.39 8925353 8040942 7129314 6716681 6477758 6235089
777.18 5975558 5779245 5705113 5637084 5480910 5318101
782.96 5241478 5241738 5189809 5011934 4762056 4559768
788.75 4401246 4220985 4046122 3875358 3703993 3584434
794.53 3498912 3371110 3178851 2972212 2853758 2753952
800.32 2563824 2416926 2355936 2275845 2172381 2105810
806.11 2049789 1983953 1928176 1873588 1836471 1818662
811.89 1731866 1619479 1586305 1601893 1615158 1646330
817.68 1686239 1696945 1725636 1837915 1953301 1987186
823.46 1988154 2043396 2173331 2291802 2358593 2376403
829.25 2381224 2399567 2378555 2286402 2187225 2120937
835.03 2081488 2026082 1945240 1871633 1858246 1897268
840.82 1882191 1740960 1510417 1310734 1191344 1067661
846.60 892481 756027 693535 670865 671276 653172
852.39 632475 655257 726208 805909 867525 839758
858.17 777300 833398 942502 1039637 1172316 1276928
863.96 1357501 1521589 1788679 2058984 2271576 2498165
869.75 2834601 3323869 3953109 4735890 5760053 7107691
875.53 8769369 10681303 12749784 14939827 17289197 19640921
881.32 21715417 23367169 24502277 24602080 23557527 22601916
887.10 23093177 24994311 26014509 23636647 19899853 18524764
892.89 19587824 21447560 22913911 23376603 22753850 21270610
898.67 19201907 16811247 14366219 12031698 9877868 8032913
904.46 6583117 5460100 4545930 3794799 3246060 2915406
910.24 2684318 2469896 2283999 2130294 2043798 2014385
916.03 1966728 1960855 2045727 2168452 2270351 2399067
921.81 2626844 2874274 3084722 3347255 3711508 4127004
927.60 4566529 5012115 5441163 5895808 6412801 6975314
933.39 7526369 8050269 8557196 9037760 9486143 9861467
939.17 10098055 10201523 10183928 10020316 9713504 9305912
944.96 8832740 8426541 8333749 8651574 9318721 10078309
950.74 10605505 10766889 10611781 10340360 10023077 9588618
956.53 8975913 8215022 7454016 6742999 6062326 5469891
962.31 4991855 4569945 4172086 3833795 3545205 3256809
968.10 2997065 2761196 2528543 2368988 2243059 2089336
973.88 1984869 1956565 1986424 2101353 2267103 2438468
979.67 2594097 2723898 2830802 2923603 3033339 3090963
985.45 3062309 3049925 3121449 3243209 3362492 3503366
991.24 3640845 3684696 3636193 3513308 3322095 3095167
997.03 2850235 2615438 2415568 2215011 1993598 1835436
1002.81 1774411 1755694 1756652 1758222 1778604 1851727
1008.60 1964467 2108182 2274671 2437114 2573209 2755651
1014.38 3049078 3353868 3585959 3793895 3994066 4173209
1020.17 4380954 4620400 4771453 4856186 4984377 5105908
1025.95 5154061 5093339 4945623 4732096 4471073 4187854
1031.74 3945916 3795774 3606465 3265657 2890715 2573321
1037.52 2257455 1953636 1725601 1570345 1430629 1301111
1043.31 1204377 1104541 978357 869781 807620 741943
1049.09 664930 618353 552744 451136 384859 347977
1054.88 295248 237101 217589 241833 254450 210737
1060.67 141949 97996 99885 108539 110838 106185
1066.45 88797 95434 106021 95183 101429 109556
1072.24 93268 88374 114320 154174 204821 266767
1078.02 306657 322373 361847 420220 468241 497803
1083.81 517126 558403 597305 633380 709992 807363
1089.59 901615 947852 962638 1059256 1200738 1242939
1095.38 1239641 1314682 1424302 1512785 1605188 1690741
1101.16 1757215 1832602 1927448 2030360 2118250 2191554
1106.95 2251118 2323561 2414441 2466844 2502904 2557192
1112.73 2617282 2651506 2648275 2641067 2683451 2761046
1118.52 2833394 3090096 3866192 4757699 4845174 4232668
1124.31 3597825 3230123 3109139 3119273 3151389 3187939
1130.09 3226499 3250178 3249614 3296755 3374538 3365415
1135.88 3306042 3280867 3255475 3182485 3071491 3006871
1141.66 3007706 2998599 3059205 3224474 3180002 2908425
1147.45 2768631 2759552 2712870 2594344 2474339 2361774
1153.23 2250919 2189974 2157424 2095600 2049415 2014257
1159.02 1920429 1780264 1660406 1572649 1495929 1408338
1164.80 1322300 1257499 1205857 1120320 1034188 986593
1170.59 943891 890506 878128 908081 937660 933834
1176.37 908777 862095 846071 893704 958802 1011559
1182.16 1074480 1144171 1224851 1305852 1390939 1480823
1187.95 1589272 1739053 1939240 2142123 2323961 2495986
1193.73 2670933 2838133 3046078 3322448 3617384 3883301
1199.52 4171722 4494042 4824620 5136698 5473759 5878977
1205.30 6283616 6661669 7074282 7557260 8082792 8660046
1211.09 9388109 10341433 11650093 13460100 15987911 19525064
1216.87 24594403 31682099 41312654 54026873 70178218 89601610
1222.66 111634970 134689941 156344396 173410917 182741346 181612482
1228.44 168719842 150841327 141107190 138166782 138365450 148678409
1234.23 166977151 184646012 195632409 196408750 186001345 166562679
1240.01 141778657 115436956 90535696 69008620 51659338 38499146
1245.80 28987197 22374809 17943730 15065509 13132364 11899641
1251.59 11001625 10291536 9718651 9213347 8794607 8414833
1257.37 7993263 7615255 7296128 6981395 6693386 6436149
1263.16 6165485 5935222 5710536 5523497 5406982 5328869
1268.94 5323590 5465071 5753789 6247615 6999712 8127511
1274.73 9745526 11961131 14875916 18549066 22910492 27829105
1280.51 33075525 38270693 42854869 46191281 47771702 47337396
1286.30 44635963 40137213 36401275 39510067 51665309 55441425
1292.08 40735743 29934586 33925368 42503708 49286434 52613662
1297.87 52379058 49360802 44619419 39171791 33752301 28824909
1303.65 24653179 21312552 18708566 16743758 15238576 14005474
1309.44 12922450 11889440 10991016 10527817 10733853 11623249
1315.23 12842915 13844457 14308094 14247319 13766601 13055980
1321.01 12314596 11601893 10944245 10366632 9842423 9376053
1326.80 8945077 8513796 8056975 7602352 7172513 6741225
1332.58 6299995 5904239 5561800 5228057 4913696 4640784
1338.37 4402840 4235924 4095766 3944035 3799022 3683403
1344.15 3575076 3481290 3390249 3290685 3198331 3119640
1349.94 3013782 2919645 2939164 3066821 3177415 3233228
1355.72 3212377 3096418 2984707 2949965 2893392 2783066
1361.51 2688861 2622460 2529144 2446651 2428100 2392012
1367.29 2252552 2092540 1941163 1763486 1572216 1443510
1373.08 1418668 1431330 1416872 1426025 1418846 1384923
1378.87 1354925 1298766 1235410 1223390 1221740 1200527
1384.65 1134191 1018757 954242 1018843 1079791 1040622
1390.44 969808 943793 888334 807418 796351 853624
1396.22 890803 891123 909803 1012456 1113140 1160179
1402.01 1207119 1275822 1369523 1490945 1608330 1774919
1407.79 1988191 2202766 2398563 2640871 2914104 3178160
1413.58 3466305 3813793 4170946 4543280 4929218 5455299
1419.36 6222292 7106029 8000246 8969358 10092937 11431578
1425.15 12871516 14320440 15697709 16937082 17987401 18839021
1430.93 19369574 19583706 20007762 21671465 26043154 29980294
1436.72 27227535 23107697 23745240 25734626 26936221 27757918
1442.51 28290617 28557037 28662637 28649679 28676776 29072656
1448.29 30089124 31618492 33436162 35322153 36943506 37864661
1454.08 37484281 35495359 32076117 28067986 24558568 22319801
1459.86 22739223 26742733 31703207 34742541 35533127 34764056
1465.65 32868940 30158998 27214752 24316833 21720880 19478276
1471.43 17688733 16361959 15421916 14624046 13920678 13348278
1477.22 12838002 12302233 11767613 11209194 10656496 10118052
1483.00 9597258 9092463 8574199 8006335 7476570 6984628
1488.79 6489584 6054021 5701390 5334694 4930721 4489621
1494.57 3989390 3598155 3372641 3093656 2846286 2648520
1500.36 2414168 2182473 1967446 1671353 1273904 931757
1506.15 816622 933428 1071533 1080743 1021956 985213
1511.93 1045478 1147950 1239377 1340336 1478678 1699584
1517.72 1942740 2031284 1998535 2028200 2160567 2270759
1523.50 2283088 2307564 2467280 2666162 2837837 2970690
1529.29 3045951 3009781 2863021 2670599 2532430 2431806
1535.07 2283076 2073460 1715995 1274502 1065227 1020964
1540.86 953170 948414 928409 794491 733717 754498
1546.64 718640 603089 481401 426004 406166 347168
1552.43 221096 120250 167099 175946-65041-372659
1558.21-442239-294399-16245 184204 229582 214866
1564.00 190683 202318 227909 205642 119473 73266
1569.79 152034 233160 251428 237523 126438-127245
1575.57-178501 63907 240849 274020 260177 240874
1581.36 235980 237865 235207 203466 155844 122492
1587.14 108926 108810 101359 88648 82788 53083
1592.93 5857-5685 24158 25262-4795-13414
1598.71-754-2389-10670-31640-46591-28936
1604.50-13500-17371-14460-17434-20492 943
1610.28 21650 40702 67528 47968-68603-301285
1616.07-356467-146456-12192 1600 9692 1515
1621.85-79137-130288-65296-33473-92596-131971
1627.64-81978-25937-19009-29767-40178-102122
1633.43-309673-495316-393006-208610-121111-61396
1639.21-27286-34974-69981-70921-83763-226842
1645.00-359411-315189-214623-137994-91850-189991
1650.78-557729-905761-794825-427030-179595-67985
1656.57-18249-6979-6146 8729-17851-99800
1662.35-95831-11792 40048 62520 68961-5481
1668.14-101272-44578 64943 133310 187621 141699
1673.92 8651 9141 151747 242347 249718 228759
1679.71 224440 208117 121109-105193-311815-158063
1685.49 140858 236593 228808 204539 183627 186190
1691.28 194199 198944 95406-214877-324668-67818
1697.07 75667-120087-402246-338766-45980 82599
1702.85 58784 30603 26977 49390 113077 148304
1708.64 145024 154832 180062 170192 108977 33104
1714.42 1824-89581-227839-156902 34267 137779
1720.21 158766 147131 144081 165967 184261 174798
1725.99 161171 147628 110948 65396 56766 8909
1731.78-176983-366823-333662-131202-2998 4028
1737.56-63361-164133-149475-52382-24675-35992
1743.35-23823-17980-27148-35008-54652-61303
1749.13-97520-160052-79832 52442 81673 57115
1754.92 14846-17435 14316 77039 89849 9958
1760.71-59901-20563 48182 90006 121402 97321
1766.49 19585-9526 28199 23368-71235-184646
1772.28-137402 18894 85735 98404 107840 91916
1778.06 82379 85625 88240 115759 142077 113246
1783.85 75779 93663 132046 130491 104826 79005
1789.63 31350-51639-109445-61693 2606 10098
1795.42-3161-22750-44851-80959-103382-99299
1801.20-84745-78671-79698-67979-43545-45897
1806.99-62840-72694-76870-66018-56843-66834
1812.77-65386-39286-14047-21280-31046-30830
1818.56-17842 172-280 9653 18141-25105
1824.35-53410-23749-3419-14275-55062-73361
1830.13-20339 20435 17523 30931 51401 38204
1835.92 20419 19251 15179 4520 4662 5985
1841.70-26808-103163-99689 1930 59635 71532
1847.49 90074 93800 72387 25837-12352-10554
1853.27 3164-6183-31597-27443 6682 31190
1859.06 40624 38012 29737 5242-25166-30882
1864.84-27568-42239-66003-86232-75668-30492
1870.63-9538-22063-14806 612 11713 38187
1876.41 49755 32340 20289 24146 10151-12746
1882.20-8006 13560 43470 47492 37784 38521
1887.99 28232 39393 81787 109301 105010 79867
1893.77 76499 94583 93954 84383 96502 125337
1899.56 141911 119233 84392 70160 69181 64801
1905.34 58388 53169 51886 41404 13037-12765
1911.13-15258 1880 3728-12787-30573-68094
1916.91-94764-62968-19261-19668-50767-83021
1922.70-89175-80432-87676-88078-60202-34545
1928.48-23028-33663-55573-57752-37784-36470
1934.27-51045-57367-54642-50903-45424-50235
1940.05-68287-86617-95998-92260-75346-57797
1945.84-42462-32888-42169-54808-55449-58311
1951.63-61340-57887-59262-75671-76666-69392
1957.41-64669-50302-43715-53886-57630-44852
1963.20-37736-48255-59882-57171-35191-8473
1968.98 6321 15179 5481-19564-13956 14350
1974.77 34780 22449-6982-2046 24320 34947
1980.55 34768 27893 36823 42570 17318 3770
1986.34 24167 39033 44484 65160 81723 78186
1992.12 77682 73376 69084 84372 83987 45109
1997.91 22223 36900 68218 95399 99920 96856
2003.69 118683 146415 154147 143181 136300 153589
2009.48 190243 235886 292522 341836 379167 421907
2015.27 497387 601619 709654 802008 900732 1043900
2021.05 1211817 1370571 1521048 1660972 1798116 1925306
2026.84 2013936 2070676 2138473 2195479 2235123 2265880
2032.62 2284713 2281578 2230013 2174709 2130156 2038746
2038.41 1904003 1763505 1634051 1491581 1324574 1140717
2044.19 963690 816377 690429 564155 455357 377946
2049.98 321815 296456 277415 248539 225561 210315
2055.76 207490 192347 164813 155142 154856 135757
2061.55 109170 97036 93904 96530 102050 89069
2067.33 64788 52747 44346 42328 55004 68316
2073.12 74978 69949 56351 41574 39114 45024
2078.91 53468 57185 55605 60351 65304 70467
2084.69 83775 88344 85409 87452 103428 127635
2090.48 134448 129127 152315 187793 197538 203899
2096.26 244775 284731 292221 294343 304426 318608
2102.05 347419 366603 369334 366526 368043 377659
2107.83 398916 402115 381285 383587 410300 437594
2113.62 465046 489977 475585 437754 414126 375118
2119.40 327711 304787 305475 305002 290953 274955
2125.19 262845 257781 258082 263930 290782 333486
2130.97 352154 312657 252700 208544 186685 181718
2136.76 177583 175242 191345 197468 163853 126120
2142.55 128194 158182 181583 161880 132829 131090
2148.33 124922 109564 102564 95779 87441 86733
2154.12 94026 92195 81928 77053 81382 84441
2159.90 94030 108097 115212 130995 155968 173318
2165.69 190455 195571 192585 206961 247544 296542
2171.47 330742 354343 375938 414262 461736 478216
2177.26 486207 505693 513880 524671 550455 581412
2183.04 628258 680555 745440 816328 861051 889657
2188.83 921705 937267 933478 934945 951276 977163
2194.61 1001576 1011043 1030977 1063042 1099715 1162036
2200.40 1241486 1296601 1336238 1371284 1403230 1432722
2206.19 1469878 1490201 1496590 1532898 1575251 1617577
2211.97 1666347 1678416 1690275 1743956 1809294 1894785
2217.76 1999957 2094178 2205978 2211468 1966121 1725422
2223.54 1652255 1635815 1636409 1670616 1706297 1712929
2229.33 1697027 1676948 1666764 1650642 1627321 1586211
2235.11 1529961 1475967 1421642 1368964 1315800 1239200
2240.90 1152060 1085404 1049370 1032529 1015066 974318
2246.68 924166 869733 815966 784625 773036 741499
2252.47 686352 629970 593342 552710 513810 476824
2258.25 426660 386146 364170 359492 370645 365760
2264.04 334199 301265 276176 261759 267846 264267
2269.83 244780 235789 229583 218984 217068 201373
2275.61 185727 182142 193836 228023 241297 211629
2281.40 187214 199469 212317 213138 212220 216942
2287.18 250553 274795 263168 235610 219117 213221
2292.97 210525 208366 204218 200049 194014 174152
2298.75 152704 144361 159872 189779 198881 174893
2304.54 169651 187335 190780 163970 148097 147907
2310.32 164606 178308 164006 164511 170686 160449
2316.11 134758 114793 96851 80512 35575 9213
2321.89-3664-29299-67766-54592-3204-25471
2327.68-136863-234970-292538-329588-374803-414956
2333.47-442396-445289-432663-413197-415803-432208
2339.25-414525-375199-358969-345679-304701-256148
2345.04-189622-73077 61863 133159 82799-38227
2350.82-157099-266362-375608-480668-585468-680420
2356.61-740726-790535-844027-872464-881949-891446
2362.39-868862-809673-734040-652214-565286-449083
2368.18-324790-228710-131691-9092 111853 228899
2373.96 366598 514529 666307 806730 919307 1014273
2379.75 1088965 1120499 1096725 1048685 1012232 982299
2385.53 960305 990058 1101557 1216618 1254197 1242094
2391.32 1213792 1142390 1051257 979022 902937 806743
2397.11 741486 704241 660405 626201 608610 612747
2402.89 639103 644430 636801 635861 615922 600030
2408.68 615736 641523 653392 642918 627917 627838
2414.46 635707 626324 591742 570483 591505 652271
2420.25 767034 877445 879485 787412 699353 657903
2426.03 626155 603662 622565 639230 638693 644336
2431.82 656617 657478 647325 648994 654275 652235
2437.60 637999 613033 623254 644507 637012 629983
2443.39 624055 601339 560674 520548 517631 530048
2449.17 533362 526621 519326 513412 493070 456924
2454.96 463712 551718 674985 742572 745755 733408
2460.75 709233 653759 619273 641794 666626 659283
2466.53 633613 593712 553015 542895 537735 508652
2472.32 474045 447559 429517 399575 367511 336051
2478.10 286293 250513 257176 269072 265494 260453
2483.89 281253 326200 349141 335394 336305 347190
2489.67 345620 358968 378008 378745 394777 443525
2495.46 485704 489237 492160 523682 543931 538430
2501.24 560255 615849 665801 689201 719248 767153
2507.03 789704 762440 734328 739642 748502 747649
2512.81 749497 763065 791482 818990 837903 855880
2518.60 875932 881861 862400 812716 746900 691724
2524.39 665057 659935 636590 574529 520477 521284
2530.17 553625 579632 624419 655871 625503 582728
2535.96 569143 568359 552986 501435 454698 447860
2541.74 446873 430865 408714 380227 364522 350659
2547.53 336749 330360 297155 250180 236437 237281
2553.31 208056 166179 143470 119069 85160 62360
2559.10 51597 32316-3453-39607-54561-53255
2564.88-53681-75414-104931-130590-128934-79732
2570.67-43220-67916-83073-60771-47872-60794
2576.45-76259-93574-114836-146680-175656-181930
2582.24-185878-124219 23798 98203 46377-39641
2588.03-108885-137586-131325-144230-180481-190962
2593.81-159972-133499-134280-144910-154740-173920
2599.60-181000-162953-139687-117101-110346-125073
2605.38-118620-118710-147352-136718-93159-81696
2611.17-98732-119355-124594-118374-124615-116485
2616.95-54913-21584-66010-105710-101180-82651
2622.74-65555-63286-60245-46615-37763-40155
2628.52-40533-32846-30705-36560-27823-14924
2634.31-24764-46727-67946-58444-6138 33984
2640.09 29521 16968 15970 1693-19387-20190
2645.88-5488 3656 15849 30345 41864 48187
2651.66 43372 46865 32592 37-6973-12315
2657.45 277 33516 57397 52972 21598 26763
2663.24 92577 136899 145446 161985 170927 179519
2669.02 231276 286978 321133 361970 425617 529903
2674.81 690037 862661 1004300 1143140 1322669 1500910
2680.59 1659871 1808509 1932630 2009084 1964670 1797567
2686.38 1656338 1584162 1532064 1562733 1708758 1860596
2692.16 1924319 1882899 1764397 1579127 1325037 1058575
2697.95 840448 654458 512456 420951 368360 333555
2703.73 292914 268082 265160 234065 209268 212175
2709.52 205698 177518 148388 150387 185470 195130
2715.30 191146 252101 341968 391777 448779 517461
2721.09 554441 567449 570844 543260 502706 471037
2726.88 444840 487187 599360 589062 486704 466691
2732.66 510436 561151 603857 611874 615982 627375
2738.45 613927 572097 561425 577483 550214 507570
2744.23 522955 577087 618772 651395 694674 749041
2750.02 846088 1005182 1189561 1386091 1598542 1816003
2755.80 2093055 2373278 2563280 2683411 2715825 2642204
2761.59 2520311 2324633 2137204 2046097 1988880 2087725
2767.37 2374356 2615363 2687672 2580730 2289614 1880435
2773.16 1483075 1144265 850085 609083 449409 334614
2778.94 266060 238502 199461 162078 166748 179640
2784.73 165523 139206 130932 137294 143285 132222
2790.52 119965 119107 119458 105392 81185 45283
2796.30 12977 26419 51978 23490-17774-5497
2802.09 31309 19611-29621-46939-1128 38804
2807.87 32047-419-7145-10331-2510 30864
2813.66 39147 27720 41435 65680 79980 91472
2819.44 127410 178393 183734 166466 200598 255914
2825.23 279400 275191 304488 362132 432126 499376
2831.01 558360 630075 714087 797503 890258 994592
2836.80 1136181 1280452 1411232 1562442 1713694 1857010
2842.58 2048977 2279262 2486500 2691225 2933465 3167433
2848.37 3374733 3571744 3785513 3967016 4086864 4157672
2854.16 4140930 4026815 3958359 4037347 4174972 4228607
2859.94 4314052 4500903 4726650 4958103 5132313 5171147
2865.73 5155898 5154116 5122092 5045508 4992128 4979702
2871.51 4991059 5042302 5168100 5305114 5402909 5520586
2877.30 5744760 6077452 6542183 7229489 8216574 9515304
2883.08 11128575 12933651 14709570 16258037 17343838 17577586
2888.87 16732034 15068971 13209526 11679480 10890698 11189374
2894.65 12679720 14845179 16520077 17068790 16532529 15172381
2900.44 13385012 11543702 9818658 8269415 6970502 5937125
2906.22 5138904 4531327 4081894 3769777 3565563 3418050
2912.01 3284799 3149352 3033323 2962315 2883716 2746853
2917.80 2618386 2487037 2347406 2235203 2167199 2129474
2923.58 2121128 2119193 2151290 2229724 2313061 2414087
2929.37 2583199 2811343 3108532 3489795 3932254 4369616
2935.15 4828630 5386842 6087622 6840566 7602412 8423007
2940.94 9322316 10269440 11296303 12420789 13655265 15035190
2946.72 16526758 18064554 19745736 21566346 23497423 25523342
2952.51 27514586 29519177 32096859 35776580 38577922 38250974
2958.29 36562388 34916074 32581055 29789001 28071933 29108248
2964.08 33076982 38162644 42552657 45654148 47782468 49433028
2969.86 51100645 52935541 55079647 57454542 59971048 62249456
2975.65 63883349 64430055 63397954 60750886 57118397 53951413
2981.44 51930578 51269911 53710470 58912989 63125548 64543080
2987.22 63567509 60935324 57310479 53415898 49674552 46409835
2993.01 43801773 41855834 40504731 39585692 38768415 37906457
2998.79 36970568 35965202 34917323 33957622 33097589 32362828
3004.58 31855985 31528317 31266444 31079389 31072944 31906154
3010.36 33298083 32704866 29631187 26657497 24952783 24124090
3016.15 23528513 22937864 22337203 21685263 20984309 20226007
3021.93 19446303 18725680 17986062 17297552 16676183 16120869
3027.72 15652490 15338714 15329533 15798050 17014905 18650713
3033.50 18594760 16094085 13502521 12076093 11431335 11092331
3039.29 10856399 10689324 10529855 10327138 10100010 9888714
3045.08 9672035 9381420 9022509 8678573 8355754 8033128
3050.86 7693520 7340820 6979221 6645229 6318104 6003527
3056.65 5733459 5437273 5091158 4764011 4477791 4184746
3062.43 3912493 3683996 3443288 3210822 3004303 2852924
3068.22 2730134 2562413 2377161 2194400 2023711 1888373
3074.00 1761786 1621899 1473830 1364265 1320987 1284583
3079.79 1200252 1098284 1045933 1023610 998610 969299
3085.57 929872 885910 831468 784060 770693 763540
3091.36 748854 741824 754749 762940 737572 705441
3097.14 665458 628195 631478 651464 691595 737956
3102.93 716994 666597 647515 650345 636411 606970
3108.72 589682 587742 608965 610641 576714 561643
3114.50 556574 554553 530607 480495 459907 470916
3120.29 476112 455929 407592 359200 364106 384298
3126.07 365644 339073 333586 319020 277710 216775
3131.86 147173 102799 102082 122824 114325 97017
3137.64 119527 139468 122917 97686 91689 90646
3143.43 80446 34411-18705 2657 48577 20339
3149.21-36393-13791 41912 44197 32294 23204
3155.00-3933-44449-60324-45449-35308-21708
3160.78 17238 12536-44228-39152-13540-27601
3166.57-32994-34307-49127-47269-7635 33072
3172.36 63111 78046 59488 28319 33221 30988
3178.14 28229 51150 74385 102501 74854 45418
3183.93 77342 131146 162332 128458 86823 97836
3189.71 134755 129961 103543 142093 230037 274250
3195.50 243450 207645 197904 217698 244792 234340
3201.28 220861 230612 225477 228063 246477 251482
3207.07 263701 285235 270545 237987 210286 170912
3212.85 179742 230587 219734 202428 217568 214330
3218.64 187660 145889 127846 154488 148863 92302
3224.42 65995 98030 131066 94351 36426 64598
3230.21 116826 103140 75712 76417 84860 38487
3236.00-20269-30227 4827 51136 53635 27407
3241.78 11530 731-11276 3319 33701 51207
3247.57 62332 68530 66929 45936-24929-67245
3253.35 18015 125600 152361 118698 96871 110073
3259.14 112373 119368 140469 156916 152137 110420
3264.92 102751 138902 176053 207847 215976 199332
3270.71 174424 160232 150314 131409 135010 149810
3276.49 150688 161354 168393 139063 111063 87387
3282.28 39893 21840 55227 79008 64464 32255
3288.06-8617-30056 9209 52191 15276-45254
3293.85-40393 1654 37517 18670-34329-45781
3299.64-49964-60132-59855-71984-82345-94249
3305.42-94385-68387-39944-39739-40467-21025
3311.21-25834-51414-78816-113823-102973-85025
3316.99-120262-126666-86180-25085 11953-24902
3322.78-59338-60576-80509-62258-11259-13524
3328.56-62489-91532-62961-23008-20815-55735
3334.35-76439-48067-318 21882-510-38420
3340.13-54399-47983-37460-15469 12952-4850
3345.92-17147 3528-21355-52051-47825-56987
3351.70-50455-13210-12133-55011-76816-67332
3357.49-41475 5597 26059-22867-63064-51495
3363.28-55108-61109-34962-26785-22121-20517
3369.06-536 31293 34127 55039 73356 57424
3374.85 40659 11815 15657 53641 57196 25418
3380.63-22489-43886-62648-91525-111800-108306
3386.42-47200 3505 27214 25911-1715-18003
3392.20-24391-54809-80777-51907 21368 95594
3397.99 127329 108023 123698 175572 174634 167500
3403.77 193966 189394 163374 153086 165931 189496
3409.56 197681 194374 196159 186598 150272 125608
3415.34 171229 234081 220417 144457 78948 47232
3421.13 33726 10333-22281-288 41913-300
3426.92-71520-93212-59233-4 23034-19287
3432.70-57868-47521-13413 26457 49710 41092
3438.49-14242-78436-111950-92769-38781-24992
3444.27-52314-111509-125423-54511-27740-55611
3450.06-26776 32700 37853-14161-26723-7935
3455.84-12963-43357-61860-28399 19063 41280
3461.63 37485 4758-37102-37326-7908 25439
3467.41 43109 19526-7899-1481-9253-35164
3473.20-28239-22033-13342 46502 95326 69341
3478.98 11320-14080 34872 82969 33622-9615
3484.77 12750 19808-11337-25689-26710-44121
3490.56-74644-72761-41415-34524 8247 39543
3496.34 19118 12409-23623-102356-150332-138216
3502.13-97301-40453-28310-69611-82377-90310
3507.91-125445-155703-146772-116415-97293-45262
3513.70 12664-1607-69564-142696-154258-95069
3519.48-47301-58636-97349-143424-165867-117958
3525.27-53813-42345-61002-59216-39719-39553
3531.05-53259-71401-83345-63412-47893-51451
3536.84-35130-37532-51303-17339 36943 19571
3542.62-63445-122171-139237-134190-109184-96573
3548.41-104490-92237-59011-35887-21666-36167
3554.20-53825-47179-45523-74465-138595-137125
3559.98-58742-37862-76411-123234-150566-152773
3565.77-170713-182667-169731-164867-157941-145585
3571.55-128772-97652-58710-39550-71232-104855
3577.34-111619-123299-145247-161681-138381-101262
3583.12-90410-109654-149795-158759-175036-197568
3588.91-147409-88677-101689-160732-180972-134665
3594.69-68012-34351-23071-25386-75006-109784
3600.48-65008-13233-15099-55122-80614-49587
3606.26 13030-382-86416-87259-36084-13180
3612.05 14715 36906 56379 93938 90567 29094
3617.84-49747-65660 36760 118768 125706 160299
3623.62 211826 194053 134709 36878-101745-134019
3629.41-40477 56717 90918 69798 95580 179330
3635.19 237700 257468 273916 284101 275857 282748
3640.98 254568 207297 231149 260449 215096 144013
3646.76 116754 62860 22528 76428 170142 261752
3652.55 337604 369186 297682 259676 346804 388140
3658.33 367807 366756 378919 379138 356080 327241
3664.12 343233 400269 401705 319187 272903 198593
3669.90 140138 265223 371394 333211 189349 52055
3675.69 108850 262761 314390 318812 344859 373570
3681.48 406315 409135 364840 343441 321138 179086
3687.26-6063 2686 68076 51062 77260 133009
3693.05 174936 202698 212053 239052 281136 286599
3698.83 262989 217557 154138 160276 228421 265336
3704.62 267855 258433 239862 184477 153443 153268
3710.40 52797 21300 167998 274195 293785 272879
3716.19 235370 214375 206985 201605 195621 182383
3721.97 210798 275831 288329 271726 281546 320112
3727.76 353150 355826 317258 246844 281302 366467
3733.54 363664 354941 369598 473123 634260 735086
3739.33 773289 811004 858348 738860 503280 607184
3745.12 972843 1164982 1077810 864583 891003 990420
3750.90 918060 1067166 1373415 1436255 1355436 1335444
3756.69 1356248 1321750 1267230 1297292 1338342 1314744
3762.47 1287664 1257027 1195869 1156465 1151506 1125167
3768.26 1090569 1094369 1116674 1148530 1219742 1281155
3774.04 1317393 1308150 1247045 1176004 1108452 1063594
3779.83 1080019 1127333 1148905 1130748 1099678 1077159
3785.61 1059523 1042758 1026689 960462 894733 907657
3791.40 905435 815442 725656 660103 565902 513380
3797.18 555164 579908 468933 352471 507980 794358
3802.97 903878 823907 595321 381857 409802 536233
3808.76 590748 575233 538480 557784 630417 599292
3814.54 392463 324658 475364 565857 496713 324082
3820.33 226882 304783 425011 488540 506477 490672
3826.11 478354 443284 388762 355652 330837 329140
3831.90 327995 273906 203929 194241 106059-63774
3837.68 26528 216662 266660 256067 212534 190300
3843.47 231765 271587 307415 351005 329831 257614
3849.25 198692 64060-106685-262698-387600-207040
3855.04 72586 131423 110399 124835 134570 86769
3860.82 28670 5941-25473-65724-42100 30377
3866.61 53421-16419-144714-176202-71109-3954
3872.40-40288-60130 18045 67926 46791 29338
3878.18-8824-47540-6770 58436 95598 76749
3883.97-30565-55706 77309 125446 79438 62768
3889.75 13300-11486 61203 130401 157225 147107
3895.54 127242 114814 50214-18186 19640 33204
3901.32-5169-50559-86334-34225 46405 85294
3907.11 103126 116518 110653 52564-27426-47778
3912.89-14793 32502 35297-30553-25833 41640
3918.68 36207-1567-18546-12165 15365 29811
3924.46 36247 49658 50184 44964 58144 73752
3930.25 83106 90131 79497 74384 106770 131687
3936.04 137373 173580 210828 231035 249123 209411
3941.82 143830 159257 228016 250037 235756 241053
3947.61 232786 229398 247478 249048 284174 349574
3953.39 396728 428592 434937 399158 345478 315629
3959.18 337079 375108 396677 419794 457138 463166
3964.96 410027 339965 298199 291468 349881 428893
3970.75 434900 376870 349080 395083
##END=
