##TITLE=Acrylonitrile
##JCAMP-DX=4.24
##DATA TYPE=INFRARED SPECTRUM
##CLASS=IUPAC A
##ORIGIN=NIST, Anayltical Chemistry Division, 301-975-3108
##OWNER=COPYRIGHT (C) 1998 by the U.S. Secretary of Commerce
##DATE=98/10/1
##$SPECTRA VERSION=1.00
##$UNCERTAINTY IN Y=2.0 % relative (B=1.0E-04,C=6.4E-09,D=2.7E-14)
##CAS NAME=Nitrile-Propenoic Acid
##CAS REGISTRY NO=107-13-1
##MOLFORM=C H2: C H C N
##MP=-83.5 C
##BP=77.5 C
##$NIST SOURCE=QUANT-IR
##SPECTROMETER/DATA SYSTEM=IFS66V (Bruker)
##INSTRUMENT PARAMETERS=KBr Beam splitter; MCT Detector; Multipass cell
##STATE=gas
##SAMPLE DESCRIPTION=Acrylonitrile Primary Gas Standard
##PRESSURE=101.3 kPa
##TEMPERATURE=23 C
##SAMPLING PROCEDURE=1 L/min Flow
##RESOLUTION=1.9290
##DATA PROCESSING=3-Term B-H Apodization
##XUNITS=cm-1
##YUNITS=(micromol/mol)-1m-1 (base 10)
##XFACTOR=1.0
##YFACTOR=2.2737E-13
##DELTAX=0.9645
##FIRSTX=574.687
##LASTX=3974.595
##FIRSTY=3.25E-07
##MAXX=3973.63
##MINX=574.69
##MAXY=.0002705
##MINY=-1.72E-07
##NPOINTS=3527
##XYDATA=(X++(Y..Y))
574.69 1431138 1743270 2110610 2076350 1746846 1010570
579.51 197990 214906 949608 1398442 1219906 945230
585.29 993902 1140020 767868 443844 1011088 1825110
591.08 1972050 1843298 1470152 698500 572762 1243556
596.86 1521130 1253398 1265806 1476590 1325036 1239354
602.65 1416296 1698692 2023706 2068020 1966992 2027958
608.44 2303798 2674342 2912764 3191130 3433124 3697318
614.22 3969814 4210304 4570336 4882526 5171540 5664992
620.01 6246200 7106210 8093072 8951146 9634868 10187620
625.79 10988200 12085120 13172900 14338520 15630350 16759040
631.58 17722190 19071230 20707050 22358050 24222550 26191170
637.36 27967740 29748710 32287360 35057190 37973210 41151370
643.15 43668460 47216900 50414520 54032150 58221920 61099840
648.93 65695590 69035210 72549660 77517010 78804320 82985940
654.72 85304260 84699220 90463770 90324190 90292300 96124660
660.50 91480050 91579370 95928430 90361380 94596570 98777360
666.29 91640520 95381780 96720740 90193620 93390740 93743440
672.08 90067070 91940490 92654270 94745650 102999300 118733800
677.86 146503700 186024000 243863200 299453700 271333400 178578500
683.65 116712500 93159970 83780770 79831800 78886260 79154780
689.43 77855550 80204220 85366160 82665000 81305080 89237860
695.22 88570020 81383620 87194260 90940340 81481460 81701430
701.00 89640660 83053210 76620620 84015000 83125370 72344370
706.79 74600260 79647170 70464220 65498690 72034520 68409180
712.57 58135210 60625080 63949400 54865840 50395040 55876170
718.36 53202920 44144100 44810910 48022650 42119720 37208000
724.14 40076140 39611210 33464980 31858180 33889120 31321090
729.93 27563670 28112960 28210180 24694440 22499540 23027770
735.71 22008130 19269080 18355700 18538020 17146530 15328580
741.50 14980350 14623630 13210610 12173400 12057980 11546300
747.29 10390120 9596174 9501770 9216364 8327260 7679402
753.07 7641786 7441518 6965422 6772852 7150848 7666420
758.86 7603604 7169546 7236156 7548658 7558796 7639874
764.64 8318010 9290248 10157040 11054350 12479170 14189090
770.43 15693650 17190200 18683750 19889690 20998640 21880900
776.21 22236270 22213410 21870690 20913070 19709690 18577010
782.00 17333690 16017280 14692290 12972550 10939500 9537498
787.78 9863308 11724110 14089650 16115150 17528960 18452580
793.57 18870110 18715080 18128700 17238030 16060930 14613010
799.35 13145600 11718440 10262410 8790232 7453832 6314514
805.14 5239994 4329326 3626460 2949750 2382334 1976922
810.93 1662718 1372448 1207436 992202 735254 761674
816.71 924338 890724 707552 514690 604934 805274
822.50 753490 636628 596530 581774 536768 338272
828.28 270990 442580 599256 631172 629984 655676
834.07 674084 737234 996946 1327510 1603046 1942542
839.85 2368506 2815020 3378626 4175334 5237358 6446356
845.64 7771568 9299188 11090460 13059860 15300930 17835530
851.42 20415840 23120510 25991920 28795040 31462760 33848910
857.21 35781470 37149030 37759620 37438280 36174610 33916090
862.99 30800360 27130670 23472250 22133250 27402040 32336900
868.78 27800330 23007480 22003320 22242550 24439920 27546410
874.57 30897850 33943100 36204050 37618660 38067270 37594780
880.35 36500900 34991040 33486260 31942210 30229120 29231300
886.14 28868760 28188050 28305390 29544530 29990630 30837080
891.92 33677220 35564040 36927170 41144140 44653370 45921530
897.71 50406870 55361340 56876200 61566410 68305440 70610490
903.49 75211410 83455730 86507970 90786200 101285600 106185200
909.28 109666100 121878800 128691000 128809000 141180700 153561900
915.06 152347600 162946100 182189900 181530200 185250300 209250900
920.85 214534800 210497700 235011000 251263400 241266900 257255700
926.63 283571300 274483700 278576200 312585700 313424200 305069200
932.42 334080700 342613400 324608900 344368400 364271300 348516400
938.21 355134600 374520400 366384400 367136100 381644300 391575700
943.99 406280200 409895100 425243200 470200800 468211800 442541900
949.78 483446300 608857800 925062700 1190022000 978289700 616956700
955.56 481902400 456722700 424854200 412658000 433100600 444917100
961.35 443536600 462495100 465293300 445097000 470305500 492867600
967.13 519001100 649665200 843470800 942104800 814755300 589311000
972.92 477498500 474106300 449346900 421478600 439370800 425259000
978.70 412402800 436667700 421478200 407571900 424034100 406486000
984.49 394688400 404761900 388574800 374143400 375714700 364930700
990.27 351061400 349904400 340496500 322945800 321415900 310632200
996.06 295310200 295395300 281233100 269408500 265313800 249772200
1001.85 242350300 233873600 220475200 212717600 199998700 188199800
1007.63 179053500 166652100 157351500 147758700 137574900 131219000
1013.42 123506000 116907300 112560700 105898400 100281400 95059220
1019.20 89335820 84041480 78449420 73266500 68249510 63246040
1024.99 58143920 53408880 49184170 44687290 40613620 36725520
1030.77 33226710 30042390 27000510 24338980 21874230 19594970
1036.56 17615840 15888260 14367440 12939370 11660030 10607140
1042.34 9718634 8927762 8297264 7679384 7104364 6598216
1048.13 6257322 5997272 5838782 5703092 5507576 5435486
1053.91 5546682 5580374 5662854 5688400 5613560 5573612
1059.70 5433194 5223630 5190744 5075536 5096992 5362166
1065.48 5699802 6399782 7320606 8143172 9481180 11182000
1071.27 12940690 15346000 18351780 21507310 25375680 29698150
1077.06 34068380 38876670 43768760 48118040 52012710 55103550
1082.84 57199080 58264110 57791910 55467620 51454900 45736370
1088.63 38378520 30472530 25353410 28297920 36247320 39398480
1094.41 38563320 36856760 34676720 33507420 33789730 34984490
1100.20 36321880 37392390 37851820 37204210 35761290 33913640
1105.98 31349810 28238340 25277710 22272550 19123270 16353550
1111.77 13904590 11458130 9480406 7990024 6544928 5304626
1117.55 4465332 3699754 3094238 2781464 2500160 2130616
1123.34 1942772 1802912 1583440 1484014 1530274 1461822
1129.12 1353368 1307486 1256206 1163088 1105362 1041984
1134.91 950840 827636 794032 806690 818786 801532
1140.70 748486 671786 635690 581672 540004 500042
1146.48 467024 433410 466950 494262 476696 462110
1152.27 520180 551490 539052 511014 512338 573386
1158.05 687050 748838 749046 701108 686300 728696
1163.84 793520 790714 830326 899254 929174 896680
1169.62 926766 990960 1007772 973460 978944 949510
1175.41 882044 886676 947678 929084 895464 863982
1181.19 880730 845968 809244 904144 950660 874232
1186.98 922772 987410 1033492 1100614 1102780 1081994
1192.76 1151230 1162392 1116048 1105464 1152778 1188256
1198.55 1215168 1300140 1465956 1750800 2430568 2855976
1204.34 2386944 1753198 1619078 1750202 1696022 1385510
1210.12 1201850 1247000 1280066 1204838 1220148 1203228
1215.91 1116424 1115532 1155932 1094182 1138738 1236814
1221.69 1159896 1076990 1196600 1186840 1018394 1030738
1227.48 1170712 1133272 1099322 1188262 1177292 1019044
1233.26 976718 989478 899446 843202 922504 939244
1239.05 876900 823448 823834 791214 789836 804600
1244.83 802660 765018 741194 742858 745038 755474
1250.62 871456 979756 1066094 1183766 1274832 1384272
1256.40 1669530 2053452 2533896 3003780 3423024 4036048
1262.19 4864272 5678020 6564386 7522834 8461250 9372382
1267.98 10251560 11052670 11752530 12164330 12311380 12185840
1273.76 11723680 11011020 10238810 9478568 8583886 7468602
1279.55 7130420 8644802 11028260 12433290 12770500 12995100
1285.33 13570830 14325850 15062930 15591100 15826210 15853240
1291.12 15648080 15054910 14431070 14025760 13303170 11930020
1296.90 10573640 9500362 8666012 8113144 7743050 7577174
1302.69 7653554 7759186 7856988 8087434 8568716 9141824
1308.47 9639020 10162830 10824060 11381120 11736970 11977970
1314.26 12105210 12024610 11792230 11449240 11003480 10476800
1320.04 10193000 10295720 10255050 9582030 8993024 8931684
1325.83 9026634 9323630 9951682 10651230 11225940 11781100
1331.61 12341820 12768720 13098430 13358300 13617890 13597820
1337.40 13709070 13771330 13641280 13378370 12974020 13052760
1343.19 13077730 13236600 13720510 13691110 14037810 14549730
1348.97 14620660 14961610 15020660 14787160 14752670 14437830
1354.76 13906410 13292340 12662650 11973210 11530660 11801730
1360.54 12405840 13266910 14210020 14706930 15689930 16958470
1366.33 17791960 19123290 20228170 20139690 21078390 22812040
1372.11 23088000 23582460 24487030 24103530 24197710 24660700
1377.90 24889450 25948190 25485460 24867010 27317930 27524170
1383.68 26162330 29723530 32217890 31078760 33586570 35696010
1389.47 34950130 39404660 44109000 44967210 51150290 57347060
1395.25 58184340 65031470 74586320 77506580 83382280 92514830
1401.04 95436460 99479340 106557200 107598000 105463200 103593400
1406.83 98595400 89826380 79689630 68604470 56906210 52555420
1412.61 69299020 88195660 76551600 59463150 62505090 75229140
1418.40 87655070 96593700 102804200 105785500 106436500 107586300
1424.18 104282200 96633420 92383020 86657320 77743020 73216460
1429.97 66983960 55199330 48611980 46050030 41696040 42267220
1435.75 44736240 40368490 36896540 37292780 35406910 33841660
1441.54 33846010 31494660 29002470 28173040 26467390 24858530
1447.32 23765510 21256390 18982140 18028620 16880930 15466760
1453.11 14748410 15163180 17620410 18960920 16144900 12804200
1458.89 10880090 9544132 8791816 8568122 8975008 9486246
1464.68 8651424 7023438 6170702 5861662 5430730 5735796
1470.47 7318152 8343408 7787136 5970188 4789188 4695036
1476.25 3871550 2897696 2564972 2509750 2502188 2222940
1482.04 1870658 1685054 1629828 1919248 2500906 2562106
1487.82 2546870 3110056 3026398 1904528 1001716 815118
1493.61 1571678 3678246 4444062 3001448 2488964 2120210
1499.39 1167380 839038 800814 836632 2329498 5837542
1505.18 8576734 8105088 5163974 2723156 1696348 1405928
1510.96 1716908 1499428 1062648 1326638 2055272 2968214
1516.75 2841950 1994786 3080536 5888876 6669182 4508996
1522.53 2417468 2279490 2922810 2414028 1777760 1504440
1528.32 1051402 755454 987966 1818874 3142280 3213670
1534.11 1838604 1033290 1619962 4723598 8926050 9458056
1539.89 7369490 6270180 4890276 3329366 3353452 3027610
1545.68 1896274 1476434 1913716 2586622 2615038 2069782
1551.46 2225394 3835848 5100122 4095968 4044296 7538170
1557.25 11398530 12460330 11039770 7076272 3778502 3183634
1563.03 3697368 4171246 4000834 3802166 4486198 6108802
1568.82 7047686 6144244 5150924 5050438 5631246 7543860
1574.60 11332410 12551650 9483856 7237228 7443336 8024010
1580.39 7938808 8440644 9353136 9287510 9764390 11105640
1586.17 11282840 11664300 13600690 14753370 15775510 18721530
1591.96 21076320 22461030 26065820 30130050 32809390 37079460
1597.74 42254290 45569980 49465050 54435860 57421430 59524760
1603.53 62103100 62914350 61903160 60094680 57217390 52978350
1609.32 47590300 42531550 39724330 44606730 55859580 55526300
1615.10 43722650 37822000 40190540 47703620 56854780 64146060
1620.89 69794340 73932140 75009180 73376590 70753950 67605250
1626.67 64400290 59827600 54461720 50438910 46447200 42585500
1632.46 40700220 41068380 42344150 41415570 38682020 37192220
1638.24 37700740 38327370 38550920 39418520 39571720 38949440
1644.03 39938370 40396620 37245460 32977400 28943380 25385420
1649.81 24605850 30254380 39247360 40097120 33223870 28812740
1655.60 28643630 29630780 31346360 32887120 33170230 33640600
1661.38 34732890 33751510 30751680 28864610 27454010 25223180
1667.17 24567230 24735900 21929250 18770490 17252570 15157860
1672.96 14227110 15553840 14437090 10909440 9482660 9319490
1678.74 8623712 8152806 8332682 9197212 12101440 15169200
1684.53 12464670 7278520 5842494 5855248 5369812 5111716
1690.31 4816698 4202808 4080676 5609968 9576292 11067550
1696.10 7328702 4659276 6948534 10817490 9606570 4940094
1701.88 2889454 3197346 3474830 3462878 3130234 2185278
1707.67 1662100 1720968 1629318 1375334 1461150 2033142
1713.45 2981326 3547054 4977696 7196874 6306288 3330492
1719.24 1501774 950366 1003040 1173756 1116878 895134
1725.02 831582 833322 889610 1197890 1566870 1433012
1730.81 1884870 4469100 7331436 6877626 3638296 1371712
1736.60 1059968 1868278 3114444 2816234 1615098 1478702
1742.38 1763396 1603114 1451372 1615574 1963364 2301382
1748.17 2345532 2876202 3982216 3217608 1417072 715116
1753.95 751030 1240504 1621928 1132240 559022 553212
1759.74 1321200 2155886 1601988 561968 256092 262654
1765.52 566056 1464248 1802094 1092584 1219748 2712490
1771.31 4271748 3590238 1561980 959782 1048764 790144
1777.09 559042 547914 769352 771674 405538 216806
1782.88 494576 848856 613870 186292 103440 194800
1788.66 516542 1079290 2036314 2830242 1964892 623732
1794.45 347654 326098 176954 345974 835228 933492
1800.24 788226 696740 430624 169244 123722 137546
1806.02 190020 213772 251490 490766 686262 543630
1811.81 356032 265182 254676 301552 451580 599308
1817.59 686518 759554 851424 973370 1146016 1399694
1823.38 2098316 2701734 2491814 2258478 2712428 3682116
1829.16 4192980 3652464 3141020 3080322 3046992 2932394
1834.95 2889658 2864026 2619496 2224856 2011062 2063378
1840.73 2331974 2994584 4338288 4652736 3472134 2951554
1846.52 3274592 3532460 3746528 3982330 4033298 3917484
1852.30 3822218 3733762 3651176 3609432 3585494 3463890
1858.09 3283786 3230278 3271334 3266080 3426784 3710260
1863.88 3800190 3828220 4253312 5057652 5819530 6030884
1869.66 5834508 5687194 5747708 6350606 7157252 7556888
1875.45 8200510 9434318 10405110 11186340 12828190 14743290
1881.23 16129190 18147580 21183230 23693880 26125810 29978510
1887.02 34049880 37461130 41712300 46537950 50306500 54154860
1892.80 59307410 63604300 66516160 69933310 72914810 73583900
1898.59 72558090 71129330 69903900 68410490 66630380 65061330
1904.37 63849080 62167720 56395670 46417110 41699060 47568980
1910.16 58927970 69731720 77335540 82694320 86398500 87017010
1915.94 86039750 84882490 80649400 74690620 69798440 64337660
1921.73 58684570 53405670 47977480 43124190 38381590 34133420
1927.51 31033560 27552720 24447940 22179970 19837780 18301110
1933.30 16907500 15204940 14150550 13858050 14633170 15654780
1939.09 16305130 16975680 17442640 17348740 16700030 16268340
1944.87 15786920 14815450 14101860 13179710 12086670 11489350
1950.66 10651370 9703830 9098258 8241606 7618356 7323782
1956.44 6789274 6295008 5909690 5508874 5285756 5122372
1962.23 5022316 4846976 4537670 4431838 4386634 4214732
1968.01 4006682 3686924 3369176 3132910 3025590 2938548
1973.80 2861796 2805292 2700986 2580866 2444960 2303292
1979.58 2179310 2045666 1950264 1899798 1817072 1653300
1985.37 1559988 1541514 1474968 1312692 1204186 1280962
1991.15 1349208 1145314 899174 774122 713212 736370
1996.94 820004 800390 706474 635590 636690 616264
2002.73 554770 503594 462248 449568 487206 481762
2008.51 411476 306160 268250 306402 304476 233572
2014.30 273048 430254 513988 463080 385048 323176
2020.08 313562 322694 350398 318874 246024 199124
2025.87 185966 194862 204918 178172 179584 218878
2031.65 281446 292828 257986 225804 256578 313632
2037.44 339460 332400 351000 357006 323344 287030
2043.22 292490 370414 632950 876156 731060 415376
2049.01 314846 313446 343566 375938 405376 428358
2054.79 433334 410816 414578 415284 453866 549556
2060.58 701498 980468 1197952 1056734 786492 602502
2066.37 501674 422188 380486 369620 343430 293458
2072.15 315188 315030 258490 288264 351444 339570
2077.94 370464 395558 382086 421216 456662 372298
2083.72 350004 419752 406336 360422 404848 401950
2089.51 359174 340598 330108 334968 385470 382790
2095.29 341268 317462 310992 312980 309652 261074
2101.08 247890 243978 203524 181310 193652 159784
2106.86 138046 137064 132784 103398 73246 68730
2112.65 84662 84778 73896 16154-17616 15062
2118.43 70634 60814 2280-44804-16294 46570
2124.22 63634 19950 32358 50734 11828-37708
2130.01-32502-29104-29760 9688 78116 88572
2135.79 53568 40346 107146 179556 206324 196506
2141.58 205632 213546 209936 208610 230966 216852
2147.36 185878 165868 179736 222718 284054 323080
2153.15 316000 291730 301538 294706 290592 303596
2158.93 312038 302484 306370 303324 281060 261160
2164.72 298452 313978 306484 302518 272882 235146
2170.50 272200 330446 339616 322704 337232 337256
2176.29 345768 393386 458834 477146 464064 422568
2182.07 413908 414706 373170 316054 277752 275210
2187.86 311140 309842 328806 398660 447760 408630
2193.64 376790 387490 389868 373566 396442 447098
2199.43 454662 427886 474684 534560 575204 625194
2205.22 677736 716900 833804 999686 1139072 1319190
2211.00 1565572 1779242 2089740 2509786 2883390 3268820
2216.79 3784992 4353088 4971628 5670272 6406386 7131324
2222.57 7868986 8534480 9109984 9704594 10233600 10528380
2228.36 10714380 10798620 10656670 10389230 10123070 9594172
2234.14 8921204 8742952 8712774 8004118 7900794 9856004
2239.93 10717790 8858164 7982456 8957436 10331990 11500820
2245.71 12268650 12628700 12585650 12188540 11593810 10695400
2251.50 9555220 8404314 7270942 6180662 5297114 4529362
2257.28 3892256 3525528 3331754 3205186 3254306 3334094
2263.07 3403532 3642328 4007118 4307642 4609614 4895292
2268.86 5136494 5329194 5457504 5504624 5426016 5198424
2274.64 4876702 4421502 3957954 4016352 5029060 5494346
2280.43 4576862 3988804 4058012 4260558 4733436 5324916
2286.21 5909872 6414652 6802992 7079302 7212608 7088476
2292.00 6639252 5977968 5343924 4814290 4315500 3878506
2297.78 3489334 2921714 2359272 2066726 1975926 1912956
2303.57 1890572 1940626 2020342 2050072 2077930 2095504
2309.35 2110730 2067894 1933998 1786808 1725554 1681020
2315.14 1576614 1446172 1309468 1141636 1009542 959102
2320.92 935892 850290 756238 732610 764842 798578
2326.71 844018 873048 875426 872386 877464 925896
2332.50 1030884 1037334 956408 911856 928614 926778
2338.28 897062 880428 880754 881764 909634 911220
2344.07 892066 846510 790564 723734 668444 757998
2349.85 924820 996518 1138346 1271540 1321404 1438442
2355.64 1566260 1628338 1752430 1857830 1912016 1983428
2361.42 2067528 2181558 2307314 2325046 2320924 2315666
2367.21 2300042 2304920 2295256 2196880 2077740 2031308
2372.99 2115810 2267926 2447790 2640562 2818036 2940910
2378.78 3038908 3112434 3109786 2987218 2812006 2596718
2384.56 2378092 2309116 2435764 2520540 2495378 2447424
2390.35 2407160 2350202 2338962 2370782 2389940 2353442
2396.14 2353078 2336050 2251162 2208240 2205816 2111612
2401.92 1977038 1894208 1850434 1759126 1646218 1517608
2407.71 1406288 1335610 1311004 1259318 1185596 1114122
2413.49 1043666 994182 1018494 1039188 991764 882900
2419.28 833472 897390 990372 1011946 1035668 1036338
2425.06 995064 1010528 1079912 1097734 1088122 1088962
2430.85 1108842 1108534 1107554 1122542 1178402 1217718
2436.63 1215640 1226306 1284270 1332960 1419626 1516218
2442.42 1561632 1576808 1692324 1858386 1955290 2034270
2448.20 2168500 2247896 2303542 2426042 2558328 2593566
2453.99 2618406 2618024 2530582 2451914 2421084 2359366
2459.77 2273750 2195358 2183174 2180786 2174702 2222810
2465.56 2347126 2538768 2808078 3081086 3380394 3616106
2471.35 3685406 3721824 3761282 3704292 3677970 3498790
2477.13 3258832 3179174 3011574 2889210 2836972 2653444
2482.92 2604038 2587108 2548424 2590216 2539306 2414758
2488.70 2331300 2218160 2114140 2027926 1992788 1947440
2494.49 1872248 1801042 1681022 1567438 1538580 1459364
2500.27 1361764 1305862 1244778 1169334 1158082 1160134
2506.06 1124914 1068646 1041448 1028678 1025766 1007434
2511.84 1009968 1015242 999210 966740 935602 905804
2517.63 923114 925498 916958 926590 916742 894980
2523.41 920496 949340 991440 1001948 988302 981236
2529.20 1015406 1063678 1063842 1027642 1033034 1010222
2534.99 1015594 1094574 1175414 1234942 1278250 1279458
2540.77 1257484 1224726 1273860 1369972 1395020 1378482
2546.56 1423028 1344284 1246250 1324246 1319154 1284970
2552.34 1364326 1271316 1232256 1381522 1446648 1419970
2558.13 1404318 1338162 1402640 1688254 1917404 1863718
2563.91 1681454 1571028 1734418 2436860 3125924 2743544
2569.70 1823798 1298430 1064540 943898 961534 943904
2575.48 886698 896700 927928 1000008 1060332 947270
2581.27 904242 992664 953918 833016 827370 839418
2587.05 831252 857514 909274 896286 847840 816920
2592.84 772118 672018 595788 561084 562542 580252
2598.63 616916 581018 486962 431810 380712 306428
2604.41 308588 339202 331180 279798 265762 260966
2610.20 222776 192542 224268 279296 316556 297132
2615.98 215666 102980 43302 47282 53068-5274
2621.77-29616-15122-16736-62348-82176-66846
2627.55-54712-39044 1846-120-37170-51974
2633.34-43300-72022-114190-138416-115580-95078
2639.12-108870-156680-158626-78366 13658-6876
2644.91-40284-31602-56732-117308-125714-92560
2650.69-36470-1496-15944-54200-12422 74538
2656.48 94016 50022 10534-13352 48082 122738
2662.27 162550 154838 102234 95610 202022 264904
2668.05 269372 268708 248436 253322 305216 353366
2673.84 399942 383712 383798 499208 679166 796642
2679.62 897180 1003156 1044442 1086064 1208054 1281524
2685.41 1363014 1550482 1706234 1775086 1855136 1950192
2691.19 2071480 2174946 2307646 2385870 2389232 2406858
2696.98 2413032 2346146 2388814 2562862 2600750 2452284
2702.76 2249558 2069054 2026184 2136670 2553456 2975480
2708.55 2815968 2453186 2401938 2542800 2745702 2861394
2714.33 2833156 2790346 2739242 2612872 2504610 2364906
2720.12 2189048 2050066 1889288 1674594 1549548 1449464
2725.91 1258862 1081668 991832 900660 814528 711032
2731.69 634774 610734 625796 616700 556732 493078
2737.48 496134 541412 606200 631470 594130 550264
2743.26 524036 450496 386232 367560 358570 310482
2749.05 280552 273176 243552 165828 118074 124014
2754.83 162266 174182 154016 138624 163180 191184
2760.62 208666 222938 265832 282604 252516 270492
2766.40 375882 437470 459686 488728 477260 481734
2772.19 620742 704136 662442 635762 659362 669266
2777.97 763190 877500 854482 811304 914220 950764
2783.76 902432 983830 1033838 825252 632628 653106
2789.54 723710 634746 491728 401648 356076 396036
2795.33 492516 502792 493464 487982 481828 617436
2801.12 884622 1015146 1006772 975044 923798 861900
2806.90 816278 766248 696050 544842 403508 341390
2812.69 242292 118948 142674 205944 182054 135906
2818.47 133922 159710 228876 222658 156826 165770
2824.26 166238 86454-59158-292886-320960-97616
2830.04 77796 103598 58330-6568-80154-183958
2835.83-294612-372460-382446-412044-460908-524302
2841.61-578034-600332-594248-566016-522086-540316
2847.40-605192-616542-564616-507608-465248-470660
2853.18-500062-502394-443380-427844-453080-460260
2858.97-488136-457846-241556-76316-84346-148186
2864.76-185328-188598-105134 20646 67154 96720
2870.54 113376 44092 68350 225476 432722 554976
2876.33 513778 439352 456538 490862 545152 609904
2882.11 597546 560404 608208 738970 996948 1215702
2887.90 1219640 1141444 1116362 1160552 1190286 1124468
2893.68 1097112 1036318 943820 965270 1037800 1145970
2899.47 1229244 1032308 885580 1018992 1056890 956818
2905.25 1023648 1105760 1090460 1064900 986422 883908
2911.04 915402 964700 982762 1022210 1099468 1139678
2916.82 1176342 1314256 1259698 895268 618770 529002
2922.61 496416 430830 326320 228464 231976 257764
2928.40 245058 272420 328150 364104 399290 336578
2934.18 254676 247916 298908 366318 415280 387724
2939.97 342840 281268 183348 144968 171716 116896
2945.75 91138 113998 114030 135444 156090 126078
2951.54 112550 109060 77238-7048-23528 31736
2957.32 82246 116464 109056 91054 130552 168234
2963.11 170598 122076 106220 152798 247340 315438
2968.89 358128 402944 369570 317224 364938 399400
2974.68 417020 447892 482308 578554 724222 823930
2980.46 993766 1171236 1270322 1405408 1478062 1508608
2986.25 1673214 1779572 1754628 1701330 1619556 1476660
2992.04 1379500 1365794 1326764 1316858 1444248 1513830
2997.82 1393238 1224434 1268168 1508306 1797954 2037678
3003.61 2275854 2524374 2665972 2755724 2899732 2881216
3009.39 2769196 2855448 2905800 2819502 3071818 3529480
3015.18 3859324 4294944 4955310 5659492 6522914 7662204
3020.96 8949320 10359960 11966850 13760060 15722540 17761250
3026.75 19807470 21876700 23966840 25899620 27538680 28919330
3032.53 29846290 30097780 29674820 28483730 26866390 25474500
3038.32 24273270 23528480 26269480 33367620 35184930 27722210
3044.10 21401850 20880060 23401780 26590780 29763650 32771910
3049.89 34425810 34563380 34178280 33580730 32724430 31495950
3055.67 29745350 27498230 25095190 22625130 20057660 17659290
3061.46 15626680 13624940 11634990 10032080 8843740 7840706
3067.25 7141268 6749004 6416564 6053902 5769976 5526280
3073.03 5273886 5075978 4855632 4573032 4574596 4805084
3078.82 4844512 4641874 4506320 4711008 5236966 5715298
3084.60 6208334 6798494 7143400 7487622 8150196 8523090
3090.39 8773768 9427764 9717168 9903282 10841670 11219870
3096.17 11130900 11958000 12519480 12600200 13920880 15132330
3101.96 15404670 17119700 19759170 21730610 24269000 26780240
3107.74 28435850 31512990 35975500 39017550 41410450 44011500
3113.53 44858550 44235110 43019140 40363740 36195250 31442810
3119.31 27153210 24790900 28156890 36090670 34469840 22098330
3125.10 16368780 20291820 26824330 32944580 38091280 41960460
3130.89 44087700 44610450 44461660 43193290 40292210 37672700
3136.67 34872460 30661680 27509110 24855340 20887890 18043920
3142.46 16380970 13830380 12156200 11416060 9582216 8324208
3148.24 8171760 7198156 6614652 6911698 6437012 5941976
3154.03 5983914 5527904 5306482 5385044 4909090 4643880
3159.81 4654010 4345464 4192352 3970572 3547444 3416938
3165.60 3246860 2965708 2867948 2639276 2429850 2370572
3171.38 2158656 1981076 1928396 1742070 1642052 1642798
3177.17 1599976 1494240 1318912 1126314 981216 904630
3182.95 796880 594686 518932 508820 459562 386256
3188.74 231244 101044 112588 84632-37026-122676
3194.53-112728-139950-208570-229392-159670-129734
3200.31-242110-379012-405056-375708-324070-334768
3206.10-390572-405310-384968-414556-471414-462172
3211.88-405648-393916-365150-349218-387672-444032
3217.67-384176-264866-269960-318196-292406-328958
3223.45-323288-230672-258686-471250-597810-483832
3229.24-178076 65006 21996-140066-211382-218652
3235.02-213168-288414-388444-507820-607474-589880
3240.81-477086-440320-514806-574326-603826-697676
3246.59-759326-694338-586144-599590-615204-557496
3252.38-536230-591072-630390-622316-562236-462828
3258.17-363712-332882-347648-389140-333238-236296
3263.95-255314-404204-536052-543736-457566-414938
3269.74-374430-324942-352682-426826-454570-438560
3275.52-419254-421926-365706-291180-270052-354182
3281.31-442240-407236-264628-173638-185362-275534
3287.09-343410-346848-319676-348884-360556-311308
3292.88-284304-288936-200296-86346-43116-15138
3298.66 13534-31490-51844-67642-168718-278068
3304.45-291108-216062-66208 56270 113044 139702
3310.23 237620 340422 399646 479922 598246 734718
3316.02 887410 1001076 1090814 1176604 1210632 1151864
3321.80 1147752 1192132 1178252 1112072 1113988 1054782
3327.59 933642 812220 650204 728754 1150888 1421102
3333.38 1326600 1216802 1356368 1563500 1768262 2015000
3339.16 2198268 2257822 2245974 2150010 1979232 1799028
3344.95 1681910 1473252 1121068 793586 649802 626390
3350.73 611806 486228 316574 248778 271770 323154
3356.52 455116 647272 750364 729810 766738 767806
3362.30 655750 563244 501058 368942 267822 181166
3368.09 99954 143134 233274 197932 152416 154750
3373.87 95980 34098 27900-14690-61196-125012
3379.66-77910 30252 10648-90528-153064-173972
3385.44-202006-301470-405010-422762-416318-380132
3391.23-143362-1514-95718-181514-253268-330164
3397.02-384484-479060-492332-356084-170122-108644
3402.80-181490-292942-377442-499472-534248-334858
3408.59-189434-300706-358386-253230-183130-237026
3414.37-273742-302582-288254-226118-143874-85410
3420.16-47818-71392-106778-119360-155602-206242
3425.94-208306-165106-111316-134788-135664-51862
3431.73-36366-146386-188008-136824-158564-169450
3437.51-39636-30102-133276-123118 27926 68046
3443.30-75854-182172-79150 25360-38812-39304
3449.08 37594 34224 47674 72326 123502 227410
3454.87 302714 308752 222626 46254-37542 7188
3460.66 74024 75094-406-119734-192032-183888
3466.44-133834-115868 6930 135132 98180-28450
3472.23-113726-101876 26278 131694 100572 16274
3478.01-24784-48574-41790 51896 208530 231284
3483.80 119014 50608 51844 15996-9928 43970
3489.58 111964 82076 36086 158748 382704 445316
3495.37 365204 301196 327408 332302 317142 349062
3501.15 513874 757676 767014 458796 208916 178312
3506.94 307680 498850 572900 471330 365228 430454
3512.72 662098 740790 743594 848430 936260 918998
3518.51 802486 704308 735672 777572 801120 799282
3524.30 828660 891888 913218 799812 614390 487782
3530.08 441316 442978 572926 580004 421966 462008
3535.87 578924 503094 420396 450102 519594 573466
3541.65 685944 768808 825594 867932 878054 785916
3547.44 577004 364646 260928 361448 486750 356056
3553.22 143600 56752 89422 70182 23208 62932
3559.01 193054 185564 172104 314798 434028 650222
3564.79 1173174 1606802 1731090 1321488 689412 390624
3570.58 247204 194216 239454 197948 101876 117868
3576.36 141958 104864 224332 281166 215642 281984
3582.15 367528 324822 583884 1300562 1705786 1863436
3587.94 1812110 1003870 342090 366968 712854 830342
3593.72 870150 919034 758790 647284 666574 725958
3599.51 808516 686092 512156 484812 493116 570140
3605.29 948750 1309092 1906904 2601178 1994150 1353584
3611.08 1970112 2135544 1610212 1320844 1147404 1373848
3616.86 1961668 2665918 2906644 1959444 1056114 803900
3622.65 766268 868146 1142376 1596464 3142584 5442216
3628.43 5933660 3901976 1946084 1568602 1886138 1906404
3634.22 1622172 1501906 1581318 1637522 1575552 1519708
3640.00 1614100 1772506 1749128 1650454 1787734 2430158
3645.79 3533042 4528542 5809292 6391592 5517722 4162958
3651.57 2698010 1917354 2226742 3700476 4613526 3460674
3657.36 2249062 2020918 2025838 1926394 1736608 1577388
3663.15 1463176 1380010 1296558 1411120 2312900 3614456
3668.93 5331742 5995446 3728514 1959216 3000238 5694440
3674.72 7200842 5189630 2313042 1501404 1514866 1040274
3680.50 573520 473334 435154 345322 246940 588726
3686.29 2844468 5685442 4736938 2593124 2420570 1785682
3692.07 773646 475334 413688 366068 330946 295038
3697.86 264570 323876 928416 1586302 1174956 427702
3703.64 175632 144638 146876 300548 1035662 1683870
3709.43 1771408 2979584 3769996 2037296 523148 200460
3715.21 43634 82538 367742 484690 292398 466978
3721.00 958522 805882 447146 648646 1105262 1146694
3726.79 510476 22056 22280 851956 2622892 2908230
3732.57 1913822 2333974 3328370 3640968 2637354 1163770
3738.36 449604 438456 692916 1014968 3777718 8625578
3744.14 8217642 3167244 851246 2330048 5407236 5437732
3749.93 4211980 5835672 5050722 1609542 261748 584606
3755.71 846702 560586 744788 1325518 948606 134906
3761.50-73524-568 281606 822818 762886 177452
3767.28 312282 1324164 1664926 643086-167272-305102
3773.07-272646-230346-138440-82376 98366 669048
3778.85 859772 234180-173848-198814-64856 104038
3784.64 38120-198972-304702-282192-272876-262680
3790.43-228636-283700-286184-147662 464338 1246240
3796.21 1105620 400132 327510 2123150 5138012 4862262
3802.00 1924438 384516 381112 1849568 3541614 2568878
3807.78 536390-129850-99692-10392 54986 203822
3813.57 1597538 4745246 5321618 2427492 834096 1415806
3819.35 3193834 4321620 3071050 1250428 699560 874868
3825.14 1352894 1520090 1125096 817150 1074350 2068564
3830.92 2673046 2198944 2335682 3093276 3121048 4651690
3836.71 7318212 6152112 3618614 3204140 2980270 2647354
3842.49 2781066 2329778 1536260 1310972 1376950 1508568
3848.28 1792872 2469668 4680504 7081768 9280430 11372020
3854.07 8409546 3869446 2813688 2739290 2404636 2239160
3859.85 2544200 2825084 2385258 2413462 3264846 2803698
3865.64 1343746 972434 2246618 4268634 4132224 1875604
3871.42 710084 1158020 1585492 1012306 354558 242200
3877.21 467366 1191130 2082782 1869766 1010844 687320
3882.99 1059706 2558168 3509992 2177172 842544 575766
3888.78 996834 2249208 2622354 1553434 929828 864746
3894.56 843732 858348 1105186 2004256 2729766 2591796
3900.35 2949476 3170376 3101022 3337832 2642810 1659816
3906.13 1268928 1184272 1117336 908006 747698 665392
3911.92 662254 738142 898316 1297720 1817680 1855692
3917.70 1640964 1768086 1690602 1271916 1171030 1396616
3923.49 1621546 1507382 1072492 794022 836496 924458
3929.28 879448 906404 1130234 1085418 788916 513472
3935.06 343042 392206 509600 445938 393924 452190
3940.85 646964 832718 735998 544098 453136 510588
3946.63 642658 702366 785086 704978 524012 459578
3952.42 453394 491930 523992 522674 511166 485162
3958.20 515202 607990 742548 737570 548530 450332
3963.99 509252 549360 637850 808870 934684 959864
3969.77 960456 1003826 1058836 1118208 1324862
##END=
