##TITLE=HEXAMETHYLDISILOXANE
##JCAMP-DX=4.24
##DATA TYPE=INFRARED SPECTRUM
##CLASS=COBLENTZ III
##ORIGIN=DOW CORNING CORP.
##OWNER=COBLENTZ SOCIETY
Collection (C) 2018 copyright by the U.S. Secretary of Commerce
on behalf of the United States of America. All rights reserved.
##DATE=1965/12/23
##NAMES=bis(trimethylsilyl) ether
1,1,1,3,3,3-hexamethyldisiloxane
##CAS REGISTRY NO=107-46-0
##MOLFORM=C6 H18 O Si2
##BP=100 C
##SOURCE REFERENCE=COBLENTZ NO. 5573
##$NIST SOURCE=COBLENTZ
##$NIST IMAGE=cob5573
##SPECTROMETER/DATA SYSTEM=PERKIN-ELMER 521 (GRATING)
##INSTRUMENT PARAMETERS=FILTERS AT 3160, 2500, 2000, 1150, 700, 410. GRATING CHANGES: 2000, 630 CM^-^1
##STATE=SOLUTION (10% IN CCl4 FOR 3800-1300, 2% IN CS2 FOR 1300-650, AND 10% IN CCl4 FOR 650-250 CM^-^1)
##PATH LENGTH=0.012 CM, 0.011 CM, AND 0.010 CM
##SAMPLING PROCEDURE=TRANSMISSION
##RESOLUTION=2
##DATA PROCESSING=DIGITIZED BY NIST FROM HARD COPY (FROM TWO SEGMENTS)
##XUNITS=1/CM
##YUNITS=TRANSMITTANCE
##XFACTOR=1.000000
##YFACTOR=1
##DELTAX=0.923788
##FIRSTX=216.166
##LASTX=3781.99
##FIRSTY=0.764
##MAXX=3781.99
##MINX=216.166
##MAXY=0.944
##MINY=0.002
##NPOINTS=3861
##XYDATA=(X++(Y..Y))
216.166000 0.7640 0.7480 0.7380 0.7380 0.7380
220.784939 0.7380 0.7380 0.7380 0.7390 0.7400
225.403878 0.7420 0.7430 0.7440 0.7450 0.7470
230.022817 0.7480 0.7490 0.7500 0.7530 0.7540
234.641756 0.7550 0.7580 0.7590 0.7610 0.7610
239.260695 0.7620 0.7630 0.7640 0.7660 0.7660
243.879634 0.7670 0.7680 0.7680 0.7690 0.7710
248.498573 0.7710 0.7720 0.7730 0.7730 0.7740
253.117513 0.7760 0.7770 0.7770 0.7790 0.7810
257.736452 0.7820 0.7830 0.7840 0.7860 0.7860
262.355391 0.7870 0.7880 0.7880 0.7890 0.7910
266.974330 0.7920 0.7920 0.7930 0.7940 0.7940
271.593269 0.7960 0.7970 0.7980 0.7980 0.8000
276.212208 0.8000 0.8010 0.8010 0.8010 0.8010
280.831147 0.8010 0.8010 0.8010 0.8000 0.8000
285.450086 0.8000 0.7980 0.7980 0.7970 0.7960
290.069025 0.7940 0.7930 0.7910 0.7890 0.7860
294.687964 0.7830 0.7820 0.7790 0.7770 0.7740
299.306903 0.7720 0.7690 0.7630 0.7550 0.7480
303.925842 0.7420 0.7340 0.7270 0.7190 0.7090
308.544781 0.6900 0.6740 0.6600 0.6470 0.6310
313.163720 0.6111 0.5861 0.5531 0.5102 0.4264
317.782659 0.3970 0.3690 0.3151 0.1014 0.0990
322.401598 0.1000 0.1030 0.1040 0.1140 0.1240
327.020538 0.1340 0.1440 0.1640 0.2438 0.3218
331.639477 0.3240 0.3668 0.4437 0.4938 0.5935
336.258416 0.6180 0.6200 0.6460 0.6999 0.7000
340.877355 0.7229 0.7658 0.7670 0.7809 0.7929
345.496294 0.8200 0.8210 0.8230 0.8270 0.8310
350.115233 0.8350 0.8380 0.8420 0.8460 0.8500
354.734172 0.8550 0.8560 0.8590 0.8610 0.8670
359.353111 0.8670 0.8700 0.8720 0.8750 0.8770
363.972050 0.8800 0.8830 0.8840 0.8850 0.8860
368.590989 0.8880 0.8890 0.8900 0.8910 0.8910
373.209928 0.8910 0.8910 0.8910 0.8900 0.8900
377.828867 0.8890 0.8880 0.8860 0.8850 0.8840
382.447806 0.8830 0.8810 0.8810 0.8810 0.8810
387.066745 0.8830 0.8890 0.8890 0.8900 0.8900
391.685684 0.8900 0.8900 0.8890 0.8890 0.8890
396.304623 0.8890 0.8890 0.8890 0.8900 0.8890
400.923563 0.8890 0.8890 0.8890 0.8890 0.8900
405.542502 0.8900 0.8900 0.8900 0.8900 0.8900
410.161441 0.8890 0.8890 0.8860 0.8860 0.8850
414.780380 0.8850 0.8840 0.8840 0.8830 0.8810
419.399319 0.8800 0.8790 0.8770 0.8770 0.8760
424.018258 0.8750 0.8740 0.8740 0.8720 0.8720
428.637197 0.8720 0.8710 0.8710 0.8700 0.8700
433.256136 0.8700 0.8700 0.8690 0.8690 0.8690
437.875075 0.8690 0.8670 0.8670 0.8670 0.8660
442.494014 0.8660 0.8650 0.8620 0.8590 0.8560
447.112953 0.8510 0.8490 0.8470 0.8460 0.8450
451.731892 0.8440 0.8420 0.8410 0.8360 0.8330
456.350831 0.8330 0.8310 0.8310 0.8300 0.8280
460.969770 0.8270 0.8270 0.8260 0.8250 0.8220
465.588709 0.8210 0.8200 0.8160 0.8130 0.8130
470.207648 0.8120 0.8120 0.8110 0.8110 0.8100
474.826588 0.8080 0.8080 0.8080 0.8070 0.8060
479.445527 0.8050 0.8030 0.8020 0.8010 0.8000
484.064466 0.7970 0.7940 0.7940 0.7930 0.7920
488.683405 0.7860 0.7760 0.7730 0.7720 0.7710
493.302344 0.7690 0.7620 0.7550 0.7440 0.7400
497.921283 0.7380 0.7350 0.7320 0.7290 0.7270
502.540222 0.7230 0.7200 0.7150 0.7100 0.7060
507.159161 0.7030 0.6990 0.6930 0.6890 0.6840
511.778100 0.6810 0.6810 0.6810 0.6800 0.6800
516.397039 0.6790 0.6790 0.6800 0.6810 0.6830
521.015978 0.6850 0.6860 0.6890 0.6890 0.6910
525.634917 0.6950 0.7050 0.7060 0.7090 0.7229
530.253856 0.7240 0.7380 0.7390 0.7400 0.7420
534.872795 0.7570 0.7580 0.7610 0.7640 0.7670
539.491734 0.7720 0.7740 0.7760 0.7770 0.7790
544.110673 0.7810 0.7820 0.7840 0.7860 0.7870
548.729613 0.7880 0.7890 0.7910 0.7920 0.7920
553.348552 0.7930 0.7930 0.7940 0.7940 0.7960
557.967491 0.7970 0.7970 0.7980 0.7980 0.8000
562.586430 0.8000 0.8010 0.8010 0.8020 0.8030
567.205369 0.8030 0.8050 0.8060 0.8060 0.8070
571.824308 0.8080 0.8080 0.8100 0.8110 0.8110
576.443247 0.8110 0.8110 0.8110 0.8110 0.8110
581.062186 0.8120 0.8120 0.8120 0.8120 0.8120
585.681125 0.8130 0.8130 0.8130 0.8130 0.8130
590.300064 0.8130 0.8130 0.8130 0.8130 0.8130
594.919003 0.8120 0.8110 0.8070 0.8050 0.8020
599.537942 0.7980 0.7940 0.7920 0.7890 0.7870
604.156881 0.7820 0.7450 0.7370 0.7290 0.7150
608.775820 0.6961 0.6791 0.6441 0.5683 0.4884
613.394759 0.3830 0.3820 0.3830 0.4898 0.5958
618.013698 0.3617 0.3580 0.3580 0.3590 0.6426
622.632638 0.7839 0.7980 0.8150 0.8150 0.8160
627.251577 0.8170 0.8180 0.8180 0.8170 0.8160
631.870516 0.8160 0.8150 0.8130 0.8130 0.8110
636.489455 0.8110 0.8110 0.8110 0.8100 0.8100
641.108394 0.8100 0.8080 0.8080 0.8080 0.8070
645.727333 0.8060 0.8060 0.8010 0.7910 0.7840
650.346272 0.7790 0.7770 0.7760 0.7740 0.7740
654.965211 0.7740 0.7740 0.7740 0.7740 0.7720
659.584150 0.7680 0.7670 0.7670 0.7670 0.7690
664.203089 0.7720 0.7740 0.7740 0.7760 0.7760
668.822028 0.7760 0.7730 0.7640 0.7630 0.7610
673.440967 0.7580 0.7530 0.7470 0.7400 0.7300
678.059906 0.7200 0.7060 0.6910 0.6740 0.6451
682.678845 0.6440 0.6440 0.6440 0.6450 0.6589
687.297784 0.6690 0.6850 0.6990 0.7130 0.7230
691.916724 0.7320 0.7370 0.7450 0.7500 0.7550
696.535663 0.7580 0.7610 0.7610 0.7660 0.7690
701.154602 0.7710 0.7720 0.7730 0.7740 0.7760
705.773541 0.7770 0.7770 0.7770 0.7770 0.7770
710.392480 0.7760 0.7760 0.7760 0.7760 0.7760
715.011419 0.7740 0.7730 0.7690 0.7680 0.7680
719.630358 0.7670 0.7660 0.7660 0.7630 0.7590
724.249297 0.7570 0.7530 0.7520 0.7500 0.7490
728.868236 0.7470 0.7450 0.7430 0.7400 0.7380
733.487175 0.7340 0.7300 0.7270 0.7180 0.7090
738.106114 0.7000 0.6910 0.6790 0.6621 0.6421
742.725053 0.6170 0.5830 0.5710 0.5570 0.5440
747.343992 0.5300 0.4443 0.3533 0.3450 0.3301
751.962931 0.3280 0.3300 0.3420 0.3500 0.4029
756.581870 0.4549 0.5497 0.5918 0.6219 0.6349
761.200809 0.6380 0.6410 0.6440 0.6500 0.6660
765.819749 0.6840 0.6950 0.7040 0.7100 0.7150
770.438688 0.7180 0.7220 0.7220 0.7230 0.7240
775.057627 0.7240 0.7250 0.7250 0.7250 0.7250
779.676566 0.7250 0.7250 0.7250 0.7250 0.7250
784.295505 0.7240 0.7240 0.7240 0.7230 0.7190
788.914444 0.7130 0.7050 0.6950 0.6900 0.6880
793.533383 0.6800 0.6760 0.6690 0.6610 0.6511
798.152322 0.6400 0.6280 0.6150 0.6010 0.5840
802.771261 0.5690 0.5520 0.5341 0.5151 0.4961
807.390200 0.4760 0.4550 0.4300 0.4020 0.3731
812.009139 0.3421 0.3061 0.2711 0.2331 0.1932
816.628078 0.1910 0.1890 0.1890 0.1890 0.1890
821.247017 0.1910 0.1930 0.1970 0.1970 0.1940
825.865956 0.1890 0.1840 0.1760 0.1680 0.1251
830.484895 0.1090 0.0851 0.0740 0.0650 0.0550
835.103834 0.0410 0.0320 0.0310 0.0320 0.0330
839.722774 0.0450 0.0460 0.0490 0.0500 0.0510
844.341713 0.0520 0.0710 0.0940 0.1239 0.1589
848.960652 0.1979 0.2409 0.2828 0.3228 0.3588
853.579591 0.3910 0.4150 0.4300 0.4320 0.4500
858.198530 0.4610 0.4740 0.4760 0.4989 0.5239
862.817469 0.5390 0.5500 0.5610 0.5680 0.5760
867.436408 0.5830 0.5910 0.6000 0.6109 0.6150
872.055347 0.6180 0.6210 0.6250 0.6270 0.6280
876.674286 0.6310 0.6320 0.6320 0.6360 0.6400
881.293225 0.6440 0.6460 0.6500 0.6540 0.6600
885.912164 0.6660 0.6740 0.6830 0.6880 0.6990
890.531103 0.7080 0.7100 0.7110 0.7160 0.7220
895.150042 0.7240 0.7290 0.7370 0.7400 0.7440
899.768981 0.7480 0.7530 0.7570 0.7610 0.7640
904.387920 0.7660 0.7660 0.7680 0.7690 0.7720
909.006859 0.7730 0.7760 0.7780 0.7830 0.7860
913.625799 0.7870 0.7880 0.7890 0.7910 0.7920
918.244738 0.7930 0.7930 0.7930 0.7930 0.7930
922.863677 0.7930 0.7930 0.7930 0.7930 0.7940
927.482616 0.7940 0.7960 0.7960 0.7960 0.7960
932.101555 0.7960 0.7960 0.7960 0.7940 0.7940
936.720494 0.7940 0.7940 0.7930 0.7930 0.7930
941.339433 0.7930 0.7930 0.7930 0.7930 0.7930
945.958372 0.7930 0.7930 0.7920 0.7920 0.7920
950.577311 0.7920 0.7920 0.7920 0.7910 0.7910
955.196250 0.7910 0.7890 0.7890 0.7840 0.7830
959.815189 0.7810 0.7810 0.7790 0.7790 0.7780
964.434128 0.7780 0.7780 0.7770 0.7760 0.7760
969.053067 0.7740 0.7730 0.7730 0.7720 0.7720
973.672006 0.7710 0.7690 0.7680 0.7660 0.7620
978.290945 0.7590 0.7570 0.7540 0.7520 0.7500
982.909884 0.7480 0.7430 0.7380 0.7330 0.7280
987.528824 0.7250 0.7230 0.7150 0.7100 0.7040
992.147763 0.7000 0.6950 0.6900 0.6850 0.6770
996.766702 0.6690 0.6590 0.6461 0.6350 0.6221
1001.385641 0.6100 0.5980 0.5870 0.5760 0.5640
1006.004580 0.5540 0.5450 0.5380 0.5320 0.5270
1010.623519 0.5230 0.5220 0.5180 0.5140 0.5080
1015.242458 0.5040 0.5000 0.5000 0.4930 0.4811
1019.861397 0.4670 0.4520 0.4400 0.4300 0.4250
1024.480336 0.4100 0.3631 0.3480 0.3331 0.3181
1029.099275 0.3030 0.2880 0.2720 0.2570 0.2470
1033.718214 0.2251 0.1881 0.1681 0.0983 0.0930
1038.337153 0.0890 0.0840 0.0800 0.0760 0.0610
1042.956092 0.0590 0.0590 0.0590 0.0590 0.0590
1047.575031 0.0590 0.0590 0.0600 0.0620 0.0700
1052.193970 0.0720 0.0889 0.0960 0.1060 0.1140
1056.812909 0.1270 0.1430 0.1590 0.1760 0.1930
1061.431849 0.2119 0.2299 0.2489 0.2669 0.2859
1066.050788 0.3050 0.3230 0.3420 0.3580 0.3740
1070.669727 0.3910 0.4050 0.4179 0.4299 0.4549
1075.288666 0.4760 0.4940 0.5050 0.5180 0.5320
1079.907605 0.5470 0.5590 0.5710 0.5770 0.5870
1084.526544 0.5960 0.6080 0.6130 0.6210 0.6280
1089.145483 0.6360 0.6420 0.6490 0.6550 0.6610
1093.764422 0.6670 0.6710 0.6760 0.6800 0.6830
1098.383361 0.6900 0.6930 0.6990 0.7000 0.7030
1103.002300 0.7060 0.7100 0.7150 0.7160 0.7180
1107.621239 0.7190 0.7200 0.7220 0.7230 0.7240
1112.240178 0.7250 0.7270 0.7280 0.7280 0.7290
1116.859117 0.7290 0.7300 0.7320 0.7320 0.7350
1121.478056 0.7390 0.7430 0.7450 0.7450 0.7470
1126.096995 0.7480 0.7500 0.7520 0.7550 0.7580
1130.715934 0.7620 0.7630 0.7640 0.7660 0.7660
1135.334874 0.7690 0.7730 0.7760 0.7790 0.7810
1139.953813 0.7830 0.7910 0.7930 0.7940 0.7960
1144.572752 0.7960 0.7970 0.7970 0.8000 0.8010
1149.191691 0.8010 0.8030 0.8060 0.8080 0.8080
1153.810630 0.8100 0.8110 0.8120 0.8120 0.8130
1158.429569 0.8150 0.8160 0.8160 0.8170 0.8180
1163.048508 0.8200 0.8210 0.8210 0.8210 0.8210
1167.667447 0.8210 0.8210 0.8210 0.8210 0.8210
1172.286386 0.8210 0.8210 0.8210 0.8210 0.8210
1176.905325 0.8210 0.8210 0.8210 0.8200 0.8170
1181.524264 0.8170 0.8170 0.8170 0.8170 0.8170
1186.143203 0.8170 0.8170 0.8170 0.8170 0.8170
1190.762142 0.8160 0.8160 0.8150 0.8130 0.8130
1195.381081 0.8130 0.8120 0.8120 0.8120 0.8110
1200.000020 0.8110 0.8110 0.8100 0.8070 0.8070
1204.618960 0.8060 0.8030 0.8020 0.8000 0.7980
1209.237899 0.7970 0.7930 0.7910 0.7870 0.7840
1213.856838 0.7820 0.7810 0.7780 0.7760 0.7730
1218.475777 0.7710 0.7680 0.7640 0.7590 0.7550
1223.094716 0.7520 0.7480 0.7430 0.7400 0.7370
1227.713655 0.7320 0.7151 0.6951 0.6850 0.6721
1232.332594 0.6600 0.6460 0.6330 0.6210 0.6070
1236.951533 0.5940 0.5820 0.4366 0.4171 0.4001
1241.570472 0.3810 0.3630 0.3030 0.2051 0.0652
1246.189411 0.0520 0.0321 0.0310 0.0320 0.0449
1250.808350 0.0860 0.1890 0.2809 0.3639 0.4369
1255.427289 0.4989 0.5479 0.5859 0.6079 0.6170
1260.046228 0.6540 0.6750 0.6890 0.6960 0.7040
1264.665167 0.7110 0.7160 0.7190 0.7220 0.7250
1269.284106 0.7370 0.7440 0.7480 0.7470 0.7490
1273.903045 0.7500 0.7550 0.7610 0.7630 0.7660
1278.521985 0.7670 0.7680 0.7690 0.7720 0.7740
1283.140924 0.7760 0.7770 0.7770 0.7770 0.7770
1287.759863 0.7760 0.7740 0.7730 0.7710 0.7680
1292.378802 0.7680 0.7680 0.7670 0.7680 0.7680
1296.997741 0.7690 0.7690 0.7710 0.7710 0.7730
1301.616680 0.7740 0.7770 0.7780 0.7820 0.7860
1306.235619 0.7890 0.7960 0.7970 0.8010 0.8030
1310.854558 0.8160 0.8200 0.8230 0.8270 0.8310
1315.473497 0.8370 0.8380 0.8380 0.8400 0.8400
1320.092436 0.8400 0.8400 0.8400 0.8400 0.8400
1324.711375 0.8400 0.8400 0.8400 0.8400 0.8400
1329.330314 0.8380 0.8380 0.8370 0.8360 0.8350
1333.949253 0.8330 0.8320 0.8270 0.8250 0.8230
1338.568192 0.8220 0.8210 0.8200 0.8180 0.8160
1343.187131 0.8130 0.8130 0.8130 0.8130 0.8130
1347.806070 0.8130 0.8130 0.8130 0.8130 0.8130
1352.425010 0.8120 0.8120 0.8120 0.8120 0.8120
1357.043949 0.8120 0.8120 0.8120 0.8120 0.8120
1361.662888 0.8120 0.8120 0.8120 0.8130 0.8130
1366.281827 0.8130 0.8150 0.8150 0.8160 0.8170
1370.900766 0.8160 0.8160 0.8160 0.8160 0.8160
1375.519705 0.8150 0.8120 0.8110 0.8060 0.8000
1380.138644 0.7940 0.7890 0.7830 0.7770 0.7690
1384.757583 0.7620 0.7520 0.7391 0.7280 0.6773
1389.376522 0.6750 0.6720 0.6710 0.6181 0.5960
1393.995461 0.5930 0.5930 0.5920 0.5930 0.5930
1398.614400 0.5940 0.5940 0.5940 0.5930 0.5910
1403.233339 0.5890 0.5870 0.5740 0.5710 0.5690
1407.852278 0.5710 0.5720 0.5740 0.5770 0.5820
1412.471217 0.6020 0.6249 0.6370 0.6519 0.6669
1417.090156 0.6720 0.6750 0.6810 0.6830 0.6810
1421.709095 0.6800 0.6770 0.6740 0.6690 0.6640
1426.328035 0.6600 0.6550 0.6490 0.6420 0.6350
1430.946974 0.6260 0.6180 0.6170 0.6170 0.6180
1435.565913 0.6180 0.6210 0.6230 0.6260 0.6310
1440.184852 0.6330 0.6350 0.6380 0.6410 0.6420
1444.803791 0.6420 0.6440 0.6460 0.6520 0.6610
1449.422730 0.6740 0.6890 0.7029 0.7149 0.7230
1454.041669 0.7380 0.7580 0.7730 0.7790 0.7880
1458.660608 0.8079 0.8210 0.8280 0.8330 0.8370
1463.279547 0.8400 0.8450 0.8510 0.8570 0.8650
1467.898486 0.8670 0.8700 0.8710 0.8720 0.8740
1472.517425 0.8750 0.8760 0.8760 0.8770 0.8790
1477.136364 0.8800 0.8800 0.8810 0.8810 0.8810
1481.755303 0.8830 0.8830 0.8830 0.8840 0.8840
1486.374242 0.8840 0.8850 0.8850 0.8850 0.8860
1490.993181 0.8860 0.8860 0.8860 0.8850 0.8860
1495.612120 0.8860 0.8880 0.8880 0.8890 0.8890
1500.231060 0.8900 0.8900 0.8910 0.8910 0.8930
1504.849999 0.8930 0.8940 0.8950 0.8950 0.8960
1509.468938 0.8980 0.8980 0.8990 0.9000 0.9000
1514.087877 0.9010 0.9030 0.9030 0.9030 0.9010
1518.706816 0.9010 0.9030 0.9030 0.9040 0.9060
1523.325755 0.9060 0.9060 0.9050 0.9010 0.9000
1527.944694 0.8990 0.8980 0.8960 0.8940 0.8940
1532.563633 0.8930 0.8940 0.8940 0.8900 0.8890
1537.182572 0.8890 0.8890 0.8880 0.8860 0.8830
1541.801511 0.8790 0.8750 0.8720 0.8700 0.8670
1546.420450 0.8660 0.8640 0.8610 0.8570 0.8520
1551.039389 0.8450 0.8370 0.8320 0.8300 0.8250
1555.658328 0.8200 0.8110 0.8050 0.8010 0.7980
1560.277267 0.7910 0.7810 0.7690 0.7570 0.7441
1564.896206 0.7330 0.7220 0.7140 0.7080 0.7060
1569.515145 0.7060 0.7080 0.7090 0.7090 0.7190
1574.134085 0.7340 0.7490 0.7630 0.7710 0.7790
1578.753024 0.8019 0.8170 0.8319 0.8449 0.8540
1583.371963 0.8590 0.8640 0.8710 0.8810 0.8860
1587.990902 0.8900 0.8910 0.8980 0.9040 0.9110
1592.609841 0.9130 0.9140 0.9140 0.9150 0.9160
1597.228780 0.9180 0.9180 0.9180 0.9190 0.9190
1601.847719 0.9200 0.9200 0.9200 0.9220 0.9220
1606.466658 0.9220 0.9230 0.9230 0.9240 0.9240
1611.085597 0.9240 0.9250 0.9250 0.9250 0.9270
1615.704536 0.9270 0.9250 0.9270 0.9270 0.9270
1620.323475 0.9270 0.9250 0.9250 0.9250 0.9240
1624.942414 0.9250 0.9250 0.9250 0.9240 0.9240
1629.561353 0.9240 0.9280 0.9280 0.9280 0.9280
1634.180292 0.9280 0.9270 0.9270 0.9270 0.9270
1638.799231 0.9270 0.9270 0.9270 0.9270 0.9250
1643.418171 0.9250 0.9240 0.9230 0.9220 0.9220
1648.037110 0.9240 0.9240 0.9250 0.9270 0.9270
1652.656049 0.9280 0.9280 0.9280 0.9280 0.9280
1657.274988 0.9280 0.9280 0.9280 0.9280 0.9280
1661.893927 0.9280 0.9280 0.9280 0.9280 0.9280
1666.512866 0.9280 0.9280 0.9280 0.9280 0.9280
1671.131805 0.9280 0.9280 0.9280 0.9250 0.9250
1675.750744 0.9250 0.9240 0.9240 0.9240 0.9250
1680.369683 0.9270 0.9270 0.9270 0.9270 0.9270
1684.988622 0.9270 0.9270 0.9250 0.9250 0.9240
1689.607561 0.9230 0.9200 0.9180 0.9160 0.9150
1694.226500 0.9160 0.9160 0.9140 0.9140 0.9130
1698.845439 0.9110 0.9080 0.9050 0.9010 0.9000
1703.464378 0.8980 0.8950 0.8940 0.8930 0.8910
1708.083317 0.8910 0.8900 0.8900 0.8900 0.8890
1712.702256 0.8890 0.8880 0.8880 0.8860 0.8860
1717.321196 0.8850 0.8850 0.8850 0.8840 0.8840
1721.940135 0.8840 0.8830 0.8830 0.8830 0.8830
1726.559074 0.8830 0.8830 0.8850 0.8850 0.8850
1731.178013 0.8840 0.8800 0.8770 0.8760 0.8750
1735.796952 0.8750 0.8750 0.8750 0.8740 0.8750
1740.415891 0.8750 0.8760 0.8760 0.8790 0.8800
1745.034830 0.8830 0.8840 0.8860 0.8890 0.8930
1749.653769 0.8950 0.8980 0.9050 0.9060 0.9090
1754.272708 0.9090 0.9140 0.9150 0.9150 0.9180
1758.891647 0.9180 0.9200 0.9200 0.9240 0.9240
1763.510586 0.9250 0.9250 0.9270 0.9270 0.9270
1768.129525 0.9270 0.9270 0.9270 0.9270 0.9270
1772.748464 0.9270 0.9280 0.9250 0.9270 0.9270
1777.367403 0.9280 0.9280 0.9290 0.9300 0.9300
1781.986342 0.9300 0.9320 0.9320 0.9330 0.9330
1786.605281 0.9340 0.9340 0.9340 0.9350 0.9370
1791.224221 0.9380 0.9390 0.9400 0.9420 0.9420
1795.843160 0.9420 0.9420 0.9420 0.9420 0.9420
1800.462099 0.9420 0.9420 0.9420 0.9420 0.9430
1805.081038 0.9430 0.9430 0.9430 0.9430 0.9430
1809.699977 0.9430 0.9430 0.9430 0.9430 0.9430
1814.318916 0.9430 0.9430 0.9430 0.9430 0.9430
1818.937855 0.9430 0.9430 0.9430 0.9430 0.9440
1823.556794 0.9440 0.9440 0.9440 0.9440 0.9440
1828.175733 0.9440 0.9440 0.9440 0.9440 0.9430
1832.794672 0.9420 0.9430 0.9430 0.9430 0.9440
1837.413611 0.9440 0.9440 0.9440 0.9440 0.9430
1842.032550 0.9420 0.9420 0.9420 0.9400 0.9400
1846.651489 0.9390 0.9390 0.9380 0.9380 0.9370
1851.270428 0.9370 0.9350 0.9340 0.9340 0.9320
1855.889367 0.9280 0.9250 0.9230 0.9200 0.9180
1860.508306 0.9150 0.9130 0.9100 0.9080 0.9040
1865.127246 0.8940 0.8790 0.8790 0.8790 0.8800
1869.746185 0.8900 0.9050 0.9180 0.9220 0.9240
1874.365124 0.9250 0.9270 0.9280 0.9280 0.9290
1878.984063 0.9290 0.9300 0.9320 0.9340 0.9340
1883.603002 0.9340 0.9340 0.9340 0.9340 0.9340
1888.221941 0.9340 0.9330 0.9330 0.9320 0.9320
1892.840880 0.9300 0.9300 0.9300 0.9290 0.9280
1897.459819 0.9270 0.9250 0.9240 0.9230 0.9230
1902.078758 0.9220 0.9200 0.9190 0.9180 0.9160
1906.697697 0.9150 0.9110 0.9100 0.9090 0.9050
1911.316636 0.9000 0.8980 0.8950 0.8950 0.8940
1915.935575 0.8940 0.8940 0.8930 0.8940 0.8940
1920.554514 0.8930 0.8910 0.8890 0.8890 0.8880
1925.173453 0.8850 0.8850 0.8830 0.8800 0.8770
1929.792392 0.8760 0.8740 0.8720 0.8710 0.8690
1934.411331 0.8690 0.8690 0.8690 0.8710 0.8720
1939.030271 0.8740 0.8750 0.8830 0.8880 0.8930
1943.649210 0.8930 0.8960 0.8990 0.9000 0.9000
1948.268149 0.9010 0.9040 0.9060 0.9100 0.9130
1952.887088 0.9150 0.9160 0.9180 0.9190 0.9200
1957.506027 0.9220 0.9230 0.9240 0.9250 0.9250
1962.124966 0.9270 0.9270 0.9270 0.9280 0.9280
1966.743905 0.9280 0.9280 0.9280 0.9280 0.9280
1971.362844 0.9280 0.9280 0.9280 0.9280 0.9280
1975.981783 0.9280 0.9280 0.9280 0.9280 0.9280
1980.600722 0.9290 0.9280 0.9280 0.9290 0.9280
1985.219661 0.9280 0.9280 0.9270 0.9270 0.9250
1989.838600 0.9250 0.9240 0.9240 0.9230 0.9230
1994.457539 0.9230 0.9230 0.9230 0.9230 0.9230
1999.076478 0.9240 0.9240 0.9240 0.9240 0.9240
2003.695417 0.9240 0.9245 0.9250 0.9250 0.9250
2008.314356 0.9250 0.9250 0.9250 0.9250 0.9260
2012.933296 0.9270 0.9270 0.9270 0.9270 0.9270
2017.552235 0.9275 0.9281 0.9291 0.9301 0.9317
2022.171174 0.9331 0.9336 0.9341 0.9346 0.9350
2026.790113 0.9350 0.9350 0.9350 0.9350 0.9350
2031.409052 0.9350 0.9350 0.9350 0.9350 0.9349
2036.027991 0.9344 0.9340 0.9340 0.9340 0.9340
2040.646930 0.9340 0.9340 0.9339 0.9334 0.9330
2045.265869 0.9330 0.9330 0.9330 0.9330 0.9330
2049.884808 0.9330 0.9330 0.9329 0.9324 0.9320
2054.503747 0.9320 0.9320 0.9320 0.9320 0.9320
2059.122686 0.9320 0.9320 0.9320 0.9320 0.9320
2063.741625 0.9320 0.9317 0.9307 0.9297 0.9287
2068.360564 0.9275 0.9260 0.9247 0.9237 0.9225
2072.979503 0.9210 0.9193 0.9173 0.9156 0.9146
2077.598442 0.9132 0.9112 0.9096 0.9086 0.9076
2082.217382 0.9066 0.9058 0.9053 0.9050 0.9050
2086.836321 0.9052 0.9057 0.9066 0.9081 0.9094
2091.455260 0.9105 0.9115 0.9125 0.9132 0.9137
2096.074199 0.9140 0.9140 0.9142 0.9147 0.9152
2100.693138 0.9157 0.9160 0.9160 0.9165 0.9175
2105.312077 0.9183 0.9188 0.9193 0.9198 0.9200
2109.931016 0.9200 0.9200 0.9200 0.9206 0.9216
2114.549955 0.9226 0.9236 0.9243 0.9248 0.9250
2119.168894 0.9250 0.9250 0.9250 0.9250 0.9250
2123.787833 0.9250 0.9250 0.9256 0.9266 0.9270
2128.406772 0.9270 0.9270 0.9270 0.9270 0.9270
2133.025711 0.9270 0.9270 0.9270 0.9270 0.9270
2137.644650 0.9270 0.9270 0.9270 0.9273 0.9278
2142.263589 0.9280 0.9280 0.9280 0.9280 0.9280
2146.882528 0.9280 0.9280 0.9280 0.9280 0.9280
2151.501467 0.9280 0.9280 0.9280 0.9280 0.9280
2156.120407 0.9280 0.9280 0.9280 0.9280 0.9280
2160.739346 0.9280 0.9280 0.9280 0.9280 0.9284
2165.358285 0.9289 0.9290 0.9290 0.9290 0.9290
2169.977224 0.9290 0.9290 0.9294 0.9299 0.9300
2174.596163 0.9300 0.9300 0.9300 0.9300 0.9300
2179.215102 0.9313 0.9328 0.9334 0.9339 0.9340
2183.834041 0.9340 0.9340 0.9340 0.9340 0.9340
2188.452980 0.9335 0.9330 0.9330 0.9330 0.9330
2193.071919 0.9330 0.9330 0.9330 0.9325 0.9320
2197.690858 0.9310 0.9300 0.9295 0.9290 0.9290
2202.309797 0.9290 0.9290 0.9290 0.9290 0.9290
2206.928736 0.9290 0.9290 0.9290 0.9290 0.9290
2211.547675 0.9290 0.9290 0.9290 0.9290 0.9290
2216.166614 0.9290 0.9290 0.9290 0.9290 0.9290
2220.785553 0.9290 0.9290 0.9290 0.9290 0.9289
2225.404492 0.9284 0.9280 0.9280 0.9280 0.9280
2230.023432 0.9280 0.9280 0.9279 0.9274 0.9270
2234.642371 0.9270 0.9270 0.9270 0.9270 0.9270
2239.261310 0.9270 0.9270 0.9270 0.9270 0.9270
2243.880249 0.9270 0.9270 0.9270 0.9270 0.9270
2248.499188 0.9271 0.9276 0.9280 0.9280 0.9280
2253.118127 0.9280 0.9280 0.9280 0.9281 0.9286
2257.737066 0.9290 0.9290 0.9290 0.9290 0.9290
2262.356005 0.9290 0.9292 0.9297 0.9300 0.9300
2266.974944 0.9300 0.9300 0.9300 0.9300 0.9300
2271.593883 0.9300 0.9300 0.9300 0.9300 0.9300
2276.212822 0.9300 0.9300 0.9300 0.9300 0.9304
2280.831761 0.9314 0.9320 0.9320 0.9322 0.9327
2285.450700 0.9330 0.9330 0.9332 0.9337 0.9340
2290.069639 0.9340 0.9342 0.9347 0.9350 0.9350
2294.688578 0.9355 0.9365 0.9370 0.9370 0.9370
2299.307517 0.9370 0.9370 0.9370 0.9370 0.9370
2303.926457 0.9365 0.9355 0.9350 0.9350 0.9350
2308.545396 0.9350 0.9350 0.9350 0.9350 0.9350
2313.164335 0.9350 0.9350 0.9350 0.9350 0.9350
2317.783274 0.9350 0.9347 0.9342 0.9340 0.9340
2322.402213 0.9340 0.9340 0.9340 0.9340 0.9340
2327.021152 0.9340 0.9340 0.9340 0.9337 0.9332
2331.640091 0.9333 0.9338 0.9340 0.9340 0.9340
2336.259030 0.9340 0.9340 0.9340 0.9340 0.9340
2340.877969 0.9340 0.9340 0.9340 0.9340 0.9340
2345.496908 0.9340 0.9340 0.9340 0.9340 0.9340
2350.115847 0.9340 0.9340 0.9340 0.9340 0.9340
2354.734786 0.9340 0.9340 0.9340 0.9340 0.9340
2359.353725 0.9340 0.9340 0.9340 0.9340 0.9340
2363.972664 0.9340 0.9340 0.9340 0.9340 0.9340
2368.591603 0.9336 0.9331 0.9326 0.9321 0.9320
2373.210542 0.9320 0.9320 0.9320 0.9320 0.9320
2377.829482 0.9320 0.9320 0.9320 0.9320 0.9320
2382.448421 0.9320 0.9320 0.9320 0.9320 0.9320
2387.067360 0.9320 0.9320 0.9320 0.9320 0.9311
2391.686299 0.9300 0.9300 0.9300 0.9300 0.9300
2396.305238 0.9300 0.9300 0.9300 0.9300 0.9300
2400.924177 0.9300 0.9300 0.9300 0.9300 0.9300
2405.543116 0.9300 0.9300 0.9300 0.9300 0.9300
2410.162055 0.9300 0.9300 0.9300 0.9300 0.9300
2414.780994 0.9300 0.9300 0.9300 0.9300 0.9300
2419.399933 0.9300 0.9300 0.9300 0.9300 0.9300
2424.018872 0.9300 0.9300 0.9300 0.9300 0.9300
2428.637811 0.9300 0.9300 0.9300 0.9300 0.9300
2433.256750 0.9300 0.9299 0.9294 0.9289 0.9284
2437.875689 0.9280 0.9280 0.9279 0.9274 0.9268
2442.494628 0.9258 0.9249 0.9244 0.9239 0.9234
2447.113567 0.9229 0.9224 0.9216 0.9201 0.9189
2451.732507 0.9184 0.9180 0.9180 0.9177 0.9167
2456.351446 0.9160 0.9160 0.9160 0.9160 0.9159
2460.970385 0.9153 0.9152 0.9157 0.9160 0.9160
2465.589324 0.9163 0.9173 0.9182 0.9187 0.9190
2470.208263 0.9190 0.9185 0.9170 0.9155 0.9140
2474.827202 0.9125 0.9110 0.9096 0.9086 0.9074
2479.446141 0.9059 0.9036 0.9001 0.8974 0.8959
2484.065080 0.8946 0.8936 0.8930 0.8930 0.8936
2488.684019 0.8951 0.8982 0.9032 0.9067 0.9082
2493.302958 0.9092 0.9097 0.9107 0.9122 0.9130
2497.921897 0.9130 0.9132 0.9137 0.9142 0.9148
2502.540836 0.9153 0.9158 0.9168 0.9183 0.9193
2507.159775 0.9198 0.9200 0.9200 0.9205 0.9215
2511.778714 0.9220 0.9220 0.9223 0.9228 0.9230
2516.397653 0.9230 0.9233 0.9238 0.9240 0.9240
2521.016592 0.9240 0.9240 0.9240 0.9240 0.9240
2525.635532 0.9240 0.9240 0.9240 0.9240 0.9240
2530.254471 0.9240 0.9240 0.9240 0.9240 0.9233
2534.873410 0.9223 0.9220 0.9220 0.9220 0.9220
2539.492349 0.9220 0.9220 0.9220 0.9220 0.9224
2544.111288 0.9229 0.9234 0.9239 0.9244 0.9249
2548.730227 0.9250 0.9250 0.9250 0.9250 0.9250
2553.349166 0.9250 0.9250 0.9250 0.9250 0.9250
2557.968105 0.9250 0.9250 0.9246 0.9241 0.9236
2562.587044 0.9231 0.9230 0.9230 0.9230 0.9230
2567.205983 0.9230 0.9230 0.9230 0.9230 0.9230
2571.824922 0.9230 0.9226 0.9221 0.9220 0.9220
2576.443861 0.9220 0.9220 0.9220 0.9220 0.9220
2581.062800 0.9220 0.9211 0.9201 0.9200 0.9200
2585.681739 0.9200 0.9200 0.9200 0.9200 0.9200
2590.300678 0.9200 0.9200 0.9200 0.9200 0.9200
2594.919618 0.9200 0.9200 0.9200 0.9200 0.9200
2599.538557 0.9200 0.9200 0.9200 0.9195 0.9190
2604.157496 0.9190 0.9190 0.9190 0.9190 0.9190
2608.776435 0.9190 0.9185 0.9180 0.9180 0.9180
2613.395374 0.9180 0.9180 0.9180 0.9180 0.9180
2618.014313 0.9179 0.9169 0.9160 0.9160 0.9160
2622.633252 0.9160 0.9160 0.9160 0.9160 0.9160
2627.252191 0.9159 0.9154 0.9150 0.9150 0.9149
2631.871130 0.9138 0.9128 0.9118 0.9108 0.9098
2636.490069 0.9089 0.9084 0.9076 0.9056 0.9037
2641.109008 0.9022 0.9010 0.9010 0.9010 0.9010
2645.727947 0.9010 0.9010 0.9009 0.9004 0.9001
2650.346886 0.9006 0.9010 0.9010 0.9013 0.9023
2654.965825 0.9031 0.9036 0.9040 0.9040 0.9041
2659.584764 0.9046 0.9051 0.9057 0.9063 0.9073
2664.203703 0.9080 0.9080 0.9080 0.9080 0.9082
2668.822643 0.9087 0.9090 0.9090 0.9088 0.9083
2673.441582 0.9080 0.9080 0.9084 0.9094 0.9098
2678.060521 0.9093 0.9090 0.9090 0.9090 0.9090
2682.679460 0.9090 0.9090 0.9088 0.9083 0.9080
2687.298399 0.9080 0.9080 0.9080 0.9080 0.9080
2691.917338 0.9076 0.9065 0.9060 0.9060 0.9060
2696.536277 0.9060 0.9058 0.9053 0.9050 0.9050
2701.155216 0.9047 0.9042 0.9037 0.9032 0.9025
2705.774155 0.9015 0.9007 0.9002 0.9000 0.9000
2710.393094 0.9008 0.9023 0.9033 0.9038 0.9043
2715.012033 0.9048 0.9050 0.9050 0.9050 0.9050
2719.630972 0.9050 0.9050 0.9050 0.9050 0.9050
2724.249911 0.9050 0.9050 0.9050 0.9050 0.9050
2728.868850 0.9050 0.9050 0.9047 0.9042 0.9037
2733.487789 0.9032 0.9030 0.9030 0.9023 0.9013
2738.106728 0.9007 0.9002 0.9000 0.9000 0.8996
2742.725668 0.8991 0.8990 0.8990 0.8986 0.8981
2747.344607 0.8980 0.8980 0.8965 0.8945 0.8936
2751.963546 0.8931 0.8919 0.8903 0.8896 0.8891
2756.582485 0.8878 0.8863 0.8856 0.8851 0.8842
2761.201424 0.8832 0.8818 0.8803 0.8784 0.8764
2765.820363 0.8756 0.8751 0.8738 0.8723 0.8716
2770.439302 0.8711 0.8702 0.8691 0.8690 0.8690
2775.058241 0.8655 0.8615 0.8562 0.8506 0.8460
2779.677180 0.8415 0.8388 0.8363 0.8342 0.8322
2784.296119 0.8311 0.8301 0.8268 0.8233 0.8207
2788.915058 0.8182 0.8171 0.8160 0.8155 0.8150
2793.533997 0.8150 0.8150 0.8150 0.8150 0.8150
2798.152936 0.8150 0.8150 0.8150 0.8155 0.8160
2802.771875 0.8170 0.8180 0.8195 0.8210 0.8215
2807.390814 0.8220 0.8220 0.8220 0.8220 0.8220
2812.009753 0.8220 0.8220 0.8220 0.8218 0.8193
2816.628693 0.8166 0.8116 0.8068 0.8048 0.8029
2821.247632 0.8014 0.7999 0.7983 0.7968 0.7953
2825.866571 0.7939 0.7934 0.7929 0.7924 0.7919
2830.485510 0.7914 0.7910 0.7910 0.7908 0.7898
2835.104449 0.7889 0.7884 0.7878 0.7868 0.7858
2839.723388 0.7848 0.7837 0.7822 0.7806 0.7786
2844.342327 0.7766 0.7746 0.7728 0.7718 0.7710
2848.961266 0.7710 0.7710 0.7710 0.7707 0.7697
2853.580205 0.7690 0.7690 0.7689 0.7684 0.7679
2858.199144 0.7674 0.7670 0.7670 0.7669 0.7664
2862.818083 0.7657 0.7647 0.7638 0.7633 0.7622
2867.437022 0.7597 0.7572 0.7546 0.7520 0.7490
2872.055961 0.7452 0.7402 0.7347 0.7281 0.7216
2876.674900 0.7151 0.7080 0.7000 0.6916 0.6825
2881.293839 0.6737 0.6651 0.6558 0.6458 0.6354
2885.912778 0.6243 0.6133 0.6022 0.5908 0.5787
2890.531718 0.5667 0.5546 0.5424 0.5298 0.5168
2895.150657 0.5033 0.4890 0.4740 0.4591 0.4446
2899.769596 0.4365 0.4355 0.4353 0.4358 0.4476
2904.388535 0.4702 0.4909 0.5100 0.5270 0.5420
2909.007474 0.5554 0.5675 0.5782 0.5877 0.5950
2913.626413 0.6006 0.6044 0.6069 0.6086 0.6096
2918.245352 0.6100 0.6100 0.6094 0.6084 0.6077
2922.864291 0.6072 0.6036 0.5981 0.5929 0.5879
2927.483230 0.5844 0.5819 0.5769 0.5703 0.5612
2932.102169 0.5507 0.5376 0.5230 0.5068 0.4898
2936.721108 0.4706 0.4503 0.4281 0.4050 0.3805
2941.340047 0.3554 0.3293 0.3027 0.2743 0.2452
2945.958986 0.2157 0.1861 0.1550 0.1234 0.0775
2950.577925 0.0263 0.0089 0.0034 0.0020 0.0020
2955.196864 0.0020 0.0020 0.0020 0.0020 0.0040
2959.815803 0.0065 0.0086 0.0106 0.0154 0.0210
2964.434743 0.0338 0.0483 0.0666 0.0857 0.1031
2969.053682 0.1201 0.1318 0.1423 0.1773 0.2169
2973.672621 0.2539 0.2904 0.3231 0.3552 0.3846
2978.291560 0.4137 0.4406 0.4672 0.4902 0.5128
2982.910499 0.5340 0.5551 0.5725 0.5896 0.6053
2987.529438 0.6208 0.6336 0.6461 0.6573 0.6683
2992.148377 0.6766 0.6847 0.6986 0.7126 0.7233
2996.767316 0.7338 0.7414 0.7489 0.7549 0.7610
3001.386255 0.7645 0.7680 0.7705 0.7730 0.7745
3006.005194 0.7760 0.7775 0.7790 0.7805 0.7821
3010.624133 0.7846 0.7870 0.7875 0.7881 0.7901
3015.243072 0.7921 0.7942 0.7962 0.7993 0.8022
3019.862011 0.8047 0.8072 0.8097 0.8123 0.8148
3024.480950 0.8172 0.8192 0.8211 0.8216 0.8221
3029.099889 0.8226 0.8232 0.8247 0.8259 0.8254
3033.718829 0.8252 0.8262 0.8271 0.8276 0.8282
3038.337768 0.8292 0.8302 0.8312 0.8320 0.8320
3042.956707 0.8321 0.8326 0.8330 0.8330 0.8332
3047.575646 0.8342 0.8351 0.8356 0.8361 0.8366
3052.194585 0.8371 0.8376 0.8383 0.8393 0.8401
3056.813524 0.8406 0.8414 0.8429 0.8443 0.8453
3061.432463 0.8460 0.8460 0.8461 0.8467 0.8473
3066.051402 0.8483 0.8492 0.8497 0.8500 0.8500
3070.670341 0.8502 0.8507 0.8510 0.8510 0.8512
3075.289280 0.8517 0.8524 0.8534 0.8540 0.8540
3079.908219 0.8542 0.8547 0.8550 0.8550 0.8552
3084.527158 0.8557 0.8562 0.8567 0.8570 0.8570
3089.146097 0.8574 0.8584 0.8592 0.8597 0.8600
3093.765036 0.8600 0.8602 0.8607 0.8610 0.8610
3098.383975 0.8610 0.8610 0.8610 0.8610 0.8610
3103.002914 0.8610 0.8610 0.8610 0.8607 0.8602
3107.621854 0.8600 0.8600 0.8600 0.8600 0.8597
3112.240793 0.8592 0.8584 0.8574 0.8564 0.8554
3116.859732 0.8553 0.8558 0.8600 0.8671 0.8700
3121.478671 0.8700 0.8706 0.8716 0.8720 0.8720
3126.097610 0.8720 0.8720 0.8720 0.8720 0.8726
3130.716549 0.8736 0.8740 0.8740 0.8743 0.8748
3135.335488 0.8763 0.8783 0.8790 0.8790 0.8797
3139.954427 0.8807 0.8817 0.8827 0.8834 0.8839
3144.573366 0.8844 0.8849 0.8861 0.8876 0.8884
3149.192305 0.8889 0.8894 0.8899 0.8904 0.8909
3153.811244 0.8921 0.8936 0.8944 0.8949 0.8954
3158.430183 0.8959 0.8968 0.8978 0.8984 0.8989
3163.049122 0.8994 0.8999 0.9004 0.9009 0.9018
3167.668061 0.9028 0.9034 0.9039 0.9040 0.9040
3172.287000 0.9044 0.9049 0.9054 0.9059 0.9069
3176.905939 0.9079 0.9084 0.9089 0.9090 0.9090
3181.524879 0.9095 0.9100 0.9105 0.9110 0.9110
3186.143818 0.9110 0.9119 0.9129 0.9135 0.9140
3190.762757 0.9140 0.9140 0.9140 0.9140 0.9135
3195.381696 0.9130 0.9130 0.9130 0.9120 0.9110
3200.000635 0.9105 0.9100 0.9090 0.9080 0.9070
3204.619574 0.9060 0.9060 0.9060 0.9070 0.9080
3209.238513 0.9095 0.9110 0.9120 0.9130 0.9130
3213.857452 0.9130 0.9135 0.9140 0.9140 0.9141
3218.476391 0.9151 0.9161 0.9171 0.9180 0.9186
3223.095330 0.9191 0.9196 0.9201 0.9211 0.9221
3227.714269 0.9226 0.9231 0.9236 0.9241 0.9246
3232.333208 0.9252 0.9262 0.9272 0.9282 0.9291
3236.952147 0.9296 0.9302 0.9312 0.9320 0.9320
3241.571086 0.9320 0.9320 0.9321 0.9326 0.9330
3246.190025 0.9330 0.9330 0.9330 0.9331 0.9336
3250.808964 0.9340 0.9340 0.9339 0.9334 0.9330
3255.427904 0.9330 0.9330 0.9330 0.9329 0.9324
3260.046843 0.9320 0.9320 0.9320 0.9320 0.9317
3264.665782 0.9307 0.9300 0.9300 0.9300 0.9300
3269.284721 0.9298 0.9293 0.9288 0.9283 0.9280
3273.903660 0.9280 0.9278 0.9273 0.9270 0.9270
3278.522599 0.9266 0.9256 0.9250 0.9250 0.9248
3283.141538 0.9243 0.9238 0.9233 0.9228 0.9223
3287.760477 0.9220 0.9220 0.9220 0.9220 0.9220
3292.379416 0.9220 0.9222 0.9227 0.9230 0.9230
3296.998355 0.9232 0.9237 0.9240 0.9240 0.9242
3301.617294 0.9247 0.9250 0.9250 0.9250 0.9250
3306.236233 0.9250 0.9250 0.9255 0.9265 0.9270
3310.855172 0.9270 0.9270 0.9270 0.9270 0.9270
3315.474111 0.9270 0.9270 0.9270 0.9270 0.9270
3320.093050 0.9270 0.9270 0.9270 0.9270 0.9270
3324.711989 0.9270 0.9270 0.9264 0.9254 0.9250
3329.330929 0.9250 0.9250 0.9250 0.9247 0.9242
3333.949868 0.9240 0.9240 0.9237 0.9232 0.9230
3338.568807 0.9230 0.9230 0.9230 0.9227 0.9221
3343.187746 0.9220 0.9220 0.9224 0.9229 0.9230
3347.806685 0.9230 0.9230 0.9230 0.9230 0.9230
3352.425624 0.9226 0.9221 0.9224 0.9229 0.9230
3357.044563 0.9230 0.9230 0.9230 0.9234 0.9239
3361.663502 0.9240 0.9240 0.9244 0.9249 0.9250
3366.282441 0.9250 0.9258 0.9268 0.9270 0.9270
3370.901380 0.9274 0.9279 0.9280 0.9280 0.9284
3375.520319 0.9289 0.9290 0.9290 0.9290 0.9290
3380.139258 0.9295 0.9300 0.9300 0.9300 0.9309
3384.758197 0.9319 0.9320 0.9320 0.9320 0.9320
3389.377136 0.9320 0.9320 0.9320 0.9320 0.9320
3393.996075 0.9320 0.9320 0.9320 0.9320 0.9320
3398.615014 0.9320 0.9320 0.9320 0.9320 0.9320
3403.233954 0.9320 0.9325 0.9330 0.9330 0.9330
3407.852893 0.9330 0.9330 0.9330 0.9330 0.9335
3412.471832 0.9340 0.9340 0.9340 0.9340 0.9340
3417.090771 0.9340 0.9340 0.9340 0.9340 0.9345
3421.709710 0.9350 0.9350 0.9350 0.9350 0.9350
3426.328649 0.9350 0.9349 0.9344 0.9340 0.9340
3430.947588 0.9340 0.9340 0.9340 0.9340 0.9340
3435.566527 0.9340 0.9340 0.9340 0.9340 0.9340
3440.185466 0.9340 0.9340 0.9340 0.9340 0.9340
3444.804405 0.9340 0.9340 0.9340 0.9340 0.9340
3449.423344 0.9340 0.9340 0.9340 0.9340 0.9340
3454.042283 0.9340 0.9340 0.9340 0.9340 0.9340
3458.661222 0.9340 0.9340 0.9340 0.9340 0.9340
3463.280161 0.9340 0.9340 0.9340 0.9340 0.9340
3467.899100 0.9340 0.9340 0.9340 0.9340 0.9340
3472.518040 0.9340 0.9340 0.9340 0.9340 0.9340
3477.136979 0.9340 0.9340 0.9340 0.9340 0.9340
3481.755918 0.9340 0.9340 0.9340 0.9340 0.9340
3486.374857 0.9340 0.9340 0.9340 0.9340 0.9340
3490.993796 0.9340 0.9340 0.9340 0.9340 0.9340
3495.612735 0.9340 0.9340 0.9340 0.9340 0.9340
3500.231674 0.9340 0.9340 0.9340 0.9340 0.9340
3504.850613 0.9340 0.9340 0.9340 0.9340 0.9340
3509.469552 0.9340 0.9340 0.9340 0.9340 0.9340
3514.088491 0.9340 0.9340 0.9337 0.9332 0.9330
3518.707430 0.9330 0.9330 0.9330 0.9330 0.9330
3523.326369 0.9330 0.9330 0.9330 0.9330 0.9327
3527.945308 0.9322 0.9320 0.9320 0.9320 0.9320
3532.564247 0.9320 0.9320 0.9320 0.9320 0.9313
3537.183186 0.9303 0.9300 0.9300 0.9297 0.9292
3541.802125 0.9290 0.9290 0.9286 0.9281 0.9280
3546.421065 0.9280 0.9280 0.9280 0.9276 0.9271
3551.040004 0.9270 0.9270 0.9259 0.9244 0.9236
3555.658943 0.9231 0.9226 0.9221 0.9212 0.9202
3560.277882 0.9196 0.9191 0.9186 0.9181 0.9168
3564.896821 0.9153 0.9150 0.9150 0.9150 0.9150
3569.515760 0.9150 0.9150 0.9150 0.9150 0.9150
3574.134699 0.9150 0.9150 0.9150 0.9150 0.9150
3578.753638 0.9207 0.9272 0.9289 0.9299 0.9300
3583.372577 0.9300 0.9291 0.9281 0.9266 0.9251
3587.991516 0.9241 0.9231 0.9216 0.9201 0.9195
3592.610455 0.9190 0.9185 0.9180 0.9170 0.9160
3597.229394 0.9170 0.9180 0.9170 0.9160 0.9160
3601.848333 0.9160 0.9160 0.9160 0.9160 0.9160
3606.467272 0.9155 0.9150 0.9150 0.9150 0.9145
3611.086211 0.9140 0.9135 0.9129 0.9119 0.9110
3615.705150 0.9105 0.9099 0.9078 0.9059 0.9049
3620.324090 0.9039 0.9023 0.9009 0.9004 0.8999
3624.943029 0.8994 0.8989 0.8984 0.8980 0.8980
3629.561968 0.8979 0.8969 0.8959 0.8954 0.8949
3634.180907 0.8944 0.8939 0.8934 0.8928 0.8918
3638.799846 0.8910 0.8910 0.8910 0.8910 0.8912
3643.418785 0.8922 0.8930 0.8930 0.8930 0.8930
3648.037724 0.8932 0.8942 0.8950 0.8950 0.8954
3652.656663 0.8969 0.8981 0.8986 0.8991 0.8996
3657.275602 0.9001 0.9006 0.9014 0.9029 0.9046
3661.894541 0.9066 0.9083 0.9093 0.9100 0.9100
3666.513480 0.9102 0.9107 0.9110 0.9110 0.9110
3671.132419 0.9110 0.9110 0.9110 0.9110 0.9110
3675.751358 0.9110 0.9110 0.9108 0.9103 0.9100
3680.370297 0.9100 0.9098 0.9093 0.9090 0.9090
3684.989236 0.9088 0.9083 0.9076 0.9066 0.9058
3689.608175 0.9053 0.9048 0.9043 0.9038 0.9033
3694.227115 0.9021 0.9001 0.8988 0.8983 0.8970
3698.846054 0.8950 0.8933 0.8918 0.8895 0.8865
3703.464993 0.8847 0.8842 0.8840 0.8840 0.8837
3708.083932 0.8832 0.8830 0.8830 0.8824 0.8814
3712.702871 0.8810 0.8810 0.8810 0.8810 0.8810
3717.321810 0.8810 0.8810 0.8810 0.8810 0.8810
3721.940749 0.8810 0.8810 0.8816 0.8826 0.8830
3726.559688 0.8830 0.8833 0.8838 0.8840 0.8840
3731.178627 0.8840 0.8840 0.8843 0.8848 0.8850
3735.797566 0.8850 0.8853 0.8858 0.8870 0.8885
3740.416505 0.8893 0.8898 0.8910 0.8925 0.8934
3745.035444 0.8939 0.8947 0.8957 0.8967 0.8977
3749.654383 0.8987 0.8998 0.9004 0.9009 0.9018
3754.273322 0.9028 0.9030 0.9030 0.9034 0.9039
3758.892261 0.9040 0.9040 0.9044 0.9049 0.9054
3763.511200 0.9059 0.9060 0.9060 0.9056 0.9051
3768.130140 0.9046 0.9041 0.9040 0.9040 0.9036
3772.749079 0.9031 0.9030 0.9030 0.9021 0.9011
3777.368018 0.9006 0.9001 0.8996 0.8991 0.8986
3781.986957 0.8981
##END=
