##TITLE=3-CHLOROPROPENE
##JCAMP-DX=4.24
##DATA TYPE=INFRARED SPECTRUM
##CLASS=COBLENTZ
##ORIGIN=W.T. BOLLETER
##OWNER=COBLENTZ SOCIETY
Collection (C) 2018 copyright by the U.S. Secretary of Commerce
on behalf of the United States of America. All rights reserved.
##DATE=Not specified, most likely prior to 1970
##NAMES=3-chloro-1-propene
##CAS REGISTRY NO=107-05-1
##MOLFORM=C3 H5 Cl
##SOURCE REFERENCE=COBLENTZ NO. 4490
##$NIST SOURCE=COBLENTZ
##$NIST IMAGE=cob4490
##SPECTROMETER/DATA SYSTEM=Not specified, most likely a prism, grating, or hybrid spectrometer.
##PATH LENGTH=0.0025 CM
##SAMPLING PROCEDURE=TRANSMISSION
##RESOLUTION=4
##DATA PROCESSING=DIGITIZED BY NIST FROM HARD COPY
##XUNITS=MICROMETERS
##YUNITS=TRANSMITTANCE
##XFACTOR=1.000000
##YFACTOR=1
##DELTAX=000.017505
##FIRSTX=14.508
##LASTX=37.9825
##FIRSTY=0.075
##MAXX=37.9825
##MINX=14.508
##MAXY=0.928
##MINY=0.005
##NPOINTS=1342
##XYDATA=(X++(Y..Y))
14.508000 0.0750 0.0770 0.0820 0.0860 0.0890
14.595593 0.0930 0.1030 0.1230 0.1360 0.1430
14.683000 0.1500 0.1550 0.1700 0.1770 0.1890
14.770593 0.2000 0.2040 0.2150 0.2240 0.2340
14.858000 0.2490 0.2520 0.2650 0.2770 0.2880
14.945593 0.2970 0.3080 0.3150 0.3240 0.3330
15.033000 0.3440 0.3530 0.3560 0.3670 0.3740
15.120593 0.3810 0.3870 0.3990 0.4030 0.4050
15.208000 0.4080 0.4120 0.4210 0.4220 0.4260
15.295593 0.4300 0.4330 0.4350 0.4390 0.4420
15.383000 0.4440 0.4480 0.4510 0.4530 0.4550
15.470593 0.4560 0.4580 0.4600 0.4620 0.4640
15.558000 0.4650 0.4690 0.4710 0.4730 0.4740
15.645593 0.4760 0.4780 0.4800 0.4800 0.4820
15.733000 0.4820 0.4820 0.4820 0.4820 0.4800
15.820593 0.4800 0.4780 0.4740 0.4740 0.4730
15.908000 0.4710 0.4690 0.4670 0.4650 0.4620
15.995593 0.4600 0.4560 0.4550 0.4530 0.4510
16.083000 0.4490 0.4460 0.4390 0.4350 0.4310
16.170593 0.4260 0.4210 0.4130 0.4050 0.4030
16.258000 0.4010 0.3900 0.3790 0.3690 0.3560
16.345593 0.3510 0.3400 0.3350 0.3200 0.3040
16.433000 0.3010 0.2930 0.2830 0.2680 0.2540
16.520593 0.2450 0.2270 0.2150 0.2020 0.1950
16.608000 0.1750 0.1610 0.1500 0.1370 0.1290
16.695593 0.1140 0.0980 0.0820 0.0780 0.0710
16.783000 0.0640 0.0500 0.0300 0.0250 0.0230
16.870593 0.0190 0.0170 0.0160 0.0140 0.0120
16.958000 0.0100 0.0080 0.0070 0.0070 0.0050
17.045593 0.0050 0.0050 0.0070 0.0080 0.0100
17.133000 0.0140 0.0190 0.0210 0.0230 0.0260
17.220593 0.0300 0.0370 0.0480 0.0590 0.0750
17.309000 0.0820 0.0980 0.1020 0.1050 0.1300
17.396593 0.1450 0.1500 0.1520 0.1640 0.1680
17.484000 0.1790 0.1890 0.1970 0.2020 0.2040
17.571593 0.2130 0.2160 0.2180 0.2220 0.2240
17.659000 0.2250 0.2250 0.2270 0.2270 0.2250
17.746593 0.2240 0.2200 0.2150 0.2130 0.2110
17.834000 0.2040 0.2000 0.1930 0.1880 0.1790
17.921593 0.1720 0.1680 0.1630 0.1540 0.1480
18.009000 0.1410 0.1390 0.1340 0.1290 0.1250
18.096593 0.1140 0.1110 0.1050 0.1020 0.1000
18.184000 0.0980 0.0960 0.0940 0.0940 0.0960
18.271593 0.0980 0.1020 0.1070 0.1160 0.1230
18.359000 0.1300 0.1430 0.1500 0.1540 0.1640
18.446593 0.1720 0.1860 0.2000 0.2130 0.2240
18.534000 0.2360 0.2500 0.2630 0.2790 0.2950
18.621593 0.3040 0.3170 0.3290 0.3440 0.3560
18.709000 0.3700 0.3830 0.3960 0.4050 0.4080
18.796593 0.4220 0.4350 0.4400 0.4440 0.4530
18.884000 0.4620 0.4690 0.4780 0.4820 0.4870
18.971593 0.4920 0.4980 0.5000 0.5030 0.5050
19.059000 0.5050 0.5070 0.5070 0.5070 0.5050
19.146593 0.5050 0.5030 0.5010 0.4920 0.4870
19.234000 0.4760 0.4670 0.4550 0.4510 0.4400
19.321593 0.4300 0.4080 0.4030 0.3870 0.3700
19.409000 0.3510 0.3380 0.3310 0.3200 0.3080
19.496593 0.3010 0.2880 0.2830 0.2790 0.2770
19.584000 0.2750 0.2770 0.2840 0.2950 0.3040
19.671593 0.3170 0.3310 0.3490 0.3560 0.3720
19.759000 0.3810 0.3990 0.4120 0.4350 0.4490
19.846593 0.4580 0.4780 0.4910 0.5030 0.5170
19.934000 0.5230 0.5350 0.5500 0.5620 0.5750
20.021593 0.5890 0.5980 0.6050 0.6050 0.6160
20.109000 0.6210 0.6320 0.6370 0.6390 0.6450
20.196593 0.6520 0.6540 0.6570 0.6630 0.6680
20.284000 0.6700 0.6720 0.6770 0.6810 0.6840
20.371593 0.6880 0.6930 0.6950 0.6970 0.7000
20.460000 0.7020 0.7060 0.7070 0.7070 0.7130
20.547593 0.7130 0.7160 0.7200 0.7240 0.7270
20.635000 0.7290 0.7310 0.7320 0.7340 0.7360
20.722593 0.7380 0.7400 0.7410 0.7430 0.7430
20.810000 0.7450 0.7450 0.7470 0.7490 0.7500
20.897593 0.7520 0.7520 0.7540 0.7540 0.7560
20.985000 0.7580 0.7590 0.7630 0.7630 0.7650
21.072593 0.7650 0.7670 0.7670 0.7680 0.7700
21.160000 0.7720 0.7740 0.7770 0.7790 0.7810
21.247593 0.7830 0.7840 0.7880 0.7900 0.7920
21.335000 0.7930 0.7950 0.7950 0.7990 0.8010
21.422593 0.8020 0.8040 0.8040 0.8040 0.8040
21.510000 0.8060 0.8060 0.8080 0.8080 0.8100
21.597593 0.8100 0.8100 0.8130 0.8130 0.8130
21.685000 0.8150 0.8170 0.8200 0.8200 0.8220
21.772593 0.8220 0.8220 0.8220 0.8220 0.8220
21.860000 0.8220 0.8220 0.8220 0.8220 0.8220
21.947593 0.8220 0.8240 0.8260 0.8260 0.8260
22.035000 0.8270 0.8270 0.8270 0.8290 0.8310
22.122593 0.8310 0.8310 0.8330 0.8330 0.8330
22.210000 0.8350 0.8350 0.8350 0.8360 0.8380
22.297593 0.8400 0.8400 0.8420 0.8420 0.8440
22.385000 0.8440 0.8450 0.8470 0.8470 0.8490
22.472593 0.8510 0.8510 0.8530 0.8540 0.8560
22.560000 0.8580 0.8580 0.8600 0.8600 0.8600
22.647593 0.8620 0.8620 0.8620 0.8630 0.8630
22.735000 0.8630 0.8630 0.8650 0.8650 0.8650
22.822593 0.8650 0.8650 0.8650 0.8650 0.8650
22.910000 0.8670 0.8670 0.8690 0.8690 0.8690
22.997593 0.8690 0.8690 0.8700 0.8720 0.8740
23.085000 0.8740 0.8740 0.8740 0.8740 0.8740
23.172593 0.8740 0.8700 0.8690 0.8690 0.8670
23.260000 0.8670 0.8670 0.8650 0.8650 0.8650
23.347593 0.8630 0.8630 0.8620 0.8600 0.8580
23.435000 0.8560 0.8560 0.8560 0.8540 0.8530
23.522593 0.8530 0.8490 0.8450 0.8440 0.8420
23.611000 0.8380 0.8330 0.8310 0.8270 0.8260
23.698593 0.8240 0.8200 0.8170 0.8150 0.8110
23.786000 0.8080 0.8080 0.8060 0.8040 0.7990
23.873593 0.7970 0.7930 0.7900 0.7880 0.7860
23.961000 0.7840 0.7790 0.7750 0.7720 0.7680
24.048593 0.7650 0.7610 0.7580 0.7560 0.7540
24.136000 0.7470 0.7450 0.7430 0.7410 0.7400
24.223593 0.7380 0.7360 0.7320 0.7320 0.7310
24.311000 0.7310 0.7290 0.7270 0.7270 0.7250
24.398593 0.7250 0.7240 0.7240 0.7240 0.7240
24.486000 0.7220 0.7220 0.7220 0.7220 0.7240
24.573593 0.7240 0.7240 0.7240 0.7250 0.7250
24.661000 0.7250 0.7270 0.7270 0.7290 0.7310
24.748593 0.7310 0.7320 0.7320 0.7360 0.7380
24.836000 0.7400 0.7410 0.7450 0.7450 0.7490
24.923593 0.7500 0.7520 0.7520 0.7540 0.7560
25.011000 0.7560 0.7580 0.7590 0.7590 0.7630
25.098593 0.7630 0.7630 0.7650 0.7670 0.7670
25.186000 0.7680 0.7700 0.7720 0.7740 0.7750
25.273593 0.7770 0.7790 0.7830 0.7840 0.7860
25.361000 0.7880 0.7900 0.7900 0.7920 0.7920
25.448593 0.7930 0.7930 0.7970 0.8010 0.8020
25.536000 0.8020 0.8040 0.8040 0.8060 0.8080
25.623593 0.8080 0.8100 0.8100 0.8130 0.8130
25.711000 0.8150 0.8150 0.8170 0.8180 0.8200
25.798593 0.8220 0.8240 0.8240 0.8260 0.8270
25.886000 0.8290 0.8310 0.8330 0.8350 0.8360
25.973593 0.8380 0.8380 0.8380 0.8400 0.8400
26.061000 0.8400 0.8420 0.8440 0.8450 0.8470
26.148593 0.8490 0.8510 0.8530 0.8530 0.8540
26.236000 0.8540 0.8560 0.8580 0.8580 0.8600
26.323593 0.8600 0.8620 0.8620 0.8630 0.8630
26.411000 0.8650 0.8650 0.8670 0.8690 0.8700
26.498593 0.8740 0.8760 0.8760 0.8760 0.8780
26.586000 0.8790 0.8810 0.8830 0.8830 0.8830
26.673593 0.8830 0.8850 0.8870 0.8870 0.8880
26.761000 0.8880 0.8880 0.8880 0.8880 0.8880
26.848593 0.8880 0.8880 0.8900 0.8920 0.8960
26.937000 0.8990 0.9010 0.9030 0.9030 0.9050
27.024593 0.9050 0.9050 0.9050 0.9050 0.9060
27.112000 0.9060 0.9060 0.9060 0.9080 0.9100
27.199593 0.9120 0.9130 0.9150 0.9150 0.9150
27.287000 0.9150 0.9150 0.9150 0.9150 0.9170
27.374593 0.9170 0.9170 0.9190 0.9190 0.9190
27.462000 0.9210 0.9210 0.9210 0.9210 0.9210
27.549593 0.9210 0.9210 0.9190 0.9190 0.9190
27.637000 0.9190 0.9190 0.9210 0.9210 0.9210
27.724593 0.9210 0.9210 0.9210 0.9220 0.9240
27.812000 0.9240 0.9260 0.9260 0.9260 0.9260
27.899593 0.9260 0.9260 0.9260 0.9280 0.9260
27.987000 0.9260 0.9260 0.9260 0.9280 0.9260
28.074593 0.9260 0.9260 0.9240 0.9240 0.9220
28.162000 0.9220 0.9220 0.9220 0.9210 0.9190
28.249593 0.9190 0.9170 0.9170 0.9170 0.9170
28.337000 0.9170 0.9170 0.9170 0.9150 0.9150
28.424593 0.9150 0.9150 0.9150 0.9150 0.9150
28.512000 0.9130 0.9130 0.9120 0.9120 0.9120
28.599593 0.9100 0.9100 0.9080 0.9080 0.9080
28.687000 0.9080 0.9060 0.9060 0.9060 0.9060
28.774593 0.9060 0.9060 0.9060 0.9050 0.9050
28.862000 0.9050 0.9030 0.9030 0.9010 0.9010
28.949593 0.9010 0.8990 0.8990 0.8970 0.8960
29.037000 0.8940 0.8940 0.8940 0.8920 0.8920
29.124593 0.8900 0.8900 0.8880 0.8870 0.8870
29.212000 0.8870 0.8850 0.8850 0.8830 0.8830
29.299593 0.8830 0.8810 0.8810 0.8810 0.8810
29.387000 0.8810 0.8790 0.8780 0.8780 0.8780
29.474593 0.8760 0.8740 0.8740 0.8740 0.8720
29.562000 0.8720 0.8700 0.8700 0.8690 0.8670
29.649593 0.8650 0.8650 0.8630 0.8630 0.8620
29.737000 0.8580 0.8560 0.8540 0.8540 0.8530
29.824593 0.8490 0.8440 0.8440 0.8420 0.8400
29.912000 0.8380 0.8360 0.8350 0.8330 0.8310
29.999593 0.8290 0.8270 0.8260 0.8240 0.8240
30.088000 0.8220 0.8220 0.8200 0.8180 0.8180
30.175593 0.8170 0.8150 0.8130 0.8110 0.8100
30.263000 0.8080 0.8060 0.8040 0.8020 0.8010
30.350593 0.8010 0.8010 0.7990 0.7990 0.7990
30.438000 0.7970 0.7950 0.7920 0.7900 0.7840
30.525593 0.7790 0.7750 0.7740 0.7720 0.7720
30.613000 0.7700 0.7680 0.7670 0.7650 0.7650
30.700593 0.7630 0.7610 0.7610 0.7580 0.7560
30.788000 0.7540 0.7520 0.7470 0.7450 0.7410
30.875593 0.7400 0.7360 0.7320 0.7310 0.7290
30.963000 0.7270 0.7240 0.7220 0.7180 0.7150
31.050593 0.7130 0.7110 0.7090 0.7070 0.7060
31.138000 0.7040 0.7000 0.6980 0.6970 0.6950
31.225593 0.6910 0.6880 0.6860 0.6860 0.6840
31.313000 0.6810 0.6770 0.6730 0.6680 0.6640
31.400593 0.6630 0.6570 0.6540 0.6520 0.6480
31.488000 0.6430 0.6360 0.6340 0.6300 0.6270
31.575593 0.6230 0.6210 0.6200 0.6180 0.6140
31.663000 0.6070 0.6050 0.6030 0.6000 0.5960
31.750593 0.5940 0.5930 0.5910 0.5860 0.5840
31.838000 0.5820 0.5750 0.5730 0.5690 0.5680
31.925593 0.5640 0.5570 0.5510 0.5440 0.5390
32.013000 0.5320 0.5280 0.5250 0.5230 0.5210
32.100593 0.5170 0.5160 0.5140 0.5120 0.5050
32.188000 0.5050 0.5010 0.4940 0.4890 0.4850
32.275593 0.4800 0.4780 0.4740 0.4710 0.4670
32.363000 0.4650 0.4620 0.4550 0.4550 0.4530
32.450593 0.4490 0.4440 0.4400 0.4350 0.4300
32.538000 0.4280 0.4220 0.4170 0.4120 0.4080
32.625593 0.4050 0.4010 0.3990 0.3920 0.3900
32.713000 0.3870 0.3830 0.3780 0.3740 0.3700
32.800593 0.3690 0.3670 0.3620 0.3540 0.3510
32.888000 0.3440 0.3380 0.3360 0.3290 0.3260
32.975593 0.3180 0.3130 0.3080 0.3040 0.3010
33.063000 0.2950 0.2900 0.2830 0.2790 0.2750
33.150593 0.2700 0.2650 0.2590 0.2540 0.2520
33.239000 0.2500 0.2490 0.2400 0.2360 0.2320
33.326593 0.2310 0.2270 0.2200 0.2130 0.2090
33.414000 0.2070 0.2060 0.2040 0.2020 0.1970
33.501593 0.1910 0.1840 0.1810 0.1770 0.1750
33.589000 0.1730 0.1680 0.1630 0.1590 0.1550
33.676593 0.1540 0.1520 0.1500 0.1500 0.1480
33.764000 0.1480 0.1460 0.1430 0.1410 0.1390
33.851593 0.1390 0.1370 0.1360 0.1340 0.1320
33.939000 0.1320 0.1300 0.1270 0.1230 0.1200
34.026593 0.1180 0.1140 0.1110 0.1070 0.1050
34.114000 0.1030 0.1020 0.1000 0.0980 0.0940
34.201593 0.0930 0.0930 0.0890 0.0870 0.0870
34.289000 0.0860 0.0860 0.0840 0.0840 0.0820
34.376593 0.0820 0.0820 0.0820 0.0840 0.0840
34.464000 0.0840 0.0840 0.0820 0.0820 0.0800
34.551593 0.0780 0.0780 0.0780 0.0780 0.0770
34.639000 0.0770 0.0780 0.0780 0.0780 0.0800
34.726593 0.0800 0.0800 0.0820 0.0820 0.0840
34.814000 0.0840 0.0840 0.0840 0.0840 0.0860
34.901593 0.0860 0.0870 0.0870 0.0890 0.0890
34.989000 0.0890 0.0890 0.0890 0.0910 0.0910
35.076593 0.0910 0.0910 0.0930 0.0930 0.0930
35.164000 0.0930 0.0930 0.0940 0.0960 0.0960
35.251593 0.0960 0.0980 0.1000 0.1020 0.1020
35.339000 0.1030 0.1030 0.1090 0.1110 0.1110
35.426593 0.1120 0.1140 0.1160 0.1180 0.1210
35.514000 0.1230 0.1270 0.1290 0.1290 0.1300
35.601593 0.1340 0.1370 0.1390 0.1410 0.1450
35.689000 0.1480 0.1500 0.1520 0.1520 0.1540
35.776593 0.1590 0.1610 0.1640 0.1680 0.1680
35.864000 0.1700 0.1700 0.1700 0.1720 0.1730
35.951593 0.1730 0.1750 0.1770 0.1790 0.1820
36.039000 0.1860 0.1880 0.1890 0.1930 0.1930
36.126593 0.1970 0.1980 0.1980 0.2000 0.2000
36.214000 0.2040 0.2060 0.2070 0.2090 0.2090
36.301593 0.2150 0.2200 0.2220 0.2220 0.2220
36.389000 0.2240 0.2270 0.2310 0.2320 0.2360
36.476593 0.2400 0.2410 0.2410 0.2410 0.2430
36.565000 0.2450 0.2450 0.2490 0.2500 0.2500
36.652593 0.2520 0.2540 0.2540 0.2580 0.2580
36.740000 0.2590 0.2610 0.2630 0.2650 0.2670
36.827593 0.2680 0.2680 0.2700 0.2720 0.2720
36.915000 0.2720 0.2740 0.2740 0.2740 0.2750
37.002593 0.2790 0.2790 0.2810 0.2810 0.2830
37.090000 0.2840 0.2840 0.2860 0.2880 0.2900
37.177593 0.2900 0.2920 0.2930 0.2930 0.2930
37.265000 0.2930 0.2950 0.2970 0.3010 0.3010
37.352593 0.3020 0.3020 0.2990 0.2990 0.3010
37.440000 0.3040 0.3080 0.3110 0.3170 0.3200
37.527593 0.3240 0.3260 0.3270 0.3290 0.3350
37.615000 0.3360 0.3400 0.3400 0.3420 0.3440
37.702593 0.3450 0.3490 0.3510 0.3530 0.3530
37.790000 0.3540 0.3560 0.3600 0.3600 0.3620
37.877593 0.3620 0.3630 0.3690 0.3720 0.3740
37.965000 0.3760 0.3780
##END=
