##TITLE=3-CHLORO PROPENE
$$ E.K. (W.L.) NO. 2403
##JCAMP-DX=4.24
##DATA TYPE=INFRARED SPECTRUM
##CLASS=COBLENTZ
##ORIGIN=WYANDOTTE CHEMICALS CORP., WYANDOTTE, MICHIGAN, USA
##OWNER=COBLENTZ SOCIETY
Collection (C) 2018 copyright by the U.S. Secretary of Commerce
on behalf of the United States of America. All rights reserved.
##DATE=Not specified, most likely prior to 1970
##NAMES=3-chloro-1-propene
ALLYL CHLORIDE
##CAS REGISTRY NO=107-05-1
##MOLFORM=C3 H5 Cl
##MP=45-45.5 C
##SOURCE REFERENCE=COBLENTZ NO. 171
##$NIST SOURCE=COBLENTZ
##$NIST IMAGE=cob171
##SPECTROMETER/DATA SYSTEM=Not specified, most likely a prism, grating, or hybrid spectrometer.
##STATE=LIQUID
##PATH LENGTH=0.003 CM
##SAMPLING PROCEDURE=TRANSMISSION
##RESOLUTION=4
##DATA PROCESSING=DIGITIZED BY NIST FROM HARD COPY
##XUNITS=MICROMETERS
##YUNITS=TRANSMITTANCE
##XFACTOR=1.000000
##YFACTOR=1
##DELTAX=000.006452
##FIRSTX=2.019
##LASTX=16.0131
##FIRSTY=0.938
##MAXX=16.0131
##MINX=2.019
##MAXY=0.98
##MINY=0.035
##NPOINTS=2170
##XYDATA=(X++(Y..Y))
2.019000 0.9380 0.9350 0.9350 0.9350 0.9360
2.051273 0.9360 0.9380 0.9380 0.9400 0.9400
2.084000 0.9410 0.9430 0.9440 0.9440 0.9430
2.116273 0.9400 0.9380 0.9280 0.9190 0.9140
2.148000 0.9150 0.9150 0.9140 0.9090 0.9070
2.180273 0.9010 0.8990 0.8990 0.9010 0.9040
2.213000 0.9070 0.9090 0.9110 0.9120 0.9140
2.245273 0.9150 0.9170 0.9170 0.9170 0.9170
2.277000 0.9190 0.9190 0.9190 0.9200 0.9220
2.309273 0.9230 0.9250 0.9270 0.9270 0.9270
2.342000 0.9280 0.9300 0.9320 0.9320 0.9360
2.374273 0.9400 0.9400 0.9380 0.9380 0.9380
2.406000 0.9350 0.9350 0.9360 0.9380 0.9400
2.438273 0.9430 0.9430 0.9430 0.9430 0.9410
2.471000 0.9410 0.9430 0.9440 0.9440 0.9460
2.503273 0.9440 0.9410 0.9410 0.9430 0.9440
2.535000 0.9440 0.9440 0.9440 0.9430 0.9430
2.567273 0.9440 0.9460 0.9490 0.9510 0.9530
2.600000 0.9570 0.9590 0.9590 0.9590 0.9570
2.632273 0.9570 0.9560 0.9540 0.9530 0.9530
2.665000 0.9530 0.9510 0.9490 0.9480 0.9480
2.697273 0.9480 0.9480 0.9490 0.9490 0.9480
2.729000 0.9440 0.9440 0.9440 0.9440 0.9440
2.761273 0.9440 0.9460 0.9460 0.9460 0.9440
2.794000 0.9440 0.9410 0.9410 0.9460 0.9460
2.826273 0.9460 0.9440 0.9410 0.9410 0.9410
2.858000 0.9410 0.9410 0.9410 0.9410 0.9430
2.890273 0.9430 0.9430 0.9430 0.9410 0.9410
2.923000 0.9410 0.9410 0.9400 0.9380 0.9380
2.955273 0.9380 0.9380 0.9380 0.9380 0.9400
2.987000 0.9410 0.9430 0.9430 0.9430 0.9410
3.019273 0.9400 0.9400 0.9400 0.9400 0.9410
3.052000 0.9410 0.9410 0.9400 0.9380 0.9360
3.084273 0.9360 0.9360 0.9350 0.9350 0.9330
3.116000 0.9320 0.9300 0.9280 0.9250 0.9230
3.148273 0.9200 0.9170 0.9140 0.9120 0.9070
3.181000 0.9020 0.8930 0.8780 0.8520 0.8120
3.213273 0.7520 0.7210 0.7080 0.6520 0.5950
3.245000 0.5950 0.6870 0.7130 0.7290 0.7470
3.277273 0.7790 0.7760 0.7570 0.7230 0.6870
3.310000 0.6650 0.6240 0.6010 0.5930 0.5850
3.342273 0.5770 0.5740 0.5720 0.5170 0.5170
3.374000 0.5460 0.5840 0.6480 0.6810 0.7130
3.406273 0.7450 0.7780 0.8070 0.8340 0.8410
3.439000 0.8430 0.8430 0.8390 0.8360 0.8260
3.471273 0.8280 0.8390 0.8490 0.8540 0.8600
3.503000 0.8680 0.8770 0.8860 0.8980 0.9070
3.535273 0.9170 0.9270 0.9320 0.9360 0.9400
3.568000 0.9430 0.9440 0.9460 0.9490 0.9510
3.600273 0.9510 0.9530 0.9530 0.9540 0.9570
3.632000 0.9590 0.9620 0.9620 0.9610 0.9570
3.664273 0.9570 0.9540 0.9530 0.9530 0.9490
3.697000 0.9440 0.9350 0.9300 0.9300 0.9350
3.729273 0.9460 0.9510 0.9540 0.9570 0.9620
3.761000 0.9660 0.9690 0.9690 0.9660 0.9610
3.793273 0.9620 0.9690 0.9690 0.9690 0.9670
3.826000 0.9640 0.9620 0.9620 0.9620 0.9640
3.858273 0.9660 0.9660 0.9670 0.9670 0.9670
3.890000 0.9670 0.9670 0.9670 0.9660 0.9640
3.922273 0.9640 0.9620 0.9620 0.9640 0.9660
3.955000 0.9640 0.9660 0.9660 0.9670 0.9660
3.987273 0.9660 0.9640 0.9640 0.9620 0.9620
4.019000 0.9610 0.9610 0.9610 0.9610 0.9610
4.051273 0.9620 0.9620 0.9620 0.9620 0.9620
4.084000 0.9640 0.9640 0.9640 0.9640 0.9640
4.116273 0.9640 0.9640 0.9640 0.9640 0.9640
4.148000 0.9640 0.9640 0.9640 0.9640 0.9640
4.180273 0.9640 0.9620 0.9620 0.9590 0.9560
4.213000 0.9490 0.9430 0.9410 0.9410 0.9430
4.245273 0.9530 0.9570 0.9610 0.9660 0.9670
4.277000 0.9690 0.9690 0.9660 0.9620 0.9620
4.309273 0.9620 0.9620 0.9620 0.9610 0.9610
4.342000 0.9620 0.9620 0.9620 0.9610 0.9610
4.374273 0.9590 0.9590 0.9590 0.9590 0.9590
4.406000 0.9620 0.9620 0.9640 0.9660 0.9660
4.438273 0.9660 0.9670 0.9670 0.9690 0.9690
4.471000 0.9700 0.9720 0.9740 0.9750 0.9770
4.503273 0.9780 0.9780 0.9770 0.9770 0.9770
4.535000 0.9750 0.9750 0.9750 0.9740 0.9740
4.567273 0.9800 0.9800 0.9770 0.9740 0.9720
4.600000 0.9700 0.9720 0.9720 0.9720 0.9700
4.632273 0.9690 0.9670 0.9640 0.9640 0.9640
4.665000 0.9660 0.9670 0.9670 0.9670 0.9690
4.697273 0.9700 0.9720 0.9740 0.9750 0.9780
4.729000 0.9780 0.9770 0.9770 0.9770 0.9770
4.761273 0.9770 0.9780 0.9780 0.9770 0.9750
4.794000 0.9750 0.9740 0.9750 0.9750 0.9780
4.826273 0.9780 0.9750 0.9740 0.9720 0.9720
4.858000 0.9750 0.9740 0.9740 0.9740 0.9740
4.890273 0.9750 0.9780 0.9780 0.9800 0.9800
4.923000 0.9800 0.9780 0.9770 0.9770 0.9770
4.955273 0.9780 0.9780 0.9770 0.9770 0.9780
4.987000 0.9780 0.9780 0.9780 0.9780 0.9770
5.019273 0.9740 0.9770 0.9750 0.9740 0.9700
5.052000 0.9670 0.9570 0.9540 0.9560 0.9560
5.084273 0.9610 0.9610 0.9590 0.9570 0.9530
5.116000 0.9480 0.9440 0.9380 0.9360 0.9360
5.148273 0.9380 0.9380 0.9410 0.9440 0.9460
5.181000 0.9510 0.9530 0.9540 0.9590 0.9610
5.213273 0.9590 0.9590 0.9590 0.9560 0.9560
5.245000 0.9540 0.9530 0.9530 0.9530 0.9490
5.277273 0.9460 0.9410 0.9380 0.9330 0.9270
5.310000 0.9200 0.9110 0.9010 0.8860 0.8720
5.342273 0.8540 0.8380 0.8230 0.8170 0.8120
5.374000 0.8090 0.8070 0.8050 0.8050 0.8090
5.406273 0.8170 0.8310 0.8410 0.8490 0.8570
5.439000 0.8670 0.8800 0.8990 0.9040 0.9090
5.471273 0.9120 0.9170 0.9200 0.9250 0.9280
5.503000 0.9330 0.9360 0.9400 0.9430 0.9460
5.535273 0.9490 0.9510 0.9540 0.9590 0.9660
5.568000 0.9670 0.9670 0.9670 0.9670 0.9670
5.600273 0.9670 0.9670 0.9670 0.9660 0.9660
5.632000 0.9660 0.9670 0.9670 0.9660 0.9660
5.664273 0.9640 0.9620 0.9620 0.9620 0.9640
5.697000 0.9640 0.9640 0.9620 0.9620 0.9610
5.729273 0.9570 0.9560 0.9530 0.9510 0.9460
5.761000 0.9430 0.9380 0.9350 0.9300 0.9230
5.793273 0.9200 0.9190 0.9170 0.9170 0.9190
5.826000 0.9200 0.9220 0.9280 0.9300 0.9300
5.858273 0.9300 0.9300 0.9300 0.9280 0.9250
5.890000 0.9250 0.9250 0.9270 0.9400 0.9400
5.922273 0.9350 0.9320 0.9270 0.9270 0.9250
5.955000 0.9250 0.9230 0.9190 0.9150 0.9120
5.987273 0.9040 0.8980 0.8940 0.8910 0.8780
6.019000 0.8600 0.8390 0.7990 0.7490 0.6990
6.051273 0.6480 0.6240 0.5980 0.5980 0.6630
6.084000 0.6950 0.7280 0.7600 0.7920 0.8250
6.116273 0.8730 0.8780 0.8880 0.8960 0.9010
6.148000 0.9040 0.9060 0.9070 0.9070 0.9090
6.180273 0.9120 0.9120 0.9150 0.9190 0.9200
6.213000 0.9200 0.9200 0.9190 0.9190 0.9150
6.245273 0.9140 0.9090 0.9060 0.9040 0.9010
6.277000 0.8990 0.8980 0.8980 0.8980 0.8980
6.309273 0.8990 0.8990 0.9010 0.9020 0.9060
6.342000 0.9070 0.9150 0.9200 0.9220 0.9230
6.374273 0.9230 0.9230 0.9200 0.9200 0.9190
6.406000 0.9190 0.9190 0.9200 0.9200 0.9200
6.438273 0.9190 0.9190 0.9170 0.9170 0.9150
6.471000 0.9110 0.9090 0.9070 0.9060 0.9040
6.503273 0.9040 0.9020 0.9020 0.9020 0.9020
6.535000 0.9040 0.9040 0.9040 0.9060 0.9060
6.567273 0.9070 0.9070 0.9090 0.9110 0.9110
6.600000 0.9140 0.9140 0.9120 0.9120 0.9120
6.632273 0.9140 0.9140 0.9150 0.9150 0.9110
6.665000 0.9070 0.9040 0.8990 0.8980 0.8940
6.697273 0.8910 0.8880 0.8860 0.8850 0.8810
6.729000 0.8800 0.8770 0.8720 0.8670 0.8590
6.761273 0.8510 0.8430 0.8330 0.8230 0.8050
6.794000 0.7960 0.7890 0.7840 0.7730 0.7520
6.826273 0.7200 0.6690 0.6340 0.5980 0.5760
6.858000 0.5300 0.4850 0.4400 0.3940 0.3470
6.890273 0.3470 0.3680 0.3910 0.4140 0.4380
6.923000 0.4900 0.5040 0.5190 0.5350 0.5500
6.955273 0.5530 0.5560 0.5560 0.5580 0.5580
6.987000 0.5610 0.5630 0.5690 0.5770 0.5870
7.019273 0.5950 0.5950 0.4270 0.3930 0.2880
7.052000 0.2650 0.2280 0.1900 0.1900 0.2790
7.084273 0.3250 0.3700 0.4150 0.4610 0.5080
7.116000 0.5400 0.5720 0.6370 0.6690 0.7000
7.148273 0.7280 0.7550 0.7780 0.7990 0.8150
7.181000 0.8260 0.8330 0.8340 0.8410 0.8460
7.213273 0.8510 0.8540 0.8570 0.8600 0.8640
7.245000 0.8670 0.8700 0.8720 0.8720 0.8730
7.277273 0.8770 0.8800 0.8800 0.8810 0.8830
7.310000 0.8860 0.8880 0.8880 0.8880 0.8880
7.342273 0.8890 0.8910 0.8910 0.8910 0.8930
7.374000 0.8940 0.8940 0.8960 0.8960 0.8940
7.406273 0.8940 0.8930 0.8930 0.8930 0.8930
7.439000 0.8930 0.8910 0.8890 0.8860 0.8810
7.471273 0.8780 0.8770 0.8750 0.8730 0.8680
7.503000 0.8670 0.8620 0.8590 0.8550 0.8520
7.535273 0.8470 0.8460 0.8440 0.8430 0.8410
7.568000 0.8390 0.8390 0.8360 0.8340 0.8300
7.600273 0.8280 0.8250 0.8230 0.8180 0.8120
7.632000 0.8050 0.7990 0.7920 0.7840 0.7750
7.664273 0.7630 0.7490 0.7310 0.7080 0.6890
7.697000 0.6710 0.6480 0.6210 0.6030 0.5850
7.729273 0.5350 0.5140 0.4960 0.4900 0.4900
7.761000 0.5060 0.5240 0.5420 0.5510 0.5690
7.793273 0.5950 0.6350 0.6400 0.6480 0.6500
7.826000 0.6480 0.6470 0.6400 0.6350 0.6160
7.858273 0.6060 0.6030 0.5980 0.5840 0.5530
7.890000 0.4950 0.4020 0.3260 0.2840 0.2370
7.922273 0.1950 0.1520 0.1270 0.1010 0.0530
7.955000 0.0530 0.0740 0.1390 0.1600 0.1940
7.987273 0.2630 0.2990 0.3330 0.3640 0.5080
8.019000 0.5590 0.5840 0.6260 0.6440 0.6600
8.051273 0.6740 0.6890 0.7020 0.7110 0.7210
8.084000 0.7310 0.7390 0.7450 0.7500 0.7550
8.116273 0.7600 0.7630 0.7650 0.7660 0.7680
8.148000 0.7700 0.7730 0.7780 0.7830 0.7880
8.180273 0.7940 0.7970 0.8020 0.8050 0.8100
8.213000 0.8130 0.8180 0.8220 0.8250 0.8280
8.245273 0.8330 0.8340 0.8340 0.8360 0.8360
8.277000 0.8360 0.8340 0.8310 0.8280 0.8230
8.309273 0.8180 0.8170 0.8120 0.8090 0.8050
8.342000 0.8070 0.8130 0.8250 0.8340 0.8440
8.374273 0.8470 0.8510 0.8590 0.8640 0.8670
8.406000 0.8680 0.8700 0.8730 0.8730 0.8720
8.438273 0.8720 0.8720 0.8680 0.8640 0.8570
8.471000 0.8540 0.8470 0.8430 0.8340 0.8310
8.503273 0.8300 0.8310 0.8330 0.8380 0.8460
8.535000 0.8550 0.8640 0.8700 0.8800 0.8860
8.567273 0.8940 0.9010 0.9060 0.9090 0.9110
8.600000 0.9110 0.9140 0.9140 0.9190 0.9200
8.632273 0.9200 0.9200 0.9220 0.9230 0.9230
8.665000 0.9250 0.9270 0.9280 0.9330 0.9350
8.697273 0.9350 0.9350 0.9350 0.9360 0.9380
8.729000 0.9400 0.9400 0.9400 0.9410 0.9410
8.761273 0.9430 0.9430 0.9430 0.9430 0.9430
8.794000 0.9430 0.9410 0.9410 0.9410 0.9400
8.826273 0.9400 0.9400 0.9400 0.9400 0.9380
8.858000 0.9360 0.9330 0.9320 0.9300 0.9300
8.890273 0.9320 0.9320 0.9320 0.9320 0.9300
8.923000 0.9280 0.9250 0.9230 0.9200 0.9170
8.955273 0.9120 0.9090 0.9090 0.9070 0.9060
8.987000 0.9040 0.9010 0.8990 0.8940 0.8910
9.019273 0.8850 0.8780 0.8700 0.8620 0.8520
9.052000 0.8430 0.8380 0.8300 0.8200 0.8180
9.084273 0.8220 0.8310 0.8360 0.8390 0.8410
9.116000 0.8550 0.8590 0.8650 0.8650 0.8680
9.148273 0.8730 0.8770 0.8780 0.8810 0.8830
9.181000 0.8850 0.8850 0.8850 0.8850 0.8850
9.213273 0.8850 0.8860 0.8860 0.8860 0.8850
9.245000 0.8850 0.8830 0.8810 0.8800 0.8780
9.277273 0.8770 0.8750 0.8730 0.8720 0.8680
9.310000 0.8650 0.8640 0.8620 0.8640 0.8620
9.342273 0.8600 0.8600 0.8590 0.8570 0.8550
9.374000 0.8540 0.8520 0.8510 0.8490 0.8440
9.406273 0.8430 0.8430 0.8390 0.8360 0.8330
9.439000 0.8300 0.8250 0.8220 0.8200 0.8170
9.471273 0.8130 0.8090 0.8050 0.8040 0.8040
9.503000 0.8040 0.8020 0.8020 0.8020 0.8020
9.535273 0.8020 0.8020 0.8000 0.8000 0.8000
9.568000 0.8000 0.8000 0.8000 0.8000 0.8000
9.600273 0.8000 0.8000 0.7990 0.7990 0.7970
9.632000 0.7970 0.7970 0.7970 0.7960 0.7940
9.664273 0.7920 0.7920 0.7910 0.7890 0.7880
9.697000 0.7860 0.7860 0.7840 0.7830 0.7790
9.729273 0.7760 0.7750 0.7730 0.7710 0.7660
9.761000 0.7620 0.7600 0.7550 0.7540 0.7520
9.793273 0.7500 0.7500 0.7470 0.7440 0.7410
9.826000 0.7390 0.7360 0.7340 0.7290 0.7240
9.858273 0.7180 0.7130 0.7100 0.7050 0.7020
9.890000 0.6990 0.6940 0.6870 0.6790 0.6690
9.922273 0.6630 0.6550 0.6450 0.6350 0.6260
9.955000 0.6140 0.6010 0.5930 0.5850 0.5690
9.987273 0.5510 0.5300 0.5060 0.4910 0.4700
10.019000 0.4460 0.4200 0.3890 0.3590 0.3260
10.051273 0.2940 0.2630 0.2330 0.2050 0.1940
10.084000 0.1810 0.1600 0.1420 0.1270 0.1210
10.116273 0.1100 0.1060 0.0980 0.0970 0.0980
10.148000 0.1010 0.1060 0.1110 0.1160 0.1220
10.180273 0.1320 0.1420 0.1550 0.1710 0.1890
10.213000 0.2260 0.2420 0.2600 0.2760 0.2940
10.245273 0.3120 0.3300 0.3470 0.3650 0.3810
10.277000 0.3980 0.4140 0.4280 0.4430 0.4570
10.309273 0.4690 0.4800 0.4900 0.4950 0.5030
10.342000 0.5060 0.5110 0.5170 0.5220 0.5290
10.374273 0.5320 0.5370 0.5380 0.5400 0.5420
10.406000 0.5420 0.5420 0.5420 0.5380 0.5380
10.438273 0.5350 0.5330 0.5330 0.5300 0.5270
10.471000 0.5210 0.5160 0.5110 0.5040 0.4980
10.503273 0.4910 0.4830 0.4750 0.4640 0.4540
10.535000 0.4410 0.4280 0.4120 0.4020 0.3890
10.567273 0.3750 0.3590 0.3430 0.3250 0.3050
10.600000 0.2880 0.2680 0.2470 0.2280 0.2080
10.632273 0.1990 0.1870 0.1680 0.1500 0.1320
10.665000 0.1140 0.1000 0.0850 0.0720 0.0590
10.697273 0.0500 0.0450 0.0430 0.0400 0.0380
10.729000 0.0370 0.0370 0.0350 0.0350 0.0370
10.761273 0.0370 0.0370 0.0380 0.0380 0.0400
10.794000 0.0400 0.0420 0.0430 0.0450 0.0460
10.826273 0.0500 0.0530 0.0560 0.0610 0.0640
10.858000 0.0710 0.0760 0.0820 0.0900 0.0970
10.890273 0.1000 0.1010 0.1060 0.1130 0.1190
10.923000 0.1270 0.1370 0.1470 0.1560 0.1680
10.955273 0.1790 0.1900 0.2150 0.2290 0.2450
10.987000 0.2630 0.2790 0.2990 0.3170 0.3360
11.019273 0.3550 0.3730 0.3910 0.4070 0.4230
11.052000 0.4400 0.4530 0.4660 0.4750 0.4830
11.084273 0.4880 0.4960 0.5000 0.5060 0.5080
11.116000 0.5060 0.5040 0.4960 0.4900 0.4750
11.148273 0.4590 0.4410 0.4270 0.4170 0.4020
11.181000 0.3890 0.3750 0.3570 0.3570 0.3750
11.213273 0.3930 0.4110 0.4280 0.4460 0.4640
11.245000 0.4820 0.5000 0.5170 0.5300 0.5760
11.277273 0.5900 0.6140 0.6260 0.6370 0.6480
11.310000 0.6580 0.6680 0.6760 0.6860 0.6940
11.342273 0.7020 0.7080 0.7160 0.7230 0.7290
11.374000 0.7340 0.7410 0.7450 0.7520 0.7570
11.406273 0.7620 0.7650 0.7700 0.7750 0.7780
11.439000 0.7830 0.7860 0.7890 0.7940 0.7970
11.471273 0.8000 0.8040 0.8070 0.8120 0.8150
11.503000 0.8170 0.8180 0.8230 0.8250 0.8250
11.535273 0.8260 0.8300 0.8360 0.8380 0.8390
11.568000 0.8410 0.8410 0.8410 0.8430 0.8430
11.600273 0.8440 0.8460 0.8460 0.8470 0.8490
11.632000 0.8490 0.8520 0.8520 0.8540 0.8540
11.664273 0.8540 0.8540 0.8550 0.8550 0.8590
11.697000 0.8600 0.8620 0.8620 0.8640 0.8650
11.729273 0.8680 0.8700 0.8700 0.8700 0.8680
11.761000 0.8680 0.8680 0.8680 0.8680 0.8700
11.793273 0.8700 0.8720 0.8720 0.8730 0.8730
11.826000 0.8730 0.8750 0.8770 0.8770 0.8770
11.858273 0.8780 0.8780 0.8780 0.8800 0.8800
11.890000 0.8810 0.8810 0.8810 0.8810 0.8810
11.922273 0.8810 0.8800 0.8800 0.8800 0.8810
11.955000 0.8830 0.8830 0.8830 0.8830 0.8830
11.987273 0.8850 0.8850 0.8830 0.8850 0.8850
12.019000 0.8850 0.8850 0.8830 0.8830 0.8830
12.051273 0.8850 0.8850 0.8830 0.8830 0.8830
12.084000 0.8830 0.8830 0.8830 0.8830 0.8810
12.116273 0.8830 0.8810 0.8810 0.8810 0.8800
12.148000 0.8810 0.8810 0.8810 0.8800 0.8810
12.180273 0.8810 0.8800 0.8800 0.8800 0.8800
12.213000 0.8800 0.8780 0.8780 0.8770 0.8800
12.245273 0.8800 0.8780 0.8770 0.8750 0.8720
12.277000 0.8720 0.8720 0.8720 0.8720 0.8700
12.309273 0.8700 0.8700 0.8700 0.8700 0.8700
12.342000 0.8680 0.8700 0.8680 0.8680 0.8670
12.374273 0.8650 0.8650 0.8650 0.8670 0.8680
12.406000 0.8680 0.8680 0.8680 0.8670 0.8650
12.438273 0.8640 0.8620 0.8620 0.8620 0.8620
12.471000 0.8620 0.8620 0.8620 0.8650 0.8640
12.503273 0.8600 0.8590 0.8570 0.8570 0.8570
12.535000 0.8550 0.8550 0.8550 0.8550 0.8550
12.567273 0.8550 0.8550 0.8550 0.8520 0.8520
12.600000 0.8490 0.8460 0.8440 0.8430 0.8390
12.632273 0.8390 0.8360 0.8330 0.8310 0.8310
12.665000 0.8310 0.8310 0.8300 0.8310 0.8300
12.697273 0.8300 0.8300 0.8280 0.8250 0.8230
12.729000 0.8230 0.8230 0.8230 0.8220 0.8220
12.761273 0.8220 0.8220 0.8220 0.8200 0.8180
12.794000 0.8170 0.8150 0.8120 0.8130 0.8120
12.826273 0.8100 0.8090 0.8050 0.8040 0.8020
12.858000 0.8020 0.8000 0.7990 0.7960 0.7940
12.890273 0.7920 0.7910 0.7860 0.7830 0.7810
12.923000 0.7790 0.7780 0.7750 0.7710 0.7680
12.955273 0.7660 0.7660 0.7650 0.7650 0.7620
12.987000 0.7600 0.7550 0.7500 0.7470 0.7450
13.019273 0.7410 0.7390 0.7370 0.7340 0.7330
13.052000 0.7290 0.7240 0.7200 0.7160 0.7130
13.084273 0.7100 0.7070 0.7030 0.7000 0.6940
13.116000 0.6860 0.6760 0.6710 0.6680 0.6630
13.148273 0.6600 0.6560 0.6520 0.6480 0.6420
13.181000 0.6340 0.6290 0.6190 0.6160 0.6110
13.213273 0.6030 0.5980 0.5930 0.5850 0.5740
13.245000 0.5640 0.5550 0.5500 0.5450 0.5370
13.277273 0.5290 0.5210 0.5090 0.5000 0.4870
13.310000 0.4750 0.4620 0.4480 0.4330 0.4190
13.342273 0.4040 0.3890 0.3730 0.3570 0.3410
13.374000 0.3250 0.3090 0.2920 0.2760 0.2620
13.406273 0.2450 0.2290 0.2150 0.2000 0.1940
13.439000 0.1860 0.1730 0.1600 0.1470 0.1350
13.471273 0.1240 0.1140 0.1050 0.0970 0.0880
13.503000 0.0840 0.0800 0.0770 0.0710 0.0690
13.535273 0.0640 0.0630 0.0590 0.0590 0.0560
13.568000 0.0560 0.0550 0.0550 0.0530 0.0530
13.600273 0.0510 0.0510 0.0510 0.0530 0.0530
13.632000 0.0550 0.0550 0.0560 0.0560 0.0580
13.664273 0.0590 0.0590 0.0610 0.0630 0.0640
13.697000 0.0640 0.0660 0.0670 0.0690 0.0710
13.729273 0.0720 0.0720 0.0760 0.0790 0.0840
13.761000 0.0870 0.0920 0.0930 0.0970 0.1000
13.793273 0.1050 0.1100 0.1160 0.1220 0.1290
13.826000 0.1370 0.1440 0.1500 0.1560 0.1630
13.858273 0.1680 0.1740 0.1810 0.1890 0.1950
13.890000 0.2110 0.2200 0.2280 0.2370 0.2450
13.922273 0.2540 0.2630 0.2710 0.2790 0.2880
13.955000 0.2940 0.3020 0.3090 0.3130 0.3180
13.987273 0.3260 0.3340 0.3410 0.3470 0.3550
14.019000 0.3620 0.3670 0.3730 0.3800 0.3850
14.051273 0.3910 0.3960 0.4020 0.4070 0.4140
14.084000 0.4190 0.4250 0.4300 0.4350 0.4460
14.116273 0.4530 0.4570 0.4610 0.4660 0.4700
14.148000 0.4770 0.4820 0.4870 0.4910 0.4960
14.180273 0.5010 0.5060 0.5110 0.5140 0.5160
14.213000 0.5220 0.5270 0.5320 0.5350 0.5400
14.245273 0.5450 0.5480 0.5510 0.5560 0.5590
14.277000 0.5630 0.5640 0.5660 0.5670 0.5710
14.309273 0.5740 0.5790 0.5840 0.5880 0.5930
14.342000 0.5980 0.6030 0.6080 0.6110 0.6130
14.374273 0.6140 0.6160 0.6180 0.6190 0.6220
14.406000 0.6260 0.6310 0.6340 0.6350 0.6370
14.438273 0.6390 0.6420 0.6440 0.6470 0.6480
14.471000 0.6500 0.6520 0.6530 0.6560 0.6580
14.503273 0.6610 0.6650 0.6680 0.6710 0.6710
14.535000 0.6710 0.6710 0.6740 0.6770 0.6790
14.567273 0.6810 0.6810 0.6820 0.6840 0.6860
14.600000 0.6890 0.6920 0.6970 0.7000 0.7020
14.632273 0.7030 0.7050 0.7050 0.7080 0.7100
14.665000 0.7130 0.7150 0.7180 0.7210 0.7230
14.697273 0.7230 0.7240 0.7280 0.7290 0.7310
14.729000 0.7330 0.7340 0.7360 0.7360 0.7360
14.761273 0.7360 0.7370 0.7390 0.7390 0.7410
14.794000 0.7410 0.7420 0.7440 0.7450 0.7470
14.826273 0.7490 0.7540 0.7570 0.7570 0.7570
14.858000 0.7570 0.7580 0.7570 0.7600 0.7630
14.890273 0.7660 0.7660 0.7660 0.7660 0.7660
14.923000 0.7680 0.7710 0.7730 0.7750 0.7750
14.955273 0.7750 0.7750 0.7750 0.7750 0.7750
14.987000 0.7760 0.7760 0.7750 0.7750 0.7750
15.019273 0.7730 0.7710 0.7710 0.7710 0.7700
15.052000 0.7700 0.7680 0.7660 0.7660 0.7650
15.084273 0.7650 0.7660 0.7660 0.7700 0.7710
15.116000 0.7750 0.7760 0.7780 0.7810 0.7830
15.148273 0.7840 0.7880 0.7920 0.7920 0.7910
15.181000 0.7910 0.7910 0.7910 0.7920 0.7910
15.213273 0.7890 0.7890 0.7910 0.7910 0.7910
15.245000 0.7910 0.7910 0.7920 0.7920 0.7920
15.277273 0.7920 0.7920 0.7910 0.7920 0.7920
15.310000 0.7920 0.7910 0.7890 0.7880 0.7860
15.342273 0.7860 0.7860 0.7860 0.7860 0.7860
15.374000 0.7860 0.7860 0.7860 0.7860 0.7860
15.406273 0.7860 0.7860 0.7860 0.7880 0.7880
15.439000 0.7880 0.7860 0.7840 0.7830 0.7830
15.471273 0.7830 0.7810 0.7810 0.7810 0.7810
15.503000 0.7810 0.7810 0.7790 0.7790 0.7780
15.535273 0.7760 0.7760 0.7760 0.7780 0.7780
15.568000 0.7780 0.7780 0.7780 0.7790 0.7810
15.600273 0.7810 0.7810 0.7810 0.7790 0.7790
15.632000 0.7790 0.7780 0.7760 0.7760 0.7760
15.664273 0.7760 0.7760 0.7760 0.7760 0.7760
15.697000 0.7760 0.7760 0.7760 0.7760 0.7750
15.729273 0.7750 0.7750 0.7750 0.7730 0.7730
15.761000 0.7710 0.7700 0.7700 0.7700 0.7680
15.793273 0.7680 0.7660 0.7660 0.7630 0.7600
15.826000 0.7580 0.7580 0.7580 0.7580 0.7580
15.858273 0.7570 0.7570 0.7570 0.7550 0.7550
15.890000 0.7570 0.7550 0.7550 0.7550 0.7550
15.922273 0.7540 0.7540 0.7450 0.7450 0.7440
15.955000 0.7440 0.7440 0.7440 0.7440 0.7420
15.987273 0.7420 0.7440 0.7420 0.7420 0.7420
##END=
