##TITLE=2-PROPEN-1-OL
##JCAMP-DX=4.24
##DATA TYPE=INFRARED SPECTRUM
##CLASS=COBLENTZ
##ORIGIN=DOW CHEMICAL COMPANY
##OWNER=COBLENTZ SOCIETY
Collection (C) 2018 copyright by the U.S. Secretary of Commerce
on behalf of the United States of America. All rights reserved.
##DATE=1964/03/11
##NAMES=ALLYL ALCOHOL
##CAS REGISTRY NO=107-18-6
##MOLFORM=C3 H6 O
##SOURCE REFERENCE=COBLENTZ NO. 10478
##$NIST SOURCE=COBLENTZ
##$NIST IMAGE=cob-r10478
##SPECTROMETER/DATA SYSTEM=BECKMAN IR-9 (GRATING)
##INSTRUMENT PARAMETERS=ORDER CHANGES: 670, 1200, 2000 CM^-^1
$$ SPECTRAL FEATURE AT 670 CM^-^1 IS AN ARTIFACT CAUSED BY CHANGE IN ORDER OF GRATING
##STATE=GAS (13 mmHg, N2 ADDED, TOTAL PRESSURE 600 mmHg)
##PATH LENGTH=100.0 CM CELL
##SAMPLING PROCEDURE=TRANSMISSION
##RESOLUTION=2
##DATA PROCESSING=DIGITIZED BY NIST FROM HARD COPY (FROM TWO SEGMENTS)
##XUNITS=1/CM
##YUNITS=TRANSMITTANCE
##XFACTOR=1.000000
##YFACTOR=1
##DELTAX=1.280005
##FIRSTX=392.32
##LASTX=3776.65
##FIRSTY=0.56
##MAXX=3776.65
##MINX=392.32
##MAXY=0.974993
##MINY=0.002
##NPOINTS=2645
##XYDATA=(X++(Y..Y))
392.320000 0.5600 0.5560 0.5520 0.5480 0.6557
398.720024 0.5604 0.5560 0.5480 0.5460 0.5420
405.120049 0.5340 0.5320 0.5300 0.5240 0.5120
411.520073 0.5060 0.5040 0.5000 0.4950 0.4910
417.920097 0.4910 0.4890 0.4890 0.4890 0.4890
424.320122 0.4870 0.4850 0.4830 0.4810 0.4790
430.720146 0.4770 0.4770 0.4770 0.4770 0.4770
437.120171 0.4770 0.4770 0.4770 0.4770 0.4770
443.520195 0.4790 0.4830 0.4850 0.4870 0.4890
449.920219 0.4970 0.5000 0.5040 0.5100 0.5120
456.320244 0.5120 0.5140 0.5320 0.5360 0.5380
462.720268 0.5380 0.5380 0.5380 0.5380 0.5380
469.120292 0.5380 0.5420 0.5480 0.5540 0.5700
475.520317 0.5700 0.5700 0.5640 0.5620 0.5600
481.920341 0.5600 0.5620 0.5660 0.5720 0.5740
488.320365 0.5720 0.5700 0.5700 0.5720 0.5740
494.720390 0.5740 0.5740 0.5740 0.5740 0.5740
501.120414 0.5760 0.5740 0.5760 0.5780 0.5820
507.520438 0.5820 0.5840 0.5840 0.5840 0.5740
513.920463 0.5720 0.5720 0.5740 0.5859 0.5959
520.320487 0.5920 0.5840 0.5820 0.5820 0.5980
526.720512 0.6020 0.6000 0.5980 0.5960 0.5960
533.120536 0.5980 0.6000 0.6000 0.6000 0.6000
539.520560 0.6020 0.6020 0.6020 0.6020 0.6020
545.920585 0.6020 0.6020 0.5900 0.5062 0.5020
552.320609 0.5060 0.5279 0.5499 0.5997 0.6159
558.720633 0.6200 0.6420 0.6480 0.6560 0.6580
565.120658 0.6620 0.6640 0.6739 0.6760 0.6919
571.520682 0.7040 0.7040 0.7120 0.7240 0.7280
577.920706 0.7300 0.7400 0.7549 0.7550 0.7590
584.320731 0.7590 0.7610 0.7710 0.7750 0.7790
590.720755 0.7870 0.7950 0.8030 0.8050 0.8050
597.120780 0.8070 0.8110 0.8190 0.8170 0.8110
603.520804 0.8010 0.7970 0.7950 0.7950 0.7970
609.920828 0.7970 0.8010 0.7970 0.7950 0.7950
616.320853 0.7950 0.7950 0.7990 0.7990 0.8010
622.720877 0.8030 0.8030 0.8030 0.8030 0.8010
629.120901 0.8010 0.8010 0.7990 0.7990 0.7970
635.520926 0.7950 0.7950 0.7950 0.7950 0.7950
641.920950 0.7970 0.7970 0.8010 0.8050 0.8090
648.320974 0.8110 0.8210 0.8250 0.8290 0.8310
654.720999 0.8330 0.8410 0.8490 0.8510 0.8609
661.121023 0.8690 0.8730 0.8710 0.8670 0.8710
667.521048 0.8012 0.7283 0.6603 0.6441 0.6380
673.921072 0.6380 0.6400 0.6400 0.6420 0.6480
680.321096 0.6540 0.6560 0.6600 0.6620 0.6620
686.721121 0.6640 0.6660 0.6680 0.6740 0.6760
693.121145 0.6780 0.6840 0.6880 0.6900 0.6940
699.521169 0.6980 0.7040 0.7100 0.7140 0.7200
705.921194 0.7220 0.7240 0.7260 0.7379 0.7440
712.321218 0.7460 0.7480 0.7530 0.7570 0.7590
718.721242 0.7610 0.7650 0.7730 0.7790 0.7850
725.121267 0.7870 0.7890 0.7910 0.7910 0.7930
731.521291 0.8030 0.8050 0.8110 0.8130 0.8150
737.921315 0.8210 0.8230 0.8310 0.8330 0.8350
744.321340 0.8390 0.8490 0.8490 0.8530 0.8689
750.721364 0.8730 0.8750 0.8770 0.8790 0.8830
757.121389 0.8850 0.8870 0.8890 0.8890 0.8950
763.521413 0.8990 0.9030 0.9070 0.9090 0.9090
769.921437 0.9110 0.9150 0.9190 0.9230 0.9270
776.321462 0.9290 0.9290 0.9310 0.9330 0.9370
782.721486 0.9390 0.9410 0.9410 0.9410 0.9410
789.121510 0.9410 0.9410 0.9410 0.9430 0.9410
795.521535 0.9410 0.9410 0.9430 0.9450 0.9450
801.921559 0.9450 0.9450 0.9450 0.9450 0.9470
808.321583 0.9470 0.9470 0.9490 0.9510 0.9510
814.721608 0.9510 0.9510 0.9510 0.9510 0.9510
821.121632 0.9490 0.9490 0.9490 0.9490 0.9490
827.521657 0.9490 0.9490 0.9470 0.9450 0.9430
833.921681 0.9410 0.9410 0.9390 0.9390 0.9370
840.321705 0.9310 0.9310 0.9290 0.9270 0.9250
846.721730 0.9250 0.9230 0.9190 0.9130 0.9110
853.121754 0.9090 0.9050 0.8990 0.8910 0.8910
859.521778 0.8691 0.8590 0.8510 0.8490 0.8371
865.921803 0.8310 0.8190 0.8150 0.7970 0.7930
872.321827 0.7770 0.7591 0.7570 0.7401 0.7281
878.721851 0.7240 0.6920 0.6500 0.6320 0.6040
885.121876 0.5900 0.5362 0.5240 0.5061 0.4354
891.521900 0.4010 0.3790 0.3690 0.3530 0.3191
897.921925 0.2991 0.2831 0.2651 0.2481 0.2321
904.321949 0.2020 0.1820 0.1660 0.1620 0.1460
910.721973 0.1161 0.0981 0.0781 0.0680 0.0521
917.121998 0.0500 0.0320 0.0180 0.0180 0.0220
923.522022 0.0240 0.0260 0.0280 0.0300 0.0300
929.922046 0.0320 0.0340 0.0340 0.0340 0.0340
936.322071 0.0360 0.0380 0.0380 0.0460 0.0520
942.722095 0.0520 0.0640 0.0680 0.0760 0.0900
949.122119 0.1080 0.1240 0.1379 0.1579 0.1660
955.522144 0.1820 0.1960 0.2060 0.2140 0.2200
961.922168 0.2220 0.2280 0.2280 0.2320 0.2320
968.322192 0.2280 0.2100 0.2060 0.2060 0.1900
974.722217 0.1740 0.1620 0.1540 0.0923 0.0801
981.122241 0.0780 0.0740 0.0660 0.0640 0.0620
987.522266 0.0600 0.0560 0.0500 0.0480 0.0420
993.922290 0.0420 0.0420 0.0420 0.0420 0.0400
1000.322314 0.0380 0.0380 0.0360 0.0340 0.0320
1006.722339 0.0300 0.0280 0.0280 0.0260 0.0260
1013.122363 0.0240 0.0200 0.0180 0.0140 0.0140
1019.522387 0.0100 0.0100 0.0100 0.0100 0.0080
1025.922412 0.0080 0.0080 0.0080 0.0060 0.0040
1032.322436 0.0020 0.0020 0.0020 0.0020 0.0040
1038.722460 0.0080 0.0100 0.0100 0.0080 0.0060
1045.122485 0.0040 0.0020 0.0040 0.0100 0.0160
1051.522509 0.0380 0.0520 0.0859 0.1199 0.1936
1057.922534 0.2691 0.3090 0.3330 0.3550 0.3989
1064.322558 0.4269 0.4370 0.4470 0.4689 0.5018
1070.722582 0.5040 0.5140 0.5220 0.5280 0.5320
1077.122607 0.5300 0.5260 0.5240 0.5220 0.5140
1083.522631 0.5060 0.4950 0.4730 0.4250 0.4110
1089.922655 0.3791 0.3710 0.3551 0.3470 0.3092
1096.322680 0.2930 0.2790 0.2650 0.2610 0.2550
1102.722704 0.2510 0.2480 0.2400 0.2360 0.2360
1109.122728 0.2340 0.2320 0.2300 0.2240 0.2220
1115.522753 0.2080 0.2000 0.1980 0.1841 0.1820
1121.922777 0.1840 0.1860 0.2020 0.2140 0.2240
1128.322802 0.2340 0.2420 0.3068 0.3209 0.3230
1134.722826 0.3250 0.3390 0.3530 0.3610 0.3990
1141.122850 0.4070 0.4329 0.4430 0.4530 0.5436
1147.522875 0.5540 0.5640 0.5760 0.5880 0.6040
1153.922899 0.6160 0.6320 0.6380 0.6440 0.6460
1160.322923 0.6480 0.6500 0.6500 0.6460 0.6440
1166.722948 0.6340 0.6300 0.6180 0.6080 0.5921
1173.122972 0.5800 0.5760 0.5480 0.5360 0.5320
1179.522996 0.5260 0.5140 0.5120 0.5020 0.5020
1185.923021 0.4769 0.4470 0.4390 0.4350 0.4350
1192.323045 0.4270 0.4210 0.4031 0.3691 0.3650
1198.723069 0.3630 0.3610 0.3610 0.3610 0.3610
1205.123094 0.3610 0.3630 0.3650 0.3650 0.3690
1211.523118 0.3690 0.3710 0.3770 0.3870 0.3890
1217.923143 0.4030 0.4130 0.4230 0.4350 0.4390
1224.323167 0.4410 0.4570 0.4710 0.4950 0.5020
1230.723191 0.5140 0.5260 0.5360 0.5440 0.5500
1237.123216 0.5620 0.5660 0.5780 0.5800 0.5900
1243.523240 0.6020 0.6140 0.6240 0.6320 0.6439
1249.923264 0.6440 0.6460 0.6540 0.6580 0.6600
1256.323289 0.6620 0.6620 0.6660 0.6700 0.6720
1262.723313 0.6760 0.6780 0.6800 0.6900 0.6920
1269.123337 0.6980 0.7000 0.7020 0.7040 0.7060
1275.523362 0.7060 0.7060 0.7060 0.7060 0.7060
1281.923386 0.7040 0.7040 0.7020 0.7000 0.7000
1288.323411 0.6940 0.6920 0.6880 0.6840 0.6820
1294.723435 0.6780 0.6760 0.6700 0.6580 0.6500
1301.123459 0.6460 0.6380 0.6300 0.6200 0.6180
1307.523484 0.6140 0.6140 0.6140 0.6100 0.6100
1313.923508 0.6080 0.6080 0.6040 0.5740 0.5600
1320.323532 0.5940 0.5940 0.5800 0.5660 0.5620
1326.723557 0.5380 0.5360 0.5340 0.5340 0.5340
1333.123581 0.5340 0.5320 0.5300 0.5280 0.5161
1339.523605 0.5020 0.4910 0.4790 0.4590 0.4290
1345.923630 0.4190 0.3771 0.3311 0.3230 0.2971
1352.323654 0.2749 0.2550 0.2400 0.2280 0.1760
1358.723679 0.1720 0.1660 0.1600 0.1600 0.1600
1365.123703 0.1600 0.1600 0.1579 0.1020 0.1020
1371.523727 0.1619 0.1640 0.1620 0.1580 0.1461
1377.923752 0.1320 0.1180 0.1160 0.1160 0.1220
1384.323776 0.1739 0.1960 0.2100 0.2220 0.2359
1390.723800 0.2480 0.2550 0.2570 0.2710 0.2830
1397.123825 0.2930 0.3030 0.3090 0.3150 0.3170
1403.523849 0.3170 0.3150 0.3130 0.3030 0.2990
1409.923873 0.2810 0.2570 0.2400 0.2300 0.2240
1416.323898 0.2220 0.2060 0.2020 0.2020 0.2020
1422.723922 0.2020 0.2020 0.2020 0.2040 0.2080
1429.123946 0.2100 0.2120 0.2200 0.2320 0.2380
1435.523971 0.2380 0.2380 0.2260 0.2260 0.2569
1441.923995 0.2991 0.3271 0.3530 0.3550 0.4030
1448.324020 0.4410 0.4769 0.4790 0.4999 0.5179
1454.724044 0.5341 0.5500 0.5520 0.5640 0.5740
1461.124068 0.5840 0.5920 0.6000 0.6040 0.6080
1467.524093 0.6180 0.6280 0.6300 0.6300 0.6300
1473.924117 0.6320 0.6340 0.6420 0.6440 0.6599
1480.324141 0.6680 0.6761 0.7080 0.7180 0.7280
1486.724166 0.7400 0.7510 0.7630 0.7750 0.7770
1493.124190 0.8150 0.8170 0.8230 0.8250 0.8310
1499.524214 0.8510 0.8550 0.8670 0.8710 0.8730
1505.924239 0.8730 0.8730 0.8750 0.8850 0.8950
1512.324263 0.9110 0.9110 0.9130 0.9130 0.9130
1518.724288 0.9150 0.9150 0.9190 0.9210 0.9210
1525.124312 0.9250 0.9250 0.9270 0.9270 0.9230
1531.524336 0.9210 0.9170 0.9150 0.9170 0.9150
1537.924361 0.9110 0.9090 0.9090 0.9130 0.9150
1544.324385 0.9150 0.9150 0.9130 0.9110 0.9090
1550.724409 0.9070 0.9030 0.8970 0.8950 0.8930
1557.124434 0.8950 0.9010 0.9150 0.9150 0.9050
1563.524458 0.9010 0.8990 0.9010 0.9050 0.9050
1569.924482 0.9090 0.9110 0.9110 0.9090 0.9090
1576.324507 0.9110 0.9190 0.9150 0.9150 0.9150
1582.724531 0.9170 0.9190 0.9210 0.9210 0.9210
1589.124556 0.9210 0.9210 0.9230 0.9230 0.9250
1595.524580 0.9250 0.9250 0.9250 0.9230 0.9230
1601.924604 0.9230 0.9210 0.9210 0.9190 0.9170
1608.324629 0.9170 0.9130 0.9110 0.9070 0.9030
1614.724653 0.8970 0.8950 0.9030 0.8731 0.8710
1621.124677 0.8709 0.8549 0.8330 0.8270 0.8190
1627.524702 0.8050 0.7591 0.7281 0.7100 0.7080
1633.924726 0.7020 0.6920 0.6759 0.6480 0.6440
1640.324750 0.6440 0.6440 0.6460 0.6480 0.6600
1646.724775 0.6620 0.6640 0.6660 0.6700 0.6740
1653.124799 0.6760 0.6460 0.6440 0.6320 0.6320
1659.524823 0.6441 0.6600 0.6760 0.6920 0.7240
1665.924848 0.7420 0.7790 0.8129 0.8389 0.8569
1672.324872 0.8811 0.9030 0.9030 0.9010 0.9010
1678.724897 0.9030 0.9130 0.9170 0.9250 0.9310
1685.124921 0.9350 0.9350 0.9350 0.9350 0.9390
1691.524945 0.9410 0.9410 0.9410 0.9490 0.9510
1697.924970 0.9530 0.9610 0.9610 0.9550 0.9550
1704.324994 0.9570 0.9570 0.9570 0.9550 0.9550
1710.725018 0.9550 0.9570 0.9570 0.9570 0.9670
1717.125043 0.9670 0.9570 0.9570 0.9570 0.9570
1723.525067 0.9570 0.9570 0.9550 0.9550 0.9550
1729.925091 0.9550 0.9570 0.9710 0.9710 0.9570
1736.325116 0.9570 0.9590 0.9590 0.9590 0.9590
1742.725140 0.9570 0.9570 0.9550 0.9550 0.9570
1749.125165 0.9630 0.9630 0.9570 0.9550 0.9530
1755.525189 0.9550 0.9550 0.9550 0.9550 0.9550
1761.925213 0.9550 0.9550 0.9550 0.9550 0.9530
1768.325238 0.9550 0.9570 0.9670 0.9670 0.9630
1774.725262 0.9630 0.9630 0.9630 0.9650 0.9650
1781.125286 0.9650 0.9650 0.9670 0.9690 0.9690
1787.525311 0.9670 0.9670 0.9710 0.9750 0.9710
1793.925335 0.9690 0.9690 0.9670 0.9650 0.9670
1800.325359 0.9670 0.9650 0.9650 0.9630 0.9630
1806.725384 0.9610 0.9570 0.9550 0.9550 0.9530
1813.125408 0.9450 0.9390 0.9370 0.9330 0.9230
1819.525433 0.9150 0.9130 0.9050 0.9030 0.8950
1825.925457 0.8830 0.8750 0.8710 0.8690 0.8570
1832.325481 0.8530 0.8510 0.8410 0.8390 0.8350
1838.725506 0.8290 0.8270 0.8230 0.8190 0.8030
1845.125530 0.7890 0.7830 0.7610 0.7590 0.7590
1851.525554 0.7590 0.7590 0.7610 0.7610 0.7630
1857.925579 0.7650 0.7670 0.7670 0.7690 0.7730
1864.325603 0.7750 0.7750 0.7750 0.7770 0.7870
1870.725627 0.8010 0.8050 0.8110 0.8170 0.8310
1877.125652 0.8391 0.8530 0.8591 0.8770 0.8830
1883.525676 0.8890 0.8930 0.9030 0.9050 0.9170
1889.925700 0.9270 0.9290 0.9290 0.9310 0.9330
1896.325725 0.9350 0.9370 0.9370 0.9430 0.9430
1902.725749 0.9450 0.9470 0.9470 0.9470 0.9470
1909.125774 0.9490 0.9490 0.9510 0.9510 0.9510
1915.525798 0.9510 0.9510 0.9510 0.9490 0.9470
1921.925822 0.9470 0.9470 0.9470 0.9450 0.9450
1928.325847 0.9430 0.9430 0.9430 0.9430 0.9370
1934.725871 0.9370 0.9370 0.9350 0.9330 0.9330
1941.125895 0.9330 0.9330 0.9310 0.9310 0.9250
1947.525920 0.9210 0.9170 0.9150 0.9150 0.9150
1953.925944 0.9130 0.9108 0.8689 0.8331 0.8731
1960.325968 0.9110 0.9110 0.9090 0.9090 0.9070
1966.725993 0.9090 0.9090 0.9070 0.9050 0.9030
1973.126017 0.9010 0.9010 0.8990 0.8990 0.8970
1979.526042 0.8930 0.8930 0.8950 0.8950 0.8950
1985.926066 0.8950 0.8950 0.8930 0.8930 0.8930
1992.326090 0.8930 0.8970 0.8990 0.9010 0.9010
1998.726115 0.9010 0.9010 0.9030 0.9050 0.9050
2005.126139 0.9050 0.9050 0.9050 0.9050 0.9050
2011.526163 0.9078 0.9108 0.9110 0.9110 0.9119
2017.926188 0.9129 0.9130 0.9130 0.9139 0.9149
2024.326212 0.9150 0.9150 0.9132 0.9113 0.9110
2030.726236 0.9110 0.9110 0.9110 0.9102 0.9092
2037.126261 0.9082 0.9072 0.9062 0.9052 0.9002
2043.526285 0.8943 0.8914 0.8895 0.8867 0.8837
2049.926310 0.8792 0.8742 0.8730 0.8730 0.8730
2056.326334 0.8730 0.8730 0.8730 0.8730 0.8730
2062.726358 0.8730 0.8730 0.8730 0.8730 0.8730
2069.126383 0.8730 0.8756 0.8796 0.8823 0.8843
2075.526407 0.8863 0.8883 0.8909 0.8939 0.8975
2081.926431 0.9015 0.9049 0.9078 0.9102 0.9122
2088.326456 0.9136 0.9146 0.9161 0.9181 0.9196
2094.726480 0.9206 0.9215 0.9225 0.9235 0.9245
2101.126504 0.9255 0.9265 0.9275 0.9285 0.9295
2107.526529 0.9305 0.9310 0.9310 0.9310 0.9310
2113.926553 0.9310 0.9310 0.9305 0.9296 0.9290
2120.326577 0.9290 0.9290 0.9290 0.9294 0.9304
2126.726602 0.9310 0.9310 0.9310 0.9310 0.9310
2133.126626 0.9310 0.9310 0.9310 0.9314 0.9324
2139.526651 0.9330 0.9330 0.9333 0.9343 0.9350
2145.926675 0.9350 0.9353 0.9363 0.9373 0.9383
2152.326699 0.9390 0.9390 0.9387 0.9377 0.9370
2158.726724 0.9370 0.9370 0.9370 0.9367 0.9358
2165.126748 0.9350 0.9350 0.9350 0.9350 0.9352
2171.526772 0.9362 0.9370 0.9370 0.9368 0.9358
2177.926797 0.9350 0.9350 0.9350 0.9350 0.9350
2184.326821 0.9350 0.9350 0.9350 0.9350 0.9350
2190.726845 0.9350 0.9350 0.9350 0.9350 0.9350
2197.126870 0.9350 0.9350 0.9350 0.9350 0.9350
2203.526894 0.9350 0.9350 0.9350 0.9350 0.9350
2209.926919 0.9340 0.9330 0.9330 0.9330 0.9330
2216.326943 0.9330 0.9320 0.9310 0.9310 0.9310
2222.726967 0.9310 0.9310 0.9291 0.9271 0.9270
2229.126992 0.9270 0.9270 0.9270 0.9270 0.9270
2235.527016 0.9270 0.9270 0.9270 0.9270 0.9261
2241.927040 0.9251 0.9250 0.9250 0.9250 0.9250
2248.327065 0.9250 0.9250 0.9250 0.9250 0.9250
2254.727089 0.9250 0.9250 0.9250 0.9242 0.9232
2261.127113 0.9230 0.9230 0.9238 0.9248 0.9250
2267.527138 0.9250 0.9250 0.9250 0.9250 0.9250
2273.927162 0.9257 0.9267 0.9263 0.9253 0.9250
2280.327187 0.9250 0.9250 0.9250 0.9250 0.9250
2286.727211 0.9250 0.9250 0.9250 0.9250 0.9250
2293.127235 0.9250 0.9250 0.9250 0.9250 0.9250
2299.527260 0.9250 0.9250 0.9250 0.9250 0.9250
2305.927284 0.9250 0.9250 0.9250 0.9250 0.9250
2312.327308 0.9250 0.9250 0.9250 0.9250 0.9250
2318.727333 0.9250 0.9255 0.9265 0.9270 0.9270
2325.127357 0.9270 0.9270 0.9270 0.9270 0.9275
2331.527381 0.9285 0.9290 0.9290 0.9295 0.9305
2337.927406 0.9310 0.9310 0.9310 0.9310 0.9310
2344.327430 0.9310 0.9310 0.9310 0.9306 0.9296
2350.727454 0.9286 0.9276 0.9270 0.9270 0.9266
2357.127479 0.9257 0.9250 0.9250 0.9250 0.9250
2363.527503 0.9250 0.9250 0.9253 0.9263 0.9270
2369.927528 0.9270 0.9273 0.9283 0.9293 0.9303
2376.327552 0.9310 0.9310 0.9305 0.9285 0.9263
2382.727576 0.9233 0.9206 0.9185 0.9168 0.9158
2389.127601 0.9148 0.9138 0.9128 0.9118 0.9110
2395.527625 0.9110 0.9108 0.9098 0.9090 0.9090
2401.927649 0.9089 0.9079 0.9069 0.9059 0.9050
2408.327674 0.9050 0.9049 0.9039 0.9030 0.9030
2414.727698 0.9030 0.9030 0.9031 0.9041 0.9050
2421.127722 0.9050 0.9050 0.9050 0.9050 0.9060
2427.527747 0.9070 0.9080 0.9090 0.9100 0.9110
2433.927771 0.9110 0.9110 0.9110 0.9110 0.9110
2440.327796 0.9110 0.9120 0.9130 0.9140 0.9150
2446.727820 0.9150 0.9150 0.9150 0.9150 0.9150
2453.127844 0.9150 0.9150 0.9150 0.9150 0.9150
2459.527869 0.9150 0.9150 0.9150 0.9150 0.9159
2465.927893 0.9169 0.9179 0.9189 0.9182 0.9172
2472.327917 0.9170 0.9170 0.9170 0.9170 0.9170
2478.727942 0.9170 0.9170 0.9170 0.9170 0.9170
2485.127966 0.9170 0.9170 0.9162 0.9152 0.9150
2491.527990 0.9150 0.9150 0.9150 0.9150 0.9150
2497.928015 0.9143 0.9133 0.9130 0.9130 0.9130
2504.328039 0.9130 0.9130 0.9130 0.9123 0.9114
2510.728063 0.9110 0.9110 0.9104 0.9094 0.9090
2517.128088 0.9090 0.9090 0.9090 0.9090 0.9090
2523.528112 0.9084 0.9074 0.9070 0.9070 0.9070
2529.928137 0.9070 0.9076 0.9085 0.9090 0.9090
2536.328161 0.9090 0.9090 0.9090 0.9090 0.9095
2542.728185 0.9105 0.9110 0.9110 0.9110 0.9110
2549.128210 0.9110 0.9110 0.9115 0.9125 0.9135
2555.528234 0.9144 0.9150 0.9150 0.9150 0.9150
2561.928258 0.9154 0.9164 0.9170 0.9170 0.9170
2568.328283 0.9170 0.9170 0.9170 0.9170 0.9170
2574.728307 0.9170 0.9170 0.9170 0.9170 0.9170
2581.128331 0.9170 0.9170 0.9170 0.9170 0.9170
2587.528356 0.9170 0.9170 0.9170 0.9170 0.9170
2593.928380 0.9170 0.9170 0.9170 0.9167 0.9157
2600.328405 0.9150 0.9150 0.9148 0.9138 0.9130
2606.728429 0.9130 0.9130 0.9130 0.9130 0.9130
2613.128453 0.9128 0.9118 0.9110 0.9110 0.9108
2619.528478 0.9098 0.9090 0.9090 0.9089 0.9079
2625.928502 0.9070 0.9070 0.9069 0.9059 0.9049
2632.328526 0.9039 0.9030 0.9030 0.9029 0.9019
2638.728551 0.9010 0.9010 0.9010 0.9000 0.8990
2645.128575 0.8990 0.8990 0.8980 0.8970 0.8970
2651.528599 0.8970 0.8960 0.8950 0.8930 0.8910
2657.928624 0.8910 0.8910 0.8900 0.8890 0.8871
2664.328648 0.8851 0.8850 0.8850 0.8841 0.8831
2670.728673 0.8811 0.8792 0.8781 0.8771 0.8761
2677.128697 0.8751 0.8741 0.8731 0.8721 0.8711
2683.528721 0.8710 0.8710 0.8710 0.8710 0.8702
2689.928746 0.8692 0.8690 0.8690 0.8682 0.8672
2696.328770 0.8654 0.8634 0.8606 0.8576 0.8554
2702.728794 0.8534 0.8515 0.8495 0.8482 0.8473
2709.128819 0.8455 0.8435 0.8415 0.8396 0.8376
2715.528843 0.8356 0.8350 0.8350 0.8343 0.8333
2721.928867 0.8309 0.8279 0.8263 0.8253 0.8243
2728.328892 0.8233 0.8217 0.8197 0.8177 0.8157
2734.728916 0.8144 0.8134 0.8124 0.8114 0.8104
2741.128940 0.8094 0.8067 0.8027 0.8010 0.8010
2747.528965 0.8004 0.7994 0.7984 0.7974 0.7959
2753.928989 0.7939 0.7925 0.7915 0.7889 0.7849
2760.329014 0.7820 0.7800 0.7765 0.7716 0.7685
2766.729038 0.7675 0.7665 0.7655 0.7645 0.7635
2773.129062 0.7625 0.7615 0.7606 0.7596 0.7590
2779.529087 0.7590 0.7582 0.7562 0.7532 0.7487
2785.929111 0.7452 0.7432 0.7416 0.7406 0.7389
2792.329135 0.7359 0.7333 0.7313 0.7293 0.7273
2798.729160 0.7253 0.7233 0.7213 0.7194 0.7177
2805.129184 0.7167 0.7151 0.7121 0.7080 0.7010
2811.529208 0.6938 0.6859 0.6769 0.6650 0.6548
2817.929233 0.6498 0.6416 0.6228 0.6060 0.5970
2824.329257 0.5852 0.5643 0.5471 0.5432 0.5353
2830.729282 0.5120 0.4902 0.4753 0.4574 0.4246
2837.129306 0.3951 0.3832 0.3688 0.3390 0.3111
2843.529330 0.2962 0.2814 0.2675 0.2520 0.2213
2849.929355 0.1922 0.1763 0.1611 0.1522 0.1419
2856.329379 0.1171 0.0936 0.0876 0.0817 0.0768
2862.729403 0.0718 0.0679 0.0640 0.0620 0.0600
2869.129428 0.0560 0.0520 0.0510 0.0500 0.0480
2875.529452 0.0460 0.0440 0.0420 0.0401 0.0381
2881.929476 0.0361 0.0341 0.0331 0.0321 0.0329
2888.329501 0.0339 0.0367 0.0397 0.0418 0.0438
2894.729525 0.0458 0.0478 0.0497 0.0517 0.0546
2901.129550 0.0576 0.0597 0.0617 0.0637 0.0657
2907.529574 0.0677 0.0697 0.0717 0.0736 0.0756
2913.929598 0.0776 0.0788 0.0798 0.0831 0.0871
2920.329623 0.0895 0.0915 0.0935 0.0955 0.0960
2926.729647 0.0960 0.0960 0.0960 0.0967 0.0977
2933.129671 0.0980 0.0980 0.0987 0.0997 0.1000
2939.529696 0.1000 0.1007 0.1017 0.1027 0.1037
2945.929720 0.1060 0.1089 0.1113 0.1133 0.1153
2952.329744 0.1173 0.1212 0.1261 0.1342 0.1441
2958.729769 0.1553 0.1672 0.1797 0.1926 0.2015
2965.129793 0.2074 0.2117 0.2147 0.2171 0.2191
2971.529817 0.2232 0.2292 0.2362 0.2441 0.2480
2977.929842 0.2480 0.2470 0.2450 0.2430 0.2410
2984.329866 0.2395 0.2385 0.2366 0.2336 0.2306
2990.729891 0.2276 0.2256 0.2246 0.2240 0.2240
2997.129915 0.2240 0.2240 0.2326 0.2540 0.2582
3003.529939 0.2355 0.2216 0.2206 0.2200 0.2200
3009.929964 0.2200 0.2200 0.2200 0.2200 0.2203
3016.329988 0.2213 0.2274 0.2438 0.2591 0.2720
3022.730012 0.2870 0.3068 0.3227 0.3287 0.3344
3029.130037 0.3394 0.3490 0.3698 0.3858 0.3888
3035.530061 0.3913 0.3922 0.3932 0.3942 0.3979
3041.930085 0.4108 0.4238 0.4367 0.4528 0.4821
3048.330110 0.5078 0.5178 0.5270 0.5330 0.5389
3054.730134 0.5450 0.5508 0.5558 0.5600 0.5600
3061.130159 0.5599 0.5589 0.5560 0.5401 0.5251
3067.530183 0.5172 0.5096 0.5057 0.5011 0.4897
3073.930207 0.4773 0.4515 0.4266 0.4197 0.4127
3080.330232 0.4036 0.3929 0.3522 0.3125 0.2986
3086.730256 0.2846 0.2678 0.2509 0.2365 0.2221
3093.130280 0.2161 0.2101 0.2071 0.2041 0.2030
3099.530305 0.2021 0.2029 0.2039 0.2059 0.2078
3105.930329 0.2099 0.2119 0.2194 0.2274 0.2353
3112.330353 0.2432 0.2785 0.3168 0.3378 0.3566
3118.730378 0.3755 0.3944 0.4141 0.4339 0.4538
3125.130402 0.4736 0.5021 0.5324 0.5615 0.5903
3131.530427 0.6242 0.6595 0.6935 0.7273 0.7614
3137.930451 0.7957 0.8100 0.8190 0.8256 0.8315
3144.330475 0.8465 0.8644 0.8742 0.8811 0.8873
3150.730500 0.8933 0.8964 0.8984 0.9032 0.9091
3157.130524 0.9131 0.9161 0.9177 0.9187 0.9204
3163.530548 0.9223 0.9237 0.9247 0.9263 0.9283
3169.930573 0.9296 0.9306 0.9310 0.9310 0.9310
3176.330597 0.9310 0.9310 0.9310 0.9310 0.9310
3182.730621 0.9316 0.9326 0.9330 0.9330 0.9336
3189.130646 0.9346 0.9350 0.9350 0.9350 0.9350
3195.530670 0.9350 0.9350 0.9350 0.9350 0.9355
3201.930694 0.9365 0.9370 0.9370 0.9370 0.9370
3208.330719 0.9365 0.9355 0.9350 0.9350 0.9350
3214.730743 0.9350 0.9354 0.9364 0.9370 0.9370
3221.130768 0.9374 0.9384 0.9390 0.9390 0.9390
3227.530792 0.9390 0.9390 0.9390 0.9390 0.9390
3233.930816 0.9390 0.9390 0.9390 0.9390 0.9390
3240.330841 0.9390 0.9387 0.9377 0.9370 0.9370
3246.730865 0.9370 0.9370 0.9370 0.9370 0.9370
3253.130889 0.9370 0.9372 0.9382 0.9390 0.9390
3259.530914 0.9390 0.9390 0.9390 0.9390 0.9388
3265.930938 0.9378 0.9370 0.9370 0.9368 0.9358
3272.330962 0.9350 0.9350 0.9350 0.9350 0.9350
3278.730987 0.9350 0.9350 0.9350 0.9350 0.9350
3285.131011 0.9351 0.9361 0.9370 0.9370 0.9370
3291.531036 0.9370 0.9370 0.9370 0.9370 0.9370
3297.931060 0.9370 0.9370 0.9370 0.9380 0.9390
3304.331084 0.9390 0.9390 0.9390 0.9390 0.9390
3310.731109 0.9390 0.9400 0.9410 0.9410 0.9410
3317.131133 0.9410 0.9410 0.9410 0.9410 0.9410
3323.531157 0.9410 0.9410 0.9410 0.9410 0.9410
3329.931182 0.9410 0.9410 0.9410 0.9410 0.9410
3336.331206 0.9410 0.9410 0.9410 0.9410 0.9410
3342.731230 0.9410 0.9410 0.9410 0.9410 0.9410
3349.131255 0.9410 0.9402 0.9392 0.9382 0.9372
3355.531279 0.9362 0.9352 0.9350 0.9350 0.9343
3361.931304 0.9333 0.9330 0.9330 0.9315 0.9295
3368.331328 0.9283 0.9273 0.9263 0.9253 0.9243
3374.731352 0.9233 0.9230 0.9230 0.9230 0.9230
3381.131377 0.9230 0.9230 0.9224 0.9214 0.9204
3387.531401 0.9194 0.9184 0.9174 0.9170 0.9170
3393.931425 0.9164 0.9154 0.9150 0.9150 0.9150
3400.331450 0.9150 0.9150 0.9150 0.9150 0.9150
3406.731474 0.9150 0.9150 0.9150 0.9150 0.9155
3413.131498 0.9165 0.9175 0.9185 0.9190 0.9190
3419.531523 0.9190 0.9190 0.9195 0.9205 0.9210
3425.931547 0.9210 0.9210 0.9210 0.9210 0.9210
3432.331571 0.9210 0.9210 0.9210 0.9210 0.9210
3438.731596 0.9210 0.9210 0.9210 0.9214 0.9224
3445.131620 0.9230 0.9230 0.9230 0.9230 0.9230
3451.531645 0.9230 0.9230 0.9230 0.9230 0.9230
3457.931669 0.9230 0.9230 0.9230 0.9230 0.9230
3464.331693 0.9230 0.9230 0.9230 0.9230 0.9230
3470.731718 0.9227 0.9217 0.9210 0.9210 0.9210
3477.131742 0.9210 0.9210 0.9210 0.9208 0.9198
3483.531766 0.9190 0.9190 0.9188 0.9178 0.9170
3489.931791 0.9170 0.9170 0.9170 0.9173 0.9193
3496.331815 0.9210 0.9210 0.9211 0.9221 0.9231
3502.731839 0.9241 0.9250 0.9250 0.9250 0.9250
3509.131864 0.9250 0.9250 0.9251 0.9261 0.9270
3515.531888 0.9280 0.9290 0.9290 0.9290 0.9300
3521.931913 0.9310 0.9310 0.9310 0.9310 0.9310
3528.331937 0.9310 0.9310 0.9290 0.9271 0.9251
3534.731961 0.9231 0.9230 0.9230 0.9230 0.9230
3541.131986 0.9230 0.9230 0.9221 0.9211 0.9201
3547.532010 0.9191 0.9190 0.9190 0.9181 0.9171
3553.932034 0.9170 0.9170 0.9170 0.9170 0.9170
3560.332059 0.9170 0.9170 0.9170 0.9170 0.9170
3566.732083 0.9170 0.9170 0.9170 0.9170 0.9170
3573.132107 0.9170 0.9170 0.9170 0.9162 0.9152
3579.532132 0.9150 0.9150 0.9150 0.9150 0.9150
3585.932156 0.9150 0.9143 0.9133 0.9123 0.9113
3592.332181 0.9110 0.9110 0.9090 0.9059 0.9029
3598.732205 0.9000 0.8943 0.8873 0.8843 0.8834
3605.132229 0.8785 0.8716 0.8646 0.8577 0.8495
3611.532254 0.8405 0.8310 0.8211 0.7983 0.7665
3617.932278 0.7504 0.7460 0.7361 0.7220 0.6875
3624.332302 0.6379 0.6032 0.5804 0.5630 0.5501
3630.732327 0.5295 0.5022 0.4660 0.4213 0.3955
3637.132351 0.3886 0.3691 0.3363 0.3167 0.3117
3643.532375 0.3058 0.2989 0.2914 0.2834 0.2758
3649.932400 0.2689 0.2619 0.2550 0.2474 0.2390
3656.332424 0.2279 0.2130 0.2012 0.1943 0.1870
3662.732448 0.1790 0.1733 0.1713 0.1707 0.1727
3669.132473 0.1770 0.1860 0.1946 0.2027 0.2107
3675.532497 0.2186 0.2272 0.2371 0.2536 0.2849
3681.932522 0.3160 0.3468 0.3740 0.3919 0.4095
3688.332546 0.4263 0.4480 0.4843 0.5204 0.5561
3694.732570 0.5877 0.6046 0.6221 0.6423 0.6611
3701.132595 0.6750 0.6889 0.7028 0.7194 0.7477
3707.532619 0.7738 0.7897 0.8054 0.8203 0.8353
3713.932643 0.8512 0.8670 0.8819 0.8960 0.9050
3720.332668 0.9131 0.9141 0.9152 0.9172 0.9191
3726.732692 0.9201 0.9212 0.9232 0.9250 0.9250
3733.132716 0.9251 0.9271 0.9290 0.9290 0.9290
3739.532741 0.9300 0.9310 0.9310 0.9310 0.9320
3745.932765 0.9330 0.9330 0.9330 0.9330 0.9330
3752.332790 0.9340 0.9350 0.9360 0.9370 0.9370
3758.732814 0.9370 0.9370 0.9370 0.9370 0.9370
3765.132838 0.9388 0.9408 0.9410 0.9410 0.9419
3771.532863 0.9429 0.9464 0.9504 0.9519 0.9529
##END=
