##TITLE=1,2-Dichloroethane
##JCAMP-DX=4.24
##DATA TYPE=INFRARED SPECTRUM
##CLASS=IUPAC A
##ORIGIN=NIST, Analytical Chemistry Division, 301-975-3108
##OWNER=COPYRIGHT (C) 2001 by the U.S. Secretary of Commerce
##DATE=01/06/01
##$SPECTRA VERSION=1.10
##$UNCERTAINTY IN Y=2.1 % relative (B=1.10E-04,C=7.45E-10,D=1.46E-14)
##CAS NAME=1,2-Dichloroethane
##CAS REGISTRY NO=107-06-2
##MOLFORM=Cl C H2 C H2 Cl
##MP=-35.36 C
##BP=83.47 C
##$NIST SOURCE=QUANT-IR
##SPECTROMETER/DATA SYSTEM=IFS66V (Bruker)
##INSTRUMENT PARAMETERS=KBr Beam Splitter; MCT Detector; Multipass cell
##STATE=gas
##SAMPLE DESCRIPTION=1,2-Dichloroethane Primary Gas Standard
##PRESSURE=101.3 Pa
##TEMPERATURE=23 C
##SAMPLING PROCEDURE=1 L/min Flow
##RESOLUTION=0.9640
##DATA PROCESSING=Boxcar Apodization
##XUNITS=cm-1
##YUNITS=(micromol/mol)-1m-1 (base 10)
##XFACTOR=1.0
##YFACTOR=9.0949E-13
##DELTAX=0.4820
##FIRSTX=575.17
##LASTX=3974.605
##FIRSTY=-9.29E-08
##MAXX=3974.12
##MINX=575.17
##MAXY=.0006056
##MINY=-2.22E-06
##NPOINTS=7052
##XYDATA=(X++(Y..Y))
575.17-102183-22234 1326518 1130366 1713654 202207
577.58 985059 1177634 1151983 460090 2183288 77602
580.47 419938-769498 1710922-488201 229639 1345669
583.37 634160 954273 256178-571358 1276904 340808
586.26 586483 687954-490230 1156633 232899 72328
589.15-565150 598129 310770 450201 723174 397454
592.04 1019164 574288 785096-232449 295980 51458
594.94 450546-367611-248399 435246 451664-342742
597.83 187431-136230 310718 361459 192125-628278
600.72-259961 525536-63107-538124 32852-311871
603.62-673350 679536 180197-417050 293056-171470
606.51 304957-208152 377686-185045-98462-271499
609.40-739024-120691-2245 302557 583151-409491
612.29-531376-368807 108715 277204 411911 366102
615.19-332578 345744-350617 919693-386919-149844
618.08 179180-163532-246876 329418-115133-169743
620.97-510171-60396 162196-204403 29937 499330
623.86 379671 325317 137293-5422 131564-108822
626.76 828294 247939 502724 962208 227294 407347
629.65 544660 356692 918099 620201 533255 438906
632.54 999839 994720 680896 905505 660091 884656
635.44 639061 1177692 1405099 1225165 1282536 1604733
638.33 1263540 1158728 2081110 2279810 2138405 1781832
641.22 2372106 2586179 2869828 3078350 2833457 3289440
644.11 3726955 3616470 3666513 3935374 4442461 4540252
647.01 4624012 5132691 5210244 5587750 6447414 6557620
649.90 6694779 7106474 7820096 8001662 8354199 9111522
652.79 9188565 9353074 9987242 10458271 10549059 11502488
655.68 11746360 12796500 12967387 13691759 14139750 14554580
658.58 14787352 15766433 16152185 16075294 16746604 17001721
661.47 16750712 17468873 17426680 17332461 17596335 17073940
664.36 17277256 16639253 16330853 15852277 15884855 14656522
667.26 12909858 14526008 14876010 15729135 15807534 16477045
670.15 17022839 17741030 18488014 20380958 21239194 22007521
673.04 23020321 24334308 24469095 25602412 24830910 24866085
675.93 25679565 25314162 26184168 27236246 27651700 28200015
678.83 28505694 29723555 30355204 31451436 32155491 33933704
681.72 34900342 36456479 38252895 39387800 40850333 42278900
684.61 43101990 44440310 44755548 44750335 44462917 44555073
687.50 43728528 42882337 42953344 42807434 39023340 35412674
690.40 36511048 44059285 49280339 40298366 30132860 42287507
693.29 57915047 53844265 34925903 33633686 32700768 31310589
696.18 33898714 36810536 38633821 41507933 43385282 45065274
699.08 45566009 46293022 45913774 45800212 44670067 44097393
701.97 43251281 43069868 42448819 42386463 42693186 43841483
704.86 44758982 47414204 49482378 53705307 57046892 62485327
707.75 68288789 75423891 82492248 91619416 101216763 112443995
710.65 123024681 136674263 150981490 167120230 183587907 201447584
713.54 220912382 240971917 262794773 287061530 309842602 335017236
716.43 359849840 387232182 414645752 440476817 465668537 491465454
719.32 513805524 534708044 553864309 572417902 587071049 599466257
722.22 604803710 608524553 612792931 611223233 607201417 595226718
725.11 595129315 590901230 585765433 564339650 568471638 566998705
728.00 595289772 571000654 580692490 569893530 610063702 631561910
730.90 665969534 610208065 614963360 623804255 623121291 610363971
733.79 586070228 550831730 506797999 457253624 404924925 348522273
736.68 295933708 243739419 197136048 153827365 118224615 87215278
739.57 63309279 43903579 30673179 20609292 14499017 10192589
742.47 8651957 7149004 7627320 6982688 7165536 6812976
745.36 7224032 6774036 7031291 6581005 7107769 7125489
748.25 6759243 6741144 7232692 6963823 6788767 6945690
751.14 7249397 7162568 6820674 7125122 7566189 7034262
754.04 6751040 7535694 7970279 7075638 6983889 8135806
756.93 7945105 6906269 7673527 7773624 7759993 6936261
759.82 8047918 7964916 7413261 6875752 7896114 8139241
762.72 7491584 7688174 8292489 8176548 7700469 7653235
765.61 8727744 8479573 7504075 7700322 7693024 7480882
768.50 7445580 7453546 7815637 7882849 8271588 8971212
771.39 9651398 10037475 9112135 7382477 7235419 6661552
774.29 6743275 7025911 6591345 6128282 6547376 6332597
777.18 6258197 5588685 5948521 5775944 5796655 5257428
780.07 5912774 6026213 5527616 5048736 5603676 5510904
782.96 5155745 4718060 5552468 5408856 5260049 4919015
785.86 5391791 5230455 4840500 4406015 4735110 4851247
788.75 4175695 4189205 4880786 4203196 3555911 4168196
791.64 4580600 3407456 3628089 3965230 3688291 3311208
794.54 3427909 3860550 3433973 3267179 3251487 3255738
797.43 3382165 2584340 2635549 3167783 2845204 2553116
800.32 3116578 2423081 2170580 2347784 2698676 2147151
803.21 2307506 2505250 2094252 2192543 1962492 2165135
806.11 2265535 1884348 2031677 1994041 2051561 1710986
809.00 2043076 1945021 1730922 1789643 1835543 1783852
811.89 2126983 1586582 1614104 1539351 1650848 1449436
814.78 1665769 1620281 1515338 1865448 1331163 1600909
817.68 1971902 1479352 1787631 1689666 1701197 1670858
820.57 1697767 1642118 2197905 2117920 1697083 2132667
823.46 2054888 1930149 1942137 1925763 2083315 2285687
826.36 2285155 2192081 2426938 2341125 2518482 2223440
829.25 2449330 2362482 2349270 2433186 2371145 2537898
832.14 2418477 2128124 2179269 2360069 2041421 2078103
835.03 2059134 2138934 2180118 1890034 2034250 1968320
837.93 1940426 1753718 1850017 1830036 1831138 1851267
840.82 2184411 1795863 1826177 1922715 1638437 1500996
843.71 1226210 1281913 1380766 997878 1204489 1198400
846.60 1027087 841421 660978 733976 747001 767154
849.50 587134 531382 799294 758996 541907 670002
852.39 799624 363540 791868 570487 592684 795835
855.28 877544 679003 777234 1042330 912030 908272
858.18 836426 574085 598943 938272 940192 1018110
861.07 932768 946251 1076128 1209386 1329631 1329736
863.96 1249745 1274484 1426109 1411418 1622894 1816907
866.85 1876527 2182565 2352631 1970245 2496979 2434506
869.75 2649618 2615245 3109632 3141341 3751094 3859770
872.64 4118405 4720590 5217100 5435891 6287002 6884263
875.53 8014686 8552034 9540613 10550814 11925314 12599953
878.42 13759642 14835609 15946493 17378641 18484863 19724785
881.32 20999546 21928022 22746844 23559419 24045583 24807693
884.21 25528678 25657848 24521813 23355074 22510479 21919192
887.10 21595897 22249819 23481645 24833071 26765819 27847557
889.99 29739539 23710875 20376896 17285990 17807591 17688735
892.89 17923047 19581954 20416919 21747069 22692612 23219409
895.78 24012308 23822731 23482244 23203823 22379830 21477867
898.67 20494000 19288243 18202519 16831163 15381431 14399791
901.57 13118597 11969127 10853815 9785356 8635552 7930039
904.46 7067127 6368640 5961393 5437162 4803355 4606033
907.35 3937984 3916928 3322120 2975195 3048862 3010235
910.24 2657758 2711357 2674786 2392717 2286065 2294749
913.14 2303982 2048858 2017859 1928261 2035411 2123558
916.03 2109967 1806671 1856980 1994057 1982829 1955927
918.92 2100922 2272575 2170972 2382036 2185723 2363657
921.81 2383193 2666714 2742097 3106578 2798828 3102631
924.71 3203301 3236593 3437507 3730423 3980653 4087444
927.60 4277128 4583855 4788077 5083833 5228316 5391376
930.49 5634736 5888260 6099419 6447815 6511435 7142712
933.39 7278179 7486421 7787553 8082403 8315315 8543342
936.28 8833402 9045207 9328778 9356123 9882999 9865887
939.17 10063407 10285529 10041718 10199537 10463460 10183462
942.06 10023091 10247491 9991563 9633159 9501841 9445619
944.96 9093751 8829392 8544344 8277683 8087097 8084345
947.85 8378558 8563468 8749608 8983896 9991630 10456613
950.74 10244750 10722286 10994645 11081286 10692651 10604443
953.63 10458633 10341064 10277974 10028227 9908112 9673944
956.53 9333410 9161988 8653403 8159423 7726909 7411846
959.42 7142900 6804779 6313241 5985953 5797288 5333824
962.31 5135477 5035498 4798498 4511178 4422848 4089842
965.21 3992043 3737064 3724626 3522773 3534211 3151535
968.10 3074194 2969215 2862386 2911757 2590485 2476299
970.99 2254423 2422065 2418441 2155510 2322527 1989930
973.88 1932542 1916198 2037021 1916503 1969788 1881863
976.78 1994124 2039547 2292217 2211398 2370487 2351789
979.67 2634948 2645384 2565333 2760500 2792720 2859899
982.56 2945588 2797839 2958407 3020576 3245402 3130889
985.45 3110651 2993111 3030680 2998754 3096551 2975725
988.35 3213835 3310989 3358895 3258190 3386126 3532379
991.24 3582999 3688343 3758893 3816026 3549435 3616420
994.13 3789997 3498975 3397290 3320628 3279474 3078360
997.03 2963810 2885921 2677776 2616257 2483528 2386196
999.92 2335779 2298808 2138250 1891126 1843205 1787266
1002.81 1734547 1841949 1691776 1825589 1671508 1709947
1005.70 1886518 1784566 1618099 1759448 1830737 1856387
1008.60 1852593 1963006 2001652 2144502 2146445 2272679
1011.49 2371409 2435727 2598622 2593462 2436556 2807776
1014.38 2791843 2987509 3306291 3469261 3489098 3544985
1017.27 3640396 3857990 3883236 4049099 4015571 4266449
1020.17 4205911 4267865 4509598 4693883 4803589 4962102
1023.06 4686777 4719195 4818909 5263307 4966185 5008361
1025.95 5304924 5180116 5227519 5127653 4957412 5017448
1028.85 4913514 4771963 4558984 4425841 4433800 4239309
1031.74 3940728 3774219 3933430 3765783 3747427 3838697
1034.63 3467742 3275632 3105966 2621319 2801092 2688404
1037.52 2418741 2147707 2164928 1947422 1676262 1743356
1040.42 1600147 1611333 1445694 1543391 1288432 1223956
1043.31 1275596 1222225 1177266 1065350 1138925 974643
1046.20 815571 848602 877025 740858 799416 873524
1049.09 627124 623989 548610 706916 613533 628977
1051.99 516753 301839 452120 385485 318787 362618
1054.88 421616 247346 235017 237880 247082 82496
1057.77 272930 248494 242376 341840 240453 275442
1060.67 52254 231318 92769 16969 91344 56615
1063.56 210281 94287 116929-11860 191798 213893
1066.45 60519-41904 140734 126126 21732 220547
1069.34 108477 64156 2831 142672 135772 152189
1072.24 86410 110311-6686 161010 34833 129395
1075.13 82030 278204 39467 282907 132731 365003
1078.02 282659 359599 265824 365278 272384 285465
1080.91 503252 410514 388034 599362 290626 696177
1083.81 490905 451934 449510 574834 744234 538890
1086.70 518396 675173 672690 569435 884290 869832
1089.59 650647 1023591 1012000 960102 1015237 824509
1092.49 866260 1124020 1050834 1353257 1316785 1329729
1095.38 1143371 1175679 1133596 1353597 1533631 1265335
1098.27 1513085 1600134 1515068 1444004 1814674 1733711
1101.16 1766481 1509613 1947494 1915538 1717528 1945168
1104.06 1956882 2166756 2019557 2040585 2274359 2142501
1106.95 2252243 2249447 2258943 2334969 2231604 2509334
1109.84 2656030 2345921 2383581 2494740 2709990 2479154
1112.73 2380472 2795089 2807921 2455651 2654587 2785177
1115.63 2666102 2455008 2676784 2698005 2661918 2812633
1118.52 2860273 2825171 2716003 2861113 3138994 3213580
1121.41 4436383 5988628 5512865 4821411 4792970 4092759
1124.31 3796000 3538588 3156106 2970737 3306440 3144235
1127.20 2812207 2952546 3643429 3300413 2364735 3322618
1130.09 4048161 2879296 2351965 3988944 3955369 2378061
1132.98 2723196 4197107 3409576 2739352 3525683 4048257
1135.88 3073255 2844145 3344404 3767889 3112130 2953008
1138.77 3349661 3534278 3082499 2676251 3153984 3200455
1141.66 2743904 2892892 3358034 2988815 2760998 2906055
1144.55 3166325 3138825 3793434 3491790 2790843 2766044
1147.45 2604562 2786161 2861823 2690897 2716239 2956050
1150.34 2609101 2529310 2496954 2538696 2353319 2432975
1153.23 2323601 2188263 2124229 2163850 2250103 2186112
1156.13 2142592 2061327 2084491 1944688 2063619 2084291
1159.02 2050922 1995948 1643429 1936505 1725309 1481796
1161.91 1689891 1593719 1505523 1501623 1483066 1385261
1164.80 1352612 1403227 1132119 1283917 1299680 1161913
1167.70 1212254 1185244 1035614 898587 1073810 961107
1170.59 1005507 982927 842878 956361 768092 863572
1173.48 891154 951050 836109 1075307 899290 971593
1176.37 840383 1007986 881207 883389 780998 761152
1179.27 854979 927162 922149 974614 1020886 924736
1182.16 1082824 1073990 1100352 1149955 1118655 1329124
1185.05 1178740 1326054 1396072 1342908 1394744 1556540
1187.95 1479105 1606499 1589963 1673690 1889700 1955153
1190.84 1979938 2137542 2354705 2404526 2124270 2571373
1193.73 2813393 2577339 2518454 3028234 3076024 2808756
1196.62 2902505 3571243 3708883 3436685 3410860 4304431
1199.52 4253321 3611050 4066862 5204093 4849152 3940116
1202.41 4980365 6196793 4992070 4462650 5951282 6856612
1205.30 5576028 5617568 7000657 7267613 6117723 6785054
1208.19 7781215 7645239 7485197 8090089 8369598 8895581
1211.09 8651322 8937524 10279815 10408583 10097213 11312995
1213.98 13193187 12975149 13344661 15835852 18594124 17950905
1216.87 19797231 25008819 28240349 28677242 34548550 41912810
1219.77 46059212 50429673 60608874 70593194 77693446 86748203
1222.66 100250069 112080794 122894518 133780342 147727266 158702713
1225.55 168366473 175597710 183643055 186945640 189138349 185692775
1228.44 182361561 174425915 161369238 143989589 133381192 123284668
1231.34 165090865 135790513 128432584 131906086 135085246 146812854
1234.23 155681182 168613955 177008468 188285598 195599218 200039840
1237.12 200384446 203135478 198356519 188487546 178641013 170740515
1240.01 156686249 140765482 127325447 116857166 101811108 87247074
1242.91 77035665 69489907 57726481 48012807 43129468 39186276
1245.80 31049797 26085107 25242606 23504908 17688723 15727721
1248.69 17193264 16500070 11904923 11848475 13579258 12695151
1251.59 9616257 11053806 11810745 9993320 8404201 10780787
1254.48 10427749 8090992 8046526 10120637 9003457 7267687
1257.37 8074137 9260999 7395308 6625187 7739564 8278294
1260.26 6621011 6358031 7194274 7316215 5782628 6367226
1263.16 6865681 6316489 5084148 6299660 6402426 5400717
1266.05 5113229 5824793 5695429 5056217 5203578 5813130
1268.94 5110197 4929958 5334567 5967747 5052198 5699761
1271.83 5871271 6431652 6202445 6842772 7406114 8104292
1274.73 8222535 9775396 10579872 11605251 12783429 14855539
1277.62 16166343 18339523 20145716 23012043 24936840 27714468
1280.51 30194429 33314586 35631905 38659306 40806225 43689921
1283.41 45061845 47238502 47903128 48740414 48164840 48780703
1286.30 47062384 46205491 42227438 41124778 36782187 34672130
1289.19 31399378 33922357 35973031 51137998 65746862 88346774
1292.08 58441858 19142197 23233670 22761231 29202478 32628989
1294.98 39415192 43024268 48088405 50402253 53544661 53793256
1297.87 54624211 53159933 52435632 49770118 47872100 44594608
1300.76 42206996 38918445 36559676 33277725 31001380 28531852
1303.65 26383243 23959657 22810781 20909808 19830310 18191421
1306.55 17576383 16387007 15974202 15073766 14616997 13750441
1309.44 13547929 12834549 12556842 11765820 11419514 10673792
1312.33 10489704 10193342 10289017 10347523 10809783 11426545
1315.23 12262812 12896291 13747842 14085147 14360560 14568838
1318.12 14525754 14314982 14359444 13807502 13540100 12907524
1321.01 12637088 12402219 11967683 11520788 11257494 10811559
1323.90 10714185 10361502 10011023 9858229 9585717 9308121
1326.80 9184446 8937927 8782945 8473192 8291358 8154708
1329.69 7761528 7537252 7394624 7176085 7002454 6786001
1332.58 6428057 6286259 6191374 5746438 5630822 5701411
1335.47 5448543 5192021 4941705 4893509 4886456 4592829
1338.37 4451343 4403574 4229708 4222734 4219789 4077796
1341.26 4102393 3839425 3884624 3858668 3591997 3757165
1344.15 3650203 3559661 3542687 3302237 3659472 3343232
1347.05 3277188 3350758 3200397 3200641 3160287 3044942
1349.94 3259188 2929849 3005740 2773438 2821453 2991210
1352.83 2777722 3242134 3136853 3307831 2992603 3442966
1355.72 3195835 3236361 3401619 2995789 2814539 3159693
1358.62 2814740 2865644 3160513 2944419 2749054 2788366
1361.51 2689137 2737416 2527129 2729465 2655834 2444655
1364.40 2533717 2356846 2305083 2539237 2391845 2563153
1367.29 2345970 2311891 1986159 2111904 2144280 1882414
1370.19 1841671 1854619 1642100 1533534 1398576 1511631
1373.08 1241780 1406034 1433555 1617337 1396337 1247194
1375.97 1467500 1423410 1471297 1513274 1351720 1328405
1378.87 1303273 1522197 1298395 1337864 1224914 1137018
1381.76 1275973 1190903 1184283 1351815 1178856 1158567
1384.65 1163604 1343583 1012495 968885 1015077 723913
1387.54 921381 1098647 1064071 1240022 1026368 1133097
1390.44 935995 942581 822216 1055923 1006869 883779
1393.33 856660 792542 535833 966296 727348 916500
1396.22 791408 1093801 795080 896072 923648 786834
1399.11 903305 1012427 1065705 1315152 1132428 1056506
1402.01 1045322 1464898 1128597 1216988 1339559 1359721
1404.90 1332547 1670005 1452244 1638396 1565832 1784410
1407.79 1833600 2102300 1959713 2364286 2186929 2535766
1410.69 2307807 2625039 2790856 3072277 2909370 3305064
1413.58 3068348 3645577 3472537 3905303 3883357 4358745
1416.47 4227569 4483352 4700055 5203812 4972701 4930638
1419.36 5807639 6563503 6373043 7175292 7450078 8283789
1422.26 8103878 9031783 9343785 10242977 10264788 11511381
1425.15 12208439 13093736 13199291 14516173 15028031 16013198
1428.04 16072240 17149801 17515707 18366503 18068953 19126641
1430.93 19264037 20037340 19010129 20010053 19181947 20122866
1433.83 18772407 21828982 21511040 24652758 23255585 40974971
1436.72 43475353 19119660 19790888 19100196 23345497 23796496
1439.61 26017331 25302152 27416285 26712088 27406145 27083324
1442.51 29571182 28096861 28073734 28126393 29956518 28304163
1445.40 28212106 28505719 29629722 28296709 27707276 28709599
1448.29 30635576 29105230 29721208 31994954 34118743 31894514
1451.18 33023805 37239273 37975734 34089883 37530582 41489126
1454.08 38108001 35494704 38752608 37645416 33528376 31239484
1456.97 30806125 29037057 24403311 23411832 23758597 22218056
1459.86 20063148 18970582 23372648 26204581 30542307 33711688
1462.75 34030463 35044597 36811134 36752823 35443264 33819081
1465.65 34846194 35268805 30963966 28161923 29497464 29414107
1468.54 24456371 22388572 23845284 23382522 19037818 18109773
1471.43 19299666 18706688 15773781 14906957 17042488 16244270
1474.33 13722461 14130579 15516841 13870208 12483322 13324382
1477.22 14201609 12628740 11701890 12650210 12730958 11233706
1480.11 11213592 11508391 11372675 10099658 10100246 10694834
1483.00 10068778 8838543 9462603 9606589 8691602 8128092
1485.90 8721241 8267117 7245373 7238544 7699406 6987371
1488.79 6629772 6213842 6630112 5820946 5658399 5915110
1491.68 5660178 5155340 5206252 4996675 4678273 4407944
1494.57 4440046 4258733 3308854 3021141 3998484 3419423
1497.47 3397692 2906843 2812375 2794096 2905771 2659189
1500.36 2621070 2240518 2339982 2227659 2029360 1907306
1503.25 2033161 1653408 1705635 1228402 532338 1359070
1506.15 821288 34297 1151657 984401 1015952 1130789
1509.04 1232571 1048606 1068095 942880 1143027 835322
1511.93 810981 1144218 1154985 1111392 1263338 1118722
1514.82 1344905 1337261 1356221 1493223 1524229 1459815
1517.72 2026775 2021848 2208016 2016707 1915230 2340050
1520.61 1562145 1779233 2628335 1802978 2296091 2338745
1523.50 2507447 2173922 2352021 1876186 2518574 2471858
1526.39 2684877 2434664 2980810 2773083 2946009 2947280
1529.29 3100956 3010999 3218644 3031935 2962007 2841195
1532.18 2888671 2574449 2566057 2309253 2721903 2376047
1535.07 2508398 2154675 2295789 1941124 2242074 1705393
1537.97 2012021 227641 1247126 1301807 550231 1357225
1540.86 1315416 652358 442341 1359133 1090558 860953
1543.75 1021911 808731 342532 798795 843047 751973
1546.64 834363 696693 717238 620904 578734 344287
1549.54 387500 415854 495400 385902 446500 259277
1552.43 435339 263149 291295-526664 374300 141244
1555.32 342439 110578 597402-266071-40500-663133
1558.21-1187420 235272-338587-917906-241210 394852
1561.11 141857 313922 115384 270648 250882 297261
1564.00 145874 138531 128288 296966 119945 363472
1566.89 161745 253170 268403 109869 75552-252813
1569.79 139853 269621 180712 315812 221893 266850
1572.68 249944 282432 131900 378894 91991 244527
1575.57-1245746-385386 341838 12597 305975 281345
1578.46 305658 267512 288074 247310 283272 185833
1581.36 223660 267028 249306 196274 230303 297768
1584.25 240808 172399 266009 31164 168344 141444
1587.14 98775 81391 102806 94757 183289 64485
1590.03 141767-43689 165114 107807 101948-14058
1592.93 111535 24721-152374-16856 30718 37672
1595.82 97591-2045 68617-62677-19321-97209
1598.71 69889 25867-46609 63338-89295 69874
1601.61-106485 122918-121012-154167 5909-45730
1604.50 76624-90733 25457 11655-109017 12923
1607.39 48114-59126 36086-126004 6990-28301
1610.28 75343 76778-51675-14951 81344 147713
1613.18 73512 115129-72273 36464-15832 59300
1616.07-1243652-715487 133006-87910 120906-122254
1618.96 65430-1240 25573-94366 94813 4598
1621.85 82149 19314-236700-534437 148658-111825
1624.75 115425-91960 69070-155375-92978-335775
1627.64-92947-100790 49254-7463 1352-91461
1630.53 84056-111941 2814-90791 35885-88694
1633.43 3736-296061-300620-964994-1005335 9546
1636.32-80918-286535-192566-62117-157142 30440
1639.21-47755-3611-87172 82831-20864-115074
1642.10-228957-46800 50219-53120-81340-50575
1645.00-285585-1034817-162037-134627-425781-70179
1647.89-346010 15780-150824-46565-92338 65950
1650.78-292519-26823-1486136-890365-1539236-894014
1653.67-175896-668479 80555-304055 5891-162065
1656.57 113625-85266 39293-67271 137652-172342
1659.46 60802-76581 171386-16298 31299-111981
1662.35-482497-1924 12544-1630 61141-16427
1665.25 138844-8001 129228-19884 253193-32591
1668.14 164232-517278-331595 105770 221267 74036
1671.03-96142 183748 255110 172084 253210 174204
1673.92 319541-105235-485398-5065 296916 104394
1676.82 246513 287060 304316 233930 284068 143822
1679.71 226589 213629 319953 132087 249396 246860
1682.60 15173-76564 122113-770721-1259391 439284
1685.49 32572 411266 149302 306430 240813 158005
1688.39 256860 310195 89820 122920 229964 203902
1691.28 131024 318608 57960 222401 249999 320176
1694.17 46855 158540-1027962-1208920 360384 133051
1697.07 83735 147898 190740 92208-110411-1050003
1699.96-631629-660127 194544 52136 134349 116844
1702.85 107022 129709-80154-94490 203883 71725
1705.74-94613-69139 174177 118484 208339 101834
1708.64 237789 71410 136901 125552 203988 137426
1711.53 322073 74132 263842 72495 46356 86281
1714.42-48607-270434 345139-15254 239670-1235823
1717.31-104125 38442-232341 171952 191679 115154
1720.21 205289 158558 148841 143606 180496 62111
1723.10 140952 181212 220979 182662 189503 191146
1725.99 146215 153554 141534 183354 174737 71922
1728.89 145851 6899-35008 105044 48834 212467
1731.78-111605 144370-756075-346078-233522-1064080
1734.67 147221-106661 150418-116309 117905-48498
1737.56 111186-175587 145659-331808-505455-56507
1740.46-87444 47559 62022-80724-36496-64893
1743.35-14864-76093 33256 35889-42345-72010
1746.24-47097-12433 52275-67591-214387-61694
1749.13 65619-35192-5312-437825-443187 84277
1752.03 77071 150840 73403 97989 91372-9280
1754.92 110147 43120 12305-216716 38539 37335
1757.81 6668 67081 188978 121763 165495-82007
1760.71 102693-365649-121905 128009 5171 84359
1763.60 18228 137392 62059 125487 258627 89483
1766.49 41831 98494-137834-197762 189960-28171
1769.38 134543 9133 143463-287990 140726-200992
1772.28-775971-28163 52068 130571 92266 142484
1775.17-30442 129502 148294 92078 190343-23594
1778.06 192805-73828 150144 127660 133089-67757
1780.95 159362 83415 141466 223040 153651 98012
1783.85 180734-141599 105957 148240 57375 165981
1786.74 207900 128041 124939 48014 91252 119535
1789.63 121412 11133-72956 9252 138158-554624
1792.53-170841 115232 39916-14091 6071 18961
1795.42 13358 19937-19116-46308-57499 13975
1798.31-16568-113185-222117 13318-121253-198574
1801.20-17262-74934-107952-51242-79226-94830
1804.10-58611-131316-55555 18-293-22703
1806.99-104998-102868-16997-43103-147173-51787
1809.88-68501-127174-29986 43360-140170-44950
1812.77-81787-132717 37028-119161-35088 46003
1815.67 80952-91371-85015-28024 30718-23812
1818.56-89933-57970 12295 104453-7383-109972
1821.45 77284-28444-28961 139997 24612 16901
1824.35-117444-250287 65239 26735 4288-42349
1827.24 21312-28361 70430-95506-59823-272236
1830.13 3548-30547 99263 24614 62944-38098
1833.02-29056 31663 84282 60659 109859-2355
1835.92 4907 39757-24224 36688 37044 43290
1838.81-30834 9947-6076-2644 10099 48123
1841.70-45717 47562-33406 49022-523450-174794
1844.59 130603-33263 124696 81473 72316-25252
1847.49 121925 120407 98917 108433 86049 46941
1850.38 138513 14152-26022-92182-9163 28484
1853.27-14570-38485 87201-13002-1956-75582
1856.17-42818-109955 52415 1590 53887-95
1859.06 49003 57333 51783 42874-5643 53206
1861.95 44570 55644-78825-36156-16114-98054
1864.84 22206 28257-111981 11835-13473-167017
1867.74-45836-3225-177035-204160 66129-46443
1870.63-11371 49469 31089-114257-46368-26355
1873.52 49526 40195-68455 35465-30127 56192
1876.41 98985 111524-51291 81554 19590 22003
1879.31-72079 73690 111491-6713-28422-74060
1882.20-7850 22655 7600-41405 32521 24246
1885.09 171224 36417 4181-13331 33411 142296
1887.99-23585 100387-96079-16084 163211 72125
1890.88 70893 134234 163883 95891 78761 114872
1893.77 33929-15818 151419 109986 149428 27814
1896.66 136287 41521 92780 34841 198203 51474
1899.56 152859 211281 157911 89151 129285 36812
1902.45 50578 97684 82503-180 150854 39769
1905.34 57708 29729 94856 54795 24343 31197
1908.23 96307 58989 40029-18739-10614-1032
1911.13-12423-83615 13295-24134 106489-13315
1914.02-19975-61458 50421-59918-3408-110198
1916.91 40348-326505-79264-15581-33476 22260
1919.81-23275 21070-10760-118304-18888-64656
1922.70-212323-32442-82663-106170-11444-87693
1925.59-128908-151018-83279 24654-72010-58926
1928.48-22938 19446 11905-105010 16719-66572
1931.38-108633-50184-111799 19316 48538-96131
1934.27-57723-24643-51542-113895-20912-52949
1937.16-56251-62494-28686-88423 6193-32789
1940.05-63414-118223-20321-100874-130658-73460
1942.95-101317-116344-84161-61957-96991-245
1945.84-77464-74149 8463-54229 19739-39703
1948.73-96885-66638-30988-67606-28743-87596
1951.63-44092-77265-42699-93403-41127-34386
1954.52-22662-109478-150138-80267 2317-70988
1957.41-79938-145251 19791-75990-27892-46078
1960.30-13879-73778-66169-76139-71172-28802
1963.20-7297-50599-20493-72625-20948-84792
1966.09-106342-16467-55739-79694-19549 48920
1968.98 1370-20259 19352-12550 69620 44013
1971.87-9125-91375-52404 2303 31660-22395
1974.77 7567 120687 11722 41491 39694-36880
1977.66-103122-17665 100743 8033 28641 37947
1980.55 20290 77755 16397 41853-6111-45763
1983.45 157367 78241 9269 7511 11490-66107
1986.34 6863 47318 67473 46409 2572 82984
1989.23-8877 59249 108324 151321 46666 32780
1992.12 106534 66947 116685 28612 110112 77379
1995.02-51684 128925 198086 51870 80713 78451
1997.91-59128-5349 75554-30163 118235-2817
2000.80 133622 77466 159874 78953 121223 27648
2003.69 109463 103096 175778 136408 160258 179887
2006.59 156916 121884 144058 135499 93862 153456
2009.48 177931 192784 223459 188012 269721 286319
2012.37 392392 289010 363615 398085 424417 360228
2015.27 407582 534301 532095 579814 671638 720268
2018.16 775655 809139 834452 873562 897650 1059342
2021.05 1131638 1240884 1299815 1334752 1462459 1530695
2023.94 1647019 1578419 1772536 1772099 1931141 1858813
2026.84 2025753 2115918 1991096 2045241 2072836 2101674
2029.73 2334146 2136642 2203046 2156278 2391763 2239757
2032.62 2265046 2236991 2344466 2297693 2385526 2125043
2035.51 2222745 2079796 2217971 2148735 2200779 1967625
2038.41 1970120 2011757 1734942 1774120 1695573 1599426
2041.30 1675095 1451019 1402784 1330125 1296028 1103838
2044.19 1038165 921887 910928 803770 702021 714531
2047.09 691208 507470 504764 394795 433762 370529
2049.98 384485 267952 248789 288498 383383 272578
2052.87 218398 218072 309285 174916 240567 183766
2055.76 180984 233053 216695 252813 108507 193929
2058.66 94636 186365 151418 154446 186958 132378
2061.55 131502 59206 118464 54494 181898 24158
2064.44 101023 78042 151421 57707 131076 107171
2067.33 119581-22328 35767 100241 82112-2042
2070.23 44561-5157 102459 40729 36918 88573
2073.12 91785 59605 86256 77515 66444 38040
2076.01 95490-13118 36478 54968 11685 86778
2078.91 26057 27965 97233 48862 90470 2586
2081.80 48612 92262 49649 87467 65648 21423
2084.69 84603 115237 108067 50578 104481 101796
2087.58 67416 47142 139530 90336 61444 163283
2090.48 172724 173267 73431 121339 117843 147385
2093.37 131430 278057 206389 158840 252036 123615
2096.26 181600 261009 337926 245507 343317 304195
2099.15 254607 261720 308513 373304 295011 206065
2102.05 389907 371458 362071 353588 417229 318502
2104.94 382488 407504 335590 297348 468050 364091
2107.83 319718 393656 444357 533445 307169 325618
2110.73 371647 404126 423404 314611 476810 494304
2113.62 390791 463241 453726 543491 533443 525130
2116.51 405414 370396 463445 431704 413764 399365
2119.40 350742 224583 388922 286860 229688 345530
2122.30 360645 229164 367148 301677 224066 258750
2125.19 359736 212710 227895 248381 301637 286429
2128.08 172005 287265 283078 258783 333190 247575
2130.97 496982 301360 457690 254957 256574 291924
2133.87 183571 216958 170408 197189 168420 147920
2136.76 239440 187676 117417 202140 141356 189605
2139.65 243509 194572 254110 128243 171381 32773
2142.55 102143 180160 123251 87795 231615 225981
2145.44 201051 151120 188640 6911 142280 159333
2148.33 180577 127257 35377 160360 109961 72647
2151.22 122712 66537 149363 53161 54032 103432
2154.12 93945 84216 136097 41998 143644 81265
2157.01 9104 98673 132221-3244 137564 85446
2159.90 78841 58112 90800 180534 100935 87541
2162.79 108595 103766 206587 98891 234933 123695
2165.69 196290 156046 256090 215877 173297 143581
2168.58 199893 262819 127958 253685 309115 278077
2171.47 358699 345559 281144 346262 490195 277024
2174.37 389744 333594 535737 503391 406401 539848
2177.26 518458 373021 475023 608514 535706 442446
2180.15 551354 436487 611455 561001 534369 539090
2183.04 645265 588387 691112 666569 717759 664319
2185.94 839266 820656 904802 838013 856120 884271
2188.83 932709 886517 992419 907972 1000900 887191
2191.72 921077 893016 1031272 874550 978509 971871
2194.61 973181 1062602 1018899 972865 987843 1026832
2197.51 1117007 961025 1158113 1077983 1109773 1043162
2200.40 1310333 1269123 1260951 1278705 1371045 1281645
2203.29 1372526 1387933 1418792 1305454 1482029 1492744
2206.19 1365239 1392038 1607094 1591825 1405656 1405498
2209.08 1496953 1602736 1600399 1501673 1568239 1697919
2211.97 1586531 1595276 1869929 1705988 1586474 1496864
2214.86 1884583 1748885 1781251 1670167 1958652 1858988
2217.76 1899408 2013210 2089212 2180745 2054877 1958142
2220.65 2439961 2740324 2130869 1790950 1689668 1645698
2223.54 1617714 1690759 1643404 1625453 1619235 1627172
2226.43 1611920 1645565 1707071 1841954 1637262 1631239
2229.33 1842046 1726679 1607639 1620381 1706045 1782794
2232.22 1537145 1656808 1704851 1611931 1587024 1632309
2235.11 1590120 1457050 1542174 1428104 1498384 1468793
2238.01 1297712 1362814 1395649 1358379 1233480 1254990
2240.90 1228066 1150652 1034316 1086290 1087015 1038391
2243.79 1040078 923373 1190908 928968 1065669 966686
2246.68 880020 996625 933898 740663 950737 812988
2249.58 736765 706468 858327 809070 715790 789838
2252.47 702228 704495 669387 572405 609202 554698
2255.36 688334 531947 485820 441335 593970 504021
2258.25 449700 352698 434883 383694 369376 348585
2261.15 339562 370833 350769 349864 417692 401008
2264.04 357620 302232 319262 278994 341036 227451
2266.93 275938 268385 186884 310199 305835 276722
2269.83 250203 213356 236919 235082 228654 257270
2272.72 266476 135686 162432 340475 220318 145214
2275.61 230984 85501 284278 118374 269783 54547
2278.50 212917 257588 359568 161172 236799 292203
2281.40 177337 80971 139480 297208 253582 135257
2284.29 243912 192510 240473 200369 265515 106856
2287.18 228138 253265 336940 290640 249121 260849
2290.07 323426 170133 208338 215220 253004 181869
2292.97 223789 194229 214626 235736 169302 219942
2295.86 241263 111221 264508 173407 254224 103572
2298.75 177306 152236 182305 43202 206602 102058
2301.65 253457 68253 315607 198624 272500 59976
2304.54 163849 127637 249073 185080 133680 237674
2307.43 268281 168734 812 119787 303627 117219
2310.32 156083-92862 398739 247065 321258-312531
2313.22 435098 101802 463969-336391 436483 146170
2316.11 488105-423251 227782 272614 454484-530873
2319.00 93220 410815 444656-589696-131004 299872
2321.89 487735-612952-281775 493838 400324-813736
2324.79-429322 618136 217088-703574-139245 918676
2327.68 50974-1071627-358580 827724-315530-1476458
2330.57-52816 879859-875388-1460439 318142 584858
2333.47-1510418-1063969 668336-117749-1672780-349276
2336.36 697079-818415-1417016 492672 171706-1506285
2339.25-684731 704820-706073-1226976 296163 255768
2342.14-1335302-393127 468771-671298-794962 400424
2345.04-217705-719846-249 237278-292644 78424
2347.93 187053 334126 167263-78421 120814 188201
2350.82-453940-234415 352086-708364-592517 442047
2353.71-929466-973905 570165-1163240-1240954 573217
2356.61-1492187-1351829 764326-1808123-1220013 635053
2359.50-2235716-782042 326117-2460993-14029-424749
2362.39-2449997 610880-1368914-1475262 632459-2101338
2365.29-169870-51039-1901982 701309-1289323-470172
2368.18 264979-1241751 725670-943489-24504 238906
2371.07-820292 730229-494378 569270-146836 290715
2373.96 367411 226189 602085 330353 814791 384056
2376.86 1013181 648881 997607 869922 948949 1021497
2379.75 1132320 1065752 1089445 1181515 1225739 1006774
2382.64 1084928 1056444 1002150 1027321 993478 959427
2385.53 1000289 982453 834796 968161 1038781 1007587
2388.43 1270346 1248284 1333142 1243863 1227050 1253271
2391.32 1226723 1232727 1248618 1193119 985209 1089471
2394.21 979033 1005014 917243 952807 904203 749867
2397.11 739021 617179 849261 746049 633870 586128
2400.00 731565 614139 510507 701690 606129 520969
2402.89 604423 705957 697737 617802 674541 509275
2405.78 707065 678149 624534 646836 513179 627734
2408.68 586933 603621 622945 682917 634262 660091
2411.57 685147 641583 613362 633282 600570 608762
2414.46 688565 591502 659869 628922 695150 545346
2417.35 501090 596771 560935 569313 582149 704337
2420.25 594754 689939 978133 882024 1017853 912928
2423.14 819318 828419 683685 661952 637090 680987
2426.03 637600 707581 552249 527895 577055 668043
2428.93 706301 584036 651390 649901 611820 640833
2431.82 668672 654206 645080 684085 709713 598677
2434.71 537726 744713 712857 552676 671539 715206
2437.60 597876 635615 743753 531907 471988 702380
2440.50 644313 721963 594564 659748 597974 598229
2443.39 689903 649465 564389 630898 577386 611871
2446.28 546594 412248 497936 541761 579007 473281
2449.17 518208 611326 497520 530587 494881 538451
2452.07 556063 430748 555735 550715 464158 430286
2454.96 381365 450642 456096 524707 596473 686246
2457.85 890533 695554 767073 724919 770015 742748
2460.75 644825 832153 661485 728382 496004 572339
2463.64 607357 731261 602431 680364 738831 643476
2466.53 608370 669979 620955 603261 608870 441384
2469.42 589819 469950 596857 619278 476909 467817
2472.32 531092 511196 390672 461739 397053 511978
2475.21 390382 410505 373881 330076 394747 307136
2478.10 401201 261392 198165 233252 246579 216968
2480.99 356464 247125 214965 343343 271035 164618
2483.89 295149 276709 284504 270299 476508 324855
2486.78 396448 290692 263622 368262 350580 362317
2489.67 396829 278219 330035 339278 429080 368192
2492.57 413607 355715 338007 420481 338243 492082
2495.46 471943 512452 544084 472180 442241 499121
2498.35 472429 500091 625846 540141 573136 516285
2501.24 430876 600407 628777 552343 627585 756844
2504.14 728723 599673 672240 775064 702150 748877
2507.03 836619 861819 765195 753988 773197 650270
2509.92 707453 772281 793901 735668 694911 783448
2512.81 791916 666118 799668 704792 827131 761602
2515.71 792011 870659 811345 846142 822971 854797
2518.60 898716 844853 887107 954314 817971 908880
2521.49 847336 838607 762938 761833 667747 701449
2524.39 666647 680080 538917 767142 689512 599645
2527.28 663410 587101 484559 515452 461027 478078
2530.17 581645 564687 586975 576298 510466 630404
2533.06 683246 759838 664487 588363 580177 585795
2535.96 549742 564346 544218 666353 438637 641411
2538.85 604693 504450 322062 532118 413530 415371
2541.74 463915 517265 428276 380352 400143 505609
2544.63 413099 248759 432574 339398 397893 343302
2547.53 342014 322459 278366 371164 424022 266940
2550.42 229137 216854 283711 185423 186995 326015
2553.31 281026 197318 129274 152846 187987 130248
2556.21 106314 156644 153702 21791 29987 89452
2559.10 101314-27685 112857 3463 48231 25806
2561.99-81403-38264-85423 20191-134723-56425
2564.88-35203 30201-147159-13594-112787-122915
2567.78-81532-173613-124479-151158-197969-95819
2570.67 83221-55757 34772-135749-109681-113121
2573.56-104559-11144-10250-87095-44656 22936
2576.45-153437-141835 79329-181283-75697-188655
2579.35-40247-129031-169049-286443-157452-171438
2582.24-82536-236467-314831-163787-128616 132442
2585.13 168040 225901 57131 74896-87063 27465
2588.03-64299-188576-114594-208263-130198-66444
2590.92-167734-87763-158051-193162-265380-162765
2593.81-257664-87073-167332-90288-123621-139235
2596.70-142992-152745-149889-145079-137713-194416
2599.60-160828-274104-151811-132446-151423-146731
2602.49-162623-88542-94579-87082-82910-167663
2605.38-183856-130390-48624-79281-66941-276704
2608.27-196824-123620-130009-12937-124166 24291
2611.17-221265 41661-209927-91217-129399-131780
2614.06-166892-99412-21505-187133-125871-218737
2616.95-33051-164808 74027 138734-48420-157625
2619.85-106145-90234-132497-161612 5682-128385
2622.74-74759-127411 130660-208518-44014-44874
2625.63-119037 44034-65224-62428-41530 56395
2628.52-118772-99236 37426-38086-25129-67190
2631.42 3714 13182-145235-35123 21070 40695
2634.31-32890-46555-18729-65733-3626-90505
2637.20-137414-105536 37501-93171 92296 55839
2640.09 93285-2790 14659-65489 124478-14708
2642.99-20151 76494-31920-39752-65441-15630
2645.88 17533-33429 34593-16635-3510 52453
2648.77-55045 77271 144707-139955 113183 82230
2651.67 92207 31284-114219 135393 129962 56644
2654.56-8309-148314 102724-52413 83804-90431
2657.45-8564-102632 156711-42620 88832 36960
2660.34 91238 78465 55274 46861-93657-31023
2663.24 47453 131504 193967 118047 172455 141482
2666.13 47094 234030 181568 238161 117497 72778
2669.02 262268 162571 359152 253560 354564 268988
2671.91 373516 251405 514688 364628 424810 474250
2674.81 626981 690986 707374 972491 947408 996320
2677.70 1075872 1070174 1216922 1269584 1577581 1432721
2680.59 1593209 1614528 1782779 1846806 1828150 2011040
2683.49 1938566 2035256 2135340 2119239 1895355 1656954
2686.38 1780482 1530811 1550076 1695686 1642104 1360054
2689.27 1504612 1430575 1635179 1747315 1749076 1946813
2692.16 1985690 1950584 1926851 1947467 1855741 1747721
2695.06 1757587 1555088 1531311 1405468 1103452 933157
2697.95 1010718 825637 802493 529744 546600 621430
2700.84 287062 477935 405467 308556 343058 374714
2703.73 299500 365391 189908 178196 330456 313085
2706.63 300637 186834 221596 80563 338875 157868
2709.52 224456 258167 167911 160564 195066 166786
2712.41 37843 133227 206793 187474 179618 290609
2715.31 206625 92493 97299 235267 423549 360942
2718.20 345320 410600 403482 383000 458918 653602
2721.09 556676 469943 625022 538787 619970 510769
2723.98 633415 606329 441716 466437 541930 448693
2726.88 468447 464156 388014 344361 435258 777380
2729.77 899626 596889 424417 396421 422263 447109
2732.66 552222 407444 624813 560078 459180 749757
2735.55 665724 572631 540812 588153 767764 511628
2738.45 701613 569549 719513 537621 415333 559037
2741.34 619022 619444 594072 586562 480783 491858
2744.23 423172 510414 579596 580729 612487 650332
2747.12 596290 660786 616495 772503 690581 719601
2750.02 740145 884544 797135 1017496 1137183 1221444
2752.91 1267365 1258246 1521881 1731355 1689971 1680294
2755.80 1899744 2084667 2295175 2486811 2481194 2641932
2758.70 2510477 2794911 2739435 2844402 2743682 2568716
2761.59 2536970 2592364 2572787 2382007 2145000 1823595
2764.48 2139606 2187703 2088734 1891025 1677378 2014722
2767.37 2243567 2372557 2701323 2611542 2728448 2842083
2770.27 2685883 2576982 2652858 2387252 2069242 1740817
2773.16 1784572 1411871 1267181 1090564 1048198 849510
2776.05 652102 557451 457139 448739 442127 344090
2778.94 137072 291760 264203 216815 287217 238530
2781.84 60029 193611 117082 148575 221903 177364
2784.73 203112 194936 99951 160005 81378 188103
2787.62 59979 181996 127260 157848 168324 96669
2790.52 187976 28377 112414 206242 52926 148751
2793.41 70764 242442-15401 68610 140540 36512
2796.30 30948-48568 18986-120765 197615 113147
2799.19-5865 75532-53492 67245-209661-48231
2802.09 141917 113326-77284 64256 113936-94441
2804.98-134775-67238-90641 91170 5115 74666
2807.87 39350 65352 81345-90510-88125 40200
2810.76 57466 922-63245-86649 5811 163512
2813.66-3494 110882-94349 137691-43792-3169
2816.55 99536 93610 82846 41917 87774 103331
2819.44 120438 53689 83988 319412 223953 237196
2822.34 95343 79117 223759 169560 216804 292979
2825.23 287628 328397 290633 250097 133630 401563
2828.12 351398 326468 339620 514112 387941 597428
2831.01 500307 543559 547233 649482 687244 697424
2833.91 790062 752903 819014 920838 1006534 861309
2836.80 1043581 1186558 1141952 1434040 1320516 1286610
2839.69 1498536 1596511 1654431 1760922 1716144 1848721
2842.58 1952130 1954568 2157472 2289048 2573073 2343440
2845.48 2636866 2553949 2860677 2973328 3048983 3183222
2848.37 3202156 3568358 3324760 3598346 3604144 3858128
2851.26 3928971 3986340 4033915 4170951 4074288 4120981
2854.16 4325441 4252336 4085056 3963752 3896355 3928240
2857.05 3957695 3768051 4227294 4370262 4323916 4103947
2859.94 4139732 4188107 4509188 4474179 4632607 4596284
2862.83 4931551 4979434 5101751 5091268 5386948 5351984
2865.73 4858815 5052647 5399676 5197297 4946396 5234579
2868.62 5224515 5005768 4836572 4980548 5085237 4999331
2871.51 4885939 4883144 5211710 4965419 4882643 5147994
2874.40 5440012 5410462 5151248 5419288 5567829 5486067
2877.30 5382051 5612924 6170259 6003562 6034280 6418705
2880.19 6964976 7072084 7360401 8042586 8992205 9404328
2883.08 9798971 10998727 12384585 12893922 13594264 14823239
2885.98 16020949 16299701 16781244 17720915 18545577 17924954
2888.87 17418045 17339171 16409591 15083670 13755670 12935798
2891.76 12632213 11388929 10519566 10067873 10939822 10882003
2894.65 10476818 12583874 13580686 15187667 16566470 17069056
2897.55 17194274 17548234 17385711 17213366 15773581 15229007
2900.44 14946022 13216220 11925933 11656639 11130224 9395049
2903.33 8526615 8732193 7471106 6534873 6170017 6397774
2906.22 5267168 4632013 5031133 4746224 3926945 3858658
2909.12 4132054 3868559 3214595 3678988 3644842 3377932
2912.01 3131301 3420462 3430754 2856600 3065178 3231957
2914.90 2917606 2705984 3045544 3221385 2751829 2430267
2917.80 2799980 2774424 2492722 2351416 2614723 2248806
2920.69 2260277 2195730 2185020 2203911 2123738 2053546
2923.58 2171226 2074214 2163041 2161316 2033479 2042005
2926.47 2312708 2127755 2357523 2355395 2236316 2378009
2929.37 2511218 2540809 2658550 2803884 2919439 3062031
2932.26 3256169 3390896 3785062 3904000 4131134 4540230
2935.15 4402561 4771341 5134150 5330468 5515008 6021363
2938.04 6695995 6844545 7107441 7474386 8166416 8330370
2940.94 8735703 9326598 9872804 10318793 10490699 11290174
2943.83 11942598 12366230 12888064 13624592 14249262 14972739
2946.72 15758918 16440939 17501131 17966003 18627887 19505615
2949.62 20913392 21686402 22172614 23408735 24472824 25639621
2952.51 26861940 27185967 28345220 29941577 30148516 31112129
2955.40 33350022 34379282 38869446 43559118 39400522 37977711
2958.29 36794187 35775129 36235565 35950010 34242863 32665690
2961.19 31139781 29826878 27713710 26515551 26608380 27689144
2964.08 29388526 32724809 35973348 38963285 40689230 43004341
2966.97 45312336 46265725 46395767 47747086 49594192 49832486
2969.86 48675912 50558581 54037890 52956276 51566102 54301618
2972.76 59733665 57029568 55262561 60290886 65484783 61187060
2975.65 60192585 65613147 67966402 63049401 63488847 65073125
2978.54 64496884 60255238 58308635 57357606 56238333 51268018
2981.44 52540228 51821539 52829695 49520821 47007262 53115730
2984.33 55565706 60325563 63213326 64024726 65347710 65215901
2987.22 65833713 64104492 62029735 61802387 60671813 56288568
2990.11 54418068 54519411 52032004 48412586 47072693 47265227
2993.01 45189348 42229262 42264977 43072903 40766860 38825245
2995.90 40110668 41268932 38400446 37612211 39188669 39122019
2998.79 36190409 36350243 37766646 36330362 34311569 34738527
3001.68 35472967 33556308 32850365 33184181 33641727 31630616
3004.58 31362585 32077108 32392084 31142505 30653400 31809360
3007.47 31571675 30590991 30408771 31900251 30672610 30416038
3010.36 31246909 35881269 36038609 33819571 32114474 28773166
3013.26 26804519 26121370 25800371 24394185 23489281 24500182
3016.15 24587938 23022655 22968516 23027282 22923997 22400209
3019.04 21785952 21626826 21615217 21069648 20411946 20116711
3021.93 20267600 19435075 18347204 18899409 19145915 17885367
3024.83 16621180 17455834 17876733 16418791 15590682 16186483
3027.72 16748447 15158329 15075505 15127317 15641637 15293939
3030.61 14631940 15324074 16889428 16326571 16796807 18422471
3033.50 22874281 20590113 17323440 15493281 14052561 12686798
3036.40 12460086 11956870 11183800 11090522 11823600 11170063
3039.29 10218903 10985543 11289748 10450874 10141825 10905002
3042.18 10873211 9835870 10116979 10400095 10039961 9597790
3045.08 9811668 9885168 9601198 9284790 9290919 9041426
3047.97 8732919 8635371 8657278 8300875 8160231 7966389
3050.86 8088808 7626294 7375664 7401487 7311724 6977167
3053.75 6533351 6634842 6788325 6294866 5932246 5938807
3056.65 6027732 5707536 5572213 5443995 5442479 5003147
3059.54 4791802 4779894 4689546 4391619 4388948 4243478
3062.43 3993407 3784613 3744803 3846747 3617461 3380140
3065.32 3208280 3156328 3403836 2840848 2713822 2848853
3068.22 3030375 2619027 2684290 2611536 2432114 2341437
3071.11 2336508 2145993 2226704 1849853 1926364 1965796
3074.00 1851941 1725291 1673763 1648697 1600029 1464096
3076.90 1295579 1342399 1356339 1226044 1474952 1153538
3079.79 1383352 1200691 1159783 1018959 983985 1082261
3082.68 1057701 1057525 926432 1038142 1007476 963873
3085.57 927906 1002689 817011 924872 898286 813208
3088.47 836234 657656 828719 730092 810575 824929
3091.36 643741 773964 820290 654020 753635 701893
3094.25 838089 786330 774909 743812 605165 827952
3097.14 660403 655404 716091 495866 619406 621574
3100.04 674798 754815 478193 687823 743891 843960
3102.93 808762 673025 642433 723906 546112 722473
3105.82 567919 691330 681991 657258 603879 600018
3108.72 530526 646590 623628 499474 604308 515609
3111.61 806825 612448 553938 578652 500719 527815
3114.50 716821 514323 396700 664657 576846 617613
3117.39 421346 483303 364426 584086 369427 449482
3120.29 517993 577454 365391 472499 491244 445407
3123.18 343429 298386 306638 351018 419874 447329
3126.07 380305 310858 443901 238917 331555 321590
3128.96 398623 369158 219857 257735 397573 143488
3131.86 142224 191905 143992-53803 144710 176422
3134.75-38795 177115 237113 95143 114334-38237
3137.64 86722 215096 145943 99728 136135 265904
3140.54-5749 57903 117790 85312 167326-29337
3143.43 168421 59319 92222 150810-127899 23648
3146.32-184192-48888 237739-26199 88118 134540
3149.21-45725-124965-199431 117219-89537 184702
3152.11 144712-63970-19715 82670 94125-39303
3155.00 18322 28956-11852 12422-244804-16696
3157.89 3402-76270-74973 42524-52282-57034
3160.78-62784 9382 145966 138303-78019-135045
3163.68-100459-146398 135311 72522-14964-240939
3166.57 109601-19968-97451 26611-101951 62044
3169.46-106392-178099 2408 63591-26402 90150
3172.36-30993 54372 231105-39387 109954 61761
3175.25 179842-90188-151421 110321 224525 42688
3178.14-161883-50543 170502 153334-39743-20869
3181.03 124032 176027 165104 197076-200786 20773
3183.93 77438 177456 23046 75012 146627 398607
3186.82 71663 149372 61750 5358 179297-1724
3189.71 94517 167522 252353 162978 50570 3106
3192.60 154361 94232 99612 346937 277768 315858
3195.50 332374 284316 768 305626 288580 103394
3198.39 115581 287014 240203 254547 254268 344013
3201.28 98679 207302 146778 418822 155561 273040
3204.18 112368 224034 322490 220170 194454 401086
3207.07 125428 248172 248818 421332 274024 217461
3209.96 354863 117883 228039 285332 196817 223219
3212.85-34904 151034 265601 205570 508772 96485
3215.75 94374 130574 340476 266337 114389 266041
3218.64 208613 246667 136486 64694 288915-49829
3221.53 83029 224673 236442 243648 59640 2225
3224.42 142442 11169 42676 7312 226418 246685
3227.32 31910 153897 164500-102027-156672 111800
3230.21 178266 241423 82922 60079 62835 143154
3233.10 52173-23789 77401 192981 171351 12110
3236.00-116037 16023-80076 28856-119456 22340
3238.89-20907 167159 88368 76283-72865 122739
3241.78 6865-24646-71983 159168-14935-141924
3244.67 23368-8453 35418 42084 74597-12282
3247.57 107940 98612-68679 233521-14915 90853
3250.46 54271 47111 105737 81802-233822-217345
3253.35-38690-28500 169985 232216 95706 164452
3256.24 278959 24937 62858 124473-28116 196813
3259.14 270429-49806 103900 100480 203614 123316
3262.03 146045 98991 230689 189440 156092 159120
3264.92-92551 38151 280588 149488 42940 190392
3267.82 273708 166835 243845 207599 302711 42125
3270.71 360836 66280 159787 216527 14042 362393
3273.60 13287 216924-19626 126548 323792-19500
3276.49 275704 93270 141064 148311 166577 218978
3279.39 245028 68527 75913 109996 125612 121356
3282.28 132434-63853 27167-6424-79789 202508
3285.17 54356 64834 94742 181806-124209 103428
3288.06 70578-32841-59653-86816-11192-109127
3290.96 210672-754 126604 152401-173256-125265
3293.85-20546-118573 97417-51312-63694 153366
3296.74 86792 50820-4670-90878-201107 100108
3299.64-65848 30980-128493-151303-5416 24637
3302.53-60918-176115-65015-13514-123626-26861
3305.42-259694 11947-123711-85353-67102 22694
3308.31-32592-12497-42622-167349-12706 109633
3311.21-89373 19590-27022-106603-46031-87373
3314.10 7975-170520-195377-295854 155185 53727
3316.99-226469-125934-216710-90659-125737-95962
3319.88-24584-135465 58853 135197 93162-139884
3322.78-104393 3691-191260-9945 180290-279972
3325.67-176904-148113 155219 38928-175082 189179
3328.56-39019-120323-130811-43913-232842 4570
3331.46-14099-4110-38259 37013-2056-75206
3334.35-138027-40834-182442 23963-46031 18121
3337.24 3187 94867 17567 9703 18804-207476
3340.13 137658-211065 2177-71926-48512 46626
3343.03-115652-46145-11422 94421 74240 47947
3345.92-206044-7378-3135 13849 194372-119618
3348.81-89028-102783-80541 69402-28318-128506
3351.70-86872-53180-29932-100270 216496-94759
3354.60 59225-186350-52468-41168-179094 12717
3357.49-84593-25182-108432 15400 93576 119779
3360.38-9738-13914-69466-156166-133008 117294
3363.28-145483 98758-153240-155708-124402 158271
3366.17 29481-152985-81438-22053 232503-223474
3369.06-58812 9949 19891 134635 33909 19796
3371.95-114835 171647 13666 236276 20096-22241
3374.85 47877 85604 99617-2903-111306-60693
3377.74 81790 193645 55737-88537 193430 30877
3380.63-37644 52921-176654-141413 164158 28157
3383.52-301932-108175-17791-34028-133479-323000
3386.42-159401 218957-72303 41147-209549 322218
3389.31-66017 9170 89243-40844-40029-21980
3392.20-62620 82346-65974-11852-149451-65679
3395.10-137548-68958-38544 58327 62701 98136
3397.99 64345 346701 56004 82181 24948 127117
3400.88 50529 336508 289632 116159 49761 220807
3403.77 78073 322197 229462 193391 95051 237100
3406.67 79895 211158 109478 98640 315803 46199
3409.56 321415 198836 153639 148165 316203 64048
3412.45 289527 161880 233628 118200 133106 88103
3415.34 11914 239216 153491 342179 356414 120902
3418.24 280958 85437 160456-46547 33928 239735
3421.13-180875 131845-47095 219949-173549 5245
3424.02-85895-26154-75272 283023 134327-102189
3426.92-106454-18858-165974-7931-294929 74500
3429.81-108020 115580-108610 180774 80743-100893
3432.70-38167-171140-52225 67813-134734-48084
3435.59 51252 55928 28065 79592 47427-29879
3438.49 255057-47917-259010 12755-24228-198398
3441.38-152339-176906-26903 30820 32606-29684
3444.27-134048 26503 58569-218512-152669-311440
3447.16-52593-37209 108022 11767-45326-139050
3450.06-180232 22316 102439-16393-208 208977
3452.95 78764-77372-281084 73419 66483 60384
3455.84-155991-945 76649 93563-351957-19336
3458.74 725-64946-24325 59371 17290 161286
3461.63-38612-53102 206627 64434-220239 41259
3464.52-55628-109044-55335 171359-148198-5052
3467.41 164412 64498-54811 174462-69248-94490
3470.31-21810 55995 43119-41083 36908-53759
3473.20-226650 65917 84445 14099-225604 68323
3476.09 3392-84320 218001 130651 200938-37610
3478.98 45057 93054-131088 27932-125814 46098
3481.88 1694 384071 26760 104553-238434-31408
3484.77 115833-38804 13516 59129 132500-83954
3487.66-190436 79848-45142 159364-300719 23222
3490.56 128479-175921-160871-175611 37804 19786
3493.45 48209-158063-121714-20295 169990 225189
3496.34-124482-34731-13123 49300 181377-135067
3499.23-51896-109098-38866-339321-258428 30550
3502.13-25037-333447-82204 53063 132992-157492
3505.02 96216-191097-86758-196965 118550-131102
3507.91-84029-223100-80410-97180-322151-105579
3510.80-220401 105698-200092-129246-139634-52946
3513.70 19364 73796 132359-100845 11999-31204
3516.59-156957-64563-349068-180110-88364-117885
3519.48-30250-9857-15337 10386-186486-86521
3522.38-83516-27451-357362-175266-112377-249184
3525.27-15204 70024-67504-89587 43712-109213
3528.16-73884-177418 77135-52387-19236-85573
3531.05 30833-82570-149955 118340-267966 66311
3533.95-260029-62383 87476-40704-50193-191196
3536.84 25739-61903 86996-108821 12668-131512
3539.73-109954-2042 75450-51482 168049 196882
3542.62-200855 34398-290231 12642-159213-279822
3545.52 38911-232422-199490-18474-93605-68112
3548.41-139548-31209-233774-77170-39434-65680
3551.30-41999-9227-23374-167058 215387-29112
3554.20-181491-109617-30523 115841-153162-141702
3557.09 83607 16531-206235-55293-281050-307328
3559.98-62334 84317 15744-22877-100988-86818
3562.87-61011-80282-201675-256010-78651-177046
3565.77 38477-457469 35345-320306-232333-15176
3568.66-263141-49326-304913-146426-88460-107782
3571.55-242544-103931-141302-38095-84713-139285
3574.44-55850 198144-181026 4198-215864-11733
3577.34-253166 42403-183443-110271-103364-190721
3580.23-176676 28140-496415-68637 25179-107638
3583.12-172741-37007-104837-47557-80263-226906
3586.02-290976-77588-135623-18749-308032-354200
3588.91-145542-182695-7238-81473-128501 106849
3591.80-278953-106053-237549-304194-78079-147781
3594.69-176684-34023 92844-103463-12447-89727
3597.59 13415 65654-35382-78726-100030-261311
3600.48-119828-37453 36065-42020 102433-133251
3603.37 96780-74874-120956-146155-72337-55660
3606.26 4880-106726 191659 130876 154748-594637
3609.16-81005 62363-131339 7906-26404 77937
3612.05-173839 7622 219998-42469 33671-18894
3614.94 87936 207558-39028 315079 94797-178955
3617.84 7302 271495-316460-420521 215480-51656
3620.73 230328 148855 193159 21874 80320 149212
3623.62 216653 272747 259774 261768 129376 1230
3626.51 176148 249678 65659-651378 294710-584092
3629.41-75946 242368-211563 141358 135234 135184
3632.30 150069 20742-64934 24789 260842 132551
3635.19 280171 240861 212630 369720 169739 262881
3638.08 266360 398978 298001 210367 165857 301338
3640.98 496908 271634 91637 146061 174275 264189
3643.87 270787 318888 245070 354936 41970 198152
3646.76-63412 163584 209925 428558-559098-27853
3649.66 354440-94083 91428 114016 352744 285053
3652.55 188021 380780 423128 377587 439880 496933
3655.44 60915-184016 473321 571637 369907 350067
3658.33 425593 314807 391151 262898 492895 320947
3661.23 415399 360244 395821 412571 287390 292081
3664.12 355365 231792 352786 536826 341765 505802
3667.01 521145 299062-62847 264131 530606 515871
3669.90-52587-665112 679611 174920 561120 264694
3672.80 512892 301919 446515 9946 323832-44592
3675.69-563910 365362 276976 338758 292138 412440
3678.58 306176 130818 438012 386976 308570 403279
3681.48 350971 345005 572460 398014 466514 223551
3684.37 424806 153024 541331 336191 282316 255981
3687.26 434000-541907-435361 302542 147633 248952
3690.15-27867-116280 27463 207212 30463 153336
3693.05 151886 250053 56457 315222 242320 194643
3695.94 115760 233064 337818 302301 200825 490727
3698.83 158797 240882 263405 303689 234485 59131
3701.72-19890 212324 136918 359961 221779 317081
3704.62 176313 371727 263699 198495 252959 312626
3707.51 174478 330774 131671-243066 348951 357153
3710.40 158088 172649-242371-466378 361612 281331
3713.30 296933 222811 334201 292988 304682 367236
3716.19 167336 182913 304037 163316 232874 119101
3719.08 328010 192404 75161 256752 283193 181549
3721.97 5271 193107 269849 376699 336984 283399
3724.87 188453 353531 243325 173901 404621 267903
3727.76 299463 481280 338530 360000 251267 476770
3730.65 336515 325223-300406 374647 515344 438916
3733.54 550050 86993 313178 385843 688274 128966
3736.44-15555 783761 578025 587994 724444 829472
3739.33 736666 797703 816352 607867 982844 816999
3742.22 1029949 920297 797257 314188-430157 571521
3745.12 1292353 919303 1220080 1187595 1387699 1075802
3748.01 1295647 693613-113934 1178760 1325295 1042148
3750.90 1348041 702848-83427 1445083 1409159 1524108
3753.79 1571167 1568449 1324198 1194077 1387444 1266120
3756.69 1385262 1347048 1440801 1390162 1240351 1213779
3759.58 1069138 1382857 1359376 1532197 1240441 1212808
3762.47 1408301 1258084 1246877 1252535 1385406 1190525
3765.36 903120 1312263 1077708 1249705 1117438 1144627
3768.26 1011969 1316694 786189 1082305 1304381 1073552
3771.15 1111767 1018669 1170246 1328546 1281879 1243462
3774.04 1258798 1347712 1467603 1234787 1294582 1331126
3776.94 1131623 1106811 1290140 1040654 1115201 856595
3779.83 1216010 1000579 1048062 1174516 1266473 1065778
3782.72 1144519 1196437 1146340 959000 1174742 1083742
3785.61 1017215 1053338 1182674 903009 972395 1201245
3788.51 984470 1063276 817420 771275 856446 970775
3791.40 947059 997559 884897 868339 653409 616667
3794.29 859037 515497 918860 407103 312026 667057
3797.18 412594 503473 625015 769260 640554 289287
3800.08 692820 160070-395119 827032 788643 850776
3802.97 1017693 974197 835225 1015329 707758 639412
3805.86 711522-148444-37795 770186 586663 488851
3808.76 431408 801898 616934 608437 419044 581570
3811.65 558863 409072 596058 692106 644226 893507
3814.54 540722 668227-525992 216957 731333 441472
3817.43 604411 534783 745641 510772 518864 215262
3820.33 125051 247439-37276 366641 488573 545483
3823.22 330145 439175 734310 372430 609877 411121
3826.11 471985 440466 617539 405524 451404 272263
3829.00 354561 442975 330301 355491 191174 301541
3831.90 492324 327365 292601 209812 473321 16049
3834.79 63010 144245 389624 278764 481224-927229
3837.68-568529 543761 210380 326758 123917 428279
3840.58 134857 346371 299897 184581 123620 175102
3843.47 74920 363179 262109 307774 231772 225812
3846.36 405887 351896 429851 445036 178114 275732
3849.25 154636 227026 192549 406909-92962-740526
3852.15 99498 105802-46176-1352177-679160 197216
3855.04-38608 307910 206439 117034 42325 131268
3857.93 49474 147399 194061 66449 279335 44529
3860.82 114582-228943 118532 140327-142822 32171
3863.72-57039 76126-450413 119871-53459 122465
3866.61 16849 188778-49695 143406-197952 142349
3869.50-632684-345237 100406-128123 38608 41817
3872.40 93845-54012-135420-161565-142479 82594
3875.29 187837 231520-156104 77604 104396-38872
3878.18-16632 239525-135906-271992-22743 57464
3881.07 59841 4939 135344 129285-5882 274924
3883.97 60684 99799-354349-366967 105876 220017
3886.86 223921 297937-45765 3644-410 144349
3889.75 240726-9056-228350-95114 102664-19505
3892.64 266631 73705 155308 89790 383362 29968
3895.54 78819 185802 122135 41576 209541 150221
3898.43 48931-312258-219308 265679 195407 169081
3901.32-385731 98756 127916-23490-100729-336451
3904.22-17217-34433 98207-67847 215622 55772
3907.11 121592-23262 229658 146706 39548 117826
3910.00 193984 167763-177099 15331-99591-139715
3912.89 67042-54295-31857 81628-29002 270574
3915.79 20790-85373-260934-80927 78435 188117
3918.68 108013-30175-42802 71362-71330 23745
3921.57-93702 48689-126240 128016 31958 33035
3924.46 13702 8479 18561 183836-103044 175505
3927.36 48414-55508 56622 120212-281 143717
3930.25 68594 22349 147448 51192 145056 150917
3933.14-137008 254180-78635 124369 214104 121647
3936.04 217051-8673 93056 273564 186159 265922
3938.93 160240 270075 128427 383159 267461 292793
3941.82 127713 47045 20284 269208 93764 261650
3944.71 366264 272842 194687 240732 128006 276952
3947.61 393280 224173 55141 268613 213427 344062
3950.50 321760 95999 216541 336516 259295 439381
3953.39 344122 442583 320233 545815 359566 527353
3956.28 445775 384980 289670 509128 205642 242851
3959.18 345492 324591 379088 355048 429676 424587
3962.07 341641 384616 510610 410514 462036 620061
3964.96 422681 329101 483629 281136 235703 323820
3967.86 333517 257843 215648 231705 523662 559247
3970.75 415013 358882 567983 419778 162980 309710
3973.64 349995 403537
##END=
