##TITLE=Acrylonitrile
##JCAMP-DX=4.24
##DATA TYPE=INFRARED SPECTRUM
##CLASS=IUPAC A
##ORIGIN=NIST, Anayltical Chemistry Division, 301-975-3108
##OWNER=COPYRIGHT (C) 1998 by the U.S. Secretary of Commerce
##DATE=98/10/1
##$SPECTRA VERSION=1.00
##$UNCERTAINTY IN Y=2.0 % relative (B=1.0E-04,C=6.4E-09,D=2.7E-14)
##CAS NAME=Nitrile-Propenoic Acid
##CAS REGISTRY NO=107-13-1
##MOLFORM=C H2: C H C N
##MP=-83.5 C
##BP=77.5 C
##$NIST SOURCE=QUANT-IR
##SPECTROMETER/DATA SYSTEM=IFS66V (Bruker)
##INSTRUMENT PARAMETERS=KBr Beam splitter; MCT Detector; Multipass cell
##STATE=gas
##SAMPLE DESCRIPTION=Acrylonitrile Primary Gas Standard
##PRESSURE=101.3 kPa
##TEMPERATURE=23 C
##SAMPLING PROCEDURE=1 L/min Flow
##RESOLUTION=1.9290
##DATA PROCESSING=Boxcar Apodization
##XUNITS=cm-1
##YUNITS=(micromol/mol)-1m-1 (base 10)
##XFACTOR=1.0
##YFACTOR=2.2737E-13
##DELTAX=0.9645
##FIRSTX=574.687
##LASTX=3974.595
##FIRSTY=2.50E-07
##MAXX=3973.63
##MINX=574.69
##MAXY=.0004108
##MINY=-6.57E-07
##NPOINTS=3527
##XYDATA=(X++(Y..Y))
574.69 1103104 1574906 2671498 1864494 2035500 1360170
579.51-572286-74636 1003660 2153372 766602 1253150
585.29 208140 2198164 425234 62934 432884 2944938
591.08 1584164 1879586 2126196 204688-277074 1953966
596.86 1736462 1146652 652176 2435398 754290 1276202
602.65 1429188 1503754 2271142 2301316 1496538 2453100
608.44 1536716 3634882 2009498 3952950 2871788 4034426
614.22 3813222 4296582 4282926 5502024 4266214 6485852
620.01 5403114 7487066 7935828 9143056 9674784 10196650
625.79 10468000 12595500 12736430 14586070 15292220 17508650
631.58 16899080 19255520 20657900 22341820 23889290 26694740
637.36 27633280 30059670 30476510 38195070 33177600 47101230
643.15 37987670 50484700 50487890 49838200 65236220 54283190
648.93 68402400 73352480 60820830 93223680 67131120 83952130
654.72 98620810 63807410 104699700 95621230 65227800 127578500
660.50 76049310 80693350 123636800 68095500 90248500 129657100
666.29 58260340 107560700 110942400 66395580 105609200 99970540
672.08 73510360 107109800 82192970 98803200 94168570 121488500
677.86 128390500 202863200 195520800 372974300 322518100 118455600
683.65 122129700 77144530 90591180 73173330 80963740 78979350
689.43 80279490 68586480 100004300 80734320 68527310 97265430
695.22 102476500 58899960 91760850 108084000 69626610 68519540
701.00 112197300 80470420 58894990 93871850 97910020 52744760
706.79 72703460 97411610 65555060 48862820 87103520 75290940
712.57 42588540 59186210 80929170 47092770 39674480 65317570
718.36 61424290 30693950 44172800 57971780 41020300 27208030
724.14 45908100 44705520 28563680 27421310 40750940 31256860
729.93 23052310 28615560 32776580 22092770 20452890 24450330
735.71 24392400 16364410 18195830 19686680 18174180 12873160
741.50 16002870 15099030 13350200 10630250 13272520 11441640
747.29 10626520 8515954 10148290 9353724 8590388 6527750
753.07 8549846 7121764 7253582 5991336 7437900 7578068
758.86 8580196 5981914 7680204 7383640 8098548 6598876
764.64 8799098 8857534 10805710 10171880 12652410 14205050
770.43 15953030 16608480 19566930 19233840 21556960 21734190
776.21 22929050 21547190 22994570 20410450 20006970 18267240
782.00 17906550 15283370 15553520 12655860 11353730 8002892
787.78 9563196 11247430 14570620 16232630 17868700 18414940
793.57 19434670 18573730 18559460 16983450 16618060 14216880
799.35 13397420 11516950 10483260 8585688 7419334 6225856
805.14 5396620 3816648 4134756 2429444 2748718 1462280
810.93 2197716 789200 1605434 868068 722826 361948
816.71 1508180 481760 1199418-27496 686084 963798
822.50 861520 339660 944820 134390 1125930-93624
828.28 320072 324238 847102 472032 756564 494800
834.07 901414 381242 1127850 1298912 1664250 1718450
839.85 2609592 2538912 3509280 3791598 5431768 6203940
845.64 7897678 8948316 11218830 12889270 15067990 17944650
851.42 20414620 22799430 26326940 28583410 31764420 33903520
857.21 36130120 37295470 38359160 37629110 36718110 34281760
862.99 30936180 27413230 22839570 20010140 19760660 50001860
868.78 18097850 24336160 21828740 20054010 25365310 26518720
874.57 31653320 33924340 36853780 37668540 38932870 37330050
880.35 37166590 34634900 33468400 32356820 29876280 28209320
886.14 30082010 27631490 26810380 30870740 30622990 27686240
891.92 35359420 37410790 32935760 41502020 49371570 40934370
897.71 49108520 61942740 52355880 57615830 76475990 67607920
903.49 68473780 92267650 86568020 79700370 110482100 110545200
909.28 95156310 128367200 140908100 112206200 137258300 177590700
915.06 136667400 146684200 212006300 178980500 152294800 235829000
920.85 232333000 168301200 243245600 293215000 203139400 238600500
926.63 337158000 258684800 230207900 363629000 327562000 244449700
932.42 363482800 386087600 262771000 346674000 421768400 304398700
938.21 338009600 427680300 334511700 357246800 407737400 362161300
943.99 425578200 425135000 357309800 526567800 515088200 340147400
949.78 516108100 534943700 679428500 1807004000 871396600 462776300
955.56 453929700 500700200 393381300 396156300 435954200 475683400
961.35 406925700 459852900 537924900 352824800 488186100 562644900
967.13 369581800 691117000 791348700 1163232000 823155800 524606500
972.92 382482000 537300300 475661700 314114700 532030200 418237900
978.70 332502200 523443800 412480900 334093200 515048200 370991900
984.49 361189800 460805700 365837800 357863000 398146500 362843200
990.27 338877400 349321900 371087100 279411400 343492500 330330500
996.06 243694200 345421400 263969400 248043700 308548800 210014800
1001.85 260490000 239843800 201163900 232215400 191417200 183606500
1007.63 191138400 154597800 162568000 150359200 129038700 137695200
1013.42 122740100 109829200 122939300 97230940 104926200 93658530
1019.20 88750290 85507520 76896770 74059220 67982580 62941580
1024.99 59303160 50701570 52529140 41309160 43254470 34515420
1030.77 34412860 29275700 27245970 23875580 22302140 18888570
1036.56 18112240 15172020 14980720 12272740 12172410 9825602
1042.34 10537750 7897042 9281556 6709312 8026652 5583212
1048.13 7107550 5161958 6516762 5100656 6212586 4370958
1053.91 6659744 4574922 6475360 5132794 6146388 4919486
1059.70 6437202 3982496 6329938 4218870 5464642 4999760
1065.48 6061464 5342166 8713390 6694254 10057740 10819630
1071.27 13185680 14018470 19758070 19914540 25892610 29458490
1077.06 34126630 38130270 45063470 47246550 53147890 55011780
1082.84 57931370 58463790 59220370 55467310 52770090 45847590
1088.63 39654200 28841450 23345060 19623540 46589740 36661700
1094.41 40449120 36652570 34331280 32533320 33647460 34716260
1100.20 36839870 37046130 38997050 37160360 36030440 33942800
1105.98 32283990 27295920 25863010 22113020 19218300 15586220
1111.77 14805450 10523440 9639372 7716698 6982964 4343168
1117.55 5239012 3036634 3421346 2222794 3289224 1287764
1123.34 2504546 1418926 1997710 790830 2247182 936200
1129.12 1778086 830186 1827402 557648 1694218 456970
1134.91 1603742 152570 1346708 276780 1356432 278526
1140.70 1343446 25920 1273234-29802 1125286-86654
1146.48 1067618-192946 1013964 16608 994450-120350
1152.27 1046740 115920 981602 65556 934142 52714
1158.05 1228904 261746 1305516 138174 1220552 96900
1163.84 1502996 117648 1405892 338916 1570138 272468
1169.62 1435510 510170 1573350 396886 1498880 529742
1175.41 1306018 297846 1616858 315482 1491158 266786
1181.19 1400266 486260 1052560 489758 1653454 111464
1186.98 1504898 553824 1384846 749912 1601500 463602
1192.76 1722562 735560 1525744 621600 1627100 729580
1198.55 1705772 649298 2164954 845688 2782138 3444648
1204.34 2524716 1120884 1828286 1500644 2350802 783528
1210.12 1525664 759610 1997762 452772 1830674 775108
1215.91 1533850 510910 1888668 433216 1539070 955792
1221.69 1691416 289670 1848924 903388 1269412 435848
1227.48 1886762 639052 1375688 856498 1774764 421676
1233.26 1355500 704860 1324808 193510 1554248 432846
1239.05 1423952 188966 1463902 199468 1293422 337140
1244.83 1286064 310562 1161192 288040 1259364 163488
1250.62 1356068 611366 1385478 820604 1761296 742408
1256.40 2163116 1546584 2898902 2781606 3649774 3436384
1262.19 5468894 5124688 6950910 7150886 8888506 8910004
1267.98 10817820 10495170 12460060 11787930 12802010 11993030
1273.76 12207560 10637650 10604600 9056036 9285304 6975896
1279.55 6202466 7687658 12360820 12540980 13096260 12319920
1285.33 13970890 13899490 15563170 15345690 16341150 15369700
1291.12 16472250 14575360 14634570 13602380 14513780 11111380
1296.90 10923220 9100496 8773014 7793612 8015786 7007038
1302.69 8103926 7389468 8198266 7538898 8897598 8862002
1308.47 10050940 9558720 11363550 11079860 12173310 11557400
1314.26 12703010 11589260 12330830 10959610 11630770 9863872
1320.04 10406610 9736170 11408900 9018482 8800186 8885930
1325.83 9150162 8787468 10318970 10328200 11775880 10989740
1331.61 13378700 11688540 14423660 11864460 15263360 12333660
1337.40 14308850 13912310 13108170 14491870 11625380 13653610
1343.19 13448410 11673630 15771100 12271090 14041390 15617660
1348.97 13439970 15580480 15525410 13708900 15930980 13694450
1354.76 14591690 12765380 13057250 11836410 11061370 11561050
1360.54 12906940 12047080 15955140 13383720 15641080 17798390
1366.33 17188560 18387740 22607670 18574680 19787470 25325090
1372.11 22395240 21812230 27752700 22019260 23984550 26493280
1377.90 22184680 27518950 28106340 18703000 30609030 31667530
1383.68 18154240 31549030 38872020 23479090 34270440 42817050
1389.47 26502610 38520580 54055720 34454490 51172920 67682830
1395.25 49029370 60823100 86784960 71224120 77363460 103941800
1401.04 91524060 93094660 116601600 105661500 104447500 106031300
1406.83 100363300 90400750 78620020 71689770 53417390 46323580
1412.61 46085350 135225800 63463970 47384020 61546910 74545680
1418.40 91130600 96439860 103790300 109398700 102495300 109720800
1424.18 111960800 87469400 95463500 92544480 69737770 73900400
1429.97 76728610 46371410 46132640 52550420 36322380 36850780
1435.75 56934240 35077480 33007340 42609850 33955220 30574120
1441.54 38431500 30445970 26646000 30505260 26246940 22668790
1447.32 27141440 19550520 18573810 17957610 18050160 13706160
1453.11 15872320 13015090 16869800 24399100 13738880 12732990
1458.89 10715700 9216462 8589038 8496686 8221062 10731270
1464.68 9390476 5720842 6528460 5475788 6318056 3071292
1470.47 9387568 7873126 9394256 5482912 2947022 6755716
1476.25 3159152 2514212 2818602 1991628 3180502 1888846
1482.04 1996956 1429274 1869202 1098736 3300126 2817800
1487.82 1409406 3897888 3760270 1581980 400708 1147200
1493.61 106572 3552710 8620586-1057518 4308158 2320998
1499.39 248476 1166786 603042 1046350-374278 7337684
1505.18 9549524 10300680 4089064 1564706 2607558-329480
1510.96 3117574 1492516 122374 1888108 1169998 3708768
1516.75 4112080 245588 1805546 6860964 9733418 2645880
1522.53 2856896-372100 6491360 165400 2871846 743104
1528.32 1998696-713934 2132854 8770 4583030 4359768
1534.11 791576 784920 1064662 1681462 13239370 10663070
1539.89 5292144 6775482 6740410-332274 5680622 2816330
1545.68 1623162 803580 2114092 2399318 3985612 552508
1551.46 2780494 1455764 9874036 1255100 3449638 4859988
1557.25 16962160 8927562 16486670 4246376 2851406 2893908
1563.03 3592718 4733732 4198666 2900010 4605882 4971796
1568.82 10406980 3910702 6336342 3202846 7253002 4021750
1574.60 12958080 17339920 6227222 7089456 6503630 9663736
1580.39 6977210 7561974 11181500 8582960 8280388 12970870
1586.17 11484860 9061586 15475560 15356820 13162980 19450260
1591.96 23539410 18951960 26227080 32539280 30891200 35298930
1597.74 45947470 43813960 48045130 56687620 58284230 56966200
1603.53 65046840 62809100 62297660 60467390 57872120 53521100
1609.32 47944810 40568520 40372700 32076870 67303260 66568710
1615.10 31187010 39892790 34650090 48540760 57817840 65030400
1620.89 69639440 75546310 77221100 71891910 72950430 65601410
1626.67 66031950 61039600 51980000 51424740 47169180 40161750
1632.46 41414800 38207750 45631650 41704550 38143840 35605110
1638.24 37823970 39693060 36589970 40531230 40619230 37478880
1644.03 38479160 45546280 35075160 33757000 28977130 24027580
1649.81 23092890 23362140 47841950 44641590 29462440 26427460
1655.60 29771180 28369310 31418710 34201520 32914070 32414340
1661.38 35928930 36372810 28035060 29308350 28361860 24982740
1667.17 21047770 30217770 20278920 17073280 18886140 15257000
1672.96 10431470 18451590 17122780 7207156 9942078 9977174
1678.74 8119148 8033400 7903456 9381542 8424564 21369280
1684.53 14461370 1517726 7998372 5106516 5972698 3995350
1690.31 6585482 2381574 5214186 2553128 9729444 18112620
1696.10 2799242 4642228 2467814 16832680 11380110 1630128
1701.88 2508916 3235442 4200576 2380480 5062982 572892
1707.67 2179462 1180946 2595932 264278 2140352 970276
1713.45 3669128 4210140 1386324 11842660 6364018 2269574
1719.24 1191302 536798 1194960 1000544 1708082 172504
1725.02 1383794 336034 1306492 378526 2627724 1152224
1730.81 560070 3466698 9963388 8540098 2663386-386452
1736.60 2221276-459556 5675840 2864720 655192 1186840
1742.38 2651830 1015346 1698230 1115656 2460128 1733922
1748.17 3685738-141120 7369852 2950860 457386 684094
1753.95 688478 596760 3102190 449834 539328 310522
1759.74 472606 3842968 1679570-461008 784688-206886
1765.52 596180 629838 4479302-1433222 2084922 1039974
1771.31 6506932 4838926-688184 1351320 1401204 474806
1777.09 724656 171758 908704 1264096-28874 277532
1782.88-44310 1703540 546080-200618 268142 29304
1788.66 276280 1386114 930808 4826774 2166448-959196
1794.45 1236200-202076 695292-779800 1968768 536664
1800.24 882056 707830 689944-382812 576232-297148
1806.02 547120-24990 398332 23116 1557594-116464
1811.81 870780-305804 778734-281186 924786 224114
1817.59 1099108 305486 1337024 387198 1759576 682650
1823.38 2075268 3570316 2329504 1712820 2761526 3171254
1829.16 5967016 2541330 3459774 2679390 3574768 2414664
1834.95 3275126 2530236 3326464 1393602 2669974 1086936
1840.73 3337288 1355568 5204240 6384332 1969840 2834874
1846.52 3503650 3463522 3707042 4051094 4275886 3651716
1852.30 4052350 3525538 3843820 3348508 3881634 3299560
1858.09 3447206 2816254 3777054 2788242 3584218 3614182
1863.88 4227770 3200256 4383710 4753658 6356832 6236350
1869.66 5590886 5829158 5424988 5872822 8055292 7084056
1875.45 7820934 9504418 11223920 9928948 12887990 15379780
1881.23 15976870 16661920 22358750 23973970 24698540 29808640
1887.02 35527040 36111400 41308100 47520980 50911420 51839860
1892.80 60705660 64751760 65470720 69591790 75261420 73328180
1898.59 73560710 69918600 70882800 68144570 66745300 64674680
1904.37 63923120 62681710 62308240 42262440 34980040 46570020
1910.16 58748580 72400180 77795500 82717880 88201190 88918020
1915.94 83033330 88586980 81926080 71447820 72563540 63359280
1921.73 58209070 54509180 46750120 43294020 39252000 31471450
1927.51 33259560 26755990 23146400 23978960 17992420 18612780
1933.30 17930930 13556680 15222410 12177780 15037390 16136820
1939.09 15702420 17559880 17189180 18228330 16220260 15829180
1944.87 17207950 13401440 14887230 13433110 11203500 11938170
1950.66 11198760 8370380 10494610 7361474 7557552 7662936
1956.44 6725038 5954678 6461958 4814062 5792120 4722116
1962.23 5201608 5003294 4341692 4247866 4863428 3681650
1968.01 4636406 3154950 3812204 2626120 3380532 2704256
1973.80 2973540 2758666 2786252 2467416 2622076 2066528
1979.58 2446914 1764764 2189182 1604762 2235796 1259508
1985.37 1806228 1290552 1832514 1014848 1371474 883244
1991.15 1993174 755068 1104412 508958 968046 334048
1996.94 1263310 497948 1010120 273672 933126 419308
2002.73 741144 288920 705512 121572 812362 228766
2008.51 714212 8924 451672 82776 656008-114800
2014.30 426960 238958 895564 117572 741042-83090
2020.08 690894-64240 718378 65182 473606-68242
2025.87 451580-119612 576066-188446 501392-135790
2031.65 636832 16444 549118-95604 506208 77674
2037.44 632326 33004 612364 144082 573822-9466
2043.22 574096-6170 774442 957226 1157390-235084
2049.01 779972-126592 728862 24610 746410 89024
2054.79 816330 23648 763548 107206 669874 312426
2060.58 901732 558092 1937882 642910 1092878 215918
2066.37 846690 79188 672174 57184 720450-105226
2072.15 601920 170522 395242-26284 794904-86930
2077.94 695004 170412 607512 71806 938650-14424
2083.72 531694 246764 757226-120288 841502 96778
2089.51 619924 55272 647458-48508 753518 120716
2095.29 579410 51036 592490-11578 693432-102140
2101.08 530006 10134 479594-187514 597840-196124
2106.86 431036-144934 423800-163790 331996-241410
2112.65 422956-263114 454880-320226 246060-309766
2118.43 427956-222922 310134-408624 282376-263438
2124.22 482266-403238 358362-203996 319416-393032
2130.01 277052-294694 219074-308938 421988-185978
2135.79 352568-332428 419184-90554 530110-129040
2141.58 504712-68946 511978-128472 564860-54928
2147.36 435422-92280 399986-18398 523546 111290
2153.15 593848-32104 611722 25124 526478 55274
2158.93 594292 9828 592446 22828 605056-117030
2164.72 629894 64690 528092 79734 557966-100330
2170.50 528692 103942 642342-22548 670772 36886
2176.29 614314 71704 812634 166340 791488 122200
2182.07 634006 243196 588858 68696 536328-64934
2187.86 669054 2564 561722 129804 798704 130844
2193.64 571394 183422 634690 116978 602956 224598
2199.43 786062 46846 771680 293742 813424 354720
2205.22 985890 399026 1028630 828238 1365628 952156
2211.00 1954930 1447322 2200568 2403238 3106172 2907134
2216.79 4052310 4099672 5144610 5424584 6674214 6862170
2222.57 8110184 8437036 9242324 9467176 10678860 10293330
2228.36 10905820 10785350 10903060 10116490 10359340 9867736
2234.14 8463636 8443610 9426730 8276306 5765380 9782018
2239.93 15017220 5502688 8363560 8210804 11015470 11194070
2245.71 12905470 12294870 13301890 11664120 12226840 10452540
2251.50 9848086 8024980 7729476 5579898 5679376 4176308
2257.28 4043580 3079398 3809390 2605104 3665182 3058932
2263.07 3613494 3168940 4536068 3851672 4989554 4600868
2268.86 5438806 5079210 5777118 5226956 5885072 4796054
2274.64 5376762 4036560 4308408 2870740 5129122 7413452
2280.43 3260848 3934534 4304658 3732094 5042284 5046384
2286.21 6185730 6262502 7038434 6928688 7509754 7058596
2292.00 6962320 5714050 5493964 4574794 4628328 3372726
2297.78 4087132 2566788 2489500 1658078 2340434 1558640
2303.57 2184702 1562144 2445386 1663488 2433468 1777846
2309.35 2399246 1891386 2173566 1499180 1907520 1568240
2315.14 1743034 1255898 1534404 938526 1138668 749416
2320.92 1184746 675210 882590 518412 980264 581316
2326.71 1045724 706856 1063966 656952 1121486 572056
2332.50 1386702 852978 1137484 649190 1170416 736304
2338.28 1098908 628292 1164680 561160 1221744 648696
2344.07 1147202 633938 985996 551074 833602 321204
2349.85 1504170 470760 1468632 1135978 1451152 1154916
2355.64 1998018 1176086 2102116 1636580 2117868 1736190
2361.42 2356610 1783858 2790984 1949342 2626010 2063998
2367.21 2538478 2022526 2651858 1917352 2328176 1675840
2372.99 2359244 2019254 2672058 2405352 3098066 2703838
2378.78 3281072 2886116 3456326 2720222 3087274 2366454
2384.56 2601264 1824024 2837266 2282882 2782518 2121824
2390.35 2766172 1984466 2642658 2037066 2789298 1986742
2396.14 2618710 2184474 2438326 1887340 2587644 1832810
2401.92 2236450 1541044 2238778 1415554 1989478 1189012
2407.71 1706202 982564 1644382 987664 1447292 839678
2413.49 1346318 622178 1334586 773930 1338372 556130
2419.28 1049672 575296 1381818 681270 1296808 869708
2425.06 1167438 712556 1413154 820894 1365762 776502
2430.85 1432010 802614 1409478 787568 1481962 962132
2436.63 1516786 840846 1677702 949622 1734748 1232340
2442.42 1922682 1190710 1928510 1665490 2257272 1641506
2448.20 2546320 1983140 2516772 2120206 2946150 2300368
2453.99 2827916 2513440 2708812 2164760 2734094 2072814
2459.77 2586084 1838314 2472932 1935520 2405564 1897308
2465.56 2654144 2131202 3189474 2723558 3668860 3478810
2471.35 3996278 3256644 4370754 3135836 4111796 3480680
2477.13 2993866 3376456 3104826 2400614 3578372 1940002
2482.92 3021502 2408516 2567664 2536336 2824364 2018702
2488.70 2753500 1824910 2470814 1670368 2267406 1765718
2494.49 2031596 1628060 1977200 1130276 1957454 1154750
2500.27 1599436 1035192 1577796 797312 1458528 896774
2506.06 1435158 735512 1354910 700196 1363130 682160
2511.84 1294750 751688 1294920 652330 1277242 529946
2517.63 1252756 663350 1147594 671816 1249244 497568
2523.41 1304066 570108 1350220 707482 1274930 678290
2529.20 1274536 805250 1424300 621136 1406264 724288
2534.99 1179926 901244 1416774 970938 1598188 966096
2540.77 1611844 846816 1539840 1110834 1799868 895126
2546.56 1848924 1209512 1152124 1270946 1724846 573558
2552.34 2137002 786360 1344376 1254852 1788044 1010280
2558.13 1846424 972468 1483826 1466354 2392882 1633478
2563.91 1886702 1253358 1766938 1689734 4536498 2623828
2569.70 1586998 1079608 1290410 549080 1271446 793248
2575.48 968696 735618 1161580 605482 1623572 548756
2581.27 1010712 901100 1299660 373494 1180062 564364
2587.05 1089082 536830 1252934 639268 1092490 529710
2592.84 1136688 324322 891264 234008 874886 248038
2598.63 935112 396958 657308 177634 726698-85838
2604.41 612972 61710 665940-42318 510744 63978
2610.20 450228-88380 456104 48970 585742 72898
2615.98 511704-219046 309384-289498 469728-387274
2621.77 261966-301188 307386-352230 134976-287644
2627.55 194540-331480 293574-221896 190800-342804
2633.34 275952-358912 174728-471090 187136-374754
2639.12 220182-483252 100464-431216 445060-313930
2644.91 168980-244612 240312-440862 136208-371202
2650.69 230734-234332 280790-375456 196330-118928
2656.48 412830-297848 383794-438966 380008-146108
2662.27 444364-78726 387900-330746 563682 49962
2668.05 452996 99356 458880-54844 636368 3214
2673.84 771412 99924 570418 188860 1009388 563022
2679.62 1068408 857576 1302854 706712 1554148 1066442
2685.41 1453436 1362544 2071264 1381314 2258048 1501554
2691.19 2530538 1734284 2677180 2169108 2607480 2132142
2696.98 2766498 2061186 2415842 2527068 2911646 2179838
2702.76 2570170 1663090 2283000 1804886 2408454 3529256
2708.55 2946072 1975176 2634164 2252256 2996900 2789004
2714.33 3000428 2519800 3127470 2245658 2808114 2171378
2720.12 2358136 1810928 2249064 1299216 1774464 1313854
2725.91 1499320 694406 1373704 530070 1172222 390070
2731.69 885860 326872 885168 412864 809126 189826
2737.48 739458 281112 857516 445100 841194 236274
2743.26 874428 147226 636876 71972 694734-80
2749.05 540946 6550 567490-134930 350528-144036
2754.83 420144-35428 384014-130548 407466-40906
2760.62 458758-46094 505184 107624 468204-82640
2766.40 710234 202950 676972 246050 841662-31396
2772.19 1030760 491360 927242 260564 1063308 273206
2777.97 1005328 724328 1197312 307018 1296368 815614
2783.76 980828 679176 1618250 441574 789804 313018
2789.54 1174784 363444 680040 179064 565934 37868
2795.33 900046 207422 710750 322632 634608 215296
2801.12 1294242 850388 1176680 808024 1134284 617808
2806.90 1070808 501058 1004932 336320 504932 177684
2812.69 558610-295768 384948 59398 414758-162216
2818.47 425338-171358 516616 109182 223404-21734
2824.26 506344-275114 427658-722098-306204-166460
2830.04 321696-61024 261750-230394 184468-445558
2835.83-10988-742640-42294-687968-207310-741294
2841.61-402112-800444-406220-785244-300832-658274
2847.40-493908-830570-349724-733982-197384-705854
2853.18-243908-834812-144804-616410-287906-662612
2858.97-184408-956970 106704-183140 106492-351846
2864.76-13932-379890-40702-7302 226392-187022
2870.54 537592-350854 270052-23502 653654 492972
2876.33 721726 128958 699574 294432 670042 515428
2882.11 817638 252494 856278 421496 1154912 1268474
2887.90 1358604 930394 1309516 849978 1651334 691176
2893.68 1416886 883034 1020192 730412 1376784 627448
2899.47 1941238 657476 844900 910606 1539956 360106
2905.25 1402392 917858 1292370 824110 1378024 389538
2911.04 1264456 732530 1174456 820514 1243436 1121372
2916.82 1100624 1248102 1812772 424790 825920 242514
2922.61 792740 173064 626200-126704 463510 104556
2928.40 416848-12110 688650-40772 841686 28570
2934.18 475226-38174 570494 70522 772202 99828
2939.97 592920 77570 433680-275398 644526-246846
2945.75 294838-35658 280354-106660 482292-195106
2951.54 402378-181906 427684-321172 137520-114202
2957.32 243312-49222 365520-243380 442118-123972
2963.11 513656-187558 333066-107960 465222 184912
2968.89 457194 302480 629896-71678 693032 163268
2974.68 603176 269528 672004 255506 1095356 506552
2980.46 1121852 1207636 1240372 1323002 1801652 1031550
2986.25 2036452 1635774 1928778 1513642 1872022 1271754
2992.04 1462366 1235734 1581202 890092 1786774 1346280
2997.82 1743162 773280 1449450 1251934 2066278 1847882
3003.61 2395220 2426178 2953758 2364490 3261314 2846338
3009.39 2679242 2651922 3490220 2159160 3171822 3617344
3015.18 3890618 3939162 5230740 5436006 6440038 7558242
3020.96 9024494 10119120 12045140 13538710 15805430 17690720
3026.75 19868810 21784410 24032090 26122530 27535770 29086320
3032.53 30250650 30260040 30010810 28961870 26311260 25652260
3038.32 24118000 23352130 21018810 35348020 45826590 21532990
3044.10 20367670 18712200 24094840 26417180 29545460 33443280
3049.89 35671420 34007020 34798540 33192140 33326890 31252180
3055.67 30522140 27021320 25508690 22343670 20433910 16888000
3061.46 16136430 13354210 11723390 9423808 9278706 7318344
3067.25 7253740 6493916 6755624 5693628 6011208 5324266
3073.03 5485628 4727150 5391550 4000070 4679848 4729226
3078.82 5270172 4286256 4691368 4097302 5716130 5503646
3084.60 6145606 6886958 7534418 6626684 8819096 8630836
3090.39 8168814 9634274 10685340 8026916 12057210 11781050
3096.17 9788844 12145620 14087550 10379290 14285470 16858740
3101.96 13650320 16065970 21982490 19887920 24499200 28113540
3107.74 27465690 29448070 38405260 39107570 39849220 46247610
3113.53 45180260 43824630 44200280 40891280 36543470 31164530
3119.31 26571790 23525310 21567010 41001580 48569670 9028704
3125.10 15485130 18120970 28702690 32113630 39536240 41889430
3130.89 45729760 44118980 44704350 44963220 39602770 36417090
3136.67 38247990 28063220 27140680 27137620 19559750 16168360
3142.46 19215110 12113890 11055270 13442600 9046616 6212840
3148.24 10747990 6005236 5680804 8164394 6553266 4415484
3154.03 7798448 4530720 5004286 6323290 4529402 3979892
3159.81 5824632 3362168 4618190 4214452 3085304 3465840
3165.60 3737794 2164642 3584532 2289034 2394658 2455798
3171.38 2372560 1377804 2675116 1134498 1949842 1433104
3177.17 1820296 1348448 1523844 879424 1202598 566332
3182.95 1318172 75836 797802 347222 601350 272342
3188.74 487728-345742 486342-144926 239916-530402
3194.53 256836-404848 43798-565206 102058-263334
3200.31 38414-778576-81042-718552 4280-546856
3206.10-198696-668900-106020-624738-262582-806678
3211.88 434-777572-33028-625202-55860-800306
3217.67-204264-399984 77954-819392 214312-713762
3223.45-120816-446256 200398-841370-464110-804748
3229.24 4718 110356 279136-515908 115182-610656
3235.02 229034-641320-80890-748684-441382-899372
3240.81-188580-577286-313872-893010-220234-1025998
3246.59-524664-1079528-119862-920654-430066-766816
3252.38-218154-889350-374954-927752-277890-808498
3258.17 54584-715666 85004-825366-61020-440322
3263.95 103292-700866-320944-908576-99058-680444
3269.74-192356-466270-96508-726770-187278-761610
3275.52-30686-838486-19796-614194 133240-662578
3281.31-202742-811426 125808-465406 196950-626522
3287.09-51914-707344 65454-657214-147822-561068
3292.88 62908-673826 53984-267884 218076-352456
3298.66 423476-377714 184778-226938 90868-636348
3304.45 6782-607210 297556-241854 474980-239948
3310.23 507278 163424 584396 231774 855910 430288
3316.02 1215522 709580 1400968 828068 1696730 691892
3321.80 1487124 862660 1626220 633704 1485082 900880
3327.59 991588 814674 715998 175186 1556166 1440994
3333.38 1561434 724938 1648176 1374250 1886818 1861758
3339.16 2509010 1995504 2576458 1877906 2336550 1362030
3344.95 2076902 1268204 1414182 355160 919598 314288
3350.73 960380 293226 449036-23970 542856 13902
3356.52 674950 385232 1228458 256482 1112520 596344
3362.30 885254 208550 928516 3488 511730 22920
3368.09 199300-140342 619644-53270 285160 23824
3373.87 366288-385892 498250-469584 387260-529070
3379.66 91096-37856 233056-338486 51254-416574
3385.44 97236-535192-212428-752410 34492-980932
3391.23 219894 38944-87126-307224-20568-662440
3397.02 2926-839230-286018-686878 208538-324670
3402.80 116006-625228-64078-716650-532456-580554
3408.59 412754-782270-100870-611496 370836-772550
3414.37 207852-752418 75082-603960 231464-428266
3420.16 302470-329782 90438-318106 104590-509556
3425.94 61894-489776 251542-394130-8416-228850
3431.73 326018-464646-37570-313760 217784-768966
3437.51 507614-303880 95886-534408 368046-8098
3443.30 83922-499732 9708 160428-54870-290482
3449.08 413506-301404 303180-126248 236572 86356
3454.87 537550 82838 599504-318016 154358-251842
3460.66 382386-180652 345040-490700 137128-627424
3466.44 364144-596098 277706 40188 335022-270008
3472.23 64692-383910 209564 77528 283830-218458
3478.01 181902-257528 136302-254754 524074 142160
3483.80 235774-197470 308712-174260 109220-161574
3489.58 382834-79630 141824-210616 835708 198332
3495.37 667742-108568 685758 64964 544660 76012
3501.15 615780 647024 1307974 56700 353022-102120
3506.94 479536 307120 1003360 101168 698926-180232
3512.72 1245786 477870 836110 700792 1190586 724950
3518.51 1125018 210924 1170486 385182 1197380 432492
3524.30 1125298 584636 1311170 534942 888574 76036
3530.08 868128-65928 913604 621520 344842 164180
3535.87 1120024 87850 720566 38286 1001938 48036
3541.65 1149420 414408 1129600 619872 1128020 695042
3547.44 726612 146832 387818-57332 1154824-97806
3553.22 536008-527982 673612-425134 510288-593216
3559.01 855760-227198 372658-9610 994644-310112
3564.79 1965208 1148950 2357034 1452940 212100 553334
3570.58 180914 28088 444068 124454 161492-163710
3576.36 648872-489068 589134 261308 150278 151438
3582.15 656928 169828 91464 1534048 2405076 593518
3587.94 3912642-510250 1014800-745084 1764864 277880
3593.72 1059042 1003074 842068 266356 1127206 124066
3599.51 1490152 297020 717930 155406 927204-50336
3605.29 1164340 1640006 600130 4494558 2036364-552602
3611.08 3228214 2517548 867326 1844770 757964 909638
3616.86 2701882 1390172 5452950 323366 1653692-10990
3622.65 1578228-208998 2210046 368750 2644870 6081356
3628.43 8356990 2949522 1144716 1236544 2251414 2109344
3634.22 1402690 1404714 1644018 1663482 1683152 1265584
3640.00 1751898 1606374 2310070 807788 2561522 833448
3645.79 5145566 3233648 6110490 8248448 4112180 5791210
3651.57 1074780 2394426 1107242 3325710 7384794 2158316
3657.36 2018248 1924618 2186928 1886586 1822558 1369390
3663.15 1732322 977744 1865858 424664 2256282 4220284
3668.93 3244610 11183900 933786 1400804 1868840 5708302
3674.72 10192310 5617996-114322 1986350 1664052 1329266
3680.50-245278 1162690-215172 1089288-613434 1120568
3686.29-875306 11150330 4708926-801478 5153526 936832
3692.07 486390 451040 464114 274440 442148 166510
3697.86 397244 123084 173912 3107598 892724 21746
3703.64 296384-10622 304554-30936 418534 3387278
3709.43 290054 1899282 8000214-525818 780948 1720
3715.21 154230-305136 578304 741576 209644-330638
3721.00 1982560 812200-218394 917792 774100 2266830
3726.79-150452-105740 148034-565080 3344232 5718280
3732.57-2027670 4618998 1713012 5828164 2138372 839252
3738.36 146398 235222 899624 1146990-946362 13426320
3744.14 13055090-2891796 2756042-1871338 8902190 8490378
3749.93-2933804 10949710 6684922-1717052 1031494-432910
3755.71 2404510-478420 376440 2231226 1367442-850172
3761.50 287438-135198-106238 1142330 1631682-878032
3767.28 271992 762946 4068530-1104898 437208-1020610
3773.07 386262-864524 392098-445990 159934 83114
3778.85 2661330-1270328 566606-871082 344788-165672
3784.64 623420-812980 102994-733362 295468-977938
3790.43 598852-1066014 370930-884956 465970 1537398
3796.21 2275120-1294698 1613040-2021982 9588434 6148306
3802.00-264320 520952-67090 74148 6864816 2687268
3807.78-1213256 571934-829730 754548-769160 1145412
3813.57-1496560 6382434 9811392-1763364 2003636-462196
3819.35 3815070 5900274 3710340-740900 1668552-198452
3825.14 2022112 1768696 1018680 578622 755068 1538364
3830.92 4740460 692192 2068750 3814298 3818306-328242
3836.71 14032420 5016344 1560404 4114070 3305454 1356886
3842.49 4000494 2337160 960150 1332930 1474410 1227004
3848.28 1970654 2004998 2433508 12038050 1993350 20353700
3854.07 7122742 331448 4294730 2083540 2855538 1654600
3859.85 2424002 3608428 2420374 686738 4956688 3651628
3865.64-204558 1232522 477626 6013804 6307976-339992
3871.42 810600 261388 3450942 17548 592360-286454
3877.21 859694 38014 3581320 2059372 283870 886602
3882.99 402718 1507246 7131410 273680 828030 543518
3888.78 159314 2253524 5068476-671858 1955442 28772
3894.56 1551228 171922 1510288 576038 5515310 147910
3900.35 3928690 3962078 1156694 5618182 1830874 1512100
3906.13 1218858 974734 1562336 503654 1010984 405358
3911.92 802732 572460 989906 854304 2338174 2159382
3917.70 988648 2027542 2229606 601330 1358556 1122296
3923.49 1992808 1617610 1078068 362398 1128688 696340
3929.28 1330744 89598 1918876 819840 988552 292754
3935.06 447800-5918 1085656 41116 596510 259782
3940.85 595904 1110070 766100 347990 642016 64220
3946.63 1224968 130394 1271652 594236 456880 462048
3952.42 441770 427296 683626 323476 767222 199694
3958.20 737804 338754 974484 775890 595778 129560
3963.99 821128 309812 727654 702046 1152118 803632
3969.77 1102654 782712 1350706 767284 1461774
##END=
