##TITLE=1,2-DICHLOROETHANE
##JCAMP-DX=4.24
##DATA TYPE=INFRARED SPECTRUM
##CLASS=COBLENTZ
##ORIGIN=W.T. BOLLETER
##OWNER=COBLENTZ SOCIETY
Collection (C) 2018 copyright by the U.S. Secretary of Commerce
on behalf of the United States of America. All rights reserved.
##DATE=Not specified, most likely prior to 1970
##CAS REGISTRY NO=107-06-2
##MOLFORM=C2 H4 Cl2
##SOURCE REFERENCE=COBLENTZ NO. 4473
##$NIST SOURCE=COBLENTZ
##$NIST IMAGE=cob4473
##SPECTROMETER/DATA SYSTEM=Not specified, most likely a prism, grating, or hybrid spectrometer.
##PATH LENGTH=0.0025 CM
##SAMPLING PROCEDURE=TRANSMISSION
##RESOLUTION=4
##DATA PROCESSING=DIGITIZED BY NIST FROM HARD COPY
##XUNITS=MICROMETERS
##YUNITS=TRANSMITTANCE
##XFACTOR=1.000000
##YFACTOR=1
##DELTAX=000.017493
##FIRSTX=14.542
##LASTX=38.0005
##FIRSTY=0.005
##MAXX=38.0005
##MINX=14.542
##MAXY=1
##MINY=0.005
##NPOINTS=1342
##XYDATA=(X++(Y..Y))
14.542000 0.0050 0.0050 0.0050 0.0050 0.0050
14.629529 0.0050 0.0050 0.0070 0.0070 0.0070
14.717000 0.0070 0.0070 0.0070 0.0070 0.0070
14.804529 0.0070 0.0070 0.0070 0.0070 0.0070
14.892000 0.0070 0.0070 0.0070 0.0070 0.0070
14.979529 0.0070 0.0070 0.0070 0.0070 0.0070
15.067000 0.0070 0.0070 0.0080 0.0080 0.0080
15.154529 0.0080 0.0080 0.0080 0.0080 0.0080
15.242000 0.0080 0.0080 0.0080 0.0100 0.0100
15.329529 0.0100 0.0100 0.0100 0.0100 0.0120
15.417000 0.0120 0.0140 0.0170 0.0260 0.0310
15.504529 0.0370 0.0510 0.0650 0.0880 0.0990
15.592000 0.1060 0.1400 0.1590 0.1900 0.2140
15.679529 0.2390 0.2610 0.2820 0.3030 0.3230
15.767000 0.3440 0.3650 0.3800 0.4010 0.4220
15.854529 0.4420 0.4520 0.4680 0.4830 0.4970
15.942000 0.5040 0.5180 0.5320 0.5470 0.5610
16.029529 0.5750 0.5930 0.6050 0.6140 0.6260
16.117000 0.6370 0.6460 0.6500 0.6510 0.6600
16.204529 0.6660 0.6740 0.6800 0.6830 0.6890
16.292000 0.6960 0.6990 0.7030 0.7080 0.7100
16.379529 0.7140 0.7150 0.7170 0.7170 0.7190
16.466000 0.7210 0.7210 0.7220 0.7220 0.7210
16.553529 0.7210 0.7190 0.7140 0.7120 0.7120
16.641000 0.7100 0.7100 0.7100 0.7120 0.7120
16.728529 0.7140 0.7150 0.7190 0.7240 0.7310
16.816000 0.7370 0.7470 0.7530 0.7650 0.7760
16.903529 0.7810 0.7860 0.7990 0.8020 0.8090
16.991000 0.8200 0.8270 0.8330 0.8380 0.8410
17.078529 0.8450 0.8470 0.8500 0.8520 0.8540
17.166000 0.8560 0.8570 0.8590 0.8610 0.8610
17.253529 0.8610 0.8610 0.8610 0.8610 0.8610
17.341000 0.8630 0.8630 0.8630 0.8630 0.8630
17.428529 0.8610 0.8610 0.8590 0.8570 0.8560
17.516000 0.8520 0.8490 0.8470 0.8410 0.8360
17.603529 0.8330 0.8240 0.8170 0.8090 0.8010
17.691000 0.7950 0.7850 0.7770 0.7700 0.7630
17.778529 0.7600 0.7560 0.7540 0.7540 0.7560
17.866000 0.7580 0.7630 0.7650 0.7740 0.7830
17.953529 0.7880 0.7950 0.7990 0.8040 0.8080
18.041000 0.8130 0.8170 0.8180 0.8200 0.8240
18.128529 0.8240 0.8270 0.8270 0.8290 0.8310
18.216000 0.8310 0.8310 0.8330 0.8330 0.8330
18.303529 0.8330 0.8330 0.8330 0.8330 0.8330
18.391000 0.8310 0.8310 0.8310 0.8310 0.8310
18.478529 0.8310 0.8290 0.8290 0.8270 0.8270
18.566000 0.8240 0.8240 0.8220 0.8220 0.8200
18.653529 0.8200 0.8200 0.8180 0.8180 0.8150
18.741000 0.8130 0.8110 0.8110 0.8110 0.8110
18.828529 0.8110 0.8110 0.8110 0.8130 0.8130
18.915000 0.8130 0.8150 0.8170 0.8180 0.8200
19.002529 0.8250 0.8290 0.8330 0.8360 0.8400
19.090000 0.8450 0.8490 0.8500 0.8520 0.8560
19.177529 0.8560 0.8570 0.8590 0.8610 0.8610
19.265000 0.8630 0.8630 0.8660 0.8680 0.8680
19.352529 0.8700 0.8700 0.8700 0.8680 0.8660
19.440000 0.8660 0.8650 0.8630 0.8610 0.8570
19.527529 0.8520 0.8500 0.8490 0.8470 0.8410
19.615000 0.8400 0.8360 0.8330 0.8310 0.8310
19.702529 0.8290 0.8290 0.8290 0.8290 0.8310
19.790000 0.8310 0.8330 0.8360 0.8380 0.8410
19.877529 0.8450 0.8470 0.8500 0.8540 0.8560
19.965000 0.8570 0.8590 0.8610 0.8630 0.8650
20.052529 0.8660 0.8660 0.8700 0.8700 0.8720
20.140000 0.8720 0.8750 0.8750 0.8770 0.8770
20.227529 0.8790 0.8790 0.8790 0.8790 0.8790
20.315000 0.8790 0.8790 0.8790 0.8790 0.8790
20.402529 0.8770 0.8770 0.8770 0.8770 0.8750
20.490000 0.8750 0.8750 0.8750 0.8730 0.8730
20.577529 0.8720 0.8720 0.8700 0.8700 0.8700
20.665000 0.8700 0.8680 0.8680 0.8680 0.8660
20.752529 0.8660 0.8660 0.8650 0.8650 0.8650
20.840000 0.8630 0.8630 0.8630 0.8610 0.8610
20.927529 0.8610 0.8610 0.8590 0.8590 0.8590
21.015000 0.8570 0.8570 0.8570 0.8570 0.8560
21.102529 0.8560 0.8560 0.8540 0.8540 0.8540
21.190000 0.8520 0.8520 0.8520 0.8520 0.8500
21.277529 0.8500 0.8500 0.8490 0.8490 0.8490
21.364000 0.8470 0.8470 0.8470 0.8450 0.8450
21.451529 0.8450 0.8430 0.8430 0.8430 0.8410
21.539000 0.8400 0.8380 0.8380 0.8360 0.8340
21.626529 0.8340 0.8330 0.8310 0.8290 0.8270
21.714000 0.8250 0.8240 0.8220 0.8170 0.8130
21.801529 0.8090 0.8060 0.8020 0.8010 0.8010
21.889000 0.7970 0.7930 0.7930 0.7900 0.7900
21.976529 0.7860 0.7860 0.7850 0.7830 0.7830
22.064000 0.7810 0.7810 0.7810 0.7790 0.7790
22.151529 0.7790 0.7790 0.7790 0.7790 0.7810
22.239000 0.7810 0.7810 0.7830 0.7830 0.7830
22.326529 0.7830 0.7830 0.7810 0.7810 0.7810
22.414000 0.7810 0.7810 0.7810 0.7810 0.7790
22.501529 0.7790 0.7770 0.7760 0.7760 0.7760
22.589000 0.7760 0.7740 0.7720 0.7720 0.7720
22.676529 0.7700 0.7690 0.7650 0.7630 0.7610
22.764000 0.7610 0.7600 0.7580 0.7540 0.7510
22.851529 0.7490 0.7470 0.7460 0.7400 0.7370
22.939000 0.7310 0.7300 0.7280 0.7240 0.7190
23.026529 0.7140 0.7060 0.6990 0.6960 0.6940
23.114000 0.6900 0.6850 0.6780 0.6730 0.6660
23.201529 0.6570 0.6460 0.6350 0.6280 0.6190
23.289000 0.6120 0.6020 0.5950 0.5800 0.5700
23.376529 0.5610 0.5500 0.5410 0.5290 0.5180
23.464000 0.5040 0.4920 0.4760 0.4610 0.4490
23.551529 0.4380 0.4240 0.4080 0.3960 0.3760
23.638000 0.3570 0.3420 0.3210 0.3030 0.2940
23.725529 0.2750 0.2590 0.2450 0.2270 0.2020
23.813000 0.1930 0.1770 0.1630 0.1490 0.1340
23.900529 0.1190 0.1030 0.0950 0.0920 0.0850
23.988000 0.0780 0.0690 0.0620 0.0510 0.0440
24.075529 0.0370 0.0330 0.0280 0.0240 0.0210
24.163000 0.0190 0.0190 0.0170 0.0170 0.0150
24.250529 0.0150 0.0150 0.0150 0.0150 0.0150
24.338000 0.0150 0.0170 0.0170 0.0170 0.0190
24.425529 0.0210 0.0240 0.0240 0.0260 0.0310
24.513000 0.0390 0.0420 0.0470 0.0510 0.0600
24.600529 0.0710 0.0900 0.0970 0.1030 0.1170
24.688000 0.1340 0.1520 0.1740 0.1930 0.2160
24.775529 0.2340 0.2450 0.2460 0.2660 0.2890
24.863000 0.3010 0.3190 0.3300 0.3460 0.3600
24.950529 0.3730 0.3920 0.4060 0.4220 0.4360
25.038000 0.4490 0.4650 0.4740 0.4840 0.4970
25.125529 0.5110 0.5200 0.5310 0.5380 0.5520
25.213000 0.5630 0.5700 0.5770 0.5820 0.5950
25.300529 0.5980 0.6000 0.6110 0.6180 0.6250
25.388000 0.6280 0.6370 0.6460 0.6510 0.6550
25.475529 0.6600 0.6670 0.6740 0.6800 0.6830
25.563000 0.6890 0.6920 0.6960 0.7050 0.7080
25.650529 0.7150 0.7190 0.7220 0.7260 0.7330
25.738000 0.7370 0.7460 0.7470 0.7510 0.7580
25.825529 0.7610 0.7650 0.7670 0.7700 0.7720
25.913000 0.7740 0.7770 0.7810 0.7830 0.7850
26.000529 0.7920 0.7950 0.7990 0.8020 0.8060
26.087000 0.8090 0.8110 0.8150 0.8170 0.8220
26.174529 0.8250 0.8290 0.8330 0.8340 0.8360
26.262000 0.8400 0.8410 0.8450 0.8500 0.8520
26.349529 0.8540 0.8560 0.8570 0.8590 0.8610
26.437000 0.8630 0.8650 0.8660 0.8680 0.8700
26.524529 0.8720 0.8720 0.8730 0.8750 0.8770
26.612000 0.8790 0.8800 0.8840 0.8860 0.8860
26.699529 0.8880 0.8880 0.8890 0.8910 0.8950
26.787000 0.8960 0.9000 0.9020 0.9040 0.9050
26.874529 0.9090 0.9120 0.9160 0.9200 0.9250
26.962000 0.9280 0.9300 0.9360 0.9390 0.9410
27.049529 0.9430 0.9440 0.9460 0.9460 0.9460
27.137000 0.9480 0.9480 0.9480 0.9480 0.9500
27.224529 0.9500 0.9530 0.9550 0.9590 0.9600
27.312000 0.9600 0.9620 0.9620 0.9620 0.9600
27.399529 0.9590 0.9570 0.9570 0.9590 0.9590
27.487000 0.9620 0.9640 0.9680 0.9680 0.9710
27.574529 0.9710 0.9730 0.9730 0.9730 0.9750
27.662000 0.9750 0.9750 0.9750 0.9750 0.9780
27.749529 0.9780 0.9780 0.9780 0.9780 0.9780
27.837000 0.9800 0.9800 0.9800 0.9800 0.9800
27.924529 0.9820 0.9820 0.9840 0.9850 0.9850
28.012000 0.9870 0.9890 0.9910 0.9910 0.9910
28.099529 0.9910 0.9940 0.9940 0.9940 0.9960
28.187000 0.9960 0.9980 0.9980 0.9980 0.9980
28.274529 0.9980 0.9980 0.9980 0.9980 0.9980
28.362000 0.9980 0.9980 0.9980 0.9960 0.9960
28.449529 0.9960 0.9960 0.9940 0.9940 0.9940
28.536000 0.9940 0.9960 0.9980 0.9980 1.0000
28.623529 1.0000 1.0000 1.0000 0.9980 0.9980
28.711000 0.9980 0.9980 0.9980 0.9980 0.9980
28.798529 0.9980 0.9980 0.9980 0.9980 0.9980
28.886000 0.9980 0.9980 0.9960 0.9960 0.9960
28.973529 0.9960 0.9960 0.9960 0.9960 0.9960
29.061000 0.9960 0.9960 0.9960 0.9960 0.9960
29.148529 0.9960 0.9960 0.9960 0.9960 0.9960
29.236000 0.9960 0.9940 0.9940 0.9940 0.9940
29.323529 0.9940 0.9940 0.9940 0.9920 0.9920
29.411000 0.9920 0.9920 0.9920 0.9920 0.9920
29.498529 0.9910 0.9890 0.9890 0.9890 0.9890
29.586000 0.9890 0.9890 0.9870 0.9870 0.9890
29.673529 0.9890 0.9890 0.9890 0.9890 0.9910
29.761000 0.9910 0.9910 0.9890 0.9890 0.9890
29.848529 0.9870 0.9850 0.9850 0.9850 0.9840
29.936000 0.9840 0.9840 0.9840 0.9840 0.9820
30.023529 0.9800 0.9780 0.9780 0.9780 0.9780
30.111000 0.9780 0.9780 0.9780 0.9780 0.9760
30.198529 0.9760 0.9690 0.9680 0.9680 0.9680
30.286000 0.9660 0.9660 0.9660 0.9660 0.9640
30.373529 0.9600 0.9590 0.9570 0.9570 0.9530
30.461000 0.9520 0.9500 0.9500 0.9480 0.9460
30.548529 0.9430 0.9390 0.9360 0.9320 0.9250
30.636000 0.9230 0.9200 0.9160 0.9120 0.9090
30.723529 0.9050 0.9040 0.9000 0.8980 0.8960
30.810000 0.8930 0.8910 0.8890 0.8880 0.8860
30.897529 0.8840 0.8820 0.8800 0.8790 0.8770
30.985000 0.8750 0.8730 0.8730 0.8720 0.8720
31.072529 0.8700 0.8700 0.8700 0.8680 0.8680
31.160000 0.8680 0.8680 0.8680 0.8680 0.8680
31.247529 0.8700 0.8700 0.8720 0.8720 0.8720
31.335000 0.8720 0.8720 0.8700 0.8700 0.8700
31.422529 0.8700 0.8680 0.8680 0.8680 0.8700
31.510000 0.8720 0.8700 0.8700 0.8700 0.8700
31.597529 0.8680 0.8660 0.8660 0.8660 0.8660
31.685000 0.8660 0.8680 0.8680 0.8660 0.8660
31.772529 0.8660 0.8660 0.8650 0.8650 0.8630
31.860000 0.8630 0.8610 0.8610 0.8610 0.8590
31.947529 0.8590 0.8590 0.8570 0.8560 0.8540
32.035000 0.8540 0.8520 0.8500 0.8490 0.8490
32.122529 0.8490 0.8490 0.8470 0.8470 0.8430
32.210000 0.8410 0.8400 0.8400 0.8400 0.8380
32.297529 0.8380 0.8380 0.8380 0.8380 0.8380
32.385000 0.8380 0.8380 0.8380 0.8360 0.8360
32.472529 0.8360 0.8340 0.8330 0.8290 0.8270
32.560000 0.8250 0.8250 0.8240 0.8220 0.8220
32.647529 0.8220 0.8220 0.8200 0.8200 0.8200
32.735000 0.8170 0.8170 0.8150 0.8150 0.8110
32.822529 0.8090 0.8090 0.8090 0.8110 0.8110
32.910000 0.8130 0.8130 0.8130 0.8130 0.8130
32.997529 0.8110 0.8090 0.8080 0.8040 0.8020
33.085000 0.8020 0.8010 0.8010 0.8010 0.7990
33.172529 0.7970 0.7970 0.7950 0.7950 0.7950
33.259000 0.7950 0.7950 0.7950 0.7930 0.7920
33.346529 0.7900 0.7900 0.7900 0.7900 0.7880
33.434000 0.7850 0.7850 0.7810 0.7790 0.7790
33.521529 0.7790 0.7790 0.7790 0.7810 0.7810
33.609000 0.7810 0.7810 0.7810 0.7810 0.7810
33.696529 0.7790 0.7790 0.7790 0.7790 0.7760
33.784000 0.7760 0.7740 0.7720 0.7720 0.7720
33.871529 0.7720 0.7720 0.7700 0.7690 0.7670
33.959000 0.7670 0.7670 0.7650 0.7650 0.7630
34.046529 0.7630 0.7650 0.7650 0.7650 0.7630
34.134000 0.7600 0.7580 0.7560 0.7540 0.7530
34.221529 0.7510 0.7510 0.7490 0.7490 0.7440
34.309000 0.7420 0.7400 0.7400 0.7380 0.7370
34.396529 0.7370 0.7350 0.7330 0.7310 0.7300
34.484000 0.7280 0.7260 0.7240 0.7210 0.7190
34.571529 0.7170 0.7140 0.7100 0.7080 0.7010
34.659000 0.6990 0.6980 0.6980 0.6980 0.6960
34.746529 0.6920 0.6900 0.6900 0.6890 0.6890
34.834000 0.6850 0.6830 0.6780 0.6760 0.6740
34.921529 0.6730 0.6710 0.6670 0.6660 0.6640
35.009000 0.6620 0.6580 0.6550 0.6510 0.6500
35.096529 0.6500 0.6480 0.6460 0.6390 0.6370
35.184000 0.6350 0.6340 0.6300 0.6280 0.6260
35.271529 0.6250 0.6230 0.6210 0.6210 0.6190
35.359000 0.6180 0.6180 0.6180 0.6160 0.6140
35.446529 0.6110 0.6070 0.6020 0.6000 0.5950
35.534000 0.5910 0.5860 0.5820 0.5790 0.5770
35.621529 0.5750 0.5730 0.5710 0.5680 0.5660
35.708000 0.5640 0.5640 0.5640 0.5640 0.5630
35.795529 0.5590 0.5570 0.5500 0.5500 0.5480
35.883000 0.5470 0.5450 0.5430 0.5410 0.5390
35.970529 0.5360 0.5340 0.5310 0.5270 0.5230
36.058000 0.5180 0.5150 0.5130 0.5110 0.5090
36.145529 0.5070 0.5060 0.5040 0.5020 0.5000
36.233000 0.4990 0.4970 0.4930 0.4920 0.4900
36.320529 0.4860 0.4810 0.4770 0.4740 0.4700
36.408000 0.4670 0.4650 0.4630 0.4600 0.4580
36.495529 0.4580 0.4560 0.4540 0.4510 0.4490
36.583000 0.4470 0.4470 0.4450 0.4450 0.4440
36.670529 0.4420 0.4400 0.4380 0.4350 0.4330
36.758000 0.4310 0.4290 0.4280 0.4260 0.4240
36.845529 0.4240 0.4220 0.4200 0.4200 0.4190
36.933000 0.4170 0.4170 0.4170 0.4170 0.4170
37.020529 0.4150 0.4130 0.4130 0.4120 0.4120
37.108000 0.4100 0.4100 0.4100 0.4080 0.4080
37.195529 0.4060 0.4030 0.3990 0.3970 0.3970
37.283000 0.3970 0.3970 0.3960 0.3960 0.3940
37.370529 0.3940 0.3940 0.3940 0.3940 0.3940
37.458000 0.3920 0.3920 0.3920 0.3920 0.3900
37.545529 0.3880 0.3870 0.3870 0.3850 0.3850
37.633000 0.3850 0.3850 0.3850 0.3830 0.3830
37.720529 0.3810 0.3810 0.3810 0.3800 0.3800
37.808000 0.3800 0.3800 0.3800 0.3800 0.3800
37.895529 0.3800 0.3800 0.3800 0.3800 0.3800
37.983000 0.3800 0.3830
##END=
