##TITLE=1,2-Dichloroethane
##JCAMP-DX=4.24
##DATA TYPE=INFRARED SPECTRUM
##CLASS=IUPAC A
##ORIGIN=NIST, Analytical Chemistry Division, 301-975-3108
##OWNER=COPYRIGHT (C) 2001 by the U.S. Secretary of Commerce
##DATE=01/06/01
##$SPECTRA VERSION=1.10
##$UNCERTAINTY IN Y=2.1 % relative (B=1.10E-04,C=7.45E-10,D=1.46E-14)
##CAS NAME=1,2-Dichloroethane
##CAS REGISTRY NO=107-06-2
##MOLFORM=Cl C H2 C H2 Cl
##MP=-35.36 C
##BP=83.47 C
##$NIST SOURCE=QUANT-IR
##SPECTROMETER/DATA SYSTEM=IFS66V (Bruker)
##INSTRUMENT PARAMETERS=KBr Beam Splitter; MCT Detector; Multipass cell
##STATE=gas
##SAMPLE DESCRIPTION=1,2-Dichloroethane Primary Gas Standard
##PRESSURE=101.3 Pa
##TEMPERATURE=23 C
##SAMPLING PROCEDURE=1 L/min Flow
##RESOLUTION=0.9640
##DATA PROCESSING=Happ Genzel Apodization
##XUNITS=cm-1
##YUNITS=(micromol/mol)-1m-1 (base 10)
##XFACTOR=1.0
##YFACTOR=9.0949E-13
##DELTAX=0.4820
##FIRSTX=575.17
##LASTX=3974.605
##FIRSTY=7.31E-08
##MAXX=3974.12
##MINX=575.17
##MAXY=.0005867
##MINY=-1.16E-06
##NPOINTS=7052
##XYDATA=(X++(Y..Y))
575.17 80413 270491 970088 1310206 1230370 731530
577.58 848863 1127303 998258 1017290 1299914 642406
580.47 66512 77191 631292 184780 321491 924046
583.37 872166 719367 226305 45974 634521 613460
586.26 553215 392719 161539 563565 408982-37711
589.15-149694 263448 409239 481010 585047 616039
592.04 773087 725571 501695 124227 117643 199954
594.94 169711-151349-118186 281318 264597-37146
597.83-9563 41561 219305 310693 41915-354032
600.72-163716 208514-36893-296806-178407-315740
603.62-277831 252213 157610-115431 22051 45624
606.51 76653 45392 112695-35237-158360-339441
609.40-488508-236022 40749 296976 289405-208599
612.29-465756-296144 37419 269410 370270 215473
615.19-14883 28579 103124 325164-30768-128639
618.08 24210-103698-94689 93898-25164-235689
620.97-327863-112810 26266-65763 84165 363431
623.86 394739 294478 147744 59109 44494 162842
626.76 478197 440616 549949 686651 438385 397485
629.65 469613 529582 719848 668874 531542 590086
632.54 869246 923500 805118 797063 768523 776182
635.44 819990 1105888 1311125 1279912 1343634 1451684
638.33 1318072 1395709 1914149 2201351 2088760 2000278
641.22 2285310 2602233 2852497 2973743 2995154 3285179
644.11 3600529 3653506 3716994 3990335 4348034 4537015
647.01 4722044 5033226 5279444 5698988 6274508 6563841
649.90 6758114 7176132 7697346 8041106 8447587 8954576
652.79 9208746 9461425 9949607 10370543 10748081 11338781
655.68 11932379 12593644 13095086 13627992 14132104 14512574
658.58 14959533 15629547 16045451 16247910 16650586 16884953
661.47 16974309 17293452 17414678 17415078 17414933 17241372
664.36 17083153 16715299 16291588 15970207 15593959 14536929
667.26 13685686 14233883 14992096 15550393 15943914 16448497
670.15 17062616 17747665 18752399 20142238 21218457 22063917
673.04 23089812 24062251 24699474 25162951 25017020 25045644
675.93 25407585 25599180 26226171 27089372 27682357 28144031
678.83 28716145 29588305 30462393 31360949 32403311 33746461
681.72 35036346 36511910 38100280 39463386 40842498 42139209
684.61 43220862 44204276 44681625 44685225 44550492 44343120
687.50 43723998 43093936 42903311 41968082 39063347 36499049
690.40 37999044 43522391 46003637 40025244 35282197 43088601
693.29 53370563 50418759 38992332 33716507 32595283 32228395
696.18 33973386 36559394 38876260 41277963 43339761 44793207
699.08 45618224 46037795 45975080 45565673 44798686 44034301
701.97 43404637 42968434 42577717 42471603 42887347 43788223
704.86 45159892 47278747 49979499 53501950 57530647 62569509
707.75 68595992 75408453 82967201 91727830 101592742 112294757
710.65 123732627 136825872 151403920 167195978 183908904 201817720
713.54 221049396 241378501 263358340 286718489 310394543 334938007
716.43 360437753 387239019 414280321 440329003 465807856 490667662
719.32 513473662 534304983 553725111 571517921 586550068 597837972
722.22 604430741 608650904 611446024 610657597 605366528 597966941
725.11 594176227 590691968 582006960 570236094 567178205 573865648
728.00 583158663 578840597 575964632 581652468 605755038 634540381
730.90 645166021 624169494 615905569 621607189 620335626 607702390
733.79 583544794 548801931 505525606 456610062 403983585 349400802
736.68 296023294 245028108 197895117 155604409 119283746 88853683
739.57 64347245 45328118 31403606 21521379 14915132 10830676
742.47 8660625 7606108 7368232 7173607 7042001 6989159
745.36 7025371 6937215 6868046 6806425 6990323 7036911
748.25 6839558 6858727 7057255 6985470 6865353 6979556
751.14 7159297 7103724 6969787 7156643 7341712 7091641
754.04 6997402 7454934 7663617 7260870 7270808 7826059
756.93 7749431 7322952 7519599 7747397 7573087 7382776
759.82 7772294 7856804 7416516 7235166 7716797 7933735
762.72 7686356 7782239 8126321 8093465 7799401 7912031
765.61 8422593 8311776 7774404 7653360 7645766 7521681
768.50 7455559 7535247 7747603 7957028 8343309 8966728
771.39 9583548 9734930 8926571 7747597 7136942 6812804
774.29 6789625 6860451 6584767 6331805 6401132 6364991
777.18 6120893 5826168 5825682 5820545 5667466 5533029
780.07 5787748 5885019 5532160 5287248 5454240 5450376
782.96 5136699 5011545 5326826 5407665 5215695 5106771
785.86 5245493 5177716 4830223 4582179 4685979 4668600
788.75 4334664 4345642 4564908 4210189 3846498 4122086
791.64 4214800 3729014 3654963 3823560 3665187 3425125
794.54 3500799 3662322 3493908 3302038 3256086 3283929
797.43 3168931 2780219 2746522 2970573 2852236 2750501
800.32 2826585 2524827 2269710 2387859 2490479 2311389
803.21 2316130 2364808 2211751 2116789 2062318 2141548
806.11 2154428 2006283 1989001 2015998 1959714 1866178
809.00 1943836 1918251 1793862 1786686 1813025 1874945
811.89 1923142 1717610 1590503 1582323 1578654 1545815
814.78 1605364 1606564 1620325 1661409 1516660 1624268
817.68 1772674 1664113 1693903 1714931 1691535 1684068
820.57 1678717 1783182 2051228 2039283 1894666 2014229
823.46 2044056 1961693 1935593 1965889 2093655 2238877
826.36 2263803 2267739 2352954 2401844 2409493 2343626
829.25 2377177 2379472 2371678 2399512 2423930 2471876
832.14 2379042 2206909 2209182 2244842 2123400 2065262
835.03 2081921 2130027 2103691 1990232 1985765 1977098
837.93 1903785 1819011 1823189 1834902 1835525 1923485
840.82 2017909 1892500 1841455 1834859 1672315 1469308
843.71 1302456 1291869 1269623 1133882 1155416 1160283
846.60 1023776 842625 719448 720139 748646 720973
849.50 615802 606054 728187 718210 621542 670357
852.39 669108 562970 641971 626685 634429 767819
855.28 812888 747470 815731 951109 941225 892564
858.18 792477 640343 671493 860428 957727 980444
861.07 955568 973103 1076907 1206384 1301914 1311258
863.96 1273906 1303758 1387737 1463597 1618865 1785902
866.85 1933376 2151198 2225173 2179990 2361039 2498552
869.75 2592055 2737238 3002884 3274705 3635488 3894369
872.64 4197662 4696212 5153025 5581774 6228431 7007272
875.53 7877854 8656139 9545595 10634864 11763847 12711861
878.42 13740323 14843664 16020610 17303446 18515708 19732822
881.32 20919656 21902725 22745404 23484113 24109246 24798205
884.21 25392147 25365960 24514732 23429393 22568916 21981017
887.10 21821342 22383144 23509228 24967194 26569469 28034522
889.99 27912173 24332580 20432936 18119425 17659817 17770216
892.89 18251708 19391860 20531164 21658337 22596004 23280805
895.78 23785644 23787919 23496564 23077957 22361843 21458972
898.67 20442808 19315936 18136621 16813079 15489423 14330679
901.57 13148988 11977005 10864625 9766586 8738053 7893723
904.46 7105061 6435829 5934405 5411880 4904058 4497428
907.35 4087254 3784556 3379310 3072226 3022956 2937827
910.24 2751443 2690554 2618148 2433187 2312673 2294877
913.14 2242992 2100566 2004338 1973652 2031026 2100088
916.03 2043129 1888250 1876997 1959842 1979213 1995584
918.92 2107073 2209531 2243110 2288048 2272067 2327109
921.81 2444099 2618692 2808799 2951486 2939921 3055764
924.71 3187758 3275263 3458732 3720575 3947561 4106568
927.60 4304131 4560205 4809195 5048933 5232602 5409901
930.49 5637082 5878485 6131082 6382112 6642400 7028323
933.39 7294971 7507850 7786104 8068113 8314188 8557654
936.28 8815347 9061766 9269662 9471371 9757494 9915406
939.17 10069083 10178035 10134377 10224016 10337974 10211061
942.06 10111861 10136676 9967923 9685548 9519167 9377411
944.96 9113941 8824618 8548586 8295234 8130430 8152856
947.85 8353340 8563753 8760713 9162335 9866414 10300460
950.74 10403801 10674948 10951803 10971636 10761963 10591152
953.63 10465148 10353633 10234911 10058135 9881799 9649404
956.53 9372426 9084202 8656774 8173603 7754006 7422485
959.42 7126941 6769384 6351134 6017935 5733889 5394989
962.31 5158170 5003887 4786887 4557088 4366397 4144108
965.21 3955778 3793022 3680924 3571983 3443284 3221980
968.10 3067816 2968788 2898423 2826246 2638263 2451452
970.99 2344288 2382553 2358616 2254705 2207260 2053425
973.88 1942008 1947845 1981340 1956603 1937207 1928049
976.78 1978701 2087363 2215277 2266749 2329468 2421432
979.67 2572028 2624508 2628827 2722907 2800785 2864170
982.56 2891731 2868971 2935703 3058104 3167113 3152641
985.45 3088201 3028897 3014645 3028684 3046111 3058536
988.35 3181313 3299629 3324608 3310940 3390351 3510316
991.24 3595625 3680315 3755799 3741340 3626394 3641012
994.13 3682810 3542658 3403062 3328821 3242569 3098331
997.03 2972268 2855870 2711604 2599828 2491695 2397019
999.92 2338882 2270296 2118278 1937083 1841355 1788008
1002.81 1771490 1782523 1757296 1759168 1715925 1741815
1005.70 1822262 1769682 1689115 1743284 1820209 1849594
1008.60 1878942 1946448 2025694 2111993 2175121 2266333
1011.49 2363470 2458469 2559852 2558452 2558400 2718454
1014.38 2840662 3015912 3270345 3436239 3497416 3554102
1017.27 3668585 3813612 3915679 4003096 4081188 4194601
1020.17 4234172 4309340 4496345 4676676 4814852 4862011
1023.06 4757778 4734717 4898433 5092231 5044465 5067049
1025.95 5207711 5219848 5193542 5111417 5010539 4979618
1028.85 4904837 4755484 4577402 4458395 4387094 4215295
1031.74 3971196 3849366 3858021 3800226 3772719 3732058
1034.63 3509004 3280811 3033295 2774607 2733617 2652191
1037.52 2418424 2214210 2110775 1935043 1754300 1694836
1040.42 1635769 1570536 1506450 1462029 1332379 1250744
1043.31 1251369 1224167 1161818 1108145 1084049 975846
1046.20 859890 847539 839053 785782 803004 799580
1049.09 683248 607320 602524 648848 638642 599523
1051.99 493061 386092 402075 385471 344286 366118
1054.88 367799 284708 238521 239344 206986 164403
1057.77 223357 252720 266735 295501 271918 215876
1060.67 145058 158041 107247 51615 66172 100081
1063.56 148067 126273 81990 64838 149909 173412
1066.45 72273 23861 95228 105411 91686 148822
1069.34 124109 60231 49243 108817 141153 133224
1072.24 107101 77802 58996 93208 85762 96648
1075.13 138220 177863 150713 192093 220968 292416
1078.02 319410 320212 310405 320900 296833 332691
1080.91 431612 426722 441978 479376 455421 555252
1083.81 529275 460363 478982 585003 657778 581536
1086.70 559293 638431 649440 665896 808315 822599
1089.59 787257 934875 1002703 984796 958515 878143
1092.49 916095 1047666 1137492 1275070 1328189 1283747
1095.38 1193820 1158515 1194060 1344377 1430197 1384392
1098.27 1476008 1560428 1518296 1545917 1710476 1759954
1101.16 1699655 1669899 1839098 1877229 1815729 1895350
1104.06 2002601 2084376 2058368 2089667 2190004 2198241
1106.95 2226278 2252283 2274292 2293581 2319526 2479104
1109.84 2550642 2426155 2400535 2518756 2607074 2509643
1112.73 2498893 2702396 2723690 2582819 2638817 2727579
1115.63 2644871 2554874 2630513 2684784 2705014 2788853
1118.52 2841185 2808083 2774665 2891744 3092089 3478478
1121.41 4512389 5520756 5463108 4974374 4637985 4185841
1124.31 3805075 3509734 3201579 3090953 3191569 3105057
1127.20 2921182 3079560 3404904 3163680 2801591 3269015
1130.09 3611112 3027298 2851285 3603536 3599223 2821577
1132.98 2983612 3675376 3436643 3075385 3464835 3702756
1135.88 3245339 3012410 3326695 3518900 3226709 3081226
1138.77 3300744 3387459 3093002 2880191 3054488 3084405
1141.66 2883604 2965831 3165541 3021440 2847020 2932636
1144.55 3099931 3296196 3572820 3399670 2946836 2734507
1147.45 2683714 2761720 2804934 2736176 2765720 2820679
1150.34 2670738 2540251 2514051 2486297 2414466 2389363
1153.23 2317612 2204713 2148143 2174609 2215441 2190836
1156.13 2133883 2085420 2046892 2004380 2040949 2071823
1159.02 2045939 1927300 1792375 1820165 1717854 1585985
1161.91 1619693 1595560 1524970 1498242 1464783 1400293
1164.80 1371823 1329002 1229687 1252532 1264260 1205311
1167.70 1194409 1156956 1038520 970626 1007382 997353
1170.59 990054 955825 901371 886743 833557 847905
1173.48 898612 910712 917814 979511 956582 924638
1176.37 909324 940068 910961 859262 800042 787376
1179.27 849986 909352 935410 973186 988027 983391
1182.16 1044313 1082110 1105714 1131289 1174435 1245871
1185.05 1247423 1308220 1367654 1367131 1420113 1501347
1187.95 1526362 1573292 1613095 1704208 1854966 1945771
1190.84 2010580 2151282 2316100 2328373 2292077 2524058
1193.73 2703100 2618212 2649650 2921649 3003340 2892043
1196.62 3035159 3448714 3614333 3493521 3622972 4086487
1199.52 4116938 3864382 4224070 4859842 4721318 4389825
1202.41 5021012 5638218 5147868 4928222 5816713 6352307
1205.30 5881052 5927067 6743162 6940736 6536969 6860913
1208.19 7520026 7639687 7661673 8015017 8426465 8717879
1211.09 8773701 9181171 9999846 10307043 10449531 11466281
1213.98 12709109 13110703 13834134 15897475 17809371 18525260
1216.87 20573600 24552007 27595596 29930991 34892948 41170421
1219.77 46110883 51769755 60563852 69927793 78144317 87774117
1222.66 99864433 111846121 122911076 134486498 147041636 158400080
1225.55 167805225 175785538 182548836 186689634 187837540 185719207
1228.44 181299256 173244481 160371725 145551773 133498920 135258953
1231.34 148685516 140852858 130931278 131838171 137057385 146153114
1234.23 156618845 167566866 177673491 187371139 194936421 199094850
1237.12 200939660 201398262 197182230 188492672 179089957 169320741
1240.01 156255548 141337681 128010989 115800955 101922217 88251154
1242.91 77650613 68516807 58199320 49127146 43346361 38218830
1245.80 31781530 27036098 25036086 22563961 18578132 16518229
1248.69 16695242 15599853 12952031 12260784 12975999 12188789
1251.59 10658235 10896773 11216835 10045979 9319120 10151038
1254.48 9970101 8619828 8535297 9384383 8860750 7854186
1257.37 8161905 8556752 7648068 7059944 7606764 7771657
1260.26 6942689 6611620 7029487 6934268 6271312 6347344
1263.16 6623991 6158873 5648888 6042936 6147623 5565488
1266.05 5343717 5630784 5577807 5237680 5310212 5510327
1268.94 5230791 5064878 5387307 5610436 5412827 5589921
1271.83 5960995 6249481 6403058 6825003 7437229 7970488
1274.73 8553517 9602729 10630843 11640493 12989670 14679890
1277.62 16365306 18254843 20390302 22794812 25133600 27645780
1280.51 30342132 33129353 35795733 38456159 40976216 43341131
1283.41 45247517 46889654 47942980 48414443 48439734 48242173
1286.30 47261151 45485389 42890841 40377268 37297277 34403837
1289.19 32736521 33813303 38998571 51009471 67590459 76233442
1292.08 56273885 29152533 22180567 24356325 28506884 33404121
1294.98 38682160 43359986 47453866 50593434 52877022 53927638
1297.87 54094671 53330673 51987767 49947200 47553830 44799919
1300.76 41999127 39132960 36346676 33509730 30956799 28605895
1303.65 26319791 24253746 22637255 21099336 19701243 18427637
1306.55 17443869 16566174 15861694 15176130 14522449 13903646
1309.44 13430062 12935068 12438411 11868425 11327360 10803368
1312.33 10463796 10283790 10280437 10440673 10845424 11477188
1315.23 12216025 12946605 13629201 14070871 14345071 14510849
1318.12 14487066 14373870 14221847 13873152 13455848 12991074
1321.01 12645292 12356156 11964831 11563147 11215355 10891976
1323.90 10655282 10362011 10056630 9830609 9584544 9343632
1326.80 9156104 8959047 8747238 8502704 8301782 8095525
1329.69 7800496 7556088 7377110 7186445 6992575 6753358
1332.58 6477923 6297083 6110614 5822414 5673780 5626787
1335.47 5447701 5193452 4988335 4903001 4820341 4627929
1338.37 4472964 4374482 4268211 4223664 4187709 4116231
1341.26 4036048 3910522 3868208 3803132 3691626 3694382
1344.15 3653992 3576635 3491126 3440130 3504094 3400957
1347.05 3309397 3299096 3235143 3191275 3142985 3120984
1349.94 3133776 3023341 2934635 2838109 2849541 2902790
1352.83 2934122 3110697 3200594 3195655 3169235 3282045
1355.72 3262203 3265137 3269866 3047600 2935986 3000478
1358.62 2906069 2921927 3042631 2949202 2803196 2756402
1361.51 2723171 2677761 2622326 2665796 2624102 2513923
1364.40 2472364 2385708 2371047 2451209 2465375 2473523
1367.29 2388217 2244602 2090320 2090362 2076397 1933428
1370.19 1854058 1802601 1666084 1527443 1455797 1423289
1373.08 1341933 1374485 1469608 1523950 1412915 1332428
1375.97 1406501 1444630 1469934 1466317 1383614 1327983
1378.87 1359581 1420055 1359136 1302698 1230694 1189354
1381.76 1224289 1209001 1224462 1273260 1214080 1164407
1384.65 1203966 1225675 1078819 989602 937245 836644
1387.54 916720 1049772 1112643 1150135 1100286 1062998
1390.44 982990 913289 903905 990686 989791 905919
1393.33 848126 748106 694373 811853 826119 843996
1396.22 890036 955116 887300 879132 885723 845268
1399.11 901610 999542 1110965 1215445 1157071 1071437
1402.01 1144705 1290509 1226580 1224871 1315935 1348797
1404.90 1416674 1541909 1545434 1578704 1633004 1745327
1407.79 1884247 2007408 2085952 2230024 2308332 2402689
1410.69 2433591 2590101 2817532 2969762 3038249 3159155
1413.58 3256138 3472477 3612308 3800391 3998101 4218801
1416.47 4316848 4474331 4766285 5034270 5016317 5142667
1419.36 5779695 6345175 6602075 7053593 7579035 8049930
1422.26 8359468 8889680 9479264 10040549 10547361 11384589
1425.15 12251877 12913835 13478761 14330437 15137237 15799524
1428.04 16307229 16985606 17627587 18101560 18381628 18914308
1430.93 19410763 19621932 19477823 19588290 19590101 19594195
1433.83 19789170 21050413 22309256 23605518 27665878 37463838
1436.72 37279364 24893508 19476549 20239015 22470076 24204853
1439.61 25339938 25954926 26766048 27034703 27171514 27731793
1442.51 28657057 28431686 28091192 28536487 29153069 28664153
1445.40 28301063 28697310 29062863 28468268 28074488 28922705
1448.29 29838168 29600412 30103645 31960374 33115616 32668198
1451.18 33735788 36436660 36909323 35780167 37650038 39795828
1454.08 38285137 36849230 37745544 36951038 33950133 31667561
1456.97 30497975 28376148 25243601 23720565 23323182 22076326
1459.86 20308213 20238229 23010376 26551984 30272756 33054040
1462.75 34190889 35218182 36390131 36464162 35370671 34430749
1465.65 34706739 34178153 31310665 29116478 29170122 28289553
1468.54 25123094 23201685 23402457 22486928 19826062 18598382
1471.43 18888352 18166853 16250431 15599617 16365653 15846629
1474.33 14398408 14356243 14817133 13930137 12997316 13332728
1477.22 13636356 12777782 12134499 12450058 12366902 11574495
1480.11 11286237 11409075 11110289 10393489 10237283 10413228
1483.00 9929386 9266343 9351843 9362282 8772687 8394942
1485.90 8479627 8136166 7479517 7346445 7428808 7069148
1488.79 6616307 6405843 6347390 5970129 5755121 5797073
1491.68 5602522 5283557 5146153 4971570 4689362 4477717
1494.57 4390810 4081421 3461615 3313001 3639404 3548012
1497.47 3289457 2998294 2829948 2824081 2823116 2707287
1500.36 2542064 2351263 2291118 2207826 2046948 1964503
1503.25 1916511 1753072 1583485 1177913 883660 1044267
1506.15 763791 473647 855280 1030274 1035163 1127780
1509.04 1166645 1095547 1034708 1017946 1025859 900697
1511.93 893475 1069823 1142444 1156506 1194916 1204270
1514.82 1290957 1343400 1383453 1468771 1502212 1605480
1517.72 1894833 2065939 2120928 2037431 2036653 2062571
1520.61 1791695 1925046 2242020 2107166 2192158 2367832
1523.50 2391574 2291965 2201145 2134174 2359585 2531789
1526.39 2577999 2618396 2806880 2860908 2906402 2982445
1529.29 3044745 3079662 3127661 3058881 2950264 2880024
1532.18 2805221 2645011 2508741 2463706 2546904 2486380
1535.07 2396251 2268844 2181402 2092388 2048817 1899965
1537.97 1529596 874521 1024530 1115800 909805 1161398
1540.86 1172094 756873 702305 1085658 1099552 951058
1543.75 935596 750356 555352 703739 811828 791993
1546.64 783592 733196 690271 633402 534373 408347
1549.54 384069 427666 451784 425147 389322 343094
1552.43 354990 309376 96083-130088 112663 241439
1555.32 242521 276393 285871-14813-236190-640448
1558.21-738235-225350-339842-628139-250584 189740
1561.11 239926 228417 197011 230264 266145 251634
1564.00 179108 137859 169569 217208 216972 260746
1566.89 229379 235591 228314 138528 7710-86465
1569.79 79199 219171 232394 262974 253935 252576
1572.68 261342 240204 223616 255714 193384-134490
1575.57-703434-416108 98106 156243 232606 292638
1578.46 291247 281057 273925 265012 252495 217040
1581.36 224938 252935 241160 216360 238017 269063
1584.25 238166 209779 190230 116994 130488 137808
1587.14 104608 90343 96007 117041 135453 109726
1590.03 81148 47271 103718 119679 76534 41681
1592.93 62530 3892-80252-37146 21347 49893
1595.82 60779 37245 22022-22382-47295-40688
1598.71 21181 19302-4521 2756-17357-7538
1601.61-12870 13714-72383-109587-42936-5586
1604.50 9784-25315-4533-13000-53045-7090
1607.39 15253-12417-23277-57924-31836 3753
1610.28 51762 46812-13567-1208 74441 115282
1613.18 100234 62290-3949-691 13573-258639
1616.07-821199-641589-113714 11237 16627-22851
1618.96 6745 20330-8286-23047 30352 43305
1621.85 49759-25250-246331-308148-69038 705
1624.75 15145-6959-19866-89194-163393-223735
1627.64-150782-64361 1550 7658-22097-29552
1630.53-1658-40245-45259-39967-22084-38625
1633.43-86756-227943-452846-821028-761888-245466
1636.32-107481-217420-184149-114137-91940-30878
1639.21-19528-33076-28671 19685-18674-119614
1642.10-160658-66442 3995-35789-67732-111888
1645.00-404225-660605-357073-208120-276567-215860
1647.89-198901-106129-88329-81183-45254-53276
1650.78-148508-424806-1012002-1177525-1240675-877198
1653.67-455217-382021-180992-143808-104371-59707
1656.57 4130-10639-14032 4595 18852-47031
1659.46-24685 12326 70874 37985-12737-164408
1662.35-286144-109459 5937 16122 28762 37293
1665.25 69141 57540 63163 77522 124254 78756
1668.14-38410-317207-273534 31515 160655 68741
1671.03 7691 135639 219492 209956 216264 225964
1673.92 188012-94943-286878-46212 182831 181600
1676.82 223078 281688 284095 261738 240144 195274
1679.71 204502 241151 252080 202494 221746 193994
1682.60 47459-9561-129703-677484-754750-46453
1685.49 213783 263455 245995 255038 236848 199914
1688.39 246360 247047 148299 139978 199256 193100
1691.28 191117 215195 156034 190827 259826 240926
1694.17 135685-140962-795980-805122-54117 174128
1697.07 109912 142981 158122 68200-280442-736705
1699.96-734736-456366-35493 103964 111340 118618
1702.85 114522 76058-35046-22345 104555 63841
1705.74-50363-18880 105191 152066 163035 157774
1708.64 168036 124907 119171 146268 170533 195385
1711.53 222268 175105 175926 110613 61595 45953
1714.42-68670-77234 119968 126718-159563-634317
1717.31-332334-56914-76597 83230 169474 153605
1720.21 173712 167099 149874 153326 144672 107613
1723.10 132050 181099 202964 193081 188304 180401
1725.99 158274 149087 153956 171719 153004 112699
1728.89 96737 29288 6971 59763 99557 99945
1731.78 22222-122430-453744-414699-451111-593001
1734.67-190817 11231 29565-732 25474 26738
1737.56 8179-35307-38613-261713-361819-167221
1740.46-49158 19750 25752-37587-53253-46799
1743.35-40533-36738 8635 17233-31140-59419
1746.24-44848-5501 9692-73804-145294-67549
1749.13 12988-5038-111991-339279-320260-39075
1752.03 95755 115955 96941 90790 69676 41494
1754.92 67129 51477-33424-104988-20629 30540
1757.81 27680 81267 145347 147362 98302 17709
1760.71-47972-201363-120483 42013 51781 50831
1763.60 60978 92520 94072 141570 188887 117512
1766.49 65897 30899-97139-94484 50182 59696
1769.38 68066 69062 12928-89539-37019-254808
1772.28-470794-182182 51673 103621 112691 91001
1775.17 46354 96936 130989 127720 118313 75690
1778.06 81361 39361 93282 134103 85497 30979
1780.95 89440 114331 146892 188213 156823 129935
1783.85 87282-10119 58597 117523 103394 150596
1786.74 179805 145751 107907 75737 87801 113444
1789.63 95537 17176-34592 20029-51414-306251
1792.53-193387 31859 44832 3020 4393 14695
1795.42 16169 9409-16379-42617-38427-9561
1798.31-31811-116028-142668-72045-108045-138906
1801.20-72398-69246-87251-70781-76370-82874
1804.10-83741-97064-60213-12874-5391-36519
1806.99-85521-83548-42830-61090-101157-77650
1809.88-78181-91216-35486-15903-75859-75417
1812.77-85039-81804-38168-63730-35777 35359
1815.67 33132-50148-73335-27619 4585-26485
1818.56-67305-49134 17346 57391-5250-43102
1821.45 9689-4171 10137 74396 49454-12314
1824.35-117099-146844-16439 30442-1293-16900
1827.24-4836 5893 9353-48988-117064-159603
1830.13-67946 7269 52091 50681 30788-12700
1833.02-17134 29795 66692 77461 72619 25209
1835.92 11271 16956 4590 22717 38404 24747
1838.81-4324-3159-1587-497 15932 17700
1841.70-2545 7359 4294-102071-310937-184776
1844.59 22341 40985 78280 89334 51917 31213
1847.49 87619 115800 106070 101074 82190 77091
1850.38 88695 33575-32019-57765-19631 9866
1853.27-10156-3970 35085 12664-21492-51036
1856.17-65868-57005 3228 25383 29367 23687
1859.06 39597 54131 51008 33736 19127 37636
1861.95 49118 22065-37957-41377-39643-51404
1864.84-4142-5492-51061-22568-43058-103636
1867.74-63963-53154-143195-135543-22200-12379
1870.63-5427 31193 1796-65061-57414-13465
1873.52 29867 17281-19412-3643 4921 46149
1876.41 92007 71067 16921 36608 34444-260
1879.31-16742 48781 75499 15548-33944-48256
1882.20-16087 12144-232-13043 13555 60066
1885.09 106214 60082 7577 1492 47749 78904
1887.99 43288 26457-32297 6824 100832 92855
1890.88 85790 126461 141356 107625 91044 87867
1893.77 41125 34242 103276 128646 112269 80899
1896.66 89396 75212 67585 85899 126661 108717
1899.56 142946 185491 154360 114274 98691 61323
1902.45 58269 83315 66928 53741 90380 69538
1905.34 47113 51210 70588 57013 32949 44637
1908.23 72676 63225 30844-3305-10278-5870
1911.13-26221-44831-17699 14638 48712 12789
1914.02-28011-26075-848-21422-41085-50825
1916.91-79023-184826-121615-34400-16488-1103
1919.81-2538 3496-28228-70556-52383-88165
1922.70-136755-85529-76499-78892-50889-79609
1925.59-124501-130289-74005-22547-46690-53642
1928.48-21462 7929-13328-49952-30581-57059
1931.38-85445-77884-67334-4191 8420-53893
1934.27-58953-38480-59722-78057-49756-46319
1937.16-56930-53253-50268-52811-24629-30859
1940.05-68994-82991-61492-89161-110591-93083
1942.95-98357-105453-86463-75163-66588-40381
1945.84-58884-55854-25060-22699-11040-39181
1948.73-76715-65391-47661-50191-51288-63981
1951.63-61783-61637-62373-69644-51633-33235
1954.52-45396-98829-124639-77334-33648-56140
1957.41-92943-92105-40384-42794-43186-34453
1960.30-35128-58203-70225-72693-62543-33615
1963.20-22249-33662-39467-48675-47600-75035
1966.09-80635-46262-52205-60292-17628 22154
1968.98 7350-6130 2853 13768 44754 37662
1971.87-15842-63408-48774-3544 12416-3011
1974.77 26753 69450 43730 34208 22443-34496
1977.66-68124-10062 52036 34177 26033 31726
1980.55 37622 50342 36426 24914-4194 10248
1983.45 92248 80585 24775 8835-7330-31370
1986.34-638 42635 57964 41155 31238 43238
1989.23 28033 54853 106923 117256 67607 52999
1992.12 80385 87556 84890 67735 83758 55155
1995.02 19759 103213 148397 92258 73536 47232
1997.91-14981 908 32498 28465 56068 56590
2000.80 89187 109436 122191 107376 89881 68113
2003.69 89117 121334 149926 150994 159284 170059
2006.59 154133 135082 136968 127868 117217 145354
2009.48 175711 196435 208204 215041 254698 306963
2012.37 344068 330074 354355 396209 403533 385962
2015.27 425892 504557 543613 589989 661673 721827
2018.16 770602 807254 837635 870096 929397 1038718
2021.05 1140163 1229276 1294279 1356155 1448738 1541791
2023.94 1604354 1639031 1727649 1808894 1877760 1914015
2026.84 2008040 2066319 2032385 2039116 2073122 2148656
2029.73 2234945 2197530 2176933 2221399 2302364 2280663
2032.62 2252736 2268260 2308877 2328750 2305164 2207682
2035.51 2167222 2144656 2170117 2176718 2134980 2021992
2038.41 1979150 1938287 1807845 1746959 1691512 1639066
2041.30 1605941 1491589 1397148 1339023 1259554 1133027
2044.19 1026489 946186 888734 805018 728381 706265
2047.09 654199 549237 480016 429157 410183 388338
2049.98 354379 290416 262370 301228 335928 285643
2052.87 230821 239192 257241 221063 212315 196229
2055.76 193638 217266 228803 211187 161508 151312
2058.66 138707 157139 160179 161248 166865 144769
2061.55 115024 89558 90032 98647 116111 78285
2064.44 77986 100275 112870 96256 108633 115551
2067.33 83977 23814 37237 81185 66879 28125
2070.23 22337 31142 63389 54092 49714 77398
2073.12 83620 73178 78090 76978 62444 57848
2076.01 57178 23381 29301 40717 38996 55445
2078.91 40506 43505 70092 69622 60594 33481
2081.80 48063 72360 68205 73708 60479 46202
2084.69 77094 106516 96458 76277 91426 94484
2087.58 70669 73134 106866 95020 91605 141966
2090.48 170672 150108 107517 109479 125466 136888
2093.37 168940 227694 211954 191312 200907 166621
2096.26 186541 260435 298858 289396 311725 301781
2099.15 267688 270874 312665 340294 292552 269000
2102.05 343236 373550 362279 370228 379768 356042
2104.94 373497 385143 343357 345554 404683 377839
2107.83 347013 388294 453214 460687 363630 331980
2110.73 368521 401081 393856 377131 443425 466387
2113.62 431387 444330 476631 520463 533844 499428
2116.51 424954 399942 434655 434889 414581 391470
2119.40 332853 291604 327460 297217 269603 322292
2122.30 326823 291332 320208 298877 249972 274047
2125.19 302517 250134 229117 255942 285842 263539
2128.08 224995 259708 278439 281555 296269 324870
2130.97 394308 382561 374849 302104 264356 258771
2133.87 216272 198515 187326 184373 170327 173764
2136.76 206383 183409 153172 168570 166511 190910
2139.65 219782 219599 211335 167235 129449 80756
2142.55 104137 149032 128200 129156 197134 221531
2145.44 195282 171297 138056 80069 114982 160301
2148.33 163374 118360 85409 119898 112980 92806
2151.22 98201 98607 108059 75557 65227 89847
2154.12 93889 98431 102417 87159 105802 79009
2157.01 46416 85749 93227 60495 93053 95948
2159.90 75582 70436 103961 141468 116209 95488
2162.79 102623 128603 158018 155125 177882 166109
2165.69 170256 188413 223731 215332 176264 163428
2168.58 201419 217187 188078 237467 289166 303838
2171.47 337067 333730 311027 364447 407807 352211
2174.37 350781 393186 481638 488478 459564 504126
2177.26 489839 430107 482287 560920 530987 489089
2180.15 499725 503356 559447 566499 541601 562498
2183.04 607646 625210 661748 684043 693618 717011
2185.94 794609 844365 869979 857600 858436 888953
2188.83 910876 921608 948503 948896 953226 921244
2191.72 906783 931388 963216 934693 952992 973705
2194.61 993509 1031890 1018361 986941 993381 1038643
2197.51 1060215 1042483 1094155 1103807 1087069 1120170
2200.40 1239186 1276747 1266931 1295914 1329115 1323238
2203.29 1355112 1391499 1385523 1372340 1443763 1460857
2206.19 1400837 1435470 1553956 1552398 1448570 1426633
2209.08 1500259 1577793 1578161 1539807 1582800 1642303
2211.97 1614246 1656624 1768741 1716241 1593370 1606990
2214.86 1763824 1787662 1748153 1762353 1869101 1891308
2217.76 1916336 2004489 2092796 2130590 2061597 2091617
2220.65 2398099 2530424 2193055 1846003 1702890 1649385
2223.54 1641022 1662981 1650189 1628160 1622501 1621822
2226.43 1623201 1651992 1724001 1763612 1683097 1681263
2229.33 1766795 1725832 1638042 1637204 1703990 1708414
2232.22 1621426 1640284 1672330 1627622 1603218 1612129
2235.11 1569152 1507390 1496217 1470635 1475343 1436150
2238.01 1352201 1355369 1379476 1338162 1267258 1243815
2240.90 1216418 1141672 1073146 1074466 1075629 1049999
2243.79 1012761 1012023 1068751 1020940 1011293 969529
2246.68 926915 955253 903787 833711 870490 827184
2249.58 747359 748494 811928 798914 754394 752542
2252.47 722963 695872 655112 603270 588136 598105
2255.36 621422 557386 486196 486813 538003 512242
2258.25 439852 394038 404112 392201 367882 351300
2261.15 348858 358990 355189 365721 398194 394848
2264.04 354851 318940 306042 302598 300516 264843
2266.93 263009 251325 234137 280742 300126 277321
2269.83 247820 227293 231059 234023 236739 252793
2272.72 234178 172030 197337 271678 230712 182330
2275.61 177630 164927 200140 191584 185192 140743
2278.50 186683 270812 290267 224392 232132 252922
2281.40 181605 116702 162370 250755 236348 187624
2284.29 206984 215436 220154 224653 213880 171442
2287.18 205952 266774 306953 291744 261404 272581
2290.07 273622 214314 201110 222350 227874 207953
2292.97 207297 205755 214790 215539 196311 213179
2295.86 206341 176589 208124 213072 200820 155341
2298.75 154509 164959 143274 112995 144782 161110
2301.65 175796 168051 231548 242660 206422 132974
2304.54 131528 164009 206292 187986 169530 220744
2307.43 238253 152960 66999 134753 218206 169195
2310.32 89677 77992 250324 299184 157912 6181
2313.22 185709 262264 195753 26577 191185 292048
2316.11 198949-62786 87916 304242 185187-159554
2319.00 22499 345362 198210-245235-137430 243816
2321.89 190452-282608-179247 293331 141804-444958
2324.79-276357 283959 97210-360980-25370 474424
2327.68-7831-648136-249396 290282-319609-880185
2330.57-166084 259739-605417-915139-30651 39930
2333.47-924027-767318 87331-295151-1008685-413218
2336.36 106047-606886-838338-21955-141365-929628
2339.25-553690 58738-500745-755406-64551-101984
2342.14-750864-411650 6906-436808-490648-17968
2345.04-190943-437986-111464 60221-84776 17873
2347.93 195926 261699 149078 24223 90397 24507
2350.82-255149-149749-27878-436985-380560-113053
2353.71-623302-607421-185975-781260-804480-321834
2356.61-983302-895994-317376-1078956-927715-455241
2359.50-1238030-861755-572559-1253444-673324-797238
2362.39-1276579-552055-936690-964454-484530-1025014
2365.29-588065-505487-874342-358563-641072-489555
2368.18-252248-440222-113335-346373-175754-66234
2371.07-218198 89968 33557 158652 119331 207457
2373.96 317137 345494 452667 504814 603646 628582
2376.86 783983 813388 887690 917616 947452 1030329
2379.75 1091393 1086577 1105219 1170478 1165018 1075323
2382.64 1060325 1050490 1020483 1013706 993430 976710
2385.53 986747 952502 899629 953685 1015291 1075405
2388.43 1204634 1272953 1292966 1260582 1236978 1241097
2391.32 1234233 1235008 1232149 1157956 1057230 1039936
2394.21 1010508 978769 945698 933389 879809 782972
2397.11 713411 698833 771905 743982 648735 630697
2400.00 670920 617321 578523 635535 608529 559869
2402.89 608594 680637 681191 649335 623321 593036
2405.78 654761 672451 642049 610854 570444 591891
2408.68 600197 604228 632323 657855 651446 659912
2411.57 669316 645123 624468 621139 610006 625284
2414.46 647760 629669 636955 651342 645309 569697
2417.35 533374 566429 571136 570341 607378 650865
2420.25 641995 734468 889471 935536 962309 915539
2423.14 843014 792927 712063 661229 652954 660849
2426.03 663756 655599 582468 544854 586705 655878
2428.93 669267 627783 635507 641459 627299 640562
2431.82 658912 655438 656184 680999 678184 610231
2434.71 599541 689610 683252 617053 654191 678063
2437.60 633651 651857 669931 566958 538965 635829
2440.50 675626 674655 638996 630457 612285 619320
2443.39 659424 639166 599361 603207 597688 588856
2446.28 530659 463012 488277 540244 546022 508038
2449.17 529326 563587 531406 514720 513171 532462
2452.07 523088 488495 525741 531904 476313 426813
2454.96 408635 435917 470667 525435 600627 712667
2457.85 798418 757039 740846 745049 753321 726446
2460.75 710636 749559 716296 659335 567228 562804
2463.64 627866 672952 650134 675872 703344 657376
2466.53 630683 644455 628183 608638 568934 514271
2469.42 527917 526884 572751 581260 507657 484512
2472.32 511904 487980 434875 430419 438492 457410
2475.21 423079 397413 372224 355103 359613 349052
2478.10 347244 279061 220846 228232 236672 255983
2480.99 299055 264931 252002 297044 263165 219284
2483.89 260779 282763 279426 321152 393945 376362
2486.78 355531 308846 294008 340041 357367 367572
2489.67 361502 317538 320212 357865 394314 392718
2492.57 389773 364985 361120 382480 392709 451943
2495.46 485936 510404 520198 481861 462271 479840
2498.35 484968 522722 577060 567527 552408 509696
2501.24 489692 567840 604599 587336 640047 720536
2504.14 705438 646187 679221 734520 729752 758339
2507.03 822191 833713 784901 761005 740405 691823
2509.92 709216 762313 775478 739700 724740 764976
2512.81 760939 725953 746966 754906 783787 783736
2515.71 803140 838830 833058 832768 835659 857587
2518.60 876157 867028 892865 907353 870401 873706
2521.49 859522 823162 780142 740381 697230 685643
2524.39 677777 644412 624139 696578 686690 635088
2527.28 631094 581049 515343 495768 477517 498038
2530.17 553839 573741 579370 563573 553325 614924
2533.06 688727 720169 668923 604036 583362 576181
2535.96 561430 556332 577041 585637 537956 586156
2538.85 590040 485496 412603 456296 441316 426145
2541.74 465025 484426 437751 395974 419909 459935
2544.63 396526 329082 368668 374391 371802 355600
2547.53 337799 316798 309948 361950 375588 294460
2550.42 235024 235113 245611 208461 218705 283563
2553.31 272094 200931 150410 155515 166559 138047
2556.21 123447 144354 123948 54115 41814 78471
2559.10 68815 34501 55193 39031 32729 6245
2561.99-46716-59098-50175-39916-80918-69595
2564.88-25007-25808-75425-67294-92238-111031
2567.78-112323-141033-141970-155802-163604-78079
2570.67 9850-2805-25455-90393-116490-110352
2573.56-84983-32489-28185-59575-38853-33348
2576.45-110071-93486-31822-96796-126120-128353
2579.35-94970-117778-186902-229599-190439-147699
2582.24-138560-219033-261905-190521-76501 80425
2585.13 173178 173614 100168 33430-23274-20129
2588.03-71800-142836-153273-168643-133499-104521
2590.92-125915-122430-149934-201725-225044-208335
2593.81-196412-144948-131039-115754-119532-136500
2596.70-144375-149836-149438-144489-152495-173584
2599.60-194712-219756-175558-141292-145963-151480
2602.49-141865-107026-91456-87849-103425-151846
2605.38-167786-123861-74561-69360-118182-209881
2608.27-198364-141983-101524-65610-64251-66614
2611.17-103950-77044-124493-127415-121138-139332
2614.06-143224-97006-77691-134786-161432-154471
2616.95-106290-79308 33853 80629-30436-120554
2619.85-114351-103654-129465-116297-63845-85080
2622.74-99281-55722-7132-92312-82167-61785
2625.63-64305-18795-39371-58253-23758-6609
2628.52-73852-72214-11524-17674-37823-41128
2631.42-10458-25550-83283-47563 12634 19190
2634.31-19066-36983-35993-40559-37999-81283
2637.20-119239-79889-25647-20233 41094 72891
2640.09 62479 23402-7859-3169 48538 16147
2642.99 3400 29185-8714-43872-48023-19470
2645.88-1875-5978 7080-1788 6373 14741
2648.77 281 62304 63474-15878 47639 91675
2651.67 75850 11770-23063 76552 114301 58575
2654.56-25626-58095 9013 14807 12177-31343
2657.45-49157-21094 50888 33697 46535 61451
2660.34 75768 76062 58684 16383-46788-27369
2663.24 48739 126524 162041 148115 152757 126851
2666.13 111998 178798 206729 197266 135017 126813
2669.02 195549 230927 289436 301226 311516 312849
2671.91 321225 340321 419324 413135 422330 498081
2674.81 606511 680000 764758 905539 964480 1003389
2677.70 1056203 1105346 1195213 1328494 1473102 1503169
2680.59 1561099 1648427 1758733 1827730 1874649 1952125
2683.49 1977594 2036038 2108536 2071303 1892005 1740455
2686.38 1694380 1592858 1579223 1649733 1589394 1458477
2689.27 1454178 1494861 1613845 1721851 1794289 1910163
2692.16 1968622 1953208 1937083 1921549 1851982 1774919
2695.06 1708592 1596322 1507764 1364825 1133840 990340
2697.95 950123 862999 744906 596558 559976 527023
2700.84 408240 417179 399829 338873 342402 350058
2703.73 332055 309704 227691 216025 291320 314222
2706.63 277252 221111 181036 172697 237518 214992
2709.52 216870 229568 187039 170219 180582 143562
2712.41 89597 128193 185365 190118 207037 245627
2715.31 199670 119933 128020 246875 365667 371782
2718.20 363984 393897 400399 405240 486318 586326
2721.09 559027 525732 569348 577413 576045 564259
2723.98 598870 574601 485396 478150 503002 474762
2726.88 462900 447580 395509 375402 493217 726654
2729.77 801580 626943 457747 408842 422032 465629
2732.66 494568 490995 559729 551735 549497 663331
2735.55 663635 586767 559073 618670 667232 614554
2738.45 627311 634618 642950 551373 476698 539722
2741.34 605281 613493 598194 563890 507743 473455
2744.23 459146 506247 563897 587794 613892 629132
2747.12 623639 635687 662707 717610 716178 717644
2750.02 768721 831062 868141 994269 1129011 1212599
2752.91 1254667 1321172 1509386 1673481 1697286 1733155
2755.80 1891778 2090569 2290822 2441302 2519576 2574518
2758.70 2606428 2716489 2776453 2796948 2726554 2601757
2761.59 2557073 2575068 2533290 2371344 2125527 1970652
2764.48 2077795 2153776 2065955 1887347 1804495 1989689
2767.37 2220529 2418648 2604760 2659228 2727693 2779831
2770.27 2696795 2619612 2574075 2375164 2066837 1826684
2773.16 1688490 1464477 1259813 1121537 1012133 849806
2776.05 675808 556144 478344 449151 421035 318946
2778.94 220521 249714 259629 243990 259743 208580
2781.84 132029 145135 142004 158226 194711 193580
2784.73 195286 174908 135721 128009 124142 133920
2787.62 117690 141216 146945 153208 149375 134266
2790.52 130089 84586 114673 149223 110407 108649
2793.41 128366 143346 63468 65822 99946 59229
2796.30 13885-14636-28843-15069 104674 105178
2799.19 40371 26984 4132-24496-108532-41607
2802.09 91454 75946-654 43062 54401-55672
2804.98-109888-88220-43295 29370 41016 50471
2807.87 53497 63043 38007-50312-59070 14578
2810.76 40438-836-53840-59919 20864 88598
2813.66 61425 37143 6535 42285 7451 11152
2816.55 74474 92494 75886 61939 80783 103689
2819.44 101092 76077 131312 243074 249033 201413
2822.34 124326 116230 177884 192964 223478 274170
2825.23 298269 310278 289995 232577 222315 328174
2828.12 357222 335252 376844 444745 465382 526689
2831.01 532694 534427 569976 634604 680881 716448
2833.91 760116 776728 827252 917118 953258 936865
2836.80 1034515 1143281 1219631 1340462 1338886 1343325
2839.69 1472247 1587270 1665637 1726023 1757061 1841992
2842.58 1928835 2000818 2141014 2324222 2454566 2464117
2845.48 2550037 2643845 2815900 2964794 3062500 3156618
2848.37 3282276 3427669 3444081 3536561 3661405 3815875
2851.26 3925864 3984080 4054555 4117034 4107361 4157379
2854.16 4261405 4230610 4095663 3976188 3919259 3927681
2857.05 3907145 3917755 4154325 4326589 4283859 4162952
2859.94 4142633 4251024 4427033 4518810 4587674 4682015
2862.83 4865247 4996609 5071111 5161903 5310667 5246273
2865.73 5017311 5087989 5272925 5186102 5070767 5165771
2868.62 5176372 5017199 4908823 4971484 5041266 4992990
2871.51 4911452 4959593 5079085 5003144 4962956 5154146
2874.40 5365826 5357476 5272889 5391718 5514698 5480933
2877.30 5459310 5688242 6003218 6049109 6115880 6456045
2880.19 6863657 7113891 7451266 8104285 8868200 9400295
2883.08 9984713 11041662 12182365 12937990 13716220 14816027
2885.98 15808939 16346488 16886934 17694385 18212141 17951191
2888.87 17516796 17142908 16318155 15083189 13872894 13054910
2891.76 12415415 11475198 10615917 10373246 10725318 10801857
2894.65 11056411 12327721 13721462 15135022 16364326 16981995
2897.55 17247050 17429075 17383453 16920956 15980114 15289357
2900.44 14612232 13317619 12161479 11597321 10851355 9595008
2903.33 8774398 8393820 7546057 6666687 6306741 6084388
2906.22 5381473 4870625 4873323 4622941 4100204 3937484
2909.12 4008192 3778473 3472610 3563968 3591145 3382608
2912.01 3254911 3356126 3295918 3037182 3055533 3120958
2914.90 2941305 2833144 3007773 3072489 2785971 2589749
2917.80 2708787 2715332 2525110 2444765 2469554 2335875
2920.69 2242737 2208152 2191849 2181057 2126040 2096891
2923.58 2121694 2117090 2142149 2132222 2064937 2102493
2926.47 2207583 2223436 2304021 2328414 2296477 2376051
2929.37 2487312 2561146 2664915 2797014 2925676 3073923
2932.26 3242461 3450751 3721564 3928961 4173115 4414085
2935.15 4519404 4769962 5095741 5327751 5589252 6060186
2938.04 6574623 6870927 7131443 7549387 8044583 8386059
2940.94 8778512 9316288 9849685 10255558 10635484 11256247
2943.83 11889815 12388885 12937595 13598785 14272057 14987205
2946.72 15734886 16528188 17363784 18011457 18677680 19627902
2949.62 20766946 21620236 22345623 23369043 24496519 25652433
2952.51 26654697 27378659 28446063 29621027 30323085 31406113
2955.40 33071170 35177723 38915485 41517755 40031711 38032897
2958.29 36832130 36116455 36063462 35622041 34272853 32677512
2961.19 31188926 29642246 27924807 26813381 26836299 27831852
2964.08 29766165 32704554 35913690 38671670 40825156 43002697
2966.97 44999824 46075775 46677522 47861465 49223034 49510680
2969.86 49377076 50926937 52985654 52885097 52517900 54923733
2972.76 57856593 57245770 56830257 60329090 63294997 61949149
2975.65 61672547 64905509 66289098 64285183 63752942 64574702
2978.54 63651243 60784728 58538299 57318815 55349840 52708229
2981.44 52080877 52219962 51833722 49704286 48996417 52271647
2984.33 56098627 59893647 62734302 64142762 65012073 65388857
2987.22 65292235 64024777 62455940 61594015 59921395 56868270
2990.11 54872979 53922171 51770841 48938478 47426232 46741891
2993.01 44985353 42920405 42443131 42354491 40850935 39569734
2995.90 40081337 40339931 38880376 38157751 38809601 38461051
2998.79 36903625 36640137 37108516 36195975 34875813 34809467
3001.68 34861338 33835634 33090233 33212736 33072186 32032761
3004.58 31589257 31984934 32031131 31317948 31032927 31487834
3007.47 31400267 30775192 30794913 31272921 30896654 30666893
3010.36 32124405 34848384 35490380 33938148 31736981 29089846
3013.26 27101082 26204921 25550010 24509831 23931267 24287208
3016.15 24206570 23371289 22994557 22989899 22826985 22379338
3019.04 21890952 21660860 21492029 21043779 20495567 20219636
3021.93 20040721 19376163 18725579 18828882 18798232 17884525
3024.83 17105394 17360378 17443274 16564099 15919180 16178682
3027.72 16251942 15506079 15106555 15234026 15442762 15221430
3030.61 14944339 15525537 16398428 16564923 17063347 19074498
3033.50 21320238 20363463 17654842 15583125 14069846 12949586
3036.40 12396291 11894614 11340627 11281170 11503699 11101399
3039.29 10615210 10878855 11026034 10573107 10389193 10721600
3042.18 10641223 10140046 10117438 10251696 10021033 9749145
3045.08 9779280 9802699 9593713 9359202 9231944 9027812
3047.97 8781587 8662931 8569998 8350654 8147955 8039355
3050.86 7953858 7675179 7439442 7374821 7255249 6951959
3053.75 6659156 6646838 6639071 6325053 6017416 5957810
3056.65 5933344 5750189 5573850 5473229 5341471 5055747
3059.54 4837812 4761798 4641655 4459737 4356002 4219347
3062.43 4002929 3823598 3777507 3770330 3615608 3395243
3065.32 3235941 3225418 3216847 2941430 2774277 2859582
3068.22 2893594 2728987 2652446 2586929 2452587 2361221
3071.11 2293690 2208570 2121138 1954449 1917808 1930433
3074.00 1848989 1742622 1679867 1643252 1579896 1456579
3076.90 1345258 1334814 1323061 1313532 1343371 1280714
3079.79 1288188 1233397 1136730 1043380 1014726 1053922
3082.68 1063328 1027321 982449 1005294 1004493 965634
3085.57 953458 942597 884734 893853 884791 838149
3088.47 789721 738322 766498 771415 795318 779816
3091.36 715586 754608 771242 715363 718714 745253
3094.25 794725 795637 770370 718998 688552 737898
3097.14 697906 670558 651282 575176 591403 633353
3100.04 680981 672534 590376 652393 754044 812753
3102.93 785568 697282 668288 664089 627820 646126
3105.82 632050 660702 678441 650648 615304 584876
3108.72 573336 614516 600282 552304 559656 603260
3111.61 694794 643795 573137 554971 524949 565169
3114.50 626499 533904 485657 582577 606513 562925
3117.39 480923 441580 442532 483883 437422 446817
3120.29 515907 514810 439028 452112 476346 432454
3123.18 356564 310681 314972 356665 410323 425533
3126.07 379745 357576 365914 307582 307882 341662
3128.96 374053 341512 263040 281259 306692 201817
3131.86 153976 169391 109412 37628 106228 119454
3134.75 60669 141144 190518 132325 74705 25791
3137.64 87509 169525 151235 118788 157676 173292
3140.54 71609 57033 96481 111728 103031 61660
3143.43 97624 92081 98149 72991-28633-59267
3146.32-105026-13976 110718 61068 72453 82241
3149.21-22416-123867-109195-3537 21435 112206
3152.11 105795-5616-6304 61692 60699 4774
3155.00 7480 17087 3164-52524-132833-64687
3157.89-19614-57591-48164-6456-31505-57265
3160.78-44808 24244 112688 90164-41268-113909
3163.68-119038-70805 55831 66827-46917-107930
3166.57-1165-7950-50953-31672-34453-14651
3169.46-84075-119912-25120 28713 21250 35311
3172.36 16649 75452 127925 57473 64378 100125
3175.25 90301-42016-76909 76283 156227 37442
3178.14-89001-25234 115545 112750 9154 8204
3181.03 102599 161511 175003 97908-57879-17272
3183.93 87443 118756 70660 79542 188241 265043
3186.82 165022 111227 68955 58498 97404 62243
3189.71 89155 170251 212162 157665 65552 48952
3192.60 105593 109345 155431 273918 302515 310880
3195.50 317479 229984 136519 231359 249791 148928
3198.39 152321 236663 254313 251171 275039 266706
3201.28 180342 168275 223508 295320 243404 208865
3204.18 175200 220985 276171 237841 248060 289816
3207.07 217345 220000 288471 347546 294960 262211
3209.96 268489 197971 215843 251693 223331 157575
3212.85 67544 134567 225319 289374 343701 191118
3215.75 103209 170649 274945 248386 184432 217804
3218.64 230642 212468 145341 132988 159032 58974
3221.53 85054 194711 235390 199534 88845 47821
3224.42 79806 48725 27246 66021 180545 192459
3227.32 109604 128200 100564-53145-82127 65194
3230.21 177504 190284 114220 65983 80730 103634
3233.10 55638 17080 80721 161326 139605 19282
3236.00-56004-36617-32771-30494-52523-20353
3238.89 32461 105591 103761 44659 6674 50876
3241.78 26330-28299-7732 65671-4065-74493
3244.67-22108 9010 26834 48048 47052 35497
3247.57 78052 62167 39638 106482 66804 58009
3250.46 61060 62287 86691 14506-157204-179930
3253.35-77557 14941 138550 186366 143060 175010
3256.24 193936 92291 68324 75054 58980 161905
3259.14 179564 59536 67647 125065 161294 147087
3262.03 129944 140232 190788 191264 164485 100358
3264.92-4334 63929 194411 155153 101539 175596
3267.82 229829 209259 217714 237907 220645 175777
3270.71 219348 155811 151304 156720 141127 201480
3273.60 140813 115366 68672 138331 199084 127808
3276.49 165506 146388 131708 150854 174451 212899
3279.39 198297 110951 82071 105736 121027 124895
3282.28 84592 2431-1582-15601 2266 103199
3285.17 90955 69315 107931 91118-1089 43330
3288.06 54298-15167-59735-63101-51236-12750
3290.96 88112 77408 103173 71318-87053-112178
3293.85-67322-46125 13272-19855-10760 87929
3296.74 93853 46316-11755-96422-106182-7674
3299.64-5218-28152-96962-112384-32139-2033
3302.53-67756-123907-78764-50800-75895-102905
3305.42-143305-82022-83562-89994-50594-10778
3308.31-15200-24083-64447-102896-20158 35496
3311.21-18321-16302-34628-74268-69545-55836
3314.10-55203-135072-212826-168613 27719 12492
3316.99-138631-170073-166685-127834-110775-86363
3319.88-66634-65052 31634 107888 49093-77930
3322.78-87645-66221-104453-7886 30214-150005
3325.67-194044-84772 58409 16382-41669 52492
3328.56-5127-103987-108341-107551-134480-54512
3331.46-7485-14295-13014 10633-9917-72824
3334.35-101109-95929-102151-39806-15080-125
3337.24 27785 55882 33586 13618-35502-75643
3340.13-22423-81411-64118-49426-31964-12761
3343.03-62176-54171 4986 65346 72832-4585
3345.92-101611-52234-195 51580 80283-40119
3348.81-99260-94478-51079 12264-28887-95787
3351.70-88705-55588-51525-10959 71603 12579
3354.60-32959-98804-80750-75596-103020-53986
3357.49-48434-58097-60655 4866 81587 83852
3360.38 19179-25768-76651-130823-80602-1080
3363.28-28506-15731-95669-147920-66408 63343
3366.17 17098-94382-84246 22977 68575-80286
3369.06-80939-3620 44070 84924 53893-8010
3371.95-17678 69102 101475 135042 60204 3701
3374.85 40404 80133 72732-4260-74620-39498
3377.74 74724 136024 54267 9800 90875 52571
3380.63-941-20938-115559-79046 62285-16620
3383.52-181077-132026-42388-53226-154259-241535
3386.42-109852 64468 21071-42870-29023 109962
3389.31 40901 10294 40758-10645-36052-35521
3392.20-19797 14680-19267-56086-98377-101589
3395.10-105142-77767-23210 36986 69869 82163
3397.99 137286 214491 129113 62935 61725 85874
3400.88 134178 259715 260427 140860 104543 148413
3403.77 167327 244479 242537 179023 150512 168058
3406.67 146449 157415 130436 151243 203500 171896
3409.56 229638 216691 162801 188198 219258 174245
3412.45 208055 207885 190443 148270 119284 80907
3415.34 81932 166997 216801 301932 298795 212164
3418.24 198921 147855 95390 19775 62845 95212
3421.13-11686 18409 55802 67552-41512-57034
3424.02-51082-51272 18723 166055 114069-48609
3426.92-85260-73010-95568-110610-143482-52843
3429.81-14319 12267 9878 90931 61917-44517
3432.70-83317-113028-51965-6610-68013-45159
3435.59 29413 48421 46381 60284 37011 53694
3438.49 119421-26719-147612-58475-55877-147589
3441.38-168634-136631-48193 17915 17823-39391
3444.27-72930-3138-12753-139394-204492-215091
3447.16-108765-7250 52308 20803-53777-126929
3450.06-124002-5928 56539 14755 44319 130675
3452.95 72786-88351-152298-9969 66680 11869
3455.84-70300-18816 62653-13126-172431-91449
3458.74-19051-40425-14386 30352 60222 81946
3461.63 4163 10161 113902 31561-94232-41425
3464.52-45597-84332-15423 45332-41447 1017
3467.41 102266 60022 25611 65339-18844-71901
3470.31-20627 35074 26664-3663-2001-72730
3473.20-119264 2693 63944-24975-102490-14469
3476.09-1862 5664 128099 167022 129686 36496
3478.98 37058 30268-42687-44228-50679-3811
3481.88 100160 213416 127147 7471-111540-45203
3484.77 46188 8942 11968 65534 65636-58584
3487.66-103512-11347 30879 6034-119836-27231
3490.56 33969-102220-167746-122973-15590 30502
3493.45-5937-102087-106703 206 138826 131782
3496.34-23103-50454-3706 65372 77898-42871
3499.23-84284-79695-124388-251340-210423-48941
3502.13-83366-204330-108963 40300 47532-31939
3505.02-28605-100736-136260-98744-11841-62642
3507.91-126977-158095-117199-145214-220282-182038
3510.80-118673-40086-113196-147990-117237-56264
3513.70 15239 74750 65045-21008-24002-50249
3516.59-106627-151518-244449-197925-116340-90856
3519.48-45763-15826-8137-40969-118002-108892
3522.38-71272-116501-239237-202769-158448-163641
3525.27-49522 18633-40870-53738-22323-65779
3528.16-105924-94802-11475-14854-42190-43411
3531.05-22185-71954-72508-32685-101717-86102
3533.95-139139-73409 23331-13320-80537-108615
3536.84-44531-7327 7465-35613-48625-93274
3539.73-90033-9059 28287 28449 124055 98467
3542.62-54816-94775-145458-96883-147390-178462
3545.52-97222-162225-165327-77569-70389-90476
3548.41-98071-102939-150910-104595-54194-54162
3551.30-39902-20050-53261-45674 70744-7857
3554.20-129755-107952-15001 20012-88456-92366
3557.09 16153-19388-120016-142202-235028-244745
3559.98-85022 34664 22655-31988-79698-84133
3562.87-71411-103842-186206-202555-142273-104618
3565.77-125669-229349-160406-217955-202530-122484
3568.66-156602-157624-209381-169619-106289-134416
3571.55-179473-144534-108868-72662-86547-107449
3574.44-16498 52065-50811-89309-117994-114533
3577.34-129271-77895-114454-125562-125110-167329
3580.23-132659-140135-276701-145688-27103-92017
3583.12-126405-83972-75972-68318-106548-207857
3586.02-226963-140209-95268-112454-251943-295410
3588.91-202253-133643-64844-75197-63352-36457
3591.80-150053-176282-222587-236652-146327-138368
3594.69-137104-37665 18284-37174-51276-48101
3597.59 1670 30293-22072-73640-132325-191460
3600.48-133466-39494 1087 9323 14729-25803
3603.37 4105-45901-116141-123310-85521-45538
3606.26-34837-12135 108793 150413-23652-303246
3609.16-166431-15399-54524-32135 5585-4223
3612.05-73887 14754 110448 35651 3976 17879
3614.94 90888 123068 99558 182561 82462-72829
3617.84 25284 74899-204823-249782 7116 75035
3620.73 146472 177877 143419 74876 82729 148878
3623.62 214035 256813 263227 230765 130354 71150
3626.51 152755 190266-57319-267674-126315-264106
3629.41-119746 64206-25415 58521 136637 138630
3632.30 116798 30812-24470 58549 176784 196207
3635.19 237044 243417 255386 287340 237366 242193
3638.08 296155 345085 301080 220315 207382 315202
3640.98 399817 282080 145719 140013 188511 244966
3643.87 280364 290759 287450 257382 150210 101770
3646.76 49305 121900 249681 150252-208674-62221
3649.66 162765 52195 53837 163883 282051 278284
3652.55 254878 346079 402852 402465 438672 383179
3655.44 104997 24143 344349 502417 411870 372069
3658.33 382608 357981 343946 345551 400161 382410
3661.23 380882 381178 391477 379827 317352 305599
3664.12 312255 288215 367331 449364 424613 471497
3667.01 466371 266801 96083 250171 465730 388128
3669.90-62762-213554 252927 380467 403624 390350
3672.80 406952 383958 312430 183086 166417-79407
3675.69-229708 130576 311626 313746 330650 360170
3678.58 290234 242147 355364 380663 348508 369362
3681.48 361661 398859 479736 454067 394653 326039
3684.37 315668 305316 404415 371093 288666 303133
3687.26 167778-292177-289705 96562 206751 161710
3690.15 15600-62722 35771 124964 99590 124651
3693.05 174871 182739 160823 238702 248142 187442
3695.94 161022 230168 305458 287082 291122 347263
3698.83 254316 227138 267504 278429 209997 81354
3701.72 51915 141351 205775 276621 275649 262615
3704.62 253875 301719 273580 226102 254160 266988
3707.51 242409 248781 91149-20027 214258 309337
3710.40 207373 73542-198306-223673 152064 303457
3713.30 276231 265612 298993 305195 316416 306686
3716.19 217048 207264 243627 211831 190576 193548
3719.08 248527 196641 144104 220957 253645 164330
3721.97 89276 167475 276797 342885 333786 273856
3724.87 248444 290020 252733 243147 319850 306726
3727.76 334129 406399 376419 329958 328380 392384
3730.65 366273 183485-326 251363 465254 482190
3733.54 417577 246008 277756 438856 489464 224658
3736.44 202194 551885 627793 617172 717196 783830
3739.33 772159 787925 763948 742478 858069 904393
3742.22 955520 917210 714197 253905-27339 506726
3745.12 1039987 1074764 1143190 1241259 1269574 1198482
3748.01 1106035 646194 370607 914328 1226169 1178045
3750.90 1128622 670292 450613 1084149 1443975 1508442
3753.79 1559686 1512725 1350528 1268708 1314841 1321599
3756.69 1348957 1377494 1407489 1367282 1268785 1186537
3759.58 1174887 1305060 1404668 1425014 1301377 1264284
3762.47 1328543 1290156 1250767 1281884 1309793 1169177
3765.36 1063821 1163753 1171507 1179506 1154229 1107745
3768.26 1112881 1123996 976899 1065221 1199894 1135624
3771.15 1081470 1075117 1171797 1281260 1283783 1255863
3774.04 1275772 1354860 1386230 1302295 1289217 1276669
3776.94 1171924 1154832 1190284 1115415 1038336 999181
3779.83 1083386 1061238 1066279 1166559 1198955 1130247
3782.72 1138329 1172903 1114675 1051996 1103973 1089390
3785.61 1040896 1074845 1088313 983538 1009185 1098435
3788.51 1052665 988372 863496 801569 863173 938926
3791.40 964182 959915 907070 822573 694517 681062
3794.29 723860 687818 707732 503236 415869 526441
3797.18 492269 510545 630254 706290 589206 463427
3800.08 476813 154889 14927 536211 811840 874948
3802.97 969151 952169 908840 902817 762949 671818
3805.86 496484 75481 123083 541437 606442 498161
3808.76 530138 673748 657650 566700 500236 538834
3811.65 529544 486768 575079 658899 712788 754601
3814.54 651538 363287-79069 164218 545792 545938
3817.43 550753 599496 642807 566828 446953 264493
3820.33 174100 153514 121597 301582 473575 482673
3823.22 404978 482112 582729 510703 509238 471020
3826.11 450668 488593 527771 465025 399488 332580
3829.00 355972 396583 362109 311770 254545 320094
3831.90 410251 357404 281518 289709 307028 132383
3834.79 70913 182118 307433 351058 109569-519534
3837.68-394674 210233 314149 253107 240937 290362
3840.58 251353 286849 284017 197120 149563 140109
3843.47 164538 273356 295964 279703 247931 268732
3846.36 351886 382337 415370 379951 262218 225271
3849.25 199276 202369 249959 242133-127040-397327
3852.15-92852 69295-312424-895603-632248-59376
3855.04 95746 204553 209225 120423 80082 91877
3857.93 90937 135573 153854 145007 176047 114866
3860.82 19162-69522 43394 69974-37123-28786
3863.72-5729-76078-197362-51693 27122 57507
3866.61 80886 94090 49877 20095-40680-114972
3869.50-387559-308743-55129-36931 880 53081
3872.40 47729-38682-122671-151131-94955 54947
3875.29 173638 132012-12756 29864 65164-690
3878.18 37335 93812-80686-183094-61743 39509
3881.07 46626 47690 103861 99497 90088 160710
3883.97 119139-14002-252485-254970 23121 194585
3886.86 240098 201564 44930-8692 33923 133187
3889.75 160865-2022-147020-80223 28848 74697
3892.64 156104 137044 121362 172638 234100 122771
3895.54 92228 146433 118237 98913 157104 140540
3898.43-11030-207486-128862 137575 205551 47151
3901.32-145954-6293 86260-6378-137295-208417
3904.22-94842 143 29292 35864 113341 107839
3907.11 72985 68509 152168 141123 82329 117336
3910.00 170366 94248-53140-55579-82334-82758
3912.89-8651-21125-10851 29920 65638 143830
3915.79 53928-101386-178901-85692 66975 144332
3918.68 94613-1208-13549 12101-16473-25288
3921.57-33752-24522-27221 47193 54370 28325
3924.46 16959 12008 54368 79517 27407 81918
3927.36 53761-5665 45424 77741 60740 93163
3930.25 75257 61879 96379 95054 124755 83135
3933.14 19671 87142 44985 98235 172072 164989
3936.04 142963 66872 111231 211754 224728 223136
3938.93 209964 212053 219877 297695 300000 248861
3941.82 147189 59479 83889 171301 172974 247051
3944.71 320577 276364 223342 204101 188376 269426
3947.61 327430 224189 143388 206630 256299 308778
3950.50 274821 175893 216410 291020 318660 375855
3953.39 388817 391637 400507 450799 441248 469820
3956.28 450573 377014 362292 388479 284245 257945
3959.18 316990 341986 360969 377812 411285 406625
3962.07 370691 403770 458449 445494 486608 538067
3964.96 446628 386342 401261 317372 266513 305728
3967.86 313821 265567 229086 295358 464515 517763
3970.75 435338 420073 485550 394725 256077 285151
3973.64 353053 424218
##END=
