##TITLE=1,2-Dichloroethane
##JCAMP-DX=4.24
##DATA TYPE=INFRARED SPECTRUM
##CLASS=IUPAC A
##ORIGIN=NIST, Analytical Chemistry Division, 301-975-3108
##OWNER=COPYRIGHT (C) 2001 by the U.S. Secretary of Commerce
##DATE=01/06/01
##$SPECTRA VERSION=1.10
##$UNCERTAINTY IN Y=2.1 % relative (B=1.10E-04,C=7.45E-10,D=1.46E-14)
##CAS NAME=1,2-Dichloroethane
##CAS REGISTRY NO=107-06-2
##MOLFORM=Cl C H2 C H2 Cl
##MP=-35.36 C
##BP=83.47 C
##$NIST SOURCE=QUANT-IR
##SPECTROMETER/DATA SYSTEM=IFS66V (Bruker)
##INSTRUMENT PARAMETERS=KBr Beam Splitter; MCT Detector; Multipass cell
##STATE=gas
##SAMPLE DESCRIPTION=1,2-Dichloroethane Primary Gas Standard
##PRESSURE=101.3 Pa
##TEMPERATURE=23 C
##SAMPLING PROCEDURE=1 L/min Flow
##RESOLUTION=1.9290
##DATA PROCESSING=Boxcar Apodization
##XUNITS=cm-1
##YUNITS=(micromol/mol)-1m-1 (base 10)
##XFACTOR=1.0
##YFACTOR=9.0949E-13
##DELTAX=0.9645
##FIRSTX=575.652
##LASTX=3974.605
##FIRSTY=2.82E-07
##MAXX=3973.64
##MINX=575.65
##MAXY=.0005842
##MINY=-1.24E-06
##NPOINTS=3526
##XYDATA=(X++(Y..Y))
575.65 310935 1349646 912896 844087 1352127 537536
580.47 175438 316182 772776 765180-14878 875293
586.26 173972 568147-25272 104936 613894 542381
592.04 890564 10222 333414-232324 290547 2493
597.83 48882 318448-302023 79532-142346-414208
603.62 206269-51709 64580 55208 56305-426379
609.40-299640 378451-136190-482859 479319 87495
615.19 78069 153928-19606-156653 135710-311975
620.97-97729-48581 345752 330640 6021 185686
626.76 543236 587798 398660 553604 707998 526824
632.54 1031373 680504 836086 982475 1467994 1250549
638.33 1529330 2140583 2061485 2548578 3037778 3165220
644.11 3819921 3793284 4767227 4753606 5934436 6395240
649.90 7310888 7934374 9047585 9357722 10495433 11132208
655.68 12755345 13461790 14708436 15364388 16597997 16585230
661.47 17538915 17175320 17611809 16364536 16416206 14172111
667.25 14218138 15462611 16589487 17489031 20321103 21896240
673.04 24332191 24883013 25332461 25303966 27376260 27811489
678.83 29879553 30968317 34072169 36051642 40073421 41494583
684.61 45009738 43933511 45308310 41935698 43787076 33709375
690.40 46253190 38264907 42760192 53324964 30264289 34232042
696.18 34730713 42749067 43763101 47131025 44713268 44817113
701.97 42156699 43101383 42966292 47738369 52659556 62963749
707.75 74607062 92035672 111511158 136928522 166478649 202018699
713.54 240624268 286920194 334201567 387584306 440228908 491231782
719.32 534465198 572330021 598495240 609253136 611647980 597727380
725.11 591524005 569343518 572832090 583616436 574099471 642385181
730.89 625920045 618488293 613258993 548947085 458676063 348463691
736.68 244792528 153760757 87952192 43797674 21141988 10075897
742.47 7824992 6902147 7242885 6718892 7055461 6803238
748.25 7062875 6820724 7132575 6950748 7291104 7000953
754.04 7471939 7341303 7653594 7548788 7555467 7599367
759.82 7719377 7347560 7836216 7846254 8057797 7926337
765.61 8416317 7492090 7643006 7412600 8024872 8861967
771.39 9999607 7635914 6844353 6761322 6433157 6299285
777.18 5927679 5709685 5666185 5780259 5397806 5354737
782.96 5095931 5359250 5189285 5118340 4673998 4536281
788.75 4456034 4186234 4045410 3903465 3659801 3549961
794.53 3549365 3380632 3221193 2912546 2761168 2963028
800.32 2420133 2412688 2343791 2355274 2069247 2161144
806.11 2024824 2003384 1889167 1937751 1715859 1951009
811.89 1717040 1569403 1550305 1644705 1579600 1640974
817.68 1712220 1710445 1647539 1823028 2057205 1942864
823.46 2032630 1899759 2283485 2238368 2446777 2333703
829.25 2402880 2362413 2500884 2205290 2236761 2041769
835.03 2144365 2007887 1966089 1838720 1798903 1950579
840.82 1927198 1816028 1470632 1257388 1188471 1139048
846.60 856404 683239 747525 573692 771145 585482
852.39 679669 548550 811767 728876 957607 896814
858.17 647630 807539 1041940 903243 1269128 1273284
863.96 1324058 1442536 1798039 2118879 2253411 2453248
869.75 2757216 3267567 3918461 4620567 5632779 6937342
875.53 8724099 10526275 12861479 14681381 17415486 19619563
881.32 22110205 23297305 25025262 25342071 23600048 21635911
887.10 22496383 24577096 28795352 24626545 17565637 17849815
892.89 19133990 21831956 23280369 23957706 23018172 21568004
898.67 19290167 16868699 14236220 12044380 9696871 7877660
904.46 6408997 5428794 4449120 3766942 3064856 2933383
910.24 2671465 2465226 2252864 2153414 1911154 2154828
916.03 1866209 1953730 1996586 2213013 2277437 2301977
921.81 2629878 2936766 3037701 3287382 3698399 4136245
927.60 4521548 5081800 5381511 5904452 6345439 7023580
933.39 7520518 8062251 8561990 9062188 9479567 9965566
939.17 10132192 10246735 10250141 10084509 9758167 9311055
944.96 8897166 8199128 8194285 8474758 9220300 10293320
950.74 10674295 11030197 10549147 10376210 10070140 9653321
956.53 9098566 8163292 7420415 6770897 6004204 5410135
962.31 4971145 4583975 4135454 3788922 3584007 3237301
968.10 2943488 2845984 2422630 2360634 2306103 2039287
973.88 1931239 1984311 1898378 2101874 2270518 2425158
979.67 2644391 2678774 2909508 2838401 3083346 3164034
985.45 3026345 3016479 3074498 3286923 3338213 3465785
991.24 3735773 3698959 3663695 3562326 3312492 3120652
997.03 2839505 2596501 2397836 2271936 1946823 1761422
1002.81 1799193 1717794 1774378 1764371 1720294 1869691
1008.60 1923168 2123926 2243668 2489517 2554830 2666015
1014.38 3041885 3443068 3551564 3806451 4010154 4174317
1020.17 4310926 4687247 4874087 4702611 5096595 5043705
1025.95 5292661 5059411 5018180 4725694 4489967 4197124
1031.74 3843488 3816341 3732352 3273321 2798589 2635433
1037.52 2233751 1927548 1667682 1587239 1436948 1259125
1043.31 1219602 1122392 980203 817487 823117 775482
1049.09 609339 631052 619151 377143 397660 342435
1054.88 328676 187208 217863 210538 338652 173300
1060.67 176837 20483 138440 101734 98074 147249
1066.45 48121 87490 155231 50089 105809 140833
1072.24 75798 70379 112407 156223 186074 278045
1078.02 342879 285577 352310 443052 451733 539511
1083.81 471134 563756 640482 552693 753040 768978
1089.59 937007 999116 892718 993361 1313257 1274144
1095.38 1147957 1314024 1461780 1485519 1608348 1723038
1101.16 1726261 1845287 1898326 2061733 2112424 2194055
1106.95 2279300 2240533 2513544 2424976 2516758 2533704
1112.73 2640228 2672799 2648881 2629136 2616028 2844984
1118.52 2765024 2881918 3403723 5631356 5004332 4253539
1124.31 3364320 3218204 2952226 3236539 3045399 3280495
1130.09 3137404 3363026 3162970 3270104 3446614 3414291
1135.88 3222241 3327740 3244709 3241911 3035075 2937303
1141.66 3059819 3005465 2879782 3348264 3497739 2569443
1147.45 2863199 2673357 2878454 2472928 2548458 2316460
1153.23 2278705 2084029 2293011 1991086 2093073 1999905
1159.02 2016634 1680850 1725409 1482823 1596553 1314665
1164.80 1412049 1129339 1348932 1024777 1088808 894256
1170.59 1073783 745441 969220 791294 1087884 805310
1176.37 1051487 743176 894732 795037 1087473 875044
1182.16 1202638 1009858 1350582 1184810 1505407 1360898
1187.95 1691502 1580622 2069452 2033555 2455663 2350867
1193.73 2826192 2688359 3128046 3179874 3796509 3723490
1199.52 4274208 4384276 4932090 5066934 5470492 5823191
1205.30 6410791 6512505 7192084 7338289 8349241 8261118
1211.09 9682454 9775006 11930153 12634606 16218625 18249284
1216.87 24438519 29954219 40824504 51652471 69802304 87313372
1222.66 112288647 133872750 159581971 175166460 188738278 184786342
1228.44 176558428 141138975 137274139 144262034 126598274 148332313
1234.23 165556842 189467891 198385920 203041870 188471584 169911522
1240.01 141259123 115634434 88162307 67989267 49153079 37690097
1245.80 27113344 22252321 16483777 15606941 11989510 12505066
1251.59 10390157 10639441 9379422 9469872 8451145 8790312
1257.37 7665555 7825701 7083366 7216248 6375707 6791347
1263.16 5798627 6244430 5448490 5690115 5197456 5541058
1268.94 4983908 5692300 5397630 6406697 6614692 8136070
1274.73 9303124 11874674 14339367 18467114 22476516 27872015
1280.51 32864722 38723877 43133702 47237916 48283274 48540433
1286.30 45468413 40380698 34297969 32323673 50423774 79616704
1292.08 28233953 22659713 33973321 43299296 50986827 54145670
1297.87 53516287 50107922 44789479 39205425 33438267 28604446
1303.65 24153769 21163242 18306972 16648387 15076686 13995575
1309.44 12852292 11983144 10677409 10347090 10293621 11534780
1315.23 12892828 14221783 14414740 14517650 13809913 13080146
1321.01 12250054 11662668 10795312 10469234 9700986 9462580
1326.80 8849654 8623663 7977194 7651893 7101776 6841383
1332.58 6192561 5941861 5495198 5323299 4753604 4798643
1338.37 4192799 4376595 3975279 4077993 3633994 3831157
1344.15 3432134 3598507 3287965 3401900 3060109 3259782
1349.94 2921082 2960922 2744904 3226887 3089137 3344117
1355.72 3195474 3196856 2786341 3100885 2831336 2863215
1361.51 2549866 2770317 2424879 2498729 2298789 2631931
1367.29 2089232 2208950 1842489 1900561 1420566 1510957
1373.08 1244838 1657664 1193457 1598626 1322233 1462708
1378.87 1271935 1443461 1041365 1373926 1095564 1340895
1384.65 1046110 1156365 676484 1204163 991051 1225963
1390.44 732115 1145684 774861 894919 599351 1045456
1396.22 739159 1078524 652258 1189078 1018596 1282890
1402.01 1041174 1456757 1124980 1756591 1331875 1984280
1407.79 1753211 2475168 2121291 2845856 2716137 3406877
1413.58 3155920 4108104 3875256 4821832 4652138 5514057
1419.36 5945043 7429342 7621969 9294711 9552918 11830305
1425.15 12435574 14801539 15265891 17570227 17441790 19633807
1430.93 18818473 20520192 18299807 22397109 21221384 39071924
1436.72 26378871 18054028 25528607 25391145 27463661 27520085
1442.51 28745251 28313039 28958493 28497632 28650869 28663906
1448.29 29877780 31607437 33200832 35685878 36865012 38783712
1454.08 37866098 36493107 32088186 28056064 23664640 22176880
1459.86 19572545 26918313 32933651 35583469 36369192 34726652
1465.65 33948597 29384915 28047205 23324937 22386892 18539398
1471.43 18185544 15514745 15993446 14098166 14282485 12896882
1477.22 13297343 11874042 12169981 10863502 10948547 9840746
1483.00 9845750 8829815 8881600 7743820 7627973 6866969
1488.79 6603971 5832793 5883815 5219829 5048811 4410632
1494.57 4166550 3120471 3848708 2746155 3010530 2559756
1500.36 2517376 2049353 2091904 1693007 1296923 772350
1506.15 727778 861363 1282611 963040 1161361 783605
1511.93 1138790 1090642 1293615 1267311 1519143 1540711
1517.72 2169257 2012838 2030805 1855433 2291942 2216719
1523.50 2450348 2002557 2665813 2510558 3009832 2836125
1529.29 3238374 2941599 2999286 2542192 2553197 2444618
1535.07 2333861 2037275 1999533 917802 1063875 1092217
1540.86 901741 842102 1216240 551575 788469 731379
1546.64 824806 549537 496504 323902 537866 248077
1552.43 418205-214611 365285 160044 240084-855509
1558.21-204657-649761 235807 170054 287804 194634
1564.00 194628 144866 314348 168545 232008-185508
1569.79 329442 137010 390815 84307 452309-336603
1575.57-447003 266440 258001 290195 274814 204401
1581.36 267751 199308 286340 191166 158381 101718
1587.14 116323 89109 150171 19450 156216 16784
1592.93 43186-110991 121889-11169 31593-95840
1598.71 91543-76824 55665-68177-45008-60444
1604.50 56800-90570 45728-54340-349-53981
1610.28 120979-102676 238182-77102 168018-413652
1616.07-683138 125872-60800 43668-39817 79866
1621.85-44924-326521 71039-44352-33276-281817
1627.64-4655-38011 22103-76434 7359-81863
1633.43-120876-914061-278848-145860-164592-8925
1639.21-47931 25982-119252-101628 30466-172965
1645.00-596351-223043-245119-116200-72335-25384
1650.78-411582-1369762-848080-294452-140781-54204
1656.57 8027-8954-9030-20008 115190-223625
1662.35-142283 60000 13366 94496 40206 172228
1668.14-377147 43066 80629 104490 228460 264770
1673.92-104154-136870 299527 201374 329652 151912
1679.71 263737 223887 158321 59250-676077-260864
1685.49 459558 97420 348454 118203 239502 110678
1691.28 290825 69011 427264-335504-773664 266554
1697.07 75622 159416-799328-456305 174531 87691
1702.85 88829-49394 119884-98159 238020 97262
1708.64 197292 68993 271038 133062 183537-49074
1714.42-8355 126786-536269-146609 110721 151214
1720.21 189451 124041 144482 140590 242215 135108
1725.99 187816 127929 167898-9091 72854 108137
1731.78-135268-529397-449898-37289 77817-47603
1737.56 75923-317930-192900 35578-15139-78036
1743.35-1629-5124-46609-18180-39385-144329
1749.13 108347-420451-33116 123574 94597 37927
1754.92 69974-120493 51105 48883 195159-3564
1760.71-152628-26497 112172 21620 201146 99974
1766.49 39854-146471 159486-27434 60224-350329
1772.28-228817 167899 61542 83976 153807 66610
1778.06 71808 107815 63176 95332 204986 111823
1783.85 32425 77782 170824 145182 75651 117335
1789.63 18534 4135-245128-42074 75817-48701
1795.42 70990-104646 48960-160873-58832-158359
1801.20-25376-125100-29227-148156 41813-87137
1806.99-39119-96441-57317-111965 19788-138234
1812.77-17775-110975 84566-87310 4908-55322
1818.56-24984 26166-5279-29819 97263-41564
1824.35-127617 30741-14143 3849-24834-187463
1830.13 42595 35517 10538-9813 125753-5774
1835.92 41384-13695 69848-60482 61392-50218
1841.70 87167-184875-193033 86007 79527 27531
1847.49 135764 73565 108935 17663-45207-10254
1853.27 15697 10800-46053-70599 54224-619
1859.06 82676 4831 61534 2938-38211-50356
1864.84 9213-62418-47912-106035-105618-17368
1870.63 41132-73190-5921 21238-25380 58312
1876.41 73190 19511 10714 22697 59465-93199
1882.20 52984-54924 102561 45494 7840 74436
1887.99 14311-7448 131267 85352 158641 34112
1893.77 74468 102420 119470 41342 118058 94369
1899.56 203033 97948 87398 45145 94979 45503
1905.34 74999 37055 59226 57864 5946-19354
1911.13-35470 12074 33545-50096 9979-73001
1916.91-138897-79340 38473-38245-19942-124944
1922.70-82140-81572-56678-162192 5231-85935
1928.48 39294-71380-18413-132366 34093-70796
1934.27-23791-96620-17114-88213-11995-63122
1940.05-51028-109741-81063-121425-54539-70388
1945.84-33695-31472-17685-100928-10399-97432
1951.63-25247-106255 10838-138170-51565-72039
1957.41-75144-48161-23247-65347-67212-45880
1963.20-14955-60716-56201-76727-33118-1829
1968.98 14994-3805 67895-94872 17695-14000
1974.77 74470 27896-22613-42992 85671-16235
1980.55 93212-24729 53424 63700 20838-47575
1986.34 59866 32939 41555 44085 135404 29634
1992.12 111849 60270 66015 61758 160479-12614
1997.91 30988 9312 90205 83526 144329 33670
2003.69 154195 127035 195064 111836 152918 107232
2009.48 236185 176109 346801 304763 423156 361766
2015.27 518105 569602 748475 785735 888200 1003177
2021.05 1265713 1321970 1578115 1612334 1843616 1892943
2026.84 2103216 1979770 2204819 2172851 2245659 2279140
2032.62 2267503 2334034 2232901 2117652 2214050 2012462
2038.41 1948746 1704924 1685036 1469893 1360475 1118375
2044.19 962864 787067 713521 553532 424122 396125
2049.98 286353 293350 310463 205464 267190 157927
2055.76 246864 188158 159774 133692 185439 131936
2061.55 100043 90923 102039 77141 124846 96852
2067.33 47569 53791 56386 7150 86772 39304
2073.12 113332 40822 91943 1213 62907 23244
2078.91 69777 53775 57674 45399 94932 26327
2084.69 126190 63540 107316 58538 116680 111981
2090.48 186147 65319 175106 181148 240266 131407
2096.26 281719 284038 319952 243175 365859 241378
2102.05 413167 328585 410767 328222 396924 344955
2107.83 411823 440973 337758 387321 403032 452012
2113.62 442848 517898 514177 373625 470602 356546
2119.40 326652 279768 316147 311688 292699 266074
2125.19 273128 233164 289272 218364 315722 297121
2130.97 440830 274561 274066 172610 201967 156258
2136.76 215501 123492 221703 202526 198767 57045
2142.55 160879 113195 249438 149925 105636 141641
2148.33 144038 78064 129244 73932 109708 49260
2154.12 132360 69072 106636 39233 116376 56370
2159.90 104035 105941 126495 92834 204594 129823
2165.69 226605 187441 189788 189590 239557 315229
2171.47 329513 354642 382385 370099 523892 457414
2177.26 479630 512861 532220 474478 606028 514391
2183.04 678569 639656 756472 819396 894340 846201
2188.83 964835 922659 956462 890723 993026 919811
2194.61 1077938 943844 1070342 1027706 1131205 1085839
2200.40 1332020 1236560 1392914 1321543 1453217 1387054
2206.19 1494083 1517753 1447414 1543309 1598190 1563623
2211.97 1731624 1673817 1635298 1778978 1782594 1879664
2217.76 2017013 2109116 2105020 2565610 1823336 1636176
2223.54 1659972 1634891 1608750 1663596 1747139 1689299
2229.33 1742394 1614829 1726968 1603126 1673722 1569814
2235.11 1545028 1453540 1454886 1320413 1378476 1203763
2240.90 1181713 1022943 1094998 969282 1098476 911365
2246.68 982764 819181 863517 697388 865626 677958
2252.47 765494 534257 669428 505677 529916 483813
2258.25 425570 361759 383710 316750 406962 363668
2264.04 351845 265753 317690 197475 316689 248347
2269.83 260555 195244 293026 141411 290166 159493
2275.61 196855 179533 166048 241342 279200 202036
2281.40 157870 197676 249961 160207 283775 119243
2287.18 320540 247168 315498 182599 253162 178495
2292.97 243455 174132 245769 148735 258440 120384
2298.75 200713 77886 206890 131982 306727 77265
2304.54 222544 133669 273631 107704 154238 167842
2310.32 86622 320238 10432 302488 31334 338651
2316.11-62822 327554-142122 346738-208449 202020
2321.89-178994 160674-249466 32494-79555 180315
2327.68-317940-105684-447281-177123-512159-296724
2333.47-566626-353015-521510-339007-437823-431154
2339.25-460728-322284-372446-364753-307288-238282
2345.04-249291-60312 59059 232566 98206-50573
2350.82-161048-262622-376504-491802-560442-732924
2356.61-723986-787953-852257-906053-838756-936696
2362.39-877920-809227-750702-629159-598615-459602
2368.18-286363-239448-150830-10112 140657 181829
2373.96 393292 492564 676625 825294 921757 1017243
2379.75 1111177 1143966 1123878 1010347 1037963 958117
2385.53 977357 894069 1130176 1247370 1307334 1183756
2391.32 1295767 1113323 1064020 940518 976075 740817
2397.11 742580 716845 654169 606679 627815 558352
2402.89 685635 647613 606912 673345 609894 568510
2408.68 626459 635549 679176 636490 623049 616052
2414.46 649358 640041 598741 518606 615327 596076
2420.25 758871 948881 937562 762709 677157 639346
2426.03 677272 508804 683159 619917 651539 622812
2431.82 674629 663237 639968 632854 689563 609098
2437.60 709798 536556 637901 670187 629944 611042
2443.39 666399 563695 626548 426905 572254 487465
2449.17 584347 482082 560021 469348 567305 384348
2454.96 464761 477480 760873 744827 769310 700713
2460.75 767662 630717 571511 654195 689986 659109
2466.53 637432 610643 520565 532235 583886 471846
2472.32 510167 396311 480276 372153 375348 341164
2478.10 307322 178961 302028 244036 301561 215669
2483.89 291290 303518 425762 273044 352791 356641
2489.67 340289 328527 433526 335590 399702 414388
2495.46 551949 457047 491788 498148 619257 463199
2501.24 585829 577207 731081 646193 727853 754930
2507.03 850188 744034 710543 741442 766958 727227
2512.81 767215 727905 818196 802272 861860 824442
2518.60 909961 868187 898451 804720 755568 663134
2524.39 665693 646719 695007 541531 516734 461227
2530.17 625823 514742 643613 699431 635645 535610
2535.96 599306 533010 617899 473299 439038 430922
2541.74 491314 385877 463130 329211 387441 353701
2547.53 310756 359215 316204 210737 232997 255831
2553.31 233020 119280 173884 109423 94711 30645
2559.10 84389 12630 34439-96045-15657-104308
2564.88 13718-121752-66360-168087-133412-124470
2570.67 74193-142952-70897-83438 7919-104203
2576.45-43798-112651-103212-131210-220968-152441
2582.24-188920-258660 128818 157602 48057-56907
2588.03-103882-199726-75212-157737-162854-260913
2593.81-111787-150588-96908-189665-105819-208038
2599.60-181198-175626-118017-150103-38581-193358
2605.38-98402-81150-180613-184142-25654-107444
2611.17-65825-155774-110450-134280-77824-215461
2616.95-7475 31375-72465-162602-60560-127285
2622.74-14196-94478-49950-58064-15002-54012
2628.52-39203-38132-10708-54304-41009 20181
2634.31-39226-34179-77145-103777 14593 60399
2640.09 38692-18269 52687-10719-16391-52390
2645.88 29372-20750 23367 35183 30437 72984
2651.66 28974 28388 118269-117911 92418-90831
2657.45 29226 13512 87902 56959 38004-75522
2663.24 167868 132633 146859 137839 236180 78337
2669.02 287109 270718 342637 318958 455688 445601
2674.81 731660 840551 1069546 1039377 1387943 1479110
2680.59 1675046 1811189 1954584 2030061 2106437 1713743
2686.38 1625289 1602849 1513378 1441190 1764647 1863104
2692.16 2018062 1866873 1827652 1572038 1399404 935032
2697.95 925977 557342 551648 351961 406255 293152
2703.73 355506 152390 391857 152706 235616 184267
2709.52 257417 138475 179963 70789 251601 191358
2715.30 167655 177651 465107 300884 490602 495838
2721.09 618896 496717 660189 489243 546236 413890
2726.88 522492 267980 818910 597514 423241 417739
2732.66 569755 484481 709023 541009 658766 591795
2738.45 688579 512360 548338 608311 587774 431647
2744.23 530555 569943 655277 600027 741353 692344
2750.02 844397 953243 1261478 1273122 1725713 1675624
2755.80 2136506 2412934 2608824 2654939 2872011 2542045
2761.59 2627866 2346396 1975213 2164765 1890429 1900715
2767.37 2503508 2636585 2806126 2607706 2429290 1772184
2773.16 1532672 1046843 930922 457784 531877 251482
2778.94 277223 221220 254146 68753 221653 147693
2784.73 227842 65275 185123 75587 214972 80400
2790.52 155640 75771 169832 72820 112337 34695
2796.30 4201-32241 154979-22965-1138-95533
2802.09 152682-46850 54453-209702 128956-49464
2807.87 166894-140210 88141-64774-1651 28286
2813.66 95281-46310 85099 33454 122254 44722
2819.44 136814 170896 278281 25962 291968 172809
2825.23 417983 129496 397030 272267 503612 447200
2831.01 612718 545527 811046 688734 997338 871517
2836.80 1208727 1253353 1426204 1514006 1799847 1753678
2842.58 2083678 2239489 2585437 2535248 3077401 3048541
2848.37 3521844 3409524 3930382 3889187 4211584 4050182
2854.16 4382648 3823123 4053545 3777157 4504403 3996527
2859.94 4395748 4377906 4843970 4825257 5375017 5056121
2865.73 5234457 5068049 5275792 4902966 5083132 4863394
2871.51 5104607 4865099 5278635 5238975 5508434 5341167
2877.30 5817037 5933686 6557026 6973403 8222115 9250701
2883.08 11129803 12866437 14901300 16306078 17789768 18037378
2888.87 17183749 15077377 13041880 11460124 10282658 10841471
2894.65 11969016 15433836 16918346 17602659 16838922 15388196
2900.44 13339159 11483149 9784772 8116840 6894684 5802714
2906.22 5101049 4430564 4067259 3672982 3597432 3357281
2912.01 3356805 3070452 3093793 2830475 3104517 2544016
2917.80 2782318 2361442 2461520 2077751 2298618 1971634
2923.58 2258724 1993607 2213254 2141517 2433489 2232009
2929.37 2712544 2635774 3226341 3280685 4133713 4188590
2935.15 4967904 5116802 6245347 6709689 7712442 8225183
2940.94 9479281 10078803 11394504 12247229 13738301 14788190
2946.72 16756669 17795684 19808334 21476122 23445639 25539381
2952.51 27610128 29342245 31489439 35005050 42109225 37608207
2958.29 36465975 35343879 33130276 29134704 27120999 26996632
2964.08 33252449 38096940 43818377 45349004 48751191 48550585
2969.86 51855404 52014302 55663234 56816238 60413804 62379645
2975.65 64234918 65350931 63823518 61676310 56561368 53277969
2981.44 51859036 50171402 50650351 61189977 63510687 66344255
2987.22 63427506 62141821 56635195 53990524 48916773 46588542
2993.01 43086010 42050281 39832471 40027133 38399050 38307272
2998.79 36641786 36352263 34543155 34169425 32875794 32416899
3004.58 31565255 31765955 30985137 31280100 30750354 30906733
3010.36 34350284 35119306 28184425 26762630 23918425 24685230
3016.15 23086523 23298056 22043779 22023616 20657888 20658042
3021.93 18934318 19212277 17564604 17575980 16415233 16272108
3027.72 15462570 15335504 15018278 15674195 16319958 19203405
3033.50 21112275 14900663 13349422 11457463 11591492 10907734
3039.29 10926374 10606875 10618358 10308757 10092599 9887828
3045.08 9682426 9493230 8908156 8762248 8262622 8140351
3050.86 7598285 7448064 6877235 6689965 6321954 5937624
3056.65 5771963 5475692 5070222 4729667 4489319 4221317
3062.43 3791073 3808664 3345517 3267951 2946618 2815949
3068.22 2806562 2535694 2379266 2211228 1971748 1910608
3074.00 1756001 1635680 1470981 1291557 1350368 1286770
3079.79 1256804 1015559 1062475 1023003 993101 985678
3085.57 921620 890564 851190 730201 795438 759963
3091.36 747504 735472 730970 824041 701945 721439
3097.14 683085 578280 636581 670861 612119 857966
3102.93 681105 670163 614085 675795 651255 580617
3108.72 603191 565315 593726 699871 480773 624446
3114.50 511519 575090 571204 430924 462622 458105
3120.29 512927 436032 461080 276036 378369 410699
3126.07 375217 304745 350134 337749 270137 244791
3131.86 115870 95051 72942 149022 148989 19633
3137.64 162120 136533 155539 47469 123486 70001
3143.43 102028 76676-103916-8664 108884 51784
3149.21-103920-62323 148878-16400 65736 5454
3155.00 32777-74779-79874-32817-26517-53773
3160.78 15646 127602-169154-29024 56004-95271
3166.57 9577-61730-5257-138402 63267-17173
3172.36 113609 45956 135374-67262 75606 62601
3178.14-75239 178408-72682 251518 29568-7316
3183.93 112785 79213 266352 90660 72640 66085
3189.71 164956 180953 15334 149136 212084 384498
3195.50 174578 237828 160156 214233 271273 259504
3201.28 146034 308224 178577 230468 254996 263839
3207.07 214859 348407 261417 223263 231694 177250
3212.85 56403 388273 151591 189215 244323 213910
3218.64 198721 153591 61919 191132 202208 45524
3224.42 49399 72475 194969 120187-33729 12662
3230.21 250657 12938 144121-26455 205750 1576
3236.00-43865-35447-36054 115994 45098 30276
3241.78-10404 34541-49929-1934 54420 41730
3247.57 69340 71530 66984 67900 28934-239737
3253.35 73722 151204 194206 112317 42665 157657
3259.14 99916 86564 192876 92076 263556 24460
3264.92 100017 150787 161158 230793 226122 198181
3270.71 181099 126428 203623 79904 142161 165631
3276.49 143778 136609 227609 115732 90653 138723
3282.28 9551-21132 75902 101742 67434 28464
3288.06 13269-98431 12658 101604 64047-151320
3293.85 933-35403 78933 69747-112856-25412
3299.64-18236-130692 26723-149579-18142-142277
3305.42-78722-101247 5887-44968-74281 8024
3311.21-1818-93635-20814-163421-151111 45959
3316.99-226535-102364-110297-34542 89181-29230
3322.78-140262 39006-149949-94162 56312-16575
3328.56-40478-169594-32169-25893 22454-73584
3334.35-108470-54732 12643 46717 15689-69939
3340.13-47319-70742 108-89054 104049-22440
3345.92-84598 84201-20942-125287 27257-99290
3351.70-67231-1453 50007-110516-70155-79972
3357.49-43343-22017 126726-67152-92766-51059
3363.28 14775-197501 104725-131985 52950-58773
3369.06-30882 103373-16651 42842 152068-22101
3374.85 113533-25096-42229 140724 6752 98536
3380.63-88633-37601-10195-184029 7930-292486
3386.42 95741-76231 93219 8725 19253-69218
3392.20 37682-81240-92690-100983 57863 68515
3397.99 217823 50822 79787 246433 185601 81787
3403.77 284504 155853 178878 124082 170594 188252
3409.56 225798 158928 226948 177293 189866 39747
3415.34 174979 277655 269874 109245 76168 28691
3421.13 43068 27744-39331-87721 191351-52507
3426.92-66332-144019-53907-6732 93712-34156
3432.70-109048-18928-56102 73913 24528 95414
3438.49-14467-119170-80301-207105 95371-104661
3444.27 40290-157594-199470-26900 83305-201586
3450.06 44075-23181 181427-141443 7006-6520
3455.84-1655-22829-132269-3031 15631 70819
3461.63 20790 59755-111492-19513-18946 25626
3467.41 75870 30440-55506 14187 37484-106248
3473.20-415 474-81661 60400 153760 75345
3478.98-7180-35451-41812 255658-48708-33034
3484.77 12885 79540-59152-26183-2203-62966
3490.56-31726-201820 119725-170248 43712 122801
3496.34-80574 87978-23936-93153-227555-97216
3502.13-144355-21722 60485-165227-42479-83347
3507.91-125088-171759-185756-60029-139783-81270
3513.70 110488-30314-20214-202380-189269-94136
3519.48 10398-68496-94570-125658-238186-119844
3525.27-6057-37815-65464-95954 5603-55956
3531.05-43073-69407-102613-90045 36785-155930
3536.84 45337-58599-60743-68720 108124 57536
3542.62-91612-155642-114836-182245-74433-96153
3548.41-97823-146589 6262-91148 34229-39819
3554.20-96437-5765-76407-4091-174542-254346
3559.98 65502-55304-63536-122938-196241-110748
3565.77-173182-230452-120234-195693-150730-139019
3571.55-154427-77771-88650 31335-88921-140281
3577.34-75322-148093-113054-207048-153119-49720
3583.12-131815-28598-229046-146603-102225-332413
3588.91-89147-87510-29393-226792-190038-168941
3594.69-23470-26905-46178 26629-63853-207444
3600.48-29555 4917 10433-59081-122939-58658
3606.26 7421 159464-260506-65306 2989-47291
3612.05 24753 63617 1485 134495 138453-8006
3617.84 11218-254458 134165 156073 101219 106939
3623.62 306028 190441 108963 150914-213321-216457
3629.41 13300 34663 191087-5699 58394 221456
3635.19 242921 274419 232640 359652 204298 310950
3640.98 336978 56638 313300 233157 330969-18958
3646.76 235392 48081-81429 125200 115084 332311
3652.55 273743 490256 316971 39835 525471 348826
3658.33 382870 327086 424141 346932 418212 247255
3664.12 365080 353184 575104 179340 286931 374690
3669.90-230813 478389 359321 402542 235019-100016
3675.69 9821 442528 256888 330295 328703 399207
3681.48 355602 537566 246099 406983 293290 396704
3687.26-320006 43317 209227-95983 133892 116367
3693.05 182649 222504 202671 203509 329713 294453
3698.83 244482 279512 92618 94275 309653 232995
3704.62 310076 222622 277961 219515-1353 351939
3710.40 21241-235387 375296 210370 367195 246685
3716.19 247610 181625 239237 167116 231435 166393
3721.97 131937 377252 266236 265624 264913 308660
3727.76 404274 315054 413840 169996 137012 640692
3733.54 132367 544307 187235 497026 657753 782480
3739.33 761284 787903 867579 1043292 137692 404295
3745.12 1275260 1091633 1401509 531294 767350 1437087
3750.90 531154 962508 1663789 1434796 1308358 1299847
3756.69 1400788 1376154 1157444 1297881 1430080 1256480
3762.47 1307312 1276458 1201545 1082619 1228894 1087466
3768.26 1109444 1017830 1226876 992165 1349205 1197543
3774.04 1398060 1301895 1273744 1137002 1157390 969879
3779.83 1111270 1102983 1216246 1087436 1141502 1016794
3785.61 1133664 952886 1123449 951247 823201 904921
3791.40 1011389 772255 695278 711460 560984 400813
3797.18 611730 601372 624157 51935 454800 965664
3802.97 949711 863349 729772 61839 471534 571311
3808.76 601247 633865 449052 581793 560129 893328
3814.54 216967 122286 651052 544667 638860 242286
3820.33 120350 280039 522532 422408 614549 398748
3826.11 540305 451395 349510 380771 313429 295284
3831.90 407853 243566 225020 42490 539617-596090
3837.68 163793 298698 247783 289498 226577 93494
3843.47 291487 262089 276789 393514 394496 178693
3849.25 241218 208243-385852 121917-885438-158536
3855.04 291180 77326 116829 87704 211147 77268
3860.82-11666 24417-1337-106502-101601 100767
3866.61 60078 57521-185794-340310 47699-2457
3872.40 33699-244471 125954 93805 22351 25620
3878.18 66446-184573 43223 57499 98869 153060
3883.97-8570-322423 284730 151131-6152 125020
3889.75 52090-190803 198524 49681 258180 83704
3895.54 174434 52769 233243-309373 212729-7294
3901.32-21514 24654-222402-611 67228 92408
3907.11 99109 121900 131343 99353-98525-62550
3912.89-2167-4830 171403-128162-102832 172203
3918.68-1475-5430-14736-51939 51019 25386
3924.46 24307 60211 66751 13049 69306 80992
3930.25 70005 108564 90278 27810 115866 177493
3936.04 77801 183931 251013 174285 312935 244640
3941.82 63603 133696 262412 299868 166023 283890
3947.61 249195 144636 356901 155436 300583 352631
3953.39 414708 409656 496528 367415 379945 236966
3959.18 369878 359679 430583 362545 507933 470275
3964.96 452566 273256 338210 226236 324930 502921
3970.75 443522 401664 234278 462854
##END=
