##TITLE=Acrylonitrile
##JCAMP-DX=4.24
##DATA TYPE=INFRARED SPECTRUM
##CLASS=IUPAC A
##ORIGIN=NIST, Anayltical Chemistry Division, 301-975-3108
##OWNER=COPYRIGHT (C) 1998 by the U.S. Secretary of Commerce
##DATE=98/10/1
##$SPECTRA VERSION=1.00
##$UNCERTAINTY IN Y=2.0 % relative (B=1.0E-04,C=6.4E-09,D=2.7E-14)
##CAS NAME=Nitrile-Propenoic Acid
##CAS REGISTRY NO=107-13-1
##MOLFORM=C H2: C H C N
##MP=-83.5 C
##BP=77.5 C
##$NIST SOURCE=QUANT-IR
##SPECTROMETER/DATA SYSTEM=IFS66V (Bruker)
##INSTRUMENT PARAMETERS=KBr Beam splitter; MCT Detector; Multipass cell
##STATE=gas
##SAMPLE DESCRIPTION=Acrylonitrile Primary Gas Standard
##PRESSURE=101.3 kPa
##TEMPERATURE=23 C
##SAMPLING PROCEDURE=1 L/min Flow
##RESOLUTION=1.9290
##DATA PROCESSING=Happ Genzel Apodization
##XUNITS=cm-1
##YUNITS=(micromol/mol)-1m-1 (base 10)
##XFACTOR=1.0
##YFACTOR=2.2737E-13
##DELTAX=0.9645
##FIRSTX=574.687
##LASTX=3974.595
##FIRSTY=3.02E-07
##MAXX=3973.63
##MINX=574.69
##MAXY=.0003026
##MINY=-1.66E-07
##NPOINTS=3527
##XYDATA=(X++(Y..Y))
574.69 1329316 1719060 2232294 2090144 1840228 1070124
579.51-11604 59336 1020132 1568150 1198814 899792
585.29 908388 1329968 750694 231890 927112 2051390
591.08 1966282 1868326 1625958 536874 348830 1389032
596.86 1650558 1168652 1177690 1636100 1262574 1191086
602.65 1411092 1663606 2101046 2108676 1902916 2020974
608.44 2232234 2775780 2832902 3255108 3389478 3715148
614.22 3975776 4181914 4567346 4935626 5063460 5723926
620.01 6133738 7109796 8110818 8987206 9672506 10138860
625.79 10896250 12137150 13130660 14322250 15640670 16856630
631.58 17583400 19035400 20722850 22310340 24179530 26264010
637.36 27976550 29596040 32161160 35256600 37547700 41786040
643.15 42973700 47602090 50337250 53540760 59156430 60067920
648.93 66286840 69319070 71188160 79727420 77032210 83455500
654.72 87204120 81274350 93170200 90703370 86625770 101303600
660.50 89009610 89529820 100913900 86021260 94229600 104091600
666.29 86107650 96966140 99884050 85720950 95260670 95166510
672.08 87367380 93608750 91774080 93901630 101541100 116777800
677.86 143980200 183986600 238155900 320388800 287075100 166383300
683.65 110903100 90625910 83470120 78989370 78708530 79737100
689.43 77281740 78533060 88309410 82363840 77974320 91837100
695.22 91220030 76535760 87945150 95444710 78244170 78852340
701.00 94799580 82812480 71942910 86733460 86557540 67770300
706.79 73799230 84360700 69053760 61537070 75555000 70471070
712.57 53963220 60373300 68105660 53187980 47302520 58502780
718.36 55232300 40894000 44246660 50876880 41744580 34709370
724.14 41316090 41258650 32024420 30760330 35484970 31554360
729.93 26228880 28292020 29351530 24179400 21753570 23514650
735.71 22553520 18639200 18117260 18993720 17300080 14818320
741.50 15072240 14904060 13126150 11867440 12240470 11675990
747.29 10327640 9379524 9588356 9360922 8290616 7470188
753.07 7753816 7481660 6931946 6616316 7136490 7776932
758.86 7749504 6973226 7219954 7617002 7587600 7452522
764.64 8304946 9293532 10209990 10890430 12438330 14250110
770.43 15700970 17139830 18807500 19846680 21061860 21968970
776.21 22334550 22199950 22064420 20913570 19698670 18585410
782.00 17384550 15950920 14822640 13023980 10881050 9136004
787.78 9591798 11625570 14187350 16226640 17617250 18524180
793.57 19000760 18769070 18199130 17262760 16148360 14581810
799.35 13152620 11712320 10283940 8754394 7413080 6309892
805.14 5223412 4254576 3667910 2896558 2378248 1928768
810.93 1703062 1302496 1246986 1004682 673078 709670
816.71 1006902 884154 750764 420218 585522 876122
822.50 764716 599688 618214 550142 615782 283200
828.28 225588 443912 639930 624216 630522 649008
834.07 687586 673516 995060 1343734 1592464 1911550
839.85 2387680 2779104 3350534 4104884 5231504 6416564
845.64 7749302 9229768 11080380 13006540 15229020 17850810
851.42 20394970 23063070 26033680 28796720 31524030 33923710
857.21 35885260 37272020 37945300 37587360 36366170 34071980
862.99 30895250 27170820 23241980 20605460 26795470 35663500
868.78 26898060 22318370 21997760 21688930 24405990 27437270
874.57 30992620 34076250 36365880 37772260 38271350 37662140
880.35 36620190 34949880 33481070 32040970 30064000 29026000
886.14 29084550 28007440 27936650 29876750 30002580 30134200
891.92 34062330 35905000 35944690 41341260 45609220 44767000
897.71 50183690 56769660 55781380 60753690 70078420 69853760
903.49 73763780 85462780 86298530 88386920 103394500 106980100
909.28 106369400 123598100 131392400 124608500 140783600 158843000
915.06 148420400 159444200 189314900 180443200 177724800 215748800
920.85 218365800 200366000 237482800 260903000 232103400 253157800
926.63 296312400 270219800 267560800 324523300 316707100 291088700
932.42 341233800 352419500 310580700 344640900 377361700 339232900
938.21 350943400 385494500 361252900 363650600 385572400 387308400
943.99 410843900 409588400 412009100 484866200 477372300 421106800
949.78 479853900 563934300 906184100 1330910000 992923800 555007100
955.56 466761500 465148000 418781800 404698600 435938000 450652800
961.35 435001000 465653800 477203500 426761000 474132900 500920200
967.13 488306300 640052000 854016000 998958000 832723800 560691900
972.92 450992200 487357700 452608900 401663000 455495500 424709900
978.70 396336500 453785700 419995600 393928100 440058900 401966300
984.49 386434700 415910000 385908600 368997300 380706700 365458800
990.27 346816800 351933700 344913400 315347600 325670500 313377900
996.06 287153300 303157300 279087400 265677900 271854400 244394100
1001.85 244080700 235682900 217252500 215638000 199028100 187146400
1007.63 180969800 164867400 157912300 148256900 135955100 132247500
1013.42 123211800 115832800 113983000 104937800 100551000 95125750
1019.20 89134560 84268990 78228780 73311880 68221530 63265180
1024.99 58158050 53107790 49518790 44346670 40789360 36508040
1030.77 33251280 29992640 26936660 24290170 21877590 19497030
1036.56 17612990 15806250 14400070 12874380 11654110 10531370
1042.34 9764178 8825744 8368650 7606718 7158964 6498660
1048.13 6306966 5923426 5877458 5683922 5531142 5323930
1053.91 5650662 5494402 5727134 5676404 5629464 5552722
1059.70 5520682 5090452 5301266 4993360 5069964 5351970
1065.48 5650556 6285934 7469720 7936140 9457502 11189740
1071.27 12831940 15150570 18469920 21257710 25336070 29712800
1077.06 33973320 38806180 43967510 48104420 52216360 55255340
1082.84 57380600 58515500 58179900 55710900 51795230 46015790
1088.63 38588410 30068030 23754620 26703850 38077380 39826120
1094.41 38699350 36992920 34452030 33205200 33637010 34959620
1100.20 36397500 37448650 38123160 37323420 35809480 34041730
1105.98 31515850 28116170 25328410 22310340 19048180 16244080
1111.77 13997640 11307420 9399750 7991008 6543198 5158916
1117.55 4524188 3633528 3056060 2745370 2581398 2030280
1123.34 1973336 1802934 1585724 1405292 1608700 1432910
1129.12 1365148 1278962 1304366 1112834 1146530 1007010
1134.91 1004344 762896 824342 772730 858640 772918
1140.70 793768 617680 684816 537336 579166 459278
1146.48 510466 376348 505394 472326 511636 406126
1152.27 562708 530408 570522 477306 530380 527448
1158.05 734390 725706 795368 657230 711578 680564
1163.84 858952 734500 862496 869156 986672 840204
1169.62 953680 968960 1056618 922574 1021028 932444
1175.41 894312 834774 1012280 886988 937418 810790
1181.19 927870 827796 792056 888094 1029196 788728
1186.98 963972 964988 1046622 1092882 1142486 1016606
1192.76 1204372 1145592 1134830 1062194 1188036 1161882
1198.55 1236796 1242742 1510878 1596852 2488214 3079536
1204.34 2413072 1607992 1589482 1772384 1793050 1316356
1210.12 1177696 1222020 1355632 1127144 1269224 1193704
1215.91 1122782 1064800 1234988 1024162 1149354 1260086
1221.69 1198282 972836 1271018 1205988 992646 962924
1227.48 1264132 1096880 1085946 1188146 1250714 949314
1233.26 989934 998008 920762 768474 981568 920244
1239.05 910348 768056 878016 743596 820392 776708
1244.83 842060 731886 763482 713598 782420 691482
1250.62 909098 961786 1076548 1167968 1309182 1305274
1256.40 1693082 2000838 2559834 3008970 3400238 3954560
1262.19 4920536 5625450 6575702 7505650 8492562 9345214
1267.98 10303200 11022950 11851650 12176970 12381390 12229170
1273.76 11795850 10992230 10254940 9466218 8699576 7330278
1279.55 6723592 8423194 11324180 12627520 12789030 12879950
1285.33 13573500 14299810 15129150 15625530 15887340 15848210
1291.12 15780220 15026670 14382760 14050800 13518490 11852970
1296.90 10546090 9445478 8622606 8070840 7731790 7492852
1302.69 7686012 7740912 7859530 8004508 8575908 9144526
1308.47 9663064 10088700 10881680 11397590 11778930 11963820
1314.26 12181730 12017320 11843370 11430830 11068260 10396750
1320.04 10126710 10276790 10471440 9519636 8870342 8927108
1325.83 9005520 9224500 9967754 10660080 11260500 11722300
1331.61 12437560 12709540 13202150 13239120 13803220 13465320
1337.40 13761640 13818270 13612950 13511260 12754710 13138310
1343.19 13086280 13028490 14018190 13487070 13996630 14751530
1348.97 14436280 15073910 15119010 14640690 14902280 14417480
1354.76 13963310 13254090 12708240 11939260 11355490 11756290
1360.54 12398030 13147140 14460180 14497830 15618000 17159940
1366.33 17605950 19084690 20703530 19785000 20785310 23371440
1372.11 22936710 23317340 25059260 23795520 24109930 24920370
1377.90 24409520 26423720 25801250 23619560 28106240 28305470
1383.68 24362560 30148110 33630920 29520400 33752510 37081010
1389.47 33039550 39332040 45948930 42834260 51124780 59569800
1395.25 56054240 64091980 77204670 76230850 82079190 94944490
1401.04 94751500 98155870 108653900 107905500 105093000 104358200
1406.83 99372430 89981260 79739100 69072880 55996470 47905490
1412.61 66706590 98101550 76310660 54361860 61278290 75373060
1418.40 88529020 96910810 103388400 106512000 105755200 108570500
1424.18 105793200 94964530 92945590 87955900 75960210 73592510
1429.97 69071920 53320380 47668480 47325480 40188490 41362550
1435.75 47257640 39642660 35700510 38397490 35171940 33167090
1441.54 34776170 31411670 28413170 28632340 26403870 24526290
1447.32 24358100 21076560 18657000 18121130 17026550 15208200
1453.11 14713320 14563700 17717600 20202350 15966340 12499650
1458.89 10835220 9417614 8712490 8454404 8863818 9842752
1464.68 8853160 6753844 6099256 5912984 5374634 5277696
1470.47 7580850 8573488 8140860 5800260 4410864 5047152
1476.25 3840156 2733248 2557572 2456728 2608188 2211800
1482.04 1841040 1661750 1589940 1784410 2680930 2604134
1487.82 2308506 3291986 3289436 1812016 845488 734870
1493.61 1141782 3926866 5218352 2413412 2611700 2301292
1499.39 938534 824844 835386 616306 1732816 6068680
1505.18 9212492 8694202 4939798 2387746 1689312 1143470
1510.96 1947324 1551326 845894 1315030 1921436 3216064
1516.75 3126938 1497596 2612040 6357286 7435420 4329806
1522.53 2063230 1956440 3448270 2249362 1756276 1523932
1528.32 1083150 568738 985974 1554222 3476134 3588004
1534.11 1613310 850996 1142446 4205814 9978276 10018270
1539.89 6873592 6425140 5116678 2686858 3632462 3201882
1545.68 1709370 1295036 1877544 2699490 2827532 1858636
1551.46 1960826 3703670 5943174 3749990 3268748 7326800
1557.25 12316160 12525340 11918510 6748612 3183090 3045324
1563.03 3694752 4347014 4022494 3593218 4296738 6141374
1568.82 7654126 5969174 5053742 4860262 5573030 6829086
1574.60 11907240 13764960 8990104 6755374 7367894 8314786
1580.39 7731972 8262164 9746844 9112692 9432402 11545810
1586.17 11268620 11100540 13968310 14878040 15119780 18943090
1591.96 21537520 21688920 26004910 30702650 32288430 36738820
1597.74 42998360 45282430 49062930 55061960 57611760 59134680
1603.53 62666150 63207380 61993380 60290880 57467030 53238390
1609.32 47529520 42225200 38503880 42118390 59006160 58574730
1615.10 41358940 36674610 39064570 47476300 57341480 64429700
1620.89 69938860 74569860 75605120 73365690 71010620 67396320
1626.67 64780770 60101180 53942140 50570990 46534260 42067630
1632.46 40385770 40660540 43012720 41789070 38379640 36702800
1638.24 37743260 38545860 38215260 39642190 39874370 38434240
1644.03 39878900 41499800 37186940 32958310 28937980 24953900
1649.81 23370700 28948040 41455460 41877760 32264380 27899180
1655.60 28676270 29396320 31357210 33262420 33095820 33340540
1661.38 35220430 34346680 30252540 28796210 27800580 24854510
1667.17 24071370 25808920 21832410 18231180 17630530 14980970
1672.96 13395260 16294570 15141590 10125930 9319174 9540382
1678.74 8528054 8023210 8274458 8819734 11631990 16788800
1684.53 13068770 5999352 5835936 5973564 5316644 5049160
1690.31 5017950 4005050 3946680 4822844 10007870 12645270
1696.10 6757578 3715362 6283782 12260340 10388580 4082438
1701.88 2473796 3290488 3557966 3419322 3408108 1979522
1707.67 1578420 1737788 1731504 1235092 1437542 1862926
1713.45 3171260 3433808 4450348 8166090 6683366 2965484
1719.24 1289078 839660 998252 1208640 1190546 806264
1725.02 862584 801678 868490 1111566 1768352 1356028
1730.81 1367332 4295002 8136060 7512576 3315618 918874
1736.60 1001096 1574536 3611676 3003508 1287654 1402178
1742.38 1936252 1550472 1406268 1560262 1982384 2351790
1748.17 2352480 2474762 4617340 3395106 1085006 632796
1753.95 666312 1195976 1912172 1082436 465894 400712
1759.74 1212830 2566198 1684834 320282 268502 207172
1765.52 418672 1510218 2226994 742636 1032130 2542410
1771.31 4860730 3948534 1057610 892272 1175950 746192
1777.09 539446 469354 820670 883780 340136 132584
1782.88 433212 1033218 640850 79816 104882 141394
1788.66 475360 1025004 1934742 3314082 2059086 268488
1794.45 397834 336802 147918 194688 1004196 946766
1800.24 762174 743896 446564 85966 153454 99148
1806.02 220332 204674 214096 463720 817316 497552
1811.81 371542 215882 283964 241600 484884 587650
1817.59 714126 726588 879884 922978 1194470 1252428
1823.38 2098902 2939086 2473506 2097062 2614106 3721758
1829.16 4531590 3543614 3067824 3066020 3100528 2880850
1834.95 2904740 2885800 2696808 2134040 2010252 1971380
1840.73 2360860 2700770 4588536 5093528 3187948 2789598
1846.52 3340088 3528966 3730238 4023576 4080012 3888160
1852.30 3838370 3720518 3656108 3585790 3624334 3467920
1858.09 3267570 3183504 3327238 3200030 3407486 3748832
1863.88 3849134 3710374 4196020 5038188 5959146 6115222
1869.66 5794786 5680932 5621568 6273040 7327660 7478154
1875.45 8039344 9512722 10528410 10910440 12780190 14942620
1881.23 15997170 17818250 21417030 23768470 25710390 29948980
1887.02 34342500 37175570 41542560 46869770 50343380 53671190
1892.80 59593640 63984100 66255670 69949070 73507260 73827860
1898.59 72666750 70981370 70028570 68453490 66590410 64979010
1904.37 63810110 62881940 57769360 45207230 39334360 46705820
1910.16 59088420 70495250 77686380 82847300 87101440 87394890
1915.94 85672410 85768790 81045320 74122820 70182500 64294630
1921.73 58543700 53572630 47742910 43158830 38389440 33679150
1927.51 31346480 27423690 24171310 22405640 19516780 18312330
1933.30 17079010 14950240 14135630 13540020 14631280 15782920
1939.09 16231200 17045790 17514460 17525270 16593340 16237520
1944.87 16011590 14622490 14208930 13254180 11887430 11598060
1950.66 10716790 9513056 9281622 8129596 7536632 7422222
1956.44 6763696 6249454 5964712 5419926 5319590 5079618
1962.23 5045226 4896400 4472694 4411534 4448744 4174592
1968.01 4074320 3648394 3386908 3073832 3050444 2922416
1973.80 2861836 2814604 2706328 2576660 2458218 2282466
1979.58 2201766 2020072 1956424 1885192 1864954 1610898
1985.37 1561112 1534570 1518820 1285782 1176552 1251972
1991.15 1451432 1121324 886430 752260 715850 694724
1996.94 872326 792700 722038 595734 662428 612110
2002.73 562554 489372 474668 415678 518334 475414
2008.51 439486 273800 264410 300142 345910 188036
2014.30 258590 433826 564572 440918 407050 285626
2020.08 338094 290550 387106 310118 254360 176706
2025.87 199862 172680 239170 147102 195222 189480
2031.65 315436 282478 277468 191996 268486 304514
2037.44 366080 304950 370652 351274 340096 259750
2043.22 305578 307812 636512 961230 789934 320384
2049.01 336614 279940 369006 353628 428204 408500
2054.79 465638 377246 441408 388456 457586 530860
2060.58 686484 955722 1320758 1045504 786730 563782
2066.37 524080 393080 393470 352102 376920 248426
2072.15 339236 321900 246142 260434 401980 296934
2077.94 393562 392292 383068 395402 518756 331470
2083.72 339956 430276 436992 304078 447774 389300
2089.51 368948 322178 350254 297108 422474 372546
2095.29 351674 297866 328194 290452 347216 227264
2101.08 264212 238392 217366 147598 233458 131756
2106.86 153448 119170 157012 86164 85312 44166
2112.65 111382 60830 110390-10738-12832-11318
2118.43 107576 50234 21314-83362-2980 34540
2124.22 105912-23216 52898 46510 34278-74052
2130.01-9462-44244-21284-18474 113078 78544
2135.79 70272-972 128164 170252 234830 169258
2141.58 226138 197438 230182 179258 261896 201202
2147.36 200536 143046 189880 203168 303392 317740
2153.15 338092 260858 327838 276136 302090 288352
2158.93 335082 279098 326602 288582 304124 221900
2164.72 327158 302010 317730 293516 295746 196680
2170.50 285566 326158 364718 290816 364558 316360
2176.29 355900 367842 492572 459688 492836 394702
2182.07 425754 413114 389096 296600 289712 243134
2187.86 345934 285346 333062 383784 490286 386576
2193.64 380238 377052 411128 348550 403538 441434
2199.43 485968 384632 494176 523912 587692 606176
2205.22 704866 679690 837134 998458 1146246 1278914
2211.00 1606454 1738228 2073540 2518656 2898070 3217272
2216.79 3799022 4329832 4968118 5648302 6429264 7106746
2222.57 7897652 8547418 9108406 9694856 10310350 10523590
2228.36 10736710 10840300 10694420 10354000 10189890 9657202
2234.14 8782978 8675058 8934470 7962406 7271452 10063150
2239.93 11614110 8357962 7668266 8893138 10409580 11547710
2245.71 12369740 12668080 12691680 12171820 11687640 10722440
2251.50 9566918 8377428 7301704 6098802 5309636 4492472
2257.28 3851750 3470278 3363112 3127540 3280728 3326754
2263.07 3382980 3586932 4062738 4272110 4637344 4883874
2268.86 5162512 5323196 5489162 5505730 5481972 5181292
2274.64 4933568 4408492 3913988 3723506 5135106 5928300
2280.43 4374382 3864500 4087158 4166488 4740942 5308308
2286.21 5940572 6423812 6834090 7088072 7271598 7140472
2292.00 6696530 5951272 5332672 4799216 4326284 3827248
2297.78 3571528 2899730 2315508 2007338 2002624 1883460
2303.57 1896620 1909562 2061204 2021538 2104552 2072480
2309.35 2138702 2073662 1952866 1748988 1735030 1686846
2315.14 1590314 1432548 1332666 1122184 1002684 939664
2320.92 966746 840616 750720 708994 781660 780510
2326.71 860392 867430 887668 858036 887544 886778
2332.50 1075606 1041760 959184 882106 950000 920122
2338.28 906668 860628 901680 852814 937120 895926
2344.07 913766 833584 804426 716604 650198 712360
2349.85 992804 939420 1161654 1285444 1310090 1417784
2355.64 1613860 1579376 1781054 1855030 1918766 1967392
2361.42 2081320 2148368 2364434 2299646 2340222 2303136
2367.21 2309966 2286766 2337192 2181602 2082884 1984022
2372.99 2123126 2248312 2459908 2626710 2847286 2927974
2378.78 3056768 3108798 3154932 2974742 2836280 2586936
2384.56 2367766 2237126 2475584 2526064 2514806 2422924
2390.35 2437152 2316680 2351078 2350344 2430576 2317716
2396.14 2372716 2343228 2252636 2176038 2251914 2100092
2401.92 1982878 1862470 1887862 1737904 1672380 1493022
2407.71 1419918 1302216 1340170 1245226 1201058 1096758
2413.49 1062352 953620 1040864 1033512 1027664 850480
2419.28 826356 870826 1034106 984918 1056250 1036940
2425.06 993796 979150 1114866 1083252 1104096 1063696
2430.85 1135556 1087844 1125976 1091266 1201816 1210036
2436.63 1232864 1189880 1316640 1298750 1437688 1507530
2442.42 1594524 1529818 1697602 1862708 1978666 1992334
2448.20 2207624 2236196 2302158 2402264 2606592 2571078
2453.99 2633644 2631070 2538214 2421642 2450168 2343806
2459.77 2295138 2157260 2202522 2167960 2179852 2189190
2465.56 2358874 2496022 2837814 3049156 3406912 3642046
2471.35 3706240 3684340 3828782 3645932 3741010 3513972
2477.13 3194460 3225510 3005022 2834824 2928630 2567534
2482.92 2630550 2586662 2523720 2610016 2572028 2374118
2488.70 2369722 2188178 2137112 1992796 2013908 1942810
2494.49 1877150 1801716 1701244 1516526 1581406 1442548
2500.27 1366656 1290564 1272532 1129942 1176366 1150598
2506.06 1149520 1039842 1060948 1004204 1053064 980610
2511.84 1028118 1002318 1021328 944768 960646 869130
2517.63 950002 911062 926100 914812 942594 857072
2523.41 948652 919434 1021940 986696 1006352 953514
2529.20 1028698 1056350 1096166 987588 1067772 986758
2534.99 1010504 1084484 1194968 1218520 1307632 1260918
2540.77 1286350 1183218 1280966 1368788 1432150 1323930
2546.56 1481336 1343794 1192784 1348252 1354496 1199904
2552.34 1464660 1226728 1194978 1398522 1485580 1382642
2558.13 1451868 1292088 1361818 1684152 2003902 1867110
2563.91 1682154 1517976 1630638 2364356 3438388 2825898
2569.70 1709158 1245308 1070734 886786 994450 944056
2575.48 874444 887672 935000 968680 1140694 903322
2581.27 878842 1018342 994018 773272 851916 827480
2587.05 840604 829466 946128 885420 858080 799596
2592.84 809216 642558 608818 533514 582396 551186
2598.63 652426 581188 486570 414984 412548 262860
2604.41 324556 328304 363122 248694 280064 256172
2610.20 236846 161510 236546 266748 343574 292462
2615.98 241862 71470 49290 23844 96830-39752
2621.77-17756-30846 14788-87634-74936-78888
2627.55-38072-65904 30432-7748-27528-76930
2633.34-13282-89314-97396-170220-94368-107850
2639.12-79378-186280-156878-106372 67768-27398
2644.91-37858-37306-28728-150558-114002-115252
2650.69-15444-8182 10530-92122-8326 76494
2656.48 126174 23386 36696-60184 69668 111510
2662.27 187442 149620 114434 41424 238794 261474
2668.05 278416 263896 257404 223158 330808 326534
2673.84 439246 363402 373834 466206 717090 782610
2679.62 903164 1008952 1062578 1039776 1246102 1268252
2685.41 1343180 1547030 1748562 1742780 1881230 1913500
2691.19 2109418 2135542 2342412 2387470 2396668 2388170
2696.98 2457408 2305742 2359680 2590134 2654072 2438738
2702.76 2270830 2015400 2029664 2054454 2527792 3136104
2708.55 2856618 2351226 2394008 2512174 2777130 2885748
2714.33 2840758 2770892 2783816 2578880 2531436 2361374
2720.12 2188796 2038266 1928828 1628016 1558544 1462916
2725.91 1270820 1036844 1022332 872872 843606 684916
2731.69 642502 584652 647388 613258 574816 459522
2737.48 506898 519850 629376 631638 610240 523076
2743.26 559412 427978 393570 345990 390742 285052
2749.05 292824 259266 276008 139136 124416 100236
2754.83 184866 166454 168520 112300 179886 177824
2760.62 226996 197576 286268 282542 257920 227382
2766.40 410260 429356 468184 482892 502810 415098
2772.19 661248 716376 672860 599590 695806 624414
2777.97 771582 898286 882776 740692 957184 964650
2783.76 873116 965436 1130100 793402 599458 621848
2789.54 788764 623682 491412 383908 354840 358626
2795.33 541320 483352 505076 484156 465888 560976
2801.12 942900 1028076 1016342 968354 939848 841486
2806.90 834840 748766 734416 529484 390528 341074
2812.69 273600 58410 152782 216496 199650 106464
2818.47 152106 125042 263882 229538 140494 156660
2824.26 204206 67326 240-360868-369914-86076
2830.04 120766 101746 73732-21130-56608-199934
2835.83-280058-412248-352848-428102-441408-539836
2841.61-572270-617586-584624-586032-495064-537884
2847.40-609504-641954-549320-521522-438502-481960
2853.18-486822-539280-412812-431810-450150-465830
2858.97-472984-533310-205580-49444-66078-168134
2864.76-176330-217198-111252 38906 77090 75544
2870.54 165424-2614 59068 200460 460348 582820
2876.33 532184 397374 474446 474566 547710 620824
2882.11 617522 522190 616660 691024 1011900 1263064
2887.90 1239012 1116662 1116020 1140892 1244914 1080140
2893.68 1126280 1037848 921692 946400 1054766 1103454
2899.47 1341926 996908 816820 1040646 1122536 872800
2905.25 1050124 1116056 1097926 1059944 1022160 819466
2911.04 939868 957218 990834 999752 1117696 1144746
2916.82 1139440 1344354 1362252 837576 598770 504066
2922.61 522820 420584 347942 183180 244518 259424
2928.40 245828 248538 358676 331120 450480 319224
2934.18 253722 220708 314708 347768 455180 368724
2939.97 360254 278632 187920 100444 226620 83788
2945.75 93608 113502 118152 118514 190118 99034
2951.54 129720 93544 114260-42564-26384 26358
2957.32 93334 113960 129344 55264 153350 153748
2963.11 204756 94344 111194 126038 268304 312404
2968.89 358678 413716 392488 266624 394370 386990
2974.68 424702 439366 483050 545372 765736 784364
2980.46 999682 1195394 1251886 1414370 1513540 1441082
2986.25 1712156 1795820 1765396 1692108 1650842 1454226
2992.04 1366100 1367728 1342042 1256430 1478260 1539478
2997.82 1427820 1153060 1247874 1485390 1828004 2024552
3003.61 2276082 2540758 2696078 2707364 2958654 2903526
3009.39 2711494 2851636 2989702 2699908 3040974 3577600
3015.18 3838770 4225958 4980104 5620298 6466382 7638544
3020.96 8938752 10310940 11945360 13717090 15717430 17758270
3026.75 19808250 21861030 23995810 25966280 27567450 28997210
3032.53 29984180 30200370 29826300 28592330 26770770 25450320
3038.32 24295280 22990490 24863250 34459540 37803820 26869170
3044.10 20254620 20336040 23388770 26603120 29723010 33058030
3049.89 34773320 34573650 34245290 33593860 32817120 31562420
3055.67 29882860 27480040 25127450 22633280 20056410 17532710
3061.46 15667910 13619860 11569100 9920892 8859888 7755736
3067.25 7093342 6729604 6450218 6011924 5779446 5519984
3073.03 5273404 5055436 4917214 4477954 4534404 4842638
3078.82 4918354 4606734 4460840 4607866 5293608 5700784
3084.60 6168542 6865292 7175604 7341956 8269822 8567670
3090.39 8613534 9538658 9829480 9570152 11063610 11385110
3096.17 10792260 12049900 12783920 12136110 13977940 15524770
3101.96 14947930 16873700 20134150 21435110 24269180 27130140
3107.74 28072550 31057310 36500660 39116640 41154360 44525090
3113.53 45113740 44224080 43350140 40651590 36305560 31345920
3119.31 26928550 23776390 26502850 38263640 37700460 19641280
3125.10 14603700 19954230 27048240 33039190 38366610 42232530
3130.89 44472070 44625670 44629020 43666700 40104540 37574520
3136.67 35475700 30200220 27352830 25389930 20525670 17653780
3142.46 16873740 13508050 11850340 11877530 9407058 7913018
3148.24 8607368 7024638 6328686 7219640 6431760 5689242
3154.03 6263986 5393918 5199354 5605068 4816512 4532298
3159.81 4830864 4220104 4235250 4047080 3433626 3440784
3165.60 3312090 2855202 2958034 2612302 2384398 2422482
3171.38 2162256 1906632 2020346 1678068 1642506 1641658
3177.17 1622098 1497778 1334696 1102666 981236 886596
3182.95 858074 529042 527272 509810 466810 397942
3188.74 245736 38534 148716 89508-26600-171040
3194.53-77458-148672-200220-270744-136196-109412
3200.31-219700-429144-389064-404692-289648-339370
3206.10-387508-430546-355568-421504-471672-494926
3211.88-365284-426288-341436-357218-358978-491028
3217.67-386938-244560-239350-373858-238310-362830
3223.45-332704-221976-189156-513970-629742-539394
3229.24-157668 124920 56762-186868-197888-249456
3235.02-165508-311208-364266-523710-617948-629710
3240.81-442256-426832-508266-604168-561364-724424
3246.59-768348-730096-526038-622708-620948-562534
3252.38-499600-615810-621176-650274-550248-486946
3258.17-322258-353222-309768-438974-324882-227388
3263.95-207666-427674-544176-586224-419968-433696
3269.74-368164-317762-327234-456884-444258-460462
3275.52-385702-463222-345824-304606-222818-372872
3281.31-449270-454750-226836-176182-145860-303956
3287.09-335708-377822-279580-372952-360692-321762
3292.88-251036-335924-188196-81502-25676-41798
3298.66 59600-63084-39990-58624-150238-320180
3304.45-283260-256800-35644 47984 144642 97400
3310.23 255544 339884 405914 457130 613710 709656
3316.02 917622 985828 1109272 1160664 1264474 1107206
3321.80 1159572 1182904 1221056 1059130 1153864 1056594
3327.59 929844 832722 613990 618586 1210972 1495350
3333.38 1340650 1130946 1371966 1555708 1762778 2016872
3339.16 2241200 2248018 2281250 2144894 2005890 1751808
3344.95 1725384 1488464 1136164 729726 649714 603012
3350.73 657388 483100 303956 215940 290038 288460
3356.52 455590 646624 809654 678244 795922 782092
3362.30 662468 530790 548982 334174 281690 176392
3368.09 80246 113364 289042 180066 146784 163130
3373.87 113732-8358 70960-48592-21846-174566
3379.66-81738 54396 38684-116698-146604-190090
3385.44-167224-314810-411480-446270-381340-469594
3391.23-98908 51602-108818-190306-234798-360834
3397.02-344890-517290-506140-387800-121074-99976
3402.80-156684-324740-344108-523592-586046-340280
3408.59-92140-349340-375892-267040-119610-282548
3414.37-239900-339942-272506-254542-113496-107456
3420.16-11998-86956-100772-126322-134630-236014
3425.94-197232-191456-68464-156168-148264-49974
3431.73 15574-183688-199826-127402-132518-246766
3437.51 25850-24418-141768-180770 73046 99914
3443.30-71968-247532-73054 75976-59554-73696
3449.08 86134 3030 64612 56538 118206 225112
3454.87 328538 306954 268606 2660-48344-11794
3460.66 106152 70538 30930-153024-184120-222250
3466.44-86178-172944 21302 163010 127404-53192
3472.23-116030-143480 42174 155588 120344-10198
3478.01-11852-65278-44784 15162 256266 251872
3483.80 114218 19274 80494 2574-18660 26508
3489.58 150528 78162 9416 112106 447242 453690
3495.37 380328 253808 359260 318868 325858 308674
3501.15 498456 792308 866782 413764 179646 137090
3506.94 305558 507534 634568 447238 358172 351620
3512.72 739598 737696 722238 845016 970150 924684
3518.51 821816 643216 767910 753758 833514 768812
3524.30 840714 877004 964452 795622 619516 446256
3530.08 469870 375576 620216 625072 367000 426396
3535.87 661346 471974 417170 418036 559518 522234
3541.65 725726 749000 846986 854716 910884 802220
3547.44 585562 336198 229514 325042 586146 337434
3553.22 144290-5264 142874 44188 39866-4306
3559.01 271588 161060 146066 310286 461908 515888
3564.79 1251916 1616008 1869708 1375242 577124 388678
3570.58 231580 159324 274352 206740 77918 98798
3576.36 198844 22242 264734 311326 176166 267796
3582.15 427916 264132 442386 1402170 1786148 1777274
3587.94 2126388 862064 256902 240054 842686 801186
3593.72 865902 978834 746390 597800 697146 670696
3599.51 899686 669412 491034 463262 523594 455456
3605.29 993834 1290338 1738584 3028858 2006190 917054
3611.08 2191926 2300766 1473592 1368500 1043714 1288152
3616.86 1985738 2630178 3332068 1813802 962688 739748
3622.65 799214 761474 1227096 1318728 2912602 5813508
3628.43 6584318 3780732 1582322 1449510 1984482 1979080
3634.22 1566200 1459460 1593298 1663528 1582274 1474128
3640.00 1606122 1802304 1801106 1559020 1758200 2227052
3645.79 3709544 4338520 5940010 6800840 5453894 4315638
3651.57 2467434 1792978 1916078 3750378 5242398 3331860
3657.36 2028970 2006738 2057112 1941108 1732776 1557682
3663.15 1474488 1356748 1328434 1179780 2286822 3542046
3668.93 5301476 6987186 3406454 1401060 2646704 5857012
3674.72 8102332 5350814 1692930 1427322 1661162 1043230
3680.50 442850 519942 403692 395470 179484 260020
3686.29 2359758 6889550 4923716 1843858 2806684 1805784
3692.07 582168 462210 417336 356896 339858 283342
3697.86 280752 198070 839050 1919706 1202788 286070
3703.64 162186 132928 154430 150174 999786 1987718
3709.43 1375948 2935612 4625436 1742820 299674 216686
3715.21 13060 4676 412146 581172 207720 327722
3721.00 1178822 844446 281532 622498 1151654 1364702
3726.79 417582-57500-75048 501426 2989996 3383370
3732.57 1293022 2415000 3332930 4027392 2689944 979140
3738.36 326746 368026 803396 606948 2852722 10024530
3744.14 9461410 2090584 385342 1681990 6321462 5949566
3749.93 2905250 6762472 5730356 855630 59482 559608
3755.71 1084698 383968 607152 1603984 1055084-76044
3761.50-72542-31008 175156 967156 939732-33650
3767.28 119942 1412334 2112232 444516-254930-359668
3773.07-226912-286014-91192-112830 2418 695682
3778.85 1159358 60608-188914-258854-53508 134156
3784.64 109952-270238-301302-303026-235702-320340
3790.43-149064-350362-250360-283510 401492 1460392
3796.21 1281280 199808 103496 1495472 6115926 5462462
3802.00 1396408 204096 101178 1608316 4334190 2751176
3807.78 98572-163340-140810 37470 24122 94122
3813.57 930870 5355692 6349684 1776314 565598 1093580
3819.35 3309316 4913884 3188610 842014 681886 744636
3825.14 1451314 1654112 1090200 720860 895090 2096428
3830.92 3067638 1943816 2153896 3412466 2860698 3941772
3836.71 8638868 6299172 2946976 3338308 3042444 2416404
3842.49 3006784 2403216 1363870 1279566 1384684 1455668
3848.28 1806992 2095960 4550600 7504548 8547000 13064860
3854.07 8608482 2812796 2870138 2771826 2400340 2109202
3859.85 2519758 3061038 2294500 2071904 3670402 3063020
3865.64 1016718 726792 1929120 4804344 4706260 1459310
3871.42 418430 1123996 1922882 942324 256986 180744
3877.21 405680 1045110 2412652 2000864 832588 635892
3882.99 769212 2550016 4251552 1983804 634498 520512
3888.78 731152 2419804 3094580 1258734 904750 824552
3894.56 881736 798942 985958 1931180 3137332 2258596
3900.35 3064086 3307106 2833326 3714998 2631138 1517996
3906.13 1230192 1166632 1182502 864966 754202 636770
3911.92 657922 721902 862308 1227952 1954558 1930516
3917.70 1498462 1834464 1807304 1151718 1129340 1377650
3923.49 1705396 1579688 1037434 704318 852138 942460
3929.28 898016 798010 1243250 1112334 789094 489060
3935.06 307348 350612 592808 410254 390680 415022
3940.85 636984 912076 748996 512294 440870 465338
3946.63 704618 646248 852044 718836 489766 456176
3952.42 443110 489776 541392 508952 533900 454788
3958.20 521582 577500 781988 780152 529770 396686
3963.99 543598 524188 625342 811794 967874 953026
3969.77 959848 987576 1085050 1062126 1330022
##END=
