##TITLE=ALLYLAMINE
$$ E.K. (W.L.)
##JCAMP-DX=4.24
##DATA TYPE=INFRARED SPECTRUM
##CLASS=COBLENTZ
##ORIGIN=WYANDOTTE CHEMICALS CORP., WYANDOTTE, MICHIGAN, USA
##OWNER=COBLENTZ SOCIETY
Collection (C) 2018 copyright by the U.S. Secretary of Commerce
on behalf of the United States of America. All rights reserved.
##DATE=Not specified, most likely prior to 1970
##NAMES=2-propen-1-amine
##CAS REGISTRY NO=107-11-9
##MOLFORM=C3 H7 N
##BP=52.5 C
##SOURCE REFERENCE=COBLENTZ NO. 1393
##$NIST SOURCE=COBLENTZ
##$NIST IMAGE=cob1393
##SPECTROMETER/DATA SYSTEM=Not specified, most likely a prism, grating, or hybrid spectrometer.
##STATE=LIQUID
##PATH LENGTH=0.003 CM
##SAMPLING PROCEDURE=TRANSMISSION
##RESOLUTION=4
##DATA PROCESSING=DIGITIZED BY NIST FROM HARD COPY
##XUNITS=MICROMETERS
##YUNITS=TRANSMITTANCE
##XFACTOR=1.000000
##YFACTOR=1
##DELTAX=000.006799
##FIRSTX=2.061
##LASTX=16.0068
##FIRSTY=0.974
##MAXX=16.0068
##MINX=2.061
##MAXY=0.977
##MINY=0.028
##NPOINTS=2052
##XYDATA=(X++(Y..Y))
2.061000 0.9740 0.9740 0.9770 0.9770 0.9720
2.095014 0.9720 0.9710 0.9710 0.9710 0.9710
2.129000 0.9690 0.9640 0.9540 0.9520 0.9500
2.163014 0.9480 0.9500 0.9500 0.9520 0.9520
2.197000 0.9480 0.9480 0.9420 0.9330 0.9300
2.231014 0.9250 0.9250 0.9230 0.9230 0.9230
2.265000 0.9210 0.9210 0.9230 0.9250 0.9280
2.299014 0.9310 0.9330 0.9370 0.9380 0.9380
2.333000 0.9400 0.9420 0.9420 0.9420 0.9430
2.367014 0.9430 0.9450 0.9470 0.9470 0.9480
2.401000 0.9500 0.9540 0.9550 0.9570 0.9540
2.435014 0.9540 0.9520 0.9520 0.9520 0.9500
2.469000 0.9500 0.9480 0.9500 0.9520 0.9520
2.503014 0.9540 0.9540 0.9590 0.9590 0.9570
2.537000 0.9570 0.9570 0.9570 0.9570 0.9570
2.571014 0.9570 0.9570 0.9600 0.9570 0.9570
2.605000 0.9540 0.9520 0.9520 0.9520 0.9540
2.639014 0.9540 0.9540 0.9520 0.9520 0.9500
2.673000 0.9430 0.9380 0.9300 0.9230 0.9180
2.707014 0.9040 0.9010 0.8920 0.8910 0.8890
2.741000 0.8870 0.8840 0.8790 0.8720 0.8630
2.775014 0.8520 0.8360 0.8240 0.8140 0.8070
2.809000 0.8040 0.8020 0.7990 0.7720 0.7580
2.843014 0.7480 0.7320 0.7210 0.7070 0.6980
2.877000 0.6830 0.6710 0.6640 0.6580 0.6470
2.911014 0.6390 0.6270 0.6170 0.6070 0.5960
2.945000 0.5730 0.5590 0.5420 0.5270 0.4820
2.979014 0.4770 0.4090 0.3460 0.2820 0.2270
3.013000 0.2260 0.2290 0.2530 0.3190 0.3190
3.047014 0.2900 0.2680 0.2550 0.2430 0.2580
3.081000 0.2680 0.2800 0.3110 0.3480 0.3670
3.115014 0.3770 0.3970 0.4010 0.4080 0.4130
3.149000 0.4130 0.4180 0.4260 0.4330 0.4480
3.183014 0.4670 0.4980 0.5100 0.5220 0.5340
3.217000 0.5560 0.5560 0.5180 0.4500 0.3530
3.251014 0.2560 0.2510 0.2510 0.2530 0.3230
3.285000 0.4670 0.5370 0.5370 0.4770 0.3790
3.319014 0.3500 0.3210 0.3020 0.2970 0.2940
3.353000 0.2800 0.2530 0.2820 0.2970 0.4090
3.387014 0.4310 0.4310 0.3550 0.2770 0.2410
3.421000 0.2190 0.1800 0.1730 0.1640 0.1640
3.455014 0.1700 0.1780 0.1830 0.2020 0.2170
3.489000 0.2290 0.2290 0.2170 0.1980 0.1920
3.523014 0.1830 0.1810 0.1830 0.1980 0.2050
3.557000 0.2290 0.2670 0.3120 0.4160 0.4500
3.591014 0.5110 0.5510 0.5730 0.6000 0.6220
3.625000 0.6470 0.6590 0.6760 0.6780 0.6800
3.659014 0.6810 0.6900 0.7020 0.7100 0.7270
3.693000 0.7480 0.7600 0.7770 0.7870 0.7900
3.727014 0.7970 0.8010 0.8070 0.8120 0.8180
3.761000 0.8210 0.8230 0.8230 0.8230 0.8260
3.795014 0.8280 0.8290 0.8460 0.8530 0.8600
3.829000 0.8630 0.8690 0.8720 0.8740 0.8750
3.863014 0.8770 0.8770 0.8790 0.8800 0.8820
3.897000 0.8820 0.8840 0.8840 0.8860 0.8860
3.931014 0.8860 0.8870 0.8870 0.8870 0.8860
3.965000 0.8860 0.8840 0.8840 0.8820 0.8820
3.999014 0.8820 0.8840 0.8860 0.8870 0.8870
4.033000 0.8870 0.8840 0.8820 0.8820 0.8800
4.067014 0.8800 0.8820 0.8860 0.8870 0.8890
4.101000 0.8890 0.8910 0.8910 0.8920 0.8920
4.135014 0.8940 0.8940 0.8960 0.8960 0.8990
4.169000 0.9010 0.9010 0.9030 0.8990 0.8970
4.203014 0.8940 0.8920 0.8920 0.8910 0.8890
4.237000 0.8840 0.8840 0.8920 0.8920 0.8970
4.271014 0.9010 0.9040 0.9040 0.9040 0.9040
4.305000 0.9040 0.9040 0.9080 0.9090 0.9130
4.339014 0.9140 0.9160 0.9160 0.9080 0.9060
4.373000 0.9040 0.9040 0.9010 0.8960 0.8910
4.407014 0.8890 0.8870 0.8870 0.8870 0.8870
4.441000 0.8870 0.8870 0.8890 0.8890 0.8820
4.475014 0.8820 0.8800 0.8800 0.8800 0.8800
4.509000 0.8800 0.8790 0.8800 0.8820 0.8820
4.543014 0.8840 0.8860 0.8860 0.8860 0.8860
4.577000 0.8860 0.8860 0.8820 0.8840 0.8840
4.611014 0.8840 0.8840 0.8860 0.8870 0.8870
4.645000 0.8890 0.8910 0.8920 0.8920 0.8920
4.679014 0.8970 0.8970 0.8970 0.8970 0.8970
4.713000 0.8970 0.8920 0.8920 0.8920 0.8920
4.747014 0.8920 0.8910 0.8890 0.8870 0.8860
4.781000 0.8860 0.8840 0.8840 0.8860 0.8860
4.815014 0.8870 0.8870 0.8870 0.8870 0.8870
4.849000 0.8870 0.8860 0.8820 0.8790 0.8770
4.883014 0.8740 0.8740 0.8720 0.8720 0.8700
4.917000 0.8700 0.8720 0.8720 0.8720 0.8740
4.951014 0.8770 0.8770 0.8770 0.8770 0.8750
4.985000 0.8740 0.8720 0.8700 0.8690 0.8650
5.019014 0.8670 0.8620 0.8570 0.8480 0.8400
5.053000 0.8310 0.8280 0.8190 0.8190 0.8190
5.087014 0.8190 0.8210 0.8210 0.8240 0.8240
5.121000 0.8260 0.8280 0.8290 0.8310 0.8330
5.155014 0.8350 0.8350 0.8360 0.8360 0.8360
5.189000 0.8360 0.8350 0.8350 0.8330 0.8330
5.223014 0.8330 0.8310 0.8290 0.8290 0.8290
5.257000 0.8290 0.8280 0.8280 0.8260 0.8230
5.291014 0.8240 0.8240 0.8260 0.8240 0.8260
5.325000 0.8260 0.8230 0.8120 0.8110 0.8070
5.359014 0.8040 0.8010 0.8010 0.7950 0.7900
5.393000 0.7770 0.7680 0.7670 0.7610 0.7580
5.427014 0.7560 0.7480 0.7460 0.7360 0.7220
5.461000 0.7150 0.7150 0.7220 0.7220 0.7260
5.495014 0.7360 0.7460 0.7510 0.7560 0.7670
5.529000 0.7780 0.7900 0.8010 0.8110 0.8120
5.563014 0.8180 0.8210 0.8230 0.8260 0.8280
5.597000 0.8290 0.8290 0.8290 0.8310 0.8310
5.631014 0.8310 0.8290 0.8290 0.8290 0.8290
5.665000 0.8290 0.8290 0.8290 0.8290 0.8290
5.699014 0.8280 0.8260 0.8230 0.8230 0.8190
5.733000 0.8180 0.8180 0.8180 0.8120 0.8090
5.767014 0.8010 0.7970 0.7940 0.7900 0.7870
5.801000 0.7840 0.7820 0.7780 0.7680 0.7650
5.835014 0.7560 0.7550 0.7530 0.7500 0.7410
5.869000 0.7310 0.7260 0.7100 0.7000 0.6900
5.903014 0.6850 0.6810 0.6780 0.6710 0.6590
5.937000 0.6460 0.6300 0.6200 0.6120 0.6000
5.971014 0.5960 0.5860 0.5780 0.5680 0.5350
6.005000 0.5100 0.4980 0.4770 0.4280 0.3500
6.039014 0.2630 0.1760 0.1470 0.1240 0.1220
6.073000 0.1250 0.1730 0.1970 0.2390 0.2820
6.107014 0.3090 0.3120 0.3180 0.3260 0.3260
6.141000 0.3160 0.3010 0.2890 0.2780 0.2770
6.175014 0.2720 0.2680 0.2670 0.2630 0.2610
6.209000 0.2610 0.2600 0.2600 0.2670 0.2720
6.243014 0.2780 0.2820 0.2900 0.3010 0.3160
6.277000 0.3210 0.3290 0.3620 0.3770 0.3890
6.311014 0.4060 0.4160 0.4210 0.4280 0.4380
6.345000 0.4550 0.4620 0.4690 0.4760 0.4890
6.379014 0.5000 0.5150 0.5270 0.5320 0.5390
6.413000 0.5520 0.5640 0.5660 0.5730 0.5760
6.447014 0.5810 0.5880 0.5980 0.6050 0.6120
6.481000 0.6190 0.6250 0.6320 0.6410 0.6460
6.515014 0.6490 0.6510 0.6510 0.6560 0.6580
6.549000 0.6630 0.6660 0.6710 0.6760 0.6780
6.583014 0.6780 0.6800 0.6760 0.6750 0.6750
6.617000 0.6730 0.6730 0.6710 0.6730 0.6730
6.651014 0.6760 0.6750 0.6730 0.6710 0.6700
6.685000 0.6700 0.6700 0.6680 0.6640 0.6590
6.719014 0.6560 0.6540 0.6540 0.6510 0.6460
6.753000 0.6270 0.6080 0.5960 0.5780 0.5560
6.787014 0.5350 0.5150 0.4960 0.4860 0.4760
6.821000 0.4640 0.4260 0.3960 0.3910 0.3910
6.855014 0.3960 0.3970 0.3990 0.4110 0.4280
6.889000 0.4470 0.4520 0.4550 0.4550 0.4570
6.923014 0.4470 0.4380 0.4370 0.4310 0.4180
6.957000 0.4060 0.3860 0.3750 0.3430 0.3140
6.991014 0.2850 0.2410 0.2360 0.2310 0.2360
7.025000 0.2380 0.2560 0.2870 0.3190 0.3550
7.059014 0.3600 0.3670 0.3860 0.4030 0.4310
7.093000 0.4650 0.4960 0.5250 0.5400 0.5560
7.127014 0.5710 0.5850 0.5980 0.6050 0.6100
7.161000 0.6150 0.6150 0.6050 0.6020 0.5980
7.195014 0.5980 0.5950 0.5950 0.5950 0.5960
7.229000 0.5960 0.5950 0.5930 0.5900 0.5830
7.263014 0.5710 0.5660 0.5560 0.5490 0.5450
7.297000 0.5400 0.5400 0.5420 0.5450 0.5520
7.331014 0.5560 0.5590 0.5590 0.5610 0.5620
7.365000 0.5620 0.5620 0.5640 0.5620 0.5610
7.399014 0.5590 0.5570 0.5560 0.5560 0.5570
7.433000 0.5590 0.5610 0.5640 0.5610 0.5590
7.467014 0.5560 0.5490 0.5400 0.5340 0.5300
7.501000 0.5340 0.5390 0.5400 0.5450 0.5570
7.535014 0.5760 0.5850 0.5960 0.6080 0.6200
7.569000 0.6290 0.6410 0.6460 0.6510 0.6560
7.603014 0.6590 0.6610 0.6610 0.6590 0.6590
7.637000 0.6580 0.6560 0.6530 0.6490 0.6460
7.671014 0.6370 0.6300 0.6250 0.6200 0.6170
7.705000 0.6100 0.6050 0.6030 0.6000 0.6000
7.739014 0.5980 0.5960 0.5960 0.5910 0.5910
7.773000 0.5880 0.5880 0.5900 0.5930 0.5950
7.807014 0.6000 0.6020 0.6050 0.6100 0.6120
7.841000 0.6200 0.6320 0.6460 0.6510 0.6510
7.875014 0.6560 0.6590 0.6710 0.6760 0.6800
7.909000 0.6850 0.6880 0.6900 0.6920 0.6970
7.943014 0.6980 0.7000 0.7000 0.7040 0.7070
7.977000 0.7090 0.7100 0.7100 0.7120 0.7140
8.011014 0.7150 0.7190 0.7210 0.7210 0.7220
8.045000 0.7240 0.7210 0.7170 0.7120 0.7120
8.079014 0.7150 0.7150 0.7170 0.7190 0.7210
8.113000 0.7220 0.7220 0.7240 0.7220 0.7210
8.147014 0.7190 0.7190 0.7190 0.7170 0.7140
8.181000 0.7120 0.7100 0.7100 0.7100 0.7120
8.215014 0.7120 0.7140 0.7120 0.7100 0.7070
8.249000 0.7050 0.7050 0.7000 0.7040 0.7050
8.283014 0.7040 0.7000 0.6980 0.6970 0.6980
8.317000 0.7000 0.7000 0.7040 0.7040 0.7040
8.351014 0.7040 0.7050 0.7040 0.7020 0.7000
8.385000 0.6980 0.6970 0.6920 0.6900 0.6880
8.419014 0.6870 0.6870 0.6850 0.6810 0.6780
8.453000 0.6710 0.6680 0.6640 0.6610 0.6590
8.487014 0.6560 0.6540 0.6510 0.6510 0.6470
8.521000 0.6440 0.6370 0.6340 0.6320 0.6290
8.555014 0.6270 0.6250 0.6220 0.6220 0.6200
8.589000 0.6200 0.6190 0.6170 0.6150 0.6080
8.623014 0.6050 0.6030 0.6000 0.5980 0.5950
8.657000 0.5930 0.5910 0.5880 0.5850 0.5790
8.691014 0.5740 0.5680 0.5660 0.5610 0.5560
8.725000 0.5450 0.5350 0.5220 0.5150 0.5100
8.759014 0.5050 0.4980 0.4940 0.4810 0.4720
8.793000 0.4720 0.4760 0.4810 0.4810 0.4840
8.827014 0.4880 0.4890 0.4960 0.5010 0.5100
8.861000 0.5150 0.5270 0.5350 0.5400 0.5420
8.895014 0.5450 0.5470 0.5490 0.5510 0.5540
8.929000 0.5510 0.5470 0.5350 0.5300 0.5280
8.963014 0.5270 0.5200 0.5170 0.5150 0.5130
8.997000 0.5100 0.5080 0.5060 0.5030 0.5030
9.031014 0.5060 0.5110 0.5130 0.5130 0.5200
9.065000 0.5220 0.5220 0.5220 0.5220 0.5230
9.099014 0.5230 0.5200 0.5170 0.5150 0.5110
9.133000 0.5100 0.5050 0.5010 0.5000 0.4980
9.167014 0.4860 0.4840 0.4820 0.4810 0.4790
9.201000 0.4760 0.4740 0.4740 0.4740 0.4720
9.235014 0.4710 0.4690 0.4640 0.4640 0.4640
9.269000 0.4620 0.4600 0.4600 0.4590 0.4590
9.303014 0.4590 0.4590 0.4590 0.4500 0.4500
9.337000 0.4470 0.4420 0.4380 0.4330 0.4280
9.371014 0.4180 0.4110 0.4040 0.3970 0.3890
9.405000 0.3860 0.3820 0.3670 0.3500 0.3400
9.439014 0.3360 0.3330 0.3280 0.3190 0.3090
9.473000 0.3010 0.2970 0.2920 0.2870 0.2820
9.507014 0.2800 0.2800 0.2800 0.2840 0.2900
9.541000 0.2990 0.3040 0.3120 0.3140 0.3180
9.575014 0.3190 0.3210 0.3230 0.3290 0.3380
9.609000 0.3360 0.3360 0.3350 0.3330 0.3310
9.643014 0.3280 0.3230 0.3210 0.3190 0.3190
9.677000 0.3120 0.3110 0.3090 0.3090 0.3070
9.711014 0.3070 0.3070 0.3070 0.3070 0.3070
9.745000 0.3070 0.3090 0.3090 0.3090 0.3090
9.779014 0.3110 0.3110 0.3120 0.3120 0.3070
9.813000 0.3070 0.3020 0.3010 0.2970 0.2900
9.847014 0.2870 0.2770 0.2680 0.2560 0.2480
9.881000 0.2380 0.2270 0.2100 0.1920 0.1830
9.915014 0.1660 0.1540 0.1460 0.1300 0.1220
9.949000 0.1000 0.0900 0.0790 0.0690 0.0660
9.983014 0.0640 0.0540 0.0520 0.0510 0.0520
10.017000 0.0540 0.0590 0.0610 0.0620 0.0680
10.051014 0.0780 0.0830 0.0900 0.0980 0.1030
10.085000 0.1120 0.1200 0.1370 0.1490 0.1590
10.119014 0.1700 0.1780 0.1870 0.1980 0.2020
10.153000 0.2020 0.2140 0.2190 0.2240 0.2270
10.187014 0.2290 0.2310 0.2340 0.2380 0.2390
10.220000 0.2390 0.2390 0.2390 0.2390 0.2390
10.254014 0.2380 0.2360 0.2360 0.2360 0.2340
10.288000 0.2310 0.2310 0.2320 0.2320 0.2310
10.322014 0.2310 0.2270 0.2240 0.2220 0.2170
10.356000 0.2140 0.2120 0.2070 0.2050 0.2040
10.390014 0.2020 0.2020 0.1980 0.1980 0.1920
10.424000 0.1900 0.1900 0.1880 0.1830 0.1800
10.458014 0.1730 0.1680 0.1630 0.1610 0.1590
10.492000 0.1540 0.1530 0.1490 0.1420 0.1370
10.526014 0.1340 0.1320 0.1290 0.1240 0.1220
10.560000 0.1170 0.1100 0.1050 0.1030 0.1000
10.594014 0.0980 0.0980 0.0930 0.0900 0.0850
10.628000 0.0810 0.0780 0.0760 0.0740 0.0730
10.662014 0.0680 0.0620 0.0610 0.0590 0.0590
10.696000 0.0590 0.0540 0.0520 0.0510 0.0490
10.730014 0.0470 0.0470 0.0450 0.0450 0.0440
10.764000 0.0440 0.0420 0.0420 0.0400 0.0390
10.798014 0.0370 0.0370 0.0350 0.0350 0.0350
10.832000 0.0340 0.0340 0.0340 0.0340 0.0340
10.866014 0.0340 0.0340 0.0340 0.0340 0.0300
10.900000 0.0280 0.0280 0.0280 0.0280 0.0280
10.934014 0.0300 0.0300 0.0340 0.0340 0.0320
10.968000 0.0300 0.0300 0.0300 0.0300 0.0340
11.002014 0.0340 0.0350 0.0390 0.0390 0.0400
11.036000 0.0420 0.0440 0.0470 0.0470 0.0510
11.070014 0.0520 0.0540 0.0540 0.0540 0.0540
11.104000 0.0590 0.0640 0.0680 0.0690 0.0690
11.138014 0.0690 0.0710 0.0740 0.0740 0.0740
11.172000 0.0740 0.0760 0.0780 0.0780 0.0790
11.206014 0.0790 0.0810 0.0810 0.0850 0.0850
11.240000 0.0850 0.0850 0.0880 0.0900 0.0930
11.274014 0.0950 0.0980 0.1020 0.1030 0.1030
11.308000 0.1050 0.1070 0.1070 0.1070 0.1080
11.342014 0.1070 0.1070 0.1050 0.1030 0.1020
11.376000 0.1020 0.1020 0.1020 0.1030 0.1030
11.410014 0.1020 0.1020 0.1000 0.1000 0.0980
11.444000 0.0980 0.0980 0.0980 0.0980 0.0980
11.478014 0.0950 0.0950 0.0930 0.0900 0.0850
11.512000 0.0830 0.0810 0.0790 0.0780 0.0760
11.546014 0.0740 0.0740 0.0730 0.0730 0.0710
11.580000 0.0710 0.0710 0.0710 0.0710 0.0710
11.614014 0.0690 0.0690 0.0680 0.0640 0.0640
11.648000 0.0620 0.0620 0.0640 0.0640 0.0640
11.682014 0.0620 0.0620 0.0620 0.0620 0.0610
11.716000 0.0610 0.0570 0.0540 0.0520 0.0520
11.750014 0.0520 0.0520 0.0520 0.0540 0.0540
11.784000 0.0540 0.0540 0.0540 0.0540 0.0540
11.818014 0.0540 0.0520 0.0520 0.0510 0.0510
11.852000 0.0490 0.0490 0.0490 0.0470 0.0450
11.886014 0.0450 0.0470 0.0470 0.0470 0.0470
11.920000 0.0470 0.0470 0.0490 0.0490 0.0490
11.954014 0.0490 0.0490 0.0470 0.0440 0.0440
11.988000 0.0420 0.0420 0.0420 0.0420 0.0440
12.022014 0.0440 0.0440 0.0440 0.0440 0.0440
12.056000 0.0440 0.0440 0.0450 0.0470 0.0450
12.090014 0.0450 0.0470 0.0470 0.0490 0.0490
12.124000 0.0490 0.0490 0.0490 0.0490 0.0470
12.158014 0.0450 0.0450 0.0470 0.0490 0.0490
12.192000 0.0510 0.0520 0.0540 0.0540 0.0540
12.226014 0.0540 0.0540 0.0540 0.0540 0.0540
12.260000 0.0540 0.0540 0.0540 0.0540 0.0540
12.294014 0.0540 0.0540 0.0560 0.0560 0.0570
12.328000 0.0590 0.0590 0.0610 0.0620 0.0620
12.362014 0.0620 0.0620 0.0640 0.0640 0.0660
12.396000 0.0680 0.0690 0.0690 0.0710 0.0730
12.430014 0.0740 0.0740 0.0740 0.0740 0.0740
12.464000 0.0760 0.0780 0.0850 0.0850 0.0880
12.498014 0.0880 0.0900 0.0910 0.0980 0.0980
12.532000 0.1000 0.1020 0.1030 0.1030 0.1030
12.566014 0.1030 0.1030 0.1070 0.1080 0.1100
12.600000 0.1150 0.1200 0.1270 0.1340 0.1360
12.634014 0.1360 0.1360 0.1370 0.1370 0.1410
12.668000 0.1420 0.1490 0.1580 0.1630 0.1630
12.702014 0.1640 0.1640 0.1640 0.1680 0.1730
12.736000 0.1780 0.1830 0.1870 0.1920 0.1930
12.770014 0.1930 0.1950 0.1970 0.2000 0.2020
12.804000 0.2140 0.2190 0.2220 0.2220 0.2240
12.838014 0.2290 0.2310 0.2380 0.2410 0.2480
12.872000 0.2500 0.2530 0.2560 0.2580 0.2580
12.906014 0.2600 0.2600 0.2610 0.2700 0.2800
12.940000 0.2820 0.2840 0.2870 0.2900 0.2940
12.974014 0.2950 0.2970 0.3020 0.3040 0.3070
13.008000 0.3110 0.3120 0.3160 0.3180 0.3210
13.042014 0.3230 0.3230 0.3290 0.3330 0.3410
13.076000 0.3450 0.3480 0.3480 0.3520 0.3530
13.110014 0.3530 0.3530 0.3570 0.3600 0.3630
13.144000 0.3690 0.3720 0.3740 0.3740 0.3740
13.178014 0.3750 0.3770 0.3790 0.3870 0.3910
13.212000 0.3940 0.3970 0.4010 0.4010 0.4030
13.246014 0.4030 0.4060 0.4080 0.4090 0.4110
13.280000 0.4130 0.4200 0.4230 0.4260 0.4260
13.314014 0.4280 0.4300 0.4310 0.4310 0.4370
13.348000 0.4400 0.4420 0.4430 0.4430 0.4450
13.382014 0.4470 0.4480 0.4520 0.4540 0.4550
13.416000 0.4570 0.4570 0.4590 0.4600 0.4620
13.450014 0.4640 0.4640 0.4650 0.4650 0.4670
13.484000 0.4710 0.4720 0.4710 0.4720 0.4740
13.518014 0.4760 0.4770 0.4770 0.4790 0.4790
13.552000 0.4810 0.4820 0.4880 0.4880 0.4890
13.586014 0.4910 0.4930 0.4940 0.4940 0.4930
13.620000 0.4940 0.4940 0.4960 0.4980 0.5000
13.654014 0.5010 0.5010 0.5030 0.5030 0.5050
13.688000 0.5050 0.5080 0.5100 0.5100 0.5110
13.722014 0.5130 0.5130 0.5130 0.5130 0.5130
13.756000 0.5150 0.5170 0.5180 0.5180 0.5180
13.790014 0.5200 0.5220 0.5220 0.5230 0.5230
13.824000 0.5230 0.5230 0.5230 0.5270 0.5300
13.858014 0.5300 0.5320 0.5320 0.5320 0.5320
13.892000 0.5320 0.5340 0.5340 0.5340 0.5370
13.926014 0.5390 0.5400 0.5400 0.5420 0.5420
13.960000 0.5440 0.5450 0.5450 0.5470 0.5470
13.994014 0.5490 0.5490 0.5490 0.5490 0.5490
14.028000 0.5490 0.5510 0.5510 0.5520 0.5520
14.062014 0.5540 0.5560 0.5540 0.5560 0.5560
14.096000 0.5570 0.5590 0.5610 0.5610 0.5610
14.130014 0.5610 0.5610 0.5610 0.5620 0.5640
14.164000 0.5640 0.5660 0.5660 0.5660 0.5660
14.198014 0.5680 0.5660 0.5680 0.5680 0.5690
14.232000 0.5710 0.5710 0.5730 0.5730 0.5730
14.266014 0.5730 0.5730 0.5730 0.5730 0.5730
14.300000 0.5730 0.5740 0.5780 0.5780 0.5780
14.334014 0.5780 0.5780 0.5760 0.5760 0.5760
14.368000 0.5760 0.5760 0.5780 0.5780 0.5790
14.402014 0.5790 0.5790 0.5790 0.5790 0.5790
14.436000 0.5790 0.5790 0.5810 0.5810 0.5810
14.470014 0.5850 0.5850 0.5790 0.5790 0.5830
14.504000 0.5830 0.5830 0.5810 0.5810 0.5830
14.538014 0.5850 0.5850 0.5860 0.5860 0.5850
14.572000 0.5810 0.5830 0.5830 0.5830 0.5850
14.606014 0.5860 0.5880 0.5880 0.5880 0.5900
14.640000 0.5900 0.5860 0.5850 0.5830 0.5810
14.674014 0.5810 0.5790 0.5810 0.5810 0.5860
14.708000 0.5860 0.5810 0.5830 0.5830 0.5830
14.742014 0.5850 0.5880 0.5900 0.5900 0.5880
14.776000 0.5860 0.5850 0.5830 0.5810 0.5830
14.810014 0.5830 0.5830 0.5830 0.5830 0.5830
14.844000 0.5830 0.5830 0.5830 0.5830 0.5830
14.878014 0.5830 0.5810 0.5790 0.5790 0.5780
14.912000 0.5790 0.5790 0.5790 0.5790 0.5780
14.946014 0.5760 0.5760 0.5740 0.5740 0.5740
14.980000 0.5740 0.5740 0.5760 0.5740 0.5740
15.014014 0.5740 0.5730 0.5710 0.5710 0.5710
15.048000 0.5710 0.5710 0.5710 0.5710 0.5710
15.082014 0.5680 0.5640 0.5620 0.5590 0.5570
15.116000 0.5570 0.5560 0.5540 0.5540 0.5520
15.150014 0.5510 0.5490 0.5510 0.5510 0.5520
15.184000 0.5520 0.5510 0.5470 0.5470 0.5450
15.218014 0.5450 0.5440 0.5440 0.5440 0.5400
15.252000 0.5370 0.5320 0.5300 0.5300 0.5280
15.286014 0.5300 0.5300 0.5320 0.5340 0.5340
15.320000 0.5340 0.5340 0.5340 0.5340 0.5300
15.354014 0.5270 0.5220 0.5200 0.5180 0.5170
15.388000 0.5170 0.5150 0.5130 0.5130 0.5130
15.422014 0.5130 0.5110 0.5110 0.5100 0.5110
15.456000 0.5110 0.5110 0.5130 0.5110 0.5110
15.490014 0.5110 0.5100 0.5110 0.5110 0.5110
15.524000 0.5100 0.5080 0.5080 0.5060 0.5060
15.558014 0.5060 0.5080 0.5100 0.5130 0.5150
15.592000 0.5150 0.5170 0.5150 0.5150 0.5130
15.626014 0.5130 0.5150 0.5150 0.5170 0.5170
15.660000 0.5180 0.5180 0.5220 0.5250 0.5280
15.694014 0.5300 0.5300 0.5320 0.5320 0.5340
15.728000 0.5340 0.5340 0.5340 0.5340 0.5340
15.762014 0.5370 0.5390 0.5400 0.5420 0.5450
15.796000 0.5470 0.5470 0.5490 0.5510 0.5520
15.830014 0.5540 0.5570 0.5610 0.5610 0.5610
15.864000 0.5590 0.5590 0.5610 0.5610 0.5640
15.898014 0.5640 0.5640 0.5640 0.5640 0.5660
15.932000 0.5680 0.5690 0.5710 0.5710 0.5710
15.966014 0.5710 0.5710 0.5690 0.5690 0.5730
16.000000 0.5730 0.5730
##END=
