##TITLE=1,2-Dichloroethane
##JCAMP-DX=4.24
##DATA TYPE=INFRARED SPECTRUM
##CLASS=IUPAC A
##ORIGIN=NIST, Analytical Chemistry Division, 301-975-3108
##OWNER=COPYRIGHT (C) 2001 by the U.S. Secretary of Commerce
##DATE=01/06/01
##$SPECTRA VERSION=1.10
##$UNCERTAINTY IN Y=2.1 % relative (B=1.10E-04,C=7.45E-10,D=1.46E-14)
##CAS NAME=1,2-Dichloroethane
##CAS REGISTRY NO=107-06-2
##MOLFORM=Cl C H2 C H2 Cl
##MP=-35.36 C
##BP=83.47 C
##$NIST SOURCE=QUANT-IR
##SPECTROMETER/DATA SYSTEM=IFS66V (Bruker)
##INSTRUMENT PARAMETERS=KBr Beam Splitter; MCT Detector; Multipass cell
##STATE=gas
##SAMPLE DESCRIPTION=1,2-Dichloroethane Primary Gas Standard
##PRESSURE=101.3 Pa
##TEMPERATURE=23 C
##SAMPLING PROCEDURE=1 L/min Flow
##RESOLUTION=0.9640
##DATA PROCESSING=Triangular Apodization
##XUNITS=cm-1
##YUNITS=(micromol/mol)-1m-1 (base 10)
##XFACTOR=1.0
##YFACTOR=9.0949E-13
##DELTAX=0.4820
##FIRSTX=575.17
##LASTX=3974.605
##FIRSTY=1.72E-07
##MAXX=3974.12
##MINX=575.17
##MAXY=.0005762
##MINY=-1.14E-06
##NPOINTS=7052
##XYDATA=(X++(Y..Y))
575.17 189950 368231 980815 1276879 1216431 775764
577.58 861113 1178721 970920 1019748 1269757 701090
580.47 146302 175857 700364 255625 348428 970104
583.37 814814 767977 299614 114673 698313 609835
586.26 580701 459351 197017 603895 454477 43080
589.15-47516 338182 446375 511312 616995 632826
592.04 772711 735953 532055 198101 180333 261203
594.94 227036-54768-58551 341744 293589 26433
597.83 66771 106489 242733 345398 104287-258059
600.72-97060 265877 11290-225519-75121-215098
603.62-220698 314854 190900-53478 97177 106420
606.51 130271 100352 165476 26445-80327-220494
609.40-380785-126917 90231 316455 334747-121108
612.29-331724-178289 118638 302084 418096 268056
615.19 79472 116821 167890 391424 55875-47044
618.08 143821-23677 1909 173371 66373-117853
620.97-197909-3797 138862 34580 182810 441750
623.86 458195 384322 254285 193218 179342 274796
626.76 587996 528768 629801 792741 535821 532688
629.65 600446 639820 829097 787777 668143 722888
632.54 986863 1033545 927727 940957 921112 942002
635.44 978451 1244942 1446953 1411758 1485211 1617326
638.33 1498611 1572144 2059775 2329905 2240347 2182060
641.22 2466493 2757217 2994317 3138704 3159914 3450293
644.11 3759127 3821593 3904328 4173948 4525219 4714787
647.01 4904555 5234376 5471954 5873579 6436703 6724318
649.90 6931422 7347804 7862208 8193268 8592630 9101501
652.79 9365987 9619921 10126406 10532555 10916369 11494368
655.68 12066705 12705016 13200667 13713896 14231563 14603585
658.58 15039956 15687266 16100508 16287283 16709954 16942448
661.47 17024348 17355954 17464225 17471114 17492356 17322941
664.36 17196095 16860778 16475365 16162663 15877519 14934442
667.26 14166262 14711719 15394130 15900363 16318441 16809685
670.15 17454197 18109212 19077796 20392453 21436254 22231025
673.04 23251275 24170984 24788954 25298382 25214783 25294489
675.93 25729485 25906806 26545918 27378565 27973409 28458152
678.83 29056627 29918177 30797984 31683842 32718489 34030437
681.72 35281605 36691237 38244676 39530435 40879987 42119885
684.61 43152705 44099730 44591157 44619475 44541730 44380392
687.50 43845867 43220549 43054126 42270849 39763309 37489893
690.40 38731920 43548747 46048093 40779177 36407413 43313128
693.29 52614786 49761066 39472692 35202865 34301180 33700547
696.18 35390034 37691774 39818105 42050769 44022177 45402739
699.08 46268382 46729941 46785082 46498490 45919411 45312618
701.97 44866732 44578367 44386015 44431154 45036677 46060759
704.86 47588228 49811917 52625771 56233644 60365019 65439704
707.75 71524205 78334347 85929605 94646198 104480165 115132205
710.65 126524482 139504418 153896153 169455970 185941916 203575466
713.54 222534249 242471347 263991280 286845538 309966467 333987267
716.43 358808108 384825408 411054250 436315402 461006272 485166752
719.32 507273879 527570599 546376373 563652164 578105504 589353827
722.22 595862903 600401498 603159118 603009120 598260383 591913540
725.11 588075510 585463479 577175731 567229712 563769467 570119703
728.00 578102058 574769594 572129773 578060375 598133614 624168332
730.90 633568950 614057310 606121036 611224459 607218702 594594753
733.79 570520551 537464726 495845165 449441731 399100042 347145766
736.68 295994781 247231827 201779584 161052970 125677632 96010976
739.57 71723891 52795779 38539832 28313387 21102891 16509413
742.47 13683713 12112108 11316063 10752243 10227016 9940961
745.36 9685062 9435681 9163156 8970978 8968068 8926866
748.25 8591543 8539771 8615653 8482672 8275979 8332962
751.14 8416267 8329594 8126182 8265454 8389724 8129068
754.04 7975649 8380035 8533979 8132561 8084955 8612733
756.93 8482036 8070021 8230081 8436659 8231225 8037758
759.82 8369446 8453616 8012725 7844745 8265268 8462308
762.72 8185358 8284208 8578232 8549865 8257554 8340482
765.61 8800565 8686501 8164917 8085059 8056924 7935218
768.50 7866578 7938689 8126369 8313155 8639773 9187887
771.39 9691469 9839696 9094275 8029444 7491666 7170378
774.29 7092463 7164324 6864255 6629375 6669403 6630087
777.18 6381837 6113735 6089558 6091510 5926040 5793356
780.07 6000271 6103313 5746697 5532072 5667670 5673884
782.96 5359665 5247303 5520630 5590772 5389858 5294288
785.86 5402757 5345052 5010789 4781952 4861727 4857370
788.75 4511174 4516545 4723636 4390639 4021194 4293387
791.64 4369007 3892824 3829025 3991370 3821447 3597890
794.54 3654343 3804954 3624461 3456221 3399621 3415746
797.43 3317668 2948110 2902191 3126278 2975038 2875786
800.32 2959322 2676093 2424786 2543641 2626309 2441849
803.21 2445392 2497820 2334433 2264526 2194852 2268529
806.11 2275397 2131941 2112545 2141952 2080301 1989155
809.00 2058409 2039869 1906720 1919081 1921649 1975058
811.89 2019824 1829334 1709962 1712499 1698052 1663491
814.78 1720260 1717253 1718012 1782071 1621710 1732222
817.68 1873404 1755660 1794672 1818983 1787619 1798078
820.57 1788203 1872789 2127101 2116617 1970762 2104028
823.46 2123246 2048720 2035269 2062283 2172686 2312931
826.36 2328394 2338405 2415449 2461924 2470133 2409089
829.25 2443435 2447042 2432862 2464409 2472531 2521524
832.14 2438625 2273766 2278548 2313863 2189994 2143502
835.03 2150037 2191767 2165972 2056802 2052343 2046083
837.93 1971921 1897680 1896375 1913057 1897755 1976048
840.82 2064324 1937122 1886626 1886922 1723769 1549003
843.71 1383258 1374288 1350723 1209415 1228494 1229112
846.60 1095685 936702 818553 817796 834082 812399
849.50 711567 699066 811369 804356 700422 762105
852.39 758741 652381 738978 724524 719920 855038
855.28 894063 833665 896595 1027038 1007294 971317
858.18 894032 754873 786324 962302 1043902 1073360
861.07 1058433 1081025 1180212 1300223 1391024 1411971
863.96 1383261 1425433 1511324 1587706 1736594 1907619
866.85 2032573 2260796 2337099 2309116 2495659 2645658
869.75 2736943 2904907 3162666 3435692 3790878 4069036
872.64 4360836 4877148 5321870 5766173 6400780 7164652
875.53 8008322 8785150 9644508 10710622 11801412 12732657
878.42 13744555 14830689 15959403 17209600 18367147 19539147
881.32 20682988 21630594 22450992 23179374 23772958 24413151
884.21 24959884 24960475 24205097 23264476 22517272 22020604
887.10 21865308 22406210 23378737 24703705 26016999 27289107
889.99 27204495 23967279 20503447 18464132 17999664 18067832
892.89 18414375 19478303 20455505 21489875 22332701 22942557
895.78 23408865 23395836 23107482 22718264 22020735 21161505
898.67 20188757 19100205 17973573 16702778 15425273 14307607
901.57 13155570 12012728 10940033 9872386 8872094 8048168
904.46 7273423 6598729 6104465 5571013 5070199 4665340
907.35 4249527 3952795 3559528 3242594 3187994 3082958
910.24 2886824 2820594 2744725 2559200 2439552 2415085
913.14 2357995 2220227 2130784 2096703 2136404 2196472
916.03 2144573 2000131 1993087 2069897 2086037 2096053
918.92 2206086 2295997 2329931 2378715 2373444 2426042
921.81 2546706 2698839 2883043 3022912 3018166 3137528
924.71 3277980 3358065 3543687 3789116 4012694 4167142
927.60 4366406 4613531 4853478 5087615 5275023 5449985
930.49 5681852 5912315 6166060 6412187 6660551 7035997
933.39 7295319 7502838 7781784 8053867 8294168 8534163
936.28 8782132 9025699 9228162 9418995 9699485 9843549
939.17 9990381 10111615 10063039 10150511 10265980 10138699
942.06 10044330 10073301 9911419 9644242 9492417 9356140
944.96 9105094 8840053 8590395 8362323 8213419 8233673
947.85 8418663 8619922 8806988 9162990 9819497 10218169
950.74 10306768 10569238 10825262 10841720 10653839 10503473
953.63 10385405 10269477 10153981 9972309 9801275 9570154
956.53 9294606 9018093 8608341 8149755 7749102 7420291
959.42 7125921 6779876 6372208 6050918 5775556 5441760
962.31 5203414 5050354 4824996 4602271 4413157 4197231
965.21 4008985 3850471 3728462 3617255 3489470 3275878
968.10 3127315 3027298 2945151 2876075 2693187 2523882
970.99 2410732 2444309 2409297 2303077 2264767 2121420
973.88 2011757 2021849 2041939 2021435 2001135 2000802
976.78 2040867 2145100 2259357 2311871 2370914 2457465
979.67 2597981 2653152 2652335 2753489 2817636 2882758
982.56 2912284 2896005 2957210 3070327 3166095 3158069
985.45 3099782 3056150 3039755 3059841 3075805 3087722
988.35 3198464 3311244 3334074 3326786 3402128 3514760
991.24 3588259 3664614 3732859 3727108 3613228 3627202
994.13 3666662 3528060 3399217 3329478 3244075 3104207
997.03 2984155 2874342 2732829 2627154 2522030 2425981
999.92 2365246 2296691 2155540 1983813 1899843 1842274
1002.81 1823192 1830147 1801174 1806789 1764928 1781078
1005.70 1863961 1811556 1740835 1794477 1867248 1891671
1008.60 1925493 1989258 2066276 2148883 2211472 2298658
1011.49 2395684 2478667 2588184 2591403 2597619 2760208
1014.38 2874575 3033009 3278937 3430365 3500410 3558849
1017.27 3675820 3811244 3913481 3998321 4077058 4190438
1020.17 4236548 4304472 4489016 4644906 4777963 4829194
1023.06 4745998 4725708 4877621 5060806 5010040 5030239
1025.95 5170283 5164913 5147325 5071831 4972684 4943139
1028.85 4866999 4726441 4558314 4439964 4368706 4207632
1031.74 3975959 3857668 3861561 3788046 3747853 3710648
1034.63 3485141 3279258 3051168 2793921 2750036 2664927
1037.52 2434865 2240350 2143764 1971359 1795732 1737156
1040.42 1672955 1602727 1536287 1494054 1368580 1287122
1043.31 1285871 1251715 1190149 1133217 1111792 1009113
1046.20 896877 885583 875322 814060 829638 824792
1049.09 714221 645358 636941 674670 656807 621944
1051.99 526423 421639 440257 420789 374034 395755
1054.88 394777 316563 272015 276523 244603 200423
1057.77 258559 279351 288494 315094 292109 243231
1060.67 173384 191001 141449 88920 104560 129588
1063.56 173129 153595 115173 96281 172669 197327
1066.45 102488 58079 130109 133152 116520 173219
1069.34 151585 91261 86074 135766 167752 154092
1072.24 139277 108285 95894 124446 123726 125141
1075.13 173037 204354 184657 221900 252525 312272
1078.02 344998 340412 339397 350003 333293 357385
1080.91 463371 444366 469264 506973 477127 577377
1083.81 556262 491804 516332 605985 681880 608021
1086.70 592248 673584 683912 690713 836143 848346
1089.59 809793 957784 1016015 996732 992131 913682
1092.49 957366 1079647 1154402 1282087 1334331 1296850
1095.38 1224413 1200322 1228335 1368860 1452757 1404838
1098.27 1495815 1585338 1539779 1572254 1723723 1774038
1101.16 1723122 1694915 1860282 1897604 1836576 1923950
1104.06 2015303 2099720 2074331 2106711 2208083 2210094
1106.95 2243266 2270664 2292689 2320805 2334115 2486801
1109.84 2557031 2443221 2425743 2535029 2621074 2533915
1112.73 2516158 2717049 2733610 2600461 2659509 2747797
1115.63 2669317 2590689 2669379 2720235 2735028 2821073
1118.52 2874346 2859033 2838715 2969913 3179128 3506356
1121.41 4428216 5357749 5278747 4851841 4584584 4162381
1124.31 3813193 3554226 3256701 3144490 3235198 3154617
1127.20 2974288 3103892 3418217 3202673 2842960 3280623
1130.09 3621552 3060358 2884604 3603277 3607907 2859234
1132.98 3029848 3684709 3439339 3090555 3476436 3691068
1135.88 3264135 3053370 3349430 3518410 3243600 3109631
1138.77 3313827 3390187 3120389 2919787 3091256 3119214
1141.66 2915766 2996792 3185870 3048787 2889695 2984579
1144.55 3124997 3276432 3538662 3379539 2965908 2795389
1147.45 2737251 2798240 2840017 2760008 2787735 2839447
1150.34 2696103 2574510 2555403 2521755 2449943 2425725
1153.23 2360547 2253621 2201910 2220522 2253826 2227388
1156.13 2173684 2129996 2096103 2049749 2082901 2101554
1159.02 2078347 1971722 1836519 1872716 1773184 1640515
1161.91 1681265 1648673 1579479 1555128 1524046 1457333
1164.80 1432527 1395902 1295194 1318839 1328380 1264258
1167.70 1256502 1224431 1113411 1049521 1087488 1067551
1170.59 1063902 1031484 980772 972179 923047 932012
1173.48 986316 989222 998758 1055444 1037631 1006535
1176.37 997139 1023602 1000120 953849 907947 893744
1179.27 956061 1009607 1033529 1073480 1093257 1088037
1182.16 1153492 1187750 1216360 1243547 1286350 1361151
1185.05 1362763 1424053 1491117 1488155 1548283 1629388
1187.95 1656571 1711423 1757083 1843406 1995154 2083425
1190.84 2153104 2285409 2453148 2477511 2446123 2672514
1193.73 2855759 2778682 2820520 3086877 3179698 3084883
1196.62 3230473 3620746 3792561 3691780 3819437 4273071
1199.52 4327370 4096127 4441473 5057935 4954907 4642416
1202.41 5254331 5864517 5422221 5231077 6092548 6609735
1205.30 6182164 6251618 7056733 7261417 6903861 7255644
1208.19 7908787 8030155 8101581 8484469 8894507 9239420
1211.09 9341737 9770776 10612623 10989953 11178681 12231189
1213.98 13497843 14005540 14769726 16855586 18822148 19676725
1216.87 21735945 25727918 28793786 31213729 36119892 42345312
1219.77 47232226 52868723 61418828 70562676 78531256 87950234
1222.66 99558556 111108824 121702060 132872912 144783376 155659307
1225.55 164534647 172247890 178572557 182611490 183633350 181852158
1228.44 177576324 170612662 158608814 146094571 134551278 135487381
1231.34 148230370 140417263 131526851 133497543 137711203 146314722
1234.23 155729949 165910679 175140079 184080313 191081386 194838813
1237.12 196393220 196711968 192695896 184406916 175501044 166177885
1240.01 153759987 139532458 126806891 115059757 101752922 88571562
1242.91 78309826 69381175 59364868 50478613 44753815 39611624
1245.80 33282159 28524287 26420106 23853308 19923244 17773669
1248.69 17793505 16585668 13981494 13214085 13814643 12931810
1251.59 11412845 11572609 11849203 10646762 9915631 10657750
1254.48 10465942 9121487 9035721 9793568 9270071 8267336
1257.37 8566566 8908233 8031909 7448295 7964420 8074715
1260.26 7289740 6954867 7359271 7234206 6597964 6649381
1263.16 6926877 6461192 5975292 6338449 6440607 5863005
1266.05 5680335 5936590 5893796 5548411 5639466 5825333
1268.94 5581633 5412378 5750138 5953610 5789490 5970771
1271.83 6356987 6628904 6827770 7233695 7877389 8398452
1274.73 9004927 10030035 11074570 12053142 13416606 15047114
1277.62 16718873 18543518 20644197 22953936 25249366 27653606
1280.51 30288930 32935314 35531210 38049483 40495475 42722177
1283.41 44577370 46108684 47183294 47597812 47695643 47456754
1286.30 46616298 44934839 42628383 40316307 37681832 35063249
1289.19 33865263 34885433 39647386 49893294 64023203 72402404
1292.08 54448663 30105903 24834312 26365840 29632312 34057434
1294.98 38707261 43056230 46743702 49719095 51787209 52830033
1297.87 52951342 52293605 50997801 49120257 46826002 44256182
1300.76 41555351 38847196 36150111 33449244 30952116 28711198
1303.65 26459869 24469927 22857446 21355786 19953839 18716546
1306.55 17711444 16842627 16101137 15428029 14748678 14144182
1309.44 13643434 13156585 12646116 12106217 11575616 11088254
1312.33 10751319 10587084 10565466 10718741 11072878 11657363
1315.23 12317475 12984701 13606386 14017284 14260965 14431494
1318.12 14395645 14293083 14145386 13816631 13425553 12989240
1321.01 12646027 12371328 11979102 11599014 11259173 10937979
1323.90 10700766 10412795 10104911 9888066 9636700 9397696
1326.80 9206394 9005598 8794409 8550501 8346943 8146894
1329.69 7854149 7616646 7436483 7239283 7045301 6814928
1332.58 6540797 6363065 6183895 5897515 5746683 5692280
1335.47 5508518 5268890 5068237 4977380 4892051 4700371
1338.37 4551420 4457794 4343449 4297162 4252679 4177107
1341.26 4102533 3974667 3933837 3872176 3752437 3760178
1344.15 3708736 3637887 3555883 3496064 3559706 3453780
1347.05 3362607 3361541 3286237 3251594 3198221 3171883
1349.94 3185631 3074522 3003484 2907813 2922804 2970115
1352.83 2989434 3149138 3234070 3224012 3200201 3308088
1355.72 3283766 3271621 3300087 3077456 2979803 3048920
1358.62 2945988 2949301 3070837 2967806 2839367 2795437
1361.51 2762992 2717227 2657881 2696640 2657533 2543558
1364.40 2520851 2428089 2414457 2482270 2485342 2486528
1367.29 2410258 2277137 2132197 2124468 2114671 1964256
1370.19 1896462 1842157 1716539 1581855 1519094 1485966
1373.08 1407570 1430466 1513155 1560656 1461250 1381741
1375.97 1460287 1480056 1504039 1500468 1427841 1372949
1378.87 1401492 1454219 1393086 1343925 1282768 1235180
1381.76 1277070 1250647 1264684 1309926 1255528 1203363
1384.65 1240373 1260880 1120606 1041321 1008250 899152
1387.54 982079 1093470 1146453 1180290 1136245 1101433
1390.44 1037083 967420 960601 1032202 1036885 945491
1393.33 914348 813527 767842 874951 889389 896494
1396.22 947302 1005115 946478 937223 961368 911065
1399.11 979763 1059352 1163958 1259752 1220931 1136825
1402.01 1215360 1351736 1295846 1291751 1400011 1414785
1404.90 1491668 1607713 1621880 1653566 1724467 1817942
1407.79 1967815 2073760 2164762 2296859 2387837 2478076
1410.69 2530273 2665337 2904492 3032696 3126037 3240848
1413.58 3353317 3555945 3710380 3881253 4092490 4300158
1416.47 4424280 4569209 4868431 5133564 5162687 5275121
1419.36 5915234 6436079 6704191 7142237 7675479 8125505
1422.26 8463476 8970734 9576844 10113093 10636292 11420587
1425.15 12286645 12908775 13494513 14298950 15104112 15726931
1428.04 16261993 16894146 17555074 17996897 18320227 18801508
1430.93 19331153 19516112 19465798 19574002 19695280 19712052
1433.83 19998174 21175683 22509862 23786706 26846568 35977806
1436.72 35971302 24524543 20227425 20997105 22664647 24294743
1439.61 25202280 25871456 26578141 26951659 27013106 27602384
1442.51 28435045 28301293 27939247 28429510 28973168 28571286
1445.40 28206481 28638250 28957532 28487955 28090567 28943321
1448.29 29800373 29619764 30051969 31831865 32933450 32546165
1451.18 33474226 36076029 36523639 35409164 37140653 39205641
1454.08 37672209 36330201 37203782 36402130 33568579 31478685
1456.97 30374805 28417124 25448610 24061078 23663772 22546358
1459.86 20970550 20943892 23507718 26635816 29976767 32593490
1462.75 33613923 34615098 35718767 35811135 34841475 33925917
1465.65 34136671 33667607 30979344 28887325 28912909 28050979
1468.54 25047408 23209965 23367200 22445138 19905059 18736520
1471.43 18958405 18232697 16408539 15748487 16440796 15906086
1474.33 14491587 14452847 14863682 13994131 13092264 13395825
1477.22 13646653 12816703 12187180 12492107 12374396 11610029
1480.11 11328523 11431605 11128778 10446321 10267650 10438088
1483.00 9954058 9315038 9383787 9386063 8794263 8433583
1485.90 8501832 8176151 7527073 7409210 7455483 7104248
1488.79 6665490 6464517 6399523 6030181 5799772 5846697
1491.68 5629618 5324557 5185630 5016483 4731060 4522368
1494.57 4418318 4154819 3551730 3409707 3696752 3576297
1497.47 3329910 3076235 2894920 2891140 2860811 2751922
1500.36 2588927 2408955 2338972 2263906 2090184 2013364
1503.25 1955998 1783894 1638392 1268960 958020 1149769
1506.15 866645 578331 953533 1089448 1071820 1177580
1509.04 1198966 1143472 1082172 1070660 1081932 970061
1511.93 953557 1130407 1179880 1200701 1240393 1250360
1514.82 1332169 1389199 1417073 1517686 1543018 1639841
1517.72 1906729 2057374 2114639 2044179 2034873 2105395
1520.61 1818773 1960432 2263213 2116980 2197815 2379926
1523.50 2374853 2313984 2228452 2178139 2373634 2547967
1526.39 2571411 2625736 2794142 2854781 2882240 2973384
1529.29 3012992 3054265 3087460 3035921 2919413 2869634
1532.18 2784362 2651380 2509104 2473241 2530110 2477856
1535.07 2372924 2273769 2162958 2094409 2013024 1890799
1537.97 1565618 933939 1089556 1179347 920103 1184521
1540.86 1192138 798396 745880 1107713 1094228 944700
1543.75 956429 783845 592412 739630 823266 795108
1546.64 791294 742210 696853 648708 553469 441950
1549.54 410177 454183 459794 442975 397675 363496
1552.43 351795 332433 129673-78657 140833 259954
1555.32 226043 270443 275224-14389-183918-548221
1558.21-680294-167054-291235-573770-197499 187337
1561.11 220789 223993 204047 230878 270671 252279
1564.00 195889 152234 188334 226460 222915 267019
1566.89 233482 237714 233727 150878 44924-53253
1569.79 106182 225901 230928 264554 258903 250194
1572.68 269237 235456 227106 235103 189981-78295
1575.57-620503-345424 129845 136723 231429 287446
1578.46 285551 282438 275187 269098 259157 226520
1581.36 232101 260128 246683 224949 241118 273780
1584.25 237758 215271 200099 128644 141245 150878
1587.14 112494 106807 104772 127095 138608 118669
1590.03 92005 60204 108943 126089 81070 50144
1592.93 70504 20904-63476-15693 29498 54710
1595.82 63690 42526 29826-8784-31318-28818
1598.71 30118 24303 2595 12041-8381 1594
1601.61-8883 22917-58521-93162-28123-1585
1604.50 16432-19739 2398-641-46636 3710
1607.39 18867-6557-12042-45248-19954 9581
1610.28 51859 51726-5018 6443 76358 106134
1613.18 94419 57697-865-16031 4087-214494
1616.07-749606-572446-91227-11421 7423-22089
1618.96 3109 25660-9037-15382 27343 40922
1621.85 33862-9300-223492-273986-56614-393
1624.75 2475-3605-26383-75540-149587-196323
1627.64-138191-54790-7214 10379-26471-24606
1630.53-3711-35941-47105-37239-32840-46117
1633.43-98023-226271-407125-745655-706896-222882
1636.32-118442-223275-171548-110722-92658-34836
1639.21-21231-36010-31098 12188-19201-110871
1642.10-148935-65171-4316-46829-85043-107551
1645.00-365440-622448-319185-203184-276927-204402
1647.89-196543-114348-90263-105093-54803-94732
1650.78-168013-410210-952003-1065519-1146365-824382
1653.67-429556-395844-184989-149807-116426-59984
1656.57-10259-9576-23962 7156 14017-39849
1659.46-23144 12764 61200 29369-11650-136455
1662.35-263667-85564 4578 14402 28040 39414
1665.25 65635 61575 58621 77651 110139 72117
1668.14-21142-274253-241355 43576 145980 71651
1671.03 12275 140893 208714 199257 204612 207783
1673.92 186406-62343-248159-15403 182964 171299
1676.82 215331 274641 270881 256350 237287 198134
1679.71 202879 236752 245481 193086 209796 187541
1682.60 42554-20902-81781-601521-676611-11118
1685.49 187632 230676 236739 237371 238872 188927
1688.39 244142 241174 152503 141564 204640 186220
1691.28 188067 212437 154298 178793 243682 209220
1694.17 107231-98177-709338-728389-25884 142378
1697.07 71906 129674 116263 57380-257097-659454
1699.96-653038-410036-40766 86596 85481 112322
1702.85 98304 83135-28750-13089 102594 69656
1705.74-41151-867 104907 149466 153889 156826
1708.64 163433 131113 117993 154361 162616 193407
1711.53 211317 170355 167486 116765 52491 67156
1714.42-63433-60085 96335 115082-130429-578489
1717.31-285954-27574-92759 91503 154477 145132
1720.21 166254 165839 144767 155169 145701 113774
1723.10 134017 181023 196734 189724 184120 179986
1725.99 156959 150983 150707 168396 149109 108732
1728.89 101065 34049 14764 57122 90072 82190
1731.78 6265-100039-434812-365537-397395-558100
1734.67-169675 2729 4447 249 10814 27034
1737.56-2300-40908-33065-233244-334806-139033
1740.46-55563 11840 19504-36943-48454-39833
1743.35-36314-33706 6109 17203-30149-50865
1746.24-41095-7404 7896-64157-135057-59485
1749.13 5714-14842-94327-303096-287943-25604
1752.03 80489 102803 87543 87295 68280 41590
1754.92 63252 54022-23898-88951-10992 38671
1757.81 24488 82614 131505 138886 88694 19574
1760.71-28785-176400-103190 50641 44619 53570
1763.60 60309 95118 90516 132945 179502 109991
1766.49 60801 45412-84116-77861 53726 55768
1769.38 56430 66612 13656-93984-24194-217322
1772.28-432900-147960 47794 85625 104926 90413
1775.17 46332 99917 125075 124334 115847 78213
1778.06 86701 46968 90376 137107 84873 40482
1780.95 94492 117552 137532 186679 145690 130130
1783.85 95443 498 66530 123569 97275 149331
1786.74 171046 141403 107693 80023 85694 110588
1789.63 89436 25079-36834 22361-33968-279406
1792.53-170572 37853 31752 2677 5116 15315
1795.42 14297 9554-13665-37976-36036-11565
1798.31-28732-106794-134430-62508-101008-133211
1801.20-64671-67243-85224-65127-73540-78040
1804.10-76095-90666-57025-14642-9836-34500
1806.99-79294-78854-39476-57474-96575-70441
1809.88-70487-88530-34294-14785-75809-66077
1812.77-77807-77326-31460-58876-36028 32353
1815.67 28634-45046-65799-22932 3739-22354
1818.56-59433-41546 14077 55387-4511-39242
1821.45 16616-2119 6558 71479 39158-5960
1824.35-101416-131806-11138 28881-6056-11055
1827.24-6547 6739 4968-41003-103548-140014
1830.13-59110 9388 43577 48295 29259-4492
1833.02-12724 34374 62314 72572 70599 26468
1835.92 14965 22419 7319 24114 38679 25249
1838.81-483 495 3773-424 18540 15934
1841.70-660 1285 3089-81471-282800-160786
1844.59 29864 29182 72369 86185 52007 34576
1847.49 86521 112540 98811 100704 79138 74636
1850.38 85346 35984-23876-45520-14965 15516
1853.27-9301-1121 33680 13469-19282-40093
1856.17-56515-47751 5635 25957 28403 25638
1859.06 38739 53202 49233 35390 20468 36942
1861.95 46201 23498-33849-33866-31084-49270
1864.84-2098-3122-52009-18604-37443-98619
1867.74-59483-43680-132527-123461-16017-13571
1870.63-9950 30352 2270-57467-47529-10894
1873.52 29144 17990-15528 3168 9463 42497
1876.41 88869 67430 18385 38240 37763 5099
1879.31-11655 47665 72310 15304-24802-38282
1882.20-10928 16473 3014-5598 17509 57070
1885.09 101392 58491 14280 8090 49484 77968
1887.99 41351 36018-21509 12660 103576 89942
1890.88 84438 124282 136684 106143 89752 93968
1893.77 46772 42040 103336 126682 108898 84311
1896.66 90601 82234 70020 90243 127051 109486
1899.56 136763 182187 146156 114586 100843 67668
1902.45 59835 88851 67597 56253 90671 71579
1905.34 48447 55322 69598 60474 34310 47672
1908.23 69729 62198 30957 2987-7541 1101
1911.13-22037-35634-14294 15029 43229 15034
1914.02-27510-19558-3063-17381-43228-46011
1916.91-68664-169501-110221-28275-22988-728
1919.81-8204 2277-26897-69556-47194-80102
1922.70-130651-76086-73435-78759-48561-76249
1925.59-114416-119969-70533-21441-46789-50202
1928.48-22335 5595-13967-49847-26831-53024
1931.38-79827-67468-66106-5667 6204-53056
1934.27-55751-33916-57012-73021-46785-43099
1937.16-56147-48628-48062-51069-26282-29565
1940.05-67107-78844-57770-84123-105881-85727
1942.95-93023-99926-80755-71012-65985-36883
1945.84-57318-53173-23529-25312-12603-35934
1948.73-73386-58770-46069-47954-49426-59783
1951.63-59322-57188-59462-64961-51393-33217
1954.52-45146-89766-117039-70913-35304-52910
1957.41-87601-85110-37953-41010-43767-31939
1960.30-35053-53621-65443-64864-59632-30742
1963.20-22917-32170-37089-45985-42924-67777
1966.09-75322-39503-46979-54738-15657 22150
1968.98 6254-3138 6043 13531 41377 36422
1971.87-11629-52795-40195 665 15684-663
1974.77 26716 68438 40164 33436 26222-24866
1977.66-56916-3801 53118 32720 28666 35073
1980.55 37963 52335 36429 31416 3621 12867
1983.45 90787 77694 24916 16565 1611-21739
1986.34 6747 44713 58772 43696 35264 50155
1989.23 33989 57790 105158 115860 69611 58640
1992.12 84213 88703 87866 69462 87557 65074
1995.02 24532 105914 145253 89037 76166 58257
1997.91-6340 15417 40761 36195 62881 64038
2000.80 91461 113581 121161 113191 95841 80001
2003.69 96767 128357 152159 155323 160851 174955
2006.59 158688 143267 146246 140573 128802 158652
2009.48 184211 206109 217924 227393 263040 313197
2012.37 348978 338063 361501 404767 413197 400844
2015.27 438940 516976 551438 598189 667555 724892
2018.16 773336 811789 845231 881127 937750 1043987
2021.05 1137144 1225488 1288924 1352313 1439032 1531846
2023.94 1591644 1629694 1713971 1793800 1859636 1895131
2026.84 1982051 2045771 2008885 2030174 2055966 2127486
2029.73 2207737 2177455 2157230 2203419 2273907 2258602
2032.62 2227775 2251176 2277031 2300077 2274070 2188747
2035.51 2149532 2130027 2143200 2149067 2107343 2000373
2038.41 1956712 1924151 1789299 1739973 1679550 1624351
2041.30 1592164 1481230 1387651 1333509 1251909 1133813
2044.19 1030326 953491 894001 815654 734220 714810
2047.09 659566 561043 495161 446687 422329 401155
2049.98 366195 309570 277341 312652 339743 294702
2052.87 240413 250932 264869 228247 222126 206858
2055.76 201637 222365 230787 215351 168415 162124
2058.66 147067 164449 164914 164308 169210 149519
2061.55 120789 100530 97044 105567 120476 86811
2064.44 83306 107745 114364 101255 108370 118447
2067.33 88000 34838 43448 87511 68422 36960
2070.23 31317 38609 67891 60160 52683 82507
2073.12 84630 76321 79810 81100 64708 61959
2076.01 62825 29668 36316 48029 41598 62075
2078.91 44728 48629 73238 71254 65650 40039
2081.80 53370 77555 69232 78457 66354 52808
2084.69 80861 108457 98321 80324 94960 99797
2087.58 76453 78775 112809 100563 96504 143637
2090.48 169041 151359 114074 117547 134170 142936
2093.37 169652 227834 210289 192748 208146 175383
2096.26 192227 262948 295213 285717 308990 303009
2099.15 270293 276500 310417 341224 295702 274681
2102.05 344898 371961 357803 369939 379058 356362
2104.94 371465 387916 345216 347365 405730 378643
2107.83 351111 388996 444688 455912 364960 340715
2110.73 373821 401859 397938 377651 443167 463726
2113.62 429456 445945 472616 510907 522025 493612
2116.51 425613 402529 434264 431317 408732 393019
2119.40 337110 296976 333261 304487 271709 327629
2122.30 326566 291164 320816 303570 252244 278570
2125.19 303841 254478 235696 260744 285888 269086
2128.08 228498 268228 279174 286247 297188 322652
2130.97 386026 371130 367506 301734 264079 265164
2133.87 218446 206388 192447 191373 176823 176984
2136.76 209504 186918 157387 177402 169478 193659
2139.65 217535 216458 209004 169601 137732 93050
2142.55 110698 157505 131917 134509 195313 218356
2145.44 189225 173301 144363 89346 121239 161127
2148.33 161396 124128 89232 127138 115278 97928
2151.22 103417 101743 112042 82643 70584 98029
2154.12 95630 102768 106031 89971 109076 87595
2157.01 50870 94390 98028 65726 98733 101790
2159.90 81969 80114 106783 145897 118274 105424
2162.79 109739 135725 161121 158688 180804 172381
2165.69 174449 193054 223175 219167 183208 173312
2168.58 208182 227196 194884 246408 292787 303766
2171.47 337112 339895 312820 368057 408224 357600
2174.37 360265 397980 478395 488478 454413 506549
2177.26 492743 437472 484409 562081 527497 496032
2180.15 508435 509703 561089 573017 545056 572819
2183.04 611312 630318 662076 689899 696248 722380
2185.94 791592 839812 861827 857708 854860 890883
2188.83 905670 919993 942420 945860 948594 925766
2191.72 907633 935433 963291 937508 955132 978420
2194.61 989229 1032583 1016175 994383 996426 1043948
2197.51 1061376 1046121 1094891 1110891 1092012 1126471
2200.40 1234323 1272884 1258628 1295435 1324104 1321839
2203.29 1348932 1389083 1382270 1370419 1437416 1459666
2206.19 1399961 1433836 1542799 1543572 1448659 1435970
2209.08 1500371 1571830 1573282 1539485 1578958 1643014
2211.97 1608366 1649290 1753805 1712035 1597687 1616382
2214.86 1758449 1782121 1743931 1763488 1863641 1885626
2217.76 1905927 1993327 2067499 2113158 2053677 2066874
2220.65 2343053 2464066 2149057 1845311 1724497 1665872
2223.54 1651942 1668201 1653513 1631011 1627658 1625522
2226.43 1628185 1649941 1713596 1754878 1676776 1673186
2229.33 1757848 1714614 1637018 1634697 1694814 1699992
2232.22 1613653 1634286 1664303 1617139 1593826 1604020
2235.11 1561098 1502404 1494890 1463921 1467777 1433624
2238.01 1350148 1353656 1372726 1331463 1263595 1241690
2240.90 1215093 1145884 1078806 1082427 1075957 1055772
2243.79 1016264 1013804 1066926 1015610 1007750 974260
2246.68 921309 958872 903023 835483 872293 832118
2249.58 753779 756061 811220 796902 750441 754861
2252.47 719877 697787 657884 611264 593813 600099
2255.36 619079 562457 492986 495008 536452 513444
2258.25 443788 404482 411269 399745 374168 361523
2261.15 355220 367228 359802 368951 396548 394141
2264.04 355231 325545 311149 307474 305682 270202
2266.93 270000 261419 239128 285288 298994 278284
2269.83 252630 234013 236775 239844 237899 254439
2272.72 239379 181171 199818 275273 226980 190224
2275.61 185086 173211 202896 197041 190918 154006
2278.50 188714 270642 283675 224832 229541 256313
2281.40 186332 131662 167892 253169 233373 191837
2284.29 210869 220149 218825 228428 217733 180987
2287.18 210263 267437 298531 290561 256865 272777
2290.07 271968 218661 204457 227509 227510 211527
2292.97 209389 209770 213850 220471 194163 217714
2295.86 206642 180681 207271 214022 198577 162746
2298.75 154365 173517 144431 124442 146784 168527
2301.65 174990 172348 223552 240458 201338 143473
2304.54 136315 170344 202128 192538 165131 220084
2307.43 228798 162812 71518 146109 207944 176002
2310.32 93955 94084 230713 297990 149450 30391
2313.22 175404 265130 182145 48198 173793 290718
2316.11 185062-33585 75196 301853 171771-128102
2319.00 13677 333711 178549-210118-130137 234543
2321.89 175402-253508-177096 277094 132089-409445
2324.79-260306 271765 86925-344832-41118 432956
2327.68-12262-611022-245052 268624-300786-843312
2330.57-168389 236974-582369-882835-36795 30495
2333.47-892081-741585 81572-294841-975754-405073
2336.36 99377-598800-821067-27153-138122-909218
2339.25-531643 57762-493547-746935-59684-103987
2342.14-738215-395948 17792-440989-479010-9563
2345.04-188318-430949-95067 49153-95550 11987
2347.93 170399 224472 131860 4335 74429 25363
2350.82-257446-159914-16296-438967-389638-88539
2353.71-622076-615516-151376-781253-809372-267116
2356.61-982743-899626-261577-1094808-920384-387555
2359.50-1261748-832837-514215-1294861-619674-758277
2362.39-1300765-473014-939616-968355-408881-1059281
2365.29-549048-476084-899950-293845-651586-474972
2368.18-222176-471309-73235-358943-160095-45737
2371.07-224788 110922 25083 162875 130358 207065
2373.96 327266 340479 454263 501793 599543 622498
2376.86 771889 801707 868616 911989 928119 1018349
2379.75 1068619 1071928 1082718 1150367 1143888 1061795
2382.64 1052097 1045530 1012297 1011341 990505 973942
2385.53 985661 958951 905995 964594 1018355 1068995
2388.43 1190119 1249244 1269573 1243401 1221593 1228364
2391.32 1218680 1215349 1214955 1145711 1051206 1037846
2394.21 1006306 974712 940014 927853 876718 788831
2397.11 725788 705458 771450 745166 653292 638095
2400.00 677190 624661 583347 643922 614751 569220
2402.89 613846 679750 675098 649412 629885 596511
2405.78 656298 669112 639628 616955 576353 599165
2408.68 606017 606731 634101 657115 649971 657628
2411.57 668194 644859 626292 626541 612714 627590
2414.46 648522 630136 636414 648514 645661 576666
2417.35 543355 577732 579833 579140 613618 661149
2420.25 647622 733035 877451 909299 939869 897760
2423.14 830671 790601 714647 667503 660372 662779
2426.03 663046 657982 591285 557351 594494 654853
2428.93 667896 626963 638342 644434 628887 642547
2431.82 659365 655577 655069 676985 678605 615640
2434.71 602269 689301 681780 615751 655809 678180
2437.60 631225 648012 673141 572537 549444 639312
2440.50 669616 669005 637700 631632 616294 616712
2443.39 658251 635362 598986 604378 594942 588443
2446.28 537685 473472 497848 542473 548465 510583
2449.17 531431 564657 531060 519678 515916 534095
2452.07 527503 490285 527858 532477 481204 440780
2454.96 424323 452156 482366 535461 600377 701530
2457.85 784154 742833 734712 737699 748131 721452
2460.75 705488 741935 709339 660109 579339 571125
2463.64 632618 670147 647075 669326 699270 652024
2466.53 628837 643677 622816 607587 571882 519145
2469.42 535966 527737 567943 578977 506960 486620
2472.32 513531 488025 439371 435961 439697 457279
2475.21 422598 400699 377218 359507 363407 348891
2478.10 349614 287909 231630 244301 246127 261162
2480.99 303713 270947 254521 304713 268692 229822
2483.89 269647 292356 283633 324015 390591 371768
2486.78 356515 318122 299817 348227 356400 368626
2489.67 364843 325506 328303 363347 395046 392724
2492.57 393645 371304 369136 392216 397358 454930
2495.46 483925 504861 519105 483254 467402 487832
2498.35 489116 522923 575185 562427 554664 519478
2501.24 497178 573741 607386 588792 638294 714151
2504.14 702012 647210 681881 734795 726755 753243
2507.03 812327 823266 776942 759000 743651 696745
2509.92 712650 760886 771219 741077 724000 766438
2512.81 759875 727740 750909 755285 783985 783440
2515.71 799629 836213 827826 830952 833349 852238
2518.60 872939 858691 885707 898408 861615 865215
2521.49 853033 815163 779350 739950 701978 686313
2524.39 683150 649306 626357 694498 683238 628751
2527.28 633530 583338 523589 509010 490434 505786
2530.17 559078 571781 581226 568044 558732 613663
2533.06 678712 705565 661887 601087 587559 576318
2535.96 566196 554744 577031 583858 535623 577414
2538.85 587446 484787 421574 463203 447371 426836
2541.74 466102 480118 439219 399620 418705 458265
2544.63 397442 333978 374932 374374 370670 357132
2547.53 339331 323366 310071 358367 369650 294614
2550.42 241315 241446 251636 214327 219910 280622
2553.31 266337 202698 156905 160784 169952 141745
2556.21 125157 145566 126231 61746 48257 84363
2559.10 71304 37138 59944 39407 34409 11158
2561.99-38529-50071-43045-33612-71810-65363
2564.88-21286-25509-72862-61270-86113-105636
2567.78-102572-133349-131122-139809-153830-73077
2570.67 4227-10897-26224-83847-107320-98375
2573.56-82528-31170-29069-59067-41122-27442
2576.45-108379-88577-31075-95128-120294-121339
2579.35-96183-111932-178435-213253-180266-144144
2582.24-132296-203611-239170-170256-72274 67036
2585.13 151628 150453 88848 30457-23433-19201
2588.03-66354-136370-137683-160904-126970-102408
2590.92-125500-121462-143057-194137-210415-197118
2593.81-187941-141211-129499-116958-117088-135047
2596.70-139206-145552-145896-140958-149455-167609
2599.60-183986-209877-168062-137316-143188-145148
2602.49-138010-104684-92998-89508-100757-143922
2605.38-159008-118772-77797-73878-111947-198811
2608.27-182148-134965-98930-69213-64781-67407
2611.17-102492-73823-119108-123586-112473-132771
2614.06-136890-94673-76654-128183-150298-141824
2616.95-96718-78591 21544 70889-36476-110313
2619.85-106041-92331-123347-107899-61490-77630
2622.74-96645-53405-5877-89800-75110-52774
2625.63-65186-14539-37125-55062-22768-3088
2628.52-68664-65744-7400-17677-33244-38215
2631.42-8656-19341-76157-40374 12144 17606
2634.31-18111-31319-31308-36793-33775-68691
2637.20-108309-66395-19417-16929 38495 70454
2640.09 56468 28963-2612 1647 51009 18612
2642.99 3823 34705-5760-33048-38906-11685
2645.88 2972-2061 12747 3686 10358 24907
2648.77 647 65656 67899-11399 53467 90188
2651.67 74564 24193-17201 81656 106327 61598
2654.56-15570-42994 16733 20845 15069-15467
2657.45-38452-8009 55277 39761 49983 68515
2660.34 76388 80591 62430 31899-28413-6007
2663.24 59831 129535 163223 148926 159926 138489
2666.13 121467 188226 207378 207059 148926 146243
2669.02 210474 240868 294417 310775 317167 329196
2671.91 334157 355452 431497 430899 440126 517654
2674.81 618056 690953 765626 907189 958595 1004056
2677.70 1058634 1111754 1194893 1321028 1458772 1489505
2680.59 1548913 1634479 1737039 1805549 1846209 1927678
2683.49 1945807 1999133 2062410 2032967 1867550 1732079
2686.38 1697063 1598347 1575753 1648354 1586218 1469294
2689.27 1473226 1506240 1612824 1713982 1771179 1882437
2692.16 1933158 1918301 1902140 1890078 1819939 1747034
2695.06 1684312 1572088 1485381 1357248 1135103 1002245
2697.95 959105 868254 760753 614463 579539 550039
2700.84 425497 438555 419766 353891 361169 362160
2703.73 341017 326135 246932 234977 302021 319522
2706.63 282208 237167 198679 188124 250047 223933
2709.52 223136 241246 195835 182239 192866 160829
2712.41 108889 146075 198812 199140 213479 253130
2715.31 213068 144533 153159 259607 368690 372593
2718.20 368046 402019 409821 414210 485497 583506
2721.09 553833 526749 570830 576167 575994 563023
2723.98 594702 577674 489786 488663 510853 481045
2726.88 471267 461898 416727 401012 498630 708981
2729.77 775574 618040 471262 434868 439589 480282
2732.66 506698 497367 568524 561303 550056 665360
2735.55 658999 594852 567998 625116 668625 616814
2738.45 631661 635608 645349 566320 493260 556615
2741.34 610578 614881 603144 573623 524210 496317
2744.23 483005 524925 580189 597592 627073 641128
2747.12 640779 652846 679856 732435 736836 737781
2750.02 793981 854845 890644 1010625 1138960 1219118
2752.91 1270272 1331526 1511256 1668574 1697104 1738604
2755.80 1896169 2075451 2264753 2403949 2483980 2541340
2758.70 2572636 2677095 2729701 2748027 2691244 2574405
2761.59 2533874 2545508 2500452 2357826 2137900 1989649
2764.48 2087031 2147301 2066947 1917089 1837948 2015949
2767.37 2216099 2389064 2565711 2609709 2670162 2725750
2770.27 2637436 2564227 2517403 2333225 2041803 1818844
2773.16 1686616 1470061 1271737 1138504 1027108 871934
2776.05 704640 592359 511844 475195 447594 349743
2778.94 253677 281062 285043 259459 279905 228961
2781.84 156491 172537 165546 175219 212361 203114
2784.73 209190 187979 153717 145408 142164 150224
2787.62 133668 155444 159720 163518 162146 143780
2790.52 148322 97912 129560 160239 122367 120453
2793.41 137245 154246 76272 78737 112848 70133
2796.30 31139 7804-3655-1172 114650 108693
2799.19 49305 41360 18632-833-81224-25124
2802.09 102079 80942 10021 52241 68115-39784
2804.98-79756-61724-24241 42200 50990 60009
2807.87 63744 69869 54926-29749-35246 30320
2810.76 52768 14269-26077-37807 40042 96666
2813.66 73582 53639 25824 62547 31026 29682
2816.55 94761 105105 95112 81547 101956 121301
2819.44 125552 99528 150442 253293 255306 217905
2822.34 151996 143086 206608 213550 244975 291358
2825.23 314142 324191 314678 262242 254108 353146
2828.12 383655 358042 407096 468184 487074 547575
2831.01 558235 560451 599567 659478 705717 739247
2833.91 787393 804953 853186 941316 982309 965964
2836.80 1067185 1169711 1234922 1360710 1363310 1370473
2839.69 1501271 1605543 1682008 1748875 1779694 1869866
2842.58 1955383 2029315 2159195 2335856 2461844 2477245
2845.48 2571505 2661811 2826136 2969325 3066626 3159677
2848.37 3281142 3426874 3445095 3540224 3662047 3803093
2851.26 3914490 3966837 4039996 4104976 4096980 4142007
2854.16 4242158 4213680 4094404 3996430 3941723 3960037
2857.05 3942996 3947410 4163882 4324694 4283348 4192317
2859.94 4177156 4283804 4442976 4534402 4600601 4695191
2862.83 4864794 4992621 5061152 5142767 5286166 5242566
2865.73 5025886 5098529 5275404 5187473 5080251 5176756
2868.62 5186174 5041789 4946648 5006774 5068571 5029518
2871.51 4955940 5001476 5122856 5055383 5021260 5202263
2874.40 5399195 5400124 5325937 5451913 5573627 5558623
2877.30 5547807 5769977 6078946 6136902 6216780 6559739
2880.19 6957689 7219223 7555805 8188320 8926667 9459315
2883.08 10023050 11036719 12121866 12848506 13592659 14642505
2885.98 15582755 16101365 16605429 17356346 17839060 17588986
2888.87 17187275 16856523 16082294 14956444 13835028 13067428
2891.76 12471750 11600493 10817124 10574763 10929258 10996424
2894.65 11220608 12426792 13672013 14939289 16093558 16645713
2897.55 16910987 17072743 17025609 16607367 15714301 15055974
2900.44 14438526 13199464 12100284 11548228 10835352 9613821
2903.33 8827666 8455971 7628556 6774509 6417623 6188842
2906.22 5504441 4993838 4996933 4731646 4227288 4059097
2909.12 4121367 3885308 3583874 3666659 3680320 3472042
2912.01 3345412 3435866 3379197 3120281 3140738 3202815
2914.90 3024831 2917733 3070710 3132192 2858966 2678661
2917.80 2788555 2790542 2600203 2531533 2555908 2424121
2920.69 2338004 2310616 2284153 2281489 2224175 2200939
2923.58 2224540 2218133 2240309 2243567 2175915 2219270
2926.47 2321017 2330044 2413131 2448045 2417680 2506817
2929.37 2614823 2690040 2795637 2931320 3058565 3212038
2932.26 3380744 3582540 3853459 4052017 4293969 4546458
2935.15 4654446 4911589 5238551 5475284 5736510 6193129
2938.04 6691888 6991910 7261664 7679639 8170747 8512964
2940.94 8908111 9438159 9963538 10381139 10764136 11381291
2943.83 12006614 12503456 13058514 13719470 14380481 15092623
2946.72 15827640 16604229 17435175 18094010 18765698 19693007
2949.62 20803847 21650289 22375939 23400830 24484333 25603578
2952.51 26616400 27330993 28389831 29578538 30281791 31369285
2955.40 33032528 34833653 38239913 40688695 39287464 37618243
2958.29 36642526 35899587 35849294 35389704 34136322 32673863
2961.19 31333101 29945693 28421319 27450921 27549652 28493442
2964.08 30292742 33008804 35991624 38588462 40639217 42721192
2966.97 44670614 45762969 46404110 47573500 48919966 49309733
2969.86 49212569 50704795 52690617 52704387 52369467 54644103
2972.76 57453327 56963459 56540035 59872964 62658393 61420877
2975.65 61134853 64248266 65457796 63566207 63098154 63891130
2978.54 62934235 60334262 58214354 57163504 55304402 52834180
2981.44 52254747 52297342 52020411 50154867 49496351 52631178
2984.33 55947561 59378407 62006396 63285982 64146988 64477263
2987.22 64419989 63260501 61734111 60935753 59377145 56471331
2990.11 54564796 53649240 51569624 48875665 47408863 46718423
2993.01 45023566 43016853 42522401 42398703 40944344 39672447
2995.90 40113658 40315229 38887636 38167965 38769583 38406314
2998.79 36895507 36631390 37057274 36157290 34889371 34830642
3001.68 34850433 33853110 33130119 33232791 33081934 32090238
3004.58 31660291 32007371 32025366 31341269 31060886 31476382
3007.47 31393378 30775899 30807941 31262591 30942923 30702859
3010.36 31943309 34368960 34847987 33378031 31473258 29044464
3013.26 27197982 26331207 25678046 24665327 24050724 24352536
3016.15 24226045 23403408 23052648 23016213 22817183 22390353
3019.04 21908626 21673424 21487214 21051811 20516355 20229406
3021.93 20055369 19424912 18776816 18850055 18805561 17946218
3024.83 17190621 17418127 17468324 16638739 16016238 16260212
3027.72 16301826 15595355 15232838 15350717 15514805 15352680
3030.61 15059190 15624807 16422103 16605551 16988116 18739928
3033.50 20763276 19843782 17369848 15598022 14172632 13102782
3036.40 12547449 12063793 11490121 11396823 11586884 11194604
3039.29 10703557 10954329 11072254 10629986 10438906 10752650
3042.18 10659968 10174001 10155647 10277259 10036923 9781106
3045.08 9797311 9808571 9593203 9371906 9246675 9052160
3047.97 8803276 8689107 8586476 8374307 8171022 8058372
3050.86 7969375 7700585 7465526 7398859 7271184 6989341
3053.75 6698681 6676982 6656813 6355052 6059624 6001002
3056.65 5959079 5776796 5598998 5498307 5366345 5094969
3059.54 4879328 4806766 4677628 4496328 4391346 4259415
3062.43 4049296 3877806 3818171 3805154 3646348 3447308
3065.32 3285512 3265745 3255021 2994461 2827238 2907880
3068.22 2922181 2759509 2684437 2627784 2484506 2405316
3071.11 2329059 2245900 2163873 2002434 1960011 1971269
3074.00 1881377 1784542 1718614 1681185 1616083 1504900
3076.90 1392015 1388881 1364159 1351661 1377732 1310399
3079.79 1316193 1265773 1172489 1091001 1057076 1091772
3082.68 1094222 1060911 1015699 1036198 1034438 992118
3085.57 982184 973073 912118 923242 910493 866159
3088.47 824376 772470 800928 798380 818183 810002
3091.36 740303 783372 796259 741497 748222 768062
3094.25 812447 809570 788874 743305 709014 761115
3097.14 715466 690546 680882 602150 624479 654451
3100.04 698444 695589 616190 675909 765958 811762
3102.93 795168 707840 689997 683370 647493 666261
3105.82 650414 672810 692458 661048 633854 605548
3108.72 590663 631392 615665 572757 581187 612967
3111.61 700571 650120 584686 577953 542618 574654
3114.50 639446 546722 503446 593280 610589 567481
3117.39 500041 459755 461711 498543 455727 456642
3120.29 526524 520226 450245 461488 485124 440433
3123.18 375091 333299 336895 371106 416077 432494
3126.07 386361 367922 378951 321540 321782 351070
3128.96 375420 351748 270959 290520 314934 213372
3131.86 167655 187946 129827 57924 125867 139227
3134.75 72704 154340 195574 139151 95951 47082
3137.64 102487 177507 158286 126271 163071 182066
3140.54 82219 74597 108761 118753 114322 70037
3143.43 109854 96219 102049 83501-15635-30019
3146.32-80988-2375 119972 57260 75776 86086
3149.21-6530-99123-83855 14015 24143 109571
3152.11 110784 1584 8113 67407 66650 10432
3155.00 18938 21630 11173-35883-114553-49781
3157.89-6615-49999-36363 2245-21250-42834
3160.78-30317 26108 106214 88033-33342-89857
3163.68-95771-58885 53985 67642-36992-94083
3166.57 11456-1797-43894-18203-30065-3611
3169.46-66559-103950-10285 33716 23588 46974
3172.36 21711 78233 129986 59674 68770 100304
3175.25 95377-22925-60435 81428 150780 44987
3178.14-67637-10098 118103 113027 21063 20871
3181.03 111011 151724 170251 105360-37234 803
3183.93 98706 119350 84219 84449 186955 256418
3186.82 160419 119617 83774 67513 112392 72645
3189.71 98287 170972 206948 161213 79569 64664
3192.60 123543 120406 161490 272502 295464 297622
3195.50 315504 234898 145883 236111 257246 154330
3198.39 167342 240074 257449 246401 276712 265770
3201.28 192883 176992 230692 291405 245347 215282
3204.18 189126 221746 284557 234915 251832 292687
3207.07 224382 226398 288952 341777 291852 260098
3209.96 277059 200899 222018 252283 222962 173317
3212.85 82986 152567 227070 276172 337264 195527
3215.75 117905 180727 272080 247591 184440 223083
3218.64 226236 215850 149513 137885 171117 70477
3221.53 95252 196388 222366 198786 94165 59740
3224.42 91385 60124 41922 71891 176877 188678
3227.32 104591 128022 110305-34893-57736 74282
3230.21 169755 180347 115388 71185 86372 106145
3233.10 64792 25069 84653 151100 135786 22802
3236.00-39552-23922-20520-21285-37337-12259
3238.89 37712 97612 103135 44623 13962 53022
3241.78 34786-21477-1890 67992 3309-64336
3244.67-7228 13982 30051 50341 52734 35167
3247.57 83729 64394 40695 109516 67012 59293
3250.46 67181 56634 84874 22975-134016-149858
3253.35-53545 18403 132918 180491 134332 169067
3256.24 192342 92589 77111 90178 59570 162076
3259.14 178552 64461 78372 130647 158496 149735
3262.03 132786 142408 188298 185930 161236 114334
3264.92 10950 74378 196278 156554 105074 181303
3267.82 225599 207575 212595 237271 218544 173530
3270.71 223612 155568 156668 163235 138919 204325
3273.60 138968 127124 76771 140979 201854 123231
3276.49 169914 150020 132906 157042 168842 207409
3279.39 193798 114351 88413 111697 118117 122832
3282.28 88798 8855 14095-2591 7608 104728
3285.17 90302 64279 107726 91980 1102 46996
3288.06 56288-10528-47915-47827-39714-10023
3290.96 87775 67040 91496 74636-80865-92611
3293.85-53028-44067 19479-15881-10429 83929
3296.74 84108 38485-3129-85357-94587-4273
3299.64-8614-26772-84728-105953-28292-6191
3302.53-61713-118074-69278-51702-71847-94440
3305.42-134029-74980-75672-87524-45523-13569
3308.31-17261-24344-53993-97751-17591 32789
3311.21-24471-14707-32244-70115-65642-55443
3314.10-55000-122148-192835-161633 22030 4170
3316.99-137152-151532-155007-117266-105077-81391
3319.88-59050-63279 24092 94143 42043-73780
3322.78-79155-51594-104712-10806 30088-140791
3325.67-171809-79422 54261 11194-47846 50621
3328.56-5786-101380-93090-96478-124044-51016
3331.46-6118-18924-12628 5109-7577-70291
3334.35-88989-85008-93408-35322-12719-2073
3337.24 24455 51799 26151 15538-31174-71187
3340.13-13781-77105-57003-42954-33425-7030
3343.03-57145-46951 6241 55240 65737-800
3345.92-92410-39483-363 40732 75703-40057
3348.81-86931-81022-51300 12449-29662-86634
3351.70-81244-44934-50252-12852 64496 5765
3354.60-28878-90684-73003-65439-98639-47242
3357.49-44554-52247-52820 1858 74153 71796
3360.38 16131-25070-61507-121915-70362-1408
3363.28-32798-14902-82127-135670-60595 56671
3366.17 14234-85001-74701 19053 68714-76771
3369.06-66927 3280 39058 78016 54769-3062
3371.95-8611 69550 93115 126611 62038 6195
3374.85 46107 73503 71068 1941-59212-29579
3377.74 69861 128326 51671 7137 91947 46537
3380.63-2971-9259-103151-78066 60474-17429
3383.52-168714-118940-39516-56303-132161-224368
3386.42-96047 55681 18716-40640-26274 104992
3389.31 37533 3236 48989-14783-24903-32228
3392.20-15694 12219-16238-51718-84508-90357
3395.10-87862-69188-12815 34647 74834 77304
3397.99 131454 203170 127787 65792 77409 91327
3400.88 134099 244464 254147 136105 116704 153706
3403.77 166484 234806 238451 174142 155328 171027
3406.67 147032 163310 134064 153153 206295 167314
3409.56 225298 218416 158745 192305 217238 172701
3412.45 205521 205130 186912 150598 126398 93522
3415.34 90106 173631 206184 287754 285709 200352
3418.24 198119 143720 105750 23748 69361 97736
3421.13-5239 21782 58046 63418-31237-50356
3424.02-31172-46611 18440 147450 107961-52708
3426.92-66737-68328-82251-100173-127710-48698
3429.81-10007 8942 6771 79640 59044-46633
3432.70-64994-104731-45367-1915-63117-39835
3435.59 30906 43669 41015 59547 34689 41524
3438.49 113920-24035-140424-47098-52757-137836
3441.38-150319-125032-47316 11091 10769-35804
3444.27-74480-4269-16287-130731-182672-194101
3447.16-100313-11553 39653 14175-49360-110429
3450.06-112169-4412 54868 9042 38889 116047
3452.95 69246-78258-133545-7676 62653 6891
3455.84-60247-23301 60766-11382-158421-79438
3458.74-9454-43432-7021 26598 53951 78336
3461.63 7659 2635 112680 27675-87042-31642
3464.52-33256-81455-10280 46583-37395-1728
3467.41 103135 50050 22473 65258-13245-64436
3470.31-12650 31213 26139-8771 4905-62477
3473.20-107923 2777 61113-22363-93265-2909
3476.09 4804 3022 123043 149234 123668 32376
3478.98 41091 33227-34571-33858-34448-2943
3481.88 93401 191805 115093 12506-93705-38668
3484.77 52423 3684 13589 55705 65811-55044
3487.66-89901-9452 24884 9766-115588-26974
3490.56 34914-99555-148487-110633-17164 22963
3493.45-6354-90328-92706-1030 121846 120969
3496.34-25906-38200-4025 55569 69035-43935
3499.23-81834-73982-114101-229228-202270-42335
3502.13-83035-190029-105719 36472 30698-36528
3505.02-30184-90429-130973-93073-18525-64346
3507.91-122670-151373-112119-137069-207732-169140
3510.80-118086-42139-110133-139614-105476-56046
3513.70 8108 59465 56756-29679-22871-51663
3516.59-104560-136513-227934-183412-106734-94149
3519.48-46283-25057-14595-43007-112926-107931
3522.38-70833-110119-227111-186633-142829-160728
3525.27-51298 13235-48296-53491-23450-62208
3528.16-98869-89362-12905-17753-43178-45042
3531.05-18614-72541-70081-29159-101861-74231
3533.95-130162-73010 20000-19311-74673-99521
3536.84-41983-10065 2331-36195-44408-81905
3539.73-84855-6060 27061 14405 111645 85232
3542.62-57861-81947-139703-88522-136850-177001
3545.52-83721-158221-157736-74547-72348-91568
3548.41-94839-95868-143352-99067-51726-55891
3551.30-42463-18350-50756-52106 65027-11496
3554.20-121533-97670-19629 17245-86057-93318
3557.09 14400-27317-120402-127611-213644-228720
3559.98-80139 21333 8637-36292-78840-83150
3562.87-74504-98773-179732-188168-142188-105223
3565.77-123225-226664-147162-210192-199097-116584
3568.66-160596-149754-200175-167994-101659-135579
3571.55-170011-139513-105192-77360-77918-112143
3574.44-18623 38044-54322-90238-107161-113283
3577.34-123385-80217-109640-130155-111735-171751
3580.23-125756-129633-264303-142148-26137-102301
3583.12-120874-84881-78867-76718-100806-199952
3586.02-212516-137794-102276-111910-237712-277664
3588.91-185059-137591-65289-83337-71305-38069
3591.80-151861-164270-205129-226742-134566-131330
3594.69-135557-38881 10681-41309-48298-46045
3597.59-5548 25763-29925-67744-120130-173124
3600.48-124216-34312-8077 6086 10168-28112
3603.37 629-39549-110653-105916-82279-36477
3606.26-34935-11438 86686 134033-16770-279501
3609.16-144250-5681-60728-27394 3212 3807
3612.05-69191 15810 107698 30343 13099 21019
3614.94 89145 120169 84404 173831 84634-69340
3617.84 24450 86612-185983-218649 25674 67646
3620.73 133365 171001 136587 83220 87034 152203
3623.62 202484 245439 243471 225191 127553 77967
3626.51 133232 189685-51560-244317-84250-241889
3629.41-109909 80953-36399 66260 129380 128860
3632.30 116653 43931-8293 70270 178589 188540
3635.19 233908 238710 248564 285344 236627 242561
3638.08 291340 333988 297471 225815 213627 304660
3640.98 386828 274541 156859 154319 197344 240727
3643.87 277367 277442 281069 249819 156701 112402
3646.76 69588 114268 240652 161785-183276-36645
3649.66 179248 51400 72457 167913 277528 276356
3652.55 251561 343065 392018 385403 417434 385352
3655.44 130661 51934 350186 486088 391917 372103
3658.33 379459 360100 345012 347088 397218 379855
3661.23 377175 380313 384308 381208 317708 312098
3664.12 322178 292533 365638 444095 408321 453350
3667.01 454529 278728 114657 258896 431920 389807
3669.90-30543-165231 272948 365989 376326 386180
3672.80 382639 376800 304162 179513 183935-34416
3675.69-194153 158820 301185 298967 321699 355216
3678.58 293992 244966 356991 377001 340562 374774
3681.48 356962 394451 463998 443555 384739 331551
3684.37 317508 304171 390063 364694 267034 290071
3687.26 185906-247026-243028 115871 184989 154371
3690.15 32120-45245 53295 128256 104657 125835
3693.05 179750 183046 162983 234852 248630 189065
3695.94 173107 228169 306444 277978 284983 342124
3698.83 253526 226572 268966 267967 218262 94402
3701.72 75736 153033 208497 269693 273609 259403
3704.62 253275 296607 274691 223551 256460 264438
3707.51 231586 252506 110336-5763 218896 293899
3710.40 186713 99235-154736-183299 166936 290323
3713.30 261007 264166 293758 300200 306142 307793
3716.19 217434 214204 247144 215614 197869 196127
3719.08 251390 203562 150446 224621 254867 174099
3721.97 108353 181021 277419 332251 330237 275412
3724.87 252850 297120 261043 246622 330069 305973
3727.76 334238 401294 375234 330118 332915 381174
3730.65 368887 210339 32583 272643 456158 459917
3733.54 422928 262183 294597 434369 497400 251087
3736.44 227649 567814 617816 608126 712075 772748
3739.33 758147 784368 763668 740238 852246 882897
3742.22 926300 887998 721377 330257 50141 553705
3745.12 1026776 1033975 1113604 1207927 1232248 1153466
3748.01 1105166 695720 419430 940671 1200451 1118030
3750.90 1140756 718751 507340 1111052 1411222 1451479
3753.79 1523954 1481280 1342458 1267284 1318649 1314240
3756.69 1342380 1362523 1392488 1353827 1270812 1198019
3759.58 1186290 1300965 1385799 1407690 1295550 1258665
3762.47 1327866 1281410 1248868 1268136 1305733 1169124
3765.36 1074173 1170356 1170027 1170177 1160195 1103409
3768.26 1115268 1133509 987524 1069777 1201145 1127558
3771.15 1093820 1084776 1171266 1272890 1271698 1252112
3774.04 1267155 1339812 1369788 1288126 1276616 1275577
3776.94 1165478 1156966 1185085 1117868 1046655 1010267
3779.83 1088996 1068994 1061765 1164213 1186484 1125377
3782.72 1129071 1169312 1109257 1051712 1101755 1089082
3785.61 1035443 1070549 1087393 981781 1006665 1089619
3788.51 1035957 986001 874115 813577 871809 932182
3791.40 950758 946009 894466 826403 700136 691441
3794.29 728023 676799 713750 517902 433363 551421
3797.18 501639 519098 623008 692930 586843 454957
3800.08 509319 208530 65335 565434 791922 833473
3802.97 945161 918084 880104 882495 742133 657155
3805.86 530240 123054 170298 554008 597005 494347
3808.76 534333 661375 647576 563447 508402 541788
3811.65 541968 486684 583173 641229 693258 717477
3814.54 633059 396203-26250 204183 554695 521129
3817.43 542396 582416 622485 547793 448321 279379
3820.33 201507 191172 147199 313517 465892 477668
3823.22 401677 479074 573708 498370 504817 474800
3826.11 446365 486609 515970 459825 402115 341469
3829.00 357892 397851 357601 323051 261077 322825
3831.90 400890 353794 277186 288742 306646 148003
3834.79 84129 194910 279048 321120 139795-454522
3837.68-333267 227846 285075 238210 239172 285778
3840.58 247563 277186 285221 194716 165609 152342
3843.47 172275 271783 290154 276754 253083 266430
3846.36 348845 363690 398217 367009 256280 227465
3849.25 200346 195536 221989 235689-105142-362303
3852.15-86939 55368-273550-813726-560404-36098
3855.04 61461 179964 191613 110542 82572 96370
3857.93 89467 134195 147979 135706 167118 110000
3860.82 31158-62010 49690 68440-33321-27414
3863.72 3380-64902-176229-42107 32979 41778
3866.61 81149 77077 49973 9604-40415-93646
3869.50-351092-281990-36098-48587-1456 42995
3872.40 41873-36273-104426-130103-79469 47260
3875.29 158640 122363-11524 32277 72231-4558
3878.18 34117 93376-68198-163090-43425 38852
3881.07 47182 42869 104855 93985 83298 148587
3883.97 107321-1259-213239-223665 38576 172722
3886.86 215201 190095 47681 5461 40148 122210
3889.75 152447 7510-126378-55253 36231 72238
3892.64 149661 136802 115982 166795 225564 121530
3895.54 90579 151895 114238 96617 147431 131713
3898.43 4868-178236-107445 127954 184671 49273
3901.32-134055 3205 80132-8275-116339-183359
3904.22-79522 6868 27216 36260 107301 106511
3907.11 72816 69303 147115 138062 79530 111576
3910.00 160691 92039-47160-38225-66017-76031
3912.89 3875-20401-3220 31284 57109 131290
3915.79 52724-86772-149460-72518 65477 127183
3918.68 90930-1618-3550 14994-9102-21052
3921.57-22292-17629-19888 46007 56981 25476
3924.46 28919 12065 59154 80137 27467 82540
3927.36 62227-3702 56170 78746 61467 95109
3930.25 80149 62103 104713 88608 128749 86634
3933.14 26007 100104 52020 99877 173970 155655
3936.04 153130 73999 121423 210445 220943 218373
3938.93 213890 212477 220207 287537 291481 240575
3941.82 161535 73844 102153 180846 176979 240429
3944.71 316635 266849 228033 212819 195494 263542
3947.61 325704 224868 156619 218021 255972 302391
3950.50 282216 182430 232512 294844 319114 370671
3953.39 388433 386327 400041 444021 435355 457056
3956.28 450101 372322 364179 391767 293082 268489
3959.18 328842 342809 364504 376316 409593 408074
3962.07 373141 404656 458764 439659 475158 529993
3964.96 438825 384393 406431 324186 275907 315819
3967.86 318965 279823 247251 303568 456498 506320
3970.75 427632 413984 481056 398240 268692 306046
3973.64 360150 420133
##END=
