##TITLE=1,2-Dichloroethane
##JCAMP-DX=4.24
##DATA TYPE=INFRARED SPECTRUM
##CLASS=IUPAC A
##ORIGIN=NIST, Analytical Chemistry Division, 301-975-3108
##OWNER=COPYRIGHT (C) 2001 by the U.S. Secretary of Commerce
##DATE=01/06/01
##$SPECTRA VERSION=1.10
##$UNCERTAINTY IN Y=2.1 % relative (B=1.10E-04,C=7.45E-10,D=1.46E-14)
##CAS NAME=1,2-Dichloroethane
##CAS REGISTRY NO=107-06-2
##MOLFORM=Cl C H2 C H2 Cl
##MP=-35.36 C
##BP=83.47 C
##$NIST SOURCE=QUANT-IR
##SPECTROMETER/DATA SYSTEM=IFS66V (Bruker)
##INSTRUMENT PARAMETERS=KBr Beam Splitter; MCT Detector; Multipass cell
##STATE=gas
##SAMPLE DESCRIPTION=1,2-Dichloroethane Primary Gas Standard
##PRESSURE=101.3 Pa
##TEMPERATURE=23 C
##SAMPLING PROCEDURE=1 L/min Flow
##RESOLUTION=1.9290
##DATA PROCESSING=Happ Genzel Apodization
##XUNITS=cm-1
##YUNITS=(micromol/mol)-1m-1 (base 10)
##XFACTOR=1.0
##YFACTOR=9.0949E-13
##DELTAX=0.9645
##FIRSTX=575.652
##LASTX=3974.605
##FIRSTY=5.09E-07
##MAXX=3973.64
##MINX=575.65
##MAXY=.0005711
##MINY=-9.35E-07
##NPOINTS=3526
##XYDATA=(X++(Y..Y))
575.65 560509 1009224 997788 977179 1046966 641936
580.47 291456 389056 665675 586956 370479 508101
586.26 426725 340288 141684 192322 479967 639213
592.04 607117 287903 128320 18841 103449 79656
597.83 100374 113096-70833-59693-153878-208325
603.62 3590 34641 35588 57623-55313-285771
609.40-172430 103260-97434-180878 166921 175721
615.19 97747 96387-11187-57579-35035-159253
620.97-135820 31060 251284 259229 122371 226728
626.76 471022 533878 478048 553477 630576 685035
632.54 834010 797353 833966 1060719 1305805 1365039
638.33 1606039 1981303 2192118 2549064 2954313 3286870
644.11 3662723 4024139 4539376 5029191 5768311 6500181
649.90 7243481 8047362 8862299 9548660 10379858 11359781
655.68 12543844 13586424 14572151 15497664 16310432 16808209
661.47 17234991 17359914 17223330 16664227 15886523 14700492
667.25 14494650 15435477 16537038 17934906 20031100 22094844
673.04 23897249 24859620 25222192 25788662 26998555 28188217
678.83 29653610 31433238 33812752 36522838 39473402 41977703
684.61 43950407 44499006 44212985 43140969 41034774 38928616
690.40 41515959 41145133 44160515 45566732 36500245 33431679
696.18 36465645 41133012 44306179 45796143 45295047 44179343
701.97 42988470 42852264 44098479 47772771 53901506 63272667
707.75 75941757 92507779 112881841 137881690 167860149 202725332
713.54 242397735 287146513 335608063 387412649 439848818 489438110
719.32 533225731 569630135 594940225 607323538 607883603 599507844
725.11 587837624 575265881 574515347 578932511 592049440 622830493
730.89 628004105 618996421 599626438 542954735 454070246 349967362
736.68 247704161 159577338 92946820 48757399 23815849 12109742
742.47 8131412 7193683 7043374 6917441 6919615 6921334
748.25 6947103 6948544 7018674 7071226 7145633 7176563
754.04 7333132 7443495 7557361 7574509 7564055 7616926
759.82 7605902 7546090 7725789 7892745 7978660 8069715
765.61 8090029 7740148 7555029 7607024 8076746 8931306
771.39 9191770 7998637 7007829 6704764 6477984 6244434
777.18 5963121 5749945 5702540 5665699 5476109 5304962
782.96 5216397 5259282 5212130 5032189 4744743 4549541
788.75 4412300 4215992 4045151 3879996 3690677 3575166
794.53 3510572 3382776 3186767 2948832 2842667 2791197
800.32 2543673 2398510 2362336 2286632 2156442 2108490
806.11 2051329 1981979 1926728 1875347 1821308 1842773
811.89 1736958 1599060 1576491 1607903 1608781 1643252
817.68 1695373 1696341 1702543 1836568 1976794 1989955
823.46 1981263 2018949 2184542 2296861 2372604 2375752
829.25 2377583 2403698 2400736 2280751 2184511 2110429
835.03 2089206 2029732 1946346 1858920 1843085 1910189
840.82 1906943 1761987 1501123 1290688 1192969 1085239
846.60 881664 738024 692586 659355 682752 650049
852.39 627687 639532 731913 800774 890807 853348
858.17 742017 824726 955858 1019661 1185670 1284040
863.96 1339679 1497223 1790042 2075893 2268478 2477273
869.75 2804833 3299994 3930277 4692115 5700231 7048594
875.53 8727656 10649254 12742586 14892305 17293195 19685675
881.32 21809447 23422090 24699677 24867048 23548801 22287613
887.10 22777925 25070266 26860257 23959254 19260308 18080544
892.89 19460180 21543654 23102460 23584656 22900354 21377040
898.67 19257024 16820011 14337882 12008462 9818760 7958539
904.46 6521695 5428916 4517758 3762349 3196509 2903287
910.24 2684311 2463814 2278915 2120465 2023269 2032017
916.03 1952992 1943425 2036632 2177943 2268235 2371970
921.81 2625030 2889248 3072020 3324606 3704589 4124122
927.60 4561912 5021688 5433015 5885544 6400155 6981772
933.39 7530853 8052562 8562096 9043080 9495399 9891879
939.17 10120175 10221093 10211140 10047429 9730302 9318720
944.96 8831607 8359064 8260115 8582060 9295856 10133650
950.74 10668508 10837093 10620235 10345493 10044587 9621496
956.53 9010771 8207682 7441955 6743862 6044032 5445915
962.31 4983101 4569820 4158985 3821596 3551293 3249505
968.10 2988781 2770804 2506004 2362357 2257124 2075918
973.88 1968413 1952240 1965156 2093833 2267287 2440061
979.67 2601742 2724076 2839867 2911321 3045448 3113649
985.45 3055837 3032142 3110123 3249745 3355813 3498643
991.24 3664987 3699316 3648443 3528072 3325872 3100047
997.03 2848306 2606731 2414625 2225973 1979058 1812913
1002.81 1771698 1749630 1759014 1756510 1764933 1847560
1008.60 1957148 2105234 2272764 2447864 2565414 2727084
1014.38 3047725 3375538 3585339 3794642 4001031 4167960
1020.17 4366233 4643529 4791416 4833075 4993492 5113347
1025.95 5181406 5103714 4960210 4738789 4476789 4183098
1031.74 3918817 3803226 3645821 3269699 2870477 2580400
1037.52 2255780 1938240 1709079 1571123 1430596 1291034
1043.31 1206292 1112014 975467 856328 810828 748140
1049.09 652682 623296 566060 437713 380185 352002
1054.88 299211 226921 209101 241786 270943 212266
1060.67 139947 83772 102756 109358 110264 113032
1066.45 80075 94036 115343 87203 101034 117747
1072.24 89553 81326 112819 153001 200407 271784
1078.02 314699 314194 357849 424119 469982 503483
1083.81 508280 560088 602525 619172 710493 804068
1089.59 912569 960238 940488 1043948 1230425 1254054
1095.38 1215386 1309799 1433166 1508381 1606470 1697320
1101.16 1752979 1830063 1923790 2035727 2119562 2194889
1106.95 2250688 2312467 2430120 2466587 2499492 2554372
1112.73 2623165 2659766 2649843 2630668 2671877 2773711
1118.52 2810442 2975342 3797293 4972722 4975772 4221602
1124.31 3535770 3190551 3079190 3126842 3143740 3193239
1130.09 3222473 3264813 3233845 3286111 3398431 3377439
1135.88 3290892 3284242 3263220 3194835 3060238 2988128
1141.66 3019011 2989008 3016870 3274661 3249073 2851397
1147.45 2751623 2764477 2737570 2583918 2477505 2361276
1153.23 2242501 2177161 2175134 2084277 2048047 2025260
1159.02 1935302 1768603 1659159 1565032 1505276 1402171
1164.80 1324354 1245231 1223478 1114339 1029148 980563
1170.59 956607 872827 876539 900775 954259 927304
1176.37 923555 849277 836764 885509 970991 999638
1182.16 1082577 1132948 1233724 1297025 1398098 1470516
1187.95 1589643 1718988 1948387 2139226 2334095 2484712
1193.73 2684724 2821605 3038560 3310186 3637392 3867399
1199.52 4172541 4485272 4836809 5128931 5458759 5877387
1205.30 6298687 6645830 7069025 7537803 8095662 8609381
1211.09 9375877 10250889 11595450 13298980 15860233 19208748
1216.87 24283113 31189605 40814697 53341683 69654788 89035306
1222.66 111505978 134824223 157245759 174701961 184695120 183799716
1228.44 170284456 148419094 139778106 138574312 135688122 147291727
1234.23 167099340 186008526 197402504 198605903 187550889 167582720
1240.01 141957314 115207860 89846090 68297541 50854129 37894526
1245.80 28432058 22042933 17612392 14974630 12943075 11898165
1251.59 10935624 10291216 9691001 9213964 8764438 8452555
1257.37 7962007 7617481 7285295 6991660 6665533 6466410
1263.16 6130523 5957935 5687877 5520702 5390397 5333237
1268.94 5275894 5460874 5698429 6221875 6917716 8054322
1274.73 9627170 11850021 14723064 18439805 22796307 27779072
1280.51 33064614 38389473 43063176 46532166 48101411 47772315
1286.30 45003330 40151116 35245871 36955275 52982806 61025603
1292.08 38802446 26556160 33514670 42921236 49941932 53271636
1297.87 52875103 49667213 44728179 39163165 33653595 28692839
1303.65 24490651 21194217 18583302 16668434 15189875 13981232
1309.44 12915540 11882414 10902458 10410968 10592321 11561750
1315.23 12886113 13959682 14393962 14330616 13804828 13056999
1321.01 12306051 11598073 10920196 10367217 9823231 9376171
1326.80 8938928 8526650 8051293 7600024 7168621 6751764
1332.58 6284416 5896649 5558591 5231519 4895435 4648471
1338.37 4374985 4241598 4091568 3951856 3781923 3693605
1344.15 3562582 3488473 3385900 3296755 3185036 3135569
1349.94 3008418 2901891 2905948 3083902 3179747 3250993
1355.72 3230086 3101823 2953628 2966123 2900881 2783565
1361.51 2673025 2639755 2521617 2435561 2421782 2429856
1367.29 2242065 2096779 1940437 1776418 1552166 1428704
1373.08 1401484 1455315 1394040 1441376 1418412 1386283
1378.87 1355524 1311115 1210866 1232974 1216390 1216280
1384.65 1139560 1020209 908949 1033248 1094419 1057823
1390.44 941475 964709 888117 799027 770470 871862
1396.22 888126 901877 874462 1025889 1118907 1166144
1402.01 1192826 1284326 1347253 1512875 1580388 1780445
1407.79 1973093 2226952 2370110 2648756 2905433 3189609
1413.58 3433509 3834693 4147372 4564286 4890152 5414634
1419.36 6188063 7131327 7963461 8968350 10018783 11444513
1425.15 12841800 14362798 15690410 17008936 17977163 18939950
1430.93 19399203 19615285 19757423 21180527 25611092 32024769
1436.72 27386647 21699307 23772333 25901028 26998506 27789736
1442.51 28362858 28561678 28703242 28639317 28618523 28940967
1448.29 29996782 31575998 33406552 35384575 37035642 38129311
1454.08 37761026 35793568 32174186 27973161 24334574 21919269
1459.86 21868251 26611336 32157134 35153373 35808936 34926101
1465.65 33075167 30129208 27266313 24198031 21715621 19345451
1471.43 17650978 16241399 15445720 14577971 13920273 13308963
1477.22 12876564 12270705 11800271 11184554 10673333 10097492
1483.00 9610199 9076159 8607142 7979600 7479123 6981868
1488.79 6486724 6022492 5718849 5333566 4941028 4501557
1494.57 3981514 3529843 3426306 3061533 2845531 2653980
1500.36 2419172 2167153 1990053 1693655 1267278 883096
1506.15 768884 927732 1111688 1082528 1028448 952710
1511.93 1045733 1148580 1240717 1331483 1466017 1680753
1517.72 1988148 2053071 1986199 1996607 2173875 2287977
1523.50 2293131 2258899 2476966 2661571 2854562 2969010
1529.29 3077095 3023380 2880515 2650192 2525607 2444115
1535.07 2290987 2096995 1758662 1201083 1036713 1041730
1540.86 931929 942183 976566 759584 720642 766106
1546.64 739740 600811 468918 413090 421640 354189
1552.43 232949 65187 184138 225862-31158-452567
1558.21-457516-342747 16317 212391 239141 216128
1564.00 183149 195450 241605 216826 121036 29631
1569.79 166234 239966 261540 239930 185383-180055
1575.57-256923 99885 267376 279218 262117 235263
1581.36 237344 235179 244301 205560 152872 118161
1587.14 106675 109476 105923 81165 92491 55045
1592.93 1522-21689 37459 29395-7673-23205
1598.71 9464-7410-3475-34259-53914-29832
1604.50-4251-25121-8806-18795-25179-1240
1610.28 29010 27569 86796 52194-22740-341624
1616.07-434304-103853 6371 303 7058 23460
1621.85-81102-169824-47309-15174-93175-160526
1627.64-76298-16446-14500-34366-32558-70280
1633.43-294879-584498-394722-180866-124354-53840
1639.21-21878-24580-81676-75216-46947-223713
1645.00-412536-314266-210281-135823-71623-125322
1650.78-543551-1028324-840709-386732-156261-59821
1656.57-10249-5054-11545 13717 5825-126685
1662.35-114379 2569 42844 63252 83191 15015
1668.14-153441-45219 77467 127587 208234 171273
1673.92-26583-28635 176194 253616 259047 218721
1679.71 228743 217954 150590-87548-410621-190445
1685.49 209787 238891 237412 199313 181794 181964
1691.28 198084 202844 168619-260609-432569-17499
1697.07 139005-81119-498981-389899 8946 107989
1702.85 56676 21553 30521 29711 127981 152817
1708.64 144612 145211 192588 176542 118223 13989
1714.42 13429-57375-293384-177140 60691 150693
1720.21 165537 143849 138868 164935 194056 171980
1725.99 161838 150968 117841 50650 62088 43837
1731.78-170043-420120-373042-105930 22322 9833
1737.56-43447-198212-169032-28839-17949-45896
1743.35-20064-13889-30478-29632-58705-61819
1749.13-71955-209079-86330 80735 88208 58396
1754.92 18635-36957 11001 83144 115560 7892
1760.71-89134-23604 59286 83932 136383 109445
1766.49 10736-32891 45768 35916-54723-227569
1772.28-165321 51828 91257 94912 117577 87928
1778.06 78916 89208 80894 113212 158191 114999
1783.85 61209 88784 143441 135056 101311 84923
1789.63 38007-50052-140768-61723 19887 7642
1795.42 2851-28683-34893-88917-105338-104714
1801.20-79066-79972-78786-76887-31768-46307
1806.99-63423-74189-78952-68958-47069-73982
1812.77-67070-44356-204-26378-30265-34426
1818.56-20182 7109-3686 5163 35912-29388
1824.35-71225-16151 363-6920-55738-96861
1830.13-12117 31386 11606 26160 64129 35452
1835.92 17796 18287 20503-2293 7522 7229
1841.70-7296-123991-126770 20131 69025 64499
1847.49 96442 96076 79716 24216-22637-12331
1853.27 8579-1187-38599-36136 12771 31251
1859.06 45497 35874 34932 6963-31519-33810
1864.84-21057-42545-64669-92528-85352-24232
1870.63 1258-31292-15175 4216 4685 42435
1876.41 57372 29866 15509 28415 15759-24248
1882.20-5639 6307 53059 49973 31893 45199
1887.99 23163 29576 88669 112855 113000 72154
1893.77 71607 99905 97510 77068 94893 124906
1899.56 153717 119759 80084 66391 72066 63724
1905.34 59439 50925 53796 46199 12087-17235
1911.13-20782 6058 9293-16937-23026-69059
1916.91-109952-65899-6409-16322-48391-90842
1922.70-91884-75960-86766-99219-54430-36008
1928.48-15133-33625-56925-67669-28512-35751
1934.27-51439-61473-51861-54224-41376-48536
1940.05-67365-89578-96992-96681-73628-58266
1945.84-41648-28804-40072-60835-51366-60697
1951.63-60592-60549-50557-83809-76270-68032
1957.41-68202-48638-38708-56064-61860-43667
1963.20-32648-49116-61978-61930-35960-5166
1968.98 6775 17074 13798-31346-15588 13724
1974.77 43312 26988-15661-8605 32473 32528
1980.55 40748 20514 37764 51440 14943-7001
1986.34 28864 41139 40151 64571 89931 73006
1992.12 80980 73496 63708 85517 97766 37382
1997.91 15927 32977 70001 99095 104769 87009
2003.69 120121 148997 160166 140517 132899 147525
2009.48 192572 229352 297720 341778 381677 412001
2015.27 493916 598990 715802 800779 891087 1037222
2021.05 1218120 1368088 1526912 1657800 1801635 1930076
2026.84 2026220 2060175 2145520 2197025 2236586 2268730
2032.62 2285538 2295350 2229644 2166483 2145298 2044272
2038.41 1907192 1756590 1639987 1494286 1329863 1138353
2044.19 958184 810658 693577 560587 447520 377258
2049.98 313295 295684 282289 243931 227739 203656
2055.76 212800 195154 160305 151649 161156 136922
2061.55 105297 95592 93730 93892 107381 91940
2067.33 60375 52954 44427 36880 57450 67335
2073.12 79523 69346 59215 36380 39522 43131
2078.91 55349 58366 53942 59659 67675 65196
2084.69 88695 88095 85962 83207 102182 130177
2090.48 141158 118527 151170 193393 201510 191203
2096.26 247574 291789 293952 289195 308833 309734
2102.05 354017 367061 372761 363118 369083 372373
2107.83 403120 410433 373008 379511 410708 438597
2113.62 462278 499723 482607 428428 421912 375964
2119.40 322732 298978 306725 308335 290937 273844
2125.19 262280 255329 259967 257186 288968 334569
2130.97 369311 312809 250773 202792 184648 180473
2136.76 180604 167380 194619 206083 166936 113700
2142.55 125921 155630 195044 162666 124162 133887
2148.33 128264 105094 104674 94948 87507 82379
2154.12 98585 92341 82418 72583 84733 81212
2159.90 93477 110243 113987 126386 161557 169404
2165.69 195240 197019 189201 201164 245488 301065
2171.47 332015 355245 373150 408417 473071 477877
2177.26 482171 509660 514432 518152 554534 573413
2183.04 631712 675586 744038 822169 865942 884679
2188.83 927733 940189 933496 929493 952530 973186
2194.61 1010517 1003968 1031320 1061422 1096859 1153105
2200.40 1253196 1294659 1340373 1368390 1407572 1427013
2206.19 1474850 1496063 1485768 1533846 1577552 1610360
2211.97 1679525 1678267 1677336 1746662 1804155 1888957
2217.76 2006574 2086921 2212232 2288082 1951413 1684849
2223.54 1648695 1634647 1627436 1670217 1714519 1714894
2229.33 1700712 1670134 1672522 1647987 1633460 1588069
2235.11 1529639 1474959 1423550 1364835 1324770 1238986
2240.90 1150169 1076199 1049369 1028095 1025498 971008
2246.68 928549 867152 814959 774534 783511 741453
2252.47 691947 618795 600460 549050 513687 481012
2258.25 424286 381546 363196 353013 376159 370929
2264.04 334710 297599 277971 252716 273416 266931
2269.83 242670 232873 235485 210713 225696 198262
2275.61 184238 180418 186531 232704 252662 209649
2281.40 177245 200555 217190 209425 217304 203647
2287.18 257168 279861 269070 229542 219655 210710
2292.97 212474 206654 206853 196434 201276 170770
2298.75 153840 135988 159843 189582 213468 163725
2304.54 168520 186466 203056 156723 146640 145964
2310.32 159261 194859 149294 172544 164799 175119
2316.11 119873 129122 79031 105854 14347 19408
2321.89-12718-12321-89784-58411 6253 5399
2327.68-154010-233469-306137-316754-385154-408701
2333.47-455070-441175-440528-403913-413486-439516
2339.25-421963-365799-359098-353269-304626-256743
2345.04-203150-76372 71549 161534 94879-41735
2350.82-158994-265462-376831-481037-584401-691067
2356.61-740807-788031-849832-878114-876880-900538
2362.39-875632-811573-736162-650155-573589-451705
2368.18-315509-229827-138809-7793 115370 221119
2373.96 367407 512127 668459 813249 921531 1016885
2379.75 1097069 1131766 1102319 1042913 1013170 980978
2385.53 953702 967760 1102740 1234165 1264987 1238111
2391.32 1227830 1144041 1046901 977216 913592 795503
2397.11 736236 708321 657673 622513 606912 603745
2402.89 647496 646995 631630 643378 614986 591428
2408.68 615186 643517 659262 643237 624536 625350
2414.46 639524 632662 589781 559411 588570 638078
2420.25 765150 902429 899831 783312 688172 656820
2426.03 629653 587901 628340 641804 637616 641395
2431.82 660046 660497 643696 647579 657914 650897
2437.60 646594 599909 621968 653453 634868 628175
2443.39 629931 601892 565985 506502 519157 529380
2449.17 538400 523659 521119 512868 502492 445113
2454.96 449143 539930 691786 754178 747835 731986
2460.75 720619 648653 604248 643376 674604 661231
2466.53 636252 596041 544041 541459 546119 506537
2472.32 475057 441952 435957 397836 366724 341243
2478.10 285515 236971 260254 270688 268471 252933
2483.89 276664 328901 362322 326679 335280 351980
2489.67 341348 355466 386705 372978 388299 442738
2495.46 498315 486958 485240 524623 555309 527498
2501.24 555547 614698 675994 684619 715260 770661
2507.03 803718 760799 725399 740200 751904 745620
2512.81 748919 757806 793690 819694 839478 852806
2518.60 880592 884807 869843 815005 745582 685051
2524.39 660725 662237 648456 571220 509649 512009
2530.17 562218 570104 626758 671835 627281 573386
2535.96 569314 567891 564951 498756 445071 446728
2541.74 453054 428027 414408 373544 366221 351577
2547.53 331845 338111 301794 240207 233130 245300
2553.31 212041 158121 146413 120901 83324 57826
2559.10 55433 34218-697-47392-54657-56623
2564.88-44768-77716-102610-136616-139349-80697
2570.67-21742-76227-90415-59467-39028-64397
2576.45-73620-94587-111849-145459-184448-176668
2582.24-196593-153169 46059 125686 49114-43527
2588.03-115156-148884-122980-139878-184297-203882
2593.81-155146-129251-130694-148919-148748-178262
2599.60-186105-163620-138711-116970-100022-135740
2605.38-116330-108079-158479-146761-81092-78971
2611.17-96180-124564-126405-115756-122605-135718
2616.95-46498-1547-69303-118262-99498-85798
2622.74-58811-65682-62095-46257-33938-41595
2628.52-42372-32052-27094-41178-29958-7643
2634.31-24355-45257-73376-70322-2148 44822
2640.09 30558 11244 21686 2601-23388-25220
2645.88-1056 992 15915 31362 41349 53013
2651.66 38993 49260 43040-14891 1611-20851
2657.45-2098 34301 63600 59725 16185 6826
2663.24 103583 144044 141496 162609 177073 162923
2669.02 235159 291092 320581 355968 421815 513928
2674.81 690784 868261 1009751 1126759 1328556 1503282
2680.59 1661251 1812862 1938914 2030267 1998212 1783938
2686.38 1640520 1587383 1517366 1532474 1712735 1876139
2692.16 1947427 1892706 1777726 1591182 1332094 1040083
2697.95 843015 641080 506890 410559 367633 333633
2703.73 294257 254503 281430 227012 204640 212991
2709.52 213098 175489 145202 137695 195985 199788
2715.30 175431 241667 360895 382546 448038 523021
2721.09 562315 562623 583032 541833 502552 469481
2726.88 438714 453813 640717 608385 462181 454082
2732.66 515008 555962 618452 606942 616146 629577
2738.45 625591 561318 553875 589735 556491 490489
2744.23 516823 580543 622841 645381 697439 738733
2750.02 834429 999246 1193048 1374858 1609734 1793516
2755.80 2093949 2394351 2574268 2694382 2745797 2637976
2761.59 2543124 2325697 2104587 2057736 1956098 2037420
2767.37 2395134 2644997 2721230 2612320 2318846 1868532
2773.16 1475842 1132188 848505 584042 450090 322114
2778.94 258363 241737 203776 146805 169312 183249
2784.73 171843 130434 132199 133018 151764 128808
2790.52 119853 115900 125748 104320 85306 45572
2796.30 2829 19362 70727 23125-27952-16486
2802.09 49377 22558-29865-70620 9655 41618
2807.87 46120-16669 175-14929-9307 36835
2813.66 47156 16676 42865 65857 83878 83858
2819.44 123430 187808 195290 145550 203103 256868
2825.23 294857 257782 306519 354428 437221 498404
2831.01 559028 622290 721566 788155 897107 978348
2836.80 1141222 1282937 1406582 1559698 1723246 1840468
2842.58 2043490 2283357 2494040 2671913 2945657 3164400
2848.37 3386729 3555611 3800705 3973074 4099962 4164126
2854.16 4176847 4005380 3936615 4008716 4219434 4205813
2859.94 4299524 4489553 4732123 4956415 5174599 5170842
2865.73 5154918 5154373 5141842 5030552 4990866 4969745
2871.51 4993695 5015770 5174074 5310294 5407673 5489552
2877.30 5734158 6050590 6509276 7165440 8171328 9446933
2883.08 11096932 12935243 14755925 16324283 17504575 17783295
2888.87 16894711 15093727 13146567 11553404 10683257 10972694
2894.65 12508275 14976931 16733718 17268560 16680415 15250150
2900.44 13383692 11519517 9791796 8219690 6924721 5892766
2906.22 5108244 4501437 4060114 3746519 3559456 3412579
2912.01 3290848 3141905 3027656 2954455 2911970 2728316
2917.80 2630232 2481636 2349887 2217253 2172218 2113314
2923.58 2131319 2105452 2146027 2225432 2319640 2389364
2929.37 2583963 2789742 3102624 3464958 3949563 4355732
2935.15 4822455 5342827 6092102 6833911 7599386 8396229
2940.94 9328257 10244040 11287686 12394508 13636511 15000127
2946.72 16542221 18020320 19728766 21545735 23474300 25534072
2952.51 27531998 29438009 31805167 35832990 39431637 38383141
2958.29 36470626 35092037 32719133 29591959 27556921 28468678
2964.08 32926816 38299250 42851458 45780804 47919949 49359357
2969.86 51129574 52819523 55087369 57380246 60037326 62354130
2975.65 64064351 64741031 63680511 60991580 56983937 53708145
2981.44 51797038 50671293 52971553 59293671 63628997 65017530
2987.22 63803817 61167954 57295497 53430080 49550215 46317606
2993.01 43655151 41777553 40389078 39606588 38753505 37944185
2998.79 36959247 36001663 34874325 33957186 33068384 32326285
3004.58 31808052 31539499 31233342 31089823 30908659 31665159
3010.36 33733200 33341833 29456402 26434455 24751560 24139458
3016.15 23504181 22959865 22328513 21713167 20973023 20260308
3021.93 19396147 18767994 17947380 17305548 16650019 16118353
3027.72 15620031 15291632 15242804 15671854 16836243 18978539
3033.50 19238690 15975902 13270816 11924901 11402813 11069791
3039.29 10848359 10683239 10544277 10330316 10095226 9887682
3045.08 9686165 9401892 9009481 8680638 8349685 8043495
3050.86 7688692 7351021 6965730 6648264 6318189 5988076
3056.65 5741828 5450497 5085199 4752787 4482938 4183885
3062.43 3894398 3697747 3434479 3211709 2990608 2843931
3068.22 2746232 2562098 2376587 2194745 2012895 1889043
3074.00 1763911 1625441 1467584 1346523 1322125 1294529
3079.79 1208057 1082044 1042543 1025211 998287 972611
3085.57 929234 888645 832360 773167 772201 765273
3091.36 747602 737209 753482 774397 734613 708092
3097.14 667753 615912 631039 649399 682394 760438
3102.93 719386 659750 641261 655896 640619 602123
3108.72 589244 580609 611661 624831 564472 565243
3114.50 552241 559526 539735 470603 454267 471796
3120.29 482537 459552 412607 342340 362218 395053
3126.07 367144 331477 336804 325007 279889 220894
3131.86 140811 94753 95596 131461 119152 82353
3137.64 123342 146821 126220 89942 93607 89730
3143.43 88789 40858-40272-3519 68588 29033
3149.21-58398-23192 62016 40683 32877 25666
3155.00 1657-51139-67841-42220-34259-31467
3160.78 25460 33303-68354-41737 1483-36177
3166.57-31065-32249-49006-61153-1821 31559
3172.36 67825 82195 67990 12453 39643 33799
3178.14 15085 61954 60049 125510 72267 28904
3183.93 77329 130136 182639 127039 75286 90409
3189.71 145835 139050 84417 132789 237340 296285
3195.50 237604 205314 190553 214917 255397 236039
3201.28 209635 240891 220462 224155 251377 250498
3207.07 256972 297524 272684 234012 217187 161930
3212.85 160854 257096 214879 193249 224591 217422
3218.64 191812 142853 112882 163875 163502 82568
3224.42 53829 95413 149453 101929 12486 56869
3230.21 140900 98052 74499 66474 105067 38199
3236.00-31438-37529-833 64556 58035 24310
3241.78 9351 4682-19366-5 38490 51028
3247.57 63475 69976 68244 58698-24063-105426
3253.35 19277 143248 165391 115141 85267 117803
3259.14 110157 114173 145091 154896 168827 97057
3264.92 94299 141466 174832 213649 220753 200687
3270.71 172427 156852 157268 122813 133212 155174
3276.49 147166 159259 180801 135758 107530 97829
3282.28 32274 8335 59476 87864 66358 33949
3288.06-8996-47028 7549 72416 23022-66501
3293.85-42577-639 50434 29736-50550-43932
3299.64-45837-68427-50272-78577-77108-98973
3305.42-98582-71332-30564-39998-48528-13236
3311.21-20731-55649-70518-127678-108482-62379
3316.99-135015-132843-90989-23474 33315-27527
3322.78-73283-45951-93482-72315 4777-5274
3328.56-64753-108097-62428-16186-10858-59475
3334.35-88022-51585 4959 31696 3091-44964
3340.13-57942-48991-36810-23929 30312-7597
3345.92-31311 20996-20758-66017-37135-62696
3351.70-59451-4757 1097-64168-81732-69256
3357.49-46873 7380 47675-28330-77233-45493
3363.28-49390-78794-19618-34703-15495-26561
3369.06-6341 44705 24767 54316 86682 49377
3374.85 50254 2935 3935 67602 58839 34175
3380.63-33674-43052-56625-99633-105671-133601
3386.42-33508 2541 34629 30648-3587-24141
3392.20-14419-56444-91961-62420 23672 100506
3397.99 144844 96036 111554 193948 175684 152510
3403.77 208051 190848 160923 147456 163937 192841
3409.56 201707 190050 199798 191650 152330 105584
3415.34 167468 252170 234609 138674 72846 42962
3421.13 36216 15803-35020-12169 70699 566
3426.92-81066-105304-63813 5557 41035-21933
3432.70-70976-48297-17528 32521 52277 53707
3438.49-13272-86045-118525-108061-20568-25066
3444.27-38809-121600-149992-41289-7852-79176
3450.06-28121 39543 59726-32699-30364-2277
3455.84-7663-43194-77201-28543 24058 46543
3461.63 41323 11254-50760-40604-8793 26935
3467.41 53796 21092-19596 3482-1053-48668
3473.20-24628-18681-29933 49163 114127 74396
3478.98 5337-30395 28288 116801 25131-26055
3484.77 17669 32162-19546-28257-21755-41739
3490.56-78178-88388-21365-53979 12594 57630
3496.34 5237 23268-14085-108192-166473-138164
3502.13-105184-31049-10558-84830-80229-83549
3507.91-126225-164220-153519-107438-107882-50528
3513.70 33758 4501-64574-157325-170344-91967
3519.48-31923-56309-95727-144448-184919-120895
3525.27-39638-36867-66119-65488-32031-38780
3531.05-52121-70993-92051-63682-36940-65029
3536.84-25079-35113-62088-26078 55650 34795
3542.62-71973-131454-139804-141818-104319-91527
3548.41-108689-100071-51478-39746-11782-35797
3554.20-62454-42984-43424-60103-153628-162137
3559.98-36166-29331-75342-126145-159603-144878
3565.77-171990-191809-163074-167909-158402-145276
3571.55-133186-97967-58456-24093-73025-113444
3577.34-107100-123219-142825-172919-141705-92518
3583.12-89060-98661-163777-155386-165573-223177
3588.91-144896-74479-88346-172768-193650-140245
3594.69-57826-30559-24933-11045-76106-133272
3600.48-62644-1763-6878-57776-93374-58242
3606.26 27254 27488-118573-94585-24369-19067
3612.05 17097 40315 46509 104720 103748 30220
3617.84-54513-103496 49556 138362 115195 151554
3623.62 233425 198310 137440 57197-130007-162723
3629.41-34780 65824 109594 54491 81228 188786
3635.19 245235 257512 271584 294504 264748 292348
3640.98 266292 180536 235592 274214 227666 120461
3646.76 133491 61417-3873 75192 167537 268679
3652.55 337210 400321 293011 215824 372669 397436
3658.33 362145 362349 383935 381191 362323 313883
3664.12 335151 407130 432590 295475 282355 214739
3669.90 72518 287289 396763 353918 196369 2626
3675.69 84314 299861 316655 312991 345336 372880
3681.48 407645 428336 350466 343633 343380 207483
3687.26-70818-2229 100528 27473 76811 135703
3693.05 176551 208732 207440 232434 292459 291059
3698.83 264094 228310 136121 143585 242274 268466
3704.62 272115 255568 251708 182041 131118 194127
3710.40 38331-35278 196346 284605 303208 274702
3716.19 232173 210141 209305 198596 201589 173450
3721.97 196486 295038 291708 265601 275171 320627
3727.76 361629 358431 334788 218647 260832 407200
3733.54 344692 366880 341094 462634 649446 748813
3739.33 772316 800145 889736 793809 408146 543735
3745.12 1031942 1205494 1129236 786536 867410 1073544
3750.90 839696 1024787 1449153 1458457 1335567 1325100
3756.69 1371815 1331376 1240308 1295980 1359525 1308261
3762.47 1288465 1266292 1191391 1143807 1162515 1125167
3768.26 1083237 1087199 1124492 1128695 1231837 1278798
3774.04 1329609 1317587 1248690 1173255 1109424 1045764
3779.83 1076737 1131027 1160395 1129629 1100255 1072531
3785.61 1064991 1033948 1044366 961434 871599 910630
3791.40 931651 809668 716772 673008 558747 486431
3797.18 560677 609018 486876 276910 479719 844115
3802.97 933466 852455 606485 310472 400030 555197
3808.76 601866 583699 522319 546169 642003 660400
3814.54 351174 266130 504509 590944 525629 305651
3820.33 185328 299143 443483 489839 520428 481198
3826.11 487132 448401 380230 358021 324780 325442
3831.90 343977 277191 187187 199300 162887-158736
3837.68 19598 255824 269155 265356 210389 169881
3843.47 239023 272263 300329 366809 344479 242910
3849.25 219183 78780-131629-227654-485306-222488
3855.04 138079 135781 100995 122905 151777 87638
3860.82 17178 10149-19658-81107-56041 44688
3866.61 68876 1972-165306-215138-53395 17456
3872.40-38822-94825 33071 84736 39592 34285
3878.18-888-74099-6039 63750 101827 103264
3883.97-43690-109926 113822 145666 60401 77928
3889.75 12876-44936 74357 132127 169820 144892
3895.54 125431 122478 66411-63719 41505 40188
3901.32-7581-42999-114228-36131 57385 88144
3907.11 102821 118820 121783 61079-44570-56918
3912.89-16713 36444 61625-53201-45219 68675
3918.68 37683-6664-21172-19601 21350 31051
3924.46 32840 53436 52852 38419 59023 75761
3930.25 81436 95449 80084 62539 109768 140273
3936.04 125289 174922 217833 223978 265188 218628
3941.82 121545 147222 241356 260345 224099 248691
3947.61 233076 217734 261444 235407 279103 354945
3953.39 399220 430864 446696 400095 344066 300620
3959.18 336859 378391 398526 411787 465700 474877
3964.96 415281 329613 297389 274842 343226 448150
3970.75 447569 372702 325635 404021
##END=
