##TITLE=Acrylonitrile
##JCAMP-DX=4.24
##DATA TYPE=INFRARED SPECTRUM
##CLASS=IUPAC A
##ORIGIN=NIST, Anayltical Chemistry Division, 301-975-3108
##OWNER=COPYRIGHT (C) 1998 by the U.S. Secretary of Commerce
##DATE=98/10/1
##$SPECTRA VERSION=1.00
##$UNCERTAINTY IN Y=2.0 % relative (B=1.0E-04,C=6.4E-09,D=2.7E-14)
##CAS NAME=Nitrile-Propenoic Acid
##CAS REGISTRY NO=107-13-1
##MOLFORM=C H2: C H C N
##MP=-83.5 C
##BP=77.5 C
##$NIST SOURCE=QUANT-IR
##SPECTROMETER/DATA SYSTEM=IFS66V (Bruker)
##INSTRUMENT PARAMETERS=KBr Beam splitter; MCT Detector; Multipass cell
##STATE=gas
##SAMPLE DESCRIPTION=Acrylonitrile Primary Gas Standard
##PRESSURE=101.3 kPa
##TEMPERATURE=23 C
##SAMPLING PROCEDURE=1 L/min Flow
##RESOLUTION=1.9290
##DATA PROCESSING=Triangular Apodization
##XUNITS=cm-1
##YUNITS=(micromol/mol)-1m-1 (base 10)
##XFACTOR=1.0
##YFACTOR=2.2737E-13
##DELTAX=0.9645
##FIRSTX=574.687
##LASTX=3974.595
##FIRSTY=3.42E-07
##MAXX=3973.63
##MINX=574.69
##MAXY=.0002862
##MINY=-1.69E-07
##NPOINTS=3527
##XYDATA=(X++(Y..Y))
574.69 1507622 1790996 2308912 2071816 1924256 1231846
579.51 277996 299694 1203240 1623570 1334648 1041980
585.29 1075908 1457188 993496 452290 1143532 2134338
591.08 2028910 1911176 1840794 769592 645990 1576066
596.86 1839058 1335910 1412792 1843822 1507178 1435016
602.65 1720314 1856120 2362306 2308958 2216086 2299986
608.44 2555308 3036524 3137732 3516518 3726294 3977720
614.22 4353860 4465676 4964530 5273210 5486998 6124124
620.01 6582984 7470118 8514766 9280328 10094930 10512790
625.79 11368860 12530210 13584560 14677210 16070680 17231240
631.58 18078230 19451500 21252380 22670020 24681380 26559520
637.36 28542260 29911780 32732710 35542320 37844830 42084310
643.15 43133350 47794330 50569470 53265840 59487620 59472120
648.93 66309480 68964280 70354000 79582660 76015080 82507240
654.72 87274740 79534280 93145790 89957500 84994140 101365200
660.50 88102830 88278120 101947700 84587460 93867700 104317400
666.29 84856310 96883740 100518900 84652970 96572330 95312570
672.08 88163550 95077780 93895730 95767200 105145600 118091800
677.86 144869500 180654100 223833000 301101800 271303800 160028700
683.65 115701800 95756590 86905020 82389220 80296030 81907720
689.43 78451730 79234060 88540510 83151060 77562240 91790060
695.22 90982260 76298960 87332340 95339990 77687980 78574420
701.00 94249030 82474160 71352970 86405980 85957620 67538780
706.79 73384930 84057180 68602380 61441290 75148230 70261410
712.57 53856840 60469240 67780630 53250330 47423430 58516050
718.36 54980220 41231700 44488760 50925050 41731900 35176810
724.14 41445810 41329450 32234940 31275060 35648130 31776080
729.93 26509650 28670620 29440900 24517640 22141080 23904930
735.71 22761550 19086590 18503350 19382370 17577040 15283570
741.50 15436480 15312350 13467460 12358910 12591030 12079190
747.29 10709970 9890620 9949392 9796682 8684866 7982958
753.07 8174988 7958086 7368260 7161120 7512094 8168764
758.86 8082266 7431262 7624204 8094570 8004036 7985752
764.64 8741476 9742620 10568830 11295960 12691680 14491490
770.43 15752000 17189030 18718360 19737910 20809610 21744630
776.21 21999040 21933550 21776450 20766500 19564170 18620020
782.00 17399740 16094950 14983990 13403950 11442340 9923486
787.78 10289690 12142040 14348530 16231900 17431250 18318290
793.57 18714640 18536390 17965630 17123230 16048900 14600910
799.35 13217430 11880740 10478260 9061778 7725764 6716612
805.14 5613560 4705034 4098036 3370168 2822754 2411898
810.93 2145706 1769236 1667816 1486246 1104384 1173804
816.71 1399332 1289018 1166580 879368 991642 1305676
822.50 1141950 1038940 1040826 985032 1058458 770934
828.28 707550 945404 1101144 1120080 1127666 1187162
834.07 1243160 1258694 1576904 1945238 2189972 2543898
839.85 3033138 3457156 4052792 4818696 5933694 7106700
845.64 8433192 9887596 11720210 13595050 15749260 18291750
851.42 20747540 23291800 26173040 28759590 31390190 33626510
857.21 35522990 36775110 37500250 37080120 36115840 33876800
862.99 31249790 27645960 24793280 21637780 27148670 35645810
868.78 27004880 23272670 23646380 22723440 25705840 28139130
874.57 31562800 34309060 36492250 37793690 38364960 37816550
880.35 37000660 35472520 34190410 32956020 31169060 30201280
886.14 30448350 29433870 29376460 31390120 31633130 31646770
891.92 35657510 37563280 37476860 42799240 47248340 46187210
897.71 51626670 58382970 57260250 62085610 71714850 71245980
903.49 75014360 86964940 87826340 89442040 104810700 108323500
909.28 107279700 124421800 132806800 125481900 141534400 160061500
915.06 149432700 159565600 190189200 181113900 177785800 215911800
920.85 219144700 199999100 237178600 260894000 231699000 252034100
926.63 296341900 269528000 266392200 323597300 315761400 288578600
932.42 340221400 351354700 308979100 343518400 377346700 336767000
938.21 351103600 385866900 360551000 364659900 388980900 385380000
943.99 413558900 412302800 412094000 483265100 484421600 424658300
949.78 507289800 559513700 852943800 1259056000 938203000 544767700
955.56 493022000 474088100 431778600 411548400 443477300 453371700
961.35 437502800 464812100 484097900 426643600 483253300 508007000
967.13 494821800 630754900 816055900 946677400 801080700 554951800
972.92 461888000 494483700 458545200 401137700 461115100 425651600
978.70 393772200 455878800 417736800 390379400 441146700 398706100
984.49 383637200 415663200 382489200 367438700 379555900 363694700
990.27 344877900 350309200 344246300 312769700 325322800 312999600
996.06 284358500 304032000 277329400 264234300 272764200 242408100
1001.85 244148400 235722000 215859600 216487000 198655800 187407000
1007.63 182032400 165213100 159060000 149715600 136835400 134079800
1013.42 124386500 117059800 115355300 105902000 101698600 96376840
1019.20 90036710 85606360 79236450 74642140 69322840 64602460
1024.99 59405790 54491840 50862940 45764860 42190520 38047290
1030.77 34642580 31570980 28319980 25842280 23267660 20999170
1036.56 18987550 17245920 15704880 14258120 12904760 11857640
1042.34 10948010 10066440 9473904 8778520 8209462 7631082
1048.13 7306930 6997998 6795104 6701504 6413400 6287552
1053.91 6486856 6384522 6487460 6542524 6353614 6406480
1059.70 6281258 5957806 6113126 5929084 5908358 6362140
1065.48 6525124 7268850 8371658 8924752 10334200 12194250
1071.27 13660960 16049230 19198280 21940050 25764120 30090770
1077.06 33971300 38683960 43452610 47400760 51182720 54142230
1082.84 55955310 57137790 56644650 54478530 50679090 45623020
1088.63 38678330 31530700 25392570 27831260 38129060 39199990
1094.41 38053780 37041020 34419810 33599250 33737130 35019320
1100.20 36085050 37039140 37499590 36779210 35199350 33624520
1105.98 31140280 27970150 25255260 22467270 19230320 16626260
1111.77 14392090 11845200 9896436 8603922 7063538 5771670
1117.55 5055244 4228580 3536484 3284894 3005096 2513410
1123.34 2355976 2256966 1933414 1820936 1915948 1800206
1129.12 1638266 1631936 1557166 1442608 1386224 1320592
1134.91 1237194 1078116 1051162 1071804 1054336 1050274
1140.70 984070 890520 875000 806210 762804 724530
1146.48 694152 637216 677082 718690 677024 647672
1152.27 719820 757592 718158 712096 684954 751362
1158.05 865236 925006 916670 869110 843844 886898
1163.84 981208 933620 977110 1058500 1091986 1030496
1169.62 1059062 1148792 1152016 1098326 1117016 1116534
1175.41 998506 1017862 1111984 1054974 1041440 986730
1181.19 1026970 1017122 890588 1062990 1128780 954734
1186.98 1070732 1136002 1126748 1254348 1229052 1173586
1192.76 1291620 1301952 1224894 1234644 1282582 1333694
1198.55 1341042 1412084 1634708 1718714 2455332 3087172
1204.34 2387940 1755522 1687924 1894844 1847440 1468860
1210.12 1279848 1386848 1437898 1273554 1345576 1351082
1215.91 1199564 1221006 1318668 1178634 1216802 1405404
1221.69 1270698 1118982 1339912 1352208 1072886 1120304
1227.48 1339934 1238028 1153682 1325574 1315212 1097170
1233.26 1071304 1159134 1007418 934762 1068204 1073172
1239.05 995806 935650 976712 915890 920112 952364
1244.83 942882 918136 880712 911418 920394 899344
1250.62 1050856 1174158 1214824 1392474 1480002 1552214
1256.40 1885728 2240544 2712300 3238972 3556100 4168330
1262.19 5043166 5771126 6620548 7583114 8449388 9333836
1267.98 10181140 10913200 11642090 12006230 12140610 12084870
1273.76 11632960 10975950 10249650 9587954 8894108 7779096
1279.55 7155000 8750622 11313990 12522960 12655990 12880760
1285.33 13495020 14225660 14917070 15448130 15615120 15639320
1291.12 15528790 14899680 14202160 13943250 13383470 11869580
1296.90 10629380 9683676 8815454 8371218 7967438 7783188
1302.69 7896176 7996352 8052264 8251752 8718598 9315180
1308.47 9736014 10191120 10874210 11413750 11699680 11945890
1314.26 12088790 12004360 11784640 11475800 11095130 10554030
1320.04 10219460 10391460 10533130 9707678 9064330 9244888
1325.83 9219706 9499854 10112380 10837200 11304790 11834060
1331.61 12429310 12767810 13179990 13260030 13795210 13490180
1337.40 13755090 13872110 13588000 13672470 12813630 13342730
1343.19 13225670 13121390 14175250 13573950 14056510 14884850
1348.97 14389020 15152820 15120880 14675120 14955330 14497740
1354.76 14065930 13472940 12942130 12359880 11733120 12248010
1360.54 12756410 13462270 14761400 14793170 15822590 17452920
1366.33 17704250 19164340 20830220 19936140 20837840 23524510
1372.11 22889020 23320680 25191630 23847440 24272630 25276310
1377.90 24436330 26661740 26258920 23834890 28460610 28912920
1383.68 24685180 30607830 34108270 29693180 34201070 37925220
1389.47 33434160 39885940 46702690 42959460 51245760 59971290
1395.25 55913670 63827080 76903800 75208110 80838350 93778030
1401.04 92848440 95985170 106425100 104959100 102578600 101945000
1406.83 97406210 88414920 79634660 69565810 59297900 50325300
1412.61 66346940 96304540 75291120 55797100 64257710 75386720
1418.40 87731970 94764880 101050400 104128900 102990900 105816000
1424.18 103582900 92780510 91389630 86958550 74739010 72865430
1429.97 68876240 53530800 48451920 48631340 40804020 41682870
1435.75 47461980 39621910 35903700 38957700 35177100 33245240
1441.54 34905270 31482270 28487290 28982330 26484190 24656500
1447.32 24569100 21369470 19013140 18609920 17413440 15678690
1453.11 15344230 14873820 17548820 19930200 15741130 12757210
1458.89 11331750 9840390 9206604 8857936 9054590 9967330
1464.68 8975078 7060342 6450934 6345276 5763814 5587692
1470.47 7660912 8422658 8054882 5965638 4568402 5335314
1476.25 4016332 3040968 2885204 2707678 2833564 2456408
1482.04 2081740 1968666 1866454 1996476 2840338 2775274
1487.82 2386156 3368236 3334364 2002064 1155990 1224370
1493.61 1287898 3902798 5147476 2338254 2774016 2530934
1499.39 1140172 1196328 1230090 1084036 1969160 5880046
1505.18 8594152 8194742 4805756 2625030 2072292 1381388
1510.96 2179732 1792574 1070290 1657454 2001978 3293276
1516.75 3250878 1817282 2662458 6185542 6988622 4311964
1522.53 2230202 2232488 3505692 2399392 1828546 1853194
1528.32 1241708 955808 1245680 1749808 3410550 3713684
1534.11 1739216 1472670 1578370 4198486 9487450 9544900
1539.89 6416768 6505116 5180034 2872844 3802748 3463026
1545.68 1883720 1776546 2042700 2983502 2923186 2318360
1551.46 2182226 3929538 5932652 4199584 3474388 7483960
1557.25 11677360 11782740 11383520 6900954 3506256 3741070
1563.03 3902334 4726022 4219722 4064890 4499552 6277662
1568.82 7606076 6150860 5350242 5379612 6060088 6960914
1574.60 11564520 13466710 8906652 7231804 7794004 8686338
1580.39 8091530 8569328 10136860 9492556 9765576 11993160
1586.17 11708190 11552160 14468080 15429240 15516920 19402810
1591.96 21955680 22051550 26272000 30969990 32256350 36628040
1597.74 42693260 44782300 48281150 54223660 56413060 57885230
1603.53 61303420 61779740 60584290 59228130 56466220 52876430
1609.32 47551520 43211520 39945870 42001970 57903500 57450430
1615.10 41463920 38616060 40597780 47956300 57032520 63219760
1620.89 68303410 72628140 73628470 71577990 69626480 66118130
1626.67 63730020 59482360 53481650 50617970 46697820 42539980
1632.46 40932720 40851750 42897500 41698300 38527690 37044820
1638.24 37940240 38632400 38093720 39435950 39742240 38097640
1644.03 39377890 40928080 36670860 33056420 29500210 26074360
1649.81 24575720 28973800 40447720 40709220 31817090 28436970
1655.60 29183710 29546550 31242720 33002990 32763900 32805540
1661.38 34601440 33749570 29893460 28559650 27829450 24766470
1667.17 23904410 25607060 21719530 18237490 18041670 15327150
1672.96 13573580 16312980 15195870 10321620 9863660 9942608
1678.74 8904906 8425256 8756112 9129412 11219710 16232490
1684.53 12708620 6152684 6414660 6349654 5537604 5376624
1690.31 5328902 4382880 4547236 4938594 9658230 12210500
1696.10 6739834 4214520 6308606 11723970 9986210 4108476
1701.88 2983402 3625348 3678310 3507696 3534820 2193206
1707.67 1800480 2003264 1926964 1495436 1730496 2018000
1713.45 3347602 3535420 4178958 7806732 6304674 2938890
1719.24 1626624 1131486 1213066 1380410 1326048 987598
1725.02 1022530 1018610 1029680 1279322 1902588 1659256
1730.81 1533402 4163920 7550934 7088590 3191580 1298220
1736.60 1339706 1677922 3535398 3029256 1307258 1629638
1742.38 1986688 1689346 1477750 1745752 1965872 2467644
1748.17 2371734 2384704 4420332 3321148 1090950 962638
1753.95 785560 1280076 1921104 1150750 617090 611250
1759.74 1170706 2549672 1621732 460886 444198 457262
1765.52 479398 1564428 2226112 872226 1176572 2453930
1771.31 4528858 3806868 1014496 1106224 1271246 824774
1777.09 670474 561534 876680 942762 432806 266616
1782.88 496066 1070188 694616 179642 279500 268448
1788.66 605192 1095928 1775086 3174802 1962022 351070
1794.45 560996 483612 256778 309188 1027104 988276
1800.24 743100 838642 486804 218054 243454 228220
1806.02 282524 345210 267114 558292 832826 582612
1811.81 433348 363634 368748 390964 553950 718982
1817.59 772876 863026 961634 1058400 1310560 1380528
1823.38 2086648 2979212 2460670 2255332 2652234 3678300
1829.16 4409390 3522478 3082780 3181592 3112946 2988128
1834.95 2921292 2990224 2748850 2317872 2168510 2193644
1840.73 2562158 2772726 4485078 5062840 3189468 3002254
1846.52 3491610 3629208 3795768 4097280 4127236 3980398
1852.30 3929134 3855660 3769120 3739960 3745730 3655560
1858.09 3439156 3412796 3537720 3456680 3617722 4003246
1863.88 4085740 4021012 4469422 5262348 6096128 6309986
1869.66 6020594 6074106 6003318 6669460 7704240 7912866
1875.45 8443180 9961080 10965880 11406440 13217780 15433520
1881.23 16450490 18274200 21784830 24161550 25987920 30196850
1887.02 34415600 37165120 41322930 46569060 49868220 53068540
1892.80 58722880 62977990 64980280 68617880 71902220 72274600
1898.59 71308940 69895450 69014320 67638170 65790720 64387690
1904.37 62960950 62074830 57874140 46610500 41521680 48425600
1910.16 59234230 69497370 76014860 80693190 84856760 85143810
1915.94 83327100 83708160 79197610 72595150 69177270 63400300
1921.73 57876990 53293720 47480470 43231320 38606060 33919320
1927.51 31763760 27843640 24611160 23057840 19988170 18897730
1933.30 17642940 15532210 14846710 14135370 15067550 16082550
1939.09 16326560 17110230 17416940 17492430 16518930 16205710
1944.87 16006950 14588850 14227600 13364420 11910180 11760780
1950.66 10811250 9642990 9459394 8324338 7686566 7648954
1956.44 6883816 6455906 6137420 5614158 5486746 5253932
1962.23 5147420 5065248 4569390 4567202 4530736 4278224
1968.01 4152426 3776456 3495516 3228734 3155166 3060388
1973.80 2937938 2934618 2768660 2686772 2526648 2391856
1979.58 2274598 2134810 2024492 1986986 1925460 1719160
1985.37 1624908 1635862 1566844 1400350 1239784 1338210
1991.15 1478606 1201436 944544 879890 783574 796544
1996.94 912654 871256 764856 687212 703626 696538
2002.73 598764 579722 519894 498392 551136 543708
2008.51 473036 363404 308056 381932 384356 278242
2014.30 295202 499598 565846 494256 428676 358464
2020.08 366108 356010 400528 374766 273684 255716
2025.87 225750 243434 262512 218148 222094 255716
2031.65 326836 339376 294218 261452 287240 362834
2037.44 376072 360162 380254 407668 355426 328756
2043.22 340172 375222 608098 965650 756036 373784
2049.01 372692 351874 381784 417200 430512 464148
2054.79 470296 435402 454398 457616 468690 602054
2060.58 674860 957324 1253662 1035418 765344 621184
2066.37 531426 457354 402190 409754 388202 305558
2072.15 344916 383818 252630 318214 409034 341552
2077.94 392828 443292 377472 435080 513568 379128
2083.72 337644 479538 430860 346842 445990 430902
2089.51 362404 374216 351964 341292 415328 411538
2095.29 343678 346600 324192 330848 343682 270944
2101.08 260146 286564 214788 194158 234074 177008
2106.86 153872 167408 152950 136226 86884 95340
2112.65 110554 102942 108936 42652-5332 40770
2118.43 100158 93054 23316-23492 810 78844
2124.22 101614 22034 50428 91968 32976-20204
2130.01-2394 11844-14906 32024 108434 120970
2135.79 74346 53298 129390 209388 225050 209250
2141.58 220906 239144 227308 219736 258568 242160
2147.36 203032 195058 196490 249296 296746 352130
2153.15 332374 299354 327960 318386 300412 331530
2158.93 332254 321420 324332 331642 308618 268232
2164.72 329700 345396 313410 340004 302426 251488
2170.50 292460 372024 364066 337344 370208 367990
2176.29 361932 414520 488252 494188 491114 440388
2182.07 427238 461938 393228 356110 311552 304122
2187.86 366476 346918 350852 436892 498822 442132
2193.64 400800 443896 436036 421720 432578 511784
2199.43 520644 464638 538734 609544 630764 697164
2205.22 763396 785958 901774 1109256 1214222 1386688
2211.00 1683706 1852922 2141058 2623630 2952942 3310056
2216.79 3847692 4398446 4976128 5670064 6382968 7063326
2222.57 7784440 8452546 8946638 9541682 10099950 10331190
2228.36 10506340 10654050 10493760 10203400 10035710 9618464
2234.14 8750440 8686770 8923874 8181648 7269110 9949534
2239.93 11400900 8322228 7847396 9074470 10243340 11378380
2245.71 12004760 12368810 12311750 11887930 11370930 10542430
2251.50 9382924 8349310 7277476 6192134 5389846 4675336
2257.28 3986658 3678776 3506336 3307846 3390296 3486592
2263.07 3466582 3709944 4100214 4326738 4620916 4900256
2268.86 5102272 5305070 5402092 5463636 5399576 5157972
2274.64 4911308 4475930 4058018 3805594 5060494 5871288
2280.43 4317524 3998958 4219406 4245990 4790140 5306066
2286.21 5859934 6330532 6671268 6930726 7053848 6964068
2292.00 6520370 5875368 5259978 4804920 4304122 3849680
2297.78 3573522 2979260 2386484 2144522 2074558 1990668
2303.57 1944020 1988536 2078524 2069654 2104424 2105812
2309.35 2118572 2097010 1945222 1790426 1736636 1721940
2315.14 1586222 1471094 1346430 1180950 1034412 1001138
2320.92 990256 901962 785290 779324 811298 835226
2326.71 874094 914966 895982 908826 903268 925756
2332.50 1069848 1070548 959150 929730 954418 963558
2338.28 910562 908846 910854 896588 940896 935890
2344.07 914824 884890 814688 794998 684536 782812
2349.85 1017994 986240 1162158 1335164 1297946 1459346
2355.64 1606112 1606550 1764700 1882138 1891840 1998890
2361.42 2057426 2158616 2326834 2301842 2304124 2322304
2367.21 2279296 2303544 2310744 2212822 2091708 2046280
2372.99 2137054 2291882 2441760 2636476 2799690 2914818
2378.78 2990974 3078624 3081430 2955342 2790532 2617208
2384.56 2374380 2288410 2463434 2540966 2478790 2444110
2390.35 2415416 2346412 2332174 2370352 2402398 2331984
2396.14 2337268 2361040 2220272 2192950 2218212 2115924
2401.92 1961148 1891940 1867430 1763504 1658048 1536122
2407.71 1421098 1350604 1337002 1288976 1197434 1148768
2413.49 1071772 1009220 1043398 1074102 1026522 911582
2419.28 845794 926624 1035300 1021464 1048124 1082472
2425.06 993660 1026588 1110860 1119952 1099652 1106958
2430.85 1132588 1132458 1127838 1140058 1197108 1254918
2436.63 1231262 1239860 1321654 1346354 1432046 1545872
2442.42 1589360 1577520 1690238 1895768 1957080 2013392
2448.20 2182132 2253728 2272494 2409668 2563006 2563704
2453.99 2582188 2633882 2500130 2440026 2428886 2368096
2459.77 2289422 2202504 2206694 2223682 2190786 2254292
2465.56 2372298 2539688 2820116 3052318 3330682 3608444
2471.35 3613842 3640458 3756012 3592592 3664098 3503240
2477.13 3129344 3251842 2966734 2842560 2922210 2580326
2482.92 2621804 2620708 2483994 2628806 2530422 2384404
2488.70 2349066 2208846 2124826 2023818 1995092 1971708
2494.49 1849402 1832552 1690842 1551030 1576112 1479848
2500.27 1359294 1336722 1272062 1177992 1174978 1192122
2506.06 1141740 1084822 1060024 1047760 1048876 1022652
2511.84 1019228 1041218 1009318 984474 958572 912092
2517.63 945424 954060 914932 957710 936266 899896
2523.41 946542 956374 1008272 1021470 994856 995980
2529.20 1014762 1087604 1082178 1019348 1064148 1031364
2534.99 1006076 1126824 1175494 1242048 1282630 1282720
2540.77 1272408 1221272 1263888 1391612 1407492 1335240
2546.56 1454952 1381144 1167408 1394792 1339250 1217486
2552.34 1460132 1265342 1183800 1441510 1454060 1405006
2558.13 1447260 1347632 1357860 1699336 1939258 1864186
2563.91 1663542 1602382 1629212 2283118 3247880 2702510
2569.70 1647434 1331894 1107220 953474 1011648 996800
2575.48 875382 943500 931258 987766 1125214 933218
2581.27 863144 1049292 972242 806772 849270 863824
2587.05 826870 857816 919936 905146 831712 822874
2592.84 789418 675092 604718 575604 576252 579260
2598.63 628426 607328 468448 452456 410120 304754
2604.41 323180 361176 352066 283712 272086 293160
2610.20 231494 203414 230232 293306 316982 311036
2615.98 225304 112978 49972 63254 91434-282
2621.77-19448 8364 7606-45478-76404-35118
2627.55-42604-31228 17876 23650-37626-40626
2633.34-22584-53232-99418-125400-98932-70772
2639.12-85624-137106-153072-70616 51918 814
2644.91-51216-286-35970-106060-108348-71118
2650.69-24084 24484 5428-46578-13734 109966
2656.48 108020 58158 41340-12422 69610 147834
2662.27 169214 187940 118360 87258 237064 293360
2668.05 263558 307062 256932 270628 335654 363908
2673.84 439848 415770 389964 518460 714100 812846
2679.62 883704 1037188 1051420 1069132 1238272 1303704
2685.41 1325120 1572162 1713414 1753164 1854092 1924430
2691.19 2076406 2134706 2289842 2380360 2343928 2382752
2696.98 2421882 2318980 2321772 2578164 2587978 2426648
2702.76 2265174 2056944 2069812 2101208 2466360 3085136
2708.55 2776516 2360590 2406980 2518950 2720972 2855560
2714.33 2767144 2741910 2724726 2554666 2478680 2357782
2720.12 2144990 2044790 1904424 1650440 1540924 1493564
2725.91 1260580 1082024 1029578 915132 848682 737514
2731.69 654132 637206 645730 653146 576396 509324
2737.48 514964 559028 613374 656198 592264 550036
2743.26 548718 463098 390470 385286 385134 323488
2749.05 288814 295982 272172 184204 134018 148570
2754.83 183816 205486 169086 156724 182086 217132
2760.62 225986 235564 278602 321270 259432 270016
2766.40 403670 459632 447898 516948 498700 449712
2772.19 641752 735824 646884 632898 688782 659190
2777.97 745320 915774 857234 761126 929916 984356
2783.76 835384 968042 1085172 810132 597012 657950
2789.54 764886 646594 485022 441990 366692 402928
2795.33 538312 513320 497772 534752 475164 591898
2801.12 910680 1013320 963614 969124 903620 848758
2806.90 807178 752932 708534 554714 381440 379474
2812.69 281866 107120 161018 252380 190876 144096
2818.47 156246 152664 246378 254934 120494 183020
2824.26 183084 79000 12152-292538-339368-40094
2830.04 89598 106988 47346-3006-71250-167760
2835.83-274148-368656-345634-389908-437260-491268
2841.61-558450-564062-569776-544634-493588-496906
2847.40-597522-588346-537706-484326-440268-444896
2853.18-477654-496012-409372-390556-449108-412354
2858.97-445440-481620-204898-34962-86448-133590
2864.76-163492-166086-108568 74456 65432 98806
2870.54 171344 41308 80222 239864 434022 587986
2876.33 511162 425556 478746 508050 537392 648534
2882.11 615298 563912 637984 725560 981398 1253818
2887.90 1186980 1129366 1095364 1149578 1220792 1088818
2893.68 1105906 1075672 910776 996076 1042436 1102784
2899.47 1310926 1029434 808728 1085126 1106746 901220
2905.25 1040952 1140278 1062892 1085070 1016308 858082
2911.04 944394 990504 981490 1026500 1094664 1166974
2916.82 1092722 1323210 1310522 850586 616340 563320
2922.61 527924 468440 365280 247128 262396 320314
2928.40 253100 302392 362474 363258 443760 361852
2934.18 261438 280850 317884 383946 442714 400430
2939.97 349682 327666 197642 152178 241764 135468
2945.75 106052 174780 123900 168840 197042 146544
2951.54 140778 141292 131558 21852 1398 92890
2957.32 104092 168378 146832 113948 174256 205048
2963.11 223706 159034 146830 194948 290394 370170
2968.89 367530 468478 418370 332406 433748 456616
2974.68 458382 521992 528636 620072 810516 848152
2980.46 1022172 1254380 1252996 1460662 1530648 1480410
2986.25 1719408 1823280 1759110 1736904 1673526 1533380
2992.04 1415802 1467576 1409432 1358472 1533888 1626870
2997.82 1505146 1302772 1372936 1629158 1911696 2136816
3003.61 2334286 2634882 2757188 2799196 3028676 3039132
3009.39 2824580 3027024 3169492 2929736 3259714 3832212
3015.18 4056668 4494262 5231206 5895640 6708462 7893892
3020.96 9132078 10495880 12067550 13796780 15701680 17683140
3026.75 19633640 21613430 23626950 25524780 27013070 28387500
3032.53 29318460 29537410 29240740 28195240 26546360 25446630
3038.32 24502810 23557590 24570020 33380720 36557960 26390830
3044.10 20921000 21250820 23687080 26674010 29237230 32432340
3049.89 33881410 33781490 33467150 32926660 32087260 30950480
3055.67 29282910 27071780 24774400 22486630 19966240 17604830
3061.46 15750760 13840840 11801990 10276330 9182834 8135444
3067.25 7402748 7066810 6698698 6299764 6003406 5794790
3073.03 5481654 5314046 5148576 4768034 4759744 5090246
3078.82 5096466 4880732 4729294 4907464 5517904 5938948
3084.60 6307226 7056656 7317208 7500400 8386492 8745170
3090.39 8688220 9711360 9981148 9702596 11180520 11587180
3096.17 10899870 12287880 13030360 12372720 14183490 15858580
3101.96 15174190 17182810 20328780 21452040 24172170 27123560
3107.74 27934080 30775690 35956700 38299100 40073330 43426790
3113.53 43808020 43009150 42250600 39783030 35808340 31429840
3119.31 27498480 24863030 26203170 37203520 36869120 20162840
3125.10 16364490 21458060 27219130 32830220 37424350 41163110
3130.89 43123980 43385880 43240630 42628550 39041180 36781660
3136.67 34902870 29794080 27037280 25415580 20501980 17858120
3142.46 17155010 13791940 12065160 12279110 9656692 8247490
3148.24 8954554 7329344 6526466 7524850 6552250 5865516
3154.03 6451640 5553612 5280270 5795262 4873078 4673326
3159.81 4939592 4302582 4296840 4183796 3479668 3581654
3165.60 3386118 2950860 3039346 2727892 2433322 2550056
3171.38 2214106 2010746 2091540 1777534 1699630 1737928
3177.17 1642094 1577330 1365242 1200160 1027418 972006
3182.95 908680 622324 581572 602362 489696 482348
3188.74 290104 130468 190386 169098 12988-81360
3194.53-38404-68262-161620-187564-118258-49134
3200.31-198210-346858-344836-332212-270424-274262
3206.10-366078-360798-338102-352626-446440-424358
3211.88-344326-369230-331846-302602-343726-419272
3217.67-378688-192598-242076-328424-226614-307842
3223.45-332994-183912-193676-445936-578706-458376
3229.24-174446 131298 16172-155006-194632-214484
3235.02-174012-277452-363440-460022-594050-566100
3240.81-444464-388748-513450-555832-552086-660662
3246.59-743516-671784-522258-575752-619904-514094
3252.38-505406-564968-609446-586402-544224-443194
3258.17-337086-325400-317036-394972-338188-203324
3263.95-234988-383386-528030-526182-413268-392230
3269.74-381634-283038-340470-410060-440082-411804
3275.52-383510-415950-351212-272662-242606-325464
3281.31-439908-397338-239088-154102-169876-263008
3287.09-334226-329194-280274-322056-358710-271418
3292.88-247574-286550-192010-45806-46404-17486
3298.66 44508-33354-54678-17156-148590-251578
3304.45-253228-191832-31060 86572 141446 141408
3310.23 251454 381022 395082 498942 602102 734782
3316.02 886230 997218 1064572 1160280 1221238 1119154
3321.80 1126908 1194896 1190142 1070496 1129344 1080864
3327.59 910778 900790 656978 686674 1194026 1485926
3333.38 1311080 1169836 1373558 1576334 1713054 1994534
3339.16 2153002 2196730 2189070 2106406 1940064 1735968
3344.95 1667158 1488740 1120024 790372 672214 652144
3350.73 651882 533762 321666 290508 314200 350182
3356.52 450682 665050 776372 682606 756414 791430
3362.30 626320 550304 533766 362652 277578 230954
3368.09 86276 154290 276944 206208 128302 199252
3373.87 99808 26112 67864-18620-17894-127148
3379.66-91924 80772 10620-85546-151774-156690
3385.44-176678-268008-401820-388248-354010-429016
3391.23-118354 60174-151674-157412-243028-325540
3397.02-335544-458444-487294-344150-149568-92962
3402.80-184032-294066-343536-452076-576146-299610
3408.59-116814-315740-380502-226206-144346-252280
3414.37-247092-289898-277888-211444-132914-84836
3420.16-39856-61018-122338-92710-146218-194840
3425.94-197666-159908-80618-121868-162952-26168
3431.73-6408-147872-207494-84594-134906-215974
3437.51 12452-338-145676-142462 50216 111396
3443.30-76236-200752-77678 106052-73368-43018
3449.08 84752 21634 60382 88512 100836 241406
3454.87 288336 303718 244408 36680-44310 27804
3460.66 83006 90586 14178-107196-174456-173868
3466.44-76900-134426 3108 176722 96380-18620
3472.23-103190-98544 30796 169392 98698 18378
3478.01-8554-22274-35472 41070 230786 259706
3483.80 98988 52628 81332 41668-13478 63372
3489.58 141658 121120 19086 148504 419326 455894
3495.37 358814 285112 351956 352604 323230 355140
3501.15 466584 774688 809360 434234 201660 214026
3506.94 303326 531446 600020 481358 371876 393886
3512.72 722814 754984 686732 865554 916300 931908
3518.51 797576 677414 756960 778354 807430 795342
3524.30 808554 886230 913814 811832 603890 495892
3530.08 484024 414658 596816 664812 351192 471146
3535.87 643658 502838 415262 468952 552850 553408
3541.65 702636 763814 803846 857394 853086 811464
3547.44 557984 401360 237636 365118 553678 367802
3553.22 144896 67584 144504 111292 49548 60174
3559.01 267396 229952 142036 389956 472442 545876
3564.79 1196448 1515480 1720842 1339532 547624 473282
3570.58 261974 215650 288838 257812 93426 154222
3576.36 227440 67716 275854 365354 181868 330530
3582.15 449502 371514 420482 1427920 1642924 1659832
3587.94 2018588 886196 315378 368580 834910 842758
3593.72 806272 1030958 712424 666170 704768 703172
3599.51 887234 717502 514382 548500 596868 521966
3605.29 1046918 1336418 1586946 2958034 1957148 911352
3611.08 2207432 2254526 1408984 1506466 1076850 1406142
3616.86 1933954 2503342 3171786 1804128 1006784 951394
3622.65 881538 936776 1356668 1498366 2755996 5452498
3628.43 6109528 3614884 1667504 1639374 2013546 2023512
3634.22 1588742 1546328 1622076 1718956 1608930 1559370
3640.00 1629250 1876674 1835466 1693894 1885100 2290146
3645.79 3731148 4156098 5628840 6460432 5125332 4285498
3651.57 2562166 2050888 2045370 3601416 5060988 3179076
3657.36 2092060 2130974 2087152 1996620 1782564 1635186
3663.15 1571540 1443864 1538352 1276274 2463604 3417396
3668.93 4923164 6686338 3353600 1647942 2860952 5410756
3674.72 7640260 4997510 1773924 1602226 1811194 1087936
3680.50 628090 619878 591398 487610 498220 460188
3686.29 2137132 6506306 4568938 1631466 2932174 1762194
3692.07 659814 618970 499034 439570 419676 346958
3697.86 396084 273350 804304 1849714 1143006 330062
3703.64 292606 221430 294986 254828 975302 2071316
3709.43 1245902 2698884 4394584 1572480 393266 428644
3715.21 91702 132756 434864 652092 264114 351892
3721.00 1192566 843478 346928 673440 1120278 1343420
3726.79 491052 84528 227542 454416 2932866 3240434
3732.57 1266422 2433904 3186830 3758208 2666740 1034294
3738.36 643674 537638 1153898 974534 2531818 9367462
3744.14 8804792 1986938 1034672 1745136 6103814 5819400
3749.93 2451582 6584932 5429528 844820 429010 720380
3755.71 1172992 495484 591626 1623324 1006836 21282
3761.50 49564 120058 161384 991460 899500 95606
3767.28 127554 1359316 1946366 438024-200222-184252
3773.07-202706-163460-90220 22208-41792 691706
3778.85 1061840 85418-153564-127286-79404 200596
3784.64 74480-175762-287442-190746-228226-220140
3790.43-127656-229532-188856-113232 332730 1494008
3796.21 1184232 418624 327162 1369918 5655522 5106806
3802.00 1219642 616334 304872 1512132 4101832 2567726
3807.78 151892 113068 27214 204652 207702 427096
3813.57 820240 5008940 5949606 1653116 875402 1314924
3819.35 3056894 4708486 2960618 979802 877872 903556
3825.14 1442532 1735758 1103262 959314 958758 2134286
3830.92 3012254 2035076 2096712 3625914 2857016 3677738
3836.71 8237514 5959528 2780866 3571888 3035566 2435974
3842.49 3032104 2454788 1488750 1466022 1612578 1567942
3848.28 2189758 2153838 4633736 7263268 7707860 12303410
3854.07 8168920 2715682 3320752 2831340 2555842 2219060
3859.85 2536762 3097468 2350824 2030620 3611432 3015708
3865.64 1138728 1043726 1864210 4544624 4431180 1458630
3871.42 606104 1245212 1888002 1015396 343796 415548
3877.21 499904 1069922 2294470 1985328 822700 913856
3882.99 789482 2420612 4028344 1886522 712280 838024
3888.78 698348 2390794 2925998 1249344 966570 998956
3894.56 899762 1007598 1004874 1936584 3083264 2144826
3900.35 2985234 3265218 2602266 3649610 2511112 1552782
3906.13 1321646 1213112 1226522 917548 814660 725742
3911.92 715654 813454 911654 1231196 1892020 1903972
3917.70 1430284 1826792 1775802 1175126 1165806 1389416
3923.49 1633714 1570076 1029240 782698 868884 988186
3929.28 901880 816710 1207096 1106000 763424 568766
3935.06 340570 412716 607798 450616 419612 472500
3940.85 614540 923008 716170 558432 466424 506698
3946.63 712710 647676 830874 738172 487446 515510
3952.42 453250 530506 545640 539728 546320 495592
3958.20 539192 603894 760020 800498 538482 454032
3963.99 577828 575492 640434 844254 956550 978430
3969.77 964036 1024106 1106560 1101748 1333338
##END=
