##TITLE=2-Methylpentane
##JCAMP-DX=4.24
$$ By DXEDIT 1.05 (RS McDonald)
##DATA TYPE=INFRARED SPECTRUM
##CLASS=COBLENTZ III
##ORIGIN=DOW CHEMICAL COMPANY
##OWNER=COPYRIGHT (C) 1988 by COBLENTZ SOCIETY INC.
Collection (C) 2018 copyright by the U.S. Secretary of Commerce
on behalf of the United States of America. All rights reserved.
##DATE=1960/12/30
##CAS REGISTRY NO=107-83-5
##MOLFORM=C6 H14
##SOURCE REFERENCE=COBLENTZ NO. 06555
##$NIST SOURCE=COBLENTZ
##$NIST IMAGE=cob6555
##SPECTROMETER/DATA SYSTEM=DOW KBr FOREPRISM-GRATING
##INSTRUMENT PARAMETERS=BLAZED AT 3.5, 12.0, 20.0 MICRON AND CHANGED AT 5.0, 7.5, 14.9 MICRON
##STATE=LIQUID (NEAT)
##PATH LENGTH=0.011 CM
##SAMPLING PROCEDURE=TRANSMISSION
##RESOLUTION=2
##DATA PROCESSING=DIGITIZED BY COBLENTZ SOCIETY (BATCH I) FROM HARD COPY
##XUNITS=1/CM
##YUNITS=TRANSMITTANCE
##XFACTOR=1
##YFACTOR=1
##DELTAX=1
##FIRSTX=3790
##LASTX=443
##FIRSTY=0.8318
##MAXX=3790
##MINX=443
##MAXY=0.9004
##MINY=0.004
##NPOINTS=3348
##XYDATA=(X++(Y..Y))
3790.000000 0.8318 0.8316 0.8314 0.8308 0.8303
3785.000000 0.8298 0.8293 0.8287 0.8282 0.8277
3780.000000 0.8271 0.8266 0.8261 0.8252 0.8243
3775.000000 0.8233 0.8224 0.8217 0.8210 0.8203
3770.000000 0.8197 0.8194 0.8191 0.8191 0.8191
3765.000000 0.8191 0.8192 0.8193 0.8195 0.8199
3760.000000 0.8204 0.8208 0.8213 0.8217 0.8221
3755.000000 0.8225 0.8230 0.8235 0.8240 0.8247
3750.000000 0.8254 0.8261 0.8268 0.8275 0.8282
3745.000000 0.8289 0.8296 0.8303 0.8310 0.8317
3740.000000 0.8324 0.8331 0.8338 0.8345 0.8352
3735.000000 0.8359 0.8367 0.8374 0.8381 0.8388
3730.000000 0.8395 0.8402 0.8410 0.8418 0.8425
3725.000000 0.8434 0.8442 0.8449 0.8457 0.8465
3720.000000 0.8473 0.8480 0.8488 0.8496 0.8504
3715.000000 0.8512 0.8520 0.8527 0.8535 0.8543
3710.000000 0.8551 0.8559 0.8567 0.8574 0.8581
3705.000000 0.8587 0.8594 0.8601 0.8608 0.8614
3700.000000 0.8620 0.8617 0.8614 0.8610 0.8606
3695.000000 0.8600 0.8595 0.8589 0.8584 0.8578
3690.000000 0.8573 0.8567 0.8562 0.8558 0.8555
3685.000000 0.8551 0.8547 0.8547 0.8547 0.8553
3680.000000 0.8560 0.8566 0.8571 0.8578 0.8586
3675.000000 0.8593 0.8601 0.8608 0.8615 0.8621
3670.000000 0.8630 0.8637 0.8645 0.8652 0.8659
3665.000000 0.8665 0.8671 0.8675 0.8681 0.8686
3660.000000 0.8691 0.8696 0.8701 0.8706 0.8711
3655.000000 0.8710 0.8709 0.8706 0.8703 0.8700
3650.000000 0.8697 0.8694 0.8691 0.8687 0.8684
3645.000000 0.8681 0.8678 0.8675 0.8675 0.8673
3640.000000 0.8671 0.8670 0.8668 0.8667 0.8666
3635.000000 0.8664 0.8663 0.8662 0.8661 0.8659
3630.000000 0.8658 0.8657 0.8656 0.8655 0.8654
3625.000000 0.8653 0.8652 0.8651 0.8650 0.8649
3620.000000 0.8648 0.8648 0.8648 0.8649 0.8651
3615.000000 0.8652 0.8653 0.8654 0.8656 0.8657
3610.000000 0.8658 0.8659 0.8661 0.8662 0.8663
3605.000000 0.8665 0.8668 0.8671 0.8677 0.8681
3600.000000 0.8686 0.8690 0.8695 0.8699 0.8704
3595.000000 0.8708 0.8713 0.8717 0.8721 0.8728
3590.000000 0.8736 0.8743 0.8750 0.8757 0.8765
3585.000000 0.8771 0.8780 0.8786 0.8792 0.8798
3580.000000 0.8805 0.8811 0.8818 0.8820 0.8821
3575.000000 0.8821 0.8823 0.8823 0.8824 0.8824
3570.000000 0.8824 0.8824 0.8825 0.8825 0.8825
3565.000000 0.8825 0.8827 0.8827 0.8828 0.8828
3560.000000 0.8828 0.8828 0.8828 0.8828 0.8830
3555.000000 0.8832 0.8834 0.8836 0.8838 0.8839
3550.000000 0.8841 0.8843 0.8845 0.8847 0.8849
3545.000000 0.8850 0.8852 0.8854 0.8847 0.8857
3540.000000 0.8859 0.8859 0.8860 0.8860 0.8861
3535.000000 0.8861 0.8862 0.8862 0.8863 0.8863
3530.000000 0.8864 0.8865 0.8866 0.8866 0.8867
3525.000000 0.8867 0.8868 0.8868 0.8868 0.8868
3520.000000 0.8868 0.8868 0.8868 0.8866 0.8865
3515.000000 0.8864 0.8863 0.8862 0.8861 0.8859
3510.000000 0.8858 0.8857 0.8856 0.8855 0.8854
3505.000000 0.8852 0.8851 0.8850 0.8849 0.8847
3500.000000 0.8845 0.8843 0.8842 0.8840 0.8839
3495.000000 0.8837 0.8836 0.8834 0.8833 0.8831
3490.000000 0.8830 0.8828 0.8825 0.8824 0.8823
3485.000000 0.8821 0.8820 0.8818 0.8817 0.8815
3480.000000 0.8814 0.8810 0.8807 0.8804 0.8801
3475.000000 0.8797 0.8794 0.8790 0.8787 0.8784
3470.000000 0.8781 0.8777 0.8774 0.8770 0.8767
3465.000000 0.8764 0.8761 0.8757 0.8754 0.8751
3460.000000 0.8748 0.8745 0.8742 0.8739 0.8736
3455.000000 0.8733 0.8730 0.8727 0.8724 0.8721
3450.000000 0.8718 0.8715 0.8712 0.8709 0.8706
3445.000000 0.8703 0.8700 0.8697 0.8694 0.8690
3440.000000 0.8686 0.8681 0.8677 0.8671 0.8667
3435.000000 0.8662 0.8658 0.8653 0.8649 0.8644
3430.000000 0.8640 0.8634 0.8628 0.8617 0.8607
3425.000000 0.8596 0.8586 0.8570 0.8554 0.8531
3420.000000 0.8509 0.8482 0.8456 0.8396 0.8337
3415.000000 0.8302 0.8268 0.8233 0.8198 0.8161
3410.000000 0.8126 0.8094 0.8061 0.8051 0.8042
3405.000000 0.8033 0.8024 0.8015 0.8008 0.8001
3400.000000 0.7995 0.7990 0.7986 0.7984 0.7983
3395.000000 0.7983 0.7983 0.7983 0.7984 0.7985
3390.000000 0.7987 0.7993 0.8000 0.8008 0.8018
3385.000000 0.8028 0.8040 0.8050 0.8061 0.8069
3380.000000 0.8078 0.8088 0.8097 0.8106 0.8115
3375.000000 0.8122 0.8132 0.8137 0.8143 0.8148
3370.000000 0.8153 0.8158 0.8164 0.8165 0.8165
3365.000000 0.8165 0.8165 0.8165 0.8151 0.8161
3360.000000 0.8160 0.8156 0.8151 0.8148 0.8145
3355.000000 0.8134 0.8124 0.8108 0.8095 0.8078
3350.000000 0.8061 0.8044 0.8025 0.7981 0.7936
3345.000000 0.7915 0.7894 0.7882 0.7869 0.7860
3340.000000 0.7851 0.7846 0.7832 0.7839 0.7838
3335.000000 0.7836 0.7835 0.7843 0.7851 0.7868
3330.000000 0.7885 0.7908 0.7932 0.7948 0.7965
3325.000000 0.7980 0.7995 0.8006 0.8017 0.8028
3320.000000 0.8040 0.8049 0.8058 0.8067 0.8075
3315.000000 0.8081 0.8087 0.8090 0.8094 0.8095
3310.000000 0.8097 0.8098 0.8131 0.8100 0.8101
3305.000000 0.8101 0.8101 0.8101 0.8101 0.8098
3300.000000 0.8095 0.8080 0.8065 0.8051 0.8037
3295.000000 0.8021 0.8008 0.7991 0.7975 0.7960
3290.000000 0.7946 0.7935 0.7924 0.7915 0.7907
3285.000000 0.7901 0.7895 0.7888 0.7882 0.7880
3280.000000 0.7880 0.7878 0.7878 0.7878 0.7878
3275.000000 0.7881 0.7883 0.7885 0.7887 0.7906
3270.000000 0.7925 0.7935 0.7945 0.7954 0.7964
3265.000000 0.7972 0.7982 0.7991 0.8001 0.8008
3260.000000 0.8017 0.8025 0.8033 0.8037 0.8041
3255.000000 0.8044 0.8047 0.8050 0.8053 0.8054
3250.000000 0.8055 0.8056 0.8057 0.8058 0.8058
3245.000000 0.8058 0.8060 0.8056 0.8053 0.8047
3240.000000 0.8042 0.8035 0.8028 0.8010 0.7992
3235.000000 0.7968 0.7947 0.7918 0.7891 0.7864
3230.000000 0.7838 0.7811 0.7786 0.7760 0.7735
3225.000000 0.7708 0.7683 0.7656 0.7628 0.7601
3220.000000 0.7575 0.7548 0.7521 0.7495 0.7468
3215.000000 0.7433 0.7399 0.7358 0.7319 0.7265
3210.000000 0.7211 0.7130 0.7050 0.6911 0.6772
3205.000000 0.6711 0.6649 0.6587 0.6525 0.6462
3200.000000 0.6401 0.6338 0.6276 0.6224 0.6173
3195.000000 0.6136 0.6100 0.6065 0.6031 0.6001
3190.000000 0.5972 0.5946 0.5920 0.5898 0.5876
3185.000000 0.5859 0.5843 0.5829 0.5816 0.5802
3180.000000 0.5789 0.5780 0.5772 0.5762 0.5755
3175.000000 0.5752 0.5749 0.5748 0.5764 0.5746
3170.000000 0.5746 0.5748 0.5750 0.5753 0.5757
3165.000000 0.5760 0.5765 0.5770 0.5775 0.5787
3160.000000 0.5800 0.5812 0.5825 0.5838 0.5852
3155.000000 0.5868 0.5884 0.5900 0.5917 0.5933
3150.000000 0.5949 0.5966 0.5983 0.6004 0.6026
3145.000000 0.6047 0.6069 0.6090 0.6112 0.6134
3140.000000 0.6157 0.6179 0.6202 0.6224 0.6247
3135.000000 0.6270 0.6293 0.6315 0.6338 0.6358
3130.000000 0.6379 0.6392 0.6405 0.6418 0.6431
3125.000000 0.6444 0.6458 0.6468 0.6481 0.6492
3120.000000 0.6504 0.6515 0.6526 0.6539 0.6551
3115.000000 0.6562 0.6575 0.6585 0.6594 0.6601
3110.000000 0.6608 0.6612 0.6617 0.6619 0.6624
3105.000000 0.6626 0.6631 0.6631 0.6631 0.6630
3100.000000 0.6626 0.6617 0.6608 0.6588 0.6568
3095.000000 0.6544 0.6521 0.6488 0.6456 0.6418
3090.000000 0.6383 0.6351 0.6319 0.6290 0.6260
3085.000000 0.6232 0.6203 0.6174 0.6145 0.6110
3080.000000 0.6078 0.6043 0.6009 0.5974 0.5940
3075.000000 0.5905 0.5871 0.5833 0.5795 0.5752
3070.000000 0.5710 0.5668 0.5626 0.5584 0.5542
3065.000000 0.5496 0.5451 0.5405 0.5359 0.5312
3060.000000 0.5267 0.5224 0.5182 0.5143 0.5104
3055.000000 0.5065 0.5026 0.4986 0.4947 0.4908
3050.000000 0.4869 0.4827 0.4785 0.4743 0.4701
3045.000000 0.4659 0.4617 0.4570 0.4523 0.4447
3040.000000 0.4371 0.4295 0.4219 0.4084 0.3950
3035.000000 0.3814 0.3679 0.3580 0.3482 0.3384
3030.000000 0.3287 0.3225 0.3164 0.3105 0.3047
3025.000000 0.2985 0.2926 0.2844 0.2762 0.2679
3020.000000 0.2597 0.2532 0.2468 0.2412 0.2357
3015.000000 0.2302 0.2247 0.2156 0.2065 0.1954
3010.000000 0.1845 0.1784 0.1725 0.1664 0.1604
3005.000000 0.1538 0.1473 0.1406 0.1339 0.1267
3000.000000 0.1196 0.1114 0.1032 0.0926 0.0822
2995.000000 0.0715 0.0607 0.0527 0.0447 0.0401
2990.000000 0.0356 0.0310 0.0265 0.0228 0.0191
2985.000000 0.0173 0.0155 0.0144 0.0133 0.0123
2980.000000 0.0113 0.0105 0.0100 0.0094 0.0088
2975.000000 0.0081 0.0075 0.0070 0.0065 0.0061
2970.000000 0.0058 0.0055 0.0052 0.0049 0.0046
2965.000000 0.0044 0.0042 0.0042 0.0042 0.0042
2960.000000 0.0043 0.0043 0.0043 0.0043 0.0044
2955.000000 0.0044 0.0045 0.0045 0.0045 0.0045
2950.000000 0.0046 0.0046 0.0047 0.0047 0.0047
2945.000000 0.0047 0.0048 0.0048 0.0048 0.0048
2940.000000 0.0049 0.0049 0.0050 0.0050 0.0050
2935.000000 0.0050 0.0051 0.0051 0.0051 0.0051
2930.000000 0.0052 0.0052 0.0052 0.0052 0.0052
2925.000000 0.0052 0.0054 0.0054 0.0055 0.0055
2920.000000 0.0055 0.0055 0.0056 0.0056 0.0056
2915.000000 0.0056 0.0057 0.0057 0.0058 0.0058
2910.000000 0.0058 0.0058 0.0059 0.0059 0.0059
2905.000000 0.0059 0.0060 0.0060 0.0061 0.0061
2900.000000 0.0061 0.0061 0.0062 0.0062 0.0063
2895.000000 0.0063 0.0063 0.0063 0.0064 0.0064
2890.000000 0.0064 0.0064 0.0065 0.0065 0.0066
2885.000000 0.0066 0.0066 0.0066 0.0067 0.0067
2880.000000 0.0067 0.0067 0.0068 0.0068 0.0069
2875.000000 0.0069 0.0069 0.0069 0.0070 0.0070
2870.000000 0.0071 0.0071 0.0071 0.0071 0.0072
2865.000000 0.0072 0.0072 0.0072 0.0073 0.0073
2860.000000 0.0074 0.0074 0.0074 0.0074 0.0075
2855.000000 0.0075 0.0076 0.0076 0.0076 0.0076
2850.000000 0.0077 0.0077 0.0077 0.0077 0.0078
2845.000000 0.0078 0.0079 0.0079 0.0079 0.0079
2840.000000 0.0080 0.0080 0.0080 0.0080 0.0081
2835.000000 0.0081 0.0082 0.0098 0.0115 0.0165
2830.000000 0.0214 0.0256 0.0297 0.0332 0.0366
2825.000000 0.0399 0.0431 0.0462 0.0494 0.0523
2820.000000 0.0553 0.0582 0.0612 0.0658 0.0704
2815.000000 0.0755 0.0806 0.0867 0.0928 0.1027
2810.000000 0.1127 0.1331 0.1536 0.1622 0.1709
2805.000000 0.1800 0.1892 0.1992 0.2093 0.2141
2800.000000 0.2189 0.2230 0.2272 0.2313 0.2355
2795.000000 0.2414 0.2474 0.2541 0.2609 0.2673
2790.000000 0.2738 0.2798 0.2859 0.2919 0.2979
2785.000000 0.3019 0.3060 0.3096 0.3132 0.3173
2780.000000 0.3214 0.3303 0.3391 0.3478 0.3566
2775.000000 0.3654 0.3742 0.3829 0.3916 0.4005
2770.000000 0.4093 0.4180 0.4268 0.4356 0.4444
2765.000000 0.4498 0.4553 0.4556 0.4559 0.4562
2760.000000 0.4566 0.4570 0.4575 0.4580 0.4586
2755.000000 0.4617 0.4649 0.4716 0.4784 0.4875
2750.000000 0.4967 0.5007 0.5048 0.5073 0.5099
2745.000000 0.5105 0.5110 0.5114 0.5117 0.5119
2740.000000 0.5134 0.5124 0.5126 0.4990 0.4854
2735.000000 0.4717 0.4581 0.4445 0.4309 0.4173
2730.000000 0.4037 0.3900 0.3764 0.3718 0.3672
2725.000000 0.3664 0.3658 0.3656 0.3655 0.3655
2720.000000 0.3655 0.3660 0.3668 0.3674 0.3680
2715.000000 0.3727 0.3774 0.3845 0.3916 0.3988
2710.000000 0.4059 0.4142 0.4224 0.4369 0.4515
2705.000000 0.4798 0.5081 0.5162 0.5245 0.5326
2700.000000 0.5408 0.5505 0.5602 0.5670 0.5738
2695.000000 0.5777 0.5816 0.5855 0.5894 0.5932
2690.000000 0.5971 0.6009 0.6048 0.6086 0.6125
2685.000000 0.6160 0.6196 0.6224 0.6252 0.6280
2680.000000 0.6308 0.6334 0.6360 0.6386 0.6411
2675.000000 0.6434 0.6456 0.6475 0.6494 0.6506
2670.000000 0.6518 0.6526 0.6536 0.6545 0.6554
2665.000000 0.6555 0.6557 0.6557 0.6558 0.6558
2660.000000 0.6558 0.6558 0.6560 0.6556 0.6553
2655.000000 0.6550 0.6547 0.6543 0.6540 0.6537
2650.000000 0.6534 0.6526 0.6521 0.6511 0.6504
2645.000000 0.6475 0.6446 0.6380 0.6315 0.6250
2640.000000 0.6185 0.6092 0.5999 0.5886 0.5773
2635.000000 0.5724 0.5675 0.5639 0.5603 0.5579
2630.000000 0.5556 0.5542 0.5529 0.5519 0.5509
2625.000000 0.5506 0.5504 0.5502 0.5500 0.5499
2620.000000 0.5499 0.5499 0.5500 0.5509 0.5519
2615.000000 0.5542 0.5565 0.5591 0.5618 0.5644
2610.000000 0.5671 0.5703 0.5736 0.5771 0.5807
2605.000000 0.5842 0.5878 0.5914 0.5950 0.5994
2600.000000 0.6039 0.6084 0.6129 0.6174 0.6219
2595.000000 0.6260 0.6302 0.6332 0.6362 0.6393
2590.000000 0.6424 0.6454 0.6485 0.6515 0.6545
2585.000000 0.6575 0.6608 0.6641 0.6674 0.6707
2580.000000 0.6740 0.6772 0.6806 0.6841 0.6876
2575.000000 0.6915 0.6956 0.6990 0.7025 0.7057
2570.000000 0.7089 0.7121 0.7153 0.7184 0.7215
2565.000000 0.7244 0.7274 0.7303 0.7333 0.7361
2560.000000 0.7391 0.7418 0.7448 0.7475 0.7504
2555.000000 0.7532 0.7561 0.7598 0.7635 0.7678
2550.000000 0.7721 0.7774 0.7826 0.7878 0.7931
2545.000000 0.7971 0.8011 0.8068 0.8126 0.8130
2540.000000 0.8133 0.8136 0.8139 0.8140 0.8142
2535.000000 0.8143 0.8144 0.8145 0.8147 0.8148
2530.000000 0.8149 0.8149 0.8148 0.8146 0.8144
2525.000000 0.8141 0.8139 0.8137 0.8135 0.8132
2520.000000 0.8130 0.8128 0.8125 0.8121 0.8118
2515.000000 0.8101 0.8085 0.8071 0.8060 0.8048
2510.000000 0.8037 0.8035 0.8033 0.8031 0.8030
2505.000000 0.8028 0.8028 0.8026 0.8025 0.8025
2500.000000 0.8025 0.8025 0.8028 0.8028 0.8031
2495.000000 0.8032 0.8034 0.8035 0.8036 0.8039
2490.000000 0.8042 0.8064 0.8087 0.8112 0.8140
2485.000000 0.8153 0.8165 0.8172 0.8180 0.8187
2480.000000 0.8194 0.8201 0.8208 0.8215 0.8221
2475.000000 0.8228 0.8235 0.8241 0.8248 0.8254
2470.000000 0.8260 0.8266 0.8271 0.8278 0.8284
2465.000000 0.8290 0.8297 0.8303 0.8309 0.8313
2460.000000 0.8317 0.8321 0.8325 0.8330 0.8334
2455.000000 0.8338 0.8342 0.8346 0.8351 0.8356
2450.000000 0.8361 0.8366 0.8371 0.8375 0.8381
2445.000000 0.8386 0.8391 0.8394 0.8398 0.8401
2440.000000 0.8404 0.8407 0.8410 0.8412 0.8414
2435.000000 0.8415 0.8417 0.8418 0.8420 0.8421
2430.000000 0.8424 0.8425 0.8425 0.8424 0.8420
2425.000000 0.8416 0.8413 0.8390 0.8367 0.8334
2420.000000 0.8301 0.8254 0.8207 0.8160 0.8112
2415.000000 0.8071 0.8030 0.8007 0.7985 0.7962
2410.000000 0.7941 0.7924 0.7907 0.7890 0.7874
2405.000000 0.7865 0.7856 0.7857 0.7858 0.7858
2400.000000 0.7858 0.7858 0.7858 0.7858 0.7857
2395.000000 0.7856 0.7855 0.7855 0.7855 0.7862
2390.000000 0.7871 0.7897 0.7921 0.7941 0.7960
2385.000000 0.7984 0.8008 0.8034 0.8060 0.8078
2380.000000 0.8097 0.8111 0.8126 0.8138 0.8150
2375.000000 0.8161 0.8172 0.8184 0.8196 0.8203
2370.000000 0.8211 0.8216 0.8221 0.8228 0.8234
2365.000000 0.8237 0.8241 0.8242 0.8244 0.8245
2360.000000 0.8246 0.8247 0.8249 0.8250 0.8251
2355.000000 0.8247 0.8243 0.8239 0.8236 0.8232
2350.000000 0.8228 0.8224 0.8220 0.8211 0.8203
2345.000000 0.8193 0.8184 0.8174 0.8164 0.8153
2340.000000 0.8142 0.8128 0.8117 0.8101 0.8086
2335.000000 0.8069 0.8054 0.8037 0.8021 0.8006
2330.000000 0.7992 0.7987 0.7983 0.7978 0.7974
2325.000000 0.7969 0.7967 0.7971 0.7978 0.7983
2320.000000 0.7988 0.7993 0.7998 0.8003 0.8008
2315.000000 0.8014 0.8018 0.8025 0.8032 0.8045
2310.000000 0.8058 0.8072 0.8087 0.8101 0.8118
2305.000000 0.8139 0.8160 0.8180 0.8201 0.8225
2300.000000 0.8250 0.8274 0.8299 0.8323 0.8347
2295.000000 0.8370 0.8393 0.8408 0.8423 0.8428
2290.000000 0.8434 0.8420 0.8406 0.8392 0.8378
2285.000000 0.8358 0.8339 0.8324 0.8310 0.8300
2280.000000 0.8290 0.8290 0.8291 0.8293 0.8296
2275.000000 0.8298 0.8301 0.8303 0.8306 0.8308
2270.000000 0.8311 0.8315 0.8318 0.8323 0.8328
2265.000000 0.8332 0.8336 0.8340 0.8345 0.8351
2260.000000 0.8357 0.8364 0.8371 0.8380 0.8388
2255.000000 0.8395 0.8403 0.8411 0.8418 0.8427
2250.000000 0.8435 0.8444 0.8454 0.8464 0.8474
2245.000000 0.8484 0.8494 0.8499 0.8504 0.8505
2240.000000 0.8506 0.8507 0.8508 0.8509 0.8511
2235.000000 0.8512 0.8513 0.8514 0.8515 0.8516
2230.000000 0.8518 0.8518 0.8521 0.8521 0.8524
2225.000000 0.8525 0.8525 0.8527 0.8528 0.8530
2220.000000 0.8532 0.8533 0.8535 0.8536 0.8538
2215.000000 0.8539 0.8541 0.8542 0.8543 0.8544
2210.000000 0.8546 0.8547 0.8549 0.8550 0.8552
2205.000000 0.8552 0.8552 0.8551 0.8550 0.8530
2200.000000 0.8511 0.8487 0.8464 0.8443 0.8421
2195.000000 0.8404 0.8387 0.8377 0.8367 0.8357
2190.000000 0.8348 0.8345 0.8345 0.8345 0.8348
2185.000000 0.8351 0.8354 0.8356 0.8358 0.8360
2180.000000 0.8362 0.8362 0.8363 0.8363 0.8363
2175.000000 0.8363 0.8363 0.8364 0.8368 0.8371
2170.000000 0.8375 0.8388 0.8401 0.8415 0.8428
2165.000000 0.8443 0.8458 0.8473 0.8488 0.8503
2160.000000 0.8518 0.8535 0.8552 0.8559 0.8566
2155.000000 0.8568 0.8573 0.8575 0.8580 0.8582
2150.000000 0.8585 0.8588 0.8591 0.8593 0.8596
2145.000000 0.8598 0.8601 0.8604 0.8608 0.8611
2140.000000 0.8615 0.8618 0.8623 0.8625 0.8630
2135.000000 0.8633 0.8637 0.8640 0.8644 0.8647
2130.000000 0.8650 0.8652 0.8655 0.8658 0.8661
2125.000000 0.8664 0.8667 0.8670 0.8674 0.8678
2120.000000 0.8682 0.8685 0.8689 0.8693 0.8697
2115.000000 0.8700 0.8704 0.8708 0.8712 0.8715
2110.000000 0.8718 0.8721 0.8724 0.8725 0.8727
2105.000000 0.8728 0.8730 0.8731 0.8733 0.8734
2100.000000 0.8736 0.8738 0.8740 0.8741 0.8743
2095.000000 0.8744 0.8746 0.8748 0.8750 0.8751
2090.000000 0.8753 0.8755 0.8757 0.8759 0.8761
2085.000000 0.8762 0.8764 0.8766 0.8768 0.8770
2080.000000 0.8771 0.8774 0.8777 0.8778 0.8781
2075.000000 0.8783 0.8785 0.8787 0.8790 0.8792
2070.000000 0.8794 0.8795 0.8797 0.8798 0.8800
2065.000000 0.8801 0.8803 0.8804 0.8806 0.8807
2060.000000 0.8809 0.8810 0.8812 0.8813 0.8815
2055.000000 0.8816 0.8818 0.8818 0.8821 0.8821
2050.000000 0.8824 0.8818 0.8813 0.8794 0.8775
2045.000000 0.8765 0.8755 0.8745 0.8736 0.8728
2040.000000 0.8720 0.8718 0.8717 0.8716 0.8716
2035.000000 0.8715 0.8715 0.8715 0.8716 0.8718
2030.000000 0.8720 0.8721 0.8724 0.8728 0.8734
2025.000000 0.8745 0.8757 0.8768 0.8781 0.8793
2020.000000 0.8806 0.8818 0.8831 0.8842 0.8853
2015.000000 0.8861 0.8870 0.8877 0.8885 0.8887
2010.000000 0.8890 0.8892 0.8895 0.8897 0.8900
2005.000000 0.8902 0.8905 0.8907 0.8910 0.8914
2000.000000 0.8918 0.8924 0.8928 0.8932 0.8932
1995.000000 0.8932 0.8933 0.8933 0.8931 0.8928
1990.000000 0.8923 0.8904 0.8886 0.8867 0.8852
1985.000000 0.8840 0.8827 0.8816 0.8805 0.8806
1980.000000 0.8807 0.8810 0.8813 0.8817 0.8820
1975.000000 0.8824 0.8828 0.8837 0.8844 0.8852
1970.000000 0.8860 0.8865 0.8870 0.8875 0.8880
1965.000000 0.8885 0.8890 0.8893 0.8895 0.8897
1960.000000 0.8898 0.8900 0.8901 0.8903 0.8904
1955.000000 0.8905 0.8906 0.8907 0.8909 0.8915
1950.000000 0.8921 0.8927 0.8930 0.8932 0.8934
1945.000000 0.8936 0.8939 0.8941 0.8942 0.8943
1940.000000 0.8944 0.8944 0.8945 0.8945 0.8945
1935.000000 0.8944 0.8942 0.8941 0.8939 0.8938
1930.000000 0.8936 0.8935 0.8933 0.8930 0.8927
1925.000000 0.8924 0.8918 0.8913 0.8906 0.8883
1920.000000 0.8854 0.8820 0.8793 0.8770 0.8758
1915.000000 0.8747 0.8738 0.8732 0.8725 0.8720
1910.000000 0.8716 0.8711 0.8711 0.8711 0.8714
1905.000000 0.8716 0.8718 0.8739 0.8766 0.8775
1900.000000 0.8785 0.8795 0.8804 0.8813 0.8818
1895.000000 0.8821 0.8825 0.8828 0.8833 0.8837
1890.000000 0.8840 0.8841 0.8842 0.8843 0.8844
1885.000000 0.8845 0.8846 0.8847 0.8848 0.8849
1880.000000 0.8851 0.8852 0.8852 0.8853 0.8854
1875.000000 0.8855 0.8856 0.8857 0.8858 0.8859
1870.000000 0.8860 0.8861 0.8862 0.8863 0.8863
1865.000000 0.8863 0.8864 0.8864 0.8865 0.8865
1860.000000 0.8865 0.8865 0.8864 0.8863 0.8863
1855.000000 0.8862 0.8862 0.8861 0.8860 0.8857
1850.000000 0.8853 0.8850 0.8846 0.8843 0.8834
1845.000000 0.8824 0.8814 0.8804 0.8794 0.8784
1840.000000 0.8778 0.8774 0.8770 0.8765 0.8760
1835.000000 0.8760 0.8759 0.8759 0.8760 0.8760
1830.000000 0.8760 0.8761 0.8762 0.8764 0.8766
1825.000000 0.8768 0.8771 0.8774 0.8775 0.8778
1820.000000 0.8781 0.8782 0.8784 0.8785 0.8786
1815.000000 0.8788 0.8789 0.8790 0.8792 0.8794
1810.000000 0.8796 0.8798 0.8801 0.8803 0.8805
1805.000000 0.8807 0.8809 0.8812 0.8814 0.8816
1800.000000 0.8818 0.8820 0.8821 0.8824 0.8825
1795.000000 0.8827 0.8828 0.8825 0.8818 0.8801
1790.000000 0.8783 0.8766 0.8751 0.8735 0.8720
1785.000000 0.8705 0.8697 0.8688 0.8680 0.8674
1780.000000 0.8668 0.8664 0.8659 0.8654 0.8650
1775.000000 0.8645 0.8641 0.8637 0.8632 0.8628
1770.000000 0.8628 0.8627 0.8628 0.8628 0.8628
1765.000000 0.8630 0.8631 0.8632 0.8633 0.8634
1760.000000 0.8635 0.8637 0.8638 0.8639 0.8640
1755.000000 0.8641 0.8641 0.8640 0.8638 0.8637
1750.000000 0.8635 0.8630 0.8624 0.8618 0.8613
1745.000000 0.8608 0.8602 0.8597 0.8591 0.8586
1740.000000 0.8581 0.8575 0.8570 0.8562 0.8555
1735.000000 0.8547 0.8530 0.8512 0.8500 0.8487
1730.000000 0.8475 0.8462 0.8449 0.8434 0.8418
1725.000000 0.8398 0.8375 0.8353 0.8334 0.8317
1720.000000 0.8301 0.8284 0.8267 0.8249 0.8231
1715.000000 0.8214 0.8198 0.8189 0.8178 0.8168
1710.000000 0.8157 0.8145 0.8133 0.8121 0.8108
1705.000000 0.8101 0.8095 0.8088 0.8089 0.8103
1700.000000 0.8118 0.8124 0.8128 0.8132 0.8132
1695.000000 0.8128 0.8122 0.8118 0.8112 0.8108
1690.000000 0.8101 0.8095 0.8087 0.8078 0.8071
1685.000000 0.8064 0.8056 0.8048 0.8042 0.8035
1680.000000 0.7996 0.8025 0.8025 0.8025 0.8025
1675.000000 0.8025 0.8025 0.8024 0.8024 0.8024
1670.000000 0.8024 0.8019 0.8017 0.8014 0.8010
1665.000000 0.8007 0.8004 0.8000 0.7997 0.7995
1660.000000 0.7994 0.7993 0.7992 0.7991 0.7989
1655.000000 0.7987 0.7983 0.7980 0.7975 0.7972
1650.000000 0.7968 0.7965 0.7964 0.7961 0.7958
1645.000000 0.7957 0.7955 0.7953 0.7951 0.7965
1640.000000 0.7978 0.7989 0.7998 0.8008 0.8017
1635.000000 0.8026 0.8036 0.8045 0.8051 0.8058
1630.000000 0.8065 0.8071 0.8078 0.8085 0.8092
1625.000000 0.8098 0.8105 0.8110 0.8112 0.8115
1620.000000 0.8118 0.8121 0.8124 0.8128 0.8131
1615.000000 0.8134 0.8137 0.8139 0.8139 0.8139
1610.000000 0.8139 0.8139 0.8139 0.8138 0.8136
1605.000000 0.8125 0.8115 0.8106 0.8096 0.8086
1600.000000 0.8075 0.8065 0.8056 0.8046 0.8037
1595.000000 0.8026 0.8015 0.8006 0.7996 0.7985
1590.000000 0.7975 0.7964 0.7954 0.7944 0.7933
1585.000000 0.7924 0.7915 0.7907 0.7899 0.7890
1580.000000 0.7882 0.7874 0.7865 0.7857 0.7849
1575.000000 0.7840 0.7832 0.7824 0.7825 0.7825
1570.000000 0.7826 0.7828 0.7828 0.7826 0.7821
1565.000000 0.7811 0.7800 0.7787 0.7778 0.7768
1560.000000 0.7758 0.7741 0.7725 0.7707 0.7687
1555.000000 0.7667 0.7647 0.7628 0.7611 0.7593
1550.000000 0.7575 0.7558 0.7544 0.7528 0.7511
1545.000000 0.7494 0.7476 0.7461 0.7439 0.7414
1540.000000 0.7388 0.7355 0.7315 0.7276 0.7233
1535.000000 0.7187 0.7135 0.7062 0.6991 0.6925
1530.000000 0.6864 0.6800 0.6695 0.6555 0.6327
1525.000000 0.6244 0.6244 0.6245 0.6245 0.6236
1520.000000 0.6220 0.6182 0.6131 0.6079 0.6023
1515.000000 0.5953 0.5883 0.5808 0.5728 0.5648
1510.000000 0.5551 0.5416 0.5262 0.5065 0.4879
1505.000000 0.4704 0.4552 0.4440 0.4358 0.4277
1500.000000 0.4192 0.3960 0.3832 0.3662 0.3450
1495.000000 0.3238 0.3026 0.2814 0.2602 0.2390
1490.000000 0.2178 0.1966 0.1754 0.1542 0.1330
1485.000000 0.1112 0.0477 0.0391 0.0316 0.0236
1480.000000 0.0191 0.0165 0.0148 0.0132 0.0120
1475.000000 0.0108 0.0102 0.0097 0.0092 0.0087
1470.000000 0.0082 0.0079 0.0077 0.0074 0.0072
1465.000000 0.0069 0.0048 0.0064 0.0061 0.0058
1460.000000 0.0054 0.0051 0.0048 0.0044 0.0041
1455.000000 0.0040 0.0040 0.0040 0.0040 0.0040
1450.000000 0.0045 0.0055 0.0065 0.0112 0.0175
1445.000000 0.0237 0.0312 0.0390 0.0469 0.0611
1440.000000 0.0756 0.1002 0.1205 0.1392 0.1573
1435.000000 0.1727 0.1920 0.2143 0.2284 0.2425
1430.000000 0.2566 0.2707 0.2849 0.2990 0.3131
1425.000000 0.3214 0.3282 0.3362 0.3445 0.3524
1420.000000 0.3600 0.3658 0.3709 0.3752 0.3794
1415.000000 0.3830 0.3845 0.3854 0.3878 0.3858
1410.000000 0.3853 0.3843 0.3825 0.3771 0.3699
1405.000000 0.3602 0.3500 0.3377 0.3253 0.3087
1400.000000 0.2908 0.2695 0.2207 0.1806 0.1604
1395.000000 0.1376 0.1204 0.1083 0.0872 0.0640
1390.000000 0.0406 0.0267 0.0185 0.0154 0.0124
1385.000000 0.0111 0.0113 0.0098 0.0093 0.0091
1380.000000 0.0099 0.0107 0.0137 0.0175 0.0216
1375.000000 0.0251 0.0252 0.0253 0.0200 0.0138
1370.000000 0.0118 0.0104 0.0103 0.0102 0.0110
1365.000000 0.0118 0.0126 0.0175 0.0266 0.0391
1360.000000 0.0535 0.0705 0.0784 0.0863 0.1822
1355.000000 0.2522 0.3152 0.3226 0.3302 0.3418
1350.000000 0.3487 0.3547 0.3603 0.3639 0.3662
1345.000000 0.3674 0.3680 0.3657 0.3597 0.3516
1340.000000 0.3342 0.3246 0.3240 0.3229 0.3246
1335.000000 0.3297 0.3347 0.3392 0.3432 0.3477
1330.000000 0.3528 0.3586 0.3688 0.3930 0.4177
1325.000000 0.4423 0.4669 0.4916 0.5162 0.5408
1320.000000 0.5654 0.5843 0.5907 0.5979 0.6065
1315.000000 0.6156 0.6215 0.6224 0.6227 0.6231
1310.000000 0.6236 0.6243 0.6255 0.6268 0.6286
1305.000000 0.6316 0.6346 0.6375 0.6404 0.6433
1300.000000 0.6464 0.6498 0.6532 0.6582 0.6636
1295.000000 0.6694 0.6761 0.6822 0.6874 0.6910
1290.000000 0.6936 0.6961 0.6976 0.6982 0.6988
1285.000000 0.7012 0.6997 0.6995 0.6990 0.6976
1280.000000 0.6958 0.6891 0.6657 0.6421 0.6187
1275.000000 0.5952 0.5717 0.5660 0.5664 0.5662
1270.000000 0.5687 0.5767 0.5940 0.6112 0.6285
1265.000000 0.6457 0.6628 0.6768 0.6828 0.6878
1260.000000 0.6914 0.6939 0.6964 0.6974 0.6980
1255.000000 0.6985 0.6990 0.6993 0.6985 0.6968
1250.000000 0.6917 0.6769 0.6655 0.6407 0.5954
1245.000000 0.5501 0.5048 0.4798 0.4779 0.4801
1240.000000 0.4946 0.5480 0.6012 0.6507 0.6875
1235.000000 0.7028 0.7111 0.7193 0.7267 0.7341
1230.000000 0.7411 0.7478 0.7536 0.7562 0.7591
1225.000000 0.7618 0.7644 0.7667 0.7690 0.7711
1220.000000 0.7734 0.7753 0.7771 0.7790 0.7808
1215.000000 0.7828 0.7845 0.7861 0.7876 0.7887
1210.000000 0.7898 0.7908 0.7917 0.7925 0.7934
1205.000000 0.7940 0.7943 0.7965 0.7946 0.7945
1200.000000 0.7940 0.7933 0.7921 0.7911 0.7896
1195.000000 0.7876 0.7857 0.7819 0.7774 0.7701
1190.000000 0.7628 0.7544 0.7461 0.7367 0.7256
1185.000000 0.7144 0.6980 0.6567 0.6333 0.6068
1180.000000 0.5705 0.4840 0.4410 0.3980 0.3549
1175.000000 0.3119 0.2689 0.2258 0.1469 0.1488
1170.000000 0.1490 0.1507 0.1984 0.2640 0.3048
1165.000000 0.3187 0.3341 0.3464 0.3559 0.3643
1160.000000 0.3720 0.3795 0.3862 0.3908 0.3930
1155.000000 0.3950 0.3959 0.3970 0.3962 0.3949
1150.000000 0.3668 0.3002 0.2396 0.2387 0.2385
1145.000000 0.2433 0.2834 0.3340 0.3845 0.4350
1140.000000 0.4855 0.5203 0.5628 0.5943 0.6206
1135.000000 0.6521 0.6687 0.6853 0.7011 0.7165
1130.000000 0.7308 0.7444 0.7565 0.7680 0.7758
1125.000000 0.7836 0.7914 0.7972 0.8033 0.8092
1120.000000 0.8140 0.8189 0.8220 0.8250 0.8280
1115.000000 0.8307 0.8330 0.8349 0.8361 0.8364
1110.000000 0.8367 0.8368 0.8371 0.8375 0.8381
1105.000000 0.8387 0.8394 0.8400 0.8407 0.8413
1100.000000 0.8418 0.8425 0.8431 0.8436 0.8442
1095.000000 0.8447 0.8451 0.8454 0.8458 0.8460
1090.000000 0.8464 0.8464 0.8464 0.8463 0.8460
1085.000000 0.8455 0.8447 0.8436 0.8424 0.8412
1080.000000 0.8382 0.8344 0.8280 0.8210 0.8068
1075.000000 0.7945 0.7855 0.7756 0.7644 0.7486
1070.000000 0.7358 0.7236 0.7184 0.7171 0.7168
1065.000000 0.7168 0.7167 0.7199 0.7262 0.7355
1060.000000 0.7525 0.7610 0.7694 0.7772 0.7851
1055.000000 0.7918 0.7985 0.8064 0.8094 0.8101
1050.000000 0.8108 0.8114 0.8118 0.8117 0.8115
1045.000000 0.8107 0.8087 0.8040 0.7937 0.7711
1040.000000 0.7369 0.7251 0.7138 0.7117 0.7108
1035.000000 0.7078 0.7103 0.7158 0.7251 0.7435
1030.000000 0.7561 0.7645 0.7726 0.7815 0.7891
1025.000000 0.7928 0.7945 0.7956 0.7960 0.7962
1020.000000 0.7972 0.7967 0.7953 0.7910 0.7848
1015.000000 0.7774 0.7685 0.7630 0.7621 0.7618
1010.000000 0.7614 0.7636 0.7754 0.7851 0.7925
1005.000000 0.7984 0.8043 0.8096 0.8147 0.8182
1000.000000 0.8217 0.8247 0.8259 0.8268 0.8278
995.000000 0.8284 0.8289 0.8294 0.8299 0.8304
990.000000 0.8305 0.8306 0.8307 0.8306 0.8306
985.000000 0.8302 0.8299 0.8295 0.8282 0.8268
980.000000 0.8255 0.8242 0.8205 0.8167 0.8119
975.000000 0.8071 0.8011 0.7932 0.7844 0.7728
970.000000 0.7567 0.7375 0.7221 0.7078 0.6941
965.000000 0.6791 0.6621 0.6210 0.5510 0.4819
960.000000 0.4129 0.3439 0.3260 0.3275 0.3296
955.000000 0.3562 0.3906 0.4250 0.4594 0.4939
950.000000 0.5283 0.5627 0.5971 0.6304 0.6382
945.000000 0.6444 0.6482 0.6475 0.6471 0.6341
940.000000 0.5951 0.5586 0.5567 0.5638 0.5866
935.000000 0.6094 0.6322 0.6550 0.6778 0.6921
930.000000 0.6940 0.6961 0.6931 0.6736 0.6376
925.000000 0.6016 0.5656 0.5295 0.4935 0.4575
920.000000 0.4215 0.4151 0.4159 0.4202 0.4553
915.000000 0.5134 0.5714 0.6294 0.6825 0.7001
910.000000 0.7140 0.7275 0.7365 0.7465 0.7592
905.000000 0.7632 0.7640 0.7665 0.7651 0.7651
900.000000 0.7638 0.7590 0.7496 0.7308 0.6895
895.000000 0.6674 0.6522 0.6417 0.6335 0.6254
890.000000 0.6205 0.6193 0.6193 0.6187 0.6183
885.000000 0.6184 0.6193 0.6201 0.6262 0.6488
880.000000 0.6706 0.6924 0.7142 0.7360 0.7578
875.000000 0.7667 0.7737 0.7792 0.7825 0.7832
870.000000 0.7842 0.7847 0.7867 0.7851 0.7821
865.000000 0.7751 0.7525 0.7238 0.6951 0.6665
860.000000 0.6379 0.6092 0.5874 0.5858 0.5866
855.000000 0.6056 0.6538 0.7019 0.7330 0.7403
850.000000 0.7475 0.7549 0.7621 0.7758 0.7849
845.000000 0.7894 0.7894 0.7894 0.7895 0.7895
840.000000 0.7901 0.7914 0.7947 0.7978 0.8015
835.000000 0.8051 0.8078 0.8091 0.8101 0.8101
830.000000 0.8103 0.8097 0.8082 0.8065 0.8028
825.000000 0.7949 0.7774 0.7471 0.7195 0.6908
820.000000 0.6619 0.6333 0.6046 0.5922 0.5905
815.000000 0.5912 0.5897 0.5901 0.5931 0.5970
810.000000 0.6038 0.6403 0.7321 0.7736 0.7843
805.000000 0.7942 0.8035 0.8128 0.8275 0.8342
800.000000 0.8408 0.8468 0.8518 0.8570 0.8599
795.000000 0.8625 0.8644 0.8660 0.8677 0.8686
790.000000 0.8693 0.8701 0.8709 0.8714 0.8718
785.000000 0.8723 0.8728 0.8733 0.8738 0.8739
780.000000 0.8739 0.8738 0.8737 0.8737 0.8737
775.000000 0.8737 0.8738 0.8739 0.8739 0.8740
770.000000 0.8736 0.8731 0.8725 0.8721 0.8717
765.000000 0.8713 0.8705 0.8689 0.8674 0.8650
760.000000 0.8612 0.8573 0.8518 0.8453 0.8381
755.000000 0.8305 0.8223 0.8026 0.7478 0.6931
750.000000 0.6698 0.6455 0.6266 0.6041 0.5890
745.000000 0.5769 0.5197 0.4550 0.3903 0.3255
740.000000 0.2608 0.1961 0.1919 0.1924 0.2014
735.000000 0.2369 0.2724 0.3079 0.3427 0.3643
730.000000 0.3864 0.4260 0.4960 0.5662 0.6181
725.000000 0.6349 0.6835 0.7076 0.7225 0.7374
720.000000 0.7503 0.7621 0.7736 0.7830 0.7922
715.000000 0.8015 0.8088 0.8161 0.8228 0.8289
710.000000 0.8349 0.8404 0.8453 0.8502 0.8542
705.000000 0.8565 0.8588 0.8611 0.8634 0.8652
700.000000 0.8670 0.8687 0.8704 0.8721 0.8736
695.000000 0.8750 0.8765 0.8780 0.8794 0.8809
690.000000 0.8824 0.8838 0.8850 0.8863 0.8875
685.000000 0.8889 0.8902 0.8914 0.8925 0.8933
680.000000 0.8941 0.8949 0.8958 0.8968 0.8977
675.000000 0.8987 0.8995 0.8999 0.9004 0.9004
670.000000 0.9004 0.8999 0.8994 0.8989 0.8983
665.000000 0.8978 0.8973 0.8967 0.8961 0.8955
660.000000 0.8949 0.8944 0.8939 0.8934 0.8928
655.000000 0.8924 0.8918 0.8914 0.8909 0.8904
650.000000 0.8899 0.8894 0.8891 0.8890 0.8888
645.000000 0.8887 0.8885 0.8884 0.8882 0.8881
640.000000 0.8880 0.8878 0.8877 0.8875 0.8874
635.000000 0.8873 0.8873 0.8874 0.8874 0.8874
630.000000 0.8875 0.8875 0.8875 0.8875 0.8875
625.000000 0.8877 0.8877 0.8877 0.8878 0.8878
620.000000 0.8880 0.8883 0.8886 0.8889 0.8893
615.000000 0.8896 0.8899 0.8910 0.8909 0.8909
610.000000 0.8913 0.8916 0.8916 0.8917 0.8918
605.000000 0.8918 0.8918 0.8920 0.8920 0.8921
600.000000 0.8921 0.8921 0.8921 0.8921 0.8920
595.000000 0.8918 0.8917 0.8914 0.8912 0.8909
590.000000 0.8906 0.8891 0.8878 0.8867 0.8856
585.000000 0.8845 0.8834 0.8825 0.8828 0.8831
580.000000 0.8833 0.8833 0.8830 0.8827 0.8824
575.000000 0.8818 0.8815 0.8811 0.8806 0.8802
570.000000 0.8798 0.8794 0.8790 0.8788 0.8786
565.000000 0.8784 0.8782 0.8780 0.8778 0.8777
560.000000 0.8775 0.8774 0.8773 0.8771 0.8764
555.000000 0.8755 0.8727 0.8678 0.8621 0.8554
550.000000 0.8468 0.8362 0.8336 0.8328 0.8332
545.000000 0.8338 0.8370 0.8411 0.8446 0.8480
540.000000 0.8514 0.8539 0.8564 0.8580 0.8593
535.000000 0.8606 0.8614 0.8621 0.8628 0.8636
530.000000 0.8643 0.8648 0.8654 0.8659 0.8664
525.000000 0.8668 0.8671 0.8673 0.8675 0.8677
520.000000 0.8680 0.8681 0.8681 0.8678 0.8675
515.000000 0.8671 0.8668 0.8675 0.8663 0.8659
510.000000 0.8654 0.8650 0.8646 0.8642 0.8637
505.000000 0.8633 0.8628 0.8625 0.8621 0.8617
500.000000 0.8613 0.8609 0.8601 0.8591 0.8581
495.000000 0.8566 0.8551 0.8535 0.8521 0.8511
490.000000 0.8501 0.8491 0.8481 0.8474 0.8467
485.000000 0.8461 0.8454 0.8447 0.8441 0.8434
480.000000 0.8427 0.8421 0.8416 0.8411 0.8405
475.000000 0.8400 0.8395 0.8389 0.8384 0.8378
470.000000 0.8371 0.8365 0.8358 0.8352 0.8345
465.000000 0.8339 0.8333 0.8328 0.8323 0.8317
460.000000 0.8312 0.8306 0.8300 0.8293 0.8287
455.000000 0.8281 0.8274 0.8267 0.8259 0.8251
450.000000 0.8243 0.8236 0.8228 0.8221 0.8214
445.000000 0.8206 0.8200 0.8193
##END=
