##TITLE=Acrylonitrile
##JCAMP-DX=4.24
##DATA TYPE=INFRARED SPECTRUM
##CLASS=IUPAC A
##ORIGIN=NIST, Anayltical Chemistry Division, 301-975-3108
##OWNER=COPYRIGHT (C) 1998 by the U.S. Secretary of Commerce
##DATE=98/10/1
##$SPECTRA VERSION=1.00
##$UNCERTAINTY IN Y=2.0 % relative (B=1.0E-04,C=6.4E-09,D=2.7E-14)
##CAS NAME=Nitrile-Propenoic Acid
##CAS REGISTRY NO=107-13-1
##MOLFORM=C H2: C H C N
##MP=-83.5 C
##BP=77.5 C
##$NIST SOURCE=QUANT-IR
##SPECTROMETER/DATA SYSTEM=IFS66V (Bruker)
##INSTRUMENT PARAMETERS=KBr Beam splitter; MCT Detector; Multipass cell
##STATE=gas
##SAMPLE DESCRIPTION=Acrylonitrile Primary Gas Standard
##PRESSURE=101.3 kPa
##TEMPERATURE=23 C
##SAMPLING PROCEDURE=1 L/min Flow
##RESOLUTION=1.9290
##DATA PROCESSING=NB Strong Apodization
##XUNITS=cm-1
##YUNITS=(micromol/mol)-1m-1 (base 10)
##XFACTOR=1.0
##YFACTOR=2.2737E-13
##DELTAX=0.9645
##FIRSTX=574.687
##LASTX=3974.595
##FIRSTY=3.04E-07
##MAXX=3973.63
##MINX=574.69
##MAXY=.0003009
##MINY=-1.66E-07
##NPOINTS=3527
##XYDATA=(X++(Y..Y))
574.69 1338924 1717986 2227302 2081382 1832262 1069054
579.51 3978 78062 1009856 1558536 1190680 915928
585.29 902150 1325130 744992 257676 926356 2042416
591.08 1957152 1864256 1617742 550684 365042 1382692
596.86 1634268 1180142 1176560 1634486 1257846 1200042
602.65 1413252 1663266 2095416 2107068 1901928 2033252
608.44 2224118 2783962 2822540 3264210 3382618 3720064
614.22 3971822 4187870 4561074 4942568 5057850 5735752
620.01 6130630 7118876 8104402 8985046 9668098 10146720
625.79 10898640 12141380 13126700 14331170 15630210 16859540
631.58 17585680 19045590 20720090 22316330 24180190 26261980
637.36 27969550 29626880 32137030 35305770 37490010 41840600
643.15 42936480 47625090 50356060 53503000 59197790 60048940
648.93 66264880 69390180 71092840 79787600 77012890 83393790
654.72 87260580 81270130 93107590 90785630 86555740 101288000
660.50 89011160 89567420 100841600 86138020 94177860 104032200
666.29 86133180 97030060 99741460 85815580 95297570 95076530
672.08 87383760 93733790 91647300 94135870 101578400 117159800
677.86 143924900 184831700 237808600 318778400 285756800 166834700
683.65 112094500 90610700 83688260 78972420 78774970 79645420
689.43 77440960 78508040 88192120 82375830 78190760 91612010
695.22 91139610 76763530 87934450 95140090 78475210 78989400
701.00 94519740 82786690 72265120 86536100 86363300 68029970
706.79 73884090 84032040 69160600 61772490 75354490 70303010
712.57 54259460 60381360 67845430 53267990 47545310 58307540
718.36 55100970 41092890 44326680 50654370 41776390 34873210
724.14 41258850 41112220 32138820 30832400 35393600 31512620
729.93 26336280 28277030 29275800 24198820 21826650 23470220
735.71 22521980 18670670 18153420 18946990 17299930 14841270
741.50 15083200 14869310 13143210 11879890 12240880 11651310
747.29 10343930 9389028 9589622 9340588 8303164 7476022
753.07 7758334 7466602 6944496 6623520 7145608 7756204
758.86 7749992 6975826 7233966 7601540 7596112 7457634
764.64 8319448 9281712 10217590 10895730 12448970 14241120
770.43 15705650 17133620 18809510 19837140 21065260 21950940
776.21 22335610 22185110 22060820 20900840 19707630 18576760
782.00 17390350 15943430 14822700 13006860 10901500 9164196
787.78 9629740 11630160 14182510 16211450 17610710 18511660
793.57 18993120 18756570 18198380 17252070 16148070 14576870
799.35 13157880 11708360 10285610 8755676 7418426 6308922
805.14 5229882 4254004 3674064 2892028 2388372 1923572
810.93 1710120 1299280 1250194 999956 682670 708508
816.71 1008034 874350 756408 422344 590394 868950
822.50 764904 598634 623656 543586 617892 281314
828.28 234342 440984 639064 621562 633512 646058
834.07 691156 675120 998582 1340516 1595518 1911180
839.85 2390562 2778000 3358638 4106854 5237440 6415262
845.64 7756336 9232294 11085310 13011380 15234600 17851490
851.42 20398220 23064350 26035650 28790690 31521720 33912520
857.21 35877070 37254780 37930400 37566140 36349720 34052700
862.99 30887090 27163020 23272120 20809220 26691140 35571570
868.78 26787040 22473300 22000130 21716290 24442810 27424670
874.57 30998050 34052850 36355460 37747810 38259640 37643590
880.35 36617700 34947960 33480550 32035860 30082740 29033250
886.14 29080030 28024270 27958360 29855590 30018340 30169100
891.92 34040630 35898160 36004550 41315900 45574460 44829970
897.71 50184850 56708360 55846540 60784280 69996980 69903240
903.49 73826760 85358190 86338280 88495160 103281800 106964600
909.28 106541200 123474800 131263900 124880900 140739900 158589900
915.06 148674700 159597600 188900500 180565600 178121400 215348400
920.85 218197100 200961600 237276600 260387000 232648200 253348400
926.63 295579400 270527200 268137800 323856100 316533000 291838800
932.42 340805000 351918400 311307300 344656600 376686600 339608800
938.21 351208900 385066700 361242400 363983200 385646500 387189800
943.99 410595500 410083700 412431000 483822000 477191600 421738700
949.78 481595600 569698000 902680300 1323420000 987447500 561487200
955.56 468847400 464643800 419059600 405582700 435539800 450492900
961.35 435497700 464974800 477226600 427302800 474026500 501366900
967.13 489551200 642906900 850776300 995091800 829895900 563882800
972.92 453030100 486720500 452806300 402080000 455298300 424615000
978.70 396866900 453271400 419976000 394250900 439829900 401747000
984.49 386932600 415558000 385706300 369462700 380454300 365310100
990.27 347216400 351561000 345006200 315444800 325550300 313460500
996.06 287107800 303229700 278963900 265726100 271942200 244200900
1001.85 244292800 235544500 217253800 215694400 198945600 187202800
1007.63 180979600 164834800 157961600 148247700 135989200 132258600
1013.42 123234600 115825300 114024200 104863300 100631800 95079570
1019.20 89147230 84276010 78219090 73330000 68215620 63255950
1024.99 58185500 53087100 49551280 44314130 40829580 36487410
1030.77 33276530 29983200 26951450 24288340 21886580 19496200
1036.56 17625620 15802110 14409710 12868800 11667590 10524550
1042.34 9777198 8816584 8381778 7594142 7173248 6489612
1048.13 6320028 5915036 5887488 5672462 5544764 5315514
1053.91 5661814 5483126 5736646 5665114 5639468 5540066
1059.70 5531696 5080664 5312072 4985636 5082736 5345770
1065.48 5667196 6277912 7480790 7933564 9475558 11180280
1071.27 12855520 15149300 18486730 21258310 25355400 29705490
1077.06 33989440 38799580 43967490 48084070 52211260 55228480
1082.84 57367930 58479810 58150390 55671670 51770010 45974650
1088.63 38580120 30097650 23974360 26743390 38042270 39677450
1094.41 38724970 36969520 34476220 33234750 33656670 34958220
1100.20 36397370 37430580 38106720 37302970 35807650 34021530
1105.98 31511900 28112490 25334730 22300490 19062620 16242960
1111.77 14005160 11308800 9416872 7984462 6554190 5158820
1117.55 4534098 3627838 3070458 2737412 2587804 2025628
1123.34 1982322 1793518 1595528 1401048 1613690 1424542
1129.12 1373662 1271980 1310528 1106044 1154502 998050
1134.91 1011916 756682 833140 765236 865290 764690
1140.70 801128 610434 692712 529330 587336 451322
1146.48 518336 370134 512672 464044 518770 400862
1152.27 568804 523094 576172 471960 537816 522136
1158.05 740044 717366 801538 650488 720796 672616
1163.84 865998 726856 871648 860082 993170 833986
1169.62 961906 960632 1062614 916656 1026906 924974
1175.41 902746 828658 1018476 878322 945624 804598
1181.19 932838 822242 800604 880498 1033976 783418
1186.98 971974 957960 1052902 1085644 1148338 1011878
1192.76 1209962 1137684 1141842 1057462 1193890 1154818
1198.55 1245674 1235344 1521762 1599556 2486974 3057846
1204.34 2411230 1616978 1599676 1762244 1793318 1312752
1210.12 1189928 1213846 1361270 1120932 1276460 1184680
1215.91 1132062 1058018 1240382 1019208 1157444 1249342
1221.69 1205242 970286 1275034 1195818 1003060 959334
1227.48 1266626 1090522 1094980 1179986 1253416 945984
1233.26 997084 989688 927714 764624 987702 910562
1239.05 918602 761236 885214 736572 827934 769728
1244.83 847458 726180 770178 707068 789204 687164
1250.62 914982 955736 1082516 1161646 1315726 1302068
1256.40 1701812 1996866 2564330 3002924 3409474 3953054
1262.19 4926560 5620126 6583464 7499404 8497858 9338180
1267.98 10309030 11013630 11853170 12165390 12381920 12217380
1273.76 11795750 10986150 10261630 9457346 8697500 7341508
1279.55 6767944 8436214 11308400 12597280 12794170 12882510
1285.33 13583140 14293500 15130430 15613880 15890080 15836790
1291.12 15778920 15019580 14395890 14035750 13513550 11844580
1296.90 10559710 9445006 8631832 8070334 7740298 7492552
1302.69 7691970 7734562 7867650 8004696 8582780 9137148
1308.47 9669382 10085830 10885690 11387340 11782760 11955750
1314.26 12183970 12007600 11848440 11421510 11073170 10394820
1320.04 10143390 10265330 10464760 9515808 8885374 8927734
1325.83 9011242 9228092 9973872 10650880 11268220 11712290
1331.61 12448010 12691430 13219610 13219470 13815810 13454040
1337.40 13768470 13815040 13601620 13520680 12753970 13140980
1343.19 13094980 13020660 14023990 13482970 14003240 14747540
1348.97 14433880 15072960 15115160 14636630 14908850 14400700
1354.76 13971850 13247120 12709840 11942820 11371300 11758840
1360.54 12412360 13134360 14464620 14498430 15627650 17149820
1366.33 17620680 19071130 20686530 19804300 20799110 23345480
1372.11 22942630 23314480 25051260 23790590 24118230 24929100
1377.90 24415300 26384320 25821240 23664400 28058900 28286840
1383.68 24451880 30125010 33570790 29579510 33741210 37041080
1389.47 33134590 39319670 45906960 42912390 51127740 59472820
1395.25 56168700 64138790 77088700 76277460 82137830 94842420
1401.04 94758870 98210860 108570700 107794500 105133400 104292600
1406.83 99288630 89965380 79712420 69054950 56072950 48540070
1412.61 66517030 97671300 75992020 54910330 61484150 75307880
1418.40 88482450 96848270 103314500 106490000 105763600 108457800
1424.18 105746100 95000250 92931690 87897510 76044970 73547830
1429.97 68977650 53403100 47761010 47287690 40297910 41371110
1435.75 47156650 39621900 35799620 38356930 35168200 33195710
1441.54 34741470 31397120 28448820 28619960 26406460 24524510
1447.32 24347970 21061200 18701140 18104690 17032100 15203500
1453.11 14751890 14608780 17679240 20137410 15930100 12551260
1458.89 10839830 9428194 8721642 8472234 8861956 9815562
1464.68 8837658 6765958 6120534 5893972 5407888 5284668
1470.47 7592390 8520142 8123180 5818030 4424434 5044108
1476.25 3824576 2751662 2566300 2451094 2608492 2204804
1482.04 1849162 1659060 1603466 1785116 2671376 2604380
1487.82 2318344 3282506 3263544 1819566 854632 760226
1493.61 1174510 3880494 5199360 2403050 2641276 2275756
1499.39 951754 837106 822902 660338 1762690 6070184
1505.18 9128248 8652502 4949736 2413892 1716576 1139790
1510.96 1946282 1542194 856532 1334318 1919148 3193604
1516.75 3111308 1537466 2657404 6304482 7383650 4312100
1522.53 2135812 1941274 3452768 2218292 1787538 1502732
1528.32 1100532 562686 1016708 1551784 3455894 3556870
1534.11 1620328 877934 1209912 4212140 9913074 9956226
1539.89 6900220 6415182 5126594 2698178 3647524 3166832
1545.68 1731652 1311472 1886254 2677436 2824794 1856966
1551.46 2019660 3663910 5923344 3736482 3382798 7294810
1557.25 12306430 12418950 11913900 6730886 3257318 3065720
1563.03 3687644 4335030 4021108 3607472 4331170 6106032
1568.82 7639368 5939806 5101938 4842536 5628110 6857000
1574.60 11851100 13686820 8984932 6837202 7354468 8308162
1580.39 7742768 8267554 9729714 9123598 9448590 11521140
1586.17 11276590 11126490 13955710 14873890 15160490 18925130
1591.96 21524940 21726570 26018870 30670900 32324560 36749730
1597.74 42970360 45284800 49092310 55017520 57600770 59133380
1603.53 62649700 63154380 61987380 60270660 57438200 53212440
1609.32 47545010 42222460 38740440 42201560 58775820 58347940
1615.10 41420950 36937170 39105480 47534250 57286660 64402680
1620.89 69911740 74503930 75563210 73326480 71028520 67377250
1626.67 64758480 60089490 53961200 50577830 46536390 42091040
1632.46 40460700 40652460 42986140 41732300 38417060 36745280
1638.24 37737980 38545910 38219750 39632500 39852700 38482230
1644.03 39850030 41450590 37135920 32985080 28937570 24989860
1649.81 23546720 28984450 41307400 41693960 32326150 27996040
1655.60 28699860 29401500 31357190 33233160 33102710 33358680
1661.38 35169280 34314600 30266220 28818250 27767410 24910640
1667.17 24061380 25772700 21805110 18275860 17611890 15013540
1672.96 13435470 16245410 15093380 10158820 9362476 9518522
1678.74 8530940 8041478 8272462 8893000 11610230 16679110
1684.53 13018310 6063036 5897942 5931766 5340510 5031386
1690.31 5030666 3987418 4003858 4874542 9937644 12563730
1696.10 6731478 3881614 6276494 12172490 10302980 4139154
1701.88 2537832 3274350 3562502 3397926 3412314 1971852
1707.67 1606116 1721192 1739118 1229032 1461220 1861772
1713.45 3157436 3472872 4442276 8126482 6618996 2999164
1719.24 1319252 846284 1004272 1197978 1193582 802428
1725.02 871672 794138 883104 1104668 1761030 1362542
1730.81 1420498 4299232 8066848 7449492 3343398 950894
1736.60 1042776 1561340 3594814 2973724 1316444 1409676
1742.38 1928678 1544724 1419386 1558274 1990330 2328906
1748.17 2387746 2462042 4599416 3358186 1114164 648922
1753.95 677478 1186542 1902392 1072014 481364 421764
1759.74 1206894 2542416 1671588 335070 279880 205178
1765.52 443686 1480466 2225570 734310 1089042 2526526
1771.31 4818234 3922356 1081918 916424 1162692 744548
1777.09 548244 472196 815814 877570 339586 149142
1782.88 428990 1024458 634650 87040 110070 145096
1788.66 476120 1043674 1921090 3285620 2047858 286982
1794.45 413662 320234 166772 190714 1005230 934468
1800.24 768206 737242 449858 86044 160090 94532
1806.02 223928 200718 223686 456472 817668 488186
1811.81 382210 209656 292282 236964 491110 580348
1817.59 719692 720702 887648 915900 1202550 1259050
1823.38 2097208 2922812 2470760 2111484 2631966 3701142
1829.16 4521008 3532672 3088594 3058682 3104218 2877004
1834.95 2911448 2874100 2701518 2128096 2027630 1960576
1840.73 2383674 2707084 4568080 5065512 3194972 2815578
1846.52 3334680 3527348 3732148 4018430 4078378 3886194
1852.30 3841662 3717404 3660160 3583216 3625154 3463256
1858.09 3274374 3180690 3330904 3198920 3414590 3740000
1863.88 3851752 3713970 4209412 5033460 5949254 6106800
1869.66 5794238 5686668 5634192 6273462 7322326 7479284
1875.45 8056428 9501332 10528930 10924440 12789360 14925870
1881.23 16015460 17835000 21407870 23763840 25742470 29950040
1887.02 34331420 37188800 41560160 46839650 50353100 53692360
1892.80 59581520 63950930 66270980 69939220 73467980 73779100
1898.59 72675430 70975060 70032590 68440220 66598240 64985770
1904.37 63819120 62770690 57692560 45301970 39560030 46829060
1910.16 59052360 70435520 77640620 82820650 87030460 87383140
1915.94 85652700 85718360 81012130 74130920 70194320 64274140
1921.73 58553880 53576530 47747230 43158540 38412290 33683320
1927.51 31354400 27423860 24182010 22418190 19519500 18319960
1933.30 17077200 14947950 14168690 13548420 14642380 15774430
1939.09 16226630 17050920 17493980 17519720 16598410 16230730
1944.87 16012240 14616650 14211700 13249400 11896090 11592960
1950.66 10719740 9509500 9288286 8125120 7548234 7415720
1956.44 6765068 6248858 5969912 5416416 5327408 5076514
1962.23 5045354 4893052 4477664 4410828 4450476 4167330
1968.01 4079496 3640906 3395504 3070700 3055280 2919372
1973.80 2864260 2812352 2707146 2574806 2460326 2280008
1979.58 2204754 2017284 1961436 1880104 1867610 1607992
1985.37 1567136 1529508 1520270 1282976 1185380 1246642
1991.15 1450786 1115354 893636 749492 721680 691524
1996.94 874846 786242 727160 593294 665512 608012
2002.73 565706 486532 478658 413056 521392 470036
2008.51 442406 271830 269578 295594 347784 186964
2014.30 264756 428570 565628 435874 412470 281536
2020.08 343646 286080 390220 305322 258482 173942
2025.87 204100 168484 242832 142982 200794 185426
2031.65 318704 277256 281500 189638 272702 300154
2037.44 368960 302044 373884 346956 343536 256800
2043.22 310496 309046 639068 949366 790770 319618
2049.01 345126 274198 374460 348608 432868 403324
2054.79 469902 373062 445680 385358 462034 528398
2060.58 693922 949056 1319180 1036670 794518 560622
2066.37 528888 389414 398564 347148 380892 245894
2072.15 342272 317426 251368 257232 404850 293144
2077.94 397876 387330 388460 390880 520612 328574
2083.72 346030 424366 440658 301248 451764 383704
2089.51 373754 318202 354860 293728 425578 367728
2095.29 355766 294612 332332 286002 350684 223746
2101.08 268502 233582 221916 143912 237090 127396
2106.86 158246 115158 160140 82466 89692 40528
2112.65 115454 56000 113924-14704-7034-15010
2118.43 110322 44900 25820-85988 2274 28700
2124.22 109472-26726 57684 40860 38194-76868
2130.01-5580-48314-16526-21716 115848 73304
2135.79 75014-3438 132498 165020 238182 165656
2141.58 230206 193042 234414 175634 265172 196972
2147.36 204306 140464 193616 200492 306068 313366
2153.15 341400 257814 331298 272472 306024 284744
2158.93 338264 275688 330398 283956 308512 218840
2164.72 330748 297806 321278 289536 299036 194708
2170.50 289736 321228 368114 287434 368414 312298
2176.29 360946 364014 495898 454682 496330 391848
2182.07 429172 409276 391646 293744 294238 239830
2187.86 349220 281662 338228 379494 492016 383294
2193.64 384482 373788 413596 346404 407456 436788
2199.43 489152 382156 498460 519662 591530 602558
2205.22 708102 677950 841338 994494 1150722 1276236
2211.00 1609610 1736694 2078854 2514712 2901092 3216734
2216.79 3803486 4327312 4973006 5645800 6432224 7104068
2222.57 7898822 8543006 9111922 9690438 10308960 10518360
2228.36 10737830 10833020 10694480 10352970 10184340 9654122
2234.14 8794276 8679152 8913642 7979330 7320778 10025960
2239.93 11575820 8352584 7733272 8885226 10412330 11533280
2245.71 12368200 12653510 12692040 12161410 11687860 10712130
2251.50 9571976 8372592 7308142 6097214 5317100 4489972
2257.28 3862008 3468346 3370028 3125184 3286628 3321242
2263.07 3391486 3584292 4066930 4266356 4642332 4878514
2268.86 5165542 5318180 5491752 5498614 5484324 5173772
2274.64 4937096 4399850 3931682 3743026 5118846 5906356
2280.43 4372506 3885302 4088868 4167710 4748402 5303548
2286.21 5942548 6418470 6834786 7082970 7269132 7131140
2292.00 6694988 5949284 5338156 4795822 4332484 3822742
2297.78 3573104 2894354 2326008 2007138 2007208 1879480
2303.57 1903008 1905176 2065190 2016420 2109170 2068338
2309.35 2141216 2068334 1955682 1748152 1737926 1683174
2315.14 1592078 1430100 1334424 1120344 1007068 937646
2320.92 967816 837860 754766 707598 784258 778068
2326.71 862668 864304 890238 855048 892110 884254
2332.50 1077192 1036358 963210 880586 952404 916544
2338.28 910038 857632 905386 849472 940484 891844
2344.07 916484 830608 806682 713766 657318 708736
2349.85 996492 935344 1166080 1280040 1314864 1414248
2355.64 1616910 1575948 1785156 1850078 1922524 1964096
2361.42 2086262 2143742 2367300 2294272 2344668 2299054
2367.21 2314164 2282776 2339134 2177084 2088352 1982982
2372.99 2127988 2245398 2463426 2623188 2849376 2924254
2378.78 3059834 3103750 3156106 2970156 2839032 2582870
2384.56 2375124 2236864 2479110 2519146 2518698 2418898
2390.35 2441170 2313060 2356744 2345266 2433938 2314444
2396.14 2375974 2338468 2256890 2173446 2253802 2094996
2401.92 1988424 1858890 1891432 1732734 1676664 1488872
2407.71 1425186 1298920 1343644 1240832 1204932 1092842
2413.49 1066826 951026 1045108 1027768 1030332 847740
2419.28 832974 867110 1036738 981062 1059280 1032862
2425.06 998150 977000 1117398 1078680 1108418 1060072
2430.85 1139218 1083594 1130488 1088120 1205440 1204984
2436.63 1237522 1186214 1321234 1294754 1442610 1501826
2442.42 1598106 1528022 1702536 1857264 1982310 1989402
2448.20 2210656 2231496 2307730 2398516 2608364 2567460
2453.99 2636206 2626536 2541194 2419584 2453212 2339094
2459.77 2299516 2154604 2206526 2164048 2184636 2186690
2465.56 2364678 2492762 2842556 3045554 3409492 3634540
2471.35 3710538 3678550 3833566 3640730 3741504 3511626
2477.13 3197382 3223848 3008014 2831184 2932936 2563018
2482.92 2636992 2582538 2527676 2605934 2573490 2370838
2488.70 2374222 2182996 2142446 1989622 2017162 1939306
2494.49 1879980 1797480 1705328 1513854 1584972 1437642
2500.27 1371730 1286408 1276238 1127160 1180856 1145614
2506.06 1153146 1036306 1065590 999996 1057004 976940
2511.84 1032170 997958 1024986 940528 965132 865730
2517.63 953786 907016 930168 910524 946610 853310
2523.41 953756 914770 1025902 981876 1010436 950686
2529.20 1032862 1051106 1099930 983872 1071478 983536
2534.99 1015276 1081578 1197564 1214716 1310782 1256056
2540.77 1290504 1180666 1286428 1362408 1436364 1320616
2546.56 1482288 1340990 1198572 1343448 1358912 1195510
2552.34 1468072 1221692 1203806 1392926 1487432 1378470
2558.13 1455174 1290630 1370548 1679436 2001240 1860912
2563.91 1686772 1519224 1649184 2356820 3422416 2808836
2569.70 1721970 1249414 1075080 886280 996772 940420
2575.48 878170 885458 939696 963668 1141780 900550
2581.27 885584 1012018 995898 771598 856834 822514
2587.05 845480 826144 948554 880858 862436 795318
2592.84 812204 638676 614122 529852 586992 547666
2598.63 654402 576734 490702 411512 415972 260154
2604.41 329658 323064 366240 245800 283770 252126
2610.20 240094 159722 240264 263134 345736 287670
2615.98 244874 68678 55014 19186 100122-43716
2621.77-12336-35418 17628-90624-70800-82308
2627.55-34656-68738 32950-11982-23480-80022
2633.34-10276-93664-92922-173258-90312-112738
2639.12-76080-189512-150604-110672 69664-31694
2644.91-33098-41568-26026-153134-109356-118434
2650.69-12296-12898 13534-93770-3894 71444
2656.48 128746 18998 41906-63226 74474 106698
2662.27 190206 144704 119642 39620 241840 256706
2668.05 281276 260726 261026 220460 334998 322028
2673.84 442112 359644 380178 463926 719030 779180
2679.62 906274 1004484 1066050 1037850 1248492 1265222
2685.41 1348462 1543152 1750578 1738152 1887254 1908056
2691.19 2114914 2130858 2345912 2381874 2400810 2384386
2696.98 2458884 2305478 2364956 2584984 2652848 2433964
2702.76 2275754 2013626 2035864 2060120 2527682 3123958
2708.55 2852634 2356156 2401652 2509694 2778134 2880056
2714.33 2843546 2767324 2786352 2575108 2534642 2357236
2720.12 2192922 2034270 1931336 1626326 1562592 1457446
2725.91 1274726 1034562 1027026 867982 847856 681178
2731.69 647486 581970 650180 608794 578080 457524
2737.48 511218 516964 631698 627046 613710 519700
2743.26 562376 424074 398654 342162 393824 281486
2749.05 297322 254886 278730 136018 129202 97518
2754.83 187494 162540 171822 109976 183216 174224
2760.62 230208 195108 288758 278254 262404 225686
2766.40 412930 424912 472054 477826 507838 413138
2772.19 664894 709014 677686 596194 699966 621958
2777.97 776132 891058 886722 739688 959594 959176
2783.76 879742 960904 1128830 788902 609080 618498
2789.54 789234 618730 496032 381494 360254 355758
2795.33 543578 479106 508456 480826 472354 560194
2801.12 943600 1021744 1018870 965494 942336 838778
2806.90 838226 744912 735778 526946 395056 337094
2812.69 276384 57974 157232 211110 202458 103858
2818.47 156566 122386 265190 225814 144556 153688
2824.26 206538 60996 2954-360440-361496-89414
2830.04 119390 98084 76212-24262-53908-203896
2835.83-275228-415080-349072-432462-438302-542610
2841.61-568924-619650-581534-588176-494102-541122
2847.40-606140-642970-546504-524908-436216-486042
2853.18-482488-541560-410414-435754-446688-469950
2858.97-467684-533528-202630-56652-64454-169802
2864.76-173616-217026-108938 35476 79300 71784
2870.54 167728-5070 65868 198446 461088 576758
2876.33 534290 396536 477642 472410 550236 616780
2882.11 619690 520660 621722 691000 1013188 1256814
2887.90 1238884 1115756 1120960 1136122 1247746 1076354
2893.68 1129448 1034066 926832 943938 1060642 1096984
2899.47 1341402 993426 826938 1034626 1123722 871544
2905.25 1055428 1109732 1101474 1054828 1026200 817502
2911.04 944808 952528 994246 998624 1117876 1144020
2916.82 1143250 1337782 1359234 835016 607602 501006
2922.61 525784 415784 351926 181826 248104 255542
2928.40 249764 245464 362786 326194 453246 314328
2934.18 259336 218212 318820 343414 457512 364720
2939.97 363470 274116 193458 97098 229620 80020
2945.75 98204 110122 121360 115382 192654 95382
2951.54 134276 88666 116998-44546-21984 23856
2957.32 95236 110380 132380 52754 157534 148652
2963.11 207802 91090 116132 123976 270132 309902
2968.89 360764 409574 395252 265090 397916 383072
2974.68 427960 436458 487700 542566 768436 782850
2980.46 1001702 1192800 1253668 1411016 1515956 1439974
2986.25 1715108 1789414 1767884 1689050 1651854 1453006
2992.04 1370180 1364290 1345896 1255680 1481344 1530810
2997.82 1430938 1153542 1255930 1482746 1829602 2022182
3003.61 2278810 2535664 2698426 2705408 2957872 2899276
3009.39 2718536 2847062 2990864 2702792 3048704 3572048
3015.18 3842664 4228510 4983036 5621144 6473552 7640072
3020.96 8942262 10312970 11951050 13718570 15720410 17756930
3026.75 19809710 21861370 23992480 25961070 27562470 28988390
3032.53 29971840 30186930 29809580 28586560 26772500 25459230
3038.32 24283680 23083560 24961670 34324940 37640800 26846230
3044.10 20427090 20372430 23405240 26599230 29721770 33028990
3049.89 34746000 34557820 34250310 33581960 32816740 31545240
3055.67 29879520 27471170 25132320 22625000 20066130 17534280
3061.46 15673860 13613980 11582100 9924152 8868218 7756672
3067.25 7104038 6726584 6452952 6009964 5783746 5516216
3073.03 5278676 5049900 4920690 4479294 4543680 4834714
3078.82 4916400 4603638 4473418 4609282 5296314 5698206
3084.60 6172924 6856730 7180428 7343922 8266788 8563972
3090.39 8623570 9525728 9836556 9576418 11057910 11373040
3096.17 10812890 12039700 12781070 12155730 13977080 15505380
3101.96 14977470 16888100 20130210 21435600 24274570 27106950
3107.74 28108440 31079690 36476500 39102100 41155420 44499090
3113.53 45077750 44215300 43326230 40615700 36296340 31355000
3119.31 26946600 23925620 26604810 38022290 37525020 19708380
3125.10 14887470 19955270 27053340 33005180 38355620 42186120
3130.89 44449100 44612330 44604260 43636060 40116940 37557360
3136.67 35464240 30209240 27368240 25362020 20550110 17670470
3142.46 16866130 13517000 11871600 11855040 9421180 7926664
3148.24 8602678 7022194 6351310 7202456 6434432 5691518
3154.03 6265450 5389980 5208560 5594226 4820770 4534082
3159.81 4832364 4214742 4239088 4041490 3439496 3438952
3165.60 3313742 2852536 2961860 2607928 2390416 2416802
3171.38 2166684 1903516 2024528 1672844 1650372 1636804
3177.17 1623520 1493926 1336866 1100668 986766 880860
3182.95 861350 526612 532976 505860 468700 393448
3188.74 249698 37658 152192 82842-21346-173254
3194.53-73996-153926-195300-272142-133710-116032
3200.31-216460-430882-383400-408610-287152-343836
3206.10-383334-432794-353634-425488-466454-498156
3211.88-361670-430684-336954-362860-355480-491938
3217.67-382230-251136-235708-377428-234302-366950
3223.45-326076-228806-189234-516240-621008-537940
3229.24-156872 116390 57182-188474-191692-254458
3235.02-162102-316430-360590-526992-612152-630692
3240.81-440996-432362-504428-607158-558782-728276
3246.59-760834-733950-524242-626938-615446-566764
3252.38-497882-619094-616376-653180-545164-491628
3258.17-318548-359662-305026-441672-319470-233888
3263.95-206774-431132-537376-588372-417192-437180
3269.74-364834-322260-325254-459286-439272-464994
3275.52-381434-466908-340346-310516-220638-377426
3281.31-442124-456928-223320-183140-142852-308010
3287.09-329630-381758-276596-376616-355436-326226
3292.88-247864-337754-183902-86730-22108-45892
3298.66 62362-66552-36140-63926-146988-322110
3304.45-277002-259934-31514 41748 148572 94888
3310.23 259250 335720 409252 454898 617514 706222
3316.02 920778 981116 1113972 1154482 1267850 1102976
3321.80 1166238 1176022 1225412 1055682 1156628 1052696
3327.59 931344 829826 621568 623010 1211228 1483330
3333.38 1344242 1132858 1376794 1552336 1766408 2012966
3339.16 2241722 2243096 2283698 2138840 2010576 1748598
3344.95 1728106 1480754 1140978 729364 656614 599002
3350.73 658442 478932 309190 214738 293672 286580
3356.52 460986 640052 811990 674758 799786 775538
3362.30 666986 527256 551918 330650 285412 173462
3368.09 85832 111262 289450 176818 150804 158744
3373.87 117440-11982 75978-54834-16822-176490
3379.66-77044 48970 39278-118376-142590-193454
3385.44-165622-318324-405610-450852-375372-470186
3391.23-97124 44104-107020-191502-232152-364220
3397.02-341572-520104-498570-390814-119770-106878
3402.80-153302-327780-341976-524656-577680-345432
3408.59-93200-353462-366398-273762-116184-288658
3414.37-233220-345102-266008-259266-109134-112408
3420.16-9222-90696-97034-129946-131732-238646
3425.94-192190-195352-66462-159018-143114-54602
3431.73 15890-185300-194276-133316-127242-249300
3437.51 29030-32482-134500-181450 74028 92660
3443.30-68648-244390-72204 71380-56868-74224
3449.08 87768-560 68366 54282 121692 222210
3454.87 330010 301510 270528 704-41714-15018
3460.66 108398 64940 34340-156808-177012-227304
3466.44-81274-175692 25698 156160 128228-55012
3472.23-111156-143570 44000 150378 121512-11604
3478.01-8828-67776-39712 13504 256234 246250
3483.80 117866 18342 82140 62-14270 24370
3489.58 150714 74892 16486 110584 447966 445896
3495.37 385566 251314 363054 314342 329972 308878
3501.15 503372 783768 863812 411014 188184 137186
3506.94 309926 501444 635000 441808 368146 348988
3512.72 741614 731610 727788 842412 970448 919034
3518.51 826742 640838 773708 747664 838122 764722
3524.30 846100 871868 965762 789770 625540 442660
3530.08 476190 373822 620650 619160 373660 425156
3535.87 661232 466516 425412 412918 565192 517278
3541.65 730980 743298 851016 850892 911372 797622
3547.44 587382 335938 237772 320528 586512 328896
3553.22 154210-9656 148672 35950 49534-9784
3559.01 275160 155054 154950 303130 471664 513336
3564.79 1259830 1602152 1862290 1370320 582752 394204
3570.58 231918 161102 273600 203532 83372 94636
3576.36 202700 20482 267396 306004 180718 267232
3582.15 424472 271598 451982 1392442 1790334 1758148
3587.94 2128906 845782 289318 232724 847580 792440
3593.72 870428 972228 749520 596920 703868 664236
3599.51 902042 662194 499856 458168 530294 457986
3605.29 991766 1303720 1730714 3007192 2005432 939990
3611.08 2188762 2282356 1475804 1376446 1049116 1291684
3616.86 2001202 2601840 3327446 1795268 993894 730352
3622.65 813882 751540 1240086 1334998 2937906 5767596
3628.43 6536844 3776348 1623462 1461730 1976292 1972494
3634.22 1569500 1464694 1592480 1660076 1583524 1475830
3640.00 1610428 1793518 1806374 1552430 1784378 2217872
3645.79 3723992 4335514 5925812 6781478 5425432 4334970
3651.57 2461802 1828094 1939812 3730288 5210198 3317748
3657.36 2061282 2007248 2054896 1938224 1735298 1555692
3663.15 1480034 1348768 1340010 1190542 2291816 3570890
3668.93 5249056 6957766 3385130 1482210 2680064 5825728
3674.72 8029936 5333284 1735380 1453120 1640112 1049154
3680.50 444772 529100 393244 404438 168932 332426
3686.29 2340662 6830970 4891146 1879284 2817520 1776824
3692.07 607598 464842 417014 356362 341434 281348
3697.86 281888 214574 833590 1903830 1190050 299384
3703.64 168604 129590 157870 167784 987134 1983834
3709.43 1402970 2913832 4593584 1722868 345710 209594
3715.21 19424 9110 408986 572096 220064 329908
3721.00 1168940 837444 292296 634774 1134130 1357602
3726.79 415978-48910-51804 520560 2947902 3376750
3732.57 1293102 2464106 3288396 4018480 2669434 999862
3738.36 342680 371702 789390 684490 2881262 9915146
3744.14 9377454 2108738 524356 1675542 6257014 5948542
3749.93 2932006 6745824 5655362 894018 118690 533948
3755.71 1085780 387268 619792 1581680 1047024-65810
3761.50-63292-28606 181870 952022 931332-24458
3767.28 151390 1382466 2099454 432014-224046-368382
3773.07-218642-292036-86770-115564 19218 676222
3778.85 1155802 50250-166844-265516-45884 123032
3784.64 112142-273390-291930-310586-227756-328872
3790.43-141170-359320-240008-278036 410062 1433850
3796.21 1280036 189186 178332 1490686 6067280 5395444
3802.00 1424870 242518 136456 1600658 4288670 2722040
3807.78 126840-137568-154232 49844 5524 141366
3813.57 960386 5295148 6294524 1773096 645674 1099236
3819.35 3303346 4856984 3183642 859792 711106 738172
3825.14 1451368 1639196 1091274 733094 916170 2077812
3830.92 3054440 1949318 2174598 3379572 2924178 3928456
3836.71 8593822 6243384 3004826 3343646 3037830 2421842
3842.49 3001120 2390496 1377996 1285262 1387478 1453448
3848.28 1813840 2143618 4513676 7568388 8472780 13018030
3854.07 8540412 2895632 2906234 2743572 2414744 2116190
3859.85 2519754 3041832 2311710 2083318 3647074 3040656
3865.64 1029972 778930 1934228 4759682 4665804 1471044
3871.42 472354 1105548 1914096 928488 279038 178242
3877.21 426194 1039564 2395614 1984656 841242 652874
3882.99 800300 2522902 4222150 1965364 668860 532104
3888.78 751344 2392264 3078408 1249748 936406 810360
3894.56 891652 793060 1016066 1905172 3143374 2248782
3900.35 3071092 3306478 2824504 3713902 2609862 1538656
3906.13 1236222 1163136 1183754 861186 760228 634860
3911.92 662076 720404 871032 1228002 1944710 1926466
3917.70 1504758 1830622 1801458 1154200 1141818 1373696
3923.49 1700408 1570798 1043012 708842 856704 933538
3929.28 906766 794882 1244826 1100958 793724 488144
3935.06 315712 347364 593818 405536 396504 416748
3940.85 636662 906588 746886 513006 447840 461110
3946.63 709736 640436 853510 713836 493296 457462
3952.42 444020 488782 542432 506124 536740 452440
3958.20 526350 575772 781056 774244 533940 397542
3963.99 545880 522244 629646 808766 967638 950330
3969.77 963546 984556 1088282 1062474 1332516
##END=
