##TITLE=ETHER, CHLOROMETHYL METHYL
##JCAMP-DX=4.24
##DATA TYPE=INFRARED SPECTRUM
##CLASS=COBLENTZ
##ORIGIN=DOW CHEMICAL COMPANY
##OWNER=COBLENTZ SOCIETY
Collection (C) 2018 copyright by the U.S. Secretary of Commerce
on behalf of the United States of America. All rights reserved.
##DATE=1964
##NAMES=chloromethyl methyl ether
chloro(methoxy)methane
##CAS REGISTRY NO=107-30-2
##MOLFORM=C2 H5 Cl O
##SOURCE REFERENCE=COBLENTZ NO. 8792
##$NIST SOURCE=COBLENTZ
##$NIST IMAGE=cob-r8792
##SPECTROMETER/DATA SYSTEM=DOW KBr FOREPRISM-GRATING
##INSTRUMENT PARAMETERS=GRATING CHANGED AT 5.0, 7.5, 15.0 MICRON
##STATE=GAS (100 mmHg, N2 ADDED, TOTAL PRESSURE 600 mmHg)
##PATH LENGTH=5 CM
##SAMPLING PROCEDURE=TRANSMISSION
##RESOLUTION=2
##DATA PROCESSING=DIGITIZED BY NIST FROM HARD COPY (FROM TWO SEGMENTS)
##XUNITS=1/CM
##YUNITS=TRANSMITTANCE
##XFACTOR=1.000000
##YFACTOR=1
##DELTAX=0.938235
##FIRSTX=389.992
##LASTX=3803.29
##FIRSTY=0.997
##MAXX=3803.29
##MINX=389.992
##MAXY=1.004
##MINY=0.007
##NPOINTS=3639
##XYDATA=(X++(Y..Y))
389.992000 0.9970 0.9970 0.9970 0.9970 0.9970
394.683176 0.9970 0.9970 0.9970 0.9970 0.9950
399.374352 0.9950 0.9950 0.9950 0.9940 0.9920
404.065529 0.9910 0.9890 0.9890 0.9880 0.9880
408.756705 0.9880 0.9850 0.9850 0.9830 0.9820
413.447881 0.9810 0.9790 0.9790 0.9780 0.9750
418.139057 0.9730 0.9700 0.9690 0.9660 0.9630
422.830234 0.9600 0.9570 0.9570 0.9510 0.9480
427.521410 0.9460 0.9430 0.9400 0.9380 0.9350
432.212586 0.9310 0.9250 0.9190 0.9180 0.9160
436.903762 0.9110 0.9000 0.8960 0.8930 0.8810
441.594938 0.8680 0.8541 0.8440 0.8301 0.8220
446.286115 0.8160 0.8090 0.7940 0.7910 0.7870
450.977291 0.7840 0.7840 0.7810 0.7780 0.7760
455.668467 0.7750 0.7720 0.7690 0.7650 0.7690
460.359643 0.7740 0.7750 0.7760 0.7760 0.7780
465.050820 0.7780 0.7810 0.7840 0.7970 0.8030
469.741996 0.8249 0.8409 0.8549 0.8709 0.8869
474.433172 0.9020 0.9130 0.9180 0.9250 0.9280
479.124348 0.9310 0.9350 0.9370 0.9380 0.9400
483.815525 0.9410 0.9440 0.9460 0.9470 0.9470
488.506701 0.9480 0.9480 0.9500 0.9500 0.9510
493.197877 0.9530 0.9540 0.9540 0.9540 0.9560
497.889053 0.9560 0.9560 0.9560 0.9560 0.9560
502.580229 0.9560 0.9560 0.9560 0.9560 0.9560
507.271406 0.9560 0.9560 0.9560 0.9560 0.9560
511.962582 0.9560 0.9560 0.9560 0.9560 0.9570
516.653758 0.9570 0.9570 0.9570 0.9570 0.9570
521.344934 0.9590 0.9590 0.9590 0.9590 0.9590
526.036111 0.9590 0.9600 0.9600 0.9600 0.9600
530.727287 0.9600 0.9620 0.9620 0.9620 0.9620
535.418463 0.9620 0.9620 0.9620 0.9620 0.9620
540.109639 0.9620 0.9620 0.9620 0.9620 0.9630
544.800815 0.9630 0.9650 0.9650 0.9650 0.9660
549.491992 0.9660 0.9660 0.9670 0.9690 0.9670
554.183168 0.9630 0.9600 0.9590 0.9590 0.9570
558.874344 0.9570 0.9560 0.9560 0.9560 0.9560
563.565520 0.9540 0.9530 0.9510 0.9510 0.9480
568.256697 0.9480 0.9470 0.9460 0.9440 0.9430
572.947873 0.9410 0.9400 0.9380 0.9370 0.9370
577.639049 0.9350 0.9340 0.9320 0.9310 0.9300
582.330225 0.9280 0.9250 0.9250 0.9240 0.9220
587.021401 0.9210 0.9190 0.9180 0.9160 0.9150
591.712578 0.9120 0.9090 0.9090 0.9080 0.9080
596.403754 0.9080 0.9080 0.9080 0.9080 0.9080
601.094930 0.9080 0.9080 0.9080 0.9080 0.9060
605.786106 0.9060 0.9050 0.9030 0.9020 0.9020
610.477283 0.9000 0.8990 0.8970 0.8970 0.8960
615.168459 0.8950 0.8890 0.8860 0.8830 0.8810
619.859635 0.8800 0.8760 0.8740 0.8680 0.8640
624.550811 0.8610 0.8570 0.8520 0.8450 0.8390
629.241987 0.8360 0.8350 0.8320 0.8270 0.8230
633.933164 0.8190 0.8100 0.7980 0.7840 0.7710
638.624340 0.7620 0.7500 0.7430 0.7271 0.7111
643.315516 0.6900 0.6640 0.6470 0.6340 0.6200
648.006692 0.5961 0.5771 0.5162 0.4861 0.4571
652.697869 0.4240 0.3840 0.3320 0.2850 0.2391
657.389045 0.1981 0.1701 0.1192 0.0861 0.0512
662.080221 0.0140 0.0100 0.0080 0.0080 0.0080
666.771397 0.0080 0.0070 0.0070 0.0070 0.0070
671.462574 0.0070 0.0070 0.0080 0.0080 0.0080
676.153750 0.0070 0.0080 0.0080 0.0080 0.0080
680.844926 0.0080 0.0080 0.0080 0.0080 0.0080
685.536102 0.0080 0.0080 0.0100 0.0100 0.0110
690.227278 0.0130 0.0210 0.0520 0.1129 0.1260
694.918455 0.1599 0.2059 0.3026 0.3189 0.3479
699.609631 0.3791 0.4670 0.5010 0.5559 0.5670
704.300807 0.6069 0.6628 0.6799 0.7009 0.7249
708.991983 0.7330 0.7580 0.7980 0.8030 0.8380
713.683160 0.8570 0.8760 0.8860 0.8960 0.9080
718.374336 0.9180 0.9340 0.9460 0.9540 0.9560
723.065512 0.9620 0.9690 0.9730 0.9780 0.9790
727.756688 0.9810 0.9830 0.9880 0.9890 0.9910
732.447864 0.9910 0.9920 0.9950 0.9970 1.0000
737.139041 1.0010 1.0010 1.0020 1.0020 1.0020
741.830217 1.0040 1.0040 1.0040 1.0040 1.0040
746.521393 1.0040 1.0040 1.0040 1.0040 1.0040
751.212569 1.0040 1.0040 1.0040 1.0040 1.0040
755.903746 1.0040 1.0040 1.0020 1.0020 1.0020
760.594922 1.0020 1.0010 1.0010 1.0010 1.0000
765.286098 1.0000 1.0000 1.0000 0.9980 0.9980
769.977274 0.9980 0.9970 0.9950 0.9940 0.9940
774.668450 0.9920 0.9880 0.9860 0.9850 0.9830
779.359627 0.9830 0.9820 0.9810 0.9790 0.9760
784.050803 0.9730 0.9700 0.9670 0.9660 0.9650
788.741979 0.9630 0.9600 0.9590 0.9570 0.9540
793.433155 0.9510 0.9480 0.9480 0.9500 0.9480
798.124332 0.9480 0.9480 0.9480 0.9480 0.9480
802.815508 0.9480 0.9480 0.9480 0.9480 0.9480
807.506684 0.9480 0.9480 0.9480 0.9480 0.9500
812.197860 0.9500 0.9510 0.9570 0.9600 0.9620
816.889036 0.9620 0.9660 0.9690 0.9720 0.9750
821.580213 0.9760 0.9790 0.9810 0.9820 0.9820
826.271389 0.9820 0.9830 0.9830 0.9850 0.9830
830.962565 0.9820 0.9850 0.9850 0.9850 0.9860
835.653741 0.9860 0.9860 0.9860 0.9860 0.9860
840.344918 0.9860 0.9860 0.9860 0.9860 0.9860
845.036094 0.9850 0.9850 0.9850 0.9850 0.9850
849.727270 0.9850 0.9850 0.9850 0.9850 0.9850
854.418446 0.9850 0.9850 0.9880 0.9850 0.9850
859.109623 0.9830 0.9810 0.9810 0.9810 0.9810
863.800799 0.9810 0.9810 0.9790 0.9790 0.9790
868.491975 0.9790 0.9780 0.9780 0.9780 0.9780
873.183151 0.9750 0.9730 0.9700 0.9690 0.9670
877.874327 0.9660 0.9630 0.9600 0.9590 0.9560
882.565504 0.9500 0.9440 0.9380 0.9340 0.9300
887.256680 0.9210 0.9160 0.9060 0.8990 0.8950
891.947856 0.8840 0.8730 0.8571 0.8381 0.8251
896.639032 0.8160 0.8060 0.7870 0.7620 0.7370
901.330209 0.7110 0.6771 0.6471 0.6340 0.6191
906.021385 0.5899 0.5420 0.5140 0.4790 0.4650
910.712561 0.4480 0.3831 0.3321 0.3101 0.2871
915.403737 0.2630 0.2440 0.2210 0.2040 0.1990
920.094913 0.1721 0.1660 0.1610 0.1540 0.1510
924.786090 0.1480 0.1470 0.1440 0.1420 0.1410
929.477266 0.1370 0.1320 0.1260 0.1669 0.1421
934.168442 0.1390 0.1410 0.1510 0.1610 0.1720
938.859618 0.1800 0.1820 0.1990 0.2169 0.2459
943.550795 0.2560 0.2950 0.3230 0.3450 0.3570
948.241971 0.3800 0.4079 0.4180 0.4947 0.5040
952.933147 0.5210 0.5430 0.5640 0.5870 0.6030
957.624323 0.6190 0.6609 0.6770 0.6949 0.7020
962.315499 0.7270 0.7500 0.7750 0.7900 0.7970
967.006676 0.8060 0.8140 0.8200 0.8230 0.8230
971.697852 0.8200 0.8190 0.8160 0.8070 0.7980
976.389028 0.7780 0.7501 0.7281 0.6961 0.6671
981.080204 0.6470 0.6120 0.5750 0.4980 0.4790
985.771381 0.4481 0.4181 0.4150 0.4150 0.4160
990.462557 0.4220 0.4280 0.4410 0.4380 0.3990
995.153733 0.3261 0.2531 0.4785 0.4690 0.4570
999.844909 0.4340 0.4110 0.3870 0.3640 0.3540
1004.536086 0.3330 0.3330 0.3410 0.3639 0.3809
1009.227262 0.4000 0.4190 0.4690 0.5020 0.5370
1013.918438 0.5839 0.5990 0.6389 0.6629 0.6789
1018.609614 0.6900 0.6930 0.6990 0.7080 0.7200
1023.300790 0.7330 0.7460 0.7550 0.7580 0.7590
1027.991967 0.7650 0.7750 0.7780 0.7820 0.7850
1032.683143 0.7930 0.7970 0.8000 0.8070 0.8090
1037.374319 0.8140 0.8160 0.8200 0.8220 0.8250
1042.065495 0.8270 0.8290 0.8300 0.8320 0.8320
1046.756672 0.8330 0.8350 0.8350 0.8360 0.8380
1051.447848 0.8380 0.8390 0.8390 0.8410 0.8420
1056.139024 0.8440 0.8440 0.8440 0.8440 0.8440
1060.830200 0.8440 0.8440 0.8420 0.8420 0.8390
1065.521376 0.8360 0.8300 0.8250 0.8220 0.8200
1070.212553 0.8170 0.8140 0.8070 0.7970 0.7821
1074.903729 0.7710 0.7620 0.7600 0.7500 0.7270
1079.594905 0.7120 0.7060 0.7010 0.6791 0.6700
1084.286081 0.6640 0.6600 0.6480 0.6440 0.6380
1088.977258 0.6310 0.6100 0.6020 0.5771 0.5212
1093.668434 0.5050 0.5000 0.4730 0.4560 0.4370
1098.359610 0.3871 0.3381 0.2881 0.2631 0.2391
1103.050786 0.1819 0.1370 0.1220 0.1030 0.0830
1107.741962 0.0420 0.0240 0.0170 0.0100 0.0080
1112.433139 0.0070 0.0070 0.0070 0.0070 0.0070
1117.124315 0.0080 0.0070 0.0070 0.0070 0.0070
1121.815491 0.0070 0.0070 0.0070 0.0070 0.0070
1126.506667 0.0070 0.0070 0.0070 0.0070 0.0070
1131.197844 0.0070 0.0070 0.0070 0.0070 0.0080
1135.889020 0.0080 0.0080 0.0080 0.0080 0.0100
1140.580196 0.0110 0.0160 0.0270 0.0300 0.0330
1145.271372 0.0370 0.0400 0.0490 0.1028 0.1090
1149.962548 0.1120 0.1160 0.1180 0.1190 0.1220
1154.653725 0.1230 0.1230 0.1200 0.1200 0.1160
1159.344901 0.1161 0.1551 0.1920 0.1930 0.2010
1164.036077 0.2060 0.2120 0.2230 0.2240 0.2300
1168.727253 0.2360 0.2410 0.2470 0.2550 0.2600
1173.418430 0.2630 0.2530 0.2400 0.2141 0.1742
1178.109606 0.1410 0.1179 0.0680 0.0180 0.0160
1182.800782 0.0140 0.0140 0.0130 0.0110 0.0110
1187.491958 0.0110 0.0130 0.0130 0.0130 0.0140
1192.183135 0.0160 0.0160 0.0160 0.0160 0.0170
1196.874311 0.0170 0.0180 0.0180 0.0160 0.0160
1201.565487 0.0130 0.0110 0.0100 0.0100 0.0100
1206.256663 0.0100 0.0130 0.0140 0.0180 0.0260
1210.947839 0.0390 0.1039 0.1150 0.1260 0.1499
1215.639016 0.1731 0.2141 0.2950 0.3190 0.3390
1220.330192 0.3610 0.3810 0.4598 0.5009 0.5080
1225.021368 0.5270 0.5510 0.5640 0.5770 0.5910
1229.712544 0.6020 0.6060 0.6160 0.6200 0.6280
1234.403721 0.6410 0.6470 0.6540 0.6630 0.6690
1239.094897 0.6700 0.6720 0.6730 0.6740 0.6740
1243.786073 0.6740 0.6740 0.6740 0.6730 0.6720
1248.477249 0.6700 0.6690 0.6690 0.6640 0.6610
1253.168425 0.6540 0.6470 0.6440 0.6390 0.6340
1257.859602 0.6310 0.6220 0.6160 0.6100 0.6030
1262.550778 0.5910 0.5860 0.5780 0.5750 0.5740
1267.241954 0.5670 0.5650 0.5620 0.5620 0.5610
1271.933130 0.5580 0.5530 0.5520 0.5510 0.5490
1276.624307 0.5460 0.5230 0.5000 0.5000 0.5170
1281.315483 0.5510 0.5650 0.5690 0.5710 0.5720
1286.006659 0.5740 0.5740 0.5880 0.6020 0.6070
1290.697835 0.6120 0.6130 0.6150 0.6160 0.6180
1295.389011 0.6180 0.6190 0.6160 0.6130 0.6100
1300.080188 0.6060 0.5990 0.5880 0.5720 0.5550
1304.771364 0.5320 0.5160 0.5000 0.4661 0.4311
1309.462540 0.4090 0.3870 0.3650 0.3140 0.2950
1314.153716 0.2760 0.2630 0.2620 0.2630 0.2650
1318.844893 0.2880 0.2980 0.3100 0.3410 0.3410
1323.536069 0.3000 0.2591 0.2550 0.2241 0.3964
1328.227245 0.3088 0.2180 0.2180 0.2430 0.2660
1332.918421 0.2790 0.3000 0.3170 0.3389 0.3799
1337.609597 0.4081 0.4670 0.5010 0.5200 0.5330
1342.300774 0.5879 0.6409 0.6600 0.6770 0.6900
1346.991950 0.7010 0.7110 0.7180 0.7270 0.7340
1351.683126 0.7520 0.7650 0.7780 0.7880 0.7950
1356.374302 0.7980 0.8060 0.8130 0.8300 0.8350
1361.065479 0.8420 0.8510 0.8600 0.8680 0.8760
1365.756655 0.8770 0.8800 0.8810 0.8840 0.8860
1370.447831 0.8870 0.8890 0.8890 0.8900 0.8900
1375.139007 0.8900 0.8920 0.8920 0.8920 0.8930
1379.830184 0.8930 0.8960 0.8970 0.8920 0.8830
1384.521360 0.8760 0.8710 0.8680 0.8650 0.8620
1389.212536 0.8600 0.8600 0.8580 0.8580 0.8550
1393.903712 0.8550 0.8540 0.8490 0.8450 0.8440
1398.594888 0.8380 0.8450 0.8490 0.8610 0.8520
1403.286065 0.8480 0.8480 0.8480 0.8490 0.8490
1407.977241 0.8520 0.8540 0.8550 0.8580 0.8600
1412.668417 0.8610 0.8650 0.8680 0.8730 0.8740
1417.359593 0.8760 0.8770 0.8770 0.8760 0.8760
1422.050770 0.8740 0.8740 0.8710 0.8680 0.8680
1426.741946 0.8610 0.8570 0.8520 0.8480 0.8420
1431.433122 0.8290 0.8220 0.8140 0.7980 0.7840
1436.124298 0.7720 0.7590 0.7410 0.7151 0.7080
1440.815474 0.6629 0.6379 0.6120 0.6090 0.5690
1445.506651 0.5360 0.4980 0.4950 0.4940 0.4920
1450.197827 0.4920 0.4920 0.4910 0.4790 0.4600
1454.889003 0.4410 0.4280 0.4150 0.4030 0.3900
1459.580179 0.3900 0.3920 0.3930 0.3970 0.3970
1464.271356 0.3950 0.3890 0.3800 0.3700 0.3810
1468.962532 0.4211 0.4630 0.4460 0.4280 0.4090
1473.653708 0.3900 0.3710 0.3870 0.3920 0.4778
1478.344884 0.4890 0.5010 0.5130 0.5680 0.5780
1483.036060 0.5870 0.5960 0.5990 0.6120 0.6439
1487.727237 0.6580 0.6640 0.6770 0.6860 0.7080
1492.418413 0.7280 0.7310 0.7500 0.7690 0.7780
1497.109589 0.7810 0.7940 0.8000 0.8110 0.8250
1501.800765 0.8330 0.8390 0.8450 0.8540 0.8640
1506.491942 0.8650 0.8680 0.8710 0.8740 0.8770
1511.183118 0.8790 0.8830 0.8860 0.8930 0.8950
1515.874294 0.8960 0.8970 0.9000 0.9020 0.9030
1520.565470 0.9050 0.9060 0.9060 0.9080 0.9080
1525.256647 0.9090 0.9090 0.9110 0.9110 0.9120
1529.947823 0.9130 0.9130 0.9130 0.9130 0.9130
1534.638999 0.9130 0.9130 0.9130 0.9130 0.9130
1539.330175 0.9130 0.9130 0.9130 0.9130 0.9130
1544.021351 0.9130 0.9130 0.9120 0.9120 0.9120
1548.712528 0.9120 0.9120 0.9120 0.9110 0.9110
1553.403704 0.9110 0.9110 0.9090 0.9090 0.9080
1558.094880 0.9060 0.9060 0.9050 0.9030 0.9030
1562.786056 0.9000 0.9000 0.8990 0.8990 0.8970
1567.477233 0.8960 0.8960 0.8930 0.8930 0.8930
1572.168409 0.8930 0.8920 0.8920 0.8920 0.8920
1576.859585 0.8900 0.8900 0.8890 0.8890 0.8890
1581.550761 0.8870 0.8870 0.8870 0.8860 0.8840
1586.241937 0.8840 0.8840 0.8840 0.8840 0.8840
1590.933114 0.8840 0.8840 0.8860 0.8860 0.8860
1595.624290 0.8870 0.8870 0.8890 0.8890 0.8890
1600.315466 0.8900 0.8920 0.8930 0.8950 0.8960
1605.006642 0.8990 0.8990 0.8990 0.8990 0.8990
1609.697819 0.8990 0.9000 0.9020 0.9020 0.9030
1614.388995 0.9030 0.9060 0.9060 0.9060 0.9090
1619.080171 0.9110 0.9110 0.9120 0.9120 0.9130
1623.771347 0.9150 0.9150 0.9150 0.9160 0.9160
1628.462523 0.9160 0.9160 0.9160 0.9160 0.9160
1633.153700 0.9160 0.9150 0.9150 0.9130 0.9120
1637.844876 0.9120 0.9120 0.9120 0.9120 0.9130
1642.536052 0.9130 0.9130 0.9120 0.9120 0.9130
1647.227228 0.9150 0.9160 0.9180 0.9190 0.9190
1651.918405 0.9210 0.9210 0.9210 0.9210 0.9190
1656.609581 0.9180 0.9180 0.9160 0.9160 0.9180
1661.300757 0.9190 0.9210 0.9220 0.9250 0.9270
1665.991933 0.9280 0.9280 0.9300 0.9300 0.9310
1670.683109 0.9310 0.9320 0.9320 0.9320 0.9340
1675.374286 0.9340 0.9340 0.9340 0.9340 0.9350
1680.065462 0.9350 0.9350 0.9350 0.9350 0.9350
1684.756638 0.9350 0.9350 0.9350 0.9350 0.9350
1689.447814 0.9350 0.9350 0.9340 0.9340 0.9340
1694.138991 0.9340 0.9340 0.9320 0.9320 0.9320
1698.830167 0.9320 0.9310 0.9300 0.9280 0.9270
1703.521343 0.9240 0.9210 0.9210 0.9210 0.9190
1708.212519 0.9190 0.9190 0.9180 0.9180 0.9180
1712.903696 0.9160 0.9160 0.9160 0.9150 0.9150
1717.594872 0.9150 0.9130 0.9130 0.9120 0.9120
1722.286048 0.9120 0.9120 0.9120 0.9120 0.9110
1726.977224 0.9110 0.9110 0.9110 0.9090 0.9090
1731.668400 0.9090 0.9060 0.9030 0.8990 0.8960
1736.359577 0.8950 0.8930 0.8900 0.8870 0.8840
1741.050753 0.8840 0.8830 0.8769 0.8329 0.7901
1745.741929 0.8800 0.8800 0.8810 0.8810 0.8830
1750.433105 0.8830 0.8810 0.8810 0.8800 0.8790
1755.124282 0.8790 0.8760 0.8740 0.8730 0.8730
1759.815458 0.8730 0.8730 0.8770 0.8830 0.8860
1764.506634 0.8870 0.8920 0.8920 0.8930 0.8970
1769.197810 0.8990 0.9000 0.9020 0.9030 0.9110
1773.888986 0.9110 0.9120 0.9120 0.9130 0.9150
1778.580163 0.9160 0.9180 0.9190 0.9210 0.9220
1783.271339 0.9240 0.9240 0.9240 0.9240 0.9270
1787.962515 0.9270 0.9270 0.9270 0.9270 0.9270
1792.653691 0.9280 0.9280 0.9280 0.9300 0.9300
1797.344868 0.9300 0.9310 0.9310 0.9310 0.9310
1802.036044 0.9310 0.9310 0.9310 0.9320 0.9320
1806.727220 0.9320 0.9320 0.9320 0.9340 0.9340
1811.418396 0.9320 0.9320 0.9320 0.9340 0.9350
1816.109572 0.9370 0.9380 0.9410 0.9430 0.9440
1820.800749 0.9470 0.9470 0.9480 0.9500 0.9510
1825.491925 0.9510 0.9500 0.9500 0.9500 0.9480
1830.183101 0.9480 0.9470 0.9470 0.9480 0.9480
1834.874277 0.9470 0.9470 0.9460 0.9460 0.9460
1839.565454 0.9440 0.9440 0.9440 0.9440 0.9440
1844.256630 0.9440 0.9440 0.9460 0.9440 0.9440
1848.947806 0.9440 0.9440 0.9440 0.9440 0.9440
1853.638982 0.9430 0.9430 0.9410 0.9410 0.9400
1858.330158 0.9400 0.9370 0.9370 0.9350 0.9350
1863.021335 0.9340 0.9340 0.9340 0.9340 0.9340
1867.712511 0.9340 0.9350 0.9350 0.9350 0.9350
1872.403687 0.9380 0.9380 0.9400 0.9400 0.9410
1877.094863 0.9410 0.9410 0.9410 0.9410 0.9410
1881.786040 0.9410 0.9410 0.9410 0.9430 0.9440
1886.477216 0.9440 0.9460 0.9470 0.9480 0.9500
1891.168392 0.9510 0.9530 0.9540 0.9560 0.9570
1895.859568 0.9570 0.9570 0.9590 0.9590 0.9600
1900.550745 0.9600 0.9620 0.9620 0.9620 0.9620
1905.241921 0.9620 0.9620 0.9620 0.9620 0.9600
1909.933097 0.9600 0.9600 0.9590 0.9590 0.9570
1914.624273 0.9570 0.9570 0.9570 0.9570 0.9570
1919.315449 0.9570 0.9570 0.9570 0.9570 0.9560
1924.006626 0.9570 0.9570 0.9570 0.9570 0.9570
1928.697802 0.9570 0.9570 0.9570 0.9570 0.9570
1933.388978 0.9560 0.9560 0.9560 0.9560 0.9560
1938.080154 0.9560 0.9560 0.9560 0.9560 0.9560
1942.771331 0.9560 0.9570 0.9570 0.9570 0.9570
1947.462507 0.9570 0.9570 0.9570 0.9570 0.9570
1952.153683 0.9570 0.9560 0.9540 0.9540 0.9540
1956.844859 0.9540 0.9540 0.9540 0.9530 0.9510
1961.536035 0.9500 0.9470 0.9470 0.9460 0.9460
1966.227212 0.9460 0.9440 0.9440 0.9440 0.9440
1970.918388 0.9440 0.9440 0.9440 0.9440 0.9440
1975.609564 0.9430 0.9430 0.9430 0.9430 0.9430
1980.300740 0.9430 0.9430 0.9430 0.9440 0.9440
1984.991917 0.9440 0.9460 0.9460 0.9460 0.9470
1989.683093 0.9470 0.9470 0.9470 0.9470 0.9470
1994.374269 0.9480 0.9480 0.9500 0.9500 0.9510
1999.065445 0.9510 0.9530 0.9535 0.9540 0.9540
2003.756621 0.9540 0.9540 0.9540 0.9540 0.9540
2008.447798 0.9540 0.9540 0.9535 0.9530 0.9530
2013.138974 0.9530 0.9520 0.9510 0.9495 0.9480
2017.830150 0.9475 0.9470 0.9465 0.9460 0.9460
2022.521326 0.9460 0.9435 0.9410 0.9375 0.9340
2027.212503 0.9325 0.9310 0.9305 0.9300 0.9261
2031.903679 0.9221 0.9171 0.9121 0.9061 0.9001
2036.594855 0.8960 0.8920 0.8880 0.8840 0.8800
2041.286031 0.8760 0.8591 0.8421 0.8356 0.8291
2045.977208 0.8260 0.8230 0.8195 0.8161 0.8101
2050.668384 0.8041 0.8035 0.8030 0.8035 0.8040
2055.359560 0.8114 0.8190 0.8190 0.8190 0.8175
2060.050736 0.8160 0.8145 0.8130 0.8115 0.8100
2064.741912 0.8095 0.8090 0.8144 0.8199 0.8249
2069.433089 0.8299 0.8344 0.8389 0.8424 0.8459
2074.124265 0.8657 0.8859 0.9024 0.9189 0.9200
2078.815441 0.9210 0.9230 0.9250 0.9275 0.9300
2083.506617 0.9310 0.9320 0.9320 0.9320 0.9330
2088.197794 0.9340 0.9340 0.9340 0.9340 0.9340
2092.888970 0.9340 0.9340 0.9340 0.9340 0.9340
2097.580146 0.9340 0.9340 0.9340 0.9330 0.9320
2102.271322 0.9315 0.9310 0.9281 0.9251 0.9221
2106.962498 0.9191 0.9156 0.9121 0.9091 0.9061
2111.653675 0.8795 0.8523 0.8471 0.8421 0.8385
2116.344851 0.8350 0.8320 0.8290 0.8261 0.8231
2121.036027 0.8225 0.8220 0.8220 0.8220 0.8225
2125.727203 0.8230 0.8240 0.8250 0.8299 0.8348
2130.418380 0.8492 0.8638 0.8472 0.8302 0.8137
2135.109556 0.7973 0.8063 0.8158 0.8165 0.8170
2139.800732 0.8170 0.8170 0.8307 0.8447 0.8557
2144.491908 0.8667 0.8981 0.9301 0.9358 0.9408
2149.183084 0.9459 0.9509 0.9520 0.9530 0.9535
2153.874261 0.9540 0.9540 0.9540 0.9550 0.9560
2158.565437 0.9560 0.9560 0.9560 0.9560 0.9560
2163.256613 0.9560 0.9560 0.9560 0.9560 0.9560
2167.947789 0.9560 0.9560 0.9560 0.9560 0.9550
2172.638966 0.9540 0.9540 0.9540 0.9540 0.9540
2177.330142 0.9535 0.9530 0.9520 0.9510 0.9505
2182.021318 0.9500 0.9490 0.9480 0.9446 0.9411
2186.712494 0.9405 0.9400 0.9390 0.9380 0.9375
2191.403670 0.9370 0.9370 0.9370 0.9370 0.9370
2196.094847 0.9370 0.9370 0.9370 0.9370 0.9360
2200.786023 0.9350 0.9350 0.9350 0.9345 0.9340
2205.477199 0.9340 0.9340 0.9340 0.9340 0.9355
2210.168375 0.9370 0.9375 0.9380 0.9404 0.9429
2214.859552 0.9464 0.9499 0.9519 0.9539 0.9540
2219.550728 0.9540 0.9540 0.9540 0.9550 0.9560
2224.241904 0.9565 0.9570 0.9570 0.9570 0.9570
2228.933080 0.9570 0.9570 0.9570 0.9570 0.9570
2233.624257 0.9570 0.9570 0.9556 0.9541 0.9526
2238.315433 0.9511 0.9491 0.9471 0.9456 0.9441
2243.006609 0.9426 0.9410 0.9395 0.9380 0.9375
2247.697785 0.9370 0.9360 0.9350 0.9350 0.9350
2252.388961 0.9350 0.9350 0.9350 0.9350 0.9360
2257.080138 0.9370 0.9375 0.9380 0.9390 0.9400
2261.771314 0.9414 0.9430 0.9445 0.9460 0.9465
2266.462490 0.9470 0.9475 0.9480 0.9509 0.9539
2271.153666 0.9550 0.9560 0.9565 0.9570 0.9580
2275.844843 0.9590 0.9595 0.9600 0.9600 0.9600
2280.536019 0.9610 0.9620 0.9625 0.9630 0.9630
2285.227195 0.9630 0.9630 0.9630 0.9630 0.9630
2289.918371 0.9625 0.9620 0.9620 0.9620 0.9620
2294.609547 0.9620 0.9610 0.9600 0.9586 0.9571
2299.300724 0.9556 0.9540 0.9525 0.9510 0.9496
2303.991900 0.9481 0.9470 0.9460 0.9446 0.9431
2308.683076 0.9416 0.9401 0.9386 0.9371 0.9370
2313.374252 0.9370 0.9360 0.9350 0.9350 0.9350
2318.065429 0.9350 0.9350 0.9360 0.9370 0.9375
2322.756605 0.9380 0.9404 0.9429 0.9449 0.9469
2327.447781 0.9489 0.9509 0.9534 0.9559 0.9565
2332.138957 0.9570 0.9579 0.9589 0.9595 0.9600
2336.830133 0.9610 0.9620 0.9644 0.9669 0.9680
2341.521310 0.9690 0.9690 0.9690 0.9690 0.9690
2346.212486 0.9690 0.9690 0.9680 0.9670 0.9665
2350.903662 0.9660 0.9655 0.9650 0.9641 0.9631
2355.594838 0.9630 0.9630 0.9630 0.9630 0.9625
2360.286015 0.9620 0.9610 0.9600 0.9586 0.9571
2364.977191 0.9565 0.9560 0.9550 0.9541 0.9535
2369.668367 0.9530 0.9516 0.9501 0.9500 0.9500
2374.359543 0.9486 0.9471 0.9465 0.9460 0.9436
2379.050719 0.9411 0.9410 0.9410 0.9396 0.9381
2383.741896 0.9366 0.9351 0.9345 0.9340 0.9340
2388.433072 0.9340 0.9340 0.9340 0.9340 0.9340
2393.124248 0.9340 0.9340 0.9340 0.9340 0.9345
2397.815424 0.9350 0.9364 0.9379 0.9390 0.9399
2402.506601 0.9405 0.9410 0.9434 0.9459 0.9469
2407.197777 0.9479 0.9504 0.9528 0.9535 0.9540
2411.888953 0.9549 0.9560 0.9565 0.9570 0.9599
2416.580129 0.9629 0.9644 0.9659 0.9665 0.9670
2421.271306 0.9679 0.9689 0.9690 0.9690 0.9695
2425.962482 0.9700 0.9700 0.9700 0.9700 0.9700
2430.653658 0.9700 0.9700 0.9700 0.9700 0.9700
2435.344834 0.9700 0.9700 0.9700 0.9700 0.9700
2440.036010 0.9695 0.9690 0.9690 0.9690 0.9690
2444.727187 0.9690 0.9681 0.9671 0.9670 0.9670
2449.418363 0.9665 0.9660 0.9660 0.9660 0.9660
2454.109539 0.9660 0.9660 0.9660 0.9660 0.9660
2458.800715 0.9660 0.9660 0.9660 0.9660 0.9660
2463.491892 0.9660 0.9660 0.9660 0.9660 0.9660
2468.183068 0.9665 0.9670 0.9670 0.9670 0.9684
2472.874244 0.9699 0.9700 0.9700 0.9709 0.9719
2477.565420 0.9734 0.9749 0.9755 0.9760 0.9760
2482.256596 0.9760 0.9769 0.9779 0.9780 0.9780
2486.947773 0.9780 0.9780 0.9780 0.9780 0.9780
2491.638949 0.9780 0.9780 0.9780 0.9785 0.9790
2496.330125 0.9790 0.9790 0.9790 0.9790 0.9799
2501.021301 0.9809 0.9810 0.9810 0.9810 0.9810
2505.712478 0.9810 0.9810 0.9810 0.9810 0.9810
2510.403654 0.9810 0.9810 0.9810 0.9810 0.9810
2515.094830 0.9810 0.9810 0.9810 0.9810 0.9815
2519.786006 0.9820 0.9820 0.9820 0.9820 0.9820
2524.477182 0.9820 0.9820 0.9820 0.9820 0.9820
2529.168359 0.9820 0.9820 0.9820 0.9815 0.9810
2533.859535 0.9810 0.9810 0.9810 0.9810 0.9810
2538.550711 0.9810 0.9810 0.9810 0.9810 0.9810
2543.241887 0.9810 0.9810 0.9810 0.9810 0.9810
2547.933064 0.9810 0.9810 0.9810 0.9810 0.9810
2552.624240 0.9801 0.9791 0.9790 0.9790 0.9785
2557.315416 0.9780 0.9780 0.9780 0.9780 0.9780
2562.006592 0.9780 0.9780 0.9771 0.9761 0.9760
2566.697769 0.9760 0.9760 0.9760 0.9760 0.9760
2571.388945 0.9755 0.9750 0.9750 0.9750 0.9750
2576.080121 0.9750 0.9741 0.9731 0.9725 0.9720
2580.771297 0.9711 0.9701 0.9695 0.9690 0.9676
2585.462473 0.9661 0.9646 0.9631 0.9625 0.9620
2590.153650 0.9620 0.9620 0.9611 0.9601 0.9595
2594.844826 0.9590 0.9590 0.9590 0.9590 0.9590
2599.536002 0.9590 0.9590 0.9590 0.9590 0.9604
2604.227178 0.9619 0.9620 0.9620 0.9620 0.9620
2608.918355 0.9620 0.9620 0.9620 0.9620 0.9620
2613.609531 0.9620 0.9611 0.9601 0.9600 0.9600
2618.300707 0.9595 0.9590 0.9581 0.9571 0.9570
2622.991883 0.9570 0.9570 0.9570 0.9570 0.9570
2627.683059 0.9570 0.9570 0.9570 0.9570 0.9570
2632.374236 0.9570 0.9579 0.9589 0.9590 0.9590
2637.065412 0.9590 0.9590 0.9590 0.9590 0.9590
2641.756588 0.9590 0.9595 0.9600 0.9609 0.9619
2646.447764 0.9625 0.9630 0.9639 0.9649 0.9655
2651.138941 0.9660 0.9665 0.9670 0.9670 0.9670
2655.830117 0.9679 0.9689 0.9690 0.9690 0.9690
2660.521293 0.9690 0.9690 0.9690 0.9690 0.9690
2665.212469 0.9676 0.9661 0.9660 0.9660 0.9655
2669.903645 0.9650 0.9655 0.9660 0.9660 0.9660
2674.594822 0.9665 0.9670 0.9679 0.9689 0.9690
2679.285998 0.9690 0.9695 0.9700 0.9709 0.9719
2683.977174 0.9720 0.9720 0.9725 0.9730 0.9730
2688.668350 0.9730 0.9725 0.9720 0.9711 0.9701
2693.359527 0.9686 0.9671 0.9670 0.9670 0.9665
2698.050703 0.9660 0.9655 0.9650 0.9659 0.9669
2702.741879 0.9670 0.9670 0.9693 0.9718 0.9720
2707.433055 0.9720 0.9720 0.9720 0.9711 0.9701
2712.124231 0.9700 0.9700 0.9695 0.9690 0.9681
2716.815408 0.9671 0.9665 0.9660 0.9655 0.9650
2721.506584 0.9636 0.9621 0.9606 0.9591 0.9576
2726.197760 0.9561 0.9551 0.9541 0.9540 0.9540
2730.888936 0.9526 0.9511 0.9505 0.9500 0.9491
2735.580113 0.9481 0.9475 0.9470 0.9456 0.9441
2740.271289 0.9422 0.9402 0.9377 0.9352 0.9336
2744.962465 0.9321 0.9315 0.9310 0.9310 0.9310
2749.653641 0.9183 0.9042 0.9016 0.9001 0.9014
2754.344818 0.9029 0.9044 0.9059 0.9069 0.9079
2759.035994 0.9085 0.9090 0.9085 0.9080 0.9053
2763.727170 0.9023 0.8998 0.8973 0.8966 0.8961
2768.418346 0.8960 0.8960 0.8960 0.8960 0.8873
2773.109522 0.8779 0.8729 0.8684 0.8644 0.8604
2777.800699 0.8586 0.8571 0.8584 0.8599 0.8672
2782.491875 0.8752 0.8782 0.8807 0.8819 0.8829
2787.183051 0.8844 0.8859 0.8874 0.8889 0.8890
2791.874227 0.8890 0.8890 0.8890 0.8890 0.8890
2796.565404 0.8876 0.8861 0.8658 0.8433 0.8356
2801.256580 0.8296 0.8236 0.8176 0.8157 0.8142
2805.947756 0.8306 0.8493 0.8510 0.8510 0.8415
2810.638932 0.8310 0.8210 0.8110 0.7947 0.7777
2815.330108 0.7584 0.7390 0.7029 0.6649 0.6467
2820.021285 0.6307 0.6147 0.5987 0.5743 0.5488
2824.712461 0.5262 0.5040 0.4857 0.4677 0.4588
2829.403637 0.4508 0.4419 0.4329 0.3982 0.3608
2834.094813 0.3458 0.3333 0.3320 0.3320 0.3391
2838.785990 0.3471 0.3525 0.3574 0.3651 0.3731
2843.477166 0.3664 0.3578 0.3556 0.3541 0.3545
2848.168342 0.3550 0.3609 0.3673 0.3693 0.3708
2852.859518 0.3804 0.3909 0.4277 0.4677 0.4782
2857.550694 0.4852 0.4869 0.4879 0.4951 0.5031
2862.241871 0.5111 0.5192 0.5272 0.5352 0.5405
2866.933047 0.5455 0.5473 0.5488 0.5333 0.5159
2871.624223 0.5055 0.4960 0.4865 0.4771 0.4689
2876.315399 0.4609 0.4569 0.4534 0.4499 0.4464
2881.006576 0.4309 0.4137 0.3945 0.3750 0.3577
2885.697752 0.3408 0.3189 0.2964 0.2851 0.2751
2890.388928 0.2642 0.2532 0.2498 0.2473 0.2457
2895.080104 0.2442 0.2418 0.2393 0.2209 0.2005
2899.771281 0.1967 0.1952 0.1928 0.1903 0.1878
2904.462457 0.1853 0.1837 0.1822 0.1820 0.1820
2909.153633 0.1820 0.1820 0.1820 0.1820 0.1811
2913.844809 0.1801 0.1796 0.1791 0.1790 0.1790
2918.535985 0.1781 0.1771 0.1748 0.1723 0.1693
2923.227162 0.1663 0.1638 0.1613 0.1579 0.1544
2927.918338 0.1509 0.1474 0.1443 0.1414 0.1357
2932.609514 0.1297 0.1259 0.1224 0.1189 0.1154
2937.300690 0.1123 0.1093 0.1059 0.1024 0.1011
2941.991867 0.1001 0.1000 0.1000 0.1009 0.1019
2946.683043 0.1020 0.1020 0.1020 0.1020 0.1011
2951.374219 0.1001 0.1000 0.1000 0.1000 0.1000
2956.065395 0.0996 0.0991 0.0981 0.0971 0.0837
2960.756571 0.0687 0.0985 0.1340 0.1469 0.1568
2965.447748 0.1487 0.1382 0.1414 0.1464 0.1628
2970.138924 0.1808 0.1839 0.1849 0.1933 0.2028
2974.830100 0.2124 0.2220 0.2310 0.2400 0.2579
2979.521276 0.2768 0.2870 0.2960 0.3054 0.3149
2984.212453 0.3244 0.3339 0.3433 0.3528 0.3623
2988.903629 0.3718 0.4162 0.4657 0.4759 0.4804
2993.594805 0.4885 0.4970 0.4980 0.4980 0.4856
2998.285981 0.4716 0.4581 0.4446 0.4307 0.4167
3002.977157 0.4023 0.3878 0.3737 0.3598 0.3453
3007.668334 0.3309 0.3168 0.3028 0.2884 0.2739
3012.359510 0.2716 0.2711 0.2710 0.2710 0.2710
3017.050686 0.2710 0.2653 0.2588 0.2501 0.2411
3021.741862 0.2326 0.2241 0.2230 0.2230 0.2578
3026.433039 0.2978 0.2934 0.2825 0.2810 0.2810
3031.124215 0.3133 0.3506 0.3576 0.3606 0.3839
3035.815391 0.4098 0.4428 0.4768 0.4928 0.5063
3040.506567 0.5272 0.5492 0.5590 0.5670 0.5732
3045.197743 0.5792 0.6125 0.6499 0.6615 0.6690
3049.888920 0.6931 0.7198 0.7362 0.7512 0.7517
3054.580096 0.7502 0.7583 0.7678 0.7773 0.7868
3059.271272 0.8028 0.8198 0.8281 0.8351 0.8442
3063.962448 0.8537 0.8576 0.8606 0.8649 0.8694
3068.653625 0.8726 0.8756 0.8778 0.8798 0.8826
3073.344801 0.8856 0.8886 0.8916 0.8933 0.8948
3078.035977 0.8967 0.8987 0.9003 0.9018 0.9037
3082.727153 0.9057 0.9073 0.9088 0.9103 0.9118
3087.418330 0.9124 0.9129 0.9143 0.9158 0.9173
3092.109506 0.9188 0.9212 0.9237 0.9253 0.9268
3096.800682 0.9283 0.9298 0.9300 0.9300 0.9304
3101.491858 0.9309 0.9323 0.9338 0.9344 0.9349
3106.183034 0.9372 0.9397 0.9400 0.9400 0.9404
3110.874211 0.9409 0.9410 0.9410 0.9423 0.9438
3115.565387 0.9449 0.9459 0.9464 0.9469 0.9474
3120.256563 0.9479 0.9480 0.9480 0.9480 0.9480
3124.947739 0.9489 0.9499 0.9500 0.9500 0.9504
3129.638916 0.9509 0.9510 0.9510 0.9519 0.9529
3134.330092 0.9530 0.9530 0.9530 0.9530 0.9530
3139.021268 0.9530 0.9534 0.9539 0.9540 0.9540
3143.712444 0.9549 0.9559 0.9560 0.9560 0.9564
3148.403620 0.9569 0.9570 0.9570 0.9583 0.9598
3153.094797 0.9600 0.9600 0.9621 0.9646 0.9659
3157.785973 0.9669 0.9679 0.9689 0.9694 0.9699
3162.477149 0.9721 0.9747 0.9754 0.9759 0.9769
3167.168325 0.9779 0.9780 0.9780 0.9793 0.9808
3171.859502 0.9810 0.9810 0.9810 0.9810 0.9810
3176.550678 0.9810 0.9810 0.9810 0.9810 0.9810
3181.241854 0.9810 0.9810 0.9810 0.9810 0.9810
3185.933030 0.9810 0.9810 0.9810 0.9810 0.9810
3190.624206 0.9810 0.9810 0.9810 0.9810 0.9814
3195.315383 0.9819 0.9820 0.9820 0.9824 0.9829
3200.006559 0.9839 0.9849 0.9854 0.9859 0.9860
3204.697735 0.9860 0.9860 0.9860 0.9860 0.9860
3209.388911 0.9860 0.9860 0.9856 0.9851 0.9850
3214.080088 0.9850 0.9850 0.9850 0.9850 0.9850
3218.771264 0.9850 0.9850 0.9850 0.9850 0.9850
3223.462440 0.9850 0.9850 0.9850 0.9850 0.9850
3228.153616 0.9850 0.9850 0.9850 0.9850 0.9850
3232.844792 0.9850 0.9850 0.9850 0.9850 0.9850
3237.535969 0.9850 0.9850 0.9854 0.9859 0.9860
3242.227145 0.9860 0.9860 0.9860 0.9860 0.9860
3246.918321 0.9860 0.9860 0.9868 0.9878 0.9880
3251.609497 0.9880 0.9884 0.9889 0.9890 0.9890
3256.300674 0.9890 0.9890 0.9890 0.9890 0.9890
3260.991850 0.9890 0.9890 0.9890 0.9886 0.9881
3265.683026 0.9880 0.9880 0.9880 0.9880 0.9880
3270.374202 0.9880 0.9880 0.9880 0.9880 0.9880
3275.065379 0.9880 0.9880 0.9880 0.9880 0.9880
3279.756555 0.9880 0.9880 0.9880 0.9880 0.9880
3284.447731 0.9880 0.9880 0.9880 0.9880 0.9880
3289.138907 0.9880 0.9880 0.9880 0.9880 0.9880
3293.830083 0.9872 0.9861 0.9860 0.9860 0.9860
3298.521260 0.9860 0.9860 0.9860 0.9860 0.9860
3303.212436 0.9860 0.9860 0.9860 0.9860 0.9860
3307.903612 0.9860 0.9868 0.9878 0.9872 0.9862
3312.594788 0.9860 0.9860 0.9860 0.9860 0.9860
3317.285965 0.9860 0.9868 0.9878 0.9880 0.9880
3321.977141 0.9884 0.9889 0.9890 0.9890 0.9903
3326.668317 0.9918 0.9920 0.9920 0.9920 0.9920
3331.359493 0.9920 0.9920 0.9916 0.9911 0.9910
3336.050669 0.9910 0.9910 0.9910 0.9910 0.9910
3340.741846 0.9910 0.9910 0.9902 0.9892 0.9890
3345.433022 0.9890 0.9890 0.9890 0.9890 0.9890
3350.124198 0.9890 0.9890 0.9886 0.9881 0.9880
3354.815374 0.9880 0.9872 0.9862 0.9860 0.9860
3359.506551 0.9860 0.9860 0.9860 0.9860 0.9860
3364.197727 0.9860 0.9860 0.9860 0.9860 0.9860
3368.888903 0.9860 0.9860 0.9868 0.9878 0.9880
3373.580079 0.9880 0.9880 0.9880 0.9884 0.9889
3378.271255 0.9890 0.9890 0.9890 0.9890 0.9886
3382.962432 0.9881 0.9880 0.9880 0.9880 0.9880
3387.653608 0.9872 0.9862 0.9860 0.9860 0.9860
3392.344784 0.9860 0.9868 0.9878 0.9880 0.9880
3397.035960 0.9880 0.9880 0.9884 0.9889 0.9898
3401.727137 0.9908 0.9910 0.9910 0.9910 0.9910
3406.418313 0.9910 0.9910 0.9914 0.9919 0.9920
3411.109489 0.9920 0.9920 0.9920 0.9920 0.9920
3415.800665 0.9920 0.9920 0.9916 0.9911 0.9910
3420.491842 0.9910 0.9910 0.9910 0.9910 0.9910
3425.183018 0.9910 0.9910 0.9910 0.9910 0.9910
3429.874194 0.9910 0.9910 0.9910 0.9910 0.9910
3434.565370 0.9910 0.9910 0.9910 0.9910 0.9914
3439.256546 0.9919 0.9928 0.9938 0.9940 0.9940
3443.947723 0.9932 0.9922 0.9920 0.9920 0.9920
3448.638899 0.9920 0.9928 0.9938 0.9940 0.9940
3453.330075 0.9944 0.9949 0.9950 0.9950 0.9950
3458.021251 0.9950 0.9958 0.9968 0.9970 0.9970
3462.712428 0.9970 0.9970 0.9970 0.9970 0.9970
3467.403604 0.9970 0.9970 0.9970 0.9970 0.9970
3472.094780 0.9970 0.9970 0.9970 0.9970 0.9970
3476.785956 0.9970 0.9970 0.9970 0.9970 0.9970
3481.477132 0.9970 0.9970 0.9970 0.9970 0.9970
3486.168309 0.9970 0.9970 0.9970 0.9970 0.9970
3490.859485 0.9970 0.9970 0.9970 0.9970 0.9970
3495.550661 0.9970 0.9970 0.9970 0.9970 0.9970
3500.241837 0.9970 0.9970 0.9970 0.9970 0.9970
3504.933014 0.9970 0.9970 0.9970 0.9970 0.9970
3509.624190 0.9970 0.9970 0.9970 0.9970 0.9974
3514.315366 0.9979 0.9980 0.9980 0.9980 0.9980
3519.006542 0.9980 0.9980 0.9980 0.9980 0.9980
3523.697718 0.9980 0.9980 0.9980 0.9980 0.9980
3528.388895 0.9980 0.9980 0.9980 0.9980 0.9980
3533.080071 0.9980 0.9980 0.9980 0.9980 0.9980
3537.771247 0.9980 0.9980 0.9980 0.9980 0.9980
3542.462423 0.9980 0.9980 0.9980 0.9980 0.9980
3547.153600 0.9980 0.9980 0.9980 0.9980 0.9980
3551.844776 0.9980 0.9980 0.9980 0.9980 0.9980
3556.535952 0.9980 0.9980 0.9980 0.9980 0.9980
3561.227128 0.9980 0.9988 0.9998 1.0000 1.0000
3565.918304 1.0000 1.0000 1.0000 1.0000 1.0000
3570.609481 1.0000 1.0000 1.0000 1.0000 1.0000
3575.300657 1.0000 1.0000 1.0000 1.0000 1.0000
3579.991833 1.0000 1.0000 1.0000 1.0000 1.0000
3584.683009 1.0000 1.0000 1.0000 1.0000 1.0000
3589.374186 1.0000 1.0000 1.0000 1.0000 1.0000
3594.065362 1.0000 1.0000 1.0000 1.0000 1.0000
3598.756538 1.0000 1.0000 1.0000 1.0000 1.0000
3603.447714 1.0000 1.0000 1.0004 1.0009 1.0006
3608.138891 1.0001 1.0000 1.0000 0.9992 0.9982
3612.830067 0.9980 0.9980 0.9980 0.9980 0.9980
3617.521243 0.9980 0.9980 0.9980 0.9980 0.9980
3622.212419 0.9980 0.9980 0.9980 0.9980 0.9980
3626.903595 0.9980 0.9980 0.9980 0.9980 0.9980
3631.594772 0.9980 0.9980 0.9980 0.9980 0.9980
3636.285948 0.9980 0.9976 0.9971 0.9970 0.9970
3640.977124 0.9970 0.9970 0.9970 0.9970 0.9970
3645.668300 0.9970 0.9970 0.9970 0.9970 0.9970
3650.359477 0.9970 0.9970 0.9974 0.9979 0.9980
3655.050653 0.9980 0.9988 0.9998 1.0000 1.0000
3659.741829 1.0000 1.0000 1.0000 1.0000 1.0000
3664.433005 1.0000 1.0000 1.0000 1.0000 1.0000
3669.124181 1.0000 1.0000 1.0000 1.0000 0.9992
3673.815358 0.9982 0.9980 0.9980 0.9980 0.9980
3678.506534 0.9976 0.9971 0.9962 0.9952 0.9946
3683.197710 0.9941 0.9940 0.9940 0.9928 0.9913
3687.888886 0.9902 0.9892 0.9890 0.9890 0.9890
3692.580063 0.9890 0.9890 0.9890 0.9910 0.9935
3697.271239 0.9964 0.9994 1.0000 1.0000 0.9992
3701.962415 0.9982 0.9980 0.9980 0.9980 0.9980
3706.653591 0.9980 0.9980 0.9980 0.9980 0.9980
3711.344767 0.9980 0.9980 0.9980 0.9980 0.9980
3716.035944 0.9980 0.9980 0.9980 0.9980 0.9980
3720.727120 0.9980 0.9980 0.9980 0.9988 0.9998
3725.418296 1.0000 1.0000 1.0000 1.0000 1.0004
3730.109472 1.0009 1.0010 1.0010 1.0010 1.0010
3734.800649 1.0010 1.0010 1.0014 1.0019 1.0020
3739.491825 1.0020 1.0020 1.0020 1.0020 1.0020
3744.183001 1.0020 1.0020 1.0020 1.0020 1.0020
3748.874177 1.0020 1.0016 1.0011 1.0010 1.0010
3753.565353 1.0010 1.0010 1.0006 1.0001 1.0000
3758.256530 1.0000 1.0000 1.0000 1.0000 1.0000
3762.947706 0.9992 0.9982 0.9976 0.9971 0.9970
3767.638882 0.9970 0.9970 0.9970 0.9970 0.9970
3772.330058 0.9970 0.9970 0.9962 0.9952 0.9950
3777.021235 0.9950 0.9950 0.9950 0.9946 0.9941
3781.712411 0.9944 0.9949 0.9958 0.9968 0.9970
3786.403587 0.9970 0.9974 0.9979 0.9980 0.9980
3791.094763 0.9980 0.9980 0.9980 0.9980 0.9980
3795.785940 0.9980 0.9980 0.9980 0.9980 0.9980
3800.477116 0.9980 0.9980 0.9980 0.9980
##END=
