##TITLE=1,3-Dimethylbenzene
##JCAMP-DX=4.24
##DATA TYPE=INFRARED SPECTRUM
##CLASS=IUPAC A
##ORIGIN=NIST, Analytical Chemistry Division, 301-975-3108
##OWNER=COPYRIGHT (C) 2001 by the U.S. Secretary of Commerce
##DATE=01/06/01
##$SPECTRA VERSION=1.10
##$UNCERTAINTY IN Y=2.1 % relative (B=1.13E-04,C=1.33E-9,D=3.50E-14)
##CAS NAME=1,3-Dimethylbenzene
##CAS REGISTRY NO=108-38-3
##MOLFORM=1,3-( C H3)2 C6 H4
##MP=-47.87 C
##BP=139.1 C
##$NIST SOURCE=QUANT-IR
##SPECTROMETER/DATA SYSTEM=IFS66V (Bruker)
##INSTRUMENT PARAMETERS=KBr Beam Splitter; MCT Detector; Multipass cell
##STATE=gas
##SAMPLE DESCRIPTION=m-Xylene Primary Gas Standard
##PRESSURE=101.3 Pa
##TEMPERATURE=23 C
##SAMPLING PROCEDURE=1 L/min Flow
##RESOLUTION=0.9640
##DATA PROCESSING=3-Term B-H Apodization
##XUNITS=cm-1
##YUNITS=(micromol/mol)-1m-1 (base 10)
##XFACTOR=1.0
##YFACTOR=9.0949E-13
##DELTAX=0.4820
##FIRSTX=575.17
##LASTX=3974.606
##FIRSTY=-1.08E-06
##MAXX=3974.12
##MINX=575.17
##MAXY=.0006024
##MINY=-1.40E-06
##NPOINTS=7052
##XYDATA=(X++(Y..Y))
575.17-1188345-204198 510472 274295-695361-866144
577.58-357236-755443-1549786-1122225-386553-48818
580.47 492375 497924-60674-809532-1404385-1166903
583.37-612979-445609-433888-571833-998646-789590
586.26-112672-165730-821036-1009699-730309-618063
589.15-459990-190677-223087-94974 369164 386722
592.04-117064-747881-933568-854006-1092023-971842
594.94-447839-254781-482168-798393-820363-938438
597.83-1315312-1358040-889304-283332-27921-182393
600.72-419280-716363-969294-750706-448817-482229
603.62-754688-849893-385748 29092-272840-829421
606.51-820017-250217-16824-391865-678620-590389
609.40-521086-673652-885180-893202-676636-388880
612.29-266594-204496-428006-761412-774060-654409
615.19-523564-394441-298689-224116-83993 6820
618.08-219414-545651-684923-745169-792358-741847
620.97-684014-650072-646322-457494 26077 316608
623.86-13102-513641-722034-763741-651543-434603
626.76-300258-200741-93860-135716-494287-668501
629.65-396586-258696-308356-451738-748283-631956
632.54-214870-115657-219813-304420-525176-666783
635.44-622316-530722-426471-425136-500382-534484
638.33-527923-342428-231932-516442-710805-496056
641.22-278427-447931-709112-593312-317327-133764
644.11-104132-155882-102432 34203 70398 52901
647.01 105053 109586 126839 347463 434527 360575
649.90 283825 254177 296147 418189 594191 783298
652.79 954564 1059427 1037167 1139134 1412023 1686937
655.68 1881091 1905613 1755993 1590605 1520572 1655299
658.58 1692774 1571429 1744283 2188201 2480426 2609143
661.47 2718230 2772500 2755472 2924461 3310307 3808709
664.36 4255997 4721612 5524009 6879192 8096626 8535943
667.26 8432239 8305645 8405810 8870521 9570894 10398486
670.15 11437545 12709093 14061948 15606078 17312608 18935352
673.04 20807571 23036782 24996625 26842102 29021356 31552132
675.93 34075137 36369841 38660011 41052339 43232463 45170745
678.83 46884289 48511016 50092522 51455669 52518626 53591235
681.72 54603184 55562578 56512200 57395947 58113465 58643107
684.61 59502862 61236697 63663311 66725063 70574540 76257083
687.50 84750827 96537481 114545880 146298866 200932705 260338840
690.40 255077905 180049925 119230606 94240751 80965493 73576643
693.29 71028873 71293996 73325379 76150666 77014501 74254777
696.18 70270606 67609988 66435069 65653684 64801913 64180186
699.08 63544089 62692710 61898818 60918815 59333265 56988318
701.97 54077803 50982434 47956668 44967316 41863499 38815213
704.86 36043262 33353308 30637956 28024926 25449546 22917698
707.75 20507812 18434495 16702600 14930288 13228561 11890074
710.65 10625066 9306975 8264640 7489689 6779304 6184689
713.54 5623880 4970368 4400662 3964138 3543153 3195131
716.43 2923270 2751032 2685712 2571205 2362097 2157624
719.32 1904936 1735326 1883357 2066683 1928413 1757119
722.22 1685200 1561514 1471285 1534036 1564937 1504055
725.11 1429283 1453069 1617925 1831316 1961883 1973081
728.00 1886462 1912380 2095980 2246650 2206017 2035497
730.90 1781417 1635466 1595148 1475031 1443172 1617566
733.79 1815200 1958029 1949742 1826023 1703680 1763600
736.68 1985666 2225582 2456781 2856860 3352233 3809222
739.57 4365864 5108470 5867465 6373442 6634389 7181539
742.47 8085244 9178528 10428873 11863874 13471676 15356680
745.36 17564319 20197977 23151202 26256271 29594600 33421796
748.25 37636837 42151232 47075183 52384129 57955502 64006620
751.14 70381826 76943305 83660855 90572727 97601096 104771689
754.04 111936862 118879942 125418283 131638107 137355729 142658847
756.93 147689515 152711941 157772893 162549524 166716943 170456652
759.82 173765411 176683153 178861343 180456902 182130194 184911918
762.72 189460429 196572295 207557637 224235857 247965389 281542963
765.61 329482987 395570513 481445050 579854695 660089338 662407043
768.50 532881558 352417412 248275206 211362581 194637513 186247520
771.39 183554932 183628176 184230078 184420104 184240163 184003849
774.29 184111030 183970189 182570957 179412282 175403425 171069937
777.18 166592078 161725091 156389300 150569381 144383546 137584374
780.07 130153762 122157793 113984864 105832519 97820451 89993012
782.96 82486385 75241725 68289824 61589104 55261926 49367038
785.86 44049187 39186104 34548784 30304217 26754093 23496153
788.75 20452000 17792888 15571568 13637156 11851929 10261852
791.64 9057979 8116009 7317922 6549971 5856571 5317052
794.54 5064838 4805214 4324472 3718631 3275277 2998026
797.43 2818316 2605760 2330908 2051305 1886812 1794385
800.32 1769464 1786304 1864950 1948779 1901296 1680125
803.21 1517882 1402555 1325488 1170224 1017631 1094632
806.11 1292048 1318003 1199748 1077605 1075944 1115098
809.00 1087555 997384 906544 718000 627840 731027
811.89 810785 829383 974025 946339 595415 379019
814.78 451384 519060 567745 713834 868085 788185
817.68 617556 518479 573560 697372 812222 801935
820.57 759678 908309 1055332 915131 728761 575663
823.46 533518 442585 288956 304096 408784 448098
826.36 506194 578209 586555 477634 510147 616579
829.25 554890 422907 381396 347409 422735 589814
832.14 585043 455854 327118 213796 318634 515093
835.03 573757 497281 437441 412673 411108 418831
837.93 436521 430771 455798 420282 339951 394236
840.82 469469 431558 415888 453900 504659 540515
843.71 656594 762430 711774 624639 678702 735643
846.60 742108 769164 831748 978057 1122535 1123913
849.50 1163329 1380196 1594990 1672413 1733918 1722423
852.39 1679956 1795262 2098726 2453430 2739470 3009359
855.28 3395846 3813539 4198055 4525768 4891471 5324662
858.18 5717667 6076320 6562408 7076931 7577862 8087091
861.07 8602643 9219861 10005112 10636261 10965505 11244851
863.96 11576296 11907586 12236716 12515744 12806026 13159342
866.85 13553822 13872268 14102483 14306058 14610352 14980990
869.75 15396148 15981230 16736100 17631696 18765443 20374918
872.64 22899085 26480022 31466257 37761543 43547611 47445561
875.53 46742098 38172598 26947759 19863528 16681891 15231036
878.42 14651389 14569941 14570855 14471630 14374040 14231545
881.32 14089729 14108372 14186855 14126308 13923669 13760757
884.21 13828530 13934967 13700272 13210907 12856764 12582264
887.10 12215842 11845921 11538970 11221614 10847734 10447934
890.00 10151592 9984256 9917099 9905343 9930728 10061318
892.89 10457904 10976928 11477994 12058013 12723569 13372234
895.78 14042585 14765916 15464296 16118908 16825947 17432457
898.67 17826608 18117015 18286249 18197954 17896169 17461746
901.57 17023527 16746809 16691352 16762702 16999452 17549972
904.46 18435823 19430402 20160357 20287338 19612155 18117435
907.35 16405816 15222839 14814386 15033416 15586596 16124399
910.24 16460451 16500059 16205251 15688074 15031475 14138255
913.14 13002345 11801516 10613808 9353574 8058325 6806335
916.03 5726615 4863904 4149159 3520155 3020073 2622945
918.92 2296322 2018105 1753621 1562102 1515510 1459120
921.82 1329390 1273518 1346767 1434451 1436831 1411143
924.71 1373982 1278883 1225240 1210242 1234138 1337618
927.60 1461488 1470010 1385850 1390974 1470971 1502309
930.49 1556969 1572057 1581434 1628488 1671590 1753891
933.39 1791962 1792511 1841067 1852506 1937850 2116614
936.28 2224403 2247943 2223733 2192134 2228157 2322043
939.17 2393815 2332538 2241865 2278889 2372387 2403966
942.06 2411236 2473509 2575101 2676310 2816140 2827131
944.96 2737673 2743352 2741270 2701906 2709941 2779710
947.85 2853441 2866881 2863148 2839941 2865726 2992430
950.74 3110127 3124450 3140909 3166569 3188530 3241464
953.64 3274455 3239010 3207878 3265260 3359547 3409776
956.53 3433091 3475102 3505085 3449430 3435182 3510868
959.42 3556409 3556183 3625655 3711282 3719768 3729807
962.31 3860631 4022111 4092469 4109483 4191527 4298643
965.21 4392316 4469860 4493262 4480783 4559344 4757454
968.10 4921065 4961358 4993422 4996853 4991807 4981624
970.99 4997272 5071350 5136444 5246317 5420346 5498166
973.88 5465286 5429904 5375631 5259424 5174876 5118823
976.78 5011424 4924771 4928620 4948683 4943957 4951101
979.67 4971241 4955241 4886810 4806001 4783417 4754779
982.56 4738816 4809270 4901909 4910203 4872711 4868229
985.46 4879287 4884748 4933116 4998586 5048820 5069696
988.35 5134649 5213194 5269129 5396746 5611179 5780261
991.24 5839401 5874875 6034384 6249019 6428141 6635362
994.13 6871311 6959074 6982036 7203203 7482025 7700751
997.03 7950101 8183329 8404996 8628464 8875804 9112703
999.92 9252165 9351266 9473012 9593487 9754242 9953388
1002.81 10164703 10386186 10617797 10792692 10889733 11018141
1005.70 11196705 11334317 11383100 11319033 11224865 11150344
1008.60 11047298 10858736 10608421 10366382 10185976 10059014
1011.49 9981726 9891822 9755904 9649916 9625279 9515900
1014.38 9180670 8803695 8575461 8429406 8323938 8223857
1017.28 8080242 7881770 7661329 7491361 7351875 7110442
1020.17 6856830 6705765 6572362 6339697 6110402 6058986
1023.06 6160976 6234704 6232992 6265131 6407350 6627228
1025.95 6817356 6953712 7174055 7454389 7695658 7996154
1028.85 8349099 8657616 8989436 9385951 9779811 10095805
1031.74 10420883 10753535 11067065 11497933 11966781 12313548
1034.63 12680190 13114622 13442335 13739006 14159800 14621865
1037.52 15065028 15568237 16201745 16984288 18031483 19411756
1040.42 20912976 22288316 23774209 25683211 27319673 27608184
1043.31 26843463 26229657 25735118 24713139 23508687 22811346
1046.20 22729657 22931795 23116497 23023866 22687711 22316865
1049.10 21980195 21666217 21387787 21279133 21295791 21284069
1051.99 21226494 21122325 21035468 20982876 20827426 20481715
1054.88 20151863 19931004 19709176 19478526 19203436 18793306
1057.77 18343031 17939238 17460423 16865109 16348526 15871767
1060.67 15285623 14677342 14205330 13790483 13395878 13094035
1063.56 12817770 12464201 12047831 11681145 11360976 10987650
1066.45 10633372 10368150 10151695 9971002 9880113 9795104
1069.34 9652515 9453360 9189610 8958888 8845764 8800829
1072.24 8758187 8671618 8636456 8685024 8743907 8828603
1075.13 8962896 9013838 9041015 9242826 9523066 9750423
1078.02 9977192 10281588 10671927 11133887 11657828 12147061
1080.92 12627755 13185256 13803361 14474477 15214214 16042730
1083.81 16947311 17927848 18932731 19885582 20879170 21956640
1086.70 23026541 24022353 25021723 26055052 27020120 27850367
1089.59 28564501 29158311 29622555 29996061 30144245 29828812
1092.49 28997625 27684392 25991519 24183928 22647853 21671686
1095.38 21444361 21821870 22307337 22819289 23587205 24461699
1098.27 25260288 25965538 26551696 26821940 26702176 26375464
1101.16 25869925 25090833 24092360 22956819 21768487 20557957
1104.06 19391820 18236780 17024040 15837839 14780367 13827353
1106.95 12957209 12145551 11355957 10592243 9875117 9219491
1109.84 8654307 8162768 7732365 7377281 7106073 6897890
1112.74 6721442 6524333 6358173 6279977 6181695 6048957
1115.63 5973332 5913723 5837854 5805666 5835639 5872453
1118.52 5871751 5823041 5737081 5620418 5531382 5405717
1121.41 5214068 5076565 4976990 4869518 4737826 4621743
1124.31 4599587 4587363 4564253 4588162 4643158 4800417
1127.20 5005904 5073019 5043692 5017570 4952117 4909914
1130.09 4901036 4729973 4455246 4358110 4355163 4250183
1132.98 4140523 4086059 4012296 3878485 3732058 3597671
1135.88 3506152 3400022 3262803 3130226 3053279 3060165
1138.77 3105955 3068354 2954116 2916698 2939621 2854103
1141.66 2701004 2644365 2621819 2591973 2608021 2643730
1144.56 2704878 2757666 2741026 2729446 2759998 2816283
1147.45 2969958 3166566 3280975 3353115 3451881 3513287
1150.34 3513740 3567971 3734616 3974322 4248166 4449117
1153.23 4521315 4552999 4546683 4447576 4360326 4379052
1156.13 4449584 4588459 4893430 5276058 5649899 5943160
1159.02 6101835 6193007 6340219 6676997 7177562 7696996
1161.91 8239496 8823490 9357908 9738967 9986418 10164886
1164.80 10237463 10134226 9921326 9621586 9227291 8824104
1167.70 8437815 8151733 8119650 8465501 9249768 10287118
1170.59 11255975 11323085 9943664 8286241 7368211 7049471
1173.48 7086914 7373966 7853869 8366337 8714290 8849117
1176.38 8857355 8771197 8514186 8124163 7730048 7302694
1179.27 6778383 6145698 5519691 5014364 4596615 4201540
1182.16 3830035 3553068 3377271 3181766 2980803 2822187
1185.05 2723342 2682690 2627915 2539914 2543031 2595875
1187.95 2595788 2580229 2554694 2557387 2615058 2636799
1190.84 2601531 2478052 2343815 2259403 2175505 2132290
1193.73 2127947 2097197 2056421 2060094 2052833 1958877
1196.62 1921578 2038493 2174084 2222322 2226365 2208460
1199.52 2170786 2149390 2124721 2070444 2007121 1989218
1202.41 1983847 1949442 1877080 1772618 1733656 1739648
1205.30 1738487 1711834 1695855 1689175 1646677 1605407
1208.20 1546818 1448764 1407122 1425314 1470449 1529566
1211.09 1499733 1400709 1347656 1333974 1351103 1366253
1213.98 1360453 1347901 1319484 1339718 1361336 1321979
1216.87 1286608 1237748 1201671 1187184 1159547 1174790
1219.77 1210110 1251585 1310188 1276906 1172630 1107157
1222.66 1097601 1138878 1232069 1285716 1271015 1239654
1225.55 1229677 1234473 1247399 1251529 1249741 1260942
1228.44 1255830 1272679 1361488 1457761 1473251 1396803
1231.34 1387334 1488009 1603655 1651573 1625303 1643884
1234.23 1724843 1768799 1777038 1829193 1922860 2012943
1237.12 2131937 2233956 2246447 2282810 2407521 2519412
1240.02 2597924 2648193 2708394 2844981 2996841 3145862
1242.91 3304114 3385849 3437362 3519262 3602264 3649239
1245.80 3657163 3637112 3582898 3520669 3456314 3409881
1248.69 3345257 3254271 3187736 3143275 3202834 3312331
1251.59 3367647 3434830 3611289 3800777 3926763 4052614
1254.48 4187155 4317981 4427973 4496362 4522734 4470553
1257.37 4426233 4429985 4330498 4126464 3998509 3986185
1260.26 3924528 3790701 3667009 3544721 3463558 3387391
1263.16 3276705 3161047 3046587 2958499 2912668 2844454
1266.05 2790753 2800875 2811622 2842611 2952491 3086132
1268.94 3123474 3100704 3080572 3051852 3040050 2979705
1271.84 2854347 2742919 2639547 2547965 2519365 2477969
1274.73 2377908 2278988 2192717 2146234 2163665 2188144
1277.62 2158291 2108619 2123646 2167562 2182419 2143753
1280.51 2101625 2101661 2077132 2029401 1962509 1882908
1283.41 1902100 1948198 1903198 1858108 1810062 1712641
1286.30 1684140 1735130 1746501 1684426 1598439 1539277
1289.19 1621599 1793084 1835658 1789009 1772956 1762511
1292.08 1756364 1725372 1673961 1720428 1866644 2002002
1294.98 2063204 2061395 2064351 2102289 2178219 2248823
1297.87 2264822 2275129 2259762 2169837 2077726 2043425
1300.76 2069176 2117654 2105387 2029312 2012982 2105973
1303.66 2208894 2175471 2075572 2092082 2190207 2266718
1306.55 2307038 2324512 2367301 2406736 2427194 2440425
1309.44 2476926 2505875 2482648 2438351 2380201 2333509
1312.33 2363176 2402162 2408371 2404110 2343811 2299786
1315.23 2350110 2377089 2320885 2310933 2362142 2400704
1318.12 2438411 2444261 2398999 2324909 2288278 2334761
1321.01 2354626 2296991 2292260 2381358 2451044 2451363
1323.90 2424660 2405063 2391711 2395389 2447841 2506177
1326.80 2594117 2721075 2764648 2710915 2642514 2632289
1329.69 2634101 2601565 2632576 2701737 2728070 2724810
1332.58 2743582 2805736 2829626 2810693 2867580 2937710
1335.48 2956427 2972518 2979635 2937180 2904096 2931105
1338.37 2943924 2974414 3091624 3205057 3279190 3311825
1341.26 3379567 3511868 3632308 3692013 3670649 3688604
1344.15 3832644 3978889 3974444 3961965 4127179 4268998
1347.05 4297423 4362799 4473260 4639849 4770619 4821914
1349.94 5004812 5124713 5048664 5007581 5170454 5530518
1352.83 5806939 5987864 6115045 6170773 6414802 6738788
1355.72 6923034 6932470 6946046 7208205 7532432 7777192
1358.62 7917183 8060422 8224554 8365029 8594637 8810840
1361.51 9018177 9184152 9273187 9492858 9925154 10281540
1364.40 10460036 10687215 10994797 11337025 11779128 12222467
1367.29 12506282 12695773 12981472 13335904 13694022 14132974
1370.19 14710894 15412366 16196759 17051386 17910217 18790070
1373.08 19811741 20944888 22079122 23149747 24171044 25183070
1375.97 26189822 27072948 27685349 28053912 28270947 28539167
1378.87 29198912 30365562 32210711 34531534 35665902 34615277
1381.76 32812043 31534836 30888331 30896234 31494514 32517297
1384.65 33810022 35151590 36347074 37250134 37600645 37375425
1387.54 36878187 36206710 35347644 34351118 33355065 32395047
1390.44 31476022 30689638 29923568 28981410 27795865 26487258
1393.33 25260418 24254618 23496564 22855679 22272234 21868433
1396.22 21689614 21524512 21291300 21091587 20962404 20872157
1399.11 20845545 20813035 20657789 20483795 20327824 20071174
1402.01 19685361 19241662 18851304 18507269 18162927 17875078
1404.90 17706048 17576395 17460589 17390672 17347848 17372885
1407.79 17482488 17599634 17687132 17844311 18124652 18364090
1410.69 18477290 18569314 18672446 18751695 18782401 18739852
1413.58 18700767 18730737 18794023 18805356 18827244 18912985
1416.47 19020351 19167999 19297613 19304742 19142096 19037291
1419.36 19296441 19622041 19813628 20006325 20202713 20395856
1422.26 20501634 20476846 20478851 20583063 20649058 20626061
1425.15 20649685 20748245 20848499 20983522 21238161 21520518
1428.04 21751500 22027433 22365879 22753678 23267051 23855729
1430.93 24481308 25227536 26046943 26873081 27735431 28650997
1433.83 29675165 30767464 31762192 32609027 33391488 34248988
1436.72 35353400 36491576 37414963 38250807 38988452 39563046
1439.61 40107790 40681759 41208761 41633865 42091382 42663612
1442.51 43293993 43945992 44481347 44866145 45318731 45936927
1445.40 46559810 47163927 47856488 48594576 49360647 50170117
1448.29 50860354 51218522 51310545 51336204 51350642 51382823
1451.18 51431451 51336487 51079120 50681142 50135831 49642683
1454.08 49309384 49043986 48807490 48458397 47879049 47530809
1456.97 47600317 47509200 47176676 46846760 46521310 46206769
1459.86 45967308 45943360 46147074 46381985 46622619 46935902
1462.75 47229744 47503991 47714573 47856787 48184915 48692607
1465.65 49149733 49577456 50126299 50823821 51711761 52706228
1468.54 53649678 54533777 55279779 55856231 56330230 56655048
1471.43 56866394 57150805 57451254 57708603 58150133 58689471
1474.33 59189063 59766730 60407538 61175077 62186827 63366314
1477.22 64705968 66218175 67699433 68931308 69807686 70287988
1480.11 70637131 71330197 72585384 74434896 76726234 79004717
1483.00 81043503 82968090 84871495 86796238 88803328 90899200
1485.90 93005020 94999320 96858954 98648153 100263546 101438669
1488.79 102131605 102672846 103340936 104255483 105589191 107241624
1491.68 109051284 110966759 112814236 114421679 115779396 116948685
1494.57 117770248 118051995 117943564 117776148 117568319 117280809
1497.47 117150796 117272690 117782207 118830290 120253360 121517902
1500.36 122123001 122099402 121669638 120627007 118684895 116271017
1503.25 113957659 111898187 110067655 108353190 106931730 105757004
1506.15 104203194 102420112 100800052 98943564 96673921 94205781
1509.04 91574949 88860223 86145960 83400643 80645251 77871600
1511.93 75213616 72775083 70552213 68703665 67282036 66166431
1514.82 65328379 64687026 64034281 63142859 61920444 60612567
1517.72 59396122 58266004 57344987 56595142 55944299 55348023
1520.61 54759842 54403158 54170324 53761675 53345329 53020215
1523.50 52758795 52544134 52312380 52203410 52392243 52711577
1526.39 52988561 53232204 53341072 53160399 52824960 52432367
1529.29 52004286 51679641 51402687 51102513 50799819 50447869
1532.18 49963612 49326811 48620046 47901792 47247389 46642783
1535.07 46079361 45577414 45226678 45024351 44853629 44650592
1537.97 44294507 43909340 43831382 43670670 43242341 42797236
1540.86 42037213 40860496 39725717 38702138 37513220 36220241
1543.75 34854384 33389807 32059630 30955762 29934395 28956304
1546.64 28002998 27074370 26239698 25472264 24726940 24057425
1549.54 23454051 22947906 22539927 22126719 21725698 21361750
1552.43 21030738 20663967 20203163 19852768 19767732 19657897
1555.32 19416257 19202570 18959027 18605588 18270640 17954690
1558.21 17848364 17923561 17721030 17477993 17611190 17800959
1561.11 17740108 17602723 17529976 17539275 17589519 17613288
1564.00 17576520 17568514 17641515 17701755 17801900 18009431
1566.89 18218341 18397530 18590145 18757125 18855862 18972341
1569.79 19183341 19347831 19406458 19425569 19422952 19411707
1572.68 19397531 19380086 19361955 19323911 19198510 18878836
1575.57 18565579 18740821 19224889 19590643 19840796 20044618
1578.46 20190775 20268823 20362262 20547667 20755936 20937111
1581.36 21216619 21649314 22147511 22660194 23206363 23831439
1584.25 24486525 25115125 25713546 26265643 26875037 27687954
1587.14 28616270 29535768 30566271 31746330 32947152 34172069
1590.03 35484226 36899851 38333957 39613750 40674048 41601884
1592.93 42392883 42919832 43150260 43172738 43092198 42986016
1595.82 42990217 43278999 44031552 45436752 47572676 50322586
1598.71 53569375 57225642 60999542 64655966 68177779 71513660
1601.61 74602998 77385746 79807205 81953898 83979894 86082456
1604.50 88350167 90831276 93708031 97170034 101421297 106665447
1607.39 112966698 120182639 127811145 135180628 142012077 148230854
1610.28 153791961 158759971 162977667 166006297 167256374 166369350
1613.18 163586717 159387200 154504725 150082127 147157384 146352885
1616.07 148202188 153256632 161594069 172287766 179843566 173721846
1618.96 153856530 134965099 124807598 121003309 121353515 124058515
1621.85 127367486 130043839 131341129 130962094 128700404 124361643
1624.75 118193471 110652479 102146636 92995143 83498533 73992586
1627.64 64915028 56532566 48881561 42027137 36033830 30822547
1630.53 26340301 22565262 19473259 16946143 14822685 13045292
1633.43 11599918 10417510 9412565 8613152 8211488 8099220
1636.32 7935245 7686655 7482938 7267532 6943518 6612797
1639.21 6334139 6078986 5889616 5763318 5661587 5567435
1642.10 5503563 5440675 5406576 5465764 5570932 5666668
1645.00 5650175 5673574 5986089 6287111 6407425 6544753
1647.89 6715872 6872173 7011459 7103923 7145613 7164636
1650.78 7161010 6950043 6472690 6101910 5960280 6101797
1653.67 6298426 6406579 6671974 6924709 7004583 6946647
1656.57 6761281 6384719 5892548 5561849 5502292 5545188
1659.46 5586298 5655224 5730020 5749147 5670805 5458391
1662.35 5205978 5003392 4793244 4554903 4303572 4011452
1665.25 3668664 3361731 3089940 2781876 2488638 2243033
1668.14 1971299 1675010 1558919 1583938 1536093 1395138
1671.03 1251926 1201651 1183740 1130433 1064310 989591
1673.92 900519 749597 652708 764354 915981 926166
1676.82 867010 834216 772379 696334 671070 625933
1679.71 591071 621768 644583 633840 608827 508937
1682.60 393624 378504 253423-104571-128519 306169
1685.49 590707 642750 613616 574590 554802 546685
1688.39 568079 594386 592568 616271 693742 787094
1691.28 841456 800897 771771 874307 979942 1012177
1694.17 965434 695530 300827 376508 883145 1195305
1697.07 1293843 1351555 1411088 1425979 1218493 944150
1699.96 950239 1203391 1467750 1571422 1529837 1436414
1702.85 1363628 1285834 1212277 1273220 1456110 1572176
1705.74 1604534 1635617 1622370 1535474 1431843 1330237
1708.64 1273486 1268455 1313021 1403778 1469023 1506972
1711.53 1525303 1509508 1516588 1510598 1450322 1343083
1714.42 1193610 1154546 1243285 1265633 1042190 749057
1717.31 842851 1062871 1113382 1169420 1232585 1264897
1720.21 1307555 1314731 1348637 1461759 1557728 1618410
1723.10 1682989 1758557 1865341 2030684 2217708 2391193
1725.99 2536547 2662829 2801234 2953473 3076449 3167462
1728.89 3253566 3324123 3434382 3577967 3652780 3688207
1731.78 3810679 3947463 4021777 4224370 4480845 4800354
1734.67 5372777 5981491 6475734 6912748 7325311 7663746
1737.56 7949527 8225323 8422071 8519356 8696663 9002964
1740.46 9214287 9282912 9309398 9304727 9219982 9053065
1743.35 8839147 8582703 8289055 7943441 7604404 7346330
1746.24 7195606 7207742 7355758 7513951 7745951 8132590
1749.13 8568123 8922835 9068440 9044240 9149878 9371091
1752.03 9398388 9216975 8994777 8771278 8542053 8306555
1754.92 8051557 7813554 7566010 7358176 7261353 7170164
1757.81 7038786 6862901 6674798 6552280 6493774 6406124
1760.71 6277302 6195652 6264521 6423597 6584319 6748732
1763.60 6917903 7112657 7368278 7620811 7710175 7699801
1766.49 7806576 8045329 8313493 8632409 8950430 9210091
1769.38 9424932 9506548 9435625 9293736 9092406 8679356
1772.28 8230765 8019569 7772173 7326737 6881403 6500417
1775.17 6215456 6119321 6182345 6298559 6469376 6805682
1778.06 7313684 7777556 8053347 8134876 8028774 7789698
1780.95 7455107 7061360 6685412 6340709 6017785 5704303
1783.85 5337753 4953387 4666936 4405045 4038957 3639291
1786.74 3319597 3066510 2836242 2617295 2411288 2234748
1789.63 2054067 1824668 1648296 1537148 1358797 1173510
1792.53 1146154 1200652 1189424 1166673 1162022 1114171
1795.42 1061815 1053744 1017463 977346 1013293 1051551
1798.31 1038360 983762 990526 1108465 1185806 1214136
1801.20 1280325 1351053 1435417 1511276 1538523 1552924
1804.10 1583299 1625040 1683264 1742049 1794465 1847716
1806.99 1896201 1959484 2032644 2068721 2069013 2086109
1809.88 2153186 2278275 2403065 2446353 2420229 2375555
1812.77 2336758 2302912 2272545 2270870 2296653 2322349
1815.67 2323432 2359015 2444978 2494759 2501822 2487971
1818.56 2427494 2357859 2317527 2312273 2300962 2221406
1821.45 2158481 2158216 2160872 2134012 2091327 2052218
1824.35 1995016 1982383 2056658 2107224 2112358 2134633
1827.24 2199366 2275391 2314414 2348700 2411703 2507971
1830.13 2657275 2794961 2941453 3141637 3335434 3483895
1833.02 3631687 3825882 4040529 4249939 4459647 4646863
1835.92 4806911 4946639 5078854 5240871 5399476 5524229
1838.81 5658128 5778293 5858351 5947212 6059083 6202462
1841.70 6496208 6948724 7417540 7860888 8413089 9184936
1844.59 10014505 10816823 11658024 12461388 13153046 13745112
1847.49 14212494 14513899 14672542 14723847 14617768 14300953
1850.38 13811724 13255286 12803118 12606965 12669854 13017546
1853.27 13727004 14656360 15329741 15036699 13413394 11182609
1856.17 9635250 9186925 9404023 9907184 10515540 11086809
1859.06 11491334 11682708 11662580 11427065 10988143 10386661
1861.95 9683119 8929661 8153663 7372688 6557105 5724977
1864.84 4962790 4257881 3592201 3049798 2637640 2287448
1867.74 2022809 1799222 1592758 1536848 1563000 1532620
1870.63 1483064 1435467 1381114 1353102 1374725 1382829
1873.52 1357319 1341715 1362910 1376269 1332217 1293576
1876.41 1271877 1242278 1219610 1166836 1103211 1074722
1879.31 1078662 1098925 1086484 1048372 1039953 1066112
1882.20 1102219 1169554 1244519 1224875 1133069 1078904
1885.09 1082983 1081541 1118432 1202119 1238350 1272682
1887.99 1337681 1363082 1367901 1398688 1430179 1444082
1890.88 1432757 1379440 1319103 1278623 1236738 1198515
1893.77 1215285 1292354 1391204 1475431 1523496 1524266
1896.66 1494516 1475316 1472423 1482980 1513142 1531335
1899.56 1545953 1578691 1620156 1671574 1760794 1844478
1902.45 1883533 1895598 1947899 2042939 2097306 2122230
1905.34 2202317 2314421 2430953 2576621 2669582 2684987
1908.23 2738387 2835943 2920854 3029810 3194730 3340458
1911.13 3417269 3508254 3680682 3874495 3995478 4081324
1914.02 4247396 4489239 4711688 4873173 4979972 5038409
1916.91 5088226 5180133 5412011 5732916 6034969 6333327
1919.81 6651771 6994858 7337332 7704144 8113468 8500866
1922.70 8876256 9302819 9761011 10195961 10626063 11095686
1925.59 11560252 11951459 12282736 12592885 12876051 13091136
1928.48 13228285 13256452 13158340 12987295 12710514 12195602
1931.38 11460888 10683216 9996387 9500823 9289797 9306252
1934.27 9294324 9255805 9523919 10221421 11121810 11926383
1937.16 12499065 12746037 12679153 12399893 11965732 11408772
1940.05 10780410 10177110 9588189 8940275 8295356 7690675
1942.95 7084772 6460337 5859518 5310554 4802048 4354566
1945.84 3966358 3591631 3245521 2930688 2632080 2377365
1948.73 2161463 1969982 1788290 1581962 1367681 1181663
1951.63 1043569 902879 744789 634965 586090 522242
1954.52 422334 391553 410911 354897 284707 248177
1957.41 205402 174805 143572 103662 77572 76809
1960.30 72481 27668-40753-70295-21568 56034
1963.20 113408 141177 146655 133662 109726 105780
1966.09 121737 134223 172942 214316 229364 253451
1968.98 254556 210324 168020 157577 144848 150214
1971.87 180012 144210 82439 99932 156454 141173
1974.77 78140 69204 107893 100279 47252 35597
1977.66 75695 73860 39265 18945 15576 42297
1980.55 58307 27136-12315 8446 53349 44818
1983.45 22187 18751-2994-22228-30273-39615
1986.34-44078-69304-78097-59348-83252-86578
1989.23-5732 30987-24629-73895-83566-74467
1992.12-44218-18272-35351-70844-71354-54130
1995.02-38832-9294 31881 54507 32535 479
1997.91 4251 30038 37018-9887-49931-14490
2000.80 15723 7226 4782 18993 16568-30830
2003.69-48203 997 62886 92643 64089 2885
2006.59-77329-174611-176409-67620-1912-24989
2009.48-74720-96294-114870-136536-119238-88327
2012.37-97773-112000-88521-73370-88830-93027
2015.27-85523-68653-55507-94041-109916-47665
2018.16 8224 8419 2599 9761-28092-78315
2021.05-68649-39766-25069-16062-833 22625
2023.94 15489-39809-78722-89469-84281-62052
2026.84-68499-97912-132257-174743-196979-214646
2029.73-223426-217272-237887-236988-206220-210493
2032.62-218435-191251-151227-119646-148520-223157
2035.51-285172-321932-333313-331497-310653-303752
2038.41-333477-333894-310839-332641-342757-329686
2041.30-370193-427704-425075-412820-474268-542456
2044.19-520532-486089-480005-463745-454617-460250
2047.09-460232-423291-396028-443842-508374-532306
2049.98-514468-507583-513272-488632-466221-467345
2052.87-469490-500655-547902-560165-544475-530758
2055.76-532158-523127-488694-460274-438794-428097
2058.66-451010-474084-423633-351945-350785-392278
2061.55-429986-430900-392466-374903-373690-380821
2064.44-380140-311493-233570-220810-215889-200016
2067.33-196973-164181-96847-70819-93791-107142
2070.23-83201-47117-37201-24130 27015 75319
2073.12 67797 30311 16079 15960 7234-55027
2076.01-143572-117016-18916-24525-98394-135790
2078.91-97339-33223-1527 40966 119230 176856
2081.80 144103 93234 113451 99269 15300-43634
2084.69-58749 11773 109962 18992-139402-182080
2087.58-204343-228432-244029-251992-182437-82106
2090.48-125949-242390-252860-185431-145015-171307
2093.37-172926-47981 58008 945-94538-130462
2096.26-97608-16206 80221 177473 331313 425275
2099.15 319716 231728 275314 306868 277813 262703
2102.05 326743 483458 524810 405309 395236 512026
2104.94 623998 665944 631849 663376 736206 620569
2107.83 434336 371890 390308 411838 441348 559648
2110.73 783968 841988 679400 568869 536222 489954
2113.62 417290 359866 468597 633728 506223 213880
2116.51 40993-10269-33532-67412-28854 66430
2119.40-19635-257132-373216-376426-391486-410074
2122.30-335938-154387-76370-196858-306148-358813
2125.19-378516-372832-345457-218722-98575-176771
2128.08-320303-389536-426829-434022-436691-386246
2130.97-246915-257310-387458-412740-387360-368881
2133.87-330772-277983-214974-255849-346377-298104
2136.76-212119-230006-270825-259884-186199-94890
2139.65-70831-92596-104300-93687-97960-124961
2142.55-107807-66325-30359 19530 73039 100132
2145.44 75259 48211 77723 85170 41118 41539
2148.33 42742 13630 26872 124645 267593 285988
2151.22 195944 131153 84724 43265 50181 157332
2154.12 235512 133940 14347-11995 7407 59112
2157.01 140652 250709 249716 109452-6070-19127
2159.90 5613-18393 71765 258409 165157-89819
2162.79-202638-212974-169687-71575 98052 176815
2165.69 31700-128199-194702-216797-216996-110805
2168.58 92958 61155-178914-304255-256822-186152
2171.47-115695 49359 69445-140164-269277-258292
2174.37-217602-161732 16319 138424-43270-248548
2177.26-300577-293193-267542-135993 19054-74485
2180.15-229183-263908-300777-349248-250524-49552
2183.04-65930-218703-282493-312587-338926-267199
2185.94-146468-203072-332151-327605-292427-305191
2188.83-240723-76016-75875-214198-294741-362936
2191.72-364886-252396-123096-156312-309443-380949
2194.61-365962-297188-203186-159661-200986-263897
2197.51-291721-289244-270454-219357-156946-191771
2200.40-257716-255598-248644-209431-111058-103397
2203.29-191808-210651-177504-134164-57148-9791
2206.19-41045-95533-132266-129946-88267-32543
2209.08 3437-1550-10950-45381-63702 16861
2211.97 108005 101466 61459 62892 60816 36969
2214.86 54798 95260 86962 66751 58628 51296
2217.76 55688 46614 22497 9766 15748 45195
2220.65 83062 75561 17076-4924 7219-16865
2223.54-36423-26431-16271-32942-43697-29514
2226.43-53270-99819-121757-112500-117395-177372
2229.33-211488-207535-193013-167936-187064-252215
2232.22-283707-218757-160222-169031-170255-154008
2235.11-129627-118535-121663-134983-182811-244985
2238.01-278922-276369-228718-153168-94156-76635
2240.90-125994-180270-196500-209276-201834-146848
2243.79-121982-142746-131763-92879-72032-103265
2246.68-130219-94325-68217-90176-75241-41710
2249.58-61115-78348-61956-66272-59013-20444
2252.47 1182 36481 100289 130199 120832 151859
2255.36 231577 288549 306547 300328 271444 294206
2258.25 410449 488232 501055 531389 515176 452211
2261.15 456461 511919 551981 555058 513171 491974
2264.04 519807 540083 542729 538804 559508 640094
2266.93 720457 729576 713741 690094 660197 688304
2269.83 725956 743298 787097 821617 810692 791112
2272.72 808120 815258 794502 796925 834344 896375
2275.61 987967 1052547 1073238 1075357 1079057 1142785
2278.50 1208851 1194567 1183539 1284640 1386887 1411230
2281.40 1422958 1433511 1421327 1424536 1446548 1456237
2284.29 1507832 1562563 1559247 1576493 1635487 1706919
2287.18 1778638 1811502 1792117 1771598 1780236 1832715
2290.07 1860396 1872244 1916366 1912805 1871334 1876923
2292.97 1909396 1932810 1890818 1759671 1650442 1550409
2295.86 1398773 1302039 1277396 1221570 1130215 1047776
2298.75 989608 960746 921770 843646 771083 732496
2301.65 703327 650109 595773 574223 584653 602018
2304.54 586977 529993 472480 440046 435310 436134
2307.43 407461 402344 464085 500890 493273 489760
2310.32 549333 588741 540697 503085 515788 544439
2313.22 506116 466144 525962 597472 581855 565095
2316.11 658668 797527 834883 798691 852184 981733
2319.00 988997 956147 1068475 1238382 1263938 1176625
2321.89 1212661 1372984 1391833 1291514 1331607 1470268
2324.79 1438102 1320899 1400522 1565261 1463287 1249723
2327.68 1356398 1570633 1469526 1279159 1410405 1628770
2330.57 1585671 1580085 1846795 1992073 1873407 1926282
2333.47 2208597 2260557 2093525 2178017 2384042 2219186
2336.36 2016535 2217440 2314635 2074707 2041662 2173762
2339.25 2048506 1923424 2065235 2114446 1907233 1846315
2342.14 1943143 1841020 1745651 1850166 1884630 1774344
2345.04 1757399 1842872 1853497 1844670 1884185 1875004
2347.93 1782131 1683233 1657146 1694418 1723411 1734815
2350.82 1751461 1722450 1700630 1730213 1683458 1624998
2353.71 1659938 1582992 1493496 1632474 1685060 1612368
2356.61 1700286 1644202 1533135 1687095 1646312 1520640
2359.50 1620903 1534287 1473814 1572343 1440468 1411045
2362.39 1433835 1301113 1402741 1451671 1345587 1368059
2365.29 1286196 1228802 1241535 1167140 1178500 1139362
2368.18 1093948 1094320 1023302 979680 920863 917247
2371.07 942736 904573 856894 774950 754207 735279
2373.96 668972 639608 664162 687166 678920 661550
2376.86 663817 688768 685165 678758 670567 686924
2379.75 753164 773069 753013 786682 866013 901074
2382.64 882810 912106 964923 984068 979940 975734
2385.53 1008062 1026063 1038869 1112514 1219544 1298727
2388.43 1343597 1373770 1382581 1353173 1319961 1329867
2391.32 1365308 1375232 1361486 1355542 1376326 1396475
2394.21 1375079 1374594 1449226 1514272 1483269 1410573
2397.11 1385318 1412547 1460447 1524297 1559416 1526151
2400.00 1475467 1463732 1471627 1480323 1515738 1539053
2402.89 1496661 1430640 1423342 1449231 1497746 1515816
2405.78 1479071 1502313 1567880 1580555 1576348 1598215
2408.68 1602247 1615902 1673169 1702130 1708679 1724602
2411.57 1733271 1738982 1778792 1834469 1893908 1949969
2414.46 1980770 2012594 2058826 2106631 2141616 2157938
2417.35 2194670 2247571 2278427 2271817 2216173 2133297
2420.25 2110856 2163719 2231152 2243084 2189351 2131032
2423.14 2115872 2085099 2070692 2140220 2198997 2174095
2426.03 2151304 2143824 2123350 2110273 2063632 2007913
2428.93 1964176 1919807 1861949 1795488 1795094 1846806
2431.82 1814659 1716004 1686701 1719995 1710329 1644563
2434.71 1615039 1628296 1650208 1657763 1620708 1588261
2437.60 1587596 1592138 1572521 1558005 1580849 1549102
2440.50 1504987 1539040 1569285 1564345 1547818 1524303
2443.39 1536952 1590120 1617017 1548549 1473103 1506802
2446.28 1559335 1563005 1533862 1486159 1467053 1484798
2449.17 1494502 1501768 1525665 1504226 1462086 1471263
2452.07 1507870 1539746 1537696 1496694 1473195 1503999
2454.96 1532121 1501631 1475640 1489810 1489120 1459958
2457.85 1460192 1460279 1445606 1445396 1423615 1405195
2460.75 1411886 1428015 1432487 1409771 1397974 1400239
2463.64 1404634 1412569 1447857 1493530 1485356 1498896
2466.53 1562852 1572968 1522467 1510932 1565645 1620743
2469.42 1639658 1611392 1569611 1529712 1483049 1460455
2472.32 1451377 1425107 1395746 1402077 1408486 1388950
2475.21 1369207 1381764 1436760 1458135 1402080 1336779
2478.10 1348849 1440925 1535053 1527385 1455277 1404547
2480.99 1401538 1416451 1436968 1455207 1437743 1441957
2483.89 1478359 1462668 1400395 1334468 1276995 1253519
2486.78 1245722 1255691 1297994 1338849 1351058 1341942
2489.67 1352303 1380258 1347366 1287178 1314269 1383408
2492.57 1378269 1302613 1254758 1268237 1312377 1345257
2495.46 1338266 1286472 1223479 1215762 1237057 1274520
2498.35 1341886 1333854 1249819 1226960 1256669 1263064
2501.24 1245974 1202321 1135536 1124277 1179980 1247177
2504.14 1248180 1222832 1239204 1220571 1134417 1046427
2507.03 1011739 1005706 944838 863524 818939 790636
2509.92 779024 777657 771793 763062 771312 772286
2512.81 705730 607967 591705 625630 615347 601563
2515.71 593728 552625 520160 485258 449385 445161
2518.60 473448 461433 398058 372796 392537 424102
2521.49 421685 392066 398292 412700 372179 325153
2524.39 352869 403075 426259 418835 380665 370738
2527.28 382997 392230 470487 586402 682128 752854
2530.17 790353 820429 825296 837176 888005 953018
2533.06 1025854 1055917 1107963 1224944 1274892 1227855
2535.96 1198708 1224732 1262586 1282236 1234366 1205864
2538.85 1291764 1415354 1509509 1538649 1537533 1571959
2541.74 1595621 1534531 1437862 1394227 1367579 1369589
2544.63 1418639 1418341 1392832 1402760 1379530 1339283
2547.53 1316457 1287294 1259350 1240181 1179318 1105865
2550.42 1107279 1062923 919077 792574 680232 586794
2553.31 568309 555161 488550 447452 465720 505975
2556.21 509701 486183 474143 431843 362468 371109
2559.10 417950 393950 376424 388261 389334 414912
2561.99 462510 467338 425182 373194 303080 277468
2564.88 332444 338085 277170 276771 298969 293826
2567.78 304380 315174 314527 283051 280224 350358
2570.67 371549 319262 296337 299963 279560 247027
2573.56 265876 308657 295940 289105 302804 312158
2576.45 315235 280214 263073 270798 208621 151119
2579.35 167298 150157 134185 178349 214754 204462
2582.24 190409 219430 261018 271026 266282 302860
2585.13 359931 368967 334522 337873 389473 426774
2588.03 440853 443480 462490 504838 527795 519138
2590.92 507365 514122 520271 518382 559090 611133
2593.81 532487 412061 419523 488544 552959 590079
2596.70 597041 619957 680489 745222 762062 766122
2599.60 775187 771403 773235 782743 767840 730912
2602.49 704766 708967 698596 647906 600704 593293
2605.38 621320 625841 589491 573995 580245 609633
2608.27 667492 677645 655545 659738 689583 722527
2611.17 742194 731804 695105 653216 630428 639022
2614.06 696665 767323 782869 754739 711030 708553
2616.95 738380 702335 648266 667388 707897 716085
2619.85 719147 783416 855813 873556 887164 896883
2622.74 901730 963494 1054285 1077275 1003915 914382
2625.63 888078 901776 919122 916146 907981 896321
2628.52 878981 838708 835160 917325 968135 949659
2631.42 924332 930767 919293 910380 966749 1018196
2634.31 1017158 1030944 1061997 1086578 1137503 1169872
2637.20 1142363 1109673 1103050 1070522 1016292 975599
2640.09 938144 910564 891983 840195 784448 800965
2642.99 879597 893550 771750 739071 824425 810669
2645.88 743255 687796 616662 594760 633598 668899
2648.77 678664 685052 722729 758685 757578 759916
2651.67 783048 760699 671789 590318 588992 615200
2654.56 576548 489438 440318 403901 332582 293806
2657.45 354714 431194 412932 366654 329491 256373
2660.34 253154 334581 383397 352616 293510 262772
2663.24 265197 242905 146417 71364 53596 93143
2666.13 175837 212337 210147 200375 135052 53408
2669.02 22984 32732 67253 115616 92307 20423
2671.91 24168 20255-22331-10415 41420 117092
2674.81 157289 118791 74935 53114 64211 86050
2677.70 59463-11998-54540-18158 47991 97723
2680.59 145055 176045 135503 80530 46253-7343
2683.49-238 44876 13462-44197-37242 1335
2686.38 35054 66287 117070 160913 147752 79557
2689.27 13807 28712 89159 141465 242958 329356
2692.16 298750 219684 167636 131966 95153 73375
2695.06 53418 42837 84328 66275 45418 152838
2697.95 228948 203922 208961 252242 268351 318890
2700.84 408978 446372 434176 431960 437989 460698
2703.73 527199 605324 611538 561224 588638 652741
2706.63 649013 671506 759907 824020 833371 815759
2709.52 843515 933367 1012435 1030026 1005659 1022505
2712.41 1068033 1078851 1086872 1150237 1249319 1294244
2715.31 1255065 1253014 1331566 1401986 1463826 1548783
2718.20 1614629 1636671 1673220 1779726 1807897 1745840
2721.09 1807694 1916696 1951800 2054565 2226541 2333496
2723.98 2426880 2556918 2683996 2801244 2957308 3171094
2726.88 3371590 3575485 3843044 4133799 4461931 4838902
2729.77 5231745 5643278 6107784 6697729 7305383 7877644
2732.66 8523918 9160274 9783682 10492158 11163655 11726146
2735.55 12219734 12637367 12972029 13201986 13230422 13083769
2738.45 12887195 12747276 12705915 12805510 13125584 13931751
2741.34 15477791 17160052 17447894 15780792 13764849 12930432
2744.23 13177401 13898124 14785718 15618561 16222993 16588639
2747.13 16757088 16760437 16559238 16114671 15467744 14627317
2750.02 13658746 12627657 11556253 10530418 9593072 8723814
2752.91 7948156 7258562 6598491 6029548 5674311 5443448
2755.80 5151909 4787819 4440443 4164088 3951169 3724377
2758.70 3519081 3361665 3228149 3145507 3050739 2935992
2761.59 2822152 2707456 2620728 2524107 2411616 2345680
2764.48 2320966 2311062 2304159 2277049 2193353 2097794
2767.37 2057337 1991485 1900091 1926284 1986549 1995740
2770.27 2028144 2041610 2005037 1968317 1937744 1901587
2773.16 1855439 1817618 1812614 1845510 1875303 1873654
2776.05 1918744 1966438 1953204 1949512 1941371 1951292
2778.95 1998221 1976759 1958098 1949770 1916563 1955427
2781.84 2038801 2067785 2034378 2025560 2067809 2084715
2784.73 2113315 2175047 2188442 2183174 2159900 2182602
2787.62 2292209 2353406 2369457 2398306 2473276 2568331
2790.52 2595705 2620916 2687654 2711652 2695139 2678497
2793.41 2706354 2801101 2904060 2935174 2932569 3003627
2796.30 3115000 3137795 3105926 3151462 3244287 3349322
2799.19 3406998 3393118 3436641 3520063 3537483 3527987
2802.09 3557638 3646608 3734699 3777275 3826454 3919310
2804.98 4031208 4105006 4145497 4192786 4198729 4233428
2807.87 4391921 4565206 4627975 4637353 4732133 4840840
2810.77 4846783 4929151 5125968 5279016 5395328 5468636
2813.66 5515040 5590609 5710826 5834972 5907241 6015224
2816.55 6212333 6347413 6365666 6440037 6634251 6836589
2819.44 6988186 7122065 7267613 7389814 7495664 7723830
2822.34 7955216 8034016 8120027 8262691 8439477 8603240
2825.23 8709274 8895417 9166776 9339997 9422196 9572329
2828.12 9802712 10009662 10191406 10393313 10554056 10611141
2831.01 10658757 10791744 10962349 11121748 11285968 11484137
2833.91 11719162 11932419 12124773 12320270 12506197 12729016
2836.80 12985915 13254479 13533197 13804499 14075993 14343034
2839.69 14649275 15002061 15301034 15592365 15957779 16351789
2842.59 16804223 17295344 17718211 18160977 18683106 19241094
2845.48 19835095 20367852 20894956 21539310 22260574 23058908
2848.37 23825591 24465936 25154121 26019001 26944725 27890382
2851.26 28936108 30037609 31165332 32340622 33572588 34887896
2854.16 36254686 37625371 39008985 40454990 42069311 43829284
2857.05 45674945 47527136 49287832 51119129 53201121 55446692
2859.94 57717738 60042435 62412121 64787812 67288058 69908333
2862.83 72544197 75253454 78090813 80977973 83916853 86973589
2865.73 90077664 93105889 96038969 98958516 101866375 104722471
2868.62 107496136 110163840 112727405 115194859 117526469 119628942
2871.51 121509983 123318026 125055123 126627524 127988575 129157829
2874.41 130183100 131037370 131738871 132358039 132941150 133414184
2877.30 133623635 133711030 133806754 133883551 133901542 133783364
2880.19 133542322 133177968 132688575 132111660 131393941 130559485
2883.08 129681689 128680470 127401578 125912132 124420730 122928015
2885.98 121335914 119646704 117928538 116207822 114504695 112815749
2888.87 111175099 109698678 108390873 107134112 105927336 104795008
2891.76 103779584 103014835 102443093 101889704 101448016 101159193
2894.65 100912932 100727388 100638370 100648678 100716331 100856447
2897.55 101126272 101515038 101932056 102247355 102586373 103032781
2900.44 103592479 104401192 105360685 106379746 107380427 108303084
2903.33 109284243 110336422 111403103 112468997 113504691 114529589
2906.23 115608473 116753261 117919263 119093786 120196781 121237399
2909.12 122385049 123596119 124761853 126005779 127420926 128940093
2912.01 130575360 132386872 134403301 136604796 138856818 141131223
2914.90 143491490 146071858 148946670 151955350 154985461 158197271
2917.80 161695819 165392679 169248799 173265140 177500225 181918191
2920.69 186298462 190644758 195082537 199574824 204068836 208607613
2923.58 213249143 217879957 222372136 226799025 231112097 235267878
2926.47 239248755 242923724 246349960 249680650 252896069 255997306
2929.37 259050063 262069096 265060002 267881935 270577548 273152646
2932.26 275292495 277039884 278688928 280179543 281429080 282504797
2935.15 283352896 283879567 283835296 283034797 281494709 279427684
2938.05 277246364 275199901 273298239 271441697 269498195 267517279
2940.94 265551607 263523623 261438483 259368356 257382514 255426457
2943.83 253287120 250469551 246049928 239314112 230647239 221243529
2946.72 212126208 203641129 195757332 188465381 181868875 176157447
2949.62 171237431 166787656 162810349 159467927 156809655 154861399
2952.51 153383963 151606819 148427779 143500840 137755549 132355508
2955.40 127852784 124251648 121387534 119057432 117110813 115514447
2958.29 114219495 113189692 112283040 111391523 110443842 109178349
2961.19 107566984 105947965 104356592 102598075 100669075 98717049
2964.08 96888395 95115508 93306669 91440474 89546494 87665396
2966.97 85825974 84119042 82494844 80875792 79401390 78138110
2969.87 76984898 76026300 75331473 74757399 74289366 74047723
2972.76 74008082 74150886 74526240 75005389 75463583 75981170
2975.65 76557673 77132441 77727216 78332857 78898850 79524913
2978.54 80425627 81627567 82984062 84463884 86135236 87922100
2981.44 89733115 91548427 93282199 94766106 95914112 96720510
2984.33 97086177 97029887 96700900 96282055 96078601 96218852
2987.22 96754443 97790769 99237283 100983939 102864453 104510768
2990.11 105714173 106486983 107037630 107639231 108382735 109321737
2993.01 110536150 112086257 113866715 115625175 117277201 118846868
2995.90 120182896 121067618 121655478 122226395 122780977 123252510
2998.79 123776112 124492609 125486090 126764537 128297107 130176912
3001.69 132442914 135011720 137778317 140675907 143693955 146721663
3004.58 149471457 151804608 153720084 155240978 156375362 157262802
3007.47 158212761 159515068 161286716 163497452 166120987 169126782
3010.36 172501558 176198536 180004725 183787820 187455618 190697818
3013.26 193130160 194720780 195912610 196997260 198125552 199393093
3016.15 200774263 202359997 204385927 206947072 210025661 213638002
3019.04 217685579 221951275 226266286 230438270 234208669 237289779
3021.93 239691526 241737808 243694530 245567982 247291812 248950287
3024.83 250535313 252069441 253801491 255894552 258301738 260800768
3027.72 262848124 263977855 264194330 263811718 263407453 263403055
3030.61 263793272 264464427 265291694 266080328 266688344 266890735
3033.51 266536735 265641408 264125895 261994866 259310577 256191746
3036.40 252733300 248960249 245065727 241360383 238141843 235262816
3039.29 232519784 230052579 227699959 225022539 221791685 218098658
3042.18 214342771 210840675 207740757 205325363 203620269 202306883
3045.08 201114304 199897821 198380828 196387681 193939037 190952743
3047.97 187463729 183669090 179760155 175925954 172118072 168333237
3050.86 164893110 161789369 158902629 156435425 154320427 152486887
3053.75 151021301 149798801 148772705 148046770 147527378 147098926
3056.65 146719587 146345238 146041714 145758728 145347741 144771960
3059.54 143936475 142697391 140980337 138917656 136661135 134198528
3062.43 131842969 130033842 128897092 128523296 128777223 129279794
3065.33 129993053 131106679 132590369 134131266 135273996 135702956
3068.22 135223941 133753884 131398954 128309074 124754727 120976901
3071.11 116997784 112936394 108951432 104944780 100918162 96965711
3074.00 93038096 89168361 85421974 81828669 78433015 75217228
3076.90 72099513 69029640 66123315 63470286 60920144 58392812
3079.79 56035603 53898828 51947704 50148577 48393994 46749804
3082.68 45456343 44404415 43269739 42002404 40893854 40003764
3085.57 39108183 38233068 37494477 36852200 36254457 35785376
3088.47 35426562 34941242 34340744 33782271 33199742 32519013
3091.36 31882918 31329496 30720422 30131165 29674806 29316976
3094.25 28954996 28580788 28251414 27938048 27620056 27249089
3097.15 26897657 26672746 26522926 26396239 26263215 26140994
3100.04 26014383 25829639 25626218 25440825 25243746 24988939
3102.93 24723729 24494928 24283807 24133702 24034090 23901333
3105.82 23694478 23502241 23468979 23492870 23408137 23309698
3108.72 23309215 23333331 23260853 23203408 23245831 23212740
3111.61 23036136 22911636 22899905 22855136 22714516 22565124
3114.50 22447809 22321703 22045800 21605082 21206503 20853497
3117.39 20399215 19907857 19518371 19281062 19020757 18577301
3120.29 18118462 17829185 17715603 17556952 17250060 16903356
3123.18 16543123 16180611 15845608 15509573 15103739 14617784
3126.07 14060541 13476671 12932501 12375101 11722957 11058303
3128.97 10457904 9884640 9354262 8830229 8234151 7710099
3131.86 7320085 6945521 6604980 6344851 6025474 5649202
3134.75 5367532 5137038 4872436 4618321 4357158 4081389
3137.64 3835777 3567933 3352915 3197843 3103781 3090042
3140.54 2991139 2801241 2678024 2576962 2403845 2265025
3143.43 2202926 2158882 2133859 2054306 1905268 1808324
3146.32 1798064 1763031 1737894 1744481 1662311 1553539
3149.21 1544146 1537492 1477903 1424040 1372741 1337266
3152.11 1273578 1209032 1226352 1275356 1237282 1166120
3155.00 1199155 1211489 1159464 1144971 1132754 1154087
3157.89 1189125 1133610 1065922 1044604 1008110 958206
3160.79 947007 988302 994631 950255 916230 833747
3163.68 762189 789718 818682 789955 798970 813268
3166.57 736766 696015 786866 828564 762286 699814
3169.46 709178 693946 599928 623006 781004 848047
3172.36 792953 756030 779897 793081 716523 597911
3175.25 488324 434847 465452 562235 668232 715277
3178.14 720733 719606 698616 662401 675735 678739
3181.03 667309 754411 815799 740185 631749 597532
3183.93 610184 592791 538488 508877 568731 625425
3186.82 619014 628178 607922 543659 504713 485697
3189.71 470275 481737 513711 513101 461385 411719
3192.61 410176 435645 477545 524298 608785 643165
3195.50 543691 489798 542907 564828 539547 499894
3198.39 427716 361062 299846 257603 269829 345500
3201.28 404762 345389 255130 320191 440919 425149
3204.18 362140 351345 319915 219588 166510 197022
3207.07 256554 334848 381809 382455 356376 348549
3209.96 369023 409400 493961 541075 455640 340113
3212.85 344488 438689 420947 332641 261240 179194
3215.75 146889 89441 10186 17963 28951 8538
3218.64 19171 59176 30752-48767-80484-79670
3221.53-101761-175374-242095-274294-375048-479223
3224.43-449366-395859-416110-451705-544107-606065
3227.32-571191-523520-455744-429233-485217-481050
3230.21-343272-222095-230290-334373-443933-486552
3233.10-530530-642072-766012-837932-788952-703611
3236.00-753752-789282-628714-445027-378843-378031
3238.89-371738-393123-500733-540218-447540-383318
3241.78-421768-483168-473222-407276-346700-354983
3244.67-395332-362645-264204-186157-247837-375334
3247.57-401525-312259-203964-201815-284035-318003
3250.46-283760-240908-162537-4884 102136 63725
3253.35 30488 37676 4940-12413 50754 125295
3256.25 157772 214984 292141 342234 361295 390638
3259.14 408605 350852 255154 210609 302598 402854
3262.03 364245 316077 300384 270234 282704 320886
3264.92 333224 340322 388327 490331 498732 386740
3267.82 373210 502584 564559 479883 425612 369772
3270.71 235808 208064 274813 311765 323306 269912
3273.60 184422 199620 269281 248211 139243 75257
3276.49 87640 147931 226160 247271 224561 183355
3279.39 124520 66930 51013 63179 21885-66598
3282.28-107351-84618-71295-50717-3054 52465
3285.17 96807 56990 25101 59831 35501 27021
3288.07 54977 44446 23569 13279 8104-12583
3290.96-20494-6605 16233 80345 101011 59875
3293.85 69745 88048 70903 62021 78799 73538
3296.74 54953 105379 103103-34195-78261 55507
3299.64 131755 61474 17864 27242 48704 27728
3302.53-91343-139220 5366 158057 128094 26183
3305.42 874-4808-32526-44797-34617-3015
3308.31-4354-52256-82112-75072-55401 33389
3311.21 112266 21829-50015-1570 37760 4117
3314.10-77184-124647-111353-76034-84545-106915
3316.99-98879-74627-82351-86248-55153-62451
3319.89-89816-95736-56116 23849 35120-4309
3322.78-45440-41607-19223-117503-210059-178336
3325.67-126838-87123-58961-82089-91839-25728
3328.56-54173-163007-137364-36652 52495 58423
3331.46 16358 7276-4294 24148 8371-79704
3334.35-91076-71867-72447-45299 39970 97216
3337.24 57910-40456-148176-163778-75893 24484
3340.13 93085 83699 50761 100796 153590 91525
3343.03 694-65018-137806-148179-55613 32899
3345.92 34527 37122 46662 72604 110044 64147
3348.81 2379 43875 102480 77685-4337-90419
3351.71-128171-146353-85065 32753-38666-162272
3354.60-147729-106491-37548 653-36972-54793
3357.49-12546-27574-66749-70569-132443-168143
3360.38-162703-153129-63870-31852-140054-190020
3363.28-111939-101722-195425-229236-223563-257474
3366.17-254515-129502-58622-108223-135883-106243
3369.06-98721-140255-114519 69087 237680 238519
3371.95 122324 32196 52905 95221 33560-82639
3374.85-90187-14821 54535 82652 31912-25190
3377.74 35410 160122 209189 147905 77909 95933
3380.63 160008 224839 201885 71384-4285 42105
3383.53 148832 246202 305737 354682 358584 244087
3386.42 119630 174176 337673 396124 278539 177591
3389.31 285048 447968 457446 398201 354068 307714
3392.20 258117 198492 136536 201450 368864 508954
3395.10 592764 672219 729488 686012 553524 412726
3397.99 318032 335425 476348 450175 218370 125404
3400.88 183405 269940 368593 423099 433581 460071
3403.77 469950 459088 454860 418439 349836 267074
3406.67 229135 284932 380282 438378 399839 345612
3409.56 365828 429266 409645 330507 326466 465680
3412.45 560766 404890 178792 123773 234532 332978
3415.35 337817 341271 439016 493142 495637 530685
3418.24 445674 335150 341796 416313 482224 544583
3421.13 595198 583267 517551 474509 496355 514025
3424.02 420259 332313 440585 539031 484176 395267
3426.92 318021 300289 375967 457082 475832 490177
3429.81 539821 531258 406209 307833 287415 329731
3432.70 390112 474119 574611 591085 513841 411501
3435.59 372777 355561 325548 345907 359371 330811
3438.49 327466 343466 374558 454219 494850 479175
3441.38 465366 462258 398761 286828 288311 381115
3444.27 349353 219080 257455 391354 383682 309361
3447.17 390872 522896 518599 453719 425307 475151
3450.06 419911 341420 462388 551836 502475 445511
3452.95 356881 369429 495344 506046 473287 491024
3455.84 418241 329119 383306 509174 594995 611050
3458.74 553928 494568 463547 405283 336779 290672
3461.63 316162 393834 382880 309202 359038 471814
3464.52 482889 394048 288394 309657 466051 526764
3467.41 441324 421663 476662 488282 492862 521324
3470.31 500122 427822 388023 409174 413570 352760
3473.20 276946 222911 180990 191687 203491 150801
3476.09 82039 57561 136727 196400 132769 5022
3478.99-97605-23504 58558-141-9917 55850
3481.88 106848 88803 47370 21097-38197-70894
3484.77-90420-161390-226786-209929-165786-163550
3487.66-236792-330132-340815-299142-265971-196646
3490.56-147488-205102-249196-215146-257498-378402
3493.45-442209-398214-365016-334053-214399-147756
3496.34-220610-319731-353770-299840-211063-170283
3499.23-235278-344988-347463-237549-249284-378369
3502.13-404691-372835-368623-447468-508480-468840
3505.02-482190-445103-306870-229529-268734-347456
3507.91-326642-278989-290839-298548-332168-345246
3510.81-303762-263292-319956-458225-449712-355869
3513.70-370888-401305-403712-388574-312853-225772
3516.59-204094-232009-229796-218739-279854-350443
3519.48-397414-448941-407733-304658-215552-183977
3522.38-248899-291106-358830-406688-339831-216753
3525.27-128341-194062-317915-365063-326103-224224
3528.16-154577-198838-247922-238858-180808-103078
3531.05-134085-159081-94204-46159-49115-82662
3533.95-88839-104766-136952-135332-97464-17824
3536.84 71128 114601 66389 9745 48780 140408
3539.73 177314 197581 253392 267242 210148 116250
3542.63 84677 134352 228779 355393 418553 433116
3545.52 452069 494783 498660 471057 486448 492806
3548.41 477288 523365 647931 738193 677023 542874
3551.30 460888 447775 501198 578309 622191 578496
3554.20 530721 550276 550485 534861 517863 489928
3557.09 515295 589054 594032 496982 441145 428188
3559.98 397877 403274 432620 489569 534694 543700
3562.87 500341 390363 264709 247093 367413 437638
3565.77 424184 421567 352865 156527 16146 84543
3568.66 224659 219786 136286 91925 91684 143451
3571.55 222755 273356 245415 161624 107920 154352
3574.45 219764 207225 157223 129153 123219 117024
3577.34 106584 118054 129027 114963 116581 111076
3580.23 51911 45709 83558 75799 61412 44353
3583.12 29864 65338 135822 167989 113426 5848
3586.02-135098-217466-200221-168331-175080-165891
3588.91-101856-51224-71538-141158-216794-276799
3591.80-313674-305925-239511-150421-131180-236507
3594.69-285818-160342-80739-172508-247384-209311
3597.59-213897-310000-330707-308421-336063-345039
3600.48-374051-363909-247467-156457-202847-333599
3603.37-444024-439160-341207-295749-279811-303346
3606.27-346545-349641-370466-433913-545064-609613
3609.16-483169-269993-158672-165920-224931-321215
3612.05-408964-385866-310606-363283-485591-452781
3614.94-331387-287339-261988-217180-243955-287513
3617.84-291345-358040-519367-559492-385232-226648
3620.73-228550-306946-342004-308389-271312-242318
3623.62-190884-212453-295273-296811-274136-297237
3626.51-332612-334131-382582-497776-542664-547055
3629.41-439110-276989-291547-368143-366816-333316
3632.30-312714-305042-278038-232159-171046-123247
3635.19-175051-284559-324703-317561-304363-292228
3638.09-349263-405967-352812-243347-174056-166025
3640.98-238655-338490-378358-378129-329344-271208
3643.87-230483-202224-209158-208743-264839-383183
3646.76-460947-397406-298300-416944-632238-600192
3649.66-421898-352490-346490-290117-246612-285132
3652.55-351248-370374-387314-437321-401822-375473
3655.44-501700-531593-323397-197246-237103-230869
3658.33-170354-194419-299162-367540-393504-396487
3661.23-382738-378611-312514-268358-372353-427279
3664.12-337981-285675-296497-339469-375200-369113
3667.01-334021-280468-296326-350092-336747-421927
3669.91-715934-748630-390855-187731-166308-138102
3672.80-168427-281470-455186-642360-754231-798680
3675.69-707490-472283-333181-311499-270842-208968
3678.58-202178-275125-336555-305124-246950-220000
3681.48-205594-216828-241354-254201-300634-375584
3684.37-412292-382067-299990-172026-127283-273395
3687.26-533637-800704-769498-484827-370665-397234
3690.15-403328-381741-297080-178698-153394-250696
3693.05-388469-400525-228283-88564-99173-187391
3695.94-313185-401304-369654-246647-205131-257961
3698.83-240638-136378-95315-137737-232043-283818
3701.73-179550-48367-20087-64736-68134-36759
3704.62-104524-195631-168791-82784-77071-159861
3707.51-184907-180422-334956-500217-432730-290546
3710.40-198360-201177-364411-399910-173688-16543
3713.30-53720-102405-103037-125900-178845-230809
3716.19-198324-95916-55295-59810-77801-133664
3719.08-172064-99431 29154 43568-35157-131644
3721.97-166477-87924-66240-150982-158798-70687
3724.87 10604 83613 93453 100587 139754 179663
3727.76 197999 100222 51749 162490 283414 335062
3730.65 275944 144475 101919 217504 336926 379031
3733.55 369985 269011 156134 218177 298924 198459
3736.44 201574 390877 468387 490797 551643 559059
3739.33 535933 563493 590270 518829 449486 524194
3742.22 582287 519761 335492-57500-267756 80024
3745.12 496542 674476 745995 739071 681206 604940
3748.01 457896 184251 30962 218843 425761 495650
3750.90 417411 131946 37223 347698 639130 738025
3753.79 768154 759538 758731 768175 694436 643128
3756.69 752512 831893 709217 551650 447267 377668
3759.58 418055 592080 744691 785086 738820 749143
3762.47 851777 879946 828409 775245 732537 734397
3765.37 791230 853589 886481 918474 929337 890908
3768.26 862007 783077 654067 701888 847883 915288
3771.15 967390 956245 884864 837664 781755 778953
3774.04 842724 878975 902855 901351 898621 877315
3776.94 787670 751124 818438 835786 695709 622956
3779.83 700700 798230 868519 890423 902919 909974
3782.72 846784 782968 768231 758594 751629 733603
3785.61 705839 655412 597424 520280 480929 523062
3788.51 500952 390918 374399 465311 528310 531743
3791.40 519145 534545 589562 569379 495307 479711
3794.29 517453 509367 363932 191223 179924 252255
3797.19 315050 383077 374385 300074 203583 136029
3800.08 29534-221024-305993-94581 52978 124173
3802.97 203894 248389 256247 189896 135987 209657
3805.86 205293 20365 34076 291607 367166 208932
3808.76 99484 182435 296876 303077 210882 131056
3811.65 95637 33946 11694 122371 230092 212266
3814.54 131283-50949-291437-170346 210991 373302
3817.43 374826 385186 382113 350764 289385 180601
3820.33 98441 76088 74267 192046 341170 401723
3823.22 407294 394253 435173 525841 589503 543318
3826.11 393349 341436 422849 473506 515994 609601
3829.01 628115 524003 416418 362582 315691 365434
3831.90 520599 617790 621822 546631 443657 416747
3834.79 477922 542455 565350 563919 393689 89805
3837.68 73427 332183 522919 564536 496059 416840
3840.58 416019 464903 519123 601990 594021 499123
3843.47 481550 558314 646873 619860 575717 629893
3846.36 591790 524566 553459 539247 530162 572942
3849.25 551988 512463 468122 366411 187662 84984
3852.15 189008 177090-183005-475063-291495 127298
3855.04 361065 397234 418223 446541 513073 534872
3857.93 398612 325669 410674 492443 493661 398747
3860.83 187897 76718 177195 286945 392286 449217
3863.72 339459 166221 75148 176615 334999 393097
3866.61 424322 459250 466247 470501 398290 211345
3869.50 41795 117463 297572 384349 463881 520696
3872.40 518033 526683 510363 465053 500020 600112
3875.29 660542 653993 661792 684506 694445 700048
3878.18 715078 772496 762823 640053 591808 636752
3881.07 743006 895167 961049 891776 832775 860215
3883.97 915053 902609 734899 629581 740537 896486
3886.86 972111 1015349 1017693 957692 934119 966875
3889.75 949249 872710 842336 926522 1077785 1182163
3892.65 1196787 1181960 1191138 1185707 1157487 1174871
3895.54 1217100 1236557 1266568 1275873 1267033 1289016
3898.43 1207356 1120337 1205854 1292018 1295158 1296834
3901.32 1289359 1315913 1398884 1443347 1400693 1373298
3904.22 1444365 1495538 1498181 1600821 1768154 1825394
3907.11 1768912 1674878 1644691 1694056 1685089 1678871
3910.00 1784626 1848283 1808514 1774054 1772676 1821498
3912.89 1908755 1945516 1929702 1949910 1997711 2025534
3915.79 2025704 1981089 1902001 1894718 1875417 1807418
3918.68 1837211 1859386 1793400 1762855 1799466 1837555
3921.57 1908932 2023513 1990795 1821302 1735276 1778644
3924.47 1830997 1875289 1971964 1996847 1905415 1767467
3927.36 1596435 1523835 1615845 1732921 1721640 1667370
3930.25 1662015 1618884 1585977 1560693 1495580 1493345
3933.14 1528231 1526460 1537752 1598337 1609723 1560325
3936.04 1580307 1573147 1488189 1486070 1567302 1599736
3938.93 1541686 1473290 1456610 1515739 1550149 1503267
3941.82 1486715 1564678 1651613 1653409 1573375 1481362
3944.71 1489848 1531730 1483221 1426221 1428539 1439966
3947.61 1376977 1417626 1587330 1617369 1521406 1484921
3950.50 1517209 1550642 1544848 1480217 1395494 1350934
3953.39 1380716 1444584 1472429 1464921 1492841 1526329
3956.29 1420324 1295378 1402109 1546260 1525408 1529631
3959.18 1579680 1576683 1553918 1544372 1598664 1657594
3962.07 1624774 1554865 1563969 1601820 1596015 1665886
3964.96 1781839 1854358 1829262 1686339 1624361 1693834
3967.86 1708101 1670448 1653204 1661106 1698367 1708725
3970.75 1669301 1686933 1679369 1548902 1530593 1705750
3973.64 1790119 1706016
##END=
