##TITLE=Vinyl Acetate
##JCAMP-DX=4.24
##DATA TYPE=INFRARED SPECTRUM
##CLASS=IUPAC A
##ORIGIN=NIST, Anayltical Chemistry Division, 301-975-3108
##OWNER=COPYRIGHT (C) 1998 by the U.S. Secretary of Commerce
##DATE=98/10/1
##$SPECTRA VERSION=1.00
##$UNCERTAINTY IN Y=2.1 % relative (B=1.1E-04,C=7.7E-10,D=2.7E-14)
##CAS NAME=Ethenyl Ester-Acetic Acid
##CAS REGISTRY NO=108-05-4
##MOLFORM=C H3 C O2 C H: C H2
##MP=-93.2 C
##BP=72.2 C
##$NIST SOURCE=QUANT-IR
##SPECTROMETER/DATA SYSTEM=IFS66V (Bruker)
##INSTRUMENT PARAMETERS=KBr Beam splitter; MCT Detector; Multipass cell
##STATE=gas
##SAMPLE DESCRIPTION=Vinyl Acetate Primary Gas Standard
##PRESSURE=101.3 kPa
##TEMPERATURE=23 C
##SAMPLING PROCEDURE=1 L/min Flow
##RESOLUTION=1.9290
##DATA PROCESSING=Happ Genzel Apodization
##XUNITS=cm-1
##YUNITS=(micromol/mol)-1m-1 (base 10)
##XFACTOR=1.0
##YFACTOR=18.189E-13
##DELTAX=0.9645
##FIRSTX=574.687
##LASTX=3974.595
##FIRSTY=.0000105
##MAXX=3973.63
##MINX=574.69
##MAXY=.0027626
##MINY=-1.10E-06
##NPOINTS=3527
##XYDATA=(X++(Y..Y))
574.69 5816912 6350632 6987440 7527136 7901882 8431028
579.51 9034472 9568450 10036660 10499520 10999080 11452410
585.29 12403280 14069600 15107280 15713350 16943590 18749250
591.08 20327870 20639340 20278910 19532360 18480440 17490540
596.86 16794970 16196390 15897950 15794090 15838020 15936100
602.65 16077150 16265160 16542300 16808670 17160780 17561540
608.44 17892750 18164700 18451210 18692600 18879320 18923180
614.22 18952170 18944100 18831970 18777100 18814320 18866060
620.01 19081790 19452560 19946680 20554370 21354870 22233210
625.79 23096720 23905740 24625190 25090780 25360880 25310810
631.58 24905480 24243330 23605400 23162180 23004630 23179160
637.36 23441990 23156130 22854020 22870360 22960910 22933970
643.15 22656330 22182500 21508600 20572130 19550930 18457100
648.93 17361800 16253790 15199540 14141520 13176990 12262380
654.72 11452740 10734460 10038120 9309334 8617186 7931762
660.50 7298236 6688470 6135710 5609662 5102946 4626132
666.29 4247122 3896284 3591960 3303190 3078844 2919226
672.08 2813974 2681424 2609974 2565864 2534456 2554888
677.86 2624670 2674894 2741076 2806886 2926548 3026534
683.65 3173632 3316628 3473826 3627320 3776682 3920420
689.43 4098606 4260464 4438346 4656372 4896666 5061846
695.22 5225108 5412862 5686302 5854890 5778532 5708990
701.00 5712224 5737354 5840106 5908318 5910876 5929002
706.79 5963056 5962716 6035410 6150152 6323866 6531328
712.57 6655986 6638638 6621072 6559638 6380812 6142818
718.36 5878426 5586938 5279268 5008080 4834514 4696198
724.14 4607028 4522968 4414018 4263696 4153212 4047852
729.93 3963082 3874796 3792400 3693886 3618726 3544210
735.71 3455878 3360544 3295206 3224382 3164684 3092462
741.50 3076776 3079590 3083300 3051662 3059064 3084258
747.29 3119274 3153370 3202794 3227594 3266508 3284626
753.07 3321604 3358678 3430076 3478180 3530778 3564034
758.86 3646086 3754004 3858448 3937978 4050288 4144950
764.64 4260162 4389938 4557112 4697214 4827792 4937664
770.43 5075514 5180846 5286142 5350910 5396712 5419848
776.21 5439970 5412238 5376614 5325406 5307580 5295728
782.00 5300438 5278640 5263380 5231254 5212178 5171918
787.78 5146486 5092234 5043696 5002230 4960984 4902936
793.57 4882034 4881852 4909740 4920014 4936826 4931526
799.35 4987964 5043734 5104646 5175636 5265170 5322878
805.14 5417760 5504702 5623384 5743684 5914370 6110378
810.93 6371150 6642142 6937608 7244906 7577694 7892882
816.71 8269980 8654628 9077706 9498068 10001610 10550600
822.50 11202780 11885760 12703600 13588990 14561160 15631540
828.28 16836800 18156670 19723300 21455110 23410550 25594280
834.07 28049530 30753270 33716840 36701910 39645100 42355580
839.85 44716110 46518630 47812860 48657810 49546170 51166540
845.64 53387070 55164940 56882140 59251120 62643960 66846000
851.42 71457260 76044820 80294210 83763630 86247210 87484650
857.21 87746650 87288970 86538240 85651900 84796660 83931500
862.99 83616740 84145960 86341260 90453980 97276340 110487600
868.78 136425400 158785800 157361100 143905600 130526900 119044700
874.57 108530000 99765800 93460970 89341250 86676100 84773580
880.35 83067900 81436330 79655950 77674030 75431630 72854020
886.14 69790420 66376610 62616630 58664240 54660450 50561530
891.92 46392710 42183910 38089020 34230370 30616470 27245370
897.71 24184710 21425590 18970370 16799180 14909960 13288190
903.49 11898860 10710300 9742368 8921852 8291566 7816192
909.28 7480858 7253576 7163760 7164102 7294534 7533328
915.06 7904796 8380082 8981046 9666752 10493280 11433840
920.85 12542920 13779030 15188990 16734670 18476740 20354080
926.63 22423770 24606210 26918570 29258210 31634500 33947610
932.42 36195980 38296820 40285630 42100520 43853430 45603620
938.21 47575680 49768990 52267390 54958460 57882550 60859840
943.99 63688000 65954130 67831430 69124380 70076680 70940060
949.78 71991840 73238690 75346460 78173010 81939340 84943410
955.56 85717650 83252320 76902060 66563090 58992660 57740220
961.35 58314810 59606490 61068660 62663120 64303360 65953080
967.13 67154590 67824140 67662400 66573480 64580660 62122230
972.92 59756800 58352250 58031240 57118840 55246350 53713010
978.70 52790160 53493160 55291380 56959940 57519780 56746950
984.49 54744590 51785600 48188950 44615730 41481160 38979880
990.27 37188680 36145900 35832420 36187960 37075230 38485720
996.06 40350450 42600600 45243990 48307720 51815750 55805250
1001.85 60302040 65347050 71021300 77360730 84335490 91958800
1007.63 100411700 109652200 119556800 129968100 140803100 151577500
1013.42 161918000 171307900 179348900 185499300 189526900 191336400
1019.20 191400100 190098700 188841600 188441000 187925600 188132700
1024.99 190096200 184608900 175077900 172567400 172019200 169109400
1030.77 163305100 154351700 142775500 129701800 115883700 102228200
1036.56 89529220 78680310 69600740 62222650 56291400 51705140
1042.34 48091920 45333490 43236710 41902770 41340660 41650840
1048.13 41410030 39849500 38536950 37791360 37120250 36493670
1053.91 35878310 35336690 34901590 34562740 34240880 33959500
1059.70 33715150 33504680 33274150 33053030 32767290 32452820
1065.48 32114310 31728280 31270740 30828770 30353690 29867400
1071.27 29358700 28901620 28439710 28001150 27523900 27022040
1077.06 26496800 26003790 25484530 24989970 24505780 23999650
1082.84 23451200 22894880 22329380 21800580 21283690 20821030
1088.63 20338220 19873010 19430840 19001360 18543490 18111410
1094.41 17694100 17330840 17016110 16762650 16536920 16360980
1100.20 16224490 16147310 16087130 16080810 16120000 16202150
1105.98 16294280 16420940 16569440 16771010 16973260 17249280
1111.77 17588990 18007550 18498230 19088140 19797860 20715910
1117.55 21832500 23197300 24823670 26770300 29051440 31838470
1123.34 35106290 39126820 44248610 50940310 59844310 71900120
1129.12 88110830 109480300 136516200 169214100 207438600 251765100
1134.91 301438800 353933600 405293400 451054600 486337500 507518400
1140.70 512303700 501264400 480662500 462594900 459837800 478367300
1146.48 507376100 522455000 507404400 482043300 481120000 507782300
1152.27 535432700 540234200 517756300 472237200 411259500 342681400
1158.05 274809600 213139300 161009200 119626000 88740370 66701160
1163.84 51723670 41832220 35553970 31547150 29100810 27518800
1169.62 26596690 26007630 25783920 25755540 26038750 26501280
1175.41 27127150 27837320 28827830 30026410 31543950 33211750
1181.19 35153850 37303770 39770420 42370000 45207160 48166980
1186.98 51316640 54559780 58095700 61866880 66211080 71320820
1192.76 77697580 85635000 95790150 108290900 122728800 139171500
1198.55 159761300 185354900 215556100 249958500 289088900 333115700
1204.34 382656800 438273300 500789500 570849500 648890400 734890600
1210.12 829389700 931297700 1037825000 1144171000 1246185000 1337482000
1215.91 1412626000 1468349000 1502643000 1514764000 1509800000 1498013000
1221.69 1486975000 1488780000 1515870000 1518788000 1463656000 1413139000
1227.48 1404594000 1421428000 1427347000 1397516000 1321106000 1201683000
1233.26 1053344000 894181100 738901600 599361000 482016900 389042900
1239.05 318786500 267868700 231805400 206715000 188864600 175536000
1244.83 164525700 154865300 145891400 137858000 131113900 126865400
1250.62 125301500 123752300 118480900 111636900 107685700 107353500
1256.40 108502000 108888700 106869400 101998300 94665690 85755080
1262.19 76182800 66959510 58616430 51585860 45825950 41283390
1267.98 37757930 35133110 33130130 31630870 30529470 29936340
1273.76 29752880 29954370 30480120 31501290 33168390 35659670
1279.55 38970230 43179680 48278340 54317340 61106820 68379500
1285.33 75647250 82238890 87403820 90925590 92590210 92814980
1291.12 92464220 92823250 94088530 94828220 95066100 94708220
1296.90 94123380 93890000 93867450 93883880 93429240 92010100
1302.69 89017380 84249470 77861780 70372600 62328100 54291720
1308.47 46700480 39893380 33975400 29004730 24883380 21558400
1314.26 18868740 16706120 14938720 13533170 12364710 11425210
1320.04 10618520 9938500 9354074 8877178 8442216 8098088
1325.83 7787250 7539814 7309498 7145568 7003172 6917836
1331.61 6845374 6811106 6777598 6788998 6809902 6885436
1337.40 6963186 7108388 7296232 7577822 7925670 8367484
1343.19 8839914 9432600 10152250 11025080 12028620 13251130
1348.97 14664120 16347660 18348180 20781050 23661360 27158130
1354.76 31371000 36450820 42471010 49733540 58354410 68457760
1360.54 80017300 92997200 107037600 121749100 136475500 150685700
1366.33 163594400 174411900 182810800 189134400 193715000 199315500
1372.11 209301100 219562100 220435700 217988100 220818100 228174900
1377.90 237354300 244565000 246688400 242691200 233259700 219532100
1383.68 203272800 185864000 169021600 154183000 140414200 126731200
1389.47 113573000 101554900 91423170 82914870 75238950 67917030
1395.25 60881690 54106780 47764540 41962890 36866380 32428420
1401.04 28590740 25328120 22644120 20488790 18863330 17621240
1406.83 16672840 15981100 15518530 15215610 15064590 15027750
1412.61 15088010 15201770 15348870 15518840 15721540 15876050
1418.40 16003990 16299810 16597400 16814060 17034880 17305850
1424.18 17698480 18162650 18706960 19328830 20033960 20773510
1429.97 21347810 21670180 21894110 22057680 22164810 22040500
1435.75 21658400 21261360 20763020 20257440 19866100 19609230
1441.54 19573430 19679060 19825350 19955800 19966280 19821400
1447.32 19590290 19314280 18963190 18574820 18158830 17713780
1453.11 17279030 16872030 16353280 15875220 15676560 15408600
1458.89 15034400 14585390 14171740 13816310 13469980 13137850
1464.68 12948260 12802170 12633750 12487280 12357120 12214330
1470.47 12025260 11879990 11802560 11762020 11673230 11510060
1476.25 11429530 11351820 11244870 11102870 10944740 10783000
1482.04 10647190 10521730 10389760 10230720 10063530 9930670
1487.82 9798308 9603896 9462652 9372360 9277122 9156872
1493.61 9047480 8867968 8743556 8755822 8673090 8605446
1499.39 8603298 8565768 8516454 8429516 8313992 8086370
1505.18 7910552 7871774 7981026 8033568 8027728 8003826
1510.96 7939930 7897298 7876454 7804470 7730888 7628198
1516.75 7579540 7556104 7440216 7204782 7073172 7091314
1522.53 7085062 7003866 6877740 6832586 6785064 6713548
1528.32 6662046 6603524 6521514 6424506 6295344 6222060
1534.11 6236464 6206190 6149594 5977940 5741814 5710874
1539.89 5810652 5829232 5915088 6033098 6057550 6147142
1545.68 6314452 6446812 6584334 6721728 6911372 7144674
1551.46 7364306 7514364 7657950 7963818 8224628 8305194
1557.25 8359292 8568180 8799610 9150056 9441548 9583850
1563.03 9694720 9741228 9824186 9932154 10143220 10232830
1568.82 10181620 10326520 10560360 10787080 11024490 11208990
1574.60 11207380 11300400 11619690 11758530 11820720 11854630
1580.39 11891900 11902750 11917510 11933210 12007810 12081470
1586.17 12153700 12184070 12221440 12231200 12257540 12280720
1591.96 12317370 12333250 12363500 12388540 12424790 12435310
1597.74 12465220 12471970 12506930 12578840 12731180 12930510
1603.53 13187740 13413470 13666580 13963280 14302490 14626050
1609.32 15035580 15501980 16063260 16664750 17279310 17898100
1615.10 18521950 19221150 20128950 20896710 21593660 22148730
1620.89 22636190 23037520 23581850 24286770 25030400 25533340
1626.67 26013640 27022620 28811360 31169390 33851460 36669740
1632.46 40450160 45583460 52337910 61148980 72259820 85812020
1638.24 102220900 121305900 143021600 166621400 191168800 214718400
1644.03 234271900 246527400 251574700 247989600 237332900 225823600
1649.81 225526300 247723000 279788400 274159500 233686700 217487300
1655.60 234769600 262681900 284018400 290954400 281407100 257830100
1661.38 224658300 187676000 151250500 118512400 91363150 70346580
1667.17 54783110 43742870 36084630 30736130 26787240 23841850
1672.96 21408570 19335310 17633590 16293370 15026710 13935410
1678.74 12951520 12154880 11461130 10842620 10215700 9662554
1684.53 9471336 9465040 9270888 9144696 9046128 9020636
1690.31 9011910 9052566 9019112 8918208 8550482 8256220
1696.10 8276354 8267154 8176980 8059744 8077374 8045676
1701.88 7793280 7626242 7614394 7689294 7706110 7692968
1707.67 7548058 7334302 7074824 6840496 6611118 6451666
1713.45 6322162 6316590 6344366 6315488 6446254 6611810
1719.24 6679600 6777654 6940070 7202352 7536826 7942238
1725.02 8372070 8855852 9399104 10017570 10670160 11411510
1730.81 12150540 12744830 13230070 13783950 14329620 14699880
1736.60 14934960 15270560 15829330 16820130 18044130 19581000
1742.38 21747420 24413910 27178330 29921990 32698150 35605220
1748.17 38738150 42261250 46301700 51171400 56927980 63584980
1753.95 71214230 79774180 89284030 99875620 111474200 124191000
1759.74 138231900 153839700 171357600 190789800 212255300 236259900
1765.52 263522700 294650500 330319900 370684800 414683500 462518200
1771.31 513863000 567746700 620588500 666853700 702749000 724071400
1777.09 727010700 709830300 674226400 626947600 581083200 549705100
1782.88 530717800 519306900 538978100 605213400 692862400 766317800
1788.66 805243300 806177700 775811000 723964900 660644300 593176300
1794.45 526222100 463822100 407847800 358985300 316816100 280865400
1800.24 250319100 223980600 200443600 178493900 157839800 139064600
1806.02 122281400 107052900 93004380 80158760 68668800 58716490
1811.81 50167660 42846910 36574120 31301260 26907930 23336290
1817.59 20468850 18199750 16399670 15026870 13969130 13207030
1823.38 12655690 12249190 11937070 11724810 11601960 11522820
1829.16 11457570 11432140 11337390 11171890 10945530 10703710
1834.95 10452700 10223600 10032940 9916918 9856240 9878274
1840.73 9943654 10057210 10151040 10348780 10662940 10949830
1846.52 11210040 11486890 11748720 11985010 12211090 12457100
1852.30 12727230 13021330 13317420 13628550 13939900 14269950
1858.09 14594160 14907120 15181610 15424290 15617540 15754820
1863.88 15811240 15788620 15686470 15546320 15392120 15300300
1869.66 15204950 15039270 14786290 14473960 14183930 13974110
1875.45 13796820 13563620 13220240 12764550 12189670 11546030
1881.23 10871740 10224950 9639832 9151902 8760318 8463812
1887.02 8241700 8077090 7969682 7944892 7943238 7948902
1892.80 7968616 8003702 8052796 8091836 8073002 8048446
1898.59 8003064 7919580 7788148 7598302 7391584 7218810
1904.37 7050470 6831466 6551228 6396222 6319166 6045364
1910.16 5715934 5558754 5404086 5193914 4917570 4581388
1915.94 4195924 3820872 3515738 3253984 3008860 2814438
1921.73 2654570 2550602 2472698 2413280 2371054 2353630
1927.51 2342030 2343004 2343592 2356654 2364738 2385898
1933.30 2414272 2453310 2496914 2548222 2594720 2652890
1939.09 2702888 2749444 2775944 2810420 2843580 2853286
1944.87 2848932 2846230 2831914 2822034 2820510 2819440
1950.66 2829168 2870292 2916056 2962792 2997098 3023446
1956.44 3031040 3028340 3000348 2956880 2895580 2829324
1962.23 2765520 2706058 2650718 2615320 2583518 2575566
1968.01 2581648 2598956 2639890 2706256 2794624 2917392
1973.80 3060848 3241750 3462308 3717522 4011286 4355994
1979.58 4736972 5150852 5572000 5992298 6377552 6713338
1985.37 6971552 7138744 7197542 7177272 7124640 7126714
1991.15 7269046 7555602 7765148 7665764 7404782 7361966
1996.94 7541390 7746882 7823972 7701956 7347636 6812738
2002.73 6159480 5481816 4847072 4303606 3868978 3549158
2008.51 3325488 3178338 3080306 3021020 2977054 2952796
2014.30 2938072 2934062 2925028 2920530 2924058 2946266
2020.08 2970942 2963992 2921498 2894742 2890424 2895864
2025.87 2905988 2923552 2932750 2942672 2960174 2980046
2031.65 2996864 3025836 3070156 3136784 3219556 3313352
2037.44 3419308 3560060 3729240 3932036 4179668 4470342
2043.22 4786720 5136032 5527362 5969068 6461566 7006004
2049.01 7585728 8211468 8880246 9581658 10314170 11060560
2054.79 11778230 12463490 13091020 13659360 14153450 14547250
2060.58 14830270 15033740 15176820 15341970 15548600 15621410
2066.37 15465940 15291130 15208480 15137810 14971630 14652650
2072.15 14141810 13435450 12560030 11575330 10524720 9479000
2077.94 8498204 7610256 6825720 6151936 5587820 5127938
2083.72 4749760 4439160 4186986 3991588 3825480 3689512
2089.51 3564730 3467806 3386344 3308974 3228114 3168010
2095.29 3123008 3086762 3055330 3037740 3047294 3062754
2101.08 3075366 3097586 3143870 3213590 3281566 3351250
2106.86 3432502 3525710 3602698 3666736 3729046 3812366
2112.65 3876828 3918748 3935422 3958088 3960578 3931394
2118.43 3884784 3875100 3893906 3934320 3975912 3976234
2124.22 3950676 3937356 3947382 3970850 3957410 3864696
2130.01 3689170 3463856 3214842 2957486 2705662 2504182
2135.79 2353092 2241760 2172806 2144566 2134896 2137024
2141.58 2156940 2187868 2222580 2257502 2283498 2311660
2147.36 2337198 2354888 2365560 2378026 2396230 2416048
2153.15 2424012 2449302 2484824 2504938 2516702 2547782
2158.93 2584546 2609032 2623992 2655308 2677430 2665038
2164.72 2637188 2632702 2619760 2581514 2553902 2554478
2170.50 2541184 2511520 2511306 2508982 2439184 2373994
2176.29 2343708 2310928 2241252 2161230 2081784 1974320
2182.07 1849222 1746306 1656006 1566870 1496712 1455468
2187.86 1413402 1370562 1351762 1346790 1321780 1293196
2193.64 1269536 1236174 1196602 1176722 1152972 1123074
2199.43 1101162 1100086 1102172 1111230 1130706 1159052
2205.22 1187110 1226680 1278582 1338676 1400820 1465956
2211.00 1539256 1624510 1699260 1765150 1837698 1918660
2216.79 1994154 2070176 2155610 2241546 2306448 2368046
2222.57 2430936 2502422 2585758 2655474 2696188 2714212
2228.36 2715314 2694176 2664810 2631460 2588242 2545788
2234.14 2501748 2455820 2403894 2348952 2283204 2215560
2239.93 2153532 2095918 2032456 1969998 1905854 1848330
2245.71 1791636 1739186 1694692 1664988 1629096 1584492
2251.50 1542824 1496244 1440224 1387334 1337892 1296142
2257.28 1259938 1238876 1225090 1220534 1230580 1253382
2263.07 1288302 1333908 1392932 1478578 1580468 1698128
2268.86 1834190 2009808 2227700 2484866 2777558 3105576
2274.64 3472748 3873142 4290238 4703096 5098650 5450532
2280.43 5740448 5973798 6121154 6185910 6200440 6180610
2286.21 6148894 6148854 6188862 6240286 6286834 6293790
2292.00 6222926 6161272 6090718 5927220 5666842 5302098
2297.78 4809652 4217988 3591998 2978106 2416682 1941708
2303.57 1571000 1286756 1083660 945010 841964 767736
2309.35 720218 691060 666228 646446 634108 631946
2315.14 630440 639832 636318 631832 631940 644464
2320.92 659366 671716 680824 701036 725044 753692
2326.71 785332 825132 865430 914602 967168 1024466
2332.50 1092114 1171198 1244192 1320508 1399006 1475868
2338.28 1550504 1621554 1679204 1722014 1763544 1806890
2344.07 1837440 1861362 1886914 1922126 1963538 2024110
2349.85 2095536 2164062 2229436 2290092 2327686 2346698
2355.64 2342442 2309390 2270246 2222770 2171076 2123074
2361.42 2082608 2052894 2022676 1985638 1946178 1913010
2367.21 1871844 1834270 1796972 1761786 1733238 1705134
2372.99 1668206 1612564 1547380 1495942 1460470 1423522
2378.78 1370122 1298314 1215310 1134316 1058308 985558
2384.56 923312 883258 856848 842606 836914 841728
2390.35 863576 882580 900032 922048 937108 966690
2396.14 1004768 1037828 1073878 1113784 1148276 1187814
2401.92 1238516 1287258 1334150 1380048 1430936 1491682
2407.71 1549180 1604230 1663696 1731856 1809610 1888710
2413.49 1971434 2068602 2181930 2302822 2423210 2529630
2419.28 2626168 2740684 2869330 2998792 3141026 3302564
2425.06 3462824 3629314 3802448 3974732 4145364 4313604
2430.85 4461706 4575102 4658278 4706900 4709002 4676002
2436.63 4624068 4570860 4542048 4533452 4510458 4413674
2442.42 4282602 4194574 4132696 4055634 3938856 3779778
2448.20 3568174 3313532 3029864 2745936 2484322 2244792
2453.99 2025408 1843838 1700174 1582252 1476658 1383376
2459.77 1311780 1258954 1211180 1159474 1111316 1077990
2465.56 1053252 1020746 998384 983352 961470 941010
2471.35 930600 925644 915240 900320 883920 865716
2477.13 850628 835962 827422 829400 841342 858626
2482.92 884414 915958 946184 978198 1004522 1005944
2488.70 1001582 1008664 1011446 1022736 1049302 1068650
2494.49 1060760 1030976 1020726 1029928 1041590 1056740
2500.27 1051858 1017806 967628 907400 842158 769098
2506.06 697280 640404 595618 547996 509430 486088
2511.84 468094 456562 450514 442062 434614 425138
2517.63 413608 401678 395802 392276 383202 373476
2523.41 364308 349068 335226 323478 311182 292718
2529.20 274530 257126 249698 247896 233158 213422
2534.99 209476 206838 190280 176464 176068 176796
2540.77 168814 157202 159602 159700 148820 143446
2546.56 142366 136954 135164 138208 139464 138456
2552.34 138664 141536 147354 151994 145524 135138
2558.13 132352 138594 140380 140742 142114 150218
2563.91 164510 174430 190274 212968 237896 266820
2569.70 299908 337932 380516 423170 466126 509326
2575.48 553496 597154 650876 705602 757844 795062
2581.27 832734 876686 919630 955142 990772 1033846
2587.05 1072318 1086772 1088198 1090056 1083808 1074632
2592.84 1058356 1041954 1031996 1013578 987146 959772
2598.63 939848 929902 900738 856564 817512 787236
2604.41 750340 704524 666682 634482 606734 590044
2610.20 586676 591170 610216 635468 668734 716124
2615.98 764460 812932 860042 908748 961440 1002538
2621.77 1036148 1065110 1084802 1094294 1106774 1119636
2627.55 1127636 1137084 1152546 1160208 1166564 1167904
2633.34 1178378 1193694 1195526 1182838 1151994 1090316
2639.12 1015082 934290 849832 768528 694754 630886
2644.91 575722 535304 513572 502044 489822 483864
2650.69 479226 470266 476238 482228 481590 488456
2656.48 503848 517342 521736 531362 554334 569572
2662.27 582018 594168 608420 622008 636734 641502
2668.05 651928 653816 639998 635970 640866 636490
2673.84 629602 621712 607840 591488 574790 561340
2679.62 550246 528176 500444 479602 450958 417128
2685.41 383576 353092 336068 321618 301512 282284
2691.19 272210 260630 253102 248864 234834 220542
2696.98 219320 217806 210550 202584 196826 199050
2702.76 202516 202226 206076 205142 201020 211014
2708.55 218962 213328 207114 204826 206208 215198
2714.33 224078 223124 223636 228448 237584 243116
2720.12 244050 241280 247286 259368 265996 270320
2725.91 279212 301536 322576 326560 335998 361640
2731.69 392912 431994 473440 510082 557078 616292
2737.48 677902 741094 812620 886638 979408 1075738
2743.26 1170978 1273666 1377274 1466362 1541952 1602170
2749.05 1654440 1688396 1693536 1674720 1645542 1610144
2754.83 1564830 1522258 1510568 1537010 1590380 1668324
2760.62 1754044 1815326 1842256 1817878 1739916 1620870
2766.40 1496390 1359076 1214380 1091022 991766 901224
2772.19 814950 741856 682318 636420 610062 591178
2777.97 579572 578930 589864 597734 604250 617942
2783.76 646078 673116 696090 724926 739280 734488
2789.54 735568 735802 738376 754024 779144 807430
2795.33 821612 838166 862228 876706 883588 884388
2801.12 875026 852208 805402 739554 678604 618958
2806.90 553788 493388 437210 407500 403270 395410
2812.69 382710 379434 380102 379374 380650 385788
2818.47 392688 384050 370058 362154 372708 379732
2824.26 381860 384026 394102 402496 410362 419786
2830.04 425172 433456 447380 448438 453446 468502
2835.83 490884 514824 536678 556696 581798 621010
2841.61 668464 715050 753772 801240 865898 927894
2847.40 980408 1030626 1075862 1117416 1160166 1198694
2853.18 1219666 1228988 1248094 1273856 1284386 1288734
2858.97 1293148 1302904 1318632 1331822 1337252 1326038
2864.76 1312526 1301138 1287924 1249862 1202132 1161872
2870.54 1113314 1072702 1030332 973358 921578 875724
2876.33 850756 819168 785442 757514 731874 720134
2882.11 714202 696112 673892 655986 640074 629262
2887.90 623202 624854 631464 624306 612694 609556
2893.68 618334 623018 625648 631374 626312 627906
2899.47 642938 642648 636238 634614 643926 651724
2905.25 652114 655640 655618 658592 676848 690346
2911.04 704356 716624 715704 724170 738496 756596
2916.82 772464 785516 809654 838306 881560 922422
2922.61 971630 1026528 1076124 1129990 1199282 1277822
2928.40 1372518 1474414 1585672 1716504 1859680 1996654
2934.18 2156448 2345930 2566112 2815846 3086666 3376326
2939.97 3693118 4031530 4390214 4726756 5029146 5287576
2945.75 5483682 5611682 5672636 5691548 5719924 5771832
2951.54 5862552 5955240 6055962 6205432 6402954 6608502
2957.32 6796012 6913476 6946016 6885992 6778250 6639254
2963.11 6426740 6189358 5951688 5733128 5540882 5386780
2968.89 5249422 5139196 5058414 4999044 4958310 4935982
2974.68 4907312 4888670 4895464 4919740 4943252 4963234
2980.46 4998366 5047612 5095892 5155630 5235264 5316876
2986.25 5399562 5493984 5578784 5677566 5849894 6111492
2992.04 6477828 6840322 6904928 6767094 6679304 6603048
2997.82 6529134 6485790 6483508 6462574 6415734 6343048
3003.61 6276810 6231296 6233424 6242016 6218730 6179322
3009.39 6167926 6206368 6272842 6331852 6369284 6391356
3015.18 6414680 6479472 6601274 6744338 6923294 7137974
3020.96 7378032 7636252 7898738 8167568 8426278 8663302
3026.75 8879974 9061888 9216402 9330372 9425882 9531304
3032.53 9670498 9888120 10070520 10079270 10074650 10156330
3038.32 10299260 10432250 10549740 10651900 10724120 10777560
3044.10 10849050 10958110 11104350 11286590 11492580 11678870
3049.89 11839540 11976920 12102430 12183840 12202690 12185090
3055.67 12190560 12259220 12388110 12521160 12574010 12551180
3061.46 12551950 12635210 12744530 12848570 12898480 12804880
3067.25 12586990 12264390 11875950 11440000 10984800 10566150
3073.03 10211860 9911098 9684074 9494910 9352848 9284042
3078.82 9285778 9329880 9470014 9713936 10076950 10568950
3084.60 11224990 12068890 13147590 14488950 16083650 17871210
3090.39 19779430 21670130 23439930 24872160 25780490 26008690
3096.17 25521240 24472530 23425060 23105620 24050860 25759370
3101.96 25850770 23148510 21291960 22352980 24405890 25893630
3107.74 26244540 25395390 23555230 21107180 18433080 15870660
3113.53 13649510 11932460 10769010 10153620 10043330 10371210
3119.31 11004200 11809090 12697500 13543350 14160600 14424050
3125.10 14266710 13706470 12879360 12188040 12105190 12515510
3130.89 12346570 11659810 11485170 12061390 12991550 13792510
3136.67 14203760 14104080 13503890 12501990 11273570 9946570
3142.46 8650318 7465494 6419168 5515522 4779944 4191512
3148.24 3717662 3333034 3018926 2734118 2487182 2275768
3154.03 2093146 1935588 1800196 1667004 1543352 1433586
3159.81 1338050 1268156 1201274 1130374 1072362 1011796
3165.60 961494 922590 880822 829892 784570 746612
3171.38 720440 692892 677602 665016 664960 650646
3177.17 633294 620138 600378 585136 576270 573370
3182.95 574900 569916 557344 545790 539020 540316
3188.74 536392 535342 550752 557984 564856 567146
3194.53 570752 571300 559410 532912 510848 503512
3200.31 492654 472818 459410 434586 414568 412536
3206.10 410346 400634 388578 365996 349624 340574
3211.88 329088 307366 300744 306744 300944 293618
3217.67 276022 257144 245394 230276 222322 209378
3223.45 198512 181820 167146 157846 155082 140158
3229.24 126778 112972 104422 109006 102298 90872
3235.02 71808 67992 73238 56930 36328 33118
3240.81 31196 25608 16686 11820 25080 19302
3246.59 1906-3564-1928-8846-770 5946
3252.38 7894 14902 23312 17040 14296 4464
3258.17-6664-4754-5144-6348-2198-6102
3263.95-6886-17266-20078-15490-27044-31600
3269.74-22524-31592-41446-44560-40394-29844
3275.52-46466-78586-83704-79928-73542-59466
3281.31-49676-48582-38902-26558-22544-23692
3287.09 1516 13112 1296 8982 32590 32142
3292.88 34350 29954 27018 29402 40252 39436
3298.66 34656 32394 31396 30344 37478 21322
3304.45-2528-27626-63076-95458-129328-154344
3310.23-157334-172252-195518-223058-235982-251144
3316.02-280924-300864-281512-258388-251764-259768
3321.80-273580-263698-242908-246258-245444-221128
3327.59-200946-191194-156558-131748-124482-114530
3333.38-94674-89102-72064-58608-51618-38040
3339.16-17404-9894-7392-6852 344 11548
3344.95 23134 28216 21598 17610 15134 8906
3350.73 1076-28006-38498-40408-36630-39786
3356.52-62686-70894-72770-78516-79072-73552
3362.30-72244-95612-99950-88026-79666-83460
3368.09-81276-73230-69500-71218-82494-77020
3373.87-68894-64350-51228-39206-27958-20770
3379.66-15438-28736-39810-32100-13492-13094
3385.44-13398-13382-9586-20296-21780-728
3391.23-726-4154 6222-8790-33456-46248
3397.02-33724-36964-51254-64738-60228-53484
3402.80-68030-84018-99962-101696-88082-82538
3408.59-86852-87046-83708-84874-76374-75648
3414.37-56696-54060-55854-61826-37948-34012
3420.16-61620-62498-44418-34530-31708-34404
3425.94-27056-12818-14416-22668-24240-19740
3431.73-9706-13368-15188-12476-11534-11580
3437.51-17012-20892-5048-13138-14704-2132
3443.30 21070 34790 42064 37590 36108 31908
3449.08 29972 52162 80060 95560 103370 109812
3454.87 127562 132798 126908 111388 112612 106302
3460.66 89612 87788 85108 91298 101654 89258
3466.44 93032 103716 105954 97912 99980 102814
3472.23 108290 63968 30900 28330 22314-1920
3478.01-3592-9646-27140-34228-29892-26664
3483.80-60768-82122-72244-74280-84674-90392
3489.58-89938-87872-80552-69600-72488-78102
3495.37-78908-74696-54752-39448-30778-30012
3501.15-18200-15382-21258-11340 29974 63320
3506.94 86850 114664 155542 199956 239288 295850
3512.72 347444 406432 481616 553946 629804 727844
3518.51 858102 978428 1104890 1242050 1398944 1592856
3524.30 1794216 2009476 2259850 2550552 2868164 3222838
3530.08 3605392 4008874 4471536 4970078 5490502 6018784
3535.87 6568008 7094814 7567922 7965534 8266178 8446948
3541.65 8487984 8382516 8182500 7931268 7666792 7477996
3547.44 7379214 7388792 7636486 8129924 8748960 9289180
3553.22 9575222 9502002 9068352 8397560 7609684 6793620
3559.01 5969034 5212432 4555386 3968302 3492864 3079788
3564.79 2672156 2328194 2040990 1803744 1591634 1351974
3570.58 1130344 933584 778152 623890 476896 350174
3576.36 245950 172002 101780 32652 1654-21306
3582.15-47916-66828-92744-159888-200682-201488
3587.94-202950-175456-171214-180956-199496-208008
3593.72-220304-229188-217936-228694-234932-248328
3599.51-269056-273522-276896-294022-292240-293926
3605.29-329016-352664-361762-405088-357056-332102
3611.08-365818-360324-341720-360068-343938-347612
3616.86-365238-389364-408150-342808-313434-310768
3622.65-298418-291772-284628-285118-338434-449206
3628.43-474690-353886-253500-250646-257492-261572
3634.22-250828-239658-243386-258282-240570-213480
3640.00-205706-216498-226344-220796-213318-233946
3645.79-277972-297624-373314-404254-329694-293384
3651.57-241454-233912-233044-288880-324040-255556
3657.36-201322-209980-218496-221384-210578-202556
3663.15-191300-195938-203972-214390-258532-308778
3668.93-359560-410800-290190-229874-256926-372314
3674.72-454250-365512-251608-252654-260718-243468
3680.50-220180-232536-240022-255872-247684-243544
3686.29-315058-488348-421184-314486-339436-307170
3692.07-265886-260326-261974-267310-264744-261962
3697.86-257848-259114-276932-306478-275728-263950
3703.64-267318-266736-255778-252394-293612-338594
3709.43-299824-349606-394632-286948-235238-240820
3715.21-239806-251620-257424-251442-235944-249552
3721.00-288042-270320-236912-242762-267274-289938
3726.79-257492-234944-220308-240378-331188-360752
3732.57-286550-321522-342074-378662-332172-274344
3738.36-252622-253462-258738-262260-352080-609208
3744.14-573224-312848-249446-306470-476108-468362
3749.93-352478-495966-453640-286840-256674-267784
3755.71-278926-259806-263238-299432-278874-239792
3761.50-227808-234054-252774-272608-252160-225750
3767.28-233522-282974-303890-254986-227150-218378
3773.07-224960-228458-230790-234802-222582-255532
3778.85-282598-245560-227820-236440-252568-260372
3784.64-250896-236726-230016-225448-236868-236562
3790.43-218276-213638-218030-228604-249154-266544
3796.21-255602-238780-241560-295590-448410-419886
3802.00-273074-220136-194208-254148-380656-334974
3807.78-222890-211348-204054-203160-189038-205198
3813.57-231788-370046-395450-236870-197106-216144
3819.35-283402-342990-288006-202590-176562-177230
3825.14-200930-206274-178400-166912-167836-212290
3830.92-241068-190500-188354-231090-196618-241628
3836.71-401096-308454-179224-199994-181790-158586
3842.49-188914-180528-140312-136090-143362-141940
3848.28-132652-148222-255220-365182-375918-538498
3854.07-385764-165134-144690-135806-125316-129454
3859.85-144136-173140-154696-149210-211942-190688
3865.64-118276-115208-149512-265954-265288-143748
3871.42-100342-124830-143772-108532-91652-99782
3877.21-80974-97762-137544-112774-78790-70652
3882.99-66804-134680-182980-106088-42390-29778
3888.78-37760-92340-104236-37678-18304-17856
3894.56-10678-6522-19114-63134-96416-41182
3900.35-50988-65598-47460-78140-42284-6372
3906.13 40656 55678 43232 34888 46556 46310
3911.92 49628 61928 60830 53388 32210 24754
3917.70 60354 71596 70372 73184 74042 63802
3923.49 58046 58202 68240 67476 66846 64332
3929.28 62310 63894 56036 60380 74340 71774
3935.06 88250 98806 94368 85056 83948 82152
3940.85 82632 58302 75822 102306 111178 109432
3946.63 108640 118354 115508 119688 147486 154474
3952.42 173276 191110 199350 225204 242394 237392
3958.20 247376 256750 274684 304096 345286 374410
3963.99 395604 424526 475260 501118 514928 539106
3969.77 559404 566124 582260 599982 621322
##END=
