##TITLE=Toluene
##JCAMP-DX=4.24
##DATA TYPE=INFRARED SPECTRUM
##CLASS=IUPAC A
##ORIGIN=NIST, Anayltical Chemistry Division, 301-975-3108
##OWNER=COPYRIGHT (C) 1998 by the U.S. Secretary of Commerce
##DATE=98/10/1
##$SPECTRA VERSION=1.00
##$UNCERTAINTY IN Y=2.4 % relative (B=1.4E-04,C=2.2E-09,D=2.7E-14)
##CAS NAME=Toluene
##CAS REGISTRY NO=108-88-3
##MOLFORM=C H3 C6 H5
##MP=-95 C
##BP=110.6 C
##$NIST SOURCE=QUANT-IR
##SPECTROMETER/DATA SYSTEM=IFS66V (Bruker)
##INSTRUMENT PARAMETERS=KBr Beam splitter; MCT Detector; Multipass cell
##STATE=gas
##SAMPLE DESCRIPTION=Toluene Primary Gas Standard
##PRESSURE=101.3 kPa
##TEMPERATURE=23 C
##SAMPLING PROCEDURE=1 L/min Flow
##RESOLUTION=0.9640
##DATA PROCESSING=3-Term B-H Apodization
##XUNITS=cm-1
##YUNITS=(micromol/mol)-1m-1 (base 10)
##XFACTOR=1.0
##YFACTOR=4.5474E-13
##DELTAX=0.4820
##FIRSTX=575.169
##LASTX=3975.077
##FIRSTY=2.57E-07
##MAXX=3974.59
##MINX=575.17
##MAXY=.0007133
##MINY=-4.24E-07
##NPOINTS=7053
##XYDATA=(X++(Y..Y))
575.17 566312 694868 454040 481194 539730 71244
577.58-497008-610388-427516-39678 13076-420972
580.47-430850-11810-143526-567678-785234-805900
583.37-778854-698336-447062-213358-151070-54840
586.26-446256-934544-547122-19236 117980 428248
589.15 791032 581198 157604 146934-72980-439182
592.04-256752 69760 50076 139240 105760-181750
594.94-186198-35338-30932 280466 643420 447812
597.83 96114 135394 124136 79896 177944 152844
600.72-177296-362158-173276-17014 117028 412686
603.61 502940 357036 240440 208170 203980 227638
606.51 324202 405480 311658 324696 419048 562004
609.40 805632 874298 680360 443604 336524 418142
612.29 438962 453154 383722 399774 552690 706584
615.18 802712 767784 665690 778920 981130 1002294
618.08 810034 540436 433318 612164 648666 558094
620.97 577682 591846 440108 305186 293020 521844
623.86 653556 431480 258340 564954 1094558 1603682
626.76 1924786 2060878 2247546 2502554 2618688 2747522
629.65 2792020 2739510 2790600 2905678 2723978 2303188
632.54 1826368 1624650 1656108 1742580 1811422 1801480
635.43 1665128 1648158 1800806 1964764 1937844 1789354
638.33 1571242 1552782 1598406 1564418 1571688 1596928
641.22 1494734 1461692 1574658 1814586 1807790 1594740
644.11 1467962 1446374 1464612 1687436 1949190 1965802
647.00 1672630 1469400 1445952 1386454 1271958 1416680
649.90 1611178 1631340 1465646 1429114 1519794 1668500
652.79 1785818 1917714 2079574 2269758 2412170 2696982
655.68 2890664 2851076 2942736 3368840 3762462 4067558
658.58 4308012 4622866 5036630 5546206 6069266 6835378
661.47 7628142 8253938 8714362 9330036 10260310 11362040
664.36 12352950 13538580 14941240 16399660 17989650 19847040
667.25 21673740 23593280 25652120 27800130 29951040 32611750
670.15 36072050 40080300 44053900 47807500 51675420 56008980
673.04 60555220 64800760 68320100 72329060 77217970 82496810
675.93 87705900 92894640 98483840 104754400 111822600 119769000
678.82 128451800 140245800 154826100 163076700 160216500 155062300
681.72 153189800 152302200 151450900 151323000 151673500 152746400
684.61 154324000 156000700 157094500 157943700 158996000 160397300
687.50 161973500 164170700 169138400 179333800 187275000 181647500
690.40 171486900 175969200 196641700 227888600 302807500 536768300
693.29 959813600 1114038000 698680600 273375100 156267800 149917600
696.18 156167700 164508600 170999000 175019900 177356600 179689600
699.07 183049300 187498600 192689600 199139900 209229900 225778500
701.97 244074800 248427400 236466500 226772200 227334300 233370000
704.86 239963400 244616700 248557500 253964700 260535900 267566800
707.75 274714100 281927400 288974900 296251300 303738100 311634000
710.64 319703200 327700100 335462600 343214500 350515800 357333500
713.54 363759300 370118700 376235600 382257200 387927600 393917600
716.43 400276000 405798900 408277400 409303600 410413000 410977100
719.32 410328300 410227100 410467000 411153200 414027600 421560600
722.22 434718200 457347700 493867300 547379000 619526100 697871000
725.11 751541600 778708900 794290400 831697800 998393400 1276272000
728.00 1467075000 1568772000 1479520000 1098409000 761281900 631258700
730.89 584240400 527116200 470424600 443290000 431689600 424242500
733.79 421479000 420958100 420374300 418407700 416665100 415824600
736.68 414471700 411174700 407594700 403621600 398821600 392845600
739.57 386186300 378632800 370213100 360896800 351170000 340330200
742.46 328189300 314814400 300769000 286260000 271806800 257015500
745.36 242061000 227012400 212128300 197350400 183009800 169064100
748.25 155783200 142827500 130357900 118497600 107550700 97386180
751.14 87997740 79351800 71603090 64302080 57735330 52084270
754.04 46916350 41108200 35308340 30550870 26863290 23677800
756.93 20956470 18464810 16275850 14325050 12720450 11303980
759.82 10159980 9131804 8201566 7437302 6954460 6339236
762.71 5678654 5158230 4937390 4668694 4345570 4059284
765.61 3963890 3840376 3708722 3526084 3432642 3379840
768.50 3473550 3573824 3692250 3697862 3601200 3464900
771.39 3677116 3981612 4067458 4017524 4090302 4264636
774.28 4583796 4682400 4674086 4795590 4947106 4912758
777.18 4968248 5107528 5182850 5134482 5137896 5032012
780.07 4746826 4355772 4176802 4094960 4045472 3737580
782.96 3370600 3463150 4082160 5095090 6798716 7600884
785.86 5815098 3422904 2539038 2548364 2725534 2812022
788.75 3002140 3255050 3511024 3676312 3820826 3963196
791.64 4145422 4218732 4141048 3837342 3546016 3421826
794.53 3450152 3404120 3211880 2799136 2468582 2311580
797.43 2173834 1993826 1875076 1746696 1696864 1524524
800.32 1254864 1078426 1110140 1187418 1152094 1039320
803.21 1118980 1199354 1152086 1024310 975414 929656
806.10 922486 964276 1053080 1049568 998988 917482
809.00 852108 875692 962416 956522 1110872 1239174
811.89 1156306 1040754 1050566 954878 758586 683070
814.78 773474 867166 853052 719904 713260 780558
817.68 820384 730390 652750 621636 643578 764030
820.57 904186 850142 833800 979356 994952 722334
823.46 607442 676634 808992 956208 1058186 1130642
826.35 1116676 900544 825416 909280 939914 882678
829.25 820948 700038 674710 748146 769060 677492
832.14 678682 759956 804012 822710 920172 990522
835.03 1015868 924014 817820 751526 698984 689912
837.92 711846 742586 938190 1048374 914608 749478
840.82 770522 763450 766776 866232 949312 910370
843.71 827172 833100 985810 991470 915742 1012428
846.60 1148006 1088716 1112892 1317258 1466532 1464852
849.50 1491544 1483178 1455540 1451950 1564890 1682738
852.39 1644034 1502432 1456556 1557228 1696374 1735316
855.28 1776932 1860144 1985466 1982668 1961450 2060104
858.17 2147470 2135370 2202890 2294882 2341348 2352568
861.07 2365158 2298442 2218836 2162538 2207830 2361858
863.96 2505598 2524472 2494050 2490274 2553874 2593482
866.85 2657654 2789340 2971670 3030774 2984748 2963774
869.74 3048418 3162120 3316920 3455334 3533000 3686054
872.64 4180048 4827334 5040644 4638506 4216014 4082874
875.53 4151574 4273170 4464826 4659000 4792346 4894098
878.42 5008384 5118526 5256868 5374344 5522050 5647164
881.31 5711776 5750628 5892846 6077062 6210530 6263056
884.21 6336420 6434754 6494016 6448294 6489186 6652742
887.10 6817926 6905352 7015166 7124424 7194196 7248292
889.99 7477352 7970302 8672022 9653026 11155460 13318190
892.89 16590530 21505920 25870490 23757810 15885850 10083880
895.78 8167558 7587042 7463856 7581488 7768276 7740380
898.67 7447864 7164134 7055192 6994744 6915380 6877358
901.56 7012912 7146200 7160574 7105466 7042010 7057042
904.46 7156914 7267282 7356712 7345264 7285268 7144232
907.35 6959046 6803042 6713882 6676656 6590684 6436876
910.24 6377578 6325394 6201130 6149020 6223688 6258988
913.13 6256384 6330720 6472224 6619820 6747550 6730962
916.03 6687492 6705868 6789166 6925012 6989990 6913400
918.92 6855716 6867992 6913804 6975844 7006628 7055790
921.81 7331534 7778050 8495324 9483534 9975180 9631584
924.71 8884814 8201138 7931430 7976046 8178624 8395374
927.60 8611142 8840574 9036472 9092458 9054198 9004686
930.49 8989474 8966944 8989464 9063086 9090602 9066426
933.38 8982718 8694358 8221650 7673938 7292356 7144712
936.28 7081010 6930004 6758088 6622010 6519792 6456640
939.17 6418908 6325702 6262792 6213372 6112150 5969618
942.06 5831832 5645250 5425936 5209142 5044170 4949586
944.95 4891246 4776868 4577674 4412508 4346892 4250798
947.85 4131160 4065424 4041072 3976884 3915126 3869886
950.74 3901408 3997186 4029138 3963714 3981518 4073442
953.63 4199898 4334284 4424692 4461960 4498076 4525414
956.53 4551356 4583232 4691100 4859078 5018642 5140782
959.42 5209748 5241504 5241148 5226708 5341340 5501324
962.31 5644588 5813124 5882986 5768794 5677588 5765998
965.20 5966508 6045884 6000368 5998538 6099382 6240210
968.10 6563976 7161738 7855250 8182802 7823094 7255520
970.99 7090544 7313130 7563272 7423210 7057368 6824474
973.88 6726708 6686760 6722432 6771718 6721494 6576464
976.77 6573280 6715562 6782712 6737688 6655030 6729374
979.67 6983234 6925164 6613146 6377684 6140166 5865476
982.56 5707500 5594688 5427624 5311688 5294484 5288948
985.45 5258914 5175226 5131602 5122888 5074332 5002076
988.35 4967338 4988216 4995658 4888438 4754394 4641424
991.24 4548592 4467912 4434224 4459368 4537884 4579154
994.13 4557294 4528780 4495022 4421322 4359960 4311592
997.02 4249366 4188886 4135030 4082202 4013990 3926656
999.92 3926308 3995272 4072430 4125740 4109432 4081506
1002.81 4107194 4120692 4086904 3966824 3825914 3793674
1005.70 3923116 4124776 4330488 4496662 4592872 4616312
1008.59 4627106 4690008 4816936 4966464 5197176 5508220
1011.49 5816428 6118976 6442356 6834466 7398384 8149708
1014.38 8962040 9861948 10985200 12299330 13748030 15369430
1017.27 17229240 19313380 21621170 24163920 26925460 29894180
1020.17 32983880 36194660 39485680 42678340 45751620 48926840
1023.06 51766650 53389590 54133340 54885180 55466310 54868390
1025.95 52699960 49934680 47216400 44488070 41766210 39452500
1028.84 39105840 42247320 46670760 53935710 76335220 103124300
1031.74 95707250 61833450 39672040 33727200 34491040 37671700
1034.63 41678850 45872280 49964010 53626490 56610280 58793000
1037.52 60176980 60659220 60386060 59465670 58070370 56323600
1040.41 54409960 52656000 51453850 51027710 50743950 50363140
1043.31 50618070 49314090 45353060 41607710 39266320 37023850
1046.20 35531050 35344220 33939240 30542410 27945910 27197930
1049.09 26849560 26250240 25730820 25573980 26084420 27003730
1051.99 27182580 26553340 26496980 27271880 28438370 29692520
1054.88 30703320 30855640 30148520 29203820 28383560 27891320
1057.77 27865610 28144200 28442710 28634390 28843260 29043650
1060.66 29230670 29482940 29789280 30017940 30273400 30643950
1063.56 31100960 31601430 32184140 32835290 33544700 34304980
1066.45 35165980 36070430 37060180 38149360 39282910 40443760
1069.34 41582920 42805820 44276020 45680060 46964200 48450570
1072.23 50128240 51703150 53246090 54863730 56147810 56715170
1075.13 56936580 57694400 59278960 60217180 59333620 57283170
1078.02 54776620 51646800 47756200 43492220 39635380 36778730
1080.91 35154900 34859410 35968640 38079250 40709900 43563300
1083.81 46280150 48624880 50614800 52101970 53030940 53624200
1086.70 53950540 53752920 53043780 52190130 51434600 50528200
1089.59 49386760 48247740 47149550 45954470 44772110 43607770
1092.48 42316140 41004100 39907770 38933810 38007240 37238970
1095.38 36650670 36034230 35355990 34666860 33978620 33272650
1098.27 32326420 30992460 29484730 27938500 26344320 24629250
1101.16 22767870 20800700 19035950 17768290 17074350 16855460
1104.05 17015080 17429940 18030600 18779870 19559850 20149780
1106.95 20517910 20735510 20843680 20816760 20623410 20268860
1109.84 19913520 19564940 19176130 18827410 18442250 17776170
1112.73 16946550 16181350 15487730 14823740 14188440 13573960
1115.63 12982650 12390990 11829860 11258330 10678760 10103070
1118.52 9567656 9101186 8748700 8412108 8046042 7714054
1121.41 7431044 7147798 6856498 6543716 6212580 5892224
1124.30 5646562 5451610 5305504 5154118 4950184 4747506
1127.20 4597642 4463064 4382520 4359546 4378372 4400520
1130.09 4375526 4276506 4204396 4160060 4077454 3952344
1132.98 3868332 3845148 3849612 3836906 3788648 3708040
1135.87 3677784 3695206 3710108 3710740 3673380 3579700
1138.77 3490832 3437792 3393794 3321486 3267064 3257104
1141.66 3328072 3396236 3422028 3433762 3446530 3442440
1144.55 3464436 3536450 3600096 3625556 3665584 3696812
1147.45 3776018 3854094 3878018 3902980 3933548 3983844
1150.34 4082492 4101540 4083730 4143514 4232388 4251302
1153.23 4221908 4181262 4190120 4242510 4314302 4435624
1156.12 4609266 4730426 4839176 4947144 4978344 4974724
1159.02 5025976 5084184 5112420 5123778 5135960 5135914
1161.91 5144870 5172666 5198424 5147236 5133312 5292686
1164.80 5505420 5606672 5603002 5505166 5368210 5285700
1167.69 5352032 5563470 5839240 6071272 6254968 6416484
1170.59 6553474 6587782 6552718 6513022 6454598 6355790
1173.48 6205176 5997818 5825962 5663226 5479130 5378428
1176.37 5444288 5595492 5765610 6018512 6420054 6608686
1179.26 6123850 5470788 5193250 5094452 5044416 5069732
1182.16 5188310 5333610 5521682 5727174 5854990 5919002
1185.05 6028646 6083402 6045450 5997564 5933030 5765536
1187.94 5590800 5449712 5279026 5092466 4928050 4798740
1190.84 4758502 4816194 5025098 5417460 5681762 5444512
1193.73 5068300 4900940 4894710 4999706 5168512 5372058
1196.62 5698818 6126840 6541906 6896572 7275098 7708606
1199.51 8159604 8577806 8912434 9181218 9460382 9723786
1202.41 9934360 10060110 10159630 10248690 10266400 10197320
1205.30 10094500 9967124 9804742 9565234 9342852 9257822
1208.19 9278900 9340150 9553104 10026700 10622480 11065940
1211.08 11565170 12498890 13390900 12998380 11110100 9243224
1213.98 8562842 8759540 9279146 9848202 10373390 10856170
1216.87 11255670 11526270 11649950 11605250 11439240 11139790
1219.76 10733240 10247500 9671876 9073824 8535724 7995960
1222.66 7437180 6915426 6472448 6078756 5705762 5325016
1225.55 5054608 4945910 4865108 4738208 4671256 4664464
1228.44 4701758 4758432 4842554 5031980 5310432 5543902
1231.33 5741264 5892816 5999340 6084332 6152600 6234054
1234.23 6324300 6325448 6258294 6236858 6252522 6220668
1237.12 6134386 6005760 5917378 5945200 6111096 6352640
1240.01 6740676 7412136 8206616 8188914 7092994 6192526
1242.90 6091704 6233712 6292786 6346160 6448908 6643630
1245.80 7008764 7427500 7606134 7390252 7093122 6907446
1248.69 6729780 6522492 6327872 6123108 5889794 5629570
1251.58 5349160 5094018 4883064 4649426 4413434 4196774
1254.48 4012916 3842350 3665356 3486594 3389704 3376328
1257.37 3347922 3260138 3157906 3050872 2927364 2765148
1260.26 2626932 2544768 2494136 2441744 2407270 2393372
1263.15 2368698 2281474 2155988 2067520 2049000 2047696
1266.05 2046730 1996046 1901152 1809768 1727464 1691394
1268.94 1702510 1706866 1697016 1675238 1710154 1770322
1271.83 1791646 1761960 1728324 1675046 1648230 1682312
1274.72 1712090 1738974 1774242 1782420 1813746 1867732
1277.62 1900692 1897906 1877716 1867212 1901792 1941766
1280.51 1972130 2006656 2051346 2072376 2104232 2157386
1283.40 2242616 2373964 2481228 2512386 2529444 2562206
1286.30 2636148 2714702 2778918 2816200 2854722 2945084
1289.19 3029990 3089686 3168648 3217242 3226748 3220502
1292.08 3242990 3321486 3405224 3405522 3394112 3428370
1294.97 3462314 3502036 3607492 3749702 3901252 4082138
1297.87 4281938 4444062 4613246 4829018 5062736 5242026
1300.76 5397740 5592046 5760842 5826376 5859370 5933252
1303.65 6038928 6077970 6046586 6002652 5929758 5787594
1306.54 5589282 5340160 5094740 4875236 4703930 4585506
1309.44 4495114 4468496 4547320 4720512 4946030 5176804
1312.33 5453222 5724824 5896938 6018750 6123952 6154860
1315.22 6140590 6143188 6166434 6132712 6026478 5890782
1318.12 5779038 5676232 5604256 5527252 5388646 5270884
1321.01 5199966 5082518 4942234 4911662 4987438 4994976
1323.90 4937584 4882394 4821520 4726508 4571264 4379402
1326.79 4233846 4165432 4161986 4167870 4142978 4082154
1329.69 4019130 3977834 3984528 4025054 4140810 4272206
1332.58 4309680 4309452 4321732 4272206 4155068 4066606
1335.47 4077056 4119670 4168040 4233384 4299496 4330472
1338.36 4357962 4402266 4449702 4517412 4635490 4713904
1341.26 4763442 4829450 4897338 4991536 5090006 5150326
1344.15 5189858 5240808 5308608 5387784 5515666 5656520
1347.04 5804626 5966082 6113446 6248158 6370252 6464518
1349.94 6587778 6724870 6859976 6984440 7099048 7231470
1352.83 7402254 7584728 7795132 8081334 8459790 8914692
1355.72 9199250 9071228 8760776 8559756 8594686 8803454
1358.61 9037958 9252710 9476896 9668562 9855168 10182470
1361.51 10562350 10839260 11105040 11407140 11659650 11864970
1364.40 12132050 12468900 12848880 13263220 13739480 14311010
1367.29 14935450 15507680 16028290 16507200 16968330 17593700
1370.18 18381240 19077600 19703930 20361610 21075510 21872110
1373.08 22608010 23246840 23878720 24535250 25271810 25985020
1375.97 26669670 27331620 27828310 28070090 28141640 28160090
1378.86 28276140 28534300 28928200 29614970 30606280 31793280
1381.76 33637740 37224710 42596290 46229530 44137280 38778190
1384.65 35272520 34207030 34136680 34679340 35721120 37002940
1387.54 38377340 39455130 40015790 40280650 40378460 40078720
1390.43 39339560 38341580 37141550 35646770 33968650 32351600
1393.33 30777160 29168650 27782750 26624360 25479600 24367020
1396.22 23245420 22057720 20978760 20173110 19542910 18972080
1399.11 18553400 18227380 17928140 17658190 17435660 17319190
1402.00 17433470 17762340 18085790 18279710 18337200 18344360
1404.90 18500890 18883010 19737350 20937090 21034040 19593730
1407.79 18165090 17547350 17454200 17481080 17498900 17636540
1410.68 17958020 18365530 18783690 19171730 19546210 19941280
1413.58 20322040 20619300 20936500 21380930 22037880 23053290
1416.47 24163170 24877930 25172900 25471820 26103850 26938600
1419.36 28061910 29694450 31554250 32483220 31707690 30067620
1422.25 28274440 26363890 24777980 24062220 23864920 23509410
1425.15 23000600 22584750 22453000 22593890 22832310 23106600
1428.04 23532850 24145550 24755580 25244830 25867950 26539110
1430.93 26992670 27453350 28160890 28905220 29398270 29705550
1433.82 29975510 30191380 30440340 30808890 31247520 31971060
1436.72 33276170 34890490 36566010 38262980 39875500 41520400
1439.61 43717870 46410960 48242750 48497740 48341040 48930680
1442.50 50206130 51685580 53257370 54914620 56515880 58110010
1445.40 59787120 61412180 62978610 64494820 66118200 68110460
1448.29 70148020 71646480 72489900 73113200 73666220 73734550
1451.18 73286540 72652150 71841220 70690640 69729060 69581870
1454.07 69899620 70510530 71436310 71840670 71462970 71750060
1456.97 73665420 75386550 75609550 75342500 75596250 76621360
1459.86 77979530 79144580 79959620 80560390 81634970 84215120
1462.75 86509340 84354480 78757970 74114570 71588210 70172180
1465.64 69027090 68479970 68859110 69352020 69769220 70802080
1468.54 72504740 74689950 77119370 79153840 80197190 80084980
1471.43 79353770 78745580 77684190 75520850 73364310 72022590
1474.32 70965480 69782450 68497300 67400300 66985920 67145080
1477.21 66778290 65440480 64049280 63276960 63034400 63304160
1480.11 64284400 65940360 68202740 71141320 74843140 79128120
1483.00 83595130 88485460 94689680 102830400 112481900 121434700
1485.89 128255400 134551000 141747000 149669900 158076400 166931400
1488.79 175826100 184496600 192958600 201181700 208844500 214846100
1491.68 217960400 218522000 217695600 215678200 212126400 207052000
1494.57 201352500 196874100 195481000 198850500 205983800 212600600
1497.46 215349500 215304900 221588500 246670500 286863600 302621900
1500.36 263663800 208978500 180040000 173535300 178229600 188343800
1503.25 199806300 209607500 217145800 222879000 227255900 229988300
1506.14 229867000 226892800 221978800 215111700 206306100 195850000
1509.03 183880600 171149000 158669200 146596200 135075900 124364200
1511.93 114648500 105902800 97898880 90713750 84451950 79040070
1514.82 74775980 71794710 69627070 67564720 65343330 63187060
1517.71 60797260 57606510 54071570 50938650 48371140 46135240
1520.61 44196720 43198770 43073250 43319200 44336540 46253860
1523.50 48875450 51350100 51916050 50161200 48646800 48583530
1526.39 47994920 46117950 44410000 43648860 43480970 43574120
1529.28 43757710 43834120 43720180 43348500 42746420 42087590
1532.18 41401470 40697220 40343020 40926010 42147100 42453860
1535.07 41235060 39790330 39299830 39111300 37881960 35801480
1537.96 33918000 32601770 32142570 31870050 31396900 31242610
1540.85 31007100 30463960 30244080 30322970 30053560 29408790
1543.75 28648500 27778450 26953280 26265940 25489780 24670560
1546.64 23940760 23290630 22789540 22449790 22171080 21913980
1549.53 21845630 22104810 22469400 22458540 22035540 21640930
1552.43 21490360 21437290 21321000 21414890 22045950 22785920
1555.32 23292200 23637550 23820790 23848020 23914060 23914630
1558.21 24140560 24654010 24617200 24359540 24719910 25219150
1561.10 25255000 24961930 24522510 24036380 23602350 23144150
1564.00 22408910 21466830 20611620 19954410 19494700 19205620
1566.89 19120530 19244100 19504260 19968690 20656210 21586720
1569.78 22811980 23982000 24852560 25582770 26220330 26532440
1572.67 26452330 26239730 25999970 25726760 25396120 24704300
1575.57 23900070 23908360 24294590 24231580 23937540 23616490
1578.46 23257590 22858540 22434950 21983400 21474310 20942610
1581.35 20415880 19932910 19546510 19228280 19031730 19107320
1584.25 19493030 20095450 20881100 22052530 23638010 24837740
1587.14 24226880 22189970 21084780 21545460 22668610 24043590
1590.03 25640920 27446100 29395960 31449660 33590490 35828460
1592.92 38239430 40893660 43740030 46691980 49680250 52796000
1595.82 56113430 59622730 63289230 67084850 70856120 74428820
1598.71 77812180 81201960 84546630 87082460 88270060 88868170
1601.60 89651610 90299340 90320060 90073290 90190460 90838100
1604.49 92142020 94688690 98149740 101433300 103622700 103931100
1607.39 104623900 112927400 133100700 149290500 138090200 113132600
1610.28 100404600 98932970 101068200 104157400 107343000 110359300
1613.17 112800300 114140000 114472500 114122800 112322800 108136000
1616.07 103031900 99188950 95693210 91049720 87052540 86119420
1618.96 89571560 94351220 91410800 79673050 69109160 64254660
1621.85 61660200 58545480 55830010 54243590 53050240 51826020
1624.74 50520960 49069260 47538440 45867250 43992500 41933970
1627.64 39802180 37537280 35066490 32455460 29854420 27342780
1630.53 24925440 22606060 20390400 18249580 16292610 14561380
1633.42 12980110 11454490 9956876 8538512 7680100 7381172
1636.31 6976900 6403040 5973120 5721120 5506128 5216274
1639.21 4919234 4681766 4496200 4365418 4298128 4217004
1642.10 4132700 4050418 3958580 3902992 3918014 3856324
1644.99 3516568 3257372 3527500 3769860 3690586 3629616
1647.89 3681994 3777138 3850340 3850214 3832204 3886018
1650.78 3931180 3563222 2812066 2318452 2255430 2611076
1653.67 2939146 2987078 3127670 3199622 3111574 3046216
1656.56 3081688 3164098 3315412 3491362 3651786 3832048
1659.46 4023200 4139850 4211016 4271174 4281374 4153622
1662.35 4058832 4207282 4364788 4357940 4336054 4324500
1665.24 4311118 4339372 4392536 4396102 4340870 4220306
1668.13 4019776 3697300 3619524 3844972 3926280 3793282
1671.03 3665680 3644786 3651552 3640578 3707270 3706080
1673.92 3456766 3158424 3209148 3546338 3779362 3845718
1676.81 3864636 3843466 3842684 3901810 3983780 4049034
1679.71 4119494 4191470 4246362 4249414 4204500 4060904
1682.60 3840026 3696628 3399498 2762516 2696514 3410174
1685.49 3825824 3763106 3600262 3446314 3305958 3203126
1688.38 3185796 3182364 3104996 3038708 3060156 3113134
1691.28 3175624 3218904 3263976 3362626 3504588 3586946
1694.17 3521374 3152400 2566106 2679396 3604828 4303882
1697.06 4662762 4791622 4467620 3878906 3155316 2472488
1699.95 2294216 2621294 3117236 3428470 3514166 3505336
1702.85 3499934 3434778 3335394 3414578 3596940 3605158
1705.74 3504048 3580516 3802736 3896970 3874274 3852384
1708.63 3882618 3951956 4000270 4066092 4220954 4390518
1711.53 4531736 4646242 4753994 4809068 4843228 4904716
1714.42 4946492 5154810 5568630 5812314 5633040 5409234
1717.31 5850716 6468734 6887952 7401886 7871670 8214080
1720.20 8556416 8923974 9319572 9718498 10085830 10429360
1723.10 10811010 11204650 11531040 11788350 12020640 12206920
1725.99 12267830 12168040 12025080 11892790 11677200 11311210
1728.88 10814520 10240520 9716926 9231306 8695340 8219996
1731.77 7921362 7636100 7448918 7787350 8375948 9141416
1734.67 10396600 11589570 12350300 12704890 12778650 12691070
1737.56 12479850 12180980 11698640 10971860 10403090 10165610
1740.45 9936706 9557500 9097242 8591478 8071590 7628320
1743.34 7247344 6859934 6480004 6099762 5759384 5442018
1746.24 5114996 4853324 4650982 4354094 4048450 3874092
1749.13 3738146 3541090 3218684 2804844 2672136 2824414
1752.02 2873564 2786992 2707388 2672150 2685216 2697786
1754.92 2696724 2655074 2520588 2456580 2608600 2752440
1757.81 2839992 2972200 3143828 3296044 3393392 3433782
1760.70 3353916 3212264 3303924 3594794 3858822 4041226
1763.59 4193492 4385406 4620690 4806726 4898802 4985632
1766.49 5102832 5121260 5085878 5282244 5628832 5807152
1769.38 5902222 6022114 6121376 6276522 6543092 6698924
1772.27 6967866 7545658 7877928 7869034 7890730 7926424
1775.16 7961432 8103518 8320644 8560780 8900126 9318872
1778.06 9784206 10340320 10899270 11147780 11056800 10973480
1780.95 11069450 11307520 11657520 12071030 12534960 12982800
1783.84 13338760 13670210 14201790 14917740 15717220 16581110
1786.74 17382960 18037550 18687370 19492080 20507810 21664410
1789.63 22835290 23853860 24633180 25253130 25660050 25848070
1792.52 26170450 26525410 26649220 26672000 26712840 26704810
1795.41 26534840 25910610 24672590 23185370 21899070 21272520
1798.31 21990510 24814010 30690710 38917540 42940820 36194710
1801.20 24892410 18868270 18061710 18924340 20091570 21367020
1804.09 22737530 24040320 25183750 26142060 26799610 27099890
1806.98 27103280 26906640 26523910 25863830 24860360 23499710
1809.88 21922310 20378710 18961650 17599010 16267180 15045830
1812.77 13959800 12905320 11897390 11027320 10238610 9468884
1815.66 8782978 8190014 7651732 7214124 6932618 6814934
1818.56 6842106 7000584 7304732 7623126 7835466 7989660
1821.45 8086738 8107960 8086434 8001298 7866898 7691594
1824.34 7450702 7282536 7264308 7187404 7025142 6890870
1827.23 6759932 6591168 6431550 6316566 6199766 6085556
1830.13 6107446 6217596 6310372 6353938 6388266 6467966
1833.02 6568884 6649950 6724126 6811072 6924800 7093920
1835.91 7325870 7587258 7881730 8200628 8572412 8999218
1838.80 9427588 9847550 10299720 10793960 11300070 11822800
1841.70 12419760 13069970 13715130 14248550 14790260 15703930
1844.59 16815550 17761300 18530910 19209590 19893460 20539830
1847.48 21133280 21712610 22228610 22636170 22874710 22945700
1850.38 22897560 22638860 22159370 21525450 20753520 19883470
1853.27 18996580 18083380 17134370 16330340 15919600 16025260
1856.16 16712150 18017690 19922500 22325440 24955840 27324450
1859.05 29157440 30534930 31516500 32099260 32402760 32551610
1861.95 32494760 32129290 31599880 31110840 30625930 29965830
1864.84 29104400 28166150 27208860 26247750 25330450 24392430
1867.73 23478040 22522160 21381130 20540430 20317850 20539240
1870.62 21157500 22144560 23010650 22344300 19654970 16723710
1873.52 15053470 14520420 14620180 14987300 15445980 15907010
1876.41 16282580 16560760 16707460 16660780 16420040 15996170
1879.30 15428910 14731360 13901800 12993170 12067190 11117560
1882.20 10147020 9229322 8401782 7628556 6928152 6310342
1885.09 5785174 5356224 4987092 4661064 4368536 4099764
1887.98 3872350 3670468 3500616 3440156 3452722 3418708
1890.87 3344668 3279852 3216320 3124978 3063134 3030150
1893.77 3004790 2989596 2974050 2962868 2955138 2962690
1896.66 3014684 3047782 3022932 2950862 2841196 2714214
1899.55 2631926 2602532 2599776 2608270 2641614 2719334
1902.44 2801458 2776942 2633788 2484494 2388654 2348912
1905.34 2385254 2452374 2521608 2574632 2595534 2608178
1908.23 2654966 2700650 2729860 2796674 2902144 2990340
1911.12 3044642 3119346 3227854 3320618 3410272 3519788
1914.02 3645564 3772876 3912044 4083354 4274136 4457654
1916.91 4595826 4709118 4962184 5316352 5618246 5892838
1919.80 6201758 6538252 6914902 7295964 7659968 8087980
1922.69 8626680 9233318 9844212 10486480 11234450 12051160
1925.59 12775840 13292100 13786480 14472190 15312550 16211320
1928.48 17162920 18170410 19218410 20258500 21311030 22384600
1931.37 23412040 24349390 25145060 25812200 26417410 26890630
1934.26 27166090 27271630 27258290 27106530 26766350 26262030
1937.16 25676750 25040710 24290370 23414590 22521210 21732430
1940.05 21163490 20921390 21088580 21720790 22911670 24705380
1942.94 26982000 29436040 31673770 33454610 34755790 35629900
1945.84 36209620 36555460 36593300 36286030 35751390 35118770
1948.73 34407820 33644080 32805430 31861630 30894730 29955990
1951.62 29119930 28279460 27172140 25826070 24603190 23680090
1954.51 22850130 21861140 20774270 19918010 19712420 20374520
1957.41 21640800 22318470 20983390 18122240 15523200 13992000
1960.30 13350310 13268040 13466240 13707610 13923800 14100460
1963.19 14187510 14170350 14024240 13694940 13200370 12589210
1966.08 11896330 11111960 10265970 9438632 8647846 7873562
1968.98 7130098 6425170 5774824 5191774 4666134 4193696
1971.87 3778336 3402008 3083630 2810846 2592142 2455812
1974.76 2343874 2213594 2103892 2013114 1930030 1859664
1977.66 1838576 1874724 1911958 1926306 1970834 2054882
1980.55 2160904 2291226 2429018 2574328 2794802 3087296
1983.44 3339300 3325802 2980948 2606170 2455684 2467428
1986.33 2512626 2534004 2543576 2568772 2625724 2700608
1989.23 2812002 2930216 2994008 2976042 2918290 2929842
1992.12 2974584 2924302 2835390 2830560 2921534 3014978
1995.01 2990594 2802204 2589898 2497616 2543128 2647232
1997.90 2731126 2769114 2789590 2794622 2801688 2841148
2000.80 2868476 2852506 2839368 2819752 2758994 2651228
2003.69 2539380 2461074 2392820 2313832 2231132 2154804
2006.58 2108768 2063010 2012864 1988716 1973032 1929462
2009.48 1947128 2065124 2176620 2156056 2012538 1854190
2012.37 1771856 1751594 1706936 1642232 1592552 1543310
2015.26 1524452 1519296 1529658 1560902 1557490 1533728
2018.15 1539148 1522632 1466632 1409698 1363194 1316304
2021.05 1271446 1241692 1250450 1272816 1280386 1278816
2023.94 1276532 1242376 1183026 1137002 1084990 1007446
2026.83 949100 905538 880906 887140 864614 815334
2029.72 784568 757494 735436 729738 724878 690326
2032.62 647730 618252 607060 584474 554012 539692
2035.51 520166 498694 457094 365232 305782 325032
2038.40 370704 390370 399710 369230 306532 267220
2041.29 261218 270040 301638 326670 324108 303950
2044.19 262734 217278 210426 242614 279124 275484
2047.08 245688 238910 220424 186264 174528 173856
2049.97 191456 192638 169928 188402 217882 210958
2052.87 228566 256252 262724 277278 329278 358878
2055.76 343130 328904 312738 296460 317410 339254
2058.65 335732 344252 350420 324066 295944 247718
2061.54 193328 157002 131224 152834 262714 399640
2064.44 468210 495114 515994 491978 478934 506298
2067.33 514704 521754 532614 496582 443322 392738
2070.22 367010 404366 477816 501660 466516 446296
2073.11 455072 450458 453960 474368 475386 458836
2076.01 464540 495204 540026 561196 564748 600716
2078.90 662560 669946 603424 518780 501214 532228
2081.79 506052 464334 448462 405646 374910 369760
2084.69 382374 389646 381144 392262 411034 403968
2087.58 387114 419080 471120 461294 438446 440918
2090.47 452846 462138 486992 488046 429576 385128
2093.36 363450 351996 393576 418670 386454 367940
2096.26 389458 419494 435778 440108 476986 518556
2099.15 500262 436022 396236 392538 413236 446000
2102.04 447310 421962 418890 446472 484718 495772
2104.93 486474 476300 438640 398468 431232 499866
2107.83 537316 514332 481642 488418 478292 477076
2110.72 556720 635194 643572 633954 622964 577364
2113.61 528802 526476 568204 579688 550578 540894
2116.51 544122 538078 533502 536438 532354 532876
2119.40 564700 606126 646002 677530 678172 657772
2122.29 644804 656434 669462 634702 610514 634948
2125.18 673708 684604 652808 638894 675716 707608
2128.08 695044 635276 613664 648996 654552 606312
2130.97 578016 577570 592210 627202 675922 720020
2133.86 707208 675006 675060 643400 583554 563718
2136.75 562668 521828 467738 460466 488390 490812
2139.65 478248 469108 453156 431968 436342 448728
2142.54 450798 454490 467174 475804 500640 528738
2145.43 520150 507704 538762 574482 573670 566706
2148.33 568424 564626 592456 643866 668556 671726
2151.22 700330 756380 816258 873992 962368 1046694
2154.11 1103908 1135412 1159800 1236662 1354396 1441200
2157.00 1527336 1634992 1714622 1785846 1854270 1874612
2159.90 1895370 1967710 2080062 2171072 2189118 2193614
2162.79 2226344 2242988 2243792 2256158 2293972 2310026
2165.68 2291042 2352274 2556766 2848574 3090568 3083546
2168.57 2822188 2520346 2330116 2292192 2379882 2508544
2171.47 2615904 2712764 2835850 2931062 2980872 3002428
2174.36 3002366 3048728 3100478 3032766 2902210 2810010
2177.25 2781138 2741806 2624148 2479168 2354322 2243878
2180.15 2152914 2094080 2015704 1928508 1908126 1884814
2183.04 1784134 1675226 1610720 1531046 1444546 1414076
2185.93 1419126 1405576 1378480 1368402 1392222 1415474
2188.82 1409516 1411620 1447144 1511760 1598598 1673132
2191.72 1708568 1660248 1563642 1522070 1533524 1498996
2194.61 1424324 1409158 1430960 1415986 1353244 1287320
2197.50 1271182 1280304 1287722 1286146 1264230 1205542
2200.39 1154166 1155076 1152912 1118052 1108180 1148966
2203.29 1183802 1148578 1091166 1077472 1054000 1025842
2206.18 1049968 1066484 1057318 1085082 1147218 1195160
2209.07 1209238 1167370 1082746 1030684 1023726 999002
2211.97 980164 1017818 1061954 1047326 1050026 1110908
2214.86 1155656 1143228 1128340 1146396 1167870 1173092
2217.75 1155924 1099664 1029514 992646 980738 978276
2220.64 1003182 1016416 1030874 1085256 1131600 1105004
2223.54 1018828 953240 949602 984778 1010614 998470
2226.43 996608 1006690 998124 990966 1000050 1016058
2229.32 1056356 1111196 1121392 1092120 1076250 1058370
2232.21 1026854 998970 997280 998548 1005462 1029930
2235.11 1048408 1085272 1154598 1218900 1246358 1187726
2238.00 1099902 1074226 1108954 1187334 1247856 1268788
2240.89 1295772 1324378 1373912 1441660 1455972 1454412
2243.79 1511308 1571858 1602310 1616944 1658314 1698240
2246.68 1682060 1674748 1736986 1852704 1966126 1996316
2249.57 1996302 2018398 2038358 2048786 2070984 2126884
2252.46 2183124 2195644 2188178 2203702 2249424 2304236
2255.36 2331834 2335728 2349914 2341566 2307854 2261134
2258.25 2218064 2212294 2226158 2215972 2174532 2165000
2261.14 2218824 2262184 2274172 2287680 2299770 2326542
2264.03 2407204 2477604 2507688 2541030 2585024 2614778
2266.93 2615134 2609030 2635906 2690600 2768446 2816546
2269.82 2789914 2750706 2758974 2785426 2793188 2779626
2272.71 2748408 2761376 2852470 2960944 3040578 3066902
2275.61 3061970 3089702 3139476 3176940 3191338 3183030
2278.50 3168428 3142282 3106130 3062288 3022318 2988912
2281.39 2957716 2921472 2865020 2832990 2881872 2961938
2284.28 3017648 3007828 2949906 2906522 2883816 2879680
2287.18 2911958 2960206 3001694 3041856 3070306 3080516
2290.07 3080742 3085444 3094486 3095774 3054110 2946440
2292.96 2815336 2727366 2724244 2766342 2803402 2818616
2295.85 2821386 2815636 2815880 2831524 2836326 2856352
2298.75 2918334 2977916 3015952 3080156 3182282 3255716
2301.64 3292194 3349814 3449346 3585652 3727304 3834520
2304.53 3883372 3912792 3960206 3980556 3961756 3898194
2307.43 3805346 3731170 3672674 3615404 3554168 3533380
2310.32 3584416 3655074 3749700 3865302 4096048 4584444
2313.21 4870236 4620298 4326344 4193994 4093398 4003644
2316.10 3966016 4025738 4118084 4190090 4337632 4570582
2319.00 4711930 4693614 4644942 4668818 4680222 4627804
2321.89 4622968 4693286 4652622 4474102 4415292 4455054
2324.78 4350874 4185088 4180746 4273450 4254542 4154884
2327.67 4227178 4401312 4393612 4318830 4438098 4554108
2330.57 4422174 4300148 4383646 4376306 4164022 4077970
2333.46 4162200 4079872 3883156 3885128 3977478 3919346
2336.35 3900970 4098046 4227158 4132106 4136060 4344142
2339.24 4446656 4451990 4597918 4714386 4704864 4816030
2342.14 4998130 5012182 5008840 5096374 5099664 5003220
2345.03 4948652 4920546 4820514 4700328 4618328 4510724
2347.92 4418916 4409134 4415056 4378528 4336730 4372492
2350.82 4492570 4537078 4535674 4638212 4700624 4674364
2353.71 4733146 4791030 4824850 4970992 5033380 4995476
2356.60 5076120 5062296 4962792 4991594 4915602 4768772
2359.49 4739370 4590262 4421664 4304772 4022470 3841442
2362.39 3715122 3456524 3391626 3403078 3416330 3563526
2365.28 3647748 3793558 4015678 4153284 4299154 4353272
2368.17 4333298 4265768 4130826 4058220 3963678 3847748
2371.06 3732276 3596474 3511884 3415378 3274884 3077910
2373.96 2918820 2811188 2688340 2619480 2592004 2578148
2376.85 2589690 2573738 2506892 2458950 2443564 2457324
2379.74 2496384 2516222 2534638 2552914 2561940 2576974
2382.64 2555144 2491366 2463630 2480078 2498684 2507972
2385.53 2503818 2446896 2403672 2414874 2442586 2485856
2388.42 2555086 2598088 2618996 2678478 2721662 2725742
2391.31 2716808 2668658 2621698 2613270 2624512 2663772
2394.21 2718178 2765890 2816686 2836902 2816834 2801564
2397.10 2818344 2823504 2809094 2839194 2888932 2939880
2399.99 3051474 3193442 3250412 3183714 3104546 3122002
2402.88 3210878 3258340 3261586 3314900 3402746 3458596
2405.78 3481328 3514616 3578154 3612710 3613594 3627162
2408.67 3648004 3642396 3614672 3602448 3602570 3637496
2411.56 3743340 3890746 4073074 4233722 4234850 4081040
2414.46 3945456 3919624 3986038 4089292 4198768 4290334
2417.35 4342262 4344746 4335780 4337464 4349022 4345148
2420.24 4349516 4451984 4592710 4662418 4623564 4488480
2423.13 4323914 4158950 4026292 3955274 3899026 3828342
2426.03 3771716 3741492 3687154 3622040 3569298 3495052
2428.92 3437556 3410510 3427784 3409084 3220410 2985550
2431.81 2849462 2787590 2760852 2742336 2698012 2630034
2434.70 2605900 2619240 2586862 2553086 2547566 2455168
2437.60 2319870 2243792 2223988 2220130 2186516 2163230
2440.49 2148384 2107320 2086858 2075064 2062006 2032372
2443.38 1984488 1932820 1872036 1844578 1867724 1909902
2446.28 1919956 1876480 1857188 1868570 1859170 1857818
2449.17 1868154 1863034 1864228 1882544 1901234 1906746
2452.06 1900352 1893368 1902550 1909058 1908118 1912386
2454.95 1949130 1990296 1984668 1986382 2027282 2066458
2457.85 2077356 2082380 2126860 2163566 2167826 2179126
2460.74 2220154 2219796 2152118 2117722 2102354 2107354
2463.63 2144146 2173664 2195504 2214110 2240726 2258306
2466.52 2256676 2220832 2186298 2194282 2187772 2131664
2469.42 2107082 2138766 2184022 2185392 2128180 2078912
2472.31 2052878 2060244 2077248 2054982 2025808 2014076
2475.20 1986488 1934248 1918388 1925436 1924802 1944160
2478.10 1935060 1876068 1842312 1846356 1830448 1787704
2480.99 1756766 1756468 1744284 1703412 1698400 1757534
2483.88 1780204 1726194 1685718 1672338 1682292 1737846
2486.77 1806580 1809972 1761268 1754920 1782456 1803106
2489.67 1833236 1858642 1872046 1868690 1849506 1851930
2492.56 1864660 1901774 1966738 1984176 1993696 2048684
2495.45 2098428 2099792 2094924 2102560 2105230 2088754
2498.34 2064886 2101958 2190662 2258984 2252176 2175676
2501.24 2110856 2093254 2102618 2096232 2060450 2055774
2504.13 2066064 2049190 2050194 2045542 2014568 2019934
2507.02 2046650 2030588 2003508 2030160 2098764 2125998
2509.92 2102478 2079810 2058320 1985952 1902882 1877110
2512.81 1891228 1897618 1865982 1819090 1786882 1775072
2515.70 1779040 1767590 1725254 1696276 1706190 1727686
2518.59 1731974 1672402 1617822 1635440 1664436 1638828
2521.49 1606014 1602400 1566848 1555598 1585948 1576028
2524.38 1538746 1528710 1583460 1671410 1701644 1654812
2527.27 1598114 1573952 1598940 1636300 1611932 1550236
2530.16 1574460 1639602 1617140 1560090 1547048 1597304
2533.06 1680820 1735792 1765956 1770968 1750452 1710764
2535.95 1672908 1653382 1643186 1638514 1608844 1578762
2538.84 1590590 1614834 1603164 1551034 1528584 1556956
2541.74 1587774 1587392 1586944 1615720 1643948 1640982
2544.63 1623828 1602924 1567020 1512198 1502762 1557386
2547.52 1591330 1584278 1608138 1652094 1664032 1656330
2550.41 1638650 1661628 1698780 1688048 1639118 1570524
2553.31 1561380 1568278 1528736 1491574 1453634 1421734
2556.20 1375298 1323078 1314102 1323800 1349412 1375276
2559.09 1359626 1353414 1401898 1449352 1455484 1452378
2561.98 1427554 1356074 1314748 1354132 1423466 1482356
2564.88 1499990 1490280 1515298 1567600 1607440 1642888
2567.77 1675446 1689864 1727906 1784654 1815112 1815666
2570.66 1825026 1879388 1948314 1984776 1987468 2014290
2573.56 2121150 2244398 2279680 2274894 2319324 2387268
2576.45 2471692 2565984 2672600 2780570 2885888 3008806
2579.34 3144992 3305928 3474432 3638336 3841408 4041550
2582.23 4115900 4130942 4199756 4266136 4332196 4471584
2585.13 4620626 4724328 4800142 4831436 4863848 4930454
2588.02 4962352 4953398 4979804 5012254 4999904 4977898
2590.91 5001718 5093034 5245864 5385662 5461866 5513752
2593.80 5516260 5403774 5292852 5372048 5607920 5813402
2596.70 5942838 6044728 6096328 6087934 6082962 6093410
2599.59 6060740 5953094 5795770 5662908 5537216 5335174
2602.48 5114346 4913384 4682686 4462720 4264086 4083452
2605.37 3978778 3896806 3744782 3597008 3518368 3459190
2608.27 3400560 3348632 3338860 3367332 3437846 3516766
2611.16 3478348 3349708 3213102 3075362 3011732 2991134
2614.05 2948022 2920154 2902984 2903540 2925072 2932988
2616.95 2915706 2873798 2844888 2840860 2820974 2803618
2619.84 2834854 2879636 2914794 2948804 3006538 3049956
2622.73 3030498 2988008 2958134 2951344 2929100 2886756
2625.62 2897218 2934664 2923084 2864646 2763562 2702832
2628.52 2719156 2716976 2691176 2695142 2723846 2717960
2631.41 2649618 2575958 2546320 2547864 2544460 2516462
2634.30 2501510 2512332 2502398 2473154 2488642 2556210
2637.19 2617742 2667566 2690358 2617204 2526284 2494858
2640.09 2436110 2342426 2320832 2373680 2430682 2458636
2642.98 2454560 2462494 2453710 2370332 2235026 2120066
2645.87 2074992 2066842 2042090 2026376 2006922 1965678
2648.77 1955868 1971172 1964162 1943234 1899282 1838742
2651.66 1773310 1723790 1754910 1824298 1854550 1835852
2654.55 1784488 1717738 1637374 1565004 1559342 1570262
2657.44 1517804 1423360 1395742 1424174 1407622 1394932
2660.34 1387690 1338064 1332244 1411968 1482232 1450832
2663.23 1349984 1273548 1250462 1267274 1319568 1374146
2666.12 1360760 1327974 1327882 1314358 1304822 1312746
2669.01 1291774 1278258 1310114 1325838 1293660 1253976
2671.91 1224000 1184742 1182456 1225432 1230970 1190492
2674.80 1147738 1116320 1097984 1122960 1161932 1179852
2677.69 1207636 1229650 1199674 1160218 1161816 1142836
2680.59 1137052 1195282 1208140 1185666 1219624 1260400
2683.48 1246780 1180614 1135388 1166824 1225292 1211284
2686.37 1135746 1135604 1193558 1188876 1170752 1203244
2689.26 1249188 1261294 1228410 1188602 1183850 1217306
2692.16 1246280 1225560 1179490 1135498 1113880 1116832
2695.05 1110888 1112448 1130174 1142970 1168692 1240046
2697.94 1355474 1358238 1224586 1129962 1116826 1130336
2700.83 1164568 1232622 1294782 1314846 1280522 1242540
2703.73 1259572 1255828 1176976 1133658 1183712 1213232
2706.62 1221222 1274850 1288342 1225278 1218716 1294684
2709.51 1348896 1359994 1347660 1326590 1335326 1409536
2712.41 1482596 1475670 1476978 1536860 1607838 1676436
2715.30 1695496 1650338 1638198 1698778 1763378 1786254
2718.19 1825752 1896752 1944974 1944184 1946584 1992116
2721.08 2056306 2119880 2193656 2284916 2369864 2459132
2723.98 2587174 2688612 2760870 2894680 3055392 3222416
2726.87 3458872 3675320 3864184 4173836 4540664 4851078
2729.76 5162422 5513566 5933018 6428350 6874500 7287708
2732.65 7800096 8380116 8935698 9448362 9942262 10413610
2735.55 10816660 11113300 11391010 11695790 11913330 11998540
2738.44 11988710 11870440 11671070 11495710 11383180 11273990
2741.33 11176600 11301230 11843830 12866320 14519460 16781950
2744.23 18739650 18707460 16261400 13240230 11505590 11192940
2747.12 11652650 12393980 13201750 14018000 14787020 15397350
2750.01 15859370 16189940 16273520 16059560 15615780 15049390
2752.90 14321780 13402550 12426780 11532330 10692230 9846246
2755.80 9060716 8355230 7677838 7060892 6552304 6114832
2758.69 5752202 5473672 5238320 4995046 4764292 4558868
2761.58 4398674 4280626 4149672 4034440 3925448 3788742
2764.47 3661262 3501054 3294496 3124184 3009400 2925348
2767.37 2885410 2889518 2888590 2878326 2906378 2957182
2770.26 2983848 2982958 2994158 3023124 3058166 3061798
2773.15 3035080 3043062 3088264 3117338 3094358 3078910
2776.05 3118772 3202114 3271758 3292686 3332790 3404458
2778.94 3422248 3419908 3497960 3590826 3644968 3714024
2781.83 3758498 3685534 3592982 3576934 3586650 3613222
2784.72 3633146 3660002 3728398 3859198 4004312 4095766
2787.62 4137120 4131784 4104542 4117358 4164440 4173060
2790.51 4149764 4163664 4122290 4047544 4116978 4253248
2793.40 4318054 4347734 4370158 4373140 4398536 4462426
2796.29 4486000 4445694 4406970 4427366 4560348 4735906
2799.19 4825978 4845020 4844296 4786456 4705828 4702364
2802.08 4714702 4733404 4801532 4863754 4897334 4944152
2804.97 5017582 5068834 5111600 5164954 5267386 5419010
2807.87 5521552 5584276 5670744 5844696 6059312 6201050
2810.76 6274178 6326104 6394876 6477152 6574976 6723876
2813.65 6856588 6919790 6992548 7133496 7345222 7605810
2816.54 7824172 7953242 8005976 8021956 8104362 8254330
2819.44 8372098 8501900 8659032 8818232 8978716 9058830
2822.33 9085860 9115626 9170888 9217412 9195578 9183878
2825.22 9222236 9237234 9266252 9363964 9478360 9582034
2828.11 9696546 9847248 10084790 10361740 10603850 10859030
2831.01 11095050 11289260 11511130 11761800 12007330 12241430
2833.90 12439990 12572240 12700980 12845860 12973740 13102210
2836.79 13289320 13539950 13797400 13973840 14050640 14138320
2839.69 14271200 14466420 14707610 14903630 15129460 15438830
2842.58 15681230 15859470 16147850 16556350 17073900 17640040
2845.47 18146240 18629150 19137750 19698700 20308540 20933400
2848.36 21591900 22301020 23052110 23827880 24667030 25553780
2851.26 26456850 27383020 28296360 29253510 30337280 31449390
2854.15 32528280 33635120 34812260 36072690 37406460 38828400
2857.04 40300820 41813330 43415750 45131670 46908770 48706050
2859.93 50495360 52258130 54124530 56207460 58422350 60697820
2862.83 63005340 65233400 67380550 69573690 71831020 74125260
2865.72 76424290 78652470 80837060 83032400 85260610 87614740
2868.61 90043100 92422630 94841140 97468870 100458500 104005700
2871.51 107673400 110462800 112349100 114227000 116474300 119112100
2874.40 122110400 125244800 128491300 131830300 135118600 138424200
2877.29 141666700 144366400 146367600 147913600 149174200 150203000
2880.18 150964900 151103400 150417400 149427100 148537600 147753800
2883.08 147012500 146309500 145772800 145387600 144833500 143819900
2885.97 142604500 141570400 140847700 140493700 140410400 140289000
2888.86 139940700 139309700 138323800 136986800 135393700 133859700
2891.75 132551400 131296500 129915400 128359600 126646300 124836600
2894.65 122975800 121091200 119087600 116865700 114622900 112478100
2897.54 110273700 108011700 105741200 103420900 101116400 98903110
2900.43 96892250 95140340 93564260 92112340 90796900 89696070
2903.32 88829140 88083700 87592620 87376980 87248180 87462820
2906.22 88180420 88944400 89313500 89449460 89771440 90545680
2909.11 91858470 93704920 95901730 98083850 100002400 101685600
2912.00 103510500 105594400 107386800 108710600 110218500 112418300
2914.90 115334600 118651400 121887600 125203500 129177200 133739000
2917.79 138081100 141648800 145032300 149019500 153689700 158819500
2920.68 164404800 170550100 177163800 184165700 191335200 198035800
2923.57 203884200 209279800 214532400 219497600 223848400 227620800
2926.47 231369200 234773600 236705300 237233700 237290400 237358400
2929.36 237721900 238933100 241472300 245188300 249667400 254462000
2932.25 258953900 262547700 264978300 266205200 265783100 263564700
2935.14 261167800 260419600 261500600 263925400 266910200 268938400
2938.04 269534000 269396100 268835900 268035600 266191400 262983900
2940.93 259966700 258086500 256940900 255756500 253770000 250479500
2943.82 246129400 241708300 237820400 234222100 230385600 225822300
2946.72 220155700 213494200 206438500 199625400 193312300 187478700
2949.61 181741600 175519800 168806400 162600000 157910800 154644800
2952.50 152077200 149964000 149094300 149751100 150332300 149026400
2955.39 145044600 138521700 131043300 124521200 119753700 116774600
2958.29 115295300 114729200 114605800 115047500 115865900 116104500
2961.18 115319600 114093900 112787500 111447700 109823100 107150700
2964.07 103713000 100852200 98938740 97488890 96073970 94357860
2966.96 92307040 90211740 88222970 86270310 84215890 82173630
2969.86 80252870 78415060 76702570 75342270 74543350 74319180
2972.75 74569530 75199570 75998540 76754710 77601950 78756040
2975.64 80040560 81079420 81838110 82565300 83379210 84278630
2978.54 85229000 86093340 86646990 86921740 87126630 87248830
2981.43 87290660 87391150 87617350 88051590 88918500 90493200
2984.32 92766700 95380420 97969980 99844100 99712690 97216270
2987.21 93624780 90459780 88363900 87312240 87123130 87692700
2990.11 88986520 90999110 93584780 96358100 98732990 100134700
2993.00 100416800 100173100 100304700 101170800 102764200 105273500
2995.89 108969700 113248600 116611900 118179000 117982300 116483700
2998.78 114778700 113959900 114460700 116540200 119965000 124018700
3001.68 128559100 133638600 138748500 143428900 147406200 149712800
3004.57 149301900 146770100 143893900 141979600 141471500 142338400
3007.46 144323200 146646000 148315000 148965300 149197900 149839000
3010.36 151028900 152153700 152587100 152951900 154671300 157989800
3013.25 162014300 165880600 169187300 172011900 174628400 177323700
3016.14 180342000 183972200 188466900 193759300 199570300 205892600
3019.03 213122900 221413100 230435200 240353500 252087300 265014100
3021.93 276405400 285163200 293209600 302672700 313834700 325635200
3024.82 337244200 348698400 360250100 372158700 384774000 398301900
3027.71 412900800 428556700 444321300 458367900 469204000 476200300
3030.60 479996500 482555200 485326500 487723400 488923400 488938400
3033.50 487021500 482483100 476747700 472155700 469970000 469834900
3036.39 470821600 472117700 473326200 475184700 478822500 483764400
3039.28 487336500 487618700 486950800 489211400 492463400 490982100
3042.18 486505600 484989700 486631000 488501500 489011500 487796000
3045.07 484704500 479471900 472057200 462363200 450370900 436796800
3047.96 422396300 407436700 392232900 376993000 361626900 346220700
3050.85 331034300 316551200 303305500 291369900 280860100 271864300
3053.75 264058300 257096700 250971100 245914400 241898100 238773500
3056.64 236313200 234395600 233372800 233403300 234238700 235783500
3059.53 237926700 240083800 241833500 243433000 245272500 247561800
3062.42 250167700 252814000 255233200 257145000 258708900 260249100
3065.32 261496200 261964500 261487100 260477800 259696100 259197100
3068.21 258778400 258794100 259623200 261851500 266141000 272667700
3071.10 281696700 293180700 306339900 318366800 322441000 312790300
3074.00 294021800 277078700 267146800 263501600 264044100 266957900
3076.89 270935000 275037100 278890000 282276100 285013800 287062500
3079.78 288156900 288037500 287200300 286274600 283843600 278141400
3082.67 270758100 264482800 259727800 255623100 251800900 248363700
3085.57 245365500 242692600 240215300 237772200 235239200 232471200
3088.46 229125400 225168700 220947900 216528900 211250900 204930700
3091.35 198154800 191211300 184364900 177840600 171458800 165238600
3094.24 159747100 155346100 151981300 149713700 148888700 149644100
3097.14 151716800 154622900 157726200 160470900 162620100 164109200
3100.03 164782500 164321200 162584000 159939600 156791200 153257900
3102.92 149368200 145137400 140663200 135956000 131114500 126409800
3105.82 121672600 116771400 112064700 107866800 104014800 100182900
3108.71 96406360 93025190 90173240 87713880 85497250 83441410
3111.60 81541740 79792710 78129010 76474540 74770510 72987730
3114.49 71115700 69240170 67441030 65764030 64106000 62378560
3117.39 60694450 59072110 57397450 55541120 53363730 51174910
3120.28 49506070 48436370 47599840 46367610 44420680 42483590
3123.17 41355710 40696820 39757280 38463480 37190860 36138510
3126.06 35236960 34352840 33544450 32810950 32017890 31134040
3128.96 30108710 28928260 27665200 26290320 24819120 23403990
3131.85 22124720 20908550 19688330 18425240 17201840 16059750
3134.74 14855100 13693890 12698360 11732460 10813650 10066330
3137.64 9397592 8759002 8146798 7520186 6959992 6537926
3140.53 6133004 5734982 5429814 5103414 4782982 4532740
3143.42 4317244 4152826 3956928 3728860 3588952 3512582
3146.31 3472642 3461916 3416174 3338910 3327044 3329586
3149.21 3235808 3090126 2994844 3004024 3005018 2940554
3152.10 2883706 2866058 2883884 2876276 2863124 2888210
3154.99 2884274 2896032 2911314 2831834 2774252 2823342
3157.88 2873178 2853412 2800562 2838038 2983508 3085500
3160.78 3034940 2988804 3047560 3069640 3078364 3119346
3163.67 3133784 3149618 3181004 3238190 3293050 3257062
3166.56 3186898 3204226 3263598 3344220 3408012 3456376
3169.46 3496990 3489932 3478562 3505928 3585096 3611120
3172.35 3543774 3494886 3480672 3476820 3466234 3501730
3175.24 3536204 3507558 3502802 3506864 3398922 3260090
3178.13 3237702 3320566 3408908 3378862 3328916 3299082
3181.03 3205736 3086780 2951044 2812984 2691834 2620990
3183.92 2636982 2734972 2765672 2669196 2616532 2647574
3186.81 2605216 2505646 2389650 2204426 1997502 1787272
3189.70 1592124 1468380 1366258 1185310 1002836 932562
3192.60 935178 880078 797116 766030 662652 553286
3195.49 533660 527366 532440 543466 553914 531102
3198.38 492110 457296 411380 425312 462580 421826
3201.27 370170 394286 388722 277246 251756 355882
3204.17 370630 351036 357542 367474 432658 465230
3207.06 522730 618332 596328 551428 558912 505894
3209.95 430942 397838 384286 316582 200458 161150
3212.85 209338 231446 241300 278514 288446 285618
3215.74 276922 216688 117002-6594-119126-79230
3218.63 185590 489880 580814 571116 585020 531822
3221.52 436312 344938 249984 234716 250720 244932
3224.42 265934 247766 128136 41434-30 624
3227.31 78772 177954 259198 225378 123642 69062
3230.20 75886 132820 187548 167042 148476 258324
3233.09 359896 294976 250476 334542 353756 310204
3235.99 304968 284290 226646 175326 177634 188482
3238.88 173740 217454 278592 308602 362464 441178
3241.77 462026 420364 394338 453492 538384 537024
3244.67 520194 558496 512158 380686 356746 473474
3247.56 554800 510326 467882 478752 502084 525432
3250.45 537298 531460 476406 423934 501530 610750
3253.34 618166 593000 539492 523846 627504 723262
3256.24 712146 682414 647776 620830 656608 695692
3259.13 681484 680036 674016 681530 733004 722800
3262.02 688414 749656 864386 875766 833138 872270
3264.91 906144 904070 890328 882288 931752 936798
3267.81 849872 819334 880214 927094 927384 918138
3270.70 880682 868340 975536 1117604 1147820 1158824
3273.59 1179318 1131552 1051120 994174 965320 1007886
3276.49 1066150 1090982 1097530 1057784 1027050 1024954
3279.38 1017492 1026054 1036794 1036080 1033460 1049298
3282.27 1022372 965896 962640 974084 1000118 1026996
3285.16 1090004 1114444 1045506 996040 930502 872014
3288.06 876234 878114 848902 874446 970568 1066750
3290.95 1108826 1065740 990182 993686 1061728 1116560
3293.84 1096476 1029844 1025290 1034834 957028 865960
3296.73 835834 827782 861172 963978 973284 868356
3299.63 855216 876094 874996 947444 1062240 1150010
3302.52 1087986 986280 964074 917038 862682 895298
3305.41 945278 947646 907360 829766 798224 820300
3308.31 855068 895140 849774 752248 737806 826838
3311.20 900956 913466 895012 892144 933852 976952
3314.09 933956 848700 811706 839540 897268 924228
3316.98 918564 951780 1005798 1048604 988216 837266
3319.88 821622 926540 1003388 1074734 1062786 1021322
3322.77 1041214 1046774 1084914 1161884 1196534 1198994
3325.66 1181132 1218304 1336180 1444556 1411340 1273302
3328.55 1253830 1344706 1393660 1421740 1453956 1499358
3331.45 1505552 1455866 1455286 1555268 1647904 1608376
3334.34 1514514 1470496 1472814 1511636 1542478 1582232
3337.23 1575376 1487246 1419414 1414358 1480762 1590948
3340.13 1655220 1662810 1656960 1653158 1663982 1646796
3343.02 1586240 1516750 1451742 1437424 1455278 1455330
3345.91 1420442 1420930 1474482 1503826 1461272 1395922
3348.80 1388172 1394606 1348666 1279444 1247794 1264284
3351.70 1249368 1178894 1093536 1090376 1177286 1204366
3354.59 1153572 1153290 1116394 1027626 1007496 1034332
3357.48 1102678 1208058 1194582 1063660 1012912 1133760
3360.37 1280496 1301740 1285658 1313564 1353448 1427246
3363.27 1431522 1292924 1256524 1358598 1354300 1262940
3366.16 1249038 1264126 1248662 1239362 1217500 1228680
3369.05 1267776 1242844 1241328 1265972 1273530 1287610
3371.95 1282238 1340472 1460942 1521934 1485192 1476828
3374.84 1503506 1495920 1508714 1549454 1559822 1551634
3377.73 1547710 1533780 1474212 1424732 1479888 1585634
3380.62 1629616 1613258 1614672 1647730 1641914 1664242
3383.52 1666018 1565846 1491790 1470264 1461468 1457250
3386.41 1389308 1267270 1228026 1352830 1456706 1387846
3389.30 1240158 1208408 1350630 1414802 1325996 1281590
3392.19 1266778 1318382 1403908 1389830 1364326 1298782
3395.09 1215366 1249186 1289174 1254598 1206814 1210698
3397.98 1250496 1283800 1291562 1274972 1223960 1181688
3400.87 1154716 1118954 1090236 1041246 1031100 1090018
3403.77 1141160 1187886 1197014 1183810 1177186 1126712
3406.66 1082890 1104940 1158802 1221018 1196352 1115726
3409.55 1093206 1065364 1035838 1064638 1063828 981198
3412.44 918042 903590 836670 785888 880406 1058038
3415.34 1101806 1065314 1085516 1094368 1091482 1074932
3418.23 990146 861986 688060 566874 583206 697374
3421.12 855620 952514 967212 910618 854818 941452
3424.01 989776 949470 917694 882912 866652 896676
3426.91 917408 963134 1062730 1142708 1169904 1126570
3429.80 1048068 1017042 1054120 1072532 1066094 1046600
3432.69 995406 990738 1008338 941768 858394 941760
3435.59 1150676 1226090 1132190 1065694 1127956 1248350
3438.48 1349668 1418902 1390526 1270326 1217820 1321390
3441.37 1470860 1544788 1533572 1514278 1497974 1457170
3444.26 1427400 1477102 1534058 1505330 1471860 1443186
3447.16 1392880 1319116 1219806 1175910 1146376 1171932
3450.05 1286112 1381868 1376804 1238632 1140542 1088466
3452.94 1047830 1075390 1071446 1039984 1085702 1111920
3455.83 1007840 957134 1039900 1077882 1012248 1016342
3458.73 1070048 1030740 937336 963758 1053432 1037054
3461.62 971926 852378 743156 798700 873840 902314
3464.51 929064 894032 823896 742772 651784 674348
3467.40 706464 600722 492338 459336 469722 516814
3470.30 527484 526906 567978 618498 596640 512490
3473.19 452824 481760 527706 484638 419514 379546
3476.08 347676 311320 280296 291714 328840 358090
3478.98 354516 364558 380618 330220 282364 300570
3481.87 338340 367640 395336 394202 381786 411432
3484.76 409256 353926 357742 471942 562722 502682
3487.65 407162 397386 371554 358176 450132 534204
3490.55 486740 391756 398194 450784 402614 363930
3493.44 414848 494194 539276 506598 451678 410722
3496.33 395630 428760 504818 566052 579354 551714
3499.22 453518 365906 417914 532220 579956 574028
3502.12 503150 459638 501358 473456 431468 479220
3505.01 512444 547824 529088 463060 442962 408396
3507.90 390292 434286 454456 491550 548556 531772
3510.80 536326 542978 507416 514048 527484 521248
3513.69 532096 584142 629484 595572 548756 581058
3516.58 594650 567680 533740 540644 610624 607822
3519.47 558046 646270 765468 747452 651034 588686
3522.37 608790 646640 715076 905310 1060798 1099884
3525.26 1085058 950100 755152 669506 675538 673608
3528.15 603124 554286 603168 678550 666754 590102
3531.04 539358 536952 591864 627206 610116 647320
3533.94 716690 722484 692482 674470 644990 650086
3536.83 676008 655872 630974 675762 731688 769572
3539.72 742110 675190 685106 727972 715270 682352
3542.62 701706 767740 813092 809540 769976 757300
3545.51 777986 736854 722782 878078 998052 959240
3548.40 892196 846746 834780 859392 874010 827668
3551.29 780006 792602 887750 1006882 1066026 1110034
3554.19 1133118 1089308 974994 903022 870306 849914
3557.08 933550 959484 924920 987408 1018516 982562
3559.97 957508 939344 914910 948466 994460 1002958
3562.86 1001286 1016662 998570 935956 899580 902548
3565.76 907158 905908 899842 860934 793616 795746
3568.65 842328 832578 779534 690466 597168 613888
3571.54 671898 682812 668362 626256 624180 650924
3574.44 588694 540422 569104 587804 551760 486288
3577.33 470060 525554 521846 488372 551994 685542
3580.22 808214 859110 829006 832926 897630 932136
3583.11 903414 850842 801260 736454 649980 571682
3586.01 527290 614042 740518 677950 460264 451768
3588.90 677106 793522 771638 805984 871856 857182
3591.79 802252 744666 734516 824270 891528 841896
3594.68 765292 786184 847712 873962 885258 882742
3597.58 822982 732502 676110 681968 640554 523774
3600.47 494192 610658 846168 1072016 1122416 1024900
3603.36 966944 1014274 1006602 871272 691358 572532
3606.26 487146 458792 561292 656868 500930 271924
3609.15 339938 542034 599226 590144 598566 495504
3612.04 342712 392622 534442 524952 399344 387784
3614.93 493292 576838 642904 703710 669882 708066
3617.83 853296 771394 500672 455202 672290 834916
3620.72 865840 893700 960402 1009000 1026698 1008872
3623.61 1013788 1100120 1145048 1116564 1115912 1188388
3626.50 1260578 1202904 955892 754912 702550 594948
3629.40 700106 1034548 1165026 1145534 1198876 1263480
3632.29 1230410 1088142 1006128 1128242 1302544 1383476
3635.18 1379612 1395212 1477198 1552358 1570196 1555202
3638.08 1547262 1574226 1639214 1692790 1701160 1749978
3640.97 1837442 1920026 1995298 2022156 1992210 1976898
3643.86 1980042 1991328 2007032 1989616 1931146 1865330
3646.75 1829288 1912158 1990804 1801454 1549668 1733026
3649.65 2025886 2062834 2076058 2195488 2402848 2600756
3652.54 2680394 2658254 2607778 2554734 2530720 2482042
3655.43 2317908 2308668 2536720 2654826 2654536 2691914
3658.32 2681332 2614902 2571114 2589152 2624550 2592026
3661.22 2567302 2588956 2569022 2586638 2618118 2581850
3664.11 2600518 2672580 2640588 2559468 2544518 2507846
3667.00 2482812 2473188 2294144 2135668 2166420 2093248
3669.90 1663678 1401696 1702778 1912638 1893378 1954378
3672.79 1943746 1746998 1488386 1248856 1072366 853046
3675.68 791560 1128580 1417318 1517938 1556878 1490262
3678.57 1364436 1293350 1304728 1355406 1412216 1479212
3681.47 1531266 1498596 1360582 1267012 1299968 1318968
3684.36 1250272 1223698 1263298 1278346 1250814 1245246
3687.25 1029006 519102 481128 948822 1191536 1215628
3690.14 1160060 1108660 1169996 1251648 1232456 1175892
3693.04 1167992 1215820 1272572 1266704 1202630 1179920
3695.93 1225636 1268470 1224870 1141770 1113372 1184672
3698.82 1281116 1296986 1261496 1182896 995116 888942
3701.72 1059370 1234132 1227286 1206942 1216716 1224588
3704.61 1238096 1241238 1220460 1235710 1208354 1075554
3707.50 1009780 1059156 1017620 946806 1042514 1135130
3710.39 1052638 842858 486110 373778 761402 1091718
3713.29 1149092 1143356 1153360 1164644 1186174 1287596
3716.18 1357630 1265100 1125282 1092708 1096574 1087678
3719.07 1068734 1028460 1010630 1033014 1060830 1018042
3721.96 1019218 1183314 1318272 1315476 1223414 1143808
3724.86 1157354 1141962 1006250 948658 967290 923822
3727.75 925956 973674 929326 883056 924002 955298
3730.64 899452 706444 508538 653432 898634 983530
3733.54 1012458 893262 680108 583082 530634 346488
3736.43 303188 555286 702852 721828 795128 833108
3739.32 780362 749536 774318 749268 688366 693426
3742.21 695678 564220 232844-319156-644912-204838
3745.11 482038 775314 824068 850620 836194 805158
3748.00 633442 160498-130720 170044 516292 580288
3750.89 373992-182354-430244 50500 481384 602596
3753.78 639864 654386 637482 593750 561480 598400
3756.68 692582 730484 667858 589552 505344 443230
3759.57 499730 667874 762268 747364 639248 587304
3762.46 686168 724666 621078 562056 554186 511410
3765.35 529170 625296 666224 686914 717818 699436
3768.25 614244 494496 342644 330580 496180 674282
3771.14 791644 830912 851186 883778 807094 699666
3774.03 702290 776578 865158 896482 867962 828922
3776.93 809694 810368 816482 818794 776150 783614
3779.82 879840 926190 904078 912320 958596 1070298
3782.71 1229600 1272212 1229768 1248332 1217610 1134696
3785.60 1119438 1137762 1247096 1424212 1493116 1468112
3788.50 1452214 1473158 1474380 1491488 1546578 1577884
3791.39 1575798 1612062 1700504 1751118 1729676 1703600
3794.28 1676306 1698448 1711774 1594784 1509554 1546494
3797.17 1573476 1610918 1670172 1722090 1737930 1715022
3800.07 1579698 1057520 728274 1127238 1511688 1586102
3802.96 1614242 1674010 1779258 1840856 1813728 1778286
3805.85 1576126 1197466 1147564 1434488 1622978 1686370
3808.75 1705738 1706938 1733422 1768782 1758684 1705336
3811.64 1658888 1651082 1616332 1581478 1556734 1549108
3814.53 1446734 990906 522856 812794 1426604 1672190
3817.42 1678516 1695704 1752220 1739560 1618836 1461572
3820.32 1368896 1325070 1340838 1551806 1706436 1737460
3823.21 1846566 1981144 2026030 2027530 2041772 1948434
3826.10 1794384 1826076 1996580 2128502 2156304 2123200
3828.99 2111276 2112656 2106634 2044042 1902150 1924354
3831.89 2150852 2315006 2318186 2242610 2156008 2043612
3834.78 2040798 2229286 2420632 2424852 2092894 1600370
3837.67 1675930 2208858 2460968 2457152 2452994 2457878
3840.57 2427018 2462916 2531100 2582440 2606962 2596380
3843.46 2624246 2751532 2871708 2931780 2937720 2933946
3846.35 2980636 3048952 3114746 3217616 3267498 3245726
3849.24 3234250 3317076 3358938 3193430 2761362 2544642
3852.14 2877438 3052500 2560754 1970180 2210366 2988126
3855.03 3404226 3465478 3379670 3268710 3269752 3373970
3857.92 3413560 3347878 3261714 3159018 3096396 3113280
3860.81 3073404 3028782 3100370 3189258 3205722 3168558
3863.71 3024578 2726570 2572802 2800400 2981854 2964132
3866.60 2932222 2888148 2809500 2669298 2491332 2277528
3869.49 1995590 2075578 2401930 2513374 2555150 2619922
3872.39 2632762 2574200 2425120 2300608 2314710 2385120
3875.28 2434442 2409990 2336770 2284088 2232524 2196368
3878.17 2154146 2058694 1908184 1796356 1865728 2027918
3881.06 2113472 2189072 2250868 2187790 2084284 2036092
3883.96 1980634 1813054 1515966 1446086 1690984 1919784
3886.85 1999512 1999570 1948212 1854832 1790150 1820678
3889.74 1869556 1714640 1454512 1502310 1724154 1862046
3892.63 1902032 1856452 1813558 1837698 1853306 1814864
3895.53 1840472 1966094 2026762 1988062 1922720 1833622
3898.42 1663700 1550780 1664592 1832402 1887242 1793462
3901.31 1683734 1763404 1981432 2089270 1837340 1640570
3904.21 1888044 2137782 2092334 2001242 2112346 2244432
3907.10 2245776 2245626 2243882 2253876 2281126 2318476
3909.99 2374408 2412844 2422220 2404722 2389062 2468278
3912.88 2530322 2502068 2466926 2482600 2474868 2426386
3915.78 2436762 2501116 2531744 2609900 2805186 2922014
3918.67 2794972 2584012 2519780 2637020 2731748 2647172
3921.56 2513132 2549046 2669622 2689496 2637816 2603794
3924.45 2568810 2588242 2655022 2636262 2563284 2558888
3927.35 2528108 2461838 2462136 2468558 2448712 2398948
3930.24 2294068 2258440 2216314 2145440 2167754 2242070
3933.13 2255252 2193904 2139886 2146520 2165372 2170548
3936.03 2144392 2132936 2156052 2148396 2044128 1974580
3938.92 2033204 2149002 2206290 2141080 2057738 2047244
3941.81 1986812 1934426 1941260 1899004 1798746 1708004
3944.70 1722944 1816622 1833210 1846396 1972126 2013738
3947.60 1923812 1955764 2018000 1947320 1853042 1859144
3950.49 1922482 1947982 1917156 1931908 1946348 1900948
3953.38 1851458 1793634 1763746 1835434 1931710 1958120
3956.27 1936460 1974858 1979714 1867960 1777162 1810952
3959.17 1925292 2062720 2141248 2159978 2109688 1979924
3962.06 1886756 1959756 2075284 2131022 2190274 2169398
3964.95 2121490 2108886 2034626 2001230 2029548 2037504
3967.85 2050068 2091244 2147460 2179420 2186422 2234162
3970.74 2199156 2066896 2009706 2060192 2098506 2072118
3973.63 2032606 2054872 2116802
##END=
