##TITLE=Toluene
##JCAMP-DX=4.24
##DATA TYPE=INFRARED SPECTRUM
##CLASS=IUPAC A
##ORIGIN=NIST, Anayltical Chemistry Division, 301-975-3108
##OWNER=COPYRIGHT (C) 1998 by the U.S. Secretary of Commerce
##DATE=98/10/1
##$SPECTRA VERSION=1.00
##$UNCERTAINTY IN Y=2.4 % relative (B=1.4E-04,C=2.2E-09,D=2.7E-14)
##CAS NAME=Toluene
##CAS REGISTRY NO=108-88-3
##MOLFORM=C H3 C6 H5
##MP=-95 C
##BP=110.6 C
##$NIST SOURCE=QUANT-IR
##SPECTROMETER/DATA SYSTEM=IFS66V (Bruker)
##INSTRUMENT PARAMETERS=KBr Beam splitter; MCT Detector; Multipass cell
##STATE=gas
##SAMPLE DESCRIPTION=Toluene Primary Gas Standard
##PRESSURE=101.3 kPa
##TEMPERATURE=23 C
##SAMPLING PROCEDURE=1 L/min Flow
##RESOLUTION=0.9640
##DATA PROCESSING=Boxcar Apodization
##XUNITS=cm-1
##YUNITS=(micromol/mol)-1m-1 (base 10)
##XFACTOR=1.0
##YFACTOR=4.5474E-13
##DELTAX=0.4820
##FIRSTX=575.169
##LASTX=3975.077
##FIRSTY=1.87E-07
##MAXX=3974.59
##MINX=575.17
##MAXY=.0008631
##MINY=-8.49E-07
##NPOINTS=7053
##XYDATA=(X++(Y..Y))
575.17 412642 1611856-493454 905044 515402 728370
577.58-1646920 217570-1406286 713114 34832-225610
580.47-1698216 1517172-878086-103348-1422908-292678
583.37-1254972-296482-1130620 813486-1198172 843926
586.26-290318-1867208-539466 726140-591672 726574
589.15 716338 1539302-1323560 1312632-506564-361124
592.04-1082630 1440114-1184222 971572-146396 51034
594.94-1004494 1123314-1196950 880428 428518 1376416
597.83-1312880 1272426-609756 521216-303154 909352
600.72-643600-432926-288222 426224-609418 1086926
603.61 251060 629282-154924 599378-242194 716152
606.51-369874 1339886-533994 880732-2924 819194
609.40 467982 1634052-66416 1271440-830170 1611236
612.29-672026 1503700-470816 939890 43024 1233392
615.18 314790 1472620-136734 1296992 557702 1690050
618.08 186806 1272920-712828 1656708-30164 1146362
620.97-193694 1590396-504512 1187218-749666 1306190
623.86 252448 1153594-897342 1311372 376704 2367554
626.76 1399682 2721358 1299506 3631726 1555878 3720050
629.65 2014240 3561600 1676502 4206632 1735208 3420098
632.54 652130 2402532 836188 2577888 943500 2868884
635.43 604858 2524008 761136 3192874 820362 3030174
638.33 311840 2493258 825168 2390298 552994 2806564
641.22 305760 2544460 308626 3049642 1016420 2359314
644.11 498900 2485356 285788 2671934 1032536 3286700
647.00 467040 2420328 361098 2748042-281246 2718110
649.90 425582 3068442 66704 2588834 332572 2842146
652.79 638896 3064852 826322 3622670 1031418 3862062
655.68 2042510 3893732 1411188 4821268 2436608 5475072
658.58 2874088 6013744 3457926 7209348 4284738 8346646
661.47 6284676 9792072 7222722 10571140 8651800 13102240
664.36 10683540 14842300 13551230 17897140 16107460 21681970
667.25 19930460 25153790 23958480 29542080 28168820 33646450
670.15 34346130 41638150 42692820 49474800 49430330 58093220
673.04 58160940 68076120 65489700 73885870 75298580 84253930
675.93 86192740 94329890 96359150 106533500 109010600 122165700
678.82 125590800 138403000 155447000 174592800 156424700 154389700
681.72 151804700 154624800 148206900 154244600 148278500 155498000
684.61 151248500 159316500 154500100 160344800 156292200 162918100
687.50 159277500 166332600 163150500 179467600 195734400 189542600
690.40 155790200 173395200 189586900 231128000 242291100 397922400
693.29 915845800 1796606000 424133800 119191600 164658200 135335500
696.18 163176700 160612600 175708400 173336400 179049000 177787500
699.07 183463600 186688800 192811600 197837600 205968400 222368400
701.97 249537800 265361100 226439400 224661700 223206500 235231000
704.86 239527400 247356500 244665600 256384200 257560700 270540200
707.75 271439400 285502400 285316600 299701800 300039000 315019900
710.64 316180400 331659300 331333000 347611300 346454900 362061100
713.54 358819300 375535400 370552500 388543200 381473400 400249400
716.43 393011800 415486000 401335100 416186800 402771100 420651200
719.32 400579500 419242800 401229100 420578400 400439400 431977900
722.22 418138100 465390700 470736300 558975400 586722200 739788500
725.11 743894100 797958300 780365300 820204500 807691200 1461753000
728.00 1464307000 1513522000 1898041000 854778400 735281900 548158800
730.89 654727200 495099900 466579800 426969900 445209500 407541500
733.79 433655600 409165500 432518500 408025700 425289800 406733700
736.68 425296400 401823400 416030500 396343900 406666900 386119900
739.57 393121000 372674600 376888700 354769500 357513300 335400800
742.46 334107400 309723900 306312900 280843500 277099300 252264700
745.36 246735800 222376100 216622700 192680400 187284500 164404400
748.25 159840300 138735400 133860200 114446100 110775500 93565830
751.14 91311850 75205420 75183100 60508840 60696980 48233110
754.04 50904380 38127440 37453260 27262230 29624250 20582660
756.93 23713960 15590740 18873460 11522080 15242400 8680966
759.82 12517730 6754080 10565730 4716840 9602058 3944354
762.71 8012676 2548000 7371568 2433766 6584232 1662916
765.61 6255780 1636500 5923910 1310032 5572658 1180592
768.50 5551130 1539376 5724740 1777240 5665194 1291912
771.39 5383376 2502788 5814000 2159706 5898800 2284524
774.28 6509800 3162598 6056240 3213382 6737612 3219654
777.18 6444706 3620168 6872220 3405990 6844494 3463724
780.07 6560916 2428952 5881998 2400736 5705248 2526426
782.96 4344652 1844442 5515958 3266866 7674708 9036200
785.86 6850492 845076 3876402 979692 4371428 1222064
788.75 4395984 1890798 4899704 2369760 5131926 2596414
791.64 5536604 2938356 5603988 2544336 4695876 2064284
794.53 4799444 2150632 4653198 1528782 3459912 1226630
797.43 3394650 672394 3222408 366218 2989490 497514
800.32 2249544-98218 2147112 164558 2418934-360036
803.21 2320370 155758 2321068-176362 2094316-142652
806.10 1930448-107124 2137066 85122 1959484-33754
809.00 1824004-324178 2311820-369994 2131372 520320
811.89 2015774 47894 1953832 311590 1372578-162262
814.78 1593948 35616 1918894-388600 1655924-160528
817.68 1843746-170164 1432188-156568 1385052-156978
820.57 1985914-49010 1516358 147134 2246122-428918
823.46 1372160-52820 1453854 326622 1797882 280500
826.35 2237990-127178 1517970 224116 1772582 21564
829.25 1728272-157812 1342416 52212 1625314-151476
832.14 1330362 107006 1573412-43448 1756912 211150
835.03 1831674 255676 1386512 172556 1310888-67626
837.92 1594488-279846 1805838 449332 1731450-270418
840.82 1660414 58764 1309136 266096 1669524 259166
843.71 1519524-81168 1859576 418058 1382934 279980
846.60 2098962 281874 1643548 688954 2338930 599906
849.50 2294484 782368 2118856 766610 2084004 1286200
852.39 2228330 888800 1951610 895176 2487032 982956
855.28 2505638 1055018 2801388 1374448 2428432 1467324
858.17 2922160 1351960 2856890 1701098 2991636 1676482
861.07 3074448 1680410 2785834 1589084 2641796 1847352
863.96 3143212 1966486 3076560 1810078 3230040 1953556
866.85 3248250 2104164 3673310 2512162 3532476 2312106
869.74 3636514 2581498 3837668 2993750 4081802 2925142
872.64 4569032 4477784 6133864 3880544 4651912 3422092
875.53 4734192 3681146 4962182 4227106 5296302 4344708
878.42 5599260 4476340 5916860 4720774 6131686 5091798
881.31 6348050 5062448 6465314 5521854 6866388 5628090
884.21 6931300 5802594 7251760 5746086 7000186 6084660
887.10 7474540 6285756 7567416 6613420 7759410 6652724
889.99 7830084 7382778 9199774 8724498 11642830 12194510
892.89 16646230 19539440 30033450 28793510 12012460 8518028
895.78 8335598 6976740 7805820 7102018 8270386 7573788
898.67 7771542 6634034 7487380 6573672 7390340 6275918
901.56 7430856 6909424 7448532 6859606 7281114 6670622
904.46 7558924 6823958 7882622 6904412 7721806 6837160
907.35 7229842 6499858 6952422 6389708 7029440 5971710
910.24 6690552 6139512 6425938 5740204 6591620 6007814
913.13 6482466 5968778 6873084 6161588 7291768 6356192
916.03 6945076 6437756 6980266 6694584 7392574 6590722
918.92 7060948 6643834 7121116 6738730 7346740 6599522
921.81 7497508 7646716 8160992 9716918 10723300 9346022
924.71 9368546 7392544 8353452 7407800 8658544 7974482
927.60 8999240 8434610 9524336 8753398 9418704 8611578
930.49 9358444 8634236 9222344 8814370 9463010 8637364
933.38 9561182 8304818 8748040 7132072 7578482 6686528
936.28 7591314 6523812 7107992 6242288 6897174 5997078
939.17 6925184 5871856 6616232 5913848 6470852 5607898
942.06 6187812 5371916 5684156 4951154 5226236 4712244
944.95 5127788 4627238 4811140 4020930 4718440 3956768
947.85 4410098 3684728 4462658 3582186 4287508 3484494
950.74 4184432 3677068 4518762 3478400 4312314 3760520
953.63 4457676 4098526 4729406 4170472 4780982 4256538
956.53 4818454 4307702 4849732 4702880 5202852 4978984
959.42 5451522 4965922 5613992 4790078 5608514 5322658
962.31 5793604 5612644 6311036 5441038 5872086 5372652
965.20 6366996 5853012 6224238 5642836 6412786 5925540
968.10 6585050 6950304 8073666 8551706 8100854 6673016
970.99 7251564 6899392 8182986 7297514 7091652 6600420
973.88 6927250 6421980 6926070 6588860 7067736 6246590
976.77 6632950 6648628 7019990 6506426 6974456 6037640
979.67 7688074 6783218 6655624 6230448 6419934 5534368
982.56 5873102 5508290 5564234 5020720 5571524 5006082
985.45 5595316 4880612 5315722 4971524 5282392 4769532
988.35 5169854 4703084 5390482 4586250 5011516 4376472
991.24 4800622 4203324 4642264 4201832 4754754 4463312
994.13 4695184 4362522 4700040 4249976 4475424 4220650
997.02 4351902 4062738 4280228 3907474 4249940 3671366
999.92 4047488 3884342 4172710 4062088 4272172 3832462
1002.81 4344170 3914784 4344066 3802494 3949080 3516830
1005.70 4080186 3967572 4491454 4389522 4769428 4490034
1008.59 4730758 4511896 4961778 4830310 5187324 5518186
1011.49 5825956 6099492 6439064 6757948 7265270 8164864
1014.38 8988604 9665562 10963240 12225960 13711990 15236210
1017.27 17130870 19283390 21414000 24225580 26650860 30037510
1020.17 32782710 36259900 39396230 42976320 45481040 48923850
1023.06 52505550 54074700 53514580 55301580 55403750 56597850
1025.95 52013220 50524330 46516820 45383190 40632420 40361680
1028.84 35234830 42887870 47303380 49577390 56850860 134916600
1031.74 113711500 41083400 38994860 28110560 36634180 35047910
1034.63 43665800 44138580 51691350 52532060 58263860 57836100
1037.52 61775030 59872210 61630640 58781660 59002210 55680790
1040.41 55093980 51633160 51967610 49572260 53016350 47580720
1043.31 52465400 51018060 45044210 39863260 40441230 36581230
1046.20 34049190 36133820 36074690 29214790 26899220 27272960
1049.09 27260170 25864630 25939060 24959190 25982660 26993320
1051.99 28676360 25066550 26899370 26493370 29025380 29122480
1054.88 31624380 31039190 30358100 28923470 28533390 27325120
1057.77 28065100 27785370 28964990 28138990 29275710 28672500
1060.66 29596660 28983310 30334350 29570370 30594540 30226120
1063.56 31493480 31156930 32556460 32406150 33953850 33825040
1066.45 35551280 35709640 37268690 37905620 39513750 40155320
1069.34 42001560 42120910 44766100 45514210 47072640 48005040
1072.23 50573620 51467740 53346860 54687220 56959940 56506840
1075.13 57188940 56455980 59934650 61219760 59902990 57011920
1078.02 55383630 51720970 48316370 42936120 39515120 35885760
1080.91 35059860 33773240 35898590 37654330 40828220 43356550
1083.81 46825620 48369980 51140020 52120420 53434340 53309770
1086.70 54578750 53684780 53447320 51656240 51885660 50416660
1089.59 49603300 47874880 47601290 45609220 44987520 43453000
1092.48 42668680 40492430 40191880 38669350 38217350 36799230
1095.38 37006180 35824640 35540210 34506820 34127410 33122110
1098.27 32889310 30685990 29816020 27612660 26753400 24323750
1101.16 23225960 20382510 19097270 17212650 17185330 16406070
1104.05 17194770 17097540 18232180 18443970 19976650 19974720
1106.95 20836590 20499520 21181110 20584150 21036740 19949360
1109.84 20129170 19422130 19347210 18530170 18907180 17643040
1112.73 17036470 15986770 15678870 14583890 14439050 13268750
1115.63 13312680 12032840 12168450 10949020 10986750 9778402
1118.52 9855640 8730098 9008328 8233896 8217812 7473904
1121.41 7662000 6923280 7096430 6313748 6476692 5570906
1124.30 5901410 5175510 5527112 4983248 5182142 4439754
1127.20 4892942 4156922 4617482 4087784 4629600 4149838
1130.09 4715326 3975760 4418852 3966546 4331848 3707676
1132.98 4036864 3638088 4059242 3646322 4027782 3476866
1135.87 3814960 3560168 3862690 3552368 3907344 3364340
1138.77 3685140 3188106 3693946 3016832 3554676 2906234
1141.66 3604954 3192826 3641834 3206224 3685422 3218496
1144.55 3640132 3303772 3919962 3280672 4009564 3371590
1147.45 3999740 3721118 4036864 3694708 4195800 3630220
1150.34 4433260 3897684 4222432 3908332 4522376 4027160
1153.23 4468026 3925486 4376504 4041046 4519090 4133504
1156.12 4915718 4518916 4980498 4852966 5177466 4725526
1159.02 5223846 4921242 5305046 4919518 5355062 4917718
1161.91 5355880 4925836 5482376 4969092 5159256 5091700
1164.80 5799992 5415668 5866122 5318762 5556286 4998240
1167.69 5494960 5310550 6103312 5870928 6483350 6183266
1170.59 6828686 6445136 6688454 6371074 6642978 6179542
1173.48 6459966 5765636 5966466 5591348 5543076 5178868
1176.37 5489648 5565358 5767528 5918390 6319326 7228646
1179.26 6221028 4926088 5473790 4802642 5299220 4712270
1182.16 5497110 5030838 5756754 5505580 6218476 5519674
1185.05 6369812 5887052 6279360 5715434 6289292 5520538
1187.94 5737282 5321382 5460612 4875458 5149192 4513816
1190.84 4964572 4523886 5176370 5047938 6473980 5137886
1193.73 5118488 4699218 5007632 4783076 5393434 5092270
1196.62 5825726 5967112 6772730 6702642 7392226 7562972
1199.51 8313382 8459358 9148446 8934908 9694084 9519622
1202.41 10203470 9867962 10321010 10114750 10505290 9994724
1205.30 10317920 9752858 10068900 9386448 9421942 9024542
1208.19 9497274 9087166 9604278 9713296 10982690 10963860
1211.08 11357970 12198200 14162830 13962060 11078230 8246500
1213.98 8471094 8500024 9409882 9772788 10483360 10765860
1216.87 11469130 11396150 11941090 11430370 11692900 11023070
1219.76 10896530 10150320 9869678 8806850 8761664 7812074
1222.66 7629758 6640720 6702750 5803322 6000060 5034984
1225.55 5164360 4715106 5192140 4404508 4906428 4419432
1228.44 4894552 4577806 4988766 4725848 5624194 5309176
1231.33 5958956 5758904 6135238 5969304 6286386 6050042
1234.23 6535814 6241032 6347600 6042396 6491014 6018728
1237.12 6397226 5749808 6111062 5607678 6365678 6064554
1240.01 6845064 7001316 8610014 9187680 6665518 5626706
1242.90 6197138 6244318 6353418 6205162 6595322 6344128
1245.80 7168980 7286320 8141454 7158732 7141598 6811634
1248.69 6882820 6363932 6466374 6016956 6019308 5512510
1251.58 5500288 4857100 5128736 4437378 4603076 3988206
1254.48 4192170 3661842 3867598 3269542 3485602 3243924
1257.37 3557504 3073598 3346906 2856898 3158866 2563196
1260.26 2763962 2365900 2670638 2270350 2549300 2235806
1263.15 2563206 2153974 2292952 1847866 2233196 1871708
1266.05 2213704 1920270 1969630 1728892 1818740 1503004
1268.94 1910852 1488740 1955780 1396910 1911208 1591694
1271.83 2027686 1551068 1916774 1544330 1684238 1619802
1274.72 1826154 1572690 1976316 1596666 1944276 1742586
1277.62 2066830 1744740 2054376 1646082 2090970 1771634
1280.51 2151334 1801986 2266394 1888632 2241642 2024424
1283.40 2329196 2238604 2714140 2314422 2715984 2355532
1286.30 2794344 2594538 2889790 2757950 2868556 2869230
1289.19 3188570 2894080 3360264 3079778 3383924 3064036
1292.08 3358794 3138122 3647334 3257328 3471088 3325838
1294.97 3606340 3308906 3735298 3621780 4028668 3895714
1297.87 4495830 4271996 4737890 4660364 5246240 5140038
1300.76 5468428 5464954 5990382 5676588 5988040 5742826
1303.65 6233518 5994678 6148190 5885060 6114550 5650178
1306.54 5773402 5193990 5196848 4771050 4734722 4532332
1309.44 4538228 4327896 4611354 4571826 5096510 5025920
1312.33 5521278 5734798 5997994 5879758 6319014 6032366
1315.22 6274536 5956158 6369074 6008818 6203690 5702704
1318.12 5934776 5540806 5666000 5537236 5433472 5124506
1321.01 5358106 4999672 5008572 4659240 5234272 4886056
1323.90 5026826 4791484 4928608 4652716 4720804 4216432
1326.79 4333044 3994414 4300206 4042630 4316168 3916888
1329.69 4185414 3769212 4157148 3838000 4211844 4276868
1332.58 4412816 4152440 4499148 4179134 4293766 3825596
1335.47 4247172 3968594 4303186 4074584 4484502 4179396
1338.36 4485876 4257160 4619312 4287262 4830778 4628772
1341.26 4794280 4811310 4911828 4927442 5196876 5067562
1344.15 5288234 5099010 5470390 5189396 5665470 5533542
1347.04 5897230 5869654 6248484 6087688 6579758 6256576
1349.94 6742040 6596478 6973060 6898432 7183042 7115524
1352.83 7484132 7520704 7803488 7995890 8479630 8798492
1355.72 9690514 8934768 8847446 8317890 8593906 8747958
1358.61 9126236 9170808 9525746 9712102 9750754 10081820
1361.51 10775430 10715680 11152180 11352760 11820640 11683950
1364.40 12221740 12349160 12936030 13151750 13781180 14170190
1367.29 15083710 15449630 16082480 16517960 16952830 17318480
1370.18 18649570 19003910 19706420 20362960 20989260 21877790
1373.08 22802820 23019870 24144760 24190330 25549140 25820900
1375.97 26779280 27282550 28100520 28006330 28278220 28040500
1378.86 28208360 28546510 28780260 29400050 30662790 31641620
1381.76 32901990 35944290 42526140 50344500 46154560 36271600
1384.65 34607540 33863450 34072930 34141010 36036340 36533590
1387.54 38822830 39520930 40355560 39989110 40853650 40086110
1390.43 39605310 38195120 37484620 35606900 34033240 32115370
1393.33 31113350 28835800 27716860 26682760 25451330 24294600
1396.22 23430560 21896390 20944520 19914050 19816720 18611350
1399.11 18735530 18065620 18043810 17533230 17501720 17146730
1402.00 17323510 17774550 18199080 18260590 18494290 18147740
1404.90 18467880 18811750 19126070 21460770 22528050 18847960
1407.79 18026830 17107080 17636180 17382050 17570410 17378110
1410.68 18090090 18219230 18936180 19062120 19644420 19806080
1413.58 20515100 20525700 20898340 21334490 21846250 22841000
1416.47 24598850 24914270 25411080 24930570 26348300 26689610
1419.36 27874720 29435340 31768990 33867810 31715910 30040040
1422.25 28464900 26275930 24260530 23642570 24343830 23318750
1425.15 23178560 22250550 22468460 22422650 23024690 22849210
1428.04 23607530 23909320 25172510 24895150 25887120 26737120
1430.93 27009550 27207160 28175690 29050990 29553700 29554610
1433.82 30159210 30077380 30438130 30698600 31402750 31317720
1436.72 33405150 34787300 36581200 38275980 39996350 41275600
1439.61 43131040 46837180 49458040 48453700 47870430 48537220
1442.50 50313620 51585590 53211140 54937640 56641860 57848510
1445.40 60017170 61319320 63026790 64588880 65733010 68108850
1448.29 70428420 72023140 72596990 72839220 74144740 73894190
1451.18 73384300 72547270 72210410 70706710 69044030 69458940
1454.07 70124200 69742730 72109060 72153300 71693340 69837190
1456.97 74231170 76560950 75450210 75242820 75018140 76550330
1459.86 78147600 79242580 80188470 80396660 81084760 82670380
1462.75 90236320 86383360 77009230 73548350 70793910 70573230
1465.64 68718900 67733400 68968220 69797640 69009140 70772940
1468.54 72209620 74539060 77254380 79691500 80637710 80633040
1471.43 78870690 78776940 78820210 75268300 72668340 72157080
1474.32 70969840 69896360 68446710 67122150 66415420 67490330
1477.21 67597980 65216600 63718160 63049600 62986320 62821480
1480.11 64106570 65673280 67948240 70820170 74466350 79212940
1483.00 83586340 87808430 93878860 101888800 112462100 123642900
1485.89 127728500 134209000 141254900 149858200 157424400 167268400
1488.79 175750500 184723900 192899400 201453700 209165300 216609800
1491.68 219007700 218933900 217930800 216694200 212382200 208118800
1494.57 200070300 196384400 192730600 196814300 206235700 215129400
1497.46 216695200 215622000 209751600 238243200 285849600 353601800
1500.36 261024900 188850600 174719100 167763400 177698500 186320300
1503.25 202340400 209499800 218655100 222860900 227951700 231120800
1506.14 231749700 226739500 223430700 215542600 207216600 196216200
1509.03 184811900 170181600 159158300 145918300 135079500 123691300
1511.93 114361600 105524600 97794020 89957220 84542040 78281460
1514.82 74326380 71278950 69762020 67685600 65304790 62952150
1517.71 61643900 57589880 53853050 50655010 48195640 46242160
1520.61 43792190 42248440 43910930 42110650 44629780 45356390
1523.50 49204350 51656480 54242330 49380230 47325980 49185950
1526.39 49173250 45543680 43986860 43381740 43506920 43377200
1529.28 43972990 43787690 43909580 43440740 42774460 42004720
1532.18 41581120 40486870 40064270 40061410 42949480 43307650
1535.07 41466280 38812100 39250620 39590130 38899530 34747960
1537.96 34594910 31390100 32368020 32353200 30684550 31505440
1540.85 31349820 30155180 29888140 30774890 30166450 29375740
1543.75 28739060 27843500 26651160 26532980 25444470 24574920
1546.64 24006310 23141330 22774810 22346490 22303400 21740240
1549.53 21757770 21873350 22814870 22662590 22019460 21382820
1552.43 21589250 21324680 21620780 20588110 22429760 22672650
1555.32 23590350 23378330 24318890 23389250 24218050 23938310
1558.21 23404780 25483670 24760000 23684450 24719770 25671820
1561.10 25205980 25135550 24445980 24104380 23432480 23430850
1564.00 22497700 21369530 20545980 19851500 19441000 19148170
1566.89 18952730 19283810 19393970 19804370 20734070 21212000
1569.78 22946170 24190430 24847430 25594930 26309840 26897210
1572.67 26313290 26346370 25951700 25789670 25347610 25403480
1575.57 22840510 23813450 24876470 24054120 24062770 23555630
1578.46 23326940 22844640 22432960 22040990 21465520 20936000
1581.35 20431450 19841060 19543340 19226940 18852660 19010300
1584.25 19342190 20148850 20658260 21806290 23589610 25690910
1587.14 25745660 20888290 20408070 21458200 22544870 24001930
1590.03 25479530 27468500 29277120 31502380 33458440 35896290
1592.92 37947770 41004650 43486200 46924670 49422940 52875230
1595.82 55864100 59736400 63051740 67226230 70839410 74672300
1598.71 77669060 81223010 84612620 88274750 88177950 88832890
1601.60 89346920 91167020 90004980 90324410 89313010 91500630
1604.49 90682020 94832140 97705010 102565000 103475200 106534000
1607.39 99472260 108353800 125401500 174365700 145258000 97643990
1610.28 100383000 95725760 102515700 102884400 108435400 109633000
1613.17 114119000 114065000 115024200 114026000 114293800 108476900
1616.07 102015500 98368660 97721520 90129980 85834110 84413050
1618.96 86654590 98775860 99069300 75712340 66667700 62755650
1621.85 63674230 57305850 55600050 53868770 53492720 51383020
1624.74 51102930 48590120 48043480 45544830 44493380 41549980
1627.64 40180440 37364600 35401550 32182390 30052710 27051580
1630.53 25171280 22233180 20727270 17833830 16493350 14177400
1633.42 13318410 11064680 10362500 8048508 7289314 7638506
1636.31 7121254 6173382 6013230 5559040 5739506 5050574
1639.21 5034144 4501642 4669032 4104408 4538114 4026632
1642.10 4284826 3921000 4097648 3688150 4080944 3840396
1644.99 3928622 2329542 3970868 3891768 3624986 3554652
1647.89 3701528 3745982 3928240 3858390 3771608 3870726
1650.78 3977272 4222492 2147964 2499236 1849562 2498738
1653.67 3640646 2239682 3691996 2929384 3407272 2650270
1656.56 3413234 2821082 3559942 3292248 3855008 3574466
1659.46 4315978 3940562 4400324 4092462 4526534 4096336
1662.35 3891390 4131752 4686988 4096366 4544764 4139068
1665.24 4497660 4063020 4723132 4088130 4736396 3828606
1668.13 4537090 3306766 3454290 3990900 4099674 3677748
1671.03 3700456 3488824 3895182 3356010 3877666 3744896
1673.92 3668454 2799802 3090424 3627926 3959452 3689774
1676.81 4057704 3684038 3939344 3752948 4154882 3884976
1679.71 4270326 4043444 4423054 4129852 4340578 4069744
1682.60 3847036 3484100 4057382 2383868 1769426 4191988
1685.49 3813548 3853864 3537132 3466900 3306332 3127570
1688.38 3180372 3241438 3139456 2887866 3168188 3001834
1691.28 3274914 3165780 3275486 3296448 3542896 3681698
1694.17 3519198 3567070 2228966 1688042 4444142 4130472
1697.06 4749504 5092612 4597846 3717808 3578056 1760554
1699.95 2422948 2202130 3565390 3277182 3765716 3293062
1702.85 3652172 3444092 3257454 3225216 3860890 3592194
1705.74 3480392 3300918 4122360 3782194 3990498 3716282
1708.63 3954992 3864952 4157148 3809414 4417894 4228506
1711.53 4717730 4475640 4915016 4749824 4844110 4889944
1714.42 5055324 4652068 6090498 5539814 6443192 4174328
1717.31 6266126 6598640 6651024 7502392 7999532 8093432
1720.20 8652508 8808812 9409214 9642394 10209210 10301830
1723.10 10872570 11178110 11647280 11696540 12124580 12153780
1725.99 12482600 12070600 12071170 11856140 11850360 11252590
1728.88 10975920 10112170 9713814 9289164 8695464 8067100
1731.77 7891770 7859918 6934038 7617196 8869896 8093312
1734.67 11080640 11390950 12835100 12581440 13013140 12583980
1737.56 12677690 12006120 12153830 10697000 10215260 10203170
1740.45 10069510 9524536 9154128 8581642 8071748 7493898
1743.34 7412304 6683048 6655974 5927792 5860474 5363516
1746.24 5211296 4615918 4914294 4248690 4023944 3773614
1749.13 3913106 3386896 3566184 2461934 2507508 2972838
1752.02 2969054 2682776 2793988 2527328 2805914 2603636
1754.92 2790776 2611076 2705136 2009776 2918442 2614538
1757.81 2925056 2841770 3257524 3227594 3518764 3324740
1760.70 3662144 2836992 3325416 3573620 3955022 4008174
1763.59 4217492 4296316 4693674 4833070 4947420 4861920
1766.49 5228940 5171936 4989756 4988680 6040102 5606616
1769.38 6033362 5884502 6331044 5897016 6865954 6679260
1772.27 6507710 7862902 8178172 7568396 8078126 7832782
1775.16 7989360 7936932 8508306 8328954 9004562 9204118
1778.06 9854174 10146980 11181210 11314280 11049780 10774550
1780.95 11163070 11088360 11822350 11856000 12719020 12843310
1783.84 13608630 13326060 14266410 14816870 15741630 16503470
1786.74 17623840 17898260 18737780 19260490 20568990 21534330
1789.63 23010930 23881140 24826980 25063890 26202760 25359180
1792.52 26327830 26615480 26756880 26516090 26868220 26628870
1795.41 26771580 26259140 24812580 22956570 21890770 20467400
1798.31 21424860 23352480 29147870 38846450 51310600 38763520
1801.20 19244190 17615720 17415440 19124660 19910710 21374380
1804.09 22716130 24204290 25142170 26350470 26919560 27249420
1806.98 27170800 26938420 26682880 25970430 25051160 23609840
1809.88 21881080 20274160 18986800 17571080 16263900 14891460
1812.77 14033790 12876200 11819370 10963330 10313730 9369566
1815.66 8761580 8171834 7635202 7099530 6920222 6682212
1818.56 6887000 6834706 7335102 7703876 7843154 7975682
1821.45 8199466 8027204 8197180 7968010 7905796 7700576
1824.34 7530552 6985256 7496406 7140158 7050392 6814090
1827.23 6887286 6482604 6510316 6176238 6417112 5801538
1830.13 6215714 6129872 6421456 6302416 6401710 6404410
1833.02 6649280 6589956 6777684 6738466 6979344 6960806
1835.91 7433292 7459922 7975514 8102840 8588576 8963530
1838.80 9489406 9777330 10324020 10738750 11373960 11709300
1841.70 12441750 13051360 13725940 14455130 14393920 15607700
1844.59 17060690 17687590 18726800 19038730 20015130 20530080
1847.48 21129770 21735330 22296140 22647950 23070180 22820840
1850.38 23127100 22656290 22269090 21526320 20874030 19805980
1853.27 19047740 18096190 17144000 16066920 15781560 15715940
1856.16 16524400 17684780 19797620 22076880 25178920 27576890
1859.05 29350300 30625980 31778500 32149520 32500230 32531590
1861.95 32766820 32138630 31587470 31025970 30786550 30033040
1864.84 29159100 28099590 27316120 26112950 25401310 24442350
1867.73 23250770 22972450 21102090 20133170 20336910 20211310
1870.62 21159460 21824920 23708420 23858100 19529400 15798550
1873.52 14765820 14151100 14639860 14897490 15468950 15940380
1876.41 16346370 16551650 16873820 16658630 16576210 15985880
1879.30 15525860 14754330 13984340 12933070 12125620 11097820
1882.20 10175670 9097510 8482248 7517786 6950580 6239618
1885.09 5755658 5321336 4994232 4610452 4408524 4035194
1887.98 3889778 3658660 3469310 3317922 3600888 3335214
1890.87 3437598 3148768 3385262 2972350 3146434 2962566
1893.77 3052764 2937702 3037112 2875956 3065910 2803212
1896.66 3141046 2984992 3127932 2874066 2956138 2592016
1899.55 2684836 2525178 2663494 2539774 2679244 2630660
1902.44 2926132 2799352 2677366 2372050 2479850 2188968
1905.34 2483984 2364114 2601316 2524830 2676444 2510226
1908.23 2705048 2700994 2718306 2748824 2940358 2993444
1911.12 3067190 3029896 3322228 3254408 3456650 3454310
1914.02 3705150 3717156 3949340 4003872 4367730 4354472
1916.91 4791742 4480414 4971204 5342636 5672702 5801004
1919.80 6266582 6459552 6936054 7324254 7626136 8016830
1922.69 8612636 9217524 9896696 10350410 11271740 11981750
1925.59 13032680 13224060 13707780 14347900 15387520 16100440
1928.48 17226380 18058150 19310770 20206880 21302480 22405890
1931.37 23460890 24371420 25293180 25710080 26556690 26927900
1934.26 27289660 27263920 27336440 27177430 26864260 26269050
1937.16 25691490 25072560 24406430 23368260 22527780 21591960
1940.05 21082040 20687200 20970000 21439190 22681460 24445570
1942.94 26927910 29500710 31972150 33559580 35035210 35670140
1945.84 36323720 36647330 36804000 36353420 35778550 35138480
1948.73 34476770 33561760 33024970 31687670 31058220 29759770
1951.62 29165810 28361090 27438900 25639020 24489540 23554440
1954.51 23063230 21854280 20764770 19577000 19323540 20041450
1957.41 21600010 23635510 21910520 17595640 15079290 13555100
1960.30 13224780 13047080 13581370 13645990 13981200 14100960
1963.19 14284930 14139930 14195270 13688600 13317320 12546980
1966.08 11993020 11112450 10278910 9370238 8710052 7794104
1968.98 7177110 6346426 5799424 5105078 4726130 4071612
1971.87 3868968 3282312 3135532 2752256 2577166 2393878
1974.76 2448466 2105108 2178552 1937458 1999276 1777356
1977.66 1853860 1820982 2009626 1830086 2012038 1998010
1980.55 2205122 2212868 2534040 2437462 2835264 3012438
1983.44 3500746 3523192 3015992 2376778 2475634 2386328
1986.33 2613560 2455306 2624382 2455272 2719206 2600902
1989.23 2854654 2927034 3052452 3000354 2889606 2828204
1992.12 3141088 2871320 2848304 2702250 3002356 2970420
1995.01 3201376 2712252 2601336 2349626 2596916 2589284
1997.90 2835656 2696562 2856332 2758426 2810362 2793022
2000.80 2980540 2755982 2909610 2780604 2840468 2607292
2003.69 2554862 2407990 2471572 2227048 2335158 2022308
2006.58 2216374 1978896 2091332 1861374 2135738 1791294
2009.48 1958896 1993540 2320132 2169400 2056026 1773610
2012.37 1755706 1750940 1780672 1528086 1717228 1412674
2015.26 1606890 1462784 1540168 1548502 1641832 1413414
2018.15 1634918 1490058 1511130 1346886 1427836 1249520
2021.05 1340914 1144258 1309320 1227042 1344960 1208064
2023.94 1350712 1219590 1203104 1086376 1178218 921330
2026.83 989876 886488 851962 900072 925814 727620
2029.72 861018 687024 796740 643632 835478 607572
2032.62 718296 533920 673016 557772 560022 517794
2035.51 574666 408230 615938 232670 358638 205506
2038.40 519940 259324 525228 314678 354046 177608
2041.29 338760 182682 358234 310418 351774 288384
2044.19 304742 158466 218592 217026 313802 303966
2047.08 203068 243728 279284 93860 257370 85332
2049.97 251464 187784 173946 99708 374368 59556
2052.87 326294 189266 346896 159452 409788 354818
2055.76 357610 289818 383194 199320 371328 326150
2058.65 362330 272786 471458 213510 392634 200294
2061.54 205782 141858 140474 72916 257278 439482
2064.44 524904 407962 632182 434008 458982 522108
2067.33 549930 432754 662242 413042 508312 338880
2070.22 376096 326536 559534 504480 488998 362638
2073.11 547304 379450 491112 433408 560692 359586
2076.01 539068 401122 629552 516818 602556 506322
2078.90 764006 656142 660144 451794 458000 591130
2081.79 549772 339242 600266 283862 444834 304858
2084.69 414252 398190 366804 372006 451622 389826
2087.58 399850 313612 631178 363966 494348 374334
2090.47 518844 404304 504138 547998 408112 332076
2093.36 452972 218690 468486 430538 399998 296154
2096.26 449984 355774 529760 339616 523792 509582
2099.15 582136 361120 417230 363180 414224 446360
2102.04 505026 353780 457070 383918 553428 469264
2104.93 508338 449804 524324 263596 482678 468988
2107.83 604224 518534 424074 517078 519978 357926
2110.72 599460 672160 660280 584264 702110 533266
2113.61 546370 452804 617088 612848 512070 541996
2116.51 558352 528538 535352 525882 567910 466248
2119.40 605266 577126 668342 670500 726762 601530
2122.29 698342 557888 808500 546024 630906 591322
2125.18 720254 679666 699182 515142 785858 618778
2128.08 841490 516876 637396 608438 773050 508158
2130.97 614598 553736 583380 632630 651952 762458
2133.86 753008 574216 761368 632250 577116 507060
2136.75 649174 479722 494072 360998 600120 415850
2139.65 544548 397578 546546 326512 508334 393932
2142.54 513074 377930 542646 411502 525012 531892
2145.43 561782 428074 575000 572060 614614 491404
2148.33 661670 468664 636174 604370 758802 567494
2151.22 774500 660448 934146 740032 1055710 999810
2154.11 1154474 1120728 1159952 1154010 1445324 1407000
2157.00 1505372 1664856 1736138 1722684 1955908 1825814
2159.90 1891484 1931368 2087152 2226532 2206842 2120536
2162.79 2297436 2206424 2275894 2207476 2309944 2364308
2165.68 2242850 2254946 2553722 2802344 3256524 3225826
2168.57 2814670 2446526 2292444 2186536 2418874 2469680
2171.47 2701048 2599924 2921892 2921696 2993836 3025542
2174.36 2992422 2952974 3281868 2984432 2925514 2738042
2177.25 2788252 2815850 2613384 2469198 2344234 2253536
2180.15 2114568 2097206 2089302 1802518 1957512 1914040
2183.04 1825378 1571464 1689844 1510280 1427980 1362474
2185.93 1478920 1374668 1406394 1313130 1414160 1426748
2188.82 1423578 1354704 1490670 1433114 1674356 1620412
2191.72 1799402 1675708 1532220 1464952 1579688 1553166
2194.61 1348822 1390578 1478498 1407148 1408322 1191282
2197.50 1318126 1240240 1328620 1256432 1315088 1201004
2200.39 1102462 1162502 1199200 1083124 1086802 1133454
2203.29 1244264 1172428 1022328 1100802 1102790 920508
2206.18 1108802 1072112 1042502 1037142 1197972 1168696
2209.07 1266078 1172886 1096080 934826 1119834 942098
2211.97 995454 934582 1202558 963112 1046818 1088180
2214.86 1238094 1105248 1123992 1129076 1205516 1142028
2217.75 1215464 1079244 1038968 929366 1059228 873096
2220.64 1082560 987644 1013592 1069496 1192852 1125562
2223.54 1023070 883656 978124 929622 1111066 923870
2226.43 1023218 1001858 1021694 943090 1043388 969442
2229.32 1065310 1106164 1206698 995012 1155306 999206
2232.21 1095184 913834 1051796 972358 997496 1035244
2235.11 1065118 1013394 1223390 1162440 1346632 1197212
2238.00 1033520 1082110 1063106 1192542 1317926 1196902
2240.89 1351294 1286362 1360410 1462676 1533222 1307576
2243.79 1616024 1505180 1688526 1538440 1678530 1731158
2246.68 1707502 1571880 1797360 1741730 2128564 1934278
2249.57 2008514 2006538 2058856 2037214 2056204 2104854
2252.46 2240444 2182596 2192426 2164690 2273130 2276480
2255.36 2415394 2237550 2437460 2304702 2338638 2255588
2258.25 2197392 2190400 2256484 2219028 2200226 2053278
2261.14 2300172 2234564 2309100 2232912 2382848 2193710
2264.03 2488808 2466772 2526344 2500680 2628226 2591038
2266.93 2674046 2525800 2684958 2631124 2795230 2869230
2269.82 2795220 2706784 2751874 2814622 2776922 2816232
2272.71 2728972 2688594 2877330 2959554 3067040 3106920
2275.61 3013238 3082798 3164500 3156742 3245826 3132340
2278.50 3223776 3100650 3151960 3024450 3046222 2965948
2281.39 2977942 2907684 2915614 2706414 2939722 2921572
2284.28 3082666 3030038 2926414 2898032 2890722 2848022
2287.18 2902954 2984076 2978046 3064838 3067168 3095858
2290.07 3069944 3082500 3103746 3088924 3130308 2915254
2292.96 2843682 2627726 2748312 2742098 2841744 2803666
2295.85 2832168 2824496 2777608 2867948 2827418 2813750
2298.75 2933406 2997778 3006080 3032496 3214252 3294868
2301.64 3250510 3353680 3412568 3593030 3739574 3859142
2304.53 3926208 3833342 4035856 3958238 3995008 3928108
2307.43 3765768 3742170 3664392 3618836 3569726 3431168
2310.32 3644124 3616310 3723328 3933260 3821968 4552052
2313.21 5556016 4268288 4369404 4148682 4117192 3984526
2316.10 3899734 4002394 4178410 4148880 4225010 4672216
2319.00 4784392 4733800 4536518 4702152 4746696 4589432
2321.89 4546056 4730250 4857970 4292444 4339454 4593868
2324.78 4433050 3998490 4171236 4299920 4426372 3946970
2327.67 4148494 4566626 4496794 4077216 4436694 4794908
2330.57 4419990 4037566 4505612 4568184 4058606 3847846
2333.46 4396350 4168838 3696348 3782276 4205566 3873592
2336.35 3699782 4126692 4500600 3989428 3956626 4449912
2339.24 4638780 4151868 4714740 4837658 4604528 4647316
2342.14 5294616 4919754 4919152 5175026 5197252 4911994
2345.03 4942688 4967726 4874272 4576438 4732286 4463532
2347.92 4380026 4378562 4494406 4328674 4373918 4212340
2350.82 4613636 4604144 4376830 4670796 4876440 4469494
2353.71 4784722 4904804 4616554 5032274 5285904 4630526
2356.60 5288990 5190804 4669990 5160980 5088600 4392950
2359.49 5054080 4591798 4129900 4749466 3779532 3663068
2362.39 4202272 2962008 3502246 3563204 3019676 3918318
2365.28 3493610 3627608 4350030 3830928 4562752 4316026
2368.17 4266406 4503428 3858548 4229598 3944134 3752350
2371.06 3934762 3333362 3736154 3250110 3458000 2980886
2373.96 2859018 2930052 2558324 2659132 2572302 2565652
2376.85 2580116 2655052 2449792 2451314 2462378 2380490
2379.74 2583786 2458324 2563422 2549834 2561800 2558574
2382.64 2659152 2379844 2516554 2403826 2604516 2384428
2385.53 2663372 2349814 2415310 2385502 2472088 2431674
2388.42 2581702 2649652 2534846 2713606 2768728 2667198
2391.31 2798196 2638398 2599224 2615932 2616722 2626264
2394.21 2775958 2703288 2873038 2838228 2832204 2758860
2397.10 2826174 2874236 2743350 2832712 2937104 2860428
2399.99 3051900 3209906 3366160 3154652 3067892 3049586
2402.88 3265146 3303996 3202130 3289512 3451634 3446630
2405.78 3516552 3435256 3641942 3618760 3600610 3617902
2408.67 3664514 3666668 3590786 3592772 3631082 3535040
2411.56 3795428 3825426 4091760 4280608 4402996 3969380
2414.46 3961114 3805718 4048076 4019696 4269244 4245130
2417.35 4429900 4299852 4355242 4323304 4337724 4413100
2420.24 4222582 4457330 4641214 4686076 4708366 4459218
2423.13 4339324 4159290 3958928 3978456 3898206 3839034
2426.03 3725776 3769400 3727886 3529872 3684552 3402098
2428.92 3476912 3377216 3371724 3601252 3205772 2899044
2431.81 2851958 2750168 2778774 2727100 2757336 2574194
2434.70 2578292 2655098 2639630 2410188 2712670 2432160
2437.60 2278900 2235734 2188042 2271184 2183002 2093702
2440.49 2273718 1980120 2174762 2011454 2104702 2037390
2443.38 1965148 1967560 1844994 1805574 1885408 1879350
2446.28 2018828 1810378 1841268 1907054 1846486 1825706
2449.17 1922060 1819432 1886452 1848458 1949374 1865578
2452.06 1957028 1821350 1960330 1870304 1943204 1874346
2454.95 1930616 2052924 1970682 1935006 2071392 2033534
2457.85 2152834 1976180 2187482 2163398 2169990 2162166
2460.74 2188410 2375186 1999966 2194806 2072512 2060124
2463.63 2208182 2110174 2272606 2127360 2322912 2194270
2466.52 2334468 2189366 2173910 2164584 2287652 2058040
2469.42 2094768 2137490 2175184 2280772 2052254 2114404
2472.31 2020602 2031462 2146492 2020896 2035458 1990610
2475.20 2053958 1873190 1902266 1979350 1856088 1982660
2478.10 1975610 1853166 1796048 1891600 1825680 1801938
2480.99 1710764 1776434 1772168 1686102 1643322 1760950
2483.88 1897598 1630056 1726592 1639670 1675926 1700442
2486.77 1859784 1858742 1707654 1728078 1831920 1751174
2489.67 1866718 1852560 1870828 1903832 1813120 1844898
2492.56 1904754 1787150 2098768 1927520 1992164 2016714
2495.45 2176108 2066094 2090916 2119342 2084294 2147568
2498.34 1988688 2086172 2206722 2278478 2325722 2132490
2501.24 2098210 2078466 2098704 2146730 2023462 2015910
2504.13 2155306 1968600 2082194 2069852 1992160 1967806
2507.02 2132926 1991808 2018846 1938748 2190498 2109324
2509.92 2137136 2016336 2142190 1976722 1859466 1867304
2512.81 1887214 1929658 1874778 1794326 1800878 1737756
2515.70 1811222 1765402 1758254 1605350 1787608 1635816
2518.59 1859504 1627418 1574204 1631288 1697422 1683148
2521.49 1492806 1721912 1511924 1501196 1666210 1550196
2524.38 1559186 1466236 1576406 1683858 1788808 1602892
2527.27 1627422 1510966 1611634 1645558 1694612 1451350
2530.16 1526112 1756336 1601890 1530108 1543494 1525932
2533.06 1769260 1685136 1818796 1755362 1772172 1715588
2535.95 1638154 1684962 1601256 1676792 1622810 1515688
2538.84 1625506 1584500 1693960 1474068 1538666 1520008
2541.74 1651800 1553808 1591654 1582320 1708942 1600136
2544.63 1663950 1564956 1628562 1467080 1453122 1581774
2547.52 1635308 1552516 1563408 1736782 1600292 1729106
2550.41 1580110 1628926 1795516 1614690 1750622 1463022
2553.31 1550694 1668480 1431402 1572922 1391616 1451164
2556.20 1404840 1251330 1345436 1307726 1322844 1438152
2559.09 1341748 1310794 1400948 1498860 1435392 1450552
2561.98 1483248 1338154 1241614 1373224 1413502 1499960
2564.88 1546892 1430468 1522150 1564012 1637384 1590242
2567.77 1753520 1624002 1737510 1794198 1835904 1817510
2570.66 1786790 1871704 1976788 1993214 2004728 1932516
2573.56 2122780 2287840 2358004 2142302 2411208 2300618
2576.45 2528144 2522966 2681400 2803798 2838804 3047074
2579.34 3096714 3320540 3479500 3632506 3771706 4178410
2582.23 4143572 4042148 4234990 4299490 4242922 4475146
2585.13 4690992 4663782 4889074 4795078 4847210 4926500
2588.02 5054868 4849436 5023282 5014942 5038288 4913500
2590.91 5014610 5019120 5272240 5429440 5466426 5489470
2593.80 5633046 5405488 5182078 5252158 5684594 5849930
2596.70 5928890 6067918 6148070 6070178 6053524 6136122
2599.59 6078814 6002388 5767788 5617560 5633316 5335134
2602.48 5044320 5007438 4628422 4454034 4297346 4008758
2605.37 3955002 3974424 3753328 3491060 3594494 3385706
2608.27 3474734 3265058 3358410 3351198 3380156 3617512
2611.16 3549520 3257996 3325896 2956484 3001222 3055138
2614.05 2884280 2949608 2893234 2864836 2972620 2901912
2616.95 2972640 2835224 2842536 2833440 2874910 2701378
2619.84 2895952 2838612 2956680 2909870 2995488 3132382
2622.73 2991200 3020380 2909052 2973586 2961550 2846150
2625.62 2843978 3032800 2870970 2944142 2737674 2604764
2628.52 2795996 2705488 2683876 2663514 2748230 2760078
2631.41 2654590 2530214 2554022 2524580 2593478 2489152
2634.30 2483360 2524388 2537452 2430852 2458094 2564698
2637.19 2651564 2608224 2808926 2617170 2437688 2549882
2640.09 2471356 2291228 2253298 2432136 2378842 2555168
2642.98 2370972 2505386 2472324 2424572 2195922 2110520
2645.87 2007074 2150888 1979990 2045986 2032892 1942722
2648.77 1914212 2031792 1929704 1970064 1920462 1795982
2651.66 1846754 1600738 1782894 1822970 1904900 1815818
2654.55 1829780 1667228 1719828 1442520 1600232 1577968
2657.44 1578680 1374504 1307002 1546164 1349726 1373784
2660.34 1469282 1286634 1275810 1418774 1541276 1507584
2663.23 1296980 1274658 1208350 1290032 1253460 1473580
2666.12 1355360 1271726 1376346 1307602 1262634 1364722
2669.01 1290460 1217208 1345114 1347630 1303678 1219696
2671.91 1260752 1171884 1105938 1304766 1220016 1215780
2674.80 1104920 1158044 1040874 1116482 1207912 1139128
2677.69 1220362 1247686 1250094 1057350 1232598 1152874
2680.59 1029478 1269264 1261260 1074102 1277088 1245244
2683.48 1317054 1147944 1095938 1139964 1267724 1284204
2686.37 1067118 1054346 1315996 1152462 1144108 1195238
2689.26 1271338 1283348 1241898 1150398 1186284 1181902
2692.16 1322176 1198692 1198490 1119516 1089888 1133902
2695.05 1124504 1052812 1206652 1060872 1239824 1102100
2697.94 1466158 1474480 1132266 1113630 1096914 1153106
2700.83 1106364 1264220 1300272 1342584 1316212 1152004
2703.73 1296806 1306422 1186408 997614 1269898 1227634
2706.62 1153054 1297012 1384706 1160224 1144116 1357168
2709.51 1347714 1374054 1356294 1312908 1307836 1356542
2712.41 1615706 1416264 1443328 1553200 1600458 1670846
2715.30 1798662 1568886 1638154 1645134 1870056 1706862
2718.19 1846270 1872412 2015914 1915368 1927284 1979490
2721.08 2072906 2103556 2193640 2266442 2423320 2367672
2723.98 2638242 2729116 2692474 2868824 3135818 3092020
2726.87 3500662 3765724 3712192 4157966 4625142 4816508
2729.76 5137508 5533650 5806952 6515338 6926582 7167070
2732.65 7803746 8376262 8991768 9412716 9986134 10391500
2735.55 10928340 11102780 11327190 11765910 11991250 11998990
2738.44 12054660 11919620 11650820 11438630 11402640 11292220
2741.33 11130550 11007550 11778490 12523000 14242510 16582860
2744.23 19799790 20163520 16510680 12208420 11006580 10831470
2747.12 11653280 12319460 13261740 13954720 14921530 15467820
2750.01 15826410 16380570 16335030 16246990 15557370 15159650
2752.90 14421010 13429890 12364980 11473390 10780640 9756134
2755.80 9047988 8326976 7717546 6910306 6627072 6004384
2758.69 5781014 5378946 5329980 4927302 4786392 4541906
2761.58 4335416 4346114 4117410 4000542 4011538 3707722
2764.47 3709410 3541600 3256240 3090060 3020428 2893710
2767.37 2864760 2882122 2939602 2805280 2931238 2937934
2770.26 3044346 2930214 3015216 3003400 3062558 3128814
2773.15 2954434 3073642 3038444 3216266 3042300 3070718
2776.05 3089336 3193562 3341904 3255260 3299338 3440838
2778.94 3489452 3291292 3532768 3627718 3617580 3692756
2781.83 3858028 3728888 3434698 3707086 3449058 3730788
2784.72 3547104 3709476 3643934 3870612 4037884 4116724
2787.62 4139594 4185228 4035846 4129300 4141310 4283446
2790.51 4013400 4239480 4212262 3872254 4104140 4338768
2793.40 4302976 4344526 4396708 4364510 4350064 4490924
2796.29 4551798 4400218 4426644 4339626 4517370 4831396
2799.19 4837232 4847956 4842214 4893796 4539692 4777626
2802.08 4713234 4660150 4852800 4848774 4933258 4859676
2804.97 5099540 5034674 5110548 5188126 5137430 5562276
2807.87 5458578 5639042 5584844 5807042 6143890 6205634
2810.76 6295388 6312526 6367448 6524886 6488108 6751944
2813.65 6913882 6910354 6932336 7146768 7262260 7669588
2816.54 7853784 7983604 8039158 7997500 7997348 8368186
2819.44 8327262 8450492 8758138 8672468 9157230 8991810
2822.33 9132988 9077504 9154118 9296030 9188532 9096136
2825.22 9306028 9212890 9211268 9369440 9501108 9554198
2828.11 9710152 9795640 10018280 10478680 10512200 10890300
2831.01 11155860 11219070 11535200 11731400 12060080 12179190
2833.90 12569440 12495480 12726200 12836150 13004790 13053300
2836.79 13253810 13550550 13795020 14108400 13963500 14147390
2839.69 14266840 14362150 14831990 14857160 15049720 15474120
2842.58 15824760 15663380 16192060 16469320 17022350 17740660
2845.47 18116110 18625090 19131910 19625670 20377300 20850400
2848.36 21636190 22206720 23128830 23735740 24664320 25570820
2851.26 26406870 27418160 28310610 29124710 30346810 31520670
2854.15 32445500 33681010 34682860 36150310 37262790 38889490
2857.04 40240280 41819400 43311990 45139610 46899230 48686560
2859.93 50553370 52226410 53959780 56188240 58416130 60639080
2862.83 63060510 65326470 67288580 69572690 71816410 74098010
2865.72 76475380 78709800 80742370 83142030 85094510 87615020
2868.61 90072610 92476320 94644180 97463480 100097100 103753300
2871.51 108253000 111117400 112048000 114101800 116389900 118775800
2874.40 122248600 125113700 128434800 131896400 135165800 138216400
2877.29 142080500 144673700 146529300 148005000 149282400 150274000
2880.18 151099300 151794500 150340900 149362800 148525600 147669700
2883.08 147130000 146113100 145766300 145305500 145282100 143822200
2885.97 142493600 141454900 140684200 140320000 140450300 140466100
2888.86 139928800 139614200 138309400 137293400 135239100 133752700
2891.75 132504300 131418500 129937700 128484900 126633100 124892900
2894.65 122960100 121088800 119296200 116851000 114466100 112605300
2897.54 110302600 107923900 105886800 103314300 101158300 98781020
2900.43 96761930 95080270 93536530 92029860 90778620 89457670
2903.32 88920240 87983580 87269660 87638400 86973270 87186830
2906.22 88099090 89315030 89371060 89370640 89544040 90324220
2909.11 91647310 93459260 96011680 98146120 100225200 101608000
2912.00 103186300 105801400 107821200 108508400 109857800 112160600
2914.90 115013100 118867600 121991400 124706200 128917600 133701300
2917.79 138803800 141646900 144633800 148737900 153508600 158751600
2920.68 163990100 170508300 176904000 184091800 191402100 198772900
2923.57 203830500 209372100 214574900 219769400 224299200 227478100
2926.47 231125800 235844200 237372500 237217400 237346000 237221300
2929.36 237506300 238113200 241087500 244836200 249521600 254565300
2932.25 259387800 263076600 265420600 266682600 267083200 263646600
2935.14 260023100 259718100 261023400 263388200 267417700 270167400
2938.04 269036500 270289600 268241400 268587400 267418500 262468800
2940.93 259359200 257798100 256911900 256169500 254295000 251225200
2943.82 245929900 241431600 237595900 234462400 230520200 226506000
2946.72 220497700 213811300 206099900 199549000 192962700 187438800
2949.61 181978300 175938000 168660300 161650500 157349100 154324900
2952.50 152197800 149443500 147941100 149842400 151422300 149953600
2955.39 146529100 138938700 130321200 123845600 118893000 116244000
2958.29 114728300 114921600 114146300 114824300 116036400 117006300
2961.18 115141800 114221300 112806600 111323200 110419200 107927900
2964.07 102950700 100523500 98712050 97550570 96114280 94746460
2966.96 92068450 90360020 87956660 86594820 84026830 82212430
2969.86 80137140 78489260 76485010 75130980 74241790 74188040
2972.75 74365220 75105820 76108360 76745380 77374690 78669010
2975.64 80202050 81290770 81742640 82576100 83296900 84296290
2978.54 85179660 86299460 86823060 86842760 87185710 87349780
2981.43 87180330 87402960 87497800 87960700 88521980 90195580
2984.32 92571200 95535530 97858930 100985000 100908900 97741260
2987.21 93173590 90035650 87849910 87058220 86747910 87471100
2990.11 88628360 90753190 93474710 96496750 99212730 100661800
2993.00 100795000 99781710 100027600 100874400 102483100 104666500
2995.89 108428200 113870800 117486800 118837200 118684500 116624700
2998.78 114130400 113582800 113716900 115780600 119963900 123843800
3001.68 128144900 133677000 139052700 143524400 147957900 151201700
3004.57 150405200 146662900 143496700 141213000 141075200 141642100
3007.46 144233400 146934900 148965500 149146400 148891600 149522300
3010.36 150990100 152637500 152940500 151981000 153897900 157770600
3013.25 162097800 166241200 169344700 172140100 174551300 177215300
3016.14 180116800 183535400 188119600 193561900 199501700 205448800
3019.03 212570900 221161200 230356100 239436300 250860400 266149400
3021.93 278067100 285373700 292282000 301784800 313622600 325949200
3024.82 337249300 348635400 360208300 371740100 384482300 397812800
3027.71 412430800 428151600 445322700 459612100 471034900 477664400
3030.60 480625500 481789900 485618900 488501500 489173100 489454400
3033.50 488872900 482798900 476325600 470677800 469251300 469358500
3036.39 470690400 472375200 473226000 474129000 477963500 484126100
3039.28 489766600 488269600 485043600 486837400 496944400 493127500
3042.18 483161000 483875500 486737300 489269700 489699800 488472200
3045.07 485693700 480343700 472862600 463588500 450959000 436972800
3047.96 422730100 407527000 392106200 377170700 361634100 346106200
3050.85 330926800 315746500 302941800 290784000 280078900 271490300
3053.75 263645900 256966400 250309600 245591100 241501600 238428300
3056.64 236322200 233907600 232855000 233152900 233978600 235404900
3059.53 237897300 240520200 241738300 243441300 244937100 247454700
3062.42 250187100 252823600 255549800 257387400 258500900 260379000
3065.32 261900700 262328000 261962000 260081800 259543600 259403600
3068.21 258474300 258468000 259286600 260585000 265585200 271428500
3071.10 280623800 292507700 305867800 321308300 329964500 318451800
3074.00 290783100 274129100 264194800 262075600 263055600 266562700
3076.89 271002900 275166600 278973200 282743000 285073500 287572000
3079.78 288611300 288702000 286634400 286611400 286102700 279067600
3082.67 269524700 263891300 259533900 255635600 251555400 248205900
3085.57 245186600 242686000 240077700 238011300 235039100 232989300
3088.46 229259300 225438800 220668100 217037900 211977500 204768500
3091.35 198437100 191083200 184193200 177719700 171670100 164745200
3094.24 159308900 154879200 151689400 149014900 148203400 149091700
3097.14 151345100 154541700 157946500 160734500 162860800 164428200
3100.03 165207200 165018600 162908300 160071500 156985600 153359900
3102.92 149546700 145250400 140634800 136293700 130714500 126588400
3105.82 121765800 116748300 111688800 107756000 104026200 100287800
3108.71 96131130 92799420 90003860 87644100 85416180 83422660
3111.60 81403050 79838560 78032730 76612860 74669010 73185980
3114.49 70973610 69334600 67264300 65808060 64160220 62373300
3117.39 60560670 59232940 57293160 55876210 53374820 50870540
3120.28 49194550 48347250 47674760 46976040 44427840 41859420
3123.17 41127320 40968200 39994360 38342200 37135960 35977680
3126.06 35362750 34261150 33470290 32907980 32014650 31184040
3128.96 30246660 28868300 27765540 26335410 24807310 23279460
3131.85 22145730 20892310 19705560 18496360 16971240 16289020
3134.74 14764960 13580770 12699850 11823980 10565410 10160290
3137.64 9338150 8743616 8182116 7507956 6841998 6529590
3140.53 6260422 5490122 5609430 5045306 4716108 4592006
3143.42 4223044 4180326 4059200 3566770 3645350 3459180
3146.31 3470492 3459482 3490130 3259540 3283350 3465668
3149.21 3184154 3149262 2840042 3062862 3062684 2891582
3152.10 2902916 2810878 2907424 2938904 2726234 3019220
3154.99 2825234 2850474 3037894 2813308 2642414 2906644
3157.88 2842608 2958618 2683712 2809684 2957124 3241838
3160.78 3034414 2817822 3182566 3059464 2986222 3244858
3163.67 3031774 3224202 3105862 3272424 3287676 3406712
3166.56 2953206 3358744 3123318 3435460 3395920 3417466
3169.46 3590126 3432732 3505854 3444296 3578436 3782802
3172.35 3378026 3612656 3346312 3615732 3341758 3524634
3175.24 3610528 3464386 3460110 3603066 3462796 3091728
3178.13 3302406 3177290 3617576 3328986 3242356 3471430
3181.03 3069660 3224730 2835062 2916564 2569308 2686268
3183.92 2481364 2829530 2848626 2652250 2474764 2784208
3186.81 2621896 2429502 2536810 2114866 2060460 1752918
3189.70 1584522 1384392 1499902 1153860 940020 886984
3192.60 956148 1003356 580690 958502 641760 416562
3195.49 655332 412458 622140 467042 615400 545154
3198.38 429280 555046 311726 415152 532312 445498
3201.27 273418 413720 495306 260070 16086 595100
3204.17 317842 268584 520326 133218 625494 388946
3207.06 439686 766250 618142 390284 746760 412688
3209.95 469930 330512 443978 359808 152286 72494
3212.85 274626 252820 155116 370208 246908 297932
3215.74 292522 269252 56426 104024-286004-105362
3218.63 574 814396 512226 550222 618930 620696
3221.52 289876 536276 32494 332882 215312 276236
3224.42 170962 473162-34914 68632 34334-156748
3227.31 220722 20152 453868 197242 107964 33528
3230.20 64712 103594 255242 203302 15328 241938
3233.09 533216 288102 44144 500582 365422 236670
3235.99 351860 297192 221258 165496 99988 343234
3238.88-154 298482 257672 340030 270060 544874
3241.77 449874 454424 311182 432346 611334 581018
3244.67 384226 664546 593338 278450 283338 465128
3247.56 715680 430614 450288 494616 474272 564288
3250.45 507246 576580 505178 333622 405748 840374
3253.34 447756 745474 456244 487570 553162 930418
3256.24 569446 779746 600400 619024 584016 840802
3259.13 567676 727216 707156 550486 867962 704280
3262.02 643458 679596 945046 983522 635680 993288
3264.91 880816 900180 937338 793510 943700 1081614
3267.81 725484 816442 839666 1049820 803492 1051800
3270.70 788504 892474 794008 1395390 986964 1227358
3273.59 1165932 1224742 927636 1104812 828104 1042408
3276.49 1109000 1036170 1183690 1029816 976038 1100932
3279.38 934084 1086186 994672 1083410 986586 1051178
3282.27 1148156 768074 1130346 816880 1122640 945404
3285.16 1055214 1331050 823322 1169348 838708 882158
3288.06 822050 989372 744914 873934 947472 1119922
3290.95 1111868 1157128 864538 1009040 1044124 1160590
3293.84 1157018 954406 991520 1147228 933806 820840
3296.73 831462 857420 743166 1026388 1137764 698942
3299.63 835316 1036106 630734 1140622 844564 1430026
3302.52 1017418 918448 1001950 973424 733788 930754
3305.41 977672 935362 964088 803958 704448 943426
3308.31 686424 1089480 780494 801170 553074 965928
3311.20 838382 1013196 804366 952188 818862 1141126
3314.09 875064 880246 714470 896704 823020 1077334
3316.98 745998 1070838 904488 1143586 1074238 755550
3319.88 638132 1166580 778112 1276244 1037064 929212
3322.77 1120516 1028816 979286 1316964 1072872 1343746
3325.66 1054128 1236302 1278674 1552624 1500570 1188060
3328.55 1105458 1531704 1260400 1535362 1348748 1569514
3331.45 1534646 1437998 1373966 1552752 1741364 1669314
3334.34 1386232 1572816 1320010 1652768 1433832 1634632
3337.23 1654342 1430924 1408154 1388968 1423764 1649038
3340.13 1682086 1649824 1672258 1634936 1651506 1741636
3343.02 1483706 1639952 1303200 1524232 1369650 1576082
3345.91 1330506 1418250 1468470 1563794 1474902 1352290
3348.80 1348986 1493088 1286582 1349566 1098980 1405198
3351.70 1171354 1295176 966892 1088942 1131396 1418918
3354.59 915182 1301780 1125672 969942 973864 1091810
3357.48 955026 1362444 1245984 1025558 892102 1104472
3360.37 1416380 1297690 1214382 1370892 1305688 1389254
3363.27 1668440 1138106 1134026 1490444 1428228 1143290
3366.16 1254756 1327266 1181590 1287480 1221760 1110680
3369.05 1439304 1151362 1198702 1395908 1093038 1500796
3371.95 1080938 1421434 1375494 1725192 1342344 1498170
3374.84 1532362 1496324 1434894 1643776 1503400 1603464
3377.73 1486226 1619412 1448450 1383656 1394228 1711688
3380.62 1575200 1708334 1436494 1848162 1503300 1679242
3383.52 1798688 1486460 1455704 1530090 1363458 1577060
3386.41 1357486 1319826 1012292 1430792 1553812 1429310
3389.30 1198200 1050522 1377974 1673864 1065568 1435576
3392.19 1183734 1215320 1618404 1263806 1396424 1433952
3395.09 961278 1395912 1242586 1346354 1085246 1271908
3397.98 1184798 1371620 1222504 1364110 1177716 1166228
3400.87 1201878 1062602 1134014 1058428 884128 1240514
3403.77 1011800 1297944 1171728 1166684 1208984 1170492
3406.66 950820 1206976 1038512 1334344 1247014 1007074
3409.55 1134922 1113008 910242 1151966 1064788 1051898
3412.44 728406 1117714 702872 828176 662774 1296956
3415.34 1095262 983604 1127382 1128942 995730 1247862
3418.23 861240 1012658 601898 504342 550728 670784
3421.12 856866 1093930 811270 1211010 416660 1243926
3424.01 899288 1000760 864440 956228 741384 986600
3426.91 891444 884444 1143330 1099054 1264356 1099442
3429.80 1074724 904160 1128168 1080620 1017678 1149546
3432.69 905980 977382 1073818 985230 750482 813780
3435.59 1279776 1344282 1071226 1010826 1066206 1335562
3438.48 1276294 1522428 1420678 1280498 1045108 1379806
3441.37 1449502 1668774 1453614 1555996 1481998 1497762
3444.26 1349930 1442214 1665686 1443524 1457078 1524772
3447.16 1281628 1498528 1025478 1276110 1130314 1013814
3450.05 1456678 1230360 1679718 1028198 1169374 1160152
3452.94 875740 1210648 1037114 1039688 959142 1398318
3455.83 812148 966158 956882 1331860 784070 1081012
3458.73 1066554 1153332 801322 886450 1224536 982664
3461.62 970350 1010230 428092 959276 847878 890200
3464.51 957604 969468 695560 939108 423600 719328
3467.40 817490 604826 360406 586190 280994 699860
3470.30 418746 588610 469286 735890 587566 525394
3473.19 393804 425130 666946 432568 415488 389834
3476.08 319554 367674 189956 341176 275218 429982
3478.98 327936 316676 481508 306272 223718 318358
3481.87 333708 379368 370276 488164 241976 511384
3484.76 405116 370630 221856 526048 624410 608202
3487.65 188968 557580 314046 307278 403916 692600
3490.55 454350 388364 240528 683932 293888 327812
3493.44 429412 458582 652142 455936 473314 390890
3496.33 375082 408172 488514 648490 513364 660930
3499.22 428706 301310 312062 705010 467426 706490
3502.12 470058 350142 576352 584394 159432 737410
3505.01 311422 677606 563132 360066 511724 414914
3507.90 284812 514286 462568 359958 755172 401242
3510.80 536482 665694 351700 615602 468664 582000
3513.69 435912 644006 607000 734052 315230 756424
3516.58 517788 621182 512624 466384 649170 748056
3519.47 339450 676652 864512 776212 623408 554774
3522.37 551136 781332 465790 1034972 1117506 1071548
3525.26 1144434 1077096 552912 745702 564286 840998
3528.15 507020 545800 534876 777124 696766 545926
3531.04 543572 497466 558782 771274 459692 699338
3533.94 696258 838648 534946 846942 483872 740784
3536.83 606594 801248 416354 831438 620194 865104
3539.72 773894 597942 657322 803062 699826 676096
3542.62 632848 829728 796166 865680 739404 713968
3545.51 821178 823188 473154 963840 1147258 869132
3548.40 953092 775192 866162 799080 979662 790148
3551.29 750222 788974 778618 1187878 926780 1227508
3554.19 1061784 1230974 894168 835830 1018208 625210
3557.08 1021950 1127610 622010 1224504 910016 1094816
3559.97 801354 1134934 696792 1084024 915090 1103868
3562.86 890506 1101786 995686 943944 832196 961350
3565.76 856948 961112 839372 986032 662696 804524
3568.65 869816 882152 715486 832440 396804 669044
3571.54 690794 686416 671736 677500 439076 908598
3574.44 433276 568476 516740 694274 482242 578798
3577.33 264638 707352 479568 457254 471354 764196
3580.22 748402 1023874 706078 849888 868098 1036582
3583.11 831846 930392 697584 896984 466224 768558
3586.01 269718 701656 730232 956268 210096 290312
3588.90 815762 904408 664122 784790 959916 858222
3591.79 771036 814234 551336 936420 886620 958544
3594.68 581184 857500 818402 937020 804968 998920
3597.58 771038 777082 579264 710162 767998 390262
3600.47 474780 537878 806274 1233630 1146566 1079930
3603.36 748710 1198724 953924 1024676 507090 672820
3606.26 420770 413010 475908 865392 635528-57058
3609.15 303142 714284 579866 563274 605300 722556
3612.04-11864 498644 503988 770942 145446 437932
3614.93 431520 716246 448530 944708 575018 526958
3617.83 1076494 928366 324584 228404 830388 869592
3620.72 879334 820286 1019648 1001476 1030456 1076470
3623.61 839350 1223154 1152462 1118174 1049692 1187330
3626.50 1324200 1288032 1079158 324052 1152822 290150
3629.40 481972 1328598 1205892 1031156 1224732 1308190
3632.29 1282416 1142438 744310 1227308 1282296 1499310
3635.18 1313764 1375186 1456558 1631426 1533192 1606724
3638.08 1465186 1632076 1532190 1872516 1536324 1824444
3640.97 1780920 1979352 1932848 2174852 1849328 2079708
3643.86 1881654 2079844 1909258 2161454 1749938 2073290
3646.75 1549964 2052564 1958542 2234310 858840 1858756
3649.65 2281506 1934032 2087910 2112282 2408538 2683646
3652.54 2718336 2672234 2577590 2612742 2383754 2747768
3655.43 2175860 2052230 2738812 2742416 2489048 2835114
3658.32 2652466 2633152 2518750 2567664 2681368 2637790
3661.22 2397312 2789202 2433254 2581954 2727356 2513706
3664.11 2518572 2793468 2682714 2443264 2591550 2591632
3667.00 2243782 2809974 2189952 1975708 2218064 2312294
3669.90 1872592 471796 2289214 1896042 1784226 1971966
3672.79 2153682 1641598 1580334 1140700 1062058 1103186
3675.68 51710 1612928 1310914 1596828 1563702 1592824
3678.57 1253142 1315798 1225468 1432968 1328244 1552966
3681.47 1481880 1668802 1261804 1217674 1256520 1491166
3684.36 1118374 1232322 1253166 1340550 1225818 1147728
3687.25 1599446 89192-106394 1627868 900380 1484204
3690.14 1021718 1131416 1041964 1455022 1138466 1226504
3693.04 1066712 1276804 1228838 1408270 1066830 1237080
3695.93 1119586 1430080 1161654 1178952 1005108 1189642
3698.82 1331070 1345652 1192440 1326838 990846 628236
3701.72 1064256 1495880 1041918 1317190 1119398 1326328
3704.61 1111888 1413384 1050256 1328622 1256702 1098200
3707.50 786228 1260006 1024706 804444 989784 1395744
3710.39 900486 1067572 492454-272462 1116492 1175564
3713.29 1128208 1174966 1076038 1291338 1002390 1376138
3716.18 1406524 1382110 920284 1181198 1070354 1081128
3719.07 1118510 979310 1019000 994850 1109136 1104432
3721.96 726974 1374142 1287756 1433304 1162124 1135024
3724.86 1050862 1417020 799794 930952 1060728 900694
3727.75 782766 1189936 821920 887904 846894 1135566
3730.64 747904 1079896-45092 746632 1101240 805886
3733.54 1214492 928726 588106 500688 694286 387896
3736.43-191076 941806 650694 680934 790844 952192
3739.32 716024 713584 797560 839956 553408 742736
3742.21 727716 684100 272636-90864-1488494-134228
3745.11 764804 899164 681536 1016330 727110 869130
3748.00 818178 318772-938468 532394 563918 637972
3750.89 596538 12430-1581360 811022 267234 850162
3753.78 445514 841774 500168 736790 389792 686130
3756.68 573386 989988 441530 803456 305826 615200
3759.57 138700 1021272 550534 1004908 497500 527028
3762.46 650824 979002 412734 627470 529414 589066
3765.35 280894 900410 474024 835006 574308 935384
3768.25 392490 756402 113800 286756 490460 730582
3771.14 782794 933188 681842 1076890 796488 587396
3774.03 730992 717334 928580 930462 839894 866328
3776.93 724954 911808 687936 975902 681582 730646
3779.82 906056 1029176 796996 959114 914956 1003262
3782.71 1302732 1413652 1028286 1370092 1273510 1005846
3785.60 1181914 1107774 1084464 1647636 1409482 1579592
3788.50 1281726 1636272 1360638 1532844 1498396 1683300
3791.39 1474890 1642662 1636326 1923052 1577350 1834712
3794.28 1576422 1674892 1856582 1587138 1314138 1714828
3797.17 1474158 1620842 1708786 1645270 1919804 1485932
3800.07 1988332 1229880-341128 1725926 1479324 1638448
3802.96 1568296 1669452 1741298 1999676 1701064 1818426
3805.85 1892636 894710 826932 1772914 1489278 1829778
3808.75 1606980 1803990 1581282 1964152 1593132 1926826
3811.64 1358466 1963184 1340708 1827672 1313460 1764708
3814.53 1364302 1607570-546796 940556 1675386 1774642
3817.42 1608104 1691388 1749454 1875540 1533322 1567846
3820.32 1109876 1670370 829180 1858830 1716136 1659058
3823.21 1820332 2067384 2048086 1971238 2080398 2128062
3826.10 1523690 1845090 1986790 2210862 2179640 2100696
3828.99 2083024 2173916 2017826 2251730 1745238 1736220
3831.89 2309802 2311494 2453198 2095932 2321838 1920776
3834.78 1941598 2197192 2591456 2412916 2526038 1097910
3837.67 1205132 2825792 2265244 2677404 2157200 2824324
3840.57 2059708 2712050 2336130 2768222 2459972 2783900
3843.46 2324232 2986924 2713692 3125370 2790730 3063704
3846.35 2762512 3332316 2770746 3552788 3025030 3537714
3849.24 2866000 3589816 3239176 3504488 2767172 1862944
3852.14 3196972 3374696 2821852 1339972 1689754 3712488
3855.03 3194496 3754510 3223304 3353004 3048848 3548412
3857.92 3403612 3386782 3205688 3274674 2851522 3333654
3860.81 2993872 2991096 3027456 3354288 3077472 3342304
3863.71 2963392 2986918 1866284 3244896 2909682 3044832
3866.60 2820734 3063722 2612798 3008204 2055320 2864652
3869.49 1437714 1943416 2766600 2365074 2580578 2655396
3872.39 2636200 2640558 2457014 2130460 2370796 2355670
3875.28 2473096 2491848 2219206 2391544 2138660 2249056
3878.17 2146226 2115574 1900376 1705100 1726550 2237526
3881.06 1991992 2229388 2291230 2306042 1866704 2249612
3883.96 1771120 2212716 1186162 1306610 1723842 2058106
3886.85 1953006 2076860 1918238 1918436 1642670 1887498
3889.74 1820806 2126166 892786 1639426 1710836 1932062
3892.63 1924044 1896776 1702358 1893314 1867716 1845872
3895.53 1645634 2136096 2004570 2040824 1869910 1914648
3898.42 1714068 1283530 1730932 1885708 1910874 1956078
3901.31 1368198 1897110 1777668 2534756 1826228 1130146
3904.21 2077198 2292452 2148836 1803546 2060628 2522686
3907.10 1990712 2459968 2071898 2370470 2182512 2393142
3909.99 2279380 2568210 2246768 2653736 2068774 2682538
3912.88 2448218 2628544 2296130 2601812 2448412 2448746
3915.78 2302966 2648946 2446850 2559226 2758936 3200472
3918.67 2719736 2603888 2288160 2761038 2751340 2818040
3921.56 2239876 2611394 2662652 2842208 2455488 2774134
3924.45 2421328 2622754 2629654 2821874 2314384 2729550
3927.35 2488128 2452428 2379078 2649416 2208322 2748606
3930.24 1942840 2474174 2146800 2146464 2051660 2386356
3933.13 2189988 2318932 1932770 2330210 1982998 2380888
3936.03 1957766 2277726 1977118 2416752 1864656 2009406
3938.92 1906570 2277972 2167026 2319934 1761440 2314532
3941.81 1854892 1921598 1973052 1948404 1766486 1715790
3944.70 1550214 2008216 1778356 1783750 1913786 2358162
3947.60 1547716 2118100 2004336 2076564 1637582 1982792
3950.49 1785294 2175992 1702204 2042272 1934388 1935722
3953.38 1782478 1922130 1532458 1989012 1806884 2189984
3956.27 1682662 2129628 1972460 1956270 1559834 1941652
3959.17 1746130 2253494 2041046 2269820 2094472 2051144
3962.06 1702806 1950130 2214222 1986866 2304474 2240354
3964.95 1909004 2380834 1833582 2056034 1999604 2099272
3967.85 1941150 2202188 1999890 2414266 1911114 2459974
3970.74 2165620 2100596 1826302 2204830 2017214 2213228
3973.63 1850924 2165702 2018992
##END=
