##TITLE=1,3-BENZENEDIOL
##JCAMP-DX=4.24
##DATA TYPE=INFRARED SPECTRUM
##CLASS=COBLENTZ III
##ORIGIN=DOW CHEMICAL COMPANY
##OWNER=COBLENTZ SOCIETY
Collection (C) 2018 copyright by the U.S. Secretary of Commerce
on behalf of the United States of America. All rights reserved.
##DATE=1963/12/02
##NAMES=resorcinol
RESORCINOL
##CAS REGISTRY NO=108-46-3
##MOLFORM=C6 H6 O2
##SOURCE REFERENCE=COBLENTZ NO. 10627
##$NIST SOURCE=COBLENTZ
##$NIST IMAGE=cob10627
##SPECTROMETER/DATA SYSTEM=DOW KBr FOREPRISM-GRATING
##INSTRUMENT PARAMETERS=BLAZED AT 3.5, 12.0, 20.0 MICRON, CHANGED AT 5.0, 7.5, 14.9 MICRON
##STATE=SOLID (SPLIT MULL, FLUOROLUBE FOR 3800-1340 AND NUJOL FOR 1340-400 CM ^-^1)
##SAMPLING PROCEDURE=TRANSMISSION
##RESOLUTION=4
##DATA PROCESSING=DIGITIZED BY NIST FROM HARD COPY (FROM TWO SEGMENTS)
##XUNITS=1/CM
##YUNITS=TRANSMITTANCE
##XFACTOR=1.000000
##YFACTOR=1
##DELTAX=0.951176
##FIRSTX=383.957
##LASTX=3794.87
##FIRSTY=1.123
##MAXX=3794.87
##MINX=383.957
##MAXY=1.125
##MINY=0.122
##NPOINTS=3587
##XYDATA=(X++(Y..Y))
383.957000 1.1230 1.1230 1.1230 1.1230 1.1250
388.712879 1.1230 1.1230 1.1230 1.1230 1.1230
393.468758 1.1230 1.1230 1.1230 1.1230 1.1230
398.224636 1.1230 1.1230 1.1230 1.1230 1.1230
402.980515 1.1230 1.1230 1.1230 1.1230 1.1230
407.736394 1.1230 1.1230 1.1230 1.1230 1.1230
412.492273 1.1230 1.1250 1.1230 1.1230 1.1230
417.248151 1.1230 1.1230 1.1230 1.1230 1.1250
422.004030 1.1250 1.1250 1.1250 1.1250 1.1250
426.759909 1.1250 1.1230 1.1230 1.1230 1.1220
431.515788 1.1220 1.1200 1.1200 1.1200 1.1190
436.271666 1.1160 1.1160 1.1150 1.1150 1.1130
441.027545 1.1130 1.1120 1.1100 1.1090 1.1090
445.783424 1.1070 1.1070 1.1040 1.1040 1.1030
450.539303 1.1010 1.0980 1.0970 1.0950 1.0910
455.295181 1.0840 1.0581 1.0351 1.0081 0.9911
460.051060 0.9710 0.9260 0.9140 0.9120 0.9120
464.806939 0.9070 0.9020 0.9070 1.0712 1.1008
469.562818 1.1040 1.1040 1.1040 1.1040 1.1040
474.318696 1.1030 1.1010 1.1010 1.1000 1.0980
479.074575 1.0980 1.0950 1.0920 1.0890 1.0880
483.830454 1.0870 1.0850 1.0840 1.0820 1.0810
488.586333 1.0790 1.0760 1.0730 1.0700 1.0660
493.342211 1.0610 1.0540 1.0500 1.0450 1.0440
498.098090 1.0440 1.0450 1.0470 1.0500 1.0510
502.853969 1.0560 1.0560 1.0570 1.0580 1.0580
507.609848 1.0600 1.0600 1.0580 1.0570 1.0560
512.365726 1.0540 1.0530 1.0530 1.0510 1.0500
517.121605 1.0480 1.0470 1.0440 1.0390 1.0380
521.877484 1.0350 1.0320 1.0290 1.0260 1.0250
526.633363 1.0220 1.0170 1.0160 1.0100 1.0050
531.389241 1.0010 1.0000 0.9980 0.9950 0.9880
536.145120 0.9790 0.9770 0.9610 0.9520 0.9360
540.900999 0.9151 0.8084 0.7522 0.7211 0.7051
545.656878 0.7240 0.7370 0.7590 0.7930 0.8110
550.412756 0.8529 0.9168 0.9479 0.9849 0.9999
555.168635 1.0020 1.0100 1.0140 1.0220 1.0220
559.924514 1.0250 1.0260 1.0280 1.0280 1.0300
564.680393 1.0320 1.0330 1.0330 1.0330 1.0330
569.436271 1.0330 1.0350 1.0350 1.0350 1.0350
574.192150 1.0350 1.0350 1.0350 1.0350 1.0350
578.948029 1.0360 1.0360 1.0360 1.0380 1.0380
583.703908 1.0380 1.0380 1.0380 1.0390 1.0390
588.459786 1.0380 1.0360 1.0350 1.0330 1.0320
593.215665 1.0320 1.0320 1.0320 1.0300 1.0300
597.971544 1.0290 1.0290 1.0260 1.0260 1.0250
602.727423 1.0250 1.0230 1.0220 1.0200 1.0190
607.483301 1.0170 1.0160 1.0160 1.0160 1.0170
612.239180 1.0170 1.0200 1.0220 1.0230 1.0230
616.995059 1.0230 1.0230 1.0230 1.0230 1.0230
621.750938 1.0220 1.0220 1.0190 1.0190 1.0170
626.506816 1.0160 1.0160 1.0140 1.0130 1.0100
631.262695 1.0080 1.0070 1.0040 1.0020 1.0010
636.018574 1.0000 1.0000 0.9980 0.9970 0.9950
640.774453 0.9940 0.9910 0.9890 0.9880 0.9880
645.530331 0.9860 0.9850 0.9850 0.9830 0.9830
650.286210 0.9830 0.9820 0.9820 0.9820 0.9800
655.042089 0.9800 0.9800 0.9800 0.9790 0.9770
659.797968 0.9760 0.9740 0.9700 0.9670 0.9640
664.553846 0.9610 0.9580 0.9550 0.9550 0.9520
669.309725 0.9520 0.9490 0.9460 0.9420 0.9360
674.065604 0.9330 0.9240 0.9140 0.9050 0.8821
678.821483 0.8609 0.6530 0.4451 0.4450 0.7405
683.577361 0.7410 0.7530 0.7580 0.7590 0.7610
688.333240 0.7770 0.7940 0.8140 0.8330 0.8530
693.089119 0.8580 0.8620 0.8700 0.8710 0.8740
697.844998 0.8740 0.8740 0.8740 0.8740 0.8730
702.600876 0.8730 0.8710 0.8710 0.8700 0.8700
707.356755 0.8650 0.8640 0.8620 0.8560 0.8510
712.112634 0.8450 0.8420 0.8360 0.8310 0.8200
716.868513 0.8060 0.8000 0.7800 0.7620 0.7590
721.624391 0.7580 0.7580 0.7590 0.7610 0.7620
726.380270 0.7620 0.7640 0.7640 0.7620 0.7590
731.136149 0.7560 0.7440 0.7410 0.7310 0.7151
735.892028 0.6840 0.6500 0.6220 0.5810 0.5600
740.647906 0.5380 0.5021 0.5020 0.5199 0.5300
745.403785 0.6150 0.6600 0.7120 0.7330 0.7610
750.159664 0.7780 0.7930 0.8060 0.8120 0.8200
754.915543 0.8270 0.8310 0.8360 0.8400 0.8420
759.671421 0.8420 0.8390 0.8360 0.8340 0.8310
764.427300 0.8270 0.8150 0.8030 0.7960 0.7810
769.183179 0.7620 0.6762 0.5882 0.5571 0.5261
773.939058 0.4169 0.3710 0.3250 0.3250 0.3699
778.694936 0.4359 0.4510 0.4640 0.5716 0.6347
783.450815 0.6650 0.6930 0.7090 0.7160 0.7270
788.206694 0.7380 0.7430 0.7470 0.7500 0.7520
792.962573 0.7520 0.7530 0.7530 0.7530 0.7530
797.718451 0.7530 0.7530 0.7550 0.7550 0.7550
802.474330 0.7550 0.7550 0.7560 0.7580 0.7580
807.230209 0.7590 0.7640 0.7660 0.7690 0.7720
811.986088 0.7740 0.7780 0.7810 0.7890 0.7940
816.741966 0.7960 0.8020 0.8060 0.8120 0.8150
821.497845 0.8240 0.8300 0.8310 0.8340 0.8390
826.253724 0.8430 0.8490 0.8520 0.8530 0.8580
831.009603 0.8620 0.8640 0.8640 0.8640 0.8640
835.765481 0.8640 0.8620 0.8610 0.8590 0.8530
840.521360 0.8339 0.7770 0.7580 0.6630 0.6031
845.277239 0.6030 0.6629 0.7518 0.7550 0.7401
850.033118 0.7270 0.7400 0.8200 0.8420 0.8520
854.788996 0.8700 0.8800 0.8900 0.8920 0.8930
859.544875 0.8930 0.8919 0.8430 0.7890 0.7890
864.300754 0.8330 0.8610 0.8760 0.9149 0.9260
869.056633 0.9330 0.9390 0.9450 0.9460 0.9460
873.812511 0.9460 0.9460 0.9460 0.9460 0.9480
878.568390 0.9480 0.9480 0.9460 0.9460 0.9450
883.324269 0.9450 0.9430 0.9430 0.9420 0.9410
888.080148 0.9410 0.9410 0.9410 0.9390 0.9390
892.836026 0.9390 0.9410 0.9410 0.9410 0.9410
897.591905 0.9410 0.9420 0.9420 0.9420 0.9420
902.347784 0.9410 0.9410 0.9410 0.9410 0.9390
907.103663 0.9390 0.9380 0.9380 0.9360 0.9360
911.859541 0.9350 0.9350 0.9330 0.9330 0.9320
916.615420 0.9300 0.9290 0.9270 0.9240 0.9240
921.371299 0.9230 0.9200 0.9140 0.9120 0.9110
926.127178 0.9070 0.9040 0.9040 0.9020 0.9010
930.883056 0.9010 0.9020 0.9020 0.9040 0.9040
935.638935 0.9040 0.9040 0.9040 0.9040 0.9020
940.394814 0.9020 0.9010 0.9010 0.8980 0.8960
945.150693 0.8950 0.8920 0.8900 0.8870 0.8830
949.906571 0.8730 0.8620 0.8371 0.7871 0.6784
954.662450 0.6399 0.6040 0.5970 0.5940 0.5700
959.418329 0.5450 0.4492 0.2944 0.2940 0.3398
964.174208 0.3400 0.3460 0.3561 0.4140 0.4390
968.930086 0.4580 0.7117 0.8228 0.8390 0.8729
973.685965 0.8830 0.9020 0.9140 0.9210 0.9330
978.441844 0.9360 0.9410 0.9430 0.9480 0.9490
983.197723 0.9520 0.9520 0.9520 0.9540 0.9540
987.953601 0.9540 0.9550 0.9550 0.9550 0.9540
992.709480 0.9540 0.9510 0.9460 0.9420 0.9330
997.465359 0.9290 0.9290 0.9430 0.9510 0.9520
1002.221238 0.9540 0.9540 0.9540 0.9540 0.9540
1006.977116 0.9540 0.9540 0.9540 0.9540 0.9540
1011.732995 0.9540 0.9520 0.9520 0.9520 0.9510
1016.488874 0.9510 0.9510 0.9510 0.9490 0.9490
1021.244753 0.9490 0.9490 0.9490 0.9480 0.9480
1026.000631 0.9480 0.9480 0.9480 0.9460 0.9460
1030.756510 0.9460 0.9450 0.9450 0.9450 0.9450
1035.512389 0.9430 0.9430 0.9420 0.9420 0.9420
1040.268268 0.9420 0.9410 0.9410 0.9410 0.9410
1045.024146 0.9390 0.9390 0.9390 0.9380 0.9380
1049.780025 0.9380 0.9380 0.9360 0.9360 0.9350
1054.535904 0.9350 0.9350 0.9350 0.9350 0.9330
1059.291783 0.9330 0.9320 0.9320 0.9300 0.9300
1064.047661 0.9270 0.9260 0.9240 0.9230 0.9210
1068.803540 0.9210 0.9200 0.9120 0.9100 0.9050
1073.559419 0.9040 0.9020 0.9010 0.8990 0.8990
1078.315298 0.8980 0.8980 0.8960 0.8960 0.8930
1083.071176 0.8920 0.8830 0.8730 0.8730 0.8830
1087.827055 0.8950 0.9040 0.9080 0.9110 0.9120
1092.582934 0.9120 0.9120 0.9120 0.9120 0.9110
1097.338813 0.9110 0.9110 0.9100 0.9070 0.9070
1102.094691 0.9050 0.9050 0.9040 0.9020 0.9010
1106.850570 0.8980 0.8950 0.8930 0.8900 0.8900
1111.606449 0.8870 0.8870 0.8840 0.8820 0.8800
1116.362328 0.8760 0.8730 0.8710 0.8700 0.8670
1121.118206 0.8640 0.8590 0.8530 0.8520 0.8510
1125.874085 0.8420 0.8370 0.8340 0.8120 0.8050
1130.629964 0.7970 0.7900 0.7830 0.7690 0.7491
1135.385843 0.7430 0.7220 0.7090 0.6910 0.6120
1140.141721 0.5581 0.5500 0.5390 0.5230 0.4512
1144.897600 0.3770 0.3620 0.3489 0.3059 0.1660
1149.653479 0.1220 0.1220 0.1250 0.1370 0.1480
1154.409358 0.1601 0.1820 0.1821 0.2521 0.3890
1159.165236 0.6619 0.7060 0.7469 0.7490 0.7500
1163.921115 0.6647 0.5218 0.3770 0.3729 0.2350
1168.676994 0.2350 0.5865 0.5880 0.7366 0.7380
1173.432873 0.7870 0.8090 0.8340 0.8520 0.8620
1178.188751 0.8730 0.8830 0.8930 0.8980 0.9020
1182.944630 0.9020 0.9050 0.9080 0.9100 0.9110
1187.700509 0.9110 0.9120 0.9120 0.9120 0.9120
1192.456388 0.9110 0.9110 0.9110 0.9110 0.9100
1197.212266 0.9100 0.9080 0.9080 0.9050 0.9040
1201.968145 0.9020 0.9010 0.8990 0.8980 0.8980
1206.724024 0.8960 0.8960 0.8950 0.8950 0.8930
1211.479903 0.8930 0.8930 0.8930 0.8930 0.8920
1216.235781 0.8920 0.8920 0.8900 0.8900 0.8890
1220.991660 0.8890 0.8890 0.8870 0.8870 0.8860
1225.747539 0.8860 0.8840 0.8830 0.8830 0.8820
1230.503418 0.8820 0.8800 0.8790 0.8790 0.8790
1235.259296 0.8790 0.8770 0.8770 0.8760 0.8760
1240.015175 0.8740 0.8740 0.8730 0.8730 0.8710
1244.771054 0.8710 0.8700 0.8700 0.8680 0.8670
1249.526933 0.8640 0.8590 0.8580 0.8550 0.8530
1254.282811 0.8520 0.8510 0.8460 0.8430 0.8400
1259.038690 0.8370 0.8330 0.8270 0.8240 0.8230
1263.794569 0.8150 0.8140 0.8030 0.7970 0.7960
1268.550448 0.7930 0.7800 0.7650 0.7590 0.7490
1273.306326 0.7430 0.7340 0.7250 0.7100 0.6940
1278.062205 0.6790 0.6620 0.6380 0.6320 0.6250
1282.818084 0.6230 0.6200 0.6200 0.6190 0.6170
1287.573963 0.6160 0.6090 0.6029 0.5760 0.5640
1292.329841 0.5500 0.5380 0.5260 0.4521 0.4300
1297.085720 0.3560 0.3561 0.3931 0.4290 0.4380
1301.841599 0.4550 0.4830 0.5020 0.5050 0.5040
1306.597478 0.5020 0.5010 0.4920 0.4800 0.4600
1311.353356 0.4450 0.4450 0.4460 0.4490 0.4580
1316.109235 0.4600 0.4610 0.4640 0.4660 0.4690
1320.865114 0.4710 0.4730 0.4740 0.4760 0.4770
1325.620993 0.4790 0.4800 0.4820 0.4880 0.4920
1330.376871 0.4970 0.5010 0.5020 0.5020 0.5040
1335.132750 0.5040 0.5040 0.5020 0.5000 0.4950
1339.888629 0.4890 0.4860 0.4820 0.4800 0.4790
1344.644508 0.4790 0.4770 0.4770 0.4790 0.4820
1349.400386 0.4850 0.4920 0.4970 0.5110 0.5130
1354.156265 0.5190 0.5220 0.5250 0.5250 0.5250
1358.912144 0.5250 0.5230 0.5200 0.5170 0.5140
1363.668023 0.5130 0.5080 0.5040 0.5020 0.4920
1368.423901 0.4890 0.4800 0.4700 0.4580 0.4570
1373.179780 0.4480 0.4380 0.4300 0.4270 0.4170
1377.935659 0.4150 0.4140 0.4140 0.4150 0.4170
1382.691538 0.4180 0.4210 0.4270 0.4330 0.4380
1387.447416 0.4460 0.4480 0.4570 0.4580 0.4690
1392.203295 0.4700 0.4790 0.4790 0.4830 0.4890
1396.959174 0.4920 0.5010 0.5050 0.5130 0.5220
1401.715053 0.5300 0.5380 0.5500 0.5540 0.5660
1406.470931 0.5760 0.5820 0.5890 0.5980 0.6040
1411.226810 0.6170 0.6170 0.6250 0.6320 0.6350
1415.982689 0.6460 0.6470 0.6510 0.6560 0.6620
1420.738568 0.6680 0.6750 0.6760 0.6780 0.6810
1425.494446 0.6870 0.6880 0.6910 0.6910 0.6930
1430.250325 0.6960 0.6990 0.7000 0.7020 0.7030
1435.006204 0.7050 0.7060 0.7060 0.7060 0.7060
1439.762083 0.7060 0.7050 0.7050 0.7030 0.6990
1444.517961 0.6960 0.6930 0.6910 0.6820 0.6780
1449.273840 0.6650 0.6530 0.6440 0.6340 0.6220
1454.029719 0.6100 0.6060 0.5910 0.5810 0.5750
1458.785598 0.5640 0.5580 0.5560 0.5540 0.5560
1463.541476 0.5580 0.5600 0.5610 0.5610 0.5580
1468.297355 0.5560 0.5500 0.5450 0.5390 0.5300
1473.053234 0.5260 0.5190 0.5140 0.5040 0.4910
1477.809113 0.4800 0.4790 0.4670 0.4490 0.4460
1482.564991 0.4380 0.4200 0.4080 0.3711 0.3510
1487.320870 0.3299 0.3109 0.2900 0.2689 0.1990
1492.076749 0.1960 0.1960 0.1970 0.2090 0.2180
1496.832628 0.2563 0.3245 0.4801 0.5082 0.5841
1501.588506 0.6290 0.6310 0.6310 0.6310 0.6310
1506.344385 0.6310 0.6310 0.6320 0.6370 0.6501
1511.100264 0.7060 0.7180 0.7330 0.7690 0.7810
1515.856143 0.8151 0.8330 0.8390 0.8530 0.8590
1520.612021 0.8670 0.8680 0.8680 0.8670 0.8650
1525.367900 0.8610 0.8560 0.8520 0.8450 0.8360
1530.123779 0.8310 0.8300 0.8310 0.8340 0.8360
1534.879658 0.8400 0.8430 0.8450 0.8450 0.8430
1539.635536 0.8400 0.8370 0.8340 0.8280 0.8270
1544.391415 0.8270 0.8280 0.8310 0.8330 0.8360
1549.147294 0.8390 0.8400 0.8420 0.8430 0.8420
1553.903173 0.8420 0.8400 0.8390 0.8390 0.8360
1558.659051 0.8340 0.8300 0.8240 0.8210 0.8200
1563.414930 0.8170 0.8150 0.8140 0.8080 0.8030
1568.170809 0.8020 0.7970 0.7860 0.7800 0.7770
1572.926688 0.7720 0.7680 0.7610 0.7590 0.7470
1577.682566 0.7430 0.7410 0.7340 0.7280 0.7270
1582.438445 0.7250 0.7250 0.7210 0.7180 0.7150
1587.194324 0.7100 0.7090 0.6940 0.6780 0.6600
1591.950203 0.6470 0.6319 0.6090 0.5920 0.5780
1596.706081 0.5660 0.5630 0.5530 0.5410 0.5160
1601.461960 0.4709 0.4569 0.4169 0.3979 0.3519
1606.217839 0.3239 0.2830 0.2370 0.2000 0.1970
1610.973718 0.1990 0.2050 0.2131 0.2411 0.2811
1615.729597 0.3300 0.3800 0.4550 0.4670 0.4820
1620.485475 0.4830 0.4850 0.4860 0.4920 0.4950
1625.241354 0.4981 0.5730 0.5730 0.5940 0.6150
1629.997233 0.6351 0.6541 0.6750 0.6960 0.7190
1634.753112 0.7430 0.7640 0.7870 0.8210 0.8400
1639.508990 0.8551 0.8821 0.9120 0.9230 0.9430
1644.264869 0.9540 0.9550 0.9580 0.9610 0.9630
1649.020748 0.9660 0.9660 0.9660 0.9640 0.9640
1653.776627 0.9630 0.9610 0.9610 0.9580 0.9580
1658.532505 0.9570 0.9550 0.9520 0.9480 0.9450
1663.288384 0.9430 0.9410 0.9380 0.9360 0.9350
1668.044263 0.9330 0.9330 0.9320 0.9300 0.9290
1672.800142 0.9270 0.9260 0.9230 0.9210 0.9200
1677.556020 0.9180 0.9170 0.9150 0.9140 0.9120
1682.311899 0.9100 0.9070 0.9040 0.9020 0.9010
1687.067778 0.9010 0.8990 0.8980 0.8950 0.8930
1691.823657 0.8920 0.8900 0.8900 0.8890 0.8890
1696.579535 0.8890 0.8890 0.8900 0.8920 0.8930
1701.335414 0.8930 0.8950 0.8960 0.8980 0.8980
1706.091293 0.8990 0.9010 0.9040 0.9050 0.9080
1710.847172 0.9100 0.9100 0.9110 0.9110 0.9110
1715.603050 0.9110 0.9110 0.9110 0.9100 0.9100
1720.358929 0.9100 0.9080 0.9070 0.9050 0.9050
1725.114808 0.9040 0.9040 0.9020 0.9020 0.9010
1729.870687 0.8990 0.8990 0.8990 0.8980 0.8980
1734.626565 0.8980 0.8960 0.8960 0.8950 0.8950
1739.382444 0.8950 0.8950 0.8950 0.8950 0.8930
1744.138323 0.8930 0.8920 0.8930 0.8920 0.8920
1748.894202 0.8920 0.8920 0.8920 0.8900 0.8900
1753.650080 0.8890 0.8890 0.8870 0.8870 0.8860
1758.405959 0.8860 0.8840 0.8840 0.8830 0.8830
1763.161838 0.8820 0.8820 0.8820 0.8800 0.8800
1767.917717 0.8800 0.8800 0.8790 0.8790 0.8790
1772.673595 0.8770 0.8770 0.8770 0.8760 0.8760
1777.429474 0.8760 0.8740 0.8740 0.8740 0.8740
1782.185353 0.8730 0.8730 0.8730 0.8730 0.8730
1786.941232 0.8730 0.8730 0.8730 0.8730 0.8730
1791.697110 0.8730 0.8710 0.8710 0.8710 0.8710
1796.452989 0.8710 0.8710 0.8700 0.8700 0.8700
1801.208868 0.8700 0.8700 0.8700 0.8700 0.8700
1805.964747 0.8680 0.8680 0.8680 0.8680 0.8680
1810.720625 0.8670 0.8670 0.8670 0.8670 0.8670
1815.476504 0.8670 0.8670 0.8670 0.8670 0.8670
1820.232383 0.8670 0.8670 0.8670 0.8670 0.8670
1824.988262 0.8680 0.8680 0.8700 0.8700 0.8700
1829.744140 0.8710 0.8710 0.8710 0.8710 0.8710
1834.500019 0.8710 0.8710 0.8710 0.8710 0.8700
1839.255898 0.8700 0.8700 0.8700 0.8700 0.8700
1844.011777 0.8680 0.8680 0.8680 0.8680 0.8680
1848.767655 0.8680 0.8670 0.8670 0.8650 0.8640
1853.523534 0.8640 0.8640 0.8620 0.8620 0.8620
1858.279413 0.8610 0.8610 0.8610 0.8590 0.8590
1863.035292 0.8590 0.8580 0.8580 0.8580 0.8580
1867.791170 0.8560 0.8560 0.8560 0.8560 0.8550
1872.547049 0.8550 0.8550 0.8550 0.8530 0.8530
1877.302928 0.8530 0.8520 0.8520 0.8520 0.8520
1882.058807 0.8510 0.8490 0.8490 0.8490 0.8480
1886.814685 0.8480 0.8480 0.8480 0.8480 0.8490
1891.570564 0.8490 0.8490 0.8510 0.8510 0.8520
1896.326443 0.8520 0.8520 0.8530 0.8530 0.8550
1901.082322 0.8560 0.8560 0.8560 0.8550 0.8550
1905.838200 0.8550 0.8530 0.8530 0.8530 0.8520
1910.594079 0.8520 0.8520 0.8510 0.8510 0.8510
1915.349958 0.8510 0.8510 0.8510 0.8510 0.8510
1920.105837 0.8510 0.8490 0.8490 0.8480 0.8480
1924.861715 0.8460 0.8450 0.8430 0.8430 0.8420
1929.617594 0.8400 0.8400 0.8400 0.8420 0.8450
1934.373473 0.8460 0.8460 0.8510 0.8520 0.8530
1939.129352 0.8550 0.8560 0.8560 0.8580 0.8580
1943.885230 0.8580 0.8580 0.8590 0.8590 0.8590
1948.641109 0.8590 0.8590 0.8590 0.8590 0.8580
1953.396988 0.8580 0.8580 0.8580 0.8580 0.8580
1958.152867 0.8580 0.8560 0.8560 0.8560 0.8560
1962.908745 0.8560 0.8560 0.8560 0.8550 0.8550
1967.664624 0.8550 0.8550 0.8550 0.8550 0.8550
1972.420503 0.8530 0.8520 0.8520 0.8520 0.8520
1977.176382 0.8520 0.8510 0.8510 0.8510 0.8510
1981.932260 0.8510 0.8490 0.8490 0.8490 0.8490
1986.688139 0.8490 0.8480 0.8480 0.8480 0.8480
1991.444018 0.8480 0.8460 0.8460 0.8460 0.8460
1996.199897 0.8460 0.8450 0.8450 0.8450 0.8450
2000.955775 0.8450 0.8450 0.8440 0.8430 0.8430
2005.711654 0.8430 0.8430 0.8430 0.8425 0.8420
2010.467533 0.8420 0.8420 0.8420 0.8420 0.8410
2015.223412 0.8400 0.8400 0.8400 0.8400 0.8400
2019.979290 0.8395 0.8390 0.8390 0.8390 0.8390
2024.735169 0.8390 0.8390 0.8390 0.8380 0.8370
2029.491048 0.8370 0.8370 0.8370 0.8370 0.8365
2034.246927 0.8360 0.8360 0.8360 0.8360 0.8359
2039.002805 0.8349 0.8340 0.8340 0.8340 0.8340
2043.758684 0.8340 0.8340 0.8340 0.8335 0.8330
2048.514563 0.8330 0.8330 0.8330 0.8329 0.8319
2053.270442 0.8310 0.8310 0.8310 0.8310 0.8310
2058.026320 0.8305 0.8300 0.8300 0.8300 0.8300
2062.782199 0.8299 0.8289 0.8280 0.8280 0.8280
2067.538078 0.8280 0.8280 0.8280 0.8280 0.8275
2072.293957 0.8270 0.8270 0.8270 0.8270 0.8269
2077.049835 0.8259 0.8250 0.8250 0.8250 0.8250
2081.805714 0.8249 0.8244 0.8240 0.8240 0.8240
2086.561593 0.8240 0.8240 0.8240 0.8239 0.8234
2091.317472 0.8230 0.8230 0.8230 0.8230 0.8229
2096.073350 0.8219 0.8210 0.8210 0.8210 0.8210
2100.829229 0.8209 0.8204 0.8200 0.8200 0.8200
2105.585108 0.8200 0.8198 0.8188 0.8179 0.8174
2110.340987 0.8170 0.8170 0.8170 0.8170 0.8168
2115.096865 0.8158 0.8150 0.8150 0.8149 0.8144
2119.852744 0.8140 0.8140 0.8140 0.8140 0.8138
2124.608623 0.8128 0.8120 0.8120 0.8119 0.8114
2129.364502 0.8110 0.8110 0.8110 0.8110 0.8110
2134.120380 0.8110 0.8108 0.8098 0.8090 0.8090
2138.876259 0.8089 0.8084 0.8080 0.8080 0.8078
2143.632138 0.8068 0.8059 0.8054 0.8050 0.8050
2148.388017 0.8048 0.8038 0.8029 0.8024 0.8020
2153.143895 0.8020 0.8018 0.8008 0.7999 0.7994
2157.899774 0.7988 0.7978 0.7969 0.7964 0.7960
2162.655653 0.7960 0.7960 0.7960 0.7958 0.7948
2167.411532 0.7939 0.7934 0.7929 0.7924 0.7917
2172.167410 0.7907 0.7899 0.7894 0.7887 0.7877
2176.923289 0.7869 0.7864 0.7857 0.7847 0.7839
2181.679168 0.7834 0.7827 0.7817 0.7809 0.7804
2186.435047 0.7797 0.7787 0.7779 0.7774 0.7767
2191.190925 0.7757 0.7749 0.7744 0.7737 0.7727
2195.946804 0.7719 0.7714 0.7707 0.7697 0.7689
2200.702683 0.7684 0.7677 0.7667 0.7660 0.7660
2205.458562 0.7658 0.7653 0.7650 0.7650 0.7648
2210.214440 0.7643 0.7637 0.7627 0.7615 0.7600
2214.970319 0.7590 0.7590 0.7588 0.7583 0.7580
2219.726198 0.7580 0.7575 0.7560 0.7547 0.7537
2224.482077 0.7525 0.7510 0.7498 0.7493 0.7486
2229.237955 0.7476 0.7463 0.7443 0.7426 0.7416
2233.993834 0.7405 0.7390 0.7375 0.7360 0.7348
2238.749713 0.7343 0.7335 0.7320 0.7310 0.7310
2243.505592 0.7308 0.7303 0.7296 0.7286 0.7278
2248.261470 0.7273 0.7266 0.7256 0.7248 0.7243
2253.017349 0.7236 0.7226 0.7218 0.7213 0.7206
2257.773228 0.7196 0.7188 0.7183 0.7176 0.7166
2262.529107 0.7158 0.7153 0.7146 0.7136 0.7130
2267.284985 0.7130 0.7128 0.7123 0.7116 0.7106
2272.040864 0.7098 0.7093 0.7090 0.7090 0.7090
2276.796743 0.7090 0.7086 0.7076 0.7070 0.7070
2281.552622 0.7068 0.7063 0.7060 0.7060 0.7058
2286.308500 0.7053 0.7050 0.7050 0.7043 0.7028
2291.064379 0.7013 0.6998 0.6986 0.6976 0.6968
2295.820258 0.6963 0.6956 0.6946 0.6938 0.6933
2300.576137 0.6926 0.6916 0.6908 0.6903 0.6895
2305.332015 0.6885 0.6880 0.6880 0.6878 0.6873
2310.087894 0.6865 0.6855 0.6848 0.6843 0.6833
2314.843773 0.6818 0.6805 0.6795 0.6788 0.6783
2319.599652 0.6775 0.6765 0.6758 0.6753 0.6748
2324.355530 0.6743 0.6735 0.6725 0.6720 0.6720
2329.111409 0.6718 0.6713 0.6710 0.6710 0.6705
2333.867288 0.6695 0.6690 0.6690 0.6690 0.6690
2338.623167 0.6695 0.6705 0.6710 0.6710 0.6710
2343.379045 0.6710 0.6710 0.6710 0.6710 0.6710
2348.134924 0.6710 0.6710 0.6713 0.6718 0.6720
2352.890803 0.6720 0.6720 0.6720 0.6720 0.6720
2357.646682 0.6725 0.6735 0.6740 0.6740 0.6740
2362.402560 0.6740 0.6740 0.6740 0.6740 0.6740
2367.158439 0.6743 0.6748 0.6750 0.6750 0.6753
2371.914318 0.6758 0.6760 0.6760 0.6760 0.6760
2376.670197 0.6766 0.6776 0.6780 0.6780 0.6780
2381.426075 0.6780 0.6780 0.6780 0.6780 0.6780
2386.181954 0.6780 0.6780 0.6780 0.6780 0.6780
2390.937833 0.6780 0.6774 0.6764 0.6760 0.6760
2395.693712 0.6760 0.6760 0.6757 0.6752 0.6750
2400.449590 0.6750 0.6747 0.6742 0.6740 0.6740
2405.205469 0.6734 0.6724 0.6720 0.6720 0.6717
2409.961348 0.6712 0.6704 0.6694 0.6690 0.6690
2414.717227 0.6687 0.6682 0.6680 0.6680 0.6674
2419.473105 0.6664 0.6650 0.6635 0.6627 0.6622
2424.228984 0.6620 0.6620 0.6614 0.6604 0.6600
2428.984863 0.6600 0.6590 0.6575 0.6570 0.6570
2433.740742 0.6570 0.6570 0.6570 0.6570 0.6567
2438.496620 0.6562 0.6560 0.6560 0.6560 0.6560
2443.252499 0.6553 0.6543 0.6540 0.6540 0.6540
2448.008378 0.6540 0.6540 0.6540 0.6540 0.6540
2452.764257 0.6540 0.6540 0.6540 0.6540 0.6540
2457.520135 0.6540 0.6540 0.6540 0.6536 0.6531
2462.276014 0.6530 0.6530 0.6530 0.6530 0.6530
2467.031893 0.6530 0.6523 0.6513 0.6506 0.6501
2471.787772 0.6500 0.6500 0.6500 0.6500 0.6500
2476.543650 0.6500 0.6493 0.6483 0.6480 0.6480
2481.299529 0.6480 0.6480 0.6480 0.6480 0.6476
2486.055408 0.6471 0.6470 0.6470 0.6466 0.6461
2490.811287 0.6460 0.6460 0.6453 0.6442 0.6440
2495.567165 0.6440 0.6440 0.6440 0.6436 0.6431
2500.323044 0.6422 0.6412 0.6410 0.6410 0.6410
2505.078923 0.6410 0.6406 0.6401 0.6400 0.6400
2509.834802 0.6400 0.6400 0.6400 0.6400 0.6400
2514.590680 0.6400 0.6400 0.6400 0.6400 0.6400
2519.346559 0.6400 0.6400 0.6400 0.6400 0.6400
2524.102438 0.6400 0.6400 0.6400 0.6400 0.6400
2528.858317 0.6400 0.6400 0.6400 0.6400 0.6400
2533.614195 0.6400 0.6400 0.6400 0.6400 0.6400
2538.370074 0.6404 0.6409 0.6418 0.6428 0.6430
2543.125953 0.6430 0.6430 0.6430 0.6434 0.6439
2547.881832 0.6440 0.6440 0.6440 0.6440 0.6448
2552.637710 0.6458 0.6460 0.6460 0.6464 0.6469
2557.393589 0.6470 0.6470 0.6470 0.6470 0.6470
2562.149468 0.6470 0.6470 0.6470 0.6466 0.6461
2566.905347 0.6460 0.6460 0.6451 0.6441 0.6440
2571.661225 0.6440 0.6427 0.6412 0.6410 0.6410
2576.417104 0.6406 0.6401 0.6391 0.6381 0.6367
2581.172983 0.6352 0.6337 0.6322 0.6320 0.6320
2585.928862 0.6316 0.6311 0.6301 0.6291 0.6285
2590.684740 0.6280 0.6271 0.6261 0.6255 0.6250
2595.440619 0.6250 0.6250 0.6236 0.6221 0.6211
2600.196498 0.6201 0.6195 0.6190 0.6181 0.6171
2604.952377 0.6165 0.6160 0.6155 0.6150 0.6150
2609.708255 0.6150 0.6141 0.6131 0.6116 0.6101
2614.464134 0.6100 0.6100 0.6095 0.6090 0.6076
2619.220013 0.6061 0.6060 0.6060 0.6051 0.6041
2623.975892 0.6040 0.6040 0.6035 0.6030 0.6030
2628.731770 0.6030 0.6030 0.6030 0.6020 0.6010
2633.487649 0.6010 0.6010 0.6010 0.6010 0.6010
2638.243528 0.6010 0.6010 0.6010 0.6010 0.6010
2642.999407 0.6010 0.6010 0.6020 0.6030 0.6030
2647.755285 0.6030 0.6035 0.6040 0.6050 0.6060
2652.511164 0.6060 0.6060 0.6075 0.6090 0.6090
2657.267043 0.6090 0.6105 0.6120 0.6125 0.6130
2662.022922 0.6130 0.6130 0.6140 0.6150 0.6155
2666.778800 0.6160 0.6160 0.6160 0.6165 0.6170
2671.534679 0.6170 0.6170 0.6170 0.6170 0.6170
2676.290558 0.6170 0.6170 0.6170 0.6170 0.6170
2681.046437 0.6170 0.6170 0.6165 0.6160 0.6160
2685.802315 0.6160 0.6160 0.6160 0.6155 0.6150
2690.558194 0.6150 0.6150 0.6150 0.6149 0.6139
2695.314073 0.6130 0.6130 0.6130 0.6130 0.6129
2700.069952 0.6114 0.6100 0.6095 0.6090 0.6090
2704.825830 0.6089 0.6079 0.6070 0.6070 0.6069
2709.581709 0.6054 0.6040 0.6040 0.6040 0.6035
2714.337588 0.6030 0.6030 0.6029 0.6019 0.6010
2719.093467 0.6010 0.6010 0.6005 0.5999 0.5989
2723.849345 0.5979 0.5974 0.5969 0.5959 0.5949
2728.605224 0.5944 0.5939 0.5929 0.5919 0.5914
2733.361103 0.5910 0.5910 0.5909 0.5899 0.5890
2738.116982 0.5890 0.5890 0.5890 0.5889 0.5884
2742.872860 0.5880 0.5880 0.5879 0.5874 0.5870
2747.628739 0.5870 0.5869 0.5859 0.5850 0.5850
2752.384618 0.5850 0.5850 0.5849 0.5844 0.5840
2757.140497 0.5840 0.5840 0.5840 0.5840 0.5840
2761.896375 0.5840 0.5840 0.5840 0.5840 0.5840
2766.652254 0.5840 0.5840 0.5840 0.5840 0.5840
2771.408133 0.5840 0.5840 0.5840 0.5840 0.5840
2776.164012 0.5840 0.5840 0.5840 0.5840 0.5840
2780.919890 0.5838 0.5828 0.5820 0.5820 0.5819
2785.675769 0.5814 0.5810 0.5810 0.5810 0.5810
2790.431648 0.5808 0.5798 0.5790 0.5790 0.5789
2795.187527 0.5784 0.5780 0.5780 0.5778 0.5768
2799.943405 0.5759 0.5754 0.5750 0.5750 0.5748
2804.699284 0.5738 0.5730 0.5730 0.5729 0.5724
2809.455163 0.5717 0.5702 0.5688 0.5678 0.5669
2814.211042 0.5664 0.5660 0.5660 0.5657 0.5647
2818.966920 0.5639 0.5634 0.5627 0.5617 0.5610
2823.722799 0.5610 0.5609 0.5604 0.5597 0.5587
2828.478678 0.5577 0.5567 0.5556 0.5541 0.5527
2833.234557 0.5517 0.5509 0.5504 0.5500 0.5500
2837.990436 0.5497 0.5487 0.5479 0.5474 0.5467
2842.746314 0.5457 0.5446 0.5431 0.5416 0.5401
2847.502193 0.5389 0.5384 0.5377 0.5367 0.5356
2852.258072 0.5341 0.5324 0.5304 0.5288 0.5283
2857.013951 0.5277 0.5267 0.5258 0.5253 0.5247
2861.769829 0.5237 0.5225 0.5210 0.5198 0.5193
2866.525708 0.5185 0.5170 0.5157 0.5147 0.5138
2871.281587 0.5133 0.5130 0.5130 0.5127 0.5117
2876.037466 0.5108 0.5103 0.5097 0.5087 0.5080
2880.793344 0.5080 0.5078 0.5073 0.5070 0.5070
2885.549223 0.5070 0.5070 0.5072 0.5077 0.5083
2890.305102 0.5093 0.5102 0.5107 0.5114 0.5124
2895.060981 0.5130 0.5130 0.5130 0.5130 0.5130
2899.816859 0.5130 0.5130 0.5130 0.5130 0.5130
2904.572738 0.5126 0.5116 0.5110 0.5110 0.5108
2909.328617 0.5103 0.5100 0.5100 0.5094 0.5079
2914.084496 0.5070 0.5070 0.5066 0.5056 0.5048
2918.840374 0.5043 0.5040 0.5040 0.5036 0.5026
2923.596253 0.5018 0.5013 0.5010 0.5010 0.5008
2928.352132 0.5003 0.5000 0.5000 0.4996 0.4986
2933.108011 0.4980 0.4980 0.4980 0.4980 0.4978
2937.863889 0.4973 0.4970 0.4970 0.4966 0.4956
2942.619768 0.4948 0.4943 0.4936 0.4926 0.4920
2947.375647 0.4920 0.4918 0.4913 0.4905 0.4895
2952.131526 0.4883 0.4868 0.4858 0.4853 0.4843
2956.887404 0.4828 0.4815 0.4805 0.4798 0.4793
2961.643283 0.4785 0.4775 0.4761 0.4741 0.4723
2966.399162 0.4708 0.4698 0.4693 0.4685 0.4675
2971.155041 0.4668 0.4663 0.4653 0.4638 0.4618
2975.910919 0.4593 0.4578 0.4573 0.4563 0.4548
2980.666798 0.4533 0.4518 0.4505 0.4495 0.4488
2985.422677 0.4483 0.4480 0.4480 0.4475 0.4465
2990.178556 0.4457 0.4452 0.4445 0.4435 0.4430
2994.934434 0.4430 0.4427 0.4422 0.4420 0.4420
2999.690313 0.4417 0.4412 0.4410 0.4410 0.4405
3004.446192 0.4395 0.4390 0.4390 0.4387 0.4382
3009.202071 0.4380 0.4380 0.4375 0.4365 0.4357
3013.957949 0.4352 0.4350 0.4350 0.4345 0.4335
3018.713828 0.4327 0.4322 0.4315 0.4305 0.4297
3023.469707 0.4292 0.4284 0.4274 0.4267 0.4262
3028.225586 0.4251 0.4236 0.4213 0.4183 0.4156
3032.981464 0.4131 0.4114 0.4104 0.4091 0.4076
3037.737343 0.4064 0.4054 0.4041 0.4026 0.4017
3042.493222 0.4012 0.4001 0.3986 0.3971 0.3956
3047.249101 0.3944 0.3934 0.3921 0.3906 0.3888
3052.004979 0.3868 0.3851 0.3836 0.3821 0.3806
3056.760858 0.3800 0.3800 0.3797 0.3792 0.3784
3061.516737 0.3774 0.3767 0.3762 0.3754 0.3744
3066.272616 0.3737 0.3732 0.3724 0.3714 0.3707
3071.028494 0.3702 0.3694 0.3684 0.3677 0.3672
3075.784373 0.3664 0.3654 0.3647 0.3642 0.3634
3080.540252 0.3624 0.3617 0.3612 0.3603 0.3593
3085.296131 0.3587 0.3582 0.3564 0.3539 0.3527
3090.052009 0.3522 0.3510 0.3495 0.3487 0.3482
3094.807888 0.3470 0.3455 0.3440 0.3425 0.3410
3099.563767 0.3395 0.3383 0.3373 0.3360 0.3345
3104.319646 0.3337 0.3332 0.3323 0.3313 0.3300
3109.075524 0.3285 0.3277 0.3272 0.3260 0.3245
3113.831403 0.3237 0.3232 0.3223 0.3213 0.3207
3118.587282 0.3202 0.3193 0.3183 0.3176 0.3171
3123.343161 0.3163 0.3153 0.3146 0.3141 0.3129
3128.099039 0.3114 0.3103 0.3093 0.3086 0.3081
3132.854918 0.3069 0.3054 0.3039 0.3024 0.3013
3137.610797 0.3003 0.2996 0.2991 0.2979 0.2964
3142.366676 0.2949 0.2934 0.2919 0.2904 0.2889
3147.122554 0.2874 0.2859 0.2844 0.2829 0.2814
3151.878433 0.2788 0.2758 0.2746 0.2741 0.2721
3156.634312 0.2696 0.2686 0.2681 0.2665 0.2645
3161.390191 0.2628 0.2613 0.2598 0.2583 0.2572
3166.146069 0.2562 0.2556 0.2551 0.2538 0.2523
3170.901948 0.2512 0.2502 0.2484 0.2464 0.2452
3175.657827 0.2442 0.2428 0.2413 0.2406 0.2401
3180.413706 0.2388 0.2373 0.2362 0.2352 0.2346
3185.169584 0.2341 0.2340 0.2340 0.2328 0.2313
3189.925463 0.2310 0.2310 0.2306 0.2301 0.2292
3194.681342 0.2282 0.2276 0.2271 0.2262 0.2252
3199.437221 0.2246 0.2241 0.2240 0.2240 0.2240
3204.193099 0.2240 0.2240 0.2240 0.2244 0.2249
3208.948978 0.2250 0.2250 0.2258 0.2268 0.2270
3213.704857 0.2270 0.2274 0.2279 0.2289 0.2299
3218.460736 0.2300 0.2300 0.2304 0.2309 0.2319
3223.216614 0.2329 0.2330 0.2330 0.2339 0.2349
3227.972493 0.2359 0.2369 0.2374 0.2379 0.2393
3232.728372 0.2408 0.2419 0.2429 0.2434 0.2439
3237.484251 0.2449 0.2459 0.2464 0.2469 0.2470
3242.240129 0.2470 0.2479 0.2489 0.2494 0.2499
3246.996008 0.2500 0.2500 0.2509 0.2519 0.2524
3251.751887 0.2529 0.2539 0.2549 0.2550 0.2550
3256.507766 0.2555 0.2560 0.2569 0.2579 0.2594
3261.263644 0.2609 0.2624 0.2639 0.2658 0.2678
3266.019523 0.2694 0.2709 0.2729 0.2749 0.2787
3270.775402 0.2827 0.2863 0.2898 0.2919 0.2939
3275.531281 0.2949 0.2959 0.2993 0.3028 0.3059
3280.287159 0.3089 0.3133 0.3178 0.3194 0.3209
3285.043038 0.3224 0.3239 0.3273 0.3308 0.3320
3289.798917 0.3330 0.3364 0.3399 0.3429 0.3459
3294.554796 0.3470 0.3480 0.3500 0.3520 0.3569
3299.310674 0.3619 0.3649 0.3679 0.3705 0.3730
3304.066553 0.3764 0.3799 0.3810 0.3820 0.3859
3308.822432 0.3899 0.3945 0.3990 0.4035 0.4080
3313.578311 0.4080 0.4080 0.4125 0.4170 0.4175
3318.334189 0.4180 0.4225 0.4270 0.4315 0.4361
3323.090068 0.4421 0.4480 0.4500 0.4520 0.4550
3327.845947 0.4581 0.4626 0.4671 0.4686 0.4702
3332.601826 0.4752 0.4800 0.4810 0.4821 0.4856
3337.357704 0.4891 0.4906 0.4922 0.4972 0.5021
3342.113583 0.5036 0.5052 0.5097 0.5141 0.5156
3346.869462 0.5172 0.5217 0.5263 0.5313 0.5368
3351.625341 0.5493 0.5611 0.5621 0.5631 0.5651
3356.381219 0.5674 0.5729 0.5783 0.5833 0.5884
3361.137098 0.5949 0.6011 0.6021 0.6030 0.6035
3365.892977 0.6044 0.6105 0.6160 0.6165 0.6177
3370.648856 0.6252 0.6324 0.6364 0.6403 0.6433
3375.404734 0.6460 0.6465 0.6473 0.6503 0.6533
3380.160613 0.6568 0.6604 0.6649 0.6693 0.6728
3384.916492 0.6761 0.6771 0.6782 0.6802 0.6826
3389.672371 0.6871 0.6914 0.6944 0.6971 0.6981
3394.428249 0.6994 0.7029 0.7060 0.7060 0.7062
3399.184128 0.7077 0.7096 0.7141 0.7182 0.7197
3403.940007 0.7212 0.7227 0.7240 0.7240 0.7242
3408.695886 0.7257 0.7275 0.7305 0.7332 0.7342
3413.451764 0.7352 0.7367 0.7382 0.7397 0.7412
3418.207643 0.7427 0.7445 0.7475 0.7502 0.7517
3422.963522 0.7532 0.7542 0.7553 0.7568 0.7580
3427.719401 0.7580 0.7583 0.7598 0.7614 0.7634
3432.475279 0.7653 0.7668 0.7681 0.7686 0.7690
3437.231158 0.7690 0.7695 0.7720 0.7741 0.7746
3441.987037 0.7752 0.7762 0.7770 0.7770 0.7771
3446.742916 0.7776 0.7782 0.7792 0.7803 0.7818
3451.498794 0.7833 0.7848 0.7861 0.7866 0.7870
3456.254673 0.7870 0.7872 0.7882 0.7891 0.7896
3461.010552 0.7902 0.7912 0.7921 0.7926 0.7930
3465.766431 0.7930 0.7930 0.7930 0.7931 0.7936
3470.522309 0.7940 0.7940 0.7940 0.7940 0.7940
3475.278188 0.7940 0.7940 0.7940 0.7940 0.7940
3480.034067 0.7939 0.7934 0.7930 0.7930 0.7930
3484.789946 0.7930 0.7929 0.7924 0.7920 0.7920
3489.545824 0.7917 0.7907 0.7900 0.7900 0.7899
3494.301703 0.7894 0.7890 0.7890 0.7887 0.7877
3499.057582 0.7870 0.7870 0.7869 0.7864 0.7857
3503.813461 0.7847 0.7839 0.7834 0.7827 0.7817
3508.569339 0.7809 0.7803 0.7797 0.7787 0.7778
3513.325218 0.7773 0.7770 0.7770 0.7770 0.7770
3518.081097 0.7767 0.7757 0.7750 0.7750 0.7748
3522.836976 0.7743 0.7740 0.7740 0.7737 0.7727
3527.592854 0.7718 0.7713 0.7707 0.7697 0.7690
3532.348733 0.7690 0.7688 0.7683 0.7677 0.7667
3537.104612 0.7658 0.7653 0.7650 0.7650 0.7648
3541.860491 0.7643 0.7636 0.7626 0.7618 0.7613
3546.616369 0.7606 0.7596 0.7590 0.7590 0.7588
3551.372248 0.7583 0.7576 0.7566 0.7560 0.7560
3556.128127 0.7558 0.7553 0.7550 0.7550 0.7546
3560.884006 0.7536 0.7528 0.7523 0.7520 0.7520
3565.639884 0.7516 0.7506 0.7498 0.7493 0.7484
3570.395763 0.7469 0.7456 0.7446 0.7434 0.7419
3575.151642 0.7408 0.7403 0.7396 0.7386 0.7380
3579.907521 0.7380 0.7378 0.7373 0.7366 0.7356
3584.663399 0.7350 0.7350 0.7350 0.7350 0.7350
3589.419278 0.7350 0.7348 0.7343 0.7340 0.7340
3594.175157 0.7340 0.7340 0.7338 0.7333 0.7326
3598.931036 0.7316 0.7303 0.7288 0.7278 0.7273
3603.686914 0.7270 0.7270 0.7266 0.7256 0.7250
3608.442793 0.7250 0.7250 0.7250 0.7248 0.7243
3613.198672 0.7240 0.7240 0.7235 0.7225 0.7220
3617.954551 0.7220 0.7220 0.7220 0.7218 0.7213
3622.710429 0.7210 0.7210 0.7210 0.7210 0.7205
3627.466308 0.7195 0.7190 0.7190 0.7188 0.7183
3632.222187 0.7175 0.7165 0.7160 0.7160 0.7158
3636.978066 0.7153 0.7145 0.7135 0.7127 0.7122
3641.733944 0.7120 0.7120 0.7120 0.7120 0.7112
3646.489823 0.7097 0.7090 0.7090 0.7085 0.7075
3651.245702 0.7070 0.7070 0.7067 0.7062 0.7060
3656.001581 0.7060 0.7060 0.7060 0.7057 0.7052
3660.757459 0.7050 0.7050 0.7045 0.7035 0.7030
3665.513338 0.7030 0.7027 0.7022 0.7020 0.7020
3670.269217 0.7015 0.7004 0.7000 0.7000 0.6997
3675.025096 0.6992 0.6984 0.6974 0.6970 0.6970
3679.780974 0.6967 0.6962 0.6960 0.6960 0.6954
3684.536853 0.6944 0.6940 0.6940 0.6937 0.6932
3689.292732 0.6930 0.6930 0.6924 0.6914 0.6910
3694.048611 0.6910 0.6907 0.6902 0.6900 0.6900
3698.804489 0.6894 0.6884 0.6877 0.6872 0.6864
3703.560368 0.6854 0.6850 0.6850 0.6847 0.6842
3708.316247 0.6840 0.6840 0.6840 0.6840 0.6834
3713.072126 0.6824 0.6820 0.6820 0.6817 0.6812
3717.828004 0.6810 0.6810 0.6801 0.6786 0.6780
3722.583883 0.6780 0.6774 0.6764 0.6760 0.6760
3727.339762 0.6757 0.6752 0.6747 0.6742 0.6740
3732.095641 0.6740 0.6740 0.6740 0.6740 0.6740
3736.851519 0.6740 0.6740 0.6734 0.6724 0.6717
3741.607398 0.6712 0.6704 0.6694 0.6690 0.6690
3746.363277 0.6687 0.6682 0.6673 0.6663 0.6660
3751.119156 0.6660 0.6660 0.6660 0.6660 0.6660
3755.875034 0.6660 0.6660 0.6657 0.6652 0.6650
3760.630913 0.6650 0.6643 0.6633 0.6630 0.6630
3765.386792 0.6627 0.6622 0.6620 0.6620 0.6613
3770.142671 0.6603 0.6600 0.6600 0.6596 0.6591
3774.898549 0.6590 0.6590 0.6590 0.6590 0.6583
3779.654428 0.6573 0.6570 0.6570 0.6570 0.6570
3784.410307 0.6566 0.6561 0.6560 0.6560 0.6560
3789.166186 0.6560 0.6560 0.6560 0.6560 0.6560
3793.922064 0.6560 0.6560
##END=
