##TITLE=Vinyl Acetate
##JCAMP-DX=4.24
##DATA TYPE=INFRARED SPECTRUM
##CLASS=IUPAC A
##ORIGIN=NIST, Anayltical Chemistry Division, 301-975-3108
##OWNER=COPYRIGHT (C) 1998 by the U.S. Secretary of Commerce
##DATE=98/10/1
##$SPECTRA VERSION=1.00
##$UNCERTAINTY IN Y=2.1 % relative (B=1.1E-04,C=7.7E-10,D=2.7E-14)
##CAS NAME=Ethenyl Ester-Acetic Acid
##CAS REGISTRY NO=108-05-4
##MOLFORM=C H3 C O2 C H: C H2
##MP=-93.2 C
##BP=72.2 C
##$NIST SOURCE=QUANT-IR
##SPECTROMETER/DATA SYSTEM=IFS66V (Bruker)
##INSTRUMENT PARAMETERS=KBr Beam splitter; MCT Detector; Multipass cell
##STATE=gas
##SAMPLE DESCRIPTION=Vinyl Acetate Primary Gas Standard
##PRESSURE=101.3 kPa
##TEMPERATURE=23 C
##SAMPLING PROCEDURE=1 L/min Flow
##RESOLUTION=0.9640
##DATA PROCESSING=3-Term B-H Apodization
##XUNITS=cm-1
##YUNITS=(micromol/mol)-1m-1 (base 10)
##XFACTOR=1.0
##YFACTOR=18.189E-13
##DELTAX=0.4820
##FIRSTX=575.169
##LASTX=3975.077
##FIRSTY=.0000109
##MAXX=3974.59
##MINX=575.17
##MAXY=.0027979
##MINY=-1.45E-06
##NPOINTS=7053
##XYDATA=(X++(Y..Y))
575.17 6020322 6343822 6675180 6987880 7307990 7587416
577.58 7735728 7852480 8070896 8409868 8801144 9068698
580.47 9260334 9558652 9881280 10059510 10182350 10472000
583.37 10816410 11025520 11191780 11424080 11692390 12188490
586.26 13089040 14265150 15086450 15136190 15149780 15641620
589.15 16242890 16814990 17642560 18770790 19867740 20570270
592.04 20786870 20693150 20524920 20306920 20012190 19617670
594.94 19071310 18437160 17876890 17451230 17112090 16800330
597.83 16460160 16142480 15950330 15870410 15823840 15794210
600.72 15770520 15806600 15904570 15946670 15981360 16066920
603.61 16152730 16253400 16387560 16547450 16685460 16801070
606.51 16944710 17130840 17369230 17601620 17760580 17874250
609.40 18026160 18181720 18297860 18454250 18591010 18692130
612.29 18814670 18901920 18937650 18935530 18908850 18929050
615.18 18996820 18991170 18898250 18803460 18754490 18769170
618.08 18805060 18820790 18816530 18837890 18923220 19058480
620.97 19231170 19439410 19683880 19936050 20196200 20524710
623.86 20920800 21336970 21780360 22251810 22692720 23088360
626.76 23498370 23919060 24321580 24665790 24920690 25112890
629.65 25266300 25400240 25451570 25360660 25185650 24951010
632.54 24611500 24226060 23897930 23577640 23295550 23136280
635.43 23031090 22950350 22972450 23126370 23393560 23598700
638.33 23477810 23123300 22851630 22791900 22840280 22876440
641.22 22910990 22961520 23008280 22985770 22865830 22678130
644.11 22435220 22196450 21947100 21561190 21062920 20570880
647.00 20087460 19566040 19006870 18452200 17916670 17370330
649.90 16795150 16238190 15722080 15209260 14669940 14118570
652.79 13623580 13179030 12715500 12250070 11817940 11429020
655.68 11081150 10739900 10396780 10041420 9671624 9304644
658.58 8954684 8614782 8270888 7930720 7597210 7287162
661.47 6995650 6686894 6388682 6126178 5872132 5615540
664.36 5355356 5094236 4843890 4613380 4413862 4243258
667.25 4072362 3893348 3726186 3587806 3450618 3297054
670.15 3164552 3066680 2984030 2911994 2859652 2824332
673.04 2762732 2667104 2607410 2607412 2602438 2568002
675.93 2540300 2523954 2517798 2548278 2598952 2630418
678.82 2643516 2668798 2716884 2745210 2755298 2796352
681.72 2864042 2932198 2982786 3021444 3074674 3168572
684.61 3268314 3322496 3369118 3469842 3569862 3627074
687.50 3699558 3779720 3840264 3918660 4005654 4091024
690.40 4190862 4274284 4329148 4421004 4542128 4653770
693.29 4779024 4912202 5008606 5059028 5122024 5224996
696.18 5320860 5396474 5508842 5686600 5860042 5927242
699.07 5853796 5742654 5704218 5712982 5713016 5707084
701.97 5709212 5723640 5768682 5843576 5905324 5929338
704.86 5918348 5895770 5898242 5930910 5964304 5972152
707.75 5957500 5947704 5973798 6028662 6090934 6149522
710.64 6214604 6306194 6423440 6557570 6642824 6666134
713.54 6674540 6645928 6600694 6611250 6638496 6595094
716.43 6486964 6372826 6271198 6156230 6018518 5874356
719.32 5732398 5596620 5449364 5269128 5102928 4997468
722.22 4915944 4825410 4749736 4697450 4645046 4598002
725.11 4562064 4535104 4490646 4415150 4332184 4261836
728.00 4200178 4144582 4102900 4054208 3996776 3956256
730.89 3922230 3881090 3833296 3789104 3745478 3697146
733.79 3647466 3609548 3584118 3555714 3511408 3450212
736.68 3393056 3361232 3333826 3291456 3249492 3228364
739.57 3205590 3161582 3119400 3089976 3069464 3067102
742.46 3077966 3084748 3088626 3088286 3070130 3045864
745.36 3042592 3051468 3066496 3092968 3107712 3110458
748.25 3124346 3157556 3189624 3201368 3209038 3231054
751.14 3251768 3264492 3274474 3287012 3301752 3318292
754.04 3333408 3353982 3393222 3433728 3457444 3478480
756.93 3508892 3531676 3543124 3565178 3590102 3628064
759.82 3697740 3767742 3816416 3855884 3892896 3934520
762.71 3991946 4052040 4098398 4146738 4200734 4250828
765.61 4311924 4391504 4473930 4555116 4632768 4703822
768.50 4772636 4826518 4870856 4941138 5010118 5068310
771.39 5138764 5192916 5226942 5281616 5336790 5363582
774.28 5375446 5388290 5409652 5431468 5434690 5437866
777.18 5439934 5418020 5396520 5373338 5345924 5330324
780.07 5309908 5295836 5298722 5303276 5300720 5294682
782.96 5292548 5289214 5270196 5254966 5249550 5238754
785.86 5220450 5206702 5196602 5177350 5155580 5140908
788.75 5129112 5107404 5060650 5022504 5023098 5018818
791.64 4988374 4952254 4923602 4910860 4889130 4861948
794.53 4871536 4892806 4897026 4902744 4913832 4925428
797.43 4935432 4938666 4927798 4923762 4944700 4982022
800.32 5021162 5055964 5075004 5089226 5126704 5180664
803.21 5236422 5265636 5282082 5325896 5369898 5408194
806.10 5458158 5513442 5557810 5611118 5681220 5747686
809.00 5814988 5901886 6003752 6109096 6226980 6362308
811.89 6503076 6650302 6790628 6926446 7072884 7245448
814.78 7433170 7578282 7706774 7892276 8088090 8255918
817.68 8441488 8667348 8876032 9060198 9272644 9504214
820.57 9729194 9984352 10261530 10541920 10852890 11199820
823.46 11537730 11865880 12250590 12690060 13137660 13595010
826.35 14050880 14529130 15060640 15627590 16214230 16818330
829.25 17441610 18127880 18883070 19690520 20552830 21443820
832.14 22367040 23364390 24435080 25575490 26768430 28000160
835.03 29314390 30731030 32200370 33700130 35223650 36722520
837.92 38193430 39660800 41080140 42413660 43652140 44775960
840.82 45771380 46608780 47275890 47859760 48342020 48680180
843.71 48998520 49424720 50054510 51028020 52301810 53528200
846.60 54450720 55176810 55903960 56766450 57831520 59134860
849.50 60676810 62492260 64590850 66841870 69108750 71420710
852.39 73789500 76123500 78317430 80370270 82256860 83912680
855.28 85303660 86400860 87172270 87644300 87826090 87803220
858.17 87651030 87360500 86952200 86524210 86088210 85660870
861.07 85258870 84806780 84284380 83864640 83624050 83505420
863.96 83547830 83949570 84778000 86053350 87848020 90169660
866.85 93076070 96752500 101547400 108015600 119159000 136237100
869.74 153636700 164166600 163832700 158001800 151252000 143706000
872.64 136538800 130226200 124524900 118968400 113554700 108355400
875.53 103493500 99343130 96004150 93226540 90919970 89112260
878.42 87735660 86608780 85627840 84746320 83907870 83058780
881.31 82240780 81459780 80620760 79676090 78713530 77711700
884.21 76622620 75465930 74247320 72942020 71458860 69806110
887.10 68137770 66447640 64606830 62628470 60639950 58660820
889.99 56689810 54685120 52625660 50565080 48500730 46401120
892.89 44285800 42173770 40082260 38044000 36094860 34207760
895.78 32364700 30583000 28863390 27205440 25629880 24140350
898.67 22735380 21392270 20117650 18926290 17816210 16773470
901.56 15783530 14861050 14033140 13269500 12544890 11867880
904.46 11246850 10680530 10178500 9727750 9297086 8895564
907.35 8554040 8266958 8021310 7804382 7616840 7462750
910.24 7337060 7237956 7176890 7150440 7142014 7150370
913.13 7193840 7276370 7384552 7521152 7691542 7884342
916.03 8108426 8371248 8659336 8963856 9293196 9655304
918.92 10048740 10471470 10927750 11416660 11951760 12520830
921.81 13120490 13763890 14448170 15164040 15916760 16716480
924.71 17562920 18451620 19377990 20336130 21341700 22401310
927.60 23490320 24597300 25737390 26903130 28086150 29268510
930.49 30443120 31624760 32813540 33975080 35095890 36197920
933.38 37281270 38328890 39329670 40290870 41227460 42129910
936.28 42990370 43836930 44699770 45587720 46525840 47530110
939.17 48600940 49745260 50958820 52221890 53550950 54952710
942.06 56388300 57840960 59352830 60900390 62391450 63760780
944.95 64962430 66009720 66976210 67896460 68661330 69192440
947.85 69632620 70074980 70467100 70898820 71480660 72006820
950.74 72429200 73098970 74102740 75241180 76540960 78063710
953.63 79828100 81897270 84032560 85495140 85832480 85849380
956.53 85762900 83963550 80526520 77711670 73463460 65754130
959.42 59938100 58121990 57701000 57622550 57813680 58251080
962.31 58841280 59543750 60333610 61109140 61842620 62609280
965.20 63444210 64321810 65197560 66000160 66682720 67235800
968.10 67657540 67916450 67974090 67803220 67380300 66685600
970.99 65759810 64655730 63419220 62109410 60812790 59642900
973.88 58703820 58110980 57959980 58150500 58155120 57359260
976.77 56058840 55063410 54462270 53760580 52928370 52470420
979.67 52661290 53346610 54289190 55329990 56311310 57109550
982.56 57607240 57716540 57455570 56895860 56037240 54868690
985.45 53475490 51887890 50086730 48168620 46306320 44553420
988.35 42909580 41402390 40052320 38882870 37897350 37090840
991.24 36480980 36055720 35795590 35736200 35871840 36128940
994.13 36497380 37004660 37648480 38425580 39319000 40304410
997.02 41380250 42551870 43816660 45184530 46669720 48257770
999.92 49941990 51744620 53685690 55750230 57920280 60222810
1002.81 62679880 65273310 68012280 70925270 74019440 77285800
1005.70 80702540 84257580 87956230 91843310 95964090 100307400
1008.59 104839300 109568100 114473400 119495200 124623700 129897200
1011.49 135323200 140814400 146269600 151634900 156903000 162040600
1014.38 166918100 171480000 175736000 179590600 182954300 185794900
1017.27 188074900 189824000 190969500 191549100 191759300 191602700
1020.17 191010400 190133700 189232700 188555800 188400100 188607300
1023.06 188474700 187965100 187459400 187195400 188627900 191835200
1025.95 191639700 185371400 177792600 173365300 172147700 172513200
1028.84 172999800 172503700 171120500 169356000 167055600 163844000
1031.74 159632000 154625400 149055800 143012200 136545700 129749900
1034.63 122833100 115909000 108959600 102076200 95462820 89278980
1037.52 83610280 78434100 73704140 69405270 65511810 62009630
1040.41 58898850 56136400 53699570 51561000 49677860 48007300
1043.31 46522560 45228970 44117640 43160830 42373560 41781900
1046.20 41414530 41231730 41240110 41621650 42109490 41806990
1049.09 40710460 39667590 38969560 38477590 38109430 37802110
1051.99 37460060 37104160 36794720 36496460 36183320 35872590
1054.88 35580420 35314260 35084310 34894030 34725620 34557340
1057.77 34391460 34244440 34096160 33943340 33818020 33716390
1060.66 33620180 33506530 33379740 33272730 33176660 33059470
1063.56 32923030 32777340 32621770 32443680 32275840 32132460
1066.45 31958540 31734260 31490160 31268420 31061690 30827270
1069.34 30589710 30363770 30123080 29866810 29604260 29349520
1072.23 29123990 28902740 28670050 28438020 28216040 28005310
1075.13 27777170 27527880 27284020 27024370 26749360 26494780
1078.02 26249350 26002360 25754960 25488550 25220670 24976390
1080.91 24752150 24521460 24265930 23995960 23727390 23459420
1083.81 23183120 22889040 22600870 22330330 22061670 21797200
1086.70 21533280 21272810 21043240 20826010 20591010 20339300
1089.59 20093060 19862990 19644810 19435160 19223430 19001690
1092.48 18774150 18543680 18318990 18104760 17896660 17694310
1095.38 17497230 17314290 17159960 17017210 16876640 16751010
1098.27 16643590 16538060 16436210 16348930 16278970 16222550
1101.16 16174990 16139830 16114440 16087130 16065290 16065910
1104.05 16089840 16122490 16156180 16193780 16243410 16295140
1106.95 16351290 16416190 16482110 16561200 16664270 16773830
1109.84 16870800 16963560 17082840 17236530 17407200 17586250
1112.73 17777550 17989600 18230380 18493910 18773520 19066710
1115.63 19394270 19776040 20207040 20683050 21215240 21809710
1118.52 22456540 23154270 23927940 24788050 25726280 26730150
1121.41 27801710 28978390 30306870 31784850 33356350 35016810
1124.30 36863730 38976630 41367370 44066150 47129120 50647240
1127.20 54725760 59455420 64950960 71349010 78805420 87449500
1130.09 97386620 108716700 121515800 135786100 151481600 168553600
1132.98 186891700 206579100 227970700 251049300 275473800 301020300
1135.87 327410800 354093300 380426400 405991300 430230000 452431000
1138.77 471960600 488213600 500846600 509662800 514285400 514545900
1141.66 510514400 502633900 492077200 480430600 469262600 460383200
1144.55 455766500 456697400 463708300 476366500 492865400 509565900
1147.45 521908200 527221400 523675300 509828400 490977200 477418700
1150.34 472922600 476344900 489209900 508261000 526139200 538829700
1153.23 545053100 544046000 535664900 520722300 499981700 474248800
1156.12 444714800 412271300 377781200 342517200 307629400 273920200
1159.02 241884000 211905200 184366700 159530900 137523200 118288800
1161.91 101675600 87551980 75701380 65827640 57682830 51044300
1164.80 45690580 41404520 37980870 35246560 33078640 31374990
1167.69 30035580 28975310 28129730 27455380 26933600 26539390
1170.59 26227410 25977730 25815390 25743180 25721680 25734030
1173.48 25816220 25990560 26228330 26507440 26804540 27095080
1176.37 27423830 27819380 28275240 28782790 29348850 30001660
1179.26 30728060 31508040 32332850 33195160 34117830 35109460
1182.16 36157900 37274150 38477540 39743300 41030690 42353280
1185.05 43741120 45171160 46640920 48165310 49720850 51288150
1187.94 52882180 54534630 56268340 58056620 59886910 61812390
1190.84 63878160 66092210 68503950 71185830 74157480 77469540
1193.73 81197620 85377340 90090500 95425030 101421600 108077700
1196.62 115195200 122533200 130220100 138618300 148121400 159016500
1199.51 171312500 184836400 199405200 214980000 231638700 249409400
1202.41 268273900 288377000 309846900 332505500 356378600 381775900
1205.30 408846000 437502500 467685300 499691300 533798300 569915700
1208.19 607889900 647799000 689781300 733857300 779995000 828262700
1211.08 878687700 930765200 983917400 1037788000 1091720000 1144761000
1213.98 1196683000 1247505000 1295687000 1339762000 1379553000 1414965000
1216.87 1445811000 1471313000 1491154000 1505417000 1514204000 1517610000
1219.76 1515505000 1509997000 1504178000 1498290000 1491858000 1485941000
1222.66 1482057000 1483228000 1494662000 1517609000 1538201000 1532698000
1225.55 1499566000 1459976000 1427766000 1406612000 1397796000 1400675000
1228.44 1411291000 1423465000 1431500000 1432240000 1423729000 1403871000
1231.33 1371611000 1327014000 1271130000 1205472000 1132372000 1054673000
1234.23 974494900 893587500 813764200 736817200 663978400 596269900
1237.12 534546700 478884000 429343600 385997800 348496200 316328700
1240.01 288990000 265919600 246577800 230452100 216994000 205755900
1242.90 196336100 188340300 181409200 175232200 169600500 164397200
1245.80 159482300 154767000 150203900 145800100 141617200 137686000
1248.69 134049900 130827900 128191200 126367700 125477900 125253300
1251.58 125138300 124454900 122398500 118786800 114628000 111066400
1254.48 108562200 107181000 106797700 107142900 107877900 108645300
1257.37 109152400 109204200 108631600 107290000 105151600 102299500
1260.26 98847080 94890930 90516740 85828860 80977960 76135080
1263.15 71402260 66834230 62490070 58443960 54750220 51411140
1266.05 48388890 45680950 43274380 41133590 39269540 37659440
1268.94 36252390 35036560 33992580 33085950 32280950 31565780
1271.83 30964670 30477410 30101890 29866100 29753210 29720300
1274.72 29765280 29901580 30126890 30434920 30842160 31401210
1277.62 32141640 33070180 34203420 35544540 37094610 38864580
1280.51 40852890 43054690 45485270 48165060 51074690 54202690
1283.40 57541700 61053740 64682740 68363540 72056390 75737100
1286.30 79260020 82438260 85217690 87614600 89617580 91171140
1289.19 92237560 92816680 92963730 92855160 92671520 92441720
1292.08 92233860 92475950 93428460 94429590 94707310 94684530
1294.97 95002300 95302010 95101950 94664360 94329980 94082610
1297.87 93922850 93854310 93840180 93859460 93907370 93940460
1300.76 93848080 93554290 93032510 92217350 90987280 89267830
1303.65 87076810 84453380 81426070 78020500 74314820 70428380
1306.54 66424450 62339020 58242500 54216630 50327530 46606850
1309.44 43075180 39765420 36695120 33860010 31257770 28885900
1312.33 26735930 24788670 23033320 21467580 20067730 18810510
1315.22 17676120 16648550 15723980 14896690 14159850 13500450
1318.12 12894440 12337550 11844710 11403700 10993950 10610380
1321.01 10252680 9918306 9613136 9345478 9104350 8869180
1323.90 8639828 8432392 8254372 8091318 7930198 7782868
1326.79 7654340 7534144 7414760 7304430 7214656 7137998
1329.69 7065496 7001954 6950830 6908550 6874524 6849004
1332.58 6825766 6803252 6786308 6779298 6778776 6780486
1335.47 6789414 6808752 6839742 6880650 6920744 6960370
1338.36 7015224 7096072 7191044 7290174 7412206 7563574
1341.26 7730306 7918562 8130290 8360410 8595048 8830324
1344.15 9094986 9406852 9757396 10140820 10557640 11002820
1347.04 11480580 12005280 12585780 13220180 13902870 14641140
1349.94 15434080 16294450 17249550 18301040 19454510 20718520
1352.83 22090410 23591200 25240500 27054610 29057090 31267950
1355.72 33690680 36327710 39191890 42313420 45755060 49548640
1358.61 53684590 58170500 63031640 68256110 73855550 79844540
1361.51 86176100 92843310 99795570 106956300 114293500 121740100
1364.40 129182100 136552100 143799200 150821200 157556600 163916800
1367.29 169667600 174719000 179158800 183072000 186502500 189425200
1370.18 191761100 193660800 195707000 198585700 202814400 208693800
1373.08 215781600 221852600 223387700 220550500 217713800 217079200
1375.97 218049600 220218500 223580700 227906400 232760200 237609400
1378.86 241947700 245308700 247251900 247511200 246167800 243395200
1381.76 239264400 233859500 227270000 219810900 211835700 203447800
1384.65 194701400 185812600 177045500 168632400 160948100 154102900
1387.54 147406700 140404800 133456200 126692500 119993100 113416200
1390.43 107142200 101293300 95956950 91176550 86861450 82845260
1393.33 78976780 75180250 71496780 67898740 64336590 60845150
1396.22 57416960 54051550 50802640 47699340 44711380 41859880
1399.11 39221970 36782240 34495430 32355600 30365380 28512070
1402.00 26806470 25255930 23848630 22577810 21430840 20411940
1404.90 19550090 18817200 18167100 17587500 17078100 16636660
1407.79 16261700 15951400 15702570 15500740 15328420 15194440
1410.68 15106220 15049460 15019150 15015870 15038610 15080250
1413.58 15133520 15199180 15274600 15343260 15420070 15519700
1416.47 15617310 15712780 15827030 15919790 15921250 15923490
1419.36 16100180 16336960 16490430 16599610 16703800 16814910
1422.25 16928240 17030710 17136170 17284290 17478610 17690040
1425.15 17916050 18156650 18409690 18690660 19002230 19325340
1428.04 19656320 20015190 20409650 20800270 21143450 21395260
1430.93 21547870 21670400 21798630 21905650 21985610 22061450
1433.82 22132410 22182260 22198200 22123890 21879080 21588550
1436.72 21457630 21331950 21051360 20736460 20477490 20250930
1439.61 20038380 19846690 19690440 19581470 19525890 19543100
1442.50 19622900 19689230 19732860 19814990 19915640 19980780
1445.40 19999870 19982080 19935190 19841830 19703170 19583960
1448.29 19479720 19332320 19151620 18964130 18772730 18579690
1451.18 18377190 18161700 17942910 17714850 17483620 17268740
1454.07 17072640 16881940 16681530 16395370 16000470 15762200
1456.97 15773760 15730940 15576430 15411160 15239480 15053100
1459.86 14824970 14576330 14349900 14159800 13989750 13817510
1462.75 13644580 13479130 13294810 13095670 12987450 12958850
1465.64 12898030 12803720 12711060 12628560 12555790 12485150
1468.54 12419180 12357710 12293760 12223090 12142090 12021260
1471.43 11893960 11876510 11869460 11773070 11749100 11789430
1474.32 11764590 11686650 11580440 11484490 11446750 11433770
1477.21 11407420 11358760 11299950 11247130 11184770 11108050
1480.11 11026370 10940270 10861250 10784470 10705490 10640500
1483.00 10586170 10527110 10460500 10389870 10316430 10235920
1485.89 10151220 10054210 9968114 9931982 9895700 9812116
1488.79 9698820 9594488 9514452 9444428 9408754 9387906
1491.68 9336102 9271854 9215622 9160826 9100320 9044608
1494.57 8999356 8896894 8719716 8675840 8772322 8804690
1497.46 8752914 8652960 8586184 8602970 8621092 8607792
1500.36 8586244 8564880 8550932 8524706 8476790 8426722
1503.25 8383608 8339868 8254282 8059772 7917256 7940730
1506.14 7867614 7785622 7916030 8029598 8033786 8035524
1509.03 8029832 8023966 8026048 8015984 7989134 7929456
1511.93 7886602 7898222 7905612 7886244 7847154 7797284
1514.82 7768572 7742054 7686312 7622394 7570764 7563934
1517.71 7586026 7577486 7534982 7451246 7348746 7214334
1520.61 7037150 7023394 7117216 7101668 7082124 7095874
1523.50 7076418 7026578 6931570 6835798 6832574 6855778
1526.39 6825020 6779334 6750060 6710678 6677616 6664282
1529.28 6642346 6608592 6568960 6517010 6472044 6439240
1532.18 6378024 6285198 6208372 6199450 6241578 6251426
1535.07 6230068 6206840 6185298 6156770 6107950 6026980
1537.96 5850122 5647172 5662216 5726764 5731266 5840432
1540.85 5885370 5786904 5792026 5932532 6014326 6043096
1543.75 6068788 6047816 6038732 6132774 6251520 6325398
1546.64 6381422 6442706 6512050 6586078 6656220 6715946
1549.53 6787368 6898712 7034334 7153404 7256614 7364022
1552.43 7471538 7547738 7550826 7584818 7779726 7998534
1555.32 8139908 8246682 8309792 8318072 8317312 8292770
1558.21 8394274 8646886 8715172 8695704 8915190 9214244
1561.10 9369904 9446564 9511960 9586492 9661570 9711002
1564.00 9720968 9726432 9769840 9830054 9871874 9910050
1566.89 9991538 10149570 10297890 10295770 10168190 10101270
1569.78 10199190 10342960 10448780 10555660 10670370 10787140
1572.67 10905890 11023950 11138290 11241730 11299560 11214970
1575.57 11083290 11230910 11522890 11669060 11726500 11766400
1578.46 11793190 11815990 11841030 11862920 11876090 11886830
1581.35 11899290 11911000 11915190 11910110 11911790 11930740
1584.25 11961360 12000880 12046840 12089070 12123920 12154390
1587.14 12176020 12186740 12200430 12221230 12234210 12234060
1590.03 12237000 12250410 12270040 12287180 12298030 12313120
1592.92 12329280 12338430 12345370 12356440 12373580 12393560
1595.82 12411280 12424170 12430270 12435260 12449450 12464910
1598.71 12472130 12475370 12480340 12493580 12524500 12576330
1601.60 12640270 12717900 12812870 12926860 13057200 13188160
1604.49 13310760 13418670 13525160 13649690 13797330 13964750
1607.39 14138250 14304440 14457070 14614890 14805150 15023800
1610.28 15255230 15497090 15757510 16045820 16358600 16678140
1613.17 16980760 17268890 17565450 17894260 18255240 18539130
1616.07 18749240 19158810 19712580 20164250 20540730 20906560
1618.96 21266500 21603800 21904880 22171230 22410940 22632160
1621.85 22848590 23045100 23232890 23523050 23918180 24303180
1624.74 24672750 25045660 25375870 25589290 25707200 25890770
1627.64 26301330 26943920 27749950 28714480 29849650 31132700
1630.53 32510970 33875370 35168060 36530250 38190320 40246100
1633.42 42669640 45427870 48517390 52003680 56118300 60916980
1636.31 66172530 71901910 78310280 85463550 93318860 101850200
1639.21 111064800 120980500 131566400 142738600 154416600 166509600
1642.10 178867200 191251700 203415900 215155300 226115500 235511400
1644.99 242376000 247155600 250927000 252874500 252165700 249062000
1647.89 243952800 237532800 230665400 224565700 220980600 222042600
1650.78 229822400 244731600 265079300 286175500 295338200 281887300
1653.67 253416700 227209900 213648500 212842800 220756700 233764300
1656.56 248852700 263681700 276525200 286102000 291714800 293124400
1659.46 290278800 283327100 272704600 259049100 243011000 225142600
1662.35 206365700 187548500 168916500 150775700 133604100 117717900
1665.24 103337400 90573070 79363440 69605700 61264210 54232200
1668.13 48289190 43264410 39154480 35833910 33008700 30540710
1671.03 28437480 26678480 25144880 23760960 22516480 21391670
1673.92 20324870 19260270 18321110 17603570 16951250 16278130
1676.81 15625600 15011230 14443080 13913330 13409420 12937050
1679.71 12508310 12126630 11784840 11466890 11155260 10826620
1682.60 10507040 10248350 9951874 9545396 9361510 9500186
1685.49 9563314 9476600 9369016 9271202 9186288 9122208
1688.38 9087224 9057850 9019464 8999988 9005038 9017984
1691.28 9035132 9052772 9053736 9034592 8998728 8940244
1694.17 8836926 8603266 8244590 8118214 8279082 8346544
1697.06 8285816 8239764 8236030 8227000 8119750 7991718
1699.95 7999490 8101752 8163352 8087756 7924406 7771878
1702.85 7670540 7603140 7564772 7601814 7677202 7701634
1705.74 7690416 7708742 7730804 7708250 7649094 7563698
1708.63 7457988 7332576 7199906 7078336 6959614 6831592
1711.53 6714346 6609350 6514846 6439952 6380094 6324092
1714.42 6264502 6274518 6363908 6417202 6329556 6209272
1717.31 6323154 6496338 6552870 6613638 6662772 6679076
1720.20 6707672 6762864 6838326 6932624 7048868 7185716
1723.10 7348628 7535226 7729598 7932622 8149472 8373210
1725.99 8599856 8840280 9106038 9393424 9696078 10014590
1728.88 10332820 10654860 11014800 11406770 11798750 12175480
1731.77 12519010 12766150 12949020 13234340 13507400 13736940
1734.67 14082580 14392070 14577450 14708340 14814380 14922310
1737.56 15062210 15248190 15473430 15748450 16188890 16809190
1740.45 17436030 18016780 18662240 19475050 20484700 21678430
1743.34 23011790 24408850 25812120 27192960 28547600 29909320
1746.24 31295490 32684070 34104920 35581560 37096740 38678430
1749.13 40380800 42214710 44135150 46166200 48471090 51074880
1752.02 53848980 56806170 60009370 63456640 67149310 71094020
1754.92 75271070 79670220 84266610 89110580 94304750 99775330
1757.81 105429000 111320400 117519300 124020300 130843900 138054600
1760.70 145611000 153537400 162071600 171156100 180608600 190519600
1763.59 200959500 211941300 223540200 235838300 248943200 263000700
1766.49 278099100 294129500 311098700 329587500 349547900 370305000
1769.38 391800200 414202900 437492600 461968300 487630300 513503400
1772.27 540004700 567864100 595415600 621445100 645909200 668230700
1775.16 687837600 704571600 717789600 726532900 730519500 729696600
1778.06 723631300 712304000 696251700 675941200 652274600 626906200
1780.95 601645400 578652500 560324600 547580200 539006100 531393000
1783.84 522447900 514891200 515967000 531350700 561385000 602365400
1786.74 648862100 695258400 737073100 771213100 795875400 810449600
1789.63 814969200 810180100 797638500 778712100 754128800 725232500
1792.52 693938300 661157800 627360900 593143400 558953300 525519200
1795.41 493491100 463010000 434064100 406876600 381597600 358134800
1798.31 336313000 316005600 297280900 280163900 264383800 249759900
1801.20 236252500 223622100 211667500 200281000 189213100 178350900
1804.09 167762600 157585300 147908500 138771100 130198700 122106700
1806.98 114355300 106897800 99738570 92862860 86268340 79980930
1809.88 74028020 68461950 63307110 58530780 54105390 50016490
1812.77 46227970 42709110 39450880 36449260 33696920 31181930
1815.66 28891310 26811250 24922780 23234650 21738930 20399130
1818.56 19201820 18136390 17186010 16347770 15616520 14982000
1821.45 14429660 13939100 13510100 13167530 12898590 12652190
1824.34 12413350 12226080 12081490 11932770 11798780 11703580
1827.23 11643590 11604130 11564200 11521070 11476390 11443740
1830.13 11447340 11447320 11409620 11349560 11270800 11174900
1833.02 11068610 10954170 10826470 10696620 10577020 10459070
1835.91 10331980 10210560 10111090 10027880 9959040 9907416
1838.80 9868242 9846486 9849292 9872252 9900398 9937248
1841.70 9991290 10059070 10124130 10148950 10170740 10315420
1844.59 10522230 10678660 10814050 10950040 11081280 11207040
1847.48 11341720 11488520 11627630 11756140 11873440 11981380
1850.38 12095120 12213540 12328310 12448400 12583610 12728370
1853.27 12872370 13018910 13168070 13315630 13470790 13629200
1856.16 13782110 13937180 14100910 14269660 14435430 14597850
1859.05 14755050 14910660 15057010 15186120 15310820 15429950
1861.95 15533460 15625750 15706670 15763210 15799780 15825420
1864.84 15826390 15795710 15748030 15696100 15627710 15542790
1867.73 15466230 15388060 15313330 15294630 15286750 15218050
1870.62 15129350 15050980 14943940 14796720 14634000 14468590
1873.52 14311410 14172250 14056820 13966440 13888970 13807710
1876.41 13707190 13577930 13419690 13233400 13024660 12783510
1879.30 12502070 12197220 11880110 11550890 11209500 10868170
1882.20 10535620 10216180 9911940 9626528 9369958 9138484
1885.09 8930512 8750004 8590324 8451896 8335738 8234532
1887.98 8150640 8073802 7998106 7954010 7942536 7943150
1890.87 7946618 7944300 7941914 7945406 7952890 7967442
1893.77 7987680 8001150 8016316 8052102 8090884 8106060
1896.66 8091084 8068226 8057932 8051094 8037292 8010356
1899.55 7971224 7922376 7866160 7800812 7711768 7600410
1902.44 7482520 7382278 7304070 7220468 7129330 7053612
1905.34 6976116 6850730 6686220 6529932 6413448 6368040
1908.23 6374976 6367202 6274754 6053866 5812914 5676046
1911.12 5615314 5566544 5501312 5413720 5310534 5198698
1914.02 5074094 4930792 4764526 4582658 4395638 4204136
1916.91 3999120 3795272 3643132 3522172 3386838 3247980
1919.80 3118644 3003172 2902022 2809270 2723578 2648616
1922.69 2586858 2544916 2511462 2473356 2437480 2408836
1925.59 2385426 2369006 2359508 2352242 2344510 2341276
1928.48 2342280 2342470 2341154 2341928 2348882 2357336
1931.37 2361600 2364452 2369720 2382970 2399512 2414288
1934.26 2432638 2451258 2470620 2497388 2525538 2548366
1937.16 2568476 2592834 2624058 2653468 2678598 2705518
1940.05 2728862 2749044 2770060 2779026 2781872 2805020
1942.94 2836988 2852158 2853244 2851734 2850962 2850798
1945.84 2848220 2845636 2843510 2834146 2821650 2817510
1948.73 2819790 2823952 2823720 2816162 2813282 2824992
1951.62 2846422 2869030 2892750 2916766 2941792 2963782
1954.51 2981110 2999628 3014752 3024310 3031104 3033018
1957.41 3032888 3031690 3021228 3002992 2982532 2957044
1960.30 2929434 2900362 2862496 2824454 2794740 2768510
1963.19 2738260 2702980 2672592 2649194 2629976 2614370
1966.08 2599512 2581180 2568990 2571556 2579742 2584622
1968.98 2584724 2591916 2611340 2638762 2670808 2701860
1971.87 2739804 2791846 2849706 2912854 2984930 3057824
1974.76 3138078 3234328 3342398 3460686 3583938 3710426
1977.66 3849474 4005620 4173698 4351336 4535850 4731238
1980.55 4941372 5150632 5357452 5572998 5787424 5994718
1983.44 6197446 6385386 6559242 6723506 6864970 6983074
1986.33 7081498 7153544 7195568 7208398 7202268 7182326
1989.23 7150750 7117846 7100138 7108458 7148876 7241316
1992.12 7389728 7563324 7719228 7817996 7818620 7699466
1995.01 7512614 7355940 7296534 7331148 7421130 7540306
1997.90 7665378 7764670 7827374 7851936 7823538 7733030
2000.80 7581274 7372138 7116990 6828236 6507250 6162692
2003.69 5814386 5473820 5147026 4837178 4547292 4286846
2006.58 4057782 3855324 3680868 3535514 3414514 3316504
2009.48 3237846 3171458 3116784 3076190 3044234 3019046
2012.37 2997264 2973060 2959014 2954196 2943148 2933538
2015.26 2936434 2937086 2928764 2925120 2922312 2917294
2018.15 2918332 2924132 2929816 2942060 2961846 2977454
2021.05 2982820 2969880 2943582 2919276 2900088 2888772
2023.94 2887824 2892796 2894474 2891768 2896268 2908636
2026.83 2915638 2920848 2931790 2937272 2934036 2936770
2029.72 2950706 2963276 2970434 2979322 2988130 2995882
2032.62 3007504 3022600 3042598 3068860 3098492 3132470
2035.51 3174084 3220120 3266112 3311432 3359388 3414520
2038.40 3480042 3555968 3638110 3727046 3821406 3923462
2041.29 4041288 4175596 4318782 4465800 4620950 4784774
2044.19 4953340 5127894 5317564 5522988 5738044 5960448
2047.08 6198534 6456096 6725174 7000656 7285392 7581864
2049.97 7886834 8201950 8534814 8880626 9226308 9573888
2052.87 9935158 10313570 10694800 11063840 11425180 11784490
2055.76 12131780 12467890 12796040 13101620 13387520 13665620
2058.65 13929960 14168940 14379310 14562250 14714780 14839070
2061.54 14947760 15045030 15118510 15173250 15236810 15327660
2064.44 15444250 15565610 15657260 15669140 15585060 15459120
2067.33 15349340 15273230 15229230 15208860 15188450 15150000
2070.22 15087760 14992740 14858160 14677160 14447280 14169400
2073.11 13838880 13457060 13032710 12573680 12089760 11583910
2076.01 11060380 10526270 9988652 9467594 8967974 8486098
2078.90 8030406 7596644 7186786 6812890 6464742 6134918
2081.79 5838260 5576644 5336542 5115738 4917602 4742212
2084.69 4583604 4431302 4292124 4179546 4082132 3988796
2087.58 3899770 3819464 3753506 3690720 3623264 3559094
2090.47 3508610 3465534 3424476 3388002 3348840 3307920
2093.36 3269618 3226186 3186532 3165784 3147030 3121904
2096.26 3102166 3084758 3069362 3059048 3040256 3026158
2099.15 3036876 3051908 3057884 3060746 3066678 3076224
2102.04 3085890 3091436 3108304 3142738 3179010 3212924
2104.93 3247428 3282898 3317604 3348342 3382506 3431672
2107.83 3482844 3527560 3568616 3603462 3639474 3671436
2110.72 3689144 3719770 3772816 3818494 3850194 3878436
2113.61 3905062 3925224 3930466 3929600 3943996 3962736
2116.51 3969498 3965408 3953510 3935518 3908368 3876094
2119.40 3863212 3872598 3883918 3892784 3905038 3928830
2122.29 3962724 3988562 3990234 3975208 3961872 3953884
2125.18 3938256 3928092 3937654 3948874 3956286 3973046
2128.08 3984388 3970928 3932958 3874360 3796674 3696712
2130.97 3582812 3466312 3342720 3215820 3089008 2957176
2133.86 2826054 2698836 2583982 2497054 2422654 2348084
2136.75 2286102 2235976 2195402 2168078 2149584 2141740
2139.65 2138562 2135150 2132750 2131562 2140704 2158624
2142.54 2173224 2184678 2202162 2224924 2243162 2257054
2145.43 2271720 2284788 2296042 2309370 2326312 2341850
2148.33 2348690 2352044 2361198 2369128 2369702 2374282
2151.22 2385478 2397170 2407818 2418338 2424056 2421176
2154.11 2424530 2446232 2472370 2489744 2497918 2505900
2157.00 2512442 2510896 2522426 2549892 2570320 2584466
2159.90 2599836 2614754 2617474 2614296 2633240 2661826
2162.79 2674266 2679734 2682042 2672600 2646682 2625366
2165.68 2630328 2638550 2633472 2622212 2608872 2581530
2168.57 2551296 2548362 2555724 2555552 2554128 2548062
2171.47 2530434 2501112 2491244 2512840 2530228 2522952
2174.36 2487990 2437348 2391886 2363662 2355560 2347668
2177.25 2332900 2314264 2289498 2246838 2191112 2156116
2180.15 2130636 2088416 2034378 1978622 1913884 1840250
2183.04 1787354 1748924 1702032 1654318 1611490 1567558
2185.93 1519168 1488596 1476634 1456240 1434120 1417922
2188.82 1392396 1360832 1349944 1353890 1351552 1348494
2191.72 1342794 1323570 1301226 1291042 1283296 1270876
2194.61 1257890 1239690 1213604 1188106 1182182 1181646
2197.50 1168738 1152532 1138586 1123616 1105636 1096086
2200.39 1097924 1100670 1101566 1102448 1102662 1108276
2203.29 1119726 1129594 1142498 1160230 1174918 1184088
2206.18 1200682 1226328 1250358 1276972 1308044 1338298
2209.07 1368566 1401430 1433558 1464122 1497554 1538104
2211.97 1580288 1625228 1669554 1701398 1730204 1763900
2214.86 1798444 1835616 1878036 1920488 1958358 1994342
2217.75 2030944 2067734 2108702 2155410 2202628 2245986
2220.64 2280412 2306038 2332856 2367934 2402366 2430696
2223.54 2460432 2497578 2544532 2590074 2626792 2658524
2226.43 2684244 2700804 2707846 2714148 2720778 2720198
2229.32 2710584 2694356 2677262 2664474 2652934 2634684
2232.21 2609260 2586050 2568500 2547054 2522200 2501434
2235.11 2481978 2457158 2428802 2404238 2378952 2350470
2238.00 2319086 2283336 2248272 2215066 2181446 2151778
2240.89 2126576 2098786 2064162 2030016 2002280 1972390
2243.79 1936310 1903414 1875982 1849484 1819854 1789728
2246.68 1765256 1739312 1711744 1691664 1677800 1665634
2249.57 1651966 1632832 1606160 1581194 1562728 1544300
2252.46 1524120 1498402 1467042 1439156 1414212 1386752
2255.36 1360080 1336944 1316052 1296036 1275394 1257080
2258.25 1245344 1237914 1231612 1225274 1219082 1216562
2261.14 1221120 1231634 1239840 1248932 1267456 1288870
2264.03 1308816 1332740 1358176 1386522 1429664 1479180
2266.93 1524994 1577414 1636942 1696502 1758890 1828820
2269.82 1909662 2003112 2109010 2224510 2346490 2477714
2272.71 2623004 2776400 2931670 3096702 3279422 3471820
2275.61 3665240 3867252 4081378 4294260 4499160 4702556
2278.50 4906702 5105296 5291904 5460066 5608528 5745386
2281.39 5873910 5985248 6074442 6134948 6168852 6188820
2284.28 6203084 6207542 6198076 6181520 6162884 6145240
2287.18 6134732 6140744 6161566 6189804 6217024 6239806
2290.07 6262810 6288854 6312068 6313550 6275682 6213430
2292.96 6171060 6161882 6149106 6106018 6036290 5937716
2295.85 5817976 5682222 5514870 5317164 5092316 4827016
2298.75 4526556 4218868 3910140 3591568 3274382 2970436
2301.64 2680670 2407192 2151168 1924312 1732500 1562280
2304.53 1408582 1275836 1163494 1074036 1003748 942478
2307.43 885514 837254 798974 764706 735756 717112
2310.32 704590 692366 676454 663842 657628 646964
2313.21 634270 630426 634574 636028 627566 623782
2316.10 634986 646242 643384 633664 630514 633290
2319.00 631594 628564 632924 645210 655564 658328
2321.89 664048 675194 678288 675290 684464 704416
2324.78 716750 720110 734302 759208 771504 776410
2327.67 801502 834138 845834 855612 887178 922144
2330.57 939788 959182 997226 1030216 1048894 1083436
2333.46 1137454 1178102 1203204 1240688 1286276 1320134
2336.35 1353734 1402718 1443454 1470466 1510458 1556792
2339.24 1588866 1617304 1655642 1688040 1701200 1716562
2342.14 1744876 1764456 1781618 1811960 1829310 1833976
2345.03 1849706 1864132 1871184 1883344 1903046 1923648
2347.92 1940632 1959212 1986548 2023406 2060636 2095432
2350.82 2132554 2164340 2194766 2230918 2262986 2291680
2353.71 2319456 2331600 2334446 2349506 2357748 2346796
2356.60 2330348 2307478 2287842 2275590 2249970 2220112
2359.49 2199044 2169006 2144528 2127016 2096118 2078772
2362.39 2070744 2050326 2038936 2025746 2004294 1988880
2365.28 1963906 1940828 1930746 1917292 1895852 1867982
2368.17 1849066 1836780 1817560 1796830 1775722 1760646
2371.06 1747338 1732736 1720342 1705470 1690310 1671774
2373.96 1646544 1613802 1578720 1545634 1515614 1492272
2376.85 1475980 1462276 1444332 1425012 1403368 1372666
2379.74 1337738 1300272 1258488 1214664 1171860 1133770
2382.64 1096798 1056854 1020772 986738 948716 917654
2385.53 898402 883050 868040 854434 845734 841870
2388.42 838892 837008 834562 836666 849086 865898
2391.31 878172 883462 886394 896514 915062 926180
2394.21 928378 933906 945584 963726 988280 1008740
2397.10 1020774 1035168 1054942 1074276 1092374 1114454
2399.99 1135874 1147548 1161104 1185748 1213132 1240072
2402.88 1264160 1286128 1311330 1334758 1357032 1379942
2405.78 1402850 1427794 1459118 1494218 1523426 1548934
2408.67 1575332 1603196 1633636 1663160 1692934 1730332
2411.56 1770348 1809420 1849152 1889176 1928346 1968102
2414.46 2015100 2066726 2121696 2181380 2241490 2302430
2417.35 2364588 2424720 2481972 2534112 2576832 2619732
2420.24 2676314 2740828 2803742 2869190 2934938 2998482
2423.13 3062704 3133944 3220402 3307970 3383236 3458776
2426.03 3543188 3629836 3714656 3802242 3890506 3974858
2428.92 4059500 4145216 4230810 4316004 4396700 4467402
2431.81 4526896 4578414 4623898 4661396 4693026 4715798
2434.70 4720102 4712434 4698200 4678814 4654032 4624792
2437.60 4594460 4565692 4547066 4541104 4535706 4530354
2440.49 4532880 4525948 4488264 4420396 4338664 4270820
2443.38 4227022 4192506 4161260 4134472 4104766 4062286
2446.28 4006390 3942734 3872534 3787800 3687146 3573768
2449.17 3449520 3317764 3177428 3030014 2882668 2741912
2452.06 2608456 2481562 2360196 2243504 2128958 2019270
2454.95 1921768 1839038 1765246 1696432 1635210 1581308
2457.85 1529324 1474990 1424228 1380864 1341778 1308042
2460.74 1282128 1259556 1234464 1212506 1188242 1157244
2463.63 1131842 1111632 1089288 1072872 1067644 1059588
2466.52 1038082 1015456 1003580 999380 992482 982854
2469.42 976024 962488 946140 939468 935370 928094
2472.31 927118 928426 923386 914838 907594 900550
2475.20 892788 885304 874512 863830 856970 852604
2478.10 843694 833144 829316 827390 824814 826930
2480.99 834054 841712 848742 856612 868672 883780
2483.88 899884 916736 931828 945800 960846 976892
2486.77 995966 1010784 1013236 1006022 998300 998974
2489.67 1004298 1009960 1013956 1011318 1007866 1018810
2492.56 1037452 1050468 1062188 1072118 1075186 1066856
2495.45 1046312 1024744 1015788 1019212 1024292 1030636
2498.34 1036072 1038970 1047106 1060692 1066738 1055594
2501.24 1037718 1020420 996932 969018 938280 906746
2504.13 877814 844036 805790 769918 732298 693568
2507.02 662512 639016 617962 596994 573142 546954
2509.92 522896 505914 495918 486364 476888 467046
2512.81 458802 455426 454070 452398 446356 440122
2515.70 438868 435964 429884 424610 421420 413700
2518.59 405788 401464 397016 394412 394102 394954
2521.49 390678 381208 376556 374270 369432 366490
2524.38 358446 346538 341680 336518 327300 322534
2527.27 320532 312280 302042 293180 282684 274178
2530.16 266786 255532 247776 248546 250394 250280
2533.06 246710 234594 219036 210528 207108 208160
2535.95 212022 211338 202046 188388 178212 174792
2538.84 174824 174990 177488 179026 176644 169560
2541.74 160710 154442 153366 159564 165394 163494
2544.63 154836 145332 142492 144888 143932 141176
2547.52 142032 138206 131112 133022 139046 138972
2550.41 138590 139370 139666 139956 136000 136866
2553.31 142080 141500 141642 146220 153310 155186
2556.20 150152 145950 140800 133602 129812 130738
2559.09 134000 140516 143546 139052 137496 142748
2561.98 142826 139780 142040 148654 158932 167034
2564.88 168836 173210 180562 187462 200518 215436
2567.77 224684 235114 251038 268636 281924 297612
2570.66 318070 337906 357996 380708 402646 422062
2573.56 445026 467614 485610 507726 534370 554732
2576.45 572340 594942 621202 652208 680272 702412
2579.34 733414 763760 780218 793614 810612 830816
2582.23 854788 878198 898266 919878 941152 956252
2585.13 969116 988814 1011194 1034616 1056932 1075198
2588.02 1088760 1090416 1084304 1085072 1092004 1094102
2590.91 1088304 1081478 1079122 1078274 1070156 1055894
2593.80 1047592 1042518 1034748 1032486 1029642 1015646
2596.70 997928 985832 976676 960800 942290 935012
2599.59 937530 935510 922116 902656 879622 854554
2602.48 834372 816390 799394 788722 775418 751500
2605.37 725934 703672 682396 664744 651484 635292
2608.27 617524 604498 595768 587758 584580 587182
2611.16 588214 587640 594014 610982 625938 633440
2614.05 646458 666134 689892 718304 741350 762550
2616.95 788856 813358 837536 860754 881630 906992
2619.84 935128 964610 988414 1001732 1017022 1039112
2622.73 1054392 1062034 1078580 1090912 1089220 1090558
2625.62 1099210 1109402 1113242 1118090 1127582 1129562
2628.52 1127088 1132962 1147994 1156900 1156476 1157626
2631.41 1164842 1169400 1167430 1166598 1167824 1175386
2634.30 1189664 1197992 1197136 1197066 1193986 1182548
2637.19 1173176 1160316 1129630 1089024 1051846 1017476
2640.09 977594 933762 891812 849282 808712 767224
2642.98 727924 694414 660918 628644 601640 574808
2645.87 549514 532014 520116 513092 506696 501296
2648.77 498964 489458 480466 482000 487322 483800
2651.66 470180 464206 470742 478506 480916 482942
2654.55 485060 479478 477632 488736 498644 502202
2657.44 509076 521340 526180 518944 516900 530326
2660.34 545562 554212 563866 572208 574390 580772
2663.23 589392 592860 601204 610610 612630 620718
2666.12 631936 638780 642718 638790 641560 653374
2669.01 660224 659584 647954 634016 632528 637582
2671.91 638226 640678 644194 638544 628530 627628
2674.80 630644 624582 612342 607720 602814 590510
2677.69 581904 575176 566988 559830 555762 552896
2680.59 544006 530532 512316 495026 490492 483832
2683.48 467720 451908 432858 415618 403002 384350
2686.37 363586 350856 342054 334614 331014 323600
2689.26 312514 301348 290226 279834 274322 274150
2692.16 269752 258650 252610 252580 252738 251232
2695.05 245034 235528 224416 216478 217466 220080
2697.94 221380 219430 213548 210440 207290 202104
2700.83 198596 195772 194252 198682 203934 203736
2703.73 201694 200502 202448 207436 209530 206508
2706.62 201104 197506 200236 211470 222132 222118
2709.51 215750 212592 211266 205990 202782 206070
2712.41 206118 203832 206356 214552 225358 226818
2715.30 222236 222036 224724 223340 221012 228838
2718.19 236110 235506 240312 246360 245446 242800
2721.08 242824 241480 240072 243850 253960 263820
2723.98 264542 263286 267022 273904 272922 272222
2726.87 286996 304072 315892 325062 329532 326026
2729.76 323884 332376 347172 362278 376894 391218
2732.65 408062 431384 456762 474900 490076 508608
2735.55 529978 554684 583578 616102 650298 678938
2738.44 703646 738866 779386 812946 846312 883576
2741.33 926276 978842 1032388 1076182 1121136 1169276
2744.23 1219412 1273636 1328218 1379910 1425782 1467634
2747.12 1507772 1544428 1575696 1603026 1628680 1655920
2750.01 1680422 1693128 1697302 1696534 1689626 1676084
2752.90 1659704 1646500 1630368 1611038 1591650 1565086
2755.80 1538156 1517960 1505616 1504670 1514852 1534276
2758.69 1559276 1587838 1619716 1664784 1718496 1759846
2761.58 1788746 1818214 1843172 1849494 1841024 1825824
2764.47 1795328 1745620 1684802 1620348 1556968 1497348
2767.37 1436096 1362404 1282630 1210144 1144158 1087392
2770.26 1039640 989478 943620 904278 858054 809630
2773.15 771924 743074 711494 678386 653582 634408
2776.05 619268 609586 599362 589984 585138 577630
2778.94 572372 578778 585344 588146 594564 601436
2781.83 600766 599922 607706 618718 627666 643202
2784.72 664280 678296 682700 688970 709572 732296
2787.62 739518 739624 739572 734756 729054 733758
2790.51 742362 738204 729586 733496 746856 755600
2793.40 761036 775596 796942 812676 819040 819014
2796.29 823590 838204 852348 862090 872850 880316
2799.19 880054 881046 887604 888970 880988 873320
2802.08 869578 858204 834550 807660 776538 737522
2804.97 703514 677922 653264 621852 584784 550622
2807.87 522674 495502 464752 431750 408544 405032
2810.76 405334 402596 402350 398796 388710 378026
2813.65 376516 381506 382360 378552 377584 380922
2816.54 381480 378068 380484 385406 391062 397846
2819.44 391514 382966 378646 370124 361114 356992
2822.33 364382 375520 379166 380120 382068 380306
2825.22 382286 383962 385308 394304 401158 404046
2828.11 404704 407338 415774 423320 424320 422640
2831.01 425652 433190 441288 449422 453612 448834
2833.90 442766 451026 463400 467796 474572 490720
2836.79 506306 514718 525214 536546 546856 559542
2839.69 564984 575146 600088 624038 640506 664886
2842.58 697834 719104 731900 752354 775204 796172
2845.47 827802 869366 903116 927038 953800 982740
2848.36 1006194 1028248 1057098 1078830 1093518 1116598
2851.26 1140468 1159802 1180862 1201650 1216784 1222164
2854.15 1222606 1226172 1236336 1245590 1258966 1280650
2857.04 1287396 1281148 1282876 1291050 1294736 1290712
2859.93 1291126 1303076 1315206 1317864 1321300 1334694
2862.83 1342064 1337750 1333668 1327612 1318354 1311728
2865.72 1305272 1300636 1297920 1291994 1277536 1253402
2868.61 1222666 1195492 1181842 1169272 1141694 1107332
2871.51 1084888 1074652 1060832 1033740 999214 969734
2874.40 949560 923852 891498 870366 860218 852546
2877.29 841286 821022 797594 781648 772634 760848
2880.18 743048 726554 719994 721656 719840 714768
2883.08 708664 698490 684062 670538 663456 658070
2885.97 649718 636668 629404 632782 628420 617876
2888.86 619190 626116 630698 632530 631496 627354
2891.75 617258 608858 607806 609662 610826 617924
2894.65 625406 625042 621902 621572 629512 635404
2897.54 635314 625130 614118 626110 641848 643446
2900.43 645128 647644 639270 630760 633804 637160
2903.32 634674 640646 652398 656600 653708 645544
2906.22 649892 664156 659028 649320 653752 659002
2909.11 664200 673974 690466 695960 687642 699234
2912.00 721520 722898 713316 711318 716290 725222
2914.90 732672 737350 742970 756736 772050 773656
2917.79 771510 783600 800266 808200 819856 836420
2920.68 856934 882086 904938 923480 939334 967806
2923.57 1003364 1030032 1051050 1074512 1099898 1127358
2926.47 1161322 1199364 1235066 1275484 1321828 1369012
2929.36 1424636 1476248 1523566 1582384 1645476 1712688
2932.25 1790170 1863930 1927476 1993382 2064836 2151208
2935.14 2248738 2341012 2445322 2564208 2682700 2812168
2938.04 2951708 3083584 3220944 3375052 3529962 3689086
2940.93 3856146 4027624 4207634 4393882 4572626 4731282
2943.82 4882992 5033888 5173536 5297198 5404022 5491054
2946.72 5561344 5624784 5662266 5674546 5685718 5690706
2949.61 5697370 5717994 5740270 5763486 5804456 5865392
2952.50 5917844 5955800 5995478 6045226 6115902 6200986
2955.39 6293222 6402470 6511522 6608664 6706794 6807844
2958.29 6884812 6922836 6944326 6959298 6949052 6895228
2961.18 6819962 6774768 6739080 6654890 6541568 6428310
2964.07 6310140 6189902 6068332 5947088 5836698 5732570
2966.96 5627814 5531312 5454940 5390120 5316000 5242644
2969.86 5184024 5137048 5092960 5053624 5025318 4999970
2972.75 4969968 4952770 4947428 4938478 4925818 4906186
2975.64 4889220 4883136 4887880 4895138 4901704 4918704
2978.54 4938318 4945302 4948402 4961480 4976112 4994158
2981.43 5023116 5047836 5073168 5097732 5115396 5149598
2984.32 5196688 5235374 5275654 5318818 5356168 5396480
2987.21 5441884 5495602 5547874 5579796 5610006 5664158
2990.11 5744254 5840900 5953108 6098338 6270170 6457382
2993.00 6685758 6908732 6994758 6928918 6819510 6748466
2995.89 6713212 6680916 6644724 6606086 6561708 6523972
2998.78 6494332 6474886 6481116 6492354 6480988 6463526
3001.68 6447938 6419548 6383616 6341816 6303342 6275620
3004.57 6248462 6221780 6214920 6233504 6249744 6247744
3007.46 6236362 6222682 6199006 6173670 6162550 6159032
3010.36 6171682 6205492 6240084 6270816 6306414 6339176
3013.25 6357356 6367122 6381742 6395648 6401388 6406716
3016.14 6426562 6470362 6532806 6600842 6668830 6740248
3019.03 6819368 6916486 7026210 7137298 7250780 7371382
3021.93 7505586 7640792 7765928 7894370 8031094 8169744
3024.82 8305574 8430372 8545596 8663856 8782318 8886606
3027.71 8977876 9062598 9146132 9226848 9283482 9330350
3030.60 9381066 9422142 9470686 9532680 9591122 9654370
3033.50 9745532 9885946 10034290 10111870 10107420 10072170
3036.39 10052870 10062330 10092480 10145080 10222490 10304850
3039.28 10373770 10434250 10492550 10549540 10604930 10659310
3042.18 10700650 10723730 10747400 10779110 10807720 10838130
3045.07 10890070 10958920 11026160 11094470 11182170 11286050
3047.96 11391040 11494050 11593280 11683970 11767050 11840710
3050.85 11910390 11981300 12042370 12103430 12164140 12196600
3053.75 12205730 12205910 12198810 12184000 12171570 12179250
3056.64 12207470 12252600 12310910 12382870 12464930 12537300
3059.53 12579150 12584940 12568620 12550360 12534280 12530280
3062.42 12569280 12640240 12701210 12740570 12786180 12855750
3065.32 12912740 12918650 12885720 12823680 12725050 12597670
3068.21 12448580 12275470 12083530 11876850 11667330 11451040
3071.10 11212500 10973540 10755210 10559610 10378460 10205190
3074.00 10043260 9898974 9780594 9682138 9582906 9489652
3076.89 9411254 9339708 9291332 9277272 9276036 9282590
3079.78 9293776 9314420 9369640 9456290 9566784 9700406
3082.67 9861832 10060470 10286830 10548680 10853280 11198750
3085.57 11592830 12041840 12546310 13107640 13743560 14461300
3088.46 15233460 16052660 16931320 17856870 18812810 19782410
3091.35 20742070 21682720 22603270 23480310 24277850 24945460
3094.24 25472390 25868380 26090080 26105500 25938280 25607700
3097.14 25105480 24475880 23847790 23326290 22989220 22928450
3100.03 23212430 23877390 24868540 25949080 26673150 26487120
3102.92 25063310 22907540 21240080 20773670 21284000 22282630
3105.82 23422250 24499890 25401620 26049690 26391830 26409630
3108.71 26110460 25525920 24685820 23631540 22435120 21138340
3111.60 19773270 18415320 17095020 15821960 14644180 13583810
3114.49 12651820 11857520 11205560 10701520 10329070 10083080
3117.39 9974206 9989746 10108710 10326600 10630640 10989510
3120.28 11377520 11792260 12239550 12702900 13155890 13576480
3123.17 13929340 14204720 14400030 14482530 14447900 14318990
3126.06 14091890 13752800 13319750 12861520 12443940 12106490
3128.96 11921010 11977140 12283070 12652930 12755000 12447390
3131.85 11950190 11554030 11357360 11372180 11606170 12016070
3134.74 12514570 13016000 13469260 13845720 14120350 14274460
3137.64 14289220 14167740 13927040 13562170 13080820 12524970
3140.53 11927900 11289490 10618000 9939646 9276754 8635474
3143.42 8019594 7447228 6911742 6400852 5925392 5493132
3146.31 5104726 4759818 4452674 4177548 3931472 3706252
3149.21 3502078 3321418 3165540 3019302 2868864 2728888
3152.10 2600676 2479220 2373294 2277610 2176168 2085440
3154.99 2011326 1933828 1859876 1801666 1738916 1663226
3157.88 1598932 1541774 1485220 1435152 1381836 1328908
3160.78 1295246 1271586 1240634 1201980 1161582 1125872
3163.67 1100532 1075792 1042384 1009402 982008 959452
3166.56 940048 921998 907974 883958 851414 828830
3169.46 808452 784212 759522 742634 736132 723708
3172.35 702238 689336 684778 678090 670782 660676
3175.24 660400 670278 666638 650914 636874 628966
3178.13 628774 627160 611356 593158 590350 590378
3181.03 578550 570454 574682 576606 571028 573604
3183.92 578536 572090 563526 556074 548710 548174
3186.81 543680 531972 535596 546830 544390 533290
3189.70 527650 533534 543490 551250 558256 559102
3192.60 558756 563064 571332 569450 562420 570038
3195.49 577122 573388 567644 561312 550064 534286
3198.38 515498 505090 506832 505374 500576 496666
3201.27 483388 466264 464580 466658 451940 430978
3204.17 419354 412158 407720 413374 418188 410950
3207.06 402656 400554 398896 391450 376802 364992
3209.95 356552 345800 342970 343922 337666 328722
3212.85 321670 306740 293164 295586 307002 313262
3215.74 308092 295582 292966 301688 292894 271144
3218.63 260448 257780 254660 245790 234672 229766
3221.52 226120 222266 218682 208862 201454 200022
3224.42 193550 181614 171710 165940 161162 157202
3227.31 154446 157184 156088 139350 125148 126102
3230.20 128372 113966 98498 98592 109680 116422
3233.09 106356 99400 98356 93700 85800 67718
3235.99 56786 68184 76842 76166 71134 59110
3238.88 42760 31160 28632 34774 39080 30146
3241.77 23022 27356 28854 16108 4116 7304
3244.67 19508 29442 29866 22538 9428-2086
3247.56-6400-4954-208 3246-4648-17088
3250.45-10256 4540 5230 4510 8658 8386
3253.34 5822 12022 24962 30308 19364 12116
3256.24 17132 16250 10990 6590-840-13476
3259.13-12620 1060 2048-7650-12936-6686
3262.02 1304-778-6302-7034-5308-5322
3264.91-9236-16524-24708-26250-15370-7832
3267.81-14178-30802-41768-33268-21226-20110
3270.70-22588-30528-40270-43526-45356-42542
3273.59-41962-47820-39358-18642-20304-48836
3276.49-71220-80068-87044-88348-80484-75148
3279.38-79306-79174-68820-56412-47836-49448
3282.27-53164-48052-43904-41664-34760-23984
3285.16-16924-19432-30674-31738-13676 2578
3288.06 16528 22100 10084-4770-11212 5994
3290.95 31482 38208 33096 30200 32864 35012
3293.84 33652 32372 27154 23536 25458 29730
3296.73 34996 40466 44010 42338 37490 30338
3299.63 29658 37422 35570 26742 27172 32076
3302.52 33594 38100 40862 27824 1516-9962
3305.41-6274-19184-47546-69592-80424-89752
3308.31-109884-133416-149480-158276-156946-155904
3311.20-158488-167938-187374-196160-204132-226154
3314.09-240308-235262-233426-249308-266112-279008
3316.98-298494-312342-300286-279620-264158-254272
3319.88-252840-251346-252084-255646-266112-281120
3322.77-282114-263002-245970-240002-238624-244886
3325.66-253672-251762-239136-220804-199044-196202
3328.55-205238-197794-177330-153806-137682-127746
3331.45-122740-127658-127294-115320-101024-91536
3334.34-89408-91046-88272-72448-58010-54808
3337.23-56848-56422-47694-35452-28942-18702
3340.13-4448-7236-15390-6282-2168-9606
3343.02-8706 566 8070 10364 17296 24686
3345.91 25740 32252 32412 16514 11110 21444
3348.80 23938 13274 5214 9972 13498 4452
3351.70-11296-30464-44006-42992-33492-34830
3354.59-49300-42484-23554-30102-53612-71306
3357.48-73694-66610-68198-76188-76064-76714
3360.37-80924-80368-79448-75520-64536-64642
3363.27-81436-100194-109574-103122-92312-85214
3366.16-82384-80792-75710-81472-91508-85874
3369.05-71790-67304-75638-74370-61932-65044
3371.95-79730-87968-88100-75034-66036-67938
3374.84-72538-67420-53920-50972-49518-37548
3377.73-28372-29898-27440-17934-15934-13114
3380.62-14744-30110-40274-40516-42792-38496
3383.52-17506-5464-11982-16752-11218-12746
3386.41-17198-12146-11244-9556-5972-19342
3389.30-33160-29798-12796 6164 15308-1204
3392.19-20146-5326 10570 7838 4476-5772
3395.09-20182-35598-50014-50624-41166-31850
3397.98-27168-31692-46412-56066-55224-64156
3400.87-73660-64338-50282-42304-55394-79044
3403.77-78026-73188-92858-110024-104912-101720
3406.66-97318-85328-84336-78922-78472-92858
3409.55-93284-85546-80182-80200-91288-91028
3412.44-75062-68830-81416-85056-66016-50634
3415.34-48934-54764-58528-51912-55304-71010
3418.23-66344-34144-10882-25080-54800-69930
3421.12-71192-64524-51176-44464-36816-31692
3424.01-33282-29904-33232-35890-32418-33640
3426.91-21290-2148-6190-20100-21200-20378
3429.80-22512-27636-28462-16438-11828-12786
3432.69-4672-9268-23296-17986-9306-12026
3435.59-11980-11122-13760-12580-5886-12896
3438.48-31982-30292-6016 1902-3936-13194
3441.37-23524-17776-8286-3316 6290 21718
3444.26 35728 35136 35316 46488 45368 34394
3447.16 33706 35398 37352 36842 26292 19876
3450.05 33458 56424 70742 79046 88852 98882
3452.94 103132 103086 101682 106888 120320 128952
3455.83 134542 134968 132518 128698 119944 107906
3458.73 104222 112104 119186 114984 92906 78536
3461.62 86722 94808 89792 80420 78426 90252
3464.51 106466 107330 95638 86282 83034 90430
3467.40 101924 105722 108456 108696 101224 92814
3470.30 97160 106500 97940 92246 112882 125606
3473.19 100544 58208 29626 23978 30532 31094
3476.08 27402 26562 16862-8242-21300 416
3478.98 10856-8578-26512-30850-28486-32724
3481.87-40188-35652-19442-13458-33326-66910
3484.76-88994-86914-75420-70366-68532-70674
3487.65-79086-90156-90282-84920-92592-96462
3490.55-84994-83574-91196-85652-70234-64902
3493.44-66556-72604-81672-78258-72588-81502
3496.33-84760-75114-65614-55128-44896-37318
3499.22-32508-30390-29362-32330-29808-16214
3502.12-8976-12984-19148-24604-24764-16154
3505.01 1922 30702 58304 67400 68734 82948
3507.90 106040 114216 122674 155910 184758 202116
3510.80 219250 230564 258846 305732 330084 338950
3513.69 367816 408540 441802 482068 521006 550552
3516.58 591770 630044 665086 718560 790680 866084
3519.47 922898 974930 1035230 1102822 1174280 1242454
3522.37 1310636 1388546 1485546 1597960 1701518 1786428
3525.26 1887266 2013602 2128232 2244042 2393404 2557400
3528.15 2706266 2855370 3030050 3222544 3417628 3603204
3531.04 3791162 4000016 4227104 4466088 4713928 4968978
3533.94 5227620 5489564 5750486 6016854 6287462 6566238
3536.83 6850154 7107058 7339592 7574816 7794736 7979680
3539.72 8139290 8280266 8392666 8465718 8504076 8507834
3542.62 8473062 8396048 8292630 8186028 8072080 7937828
3545.51 7792764 7652850 7536456 7466796 7420228 7369656
3548.40 7338822 7354126 7436124 7600400 7832568 8113822
3551.29 8426054 8756524 9073568 9327712 9506502 9620234
3554.19 9647798 9555880 9360338 9095378 8776676 8416268
3557.08 8019272 7604058 7201278 6804614 6384670 5953686
3559.97 5554092 5197912 4869890 4551346 4240024 3950560
3562.86 3694182 3481700 3291168 3088116 2869508 2657428
3565.76 2472894 2320538 2188394 2034988 1889432 1800956
3568.65 1715676 1598268 1469462 1345926 1236668 1130484
3571.54 1019704 925172 849804 777556 705398 629046
3574.44 541820 465860 412838 355286 287080 235342
3577.33 202898 174750 144160 102718 56588 26214
3580.22 10124-2748-6794-13728-35646-56186
3583.11-61074-60782-73170-90512-108856-156422
3586.01-215260-217330-186212-186244-218604-222716
3588.90-183286-163640-166018-172564-178312-176468
3591.79-183898-204410-214364-207194-200050-217084
3594.68-243524-236890-215076-209982-220064-232690
3597.58-236656-233486-233884-245946-260514-273060
3600.47-280564-272908-265828-273542-286712-300494
3603.36-299586-290224-288592-287314-296770-328830
3606.26-362336-368642-341300-327384-386620-457372
3609.15-410660-326992-314462-331740-341720-369600
3612.04-396924-365886-323374-327178-359992-375232
3614.93-357826-338524-332068-335740-365930-384980
3617.83-357154-359610-431030-453828-377748-316482
3620.72-308314-315668-319110-313288-303428-294208
3623.61-292226-298520-288980-276526-283052-289698
3626.50-284034-305474-404982-477848-477126-512838
3629.40-466764-326472-256924-244724-245260-251862
3632.29-253314-256578-266542-262252-254604-256188
3635.18-246026-233074-232680-242104-255764-263192
3638.08-260936-243840-220892-208224-204830-203624
3640.97-207554-216564-224216-229520-229378-220270
3643.86-214156-209782-210490-229076-255780-282784
3646.75-308598-292098-272442-368602-488226-431198
3649.65-321256-316294-331702-301864-253808-231684
3652.54-231688-235322-230778-228494-239880-270756
3655.43-340598-371274-303006-232500-205832-200344
3658.32-198384-205134-220442-223628-219732-220062
3661.22-220420-213000-201766-202550-200848-187692
3664.11-185596-195700-203310-204770-207828-211704
3667.00-216044-245730-309392-334908-297748-309590
3669.90-439724-498060-359292-241864-229384-233542
3672.79-227220-235040-289998-380796-436714-493192
3675.68-486328-345046-255114-248320-239998-238290
3678.57-266318-282016-254872-234544-226972-218198
3681.47-219668-231430-239730-240102-245916-259730
3684.36-258112-248108-245320-238236-239430-271566
3687.25-384986-573526-579072-394566-291524-285634
3690.14-323826-375152-352974-286354-269554-272098
3693.04-258984-252308-261098-268040-263996-261334
3695.93-271386-270868-258276-258870-262786-258154
3698.82-257284-258144-257990-265600-299654-333162
3701.72-304460-260038-254596-263030-270380-272394
3704.61-265126-262946-267818-260378-245544-244060
3707.50-255752-280366-339752-375198-327150-276744
3710.39-274020-323982-436142-464254-341462-246224
3713.29-233044-235722-240784-242818-238992-236816
3716.18-241420-252434-261074-258950-256182-253920
3719.07-243580-234886-229802-233982-268278-312916
3721.96-306090-261680-238370-232840-234972-245008
3724.86-245156-255602-298978-311542-273740-249192
3727.75-243560-235178-223044-218886-222884-226360
3730.64-244176-334654-435814-388580-283534-256858
3733.54-284948-333880-357260-330322-328278-406398
3736.43-419554-317242-264820-276614-267810-249454
3739.32-245930-246790-257248-269506-260488-254482
3742.21-262124-302554-433362-668818-798190-613626
3745.11-360384-265056-246438-245960-261518-278994
3748.00-334094-509736-632272-493752-321302-281776
3750.89-354294-558912-643212-451980-290550-266560
3753.78-261616-256558-256962-259566-281282-294048
3756.68-273996-251770-245742-254884-278268-316272
3759.57-320334-274536-244280-236560-231320-227058
3762.46-225172-230430-241542-255496-261166-275822
3765.35-289596-252374-217364-223348-228354-226856
3768.25-238804-277870-334768-327928-269566-244228
3771.14-237216-225934-219674-215666-215764-226478
3774.03-234450-228408-223368-227774-238172-243054
3776.93-231038-213304-212100-248222-304114-305190
3779.82-259566-234512-230380-225638-225448-236224
3782.71-246774-252978-258336-262970-264930-251362
3785.60-235004-237766-235678-229260-225606-221104
3788.50-227314-236796-247158-245392-223834-211234
3791.39-212510-214440-216110-216480-218622-228322
3794.28-240000-245766-255546-280012-275982-247526
3797.17-238346-240000-239094-238650-245928-265152
3800.07-331926-497330-572100-417300-286566-266960
3802.96-244706-210736-198360-196900-192648-210668
3805.85-307694-455758-447734-308740-236104-218494
3808.75-208146-204804-211648-209628-201244-203188
3811.64-197096-184932-188960-202538-219696-225010
3814.53-229562-357428-532520-456838-263368-194560
3817.42-193814-201788-205310-204898-223828-285440
3820.32-338540-358810-360698-291038-216450-193486
3823.21-181498-174886-172578-173660-180874-198834
3826.10-225926-218650-183588-171712-172272-166560
3828.99-162114-165040-170810-199070-261146-274686
3831.89-215296-173798-164804-171946-211666-264962
3834.78-245834-178228-157154-191156-317158-500986
3837.67-472892-269652-167392-162786-181180-207794
3840.57-222788-188812-143634-137452-167326-208870
3843.46-212098-176846-151834-137442-128870-131716
3846.35-140508-148446-149202-140842-132220-131252
3849.24-135592-142936-154838-211196-376064-464710
3852.14-328004-247712-436456-683368-620648-343214
3855.03-178416-137296-137148-155396-154070-128098
3857.92-122776-126150-123612-133268-134630-126976
3860.81-159872-196854-178658-149660-134460-128322
3863.71-157974-236952-271858-190336-115016-108186
3866.60-117426-115314-111470-130014-187006-276228
3869.49-354684-303016-174432-117304-104250-95398
3872.39-101394-119172-146988-165778-139180-94442
3875.28-79678-89466-103890-107324-94702-76942
3878.17-68356-81980-126060-166880-146284-100704
3881.06-81098-78342-77616-72666-59944-59142
3883.96-73954-113626-205030-236042-152830-82510
3886.85-58308-41904-28268-24758-31810-34214
3889.74-39288-87556-153616-130474-54822-21528
3892.63-13838-17982-26316-16978-10524-16678
3895.53-5536 2730-12542-19826-25886-48200
3898.42-102984-139640-81930-10156 866-52142
3901.31-109430-80486-23130-18792-71640-117468
3904.21-73772-18986-20824-20808 12548 50416
3907.10 66268 60242 47918 40020 37622 31484
3909.99 33032 50956 57002 45316 39664 43206
3912.88 58480 72222 63694 54912 58928 56708
3915.78 52290 34740 4892 14574 44408 64176
3918.67 79960 74638 64464 68952 71866 73952
3921.56 77326 75612 68640 63722 61344 55126
3924.45 53128 60166 62584 65974 75640 70464
3927.35 59092 66038 72096 64214 61722 58402
3930.24 60318 71862 68254 47948 43040 63622
3933.13 75710 76722 73510 65562 73800 89802
3936.03 99412 103938 99594 92184 88696 83522
3938.92 82978 88360 81614 71630 88796 100724
3941.81 69746 41646 49634 77690 100040 106580
3944.70 106698 109780 113896 114404 104884 100860
3947.60 111158 125468 128180 111972 101252 115392
3950.49 138374 152656 156678 152466 152528 171348
3953.38 191466 197904 193878 189106 203020 232488
3956.27 247828 243190 237232 235766 237766 246938
3959.17 255672 256256 260344 273056 285086 302800
3962.06 325388 344930 365278 377968 384590 395464
3964.95 402696 417892 449262 480346 500332 505086
3967.85 504120 508130 524158 544182 554826 559028
3970.74 563598 565794 569758 580938 593214 600564
3973.63 607554 622942 632368
##END=
