##TITLE=RESORCINOL DIACETATE
##JCAMP-DX=4.24
##DATA TYPE=INFRARED SPECTRUM
##CLASS=COBLENTZ III
##ORIGIN=WESTERN REGIONAL RES. USDA
##OWNER=COBLENTZ SOCIETY
Collection (C) 2018 copyright by the U.S. Secretary of Commerce
on behalf of the United States of America. All rights reserved.
##DATE=1964/06/24
##NAMES=3-(acetyloxy)phenyl acetate
##CAS REGISTRY NO=108-58-7
##MOLFORM=C10 H10 O4
##SOURCE REFERENCE=COBLENTZ NO. 6109
##$NIST SOURCE=COBLENTZ
##$NIST IMAGE=cob6109
##SPECTROMETER/DATA SYSTEM=BECKMAN IR-7 (GRATING)
##INSTRUMENT PARAMETERS=GRATING CHANGES AT 3000, 2200, 1150 CM^-^1
##STATE=LIQUID (NEAT)
##PATH LENGTH=CAPILLARY
##SAMPLING PROCEDURE=TRANSMISSION
##RESOLUTION=4
##DATA PROCESSING=DIGITIZED BY NIST FROM HARD COPY (FROM TWO SEGMENTS)
##XUNITS=1/CM
##YUNITS=TRANSMITTANCE
##XFACTOR=1.000000
##YFACTOR=1
##DELTAX=0.653901
##FIRSTX=596.731
##LASTX=3974.78
##FIRSTY=0.677
##MAXX=3974.78
##MINX=596.731
##MAXY=0.86
##MINY=0.015
##NPOINTS=5167
##XYDATA=(X++(Y..Y))
596.731000 0.6770 0.6790 0.6820 0.6770 0.6790
600.000504 0.6820 0.6830 0.6860 0.6900 0.6950
603.270009 0.6970 0.7020 0.7030 0.7140 0.7240
606.539513 0.7350 0.7450 0.7530 0.7590 0.7720
609.809017 0.7820 0.7870 0.7990 0.8050 0.8090
613.078521 0.8130 0.8150 0.8180 0.8230 0.8270
616.348026 0.8290 0.8330 0.8340 0.8360 0.8380
619.617530 0.8400 0.8400 0.8420 0.8420 0.8440
622.887034 0.8440 0.8450 0.8460 0.8460 0.8480
626.156538 0.8490 0.8490 0.8500 0.8500 0.8510
629.426043 0.8510 0.8520 0.8530 0.8540 0.8550
632.695547 0.8570 0.8570 0.8570 0.8570 0.8570
635.965051 0.8560 0.8560 0.8560 0.8550 0.8550
639.234555 0.8550 0.8520 0.8500 0.8480 0.8470
642.504060 0.8460 0.8460 0.8440 0.8430 0.8420
645.773564 0.8410 0.8380 0.8370 0.8340 0.8320
649.043068 0.8270 0.8240 0.8160 0.8120 0.8070
652.312572 0.8020 0.7990 0.7970 0.7940 0.7910
655.582077 0.7850 0.7810 0.7750 0.7680 0.7570
658.851581 0.7460 0.7170 0.6940 0.6661 0.6500
662.121085 0.6480 0.6470 0.6460 0.6460 0.6470
665.390590 0.6500 0.6530 0.6560 0.6600 0.6690
668.660094 0.6780 0.6850 0.6920 0.7000 0.7090
671.929598 0.7190 0.7290 0.7410 0.7490 0.7530
675.199102 0.7530 0.7530 0.7530 0.7530 0.7390
678.468607 0.7280 0.6711 0.5961 0.5451 0.5211
681.738111 0.4940 0.4810 0.4490 0.4340 0.4300
685.007615 0.4300 0.4320 0.4719 0.4920 0.5120
688.277119 0.5351 0.5820 0.5850 0.5840 0.5820
691.546624 0.5720 0.5460 0.5310 0.5200 0.5030
694.816128 0.4870 0.4740 0.4630 0.4510 0.4440
698.085632 0.4420 0.4410 0.4420 0.4699 0.4770
701.355136 0.4951 0.5250 0.5550 0.5780 0.5910
704.624641 0.6030 0.6340 0.6550 0.6730 0.6930
707.894145 0.7080 0.7180 0.7430 0.7580 0.7750
711.163649 0.7890 0.8010 0.8100 0.8150 0.8190
714.433153 0.8240 0.8270 0.8330 0.8350 0.8360
717.702658 0.8380 0.8390 0.8400 0.8420 0.8430
720.972162 0.8440 0.8460 0.8480 0.8480 0.8500
724.241666 0.8500 0.8510 0.8510 0.8520 0.8520
727.511170 0.8530 0.8530 0.8530 0.8530 0.8530
730.780675 0.8530 0.8530 0.8530 0.8530 0.8530
734.050179 0.8530 0.8530 0.8530 0.8520 0.8520
737.319683 0.8510 0.8510 0.8510 0.8500 0.8500
740.589188 0.8500 0.8490 0.8480 0.8460 0.8460
743.858692 0.8430 0.8420 0.8380 0.8360 0.8330
747.128196 0.8290 0.8190 0.8080 0.7990 0.7950
750.397700 0.7910 0.7850 0.7511 0.7450 0.7410
753.667205 0.7360 0.7320 0.7270 0.7220 0.7190
756.936709 0.7180 0.7190 0.7230 0.7260 0.7350
760.206213 0.7430 0.7510 0.7580 0.7670 0.7750
763.475717 0.7790 0.7830 0.7870 0.7920 0.7950
766.745222 0.7950 0.7960 0.7980 0.7980 0.7960
770.014726 0.7950 0.7870 0.7800 0.7690 0.7590
773.284230 0.7510 0.7410 0.7240 0.7040 0.6860
776.553734 0.6730 0.6511 0.6390 0.6270 0.5852
779.823239 0.5730 0.5610 0.5470 0.5400 0.5350
783.092743 0.5340 0.5330 0.5340 0.5350 0.5370
786.362247 0.5420 0.5460 0.5480 0.5510 0.5540
789.631751 0.5560 0.5590 0.5610 0.5640 0.5640
792.901256 0.5630 0.5630 0.5620 0.5610 0.5620
796.170760 0.5630 0.5710 0.5780 0.5890 0.5970
799.440264 0.6020 0.6060 0.6190 0.6320 0.6450
802.709769 0.6600 0.6730 0.6860 0.7010 0.7110
805.979273 0.7220 0.7330 0.7430 0.7510 0.7570
809.248777 0.7600 0.7730 0.7810 0.7880 0.7930
812.518281 0.7970 0.8000 0.8030 0.8040 0.8060
815.787786 0.8080 0.8090 0.8110 0.8130 0.8140
819.057290 0.8150 0.8160 0.8170 0.8170 0.8180
822.326794 0.8170 0.8170 0.8160 0.8150 0.8140
825.596298 0.8140 0.8130 0.8120 0.8110 0.8100
828.865803 0.8060 0.8040 0.8000 0.7960 0.7920
832.135307 0.7870 0.7810 0.7740 0.7660 0.7590
835.404811 0.7520 0.7440 0.7360 0.7280 0.7190
838.674315 0.7140 0.7070 0.6980 0.6940 0.6900
841.943820 0.6890 0.6880 0.6870 0.6880 0.6920
845.213324 0.6940 0.7020 0.7020 0.7070 0.7090
848.482828 0.7100 0.7160 0.7210 0.7220 0.7260
851.752332 0.7280 0.7280 0.7310 0.7330 0.7350
855.021837 0.7370 0.7370 0.7380 0.7380 0.7380
858.291341 0.7380 0.7380 0.7370 0.7360 0.7360
861.560845 0.7340 0.7320 0.7310 0.7300 0.7290
864.830349 0.7280 0.7260 0.7260 0.7250 0.7240
868.099854 0.7240 0.7240 0.7220 0.7210 0.7190
871.369358 0.7170 0.7150 0.7140 0.7140 0.7130
874.638862 0.7070 0.7020 0.6940 0.6920 0.6830
877.908367 0.6740 0.6640 0.6540 0.6440 0.6340
881.177871 0.6240 0.6140 0.5941 0.5800 0.5740
884.447375 0.5670 0.5550 0.5480 0.5370 0.5270
887.716879 0.5210 0.5100 0.5000 0.4831 0.4730
890.986384 0.4610 0.4450 0.4320 0.4250 0.4180
894.255888 0.4060 0.3960 0.3890 0.3830 0.3700
897.525392 0.3670 0.3620 0.3620 0.3770 0.3850
900.794896 0.3930 0.3950 0.3990 0.4020 0.4040
904.064401 0.4040 0.4050 0.4070 0.4080 0.4090
907.333905 0.4080 0.4040 0.4010 0.3910 0.3850
910.603409 0.3770 0.3670 0.3580 0.3490 0.3360
913.872913 0.3290 0.3210 0.3150 0.3130 0.3050
917.142418 0.3030 0.3040 0.3080 0.3110 0.3180
920.411922 0.3240 0.3260 0.3489 0.3729 0.3969
923.681426 0.4250 0.4540 0.4640 0.5120 0.5460
926.950930 0.5730 0.5910 0.6010 0.6100 0.6379
930.220435 0.6560 0.6730 0.6880 0.7030 0.7080
933.489939 0.7130 0.7210 0.7280 0.7360 0.7410
936.759443 0.7450 0.7490 0.7520 0.7550 0.7570
940.028948 0.7580 0.7590 0.7590 0.7590 0.7590
943.298452 0.7590 0.7590 0.7590 0.7560 0.7550
946.567956 0.7500 0.7450 0.7410 0.7400 0.7340
949.837460 0.7250 0.7140 0.7020 0.6870 0.6720
953.106965 0.6570 0.6420 0.6270 0.5831 0.5531
956.376469 0.5310 0.5119 0.4810 0.4570 0.4230
959.645973 0.3920 0.3560 0.2991 0.2840 0.2820
962.915477 0.2639 0.2330 0.2320 0.2330 0.2340
966.184982 0.2410 0.2490 0.2560 0.2640 0.2710
969.454486 0.2790 0.2970 0.3060 0.3140 0.3240
972.723990 0.3320 0.3510 0.3940 0.4319 0.4560
975.993494 0.4780 0.4940 0.5140 0.5350 0.5520
979.262999 0.5690 0.5840 0.5980 0.6050 0.6110
982.532503 0.6190 0.6290 0.6350 0.6420 0.6440
985.802007 0.6450 0.6450 0.6450 0.6450 0.6450
989.071511 0.6440 0.6430 0.6430 0.6430 0.6430
992.341016 0.6410 0.6370 0.6330 0.6280 0.6210
995.610520 0.6140 0.5990 0.5840 0.5700 0.5530
998.880024 0.5370 0.5170 0.4910 0.4590 0.4311
1002.149528 0.3879 0.3449 0.2960 0.2950 0.2780
1005.419033 0.2610 0.2460 0.2460 0.2510 0.2590
1008.688537 0.2660 0.2690 0.2690 0.2520 0.1891
1011.958041 0.1551 0.1251 0.1080 0.0980 0.0920
1015.227546 0.0860 0.0850 0.0850 0.0860 0.0870
1018.497050 0.0920 0.1020 0.1140 0.1290 0.1400
1021.766554 0.1660 0.1920 0.2060 0.2220 0.2450
1025.036058 0.2700 0.2880 0.3050 0.3369 0.3510
1028.305563 0.3680 0.4000 0.4270 0.4420 0.4680
1031.575067 0.4910 0.4950 0.4970 0.5020 0.5110
1034.844571 0.5180 0.5250 0.5260 0.5290 0.5290
1038.114075 0.5270 0.5270 0.5190 0.5160 0.4991
1041.383580 0.4920 0.4890 0.4830 0.4800 0.4760
1044.653084 0.4660 0.4650 0.4640 0.4660 0.4670
1047.922588 0.4740 0.4810 0.4910 0.5030 0.5180
1051.192092 0.5320 0.5400 0.5430 0.5440 0.5470
1054.461597 0.5710 0.5790 0.5920 0.5960 0.6000
1057.731101 0.6080 0.6150 0.6200 0.6270 0.6320
1061.000605 0.6340 0.6380 0.6430 0.6440 0.6450
1064.270109 0.6500 0.6500 0.6520 0.6540 0.6560
1067.539614 0.6560 0.6570 0.6570 0.6560 0.6540
1070.809118 0.6540 0.6500 0.6480 0.6430 0.6370
1074.078622 0.6280 0.6160 0.5900 0.5730 0.5640
1077.348127 0.5480 0.5410 0.5390 0.5370 0.5370
1080.617631 0.5420 0.5630 0.5860 0.5920 0.5990
1083.887135 0.6070 0.6130 0.6280 0.6410 0.6520
1087.156639 0.6610 0.6690 0.6750 0.6820 0.6860
1090.426144 0.6910 0.6960 0.7000 0.7030 0.7050
1093.695648 0.7050 0.7060 0.7060 0.7050 0.7050
1096.965152 0.7050 0.7030 0.7010 0.6970 0.6920
1100.234656 0.6880 0.6830 0.6790 0.6750 0.6700
1103.504161 0.6650 0.6600 0.6540 0.6480 0.6430
1106.773665 0.6350 0.6250 0.6150 0.5930 0.5670
1110.043169 0.5420 0.5190 0.4810 0.4390 0.4210
1113.312673 0.4020 0.3730 0.3060 0.2720 0.2460
1116.582178 0.2140 0.1661 0.1101 0.0861 0.0531
1119.851682 0.0520 0.0480 0.0390 0.0330 0.0320
1123.121186 0.0300 0.0280 0.0260 0.0250 0.0240
1126.390690 0.0230 0.0230 0.0230 0.0240 0.0240
1129.660195 0.0270 0.0330 0.0400 0.0500 0.0640
1132.929699 0.0720 0.0850 0.0990 0.1150 0.1300
1136.199203 0.1550 0.1800 0.2060 0.2310 0.2500
1139.468708 0.2830 0.3160 0.3450 0.3920 0.4270
1142.738212 0.4340 0.4500 0.4590 0.4720 0.4840
1146.007716 0.4850 0.4900 0.4940 0.4980 0.5010
1149.277220 0.5020 0.5020 0.5020 0.5020 0.5010
1152.546725 0.5000 0.5000 0.4870 0.4720 0.4530
1155.816229 0.4310 0.4150 0.3930 0.3651 0.3421
1159.085733 0.2970 0.2810 0.2690 0.2580 0.2450
1162.355237 0.2280 0.2270 0.2260 0.2270 0.2280
1165.624742 0.2360 0.2450 0.2520 0.2620 0.2690
1168.894246 0.2780 0.2820 0.2880 0.2880 0.2910
1172.163750 0.2910 0.2890 0.2770 0.2700 0.2650
1175.433254 0.2560 0.2500 0.2320 0.2190 0.2090
1178.702759 0.1980 0.1840 0.1630 0.1330 0.1220
1181.972263 0.1100 0.0940 0.0810 0.0700 0.0600
1185.241767 0.0520 0.0450 0.0400 0.0350 0.0300
1188.511271 0.0250 0.0210 0.0200 0.0190 0.0180
1191.780776 0.0180 0.0170 0.0170 0.0160 0.0160
1195.050280 0.0160 0.0160 0.0160 0.0150 0.0150
1198.319784 0.0150 0.0150 0.0150 0.0150 0.0150
1201.589288 0.0150 0.0150 0.0150 0.0150 0.0150
1204.858793 0.0150 0.0150 0.0150 0.0150 0.0150
1208.128297 0.0150 0.0150 0.0150 0.0150 0.0150
1211.397801 0.0150 0.0150 0.0150 0.0150 0.0150
1214.667306 0.0150 0.0150 0.0150 0.0150 0.0160
1217.936810 0.0160 0.0170 0.0170 0.0170 0.0170
1221.206314 0.0170 0.0170 0.0180 0.0180 0.0190
1224.475818 0.0200 0.0200 0.0200 0.0210 0.0220
1227.745323 0.0230 0.0240 0.0260 0.0300 0.0340
1231.014827 0.0350 0.0440 0.0490 0.0570 0.0650
1234.284331 0.0720 0.0770 0.0820 0.0870 0.0910
1237.553835 0.0980 0.1000 0.1070 0.1090 0.1100
1240.823340 0.1110 0.1130 0.1170 0.1190 0.1210
1244.092844 0.1260 0.1270 0.1290 0.1330 0.1390
1247.362348 0.1460 0.1540 0.1610 0.1650 0.1720
1250.631852 0.1800 0.1920 0.2050 0.2200 0.2380
1253.901357 0.2570 0.2770 0.2890 0.3010 0.3130
1257.170861 0.3290 0.3510 0.3690 0.3890 0.4010
1260.440365 0.4150 0.4250 0.4490 0.4640 0.4829
1263.709869 0.4930 0.5020 0.5100 0.5190 0.5260
1266.979374 0.5330 0.5390 0.5450 0.5500 0.5510
1270.248878 0.5520 0.5540 0.5520 0.5480 0.5430
1273.518382 0.5360 0.5270 0.5190 0.5190 0.5180
1276.787887 0.5190 0.5190 0.5290 0.5400 0.5500
1280.057391 0.5590 0.5710 0.5850 0.5940 0.6030
1283.326895 0.6180 0.6310 0.6390 0.6470 0.6520
1286.596399 0.6580 0.6620 0.6680 0.6750 0.6800
1289.865904 0.6850 0.6890 0.6930 0.6960 0.6980
1293.135408 0.6990 0.7000 0.7000 0.7000 0.6990
1296.404912 0.6990 0.6970 0.6950 0.6940 0.6940
1299.674416 0.6920 0.6900 0.6880 0.6860 0.6840
1302.943921 0.6810 0.6780 0.6750 0.6740 0.6680
1306.213425 0.6620 0.6550 0.6480 0.6410 0.6410
1309.482929 0.6400 0.6400 0.6390 0.6400 0.6410
1312.752433 0.6450 0.6480 0.6500 0.6530 0.6560
1316.021938 0.6600 0.6630 0.6660 0.6700 0.6730
1319.291442 0.6770 0.6820 0.6860 0.6900 0.6940
1322.560946 0.6970 0.7000 0.7030 0.7050 0.7070
1325.830450 0.7090 0.7110 0.7130 0.7150 0.7170
1329.099955 0.7190 0.7200 0.7220 0.7240 0.7260
1332.369459 0.7290 0.7320 0.7340 0.7380 0.7410
1335.638963 0.7410 0.7430 0.7430 0.7430 0.7430
1338.908467 0.7430 0.7430 0.7430 0.7420 0.7410
1342.177972 0.7410 0.7400 0.7400 0.7380 0.7350
1345.447476 0.7320 0.7300 0.7270 0.7250 0.7230
1348.716980 0.7210 0.7180 0.7140 0.7070 0.6990
1351.986485 0.6900 0.6820 0.6730 0.6630 0.6520
1355.255989 0.6410 0.6290 0.6170 0.5890 0.5740
1358.525493 0.5570 0.5260 0.4980 0.4950 0.4850
1361.794997 0.4730 0.4510 0.4310 0.3580 0.3410
1365.064502 0.2850 0.2510 0.2101 0.1890 0.1531
1368.334006 0.1270 0.1070 0.0920 0.0790 0.0670
1371.603510 0.0530 0.0500 0.0490 0.0490 0.0500
1374.873014 0.0540 0.0600 0.0700 0.0770 0.0910
1378.142519 0.1030 0.1280 0.1490 0.1590 0.1989
1381.412023 0.2341 0.2750 0.2900 0.3040 0.3770
1384.681527 0.4000 0.4070 0.4270 0.4519 0.4739
1387.951031 0.4950 0.5140 0.5310 0.5460 0.5610
1391.220536 0.5740 0.5860 0.5960 0.6010 0.6050
1394.490040 0.6140 0.6220 0.6290 0.6350 0.6410
1397.759544 0.6460 0.6500 0.6540 0.6560 0.6580
1401.029048 0.6590 0.6600 0.6600 0.6600 0.6590
1404.298553 0.6590 0.6580 0.6580 0.6580 0.6570
1407.568057 0.6560 0.6560 0.6540 0.6520 0.6500
1410.837561 0.6480 0.6470 0.6450 0.6420 0.6380
1414.107066 0.6340 0.6300 0.6260 0.6220 0.6190
1417.376570 0.6150 0.6100 0.5970 0.5900 0.5810
1420.646074 0.5720 0.5630 0.5530 0.5430 0.5330
1423.915578 0.5230 0.5130 0.5020 0.4930 0.4830
1427.185083 0.4750 0.4660 0.4590 0.4520 0.4460
1430.454587 0.4410 0.4310 0.4240 0.4190 0.4110
1433.724091 0.4060 0.4050 0.4020 0.4010 0.4020
1436.993595 0.4020 0.4040 0.4060 0.4070 0.4090
1440.263100 0.4100 0.4130 0.4130 0.4150 0.4170
1443.532604 0.4190 0.4200 0.4190 0.4160 0.4130
1446.802108 0.4060 0.4020 0.3910 0.3880 0.3810
1450.071612 0.3810 0.3810 0.4000 0.4090 0.4280
1453.341117 0.4451 0.4691 0.4920 0.5121 0.5400
1456.610621 0.5560 0.5710 0.5840 0.5960 0.6010
1459.880125 0.6060 0.6140 0.6200 0.6240 0.6240
1463.149629 0.6290 0.6300 0.6310 0.6310 0.6310
1466.419134 0.6290 0.6290 0.6280 0.6280 0.6250
1469.688638 0.6220 0.6150 0.6090 0.5990 0.5920
1472.958142 0.5840 0.5740 0.5610 0.5500 0.5400
1476.227647 0.5310 0.5210 0.5110 0.4990 0.4761
1479.497151 0.4629 0.4399 0.4208 0.3480 0.3409
1482.766655 0.2669 0.2060 0.1620 0.1320 0.1100
1486.036159 0.0910 0.0700 0.0690 0.0680 0.0690
1489.305664 0.0730 0.0960 0.1210 0.1659 0.2199
1492.575168 0.2691 0.3101 0.3502 0.4440 0.4480
1495.844672 0.4800 0.5040 0.5350 0.5570 0.5880
1499.114176 0.5970 0.6050 0.6130 0.6190 0.6280
1502.383681 0.6460 0.6600 0.6700 0.6790 0.6860
1505.653185 0.6900 0.6940 0.6980 0.7000 0.7030
1508.922689 0.7070 0.7110 0.7150 0.7170 0.7210
1512.192193 0.7230 0.7260 0.7280 0.7300 0.7320
1515.461698 0.7340 0.7360 0.7370 0.7380 0.7400
1518.731202 0.7410 0.7420 0.7430 0.7430 0.7470
1522.000706 0.7500 0.7510 0.7510 0.7520 0.7520
1525.270210 0.7520 0.7510 0.7510 0.7510 0.7500
1528.539715 0.7490 0.7460 0.7440 0.7420 0.7420
1531.809219 0.7410 0.7390 0.7380 0.7360 0.7350
1535.078723 0.7340 0.7320 0.7300 0.7280 0.7270
1538.348227 0.7260 0.7260 0.7250 0.7240 0.7240
1541.617732 0.7230 0.7220 0.7210 0.7200 0.7190
1544.887236 0.7190 0.7190 0.7190 0.7190 0.7190
1548.156740 0.7200 0.7210 0.7210 0.7220 0.7220
1551.426245 0.7230 0.7240 0.7240 0.7250 0.7260
1554.695749 0.7260 0.7270 0.7280 0.7280 0.7290
1557.965253 0.7300 0.7300 0.7300 0.7320 0.7320
1561.234757 0.7330 0.7340 0.7340 0.7340 0.7340
1564.504262 0.7340 0.7340 0.7340 0.7330 0.7320
1567.773766 0.7310 0.7300 0.7290 0.7260 0.7230
1571.043270 0.7220 0.7170 0.7130 0.7090 0.7050
1574.312774 0.7020 0.6990 0.6960 0.6930 0.6900
1577.582279 0.6870 0.6830 0.6790 0.6750 0.6690
1580.851783 0.6640 0.6570 0.6490 0.6400 0.6290
1584.121287 0.6170 0.5970 0.5870 0.5760 0.5650
1587.390791 0.5510 0.5330 0.5110 0.4980 0.4780
1590.660296 0.4650 0.4509 0.4040 0.3750 0.2970
1593.929800 0.2740 0.2540 0.2350 0.2120 0.1950
1597.199304 0.1830 0.1740 0.1690 0.1620 0.1550
1600.468808 0.1460 0.1450 0.1440 0.1450 0.1470
1603.738313 0.1590 0.1670 0.1790 0.1890 0.2030
1607.007817 0.2190 0.2400 0.2540 0.2690 0.2780
1610.277321 0.2970 0.2990 0.3010 0.3350 0.3540
1613.546826 0.3820 0.3940 0.4170 0.4250 0.4400
1616.816330 0.4620 0.4790 0.4930 0.5030 0.5210
1620.085834 0.5310 0.5400 0.5520 0.5650 0.5780
1623.355338 0.5920 0.5980 0.6040 0.6150 0.6240
1626.624843 0.6290 0.6360 0.6430 0.6480 0.6540
1629.894347 0.6600 0.6660 0.6700 0.6740 0.6780
1633.163851 0.6810 0.6840 0.6850 0.6880 0.6880
1636.433355 0.6890 0.6880 0.6870 0.6860 0.6830
1639.702860 0.6790 0.6750 0.6720 0.6680 0.6660
1642.972364 0.6630 0.6610 0.6600 0.6600 0.6600
1646.241868 0.6620 0.6640 0.6670 0.6700 0.6730
1649.511372 0.6730 0.6760 0.6790 0.6810 0.6840
1652.780877 0.6860 0.6880 0.6900 0.6980 0.7020
1656.050381 0.7040 0.7070 0.7090 0.7110 0.7130
1659.319885 0.7150 0.7170 0.7200 0.7220 0.7240
1662.589389 0.7260 0.7290 0.7320 0.7340 0.7350
1665.858894 0.7360 0.7360 0.7370 0.7380 0.7380
1669.128398 0.7390 0.7410 0.7430 0.7440 0.7450
1672.397902 0.7470 0.7480 0.7490 0.7500 0.7510
1675.667406 0.7530 0.7540 0.7550 0.7570 0.7570
1678.936911 0.7580 0.7590 0.7590 0.7590 0.7590
1682.206415 0.7590 0.7590 0.7590 0.7590 0.7590
1685.475919 0.7590 0.7590 0.7590 0.7580 0.7580
1688.745424 0.7580 0.7570 0.7560 0.7560 0.7550
1692.014928 0.7530 0.7510 0.7490 0.7480 0.7470
1695.284432 0.7470 0.7460 0.7450 0.7440 0.7440
1698.553936 0.7410 0.7390 0.7360 0.7340 0.7320
1701.823441 0.7280 0.7240 0.7200 0.7150 0.7110
1705.092945 0.7070 0.7030 0.7000 0.6950 0.6910
1708.362449 0.6860 0.6820 0.6770 0.6730 0.6670
1711.631953 0.6630 0.6570 0.6520 0.6460 0.6390
1714.901458 0.6330 0.6260 0.6190 0.6120 0.5950
1718.170962 0.5890 0.5820 0.5740 0.5660 0.5550
1721.440466 0.5450 0.5370 0.5230 0.5120 0.5050
1724.709970 0.4910 0.4850 0.4780 0.4700 0.4610
1727.979475 0.4510 0.4440 0.4340 0.4280 0.4210
1731.248979 0.4140 0.4020 0.3920 0.3850 0.3760
1734.518483 0.3650 0.3580 0.3490 0.3410 0.3300
1737.787987 0.3200 0.2980 0.2890 0.2800 0.2740
1741.057492 0.2640 0.2490 0.2350 0.2200 0.2100
1744.326996 0.2030 0.1970 0.1850 0.1720 0.1630
1747.596500 0.1550 0.1460 0.1330 0.1300 0.1230
1750.866005 0.1130 0.0990 0.0910 0.0810 0.0740
1754.135509 0.0700 0.0660 0.0590 0.0530 0.0490
1757.405013 0.0450 0.0400 0.0380 0.0360 0.0320
1760.674517 0.0280 0.0230 0.0210 0.0200 0.0180
1763.944022 0.0180 0.0180 0.0180 0.0170 0.0170
1767.213526 0.0170 0.0160 0.0160 0.0150 0.0150
1770.483030 0.0150 0.0150 0.0160 0.0160 0.0160
1773.752534 0.0160 0.0160 0.0170 0.0170 0.0170
1777.022039 0.0170 0.0180 0.0200 0.0200 0.0220
1780.291543 0.0260 0.0300 0.0370 0.0450 0.0550
1783.561047 0.0640 0.0750 0.0870 0.1000 0.1120
1786.830551 0.1301 0.1511 0.1721 0.1890 0.2040
1790.100056 0.2200 0.2390 0.2670 0.2880 0.2960
1793.369560 0.3041 0.3310 0.3450 0.3650 0.3730
1796.639064 0.3920 0.4070 0.4210 0.4380 0.4490
1799.908568 0.4580 0.4670 0.4770 0.4910 0.5090
1803.178073 0.5230 0.5370 0.5480 0.5580 0.5680
1806.447577 0.5760 0.5840 0.5910 0.5970 0.6010
1809.717081 0.6030 0.6090 0.6150 0.6200 0.6260
1812.986585 0.6310 0.6390 0.6430 0.6460 0.6480
1816.256090 0.6520 0.6560 0.6580 0.6600 0.6630
1819.525594 0.6670 0.6700 0.6730 0.6770 0.6810
1822.795098 0.6830 0.6880 0.6940 0.6980 0.7010
1826.064603 0.7030 0.7060 0.7090 0.7110 0.7130
1829.334107 0.7150 0.7170 0.7170 0.7220 0.7270
1832.603611 0.7300 0.7320 0.7340 0.7360 0.7370
1835.873115 0.7380 0.7380 0.7390 0.7400 0.7400
1839.142620 0.7430 0.7450 0.7470 0.7480 0.7500
1842.412124 0.7510 0.7530 0.7550 0.7560 0.7570
1845.681628 0.7580 0.7590 0.7600 0.7620 0.7620
1848.951132 0.7640 0.7640 0.7660 0.7670 0.7680
1852.220637 0.7690 0.7700 0.7720 0.7730 0.7740
1855.490141 0.7760 0.7770 0.7790 0.7810 0.7820
1858.759645 0.7830 0.7830 0.7830 0.7840 0.7850
1862.029149 0.7850 0.7860 0.7870 0.7870 0.7880
1865.298654 0.7890 0.7890 0.7890 0.7900 0.7910
1868.568158 0.7910 0.7920 0.7930 0.7930 0.7930
1871.837662 0.7930 0.7930 0.7930 0.7930 0.7930
1875.107166 0.7930 0.7930 0.7930 0.7930 0.7930
1878.376671 0.7930 0.7930 0.7930 0.7920 0.7920
1881.646175 0.7920 0.7910 0.7910 0.7910 0.7920
1884.915679 0.7920 0.7930 0.7930 0.7930 0.7930
1888.185184 0.7940 0.7940 0.7950 0.7950 0.7950
1891.454688 0.7950 0.7960 0.7960 0.7960 0.7970
1894.724192 0.7970 0.7970 0.7980 0.7980 0.7980
1897.993696 0.7980 0.7990 0.8000 0.8010 0.8020
1901.263201 0.8020 0.8020 0.8020 0.8030 0.8040
1904.532705 0.8040 0.8050 0.8050 0.8060 0.8060
1907.802209 0.8060 0.8060 0.8060 0.8060 0.8070
1911.071713 0.8070 0.8070 0.8070 0.8080 0.8080
1914.341218 0.8080 0.8080 0.8090 0.8090 0.8090
1917.610722 0.8100 0.8100 0.8100 0.8100 0.8100
1920.880226 0.8100 0.8110 0.8110 0.8120 0.8120
1924.149730 0.8120 0.8130 0.8130 0.8140 0.8140
1927.419235 0.8140 0.8150 0.8150 0.8150 0.8150
1930.688739 0.8150 0.8150 0.8150 0.8150 0.8140
1933.958243 0.8140 0.8140 0.8140 0.8140 0.8130
1937.227747 0.8130 0.8130 0.8130 0.8130 0.8130
1940.497252 0.8130 0.8130 0.8130 0.8130 0.8140
1943.766756 0.8150 0.8150 0.8150 0.8160 0.8160
1947.036260 0.8170 0.8170 0.8180 0.8190 0.8190
1950.305765 0.8190 0.8200 0.8210 0.8210 0.8210
1953.575269 0.8220 0.8230 0.8230 0.8240 0.8250
1956.844773 0.8250 0.8250 0.8260 0.8260 0.8270
1960.114277 0.8270 0.8270 0.8280 0.8290 0.8290
1963.383782 0.8290 0.8290 0.8290 0.8290 0.8290
1966.653286 0.8290 0.8290 0.8290 0.8290 0.8290
1969.922790 0.8280 0.8270 0.8270 0.8260 0.8250
1973.192294 0.8250 0.8250 0.8250 0.8250 0.8250
1976.461799 0.8250 0.8250 0.8250 0.8250 0.8250
1979.731303 0.8260 0.8270 0.8270 0.8270 0.8280
1983.000807 0.8290 0.8300 0.8300 0.8310 0.8310
1986.270311 0.8310 0.8310 0.8310 0.8310 0.8320
1989.539816 0.8330 0.8340 0.8340 0.8360 0.8360
1992.809320 0.8360 0.8370 0.8370 0.8370 0.8380
1996.078824 0.8380 0.8380 0.8390 0.8390 0.8400
1999.348328 0.8400 0.8400 0.8400 0.8400 0.8400
2002.617833 0.8400 0.8400 0.8400 0.8400 0.8400
2005.887337 0.8400 0.8400 0.8400 0.8400 0.8400
2009.156841 0.8400 0.8400 0.8400 0.8400 0.8400
2012.426345 0.8400 0.8400 0.8400 0.8400 0.8400
2015.695850 0.8400 0.8400 0.8400 0.8400 0.8400
2018.965354 0.8400 0.8400 0.8400 0.8400 0.8400
2022.234858 0.8400 0.8400 0.8400 0.8400 0.8400
2025.504363 0.8400 0.8400 0.8400 0.8400 0.8400
2028.773867 0.8400 0.8400 0.8400 0.8400 0.8400
2032.043371 0.8400 0.8400 0.8400 0.8399 0.8396
2035.312875 0.8394 0.8391 0.8390 0.8390 0.8390
2038.582380 0.8390 0.8389 0.8386 0.8383 0.8381
2041.851884 0.8380 0.8380 0.8380 0.8380 0.8380
2045.121388 0.8380 0.8380 0.8380 0.8380 0.8380
2048.390892 0.8380 0.8380 0.8380 0.8380 0.8380
2051.660397 0.8380 0.8380 0.8380 0.8380 0.8380
2054.929901 0.8380 0.8380 0.8380 0.8380 0.8380
2058.199405 0.8380 0.8380 0.8380 0.8378 0.8375
2061.468909 0.8373 0.8370 0.8370 0.8370 0.8370
2064.738414 0.8370 0.8370 0.8370 0.8370 0.8370
2068.007918 0.8367 0.8365 0.8362 0.8360 0.8360
2071.277422 0.8360 0.8360 0.8360 0.8360 0.8360
2074.546926 0.8360 0.8360 0.8360 0.8360 0.8360
2077.816431 0.8360 0.8360 0.8360 0.8360 0.8360
2081.085935 0.8360 0.8360 0.8360 0.8360 0.8360
2084.355439 0.8360 0.8360 0.8360 0.8360 0.8360
2087.624944 0.8360 0.8360 0.8360 0.8360 0.8360
2090.894448 0.8360 0.8360 0.8360 0.8360 0.8359
2094.163952 0.8356 0.8354 0.8351 0.8350 0.8350
2097.433456 0.8350 0.8350 0.8349 0.8346 0.8344
2100.702961 0.8341 0.8340 0.8340 0.8340 0.8340
2103.972465 0.8338 0.8336 0.8333 0.8331 0.8330
2107.241969 0.8330 0.8330 0.8330 0.8330 0.8330
2110.511473 0.8330 0.8330 0.8328 0.8326 0.8323
2113.780978 0.8321 0.8318 0.8316 0.8313 0.8310
2117.050482 0.8308 0.8305 0.8303 0.8300 0.8298
2120.319986 0.8295 0.8293 0.8290 0.8286 0.8281
2123.589490 0.8275 0.8270 0.8268 0.8265 0.8263
2126.858995 0.8260 0.8258 0.8255 0.8252 0.8250
2130.128499 0.8247 0.8245 0.8242 0.8240 0.8237
2133.398003 0.8235 0.8232 0.8230 0.8227 0.8225
2136.667507 0.8222 0.8220 0.8217 0.8215 0.8212
2139.937012 0.8210 0.8207 0.8205 0.8202 0.8200
2143.206516 0.8200 0.8200 0.8200 0.8199 0.8197
2146.476020 0.8194 0.8192 0.8189 0.8187 0.8184
2149.745524 0.8182 0.8180 0.8180 0.8180 0.8180
2153.015029 0.8179 0.8177 0.8174 0.8171 0.8170
2156.284533 0.8170 0.8170 0.8170 0.8169 0.8166
2159.554037 0.8164 0.8161 0.8159 0.8156 0.8154
2162.823542 0.8151 0.8150 0.8150 0.8150 0.8150
2166.093046 0.8149 0.8146 0.8143 0.8141 0.8140
2169.362550 0.8140 0.8140 0.8140 0.8140 0.8140
2172.632054 0.8140 0.8140 0.8140 0.8140 0.8140
2175.901559 0.8140 0.8138 0.8136 0.8133 0.8131
2179.171063 0.8130 0.8130 0.8130 0.8130 0.8128
2182.440567 0.8125 0.8123 0.8120 0.8120 0.8120
2185.710071 0.8120 0.8120 0.8120 0.8120 0.8120
2188.979576 0.8120 0.8125 0.8130 0.8135 0.8140
2192.249080 0.8140 0.8140 0.8140 0.8140 0.8143
2195.518584 0.8145 0.8148 0.8150 0.8150 0.8150
2198.788088 0.8150 0.8151 0.8158 0.8166 0.8173
2202.057593 0.8181 0.8186 0.8191 0.8196 0.8200
2205.327097 0.8203 0.8206 0.8208 0.8211 0.8216
2208.596601 0.8221 0.8226 0.8233 0.8243 0.8253
2211.866105 0.8263 0.8272 0.8280 0.8288 0.8295
2215.135610 0.8303 0.8310 0.8318 0.8325 0.8333
2218.405114 0.8341 0.8348 0.8356 0.8363 0.8371
2221.674618 0.8378 0.8386 0.8394 0.8401 0.8409
2224.944123 0.8416 0.8424 0.8431 0.8439 0.8447
2228.213627 0.8451 0.8454 0.8456 0.8459 0.8460
2231.483131 0.8460 0.8460 0.8460 0.8462 0.8464
2234.752635 0.8467 0.8469 0.8470 0.8470 0.8470
2238.022140 0.8470 0.8472 0.8474 0.8477 0.8479
2241.291644 0.8480 0.8480 0.8480 0.8480 0.8480
2244.561148 0.8480 0.8480 0.8480 0.8480 0.8480
2247.830652 0.8480 0.8480 0.8480 0.8480 0.8480
2251.100157 0.8480 0.8480 0.8480 0.8480 0.8480
2254.369661 0.8482 0.8485 0.8487 0.8490 0.8490
2257.639165 0.8490 0.8490 0.8490 0.8493 0.8495
2260.908669 0.8498 0.8500 0.8500 0.8500 0.8500
2264.178174 0.8500 0.8500 0.8500 0.8500 0.8500
2267.447678 0.8500 0.8500 0.8500 0.8500 0.8500
2270.717182 0.8500 0.8500 0.8501 0.8503 0.8506
2273.986686 0.8508 0.8510 0.8510 0.8510 0.8510
2277.256191 0.8511 0.8513 0.8516 0.8518 0.8521
2280.525695 0.8523 0.8526 0.8528 0.8532 0.8537
2283.795199 0.8542 0.8547 0.8551 0.8554 0.8556
2287.064703 0.8559 0.8561 0.8564 0.8566 0.8569
2290.334208 0.8570 0.8570 0.8570 0.8570 0.8571
2293.603712 0.8574 0.8577 0.8579 0.8582 0.8584
2296.873216 0.8587 0.8589 0.8590 0.8590 0.8590
2300.142721 0.8590 0.8590 0.8590 0.8590 0.8590
2303.412225 0.8592 0.8594 0.8597 0.8599 0.8600
2306.681729 0.8600 0.8600 0.8600 0.8600 0.8600
2309.951233 0.8600 0.8600 0.8598 0.8595 0.8593
2313.220738 0.8590 0.8590 0.8590 0.8590 0.8590
2316.490242 0.8590 0.8590 0.8590 0.8590 0.8588
2319.759746 0.8585 0.8582 0.8580 0.8577 0.8575
2323.029250 0.8572 0.8570 0.8567 0.8565 0.8562
2326.298755 0.8560 0.8560 0.8560 0.8560 0.8559
2329.568259 0.8554 0.8549 0.8544 0.8539 0.8531
2332.837763 0.8524 0.8516 0.8509 0.8507 0.8504
2336.107267 0.8502 0.8499 0.8493 0.8488 0.8483
2339.376772 0.8479 0.8477 0.8474 0.8472 0.8469
2342.646276 0.8467 0.8464 0.8462 0.8458 0.8453
2345.915780 0.8448 0.8443 0.8439 0.8436 0.8434
2349.185284 0.8431 0.8429 0.8426 0.8424 0.8421
2352.454789 0.8417 0.8412 0.8407 0.8402 0.8399
2355.724293 0.8396 0.8394 0.8391 0.8389 0.8386
2358.993797 0.8384 0.8381 0.8377 0.8372 0.8367
2362.263302 0.8362 0.8360 0.8360 0.8360 0.8360
2365.532806 0.8358 0.8356 0.8353 0.8351 0.8348
2368.802310 0.8346 0.8343 0.8340 0.8340 0.8340
2372.071814 0.8340 0.8340 0.8338 0.8335 0.8333
2375.341319 0.8330 0.8328 0.8325 0.8323 0.8320
2378.610823 0.8320 0.8320 0.8320 0.8320 0.8318
2381.880327 0.8315 0.8313 0.8310 0.8310 0.8310
2385.149831 0.8310 0.8310 0.8310 0.8310 0.8310
2388.419336 0.8310 0.8307 0.8305 0.8302 0.8300
2391.688840 0.8300 0.8300 0.8300 0.8300 0.8300
2394.958344 0.8300 0.8300 0.8301 0.8303 0.8306
2398.227848 0.8308 0.8310 0.8310 0.8310 0.8310
2401.497353 0.8310 0.8310 0.8310 0.8310 0.8310
2404.766857 0.8310 0.8310 0.8310 0.8312 0.8317
2408.036361 0.8322 0.8327 0.8330 0.8330 0.8330
2411.305865 0.8330 0.8331 0.8334 0.8336 0.8339
2414.575370 0.8340 0.8340 0.8340 0.8340 0.8341
2417.844874 0.8344 0.8346 0.8349 0.8351 0.8354
2421.114378 0.8357 0.8359 0.8360 0.8360 0.8360
2424.383883 0.8360 0.8363 0.8368 0.8373 0.8378
2427.653387 0.8380 0.8380 0.8380 0.8380 0.8384
2430.922891 0.8389 0.8394 0.8399 0.8402 0.8404
2434.192395 0.8407 0.8409 0.8412 0.8415 0.8417
2437.461900 0.8420 0.8420 0.8420 0.8420 0.8420
2440.731404 0.8422 0.8425 0.8427 0.8430 0.8432
2444.000908 0.8435 0.8437 0.8440 0.8440 0.8440
2447.270412 0.8440 0.8440 0.8440 0.8440 0.8440
2450.539917 0.8440 0.8440 0.8440 0.8440 0.8440
2453.809421 0.8443 0.8445 0.8448 0.8450 0.8453
2457.078925 0.8455 0.8458 0.8460 0.8460 0.8460
2460.348429 0.8460 0.8461 0.8463 0.8466 0.8468
2463.617934 0.8471 0.8473 0.8476 0.8478 0.8480
2466.887438 0.8480 0.8480 0.8480 0.8481 0.8483
2470.156942 0.8486 0.8488 0.8491 0.8494 0.8496
2473.426446 0.8499 0.8500 0.8500 0.8500 0.8500
2476.695951 0.8500 0.8500 0.8500 0.8500 0.8500
2479.965455 0.8500 0.8500 0.8500 0.8501 0.8504
2483.234959 0.8506 0.8509 0.8510 0.8510 0.8510
2486.504463 0.8510 0.8510 0.8510 0.8510 0.8510
2489.773968 0.8512 0.8514 0.8517 0.8519 0.8522
2493.043472 0.8524 0.8527 0.8529 0.8530 0.8530
2496.312976 0.8530 0.8530 0.8532 0.8535 0.8537
2499.582481 0.8540 0.8540 0.8540 0.8540 0.8540
2502.851985 0.8542 0.8545 0.8547 0.8550 0.8550
2506.121489 0.8550 0.8550 0.8550 0.8550 0.8550
2509.390993 0.8550 0.8550 0.8555 0.8560 0.8565
2512.660498 0.8570 0.8570 0.8570 0.8570 0.8570
2515.930002 0.8570 0.8570 0.8570 0.8570 0.8570
2519.199506 0.8570 0.8570 0.8570 0.8573 0.8575
2522.469010 0.8578 0.8579 0.8577 0.8574 0.8572
2525.738515 0.8571 0.8573 0.8576 0.8578 0.8580
2529.008019 0.8580 0.8580 0.8580 0.8580 0.8580
2532.277523 0.8580 0.8580 0.8580 0.8580 0.8580
2535.547027 0.8580 0.8579 0.8576 0.8574 0.8571
2538.816532 0.8570 0.8570 0.8570 0.8570 0.8570
2542.086036 0.8570 0.8570 0.8570 0.8570 0.8570
2545.355540 0.8570 0.8570 0.8569 0.8566 0.8563
2548.625044 0.8561 0.8560 0.8560 0.8560 0.8560
2551.894549 0.8558 0.8556 0.8553 0.8551 0.8550
2555.164053 0.8550 0.8550 0.8550 0.8548 0.8546
2558.433557 0.8543 0.8541 0.8538 0.8536 0.8533
2561.703062 0.8531 0.8526 0.8521 0.8516 0.8511
2564.972566 0.8508 0.8505 0.8503 0.8500 0.8500
2568.242070 0.8500 0.8500 0.8500 0.8500 0.8500
2571.511574 0.8500 0.8500 0.8498 0.8495 0.8492
2574.781079 0.8490 0.8490 0.8490 0.8490 0.8490
2578.050583 0.8487 0.8485 0.8482 0.8480 0.8480
2581.320087 0.8480 0.8480 0.8480 0.8480 0.8480
2584.589591 0.8480 0.8480 0.8480 0.8480 0.8480
2587.859096 0.8480 0.8480 0.8480 0.8480 0.8481
2591.128600 0.8483 0.8486 0.8488 0.8490 0.8490
2594.398104 0.8490 0.8490 0.8491 0.8493 0.8496
2597.667608 0.8498 0.8500 0.8500 0.8500 0.8500
2600.937113 0.8500 0.8500 0.8500 0.8500 0.8501
2604.206617 0.8504 0.8506 0.8509 0.8510 0.8510
2607.476121 0.8510 0.8510 0.8510 0.8510 0.8510
2610.745625 0.8510 0.8510 0.8510 0.8510 0.8510
2614.015130 0.8510 0.8510 0.8510 0.8510 0.8510
2617.284634 0.8510 0.8510 0.8510 0.8512 0.8514
2620.554138 0.8517 0.8519 0.8520 0.8520 0.8520
2623.823642 0.8520 0.8522 0.8525 0.8527 0.8530
2627.093147 0.8530 0.8530 0.8530 0.8530 0.8530
2630.362651 0.8530 0.8530 0.8530 0.8530 0.8530
2633.632155 0.8530 0.8530 0.8530 0.8530 0.8530
2636.901660 0.8530 0.8532 0.8535 0.8538 0.8540
2640.171164 0.8540 0.8540 0.8540 0.8540 0.8543
2643.440668 0.8545 0.8548 0.8550 0.8550 0.8550
2646.710172 0.8550 0.8550 0.8550 0.8550 0.8550
2649.979677 0.8550 0.8550 0.8550 0.8550 0.8550
2653.249181 0.8550 0.8550 0.8550 0.8550 0.8550
2656.518685 0.8550 0.8550 0.8550 0.8550 0.8550
2659.788189 0.8550 0.8550 0.8550 0.8550 0.8550
2663.057694 0.8550 0.8550 0.8550 0.8550 0.8550
2666.327198 0.8550 0.8550 0.8550 0.8550 0.8550
2669.596702 0.8550 0.8550 0.8550 0.8550 0.8550
2672.866206 0.8550 0.8550 0.8550 0.8550 0.8550
2676.135711 0.8550 0.8550 0.8550 0.8550 0.8550
2679.405215 0.8550 0.8550 0.8550 0.8548 0.8546
2682.674719 0.8543 0.8541 0.8540 0.8540 0.8540
2685.944223 0.8540 0.8540 0.8540 0.8540 0.8540
2689.213728 0.8540 0.8540 0.8540 0.8540 0.8540
2692.483232 0.8540 0.8540 0.8540 0.8538 0.8535
2695.752736 0.8533 0.8530 0.8530 0.8530 0.8530
2699.022241 0.8530 0.8530 0.8530 0.8530 0.8530
2702.291745 0.8530 0.8530 0.8530 0.8530 0.8527
2705.561249 0.8525 0.8522 0.8520 0.8517 0.8515
2708.830753 0.8512 0.8510 0.8510 0.8510 0.8510
2712.100258 0.8510 0.8510 0.8510 0.8510 0.8510
2715.369762 0.8510 0.8510 0.8510 0.8509 0.8507
2718.639266 0.8504 0.8502 0.8499 0.8494 0.8489
2721.908770 0.8483 0.8479 0.8477 0.8474 0.8472
2725.178275 0.8469 0.8466 0.8464 0.8461 0.8459
2728.447779 0.8456 0.8454 0.8451 0.8449 0.8446
2731.717283 0.8444 0.8441 0.8440 0.8440 0.8440
2734.986787 0.8440 0.8440 0.8440 0.8440 0.8440
2738.256292 0.8441 0.8444 0.8446 0.8449 0.8452
2741.525796 0.8454 0.8457 0.8459 0.8460 0.8460
2744.795300 0.8460 0.8460 0.8460 0.8460 0.8460
2748.064804 0.8460 0.8462 0.8464 0.8467 0.8470
2751.334309 0.8472 0.8475 0.8477 0.8480 0.8480
2754.603813 0.8480 0.8480 0.8480 0.8480 0.8480
2757.873317 0.8480 0.8480 0.8482 0.8485 0.8487
2761.142821 0.8490 0.8492 0.8495 0.8497 0.8500
2764.412326 0.8500 0.8500 0.8500 0.8500 0.8500
2767.681830 0.8500 0.8500 0.8500 0.8500 0.8500
2770.951334 0.8500 0.8500 0.8500 0.8500 0.8500
2774.220839 0.8500 0.8500 0.8500 0.8500 0.8500
2777.490343 0.8500 0.8500 0.8500 0.8500 0.8500
2780.759847 0.8500 0.8500 0.8500 0.8500 0.8500
2784.029351 0.8500 0.8500 0.8500 0.8500 0.8500
2787.298856 0.8500 0.8500 0.8500 0.8500 0.8500
2790.568360 0.8500 0.8500 0.8500 0.8500 0.8500
2793.837864 0.8500 0.8500 0.8500 0.8500 0.8500
2797.107368 0.8500 0.8500 0.8500 0.8500 0.8500
2800.376873 0.8500 0.8500 0.8500 0.8500 0.8500
2803.646377 0.8500 0.8500 0.8500 0.8500 0.8500
2806.915881 0.8500 0.8500 0.8500 0.8500 0.8500
2810.185385 0.8500 0.8498 0.8496 0.8493 0.8491
2813.454890 0.8490 0.8490 0.8490 0.8490 0.8488
2816.724394 0.8485 0.8483 0.8480 0.8480 0.8480
2819.993898 0.8480 0.8480 0.8480 0.8480 0.8480
2823.263402 0.8480 0.8480 0.8480 0.8480 0.8480
2826.532907 0.8480 0.8480 0.8480 0.8480 0.8480
2829.802411 0.8480 0.8480 0.8480 0.8477 0.8475
2833.071915 0.8472 0.8470 0.8470 0.8470 0.8470
2836.341420 0.8470 0.8467 0.8465 0.8462 0.8460
2839.610924 0.8460 0.8460 0.8460 0.8459 0.8457
2842.880428 0.8454 0.8452 0.8449 0.8447 0.8444
2846.149932 0.8442 0.8439 0.8437 0.8434 0.8432
2849.419437 0.8429 0.8427 0.8424 0.8422 0.8418
2852.688941 0.8413 0.8408 0.8403 0.8398 0.8393
2855.958445 0.8388 0.8383 0.8379 0.8376 0.8374
2859.227949 0.8371 0.8370 0.8370 0.8370 0.8370
2862.497454 0.8369 0.8366 0.8364 0.8361 0.8360
2865.766958 0.8360 0.8360 0.8360 0.8360 0.8360
2869.036462 0.8360 0.8360 0.8360 0.8360 0.8360
2872.305966 0.8360 0.8360 0.8360 0.8360 0.8360
2875.575471 0.8358 0.8356 0.8353 0.8351 0.8350
2878.844975 0.8350 0.8350 0.8350 0.8348 0.8345
2882.114479 0.8343 0.8340 0.8340 0.8340 0.8340
2885.383983 0.8340 0.8340 0.8340 0.8340 0.8340
2888.653488 0.8340 0.8340 0.8340 0.8340 0.8338
2891.922992 0.8335 0.8332 0.8330 0.8327 0.8325
2895.192496 0.8322 0.8320 0.8317 0.8315 0.8312
2898.462001 0.8310 0.8310 0.8310 0.8310 0.8310
2901.731505 0.8307 0.8305 0.8302 0.8300 0.8297
2905.001009 0.8294 0.8292 0.8290 0.8290 0.8290
2908.270513 0.8290 0.8289 0.8287 0.8284 0.8282
2911.540018 0.8280 0.8280 0.8280 0.8280 0.8279
2914.809522 0.8277 0.8274 0.8272 0.8268 0.8263
2918.079026 0.8258 0.8253 0.8248 0.8243 0.8238
2921.348530 0.8233 0.8225 0.8215 0.8205 0.8195
2924.618035 0.8183 0.8167 0.8152 0.8137 0.8123
2927.887539 0.8111 0.8098 0.8085 0.8076 0.8068
2931.157043 0.8060 0.8053 0.8043 0.8033 0.8023
2934.426547 0.8013 0.8000 0.7984 0.7969 0.7954
2937.696052 0.7937 0.7920 0.7902 0.7884 0.7867
2940.965556 0.7849 0.7831 0.7814 0.7800 0.7787
2944.235060 0.7775 0.7762 0.7760 0.7760 0.7760
2947.504564 0.7760 0.7760 0.7760 0.7760 0.7760
2950.774069 0.7760 0.7760 0.7760 0.7760 0.7774
2954.043573 0.7789 0.7804 0.7820 0.7835 0.7850
2957.313077 0.7866 0.7880 0.7885 0.7890 0.7895
2960.582581 0.7902 0.7919 0.7937 0.7955 0.7972
2963.852086 0.7990 0.8008 0.8025 0.8042 0.8055
2967.121590 0.8067 0.8080 0.8090 0.8093 0.8096
2970.391094 0.8098 0.8100 0.8100 0.8100 0.8100
2973.660599 0.8100 0.8100 0.8100 0.8100 0.8100
2976.930103 0.8100 0.8100 0.8100 0.8099 0.8097
2980.199607 0.8094 0.8092 0.8090 0.8090 0.8090
2983.469111 0.8090 0.8089 0.8086 0.8084 0.8081
2986.738616 0.8077 0.8072 0.8067 0.8062 0.8059
2990.008120 0.8056 0.8054 0.8051 0.8049 0.8046
2993.277624 0.8044 0.8041 0.8038 0.8036 0.8033
2996.547128 0.8031 0.8028 0.8026 0.8023 0.8021
2999.816633 0.8020 0.8020 0.8020 0.8020 0.8020
3003.086137 0.8020 0.8020 0.8020 0.8012 0.8002
3006.355641 0.7992 0.7982 0.7978 0.7975 0.7973
3009.625145 0.7970 0.7968 0.7965 0.7963 0.7960
3012.894650 0.7958 0.7955 0.7953 0.7950 0.7943
3016.164154 0.7935 0.7928 0.7920 0.7918 0.7915
3019.433658 0.7912 0.7910 0.7905 0.7900 0.7895
3022.703162 0.7890 0.7882 0.7874 0.7867 0.7860
3025.972667 0.7855 0.7849 0.7844 0.7839 0.7829
3029.242171 0.7819 0.7809 0.7798 0.7785 0.7773
3032.511675 0.7760 0.7746 0.7726 0.7705 0.7685
3035.781180 0.7667 0.7657 0.7647 0.7637 0.7629
3039.050684 0.7627 0.7624 0.7622 0.7620 0.7620
3042.320188 0.7620 0.7620 0.7620 0.7620 0.7620
3045.589692 0.7620 0.7622 0.7627 0.7632 0.7637
3048.859197 0.7642 0.7647 0.7652 0.7657 0.7662
3052.128701 0.7668 0.7673 0.7678 0.7685 0.7695
3055.398205 0.7705 0.7716 0.7726 0.7736 0.7746
3058.667709 0.7756 0.7763 0.7768 0.7773 0.7778
3061.937214 0.7782 0.7784 0.7787 0.7789 0.7792
3065.206718 0.7794 0.7797 0.7799 0.7800 0.7800
3068.476222 0.7800 0.7800 0.7798 0.7795 0.7793
3071.745726 0.7790 0.7771 0.7749 0.7726 0.7703
3075.015231 0.7693 0.7686 0.7678 0.7671 0.7652
3078.284735 0.7632 0.7612 0.7591 0.7566 0.7541
3081.554239 0.7516 0.7491 0.7470 0.7450 0.7430
3084.823743 0.7410 0.7392 0.7374 0.7356 0.7339
3088.093248 0.7329 0.7319 0.7309 0.7300 0.7300
3091.362752 0.7300 0.7300 0.7300 0.7300 0.7300
3094.632256 0.7300 0.7300 0.7303 0.7306 0.7308
3097.901760 0.7311 0.7316 0.7321 0.7326 0.7335
3101.171265 0.7356 0.7376 0.7396 0.7415 0.7430
3104.440769 0.7445 0.7460 0.7477 0.7497 0.7517
3107.710273 0.7537 0.7555 0.7567 0.7580 0.7593
3110.979778 0.7602 0.7607 0.7612 0.7617 0.7629
3114.249282 0.7646 0.7664 0.7682 0.7693 0.7698
3117.518786 0.7703 0.7708 0.7711 0.7714 0.7716
3120.788290 0.7719 0.7722 0.7724 0.7727 0.7729
3124.057795 0.7736 0.7747 0.7757 0.7767 0.7780
3127.327299 0.7795 0.7811 0.7826 0.7841 0.7856
3130.596803 0.7871 0.7886 0.7898 0.7908 0.7918
3133.866307 0.7928 0.7934 0.7939 0.7944 0.7949
3137.135812 0.7956 0.7964 0.7972 0.7979 0.7985
3140.405316 0.7990 0.7995 0.8000 0.8005 0.8010
3143.674820 0.8015 0.8020 0.8020 0.8020 0.8020
3146.944324 0.8020 0.8025 0.8030 0.8035 0.8040
3150.213829 0.8043 0.8045 0.8048 0.8050 0.8053
3153.483333 0.8055 0.8058 0.8060 0.8063 0.8065
3156.752837 0.8068 0.8071 0.8079 0.8086 0.8094
3160.022341 0.8100 0.8103 0.8106 0.8108 0.8111
3163.291846 0.8116 0.8121 0.8126 0.8131 0.8133
3166.561350 0.8136 0.8138 0.8140 0.8140 0.8140
3169.830854 0.8140 0.8141 0.8143 0.8146 0.8149
3173.100359 0.8151 0.8154 0.8156 0.8159 0.8161
3176.369863 0.8164 0.8166 0.8169 0.8170 0.8170
3179.639367 0.8170 0.8170 0.8170 0.8170 0.8170
3182.908871 0.8170 0.8171 0.8174 0.8176 0.8179
3186.178376 0.8180 0.8180 0.8180 0.8180 0.8182
3189.447880 0.8184 0.8187 0.8189 0.8190 0.8190
3192.717384 0.8190 0.8190 0.8192 0.8194 0.8197
3195.986888 0.8199 0.8200 0.8200 0.8200 0.8200
3199.256393 0.8202 0.8205 0.8207 0.8210 0.8210
3202.525897 0.8210 0.8210 0.8210 0.8210 0.8210
3205.795401 0.8210 0.8210 0.8212 0.8215 0.8217
3209.064905 0.8220 0.8220 0.8220 0.8220 0.8220
3212.334410 0.8223 0.8225 0.8228 0.8230 0.8230
3215.603914 0.8230 0.8230 0.8230 0.8230 0.8230
3218.873418 0.8230 0.8230 0.8233 0.8235 0.8238
3222.142922 0.8240 0.8243 0.8246 0.8248 0.8250
3225.412427 0.8250 0.8250 0.8250 0.8251 0.8253
3228.681931 0.8256 0.8258 0.8261 0.8263 0.8266
3231.951435 0.8268 0.8271 0.8273 0.8276 0.8278
3235.220940 0.8280 0.8280 0.8280 0.8280 0.8281
3238.490444 0.8284 0.8286 0.8289 0.8290 0.8290
3241.759948 0.8290 0.8290 0.8290 0.8290 0.8290
3245.029452 0.8290 0.8290 0.8290 0.8290 0.8290
3248.298957 0.8290 0.8290 0.8290 0.8290 0.8292
3251.568461 0.8294 0.8297 0.8299 0.8302 0.8304
3254.837965 0.8307 0.8309 0.8310 0.8310 0.8310
3258.107469 0.8310 0.8312 0.8314 0.8317 0.8319
3261.376974 0.8320 0.8320 0.8320 0.8320 0.8322
3264.646478 0.8325 0.8327 0.8330 0.8330 0.8330
3267.915982 0.8330 0.8330 0.8332 0.8335 0.8337
3271.185486 0.8340 0.8340 0.8340 0.8340 0.8340
3274.454991 0.8340 0.8340 0.8340 0.8340 0.8343
3277.724495 0.8345 0.8348 0.8350 0.8353 0.8355
3280.993999 0.8358 0.8360 0.8360 0.8360 0.8360
3284.263503 0.8360 0.8357 0.8355 0.8352 0.8350
3287.533008 0.8350 0.8350 0.8350 0.8350 0.8350
3290.802512 0.8350 0.8350 0.8350 0.8350 0.8350
3294.072016 0.8350 0.8350 0.8350 0.8350 0.8350
3297.341520 0.8350 0.8350 0.8350 0.8350 0.8350
3300.611025 0.8350 0.8350 0.8350 0.8350 0.8350
3303.880529 0.8350 0.8350 0.8350 0.8350 0.8350
3307.150033 0.8350 0.8350 0.8350 0.8350 0.8350
3310.419538 0.8351 0.8354 0.8356 0.8359 0.8360
3313.689042 0.8360 0.8360 0.8360 0.8360 0.8360
3316.958546 0.8360 0.8360 0.8362 0.8364 0.8367
3320.228050 0.8369 0.8370 0.8370 0.8370 0.8370
3323.497555 0.8372 0.8375 0.8377 0.8380 0.8380
3326.767059 0.8380 0.8380 0.8380 0.8380 0.8380
3330.036563 0.8380 0.8380 0.8380 0.8380 0.8380
3333.306067 0.8380 0.8380 0.8380 0.8380 0.8380
3336.575572 0.8380 0.8380 0.8380 0.8380 0.8380
3339.845076 0.8380 0.8380 0.8380 0.8380 0.8380
3343.114580 0.8380 0.8380 0.8380 0.8380 0.8380
3346.384084 0.8380 0.8380 0.8380 0.8380 0.8380
3349.653589 0.8380 0.8380 0.8380 0.8380 0.8380
3352.923093 0.8380 0.8380 0.8380 0.8380 0.8380
3356.192597 0.8380 0.8379 0.8377 0.8374 0.8372
3359.462101 0.8370 0.8370 0.8370 0.8370 0.8370
3362.731606 0.8370 0.8370 0.8370 0.8370 0.8370
3366.001110 0.8370 0.8370 0.8370 0.8370 0.8370
3369.270614 0.8370 0.8370 0.8370 0.8370 0.8370
3372.540119 0.8370 0.8370 0.8370 0.8370 0.8370
3375.809623 0.8370 0.8370 0.8370 0.8370 0.8370
3379.079127 0.8370 0.8370 0.8370 0.8370 0.8370
3382.348631 0.8370 0.8370 0.8370 0.8370 0.8370
3385.618136 0.8368 0.8366 0.8363 0.8361 0.8360
3388.887640 0.8360 0.8360 0.8360 0.8360 0.8360
3392.157144 0.8360 0.8360 0.8360 0.8360 0.8360
3395.426648 0.8360 0.8360 0.8360 0.8360 0.8360
3398.696153 0.8360 0.8360 0.8360 0.8360 0.8360
3401.965657 0.8360 0.8360 0.8360 0.8360 0.8360
3405.235161 0.8360 0.8360 0.8360 0.8360 0.8360
3408.504665 0.8360 0.8360 0.8360 0.8360 0.8360
3411.774170 0.8360 0.8360 0.8360 0.8360 0.8360
3415.043674 0.8360 0.8360 0.8360 0.8360 0.8360
3418.313178 0.8360 0.8359 0.8357 0.8354 0.8352
3421.582682 0.8350 0.8350 0.8350 0.8350 0.8349
3424.852187 0.8347 0.8344 0.8341 0.8340 0.8340
3428.121691 0.8340 0.8340 0.8340 0.8340 0.8340
3431.391195 0.8340 0.8340 0.8340 0.8340 0.8340
3434.660699 0.8339 0.8336 0.8334 0.8331 0.8330
3437.930204 0.8330 0.8330 0.8330 0.8330 0.8330
3441.199708 0.8330 0.8330 0.8330 0.8330 0.8330
3444.469212 0.8330 0.8330 0.8330 0.8330 0.8330
3447.738717 0.8330 0.8330 0.8330 0.8330 0.8330
3451.008221 0.8330 0.8330 0.8330 0.8328 0.8325
3454.277725 0.8323 0.8320 0.8320 0.8320 0.8320
3457.547229 0.8320 0.8318 0.8315 0.8313 0.8310
3460.816734 0.8310 0.8310 0.8310 0.8310 0.8308
3464.086238 0.8305 0.8303 0.8300 0.8297 0.8295
3467.355742 0.8292 0.8290 0.8290 0.8290 0.8290
3470.625246 0.8290 0.8285 0.8280 0.8274 0.8270
3473.894751 0.8267 0.8265 0.8262 0.8260 0.8257
3477.164255 0.8254 0.8252 0.8249 0.8244 0.8239
3480.433759 0.8234 0.8229 0.8224 0.8219 0.8214
3483.703263 0.8208 0.8203 0.8198 0.8193 0.8187
3486.972768 0.8180 0.8172 0.8165 0.8158 0.8153
3490.242272 0.8148 0.8143 0.8136 0.8126 0.8116
3493.511776 0.8106 0.8096 0.8085 0.8075 0.8065
3496.781280 0.8056 0.8049 0.8041 0.8034 0.8026
3500.050785 0.8018 0.8011 0.8003 0.7997 0.7992
3503.320289 0.7987 0.7982 0.7977 0.7972 0.7967
3506.589793 0.7962 0.7958 0.7956 0.7953 0.7951
3509.859298 0.7950 0.7950 0.7950 0.7950 0.7948
3513.128802 0.7946 0.7943 0.7941 0.7938 0.7936
3516.398306 0.7933 0.7930 0.7930 0.7930 0.7930
3519.667810 0.7930 0.7932 0.7935 0.7937 0.7940
3522.937315 0.7942 0.7945 0.7947 0.7950 0.7950
3526.206819 0.7950 0.7950 0.7950 0.7955 0.7960
3529.476323 0.7965 0.7970 0.7975 0.7980 0.7985
3532.745827 0.7991 0.7998 0.8006 0.8013 0.8020
3536.015332 0.8023 0.8025 0.8028 0.8030 0.8033
3539.284836 0.8035 0.8038 0.8041 0.8049 0.8057
3542.554340 0.8064 0.8071 0.8073 0.8076 0.8078
3545.823844 0.8080 0.8080 0.8080 0.8080 0.8081
3549.093349 0.8083 0.8086 0.8088 0.8091 0.8093
3552.362853 0.8096 0.8099 0.8100 0.8100 0.8100
3555.632357 0.8100 0.8100 0.8100 0.8100 0.8100
3558.901861 0.8101 0.8104 0.8106 0.8109 0.8110
3562.171366 0.8110 0.8110 0.8110 0.8111 0.8114
3565.440870 0.8116 0.8119 0.8120 0.8120 0.8120
3568.710374 0.8120 0.8122 0.8124 0.8127 0.8129
3571.979878 0.8130 0.8130 0.8130 0.8130 0.8132
3575.249383 0.8134 0.8137 0.8139 0.8142 0.8144
3578.518887 0.8147 0.8150 0.8150 0.8150 0.8150
3581.788391 0.8150 0.8154 0.8159 0.8164 0.8169
3585.057896 0.8170 0.8170 0.8170 0.8170 0.8179
3588.327400 0.8189 0.8200 0.8210 0.8212 0.8215
3591.596904 0.8217 0.8220 0.8225 0.8230 0.8235
3594.866408 0.8240 0.8243 0.8245 0.8248 0.8250
3598.135913 0.8255 0.8260 0.8266 0.8270 0.8270
3601.405417 0.8270 0.8270 0.8270 0.8270 0.8270
3604.674921 0.8270 0.8270 0.8270 0.8270 0.8270
3607.944425 0.8270 0.8270 0.8270 0.8270 0.8269
3611.213930 0.8267 0.8264 0.8262 0.8259 0.8257
3614.483434 0.8254 0.8252 0.8250 0.8250 0.8250
3617.752938 0.8250 0.8250 0.8250 0.8250 0.8250
3621.022442 0.8248 0.8243 0.8238 0.8233 0.8230
3624.291947 0.8230 0.8230 0.8230 0.8230 0.8230
3627.561451 0.8230 0.8230 0.8227 0.8222 0.8217
3630.830955 0.8212 0.8208 0.8206 0.8203 0.8201
3634.100459 0.8200 0.8200 0.8200 0.8200 0.8195
3637.369964 0.8187 0.8180 0.8172 0.8164 0.8157
3640.639468 0.8149 0.8142 0.8136 0.8131 0.8126
3643.908972 0.8121 0.8118 0.8115 0.8113 0.8110
3647.178477 0.8108 0.8105 0.8103 0.8100 0.8100
3650.447981 0.8100 0.8100 0.8100 0.8100 0.8100
3653.717485 0.8100 0.8100 0.8100 0.8100 0.8100
3656.986989 0.8100 0.8100 0.8100 0.8100 0.8100
3660.256494 0.8105 0.8110 0.8116 0.8120 0.8120
3663.525998 0.8120 0.8120 0.8121 0.8126 0.8131
3666.795502 0.8136 0.8141 0.8149 0.8157 0.8164
3670.065006 0.8172 0.8179 0.8187 0.8194 0.8202
3673.334511 0.8210 0.8217 0.8225 0.8230 0.8230
3676.604015 0.8230 0.8230 0.8232 0.8237 0.8242
3679.873519 0.8247 0.8251 0.8253 0.8256 0.8259
3683.143023 0.8261 0.8264 0.8266 0.8269 0.8272
3686.412528 0.8277 0.8283 0.8288 0.8293 0.8298
3689.682032 0.8303 0.8308 0.8313 0.8318 0.8323
3692.951536 0.8328 0.8334 0.8342 0.8350 0.8357
3696.221040 0.8360 0.8360 0.8360 0.8360 0.8363
3699.490545 0.8368 0.8373 0.8378 0.8380 0.8380
3702.760049 0.8380 0.8380 0.8382 0.8384 0.8387
3706.029553 0.8389 0.8392 0.8395 0.8397 0.8400
3709.299058 0.8402 0.8405 0.8407 0.8410 0.8412
3712.568562 0.8415 0.8417 0.8420 0.8420 0.8420
3715.838066 0.8420 0.8420 0.8420 0.8420 0.8420
3719.107570 0.8420 0.8425 0.8430 0.8435 0.8440
3722.377075 0.8440 0.8440 0.8440 0.8440 0.8445
3725.646579 0.8450 0.8455 0.8460 0.8460 0.8460
3728.916083 0.8460 0.8460 0.8463 0.8465 0.8468
3732.185587 0.8470 0.8470 0.8470 0.8470 0.8470
3735.455092 0.8470 0.8470 0.8470 0.8470 0.8470
3738.724596 0.8470 0.8470 0.8469 0.8467 0.8464
3741.994100 0.8462 0.8460 0.8460 0.8460 0.8460
3745.263604 0.8460 0.8460 0.8460 0.8460 0.8459
3748.533109 0.8456 0.8454 0.8451 0.8450 0.8450
3751.802613 0.8450 0.8450 0.8449 0.8446 0.8444
3755.072117 0.8441 0.8440 0.8440 0.8440 0.8440
3758.341621 0.8440 0.8440 0.8440 0.8440 0.8440
3761.611126 0.8440 0.8440 0.8440 0.8440 0.8440
3764.880630 0.8440 0.8440 0.8440 0.8440 0.8440
3768.150134 0.8440 0.8440 0.8440 0.8440 0.8440
3771.419638 0.8440 0.8440 0.8440 0.8440 0.8442
3774.689143 0.8445 0.8447 0.8450 0.8452 0.8455
3777.958647 0.8457 0.8460 0.8460 0.8460 0.8460
3781.228151 0.8460 0.8460 0.8460 0.8460 0.8460
3784.497656 0.8460 0.8460 0.8460 0.8460 0.8463
3787.767160 0.8465 0.8468 0.8470 0.8473 0.8475
3791.036664 0.8478 0.8480 0.8480 0.8480 0.8480
3794.306168 0.8480 0.8480 0.8480 0.8480 0.8481
3797.575673 0.8483 0.8486 0.8488 0.8491 0.8493
3800.845177 0.8496 0.8498 0.8500 0.8500 0.8500
3804.114681 0.8500 0.8500 0.8500 0.8500 0.8500
3807.384185 0.8501 0.8503 0.8506 0.8508 0.8510
3810.653690 0.8510 0.8510 0.8510 0.8510 0.8510
3813.923194 0.8510 0.8510 0.8510 0.8510 0.8510
3817.192698 0.8510 0.8510 0.8510 0.8510 0.8510
3820.462202 0.8510 0.8510 0.8510 0.8510 0.8510
3823.731707 0.8510 0.8510 0.8510 0.8510 0.8510
3827.001211 0.8510 0.8510 0.8510 0.8510 0.8510
3830.270715 0.8510 0.8510 0.8510 0.8510 0.8510
3833.540219 0.8510 0.8510 0.8510 0.8510 0.8510
3836.809724 0.8510 0.8510 0.8510 0.8510 0.8510
3840.079228 0.8510 0.8510 0.8510 0.8510 0.8510
3843.348732 0.8510 0.8510 0.8510 0.8510 0.8510
3846.618237 0.8510 0.8510 0.8510 0.8510 0.8510
3849.887741 0.8510 0.8510 0.8510 0.8507 0.8505
3853.157245 0.8502 0.8500 0.8500 0.8500 0.8500
3856.426749 0.8500 0.8500 0.8500 0.8500 0.8500
3859.696254 0.8500 0.8500 0.8500 0.8501 0.8503
3862.965758 0.8506 0.8508 0.8510 0.8510 0.8510
3866.235262 0.8510 0.8510 0.8510 0.8510 0.8510
3869.504766 0.8512 0.8517 0.8522 0.8527 0.8532
3872.774271 0.8537 0.8542 0.8547 0.8551 0.8554
3876.043775 0.8556 0.8559 0.8561 0.8564 0.8566
3879.313279 0.8569 0.8570 0.8570 0.8570 0.8570
3882.582783 0.8570 0.8570 0.8570 0.8570 0.8571
3885.852288 0.8574 0.8577 0.8579 0.8580 0.8580
3889.121792 0.8580 0.8580 0.8580 0.8580 0.8580
3892.391296 0.8580 0.8580 0.8580 0.8580 0.8580
3895.660800 0.8582 0.8584 0.8587 0.8590 0.8590
3898.930305 0.8590 0.8590 0.8590 0.8590 0.8590
3902.199809 0.8590 0.8590 0.8590 0.8590 0.8590
3905.469313 0.8590 0.8592 0.8595 0.8597 0.8600
3908.738817 0.8600 0.8600 0.8600 0.8600 0.8600
3912.008322 0.8600 0.8600 0.8600 0.8600 0.8600
3915.277826 0.8600 0.8600 0.8597 0.8595 0.8592
3918.547330 0.8590 0.8590 0.8590 0.8590 0.8590
3921.816835 0.8590 0.8590 0.8590 0.8590 0.8590
3925.086339 0.8590 0.8590 0.8590 0.8590 0.8590
3928.355843 0.8590 0.8590 0.8590 0.8590 0.8590
3931.625347 0.8589 0.8587 0.8584 0.8582 0.8580
3934.894852 0.8580 0.8580 0.8580 0.8579 0.8576
3938.164356 0.8574 0.8571 0.8570 0.8570 0.8570
3941.433860 0.8570 0.8570 0.8570 0.8570 0.8570
3944.703364 0.8567 0.8562 0.8557 0.8552 0.8550
3947.972869 0.8550 0.8550 0.8550 0.8550 0.8550
3951.242373 0.8550 0.8550 0.8550 0.8550 0.8550
3954.511877 0.8550 0.8550 0.8550 0.8550 0.8550
3957.781381 0.8548 0.8546 0.8543 0.8541 0.8540
3961.050886 0.8540 0.8540 0.8540 0.8540 0.8540
3964.320390 0.8540 0.8540 0.8538 0.8535 0.8533
3967.589894 0.8530 0.8530 0.8530 0.8530 0.8530
3970.859398 0.8530 0.8530 0.8530 0.8530 0.8527
3974.128903 0.8525 0.8522
##END=
