##TITLE=Benzene, bromo-
##JCAMP-DX=4.24
##DATA TYPE=INFRARED SPECTRUM
##CLASS=COBLENTZ III
##ORIGIN=DOW CHEMICAL COMPANY
##OWNER=Copyright (C) 1987 by the Coblentz Society
Collection (C) 2018 copyright by the U.S. Secretary of Commerce
on behalf of the United States of America. All rights reserved.
##DATE=1961/12/01
##NAMES=bromobenzene
##CAS REGISTRY NO=108-86-1
##MOLFORM=C6 H5 Br
##SOURCE REFERENCE=COBLENTZ NO. 6476
##$NIST SOURCE=COBLENTZ
##$NIST IMAGE=cob6476
##SPECTROMETER/DATA SYSTEM=DOW KBr FOREPRISM-GRATING
##INSTRUMENT PARAMETERS=BLAZED AT 3.5, 12.0, 20.0 MICRON AND CHANGED AT 5.0, 7.5, 14.9 MICRON
##STATE=SOLUTION (10% CCl4 FOR 3800-1330, 10% CS2 FOR 1330-450 CM^-^1)
##PATH LENGTH=0.011 CM, 0.011 CM
$$SPECTRAL CONTAMINATION DUE TO CS2 AROUND 860 AND CCl4 AROUND 1550 CM^-^1
##RESOLUTION=2
##XUNITS=1/CM
##YUNITS=TRANSMITTANCE
##XFACTOR=1.0
##YFACTOR=1
##FIRSTX=447
##LASTX=3794
##FIRSTY=0.636
##MAXX=3794
##MINX=447
##MAXY=0.9436
##MINY=0.0016
##NPOINTS=3348
##XYDATA=(X++(Y..Y))
447.000000 0.6360 0.6347 0.6333 0.6320 0.6307
452.000000 0.6293 0.6283 0.6274 0.6266 0.6257
457.000000 0.6248 0.6318 0.6789 0.7261 0.7732
462.000000 0.8203 0.8624 0.8739 0.8846 0.8921
467.000000 0.8982 0.9030 0.9046 0.9063 0.9076
472.000000 0.9082 0.9089 0.9096 0.9103 0.9108
477.000000 0.9113 0.9119 0.9124 0.9130 0.9135
482.000000 0.9140 0.9146 0.9151 0.9156 0.9162
487.000000 0.9166 0.9171 0.9175 0.9180 0.9184
492.000000 0.9189 0.9193 0.9196 0.9199 0.9202
497.000000 0.9205 0.9208 0.9211 0.9214 0.9217
502.000000 0.9220 0.9223 0.9226 0.9228 0.9231
507.000000 0.9234 0.9237 0.9240 0.9242 0.9245
512.000000 0.9248 0.9251 0.9254 0.9257 0.9259
517.000000 0.9262 0.9265 0.9268 0.9271 0.9274
522.000000 0.9277 0.9281 0.9284 0.9288 0.9291
527.000000 0.9295 0.9299 0.9302 0.9306 0.9309
532.000000 0.9313 0.9316 0.9320 0.9323 0.9327
537.000000 0.9331 0.9334 0.9338 0.9341 0.9345
542.000000 0.9348 0.9352 0.9355 0.9359 0.9363
547.000000 0.9366 0.9370 0.9373 0.9377 0.9380
552.000000 0.9383 0.9385 0.9388 0.9390 0.9392
557.000000 0.9395 0.9397 0.9400 0.9402 0.9404
562.000000 0.9406 0.9408 0.9409 0.9411 0.9413
567.000000 0.9415 0.9417 0.9416 0.9414 0.9412
572.000000 0.9411 0.9409 0.9407 0.9436 0.9399
577.000000 0.9395 0.9391 0.9386 0.9382 0.9377
582.000000 0.9372 0.9367 0.9367 0.9369 0.9372
587.000000 0.9374 0.9377 0.9380 0.9384 0.9387
592.000000 0.9390 0.9383 0.9377 0.9370 0.9364
597.000000 0.9357 0.9350 0.9342 0.9335 0.9328
602.000000 0.9321 0.9312 0.9303 0.9294 0.9284
607.000000 0.9267 0.9250 0.9233 0.9216 0.9193
612.000000 0.9165 0.9137 0.8994 0.8782 0.8783
617.000000 0.8825 0.8928 0.9032 0.9110 0.9116
622.000000 0.9115 0.9110 0.9106 0.9092 0.9077
627.000000 0.9061 0.9035 0.9005 0.8983 0.8960
632.000000 0.8943 0.8931 0.8937 0.8909 0.8901
637.000000 0.8894 0.8884 0.8872 0.8850 0.8822
642.000000 0.8799 0.8775 0.8746 0.8718 0.8688
647.000000 0.8659 0.8620 0.8577 0.8534 0.8491
652.000000 0.8448 0.8402 0.8346 0.8289 0.8232
657.000000 0.8176 0.8099 0.8018 0.7936 0.7804
662.000000 0.7671 0.7547 0.7423 0.7321 0.7222
667.000000 0.7114 0.7004 0.6894 0.6635 0.6168
672.000000 0.4383 0.2132 0.0708 0.0680 0.0702
677.000000 0.2212 0.3736 0.5735 0.5713 0.5716
682.000000 0.5109 0.3363 0.1617 0.0492 0.0490
687.000000 0.0478 0.1631 0.2557 0.3482 0.4408
692.000000 0.5334 0.6101 0.6857 0.7316 0.7564
697.000000 0.7845 0.8022 0.8209 0.8350 0.8460
702.000000 0.8520 0.8563 0.8605 0.8630 0.8634
707.000000 0.8610 0.8621 0.8610 0.8599 0.8587
712.000000 0.8571 0.8547 0.8502 0.8457 0.8384
717.000000 0.8316 0.8190 0.8086 0.8025 0.7953
722.000000 0.7861 0.7754 0.7640 0.7526 0.7407
727.000000 0.7232 0.6893 0.6710 0.5840 0.3620
732.000000 0.2886 0.2152 0.1418 0.0684 0.0016
737.000000 0.0016 0.0016 0.0016 0.0615 0.1265
742.000000 0.1914 0.2564 0.3213 0.3863 0.4512
747.000000 0.5162 0.5811 0.6461 0.7110 0.7730
752.000000 0.7875 0.8003 0.8076 0.8149 0.8250
757.000000 0.8360 0.8442 0.8523 0.8588 0.8637
762.000000 0.8687 0.8730 0.8760 0.8790 0.8820
767.000000 0.8842 0.8864 0.8885 0.8906 0.8918
772.000000 0.8928 0.8939 0.8949 0.8950 0.8945
777.000000 0.8941 0.8941 0.8926 0.8917 0.8908
782.000000 0.8902 0.8897 0.8891 0.8886 0.8886
787.000000 0.8886 0.8886 0.8886 0.8894 0.8907
792.000000 0.8919 0.8933 0.8948 0.8963 0.8976
797.000000 0.8983 0.8991 0.8998 0.8999 0.8999
802.000000 0.8999 0.8990 0.8977 0.8964 0.8952
807.000000 0.8942 0.8932 0.8922 0.8917 0.8915
812.000000 0.8913 0.8911 0.8907 0.8903 0.8899
817.000000 0.8892 0.8877 0.8862 0.8847 0.8829
822.000000 0.8811 0.8793 0.8773 0.8746 0.8719
827.000000 0.8692 0.8668 0.8644 0.8620 0.8596
832.000000 0.8577 0.8571 0.8565 0.8560 0.8560
837.000000 0.8560 0.8560 0.8560 0.8556 0.8523
842.000000 0.8477 0.8420 0.8347 0.8268 0.8194
847.000000 0.8128 0.8063 0.7997 0.7932 0.7866
852.000000 0.7795 0.7699 0.7602 0.7457 0.7377
857.000000 0.7343 0.7329 0.7329 0.7332 0.7341
862.000000 0.7350 0.7368 0.7396 0.7426 0.7458
867.000000 0.7489 0.7551 0.7623 0.7696 0.7789
872.000000 0.7873 0.7946 0.8003 0.8047 0.8092
877.000000 0.8136 0.8177 0.8219 0.8256 0.8287
882.000000 0.8318 0.8346 0.8365 0.8383 0.8401
887.000000 0.8406 0.8412 0.8414 0.8417 0.8417
892.000000 0.8426 0.8405 0.8385 0.8354 0.8318
897.000000 0.8277 0.8206 0.8105 0.7544 0.6945
902.000000 0.6345 0.6305 0.6587 0.7010 0.7433
907.000000 0.7856 0.8278 0.8304 0.8282 0.8257
912.000000 0.8234 0.8223 0.8225 0.8243 0.8292
917.000000 0.8354 0.8438 0.8529 0.8611 0.8666
922.000000 0.8714 0.8748 0.8760 0.8771 0.8782
927.000000 0.8794 0.8805 0.8814 0.8818 0.8821
932.000000 0.8824 0.8827 0.8828 0.8828 0.8828
937.000000 0.8828 0.8828 0.8842 0.8827 0.8826
942.000000 0.8825 0.8825 0.8824 0.8815 0.8803
947.000000 0.8792 0.8780 0.8768 0.8755 0.8742
952.000000 0.8729 0.8716 0.8703 0.8690 0.8677
957.000000 0.8670 0.8663 0.8657 0.8650 0.8643
962.000000 0.8639 0.8639 0.8639 0.8639 0.8639
967.000000 0.8640 0.8642 0.8644 0.8642 0.8625
972.000000 0.8609 0.8592 0.8572 0.8544 0.8513
977.000000 0.8473 0.8424 0.8360 0.8299 0.8238
982.000000 0.8170 0.8077 0.7944 0.7791 0.7638
987.000000 0.7485 0.7454 0.7422 0.7582 0.7862
992.000000 0.8076 0.8073 0.8066 0.8076 0.8029
997.000000 0.7988 0.7913 0.5113 0.3308 0.3300
1002.000000 0.3319 0.3255 0.6577 0.8148 0.8141
1007.000000 0.8134 0.8149 0.7950 0.7835 0.7757
1012.000000 0.7686 0.7601 0.7479 0.7271 0.6926
1017.000000 0.6648 0.5088 0.3399 0.1709 0.0684
1022.000000 0.0668 0.0735 0.2480 0.6944 0.7478
1027.000000 0.7819 0.7979 0.8225 0.8370 0.8469
1032.000000 0.8509 0.8540 0.8572 0.8592 0.8607
1037.000000 0.8610 0.8614 0.8617 0.8621 0.8625
1042.000000 0.8611 0.8606 0.8600 0.8595 0.8591
1047.000000 0.8586 0.8581 0.8560 0.8532 0.8497
1052.000000 0.8452 0.8407 0.8351 0.8283 0.8215
1057.000000 0.8142 0.8069 0.7988 0.7909 0.7833
1062.000000 0.7692 0.6509 0.6220 0.4702 0.3775
1067.000000 0.2848 0.1922 0.0995 0.0479 0.0477
1072.000000 0.0479 0.0910 0.2492 0.4074 0.5266
1077.000000 0.5417 0.5582 0.5785 0.6856 0.7423
1082.000000 0.7858 0.8081 0.8254 0.8365 0.8408
1087.000000 0.8443 0.8458 0.8474 0.8477 0.8460
1092.000000 0.8425 0.8361 0.8338 0.8347 0.8404
1097.000000 0.8505 0.8562 0.8610 0.8672 0.8709
1102.000000 0.8755 0.8810 0.8840 0.8875 0.8910
1107.000000 0.8937 0.8952 0.8966 0.8977 0.8988
1112.000000 0.8999 0.9009 0.9017 0.9026 0.9035
1117.000000 0.9043 0.9050 0.9056 0.9063 0.9070
1122.000000 0.9077 0.9084 0.9085 0.9082 0.9106
1127.000000 0.9070 0.9055 0.9036 0.9011 0.8988
1132.000000 0.8964 0.8944 0.8926 0.8908 0.8891
1137.000000 0.8873 0.8855 0.8837 0.8815 0.8791
1142.000000 0.8768 0.8745 0.8737 0.8732 0.8728
1147.000000 0.8723 0.8716 0.8708 0.8701 0.8688
1152.000000 0.8670 0.8652 0.8632 0.8609 0.8587
1157.000000 0.8570 0.8553 0.8536 0.8523 0.8524
1162.000000 0.8521 0.8522 0.8527 0.8533 0.8538
1167.000000 0.8542 0.8545 0.8544 0.8542 0.8544
1172.000000 0.8549 0.8554 0.8559 0.8564 0.8569
1177.000000 0.8575 0.8580 0.8586 0.8591 0.8617
1182.000000 0.8651 0.8687 0.8726 0.8749 0.8768
1187.000000 0.8780 0.8780 0.8780 0.8773 0.8766
1192.000000 0.8748 0.8729 0.8709 0.8692 0.8706
1197.000000 0.8754 0.8797 0.8839 0.8875 0.8911
1202.000000 0.8942 0.8973 0.8985 0.8991 0.8994
1207.000000 0.8997 0.9000 0.9003 0.9006 0.9008
1212.000000 0.9011 0.9017 0.9011 0.9009 0.9007
1217.000000 0.9005 0.9002 0.8992 0.8982 0.8972
1222.000000 0.8961 0.8951 0.8928 0.8904 0.8881
1227.000000 0.8857 0.8825 0.8792 0.8760 0.8731
1232.000000 0.8704 0.8677 0.8656 0.8698 0.8718
1237.000000 0.8737 0.8754 0.8770 0.8786 0.8791
1242.000000 0.8794 0.8794 0.8790 0.8806 0.8784
1247.000000 0.8780 0.8773 0.8766 0.8749 0.8732
1252.000000 0.8711 0.8689 0.8666 0.8644 0.8620
1257.000000 0.8595 0.8571 0.8546 0.8521 0.8493
1262.000000 0.8471 0.8459 0.8454 0.8456 0.8463
1267.000000 0.8464 0.8484 0.8501 0.8521 0.8540
1272.000000 0.8562 0.8585 0.8608 0.8631 0.8653
1277.000000 0.8676 0.8698 0.8721 0.8742 0.8760
1282.000000 0.8777 0.8795 0.8797 0.8796 0.8793
1287.000000 0.8790 0.8786 0.8782 0.8778 0.8768
1292.000000 0.8758 0.8748 0.8738 0.8728 0.8721
1297.000000 0.8717 0.8713 0.8709 0.8705 0.8711
1302.000000 0.8719 0.8727 0.8736 0.8753 0.8772
1307.000000 0.8792 0.8811 0.8827 0.8835 0.8842
1312.000000 0.8844 0.8844 0.8836 0.8827 0.8819
1317.000000 0.8803 0.8780 0.8733 0.8646 0.8380
1322.000000 0.8334 0.8314 0.8325 0.8449 0.8580
1327.000000 0.8711 0.8810 0.8845 0.8880 0.8908
1332.000000 0.8928 0.8948 0.8968 0.8979 0.8990
1337.000000 0.9001 0.9009 0.9012 0.9015 0.9018
1342.000000 0.9021 0.9024 0.9026 0.9028 0.9030
1347.000000 0.9032 0.9034 0.9034 0.9035 0.9035
1352.000000 0.9036 0.9036 0.9030 0.9021 0.9013
1357.000000 0.9005 0.8991 0.8977 0.8963 0.8957
1362.000000 0.8970 0.8973 0.9039 0.9105 0.9164
1367.000000 0.9188 0.9198 0.9220 0.9191 0.9181
1372.000000 0.9167 0.9150 0.9132 0.9114 0.9092
1377.000000 0.9069 0.9045 0.9001 0.8962 0.8946
1382.000000 0.8938 0.8937 0.8941 0.8948 0.8994
1387.000000 0.9048 0.9107 0.9119 0.9124 0.9127
1392.000000 0.9128 0.9129 0.9130 0.9129 0.9128
1397.000000 0.9126 0.9124 0.9121 0.9115 0.9108
1402.000000 0.9101 0.9095 0.9087 0.9078 0.9068
1407.000000 0.9058 0.9049 0.9039 0.9029 0.9019
1412.000000 0.9009 0.8999 0.8986 0.8972 0.8957
1417.000000 0.8942 0.8927 0.8912 0.8896 0.8880
1422.000000 0.8864 0.8849 0.8836 0.8823 0.8809
1427.000000 0.8796 0.8783 0.8762 0.8740 0.8693
1432.000000 0.8645 0.8583 0.8512 0.8434 0.8348
1437.000000 0.8235 0.8009 0.7687 0.7518 0.7295
1442.000000 0.6868 0.6779 0.5650 0.3425 0.1663
1447.000000 0.1660 0.1652 0.1656 0.5022 0.7097
1452.000000 0.8133 0.8466 0.8506 0.8542 0.8557
1457.000000 0.8555 0.8529 0.8535 0.8519 0.8502
1462.000000 0.8465 0.8411 0.8339 0.8249 0.8153
1467.000000 0.8058 0.7964 0.7416 0.7224 0.6150
1472.000000 0.5944 0.5430 0.3523 0.2568 0.1614
1477.000000 0.0660 0.0091 0.0076 0.0049 0.0541
1482.000000 0.2323 0.4104 0.5885 0.7322 0.7477
1487.000000 0.7754 0.7825 0.7876 0.7916 0.7935
1492.000000 0.7952 0.7936 0.7956 0.7950 0.7941
1497.000000 0.7933 0.7924 0.7915 0.7893 0.7859
1502.000000 0.7808 0.7745 0.7654 0.7567 0.7485
1507.000000 0.7422 0.7363 0.7303 0.7244 0.7138
1512.000000 0.7029 0.6933 0.6873 0.6837 0.6801
1517.000000 0.6773 0.6755 0.6738 0.6720 0.6702
1522.000000 0.6684 0.6662 0.6634 0.6606 0.6578
1527.000000 0.6544 0.6492 0.6440 0.6387 0.6334
1532.000000 0.6281 0.6228 0.6146 0.6029 0.5916
1537.000000 0.5813 0.5726 0.5639 0.5551 0.5462
1542.000000 0.5373 0.5233 0.5065 0.4880 0.4756
1547.000000 0.4689 0.4624 0.4589 0.4553 0.4543
1552.000000 0.4502 0.4542 0.4564 0.4617 0.4663
1557.000000 0.4698 0.4722 0.4744 0.4744 0.4740
1562.000000 0.4712 0.4690 0.4667 0.4650 0.4638
1567.000000 0.4624 0.4610 0.4596 0.4196 0.4073
1572.000000 0.3972 0.3893 0.3812 0.3723 0.3639
1577.000000 0.3594 0.3548 0.3368 0.2927 0.1925
1582.000000 0.1110 0.1109 0.1080 0.1106 0.1813
1587.000000 0.2556 0.3298 0.4040 0.4783 0.5830
1592.000000 0.6014 0.6162 0.6268 0.6374 0.6502
1597.000000 0.6638 0.6773 0.6885 0.6998 0.7108
1602.000000 0.7215 0.7825 0.7891 0.7957 0.8023
1607.000000 0.8079 0.8133 0.8187 0.8243 0.8299
1612.000000 0.8350 0.8396 0.8441 0.8487 0.8528
1617.000000 0.8569 0.8610 0.8648 0.8685 0.8718
1622.000000 0.8745 0.8769 0.8782 0.8784 0.8786
1627.000000 0.8788 0.8788 0.8780 0.8766 0.8750
1632.000000 0.8727 0.8701 0.8666 0.8624 0.8611
1637.000000 0.8598 0.8585 0.8586 0.8589 0.8604
1642.000000 0.8644 0.8738 0.8854 0.8951 0.9034
1647.000000 0.9072 0.9110 0.9127 0.9143 0.9159
1652.000000 0.9163 0.9165 0.9155 0.9162 0.9149
1657.000000 0.9137 0.9118 0.9099 0.9080 0.9062
1662.000000 0.9043 0.9030 0.9022 0.9015 0.9008
1667.000000 0.9008 0.9008 0.9008 0.9008 0.9008
1672.000000 0.9009 0.9009 0.9010 0.9011 0.9009
1677.000000 0.9007 0.9005 0.9002 0.9000 0.8998
1682.000000 0.8996 0.8994 0.8992 0.8990 0.8989
1687.000000 0.8986 0.8982 0.8979 0.8975 0.8971
1692.000000 0.8970 0.8970 0.8970 0.8970 0.8962
1697.000000 0.8970 0.8973 0.8976 0.8979 0.8986
1702.000000 0.8996 0.9006 0.9016 0.9026 0.9035
1707.000000 0.9021 0.9007 0.8993 0.8981 0.8969
1712.000000 0.8957 0.8947 0.8938 0.8935 0.8943
1717.000000 0.8952 0.8960 0.8961 0.8953 0.8941
1722.000000 0.8922 0.8899 0.8876 0.8846 0.8815
1727.000000 0.8779 0.8739 0.8698 0.8648 0.8538
1732.000000 0.8438 0.8431 0.8429 0.8439 0.8477
1737.000000 0.8551 0.8632 0.8681 0.8706 0.8721
1742.000000 0.8735 0.8738 0.8734 0.8729 0.8718
1747.000000 0.8723 0.8728 0.8752 0.8776 0.8799
1752.000000 0.8827 0.8851 0.8872 0.8879 0.8886
1757.000000 0.8893 0.8899 0.8905 0.8909 0.8912
1762.000000 0.8915 0.8917 0.8918 0.8916 0.8914
1767.000000 0.8912 0.8908 0.8901 0.8894 0.8955
1772.000000 0.8879 0.8881 0.8898 0.8913 0.8920
1777.000000 0.8927 0.8926 0.8921 0.8916 0.8909
1782.000000 0.8899 0.8888 0.8874 0.8824 0.8773
1787.000000 0.8721 0.8634 0.8504 0.8374 0.8326
1792.000000 0.8326 0.8326 0.8333 0.8422 0.8487
1797.000000 0.8553 0.8618 0.8684 0.8731 0.8746
1802.000000 0.8756 0.8758 0.8758 0.8754 0.8750
1807.000000 0.8747 0.8745 0.8744 0.8745 0.8746
1812.000000 0.8746 0.8747 0.8751 0.8760 0.8769
1817.000000 0.8785 0.8801 0.8818 0.8834 0.8844
1822.000000 0.8852 0.8859 0.8867 0.8867 0.8864
1827.000000 0.8862 0.8857 0.8847 0.8836 0.8827
1832.000000 0.8823 0.8820 0.8822 0.8849 0.8826
1837.000000 0.8828 0.8831 0.8830 0.8829 0.8828
1842.000000 0.8827 0.8823 0.8820 0.8816 0.8811
1847.000000 0.8805 0.8800 0.8793 0.8784 0.8775
1852.000000 0.8766 0.8757 0.8736 0.8705 0.8673
1857.000000 0.8638 0.8604 0.8549 0.8491 0.8435
1862.000000 0.8381 0.8248 0.8176 0.8105 0.8035
1867.000000 0.7964 0.7952 0.8047 0.7941 0.8437
1872.000000 0.8573 0.8654 0.8680 0.8681 0.8681
1877.000000 0.8660 0.8668 0.8653 0.8622 0.8598
1882.000000 0.8573 0.8547 0.8501 0.8446 0.8407
1887.000000 0.8373 0.8480 0.8542 0.8702 0.8762
1892.000000 0.8800 0.8826 0.8845 0.8858 0.8870
1897.000000 0.8877 0.8884 0.8892 0.8896 0.8898
1902.000000 0.8900 0.8902 0.8905 0.8907 0.8909
1907.000000 0.8911 0.8912 0.8912 0.8912 0.8912
1912.000000 0.8912 0.8912 0.8912 0.8930 0.8908
1917.000000 0.8907 0.8905 0.8903 0.8902 0.8900
1922.000000 0.8898 0.8895 0.8885 0.8874 0.8864
1927.000000 0.8854 0.8844 0.8827 0.8805 0.8783
1932.000000 0.8744 0.8705 0.8651 0.8592 0.8536
1937.000000 0.8479 0.8425 0.8377 0.8329 0.8281
1942.000000 0.8156 0.8073 0.8047 0.8072 0.8119
1947.000000 0.8213 0.8306 0.8399 0.8493 0.8586
1952.000000 0.8679 0.8725 0.8720 0.8714 0.8707
1957.000000 0.8699 0.8693 0.8690 0.8688 0.8685
1962.000000 0.8683 0.8667 0.8652 0.8637 0.8600
1967.000000 0.8589 0.8593 0.8627 0.8652 0.8677
1972.000000 0.8703 0.8730 0.8756 0.8780 0.8800
1977.000000 0.8812 0.8817 0.8823 0.8819 0.8794
1982.000000 0.8784 0.8779 0.8774 0.8769 0.8765
1987.000000 0.8763 0.8761 0.8759 0.8764 0.8774
1992.000000 0.8783 0.8793 0.8802 0.8812 0.8822
1997.000000 0.8831 0.8841 0.8856 0.8871 0.8882
2002.000000 0.8894 0.8899 0.8904 0.8909 0.8915
2007.000000 0.8918 0.8922 0.8921 0.8921 0.8920
2012.000000 0.8919 0.8917 0.8915 0.8912 0.8910
2017.000000 0.8907 0.8904 0.8901 0.8899 0.8896
2022.000000 0.8893 0.8890 0.8888 0.8883 0.8879
2027.000000 0.8874 0.8869 0.8869 0.8869 0.8875
2032.000000 0.8881 0.8891 0.8901 0.8910 0.8919
2037.000000 0.8926 0.8934 0.8941 0.8949 0.8956
2042.000000 0.8964 0.8970 0.8976 0.8980 0.8984
2047.000000 0.8984 0.8985 0.8982 0.8980 0.8977
2052.000000 0.8975 0.8972 0.8970 0.8967 0.8965
2057.000000 0.8960 0.8955 0.8950 0.8945 0.8941
2062.000000 0.8937 0.8933 0.8929 0.8925 0.8921
2067.000000 0.8919 0.8917 0.8918 0.8920 0.8922
2072.000000 0.8924 0.8925 0.8927 0.8929 0.8931
2077.000000 0.8936 0.8941 0.8950 0.8959 0.8968
2082.000000 0.8978 0.8986 0.8995 0.9000 0.9006
2087.000000 0.9007 0.9009 0.9005 0.9002 0.8998
2092.000000 0.8994 0.8990 0.8987 0.8983 0.8980
2097.000000 0.8976 0.8972 0.8970 0.8968 0.8965
2102.000000 0.8963 0.8961 0.8959 0.8961 0.8964
2107.000000 0.8970 0.8976 0.8983 0.8990 0.9001
2112.000000 0.9012 0.9023 0.9034 0.9046 0.9058
2117.000000 0.9071 0.9084 0.9072 0.9061 0.9048
2122.000000 0.9035 0.9021 0.9008 0.9003 0.8998
2127.000000 0.8993 0.8989 0.8984 0.8980 0.8980
2132.000000 0.8980 0.8980 0.8981 0.8981 0.8982
2137.000000 0.8983 0.8985 0.8986 0.8987 0.8988
2142.000000 0.8990 0.8991 0.8992 0.8993 0.8994
2147.000000 0.8995 0.8996 0.8995 0.8995 0.8994
2152.000000 0.8994 0.8993 0.8993 0.8992 0.8991
2157.000000 0.8990 0.8990 0.8989 0.8989 0.8988
2162.000000 0.8988 0.8987 0.8987 0.8986 0.8985
2167.000000 0.8985 0.8985 0.8985 0.8985 0.8985
2172.000000 0.8985 0.8985 0.8985 0.8985 0.8985
2177.000000 0.8985 0.8985 0.8985 0.8985 0.8985
2182.000000 0.8985 0.8985 0.8985 0.8985 0.8986
2187.000000 0.8986 0.8986 0.8986 0.8987 0.8987
2192.000000 0.8987 0.8987 0.8988 0.8987 0.8987
2197.000000 0.8985 0.8984 0.8983 0.8982 0.8981
2202.000000 0.8980 0.8978 0.8977 0.8976 0.8975
2207.000000 0.8973 0.8972 0.8971 0.8970 0.8968
2212.000000 0.8967 0.8965 0.8964 0.8962 0.8961
2217.000000 0.8959 0.8958 0.8956 0.8955 0.8953
2222.000000 0.8952 0.8949 0.8946 0.8941 0.8937
2227.000000 0.8932 0.8928 0.8923 0.8919 0.8914
2232.000000 0.8910 0.8906 0.8902 0.8897 0.8893
2237.000000 0.8888 0.8884 0.8873 0.8863 0.8849
2242.000000 0.8835 0.8817 0.8800 0.8801 0.8803
2247.000000 0.8805 0.8807 0.8819 0.8832 0.8844
2252.000000 0.8856 0.8864 0.8873 0.8876 0.8880
2257.000000 0.8879 0.8879 0.8874 0.8869 0.8863
2262.000000 0.8858 0.8853 0.8848 0.8842 0.8837
2267.000000 0.8831 0.8826 0.8817 0.8808 0.8800
2272.000000 0.8792 0.8787 0.8782 0.8776 0.8771
2277.000000 0.8766 0.8761 0.8756 0.8751 0.8747
2282.000000 0.8743 0.8738 0.8734 0.8729 0.8725
2287.000000 0.8721 0.8717 0.8714 0.8711 0.8708
2292.000000 0.8706 0.8703 0.8701 0.8701 0.8702
2297.000000 0.8703 0.8705 0.8706 0.8708 0.8709
2302.000000 0.8711 0.8712 0.8714 0.8716 0.8718
2307.000000 0.8719 0.8721 0.8718 0.8716 0.8713
2312.000000 0.8711 0.8703 0.8696 0.8687 0.8679
2317.000000 0.8668 0.8657 0.8645 0.8633 0.8633
2322.000000 0.8634 0.8647 0.8661 0.8674 0.8687
2327.000000 0.8701 0.8715 0.8730 0.8745 0.8754
2332.000000 0.8763 0.8769 0.8776 0.8783 0.8791
2337.000000 0.8798 0.8806 0.8815 0.8824 0.8833
2342.000000 0.8842 0.8850 0.8858 0.8863 0.8868
2347.000000 0.8872 0.8877 0.8882 0.8887 0.8891
2352.000000 0.8896 0.8898 0.8900 0.8902 0.8904
2357.000000 0.8905 0.8907 0.8905 0.8904 0.8902
2362.000000 0.8901 0.8899 0.8898 0.8896 0.8895
2367.000000 0.8893 0.8892 0.8888 0.8885 0.8881
2372.000000 0.8878 0.8874 0.8871 0.8868 0.8865
2377.000000 0.8862 0.8860 0.8857 0.8855 0.8852
2382.000000 0.8850 0.8847 0.8844 0.8841 0.8839
2387.000000 0.8836 0.8834 0.8830 0.8826 0.8826
2392.000000 0.8827 0.8828 0.8829 0.8834 0.8839
2397.000000 0.8847 0.8855 0.8870 0.8886 0.8889
2402.000000 0.8893 0.8896 0.8900 0.8903 0.8906
2407.000000 0.8907 0.8909 0.8910 0.8911 0.8912
2412.000000 0.8913 0.8913 0.8914 0.8914 0.8915
2417.000000 0.8915 0.8916 0.8916 0.8917 0.8917
2422.000000 0.8918 0.8918 0.8918 0.8918 0.8919
2427.000000 0.8919 0.8919 0.8919 0.8920 0.8920
2432.000000 0.8920 0.8919 0.8919 0.8919 0.8919
2437.000000 0.8918 0.8918 0.8918 0.8918 0.8917
2442.000000 0.8917 0.8916 0.8916 0.8916 0.8916
2447.000000 0.8916 0.8916 0.8916 0.8916 0.8916
2452.000000 0.8916 0.8916 0.8916 0.8916 0.8916
2457.000000 0.8916 0.8916 0.8916 0.8916 0.8916
2462.000000 0.8916 0.8916 0.8916 0.8916 0.8916
2467.000000 0.8916 0.8916 0.8916 0.8916 0.8915
2472.000000 0.8915 0.8914 0.8914 0.8914 0.8914
2477.000000 0.8913 0.8913 0.8913 0.8913 0.8912
2482.000000 0.8912 0.8911 0.8911 0.8911 0.8911
2487.000000 0.8910 0.8910 0.8910 0.8910 0.8909
2492.000000 0.8909 0.8908 0.8908 0.8908 0.8908
2497.000000 0.8907 0.8906 0.8904 0.8903 0.8902
2502.000000 0.8901 0.8899 0.8898 0.8897 0.8896
2507.000000 0.8894 0.8893 0.8892 0.8891 0.8889
2512.000000 0.8887 0.8884 0.8882 0.8880 0.8878
2517.000000 0.8875 0.8873 0.8870 0.8868 0.8866
2522.000000 0.8864 0.8861 0.8859 0.8854 0.8850
2527.000000 0.8846 0.8842 0.8838 0.8834 0.8829
2532.000000 0.8825 0.8818 0.8812 0.8804 0.8796
2537.000000 0.8790 0.8784 0.8780 0.8777 0.8782
2542.000000 0.8787 0.8792 0.8797 0.8803 0.8809
2547.000000 0.8818 0.8827 0.8835 0.8843 0.8849
2552.000000 0.8855 0.8860 0.8866 0.8865 0.8865
2557.000000 0.8864 0.8863 0.8862 0.8861 0.8859
2562.000000 0.8857 0.8855 0.8853 0.8851 0.8850
2567.000000 0.8848 0.8846 0.8844 0.8842 0.8840
2572.000000 0.8839 0.8837 0.8835 0.8833 0.8831
2577.000000 0.8828 0.8826 0.8823 0.8821 0.8818
2582.000000 0.8815 0.8812 0.8810 0.8807 0.8804
2587.000000 0.8799 0.8795 0.8790 0.8786 0.8781
2592.000000 0.8777 0.8779 0.8781 0.8787 0.8793
2597.000000 0.8807 0.8822 0.8836 0.8850 0.8861
2602.000000 0.8873 0.8876 0.8880 0.8881 0.8882
2607.000000 0.8881 0.8881 0.8880 0.8879 0.8878
2612.000000 0.8877 0.8876 0.8875 0.8874 0.8873
2617.000000 0.8872 0.8871 0.8870 0.8869 0.8868
2622.000000 0.8867 0.8866 0.8865 0.8864 0.8864
2627.000000 0.8863 0.8862 0.8859 0.8857 0.8852
2632.000000 0.8847 0.8842 0.8837 0.8832 0.8827
2637.000000 0.8821 0.8816 0.8810 0.8804 0.8798
2642.000000 0.8792 0.8787 0.8783 0.8785 0.8787
2647.000000 0.8794 0.8801 0.8809 0.8817 0.8832
2652.000000 0.8847 0.8860 0.8874 0.8884 0.8894
2657.000000 0.8897 0.8900 0.8903 0.8906 0.8908
2662.000000 0.8911 0.8913 0.8916 0.8916 0.8917
2667.000000 0.8918 0.8919 0.8919 0.8920 0.8921
2672.000000 0.8922 0.8923 0.8924 0.8924 0.8925
2677.000000 0.8925 0.8925 0.8925 0.8925 0.8924
2682.000000 0.8924 0.8923 0.8923 0.8922 0.8922
2687.000000 0.8922 0.8922 0.8921 0.8920 0.8919
2692.000000 0.8918 0.8917 0.8917 0.8916 0.8915
2697.000000 0.8914 0.8914 0.8913 0.8912 0.8911
2702.000000 0.8911 0.8910 0.8909 0.8908 0.8907
2707.000000 0.8906 0.8906 0.8905 0.8904 0.8903
2712.000000 0.8903 0.8902 0.8901 0.8900 0.8900
2717.000000 0.8899 0.8899 0.8898 0.8897 0.8896
2722.000000 0.8896 0.8895 0.8894 0.8893 0.8893
2727.000000 0.8892 0.8891 0.8890 0.8890 0.8889
2732.000000 0.8889 0.8888 0.8887 0.8886 0.8886
2737.000000 0.8885 0.8884 0.8883 0.8883 0.8882
2742.000000 0.8882 0.8881 0.8880 0.8879 0.8878
2747.000000 0.8877 0.8877 0.8876 0.8875 0.8874
2752.000000 0.8873 0.8872 0.8871 0.8870 0.8869
2757.000000 0.8868 0.8867 0.8866 0.8866 0.8865
2762.000000 0.8864 0.8863 0.8862 0.8861 0.8860
2767.000000 0.8859 0.8858 0.8858 0.8858 0.8859
2772.000000 0.8860 0.8860 0.8861 0.8861 0.8862
2777.000000 0.8863 0.8864 0.8864 0.8865 0.8865
2782.000000 0.8866 0.8867 0.8868 0.8868 0.8869
2787.000000 0.8869 0.8870 0.8870 0.8871 0.8871
2792.000000 0.8872 0.8872 0.8873 0.8873 0.8873
2797.000000 0.8873 0.8874 0.8874 0.8874 0.8874
2802.000000 0.8875 0.8875 0.8875 0.8875 0.8875
2807.000000 0.8875 0.8875 0.8875 0.8875 0.8875
2812.000000 0.8875 0.8875 0.8875 0.8875 0.8875
2817.000000 0.8874 0.8874 0.8872 0.8870 0.8868
2822.000000 0.8866 0.8864 0.8862 0.8860 0.8858
2827.000000 0.8856 0.8854 0.8852 0.8850 0.8848
2832.000000 0.8846 0.8844 0.8842 0.8840 0.8838
2837.000000 0.8836 0.8834 0.8832 0.8830 0.8826
2842.000000 0.8822 0.8818 0.8815 0.8811 0.8807
2847.000000 0.8803 0.8800 0.8796 0.8792 0.8788
2852.000000 0.8784 0.8782 0.8781 0.8784 0.8788
2857.000000 0.8789 0.8791 0.8792 0.8794 0.8795
2862.000000 0.8797 0.8798 0.8800 0.8802 0.8804
2867.000000 0.8804 0.8804 0.8804 0.8804 0.8804
2872.000000 0.8805 0.8805 0.8806 0.8806 0.8807
2877.000000 0.8807 0.8808 0.8808 0.8808 0.8808
2882.000000 0.8809 0.8809 0.8809 0.8809 0.8810
2887.000000 0.8810 0.8810 0.8810 0.8810 0.8809
2892.000000 0.8809 0.8807 0.8805 0.8803 0.8802
2897.000000 0.8800 0.8798 0.8796 0.8794 0.8792
2902.000000 0.8791 0.8789 0.8787 0.8784 0.8781
2907.000000 0.8776 0.8771 0.8766 0.8762 0.8757
2912.000000 0.8752 0.8739 0.8726 0.8707 0.8688
2917.000000 0.8678 0.8669 0.8673 0.8678 0.8685
2922.000000 0.8692 0.8699 0.8707 0.8717 0.8728
2927.000000 0.8738 0.8748 0.8757 0.8767 0.8776
2932.000000 0.8785 0.8794 0.8803 0.8807 0.8811
2937.000000 0.8812 0.8813 0.8811 0.8810 0.8807
2942.000000 0.8805 0.8802 0.8800 0.8799 0.8798
2947.000000 0.8797 0.8796 0.8795 0.8795 0.8796
2952.000000 0.8797 0.8798 0.8799 0.8800 0.8801
2957.000000 0.8800 0.8799 0.8796 0.8793 0.8790
2962.000000 0.8787 0.8784 0.8782 0.8781 0.8780
2967.000000 0.8780 0.8780 0.8780 0.8780 0.8779
2972.000000 0.8779 0.8778 0.8777 0.8775 0.8774
2977.000000 0.8772 0.8771 0.8768 0.8766 0.8762
2982.000000 0.8759 0.8755 0.8751 0.8747 0.8744
2987.000000 0.8737 0.8731 0.8723 0.8716 0.8707
2992.000000 0.8699 0.8690 0.8682 0.8670 0.8658
2997.000000 0.8643 0.8628 0.8613 0.8598 0.8570
3002.000000 0.8542 0.8494 0.8447 0.8375 0.8304
3007.000000 0.8233 0.8162 0.8135 0.8103 0.8132
3012.000000 0.8156 0.8198 0.8241 0.8283 0.8325
3017.000000 0.8367 0.8410 0.8425 0.8474 0.8434
3022.000000 0.8429 0.8408 0.8388 0.8320 0.8253
3027.000000 0.8185 0.8117 0.8049 0.7982 0.7957
3032.000000 0.7904 0.8052 0.8172 0.8301 0.8430
3037.000000 0.8430 0.8444 0.8380 0.8331 0.8281
3042.000000 0.8232 0.8182 0.8133 0.8091 0.8050
3047.000000 0.8038 0.8027 0.8000 0.7974 0.7930
3052.000000 0.7887 0.7747 0.7608 0.7543 0.7479
3057.000000 0.7369 0.7260 0.7173 0.7087 0.7023
3062.000000 0.6959 0.6935 0.6912 0.6869 0.6827
3067.000000 0.6710 0.6594 0.6477 0.6361 0.6244
3072.000000 0.6128 0.6126 0.6124 0.6129 0.6121
3077.000000 0.6263 0.6393 0.6545 0.6698 0.6720
3082.000000 0.6742 0.6744 0.6747 0.6748 0.6750
3087.000000 0.6751 0.6752 0.6884 0.7016 0.7218
3092.000000 0.7420 0.7622 0.7824 0.8026 0.8228
3097.000000 0.8335 0.8443 0.8479 0.8516 0.8565
3102.000000 0.8614 0.8634 0.8654 0.8669 0.8685
3107.000000 0.8701 0.8717 0.8727 0.8737 0.8747
3112.000000 0.8757 0.8765 0.8773 0.8779 0.8786
3117.000000 0.8792 0.8798 0.8804 0.8810 0.8813
3122.000000 0.8817 0.8820 0.8824 0.8827 0.8831
3127.000000 0.8833 0.8836 0.8838 0.8840 0.8842
3132.000000 0.8844 0.8846 0.8848 0.8850 0.8852
3137.000000 0.8854 0.8856 0.8856 0.8857 0.8856
3142.000000 0.8856 0.8856 0.8856 0.8856 0.8856
3147.000000 0.8856 0.8856 0.8856 0.8856 0.8854
3152.000000 0.8852 0.8849 0.8847 0.8844 0.8842
3157.000000 0.8839 0.8837 0.8834 0.8831 0.8831
3162.000000 0.8831 0.8838 0.8846 0.8853 0.8861
3167.000000 0.8868 0.8876 0.8882 0.8889 0.8894
3172.000000 0.8899 0.8904 0.8909 0.8914 0.8919
3177.000000 0.8923 0.8928 0.8933 0.8938 0.8940
3182.000000 0.8943 0.8945 0.8948 0.8949 0.8951
3187.000000 0.8951 0.8952 0.8952 0.8953 0.8954
3192.000000 0.8955 0.8955 0.8956 0.8956 0.8957
3197.000000 0.8957 0.8958 0.8958 0.8914 0.8958
3202.000000 0.8958 0.8958 0.8958 0.8958 0.8958
3207.000000 0.8958 0.8958 0.8957 0.8956 0.8954
3212.000000 0.8953 0.8951 0.8950 0.8949 0.8948
3217.000000 0.8946 0.8945 0.8943 0.8942 0.8940
3222.000000 0.8939 0.8938 0.8937 0.8935 0.8934
3227.000000 0.8933 0.8932 0.8931 0.8930 0.8929
3232.000000 0.8928 0.8928 0.8928 0.8928 0.8928
3237.000000 0.8928 0.8928 0.8928 0.8928 0.8928
3242.000000 0.8928 0.8928 0.8928 0.8926 0.8924
3247.000000 0.8924 0.8925 0.8926 0.8927 0.8927
3252.000000 0.8928 0.8929 0.8930 0.8931 0.8932
3257.000000 0.8932 0.8933 0.8934 0.8935 0.8940
3262.000000 0.8945 0.8950 0.8956 0.8961 0.8966
3267.000000 0.8968 0.8971 0.8973 0.8976 0.8978
3272.000000 0.8980 0.8982 0.8984 0.8984 0.8985
3277.000000 0.8984 0.8984 0.8984 0.8984 0.8983
3282.000000 0.8983 0.8982 0.8982 0.8981 0.8981
3287.000000 0.8980 0.8979 0.8978 0.8978 0.8977
3292.000000 0.8977 0.8976 0.8976 0.8975 0.8974
3297.000000 0.8974 0.8974 0.8973 0.8973 0.8972
3302.000000 0.8972 0.8972 0.8972 0.8971 0.8971
3307.000000 0.8970 0.8970 0.8968 0.8967 0.8964
3312.000000 0.8962 0.8959 0.8957 0.8954 0.8952
3317.000000 0.8949 0.8947 0.8944 0.8942 0.8939
3322.000000 0.8937 0.8934 0.8931 0.8928 0.8925
3327.000000 0.8922 0.8919 0.8916 0.8913 0.8909
3332.000000 0.8906 0.8903 0.8900 0.8896 0.8893
3337.000000 0.8887 0.8881 0.8874 0.8867 0.8860
3342.000000 0.8854 0.8847 0.8840 0.8833 0.8827
3347.000000 0.8820 0.8813 0.8806 0.8800 0.8793
3352.000000 0.8786 0.8780 0.8774 0.8767 0.8761
3357.000000 0.8755 0.8749 0.8743 0.8737 0.8730
3362.000000 0.8724 0.8718 0.8712 0.8706 0.8700
3367.000000 0.8695 0.8690 0.8684 0.8679 0.8674
3372.000000 0.8669 0.8663 0.8658 0.8652 0.8647
3377.000000 0.8642 0.8638 0.8637 0.8637 0.8637
3382.000000 0.8637 0.8636 0.8636 0.8636 0.8636
3387.000000 0.8635 0.8635 0.8635 0.8635 0.8634
3392.000000 0.8634 0.8635 0.8636 0.8637 0.8639
3397.000000 0.8640 0.8642 0.8643 0.8645 0.8646
3402.000000 0.8648 0.8650 0.8653 0.8655 0.8657
3407.000000 0.8659 0.8661 0.8663 0.8665 0.8667
3412.000000 0.8669 0.8671 0.8673 0.8675 0.8677
3417.000000 0.8679 0.8681 0.8683 0.8686 0.8688
3422.000000 0.8690 0.8692 0.8695 0.8697 0.8700
3427.000000 0.8703 0.8706 0.8709 0.8712 0.8715
3432.000000 0.8718 0.8721 0.8724 0.8727 0.8730
3437.000000 0.8733 0.8736 0.8739 0.8742 0.8744
3442.000000 0.8747 0.8750 0.8753 0.8756 0.8760
3447.000000 0.8763 0.8767 0.8770 0.8774 0.8777
3452.000000 0.8781 0.8784 0.8788 0.8791 0.8795
3457.000000 0.8798 0.8802 0.8805 0.8809 0.8812
3462.000000 0.8815 0.8818 0.8822 0.8825 0.8829
3467.000000 0.8831 0.8833 0.8835 0.8838 0.8840
3472.000000 0.8842 0.8844 0.8847 0.8849 0.8852
3477.000000 0.8854 0.8856 0.8858 0.8861 0.8863
3482.000000 0.8865 0.8866 0.8868 0.8870 0.8872
3487.000000 0.8873 0.8875 0.8877 0.8879 0.8880
3492.000000 0.8882 0.8883 0.8884 0.8885 0.8886
3497.000000 0.8887 0.8888 0.8889 0.8890 0.8891
3502.000000 0.8892 0.8893 0.8894 0.8895 0.8896
3507.000000 0.8897 0.8898 0.8899 0.8900 0.8900
3512.000000 0.8901 0.8901 0.8901 0.8901 0.8902
3517.000000 0.8902 0.8903 0.8903 0.8904 0.8904
3522.000000 0.8904 0.8904 0.8905 0.8905 0.8906
3527.000000 0.8906 0.8907 0.8907 0.8907 0.8907
3532.000000 0.8908 0.8908 0.8909 0.8909 0.8910
3537.000000 0.8910 0.8911 0.8912 0.8914 0.8915
3542.000000 0.8917 0.8919 0.8921 0.8922 0.8924
3547.000000 0.8925 0.8927 0.8928 0.8930 0.8931
3552.000000 0.8933 0.8934 0.8936 0.8937 0.8939
3557.000000 0.8939 0.8940 0.8940 0.8940 0.8940
3562.000000 0.8941 0.8941 0.8942 0.8942 0.8943
3567.000000 0.8943 0.8944 0.8944 0.8944 0.8944
3572.000000 0.8945 0.8945 0.8946 0.8945 0.8945
3577.000000 0.8945 0.8945 0.8944 0.8944 0.8943
3582.000000 0.8943 0.8943 0.8943 0.8942 0.8942
3587.000000 0.8941 0.8941 0.8941 0.8941 0.8940
3592.000000 0.8940 0.8939 0.8939 0.8939 0.8939
3597.000000 0.8938 0.8938 0.8938 0.8938 0.8938
3602.000000 0.8939 0.8939 0.8939 0.8939 0.8939
3607.000000 0.8939 0.8940 0.8940 0.8940 0.8940
3612.000000 0.8941 0.8941 0.8941 0.8942 0.8944
3617.000000 0.8946 0.8949 0.8951 0.8954 0.8957
3622.000000 0.8960 0.8962 0.8965 0.8967 0.8970
3627.000000 0.8966 0.8962 0.8958 0.8954 0.8949
3632.000000 0.8945 0.8940 0.8935 0.8929 0.8923
3637.000000 0.8917 0.8911 0.8907 0.8904 0.8905
3642.000000 0.8906 0.8906 0.8907 0.8907 0.8908
3647.000000 0.8908 0.8909 0.8910 0.8911 0.8911
3652.000000 0.8911 0.8911 0.8911 0.8911 0.8911
3657.000000 0.8911 0.8911 0.8911 0.8911 0.8911
3662.000000 0.8911 0.8911 0.8911 0.8911 0.8911
3667.000000 0.8911 0.8911 0.8911 0.8911 0.8911
3672.000000 0.8911 0.8911 0.8911 0.8910 0.8910
3677.000000 0.8910 0.8910 0.8909 0.8909 0.8909
3682.000000 0.8909 0.8909 0.8909 0.8908 0.8908
3687.000000 0.8908 0.8908 0.8908 0.8908 0.8907
3692.000000 0.8907 0.8907 0.8907 0.8906 0.8906
3697.000000 0.8905 0.8905 0.8904 0.8903 0.8902
3702.000000 0.8901 0.8900 0.8900 0.8899 0.8898
3707.000000 0.8897 0.8896 0.8895 0.8895 0.8894
3712.000000 0.8893 0.8892 0.8891 0.8890 0.8890
3717.000000 0.8889 0.8888 0.8887 0.8886 0.8885
3722.000000 0.8885 0.8884 0.8883 0.8882 0.8882
3727.000000 0.8881 0.8880 0.8879 0.8879 0.8878
3732.000000 0.8878 0.8877 0.8877 0.8876 0.8875
3737.000000 0.8874 0.8874 0.8873 0.8873 0.8872
3742.000000 0.8871 0.8870 0.8870 0.8869 0.8869
3747.000000 0.8868 0.8867 0.8866 0.8866 0.8865
3752.000000 0.8865 0.8864 0.8863 0.8862 0.8862
3757.000000 0.8861 0.8861 0.8861 0.8862 0.8862
3762.000000 0.8862 0.8862 0.8863 0.8863 0.8864
3767.000000 0.8864 0.8865 0.8865 0.8865 0.8865
3772.000000 0.8866 0.8866 0.8867 0.8867 0.8867
3777.000000 0.8868 0.8870 0.8871 0.8873 0.8874
3782.000000 0.8876 0.8877 0.8879 0.8880 0.8882
3787.000000 0.8883 0.8885 0.8886 0.8888 0.8889
3792.000000 0.8891 0.8892 0.8893
##END=
