##TITLE=Toluene
##JCAMP-DX=4.24
##DATA TYPE=INFRARED SPECTRUM
##CLASS=IUPAC A
##ORIGIN=NIST, Anayltical Chemistry Division, 301-975-3108
##OWNER=COPYRIGHT (C) 1998 by the U.S. Secretary of Commerce
##DATE=98/10/1
##$SPECTRA VERSION=1.00
##$UNCERTAINTY IN Y=2.4 % relative (B=1.4E-04,C=2.2E-09,D=2.7E-14)
##CAS NAME=Toluene
##CAS REGISTRY NO=108-88-3
##MOLFORM=C H3 C6 H5
##MP=-95 C
##BP=110.6 C
##$NIST SOURCE=QUANT-IR
##SPECTROMETER/DATA SYSTEM=IFS66V (Bruker)
##INSTRUMENT PARAMETERS=KBr Beam splitter; MCT Detector; Multipass cell
##STATE=gas
##SAMPLE DESCRIPTION=Toluene Primary Gas Standard
##PRESSURE=101.3 kPa
##TEMPERATURE=23 C
##SAMPLING PROCEDURE=1 L/min Flow
##RESOLUTION=0.9640
##DATA PROCESSING=Triangular Apodization
##XUNITS=cm-1
##YUNITS=(micromol/mol)-1m-1 (base 10)
##XFACTOR=1.0
##YFACTOR=4.5474E-13
##DELTAX=0.4820
##FIRSTX=575.169
##LASTX=3975.077
##FIRSTY=2.75E-07
##MAXX=3974.59
##MINX=575.17
##MAXY=.0006818
##MINY=-4.94E-07
##NPOINTS=7053
##XYDATA=(X++(Y..Y))
575.17 606604 834020 360482 467854 718760 143854
577.58-494836-459582-392146 54874 254868-465130
580.47-476290 240954-60036-536058-658452-691820
583.37-617124-638676-351682-52128-197454 132098
586.26-203212-1087278-338612 185162 117880 401828
589.15 963780 676624 49396 336064 132812-481782
592.04-137756 308622 35826 237430 326984-187202
594.94-74490 184356-13528 310048 861592 546164
597.83 55850 324652 250562 123004 313344 327306
600.72-39956-332282 57904 117514 169284 556162
603.61 654088 414388 377792 317690 361224 332794
606.51 440170 598588 400232 447038 593818 600920
609.40 973246 994582 803778 574426 432668 626948
612.29 550684 642862 534848 509540 746146 813956
615.18 979886 922858 779950 884852 1173738 1129242
618.08 991816 695088 539600 839090 861936 667728
620.97 771966 808270 625938 517240 461364 715216
623.86 968642 641808 429760 792408 1328842 1770632
626.76 2153192 2168130 2388896 2695508 2738008 2887852
629.65 2991196 2842740 2915652 3107024 2905528 2515406
632.54 2028418 1833470 1951990 1957428 2078460 2062460
635.43 1913134 1859460 2061356 2228844 2183624 2074088
638.33 1809622 1809060 1954792 1800388 1877014 1924038
641.22 1796238 1761310 1851784 2150002 2181686 1850962
644.11 1838196 1804456 1805260 1998188 2338586 2345614
647.00 2032616 1797654 1904380 1834420 1654816 1842826
649.90 2090690 2102916 1918236 1887020 2049372 2157662
652.79 2334976 2412206 2630486 2830696 2945136 3233442
655.68 3586476 3400392 3540738 4030036 4450286 4720776
658.58 5024584 5308022 5787714 6323660 6804242 7587888
661.47 8475926 9059164 9592062 10136810 11183510 12325990
664.36 13301660 14429980 16004950 17354060 18972450 20882040
667.25 22724190 24584170 26756620 28915980 31105240 33604010
670.15 37198980 41068320 45162090 48665880 52556940 56794470
673.04 61361260 65783480 69040460 72980000 78101270 83172720
675.93 88561310 93418900 99176540 105207000 112184800 120072900
678.82 128124000 138119300 153881100 163008100 158351200 153134400
681.72 153240700 152157300 151646000 151621100 152272200 153167200
684.61 155185900 156693800 158341800 158759100 160746200 161740800
687.50 164528900 165987800 171108000 180273000 193832700 186346700
690.40 177362600 181873400 211385300 237873800 301150700 455955800
693.29 918918700 1187691000 621483700 212841800 189189600 163185400
696.18 171785300 171498700 179211800 179093500 182506100 182605800
699.07 187020000 190082000 196043100 200956200 210460600 224422000
701.97 245323000 250554900 235237800 226525200 229158200 234739800
704.86 241912400 245685600 249509800 254843100 261615700 268236800
707.75 275422200 282409500 289400200 296469300 303963600 311552400
710.64 319721100 327402000 335113300 342689200 350072700 356646900
713.54 363145400 369421000 375563500 381609200 387205700 392995600
716.43 399344400 405498000 407761000 408749200 410672500 411937900
719.32 411393900 412196400 413519800 414838800 418384400 427178300
722.22 440551400 462663100 498079500 548738700 615252400 698442700
725.11 748326600 774308300 799038700 816015700 944718800 1277540000
728.00 1397803000 1498603000 1499418000 1033743000 727682800 639785500
730.89 601494400 538654500 472276300 454273300 438829600 430413900
733.79 425444900 424770100 422455200 420130300 416767500 416263600
736.68 414250800 410384900 406310700 402525200 397173200 391283400
739.57 384240300 376952000 368255000 359024400 349262100 338742800
742.46 326498500 313489200 299554800 285335200 271139900 256706700
745.36 241853000 227211900 212491900 198040800 183887000 170181000
748.25 157105900 144425900 132004500 120409600 109486000 99571580
751.14 90147100 81561860 73907660 66611590 59882870 54252000
754.04 49285650 43426550 37366930 32827030 29104010 25869230
756.93 23055000 20533170 18222850 16247800 14543160 13099960
759.82 11821330 10834410 9737726 8918072 8429542 7775900
762.71 6990018 6435376 6194810 5920274 5478096 5174136
765.61 5043720 4908834 4709112 4517794 4376798 4302626
768.50 4349086 4440906 4496144 4524240 4401220 4179572
771.39 4368462 4777928 4722818 4677866 4730868 4847718
774.28 5209988 5304128 5147732 5356454 5500348 5412956
777.18 5412990 5623626 5640298 5559784 5563366 5495606
780.07 5205980 4757804 4640162 4529114 4533410 4281126
782.96 3762982 3907200 4548778 5203224 6874650 8295314
785.86 5992654 3480716 3010866 3037114 3207590 3199224
788.75 3366944 3623172 3832708 3998580 4089876 4229416
791.64 4393698 4468636 4401244 4097928 3765672 3676660
794.53 3704906 3654922 3490502 3055196 2681088 2627214
797.43 2444276 2253982 2162718 1982296 1973598 1832856
800.32 1491762 1351920 1354390 1486188 1424304 1239230
803.21 1359716 1465572 1379582 1241532 1207950 1174774
806.10 1131228 1185234 1269920 1274904 1186190 1157000
809.00 1038728 1068104 1224608 1093332 1283748 1478114
811.89 1305084 1189692 1235932 1190798 896466 879834
814.78 945076 1065972 1054724 864142 881952 957868
817.68 1008458 902828 803174 827308 782056 920152
820.57 1103342 1004150 918370 1146068 1216578 824000
823.46 748654 871816 925634 1135122 1160318 1250748
826.35 1301948 998368 925600 1086018 1070644 1006462
829.25 978664 834858 784588 912192 926116 803526
832.14 789324 926836 932614 928902 1047946 1100910
835.03 1138940 1052526 907134 914842 804578 830530
837.92 865288 816120 1056478 1208782 1022524 819324
840.82 925128 905866 844772 1008216 1064882 1044726
843.71 935452 911932 1137498 1145994 968520 1126542
846.60 1316880 1186018 1171440 1448870 1588748 1526466
849.50 1596998 1587406 1553136 1543902 1634778 1822342
852.39 1735270 1608676 1534356 1669434 1821682 1825854
855.28 1871038 1931374 2102760 2090374 2002552 2169376
858.17 2261150 2196680 2281266 2395794 2415300 2424670
861.07 2461934 2390976 2310170 2273972 2277220 2472302
863.96 2603442 2621666 2575548 2575690 2662720 2694954
866.85 2741096 2865484 3071358 3137068 3060142 3051216
869.74 3151500 3262254 3399264 3581384 3628478 3727280
872.64 4171448 4898258 5146648 4638238 4241578 4177816
875.53 4258982 4366074 4535440 4763656 4849606 4968392
878.42 5076858 5179138 5332264 5429534 5577416 5722982
881.31 5778556 5799212 5944418 6150750 6273596 6316736
884.21 6383824 6498788 6592948 6510852 6548796 6750668
887.10 6919842 6987316 7108014 7252772 7336808 7402126
889.99 7615456 8165728 8848672 9750920 11217630 13167260
892.89 15986800 20196550 25668840 23937210 14592530 9747720
895.78 8623568 7862242 7735902 7743092 7933744 7895162
898.67 7536084 7242456 7172722 7110116 7031604 6929870
901.56 7100332 7243804 7207114 7188282 7082868 7114866
904.46 7211930 7297298 7409616 7359148 7322380 7193186
907.35 6990058 6865738 6750428 6749948 6675726 6473624
910.24 6443878 6437632 6259984 6210396 6317158 6357144
913.13 6305618 6401754 6540308 6652710 6831532 6775670
916.03 6724270 6773504 6816152 6985132 7062110 6956500
918.92 6900816 6949156 6971254 7064692 7111254 7099566
921.81 7409960 7836642 8348852 9493634 9956414 9550772
924.71 8869074 8167980 7997392 8035072 8242578 8436790
927.60 8614730 8837662 9037856 9084980 9030798 8989456
930.49 8985108 8963098 8946158 9064428 9048812 9012488
933.38 8967644 8676698 8240474 7686884 7312106 7198798
936.28 7156320 6982690 6795648 6684844 6565252 6496580
939.17 6487080 6355392 6292198 6265654 6146600 5998940
942.06 5878348 5700520 5475180 5279148 5095524 5021892
944.95 4951744 4873700 4638450 4471046 4442684 4345832
947.85 4201304 4147012 4143186 4060442 4009638 3958858
950.74 3970024 4093774 4140284 4021334 4064796 4162534
953.63 4262298 4415556 4490324 4522534 4562644 4595506
956.53 4625654 4649812 4742980 4935782 5059942 5203284
959.42 5249822 5292488 5317848 5253700 5398384 5574844
962.31 5654792 5860868 5953684 5809952 5710012 5803262
965.20 6044678 6121242 6044648 6050318 6193578 6296416
968.10 6565834 7145468 7808676 8243270 7797256 7185208
970.99 7086580 7303580 7637970 7454986 7027976 6870814
973.88 6779508 6731612 6758824 6827844 6793092 6602096
976.77 6582550 6794368 6812594 6788490 6681528 6667200
979.67 7074354 6965332 6569028 6433888 6206942 5903242
982.56 5768014 5706112 5490660 5383438 5382974 5362710
985.45 5352678 5241472 5194710 5219116 5147234 5082566
988.35 5032288 5057730 5095694 4958208 4834558 4735048
991.24 4650170 4568994 4535276 4550952 4636072 4685816
994.13 4634848 4620294 4598738 4517020 4454936 4432360
997.02 4351962 4310828 4252146 4209172 4163964 4049238
999.92 4061124 4146192 4197478 4282716 4247464 4209518
1002.81 4264424 4270638 4263644 4154492 4012020 3983070
1005.70 4133462 4331604 4529296 4701894 4806360 4839334
1008.59 4860662 4934972 5100816 5240286 5474646 5824852
1011.49 6126524 6452570 6794738 7194980 7753878 8556554
1014.38 9368184 10231310 11381620 12691000 14127760 15708720
1017.27 17561650 19602470 21855860 24349820 27016900 29930220
1020.17 32907600 35996810 39212180 42302860 45163490 48188850
1023.06 51186440 52631040 53201490 53979240 54726000 54329440
1025.95 52103750 49527660 47182750 44687020 42336120 40195940
1028.84 39460790 43038400 48364100 51288560 69637980 105974600
1031.74 96319290 55765420 39560120 35294020 36047000 38775740
1034.63 42347600 46136240 49898380 53331010 56085180 58120140
1037.52 59454300 59893870 59634960 58803720 57459650 55892020
1040.41 54002180 52383630 51076340 50734970 50641610 49506540
1043.31 50282010 49431970 44822070 41235520 39567060 37165630
1046.20 35201850 35686780 34511070 30570960 28019470 27753350
1049.09 27320410 26638770 26109300 25897520 26247550 27372830
1051.99 27603770 26614690 26687800 27476070 28545840 29671740
1054.88 30721020 30895050 30078340 29279880 28495100 28041320
1057.77 28026620 28338540 28625800 28760530 28981590 29198760
1060.66 29352110 29607410 29956310 30161270 30401080 30800610
1063.56 31252220 31744120 32318310 32967990 33671390 34400280
1066.45 35270790 36154390 37096880 38209650 39274740 40457070
1069.34 41563330 42674780 44208140 45596100 46736140 48201800
1072.23 49881800 51372770 52755360 54394990 55697870 56212760
1075.13 56323770 56839320 58568860 59644650 58506510 56488460
1078.02 54220640 51335720 47662160 43600940 39955160 37305040
1080.91 35793390 35431300 36502730 38509100 40895850 43607700
1083.81 46157760 48308260 50210250 51658030 52470460 53027280
1086.70 53411160 53243280 52516150 51659310 51017460 50177190
1089.59 48993830 47911380 46895280 45693410 44524320 43460160
1092.48 42177780 40848100 39818830 38885740 37924910 37141720
1095.38 36588300 35952720 35228180 34561100 33805940 33144160
1098.27 32232300 30870040 29398920 27911690 26378910 24727770
1101.16 22970070 21056270 19335750 18130460 17458690 17225430
1104.05 17342000 17711380 18221330 18903790 19646780 20177610
1106.95 20482720 20682430 20771260 20743050 20567370 20182650
1109.84 19836830 19533410 19093720 18748650 18430450 17754350
1112.73 16894190 16198670 15509860 14869790 14237970 13632760
1115.63 13059390 12457280 11919950 11353300 10782910 10216650
1118.52 9693120 9211424 8876912 8557564 8154792 7837640
1121.41 7551658 7271864 6973472 6673692 6343306 6014836
1124.30 5782864 5581394 5427312 5300006 5071390 4867850
1127.20 4737370 4588890 4502926 4479880 4482416 4504222
1130.09 4486586 4359564 4286930 4264554 4176668 4045176
1132.98 3954524 3943844 3938420 3928956 3882758 3788940
1135.87 3751388 3790970 3776888 3791962 3752004 3657822
1138.77 3560960 3522186 3488566 3404972 3361372 3329948
1141.66 3415522 3487310 3489766 3510134 3522492 3522342
1144.55 3521386 3614944 3678548 3677602 3746440 3747280
1147.45 3830416 3936220 3917118 3968484 3993086 4015476
1150.34 4156682 4165430 4110430 4195232 4292886 4303262
1153.23 4277088 4236304 4244316 4315854 4368254 4473388
1156.12 4673274 4767736 4853334 4999790 5008274 4993100
1159.02 5057068 5125426 5139672 5156398 5171626 5172558
1161.91 5179138 5203462 5259548 5201480 5139638 5331530
1164.80 5550270 5626876 5630998 5546766 5412830 5334134
1167.69 5396742 5606462 5878988 6089522 6254112 6399698
1170.59 6551990 6580166 6523772 6509414 6447326 6356286
1173.48 6231546 6005210 5858782 5731580 5530630 5426028
1176.37 5501332 5660378 5789526 5990962 6355038 6724994
1179.26 6112626 5414926 5282644 5176942 5123674 5130454
1182.16 5265108 5383732 5548758 5769124 5886912 5901204
1185.05 6043806 6104218 6034828 5995406 5967898 5782626
1187.94 5601798 5511830 5324826 5160184 5006558 4881638
1190.84 4845452 4903554 5050522 5437868 5816482 5479834
1193.73 5090016 5012614 4988854 5114010 5286062 5459124
1196.62 5770692 6207782 6607040 6934546 7288834 7727148
1199.51 8146530 8571064 8887332 9131240 9415846 9671504
1202.41 9887450 10000080 10086200 10201350 10216000 10146760
1205.30 10056800 9939508 9812334 9585980 9351908 9301566
1208.19 9347402 9390898 9563784 10016610 10652760 11029570
1211.08 11355080 12238200 13277430 13036690 10992930 9128410
1213.98 8673708 8903988 9368612 9897404 10342550 10806110
1216.87 11166480 11413620 11534900 11467600 11318560 11032490
1219.76 10624790 10189630 9621242 9033068 8537242 8025098
1222.66 7469754 6965392 6543408 6158858 5817526 5425858
1225.55 5138442 5066132 4995218 4828930 4777840 4770208
1228.44 4798256 4868552 4915222 5091348 5390224 5581626
1231.33 5772318 5925638 6007996 6111446 6158108 6236552
1234.23 6342218 6352920 6250808 6250262 6280694 6245404
1237.12 6176994 6048434 5968530 5986126 6178598 6379206
1240.01 6717778 7259220 8165694 8319560 6952360 6100478
1242.90 6180498 6327608 6324198 6384080 6476874 6624592
1245.80 6968050 7382304 7603822 7311880 7010184 6891660
1248.69 6706816 6499812 6311424 6123482 5882056 5646888
1251.58 5359556 5105792 4924380 4682010 4452042 4240120
1254.48 4059842 3898506 3729220 3539116 3429902 3439290
1257.37 3400868 3301316 3199440 3095304 2986976 2817426
1260.26 2676716 2606776 2556310 2499464 2454730 2444870
1263.15 2423680 2342170 2204888 2115954 2111800 2097082
1266.05 2101136 2060196 1941394 1883524 1779936 1751982
1268.94 1771370 1765274 1769114 1719794 1763566 1828356
1271.83 1849628 1804444 1788866 1738090 1685906 1759344
1274.72 1764164 1789732 1839686 1830058 1857970 1925756
1277.62 1949516 1952032 1931706 1913962 1959880 2001436
1280.51 2024980 2055910 2114840 2125566 2156120 2219706
1283.40 2277654 2425608 2537630 2548572 2576952 2599630
1286.30 2683240 2761948 2820034 2872340 2875434 2998154
1289.19 3075582 3114322 3211986 3258090 3266326 3265034
1292.08 3277444 3359606 3468536 3451556 3427550 3494574
1294.97 3523170 3552536 3664058 3814016 3945896 4121360
1297.87 4333848 4477232 4633642 4846810 5085436 5257786
1300.76 5378902 5588204 5767362 5814634 5839816 5909816
1303.65 6032032 6070018 6015438 5988228 5925456 5782730
1306.54 5607532 5361616 5134698 4934078 4760554 4675860
1309.44 4572286 4550198 4623354 4789172 5015726 5210176
1312.33 5468894 5762222 5892076 6006286 6128802 6152512
1315.22 6129946 6130220 6171466 6137586 6034072 5892996
1318.12 5803592 5695298 5619428 5582310 5409004 5298840
1321.01 5254036 5145074 4978226 4938496 5056948 5040880
1323.90 4962938 4925668 4856736 4781200 4629724 4438248
1326.79 4299320 4236146 4234214 4244034 4216760 4154348
1329.69 4098550 4050018 4073584 4091266 4196334 4361908
1332.58 4360018 4355152 4388210 4350660 4226226 4131236
1335.47 4167344 4208502 4244554 4311920 4384742 4409376
1338.36 4431670 4487988 4535930 4578884 4728622 4797760
1341.26 4826030 4923472 4962016 5073298 5170990 5234396
1344.15 5267636 5325652 5405076 5466248 5609058 5747332
1347.04 5879342 6055544 6189876 6323200 6462148 6533296
1349.94 6672268 6810218 6942040 7077624 7184418 7319722
1352.83 7495134 7684428 7867388 8161956 8485872 8946798
1355.72 9297922 9118768 8828110 8649948 8701898 8941042
1358.61 9161356 9361554 9591300 9809254 9933678 10287940
1361.51 10699000 10933300 11189740 11523250 11780530 11966310
1364.40 12251030 12595950 12974220 13388330 13844630 14407830
1367.29 15041030 15595630 16102060 16617160 17027520 17632210
1370.18 18482610 19131640 19725910 20409300 21058040 21898620
1373.08 22612650 23215510 23871870 24470660 25244970 25922970
1375.97 26571090 27252440 27761710 28001740 28110520 28152630
1378.86 28296900 28630520 28990540 29688070 30738060 31870010
1381.76 33422340 36473440 41762520 46180860 43727860 37799680
1384.65 35020060 34388230 34217010 34698700 35702850 36813910
1387.54 38147860 39178750 39616060 39817690 39968620 39672620
1390.43 38912060 37956760 36843370 35414340 33748310 32222850
1393.33 30770380 29132670 27788920 26739590 25550490 24492930
1396.22 23421240 22247290 21162920 20406180 19823860 19194720
1399.11 18812070 18486810 18178790 17919250 17696350 17560950
1402.00 17634720 17992660 18276930 18459770 18523520 18490580
1404.90 18664060 18998850 19595370 21047500 21287290 19532470
1407.79 18235220 17765550 17725190 17768420 17735950 17865060
1410.68 18191250 18583440 18985250 19362780 19714470 20108350
1413.58 20514870 20798530 21101480 21580350 22132620 23140900
1416.47 24291200 24973190 25232790 25465580 26200110 26960280
1419.36 27956060 29435540 31291140 32383660 31372900 29823280
1422.25 28290660 26478550 24861260 24264270 24214970 23786360
1425.15 23293700 22877700 22757950 22936140 23170440 23409340
1428.04 23805600 24419510 25072640 25441150 26070800 26830820
1430.93 27198660 27619750 28346720 29142770 29593820 29891700
1433.82 30225140 30463120 30717530 31175150 31629040 32250620
1436.72 33634060 35213900 36800890 38496930 40082020 41588510
1439.61 43576620 46427270 48376870 48434700 48237090 48975980
1442.50 50340350 51767100 53270140 54945260 56491800 58007600
1445.40 59720310 61278030 62831320 64335730 65794880 67785260
1448.29 69809480 71283610 72008980 72584790 73280730 73362700
1451.18 72898110 72351800 71735590 70641560 69578020 69659890
1454.07 69969110 70389910 71489380 72003700 71459880 71371850
1456.97 73676910 75535160 75411300 75194540 75412050 76506680
1459.86 77844390 78950410 79723250 80288260 80928380 83202350
1462.75 86477830 84154380 78037760 74013350 71828880 70682700
1465.64 69465660 68755760 69371750 69854830 70017250 71088140
1468.54 72688260 74674730 77025370 78960400 79965080 79844890
1471.43 78945590 78532370 77839080 75498540 73376460 72330480
1474.32 71341740 70217170 69010360 67887770 67431270 67806220
1477.21 67592930 66146310 64865130 64310740 64196980 64470990
1480.11 65554270 67235980 69498650 72383140 76040790 80375760
1483.00 84809590 89476360 95518800 103244900 112869000 121895800
1485.89 128104500 134193300 141473600 149228000 157344900 166007400
1488.79 174644400 182947700 191126300 198938800 206401000 212395500
1491.68 215422900 215814500 215334900 213643500 210575600 205984000
1494.57 200670700 196589200 195154400 198149000 205712900 212125300
1497.46 215451900 214521800 218301100 238977600 280701000 305207700
1500.36 258621500 202329900 181237000 175614200 180116200 189000300
1503.25 199848600 208405900 215262400 220359900 224266700 226997400
1506.14 226700100 223456600 218851200 212195900 203630900 193686500
1509.03 182151000 169721400 157872300 146184500 135027100 124625200
1511.93 115133700 106684800 98793140 91704580 85624630 80175630
1514.82 75850630 72846260 70624020 68494510 66047000 63863870
1517.71 61641060 58389710 54834990 51846510 49344830 47296340
1520.61 45158850 44184850 44219920 44136040 45080670 46740570
1523.50 49090950 51591910 52359610 50103220 48395060 48949740
1526.39 48444650 46294770 44633610 44042520 43837240 43872370
1529.28 44018600 44037710 43893420 43543390 42892570 42289810
1532.18 41650680 40961020 40461820 40897160 42284300 42656380
1535.07 41205780 39628610 39249520 39336240 38075410 35832770
1537.96 34242370 32744460 32478370 32306320 31489330 31526990
1540.85 31326270 30581980 30342140 30562030 30206300 29506280
1543.75 28827540 27958590 27099870 26540500 25734450 24920220
1546.64 24247590 23588430 23094890 22775340 22513080 22223890
1549.53 22101780 22334690 22749030 22742430 22233940 21868940
1552.43 21753490 21763510 21627530 21572060 22305640 23014090
1555.32 23429390 23752590 23988980 23899800 24097170 24038290
1558.21 24088780 24920160 24760040 24266450 24788450 25341740
1561.10 25260670 24986850 24564810 24088600 23657650 23298070
1564.00 22583460 21638760 20857430 20236890 19822400 19541510
1566.89 19446780 19610050 19823120 20267880 20948110 21736480
1569.78 22980940 24110750 24868200 25541420 26201670 26532590
1572.67 26393140 26214750 26021180 25721620 25504160 24940500
1575.57 23846900 24016550 24567880 24304720 24051730 23743950
1578.46 23411040 23025800 22620850 22211260 21717300 21223040
1581.35 20737700 20269790 19943760 19658310 19457800 19550130
1584.25 19938280 20551100 21232810 22291090 23786340 25242160
1587.14 24811390 22402410 21535320 22275720 23343000 24674000
1590.03 26220110 27996910 29907550 31922820 34040080 36236060
1592.92 38594940 41219690 44011270 46934400 49842610 52891330
1595.82 56150280 59575440 63138060 66830240 70534150 73985100
1598.71 77252460 80453280 83824100 86447830 87509100 88021770
1601.60 89006260 89821780 89892890 89656080 89929250 90705630
1604.49 91834080 94292350 97843020 100907100 103477100 104008300
1607.39 103748800 109668300 128931100 150975600 136840100 108235200
1610.28 100212900 99426100 101322200 103977100 106753800 109461600
1613.17 111739900 112894300 112940400 112664900 111237100 107097700
1616.07 101711500 98389720 95588040 90681780 86611950 85362690
1618.96 87822120 94069790 91647960 78198860 68173420 64519860
1621.85 62341680 58767300 55919120 54549000 53211660 51914080
1624.74 50565020 49043870 47499750 45831240 43953800 41884620
1627.64 39783540 37584920 35132850 32579670 30014430 27582680
1630.53 25199550 22924410 20770480 18641130 16707080 15010570
1633.42 13464340 11937080 10534420 9019874 8096760 7970398
1636.31 7456692 6812834 6372240 6121452 5900626 5578302
1639.21 5255532 5025754 4822646 4665118 4607380 4500234
1642.10 4395988 4323910 4201488 4132448 4129950 4147418
1644.99 3787482 3343548 3798688 4046434 3831016 3812212
1647.89 3851832 3943270 4012396 3995988 3949674 3971692
1650.78 4084824 3816590 2888404 2561244 2392820 2817490
1653.67 3210624 3030336 3304442 3357032 3238350 3173884
1656.56 3239330 3294076 3444218 3625868 3751902 3921450
1659.46 4124224 4219578 4277878 4339382 4381662 4258518
1662.35 4076142 4308340 4474656 4408184 4402366 4405686
1665.24 4367976 4398644 4461712 4446370 4410120 4262034
1668.13 4162882 3753814 3638374 3994476 4016350 3864414
1671.03 3722150 3730232 3753382 3684270 3775294 3826758
1673.92 3570772 3212844 3265014 3681248 3860024 3890664
1676.81 3933620 3901100 3893940 3961714 4045194 4093032
1679.71 4161552 4222974 4283210 4269612 4235180 4120990
1682.60 3847896 3733806 3646884 2794268 2621030 3641238
1685.49 3900036 3772458 3636680 3500644 3375808 3259256
1688.38 3253328 3279396 3178590 3098642 3148058 3181824
1691.28 3252684 3289746 3316608 3408138 3548552 3638148
1694.17 3571222 3369272 2586212 2619328 3814566 4309832
1697.06 4573780 4834898 4419212 3914016 3287706 2527134
1699.95 2411028 2729966 3243756 3505158 3561724 3541306
1702.85 3556992 3535632 3360840 3466422 3697292 3702238
1705.74 3532746 3620414 3902434 3963878 3924132 3920476
1708.63 3938864 4042044 4076016 4120588 4295918 4458524
1711.53 4592680 4698414 4815230 4888956 4879040 5026752
1714.42 4999232 5177048 5653116 5917576 5799558 5322830
1717.31 5977656 6637200 6846626 7470888 7898856 8211430
1720.20 8554676 8916582 9298520 9698740 10053190 10373760
1723.10 10739520 11142820 11443080 11683890 11902360 12094160
1725.99 12167070 12047940 11897050 11799770 11595640 11241040
1728.88 10781240 10211740 9717622 9307934 8768990 8298342
1731.77 8060870 7867282 7489778 7970338 8561932 9045188
1734.67 10433470 11516000 12207060 12534430 12578920 12528650
1737.56 12303800 12038930 11654930 10872190 10287070 10160430
1740.45 9912490 9525802 9069692 8604358 8064842 7650500
1743.34 7293594 6895116 6539160 6151520 5817216 5530308
1746.24 5179970 4909336 4761980 4448026 4101942 3973160
1749.13 3832354 3636562 3380692 2883012 2741326 2998020
1752.02 2984284 2880312 2806930 2767558 2786596 2798996
1754.92 2781616 2786074 2634066 2513556 2749482 2868280
1757.81 2917660 3062442 3220022 3382066 3454770 3521802
1760.70 3482472 3268158 3387380 3716106 3945316 4126386
1763.59 4253738 4445242 4680738 4884072 4946846 5029580
1766.49 5180464 5234772 5117046 5328228 5756980 5865560
1769.38 5951076 6108180 6205440 6302696 6677562 6784732
1772.27 6905860 7666560 7958900 7849398 7954966 8009444
1775.16 8019920 8190364 8428636 8633976 8978514 9398366
1778.06 9818166 10339760 10939210 11214980 11060650 11019690
1780.95 11151600 11390450 11750310 12144850 12608200 13067440
1783.84 13439100 13717040 14266950 14997160 15733720 16606850
1786.74 17407540 18030130 18657160 19445810 20430820 21552590
1789.63 22676280 23686050 24390580 25011920 25488590 25546960
1792.52 25923070 26348100 26401510 26424300 26482080 26464550
1795.41 26338890 25849680 24633450 23286290 22146120 21543790
1798.31 22194880 24624950 29544850 37672920 43335940 35775500
1801.20 23420430 18970980 18728310 19424600 20398340 21485380
1804.09 22770120 23956670 24987340 25896380 26503070 26763530
1806.98 26740030 26530920 26174950 25528430 24577580 23272110
1809.88 21724900 20247860 18907860 17597690 16290280 15088630
1812.77 14064320 13029630 12011030 11181450 10423180 9644392
1815.66 8972728 8413782 7869620 7437764 7157462 7031594
1818.56 7051522 7157702 7448800 7765436 7913462 8065094
1821.45 8156792 8154932 8145308 8060232 7916336 7785722
1824.34 7526030 7324962 7376778 7286968 7090166 6986504
1827.23 6864502 6697308 6533794 6439746 6349492 6188794
1830.13 6236504 6352718 6436294 6481338 6495792 6591964
1833.02 6695158 6777446 6849400 6948560 7058528 7226110
1835.91 7470436 7717240 8019200 8326064 8684546 9121600
1838.80 9538998 9947868 10391170 10888210 11393110 11886410
1841.70 12486250 13120090 13775270 14340380 14740660 15693770
1844.59 16828850 17689640 18450870 19075600 19771900 20405450
1847.48 20952440 21540440 22020720 22429970 22663560 22701290
1850.38 22699600 22454440 21988300 21410950 20689360 19864010
1853.27 19046990 18234020 17339890 16585220 16233000 16360490
1856.16 17021340 18264480 20060610 22315550 24855350 27117150
1859.05 28801260 30122330 31090330 31648180 31932090 32101300
1861.95 32100830 31737330 31202020 30751480 30319710 29687210
1864.84 28831030 27932970 27032330 26070610 25227980 24302280
1867.73 23389710 22615940 21382640 20542820 20398540 20518560
1870.62 21038160 21824630 22823820 22397330 19498480 16606080
1873.52 15215940 14729980 14821520 15120940 15501820 15924250
1876.41 16227730 16469080 16596580 16521650 16281120 15854460
1879.30 15299550 14635230 13823310 12938810 12050160 11144090
1882.20 10189120 9294544 8510752 7743782 7062264 6458246
1885.09 5928416 5517388 5139216 4815574 4523676 4248726
1887.98 4020976 3833650 3628362 3567484 3595192 3539084
1890.87 3451478 3383682 3337848 3221256 3166014 3139124
1893.77 3097970 3093054 3063678 3056220 3046962 3032356
1896.66 3096212 3126512 3092156 3026616 2926500 2794164
1899.55 2717964 2697626 2690746 2698812 2716002 2787330
1902.44 2880856 2866732 2704028 2569768 2492344 2439900
1905.34 2490654 2550696 2614392 2672254 2691012 2693386
1908.23 2751236 2809880 2817658 2892604 3000672 3099262
1911.12 3136834 3212082 3337762 3423666 3510794 3626420
1914.02 3753834 3885886 4015342 4194582 4383892 4571518
1916.91 4738990 4804148 5071430 5462526 5734978 6002326
1919.80 6324304 6650402 7030702 7431774 7770420 8201678
1922.69 8733926 9350644 9942872 10555850 11288550 12100280
1925.59 12854370 13337690 13801980 14514400 15355210 16224040
1928.48 17154420 18129400 19164250 20166130 21172010 22235910
1931.37 23214030 24137550 24910870 25529880 26143450 26613450
1934.26 26877890 26980420 26978780 26861720 26540570 26064150
1937.16 25506950 24938320 24245820 23420910 22593680 21871400
1940.05 21354960 21149490 21338340 21943470 23063050 24765250
1942.94 26919430 29269730 31391530 33058010 34306830 35126680
1945.84 35679760 36045720 36101470 35808670 35281150 34711250
1948.73 34015600 33289590 32505240 31561800 30648120 29702790
1951.62 28884600 28122040 27052150 25691270 24487670 23631840
1954.51 22867830 21900370 20834040 19953180 19684900 20212790
1957.41 21387930 22293610 20923090 17927460 15515430 14156730
1960.30 13554710 13444110 13614500 13787730 13941690 14093540
1963.19 14135220 14093230 13945410 13605710 13114100 12513580
1966.08 11847530 11094090 10253610 9460256 8697576 7939288
1968.98 7215376 6528546 5885488 5320302 4801734 4329660
1971.87 3930100 3544470 3233552 2966046 2722610 2599914
1974.76 2487956 2336818 2230870 2139448 2055064 1979232
1977.66 1944798 1990606 2025950 2022064 2062872 2150864
1980.55 2239420 2367736 2503778 2616592 2820588 3090342
1983.44 3351768 3378396 2994578 2617470 2511530 2536442
1986.33 2577698 2590328 2595422 2612906 2676760 2733498
1989.23 2837690 2961392 3014550 3010644 2919554 2940950
1992.12 3019222 2954204 2847326 2845836 2936340 3033008
1995.01 3027372 2825334 2611496 2530796 2581574 2685476
1997.90 2761572 2785858 2806502 2816024 2802232 2854898
2000.80 2885522 2850126 2841318 2828658 2768550 2665126
2003.69 2543854 2483758 2415278 2337212 2260442 2174912
2006.58 2140962 2097908 2037380 2014228 2020658 1951202
2009.48 1953570 2079050 2196078 2173828 2018704 1866310
2012.37 1781658 1791662 1733972 1660570 1631060 1563098
2015.26 1556078 1550012 1540932 1593532 1579750 1537234
2018.15 1560294 1546236 1478206 1429276 1385474 1341346
2021.05 1298088 1260756 1272176 1297240 1296682 1288740
2023.94 1292836 1262224 1188570 1154476 1113332 1021582
2026.83 973406 936256 890024 922084 889778 830094
2029.72 810910 781996 754998 748980 752926 710068
2032.62 668722 636878 631138 613142 564456 569808
2035.51 536460 517458 497342 387238 325318 352662
2038.40 406100 403012 425040 397734 323188 291408
2041.29 291600 289878 323644 352786 338082 328758
2044.19 287270 237568 230594 265136 302190 304284
2047.08 249180 267614 246844 201140 204680 191624
2049.97 215340 229664 178150 209256 257016 218746
2052.87 249890 282698 282468 283670 347720 384516
2055.76 346584 347966 334420 304990 334252 365946
2058.65 341470 356554 375236 329196 320204 271692
2061.54 212128 195300 160916 173144 277452 432574
2064.44 477680 490870 538542 498924 474386 531940
2067.33 520208 522528 555622 504212 459420 416060
2070.22 378260 416872 498848 526334 470706 455114
2073.11 479106 464860 462420 495796 494778 469630
2076.01 481060 505468 556906 578196 566872 598510
2078.90 674012 681232 612800 522646 496468 568844
2081.79 515636 463394 481988 414246 394274 387878
2084.69 398652 417642 387808 410426 428900 428212
2087.58 392338 424444 503624 467952 446814 454278
2090.47 469200 468038 492270 518752 429214 400326
2093.36 392452 352764 414212 449850 393638 380886
2096.26 407344 435312 456764 442964 482534 537118
2099.15 516374 442490 409402 413070 421582 468950
2102.04 465800 432176 432416 457746 501498 510530
2104.93 490172 496582 463428 399864 447766 516220
2107.83 555866 531282 477242 518112 500886 472066
2110.72 570432 658620 642258 634402 640286 589016
2113.61 538892 531558 587910 603202 551264 556830
2116.51 560262 554134 544618 556638 550792 542360
2119.40 581114 619946 650826 692006 686126 666822
2122.29 652030 660340 696622 643022 614584 650560
2125.18 682690 707358 659332 639406 690866 715920
2128.08 717810 638764 613552 669270 679466 610842
2130.97 592594 599128 601706 644862 674356 741300
2133.86 715020 666278 693156 662918 583366 575952
2136.75 586910 543936 478374 473998 516582 508330
2139.65 492268 489132 477158 446016 457316 473800
2142.54 470134 472282 492012 492936 513318 558992
2145.43 539152 519104 556152 604804 589118 584250
2148.33 599042 582976 610162 675184 695826 690846
2151.22 723428 780750 846844 883428 983932 1066168
2154.11 1117774 1160974 1167614 1245300 1381314 1451432
2157.00 1521472 1652718 1712730 1778418 1869032 1874896
2159.90 1890884 1966264 2073944 2182544 2180074 2178854
2162.79 2232396 2243414 2245484 2253476 2299688 2337204
2165.68 2290136 2344942 2542246 2810974 3072130 3073658
2168.57 2789244 2513134 2340274 2308210 2401792 2526144
2171.47 2624774 2693430 2830564 2919002 2953128 2993890
2174.36 2964722 3009194 3099226 3006854 2875522 2783750
2177.25 2763246 2745766 2609090 2471660 2354582 2254616
2180.15 2149296 2111620 2036982 1919104 1918718 1912312
2183.04 1793876 1676072 1639632 1560408 1457568 1436984
2185.93 1449988 1430978 1400284 1385770 1411600 1445344
2188.82 1424520 1426968 1463848 1516346 1607004 1666756
2191.72 1714516 1668996 1553846 1518396 1550960 1522668
2194.61 1415428 1417954 1446812 1430374 1368620 1290164
2197.50 1288364 1295056 1299566 1295466 1282438 1222522
2200.39 1155182 1176960 1178972 1130922 1115174 1161046
2203.29 1206966 1166494 1086522 1104470 1079692 1027042
2206.18 1075152 1094186 1063106 1094876 1160366 1200528
2209.07 1216310 1184960 1087110 1037208 1053742 1021476
2211.97 988218 1031732 1097358 1056878 1049950 1127890
2214.86 1174604 1150912 1127818 1158690 1174826 1178584
2217.75 1167568 1115528 1036898 1010054 1007298 986442
2220.64 1028690 1036502 1031104 1096192 1145324 1124442
2223.54 1026310 965938 966690 1002444 1038372 1007416
2226.43 1007942 1031712 1012022 1006552 1020168 1030818
2229.32 1061016 1131076 1137356 1093000 1092382 1075384
2232.21 1046892 1012090 1021718 1023624 1018300 1060628
2235.11 1064926 1095258 1172268 1222542 1270282 1208776
2238.00 1104518 1104858 1122314 1214520 1275142 1276664
2240.89 1317132 1340628 1375450 1471312 1474492 1449454
2243.79 1532178 1585652 1618318 1621488 1662482 1729720
2246.68 1692250 1682674 1750346 1852804 1990624 1996842
2249.57 1989870 2029310 2044240 2059542 2069070 2132370
2252.46 2193880 2202808 2187460 2208364 2249664 2309984
2255.36 2337906 2323684 2356758 2343910 2310620 2274982
2258.25 2219548 2225116 2240032 2240198 2187902 2168342
2261.14 2242696 2283160 2282046 2304506 2320716 2324428
2264.03 2423926 2495304 2507032 2545544 2589608 2624224
2266.93 2624756 2609190 2646592 2689132 2769020 2831850
2269.82 2790008 2746574 2764364 2799320 2798008 2800450
2272.71 2758364 2762284 2866038 2965744 3043266 3073888
2275.61 3048012 3088182 3137856 3171716 3188684 3173052
2278.50 3166692 3138912 3107872 3064386 3025876 2998314
2281.39 2964192 2941650 2884240 2833230 2898976 2969148
2284.28 3028264 3020284 2948612 2919690 2900816 2889890
2287.18 2924420 2976080 3004548 3049410 3073218 3085100
2290.07 3079218 3086862 3091406 3096982 3066704 2957930
2292.96 2834394 2740734 2750598 2792324 2827200 2836732
2295.85 2841196 2838108 2829554 2863330 2859298 2871050
2298.75 2943990 3006636 3031938 3087386 3204568 3277766
2301.64 3297572 3362088 3451990 3588476 3721958 3832170
2304.53 3873256 3886276 3955140 3965550 3952782 3900506
2307.43 3797184 3743142 3685176 3643122 3580428 3548770
2310.32 3624612 3680440 3771990 3904242 4005932 4558482
2313.21 4945738 4524936 4285622 4212380 4105664 4031542
2316.10 3973086 4049888 4153674 4192744 4312388 4576108
2319.00 4711616 4675226 4603564 4661134 4685512 4609054
2321.89 4584056 4695898 4681966 4433742 4387130 4500854
2324.78 4371808 4164690 4181378 4309566 4297854 4129208
2327.67 4207802 4454836 4411786 4262090 4424178 4610338
2330.57 4407576 4237380 4404126 4433664 4135448 4041712
2333.46 4225268 4130188 3853246 3897486 4057440 3946086
2336.35 3866952 4132606 4300372 4122594 4097202 4397876
2339.24 4484348 4396268 4608534 4757814 4656966 4778358
2342.14 5036006 4981806 4948784 5098444 5091078 4965600
2345.03 4920644 4929024 4813244 4680842 4639586 4524828
2347.92 4414956 4429618 4440408 4399384 4351698 4362710
2350.82 4525674 4566080 4494590 4654428 4733416 4631802
2353.71 4738754 4818608 4758566 4979786 5055154 4898578
2356.60 5087164 5072570 4860682 5012488 4919908 4671458
2359.49 4784170 4575398 4351664 4400984 3977758 3836018
2362.39 3845440 3410004 3458178 3490718 3382240 3668814
2365.28 3642688 3775916 4069450 4086636 4308908 4320824
2368.17 4287022 4281860 4061450 4072598 3948396 3830320
2371.06 3754306 3565200 3534304 3410084 3306768 3085956
2373.96 2928348 2870116 2701086 2659258 2629218 2601192
2376.85 2618622 2616606 2523424 2490342 2475188 2476700
2379.74 2533054 2534154 2551936 2577992 2567338 2598602
2382.64 2583558 2501402 2481132 2504070 2522256 2516916
2385.53 2541872 2464736 2419920 2448302 2468780 2500766
2388.42 2578348 2627078 2611918 2698696 2737244 2725010
2391.31 2740350 2683572 2632430 2642542 2641534 2682460
2394.21 2741666 2772006 2832982 2854920 2828966 2809930
2397.10 2837808 2856458 2814598 2863160 2919304 2943850
2399.99 3052634 3204954 3270552 3189916 3103846 3126904
2402.88 3236082 3284856 3256396 3321970 3417210 3467410
2405.78 3485580 3506250 3588398 3620760 3607808 3629694
2408.67 3654330 3656912 3616728 3622086 3621558 3642024
2411.56 3758246 3885864 4049362 4232454 4239362 4062598
2414.46 3941422 3924756 3998376 4091116 4195700 4279736
2417.35 4337332 4329008 4323834 4326784 4342042 4352406
2420.24 4314782 4432478 4573318 4630504 4599972 4454228
2423.13 4308416 4153312 4012776 3962042 3905640 3832542
2426.03 3763124 3753756 3691430 3611932 3588924 3488786
2428.92 3445056 3403016 3409060 3444750 3221264 2980516
2431.81 2872750 2811152 2781896 2765228 2725774 2641884
2434.70 2610496 2652496 2600258 2540428 2585286 2474544
2437.60 2325190 2270138 2239744 2258790 2199892 2177860
2440.49 2184704 2113334 2112718 2091134 2081678 2056724
2443.38 1998146 1967678 1891812 1867734 1890866 1931474
2446.28 1955398 1887506 1870160 1904626 1873938 1876432
2449.17 1895954 1881594 1881472 1902816 1921152 1925104
2452.06 1921362 1906226 1925562 1928896 1930286 1927072
2454.95 1959976 2024484 1995016 1995512 2045766 2082836
2457.85 2098012 2079460 2144264 2178748 2175496 2177102
2460.74 2226788 2252472 2138078 2142988 2117392 2115368
2463.63 2166856 2181732 2210496 2215462 2252046 2260372
2466.52 2269466 2230820 2182910 2205858 2215536 2134254
2469.42 2114624 2149892 2192816 2208710 2125274 2096278
2472.31 2061490 2068074 2101540 2063074 2033004 2027486
2475.20 2012898 1939030 1932394 1952966 1925168 1961774
2478.10 1960386 1882448 1849930 1870730 1850382 1806020
2480.99 1767718 1780356 1773738 1723018 1702416 1782420
2483.88 1816716 1730912 1709580 1698900 1698474 1751668
2486.77 1831656 1838612 1763554 1772048 1810250 1813866
2489.67 1852188 1874634 1884344 1894312 1856574 1876410
2492.56 1884880 1903170 2000716 1996298 1994132 2059616
2495.45 2118186 2103642 2099724 2115400 2114568 2113386
2498.34 2065102 2108276 2198486 2265444 2265540 2174416
2501.24 2115950 2104520 2114274 2122284 2061798 2065418
2504.13 2094152 2050374 2063708 2072640 2016930 2029060
2507.02 2072432 2046886 2010136 2031966 2116628 2137126
2509.92 2102334 2077682 2078566 2001652 1905948 1894498
2512.81 1905460 1920706 1879984 1833712 1803942 1790158
2515.70 1796804 1793274 1741716 1707234 1729590 1735336
2518.59 1766284 1689346 1622586 1655948 1694050 1660854
2521.49 1605200 1646252 1579870 1564564 1622792 1598738
2524.38 1561720 1544716 1594750 1694750 1725072 1664326
2527.27 1615604 1588042 1613164 1663968 1645806 1550704
2530.16 1581788 1686328 1633206 1578394 1566710 1610972
2533.06 1708698 1742924 1777450 1780058 1762164 1725672
2535.95 1682230 1676452 1652840 1666784 1629934 1590192
2538.84 1610520 1636192 1634146 1565640 1544744 1580806
2541.74 1615616 1607468 1598364 1633284 1666078 1654424
2544.63 1639812 1620314 1598758 1532246 1514452 1589062
2547.52 1624114 1593720 1620142 1681906 1671552 1684052
2550.41 1642710 1671072 1726184 1692820 1671910 1569376
2553.31 1578800 1607472 1534240 1523716 1470378 1452638
2556.20 1413220 1341318 1354338 1353600 1374132 1418340
2559.09 1387492 1370526 1430690 1484120 1472916 1475020
2561.98 1470312 1386550 1337586 1395690 1454598 1517762
2564.88 1537478 1511832 1543406 1604484 1636212 1667016
2567.77 1714936 1711192 1752680 1819034 1846484 1848704
2570.66 1847142 1911420 1983114 2023136 2021584 2035218
2573.56 2145492 2291872 2314716 2288360 2362924 2417212
2576.45 2510110 2596466 2703780 2816418 2907158 3041528
2579.34 3162376 3325402 3495198 3637640 3826244 4062346
2582.23 4115628 4105010 4210052 4279846 4312410 4473592
2585.13 4623726 4704516 4799356 4819888 4840222 4929606
2588.02 4966600 4932502 4975740 5021786 5003830 4979876
2590.91 5007818 5087518 5242666 5387542 5437268 5491760
2593.80 5527728 5412064 5273626 5358018 5618950 5803176
2596.70 5901454 6010154 6065184 6040132 6031766 6055204
2599.59 6020338 5921090 5750836 5621208 5533030 5313492
2602.48 5089118 4929822 4681112 4476490 4297204 4095956
2605.37 3999998 3949884 3774348 3617652 3565422 3494996
2608.27 3446456 3378124 3374178 3395390 3438584 3552902
2611.16 3495792 3351204 3255226 3088810 3041368 3044178
2614.05 2969930 2961416 2934224 2929490 2958716 2958578
2616.95 2948474 2899778 2866928 2879232 2857478 2821718
2619.84 2870200 2906300 2942416 2960796 3019178 3077840
2622.73 3038974 3005196 2968578 2972808 2961020 2893410
2625.62 2908566 2965694 2931500 2897398 2782782 2709386
2628.52 2761250 2745688 2709278 2711966 2746470 2749146
2631.41 2670580 2595242 2573170 2575586 2580036 2541322
2634.30 2521722 2546390 2537938 2495348 2506460 2585478
2637.19 2635444 2667290 2723466 2630994 2522542 2529096
2640.09 2477102 2357836 2344018 2407066 2450696 2485856
2642.98 2457738 2472502 2477096 2391604 2258056 2141456
2645.87 2102904 2112272 2066040 2055852 2048788 1987438
2648.77 1979670 2009448 1983996 1974326 1928530 1868020
2651.66 1818980 1742748 1785596 1859978 1878882 1859426
2654.55 1807490 1745490 1678720 1582886 1593486 1613444
2657.44 1564940 1449828 1419050 1488794 1434418 1425068
2660.34 1446414 1368526 1355574 1444860 1524950 1488096
2663.23 1376198 1310236 1292666 1306946 1346742 1424744
2666.12 1393592 1345960 1374284 1347672 1330056 1360350
2669.01 1327238 1299456 1349192 1365404 1325544 1282642
2671.91 1272470 1220014 1207550 1274806 1270296 1226304
2674.80 1184796 1166254 1132364 1164388 1211892 1210138
2677.69 1239956 1274784 1240856 1180614 1216898 1190158
2680.59 1151604 1254536 1255894 1202526 1259986 1299368
2683.48 1292160 1218756 1165226 1203638 1273544 1270558
2686.37 1158282 1165184 1260574 1228934 1200406 1245078
2689.26 1288988 1306132 1267290 1226864 1221532 1256138
2692.16 1295922 1264644 1222120 1182854 1154446 1176064
2695.05 1158464 1158104 1187786 1188340 1218854 1256424
2697.94 1408530 1422756 1246958 1175512 1175938 1189614
2700.83 1207418 1284742 1339468 1365550 1329932 1272558
2703.73 1311576 1327806 1228532 1168188 1259224 1279658
2706.62 1255138 1336554 1366300 1270496 1262382 1368286
2709.51 1406438 1418568 1409344 1391446 1387818 1466960
2712.41 1567936 1530708 1527048 1609234 1660166 1739476
2715.30 1771766 1707830 1696348 1770034 1847486 1849106
2718.19 1889304 1970386 2025844 2019264 2017314 2077696
2721.08 2142014 2206526 2274916 2375608 2464372 2533200
2723.98 2685360 2796946 2838098 2996116 3172226 3298018
2726.87 3568614 3799630 3930670 4265742 4653466 4929178
2729.76 5243630 5595668 5978760 6508870 6938770 7305822
2732.65 7824780 8399432 8934860 9423362 9904364 10363360
2735.55 10776750 11048270 11301140 11636720 11848290 11923320
2738.44 11938230 11847340 11651790 11503980 11429570 11368700
2741.33 11265190 11376980 11924950 12841100 14297870 16399750
2744.23 18477940 18601140 16039150 13022360 11565350 11380690
2747.12 11826740 12499000 13226140 13964870 14704440 15253580
2750.01 15654240 15995030 16056720 15852790 15389900 14875690
2752.90 14195340 13299430 12344940 11501900 10716760 9873398
2755.80 9111182 8447980 7779718 7161522 6686064 6243158
2758.69 5880258 5600486 5377710 5117398 4890872 4684470
2761.58 4507356 4415792 4255156 4141464 4048028 3882544
2764.47 3775102 3628338 3403434 3246384 3142290 3053542
2767.37 3005356 3018514 3016136 2985640 3017656 3069018
2770.26 3096522 3079956 3097862 3119476 3160430 3171508
2773.15 3124322 3141074 3185364 3231182 3190644 3176062
2776.05 3216106 3299638 3382518 3379580 3413690 3510744
2778.94 3527090 3487766 3594288 3690542 3718560 3784636
2781.83 3867940 3772452 3665996 3691398 3679336 3726124
2784.72 3736804 3764154 3822126 3948956 4104706 4175052
2787.62 4224332 4222538 4186430 4201434 4263164 4280768
2790.51 4219860 4277762 4253028 4118474 4222748 4378978
2793.40 4413948 4443068 4479168 4473790 4489938 4573594
2796.29 4604794 4551192 4529004 4528376 4664366 4858398
2799.19 4929278 4933186 4955904 4912904 4797616 4839972
2802.08 4849456 4846838 4939470 4996906 5028356 5062720
2804.97 5163976 5198358 5252060 5302774 5386166 5575166
2807.87 5655598 5725046 5794572 5965970 6204952 6324548
2810.76 6402494 6450576 6528342 6622202 6697836 6863008
2813.65 7012924 7056130 7131030 7278052 7471372 7742970
2816.54 7954972 8076910 8145620 8148258 8226724 8421752
2819.44 8503716 8636428 8807298 8932160 9133526 9190148
2822.33 9223516 9256906 9312250 9395072 9353716 9340226
2825.22 9419848 9425760 9445468 9567362 9684978 9784130
2828.11 9910996 10044620 10282730 10585810 10783050 11056830
2831.01 11300640 11470960 11702350 11956170 12196650 12425690
2833.90 12648020 12761070 12900920 13063940 13198130 13321540
2836.79 13511380 13766980 14028760 14231210 14279680 14399970
2839.69 14539780 14728000 15016160 15192490 15398370 15763210
2842.58 16021030 16158530 16492450 16891730 17401730 18001220
2845.47 18476770 18971450 19480840 20043680 20672420 21287310
2848.36 21953260 22658340 23427860 24183090 25029480 25925540
2851.26 26809240 27759150 28670240 29594700 30713290 31830240
2854.15 32890770 34008060 35179090 36454960 37766430 39199860
2857.04 40666670 42163780 43749490 45463600 47229110 49005740
2859.93 50813300 52547490 54380240 56473110 58664710 60886110
2862.83 63195370 65402720 67499810 69690220 71935560 74196180
2865.72 76505470 78706950 80872330 83086510 85270540 87624080
2868.61 90076470 92426510 94808450 97431660 100276300 103720200
2871.51 107501300 110250600 111954300 113917100 116202600 118774100
2874.40 121799500 124821700 127968900 131267400 134411900 137565500
2877.29 140814200 143431200 145333900 146858100 148117300 149106500
2880.18 149916500 150194900 149447400 148538600 147767700 147047400
2883.08 146379600 145667400 145143800 144788900 144338900 143301500
2885.97 142101800 141140500 140421200 140041800 139972200 139811400
2888.86 139412300 138802700 137813500 136551800 134952200 133438600
2891.75 132200300 130970300 129598100 128069000 126376100 124608200
2894.65 122772800 120931000 119024100 116803800 114586900 112564300
2897.54 110388300 108166300 105999100 103717400 101501900 99342760
2900.43 97378750 95703930 94168380 92757690 91477350 90377620
2903.32 89610450 88835820 88334200 88240270 88027230 88178210
2906.22 88944020 89762500 90093930 90226610 90582410 91381380
2909.11 92669480 94458640 96641720 98768130 100678900 102283600
2912.00 104035900 106251000 108123200 109362600 110895800 113137300
2914.90 116018800 119412200 122578300 125719000 129633000 134194900
2917.79 138611900 142032700 145333500 149366200 154045200 159091000
2920.68 164518500 170559700 176974600 183733800 190766200 197369900
2923.57 202947600 208213300 213392300 218303800 222637200 226167300
2926.47 229846100 233500500 235409200 235912800 236193600 236466700
2929.36 236939500 238123200 240690000 244287700 248545500 253135500
2932.25 257437200 260868600 263139500 264429800 264358500 262154000
2935.14 259746500 259248500 260339800 262490500 265529300 267425000
2938.04 267666500 267666300 266893900 266307100 264765900 261297100
2940.93 258367100 256602100 255444800 254221500 252264200 249038400
2943.82 244647100 240275000 236517400 232968600 229154500 224705200
2946.72 219162700 212644400 205742400 199151600 192978000 187290600
2949.61 181774100 175774400 169156100 162979600 158471200 155310300
2952.50 152787200 150404100 149161400 149792200 150275400 148798700
2955.39 145041400 138637600 131346300 125196400 120660600 117745000
2958.29 116258700 115662600 115280100 115492300 116297500 116484900
2961.18 115453900 114219700 112926900 111497700 110125300 107541900
2964.07 103950000 101228700 99455660 97975480 96591900 94884780
2966.96 92801960 90753670 88809300 86956050 84915700 82919230
2969.86 81094210 79327460 77659430 76319040 75551540 75324810
2972.75 75523180 76098940 76893670 77555770 78298950 79407100
2975.64 80698300 81679140 82358900 83073100 83869860 84731490
2978.54 85644350 86524860 87070820 87291350 87565830 87725360
2981.43 87777030 87928110 88196380 88630100 89436180 90911190
2984.32 93098740 95514230 97872860 99847980 99832940 97357250
2987.21 93916830 91040810 89185820 88271890 88123910 88683540
2990.11 89896020 91794420 94251520 96909650 99238540 100655100
2993.00 100968000 100713900 100979900 101942100 103514000 105814200
2995.89 109310200 113588000 116826900 118305300 118286800 116929300
2998.78 115367900 114837500 115374300 117422400 120895000 124722100
3001.68 128958400 133888400 138772000 143117000 146996100 149499600
3004.57 149162700 146718300 144130200 142488800 142160100 142997700
3007.46 144972300 147313200 148997200 149609000 149813900 150542700
3010.36 151853200 153212500 153729500 153949200 155749200 159159400
3013.25 163128800 166947800 170196400 173054200 175737300 178545100
3016.14 181650000 185313500 189857600 195205200 201028700 207243400
3019.03 214382100 222666200 231593700 241026900 252344200 265422600
3021.93 276732700 285087600 292932400 302402100 313588000 325278200
3024.82 336599300 347871500 359261700 370930500 383299700 396472900
3027.71 410519200 425615500 440959000 454548600 465121100 472068600
3030.60 475751200 478243600 481341100 483962500 485008400 485294600
3033.50 483926100 479618200 474158400 469881200 468048100 468063600
3036.39 469024500 470386600 471417700 472944600 476266800 481244600
3039.28 485021800 484978800 483453100 485647400 490270800 488357600
3042.18 482738100 481753200 483573800 485101600 485232000 483752400
3045.07 480614100 475335400 468045900 458702000 446962700 433751200
3047.96 419895200 405368000 390589700 375879300 360941200 345998900
3050.85 331263200 317092400 304298700 292620300 282268300 273478800
3053.75 265789900 258913100 252752500 247760900 243732500 240584700
3056.64 238161900 236091700 234978500 234965600 235635500 236938200
3059.53 238978800 241040800 242574800 244064300 245764500 247957000
3062.42 250447200 252925200 255289300 257075100 258456700 259998700
3065.32 261260900 261759400 261370900 260321600 259730100 259469300
3068.21 259064600 259231700 260119500 262184500 266423200 272458400
3071.10 280853800 291408500 303366300 315096100 320159900 310739100
3074.00 291654300 276113500 267379600 264147900 264656400 267217500
3076.89 270891900 274537400 278061500 281175300 283623500 285507000
3079.78 286542000 286308600 285129300 284342000 282493200 276731300
3082.67 269253800 263434800 259036400 255010500 251200600 247763500
3085.57 244786300 242063200 239546500 237048100 234414300 231686900
3088.46 228317500 224327200 220053100 215850100 210722300 204391300
3091.35 197900900 191149600 184469000 178223500 172099500 165972600
3094.24 160641000 156419500 153145700 150814400 149889800 150496500
3097.14 152314200 154946100 157770500 160209500 162090800 163375800
3100.03 163943200 163463500 161663500 159031600 155997300 152537200
3102.92 148775500 144613300 140267700 135712900 130879200 126364500
3105.82 121786700 116928600 112280300 108190800 104461900 100680000
3108.71 96900200 93550660 90749880 88280520 86056230 83960740
3111.60 82029900 80253950 78561940 76884660 75155180 73381810
3114.49 71487740 69621720 67804000 66136020 64507830 62726880
3117.39 61042610 59439290 57749100 55985390 53820300 51578940
3120.28 49938970 48855500 48032740 46900000 44864660 42806540
3123.17 41772790 41204890 40212310 38844060 37578880 36529800
3126.06 35660460 34718280 33877720 33159380 32313960 31427700
3128.96 30408710 29198970 27976530 26629060 25160550 23752420
3131.85 22516770 21299870 20108180 18844730 17596880 16543080
3134.74 15313360 14128360 13203260 12236430 11270120 10570910
3137.64 9885694 9230654 8640180 7996592 7404832 7016250
3140.53 6610868 6144832 5900850 5537628 5193194 4970730
3143.42 4707884 4567408 4372930 4095040 3980814 3887904
3146.31 3828110 3817756 3771606 3649508 3640956 3665480
3149.21 3544810 3401010 3276150 3312096 3315886 3217272
3152.10 3172720 3133232 3169516 3150960 3104206 3166658
3154.99 3128420 3125152 3189454 3066656 2993570 3070130
3157.88 3113374 3097320 3016638 3044040 3199156 3324154
3160.78 3237754 3153506 3282448 3264470 3259312 3328672
3163.67 3315952 3337874 3361862 3404644 3486158 3444542
3166.56 3335654 3394762 3426204 3516296 3571860 3597650
3169.46 3668496 3630224 3634142 3631976 3733692 3772154
3172.35 3663234 3639882 3614770 3631392 3588110 3629964
3175.24 3687936 3618162 3612702 3656312 3535706 3366384
3178.13 3370762 3425666 3561730 3475586 3419482 3430832
3181.03 3301952 3208924 3067238 2943338 2818428 2750244
3183.92 2739532 2856772 2902370 2757182 2689990 2771284
3186.81 2698770 2580488 2506410 2293704 2109368 1908290
3189.70 1703392 1582756 1518874 1317180 1122790 1055320
3192.60 1082096 1023126 883762 927978 791334 656336
3195.49 683952 642486 662826 652766 677762 646782
3198.38 595574 590028 509008 528936 593766 532498
3201.27 456758 502550 532692 374964 319652 512578
3204.17 466002 440956 485026 433904 560112 552416
3207.06 580298 742086 671684 604836 670136 585310
3209.95 512404 479642 481812 426010 284822 242572
3212.85 324784 326240 315466 377138 369722 358586
3215.74 371222 301528 213382 111552-17488 18
3218.63 258246 610088 639480 596072 666870 592452
3221.52 493466 440346 306504 316168 344560 304904
3224.42 335610 356738 183986 130018 98634 66024
3227.31 176452 230926 353612 299962 186110 148594
3230.20 151340 204760 279238 250126 189112 319518
3233.09 469796 349872 273164 430074 425584 348768
3235.99 381090 351970 301112 236036 249540 283744
3238.88 225256 290968 359966 366168 413680 509976
3241.77 527690 479522 442998 501334 617696 592000
3244.67 543420 631704 593986 422766 401368 538878
3247.56 642702 550284 519062 541552 557402 583828
3250.45 589472 594044 553638 453802 555140 696560
3253.34 651236 659404 601796 552452 684456 797592
3256.24 744168 733960 708596 658496 708944 767608
3259.13 716804 738224 735730 706850 811692 778914
3262.02 727646 781666 936226 934234 842674 932504
3264.91 954308 940826 949788 900094 984646 1006130
3267.81 882882 853052 939138 981636 963956 975104
3270.70 937916 897646 1006962 1190800 1166832 1176608
3273.59 1228684 1167100 1082896 1050020 996282 1052140
3276.49 1120440 1113116 1154090 1087678 1061386 1077496
3279.38 1050032 1071124 1075612 1081276 1059302 1095450
3282.27 1078930 981178 1026418 1000548 1058104 1045264
3285.16 1121516 1178008 1047170 1051750 975176 902238
3288.06 928970 940130 887642 908616 1015322 1099064
3290.95 1149110 1108122 1009168 1025590 1097574 1152042
3293.84 1142506 1038950 1052996 1091222 994920 892896
3296.73 890656 876666 877290 1012612 1049336 861682
3299.63 905556 940562 888568 993128 1069172 1208178
3302.52 1115180 981952 1021740 960628 881322 933110
3305.41 992528 970796 961898 853364 834696 868900
3308.31 875098 948862 899058 781508 764820 875956
3311.20 944554 945874 929308 916380 958942 1023026
3314.09 973386 874506 851534 873346 941102 970914
3316.98 936998 987144 1027812 1081164 1059178 841724
3319.88 848650 998402 1010470 1127512 1103082 1022018
3322.77 1105848 1068822 1108346 1208740 1218700 1241504
3325.66 1204884 1234062 1356822 1475924 1464584 1268498
3328.55 1269830 1401724 1412240 1450258 1468304 1522620
3331.45 1546748 1469974 1466664 1566508 1693160 1625482
3334.34 1522690 1503394 1487832 1551302 1552384 1602344
3337.23 1620372 1498602 1453386 1441156 1500762 1621558
3340.13 1679986 1669102 1677882 1655850 1684146 1668992
3343.02 1598720 1549256 1466972 1464438 1482720 1492854
3345.91 1440412 1431834 1502642 1528326 1490612 1397816
3348.80 1411718 1426666 1375560 1302134 1262150 1300598
3351.70 1281454 1216316 1120906 1101216 1221120 1254606
3354.59 1144556 1193916 1168024 1036692 1052520 1071438
3357.48 1108650 1254866 1243982 1082878 1024964 1159232
3360.37 1337614 1318210 1289596 1346704 1353920 1436122
3363.27 1496792 1282802 1245094 1415064 1391994 1256266
3366.16 1277074 1304026 1261552 1277736 1243394 1233512
3369.05 1330698 1247906 1266548 1306956 1283754 1338592
3371.95 1293092 1352978 1485106 1559720 1484738 1481862
3374.84 1543222 1501960 1520346 1573906 1575348 1562886
3377.73 1562080 1561144 1505984 1428088 1497956 1614664
3380.62 1650102 1622242 1608584 1684396 1633430 1662546
3383.52 1712198 1554702 1507452 1493750 1469578 1487400
3386.41 1425102 1293608 1221992 1379966 1504314 1410674
3389.30 1261216 1189188 1393628 1473092 1302460 1323538
3392.19 1281366 1311278 1464900 1370906 1391164 1337676
3395.09 1197730 1282842 1322336 1275258 1219834 1229250
3397.98 1271664 1302384 1302154 1297588 1237802 1192574
3400.87 1190184 1126922 1133950 1064458 1041286 1132228
3403.77 1148916 1212112 1217202 1181976 1212780 1145042
3406.66 1090188 1133372 1159948 1247564 1226410 1098670
3409.55 1128472 1088936 1036884 1085998 1102338 994312
3412.44 923962 957470 872010 800952 882638 1110280
3415.34 1126668 1040402 1116612 1096640 1092130 1100390
3418.23 994876 902452 725022 588166 635986 713840
3421.12 897600 969414 981934 954586 817726 988608
3424.01 1020932 948430 948642 907252 879340 935188
3426.91 942086 964586 1089788 1145866 1188414 1138948
3429.80 1062010 1016104 1086628 1089370 1073864 1082768
3432.69 1000476 1002482 1053384 982516 866328 937334
3435.59 1198462 1262834 1138040 1067630 1146984 1271670
3438.48 1347536 1431214 1418482 1276938 1213156 1337180
3441.37 1487688 1557840 1525064 1513184 1510190 1469836
3444.26 1420972 1474364 1567294 1489422 1475224 1454636
3447.16 1391692 1355946 1210178 1216048 1168082 1164778
3450.05 1313518 1370338 1423262 1211844 1156054 1124648
3452.94 1039386 1111774 1102120 1031334 1094294 1167532
3455.83 1008178 946124 1067716 1123550 996656 1017182
3458.73 1101936 1058948 927766 953508 1104826 1021910
3461.62 994752 890964 716952 837018 903020 889144
3464.51 955666 897830 826460 783078 637992 682836
3467.40 766526 604534 507284 495880 479782 557190
3470.30 547856 536186 576022 641358 617508 525306
3473.19 459676 487328 572136 489232 434930 400454
3476.08 372128 342080 296882 317986 348408 387814
3478.98 368764 368126 422914 345158 294236 325080
3481.87 365294 378804 417642 418574 379414 435930
3484.76 443540 365078 357292 481478 602004 516060
3487.65 389870 437728 400910 349048 467548 567082
3490.55 508044 386506 399218 507526 411926 366952
3493.44 439160 500278 569632 509200 469372 428784
3496.33 415382 438426 521474 581818 579578 576172
3499.22 480326 360024 431160 568150 577824 597948
3502.12 519664 436844 552210 496834 411774 527268
3505.01 503310 568804 558868 448040 481936 429808
3507.90 390782 474614 470372 482240 600968 517190
3510.80 549462 577694 500298 536696 549454 534858
3513.69 541360 590240 656942 615168 532116 612552
3516.58 611858 581790 558178 530178 648930 646558
3519.47 534294 652470 804936 753548 666316 591300
3522.37 638732 683058 688716 918572 1074542 1058580
3525.26 1095950 960766 738002 682182 692276 711206
3528.15 620556 557140 617236 705300 692574 591120
3531.04 568122 541270 616182 662886 607694 650792
3533.94 744108 732966 691324 700780 650568 657818
3536.83 704372 678092 625286 700774 736568 784216
3539.72 771344 662526 700070 754294 735164 688394
3542.62 710040 784806 825810 824420 779886 753606
3545.51 816146 767458 687564 900864 1034084 942028
3548.40 903676 852068 846418 865030 906876 837608
3551.29 798424 802318 892394 1035044 1052328 1108104
3554.19 1128840 1107870 969010 903228 921716 814470
3557.08 975962 993240 887206 1017354 1033286 979506
3559.97 964100 964496 908344 959966 1010660 1007054
3562.86 997586 1022148 1018102 931750 907422 913370
3565.76 918896 908652 910312 884124 790572 793814
3568.65 871106 833784 792146 721828 590536 630388
3571.54 707280 681744 698182 630280 618872 699380
3574.44 595396 538618 596748 606840 577940 504670
3577.33 470088 569596 558724 487210 572704 697570
3580.22 817712 877780 821798 818672 909492 934032
3583.11 904628 845522 810302 754246 660288 609468
3586.01 524418 616582 779356 738312 446528 428368
3588.90 741464 822766 754008 797468 901506 852688
3591.79 815474 760712 723018 838348 917600 855200
3594.68 752858 795662 867916 874056 882562 896028
3597.58 832294 743578 675914 705540 695534 528462
3600.47 524924 616944 848928 1085976 1128532 1003782
3603.36 930340 1023086 1014294 880384 684134 601360
3606.26 520682 458000 564204 717036 556714 225102
3609.15 364150 600032 611948 569054 633652 543170
3612.04 316230 407428 582632 570038 394356 398414
3614.93 534140 598078 632252 753322 667826 661026
3617.83 911624 826886 483296 441952 732076 866012
3620.72 868028 887440 977186 1010422 1038690 1022974
3623.61 990522 1122296 1159318 1113570 1102600 1183550
3626.50 1256344 1239286 968212 720124 828438 595800
3629.40 672062 1127328 1182698 1114232 1206140 1272502
3632.29 1261694 1109416 989586 1157244 1329668 1402066
3635.18 1383900 1385920 1490078 1561758 1578260 1558758
3638.08 1556730 1577554 1646902 1718918 1694552 1750160
3640.97 1848762 1907328 1995440 2025592 1979128 1972958
3643.86 1983890 1982070 2013314 1995678 1933682 1886642
3646.75 1816768 1902768 2047044 1880496 1462744 1764378
3649.65 2125674 2037438 2085718 2181716 2396490 2593840
3652.54 2666860 2627286 2596172 2539470 2509124 2537934
3655.43 2308070 2254278 2592752 2660278 2607726 2697360
3658.32 2677228 2602202 2563302 2573154 2644644 2583986
3661.22 2540384 2617300 2546882 2570412 2644774 2553726
3664.11 2571638 2685042 2637902 2513006 2553806 2498780
3667.00 2427590 2523476 2275152 2086036 2162688 2190498
3669.90 1698816 1271260 1822148 1958084 1821482 1956560
3672.79 1961758 1725734 1514882 1246626 1151698 935508
3675.68 727602 1228106 1449386 1490356 1574876 1493394
3678.57 1367522 1298206 1323782 1369490 1416496 1474112
3681.47 1532348 1518890 1360636 1248694 1319104 1354660
3684.36 1243852 1221366 1276490 1292630 1227964 1238290
3687.25 1194230 462562 428820 1101652 1183164 1223942
3690.14 1173994 1088360 1177814 1277584 1241038 1172702
3693.04 1176372 1215782 1287688 1282226 1201226 1178446
3695.93 1229580 1289918 1236794 1147184 1115450 1183430
3698.82 1304594 1292264 1252202 1221770 1026766 845316
3701.72 1093926 1286208 1206770 1207356 1225380 1224168
3704.61 1237450 1256664 1202592 1234818 1245336 1069466
3707.50 987466 1105818 1050578 907264 1050174 1175748
3710.39 1030670 924372 531274 295686 861546 1137310
3713.29 1131810 1138918 1151114 1180558 1158878 1280288
3716.18 1378878 1268546 1097696 1108862 1112306 1088872
3719.07 1093930 1029000 1027526 1030818 1099688 1035154
3721.96 983272 1202948 1325742 1308252 1223528 1115986
3724.86 1157568 1187248 986148 937664 1021244 912914
3727.75 919580 1011400 936524 863222 938844 961188
3730.64 915480 776350 444770 675850 962060 926946
3733.54 1039250 901798 663882 577408 620004 371650
3736.43 252640 640706 731012 685964 807542 845076
3739.32 774688 726156 793522 754954 668296 678516
3742.21 711766 565254 320578-219900-705018-154902
3745.11 603928 756026 781042 834582 806742 767392
3748.00 724722 189310-220876 240088 575840 533126
3750.89 505828-150434-545312 192782 534550 577362
3753.78 641116 644012 650892 593774 571334 584908
3756.68 708632 744596 663442 601236 533868 453734
3759.57 489558 702602 761696 764250 650438 548332
3762.46 716910 760004 609922 560042 602640 515208
3765.35 526352 662420 670386 680130 727958 714466
3768.25 615360 545488 358766 333920 543390 683048
3771.14 809568 831670 826122 914342 824164 683994
3774.03 728774 776614 887660 903192 875296 835050
3776.93 819736 829022 820956 855560 789668 775578
3779.82 915072 952922 906204 932032 973686 1051592
3782.71 1257652 1287624 1190844 1268204 1247208 1115146
3785.60 1162820 1140122 1236460 1454666 1496104 1461946
3788.50 1441164 1490740 1477714 1483154 1559656 1586846
3791.39 1574234 1597388 1703620 1760112 1709612 1711094
3794.28 1664372 1677948 1757026 1586458 1488714 1584246
3797.17 1572352 1608088 1673926 1701770 1748806 1646848
3800.07 1709916 1109314 589024 1261202 1576970 1556816
3802.96 1622988 1646696 1775602 1845186 1773488 1773704
3805.85 1673712 1152072 1132010 1516852 1632296 1680110
3808.75 1712870 1691534 1730576 1767380 1761838 1703172
3811.64 1644372 1668508 1613136 1581570 1555438 1527630
3814.53 1525810 1120112 419904 848606 1559788 1660096
3817.42 1664468 1661168 1763102 1739110 1635752 1464470
3820.32 1391754 1393004 1304144 1604544 1755144 1700544
3823.21 1852750 1986718 2029656 1990738 2062880 1982964
3826.10 1767446 1830470 2018144 2133708 2163292 2104234
3828.99 2114194 2113432 2104700 2097614 1893304 1899968
3831.89 2185722 2320740 2318750 2221196 2190280 2048326
3834.78 2020182 2233628 2424898 2431014 2212654 1528466
3837.67 1640206 2340872 2466474 2432460 2440562 2486304
3840.57 2407622 2471432 2543804 2579724 2626940 2600576
3843.46 2609356 2760372 2875878 2923366 2942350 2913098
3846.35 2979122 3053410 3081002 3216410 3253372 3234726
3849.24 3178740 3301606 3334028 3243534 2777850 2411148
3852.14 2938730 3157248 2660702 1875602 2182000 3131252
3855.03 3375090 3433114 3358386 3231808 3237516 3366702
3857.92 3415488 3309764 3264764 3152714 3069400 3137314
3860.81 3086986 2991466 3105414 3182490 3186640 3146422
3863.71 3063916 2745418 2491070 2855756 3015050 2914792
3866.60 2932138 2865534 2808402 2680098 2471666 2394102
3869.49 1956150 2058708 2520158 2481054 2545404 2616696
3872.39 2620402 2583926 2435126 2277126 2336554 2383092
3875.28 2445544 2414824 2322040 2296124 2230968 2198630
3878.17 2172044 2077912 1946654 1792266 1879344 2073050
3881.06 2107140 2165632 2274620 2177258 2062878 2042514
3883.96 1983872 1892194 1516298 1428812 1752076 1941808
3886.85 1998462 1990524 1962130 1855016 1791238 1807428
3889.74 1911100 1788824 1401616 1528812 1775330 1859740
3892.63 1924830 1854388 1809870 1846038 1887066 1815220
3895.53 1821092 1987404 2033826 1978420 1918934 1864402
3898.42 1702022 1521940 1704174 1851504 1916320 1823218
3901.31 1663036 1773730 1966168 2180422 1860110 1545306
3904.21 1945628 2192588 2107262 1951154 2125772 2285934
3907.10 2217108 2259994 2243684 2254920 2293742 2309126
3909.99 2384178 2411592 2421850 2423020 2359166 2476722
3912.88 2546778 2495528 2455288 2488264 2500166 2417158
3915.78 2437760 2525926 2538898 2568200 2797836 2939480
3918.67 2789804 2561230 2499360 2639302 2762646 2657244
3921.56 2482002 2538780 2697422 2688458 2620080 2614262
3924.45 2565216 2564412 2674864 2642708 2530282 2567376
3927.35 2549230 2430790 2476564 2469868 2436662 2432916
3930.24 2264734 2276666 2252134 2128264 2179920 2252916
3933.13 2274970 2193760 2136982 2158838 2170760 2183718
3936.03 2147670 2128122 2157948 2179124 2050592 1963810
3938.92 2045050 2148086 2226442 2141524 2025242 2081810
3941.81 1992788 1915514 1975208 1907764 1827946 1713410
3944.70 1727844 1859298 1859784 1808724 1996332 2059726
3947.60 1875502 1954448 2056852 1947968 1847418 1863758
3950.49 1936740 1971314 1902876 1931822 1974510 1889778
3953.38 1874962 1812094 1761412 1847328 1949212 1976718
3956.27 1913368 1977344 2017320 1870466 1779474 1829642
3959.17 1927888 2075536 2135312 2150852 2126378 1990620
3962.06 1871128 1966924 2115910 2091138 2217560 2164824
3964.95 2092886 2148246 2025464 1996628 2059884 2037530
3967.85 2058900 2090482 2150112 2193482 2152792 2244866
3970.74 2224420 2050386 2006412 2076046 2117906 2085162
3973.63 2029374 2071288 2117610
##END=
