##TITLE=Benzene, m-dibromo-
##JCAMP-DX=4.24
##DATA TYPE=INFRARED SPECTRUM
##CLASS=COBLENTZ III
##ORIGIN=SOUTHERN RESEARCH INSTITUTE
##OWNER=Copyright (C) 1987 by the Coblentz Society
Collection (C) 2018 copyright by the U.S. Secretary of Commerce
on behalf of the United States of America. All rights reserved.
##DATE=1965/08/05
##NAMES=1,3-dibromobenzene
##CAS REGISTRY NO=108-36-1
##MOLFORM=C6 H4 Br2
##SOURCE REFERENCE=COBLENTZ NO. 6879
##$NIST SOURCE=COBLENTZ
##$NIST IMAGE=cob6879
##SPECTROMETER/DATA SYSTEM=PERKIN-ELMER 521 (GRATING)
##INSTRUMENT PARAMETERS=FILTERS AT 3150, 2500, 2000, 1150, 700, 410. GRATING CHANGES: 2000, 630
##STATE=LIQUID (NEAT)
##PATH LENGTH=CAPILLARY
##RESOLUTION=2
##DATA PROCESSING=(ADJUSTED \addcm-1\5-5-0\)
##XUNITS=1/CM
##YUNITS=TRANSMITTANCE
##XFACTOR=1.0
##YFACTOR=1
##DELTAX=1.001444
##FIRSTX=250.87
##LASTX=3808
##FIRSTY=0.7117
##MAXX=3808
##MINX=250.87
##MAXY=0.946991
##MINY=0.103527
##NPOINTS=3553
##XYDATA=(X++(Y..Y))
250.870000 0.7117 0.7170 0.7234 0.7286 0.7334
255.877219 0.7381 0.7423 0.7466 0.7508 0.7544
260.884439 0.7581 0.7617 0.7653 0.7683 0.7711
265.891658 0.7738 0.7765 0.7792 0.7809 0.7824
270.898877 0.7840 0.7856 0.7871 0.7879 0.7886
275.906096 0.7894 0.7901 0.7909 0.7917 0.7930
280.913316 0.7944 0.7983 0.8056 0.8149 0.8223
285.920535 0.8278 0.8321 0.8359 0.8389 0.8417
290.927754 0.8428 0.8437 0.8447 0.8448 0.8448
295.934973 0.8449 0.8449 0.8442 0.8434 0.8416
300.942193 0.8390 0.8346 0.8312 0.8289 0.8291
305.949412 0.8345 0.8451 0.8560 0.8670 0.8779
310.956631 0.8848 0.8891 0.8924 0.8940 0.8949
315.963850 0.8958 0.8964 0.8970 0.8976 0.8981
320.971070 0.8985 0.8988 0.8992 0.8995 0.8999
325.978289 0.9003 0.9008 0.9012 0.9016 0.9021
330.985508 0.9022 0.9021 0.9020 0.9019 0.9018
335.992727 0.9018 0.9017 0.9013 0.9008 0.9003
340.999947 0.8998 0.8990 0.8981 0.8971 0.8962
346.007166 0.8950 0.8935 0.8918 0.8903 0.8897
351.014385 0.8891 0.8897 0.8905 0.8883 0.8917
356.021604 0.8937 0.8957 0.8980 0.9006 0.9031
361.028824 0.9055 0.9076 0.9096 0.9115 0.9135
366.036043 0.9149 0.9159 0.9167 0.9176 0.9185
371.043262 0.9193 0.9197 0.9201 0.9205 0.9209
376.050481 0.9212 0.9216 0.9219 0.9219 0.9219
381.057701 0.9220 0.9220 0.9220 0.9236 0.9260
386.064920 0.9298 0.9337 0.9376 0.9417 0.9448
391.072139 0.9457 0.9458 0.9470 0.9428 0.9386
396.079358 0.9338 0.9308 0.9288 0.9275 0.9268
401.086578 0.9262 0.9259 0.9257 0.9255 0.9251
406.093797 0.9246 0.9240 0.9233 0.9220 0.9206
411.101016 0.9188 0.9168 0.9132 0.9084 0.9034
416.108235 0.8971 0.8902 0.8827 0.8758 0.8476
421.115455 0.8035 0.7572 0.7107 0.6802 0.6759
426.122674 0.6750 0.7200 0.7654 0.8085 0.8516
431.129893 0.8779 0.8861 0.8906 0.8955 0.9006
436.137112 0.9055 0.9099 0.9125 0.9146 0.9167
441.144332 0.9181 0.9191 0.9200 0.9209 0.9218
446.151551 0.9224 0.9229 0.9233 0.9237 0.9242
451.158770 0.9246 0.9251 0.9255 0.9256 0.9257
456.165989 0.9257 0.9257 0.9257 0.9258 0.9258
461.173209 0.9258 0.9258 0.9259 0.9259 0.9259
466.180428 0.9259 0.9259 0.9258 0.9258 0.9258
471.187647 0.9258 0.9258 0.9258 0.9258 0.9258
476.194866 0.9259 0.9260 0.9261 0.9262 0.9263
481.202086 0.9264 0.9265 0.9266 0.9267 0.9268
486.209305 0.9269 0.9270 0.9271 0.9272 0.9273
491.216524 0.9273 0.9274 0.9275 0.9276 0.9276
496.223743 0.9277 0.9278 0.9279 0.9279 0.9280
501.230963 0.9281 0.9282 0.9282 0.9283 0.9284
506.238182 0.9283 0.9283 0.9282 0.9282 0.9282
511.245401 0.9281 0.9281 0.9280 0.9280 0.9280
516.252620 0.9279 0.9279 0.9278 0.9284 0.9281
521.259840 0.9277 0.9277 0.9276 0.9276 0.9276
526.267059 0.9275 0.9275 0.9275 0.9275 0.9275
531.274278 0.9275 0.9275 0.9275 0.9275 0.9275
536.281497 0.9275 0.9275 0.9275 0.9275 0.9275
541.288717 0.9275 0.9275 0.9276 0.9276 0.9274
546.295936 0.9272 0.9270 0.9267 0.9265 0.9262
551.303155 0.9260 0.9258 0.9255 0.9253 0.9250
556.310374 0.9248 0.9246 0.9243 0.9241 0.9238
561.317594 0.9235 0.9231 0.9226 0.9221 0.9216
566.324813 0.9211 0.9206 0.9201 0.9196 0.9189
571.332032 0.9181 0.9173 0.9165 0.9157 0.9149
576.339251 0.9141 0.9140 0.9142 0.9144 0.9146
581.346471 0.9149 0.9150 0.9147 0.9142 0.9137
586.353690 0.9132 0.9130 0.9130 0.9130 0.9130
591.360909 0.9129 0.9129 0.9129 0.9129 0.9130
596.368128 0.9131 0.9132 0.9133 0.9134 0.9131
601.375348 0.9126 0.9119 0.9113 0.9105 0.9097
606.382567 0.9090 0.9082 0.9074 0.9066 0.9060
611.389786 0.9056 0.9052 0.9048 0.9045 0.9045
616.397005 0.9048 0.9050 0.9052 0.9054 0.9054
621.404225 0.9052 0.9050 0.9048 0.9046 0.9043
626.411444 0.9037 0.9030 0.9022 0.9014 0.9005
631.418663 0.8994 0.8983 0.8972 0.8957 0.8942
636.425882 0.8926 0.8859 0.8751 0.8632 0.8537
641.433102 0.8477 0.8451 0.8445 0.8443 0.8457
646.440321 0.8501 0.8558 0.8616 0.8673 0.8730
651.447540 0.8771 0.8781 0.8775 0.8763 0.8746
656.454759 0.8723 0.8692 0.8644 0.8357 0.7826
661.461979 0.7242 0.6657 0.6073 0.5488 0.4903
666.469198 0.4319 0.3734 0.3150 0.2863 0.2847
671.476417 0.3200 0.4313 0.5815 0.7318 0.8241
676.483636 0.8486 0.8538 0.8559 0.8568 0.8574
681.490856 0.8586 0.8632 0.8691 0.8750 0.8809
686.498075 0.8850 0.8868 0.8876 0.8879 0.8877
691.505294 0.8880 0.8875 0.8865 0.8860 0.8852
696.512513 0.8839 0.8825 0.8808 0.8790 0.8771
701.519733 0.8751 0.8731 0.8712 0.8690 0.8667
706.526952 0.8643 0.8618 0.8593 0.8567 0.8529
711.534171 0.8477 0.8397 0.8099 0.7767 0.7590
716.541390 0.7259 0.6692 0.6050 0.5409 0.4767
721.548610 0.4125 0.3483 0.2841 0.2200 0.1687
726.555829 0.1493 0.1483 0.1478 0.1795 0.2888
731.563048 0.4452 0.6016 0.7382 0.8026 0.8117
736.570267 0.8183 0.8240 0.8287 0.8321 0.8341
741.577487 0.8352 0.8358 0.8360 0.8362 0.8363
746.584706 0.8362 0.8362 0.8371 0.8398 0.8434
751.591925 0.8440 0.8440 0.8454 0.8445 0.8369
756.599144 0.8101 0.7652 0.7156 0.6660 0.6164
761.606364 0.5668 0.5172 0.4676 0.4180 0.3684
766.613583 0.3188 0.2692 0.2218 0.1973 0.1974
771.620802 0.1978 0.2251 0.2876 0.3534 0.4192
776.628021 0.4850 0.5508 0.6166 0.6824 0.7460
781.635241 0.8094 0.8499 0.8578 0.8658 0.8739
786.642460 0.8822 0.8888 0.8927 0.8961 0.8995
791.649679 0.9021 0.9037 0.9051 0.9065 0.9080
796.656898 0.9092 0.9100 0.9106 0.9113 0.9119
801.664118 0.9125 0.9131 0.9138 0.9143 0.9146
806.671337 0.9149 0.9152 0.9155 0.9158 0.9161
811.678556 0.9164 0.9166 0.9168 0.9170 0.9171
816.685775 0.9173 0.9175 0.9176 0.9178 0.9181
821.692995 0.9181 0.9177 0.9176 0.9175 0.9174
826.700214 0.9172 0.9169 0.9166 0.9162 0.9159
831.707433 0.9156 0.9152 0.9148 0.9141 0.9133
836.714652 0.9126 0.9119 0.9112 0.9105 0.9095
841.721872 0.9085 0.9076 0.9064 0.9047 0.9028
846.729091 0.9004 0.8971 0.8929 0.8877 0.8809
851.736310 0.8726 0.8652 0.8587 0.8504 0.8342
856.743529 0.8078 0.7788 0.7497 0.7206 0.6915
861.750749 0.6624 0.6333 0.6070 0.5923 0.5904
866.757968 0.5902 0.5947 0.6126 0.6427 0.6729
871.765187 0.7029 0.7330 0.7631 0.7931 0.8232
876.772406 0.8509 0.8706 0.8823 0.8883 0.8902
881.779626 0.8910 0.8914 0.8916 0.8918 0.8920
886.786845 0.8919 0.8917 0.8915 0.8915 0.8919
891.794064 0.8924 0.8933 0.8950 0.8966 0.8984
896.801283 0.9005 0.9026 0.9045 0.9064 0.9084
901.808503 0.9105 0.9126 0.9137 0.9141 0.9141
906.815722 0.9138 0.9133 0.9127 0.9129 0.9126
911.822941 0.9121 0.9117 0.9113 0.9109 0.9106
916.830160 0.9102 0.9098 0.9095 0.9091 0.9088
921.837380 0.9085 0.9082 0.9079 0.9077 0.9074
926.844599 0.9071 0.9069 0.9067 0.9066 0.9065
931.851818 0.9064 0.9064 0.9068 0.9073 0.9078
936.859037 0.9083 0.9088 0.9091 0.9095 0.9099
941.866257 0.9103 0.9107 0.9110 0.9113 0.9112
946.873476 0.9112 0.9111 0.9111 0.9110 0.9105
951.880695 0.9096 0.9087 0.9079 0.9069 0.9058
956.887914 0.9045 0.9031 0.9017 0.9004 0.8990
961.895134 0.8977 0.8965 0.8953 0.8941 0.8933
966.902353 0.8928 0.8923 0.8924 0.8934 0.8945
971.909572 0.8953 0.8953 0.8948 0.8940 0.8925
976.916791 0.8910 0.8896 0.8884 0.8875 0.8868
981.924011 0.8867 0.8862 0.8848 0.8738 0.8284
986.931230 0.7639 0.6994 0.6350 0.5842 0.5823
991.938449 0.5825 0.6084 0.7112 0.7751 0.8378
996.945668 0.8843 0.8875 0.8893 0.8898 0.8901
1001.952888 0.8898 0.8892 0.8890 0.8877 0.8863
1006.960107 0.8842 0.8811 0.8776 0.8732 0.8676
1011.967326 0.8621 0.8560 0.8486 0.8390 0.8298
1016.974545 0.8233 0.8207 0.8199 0.8213 0.8251
1021.981765 0.8345 0.8439 0.8533 0.8621 0.8679
1026.988984 0.8705 0.8726 0.8732 0.8738 0.8744
1031.996203 0.8751 0.8768 0.8811 0.8852 0.8878
1037.003422 0.8890 0.8889 0.8885 0.8881 0.8875
1042.010642 0.8866 0.8851 0.8829 0.8786 0.8732
1047.017861 0.8667 0.8621 0.8583 0.8549 0.8473
1052.025080 0.8160 0.7575 0.6989 0.6404 0.5818
1057.032299 0.5233 0.4645 0.4128 0.4199 0.4812
1062.039519 0.5530 0.6249 0.6967 0.7663 0.8146
1067.046738 0.8105 0.7725 0.7232 0.6741 0.6249
1072.053957 0.5757 0.5265 0.4773 0.4284 0.3868
1077.061176 0.3913 0.4470 0.5420 0.6370 0.7320
1082.068396 0.8178 0.8368 0.8378 0.8367 0.8320
1087.075615 0.8185 0.8049 0.7914 0.7779 0.7643
1092.082834 0.7515 0.7445 0.7445 0.7444 0.7485
1097.090053 0.7975 0.8286 0.8519 0.8590 0.8634
1102.097273 0.8659 0.8670 0.8622 0.8554 0.8485
1107.104492 0.8418 0.8354 0.8328 0.8337 0.8536
1112.111711 0.8703 0.8868 0.8930 0.8965 0.8990
1117.118930 0.9010 0.9023 0.9038 0.9052 0.9067
1122.126150 0.9074 0.9082 0.9090 0.9097 0.9104
1127.133369 0.9106 0.9107 0.9077 0.9106 0.9104
1132.140588 0.9101 0.9097 0.9093 0.9087 0.9082
1137.147807 0.9076 0.9070 0.9065 0.9052 0.9037
1142.155027 0.9021 0.9006 0.8990 0.8967 0.8945
1147.162246 0.8924 0.8901 0.8874 0.8846 0.8818
1152.169465 0.8791 0.8761 0.8718 0.8673 0.8636
1157.176684 0.8603 0.8581 0.8582 0.8590 0.8565
1162.183904 0.8755 0.8851 0.8908 0.8955 0.8997
1167.191123 0.9032 0.9058 0.9076 0.9079 0.9078
1172.198342 0.9078 0.9078 0.9078 0.9077 0.9076
1177.205561 0.9074 0.9071 0.9068 0.9066 0.9060
1182.212781 0.9052 0.9045 0.9037 0.9030 0.9022
1187.220000 0.9016 0.9012 0.9008 0.9003 0.9003
1192.227219 0.9006 0.9010 0.9013 0.9017 0.9023
1197.234439 0.9032 0.9040 0.9049 0.9057 0.9066
1202.241658 0.9077 0.9087 0.9101 0.9118 0.9132
1207.248877 0.9142 0.9150 0.9158 0.9165 0.9170
1212.256096 0.9174 0.9176 0.9179 0.9181 0.9182
1217.263316 0.9182 0.9182 0.9182 0.9183 0.9183
1222.270535 0.9182 0.9180 0.9178 0.9176 0.9174
1227.277754 0.9172 0.9170 0.9166 0.9162 0.9158
1232.284973 0.9154 0.9151 0.9147 0.9143 0.9139
1237.292193 0.9134 0.9129 0.9124 0.9119 0.9114
1242.299412 0.9109 0.9101 0.9092 0.9082 0.9073
1247.306631 0.9062 0.9045 0.9020 0.8994 0.8966
1252.313850 0.8950 0.8949 0.8951 0.8957 0.8978
1257.321070 0.9012 0.9044 0.9073 0.9098 0.9111
1262.328289 0.9116 0.9115 0.9113 0.9112 0.9110
1267.335508 0.9106 0.9101 0.9095 0.9087 0.9074
1272.342727 0.9058 0.9033 0.9002 0.8964 0.8921
1277.349947 0.8875 0.8833 0.8796 0.8761 0.8738
1282.357166 0.8730 0.8726 0.8722 0.8712 0.8663
1287.364385 0.8578 0.8492 0.8411 0.8361 0.8382
1292.371604 0.8496 0.8629 0.8762 0.8893 0.9005
1297.378824 0.9048 0.9073 0.9086 0.9094 0.9099
1302.386043 0.9128 0.9098 0.9097 0.9096 0.9095
1307.393262 0.9087 0.9078 0.9070 0.9062 0.9053
1312.400481 0.9042 0.9024 0.9005 0.8986 0.8964
1317.407701 0.8943 0.8922 0.8901 0.8864 0.8827
1322.414920 0.8799 0.8781 0.8781 0.8768 0.8806
1327.422139 0.8847 0.8885 0.8928 0.8993 0.9029
1332.429358 0.9057 0.9068 0.9077 0.9079 0.9081
1337.436578 0.9083 0.9085 0.9088 0.9090 0.9090
1342.443797 0.9090 0.9090 0.9106 0.9094 0.9091
1347.451016 0.9091 0.9091 0.9090 0.9089 0.9087
1352.458235 0.9083 0.9080 0.9076 0.9070 0.9060
1357.465455 0.9049 0.9038 0.9026 0.9012 0.8995
1362.472674 0.8979 0.8961 0.8936 0.8910 0.8884
1367.479893 0.8857 0.8820 0.8779 0.8738 0.8697
1372.487112 0.8655 0.8613 0.8571 0.8530 0.8479
1377.494332 0.8421 0.8360 0.8299 0.8238 0.8183
1382.501551 0.8130 0.8077 0.8025 0.7963 0.7876
1387.508770 0.7778 0.7578 0.7378 0.7232 0.7102
1392.515989 0.7027 0.7009 0.7014 0.7027 0.7049
1397.523209 0.7069 0.7081 0.7087 0.7085 0.7073
1402.530428 0.7037 0.6975 0.6909 0.6841 0.6751
1407.537647 0.6528 0.6205 0.5882 0.5590 0.5463
1412.544866 0.5470 0.5873 0.6651 0.7677 0.8392
1417.552086 0.8485 0.8540 0.8583 0.8613 0.8630
1422.559305 0.8641 0.8643 0.8638 0.8632 0.8623
1427.566524 0.8598 0.8570 0.8551 0.8540 0.8535
1432.573743 0.8539 0.8551 0.8569 0.8582 0.8589
1437.580963 0.8587 0.8574 0.8541 0.8492 0.8439
1442.588182 0.8381 0.8310 0.8208 0.8071 0.7899
1447.595401 0.7685 0.7496 0.7142 0.6383 0.5552
1452.602620 0.4721 0.3890 0.3059 0.2059 0.1038
1457.609840 0.1035 0.1061 0.1427 0.2550 0.3673
1462.617059 0.4796 0.5918 0.6997 0.7736 0.7803
1467.624278 0.7824 0.7831 0.7843 0.7821 0.7813
1472.631497 0.7801 0.7783 0.7759 0.7730 0.7703
1477.638717 0.7688 0.7678 0.7703 0.7713 0.7737
1482.645936 0.7815 0.7933 0.8175 0.8328 0.8441
1487.653155 0.8588 0.8689 0.8753 0.8797 0.8836
1492.660374 0.8873 0.8899 0.8921 0.8943 0.8957
1497.667594 0.8969 0.8980 0.8991 0.8997 0.9002
1502.674813 0.9009 0.9029 0.9018 0.9024 0.9027
1507.682032 0.9028 0.9029 0.9030 0.9031 0.9030
1512.689251 0.9029 0.9027 0.9026 0.9024 0.9023
1517.696471 0.9021 0.9019 0.9017 0.9014 0.9012
1522.703690 0.9010 0.9007 0.9003 0.8998 0.8994
1527.710909 0.8990 0.8985 0.8977 0.8968 0.8958
1532.718128 0.8945 0.8920 0.8893 0.8867 0.8821
1537.725348 0.8766 0.8713 0.8660 0.8608 0.8533
1542.732567 0.8428 0.8287 0.8153 0.7998 0.7833
1547.739786 0.7717 0.7614 0.7480 0.7255 0.7068
1552.747005 0.6898 0.6738 0.6499 0.6089 0.5634
1557.754225 0.5179 0.4722 0.4264 0.3806 0.3348
1562.761444 0.2890 0.2432 0.1974 0.1516 0.1226
1567.768663 0.1160 0.1155 0.2326 0.3921 0.4298
1572.775882 0.4147 0.3945 0.3742 0.3596 0.3567
1577.783102 0.3570 0.4622 0.5827 0.6995 0.8045
1582.790321 0.8276 0.8265 0.8240 0.8226 0.8219
1587.797540 0.8213 0.8214 0.8219 0.8226 0.8242
1592.804759 0.8301 0.8363 0.8492 0.8613 0.8679
1597.811979 0.8713 0.8742 0.8761 0.8776 0.8791
1602.819198 0.8818 0.8848 0.8879 0.8900 0.8918
1607.826417 0.8934 0.8946 0.8957 0.8968 0.8980
1612.833636 0.8991 0.9000 0.9004 0.9007 0.9010
1617.840856 0.9014 0.9015 0.9016 0.9017 0.9017
1622.848075 0.9018 0.9018 0.9019 0.9027 0.9021
1627.855294 0.9021 0.9021 0.9019 0.9018 0.9016
1632.862513 0.9015 0.9013 0.9012 0.9009 0.9005
1637.869733 0.9001 0.8998 0.8994 0.8991 0.8986
1642.876952 0.8983 0.8977 0.8969 0.8962 0.8954
1647.884171 0.8946 0.8939 0.8931 0.8923 0.8910
1652.891390 0.8896 0.8882 0.8867 0.8852 0.8838
1657.898610 0.8823 0.8808 0.8792 0.8776 0.8768
1662.905829 0.8762 0.8756 0.8750 0.8749 0.8735
1667.913048 0.8750 0.8763 0.8775 0.8789 0.8806
1672.920267 0.8823 0.8841 0.8858 0.8878 0.8899
1677.927487 0.8917 0.8931 0.8945 0.8958 0.8962
1682.934706 0.8966 0.8969 0.8972 0.8974 0.8977
1687.941925 0.8979 0.8980 0.8981 0.8982 0.8983
1692.949144 0.8982 0.8981 0.8980 0.8979 0.8978
1697.956364 0.8977 0.9006 0.8970 0.8964 0.8959
1702.963583 0.8955 0.8951 0.8946 0.8942 0.8937
1707.970802 0.8933 0.8928 0.8924 0.8919 0.8914
1712.978021 0.8905 0.8896 0.8887 0.8879 0.8859
1717.985241 0.8838 0.8816 0.8795 0.8774 0.8753
1722.992460 0.8733 0.8717 0.8704 0.8692 0.8690
1727.999679 0.8689 0.8688 0.8686 0.8687 0.8693
1733.006898 0.8699 0.8711 0.8715 0.8725 0.8736
1738.014118 0.8746 0.8757 0.8767 0.8783 0.8800
1743.021337 0.8818 0.8836 0.8855 0.8874 0.8887
1748.028556 0.8899 0.8910 0.8915 0.8916 0.8918
1753.035775 0.8919 0.8920 0.8920 0.8921 0.8921
1758.042995 0.8922 0.8923 0.8923 0.8924 0.8926
1763.050214 0.8942 0.8923 0.8921 0.8920 0.8919
1768.057433 0.8917 0.8916 0.8915 0.8913 0.8911
1773.064652 0.8908 0.8906 0.8903 0.8900 0.8898
1778.071872 0.8894 0.8886 0.8867 0.8849 0.8834
1783.079091 0.8821 0.8809 0.8800 0.8799 0.8798
1788.086310 0.8796 0.8778 0.8838 0.8853 0.8867
1793.093529 0.8881 0.8895 0.8904 0.8913 0.8922
1798.100749 0.8931 0.8940 0.8949 0.8958 0.8966
1803.107968 0.8974 0.8977 0.8979 0.8980 0.8981
1808.115187 0.8982 0.8983 0.8984 0.8983 0.8982
1813.122406 0.8981 0.8980 0.8978 0.8979 0.8991
1818.129626 0.8975 0.8974 0.8972 0.8971 0.8970
1823.136845 0.8969 0.8968 0.8966 0.8964 0.8961
1828.144064 0.8959 0.8956 0.8953 0.8951 0.8948
1833.151283 0.8945 0.8943 0.8940 0.8937 0.8934
1838.158503 0.8930 0.8924 0.8918 0.8913 0.8907
1843.165722 0.8902 0.8896 0.8890 0.8885 0.8878
1848.172941 0.8864 0.8845 0.8826 0.8807 0.8789
1853.180160 0.8773 0.8760 0.8748 0.8735 0.8723
1858.187380 0.8710 0.8701 0.8698 0.8695 0.8695
1863.194599 0.8703 0.8710 0.8719 0.8728 0.8738
1868.201818 0.8753 0.8768 0.8785 0.8809 0.8840
1873.209037 0.8870 0.8892 0.8915 0.8936 0.8956
1878.216257 0.8973 0.8978 0.8980 0.8982 0.8985
1883.223476 0.8988 0.8990 0.8993 0.8995 0.8996
1888.230695 0.8995 0.8995 0.8994 0.8995 0.8999
1893.237914 0.8992 0.8991 0.8991 0.8991 0.8991
1898.245134 0.8990 0.8990 0.8990 0.8990 0.8990
1903.252353 0.8990 0.8988 0.8985 0.8983 0.8981
1908.259572 0.8979 0.8977 0.8974 0.8972 0.8969
1913.266791 0.8961 0.8952 0.8943 0.8934 0.8925
1918.274011 0.8916 0.8906 0.8897 0.8886 0.8870
1923.281230 0.8853 0.8837 0.8821 0.8804 0.8788
1928.288449 0.8773 0.8759 0.8746 0.8733 0.8722
1933.295668 0.8713 0.8711 0.8718 0.8729 0.8713
1938.302888 0.8718 0.8726 0.8737 0.8766 0.8821
1943.310107 0.8855 0.8872 0.8876 0.8852 0.8757
1948.317326 0.8617 0.8499 0.8436 0.8405 0.8449
1953.324545 0.8586 0.8724 0.8840 0.8893 0.8907
1958.331765 0.8918 0.8928 0.8937 0.8944 0.8948
1963.338984 0.8952 0.8956 0.8958 0.8960 0.8962
1968.346203 0.8963 0.8964 0.8965 0.8966 0.8967
1973.353422 0.8969 0.8970 0.8971 0.8972 0.8971
1978.360642 0.8971 0.8970 0.8969 0.8969 0.8968
1983.367861 0.8968 0.8967 0.8966 0.8965 0.8965
1988.375080 0.8964 0.8963 0.8962 0.8962 0.8961
1993.382299 0.8960 0.8959 0.8958 0.8957 0.8956
1998.389519 0.8955 0.8954 0.8953 0.8952 0.8951
2003.396738 0.8950 0.8950 0.8951 0.8951 0.8952
2008.403957 0.8952 0.8953 0.8953 0.8954 0.8954
2013.411176 0.8955 0.8955 0.8956 0.8956 0.8957
2018.418396 0.8957 0.8958 0.8958 0.8959 0.8959
2023.425615 0.8960 0.8959 0.8960 0.8961 0.8961
2028.432834 0.8962 0.8962 0.8963 0.8963 0.8964
2033.440053 0.8964 0.8965 0.8965 0.8965 0.8965
2038.447273 0.8965 0.8965 0.8964 0.8964 0.8964
2043.454492 0.8964 0.8963 0.8963 0.8963 0.8963
2048.461711 0.8962 0.8962 0.8962 0.8961 0.8961
2053.468930 0.8961 0.8961 0.8960 0.8960 0.8960
2058.476150 0.8959 0.8959 0.8959 0.8959 0.8958
2063.483369 0.8958 0.8958 0.8957 0.8957 0.8957
2068.490588 0.8956 0.8956 0.8956 0.8955 0.8954
2073.497807 0.8954 0.8954 0.8953 0.8953 0.8953
2078.505027 0.8952 0.8952 0.8952 0.8951 0.8951
2083.512246 0.8950 0.8950 0.8950 0.8949 0.8949
2088.519465 0.8949 0.8948 0.8948 0.8948 0.8947
2093.526684 0.8947 0.8947 0.8947 0.8946 0.8946
2098.533904 0.8946 0.8946 0.8946 0.8945 0.8945
2103.541123 0.8945 0.8945 0.8945 0.8944 0.8944
2108.548342 0.8944 0.8944 0.8944 0.8943 0.8943
2113.555561 0.8943 0.8943 0.8943 0.8943 0.8942
2118.562781 0.8942 0.8942 0.8942 0.8942 0.8941
2123.570000 0.8941 0.8941 0.8941 0.8941 0.8940
2128.577219 0.8940 0.8940 0.8940 0.8940 0.8940
2133.584439 0.8940 0.8939 0.8939 0.8939 0.8939
2138.591658 0.8939 0.8939 0.8939 0.8938 0.8938
2143.598877 0.8938 0.8938 0.8938 0.8938 0.8938
2148.606096 0.8937 0.8937 0.8937 0.8937 0.8937
2153.613316 0.8937 0.8937 0.8936 0.8936 0.8936
2158.620535 0.8936 0.8936 0.8936 0.8936 0.8936
2163.627754 0.8936 0.8936 0.8935 0.8935 0.8935
2168.634973 0.8935 0.8935 0.8935 0.8935 0.8935
2173.642193 0.8935 0.8934 0.8934 0.8934 0.8934
2178.649412 0.8934 0.8934 0.8934 0.8933 0.8933
2183.656631 0.8932 0.8931 0.8930 0.8929 0.8928
2188.663850 0.8927 0.8926 0.8926 0.8925 0.8924
2193.671070 0.8923 0.8922 0.8921 0.8920 0.8920
2198.678289 0.8919 0.8918 0.8917 0.8916 0.8915
2203.685508 0.8914 0.8913 0.8913 0.8912 0.8911
2208.692727 0.8910 0.8909 0.8908 0.8907 0.8907
2213.699947 0.8906 0.8905 0.8904 0.8903 0.8902
2218.707166 0.8901 0.8900 0.8900 0.8900 0.8901
2223.714385 0.8901 0.8901 0.8901 0.8901 0.8901
2228.721604 0.8901 0.8902 0.8902 0.8902 0.8902
2233.728824 0.8902 0.8902 0.8902 0.8903 0.8903
2238.736043 0.8903 0.8903 0.8903 0.8903 0.8904
2243.743262 0.8904 0.8904 0.8904 0.8904 0.8904
2248.750481 0.8904 0.8905 0.8905 0.8905 0.8905
2253.757701 0.8905 0.8905 0.8906 0.8906 0.8906
2258.764920 0.8906 0.8906 0.8906 0.8906 0.8907
2263.772139 0.8907 0.8907 0.8907 0.8907 0.8907
2268.779358 0.8908 0.8908 0.8908 0.8908 0.8908
2273.786578 0.8908 0.8909 0.8909 0.8909 0.8909
2278.793797 0.8909 0.8909 0.8909 0.8910 0.8910
2283.801016 0.8910 0.8910 0.8910 0.8910 0.8911
2288.808235 0.8911 0.8911 0.8911 0.8911 0.8911
2293.815455 0.8910 0.8909 0.8908 0.8906 0.8905
2298.822674 0.8904 0.8903 0.8901 0.8900 0.8899
2303.829893 0.8898 0.8896 0.8895 0.8894 0.8891
2308.837112 0.8886 0.8881 0.8876 0.8870 0.8865
2313.844332 0.8861 0.8860 0.8858 0.8856 0.8855
2318.851551 0.8853 0.8852 0.8850 0.8848 0.8847
2323.858770 0.8845 0.8844 0.8843 0.8842 0.8842
2328.865989 0.8841 0.8840 0.8840 0.8839 0.8838
2333.873209 0.8838 0.8837 0.8837 0.8836 0.8835
2338.880428 0.8835 0.8834 0.8833 0.8834 0.8835
2343.887647 0.8837 0.8838 0.8839 0.8841 0.8842
2348.894866 0.8843 0.8845 0.8846 0.8847 0.8848
2353.902086 0.8850 0.8851 0.8854 0.8857 0.8860
2358.909305 0.8863 0.8865 0.8868 0.8871 0.8874
2363.916524 0.8877 0.8880 0.8883 0.8885 0.8888
2368.923743 0.8889 0.8891 0.8893 0.8894 0.8895
2373.930963 0.8896 0.8896 0.8896 0.8896 0.8897
2378.938182 0.8897 0.8897 0.8895 0.8893 0.8890
2383.945401 0.8888 0.8886 0.8883 0.8881 0.8879
2388.952620 0.8876 0.8874 0.8871 0.8872 0.8873
2393.959840 0.8874 0.8875 0.8876 0.8877 0.8878
2398.967059 0.8879 0.8880 0.8883 0.8887 0.8891
2403.974278 0.8896 0.8900 0.8904 0.8908 0.8911
2408.981497 0.8913 0.8916 0.8918 0.8919 0.8919
2413.988717 0.8918 0.8917 0.8916 0.8915 0.8915
2418.995936 0.8914 0.8912 0.8908 0.8905 0.8902
2424.003155 0.8898 0.8895 0.8892 0.8889 0.8885
2429.010374 0.8883 0.8882 0.8880 0.8879 0.8877
2434.017594 0.8876 0.8874 0.8873 0.8871 0.8870
2439.024813 0.8869 0.8867 0.8866 0.8865 0.8863
2444.032032 0.8862 0.8861 0.8859 0.8858 0.8857
2449.039251 0.8855 0.8854 0.8853 0.8851 0.8850
2454.046471 0.8849 0.8848 0.8846 0.8845 0.8844
2459.053690 0.8842 0.8841 0.8840 0.8838 0.8837
2464.060909 0.8836 0.8834 0.8833 0.8831 0.8829
2469.068128 0.8833 0.8838 0.8853 0.8872 0.8899
2474.075348 0.8919 0.8938 0.8947 0.8943 0.8940
2479.082567 0.8937 0.8933 0.8923 0.8912 0.8901
2484.089786 0.8891 0.8880 0.8874 0.8868 0.8865
2489.097005 0.8863 0.8861 0.8859 0.8858 0.8856
2494.104225 0.8855 0.8853 0.8851 0.8849 0.8847
2499.111444 0.8845 0.8843 0.8841 0.8840 0.8840
2504.118663 0.8839 0.8839 0.8838 0.8837 0.8837
2509.125882 0.8836 0.8835 0.8835 0.8834 0.8833
2514.133102 0.8832 0.8832 0.8831 0.8830 0.8830
2519.140321 0.8829 0.8828 0.8828 0.8828 0.8827
2524.147540 0.8827 0.8827 0.8827 0.8826 0.8826
2529.154759 0.8826 0.8826 0.8825 0.8825 0.8825
2534.161979 0.8824 0.8824 0.8823 0.8823 0.8822
2539.169198 0.8821 0.8820 0.8819 0.8819 0.8818
2544.176417 0.8817 0.8816 0.8816 0.8815 0.8814
2549.183636 0.8813 0.8813 0.8812 0.8812 0.8812
2554.190856 0.8811 0.8811 0.8810 0.8810 0.8810
2559.198075 0.8809 0.8809 0.8808 0.8808 0.8808
2564.205294 0.8807 0.8807 0.8806 0.8806 0.8805
2569.212513 0.8805 0.8805 0.8804 0.8804 0.8804
2574.219733 0.8804 0.8804 0.8804 0.8804 0.8804
2579.226952 0.8804 0.8804 0.8804 0.8804 0.8804
2584.234171 0.8804 0.8804 0.8804 0.8804 0.8804
2589.241390 0.8804 0.8804 0.8804 0.8804 0.8804
2594.248610 0.8803 0.8803 0.8802 0.8801 0.8800
2599.255829 0.8798 0.8797 0.8796 0.8795 0.8794
2604.263048 0.8793 0.8792 0.8790 0.8789 0.8788
2609.270267 0.8787 0.8786 0.8785 0.8783 0.8781
2614.277487 0.8779 0.8777 0.8774 0.8772 0.8771
2619.284706 0.8773 0.8775 0.8778 0.8781 0.8784
2624.291925 0.8786 0.8788 0.8789 0.8790 0.8792
2629.299144 0.8793 0.8794 0.8795 0.8796 0.8797
2634.306364 0.8797 0.8798 0.8799 0.8800 0.8800
2639.313583 0.8800 0.8800 0.8801 0.8801 0.8801
2644.320802 0.8801 0.8802 0.8802 0.8802 0.8802
2649.328021 0.8803 0.8803 0.8803 0.8803 0.8804
2654.335241 0.8804 0.8804 0.8805 0.8805 0.8805
2659.342460 0.8805 0.8804 0.8803 0.8803 0.8802
2664.349679 0.8801 0.8800 0.8800 0.8799 0.8799
2669.356898 0.8798 0.8798 0.8797 0.8796 0.8796
2674.364118 0.8795 0.8795 0.8794 0.8794 0.8793
2679.371337 0.8792 0.8792 0.8791 0.8791 0.8790
2684.378556 0.8790 0.8789 0.8788 0.8788 0.8787
2689.385775 0.8787 0.8786 0.8786 0.8785 0.8785
2694.392995 0.8784 0.8783 0.8783 0.8782 0.8782
2699.400214 0.8781 0.8781 0.8780 0.8780 0.8780
2704.407433 0.8781 0.8781 0.8782 0.8782 0.8783
2709.414652 0.8783 0.8783 0.8784 0.8784 0.8785
2714.421872 0.8785 0.8786 0.8786 0.8786 0.8787
2719.429091 0.8787 0.8788 0.8788 0.8788 0.8789
2724.436310 0.8787 0.8785 0.8783 0.8781 0.8779
2729.443529 0.8777 0.8775 0.8774 0.8774 0.8775
2734.450749 0.8776 0.8778 0.8780 0.8783 0.8787
2739.457968 0.8791 0.8795 0.8799 0.8803 0.8808
2744.465187 0.8812 0.8816 0.8819 0.8821 0.8823
2749.472406 0.8825 0.8827 0.8828 0.8826 0.8824
2754.479626 0.8822 0.8821 0.8820 0.8819 0.8818
2759.486845 0.8818 0.8818 0.8817 0.8816 0.8814
2764.494064 0.8812 0.8811 0.8809 0.8808 0.8807
2769.501283 0.8806 0.8804 0.8803 0.8802 0.8802
2774.508503 0.8801 0.8800 0.8799 0.8798 0.8797
2779.515722 0.8797 0.8796 0.8795 0.8794 0.8793
2784.522941 0.8792 0.8792 0.8791 0.8790 0.8788
2789.530160 0.8786 0.8784 0.8782 0.8781 0.8779
2794.537380 0.8777 0.8775 0.8773 0.8771 0.8769
2799.544599 0.8768 0.8766 0.8764 0.8762 0.8760
2804.551818 0.8758 0.8756 0.8755 0.8753 0.8752
2809.559037 0.8750 0.8749 0.8748 0.8746 0.8745
2814.566257 0.8743 0.8742 0.8741 0.8739 0.8738
2819.573476 0.8736 0.8735 0.8734 0.8733 0.8733
2824.580695 0.8732 0.8732 0.8731 0.8731 0.8731
2829.587914 0.8730 0.8730 0.8729 0.8729 0.8728
2834.595134 0.8728 0.8727 0.8727 0.8726 0.8726
2839.602353 0.8725 0.8725 0.8725 0.8725 0.8724
2844.609572 0.8724 0.8724 0.8724 0.8724 0.8724
2849.616791 0.8723 0.8723 0.8723 0.8723 0.8723
2854.624011 0.8723 0.8722 0.8722 0.8722 0.8722
2859.631230 0.8723 0.8725 0.8727 0.8728 0.8730
2864.638449 0.8731 0.8733 0.8735 0.8736 0.8738
2869.645668 0.8739 0.8741 0.8743 0.8744 0.8745
2874.652888 0.8746 0.8746 0.8747 0.8748 0.8749
2879.660107 0.8750 0.8750 0.8751 0.8752 0.8753
2884.667326 0.8753 0.8754 0.8755 0.8756 0.8756
2889.674545 0.8757 0.8758 0.8759 0.8759 0.8760
2894.681765 0.8760 0.8760 0.8761 0.8761 0.8761
2899.688984 0.8761 0.8762 0.8762 0.8762 0.8762
2904.696203 0.8763 0.8763 0.8763 0.8763 0.8764
2909.703422 0.8764 0.8764 0.8764 0.8763 0.8763
2914.710642 0.8762 0.8762 0.8761 0.8761 0.8760
2919.717861 0.8760 0.8759 0.8759 0.8758 0.8758
2924.725080 0.8757 0.8757 0.8756 0.8756 0.8755
2929.732299 0.8755 0.8754 0.8754 0.8753 0.8753
2934.739519 0.8752 0.8752 0.8751 0.8751 0.8750
2939.746738 0.8749 0.8749 0.8748 0.8748 0.8747
2944.753957 0.8747 0.8746 0.8745 0.8745 0.8744
2949.761176 0.8744 0.8743 0.8743 0.8742 0.8743
2954.768396 0.8744 0.8745 0.8746 0.8746 0.8747
2959.775615 0.8748 0.8749 0.8749 0.8750 0.8751
2964.782834 0.8752 0.8753 0.8753 0.8754 0.8755
2969.790053 0.8756 0.8756 0.8757 0.8758 0.8758
2974.797273 0.8757 0.8756 0.8754 0.8753 0.8752
2979.804492 0.8751 0.8749 0.8748 0.8747 0.8746
2984.811711 0.8744 0.8743 0.8742 0.8741 0.8739
2989.818930 0.8738 0.8737 0.8736 0.8734 0.8733
2994.826150 0.8732 0.8731 0.8729 0.8727 0.8725
2999.833369 0.8724 0.8722 0.8720 0.8719 0.8717
3004.840588 0.8715 0.8714 0.8712 0.8710 0.8708
3009.847807 0.8707 0.8705 0.8703 0.8702 0.8701
3014.855027 0.8700 0.8699 0.8698 0.8697 0.8696
3019.862246 0.8695 0.8694 0.8693 0.8692 0.8689
3024.869465 0.8685 0.8681 0.8677 0.8672 0.8668
3029.876684 0.8662 0.8656 0.8649 0.8643 0.8636
3034.883904 0.8630 0.8618 0.8604 0.8587 0.8570
3039.891123 0.8553 0.8529 0.8503 0.8475 0.8442
3044.898342 0.8402 0.8354 0.8299 0.8242 0.8178
3049.905561 0.8110 0.8040 0.7968 0.7909 0.7852
3054.912781 0.7785 0.7761 0.7752 0.7761 0.7781
3059.920000 0.7821 0.7910 0.7981 0.8051 0.8100
3064.927219 0.8145 0.8176 0.8186 0.8189 0.8192
3069.934439 0.8237 0.8188 0.8178 0.8173 0.8157
3074.941658 0.8138 0.8116 0.8093 0.8070 0.8049
3079.948877 0.8027 0.8018 0.7984 0.8014 0.8025
3084.956096 0.8064 0.8113 0.8165 0.8219 0.8256
3089.963316 0.8289 0.8322 0.8349 0.8369 0.8390
3094.970535 0.8411 0.8432 0.8450 0.8461 0.8472
3099.977754 0.8483 0.8494 0.8505 0.8516 0.8525
3104.984973 0.8529 0.8533 0.8538 0.8542 0.8546
3109.992193 0.8550 0.8553 0.8556 0.8559 0.8562
3114.999412 0.8565 0.8567 0.8568 0.8570 0.8571
3120.006631 0.8595 0.8639 0.8682 0.8683 0.8682
3125.013850 0.8681 0.8667 0.8654 0.8641 0.8627
3130.021070 0.8611 0.8593 0.8569 0.8540 0.8514
3135.028289 0.8496 0.8486 0.8490 0.8494 0.8502
3140.035508 0.8514 0.8529 0.8544 0.8560 0.8576
3145.042727 0.8590 0.8603 0.8616 0.8627 0.8638
3150.049947 0.8649 0.8659 0.8670 0.8679 0.8687
3155.057166 0.8694 0.8697 0.8699 0.8701 0.8703
3160.064385 0.8705 0.8708 0.8710 0.8712 0.8712
3165.071604 0.8712 0.8712 0.8712 0.8712 0.8712
3170.078824 0.8711 0.8711 0.8711 0.8712 0.8713
3175.086043 0.8713 0.8714 0.8715 0.8716 0.8716
3180.093262 0.8717 0.8718 0.8719 0.8720 0.8720
3185.100481 0.8721 0.8722 0.8722 0.8722 0.8723
3190.107701 0.8723 0.8723 0.8724 0.8724 0.8724
3195.114920 0.8724 0.8725 0.8725 0.8725 0.8725
3200.122139 0.8726 0.8726 0.8726 0.8726 0.8727
3205.129358 0.8729 0.8726 0.8726 0.8726 0.8726
3210.136578 0.8726 0.8726 0.8726 0.8726 0.8726
3215.143797 0.8726 0.8726 0.8725 0.8725 0.8725
3220.151016 0.8725 0.8725 0.8724 0.8724 0.8724
3225.158235 0.8724 0.8724 0.8723 0.8723 0.8723
3230.165455 0.8723 0.8723 0.8723 0.8723 0.8723
3235.172674 0.8723 0.8723 0.8723 0.8723 0.8723
3240.179893 0.8723 0.8723 0.8723 0.8723 0.8723
3245.187112 0.8723 0.8723 0.8723 0.8723 0.8723
3250.194332 0.8723 0.8723 0.8723 0.8723 0.8723
3255.201551 0.8723 0.8723 0.8723 0.8723 0.8723
3260.208770 0.8723 0.8723 0.8723 0.8723 0.8723
3265.215989 0.8723 0.8723 0.8723 0.8723 0.8723
3270.223209 0.8723 0.8723 0.8723 0.8723 0.8723
3275.230428 0.8723 0.8723 0.8723 0.8723 0.8723
3280.237647 0.8723 0.8722 0.8722 0.8722 0.8721
3285.244866 0.8721 0.8721 0.8720 0.8720 0.8720
3290.252086 0.8720 0.8719 0.8719 0.8719 0.8718
3295.259305 0.8718 0.8718 0.8717 0.8717 0.8717
3300.266524 0.8716 0.8716 0.8716 0.8716 0.8715
3305.273743 0.8715 0.8714 0.8714 0.8713 0.8713
3310.280963 0.8713 0.8712 0.8712 0.8711 0.8711
3315.288182 0.8711 0.8710 0.8710 0.8709 0.8709
3320.295401 0.8709 0.8708 0.8708 0.8707 0.8707
3325.302620 0.8706 0.8706 0.8705 0.8704 0.8703
3330.309840 0.8703 0.8702 0.8701 0.8700 0.8700
3335.317059 0.8699 0.8698 0.8697 0.8697 0.8696
3340.324278 0.8696 0.8695 0.8695 0.8695 0.8695
3345.331497 0.8695 0.8694 0.8694 0.8694 0.8694
3350.338717 0.8694 0.8694 0.8693 0.8693 0.8693
3355.345936 0.8693 0.8691 0.8688 0.8685 0.8681
3360.353155 0.8678 0.8674 0.8671 0.8667 0.8663
3365.360374 0.8659 0.8655 0.8652 0.8648 0.8644
3370.367594 0.8642 0.8642 0.8641 0.8641 0.8641
3375.374813 0.8640 0.8640 0.8640 0.8641 0.8641
3380.382032 0.8642 0.8642 0.8643 0.8643 0.8644
3385.389251 0.8644 0.8645 0.8645 0.8646 0.8647
3390.396471 0.8647 0.8647 0.8648 0.8648 0.8648
3395.403690 0.8648 0.8649 0.8649 0.8649 0.8649
3400.410909 0.8648 0.8647 0.8646 0.8644 0.8643
3405.418128 0.8641 0.8640 0.8639 0.8637 0.8636
3410.425348 0.8635 0.8633 0.8632 0.8630 0.8627
3415.432567 0.8624 0.8621 0.8618 0.8615 0.8612
3420.439786 0.8609 0.8606 0.8604 0.8602 0.8600
3425.447005 0.8601 0.8607 0.8613 0.8620 0.8627
3430.454225 0.8633 0.8639 0.8645 0.8651 0.8655
3435.461444 0.8656 0.8657 0.8658 0.8660 0.8661
3440.468663 0.8662 0.8663 0.8664 0.8666 0.8667
3445.475882 0.8668 0.8669 0.8670 0.8672 0.8673
3450.483102 0.8674 0.8675 0.8676 0.8677 0.8677
3455.490321 0.8678 0.8679 0.8680 0.8681 0.8682
3460.497540 0.8683 0.8683 0.8683 0.8683 0.8683
3465.504759 0.8683 0.8683 0.8683 0.8683 0.8683
3470.511979 0.8683 0.8683 0.8683 0.8684 0.8684
3475.519198 0.8684 0.8684 0.8684 0.8684 0.8684
3480.526417 0.8685 0.8685 0.8685 0.8685 0.8686
3485.533636 0.8686 0.8686 0.8686 0.8687 0.8687
3490.540856 0.8687 0.8687 0.8688 0.8688 0.8688
3495.548075 0.8688 0.8689 0.8689 0.8689 0.8689
3500.555294 0.8690 0.8690 0.8690 0.8690 0.8691
3505.562513 0.8691 0.8691 0.8692 0.8692 0.8692
3510.569733 0.8692 0.8693 0.8693 0.8693 0.8693
3515.576952 0.8694 0.8694 0.8694 0.8694 0.8695
3520.584171 0.8695 0.8695 0.8695 0.8696 0.8696
3525.591390 0.8696 0.8696 0.8697 0.8697 0.8697
3530.598610 0.8697 0.8698 0.8698 0.8697 0.8697
3535.605829 0.8696 0.8696 0.8695 0.8695 0.8694
3540.613048 0.8694 0.8693 0.8693 0.8692 0.8692
3545.620267 0.8691 0.8691 0.8691 0.8690 0.8690
3550.627487 0.8689 0.8689 0.8688 0.8688 0.8687
3555.634706 0.8687 0.8686 0.8685 0.8685 0.8684
3560.641925 0.8684 0.8683 0.8683 0.8682 0.8682
3565.649144 0.8681 0.8681 0.8680 0.8680 0.8679
3570.656364 0.8679 0.8679 0.8679 0.8679 0.8680
3575.663583 0.8680 0.8680 0.8680 0.8681 0.8681
3580.670802 0.8681 0.8681 0.8682 0.8682 0.8682
3585.678021 0.8682 0.8683 0.8683 0.8683 0.8683
3590.685241 0.8684 0.8684 0.8684 0.8684 0.8685
3595.692460 0.8685 0.8685 0.8685 0.8684 0.8684
3600.699679 0.8683 0.8683 0.8682 0.8682 0.8681
3605.706898 0.8681 0.8680 0.8680 0.8679 0.8679
3610.714118 0.8678 0.8678 0.8678 0.8677 0.8677
3615.721337 0.8676 0.8676 0.8676 0.8676 0.8676
3620.728556 0.8676 0.8676 0.8676 0.8676 0.8675
3625.735775 0.8675 0.8675 0.8675 0.8675 0.8675
3630.742995 0.8675 0.8675 0.8675 0.8675 0.8675
3635.750214 0.8675 0.8675 0.8675 0.8675 0.8675
3640.757433 0.8675 0.8675 0.8675 0.8675 0.8675
3645.764652 0.8675 0.8675 0.8675 0.8676 0.8676
3650.771872 0.8676 0.8676 0.8676 0.8676 0.8676
3655.779091 0.8676 0.8676 0.8676 0.8676 0.8676
3660.786310 0.8676 0.8677 0.8677 0.8677 0.8676
3665.793529 0.8676 0.8676 0.8676 0.8676 0.8676
3670.800749 0.8676 0.8676 0.8676 0.8676 0.8676
3675.807968 0.8676 0.8676 0.8676 0.8676 0.8676
3680.815187 0.8676 0.8676 0.8675 0.8675 0.8675
3685.822406 0.8675 0.8675 0.8675 0.8674 0.8674
3690.829626 0.8673 0.8673 0.8672 0.8672 0.8672
3695.836845 0.8671 0.8671 0.8670 0.8670 0.8669
3700.844064 0.8669 0.8669 0.8668 0.8668 0.8667
3705.851283 0.8667 0.8667 0.8666 0.8665 0.8664
3710.858503 0.8662 0.8661 0.8660 0.8659 0.8658
3715.865722 0.8657 0.8656 0.8654 0.8653 0.8652
3720.872941 0.8651 0.8650 0.8649 0.8647 0.8645
3725.880160 0.8642 0.8640 0.8638 0.8636 0.8633
3730.887380 0.8631 0.8629 0.8627 0.8625 0.8622
3735.894599 0.8621 0.8621 0.8620 0.8619 0.8618
3740.901818 0.8617 0.8619 0.8621 0.8623 0.8626
3745.909037 0.8628 0.8631 0.8634 0.8638 0.8641
3750.916257 0.8644 0.8648 0.8649 0.8650 0.8651
3755.923476 0.8651 0.8652 0.8653 0.8653 0.8654
3760.930695 0.8654 0.8653 0.8652 0.8651 0.8650
3765.937914 0.8649 0.8648 0.8647 0.8646 0.8645
3770.945134 0.8645 0.8644 0.8644 0.8643 0.8642
3775.952353 0.8642 0.8641 0.8641 0.8641 0.8641
3780.959572 0.8641 0.8642 0.8642 0.8642 0.8642
3785.966791 0.8643 0.8643 0.8642 0.8642 0.8641
3790.974011 0.8640 0.8640 0.8639 0.8639 0.8638
3795.981230 0.8637 0.8637 0.8636 0.8636 0.8635
3800.988449 0.8634 0.8634 0.8633 0.8633 0.8632
3805.995668 0.8631 0.8631 0.8630
##END=
