##TITLE=Vinyl Acetate
##JCAMP-DX=4.24
##DATA TYPE=INFRARED SPECTRUM
##CLASS=IUPAC A
##ORIGIN=NIST, Anayltical Chemistry Division, 301-975-3108
##OWNER=COPYRIGHT (C) 1998 by the U.S. Secretary of Commerce
##DATE=98/10/1
##$SPECTRA VERSION=1.00
##$UNCERTAINTY IN Y=2.1 % relative (B=1.1E-04,C=7.7E-10,D=2.7E-14)
##CAS NAME=Ethenyl Ester-Acetic Acid
##CAS REGISTRY NO=108-05-4
##MOLFORM=C H3 C O2 C H: C H2
##MP=-93.2 C
##BP=72.2 C
##$NIST SOURCE=QUANT-IR
##SPECTROMETER/DATA SYSTEM=IFS66V (Bruker)
##INSTRUMENT PARAMETERS=KBr Beam splitter; MCT Detector; Multipass cell
##STATE=gas
##SAMPLE DESCRIPTION=Vinyl Acetate Primary Gas Standard
##PRESSURE=101.3 kPa
##TEMPERATURE=23 C
##SAMPLING PROCEDURE=1 L/min Flow
##RESOLUTION=0.9640
##DATA PROCESSING=Boxcar Apodization
##XUNITS=cm-1
##YUNITS=(micromol/mol)-1m-1 (base 10)
##XFACTOR=1.0
##YFACTOR=18.189E-13
##DELTAX=0.4820
##FIRSTX=575.169
##LASTX=3975.077
##FIRSTY=.0000108
##MAXX=3974.59
##MINX=575.17
##MAXY=.002827
##MINY=-2.07E-06
##NPOINTS=7053
##XYDATA=(X++(Y..Y))
575.17 5966036 6364450 6679850 6997790 7259768 7732420
577.58 7733952 7765034 8067372 8301782 8916516 9178698
580.47 9067054 9626300 9883688 10261950 9880212 10560100
583.37 10837140 11164370 10955410 11630740 11487390 12021400
586.26 12940870 14209930 15939760 14898530 14799000 15672650
589.15 16402630 16565840 17532940 18700530 20171740 20702070
592.04 21044840 20553870 20641420 20288510 20063120 19687130
594.94 19144860 18376400 17790350 17453980 17052510 16871190
597.83 16436260 16092280 15852250 15927920 15761590 15831520
600.72 15758650 15689940 16029190 15931230 15899460 16146570
603.61 16085910 16283930 16334630 16575810 16723300 16740100
606.51 16977520 17058030 17388850 17642150 17791650 17854870
609.40 17951840 18344920 18128610 18542160 18622510 18612690
612.29 18887550 18900970 18954600 18960610 18892790 18850850
615.18 19074020 19050350 18856570 18824230 18677500 18792050
618.08 18801280 18843670 18812280 18780900 18930550 19020010
620.97 19241910 19398660 19691440 19951740 20154150 20472240
623.86 20951900 21302680 21773850 22242760 22774400 23017320
626.76 23526240 23914680 24331230 24746030 24903440 25168120
629.65 25237320 25423510 25568090 25352790 25217370 24979030
632.54 24712170 24076870 23979470 23563010 23192120 23132430
635.43 23061730 22868240 22929060 23079940 23326360 23863940
638.33 23591500 23038880 22745820 22714930 22925120 22820260
641.22 22941140 22926090 23049680 23055790 22850840 22743320
644.11 22418480 22149760 22056420 21633600 21003680 20589910
647.00 20088880 19613740 18975550 18457270 17899920 17418220
649.90 16771960 16203660 15739940 15204060 14710400 14070560
652.79 13577450 13227690 12708880 12218130 11831200 11362980
655.68 11129280 10702080 10427540 10037250 9676156 9294352
658.58 8940398 8636390 8251642 7939984 7589754 7251984
661.47 7037876 6675442 6351516 6146168 5858744 5627728
664.36 5349708 5096812 4825466 4616740 4373098 4271168
667.25 4059876 3907828 3689790 3593400 3474584 3278596
670.15 3138964 3075876 2968604 2918490 2828722 2846162
673.04 2796376 2644922 2553164 2628796 2628188 2551614
675.93 2530232 2541572 2480970 2538572 2619112 2636550
678.82 2644600 2638668 2730582 2786966 2693874 2819880
681.72 2831878 2974872 2959176 3049168 3018760 3179730
684.61 3288012 3359514 3290942 3484468 3621464 3595204
687.50 3674520 3847480 3771572 3952090 3992362 4093564
690.40 4166036 4351384 4257528 4416258 4570816 4627174
693.29 4776586 4925096 5049590 5048302 5077818 5248846
696.18 5333338 5390768 5443770 5704580 5891938 6025788
699.07 5870820 5672894 5689700 5732620 5711098 5701260
701.97 5707520 5715818 5733842 5866792 5917940 5945366
704.86 5932472 5872488 5886180 5924682 5988618 5974354
707.75 5968346 5916566 5961746 6035978 6076962 6179546
710.64 6158060 6344376 6361586 6607344 6691292 6629904
713.54 6710116 6677788 6537580 6598876 6692914 6626738
716.43 6480576 6358014 6281282 6175428 6010276 5880574
719.32 5724694 5593180 5480566 5273928 5039180 5010036
722.22 4915920 4836900 4698408 4747216 4600402 4629720
725.11 4523278 4564120 4500340 4423034 4317604 4259542
728.00 4205474 4128906 4100982 4088540 3947678 3987968
730.89 3896200 3916204 3799858 3814314 3726176 3720302
733.79 3623098 3615282 3573838 3576712 3505772 3471592
736.68 3349082 3381496 3329564 3309552 3217162 3235310
739.57 3226760 3153372 3109062 3096062 3055708 3056914
742.46 3088656 3083202 3085326 3100930 3080672 3024664
745.36 3034388 3070792 3027678 3128472 3097140 3119604
748.25 3095590 3171734 3190960 3223394 3169620 3260414
751.14 3235474 3283088 3257004 3299156 3291038 3324350
754.04 3335328 3336842 3390562 3454168 3450866 3475628
756.93 3500982 3565396 3505490 3584648 3586718 3596544
759.82 3704666 3786872 3810516 3862002 3890452 3927326
762.71 3979196 4080084 4081986 4146532 4205708 4251938
765.61 4285174 4410954 4458760 4568656 4625372 4718514
768.50 4749934 4885110 4795966 4981336 5008636 5055500
771.39 5135820 5242978 5168758 5305708 5344344 5377676
774.28 5362494 5398520 5385994 5466036 5425372 5418908
777.18 5485184 5393544 5394360 5405432 5293670 5378548
780.07 5277188 5303848 5282708 5327122 5280828 5318072
782.96 5256470 5339314 5235726 5266582 5240818 5256218
785.86 5207806 5205718 5203064 5183644 5140468 5151868
788.75 5116630 5136320 5062942 4975254 5041254 5041838
791.64 4972036 4969308 4894034 4921866 4914948 4814800
794.53 4869568 4925132 4868846 4921810 4893422 4948100
797.43 4911584 4974782 4905542 4921454 4926598 4994040
800.32 5013430 5065012 5093266 5054036 5135900 5170952
803.21 5240396 5317062 5199198 5386598 5333310 5435304
806.10 5415848 5562348 5524230 5614214 5675816 5766204
809.00 5783000 5912894 5987410 6129504 6179962 6406436
811.89 6454092 6692392 6767540 6940456 7049836 7233880
814.78 7445100 7648726 7586846 7952664 8070172 8291558
817.68 8353412 8732664 8866802 9064224 9215698 9582786
820.57 9648096 10013060 10245930 10548170 10801810 11230760
823.46 11546120 11845460 12179070 12760450 13061440 13659240
826.35 14004000 14525810 15018110 15661550 16156590 16872070
829.25 17365760 18118890 18860560 19664760 20530960 21471760
832.14 22285130 23373680 24378960 25564120 26759920 27974940
835.03 29235180 30738590 32183200 33680720 35232490 36772280
837.92 38133910 39726630 41086600 42480720 43661610 44881060
840.82 45755340 46796080 47208440 47928880 48429460 48697430
843.71 48903870 49416900 49842500 50883160 52270900 53827140
846.60 54421340 55266170 55739230 56784280 57623660 59144050
849.50 60478850 62437730 64412430 67008990 68945040 71509780
852.39 73662580 76349600 78229300 80551710 82240680 84151650
855.28 85266140 86720800 87102050 87954220 87752890 87979940
858.17 87561010 87601440 86756590 86699970 85940100 85778000
861.07 85108440 85086080 84009870 83961960 83383340 83714400
863.96 83120630 83999600 84393580 86068080 87329420 90360260
866.85 92244750 97041310 99859080 108860600 111262000 140806900
869.74 151574000 175335200 162357600 158638200 152234500 142736600
872.64 136742200 129308000 125159900 118425400 113792400 108054200
875.53 103366900 98688300 96084780 92822450 90905680 88708220
878.42 87850860 86378420 85751070 84557040 84099520 82888550
881.31 82341790 81345900 80854670 79508600 78831100 77700720
884.21 76683700 75458150 74304000 72963460 71664090 69668770
887.10 68214050 66446320 64804040 62469120 60765470 58550360
889.99 56770460 54687200 52644890 50514440 48587750 46340550
892.89 44346960 42103030 40134460 37922160 36134990 34147290
895.78 32381910 30502940 28907940 27096410 25669470 24027270
898.67 22783700 21309480 20126920 18850110 17828220 16712990
901.56 15812550 14753900 14058100 13221210 12559660 11806470
904.46 11263890 10619470 10177460 9702788 9322488 8823624
907.35 8570888 8214904 8042462 7767642 7623070 7429884
910.24 7351752 7199274 7176466 7130882 7154976 7118632
913.13 7185868 7257136 7392740 7477182 7714258 7848700
916.03 8106924 8342660 8678794 8927834 9306446 9608656
918.92 10079510 10407980 10969980 11343480 11978310 12485320
921.81 13119220 13726870 14457200 15132620 15912110 16678190
924.71 17568810 18408350 19397640 20290400 21336610 22363220
927.60 23527280 24534530 25769790 26858490 28114820 29256670
930.49 30455060 31598700 32837760 33999540 35094400 36203280
933.38 37300770 38343290 39360180 40280770 41254250 42141240
936.28 43015190 43797560 44724760 45538130 46518260 47483590
939.17 48596140 49678960 50981920 52165730 53532950 54918530
942.06 56423260 57786040 59322610 60948820 62421950 63850420
944.95 65031870 66040480 66974180 67924450 68863780 69170460
947.85 69615480 70102450 70536380 70673980 71569290 72163140
950.74 72257940 72839900 74210990 75101350 76450590 78011220
953.63 79644470 81790470 84254460 86269180 86083450 85025110
956.53 87056760 85183670 79887710 76035290 79781620 61484100
959.42 58613940 57847990 57665460 57465770 57722240 58176910
962.31 58843070 59432470 60400830 61117420 61842830 62537850
965.20 63470550 64268700 65278400 66011740 66780890 67237460
968.10 67768070 67956080 68116150 67849540 67557360 66733950
970.99 65864830 64684470 63475500 62088880 60781140 59516220
973.88 58617070 57844750 57846920 58030840 58789750 57626460
976.77 55782440 54751470 54647250 53931660 52681740 52148420
979.67 52442380 53299310 54194280 55405610 56355550 57244400
982.56 57783580 57874750 57573190 56977070 56243220 54893950
985.45 53577960 51963920 50197700 48070080 46285650 44508780
988.35 42848170 41344560 39975060 38798110 37843400 36996010
991.24 36399860 36010070 35708340 35623650 35856620 36083710
994.13 36426200 36960880 37585940 38375640 39290620 40264520
997.02 41341930 42510500 43788230 45115480 46641330 48216720
999.92 49900120 51676100 53634720 55718660 57869310 60139670
1002.81 62639300 65220060 67924610 70867810 73925000 77250960
1005.70 80622140 84230300 87861400 91755050 95846580 100266200
1008.59 104738600 109486300 114443800 119453300 124569500 129808000
1011.49 135295600 140852200 146285500 151719200 156873000 162216400
1014.38 167029100 171609400 175844400 179904500 183020900 186200900
1017.27 188117300 190183900 191200100 191678600 191838500 191905000
1020.17 191063200 190203300 189067300 188478000 187812700 189195400
1023.06 188526100 187952900 187337900 187280300 185715400 193931500
1025.95 196194400 185047000 175905900 171754400 171916800 172039800
1028.84 174005000 172707000 171210000 169489600 167559000 164220100
1031.74 160043400 154717000 149364200 143068900 136821500 129690900
1034.63 122864000 115895500 109016900 101878500 95357000 88979470
1037.52 83466360 78214800 73568080 69189130 65424450 61763230
1040.41 58837540 55939250 53626930 51412890 49633360 47897070
1043.31 46492060 45083780 44141480 43009680 42379530 41601150
1046.20 41398200 41141960 41164090 41200860 42757640 42336740
1049.09 40408240 39566410 38864070 38474810 38016860 37885050
1051.99 37458380 37053190 36807440 36506810 36179940 35863860
1054.88 35569880 35302510 35058720 34889860 34723040 34569730
1057.77 34367730 34242660 34128320 33892950 33837060 33688300
1060.66 33648480 33508570 33374190 33242550 33222800 33035680
1063.56 32957590 32744570 32667270 32428430 32242730 32163580
1066.45 31985000 31737590 31491570 31218800 31130580 30793720
1069.34 30592100 30366260 30145460 29844340 29638340 29292170
1072.23 29151100 28899740 28672020 28434390 28205330 28006800
1075.13 27817310 27484950 27313380 27037110 26725850 26487400
1078.02 26274570 25963150 25805770 25461410 25228590 24944410
1080.91 24774020 24520070 24292040 23968010 23753790 23431840
1083.81 23225780 22864220 22597340 22328560 22070080 21772780
1086.70 21574290 21212920 21066060 20817770 20618850 20320600
1089.59 20092740 19853570 19645790 19427080 19242780 18988550
1092.48 18790440 18529410 18321920 18094250 17906300 17674980
1095.38 17519770 17265870 17183980 16998890 16890000 16715770
1098.27 16669150 16521000 16440590 16331580 16281080 16212840
1101.16 16179800 16118310 16135800 16071040 16069280 16034450
1104.05 16109840 16099820 16182010 16158360 16266740 16281820
1106.95 16348380 16418210 16482910 16535700 16671980 16772700
1109.84 16889670 16936280 17072770 17224150 17416520 17567070
1112.73 17787680 17954140 18243330 18465740 18791550 19039080
1115.63 19376160 19747460 20203060 20647940 21197840 21775240
1118.52 22459170 23103850 23900720 24749550 25703220 26708850
1121.41 27761540 28910390 30230150 31755350 33345590 34936700
1124.30 36727430 38887030 41234040 43922960 46959900 50388740
1127.20 54497260 59112740 64620820 70883830 78340040 86907780
1130.09 96830970 108099700 120905400 135223400 150901500 168022000
1132.98 186497700 205745800 227206900 250627500 274915600 300734500
1135.87 327129900 354464300 380570800 406570500 431067400 453518900
1138.77 473293000 489836600 502181200 511558000 516017300 516315100
1141.66 512263000 503721400 492559300 480131100 468639800 458225000
1144.55 453687500 453899200 461399800 474446300 492569500 511599300
1147.45 525529900 529449300 529930600 512642300 488009600 470934800
1150.34 473561500 469198100 486891600 509373200 528698600 541307900
1153.23 548077600 547352800 538162800 523076400 502220000 475616200
1156.12 445885600 413302500 377949300 342400400 307050200 273253500
1159.02 241068400 210864200 183280500 158334600 136379800 117247000
1161.91 100643300 86593890 74939060 65098820 57090440 50503460
1164.80 45273740 41040260 37725570 35003900 32899230 31219250
1167.69 29935520 28878060 28077020 27381840 26884580 26499380
1170.59 26226010 25924810 25777750 25718240 25729980 25693880
1173.48 25773070 25959140 26234310 26458140 26867110 27039050
1176.37 27408970 27791150 28249010 28780700 29287600 29978830
1179.26 30714960 31471380 32345660 33149220 34097040 35080780
1182.16 36147780 37213600 38461650 39730650 41045190 42280970
1185.05 43757500 45144870 46616220 48145240 49736540 51261270
1187.94 52879000 54471830 56258350 58051560 59848160 61737930
1190.84 63831410 66024900 68367060 71077800 74044190 77252990
1193.73 81059640 85141010 89834080 95154630 101142500 107805200
1196.62 115259700 122364000 129950400 138169500 147481500 158446100
1199.51 170793200 184446100 199021400 214515000 231181600 248968200
1202.41 267860900 287628900 309486900 332069200 355675400 381117100
1205.30 408116800 437043800 466899000 498758900 532983900 569206000
1208.19 607142100 646866200 689016400 732910400 779330900 827082900
1211.08 878147400 930343400 983614200 1037624000 1092218000 1145502000
1213.98 1196600000 1248502000 1298127000 1340747000 1382135000 1415936000
1216.87 1448663000 1473397000 1493415000 1507885000 1515944000 1520331000
1219.76 1517599000 1508779000 1504631000 1498630000 1491859000 1484725000
1222.66 1481348000 1477918000 1489074000 1513555000 1554196000 1550077000
1225.55 1496622000 1457731000 1421972000 1402466000 1391554000 1397935000
1228.44 1410134000 1426061000 1434509000 1435631000 1428937000 1408670000
1231.33 1377128000 1331378000 1275320000 1208763000 1133826000 1055902000
1234.23 974621400 893362500 812368900 735117600 662108900 593382800
1237.12 532368200 476290300 426773600 383594700 346355300 314338300
1240.01 287243400 264460700 245174700 229475600 216017900 205076600
1242.90 195705700 187968900 181048800 175111000 169323200 164372500
1245.80 159343400 154750500 150131200 145711700 141500100 137600800
1248.69 133865600 130611600 127863200 125908900 125156200 125243500
1251.58 125295700 125045600 123358600 118958000 114224000 110641100
1254.48 108061200 106764200 106491200 106980800 107870900 108776100
1257.37 109333400 109454300 108967600 107634000 105437200 102549200
1260.26 99037120 95080950 90628460 85933010 80925820 76114560
1263.15 71309900 66773880 62339500 58319500 54568920 51316100
1266.05 48249940 45540500 43199060 40999980 39156060 37602360
1268.94 36155650 34974130 33932200 33045330 32259300 31508790
1271.83 30910040 30458060 30018340 29818900 29726980 29696210
1274.72 29713820 29877980 30079350 30421840 30758810 31330720
1277.62 32067180 32986020 34110100 35477060 36983690 38794700
1280.51 40746280 42994020 45340640 48104340 50967310 54124710
1283.40 57456330 61020290 64642050 68398050 72012460 75794490
1286.30 79439820 82601010 85368980 87768210 89794560 91399160
1289.19 92400580 93061700 93027930 92902370 92610920 92593130
1292.08 92004910 92044180 93238470 95142520 94811020 94282100
1294.97 95005060 95719380 95183780 94469230 94420230 93965390
1297.87 93926900 93806050 93848850 93837400 93892780 94006120
1300.76 93941060 93637590 93139100 92390660 91215960 89445220
1303.65 87262930 84606090 81591380 78159520 74366430 70472340
1306.54 66473240 62335400 58220310 54147810 50260790 46533600
1309.44 42983190 39659110 36607160 33759910 31166820 28792140
1312.33 26651360 24722820 22938320 21411600 20004860 18760470
1315.22 17639070 16600430 15689050 14856110 14128380 13475630
1318.12 12891510 12290740 11833280 11387670 10989190 10593310
1321.01 10249080 9905574 9595408 9329920 9108710 8868966
1323.90 8628342 8418956 8241772 8105902 7913838 7777598
1326.79 7648364 7538386 7412828 7289928 7209376 7141662
1329.69 7058626 6997150 6945938 6909472 6864164 6854064
1332.58 6822792 6803898 6778770 6776596 6780918 6776732
1335.47 6782444 6809494 6825938 6890132 6918034 6959328
1338.36 6994466 7093492 7193696 7285398 7379342 7583814
1341.26 7700532 7922396 8113044 8360248 8605766 8812774
1344.15 9069764 9394470 9745286 10124850 10546020 10997220
1347.04 11451390 11992450 12547980 13220730 13862600 14629210
1349.94 15410570 16246320 17210550 18271800 19386010 20703000
1352.83 22017310 23542960 25167030 26983010 28966480 31179200
1355.72 33614020 36221580 39112600 42163520 45609200 49411280
1358.61 53550660 58009200 62869870 68155040 73608330 79798060
1361.51 85964580 92762180 99699240 106900900 114206800 121785700
1364.40 129191000 136610600 143862400 151013900 157571000 164286200
1367.29 169924000 175000600 179328500 183307600 186638800 189735700
1370.18 191979700 193680600 195213600 198180400 201899900 208188300
1373.08 215543900 224259400 226650700 219285600 216652600 216527100
1375.97 217698900 219559100 223275300 227583200 232846300 237769300
1378.86 242381500 245870300 248021100 248197200 246642800 244073300
1381.76 239647200 234489200 227584700 219977900 211991100 203639100
1384.65 194770400 185719600 176954700 168357200 160384100 154024300
1387.54 147922200 140059600 133504400 126601300 120058100 113185700
1390.43 107039100 101032400 95748010 90930840 86799300 82727940
1393.33 79042600 75063490 71469920 67925900 64264980 60837730
1396.22 57401000 53996970 50735030 47642300 44713660 41697550
1399.11 39184440 36692220 34471940 32251910 30351380 28423160
1402.00 26758500 25184160 23809590 22502690 21421470 20300530
1404.90 19519440 18776870 18149400 17548460 17059600 16601770
1407.79 16242010 15920170 15683450 15492480 15320180 15155980
1410.68 15114190 15021840 15024630 14987460 15047690 15058650
1413.58 15150910 15164600 15308700 15324510 15411420 15511310
1416.47 15651050 15659530 15863180 15926390 16044660 15680810
1419.36 16138700 16401310 16486870 16609270 16693440 16813540
1422.25 16936010 17037590 17113760 17247590 17495120 17669990
1425.15 17916010 18151720 18402710 18661830 19014510 19312320
1428.04 19661090 19971380 20428810 20812360 21176760 21468440
1430.93 21540540 21656030 21816760 21922160 21982640 22053600
1433.82 22157690 22175140 22238560 22187660 22018330 21333960
1436.72 21517340 21457940 21033840 20691470 20479410 20242290
1439.61 20033950 19830560 19669340 19561330 19503230 19487180
1442.50 19645150 19731980 19672080 19819100 19933840 20005160
1445.40 20008780 20000760 19931730 19907910 19657940 19567170
1448.29 19526280 19336980 19151120 18967600 18773890 18574540
1451.18 18402720 18138580 17966780 17706380 17484550 17245750
1454.07 17085480 16872210 16695060 16517500 15965540 15430880
1456.97 16009370 15717750 15569640 15436110 15209730 15107710
1459.86 14819720 14568710 14330000 14144880 14006320 13805520
1462.75 13655400 13450460 13375510 13002730 12928660 13025360
1465.64 12893640 12803420 12708780 12616890 12564370 12477820
1468.54 12417260 12360570 12294240 12231720 12135100 12099110
1471.43 11771730 11831170 12064950 11613020 11729290 11866890
1474.32 11759820 11701730 11603160 11409990 11467100 11427280
1477.21 11426100 11365760 11285160 11254800 11202060 11090800
1480.11 11050070 10919170 10866000 10791970 10693020 10631870
1483.00 10597290 10522830 10471170 10378670 10332100 10228760
1485.89 10153960 10080440 9898462 9951020 9928414 9813058
1488.79 9714934 9543078 9557738 9399574 9393154 9435442
1491.68 9316526 9283628 9193868 9191688 9070362 9068904
1494.57 8950326 9068328 8582204 8533842 8936468 8751948
1497.46 8834234 8625830 8504654 8636854 8642138 8589506
1500.36 8612000 8531972 8575542 8528984 8483820 8409226
1503.25 8399470 8323938 8327788 8142264 7589618 8183740
1506.14 7920836 7472648 8072074 8083568 7976300 8077758
1509.03 8020936 7999794 8066098 7982894 8039136 7925594
1511.93 7816138 7940168 7905706 7891176 7867672 7774036
1514.82 7752104 7793480 7654676 7646208 7537352 7528260
1517.71 7637046 7570604 7549166 7503994 7252212 7403302
1520.61 6862090 6879914 7380682 6945794 7124080 7095804
1523.50 7105618 7008304 7022804 6679840 6881746 6866728
1526.39 6861702 6714332 6809570 6679318 6671252 6668632
1529.28 6659406 6589604 6597308 6503170 6459166 6451282
1532.18 6419328 6246540 6221228 6091526 6354260 6196476
1535.07 6283582 6150632 6243988 6102484 6197746 5937776
1537.96 6115564 5275664 5723594 5904588 5458610 5981778
1540.85 5990498 5721514 5612284 6108890 5967020 6053828
1543.75 6079776 6110092 5887622 6181756 6265934 6335466
1546.64 6372268 6440546 6512048 6579908 6674778 6705380
1549.53 6772606 6867566 7068984 7147472 7262628 7346832
1552.43 7498862 7554194 7652614 7327888 7894270 7991560
1555.32 8190332 8193852 8439660 8208164 8408022 8288062
1558.21 8094900 8946690 8777088 8451180 8877754 9403228
1561.10 9302470 9517128 9448592 9628186 9636110 9764800
1564.00 9707906 9708784 9746648 9866040 9858836 9909860
1566.89 9934480 10124330 10412960 10355620 10159010 9950470
1569.78 10211860 10401060 10398420 10589820 10637640 10817880
1572.67 10871480 11065360 11093160 11310450 11264240 11475530
1575.57 10709760 11198950 11703950 11630200 11761710 11753290
1578.46 11809520 11801360 11849510 11865170 11879390 11881160
1581.35 11904050 11907560 11930160 11900980 11903500 11925880
1584.25 11961390 11991140 12054690 12089900 12127640 12151690
1587.14 12192450 12176500 12198680 12220420 12251890 12223640
1590.03 12233760 12248960 12265550 12302150 12284910 12315540
1592.92 12334980 12338080 12343850 12352640 12372260 12395110
1595.82 12413630 12425520 12437320 12422510 12450320 12473720
1598.71 12468960 12479320 12472630 12492370 12504920 12581030
1601.60 12632330 12706830 12814620 12902920 13075210 13175840
1604.49 13331170 13416300 13512760 13645410 13779990 13970390
1607.39 14134380 14319030 14456780 14594040 14789790 15028260
1610.28 15242400 15502860 15728120 16052720 16331980 16713310
1613.17 16966820 17288690 17524120 17907180 18197600 18781450
1616.07 18483340 19077210 19880250 20119420 20585310 20869480
1618.96 21306350 21596720 21941440 22161190 22438350 22618610
1621.85 22851780 23085770 23179650 23406040 24019360 24250190
1624.74 24706780 25014170 25472150 25627150 25709480 25740650
1627.64 26210610 26888510 27696280 28619640 29811090 31061470
1630.53 32529430 33935270 35171980 36359090 38027100 40084020
1633.42 42560800 45264470 48417700 51747270 55684730 60886670
1636.31 65957460 71616600 77966430 85213800 93021870 101597900
1639.21 110755400 120704800 131329400 142536100 154234600 166395700
1642.10 178835400 191386400 203546000 215441000 226638300 236670300
1644.99 243854600 246528200 252073000 254194300 252861000 250235100
1647.89 244212200 237995500 230232300 223789800 218893800 219464500
1650.78 225910600 243331500 262770800 289887500 309715300 288516400
1653.67 251356900 220047100 208305100 209547900 218616700 233090000
1656.56 249021600 264506400 277977300 287756800 293459000 294837400
1659.46 292060300 284766900 274048400 259860400 243904800 225582400
1662.35 206072500 187673500 168680800 150353000 133080500 117091000
1665.24 102654400 89913410 78831730 68975310 60743160 53755480
1668.13 47996690 42855540 38757670 35727350 32833080 30435680
1671.03 28222100 26641770 25071940 23709150 22463280 21350480
1673.92 20362130 19250190 18096510 17666710 16955150 16258880
1676.81 15619180 14981690 14431400 13902640 13403270 12908880
1679.71 12499120 12094920 11792080 11445010 11180030 10832030
1682.60 10464160 10207220 10134290 9465142 8943570 9822548
1685.49 9508330 9535446 9317336 9302910 9151828 9128176
1688.38 9055970 9107752 8970430 9015170 8979358 9045260
1691.28 8997800 9098746 9026658 9078332 8961814 9010012
1694.17 8794388 8837282 8077128 7800036 8553970 8320406
1697.06 8292908 8206300 8224052 8281614 8207586 7804490
1699.95 8040318 8041436 8316500 8080554 7935624 7729774
1702.85 7654198 7623826 7501466 7573386 7726834 7728626
1705.74 7651586 7697504 7784422 7692608 7686128 7546624
1708.63 7488338 7321570 7205652 7055006 6996030 6801670
1711.53 6717304 6612932 6489534 6453266 6353584 6355746
1714.42 6247264 6153982 6480764 6357124 6592980 5819014
1717.31 6396958 6642874 6423038 6692334 6654888 6681502
1720.20 6683412 6764600 6826532 6924784 7039304 7180762
1723.10 7324362 7548364 7717120 7931270 8139822 8383464
1725.99 8585782 8836340 9084066 9406472 9668040 10029310
1728.88 10333720 10637590 10980070 11439400 11769440 12229360
1731.77 12482920 12955110 12734260 13262980 13699780 13424960
1734.67 14277640 14382070 14630470 14687270 14848050 14871500
1737.56 15078200 15187580 15515810 15659300 16043670 16869020
1740.45 17468320 17987930 18578360 19390520 20413690 21602090
1743.34 23004190 24398900 25833190 27198360 28564490 29855640
1746.24 31340520 32651480 34072070 35581770 37073510 38619590
1749.13 40320320 42171730 44147970 46025040 48275000 51100570
1752.02 53737800 56710850 59898660 63379480 67014910 71025970
1754.92 75165840 79582370 84236750 88863860 94233760 99710320
1757.81 105354600 111146000 117431900 123880100 130697800 137836600
1760.70 145639000 153131500 161823300 171145100 180322300 190349600
1763.59 200713500 211735400 223188400 235616800 248425000 262712400
1766.49 277462800 294186800 310181000 328809700 349537100 369906500
1769.38 391434000 413809500 437270300 460851300 487989300 513780700
1772.27 538133200 568776100 596052900 621922400 646752200 669574700
1775.16 688797800 705919800 719810000 728532300 732273000 731954400
1778.06 725957600 714034900 698129200 677436800 652975300 626774000
1780.95 601083700 576268700 557903900 545458300 538676500 532654500
1783.84 523002500 510802500 509335200 524777600 556910200 599912000
1786.74 649259700 697222400 740367600 775291400 799996400 814610800
1789.63 818969900 813282300 800035000 781113800 756238000 725728800
1792.52 694604500 661716900 627270700 593427500 558478100 524963500
1795.41 492721400 462583200 433225900 406114400 380823000 357488600
1798.31 335711400 315420800 296471600 279709900 263939900 249245000
1801.20 235873100 223480300 211243200 200325100 189045400 178333000
1804.09 167523100 157410200 147675300 138538400 129962000 122024900
1806.98 114213500 106791400 99601910 92784330 86106710 79882890
1809.88 73844170 68295850 63144990 58407480 53944070 49911690
1812.77 46109880 42614510 39333260 36361530 33582670 31112530
1815.66 28778140 26763430 24823310 23153390 21682830 20343030
1818.56 19137580 18105260 17126930 16314320 15567130 14957030
1821.45 14393290 13939140 13449380 13144030 12880390 12680350
1824.34 12371370 12190060 12120520 11907300 11786680 11685980
1827.23 11633340 11607240 11572110 11506680 11501580 11390540
1830.13 11460410 11481300 11397050 11374560 11263250 11194560
1833.02 11052410 10979590 10815160 10698270 10564850 10479180
1835.91 10321960 10201850 10099030 10035820 9931942 9924924
1838.80 9840678 9857080 9813184 9900526 9873056 9951238
1841.70 9959624 10087120 10097530 10250200 10013510 10302620
1844.59 10596850 10646130 10834650 10936430 11097310 11199200
1847.48 11325750 11505060 11625950 11760120 11885300 11971280
1850.38 12091540 12222140 12323170 12441570 12575610 12735090
1853.27 12870290 13011470 13179940 13304280 13467070 13642070
1856.16 13771270 13942450 14085380 14287260 14421280 14613890
1859.05 14746390 14913040 15075570 15178030 15313370 15440670
1861.95 15537410 15624680 15721160 15777810 15789200 15846550
1864.84 15835590 15810940 15735610 15709200 15642090 15532490
1867.73 15452290 15431020 15244220 15284650 15353810 15209900
1870.62 15108520 15073700 14971140 14789410 14644310 14459600
1873.52 14305850 14162300 14043560 13960290 13893260 13811400
1876.41 13727720 13580910 13440400 13235650 13033680 12816190
1879.30 12496650 12212750 11872610 11570560 11198830 10869380
1882.20 10528940 10206790 9912700 9604908 9363340 9132938
1885.09 8910962 8748074 8581042 8437976 8334946 8227912
1887.98 8134000 8102570 7960742 7944292 7943372 7933814
1890.87 7959134 7939996 7938134 7946334 7949374 7961662
1893.77 7991308 8013896 7985964 8061636 8096206 8126850
1896.66 8096738 8048744 8066842 8047424 8047622 8015538
1899.55 7970368 7934986 7853254 7827176 7712404 7610786
1902.44 7472854 7360494 7316744 7229254 7115352 7042074
1905.34 7011712 6876660 6666868 6526004 6377704 6321218
1908.23 6414368 6358776 6390704 6059318 5721434 5663012
1911.12 5606622 5583056 5505096 5427852 5303550 5211432
1914.02 5076176 4944454 4774046 4575532 4408100 4191298
1916.91 4037574 3734986 3631200 3552130 3370842 3254928
1919.80 3103748 3003830 2890764 2818686 2704572 2659828
1922.69 2562540 2547928 2515220 2473668 2428570 2413804
1925.59 2376396 2370720 2352920 2360518 2336228 2341628
1928.48 2342152 2344456 2340106 2338956 2344444 2366786
1931.37 2354960 2370628 2360432 2380988 2407286 2405314
1934.26 2435406 2454844 2460578 2499916 2528230 2550392
1937.16 2566548 2587434 2623838 2663336 2667256 2713572
1940.05 2730760 2743412 2774842 2797512 2753202 2805570
1942.94 2848200 2860946 2847804 2857034 2844238 2857642
1945.84 2845896 2843432 2847928 2841142 2809284 2819702
1948.73 2817302 2823430 2834566 2808872 2809306 2814274
1951.62 2855938 2859798 2899750 2911722 2942572 2972444
1954.51 2971838 3005916 3017372 3022728 3035070 3035594
1957.41 3026882 3041426 3024288 3000422 2986678 2960742
1960.30 2920968 2914596 2859188 2817064 2797514 2764364
1963.19 2751212 2690720 2675232 2643952 2631760 2609648
1966.08 2605528 2581572 2552006 2578842 2573066 2596994
1968.98 2576092 2584322 2614072 2628222 2681048 2695322
1971.87 2731620 2789158 2855452 2895892 2996606 3052290
1974.76 3125806 3236382 3332088 3462034 3583606 3706234
1977.66 3836878 4005952 4166816 4348862 4537462 4713074
1980.55 4949010 5157034 5343014 5577804 5794966 5987922
1983.44 6208522 6395988 6550552 6743030 6873866 6984306
1986.33 7100640 7157434 7218084 7208116 7210576 7187856
1989.23 7151446 7113948 7081564 7106318 7121754 7211246
1992.12 7381596 7567532 7748846 7846608 7893076 7725418
1995.01 7502284 7297422 7257580 7310476 7413950 7527822
1997.90 7686306 7780154 7836260 7878558 7848570 7758806
2000.80 7604306 7394858 7123630 6845288 6519968 6160246
2003.69 5811256 5469536 5135932 4836010 4529180 4275388
2006.58 4046594 3847060 3662728 3531912 3400718 3310104
2009.48 3232166 3170304 3106076 3074526 3045066 3007654
2012.37 3013014 2959746 2951530 2965016 2942718 2921850
2015.26 2935768 2955268 2910548 2932978 2923498 2912702
2018.15 2914770 2927552 2928676 2929272 2974684 2972396
2021.05 2996152 2979626 2934008 2923514 2892992 2886170
2023.94 2882242 2896356 2899106 2888032 2885820 2918380
2026.83 2917926 2910052 2938860 2943906 2930522 2926040
2029.72 2955016 2968944 2965218 2979642 2993118 2988178
2032.62 3010736 3018482 3039788 3067586 3099042 3125886
2035.51 3173362 3220838 3265922 3312672 3352806 3414782
2038.40 3468678 3561032 3629900 3726968 3821294 3912106
2041.29 4037582 4166270 4327278 4452894 4624766 4774864
2044.19 4962684 5110114 5318346 5512358 5743576 5949286
2047.08 6189364 6452158 6724020 6997494 7277690 7580442
2049.97 7884146 8193328 8524058 8888582 9223306 9570146
2052.87 9922262 10313060 10703890 11068790 11418800 11793060
2055.76 12142620 12456220 12818650 13107390 13386830 13671210
2058.65 13941450 14182880 14387020 14576830 14727900 14845900
2061.54 14945380 15059000 15134080 15161470 15229210 15307830
2064.44 15447840 15569370 15691930 15729410 15595080 15446940
2067.33 15331880 15264120 15212310 15211200 15201650 15152250
2070.22 15108100 15003480 14880770 14697170 14464930 14191170
2073.11 13864370 13468680 13052980 12578400 12099600 11595580
2076.01 11056280 10539740 9973666 9454910 8972258 8463560
2078.90 8026316 7592486 7162204 6804120 6465300 6116162
2081.79 5819116 5574560 5326634 5106782 4907998 4732810
2084.69 4583636 4432834 4268718 4177852 4084688 3980068
2087.58 3908108 3797526 3763606 3687360 3629928 3543856
2090.47 3507876 3470450 3413440 3395908 3349684 3301978
2093.36 3273948 3234516 3160498 3173976 3154806 3111694
2096.26 3103166 3089980 3055552 3069868 3050488 2988216
2099.15 3056486 3044610 3070776 3046284 3077732 3061760
2102.04 3103464 3080152 3093830 3151128 3175696 3215872
2104.93 3243184 3287012 3314094 3359442 3358890 3439930
2107.83 3487478 3522296 3579004 3600088 3632030 3694886
2110.72 3678802 3693426 3793804 3818504 3854214 3874164
2113.61 3912104 3924700 3951392 3899912 3953324 3965896
2116.51 3976284 3965826 3958846 3933352 3922986 3860550
2119.40 3845104 3885084 3876274 3900806 3891022 3929548
2122.29 3956226 4014596 3986414 3985928 3939044 3978016
2125.18 3928780 3914820 3936174 3964910 3934586 3981104
2128.08 3998222 3978518 3943818 3878468 3807734 3708524
2130.97 3571244 3479470 3340986 3211588 3097450 2954700
2133.86 2820458 2706900 2554840 2497324 2431186 2335094
2136.75 2280280 2241554 2175342 2179850 2132700 2145378
2139.65 2140576 2128834 2141156 2120596 2136062 2162948
2142.54 2176454 2180176 2196736 2230420 2246474 2252622
2145.43 2274788 2286084 2293884 2308766 2322948 2351084
2148.33 2349318 2348100 2356390 2385010 2357130 2375798
2151.22 2382888 2401036 2404554 2420530 2430378 2423172
2154.11 2403662 2452678 2473414 2497070 2498474 2496236
2157.00 2532368 2498382 2503560 2570518 2563048 2589354
2159.90 2594006 2620784 2633206 2590122 2623824 2687508
2162.79 2663866 2684962 2685460 2679812 2659364 2585500
2165.68 2648588 2637518 2642590 2614208 2616502 2600284
2168.57 2514046 2552622 2568124 2542332 2568492 2539528
2171.47 2552434 2489192 2459202 2530982 2535756 2535568
2174.36 2503910 2419268 2402910 2330576 2375176 2342780
2177.25 2335766 2318968 2285424 2281594 2151300 2161004
2180.15 2143028 2090840 2036768 1971296 1941776 1810912
2183.04 1779134 1768900 1688736 1661750 1600028 1585116
2185.93 1506720 1463954 1503952 1445154 1432022 1419436
2188.82 1409612 1338144 1339734 1370806 1342480 1349460
2191.72 1352506 1328440 1287606 1289774 1296458 1254770
2194.61 1276832 1226010 1236752 1155976 1187054 1194596
2197.50 1162206 1157080 1131036 1136140 1094846 1090436
2200.39 1099414 1103320 1098234 1105816 1101606 1097336
2203.29 1132056 1120192 1143822 1157476 1184824 1178278
2206.18 1188584 1239898 1240214 1279202 1305048 1344746
2209.07 1358526 1410250 1427182 1471608 1484096 1544572
2211.97 1579366 1615530 1689326 1695012 1727888 1764974
2214.86 1798494 1830214 1879158 1923652 1959426 1991948
2217.75 2033140 2066214 2102394 2159338 2200488 2252490
2220.64 2284480 2307138 2324378 2368044 2412354 2422142
2223.54 2464958 2484754 2547868 2599072 2621376 2667720
2226.43 2680620 2714222 2701308 2714104 2725576 2723398
2229.32 2714418 2694620 2674390 2661892 2658328 2638240
2232.21 2609858 2576878 2575150 2550818 2514492 2505036
2235.11 2479654 2468354 2415056 2412768 2377118 2351394
2238.00 2323130 2282652 2243746 2221312 2175154 2151280
2240.89 2125438 2106182 2063112 2023930 2002862 1981572
2243.79 1929312 1901914 1876320 1848802 1826878 1777754
2246.68 1770922 1743380 1701976 1693358 1673722 1669780
2249.57 1649850 1641928 1603962 1573102 1568942 1540890
2252.46 1527104 1505142 1461268 1436828 1419176 1384638
2255.36 1357828 1337262 1314124 1298014 1274956 1252448
2258.25 1243356 1239574 1228620 1229842 1212970 1218434
2261.14 1211360 1238522 1241126 1238954 1268406 1292680
2264.03 1304246 1330006 1366322 1370068 1427290 1489714
2266.93 1515538 1573282 1642058 1691866 1758540 1821576
2269.82 1906702 1995464 2106794 2220698 2346658 2466458
2272.71 2620994 2778258 2928958 3084362 3275864 3475332
2275.61 3662580 3854412 4087676 4297426 4501478 4696286
2278.50 4914846 5104302 5305400 5464282 5620364 5735386
2281.39 5894370 5982850 6094664 6144314 6174818 6189570
2284.28 6203242 6222632 6191748 6190474 6154030 6153176
2287.18 6116346 6141506 6153528 6193126 6220446 6237980
2290.07 6262410 6285636 6322036 6331820 6297168 6195800
2292.96 6148856 6163086 6176910 6102494 6057184 5948038
2295.85 5810886 5708886 5522818 5324538 5110774 4851264
2298.75 4520022 4216314 3921316 3591130 3261462 2973780
2301.64 2664088 2410244 2134604 1906556 1724440 1562692
2304.53 1389874 1277952 1145166 1070840 996048 947346
2307.43 877450 834092 795752 769138 721732 722880
2310.32 696822 701884 672580 656424 663572 651902
2313.21 622698 632828 626938 653730 618694 616014
2316.10 631248 661900 641312 634278 618518 645958
2319.00 627260 627574 626036 645830 664718 654134
2321.89 657396 681368 687942 662006 678938 708796
2324.78 728254 710288 722148 772408 781738 758322
2327.67 788634 863450 840916 839972 881752 943022
2330.57 937152 940614 1000480 1052718 1029578 1070166
2333.46 1146100 1200642 1178672 1242580 1291244 1332504
2336.35 1324866 1417234 1459236 1451810 1505578 1573048
2339.24 1589076 1606934 1655766 1708106 1697304 1699250
2342.14 1757132 1776192 1751362 1832520 1843800 1808654
2345.03 1861998 1868290 1865390 1880670 1900904 1929466
2347.92 1938210 1955846 1980802 2021250 2071178 2081540
2350.82 2143886 2166046 2182892 2240856 2263444 2286950
2353.71 2326670 2350616 2306816 2359680 2377428 2332416
2356.60 2345350 2304258 2273850 2290278 2261456 2189648
2359.49 2229036 2159760 2121868 2166208 2070328 2063846
2362.39 2108462 2017396 2046532 2047396 1970396 2019854
2365.28 1955840 1923000 1949114 1906004 1913406 1856744
2368.17 1836858 1860226 1796880 1816392 1758616 1764128
2371.06 1754728 1717614 1738356 1689508 1704270 1664864
2373.96 1657950 1610610 1577530 1547364 1508848 1492874
2376.85 1469418 1470200 1443434 1420486 1416138 1368196
2379.74 1340236 1303294 1257694 1216484 1167640 1131696
2382.64 1103130 1052956 1014482 999162 939198 912074
2385.53 897966 884128 866062 855504 836940 850170
2388.42 830164 844042 830928 829842 847914 867624
2391.31 884182 881620 888828 880746 928080 929926
2394.21 924388 930938 945498 956596 990532 1018806
2397.10 1014240 1033132 1055588 1076512 1090272 1108470
2399.99 1150182 1143810 1150844 1189308 1213116 1236960
2402.88 1275562 1270474 1324560 1327550 1360488 1378536
2405.78 1402706 1426586 1450358 1505804 1520250 1550020
2408.67 1574072 1602764 1630566 1672036 1678718 1735710
2411.56 1769784 1807516 1852068 1884566 1936442 1956314
2414.46 2017440 2066566 2114754 2186764 2237702 2303372
2417.35 2363754 2429400 2477776 2545710 2574876 2612682
2420.24 2667126 2753178 2792794 2873528 2936634 2995068
2423.13 3066984 3118118 3219822 3323118 3377266 3454352
2426.03 3541386 3634838 3710696 3799552 3898390 3969482
2428.92 4061304 4144936 4230118 4317746 4401038 4473812
2431.81 4528478 4581778 4624568 4670812 4682046 4741996
2434.70 4710772 4724386 4693428 4684984 4655154 4624142
2437.60 4595988 4561784 4536226 4543806 4542028 4516392
2440.49 4538026 4544586 4498762 4431220 4330830 4250862
2443.38 4232398 4188096 4160534 4131546 4115980 4064572
2446.28 4013410 3938348 3883726 3794460 3689062 3583718
2449.17 3445654 3327242 3176412 3035106 2873024 2744890
2452.06 2599928 2485188 2352302 2247908 2125020 2015612
2454.95 1912500 1836126 1766062 1690510 1633478 1578052
2457.85 1534512 1473156 1416464 1385268 1334290 1310446
2460.74 1270764 1274432 1221860 1216094 1197226 1149488
2463.63 1127116 1119390 1084318 1065168 1066992 1073696
2466.52 1035492 1008078 1001628 997066 1005188 964806
2469.42 992608 959972 940936 933226 949498 913438
2472.31 930072 932714 923966 915248 903048 909288
2475.20 881094 898982 864948 869460 848184 859776
2478.10 846796 823352 832812 827474 823510 820858
2480.99 838896 837586 853570 849870 870002 882690
2483.88 899586 916610 935858 939740 966888 969726
2486.77 998046 1020584 1012996 1013226 984892 1003368
2489.67 1001288 1011692 1015254 1019286 993500 1012984
2492.56 1050138 1042784 1066020 1074474 1077988 1077690
2495.45 1043134 1022536 1000852 1029982 1016526 1032988
2498.34 1040350 1033766 1043718 1062056 1079954 1058664
2501.24 1028660 1032522 993362 971064 942318 898444
2504.13 884350 848356 798916 773622 735354 686822
2507.02 659076 639780 616440 598846 576142 543250
2509.92 524082 494984 504478 480302 480238 467212
2512.81 452862 458266 451362 454934 452422 425776
2515.70 451888 427432 440256 410334 435260 409160
2518.59 401334 407822 389954 398942 388192 399654
2521.49 396138 375782 372004 384806 358680 372320
2524.38 367058 331364 349120 337790 326034 314750
2527.27 331940 309388 299434 297918 279766 271328
2530.16 272756 254710 237334 254654 247632 253292
2533.06 248018 244570 203926 217618 200036 208096
2535.95 213616 216120 205900 183346 178358 167528
2538.84 183842 164638 184710 176416 181402 170642
2541.74 156846 156630 144558 161842 170284 165092
2544.63 158202 138642 140676 145456 151770 128312
2547.52 151974 140040 124766 126448 151278 133442
2550.41 136950 145982 129304 153068 129250 127966
2553.31 158080 130346 146260 140182 155974 165102
2556.20 140254 153056 137954 136850 119594 140076
2559.09 122174 148650 144606 143562 121406 157216
2561.98 140380 136280 141126 147534 155158 179424
2564.88 159966 173094 184044 183366 193236 230816
2567.77 212256 242548 238206 284140 272342 296918
2570.66 319934 337028 357678 376968 412018 412340
2573.56 447882 471934 483802 498956 544712 555192
2576.45 566064 597342 617704 647468 698610 682982
2579.34 735866 778744 774056 794942 807206 831774
2582.23 849086 890002 886670 928132 935684 970850
2585.13 949320 1001084 1002390 1038450 1059442 1073678
2588.02 1095550 1099338 1073812 1083860 1093520 1101392
2590.91 1086150 1080032 1075864 1082958 1077074 1049148
2593.80 1042072 1054714 1022608 1033420 1040086 1014614
2596.70 995716 980556 983698 964762 933062 929142
2599.59 940944 942984 923916 900706 887454 845102
2602.48 836036 819094 792090 788000 788642 745404
2605.37 726936 701118 686086 653556 661968 631326
2608.27 618440 597690 601180 583682 579088 591552
2611.16 588524 586416 584348 611944 637920 623366
2614.05 643550 670940 677324 729138 743058 751834
2616.95 797968 810442 834210 871722 868086 914536
2619.84 929316 965784 1001068 994828 1014136 1037718
2622.73 1073232 1040874 1082942 1110798 1071794 1098580
2625.62 1087398 1122318 1111648 1106292 1142794 1125258
2628.52 1129294 1117432 1159988 1159914 1155614 1152816
2631.41 1163588 1181914 1155764 1174430 1160994 1170838
2634.30 1192470 1208044 1191140 1195464 1207858 1172632
2637.19 1173416 1173956 1134474 1082250 1053270 1015586
2640.09 990768 915796 910646 831038 822660 759536
2642.98 726380 693892 664884 619534 605876 576150
2645.87 540842 533922 516456 509738 516964 482666
2648.77 519034 482094 474814 481122 487936 499160
2651.66 457858 459320 470300 483088 482516 475054
2654.55 497576 477828 462114 496920 501140 501496
2657.44 501424 526618 536238 516306 502694 532918
2660.34 552506 550922 560012 584954 565266 577494
2663.23 600430 585544 594442 628938 598380 618162
2666.12 645920 621856 665882 625212 633012 666956
2669.01 651740 674580 645634 628872 621552 653746
2671.91 626418 644386 644940 650808 611262 632830
2674.80 629732 638446 597038 608850 616498 576898
2677.69 587242 574940 565440 561332 548842 562446
2680.59 543048 529708 523420 473470 497666 495776
2683.48 454628 463112 430420 406204 414510 382732
2686.37 359822 344392 353180 317134 347254 315648
2689.26 318974 295518 295782 273624 273164 272234
2692.16 282740 247404 252312 253734 251294 255182
2695.05 246984 232774 231162 200770 225798 217258
2697.94 220914 228406 203696 215198 207768 200778
2700.83 197026 199468 187030 198314 210378 201554
2703.73 202218 200312 196990 212792 209434 210382
2706.62 197252 198598 191424 212770 228946 226568
2709.51 210974 210990 215550 207326 192244 213006
2712.41 209842 193838 214058 199494 242278 225132
2715.30 219694 219816 226362 230206 208664 226654
2718.19 254396 216988 247616 247510 249480 235920
2721.08 247038 243016 233288 247154 242630 283408
2723.98 253480 269192 256922 281616 283200 244510
2726.87 302966 296910 324700 317552 343470 320108
2729.76 319868 326874 352134 357888 381650 386664
2732.65 408866 422456 469884 471132 489636 506568
2735.55 530362 550436 584764 612020 653660 686312
2738.44 694146 730298 796638 801008 852772 875424
2741.33 928640 963714 1058768 1057238 1129486 1165654
2744.23 1216040 1276244 1326054 1386296 1425204 1469116
2747.12 1507496 1549270 1575456 1605074 1627902 1651816
2750.01 1693156 1692744 1699146 1700578 1689790 1683086
2752.90 1650628 1650554 1637218 1598982 1607250 1559740
2755.80 1533762 1520202 1493232 1508282 1501456 1542554
2758.69 1546876 1598836 1606154 1657844 1729180 1768692
2761.58 1782330 1818716 1854598 1859230 1834660 1837328
2764.47 1804312 1749092 1686600 1618862 1556444 1492750
2767.37 1447524 1366728 1273450 1209924 1144280 1072000
2770.26 1053728 983490 933892 916520 857230 803730
2773.15 765008 747114 716584 667830 654082 635202
2776.05 611196 614726 599148 584458 586900 586084
2778.94 550612 591918 581492 590920 584912 616846
2781.83 593746 599372 599404 630938 616816 640722
2784.72 669324 683642 684182 678136 702980 752172
2787.62 735286 739380 742646 737976 722254 724702
2790.51 759444 737258 722900 724510 754874 758046
2793.40 755176 767766 806330 812042 826798 815528
2796.29 814860 840430 858534 856002 875656 885960
2799.19 880668 871394 895222 892644 883326 863466
2802.08 878626 863140 837942 799164 796898 720372
2804.97 708214 670288 662708 622334 584760 544622
2807.87 523526 498820 463446 436284 384758 412324
2810.76 409828 393082 410908 396892 395912 366890
2813.65 375228 383388 388190 373464 376634 379578
2816.54 390476 369640 376506 398496 367982 426636
2819.44 382120 375876 393020 357226 373488 337250
2822.33 371310 374198 390032 363188 402466 364384
2825.22 385784 393984 363680 412422 391182 412960
2828.11 400354 404382 414868 429878 423834 422024
2831.01 418486 440558 433190 458008 450186 463702
2833.90 419644 455632 470142 466178 466432 491072
2836.79 515080 511070 518168 553380 522574 585330
2839.69 552408 567154 600380 634690 634188 651918
2842.58 713018 724166 722262 750610 784814 784278
2845.47 822918 872170 917684 912730 961592 976500
2848.36 1022030 1005488 1072528 1084128 1081662 1117366
2851.26 1150378 1148122 1190394 1194092 1232030 1215826
2854.15 1228780 1214408 1241266 1251032 1236646 1301924
2857.04 1295162 1268178 1284634 1289068 1305270 1286108
2859.93 1282044 1304572 1321122 1322830 1304056 1344362
2862.83 1351298 1331358 1334184 1336736 1305776 1322228
2865.72 1297152 1303474 1296314 1297764 1281946 1254856
2868.61 1227048 1179724 1184088 1178058 1149716 1094672
2871.51 1080522 1074062 1073276 1032664 1001966 956168
2874.40 956028 935392 875512 869744 858722 852778
2877.29 847788 823958 791008 778302 773382 768206
2880.18 738468 726618 706828 733294 717090 714156
2883.08 713446 696510 690992 657104 671726 652166
2885.97 658348 634584 615186 642192 639514 598670
2888.86 623458 627838 627862 640898 622128 642458
2891.75 607340 610926 599890 619036 602734 613108
2894.65 642342 610308 639174 597036 645934 631464
2897.54 636064 645570 576466 637376 650896 642388
2900.43 635262 665422 634532 623034 631602 649686
2903.32 624478 631988 669288 645798 669488 636000
2906.22 630402 691998 661372 624268 673822 644736
2909.11 673498 662032 691110 726200 654700 696336
2912.00 739408 730660 697966 719414 704034 735112
2914.90 727750 742542 736562 749356 789246 772328
2917.79 764576 771254 824366 790250 823572 838850
2920.68 842282 900508 886774 949048 912446 973100
2923.57 1006142 1036960 1043684 1077224 1098758 1124412
2926.47 1156754 1203986 1236574 1258820 1343302 1343496
2929.36 1437276 1484598 1503930 1590686 1642858 1704382
2932.25 1789158 1881720 1912068 2000670 2058110 2131344
2935.14 2274760 2322726 2433934 2578592 2670562 2802244
2938.04 2964240 3086060 3193848 3395494 3518056 3685500
2940.93 3860940 4015820 4211928 4385184 4598050 4725348
2943.82 4879700 5045412 5173096 5313378 5398470 5519480
2946.72 5538422 5648954 5681804 5656100 5699650 5693966
2949.61 5674956 5733200 5730958 5768414 5772710 5887458
2952.50 5922230 5951686 5994392 6036582 6097210 6223914
2955.39 6256970 6420560 6512124 6612880 6694338 6819960
2958.29 6913644 6921724 6942662 6970782 6968558 6920478
2961.18 6789946 6750542 6796836 6653996 6533462 6439896
2964.07 6305372 6190562 6073832 5936630 5832018 5742044
2966.96 5616424 5532166 5428644 5421720 5298078 5246538
2969.86 5167158 5147928 5084282 5053584 5013572 5018746
2972.75 4955606 4938928 4968458 4918384 4950336 4889970
2975.64 4893008 4872750 4886402 4904788 4887390 4917942
2978.54 4948628 4949516 4936722 4960628 4989194 4963992
2981.43 5049068 5036296 5068300 5118746 5094620 5139062
2984.32 5214850 5228536 5266568 5337724 5339620 5404570
2987.21 5434460 5487376 5572090 5578122 5592476 5658848
2990.11 5728754 5851428 5924926 6087072 6275842 6439966
2993.00 6638336 7017520 7062446 6947816 6779680 6737050
2995.89 6714262 6689896 6632230 6625162 6547862 6519936
2998.78 6502952 6447904 6479496 6512950 6485258 6442040
3001.68 6480706 6399320 6402888 6333736 6295272 6279418
3004.57 6249378 6218310 6186838 6247364 6255500 6255542
3007.46 6229662 6229618 6210712 6147032 6177446 6146018
3010.36 6156528 6210162 6247372 6259562 6311344 6344422
3013.25 6368316 6354476 6385572 6401546 6401102 6402808
3016.14 6410338 6466162 6525880 6611116 6656002 6750096
3019.03 6800920 6912210 7031850 7129850 7256308 7356776
3021.93 7504428 7656110 7756458 7891116 8032084 8168626
3024.82 8310500 8440850 8536932 8663760 8788986 8899180
3027.71 8967082 9082786 9117456 9265648 9278826 9316898
3030.60 9401360 9416394 9447574 9559618 9569422 9664886
3033.50 9701094 9876862 10078190 10157640 10112480 10065390
3036.39 10031150 10063570 10079550 10133810 10214020 10325530
3039.28 10365610 10443710 10484220 10559150 10596880 10665660
3042.18 10717830 10716270 10742550 10780230 10818000 10815480
3045.07 10886950 10958060 11036880 11073990 11177980 11286910
3047.96 11393880 11490470 11603350 11682220 11772110 11848870
3050.85 11895660 11997690 12044050 12082320 12201000 12194850
3053.75 12211430 12208720 12199200 12194390 12147480 12182100
3056.64 12191960 12253460 12303610 12374250 12470840 12549730
3059.53 12599930 12591640 12571640 12537820 12553890 12487280
3062.42 12560460 12644360 12722510 12733570 12768060 12852330
3065.32 12958290 12921090 12897630 12841800 12739500 12596840
3068.21 12469940 12273900 12095410 11880340 11650700 11490090
3071.10 11192270 10975620 10734710 10561050 10372310 10204930
3074.00 10031160 9895688 9755036 9702006 9573846 9478576
3076.89 9414812 9336914 9254720 9292774 9263718 9278766
3079.78 9306702 9280380 9364122 9450160 9546442 9710376
3082.67 9817430 10076120 10257060 10535080 10838670 11176910
3085.57 11571550 12016040 12528640 13078690 13696710 14445430
3088.46 15226800 16007830 16927180 17833230 18815590 19776120
3091.35 20770870 21662810 22644850 23486440 24351320 25008910
3094.24 25504800 25944970 26190050 26172520 26000750 25676610
3097.14 25191150 24454140 23798500 23269530 22854690 22801360
3100.03 23036990 23727200 24793750 26081340 27050390 27096770
3102.92 25577420 22553660 20573360 20391720 21106010 22246390
3105.82 23456610 24577480 25501020 26188920 26515630 26553680
3108.71 26217510 25631760 24783980 23683470 22459480 21199700
3111.60 19744790 18392420 17105270 15753870 14610740 13526380
3114.49 12591370 11810770 11128440 10658340 10279690 10021870
3117.39 9918926 9958086 10061390 10290830 10606460 10985260
3120.28 11365340 11778800 12222160 12724480 13147780 13621550
3123.17 13961030 14223970 14454850 14541720 14469000 14367260
3126.06 14132520 13809460 13325000 12834720 12421530 12052430
3128.96 11806960 11858700 12205350 12803020 12989440 12540800
3131.85 11843080 11484480 11270990 11272730 11527740 11981050
3134.74 12519040 13041620 13494100 13895490 14162690 14335610
3137.64 14354320 14200260 13987560 13612060 13115300 12525920
3140.53 11954250 11304630 10617640 9935912 9257088 8643296
3143.42 7984646 7434954 6910244 6379622 5910808 5472130
3146.31 5090334 4737680 4450242 4152554 3935938 3689268
3149.21 3497626 3309172 3151706 3043628 2844858 2733558
3152.10 2594728 2478492 2352854 2300890 2164332 2066844
3154.99 2029228 1926260 1852628 1792500 1774236 1627200
3157.88 1612910 1537704 1481264 1433086 1397594 1300926
3160.78 1300320 1271908 1249618 1196290 1167032 1113124
3163.67 1101678 1085124 1039494 1004112 985888 948892
3166.56 952242 906890 916644 900202 826688 841860
3169.46 803968 787818 757882 729306 744678 731248
3172.35 696612 675982 702628 660920 687322 651582
3175.24 644728 690402 667884 649420 634108 626356
3178.13 622692 643520 611006 582654 582008 612962
3181.03 565150 567812 569592 594916 554668 571564
3183.92 593880 565648 563162 560676 541646 543418
3186.81 567824 504098 537988 555396 551316 525378
3189.70 527050 521724 561906 530420 581966 543494
3192.60 568806 550026 578870 586592 531288 586190
3195.49 577524 577224 561014 571336 545222 541206
3198.38 512912 488860 519240 504396 496362 501862
3201.27 494880 446530 463056 481960 454772 420572
3204.17 419032 416766 395964 413028 431890 406728
3207.06 398366 401524 400786 396312 378928 349438
3209.95 379446 321556 354042 338146 352980 307572
3212.85 343652 299176 285314 289470 312000 318784
3215.74 311406 297592 267558 327520 299952 254980
3218.63 263466 254764 258768 250904 224888 231932
3221.52 230392 212178 232792 203248 193994 208592
3224.42 193718 182672 165134 170796 156844 159510
3227.31 153220 146210 185102 121694 126994 111420
3230.20 153410 110266 82362 106780 90066 154918
3233.09 80650 104928 101298 90652 91736 79674
3235.99 14844 98262 65776 85420 68682 67432
3238.88 36224 27506 27496 25148 62126 18804
3241.77 19230 24056 44428 14996-10746 10840
3244.67 12068 45260 21936 35274 1750-1942
3247.56-11954-3088-3980 9942 6188-35052
3250.45-21826 31382-8860 7084 6988 18552
3253.34-8240 14298 21772 47196 19568-13082
3256.24 43792 556 23720-6598 18174-26784
3259.13-29464 23488-1234-4628-24098-8084
3262.02 11988-1734-9408-9234-1690-7468
3264.91-1660-24314-14140-50688 34-8208
3267.81-4354-32218-57554-36350-4506-29474
3270.70-16748-22934-57638-29036-57674-41464
3273.59-28366-61526-51804-4880 5320-65076
3276.49-78338-74090-92268-93154-82926-60660
3279.38-87520-85406-66736-56810-43624-38646
3282.27-75274-31864-51420-38312-42990-17688
3285.16-15082-13486-27372-62194 8494-4684
3288.06 11350 52720-14176 17050-43462 6638
3290.95 46722 42910 27828 31284 25498 50366
3293.84 16630 49888 16722 24352 23950 28674
3296.73 37018 36922 52046 39080 40594 32550
3299.63 10812 56188 35312 22136 17934 48034
3302.52 18362 46488 40338 48438-13946-27348
3305.41 14536-11426-56290-72670-85256-80048
3308.31-104002-149300-137218-177944-148364-151600
3311.20-170058-138328-214878-192556-186300-236866
3314.09-251056-239184-208128-263012-264150-278452
3316.98-287040-343818-296448-268632-279938-225136
3319.88-280276-226750-270438-238772-270474-278814
3322.77-307100-251764-238078-246856-227224-247364
3325.66-254388-267690-224022-243696-177386-181802
3328.55-233340-187510-191320-141058-135710-134336
3331.45-104930-137300-135808-109508-107526-75704
3334.34-102496-73466-117652-55236-60584-45936
3337.23-64142-54264-59930-19440-36710-26116
3340.13 7620 9024-49690 11190 7842-24388
3343.02-5964-4922 20172 2080 12000 42332
3345.91 9366 34660 54186 2390-2770 33816
3348.80 28552 15770-9422 12646 25314 1074
3351.70-6444-30248-58440-39462-42256-1036
3354.59-81268-53026 5534-29276-55632-79488
3357.48-81490-60370-55734-95278-67174-73102
3360.37-89344-77346-76282-89192-55392-49220
3363.27-91814-92314-130604-96990-90042-88976
3366.16-69820-99590-59486-74464-112816-79454
3369.05-78590-42410-94506-79414-56082-40850
3371.95-114508-54816-132410-43472-77580-56136
3374.84-80196-80950-35874-52004-62746-30870
3377.73-23316-25600-49756 8524-30550-13896
3380.62 7672-47448-38428-46128-26132-77088
3383.52 11172-8086-296-42804 9106-12812
3386.41-30942-4934-1200-39246 37350-44026
3389.30-25730-51680 1504-3924 35828 14762
3392.19-65934 4812 37116-19680 29598-15624
3395.09-18652-27896-66482-50298-42520-28092
3397.98-26150-22378-46996-73532-41042-54406
3400.87-105164-46578-60676-30622-31100-117864
3403.77-72924-52188-91546-139260-90770-92426
3406.66-132088-41512-113530-75578-48570-125320
3409.55-86854-79140-94356-50664-114004-95660
3412.44-73166-49786-85770-111858-50608-45782
3415.34-50072-44962-79862-40324-38556-91028
3418.23-79436-38716 27266-29658-57236-89346
3421.12-51746-96674-18876-63106-35048-12898
3424.01-58752-10080-33100-57482-2238-59878
3426.91-24322 14812 7684-48184-4500-27450
3429.80-19800-20390-51800-2674-420-38076
3432.69 13616 3864-48186-20146 15386-36678
3435.59 5718-24122 2904-40552 22032-16792
3438.48-26812-75628 37508-7058-6534 4582
3441.37-51524-10394-296-16870 16712 3840
3444.26 62396 27312 22936 55446 64356 5604
3447.16 51362 26232 37846 47514 24076 7264
3450.05 24656 70628 67986 80692 84516 105010
3452.94 105836 98152 112344 78480 151534 104486
3455.83 156984 122942 139378 127990 123314 108772
3458.73 84148 131014 102790 147434 77680 63096
3461.62 90502 104868 89826 77356 72164 81470
3464.51 121548 114030 89086 86852 79388 78118
3467.40 122846 91346 116864 109396 105758 85688
3470.30 83392 130286 99690 61042 122418 151428
3473.19 107676 46852 20086 15062 36814 40208
3476.08 10234 44840 11470 14928-82474 33480
3478.98 28006-20082-26860-42696-16036-33132
3481.87-44718-47856-12114 1358-24674-75420
3484.76-100492-98568-55534-85678-53016-80700
3487.65-63224-106250-93902-73292-85060-130574
3490.55-54416-90794-88952-108812-43836-74946
3493.44-61712-66026-91658-89314-45176-95952
3496.33-94650-64864-73342-52248-42676-39974
3499.22-24908-38296-20284-34212-44250-7006
3502.12-532-19032-13184-31300-25918-22094
3505.01 298 20474 81460 64954 64676 69272
3507.90 119754 130694 76920 182544 188138 190240
3510.80 235950 223882 225010 343366 332076 326950
3513.69 350128 435732 422696 477528 551360 514590
3516.58 608300 640094 636786 732322 758956 909844
3519.47 901676 981556 1027194 1101018 1178574 1242590
3522.37 1306598 1380768 1472752 1603426 1718932 1783354
3525.26 1846280 2050312 2122162 2220670 2383870 2574820
3528.15 2711988 2826950 3035078 3211440 3430738 3606612
3531.04 3768130 4005900 4208106 4480012 4689942 4991852
3533.94 5199646 5517292 5725648 6029114 6281382 6552998
3536.83 6869114 7131652 7314640 7588974 7816416 7983342
3539.72 8150910 8281220 8426032 8463900 8530428 8512444
3542.62 8500278 8408046 8285842 8188958 8083750 7948148
3545.51 7777932 7664220 7491714 7462544 7434888 7358714
3548.40 7312660 7341954 7377718 7591878 7796936 8114150
3551.29 8411348 8753874 9112362 9360244 9528602 9644676
3554.19 9715228 9597880 9379506 9125168 8785660 8435242
3557.08 8033482 7588726 7192592 6823958 6398308 5928898
3559.97 5534554 5188230 4862524 4562540 4214916 3953430
3562.86 3660206 3471226 3308574 3088100 2880666 2623454
3565.76 2483696 2278876 2222672 2052760 1810376 1833170
3568.65 1728526 1600684 1467906 1338178 1227402 1152278
3571.54 996928 920044 848678 782638 695414 649966
3574.44 531836 445598 420012 371870 268748 224752
3577.33 208962 167852 155110 106942 47312 11396
3580.22 24762-19586-4876 3608-43848-59564
3583.11-75124-38436-79830-91060-105852-107492
3586.01-290374-220932-163222-169690-213418-302404
3588.90-110254-188930-149930-176108-186444-173340
3591.79-164844-220620-220628-208904-191912-187078
3594.68-292284-231670-203062-207008-212684-246546
3597.58-231604-242780-214008-255262-258416-271866
3600.47-291142-282012-235238-298772-258810-328580
3603.36-297614-282006-289724-296402-259780-353312
3606.26-346228-424082-305826-326856-286228-630306
3609.15-384984-269494-316510-339766-345574-316964
3612.04-493504-334570-310056-298500-381494-392626
3614.93-361412-313560-355286-302168-358672-449882
3617.83-327312-301654-440682-582330-293846-320218
3620.72-287760-333344-310444-330332-283176-318068
3623.61-251856-338438-280122-261068-285450-301198
3626.50-284434-255192-351678-689068-251570-657108
3629.40-551172-195162-290310-214816-258372-241844
3632.29-272760-223776-297996-260038-233652-279504
3635.18-244596-217540-242320-222176-278818-247684
3638.08-284592-237388-221406-193878-217762-189648
3640.97-214234-207296-240044-209684-262590-189910
3643.86-235386-194526-214448-202542-293518-234292
3646.75-363196-308732-206122-265614-705378-434240
3649.65-187042-375682-319876-353086-192136-256744
3652.54-204774-259952-223928-214142-251250-236180
3655.43-319244-514838-219562-251920-168808-223998
3658.32-184150-195768-235616-226678-210368-226866
3661.22-215478-230402-180090-204316-223830-163248
3664.11-190410-188242-219682-190452-216650-206026
3667.00-222184-196726-334094-401996-258616-240452
3669.90-384640-804830-167790-264278-178654-301724
3672.79-159536-283778-175862-493516-400934-434000
3675.68-740184-153458-278388-240198-253552-208230
3678.57-255060-356396-198440-255208-217920-223088
3681.47-199246-249704-229516-258640-207926-301020
3684.36-242286-254550-230250-275082-164472-341682
3687.25-183434-745064-769640-190594-335620-238128
3690.14-311560-411516-430594-174742-316696-257334
3693.04-277046-216034-288440-252610-289326-223092
3695.93-297296-277028-244448-252760-283884-239484
3698.82-264978-258582-252132-266994-253316-419500
3701.72-294716-219702-269502-254344-275924-277528
3704.61-267838-242004-292690-254618-247040-221110
3707.50-278910-241116-326490-478496-290404-243940
3710.39-292494-240848-457558-651232-226548-224666
3713.29-241252-226430-245992-246822-236886-233754
3716.18-238184-250476-271776-260048-242586-277936
3719.07-224946-244308-223356-226024-236168-361714
3721.96-334854-222590-243710-232656-219858-258316
3724.86-255644-206292-319844-376068-217280-267150
3727.75-229636-253712-206680-218962-224334-225706
3730.64-230484-227582-630644-382972-198936-280240
3733.54-236576-372132-369812-364260-206438-455942
3736.43-560890-204654-243540-314234-263710-235330
3739.32-248328-253126-223904-324660-224930-262886
3742.21-258900-252404-390034-602872-1142808-563788
3745.11-222668-288720-222220-248754-248880-304104
3748.00-248520-421458-973446-386778-236174-314018
3750.89-213380-548298-1012720-237044-271642-263126
3753.78-278822-223834-295528-215066-294242-327162
3756.68-256294-255088-227732-263502-257374-317488
3759.57-398504-209440-262344-225118-236208-226212
3762.46-219084-230656-238208-254638-285732-208148
3765.35-395626-205432-200638-223410-254842-185430
3768.25-273668-203196-409150-370092-205558-260526
3771.14-239398-217460-223226-214350-209364-220050
3774.03-258658-212668-228082-216998-244910-248496
3776.93-244448-190544-218562-192694-368002-333208
3779.82-224012-233582-231702-229386-208748-245650
3782.71-246048-253234-259046-262986-265860-279054
3785.60-184380-273482-226760-219282-247804-190866
3788.50-245158-227274-245310-278458-197190-213404
3791.39-209488-220024-207284-231844-193630-250054
3794.28-216562-284342-195158-330560-287814-219458
3797.17-242566-242540-236068-241970-228236-280920
3800.07-249934-447296-907576-225478-270322-280862
3802.96-258722-190492-182734-231454-146556-239260
3805.85-158576-614280-566514-149166-296788-164434
3808.75-253476-154018-249632-200598-195332-200262
3811.64-226252-141496-216620-175196-240702-227586
3814.53-228268-128242-881156-458062-118098-234786
3817.42-154654-232172-189732-215870-187396-265576
3820.32-435014-243620-513238-234326-185430-212188
3823.21-165652-178212-174776-160738-195020-166022
3826.10-255554-255248-132284-190840-164240-178366
3828.99-143172-177592-163130-166942-262208-393072
3831.89-110836-224850-108042-217504-117176-377640
3834.78-245832-156704-106456-235036-123884-711284
3837.67-633512-55774-228026-89626-242908-138592
3840.57-317268-157262-133436-117156-159726-219890
3843.46-267408-123812-179014-118092-133742-119964
3846.35-150316-141358-166138-129786-138310-115492
3849.24-153582-116548-186512-111802-328480-786404
3852.14-156530-171200-265558-987426-748060-164150
3855.03-177646-109610-138872-143002-214460-66438
3857.92-143842-130768-109630-129108-173304-77184
3860.81-141846-272538-150766-142750-149404-95316
3863.71-152260-183840-458754-84940-121136-71782
3866.60-166388-73550-152782-48996-245676-182740
3869.49-487934-364618-57308-146774-91706-92730
3872.39-90494-126498-124276-215424-145000-65684
3875.28-74598-87868-105096-125576-84706-87806
3878.17-40528-92198-77486-255582-129826-87862
3881.06-71362-84476-72682-82662-61802-22182
3883.96-121874-19836-239150-367122-68650-83320
3886.85-56696-38458-32764-1784-54164-21588
3889.74-44806-9744-262216-156486 12474-43594
3892.63 1420-8494-49912-15076 15582-43450
3895.53-14720 52918-57542 788-24424-47078
3898.42-44304-282988-29130 6750 22094-1442
3901.31-218458-74502 26486-28738-182-258158
3904.21-31314 19442-28428-53762 24874 52030
3907.10 90312 47162 60146 19950 55278 25102
3909.99 16092 58424 82122 20240 51472 30358
3912.88 51484 99562 58856 36162 75276 57984
3915.78 33240 94390-67314 24536 62670 40558
3918.67 109962 78084 35896 93378 57114 80760
3921.56 74508 84034 63968 60538 66918 55822
3924.45 38894 70132 67714 44196 99546 72736
3927.35 43822 57120 108510 27434 85850 50246
3930.24 44560 91080 73226 51044 3528 91968
3933.13 77518 63450 103468 30314 83866 91316
3936.03 99680 108364 106722 78536 100512 78234
3938.92 73896 98736 93298 47444 71562 167302
3941.81 35120 37772 26016 96584 96140 124422
3944.70 84324 131272 90686 145280 85202 99990
3947.60 106418 129212 144520 110900 77374 119092
3950.49 140510 161372 153212 165872 122646 182908
3953.38 196514 201138 199316 178170 186208 247994
3956.27 259968 239200 232844 240598 227876 248600
3959.17 262540 257272 244460 287680 275478 296946
3962.06 337580 333600 372052 389824 365392 411812
3964.95 398438 396616 466434 468626 525660 492066
3967.85 514668 491262 526336 549020 560832 552914
3970.74 567632 568974 556570 591066 583932 618914
3973.63 581106 640630 634676
##END=
