##TITLE=Toluene
##JCAMP-DX=4.24
##DATA TYPE=INFRARED SPECTRUM
##CLASS=IUPAC A
##ORIGIN=NIST, Anayltical Chemistry Division, 301-975-3108
##OWNER=COPYRIGHT (C) 1998 by the U.S. Secretary of Commerce
##DATE=98/10/1
##$SPECTRA VERSION=1.00
##$UNCERTAINTY IN Y=2.4 % relative (B=1.4E-04,C=2.2E-09,D=2.7E-14)
##CAS NAME=Toluene
##CAS REGISTRY NO=108-88-3
##MOLFORM=C H3 C6 H5
##MP=-95 C
##BP=110.6 C
##$NIST SOURCE=QUANT-IR
##SPECTROMETER/DATA SYSTEM=IFS66V (Bruker)
##INSTRUMENT PARAMETERS=KBr Beam splitter; MCT Detector; Multipass cell
##STATE=gas
##SAMPLE DESCRIPTION=Toluene Primary Gas Standard
##PRESSURE=101.3 kPa
##TEMPERATURE=23 C
##SAMPLING PROCEDURE=1 L/min Flow
##RESOLUTION=1.9290
##DATA PROCESSING=Triangular Apodization
##XUNITS=cm-1
##YUNITS=(micromol/mol)-1m-1 (base 10)
##XFACTOR=1.0
##YFACTOR=4.5474E-13
##DELTAX=0.9645
##FIRSTX=574.687
##LASTX=3974.595
##FIRSTY=1.65E-07
##MAXX=3973.63
##MINX=574.69
##MAXY=.0006268
##MINY=-2.48E-07
##NPOINTS=3527
##XYDATA=(X++(Y..Y))
574.69 364714 597860 564614 160694-254688-22432
579.51-88160-68910-282370-546912-415474-86134
585.29-73034-343094 15538 566716 597952 265272
591.08-3008 163456 280232 150986 144396 484820
596.86 552288 344238 351118 279886 62190 242334
602.65 547498 592198 463452 528178 597386 632900
608.44 827012 1000866 763780 709056 725494 767892
614.22 961720 1038868 1093032 1201826 938944 917144
620.01 944386 909234 764002 913636 895770 1131764
625.79 1880252 2413424 2740820 3024812 3063512 3123508
631.58 2671628 2222582 2214942 2265400 2203228 2399632
637.36 2273790 2159406 2143646 2172306 2131482 2356528
643.15 2265876 2191590 2382656 2572566 2299796 2242324
648.93 2291094 2498544 2425418 2711918 2947962 3394468
654.72 3755942 4172454 4604274 5445564 6045604 7127712
660.50 8346662 9886306 11149550 13256260 15471380 18531180
666.29 21770480 25855160 29884790 35293300 41991540 49860470
672.08 57625430 66303860 74078380 84188760 94085280 106503600
677.86 119827700 139939000 154994600 155057300 151450900 152988400
683.65 153368400 158361700 159197400 165399000 167545000 186387000
689.43 184896100 207279500 245612500 569918400 799307300 388022800
695.22 169141700 190244200 179854300 190635200 191917300 206261300
701.00 226231900 242254100 232329900 236883200 246380800 256809100
706.79 268841300 283173500 296652800 312005900 326928700 342288200
712.57 355783900 368873200 380577200 392686600 403040900 408987800
718.36 411838600 414440300 419406300 434547600 473985100 558348100
724.14 682625800 764267300 864572900 1171768000 1378352000 1052744000
729.93 670608300 545900200 466417600 437686400 427468300 421287000
735.71 415848100 409535400 400598300 389220700 374542900 356985500
741.50 336273300 311749500 284423200 256173800 227335200 198843000
747.29 171556700 146083400 122594600 101922600 84167840 69132270
753.07 56710110 45560890 35487720 28209360 22658060 18276260
758.86 14947100 12448680 10554920 9107362 7868488 7055348
764.64 6370794 5925686 5518194 5277188 5278714 5249270
770.43 5113226 5310776 5384914 5551390 5781308 5883432
776.21 5954534 6026752 6037276 5821210 5332946 4999550
782.00 4685902 4536518 5967904 6934076 4738372 3477038
787.78 3697136 3942806 4283266 4507592 4639190 4339660
793.57 3991730 3833760 3342888 2870998 2550190 2310916
799.35 2011264 1719042 1650300 1616004 1602608 1525512
805.14 1393956 1429332 1437764 1357728 1300890 1409974
810.93 1497236 1449372 1270102 1140874 1169052 1127244
816.71 1102218 1083222 987934 1097384 1164262 1219872
822.50 1087714 1024612 1220226 1343598 1215712 1165060
828.28 1142588 1021226 1001620 994542 1009598 1104514
834.07 1192454 1153694 1016120 963656 1047728 1171184
839.85 1059596 1012448 1100090 1122744 1122694 1194570
845.64 1253792 1345294 1495920 1663830 1660734 1701682
851.42 1804106 1753306 1778002 1935462 2052354 2160890
857.21 2230552 2340502 2435270 2517068 2466880 2409896
862.99 2543336 2684598 2702020 2797338 2982680 3164266
868.78 3190154 3381074 3611056 3976686 4694228 4714076
874.57 4330780 4494350 4783384 5044944 5253046 5518256
880.35 5735380 5924480 6163490 6395448 6532558 6646918
886.14 6809440 7112388 7318504 7649390 8368286 10152920
891.92 13349410 19831290 19957080 11671450 8202726 8069364
897.71 7818622 7480790 7170942 7147252 7224216 7241442
903.49 7196706 7343644 7375510 7205088 6935652 6777070
909.28 6604404 6449116 6358608 6398710 6495082 6716806
915.06 6816400 6843968 6990928 7028482 7013990 7120732
920.85 7296946 7953706 9159074 9330298 8411318 8162686
926.63 8464146 8826518 9022102 8995570 8962448 8996564
932.42 8963110 8576014 7794646 7281674 7022814 6742836
938.21 6560176 6422054 6264408 6047184 5726174 5355854
943.99 5098198 4882538 4606314 4407014 4255534 4152386
949.78 4081870 4141426 4161966 4250032 4453072 4590608
955.56 4656660 4755468 4972600 5222252 5324928 5393432
961.35 5591322 5856208 5864564 5926132 6099716 6180862
967.13 6415320 7209182 7817438 7416864 7332358 7363430
972.92 6950724 6819112 6815316 6727542 6767754 6791790
978.70 6829518 6848852 6446516 6034422 5724140 5519464
984.49 5427636 5348374 5257014 5177256 5127070 5037018
990.27 4830640 4693570 4675358 4741390 4706218 4627172
996.06 4517876 4430224 4324646 4241402 4273978 4380332
1001.85 4382986 4416934 4312286 4272152 4524872 4880352
1007.63 5045894 5231868 5548506 6123498 6772814 7648676
1013.42 8931974 10758710 13104200 16196260 19954270 24644180
1019.20 29951220 35914390 41760860 47551390 51347880 53274140
1024.99 52706710 49497120 44595310 42083150 43412480 58759470
1030.77 83327390 64048090 38163620 40527660 46135690 52852880
1036.56 57035440 58882640 57868830 55323680 52275480 50486850
1042.34 49757160 47493860 41957420 37514360 35109340 31362720
1048.13 28167300 27073630 26539180 27215540 27244990 27786620
1053.91 29639490 30423130 29381270 28412200 28496470 28934120
1059.70 29309600 29780960 30311160 30979610 31920500 33118080
1065.48 34561230 36258490 38248630 40409520 42774920 45353840
1071.27 48085490 50974400 53798050 55448330 56732690 57878540
1077.06 55704610 50586140 43926260 38330040 36680650 39079740
1082.84 43560360 47892010 50901140 52394280 52440490 51280670
1088.63 49636460 47624090 45451650 43188460 40854380 38800740
1094.41 37168240 35814120 34425550 32891500 30700960 27870330
1100.20 24762460 21393110 18741500 17746360 18045010 19061310
1105.98 20086050 20590730 20591190 20130180 19427200 18697310
1111.77 17631350 16229330 14913240 13706760 12552110 11444090
1117.55 10343360 9398722 8649740 7981108 7381844 6785940
1123.34 6182242 5735766 5386590 5027236 4738858 4614662
1129.12 4580792 4475228 4329218 4160814 4043196 3998820
1134.91 3899630 3858444 3844710 3735044 3607310 3503310
1140.70 3462990 3537866 3583132 3601698 3675254 3762066
1146.48 3839988 3952700 4018760 4109960 4189778 4258952
1152.27 4329852 4319290 4372718 4559368 4800874 4978512
1158.05 5057626 5134312 5189992 5209822 5249086 5250586
1163.84 5386728 5608192 5560286 5453228 5678006 6080284
1169.62 6391948 6527512 6489284 6333006 6061810 5745566
1175.41 5578110 5682138 6093244 6299046 5690862 5250796
1181.19 5260898 5452394 5753708 5955774 6053762 6003576
1186.98 5802380 5523506 5231512 5003526 5035328 5451310
1192.76 5482224 5156124 5238978 5617438 6260050 6987552
1198.55 7737208 8507726 9106686 9598408 9930654 10105600
1204.34 10086720 9909642 9594572 9395168 9488230 10110420
1210.12 10935200 12146680 12068890 9817082 9095356 9916912
1215.91 10698050 11250360 11290740 10876460 10059810 9049386
1221.69 8020434 7061658 6247736 5581274 5175194 4977014
1227.48 4887754 4961734 5211954 5616242 5923134 6111062
1233.26 6255842 6321362 6281722 6253042 6104324 6122264
1239.05 6441378 7358220 7604788 6563654 6287574 6451860
1244.83 6703856 7235718 7235172 6844708 6487230 6098686
1250.62 5634444 5157220 4713904 4302040 3942512 3636374
1256.40 3471976 3343946 3134222 2884330 2675786 2562356
1262.19 2491012 2370950 2208690 2153898 2084650 1933464
1267.98 1837610 1822054 1814002 1859346 1862432 1800640
1273.76 1799838 1852478 1895952 1961152 1992036 1994750
1279.55 2047416 2119716 2185794 2280096 2457408 2591904
1285.33 2668310 2796324 2905566 3026106 3171402 3275602
1291.12 3318184 3408956 3494360 3537186 3646192 3863550
1296.90 4179736 4513414 4879030 5246318 5572252 5789284
1302.69 5918132 6013054 5961054 5760872 5391902 5006668
1308.47 4749448 4679906 4879510 5281316 5711048 6007042
1314.26 6122222 6144714 6102612 5922870 5733576 5562454
1320.04 5367634 5167320 5052706 5047040 4959848 4793680
1325.83 4524038 4337172 4297334 4229986 4152576 4207218
1331.61 4358114 4431104 4374796 4268472 4287242 4394276
1337.40 4485796 4566182 4695536 4857798 4989010 5149250
1343.19 5301864 5419322 5584970 5832828 6123850 6399216
1348.97 6636258 6890866 7154062 7428628 7776378 8262430
1354.76 8926176 9101712 8866786 9055496 9489506 9896714
1360.54 10424670 11036830 11596980 12118030 12734490 13530610
1366.33 14539120 15658300 16667090 17800630 19147420 20445300
1372.11 21861290 23205310 24501620 25838210 27104140 27849610
1377.90 28223010 28686650 29982280 31985390 37191020 42335540
1383.68 38738620 34612750 35014130 36708540 38612540 39358830
1389.47 39043870 37514360 35069750 32126170 29250210 26770610
1395.25 24611950 22472090 20717790 19531320 18746940 18185160
1401.04 17911600 18175970 18580540 18719480 19301100 20501840
1406.83 19734820 18192560 17992620 18197290 18793920 19543050
1412.61 20275260 20987650 21802920 23323730 24814780 25745310
1418.40 27049680 29460240 31171110 29676230 26650320 24764030
1424.18 23978900 23338860 23273520 23802260 24683390 25794710
1429.97 26888680 27978370 29179740 30112620 30735500 31515840
1435.75 32910990 35525580 38642310 41950790 45963840 48254180
1441.54 49347120 51869440 54900170 58012330 61132620 64155960
1447.32 67506740 70533450 72166420 72717150 72022720 70619960
1453.11 69801660 70682170 71473300 72377320 74513250 75383100
1458.89 76460240 78618950 80002930 82886900 81844250 75077140
1464.68 70962670 69772880 70083230 71675460 74834700 78320260
1470.47 79247270 78209540 75578190 72691770 70552350 68764110
1476.25 68109620 66954980 65513770 66022690 68745480 73998860
1482.04 81584340 91087170 104681700 120791900 134537200 148926400
1487.82 165069400 181372900 196623200 208530100 212776200 211054700
1493.61 204394000 197699600 199538000 210246100 214806200 245182500
1499.39 268569500 216666600 180788600 191010800 205927900 217664600
1505.18 222394600 219645900 208340200 190847700 168582800 146032000
1510.96 125277200 107699400 93115420 81826530 74245990 69234930
1516.75 64530300 58989280 53012640 48344850 45660360 45389530
1522.53 47643480 50868070 50448890 48726670 46744030 44613670
1528.32 44213100 44168900 43577250 42495280 41261620 41449710
1534.11 41806020 40236120 38776050 36229980 33494140 32396840
1539.89 31679790 30987130 30484250 29636870 28145940 26687040
1545.68 25240400 23962550 23119800 22605160 22674920 22740250
1551.46 22261560 21962890 22161800 23056500 23843610 24073940
1557.25 24264180 24623050 24761510 25096840 24968810 24173960
1563.03 23266740 21897020 20611940 19959390 19989320 20663910
1568.82 22129490 24029440 25530030 26290510 26199920 25771970
1574.60 24890710 24344420 24359960 23870440 23182220 22400320
1580.39 21500240 20680510 20104040 20153140 20987010 22849440
1586.17 24581710 23478160 23097220 25403460 28594630 32434240
1591.96 36715120 41619900 47157940 53082940 59597780 66581470
1597.74 73450860 79853020 85009390 87482810 88970140 89448520
1603.53 90811190 94274900 100440300 102735500 115052900 132463300
1609.32 115488700 100195700 104127300 108183000 111251400 110639200
1615.10 105466600 97916500 90479060 86918610 88986760 78802700
1620.89 65358840 59330300 54831240 51972950 49009000 45689280
1626.67 41835400 37499800 32705500 27837640 23296340 19114140
1632.46 15532170 12441040 9818434 8321348 7340284 6520498
1638.24 5939592 5377162 5012082 4784600 4560780 4419920
1644.03 4201934 3927964 4042902 4050774 4090554 4122694
1649.81 4128680 3709498 2920606 2972684 3320280 3403886
1655.60 3377012 3464820 3729820 4028898 4280170 4398022
1661.38 4336002 4374932 4489554 4464374 4474596 4488728
1667.17 4312524 3976406 3955322 3956938 3807140 3829652
1672.96 3759090 3504668 3671118 3954560 3964680 4033076
1678.74 4142740 4258990 4276494 4114962 3750220 3209032
1684.53 3450904 3808164 3546402 3384284 3296554 3233956
1690.31 3258706 3359590 3473414 3634380 3246476 3191432
1696.10 4164308 4562070 3877152 2912660 2922942 3468202
1701.88 3608714 3547982 3595904 3692902 3774160 3964450
1707.67 4009758 4087792 4244942 4507498 4754154 4936418
1713.45 5039084 5387190 5762686 5858416 6529816 7466188
1719.24 8215464 8926740 9647550 10350620 11023600 11579770
1725.02 11920020 11921590 11658060 11116400 10230710 9305178
1730.81 8498740 7993720 8182104 9422602 11219790 12245490
1736.60 12291980 11833180 10883730 10088050 9464002 8577336
1742.38 7704698 6944162 6233608 5577144 5033406 4515234
1748.17 4077366 3679020 3160336 3013850 2999742 2885138
1753.95 2893088 2821180 2763780 2931422 3166876 3424680
1759.74 3545210 3501754 3776354 4184242 4534606 4881720
1765.52 5120636 5247236 5495022 5902060 6162358 6463592
1771.31 6888362 7537806 7954782 8059538 8309030 8775942
1777.09 9467166 10397070 11046300 11171310 11517840 12258890
1782.88 13089090 13908180 15068300 16597340 18015060 19503160
1788.66 21440040 23374980 24691780 25432240 25968240 26213760
1794.45 26189710 25408320 23481810 22341790 25791070 35244870
1800.24 32795990 21474350 19814250 21754890 23762620 25532880
1806.02 26287000 26113470 25047490 22933030 20194640 17587840
1811.81 15219670 13153400 11364740 9870692 8631724 7734572
1817.59 7305636 7411828 7813184 8119202 8196800 8098002
1823.38 7804128 7507438 7320064 7078842 6803622 6557658
1829.16 6398906 6464274 6593260 6719706 6897176 7088900
1834.95 7394256 7869700 8476022 9229870 10064930 10981840
1840.73 12000980 13182560 14337260 15790560 17551590 18991750
1846.52 20224770 21328130 22137400 22454440 22163670 21231630
1852.30 19854620 18326370 17025360 16932880 18760030 22454380
1858.09 26612700 29566740 31073030 31589390 31259620 30425530
1863.88 29287320 27714290 25940330 24242640 22432860 20924210
1869.66 20641660 21717910 21093210 17354770 15148600 15301030
1875.45 15867550 16338200 16299700 15665690 14464190 12893830
1881.23 11138240 9417986 7892016 6641040 5688624 4982560
1887.02 4418798 3982426 3740488 3638952 3497512 3348262
1892.80 3238270 3185250 3144836 3145156 3169562 3085844
1898.59 2901864 2798170 2790820 2872366 2875442 2687652
1904.37 2578734 2650674 2745530 2811294 2887000 3010972
1910.16 3170890 3334390 3522192 3740848 3993308 4314880
1915.94 4663524 5009482 5536982 6141968 6788506 7528338
1921.73 8370216 9444236 10690800 12114000 13370550 14621520
1927.51 16259550 18117780 20074880 22051670 23850810 25261590
1933.30 26234540 26655320 26517510 25839210 24773440 23422010
1939.09 22098410 21551250 22394780 25045830 28984850 32466150
1944.87 34517210 35396900 35230660 34250970 32914180 31270930
1950.66 29532460 27791150 25650190 23620730 21874880 20262840
1956.44 20462220 21038540 18100420 14665560 13745770 13845030
1962.23 14037880 13968800 13446600 12412840 11033390 9499306
1968.01 8018728 6650796 5467666 4497252 3719850 3130152
1973.80 2745362 2481846 2264450 2120580 2095986 2140964
1979.58 2243786 2446774 2701886 3104346 3206864 2785864
1985.37 2599628 2644108 2676940 2791998 2956894 3000656
1991.15 2986080 2955086 2915828 2994010 2841472 2633208
1996.94 2703754 2802300 2826134 2857024 2863326 2812756
2002.73 2671292 2502908 2358554 2222224 2120622 2053548
2008.51 2007270 2092888 2118002 1922250 1790606 1703342
2014.30 1609848 1581540 1587994 1579450 1537636 1455264
2020.08 1362590 1307028 1304922 1307860 1258826 1169272
2025.87 1056394 964008 921692 867770 804786 774190
2031.65 728196 670208 625004 582142 533490 433844
2037.44 390854 429268 399714 332804 326898 356782
2043.22 336304 280642 288144 305008 276272 240554
2049.01 227974 232010 237724 262818 287366 326228
2054.79 369486 360002 345004 361684 372108 351860
2060.58 290666 219862 245620 403632 507752 513560
2066.37 521784 540226 513918 440190 454564 504228
2072.15 487360 483600 499078 497980 530592 574266
2077.94 625078 646152 568860 534056 503296 441820
2083.72 416710 418278 429684 431834 455290 479530
2089.51 470722 489446 489078 425642 407850 427830
2095.29 419434 441836 477932 512580 472428 435972
2101.08 464238 461026 476860 512466 492232 462420
2106.86 512122 538834 511810 539420 621332 648134
2112.65 596030 573282 588338 574912 567720 566516
2118.43 576190 629518 682368 678856 677650 662156
2124.22 667284 688332 682080 705100 675100 660650
2130.01 644238 614752 660678 710270 702346 651928
2135.79 601866 550198 513742 519392 504110 481980
2141.58 486978 497986 522150 551728 564408 598710
2147.36 612328 624076 680302 731160 805160 926892
2153.15 1067998 1167820 1283450 1462088 1632844 1786546
2158.93 1876120 1987198 2131708 2198604 2233120 2275802
2164.72 2312916 2414884 2773458 2913814 2565012 2384976
2170.50 2523984 2711904 2878754 2950538 2997602 2955264
2176.29 2801770 2684030 2478402 2263632 2104594 1976700
2182.07 1873442 1725650 1570634 1481006 1444608 1427952
2187.86 1442470 1462320 1537874 1657168 1638440 1556498
2193.64 1499510 1447330 1415066 1335958 1305344 1300866
2199.43 1236398 1187590 1160950 1172264 1166254 1106830
2205.22 1082950 1090896 1125326 1193408 1167410 1079816
2211.00 1040316 1055990 1083592 1127878 1159850 1164084
2216.79 1177010 1117866 1038296 1026524 1047330 1103220
2222.57 1100448 1014498 1014994 1034888 1032280 1032182
2228.36 1057106 1115696 1119278 1083116 1048628 1044318
2234.14 1070444 1130582 1223982 1206974 1147018 1223176
2239.93 1303300 1366128 1447760 1505654 1580870 1652330
2245.71 1701100 1734708 1866762 1991312 2027964 2067866
2251.50 2137712 2195820 2226322 2296224 2338048 2334552
2257.28 2278726 2245378 2232760 2223292 2279372 2316640
2263.07 2373458 2478220 2557104 2613530 2636184 2709056
2268.86 2789526 2778760 2793228 2796372 2816456 2956850
2274.64 3052682 3094126 3156738 3168928 3133642 3068724
2280.43 3006222 2939292 2895726 2967746 3001174 2937908
2286.21 2923564 2978738 3047790 3080642 3088864 3080542
2292.00 2959362 2808348 2811342 2851936 2859808 2872332
2297.78 2920752 3010154 3130962 3267408 3390460 3590194
2303.57 3793508 3891356 3939116 3876610 3756966 3654076
2309.35 3621284 3714298 3940062 4438216 4531618 4206316
2315.14 4071454 4078902 4243942 4509330 4649278 4629084
2320.92 4630218 4616416 4519000 4396896 4284806 4243180
2326.71 4259918 4325444 4403102 4430120 4385744 4289234
2332.50 4175536 4065206 3979240 3985882 4109610 4203600
2338.28 4323960 4511840 4656968 4820468 4960918 5017742
2344.07 4979144 4866616 4713614 4535824 4450844 4409558
2349.85 4434558 4535156 4627686 4698480 4776364 4907348
2355.64 4986740 4980050 4907690 4762284 4555422 4255998
2361.42 3906184 3605186 3502568 3614534 3842900 4119422
2367.21 4267162 4193466 4024228 3831300 3615860 3407196
2372.99 3130958 2868572 2706750 2647968 2610506 2532348
2378.78 2522266 2559294 2586412 2594572 2545106 2522974
2384.56 2540330 2498470 2475338 2540272 2623098 2695856
2390.35 2738788 2700470 2666304 2708746 2795550 2844958
2396.14 2846286 2855932 2890110 2993140 3169956 3192586
2401.92 3179840 3265582 3350434 3454034 3534206 3601496
2407.71 3637956 3647722 3638394 3692024 3904236 4136582
2413.49 4076548 3973348 4097506 4255168 4315194 4323774
2419.28 4333150 4430560 4551780 4423058 4155798 3964200
2425.06 3841014 3736046 3632758 3504806 3430288 3338906
2430.85 3052526 2846132 2773286 2685344 2631454 2587178
2436.63 2467214 2315144 2253948 2208304 2153624 2112302
2442.42 2065410 1977344 1918482 1938976 1928432 1903968
2448.20 1906308 1905242 1922888 1937030 1938864 1943052
2453.99 1965494 2004950 2036702 2080660 2124510 2167728
2459.77 2207222 2210374 2156776 2149610 2194720 2233284
2465.56 2261766 2237454 2208984 2167940 2166528 2180034
2471.35 2113902 2088170 2075980 2033716 1979730 1955528
2477.13 1959148 1915044 1871138 1830782 1790888 1762050
2482.92 1779460 1770820 1726866 1782520 1822040 1807270
2488.70 1840296 1884756 1896198 1894216 1945044 2007302
2494.49 2067802 2112406 2121826 2111302 2143964 2233288
2500.27 2192518 2126816 2112670 2087366 2082234 2063096
2506.06 2058132 2052182 2070448 2115316 2092970 2004080
2511.84 1927320 1912284 1858090 1816546 1791434 1749464
2517.63 1752340 1712140 1677778 1674994 1632224 1616164
2523.41 1607674 1600040 1679164 1679720 1633334 1647536
2529.20 1625532 1644170 1624206 1648914 1750050 1779040
2534.99 1737524 1692928 1666042 1636350 1638148 1607188
2540.77 1601310 1628066 1649102 1667634 1633700 1580260
2546.56 1595656 1636128 1673770 1685822 1696720 1698102
2552.34 1630154 1590848 1539228 1469860 1402550 1394832
2558.13 1418840 1432562 1482332 1496246 1433128 1439796
2563.91 1526958 1566168 1623328 1700100 1755606 1832956
2569.70 1879238 1950598 2033274 2114282 2266590 2359330
2575.48 2460244 2639418 2838204 3070176 3343344 3669548
2581.27 3981458 4147750 4268472 4474142 4688982 4812484
2587.05 4897926 4956280 4993552 5008410 5121874 5338324
2592.84 5465340 5401444 5440328 5742698 5952672 6003468
2598.63 5990240 5853642 5603850 5289620 4902104 4499984
2604.41 4166860 3930014 3696986 3534764 3439206 3438298
2610.20 3499426 3378794 3163594 3054774 2994068 2973694
2615.98 2976004 2937026 2895418 2885962 2926842 2998672
2621.77 3052280 3026926 2981408 2946308 2950014 2887348
2627.55 2784412 2756436 2751380 2733302 2646900 2599500
2633.34 2579008 2559384 2548062 2597496 2680520 2638588
2639.12 2530600 2429338 2428956 2481512 2481774 2384570
2644.91 2207264 2126164 2086836 2038058 2018262 1989944
2650.69 1898476 1826102 1862588 1871308 1765580 1661242
2656.48 1611824 1528308 1484114 1474034 1429762 1475178
2662.27 1484522 1373570 1361192 1416430 1405554 1385538
2668.05 1372582 1364938 1372220 1329072 1276780 1286074
2673.84 1265452 1208032 1212432 1258918 1280888 1252262
2679.62 1232224 1258256 1281380 1309462 1268106 1259578
2685.41 1268980 1245000 1265286 1290532 1319462 1285658
2691.19 1296702 1296508 1238500 1212176 1221710 1241762
2696.98 1339896 1380442 1267700 1244414 1331120 1378182
2702.76 1361430 1329672 1287762 1318182 1371530 1363098
2708.55 1405556 1466910 1464242 1533474 1602392 1667478
2714.33 1776244 1794428 1839596 1933000 2028920 2097386
2720.12 2164292 2295350 2456960 2651324 2866868 3102984
2725.91 3450216 3864000 4389696 5017662 5700508 6526948
2731.69 7409922 8389910 9402928 10286360 10985020 11513080
2737.48 11830590 11762890 11562600 11412220 11673720 13057690
2743.26 16109380 17037240 13705980 11808700 12628840 13903290
2749.05 15051130 15667630 15534300 14625990 13173800 11498710
2754.83 9941870 8528634 7333332 6403160 5753928 5251096
2760.62 4826582 4512852 4258848 4006908 3712136 3396296
2766.40 3200722 3135372 3126568 3165274 3194686 3227086
2772.19 3248154 3259608 3294910 3307072 3390164 3491702
2777.97 3567386 3637646 3748890 3868696 3852008 3790014
2783.76 3818670 3884674 4053120 4243834 4296018 4311424
2789.54 4351818 4342104 4320124 4432994 4547370 4584954
2795.33 4658740 4667480 4705014 4911206 5037952 5001924
2801.12 4960400 5010596 5111126 5217854 5332336 5461596
2806.90 5673194 5867200 6123438 6422872 6593122 6757332
2812.69 6994154 7206384 7447786 7850564 8171046 8319568
2818.47 8527284 8792336 9085306 9305514 9416878 9503574
2824.26 9549032 9615920 9769652 9994064 10298490 10752120
2830.04 11241090 11683920 12143530 12605690 12965530 13264360
2835.83 13575070 13999770 14407310 14675090 15035250 15498570
2841.61 16024580 16556560 17280330 18293800 19322050 20418560
2847.40 21662430 23043590 24580760 26290140 28106340 30038800
2853.18 32170280 34409320 36849060 39582730 42553920 45817710
2858.97 49312930 52882800 56781590 61118500 65509540 69838030
2864.76 74289580 78741060 83124130 87679710 92437180 97491020
2870.54 103641300 109469200 113808100 118639400 124463100 130617200
2876.33 136793700 142140500 145705500 147970900 148762800 147766500
2882.11 146350900 145134200 144138800 142698200 140830800 139750400
2887.90 139212100 138127400 135944900 133180600 130566000 127705800
2893.68 124355700 120738900 116753300 112570000 108352600 104034700
2899.47 99875700 96321590 93454260 91203940 89723050 88998330
2905.25 89233170 90285980 91123420 92432940 95410060 99310110
2911.04 102981100 106712000 110142800 114187700 119989800 126650500
2916.82 134540400 142339000 150027000 159522300 170727200 183475800
2922.61 196157400 207189900 216791100 224905000 231323100 234553600
2928.40 235624600 238004800 243681700 251686300 258661200 262008700
2934.18 260638400 258877400 261515300 265050900 265661900 264086500
2939.97 259913200 255445400 252341100 247007500 239218600 231599000
2945.75 223057700 211627500 198892000 187206400 175626300 164227200
2951.54 156179000 151418000 149799400 147432100 138327300 126673900
2957.32 119378700 116622800 116278400 116214000 114366100 111611600
2963.11 107380800 102134000 98480290 95215840 91368040 87529540
2968.89 83756710 80255460 77569880 76513230 77091090 78378620
2974.68 80161470 82111210 83633580 85219960 86781290 87705810
2980.46 88138830 88516990 89371060 91679780 95670460 98871190
2986.25 97034660 92157820 89553380 89965170 92851700 97319970
2992.04 100588800 101554100 102947200 106996000 113398700 117711500
2997.82 117278500 116223800 118967800 125595300 134106400 142684800
3003.61 147845000 146663800 143626400 144221900 147616900 150033200
3009.39 151600100 153742000 155771600 160567100 167702500 174011500
3015.18 179875800 187078400 196802100 209037800 224110700 242715900
3020.96 264859100 284743200 303045400 324650800 347102300 370018100
3026.75 395073700 422883600 449324900 466361100 474456000 479431800
3032.53 480944100 476115600 468890900 466686300 468391000 471670000
3038.32 478116100 481520600 483571800 483579900 480248200 480875500
3044.10 479057400 470307100 453950300 430477600 403214500 374654900
3049.89 345836100 318272900 294443100 275568600 260993400 250038200
3055.67 242669500 238221800 236795900 238462600 241674900 244816800
3061.46 248489600 252989200 256802900 259668700 261077200 260445600
3067.25 259610700 259969400 263515400 273337700 290519100 308742900
3073.03 303682000 278933100 266341000 267970300 273925200 279789300
3078.82 283568500 284182200 281975700 274420000 263202000 254416800
3084.60 247405900 241513100 236285000 230579200 223409300 214713900
3090.39 203801900 191128300 178631200 167067600 157887500 152547700
3096.17 151902500 155343300 159677000 162353800 161971200 157992200
3101.96 151684900 144025200 135336400 126293200 117174800 108696400
3107.74 101135300 94351990 88937340 84554840 80748110 77270100
3113.53 73709670 70033370 66520700 63125420 59772610 56208360
3119.31 52285660 49430630 46907940 43716440 41438750 39299600
3125.10 36996180 35138470 33442650 31658960 29472610 26900030
3130.89 24196170 21692200 19280690 16922960 14701580 12726370
3136.67 11083250 9726588 8499812 7475072 6668308 5972178
3142.46 5391756 4947628 4544482 4277342 4148642 4025952
3148.24 3919220 3730032 3598868 3521788 3436598 3413316
3154.03 3392190 3390998 3323342 3304406 3299902 3329332
3159.81 3439468 3438442 3457694 3499766 3526504 3593758
3165.60 3594990 3576852 3667908 3764434 3786012 3817478
3171.38 3852408 3791832 3754360 3764846 3768592 3712566
3177.17 3568774 3562928 3592672 3490078 3312476 3068620
3182.95 2915150 2933218 2895346 2811350 2684196 2394748
3188.74 2027288 1725552 1448174 1227202 1127812 993968
3194.53 847096 781554 780742 752054 685016 655992
3200.31 637404 596414 535122 539178 571740 582558
3206.10 664530 739502 736388 661208 586762 483228
3211.88 393842 409514 443946 443024 381068 202872
3217.67 219738 548116 696382 633928 500354 403548
3223.45 407810 361550 234714 199606 318692 339216
3229.24 253202 283750 319102 387326 433616 436934
3235.02 451538 399748 343076 327558 368196 446646
3240.81 536638 547082 576984 640292 633988 549836
3246.59 578098 625412 597886 636770 624922 595776
3252.38 681822 692722 680700 781062 781142 749836
3258.17 782372 783516 803004 817456 871096 942904
3263.95 964406 983282 993778 991676 954882 1002428
3269.74 1003630 1013166 1149618 1225882 1187302 1098312
3275.52 1101608 1158516 1138136 1108052 1108450 1115838
3281.31 1110372 1071334 1061414 1113970 1145148 1068664
3287.09 987220 962870 991296 1112492 1119696 1092880
3292.88 1146126 1117848 1070852 974484 935470 1001328
3298.66 982188 949588 1040020 1137798 1077810 986084
3304.45 980048 995226 924524 905474 935900 868188
3310.23 900946 968046 974976 1006162 942338 930476
3316.02 982432 1026266 1065116 969154 997238 1108374
3321.80 1108724 1126832 1212034 1250086 1308864 1426348
3327.59 1377674 1387276 1477328 1525684 1524560 1590134
3333.38 1623442 1541980 1559854 1606146 1546876 1506230
3339.16 1617362 1686936 1685250 1663424 1565064 1506658
3344.95 1492474 1491334 1511342 1462698 1417836 1348194
3350.73 1306576 1235736 1188688 1229118 1197816 1120000
3356.52 1120736 1216128 1159678 1204424 1328116 1360710
3362.30 1424940 1374592 1359378 1340832 1302148 1292876
3368.09 1290166 1303488 1316652 1336692 1410672 1515596
3373.87 1523954 1538138 1569222 1586310 1552856 1515194
3379.66 1593526 1647466 1654516 1673408 1598100 1513782
3385.44 1473626 1354154 1392204 1394080 1324852 1392230
3391.23 1343182 1362478 1410362 1330980 1297510 1289816
3397.02 1267030 1305344 1292552 1226006 1167490 1111844
3402.80 1137730 1206650 1215720 1166992 1159380 1213040
3408.59 1166474 1103986 1088494 1034450 939490 909812
3414.37 1040206 1109354 1101860 1074188 895258 705374
3420.16 779920 955270 949850 965992 986228 939080
3425.94 945006 1021954 1139296 1136408 1075572 1097154
3431.73 1069978 1046334 987922 1043832 1185916 1159328
3437.51 1265032 1395330 1323888 1369166 1515370 1521672
3443.30 1476450 1491670 1505416 1445898 1339810 1226248
3449.08 1239454 1346976 1267024 1134552 1099838 1105040
3454.87 1088060 1048564 1060702 1065888 1031506 1014486
3460.66 1028552 898082 846804 918790 894620 773092
3466.44 712382 638258 533468 549540 578816 614538
3472.23 554914 520610 506452 425636 363314 352456
3478.01 384776 402306 370872 355212 401682 425722
3483.80 432156 417142 484690 515748 426668 440380
3489.58 502224 468390 445876 441882 502116 525052
3495.37 457410 480618 567394 548586 459226 536268
3501.15 570280 519350 500842 510874 548912 509092
3506.94 455934 469302 525672 562558 556134 550986
3512.72 558284 606422 614558 606074 594968 599816
3518.51 621830 685028 733048 660690 698374 894396
3524.30 1050190 921066 739426 681678 634172 671762
3530.08 634534 598018 642564 684676 727360 697112
3535.87 688516 684518 711874 761240 732534 734040
3541.65 735626 782420 817244 795658 783228 882560
3547.44 952730 879774 881954 857894 861216 995316
3553.22 1096982 1064790 943410 916872 960246 992950
3559.01 999304 960014 972998 1009608 1011438 961480
3564.79 921522 920680 870274 833142 831430 721768
3570.58 669200 695298 672140 644890 607184 595526
3576.36 553028 547828 572200 705122 835526 859168
3582.15 904532 855870 754198 625830 668464 651454
3587.94 595084 755734 832820 846116 791020 832444
3593.72 849318 821182 877322 868368 770750 703692
3599.51 611734 700726 989982 1023798 975006 866784
3605.29 619658 564108 585862 448292 515680 623610
3611.08 507094 481314 519036 484654 606238 688108
3616.86 765804 723608 621374 807898 929954 1001476
3622.65 1035824 1093116 1131186 1181846 1138212 862434
3628.43 759784 998694 1184166 1230432 1152836 1190146
3634.22 1369438 1435530 1538444 1572518 1608176 1693030
3640.00 1775268 1910608 1989182 1980748 1989956 1979856
3645.79 1895820 1930128 1825872 1834458 2069996 2234366
3651.57 2519704 2602506 2548774 2445680 2416086 2590864
3657.36 2654474 2608058 2586664 2587486 2569368 2580720
3663.15 2584270 2610830 2551140 2494898 2377348 2215238
3668.93 1966984 1683276 1823310 1916702 1707704 1332808
3674.72 1024308 1183720 1492730 1468742 1356412 1378898
3680.50 1477360 1456664 1335720 1305862 1264576 1274506
3686.29 1174208 791154 928590 1202010 1160476 1228594
3692.07 1209388 1234708 1253046 1225406 1244530 1189876
3697.86 1202898 1284422 1157572 1043006 1177922 1232554
3703.64 1226106 1240996 1217002 1122420 1049388 1027268
3709.43 1081134 838920 652656 1004862 1157820 1165064
3715.21 1267826 1239088 1125412 1101222 1061372 1059036
3721.00 1059834 1177776 1261208 1177044 1104734 999558
3726.79 961244 956926 928330 929636 750850 729386
3732.57 943940 856850 633138 471952 561348 751826
3738.36 788720 773532 728134 686928 506608-91710
3744.14 5476 662098 791054 721156 288254 250840
3749.93 476658 35042 121650 574782 633802 610830
3755.71 631758 696634 611076 527552 661518 715688
3761.50 661432 683512 612224 568614 632312 698116
3767.28 689524 530528 465206 673378 830442 845958
3773.07 770034 802974 887806 854492 843128 834888
3778.85 853662 929394 961382 1100228 1238106 1239308
3784.64 1183854 1206580 1388554 1472882 1470830 1517756
3790.43 1567994 1633044 1710722 1699564 1687452 1617892
3796.21 1564794 1624062 1690874 1652792 1213094 1207510
3802.00 1577360 1671846 1786876 1699956 1381342 1443086
3807.78 1676922 1706448 1744996 1704200 1647840 1584960
3813.57 1528230 1085354 1050370 1575132 1698468 1687280
3819.35 1524624 1417226 1575356 1779078 1934292 2022406
3825.14 1937354 1910620 2085874 2124148 2116400 2038066
3830.92 2035168 2239216 2243056 2101272 2247136 2281042
3836.71 1905302 2139904 2461004 2440346 2494594 2577200
3842.49 2626166 2752670 2897282 2946626 3030836 3173936
3848.28 3199038 3270844 3054388 2802082 2801074 2415584
3854.07 2860464 3366366 3258728 3320890 3299196 3169200
3859.85 3090854 3070504 3134274 3100798 2808080 2799422
3865.64 2933792 2842548 2664550 2314650 2238532 2484612
3871.42 2589514 2527590 2373064 2380710 2393038 2286878
3877.21 2211058 2064840 1924124 2022890 2180174 2150178
3882.99 2047266 1805914 1643558 1875068 1983444 1870050
3888.78 1850304 1715506 1632730 1834848 1873470 1849740
3894.56 1863136 1941920 1978080 1826772 1686956 1820584
3900.35 1811910 1857068 1957212 1861774 2027658 2105146
3906.13 2189408 2260560 2263090 2335296 2397612 2414910
3911.92 2458792 2501070 2475452 2470566 2496774 2649206
3917.70 2788896 2641756 2625084 2632352 2584454 2655410
3923.49 2602554 2601396 2607026 2547418 2485730 2457318
3929.28 2387074 2275134 2204376 2232262 2208504 2169374
3935.06 2167608 2159484 2121960 2051380 2123858 2137942
3940.85 2034488 1978130 1894758 1799084 1816704 1911520
3946.63 1965320 1980014 1943876 1905748 1937286 1943538
3952.42 1911534 1836572 1869444 1950022 1969214 1899874
3958.20 1875496 2043476 2122912 2011096 1998288 2126412
3963.99 2153262 2095222 2043974 2055266 2105726 2169152
3969.77 2195596 2105884 2074218 2087184 2091970
##END=
