##TITLE=Toluene
##JCAMP-DX=4.24
##DATA TYPE=INFRARED SPECTRUM
##CLASS=IUPAC A
##ORIGIN=NIST, Anayltical Chemistry Division, 301-975-3108
##OWNER=COPYRIGHT (C) 1998 by the U.S. Secretary of Commerce
##DATE=98/10/1
##$SPECTRA VERSION=1.00
##$UNCERTAINTY IN Y=2.4 % relative (B=1.4E-04,C=2.2E-09,D=2.7E-14)
##CAS NAME=Toluene
##CAS REGISTRY NO=108-88-3
##MOLFORM=C H3 C6 H5
##MP=-95 C
##BP=110.6 C
##$NIST SOURCE=QUANT-IR
##SPECTROMETER/DATA SYSTEM=IFS66V (Bruker)
##INSTRUMENT PARAMETERS=KBr Beam splitter; MCT Detector; Multipass cell
##STATE=gas
##SAMPLE DESCRIPTION=Toluene Primary Gas Standard
##PRESSURE=101.3 kPa
##TEMPERATURE=23 C
##SAMPLING PROCEDURE=1 L/min Flow
##RESOLUTION=0.9640
##DATA PROCESSING=NB Strong Apodization
##XUNITS=cm-1
##YUNITS=(micromol/mol)-1m-1 (base 10)
##XFACTOR=1.0
##YFACTOR=4.5474E-13
##DELTAX=0.4820
##FIRSTX=575.169
##LASTX=3975.077
##FIRSTY=2.59E-07
##MAXX=3974.59
##MINX=575.17
##MAXY=.000721
##MINY=-5.35E-07
##NPOINTS=7053
##XYDATA=(X++(Y..Y))
575.17 570934 847426 313664 501438 634866 137638
577.58-669504-569366-548384 67996 112940-486642
580.47-617858 222928-165446-571664-861096-768314
583.37-817738-698214-500194-91190-271746 106004
586.26-396206-1178502-551130 123418 15658 428808
589.15 887078 695616-57556 291538-67168-539472
592.04-341854 257204-91244 224306 143008-223654
594.94-276430 104478-186610 308988 728346 545792
597.83-100004 253382 73088 82734 156742 270234
600.72-237958-436342-161748 26830 18400 504912
603.61 520166 366872 197364 236748 167270 253998
606.51 265476 519210 217520 360088 385416 556322
609.40 808260 974898 623458 493390 207784 534812
612.29 341704 557498 301012 419374 517130 752740
615.18 783352 840730 562054 805650 977910 1085464
618.08 773010 578926 286372 729192 616514 578930
620.97 516426 703270 356894 365074 165602 596980
623.86 685360 483572 85250 601500 1040918 1690012
626.76 1914790 2100052 2155476 2624694 2521264 2838248
629.65 2750112 2785104 2683098 3061128 2673848 2406108
632.54 1687136 1654452 1588750 1810054 1751026 1912150
635.43 1559352 1692036 1714830 2095456 1859184 1907392
638.33 1432096 1619710 1556840 1618646 1483994 1721276
641.22 1385004 1531314 1444476 1956810 1777906 1634658
644.11 1376138 1533256 1334460 1758522 1910940 2124040
647.00 1555606 1514030 1369640 1514002 1097504 1516698
649.90 1542122 1779794 1326774 1505884 1417192 1769510
652.79 1691610 2005472 1971708 2395466 2269388 2802608
655.68 2868924 2912428 2761134 3501626 3666876 4191398
658.58 4181018 4721724 4893900 5690640 5880382 6955354
661.47 7545816 8405530 8572096 9382428 10104190 11535210
664.36 12184570 13609500 14832280 16505240 17789630 20013930
667.25 21518060 23698830 25501540 27957670 29738630 32580750
670.15 35858820 40217280 43987430 47925580 51422560 56146330
673.04 60391620 65210320 68000850 72323020 77021380 82654560
675.93 87599990 92951100 98226410 104802200 111460300 119954300
678.82 127805500 139475500 155761500 165791700 160059700 154380000
681.72 153044500 152516200 151061400 151523600 151293700 152903600
684.61 154052300 156369000 156918500 158099900 158730800 160584200
687.50 161717000 164054800 167760000 179421000 190235500 183103600
690.40 167915200 173443200 195520800 224614800 278931600 487231300
693.29 991338800 1267114000 667615600 208539400 149354900 148082400
696.18 156468600 164495900 171715600 175110600 177480100 179383300
699.07 182939200 187355800 192586100 198613600 208030600 224916500
701.97 246579200 252445800 234989400 225030700 226385900 233474700
704.86 240271500 244943600 247988000 254014800 260251500 267795900
707.75 274434100 282256700 288635900 296512100 303378900 311882300
710.64 319433100 328059100 335111000 343635800 350253900 357766800
713.54 363357000 370595900 375774700 382834200 387357200 394351900
716.43 399752000 407073000 407895100 409775700 409872200 411983600
719.32 409408300 410911900 409723800 411647400 412301600 421771900
722.22 432236400 456183700 489950400 545714800 615442900 705216700
725.11 754605400 781383900 793367100 811965200 962464200 1310590000
728.00 1473557000 1585519000 1564658000 1066384000 726185000 616405700
730.89 593461700 524891700 464924700 440470000 432499300 422188500
733.79 422190800 420041300 421592100 417530800 417176400 415161200
736.68 415680000 410392600 408318700 403146200 399618700 392371000
739.57 386860100 378261200 370879600 360418300 351835500 340102700
742.46 328828900 314477800 301286700 285787500 272294800 256649600
745.36 242452600 226610500 212488700 196907500 183317600 168585500
748.25 156085300 142435500 130568100 118047500 107714800 96982660
751.14 88178900 78884650 71859090 63903270 57845390 51687810
754.04 47369550 40876620 35318910 30142290 27040300 23361210
756.93 21159570 18190670 16460910 14047770 12908220 11051930
759.82 10337480 8932184 8373380 7165794 7200210 6153320
762.71 5849328 4895732 5150022 4497680 4522878 3831618
765.61 4160016 3661044 3898740 3330512 3605622 3176766
768.50 3645256 3403600 3873170 3555566 3784756 3227126
771.39 3800978 3903164 4226952 3844362 4229266 4071812
774.28 4781208 4577972 4757172 4661922 5129970 4755936
777.18 5072326 4999346 5341154 4978348 5291776 4931112
780.07 4914430 4159652 4307908 3944980 4223498 3659030
782.96 3376218 3259746 4175466 4806198 6962950 8153114
785.86 5968010 2947540 2548772 2409564 2881176 2662666
788.75 3106812 3144254 3637916 3572452 3927590 3842836
791.64 4274794 4131656 4296032 3729456 3613330 3288460
794.53 3573304 3318340 3367302 2680844 2518522 2226870
797.43 2281360 1873000 1992600 1614886 1823022 1459084
800.32 1320084 951930 1187098 1124042 1271952 887542
803.21 1218912 1135964 1259024 910404 1069212 837918
806.10 997294 867916 1157448 976794 1079530 841662
809.00 916166 765154 1098942 813904 1196300 1219560
811.89 1227960 933486 1143506 922772 786066 590642
814.78 840306 814960 962458 604818 780412 707130
817.68 926322 652722 708008 555840 686996 681892
820.57 1029512 770608 855442 931636 1151450 594266
823.46 643752 614480 855506 915912 1118332 1068766
826.35 1248494 789142 854838 867824 1020146 808220
829.25 909154 614726 711286 701348 859922 592510
832.14 717832 716766 871606 736088 995336 930078
835.03 1101588 870956 854758 707282 740016 624222
837.92 789858 626032 1021286 1041412 984502 629898
840.82 855432 706948 791082 821846 1026236 864914
843.71 871598 728972 1085592 962088 918992 945548
846.60 1265280 1007244 1123002 1278782 1563892 1382264
849.50 1564546 1429118 1507986 1377126 1603518 1677218
852.39 1706534 1437858 1473944 1498094 1779938 1671184
855.28 1831106 1783454 2075778 1937740 1974608 2015938
858.17 2230878 2053996 2252806 2255542 2398556 2293796
861.07 2437310 2248424 2262824 2103008 2224960 2322302
863.96 2577388 2485196 2537196 2422836 2615934 2538432
866.85 2695820 2722794 3049018 3005032 3024066 2893686
869.74 3095760 3108148 3359986 3430652 3572374 3571590
872.64 4180278 4863108 5227610 4569114 4205678 4004404
875.53 4196862 4213826 4503920 4635426 4836168 4846792
878.42 5058512 5060016 5316610 5314490 5574154 5611916
881.31 5769226 5676826 5933108 6040426 6276844 6206700
884.21 6379538 6387620 6576466 6376060 6510690 6608392
887.10 6885744 6848466 7059366 7089582 7246088 7176422
889.99 7467472 7901448 8684226 9508158 11118860 13102250
892.89 16342710 21276500 27187080 25095910 15110590 9380488
895.78 8085958 7481438 7463896 7529208 7840898 7769308
898.67 7468942 7091886 7086580 6965708 6952092 6797166
901.56 7049462 7146990 7190520 7089054 7048600 7013596
904.46 7190006 7231336 7416832 7311836 7332844 7126302
907.35 6975444 6770422 6723272 6661502 6641104 6379010
910.24 6402070 6326978 6207056 6093700 6263524 6246980
913.13 6260272 6292724 6505838 6580222 6817844 6702198
916.03 6697772 6677822 6793774 6916386 7047242 6880930
918.92 6861256 6847686 6926372 6962576 7038318 6980120
921.81 7329910 7736260 8407712 9578932 10158830 9655214
924.71 8916438 8071232 7927548 7910280 8218604 8362656
927.60 8638658 8810212 9097498 9077552 9083996 8966048
930.49 9023284 8933858 8997562 9053018 9126726 9034424
933.38 9060302 8686506 8277728 7605300 7280672 7096846
936.28 7139826 6898900 6779584 6588540 6544752 6413520
939.17 6472714 6281638 6288034 6198456 6147018 5936514
942.06 5869080 5627526 5446542 5181636 5048602 4924758
944.95 4917934 4780176 4590744 4362380 4385340 4231974
947.85 4143968 4027642 4084204 3942838 3944810 3828112
950.74 3912168 3981716 4087736 3907264 3999178 4045014
953.63 4217930 4322384 4457436 4436588 4522760 4503416
956.53 4574420 4549176 4694690 4849576 5037354 5135974
959.42 5233026 5222760 5278458 5167446 5358396 5493658
962.31 5646934 5810210 5948876 5737488 5665814 5715468
965.20 6020314 6050470 6009424 5952902 6126808 6190488
968.10 6525456 7126408 7918108 8321246 7873478 7141170
970.99 7050392 7271960 7678402 7445954 7031726 6789738
973.88 6738712 6653574 6735510 6771534 6768836 6525528
976.77 6553006 6726890 6815856 6727898 6659634 6632356
979.67 7097478 6952662 6592106 6369826 6173504 5816654
982.56 5714284 5601614 5429438 5272374 5317806 5267918
985.45 5297144 5143352 5139742 5119074 5094352 4978168
988.35 4974472 4965258 5047944 4865274 4771334 4617620
991.24 4568542 4439988 4443784 4429268 4561656 4580418
994.13 4567036 4514946 4519612 4404110 4366678 4307884
997.02 4256398 4178118 4146182 4069608 4039606 3890944
999.92 3926658 3987006 4081566 4132922 4124158 4050578
1002.81 4129848 4108888 4121036 3958046 3820366 3747434
1005.70 3928010 4112194 4348310 4497360 4617646 4607904
1008.59 4627794 4665566 4829606 4943464 5183618 5512462
1011.49 5817892 6114976 6435498 6805112 7359390 8148164
1014.38 8956648 9812534 10959780 12279110 13724520 15326130
1017.27 17194450 19283350 21574150 24142700 26874360 29893980
1020.17 32951920 36185100 39494120 42727410 45700270 48950220
1023.06 52014780 53567780 54053910 54919080 55622260 55242220
1025.95 52705650 49956290 47169560 44559660 41654160 39299250
1028.84 38242900 42164970 46803870 51177420 73191240 111346700
1031.74 101273700 57562540 37428230 32625990 34385290 37381970
1034.63 41817010 45746420 50155350 53628290 56845020 58811580
1037.52 60425540 60687890 60568330 59469310 58188560 56298480
1040.41 54443400 52508740 51369880 50899310 50990630 49956510
1043.31 50986580 49907940 45238900 41217780 39422000 36900060
1046.20 35145100 35610470 34464970 30275630 27564810 27188930
1049.09 26935120 26201850 25706740 25432160 25994010 27123850
1051.99 27447960 26322250 26413010 27168120 28474290 29665420
1054.88 30900310 30995220 30182880 29164640 28354580 27780000
1057.77 27840740 28116660 28505520 28586350 28880000 29018760
1060.66 29249210 29431650 29850630 29977480 30281270 30599880
1063.56 31129440 31553660 32205760 32793300 33573700 34249500
1066.45 35195330 36030120 37061580 38127240 39294890 40427770
1069.34 41610590 42703120 44332120 45693550 46936740 48382840
1072.23 50188500 51690700 53228800 54891710 56320770 56754100
1075.13 56882080 57440820 59420040 60578060 59519060 57293680
1078.02 54906790 51759930 47857150 43391520 39492040 36550940
1080.91 34984840 34582660 35837330 37987290 40686960 43566810
1083.81 46378420 48641680 50721570 52182150 53100650 53622320
1086.70 54074030 53820570 53091670 52120250 51495290 50558640
1089.59 49396550 48207430 47207030 45921580 44781370 43619260
1092.48 42351140 40925400 39916780 38912590 38001860 37173850
1095.38 36688970 36026820 35369860 34655640 33985760 33292030
1098.27 32430850 30985590 29512910 27917230 26393620 24622920
1101.16 22825520 20741250 18973290 17648450 17024940 16771130
1104.05 16998860 17381500 18026180 18745460 19622610 20165590
1106.95 20560920 20728900 20887550 20818770 20682280 20238200
1109.84 19928030 19564090 19180260 18801750 18525910 17788330
1112.73 16938370 16157230 15500290 14800600 14206400 13545350
1115.63 13011550 12355560 11860080 11234460 10703590 10071470
1118.52 9583710 9052472 8769136 8405044 8053388 7687232
1121.41 7451034 7130434 6878642 6528116 6233864 5854012
1124.30 5662284 5421790 5323450 5150366 4968254 4713168
1127.20 4622566 4430262 4393818 4332322 4397600 4386236
1130.09 4416380 4245678 4216346 4151176 4105530 3925654
1132.98 3873004 3825104 3869168 3826000 3814696 3680534
1135.87 3681466 3686592 3723108 3702796 3701512 3560954
1138.77 3500374 3416262 3424070 3293420 3286032 3214816
1141.66 3352204 3387234 3440538 3414420 3469588 3421172
1144.55 3469406 3519892 3633384 3592332 3698290 3660978
1147.45 3793630 3854454 3887626 3886438 3953682 3943242
1150.34 4126340 4091964 4079874 4120184 4268026 4238814
1153.23 4244132 4152764 4198824 4226030 4324084 4400680
1156.12 4645762 4713902 4847096 4953364 4999904 4943530
1159.02 5041854 5076306 5129810 5106332 5156214 5116910
1161.91 5159170 5150368 5236472 5129672 5105894 5269444
1164.80 5548214 5603124 5637066 5496058 5376668 5241766
1167.69 5343768 5534214 5868832 6061670 6275652 6398014
1170.59 6591912 6585912 6561326 6504600 6474910 6347408
1173.48 6236648 5970498 5835862 5664380 5473248 5336892
1176.37 5438050 5593866 5757344 5981122 6430594 6772932
1179.26 6151734 5357318 5200254 5068044 5054986 5026502
1182.16 5212908 5302944 5535534 5722320 5895696 5873884
1185.05 6065326 6083120 6062368 5974102 5980790 5744712
1187.94 5594770 5446512 5295428 5071406 4943056 4763006
1190.84 4763864 4775590 5004964 5398710 5831186 5434158
1193.73 5034452 4868048 4888876 4974326 5186338 5330772
1196.62 5693932 6117436 6571642 6876188 7275818 7695190
1199.51 8175258 8580610 8941510 9156734 9481616 9713458
1202.41 9969418 10046830 10171330 10248550 10298170 10183700
1205.30 10115600 9952526 9839522 9549850 9327442 9224898
1208.19 9296566 9301204 9518716 9980584 10683970 11057730
1211.08 11473300 12457190 13636760 13309960 11092570 8975256
1213.98 8446962 8705796 9286014 9850474 10385300 10859690
1216.87 11289650 11533320 11697050 11603700 11477780 11144150
1219.76 10754130 10253720 9691260 9040290 8555816 7985630
1222.66 7447346 6881708 6485348 6052956 5735042 5286518
1225.55 5037492 4925896 4902740 4699540 4683096 4639132
1228.44 4714854 4743422 4838464 4992372 5346654 5527756
1231.33 5764766 5888788 6011580 6078598 6160994 6214960
1234.23 6355730 6330260 6255670 6214954 6280208 6210808
1237.12 6162826 5979894 5917524 5897802 6126176 6312920
1240.01 6710856 7338650 8354086 8451060 7010500 6016632
1242.90 6081820 6254456 6295250 6328696 6451320 6593368
1245.80 7010468 7447864 7712558 7377020 7074588 6902522
1248.69 6747542 6505908 6340610 6118946 5902946 5624266
1251.58 5357578 5066456 4908916 4632078 4426190 4175174
1254.48 4025606 3828894 3684412 3456850 3383940 3369510
1257.37 3374444 3245588 3173444 3036568 2953550 2744894
1260.26 2629420 2526376 2510058 2425232 2415270 2381366
1263.15 2393992 2277446 2161280 2038572 2063634 2031806
1266.05 2067860 1997044 1903940 1804120 1727706 1668826
1268.94 1721850 1690422 1722050 1642536 1722514 1762180
1271.83 1818872 1742798 1748180 1661470 1639636 1680928
1274.72 1721488 1722538 1797194 1762738 1820176 1861488
1277.62 1918970 1887900 1891362 1841390 1917280 1930100
1280.51 1985818 1987362 2074088 2055124 2112482 2143754
1283.40 2240802 2366658 2512928 2496378 2543210 2538368
1286.30 2649214 2706756 2791838 2813026 2845250 2941362
1289.19 3048108 3067926 3189686 3211590 3241668 3204406
1292.08 3243326 3304340 3440224 3394390 3391090 3422304
1294.97 3474778 3475422 3613376 3739980 3906822 4063008
1297.87 4307192 4428908 4615806 4811790 5087142 5238128
1300.76 5394536 5584686 5796540 5817942 5862884 5911244
1303.65 6065700 6081960 6053628 5996482 5955020 5782512
1306.54 5612348 5326568 5099976 4860766 4698284 4580038
1309.44 4490432 4442774 4540224 4701244 4960842 5156090
1312.33 5457350 5743096 5910246 6006644 6151882 6151328
1315.22 6147854 6123208 6191784 6133014 6044896 5870180
1318.12 5792438 5659842 5608260 5540830 5387532 5249614
1321.01 5221854 5082010 4930382 4872576 5021958 4995410
1323.90 4941826 4876116 4833924 4729352 4589544 4358890
1326.79 4231494 4142536 4172298 4162480 4162288 4068638
1329.69 4030314 3953224 3996858 3997744 4142264 4290030
1332.58 4321880 4291454 4345846 4275844 4162122 4030732
1335.47 4088528 4107850 4175752 4219840 4320828 4318390
1338.36 4364842 4391278 4461952 4488018 4659906 4711498
1341.26 4761200 4830164 4893262 4985436 5105014 5146592
1344.15 5195504 5226812 5322164 5362926 5527414 5646282
1347.04 5808782 5961552 6125578 6235860 6393490 6441352
1349.94 6598966 6715036 6870244 6979730 7103410 7215822
1352.83 7408626 7577228 7784704 8064244 8445114 8924958
1355.72 9304432 9082276 8750330 8507070 8570486 8798968
1358.61 9049522 9242122 9486246 9677784 9821582 10165800
1361.51 10600500 10828480 11100180 11411860 11681630 11839170
1364.40 12130220 12454430 12852280 13247110 13729060 14290920
1367.29 14957470 15509220 16036660 16516490 16941740 17542860
1370.18 18424040 19081140 19697050 20357370 21051480 21884250
1373.08 22639090 23226310 23899970 24491280 25301110 25976120
1375.97 26676220 27350080 27886630 28085630 28160990 28135470
1378.86 28250480 28524890 28875340 29553930 30600120 31716570
1381.76 33349440 36807700 42771780 47453960 44774260 38205560
1384.65 34880680 34095060 34053930 34568580 35723180 36944300
1387.54 38453880 39537960 40076530 40267110 40472710 40140210
1390.43 39389000 38350500 37211560 35671140 33957900 32324730
1393.33 30820790 29105520 27742340 26636940 25469300 24361290
1396.22 23275410 22031230 20934250 20130010 19565160 18917700
1399.11 18557280 18213050 17933410 17643030 17430100 17273530
1402.00 17391620 17767920 18113140 18296270 18360720 18303570
1404.90 18476760 18817290 19600270 21142930 21404400 19502110
1407.79 18028380 17447980 17459490 17481270 17486920 17588650
1410.68 17959330 18352930 18800920 19165420 19549670 19930380
1413.58 20353530 20608600 20915630 21356010 21966030 23017860
1416.47 24259880 24943670 25189880 25371680 26107180 26886670
1419.36 27973770 29621000 31692690 32855450 31805550 30063640
1422.25 28320020 26321770 24602450 23955500 23944420 23515290
1425.15 23002130 22518220 22415470 22571510 22847820 23065220
1428.04 23509300 24127280 24817660 25188510 25856990 26598330
1430.93 26992480 27390470 28155560 28958820 29435140 29692000
1433.82 30001300 30178710 30418950 30799450 31229340 31827420
1436.72 33251640 34880980 36559820 38279060 39894160 41421700
1439.61 43569680 46568160 48589070 48540500 48177720 48806440
1442.50 50201310 51667700 53236890 54930220 56528460 58070150
1445.40 59818430 61410140 62991830 64495640 66024000 68098670
1448.29 70249060 71773600 72518290 73082250 73778180 73821550
1451.18 73307740 72658210 71933580 70674480 69539590 69524990
1454.07 69891360 70379250 71567550 72011300 71393540 71308720
1456.97 73754790 75733450 75644980 75254950 75437300 76573210
1459.86 78026990 79200180 80013430 80512400 81337510 84036210
1462.75 87514940 85034100 78392150 73767210 71392130 70202230
1465.64 68929960 68265130 68875270 69423510 69606700 70714720
1468.54 72423080 74634320 77182170 79328620 80392090 80218310
1471.43 79259890 78798340 77968990 75486420 73168520 72008700
1474.32 70990570 69807780 68477870 67280740 66838520 67255400
1477.21 67003520 65417640 63924830 63198160 62973580 63168230
1480.11 64186010 65847040 68098890 71014660 74730940 79128970
1483.00 83558540 88258710 94367790 102514700 112580800 121967100
1485.89 128262400 134366600 141624400 149631900 157954400 166958900
1488.79 175855800 184537900 192981300 201253400 209068600 215389900
1491.68 218384800 218696500 217853900 215958900 212355100 207240300
1494.57 201089500 196459800 194609400 198126200 206102800 213356100
1497.46 215999000 214646800 218046300 243124500 289836600 315582800
1500.36 265300600 202858900 176876000 171810400 177524700 188025300
1503.25 200279700 209897300 217490300 223035100 227482800 230473200
1506.14 230399200 227088000 222345600 215397900 206573000 196087200
1509.03 184060100 171011400 158663600 146475500 134973100 124182700
1511.93 114496200 105791200 97788140 90529460 84366910 78831790
1514.82 74564490 71646390 69634790 67610310 65315610 63185940
1517.71 60996510 57652910 53987420 50837960 48316520 46132530
1520.61 44023100 42998940 43127540 43110840 44244260 46083860
1523.50 48889650 51637700 52481700 50030920 48265010 48741720
1526.39 48310360 46023100 44230120 43560240 43453920 43544500
1529.28 43792430 43853320 43769040 43390020 42750360 42083210
1532.18 41426420 40645780 40184910 40739450 42349400 42763790
1535.07 41276970 39546020 39238240 39324340 38090350 35664420
1537.96 33914400 32364600 32145100 31967950 31262570 31281250
1540.85 31101500 30377070 30160370 30423730 30115250 29409830
1543.75 28676730 27777360 26900070 26309040 25492750 24646230
1546.64 23940250 23258140 22765090 22435090 22184640 21876450
1549.53 21789210 22064880 22555540 22539480 22022680 21581870
1552.43 21484460 21448250 21323260 21257290 22068430 22818300
1555.32 23330910 23636350 23889540 23791460 23962140 23886960
1558.21 24009910 24828270 24672010 24185380 24704410 25335040
1561.10 25288590 24992190 24523680 24031440 23585220 23211270
1564.00 22447630 21441690 20580340 19920490 19471230 19175100
1566.89 19077450 19235940 19467150 19927260 20636640 21506140
1569.78 22833210 24047950 24865540 25587050 26272600 26620510
1572.67 26451500 26248980 26003660 25726790 25449530 24802110
1575.57 23669460 23844460 24432170 24238010 23946540 23617610
1578.46 23268380 22860250 22436920 21997690 21475510 20941720
1581.35 20412840 19910200 19540220 19215990 18980180 19057670
1584.25 19454550 20084290 20812290 21964120 23657300 25175880
1587.14 24587270 21912990 20798910 21477850 22632810 24012010
1590.03 25600540 27430680 29374020 31443070 33569770 35812390
1592.92 38182290 40878430 43705930 46711040 49642700 52774900
1595.82 56069250 59613190 63250610 67098180 70884160 74476760
1598.71 77796980 81188380 84655600 87383320 88335630 88810750
1601.60 89641610 90470470 90334580 90032790 90052180 90828900
1604.49 91844310 94565180 98152280 101643100 103909600 104216100
1607.39 103268200 110585500 132608900 155816400 140682000 109507000
1610.28 98983620 98370870 101075800 104061500 107443000 110368800
1613.17 113058700 114271400 114569700 114283300 112844300 108305800
1616.07 102700300 99061130 96100320 90891710 86558420 85364680
1618.96 88962930 95875170 93439720 79020900 68004250 63896400
1621.85 61987190 58377170 55627410 54183510 53095760 51797750
1624.74 50591310 49035930 47596750 45868700 44058750 41906990
1627.64 39848760 37553170 35112400 32430730 29856910 27308440
1630.53 24933030 22561250 20412860 18191190 16277410 14511780
1633.42 13002610 11417590 9995498 8416956 7557192 7436136
1636.31 7017454 6357452 5951158 5703896 5539338 5203304
1639.21 4918622 4661738 4503864 4333186 4322512 4201542
1642.10 4143602 4043378 3965084 3873134 3935840 3905660
1644.99 3546552 3083120 3577884 3838380 3671584 3607486
1647.89 3678930 3776844 3868824 3853794 3816254 3874258
1650.78 3996988 3684002 2707080 2282504 2156156 2609068
1653.67 3053322 2892936 3187102 3205814 3127994 2998586
1656.56 3105808 3125518 3331718 3480220 3664022 3807440
1659.46 4059838 4129282 4226034 4260376 4325488 4148118
1662.35 4000334 4203240 4421044 4333008 4351086 4312338
1665.24 4318642 4312670 4427392 4378264 4381626 4194240
1668.13 4091500 3626966 3552160 3888512 3972582 3779822
1671.03 3650464 3629628 3679088 3600114 3727792 3750126
1673.92 3486176 3073570 3154552 3577000 3818174 3834394
1676.81 3887924 3827480 3840748 3887142 4001502 4034132
1679.71 4131334 4180938 4268754 4243688 4228568 4077902
1682.60 3819402 3693296 3532994 2641100 2483860 3543934
1685.49 3894862 3772530 3593710 3446412 3302940 3182716
1688.38 3182712 3201752 3105820 3011376 3067214 3101896
1691.28 3187456 3215326 3256832 3349184 3516708 3610798
1694.17 3559014 3242560 2430068 2461512 3736230 4333712
1697.06 4683820 4889816 4504668 3883024 3195984 2337652
1699.95 2235400 2565742 3184512 3447804 3545356 3483142
1702.85 3521328 3447208 3297948 3380584 3649530 3624234
1705.74 3470738 3532888 3853936 3903730 3881246 3834354
1708.63 3881354 3950856 4011902 4029510 4236740 4381808
1711.53 4550854 4630822 4775832 4808480 4834096 4915514
1714.42 4930350 5077392 5634474 5857024 5719826 5186462
1717.31 5869578 6526786 6837168 7420918 7903516 8199976
1720.20 8561552 8910470 9325922 9717292 10100590 10411830
1723.10 10812830 11213400 11550030 11782410 12033230 12218850
1725.99 12309820 12163730 12023190 11901630 11712050 11322500
1728.88 10840340 10219800 9709136 9248526 8688754 8175976
1731.77 7922948 7657286 7315332 7750978 8410512 8964140
1734.67 10470210 11636500 12440020 12730990 12814170 12699990
1737.56 12502550 12188150 11781140 10923350 10332000 10174810
1740.45 9971338 9562880 9107102 8595242 8058540 7608360
1743.34 7264528 6842914 6496392 6079178 5763468 5440994
1746.24 5112488 4821236 4691756 4348418 4022318 3862990
1749.13 3760386 3543994 3270554 2731472 2611338 2862002
1752.02 2900860 2774036 2709158 2652606 2696356 2691972
1754.92 2706728 2669982 2527424 2381092 2641756 2752050
1757.81 2837198 2956394 3155538 3299208 3407664 3442178
1760.70 3395272 3142438 3276296 3602322 3878068 4043010
1763.59 4188950 4370254 4633658 4824584 4902096 4966506
1766.49 5129358 5140930 5038092 5232488 5696656 5800138
1769.38 5904200 6018382 6132394 6220004 6598198 6685402
1772.27 6865638 7618674 7957658 7825892 7906774 7923238
1775.16 7945152 8080454 8337478 8526032 8898266 9306986
1778.06 9775656 10316880 10967940 11214450 11048460 10930520
1780.95 11060770 11274750 11664440 12045850 12550970 12986140
1783.84 13369120 13609760 14182300 14903300 15706630 16583490
1786.74 17427060 18026570 18669760 19444400 20494300 21651180
1789.63 22869230 23892080 24663220 25263780 25745360 25776410
1792.52 26174740 26574820 26667860 26652300 26732610 26713190
1795.41 26611820 26030590 24713640 23140950 21823080 21038860
1798.31 21690430 24304440 30119700 39383510 45319070 37058960
1801.20 23481020 18072920 17871950 18917640 20067070 21349460
1804.09 22747630 24075170 25200080 26198140 26856600 27149720
1806.98 27131820 26929420 26572710 25915500 24923780 23539050
1809.88 21910320 20350460 18958550 17595840 16251880 15012190
1812.77 13965680 12899710 11868930 11012100 10246480 9448208
1815.66 8768076 8184684 7637622 7184282 6910712 6786006
1818.56 6831342 6964374 7305438 7648472 7840594 7995290
1821.45 8107424 8104350 8104806 8004922 7872614 7706164
1824.34 7447200 7230250 7296966 7198034 7018526 6884626
1827.23 6777264 6581174 6429596 6306538 6221864 6039524
1830.13 6104392 6214836 6326672 6351810 6381130 6460058
1833.02 6579356 6645980 6726416 6802634 6921746 7073996
1835.91 7332454 7571844 7887638 8185602 8564932 8997656
1838.80 9434848 9837044 10295220 10788890 11305950 11801560
1841.70 12415180 13066490 13734550 14274420 14694750 15667510
1844.59 16867310 17776880 18559610 19190470 19909280 20547850
1847.48 21131200 21723760 22246260 22659840 22913550 22945170
1850.38 22945380 22669890 22185160 21543670 20777040 19876560
1853.27 19003250 18094290 17118530 16256380 15843320 15927710
1856.16 16618540 17914950 19847400 22270150 25011950 27421160
1859.05 29227210 30589550 31591210 32138550 32425130 32573590
1861.95 32562360 32152110 31587280 31099980 30664940 30000390
1864.84 29115680 28161990 27220520 26226220 25343880 24390840
1867.73 23457820 22603270 21314480 20416190 20271290 20463510
1870.62 21105680 22104250 23275720 22783330 19661530 16448470
1873.52 14887540 14414990 14592640 14970510 15446320 15923230
1876.41 16298660 16575450 16747030 16684390 16456530 16012410
1879.30 15452230 14751430 13918560 12988490 12074950 11120960
1882.20 10141620 9205100 8403814 7609742 6919770 6293318
1885.09 5769282 5346966 4982262 4652574 4369920 4088166
1887.98 3870730 3668480 3480964 3418742 3474472 3417722
1890.87 3349294 3268238 3236604 3106720 3065838 3024900
1893.77 3006378 2986406 2978004 2955766 2963268 2941172
1896.66 3028258 3051360 3036752 2949526 2854104 2697150
1899.55 2628806 2593446 2604032 2600110 2637764 2709382
1902.44 2827244 2797166 2635878 2467410 2390370 2324146
1905.34 2390318 2445230 2529708 2575730 2603912 2593490
1908.23 2659696 2705120 2722392 2786644 2908252 2997022
1911.12 3042634 3105906 3239680 3315656 3410756 3512284
1914.02 3650740 3767440 3909832 4074652 4282008 4455518
1916.91 4620282 4666890 4946974 5331062 5626084 5878846
1919.80 6205070 6525176 6916016 7303748 7647874 8066454
1922.69 8616286 9234060 9845894 10459570 11225950 12056970
1925.59 12831120 13289880 13748950 14442400 15314060 16195460
1928.48 17160920 18154870 19229180 20252580 21305080 22393760
1931.37 23426080 24370480 25175260 25807050 26445700 26920780
1934.26 27197680 27283970 27280860 27137820 26796130 26271550
1937.16 25681420 25059020 24318460 23412780 22508530 21693690
1940.05 21115670 20850540 21022570 21627630 22814300 24620510
1942.94 26952880 29472070 31759990 33523130 34834170 35668080
1945.84 36244170 36602310 36657380 36320120 35762040 35131740
1948.73 34418240 33646080 32840160 31848140 30906650 29923020
1951.62 29118740 28326960 27232320 25790560 24546940 23657570
1954.51 22895050 21877990 20747260 19804770 19565470 20250860
1957.41 21696810 22726260 21281210 18015670 15333490 13846420
1960.30 13271770 13215100 13474780 13706720 13931580 14113350
1963.19 14207860 14182760 14063060 13715490 13224100 12594580
1966.08 11916510 11121500 10262560 9427738 8652074 7862802
1968.98 7129360 6412140 5767566 5178002 4664670 4175692
1971.87 3782384 3383766 3082680 2800668 2577602 2448424
1974.76 2357164 2200532 2107566 2006378 1934898 1846432
1977.66 1830620 1871192 1925012 1913190 1968506 2048632
1980.55 2160486 2284190 2438914 2551804 2787236 3082896
1983.44 3388164 3393538 2985558 2551198 2436728 2458596
1986.33 2525140 2529354 2547968 2554528 2632554 2686518
1989.23 2813732 2937768 3009882 2985792 2903102 2914542
1992.12 3005542 2926198 2822820 2806260 2927096 3027192
1995.01 3033134 2797654 2572672 2466558 2540268 2646300
1997.90 2746756 2764286 2797308 2792450 2795738 2839246
2000.80 2885484 2842300 2845376 2822460 2772542 2648342
2003.69 2534434 2456042 2401152 2307102 2239556 2138476
2006.58 2118184 2058086 2014410 1976288 1993804 1909252
2009.48 1931698 2059836 2207996 2174706 2017314 1836004
2012.37 1760398 1757756 1715926 1629082 1604812 1526936
2015.26 1530206 1513440 1525284 1566676 1568036 1516896
2018.15 1550972 1526574 1469154 1402970 1368820 1310810
2021.05 1275726 1227578 1253438 1272010 1286832 1271822
2023.94 1287558 1244904 1180952 1133634 1098038 996016
2026.83 951048 902526 871802 894050 874058 803756
2029.72 791146 751518 737552 722110 739162 684336
2032.62 651616 608042 614736 584242 550476 540082
2035.51 523970 492920 479900 349284 297540 312284
2038.40 388322 379022 415884 370476 305784 255218
2041.29 266818 258778 307270 329912 327656 305954
2044.19 267524 206460 205604 239562 288322 282548
2047.08 236184 242152 228476 173930 181248 162832
2049.97 198724 198174 161674 179334 238990 192666
2052.87 234914 255360 268664 260288 339668 366578
2055.76 341886 326392 319932 281472 321916 343714
2058.65 334336 338300 366638 313060 307612 245046
2061.54 190604 156090 126388 132736 257550 415294
2064.44 477974 485800 534628 485114 469040 513218
2067.33 517008 511950 551974 490996 448242 386266
2070.22 358102 391912 492534 511732 464466 434282
2073.11 466500 443234 453264 474804 485472 446772
2076.01 467552 484844 551278 561270 562226 587718
2078.90 679400 679552 611268 502656 488346 549404
2081.79 511000 447508 467958 392698 377176 361992
2084.69 385536 394150 375752 389286 418590 405696
2087.58 379552 406094 496218 454058 438370 434588
2090.47 459710 453750 490822 504354 423290 377460
2093.36 372128 330510 402598 430322 383898 355922
2096.26 393738 416290 446514 425778 479038 527530
2099.15 514100 424994 393072 387612 410360 451464
2102.04 456478 412346 417796 439398 494920 496758
2104.93 486422 479132 447806 374836 430752 501938
2107.83 552224 516378 468124 495778 482380 452326
2110.72 560984 650688 645540 628574 635834 574418
2113.61 523452 512770 577756 589648 542560 539316
2116.51 547416 536956 531936 537278 535276 521908
2119.40 567416 604196 648000 681962 684934 652198
2122.29 645206 646920 690268 625302 604076 629998
2125.18 680938 692010 653446 620076 686190 706166
2128.08 715606 619204 605298 651392 673726 593380
2130.97 577288 574552 588292 626262 672728 733464
2133.86 713990 658764 688404 648054 575118 555920
2136.75 576992 521026 462010 446620 502936 486600
2139.65 482168 464594 462406 418674 441202 446596
2142.54 455366 446398 475102 467662 501004 535926
2145.43 524396 493336 541022 581198 576910 558470
2148.33 578674 551544 591648 645798 679522 658830
2151.22 702308 748512 827604 856918 971116 1046944
2154.11 1111002 1136926 1151224 1222830 1369116 1438136
2157.00 1520134 1643788 1716764 1778992 1871764 1870280
2159.90 1887096 1958872 2082882 2188178 2191496 2181450
2162.79 2235952 2242362 2244896 2247236 2298346 2322908
2165.68 2275256 2323870 2544626 2848322 3139800 3132582
2168.57 2823896 2498240 2307038 2266506 2378464 2509822
2171.47 2625162 2697144 2847836 2936972 2984076 3009964
2174.36 2992588 3037264 3135920 3036968 2897592 2793962
2177.25 2782822 2761224 2626014 2474376 2352192 2242978
2180.15 2143294 2098576 2025346 1905204 1912406 1901210
2183.04 1787770 1657694 1621398 1531920 1433516 1404798
2185.93 1428020 1405152 1378432 1358332 1393998 1422182
2188.82 1408892 1402158 1447348 1501616 1606982 1672582
2191.72 1728356 1669736 1551314 1508062 1545934 1511394
2194.61 1406714 1402184 1441122 1422282 1358650 1270918
2197.50 1272192 1277832 1291988 1285768 1274660 1204698
2200.39 1140204 1157008 1163258 1111068 1098140 1147960
2203.29 1200556 1154088 1075908 1082858 1060498 1006564
2206.18 1057284 1072676 1049214 1075920 1154248 1196788
2209.07 1221346 1175308 1077948 1014948 1036514 994564
2211.97 971356 1009530 1085160 1037120 1039136 1112300
2214.86 1172020 1139796 1121946 1145304 1173254 1172756
2217.75 1166704 1100618 1024274 984342 987454 963926
2220.64 1012860 1014970 1021746 1084776 1147448 1115930
2223.54 1015328 938508 946632 981558 1026044 989476
2226.43 996234 1010516 999378 984282 1003742 1008736
2229.32 1053408 1118382 1134610 1080218 1083362 1055982
2232.21 1032244 987236 1002286 996228 1000938 1033076
2235.11 1047026 1073848 1161684 1217434 1268346 1193162
2238.00 1083602 1068184 1098008 1191046 1260684 1259930
2240.89 1301324 1318524 1367630 1453676 1465356 1430948
2243.79 1520730 1571064 1612256 1605390 1658742 1711958
2246.68 1682266 1655886 1734882 1842346 1993970 1994620
2249.57 1992118 2018742 2041634 2046744 2063956 2124710
2252.46 2195124 2197462 2184572 2196452 2249538 2306448
2255.36 2342744 2323968 2361208 2341932 2311744 2261238
2258.25 2210078 2207638 2232204 2222204 2171978 2144768
2261.14 2228614 2265416 2275140 2284132 2305978 2305522
2264.03 2416330 2484012 2507244 2535928 2590400 2617498
2266.93 2621286 2596608 2637152 2681420 2774078 2833356
2269.82 2791658 2738698 2756268 2791226 2793934 2786768
2272.71 2740744 2742896 2853418 2964556 3050252 3075662
2275.61 3051432 3086186 3143742 3178186 3199220 3178860
2278.50 3174742 3140046 3111106 3058516 3023186 2987002
2281.39 2959198 2924672 2866760 2809312 2883310 2961676
2284.28 3032354 3017146 2944140 2903328 2882946 2871252
2287.18 2909262 2963974 2999186 3045394 3072642 3083220
2290.07 3078838 3084626 3095496 3100682 3070246 2947190
2292.96 2811982 2706484 2720576 2765842 2809848 2818574
2295.85 2823668 2815768 2809320 2837692 2833830 2845396
2298.75 2920664 2984160 3010996 3069072 3190302 3265306
2301.64 3284708 3344704 3441092 3585518 3732606 3845552
2304.53 3889468 3901270 3971424 3983312 3970356 3905606
2307.43 3797940 3730310 3671676 3617670 3550396 3513090
2310.32 3589498 3647726 3746500 3862432 4022278 4609084
2313.21 5018882 4584478 4301834 4191544 4094120 3996634
2316.10 3945050 4019804 4130358 4175056 4312246 4593496
2319.00 4742730 4699992 4621600 4674190 4698448 4616814
2321.89 4600700 4714052 4695760 4435858 4390036 4494484
2324.78 4368682 4141690 4164204 4295584 4285666 4107318
2327.67 4201216 4449450 4414948 4261208 4436594 4619944
2330.57 4418834 4238228 4410396 4431056 4130970 4026342
2333.46 4214072 4109146 3830094 3861716 4028082 3910502
2336.35 3843704 4112454 4291732 4101626 4083070 4376492
2339.24 4481760 4395968 4613684 4751892 4671662 4787346
2342.14 5056332 5004672 4981096 5119134 5124210 4985700
2345.03 4942408 4938320 4827374 4681104 4634614 4505820
2347.92 4401238 4405534 4428982 4376220 4329062 4343086
2350.82 4517504 4552962 4499302 4649268 4733960 4637086
2353.71 4739906 4810536 4780986 4992504 5075776 4934236
2356.60 5113632 5091660 4905388 5029028 4944536 4706320
2359.49 4794124 4591710 4378378 4381880 3977508 3814046
2362.39 3792148 3373334 3394838 3424732 3352132 3614582
2365.28 3622418 3764010 4064712 4116246 4337886 4359052
2368.17 4330676 4300854 4091744 4079634 3964716 3837650
2371.06 3755772 3563234 3533956 3406558 3300584 3062908
2373.96 2904388 2828406 2667282 2617596 2590492 2571454
2376.85 2593064 2589760 2497516 2454288 2441896 2446072
2379.74 2508330 2510778 2536500 2555294 2558794 2581176
2382.64 2571406 2475576 2461142 2474850 2508712 2497720
2385.53 2526998 2436372 2395328 2412080 2443482 2475956
2388.42 2562090 2607360 2603028 2684976 2731968 2720072
2391.31 2730880 2665840 2613096 2612588 2619446 2658504
2394.21 2725100 2758676 2825784 2843542 2817106 2791964
2397.10 2821296 2832764 2794884 2836558 2895504 2923184
2399.99 3045466 3207196 3279072 3182716 3086306 3104794
2402.88 3223444 3270540 3246842 3307554 3412570 3462670
2405.78 3482580 3501782 3588768 3618864 3609228 3624914
2408.67 3653558 3648312 3609046 3601166 3601244 3617986
2411.56 3743824 3880144 4074160 4261210 4272304 4066900
2414.46 3930696 3898292 3987252 4082954 4206684 4291640
2417.35 4357024 4341804 4335740 4334246 4350916 4352532
2420.24 4322158 4446902 4607634 4678276 4644300 4488116
2423.13 4325622 4155376 4010670 3956062 3902296 3827206
2426.03 3762348 3749138 3692072 3610568 3584412 3483734
2428.92 3437900 3400134 3424626 3454094 3224762 2961226
2431.81 2841176 2780472 2760824 2744960 2707928 2618150
2434.70 2596082 2632346 2591088 2532504 2577396 2459792
2437.60 2305806 2236192 2218074 2231180 2183208 2155262
2440.49 2165088 2091792 2093662 2069710 2067776 2035818
2443.38 1982102 1938746 1864710 1834068 1866432 1911546
2446.28 1938040 1865708 1850190 1877422 1855834 1852798
2449.17 1876196 1858190 1863126 1880000 1907042 1905074
2452.06 1905386 1884294 1908182 1907060 1911000 1903842
2454.95 1945820 2004856 1981516 1975398 2031688 2068308
2457.85 2085378 2065674 2133754 2169238 2166956 2171150
2460.74 2223630 2245380 2130816 2123138 2097804 2097596
2463.63 2151924 2169104 2202650 2205068 2249040 2254958
2466.52 2268604 2218796 2176814 2194216 2205778 2119568
2469.42 2097734 2136736 2189370 2203186 2118716 2079528
2472.31 2045274 2055504 2090510 2052594 2022736 2014654
2475.20 1997566 1922114 1913758 1933310 1913736 1951556
2478.10 1947708 1868932 1831966 1854178 1834406 1787008
2480.99 1747408 1760172 1752458 1696930 1681930 1764098
2483.88 1803360 1713522 1685632 1667954 1674574 1731672
2486.77 1821358 1823070 1748140 1747950 1789484 1796168
2489.67 1837106 1859666 1873744 1875210 1841684 1851350
2492.56 1865030 1885742 1987384 1980812 1984698 2047158
2495.45 2113342 2096746 2092188 2104822 2106040 2096654
2498.34 2048668 2092908 2195084 2270922 2269154 2169096
2501.24 2102842 2088286 2104490 2106762 2050880 2049774
2504.13 2080092 2037642 2053452 2053922 2005512 2011644
2507.02 2061844 2029584 1996128 2015458 2113532 2132602
2509.92 2103700 2072700 2074338 1987302 1889610 1871114
2512.81 1892026 1906462 1868578 1814570 1785516 1769308
2515.70 1783694 1773176 1725556 1682608 1712002 1720838
2518.59 1753936 1668128 1601596 1633642 1677230 1643152
2521.49 1589260 1620788 1557912 1542646 1600936 1577754
2524.38 1536748 1514160 1576856 1681620 1720554 1650646
2527.27 1596222 1561634 1597006 1647088 1626780 1526486
2530.16 1562770 1666008 1619762 1550802 1538098 1586092
2533.06 1693902 1734064 1773498 1772972 1754976 1710948
2535.95 1666872 1655528 1637680 1646544 1610596 1566304
2538.84 1591632 1617638 1617842 1539620 1521264 1554164
2541.74 1598532 1584700 1581900 1613202 1654488 1639074
2544.63 1627024 1601528 1576608 1501840 1487546 1563878
2547.52 1602894 1575000 1600948 1665354 1660116 1665570
2550.41 1626354 1656164 1715192 1685702 1653674 1550244
2553.31 1557994 1586224 1517724 1499564 1446578 1426640
2556.20 1380150 1308940 1315786 1320128 1345810 1388606
2559.09 1356836 1340118 1402574 1460848 1453342 1454146
2561.98 1441228 1350014 1295786 1353062 1423714 1489858
2564.88 1508886 1478912 1511614 1570590 1609982 1638082
2567.77 1686268 1679986 1725248 1789992 1821338 1814948
2570.66 1814384 1876724 1955674 1991058 1986202 1994600
2573.56 2117648 2263470 2291980 2254126 2325414 2377748
2576.45 2475492 2560486 2673192 2783784 2878670 3011258
2579.34 3136988 3305980 3477662 3630734 3832898 4074218
2582.23 4126866 4111204 4205392 4271546 4310964 4471570
2585.13 4634340 4720774 4815184 4828334 4854742 4936514
2588.02 4977634 4937010 4982144 5020656 5004340 4966038
2590.91 4994260 5077372 5250018 5400196 5463080 5516060
2593.80 5545158 5406036 5254210 5338790 5622412 5828126
2596.70 5942382 6053342 6110376 6084456 6076776 6103238
2599.59 6072492 5965050 5788020 5655786 5559472 5336524
2602.48 5102952 4928522 4675320 4458656 4267360 4064450
2605.37 3972378 3917278 3744146 3576326 3523822 3453210
2608.27 3406920 3335068 3336300 3360580 3428190 3544692
2611.16 3496456 3339912 3226100 3052790 3004464 3003008
2614.05 2938504 2922188 2899946 2896472 2931640 2933428
2616.95 2924596 2868534 2839670 2844232 2825972 2786534
2619.84 2838982 2878038 2919116 2940840 3006860 3067348
2622.73 3029390 2988888 2949790 2955656 2937174 2873610
2625.62 2888214 2951630 2923334 2879232 2755512 2680856
2628.52 2731086 2720258 2685180 2688226 2730724 2731588
2631.41 2650224 2565194 2542732 2546728 2553260 2511966
2634.30 2494912 2517320 2509462 2462598 2477644 2559722
2637.19 2621810 2663402 2716794 2619532 2506248 2505474
2640.09 2446842 2325750 2304580 2379278 2430208 2472298
2642.98 2444010 2467128 2466900 2382040 2229050 2108416
2645.87 2064172 2078564 2034266 2027976 2014474 1957774
2648.77 1948178 1981076 1961848 1949048 1903068 1835634
2651.66 1779430 1700378 1751664 1831228 1864822 1838520
2654.55 1789428 1715682 1644836 1543402 1559928 1581212
2657.44 1530686 1407768 1378368 1445350 1400186 1390480
2660.34 1404368 1326844 1313444 1413864 1502868 1465536
2663.23 1340668 1266076 1242738 1264148 1312056 1394528
2666.12 1362784 1315784 1336270 1313098 1296818 1323526
2669.01 1290828 1264490 1316106 1335566 1294608 1248516
2671.91 1230634 1178116 1167614 1239100 1236970 1191742
2674.80 1142456 1119474 1085974 1120428 1170652 1173694
2677.69 1208212 1240308 1205532 1142532 1173616 1143152
2680.59 1114338 1211298 1219276 1164808 1223954 1267212
2683.48 1260806 1175088 1119990 1159918 1240204 1229076
2686.37 1116080 1118564 1217026 1187348 1159332 1201240
2689.26 1255808 1269984 1230334 1180320 1178228 1214674
2692.16 1260776 1226146 1180654 1131342 1107332 1121316
2695.05 1110546 1104594 1138300 1134770 1169088 1217948
2697.94 1382120 1390706 1207396 1116450 1113690 1130130
2700.83 1153872 1236410 1300642 1325426 1284738 1224186
2703.73 1265548 1274326 1171900 1105426 1197296 1219402
2706.62 1204648 1283076 1311080 1209460 1198714 1305648
2709.51 1354654 1363630 1350108 1322246 1322104 1404400
2712.41 1508800 1468152 1463972 1538992 1605840 1682686
2715.30 1715338 1637872 1626236 1694584 1780378 1776228
2718.19 1821628 1898412 1958934 1941092 1937726 1989258
2721.08 2058430 2117338 2190294 2285190 2374984 2443252
2723.98 2596458 2698960 2742996 2889900 3064838 3197290
2726.87 3467150 3691810 3829542 4164388 4560232 4846180
2729.76 5155494 5507346 5908250 6445990 6886380 7260228
2732.65 7791000 8385028 8946422 9447062 9947694 10419820
2735.55 10842900 11113930 11377350 11715070 11938360 12008120
2738.44 12008670 11886980 11664530 11480670 11385450 11279810
2741.33 11144460 11220860 11782660 12759000 14401550 16779650
2744.23 19100800 19185180 16350390 12950690 11275150 11074050
2747.12 11623060 12383020 13205370 14016220 14821720 15421810
2750.01 15868590 16238490 16317980 16105000 15621680 15078580
2752.90 14358400 13411830 12407090 11519920 10704410 9829656
2755.80 9047288 8352462 7673886 7032286 6551308 6096714
2758.69 5742622 5460174 5249068 4987140 4763348 4551718
2761.58 4385942 4291000 4143374 4029886 3938972 3777792
2764.47 3670046 3513306 3284486 3113508 3007868 2917004
2767.37 2876554 2890880 2895526 2865616 2904842 2959778
2770.26 2993432 2975890 2993708 3019802 3063268 3073128
2773.15 3022210 3039738 3086346 3134706 3088504 3070034
2776.05 3110004 3203164 3286860 3285682 3322780 3417818
2778.94 3432574 3393906 3499754 3602274 3637900 3712982
2781.83 3787444 3690990 3565926 3586910 3572098 3624788
2784.72 3625736 3658678 3712116 3857490 4016248 4102882
2787.62 4143672 4140162 4092272 4111976 4169506 4188754
2790.51 4127922 4180048 4139550 4006820 4106608 4274688
2793.40 4319890 4347056 4376732 4369174 4386748 4471528
2796.29 4501672 4440744 4402186 4402910 4549638 4758652
2799.19 4836572 4844358 4853486 4800774 4676812 4709004
2802.08 4715604 4717664 4807846 4867804 4897892 4931758
2804.97 5029514 5066426 5111054 5160292 5247068 5440588
2807.87 5521916 5586280 5650170 5834326 6079164 6210210
2810.76 6278524 6321696 6390990 6480892 6558130 6728374
2813.65 6874012 6916510 6977876 7125948 7330026 7617710
2816.54 7839150 7964930 8015844 8009000 8083654 8273132
2819.44 8364994 8493220 8668690 8802500 9007202 9060078
2822.33 9088550 9108404 9168878 9237088 9192390 9166610
2825.22 9236000 9233892 9249736 9363624 9482776 9577820
2828.11 9694772 9829312 10073280 10380260 10591220 10864320
2831.01 11108390 11277550 11508800 11761150 12012360 12240030
2833.90 12461980 12564840 12699450 12848800 12977300 13089440
2836.79 13277360 13539050 13808450 14001430 14038850 14133820
2839.69 14262890 14448730 14729000 14895940 15105480 15454980
2842.58 15706100 15823560 16137680 16534640 17061270 17660710
2845.47 18145830 18625370 19130220 19685520 20314090 20922170
2848.36 21588620 22287540 23057470 23810560 24660430 25554980
2851.26 26447490 27390360 28293630 29221230 30336300 31462660
2854.15 32516860 33629700 34790560 36071190 37381880 38827840
2857.04 40292710 41801910 43391080 45125400 46905970 48704440
2859.93 50507970 52242500 54078220 56190900 58416110 60685430
2862.83 63022840 65254920 67363410 69565120 71825850 74120120
2865.72 76440780 78662850 80826220 83040710 85227160 87602840
2868.61 90058100 92423340 94797050 97428740 100345100 103950900
2871.51 107856600 110653100 112306100 114165000 116420800 119031900
2874.40 122112500 125219800 128469600 131850300 135117200 138402000
2877.29 141777800 144488300 146433400 147954000 149212400 150232100
2880.18 151054900 151284000 150442700 149399300 148523900 147742100
2883.08 147021800 146269600 145745600 145400900 144942600 143847000
2885.97 142565000 141522900 140785500 140439600 140422700 140334700
2888.86 139973200 139381000 138366700 137050600 135370200 133813600
2891.75 132542400 131325200 129939900 128390500 126656400 124848000
2894.65 122974200 121104100 119141300 116864700 114588900 112502600
2897.54 110283800 108001900 105763500 103409200 101109900 98867200
2900.43 96845130 95115400 93547450 92090540 90768030 89641640
2903.32 88830850 88040580 87523110 87402970 87180900 87360300
2906.22 88168990 89039530 89351870 89415260 89692900 90459930
2909.11 91771260 93636230 95915940 98126340 100059800 101656900
2912.00 103431400 105657600 107503500 108664000 110092300 112303100
2914.90 115250700 118696600 121897900 125064300 129064800 133767400
2917.79 138267300 141674500 144905100 148906100 153624800 158760300
2920.68 164294600 170490700 177093200 184125800 191404000 198224100
2923.57 203930800 209294300 214567600 219602600 223976100 227588700
2926.47 231365800 235079900 236954100 237274100 237289800 237319200
2929.36 237598800 238684100 241291000 245066100 249610900 254508300
2932.25 259108200 262743500 265150300 266448800 266161800 263598900
2935.14 260822900 260127300 261295300 263783300 267100000 269247900
2938.04 269563700 269530500 268785200 268217600 266518900 262894300
2940.93 259743800 257968800 256943600 255893400 253990500 250691900
2943.82 246111400 241598300 237763000 234272900 230487200 226025900
2946.72 220318800 213569500 206370800 199553300 193216500 187456600
2949.61 181833100 175640600 168732500 162305400 157674600 154542000
2952.50 152059900 149758300 148758400 149768200 150682200 149445400
2955.39 145518600 138682100 130835200 124234400 119457600 116536900
2958.29 115136700 114708200 114490800 114958500 115965600 116334000
2961.18 115348000 114108400 112791500 111451500 110029800 107340100
2964.07 103548400 100688800 98869360 97488550 96121820 94439550
2966.96 92288500 90205700 88194380 86317130 84198380 82156740
2969.86 80235750 78410090 76640830 75250180 74445060 74250970
2972.75 74502480 75169240 76022580 76745130 77534820 78727210
2975.64 80093770 81138380 81829430 82553040 83362080 84271590
2978.54 85232020 86155620 86701440 86915870 87143150 87271350
2981.43 87271230 87376740 87585390 87992380 88792070 90372500
2984.32 92712130 95390810 98028740 100208000 100145100 97397620
2987.21 93512590 90278960 88190590 87186580 86999510 87585860
2990.11 88864980 90902740 93548140 96418320 98901210 100334000
2993.00 100521300 100079000 100182600 101062500 102633300 105056200
2995.89 108827800 113431900 116927300 118454600 118218800 116521400
2998.78 114596000 113767700 114193100 116295100 119905900 123949400
3001.68 128440000 133641600 138836000 143503800 147650900 150214400
3004.57 149682400 146788800 143723000 141733900 141267000 142129700
3007.46 144267400 146764800 148517600 149037000 149105200 149728600
3010.36 151029800 152310200 152648000 152671100 154383800 157889100
3013.25 162050200 165990300 169263000 172048200 174610800 177276300
3016.14 180248100 183821200 188333700 193685200 199512700 205737400
3019.03 212931300 221312400 230345300 240017300 251776800 265340700
3021.93 276944800 285266800 292912800 302359700 313746300 325707300
3024.82 337264700 348680200 360206300 372031800 384636500 398129600
3027.71 412709500 428487800 444627400 458884800 469853900 476752100
3030.60 480191700 482410800 485395700 487967100 489062300 489215500
3033.50 487555200 482676700 476544600 471698700 469647900 469661500
3036.39 470775900 472178400 473249700 474842800 478533200 483974200
3039.28 488049200 487845400 486281200 488769400 493634300 491641000
3042.18 485686000 484449500 486658100 488756000 489284200 488078200
3045.07 485060000 479810800 472403800 462770500 450614900 436898500
3047.96 422498700 407472400 392217200 377030300 361634400 346189100
3050.85 330942100 316316400 303117900 291146000 280596100 271686400
3053.75 263927600 256989400 250775400 245758000 241753000 238662500
3056.64 236261900 234238200 233187900 233289800 234130900 235663300
3059.53 237926500 240188400 241844500 243400700 245180900 247511100
3062.42 250166200 252839200 255334200 257214100 258677200 260292500
3065.32 261633100 262123600 261604200 260395700 259641600 259223100
3068.21 258694000 258672700 259426800 261474900 265826500 272247500
3071.10 281292400 292888200 306336500 319586200 325021200 314544800
3074.00 293357500 275841900 266115100 262871900 263681400 266796900
3076.89 270940600 275079100 278954500 282400400 285097400 287219500
3079.78 288364200 288193800 287108100 286469700 284528700 278453900
3082.67 270450800 264221200 259649400 255598400 251730700 248291500
3085.57 245311800 242666000 240201300 237803500 235244500 232593200
3088.46 229222600 225218500 220926800 216691000 211461900 204959500
3091.35 198201100 191190500 184297400 177818200 171471900 165101000
3094.24 159564400 155183500 151829600 149471800 148627100 149432400
3097.14 151578900 154593200 157796700 160570000 162719400 164231700
3100.03 164961000 164550700 162722700 160005000 156854700 153309200
3102.92 149428900 145172900 140691400 136008400 131050100 126429400
3105.82 121715100 116743300 111958800 107810700 104022900 100192400
3108.71 96328640 92934430 90111710 87679110 85472770 83420210
3111.60 81510210 79785660 78120540 76492580 74771870 73017820
3114.49 71103820 69238430 67407400 65764830 64126010 62368930
3117.39 60672880 59092760 57408130 55620330 53372730 51072680
3120.28 49398300 48393580 47658680 46534370 44422960 42300840
3123.17 41270020 40773080 39830190 38445040 37153200 36104710
3126.06 35251510 34333820 33524610 32830860 32026980 31156470
3128.96 30142480 28929650 27688470 26310160 24809070 23372780
3131.85 22119920 20907250 19698810 18425750 17165620 16094950
3134.74 14843030 13654920 12700740 11737480 10764410 10067020
3137.64 9390252 8752054 8155486 7511332 6926562 6539072
3140.53 6146252 5695432 5452926 5098600 4764828 4536870
3143.42 4298826 4161430 3973432 3699294 3586634 3504656
3146.31 3466498 3467778 3429530 3319628 3320002 3357334
3149.21 3238670 3088368 2964114 3011702 3021718 2933400
3152.10 2880550 2854784 2891618 2883212 2842594 2907260
3154.99 2875720 2887924 2940984 2826118 2744742 2831862
3157.88 2881386 2868646 2777290 2817922 2987148 3125090
3160.78 3032854 2953524 3069982 3070322 3063012 3136578
3163.67 3124012 3153950 3171360 3238366 3308420 3275548
3166.56 3151220 3213930 3248242 3354986 3409464 3451826
3169.46 3513742 3484868 3476356 3490508 3592874 3641510
3172.35 3524200 3499918 3468120 3491760 3447150 3502680
3175.24 3555520 3497722 3494416 3535058 3409370 3227268
3178.13 3229018 3305896 3448196 3374736 3315234 3326000
3181.03 3195710 3100662 2941960 2819522 2675828 2615252
3183.92 2609692 2752808 2795522 2658288 2588346 2674340
3186.81 2613688 2497774 2414460 2198018 2002944 1784548
3189.70 1579524 1456882 1392336 1183620 979922 916912
3192.60 948856 895834 764824 798056 662218 524958
3195.49 545814 515430 539534 536056 564722 534454
3198.38 484452 470454 392396 419224 483266 425716
3201.27 347238 399570 419364 260934 207352 397032
3204.17 368878 338032 374860 334970 458382 454994
3207.06 504190 654370 599588 525332 587644 500904
3209.95 426712 388672 397446 330034 183658 139194
3212.85 222404 235190 227358 292290 286274 285272
3215.74 287000 225282 115062 4224-152680-115884
3218.63 162666 554036 587312 558916 601536 544042
3221.52 421482 365186 217720 238654 254734 239798
3224.42 262628 285734 105472 38410-576-25430
3227.31 89856 164110 293772 233342 112974 58976
3230.20 67748 129388 206464 172100 113884 256598
3233.09 405642 289316 207842 363558 364926 293854
3235.99 312780 291086 226016 164996 170242 208722
3238.88 147718 221828 284326 306264 349436 459122
3241.77 470678 421194 373876 446352 560810 542848
3244.67 495078 582038 534966 354366 327854 479406
3247.56 590050 500338 457598 479982 499336 530594
3250.45 535782 543012 482042 393136 488978 649026
3253.34 604324 611160 529736 499192 623638 759240
3256.24 699338 691104 645242 608908 650348 718534
3259.13 666784 686062 676354 659936 756574 726510
3262.02 668598 733522 889974 894132 799008 886036
3264.91 909666 904004 896156 862402 939712 966154
3267.81 828992 803858 881368 944682 916080 934510
3270.70 872210 850166 954130 1162100 1134348 1159620
3273.59 1191050 1143060 1036228 1002046 941816 1009116
3276.49 1076284 1086032 1113782 1052902 1017592 1034212
3279.38 1007054 1030982 1035142 1041194 1024138 1057132
3282.27 1038794 938494 977072 957810 1012724 1012038
3285.16 1091926 1150070 1018520 1014994 923554 860772
3288.06 873482 894440 831432 863320 969850 1077610
3290.95 1121666 1079308 966274 985922 1062264 1131154
3293.84 1110324 1011096 1019112 1060388 956370 850968
3296.73 835028 826364 836224 984382 1009016 833138
3299.63 850722 897000 840960 958762 1044474 1198686
3302.52 1087738 962944 975256 924772 835946 896916
3305.41 956028 950524 919984 819118 782814 830788
3308.31 837010 925178 853628 742592 706304 842364
3311.20 905354 925260 885832 889644 922700 1004784
3314.09 935558 842838 795268 839340 896562 943158
3316.98 896432 959702 996790 1070608 1014414 805624
3319.88 788244 956640 980048 1106160 1066058 999436
3322.77 1055258 1039248 1068688 1183320 1189158 1215650
3325.66 1162740 1206918 1331410 1474432 1438082 1244188
3328.55 1224306 1371290 1384030 1430720 1441912 1510382
3331.45 1518732 1446690 1432328 1554840 1678138 1620040
3334.34 1494632 1474058 1453978 1526936 1529806 1592346
3337.23 1596580 1477266 1410578 1402934 1468406 1603886
3340.13 1665742 1662074 1658764 1647758 1667470 1661322
3343.02 1577732 1527872 1431352 1439830 1451088 1472124
3345.91 1407324 1411386 1478080 1519744 1466632 1381294
3348.80 1382964 1411702 1347142 1279430 1227028 1281502
3351.70 1251080 1191774 1071516 1073758 1184974 1236592
3354.59 1119874 1172680 1128380 1008572 1000700 1034754
3357.48 1080414 1239962 1218652 1047660 975810 1127638
3360.37 1314442 1305022 1270472 1320360 1341004 1432046
3363.27 1479510 1261080 1220652 1391400 1374890 1236374
3366.16 1246514 1276478 1239246 1247800 1212526 1211624
3369.05 1296864 1228472 1233636 1281524 1254912 1311774
3371.95 1255454 1335786 1463562 1555652 1466106 1471686
3374.84 1514950 1491230 1497374 1563294 1557570 1554388
3377.73 1543072 1548750 1472606 1403874 1465436 1606534
3380.62 1634678 1617162 1592896 1674598 1622948 1666118
3383.52 1697214 1551504 1481194 1475316 1450336 1476888
3386.41 1396846 1260646 1182340 1362994 1492498 1402714
3389.30 1220508 1164028 1368024 1463610 1290044 1294610
3392.19 1249972 1300988 1442894 1374858 1373744 1316896
3395.09 1171400 1262350 1298478 1263218 1188568 1210616
3397.98 1246750 1294638 1288100 1288492 1217902 1177364
3400.87 1161796 1110822 1099726 1037004 1006814 1106968
3403.77 1128874 1203160 1198696 1178024 1189112 1129412
3406.66 1060894 1111120 1144624 1244636 1210676 1092898
3409.55 1100442 1071430 1013466 1076364 1078954 982198
3412.44 892198 932914 825522 766472 847160 1102492
3415.34 1113580 1044010 1094442 1097980 1083322 1100774
3418.23 982698 883360 674346 540680 569808 686916
3421.12 866728 973904 964332 939370 789982 976132
3424.01 997794 947624 916004 886870 847482 908506
3426.91 912082 946588 1073818 1145368 1187580 1130160
3429.80 1043028 995878 1065578 1076516 1061832 1062988
3432.69 979086 984118 1028952 950942 823164 909234
3435.59 1184396 1262548 1120746 1040908 1116062 1260100
3438.48 1345330 1440876 1409042 1260740 1179174 1320652
3441.37 1481192 1567744 1525946 1516222 1501476 1460592
3444.26 1407114 1472214 1561622 1497346 1469698 1453558
3447.16 1385540 1340874 1191722 1185966 1138186 1143568
3450.05 1304254 1381200 1425668 1210046 1136472 1097290
3452.94 1018890 1093900 1075828 1023744 1076894 1160766
3455.83 982066 933542 1042456 1118596 978648 1012094
3458.73 1086452 1051610 904728 945784 1089212 1034130
3461.62 980654 868562 686380 813250 881126 896492
3464.51 943138 903770 813052 765646 611742 674888
3467.40 742250 597882 469564 466290 446700 539528
3470.30 520744 524334 557438 639514 605368 510224
3473.19 433586 473444 555886 481518 414518 379804
3476.08 346226 316370 265876 292546 325124 370488
3478.98 349202 357168 402006 327366 266128 300594
3481.87 340222 367132 398216 404970 360788 425060
3484.76 419490 346258 328286 478716 593672 515846
3487.65 371172 417346 367712 334272 447498 568764
3490.55 492072 373204 376342 490910 390604 345966
3493.44 413584 495006 561420 504014 451158 406464
3496.33 387428 420156 506112 580162 576960 572452
3499.22 452448 336960 400510 559480 574776 596364
3502.12 497360 431850 524044 485454 390442 508320
3505.01 491818 566898 541464 442540 454444 407584
3507.90 368700 449068 451670 474004 582308 513452
3510.80 535366 563276 484608 522416 526960 523496
3513.69 517718 588320 641718 609622 513424 601120
3516.58 594316 572762 527844 520708 627630 630738
3519.47 513646 643710 797482 759512 643712 571982
3522.37 604180 657566 670930 923156 1084922 1098126
3525.26 1109260 971268 719278 663168 667950 699954
3528.15 592252 537474 593244 701080 679058 580542
3531.04 534796 523576 592518 650200 586896 645314
3533.94 727168 736418 675542 692854 625834 652726
3536.83 679652 669308 600384 689184 723572 786880
3539.72 753282 653944 677996 744502 717288 673250
3542.62 688754 776690 818320 820074 763232 745488
3545.51 794806 743490 669880 892782 1037436 951286
3548.40 894334 836912 831432 855104 893684 824072
3551.29 769648 780098 874588 1033580 1054288 1121408
3554.19 1136084 1113770 959162 891346 887180 808318
3557.08 953726 986398 877596 1014964 1021220 986986
3559.97 943984 958982 886240 957972 995086 1012250
3562.86 987868 1028648 1006644 931164 888142 908076
3565.76 904180 909868 899464 878042 770648 788496
3568.65 855896 840600 779026 706272 561124 613098
3571.54 683252 683644 675392 623310 601204 690690
3574.44 572518 528554 568370 604156 551432 486848
3577.33 439096 552776 525084 468522 536530 693672
3580.22 812794 886552 812220 823302 901278 949916
3583.11 900378 855372 795376 753164 633006 586838
3586.01 485056 611784 769484 730040 404428 398658
3588.90 712342 825300 748792 798214 894396 860670
3591.79 800572 745634 701748 837012 910634 855702
3594.68 732886 786798 852892 879866 879000 901432
3597.58 823262 731694 656148 692018 666408 497744
3600.47 473660 587580 842486 1111828 1147028 1021368
3603.36 929730 1039168 1021884 889968 664450 578342
3606.26 477146 433132 550732 716658 527764 191640
3609.15 318394 584914 605286 578276 618796 526820
3612.04 277496 386696 558470 564562 357862 373378
3614.93 496254 590398 622636 744322 650370 667268
3617.83 910924 818446 447122 394736 699936 858840
3620.72 864264 880316 969556 1011510 1033152 1012658
3623.61 983196 1118548 1158278 1111428 1098654 1187516
3626.50 1281692 1242804 957028 688864 764580 535778
3629.40 638506 1101052 1189766 1118174 1200128 1280674
3632.29 1253084 1085254 950616 1131196 1316176 1405494
3635.18 1370646 1381784 1477554 1567640 1571496 1558036
3638.08 1536158 1572608 1631880 1717130 1679592 1750146
3640.97 1835548 1923740 1997208 2044136 1976402 1982776
3643.86 1971856 1996294 2004474 2009498 1916798 1881148
3646.75 1786822 1917956 2033876 1856128 1412820 1730210
3649.65 2097488 2048044 2061832 2176150 2403726 2625646
3652.54 2697472 2660854 2606854 2553932 2518206 2530460
3655.43 2282204 2244004 2579250 2680456 2627574 2713444
3658.32 2687810 2612270 2557722 2582964 2643212 2593488
3661.22 2542720 2617386 2549334 2581898 2643064 2565230
3664.11 2582112 2702202 2652130 2534020 2556556 2513074
3667.00 2452862 2534720 2282382 2086464 2182014 2178494
3669.90 1658854 1221266 1782014 1952202 1856976 1968692
3672.79 1990536 1742880 1495062 1225038 1086464 858304
3675.68 657906 1186888 1438694 1524150 1575022 1507170
3678.57 1346382 1283150 1293998 1361912 1403498 1485678
3681.47 1538410 1530536 1345594 1240588 1300300 1350076
3684.36 1230490 1213344 1267274 1292950 1236724 1262518
3687.25 1142390 402404 347538 1059334 1192764 1245368
3690.14 1151414 1089748 1156830 1285890 1229564 1171640
3693.04 1152294 1218460 1278774 1288080 1184408 1173744
3695.93 1216824 1295936 1225472 1136958 1089420 1180538
3698.82 1299700 1306506 1257426 1215972 986576 818422
3701.72 1062874 1288616 1208122 1210814 1210964 1230914
3704.61 1228868 1261362 1197642 1248034 1233316 1065494
3707.50 968852 1095282 1026690 902444 1039658 1185960
3710.39 1048762 893268 455462 232438 811248 1142820
3713.29 1149194 1142732 1147166 1176684 1155686 1297636
3716.18 1389024 1281520 1088126 1097354 1097422 1087036
3719.07 1077704 1020444 1005796 1026642 1079474 1020670
3721.96 965104 1206354 1336542 1336396 1217914 1125258
3724.86 1152386 1189220 972794 933068 992072 911846
3727.75 904012 1010350 920560 866532 921388 980014
3730.64 907284 747570 401258 649568 947946 965742
3733.54 1052856 912936 650022 566120 575112 329822
3736.43 207536 613818 719616 701942 801550 858760
3739.32 770182 735178 786368 763832 664044 696394
3742.21 717948 596120 276022-321484-840398-231550
3745.11 577890 813552 808108 872936 825702 822536
3748.00 705954 150924-300060 204742 565654 606628
3750.89 461276-208992-652824 139838 513566 625156
3753.78 627368 673108 630988 604128 538006 594896
3756.68 692126 767682 648580 607902 489238 439850
3759.57 450922 711326 758122 783530 621042 553426
3762.46 695296 770974 592384 557978 563424 507248
3765.35 494344 660518 652514 694530 714174 728290
3768.25 597982 526012 302958 298742 498542 686214
3771.14 802994 841614 829864 919864 811680 670932
3774.03 696986 768718 879490 907788 866386 828804
3776.93 799982 818636 804336 841834 761006 762336
3779.82 892390 946266 887876 912870 946734 1053172
3782.71 1256178 1298354 1196376 1268706 1232840 1109030
3785.60 1125314 1121676 1220160 1462114 1499626 1473976
3788.50 1431200 1492100 1462832 1487200 1547468 1592670
3791.39 1561576 1604826 1701728 1777240 1714650 1717172
3794.28 1659222 1693970 1749600 1587446 1471174 1568002
3797.17 1562420 1608226 1674338 1720730 1758690 1697412
3800.07 1688416 1049760 508688 1197446 1561344 1586738
3802.96 1608200 1664214 1782554 1870236 1797016 1804042
3805.85 1642238 1116042 1067264 1488910 1627826 1701252
3808.75 1701802 1709418 1719378 1791464 1752072 1722098
3811.64 1626426 1683184 1592964 1600244 1533844 1570236
3814.53 1499328 1060056 304126 778132 1518198 1708352
3817.42 1666652 1686882 1763174 1766008 1618016 1458122
3820.32 1342064 1352560 1260734 1590250 1731286 1711836
3823.21 1840872 2003718 2034132 2014786 2063122 1977416
3826.10 1739784 1808040 2003996 2149974 2167314 2115534
3828.99 2107978 2117878 2105052 2080278 1862962 1874846
3831.89 2177530 2338672 2338340 2228630 2177934 2019316
3834.78 2000658 2228560 2457304 2469936 2169182 1463884
3837.67 1562664 2319616 2479326 2467278 2427224 2497378
3840.57 2383936 2479170 2519166 2599392 2602454 2606672
3843.46 2582460 2773710 2867766 2954316 2928572 2934778
3846.35 2960904 3074776 3077598 3253696 3259180 3268912
3849.24 3186170 3345056 3374142 3267614 2734810 2389176
3852.14 2930150 3187726 2606780 1781284 2084898 3122132
3855.03 3430584 3504152 3372530 3257634 3234712 3399726
3857.92 3429794 3349448 3261852 3163748 3060068 3144522
3860.81 3069994 3003748 3093868 3214696 3199948 3193738
3863.71 3049374 2730474 2446308 2852864 3010296 2963948
3866.60 2926824 2905148 2803390 2701386 2455026 2352430
3869.49 1887876 2022942 2480188 2503954 2550306 2632334
3872.39 2640082 2595096 2425086 2263356 2313994 2385146
3875.28 2448666 2424336 2321226 2294772 2221684 2200630
3878.17 2161280 2071858 1905498 1759612 1840324 2062516
3881.06 2101996 2189800 2276682 2201850 2055576 2054054
3883.96 1977214 1874206 1453268 1383316 1703524 1953768
3886.85 2003732 2011524 1953136 1856224 1763862 1818058
3889.74 1898994 1772512 1352506 1490524 1741576 1877750
3892.63 1917484 1858800 1792300 1843706 1866446 1807222
3895.53 1805902 1992608 2039830 1993618 1918806 1855908
3898.42 1662998 1489790 1665686 1852992 1911316 1811546
3901.31 1627266 1754114 1974432 2190098 1830408 1517872
3904.21 1910302 2201076 2102296 1947236 2107384 2292390
3907.10 2218924 2265122 2228134 2260372 2273266 2320010
3909.99 2370394 2428830 2411530 2428016 2344368 2489284
3912.88 2539524 2512026 2443058 2496580 2481822 2417408
3915.78 2416472 2522608 2519424 2583114 2812036 2983706
3918.67 2800458 2562726 2472636 2650644 2763204 2669894
3921.56 2461156 2540990 2688356 2711668 2616846 2621008
3924.45 2548820 2580338 2668944 2661124 2526892 2579178
3927.35 2533518 2446216 2457166 2487022 2430762 2440724
3930.24 2249296 2278640 2219650 2127904 2150928 2263650
3933.13 2261844 2202168 2112738 2161116 2151982 2193296
3936.03 2127044 2137970 2144680 2188144 2024030 1956802
3938.92 2015876 2166780 2223344 2157992 2016824 2082248
3941.81 1974702 1920320 1954206 1910876 1796438 1692614
3944.70 1694488 1848818 1831514 1816400 1982482 2068372
3947.60 1866158 1963738 2042074 1959822 1818958 1860980
3950.49 1917684 1977632 1889032 1940474 1957290 1900812
3953.38 1848714 1802150 1727854 1844568 1933086 1986106
3956.27 1901994 1991534 2000700 1870528 1740264 1812262
3959.17 1906484 2088198 2140028 2176548 2121984 1982496
3962.06 1843352 1954580 2100436 2111550 2215256 2178930
3964.95 2093212 2146786 2009794 1994658 2034026 2040746
3967.85 2037310 2097370 2139224 2204852 2152136 2265964
3970.74 2214514 2055468 1977896 2075492 2102402 2086002
3973.63 2006696 2061368 2099552
##END=
