##TITLE=Vinyl Acetate
##JCAMP-DX=4.24
##DATA TYPE=INFRARED SPECTRUM
##CLASS=IUPAC A
##ORIGIN=NIST, Anayltical Chemistry Division, 301-975-3108
##OWNER=COPYRIGHT (C) 1998 by the U.S. Secretary of Commerce
##DATE=98/10/1
##$SPECTRA VERSION=1.00
##$UNCERTAINTY IN Y=2.1 % relative (B=1.1E-04,C=7.7E-10,D=2.7E-14)
##CAS NAME=Ethenyl Ester-Acetic Acid
##CAS REGISTRY NO=108-05-4
##MOLFORM=C H3 C O2 C H: C H2
##MP=-93.2 C
##BP=72.2 C
##$NIST SOURCE=QUANT-IR
##SPECTROMETER/DATA SYSTEM=IFS66V (Bruker)
##INSTRUMENT PARAMETERS=KBr Beam splitter; MCT Detector; Multipass cell
##STATE=gas
##SAMPLE DESCRIPTION=Vinyl Acetate Primary Gas Standard
##PRESSURE=101.3 kPa
##TEMPERATURE=23 C
##SAMPLING PROCEDURE=1 L/min Flow
##RESOLUTION=0.9640
##DATA PROCESSING=NB Strong Apodization
##XUNITS=cm-1
##YUNITS=(micromol/mol)-1m-1 (base 10)
##XFACTOR=1.0
##YFACTOR=18.189E-13
##DELTAX=0.4820
##FIRSTX=575.169
##LASTX=3975.077
##FIRSTY=.0000109
##MAXX=3974.59
##MINX=575.17
##MAXY=.0028072
##MINY=-1.59E-06
##NPOINTS=7053
##XYDATA=(X++(Y..Y))
575.17 6005392 6345472 6679720 6985670 7306994 7621408
577.58 7739842 7829456 8055108 8389920 8832524 9091242
580.47 9223358 9558788 9906444 10087310 10126990 10470240
583.37 10843850 11041690 11158590 11444420 11646270 12119420
586.26 13029330 14305650 15286750 15112890 15035750 15640960
589.15 16270770 16755670 17587110 18768890 19947780 20647240
592.04 20848200 20684720 20540400 20315670 20026880 19645380
594.94 19090940 18420070 17850600 17441160 17103150 16812420
597.83 16457120 16119380 15926780 15873360 15815670 15798820
600.72 15761250 15784660 15927710 15946040 15964600 16076290
603.61 16144930 16251410 16378680 16553780 16692870 16791020
606.51 16942860 17116370 17371240 17616370 17770720 17864120
609.40 18019160 18204930 18273380 18465800 18600780 18678480
612.29 18827160 18908750 18943020 18942890 18900090 18912810
615.18 19015710 19009240 18893430 18799420 18738550 18768630
618.08 18808140 18826240 18812910 18823730 18917990 19050850
620.97 19227900 19430570 19684080 19938440 20182290 20510740
623.86 20922730 21330680 21774340 22256070 22707410 23078410
626.76 23499230 23920700 24329470 24685300 24926370 25122870
629.65 25263870 25412210 25482460 25369250 25193100 24969550
632.54 24627210 24201230 23906690 23573870 23266470 23130930
635.43 23033790 22928640 22952600 23105000 23391660 23670790
638.33 23521410 23100750 22811320 22772100 22852610 22871480
641.22 22910850 22957730 23021210 23005390 22871570 22692410
644.11 22431680 22190000 21977690 21583510 21053590 20570520
647.00 20093620 19575650 19003030 18449080 17916790 17379830
649.90 16790210 16228640 15723600 15212820 14676620 14105570
652.79 13611480 13188390 12715120 12242620 11813750 11417330
655.68 11085350 10736720 10400950 10043450 9671520 9301192
658.58 8951982 8617862 8268358 7931284 7593234 7280668
661.47 7003446 6684434 6379556 6127604 5871448 5616966
664.36 5355350 5092878 4840120 4609564 4406090 4246214
667.25 4072998 3893116 3718328 3588270 3456392 3292000
670.15 3157322 3066088 2981746 2909982 2853698 2830126
673.04 2772082 2659534 2593024 2611118 2609944 2564514
675.93 2537952 2525276 2508882 2544364 2604142 2633824
678.82 2641826 2661690 2721832 2752330 2744644 2794688
681.72 2861586 2938328 2982814 3022114 3063482 3168000
684.61 3278142 3327370 3352384 3471498 3582860 3619918
687.50 3696090 3790104 3830514 3920428 4005984 4087660
690.40 4191214 4286868 4316164 4416132 4547932 4648758
693.29 4776820 4918606 5019626 5055742 5111280 5228842
696.18 5326346 5390738 5492934 5687968 5877076 5956304
699.07 5860182 5724026 5696828 5717432 5713600 5705170
701.97 5708160 5718810 5760844 5847814 5911570 5935334
704.86 5921438 5889938 5892676 5930446 5970150 5975594
707.75 5958050 5939582 5969070 6028534 6090760 6151482
710.64 6205936 6306572 6414204 6569194 6656562 6662156
713.54 6683496 6652558 6585226 6606950 6654416 6606846
716.43 6486040 6368926 6274262 6161312 6018240 5874676
719.32 5730494 5597252 5458100 5267838 5087728 4995772
722.22 4918828 4823830 4741662 4702610 4640526 4599174
725.11 4557070 4539892 4496384 4416484 4328808 4260594
728.00 4200454 4140422 4104250 4059006 3989416 3958132
730.89 3921346 3885032 3829730 3791028 3744722 3699458
733.79 3643746 3607990 3583838 3559526 3513636 3451602
736.68 3385076 3362430 3336284 3293088 3242988 3229182
739.57 3211324 3160094 3116554 3089952 3065640 3064216
742.46 3080008 3084868 3088388 3092230 3072338 3040268
745.36 3040696 3052790 3060798 3098076 3108960 3109374
748.25 3118938 3158764 3193318 3203706 3202976 3234036
751.14 3251710 3266292 3272594 3287776 3300522 3319178
754.04 3333268 3349278 3392858 3438400 3457200 3476144
756.93 3509596 3536762 3537500 3567092 3588712 3619862
759.82 3698740 3772892 3816696 3856706 3892432 3931222
762.71 3990414 4057100 4096344 4145514 4202540 4249266
765.61 4306752 4393220 4472846 4556490 4633460 4704550
768.50 4773066 4833760 4859272 4945282 5012648 5063680
771.39 5141424 5201044 5217552 5283424 5342266 5366320
774.28 5374194 5387758 5407100 5437970 5433276 5435510
777.18 5448522 5414694 5396668 5377314 5338796 5335982
780.07 5306406 5293516 5297606 5306278 5299716 5295772
782.96 5289314 5296418 5266428 5254060 5249978 5241462
785.86 5218522 5205724 5198950 5178172 5153096 5141384
788.75 5128920 5114336 5059904 5011436 5026156 5025036
791.64 4987198 4953012 4918006 4913606 4893432 4851188
794.53 4870040 4899058 4893800 4903504 4912266 4927376
797.43 4934104 4944224 4925052 4919714 4941138 4983108
800.32 5020706 5059222 5077760 5082220 5125694 5178872
803.21 5241222 5272436 5269536 5331808 5368302 5408130
806.10 5453732 5519940 5553620 5608290 5682152 5749400
809.00 5809296 5900666 6002734 6108990 6220436 6365854
811.89 6497634 6655086 6789608 6926210 7067550 7240650
814.78 7441978 7587746 7685982 7896434 8092652 8255848
817.68 8426900 8676280 8880310 9054778 9265208 9513698
820.57 9717128 9983610 10261500 10537910 10842780 11204480
823.46 11541920 11854890 12236830 12696650 13129200 13601540
826.35 14044690 14520560 15053230 15628200 16207070 16821870
829.25 17426340 18117930 18875840 19680240 20548420 21443320
832.14 22349560 23356400 24421470 25567720 26764850 27987170
835.03 29293130 30726210 32195840 33693820 35228980 36730990
837.92 38186730 39672600 41092280 42430190 43667740 44799860
840.82 45789520 46648910 47277170 47876780 48372490 48683020
843.71 48976230 49401170 49990850 50970350 52307670 53599860
846.60 54473560 55182110 55872530 56742200 57783980 59106980
849.50 60626920 62448400 64557240 66858330 69089030 71418000
852.39 73783250 76162390 78326920 80404200 82285790 83964660
855.28 85336900 86469240 87202490 87707860 87845700 87830670
858.17 87662150 87397130 86935820 86539840 86076140 85663710
861.07 85254230 84843860 84246500 83846010 83592430 83506760
863.96 83464480 83898740 84694930 85985350 87744440 90110620
866.85 92925090 96616050 101288000 107473600 117594900 136557600
869.74 154354500 166697400 164343100 158031600 151506200 143542100
872.64 136440400 130067300 124574100 118905300 113546400 108298900
875.53 103386300 99179900 95946700 93138150 90853680 89023020
878.42 87716250 86573470 85624630 84725420 83927520 83040380
881.31 82241140 81459010 80657300 79660760 78727410 77724180
884.21 76634780 75473210 74260020 72968370 71501280 69792140
887.10 68143110 66470620 64643000 62612920 60649520 58649630
889.99 56700650 54694900 52625100 50560860 48513790 46397870
892.89 44290170 42165960 40080240 38021120 36090740 34198620
895.78 32357570 30568890 28859990 27185740 25622510 24119860
898.67 22732520 21377260 20107440 18909940 17808520 16762840
901.56 15778030 14838790 14027450 13261750 12539920 11855660
904.46 11241890 10667040 10171290 9724478 9296084 8881104
907.35 8548678 8257536 8019776 7797888 7612824 7456660
910.24 7335370 7229682 7172136 7147050 7141502 7143054
913.13 7187746 7272244 7381736 7512730 7691320 7877540
916.03 8102794 8366028 8659268 8957854 9289866 9647680
918.92 10047790 10461820 10927810 11404040 11949980 12514750
921.81 13114320 13755720 14445330 15157090 15910160 16707560
924.71 17558140 18443250 19376290 20326380 21333540 22395030
927.60 23491910 24587200 25737070 26897010 28088750 29269220
930.49 30442840 31620740 32819460 33983240 35097270 36200380
933.38 37287420 38336330 39337360 40292370 41233820 42137140
936.28 42994070 43830960 44699360 45577190 46516460 47518480
939.17 48591100 49730630 50955760 52208920 53539030 54946240
942.06 56391050 57827220 59344110 60912620 62408960 63790300
944.95 64988760 66021820 66977680 67918340 68713560 69200170
947.85 69625930 70088380 70469720 70851380 71498700 72045220
950.74 72375670 73028260 74103400 75209180 76503870 78032840
953.63 79768820 81867380 84135750 85737190 85880220 85736540
956.53 86120890 84355890 80255370 77729650 74655060 65049050
959.42 59207880 58001120 57663800 57577280 57772300 58228620
962.31 58827720 59521240 60342770 61118050 61836830 62593760
965.20 63440930 64316910 65213820 66017010 66706890 67251500
968.10 67686570 67945140 68014040 67838080 67430220 66718340
970.99 65790140 64674960 63433310 62107020 60793750 59604500
973.88 58653640 58031380 57898140 58158010 58330390 57457710
976.77 55977920 54973960 54503460 53804590 52854300 52353160
979.67 52581580 53313310 54268400 55344750 56337510 57158120
982.56 57672500 57776910 57499970 56939090 56095870 54896750
985.45 53506200 51923880 50112550 48149960 46290070 44537460
988.35 42886950 41378570 40022960 38852800 37871670 37057700
991.24 36450950 36033470 35762390 35700600 35857670 36112260
994.13 36473180 36984480 37626400 38406780 39305940 40290040
997.02 41364860 42537320 43801770 45163400 46654870 48243260
999.92 49923830 51720910 53665990 55735930 57899530 60195460
1002.81 62660650 65251340 67982860 70897860 73989980 77264580
1005.70 80679020 84238540 87925260 91805550 95926220 100282200
1008.59 104805800 109538200 114458000 119479600 124600700 129868400
1011.49 135312800 140823100 146283300 151653500 156913600 162089500
1014.38 166968800 171524600 175795600 179678800 183023600 185900800
1017.27 188140100 189931100 191064300 191598900 191809600 191687500
1020.17 191052400 190140100 189196000 188474600 188289300 188717700
1023.06 188537700 187945600 187461600 186981600 188006400 192490400
1025.95 192971900 185476400 177133800 172812600 171941900 172460000
1028.84 173235700 172639900 171154300 169430900 167216800 164005900
1031.74 159764100 154699000 149139500 143070000 136612700 129757700
1034.63 122832300 115914700 108958700 102025000 95399640 89187970
1037.52 83536900 78362100 73638660 69337780 65456650 61939400
1040.41 58851470 56079740 53656040 51517400 49647860 47976390
1043.31 46495680 45193890 44101660 43127440 42350180 41737390
1046.20 41390070 41208180 41178120 41552180 42285870 41971930
1049.09 40659540 39608060 38939080 38461990 38092580 37816660
1051.99 37462760 37090990 36795180 36500250 36182500 35869340
1054.88 35576480 35308710 35076740 34890860 34725970 34558660
1057.77 34385840 34244980 34100520 33934530 33816560 33713200
1060.66 33625210 33509380 33375470 33268350 33184110 33059970
1063.56 32926810 32775250 32629790 32440840 32267840 32140140
1066.45 31967950 31737410 31486260 31261250 31073090 30824440
1069.34 30587090 30366920 30126810 29865800 29606620 29339670
1072.23 29126080 28904720 28669790 28436610 28212670 28008330
1075.13 27784200 27521890 27289100 27028620 26743110 26493420
1078.02 26252050 25998270 25762670 25486670 25217600 24970830
1080.91 24754840 24525270 24269870 23993080 23729360 23457990
1083.81 23189860 22885950 22597440 22330840 22061390 21795220
1086.70 21537210 21262600 21043360 20828420 20595800 20336800
1089.59 20090590 19860970 19643530 19434850 19226590 19001190
1092.48 18776040 18541730 18317610 18103400 17896580 17692340
1095.38 17497620 17305770 17160750 17016120 16875550 16745280
1098.27 16646020 16536440 16434460 16345310 16277340 16221000
1101.16 16173640 16136540 16116960 16085430 16062350 16060100
1104.05 16090590 16120730 16158030 16188730 16245520 16293610
1106.95 16349390 16416970 16480490 16555370 16664050 16775970
1109.84 16873470 16957430 17077050 17233800 17407140 17583250
1112.73 17775840 17982740 18228680 18489580 18773950 19060210
1115.63 19385290 19767720 20201540 20673100 21205580 21800580
1118.52 22451260 23140220 23914570 24775150 25716440 26720900
1121.41 27785690 28952880 30280490 31771990 33347260 34986380
1124.30 36817570 38935760 41318520 44010080 47059130 50555870
1127.20 54627000 59332660 64812560 71178860 78619390 87244780
1130.09 97168010 108482200 121282100 135564300 151260400 168357100
1132.98 186701700 206288400 227691200 250853500 275288200 300885300
1135.87 327349300 354175400 380529200 406199200 430555700 452849900
1138.77 472483600 488800200 501421800 510345300 514972500 515228800
1141.66 511152700 503063900 492247500 480353300 468934800 459659600
1144.55 454894600 455696200 462792100 475695100 492784100 510332100
1147.45 523093700 528472000 525627600 510833500 489881700 475637900
1150.34 472132300 474445500 488140800 508610300 527042200 539836100
1153.23 546208600 545259000 536675700 521634700 500798800 474821200
1156.12 445171100 412623600 377886600 342454500 307429700 273656600
1159.02 241563700 211514200 183940600 159078100 137083400 117880100
1161.91 101279900 87189410 75395470 65553780 57447300 50840730
1164.80 45524080 41268300 37875590 35156770 33006190 31317430
1167.69 29993130 28941080 28104800 27430290 26913040 26526520
1170.59 26220840 25961920 25799900 25735470 25719580 25721740
1173.48 25799690 25980740 26223600 26500640 26812760 27084970
1176.37 27413450 27809710 28266840 28776300 29331630 29990730
1179.26 30720700 31499180 32330280 33183430 34106880 35100840
1182.16 36148960 37257210 38467900 39741190 41028010 42337440
1185.05 43738060 45164740 46630760 48160080 49721500 51282920
1187.94 52874690 54517930 56261030 58052920 59871520 61787610
1190.84 63857210 66063020 68457180 71142230 74106790 77398440
1193.73 81131960 85291970 89990820 95321220 101311700 107995800
1196.62 115183200 122480300 130110000 138443000 147889500 158792500
1199.51 171117400 184678400 199251900 214806000 231461200 249242800
1202.41 268087400 288135800 309676700 332327100 356127000 381509400
1205.30 408589400 437286400 467394600 499344500 533481900 569634600
1208.19 607590100 647463100 689458200 733528100 779679200 827884300
1211.08 878439200 930607400 983796800 1037757000 1091893000 1144976000
1213.98 1196764000 1247922000 1296434000 1340368000 1380312000 1415591000
1216.87 1446723000 1472196000 1492028000 1506306000 1514990000 1518578000
1219.76 1516133000 1509849000 1504212000 1498435000 1491788000 1485619000
1222.66 1481437000 1481474000 1492437000 1517229000 1543326000 1538132000
1225.55 1499829000 1458659000 1425915000 1404704000 1395762000 1399441000
1228.44 1411014000 1424255000 1432675000 1433648000 1425593000 1405823000
1231.33 1373617000 1328777000 1272707000 1206684000 1133041000 1055079000
1234.23 974601900 893440400 813280200 736168700 663192800 595269100
1237.12 533622700 477915500 428353200 385074800 347660600 315564900
1240.01 288318500 265338600 246062000 230044300 216639300 205474300
1242.90 196108900 188178200 181288500 175156900 169523200 164360900
1245.80 159446800 154747600 150179900 145764100 141576700 137644400
1248.69 133984100 130739300 128062300 126204800 125363200 125238400
1251.58 125215300 124685500 122701100 118869500 114502500 110894400
1254.48 108378600 107020000 106681100 107080600 107874700 108690700
1257.37 109223900 109302100 108757300 107419400 105264000 102394000
1260.26 98924920 94958670 90565940 85858370 80970840 76118740
1263.15 71374580 66801910 62440420 58388900 54690180 51365410
1266.05 48338140 45631010 43237130 41087070 39227880 37631020
1268.94 36220250 35009800 33970540 33070410 32269220 31545990
1271.83 30945970 30463170 30076320 29846240 29742450 29708880
1274.72 29749280 29888470 30113170 30422630 30815740 31372300
1277.62 32112790 33037320 34169990 35513430 37057870 38831580
1280.51 40818260 43021610 45441230 48132010 51039080 54169180
1283.40 57513090 61036100 64673560 68365990 72050900 75760080
1286.30 79321380 82502310 85276780 87674810 89688520 91250980
1289.19 92312100 92893460 93001260 92863860 92672010 92461940
1292.08 92158100 92327530 93401540 94611920 94758290 94579740
1294.97 95003180 95420010 95137660 94624740 94329740 94061820
1297.87 93910550 93844330 93837150 93853440 93905940 93962590
1300.76 93882060 93588370 93076000 92284220 91069060 89341010
1303.65 87145450 84515700 81487800 78070460 74339700 70445960
1306.54 66439670 62340240 58231640 54193180 50300920 46577930
1309.44 43039680 39726430 36658940 33822880 31221660 28850340
1312.33 26704090 24759820 23001260 21442590 20044940 18791170
1315.22 17660220 16631680 15709060 14882080 14147230 13492320
1318.12 12888730 12324890 11837190 11398990 10990350 10605650
1321.01 10249720 9913788 9606504 9340630 9104530 8868814
1323.90 8635978 8427054 8251482 8093048 7926866 7779700
1326.79 7652910 7534778 7413622 7300110 7212598 7138194
1329.69 7063740 6999802 6949466 6907644 6872392 6849282
1332.58 6825586 6802608 6784254 6778216 6778990 6779152
1335.47 6787536 6807356 6837062 6881816 6920984 6958292
1338.36 7009698 7094062 7191702 7286498 7405222 7564112
1341.26 7724920 7915872 8126358 8359920 8596866 8824844
1344.15 9086360 9401236 9752530 10135090 10553440 10998570
1347.04 11472220 11997060 12575840 13214730 13892250 14633720
1349.94 15424370 16277780 17234740 18286110 19434640 20704700
1352.83 22068230 23568700 25214290 27025320 29023350 31234420
1355.72 33658060 36291000 39154560 42260550 45698340 49495470
1358.61 53630970 58109210 62974330 68201650 73784710 79800230
1361.51 86115690 92800380 99763720 106928600 114271500 121745800
1364.40 129192500 136569900 143834200 150872400 157599200 164026900
1367.29 169779800 174816800 179237600 183149800 186574600 189527600
1370.18 191844400 193645400 195558900 198382600 202522800 208466700
1373.08 215838100 222702000 224314100 220372900 217286300 216855100
1375.97 217880000 220009300 223432300 227812500 232768700 237687000
1378.86 242104200 245533600 247532800 247767600 246380500 243620900
1381.76 239452200 234064600 227405200 219881200 211899000 203512600
1384.65 194725600 185787500 176999500 168516500 160773800 154084900
1387.54 147511000 140359200 133431000 126683300 119985500 113357800
1390.43 107080400 101208200 95867250 91097440 86819610 82818610
1393.33 78976860 75154050 71483190 67899680 64319870 60837030
1396.22 57409460 54032030 50777080 47681880 44696540 41817140
1399.11 39193800 36757200 34475280 32327970 30348020 28486400
1402.00 26782600 25232750 23828080 22556680 21415180 20381580
1404.90 19531190 18804700 18156960 17575540 17068160 16625560
1407.79 16252070 15940970 15694920 15497250 15322890 15184950
1410.68 15103350 15044020 15016170 15010210 15036920 15077330
1413.58 15133350 15194550 15279210 15340860 15415090 15520210
1416.47 15621000 15704650 15831040 15935930 15934680 15872970
1419.36 16095810 16358190 16494300 16600670 16701770 16814210
1422.25 16930860 17031750 17128010 17274630 17478840 17686490
1425.15 17914020 18155370 18405250 18683900 19002220 19323940
1428.04 19653050 20005840 20411930 20806970 21158020 21415920
1430.93 21549890 21666790 21803560 21911200 21985050 22061110
1433.82 22137430 22185070 22210810 22155770 21899820 21536650
1436.72 21462320 21370030 21051880 20723000 20474320 20249030
1439.61 20035510 19840960 19682530 19573770 19514570 19528500
1442.50 19628330 19697750 19720410 19812360 19922930 19988660
1445.40 20005320 19986400 19940860 19855150 19694920 19579140
1448.29 19491200 19336930 19151640 18965180 18772620 18580560
1451.18 18381380 18159580 17946380 17714990 17481150 17264100
1454.07 17073460 16880640 16692830 16428340 15973920 15691520
1456.97 15809080 15746980 15573360 15414920 15237680 15064340
1459.86 14827500 14572190 14343120 14155940 13992000 13816960
1462.75 13643370 13479410 13306940 13073270 12969790 12972120
1465.64 12902130 12802650 12709650 12626080 12556640 12483830
1468.54 12418290 12358300 12294920 12223970 12147590 12032270
1471.43 11863310 11871000 11905680 11744690 11736270 11809000
1474.32 11769740 11691880 11581790 11468590 11445650 11435600
1477.21 11412060 11360920 11296870 11249450 11188360 11106770
1480.11 11029420 10937080 10861310 10786150 10702030 10638220
1483.00 10588050 10527800 10461830 10389060 10319010 10235240
1485.89 10153790 10055950 9953332 9933940 9905928 9816200
1488.79 9698550 9586120 9518484 9435042 9404720 9397760
1491.68 9335788 9271050 9213796 9164390 9097660 9043040
1494.57 9002520 8928136 8685746 8640564 8800618 8810404
1497.46 8766952 8646494 8564798 8607780 8627954 8606516
1500.36 8588704 8560350 8554754 8528636 8477182 8424118
1503.25 8384730 8341290 8280936 8060336 7856002 7984866
1506.14 7877756 7717986 7937340 8052954 8024432 8041540
1509.03 8028972 8020010 8031780 8014272 7999472 7926950
1511.93 7870928 7903852 7909480 7888712 7851356 7791074
1514.82 7766602 7751614 7684120 7623594 7561284 7555888
1517.71 7596270 7580098 7542634 7456956 7342974 7243830
1520.61 6994188 6992944 7163836 7085410 7078548 7103238
1523.50 7080748 7032412 6941236 6806594 6833124 6867108
1526.39 6829106 6770172 6757824 6707252 6673156 6666806
1529.28 6645310 6607196 6573708 6514812 6467872 6445018
1532.18 6386334 6280384 6199382 6182188 6257524 6251294
1535.07 6233674 6202182 6190432 6155786 6116770 6034258
1537.96 5882820 5575434 5663672 5759186 5683086 5863096
1540.85 5922214 5761424 5754188 5961304 6017592 6040560
1543.75 6079112 6052708 6008254 6134534 6261064 6327690
1546.64 6379668 6441450 6511368 6585954 6659794 6713920
1549.53 6780032 6892442 7040436 7155382 7255766 7362422
1552.43 7476298 7561532 7557004 7535400 7788014 8012030
1555.32 8145612 8247868 8329718 8306380 8333782 8274918
1558.21 8337764 8708132 8738266 8630268 8902280 9256082
1561.10 9372472 9452836 9505238 9589294 9662932 9721474
1564.00 9720900 9718366 9765628 9836608 9871820 9904860
1566.89 9974350 10146870 10330180 10320280 10158140 10062090
1569.78 10196260 10355940 10442770 10557450 10667720 10789150
1572.67 10903370 11027500 11136080 11250070 11318470 11251190
1575.57 11003630 11206600 11567240 11674830 11730020 11767520
1578.46 11794840 11814260 11842060 11864590 11876510 11886040
1581.35 11899650 11911710 11918090 11908370 11908480 11929100
1584.25 11960280 11999020 12048130 12090270 12124480 12155280
1587.14 12179230 12185280 12198850 12222400 12237910 12232470
1590.03 12235200 12249440 12270010 12289700 12295950 12313050
1592.92 12331040 12338630 12344650 12355260 12373070 12394060
1595.82 12412020 12425300 12431220 12432490 12449360 12467060
1598.71 12472310 12475490 12478790 12491170 12519890 12575610
1601.60 12637890 12714790 12810650 12922430 13058920 13188060
1604.49 13314800 13418810 13521460 13646410 13793150 13964530
1607.39 14138880 14307940 14456740 14608210 14800200 15022930
1610.28 15253120 15495270 15751380 16043030 16355370 16683740
1613.17 16981970 17269200 17558440 17887580 18261900 18577920
1616.07 18692240 19129010 19748300 20169070 20544230 20904050
1618.96 21272550 21608180 21912240 22173650 22415840 22630740
1621.85 22851370 23053180 23212630 23496950 23931610 24300990
1624.74 24673340 25047590 25400240 25607800 25699310 25846270
1627.64 26263400 26921330 27726030 28684580 29827900 31113370
1630.53 32514820 33894240 35161840 36475740 38124990 40187610
1633.42 42619830 45373780 48465730 51900440 55988930 60865820
1636.31 66100760 71789630 78187610 85356790 93211360 101745200
1639.21 110951300 120873500 131474700 142659100 154349200 166465300
1642.10 178861100 191292200 203476500 215267200 226339900 235958400
1644.99 242779500 247167900 251254000 253343500 252513400 249417000
1647.89 244137800 237632700 230547300 224196000 220239700 220959400
1650.78 228571400 243922400 264574200 287957400 299794200 284504300
1653.67 252774000 224825400 211557900 211518200 219956400 233465600
1656.56 248911200 264002400 277062300 286739100 292381300 293796600
1659.46 290940400 283904900 273191800 259405500 243323400 225291900
1662.35 206326900 187541800 168841400 150615300 133401100 117477900
1665.24 103076800 90325420 79142300 69376470 61056040 54058880
1668.13 48156760 43113820 39018920 35768600 32953230 30485910
1671.03 28374230 26648990 25122020 23738880 22496500 21380070
1673.92 20333120 19243660 18267320 17603750 16957460 16272410
1676.81 15620600 15002580 14437210 13909790 13405090 12929130
1679.71 12501500 12118870 11782580 11463850 11160550 10827440
1682.60 10491710 10248090 9994058 9504926 9271698 9547950
1685.49 9581400 9479994 9363938 9272036 9181298 9117930
1688.38 9084258 9064322 9012372 8997522 9002576 9019580
1691.28 9031628 9058962 9054302 9039792 8998708 8949576
1694.17 8849760 8650026 8193712 8043066 8325586 8363400
1697.06 8280552 8231310 8233208 8248654 8131898 7953740
1699.95 7989592 8102518 8196618 8099032 7922326 7760844
1702.85 7665108 7603302 7547720 7593106 7690634 7709666
1705.74 7680692 7707008 7742490 7711180 7655354 7564642
1708.63 7463182 7332918 7198160 7075914 6964882 6827020
1711.53 6713040 6608808 6509786 6439314 6376746 6330132
1714.42 6252542 6251848 6377724 6434388 6362008 6133796
1717.31 6322822 6532768 6535072 6622522 6668200 6676414
1720.20 6702116 6760630 6835200 6928994 7045852 7181870
1723.10 7343242 7535890 7727608 7930378 8147942 8374054
1725.99 8597054 8836348 9101528 9392942 9691166 10016270
1728.88 10333530 10647410 11007500 11409900 11798580 12182130
1731.77 12529800 12795520 12908440 13241310 13536030 13685430
1734.67 14106550 14411030 14586060 14710360 14816810 14913940
1737.56 15057260 15238130 15474330 15718270 16148910 16817190
1740.45 17448310 18005610 18632860 19443050 20455500 21653950
1743.34 23003840 24407910 25816880 27197780 28547710 29900420
1746.24 31300760 32677140 34093810 35578320 37087190 38657660
1749.13 40357870 42201680 44127150 46116670 48413320 51060810
1752.02 53817950 56765600 59970640 63420100 67106040 71060410
1754.92 75233810 79640430 84235800 89041420 94264310 99751700
1757.81 105393300 111265700 117475300 123971000 130780100 137994700
1760.70 145575600 153419200 161979500 171118900 180525900 190438300
1763.59 200874700 211847100 223425600 235720900 248782500 262842200
1766.49 277931300 294038600 310816700 329322700 349469800 370184700
1769.38 391648400 414072900 437325500 461691100 487679300 513465200
1772.27 539605100 568000800 595691300 621654000 646247400 668692500
1775.16 688258200 705107800 718531100 727292200 731244900 730544100
1778.06 724489800 713024300 696943400 676500600 652540900 626890200
1780.95 601331100 577845200 559384800 546847900 538867900 531776200
1783.84 522432500 513443400 513524700 528916300 559631400 601476500
1786.74 648935000 696016500 738319700 772750100 797473700 812051300
1789.63 816473300 811391100 798605600 779629300 754856900 725539200
1792.52 694171300 661337600 627397900 593174100 558820000 525285900
1795.41 493233900 462792900 433775300 406571400 381308400 357878600
1798.31 336081800 315761000 297006100 279964400 264209200 249571600
1801.20 236114900 223530200 211556400 200249400 189177900 178316700
1804.09 167690900 157507400 147823200 138678900 130118300 122060500
1806.98 114308300 106851100 99692700 92822280 86216720 79932290
1809.88 73964410 68395670 63247360 58477550 54049700 49970790
1812.77 46185460 42668990 39409380 36410980 33658150 31148430
1815.66 28855540 26784530 24889310 23203170 21715930 20376740
1818.56 19179940 18120030 17167130 16331610 15600470 14969460
1821.45 14419480 13932290 13493410 13155390 12895150 12655450
1824.34 12401840 12216610 12087420 11928650 11792240 11697730
1827.23 11639860 11605090 11565150 11520270 11477710 11432790
1830.13 11449170 11456290 11410660 11353990 11272490 11177670
1833.02 11068020 10958390 10825900 10694860 10575760 10462570
1835.91 10330520 10206380 10108370 10026860 9954394 9907600
1838.80 9863924 9843990 9843522 9874444 9897248 9935810
1841.70 9987048 10060640 10128530 10161170 10136740 10305440
1844.59 10539280 10677350 10815170 10949670 11083710 11205060
1847.48 11338130 11491520 11628720 11757820 11876100 11979290
1850.38 12094040 12215240 12327230 12445550 12581630 12729480
1853.27 12871730 13017750 13169800 13313260 13469950 13631450
1856.16 13780860 13936290 14098900 14271740 14434520 14600090
1859.05 14754180 14911890 15061420 15185470 15311470 15433280
1861.95 15535030 15626590 15711460 15767050 15799520 15830440
1864.84 15831640 15799050 15746780 15699500 15631920 15539580
1867.73 15465550 15393200 15297640 15291580 15303400 15219180
1870.62 15124280 15057480 14952060 14797470 14635260 14466820
1873.52 14308590 14168490 14052250 13964290 13889800 13810520
1876.41 13712690 13581680 13425150 13235860 13029420 12791960
1879.30 12504240 12199760 11880980 11554390 11208450 10867100
1882.20 10533410 10213490 9909982 9620674 9366430 9135346
1885.09 8925070 8747558 8586966 8447616 8334312 8231364
1887.98 8148334 8077318 7990094 7948668 7941610 7941802
1890.87 7948842 7943910 7940606 7945210 7951658 7965804
1893.77 7989434 8002398 8010154 8052418 8094676 8112224
1896.66 8092516 8064188 8058402 8051688 8039968 8012284
1899.55 7972366 7924314 7865756 7806422 7714816 7602342
1902.44 7479158 7376750 7306550 7222928 7125152 7051950
1905.34 6986548 6858630 6682804 6525190 6400396 6356600
1908.23 6380286 6376666 6304498 6057296 5788070 5665334
1911.12 5614116 5570256 5504694 5416814 5310718 5201356
1914.02 5076546 4935094 4767290 4582520 4396866 4205182
1916.91 4003582 3781690 3637652 3528268 3385618 3247196
1919.80 3115708 3001204 2900240 2809274 2720582 2648160
1922.69 2581866 2544018 2513000 2472924 2435670 2408748
1925.59 2383772 2368148 2358730 2353220 2343104 2340640
1928.48 2342518 2342884 2340880 2340648 2348312 2358888
1931.37 2361168 2364796 2367654 2382364 2400768 2412728
1934.26 2432974 2451706 2468450 2497448 2526664 2548942
1937.16 2567742 2591174 2624464 2655108 2676998 2706834
1940.05 2729634 2747802 2772480 2782034 2775830 2803630
1942.94 2840874 2854710 2852880 2852058 2850220 2851840
1945.84 2848016 2845072 2845138 2835336 2819148 2816944
1948.73 2819288 2824460 2825956 2814920 2810748 2822840
1951.62 2847334 2868026 2893394 2916060 2942266 2965376
1954.51 2979800 3000688 3015832 3024284 3032246 3033456
1957.41 3032196 3033964 3022564 3002722 2983756 2957564
1960.30 2928570 2903174 2862196 2822452 2794516 2768780
1963.19 2740292 2701094 2671832 2648360 2629606 2613766
1966.08 2600866 2580442 2565240 2571564 2579694 2586640
1968.98 2582906 2589532 2610702 2637128 2672196 2700482
1971.87 2736852 2791226 2849678 2909856 2986314 3056494
1974.76 3134656 3233252 3340114 3460234 3583854 3708368
1977.66 3846042 4004338 4171852 4350466 4534756 4727220
1980.55 4942570 5151898 5354422 5573748 5789254 5994180
1983.44 6200596 6388174 6559048 6728444 6868678 6985262
1986.33 7086506 7157606 7201340 7210536 7204566 7184442
1989.23 7151130 7115494 7095152 7104846 7139816 7231054
1992.12 7385748 7566050 7728608 7832680 7841380 7711060
1995.01 7507268 7337444 7280918 7323126 7416960 7538152
1997.90 7670928 7770710 7832344 7860912 7833536 7742716
2000.80 7590488 7379778 7121320 6833848 6511562 6162644
2003.69 5813108 5471700 5143968 4834852 4541932 4281810
2006.58 4053802 3851148 3675576 3532352 3410466 3313444
2009.48 3236056 3170018 3113862 3075168 3043428 3017464
2012.37 2999540 2970280 2956758 2956610 2943054 2930188
2015.26 2936932 2940366 2926010 2925746 2923076 2915820
2018.15 2917334 2924828 2928740 2939684 2963724 2978096
2021.05 2986528 2972662 2942100 2919082 2898544 2887098
2023.94 2886502 2893660 2895796 2890268 2893976 2910660
2026.83 2916178 2918624 2933298 2939418 2932734 2933992
2029.72 2951514 2964752 2969436 2979420 2988876 2994544
2032.62 3007438 3021670 3041430 3068470 3098078 3130780
2035.51 3173468 3220272 3266268 3311224 3357932 3413200
2038.40 3477666 3555814 3636470 3726454 3820634 3920374
2041.29 4038728 4173796 4319274 4463608 4620044 4783512
2044.19 4953602 5124312 5315508 5521008 5737888 5957472
2047.08 6195024 6454464 6724484 6999236 7283112 7580824
2049.97 7885582 8198690 8532072 8881732 9226048 9571696
2052.87 9931526 10313130 10697620 11065230 11424350 11787110
2055.76 12134180 12467230 12801300 13104780 13387880 13667710
2058.65 13934280 14173750 14383170 14567320 14719680 14841380
2061.54 14948430 15049620 15122710 15170880 15232400 15322430
2064.44 15443810 15569030 15670650 15687860 15590990 15455040
2067.33 15343450 15268490 15224440 15209250 15192130 15152930
2070.22 15093610 14998480 14865870 14685000 14454450 14177900
2073.11 13847530 13463180 13038810 12576910 12093370 11587160
2076.01 11061210 10528340 9984870 9463638 8966668 8480456
2078.90 8027554 7593764 7179546 6809064 6463240 6128820
2081.79 5831914 5574212 5333420 5112096 4913900 4739130
2084.69 4583310 4430070 4286090 4177670 4082116 3987566
2087.58 3899526 3815350 3754054 3691438 3623486 3555636
2090.47 3507700 3466004 3422570 3389284 3349286 3306586
2093.36 3271144 3226704 3180980 3166554 3149108 3119770
2096.26 3102134 3085180 3066840 3061874 3040802 3018654
2099.15 3038334 3052936 3059212 3059084 3067064 3074874
2102.04 3088490 3088860 3104252 3143668 3179148 3212984
2104.93 3246966 3283208 3318092 3349068 3377896 3432336
2107.83 3484382 3527222 3570710 3602656 3639000 3676420
2110.72 3686160 3713630 3776308 3820602 3850610 3878246
2113.61 3906226 3927474 3933424 3924258 3944168 3965032
2116.51 3971300 3966450 3954534 3936548 3910926 3871774
2119.40 3858322 3873952 3883744 3893078 3902298 3927168
2122.29 3963240 3994268 3992272 3975510 3958764 3957652
2125.18 3936910 3923470 3937812 3951294 3952416 3974324
2128.08 3989194 3974540 3936414 3876838 3800700 3699544
2130.97 3581612 3468646 3342978 3215104 3090780 2956668
2133.86 2825218 2698382 2577120 2495628 2424238 2344836
2136.75 2284212 2235486 2191748 2168282 2146570 2141510
2139.65 2138966 2134330 2133666 2129062 2138918 2159764
2142.54 2174110 2183286 2200794 2226256 2244102 2256322
2145.43 2272272 2285224 2295552 2308722 2326104 2344026
2148.33 2349340 2350484 2360976 2371912 2367846 2373366
2151.22 2385382 2397672 2407422 2419030 2426208 2420530
2154.11 2419778 2446348 2473812 2491756 2497712 2504948
2157.00 2516100 2507670 2518096 2553320 2570538 2584520
2159.90 2599084 2617146 2620340 2608286 2630920 2667112
2162.79 2673900 2680296 2683780 2675936 2647330 2617436
2165.68 2631784 2640742 2634880 2621236 2611842 2584212
2168.57 2543268 2547616 2558432 2554162 2555902 2548744
2171.47 2534698 2497284 2483274 2515582 2533978 2527742
2174.36 2491480 2434930 2390632 2357700 2357630 2348328
2177.25 2333488 2315098 2291670 2252418 2183804 2155020
2180.15 2134694 2090120 2034262 1979206 1918392 1834082
2183.04 1784446 1752650 1700804 1654058 1610612 1570450
2185.93 1515332 1483328 1481126 1455478 1432432 1419744
2188.82 1395338 1355392 1346840 1357016 1350528 1348578
2191.72 1345912 1324540 1297784 1290836 1285298 1269290
2194.61 1260164 1239746 1215920 1182002 1181848 1185098
2197.50 1168344 1152442 1138072 1125462 1103456 1093810
2200.39 1098232 1101214 1101130 1103080 1101746 1106368
2203.29 1121372 1128332 1141730 1160486 1176916 1182340
2206.18 1198170 1228190 1249070 1276362 1308138 1338850
2209.07 1367240 1402320 1433360 1464424 1495210 1538730
2211.97 1579766 1624114 1673458 1701126 1729028 1764142
2214.86 1798136 1834292 1878144 1921528 1958650 1993950
2217.75 2031272 2067026 2107274 2155754 2202870 2247724
2220.64 2282106 2305950 2330654 2368154 2404310 2429682
2223.54 2459916 2494882 2545112 2592246 2626752 2660006
2226.43 2685096 2703394 2707172 2713856 2722282 2721628
2229.32 2711798 2694500 2676286 2663976 2654386 2636138
2232.21 2608900 2584174 2569872 2547974 2520748 2501470
2235.11 2482680 2458708 2426794 2405158 2379288 2350764
2238.00 2320224 2283044 2247552 2215872 2180324 2150976
2240.89 2126862 2100554 2064014 2028270 2002736 1974324
2243.79 1935072 1902482 1875902 1849962 1820672 1787562
2246.68 1766148 1740142 1709652 1691012 1677310 1666126
2249.57 1652448 1634870 1605642 1579372 1563486 1544104
2252.46 1525108 1499984 1465814 1438464 1415232 1386416
2255.36 1359350 1336726 1315744 1296398 1275128 1255678
2258.25 1244664 1237958 1231380 1225720 1218122 1215770
2261.14 1219312 1232828 1240032 1246438 1267280 1289702
2264.03 1307616 1332414 1358924 1382664 1428624 1481200
2266.93 1522996 1575994 1637690 1695754 1757894 1826846
2269.82 1907820 2000886 2107600 2223552 2345452 2474726
2272.71 2621800 2776732 2930242 3093052 3277892 3472488
2275.61 3663834 3864194 4082266 4295882 4499368 4701744
2278.50 4908100 5106682 5295370 5463150 5610802 5745244
2281.39 5877942 5987660 6079860 6139306 6170948 6189264
2284.28 6204316 6210840 6198326 6182456 6162114 6145146
2287.18 6130854 6138882 6159964 6190290 6218084 6239558
2290.07 6262244 6288628 6315508 6320680 6281302 6208768
2292.96 6163764 6162838 6156026 6108556 6041976 5941206
2295.85 5818626 5688978 5519340 5320516 5099372 4834046
2298.75 4526242 4218346 3912986 3591278 3271360 2969090
2301.64 2677152 2405626 2146102 1917882 1729508 1560498
2304.53 1404216 1273652 1158990 1071202 1002152 942576
2307.43 883700 835496 798466 764512 733044 716846
2310.32 703892 693932 675666 661938 659130 647822
2313.21 631898 629420 634286 639342 626170 620556
2316.10 634750 649826 644210 632520 628516 635302
2319.00 631518 627362 631118 645558 657764 657388
2321.89 662318 677148 680328 672124 682214 706168
2324.78 719434 717416 731248 762664 774002 771210
2327.67 799004 840596 845750 850406 886268 927152
2330.57 939330 954076 998556 1035042 1044564 1078838
2333.46 1140766 1182742 1198648 1239390 1289110 1321368
2336.35 1348160 1405500 1447516 1466192 1508918 1560856
2339.24 1589396 1614362 1656418 1693128 1700316 1712436
2342.14 1747942 1766114 1775980 1816202 1832834 1829216
2345.03 1851246 1865922 1869698 1882014 1902798 1924838
2347.92 1940252 1957740 1984590 2023370 2062100 2093474
2350.82 2134572 2164788 2192462 2232662 2263560 2290728
2353.71 2322610 2334930 2329278 2351506 2362594 2345552
2356.60 2332866 2306780 2284806 2279518 2251584 2215284
2359.49 2203954 2167098 2140830 2133780 2091120 2075760
2362.39 2077112 2045090 2040046 2029402 1999430 1993718
2365.28 1962952 1936838 1933256 1917254 1898646 1865390
2368.17 1846890 1840274 1815684 1798812 1773176 1760776
2371.06 1748368 1730848 1722460 1703968 1691900 1672076
2373.96 1648568 1613804 1578252 1545524 1514128 1491366
2376.85 1474990 1463794 1444294 1424692 1405968 1372656
2379.74 1338162 1301206 1258640 1214766 1170718 1133400
2382.64 1098092 1055752 1019816 988834 946850 915366
2385.53 898090 883150 867790 853814 844290 842618
2388.42 837898 837864 833754 834488 848400 866772
2391.31 879652 883754 885560 893616 917502 927974
2394.21 927268 932904 944848 961992 989122 1011076
2397.10 1019664 1034114 1055196 1074820 1091428 1113826
2399.99 1138922 1146916 1158326 1186008 1213110 1240236
2402.88 1265566 1284044 1312886 1334316 1357140 1379912
2405.78 1402666 1426746 1457674 1496294 1523636 1548764
2408.67 1575152 1602646 1633624 1664104 1690386 1730556
2411.56 1770562 1809092 1849348 1888928 1929162 1965896
2414.46 2014810 2066410 2120306 2181960 2241066 2302220
2417.35 2364888 2425420 2482124 2536614 2576818 2616876
2420.24 2674500 2742516 2802230 2869534 2935500 2998124
2423.13 3062408 3130068 3220210 3311534 3382508 3456900
2426.03 3542870 3630750 3713752 3801846 3891950 3974216
2428.92 4059482 4145274 4230686 4316666 4398404 4469418
2431.81 4528000 4579272 4625146 4662756 4692950 4720784
2434.70 4720692 4714138 4698432 4679994 4654778 4624770
2437.60 4594614 4564002 4544126 4541622 4536558 4527446
2440.49 4534408 4531884 4493080 4423388 4335868 4265506
2443.38 4226680 4191930 4160362 4134542 4107502 4064290
2446.28 4007832 3942890 3875492 3790414 3688798 3576032
2449.17 3449972 3319674 3178384 3030392 2880914 2741236
2452.06 2606940 2481190 2358892 2243728 2128166 2017340
2454.95 1918954 1837748 1764896 1694900 1634042 1580786
2457.85 1530360 1474306 1422464 1380844 1340562 1307070
2460.74 1280690 1261534 1232630 1213062 1190420 1155446
2463.63 1130606 1113036 1088080 1070296 1068016 1063072
2466.52 1037920 1013164 1002266 999824 994082 980446
2469.42 978652 962944 943842 938720 937448 925628
2472.31 926974 929916 923886 914522 907234 901442
2475.20 891592 887080 873698 863718 855740 854036
2478.10 844354 831052 829482 827724 823944 825696
2480.99 834494 841488 849108 855404 868382 883658
2483.88 899646 917060 932336 945060 961374 975630
2486.77 996646 1013408 1014520 1006730 995778 998802
2489.67 1004114 1010128 1015154 1012438 1004232 1017202
2492.56 1039802 1049730 1062652 1073190 1076854 1069572
2495.45 1046262 1022650 1012722 1020286 1023364 1030904
2498.34 1037072 1037674 1045824 1061766 1070556 1056556
2501.24 1036442 1022560 997094 969534 938852 905328
2504.13 879224 845162 804522 770610 732948 691770
2507.02 661190 638900 617752 597606 573754 546412
2509.92 522012 503938 496806 485784 477272 466942
2512.81 457484 455518 453742 453414 446926 437938
2515.70 440338 435792 430586 422882 423506 413312
2518.59 404706 402258 396098 394522 393292 396104
2521.49 392138 379730 375832 375850 367824 367866
2524.38 360000 343770 342488 337526 326306 321322
2527.27 322694 312214 301420 294060 282044 273622
2530.16 268174 254952 245478 249116 250460 250758
2533.06 248184 236014 216496 210618 205960 207618
2535.95 212812 212994 202984 187436 177220 173766
2538.84 175748 173640 178246 179332 177702 169910
2541.74 159992 154056 151438 159828 166968 164534
2544.63 155294 143744 141458 145668 144946 139178
2547.52 143728 139140 128920 131824 141356 138314
2550.41 138244 140122 138514 142092 134528 135252
2553.31 144720 140286 141402 145232 154312 157178
2556.20 148882 146694 141048 133284 128292 131382
2559.09 132374 141628 145036 138868 134818 145056
2561.98 143174 138482 141574 147918 158888 169274
2564.88 167482 172684 181334 185958 199596 217854
2567.77 223392 234854 249672 270860 280684 296714
2570.66 318538 337828 357468 380516 404028 420478
2573.56 445268 468986 484688 506076 536472 555204
2576.45 570862 594924 620000 652232 683208 698880
2579.34 733604 767488 779828 793104 810060 830238
2582.23 854432 879828 896920 920446 941762 957896
2585.13 966196 989664 1010312 1035002 1057806 1075344
2588.02 1091120 1092440 1082134 1083964 1092960 1095914
2590.91 1088208 1080616 1078492 1079790 1071868 1054104
2593.80 1046638 1044402 1032562 1032494 1032434 1016012
2596.70 996760 984816 978458 961748 939706 933004
2599.59 938580 937872 922862 902892 880764 852830
2602.48 834286 816790 797518 789016 778338 751022
2605.37 725382 703556 682202 663004 652984 635296
2608.27 616802 603310 596382 586740 583138 587962
2611.16 588646 586608 591416 611488 628446 631452
2614.05 645352 666238 687812 720334 741830 760512
2616.95 790234 813012 837318 862280 879606 907402
2619.84 934300 965384 991302 1000712 1015374 1040190
2622.73 1057548 1058150 1079600 1095146 1086874 1090184
2625.62 1097904 1111738 1112898 1115994 1130270 1129994
2628.52 1125942 1130080 1150104 1158666 1156028 1156110
2631.41 1165210 1171606 1166010 1167164 1166436 1173746
2634.30 1190906 1200384 1196066 1197236 1196756 1180950
2637.19 1173332 1164342 1131324 1087692 1051390 1018328
2640.09 979268 931744 893692 847292 810170 766390
2642.98 726714 694646 661178 626912 602186 574896
2645.87 547506 531648 519026 512892 507548 498856
2648.77 502126 488824 478230 481358 488674 486906
2651.66 467808 461854 470708 479866 480978 481916
2654.55 487692 478836 474014 489894 500032 501516
2657.44 507368 522870 529134 517894 513134 530506
2660.34 547456 553434 563600 574586 572686 580008
2663.23 591616 591142 600306 613870 610046 620064
2666.12 634004 637294 646364 636430 639246 655608
2669.01 660228 662510 648308 631412 630702 640020
2671.91 636792 640512 645858 640342 625452 627360
2674.80 632118 626862 609426 607886 605500 588398
2677.69 582154 575504 566690 559524 554820 554768
2680.59 544338 531168 513484 490748 491648 486552
2683.48 465988 453640 432388 413782 405182 384666
2686.37 361786 349966 342994 332310 333104 323480
2689.26 312910 300908 290678 278684 273232 274700
2692.16 272096 256724 251686 252838 252698 252314
2695.05 245544 235582 224690 213628 218184 219994
2697.94 221708 220962 212034 210894 207786 201584
2700.83 198440 196090 192608 198514 205458 203674
2703.73 201656 200068 201436 208356 210272 207128
2706.62 200576 196810 198154 211590 224416 223394
2709.51 214656 212088 212484 205828 200610 207440
2712.41 206840 202208 206304 212626 228376 227614
2715.30 221120 221378 225590 224378 217996 228838
2718.19 239302 232664 240692 247740 245926 241634
2721.08 243538 241696 238782 243164 252922 267064
2723.98 263794 263004 265440 276082 274020 267080
2726.87 288332 304414 316742 324970 332022 325394
2729.76 321822 331172 347676 361972 377368 390616
2732.65 407100 430218 459156 474978 489392 508184
2735.55 529588 553778 583240 615366 651442 680516
2738.44 700922 737316 782292 811796 846262 882462
2741.33 924818 977370 1036490 1074076 1121380 1168906
2744.23 1218390 1273894 1328352 1381300 1426242 1467846
2747.12 1508186 1545592 1576144 1603484 1628226 1655738
2750.01 1683340 1694098 1697934 1697662 1690540 1677164
2752.90 1658122 1647438 1631474 1609602 1594348 1564618
2755.80 1536774 1517314 1503052 1503576 1512554 1534324
2758.69 1557770 1588708 1616606 1662592 1721560 1762456
2761.58 1787618 1818546 1846976 1852242 1840790 1828850
2764.47 1798768 1747200 1685342 1620094 1556282 1496942
2767.37 1439070 1363722 1280454 1209558 1142996 1084538
2770.26 1041766 988300 941454 906744 858444 807414
2773.15 769990 744108 712368 676040 653034 634106
2776.05 617624 610328 599358 588518 586032 578232
2778.94 568436 580126 585850 587558 593572 604086
2781.83 600260 598376 606630 620438 625658 641974
2784.72 665872 680216 682722 685606 708588 736670
2787.62 739904 739262 740682 735396 726716 732182
2790.51 746090 738888 726922 731314 748506 756540
2793.40 758974 773870 798692 813858 820698 818068
2796.29 821132 838686 853690 861126 873460 882166
2799.19 879814 879124 889068 890828 880968 871598
2802.08 871448 860584 834846 807380 779756 735156
2804.97 702610 677200 655062 622806 584270 549134
2807.87 522714 496296 465196 430984 403304 405530
2810.76 406450 401062 403592 399652 389510 375648
2813.65 375376 382478 383606 377626 376732 381284
2816.54 383120 376142 379976 386580 388342 402774
2819.44 390782 381374 380832 369028 361668 353550
2822.33 364336 376876 380294 378274 384742 378046
2825.22 382756 385184 381902 396440 400840 405092
2828.11 404176 406032 415878 424890 424724 421774
2831.01 424426 433856 440524 450520 454760 450546
2833.90 438292 450854 465642 467204 472288 490882
2836.79 508474 513702 524572 538332 543958 563316
2839.69 563342 571836 600554 626482 638596 662078
2842.58 701274 720938 729434 751988 776776 793494
2845.47 825646 871060 905918 925098 953970 983258
2848.36 1007876 1024760 1059690 1080690 1090650 1116764
2851.26 1142190 1158328 1181644 1201734 1219472 1222316
2854.15 1222670 1223988 1237280 1245646 1255084 1285090
2857.04 1290166 1278354 1282098 1291592 1296988 1289658
2859.93 1288446 1303212 1317424 1318202 1317844 1336584
2862.83 1344834 1336620 1334070 1329008 1316654 1312776
2865.72 1304326 1300486 1298196 1293628 1279154 1254504
2868.61 1222690 1191888 1181776 1172522 1143444 1104330
2871.51 1082624 1075236 1063856 1034712 998692 966856
2874.40 951170 926226 888158 868840 859910 852918
2877.29 843250 821784 795836 780272 773228 762438
2880.18 742552 725096 717570 723458 720018 714672
2883.08 709654 698976 684570 668318 664002 657936
2885.97 651368 635736 626100 635162 630614 613982
2888.86 618956 626746 630758 633614 630952 629676
2891.75 616172 607834 606798 610912 608996 617414
2894.65 628182 624068 623120 617970 631462 635674
2897.54 636878 627610 606750 626692 645382 642792
2900.43 643828 651174 638926 627988 633736 639602
2903.32 632202 638936 655238 656356 656284 642728
2906.22 646040 670366 659778 644454 655908 657830
2909.11 664482 671510 692148 701468 681084 697030
2912.00 726926 724938 710548 711206 714684 726334
2914.90 732692 737820 741084 755598 775896 774274
2917.79 768340 781910 804218 805716 819602 836230
2920.68 854872 884096 903918 926454 934930 967046
2923.57 1005328 1031336 1049888 1074530 1099712 1126120
2926.47 1160250 1200526 1234374 1273116 1324104 1365058
2929.36 1426570 1478050 1519640 1582884 1645026 1710022
2932.25 1790796 1867260 1925412 1993672 2062108 2147608
2935.14 2252772 2337446 2441970 2566450 2679904 2809464
2938.04 2954756 3083014 3215698 3377438 3528342 3687546
2940.93 3856322 4025400 4206954 4394000 4578028 4731372
2943.82 4882358 5036478 5175572 5300492 5406136 5495878
2946.72 5559240 5630606 5667814 5671970 5688258 5690930
2949.61 5692970 5719436 5739888 5761364 5798420 5868970
2952.50 5920592 5954778 5994488 6041328 6112548 6202698
2955.39 6287158 6404174 6513796 6608574 6704604 6812090
2958.29 6893126 6924336 6944300 6963332 6956944 6901088
2961.18 6811718 6770422 6752348 6658368 6539794 6430416
2964.07 6309814 6190096 6069136 5944356 5835508 5733840
2966.96 5625986 5528356 5450914 5394830 5314454 5240642
2969.86 5181112 5137840 5091848 5051804 5023898 5002982
2972.75 4966554 4949764 4950212 4936950 4929154 4904428
2975.64 4888006 4880744 4887500 4896568 4898614 4918088
2978.54 4941430 4946302 4945414 4961650 4977030 4989414
2981.43 5026632 5046520 5072508 5101476 5110718 5146574
2984.32 5200368 5234160 5274218 5321762 5354046 5396708
2987.21 5439948 5494622 5553566 5579932 5604966 5660290
2990.11 5741068 5840498 5945960 6093744 6270338 6449040
2993.00 6679776 6937900 7022148 6934852 6809488 6742476
2995.89 6713818 6682214 6643706 6608988 6559296 6522600
2998.78 6494442 6468366 6480074 6498300 6481656 6460808
3001.68 6453034 6418468 6386204 6340778 6300752 6276162
3004.57 6249034 6218742 6208482 6235352 6253108 6249470
3007.46 6235568 6225010 6200468 6168854 6163478 6155918
3010.36 6166948 6206360 6241520 6268766 6307056 6341906
3013.25 6359520 6364896 6382132 6397550 6401550 6404484
3016.14 6421920 6467506 6531760 6601912 6667254 6740406
3019.03 6815142 6914420 7026904 7136344 7250556 7367902
3021.93 7505362 7644086 7764378 7892796 8031106 8169796
3024.82 8307590 8432778 8544076 8663456 8785168 8889258
3027.71 8977790 9064390 9143292 9234232 9284278 9327674
3030.60 9385200 9420278 9466388 9536180 9588908 9652042
3033.50 9734222 9883048 10048570 10127170 10111400 10068830
3036.39 10047040 10060230 10088750 10140390 10221240 10308880
3039.28 10374060 10435160 10492010 10550660 10603990 10661560
3042.18 10705080 10722670 10745430 10780080 10808800 10832900
3045.07 10887330 10959660 11027350 11089740 11179520 11286410
3047.96 11391470 11494100 11595400 11684570 11768860 11841980
3050.85 11908330 11984700 12042260 12100730 12171830 12199430
3053.75 12206930 12207020 12200030 12184840 12166540 12176960
3056.64 12204060 12251160 12308590 12380460 12466610 12542460
3059.53 12585730 12588450 12568560 12549170 12535250 12520220
3062.42 12563780 12642670 12706570 12739090 12780200 12856980
3065.32 12924340 12923370 12889720 12830320 12729690 12599980
3068.21 12453650 12277460 12086720 11877050 11666290 11458220
3071.10 11210700 10970680 10750540 10557930 10377300 10203720
3074.00 10040240 9895166 9775476 9684762 9581454 9486172
3076.89 9411612 9336486 9282988 9277716 9273916 9281760
3079.78 9294486 9306302 9365384 9452980 9562304 9698066
3082.67 9852814 10059000 10279910 10541910 10847410 11190820
3085.57 11584160 12032760 12538330 13095870 13728440 14453970
3088.46 15227670 16040740 16925220 17851250 18810990 19783590
3091.35 20747040 21682930 22612020 23490020 24301080 24968900
3094.24 25489480 25896680 26125420 26133410 25962650 25635820
3097.14 25130700 24472820 23829820 23299520 22943150 22874910
3100.03 23149190 23820860 24846880 26001550 26819550 26709200
3102.92 25215510 22804300 21013670 20618190 21212930 22264850
3105.82 23434550 24528560 25441670 26099820 26442630 26461400
3108.71 26154410 25566410 24721560 23652400 22449130 21153570
3111.60 19768490 18408190 17091510 15803460 14626810 13563190
3114.49 12629570 11836300 11180110 10682030 10309900 10060280
3117.39 9954060 9974886 10092320 10312450 10622030 10986090
3120.28 11373490 11786450 12235950 12706270 13158600 13589370
3123.17 13941860 14215060 14419450 14502670 14460440 14334900
3126.06 14109770 13770420 13323150 12853300 12433180 12083800
3128.96 11880250 11932240 12264610 12702670 12834120 12479680
3131.85 11923430 11522290 11324580 11335460 11576980 12002260
3134.74 12515440 13024520 13480760 13862690 14138570 14297320
3137.64 14311920 14184380 13947720 13581690 13092630 12529190
3140.53 11935560 11295290 10618700 9937014 9272344 8633596
3143.42 8010510 7441496 6909324 6394486 5918670 5486034
3146.31 5097966 4753342 4448626 4171652 3929548 3702224
3149.21 3498884 3316862 3163134 3022778 2865042 2727614
3152.10 2599914 2476794 2369884 2281358 2173506 2080976
3154.99 2014144 1932968 1856248 1801834 1744512 1657782
3157.88 1599238 1541904 1483384 1435830 1383608 1323342
3160.78 1294266 1273040 1242370 1201722 1161530 1123092
3163.67 1100524 1078230 1041854 1008168 981738 958120
3166.56 941186 919596 910382 886954 847200 829852
3169.46 808760 784656 758390 739630 737932 726110
3172.35 700094 686954 686990 676402 673060 658426
3175.24 657024 674470 668468 650236 635966 627510
3178.13 628256 630946 611864 589464 589262 594630
3181.03 576740 568026 574828 579734 567960 572892
3183.92 582008 571492 563210 556866 546630 548432
3186.81 547490 526788 534488 550064 546106 531826
3189.70 525782 532142 545536 549304 561332 557938
3192.60 558934 561014 573732 572082 556842 571716
3195.49 579064 573620 567056 562922 550140 535564
3198.38 514104 501604 508806 505840 499552 498726
3201.27 485310 461788 463730 470936 453016 428324
3204.17 418936 412562 404898 413424 421492 410548
3207.06 401188 400654 399778 393158 376294 363066
3209.95 359330 342344 343182 344868 339240 326214
3212.85 325068 306128 289884 293878 308264 315272
3215.74 309694 294218 288422 307060 295602 267526
3218.63 259766 257616 255900 246704 232612 229986
3221.52 226590 221048 221174 207936 199632 201724
3224.42 194418 181282 170516 166352 160630 157476
3227.31 153256 156568 161352 137376 122752 124538
3230.20 133520 113702 94706 97746 108476 122768
3233.09 103204 98780 99570 93290 88392 67850
3235.99 49248 71764 77340 77116 72012 60492
3238.88 41470 29700 27220 34046 43450 28802
3241.77 20628 27502 32654 15856 454 6440
3244.67 19250 32168 30092 24472 8570-3178
3247.56-7536-5226-594 5574-2524-22052
3250.45-12504 9634 3912 3646 9464 9738
3253.34 3226 11100 25648 34620 18576 7672
3256.24 20808 15508 11662 5834 2094-16768
3259.13-16406 5412 3294-8126-15696-7110
3262.02 3984-442-7460-7496-4770-4932
3264.91-8206-16910-24598-30472-13462-5840
3267.81-11856-31510-46386-33868-17778-20930
3270.70-21198-29478-43042-42054-47328-42224
3273.59-39168-51346-42886-13896-13790-51810
3276.49-73954-79242-88212-90330-80276-72148
3279.38-80792-81346-68690-56150-45794-48162
3282.27-56778-46236-44092-42200-36062-22934
3285.16-15548-17310-31832-37648-10710 1926
3288.06 16946 27610 8064-3624-17648 4612
3290.95 36150 40042 32160 29348 32430 36942
3293.84 31894 34660 26032 22692 25158 29508
3296.73 35122 40332 45528 42304 38324 29616
3299.63 26364 40806 36828 24506 25840 34292
3302.52 31618 38726 43132 31978-2332-14274
3305.41-1430-16176-49580-71482-81170-87020
3308.31-108936-136044-149066-161682-155864-155128
3311.20-158814-163280-192016-196144-199740-228370
3314.09-244510-234952-228218-250752-266950-277446
3316.98-297898-319376-300720-277712-265024-250354
3319.88-255540-248888-253368-253346-265364-282968
3322.77-287496-261354-243510-240440-236470-244496
3325.66-255488-254502-238298-223968-194034-192888
3328.55-210680-198458-178980-151486-136742-128046
3331.45-119290-129454-129818-115004-100876-89206
3334.34-89928-90004-93018-70688-56376-53522
3337.23-57696-57558-49332-32808-30240-20640
3340.13-296-4814-21876-3602 870-12580
3343.02-9660 448 10176 8632 16658 27698
3345.91 22862 33204 37414 13336 7228 24026
3348.80 26434 13044 1732 10458 16560 4740
3351.70-10244-31130-47326-44130-32596-29126
3354.59-55910-45708-16504-27806-54854-74114
3357.48-75954-64424-65978-79592-74960-75592
3360.37-82740-79868-79404-78296-61986-60778
3363.27-82276-100660-113830-102968-91496-84990
3366.16-80962-83538-72348-79956-96022-86586
3369.05-70860-62898-78904-77140-58440-61372
3371.95-83978-85846-94172-71560-65284-66564
3374.84-74598-70266-50158-50844-52672-36492
3377.73-25926-30398-30784-13890-17798-12842
3380.62-10224-32678-41900-40012-42114-44884
3383.52-13538-2530-11612-20970-7968-12046
3386.41-20560-10192-10660-13034 888-21406
3389.30-35268-33376-11770 6174 21206 1096
3392.19-30396-3974 16242 4550 7930-6144
3395.09-20070-34602-53648-51942-41058-31020
3397.98-25948-29158-47260-59742-51848-62964
3400.87-79724-63006-50752-38160-51084-87084
3403.77-78280-66722-93326-116658-102382-101036
3406.66-102194-78888-88308-78166-72690-98648
3409.55-93624-84456-81066-75378-95112-94188
3412.44-73272-63902-83234-91300-63602-48242
3415.34-48120-54002-62564-49212-51360-75882
3418.23-71968-33220-1766-23370-57766-73194
3421.12-70340-68580-46860-46594-36452-28574
3424.01-37048-26614-33390-39154-28164-38268
3426.91-23212 3532-3652-25090-19638-20586
3429.80-21784-27298-33058-13612-9694-17348
3432.69-774-6100-29304-18372-4944-15052
3435.59-10656-11358-12994-16210-1422-10704
3438.48-34982-38112 1074 2852-4160-10792
3441.37-28928-17364-6566-5324 6340 20068
3444.26 40634 34334 31754 49660 48666 29740
3447.16 35270 34582 37390 39650 25654 15634
3450.05 31390 59282 71308 78768 88320 100380
3452.94 103798 103060 101612 103024 124068 127048
3455.83 137196 134338 133062 129378 120938 106722
3458.73 100716 113940 119072 120876 90436 73346
3461.62 87478 97774 90312 79192 75850 88618
3464.51 110268 109734 94360 85788 81092 88688
3467.40 105256 104318 109348 110026 101954 90136
3470.30 94768 112036 97898 84676 114864 133774
3473.19 103374 55008 25640 21450 32408 32496
3476.08 25082 29190 19284-7684-32850 5492
3478.98 17380-10546-28506-32876-26202-32024
3481.87-42448-38646-17438-8330-30666-69262
3484.76-93680-89016-72408-71456-66796-70612
3487.65-77096-93310-91832-81138-92618-102370
3490.55-80358-82438-93436-89232-66028-65008
3493.44-65790-71024-84880-79726-67280-83914
3496.33-87778-73644-66592-54854-44314-37230
3499.22-31438-31160-27702-33188-33134-14206
3502.12-6536-13504-18624-25838-26060-17676
3505.01 106 29754 63298 68400 66216 80010
3507.90 110206 115954 113986 159586 186990 200256
3510.80 222526 227360 252314 313138 332964 334094
3513.69 364620 412954 438422 481802 525868 544686
3516.58 594110 631910 659770 717180 787278 873114
3519.47 921574 974042 1033770 1101966 1175384 1242548
3522.37 1309132 1385292 1482014 1599710 1706656 1783516
3525.26 1879174 2019740 2128124 2236418 2390562 2562004
3528.15 2706916 2848858 3028304 3221228 3420548 3603364
3531.04 3786042 3998242 4224184 4466132 4711006 4970542
3533.94 5224694 5492386 5747424 6017534 6285996 6563388
3536.83 6856148 7112890 7335708 7577984 7801708 7982940
3539.72 8142122 8283862 8400774 8469648 8510480 8512898
3542.62 8481038 8400596 8291672 8186946 8076260 7940028
3545.51 7790868 7651346 7525582 7463426 7423508 7366006
3548.40 7330856 7344934 7420246 7591364 7823506 8110266
3551.29 8422156 8757300 9085628 9340346 9515448 9632460
3554.19 9669588 9572512 9369878 9104618 8782278 8422686
3557.08 8023218 7600244 7199110 6810252 6387966 5946820
3559.97 5546576 5193556 4868496 4551812 4234988 3946962
3562.86 3685034 3477776 3294994 3090584 2869538 2650802
3565.76 2469736 2313268 2195972 2036356 1872466 1804186
3568.65 1722218 1599360 1468756 1342902 1235560 1133784
3571.54 1015222 921832 849872 777842 704842 633042
3574.44 539386 460114 414666 358956 282694 231682
3577.33 203250 174264 146750 104146 53182 22954
3580.22 11624-5874-6338-9596-36596-59040
3583.11-63098-56614-73072-91678-103784-149196
3586.01-231300-222612-178852-179218-222792-237158
3588.90-172558-162800-164734-172518-180824-174652
3591.79-179896-207622-217458-207656-195434-212432
3594.68-253552-238522-211030-207784-219130-235212
3597.58-237324-233802-230272-246622-260712-273118
3600.47-284212-273478-260756-275348-283818-305244
3603.36-300872-287604-289410-286766-290050-330510
3606.26-364834-378500-337636-315170-374258-492636
3609.15-413500-308870-311716-335228-338462-363772
3612.04-415424-364776-314458-320768-364596-382040
3614.93-357702-334282-333828-327970-366346-399606
3617.83-350196-341504-439802-481504-366156-308448
3620.72-305694-317620-319934-315004-301820-295282
3623.61-286906-304948-288940-271558-283532-293182
3626.50-282132-286424-405404-510528-445212-538532
3629.40-491216-300254-253012-241832-244966-252388
3632.29-254664-252072-271998-262592-250454-260738
3635.18-246266-229712-232336-239734-258706-262940
3638.08-265076-244312-219100-205804-205926-201766
3640.97-207212-216254-225666-228488-233766-216908
3643.86-215778-208396-207746-226076-259342-277292
3646.75-320164-297180-246740-353144-538120-438326
3649.65-289778-320452-338526-308560-244196-230824
3652.54-229164-238912-229990-225084-239740-259886
3655.43-343854-400254-294228-227066-200624-202354
3658.32-196098-202470-224138-224794-218014-220552
3661.22-221210-215432-197464-203160-205200-183546
3664.11-184118-195746-205708-203126-208330-211942
3667.00-213388-234904-317292-351778-288350-281452
3669.90-445370-558356-335690-226218-226006-240982
3672.79-220330-232366-273634-398892-430124-494670
3675.68-532932-317076-243920-251238-240304-230254
3678.57-267060-296112-247612-234252-227368-216788
3681.47-216452-233512-240450-240674-240938-265986
3684.36-258208-246548-245732-239970-230278-267580
3687.25-350088-617604-626744-358378-283024-277688
3690.14-318288-390878-366760-266956-271392-274610
3693.04-258938-246850-263748-268732-265968-255488
3695.93-275464-273814-254234-258028-266394-255528
3698.82-257792-258482-257058-261372-294358-351420
3701.72-305626-249384-254970-262596-271296-274640
3704.61-264350-259670-272118-261280-243320-240406
3707.50-257320-270344-341108-398586-322758-266800
3710.39-270794-304102-450046-506024-323928-231366
3713.29-234100-234264-241704-244162-238500-235638
3716.18-240170-252462-263932-258782-254650-257580
3719.07-241470-235224-228812-228616-262864-325516
3721.96-314378-253720-236816-232348-231822-248516
3724.86-245244-244532-305886-325634-265308-247884
3727.75-243412-237430-220380-217658-223298-226472
3730.64-231062-320588-478138-395894-261882-253060
3733.54-277778-340240-367334-330314-301912-421112
3736.43-452336-296394-252768-285618-268496-245288
3739.32-246430-245706-253544-278404-256334-253694
3742.21-258798-287272-410758-674830-879128-616436
3745.11-320414-260100-243356-243378-261100-279412
3748.00-304598-506606-706516-485556-292030-275548
3750.89-316820-574610-722264-422940-266186-268358
3753.78-262654-252860-260840-252038-283500-302568
3756.68-272122-249658-242356-254296-273034-321304
3759.57-335590-265082-242524-236026-231424-226930
3762.46-223486-229918-240320-257612-261402-268586
3765.35-308102-247682-208274-225140-231654-221572
3768.25-238328-266812-351546-340044-256716-243692
3771.14-238894-223976-219918-215288-213278-226322
3774.03-238980-226682-222330-226034-239256-246276
3776.93-232944-209502-207356-239162-318600-314938
3779.82-251838-231564-231408-225338-222166-237306
3782.71-247458-252912-258620-262752-267704-254446
3785.60-226804-242382-235542-227584-228300-216456
3788.50-228818-235506-248458-251818-219670-209240
3791.39-212712-214732-215722-217594-215364-229700
3794.28-239312-248776-246812-289192-281228-240964
3797.17-237578-240918-238856-237790-243348-262806
3800.07-305406-504732-640766-392090-266176-272666
3802.96-247770-205028-195784-200900-187104-202130
3805.85-282566-495160-478682-280188-234600-214528
3808.75-210854-198700-216426-210344-198060-204780
3811.64-200812-178380-190288-199696-222462-229942
3814.53-209276-324332-606006-473734-226332-191546
3817.42-190290-204906-205028-203916-212994-285916
3820.32-352130-348324-386384-286496-204322-195576
3823.21-179140-174726-172410-171828-180918-193394
3826.10-234106-226512-174390-171814-173188-167204
3828.99-159254-166362-167832-188994-268910-296946
3831.89-201712-173318-159550-170768-199866-286274
3834.78-254088-167128-148008-182982-285246-553772
3837.67-514702-230002-160006-155918-184698-202738
3840.57-238812-187908-136278-131446-164104-215920
3843.46-222854-169490-152888-135546-127374-130138
3846.35-141352-148854-151982-139980-131426-129410
3849.24-136658-140678-154438-181830-381466-531914
3852.14-304462-197684-410212-759614-663812-304168
3855.03-162330-132156-133770-157682-163766-118448
3857.92-123486-128598-119376-134438-140900-115128
3860.81-157046-213390-176466-146624-135562-121376
3863.71-148222-238030-307704-178574-103864-104674
3866.60-123340-112570-111754-118170-187616-266594
3869.49-386732-320590-150018-114980-104198-92458
3872.39-99414-118126-145406-177352-142470-86686
3875.28-76208-88822-105560-111188-94580-76570
3878.17-63494-78036-121356-184670-148226-94574
3881.06-78466-78812-77540-75336-57948-54096
3883.96-76474-94786-216744-266694-140608-75388
3886.85-58518-41324-27294-21048-34662-34080
3889.74-32912-75926-178050-140642-40228-21154
3892.63-11252-15872-31936-16158-5314-22820
3895.53-5960 11654-18834-18082-24190-42412
3898.42-98886-168166-78364 360 11500-45638
3901.31-133780-83482-10598-11340-65218-145154
3904.21-71118-4942-23094-29044 13220 53938
3907.10 71248 59800 48210 37294 40184 30098
3909.99 28330 53800 62124 41652 39776 40298
3912.88 57628 78646 63004 50662 62174 56350
3915.78 52394 43202-8436 12834 48550 61402
3918.67 86314 75596 59078 71942 70688 74060
3921.56 77940 77148 67838 62864 62774 54612
3924.45 50146 62266 62940 62418 80376 72024
3927.35 54080 65704 77928 59392 64404 57150
3930.24 56808 76006 71658 45778 35208 68226
3933.13 77316 75692 77530 59610 73604 91286
3936.03 99678 105768 100614 90094 90350 82430
3938.92 80792 91424 83910 64306 87752 114100
3941.81 65892 35578 45200 80234 102224 108742
3944.70 104224 111422 112240 118886 102370 98504
3947.60 110262 127206 132822 111060 95224 114670
3950.49 140104 154548 157698 153254 146748 172320
3953.38 194074 199414 194854 185326 198918 236224
3956.27 251954 242526 236186 235984 235702 247054
3959.17 257882 255680 257462 274980 283300 301446
3962.06 327310 343330 367124 380058 381686 398042
3964.95 401248 413390 451032 480794 504674 504692
3967.85 504344 504892 523640 546248 556188 558124
3970.74 564498 565880 567448 581642 593318 602358
3973.63 603524 625570 634012
##END=
