##TITLE=Vinyl Acetate
##JCAMP-DX=4.24
##DATA TYPE=INFRARED SPECTRUM
##CLASS=IUPAC A
##ORIGIN=NIST, Anayltical Chemistry Division, 301-975-3108
##OWNER=COPYRIGHT (C) 1998 by the U.S. Secretary of Commerce
##DATE=98/10/1
##$SPECTRA VERSION=1.00
##$UNCERTAINTY IN Y=2.1 % relative (B=1.1E-04,C=7.7E-10,D=2.7E-14)
##CAS NAME=Ethenyl Ester-Acetic Acid
##CAS REGISTRY NO=108-05-4
##MOLFORM=C H3 C O2 C H: C H2
##MP=-93.2 C
##BP=72.2 C
##$NIST SOURCE=QUANT-IR
##SPECTROMETER/DATA SYSTEM=IFS66V (Bruker)
##INSTRUMENT PARAMETERS=KBr Beam splitter; MCT Detector; Multipass cell
##STATE=gas
##SAMPLE DESCRIPTION=Vinyl Acetate Primary Gas Standard
##PRESSURE=101.3 kPa
##TEMPERATURE=23 C
##SAMPLING PROCEDURE=1 L/min Flow
##RESOLUTION=1.9290
##DATA PROCESSING=NB Strong Apodization
##XUNITS=cm-1
##YUNITS=(micromol/mol)-1m-1 (base 10)
##XFACTOR=1.0
##YFACTOR=18.189E-13
##DELTAX=0.9645
##FIRSTX=574.687
##LASTX=3974.595
##FIRSTY=.0000105
##MAXX=3973.63
##MINX=574.69
##MAXY=.0027611
##MINY=-1.10E-06
##NPOINTS=3527
##XYDATA=(X++(Y..Y))
574.69 5818144 6353230 6984612 7526214 7902600 8433308
579.51 9033186 9567008 10037130 10499010 10999280 11464130
585.29 12409660 14063890 15099530 15721670 16957080 18739860
591.08 20311540 20621380 20273410 19526110 18482750 17493220
596.86 16800450 16198910 15903820 15795410 15840210 15936000
602.65 16079140 16265390 16543640 16809240 17161990 17560150
608.44 17892190 18163960 18451510 18690200 18878100 18921910
614.22 18951450 18942800 18832760 18778120 18816020 18867840
620.01 19085600 19454150 19949890 20556830 21357180 22232340
625.79 23096570 23902530 24622290 25085260 25356030 25303290
631.58 24901640 24242870 23609680 23166840 23012490 23176810
637.36 23436980 23153080 22859760 22872480 22958100 22929880
643.15 22652470 22177890 21505230 20568760 19551090 18455600
648.93 17363090 16253110 15201270 14141630 13179280 12263480
654.72 11454990 10734280 10038500 9308894 8618422 7931720
660.50 7299608 6688766 6136846 5609422 5104402 4626820
666.29 4248812 3896140 3593218 3303576 3080880 2919184
672.08 2814778 2681470 2611106 2565874 2535720 2555158
677.86 2625276 2674100 2742350 2806392 2927764 3026002
683.65 3174662 3316104 3474342 3626708 3777250 3920244
689.43 4099078 4260190 4439678 4655846 4896478 5060704
695.22 5226600 5413574 5684172 5851568 5777656 5710254
701.00 5713446 5737822 5840066 5907026 5911246 5928676
706.79 5963548 5962918 6037060 6150802 6324664 6529344
712.57 6654314 6637662 6620472 6557698 6379464 6142320
718.36 5877976 5586506 5280398 5009114 4836064 4696370
724.14 4607740 4521852 4414156 4263414 4154202 4047498
729.93 3963672 3874270 3792756 3693740 3619146 3543608
735.71 3456252 3360400 3295904 3223704 3165478 3092506
741.50 3077978 3078772 3083612 3051494 3060052 3083916
747.29 3119868 3152870 3203276 3226844 3267144 3283974
753.07 3322640 3358212 3430752 3477208 3531454 3564058
758.86 3647222 3753300 3858880 3937510 4051022 4144406
764.64 4261334 4389656 4557600 4696082 4828446 4937004
770.43 5076076 5179788 5286266 5349806 5397008 5418942
776.21 5439988 5411190 5377216 5325134 5308550 5295162
782.00 5300866 5277844 5263980 5230546 5212764 5171224
787.78 5146796 5091714 5044290 5001720 4961364 4902870
793.57 4883186 4881534 4910390 4919022 4937714 4931370
799.35 4988992 5043090 5105562 5175014 5265830 5322226
805.14 5418902 5504098 5624584 5743512 5915952 6110526
810.93 6372310 6641776 6938698 7244298 7578756 7892524
816.71 8271624 8653840 9079320 9497900 10004270 10550630
822.50 11205400 11886450 12706320 13589580 14564070 15632780
828.28 16840760 18159360 19728220 21457970 23416110 25598150
834.07 28055850 30756080 33719440 36699130 39642480 42347030
839.85 44707550 46507160 47806000 48658190 49560970 51172830
845.64 53385140 55160780 56895970 59268600 62660500 66852640
851.42 71458420 76036270 80281940 83741980 86226950 87463180
857.21 87735840 87280290 86538890 85648140 84802320 83935450
862.99 83640500 84168800 86388100 90489050 97438960 110680500
868.78 136323400 158435900 157079900 143910900 130555900 119072300
874.57 108558900 99813010 93501440 89370120 86689290 84779610
880.35 83067240 81435220 79650900 77670180 75423720 72846780
886.14 69781990 66371200 62612730 58662630 54659380 50559540
891.92 46392620 42185730 38093520 34234820 30621590 27250710
897.71 24190880 21431030 18976050 16804340 14915240 13292250
903.49 11903380 10713500 9746294 8924488 8295292 7818130
909.28 7483774 7255210 7166498 7165622 7297484 7534968
915.06 7907710 8381422 8983856 9668176 10496750 11435690
920.85 12546730 13780900 15193130 16736720 18481070 20355970
926.63 22427640 24606970 26920760 29257290 31634870 33944810
932.42 36194840 38292920 40284220 42097430 43855570 45605440
938.21 47582200 49772320 52273610 54960240 57886320 60853160
943.99 63682380 65941620 67824880 69114310 70078870 70937980
949.78 72003620 73245300 75370940 78178760 81933490 84894400
955.56 85665340 83162740 76850170 66610200 59087490 57801860
961.35 58313120 59619200 61065190 62668600 64298870 65948900
967.13 67140940 67810980 67642830 66558340 64570440 62125100
972.92 59775930 58367580 58022320 57106990 55242820 53734940
978.70 52812280 53517490 55286940 56941450 57493120 56724850
984.49 54724920 51775500 48187800 44624620 41492730 38993730
990.27 37202540 36160200 35844440 36198950 37084570 38494580
996.06 40357850 42608090 45251940 48316260 51824860 55814870
1001.85 60312670 65358810 71034100 77372330 84349010 91973220
1007.63 100427600 109663600 119568400 129973400 140804400 151566800
1013.42 161902200 171279600 179315800 185455800 189489100 191298200
1019.20 191379800 190096400 188857900 188431400 187968700 188111700
1024.99 189992700 184559400 175148600 172640600 171966400 169056200
1030.77 163244700 154304400 142743500 129691000 115883400 102250600
1036.56 89558980 78718100 69629690 62253440 56313630 51726930
1042.34 48105140 45349430 43247700 41921940 41352000 41640250
1048.13 41392850 39847380 38548590 37794280 37119810 36494910
1053.91 35879010 35339240 34902710 34563890 34240960 33960850
1059.70 33714980 33505320 33273200 33052840 32766020 32452880
1065.48 32112720 31728000 31269760 30829330 30352350 29868240
1071.27 29358290 28902850 28438930 28001470 27522510 27022600
1077.06 26496260 26004380 25484190 24990640 24504970 23999390
1082.84 23450390 22895500 22329120 21801910 21283510 20821750
1088.63 20337770 19874040 19430400 19001680 18543130 18112460
1094.41 17694450 17332370 17016630 16763850 16537220 16362400
1100.20 16224860 16148420 16087480 16082230 16120230 16203030
1105.98 16294180 16422240 16569370 16772200 16973650 17251240
1111.77 17589890 18009500 18499500 19091250 19800850 20720630
1117.55 21836300 23203320 24828420 26778520 29058890 31849650
1123.34 35119430 39148660 44277860 50983580 59903320 71980480
1129.12 88207260 109589200 136621000 169324400 207549900 251867500
1134.91 301488800 353914600 405182400 450859600 486067200 507208500
1140.70 512005900 501091700 480707200 462890000 460219600 478556700
1146.48 507099100 521938500 507238600 482447900 481618100 507806800
1152.27 535035400 539702800 517330000 471932400 411125200 342683200
1158.05 274931900 213314800 161216400 119820800 88912600 66831840
1163.84 51824460 41897480 35601430 31573020 29121470 27527440
1169.62 26607020 26010810 25791270 25758200 26044940 26501690
1175.41 27131940 27839210 28835300 30028790 31550530 33213470
1181.19 35161290 37306080 39776680 42371010 45212840 48167160
1186.98 51322240 54561280 58104400 61873880 66229620 71340970
1192.76 77731370 85673730 95836900 108323300 122776600 139242500
1198.55 159858900 185439500 215641600 250042900 289186800 333216800
1204.34 382775600 438401300 500936100 570995500 649049100 735043100
1210.12 829536300 931372800 1037835000 1144073000 1245988000 1337173000
1215.91 1412260000 1467935000 1502230000 1514444000 1509672000 1497993000
1221.69 1487326000 1489097000 1515372000 1517982000 1463549000 1413942000
1227.48 1405034000 1421268000 1426656000 1396653000 1320286000 1201143000
1233.26 1053120000 894263000 739185500 599786400 482471000 389479400
1239.05 319148200 268157600 232009000 206858700 188945900 175586400
1244.83 164546100 154884400 145904000 137888500 131157500 126917200
1250.62 125291600 123697200 118451200 111685300 107752200 107383900
1256.40 108486300 108845600 106814400 101953100 94633880 85744770
1262.19 76186490 66978810 58638550 51612250 45847130 41304660
1267.98 37773100 35146840 33137970 31640540 30537030 29945900
1273.76 29758600 29962250 30488170 31514930 33182490 35676790
1279.55 38985870 43198090 48294660 54332790 61114770 68380480
1285.33 75632350 82214870 87369630 90893030 92561610 92805300
1291.12 92478640 92832710 94088060 94812340 95058130 94704220
1296.90 94127300 93896590 93865580 93877050 93408800 91982110
1302.69 88982650 84220000 77839820 70362850 62327380 54300950
1308.47 46714260 39911320 33992220 29022060 24897380 21571530
1314.26 18877760 16714840 14944280 13539050 12367780 11428890
1320.04 10619960 9941322 9354940 8879340 8442534 8100090
1325.83 7787126 7541480 7309442 7147236 7003058 6919228
1331.61 6844964 6812310 6777210 6790488 6809542 6886920
1337.40 6963100 7110480 7296784 7580316 7926098 8369512
1343.19 8840952 9436066 10154060 11028890 12031380 13256090
1348.97 14668080 16354950 18354980 20791120 23671660 27173190
1354.76 31385810 36470780 42492680 49761020 58380980 68487180
1360.54 80042190 93019340 107048100 121751600 136463700 150662200
1366.33 163553000 174370100 182765300 189108400 193734100 199401200
1372.11 209268300 219437400 220361100 218068500 220916500 228201100
1377.90 237321200 244468200 246575700 242584500 233181900 219480500
1383.68 203252300 185877100 169053400 154204700 140419400 126738000
1389.47 113598100 101587300 91454720 82930650 75246930 67921200
1395.25 60888150 54113630 47776150 41975010 36879680 32439390
1401.04 28602230 25338410 22655070 20497880 18871330 17626490
1406.83 16678060 15984990 15522120 15218020 15067180 15029250
1412.61 15089320 15202170 15349580 15519210 15720380 15876820
1418.40 16005440 16300750 16596030 16813630 17036520 17307320
1424.18 17700540 18163750 18708660 19330410 20034310 20770310
1429.97 21343950 21667290 21893730 22055900 22160330 22037140
1435.75 21655960 21261010 20762410 20259260 19869370 19612670
1441.54 19576390 19679950 19824780 19953700 19963440 19819790
1447.32 19589060 19313330 18962140 18574440 18158170 17714330
1453.11 17278810 16870270 16355470 15877430 15678030 15404950
1458.89 15034130 14585280 14173210 13816030 13471220 13139410
1464.68 12949600 12801900 12633840 12487880 12356430 12214120
1470.47 12025590 11881420 11803270 11760660 11673070 11510110
1476.25 11430610 11350720 11244590 11102250 10944980 10783180
1482.04 10647590 10521440 10389390 10230550 10064250 9930140
1487.82 9798136 9604026 9464054 9371888 9277330 9156144
1493.61 9046880 8869370 8744452 8755926 8672538 8606328
1499.39 8603524 8564542 8516884 8427480 8313624 8085936
1505.18 7914310 7873108 7981216 8032026 8027248 8003364
1510.96 7940310 7897140 7876482 7803330 7731420 7628422
1516.75 7580326 7553960 7438872 7206220 7075480 7091662
1522.53 7082960 7004032 6878076 6833252 6784530 6713758
1528.32 6661958 6603242 6520922 6424208 6296570 6222788
1534.11 6236826 6204714 6147734 5977460 5744902 5712774
1539.89 5810652 5829488 5915446 6032394 6058110 6148286
1545.68 6314646 6446098 6585008 6722284 6912288 7144466
1551.46 7362694 7515388 7659316 7963954 8220926 8305744
1557.25 8360068 8571026 8799898 9149634 9439480 9581788
1563.03 9695184 9740198 9826396 9932484 10141330 10231730
1568.82 10183130 10329430 10559860 10787600 11022590 11206610
1574.60 11209590 11301890 11619630 11754810 11821550 11853600
1580.39 11892380 11901900 11918550 11933190 12008860 12080420
1586.17 12154010 12183090 12221970 12230560 12258330 12280130
1591.96 12317840 12332680 12364230 12387830 12425360 12434560
1597.74 12465870 12471570 12508530 12579390 12733140 12930380
1603.53 13188410 13412990 13668270 13962980 14303630 14626240
1609.32 15037880 15502800 16064700 16664540 17279950 17897190
1615.10 18525590 19221420 20130220 20892150 21593640 22145010
1620.89 22636990 23038210 23586290 24285790 25027520 25532770
1626.67 26023870 27035740 28824330 31172260 33859300 36683990
1632.46 40477540 45614010 52377470 61190920 72309850 85861530
1638.24 102276800 121350500 143062300 166633500 191155700 214629400
1644.03 234154700 246368700 251427200 247847100 237333700 226027500
1649.81 225975700 247785300 279151400 273658000 233956800 218153900
1655.60 234976100 262570300 283740900 290650300 281134800 257654900
1661.38 224578700 187688800 151318100 118619000 91477140 70452220
1667.17 54867500 43808740 36126990 30765500 26803770 23853870
1672.96 21414060 19344030 17637750 16298040 15027160 13939850
1678.74 12953140 12158200 11461660 10842820 10217750 9668890
1684.53 9473148 9465076 9268720 9147864 9045320 9023044
1690.31 9010598 9053604 9015100 8915630 8551528 8260126
1696.10 8278056 8264152 8177882 8061110 8076076 8043490
1701.88 7792972 7630372 7614704 7689902 7703750 7692144
1707.67 7545402 7334646 7074026 6841926 6611072 6453526
1713.45 6323716 6316836 6344906 6316878 6447276 6610772
1719.24 6679228 6779626 6941252 7204404 7537470 7943432
1725.02 8372460 8857618 9399742 10019140 10671070 11411680
1730.81 12147730 12743490 13230420 13784080 14326120 14698400
1736.60 14935230 15276890 15835080 16826110 18050350 19592190
1742.38 21756370 24416770 27177590 29922990 32700090 35610380
1748.17 38744410 42272670 46316040 51188820 56945210 63603200
1753.95 71231830 79793140 89303270 99895820 111495300 124215800
1759.74 138262900 153874400 171394800 190828600 212304000 236321500
1765.52 263595600 294739700 330401400 370763100 414749400 462589000
1771.31 513907700 567720200 620473200 666649200 702474400 723721900
1777.09 726630500 709482100 674010300 626983000 581341100 549901800
1782.88 530947600 519882800 539789200 605633200 692610000 765673300
1788.66 804528100 805579700 775404500 723742800 660559700 593191800
1794.45 526300600 463948200 407978200 359115700 316932300 280968600
1800.24 250398600 224034000 200474300 178520800 157873600 139102400
1806.02 122310700 107076500 93026440 80185640 68696560 58744230
1811.81 50190120 42867960 36592090 31318940 26922760 23350380
1817.59 20479500 18209600 16406810 15033840 13973970 13211560
1823.38 12658100 12251330 11938730 11726660 11602470 11523800
1829.16 11457300 11431780 11335390 11171290 10944720 10703990
1834.95 10452680 10224850 10033700 9918744 9856934 9880062
1840.73 9943450 10058010 10152420 10350690 10662920 10949270
1846.52 11210110 11486810 11748120 11984970 12211260 12457780
1852.30 12727390 13021760 13317270 13629020 13939790 14270250
1858.09 14593560 14906780 15180650 15423660 15616170 15753610
1863.88 15809380 15787570 15685190 15546770 15392540 15300620
1869.66 15203520 15037670 14785220 14474430 14185230 13974790
1875.45 13795700 13561770 13217790 12762680 12188010 11545750
1881.23 10871980 10226370 9641426 9153938 8761942 8465388
1887.02 8242602 8078546 7970742 7945720 7943218 7949248
1892.80 7968820 8004132 8052196 8091372 8072338 8048332
1898.59 8002250 7918650 7787092 7598120 7391904 7219174
1904.37 7049050 6831178 6553114 6396902 6316530 6044664
1910.16 5717636 5560084 5402402 5193018 4916186 4580648
1915.94 4196118 3822060 3516474 3254696 3009302 2815632
1921.73 2655138 2551464 2472802 2413858 2371218 2354082
1927.51 2341914 2343378 2343428 2356954 2364654 2386296
1933.30 2414246 2453636 2496766 2548496 2594532 2653136
1939.09 2702426 2749458 2775808 2810488 2843128 2853112
1944.87 2848764 2846226 2831858 2822242 2820466 2819826
1950.66 2829458 2870688 2915806 2962822 2996676 3023374
1956.44 3030548 3028138 2999824 2956724 2895356 2829472
1962.23 2765456 2706376 2650768 2615740 2583688 2575984
1968.01 2581824 2599434 2640274 2706866 2795024 2918044
1973.80 3061380 3242596 3462892 3718400 4012032 4356930
1979.58 4737322 5151282 5571682 5991912 6376360 6712096
1985.37 6969582 7136946 7195844 7176868 7125538 7129564
1991.15 7271316 7554086 7759644 7663516 7407700 7366460
1996.94 7541806 7744710 7819922 7697916 7343900 6810772
2002.73 6158782 5482778 4848652 4305802 3871012 3551124
2008.51 3326784 3179476 3080806 3021578 2977180 2953212
2014.30 2938036 2934200 2924930 2920840 2924284 2946356
2020.08 2970268 2963568 2921546 2895274 2890544 2896068
2025.87 2905964 2923560 2932668 2942862 2960144 2980122
2031.65 2996956 3026250 3070464 3137188 3219656 3313766
2037.44 3419764 3560744 3729816 3932936 4180374 4470972
2043.22 4787252 5136910 5528222 5970160 6462374 7006874
2049.01 7586466 8212334 8880850 9582318 10314220 11060330
2054.79 11777310 12462650 13089720 13658050 14151420 14545400
2060.58 14828460 15032900 15177190 15342420 15545940 15617990
2066.37 15464990 15292780 15208690 15136160 14968600 14649150
2072.15 14137980 13432420 12557730 11574270 10524710 9480236
2077.94 8499934 7612266 6827770 6154094 5589692 5129608
2083.72 4750930 4440456 4187788 3992478 3825704 3690088
2089.51 3564950 3468318 3386228 3309156 3228282 3168424
2095.29 3123116 3086872 3055662 3038114 3047494 3062710
2101.08 3075530 3098088 3144172 3213728 3281484 3351598
2106.86 3432504 3525664 3602208 3667038 3728982 3812452
2112.65 3876018 3918696 3935094 3958024 3959734 3931410
2118.43 3885112 3875856 3894256 3934234 3975290 3975744
2124.22 3950818 3937880 3947494 3970228 3955886 3863228
2130.01 3688122 3463482 3214544 2957826 2706384 2505236
2135.79 2353830 2242602 2173492 2144984 2135136 2137324
2141.58 2157148 2187992 2222482 2257478 2283410 2311686
2147.36 2337002 2354818 2365522 2378226 2396082 2416092
2153.15 2424128 2449548 2484530 2504900 2516882 2548002
2158.93 2584224 2609046 2624060 2655250 2676734 2664930
2164.72 2637340 2632678 2619326 2581740 2554248 2554334
2170.50 2540978 2511994 2510962 2508298 2438878 2374738
2176.29 2343552 2310438 2240964 2161154 2081326 1974096
2182.07 1849456 1746622 1656044 1567280 1497100 1455582
2187.86 1413400 1370998 1351888 1346634 1321586 1293308
2193.64 1269302 1236254 1196684 1176874 1152736 1123358
2199.43 1101358 1100332 1102186 1111518 1130758 1159192
2205.22 1187216 1226976 1278686 1338770 1400826 1466202
2211.00 1539328 1624444 1699052 1765298 1837774 1918658
2216.79 1994108 2070402 2155476 2241364 2306222 2368148
2222.57 2431108 2502558 2585556 2654928 2695782 2713808
2228.36 2714992 2693974 2664682 2631386 2588134 2545858
2234.14 2501614 2455820 2403708 2348872 2283086 2215730
2239.93 2153506 2095958 2032316 1970126 1905822 1848478
2245.71 1791606 1739466 1694812 1664976 1628938 1584498
2251.50 1542722 1496154 1440166 1387514 1337914 1296390
2257.28 1260084 1239110 1225236 1220804 1230826 1253626
2263.07 1288458 1334280 1393276 1479032 1580644 1698624
2268.86 1834814 2010672 2228420 2485552 2778250 3106290
2274.64 3473392 3873424 4290212 4702726 5097778 5449524
2280.43 5739138 5972320 6119592 6184900 6199784 6180474
2286.21 6149414 6149568 6189114 6240280 6285724 6292962
2292.00 6222604 6161070 6089212 5925246 5664820 5299752
2297.78 4807832 4217230 3592294 2979044 2418400 1943534
2303.57 1572784 1288236 1084850 945770 842470 768276
2309.35 720500 691238 666234 646706 634108 632234
2315.14 630312 639906 636070 632092 632016 644636
2320.92 659202 671812 680856 701260 725004 753886
2326.71 785326 825314 865446 914776 967186 1024754
2332.50 1092172 1171270 1244122 1320612 1398948 1475854
2338.28 1550394 1621322 1678940 1722002 1763482 1806772
2344.07 1837218 1861488 1886966 1922400 1963772 2024364
2349.85 2095472 2164052 2229228 2289784 2327272 2346204
2355.64 2342058 2309096 2270194 2222658 2171132 2123260
2361.42 2082736 2052950 2022492 1985710 1946100 1913078
2367.21 1871740 1834368 1796992 1761890 1733266 1704936
2372.99 1667878 1612422 1547588 1496232 1460446 1423236
2378.78 1369758 1298134 1215308 1134424 1058360 985818
2384.56 923628 883604 857036 842766 837190 841916
2390.35 863616 882584 899962 922140 937210 966892
2396.14 1004716 1037866 1073904 1113750 1148368 1187950
2401.92 1238566 1287174 1334148 1380174 1431036 1491700
2407.71 1549110 1604310 1663880 1731992 1809674 1888784
2413.49 1971700 2068884 2182106 2302782 2422942 2529548
2419.28 2626388 2740970 2869382 2999072 3141240 3302720
2425.06 3462834 3629470 3802426 3974726 4145268 4313224
2430.85 4461096 4574500 4657580 4706088 4708318 4675606
2436.63 4624142 4571186 4542544 4532948 4509310 4413110
2442.42 4283130 4195200 4132340 4055004 3937910 3778916
2448.20 3567260 3313064 3029822 2746348 2484704 2245278
2453.99 2026034 1844592 1700638 1582512 1476914 1383756
2459.77 1312134 1259044 1211142 1159528 1111614 1078046
2465.56 1053284 1020814 998524 983284 961470 941200
2471.35 930678 925578 915154 900258 883946 865704
2477.13 850704 836038 827646 829552 841490 858762
2482.92 884510 915966 946216 978006 1004166 1005840
2488.70 1001652 1008740 1011556 1022968 1049218 1068076
2494.49 1060514 1031188 1021088 1030092 1041512 1056432
2500.27 1051340 1017436 967494 907236 842068 769108
2506.06 697572 640554 595680 548120 509684 486240
2511.84 468208 456620 450546 442008 434630 425060
2517.63 413644 401760 395836 392206 383188 373430
2523.41 364282 349016 335326 323394 311162 292630
2529.20 274626 257274 249766 247700 233116 213618
2534.99 209512 206648 190308 176664 176136 176592
2540.77 168854 157322 159614 159552 148862 143514
2546.56 142348 136982 135250 138190 139422 138476
2552.34 138708 141610 147276 151856 145412 135320
2558.13 132434 138614 140286 140794 142250 150258
2563.91 164542 174464 190420 213028 237956 266906
2569.70 300010 337988 380556 423136 466186 509254
2575.48 553626 597174 651060 705380 757742 794956
2581.27 832890 876638 919534 955134 990898 1033714
2587.05 1071938 1086542 1088094 1090036 1083640 1074564
2592.84 1058368 1041986 1031918 1013408 987104 959998
2598.63 939858 929704 900408 856664 817636 787124
2604.41 750250 704572 666844 634552 606972 590224
2610.20 586936 591338 610392 635650 668904 716240
2615.98 764408 812920 860118 908710 961342 1002326
2621.77 1036088 1064894 1084694 1094262 1106818 1119528
2627.55 1127728 1137050 1152586 1160000 1166634 1167970
2633.34 1178468 1193476 1195264 1182396 1151558 1089956
2639.12 1015000 934232 849872 768692 694908 631088
2644.91 575986 535658 513728 502106 489902 483828
2650.69 479314 470362 476326 482128 481688 488626
2656.48 503796 517204 521878 531454 554374 569386
2662.27 582114 594100 608544 621840 636772 641418
2668.05 651822 653604 640106 636094 640794 636382
2673.84 629578 621632 607766 591492 574864 561332
2679.62 550074 528128 500436 479572 450820 417106
2685.41 383716 353244 336176 321490 301590 282342
2691.19 272292 260664 253126 248734 234854 220696
2696.98 219374 217704 210506 202668 196936 199066
2702.76 202514 202222 206006 205170 201156 211022
2708.55 218758 213266 207192 204918 206336 215152
2714.33 223998 223054 223790 228452 237592 242962
2720.12 244060 241390 247384 259324 265906 270462
2725.91 279412 301474 322378 326602 336256 361824
2731.69 393024 432004 473448 510198 557330 616312
2737.48 678028 741084 812890 886774 979604 1075694
2743.26 1171120 1273620 1377106 1465998 1541772 1601916
2749.05 1654132 1687850 1693102 1674502 1645404 1609976
2754.83 1564926 1522802 1511258 1537574 1590836 1668378
2760.62 1753732 1814522 1841418 1816732 1739340 1620530
2766.40 1496262 1358970 1214720 1091472 991948 901338
2772.19 815170 742096 682652 636674 610310 591250
2777.97 579850 579040 589914 597644 604456 618118
2783.76 646104 673100 696090 724676 739046 734422
2789.54 735654 735852 738552 754298 779062 807330
2795.33 821582 838252 862136 876518 883468 884218
2801.12 874734 851760 805120 739552 678624 618956
2806.90 553732 493626 437626 407928 403278 395342
2812.69 382822 379528 380104 379364 380804 385674
2818.47 392578 383794 370346 362276 372836 379518
2824.26 381970 384054 394162 402458 410374 419726
2830.04 425282 433396 447348 448368 453698 468606
2835.83 490932 514782 536642 556828 582004 621216
2841.61 668390 714982 753922 801490 865900 927742
2847.40 980312 1030564 1075790 1117434 1160052 1198400
2853.18 1219472 1229150 1248126 1273718 1284170 1288776
2858.97 1293248 1302968 1318662 1331560 1337090 1325858
2864.76 1312682 1300946 1287594 1249698 1202090 1161942
2870.54 1113316 1072642 1030248 973198 921988 875790
2876.33 850886 819034 785522 757642 732072 720218
2882.11 714050 696010 673940 656068 640138 629362
2887.90 623386 624832 631346 624136 612918 609682
2893.68 618330 623004 625590 631296 626436 627988
2899.47 642864 642396 636414 634742 643914 651652
2905.25 652080 655612 655752 658704 676920 690306
2911.04 704228 716580 715680 724400 738520 756526
2916.82 772546 785512 809998 838302 881766 922430
2922.61 971772 1026442 1076248 1130164 1199606 1277986
2928.40 1372754 1474552 1586092 1716578 1859826 1996874
2934.18 2157116 2346468 2566690 2816210 3087130 3376678
2939.97 3693744 4031632 4390028 4726002 5028316 5286412
2945.75 5482394 5610360 5672034 5691434 5720674 5772220
2951.54 5862838 5955368 6056882 6206182 6403352 6607862
2957.32 6794980 6911628 6944462 6885096 6777278 6638402
2963.11 6425848 6189620 5951822 5733868 5541320 5387364
2968.89 5249776 5139826 5058758 4999524 4958450 4936084
2974.68 4907398 4889162 4895772 4919738 4943246 4963472
2980.46 4998584 5047688 5096092 5155944 5235334 5316988
2986.25 5399604 5493930 5579138 5678804 5851634 6113730
2992.04 6476686 6835800 6901340 6766940 6680298 6602720
2997.82 6530038 6486090 6483630 6461726 6415594 6342836
3003.61 6277542 6231862 6233688 6241432 6218472 6179820
3009.39 6168816 6206894 6272734 6331468 6368964 6391426
3015.18 6415522 6480286 6602006 6744816 6924030 7138482
3020.96 7378296 7636454 7898754 8167390 8425964 8662734
3026.75 8879544 9061130 9215816 9329994 9425952 9532208
3032.53 9671756 9886960 10068380 10078260 10076510 10157210
3038.32 10299400 10431810 10549450 10651350 10723830 10777840
3044.10 10849770 10958790 11105120 11286830 11492450 11678190
3049.89 11839310 11976460 12101720 12182640 12202090 12185470
3055.67 12191730 12260360 12388050 12519810 12572660 12551660
3061.46 12553180 12635950 12744440 12847190 12896290 12802120
3067.25 12585290 12262920 11875150 11439640 10985540 10567110
3073.03 10213280 9912040 9685168 9495616 9354410 9285020
3078.82 9287134 9331210 9472340 9715930 10079670 10571830
3084.60 11228800 12073180 13152740 14493470 16087700 17872920
3090.39 19779800 21667030 23434100 24861740 25768050 25994650
3096.17 25511510 24472330 23439110 23129350 24063030 25724970
3101.96 25811800 23158240 21340050 22377410 24394060 25873080
3107.74 26221320 25377090 23543260 21103150 18434820 15877410
3113.53 13658750 11943160 10779280 10163380 10051470 10377070
3119.31 11007570 11810670 12696440 13539300 14153670 14416360
3125.10 14258700 13702150 12881530 12200580 12110610 12507820
3130.89 12338240 11667040 11499720 12067730 12989820 13784770
3136.67 14194440 14094320 13496650 12497260 11272000 9946920
3142.46 8652518 7467966 6422124 5518468 4782882 4193586
3148.24 3719532 3334108 3019796 2734624 2487970 2276240
3154.03 2093722 1935860 1800390 1667122 1543584 1433970
3159.81 1338392 1268254 1201336 1130378 1072548 1011844
3165.60 961764 922472 880788 829830 784900 746586
3171.38 720724 692792 678000 664896 664976 650474
3177.17 633328 620126 600376 585292 576384 573422
3182.95 574796 569804 557308 545948 539084 540262
3188.74 536550 535402 550880 557750 564936 567058
3194.53 570746 571022 559202 532972 511082 503430
3200.31 492640 472694 459410 434602 414866 412550
3206.10 410284 400438 388564 365966 349850 340422
3211.88 329050 307568 300884 306734 300714 293548
3217.67 276002 257140 245554 230154 222482 209188
3223.45 198598 181700 167406 157756 155090 140018
3229.24 126824 113158 104444 109068 101962 90948
3235.02 71974 68100 72962 56848 36536 33234
3240.81 31116 25482 16950 11846 24998 18976
3246.59 2180-3592-1800-8862-604 5778
3252.38 8058 14764 23286 16870 14294 4454
3258.17-6524-4728-5106-6422-2102-6310
3263.95-6842-17214-20030-15634-26940-31530
3269.74-22606-31764-41292-44352-40432-30256
3275.52-46622-78342-83366-79914-73416-59574
3281.31-49718-48568-38738-26864-22346-23568
3287.09 1462 12708 1646 9032 32572 31778
3292.88 34532 29768 27304 29346 40238 39232
3298.66 34788 32296 31610 30182 37340 21032
3304.45-2582-27698-63140-95448-129036-154218
3310.23-157244-172656-195364-223002-235916-251450
3316.02-280596-300382-281278-258712-252092-259764
3321.80-273218-263604-243134-246284-245034-221266
3327.59-200846-191134-156452-132208-124284-114646
3333.38-94540-89248-71916-58814-51422-38062
3339.16-17460-10140-7314-6816 466 11544
3344.95 22976 28074 21600 17578 15252 8536
3350.73 1134-28072-38088-40388-36848-39908
3356.52-62656-70682-72802-78504-78830-73892
3362.30-72310-95596-99480-88196-79760-83438
3368.09-81184-73212-69770-71150-82418-76870
3373.87-68902-64330-51102-39364-27864-21032
3379.66-15548-28854-39336-32122-13522-13386
3385.44-13160-13546-9668-20112-21596-882
3391.23-778-4184 6100-9236-32966-46146
3397.02-33668-37386-51090-64492-60254-53672
3402.80-68272-83866-99750-101468-88156-82742
3408.59-86738-87134-83486-85138-75952-75936
3414.37-56414-54656-55410-61764-38108-34442
3420.16-61360-62092-44490-34754-31722-34254
3425.94-27000-13010-14556-22614-24000-19830
3431.73-9742-13480-15056-12516-11528-11790
3437.51-16684-21032-4940-13420-14180-2170
3443.30 21134 34448 42048 37486 36110 32034
3449.08 30290 52306 79904 95296 103534 109744
3454.87 127612 132326 127026 111404 112604 106208
3460.66 89672 87944 85272 91140 101644 89174
3466.44 93402 103368 106042 97718 100480 102200
3472.23 108082 63704 31644 28086 22342-1902
3478.01-3462-9836-27076-33834-30232-26968
3483.80-60706-81680-72248-74536-84560-90306
3489.58-89884-87746-80590-69734-72584-78076
3495.37-78652-74634-54604-39792-30666-30088
3501.15-18166-15646-20806-11032 30072 63038
3506.94 86962 114910 155500 200124 239280 296016
3512.72 347508 406644 481710 553888 630428 728086
3518.51 858308 978308 1105152 1242544 1399388 1593234
3524.30 1794382 2010202 2260496 2551206 2868808 3223248
3530.08 3606132 4009572 4472558 4970198 5491004 6018808
3535.87 6567820 7093684 7566548 7963634 8263962 8444186
3541.65 8485384 8380648 8181404 7931308 7667988 7479578
3547.44 7381826 7392794 7641306 8132062 8747614 9284376
3553.22 9568364 9495482 9063550 8395586 7608728 6793850
3559.01 5970192 5214044 4557206 3970040 3493980 3080388
3564.79 2672890 2329498 2041968 1803872 1591718 1351740
3570.58 1131316 933872 778556 623872 477284 350682
3576.36 246410 172066 102054 33014 2046-21460
3582.15-47672-67254-93086-159580-200218-200872
3587.94-203142-175256-171910-180806-199548-208006
3593.72-220050-229256-217820-229016-234880-248454
3599.51-268812-273580-276904-293914-292264-294482
3605.29-328590-353222-360966-404870-356696-333152
3611.08-365294-360356-341620-360328-343702-348026
3616.86-365676-388396-407812-342482-314322-310606
3622.65-298416-291826-284784-286248-339124-447658
3628.43-472452-354030-254884-251414-257038-261586
3634.22-250626-240126-243282-258004-240242-213862
3640.00-206036-216458-226144-220670-214074-233790
3645.79-278442-297900-372358-403478-328702-294738
3651.57-240854-235228-233324-288538-322624-255524
3657.36-202250-210394-218046-221454-210310-202794
3663.15-191368-196084-204100-214980-258318-309840
3668.93-357490-410282-289106-232826-257874-371628
3674.72-451582-365134-252886-253592-259752-243902
3680.50-220124-233212-239424-256170-246948-246450
3686.29-314314-486490-419620-315926-339706-306340
3692.07-266620-260596-261880-267342-264568-262108
3697.86-257736-259822-276384-306352-275278-264646
3703.64-267040-266690-255828-253488-292802-338488
3709.43-300396-349188-393264-286664-236728-240864
3715.21-239768-251722-257052-251396-236536-249624
3721.00-287440-269964-237348-243542-266620-289700
3726.79-257012-235438-220992-241542-329466-360708
3732.57-285984-323672-340338-378678-331084-275356
3738.36-252826-253830-258174-265412-352534-605512
3744.14-569958-314008-254092-306636-473316-468658
3749.93-353058-495770-450662-288458-258378-267176
3755.71-278820-260146-263416-298940-278272-240294
3761.50-228146-234410-252506-272204-251854-226494
3767.28-234190-282250-303218-254696-227944-218410
3773.07-225016-228532-230480-235042-222986-255340
3778.85-281962-245382-228562-236484-252450-260044
3784.64-250868-236708-230282-225522-236734-236346
3790.43-218350-213914-218122-228800-249028-266066
3796.21-255668-238604-243724-295526-446492-417750
3802.00-273742-221558-195768-254394-378548-333790
3807.78-223656-212664-203098-204048-188296-206984
3813.57-232372-368144-393612-236930-199660-216434
3819.35-283138-341296-287378-203302-177486-177388
3825.14-200604-205972-178238-167596-168376-211758
3830.92-240284-190990-188800-230282-198604-241488
3836.71-398980-306920-181090-200390-181412-159204
3842.49-188540-180042-140636-136542-143078-141924
3848.28-132996-150480-253290-367404-373270-537196
3854.07-382834-168120-146006-135288-125658-129854
3859.85-143990-172590-155186-149630-211000-190062
3865.64-118488-117342-149508-264618-263398-144388
3871.42-102084-124346-143282-108590-91902-99762
3877.21-81396-97904-136838-112448-78934-71372
3882.99-67636-134086-181510-105686-43350-30550
3888.78-38220-91482-103506-37672-19160-17550
3894.56-10854-6698-20016-62066-96180-41174
3900.35-51326-65838-46816-78554-40948-7116
3906.13 40662 54858 43536 34944 46626 46268
3911.92 49702 61858 60556 53172 32706 25020
3917.70 60436 71076 70570 73014 74024 63686
3923.49 58366 58138 68290 67302 66884 64370
3929.28 62256 63864 56248 60324 74476 71670
3935.06 88446 98352 94466 84924 84336 81608
3940.85 82938 58386 76352 101894 110966 109536
3946.63 108668 118240 115766 119706 147634 154296
3952.42 173384 191046 199510 225022 242262 237282
3958.20 247698 256676 275100 304088 345288 374076
3963.99 396006 424538 475150 500750 515130 538954
3969.77 559362 566038 582526 599842 621106
##END=
