##TITLE=Toluene
##JCAMP-DX=4.24
##DATA TYPE=INFRARED SPECTRUM
##CLASS=IUPAC A
##ORIGIN=NIST, Anayltical Chemistry Division, 301-975-3108
##OWNER=COPYRIGHT (C) 1998 by the U.S. Secretary of Commerce
##DATE=98/10/1
##$SPECTRA VERSION=1.00
##$UNCERTAINTY IN Y=2.4 % relative (B=1.4E-04,C=2.2E-09,D=2.7E-14)
##CAS NAME=Toluene
##CAS REGISTRY NO=108-88-3
##MOLFORM=C H3 C6 H5
##MP=-95 C
##BP=110.6 C
##$NIST SOURCE=QUANT-IR
##SPECTROMETER/DATA SYSTEM=IFS66V (Bruker)
##INSTRUMENT PARAMETERS=KBr Beam splitter; MCT Detector; Multipass cell
##STATE=gas
##SAMPLE DESCRIPTION=Toluene Primary Gas Standard
##PRESSURE=101.3 kPa
##TEMPERATURE=23 C
##SAMPLING PROCEDURE=1 L/min Flow
##RESOLUTION=1.9290
##DATA PROCESSING=3-Term B-H Apodization
##XUNITS=cm-1
##YUNITS=(micromol/mol)-1m-1 (base 10)
##XFACTOR=1.0
##YFACTOR=4.5474E-13
##DELTAX=0.9645
##FIRSTX=574.687
##LASTX=3974.595
##FIRSTY=5.68E-08
##MAXX=3973.63
##MINX=574.69
##MAXY=.0006179
##MINY=-3.15E-07
##NPOINTS=3527
##XYDATA=(X++(Y..Y))
574.69 125120 488996 410768 16706-303538-264154
579.51-227592-282242-492332-693478-591530-334472
585.29-329606-432614-134748 332982 400246 100406
591.08-131830-59602 24854-42342-1334 238388
596.86 311632 186490 110534 1698-125112 11336
602.65 266672 330826 256024 269260 326928 408218
608.44 582214 676778 536422 428704 423828 497794
614.22 643878 749048 822264 828686 665530 579972
620.01 575798 508640 422508 449926 498360 803016
625.79 1455772 2046886 2430266 2676376 2769800 2686342
631.58 2271474 1844136 1731972 1744766 1761708 1830760
637.36 1754080 1621670 1570180 1553286 1572098 1661122
643.15 1610122 1553612 1683078 1754746 1568062 1422882
648.93 1449730 1521792 1534388 1680996 1938428 2280284
654.72 2621308 2954162 3405280 4035500 4716912 5647940
660.50 6855814 8177772 9579152 11420160 13728610 16577830
666.29 19922560 23732250 27995300 33363850 40186920 47958320
672.08 56133260 64476820 73021430 82635110 93336540 105712000
677.86 121356300 140585500 154523000 156100500 152943800 152013500
683.65 153236000 155662800 158065300 160940000 167102400 175869400
689.43 180019300 194822700 306842000 595720500 726523500 452941100
695.22 203464000 164166000 173339000 180495600 188860100 203288600
701.00 224366000 236298600 233966700 235124000 244225600 255057800
706.79 267869500 281881900 296569000 311786100 327554300 342744100
712.57 356955200 369848400 382137300 393773800 403438200 408584000
718.36 410287700 410707100 414153900 429390900 473807500 563640100
724.14 678243800 777440100 936954900 1222466000 1358945000 1098535000
729.93 730853600 538936500 461144800 429670900 421456800 418385300
735.71 415240800 410378500 402646900 391844200 377575200 360046900
741.50 338876000 313934300 286029100 256841300 227115300 197806700
747.29 169688200 143464400 119458000 98354960 80273950 65175030
753.07 52486470 41319350 31593840 24237790 18803720 14685840
758.86 11563180 9301758 7614130 6357126 5349964 4670594
764.64 4166782 3841288 3579262 3494612 3554890 3627764
770.43 3665680 3870922 4073642 4333234 4598438 4804870
776.21 4936418 5071152 5090682 4890930 4468942 4092364
782.00 3778918 4031066 5271198 5783838 4268514 2943992
787.78 2877912 3258858 3639484 3953604 4045624 3834090
793.57 3524152 3263120 2826760 2365658 2021994 1765276
799.35 1471268 1229638 1131580 1128516 1114120 1052556
805.14 969572 985420 992476 944004 921464 1021672
810.93 1107742 1069816 911070 804066 788854 781206
816.71 755612 723084 686600 762652 855432 882968
822.50 789648 770762 920388 1031274 966134 902410
828.28 846396 766380 721540 724216 757412 855856
834.07 930274 896944 778020 734384 811340 892680
839.85 834280 797886 845694 884934 900756 959704
845.64 1029330 1138058 1293592 1436572 1474806 1521512
851.42 1574164 1566380 1595654 1729934 1862742 1972732
857.21 2059114 2165854 2266094 2324724 2281786 2256358
862.99 2352954 2476400 2528726 2627748 2800410 2954226
868.78 3035306 3195646 3453876 3920394 4467930 4537200
874.57 4287326 4341500 4617412 4893224 5130318 5382672
880.35 5604152 5813420 6041686 6258978 6396032 6505716
886.14 6668336 6900524 7107066 7427412 8272046 10288860
891.92 14522860 19748670 19359790 12948630 8496280 7646902
897.71 7541170 7269140 7024620 6986388 7065228 7101014
903.49 7127482 7235782 7267434 7106238 6856492 6653506
909.28 6473320 6313198 6228124 6257404 6386620 6578634
915.06 6696920 6766668 6864862 6907104 6906620 6982260
920.85 7256398 8031394 9033918 9197216 8527640 8178236
926.63 8408624 8784750 8997334 9019122 9003442 9033500
932.42 8953630 8522056 7806108 7241038 6912242 6661012
938.21 6471762 6333710 6175404 5946904 5616748 5259088
943.99 4972742 4728280 4467568 4251040 4092098 3981370
949.78 3931282 3960574 4007536 4116668 4297824 4444506
955.56 4527738 4645852 4859860 5088320 5213522 5311698
961.35 5508034 5716130 5781944 5842848 5963500 6086554
967.13 6438498 7168060 7653810 7504444 7339892 7234422
972.92 6942078 6753302 6704540 6665638 6683032 6730958
978.70 6785708 6723624 6375666 5937378 5596520 5383030
984.49 5272376 5191812 5105276 5029534 4966258 4850502
990.27 4662428 4518448 4496420 4532694 4511152 4421516
996.06 4307442 4191728 4074434 3991814 4012132 4077988
1001.85 4101702 4070098 3966718 3934722 4141248 4426032
1007.63 4603626 4750924 5045780 5529696 6159122 7005656
1013.42 8278756 10078130 12499320 15632830 19591730 24424390
1019.20 30067750 36249250 42587480 48392110 52526370 54344170
1024.99 53468490 49721200 44718750 41675380 45630110 62909010
1030.77 78417560 65016100 42958810 39263960 45766690 52854060
1036.56 57802440 59745150 58872100 56185160 53211090 51348960
1042.34 50210370 47477270 42431210 37829810 34524730 30962570
1048.13 27866230 26404950 26120750 26534020 26891040 27748900
1053.91 29329290 30061460 29272370 28341460 28230720 28622570
1059.70 29048910 29517770 30049270 30744470 31685270 32913860
1065.48 34396080 36169120 38208060 40477300 42952530 45667370
1071.27 48580700 51668810 54480660 56489620 58038430 58684790
1077.06 56411680 50938620 43921350 38209410 36390530 38774350
1082.84 43452310 48157410 51513780 53190000 53263600 52135800
1088.63 50352830 48238930 45936020 43544470 41155430 39055690
1094.41 37378550 36000680 34638160 33019350 30763710 27851330
1100.20 24493940 21048080 18387660 17313810 17664430 18789080
1105.98 19924960 20576770 20634400 20220930 19545060 18737680
1111.77 17624130 16240470 14857700 13598680 12406350 11258130
1117.55 10149780 9194518 8413982 7751840 7137836 6535784
1123.34 5952976 5495782 5125118 4786190 4517786 4401694
1129.12 4357292 4278538 4135126 3983318 3870784 3810114
1134.91 3738626 3703664 3669190 3577618 3444626 3343776
1140.70 3313590 3372778 3424492 3467520 3534576 3627802
1146.48 3719862 3825452 3908892 3999828 4080960 4159330
1152.27 4205786 4219334 4280736 4469678 4706922 4895162
1158.05 4993864 5068190 5114442 5144202 5159466 5197564
1163.84 5333778 5496422 5472526 5427818 5631940 6029918
1169.62 6362590 6518252 6480924 6303504 6002424 5686002
1175.41 5519972 5667886 6037534 6135910 5665438 5214796
1181.19 5156126 5373160 5671532 5910526 6009912 5955996
1186.98 5740116 5437672 5113256 4898516 4970266 5266394
1192.76 5290588 5071410 5090958 5485466 6136002 6912272
1198.55 7718856 8506152 9157904 9667606 10011730 10178930
1204.34 10141640 9922016 9592924 9377946 9517694 10144320
1210.12 11166920 12184190 11846390 10115650 9248022 9841446
1215.91 10750170 11353070 11441040 11010820 10162990 9099906
1221.69 7999688 6985962 6112344 5434070 4999558 4785204
1227.48 4714592 4814502 5099260 5504558 5843996 6070740
1233.26 6215024 6277006 6249838 6172410 6051854 6089900
1239.05 6540368 7308578 7431846 6718724 6290760 6404832
1244.83 6768836 7205698 7257384 6927260 6518850 6097512
1250.62 5616052 5121934 4650670 4225352 3847206 3556456
1256.40 3375452 3235504 3029548 2786304 2578290 2459854
1262.19 2374252 2256790 2119528 2043326 1957130 1828450
1267.98 1728230 1701658 1708550 1744520 1741014 1701848
1273.76 1693870 1739978 1793386 1853160 1881150 1898300
1279.55 1939930 2009836 2079958 2193306 2351780 2491944
1285.33 2588932 2704798 2820182 2950356 3084556 3186484
1291.12 3243840 3320800 3388442 3444754 3552334 3777488
1296.90 4091766 4454046 4835884 5224336 5556040 5793126
1302.69 5938744 6017060 5955696 5724276 5334592 4927076
1308.47 4638940 4577708 4784610 5203830 5650156 5971580
1314.26 6111752 6140232 6068716 5899400 5692502 5498808
1320.04 5287658 5093898 4980362 4947038 4861662 4676680
1325.83 4416472 4228204 4145248 4079946 4023706 4081926
1331.61 4212568 4285316 4227838 4139712 4139492 4231264
1337.40 4322882 4416886 4541178 4695322 4837432 4991814
1343.19 5131106 5259584 5423900 5670742 5955612 6233186
1348.97 6476732 6726902 6980802 7265066 7629828 8165562
1354.76 8723240 8892948 8760034 8872798 9247228 9695678
1360.54 10221510 10818700 11375070 11909990 12526480 13339650
1366.33 14353010 15458200 16529590 17707690 19032910 20416150
1372.11 21832660 23228510 24580870 25952000 27149140 27889870
1377.90 28237680 28747530 29973540 32785810 38005980 41737720
1383.68 39435000 35681080 35264060 37048500 38987040 39954180
1389.47 39624970 38047630 35465490 32388130 29354880 26708110
1395.25 24361350 22185990 20374930 19117280 18283870 17737910
1401.04 17538930 17786050 18161660 18502110 19244160 20006680
1406.83 19394260 18088280 17577980 17800870 18394800 19161940
1412.61 19916930 20656950 21631540 23091890 24552270 25720460
1418.40 27316370 29647390 31006910 29656860 26761050 24563320
1424.18 23451510 22843800 22754030 23260610 24176090 25298770
1429.97 26439240 27588580 28725850 29613930 30228320 30987790
1435.75 32479160 35039310 38263220 41924750 45631580 48039600
1441.54 49553440 51854820 54907800 58141880 61363220 64635440
1447.32 68062010 71061280 72826390 73240370 72397860 70940240
1453.11 70157540 70639770 71507020 72728130 74432320 75659470
1458.89 76971580 78892510 81099920 83164410 81515710 75705280
1464.68 70935550 69242020 69577370 71487260 74839600 78153740
1470.47 79360910 78196150 75446240 72353130 69798330 67961470
1476.25 66765150 65329460 63909800 64101280 66728500 71964760
1482.04 79614010 89962840 104006500 119982800 135052300 150305000
1487.82 167026400 184224600 200183400 211938200 216491900 213957100
1493.61 206703800 200385200 202128200 210130100 223621600 251658600
1499.39 261871200 223775800 188675600 190689300 207394400 220888200
1505.18 226942900 224249800 212833300 194233100 171159000 147304100
1510.96 125484600 106909200 91803290 80366100 72689940 67544170
1516.75 62837530 57321540 51458990 46711760 44119050 44199190
1522.53 46788410 49652100 49948240 48316840 46153040 44313230
1528.32 43693160 43622720 43116210 42063830 41164960 41254190
1534.11 41341150 40235470 38407530 35847500 33308670 31913810
1539.89 31203890 30636690 30099000 29206520 27798090 26242090
1545.68 24738760 23449870 22552140 22123860 22144160 22145090
1551.46 21790760 21520460 21803960 22652600 23448700 23825750
1557.25 24072650 24381870 24660330 24915910 24756500 24025210
1563.03 22925790 21515280 20180700 19444740 19452870 20240760
1568.82 21808380 23763080 25371200 26174060 26152420 25593610
1574.60 24758030 24206940 23999110 23560010 22820290 21935680
1580.39 20952100 20028870 19408780 19436750 20395330 22204590
1586.17 23375860 22730520 22450680 24347320 27628200 31573100
1591.96 36032840 41110010 46794000 53010620 59805260 67053710
1597.74 74258150 80888540 85923200 88687770 89847220 90369440
1603.53 91739590 95473770 100378400 106183900 119419200 129668600
1609.32 118650000 104762800 104624700 109648100 112957300 112383300
1615.10 107224200 99416900 92210190 89399260 88175120 79337780
1620.89 66948000 59123630 54762640 51756000 48934190 45654140
1626.67 41786740 37341800 32441480 27453330 22728230 18451720
1632.46 14732560 11551580 9029954 7453204 6490700 5777392
1638.24 5213242 4745108 4416540 4216892 4056366 3920660
1644.03 3720542 3562002 3607036 3693640 3761812 3836310
1649.81 3775096 3318092 2716154 2660860 2951094 3100952
1655.60 3118330 3230260 3495958 3823068 4087528 4205910
1661.38 4194776 4233056 4312924 4336292 4347972 4329476
1667.17 4137950 3877872 3790946 3766148 3686060 3655848
1672.96 3550992 3409308 3527288 3764584 3857484 3928628
1678.74 4047936 4167114 4177560 3994544 3571550 3192462
1684.53 3322876 3577198 3461878 3265702 3152238 3100216
1690.31 3126608 3232294 3376716 3402918 3149516 3260014
1696.10 4007916 4364270 3745612 2916224 2817208 3235990
1701.88 3453666 3448344 3470166 3554854 3666654 3808714
1707.67 3883838 3962270 4124704 4376108 4619176 4790296
1713.45 4947732 5254910 5552676 5815570 6445722 7356396
1719.24 8188364 8946666 9697036 10445170 11148800 11734480
1725.02 12074800 12093580 11795210 11175960 10249580 9238202
1730.81 8351086 7852466 8142954 9462826 11222150 12362990
1736.60 12523290 11993150 11077460 10218580 9461014 8589602
1742.38 7681468 6871080 6128458 5463806 4881436 4364694
1748.17 3903834 3450054 3008686 2814484 2766132 2712792
1753.95 2675796 2618270 2594656 2743468 2994016 3240250
1759.74 3341354 3381270 3616778 4015752 4400512 4741402
1765.52 4970060 5131178 5380180 5732220 6026964 6341632
1771.31 6804840 7395676 7795778 7961306 8185392 8656590
1777.09 9391280 10274200 10876010 11106770 11438000 12116720
1782.88 12930540 13833640 15034050 16531060 18044280 19694340
1788.66 21666910 23621260 25022620 25861350 26372320 26624090
1794.45 26446320 25367760 23457370 22972330 27541600 34258750
1800.24 32148180 23441960 19884160 21449340 23865500 25799690
1806.02 26752290 26636770 25475790 23274810 20465770 17673480
1811.81 15168700 12987910 11123070 9556610 8284746 7386592
1817.59 6993172 7128336 7552232 7913536 8041318 7939772
1823.38 7663686 7370036 7136268 6886270 6598108 6336194
1829.16 6189592 6224544 6347134 6486606 6646718 6847800
1834.95 7156036 7628634 8253666 9017260 9875920 10822420
1840.73 11884710 13060350 14325910 15864920 17604600 19168210
1846.52 20489930 21630830 22453530 22758380 22398260 21365450
1852.30 19832110 18114320 16765220 16717850 18703030 22527450
1858.09 26812020 30036650 31755030 32287070 31950180 31058470
1863.88 29780120 28125420 26268450 24385230 22508780 21114820
1869.66 21003020 21695400 20745480 17627350 15327080 15145820
1875.45 15828340 16393270 16433240 15812850 14588820 12949210
1881.23 11115170 9314590 7717114 6419178 5433554 4704988
1887.02 4140870 3729832 3499148 3390638 3274648 3144910
1892.80 3044998 2994406 2971554 2986658 2995776 2912356
1898.59 2748722 2639400 2637710 2702400 2679800 2527302
1904.37 2419182 2460750 2550384 2625040 2702622 2823238
1910.16 2973772 3139926 3321966 3536342 3789600 4099864
1915.94 4431388 4808466 5311130 5914664 6571038 7311948
1921.73 8186280 9274124 10568730 11967880 13277880 14629160
1927.51 16282940 18211990 20267990 22332110 24202080 25691370
1933.30 26683820 27101200 26904450 26142380 24921010 23406970
1939.09 21994780 21413450 22375360 25211020 29235740 32917650
1944.87 35238900 36194910 36015010 35015300 33553060 31831680
1950.66 30005050 28072670 25904560 23773010 21866800 20610850
1956.44 20725120 20631990 18106240 14956730 13640900 13706860
1962.23 13999780 14007130 13507250 12475600 11052730 9468242
1968.01 7910892 6490366 5262150 4259054 3464484 2880406
1973.80 2490078 2229534 2028984 1907958 1887816 1951404
1979.58 2084994 2310582 2636054 3001338 3061922 2757880
1985.37 2533166 2530172 2596948 2728266 2878104 2947542
1991.15 2938744 2906886 2898838 2909776 2777586 2622516
1996.94 2644688 2743812 2796820 2832134 2838336 2782306
2002.73 2642712 2472872 2312290 2175502 2067870 1998230
2008.51 1983436 2050372 2049236 1903644 1751118 1648364
2014.30 1566554 1537496 1541432 1538176 1494266 1414276
2020.08 1323322 1272316 1266118 1267154 1220970 1130746
2025.87 1017026 928046 871820 820926 765456 727754
2031.65 681772 629788 580762 538616 475124 393106
2037.44 353984 369270 345846 296948 285704 304776
2043.22 285682 249034 245064 255688 232154 200376
2049.01 183098 186134 195522 220348 250046 293928
2054.79 327168 328278 317318 329412 335304 310992
2060.58 243066 184974 220696 359648 466806 496912
2066.37 503398 511542 476578 425284 427060 461928
2072.15 460486 457784 463176 474888 503762 555536
2077.94 604822 613940 558352 510976 466928 416294
2083.72 384336 385716 393272 405736 426124 447440
2089.51 451024 463564 450276 405308 380532 389108
2095.29 392580 415652 452932 476154 445860 419232
2101.08 425260 436288 453008 476458 460798 448614
2106.86 477880 501406 492632 524730 591054 617192
2112.65 579840 555724 554706 549702 538138 537850
2118.43 554206 606332 651008 662054 652128 643298
2124.22 645726 660848 666824 674390 655472 635624
2130.01 611050 601094 635968 682758 676942 631678
2135.79 572000 519564 484516 479080 464096 448330
2141.58 445754 460798 483026 510428 529456 555536
2147.36 568212 588196 630418 688462 767118 890996
2153.15 1023550 1138880 1265744 1440466 1619192 1770278
2158.93 1876996 1995850 2121018 2199528 2234310 2267538
2164.72 2312002 2475388 2771878 2862996 2606308 2422152
2170.50 2511354 2716782 2889148 2991196 3028730 2979998
2176.29 2845600 2690642 2484164 2267780 2091882 1962244
2182.07 1839912 1693204 1540326 1444604 1400344 1391554
2187.86 1402490 1441588 1527910 1625834 1623160 1552548
2193.64 1482024 1432738 1381684 1321080 1283782 1264296
2199.43 1211198 1160768 1136248 1141850 1126860 1083060
2205.22 1052634 1063616 1106936 1158264 1134960 1060780
2211.00 1013966 1023734 1056432 1102810 1134506 1151418
2216.79 1144898 1090644 1017940 997520 1023888 1069748
2222.57 1058496 1001832 982916 997958 998872 1004366
2228.36 1033438 1080792 1086234 1053414 1015454 1009114
2234.14 1036158 1106498 1174152 1166444 1132406 1182454
2239.93 1263152 1339730 1413076 1483528 1554582 1625046
2245.71 1670386 1729558 1845890 1963896 2017788 2062548
2251.50 2123370 2181330 2225906 2287306 2327000 2319252
2257.28 2267682 2226916 2202720 2206336 2243636 2292802
2263.07 2357548 2455832 2539716 2595396 2633052 2702768
2268.86 2763786 2776462 2774150 2778776 2820300 2938694
2274.64 3041292 3105484 3154524 3169820 3130378 3064818
2280.43 2988750 2919690 2892350 2941804 2964928 2927188
2286.21 2910454 2961908 3028092 3071566 3082842 3051630
2292.00 2928286 2799678 2772372 2804952 2818544 2835902
2297.78 2882630 2975954 3098558 3237152 3386340 3589528
2303.57 3786090 3907620 3937668 3873272 3742638 3629134
2309.35 3592464 3693392 3988406 4399058 4494298 4253864
2315.14 4065228 4073396 4247512 4500036 4647102 4664754
2320.92 4651338 4620860 4522662 4392386 4277100 4229594
2326.71 4247664 4319772 4395750 4426702 4380294 4280904
2332.50 4153966 4033264 3947354 3961352 4061858 4179252
2338.28 4316854 4497170 4668854 4841054 4981706 5043744
2344.07 5001776 4882724 4709260 4537844 4428076 4390564
2349.85 4421580 4518704 4618072 4704006 4800730 4928030
2355.64 5013006 5018076 4940110 4790924 4558514 4240016
2361.42 3869432 3568914 3460540 3576284 3831484 4117780
2367.21 4269698 4222104 4049162 3841170 3616554 3378318
2372.99 3095826 2832272 2660988 2591282 2542920 2489582
2378.78 2476490 2512780 2545002 2548362 2511234 2491458
2384.56 2485434 2456824 2442836 2500422 2586934 2666646
2390.35 2697718 2670460 2641102 2680554 2756658 2808760
2396.14 2815322 2823240 2863902 2981532 3121066 3169594
2401.92 3174670 3240690 3334742 3438002 3523890 3591148
2407.71 3624010 3628408 3624094 3703432 3910176 4097786
2413.49 4076656 4013234 4100170 4250558 4325536 4343432
2419.28 4371682 4476416 4555612 4443508 4191216 3979518
2425.06 3838646 3732532 3620922 3511810 3426054 3294360
2430.85 3044192 2833930 2727104 2656980 2602470 2545538
2436.63 2426436 2292516 2211172 2165076 2115468 2073246
2442.42 2014908 1937044 1884686 1887546 1882054 1867580
2448.20 1861790 1868934 1882402 1898022 1900512 1908896
2453.99 1930634 1969342 2006516 2052820 2098992 2148176
2459.77 2182600 2180140 2138976 2131904 2167996 2215150
2465.56 2236060 2222114 2184856 2153610 2147418 2144070
2471.35 2098900 2066856 2044260 2005112 1954272 1931850
2477.13 1919894 1886778 1837876 1794872 1751832 1731700
2482.92 1734092 1723360 1704156 1740744 1774412 1782256
2488.70 1806840 1846680 1859082 1870552 1913126 1980908
2494.49 2042792 2087832 2096260 2097798 2137274 2196290
2500.27 2173608 2117086 2083384 2066078 2051222 2039436
2506.06 2028648 2031142 2054206 2088470 2064098 1984242
2511.84 1909418 1873176 1827052 1785932 1750522 1723858
2517.63 1706806 1677758 1645510 1628448 1596040 1575110
2523.41 1561904 1578280 1627972 1638744 1609218 1601646
2529.20 1594208 1595740 1589986 1628004 1707424 1744066
2534.99 1709778 1664216 1626636 1604560 1589638 1570592
2540.77 1564002 1587968 1612998 1623860 1589438 1549498
2546.56 1553804 1596376 1632766 1654826 1664664 1654038
2552.34 1600222 1548324 1488472 1416402 1352154 1339114
2558.13 1355324 1385136 1422246 1426214 1382408 1389176
2563.91 1451390 1509312 1566132 1637514 1701834 1768656
2569.70 1823068 1890664 1967114 2066554 2191492 2298020
2575.48 2408124 2578096 2784272 3028138 3317936 3654260
2581.27 3953630 4143144 4285362 4483048 4686136 4826274
2587.05 4908590 4963188 4987784 5021870 5142006 5338752
2592.84 5446186 5429774 5500944 5760532 5987380 6074346
2598.63 6048796 5908788 5649828 5309888 4901112 4486736
2604.41 4136340 3869634 3640338 3473600 3387226 3400402
2610.20 3425918 3321646 3128164 2997104 2933710 2917496
2615.98 2909670 2880202 2840328 2836960 2880086 2956248
2621.77 3003596 2991774 2945650 2918028 2899342 2839308
2627.55 2750774 2712174 2702996 2675188 2604068 2550876
2633.34 2522328 2505578 2506152 2563514 2623460 2594916
2639.12 2486016 2396172 2388466 2434884 2431222 2329728
2644.91 2171566 2072386 2021276 1985310 1959392 1921140
2650.69 1838270 1784576 1799494 1798224 1708598 1608084
2656.48 1532514 1462478 1413582 1390670 1373884 1401504
2662.27 1391770 1320328 1297474 1333144 1335730 1318894
2668.05 1302696 1300604 1292970 1256386 1213360 1205076
2673.84 1178876 1138692 1137472 1178308 1195780 1177368
2679.62 1159966 1178982 1207008 1221602 1196466 1183078
2685.41 1178220 1170790 1181458 1212452 1226302 1215192
2691.19 1211534 1200782 1152540 1122100 1122756 1164698
2696.98 1243212 1265050 1187752 1163096 1224116 1274258
2702.76 1262000 1222600 1188428 1209746 1244154 1258850
2708.55 1291308 1335204 1355556 1408806 1475732 1554718
2714.33 1632354 1670732 1710588 1793966 1878790 1945508
2720.12 2013574 2131996 2288120 2476974 2681850 2930520
2725.91 3262098 3690376 4221956 4857228 5578906 6419584
2731.69 7352188 8376376 9414466 10339420 11071820 11609960
2737.48 11871710 11798700 11535990 11366850 11767650 13516330
2743.26 16155220 16673400 14129460 12157200 12552110 13949270
2749.05 15216650 15912310 15790700 14857880 13333550 11584630
2754.83 9905946 8417236 7165162 6208220 5523142 5013696
2760.62 4601978 4290278 4034436 3778760 3476194 3175218
2766.40 2972738 2900684 2902636 2945020 2986114 3023438
2772.19 3045576 3066250 3088222 3121770 3196334 3297220
2777.97 3378878 3463890 3575818 3672150 3663144 3613730
2783.76 3618684 3703320 3868608 4041734 4114448 4136578
2789.54 4150844 4138124 4136316 4225380 4326930 4389076
2795.33 4432150 4451198 4514698 4682648 4795560 4777374
2801.12 4732502 4764608 4851426 4956986 5064956 5206524
2806.90 5394880 5610520 5869514 6141014 6330556 6502540
2812.69 6710514 6930048 7201568 7570646 7877266 8064326
2818.47 8257980 8521084 8798114 9010016 9121400 9180772
2824.26 9207874 9261588 9388592 9602444 9916666 10357460
2830.04 10839360 11302750 11760890 12201500 12554060 12843470
2835.83 13152020 13538480 13898290 14180650 14503250 14930590
2841.61 15409760 15944970 16665700 17618540 18650660 19749470
2847.40 20974720 22351770 23887280 25584690 27399070 29347210
2853.18 31453790 33708640 36165510 38901580 41911790 45206870
2858.97 48710170 52375900 56361800 60718190 65180750 69628490
2864.76 74120970 78615020 83085370 87685070 92513480 97881420
2870.54 103971400 109727800 114508800 119491400 125388100 131827000
2876.33 138212900 143676400 147510000 149765900 150361600 149393500
2882.11 147829700 146449100 145207600 143640600 141894800 140745800
2887.90 140066600 138911000 136749500 134001900 131193000 128188100
2893.68 124757000 120956900 116812200 112448600 107978200 103454000
2899.47 99122360 95362610 92302390 89946660 88355950 87624960
2905.25 87846990 88701250 89626540 91145290 94061610 97895410
2911.04 101741700 105386500 108905500 113125900 118803600 125749500
2916.82 133589100 141526900 149708800 159418300 171102000 184228100
2922.61 197290800 208923000 218899300 227254600 233414100 236542600
2928.40 237795500 240302400 246076700 254113100 261202400 264395100
2934.18 263430600 262275000 264392500 267664500 268741100 266998700
2939.97 263028700 258754300 254925800 249482900 242003000 233933400
2945.75 224694000 213034800 200081700 187541100 175325300 164008600
2951.54 155699200 151240700 149521400 146267100 137496100 126285900
2957.32 118484200 115473000 115242400 115249600 113844100 110965400
2963.11 106606700 101636000 97588590 94079650 90246950 86233580
2968.89 82273400 78640220 75947090 74885340 75421140 76892820
2974.68 78838560 80855780 82615940 84295910 85812780 86769330
2980.46 87195700 87556370 88588300 91198850 95189590 97806870
2986.25 96022340 91450150 88387840 88584230 91587050 95892310
2992.04 99087340 100430600 102108900 106348800 112356300 116289500
2997.82 116228600 115428300 118012800 124685700 133666000 142325700
3003.61 147068700 146201500 143445300 143482900 146128900 148556400
3009.39 150187000 151818600 154153200 158814800 165418600 171774200
3015.18 177727900 184895200 194504000 206909200 222503100 241916500
3020.96 263797000 284451500 304144700 325748100 348842700 372972400
3026.75 399477200 428326500 454872900 472825700 482019100 486494800
3032.53 486696100 481425200 474387500 471239200 472479500 476649100
3038.32 482510000 486907600 489154300 488977000 487406300 487392100
3044.10 485492400 476807700 459830200 435617100 407078500 376897700
3049.89 346583500 317902300 293072500 273308400 258209700 247120800
3055.67 239648000 235425200 234409700 236354900 239852300 243649100
3061.46 247870200 252565200 256767200 259796200 261063800 260506900
3067.25 259481100 259872000 264203100 275564400 294151100 309483500
3073.03 304284800 282997700 268652300 268471300 274829000 281523700
3078.82 285935900 287119600 284399400 276592500 265742800 256170900
3084.60 248834500 242921400 237643600 231892500 224719700 215657400
3090.39 204315100 191286100 178095800 166064400 156643200 151393500
3096.17 151133100 154906100 159820600 163060800 162962200 159217700
3101.96 152814800 144821400 135830000 126389200 116992200 108223200
3107.74 100371300 93559200 88038080 83634370 79888970 76428690
3113.53 72914100 69311640 65794980 62402440 58992620 55328780
3119.31 51627740 48617820 45900440 43035250 40600880 38439630
3125.10 36291970 34428890 32764620 30980380 28798210 26221390
3130.89 23508490 20923400 18454010 16063970 13812920 11825530
3136.67 10165940 8790420 7592174 6593358 5790310 5127810
3142.46 4579882 4146988 3790460 3561084 3445070 3368372
3148.24 3267316 3128304 3010596 2942112 2890244 2877592
3154.03 2881190 2880838 2847178 2832872 2843766 2905520
3159.81 2993794 3037064 3064114 3111956 3162626 3221732
3165.60 3236672 3253536 3336434 3436604 3486476 3529560
3171.38 3549536 3518130 3486896 3499294 3501606 3441966
3177.17 3341792 3327812 3338996 3256630 3066264 2840504
3182.95 2701406 2692216 2676610 2610130 2459134 2174798
3188.74 1811048 1482270 1197098 989722 860968 736564
3194.53 606264 545166 535410 514674 464630 435448
3200.31 412960 374504 328244 330278 357234 399012
3206.10 477060 554222 555106 492924 401792 299442
3211.88 222694 229062 262660 263614 174286 42998
3217.67 91846 359636 529616 492912 360502 270142
3223.45 242430 188758 84754 65890 144560 170950
3229.24 124148 131124 178700 246726 293620 313588
3235.02 308898 265550 207494 193640 233888 320352
3240.81 398118 434074 468388 517300 503920 453738
3246.59 460710 494494 497026 512944 503900 504190
3252.38 552820 578816 595586 658846 673068 659858
3258.17 669080 683554 695124 722340 775292 841466
3263.95 874336 894134 901506 892650 876362 897850
3269.74 907916 949034 1058694 1136400 1102352 1033556
3275.52 1026102 1063740 1056612 1033640 1027342 1035014
3281.31 1022278 994650 990970 1036792 1052298 991326
3287.09 908554 880412 924540 1017004 1043778 1043090
3292.88 1063270 1051490 987316 904446 871562 904672
3298.66 898860 896622 973160 1050088 1010006 933792
3304.45 910952 906596 859222 840232 836722 810524
3310.23 829576 886656 915220 920902 879418 868128
3316.02 908342 963258 969838 921250 938022 1018230
3321.80 1045120 1074644 1137106 1195386 1267586 1343628
3327.59 1335780 1348034 1416766 1469594 1492528 1543818
3333.38 1557272 1516314 1516372 1538304 1496292 1482618
3339.16 1562334 1640602 1651442 1613466 1527680 1464338
3344.95 1442318 1450604 1454240 1422648 1365054 1304254
3350.73 1243782 1180438 1145022 1158130 1128708 1070732
3356.52 1075192 1124606 1119182 1163994 1261634 1332508
3362.30 1365336 1345150 1314336 1290432 1256398 1241306
3368.09 1238570 1250158 1262350 1295794 1372172 1460996
3373.87 1491332 1508406 1533210 1543924 1511436 1497968
3379.66 1551848 1612656 1635948 1634616 1569086 1489578
3385.44 1411884 1339776 1337238 1336254 1309538 1326314
3391.23 1316998 1333778 1350492 1305796 1260294 1245174
3397.02 1239836 1262072 1248218 1190254 1119094 1077820
3402.80 1099358 1159306 1169586 1139464 1135790 1162722
3408.59 1131104 1079028 1040950 981762 895562 888972
3414.37 987076 1071210 1078986 1016746 839430 688270
3420.16 735544 875054 918864 931840 931736 905358
3425.94 911004 995016 1089006 1101038 1061080 1053300
3431.73 1033204 994352 958610 1016718 1111586 1154494
3437.51 1243356 1333936 1322936 1368424 1474816 1504894
3443.30 1476286 1481388 1481660 1424336 1309732 1215716
3449.08 1228896 1292660 1236640 1123276 1070224 1068242
3454.87 1050880 1028706 1029814 1033142 1009426 1000118
3460.66 973762 883334 837876 876368 853712 759344
3466.44 673174 589170 508736 506816 544668 566440
3472.23 529214 493134 456804 389102 324886 315148
3478.01 339976 355110 332340 326882 357900 388950
3483.80 391442 401252 448552 464296 413382 416632
3489.58 451574 440990 412236 420996 464548 478408
3495.37 441354 462882 520630 507602 460044 498724
3501.15 527522 498902 473044 488214 504870 475984
3506.94 430068 440938 489608 527910 527568 523254
3512.72 535878 572472 585094 578102 565274 570294
3518.51 598534 658658 681142 650052 700290 884114
3524.30 1004788 913072 741102 647594 615462 624140
3530.08 599534 578560 607384 660582 688884 677864
3535.87 658808 661556 689252 722248 712798 705344
3541.65 715432 756294 781762 770694 777498 859300
3547.44 909212 878806 848758 832326 858746 976480
3553.22 1069168 1041700 940906 903934 934536 972642
3559.01 972742 952696 959272 991504 989510 949978
3564.79 911614 893498 853254 822612 786306 705636
3570.58 651364 655982 643266 613784 579416 553624
3576.36 518692 508816 552956 680252 802274 863236
3582.15 883254 839090 723178 626934 617536 604340
3587.94 600996 713090 807278 819068 791472 808914
3593.72 821102 823914 851460 839006 753276 658412
3599.51 598250 711260 935818 1025626 973354 828208
3605.29 625174 539120 508172 446712 485856 549278
3611.08 491228 452554 456802 474364 560758 666268
3616.86 720262 677656 636646 760100 901266 982326
3622.65 1028060 1080584 1130260 1165696 1073596 847798
3628.43 763258 944940 1138942 1189204 1143832 1185916
3634.22 1320642 1430998 1511250 1559716 1600210 1677352
3640.00 1778032 1902932 1978798 1990986 1986132 1957990
3645.79 1905316 1875112 1807312 1838080 2025996 2263328
3651.57 2504266 2611424 2556842 2457932 2451422 2577192
3657.36 2650838 2629216 2599600 2591510 2582882 2590288
3663.15 2606122 2616772 2577736 2507902 2387876 2202456
3668.93 1932326 1733562 1797422 1867018 1668088 1290022
3674.72 1034534 1154442 1404924 1442850 1362308 1375806
3680.50 1445790 1431338 1339918 1284062 1260306 1241734
3686.29 1078064 835176 899204 1111680 1171660 1195898
3692.07 1203854 1219990 1229756 1222980 1212234 1186624
3697.86 1203938 1232172 1136960 1063606 1137682 1211914
3703.64 1225034 1230520 1195222 1112084 1036086 1027126
3709.43 996782 799882 700674 927526 1121310 1189400
3715.21 1245968 1224226 1132458 1078530 1045210 1034758
3721.00 1064466 1168984 1234258 1185480 1088254 996088
3726.79 946820 935416 922224 874078 751250 754792
3732.57 877496 825900 609876 469712 540382 706940
3738.36 778890 770634 732898 660658 373006-48532
3744.14 33470 542106 788110 655066 334180 263790
3749.93 289878 77234 129928 471154 616708 613020
3755.71 630540 655524 587856 544182 623560 683012
3761.50 664186 646246 590108 560234 607756 670606
3767.28 636382 507118 469630 632602 791914 818264
3773.07 770626 792776 844696 840910 815198 808522
3778.85 830918 888350 955508 1086352 1205212 1219292
3784.64 1174524 1216020 1356352 1453814 1474874 1511228
3790.43 1565086 1638982 1698990 1708658 1675366 1612564
3796.21 1573608 1623610 1680478 1558336 1247818 1225406
3802.00 1495870 1690632 1764288 1648134 1421692 1440880
3807.78 1621402 1715080 1733720 1705130 1643630 1583766
3813.57 1413270 1092404 1088166 1465582 1682034 1655030
3819.35 1501512 1420416 1541786 1755298 1924854 1992304
3825.14 1937386 1937094 2050142 2118798 2093686 2033270
3830.92 2058812 2195134 2207432 2150236 2215970 2173004
3836.71 1982118 2117540 2380456 2455606 2489796 2559668
3842.49 2632112 2756134 2884062 2965382 3059992 3178506
3848.28 3250442 3250600 3060338 2840794 2665496 2524476
3854.07 2847876 3272596 3341096 3339606 3304956 3194284
3859.85 3104630 3096880 3134692 3060252 2858604 2823094
3865.64 2900914 2846046 2617216 2324944 2253846 2438870
3871.42 2564462 2513498 2397524 2374426 2365392 2290280
3877.21 2179688 2033232 1930592 2010788 2141144 2145510
3882.99 2007194 1780038 1672434 1822636 1930688 1882976
3888.78 1802010 1686856 1648596 1774766 1845482 1840620
3894.56 1859976 1928928 1933154 1804394 1704022 1754816
3900.35 1793760 1845332 1888990 1889514 1983634 2095342
3906.13 2179458 2241068 2269956 2328328 2385206 2419552
3911.92 2457750 2487082 2472628 2463792 2513676 2658934
3917.70 2748684 2681524 2629134 2619328 2608928 2632550
3923.49 2617004 2608276 2599084 2551622 2492300 2448508
3929.28 2370974 2267484 2203668 2206010 2191400 2164462
3935.06 2153522 2143756 2098844 2066510 2103720 2112592
3940.85 2036364 1956036 1863400 1786562 1798932 1884454
3946.63 1948464 1963288 1930062 1905024 1917694 1925308
3952.42 1883756 1834596 1856386 1926254 1938362 1887056
3958.20 1891930 2019258 2082898 2021832 2012140 2102868
3963.99 2137440 2091252 2040302 2048066 2099532 2164326
3969.77 2172062 2110946 2065576 2066622 2104260
##END=
