##TITLE=1,3-Dimethylbenzene
##JCAMP-DX=4.24
##DATA TYPE=INFRARED SPECTRUM
##CLASS=IUPAC A
##ORIGIN=NIST, Analytical Chemistry Division, 301-975-3108
##OWNER=COPYRIGHT (C) 2001 by the U.S. Secretary of Commerce
##DATE=01/06/01
##$SPECTRA VERSION=1.10
##$UNCERTAINTY IN Y=2.1 % relative (B=1.13E-04,C=1.33E-9,D=3.50E-14)
##CAS NAME=1,3-Dimethylbenzene
##CAS REGISTRY NO=108-38-3
##MOLFORM=1,3-( C H3)2 C6 H4
##MP=-47.87 C
##BP=139.1 C
##$NIST SOURCE=QUANT-IR
##SPECTROMETER/DATA SYSTEM=IFS66V (Bruker)
##INSTRUMENT PARAMETERS=KBr Beam Splitter; MCT Detector; Multipass cell
##STATE=gas
##SAMPLE DESCRIPTION=m-Xylene Primary Gas Standard
##PRESSURE=101.3 Pa
##TEMPERATURE=23 C
##SAMPLING PROCEDURE=1 L/min Flow
##RESOLUTION=1.9290
##DATA PROCESSING=3-Term B-H Apodization
##XUNITS=cm-1
##YUNITS=(micromol/mol)-1m-1 (base 10)
##XFACTOR=1.0
##YFACTOR=9.0949E-13
##DELTAX=0.9645
##FIRSTX=575.652
##LASTX=3974.606
##FIRSTY=-3.56E-07
##MAXX=3973.64
##MINX=575.65
##MAXY=.0005039
##MINY=-9.01E-07
##NPOINTS=3526
##XYDATA=(X++(Y..Y))
575.65-391794-190874-538161-863108-756067-153458
580.47-1330-580873-866868-659569-622998-573438
586.26-543344-684276-590996-291453-6702-20700
592.04-492713-851471-760982-569448-703328-991287
597.83-970413-536172-362241-593232-679674-624965
603.62-535649-413565-475029-427875-414087-564599
609.40-701157-702086-493530-410138-575474-598433
615.19-416730-220862-210534-451834-684871-718783
620.97-613354-316146-117987-361202-593218-457944
626.76-264171-295410-413052-406846-467877-443354
632.54-301266-366571-530830-527057-484716-467120
638.33-431608-460966-490999-493933-445522-250059
644.11-108412-9133 66285 151658 273212 331658
649.90 328980 479177 753764 1006163 1258912 1600157
655.68 1753081 1678913 1628413 1768118 2132529 2536582
661.47 2768186 3124946 3842179 5054618 6724303 8022853
667.26 8501356 9164992 10632091 12886524 15750376 19153006
673.04 22958835 27093964 31591422 36329960 40866636 44944090
678.83 48371824 51220213 53516936 55520396 57249563 59048509
684.61 62094565 68016950 79695385 106072972 160981521 207348431
690.40 177624333 112261249 79615337 73430268 74302342 72927414
696.18 68847389 65847709 64181379 62586280 60294106 56374340
701.97 50952753 44932913 39017066 33395021 28095487 23101236
707.75 18734632 15071613 12035430 9534531 7642711 6217387
713.54 5039809 4028150 3294875 2824823 2509673 2158702
719.32 1941035 1890115 1785115 1606818 1533195 1501588
725.11 1571638 1763759 1918510 2007558 2098009 1969837
730.90 1711218 1565164 1665805 1824502 1846038 1908537
736.68 2283410 2950380 3915169 5092064 6256414 7506592
742.47 9401920 12108927 15756883 20566824 26600880 33886758
748.25 42613397 52794780 64395731 77156497 90736718 104728493
754.04 118472623 131108094 142363349 152606798 161982428 169906379
759.82 175978980 180694295 187137832 201490967 233472819 298799320
765.61 414641594 546074634 554066586 396435840 246608110 193913987
771.39 184862475 184128076 184040778 182681088 178303848 170723263
777.18 161191993 150013689 136876960 121889013 105973486 90326275
782.96 75587014 62039212 49971315 39607687 30924775 23861423
788.75 18245190 13897390 10626914 8304326 6665755 5520895
794.53 4664427 3821871 3094644 2572749 2138009 1874648
800.32 1830516 1835646 1679854 1423364 1216196 1174414
806.11 1202533 1147407 1074799 962458 798871 760847
811.89 831883 762464 566950 547507 679320 704305
817.68 639095 687494 795601 879400 833329 633718
823.46 443791 381567 448859 524367 540130 527037
829.25 461040 433218 481780 434276 364536 434021
835.03 476983 438662 424526 428740 412228 411113
840.82 433534 476932 575151 668026 691297 721232
846.60 811601 968612 1154767 1388944 1611794 1733681
852.39 1954424 2438931 3078380 3796878 4546783 5317809
858.17 6150535 7085843 8125491 9293848 10414254 11246179
863.96 11897967 12528296 13176022 13802936 14374926 15081670
869.75 16178329 17994938 21412763 27932190 37084008 42114124
875.53 35601625 23532222 16562365 14773370 14444477 14262007
881.32 14142008 14033159 13891471 13694729 13227589 12553750
887.10 11873294 11188064 10539724 10098045 9990208 10281046
892.89 11035632 12126038 13398473 14756178 16103157 17246659
898.67 17929862 17965540 17466400 16962253 17005331 17849545
904.46 19119051 19425947 17912904 15980079 15422171 15926581
910.24 16148336 15456136 13908141 11758947 9337315 6981083
916.03 5046453 3658700 2711868 2068425 1663928 1445616
921.81 1364825 1385271 1381411 1301592 1265623 1338759
927.60 1412556 1441674 1500951 1568936 1641020 1729259
933.39 1807321 1909392 2076387 2196842 2241081 2293090
939.17 2315348 2325576 2393873 2510528 2666862 2758313
944.96 2748964 2736843 2784290 2840978 2887431 2989058
950.74 3103520 3171662 3220898 3247282 3297241 3388356
956.53 3453070 3473126 3509312 3585925 3679454 3801521
962.31 3971953 4136501 4292850 4429185 4551151 4739728
968.10 4918201 4984234 5009337 5095203 5267047 5408664
973.88 5397966 5266789 5106091 4984933 4946482 4948363
979.67 4915806 4835276 4786331 4821364 4872495 4883639
985.45 4914219 4991350 5091439 5226878 5448676 5709084
991.24 5950268 6255109 6619904 6935697 7268928 7705253
997.03 8175947 8634043 9043315 9351896 9629415 9975063
1002.81 10377906 10741858 11036222 11244237 11270765 11110843
1008.60 10804697 10417867 10100724 9875173 9670591 9360327
1014.38 8893925 8481256 8186911 7865682 7496352 7105540
1020.17 6717313 6370977 6184868 6206282 6352924 6626551
1025.95 7003739 7466031 8031916 8679550 9383130 10084040
1031.74 10773388 11520610 12309385 13065334 13811248 14649959
1037.52 15714762 17277401 19561271 22413975 25238197 26662447
1043.31 26135328 24642741 23364378 22947267 22801077 22321985
1049.09 21743349 21389685 21247370 21120051 20884402 20466280
1054.88 19950867 19415342 18739471 17878252 16884440 15821085
1060.67 14765034 13848167 13111184 12423375 11706370 11014139
1066.45 10434218 10036172 9749101 9411704 9051367 8818916
1072.24 8713808 8722943 8845916 9028423 9318553 9767080
1078.02 10373319 11186395 12159545 13257394 14559471 16134508
1083.81 17956296 19919376 21956812 24010340 25981242 27706089
1089.59 29005062 29683754 29247445 27293141 24480774 22434223
1095.38 22102064 23013214 24424810 25766116 26436977 26112035
1101.16 24842807 22874839 20575581 18220903 15950303 13926734
1106.95 12187530 10649151 9314355 8247020 7467692 6935332
1112.73 6560083 6285551 6078255 5924984 5852642 5841059
1118.52 5780507 5615401 5372810 5105408 4864624 4684028
1124.31 4602174 4644441 4818115 4982313 4994269 4889861
1130.09 4676826 4427239 4241387 4071353 3860842 3620725
1135.88 3384703 3185728 3083419 3025239 2937854 2815497
1141.66 2684783 2627484 2660651 2718040 2764740 2890335
1147.45 3123199 3342428 3487948 3665675 3994594 4342130
1153.23 4490796 4459046 4463105 4728781 5271674 5828576
1159.02 6258058 6832702 7732691 8759367 9593466 10025636
1164.80 9991622 9534224 8866993 8451261 8895164 10029630
1170.59 10191586 8751156 7527872 7573242 8226174 8676913
1176.37 8602594 8065211 7209214 6152164 5104291 4255840
1182.16 3634663 3194232 2881311 2689537 2596283 2576153
1187.95 2577122 2585192 2575021 2458868 2282338 2159715
1193.73 2096617 2046742 2010190 2066237 2169676 2191524
1199.52 2142534 2069240 1997594 1916647 1813130 1744423
1205.30 1712150 1668767 1587114 1489364 1456905 1466260
1211.09 1418579 1363211 1352448 1346572 1336759 1308073
1216.87 1246867 1196306 1198743 1239220 1224887 1161335
1222.66 1173035 1234822 1248440 1241983 1248430 1263210
1228.44 1317855 1396765 1438275 1506723 1605174 1677636
1234.23 1754761 1863864 2023316 2187167 2332405 2495562
1240.01 2664449 2872601 3132352 3356669 3513886 3608085
1245.80 3604878 3518307 3397932 3273975 3222731 3306538
1251.59 3501381 3771834 4051688 4292092 4441280 4458733
1257.37 4357949 4166952 3970629 3780292 3569847 3368684
1263.16 3167124 2986957 2865913 2826994 2896047 3022945
1268.94 3081002 3044980 2932585 2753719 2583703 2443732
1274.73 2296697 2194413 2159473 2145586 2147517 2135773
1280.51 2089071 2014061 1940585 1903678 1843580 1759736
1286.30 1714362 1665720 1644277 1723898 1780701 1761435
1292.08 1736176 1796844 1945350 2055551 2129444 2213079
1297.87 2236846 2166867 2095103 2078427 2073371 2105652
1303.65 2135396 2158213 2240704 2330535 2395175 2447041
1309.44 2467196 2429069 2382766 2382961 2374355 2348386
1315.23 2340391 2351439 2390292 2400812 2355603 2325560
1321.01 2330804 2376485 2419378 2415781 2433365 2532828
1326.80 2656662 2688311 2648040 2640192 2682380 2736758
1332.58 2787992 2845501 2911856 2952485 2944005 2946462
1338.37 3028056 3177917 3335430 3502744 3643938 3762212
1344.15 3902579 4048835 4215688 4403145 4622736 4855996
1349.94 5017522 5171367 5511645 5922711 6276239 6642380
1355.72 6947653 7280204 7700099 8067224 8411880 8793549
1361.51 9169412 9622269 10183256 10751799 11402247 12114062
1367.29 12739797 13388281 14273061 15518895 17089966 18909805
1373.08 20962357 23101885 25127564 26808391 27923223 28948308
1378.87 30960940 33391254 33726651 32187635 31575615 32825606
1384.65 34985015 36676239 36982550 35998020 34318743 32460476
1390.44 30679338 28767249 26561137 24496714 22991426 22053220
1396.22 21512385 21151994 20916473 20735789 20451096 19958069
1402.01 19263854 18541748 17972678 17614414 17440585 17443325
1407.79 17612413 17917770 18279649 18554231 18699849 18739608
1413.58 18756297 18818537 18949965 19128567 19205803 19273170
1419.36 19577756 19994085 20312562 20478634 20566752 20649915
1425.15 20785118 21069879 21517189 22093332 22867758 23937212
1430.93 25307826 26921713 28742546 30691140 32561512 34409862
1436.72 36354448 38116000 39503245 40635463 41657985 42725657
1442.51 43852123 44904813 45983640 47228095 48629664 50013276
1448.29 50951684 51300590 51352029 51160976 50568234 49762268
1454.08 49048110 48370559 47777014 47349150 46842227 46321383
1459.86 46148142 46423687 46932285 47455106 47990917 48715751
1465.65 49690332 51006395 52688661 54384646 55702006 56560527
1471.43 57171846 57835125 58721477 59867790 61410855 63558800
1477.22 66167536 68550367 70207991 71918173 74866888 78854175
1483.00 82923084 86872129 90896596 94861770 98380576 100997656
1488.79 102769306 104666630 107460889 110888007 114138291 116520969
1494.57 117643492 117702979 117442290 117732051 119134399 120921411
1500.36 121455768 119793104 116238683 112151830 108611301 105553746
1506.15 102362745 98583668 94011459 88822216 83390159 78004649
1511.93 73083176 69161127 66483227 64667425 62866672 60661626
1517.72 58468096 56724555 55433963 54493714 53749408 53090239
1523.50 52596598 52444577 52717391 53060507 52972337 52413619
1529.29 51725589 51078669 50313313 49240469 47948093 46708418
1535.07 45725355 45071133 44562105 44047748 43478675 42486017
1540.86 40784729 38597330 36126586 33503879 31079807 28999800
1546.64 27157565 25530022 24146825 23035751 22149994 21377692
1552.43 20641532 20023814 19591149 19157383 18607659 18115422
1558.21 17820856 17683303 17667966 17631335 17577893 17584047
1564.00 17621451 17754034 18031575 18389333 18719051 19013406
1569.79 19266153 19394116 19405258 19368065 19221189 18965720
1575.57 19011843 19497589 19974907 20281831 20584155 21034061
1581.36 21737421 22709752 23861979 25086074 26342772 27816660
1587.14 29646617 31813137 34258279 36891399 39401582 41390855
1592.93 42608567 43042654 43138634 43842236 46250064 50926997
1598.71 57390517 64493836 71211641 77002129 81818976 86271779
1604.50 91326735 98126348 107845561 120627349 134626450 147455098
1610.28 157713955 163948739 164199905 158711376 151749654 149564634
1616.07 156533533 167038510 162573066 141477868 126220522 125025977
1621.85 128563485 128702806 122229876 109435651 92592220 74443661
1627.64 57420989 43027587 31726404 23361623 17477749 13432304
1633.43 10685843 8984202 8143908 7682319 7201972 6646091
1639.21 6145420 5800645 5592496 5485177 5509310 5624812
1645.00 5841940 6195896 6554087 6845889 7052983 7076817
1650.78 6775285 6321653 6206555 6473198 6782605 6772387
1656.57 6314997 5784373 5592586 5645730 5642271 5406753
1662.35 5000091 4527280 3980107 3381108 2794371 2244469
1668.14 1808137 1561145 1391777 1233849 1113380 967144
1673.92 818829 803866 857599 816988 719256 645301
1679.71 624000 598513 496482 299980 139797 280773
1685.49 529317 582708 568597 589191 655025 748808
1691.28 814385 884407 888404 696772 687329 1035549
1697.07 1304362 1279794 1147218 1238283 1434131 1426758
1702.85 1327548 1359838 1509356 1583662 1508598 1372514
1708.64 1323625 1394135 1480427 1507530 1462065 1336076
1714.42 1225992 1113382 976720 1012426 1158459 1258082
1720.21 1341038 1463064 1616743 1795553 2055074 2368290
1725.99 2665551 2931117 3154272 3347842 3541839 3728805
1731.78 3951217 4314694 4977422 5919203 6856410 7604106
1737.56 8152611 8564631 8942874 9205102 9222289 8986724
1743.35 8534984 7958946 7479077 7344862 7610456 8171050
1749.13 8746259 9085942 9233745 9130241 8761697 8296100
1754.92 7826784 7434439 7142564 6861470 6597304 6398544
1760.71 6318895 6456524 6762907 7145456 7506939 7772082
1766.49 8113323 8629184 9127547 9356063 9179179 8656470
1772.28 8003625 7300665 6628808 6285235 6405044 6932029
1778.06 7603784 7923333 7674085 7060983 6361327 5677052
1783.85 5005905 4349372 3691815 3104795 2636057 2232011
1789.63 1857034 1522324 1281234 1187085 1161153 1110970
1795.42 1049977 1019224 1019337 1032372 1103935 1225883
1801.20 1357634 1477887 1560494 1638652 1739243 1848519
1806.99 1957919 2045744 2132083 2271370 2380248 2371696
1812.77 2315063 2293540 2319969 2385648 2455146 2451091
1818.56 2378565 2303727 2230193 2167636 2117587 2056494
1824.35 2037383 2085644 2162470 2258514 2374208 2548421
1830.13 2813149 3140212 3484863 3847935 4243313 4619539
1835.92 4942117 5237787 5516152 5754065 5978327 6342896
1841.70 7007246 7979240 9275032 10822777 12353631 13588982
1847.49 14342431 14530862 14125634 13370089 12925014 13359014
1853.27 14259874 13871074 11679007 9973213 10065475 10917755
1859.06 11426654 11191545 10258633 8893679 7349159 5778673
1864.84 4337223 3182254 2375019 1865226 1609999 1513114
1870.63 1439457 1384406 1366588 1359363 1343457 1300188
1876.41 1238170 1163721 1104063 1080573 1067695 1089626
1882.20 1155759 1170717 1120353 1115919 1187305 1278044
1887.99 1348981 1397909 1414194 1368125 1286299 1249043
1893.77 1317609 1438124 1495397 1490198 1496379 1532377
1899.56 1592703 1693803 1814109 1918831 2026724 2155199
1905.34 2331261 2535415 2696840 2849598 3060844 3305227
1911.13 3558126 3836455 4134834 4481948 4812030 5036916
1916.91 5295957 5751520 6349906 7009810 7730546 8504887
1922.70 9328023 10198413 11080399 11889952 12545963 12991361
1928.48 13122797 12826387 11992443 10778568 9779629 9374799
1934.27 9552274 10429232 11677027 12399634 12199937 11331936
1940.05 10173618 8938526 7696608 6485626 5367349 4413422
1945.84 3624991 2962705 2419199 1978110 1581484 1215880
1951.63 909657 677580 519365 418101 339324 253794
1957.41 176028 115797 70504 17414-8700 46799
1963.20 114294 126869 122960 150026 200746 229293
1968.98 206945 169094 152869 134990 121270 112872
1974.77 94698 77073 62612 51521 36899 32494
1980.55 25814 23525 28642 12088-15852-39927
1986.34-59813-68524-48058-27475-47986-58175
1992.12-46741-52071-45008-5952 23169 21279
1997.91 13788-2078-8375 4535 4284-7380
2003.69 14947 40935-18026-97565-84913-57853
2009.48-88054-112053-106653-95918-88643-83261
2015.27-78508-74523-45491-8215-14937-43092
2021.05-41353-14484-4378-35071-70010-80411
2026.84-108848-162716-204956-222950-223379-209933
2032.62-181370-168025-222420-295304-320435-320322
2038.41-324571-332235-357267-399845-448712-491358
2044.19-493350-470387-452847-438841-460391-501301
2049.98-508387-489345-481333-507594-537116-534638
2055.76-507822-468989-447448-430029-395915-393209
2061.55-403772-388534-362816-304957-238372-197107
2067.33-149291-103989-83772-54937-5615 36818
2073.12 36733 1563-53372-75816-73157-80670
2078.91-37752 53371 118016 115199 61067 6140
2084.69 3626-36862-147034-214913-203534-169822
2090.48-186115-191154-145171-69214-43621-64461
2096.26 12522 187616 302941 298570 283306 325367
2102.05 407877 458002 523995 619767 651052 569419
2107.83 447467 450048 594097 689888 610162 489927
2113.62 459283 444866 261494 45077-21461-55956
2119.40-202823-344685-335720-233458-227411-317252
2125.19-329012-248362-244553-349441-404463-360421
2130.97-333514-364962-351037-294020-275927-271137
2136.76-249635-210772-138462-96984-99795-98313
2142.55-57947 15320 64858 71299 61946 45015
2148.33 55264 139035 199528 145910 96907 122746
2154.12 103916 46130 87934 159494 111444 25485
2159.90 48633 85228-28878-130391-45913 23547
2165.69-75599-156823-91750-79552-177743-157144
2171.47-66891-118221-191761-112047-51410-162377
2177.26-232945-157222-141267-234861-250001-177724
2183.04-200157-271900-259190-253293-288271-253094
2188.83-179007-213387-288550-256355-242728-301959
2194.61-280345-225242-244444-261961-228192-216745
2200.40-227988-191477-161008-163895-119228-67722
2206.19-83261-93354-48998-19666-18149 22727
2211.97 68177 65535 59994 70760 69367 55411
2217.76 38726 28969 43496 44365 13380-13494
2223.54-25106-31998-50593-85941-123756-165432
2229.33-191060-200403-222741-213462-175673-148720
2235.11-134555-161228-221512-232624-167869-127634
2240.90-159811-184377-161802-130228-107500-99919
2246.68-94485-77814-65675-64171-55505-18088
2252.47 46220 112117 181153 255266 295786 349988
2258.25 445845 495771 491141 507012 525496 521493
2264.04 530679 565200 637187 695554 696719 704355
2269.83 750723 792879 804936 805582 829800 913671
2275.61 1016776 1083136 1140207 1204283 1292503 1383994
2281.40 1422667 1438132 1477796 1537297 1606476 1700382
2287.18 1771683 1794870 1827512 1873838 1892680 1895626
2292.97 1872316 1747395 1538770 1347146 1200554 1068717
2298.75 954143 845860 740860 654236 601067 575815
2304.54 525437 462534 430500 438919 476366 516889
2310.32 539323 530965 515668 520990 559020 632061
2316.11 740561 841195 928776 1033817 1152663 1237993
2321.89 1302627 1354767 1388154 1416001 1425511 1411471
2327.68 1418786 1443134 1531815 1697765 1870408 2025430
2333.47 2150488 2210276 2204056 2178480 2141799 2080677
2339.25 2036709 1993486 1916640 1850897 1825370 1814142
2345.04 1824042 1849089 1817908 1735925 1704644 1723666
2350.82 1723636 1697689 1649665 1602509 1610964 1642249
2356.61 1635561 1617641 1588354 1543959 1494052 1431800
2362.39 1392090 1380778 1333539 1256917 1191818 1134901
2368.18 1066059 987399 931657 881285 801367 721997
2373.96 676457 670192 673187 677013 683937 710422
2379.75 755714 811584 873117 925111 965416 993362
2385.53 1037936 1138527 1268190 1345768 1352026 1348092
2391.32 1359732 1369793 1381762 1415249 1450394 1437974
2397.11 1442241 1494689 1507852 1485578 1491420 1495179
2402.89 1466451 1464354 1492629 1525900 1565549 1596849
2408.68 1636205 1686000 1722184 1763039 1840273 1934939
2414.46 2019687 2096901 2167693 2226906 2228799 2179722
2420.25 2176883 2191939 2150075 2113038 2134665 2158277
2426.03 2138784 2089143 2010131 1914328 1840381 1800010
2431.82 1750188 1701310 1661924 1639706 1630465 1606066
2437.60 1583550 1567624 1548888 1545116 1549691 1551775
2443.39 1563053 1547057 1529753 1530348 1505419 1490437
2449.17 1499378 1495510 1495518 1511681 1508582 1502731
2454.96 1499008 1485198 1469807 1454952 1436861 1421778
2460.75 1418816 1412867 1408005 1429834 1472284 1515779
2466.53 1539115 1554912 1590667 1589760 1531373 1470096
2472.32 1428386 1404289 1392931 1402841 1407757 1396294
2478.10 1437858 1471830 1439371 1424617 1439808 1449682
2483.89 1423331 1344839 1277966 1278896 1318996 1347511
2489.67 1346878 1336295 1337769 1315149 1297835 1309039
2495.46 1281277 1251365 1276642 1288415 1261896 1239144
2501.24 1197403 1176023 1209358 1226041 1175814 1078128
2507.03 979196 883186 809061 778777 766556 727639
2512.81 656059 614394 594479 550006 493659 460272
2518.60 433996 407014 404570 404359 385708 370227
2524.39 387157 398950 392782 443437 578941 722068
2530.17 804937 865121 955103 1070824 1178200 1226061
2535.96 1237342 1248843 1283935 1396134 1510083 1549738
2541.74 1505544 1424299 1393704 1400421 1385680 1343029
2547.53 1286864 1217953 1129884 1000046 808126 636952
2553.31 537621 489922 486371 476314 428822 395314
2559.10 390191 395614 420756 426380 371716 321469
2564.88 305790 295284 297918 303824 306652 323517
2570.67 322069 293290 276903 285727 298249 300883
2576.45 283378 239755 186141 161151 176445 201810
2582.24 228719 266279 310367 343987 368901 410612
2588.03 453534 491794 512848 518757 537291 533644
2593.81 487576 499763 570857 643225 716068 760720
2599.60 772282 765379 736977 698590 651175 616833
2605.38 603545 596870 620962 656057 679371 708055
2611.17 707553 672644 677518 728303 742802 720905
2616.95 696162 688941 721577 789335 857795 907486
2622.74 972564 1003804 953094 912192 907134 888805
2628.52 873729 903733 933858 931100 946172 993036
2634.31 1041880 1094487 1130132 1113503 1055946 982132
2640.09 910866 851246 832901 826134 798007 763752
2645.88 692374 640820 657258 699408 739046 756583
2651.67 716719 639860 577314 498658 401259 359050
2657.45 376038 356111 309287 318078 323182 277797
2663.24 201956 123399 123725 175048 160896 89153
2669.02 59231 69251 47473 14447 27813 84705
2674.81 101948 77496 52087 12902 16432 86306
2680.59 125214 84939 31027 7953-7806 10358
2686.38 72144 112697 86221 77128 162148 246501
2692.16 221584 140349 83066 63915 81529 141472
2697.95 204824 256238 334524 408761 442794 490463
2703.73 557767 596347 633982 705373 785117 847853
2709.52 927045 1000536 1038941 1086073 1167175 1245528
2715.31 1303885 1404125 1532583 1645652 1734748 1803903
2721.09 1908975 2093201 2322526 2563056 2835579 3183816
2726.88 3622860 4179130 4870627 5712453 6737514 7914276
2732.66 9171398 10458484 11632316 12525734 13002572 13018576
2738.45 12866704 13143602 14457779 15895990 15364572 13973209
2744.23 14157382 15406739 16342882 16511135 15864875 14471694
2750.02 12595895 10615462 8826093 7338155 6211173 5432636
2755.80 4798365 4219015 3751706 3400146 3147090 2932679
2761.59 2721508 2527099 2384991 2310719 2237954 2118478
2767.37 2002724 1962700 1993239 2007474 1967101 1898591
2773.16 1847936 1849940 1892200 1933968 1951528 1962297
2778.95 1965902 1956119 1982099 2028058 2053874 2094037
2784.73 2148211 2180723 2232043 2325376 2427534 2535829
2790.52 2629551 2681879 2719421 2805962 2917605 3019671
2796.30 3107129 3194933 3312953 3414147 3488097 3555755
2802.09 3652291 3782047 3930730 4075787 4181136 4310868
2807.87 4500675 4668176 4810406 4999091 5241583 5448872
2813.66 5621272 5820301 6054148 6286594 6518845 6811152
2819.44 7116049 7403255 7718179 8018629 8290620 8590499
2825.23 8935087 9286864 9625062 9995612 10346075 10600849
2831.01 10831938 11135018 11508743 11917082 12324474 12761743
2836.80 13263878 13805183 14373781 14984958 15643828 16404426
2842.59 17275376 18221280 19262441 20384980 21629690 23036624
2848.37 24509507 26111881 27976476 30088284 32411497 34945067
2854.16 37663253 40614590 43923372 47510456 51326010 55532138
2859.94 60094580 64898913 69979209 75367045 81060363 87010306
2865.73 93028246 98924297 104626662 110037188 115013225 119406824
2871.51 123189821 126398378 128959578 130870867 132263692 133194070
2877.30 133662230 133802696 133634225 133033615 131965019 130449226
2883.08 128426212 125836994 122840397 119600280 116222865 112899388
2888.87 109860323 107213867 104959118 103212960 102014946 101249100
2894.65 100831949 100739461 100987030 101546600 102273432 103197784
2900.44 104573477 106378119 108337511 110363240 112452298 114575662
2906.23 116782513 119045093 121297095 123618503 126160152 129102385
2912.01 132609834 136704310 141264031 146345175 152080254 158476698
2917.80 165608560 173489616 181949739 190704810 199611065 208670973
2923.58 217775045 226655408 235027309 242655858 249540070 255922683
2929.37 261992461 267705177 272746608 276806578 279929410 282193807
2935.15 283209146 282230477 279225213 275318070 271399935 267494400
2940.94 263483449 259414694 255058251 248636183 237314344 221308038
2946.72 204364594 189334940 177043761 167438078 160268671 155201616
2952.51 150235888 142632762 133196664 125129611 119572131 115879436
2958.29 113347237 111272552 108884478 105890814 102457071 98787705
2964.08 95098606 91413886 87728507 84215234 81029494 78327553
2969.87 76279175 74935012 74290950 74374922 75049353 76031583
2975.65 77148480 78344147 79787978 81852948 84651183 87971680
2981.44 91420039 94384568 96228013 96725985 96483471 96702818
2987.22 98267355 101080637 104074650 106240649 107788428 109641281
2993.01 112314067 115533795 118550861 120756928 122176426 123327889
2998.79 124796822 127113959 130599079 135269417 140778437 146434057
3004.58 151312115 154827667 157331602 160022776 164001446 169555614
3010.36 176352451 183565206 189863989 194201185 197011826 199576189
3016.15 202848886 207575686 214121761 222001041 229953071 236590818
3021.93 241525009 245428756 248881405 252280924 256177209 260287844
3027.72 263025881 263716984 263814814 264632238 265837933 266270644
3033.51 264912509 261341973 255761033 248864195 241788055 235529287
3039.29 230085561 224498486 218001977 211351399 206053393 202494877
3045.08 199571869 195815254 190405309 183512423 175979671 168648881
3050.86 162145951 156857375 152875231 150085340 148282810 147170479
3056.65 146389939 145632496 144438234 142194647 138644621 134376346
3062.43 130805018 129209435 129628081 131431073 133694245 134656033
3068.22 132709815 127724333 120753487 112945551 104950809 97019076
3074.00 89309193 82043754 75355348 69215090 63620521 58575002
3079.79 54115201 50272878 47047792 44411326 42116426 40074815
3085.57 38348944 36947751 35850303 34855247 33749428 32538521
3091.36 31330051 30238228 29345763 28609009 27930703 27283112
3097.15 26755240 26405076 26125593 25807432 25422208 24978270
3102.93 24530940 24168366 23864284 23606354 23451713 23360744
3108.72 23294595 23236678 23131160 22971125 22795014 22565018
3114.50 22192470 21587581 20801450 19990160 19265167 18574421
3120.29 17956420 17455747 16877305 16191580 15444181 14546666
3126.07 13481188 12316766 11098302 9919049 8814856 7812140
3131.86 6993737 6321861 5701084 5135639 4612538 4094552
3137.64 3615343 3266378 3042805 2817302 2553944 2321697
3143.43 2162746 2017046 1864715 1770897 1697057 1601166
3149.21 1512827 1425797 1328675 1260006 1232138 1209164
3155.00 1181976 1159686 1148816 1115708 1044325 988514
3160.79 969618 932525 852525 803374 795876 776747
3166.57 762027 763664 727972 679547 700310 767834
3172.36 781692 729805 606557 516789 572321 673583
3178.14 702127 685618 691323 726895 706510 632332
3183.93 577162 563444 592657 601106 552178 501625
3189.71 490102 478760 445943 458636 529925 567966
3195.50 548114 529775 474859 371923 309680 324542
3201.28 336894 354191 378325 334368 253140 239824
3207.07 309392 359297 375822 426223 453483 413262
3212.85 382006 320386 201317 93610 33688 23612
3218.64 16343-29160-95078-180612-300997-399763
3224.43-434867-481785-538304-516461-466715-401324
3230.21-320553-352922-488974-645429-751620-755669
3236.00-674581-515354-408995-428722-460820-445972
3241.78-438417-410844-370110-320385-282264-308534
3247.57-297485-261841-265498-197274-49399 37055
3253.35 30627 39296 113764 222577 319209 364048
3259.14 329147 298319 326763 324910 299579 315163
3264.92 369264 425993 442604 467447 455694 353110
3270.71 277980 278546 259517 228433 191494 139720
3276.49 158900 202495 167958 95198 31171-36714
3282.28-69426-31660 29885 53688 44787 40564
3288.07 33815 15435-2173 11770 52218 74368
3293.85 74210 72178 74026 62840 26502 34296
3299.64 53577 32587-13567-18654 46472 48884
3305.42-4288-25640-26671-44117-42752 6194
3311.21 20499 1596-30902-79616-95511-91949
3316.99-86042-75716-73826-58580-18261-10104
3322.78-47501-110571-140711-106063-75037-76236
3328.56-87544-40540 16285 16820-6174-45542
3334.35-62695-16503 20171-38014-78029-4909
3340.13 67827 91677 52695-44549-76217-14475
3345.92 40361 64013 60391 54347 25894-55310
3351.71-88070-69992-92491-86506-44012-32361
3357.49-47382-91246-134157-121978-106212-127847
3363.28-157636-203800-216170-159031-113959-112324
3369.06-75526 54295 139147 97591 36927-15426
3374.85-7136 29910 51373 109302 135760 138605
3380.63 152228 107109 106701 218958 294029 255752
3386.42 247314 286621 302912 363490 381359 303917
3392.20 230640 284994 471604 624549 606850 466894
3397.99 389806 333383 245760 281202 388809 445999
3403.77 447711 390991 313828 319599 373500 386946
3409.56 383667 388250 413487 350545 252774 288248
3415.35 380242 456898 461967 410318 432231 518239
3421.13 543696 508752 461283 436760 446426 404914
3426.92 370261 426733 486244 459002 371016 367182
3432.70 465310 512369 443283 367973 344375 342219
3438.49 367495 429530 463318 423300 355335 319831
3444.27 306469 330224 385115 448174 465631 437245
3450.06 437542 467136 445637 432245 465479 448791
3455.84 423129 489073 547992 499862 404190 346156
3461.63 348715 374007 406738 391945 390754 442295
3467.41 463495 481026 485669 446106 398721 333482
3473.20 246539 189653 142498 118679 108973 39543
3478.99-5513 14899 49080 59175 9304-69702
3484.77-148239-188054-217764-276306-280323-224831
3490.56-209687-258143-341176-371407-301148-243117
3496.34-271745-271418-248226-277109-301302-337705
3502.13-388555-436712-459233-394932-312975-299769
3507.91-304127-308792-314827-330129-379169-396313
3513.70-386066-346590-269799-231302-260705-337530
3519.48-377570-312358-254160-295575-321846-257528
3525.27-244911-285325-250772-213504-197573-155603
3531.05-115790-81803-79444-105144-95635-16168
3536.84 51834 70334 122820 198061 210823 163804
3542.63 188519 315757 423661 471596 484706 498964
3548.41 567416 627552 568917 511430 546977 567988
3554.20 549671 530378 526960 539601 503608 439778
3559.98 431357 478500 485681 395385 339979 380790
3565.77 351802 210273 142239 154253 136861 163972
3571.55 208811 186715 170710 173802 145099 120905
3577.34 117628 114213 91882 71121 63502 58572
3583.12 84378 93283-12907-142831-175438-138121
3588.91-107025-155566-245165-256903-209944-197583
3594.69-183596-180867-225711-279686-321725-340118
3600.48-304687-259121-316982-367525-330788-318607
3606.27-365551-451115-469678-331952-239997-299340
3612.05-360916-391128-385450-310797-260376-291217
3617.84-387505-417792-331396-291690-288564-250334
3623.62-245956-277868-309092-367547-456058-462016
3629.41-376579-338216-331006-291348-226725-196283
3635.19-249811-303058-327816-331250-267842-235360
3640.98-300549-333750-281823-229831-255972-341309
3646.76-396222-458467-487448-396509-311611-311073
3652.55-362572-402884-430277-399840-290778-221621
3658.33-249628-331495-376527-355315-341571-348071
3664.12-331598-334748-341172-322098-356866-485591
3669.91-505770-313960-208486-340267-578084-666251
3675.69-515912-331299-255359-266476-274639-239701
3681.48-231727-277103-341468-326698-261958-376142
3687.26-576543-544035-416819-333352-255767-269146
3693.05-276959-197926-221998-304274-285837-224802
3698.83-174131-173181-181028-110383-60870-85498
3704.62-125516-128336-152864-256654-353968-321260
3710.40-280198-245644-136789-94699-141202-167444
3716.19-124346-89550-103794-70244-37322-80892
3721.97-112826-108950-53940 43980 114029 144841
3727.76 139804 185596 240271 212887 240483 308449
3733.55 277795 234589 258562 360377 481130 541322
3739.33 550342 529804 510456 379850 133516 201844
3745.12 536909 672006 532168 306097 275505 338656
3750.90 285278 392601 641892 747554 734378 723555
3756.69 704513 579410 487188 585652 722741 791500
3762.47 819222 790049 779255 838424 892063 869783
3768.26 788042 781490 875554 907931 850549 825016
3774.04 862985 885189 849229 802657 758289 725027
3779.83 783668 865810 867275 810260 761173 719085
3785.61 642929 553472 490177 447965 463795 515091
3791.40 543691 537654 503513 420707 295473 272301
3797.19 319722 269873 94494-88696-72357 98015
3802.97 201296 202136 162436 142247 196200 220995
3808.76 217821 224834 151748 85771 120178 118009
3814.54-15101 11160 240380 359264 315288 200165
3820.33 134049 217063 348083 429330 492011 482899
3826.11 432884 476866 545339 502165 407853 434692
3831.90 532872 528215 485484 506481 437953 286534
3837.68 329826 460621 467712 485772 537349 543754
3843.47 564251 600668 592917 562753 546095 541103
3849.25 483212 335278 177210-6661-142785 50303
3855.04 334274 450485 453098 423008 422058 335822
3860.83 225592 278097 324710 240551 236848 356369
3866.61 434671 396012 254150 218416 356110 478669
3872.40 508268 519464 580523 647802 680341 709667
3878.18 719494 681785 705625 825846 882886 872655
3883.97 820586 774464 860255 965413 972732 940437
3889.75 915454 981206 1114293 1179659 1181537 1194898
3895.54 1233583 1261223 1240028 1215116 1250317 1297150
3901.32 1343884 1393511 1425025 1494176 1628101 1728877
3907.11 1713143 1687996 1729334 1784686 1803089 1844525
3912.89 1913482 1965655 1993114 1963442 1896291 1849174
3918.68 1820980 1810200 1863348 1917870 1862858 1820503
3924.47 1882530 1898359 1761935 1645071 1662274 1671513
3930.25 1618681 1555273 1521206 1536867 1569749 1575407
3936.04 1546894 1535404 1538648 1513240 1504476 1524330
3941.82 1568682 1587112 1537621 1491599 1453517 1431602
3947.61 1476991 1533027 1530668 1516281 1465501 1410822
3953.39 1428885 1469081 1452989 1425039 1475345 1540293
3959.18 1561921 1580906 1601841 1594118 1606747 1693079
3964.96 1764341 1730071 1684046 1675885 1677029 1684838
3970.75 1660222 1627777 1660410 1661283
##END=
