##TITLE=Vinyl Acetate
##JCAMP-DX=4.24
##DATA TYPE=INFRARED SPECTRUM
##CLASS=IUPAC A
##ORIGIN=NIST, Anayltical Chemistry Division, 301-975-3108
##OWNER=COPYRIGHT (C) 1998 by the U.S. Secretary of Commerce
##DATE=98/10/1
##$SPECTRA VERSION=1.00
##$UNCERTAINTY IN Y=2.1 % relative (B=1.1E-04,C=7.7E-10,D=2.7E-14)
##CAS NAME=Ethenyl Ester-Acetic Acid
##CAS REGISTRY NO=108-05-4
##MOLFORM=C H3 C O2 C H: C H2
##MP=-93.2 C
##BP=72.2 C
##$NIST SOURCE=QUANT-IR
##SPECTROMETER/DATA SYSTEM=IFS66V (Bruker)
##INSTRUMENT PARAMETERS=KBr Beam splitter; MCT Detector; Multipass cell
##STATE=gas
##SAMPLE DESCRIPTION=Vinyl Acetate Primary Gas Standard
##PRESSURE=101.3 kPa
##TEMPERATURE=23 C
##SAMPLING PROCEDURE=1 L/min Flow
##RESOLUTION=1.9290
##DATA PROCESSING=Triangular Apodization
##XUNITS=cm-1
##YUNITS=(micromol/mol)-1m-1 (base 10)
##XFACTOR=1.0
##YFACTOR=18.189E-13
##DELTAX=0.9645
##FIRSTX=574.687
##LASTX=3974.595
##FIRSTY=.0000107
##MAXX=3973.63
##MINX=574.69
##MAXY=.0027116
##MINY=-9.82E-07
##NPOINTS=3527
##XYDATA=(X++(Y..Y))
574.69 5899218 6424366 7044416 7579068 7955910 8485502
579.51 9079546 9603644 10083800 10550990 11090510 11556340
585.29 12436270 14041830 15019130 15627070 16790880 18440340
591.08 19886670 20172850 19871210 19260500 18301430 17431680
596.86 16797770 16250970 15962920 15872740 15892180 15995500
602.65 16116600 16305750 16564870 16825560 17149000 17540120
608.44 17844780 18115230 18385150 18621660 18802820 18858320
614.22 18892200 18914100 18814680 18792520 18844320 18914480
620.01 19128970 19500080 19968220 20553360 21299430 22131610
625.79 22925820 23687830 24351790 24788520 25034310 25007800
631.58 24640110 24062450 23479640 23092440 22913420 23046000
637.36 23273740 22991360 22695550 22710170 22738400 22688130
643.15 22382160 21920880 21261900 20368700 19386370 18346410
648.93 17283250 16222290 15194800 14175840 13230230 12344940
654.72 11535060 10831360 10130310 9418906 8732476 8066464
660.50 7436644 6844056 6290086 5780878 5275468 4813888
666.29 4432178 4089384 3779944 3502382 3269720 3112940
672.08 2996912 2867070 2786412 2748366 2703360 2726398
677.86 2780134 2831208 2886822 2955128 3063922 3163854
683.65 3297982 3441494 3583692 3740180 3878404 4024742
689.43 4192718 4357094 4521958 4735464 4960790 5123904
695.22 5281714 5458216 5707524 5877264 5804494 5760976
701.00 5771576 5795090 5889680 5959110 5957008 5984814
706.79 6019288 6024194 6093498 6203654 6352294 6544210
712.57 6652894 6633994 6613298 6558356 6382024 6164580
718.36 5912492 5644862 5352446 5099590 4928716 4793266
724.14 4694180 4612438 4499292 4358600 4247534 4148902
729.93 4058440 3976442 3890064 3799142 3719048 3652688
735.71 3560790 3475632 3407100 3344488 3283102 3220096
741.50 3198002 3204844 3201816 3178642 3180514 3212202
747.29 3237110 3276838 3317928 3349134 3382288 3409634
753.07 3440992 3485432 3548536 3603664 3651974 3695708
758.86 3768972 3882326 3976302 4062644 4168170 4270116
764.64 4376554 4510368 4663506 4806618 4927018 5042064
770.43 5169634 5278154 5373590 5446490 5485708 5519014
776.21 5535090 5520494 5485980 5449806 5429310 5426816
782.00 5425558 5413622 5394856 5373790 5351984 5322260
787.78 5295304 5254586 5204738 5177894 5136496 5094276
793.57 5072608 5083692 5105996 5127972 5144970 5153746
799.35 5207618 5276472 5331682 5417332 5504158 5577636
805.14 5673360 5777986 5897340 6036822 6206978 6418150
810.93 6672686 6957516 7246132 7570162 7900582 8235650
816.71 8612212 9018492 9443138 9890906 10397980 10971300
822.50 11624920 12329590 13144490 14051860 15018410 16112490
828.28 17314290 18648400 20199230 21929480 23846860 26008710
834.07 28392270 31026960 33875520 36761850 39583850 42220600
839.85 44515720 46338360 47689430 48681370 49646930 51300260
845.64 53495000 55302600 57065500 59467120 62735520 66757760
851.42 71096690 75445710 79447820 82769490 85166380 86464190
857.21 86835390 86589210 86012260 85364150 84708180 84124070
862.99 84042540 84827940 87143780 91351770 98090310 109559400
868.78 132765200 153047900 151376900 139610100 128042000 117541400
874.57 107859200 99571200 93595960 89464250 86731090 84661810
880.35 82845310 81092410 79252280 77200800 74943010 72359060
886.14 69341070 65997580 62341770 58488790 54598830 50603420
891.92 46557590 42474390 38500100 34749350 31225270 27932790
897.71 24935270 22227370 19806000 17664540 15786630 14177400
903.49 12785640 11598930 10623070 9800304 9155642 8676164
909.28 8323038 8092706 7987888 7987692 8103320 8342508
915.06 8695976 9170358 9753278 10439930 11248440 12188070
920.85 13272050 14500970 15877270 17406660 19102800 20949460
926.63 22955850 25092110 27327300 29615030 31913170 34183390
932.42 36368550 38451280 40406940 42240750 43991260 45773720
938.21 47722640 49905260 52320340 54947470 57726020 60596980
943.99 63282480 65497380 67321730 68678940 69645490 70615550
949.78 71671030 72943460 74910130 77484070 80800460 83439380
955.56 83962200 81664460 76126090 66790750 59937420 58865420
961.35 59111490 60123840 61416960 62786910 64284250 65732820
967.13 66812900 67366250 67210270 66182540 64380520 62136260
972.92 59977920 58576330 58252660 57325350 55590510 54234380
978.70 53367790 53925290 55478480 56846650 57280460 56494160
984.49 54648980 51920020 48629030 45339960 42463760 40141090
990.27 38491580 37525460 37257690 37621690 38503990 39894030
996.06 41738600 43963120 46585750 49624990 53100840 57052830
1001.85 61496640 66478710 72056300 78285030 85111180 92564090
1007.63 100777400 109738600 119280900 129295500 139657300 149956400
1013.42 159792500 168758700 176414000 182356200 186287100 188217600
1019.20 188494900 187531100 186400300 186161100 185571700 185256400
1024.99 187169100 182038400 172962200 170707000 169645500 166286800
1030.77 160576900 151889700 140918200 128507100 115458600 102483800
1036.56 90402330 79961610 71171640 63910780 58053690 53432010
1042.34 49787030 46942130 44777110 43321740 42553330 42630710
1048.13 42284200 40695030 39442850 38680510 37957090 37300940
1053.91 36667780 36101000 35647020 35274610 34932820 34620610
1059.70 34358930 34117740 33870320 33624760 33333010 33000690
1065.48 32665530 32270950 31824710 31381240 30920760 30435650
1071.27 29943970 29486050 29035020 28591830 28130080 27631650
1077.06 27126450 26640030 26139650 25648550 25183260 24682630
1082.84 24160740 23620300 23085030 22572640 22080890 21631650
1088.63 21175810 20725130 20312580 19901030 19478100 19072740
1094.41 18694770 18357140 18078900 17848650 17659560 17509290
1100.20 17410810 17361640 17343380 17368310 17453330 17570570
1105.98 17717080 17890510 18103580 18365170 18646600 18996360
1111.77 19430500 19935710 20541330 21242490 22090160 23139560
1117.55 24415620 25935070 27755300 29901590 32426240 35480150
1123.34 39078320 43456580 48999400 56099630 65408990 77734510
1129.12 94031260 115139600 141586400 173293400 210100200 252415400
1134.91 299510000 348937900 397162300 440107200 473427800 493889200
1140.70 499668600 491221200 474205400 459119500 457021600 473193700
1146.48 498547300 512222500 499255700 476900300 475996200 498782600
1152.27 521453200 523577800 501583300 459058000 402352100 338581300
1158.05 275100700 217088700 167477900 127686200 97433420 75462730
1163.84 60080280 49650950 42707920 38127320 35119860 33123330
1169.62 31816840 30975800 30509080 30341000 30464380 30859330
1175.41 31396790 32106210 33063130 34290090 35797000 37523070
1181.19 39486120 41722540 44236240 46956530 49885730 53027520
1186.98 56343430 59857040 63664690 67820490 72546670 78133330
1192.76 84944380 93355360 103852300 116749400 131589500 148500800
1198.55 169379800 195099800 225174300 259420600 298254100 341923900
1204.34 390878700 445757900 507130800 575718100 651718300 735136600
1210.12 826220400 923992800 1025703000 1126936000 1223895000 1310806000
1215.91 1382553000 1436409000 1470501000 1484307000 1482059000 1473467000
1221.69 1464859000 1464397000 1488179000 1490728000 1439326000 1393263000
1227.48 1383682000 1393839000 1393623000 1360837000 1286889000 1173886000
1233.26 1034984000 885723600 739692900 607366300 495163700 404937500
1239.05 335760700 284457000 247327300 220646300 201233200 186355100
1244.83 174144500 163467300 153821700 145206800 137992300 132983000
1250.62 130561600 128317600 122876100 116072600 112024900 111058200
1256.40 111399100 111041600 108622400 103646400 96534880 87969340
1262.19 78835380 69975940 61935490 55057380 49385480 44814160
1267.98 41244180 38506560 36419230 34810840 33641510 32952660
1273.76 32707680 32830830 33324360 34285360 35900370 38275570
1279.55 41452050 45452100 50302500 55994590 62387740 69178390
1285.33 75973620 82131660 86992050 90378490 92080920 92489390
1291.12 92303230 92689800 93887580 94499470 94712930 94377170
1296.90 93792870 93515110 93352380 93176550 92532990 90976310
1302.69 87988920 83367240 77286590 70175690 62561280 54916330
1308.47 47679460 41131680 35410290 30546880 26491280 23168140
1314.26 20469560 18260540 16456850 14992220 13781620 12783430
1320.04 11943400 11213630 10605480 10087830 9635784 9258548
1325.83 8937710 8663580 8430514 8245454 8104576 8001226
1331.61 7935438 7889606 7870436 7877912 7919024 7997746
1337.40 8103720 8259196 8481310 8774936 9158610 9619748
1343.19 10139880 10761980 11537230 12445010 13511600 14779480
1348.97 16267850 18006660 20090600 22580600 25541950 29081890
1354.76 33349950 38432620 44447790 51616720 60097530 69928020
1360.54 81144560 93632660 107125600 121183700 135282900 148835700
1366.33 161268000 171716700 180052500 186482400 191401000 196793300
1372.11 206087900 215906400 216981600 215165200 218263500 224830800
1377.90 232918900 239137000 240725600 236790000 227920900 215068900
1383.68 199858800 183495500 167469400 153237400 139899500 126648100
1389.47 113949900 102291400 92350600 83912350 76238590 68963000
1395.25 62000400 55334080 49096030 43391000 38350490 33951830
1401.04 30119370 26857090 24145210 21947730 20256550 18946930
1406.83 17922040 17162940 16627670 16258790 16040740 15942540
1412.61 15941440 16001050 16099260 16222130 16388000 16517140
1418.40 16614070 16882050 17146380 17341340 17552510 17806280
1424.18 18175830 18608700 19114550 19692130 20334310 21015160
1429.97 21543680 21840980 22054800 22196190 22290340 22171220
1435.75 21806630 21447690 20982800 20510220 20149140 19893740
1441.54 19843950 19915990 20021430 20118180 20108110 19956650
1447.32 19727980 19458810 19114170 18737080 18332160 17901380
1453.11 17468090 17082290 16577580 16107490 15901360 15620720
1458.89 15245910 14819400 14411500 14071590 13729840 13403530
1464.68 13208400 13055540 12876020 12727100 12588390 12447420
1470.47 12257480 12115630 12025960 11976810 11882760 11719170
1476.25 11635380 11553010 11437880 11300860 11142440 10986220
1482.04 10847050 10722090 10585910 10433040 10263600 10133760
1487.82 10001850 9813202 9671932 9581712 9480154 9358032
1493.61 9255160 9083454 8954148 8969946 8874594 8807822
1499.39 8798604 8755246 8698854 8614806 8504962 8299114
1505.18 8133142 8094136 8182552 8223694 8205198 8189828
1510.96 8119930 8081506 8055570 7984734 7913876 7815734
1516.75 7759894 7734520 7626036 7406550 7282344 7293974
1522.53 7276846 7199100 7077024 7034754 6986634 6912376
1528.32 6863068 6804136 6723200 6636684 6513608 6442116
1534.11 6452962 6413638 6361706 6215330 5994632 5972880
1539.89 6068710 6076492 6158146 6279434 6300006 6393164
1545.68 6556798 6682324 6822428 6958120 7143802 7365334
1551.46 7582212 7734184 7875382 8166566 8423972 8507812
1557.25 8578312 8793510 9007200 9339898 9618134 9755628
1563.03 9880260 9936356 10031660 10133920 10341980 10444100
1568.82 10401300 10559610 10781750 10994690 11216790 11413860
1574.60 11417790 11515630 11824840 11954600 12017950 12071850
1580.39 12108640 12138850 12155690 12187150 12257240 12339560
1586.17 12407100 12450990 12489610 12516180 12543780 12583200
1591.96 12620540 12654030 12686430 12729860 12770010 12801500
1597.74 12840250 12874230 12920380 13018390 13173600 13388080
1603.53 13644760 13891460 14148820 14469350 14814450 15163750
1609.32 15581130 16068950 16624690 17246550 17854680 18508550
1615.10 19137200 19856140 20754780 21539480 22249400 22868730
1620.89 23408870 23905150 24506490 25292070 26108870 26773060
1626.67 27406640 28590740 30462650 32923970 35730120 38746150
1632.46 42699140 48003840 54783680 63586500 74493260 87736200
1638.24 103572300 121912800 142540300 164902200 187875400 209969200
1644.03 228295600 239981500 245208900 242873700 234198300 224852100
1649.81 224587800 243189300 272445000 267891700 231408100 218256800
1655.60 233839100 257362100 275499800 280743500 271550100 249598500
1661.38 218999000 184687700 150782400 119942800 94154670 73829010
1667.17 58543620 47402760 39514790 33817210 29560960 26306740
1672.96 23657000 21368010 19519110 18016940 16641150 15438580
1678.74 14384500 13494510 12744080 12053640 11410770 10796180
1684.53 10561240 10477870 10239430 10069870 9950124 9872988
1690.31 9838694 9830660 9770766 9660768 9312832 9015022
1696.10 9033232 8988770 8900378 8766978 8778116 8740160
1701.88 8503068 8345104 8335522 8385294 8395020 8371734
1707.67 8244758 8043684 7818604 7603944 7404358 7265092
1713.45 7154834 7155806 7206856 7181104 7330694 7503614
1719.24 7593650 7719364 7911164 8188290 8543022 8958736
1725.02 9411604 9908800 10474870 11105090 11774080 12517380
1730.81 13279290 13902390 14441660 15038580 15651330 16099720
1736.60 16457740 16916970 17587300 18670670 19991170 21588960
1742.38 23799220 26467750 29259040 32061130 34947600 37980290
1748.17 41269130 44953360 49152420 54152250 60018380 66744520
1753.95 74439940 83044070 92592020 103218200 114851400 127604900
1759.74 141682600 157279500 174756300 194099900 215456600 239258800
1765.52 266199900 296727600 331476400 370595400 412985300 458856100
1771.31 507687700 558555700 608198300 651455200 685030700 705150800
1777.09 708391800 693477900 661980600 620033800 578851800 550997300
1782.88 535054400 525313300 543183300 602791400 680538100 745405300
1788.66 779787300 780299700 752562400 704905900 646298600 583339000
1794.45 520323100 461127700 407568000 360380100 319319100 283977300
1800.24 253713200 227406800 203880000 181983700 161458300 142784000
1806.02 126057600 110837100 96828080 84018990 72554440 62565420
1811.81 53946200 46512240 40124700 34711480 30178110 26440410
1817.59 23413140 20968940 19007990 17469660 16261140 15344260
1823.38 14657160 14115370 13691570 13364010 13144530 12964910
1829.16 12813960 12704050 12544160 12320260 12057940 11776950
1834.95 11502480 11241590 11029490 10880050 10792090 10775960
1840.73 10808840 10890170 10957500 11115750 11394690 11636980
1846.52 11867500 12112860 12350170 12561480 12770930 12993890
1852.30 13244310 13511870 13786550 14071220 14360380 14661250
1858.09 14961070 15244320 15496920 15713220 15888760 16005180
1863.88 16053220 16022390 15924080 15785500 15631380 15528050
1869.66 15422220 15246110 14999890 14693100 14407620 14185530
1875.45 13992730 13742210 13396390 12947370 12393770 11775430
1881.23 11133140 10511640 9950042 9472818 9088402 8787430
1887.02 8562546 8388180 8270856 8229376 8213560 8201748
1892.80 8211060 8227772 8262684 8286418 8257858 8223078
1898.59 8171630 8078918 7950298 7761918 7561572 7385836
1904.37 7217258 7004202 6729736 6563322 6484824 6209580
1910.16 5890486 5733244 5567402 5348946 5080226 4753120
1915.94 4388738 4025540 3733922 3474686 3235358 3041872
1921.73 2883092 2772974 2692986 2625462 2581218 2555506
1927.51 2540964 2534440 2532902 2539766 2546826 2561886
1933.30 2589154 2620772 2662324 2706482 2750298 2801340
1939.09 2848294 2889586 2915130 2944186 2976966 2982810
1944.87 2980490 2977170 2965402 2954326 2955694 2952748
1950.66 2962800 2998616 3040582 3080346 3112476 3133932
1956.44 3141262 3136224 3111022 3068688 3013888 2950296
1962.23 2893464 2836676 2786856 2754054 2726402 2719364
1968.01 2729696 2746904 2791672 2857230 2946718 3067546
1973.80 3210696 3386684 3604424 3850752 4136960 4466990
1979.58 4832872 5225476 5626926 6023722 6390642 6707788
1985.37 6957250 7120498 7189414 7183918 7152460 7161060
1991.15 7290306 7541264 7734926 7648164 7417404 7381056
1996.94 7535456 7697354 7748752 7618574 7283084 6781906
2002.73 6175780 5541900 4948422 4431890 4016900 3702856
2008.51 3481034 3327576 3224470 3156818 3108082 3076732
2014.30 3058344 3048648 3038156 3030148 3032216 3047794
2020.08 3070024 3062036 3024372 3000236 2998444 3002038
2025.87 3012734 3029388 3040726 3051116 3071936 3093264
2031.65 3114692 3146556 3195020 3262450 3348452 3444164
2037.44 3554198 3696692 3868546 4070040 4316870 4603024
2043.22 4916794 5261238 5648788 6081648 6564510 7095172
2049.01 7660938 8267944 8918154 9593924 10300750 11017280
2054.79 11707580 12365950 12971530 13517180 13996440 14378580
2060.58 14660040 14866160 15012750 15165140 15357780 15425010
2066.37 15280890 15116650 15030590 14939270 14758360 14433730
2072.15 13935710 13255810 12422260 11486420 10489860 9493462
2077.94 8557538 7702486 6944708 6287044 5733976 5276376
2083.72 4899436 4584552 4329102 4126222 3954754 3812018
2089.51 3683524 3579952 3495218 3413314 3331710 3268764
2095.29 3222250 3182804 3151128 3129912 3137316 3148352
2101.08 3160072 3179418 3222792 3286164 3350422 3413910
2106.86 3491266 3576602 3650836 3709994 3770226 3846354
2112.65 3907660 3945386 3962810 3982408 3987364 3960452
2118.43 3919930 3910908 3927410 3959042 3996692 3993438
2124.22 3969740 3954488 3958404 3971028 3951058 3857726
2130.01 3692038 3479552 3247250 3005720 2769060 2577520
2135.79 2433134 2322774 2253582 2221418 2208480 2205654
2141.58 2222286 2247574 2278328 2309132 2332846 2357912
2147.36 2382420 2397994 2409598 2420524 2438594 2457342
2153.15 2465370 2488012 2522704 2540426 2552732 2580892
2158.93 2615964 2637534 2651454 2678716 2699982 2687314
2164.72 2661760 2656772 2645534 2607764 2581880 2580194
2170.50 2567522 2534494 2532486 2528360 2460918 2397850
2176.29 2367966 2332064 2263894 2184656 2109666 2006144
2182.07 1887856 1789554 1703826 1616662 1548568 1506476
2187.86 1465084 1420730 1401124 1393062 1367514 1337834
2193.64 1316248 1283096 1245700 1226044 1204360 1175214
2199.43 1156004 1154422 1157300 1165006 1184922 1211732
2205.22 1240026 1277830 1328854 1385720 1446856 1509254
2211.00 1580234 1661740 1734942 1798748 1870608 1948726
2216.79 2022888 2095698 2178452 2261046 2324344 2385100
2222.57 2447072 2514100 2592808 2657424 2696028 2713410
2228.36 2716480 2696830 2670498 2639296 2598574 2557610
2234.14 2515602 2470210 2420274 2366590 2304304 2238346
2239.93 2179238 2122234 2061222 2000202 1938924 1882478
2245.71 1828484 1776782 1733210 1702458 1667340 1622434
2251.50 1583252 1537912 1485468 1435512 1389920 1350768
2257.28 1317696 1298436 1287404 1283980 1296604 1319760
2263.07 1356852 1403514 1464256 1549950 1652504 1770468
2268.86 1907428 2081120 2295238 2545134 2829720 3146154
2274.64 3499436 3881780 4279888 4671688 5048658 5383882
2280.43 5660850 5886350 6032590 6100978 6125134 6114788
2286.21 6091694 6093118 6130236 6170966 6208280 6210562
2292.00 6135640 6068290 5991190 5821182 5564770 5213060
2297.78 4744512 4185724 3596512 3017038 2484328 2029296
2303.57 1670498 1389718 1185306 1041966 933584 853244
2309.35 800616 765074 736732 712402 698100 691880
2315.14 687806 693798 689818 683760 684608 694184
2320.92 708910 719356 729370 748088 772360 798990
2326.71 830748 868686 908736 955742 1008198 1062790
2332.50 1128766 1204300 1274924 1347910 1424426 1497478
2338.28 1569804 1637646 1694888 1736756 1778778 1821410
2344.07 1852984 1877768 1905210 1940554 1981340 2038496
2349.85 2106464 2169724 2230798 2287440 2321966 2339732
2355.64 2337182 2306176 2271312 2227084 2179024 2133664
2361.42 2094688 2064694 2035056 1998144 1959830 1927366
2367.21 1887018 1850078 1813948 1778160 1749392 1719596
2372.99 1683230 1629648 1567588 1517252 1481068 1442532
2378.78 1390016 1321076 1242622 1165674 1094122 1024992
2384.56 965816 927338 901132 886574 880854 883584
2390.35 904338 921098 937678 960030 974700 1003514
2396.14 1040892 1072312 1107948 1147542 1181922 1220904
2401.92 1271056 1318438 1365422 1411464 1461878 1522080
2407.71 1579110 1634472 1694524 1762106 1839336 1917880
2413.49 2000142 2095666 2206078 2322632 2440376 2546016
2419.28 2642722 2756320 2883596 3009928 3148942 3305970
2425.06 3460934 3621584 3788900 3953804 4116710 4276416
2430.85 4417322 4524916 4604732 4652810 4657048 4629668
2436.63 4584050 4534974 4505658 4491686 4467110 4374334
2442.42 4249638 4163952 4098138 4015976 3898116 3741798
2448.20 3538124 3295168 3026398 2755684 2506060 2275622
2453.99 2063594 1886410 1744272 1626080 1520624 1427080
2459.77 1354230 1299118 1249302 1197220 1148394 1113962
2465.56 1088104 1054330 1030892 1015104 992212 971632
2471.35 959900 953590 941890 927002 910958 893372
2477.13 879046 865342 857046 858834 869546 885196
2482.92 908490 937720 964708 993628 1018704 1020268
2488.70 1016728 1025152 1027186 1036978 1060378 1077222
2494.49 1070576 1043116 1034148 1041878 1048988 1061016
2500.27 1054018 1020772 973382 916404 854712 786118
2506.06 717624 663196 619788 573508 535584 512774
2511.84 493420 481024 473646 464202 455908 446328
2517.63 434632 422872 416052 412262 402196 392610
2523.41 383264 368462 354546 343084 330596 312944
2529.20 295670 278988 270456 268544 253950 234924
2534.99 230676 228058 211642 198842 197714 197876
2540.77 190118 178686 180738 180818 169746 165172
2546.56 164218 158804 157012 159820 160762 159818
2552.34 160264 162658 167774 172168 166722 157614
2558.13 155522 161754 163440 164716 166766 174902
2563.91 189450 199374 215312 238058 262106 290910
2569.70 322894 360104 400984 442814 484162 527042
2575.48 570006 612970 664412 717034 767378 804454
2581.27 841200 884534 925676 960620 994456 1035076
2587.05 1071572 1085530 1087790 1091000 1085106 1077274
2592.84 1062382 1046338 1037196 1018960 994376 968370
2598.63 948034 937808 909382 867570 830656 801662
2604.41 766526 723192 688036 658274 631976 616792
2610.20 613846 617864 636134 660298 691140 736530
2615.98 781476 828012 872726 918922 968980 1008222
2621.77 1040082 1068902 1088186 1098606 1110850 1124524
2627.55 1131690 1141306 1155600 1162726 1168702 1169882
2633.34 1177784 1191220 1189648 1176154 1146104 1087544
2639.12 1016762 941276 861210 784616 714246 653602
2644.91 600508 561094 538574 526340 512484 506194
2650.69 501370 491750 497032 502658 501098 508044
2656.48 521488 534876 538534 548038 569450 583764
2662.27 594982 607490 620142 633162 646876 650896
2668.05 660282 663312 649462 646418 650554 645518
2673.84 638430 631042 617242 601898 585572 571728
2679.62 560640 539088 511810 492264 464158 432214
2685.41 400744 371294 354252 339952 319932 301368
2691.19 291498 279734 271302 267486 253670 239962
2696.98 238608 236568 229252 222318 216466 218488
2702.76 221526 220496 224452 224058 219432 229086
2708.55 236298 231004 225980 224768 225584 234182
2714.33 242446 241948 242898 247978 256380 262106
2720.12 263770 262112 268204 280480 287072 292830
2725.91 301566 323286 344426 349694 360616 387292
2731.69 417184 455776 496676 533596 579712 638508
2737.48 697964 760554 830756 902902 992240 1085684
2743.26 1175930 1274880 1372928 1458250 1530676 1588862
2749.05 1638636 1672222 1678324 1663372 1637990 1607944
2754.83 1568242 1531332 1521598 1546832 1593520 1663174
2760.62 1738586 1791576 1812996 1789196 1715980 1604938
2766.40 1488834 1360910 1223700 1107306 1011238 923912
2772.19 839914 769994 711828 666728 639792 620584
2777.97 607616 605870 614598 621580 627190 639810
2783.76 665544 690620 710344 737806 751436 747158
2789.54 750108 751222 754042 769028 791478 818168
2795.33 830790 845870 868352 880442 885988 885754
2801.12 875264 853156 809378 747236 690542 634308
2806.90 572408 516712 463312 433956 428514 419238
2812.69 405816 402686 402076 401222 401284 405738
2818.47 411442 404184 391370 384800 394152 401058
2824.26 402510 405554 414814 423524 430274 440844
2830.04 445602 454224 468358 470406 476292 491980
2835.83 513240 536886 558680 579580 604702 642988
2841.61 688362 734002 772196 818178 880412 939334
2847.40 989696 1038768 1082926 1123136 1164264 1201666
2853.18 1223298 1233474 1252616 1277884 1287870 1293518
2858.97 1298456 1307956 1322044 1333744 1338434 1327978
2864.76 1314812 1303062 1289986 1253800 1207956 1171508
2870.54 1123244 1084844 1043802 989648 940962 896470
2876.33 871786 840880 807428 781902 755704 743746
2882.11 736774 718916 697590 681366 665672 655894
2887.90 649240 650044 655772 649260 638684 636194
2893.68 644260 648630 650216 657430 652242 654046
2899.47 668742 668622 663536 663110 671946 680272
2905.25 680402 685880 686848 690262 708924 721642
2911.04 735456 749548 749450 760472 774924 794286
2916.82 811148 826426 851970 881594 924994 966770
2922.61 1015296 1072302 1122244 1179040 1249162 1328818
2928.40 1422940 1526182 1636044 1767044 1909400 2047510
2934.18 2207182 2396148 2610896 2856146 3118844 3401280
2939.97 3706866 4031882 4374370 4696432 4985034 5236066
2945.75 5426634 5558670 5627366 5658764 5696622 5753732
2951.54 5845116 5939538 6037524 6182076 6365774 6554622
2957.32 6726672 6833718 6865714 6810436 6710876 6583402
2963.11 6385016 6164612 5944508 5738200 5556746 5409036
2968.89 5277802 5170206 5092824 5032960 4992256 4969582
2974.68 4942166 4924084 4930866 4952920 4976274 4996020
2980.46 5031350 5080180 5128110 5186662 5265302 5345106
2986.25 5426472 5521788 5609678 5709000 5877690 6117778
2992.04 6444838 6782678 6843448 6725010 6660206 6595800
2997.82 6527718 6489860 6485356 6465982 6421632 6358376
3003.61 6298600 6258004 6258386 6267848 6246918 6215764
3009.39 6207942 6246486 6308530 6366308 6405268 6435082
3015.18 6464542 6533434 6655060 6795152 6969228 7177942
3020.96 7408136 7658010 7909250 8169200 8417872 8647808
3026.75 8858704 9037848 9192336 9311090 9410750 9523272
3032.53 9653902 9860848 10038020 10055240 10064140 10152210
3038.32 10288200 10416750 10529420 10633720 10708330 10769280
3044.10 10844440 10955710 11096500 11271150 11465990 11644040
3049.89 11797850 11931000 12051920 12134680 12159910 12154090
3055.67 12166610 12233870 12351220 12474770 12526700 12511720
3061.46 12515410 12594320 12686270 12773230 12810910 12716960
3067.25 12510980 12211460 11848150 11445760 11019590 10631690
3073.03 10298650 10016730 9802848 9630502 9499270 9445688
3078.82 9457460 9516076 9666136 9921706 10287600 10784300
3084.60 11433130 12265450 13309380 14601640 16116510 17810320
3090.39 19603520 21376880 23027040 24369630 25224790 25478120
3096.17 25087310 24205870 23304700 23031250 23790460 25288500
3101.96 25432440 22992360 21357730 22351840 24078770 25313050
3107.74 25565870 24751120 23052970 20796800 18330760 15952690
3113.53 13879430 12258650 11145580 10532930 10389020 10649620
3119.31 11199260 11905820 12696670 13448010 13997660 14226340
3125.10 14088630 13590260 12862700 12229610 12119640 12485580
3130.89 12323120 11694640 11557140 12062810 12864480 13547520
3136.67 13883500 13766630 13195210 12259730 11112120 9869702
3142.46 8644730 7520106 6515508 5642326 4921518 4339906
3148.24 3862420 3472942 3151086 2860936 2607724 2392424
3154.03 2202874 2040180 1898856 1762084 1634812 1523682
3159.81 1422954 1349944 1278092 1204410 1143832 1081606
3165.60 1027412 986930 941492 891038 843954 806096
3171.38 777146 748840 730664 715732 712284 696760
3177.17 677192 664808 643362 628530 618054 613404
3182.95 612704 606824 593624 582822 574440 575854
3188.74 570398 568410 581734 586944 591832 593514
3194.53 594578 594780 582366 558232 535910 529200
3200.31 516908 497120 484266 460894 440106 438268
3206.10 433328 423282 411176 389764 373136 364222
3211.88 352732 331596 323924 329208 320566 314264
3217.67 296382 278710 266962 251934 243250 230594
3223.45 218986 203744 188424 179256 175644 160662
3229.24 147986 134962 125212 129300 121120 111070
3235.02 92490 87726 92606 76512 56664 54476
3240.81 50764 45962 36932 31476 43164 38132
3246.59 20376 17044 17738 11000 17634 24746
3252.38 24326 31638 38544 32450 29810 21930
3258.17 9866 13340 11122 10148 13506 9330
3263.95 8782-696-4842 1294-11454-15556
3269.74-6934-16062-25322-27422-26348-15386
3275.52-31202-60358-64096-60270-56514-42354
3281.31-34360-32398-24434-11356-8088-9100
3287.09 13688 26730 13180 22674 43652 42968
3292.88 44656 42574 38256 41652 50024 50298
3298.66 43996 43594 40738 39028 44554 28952
3304.45 5092-16484-51986-80178-113364-137332
3310.23-141804-156614-179562-204826-218578-231078
3316.02-259608-277788-261080-240654-236416-241164
3321.80-255004-244706-225446-227674-227866-202568
3327.59-184722-175456-143430-118508-113280-101370
3333.38-82692-76754-61156-46282-41234-26848
3339.16-8404-438 1870 3974 10052 21146
3344.95 30434 36626 28990 26980 23302 17620
3350.73 10996-16196-25554-27620-26302-27530
3356.52-50862-56614-59326-64474-66368-61252
3362.30-59664-81222-85294-73684-67090-70326
3368.09-68516-60630-58066-57904-69316-62612
3373.87-55480-51296-39312-27712-18354-11094
3379.66-6258-16600-27702-19272-3288-2640
3385.44-3442-2650 972-7778-11532 10738
3391.23 7788 4786 14444 1304-21874-33058
3397.02-22440-25600-39396-51198-48576-41488
3402.80-56916-69338-84710-86020-74636-68762
3408.59-74608-72354-70810-70348-63294-62058
3414.37-45630-41686-43810-49048-27892-21508
3420.16-49524-47078-31640-22660-19982-21600
3425.94-15858-1248-3964-9922-11622-7098
3431.73 1802-910-3544 1046-304 2320
3437.51-3970-6820 8254 1736-562 13088
3443.30 32444 46174 52290 49828 48596 47564
3449.08 44190 66606 90614 106044 112838 119830
3454.87 135538 141256 135754 122106 123136 119090
3460.66 101280 103020 97822 104462 113744 102598
3466.44 104712 116778 115912 110816 110274 112806
3472.23 117646 77964 45568 46026 38052 15110
3478.01 13316 8346-9374-15192-13576-8516
3483.80-41218-60426-50264-53306-62882-67112
3489.58-66564-64162-58218-46446-49626-52526
3495.37-52434-47446-28912-13344-4794-2084
3501.15 10026 16420 12456 24414 64652 97738
3506.94 122096 151804 193034 238952 278046 337054
3512.72 389152 449512 525650 600166 677724 776196
3518.51 905870 1025642 1153638 1293564 1449600 1643808
3524.30 1843808 2059112 2307246 2594934 2905254 3253932
3530.08 3628124 4022032 4470398 4952262 5451806 5958590
3535.87 6481774 6983772 7431750 7811510 8097668 8274552
3541.65 8322550 8236330 8063268 7846174 7610396 7448484
3547.44 7368010 7380618 7606524 8046480 8592280 9063584
3553.22 9306092 9227260 8821452 8199710 7464916 6701574
3559.01 5921958 5201852 4573544 4001148 3535080 3129298
3564.79 2724960 2388226 2099234 1858962 1644540 1406298
3570.58 1187706 992800 835828 682464 534754 410886
3576.36 303208 228766 155976 85190 50728 24344
3582.15-7366-29362-54286-120398-158884-160750
3587.94-168390-144576-144070-154348-172788-180746
3593.72-193576-204176-193974-206536-213730-224742
3599.51-247630-250280-255792-272170-274288-272170
3605.29-310388-328916-335518-380344-336352-310492
3611.08-349588-338830-322682-343024-325908-330788
3616.86-346236-364374-386618-322952-299244-298672
3622.65-284610-280434-275522-275666-319522-417624
3628.43-443346-331402-244664-244126-247046-248320
3634.22-239892-227512-231200-244068-228496-203262
3640.00-197830-206404-216110-211614-206060-223478
3645.79-269376-277164-351042-377950-308342-280656
3651.57-234164-227002-225226-269324-308292-238728
3657.36-195400-202072-209900-209278-202338-192946
3663.15-186408-187310-201652-203536-252672-289418
3668.93-336160-387382-278374-225986-254714-345694
3674.72-429932-340606-244354-244880-254898-232296
3680.50-216722-223254-235010-243686-246734-236794
3686.29-296468-460980-396262-292980-332708-292316
3692.07-258118-252336-253836-256200-255840-250574
3697.86-250820-247966-265362-292206-264224-252282
3703.64-259610-255016-250690-242582-281280-326492
3709.43-282976-328438-377526-269756-230256-236318
3715.21-231308-242146-247026-242006-228666-237456
3721.00-276930-256910-229872-233774-256666-275730
3726.79-248484-226824-222166-227544-320006-341980
3732.57-274858-309356-327802-356736-321688-262338
3738.36-254048-246522-262350-261998-329988-571440
3744.14-540282-297040-263870-295122-458058-449370
3749.93-325806-476092-432482-271988-259418-259854
3755.71-272458-250850-252704-286856-266838-230504
3761.50-222894-225910-241882-260176-241802-218906
3767.28-224324-268372-288058-241256-219378-211114
3773.07-216562-219332-220168-227260-211928-242848
3778.85-269134-232876-219084-227536-239972-247888
3784.64-238278-226414-220834-215580-225936-226504
3790.43-208598-206584-209956-219982-236616-255596
3796.21-243658-233744-236848-276094-420418-393082
3802.00-256016-222914-194054-239044-361006-312336
3807.78-211996-207144-199068-196630-185160-203340
3813.57-216914-344702-372740-220260-197544-210978
3819.35-264386-322388-268478-193588-173228-170556
3825.14-190824-196126-168868-162530-159696-199612
3830.92-228926-180332-177016-226890-187216-219994
3836.71-377780-284802-165270-197320-173672-148092
3842.49-180674-168980-134136-128874-140540-133394
3848.28-137692-138292-246730-342426-335180-498476
3854.07-359718-148906-153230-128986-123088-122724
3859.85-135090-161968-146476-133656-199226-175180
3865.64-111248-113472-135472-242216-243292-128366
3871.42-95872-115072-132410-97200-82076-92964
3877.21-71802-85418-124418-98516-68896-66388
3882.99-56228-116758-163130-89026-34906-27598
3888.78-26968-77908-88480-25200-10490-11594
3894.56-1806-1262-8654-47550-82676-24424
3900.35-40004-52528-30118-62106-26430 5914
3906.13 45676 63768 49788 46162 56182 57458
3911.92 58136 72448 68262 65516 45346 38676
3917.70 71660 81672 78534 83984 83268 75850
3923.49 69632 70882 79166 79104 77630 77168
3929.28 73312 78018 68302 74272 86814 84276
3935.06 98338 110382 103594 98574 95414 95678
3940.85 96820 74630 90234 116364 121640 123542
3946.63 120748 133928 129738 134884 161914 168040
3952.42 185424 205414 210030 237614 253076 250214
3958.20 260938 272486 288406 318104 355184 385310
3963.99 404668 433362 480636 506690 518378 544668
3969.77 563010 571198 586372 603754 622696
##END=
