##TITLE=1,3-Dimethylbenzene
##JCAMP-DX=4.24
##DATA TYPE=INFRARED SPECTRUM
##CLASS=IUPAC A
##ORIGIN=NIST, Analytical Chemistry Division, 301-975-3108
##OWNER=COPYRIGHT (C) 2001 by the U.S. Secretary of Commerce
##DATE=01/06/01
##$SPECTRA VERSION=1.10
##$UNCERTAINTY IN Y=2.1 % relative (B=1.13E-04,C=1.33E-9,D=3.50E-14)
##CAS NAME=1,3-Dimethylbenzene
##CAS REGISTRY NO=108-38-3
##MOLFORM=1,3-( C H3)2 C6 H4
##MP=-47.87 C
##BP=139.1 C
##$NIST SOURCE=QUANT-IR
##SPECTROMETER/DATA SYSTEM=IFS66V (Bruker)
##INSTRUMENT PARAMETERS=KBr Beam Splitter; MCT Detector; Multipass cell
##STATE=gas
##SAMPLE DESCRIPTION=m-Xylene Primary Gas Standard
##PRESSURE=101.3 Pa
##TEMPERATURE=23 C
##SAMPLING PROCEDURE=1 L/min Flow
##RESOLUTION=0.9640
##DATA PROCESSING=Boxcar Apodization
##XUNITS=cm-1
##YUNITS=(micromol/mol)-1m-1 (base 10)
##XFACTOR=1.0
##YFACTOR=9.0949E-13
##DELTAX=0.4820
##FIRSTX=575.17
##LASTX=3974.606
##FIRSTY=-1.62E-06
##MAXX=3974.12
##MINX=575.17
##MAXY=.0006813
##MINY=-2.97E-06
##NPOINTS=7052
##XYDATA=(X++(Y..Y))
575.17-1783168 492605 217973 1804661-2087436-1109957
577.58 168883 238877-3266127-1062457 777595-1588746
580.47 1849086 309148-68427-327904-2532072-910358
583.37-553824-23182-1163006 690808-2166648-882896
586.26 308767 477994-1434885-1336452-312868-711614
589.15-796860 306162-239000-868190 1248519 232814
592.04 208596-1008179-1563201 166652-1789201-1278321
594.94 93772-394321-14201-1440739-589780-574020
597.83-1741267-1477815-1124297 77101 100270-67896
600.72-710257-125283-1883191-390492-398931-321610
603.62-713115-1363435-451254 746940-331990-964639
606.51-1522607 269100 267731-346691-1276230-123654
609.40-809361-138384-1585693-362499-1448922 521200
612.29-1011730 429921-444847-1129766-645334-733721
615.19-497964-371128-312820-166701-322476 484394
618.08-357355-567436-877117-443482-1213143-378552
620.97-1001511-331134-897232-569911-69497 942659
623.86-43073-802866-679179-794972-893052-109704
626.76-545547 30247-359153 400676-693100-1129370
629.65-137159 4630-789868 370937-1566757-571978
632.54-97529 239259-726561 271223-894686-640501
635.44-653047-540284-422614-229419-764022-288716
638.33-792324-404547 256268-666971-1072037-383419
641.22-149172-89767-1391829-287634-510798 134058
644.11-197178-75423-379695 359670-116975 215153
647.01-203461 689657-739699 1106139 30930 714760
649.90-57168 524659-38876 699610 260024 1168858
652.79 526444 1647001 528680 1352527 1170410 1988965
655.68 1627071 2414254 1279674 2067996 880520 2078741
658.58 1656841 1574469 1207611 2780578 2124279 3032403
661.47 2206587 3488787 1966221 3477228 2598940 4516870
664.36 3629121 5299498 4418921 7514572 8135481 9231565
667.26 7885898 8721996 7726519 9204804 9180258 10687185
670.15 10877542 13150137 13635278 15704804 17214091 19285972
673.04 19746493 24136004 24391170 27200840 28277353 32094686
675.93 33733210 36975559 37748228 42075648 42456552 46127552
678.83 46089738 49317251 49274033 52694881 51365457 54621497
681.72 53770616 56331923 55764276 58271164 57330121 59769582
684.61 57440518 62778411 61465081 68639318 67680330 77255078
687.50 80807288 98504205 104661400 142586796 178562555 292694171
690.40 326482634 130608398 114246024 89533280 80385782 69556507
693.29 71732008 69399547 73642289 75775172 80804472 73437565
696.18 70136760 66193178 66887089 65592985 64711965 63930498
699.08 64182862 62078484 62328756 60944816 59884112 57124028
701.97 54205248 50873409 47903233 45104048 41876602 38572480
704.86 36001009 33567984 30322841 28244409 25272775 22989710
707.75 20361060 18087675 16923414 14975993 12829707 11959513
710.65 10791402 9061134 8084355 7637268 6602295 6179886
713.54 5741913 4941580 4177360 4203383 3287270 3342345
716.43 2757693 2782657 2579614 2856734 2064318 2439545
719.32 1733320 1697042 1527321 2759559 1504760 1949325
722.22 1504793 1870845 968346 1950253 1294156 1809408
725.11 1099264 1655809 1280583 2236076 1620818 2462911
728.00 1418458 2171974 1739178 2778226 1823665 2485126
730.90 1411377 1738700 1541693 1679280 919898 2097000
733.79 1346683 2516230 1543773 2295986 1157926 2083046
736.68 1592412 2697304 1934164 3134746 3136792 4084305
739.57 3840263 5572919 5398450 7313951 5670932 7660126
742.47 7454838 9706885 9720672 12472498 12669504 15918740
745.36 16700560 20672412 22503377 26895015 28578978 33998083
748.25 36836917 42758556 45928462 53469922 56515225 65008639
751.14 69247225 77974329 82433953 91714149 96320305 105994472
754.04 110712741 120531506 123976207 133406580 136053573 144238662
756.93 146223040 154131156 156211221 164798408 164757222 172881399
759.82 171495274 179479397 176694751 183117064 178766632 187255613
762.72 185117492 198971688 200672521 226448254 238855251 282049391
765.61 313698814 397421665 460070023 598565652 669934847 749127024
768.50 582168462 256484826 247874807 195162527 200875641 175910392
771.39 189079522 178131528 189282850 180325538 188218057 180064296
774.29 187507731 181302351 186766979 176597258 178284883 168489162
777.18 169179931 159674578 158779884 148547547 146673347 135970396
780.07 132208583 120545946 115490401 104319180 99174980 88446545
782.96 83736932 73815963 69459381 60233980 56235454 48036942
785.86 44813426 38174911 35546651 28655336 27863013 22459370
788.75 21145818 16750278 16269763 12774836 12699743 9091144
791.64 9918545 7102968 8291807 5540129 6827159 4106455
794.54 6030084 4066787 5276557 2740504 4012525 2191328
797.43 3563312 1953118 3035732 1279044 2546639 1107350
800.32 2400438 1119692 2489905 1311833 2806527 797662
803.21 2273878 673967 1975264 723006 1310133 510053
806.11 1973267 840722 1741044 453106 1586837 622260
809.00 1713284 323159 1625570 134923 927208 329027
811.89 1404207 162281 1452348 935029 776016-257513
814.78 1032930 24271 1047783 34254 1737540 137805
817.68 1221642-193568 1150556 121367 1418489 367543
820.57 1127707 205473 2112366 18688 1536681-219805
823.46 1129896 115630 513983-166837 995127-133789
826.36 1061431-7286 1329094-204805 877475 395627
829.25 976042-97644 830865-23885 538271 524683
832.14 945057-8220 890169-454600 708816 220800
835.03 1048989 59223 809121 30801 783952 24610
837.93 845311 47350 752446 309922 378062 151268
840.82 894093 36814 739482 90756 903000 136918
843.71 922772 625338 1026301 188243 971018 588821
846.60 852615 638781 944184 719267 1528016 841143
849.50 1268265 1105326 2065466 1255280 2103527 1520303
852.39 1800828 1463142 2329500 2228775 3105957 2524127
855.28 3793508 3443123 4614771 4154377 5165715 4998491
858.18 6195252 5510436 6985012 6746641 7864019 7806438
861.07 8898159 8733308 10363791 10668209 11102526 10980335
863.96 11877238 11569970 12617238 12175807 13100412 12784203
866.85 13944604 13589458 14441551 13952290 14802827 14831770
869.75 15465041 15682908 16997166 17179664 19046662 19509008
872.64 22818963 25815477 30583762 37772901 45426039 46529672
875.53 53979156 38550318 23507280 18612954 16161443 14909394
878.42 14423026 14517821 14800340 14263058 14532769 14205557
881.32 14006899 13996703 14388727 14080919 14069296 13450665
884.21 13885756 14031272 14076291 12811357 13000831 12544181
887.10 12346380 11612580 11762764 11020047 11137174 10115892
890.00 10354202 9683633 10164559 9608925 10237785 9578297
892.89 10650674 10865218 11584700 11800992 12985260 13146161
895.78 14206481 14549929 15792444 15759829 17102486 17397656
898.67 18009764 17923263 18680709 18039761 18175564 17271363
901.57 17148522 16401963 16883327 16526711 17034634 17179601
904.46 18577629 19313275 20700877 20309051 20353425 18016363
907.35 16247862 14704309 14717842 14704422 15795042 16076639
910.24 16690907 16565040 16416909 15552421 15298360 14130561
913.14 13180633 11534360 10935287 9105830 8301351 6494409
916.03 5828094 4594290 4357304 3240392 3158184 2450985
918.92 2397711 1895915 1894608 1282297 1669681 1454156
921.82 1339144 1119943 1416824 1421719 1559725 1208800
924.71 1670807 998561 1411917 1047192 1327011 1164084
927.60 1678223 1409688 1473289 1092050 1854853 1135892
930.49 1851166 1422555 1604385 1649608 1636219 1711536
933.39 2003999 1478880 2153510 1629123 1945511 2138439
936.28 2319633 2170351 2365094 2000440 2355076 2152559
939.17 2640165 2249078 2224440 2151061 2554912 2282973
942.06 2521631 2262589 2827234 2393918 3035222 2905385
944.96 2555321 2824249 2791628 2594627 2788965 2615567
947.85 3100925 2643102 3088543 2647156 2955583 2809025
950.74 3411784 2895003 3283572 3087499 3225585 3177457
953.64 3401705 3172635 3212311 3155629 3516314 3285087
956.53 3580080 3257434 3812109 3214955 3527042 3381523
959.42 3797029 3289909 3786894 3614403 3910839 3439483
962.31 4033180 3905079 4332685 3834989 4379076 4151860
965.21 4534862 4341867 4709534 4241838 4670729 4543229
968.10 5314510 4608053 5306260 4770353 5151001 4894395
970.99 4979061 5077238 5182117 5069276 5599568 5491725
973.88 5500120 5346623 5538064 5137587 5192731 5142935
976.78 5055777 4774128 5020634 4891437 5022139 4821612
979.67 5130205 4823321 5090585 4549441 4983723 4626524
982.56 4790883 4665837 5101305 4805926 4967811 4706655
985.46 5090409 4636079 5146646 4783351 5300466 4834948
988.35 5272689 5140065 5342197 5188888 5799487 5687612
991.24 6040257 5607770 6141242 6204641 6496885 6484530
994.13 7030121 7068156 6741611 7187559 7671462 7463552
997.03 8163691 8024876 8532714 8525141 8914454 9141244
999.92 9341181 9205327 9629539 9436278 9844288 9859847
1002.81 10250579 10288644 10703815 10811561 10916201 10877523
1005.70 11360546 11217009 11603662 11188081 11316829 11046446
1008.60 11215078 10770529 10728607 10192699 10310440 9894432
1011.49 10102359 9832584 9848997 9468759 9736640 9607975
1014.38 9303333 8527623 8731833 8262717 8441494 8136951
1017.28 8218867 7777972 7780018 7257516 7639276 6961487
1020.17 6897249 6572510 6771029 6261343 6077073 5884486
1023.06 6276974 6238623 6254284 6154516 6419070 6574964
1025.95 6970505 6809711 7149558 7535706 7656329 7876324
1028.85 8531984 8506012 9071491 9248478 9979455 9982227
1031.74 10420665 10847168 10942367 11428965 12154137 12253616
1034.63 12565455 13257598 13484963 13570923 14216354 14614035
1037.52 15076025 15450878 16205395 16866182 17831415 19351352
1040.42 21024873 22397061 23285779 25733949 28083960 28406334
1043.31 26320282 26053808 26337240 24687244 23295396 22352946
1046.20 22816410 22762099 23399402 23111663 22649651 22338980
1049.10 21910260 21749431 21253972 21160721 21450085 21158532
1051.99 21399318 20982227 21117224 20875436 21137614 20315800
1054.88 20134866 19919804 19775717 19360770 19437838 18684434
1057.77 18397927 17824261 17775722 16568606 16469856 15837419
1060.67 15452814 14416715 14306600 13760275 13343419 13053315
1063.56 12908663 12460859 12083104 11512759 11576706 10832080
1066.45 10702205 10217968 10315638 9740668 10014742 9746018
1069.34 9724085 9440541 9269616 8751302 8977164 8629051
1072.24 8972330 8501194 8676151 8618092 8841403 8657585
1075.13 9102289 9067186 8857426 9226854 9610063 9703251
1078.02 9987806 10168657 10748999 10976161 11782657 12127160
1080.92 12566409 13185505 13769474 14458223 15170042 15996457
1083.81 16966163 17803018 19120815 19740495 20911604 21877615
1086.70 23171818 23948572 25014192 26067990 27121030 27865471
1089.59 28618363 29228460 29652652 29987904 30485664 29932461
1092.49 29299406 27761332 26178011 23931652 22512649 21274997
1095.38 21122214 21820283 22521504 22385870 23769854 24349804
1098.27 25456942 25827524 26805231 26976391 26818071 26294902
1101.16 26196361 24980225 24352323 22763337 21981306 20362964
1104.06 19489970 18204253 17112934 15645733 14852499 13704391
1106.95 12999961 12080889 11416257 10491838 9941876 9085878
1109.84 8704254 8073882 7768023 7267820 7152233 6809672
1112.74 6796670 6508887 6267649 6305747 6269737 5917415
1115.63 6035677 5894532 5856882 5706108 5908229 5814799
1118.52 5983211 5734459 5864248 5512975 5556113 5526921
1121.41 5077874 5117771 4967228 4864438 4803105 4478963
1124.31 4641529 4641430 4442702 4686389 4533997 4739095
1127.20 5136046 5135053 4951683 5110245 4942693 4793870
1130.09 5054039 4838529 4290016 4233883 4605201 4080941
1132.98 4232517 3956052 4225773 3682933 3932865 3367659
1135.88 3689913 3285564 3371178 3015796 3086126 2961253
1138.77 3197882 3133452 2879582 2851889 3022547 2960814
1141.66 2531380 2684994 2660817 2500094 2663279 2600519
1144.56 2689763 2837198 2732364 2650302 2850631 2687938
1147.45 2960757 3230616 3321819 3278233 3498226 3560926
1150.34 3492447 3464719 3768369 3894095 4309688 4528399
1153.23 4534303 4497558 4698868 4371244 4343259 4290125
1156.13 4576591 4321219 5006590 5190845 5727103 6000973
1159.02 6146414 6157999 6280917 6499644 7311033 7596657
1161.91 8273627 8768980 9515271 9741388 10050971 10128318
1164.80 10415491 10120526 9941481 9730472 9159328 8853228
1167.70 8428347 7986746 8041485 8168469 9174555 10328266
1170.59 11279516 12720843 9711439 7777142 7253752 6825761
1173.48 7087044 7193445 7890005 8412221 8875699 8841355
1176.38 8912849 8801619 8696553 7954952 7873893 7231647
1179.27 6944262 6073189 5492628 4920708 4670100 4114710
1182.16 3906589 3319790 3588804 3039342 3071106 2704089
1185.05 2778232 2579645 2812585 2346423 2575458 2631965
1187.95 2603312 2541149 2651672 2352358 2825743 2486809
1190.84 2782633 2421238 2295034 2312850 2134505 2087103
1193.73 2186729 2078771 2058649 1983961 2217086 1877969
1196.62 1822675 2032072 2262948 2213395 2220913 2261613
1199.52 2108121 2187547 2114551 2107468 1963735 1950883
1202.41 2086311 1830831 2077181 1553428 1852929 1639269
1205.30 1840477 1653657 1690183 1734045 1637042 1566316
1208.20 1662136 1339454 1404288 1438492 1410409 1596034
1211.09 1590135 1278310 1408877 1272265 1360079 1414627
1213.98 1293587 1438503 1244853 1301388 1509013 1183024
1216.87 1396237 1186247 1173697 1249638 1101651 1142663
1219.77 1304303 1089158 1495397 1233687 1205703 1001302
1222.66 1189103 978137 1366984 1245955 1341080 1159930
1225.55 1281476 1185552 1280000 1250586 1233401 1262592
1228.44 1308078 1130572 1464231 1375848 1677201 1241265
1231.34 1371720 1476220 1623565 1739700 1568722 1581457
1234.23 1788576 1778485 1763593 1761081 2000358 1944716
1237.12 2132843 2319837 2249561 2142466 2518931 2471309
1240.02 2639127 2661441 2632931 2836327 3075477 3005144
1242.91 3476485 3324545 3440286 3510422 3616729 3692308
1245.80 3620959 3709636 3534132 3555180 3443989 3359988
1248.69 3494282 3053360 3394935 2904456 3290411 3280395
1251.59 3461905 3259621 3664205 3850835 3899477 4044840
1254.48 4216179 4271964 4525888 4416404 4646003 4449808
1257.37 4328193 4538526 4400766 4073099 3891961 4034737
1260.26 4038852 3641426 3821356 3390632 3542459 3371281
1263.16 3300296 3129319 3090567 2857919 2988330 2845608
1266.05 2691309 2876885 2770333 2823927 2885950 3189802
1268.94 3162676 3017027 3194056 2930175 3129566 3005605
1271.84 2835945 2714094 2706664 2431669 2563393 2530920
1274.73 2339825 2289534 2193382 2069925 2201686 2173955
1277.62 2251807 1973002 2180985 2138602 2235053 2163344
1280.51 2016392 2166054 2086690 1981462 2078123 1739146
1283.41 1886783 2070168 1857646 1808314 1953621 1581120
1286.30 1677352 1730462 1843372 1622030 1663017 1441263
1289.19 1502503 1957737 1874307 1700314 1839082 1717840
1292.08 1767454 1790082 1585324 1656717 1906668 2010468
1294.98 2135467 2017264 2067288 2081635 2149063 2334114
1297.87 2228173 2260862 2361852 2118796 2078865 1989562
1300.76 2077269 2108484 2226205 1915541 2015405 2016589
1303.66 2363333 2203923 1991092 2008388 2306450 2162484
1306.55 2463291 2154622 2503194 2308002 2527462 2349756
1309.44 2514774 2528060 2499542 2408758 2448851 2214560
1312.33 2388310 2460709 2329768 2505812 2327615 2208104
1315.23 2365776 2484255 2254564 2241488 2457287 2314536
1318.12 2509837 2439844 2425337 2328138 2195228 2359223
1321.01 2449640 2234812 2222354 2409232 2508084 2432775
1323.90 2447536 2359866 2452808 2293665 2498871 2507336
1326.80 2492257 2839642 2780800 2729827 2612045 2562137
1329.69 2786308 2444147 2674790 2702887 2769686 2689473
1332.58 2737241 2764389 2994453 2608664 2958288 2934663
1335.48 2976334 2927425 3060725 2914217 2855208 2931181
1338.37 3036236 2763540 3259245 3093734 3403266 3250820
1341.26 3316282 3579476 3585210 3818265 3615421 3607277
1344.15 3817127 4080492 4074499 3680178 4244767 4371605
1347.05 4195679 4373991 4490480 4482127 5134692 4421144
1349.94 5167338 5310223 4885900 5078053 4841844 5757294
1352.83 5861059 5809043 6492264 5757587 6505263 6827675
1355.72 6905460 7189975 6450781 7480747 7388583 7938561
1358.62 7924932 7862097 8574720 7922284 8957499 8560763
1361.51 9172885 9176508 9304200 9205885 10072160 10422272
1364.40 10370501 10609575 11102665 11161683 11837826 12264714
1367.29 12656583 12520944 12993796 13369378 13630857 14089349
1370.19 14625330 15424133 16129417 17049260 17986158 18620939
1373.08 19823173 20898744 22167216 23130007 24207054 25141997
1375.97 26230290 27227821 27801836 28063369 28394901 28220381
1378.87 29036938 30201347 31583928 34958499 37444682 34515072
1381.76 32410275 31420656 30515683 30677738 31328055 32384962
1384.65 33789640 35249204 36421174 37455230 38047952 37254713
1387.54 37086055 36178774 35515156 34277611 33319722 32475844
1390.44 31300570 30715639 30003377 29098740 27899390 26370474
1393.33 25251590 24015432 23563446 22774095 22305750 21576353
1396.22 21841639 21505546 21316491 20989982 21018716 20808480
1399.11 20800186 20966329 20631243 20401945 20468063 20048600
1402.01 19814037 19103773 18899078 18464912 18219289 17711235
1404.90 17764840 17566539 17408277 17419208 17309813 17307177
1407.79 17501154 17619244 17697862 17684094 18203977 18442311
1410.69 18475700 18512785 18764347 18663372 18946959 18628456
1413.58 18756522 18601146 18938739 18749413 18776743 18949298
1416.47 18977684 19137862 19428121 19270276 19397991 18479157
1419.36 19480460 19719602 19704020 20096648 20131017 20443453
1422.26 20621661 20431568 20395101 20597944 20780037 20518896
1425.15 20641919 20732629 20902884 20840977 21248976 21596886
1428.04 21699444 21965666 22436278 22610176 23259361 23892615
1430.93 24376715 25180607 26126322 26762725 27814586 28521637
1433.83 29670166 30773764 31934268 32509364 33530714 33958287
1436.72 35341588 36744059 37330332 38281586 39163368 39478313
1439.61 40140349 40634281 41351178 41588500 41978430 42729578
1442.51 43188760 44039036 44599567 44819167 45166857 45980894
1445.40 46639625 47008006 47920905 48551746 49347445 50141406
1448.29 51118293 51306935 51327495 51295788 51437016 51218844
1451.18 51623176 51372098 51085242 50850870 50063030 49520601
1454.08 49337525 49015662 48773294 48726561 47843601 46919041
1456.97 48070342 47519179 47123017 46893644 46482917 46223470
1459.86 45861978 45772604 46191353 46441591 46461207 47054183
1462.75 47205144 47456703 47938310 47608182 48121038 48741755
1465.65 49239174 49408834 50157751 50695042 51611558 52850871
1468.54 53567886 54635311 55388354 55830788 56418377 56756882
1471.43 56787276 57047036 57713159 57404763 58147405 58832383
1474.33 59012784 59820997 60385619 60969513 62190887 63304230
1477.22 64572313 66234616 67852303 69030163 70035102 70415779
1480.11 70396902 71084441 72387198 74094088 76843322 79161814
1483.00 81048825 82973242 84885027 86733993 88774229 90865064
1485.90 93080464 95075697 96864790 98652717 100509128 101684334
1488.79 102231477 102457994 103446046 103873089 105530655 107214188
1491.68 108930314 111043408 112891009 114605007 115752444 117096427
1494.57 118059803 118248099 117924467 117663756 117876092 116945836
1497.47 117233649 117034670 117557021 118602542 120280163 121950621
1500.36 122371525 122221537 121773582 121280133 118836696 116096056
1503.25 113933739 111697131 110101585 108348148 106404589 106320859
1506.15 104335411 102001894 101114178 99161188 96652833 94314018
1509.04 91659060 88719821 86327351 83236371 80803400 77767638
1511.93 75072804 72782574 70356370 68462642 67240383 66010823
1514.82 65222084 64719150 64092496 63393492 61947417 60432057
1517.72 59556496 58009626 57333030 56594166 55802679 55533936
1520.61 54564613 54180120 54582519 53515155 53424825 52937546
1523.50 52753332 52543615 52379996 51873197 52455080 52702123
1526.39 53046877 53155966 53646530 53138544 52805735 52572527
1529.29 51824727 51699871 51464594 51010022 50918815 50373077
1532.18 50223557 49135733 48858667 47630274 47444419 46431917
1535.07 46247818 45354290 45254024 44927669 44989996 44500743
1537.97 44747498 43234213 44122741 43927639 42948021 43060495
1540.86 42344874 40747688 39510798 39020112 37416169 36256652
1543.75 34980404 33307094 31856796 31045257 29842439 28981560
1546.64 28002102 27025040 26169357 25551705 24617560 24060559
1549.54 23458598 22772726 22711954 21981629 21827464 21234888
1552.43 21127280 20645053 20342594 19403544 20036105 19632868
1555.32 19459613 19049484 19276331 18330328 18448412 17877388
1558.21 17460420 18408672 17692405 17146574 17576557 18123299
1561.11 17601773 17671240 17407579 17581706 17553947 17688954
1564.00 17576093 17442609 17738566 17677838 17691036 18052617
1566.89 18254471 18340266 18634641 18763626 18930178 18786831
1569.79 19295872 19396190 19387538 19468955 19391144 19446410
1572.68 19361966 19425223 19303012 19429348 19171108 19186893
1575.57 18009761 18659359 19408274 19564964 19896381 20021385
1578.46 20277544 20240562 20309142 20510249 20849564 20856586
1581.36 21113188 21668473 22112303 22696715 23117363 23831511
1584.25 24526061 25087622 25771849 26267639 26729139 27612675
1587.14 28719381 29456717 30426297 31838007 32890365 34161769
1590.03 35412412 36876068 38409778 39750898 40702421 41609979
1592.93 42554809 43030519 43265296 43169577 43147097 42928372
1595.82 42875404 43101497 43749876 45104041 47303410 50198596
1598.71 53285388 57220630 61108828 64665070 68258244 71647898
1601.61 74654546 77647252 79836944 82087789 83884350 86001232
1604.50 88332244 90620645 93500526 96843340 101000719 106198827
1607.39 112583856 119881774 128100646 135377889 142223589 148604872
1610.28 153923884 159061174 163435075 166707654 168314719 167106573
1613.18 164154521 159844682 154186207 149503226 146133480 145530609
1616.07 146554711 152101302 160167620 172018231 186029894 185168326
1618.96 149113190 130369545 123235730 118688480 120802925 123612415
1621.85 127907231 130470643 132258927 131420831 129933547 124865410
1624.75 118964345 110822141 102609104 92941025 83718012 73632482
1627.64 64705004 56144210 48693609 41489753 35879430 30395511
1630.53 26170707 22175429 19303022 16745690 14754970 12818394
1633.43 11576798 10254862 9487185 8316644 8044089 8224636
1636.32 7981728 7625801 7455592 7396938 6919209 6532991
1639.21 6421801 5956558 5934944 5684760 5739341 5482168
1642.10 5538741 5461755 5288860 5511529 5526595 5709807
1645.00 5827640 5229467 6145325 6452456 6266050 6600602
1647.89 6684075 6915745 6974069 7219579 7032332 7321487
1650.78 6958392 7560050 5940386 6349196 5621160 6035575
1653.67 6688433 5896276 6984913 6827895 7204309 6853254
1656.57 6950229 6422441 5849661 5321748 5550207 5532494
1659.46 5587261 5608468 5810808 5727227 5790479 5477105
1662.35 5114139 5065953 4779441 4572183 4295441 4078545
1665.25 3640820 3277937 3219165 2682859 2534230 2152770
1668.14 2160665 1456080 1481068 1704576 1520248 1468781
1671.03 1124923 1210155 1241106 1077790 1129082 926585
1673.92 975755 785432 427099 794815 1014417 965448
1676.82 803234 855544 854866 539937 797675 576145
1679.71 554238 615567 717996 553391 705447 533424
1682.60 288947 350276 594636-269853-750077 869701
1685.49 408419 852327 483665 647332 496325 582265
1688.39 497142 693355 521893 615051 668971 814052
1691.28 868879 899286 529715 1012671 947310 1076626
1694.17 965965 1020642-67416-66320 1355917 1101323
1697.07 1374801 1324875 1380967 1556138 1399673 583999
1699.96 984421 1066775 1704106 1512989 1659691 1312558
1702.85 1438502 1267820 1190015 1094511 1614859 1565133
1705.74 1612226 1605384 1754173 1431390 1530276 1236781
1708.64 1285724 1250908 1258333 1442761 1499996 1449235
1711.53 1637958 1409243 1553538 1557871 1415310 1435548
1714.42 1138492 971541 1436178 1161088 1509946 70985
1717.31 1003116 1208196 1016626 1167474 1322329 1150728
1720.21 1412640 1293614 1242435 1543528 1541030 1635786
1723.10 1650326 1793190 1778291 2067110 2196485 2422826
1725.99 2541470 2656302 2786092 2960636 3131923 3104552
1728.89 3324914 3280806 3377645 3665468 3663309 3662251
1731.78 3676197 4220198 3755199 4229637 4664238 4356346
1734.67 5606616 5906686 6613308 6792063 7462067 7638923
1737.56 7955455 8235163 8530481 8484866 8509719 9162804
1740.46 9263078 9277260 9325228 9322192 9308062 8995806
1743.35 8939539 8507189 8398483 7892309 7591081 7281134
1746.24 7174890 7036612 7483037 7440313 7650002 8117828
1749.13 8618211 8963573 9295465 8865246 9027537 9564674
1752.03 9494162 9193063 8990881 8803876 8490638 8384508
1754.92 7987668 7822935 7639927 7139285 7421016 7068138
1757.81 7156939 6798693 6717643 6409275 6624458 6342034
1760.71 6357242 6023453 6263794 6446509 6550700 6784285
1763.60 6873702 7129942 7264882 7801128 7746006 7633964
1766.49 7679911 8136802 8230776 8609621 9080828 9077653
1769.38 9618173 9474488 9574004 9153120 9304650 8786646
1772.28 7881776 8141194 7957416 7208651 6904609 6464245
1775.17 6122179 6015726 6215022 6262450 6436762 6623906
1778.06 7401438 7866718 8111738 8241723 8070219 7812618
1780.95 7522999 7005885 6690500 6332734 5995773 5730276
1783.85 5407945 4828979 4659828 4494747 4065634 3554051
1786.74 3315879 3048239 2845132 2598408 2423889 2171926
1789.63 2170957 1755063 1572903 1627539 1391110 1045971
1792.53 1076272 1326471 1144683 1143567 1207899 1132978
1795.42 987434 1091135 1079463 829876 1100465 1024743
1798.31 1095744 974856 847412 1191036 1253713 1087064
1801.20 1385872 1267870 1471171 1530767 1556377 1514976
1804.10 1611713 1589660 1695769 1752636 1773386 1875149
1806.99 1874355 1949189 2051877 2108218 2034889 2084478
1809.88 2107429 2269263 2462940 2481582 2406061 2395828
1812.77 2296815 2355848 2203350 2307982 2241890 2395451
1815.67 2283444 2305253 2494134 2523083 2468232 2552096
1818.56 2419124 2324004 2343586 2230251 2444983 2146785
1821.45 2131839 2168244 2168861 2161291 2055587 2081973
1824.35 2015016 1837670 2162884 2090540 2125831 2088549
1827.24 2204465 2287855 2358674 2251399 2514027 2348236
1830.13 2776838 2744701 2914842 3139622 3381565 3477604
1833.02 3599964 3809091 4074352 4211953 4496626 4650133
1835.92 4809096 4971460 5045023 5223869 5473841 5458782
1838.81 5689739 5800885 5860048 5899063 6114063 6107566
1841.70 6371187 7015479 7393930 7907747 8162532 9243988
1844.59 10064993 10725244 11702412 12528163 13170183 13799125
1847.49 14287374 14590011 14679739 14796443 14720911 14377329
1850.38 13841444 13237644 12638155 12516378 12599476 12795565
1853.27 13628158 14681650 15765180 15740441 13868790 10630908
1856.17 9055633 9008375 9279806 9892526 10496707 11200450
1859.06 11563744 11777442 11742065 11526906 11042650 10445680
1861.95 9674904 8965984 8126032 7392229 6608078 5641325
1864.84 4950084 4272019 3530180 2946351 2683804 2214601
1867.74 1969921 1911905 1418936 1496145 1675401 1467132
1870.63 1527991 1401145 1425251 1253587 1437806 1383293
1873.52 1357171 1322944 1331188 1469783 1287382 1271711
1876.41 1328334 1171605 1283932 1165909 1062334 1092865
1879.31 1030495 1145287 1102034 1019815 1025685 1062081
1882.20 1117859 1084382 1375777 1216583 1149796 977666
1885.09 1163173 1048513 1037274 1303687 1216557 1215053
1887.99 1408240 1358598 1343638 1397496 1459396 1415986
1890.88 1498942 1350123 1323223 1258668 1280014 1131472
1893.77 1211244 1262953 1420807 1470064 1565040 1525481
1896.66 1505378 1428005 1531213 1390795 1602965 1466467
1899.56 1596868 1503526 1710632 1551229 1842130 1809047
1902.45 1955008 1836815 1922424 2068664 2152230 2044621
1905.34 2196072 2352938 2363602 2607066 2769407 2602034
1908.23 2725725 2863243 2914909 2974397 3205072 3409427
1911.13 3399433 3449418 3667400 3919755 4054828 3983969
1914.02 4237230 4470452 4802215 4812314 5101940 4934993
1916.91 5189959 5018665 5386801 5791004 5993678 6362522
1919.81 6599359 7026066 7335777 7636519 8167816 8506271
1922.70 8838897 9276166 9796000 10200434 10594514 11076798
1925.59 11635596 11949464 12312764 12561976 12948381 13093148
1928.48 13275504 13337385 13167090 12996460 12839839 12336106
1931.38 11427478 10671338 9900859 9396598 9114127 9360419
1934.27 9441670 8993236 9375973 10034950 11310813 11910133
1937.16 12723063 12853777 12764664 12457757 12015148 11453048
1940.05 10768451 10099815 9723471 8862242 8308445 7663870
1942.95 7133178 6426961 5838235 5294784 4796305 4278323
1945.84 4021928 3543835 3237018 2940327 2603210 2347359
1948.73 2187894 1906589 1870538 1525935 1414604 1094665
1951.63 1084254 915804 719347 586501 597300 578602
1954.52 377484 293476 554519 317346 234974 316967
1957.41 138736 214254 131881 107234 57600 66994
1960.30 116838 20506-25723-159875 4513 46371
1963.20 145871 134516 163886 135033 112546 60944
1966.09 172898 91590 155417 287057 154466 305588
1968.98 262529 227416 119344 175953 170778 48589
1971.87 302512 124709 53014 26694 261486 137767
1974.77 69884-15915 199309 88799 66603-71377
1977.66 172611 70208 7360 55518-49583 80070
1980.55 64135 65372-77167-11650 112148 52690
1983.45-32094 77359-25818-42167 11359-97167
1986.34 15251-86871-131283 4480-66656-216199
1989.23 71445 89854-47974-109084-59832-112730
1992.12-29298-6608 6054-132038-57115-50379
1995.02-51495-14104 31987 88983 44288-39694
1997.91 6626 27520 68716 30764-172411 45394
2000.80 34683-16623 18045-16500 101288-77042
2003.69-94577 19235 55440 142514 73926-15663
2006.59-24038-215630-316705 51579-15179 41721
2009.48-155460-56553-116929-157753-149239-33148
2012.37-99784-154029-77381-35888-115447-103787
2015.27-54431-136800 48934-133208-174025-28375
2018.16 50488 8890-35485 51693 13829-178829
2021.05-23037-60172 268-39197 11362 437
2023.94 100736-98344-81836-73336-135477-11968
2026.84-62584-121476-87057-222123-188212-187854
2029.73-299969-123580-291267-263706-161157-200230
2032.62-279281-144763-202568-55026-119400-265812
2035.51-256211-379575-289053-381384-290847-272242
2038.41-340901-410587-197058-391456-363792-282122
2041.30-338628-505831-415131-376854-413415-685947
2044.19-465983-465514-517142-437353-456081-456762
2047.09-471418-476455-264722-515411-468792-614799
2049.98-462314-506214-539119-501282-407647-527444
2052.87-414487-498169-574967-574925-534728-531212
2055.76-510180-586062-431813-497361-409017-438883
2058.66-395554-567852-427899-290593-335901-415403
2061.55-404938-521433-308932-408094-364430-353854
2064.44-445904-335887-136111-265800-217628-176954
2067.33-208119-219161-43573-45425-109623-121267
2070.23-106034-9280-37994-64554 36552 98937
2073.12 113537-33781 52687-16686 46426-7469
2076.01-214432-237600 159433-62497-82017-200071
2078.91-118022 28527-36945 29740 108287 239928
2081.80 196306-41547 186265 155138-35810-54972
2084.69-46421-152879 354147 53091-334994-55275
2087.58-280248-195230-256123-256971-303806 95899
2090.48-91884-355567-263360-184836-83747-170891
2093.37-268789-99909 290961-112200-43645-230676
2096.26-57815-79396 144665 124418 254574 723114
2099.15 176549 177741 272743 406312 191596 311667
2102.05 184450 534049 775079 160949 418077 485127
2104.94 678368 695838 669918 424268 1080502 524958
2107.83 409407 275974 480145 328213 519394 336696
2110.73 936530 1059234 498547 589001 536948 505618
2113.62 426843 324752 221981 1034841 492614 128789
2116.51-13790-18448-3224-84037-154668 206200
2119.40 160219-477161-351374-398638-327407-503611
2122.30-367166-210675 255687-442978-187782-452456
2125.19-354390-376013-378324-340556 175906-235738
2128.08-370631-380451-432007-492406-307088-673665
2130.97 12113-207991-518855-417568-320944-475937
2133.87-219496-415582-85199-187898-507334-314559
2136.76-82731-271034-286120-279638-238778-5391
2139.65-73172-99220-110610-117852-14765-219370
2142.55-86823-54891-56694 32783 65023 145346
2145.44 87084-13250 74831 196533-75599 68281
2148.33 107907-80332 77348-29295 432653 337128
2151.22 121962 163775 65104 49162-16007 94888
2154.12 468212 68874-69799 48400-96649 156550
2157.01 2335 363591 355888 37971-22808-97944
2159.90 111320-30199-220205 640237 222144-299376
2162.79-124784-320284-112757-163229 82414 448036
2165.69-81227-167829-174020-288133-111114-435945
2168.58 430700 141762-296669-376858-301009-42371
2171.47-337819 142143 363264-390249-232431-332544
2174.37-138254-249279-129759 596394-243359-285435
2177.26-315347-312249-221736-406991 447537-190455
2180.15-327114-194831-318345-336601-527151 284609
2183.04-47147-348756-230825-333630-332554-439693
2185.94 84599-156634-524060-253484-294619-263846
2188.83-461536 116949 71541-455681-91145-532464
2191.72-332622-356128 14226-34605-473229-337734
2194.61-431404-292513-198003-86545-201947-301735
2197.51-279701-326740-227063-326579-18797-177508
2200.40-368529-185632-268991-287894-60566 44344
2203.29-358105-166921-185555-164379-59783 77090
2206.19-70236-90008-144859-176254-48847-90743
2209.08 115304-93158 58560-44963-150038 2413
2211.97 203709 107790 7873 78592 93233 5215
2214.86 4917 182615 58018 53164 89785 6271
2217.76 89472 49026 12811 4290 6778 28679
2220.65 105300 126365-8715-77905 114649-83545
2223.54-20092-49076 13461-17724-115013 44594
2226.43-56446-127071-108733-169429 6579-261193
2229.33-220864-171834-266225-83021-206697-210638
2232.22-403570-200898-58871-261140-110582-211921
2235.11-86735-123317-129768-103234-175346-265175
2238.01-298144-274484-291302-77106-155344 36631
2240.90-171758-194714-197450-188364-273414-118716
2243.79-47948-232206-89896-138180 8257-123448
2246.68-173746-110465 29882-174057-80863 13894
2249.58-59461-146174 4068-82088-114590 44317
2252.47-32282 14819 117983 180130 79113 109585
2255.36 267712 304598 305478 320532 281185 168031
2258.25 474570 565140 405516 591909 575308 365662
2261.15 439385 544802 535558 613885 496320 428071
2264.04 572794 518023 564464 529227 520400 616358
2266.93 805627 716696 687824 764980 558409 704624
2269.83 783106 657646 845820 803287 874973 694275
2272.72 866401 814118 795866 748978 870783 834859
2275.61 1016409 1107961 1009197 1177320 942555 1202870
2278.50 1212742 1284441 996301 1357040 1431678 1398685
2281.40 1412137 1465353 1416052 1371970 1520392 1396679
2284.29 1469599 1690083 1457264 1611024 1591691 1747355
2287.18 1732702 1932522 1686368 1863325 1652405 1914502
2290.07 1874908 1795646 1980142 1954097 1797536 1889760
2292.97 1915584 1918385 2021996 1677974 1627960 1653600
2295.86 1326377 1240157 1338946 1227099 1120472 1041638
2298.75 973426 944430 988650 799283 782444 690572
2301.65 760716 622731 597283 539283 600214 590991
2304.54 650900 486858 494280 394822 458587 419409
2307.43 481804 228266 612412 426978 575595 393607
2310.32 536858 745128 404696 594570 375445 703184
2313.22 454719 422923 470748 733871 528527 543428
2316.11 549347 956522 810027 832868 634613 1235095
2319.00 935577 893308 969463 1394369 1312733 1138585
2321.89 1005008 1588491 1436302 1217974 1160185 1695950
2324.79 1484065 1171800 1277881 1784598 1651795 876231
2327.68 1303383 1843716 1582675 949627 1341713 1936896
2330.57 1559480 1253344 1990849 2264409 1699116 1668216
2333.47 2451466 2474151 1848839 1957198 2816014 2301940
2336.36 1499661 2367505 2743532 1733269 1865709 2542479
2339.25 2011507 1627992 2165290 2389123 1761718 1561692
2342.14 2347839 1726347 1557477 1943341 2033989 1662063
2345.04 1644827 1987909 1834776 1768549 1951526 1905880
2347.93 1804012 1616750 1640430 1681293 1791012 1644720
2350.82 1842820 1719725 1605389 1808500 1778760 1383181
2353.71 1843794 1685580 1153636 1745237 1987435 1152387
2356.61 1952989 1899719 901377 2131729 1802129 935589
2359.50 2141299 1495159 972886 2264665 1057918 1247573
2362.39 2030825 629469 1652407 1742162 831737 1802580
2365.29 1168568 972250 1726121 651219 1535362 1051411
2368.18 927549 1410448 709950 1220776 795531 823392
2371.07 1199561 607931 1198010 459714 927509 695118
2373.96 679373 583709 670649 736722 629206 728849
2376.86 541760 822795 595723 724241 674450 597302
2379.75 826990 805927 690519 777504 860693 1004689
2382.64 783229 911200 1025237 928117 1070705 852060
2385.53 1093469 1008927 1007179 1078386 1262799 1298482
2388.43 1360493 1359381 1428071 1345120 1299549 1299391
2391.32 1401187 1382768 1352010 1353354 1340458 1468649
2394.21 1348321 1322610 1437500 1606005 1485980 1385540
2397.11 1342972 1433636 1432309 1527071 1628552 1508253
2400.00 1472208 1412114 1549224 1380591 1587460 1508591
2402.89 1609594 1275876 1510875 1378537 1509400 1612910
2405.78 1385473 1474503 1637020 1576691 1542578 1611762
2408.68 1651964 1486801 1796010 1641856 1748959 1677726
2411.57 1805053 1649934 1822859 1809985 1895079 1972875
2414.46 1983576 1978842 2098173 2057713 2222993 2079386
2417.35 2233338 2215378 2347202 2223365 2330438 2004281
2420.25 2149840 2079747 2339551 2203246 2280358 1992034
2423.14 2218731 2055401 2009887 2128589 2304859 2133843
2426.03 2108293 2241719 1999142 2239630 1991863 2038262
2428.93 1948939 1923122 1891827 1758691 1720013 1930060
2431.82 1881633 1622850 1673509 1724012 1799469 1566966
2434.71 1609082 1644224 1612923 1736672 1584257 1571395
2437.60 1599371 1575483 1642964 1426158 1693636 1563933
2440.50 1391320 1596763 1584350 1540547 1594153 1473340
2443.39 1529601 1580670 1683300 1602727 1314123 1563527
2446.28 1579714 1556989 1575153 1445514 1456425 1477467
2449.17 1542432 1418609 1604092 1516610 1400103 1484238
2452.07 1500852 1548383 1584588 1465572 1459306 1460350
2454.96 1638828 1442712 1477014 1465398 1568971 1380918
2457.85 1476559 1510184 1360448 1531143 1381779 1397454
2460.75 1422768 1398676 1499327 1357129 1413623 1396688
2463.64 1394024 1436262 1360280 1620195 1427915 1446306
2466.53 1622607 1608405 1505126 1435237 1615766 1600382
2469.42 1691481 1610749 1538012 1587138 1416924 1491307
2472.32 1429048 1474794 1326553 1422227 1439023 1356343
2475.21 1405281 1287020 1510938 1460578 1466465 1219097
2478.10 1387105 1339913 1693599 1493145 1477629 1349210
2480.99 1406480 1436130 1384060 1539494 1394129 1404089
2483.89 1529780 1497893 1356872 1387794 1202845 1287216
2486.78 1229372 1229134 1306884 1351750 1366481 1337901
2489.67 1308700 1429998 1406548 1175380 1314827 1415654
2492.57 1451612 1249182 1233925 1256111 1307077 1388438
2495.46 1323125 1351782 1131202 1231634 1252837 1208404
2498.35 1388326 1445324 1123340 1248183 1245189 1318199
2501.24 1179489 1325988 1000977 1172999 1097952 1341760
2504.14 1263233 1147055 1284910 1270008 1112047 1043292
2507.03 943670 1089624 951445 801797 864436 739094
2509.92 809439 748616 810402 721242 784656 791417
2512.81 777845 506232 571015 676795 629118 519385
2515.71 729317 428991 611086 430024 478160 385996
2518.60 499971 541020 310154 394491 359971 446762
2521.49 470073 325623 412166 431191 428058 209033
2524.39 389155 411679 423984 461257 359424 313471
2527.28 480191 275767 478147 623421 641420 835824
2530.17 724478 873802 833463 755493 972618 846035
2533.06 1134318 1031899 1011487 1309092 1327047 1218167
2535.96 1122389 1289572 1193010 1380496 1236160 1074689
2538.85 1341646 1389913 1561331 1573950 1469987 1598938
2541.74 1621127 1613341 1316502 1453485 1351155 1300614
2544.63 1475191 1475299 1267206 1519604 1338703 1335365
2547.53 1325696 1289815 1244048 1242707 1269712 953755
2550.42 1167259 1179769 812842 838858 672579 537177
2553.31 531589 672916 394922 469313 408840 560889
2556.21 524019 452575 494827 478671 310230 278927
2559.10 583232 298646 381992 413607 365108 391820
2561.99 487506 519854 376599 424908 289098 180722
2564.88 382336 432171 169186 272912 379135 195402
2567.78 386241 250218 379557 278299 179354 411848
2570.67 444186 250051 297513 318242 289067 238358
2573.56 175833 451614 211105 298293 330018 261359
2576.45 392350 252984 205788 353213 243166-10222
2579.35 308695 105267 85078 203196 232644 230704
2582.24 125645 243351 254652 320384 202498 304522
2585.13 379537 416366 301370 285080 440265 409708
2588.03 463396 436065 426233 539734 529833 537425
2590.92 472086 531500 521493 522833 468764 749833
2593.81 591605 234105 473435 462786 564248 637632
2596.70 546391 645851 609547 853071 706232 789179
2599.60 769205 789612 729564 835660 748977 756507
2602.49 652873 729381 735510 628901 594237 556378
2605.38 636342 675850 553265 550780 630481 495629
2608.27 786967 641960 667634 617189 721210 696496
2611.17 784862 722766 716257 628068 626635 623410
2614.06 644058 863001 744204 808222 672259 659187
2616.95 807332 743962 529978 723729 678211 783859
2619.85 626443 785125 929884 830685 895448 928806
2622.74 849115 930991 1116438 1103289 1061876 796253
2625.63 952189 823950 1008758 850330 958056 866709
2628.52 893436 889098 658956 1057534 924315 1026198
2631.42 819318 1001770 920320 842221 974327 1083288
2634.31 982379 999073 1129869 1002862 1182994 1191178
2637.20 1167561 1041254 1160921 1073827 991803 991094
2640.09 930257 894816 908345 888582 682399 831581
2642.99 800975 1130878 640191 592173 1020663 769480
2645.88 715498 748077 567474 543702 676321 646171
2648.77 728847 613805 756216 763221 788610 682612
2651.67 862757 756496 723309 477466 618802 615889
2654.56 667701 393131 465158 424955 340390 203815
2657.45 345187 509035 449369 252762 493720 123678
2660.34 229299 357247 426984 384145 231242 306314
2663.24 175740 420821 19340 104346 15747 45606
2666.13 223761 255649 140465 295910 116681 26178
2669.02-571 43543 31828 138617 214312-151784
2671.91 91300 79473-125557 29071 4832 105196
2674.81 276376 36858 120769 5705 57731 122062
2677.70 81027-9034-132211-6943 55157 108760
2680.59 114949 243608 165605-29372 190977-136206
2683.49 1416 91054 71496-161793 18780-45036
2686.38 86660 14479 132169 189483 175695 89713
2689.27-32859-36649 190816 34738 256885 425155
2692.16 309730 178649 183662 113391 125837-2443
2695.06 177232-138277 212861 111474-154421 253327
2697.95 292751 171461 138405 355003 197392 294440
2700.84 448439 493515 387284 452662 432201 428291
2703.73 519321 625850 707997 458263 545805 771844
2706.63 595191 607588 816061 825629 868444 794178
2709.52 770655 988904 993883 1120983 918430 1027100
2712.41 1090565 1101166 1025813 1151709 1238660 1409735
2715.31 1192204 1192634 1363876 1427181 1397732 1608199
2718.20 1593431 1703784 1538414 1836726 1974639 1537945
2721.09 1810022 2036384 1873801 1955841 2370463 2278966
2723.98 2412297 2566703 2689974 2802948 2881385 3213127
2726.88 3398735 3479928 3886561 4115305 4392992 4910241
2729.77 5135334 5739081 5933525 6719967 7413136 7725263
2732.66 8565517 9260767 9578383 10630952 11158438 11794927
2735.55 12185489 12766968 12877943 13422072 13225165 13174800
2738.45 12784579 12763799 12614404 12743519 13005439 13454347
2741.34 15255694 17724454 18921634 15730619 12939824 12489705
2744.23 13087220 13796676 14808647 15764998 16300497 16679330
2747.13 16819430 16803273 16745721 16105568 15622890 14648488
2750.02 13671374 12673863 11529137 10457288 9613833 8652630
2752.91 7913994 7247342 6624604 5849524 5632836 5489813
2755.80 5225621 4720489 4470643 4047668 4040650 3701625
2758.70 3436773 3464166 3075431 3252483 3016215 2935937
2761.59 2848853 2663529 2624382 2582086 2327416 2370703
2764.48 2284878 2338515 2277521 2333194 2209929 2034216
2767.37 2053250 2117285 1717092 1939978 2087806 1888378
2770.27 2083072 2071985 1984007 1971587 1941329 1900667
2773.16 1873494 1768240 1840229 1769261 2007695 1752034
2776.05 1935927 2044634 1902570 1937993 2032828 1749002
2778.95 2232369 1848701 1965960 2035266 1802271 1961968
2781.84 2057772 2124866 2014592 1960608 2117428 2112235
2784.73 1985053 2335270 2092494 2237564 2186336 1999557
2787.62 2464143 2291904 2400840 2370957 2417125 2662874
2790.52 2597558 2521524 2798539 2672134 2733773 2639348
2793.41 2673809 2785488 2950581 2990330 2840022 2996332
2796.30 3140256 3264357 2927289 3233527 3183968 3365536
2799.19 3511878 3309420 3382546 3635613 3488811 3555956
2802.09 3480118 3668248 3770688 3772393 3785301 3929446
2804.98 4014673 4200658 4028636 4305477 4173789 4131031
2807.87 4390077 4646348 4670357 4571768 4650575 5038920
2810.77 4745760 4785429 5301113 5170856 5491551 5454646
2813.66 5498612 5583691 5662228 5928508 5873634 5928852
2816.55 6242075 6489441 6273205 6375919 6635496 6896051
2819.44 6960211 7148425 7212038 7517890 7345492 7657568
2822.34 8227583 7850120 8183994 8217748 8410457 8721705
2825.23 8625082 8796453 9282162 9395554 9364447 9499500
2828.12 9861162 10018939 10162732 10391965 10651651 10607723
2831.01 10583433 10786429 10989467 11099083 11297607 11425542
2833.91 11755274 11963936 12061609 12403690 12427583 12735786
2836.80 12992651 13219436 13576588 13769024 14099580 14346753
2839.69 14550772 15101662 15310294 15491539 16008023 16321476
2842.59 16712431 17430006 17682941 18056972 18783365 19096717
2845.48 19946795 20410546 20716521 21637434 22129017 23083555
2848.37 23955285 24427494 25016377 26009221 27018057 27737469
2851.26 28986166 30002098 31152479 32318860 33542872 34823134
2854.16 36330309 37537321 39093799 40279642 42043961 43815881
2857.05 45586563 47698401 49217907 50977291 53108146 55504326
2859.94 57679486 59964560 62526395 64652803 67223158 69961511
2862.83 72503545 75160812 78086720 81012037 83777137 87009763
2865.73 90058820 93247417 95939961 99027631 101839236 104796983
2868.62 107505940 110247841 112718282 115282988 117568961 119843844
2871.51 121416423 123390019 125107317 126728374 128084870 129182110
2874.41 130259492 131147490 131694818 132472252 132797067 133756283
2877.30 133552382 133708421 133845815 133843546 134030233 133801851
2880.19 133572438 133299819 132625585 132243791 131432240 130550974
2883.08 129709763 128821452 127574275 125786324 124475063 122933548
2885.98 121450343 119574818 118000709 116137910 114542250 112788312
2888.87 111129835 109531918 108480037 107056341 105914471 104774226
2891.76 103663585 102830959 102595391 101780167 101322820 101247186
2894.65 100813750 100739951 100549979 100645268 100726232 100726681
2897.55 101158269 101376494 102122662 102208252 102423679 103211802
2900.44 103235350 104497815 105282306 106346552 107551063 108152378
2903.33 109300242 110330391 111384915 112507601 113500699 114524083
2906.23 115527065 116807797 117864332 119122804 120320154 121089054
2909.12 122352150 123696747 124702932 125889331 127409490 128925794
2912.01 130429100 132405048 134172951 136732337 138761554 141169610
2914.90 143375985 145904618 148882815 152038716 154885953 158006902
2917.80 161682582 165297653 169194503 173218160 177281236 182077723
2920.69 186290956 190573247 195056789 199610691 204031229 208580652
2923.58 213146081 218131306 222226744 226925049 231192033 235246437
2926.47 239474601 243018056 246355831 249699970 253049069 255863091
2929.37 259240346 261877363 265277011 267942588 270445453 273498544
2932.26 275493174 276969352 278730393 280431755 281295516 282787220
2935.15 283288667 284231806 284129018 283352263 281786275 279414157
2938.05 277145166 275169893 273214433 271559007 269515219 267425611
2940.94 265674042 263483523 261498720 259261825 257386034 255461848
2943.83 253488558 251076731 247259413 240188844 230926341 220983613
2946.72 211820506 203446036 195481634 188260275 181438057 175747442
2949.62 171165471 166624045 162455750 159288498 156412019 154657389
2952.51 153361953 152293255 149443354 143785100 137522231 131897780
2955.40 127482935 123970674 121113281 119025001 116837585 115521139
2958.29 113990025 113196870 112301172 111335552 110593713 109481825
2961.19 107426438 105891920 104536148 102594418 100792821 98509030
2964.08 96953896 95099142 93343230 91481674 89473074 87747626
2966.97 85678209 84098005 82541504 80830766 79195531 78226256
2969.87 76864334 75862536 75315320 74778481 74109017 73995233
2972.76 73966067 74005884 74450723 75133737 75346091 75977276
2975.65 76577255 77115172 77703824 78370425 78931409 79340521
2978.54 80290887 81566694 83008370 84288059 86129671 87919371
2981.44 89717670 91565642 93383704 94965172 95972904 96942194
2984.33 97319035 97043094 96885891 96064600 95953191 96117738
2987.22 96453745 97647064 99161817 100785971 103088340 104663458
2990.11 105929993 106623845 106919441 107630065 108286161 109210281
2993.01 110407847 111887193 113999315 115615783 117356165 118803172
2995.90 120562056 121134810 121644795 122164076 122938894 123161737
2998.79 123712829 124389528 125295704 126778719 128062483 130061528
3001.69 132260585 135001603 137658354 140726665 143500151 147022257
3004.58 149533219 152079523 153784832 155477944 156478141 157245491
3007.47 158038872 159286649 161136089 163316180 165959843 169011105
3010.36 172292415 176182133 180084478 183688353 187737937 190906652
3013.26 193796236 194605262 196105102 196881259 198099386 199310061
3016.15 200801233 202073519 204197131 206723075 209833109 213359852
3019.04 217713832 221824012 226413046 230494033 234598238 237610439
3021.93 239806368 241757613 243651752 245763479 247210563 249008054
3024.83 250619858 251960444 253598090 255799119 258173469 260958936
3027.72 263405371 264254663 264599152 263731724 263183741 263222037
3030.61 263734437 264305050 265405140 266086461 266841837 267247795
3033.51 266597634 266027272 264314355 262240568 259539201 256192042
3036.40 253047948 248860636 245165065 240955875 238000588 235388895
3039.29 232244780 229983049 227890310 225271439 222034439 218157947
3042.18 214066166 210900051 207267911 205070593 203396462 202387924
3045.08 200995319 200071564 198653485 196473296 194214224 191208764
3047.97 187514962 183803669 179632148 175891680 172274171 168073055
3050.86 164640950 161993830 158444152 156421652 154231140 152252814
3053.75 150939919 149814544 148525769 148005238 147521091 147016125
3056.65 146805952 146266006 145981586 145911425 145329584 144915359
3059.54 144083138 142924089 141186363 138843613 136887907 134201561
3062.43 131453057 129873545 128520644 128169763 128799532 129232868
3065.33 129749084 130960294 132493361 134362319 135577247 136038517
3068.22 135738033 134026561 131780963 128484519 124779075 121081785
3071.11 117111430 112746283 109054466 104981909 100787867 97043502
3074.00 92986917 89102434 85397526 81698354 78389752 75131650
3076.90 72157435 68942764 65973228 63407898 61039920 58208808
3079.79 55991617 53799624 51895855 50084970 48525934 46394459
3082.68 45420429 44405995 43475658 41849393 40702954 40142348
3085.57 39070617 38146716 37458255 36852605 36240366 35589675
3088.47 35619851 34991337 34256340 33796947 33292837 32512893
3091.36 31711335 31519174 30634399 30086776 29611719 29319417
3094.25 29034040 28446944 28355757 27838965 27716264 27257343
3097.15 26759482 26711930 26463027 26441943 26247975 26103907
3100.04 26104296 25794914 25636135 25416697 25298599 25011137
3102.93 24639876 24571458 24196137 24127220 24041387 23952927
3105.82 23718869 23390462 23373139 23696372 23308162 23332788
3108.72 23174316 23536355 23177054 23144680 23242098 23420641
3111.61 22891786 22890626 22871592 23003434 22618542 22617587
3114.50 22377104 22411673 22193217 21523371 21122442 21009096
3117.39 20367753 19882567 19426582 19211206 19291733 18444990
3120.29 18139368 17620563 17798282 17688636 17174642 16971572
3123.18 16502214 16204742 15783030 15609045 15087834 14682772
3126.07 14064631 13453988 12891048 12498322 11694936 11010875
3128.97 10456807 9904463 9235569 9029649 8103138 7645887
3131.86 7331146 6988339 6456160 6439197 6102551 5515910
3134.75 5373084 5170423 4879308 4537567 4530028 3844445
3137.64 4074954 3379720 3395761 3199485 2968404 3196416
3140.54 3075543 2698897 2658102 2675918 2375538 2153035
3143.43 2318559 2020505 2253847 2044011 1943281 1642091
3146.32 1932105 1723911 1665902 1850105 1696040 1434107
3149.21 1552088 1647339 1350380 1550607 1245531 1432153
3152.11 1264134 1145494 1211010 1306398 1357625 960869
3155.00 1279600 1303605 1021653 1242284 1086454 1088554
3157.89 1328289 1096819 1016098 1087104 1008891 941583
3160.79 913475 969550 1135970 777863 1084490 763518
3163.68 726711 737444 966169 661975 829136 857177
3166.57 804319 451829 955963 831298 787724 632335
3169.46 679554 864542 453986 530115 856369 970056
3172.36 691013 796181 686209 959923 636870 659483
3175.25 427444 403959 445204 521780 752295 694122
3178.14 750181 683065 778238 575237 668818 805337
3181.03 464330 838422 893171 756171 572817 561446
3183.93 660183 586244 569736 415595 554810 757599
3186.82 492042 704129 634991 499417 511748 482742
3189.71 470525 435228 567969 506523 515181 303545
3192.61 487834 344958 554745 460968 579196 844343
3195.50 427870 429571 574264 637349 441503 640443
3198.39 304491 454626 225540 288430 188765 364971
3201.28 465975 422266 106548 247058 633057 376427
3204.18 344730 323089 432862 157736 86818 271428
3207.07 147902 441950 329437 461974 294065 361424
3209.96 354212 404210 428977 736549 368127 379424
3212.85 131759 656420 415424 245185 394042 37815
3215.75 192103 193470-190930 145611-24359 56318
3218.64-86154 162318 55788-106066-86921-64579
3221.53-87172-121887-379665-128567-395035-563749
3224.43-519796-200490-595840-281163-593754-727825
3227.32-459461-627928-402394-366653-500243-621880
3230.21-293749-146354-202420-305266-520989-490098
3233.10-442980-687317-744852-915495-870496-539733
3236.00-732172-1015406-568400-368425-375810-353134
3238.89-448659-224012-590425-652193-381099-343854
3241.78-380480-567973-474702-414359-324691-266094
3244.67-535263-303411-359745-26129-221299-467986
3247.57-429336-362713-110833-147161-333510-369271
3250.46-252849-252792-221756-30842 300362-34696
3253.35 2394 108944-22486-52047 5264 242055
3256.25 54249 255068 276030 385750 347080 349773
3259.14 517231 310650 294092 92969 247119 614078
3262.03 264227 304419 356725 213042 257728 382523
3264.92 286177 384775 278009 554592 647360 256444
3267.82 302087 506045 758245 365208 376885 577696
3270.71 37828 192681 333880 281869 352123 357924
3273.60 47590 197485 307140 343742 69614 29675
3276.49 119179 53477 347338 203631 264344 171598
3279.39 140787 47387-356 129862 37702-74552
3282.28-197415-11476-98165-82729 38045-7359
3285.17 180351 114263-192595 302156-104011 30505
3288.07 110955 10515 48743-23763 46479-19377
3290.96-69842 59873-71932 103277 223659-87947
3293.85 135921 89750 73494 36533 75710 148619
3296.74-55981 108082 297684-161144-188722 66193
3299.64 339556-92185 49975 24381 3363 184450
3302.53-167923-261780-29445 337685 141296-58740
3305.42 1571 53786-104875 11428-111727 53550
3308.31 16634-62538-119563-58134-54196-120282
3311.21 420633-115122-127690 61647 17033 111732
3314.10-190009-65224-227461 60338-160103-64983
3316.99-167133-9926-79910-161480 18440-55976
3319.89-143830-29564-211863 188890-9745 5137
3322.78-16015-190793 199750-170853-332430-116828
3325.67-143963-91123-25445-45061-217434 25602
3328.56 152454-470046 12066-151597 155037 115002
3331.46-113569 137269-112924 24448 196134-311497
3334.35 31324-136823-14430-147065 76868 172480
3337.24 42534 8428-205589-259854-7507-28175
3340.13 178790 103275-24575 69181 282304 83564
3343.03-73730 38633-244396-139830-158346 244074
3345.92-122432 125837 14986 23385 203152 87271
3348.81-102547 31731 205354 35685 72079-194257
3351.71-89097-135861-282575 285454 21414-447309
3354.60 94074-327880 112442-34792 34308-205627
3357.49 97572 20385-230267 125024-235522-212529
3360.38-47235-323186-2816 114316-223391-281873
3363.28-93649 91560-406816-121446-305474-107598
3366.17-534845 48626-34721-104256-224906-36211
3369.06-110416-85055-326070 145568 323421 290484
3371.95 131993-88065 83163 112152 163813-257575
3374.85-72952-16831 62318 130003 73069-135979
3377.74 131 227360 245646 205401-61737 156899
3380.63 105566 264835 324621-12233-63917 30768
3383.53 133837 307397 267406 380282 408595 337953
3386.42-91445 179052 341803 573875 235286 65063
3389.31 163304 711276 340376 480882 261021 426454
3392.20 110840 395555-91591 237307 340220 593247
3395.10 552328 667216 806733 712811 577034 344619
3397.99 360730 135016 585363 739087-79417 155173
3400.88 159918 263428 371916 504857 346390 512381
3403.77 484343 417876 500250 429029 334847 317025
3406.67 68237 394598 251491 652113 271260 421659
3409.56 200551 604684 375620 335826 220901 404615
3412.45 855813 335072 145987-54881 338540 333181
3415.35 409838 200914 456478 694981 169351 892543
3418.24 276439 366022 223897 515491 423879 567846
3421.13 617256 626772 504232 416696 507646 545247
3424.02 561086 22119 543676 669733 407564 455748
3426.92 256408 269456 326849 583164 387974 549423
3429.81 427252 801309 191792 412751 153688 390312
3432.70 378532 398587 695801 573066 590937 319290
3435.59 358024 444186 199707 408225 373364 327519
3438.49 262667 449345 208147 585465 470281 501274
3441.38 434541 472942 516733 140974 255527 411934
3444.27 559221-38032 240591 502283 454154 187772
3447.17 259250 821157 307158 681758 112177 715300
3450.06 457365 93819 520229 762184 281244 660115
3452.95 227393 237351 662417 542092 304705 671996
3455.84 405406 214084 357371 558972 597909 668242
3458.74 567625 407230 567000 340371 381345 231563
3461.63 268653 441441 503188 146732 326882 583704
3464.52 480925 454279 206309 194279 522288 711634
3467.41 289275 403435 525355 506771 414493 606187
3470.31 498687 442207 298607 462272 426206 396239
3473.20 196417 299309 98481 181159 303053 82511
3476.09 144695-67760 129439 373113 6266 186949
3478.99-362054-9307 282630-182048 22172 36671
3481.88 143200 161559-99842 206690-193259 3390
3484.77-118916-72047-387747-125888-220270-64016
3487.66-251461-356438-430293-180091-385375-148608
3490.56-102258-133974-470864 1653-326668-306420
3493.45-625528-300336-342765-456455-174215-8949
3496.34-285552-290741-462013-261262-242192-64628
3499.23-231967-369279-493981-139757-64793-625336
3502.13-302073-426633-317434-337886-810938-173053
3505.02-645746-500720-230977-207449-185922-459151
3507.91-380372-101660-474025-131978-429847-348544
3510.81-301062-269361-141338-642002-542613-143480
3513.70-480956-380774-389258-453890-309827-188692
3516.59-162777-261647-275166-122375-286650-424650
3519.48-291598-555813-472962-168521-399206 142738
3522.38-541494-93319-409006-525289-262127-346052
3525.27 102964-249729-336486-418336-337825-261662
3528.16-15859-225283-337033-134697-381082 144485
3531.05-217251-253714 3298-105883 62150-191378
3533.95-40404-72679-214857-73809-201299 58444
3536.84 1675 253094 22427-20981-23062 221225
3539.73 197905 103796 343607 256913 262304 92387
3542.63-34754 261735 22811 577898 293478 549211
3545.52 329271 577088 527481 395051 518204 526720
3548.41 427175 480845 639088 851738 732513 440258
3551.30 511681 335384 564403 522388 723711 592863
3554.20 406156 651444 520279 520238 573445 423802
3557.09 497369 594973 722948 425915 363081 580190
3559.98 215854 548774 284887 592357 495180 582350
3562.87 545214 377255 283952 34171 519768 448108
3565.77 409049 392869 536789 56574-59047-46106
3568.66 436257 201434 93717 113919 22522 172071
3571.55 184171 370978 222620 210256-17610 175281
3574.45 268829 235882 110934 150791 86610 172868
3577.34 41674 150811 126078 142563 26025 273021
3580.23-71042 27119 158631 41140 56820 93786
3583.12-62764 113848 63767 333023 3754 144724
3586.02-240882-242472-226673-107463-194138-216108
3588.91-86834-6797-49567-147875-218211-295057
3591.80-310185-368912-216379-179371 19038-272714
3594.69-459637-110308 82165-225982-344749-181026
3597.59-87647-408408-416960-112112-537020-188635
3600.48-440377-444638-223561-77662-138134-403978
3603.37-396676-669007-94192-451742-172163-297812
3606.27-422783-287895-380697-406815-499149-794021
3609.16-504683-194602-97254-162530-219130-270570
3612.05-519909-414291-248977-215249-707661-449108
3614.94-276254-237363-395482-49988-307449-296734
3617.84-300759-218060-601135-748124-319821-128898
3620.73-199027-338088-390725-303815-228766-310518
3623.62-156138-78422-479301-224312-275599-276922
3626.51-348820-399170-148121-772446-368890-666971
3629.41-570099-14500-345336-421753-360566-339698
3632.30-280335-338308-280630-223407-212620-37794
3635.19-125284-362137-356354-251753-408974-158378
3638.09-381887-466624-402738-176833-180688-123294
3640.98-175927-457588-316423-440629-353848-170850
3643.87-376948 9009-420835-20308-335900-309275
3646.76-606342-431115-172262-227071-950410-617937
3649.66-326765-301260-436470-268625-177822-294722
3652.55-351436-456736-215101-617396-382275-235083
3655.44-490671-867587-115385-108781-308921-285096
3658.33-95867-131151-353349-400647-341243-504446
3661.23-250410-503169-317400-111425-387932-651543
3664.12-146068-360001-231033-345692-438617-310774
3667.01-431671-186448-258840-441041-342760-161029
3669.91-799067-1319341 104055-276345-158727-124205
3672.80-90954-315019-363040-764568-741226-797170
3675.69-949736-260928-326617-322024-310735-159400
3678.58-167260-248385-445269-285401-219185-232130
3681.48-196926-175023-309992-188095-303477-379877
3684.37-470041-376776-330648-211180 122168-400471
3687.26-346803-1001210-1085555-119967-438997-382101
3690.15-428480-377616-393717-56624-137469-192729
3693.05-444083-560731-192573 71192-187002-52059
3695.94-433276-350163-563954-74531-205811-245868
3698.83-403543 16308-115652-110639-174679-488064
3701.73-115864-14765 37813-85166-167750 106547
3704.62-99761-301317-181886-56864 31537-236868
3707.51-256121-37494-239878-802510-361445-239329
3710.40-279450 49706-469570-666636-28365 104709
3713.30-83180-169479-32289-153885-142228-268707
3716.19-309041 32285-77637-69277-25106-156755
3719.08-198718-224552 199396 41660-47251-76290
3721.97-364618 36816-11683-173522-324412 116527
3724.87-172981 267748 26966 50479 245523 20956
3727.76 429211 23693-113485 273221 225238 457321
3730.65 273653 165907-97022 308160 358834 388202
3733.55 395310 376496-44862 179394 534716 138280
3736.44-117316 732033 341920 497306 567866 631088
3739.33 430253 604829 602896 643594 188906 643825
3742.22 640863 499588 482557 84256-994235 362275
3745.12 577146 684749 787018 781322 639197 668048
3748.01 478100 335689-491779 482779 418157 493157
3750.90 643004 96300-453035 616100 663563 776424
3753.79 752372 827179 618657 949761 632130 562330
3756.69 662051 1150237 535946 625174 365743 433770
3759.58 197097 739819 711862 900198 696870 614234
3762.47 982983 899365 797673 807673 686856 718927
3765.37 769130 906915 859277 913153 998660 855046
3768.26 826848 977481 419464 642622 1028868 779801
3771.15 1059117 1018960 780035 923120 748280 666571
3774.04 976767 785929 967924 912732 805994 1075972
3776.94 616529 805010 678433 1152518 502377 564387
3779.83 734570 775682 922325 893422 854155 1000548
3782.72 851061 679247 880234 635148 883356 609400
3785.61 840364 548108 687244 486425 401597 550980
3788.51 647905 240111 354043 459894 624973 444393
3791.40 626435 356650 757010 551228 467006 440510
3794.29 529019 597218 426577 35945 124215 387244
3797.19 130767 593368 273559 404374 131571 117157
3800.08 184802-208995-783973 299249-99726 173741
3802.97 216318 247004 293322 257036-46958 253402
3805.86 435878-114296-301433 637848 357277 309934
3808.76-199401 333762 242318 460098 119184 131106
3811.65 95073 102103-185320 201778 271910 287484
3814.54 15904 277710-677298-387254 551742 348358
3817.43 352671 409109 385591 368059 293083 251156
3820.33-100407 297741-182286 263902 395779 390069
3823.22 459198 340402 392485 577106 571113 716728
3826.11 261740 250447 488434 515807 382082 725020
3829.01 662858 564536 293469 465708 243912 238108
3831.90 650035 601516 680174 576949 379401 379323
3834.79 460680 615140 518110 595402 673337-223347
3837.68-110472 523517 475862 720968 411352 453001
3840.58 279204 625323 335771 740045 663699 387891
3843.47 485154 500906 727635 738225 288518 878204
3846.36 572205 374596 669536 563805 352725 794696
3849.25 414049 593603 439409 440173 216389-165252
3852.15 259628 481666-206166-846658-384509 281625
3855.04 504466 297676 471276 438148 397064 840524
3857.93 208383 281577 392401 599610 432352 563893
3860.83 143423-174296 332054 249277 311123 715516
3863.72 187815 312642-205391 250817 365334 461774
3866.61 283615 663537 249134 696648 282584 431563
3869.50-299209 132179 429279 304814 480229 602009
3872.40 455308 532506 607761 328177 529846 556991
3875.29 795136 549205 702666 678521 693771 711487
3878.18 686417 724384 1006796 416605 648120 589344
3881.07 691058 951031 1051571 903618 687283 986732
3883.97 756758 1200890 588739 518507 707175 1014516
3886.86 922552 1038508 1083219 925247 862490 1033134
3889.75 984283 846727 778656 879924 1117280 1234883
3892.65 1210866 1148215 1191615 1247454 1082183 1176481
3895.54 1243698 1234980 1210589 1431769 1048381 1489800
3898.43 1226089 907299 1276766 1380752 1204539 1373735
3901.32 1250759 1260245 1439574 1485504 1438912 1227463
3904.22 1508776 1556469 1419741 1505397 1914441 1832429
3907.11 1799944 1670697 1509702 1813985 1705294 1523171
3910.00 1851972 1954414 1720045 1821517 1712348 1813347
3912.89 1907753 2052410 1812795 2006220 1949598 2108891
3915.79 1944978 2137031 1742667 1911240 2027453 1597158
3918.68 1906220 1947882 1722179 1743523 1784644 1903094
3921.57 1735619 2203879 2069378 1736662 1663977 1773225
3924.47 1916083 1735496 2051489 2108275 1807083 1916123
3927.36 1468664 1466079 1561998 1855652 1772892 1510685
3930.25 1816857 1551744 1539592 1699113 1355191 1513777
3933.14 1559107 1523955 1488935 1596562 1755368 1392504
3936.04 1621138 1710439 1331151 1505182 1530697 1750294
3938.93 1435388 1551314 1317808 1577215 1608740 1482294
3941.82 1412524 1560957 1719008 1673155 1604574 1429517
3944.71 1371194 1761717 1314384 1549746 1232315 1691166
3947.61 1228650 1277364 1758950 1686126 1438347 1457748
3950.50 1536690 1541504 1608764 1463743 1400397 1288915
3953.39 1370609 1466658 1505863 1444087 1431211 1640408
3956.29 1517758 1040703 1370297 1804606 1368339 1513797
3959.18 1678260 1503428 1630307 1447551 1598523 1740109
3962.07 1629256 1534851 1443493 1815829 1387053 1725294
3964.96 1788874 1860010 1965576 1635721 1435419 1875759
3967.86 1651850 1694679 1613080 1683375 1633320 1865766
3970.75 1521437 1705894 1821553 1499411 1281534 1887672
3973.64 1854212 1700036
##END=
