##TITLE=1,3-Dimethylbenzene
##JCAMP-DX=4.24
##DATA TYPE=INFRARED SPECTRUM
##CLASS=IUPAC A
##ORIGIN=NIST, Analytical Chemistry Division, 301-975-3108
##OWNER=COPYRIGHT (C) 2001 by the U.S. Secretary of Commerce
##DATE=01/06/01
##$SPECTRA VERSION=1.10
##$UNCERTAINTY IN Y=2.1 % relative (B=1.13E-04,C=1.33E-9,D=3.50E-14)
##CAS NAME=1,3-Dimethylbenzene
##CAS REGISTRY NO=108-38-3
##MOLFORM=1,3-( C H3)2 C6 H4
##MP=-47.87 C
##BP=139.1 C
##$NIST SOURCE=QUANT-IR
##SPECTROMETER/DATA SYSTEM=IFS66V (Bruker)
##INSTRUMENT PARAMETERS=KBr Beam Splitter; MCT Detector; Multipass cell
##STATE=gas
##SAMPLE DESCRIPTION=m-Xylene Primary Gas Standard
##PRESSURE=101.3 Pa
##TEMPERATURE=23 C
##SAMPLING PROCEDURE=1 L/min Flow
##RESOLUTION=0.9640
##DATA PROCESSING=Triangular Apodization
##XUNITS=cm-1
##YUNITS=(micromol/mol)-1m-1 (base 10)
##XFACTOR=1.0
##YFACTOR=9.0949E-13
##DELTAX=0.4820
##FIRSTX=575.17
##LASTX=3974.606
##FIRSTY=-1.17E-06
##MAXX=3974.12
##MINX=575.17
##MAXY=.0005944
##MINY=-1.67E-06
##NPOINTS=7052
##XYDATA=(X++(Y..Y))
575.17-1290250-100747 481185 484264-917801-1000661
577.58-85510-519755-1838420-1008331-132052-357317
580.47 642464 447059-86206-673658-1509418-1101902
583.37-455497-448782-478042-349500-1118531-876941
586.26 63894-49426-907975-1041380-549661-606729
589.15-513372-45025-245796-257719 483315 359606
592.04-66042-785152-973414-573485-1147446-1010146
594.94-316617-245516-411542-891426-733067-779931
597.83-1303586-1329444-855306-229073 22605-229149
600.72-400464-600678-1046539-684591-352732-436752
603.62-673362-947465-355467 167389-214043-869623
606.51-878497-158002 121852-433217-709335-520689
609.40-441184-605749-859277-829744-667468-276239
612.29-321891-124073-340876-817340-661355-611665
615.19-459528-363866-246231-225935-92816 85192
618.08-180581-553822-608347-655567-752577-650717
620.97-624532-556934-588246-490640 49417 427024
623.86 17383-551078-603291-702534-593914-340112
626.76-259332-174292-74875-5935-442783-735339
629.65-229524-199814-296487-265658-768965-620178
632.54-52016-64570-228584-176357-471110-618132
635.44-501157-481310-320422-338625-443962-419188
638.33-488002-298013-28267-470261-680605-404593
641.22-106338-319078-690995-467302-194310-36551
644.11 18709-93797-11872 151768 194373 114243
647.01 239522 254730 149659 516866 557279 458575
649.90 425032 379501 449336 549262 743446 913596
652.79 1078584 1239452 1153615 1248032 1575730 1794504
655.68 2022615 2054188 1893878 1776466 1655478 1869459
658.58 1989098 1714088 1936229 2449910 2714365 2799355
661.47 2957084 3066253 3000963 3212606 3604675 4138514
664.36 4583715 5024138 5681362 7105901 8399128 8748393
667.26 8652161 8603912 8735779 9253610 10010551 10792379
670.15 11827742 13131443 14444512 15903343 17748182 19216477
673.04 20979818 23399465 25231001 26976711 29147893 31646849
675.93 34187623 36341732 38554373 41004222 43093035 45033905
678.83 46716906 48318485 49937126 51377895 52340403 53540845
681.72 54583055 55559149 56618635 57549297 58469251 59076896
684.61 59939174 61992290 64416035 67804803 71524806 77299814
687.50 85724274 97493586 113005522 141164544 185829341 256761784
690.40 257499302 163785944 113632119 97274096 82170261 75527053
693.29 72389812 72502400 73506329 76425958 77299683 74098834
696.18 69888804 67532994 66449068 65754548 64554623 64040728
699.08 63332676 62310479 61493998 60536712 58918776 56632304
701.97 53723948 50734136 47769555 44943674 41862406 38834105
704.86 36170704 33570856 30809493 28329233 25759366 23315187
707.75 20907310 18820029 17236873 15439913 13643815 12423821
710.65 11199575 9778131 8764715 8042280 7255293 6658356
713.54 6145919 5418022 4846531 4459072 3984645 3651448
716.43 3368896 3150478 3114832 2990837 2733900 2574275
719.32 2328555 2061628 2247832 2519427 2256847 2082746
722.22 2088661 1932432 1802266 1923114 1947764 1872459
725.11 1805739 1804459 1986671 2197922 2317395 2354640
728.00 2231730 2249004 2464185 2634896 2565597 2443542
730.90 2181862 2025503 2114072 1921245 1891217 2120789
733.79 2291962 2470389 2473040 2378426 2263482 2347267
736.68 2627800 2887666 3095024 3509575 4096421 4486088
739.57 5072664 5818958 6643679 7237635 7414261 8054398
742.47 9051691 10142577 11434912 12903285 14527298 16439569
745.36 18644090 21265534 24280360 27341555 30629207 34449003
748.25 38689675 43076262 47969957 53265438 58652674 64662039
751.14 70948070 77363242 83966951 90751290 97640834 104653125
754.04 111716781 118552037 124926375 131135811 136798061 142051146
756.93 147094071 152017673 157168475 161973629 166115375 169973011
759.82 173364227 176574561 179066483 180985024 183052997 186294756
762.72 191342171 198784950 209772556 226554408 249574566 281427814
765.61 325953987 387481624 463938986 557418019 631686880 653587493
768.50 522728694 326909492 248624016 219302062 200217679 190887123
771.39 186903492 186311955 185764712 185470274 184555170 183954463
774.29 183589529 183368532 181770541 178367052 174277444 170010617
777.18 165511227 160737202 155358912 149600645 143497303 136842128
780.07 129523018 121705326 113660829 105765137 97876271 90234987
782.96 82853683 75770123 68921089 62354292 56098329 50305489
785.86 44998363 40311714 35646484 31342778 27926383 24678050
788.75 21544572 18929548 16647152 14763389 12904117 11261785
791.64 10034858 9068585 8218182 7414777 6676500 6042419
794.54 5790900 5533546 4990081 4336188 3881058 3606164
797.43 3386094 3184251 2858622 2567151 2384225 2291470
800.32 2219598 2231406 2247984 2350776 2303821 2008459
803.21 1883841 1747284 1681134 1555861 1291982 1411826
806.11 1618173 1623499 1468744 1342709 1329529 1396980
809.00 1342274 1224222 1192118 968670 824342 1004772
811.89 1060146 988653 1174459 1250318 745128 565873
814.78 697195 750404 735714 879679 1091204 959510
817.68 787501 688733 747417 871203 976727 995895
820.57 842387 1037460 1262416 1004988 888430 692902
823.46 690678 654778 384549 473907 578688 582731
826.36 634635 704374 760268 567863 605839 795959
829.25 674160 525656 533996 479513 491540 769178
832.14 690741 561664 489271 300496 432286 663673
835.03 692921 597516 544992 535211 526259 532307
837.93 563985 530916 571275 579323 404579 525068
840.82 616880 536706 530945 575892 640734 638673
843.71 754767 912559 830225 708200 811913 886314
846.60 845550 923207 934954 1102530 1284606 1253852
849.50 1248443 1516041 1750464 1767090 1875455 1892774
852.39 1803872 1951538 2245777 2628695 2889598 3120056
855.28 3532832 3939780 4324933 4639644 4977190 5448605
858.18 5843115 6139234 6668171 7175481 7642639 8175256
861.07 8657831 9213304 10033730 10700502 10927106 11246663
863.96 11590097 11917278 12269253 12541943 12826034 13182848
866.85 13599630 13923755 14166108 14369876 14694592 15131860
869.75 15492826 16140009 16900809 17810041 18951915 20441782
872.64 22888157 26255766 30585535 36839933 42019716 45428086
875.53 46310659 37240678 25660722 19931936 17149786 15719289
878.42 15011809 14919146 14840886 14639964 14533243 14386077
881.32 14152605 14194590 14266823 14200615 13969345 13761095
884.21 13818374 14001343 13743093 13175100 12876952 12667557
887.10 12257375 11905186 11618873 11323831 10969415 10565791
890.00 10290255 10142354 10079872 10079872 10117930 10187215
892.89 10606239 11145697 11563198 12135579 12794843 13407019
895.78 14028531 14749717 15427597 16001667 16712620 17326844
898.67 17642978 17938948 18141341 18048846 17775897 17386915
901.57 16960086 16708764 16693092 16766312 16943412 17448101
904.46 18264186 19208422 19891883 19994375 19430686 17972907
907.35 16284016 15206841 14830184 15029915 15544668 16015457
910.24 16280736 16319647 15978580 15459388 14842342 14001279
913.14 12861503 11702541 10599123 9366639 8128496 6905570
916.03 5853651 5030976 4340281 3696837 3205524 2816480
918.92 2470201 2212944 1931827 1703709 1683801 1642756
921.82 1454314 1401756 1464930 1574869 1531555 1502629
924.71 1499224 1362492 1330377 1321380 1314014 1422101
927.60 1552217 1575033 1437494 1453985 1584091 1543442
930.49 1647091 1645672 1626128 1725707 1702650 1834913
933.39 1864870 1819962 1937163 1898976 1962490 2193971
936.28 2258658 2293198 2269297 2227445 2267591 2356476
939.17 2458268 2387859 2257351 2330469 2434906 2457323
942.06 2446293 2509936 2634611 2672552 2866232 2887317
944.96 2712417 2807548 2781915 2739779 2743252 2816465
947.85 2908200 2892359 2913718 2882116 2885612 3028811
950.74 3169763 3137211 3168489 3210147 3200814 3279122
953.64 3313115 3282153 3221946 3304490 3399216 3446054
956.53 3453995 3495391 3564559 3474953 3449752 3564852
959.42 3608368 3574142 3655450 3771398 3759446 3744541
962.31 3889426 4070643 4127824 4116454 4217156 4330783
965.21 4401609 4501551 4524668 4499034 4557963 4777886
968.10 4961193 4938015 5016020 5001144 5006397 5010223
970.99 4990855 5115893 5140833 5231424 5435105 5509111
973.88 5439029 5426773 5395531 5259499 5175842 5167068
976.78 5032981 4942800 4962633 4992380 4964211 4976330
979.67 5000342 4988415 4927286 4823071 4836537 4808778
982.56 4761523 4850088 4952618 4956691 4897153 4914958
985.46 4934826 4921251 4984543 5044454 5111954 5107003
988.35 5181785 5288482 5306654 5431886 5661714 5835047
991.24 5891894 5891612 6075192 6309196 6453012 6641775
994.13 6920664 7023644 6947011 7248351 7531838 7690357
997.03 7977041 8183319 8406061 8620455 8848370 9120996
999.92 9230469 9325366 9472145 9574472 9737693 9939766
1002.81 10137513 10347819 10574796 10768454 10821842 10952242
1005.70 11140563 11262962 11326296 11246882 11148598 11093914
1008.60 11001767 10823448 10576230 10341683 10178424 10045580
1011.49 9975486 9899675 9744105 9618368 9608826 9551162
1014.38 9181584 8790683 8614471 8461358 8351944 8263815
1017.28 8112957 7928242 7697104 7522558 7439858 7176815
1020.17 6908118 6787506 6688571 6455016 6201573 6163509
1023.06 6292120 6370688 6341122 6376067 6512495 6745941
1025.95 6947094 7040461 7262282 7588905 7770134 8076075
1028.85 8457340 8726984 9054143 9443623 9863955 10138303
1031.74 10465962 10839649 11085560 11534558 12048152 12340000
1034.63 12682797 13190344 13490230 13755216 14219371 14692382
1037.52 15124586 15622137 16273860 17022729 18006925 19358771
1040.42 20851313 22126025 23380823 25265862 27023932 27279399
1043.31 26274402 25823017 25588323 24536401 23320674 22678266
1046.20 22667521 22824004 23032713 22917311 22544071 22217701
1049.10 21885531 21624023 21296257 21206010 21244253 21196744
1051.99 21148297 21021781 20917267 20877242 20761091 20368079
1054.88 20031059 19864916 19608947 19379663 19135588 18710527
1057.77 18240757 17881521 17442685 16793078 16313741 15891287
1060.67 15301604 14670013 14246778 13852981 13415900 13145179
1063.56 12869764 12531639 12089790 11734407 11459302 11068548
1066.45 10711952 10468785 10262379 10048096 9976758 9896420
1069.34 9732174 9569547 9291783 9059449 8970034 8919588
1072.24 8903964 8790908 8752225 8828939 8876785 8934170
1075.13 9113857 9172786 9132935 9387761 9677759 9889672
1078.02 10106000 10414180 10808570 11240234 11789627 12263912
1080.92 12713114 13292731 13889890 14561680 15271196 16097592
1083.81 16966965 17920358 18932426 19824210 20786448 21849089
1086.70 22901998 23844209 24795586 25819735 26746457 27537891
1089.59 28214790 28802633 29201532 29565204 29740680 29423169
1092.49 28644159 27427742 25842779 24121836 22686664 21749562
1095.38 21499481 21959879 22381014 22745880 23518045 24335288
1098.27 25054794 25682301 26248964 26520844 26322714 26016549
1101.16 25557865 24781910 23829443 22719964 21596211 20405728
1104.06 19281365 18193343 16992305 15826656 14812037 13879035
1106.95 13017744 12232904 11446467 10697593 9994782 9342167
1109.84 8789959 8307231 7872136 7514599 7241802 7022776
1112.74 6854600 6648740 6442277 6402102 6293643 6125852
1115.63 6067278 6013111 5912786 5873764 5903664 5930995
1118.52 5925686 5861635 5794070 5646573 5578049 5482109
1121.41 5240329 5140860 5037717 4936892 4816698 4664619
1124.31 4679714 4667736 4609238 4669464 4676396 4820122
1127.20 5060166 5096204 5031030 5050749 4958479 4893935
1130.09 4943045 4784877 4433430 4381754 4428446 4271406
1132.98 4160860 4121794 4058302 3905561 3780867 3625277
1135.88 3562335 3454482 3318869 3187610 3104936 3106429
1138.77 3168333 3139468 2981546 2951149 3012404 2929731
1141.66 2724157 2719332 2699880 2644182 2683009 2702378
1144.56 2756968 2839477 2794490 2785544 2842790 2862626
1147.45 3017731 3239250 3327022 3380917 3498719 3578946
1150.34 3554660 3608967 3784524 4000396 4273494 4486258
1153.23 4520441 4564879 4595500 4489341 4396499 4453623
1156.13 4534704 4624964 4957492 5316450 5673555 5982165
1159.02 6122213 6229629 6353376 6686300 7207269 7679627
1161.91 8184708 8750852 9275588 9629823 9850071 10028020
1164.80 10130056 10009076 9815057 9566986 9167782 8823929
1167.70 8466129 8180114 8162397 8427309 9190276 10093463
1170.59 11044143 11364117 9773079 8132777 7434471 7130679
1173.48 7172937 7400543 7848469 8337493 8647134 8744405
1176.38 8729800 8674333 8422696 8009261 7656143 7246805
1179.27 6756106 6138892 5513329 5051769 4648578 4271222
1182.16 3892690 3604235 3471662 3254055 3049999 2898294
1185.05 2784313 2754894 2714404 2579449 2589589 2671582
1187.95 2625756 2631213 2593775 2570432 2661614 2648719
1190.84 2641944 2505819 2356259 2318644 2204037 2168755
1193.73 2175825 2141945 2082351 2091287 2121339 1993801
1196.62 1932585 2078375 2214971 2236784 2237546 2234078
1199.52 2175169 2172257 2143365 2101403 2013950 2013465
1202.41 2010977 1966008 1922873 1778788 1767021 1769004
1205.30 1772346 1735722 1709430 1730759 1659687 1630852
1208.20 1595418 1467571 1437811 1467190 1479228 1572236
1211.09 1536650 1408896 1385704 1360441 1381351 1404803
1213.98 1375201 1395171 1327117 1363486 1408435 1327967
1216.87 1326379 1266680 1222362 1242742 1175497 1212744
1219.77 1246930 1256295 1354271 1312609 1191142 1143260
1222.66 1139241 1159014 1272061 1321148 1295374 1264775
1225.55 1260427 1266497 1278510 1292127 1271210 1308670
1228.44 1292406 1292390 1394840 1487296 1529269 1412293
1231.34 1408086 1527092 1633090 1701352 1638571 1663421
1234.23 1767536 1810166 1799143 1855905 1965718 2030561
1237.12 2147454 2283686 2261824 2284281 2445311 2537963
1240.02 2617989 2677984 2704467 2869500 3012125 3128168
1242.91 3324025 3377196 3418675 3511705 3590280 3642120
1245.80 3636166 3639702 3567578 3531346 3450726 3424775
1248.69 3374823 3261262 3240347 3153932 3231681 3361811
1251.59 3398882 3432819 3627600 3828657 3910833 4048661
1254.48 4170265 4295270 4408199 4455446 4509998 4439946
1257.37 4369859 4429643 4328494 4104467 3964609 4004429
1260.26 3935133 3773352 3689384 3539310 3477683 3412538
1263.16 3288343 3187806 3075241 2974868 2959845 2882640
1266.05 2806126 2852011 2842687 2860228 2956591 3118352
1268.94 3128148 3090010 3095962 3036777 3050257 2999108
1271.84 2850159 2761570 2669408 2552257 2547094 2518972
1274.73 2393127 2317951 2226407 2172977 2197119 2228307
1277.62 2198156 2120286 2154078 2194296 2212044 2171718
1280.51 2104088 2141252 2098803 2051713 2012881 1888938
1283.41 1923833 2009497 1912220 1882045 1868646 1732037
1286.30 1707946 1781558 1791951 1717691 1653965 1567883
1289.19 1634125 1864168 1868843 1797445 1814434 1790386
1292.08 1794337 1785362 1699266 1751016 1907448 2034552
1294.98 2095310 2078785 2087295 2122775 2192109 2284041
1297.87 2267067 2287642 2295276 2190645 2102179 2075854
1300.76 2094494 2158559 2154473 2055133 2035891 2131513
1303.66 2262061 2225315 2079795 2126791 2235243 2294628
1306.55 2344964 2336310 2399200 2430847 2454768 2456434
1309.44 2493894 2540627 2498494 2467186 2420396 2347165
1312.33 2399968 2446100 2420963 2456163 2378277 2312470
1315.23 2391512 2440149 2340032 2338644 2414223 2422426
1318.12 2475124 2479735 2437299 2368388 2308318 2385975
1321.01 2420123 2331127 2318270 2434181 2498657 2489616
1323.90 2463445 2450064 2447117 2430608 2506152 2552789
1326.80 2609265 2776085 2800470 2750758 2669667 2674795
1329.69 2707321 2631517 2679098 2764219 2776220 2776526
1332.58 2777957 2862995 2900669 2832953 2921472 3001949
1335.48 2995021 3020762 3043087 2999807 2945988 3014949
1338.37 3019630 3016093 3174632 3262419 3354165 3369236
1341.26 3423781 3582782 3680966 3774041 3725009 3733608
1344.15 3888790 4075772 4051921 3975757 4213605 4370162
1347.05 4334638 4447505 4529694 4699397 4892504 4817258
1349.94 5087962 5243802 5104324 5103228 5204687 5659467
1352.83 5879766 6028780 6247103 6173011 6486137 6821259
1355.72 6996395 7036026 6945905 7319500 7594511 7869807
1358.62 7972160 8113338 8341036 8391029 8708261 8875631
1361.51 9097292 9305983 9353933 9543392 10035593 10414700
1364.40 10514306 10777623 11107242 11406201 11859029 12330372
1367.29 12611918 12765549 13089179 13476529 13812674 14261081
1370.19 14829829 15540247 16287459 17149003 17996197 18819734
1373.08 19833403 20945326 22052179 23087235 24074990 25053055
1375.97 26038327 26942593 27533799 27929246 28192640 28416069
1378.87 29099314 30192188 31741857 34197969 35548782 34200556
1381.76 32459518 31461246 30843124 30897238 31473067 32424194
1384.65 33637679 34903868 35980440 36873104 37218850 36917613
1387.54 36483809 35854616 35052667 34077164 33127244 32235593
1390.44 31284911 30551479 29812941 28911704 27754817 26480865
1393.33 25303243 24320525 23614620 22998022 22396245 21959130
1396.22 21826371 21650115 21379328 21175707 21054142 20936783
1399.11 20890031 20898912 20684589 20505946 20380649 20122233
1402.01 19751920 19301441 18939674 18626551 18285780 17984348
1404.90 17848930 17722451 17585498 17543680 17479321 17498951
1407.79 17612838 17738221 17798052 17921255 18224311 18469140
1410.69 18534269 18634300 18742384 18814412 18868617 18812799
1413.58 18776149 18808781 18903797 18898605 18903229 19026298
1416.47 19093141 19257407 19388408 19424124 19284019 19066563
1419.36 19439417 19772194 19878847 20114356 20271128 20487169
1422.26 20614046 20566278 20558659 20709960 20795965 20746136
1425.15 20785777 20917801 21022220 21132425 21412392 21724972
1428.04 21918778 22213567 22576054 22930956 23461262 24066622
1430.93 24638079 25397765 26213699 27004904 27866940 28743800
1433.83 29737312 30837532 31813796 32631277 33427058 34201981
1436.72 35323771 36500985 37311858 38164373 38926118 39460053
1439.61 40013646 40599080 41160316 41559719 42007092 42612397
1442.51 43200676 43880013 44430067 44777555 45209527 45878614
1445.40 46488008 47039089 47745220 48456981 49167380 49959844
1448.29 50668264 51003049 51066133 51125934 51154008 51161749
1451.18 51267075 51161421 50905145 50583461 50018882 49548104
1454.08 49268292 48998238 48766338 48533316 47872605 47449869
1456.97 47718968 47569769 47190566 46932753 46614695 46343408
1459.86 46094416 46063623 46314313 46535004 46720170 47082651
1462.75 47337208 47620782 47884980 47955199 48301116 48864395
1465.65 49302312 49693651 50269145 50925794 51788155 52795059
1468.54 53657743 54546771 55282117 55823777 56330323 56689172
1471.43 56864667 57197387 57577936 57750758 58255304 58850106
1474.33 59285343 59925468 60563129 61292791 62336091 63481071
1477.22 64750964 66252028 67710674 68914151 69839489 70361396
1480.11 70696720 71448497 72704702 74481961 76782363 79004638
1483.00 80938155 82833444 84707210 86589174 88553167 90605508
1485.90 92674738 94625749 96407977 98164013 99798335 101003015
1488.79 101675476 102242276 102995468 103855209 105212926 106841689
1491.68 108546475 110420235 112201537 113753142 115015573 116183266
1494.57 117030747 117321188 117184969 117092258 116991247 116659894
1497.47 116610809 116715965 117154438 118120932 119471192 120700250
1500.36 121185631 121059712 120651727 119764713 117819280 115446652
1503.25 113286601 111276480 109562008 107825181 106312768 105348227
1506.15 103705142 101785154 100337051 98496224 96187050 93824338
1509.04 91240440 88572910 85967141 83257449 80616763 77890439
1511.93 75285753 72961505 70736899 68911217 67529905 66370834
1514.82 65491914 64831422 64145843 63288309 62018727 60719518
1517.72 59589580 58418071 57538747 56802892 56114923 55589662
1520.61 54891013 54539663 54396182 53878227 53477085 53164978
1523.50 52875308 52700320 52439759 52263290 52469763 52770606
1526.39 52967856 53179231 53317949 53079981 52739165 52404912
1529.29 51912573 51638675 51354541 51032458 50726656 50380234
1532.18 49910705 49262377 48593985 47869030 47253405 46655170
1535.07 46109640 45592654 45221453 45040063 44820235 44629113
1537.97 44301231 43728032 43777917 43622889 43014039 42692053
1540.86 41972849 40703677 39599998 38706801 37471140 36220545
1543.75 34942820 33460847 32154993 31127180 30094843 29137644
1546.64 28205193 27266441 26448535 25715848 24939977 24305342
1549.54 23689986 23166418 22794337 22348496 21948849 21577655
1552.43 21244894 20917846 20432503 20014091 20015122 19894734
1555.32 19586041 19394581 19201735 18779602 18528115 18169354
1558.21 17996872 18248662 17957500 17604217 17830132 18060151
1561.11 17915799 17794104 17720196 17737220 17786162 17823370
1564.00 17773368 17742589 17864806 17900425 17969709 18208067
1566.89 18401163 18553479 18751047 18924975 19014951 19087670
1569.79 19343438 19499619 19536383 19571353 19569164 19565431
1572.68 19559065 19542679 19532510 19503896 19426883 19167437
1575.57 18727679 18975627 19525296 19808586 20056141 20257371
1578.46 20428405 20504090 20595294 20807648 21052076 21207484
1581.36 21487927 21945994 22436594 22949248 23469929 24103409
1584.25 24763473 25375471 26001178 26554209 27134209 27967538
1587.14 28931710 29794604 30802572 32009658 33168435 34365559
1590.03 35642580 37022553 38445568 39706399 40722061 41642872
1592.93 42473659 43026166 43299542 43381295 43399391 43376639
1595.82 43467218 43833869 44624066 46028154 48158024 50851272
1598.71 53961623 57542063 61222330 64731764 68181699 71445479
1601.61 74483859 77273812 79681766 81871651 83919010 86078961
1604.50 88423243 90915603 93821892 97264811 101431079 106537622
1607.39 112616670 119568706 126985476 134019281 140566015 146568277
1610.28 151861235 156638477 160709379 163666153 164992153 164168952
1613.18 161667632 157836771 153285301 149165414 146514605 145761016
1616.07 147329374 151836438 159148458 168668089 177537637 172664242
1618.96 150856707 133159535 124993596 121088121 121393333 123669250
1621.85 126531556 128767379 129710366 129098099 126844211 122512950
1624.75 116502691 109204839 101017813 92200851 83067553 73862373
1627.64 65079120 56994847 49548042 42839287 36995889 31860504
1630.53 27428634 23663610 20567661 18041076 15870921 14046673
1633.43 12564713 11345755 10317514 9405441 8948544 8845481
1636.32 8590701 8260636 8027175 7819830 7432181 7084633
1639.21 6816042 6521578 6326711 6182386 6073537 5945229
1642.10 5883842 5810723 5731044 5807021 5869614 5991346
1645.00 5968808 5862776 6267594 6561117 6586292 6741293
1647.89 6902414 7030567 7168468 7242635 7273513 7267998
1650.78 7276574 7162238 6561346 6301502 6093968 6269181
1653.67 6520536 6449873 6799169 7013579 7067446 6995560
1656.57 6843429 6500328 5984742 5657168 5639462 5677914
1659.46 5678703 5737187 5804778 5803448 5742281 5517060
1662.35 5245290 5080487 4862078 4624608 4377616 4111158
1665.25 3747848 3450609 3215288 2888660 2600201 2370228
1668.14 2139471 1778663 1674548 1741931 1659723 1524934
1671.03 1347991 1321143 1309331 1231929 1178834 1086598
1673.92 1032197 876378 722413 874366 1037889 1017313
1676.82 931796 931035 871360 760911 781321 717312
1679.71 662271 713251 733070 695068 702764 598508
1682.60 444169 461995 455785-42945-119853 493049
1685.49 664793 704152 675132 634521 633841 611251
1688.39 640476 677504 661933 676390 763291 841696
1691.28 920809 867616 794199 943071 1036461 1045552
1694.17 1036119 851160 317837 389442 1049865 1243032
1697.07 1316492 1383270 1412219 1507280 1294708 959107
1699.96 1005027 1261393 1530072 1607646 1561636 1464674
1702.85 1411746 1359902 1252483 1305542 1523290 1620746
1705.74 1616341 1669858 1665728 1563801 1484742 1377285
1708.64 1327858 1331794 1350812 1466554 1509551 1540508
1711.53 1576306 1531423 1551463 1561128 1477561 1422107
1714.42 1224795 1190726 1302428 1344824 1173186 720503
1717.31 931380 1201151 1139174 1239111 1304768 1309265
1720.21 1388693 1380913 1391439 1543368 1623555 1679899
1723.10 1748452 1828556 1918258 2094304 2271788 2443233
1725.99 2584295 2703720 2836464 2997138 3121543 3197111
1728.89 3308982 3360759 3466944 3641997 3715269 3724791
1731.78 3858858 4067945 4041284 4312683 4586788 4788878
1734.67 5434908 6007785 6464272 6873189 7295300 7618397
1737.56 7879035 8171271 8386015 8449852 8591657 8960643
1740.46 9142952 9188118 9217644 9228798 9149624 8981995
1743.35 8792632 8542285 8285725 7954663 7626302 7402367
1746.24 7246235 7249700 7434753 7555976 7742637 8136512
1749.13 8537796 8888202 9051510 8946172 9047603 9340133
1752.03 9337960 9132264 8934620 8731616 8501348 8301680
1754.92 8026604 7827957 7584689 7346711 7297489 7189389
1757.81 7066821 6899132 6703247 6582310 6552507 6464411
1760.71 6342124 6235800 6322211 6489234 6622260 6788695
1763.60 6942757 7122283 7353877 7646833 7721661 7676132
1766.49 7787441 8059178 8272141 8588810 8901731 9107164
1769.38 9344890 9409424 9335738 9169916 9052419 8643154
1772.28 8108325 8017856 7801523 7307842 6913384 6561582
1775.17 6264466 6181170 6257422 6361424 6493390 6779983
1778.06 7292670 7725635 7955807 8041322 7920916 7697741
1780.95 7387006 6994402 6641902 6314236 5988431 5704611
1783.85 5348915 4936284 4673364 4450154 4069912 3663723
1786.74 3365634 3123677 2891121 2677766 2465694 2288452
1789.63 2139445 1880373 1698018 1635983 1448560 1224107
1792.53 1213054 1300222 1245928 1216612 1233317 1175852
1795.42 1101056 1126742 1086307 1011500 1080475 1109042
1798.31 1104577 1042381 1014954 1185388 1245453 1238993
1801.20 1337317 1382774 1469611 1555944 1569435 1583318
1804.10 1621224 1655565 1717639 1776417 1820330 1881530
1806.99 1919804 1979245 2061947 2098824 2089929 2110816
1809.88 2168050 2289667 2425813 2456465 2427405 2388114
1812.77 2354005 2331463 2292501 2297994 2319334 2360408
1815.67 2343212 2365807 2475176 2511885 2505473 2515044
1818.56 2443243 2377842 2341683 2330042 2353699 2245377
1821.45 2181682 2201446 2199224 2178527 2123267 2112329
1824.35 2045611 2011909 2123699 2165379 2158069 2184147
1827.24 2245976 2340786 2367470 2399459 2479343 2548441
1830.13 2728440 2850888 2976288 3192887 3384313 3526062
1833.02 3659450 3862616 4075709 4270696 4485001 4668188
1835.92 4823793 4973533 5089087 5262341 5434042 5537501
1838.81 5687019 5822339 5896805 5995531 6139854 6256673
1841.70 6545891 7024142 7483210 7907422 8396775 9196452
1844.59 10000302 10723090 11558605 12332427 12979559 13552633
1847.49 14012563 14300592 14444372 14513155 14434153 14140440
1850.38 13691118 13171185 12728949 12572080 12627735 12900201
1853.27 13538210 14396992 15078839 14891919 13323806 11046003
1856.17 9617354 9311024 9504532 9944940 10484761 11009762
1859.06 11361770 11517946 11487147 11252986 10825801 10244669
1861.95 9563435 8845396 8088263 7348172 6568255 5738863
1864.84 5017538 4350609 3680136 3148690 2772892 2397383
1867.74 2140793 1948271 1675903 1637798 1683537 1610621
1870.63 1562804 1515119 1455980 1408481 1446345 1448105
1873.52 1410543 1388633 1405876 1441023 1365863 1333719
1876.41 1324863 1273554 1273530 1214579 1141677 1125324
1879.31 1116051 1152090 1134515 1087572 1079447 1115180
1882.20 1136452 1189549 1291782 1262961 1160203 1105124
1885.09 1140724 1119737 1138129 1261367 1264629 1288146
1887.99 1377542 1390686 1381609 1425191 1452441 1462553
1890.88 1462882 1404921 1343877 1317987 1282284 1235037
1893.77 1251972 1331226 1423126 1504327 1549002 1555420
1896.66 1517020 1507689 1509670 1511952 1556279 1569614
1899.56 1580401 1617840 1664673 1697254 1798549 1882359
1902.45 1923022 1925491 1970877 2091666 2142674 2145870
1905.34 2238384 2361429 2444038 2612839 2717049 2699928
1908.23 2765955 2884333 2954978 3052318 3227732 3388457
1911.13 3443930 3527643 3704471 3917610 4031348 4095156
1914.02 4262851 4516851 4732472 4884504 5007204 5059447
1916.91 5137142 5200309 5444400 5785972 6055081 6357489
1919.81 6657568 7011367 7338347 7684956 8109151 8483653
1922.70 8833261 9257316 9713933 10132645 10532576 10995692
1925.59 11456438 11824739 12138103 12434517 12717544 12912742
1928.48 13046017 13083425 12966094 12801273 12571720 12090304
1931.38 11369980 10649820 10002536 9527665 9308612 9386748
1934.27 9383219 9268692 9508356 10180591 11053719 11770244
1937.16 12314495 12535591 12444802 12188359 11770437 11252673
1940.05 10626657 10051665 9514717 8859985 8233191 7658084
1942.95 7071414 6458245 5866326 5345164 4837459 4393657
1945.84 4027411 3644391 3299863 3001408 2687566 2442417
1948.73 2224654 2026257 1856910 1642046 1431838 1235921
1951.63 1112365 978993 802707 691602 651242 600776
1954.52 465297 428762 490333 396783 319299 308475
1957.41 240989 223939 189082 146754 114781 116301
1960.30 118672 72832 2165-38905 20359 93905
1963.20 143737 167243 170908 163252 133419 127681
1966.09 158337 150217 192319 245830 231860 273110
1968.98 275295 227496 176051 186217 165061 151963
1971.87 216815 169280 85231 110582 189086 166311
1974.77 83488 76733 136879 125602 58829 37572
1977.66 108561 92784 48091 43421 22367 61334
1980.55 79603 48755-8264 18008 82851 56428
1983.45 23714 44250 7168-9930-8557-32451
1986.34-17218-53825-75396-22605-64691-97976
1989.23 18917 58941-23237-63498-63274-62952
1992.12-32178 1413-17223-66041-54657-34412
1995.02-28837 396 39651 70045 42989 2356
1997.91 14187 37758 57296 6981-60231 8241
2000.80 33867 11386 12818 24199 43243-25776
2003.69-46774 14051 66761 102516 67704 4817
2006.59-45307-167507-181721-36766 13236-15377
2009.48-76377-81278-94497-131460-109808-65108
2012.37-85136-112109-74415-53834-85955-81294
2015.27-73224-68733-26163-85659-116345-32022
2018.16 23817 11393-5137 28288-14346-84852
2021.05-53601-27307-18187-10101-1448 25877
2023.94 32282-43148-72763-75548-87120-46011
2026.84-62523-96243-115283-173497-180881-199138
2029.73-222462-188219-232375-235806-180963-201210
2032.62-218998-179150-156519-107461-140771-223709
2035.51-272331-313248-314728-324297-300762-280000
2038.41-332855-334807-282733-331565-347586-304925
2041.30-357508-430564-418106-382953-453208-550386
2044.19-495865-460377-478620-445439-444722-444758
2047.09-460425-419911-370421-439269-498547-525442
2049.98-494549-485937-513095-474186-449935-466999
2052.87-453548-482569-542776-543460-529090-509776
2055.76-518167-515881-470512-450291-431536-411896
2058.66-432216-477113-419398-326327-345662-382317
2061.55-417955-428508-367379-363834-362125-355749
2064.44-383969-302150-207135-221300-214217-181699
2067.33-194215-168189-83291-59774-93846-104079
2070.23-80993-31582-32971-28951 25993 83459
2073.12 70643 21632 19811 15700 16832-27250
2076.01-154378-124422 20627-15341-92078-130909
2078.91-88712-7421-1404 38283 112660 189796
2081.80 146272 63570 124456 118716 5296-28357
2084.69-55757-17250 159533 27529-171390-145771
2087.58-190666-211776-215550-245912-192261-39236
2090.48-104419-254194-238999-163813-117666-150047
2093.37-191360-41934 101045-3757-84606-116575
2096.26-77070-3814 103538 159701 313081 472297
2099.15 295095 207228 293386 328132 276886 276711
2102.05 297375 499315 569366 365758 388575 522069
2104.94 614691 679387 604316 616184 777003 617880
2107.83 410443 384090 410875 426677 449316 511054
2110.73 793473 867095 622329 555916 542784 488482
2113.62 437029 334974 416944 688612 503472 181341
2116.51 49320 8464-2684-59842-55842 104199
2119.40 18675-280998-356361-333659-359270-389622
2122.30-349472-139042-29672-224392-294011-338304
2125.19-367064-336290-357289-228561-54987-177145
2128.08-338014-357631-419184-405352-409512-419917
2130.97-200007-223534-418968-386051-362986-362925
2133.87-309396-290121-187726-223668-375849-286186
2136.76-173472-225207-263640-250465-187381-72753
2139.65-68141-91319-103823-85863-75408-129598
2142.55-96173-50504-30377 23775 71616 109193
2145.44 79839 33182 84476 111258 21782 55137
2148.33 64930 14092 35059 101210 289109 292691
2151.22 170573 139874 92812 57507 36870 148204
2154.12 280819 122450 5270 11232 10861 76226
2157.01 115742 259978 268874 94268-5130-20425
2159.90 50903-24884 9887 326805 178000-129666
2162.79-169565-197565-143459-86447 89765 223145
2165.69 5679-130032-176349-192075-198360-162076
2168.58 145106 90583-204767-302358-232927-144312
2171.47-164995 65885 123227-179724-260143-238558
2174.37-182466-186953-11848 214304-75673-259955
2177.26-277135-262793-263223-175571 91589-87654
2180.15-257377-231440-270444-345638-291027 12279
2183.04-55983-251325-260595-287756-333940-290152
2185.94-93941-184734-363321-302099-261111-295437
2188.83-282581-34238-54817-253235-253722-358287
2191.72-358953-258533-95502-128480-331660-359007
2194.61-352383-289851-193588-143353-197445-261402
2197.51-279182-275210-257695-229990-124835-179921
2200.40-272010-226380-235445-225906-87928-72548
2203.29-212731-196048-157786-139603-51713 6327
2206.19-43291-87869-124294-122622-77568-30166
2209.08 20824-10215 4594-28891-78056 20681
2211.97 130087 102552 48290 70634 75978 32465
2214.86 50220 115918 84375 66378 68859 48473
2217.76 65418 55485 25829 18173 19780 45402
2220.65 88392 92057 10182-9452 32416-16657
2223.54-32478-20392-3893-25378-53288-9477
2226.43-46757-96214-115888-109585-86388-180012
2229.33-201573-187488-193834-146555-170972-233477
2232.22-291855-199707-130177-175102-156948-151647
2235.11-119103-112105-121016-121119-169070-235403
2238.01-259411-261587-220076-137345-95122-57443
2240.90-122607-178948-175917-190886-203646-126483
2243.79-98138-146263-121121-85979-51554-90889
2246.68-135494-79215-39345-93988-71059-12878
2249.58-52833-77852-33005-53064-54862 8558
2252.47 11029 40057 117194 151584 122388 152034
2255.36 246800 297140 308212 316995 281916 277378
2258.25 430087 505238 475767 541973 533064 438615
2261.15 460111 524633 552405 571679 515401 489018
2264.04 538690 548963 555244 551706 557183 642425
2266.93 739556 725431 712261 711805 648736 702591
2269.83 745227 735697 795606 831651 820358 784244
2272.72 822269 833432 801697 806417 853163 893715
2275.61 1000735 1060830 1070322 1090703 1066054 1144926
2278.50 1229485 1205891 1156715 1292725 1402390 1396238
2281.40 1417111 1438057 1419150 1415836 1466889 1442042
2284.29 1504916 1583390 1546865 1571949 1636017 1695453
2287.18 1770726 1811248 1774965 1769610 1757664 1834703
2290.07 1857978 1837152 1917406 1906701 1840733 1863252
2292.97 1887939 1908745 1893309 1724435 1632749 1572243
2295.86 1385557 1292883 1297361 1231274 1133674 1059564
2298.75 994228 972243 943227 853135 781609 746548
2301.65 727505 669024 610337 591713 598667 619686
2304.54 607777 543695 489332 459871 452756 468103
2307.43 432696 399919 500337 516107 517581 484124
2310.32 562493 625791 538673 519735 519958 582704
2313.22 531609 462875 547904 637233 605816 564725
2316.11 666893 829174 861586 793952 835069 1030068
2319.00 1008714 932289 1064667 1262085 1290443 1153439
2321.89 1180736 1409102 1418732 1259007 1303981 1514813
2324.79 1461836 1280906 1372538 1622975 1509766 1178346
2327.68 1346187 1654519 1504511 1218954 1411060 1722608
2330.57 1586963 1506841 1878029 2058545 1821491 1855501
2333.47 2250610 2300744 2007977 2110064 2471477 2225827
2336.36 1880307 2245505 2406172 1983702 1989612 2262384
2339.25 2040334 1846298 2083679 2184045 1857405 1795347
2342.14 2031673 1836611 1694370 1884756 1923957 1751834
2345.04 1737391 1881400 1849658 1822474 1890813 1883949
2347.93 1784299 1682240 1658539 1709102 1734835 1722872
2350.82 1767444 1727404 1673026 1758579 1698681 1578952
2353.71 1707321 1621595 1418335 1676301 1746066 1509745
2356.61 1760308 1696009 1398403 1784465 1680105 1392067
2359.50 1738146 1523312 1375331 1716153 1365703 1386441
2362.39 1560882 1177490 1449638 1519681 1238392 1457860
2365.29 1264747 1195720 1326666 1096005 1235857 1143104
2368.18 1065021 1159244 983789 1031732 911169 919525
2371.07 986185 883159 907724 755839 780935 770301
2373.96 678959 656530 685644 714880 693492 684416
2376.86 667490 725231 693203 702963 694469 684847
2379.75 786947 798220 756696 795192 884022 931972
2382.64 873774 923525 985087 990756 1000847 972509
2385.53 1032838 1047713 1039648 1121099 1230623 1302659
2388.43 1338843 1370132 1387957 1357065 1317386 1331357
2391.32 1377464 1382760 1365957 1359101 1378103 1418187
2394.21 1381090 1365473 1452188 1533522 1488780 1409614
2397.11 1389971 1428393 1459513 1527978 1571247 1530131
2400.00 1472159 1471770 1487340 1477689 1520775 1553483
2402.89 1513514 1423319 1445080 1455046 1506286 1551089
2405.78 1467397 1506865 1592099 1590750 1570553 1619452
2408.68 1613619 1607732 1695156 1709594 1709789 1735363
2411.57 1747615 1740171 1789329 1843689 1892083 1962608
2414.46 1976647 2012054 2057489 2103680 2144945 2147594
2417.35 2183811 2243718 2267593 2266366 2222537 2123723
2420.25 2106478 2162132 2233740 2244491 2188878 2114249
2423.14 2132621 2095380 2052349 2142545 2217086 2157041
2426.03 2140831 2152782 2102255 2123188 2056271 2006492
2428.93 1968238 1923823 1880603 1795551 1785681 1872672
2431.82 1835057 1706138 1688033 1737467 1734777 1641383
2434.71 1623829 1642864 1652145 1680328 1622565 1594008
2437.60 1596956 1605885 1589155 1544547 1611254 1567251
2440.50 1489231 1562520 1581747 1567913 1564868 1526689
2443.39 1539633 1592652 1639479 1564335 1452114 1525941
2446.28 1574274 1566175 1548102 1490764 1471657 1501094
2449.17 1508549 1495557 1546465 1519419 1456905 1485169
2452.07 1513303 1548592 1550846 1502439 1471370 1509387
2454.96 1555321 1503028 1473808 1500796 1509197 1453757
2457.85 1471749 1478408 1439330 1469248 1429459 1412950
2460.75 1424049 1434774 1453274 1412472 1411073 1413007
2463.64 1419089 1423348 1444755 1524979 1484208 1488022
2466.53 1580731 1587913 1520747 1504535 1576933 1619439
2469.42 1645916 1608473 1566682 1543557 1482038 1469823
2472.32 1463597 1442445 1394688 1417105 1425176 1399264
2475.21 1381951 1379479 1449686 1477745 1414782 1338846
2478.10 1356120 1439439 1557762 1530795 1454911 1406456
2480.99 1412547 1428622 1434886 1476743 1435609 1432409
2483.89 1494475 1468508 1400393 1351344 1281813 1274282
2486.78 1263578 1262890 1312243 1349942 1362286 1345908
2489.67 1346550 1399752 1366822 1274260 1316681 1400855
2492.57 1395794 1300982 1260518 1276988 1320933 1353782
2495.46 1345124 1302902 1220472 1229903 1255925 1260539
2498.35 1360008 1355624 1235018 1228754 1273746 1267180
2501.24 1250548 1225464 1134387 1133721 1181607 1264850
2504.14 1255907 1200197 1248658 1230263 1135902 1048458
2507.03 1009512 1033218 958062 866784 842532 804317
2509.92 796185 793867 788477 770992 776724 794057
2512.81 730339 608189 600143 663223 623436 607608
2515.71 624769 554833 543856 505590 467710 455389
2518.60 496552 496999 402130 396588 408484 449239
2521.49 448712 398951 413920 444902 400620 329623
2524.39 379624 430508 441931 452348 395682 392515
2527.28 430254 401722 494745 614153 689236 775198
2530.17 788004 841565 837952 839672 911873 949074
2533.06 1053766 1060718 1087023 1240559 1289629 1219852
2535.96 1192709 1238204 1258362 1308610 1247331 1191333
2538.85 1309095 1414378 1514422 1536487 1515103 1560633
2541.74 1600077 1537939 1418567 1408242 1377312 1353987
2544.63 1439810 1424128 1370531 1419172 1377591 1331771
2547.53 1322543 1287877 1252758 1246512 1196541 1074640
2550.42 1120640 1090263 906335 813081 709768 593678
2553.31 593952 599712 503345 468956 483982 533548
2556.21 531898 491627 496376 466948 367084 379706
2559.10 468749 399459 390048 418603 400295 422661
2561.99 481102 485792 427949 401230 322448 275066
2564.88 365429 378313 270590 298697 332783 298176
2567.78 330244 325617 342938 303312 272514 379802
2570.67 400985 317733 310932 322956 305136 258068
2573.56 272474 350700 299691 302505 324567 316623
2576.45 344787 290577 262194 313010 230646 145035
2579.35 217938 173778 143068 207597 243413 228293
2582.24 201980 241184 286295 297332 275560 316449
2585.13 384045 395342 344968 346525 417395 441273
2588.03 460132 456978 470328 523236 544263 532572
2590.92 517245 530185 542689 527320 552353 654643
2593.81 562462 399552 455210 511640 574352 614568
2596.70 608652 631998 686694 769245 765707 770253
2599.60 789945 777864 777913 797516 780158 743679
2602.49 709660 725453 723167 662561 618684 606890
2605.38 644326 658407 599335 597667 606693 613426
2608.27 701302 696618 666183 675512 706807 735751
2611.17 758874 747429 714152 671028 655250 655337
2614.06 708163 795861 792770 775711 722950 711624
2616.95 778475 728521 651895 696420 736046 747657
2619.85 724412 800582 889392 877752 902304 922165
2622.74 902573 967506 1068067 1094249 1015876 914189
2625.63 910140 916523 945430 927078 929562 909767
2628.52 908702 865473 829473 953259 989599 967323
2631.42 927964 959940 946901 911545 988839 1049800
2634.31 1022044 1041477 1086561 1083535 1147842 1187087
2637.20 1147594 1105572 1122057 1084907 1023162 995338
2640.09 956019 922525 921855 868883 796258 815290
2642.99 892427 956518 764947 724681 886229 822575
2645.88 751338 730011 634476 616575 667461 696316
2648.77 705268 697234 740697 784975 769338 762745
2651.67 801823 784493 690826 596677 606267 646885
2654.56 607482 498780 465135 448939 364322 311095
2657.45 376747 480340 431957 375157 385751 269858
2660.34 270019 369151 415208 375322 310627 285092
2663.24 284874 296841 164588 107453 93110 112623
2666.13 220371 239911 220191 240069 165646 77437
2669.02 58472 71046 87435 155686 142780 19108
2671.91 70066 74166-6567 34695 65467 145071
2674.81 202470 134098 108083 80384 90515 126415
2677.70 99324 25804-28344 23438 88094 127618
2680.59 162082 219590 160965 97165 104730 14279
2683.49 25829 105025 55844-19160 8285 44259
2686.38 76837 96599 146135 201017 183750 124997
2689.27 42170 68257 149282 159230 267408 379748
2692.16 322258 244042 203426 178155 135887 117497
2695.06 116484 61517 158440 130259 50629 217256
2697.95 295675 232081 244631 318483 304309 350436
2700.84 462925 492920 466826 479600 486401 499875
2703.73 565946 655187 674609 583958 627630 730210
2706.63 687710 704188 818567 870873 888331 858303
2709.52 881954 986109 1061950 1087711 1042066 1068150
2712.41 1134374 1134880 1135089 1197900 1306635 1368719
2715.31 1303826 1296543 1408283 1465188 1513701 1612510
2718.20 1679060 1705101 1705844 1857827 1912146 1775606
2721.09 1883067 2033618 2012215 2118203 2336788 2408340
2723.98 2501144 2647633 2777239 2892844 3037005 3277935
2726.88 3475542 3653766 3953371 4226004 4547943 4936196
2729.77 5311708 5735672 6149934 6757954 7376159 7865334
2732.66 8548346 9165940 9718454 10452410 11100640 11624605
2735.55 12114048 12522286 12835599 13103817 13135318 13008277
2738.45 12832527 12734836 12710038 12832423 13116834 13763560
2741.34 15191035 16983231 17447273 15592299 13542144 12938804
2744.23 13260695 13903946 14723617 15510540 16040444 16374287
2747.13 16508997 16510072 16326387 15870555 15270808 14454581
2750.02 13518940 12553875 11506358 10520242 9632052 8779096
2752.91 8022022 7371935 6722503 6125266 5784313 5579799
2755.80 5272837 4893849 4556011 4266777 4089084 3839429
2758.70 3626603 3493748 3320024 3267792 3156739 3033511
2761.59 2934258 2797253 2728663 2637177 2504219 2449041
2764.48 2421415 2406212 2392904 2375725 2291553 2171062
2767.37 2161375 2115760 1964389 2026616 2103762 2061532
2770.27 2119071 2134679 2080103 2054795 2023629 1995000
2773.16 1947323 1909817 1903185 1933982 1985318 1943709
2776.05 2000878 2075478 2018390 2043856 2033874 2009639
2778.95 2119984 2047743 2040929 2065987 1987055 2044902
2781.84 2136489 2167979 2120456 2102030 2178628 2177692
2784.73 2185040 2292487 2266375 2290249 2261172 2249747
2787.62 2416908 2446326 2463656 2491007 2552373 2684460
2790.52 2682779 2693603 2796757 2804474 2795889 2777990
2793.41 2800830 2898481 3016128 3043274 3016506 3092088
2796.30 3231813 3254672 3182650 3265174 3343350 3449196
2799.19 3535703 3473745 3533435 3647657 3645123 3639675
2802.09 3663727 3762674 3864057 3888188 3938950 4030333
2804.98 4151438 4228818 4244727 4332233 4328565 4333452
2807.87 4518183 4703971 4761772 4738640 4847004 5016227
2810.77 4957835 5035490 5288813 5391827 5530898 5600947
2813.66 5643023 5724537 5841929 5994358 6045092 6130079
2816.55 6363600 6517976 6496427 6570551 6791693 6992296
2819.44 7132254 7263889 7412524 7567125 7610932 7864061
2822.34 8154190 8155725 8277591 8419827 8592375 8795976
2825.23 8854870 9036119 9353903 9519616 9571586 9729127
2828.12 9985738 10183332 10346104 10560765 10746547 10793101
2831.01 10832181 10993015 11173095 11328282 11497500 11686208
2833.91 11942909 12153115 12336423 12560837 12728110 12966097
2836.80 13230916 13492201 13787542 14049330 14339483 14603865
2839.69 14896466 15295549 15583581 15857071 16265404 16642336
2842.59 17084571 17627749 18016479 18455945 19016174 19534746
2845.48 20180949 20707143 21201424 21898788 22581625 23399470
2848.37 24204375 24814123 25488007 26400816 27335501 28242378
2851.26 29316313 30413944 31530299 32714869 33929232 35247886
2854.16 36623513 37981362 39383526 40791952 42420538 44170034
2857.05 45986875 47879198 49595597 51391916 53482916 55735472
2859.94 57953923 60251695 62637183 64942553 67427436 70052977
2862.83 72636454 75294538 78125980 80967467 83834047 86854513
2865.73 89918212 92901011 95759734 98643654 101508796 104315108
2868.62 107048881 109668047 112188058 114612779 116927538 119016673
2871.51 120834990 122638193 124372393 125924307 127282713 128423440
2874.41 129476087 130328580 131030178 131653187 132224857 132774675
2877.30 132940983 133034394 133168728 133230351 133287356 133149414
2880.19 132924427 132584361 132081256 131554071 130846642 130011773
2883.08 129162599 128224602 126978834 125487271 124065694 122637139
2885.98 121091777 119438703 117785230 116113071 114470597 112845460
2888.87 111229496 109791093 108555984 107313800 106139444 105058297
2891.76 104030682 103286159 102787494 102190320 101746053 101508514
2894.65 101235615 101065299 100968790 100999174 101067934 101188332
2897.55 101469048 101832811 102308346 102577259 102917938 103424199
2900.44 103901470 104762692 105686805 106681194 107709371 108559769
2903.33 109558301 110607727 111657648 112729199 113760902 114776967
2906.23 115850003 117012509 118155710 119350248 120482205 121476122
2909.12 122663651 123925487 125073879 126316959 127783261 129299214
2912.01 130931420 132749387 134734201 136965710 139191507 141464053
2914.90 143807577 146346490 149236953 152248080 155214392 158376655
2917.80 161880023 165511914 169327772 173268145 177410040 181818344
2920.69 186107316 190350132 194747493 199174056 203594125 208032385
2923.58 212603411 217195067 221542333 225925037 230163961 234220349
2926.47 238192584 241802347 245155027 248479669 251666010 254700614
2929.37 257741551 260660657 263658142 266390333 268972160 271593304
2932.26 273669500 275300065 276971067 278444566 279602882 280674057
2935.15 281438792 281974175 281933346 281155029 279700790 277666995
2938.05 275572193 273609782 271747480 269955403 268002468 266011400
2940.94 264082299 262029382 259923917 257790575 255733778 253675882
2943.83 251415279 248610387 244348632 237758001 229293077 220188208
2946.72 211446660 203298960 195654013 188566191 182067023 176450777
2949.62 171666458 167213863 163206133 159856699 157082145 154998713
2952.51 153394173 151646721 148548577 143610331 137980778 132772550
2955.40 128454281 124936316 122106210 119784624 117778032 116159637
2958.29 114778516 113706415 112739527 111742464 110801872 109535843
2961.19 107822652 106227973 104696479 102932852 101031993 99063109
2964.08 97296372 95542911 93757355 91918164 90045171 88222926
2966.97 86383515 84724620 83168868 81544142 80083925 78901033
2969.87 77736483 76764292 76125113 75551718 75045679 74821141
2972.76 74780128 74862558 75234569 75715583 76101317 76608247
2975.65 77182433 77726402 78310786 78935836 79502820 80089863
2978.54 80982267 82189694 83509492 84904844 86542939 88272908
2981.44 89997553 91744376 93430545 94874875 95960382 96804118
2984.33 97196657 97175950 96956939 96565882 96452053 96662902
2987.22 97163728 98219551 99610643 101259145 103129283 104715370
2990.11 105901703 106682808 107223963 107894770 108658591 109610652
2993.01 110796035 112308947 114085573 115780963 117360703 118899830
2995.90 120287101 121148781 121726020 122365685 123005978 123494477
2998.79 124072377 124828267 125846518 127169799 128668173 130524534
3001.69 132759854 135272097 137970154 140773396 143682987 146682485
3004.58 149351073 151646585 153548770 155119549 156316863 157255547
3007.47 158265252 159617954 161434832 163631343 166220814 169168762
3010.36 172424759 176059364 179737264 183371701 186956708 190162463
3013.26 192613312 194137040 195419303 196584656 197768006 199136532
3016.15 200572306 202163434 204204047 206769109 209763930 213284331
3019.04 217234124 221341957 225518911 229550826 233262631 236284227
3021.93 238619463 240651502 242624618 244546618 246228242 247915675
3024.83 249529260 251014509 252703634 254750617 257030971 259478663
3027.72 261501749 262569969 262838583 262468287 262094267 262166085
3030.61 262552903 263162489 263950349 264628007 265179193 265344256
3033.51 264898011 264044774 262527873 260463146 257852879 254819223
3036.40 251529006 247853605 244103891 240429470 237334121 234559425
3039.29 231733481 229286023 226991876 224332538 221178608 217530096
3042.18 213861437 210510555 207402498 204999607 203300688 201933440
3045.08 200618992 199358557 197805995 195730683 193338093 190394735
3047.97 186958149 183278473 179436078 175732390 172085524 168290092
3050.86 164965277 162001635 159052884 156678377 154595602 152700097
3053.75 151272881 150033535 148922438 148185492 147625035 147119734
3056.65 146718713 146248949 145892778 145586758 145089200 144486454
3059.54 143635279 142421119 140731658 138692419 136605145 134212654
3062.43 131884587 130196687 129037883 128621717 128887186 129271210
3065.33 129818264 130794534 132113412 133520829 134494899 134803107
3068.22 134282271 132776040 130491036 127470157 123990240 120372876
3071.11 116501027 112494489 108664880 104741906 100759394 96933681
3074.00 93061114 89261608 85589700 82040992 78697278 75528640
3076.90 72468320 69416759 66510234 63924993 61419566 58869838
3079.79 56541966 54433747 52470765 50709093 48970003 47248326
3082.68 45971574 44946225 43814948 42473056 41346094 40527583
3085.57 39583632 38680441 37943073 37304117 36663082 36141843
3088.47 35829817 35304793 34648824 34112699 33555455 32838061
3091.36 32185424 31699115 31051831 30453928 29998664 29649884
3094.25 29281720 28868876 28562136 28218452 27926407 27542996
3097.15 27158323 26959627 26786261 26658474 26500338 26361346
3100.04 26248824 26036249 25828689 25637832 25456765 25189360
3102.93 24913488 24710034 24475013 24321343 24230550 24096625
3105.82 23893567 23652464 23636181 23692694 23562207 23442860
3108.72 23440082 23495277 23381457 23283163 23363880 23342028
3111.61 23110890 22977315 22990122 22943970 22767630 22617132
3114.50 22482850 22373538 22122455 21627280 21247643 20952945
3117.39 20477732 19991472 19584827 19365506 19157147 18659610
3120.29 18208298 17891364 17814786 17656693 17298570 16972551
3123.18 16608622 16239258 15899964 15577129 15161611 14683586
3126.07 14137347 13542071 13017249 12495385 11834601 11166654
3128.97 10607236 10025805 9495531 9028640 8393162 7868206
3131.86 7522498 7134318 6755615 6541664 6220188 5798223
3134.75 5539497 5330188 5031670 4789249 4544737 4229007
3137.64 4043290 3729670 3533557 3386812 3239775 3277299
3140.54 3165512 2931414 2824300 2761897 2546767 2407521
3143.43 2370142 2290318 2286021 2210999 2040814 1927931
3146.32 1961211 1896799 1845497 1898013 1797490 1649028
3149.21 1676994 1676383 1581434 1557268 1476819 1469386
3152.11 1399919 1312199 1335071 1402813 1366193 1233285
3155.00 1321137 1337741 1234234 1266581 1224183 1235563
3157.89 1310987 1221417 1144658 1152931 1105063 1054975
3160.79 1025876 1087027 1097439 1013846 1026200 929559
3163.68 831272 887233 928717 860027 874377 927062
3166.57 822540 740847 891380 920930 837736 763879
3169.46 789565 815312 659915 674830 881215 934044
3172.36 845645 815642 839717 879894 780522 677957
3175.25 569324 515289 547320 633047 750523 777638
3178.14 779804 779047 776562 706933 745512 765891
3181.03 689964 818086 893460 793908 678465 653841
3183.93 684023 659371 610131 551513 632446 706052
3186.82 649327 690702 672896 589104 565273 550652
3189.71 527212 534022 574711 575886 521458 459909
3192.61 479205 486411 544978 558123 648581 726073
3195.50 571484 513570 609227 612965 573563 560016
3198.39 467124 420992 358331 314547 317641 392400
3201.28 474553 410735 272377 354625 524872 460193
3204.18 389482 395280 393922 259050 212585 262534
3207.07 295896 388410 424036 427378 395311 385165
3209.96 419249 430573 522616 596290 489312 363705
3212.85 351286 507265 456092 341661 326756 189026
3215.75 204981 151801 25155 78036 80713 45338
3218.64 44939 109485 79537-30030-39667-43711
3221.53-52097-136206-220875-206384-314355-460983
3224.43-397407-322224-397457-378988-495530-577779
3227.32-495086-492199-407512-364304-449020-469378
3230.21-302706-180864-203536-303093-428590-447788
3233.10-470377-598548-704609-794611-749096-606540
3236.00-693242-785221-571192-390976-349737-357389
3238.89-353400-326555-475166-527104-393562-334550
3241.78-379346-459259-432914-372856-300389-307759
3244.67-377471-328131-245488-132145-205165-358256
3247.57-366603-282775-152790-155304-260675-285140
3250.46-231557-197610-149781 20121 160192 65012
3253.35 43823 85533 36692 6412 82663 173850
3256.25 169785 237647 314680 365514 370605 396632
3259.14 442646 369248 289182 211974 319916 465290
3262.03 365859 329368 344870 283528 308101 357546
3264.92 356180 367285 384324 519316 548292 381160
3267.82 367038 526162 613868 460269 433548 435291
3270.71 228970 227081 321570 320611 353348 308117
3273.60 184539 215184 306089 288223 151221 100065
3276.49 121768 160172 262736 260047 240506 203387
3279.39 149849 86873 66533 100410 59291-42654
3282.28-86760-36368-40688-29311 30941 57643
3285.17 141826 77635 12434 121992 41889 38951
3288.07 94851 58914 49117 31202 41846 11029
3290.96-916 32242 19170 108170 142023 52044
3293.85 95837 116206 87453 76021 100719 109948
3296.74 44274 126225 165023-29264-89346 92439
3299.64 185680 51101 36893 47733 60089 83660
3302.53-71420-145823 24537 208036 144449 15265
3305.42 26486 26209-18083-17453-23306 23352
3308.31 25007-34478-65897-38048-46044 25909
3311.21 182747 15844-56542 28609 57601 32358
3314.10-66268-103133-95888-38328-64745-89161
3316.99-83061-44045-58519-86024-17016-44519
3319.89-72039-70813-60816 62931 44066 9918
3322.78-29889-52060 41474-100191-213942-135276
3325.67-104322-72137-30777-55794-110417 15315
3328.56-1610-188080-100505-26489 77864 82285
3331.46 1274 47798-15802 45338 55259-95639
3334.35-59605-43425-51475-42775 53322 123502
3337.24 63673-8948-134961-150672-42051 33716
3340.13 117554 102154 38425 102110 190208 93821
3343.03 4854-26409-117850-136554-37406 78147
3345.92 27929 56274 59657 65983 143697 82268
3348.81-10951 55755 129020 84223 17966-86823
3351.71-92981-123586-112316 106804-19281-189628
3354.60-92325-109282-15287 27108-26619-66690
3357.49 21479-7281-84948-17543-130316-156903
3360.38-115390-172402-39580 14661-138904-206076
3363.28-74815-58502-204014-207928-184572-223260
3366.17-270162-93489-17896-109829-126266-82652
3369.06-62343-116199-131829 84606 260565 244799
3371.95 125236 20621 63804 123322 69661-90369
3374.85-69738 11675 65692 109829 57624-30200
3377.74 44113 181957 230712 161697 70574 117040
3380.63 163393 237514 241891 72275 9419 63671
3383.53 169134 263096 304884 349399 386127 268047
3386.42 105686 177104 363401 430704 296415 149920
3389.31 290552 491506 453315 391791 367099 321335
3392.20 272667 245362 139899 214572 395477 520170
3395.10 582812 652163 732331 682198 554321 417386
3397.99 341586 300445 515432 515611 184372 145804
3400.88 223661 277644 390247 439032 425111 468402
3403.77 481215 448077 472591 422504 371002 285056
3406.67 234660 304637 386841 467504 405017 347427
3409.56 360059 459976 427708 337623 310327 458439
3412.45 617602 410807 178989 125808 273864 361552
3415.35 362742 315104 465330 518108 449576 582866
3418.24 450477 330308 356689 438653 488773 540565
3421.13 604362 590193 519370 468843 498945 542362
3424.02 454480 284455 467440 575927 474089 412858
3426.92 334781 301597 393862 480312 479173 479315
3429.81 539692 568140 395029 326073 299681 352944
3432.70 405123 459783 593510 587987 526649 398499
3435.59 386578 385663 320110 364216 387707 332303
3438.49 341927 367248 361920 474426 502987 476557
3441.38 460085 472369 432197 275662 282621 415950
3444.27 402102 186410 261448 436464 417102 278292
3447.17 388779 566474 506146 470994 390389 517944
3450.06 458242 280532 496350 586177 471336 486451
3452.95 355363 341150 550317 509262 442845 531291
3455.84 437978 312541 395017 523253 591955 617903
3458.74 549079 481685 484921 410322 355740 300141
3461.63 313159 422561 418061 285272 358256 498651
3464.52 488903 412315 289748 289119 493031 563268
3467.41 415190 412139 501741 485561 479219 529326
3470.31 508587 423326 378987 414493 427180 355245
3473.20 275346 244657 178651 197885 233036 152115
3476.09 107115 40737 148589 225833 128631 43795
3478.99-127316-8062 123740-26111-145 59259
3481.88 123063 91897 32964 48171-44890-67335
3484.77-63633-145274-228267-194464-150959-145556
3487.66-211587-331038-323617-266952-265607-196786
3490.56-112688-205425-272670-181491-235034-366277
3493.45-443527-362876-330471-359393-194998-122679
3496.34-220456-312709-349426-290972-203768-153885
3499.23-218647-346618-369581-203227-206903-415288
3502.13-377771-367584-335149-422340-535017-398633
3505.02-477976-457129-276808-222476-244839-371361
3507.91-318392-245250-307994-270241-328917-345298
3510.81-295986-255172-270092-485129-449715-297208
3513.70-374039-389690-377420-390314-303040-213220
3516.59-191826-241250-235700-193752-273966-352526
3519.48-351289-454554-391628-284023-225694-141551
3522.38-282600-256579-337793-414136-315537-228126
3525.27-88892-189657-318082-348512-317078-217855
3528.16-116988-199970-245577-216642-198693-52750
3531.05-134737-176107-68255-45817-28774-94333
3533.95-70103-85264-130864-113932-92064-6572
3536.84 72229 136232 75163 3925 50410 164633
3539.73 185772 176992 269150 266992 231308 117366
3542.63 93846 161067 217750 381945 414244 433463
3545.52 437274 500289 510789 449831 498334 505743
3548.41 472315 509892 637084 751822 674678 526445
3551.30 472677 445334 510933 572347 638757 578574
3554.20 505430 570989 548782 532098 534266 481955
3557.09 506376 590481 619721 475352 438448 457355
3559.98 386408 423618 423229 496054 528974 538379
3562.87 506173 401035 272279 223476 396269 450121
3565.77 396862 418821 386728 162810 5342 85803
3568.66 273720 227462 131982 109929 96762 151008
3571.55 224502 283444 251529 169113 96971 158244
3574.45 241423 208628 156368 132904 131639 128614
3577.34 107341 121737 144297 111777 113058 142083
3580.23 41288 40769 113034 68308 71582 55208
3583.12 27255 62400 132487 177305 101254 23940
3586.02-130203-216000-178324-142923-163067-171424
3588.91-93690-41853-67606-138103-207376-260395
3591.80-296646-297590-231819-147336-95354-233493
3594.69-320743-143013-41927-183384-270132-193661
3597.59-174874-329817-328273-265203-353113-309697
3600.48-362094-378593-239803-138034-198345-326575
3603.37-435382-450549-296259-306392-268748-290095
3606.27-362504-329057-364041-407273-511322-619641
3609.16-473636-246320-154403-179416-222819-306751
3612.05-417014-391806-274627-327783-509138-448531
3614.94-292486-287056-281275-194233-246321-303539
3617.84-279442-315110-512223-581573-356999-200110
3620.73-224156-311663-344954-296942-256788-261425
3623.62-178899-189068-325784-284645-263160-288203
3626.51-342259-326534-337422-520789-493375-544070
3629.41-458210-216203-295037-381052-353841-323580
3632.30-298445-305043-272346-231887-183632-112278
3635.19-162841-302431-315980-300958-311204-262652
3638.09-334256-413677-346907-229691-178681-161393
3640.98-226057-352623-351499-379364-316167-259984
3643.87-241699-184529-235131-196208-253460-373726
3646.76-467757-412711-246027-372285-670557-592282
3649.66-371074-340194-365182-288164-234229-282048
3652.55-358931-368139-349958-456510-401079-311239
3655.44-495259-579743-279248-163860-269052-246330
3658.33-160655-179570-314321-358145-378308-394916
3661.23-352509-390784-319791-217084-379822-456757
3664.12-300708-285262-289952-331576-379597-352199
3667.01-348380-261036-286006-376256-337288-325033
3669.91-724484-821595-290512-182514-210910-137863
3672.80-178131-282756-432776-636845-708910-762887
3675.69-721731-420082-315269-327905-278837-208593
3678.58-190836-272266-349566-297214-232895-227410
3681.48-201679-213901-252259-242490-288287-368275
3684.37-407664-367365-313639-182019-100356-289201
3687.26-473511-808523-794242-392144-358055-406466
3690.15-384715-383130-306887-166850-145407-238661
3693.05-381063-429010-206515-70640-113534-176810
3695.94-305127-393004-376514-216011-177814-267315
3698.83-258080-112326-94160-130106-210578-311141
3701.73-164134-35029-12633-77787-91112-6744
3704.62-96090-213904-169416-70689-56030-177321
3707.51-204912-130107-300870-536899-395737-265406
3710.40-208978-136604-368233-444594-134116 15316
3713.30-73468-117030-87914-121445-159098-227473
3716.19-207274-64705-55049-63940-60611-121929
3719.08-173529-114751 62254 41507-30807-116777
3721.97-187283-60179-24195-158993-159865-35154
3724.87-2831 111166 89749 90020 156731 152072
3727.76 246824 94840 27930 184838 279769 341080
3730.65 291527 144662 83659 234609 351762 360646
3733.55 383330 290893 126717 213612 380996 181598
3736.44 158668 453771 461585 461096 565875 554025
3739.33 517987 547691 608448 524491 405449 527430
3742.22 597888 486683 414851-8894-347016 150368
3745.12 550635 633034 738591 709791 662809 587653
3748.01 500165 214172-23161 273992 452545 471265
3750.90 500739 134174-18099 407622 670389 707549
3753.79 766922 741758 735370 785693 701127 597521
3756.69 749273 870145 690736 549614 479308 395293
3759.58 412599 615247 753481 796175 730641 713064
3762.47 876253 877299 817555 781811 734650 732798
3765.37 795210 860719 876557 906566 940272 868667
3768.26 862898 829546 619817 699416 891169 881968
3771.15 972550 961928 858642 859017 780557 763984
3774.04 869904 861296 911503 890684 884840 903521
3776.94 775067 737551 814715 889259 678751 609421
3779.83 726948 793839 875883 879965 880490 923996
3782.72 836476 767511 778798 749221 758137 723948
3785.61 714374 648832 610752 532371 460808 548270
3788.51 536263 381112 370519 488460 539187 529802
3791.40 524476 509238 608636 574501 478842 471450
3794.29 512835 529507 386316 166775 197565 281173
3797.19 295439 402019 366990 301647 201406 126580
3800.08 112120-207295-344702-4022 66695 113678
3802.97 221582 231565 275286 198458 104222 217338
3805.86 285273-12113-12718 347531 394752 199404
3808.76 69135 195057 310484 311925 208191 120809
3811.65 129030 51909-2164 130043 258793 200497
3814.54 138291 36942-326200-195249 303948 363915
3817.43 349579 378161 379387 340908 307274 189323
3820.33 97824 128859 60821 204827 369794 392171
3823.22 421686 379883 429482 520527 586816 569216
3826.11 378058 322688 458757 478586 488802 614818
3829.01 639665 517131 405551 397247 320644 348163
3831.90 547213 609209 621737 551935 436094 412672
3834.79 481978 552888 538673 573228 468132 50361
3837.68 65434 385986 527282 572724 495037 409792
3840.58 417410 487328 494219 616508 617193 473781
3843.47 487900 542581 673421 625775 520900 669123
3846.36 598808 479467 590879 534004 500990 599473
3849.25 532124 504987 467581 386232 208538 38738
3852.15 214280 274276-145420-502106-264150 193186
3855.04 389195 363814 425128 425607 491500 581532
3857.93 375639 300616 425497 495966 482359 434190
3860.83 197952 44935 237075 281313 382457 483099
3863.72 338410 189368 64655 189764 378712 383751
3866.61 417044 469727 444151 480316 415409 253691
3869.50 19143 136308 359287 368768 469982 538323
3872.40 502292 534373 535441 454269 503220 609264
3875.29 679814 640960 662710 692866 691694 711477
3878.18 696797 774912 806242 616257 609008 651798
3881.07 732260 901688 980189 878284 815317 866456
3883.97 901110 953154 736581 607759 764461 922177
3886.86 963081 1007926 1034469 947036 923327 984950
3889.75 970641 880414 846850 928132 1090513 1188835
3892.65 1193737 1165854 1194036 1197173 1148515 1172744
3895.54 1233543 1224766 1267158 1291717 1230123 1325920
3898.43 1228676 1077625 1235242 1316074 1281433 1314418
3901.32 1291748 1305760 1408119 1459990 1407704 1350951
3904.22 1462894 1523054 1477184 1578417 1783995 1813663
3907.11 1763764 1667210 1619626 1723841 1696068 1640158
3910.00 1799214 1862930 1790216 1776514 1771052 1807921
3912.89 1914617 1950123 1907751 1938861 1991509 2013451
3915.79 2010433 1993677 1867686 1894787 1909671 1763502
3918.68 1849323 1883866 1782975 1756442 1813237 1839710
3921.57 1868645 2040293 2005396 1796081 1723552 1790371
3924.47 1847134 1835737 1974134 1997280 1878724 1790481
3927.36 1593329 1515730 1618832 1761910 1724381 1633030
3930.25 1691842 1607609 1581019 1594349 1480324 1499765
3933.14 1550244 1530064 1525837 1603593 1637404 1521868
3936.04 1590961 1604103 1468331 1479751 1577284 1615902
3938.93 1536267 1480918 1445661 1524266 1576341 1497664
3941.82 1476016 1560014 1661918 1646713 1584698 1459338
3944.71 1483973 1565743 1476372 1429495 1420112 1489424
3947.61 1367721 1379490 1629377 1626930 1498143 1478890
3950.50 1521897 1547372 1553443 1482560 1403037 1351698
3953.39 1387260 1456891 1483906 1457333 1475685 1557847
3956.29 1452270 1246720 1409928 1606393 1493174 1519135
3959.18 1600979 1565134 1567008 1527235 1595707 1671161
3962.07 1633000 1538703 1559845 1639643 1569351 1660941
3964.96 1780982 1832525 1855055 1661150 1592422 1723222
3967.86 1709096 1659363 1657346 1650458 1694980 1726505
3970.75 1639743 1676059 1725563 1531972 1484083 1731564
3973.64 1801289 1684101
##END=
