##TITLE=Toluene
##JCAMP-DX=4.24
##DATA TYPE=INFRARED SPECTRUM
##CLASS=IUPAC A
##ORIGIN=NIST, Anayltical Chemistry Division, 301-975-3108
##OWNER=COPYRIGHT (C) 1998 by the U.S. Secretary of Commerce
##DATE=98/10/1
##$SPECTRA VERSION=1.00
##$UNCERTAINTY IN Y=2.4 % relative (B=1.4E-04,C=2.2E-09,D=2.7E-14)
##CAS NAME=Toluene
##CAS REGISTRY NO=108-88-3
##MOLFORM=C H3 C6 H5
##MP=-95 C
##BP=110.6 C
##$NIST SOURCE=QUANT-IR
##SPECTROMETER/DATA SYSTEM=IFS66V (Bruker)
##INSTRUMENT PARAMETERS=KBr Beam splitter; MCT Detector; Multipass cell
##STATE=gas
##SAMPLE DESCRIPTION=Toluene Primary Gas Standard
##PRESSURE=101.3 kPa
##TEMPERATURE=23 C
##SAMPLING PROCEDURE=1 L/min Flow
##RESOLUTION=0.9640
##DATA PROCESSING=Happ Genzel Apodization
##XUNITS=cm-1
##YUNITS=(micromol/mol)-1m-1 (base 10)
##XFACTOR=1.0
##YFACTOR=4.5474E-13
##DELTAX=0.4820
##FIRSTX=575.169
##LASTX=3975.077
##FIRSTY=2.62E-07
##MAXX=3974.59
##MINX=575.17
##MAXY=.0007234
##MINY=-5.44E-07
##NPOINTS=7053
##XYDATA=(X++(Y..Y))
575.17 576180 849456 314924 492478 654460 131208
577.58-668738-587256-542654 67636 131264-505302
580.47-616626 222714-146702-586554-857692-775468
583.37-811804-710086-489624-99172-262908 111098
586.26-392424-1197104-553790 130110 16506 420056
589.15 908598 688918-54850 284700-53270-561174
592.04-334120 252602-81368 216252 157112-238068
594.94-270038 97070-182342 296862 751508 537246
597.83-95948 241698 85438 70068 166798 271314
600.72-236696-448168-156758 22442 20894 502702
603.61 531184 361078 200042 231172 173084 244470
606.51 275166 513078 224744 350446 390638 548470
609.40 818060 972688 634586 477884 217982 521170
612.29 356742 546162 310218 407478 524598 746806
615.18 793872 834176 565358 795626 989536 1081966
618.08 784228 564176 292008 720822 630484 565726
620.97 527110 695438 369136 350024 171528 588742
623.86 703498 472486 85428 586128 1051682 1684916
626.76 1927938 2088364 2165642 2614704 2534130 2827168
629.65 2764820 2769656 2695178 3052684 2694156 2392738
632.54 1694600 1637282 1599424 1798952 1764814 1902306
635.43 1569998 1674484 1728916 2084442 1877594 1893156
638.33 1442302 1605094 1571148 1605280 1496840 1709638
641.22 1399254 1512092 1456876 1948136 1795368 1620236
644.11 1386452 1519556 1343798 1743156 1930868 2116074
647.00 1568252 1494548 1386924 1498412 1109670 1497164
649.90 1564280 1766126 1341166 1486356 1432148 1754800
652.79 1706950 1988656 1987970 2379644 2282352 2789164
655.68 2889448 2893834 2770724 3484308 3687836 4173936
658.58 4198570 4699678 4913130 5669054 5896656 6933740
661.47 7569648 8390044 8588070 9355748 10121430 11517400
664.36 12201090 13584900 14851800 16481530 17806520 19991710
667.25 21539700 23672870 25522510 27936990 29749450 32544050
670.15 35867110 40199050 44014240 47899780 51439280 56110130
673.04 60432940 65191780 68023580 72274610 77038820 82635060
675.93 87622840 92920640 98238370 104757600 111474200 119920800
678.82 127756500 139379100 155932000 165984100 160146900 154262600
681.72 153051800 152493400 151080700 151475100 151320700 152851900
684.61 154090400 156343800 156959900 158061200 158756000 160549300
687.50 161745200 163970500 167649300 179455700 190553400 183183700
690.40 167639000 173068400 195435700 224118100 275619100 481469500
693.29 999440300 1276585000 670220500 200019400 147404400 148523100
696.18 156162100 164686700 171678500 175201500 177440100 179388000
699.07 182898200 187357200 192558600 198553800 207876200 224852800
701.97 246920300 252730800 235008900 224735800 226316500 233447900
704.86 240342500 244929300 247990100 253951900 260283900 267753000
707.75 274476500 282214900 288678400 296460600 303417600 311831200
710.64 319483900 328012700 335164000 343588800 350322400 357712500
713.54 363423900 370529000 375853000 382761200 387436500 394247500
716.43 399866800 407035900 408026600 409664900 409991600 411895000
719.32 409516400 410780600 409849400 411467600 412362200 421508100
722.22 432233000 455721400 489860400 545017400 615632800 705419000
725.11 755420900 781425300 793616400 808123300 961437500 1311404000
728.00 1475071000 1590869000 1568545000 1067794000 719668000 615915300
730.89 593309100 525346500 464019500 440317000 432310200 422257200
733.79 421980000 420203900 421479400 417659800 417025200 415297800
736.68 415597900 410516900 408210500 403267800 399544600 392475800
739.57 386788200 378364300 370813100 360505900 351778500 340204200
742.46 328780000 314562600 301223500 285855800 272233200 256718800
745.36 242391100 226668900 212426000 196959400 183250500 168630100
748.25 156023900 142479900 130505700 118078400 107651700 97016370
751.14 88115770 78916300 71802580 63937860 57777870 51725060
754.04 47340180 40919780 35257480 30158450 26993190 23391170
756.93 21117300 18222310 16419950 14076530 12870190 11080030
759.82 10302710 8963298 8336842 7193402 7169598 6188344
762.71 5813214 4921692 5119424 4530614 4491184 3858020
765.61 4130352 3691452 3870202 3358016 3575844 3202294
768.50 3617164 3430614 3848324 3585038 3759164 3244886
771.39 3774776 3931374 4206914 3865504 4202228 4093256
774.28 4762684 4602492 4732700 4682398 5112844 4775396
777.18 5048936 5022164 5322178 4999044 5271150 4958324
780.07 4893008 4178952 4282114 3966344 4209418 3679354
782.96 3348282 3268370 4149958 4802722 6971846 8217898
785.86 5969202 2929972 2508678 2430556 2862270 2680964
788.75 3085698 3163010 3621780 3590758 3909644 3859766
791.64 4258778 4152842 4283056 3746662 3592304 3302496
794.53 3557256 3339160 3354948 2695196 2499090 2242104
797.43 2266364 1888808 1975092 1630434 1809304 1476696
800.32 1303632 961496 1171650 1142108 1257644 899540
803.21 1202528 1154762 1245282 923730 1054310 851766
806.10 982030 880762 1145864 991002 1067148 854750
809.00 899748 779622 1084904 825856 1182554 1237064
811.89 1216710 941656 1135196 935288 773660 597048
814.78 829214 829668 952004 615488 765118 720988
817.68 916674 664178 695930 565674 673586 693204
820.57 1022016 781648 839278 947322 1144672 603800
823.46 627838 623574 846152 926152 1108338 1082222
826.35 1240676 798074 839876 879902 1011326 819328
829.25 899346 623474 698602 712836 852430 600350
832.14 706214 727592 862040 744966 984896 941674
835.03 1094176 880198 845516 715280 730196 633906
837.92 778562 633798 1011658 1058124 973768 636924
840.82 845404 716784 779994 830550 1020328 875356
843.71 859420 735902 1079226 973268 905834 954128
846.60 1260058 1015274 1109130 1289884 1557026 1392100
849.50 1554638 1439598 1498510 1382546 1595982 1687646
852.39 1701904 1443066 1462652 1506190 1772744 1681288
855.28 1819638 1792624 2069246 1946848 1963502 2024732
858.17 2224228 2061450 2243008 2265518 2390450 2302452
861.07 2430280 2257086 2254676 2108080 2215614 2329630
863.96 2572740 2494098 2528240 2429892 2607918 2546778
866.85 2685572 2730158 3043380 3015472 3015502 2899234
869.74 3087534 3114734 3353134 3439498 3563902 3571276
872.64 4168692 4880938 5231906 4578394 4190190 4008562
875.53 4188506 4219664 4497022 4643392 4830064 4853710
878.42 5050730 5067774 5308544 5322258 5566238 5621566
881.31 5761594 5682728 5923968 6049742 6270478 6214466
884.21 6370208 6397360 6570024 6382816 6499606 6616564
887.10 6879594 6855734 7051604 7097930 7239674 7179696
889.99 7455232 7905196 8670898 9507458 11096790 13094310
892.89 16286620 21293020 27326370 25208050 15077770 9282086
895.78 8064178 7481524 7452154 7533960 7840108 7780142
898.67 7463468 7093358 7079686 6972904 6944800 6799496
901.56 7044086 7154118 7188270 7092736 7043006 7016422
904.46 7184404 7237782 7412680 7318692 7329114 7131868
907.35 6970818 6772696 6718174 6667140 6637806 6381596
910.24 6397564 6332738 6201638 6094850 6260488 6252024
913.13 6254432 6295936 6500288 6586496 6815164 6707914
916.03 6692158 6679974 6789182 6921540 7046536 6884214
918.92 6856218 6850190 6922770 6967236 7034064 6979094
921.81 7324748 7730946 8401300 9590146 10173360 9668988
924.71 8907448 8070132 7913568 7914548 8212146 8368742
927.60 8632534 8816302 9095048 9084770 9078984 8970114
930.49 9019038 8937014 8992524 9058156 9122862 9041000
933.38 9058176 8696950 8272946 7607898 7269688 7101070
936.28 7136272 6904888 6773472 6593120 6538408 6418878
939.17 6468032 6286620 6282434 6204416 6143240 5940796
942.06 5865772 5632200 5442996 5183738 5044178 4926708
944.95 4916426 4785160 4586390 4364172 4381780 4237094
947.85 4138146 4031568 4080034 3948060 3939506 3831254
950.74 3905880 3988324 4084540 3910828 3992604 4048678
953.63 4213964 4326948 4454894 4440286 4519126 4507182
956.53 4570968 4550598 4690790 4852118 5035846 5139662
959.42 5230460 5227484 5274380 5168994 5353732 5497270
962.31 5643192 5815532 5949184 5741214 5657402 5717292
965.20 6019000 6057252 6004446 5954616 6122728 6190116
968.10 6517150 7125212 7924780 8337416 7875446 7135914
970.99 7036822 7276792 7682554 7454320 7025802 6789162
973.88 6735268 6654858 6731964 6777150 6767800 6525182
976.77 6547420 6730698 6815820 6732902 6650330 6634556
979.67 7098532 6962554 6586956 6372266 6171900 5816834
982.56 5710778 5605372 5425924 5273198 5313986 5272488
985.45 5294474 5145894 5135918 5122664 5092340 4980220
988.35 4969796 4969374 5046338 4869918 4766880 4620848
991.24 4564954 4442404 4439374 4431016 4559944 4584054
994.13 4564934 4517146 4518330 4405830 4364626 4309716
997.02 4254902 4179634 4144046 4072490 4037440 3891630
999.92 3923066 3988516 4080654 4136086 4122252 4051970
1002.81 4127044 4112896 4120074 3961268 3815528 3746532
1005.70 3924226 4114424 4347068 4500694 4617316 4610036
1008.59 4624722 4666186 4827650 4943010 5181288 5512860
1011.49 5818056 6114728 6434290 6801420 7355768 8147364
1014.38 8954738 9808768 10955170 12277480 13720800 15321670
1017.27 17190360 19278330 21571110 24136450 26872660 29889510
1020.17 32951590 36181250 39498620 42728210 45697460 48955880
1023.06 52041250 53583450 54056090 54912850 55655700 55264630
1025.95 52727470 49943220 47179880 44548640 41666050 39241250
1028.84 38183290 42140860 46809420 50730490 73182790 112013600
1031.74 101847400 57356980 36965270 32588240 34301600 37402190
1034.63 41786550 45772070 50142750 53660550 56842740 58843600
1037.52 60427240 60716950 60567630 59489870 58185010 56311720
1040.41 54430880 52508800 51337760 50919530 50967660 49961750
1043.31 51004520 49973810 45227100 41191900 39417330 36887610
1046.20 35114270 35639260 34505690 30263210 27519640 27183800
1049.09 26941150 26203780 25695810 25421390 25979680 27148480
1051.99 27455230 26322240 26382810 27171220 28463600 29677320
1054.88 30912150 31017090 30184240 29164470 28344610 27774610
1057.77 27829830 28122070 28502260 28591830 28874270 29024890
1060.66 29241920 29436530 29846380 29982930 30273240 30603530
1063.56 31123420 31557470 32198880 32797910 33567040 34253040
1066.45 35189540 36032810 37055930 38129700 39290740 40433260
1069.34 41603130 42703660 44328410 45701180 46928200 48382530
1072.23 50187300 51695000 53222550 54902340 56331060 56768760
1075.13 56862450 57427650 59428560 60619510 59539780 57303260
1078.02 54914270 51780520 47860560 43388140 39467020 36532550
1080.91 34953540 34560420 35813300 37981520 40679260 43573600
1083.81 46381560 48652770 50727120 52197390 53102460 53631290
1086.70 54079720 53836260 53088870 52122400 51493800 50567940
1089.59 49392180 48210540 47204810 45925390 44776910 43626090
1092.48 42347530 40925180 39909940 38916340 37994440 37174160
1095.38 36685830 36031620 35367400 34657710 33983000 33300350
1098.27 32434680 30993620 29508380 27922770 26391080 24631040
1101.16 22823210 20742020 18958970 17641160 17011830 16767820
1104.05 16990370 17381760 18019260 18748720 19622590 20174020
1106.95 20559980 20734550 20886130 20826300 20681440 20241720
1109.84 19924560 19567980 19175990 18805660 18528550 17794760
1112.73 16934230 16157920 15497270 14803110 14202460 13548900
1115.63 13007260 12359410 11855820 11239070 10699250 10075010
1118.52 9578134 9053972 8765458 8408864 8049886 7688936
1121.41 7448164 7133668 6875900 6531924 6230114 5856140
1124.30 5657676 5424110 5320510 5154620 4964968 4715596
1127.20 4618570 4432994 4389008 4335004 4393902 4391000
1130.09 4414228 4248622 4212264 4155186 4103558 3927634
1132.98 3868906 3827262 3866804 3829602 3812666 3681976
1135.87 3678168 3688754 3721292 3705866 3700164 3563638
1138.77 3496448 3419488 3421018 3297146 3280976 3217048
1141.66 3348660 3391510 3437734 3417290 3467132 3423506
1144.55 3465244 3523546 3630300 3596336 3694204 3663708
1147.45 3790528 3858254 3885070 3889264 3949698 3945984
1150.34 4124418 4096180 4075032 4122472 4266450 4243134
1153.23 4241136 4154718 4195046 4228738 4319832 4402936
1156.12 4643698 4716962 4844576 4957264 4998326 4944768
1159.02 5039056 5079612 5127546 5108956 5153670 5119714
1161.91 5155568 5153460 5235550 5131392 5099788 5270704
1164.80 5547908 5608268 5635908 5499852 5372732 5241592
1167.69 5337806 5536002 5866792 6065844 6272818 6401412
1170.59 6591284 6589768 6559088 6507036 6473322 6351166
1173.48 6235074 5972164 5833584 5666762 5470180 5334596
1176.37 5435410 5594536 5755688 5976084 6436616 6786398
1179.26 6154738 5351206 5192578 5072058 5049228 5028766
1182.16 5208454 5305898 5531318 5728014 5892772 5877040
1185.05 6062288 6088952 6058738 5977944 5979530 5747912
1187.94 5591316 5449464 5293480 5073620 4939442 4764406
1190.84 4758896 4776100 4996190 5406584 5836720 5441674
1193.73 5026220 4867110 4884662 4975708 5183128 5330974
1196.62 5689120 6120364 6570688 6877912 7272516 7696712
1199.51 8173926 8584668 8940194 9159332 9478676 9717650
1202.41 9968286 10049900 10168890 10252440 10297390 10187090
1205.30 10112980 9956148 9838532 9552094 9322060 9225296
1208.19 9293586 9301092 9510116 9981012 10685480 11059130
1211.08 11460880 12457610 13663260 13343070 11090240 8951616
1213.98 8425938 8703268 9283688 9853004 10384590 10862940
1216.87 11290030 11538720 11697530 11608780 11477790 11148420
1219.76 10753560 10257740 9689212 9041638 8553000 7989102
1222.66 7443630 6883220 6480922 6056228 5732008 5287494
1225.55 5030854 4928820 4900360 4702030 4678266 4641412
1228.44 4711852 4745704 4833286 4993772 5344250 5531774
1231.33 5762884 5891890 6010124 6080748 6158700 6216648
1234.23 6355728 6333636 6252594 6216316 6278544 6215022
1237.12 6160528 5982528 5911570 5898700 6121318 6314104
1240.01 6701030 7336412 8372152 8472532 7007738 5997966
1242.90 6076414 6258610 6294038 6329386 6447348 6592388
1245.80 7005742 7456548 7717438 7381512 7069416 6904190
1248.69 6746678 6507284 6339048 6121190 5901836 5626620
1251.58 5354710 5068166 4906556 4635118 4422982 4177126
1254.48 4022754 3831672 3682144 3457372 3379990 3372034
1257.37 3373510 3248302 3170794 3039622 2951766 2746948
1260.26 2625798 2528050 2507974 2427064 2412610 2383674
1263.15 2393252 2280458 2158196 2039458 2060890 2034014
1266.05 2067098 1999362 1902696 1805168 1725162 1669948
1268.94 1719364 1693884 1719084 1644508 1718830 1766004
1271.83 1817130 1745408 1746470 1662540 1637088 1682280
1274.72 1720064 1724294 1795600 1764458 1817540 1863930
1277.62 1917708 1890492 1888736 1842926 1914648 1932916
1280.51 1983128 1989734 2072090 2057236 2110078 2144858
1283.40 2237974 2369222 2512204 2499292 2540172 2539936
1286.30 2647002 2708758 2791250 2813890 2843188 2942754
1289.19 3046948 3069580 3187994 3214664 3239948 3205848
1292.08 3239872 3306520 3439870 3396628 3388254 3424068
1294.97 3472998 3475904 3610730 3741850 3904116 4064848
1297.87 4305732 4431130 4612510 4813424 5086566 5240308
1300.76 5391858 5586984 5796760 5820846 5859604 5912612
1303.65 6065204 6085204 6052060 5998718 5954464 5785750
1306.54 5611292 5328330 5097948 4860908 4696406 4580390
1309.44 4488338 4441822 4536834 4702000 4959170 5156494
1312.33 5456252 5746264 5909990 6008382 6151536 6154376
1315.22 6145204 6124880 6190690 6136898 6043142 5871834
1318.12 5790336 5660586 5607404 5543008 5386126 5249686
1321.01 5221514 5084426 4925918 4872504 5021264 4998876
1323.90 4940048 4877420 4833316 4732082 4588726 4359704
1326.79 4228010 4143094 4170226 4165170 4160938 4070964
1329.69 4027434 3954740 3994010 3997884 4140592 4293238
1332.58 4321376 4292504 4345324 4279418 4159302 4030874
1335.47 4085634 4110064 4173244 4221902 4319534 4320502
1338.36 4362394 4393486 4459146 4489268 4658774 4713566
1341.26 4760020 4830574 4892236 4986004 5104876 5148312
1344.15 5193662 5228352 5319876 5364064 5525192 5647890
1347.04 5806956 5963420 6123980 6238316 6391666 6443144
1349.94 6596450 6716946 6868956 6981316 7101798 7216146
1352.83 7407524 7577512 7782632 8063108 8441584 8930732
1355.72 9310356 9088988 8745410 8503746 8565762 8799692
1358.61 9049244 9242414 9486850 9678028 9818212 10165460
1361.51 10601620 10830170 11097750 11414430 11681150 11839560
1364.40 12127060 12455160 12850400 13247200 13725710 14291200
1367.29 14957370 15511220 16036940 16517820 16936850 17541220
1370.18 18424220 19084240 19695810 20355980 21049750 21886210
1373.08 22639470 23229320 23895740 24493310 25298340 25979320
1375.97 26674280 27355160 27890070 28090790 28160650 28134080
1378.86 28247640 28522420 28869320 29548380 30597290 31706570
1381.76 33313080 36760860 42811420 47574120 44841140 38167750
1384.65 34819750 34083460 34040290 34562580 35713770 36947030
1387.54 38455730 39552450 40078450 40273120 40477100 40152280
1390.43 39390880 38356560 37215330 35677060 33953820 32326670
1393.33 30819070 29103110 27736420 26637240 25468560 24362130
1396.22 23275950 22030740 20926380 20129340 19561080 18918100
1399.11 18552320 18215150 17931040 17643760 17427090 17269420
1402.00 17386780 17768430 18115330 18300320 18360420 18301550
1404.90 18473350 18804930 19592180 21168380 21432790 19507560
1407.79 18004060 17441350 17455470 17484140 17482580 17586740
1410.68 17955620 18354850 18799820 19167410 19547370 19932360
1413.58 20353960 20609230 20912990 21351940 21957680 23017060
1416.47 24266060 24956130 25185590 25368520 26099950 26884290
1419.36 27961350 29613680 31714820 32887140 31825750 30063280
1422.25 28323280 26315970 24582920 23946930 23945540 23522910
1425.15 22996790 22514930 22407610 22572120 22845300 23064650
1428.04 23502190 24131130 24817080 25188000 25854360 26603880
1430.93 26992290 27385020 28154180 28965040 29437930 29693890
1433.82 30000840 30179490 30414990 30800960 31220670 31818930
1436.72 33242430 34882300 36558330 38281890 39894580 41408530
1439.61 43558010 46586800 48621680 48550850 48158820 48793220
1442.50 50197240 51667170 53234420 54932500 56527060 58070460
1445.40 59817260 61412840 62993250 64492450 66017170 68095860
1448.29 70261190 71787620 72520470 73084540 73785740 73834370
1451.18 73308820 72662670 71941210 70670030 69523340 69516700
1454.07 69882700 70376680 71573320 72036990 71371200 71279150
1456.97 73754930 75767210 75658620 75238820 75423460 76565340
1459.86 78031720 79208190 80018280 80507390 81291790 84050100
1462.75 87601900 85109610 78373460 73711300 71378470 70196330
1465.64 68919340 68245640 68874700 69424370 69597980 70697460
1468.54 72415580 74628070 77190200 79347540 80418340 80227530
1471.43 79255650 78808550 77990780 75487910 73150220 72001110
1474.32 70996090 69809580 68475570 67264680 66826460 67267180
1477.21 67023750 65420300 63909610 63189240 62962880 63155990
1480.11 64171540 65836680 68085960 70998780 74720220 79126840
1483.00 83551430 88234840 94326300 102480200 112602300 122006000
1485.89 128281100 134339400 141614200 149618900 157949900 166954200
1488.79 175863900 184539800 192986800 201259300 209103700 215445500
1491.68 218437500 218719500 217876900 215984700 212393500 207245500
1494.57 201076800 196391800 194515700 198045700 206114000 213438800
1497.46 216086500 214515100 217679100 242652400 290497100 316611800
1500.36 265730600 202240700 176374400 171660200 177395400 188027200
1503.25 200296100 209960300 217513200 223065100 227508400 230534800
1506.14 230448700 227132000 222374200 215441600 206599600 196123000
1509.03 184067600 171013800 158646800 146472300 134952700 124166200
1511.93 114475200 105779900 97769480 90515900 84346970 78813350
1514.82 74535760 71632060 69632940 67615380 65311280 63193110
1517.71 61010420 57663070 53977340 50825420 48312340 46127620
1520.61 44001240 42988160 43112010 43107200 44216200 46076530
1523.50 48882290 51687370 52524020 50028040 48229000 48753920
1526.39 48338810 46021890 44206410 43550230 43448100 43544580
1529.28 43792780 43858570 43773300 43395200 42750590 42084580
1532.18 41426390 40641830 40161090 40728380 42365800 42800220
1535.07 41278740 39525610 39227760 39352500 38101040 35670480
1537.96 33890820 32355100 32138970 31971650 31258910 31280150
1540.85 31110110 30369180 30154330 30429940 30124400 29411270
1543.75 28679340 27775030 26898980 26309120 25494990 24644350
1546.64 23937930 23256330 22760550 22435370 22183410 21874210
1549.53 21780380 22063900 22562520 22549360 22020950 21577320
1552.43 21480570 21454040 21314210 21251250 22060890 22828350
1555.32 23329700 23644260 23887410 23794950 23962300 23879760
1558.21 24007490 24837090 24678820 24171440 24700560 25344710
1561.10 25297210 24992710 24526270 24028180 23587120 23215940
1564.00 22452710 21439810 20575760 19917020 19468150 19170640
1566.89 19074200 19232840 19463240 19924180 20629840 21501820
1569.78 22833140 24054940 24868310 25587410 26280420 26626980
1572.67 26455640 26247680 26005380 25725060 25462500 24799280
1575.57 23656280 23834220 24441500 24245850 23943770 23619870
1578.46 23268430 22860930 22437510 21998650 21476120 20941760
1581.35 20411650 19908580 19539030 19213590 18975380 19050500
1584.25 19451720 20080270 20805590 21952850 23662970 25218770
1587.14 24612390 21898140 20761110 21466630 22630320 24006670
1590.03 25597510 27426880 29373240 31440260 33569600 35807140
1592.92 38179730 40871900 43706980 46707750 49643040 52768300
1595.82 56067920 59607890 63249960 67096720 70890100 74479380
1598.71 77797620 81185080 84675510 87407530 88351400 88800360
1601.60 89648260 90479010 90346790 90017350 90051080 90807030
1604.49 91828370 94537420 98163500 101653700 103971000 104199000
1607.39 103150500 110237500 132764800 156353700 140988200 109260600
1610.28 98676410 98366800 101034200 104080100 107431000 110391700
1613.17 113071500 114298800 114572600 114318100 112890000 108328200
1616.07 102664800 99060740 96119380 90890340 86497330 85258010
1618.96 88933900 96047160 93612940 79014290 67851720 63870150
1621.85 61993030 58381580 55594130 54181450 53092730 51805150
1624.74 50587800 49043760 47593120 45878730 44056870 41913100
1627.64 39846750 37561360 35111740 32433750 29851640 27310170
1630.53 24927220 22563610 20407140 18192120 16268280 14513540
1633.42 12996620 11422650 9990630 8407218 7545018 7438614
1636.31 7021904 6355120 5945384 5705468 5538922 5205734
1639.21 4915074 4663122 4500140 4334740 4320042 4204212
1642.10 4141312 4045700 3962412 3873254 3934818 3916262
1644.99 3539332 3077140 3573940 3848480 3670304 3604766
1647.89 3677896 3777776 3870076 3854484 3814498 3872436
1650.78 4009276 3687300 2707622 2268298 2149214 2612422
1653.67 3053974 2897974 3180978 3215596 3122358 3000952
1656.56 3100582 3128170 3327710 3483852 3660440 3810272
1659.46 4058284 4133256 4223218 4263640 4327134 4148310
1662.35 3994118 4204402 4422622 4336086 4347708 4315406
1665.24 4314642 4315600 4424326 4384206 4377386 4201508
1668.13 4089778 3624656 3544046 3892200 3977234 3780334
1671.03 3646384 3631406 3677032 3600758 3726676 3757900
1673.92 3485678 3067258 3147374 3580412 3820746 3836882
1676.81 3886606 3829154 3837432 3888686 3999876 4036156
1679.71 4129072 4183372 4267826 4246118 4229474 4080852
1682.60 3814678 3700100 3539026 2628200 2470088 3545766
1685.49 3910170 3771486 3594004 3446058 3302134 3180994
1688.38 3182278 3203824 3104938 3010586 3065132 3103218
1691.28 3186730 3216272 3255010 3348472 3518060 3612186
1694.17 3567736 3247318 2412870 2448696 3735908 4345668
1697.06 4685838 4899316 4508954 3888610 3190972 2332698
1699.95 2219164 2567602 3184370 3456396 3543952 3484966
1702.85 3521310 3449046 3293068 3379314 3652240 3628398
1705.74 3464772 3531844 3854360 3908740 3879170 3834624
1708.63 3879140 3953144 4009504 4030028 4233812 4385076
1711.53 4549002 4632866 4775532 4809694 4832926 4917532
1714.42 4924122 5076972 5631576 5875302 5711306 5180384
1717.31 5860226 6534024 6835350 7420672 7906500 8200756
1720.20 8559580 8911274 9324488 9719372 10099800 10412140
1723.10 10811380 11215870 11550400 11783930 12032560 12222910
1725.99 12311680 12165790 12021420 11904420 11713780 11326680
1728.88 10840470 10219550 9707746 9250166 8687464 8171618
1731.77 7924872 7653658 7305250 7748600 8401708 8961694
1734.67 10463010 11652560 12443390 12739570 12814520 12704620
1737.56 12501130 12195150 11783640 10921970 10323600 10175120
1740.45 9974614 9564814 9107504 8596086 8056064 7608392
1743.34 7262876 6845054 6494216 6080266 5761346 5443056
1746.24 5109048 4822120 4691890 4350406 4018036 3863556
1749.13 3759516 3549668 3270054 2727212 2604342 2864612
1752.02 2903878 2774484 2706804 2653126 2694970 2693484
1754.92 2706138 2674242 2523002 2379846 2638682 2756300
1757.81 2834194 2956908 3154696 3301680 3406818 3447354
1760.70 3393926 3140050 3269988 3604356 3879290 4044206
1763.59 4187384 4369808 4634158 4827296 4901310 4966324
1766.49 5131112 5143062 5031530 5231506 5697514 5805088
1769.38 5900556 6021874 6127880 6220698 6599336 6682756
1772.27 6859938 7622986 7964756 7826680 7903918 7925516
1775.16 7941134 8080854 8335100 8526206 8894726 9308058
1778.06 9771746 10318040 10973310 11222570 11047300 10927690
1780.95 11056190 11274940 11660770 12047350 12548580 12991210
1783.84 13366860 13608200 14176450 14903230 15704040 16586190
1786.74 17428670 18028640 18664680 19441780 20489810 21652290
1789.63 22871030 23898600 24663420 25271990 25745380 25777280
1792.52 26170710 26581750 26668700 26652890 26731750 26717020
1795.41 26620430 26043640 24718110 23138880 21808260 21016680
1798.31 21648660 24244790 30048300 39484520 45540350 37154940
1801.20 23371700 17945150 17855990 18911670 20067050 21346240
1804.09 22749910 24077330 25204560 26203000 26864370 27155180
1806.98 27135330 26933080 26577470 25922720 24930720 23543530
1809.88 21909190 20347880 18957180 17596120 16248840 15010220
1812.77 13964590 12899450 11865690 11010960 10245770 9447128
1815.66 8765786 8184088 7635420 7181748 6906676 6784372
1818.56 6827686 6962218 7304734 7650932 7841596 7996738
1821.45 8108092 8106164 8105092 8006532 7872800 7708700
1824.34 7443968 7228992 7296284 7201644 7016580 6885498
1827.23 6777030 6582366 6426842 6308892 6219516 6039116
1830.13 6100348 6216952 6326718 6352792 6379422 6460284
1833.02 6579096 6646956 6725322 6803090 6919490 7074092
1835.91 7330424 7572734 7885934 8185532 8563014 8998352
1838.80 9434506 9837032 10293570 10789620 11304770 11800920
1841.70 12413410 13066350 13738540 14272780 14688070 15662880
1844.59 16870100 17782720 18559010 19192030 19908670 20549640
1847.48 21131120 21725010 22247920 22664200 22915240 22949030
1850.38 22947820 22675590 22187060 21547200 20778110 19877460
1853.27 19003140 18096040 17115180 16249580 15832250 15917600
1856.16 16605580 17904520 19836010 22266700 25016480 27432800
1859.05 29235470 30597570 31598200 32144840 32426550 32578630
1861.95 32567620 32156410 31585080 31100280 30667940 30005260
1864.84 29116280 28163270 27219290 26226350 25344250 24388680
1867.73 23461470 22605150 21310060 20403710 20260920 20459030
1870.62 21094230 22105940 23308430 22824910 19667330 16421020
1873.52 14862250 14405680 14586530 14969890 15445870 15925280
1876.41 16300060 16578620 16749840 16689260 16459030 16015950
1879.30 15453990 14754690 13919440 12989320 12074780 11122200
1882.20 10139670 9204306 8401682 7609438 6917410 6291990
1885.09 5767108 5346074 4981154 4652408 4368978 4087778
1887.98 3870004 3668298 3478064 3418134 3474308 3420132
1890.87 3347336 3269970 3235434 3107780 3063846 3025800
1893.77 3005404 2987186 2976994 2956964 2961476 2941764
1896.66 3027098 3053978 3036380 2951574 2853194 2697440
1899.55 2626584 2593928 2603038 2600496 2635854 2710040
1902.44 2828712 2800462 2635066 2467362 2387866 2324144
1905.34 2388262 2446498 2528942 2577458 2603114 2593524
1908.23 2659164 2705926 2721350 2785972 2908416 2998212
1911.12 3041570 3105946 3239134 3316716 3409448 3512724
1914.02 3650046 3767956 3908350 4075240 4280722 4458418
1916.91 4619030 4665472 4943662 5333096 5626152 5878820
1919.80 6203686 6524968 6915680 7304342 7646624 8064152
1922.69 8614730 9234664 9844680 10458300 11222980 12060410
1925.59 12834370 13291510 13743860 14440070 15312140 16195730
1928.48 17158510 18155250 19228520 20252910 21304280 22394730
1931.37 23427560 24374010 25176700 25809220 26447010 26925730
1934.26 27200260 27286590 27283030 27141870 26799190 26273120
1937.16 25681940 25061670 24320600 23413870 22505780 21690220
1940.05 21108590 20843540 21013000 21617550 22801850 24611270
1942.94 26948770 29477330 31768200 33533790 34841250 35674440
1945.84 36247590 36608820 36663900 36324750 35763510 35133490
1948.73 34418330 33649020 32840280 31850980 30903870 29922310
1951.62 29117180 28333990 27236410 25789070 24538990 23656850
1954.51 22897640 21881840 20742090 19792550 19547640 20235390
1957.41 21710050 22767950 21313020 18010570 15308180 13830530
1960.30 13259980 13211340 13473010 13708420 13931490 14115780
1963.19 14209030 14186150 14065610 13719840 13225250 12596910
1966.08 11917670 11123300 10261570 9427568 8651042 7863078
1968.98 7127806 6411876 5765428 5177846 4662550 4175866
1971.87 3780368 3383798 3080966 2800288 2575270 2448760
1974.76 2356654 2201270 2105982 2007346 1933812 1846208
1977.66 1828622 1872092 1924680 1913488 1966820 2049032
1980.55 2159124 2285182 2437658 2551524 2784360 3084222
1983.44 3393266 3401004 2985534 2547058 2432218 2459358
1986.33 2524622 2530828 2546356 2555182 2631016 2686742
1989.23 2812808 2939272 3011496 2986826 2900988 2914556
1992.12 3006662 2928252 2819914 2805186 2925748 3031076
1995.01 3035244 2799512 2568848 2464752 2538100 2647888
1997.90 2746722 2765516 2796882 2792998 2794376 2840288
2000.80 2885468 2843236 2844400 2824182 2772860 2648994
2003.69 2533070 2456546 2400486 2308408 2238034 2139262
2006.58 2116808 2059628 2012334 1977730 1992970 1909432
2009.48 1928216 2060898 2210008 2178022 2017024 1834636
2012.37 1758734 1758902 1715536 1630000 1603324 1527748
2015.26 1528832 1513886 1524236 1568114 1567598 1517218
2018.15 1550392 1528344 1468374 1403458 1368018 1311748
2021.05 1274454 1227712 1252254 1273232 1286170 1272560
2023.94 1287550 1246040 1179974 1134498 1097760 996412
2026.83 950206 902376 871026 894914 874148 804124
2029.72 790098 752482 736100 723218 738634 685700
2032.62 650210 608550 614334 584882 549758 540660
2035.51 523142 494552 479592 350160 294242 313382
2038.40 387266 380802 415302 372340 304254 255496
2041.29 265568 259194 306698 330994 327606 306784
2044.19 267220 206086 204356 239716 289206 282958
2047.08 235726 242552 228300 174364 179952 163354
2049.97 198442 199286 160008 180204 238368 193728
2052.87 233138 257250 267280 260454 339350 368148
2055.76 341324 327004 319228 281428 321218 344924
2058.65 333322 339284 366108 314350 306932 245938
2061.54 189766 156290 125206 131036 256778 417156
2064.44 478216 486674 534730 485492 467782 513964
2067.33 516476 512736 551802 492518 447240 386558
2070.22 356074 391726 493076 513614 463414 434396
2073.11 465972 443940 452036 476090 484926 447394
2076.01 465830 485652 550840 562610 560570 587976
2078.90 679668 681954 611150 501294 487280 550876
2081.79 510740 448036 467044 394000 375400 362392
2084.69 385306 394656 375244 389176 418996 406398
2087.58 377638 406776 496262 455698 436576 435366
2090.47 459076 453764 491224 505608 422840 377512
2093.36 371028 330374 402098 432250 383084 355604
2096.26 392756 417652 445750 425978 478020 529602
2099.15 514404 425058 391812 387428 409860 452484
2102.04 456596 412506 416360 439904 494902 497698
2104.93 485816 480502 446976 374294 428972 503348
2107.83 553254 516512 467322 496292 481920 451038
2110.72 560508 652650 645482 628992 635966 575244
2113.61 521758 512294 578208 590578 542224 538866
2116.51 547700 536990 531594 537764 534758 521776
2119.40 566700 604664 647794 682984 684888 652760
2122.29 643600 648114 690124 626166 602188 630202
2125.18 681142 693534 652216 620060 684850 708712
2128.08 715214 619576 602906 653100 673958 593830
2130.97 575998 574618 587902 625726 672988 734784
2133.86 713938 658644 688400 649322 573670 556010
2136.75 577290 522130 460056 446870 502436 488058
2139.65 480944 465856 461410 419228 439988 447816
2142.54 454406 447114 474386 467948 500410 537204
2145.43 524036 492822 540424 582558 576368 559114
2148.33 577856 551840 590188 647340 679034 659392
2151.22 700424 749910 826214 857650 969980 1048392
2154.11 1111004 1137566 1149530 1222592 1369272 1438538
2157.00 1519470 1644508 1716588 1779598 1872086 1870980
2159.90 1885532 1958108 2083368 2189834 2191472 2181260
2162.79 2235624 2243450 2244080 2246902 2298846 2323746
2165.68 2273660 2321086 2542148 2849770 3144660 3138054
2168.57 2824594 2495912 2303556 2264574 2376990 2511340
2171.47 2624338 2697538 2847564 2938388 2984506 3010588
2174.36 2990960 3037956 3137366 3039464 2895852 2792878
2177.25 2783034 2762772 2626830 2473632 2352140 2242400
2180.15 2142622 2099390 2024960 1904442 1911722 1903618
2183.04 1787252 1657358 1621104 1532722 1431852 1404454
2185.93 1428002 1406042 1377556 1357956 1393754 1423114
2188.82 1408418 1401964 1446020 1502052 1606252 1674154
2191.72 1729568 1671144 1549804 1506942 1547098 1512142
2194.61 1405598 1401228 1441752 1423882 1357976 1270620
2197.50 1270890 1278600 1291574 1286620 1275234 1204590
2200.39 1139048 1157118 1163954 1110752 1096716 1148256
2203.29 1202126 1154372 1075062 1083158 1060276 1006004
2206.18 1056894 1073748 1048096 1075486 1154112 1197918
2209.07 1222110 1176670 1076596 1014714 1036144 995416
2211.97 969098 1010452 1085488 1037668 1037046 1113226
2214.86 1172858 1140222 1120838 1145540 1173232 1173620
2217.75 1167094 1101380 1022972 984614 986324 964366
2220.64 1012334 1015530 1020502 1085060 1148868 1117442
2223.54 1014550 937616 945138 982674 1026016 989980
2226.43 995368 1011364 998982 984366 1003186 1008622
2229.32 1052616 1119936 1134664 1080834 1082308 1057366
2232.21 1031200 987504 1001638 996488 1000404 1033430
2235.11 1046292 1073776 1160878 1218998 1269664 1193920
2238.00 1082494 1066516 1097352 1191608 1261076 1260444
2240.89 1300692 1318428 1366918 1455360 1464886 1430798
2243.79 1519286 1573056 1611598 1605388 1658350 1713560
2246.68 1681668 1655192 1732502 1843814 1994492 1996232
2249.57 1990928 2019066 2041792 2046590 2063046 2124914
2252.46 2195816 2198212 2183758 2196108 2248882 2307758
2255.36 2342314 2324704 2360708 2343162 2311648 2261324
2258.25 2209204 2207260 2232596 2223334 2170660 2144142
2261.14 2228072 2266898 2274324 2285084 2304618 2305430
2264.03 2415640 2485602 2506678 2536028 2590218 2618770
2266.93 2620692 2596722 2635816 2681406 2774440 2835084
2269.82 2791892 2737590 2755948 2791448 2794688 2787030
2272.71 2739788 2741452 2852756 2965382 3051442 3076106
2275.61 3050900 3085600 3143860 3179086 3199090 3179618
2278.50 3174272 3140896 3110702 3058892 3022678 2987236
2281.39 2958964 2925724 2865518 2808506 2881706 2962928
2284.28 3033358 3018274 2943772 2902894 2882558 2870546
2287.18 2908996 2963970 2999462 3045352 3073250 3083260
2290.07 3078818 3084504 3095424 3101892 3071144 2948358
2292.96 2810370 2705370 2719056 2766522 2809968 2819028
2295.85 2823822 2815448 2809268 2837754 2833614 2844510
2298.75 2920652 2984842 3010258 3068334 3190918 3266036
2301.64 3284546 3343464 3440616 3585204 3733350 3847030
2304.53 3889308 3901490 3971226 3984630 3971090 3906090
2307.43 3797776 3729670 3671826 3618016 3549088 3512266
2310.32 3588574 3647418 3747072 3859150 4016076 4615244
2313.21 5027300 4588714 4295146 4192344 4093848 3995572
2316.10 3942980 4019318 4130990 4173256 4310620 4594922
2319.00 4746842 4699956 4620246 4674214 4700138 4615706
2321.89 4598556 4717224 4698032 4433762 4387302 4498074
2324.78 4369894 4138600 4161066 4299408 4286594 4104066
2327.67 4198464 4454052 4416104 4256950 4436402 4625772
2330.57 4418256 4233776 4412064 4436188 4127544 4023016
2333.46 4217316 4112322 3825176 3860108 4031320 3910082
2336.35 3838370 4114466 4296404 4099792 4077996 4379684
2339.24 4482870 4394064 4613236 4755518 4668180 4786784
2342.14 5058792 5006102 4978322 5121124 5126312 4984888
2345.03 4941382 4940392 4827118 4681108 4634324 4506272
2347.92 4398952 4405628 4429442 4377350 4326198 4342202
2350.82 4518862 4553892 4497092 4650420 4735108 4636106
2353.71 4739700 4810598 4778964 4994880 5076186 4933644
2356.60 5114422 5093302 4903420 5031008 4944804 4705972
2359.49 4794896 4591886 4379406 4382754 3976436 3814340
2362.39 3791730 3372790 3391668 3423742 3352400 3613006
2365.28 3622510 3763364 4063596 4119534 4336988 4361502
2368.17 4332538 4299964 4092936 4078132 3965748 3838682
2371.06 3753926 3565042 3531086 3410212 3299960 3062846
2373.96 2903522 2827902 2667344 2615840 2590800 2570522
2376.85 2594068 2590408 2497498 2453514 2440932 2446286
2379.74 2507936 2511518 2536038 2555732 2558294 2582524
2382.64 2571506 2475826 2459002 2476138 2507434 2499562
2385.53 2526674 2437268 2393320 2412356 2442786 2475612
2388.42 2562766 2607488 2602574 2685082 2732586 2720846
2391.31 2731106 2666228 2612114 2612260 2618740 2658600
2394.21 2724656 2759218 2825842 2844870 2816672 2791312
2397.10 2821732 2832950 2794162 2836180 2895330 2922292
2399.99 3044178 3209504 3281314 3183434 3083682 3103540
2402.88 3224376 3271532 3245790 3306754 3413076 3463918
2405.78 3481662 3501696 3588908 3619922 3608786 3624668
2408.67 3654258 3648664 3608750 3601152 3600084 3617272
2411.56 3742272 3879952 4073880 4265278 4274720 4067514
2414.46 3927166 3897486 3985612 4083820 4206106 4293324
2417.35 4357266 4342634 4335092 4334000 4351788 4351754
2420.24 4320696 4445594 4609140 4680870 4645742 4489038
2423.13 4325448 4154600 4009660 3955436 3903070 3826556
2426.03 3761970 3749758 3691778 3611244 3583700 3484526
2428.92 3436650 3398950 3425946 3457058 3226248 2958944
2431.81 2839336 2780252 2760252 2745998 2708106 2617394
2434.70 2595066 2633812 2590262 2532910 2578168 2461520
2437.60 2304298 2234690 2218226 2231658 2182742 2155836
2440.49 2164448 2092764 2092176 2070646 2067658 2036254
2443.38 1982372 1938728 1864176 1833086 1865590 1912928
2446.28 1938556 1865598 1849318 1877904 1855664 1852730
2449.17 1876152 1858572 1862222 1880508 1906758 1906012
2452.06 1904626 1884718 1907494 1907894 1910498 1903214
2454.95 1945850 2005732 1981424 1974704 2031192 2069794
2457.85 2084552 2065686 2133174 2170476 2166664 2170024
2460.74 2225448 2245528 2131486 2121638 2097868 2097140
2463.63 2151412 2170262 2201620 2205988 2248116 2256296
2466.52 2268644 2219278 2175322 2195130 2206284 2119488
2469.42 2096150 2136330 2190848 2203690 2119316 2078424
2472.31 2044748 2055496 2090978 2053234 2021750 2015572
2475.20 1997638 1921604 1913342 1933128 1913728 1951832
2478.10 1948990 1868238 1831270 1854346 1835412 1786380
2480.99 1746950 1760300 1753296 1696088 1680328 1765340
2483.88 1804346 1714054 1684264 1668088 1673216 1731548
2486.77 1822782 1824126 1747222 1747324 1789334 1796460
2489.67 1836794 1860042 1874228 1875290 1841378 1851376
2492.56 1863810 1886176 1987364 1981944 1982912 2047826
2495.45 2113954 2097204 2091748 2104698 2106980 2096314
2498.34 2047834 2091492 2195466 2272824 2270242 2169162
2501.24 2101562 2087690 2105114 2107210 2050158 2049814
2504.13 2080070 2037882 2053138 2054776 2004464 2011520
2507.02 2062274 2030604 1994126 2015310 2113688 2134470
2509.92 2102848 2073242 2074978 1987846 1888326 1870090
2512.81 1892414 1907206 1868878 1814400 1784802 1769270
2515.70 1783700 1774326 1724626 1682678 1710536 1722446
2518.59 1754352 1668686 1599648 1633376 1678872 1642526
2521.49 1589578 1620608 1557896 1541740 1601374 1579038
2524.38 1535666 1513098 1575778 1683282 1721702 1651444
2527.27 1594892 1561058 1596234 1649050 1627172 1524720
2530.16 1561978 1667590 1620962 1549756 1536352 1586122
2533.06 1693712 1735382 1773324 1773876 1755238 1710778
2535.95 1666818 1654850 1637994 1646910 1610550 1565738
2538.84 1590708 1619216 1617974 1539704 1519456 1554720
2541.74 1598786 1585148 1580768 1613688 1654626 1639964
2544.63 1626388 1602472 1576630 1501116 1486022 1564444
2547.52 1603856 1574130 1600894 1665292 1661500 1665012
2550.41 1625746 1656098 1715364 1687772 1652908 1549602
2553.31 1557642 1586610 1518750 1498440 1447184 1426738
2556.20 1380110 1308456 1315024 1319914 1345960 1389310
2559.09 1356848 1338734 1402738 1461628 1453532 1454598
2561.98 1442232 1349356 1294250 1352152 1424156 1490842
2564.88 1509204 1478480 1510654 1571282 1609580 1638790
2567.77 1685968 1680072 1724400 1790742 1822038 1814666
2570.66 1813466 1876358 1956334 1992082 1985410 1993072
2573.56 2116964 2265950 2292050 2254108 2323652 2378626
2576.45 2474456 2560714 2673086 2783636 2878778 3010476
2579.34 3136900 3305574 3478128 3629320 3833422 4076542
2582.23 4128210 4110036 4205380 4271558 4309548 4471368
2585.13 4634916 4722038 4815410 4828794 4853474 4937826
2588.02 4977856 4936940 4981248 5022254 5004112 4965618
2590.91 4992322 5076476 5250110 5401708 5463210 5517280
2593.80 5547422 5406446 5249786 5335756 5622970 5830004
2596.70 5942748 6054334 6111608 6084306 6076422 6103844
2599.59 6074404 5965896 5787252 5655854 5560888 5336834
2602.48 5102904 4928504 4675632 4458116 4266916 4062936
2605.37 3971884 3918936 3743828 3575432 3522460 3454418
2608.27 3405818 3334970 3335208 3359544 3428236 3547068
2611.16 3497948 3340920 3225002 3052034 3003338 3003282
2614.05 2938770 2921530 2899688 2896254 2931440 2934544
2616.95 2924618 2868614 2838750 2845108 2825306 2786304
2619.84 2837832 2879082 2918640 2940422 3007318 3068226
2622.73 3030504 2987962 2949626 2955920 2937704 2872272
2625.62 2888044 2951900 2925190 2879626 2754644 2679546
2628.52 2730996 2721384 2684164 2687758 2731418 2733008
2631.41 2650232 2564402 2541736 2547268 2553512 2511884
2634.30 2494160 2517936 2509844 2461732 2476404 2560146
2637.19 2621524 2664528 2718382 2620002 2504980 2505880
2640.09 2447916 2324032 2303308 2378580 2431820 2471990
2642.98 2444480 2466746 2468938 2382836 2228972 2106354
2645.87 2064120 2078280 2034644 2027738 2015110 1956946
2648.77 1947916 1981112 1962568 1949310 1903186 1836416
2651.66 1778280 1699522 1750112 1832628 1865444 1839594
2654.55 1789054 1716868 1643714 1542884 1558708 1583270
2657.44 1531410 1406036 1377752 1445666 1400598 1390266
2660.34 1405112 1326276 1311290 1414054 1505242 1466768
2663.23 1340418 1264508 1242494 1262748 1312682 1395522
2666.12 1363340 1315158 1336350 1313086 1296560 1324036
2669.01 1290692 1263616 1316184 1336910 1294442 1248544
2671.91 1230778 1177172 1167024 1239340 1238592 1191180
2674.80 1142754 1118756 1085350 1120132 1170950 1173740
2677.69 1207924 1241940 1205070 1142250 1173772 1142798
2680.59 1113266 1212098 1219928 1164112 1222910 1269160
2683.48 1261470 1174962 1118092 1159282 1242052 1230320
2686.37 1114254 1117658 1217902 1188264 1157830 1200998
2689.26 1256552 1271014 1230350 1179788 1176992 1215276
2692.16 1261324 1227136 1180316 1130900 1106876 1121580
2695.05 1110130 1104846 1137524 1135792 1166760 1217868
2697.94 1384086 1393610 1206918 1114072 1113734 1129358
2700.83 1153568 1236118 1301716 1326740 1284412 1223296
2703.73 1265616 1276516 1170538 1103990 1197328 1220180
2706.62 1203472 1284032 1312684 1208298 1196984 1305834
2709.51 1355972 1363880 1350382 1321748 1320242 1405098
2712.41 1509900 1468522 1462432 1538756 1605794 1684096
2715.30 1716162 1637880 1623780 1695418 1780512 1776676
2718.19 1820136 1899490 1959610 1941316 1936578 1988998
2721.08 2058424 2117268 2189652 2285842 2374288 2442934
2723.98 2596784 2699698 2741612 2889736 3064114 3196402
2726.87 3467536 3692222 3827386 4162902 4561510 4846416
2729.76 5154844 5505308 5907330 6446784 6887186 7258474
2732.65 7788942 8386182 8946880 9447894 9947362 10421830
2735.55 10844730 11114310 11376630 11716680 11941050 12010050
2738.44 12010660 11888760 11663880 11479280 11385470 11280400
2741.33 11139470 11213790 11772380 12747940 14385730 16785100
2744.23 19141550 19236890 16360850 12923710 11243440 11061470
2747.12 11617370 12383160 13204220 14017890 14824510 15424520
2750.01 15871530 16242210 16325230 16108200 15624710 15080990
2752.90 14362760 13412860 12404970 11519270 10704100 9829122
2755.80 9045018 8352720 7671906 7031200 6548754 6096512
2758.69 5739784 5460412 5248374 4987696 4762494 4550672
2761.58 4385524 4290882 4143212 4030042 3938908 3778206
2764.47 3670306 3514482 3283734 3112334 3007258 2916266
2767.37 2875442 2891378 2895350 2865330 2903720 2960942
2770.26 2993464 2976156 2992878 3019774 3064196 3073296
2773.15 3022168 3038016 3087592 3135104 3088994 3068456
2776.05 3109086 3203740 3287690 3285420 3321814 3419410
2778.94 3432518 3392720 3498962 3603474 3637262 3713542
2781.83 3790106 3690808 3565416 3584710 3573590 3623410
2784.72 3626946 3656890 3711354 3856906 4017484 4103810
2787.62 4144846 4140234 4091872 4110508 4171334 4188350
2790.51 4127862 4181040 4140098 4004194 4104772 4276380
2793.40 4320820 4346980 4377242 4368604 4385894 4472470
2796.29 4502784 4441286 4400470 4400708 4548812 4760294
2799.19 4838362 4844156 4855442 4800198 4676282 4707874
2802.08 4715844 4716842 4807424 4869196 4896790 4931992
2804.97 5029234 5067144 5110942 5158530 5247144 5440334
2807.87 5524140 5584902 5648612 5833492 6080422 6212096
2810.76 6278636 6321244 6391100 6480078 6557464 6728434
2813.65 6875708 6916238 6976736 7123940 7329590 7618110
2816.54 7841240 7966470 8016730 8007074 8082940 8273188
2819.44 8365134 8493038 8667394 8804076 9007224 9062548
2822.33 9087614 9107980 9169182 9238490 9192014 9165876
2825.22 9236116 9234004 9248134 9363326 9482980 9577930
2828.11 9693894 9827280 10073130 10380190 10591700 10864340
2831.01 11109180 11277420 11507530 11761960 12011730 12241750
2833.90 12462340 12565770 12698330 12849690 12977080 13088370
2836.79 13276010 13538490 13810920 14002670 14039360 14132520
2839.69 14261270 14448560 14729400 14895780 15103200 15457110
2842.58 15706630 15822580 16134050 16532940 17060480 17661560
2845.47 18146920 18624590 19128890 19685160 20313040 20922540
2848.36 21586520 22287830 23056110 23809950 24659220 25554570
2851.26 26447300 27390740 28292530 29218840 30335680 31463220
2854.15 32517180 33627100 34790280 36068410 37381430 38825840
2857.04 40292960 41799440 43389280 45123920 46905620 48704900
2859.93 50508670 52240330 54074000 56188110 58414990 60684870
2862.83 63024640 65256370 67362860 69563360 71825140 74120100
2865.72 76442390 78663220 80827060 83038860 85225560 87600500
2868.61 90060180 92421900 94794470 97420640 100333000 103947900
2871.51 107875700 110671200 112307100 114155900 116412500 119026600
2874.40 122108400 125218900 128467200 131852100 135115300 138404100
2877.29 141787300 144503500 146441700 147959300 149216500 150235600
2880.18 151069300 151298800 150450600 149395300 148521300 147742600
2883.08 147019900 146267700 145740000 145406400 144950700 143852500
2885.97 142560500 141516800 140778000 140434100 140423900 140338500
2888.86 139980200 139385800 138376000 137053900 135370100 133807600
2891.75 132541800 131327400 129944200 128392800 126658800 124848500
2894.65 122974300 121107000 119145600 116864900 114587000 112503400
2897.54 110285100 108002700 105763300 103410400 101107300 98863670
2900.43 96839780 95112090 93545080 92088780 90762530 89638430
2903.32 88828130 88034960 87519440 87399860 87175990 87348020
2906.22 88169150 89047430 89358050 89410740 89684030 90449480
2909.11 91760090 93630090 95915250 98133360 100064600 101653100
2912.00 103425500 105664000 107513800 108661200 110077700 112287400
2914.90 115244300 118699000 121897000 125051500 129049600 133774900
2917.79 138282600 141680100 144891600 148891700 153617500 158750500
2920.68 164285300 170480000 177086700 184120000 191416000 198239200
2923.57 203942200 209294000 214573000 219616000 223987500 227586300
2926.47 231372800 235108200 236984100 237282800 237287600 237315800
2929.36 237580600 238659400 241266200 245052300 249604200 254514200
2932.25 259126200 262766300 265170900 266483900 266197900 263603400
2935.14 260788600 260089600 261267800 263772200 267122400 269272100
2938.04 269586600 269528000 268793800 268237900 266546300 262893300
2940.93 259716500 257953800 256945100 255908300 254019200 250711700
2943.82 246113800 241584500 237757900 234275800 230503600 226045900
2946.72 220341300 213574800 206367600 199540800 193207800 187453400
2949.61 181844500 175652500 168722100 162275300 157643700 154531800
2952.50 152053100 149732300 148726300 149768300 150719000 149502400
2955.39 145568000 138701700 130815400 124197000 119424500 116505400
2958.29 115122600 114698100 114481600 114947500 115980600 116352400
2961.18 115359600 114107300 112790800 111456900 110053000 107354400
2964.07 103539000 100665600 98862020 97487160 96130090 94444180
2966.96 92292140 90199680 88196950 86316540 84200700 82152230
2969.86 80235750 78407040 76635020 75238220 74434530 74241310
2972.75 74495200 75166250 76024030 76743600 77528110 78724080
2975.64 80099540 81143840 81830680 82550100 83361170 84269520
2978.54 85234210 86161920 86706820 86917340 87144440 87272830
2981.43 87270780 87373470 87582720 87983400 88778600 90357540
2984.32 92707020 95387660 98044110 100246200 100195700 97418270
2987.21 93503440 90255310 88171530 87169270 86986350 87571230
2990.11 88851580 90890850 93544040 96426140 98920460 100358300
2993.00 100530500 100072200 100166200 101050200 102615700 105030600
2995.89 108816000 113449400 116964100 118490400 118244500 116524400
2998.78 114579500 113740100 114162100 116269600 119893900 123941000
3001.68 128428900 133640900 138844100 143515600 147683400 150269600
3004.57 149725600 146795800 143700300 141708000 141237800 142109100
3007.46 144258800 146780100 148538800 149045900 149095900 149715400
3010.36 151031500 152327400 152649200 152644600 154349100 157875400
3013.25 162055400 166001300 169273600 172051500 174609600 177270100
3016.14 180236100 183804300 188317600 193676700 199503400 205719900
3019.03 212909600 221300600 230329600 239977000 251752000 265371600
3021.93 277003300 285281800 292880600 302323500 313735300 325712300
3024.82 337269100 348678500 360198800 372019300 384617900 398109800
3027.71 412685100 428486100 444657800 458950700 469929100 476818100
3030.60 480211000 482404700 485400600 487991400 489083000 489255400
3033.50 487605700 482706800 476516000 471651600 469605100 469641000
3036.39 470771800 472182800 473238000 474805300 478500600 484005700
3039.28 488120000 487870800 486201700 488755400 493732100 491708700
3042.18 485625200 484370800 486661300 488784700 489317400 488114400
3045.07 485100400 479852100 472448900 462814400 450645900 436913600
3047.96 422508500 407476800 392218100 377032000 361636100 346186500
3050.85 330926500 316294600 303091000 291119100 280567200 271662000
3053.75 263914600 256971600 250756800 245736200 241736000 238651400
3056.64 236251000 234221800 233166600 233274700 234117100 235650800
3059.53 237927400 240196100 241850200 243393500 245172800 247504200
3062.42 250165000 252844300 255344800 257220400 258677300 260296800
3065.32 261648200 262145000 261612700 260391400 259635500 259221500
3068.21 258687300 258658300 259397300 261439000 265779700 272201800
3071.10 281244000 292848200 306347700 319743100 325311500 314724400
3074.00 293324200 275679300 265997800 262790600 263638600 266778000
3076.89 270939100 275084200 278964700 282410900 285112300 287235400
3079.78 288392500 288204000 287106100 286499400 284597000 278489000
3082.67 270426600 264185600 259639800 255593600 251724000 248282000
3085.57 245306200 242661100 240202700 237802300 235251900 232601700
3088.46 229238400 225219600 220931200 216708000 211481800 204971000
3091.35 198201200 191190200 184289200 177817500 171468200 165088600
3094.24 159541100 155165200 151808300 149444700 148595500 149406600
3097.14 151562700 154589700 157804200 160581900 162731900 164246300
3100.03 164984000 164575300 162740700 160014000 156861100 153316600
3102.92 149435200 145176700 140698100 136008100 131049700 126427700
3105.82 121720800 116738600 111948700 107802800 104024200 100191300
3108.71 96321440 92923110 90104400 87674510 85470260 83416640
3111.60 81508060 79782870 78121780 76491960 74775340 73017710
3114.49 71105900 69235090 67405980 65763860 64128140 62367370
3117.39 60672540 59091730 57413790 55626020 53374160 51061630
3120.28 49385740 48387580 47668720 46549350 44423170 42283070
3123.17 41259510 40780240 39837870 38445080 37147020 36103040
3126.06 35250470 34332840 33523020 32831610 32029120 31159410
3128.96 30144920 28931880 27690010 26312810 24807370 23370380
3131.85 22118120 20907690 19700380 18423470 17165710 16094800
3134.74 14843370 13650730 12701020 11735680 10762310 10064080
3137.64 9390662 8751236 8156124 7509848 6923564 6539566
3140.53 6144802 5695364 5451754 5099508 4763424 4535514
3143.42 4298312 4162238 3973536 3698508 3584266 3504742
3146.31 3465342 3469094 3429860 3318232 3319920 3358658
3149.21 3241056 3085970 2962790 3011414 3023250 2933670
3152.10 2879066 2854386 2892414 2882574 2842894 2906870
3154.99 2875812 2887890 2942842 2825694 2742802 2830908
3157.88 2884150 2868428 2776200 2814634 2988796 3128298
3160.78 3032298 2951940 3070016 3070966 3062790 3136026
3163.67 3125332 3152502 3171594 3237512 3311624 3274618
3166.56 3151400 3210864 3249652 3354322 3410014 3452328
3169.46 3513980 3485916 3474782 3489444 3594640 3642266
3172.35 3525546 3497072 3469922 3490362 3447160 3502258
3175.24 3556998 3497116 3494078 3537726 3409548 3225944
3178.13 3224932 3307736 3449416 3375580 3315192 3325888
3181.03 3198132 3099050 2943770 2817642 2676410 2612006
3183.92 2608964 2753608 2798918 2656606 2587104 2675368
3186.81 2614956 2498646 2414706 2199662 2002058 1785022
3189.70 1577198 1457214 1393418 1184362 977118 915176
3192.60 951086 894950 765370 798260 662882 523604
3195.49 544210 516870 537980 537054 564966 534628
3198.38 485030 469894 391724 418320 485254 425826
3201.27 345486 400172 422214 258048 205960 397550
3204.17 370444 338028 372934 336102 457344 455228
3207.06 503320 656742 599742 525096 587442 502970
3209.95 424556 388856 398380 331350 181754 137536
3212.85 222962 235310 227282 292138 287128 284910
3215.74 288404 225518 116510 3056-154342-122604
3218.63 163894 556924 590710 557304 603490 543962
3221.52 423050 363198 218028 236452 256498 237888
3224.42 264974 286222 106194 36828-1838-25576
3227.31 87358 166490 294598 235854 111386 57896
3230.20 66486 129610 208272 171918 110974 256856
3233.09 409468 288368 205732 364094 366902 292948
3235.99 312672 292286 225914 163244 171222 207888
3238.88 147968 220164 286090 304884 349606 459552
3241.77 472844 420324 372184 445684 563048 542610
3244.67 494300 583446 537120 352224 324148 480992
3247.56 592108 500920 455974 479696 499734 530360
3250.45 536404 544110 482072 389838 489382 649518
3253.34 607028 610054 530202 495470 625070 760100
3256.24 701248 689848 646076 606646 651338 718544
3259.13 667498 685780 675638 659876 756954 728012
3262.02 665826 732500 892682 894394 798436 884834
3264.91 911234 904284 895584 861342 940870 967632
3267.81 828632 800812 882796 944502 917612 933764
3270.70 873240 845764 955474 1162414 1136658 1157720
3273.59 1193676 1142624 1037060 1000092 941386 1008328
3276.49 1076834 1087006 1114156 1052908 1017260 1033624
3279.38 1007670 1029980 1036260 1040598 1023826 1058650
3282.27 1038092 939344 974444 959744 1011206 1011628
3285.16 1093520 1150272 1020294 1013230 925018 858262
3288.06 874524 894368 831082 861132 970294 1078276
3290.95 1124170 1079180 965380 983794 1062900 1132896
3293.84 1111098 1009712 1018880 1062066 956982 849352
3296.73 835002 825070 834868 986742 1010830 831642
3299.63 850178 896256 841898 954676 1047944 1199758
3302.52 1089782 960542 976106 924718 834518 896136
3305.41 957088 951750 920518 817940 782542 828994
3308.31 838710 925202 856556 739156 705564 841250
3311.20 908144 924682 886652 887320 923974 1005390
3314.09 937646 840800 794762 837658 898698 942216
3316.98 897388 957510 998032 1072422 1016716 801980
3319.88 787142 955034 982664 1106136 1067366 998228
3322.77 1055226 1038544 1068620 1182742 1191684 1214432
3325.66 1162978 1204044 1332102 1477410 1440482 1241098
3328.55 1222856 1370768 1386432 1428868 1442738 1510534
3331.45 1520396 1445522 1429988 1555018 1681230 1620626
3334.34 1494590 1471440 1455110 1525484 1530672 1592852
3337.23 1598252 1477214 1408980 1401422 1467710 1604690
3340.13 1667020 1662442 1658472 1647368 1668478 1661334
3343.02 1579264 1526210 1431890 1437570 1452942 1471796
3345.91 1407408 1409590 1478878 1521292 1467124 1379814
3348.80 1382996 1412198 1348758 1277218 1227444 1280598
3351.70 1253876 1190868 1070792 1070574 1187940 1236364
3354.59 1120594 1171954 1130376 1006772 1000172 1033040
3357.48 1080580 1241580 1222002 1045620 971886 1127436
3360.37 1317038 1305854 1269710 1319740 1340010 1434388
3363.27 1481676 1259518 1217194 1393864 1376846 1234744
3366.16 1245768 1276928 1239630 1247888 1211294 1212126
3369.05 1297056 1228714 1233278 1280532 1256992 1309852
3371.95 1256364 1332274 1466778 1556184 1466624 1470104
3374.84 1516162 1490464 1497258 1563196 1558874 1553328
3377.73 1544004 1549242 1472946 1401040 1465032 1606956
3380.62 1637408 1614898 1594190 1673620 1623456 1666206
3383.52 1699098 1551396 1479962 1474484 1451184 1477120
3386.41 1399460 1257560 1179796 1362620 1496710 1404714
3389.30 1217448 1160136 1370696 1465258 1291274 1292106
3392.19 1249124 1301026 1443600 1376212 1374488 1316242
3395.09 1170604 1260260 1301906 1262170 1188554 1208742
3397.98 1248000 1294114 1289578 1288436 1218070 1177102
3400.87 1161522 1111208 1100102 1035650 1006564 1105522
3403.77 1130586 1202806 1199686 1177604 1190346 1128688
3406.66 1060600 1109008 1145632 1245944 1211806 1091924
3409.55 1100372 1071282 1012792 1076082 1081932 980234
3412.44 892860 932184 827494 761100 847250 1104110
3415.34 1116038 1042532 1094572 1097846 1084636 1100492
3418.23 985376 882954 674160 537548 567726 686014
3421.12 868632 974020 968714 935514 790790 973550
3424.01 1002216 945894 917072 885482 847526 908072
3426.91 911784 945786 1073388 1147408 1188170 1131788
3429.80 1041074 995192 1065518 1077068 1062624 1062930
3432.69 978646 983156 1031132 951510 819242 906686
3435.59 1187150 1266404 1120288 1037534 1115574 1259744
3438.48 1346756 1442166 1411816 1258530 1176634 1318664
3441.37 1484014 1568544 1526876 1515302 1502710 1460018
3444.26 1405326 1472480 1562876 1497906 1469570 1453056
3447.16 1387768 1339346 1192440 1184650 1137074 1142866
3450.05 1302288 1386250 1425732 1211084 1134674 1096664
3452.94 1018624 1093344 1077748 1020506 1079052 1161758
3455.83 982920 928480 1045540 1118964 978962 1009164
3458.73 1089914 1052098 902174 944808 1090736 1035624
3461.62 982394 866720 684948 811022 883346 895984
3464.51 944794 903534 814946 763982 610762 673744
3467.40 745784 597496 468890 463684 448046 538364
3470.30 522794 521888 558326 640160 607444 509376
3473.19 431390 473692 557084 482702 413510 379538
3476.08 346872 315570 265846 291068 326142 370732
3478.98 348882 357302 403052 327654 264598 300064
3481.87 340702 366734 399574 404166 360932 424710
3484.76 421680 344260 326360 478558 597982 515218
3487.65 370734 416348 368674 331132 448226 571030
3490.55 494096 369476 376936 491646 391704 343424
3493.44 412702 496510 562220 505212 450288 406260
3496.33 386364 419072 506888 580406 578586 573308
3499.22 452892 333178 400240 559538 577396 596786
3502.12 496940 429994 526022 484492 390824 505780
3505.01 494188 566710 542694 441902 454400 407232
3507.90 367770 449412 450826 474812 582336 514098
3510.80 535092 563440 485028 520814 528716 522144
3513.69 517628 587456 644854 608110 513648 599576
3516.58 596702 572280 527004 519220 629816 630970
3519.47 511516 642194 800802 761330 642828 569766
3522.37 605086 655422 669906 922696 1087866 1098964
3525.26 1112086 971694 718326 659364 669984 700102
3528.15 593022 534330 593288 702696 680506 580182
3531.04 533478 522248 593662 650362 586868 643334
3533.94 729824 735726 676998 691192 626912 650548
3536.83 682468 667536 600920 686934 725438 787556
3539.72 754346 652234 677248 745620 718170 671592
3542.62 688250 776562 819948 820508 762670 744570
3545.51 796910 741966 667116 892950 1040778 952670
3548.40 892676 837224 829696 856220 894276 824660
3551.29 768374 777642 875430 1033216 1056402 1119890
3554.19 1139056 1114234 958414 891366 885464 807410
3557.08 954796 986584 877660 1012942 1025212 984470
3559.97 946024 956884 887218 955706 997622 1011086
3562.86 988478 1028560 1008230 930098 887776 907464
3565.76 905068 908990 901298 877596 770016 786864
3568.65 857602 840852 780922 704948 560120 611250
3571.54 684770 684038 676456 621158 602410 690610
3574.44 574134 525342 569638 604394 553442 484038
3577.33 439260 552658 526976 465650 535664 692986
3580.22 815604 886998 812578 820906 902770 950474
3583.11 901820 853942 797304 751594 635362 583714
3586.01 484462 608590 775796 731968 400752 393026
3588.90 714990 828520 747398 797352 896054 861568
3591.79 801118 743612 700834 836084 914708 854886
3594.68 731996 784728 854792 879184 880182 901596
3597.58 825010 730046 655102 693306 667508 496908
3600.47 469836 585240 842950 1114948 1151284 1018884
3603.36 928950 1038420 1026732 888936 664740 576430
3606.26 477134 429308 551256 722504 528774 185826
3609.15 314894 588420 607052 576794 622662 526062
3612.04 275354 382090 564352 565042 357238 368966
3614.93 498694 588788 624772 744942 649222 664826
3617.83 915538 823244 441690 389476 700548 862798
3620.72 863462 879904 969460 1012354 1034386 1011146
3623.61 982604 1118296 1160864 1110284 1097246 1187154
3626.50 1284278 1248192 953132 689472 762586 533434
3629.40 633038 1104966 1193890 1116128 1199326 1282988
3632.29 1256070 1082878 947596 1128558 1319680 1406434
3635.18 1370744 1379786 1478130 1568416 1572824 1557102
3638.08 1536346 1570524 1633754 1716434 1680364 1747926
3640.97 1836746 1922838 1999414 2043914 1977584 1980860
3643.86 1973076 1994758 2006804 2008324 1919486 1877946
3646.75 1786662 1914910 2043868 1853346 1406868 1725592
3649.65 2103814 2049698 2058030 2175008 2403660 2628180
3652.54 2699698 2661034 2607538 2551800 2520568 2531840
3655.43 2279282 2239150 2581244 2683130 2627344 2713132
3658.32 2690152 2611212 2556430 2582610 2645084 2592360
3661.22 2543208 2616666 2549684 2581192 2644520 2564118
3664.11 2580872 2704496 2653024 2532716 2557360 2511358
3667.00 2454664 2536302 2283570 2081048 2183890 2189120
3669.90 1650850 1214272 1779202 1960962 1853330 1970580
3672.79 1993616 1745610 1493040 1223982 1089696 851102
3675.68 654488 1183054 1446564 1523216 1578068 1507734
3678.57 1345968 1280500 1294184 1360932 1404254 1484716
3681.47 1541410 1531778 1345524 1236812 1301696 1351022
3684.36 1230672 1210840 1268520 1293920 1234270 1269964
3687.25 1146804 392492 338840 1059912 1202924 1242802
3690.14 1153734 1085464 1157904 1286690 1231814 1169322
3693.04 1152052 1217264 1281306 1288096 1184886 1170690
3695.93 1218330 1296514 1227578 1134850 1087790 1179694
3698.82 1301808 1306940 1258796 1218314 984706 812482
3701.72 1063244 1291566 1210164 1208046 1212776 1229108
3704.61 1230924 1260044 1198258 1247804 1236730 1062788
3707.50 967510 1096414 1028178 898016 1040686 1187822
3710.39 1053298 896340 448662 224454 809672 1151016
3713.29 1149920 1141354 1148536 1175000 1155282 1296918
3716.18 1393886 1281192 1087030 1095426 1098414 1087266
3719.07 1077772 1020582 1004272 1026788 1081686 1018430
3721.96 963368 1204900 1341270 1337158 1218440 1121854
3724.86 1154760 1190142 972456 930628 993870 910406
3727.75 903914 1011090 922052 863214 922960 979524
3730.64 913944 743750 397114 645780 951292 968296
3733.54 1054294 916072 646520 565520 578938 325004
3736.43 203866 613272 724840 699310 802714 860480
3739.32 769950 733518 787970 764064 663198 695588
3742.21 721124 599230 283710-329456-853606-239264
3745.11 588396 817954 808988 872360 826606 824606
3748.00 714726 143922-309064 200316 573742 611322
3750.89 471352-220528-661704 133604 527196 622306
3753.78 630302 671532 633578 602136 538222 591744
3756.68 695520 767332 651572 605140 492018 433880
3759.57 452260 709042 763976 783008 621382 548768
3762.46 697984 772642 592924 555300 565806 504198
3765.35 494926 659104 655686 691570 717764 726822
3768.25 601706 524182 301960 293844 498866 687228
3771.14 805450 840500 830974 921056 812942 668762
3774.03 694712 769222 880278 909132 866888 827610
3776.93 800682 817046 806026 841560 760808 759792
3779.82 893996 947204 887966 911522 945518 1051978
3782.71 1259234 1299152 1196054 1268950 1234042 1108218
3785.60 1124190 1119498 1219772 1462760 1503678 1471620
3788.50 1432248 1490878 1463962 1485162 1549006 1592554
3791.39 1561682 1602490 1703942 1777142 1716486 1715742
3794.28 1658732 1694090 1752504 1586314 1469566 1566858
3797.17 1563526 1607288 1673842 1723264 1756366 1701940
3800.07 1697450 1042406 498208 1192132 1572942 1585546
3802.96 1607822 1662686 1784336 1871172 1797034 1808470
3805.85 1645286 1109298 1060816 1489224 1633278 1699814
3808.75 1703840 1707150 1721002 1790216 1755724 1718704
3811.64 1629116 1680048 1596676 1596680 1536210 1568212
3814.53 1512820 1054400 293386 766928 1528766 1713318
3817.42 1665744 1685566 1765152 1767494 1620246 1454216
3820.32 1344854 1346978 1260806 1588352 1735896 1709430
3823.21 1840124 2005934 2034810 2014148 2066214 1977628
3826.10 1737276 1803626 2005796 2151962 2168632 2114830
3828.99 2108072 2116932 2107804 2080912 1860010 1870630
3831.89 2177862 2343800 2338078 2230478 2177188 2018110
3834.78 1995758 2229186 2459304 2480212 2170456 1452122
3837.67 1554296 2322562 2489670 2462288 2431138 2493998
3840.57 2386624 2474810 2522556 2597410 2605830 2603108
3843.46 2583178 2770990 2871716 2953180 2930920 2931228
3846.35 2963468 3071288 3080740 3250594 3265082 3264452
3849.24 3187972 3341922 3381290 3273172 2728662 2379326
3852.14 2930200 3206158 2607516 1762542 2075720 3126314
3855.03 3443216 3502746 3375790 3252900 3234278 3399746
3857.92 3433142 3348880 3263388 3161128 3060384 3144026
3860.81 3071628 3000120 3094476 3215016 3202442 3193780
3863.71 3056250 2722938 2442890 2849490 3018212 2961942
3866.60 2928504 2903622 2808066 2697130 2461892 2348714
3869.49 1883596 2016654 2484052 2507430 2548120 2633706
3872.39 2641634 2597208 2424020 2261246 2311858 2386252
3875.28 2450332 2424618 2321868 2293438 2222474 2199860
3878.17 2162880 2072996 1904974 1755096 1839492 2062990
3881.06 2103412 2188882 2280386 2201260 2056410 2050872
3883.96 1983402 1873994 1450790 1375072 1704704 1956738
3886.85 2005832 2011688 1954884 1854764 1762780 1815622
3889.74 1906652 1771158 1349600 1483634 1745406 1879170
3892.63 1919606 1858210 1791270 1843350 1868586 1804712
3895.53 1804988 1992594 2043282 1993026 1919664 1858052
3898.42 1661014 1486078 1663420 1855806 1915502 1810016
3901.31 1625856 1747520 1979898 2196624 1829100 1509228
3904.21 1908364 2209662 2102308 1942516 2107920 2293350
3907.10 2221712 2262168 2230318 2258216 2274474 2318296
3909.99 2372268 2427408 2414826 2424880 2345338 2486870
3912.88 2543890 2510244 2443350 2495894 2483886 2415032
3915.78 2416422 2522496 2519406 2579370 2814732 2987694
3918.67 2803924 2557768 2470102 2649698 2768972 2669258
3921.56 2458980 2537502 2692258 2711558 2618228 2619218
3924.45 2549200 2577870 2672416 2660440 2527254 2578064
3927.35 2535596 2443736 2458376 2485276 2434744 2438052
3930.24 2251330 2276054 2222258 2124662 2150754 2263830
3933.13 2265046 2200086 2113560 2158404 2154908 2191466
3936.03 2129210 2134548 2147906 2187944 2025432 1952278
3938.92 2015986 2166684 2227906 2155800 2017900 2080880
3941.81 1976330 1918074 1955498 1912118 1796764 1689282
3944.70 1694082 1849516 1832636 1812500 1986314 2068658
3947.60 1866292 1960254 2047254 1958618 1818508 1857576
3950.49 1921002 1976540 1889972 1938920 1959592 1900056
3953.38 1850058 1800004 1727696 1841656 1937296 1984548
3956.27 1902830 1990242 2004992 1868538 1739388 1808448
3959.17 1908298 2087422 2142846 2176582 2124934 1980772
3962.06 1840230 1953996 2100842 2112594 2216408 2178698
3964.95 2094310 2145718 2011164 1991688 2035622 2039794
3967.85 2037858 2095286 2142168 2202576 2153830 2265430
3970.74 2218536 2052310 1976918 2074210 2105728 2084414
3973.63 2007138 2059228 2098896
##END=
