##TITLE=1,3,5-TRIMETHYLBENZENE
##JCAMP-DX=4.24
##DATA TYPE=INFRARED SPECTRUM
##CLASS=COBLENTZ III
##ORIGIN=WESTERN REGIONAL RES. USDA
##OWNER=COBLENTZ SOCIETY
Collection (C) 2018 copyright by the U.S. Secretary of Commerce
on behalf of the United States of America. All rights reserved.
##DATE=1963/12/19
##NAMES=mesitylene
MESITYLENE
##CAS REGISTRY NO=108-67-8
##MOLFORM=C9 H12
##SOURCE REFERENCE=COBLENTZ NO. 6116
##$NIST SOURCE=COBLENTZ
##$NIST IMAGE=cob6116
##SPECTROMETER/DATA SYSTEM=BECKMAN IR-7 (GRATING)
##INSTRUMENT PARAMETERS=GRATING CHANGES AT 3000, 2200, 1150 CM^-^1
##STATE=LIQUID (NEAT)
##PATH LENGTH=0.0027 CM
##SAMPLING PROCEDURE=TRANSMISSION
##RESOLUTION=4
##DATA PROCESSING=DIGITIZED BY NIST FROM HARD COPY (FROM TWO SEGMENTS)
##XUNITS=1/CM
##YUNITS=TRANSMITTANCE
##XFACTOR=1.000000
##YFACTOR=1
##DELTAX=0.644271
##FIRSTX=597.423
##LASTX=3990.8
##FIRSTY=0.489
##MAXX=3990.8
##MINX=597.423
##MAXY=0.802
##MINY=0.001
##NPOINTS=5268
##XYDATA=(X++(Y..Y))
597.423000 0.4890 0.4890 0.4890 0.4890 0.4870
600.644357 0.4870 0.4850 0.4810 0.4800 0.4800
603.865715 0.4800 0.4810 0.4820 0.4820 0.4820
607.087072 0.4820 0.4820 0.4820 0.4820 0.4820
610.308429 0.4820 0.4820 0.4810 0.4800 0.4790
613.529786 0.4780 0.4780 0.4760 0.4750 0.4740
616.751144 0.4700 0.4700 0.4740 0.4780 0.4830
619.972501 0.4890 0.4930 0.4950 0.4960 0.4960
623.193858 0.4970 0.4980 0.4990 0.5020 0.5050
626.415216 0.5070 0.5100 0.5120 0.5150 0.5180
629.636573 0.5210 0.5230 0.5260 0.5280 0.5290
632.857930 0.5300 0.5300 0.5300 0.5320 0.5320
636.079288 0.5350 0.5370 0.5380 0.5400 0.5410
639.300645 0.5450 0.5500 0.5530 0.5540 0.5570
642.522002 0.5580 0.5580 0.5580 0.5600 0.5600
645.743359 0.5620 0.5620 0.5640 0.5650 0.5650
648.964717 0.5650 0.5670 0.5740 0.5790 0.5800
652.186074 0.5800 0.5830 0.5870 0.5880 0.5940
655.407431 0.5960 0.5970 0.6000 0.6060 0.6080
658.628789 0.6090 0.6110 0.6120 0.6130 0.6150
661.850146 0.6170 0.6170 0.6190 0.6220 0.6280
665.071503 0.6420 0.6420 0.6410 0.6280 0.6131
668.292861 0.6080 0.6080 0.6370 0.6370 0.6370
671.514218 0.6370 0.6350 0.6350 0.6330 0.6290
674.735575 0.6280 0.6260 0.6240 0.6220 0.6130
677.956932 0.6060 0.5990 0.5850 0.5710 0.5461
681.178290 0.5140 0.4270 0.3161 0.1492 0.1290
684.399647 0.1090 0.0900 0.0701 0.0511 0.0311
687.621004 0.0130 0.0130 0.0510 0.1289 0.1709
690.842362 0.2408 0.3098 0.3818 0.4278 0.4738
694.063719 0.5220 0.5580 0.5790 0.5990 0.6100
697.285076 0.6190 0.6290 0.6330 0.6440 0.6540
700.506433 0.6630 0.6760 0.6790 0.6860 0.6870
703.727791 0.6870 0.6900 0.6930 0.6980 0.7020
706.949148 0.7080 0.7120 0.7150 0.7180 0.7210
710.170505 0.7270 0.7290 0.7310 0.7310 0.7340
713.391863 0.7370 0.7380 0.7390 0.7400 0.7410
716.613220 0.7410 0.7410 0.7420 0.7430 0.7470
719.834577 0.7490 0.7500 0.7500 0.7510 0.7520
723.055935 0.7540 0.7550 0.7560 0.7560 0.7580
726.277292 0.7580 0.7590 0.7590 0.7600 0.7610
729.498649 0.7610 0.7610 0.7610 0.7610 0.7610
732.720006 0.7620 0.7620 0.7630 0.7630 0.7630
735.941364 0.7630 0.7640 0.7650 0.7650 0.7650
739.162721 0.7650 0.7650 0.7650 0.7640 0.7630
742.384078 0.7630 0.7630 0.7630 0.7630 0.7630
745.605436 0.7630 0.7650 0.7650 0.7650 0.7650
748.826793 0.7660 0.7660 0.7660 0.7660 0.7660
752.048150 0.7670 0.7680 0.7680 0.7680 0.7680
755.269508 0.7680 0.7670 0.7670 0.7670 0.7670
758.490865 0.7660 0.7660 0.7660 0.7650 0.7640
761.712222 0.7630 0.7610 0.7590 0.7560 0.7530
764.933579 0.7490 0.7490 0.7480 0.7490 0.7490
768.154937 0.7520 0.7560 0.7590 0.7630 0.7650
771.376294 0.7650 0.7650 0.7660 0.7670 0.7680
774.597651 0.7680 0.7680 0.7690 0.7690 0.7690
777.819009 0.7690 0.7690 0.7690 0.7690 0.7680
781.040366 0.7680 0.7680 0.7680 0.7680 0.7680
784.261723 0.7680 0.7680 0.7670 0.7670 0.7670
787.483080 0.7660 0.7660 0.7650 0.7640 0.7630
790.704438 0.7630 0.7620 0.7610 0.7610 0.7610
793.925795 0.7610 0.7610 0.7610 0.7610 0.7610
797.147152 0.7600 0.7590 0.7590 0.7580 0.7560
800.368510 0.7520 0.7490 0.7470 0.7440 0.7430
803.589867 0.7400 0.7360 0.7360 0.7350 0.7340
806.811224 0.7340 0.7330 0.7330 0.7330 0.7330
810.032582 0.7320 0.7320 0.7320 0.7310 0.7300
813.253939 0.7290 0.7270 0.7250 0.7200 0.7180
816.475296 0.7110 0.7080 0.7010 0.6970 0.6790
819.696653 0.6690 0.6610 0.6490 0.6340 0.6171
822.918011 0.6030 0.5840 0.5690 0.5480 0.5141
826.139368 0.4891 0.3843 0.3501 0.2972 0.2522
829.360725 0.1449 0.0490 0.0300 0.0260 0.0180
832.582083 0.0100 0.0030 0.0010 0.0010 0.0010
835.803440 0.0030 0.0110 0.0190 0.0440 0.0750
839.024797 0.1119 0.1439 0.1889 0.2458 0.3018
842.246155 0.3590 0.4090 0.4410 0.4570 0.4720
845.467512 0.5099 0.5339 0.5500 0.5739 0.5830
848.688869 0.5920 0.6120 0.6250 0.6450 0.6520
851.910226 0.6570 0.6600 0.6640 0.6740 0.6790
855.131584 0.6880 0.6910 0.6970 0.7010 0.7040
858.352941 0.7080 0.7110 0.7170 0.7180 0.7190
861.574298 0.7190 0.7200 0.7200 0.7210 0.7210
864.795656 0.7210 0.7220 0.7220 0.7220 0.7220
868.017013 0.7220 0.7210 0.7190 0.7170 0.7150
871.238370 0.7130 0.7080 0.7040 0.7010 0.6990
874.459727 0.6950 0.6910 0.6860 0.6800 0.6770
877.681085 0.6770 0.6740 0.6730 0.6730 0.6720
880.902442 0.6730 0.6740 0.6760 0.6760 0.6780
884.123799 0.6800 0.6840 0.6860 0.6880 0.6920
887.345157 0.6970 0.6970 0.6980 0.7000 0.7070
890.566514 0.7100 0.7110 0.7130 0.7140 0.7180
893.787871 0.7200 0.7220 0.7240 0.7260 0.7270
897.009229 0.7290 0.7310 0.7340 0.7340 0.7340
900.230586 0.7340 0.7340 0.7340 0.7340 0.7330
903.451943 0.7320 0.7320 0.7310 0.7310 0.7300
906.673300 0.7290 0.7280 0.7270 0.7260 0.7250
909.894658 0.7250 0.7240 0.7240 0.7230 0.7220
913.116015 0.7210 0.7200 0.7200 0.7190 0.7180
916.337372 0.7180 0.7170 0.7170 0.7160 0.7150
919.558730 0.7130 0.7080 0.7050 0.7020 0.7010
922.780087 0.6990 0.6950 0.6900 0.6870 0.6810
926.001444 0.6760 0.6680 0.6650 0.6650 0.6670
929.222802 0.6850 0.6990 0.7100 0.7150 0.7180
932.444159 0.7230 0.7280 0.7330 0.7340 0.7380
935.665516 0.7380 0.7400 0.7410 0.7420 0.7430
938.886873 0.7440 0.7450 0.7460 0.7470 0.7470
942.108231 0.7480 0.7490 0.7490 0.7490 0.7500
945.329588 0.7500 0.7500 0.7500 0.7500 0.7510
948.550945 0.7510 0.7520 0.7520 0.7510 0.7500
951.772303 0.7500 0.7500 0.7500 0.7490 0.7480
954.993660 0.7480 0.7470 0.7470 0.7460 0.7460
958.215017 0.7460 0.7460 0.7450 0.7450 0.7440
961.436374 0.7430 0.7430 0.7420 0.7410 0.7400
964.657732 0.7400 0.7390 0.7380 0.7370 0.7350
967.879089 0.7330 0.7320 0.7300 0.7290 0.7290
971.100446 0.7280 0.7270 0.7270 0.7250 0.7240
974.321804 0.7240 0.7240 0.7220 0.7210 0.7190
977.543161 0.7190 0.7170 0.7160 0.7140 0.7130
980.764518 0.7110 0.7090 0.7080 0.7060 0.7040
983.985876 0.7000 0.6990 0.6990 0.6960 0.6950
987.207233 0.6930 0.6920 0.6900 0.6870 0.6840
990.428590 0.6800 0.6760 0.6720 0.6690 0.6660
993.649947 0.6640 0.6600 0.6530 0.6470 0.6420
996.871305 0.6420 0.6400 0.6380 0.6370 0.6350
1000.092662 0.6330 0.6310 0.6280 0.6260 0.6240
1003.314019 0.6210 0.6190 0.6150 0.6110 0.6080
1006.535377 0.6070 0.6010 0.5990 0.5970 0.5910
1009.756734 0.5880 0.5800 0.5760 0.5740 0.5740
1012.978091 0.5740 0.5720 0.5710 0.5700 0.5690
1016.199448 0.5690 0.5690 0.5680 0.5670 0.5650
1019.420806 0.5630 0.5600 0.5550 0.5510 0.5440
1022.642163 0.5400 0.5340 0.5300 0.5220 0.5120
1025.863520 0.5010 0.4970 0.4890 0.4750 0.4501
1029.084878 0.4310 0.4190 0.3960 0.3830 0.3750
1032.306235 0.3680 0.3510 0.3400 0.3270 0.3180
1035.527592 0.3080 0.3060 0.3040 0.3040 0.3050
1038.748950 0.3160 0.3270 0.3410 0.3590 0.3700
1041.970307 0.3810 0.4020 0.4180 0.4340 0.4440
1045.191664 0.4550 0.4660 0.4720 0.4889 0.5000
1048.413021 0.5050 0.5260 0.5430 0.5550 0.5590
1051.634379 0.5640 0.5690 0.5780 0.5810 0.5900
1054.855736 0.6010 0.6040 0.6100 0.6150 0.6180
1058.077093 0.6200 0.6270 0.6310 0.6330 0.6400
1061.298451 0.6420 0.6470 0.6510 0.6540 0.6580
1064.519808 0.6610 0.6680 0.6700 0.6720 0.6730
1067.741165 0.6760 0.6770 0.6820 0.6850 0.6880
1070.962523 0.6920 0.6940 0.6970 0.6980 0.6990
1074.183880 0.6990 0.7010 0.7060 0.7080 0.7080
1077.405237 0.7090 0.7110 0.7130 0.7170 0.7170
1080.626594 0.7180 0.7180 0.7180 0.7180 0.7180
1083.847952 0.7180 0.7180 0.7180 0.7180 0.7180
1087.069309 0.7190 0.7190 0.7190 0.7190 0.7190
1090.290666 0.7190 0.7190 0.7190 0.7200 0.7200
1093.512024 0.7200 0.7200 0.7210 0.7210 0.7210
1096.733381 0.7220 0.7220 0.7220 0.7220 0.7220
1099.954738 0.7230 0.7230 0.7240 0.7240 0.7240
1103.176095 0.7240 0.7240 0.7250 0.7250 0.7250
1106.397453 0.7250 0.7250 0.7250 0.7260 0.7260
1109.618810 0.7260 0.7260 0.7270 0.7270 0.7270
1112.840167 0.7270 0.7270 0.7270 0.7270 0.7270
1116.061525 0.7280 0.7280 0.7280 0.7280 0.7280
1119.282882 0.7280 0.7280 0.7280 0.7280 0.7280
1122.504239 0.7280 0.7280 0.7280 0.7270 0.7270
1125.725597 0.7270 0.7270 0.7270 0.7270 0.7270
1128.946954 0.7270 0.7270 0.7270 0.7270 0.7260
1132.168311 0.7260 0.7260 0.7250 0.7250 0.7250
1135.389668 0.7250 0.7250 0.7240 0.7240 0.7240
1138.611026 0.7240 0.7230 0.7220 0.7220 0.7220
1141.832383 0.7210 0.7210 0.7200 0.7190 0.7180
1145.053740 0.7180 0.7170 0.7170 0.7160 0.7150
1148.275098 0.7140 0.7140 0.7130 0.7130 0.7120
1151.496455 0.7110 0.7110 0.7110 0.7100 0.7090
1154.717812 0.7090 0.7080 0.7080 0.7060 0.7040
1157.939170 0.7040 0.7040 0.7030 0.7020 0.7010
1161.160527 0.6970 0.6940 0.6900 0.6860 0.6750
1164.381884 0.6700 0.6630 0.6630 0.6670 0.6710
1167.603241 0.6820 0.6900 0.6910 0.6980 0.7090
1170.824599 0.7150 0.7190 0.7210 0.7220 0.7220
1174.045956 0.7220 0.7220 0.7220 0.7230 0.7230
1177.267313 0.7240 0.7240 0.7240 0.7250 0.7250
1180.488671 0.7260 0.7290 0.7290 0.7300 0.7290
1183.710028 0.7290 0.7290 0.7270 0.7250 0.7250
1186.931385 0.7240 0.7220 0.7210 0.7190 0.7180
1190.152742 0.7170 0.7170 0.7170 0.7180 0.7180
1193.374100 0.7200 0.7200 0.7220 0.7230 0.7240
1196.595457 0.7250 0.7250 0.7250 0.7260 0.7260
1199.816814 0.7260 0.7270 0.7270 0.7270 0.7270
1203.038172 0.7270 0.7280 0.7280 0.7290 0.7290
1206.259529 0.7290 0.7300 0.7300 0.7310 0.7310
1209.480886 0.7310 0.7320 0.7320 0.7330 0.7330
1212.702244 0.7330 0.7330 0.7340 0.7340 0.7340
1215.923601 0.7340 0.7340 0.7350 0.7350 0.7350
1219.144958 0.7360 0.7360 0.7360 0.7360 0.7360
1222.366315 0.7360 0.7360 0.7370 0.7370 0.7370
1225.587673 0.7380 0.7380 0.7380 0.7380 0.7380
1228.809030 0.7380 0.7380 0.7390 0.7390 0.7390
1232.030387 0.7390 0.7390 0.7390 0.7390 0.7390
1235.251745 0.7390 0.7390 0.7390 0.7380 0.7380
1238.473102 0.7380 0.7380 0.7380 0.7380 0.7380
1241.694459 0.7380 0.7380 0.7380 0.7370 0.7370
1244.915817 0.7360 0.7360 0.7360 0.7360 0.7360
1248.137174 0.7360 0.7360 0.7360 0.7360 0.7360
1251.358531 0.7350 0.7350 0.7340 0.7340 0.7340
1254.579888 0.7340 0.7340 0.7340 0.7330 0.7330
1257.801246 0.7330 0.7330 0.7330 0.7330 0.7320
1261.022603 0.7320 0.7310 0.7310 0.7310 0.7310
1264.243960 0.7300 0.7290 0.7290 0.7290 0.7280
1267.465318 0.7280 0.7270 0.7270 0.7270 0.7260
1270.686675 0.7260 0.7260 0.7250 0.7250 0.7250
1273.908032 0.7250 0.7250 0.7240 0.7240 0.7240
1277.129389 0.7240 0.7240 0.7240 0.7230 0.7230
1280.350747 0.7230 0.7230 0.7220 0.7220 0.7220
1283.572104 0.7220 0.7220 0.7220 0.7220 0.7220
1286.793461 0.7220 0.7210 0.7210 0.7210 0.7200
1290.014819 0.7200 0.7180 0.7170 0.7170 0.7160
1293.236176 0.7160 0.7150 0.7150 0.7140 0.7130
1296.457533 0.7110 0.7110 0.7100 0.7100 0.7090
1299.678891 0.7090 0.7090 0.7080 0.7080 0.7080
1302.900248 0.7070 0.7070 0.7060 0.7060 0.7060
1306.121605 0.7050 0.7040 0.7040 0.7040 0.7040
1309.342962 0.7030 0.7030 0.7020 0.7020 0.7010
1312.564320 0.7010 0.7000 0.7000 0.6990 0.6990
1315.785677 0.6970 0.6960 0.6940 0.6930 0.6920
1319.007034 0.6910 0.6900 0.6880 0.6870 0.6870
1322.228392 0.6860 0.6860 0.6860 0.6850 0.6850
1325.449749 0.6850 0.6850 0.6840 0.6840 0.6830
1328.671106 0.6830 0.6810 0.6790 0.6770 0.6750
1331.892464 0.6730 0.6720 0.6700 0.6690 0.6680
1335.113821 0.6670 0.6650 0.6610 0.6590 0.6590
1338.335178 0.6580 0.6570 0.6560 0.6560 0.6550
1341.556535 0.6530 0.6490 0.6450 0.6400 0.6390
1344.777893 0.6390 0.6360 0.6310 0.6290 0.6260
1347.999250 0.6220 0.6190 0.6150 0.6100 0.6030
1351.220607 0.5990 0.5940 0.5900 0.5850 0.5810
1354.441965 0.5760 0.5710 0.5640 0.5560 0.5480
1357.663322 0.5380 0.5260 0.5160 0.5110 0.5040
1360.884679 0.5020 0.5000 0.4990 0.4990 0.4960
1364.106036 0.4920 0.4910 0.4910 0.4820 0.4790
1367.327394 0.4280 0.4000 0.3651 0.3161 0.2881
1370.548751 0.2730 0.2590 0.2450 0.2310 0.2310
1373.770108 0.2500 0.2700 0.2800 0.2880 0.3089
1376.991466 0.3250 0.3400 0.3530 0.3660 0.3830
1380.212823 0.4020 0.4090 0.4160 0.4200 0.4270
1383.434180 0.4330 0.4410 0.4460 0.4510 0.4600
1386.655538 0.4660 0.4690 0.4700 0.4710 0.4730
1389.876895 0.4730 0.4740 0.4750 0.4750 0.4750
1393.098252 0.4750 0.4760 0.4760 0.4760 0.4760
1396.319609 0.4760 0.4760 0.4760 0.4760 0.4760
1399.540967 0.4760 0.4750 0.4750 0.4750 0.4750
1402.762324 0.4740 0.4730 0.4710 0.4710 0.4690
1405.983681 0.4680 0.4660 0.4630 0.4610 0.4620
1409.205039 0.4590 0.4560 0.4480 0.4430 0.4410
1412.426396 0.4390 0.4370 0.4350 0.4340 0.4320
1415.647753 0.4300 0.4280 0.4280 0.4270 0.4270
1418.869111 0.4270 0.4270 0.4280 0.4290 0.4300
1422.090468 0.4300 0.4300 0.4290 0.4280 0.4280
1425.311825 0.4260 0.4230 0.4200 0.4180 0.4120
1428.533182 0.4050 0.4000 0.3910 0.3780 0.3670
1431.754540 0.3610 0.3520 0.3410 0.3290 0.3190
1434.975897 0.3060 0.3000 0.2910 0.2750 0.2700
1438.197254 0.2660 0.2580 0.2470 0.2400 0.2350
1441.418612 0.2340 0.2350 0.2360 0.2390 0.2410
1444.639969 0.2440 0.2490 0.2490 0.2510 0.2520
1447.861326 0.2540 0.2550 0.2560 0.2560 0.2550
1451.082683 0.2510 0.2490 0.2490 0.2460 0.2410
1454.304041 0.2320 0.2290 0.2270 0.2170 0.2110
1457.525398 0.2020 0.1970 0.1910 0.1810 0.1690
1460.746755 0.1640 0.1580 0.1530 0.1470 0.1410
1463.968113 0.1360 0.1310 0.1280 0.1240 0.1200
1467.189470 0.1180 0.1170 0.1170 0.1160 0.1160
1470.410827 0.1170 0.1170 0.1170 0.1180 0.1180
1473.632185 0.1190 0.1210 0.1230 0.1300 0.1350
1476.853542 0.1400 0.1440 0.1520 0.1590 0.1660
1480.074899 0.1720 0.1780 0.1830 0.1880 0.1930
1483.296256 0.1990 0.2040 0.2090 0.2150 0.2290
1486.517614 0.2330 0.2390 0.2430 0.2460 0.2590
1489.738971 0.2660 0.2760 0.2780 0.2840 0.2910
1492.960328 0.2960 0.3000 0.3030 0.3090 0.3130
1496.181686 0.3170 0.3210 0.3250 0.3300 0.3380
1499.403043 0.3440 0.3480 0.3500 0.3520 0.3530
1502.624400 0.3540 0.3550 0.3570 0.3600 0.3610
1505.845758 0.3610 0.3600 0.3600 0.3570 0.3570
1509.067115 0.3540 0.3500 0.3480 0.3470 0.3480
1512.288472 0.3500 0.3560 0.3610 0.3700 0.3760
1515.509829 0.3830 0.3890 0.3950 0.4000 0.4050
1518.731187 0.4090 0.4120 0.4190 0.4210 0.4230
1521.952544 0.4250 0.4260 0.4270 0.4310 0.4320
1525.173901 0.4340 0.4350 0.4380 0.4390 0.4400
1528.395259 0.4430 0.4440 0.4500 0.4500 0.4510
1531.616616 0.4530 0.4550 0.4560 0.4570 0.4570
1534.837973 0.4590 0.4600 0.4620 0.4640 0.4650
1538.059330 0.4670 0.4690 0.4710 0.4720 0.4730
1541.280688 0.4730 0.4740 0.4750 0.4750 0.4760
1544.502045 0.4760 0.4780 0.4790 0.4800 0.4810
1547.723402 0.4820 0.4850 0.4860 0.4880 0.4890
1550.944760 0.4900 0.4910 0.4920 0.4930 0.4950
1554.166117 0.4960 0.4960 0.4990 0.5010 0.5020
1557.387474 0.5030 0.5040 0.5050 0.5060 0.5070
1560.608832 0.5080 0.5080 0.5090 0.5090 0.5090
1563.830189 0.5090 0.5090 0.5100 0.5100 0.5100
1567.051546 0.5090 0.5090 0.5080 0.5080 0.5070
1570.272903 0.5070 0.5040 0.5010 0.4990 0.4980
1573.494261 0.4930 0.4870 0.4830 0.4780 0.4750
1576.715618 0.4710 0.4710 0.4700 0.4710 0.4710
1579.936975 0.4750 0.4800 0.4840 0.4870 0.4890
1583.158333 0.4910 0.4930 0.4940 0.4940 0.4940
1586.379690 0.4930 0.4920 0.4900 0.4870 0.4860
1589.601047 0.4760 0.4660 0.4590 0.4470 0.4410
1592.822405 0.4340 0.4230 0.4180 0.4090 0.4020
1596.043762 0.3839 0.3559 0.3229 0.2880 0.2540
1599.265119 0.2220 0.1970 0.1450 0.1060 0.0800
1602.486476 0.0600 0.0440 0.0290 0.0110 0.0050
1605.707834 0.0040 0.0030 0.0030 0.0040 0.0170
1608.929191 0.0210 0.0460 0.0770 0.1150 0.1800
1612.150548 0.2210 0.2500 0.2760 0.3119 0.3659
1615.371906 0.3981 0.4300 0.4450 0.4600 0.4890
1618.593263 0.5140 0.5330 0.5510 0.5530 0.5530
1621.814620 0.5530 0.5520 0.5450 0.5350 0.5270
1625.035977 0.5260 0.5260 0.5400 0.5480 0.5510
1628.257335 0.5730 0.5890 0.6150 0.6370 0.6530
1631.478692 0.6690 0.6760 0.6830 0.6880 0.6930
1634.700049 0.6990 0.7010 0.7040 0.7070 0.7090
1637.921407 0.7120 0.7140 0.7160 0.7170 0.7180
1641.142764 0.7200 0.7210 0.7220 0.7230 0.7240
1644.364121 0.7250 0.7260 0.7270 0.7280 0.7290
1647.585479 0.7310 0.7310 0.7310 0.7320 0.7320
1650.806836 0.7330 0.7330 0.7320 0.7320 0.7320
1654.028193 0.7310 0.7300 0.7300 0.7290 0.7290
1657.249550 0.7290 0.7300 0.7310 0.7310 0.7340
1660.470908 0.7360 0.7380 0.7390 0.7390 0.7400
1663.692265 0.7400 0.7390 0.7390 0.7390 0.7380
1666.913622 0.7370 0.7360 0.7360 0.7350 0.7340
1670.134980 0.7340 0.7340 0.7340 0.7340 0.7340
1673.356337 0.7340 0.7340 0.7340 0.7340 0.7340
1676.577694 0.7330 0.7310 0.7290 0.7270 0.7250
1679.799051 0.7250 0.7250 0.7240 0.7250 0.7250
1683.020409 0.7270 0.7290 0.7300 0.7330 0.7340
1686.241766 0.7360 0.7390 0.7400 0.7420 0.7430
1689.463123 0.7450 0.7460 0.7470 0.7470 0.7470
1692.684481 0.7470 0.7460 0.7440 0.7430 0.7420
1695.905838 0.7410 0.7390 0.7360 0.7330 0.7280
1699.127195 0.7230 0.7170 0.7110 0.7040 0.6950
1702.348553 0.6870 0.6770 0.6670 0.6640 0.6600
1705.569910 0.6500 0.6400 0.6310 0.6200 0.6150
1708.791267 0.6100 0.6040 0.5990 0.5940 0.5890
1712.012624 0.5880 0.5880 0.5940 0.5980 0.6030
1715.233982 0.6060 0.6110 0.6140 0.6220 0.6300
1718.455339 0.6380 0.6440 0.6510 0.6580 0.6660
1721.676696 0.6740 0.6790 0.6850 0.6900 0.6950
1724.898054 0.6990 0.7040 0.7080 0.7120 0.7160
1728.119411 0.7200 0.7220 0.7250 0.7270 0.7300
1731.340768 0.7310 0.7320 0.7340 0.7340 0.7310
1734.562126 0.7270 0.7240 0.7220 0.7170 0.7130
1737.783483 0.7060 0.7000 0.6910 0.6820 0.6700
1741.004840 0.6570 0.6520 0.6510 0.6520 0.6600
1744.226197 0.6620 0.6650 0.6720 0.6800 0.6870
1747.447555 0.6930 0.6950 0.6950 0.6960 0.6960
1750.668912 0.6960 0.6950 0.6850 0.6770 0.6730
1753.890269 0.6670 0.6630 0.6590 0.6530 0.6490
1757.111627 0.6440 0.6390 0.6350 0.6350 0.6340
1760.332984 0.6350 0.6360 0.6380 0.6390 0.6460
1763.554341 0.6490 0.6530 0.6610 0.6640 0.6670
1766.775698 0.6740 0.6790 0.6850 0.6880 0.6920
1769.997056 0.6960 0.7020 0.7090 0.7150 0.7200
1773.218413 0.7220 0.7250 0.7310 0.7360 0.7400
1776.439770 0.7410 0.7470 0.7490 0.7510 0.7520
1779.661128 0.7540 0.7560 0.7610 0.7650 0.7680
1782.882485 0.7700 0.7720 0.7730 0.7750 0.7760
1786.103842 0.7780 0.7800 0.7800 0.7810 0.7810
1789.325200 0.7820 0.7840 0.7850 0.7860 0.7880
1792.546557 0.7890 0.7900 0.7910 0.7920 0.7930
1795.767914 0.7930 0.7930 0.7930 0.7940 0.7950
1798.989271 0.7950 0.7950 0.7950 0.7950 0.7960
1802.210629 0.7960 0.7960 0.7950 0.7950 0.7950
1805.431986 0.7950 0.7950 0.7950 0.7930 0.7930
1808.653343 0.7930 0.7930 0.7920 0.7920 0.7910
1811.874701 0.7910 0.7910 0.7910 0.7920 0.7920
1815.096058 0.7930 0.7930 0.7940 0.7950 0.7950
1818.317415 0.7950 0.7960 0.7960 0.7960 0.7960
1821.538773 0.7960 0.7960 0.7960 0.7960 0.7950
1824.760130 0.7950 0.7950 0.7940 0.7930 0.7930
1827.981487 0.7930 0.7920 0.7910 0.7900 0.7870
1831.202844 0.7850 0.7850 0.7840 0.7820 0.7810
1834.424202 0.7790 0.7790 0.7790 0.7780 0.7790
1837.645559 0.7790 0.7810 0.7810 0.7820 0.7820
1840.866916 0.7840 0.7860 0.7880 0.7890 0.7900
1844.088274 0.7900 0.7910 0.7910 0.7910 0.7920
1847.309631 0.7930 0.7930 0.7930 0.7930 0.7930
1850.530988 0.7930 0.7930 0.7930 0.7920 0.7920
1853.752345 0.7910 0.7910 0.7910 0.7910 0.7900
1856.973703 0.7900 0.7900 0.7900 0.7890 0.7890
1860.195060 0.7890 0.7880 0.7870 0.7870 0.7870
1863.416417 0.7870 0.7860 0.7840 0.7830 0.7820
1866.637775 0.7810 0.7800 0.7790 0.7790 0.7770
1869.859132 0.7770 0.7760 0.7750 0.7740 0.7740
1873.080489 0.7730 0.7720 0.7720 0.7720 0.7710
1876.301847 0.7710 0.7700 0.7700 0.7700 0.7690
1879.523204 0.7690 0.7690 0.7690 0.7700 0.7710
1882.744561 0.7730 0.7740 0.7740 0.7740 0.7740
1885.965918 0.7750 0.7750 0.7750 0.7750 0.7750
1889.187276 0.7740 0.7740 0.7740 0.7730 0.7730
1892.408633 0.7730 0.7740 0.7740 0.7740 0.7740
1895.629990 0.7750 0.7750 0.7760 0.7770 0.7770
1898.851348 0.7780 0.7790 0.7820 0.7840 0.7840
1902.072705 0.7840 0.7830 0.7830 0.7830 0.7820
1905.294062 0.7820 0.7820 0.7810 0.7810 0.7800
1908.515420 0.7790 0.7780 0.7780 0.7740 0.7730
1911.736777 0.7710 0.7700 0.7700 0.7700 0.7700
1914.958134 0.7680 0.7670 0.7660 0.7660 0.7650
1918.179491 0.7650 0.7640 0.7640 0.7640 0.7640
1921.400849 0.7640 0.7650 0.7650 0.7650 0.7660
1924.622206 0.7660 0.7660 0.7670 0.7680 0.7690
1927.843563 0.7700 0.7700 0.7710 0.7720 0.7720
1931.064921 0.7730 0.7740 0.7740 0.7750 0.7760
1934.286278 0.7800 0.7810 0.7820 0.7820 0.7830
1937.507635 0.7830 0.7840 0.7840 0.7840 0.7840
1940.728992 0.7840 0.7850 0.7850 0.7850 0.7840
1943.950350 0.7840 0.7840 0.7840 0.7840 0.7830
1947.171707 0.7820 0.7820 0.7800 0.7790 0.7770
1950.393064 0.7770 0.7750 0.7750 0.7750 0.7760
1953.614422 0.7770 0.7780 0.7790 0.7800 0.7810
1956.835779 0.7820 0.7830 0.7850 0.7870 0.7900
1960.057136 0.7910 0.7930 0.7950 0.7950 0.7960
1963.278494 0.7960 0.7960 0.7970 0.7970 0.7970
1966.499851 0.7970 0.7970 0.7970 0.7970 0.7970
1969.721208 0.7970 0.7980 0.7980 0.7980 0.7980
1972.942565 0.7980 0.7990 0.7990 0.7990 0.8000
1976.163923 0.8000 0.8000 0.8000 0.8000 0.8000
1979.385280 0.8010 0.8010 0.8010 0.8010 0.8010
1982.606637 0.8010 0.8010 0.8010 0.8010 0.8010
1985.827995 0.8010 0.8010 0.8010 0.8010 0.8010
1989.049352 0.8010 0.8010 0.8010 0.8000 0.8000
1992.270709 0.8000 0.8000 0.8000 0.8000 0.8000
1995.492067 0.8000 0.8000 0.8000 0.7990 0.7990
1998.713424 0.7980 0.7980 0.7980 0.7980 0.7980
2001.934781 0.7980 0.7980 0.7980 0.7980 0.7980
2005.156138 0.7980 0.7980 0.7980 0.7980 0.7980
2008.377496 0.7980 0.7980 0.7980 0.7980 0.7980
2011.598853 0.7980 0.7980 0.7980 0.7980 0.7980
2014.820210 0.7980 0.7981 0.7984 0.7986 0.7989
2018.041568 0.7990 0.7990 0.7990 0.7990 0.7990
2021.262925 0.7990 0.7990 0.7990 0.7990 0.7990
2024.484282 0.7990 0.7990 0.7990 0.7990 0.7990
2027.705639 0.7990 0.7990 0.7990 0.7990 0.7990
2030.926997 0.7993 0.7995 0.7998 0.8000 0.8000
2034.148354 0.8000 0.8000 0.8000 0.8000 0.8000
2037.369711 0.8000 0.8001 0.8003 0.8006 0.8008
2040.591069 0.8011 0.8013 0.8016 0.8018 0.8020
2043.812426 0.8020 0.8020 0.8020 0.8019 0.8016
2047.033783 0.8014 0.8011 0.8009 0.8006 0.8003
2050.255141 0.8001 0.8000 0.8000 0.8000 0.8000
2053.476498 0.8000 0.8000 0.8000 0.8000 0.8000
2056.697855 0.8000 0.8000 0.8000 0.8000 0.8000
2059.919212 0.8000 0.8000 0.7998 0.7995 0.7992
2063.140570 0.7990 0.7990 0.7990 0.7990 0.7990
2066.361927 0.7990 0.7990 0.7990 0.7990 0.7990
2069.583284 0.7990 0.7990 0.7990 0.7990 0.7990
2072.804642 0.7990 0.7990 0.7990 0.7990 0.7990
2076.025999 0.7990 0.7990 0.7990 0.7990 0.7990
2079.247356 0.7990 0.7990 0.7990 0.7990 0.7990
2082.468714 0.7990 0.7990 0.7990 0.7990 0.7990
2085.690071 0.7990 0.7990 0.7990 0.7990 0.7990
2088.911428 0.7990 0.7990 0.7990 0.7990 0.7992
2092.132785 0.7995 0.7998 0.8000 0.8000 0.8000
2095.354143 0.8000 0.8000 0.7997 0.7995 0.7992
2098.575500 0.7990 0.7990 0.7990 0.7990 0.7990
2101.796857 0.7990 0.7990 0.7990 0.7990 0.7990
2105.018215 0.7990 0.7990 0.7990 0.7990 0.7990
2108.239572 0.7990 0.7990 0.7990 0.7990 0.7990
2111.460929 0.7990 0.7990 0.7990 0.7990 0.7990
2114.682286 0.7990 0.7990 0.7990 0.7990 0.7990
2117.903644 0.7990 0.7990 0.7990 0.7990 0.7990
2121.125001 0.7990 0.7990 0.7990 0.7990 0.7990
2124.346358 0.7990 0.7990 0.7990 0.7990 0.7990
2127.567716 0.7990 0.7990 0.7991 0.7993 0.7996
2130.789073 0.7998 0.8000 0.8000 0.8000 0.8000
2134.010430 0.8000 0.8000 0.8000 0.8000 0.8000
2137.231788 0.8000 0.8000 0.8000 0.8000 0.8000
2140.453145 0.8000 0.8000 0.8000 0.8000 0.8000
2143.674502 0.8000 0.8002 0.8004 0.8007 0.8009
2146.895859 0.8012 0.8015 0.8017 0.8020 0.8020
2150.117217 0.8020 0.8020 0.8020 0.8020 0.8020
2153.338574 0.8020 0.8020 0.8020 0.8020 0.8020
2156.559931 0.8020 0.8020 0.8020 0.8020 0.8020
2159.781289 0.8020 0.8020 0.8020 0.8020 0.8020
2163.002646 0.8020 0.8020 0.8019 0.8017 0.8014
2166.224003 0.8011 0.8010 0.8010 0.8010 0.8010
2169.445361 0.8010 0.8010 0.8010 0.8010 0.8008
2172.666718 0.8006 0.8003 0.8001 0.8000 0.8000
2175.888075 0.8000 0.8000 0.8000 0.8000 0.8000
2179.109432 0.8000 0.8000 0.8000 0.8000 0.8000
2182.330790 0.8000 0.8000 0.8000 0.8000 0.8000
2185.552147 0.8000 0.8000 0.8000 0.8000 0.8000
2188.773504 0.8000 0.8000 0.8000 0.8000 0.8000
2191.994862 0.8000 0.8000 0.8000 0.8000 0.7999
2195.216219 0.7997 0.7994 0.7991 0.7989 0.7986
2198.437576 0.7984 0.7981 0.7979 0.7976 0.7974
2201.658933 0.7971 0.7970 0.7970 0.7970 0.7970
2204.880291 0.7966 0.7961 0.7956 0.7951 0.7950
2208.101648 0.7950 0.7950 0.7950 0.7948 0.7945
2211.323005 0.7943 0.7940 0.7938 0.7935 0.7932
2214.544363 0.7930 0.7930 0.7930 0.7930 0.7930
2217.765720 0.7930 0.7930 0.7930 0.7929 0.7924
2220.987077 0.7919 0.7914 0.7909 0.7907 0.7904
2224.208435 0.7902 0.7898 0.7893 0.7888 0.7883
2227.429792 0.7879 0.7876 0.7874 0.7871 0.7869
2230.651149 0.7866 0.7864 0.7861 0.7860 0.7860
2233.872506 0.7860 0.7860 0.7858 0.7856 0.7853
2237.093864 0.7851 0.7848 0.7845 0.7843 0.7840
2240.315221 0.7840 0.7840 0.7840 0.7840 0.7838
2243.536578 0.7835 0.7833 0.7830 0.7830 0.7830
2246.757936 0.7830 0.7830 0.7833 0.7835 0.7838
2249.979293 0.7841 0.7846 0.7851 0.7856 0.7862
2253.200650 0.7870 0.7878 0.7885 0.7892 0.7897
2256.422008 0.7902 0.7907 0.7911 0.7914 0.7916
2259.643365 0.7919 0.7921 0.7924 0.7926 0.7929
2262.864722 0.7930 0.7930 0.7930 0.7930 0.7930
2266.086079 0.7930 0.7930 0.7930 0.7930 0.7930
2269.307437 0.7930 0.7930 0.7932 0.7935 0.7937
2272.528794 0.7940 0.7940 0.7940 0.7940 0.7940
2275.750151 0.7937 0.7935 0.7932 0.7930 0.7930
2278.971509 0.7930 0.7930 0.7929 0.7927 0.7924
2282.192866 0.7922 0.7919 0.7917 0.7914 0.7912
2285.414223 0.7910 0.7910 0.7910 0.7910 0.7909
2288.635580 0.7906 0.7904 0.7901 0.7900 0.7900
2291.856938 0.7900 0.7900 0.7894 0.7884 0.7874
2295.078295 0.7863 0.7851 0.7839 0.7826 0.7813
2298.299652 0.7799 0.7783 0.7768 0.7753 0.7737
2301.521010 0.7722 0.7706 0.7691 0.7678 0.7665
2304.742367 0.7652 0.7640 0.7627 0.7614 0.7601
2307.963724 0.7590 0.7590 0.7590 0.7590 0.7590
2311.185082 0.7587 0.7584 0.7582 0.7581 0.7583
2314.406439 0.7586 0.7588 0.7592 0.7597 0.7602
2317.627796 0.7607 0.7614 0.7625 0.7635 0.7645
2320.849153 0.7655 0.7665 0.7675 0.7686 0.7699
2324.070511 0.7714 0.7729 0.7745 0.7760 0.7776
2327.291868 0.7791 0.7807 0.7812 0.7815 0.7817
2330.513225 0.7820 0.7822 0.7825 0.7827 0.7830
2333.734583 0.7832 0.7835 0.7837 0.7840 0.7840
2336.955940 0.7840 0.7840 0.7840 0.7840 0.7840
2340.177297 0.7840 0.7840 0.7840 0.7840 0.7840
2343.398654 0.7840 0.7840 0.7840 0.7840 0.7840
2346.620012 0.7840 0.7840 0.7840 0.7840 0.7840
2349.841369 0.7840 0.7840 0.7840 0.7840 0.7840
2353.062726 0.7840 0.7838 0.7836 0.7833 0.7831
2356.284084 0.7828 0.7826 0.7823 0.7821 0.7820
2359.505441 0.7820 0.7820 0.7820 0.7820 0.7820
2362.726798 0.7820 0.7820 0.7815 0.7810 0.7805
2365.948156 0.7800 0.7797 0.7795 0.7792 0.7790
2369.169513 0.7787 0.7785 0.7782 0.7780 0.7777
2372.390870 0.7775 0.7772 0.7769 0.7767 0.7764
2375.612227 0.7762 0.7759 0.7757 0.7754 0.7751
2378.833585 0.7749 0.7746 0.7744 0.7741 0.7740
2382.054942 0.7740 0.7740 0.7740 0.7737 0.7732
2385.276299 0.7727 0.7722 0.7717 0.7711 0.7706
2388.497657 0.7701 0.7696 0.7691 0.7686 0.7681
2391.719014 0.7678 0.7675 0.7673 0.7670 0.7668
2394.940371 0.7665 0.7663 0.7660 0.7657 0.7655
2398.161729 0.7652 0.7650 0.7650 0.7650 0.7650
2401.383086 0.7651 0.7659 0.7667 0.7674 0.7681
2404.604443 0.7683 0.7686 0.7688 0.7689 0.7687
2407.825800 0.7684 0.7681 0.7679 0.7676 0.7674
2411.047158 0.7671 0.7670 0.7670 0.7670 0.7670
2414.268515 0.7669 0.7666 0.7663 0.7661 0.7658
2417.489872 0.7656 0.7653 0.7651 0.7648 0.7646
2420.711230 0.7643 0.7640 0.7638 0.7635 0.7633
2423.932587 0.7630 0.7628 0.7625 0.7623 0.7620
2427.153944 0.7617 0.7615 0.7612 0.7610 0.7607
2430.375301 0.7605 0.7602 0.7600 0.7597 0.7594
2433.596659 0.7592 0.7589 0.7587 0.7584 0.7582
2436.818016 0.7580 0.7580 0.7580 0.7580 0.7581
2440.039373 0.7584 0.7586 0.7589 0.7592 0.7598
2443.260731 0.7603 0.7608 0.7610 0.7610 0.7610
2446.482088 0.7610 0.7608 0.7606 0.7603 0.7601
2449.703445 0.7598 0.7596 0.7593 0.7591 0.7588
2452.924803 0.7585 0.7583 0.7580 0.7580 0.7580
2456.146160 0.7580 0.7580 0.7575 0.7570 0.7565
2459.367517 0.7560 0.7557 0.7555 0.7552 0.7550
2462.588874 0.7550 0.7550 0.7550 0.7550 0.7550
2465.810232 0.7550 0.7550 0.7551 0.7553 0.7556
2469.031589 0.7558 0.7563 0.7571 0.7578 0.7586
2472.252946 0.7592 0.7598 0.7603 0.7608 0.7613
2475.474304 0.7618 0.7623 0.7628 0.7633 0.7638
2478.695661 0.7644 0.7649 0.7654 0.7659 0.7664
2481.917018 0.7669 0.7676 0.7684 0.7692 0.7699
2485.138376 0.7707 0.7715 0.7722 0.7730 0.7735
2488.359733 0.7740 0.7745 0.7750 0.7755 0.7761
2491.581090 0.7766 0.7771 0.7776 0.7781 0.7786
2494.802447 0.7791 0.7793 0.7796 0.7798 0.7801
2498.023805 0.7803 0.7806 0.7808 0.7811 0.7814
2501.245162 0.7816 0.7819 0.7821 0.7824 0.7826
2504.466519 0.7829 0.7832 0.7834 0.7837 0.7839
2507.687877 0.7840 0.7840 0.7840 0.7840 0.7842
2510.909234 0.7844 0.7847 0.7850 0.7852 0.7855
2514.130591 0.7857 0.7860 0.7860 0.7860 0.7860
2517.351948 0.7860 0.7860 0.7860 0.7860 0.7860
2520.573306 0.7860 0.7860 0.7860 0.7860 0.7863
2523.794663 0.7865 0.7868 0.7869 0.7867 0.7864
2527.016020 0.7862 0.7860 0.7860 0.7860 0.7860
2530.237378 0.7860 0.7860 0.7860 0.7860 0.7857
2533.458735 0.7852 0.7847 0.7842 0.7839 0.7836
2536.680092 0.7833 0.7831 0.7828 0.7826 0.7823
2539.901450 0.7821 0.7818 0.7816 0.7813 0.7810
2543.122807 0.7810 0.7810 0.7810 0.7810 0.7810
2546.344164 0.7810 0.7810 0.7810 0.7810 0.7810
2549.565521 0.7810 0.7810 0.7810 0.7810 0.7810
2552.786879 0.7810 0.7813 0.7815 0.7818 0.7820
2556.008236 0.7820 0.7820 0.7820 0.7822 0.7827
2559.229593 0.7832 0.7837 0.7842 0.7847 0.7852
2562.450951 0.7857 0.7862 0.7868 0.7873 0.7878
2565.672308 0.7881 0.7884 0.7887 0.7889 0.7892
2568.893665 0.7894 0.7897 0.7899 0.7900 0.7900
2572.115023 0.7900 0.7900 0.7900 0.7900 0.7900
2575.336380 0.7900 0.7898 0.7895 0.7893 0.7890
2578.557737 0.7888 0.7885 0.7882 0.7880 0.7877
2581.779094 0.7875 0.7872 0.7870 0.7870 0.7870
2585.000452 0.7870 0.7869 0.7867 0.7864 0.7862
2588.221809 0.7860 0.7860 0.7860 0.7860 0.7858
2591.443166 0.7853 0.7848 0.7843 0.7838 0.7833
2594.664524 0.7827 0.7822 0.7820 0.7820 0.7820
2597.885881 0.7820 0.7818 0.7816 0.7813 0.7811
2601.107238 0.7810 0.7810 0.7810 0.7810 0.7810
2604.328595 0.7810 0.7810 0.7810 0.7812 0.7815
2607.549953 0.7817 0.7820 0.7820 0.7820 0.7820
2610.771310 0.7820 0.7823 0.7825 0.7828 0.7830
2613.992667 0.7833 0.7835 0.7838 0.7841 0.7846
2617.214025 0.7851 0.7856 0.7861 0.7863 0.7866
2620.435382 0.7868 0.7871 0.7873 0.7876 0.7879
2623.656739 0.7880 0.7880 0.7880 0.7880 0.7877
2626.878097 0.7872 0.7867 0.7862 0.7858 0.7856
2630.099454 0.7853 0.7851 0.7848 0.7846 0.7843
2633.320811 0.7840 0.7836 0.7831 0.7826 0.7821
2636.542168 0.7820 0.7820 0.7820 0.7820 0.7818
2639.763526 0.7815 0.7812 0.7810 0.7807 0.7805
2642.984883 0.7802 0.7800 0.7800 0.7800 0.7800
2646.206240 0.7800 0.7800 0.7800 0.7800 0.7800
2649.427598 0.7800 0.7800 0.7800 0.7800 0.7800
2652.648955 0.7800 0.7800 0.7800 0.7800 0.7800
2655.870312 0.7800 0.7799 0.7796 0.7793 0.7791
2659.091670 0.7790 0.7790 0.7790 0.7790 0.7790
2662.313027 0.7790 0.7790 0.7790 0.7790 0.7790
2665.534384 0.7790 0.7790 0.7790 0.7790 0.7790
2668.755741 0.7790 0.7788 0.7785 0.7782 0.7780
2671.977099 0.7777 0.7775 0.7772 0.7769 0.7764
2675.198456 0.7759 0.7754 0.7750 0.7747 0.7744
2678.419813 0.7742 0.7740 0.7740 0.7740 0.7740
2681.641171 0.7740 0.7740 0.7740 0.7740 0.7739
2684.862528 0.7736 0.7734 0.7731 0.7730 0.7730
2688.083885 0.7730 0.7730 0.7730 0.7730 0.7730
2691.305242 0.7730 0.7730 0.7730 0.7730 0.7730
2694.526600 0.7730 0.7730 0.7730 0.7730 0.7728
2697.747957 0.7725 0.7723 0.7720 0.7720 0.7720
2700.969314 0.7720 0.7720 0.7717 0.7715 0.7712
2704.190672 0.7710 0.7707 0.7705 0.7702 0.7699
2707.412029 0.7694 0.7689 0.7684 0.7678 0.7670
2710.633386 0.7662 0.7655 0.7642 0.7622 0.7602
2713.854744 0.7581 0.7561 0.7540 0.7520 0.7500
2717.076101 0.7463 0.7412 0.7361 0.7310 0.7172
2720.297458 0.6978 0.6784 0.6590 0.6442 0.6315
2723.518815 0.6187 0.6060 0.5993 0.5944 0.5896
2726.740173 0.5847 0.5840 0.5840 0.5840 0.5840
2729.961530 0.5866 0.5895 0.5923 0.5950 0.5955
2733.182887 0.5960 0.5966 0.5978 0.6042 0.6106
2736.404245 0.6169 0.6232 0.6288 0.6344 0.6400
2739.625602 0.6463 0.6542 0.6621 0.6700 0.6779
2742.846959 0.6858 0.6937 0.7016 0.7086 0.7145
2746.068317 0.7203 0.7262 0.7299 0.7317 0.7335
2749.289674 0.7353 0.7360 0.7360 0.7360 0.7360
2752.511031 0.7363 0.7369 0.7374 0.7379 0.7384
2755.732388 0.7389 0.7394 0.7399 0.7402 0.7405
2758.953746 0.7407 0.7410 0.7410 0.7410 0.7410
2762.175103 0.7410 0.7410 0.7410 0.7410 0.7410
2765.396460 0.7410 0.7410 0.7410 0.7410 0.7407
2768.617818 0.7404 0.7402 0.7400 0.7400 0.7400
2771.839175 0.7400 0.7399 0.7397 0.7394 0.7391
2775.060532 0.7389 0.7386 0.7384 0.7381 0.7380
2778.281889 0.7380 0.7380 0.7380 0.7379 0.7376
2781.503247 0.7373 0.7371 0.7368 0.7366 0.7363
2784.724604 0.7361 0.7356 0.7351 0.7346 0.7341
2787.945961 0.7340 0.7340 0.7340 0.7340 0.7333
2791.167319 0.7325 0.7317 0.7310 0.7289 0.7269
2794.388676 0.7248 0.7227 0.7202 0.7176 0.7151
2797.610033 0.7125 0.7094 0.7063 0.7033 0.7003
2800.831391 0.6975 0.6947 0.6919 0.6892 0.6869
2804.052748 0.6846 0.6823 0.6803 0.6784 0.6766
2807.274105 0.6748 0.6725 0.6697 0.6669 0.6641
2810.495462 0.6608 0.6572 0.6537 0.6501 0.6463
2813.716820 0.6425 0.6387 0.6349 0.6310 0.6272
2816.938177 0.6234 0.6196 0.6157 0.6119 0.6081
2820.159534 0.6043 0.6014 0.5986 0.5958 0.5930
2823.380892 0.5884 0.5838 0.5792 0.5736 0.5576
2826.602249 0.5415 0.5254 0.5091 0.4915 0.4739
2829.823606 0.4564 0.4418 0.4369 0.4320 0.4271
2833.044964 0.4220 0.4167 0.4113 0.4060 0.4006
2836.266321 0.3953 0.3899 0.3846 0.3787 0.3723
2839.487678 0.3659 0.3595 0.3527 0.3456 0.3384
2842.709035 0.3313 0.3049 0.2695 0.2340 0.1986
2845.930393 0.1863 0.1815 0.1766 0.1718 0.1665
2849.151750 0.1612 0.1558 0.1505 0.1453 0.1402
2852.373107 0.1351 0.1300 0.1300 0.1300 0.1300
2855.594465 0.1303 0.1347 0.1391 0.1435 0.1478
2858.815822 0.1519 0.1560 0.1600 0.1633 0.1643
2862.037179 0.1653 0.1663 0.1678 0.1701 0.1724
2865.258536 0.1747 0.1769 0.1789 0.1810 0.1830
2868.479894 0.1850 0.1871 0.1891 0.1912 0.1927
2871.701251 0.1940 0.1953 0.1966 0.1989 0.2017
2874.922608 0.2045 0.2073 0.2080 0.2080 0.2080
2878.143966 0.2080 0.2074 0.2066 0.2058 0.2051
2881.365323 0.1957 0.1854 0.1751 0.1650 0.1637
2884.586680 0.1624 0.1611 0.1594 0.1532 0.1471
2887.808038 0.1410 0.1353 0.1315 0.1277 0.1238
2891.029395 0.1199 0.1155 0.1112 0.1069 0.1030
2894.250752 0.0999 0.0968 0.0938 0.0901 0.0855
2897.472109 0.0809 0.0763 0.0726 0.0698 0.0670
2900.693467 0.0642 0.0612 0.0582 0.0551 0.0521
2903.914824 0.0492 0.0464 0.0436 0.0408 0.0394
2907.136181 0.0387 0.0379 0.0371 0.0350 0.0327
2910.357539 0.0304 0.0281 0.0280 0.0280 0.0280
2913.578896 0.0280 0.0280 0.0280 0.0280 0.0280
2916.800253 0.0286 0.0291 0.0296 0.0302 0.0312
2920.021611 0.0322 0.0332 0.0349 0.0388 0.0426
2923.242968 0.0464 0.0504 0.0547 0.0591 0.0634
2926.464325 0.0666 0.0681 0.0697 0.0712 0.0720
2929.685682 0.0720 0.0720 0.0720 0.0720 0.0720
2932.907040 0.0720 0.0720 0.0718 0.0716 0.0713
2936.128397 0.0711 0.0706 0.0701 0.0696 0.0691
2939.349754 0.0686 0.0681 0.0676 0.0670 0.0668
2942.571112 0.0665 0.0663 0.0660 0.0657 0.0655
2945.792469 0.0652 0.0650 0.0650 0.0650 0.0650
2949.013826 0.0650 0.0653 0.0655 0.0658 0.0663
2952.235183 0.0676 0.0688 0.0701 0.0713 0.0723
2955.456541 0.0734 0.0744 0.0761 0.0789 0.0818
2958.677898 0.0846 0.0869 0.0887 0.0905 0.0923
2961.899255 0.0942 0.0963 0.0983 0.1003 0.1031
2965.120613 0.1061 0.1092 0.1122 0.1147 0.1170
2968.341970 0.1193 0.1216 0.1241 0.1267 0.1292
2971.563327 0.1318 0.1348 0.1378 0.1409 0.1439
2974.784685 0.1465 0.1491 0.1516 0.1542 0.1570
2978.006042 0.1598 0.1626 0.1654 0.1682 0.1710
2981.227399 0.1738 0.1762 0.1773 0.1783 0.1793
2984.448756 0.1801 0.1803 0.1806 0.1809 0.1812
2987.670114 0.1817 0.1822 0.1827 0.1827 0.1822
2990.891471 0.1817 0.1812 0.1733 0.1601 0.1468
2994.112828 0.1336 0.1265 0.1227 0.1188 0.1150
2997.334186 0.1104 0.1056 0.1008 0.0959 0.0907
3000.555543 0.0853 0.0799 0.0746 0.0697 0.0648
3003.776900 0.0600 0.0552 0.0548 0.0545 0.0542
3006.998257 0.0540 0.0543 0.0545 0.0548 0.0555
3010.219615 0.0586 0.0616 0.0647 0.0680 0.0721
3013.440972 0.0762 0.0803 0.0849 0.0908 0.0967
3016.662329 0.1025 0.1087 0.1153 0.1220 0.1286
3019.883687 0.1358 0.1437 0.1516 0.1595 0.1662
3023.105044 0.1718 0.1774 0.1830 0.1889 0.1950
3026.326401 0.2012 0.2073 0.2136 0.2200 0.2263
3029.547759 0.2327 0.2446 0.2578 0.2711 0.2843
3032.769116 0.3023 0.3209 0.3395 0.3580 0.3670
3035.990473 0.3759 0.3848 0.3936 0.4007 0.4079
3039.211830 0.4150 0.4222 0.4296 0.4370 0.4444
3042.433188 0.4515 0.4579 0.4643 0.4706 0.4768
3045.654545 0.4824 0.4880 0.4936 0.4989 0.5037
3048.875902 0.5086 0.5134 0.5179 0.5220 0.5261
3052.097260 0.5302 0.5340 0.5375 0.5411 0.5447
3055.318617 0.5479 0.5510 0.5540 0.5571 0.5600
3058.539974 0.5628 0.5657 0.5685 0.5713 0.5741
3061.761332 0.5769 0.5797 0.5823 0.5849 0.5874
3064.982689 0.5900 0.5925 0.5951 0.5976 0.6002
3068.204046 0.6027 0.6053 0.6078 0.6104 0.6132
3071.425403 0.6160 0.6188 0.6216 0.6241 0.6267
3074.646761 0.6292 0.6320 0.6353 0.6386 0.6419
3077.868118 0.6453 0.6489 0.6525 0.6561 0.6599
3081.089475 0.6639 0.6680 0.6721 0.6751 0.6772
3084.310833 0.6792 0.6813 0.6833 0.6854 0.6874
3087.532190 0.6895 0.6917 0.6940 0.6963 0.6986
3090.753547 0.6994 0.6999 0.7004 0.7009 0.7026
3093.974904 0.7044 0.7062 0.7080 0.7105 0.7130
3097.196262 0.7156 0.7181 0.7191 0.7201 0.7211
3100.417619 0.7221 0.7231 0.7242 0.7252 0.7262
3103.638976 0.7269 0.7277 0.7285 0.7291 0.7297
3106.860334 0.7302 0.7307 0.7315 0.7328 0.7340
3110.081691 0.7353 0.7364 0.7371 0.7379 0.7387
3113.303048 0.7391 0.7394 0.7397 0.7399 0.7402
3116.524406 0.7404 0.7407 0.7409 0.7417 0.7428
3119.745763 0.7438 0.7448 0.7454 0.7459 0.7464
3122.967120 0.7469 0.7472 0.7475 0.7477 0.7480
3126.188477 0.7480 0.7480 0.7480 0.7480 0.7488
3129.409835 0.7496 0.7503 0.7510 0.7513 0.7515
3132.631192 0.7518 0.7521 0.7526 0.7531 0.7536
3135.852549 0.7541 0.7543 0.7546 0.7548 0.7550
3139.073907 0.7550 0.7550 0.7550 0.7551 0.7554
3142.295264 0.7556 0.7559 0.7561 0.7564 0.7567
3145.516621 0.7569 0.7572 0.7574 0.7577 0.7579
3148.737979 0.7582 0.7584 0.7587 0.7589 0.7592
3151.959336 0.7595 0.7597 0.7600 0.7600 0.7600
3155.180693 0.7600 0.7600 0.7600 0.7600 0.7600
3158.402050 0.7600 0.7603 0.7605 0.7608 0.7610
3161.623408 0.7610 0.7610 0.7610 0.7610 0.7610
3164.844765 0.7610 0.7610 0.7610 0.7610 0.7610
3168.066122 0.7610 0.7611 0.7614 0.7616 0.7619
3171.287480 0.7620 0.7620 0.7620 0.7620 0.7620
3174.508837 0.7620 0.7620 0.7620 0.7620 0.7620
3177.730194 0.7620 0.7620 0.7620 0.7620 0.7620
3180.951551 0.7620 0.7620 0.7620 0.7620 0.7620
3184.172909 0.7620 0.7620 0.7620 0.7620 0.7620
3187.394266 0.7620 0.7620 0.7620 0.7623 0.7625
3190.615623 0.7628 0.7630 0.7630 0.7630 0.7630
3193.836981 0.7630 0.7630 0.7630 0.7630 0.7630
3197.058338 0.7630 0.7630 0.7630 0.7630 0.7630
3200.279695 0.7630 0.7630 0.7630 0.7630 0.7630
3203.501053 0.7630 0.7630 0.7630 0.7630 0.7630
3206.722410 0.7630 0.7630 0.7630 0.7630 0.7630
3209.943767 0.7630 0.7630 0.7630 0.7630 0.7630
3213.165124 0.7630 0.7630 0.7628 0.7625 0.7623
3216.386482 0.7620 0.7620 0.7620 0.7620 0.7620
3219.607839 0.7617 0.7615 0.7612 0.7610 0.7610
3222.829196 0.7610 0.7610 0.7610 0.7610 0.7610
3226.050554 0.7610 0.7610 0.7610 0.7610 0.7610
3229.271911 0.7610 0.7610 0.7610 0.7610 0.7610
3232.493268 0.7610 0.7610 0.7610 0.7610 0.7610
3235.714626 0.7610 0.7610 0.7610 0.7610 0.7610
3238.935983 0.7610 0.7610 0.7610 0.7610 0.7610
3242.157340 0.7612 0.7615 0.7617 0.7620 0.7622
3245.378697 0.7625 0.7627 0.7630 0.7632 0.7635
3248.600055 0.7638 0.7640 0.7643 0.7645 0.7648
3251.821412 0.7650 0.7650 0.7650 0.7650 0.7650
3255.042769 0.7650 0.7650 0.7650 0.7651 0.7653
3258.264127 0.7656 0.7658 0.7660 0.7660 0.7660
3261.485484 0.7660 0.7661 0.7664 0.7666 0.7669
3264.706841 0.7670 0.7670 0.7670 0.7670 0.7670
3267.928198 0.7670 0.7670 0.7670 0.7672 0.7674
3271.149556 0.7677 0.7679 0.7680 0.7680 0.7680
3274.370913 0.7680 0.7680 0.7680 0.7680 0.7680
3277.592270 0.7680 0.7680 0.7680 0.7680 0.7683
3280.813628 0.7685 0.7688 0.7690 0.7690 0.7690
3284.034985 0.7690 0.7690 0.7690 0.7690 0.7690
3287.256342 0.7691 0.7693 0.7696 0.7698 0.7700
3290.477700 0.7700 0.7700 0.7700 0.7700 0.7700
3293.699057 0.7700 0.7700 0.7700 0.7700 0.7700
3296.920414 0.7700 0.7700 0.7700 0.7700 0.7700
3300.141771 0.7702 0.7704 0.7707 0.7709 0.7710
3303.363129 0.7710 0.7710 0.7710 0.7712 0.7715
3306.584486 0.7717 0.7720 0.7720 0.7720 0.7720
3309.805843 0.7720 0.7720 0.7720 0.7720 0.7720
3313.027201 0.7720 0.7720 0.7720 0.7721 0.7723
3316.248558 0.7726 0.7728 0.7730 0.7730 0.7730
3319.469915 0.7730 0.7731 0.7733 0.7736 0.7739
3322.691273 0.7740 0.7740 0.7740 0.7740 0.7740
3325.912630 0.7740 0.7740 0.7740 0.7740 0.7740
3329.133987 0.7740 0.7740 0.7740 0.7740 0.7740
3332.355344 0.7740 0.7740 0.7740 0.7740 0.7740
3335.576702 0.7740 0.7740 0.7740 0.7740 0.7740
3338.798059 0.7740 0.7740 0.7740 0.7737 0.7735
3342.019416 0.7732 0.7730 0.7730 0.7730 0.7730
3345.240774 0.7730 0.7730 0.7730 0.7730 0.7730
3348.462131 0.7730 0.7730 0.7730 0.7729 0.7727
3351.683488 0.7724 0.7721 0.7720 0.7720 0.7720
3354.904845 0.7720 0.7720 0.7720 0.7720 0.7720
3358.126203 0.7720 0.7720 0.7720 0.7720 0.7720
3361.347560 0.7720 0.7720 0.7720 0.7720 0.7720
3364.568917 0.7720 0.7720 0.7720 0.7720 0.7720
3367.790275 0.7720 0.7718 0.7715 0.7713 0.7710
3371.011632 0.7710 0.7710 0.7710 0.7710 0.7710
3374.232989 0.7710 0.7710 0.7710 0.7707 0.7704
3377.454347 0.7702 0.7700 0.7700 0.7700 0.7700
3380.675704 0.7700 0.7700 0.7700 0.7700 0.7699
3383.897061 0.7696 0.7694 0.7691 0.7690 0.7690
3387.118418 0.7690 0.7690 0.7688 0.7686 0.7683
3390.339776 0.7681 0.7680 0.7680 0.7680 0.7680
3393.561133 0.7680 0.7680 0.7680 0.7680 0.7680
3396.782490 0.7680 0.7680 0.7680 0.7680 0.7680
3400.003848 0.7680 0.7680 0.7680 0.7680 0.7680
3403.225205 0.7680 0.7680 0.7680 0.7680 0.7680
3406.446562 0.7680 0.7680 0.7680 0.7680 0.7680
3409.667920 0.7680 0.7680 0.7680 0.7680 0.7680
3412.889277 0.7680 0.7680 0.7680 0.7680 0.7680
3416.110634 0.7680 0.7680 0.7680 0.7680 0.7680
3419.331991 0.7680 0.7680 0.7680 0.7680 0.7680
3422.553349 0.7680 0.7680 0.7680 0.7680 0.7680
3425.774706 0.7680 0.7680 0.7680 0.7680 0.7680
3428.996063 0.7680 0.7680 0.7680 0.7680 0.7680
3432.217421 0.7680 0.7680 0.7680 0.7680 0.7680
3435.438778 0.7680 0.7680 0.7680 0.7680 0.7680
3438.660135 0.7680 0.7680 0.7680 0.7680 0.7680
3441.881492 0.7680 0.7680 0.7680 0.7680 0.7680
3445.102850 0.7680 0.7680 0.7680 0.7680 0.7680
3448.324207 0.7680 0.7680 0.7680 0.7680 0.7680
3451.545564 0.7680 0.7680 0.7680 0.7680 0.7680
3454.766922 0.7680 0.7680 0.7680 0.7680 0.7680
3457.988279 0.7680 0.7680 0.7680 0.7680 0.7680
3461.209636 0.7680 0.7680 0.7680 0.7680 0.7680
3464.430994 0.7683 0.7685 0.7688 0.7690 0.7693
3467.652351 0.7696 0.7698 0.7701 0.7703 0.7706
3470.873708 0.7708 0.7711 0.7713 0.7716 0.7719
3474.095065 0.7720 0.7720 0.7720 0.7720 0.7722
3477.316423 0.7728 0.7733 0.7738 0.7740 0.7740
3480.537780 0.7740 0.7740 0.7742 0.7744 0.7747
3483.759137 0.7749 0.7752 0.7754 0.7757 0.7760
3486.980495 0.7762 0.7765 0.7767 0.7770 0.7770
3490.201852 0.7770 0.7770 0.7770 0.7770 0.7770
3493.423209 0.7770 0.7770 0.7770 0.7770 0.7770
3496.644567 0.7770 0.7770 0.7770 0.7770 0.7770
3499.865924 0.7770 0.7770 0.7770 0.7770 0.7770
3503.087281 0.7770 0.7770 0.7769 0.7766 0.7764
3506.308638 0.7761 0.7759 0.7756 0.7754 0.7751
3509.529996 0.7750 0.7750 0.7750 0.7750 0.7748
3512.751353 0.7746 0.7743 0.7741 0.7734 0.7727
3515.972710 0.7719 0.7711 0.7706 0.7701 0.7696
3519.194068 0.7690 0.7688 0.7685 0.7683 0.7680
3522.415425 0.7680 0.7680 0.7680 0.7680 0.7677
3525.636782 0.7675 0.7672 0.7670 0.7673 0.7675
3528.858139 0.7678 0.7680 0.7680 0.7680 0.7680
3532.079497 0.7682 0.7687 0.7692 0.7697 0.7700
3535.300854 0.7700 0.7700 0.7700 0.7701 0.7704
3538.522211 0.7706 0.7709 0.7712 0.7714 0.7717
3541.743569 0.7719 0.7722 0.7724 0.7727 0.7729
3544.964926 0.7732 0.7734 0.7737 0.7740 0.7742
3548.186283 0.7745 0.7747 0.7750 0.7755 0.7760
3551.407641 0.7765 0.7770 0.7770 0.7770 0.7770
3554.628998 0.7770 0.7770 0.7770 0.7770 0.7770
3557.850355 0.7773 0.7775 0.7778 0.7780 0.7780
3561.071712 0.7780 0.7780 0.7780 0.7780 0.7780
3564.293070 0.7780 0.7780 0.7780 0.7780 0.7780
3567.514427 0.7780 0.7780 0.7780 0.7780 0.7780
3570.735784 0.7780 0.7780 0.7780 0.7780 0.7780
3573.957142 0.7780 0.7780 0.7780 0.7780 0.7780
3577.178499 0.7780 0.7780 0.7780 0.7780 0.7780
3580.399856 0.7782 0.7785 0.7787 0.7790 0.7790
3583.621214 0.7790 0.7790 0.7790 0.7793 0.7795
3586.842571 0.7798 0.7800 0.7800 0.7800 0.7800
3590.063928 0.7801 0.7803 0.7806 0.7808 0.7811
3593.285285 0.7813 0.7816 0.7818 0.7821 0.7824
3596.506643 0.7826 0.7829 0.7832 0.7838 0.7843
3599.728000 0.7848 0.7851 0.7854 0.7857 0.7859
3602.949357 0.7863 0.7868 0.7873 0.7879 0.7880
3606.170715 0.7880 0.7880 0.7880 0.7880 0.7880
3609.392072 0.7880 0.7880 0.7880 0.7880 0.7880
3612.613429 0.7880 0.7882 0.7885 0.7888 0.7890
3615.834786 0.7890 0.7890 0.7890 0.7890 0.7893
3619.056144 0.7895 0.7898 0.7900 0.7900 0.7900
3622.277501 0.7900 0.7900 0.7900 0.7900 0.7900
3625.498858 0.7900 0.7900 0.7900 0.7900 0.7900
3628.720216 0.7900 0.7900 0.7900 0.7901 0.7904
3631.941573 0.7906 0.7909 0.7910 0.7910 0.7910
3635.162930 0.7910 0.7910 0.7910 0.7910 0.7910
3638.384288 0.7910 0.7910 0.7910 0.7910 0.7910
3641.605645 0.7910 0.7910 0.7910 0.7913 0.7915
3644.827002 0.7918 0.7920 0.7920 0.7920 0.7920
3648.048359 0.7920 0.7917 0.7915 0.7912 0.7910
3651.269717 0.7910 0.7910 0.7910 0.7910 0.7910
3654.491074 0.7910 0.7910 0.7910 0.7910 0.7910
3657.712431 0.7910 0.7910 0.7910 0.7910 0.7910
3660.933789 0.7910 0.7910 0.7910 0.7910 0.7910
3664.155146 0.7910 0.7910 0.7910 0.7910 0.7910
3667.376503 0.7910 0.7910 0.7910 0.7910 0.7910
3670.597861 0.7910 0.7910 0.7910 0.7910 0.7910
3673.819218 0.7910 0.7910 0.7910 0.7910 0.7910
3677.040575 0.7910 0.7910 0.7910 0.7910 0.7910
3680.261932 0.7910 0.7910 0.7910 0.7910 0.7910
3683.483290 0.7910 0.7910 0.7910 0.7910 0.7910
3686.704647 0.7910 0.7910 0.7910 0.7911 0.7914
3689.926004 0.7916 0.7919 0.7919 0.7916 0.7913
3693.147362 0.7911 0.7910 0.7910 0.7910 0.7910
3696.368719 0.7912 0.7914 0.7917 0.7919 0.7920
3699.590076 0.7920 0.7920 0.7920 0.7920 0.7920
3702.811433 0.7920 0.7920 0.7920 0.7920 0.7920
3706.032791 0.7920 0.7920 0.7920 0.7920 0.7920
3709.254148 0.7917 0.7915 0.7912 0.7910 0.7910
3712.475505 0.7910 0.7910 0.7910 0.7910 0.7910
3715.696863 0.7910 0.7910 0.7910 0.7910 0.7910
3718.918220 0.7910 0.7910 0.7910 0.7910 0.7910
3722.139577 0.7910 0.7910 0.7910 0.7910 0.7910
3725.360935 0.7910 0.7910 0.7908 0.7906 0.7903
3728.582292 0.7901 0.7900 0.7900 0.7900 0.7900
3731.803649 0.7900 0.7900 0.7900 0.7900 0.7900
3735.025006 0.7900 0.7900 0.7900 0.7900 0.7900
3738.246364 0.7900 0.7900 0.7900 0.7900 0.7900
3741.467721 0.7899 0.7897 0.7894 0.7892 0.7890
3744.689078 0.7890 0.7890 0.7890 0.7890 0.7890
3747.910436 0.7890 0.7890 0.7891 0.7894 0.7896
3751.131793 0.7899 0.7899 0.7896 0.7894 0.7891
3754.353150 0.7890 0.7890 0.7890 0.7890 0.7888
3757.574507 0.7886 0.7883 0.7881 0.7880 0.7880
3760.795865 0.7880 0.7880 0.7880 0.7880 0.7880
3764.017222 0.7880 0.7875 0.7870 0.7865 0.7860
3767.238579 0.7860 0.7860 0.7860 0.7860 0.7860
3770.459937 0.7860 0.7860 0.7860 0.7860 0.7860
3773.681294 0.7860 0.7860 0.7860 0.7860 0.7860
3776.902651 0.7859 0.7857 0.7854 0.7851 0.7850
3780.124009 0.7850 0.7850 0.7850 0.7849 0.7846
3783.345366 0.7844 0.7841 0.7840 0.7840 0.7840
3786.566723 0.7840 0.7840 0.7840 0.7840 0.7840
3789.788080 0.7840 0.7840 0.7840 0.7840 0.7840
3793.009438 0.7840 0.7840 0.7840 0.7840 0.7840
3796.230795 0.7840 0.7840 0.7840 0.7840 0.7840
3799.452152 0.7840 0.7840 0.7840 0.7840 0.7840
3802.673510 0.7837 0.7834 0.7832 0.7830 0.7830
3805.894867 0.7830 0.7830 0.7829 0.7827 0.7824
3809.116224 0.7821 0.7820 0.7820 0.7820 0.7820
3812.337582 0.7820 0.7820 0.7820 0.7820 0.7820
3815.558939 0.7820 0.7820 0.7820 0.7818 0.7816
3818.780296 0.7813 0.7811 0.7808 0.7805 0.7803
3822.001653 0.7800 0.7798 0.7795 0.7793 0.7790
3825.223011 0.7788 0.7785 0.7783 0.7780 0.7780
3828.444368 0.7780 0.7780 0.7780 0.7780 0.7780
3831.665725 0.7780 0.7780 0.7780 0.7780 0.7780
3834.887083 0.7779 0.7777 0.7774 0.7772 0.7770
3838.108440 0.7770 0.7770 0.7770 0.7770 0.7770
3841.329797 0.7770 0.7770 0.7770 0.7770 0.7770
3844.551154 0.7770 0.7770 0.7770 0.7770 0.7770
3847.772512 0.7770 0.7770 0.7770 0.7770 0.7770
3850.993869 0.7770 0.7770 0.7770 0.7768 0.7765
3854.215226 0.7763 0.7760 0.7758 0.7755 0.7753
3857.436584 0.7750 0.7750 0.7750 0.7750 0.7750
3860.657941 0.7747 0.7745 0.7742 0.7740 0.7737
3863.879298 0.7734 0.7732 0.7729 0.7727 0.7724
3867.100656 0.7722 0.7720 0.7720 0.7720 0.7720
3870.322013 0.7720 0.7720 0.7720 0.7720 0.7719
3873.543370 0.7716 0.7714 0.7711 0.7708 0.7706
3876.764727 0.7703 0.7701 0.7697 0.7691 0.7686
3879.986085 0.7681 0.7680 0.7680 0.7680 0.7680
3883.207442 0.7678 0.7675 0.7673 0.7670 0.7668
3886.428799 0.7665 0.7663 0.7660 0.7657 0.7655
3889.650157 0.7652 0.7650 0.7650 0.7650 0.7650
3892.871514 0.7650 0.7650 0.7650 0.7650 0.7649
3896.092871 0.7647 0.7644 0.7642 0.7639 0.7637
3899.314229 0.7634 0.7631 0.7630 0.7630 0.7630
3902.535586 0.7630 0.7630 0.7630 0.7630 0.7630
3905.756943 0.7629 0.7626 0.7623 0.7621 0.7618
3908.978300 0.7616 0.7613 0.7611 0.7610 0.7610
3912.199658 0.7610 0.7610 0.7610 0.7610 0.7610
3915.421015 0.7610 0.7608 0.7605 0.7603 0.7600
3918.642372 0.7597 0.7595 0.7592 0.7589 0.7582
3921.863730 0.7574 0.7566 0.7560 0.7560 0.7560
3925.085087 0.7560 0.7559 0.7554 0.7548 0.7543
3928.306444 0.7538 0.7533 0.7528 0.7523 0.7519
3931.527801 0.7516 0.7514 0.7511 0.7510 0.7510
3934.749159 0.7510 0.7510 0.7510 0.7510 0.7510
3937.970516 0.7510 0.7508 0.7506 0.7503 0.7501
3941.191873 0.7500 0.7500 0.7500 0.7500 0.7500
3944.413231 0.7500 0.7500 0.7500 0.7502 0.7505
3947.634588 0.7507 0.7510 0.7513 0.7515 0.7518
3950.855945 0.7520 0.7523 0.7525 0.7528 0.7530
3954.077303 0.7533 0.7536 0.7538 0.7541 0.7546
3957.298660 0.7551 0.7557 0.7562 0.7567 0.7572
3960.520017 0.7577 0.7583 0.7591 0.7598 0.7606
3963.741374 0.7610 0.7610 0.7610 0.7610 0.7611
3966.962732 0.7614 0.7617 0.7619 0.7622 0.7624
3970.184089 0.7627 0.7629 0.7632 0.7635 0.7637
3973.405446 0.7640 0.7640 0.7640 0.7640 0.7640
3976.626804 0.7640 0.7640 0.7640 0.7640 0.7643
3979.848161 0.7645 0.7648 0.7650 0.7650 0.7650
3983.069518 0.7650 0.7650 0.7650 0.7650 0.7650
3986.290876 0.7650 0.7650 0.7650 0.7650 0.7650
3989.512233 0.7650 0.7650 0.7650
##END=
