##TITLE=CYCLOHEXANE, METHYL
##JCAMP-DX=4.24
##DATA TYPE=INFRARED SPECTRUM
##CLASS=COBLENTZ III
##ORIGIN=DOW CORNING CORP.
##OWNER=COBLENTZ SOCIETY
Collection (C) 2018 copyright by the U.S. Secretary of Commerce
on behalf of the United States of America. All rights reserved.
##DATE=1965/09/13
##NAMES=methylcyclohexane
##CAS REGISTRY NO=108-87-2
##MOLFORM=C7 H14
##SOURCE REFERENCE=COBLENTZ NO. 4313
##$NIST SOURCE=COBLENTZ
##$NIST IMAGE=cob4313
##SPECTROMETER/DATA SYSTEM=PERKIN-ELMER 521 (GRATING)
##INSTRUMENT PARAMETERS=FILTERS AT 3150, 2500, 2000, 1150, 700, 410; GRATING CHANGES AT 2000, 630 CM^-^1
##STATE=SOLUTION (10% IN CCl4 FOR 3800-1300, 10% IN CS2 FOR 1300-650, AND 10% IN CCl4 FOR 650-250 CM^-^1) VERSUS SOLVENT
##PATH LENGTH=0.011, 0.011, AND 0.010 CM (CsBr CELL)
##SAMPLING PROCEDURE=TRANSMISSION
##RESOLUTION=4
##DATA PROCESSING=DIGITIZED BY NIST FROM HARD COPY (FROM TWO SEGMENTS)
##XUNITS=1/CM
##YUNITS=TRANSMITTANCE
##XFACTOR=1.000000
##YFACTOR=1
##DELTAX=1.280005
##FIRSTX=250.24
##LASTX=3795.85
##FIRSTY=0.947
##MAXX=3795.85
##MINX=250.24
##MAXY=0.961
##MINY=0
##NPOINTS=2771
##XYDATA=(X++(Y..Y))
250.240000 0.9470 0.9470 0.9470 0.9460 0.9460
256.640024 0.9460 0.9440 0.9420 0.9460 0.9460
263.040048 0.9460 0.9460 0.9460 0.9440 0.9440
269.440072 0.9440 0.9420 0.9420 0.9420 0.9420
275.840096 0.9440 0.9440 0.9440 0.9440 0.9420
282.240120 0.9420 0.9420 0.9420 0.9400 0.9400
288.640144 0.9400 0.9370 0.9350 0.9340 0.9340
295.040168 0.9340 0.9340 0.9350 0.9390 0.9390
301.440192 0.9350 0.9350 0.9350 0.9350 0.9370
307.840216 0.9370 0.9370 0.9370 0.9370 0.9370
314.240240 0.9370 0.9370 0.9370 0.9370 0.9350
320.640264 0.9350 0.9350 0.9350 0.9340 0.9320
327.040288 0.9320 0.9320 0.9340 0.9370 0.9370
333.440312 0.9350 0.9350 0.9370 0.9370 0.9370
339.840336 0.9350 0.9340 0.9340 0.9350 0.9350
346.240360 0.9370 0.9370 0.9390 0.9390 0.9370
352.640384 0.9370 0.9370 0.9370 0.9370 0.9370
359.040408 0.9390 0.9390 0.9350 0.9350 0.9350
365.440432 0.9370 0.9390 0.9400 0.9400 0.9420
371.840456 0.9420 0.9420 0.9400 0.9400 0.9420
378.240480 0.9440 0.9440 0.9460 0.9580 0.9610
384.640504 0.9610 0.9540 0.9530 0.9510 0.9510
391.040528 0.9510 0.9490 0.9490 0.9490 0.9470
397.440552 0.9470 0.9470 0.9460 0.9420 0.9440
403.840576 0.9440 0.9440 0.9440 0.9460 0.9460
410.240600 0.9460 0.9460 0.9460 0.9470 0.9490
416.640624 0.9490 0.9490 0.9490 0.9470 0.9470
423.040648 0.9470 0.9470 0.9470 0.9460 0.9460
429.440672 0.9460 0.9490 0.9470 0.9460 0.9460
435.840696 0.9420 0.9390 0.9370 0.9350 0.9320
442.240720 0.9320 0.9300 0.9300 0.9280 0.9280
448.640744 0.9280 0.9280 0.9280 0.9300 0.9300
455.040768 0.9270 0.9270 0.9270 0.9250 0.9250
461.440792 0.9270 0.9270 0.9230 0.9210 0.9200
467.840816 0.9180 0.9130 0.9090 0.9040 0.8970
474.240840 0.8950 0.8950 0.8970 0.8990 0.9020
480.640864 0.9070 0.9090 0.9110 0.9110 0.9130
487.040888 0.9130 0.9130 0.9140 0.9140 0.9140
493.440912 0.9140 0.9160 0.9180 0.9180 0.9160
499.840936 0.9180 0.9180 0.9180 0.9180 0.9180
506.240960 0.9180 0.9180 0.9180 0.9160 0.9160
512.640984 0.9140 0.9160 0.9140 0.9140 0.9140
519.041008 0.9130 0.9130 0.9130 0.9130 0.9130
525.441032 0.9130 0.9140 0.9140 0.9140 0.9140
531.841056 0.9140 0.9130 0.9110 0.9070 0.8950
538.241080 0.8880 0.8780 0.8680 0.8680 0.8750
544.641104 0.8830 0.8940 0.9020 0.9070 0.9110
551.041128 0.9140 0.9160 0.9180 0.9200 0.9210
557.441152 0.9210 0.9230 0.9250 0.9270 0.9270
563.841176 0.9270 0.9270 0.9280 0.9320 0.9320
570.241200 0.9320 0.9320 0.9340 0.9340 0.9340
576.641224 0.9350 0.9350 0.9350 0.9370 0.9370
583.041248 0.9370 0.9370 0.9370 0.9370 0.9370
589.441272 0.9370 0.9370 0.9370 0.9350 0.9350
595.841296 0.9340 0.9340 0.9340 0.9350 0.9350
602.241320 0.9370 0.9370 0.9370 0.9370 0.9370
608.641344 0.9370 0.9370 0.9370 0.9350 0.9350
615.041368 0.9350 0.9340 0.9340 0.9340 0.9320
621.441392 0.9320 0.9320 0.9280 0.9270 0.9230
627.841415 0.9210 0.9200 0.9180 0.9160 0.9140
634.241439 0.9130 0.9110 0.9090 0.9070 0.9060
640.641463 0.8940 0.8850 0.8810 0.8800 0.8760
647.041487 0.8750 0.8730 0.8690 0.8680 0.8680
653.441511 0.8660 0.8640 0.8620 0.8590 0.8570
659.841535 0.8540 0.8500 0.8430 0.8360 0.8400
666.241559 0.8520 0.8550 0.8590 0.8610 0.8610
672.641583 0.8620 0.8620 0.8640 0.8640 0.8660
679.041607 0.8660 0.8660 0.8660 0.8660 0.8680
685.441631 0.8680 0.8680 0.8680 0.8680 0.8680
691.841655 0.8680 0.8660 0.8660 0.8660 0.8660
698.241679 0.8660 0.8660 0.8660 0.8640 0.8640
704.641703 0.8640 0.8640 0.8640 0.8640 0.8640
711.041727 0.8620 0.8550 0.8540 0.8540 0.8520
717.441751 0.8480 0.8470 0.8450 0.8420 0.8380
723.841775 0.8350 0.8330 0.8310 0.8290 0.8290
730.241799 0.8280 0.8280 0.8290 0.8290 0.8330
736.641823 0.8350 0.8360 0.8400 0.8420 0.8430
743.041847 0.8450 0.8500 0.8520 0.8540 0.8540
749.441871 0.8540 0.8540 0.8550 0.8550 0.8570
755.841895 0.8570 0.8570 0.8570 0.8570 0.8570
762.241919 0.8570 0.8570 0.8570 0.8550 0.8550
768.641943 0.8550 0.8550 0.8550 0.8550 0.8550
775.041967 0.8550 0.8550 0.8540 0.8540 0.8540
781.441991 0.8540 0.8540 0.8520 0.8520 0.8520
787.842015 0.8520 0.8540 0.8540 0.8540 0.8550
794.242039 0.8550 0.8570 0.8570 0.8590 0.8590
800.642063 0.8590 0.8590 0.8590 0.8590 0.8590
807.042087 0.8590 0.8590 0.8570 0.8570 0.8570
813.442111 0.8570 0.8550 0.8540 0.8540 0.8540
819.842135 0.8540 0.8540 0.8520 0.8520 0.8520
826.242159 0.8500 0.8470 0.8470 0.8420 0.8380
832.642183 0.8350 0.8220 0.8051 0.7930 0.7462
839.042207 0.6990 0.6869 0.6310 0.6310 0.8048
845.442231 0.8100 0.8329 0.8350 0.8360 0.8380
851.842255 0.8380 0.8380 0.8380 0.8360 0.8350
858.242279 0.8330 0.8280 0.8240 0.8101 0.7911
864.642303 0.7700 0.7630 0.7430 0.6780 0.6780
871.042327 0.7598 0.8029 0.8209 0.8240 0.8310
877.442351 0.8330 0.8330 0.8350 0.8350 0.8350
883.842375 0.8350 0.8350 0.8350 0.8350 0.8350
890.242399 0.8350 0.8330 0.8310 0.8310 0.8240
896.642423 0.8140 0.8050 0.7891 0.7790 0.7631
903.042447 0.7169 0.6660 0.6660 0.6900 0.7150
909.442471 0.7390 0.7719 0.8208 0.8220 0.8260
915.842495 0.8280 0.8290 0.8290 0.8310 0.8330
922.242519 0.8330 0.8350 0.8350 0.8360 0.8360
928.642543 0.8360 0.8360 0.8360 0.8360 0.8360
935.042567 0.8360 0.8350 0.8350 0.8330 0.8290
941.442591 0.8260 0.8240 0.8240 0.8220 0.8190
947.842615 0.8140 0.8050 0.7950 0.7880 0.7771
954.242639 0.7600 0.7440 0.7250 0.7060 0.6540
960.642663 0.5881 0.5241 0.5240 0.5808 0.5850
967.042687 0.5900 0.5920 0.6041 0.6920 0.7559
973.442711 0.7650 0.7949 0.8030 0.8140 0.8170
979.842735 0.8210 0.8240 0.8280 0.8290 0.8310
986.242759 0.8330 0.8330 0.8350 0.8350 0.8350
992.642783 0.8330 0.8330 0.8310 0.8310 0.8290
999.042807 0.8290 0.8280 0.8240 0.8240 0.8220
1005.442831 0.8210 0.8190 0.8150 0.8140 0.8100
1011.842855 0.8070 0.8050 0.8050 0.8030 0.8020
1018.242879 0.7980 0.7950 0.7910 0.7880 0.7840
1024.642903 0.7790 0.7760 0.7740 0.7760 0.7790
1031.042927 0.7820 0.7860 0.7890 0.7950 0.7980
1037.442951 0.8000 0.8000 0.8020 0.8020 0.8000
1043.842975 0.8000 0.7980 0.7980 0.7960 0.7950
1050.242999 0.7950 0.7930 0.7910 0.7910 0.7910
1056.643023 0.7930 0.7930 0.7930 0.7910 0.7890
1063.043047 0.7890 0.7860 0.7820 0.7810 0.7770
1069.443071 0.7740 0.7700 0.7670 0.7650 0.7620
1075.843095 0.7580 0.7530 0.7480 0.7410 0.7320
1082.243119 0.7130 0.7100 0.7080 0.7080 0.7100
1088.643143 0.7110 0.7270 0.7370 0.7480 0.7550
1095.043167 0.7560 0.7560 0.7560 0.7560 0.7580
1101.443191 0.7580 0.7600 0.7630 0.7670 0.7790
1107.843215 0.7820 0.7880 0.7890 0.7910 0.7960
1114.243239 0.8000 0.8020 0.8020 0.8020 0.8030
1120.643263 0.8030 0.8030 0.8050 0.8050 0.8070
1127.043287 0.8070 0.8070 0.8070 0.8070 0.8050
1133.443311 0.8050 0.8050 0.8050 0.8050 0.8030
1139.843335 0.8030 0.8020 0.8020 0.8000 0.7980
1146.243359 0.7960 0.7950 0.7930 0.7910 0.7890
1152.643383 0.7880 0.7860 0.7860 0.7840 0.7840
1159.043407 0.7840 0.7860 0.7890 0.7930 0.7960
1165.443431 0.7980 0.8000 0.8030 0.8030 0.8050
1171.843455 0.8070 0.8070 0.8070 0.8070 0.8050
1178.243479 0.8050 0.8030 0.8030 0.8020 0.8000
1184.643503 0.8000 0.8000 0.8000 0.7980 0.7980
1191.043527 0.7960 0.7960 0.7960 0.7950 0.7950
1197.443551 0.7950 0.7950 0.7960 0.7960 0.7980
1203.843575 0.7980 0.8000 0.8000 0.8000 0.8000
1210.243599 0.7980 0.7980 0.7960 0.7960 0.7950
1216.643623 0.7950 0.7930 0.7930 0.7930 0.7910
1223.043647 0.7910 0.7910 0.7890 0.7890 0.7860
1229.443671 0.7840 0.7820 0.7760 0.7690 0.7620
1235.843695 0.7580 0.7560 0.7430 0.7250 0.6940
1242.243719 0.6940 0.7010 0.7040 0.7060 0.7060
1248.643743 0.7040 0.6990 0.6940 0.6850 0.6770
1255.043767 0.6630 0.6330 0.6310 0.6330 0.6519
1261.443791 0.6701 0.6890 0.7110 0.7170 0.7230
1267.843815 0.7300 0.7370 0.7440 0.7530 0.7580
1274.243839 0.7600 0.7600 0.7620 0.7620 0.7620
1280.643863 0.7630 0.7650 0.7650 0.7670 0.7670
1287.043887 0.7690 0.7720 0.7770 0.7820 0.7880
1293.443911 0.7930 0.7980 0.8030 0.8090 0.8140
1299.843935 0.8190 0.8240 0.8290 0.8350 0.8400
1306.243959 0.8520 0.8540 0.8570 0.8590 0.8590
1312.643983 0.8590 0.8610 0.8610 0.8610 0.8590
1319.044007 0.8590 0.8590 0.8570 0.8570 0.8550
1325.444031 0.8540 0.8520 0.8520 0.8500 0.8480
1331.844055 0.8400 0.8310 0.8240 0.8210 0.8150
1338.244079 0.8120 0.8000 0.7840 0.7770 0.7890
1344.644103 0.7950 0.8050 0.8140 0.8170 0.8170
1351.044127 0.8100 0.8050 0.7950 0.7860 0.7760
1357.444151 0.7580 0.7390 0.7150 0.7150 0.7459
1363.844175 0.7560 0.7559 0.7249 0.6959 0.6490
1370.244199 0.6020 0.5411 0.4701 0.4700 0.5119
1376.644223 0.6962 0.7621 0.7960 0.8190 0.8240
1383.044246 0.8280 0.8310 0.8330 0.8330 0.8360
1389.444270 0.8360 0.8380 0.8380 0.8380 0.8380
1395.844294 0.8380 0.8380 0.8380 0.8360 0.8360
1402.244318 0.8350 0.8330 0.8310 0.8290 0.8290
1408.644342 0.8280 0.8260 0.8210 0.8140 0.8070
1415.044366 0.8050 0.7980 0.7950 0.7950 0.7930
1421.444390 0.7690 0.7550 0.7320 0.7250 0.7250
1427.844414 0.7230 0.7220 0.7150 0.6970 0.6640
1434.244438 0.6510 0.6160 0.5671 0.5032 0.4731
1440.644462 0.3446 0.2388 0.1588 0.0720 0.0720
1447.044486 0.0970 0.1210 0.1709 0.1770 0.0982
1453.444510 0.0982 0.1491 0.1970 0.2172 0.3520
1459.844534 0.3660 0.4459 0.5788 0.6019 0.6309
1466.244558 0.6771 0.6971 0.7251 0.7510 0.7620
1472.644582 0.7840 0.7930 0.7950 0.8000 0.8140
1479.044606 0.8170 0.8240 0.8310 0.8350 0.8350
1485.444630 0.8400 0.8450 0.8470 0.8480 0.8500
1491.844654 0.8500 0.8540 0.8590 0.8640 0.8680
1498.244678 0.8680 0.8680 0.8680 0.8680 0.8690
1504.644702 0.8710 0.8710 0.8730 0.8750 0.8780
1511.044726 0.8800 0.8830 0.8850 0.8870 0.8870
1517.444750 0.8880 0.8900 0.8920 0.8940 0.8950
1523.844774 0.8950 0.8990 0.9010 0.9020 0.9020
1530.244798 0.9020 0.9040 0.9040 0.9040 0.9040
1536.644822 0.9020 0.9010 0.9010 0.8990 0.8990
1543.044846 0.8990 0.8990 0.9010 0.9010 0.9010
1549.444870 0.9010 0.9010 0.9010 0.9010 0.9010
1555.844894 0.9010 0.8990 0.8990 0.8970 0.8970
1562.244918 0.8970 0.8970 0.8970 0.8950 0.8950
1568.644942 0.8950 0.8950 0.8950 0.8940 0.8940
1575.044966 0.8940 0.8940 0.8940 0.8940 0.8950
1581.444990 0.8940 0.8940 0.8940 0.8920 0.8920
1587.845014 0.8920 0.8920 0.8920 0.8940 0.8940
1594.245038 0.8920 0.8920 0.8900 0.8900 0.8880
1600.645062 0.8880 0.8870 0.8880 0.8880 0.8880
1607.045086 0.8880 0.8870 0.8870 0.8850 0.8850
1613.445110 0.8850 0.8830 0.8830 0.8830 0.8850
1619.845134 0.8850 0.8850 0.8850 0.8850 0.8850
1626.245158 0.8830 0.8830 0.8830 0.8830 0.8810
1632.645182 0.8800 0.8800 0.8800 0.8800 0.8800
1639.045206 0.8810 0.8800 0.8800 0.8800 0.8800
1645.445230 0.8800 0.8800 0.8800 0.8800 0.8780
1651.845254 0.8780 0.8760 0.8760 0.8760 0.8760
1658.245278 0.8760 0.8760 0.8780 0.8780 0.8780
1664.645302 0.8780 0.8760 0.8760 0.8760 0.8760
1671.045326 0.8760 0.8760 0.8780 0.8780 0.8780
1677.445350 0.8780 0.8780 0.8760 0.8760 0.8760
1683.845374 0.8760 0.8760 0.8760 0.8780 0.8780
1690.245398 0.8800 0.8800 0.8800 0.8800 0.8800
1696.645422 0.8800 0.8800 0.8800 0.8780 0.8780
1703.045446 0.8780 0.8780 0.8800 0.8800 0.8810
1709.445470 0.8810 0.8830 0.8830 0.8830 0.8830
1715.845494 0.8830 0.8830 0.8810 0.8810 0.8800
1722.245518 0.8800 0.8800 0.8800 0.8780 0.8760
1728.645542 0.8760 0.8760 0.8760 0.8760 0.8760
1735.045566 0.8760 0.8760 0.8760 0.8760 0.8760
1741.445590 0.8760 0.8760 0.8760 0.8760 0.8760
1747.845614 0.8760 0.8760 0.8760 0.8760 0.8760
1754.245638 0.8760 0.8760 0.8760 0.8760 0.8760
1760.645662 0.8760 0.8780 0.8780 0.8780 0.8800
1767.045686 0.8800 0.8800 0.8800 0.8780 0.8780
1773.445710 0.8760 0.8750 0.8750 0.8750 0.8760
1779.845734 0.8800 0.8800 0.8830 0.8830 0.8830
1786.245758 0.8830 0.8830 0.8830 0.8830 0.8850
1792.645782 0.8850 0.8870 0.8850 0.8850 0.8830
1799.045806 0.8830 0.8830 0.8830 0.8810 0.8810
1805.445830 0.8810 0.8810 0.8810 0.8800 0.8800
1811.845854 0.8810 0.8810 0.8830 0.8830 0.8850
1818.245878 0.8850 0.8870 0.8870 0.8850 0.8850
1824.645902 0.8850 0.8850 0.8850 0.8850 0.8850
1831.045926 0.8850 0.8830 0.8830 0.8830 0.8830
1837.445950 0.8830 0.8830 0.8830 0.8850 0.8850
1843.845974 0.8850 0.8830 0.8830 0.8830 0.8830
1850.245998 0.8830 0.8850 0.8850 0.8850 0.8870
1856.646022 0.8870 0.8870 0.8850 0.8850 0.8830
1863.046046 0.8830 0.8810 0.8810 0.8810 0.8810
1869.446070 0.8810 0.8810 0.8810 0.8800 0.8800
1875.846094 0.8800 0.8780 0.8780 0.8760 0.8760
1882.246118 0.8760 0.8760 0.8760 0.8760 0.8760
1888.646142 0.8760 0.8760 0.8780 0.8780 0.8780
1895.046166 0.8800 0.8800 0.8800 0.8810 0.8810
1901.446190 0.8830 0.8830 0.8850 0.8850 0.8850
1907.846214 0.8850 0.8850 0.8850 0.8850 0.8850
1914.246238 0.8850 0.8850 0.8870 0.8870 0.8850
1920.646262 0.8850 0.8850 0.8850 0.8850 0.8850
1927.046286 0.8850 0.8870 0.8870 0.8870 0.8870
1933.446310 0.8870 0.8880 0.8880 0.8880 0.8880
1939.846334 0.8880 0.8880 0.8880 0.8880 0.8880
1946.246358 0.8880 0.8870 0.8870 0.8870 0.8870
1952.646382 0.8870 0.8870 0.8870 0.8870 0.8870
1959.046406 0.8870 0.8870 0.8870 0.8870 0.8870
1965.446430 0.8870 0.8870 0.8870 0.8870 0.8880
1971.846454 0.8900 0.8900 0.8880 0.8870 0.8870
1978.246478 0.8870 0.8850 0.8850 0.8850 0.8850
1984.646502 0.8850 0.8850 0.8870 0.8900 0.8900
1991.046526 0.8870 0.8810 0.8800 0.8780 0.8780
1997.446550 0.8780 0.8780 0.8800 0.8805 0.8810
2003.846574 0.8820 0.8830 0.8840 0.8850 0.8860
2010.246598 0.8870 0.8875 0.8880 0.8890 0.8900
2016.646622 0.8900 0.8900 0.8900 0.8900 0.8900
2023.046646 0.8900 0.8900 0.8900 0.8900 0.8900
2029.446670 0.8900 0.8900 0.8900 0.8900 0.8900
2035.846694 0.8900 0.8900 0.8900 0.8900 0.8900
2042.246718 0.8900 0.8900 0.8900 0.8900 0.8900
2048.646742 0.8900 0.8889 0.8880 0.8875 0.8869
2055.046766 0.8859 0.8850 0.8850 0.8850 0.8850
2061.446790 0.8849 0.8839 0.8830 0.8830 0.8830
2067.846814 0.8830 0.8830 0.8830 0.8830 0.8830
2074.246838 0.8831 0.8841 0.8850 0.8850 0.8851
2080.646862 0.8861 0.8869 0.8859 0.8850 0.8850
2087.046886 0.8850 0.8850 0.8850 0.8850 0.8849
2093.446910 0.8839 0.8830 0.8830 0.8829 0.8819
2099.846934 0.8810 0.8810 0.8809 0.8804 0.8799
2106.246958 0.8789 0.8780 0.8780 0.8779 0.8769
2112.646982 0.8760 0.8760 0.8759 0.8754 0.8750
2119.047006 0.8750 0.8750 0.8750 0.8750 0.8750
2125.447030 0.8750 0.8750 0.8751 0.8756 0.8762
2131.847053 0.8772 0.8780 0.8780 0.8780 0.8780
2138.247077 0.8780 0.8780 0.8778 0.8768 0.8759
2144.647101 0.8754 0.8750 0.8750 0.8748 0.8738
2151.047125 0.8730 0.8730 0.8732 0.8742 0.8750
2157.447149 0.8750 0.8751 0.8756 0.8760 0.8760
2163.847173 0.8757 0.8742 0.8728 0.8718 0.8708
2170.247197 0.8698 0.8690 0.8690 0.8689 0.8684
2176.647221 0.8680 0.8680 0.8683 0.8698 0.8712
2183.047245 0.8722 0.8730 0.8730 0.8730 0.8730
2189.447269 0.8732 0.8742 0.8750 0.8750 0.8750
2195.847293 0.8750 0.8748 0.8738 0.8730 0.8730
2202.247317 0.8725 0.8705 0.8686 0.8671 0.8660
2208.647341 0.8660 0.8660 0.8660 0.8663 0.8673
2215.047365 0.8680 0.8680 0.8680 0.8680 0.8680
2221.447389 0.8680 0.8681 0.8686 0.8690 0.8690
2227.847413 0.8690 0.8690 0.8693 0.8703 0.8710
2234.247437 0.8710 0.8710 0.8710 0.8710 0.8710
2240.647461 0.8710 0.8710 0.8710 0.8710 0.8710
2247.047485 0.8710 0.8707 0.8697 0.8690 0.8690
2253.447509 0.8693 0.8703 0.8713 0.8723 0.8730
2259.847533 0.8730 0.8727 0.8717 0.8710 0.8710
2266.247557 0.8710 0.8710 0.8710 0.8710 0.8710
2272.647581 0.8710 0.8710 0.8710 0.8710 0.8710
2279.047605 0.8710 0.8710 0.8706 0.8696 0.8690
2285.447629 0.8690 0.8694 0.8704 0.8706 0.8696
2291.847653 0.8690 0.8690 0.8690 0.8690 0.8688
2298.247677 0.8683 0.8680 0.8680 0.8680 0.8680
2304.647701 0.8676 0.8666 0.8660 0.8660 0.8664
2311.047725 0.8674 0.8680 0.8680 0.8680 0.8680
2317.447749 0.8682 0.8687 0.8690 0.8690 0.8690
2323.847773 0.8690 0.8690 0.8690 0.8690 0.8690
2330.247797 0.8688 0.8683 0.8680 0.8680 0.8680
2336.647821 0.8680 0.8680 0.8680 0.8682 0.8687
2343.047845 0.8690 0.8690 0.8690 0.8690 0.8690
2349.447869 0.8690 0.8690 0.8690 0.8690 0.8690
2355.847893 0.8690 0.8690 0.8688 0.8683 0.8680
2362.247917 0.8680 0.8680 0.8680 0.8680 0.8680
2368.647941 0.8682 0.8687 0.8690 0.8690 0.8688
2375.047965 0.8683 0.8675 0.8665 0.8660 0.8660
2381.447989 0.8655 0.8645 0.8640 0.8640 0.8633
2387.848013 0.8618 0.8610 0.8610 0.8605 0.8595
2394.248037 0.8590 0.8590 0.8590 0.8590 0.8595
2400.648061 0.8605 0.8610 0.8610 0.8605 0.8595
2407.048085 0.8590 0.8590 0.8590 0.8590 0.8585
2413.448109 0.8575 0.8570 0.8570 0.8562 0.8547
2419.848133 0.8540 0.8540 0.8558 0.8593 0.8613
2426.248157 0.8618 0.8630 0.8650 0.8665 0.8675
2432.648181 0.8683 0.8688 0.8690 0.8690 0.8690
2439.048205 0.8690 0.8687 0.8682 0.8680 0.8680
2445.448229 0.8680 0.8680 0.8680 0.8680 0.8680
2451.848253 0.8680 0.8680 0.8680 0.8674 0.8664
2458.248277 0.8654 0.8644 0.8640 0.8640 0.8640
2464.648301 0.8640 0.8640 0.8640 0.8640 0.8640
2471.048325 0.8631 0.8616 0.8610 0.8610 0.8613
2477.448349 0.8618 0.8626 0.8636 0.8655 0.8680
2483.848373 0.8690 0.8690 0.8675 0.8650 0.8640
2490.248397 0.8640 0.8634 0.8624 0.8620 0.8620
2496.648421 0.8611 0.8596 0.8590 0.8590 0.8590
2503.048445 0.8590 0.8584 0.8574 0.8570 0.8570
2509.448469 0.8576 0.8586 0.8590 0.8590 0.8584
2515.848493 0.8574 0.8570 0.8570 0.8570 0.8570
2522.248517 0.8570 0.8570 0.8570 0.8570 0.8564
2528.648541 0.8554 0.8550 0.8550 0.8547 0.8542
2535.048565 0.8540 0.8540 0.8540 0.8540 0.8540
2541.448589 0.8540 0.8540 0.8540 0.8540 0.8540
2547.848613 0.8540 0.8540 0.8540 0.8540 0.8540
2554.248637 0.8540 0.8540 0.8540 0.8533 0.8523
2560.648661 0.8520 0.8520 0.8520 0.8520 0.8520
2567.048685 0.8520 0.8520 0.8520 0.8513 0.8503
2573.448709 0.8489 0.8474 0.8456 0.8436 0.8426
2579.848733 0.8421 0.8399 0.8369 0.8331 0.8291
2586.248757 0.8179 0.8037 0.7915 0.7800 0.7759
2592.648781 0.7744 0.7747 0.7757 0.7790 0.7830
2599.048805 0.7866 0.7901 0.7936 0.7971 0.7995
2605.448829 0.8015 0.8057 0.8107 0.8165 0.8225
2611.848853 0.8266 0.8302 0.8325 0.8345 0.8362
2618.248877 0.8377 0.8368 0.8353 0.8342 0.8332
2624.648901 0.8283 0.8223 0.8187 0.8157 0.8119
2631.048925 0.8079 0.8051 0.8026 0.7950 0.7860
2637.448949 0.7832 0.7822 0.7816 0.7811 0.7810
2643.848973 0.7810 0.7802 0.7792 0.7770 0.7745
2650.248997 0.7704 0.7659 0.7581 0.7496 0.7403
2656.649021 0.7308 0.7246 0.7191 0.7043 0.6873
2663.049045 0.6840 0.6840 0.7012 0.7217 0.7288
2669.449069 0.7333 0.7432 0.7542 0.7615 0.7680
2675.849093 0.7791 0.7911 0.7989 0.8059 0.8083
2682.249117 0.8098 0.8108 0.8118 0.8120 0.8120
2688.649141 0.8107 0.8092 0.8081 0.8071 0.8061
2695.049165 0.8051 0.8050 0.8050 0.8050 0.8050
2701.449189 0.8059 0.8069 0.8070 0.8070 0.8061
2707.849213 0.8051 0.8041 0.8031 0.8017 0.8002
2714.249237 0.7929 0.7848 0.7831 0.7821 0.7829
2720.649261 0.7839 0.7858 0.7878 0.7943 0.8013
2727.049285 0.8043 0.8068 0.8115 0.8165 0.8179
2733.449309 0.8189 0.8181 0.8171 0.8161 0.8151
2739.849333 0.8136 0.8121 0.8111 0.8101 0.8095
2746.249357 0.8090 0.8090 0.8090 0.8081 0.8071
2752.649381 0.8070 0.8070 0.8051 0.8031 0.8007
2759.049405 0.7982 0.7957 0.7932 0.7921 0.7911
2765.449429 0.7886 0.7861 0.7817 0.7772 0.7755
2771.849453 0.7741 0.7730 0.7720 0.7705 0.7690
2778.249477 0.7637 0.7582 0.7498 0.7413 0.7265
2784.649501 0.7115 0.6936 0.6756 0.6658 0.6563
2791.049525 0.6560 0.6560 0.6585 0.6610 0.6635
2797.449549 0.6660 0.6740 0.6820 0.6820 0.6820
2803.849573 0.6760 0.6700 0.6645 0.6590 0.6565
2810.249597 0.6540 0.6490 0.6440 0.6395 0.6350
2816.649621 0.6330 0.6305 0.6135 0.5966 0.5851
2823.049645 0.5732 0.5472 0.5214 0.5014 0.4811
2829.449669 0.4536 0.4260 0.3935 0.3602 0.3042
2835.849693 0.2489 0.2139 0.1775 0.1010 0.0268
2842.249717 0.0197 0.0127 0.0077 0.0029 0.0019
2848.649741 0.0011 0.0021 0.0032 0.0057 0.0081
2855.049765 0.0101 0.0125 0.0200 0.0278 0.0408
2861.449789 0.0534 0.0594 0.0654 0.0709 0.0761
2867.849813 0.0776 0.0793 0.0823 0.0856 0.0921
2874.249837 0.0991 0.1106 0.1220 0.1325 0.1420
2880.649860 0.1420 0.1388 0.1048 0.0731 0.0636
2887.049884 0.0538 0.0407 0.0281 0.0186 0.0095
2893.449908 0.0044 0.0000 0.0000 0.0000 0.0000
2899.849932 0.0000 0.0000 0.0000 0.0000 0.0000
2906.249956 0.0000 0.0000 0.0000 0.0000 0.0000
2912.649980 0.0000 0.0000 0.0000 0.0000 0.0000
2919.050004 0.0000 0.0000 0.0000 0.0000 0.0000
2925.450028 0.0000 0.0000 0.0000 0.0000 0.0001
2931.850052 0.0006 0.0010 0.0010 0.0010 0.0010
2938.250076 0.0010 0.0010 0.0012 0.0022 0.0032
2944.650100 0.0042 0.0050 0.0050 0.0051 0.0056
2951.050124 0.0064 0.0084 0.0107 0.0142 0.0188
2957.450148 0.0283 0.0383 0.0503 0.0645 0.0880
2963.850172 0.1113 0.1338 0.1545 0.1675 0.1855
2970.250196 0.2246 0.2632 0.3002 0.3376 0.3761
2976.650220 0.4129 0.4439 0.4748 0.5053 0.5340
2983.050244 0.5565 0.5787 0.5997 0.6191 0.6331
2989.450268 0.6477 0.6642 0.6785 0.6850 0.6924
2995.850292 0.7031 0.7128 0.7198 0.7274 0.7369
3002.250316 0.7463 0.7553 0.7638 0.7708 0.7764
3008.650340 0.7779 0.7796 0.7821 0.7852 0.7897
3015.050364 0.7939 0.7974 0.8009 0.8044 0.8077
3021.450388 0.8102 0.8134 0.8184 0.8223 0.8233
3027.850412 0.8246 0.8266 0.8290 0.8325 0.8354
3034.250436 0.8369 0.8380 0.8380 0.8380 0.8380
3040.650460 0.8383 0.8393 0.8400 0.8400 0.8400
3047.050484 0.8400 0.8405 0.8420 0.8433 0.8443
3053.450508 0.8450 0.8450 0.8450 0.8450 0.8450
3059.850532 0.8450 0.8447 0.8437 0.8428 0.8423
3066.250556 0.8420 0.8420 0.8422 0.8427 0.8438
3072.650580 0.8464 0.8487 0.8507 0.8520 0.8520
3079.050604 0.8520 0.8520 0.8516 0.8506 0.8500
3085.450628 0.8500 0.8504 0.8514 0.8525 0.8540
3091.850652 0.8554 0.8564 0.8574 0.8584 0.8590
3098.250676 0.8590 0.8594 0.8604 0.8610 0.8610
3104.650700 0.8612 0.8617 0.8618 0.8613 0.8606
3111.050724 0.8596 0.8586 0.8576 0.8570 0.8570
3117.450748 0.8570 0.8570 0.8566 0.8556 0.8544
3123.850772 0.8529 0.8520 0.8520 0.8539 0.8584
3130.250796 0.8610 0.8610 0.8602 0.8582 0.8570
3136.650820 0.8570 0.8566 0.8556 0.8548 0.8543
3143.050844 0.8536 0.8526 0.8520 0.8520 0.8520
3149.450868 0.8520 0.8516 0.8506 0.8500 0.8500
3155.850892 0.8500 0.8500 0.8504 0.8514 0.8524
3162.250916 0.8534 0.8542 0.8547 0.8554 0.8564
3168.650940 0.8574 0.8584 0.8594 0.8604 0.8617
3175.050964 0.8632 0.8640 0.8640 0.8645 0.8655
3181.450988 0.8667 0.8682 0.8690 0.8690 0.8690
3187.851012 0.8690 0.8695 0.8705 0.8715 0.8725
3194.251036 0.8730 0.8730 0.8730 0.8730 0.8735
3200.651060 0.8745 0.8750 0.8750 0.8753 0.8758
3207.051084 0.8760 0.8760 0.8760 0.8760 0.8765
3213.451108 0.8775 0.8775 0.8765 0.8760 0.8760
3219.851132 0.8757 0.8752 0.8750 0.8750 0.8745
3226.251156 0.8735 0.8730 0.8730 0.8730 0.8730
3232.651180 0.8730 0.8730 0.8730 0.8730 0.8730
3239.051204 0.8730 0.8730 0.8730 0.8730 0.8730
3245.451228 0.8730 0.8730 0.8730 0.8730 0.8730
3251.851252 0.8730 0.8730 0.8730 0.8724 0.8714
3258.251276 0.8710 0.8710 0.8716 0.8726 0.8730
3264.651300 0.8730 0.8730 0.8730 0.8739 0.8754
3271.051324 0.8766 0.8776 0.8780 0.8780 0.8780
3277.451348 0.8780 0.8780 0.8780 0.8786 0.8796
3283.851372 0.8803 0.8808 0.8810 0.8810 0.8810
3290.251396 0.8810 0.8810 0.8810 0.8810 0.8810
3296.651420 0.8810 0.8810 0.8810 0.8810 0.8807
3303.051444 0.8802 0.8800 0.8800 0.8800 0.8800
3309.451468 0.8800 0.8800 0.8794 0.8784 0.8780
3315.851492 0.8780 0.8774 0.8764 0.8760 0.8760
3322.251516 0.8760 0.8760 0.8757 0.8752 0.8743
3328.651540 0.8733 0.8730 0.8730 0.8730 0.8730
3335.051564 0.8730 0.8730 0.8730 0.8730 0.8730
3341.451588 0.8730 0.8730 0.8730 0.8730 0.8730
3347.851612 0.8730 0.8730 0.8737 0.8747 0.8750
3354.251636 0.8750 0.8750 0.8750 0.8750 0.8750
3360.651660 0.8754 0.8759 0.8767 0.8777 0.8780
3367.051684 0.8780 0.8773 0.8763 0.8760 0.8760
3373.451708 0.8767 0.8777 0.8787 0.8797 0.8800
3379.851732 0.8800 0.8793 0.8783 0.8780 0.8780
3386.251756 0.8787 0.8797 0.8800 0.8800 0.8800
3392.651780 0.8800 0.8800 0.8800 0.8800 0.8800
3399.051804 0.8804 0.8809 0.8817 0.8827 0.8830
3405.451828 0.8830 0.8830 0.8830 0.8838 0.8848
3411.851852 0.8850 0.8850 0.8850 0.8850 0.8850
3418.251876 0.8850 0.8850 0.8850 0.8850 0.8850
3424.651900 0.8850 0.8850 0.8850 0.8850 0.8842
3431.051924 0.8832 0.8822 0.8812 0.8810 0.8810
3437.451948 0.8798 0.8783 0.8772 0.8762 0.8760
3443.851972 0.8760 0.8760 0.8760 0.8760 0.8760
3450.251996 0.8760 0.8760 0.8760 0.8760 0.8760
3456.652020 0.8760 0.8768 0.8778 0.8780 0.8780
3463.052044 0.8788 0.8798 0.8804 0.8809 0.8818
3469.452068 0.8828 0.8830 0.8830 0.8838 0.8848
3475.852092 0.8858 0.8868 0.8874 0.8879 0.8880
3482.252116 0.8880 0.8880 0.8880 0.8880 0.8880
3488.652140 0.8880 0.8880 0.8880 0.8880 0.8880
3495.052164 0.8880 0.8876 0.8871 0.8870 0.8870
3501.452188 0.8874 0.8879 0.8880 0.8880 0.8880
3507.852212 0.8880 0.8880 0.8880 0.8880 0.8880
3514.252236 0.8880 0.8880 0.8889 0.8899 0.8900
3520.652260 0.8900 0.8900 0.8900 0.8900 0.8900
3527.052284 0.8900 0.8900 0.8900 0.8900 0.8900
3533.452308 0.8900 0.8891 0.8881 0.8880 0.8880
3539.852332 0.8880 0.8880 0.8880 0.8880 0.8880
3546.252356 0.8880 0.8880 0.8880 0.8880 0.8880
3552.652380 0.8880 0.8880 0.8880 0.8880 0.8880
3559.052404 0.8880 0.8890 0.8900 0.8900 0.8900
3565.452428 0.8900 0.8900 0.8890 0.8880 0.8880
3571.852452 0.8880 0.8914 0.8949 0.8969 0.8989
3578.252476 0.8990 0.8990 0.8956 0.8921 0.8910
3584.652500 0.8900 0.8900 0.8900 0.8900 0.8900
3591.052524 0.8900 0.8900 0.8890 0.8880 0.8880
3597.452548 0.8880 0.8880 0.8880 0.8880 0.8880
3603.852572 0.8890 0.8900 0.8890 0.8880 0.8875
3610.252596 0.8870 0.8870 0.8870 0.8870 0.8870
3616.652620 0.8870 0.8870 0.8860 0.8850 0.8850
3623.052644 0.8850 0.8850 0.8850 0.8850 0.8850
3629.452668 0.8850 0.8850 0.8850 0.8850 0.8850
3635.852691 0.8851 0.8861 0.8870 0.8875 0.8881
3642.252715 0.8891 0.8900 0.8900 0.8900 0.8900
3648.652739 0.8899 0.8889 0.8880 0.8875 0.8870
3655.052763 0.8875 0.8880 0.8880 0.8881 0.8891
3661.452787 0.8900 0.8900 0.8899 0.8884 0.8869
3667.852811 0.8859 0.8849 0.8839 0.8830 0.8830
3674.252835 0.8829 0.8819 0.8810 0.8805 0.8800
3680.652859 0.8800 0.8799 0.8789 0.8779 0.8769
3687.052883 0.8759 0.8754 0.8750 0.8750 0.8750
3693.452907 0.8750 0.8750 0.8750 0.8751 0.8756
3699.852931 0.8761 0.8771 0.8780 0.8780 0.8780
3706.252955 0.8780 0.8780 0.8780 0.8781 0.8791
3712.652979 0.8802 0.8817 0.8830 0.8830 0.8832
3719.053003 0.8842 0.8850 0.8850 0.8852 0.8862
3725.453027 0.8871 0.8876 0.8880 0.8880 0.8880
3731.853051 0.8880 0.8879 0.8874 0.8870 0.8870
3738.253075 0.8870 0.8870 0.8870 0.8870 0.8868
3744.653099 0.8858 0.8846 0.8826 0.8809 0.8804
3751.053123 0.8800 0.8800 0.8801 0.8806 0.8810
3757.453147 0.8810 0.8810 0.8810 0.8810 0.8810
3763.853171 0.8809 0.8804 0.8800 0.8800 0.8801
3770.253195 0.8806 0.8810 0.8810 0.8810 0.8810
3776.653219 0.8810 0.8810 0.8812 0.8822 0.8830
3783.053243 0.8830 0.8834 0.8854 0.8870 0.8870
3789.453267 0.8871 0.8876 0.8880 0.8880 0.8880
3795.853291 0.8880
##END=
