##TITLE=1,3-Dimethylbenzene
##JCAMP-DX=4.24
##DATA TYPE=INFRARED SPECTRUM
##CLASS=IUPAC A
##ORIGIN=NIST, Analytical Chemistry Division, 301-975-3108
##OWNER=COPYRIGHT (C) 2001 by the U.S. Secretary of Commerce
##DATE=01/06/01
##$SPECTRA VERSION=1.10
##$UNCERTAINTY IN Y=2.1 % relative (B=1.13E-04,C=1.33E-9,D=3.50E-14)
##CAS NAME=1,3-Dimethylbenzene
##CAS REGISTRY NO=108-38-3
##MOLFORM=1,3-( C H3)2 C6 H4
##MP=-47.87 C
##BP=139.1 C
##$NIST SOURCE=QUANT-IR
##SPECTROMETER/DATA SYSTEM=IFS66V (Bruker)
##INSTRUMENT PARAMETERS=KBr Beam Splitter; MCT Detector; Multipass cell
##STATE=gas
##SAMPLE DESCRIPTION=m-Xylene Primary Gas Standard
##PRESSURE=101.3 Pa
##TEMPERATURE=23 C
##SAMPLING PROCEDURE=1 L/min Flow
##RESOLUTION=1.9290
##DATA PROCESSING=NB Strong Apodization
##XUNITS=cm-1
##YUNITS=(micromol/mol)-1m-1 (base 10)
##XFACTOR=1.0
##YFACTOR=9.0949E-13
##DELTAX=0.9645
##FIRSTX=575.652
##LASTX=3974.606
##FIRSTY=-3.09E-07
##MAXX=3973.64
##MINX=575.65
##MAXY=.0005407
##MINY=-1.01E-06
##NPOINTS=3526
##XYDATA=(X++(Y..Y))
575.65-339795-31996-611012-868085-948095-9681
580.47 150088-640889-1033924-522790-688305-561677
586.26-480269-754733-627949-273870 5744 129128
592.04-563187-913759-817529-451513-711567-1004949
597.83-1120031-433789-286211-631800-731149-571104
603.62-627484-277013-586023-372837-399241-562245
609.40-721911-753106-476818-323613-641057-618979
615.19-431018-180605-163683-445142-746778-709950
620.97-671979-307750-4973-365550-696852-440745
626.76-237786-242899-498181-335136-513183-469383
632.54-254684-329947-597468-509757-485673-472861
638.33-419909-448820-523226-455768-533468-179793
644.11-147531 31947 34578 168583 254598 389342
649.90 254421 491987 727181 1054029 1179755 1682694
655.68 1767737 1697926 1566060 1759431 2078624 2636909
661.47 2695516 3103261 3732877 4983647 6731842 8303529
667.26 8358734 9092347 10435705 12865528 15592556 19160416
673.04 22840502 27113749 31442758 36481312 40817945 45189981
678.83 48312561 51476652 53382245 55747719 57079213 59086408
684.61 61383855 67564164 77510973 100924286 157831032 226853924
690.40 183264524 102848118 76632934 71948384 75416737 73208824
696.18 68682441 65435437 64383547 62496819 60750707 56508268
701.97 51148724 44789903 39073226 33236402 28167161 22893835
707.75 18706319 14891137 12037612 9356083 7632351 6121094
713.54 5084910 3914397 3315123 2729420 2596155 2075908
719.32 1949052 1863479 1855598 1523279 1585419 1439982
725.11 1583487 1733473 1985585 1933582 2203640 1945962
730.90 1733811 1473685 1690027 1829931 1879492 1803301
736.68 2284710 2860171 3913525 5059117 6320975 7324206
742.47 9327847 11922340 15607706 20327038 26463876 33596852
748.25 42439091 52511093 64259337 76981298 90711673 104702284
754.04 118724595 131296435 142576199 152636622 162302336 170131677
759.82 176356996 180450101 186040831 198821876 228577612 289918322
765.61 407078842 566540005 594553197 386758193 226602737 189511706
771.39 183846294 184380839 183989942 183379726 178769670 171040408
777.18 161380461 150384388 137158097 122086681 105865567 90208892
782.96 75369855 61839356 49655564 39382020 30628682 23668630
788.75 18011623 13762885 10442916 8221607 6576884 5471233
794.53 4679670 3809001 3034682 2591298 2089862 1848650
800.32 1802119 1891802 1680790 1428166 1173680 1161772
806.11 1230336 1141948 1077003 989129 762409 739028
811.89 856420 810423 508013 526605 696052 744430
817.68 587092 698220 784839 908681 864148 628968
823.46 420353 356856 446710 545390 531276 548509
829.25 451889 407568 508898 450789 311794 457458
835.03 489889 432499 416164 441556 402766 410236
840.82 430547 467286 568441 695702 677315 720830
846.60 788960 976128 1138798 1387719 1641835 1720912
852.39 1889698 2431425 3054542 3802938 4536530 5317073
858.17 6122642 7081494 8091621 9295938 10479894 11273599
863.96 11891435 12533667 13162797 13839978 14334963 15039697
869.75 16056043 17807395 20860206 27325688 37495747 44626025
875.53 36711437 22062080 15803138 14600042 14488673 14214437
881.32 14161157 14033606 13888058 13751282 13270727 12534261
887.10 11886950 11179106 10514340 10030082 9945551 10183029
892.89 10996739 12089045 13394461 14746497 16138567 17316269
898.67 18043341 18064944 17470255 16858696 16876632 17725667
904.46 19283256 19811498 18006710 15649902 15236035 16001283
910.24 16321166 15582834 14017284 11788333 9342884 6894892
916.03 4959836 3583465 2672081 2027707 1635007 1427081
921.81 1342037 1391850 1402916 1290392 1241907 1338403
927.60 1432808 1421827 1509382 1563624 1639898 1729520
933.39 1810973 1884607 2091700 2214998 2230232 2301102
939.17 2324524 2303337 2398859 2488914 2687477 2775337
944.96 2751025 2719404 2785867 2847642 2873087 2983415
950.74 3121894 3163570 3234948 3237284 3290036 3391662
956.53 3467584 3464441 3504613 3580927 3681522 3782930
962.31 3982320 4133353 4295569 4439640 4530061 4739462
968.10 4947634 4986326 5001687 5072575 5273136 5438621
973.88 5419682 5267362 5103552 4964459 4942539 4952498
979.67 4930729 4826488 4770393 4815496 4889693 4873126
985.45 4908830 4985661 5092093 5205794 5441758 5720982
991.24 5936238 6236388 6640891 6931988 7243781 7703760
997.03 8179230 8636416 9068684 9354968 9616390 9960370
1002.81 10388919 10754641 11042281 11279778 11301781 11129383
1008.60 10829240 10394151 10088087 9869031 9685088 9402936
1014.38 8876153 8449472 8205596 7867374 7504347 7101222
1020.17 6716806 6344693 6140211 6199544 6324676 6613211
1025.95 6992876 7444855 8023073 8665718 9387098 10089291
1031.74 10761276 11508185 12323590 13064441 13801959 14611340
1037.52 15651616 17128095 19489068 22357708 25491411 27054443
1043.31 26248362 24638024 23137596 22931890 22882807 22338385
1049.09 21692631 21349677 21252963 21133359 20921117 20485533
1054.88 19936394 19450447 18765681 17903713 16890782 15827023
1060.67 14738145 13812308 13105920 12435276 11699621 10999929
1066.45 10398124 10014743 9763878 9425173 9017002 8804085
1072.24 8696211 8699588 8843410 9012375 9285785 9753026
1078.02 10329432 11164881 12144756 13223531 14514538 16090314
1083.81 17938525 19907001 21952410 24023046 26015152 27781809
1089.59 29084575 29856811 29525567 27471441 24336428 22094885
1095.38 21917195 22940893 24428017 25883245 26608500 26262110
1101.16 24960295 22923123 20575063 18216230 15902648 13877877
1106.95 12160212 10620593 9267796 8202866 7423256 6915746
1112.73 6542239 6276855 6070615 5912456 5836276 5853446
1118.52 5799484 5627218 5378435 5097785 4858830 4664334
1124.31 4586550 4615988 4816197 5021500 5002172 4913401
1130.09 4685977 4405762 4244239 4076114 3870884 3613452
1135.88 3387905 3159713 3078496 3033655 2940467 2823935
1141.66 2666491 2613198 2654353 2728878 2748558 2865424
1147.45 3130017 3358715 3487120 3628703 3987643 4385746
1153.23 4523355 4455913 4413517 4675044 5268610 5875049
1159.02 6224809 6767709 7709724 8794363 9662199 10100077
1164.80 10064488 9573869 8837248 8301338 8709700 10202502
1170.59 10598705 8633410 7275905 7478817 8279738 8769207
1176.37 8679018 8109727 7247718 6151233 5062413 4223569
1182.16 3599791 3183410 2853972 2680912 2577698 2578419
1187.95 2575100 2582598 2598910 2472626 2265394 2152450
1193.73 2092216 2052995 1987947 2053249 2193166 2199921
1199.52 2146820 2068295 1995798 1928051 1801199 1738862
1205.30 1714323 1675735 1593596 1475381 1442813 1487302
1211.09 1416827 1351325 1355505 1346062 1338166 1318147
1216.87 1242339 1189102 1186139 1252742 1240044 1140937
1222.66 1160412 1252819 1247189 1240259 1247373 1258902
1228.44 1304561 1416724 1425960 1499235 1617112 1671489
1234.23 1754115 1850147 2023856 2195756 2322277 2500523
1240.01 2657261 2857936 3142700 3368837 3519677 3627253
1245.80 3619035 3521562 3400693 3264383 3193612 3294469
1251.59 3483485 3774620 4056327 4305453 4467396 4472727
1257.37 4379418 4162254 3966611 3791361 3559823 3375798
1263.16 3160432 2979378 2851555 2810585 2878406 3043374
1268.94 3094500 3055563 2947750 2749933 2573688 2452637
1274.73 2286990 2178859 2162135 2138691 2151163 2143215
1280.51 2091247 2019616 1924502 1913952 1849805 1747673
1286.30 1715721 1672582 1607385 1740882 1791827 1765026
1292.08 1720766 1773221 1961100 2063222 2119047 2227504
1297.87 2253832 2170814 2072991 2091064 2055872 2110423
1303.65 2142773 2137639 2245431 2334383 2396390 2450777
1309.44 2479394 2433459 2365899 2390321 2378230 2342008
1315.23 2340857 2342793 2393940 2418925 2344428 2324883
1321.01 2320142 2375805 2434025 2409839 2418008 2523362
1326.80 2679444 2702677 2637684 2631372 2681072 2739072
1332.58 2785521 2844425 2912813 2967958 2938242 2935623
1338.37 3009108 3187065 3325922 3510446 3652021 3749817
1344.15 3910387 4038372 4217976 4394578 4618343 4869644
1349.94 5032853 5121666 5497934 5954988 6247031 6675203
1355.72 6936491 7254208 7721739 8070768 8396699 8804994
1361.51 9155977 9591908 10199191 10732073 11380430 12148050
1367.29 12731909 13352917 14206458 15467919 17055456 18867602
1373.08 20942796 23130023 25162015 26935252 27960006 28763319
1378.87 30743479 33874753 34145936 31909624 31246685 32664008
1384.65 35076286 36932534 37202614 36095486 34348504 32423495
1390.44 30699403 28846294 26533967 24386733 22907547 21977754
1396.22 21501503 21124779 20905401 20755702 20484379 19999353
1402.01 19266040 18513930 17935612 17587470 17413423 17413747
1407.79 17594818 17897987 18306253 18568945 18723959 18739824
1413.58 18747394 18809829 18932400 19152689 19226039 19203512
1419.36 19570942 20007596 20346940 20486248 20567412 20645509
1425.15 20756837 21041552 21502597 22063599 22815720 23889928
1430.93 25267556 26894684 28706660 30720186 32572813 34366489
1436.72 36394369 38187771 39539274 40654957 41649600 42700441
1442.51 43884409 44896471 45951333 47204229 48614626 50094878
1448.29 51070061 51328678 51380751 51240891 50612356 49720922
1454.08 49052886 48369473 47716217 47391589 46848145 46261053
1459.86 46058130 46396402 46928705 47471459 47943147 48685797
1465.65 49636633 50928785 52687833 54456025 55783735 56602451
1471.43 57158350 57793722 58684632 59813386 61300647 63467828
1477.22 66196379 68724058 70223329 71655900 74670644 78890873
1483.00 82948038 86845145 90897950 94931817 98526003 101186257
1488.79 102729337 104490337 107338559 110932251 114273828 116743483
1494.57 117830736 117751148 117357961 117510227 119022358 121171342
1500.36 121818035 120153653 116294565 112030383 108509222 105597144
1506.15 102449514 98730347 94112766 88852724 83389001 77939866
1511.93 72914127 68946747 66324211 64681248 62968855 60655212
1517.72 58374389 56658626 55374088 54462029 53748288 53060580
1523.50 52549808 52353276 52701811 53146913 53063300 52423382
1529.29 51706600 51096795 50371841 49285240 47929728 46672497
1535.07 45656675 45051766 44575248 44034560 43546944 42626651
1540.86 40852403 38633649 36171017 33457946 31014557 28972405
1546.64 27120518 25495332 24098691 22999090 22132402 21377392
1552.43 20628520 19974714 19601152 19182992 18604058 18063273
1558.21 17815426 17641896 17689248 17633563 17559224 17589926
1564.00 17601208 17730191 18013458 18401679 18723819 19013931
1569.79 19292010 19414991 19407438 19380990 19262885 18912065
1575.57 18900471 19531880 20001973 20286906 20552973 20999765
1581.36 21680839 22693392 23837395 25106176 26292724 27764309
1587.14 29584294 31779395 34211283 36912769 39486908 41519637
1592.93 42743953 43117632 43044099 43565839 45844632 50633246
1598.71 57286095 64586072 71351952 77198045 81868555 86194781
1604.50 91045776 97658748 107260044 120435894 134849855 147877368
1610.28 158269384 164998181 165219726 159052885 150892570 147979384
1616.07 155154622 169971224 166707289 139370777 123555978 124408721
1621.85 129289019 129809174 123321618 110046574 92819171 74210920
1627.64 56991862 42506264 31274682 22945904 17208759 13222315
1633.43 10544051 8813482 8104596 7686795 7228719 6627790
1639.21 6122856 5771528 5588421 5453386 5500293 5613593
1645.00 5806165 6203946 6565492 6854418 7081901 7130117
1650.78 6831239 6231162 6145167 6461029 6841268 6861022
1656.57 6335162 5698724 5557982 5652675 5693150 5432412
1662.35 5004266 4542127 3990299 3376086 2789896 2232125
1668.14 1763758 1554890 1395850 1218852 1123078 974145
1673.92 788807 784377 889196 820025 717789 631917
1679.71 623452 616074 507781 314743 63326 256415
1685.49 592910 575619 568845 576994 650981 754955
1691.28 817376 874039 957743 658600 590273 1078450
1697.07 1348047 1319112 1081977 1214006 1492329 1437562
1702.85 1302617 1327605 1534161 1606229 1526319 1349517
1708.64 1302874 1390029 1497386 1511268 1485879 1327217
1714.42 1217460 1143432 923292 998444 1173870 1259368
1720.21 1333891 1454659 1621237 1774251 2047758 2372256
1725.99 2671492 2935889 3164486 3339642 3551131 3719444
1731.78 3936728 4259824 4920916 5925834 6895642 7630261
1737.56 8185535 8553811 8964134 9247947 9262816 9021374
1743.35 8559676 7947009 7415084 7277581 7561976 8157770
1749.13 8813320 9093858 9282800 9179588 8769954 8298252
1754.92 7815337 7408444 7150300 6858297 6584214 6387797
1760.71 6273546 6430423 6754676 7139478 7542986 7751030
1766.49 8075982 8629715 9176149 9423099 9244247 8667904
1772.28 8006885 7315613 6561062 6210179 6337709 6891999
1778.06 7674977 8028069 7731893 7068062 6352961 5681390
1783.85 4995364 4359850 3676017 3083032 2626509 2230335
1789.63 1849705 1511786 1249209 1176806 1171099 1110767
1795.42 1046690 1008750 1026036 1016324 1096415 1226496
1801.20 1356025 1489328 1559018 1633729 1738750 1847866
1806.99 1960972 2052117 2113728 2276824 2407089 2377674
1812.77 2306946 2285399 2314451 2380782 2471220 2465578
1818.56 2373192 2306051 2228657 2161655 2125802 2047680
1824.35 2022258 2086067 2156026 2259585 2363686 2531827
1830.13 2802948 3138700 3484624 3837128 4249040 4629760
1835.92 4946380 5237199 5525952 5758609 5961787 6281800
1841.70 6966870 7923837 9225767 10828495 12401060 13670880
1847.49 14429563 14630874 14201885 13316698 12762310 13221017
1853.27 14481686 14327746 11519409 9593712 9971227 10991287
1859.06 11558696 11306192 10327786 8914188 7357657 5756274
1864.84 4291655 3119425 2333219 1821915 1580868 1518325
1870.63 1435472 1375350 1368056 1357524 1351939 1300281
1876.41 1242257 1161919 1094097 1083011 1062531 1075700
1882.20 1167725 1188512 1106739 1101737 1185413 1282438
1887.99 1352732 1400332 1427818 1374683 1279739 1227884
1893.77 1305339 1454779 1507647 1484988 1490977 1530579
1899.56 1584451 1688720 1821487 1915414 2025398 2147045
1905.34 2320881 2550566 2697379 2837271 3053640 3310595
1911.13 3546219 3841871 4119318 4482451 4840111 5033487
1916.91 5252060 5731334 6344023 6998290 7722662 8498006
1922.70 9318525 10196036 11089678 11919299 12572518 13044941
1928.48 13186056 12917805 12075082 10736270 9658422 9308528
1934.27 9422145 10336624 11792165 12563721 12308464 11369132
1940.05 10181922 8939064 7692312 6473002 5337359 4386307
1945.84 3606875 2944366 2399516 1974171 1578336 1204600
1951.63 899097 663648 512039 411471 346045 248380
1957.41 176288 109554 75232 15954-29602 46212
1963.20 128230 128402 116567 144351 205319 239168
1968.98 211371 159772 157601 133145 118236 118679
1974.77 90246 80950 56788 58323 29224 37061
1980.55 24064 19775 35637 12677-16637-40578
1986.34-60653-74305-51586-13110-53549-64957
1992.12-38080-56753-51207-5636 33858 16045
1997.91 19904-5772-12730 7441 9314-16029
2003.69 9665 62164-10387-124503-85086-40806
2009.48-93976-117540-106233-95861-87240-85059
2015.27-75285-80816-49599 3561-11130-50242
2021.05-46640-11065 4010-32778-80257-73067
2026.84-104495-164947-210546-224005-227035-210699
2032.62-184515-148936-220954-306313-324875-316578
2038.41-326888-327645-354224-400000-446950-500701
2044.19-498949-464767-457852-428975-455710-510534
2049.98-512189-488141-473262-506276-545984-535700
2055.76-512958-463475-444973-438952-385908-389134
2061.55-414690-382783-373869-305543-230842-200129
2067.33-151879-93212-90823-55115-9745 50600
2073.12 37032 10381-62041-84271-60965-97205
2078.91-44132 55576 134824 119069 68243-13875
2084.69 12853-14843-164988-222033-218180-144934
2090.48-198790-194619-156105-58954-24989-91742
2096.26-4717 195369 337491 287598 281726 305737
2102.05 428119 448885 514658 634836 667877 587262
2107.83 414333 427670 592805 743300 600059 484605
2113.62 431648 504750 255586 16527-36568-15840
2119.40-212345-368864-363571-204532-207216-335311
2125.19-353667-229211-217338-364942-425545-356627
2130.97-313198-381452-359999-282346-272886-279748
2136.76-243726-227861-125052-91110-99756-105952
2142.55-65830 21015 74121 71669 63804 44336
2148.33 35430 141402 229883 142269 73805 137039
2154.12 118937 17869 79188 191017 119426-1668
2159.90 39222 127985-29178-181659-38353 65729
2165.69-80024-198427-76966-42267-215671-175923
2171.47-25845-112083-234267-109584-2528-176145
2177.26-272999-137505-112758-255839-275714-148877
2183.04-186539-302036-250986-239885-306294-266469
2188.83-151409-199111-324807-248051-216289-330816
2194.61-286303-202827-247834-276270-221217-206872
2200.40-245273-188452-147667-180029-122263-47776
2206.19-86899-107646-44166-9050-31888 21459
2211.97 82440 62401 56122 73911 72559 53529
2217.76 41478 19528 48098 51918 10590-16118
2223.54-25982-30339-46021-87583-121909-166740
2229.33-199650-189298-233870-218603-170361-150454
2235.11-125812-152885-230097-252330-160434-110331
2240.90-163310-196615-159322-130769-103173-99605
2246.68-98260-75820-63765-64376-61743-22443
2252.47 45612 115113 173140 268939 291705 336668
2258.25 457647 509512 481238 506474 534730 513702
2264.04 531407 553992 639177 711529 692238 695658
2269.83 752095 800188 805715 803745 816863 908009
2275.61 1030147 1079697 1141736 1199277 1287472 1399858
2281.40 1423797 1434340 1471750 1541088 1596295 1705723
2287.18 1784358 1789300 1823601 1881129 1895663 1893333
2292.97 1895093 1762794 1533612 1335613 1203439 1062255
2298.75 954945 846087 736632 651109 590665 585822
2304.54 527353 455418 425417 431174 479613 515533
2310.32 550509 526988 517197 509304 561188 616235
2316.11 751276 837689 931936 1021178 1169554 1233283
2321.89 1309580 1354044 1393088 1411805 1440969 1395278
2327.68 1427298 1426893 1517292 1699311 1874041 2027464
2333.47 2163378 2221833 2206921 2175632 2153437 2071160
2339.25 2037389 2002267 1914722 1840106 1826980 1810027
2345.04 1817712 1860719 1832481 1721249 1693735 1731903
2350.82 1725684 1702226 1651842 1590343 1603106 1657655
2356.61 1630411 1622690 1590187 1543757 1497870 1429210
2362.39 1380384 1393713 1337185 1253869 1189593 1137799
2368.18 1069134 982381 927114 893335 796208 720693
2373.96 663573 674967 668722 680915 677386 708580
2379.75 754293 809173 876743 925161 969614 991091
2385.53 1026912 1130771 1279428 1360692 1351549 1342961
2391.32 1362856 1368182 1379846 1408698 1467444 1432898
2397.11 1426658 1508169 1515115 1476695 1490043 1508250
2402.89 1456119 1459420 1494834 1521062 1571022 1593525
2408.68 1633285 1690386 1722345 1754559 1837101 1939029
2414.46 2019044 2099494 2166727 2236333 2244983 2163604
2420.25 2171676 2209893 2146789 2099630 2133933 2170728
2426.03 2138325 2098344 2009768 1915199 1825919 1810991
2431.82 1744261 1702932 1658204 1635034 1637389 1603128
2437.60 1582585 1569262 1546294 1540892 1556001 1542452
2443.39 1574002 1547048 1519963 1543503 1498946 1485930
2449.17 1502893 1497444 1485823 1522648 1504283 1503610
2454.96 1501060 1485126 1469503 1455582 1437451 1417616
2460.75 1420642 1414112 1401602 1426632 1472307 1518630
2466.53 1544618 1543934 1600265 1602246 1528779 1467220
2472.32 1425067 1403049 1389449 1399693 1421042 1376484
2478.10 1439631 1492859 1428055 1420961 1440943 1453816
2483.89 1437117 1341280 1264518 1271052 1324155 1350567
2489.67 1352648 1326924 1347776 1314986 1284680 1324277
2495.46 1281403 1235958 1280525 1301392 1251765 1249859
2501.24 1193196 1160914 1215669 1237014 1186728 1073597
2507.03 981215 880386 798437 777883 768190 740989
2512.81 643525 612013 599770 553970 486665 459055
2518.60 438380 397372 407441 406302 388687 359277
2524.39 389934 406368 381323 425727 577721 737009
2530.17 808497 857088 951959 1069437 1191261 1234329
2535.96 1230463 1256168 1256999 1402856 1520983 1565153
2541.74 1514809 1410457 1386177 1407732 1388877 1346339
2547.53 1286313 1224019 1130753 1019994 799695 623305
2553.31 531977 480094 486910 488550 422247 390298
2559.10 390604 390652 420834 444469 366652 313454
2564.88 308516 291356 296517 308425 298612 329833
2570.67 327409 290843 270306 287263 298559 305029
2576.45 287353 243228 180158 152896 175954 203166
2582.24 224681 267134 309151 351581 358324 416899
2588.03 449088 498388 514235 516942 535250 553987
2593.81 467040 490889 574587 639468 722515 767552
2599.60 771941 772491 735055 703020 648215 610841
2605.38 607101 588258 618425 663016 672182 716108
2611.17 715466 665671 662014 742899 746203 721730
2616.95 693861 681062 715923 787707 866164 899987
2622.74 974868 1028872 943061 906002 910797 892037
2628.52 859761 905488 943452 925823 938512 996075
2634.31 1039540 1095372 1142496 1117913 1060526 978775
2640.09 912541 841646 828146 838331 787706 781175
2645.88 684742 627102 654667 700304 741009 767260
2651.67 726678 630174 583267 504745 390388 343427
2657.45 387035 366847 288895 322631 334698 278402
2663.24 209948 103713 111540 192064 173303 78826
2669.02 46859 83175 46124 9223 12652 98103
2674.81 110039 71911 60457 5163-1922 96092
2680.59 140409 88801 18012 15259-18219 3725
2686.38 72109 132607 81354 56080 159087 274946
2692.16 227340 135710 75005 61106 70851 142001
2697.95 211168 246721 334916 420587 438256 482271
2703.73 569842 593332 628726 700717 794838 839417
2709.52 927858 1011423 1033923 1081175 1163640 1258915
2715.31 1287513 1402574 1535081 1649747 1739575 1799679
2721.09 1890323 2089285 2320081 2562291 2818038 3174310
2726.88 3600771 4159803 4846495 5683643 6707206 7910525
2732.66 9155381 10481482 11673795 12595002 13083539 13061484
2738.45 12794782 12963057 14302165 16403387 15561766 13541214
2744.23 14008010 15486273 16478475 16632805 15997131 14546163
2750.02 12613963 10574095 8780030 7282315 6142750 5418038
2755.80 4797656 4192802 3739239 3377557 3145818 2931746
2761.59 2720523 2518602 2370285 2310597 2251058 2116646
2767.37 1990216 1945192 2000932 2016662 1972714 1895318
2773.16 1837869 1842496 1893014 1939417 1952672 1960042
2778.95 1974904 1944412 1978318 2036224 2048982 2089106
2784.73 2156684 2177261 2219918 2330223 2421413 2541095
2790.52 2634614 2690319 2703815 2803602 2921748 3018192
2796.30 3115050 3178017 3325673 3412714 3494964 3546097
2802.09 3648548 3778860 3928747 4087446 4178487 4290357
2807.87 4514171 4670186 4805497 4980369 5256274 5454497
2813.66 5614614 5814311 6052865 6294711 6499216 6811964
2819.44 7124657 7390988 7723264 8027633 8281435 8584959
2825.23 8929490 9299002 9609637 10000390 10366164 10607871
2831.01 10811903 11128357 11497912 11924582 12316863 12750622
2836.80 13256407 13805515 14361571 14984193 15623638 16384304
2842.59 17269190 18201928 19251063 20372426 21587473 23042037
2848.37 24488625 26063370 27938188 30057382 32376033 34916965
2854.16 37635494 40544852 43878533 47493442 51246262 55476321
2859.94 60064935 64852283 69930326 75319039 81013562 86997943
2865.73 93057078 98948471 104674456 110102640 115109603 119509464
2871.51 123268612 126508011 129065050 130952240 132326653 133282618
2877.30 133703021 133846202 133708535 133107748 132034480 130522289
2883.08 128532145 125895486 122875982 119627834 116213520 112854459
2888.87 109785879 107167627 104869927 103122049 101948902 101196812
2894.65 100780723 100687881 100928127 101527659 102256435 103112297
2900.44 104492677 106368510 108327269 110348932 112454692 114557266
2906.23 116769390 119057587 121283317 123588256 126094254 129012234
2912.01 132505772 136642195 141188220 146226488 151991218 158350023
2917.80 165491381 173386576 181914935 190684065 199584603 208654054
2923.58 217815438 226731666 235154550 242782974 249615381 255964581
2929.37 262039851 267806015 272921872 276953741 280047938 282372000
2935.15 283542370 282611171 279345289 275282269 271402799 267516712
2940.94 263493069 259412587 255302215 249527350 238227503 221360443
2946.72 204007848 188881211 176611044 167075106 159878152 155102683
2952.51 150824815 143029620 132848126 124693087 119286839 115699982
2958.29 113261204 111344854 108999148 105949463 102505913 98775444
2964.08 95098267 91425553 87694864 84166096 80954624 78219720
2969.87 76164542 74831233 74167937 74274666 75008822 76011781
2975.65 77140812 78320637 79673662 81728374 84566523 87941618
2981.44 91494902 94571992 96468791 96867892 96396613 96458877
2987.22 98036305 101044958 104263861 106357959 107723156 109484113
2993.01 112211918 115571095 118700156 120902698 122209346 123286203
2998.79 124647681 126929322 130393048 135135091 140737678 146570806
3004.58 151555898 155021032 157298620 159782870 163742761 169342726
3010.36 176271939 183702042 190241773 194470486 197020277 199470672
3016.15 202608342 207259192 213887190 221979628 230194741 236910661
3021.93 241664023 245494403 248905841 252182181 256071106 260538294
3027.72 263453212 263788559 263632937 264552620 265964729 266574943
3033.51 265279197 261672302 255982529 248898549 241613104 235376165
3039.29 230096704 224716638 218051120 211095178 205720104 202390554
3045.08 199725320 196108365 190664678 183605133 175942511 168512391
3050.86 161943372 156647089 152683679 149930471 148165788 147128739
3056.65 146375998 145695196 144611609 142431908 138783782 134274889
3062.43 130431403 128877757 129419677 131308553 133905501 135171584
3068.22 133228872 128034101 120865825 112962321 104939203 96988594
3074.00 89237190 81942444 75275663 69126757 63534292 58487974
3079.79 54006500 50191297 46927866 44377855 42076926 40020979
3085.57 38302127 36888929 35833802 34883490 33767482 32537211
3091.36 31313353 30199656 29320654 28601851 27930329 27265679
3097.15 26715975 26398472 26132364 25820930 25429722 24985155
3102.93 24508530 24160368 23864598 23579427 23447217 23355135
3108.72 23293220 23242815 23147696 22963033 22809744 22578657
3114.50 22242005 21613614 20809900 19963898 19265402 18572016
3120.29 17912277 17489706 16889809 16197112 15468455 14582383
3126.07 13486501 12336414 11083012 9909593 8802327 7777985
3131.86 6965507 6323441 5687103 5129425 4613779 4091583
3137.64 3592208 3238054 3050788 2825147 2549400 2304488
3143.43 2161445 2026368 1845568 1770335 1704226 1596795
3149.21 1512563 1430187 1323354 1249842 1234948 1208526
3155.00 1182708 1155413 1151878 1127312 1037912 981891
3160.79 969951 948920 840109 796618 799092 779877
3166.57 749786 779610 726866 670848 680319 792158
3172.36 779764 753766 598755 485967 562166 696220
3178.14 704632 685726 676466 743895 717007 624722
3183.93 573694 551197 597741 614916 550545 493152
3189.71 488342 490062 433075 447442 534099 588173
3195.50 534259 543716 481685 369251 284722 336281
3201.28 333094 347635 396448 341162 241386 217916
3207.07 319663 367651 364837 426518 478073 397457
3212.85 392349 333015 196339 86710 22990 23177
3218.64 26014-27551-93720-171050-303847-417178
3224.43-429747-471746-563557-515286-465333-417161
3230.21-290073-336360-489486-646727-780822-755050
3236.00-704278-496954-385993-423933-482218-430071
3241.78-451597-408937-370201-327703-255644-325579
3247.57-305258-241032-286753-214005-36889 61351
3253.35 20589 29761 104840 228765 322552 384953
3259.14 327460 279208 338758 332211 285107 315452
3264.92 359014 446864 429018 475292 477913 347314
3270.71 254248 293121 258286 225332 204940 117457
3276.49 153837 222584 173331 89072 36575-42787
3282.28-84715-34989 37413 62368 38676 44246
3288.07 33615 18805-10551 7121 55506 81495
3293.85 69582 76586 67877 80349 6709 35995
3299.64 62726 34658-12867-48377 72608 55942
3305.42-12917-29547-22083-42992-62128 21824
3311.21 23846 200-20600-93200-94496-93385
3316.99-86820-73988-73368-69731-7464-3775
3322.78-42832-112136-162643-94867-77021-63864
3328.56-108287-40667 31789 14928 397-48892
3334.35-77428-17539 44899-38214-113287 7717
3340.13 71421 102194 68402-57764-101385-2320
3345.92 39402 73871 56838 55615 43107-66897
3351.71-106647-46598-106937-93648-34187-30756
3357.49-41694-87708-150035-121757-94049-133532
3363.28-149114-209129-235162-152217-104354-116156
3369.06-99949 59951 177719 82317 49546-35570
3374.85-11922 42710 32395 121440 144294 121961
3380.63 179457 93893 79944 227058 324183 245515
3386.42 227263 312941 272618 382381 397287 305921
3392.20 207250 254155 482391 652896 639319 441208
3397.99 383721 358979 205220 273768 400887 453762
3403.77 456807 400343 293756 306308 392850 379313
3409.56 392651 370574 436416 368575 207482 293711
3415.35 374388 473844 476352 392785 414543 537303
3421.13 553181 507684 463017 419050 466455 405308
3426.92 343502 432840 497380 481049 346612 347893
3432.70 472851 544261 435266 360276 339606 343306
3438.49 352018 441034 472161 436354 336653 329004
3444.27 289409 334192 374138 463718 471365 435015
3450.06 421659 488738 440960 416192 482044 454377
3455.84 396998 490177 575697 501911 402537 325978
3461.63 356549 360618 426060 388641 370516 461623
3467.41 455028 484903 495781 445043 399279 344616
3473.20 232854 192863 140263 105805 134229 28253
3478.99-19530 17729 46483 78349 6606-63372
3484.77-160399-190575-205389-288595-297638-209313
3490.56-203594-246541-352130-393267-300903-215278
3496.34-285386-281644-224262-292117-290992-338184
3502.13-389356-435609-480876-399500-292123-302459
3507.91-304668-304572-322315-310636-396742-394596
3513.70-390788-358483-259011-220521-251561-339764
3519.48-406281-308449-229801-297013-351303-240411
3525.27-226132-315071-242971-206148-210800-146880
3531.05-122135-71582-75343-108840-113877-13232
3536.84 69274 55921 119161 208860 228368 148046
3542.63 162620 327472 432261 478152 485260 488355
3548.41 559677 663648 564790 485003 557513 575657
3554.20 546191 532232 515947 554765 509629 426901
3559.98 420578 482287 513603 385839 312719 397550
3565.77 382797 188638 119615 177838 117095 159907
3571.55 229241 181424 161849 188738 137724 120285
3577.34 114397 121629 89742 67653 66137 51696
3583.12 80012 124110-9144-167179-183388-141416
3588.91-87493-146655-261525-274543-190556-206399
3594.69-181671-167537-229279-278012-328798-343971
3600.48-321207-221693-325032-390860-319473-309220
3606.27-359071-453044-517014-315424-203147-309185
3612.05-367001-388539-410928-296863-251486-273225
3617.84-397905-453841-308148-285079-304751-236984
3623.62-240723-280561-305344-355802-471779-489106
3629.41-354682-335941-338797-294726-226239-171086
3635.19-256749-309868-322996-353139-261397-208138
3640.98-311805-353146-278692-217843-237643-358108
3646.76-390520-453859-528037-381091-303363-293977
3652.55-374443-398384-439152-422832-276585-206560
3658.33-236613-341134-390778-352976-331009-362745
3664.12-320418-334809-351104-311944-333924-496199
3669.91-573113-277422-171513-312656-609720-717670
3675.69-515702-307217-242710-263471-293566-225111
3681.48-228938-264926-361182-344161-225179-336614
3687.26-654059-544780-401989-346116-229117-265099
3693.05-315913-159663-210908-333801-287107-223289
3698.83-168520-157951-216618-90844-55960-72750
3704.62-146723-115371-144413-242981-398676-310566
3710.40-270340-279132-110222-81632-143667-185423
3716.19-122900-70535-122024-73052-11236-93193
3721.97-115175-115659-69887 60274 109777 164007
3727.76 121178 179473 270150 194907 222108 345968
3733.55 267810 228605 240265 357107 495724 547907
3739.33 556018 527896 516170 439891 49698 140052
3745.12 598875 710174 560451 256922 243565 402054
3750.90 229430 361027 685802 761694 735109 712306
3756.69 738430 575252 438871 585177 742692 787402
3762.47 839088 783391 762542 841463 904918 885945
3768.26 773246 752649 895923 926497 842022 808841
3774.04 869347 896392 852085 794998 770741 694030
3779.83 785183 880012 881511 802478 761294 724283
3785.61 650392 540419 496263 431261 458636 521391
3791.40 547757 544426 504875 442636 266546 254616
3797.19 346663 286376 109292-137237-101891 117800
3802.97 221935 202303 168618 114573 210058 231553
3808.76 197580 259225 140955 68709 113944 171553
3814.54-58704-40660 280488 381843 329050 194226
3820.33 99964 208927 367481 421144 508503 498527
3826.11 403358 473594 568949 518597 376798 416276
3831.90 563227 536356 460290 525053 474193 228824
3837.68 310883 506537 449852 479014 552943 537975
3843.47 555877 616895 591053 564785 536436 554587
3849.25 498510 340193 165368 26955-248067 54821
3855.04 369842 463439 466180 401677 446251 351981
3860.83 174421 284505 363755 217902 203933 378025
3866.61 442607 432116 226081 179401 367197 497161
3872.40 512060 505319 579887 658825 676131 712414
3878.18 732235 674976 670620 855138 886960 878750
3883.97 830945 735934 859278 992827 969933 947687
3889.75 894822 963513 1134880 1190059 1177447 1188972
3895.54 1235461 1270931 1245257 1195374 1254336 1297836
3901.32 1337952 1405610 1412788 1484465 1625156 1766057
3907.11 1703334 1679681 1719879 1803612 1790493 1840667
3912.89 1918815 1966261 2004901 1972213 1888279 1847598
3918.68 1820233 1798468 1852973 1954375 1854478 1795004
3924.47 1889386 1937403 1757144 1606485 1675141 1681910
3930.25 1619705 1551030 1510264 1534594 1574653 1583707
3936.04 1543321 1526494 1554009 1502820 1503126 1518852
3941.82 1568034 1611139 1524922 1496747 1449941 1420049
3947.61 1467528 1558265 1517813 1531410 1466744 1392610
3953.39 1425738 1480821 1461929 1399393 1478188 1549666
3959.18 1561972 1575701 1613491 1589193 1591376 1690005
3964.96 1796491 1723681 1676363 1677809 1671893 1692466
3970.75 1667220 1606667 1665494 1690395
##END=
