##TITLE=M-CHLORO PHENOL
$$ E.K. (W.L.)
##JCAMP-DX=4.24
##DATA TYPE=INFRARED SPECTRUM
##CLASS=COBLENTZ
##ORIGIN=WYANDOTTE CHEMICALS CORP., WYANDOTTE, MICHIGAN, USA
##OWNER=COBLENTZ SOCIETY
Collection (C) 2018 copyright by the U.S. Secretary of Commerce
on behalf of the United States of America. All rights reserved.
##DATE=Not specified, most likely prior to 1970
##NAMES=3-chlorophenol
##CAS REGISTRY NO=108-43-0
##MOLFORM=C6 H5 Cl O
##MP=33 C
##SOURCE REFERENCE=COBLENTZ NO. 1319
##$NIST SOURCE=COBLENTZ
##$NIST IMAGE=cob1319
##SPECTROMETER/DATA SYSTEM=Not specified, most likely a prism, grating, or hybrid spectrometer.
##STATE=SOLID (MINERAL OIL MULL)
##SAMPLING PROCEDURE=TRANSMISSION
##RESOLUTION=4
##DATA PROCESSING=DIGITIZED BY NIST FROM HARD COPY
##XUNITS=MICROMETERS
##YUNITS=TRANSMITTANCE
##XFACTOR=1.000000
##YFACTOR=1
##DELTAX=000.006803
##FIRSTX=2.014
##LASTX=15.993
##FIRSTY=0.653
##MAXX=15.993
##MINX=2.014
##MAXY=0.938
##MINY=0.052
##NPOINTS=2056
##XYDATA=(X++(Y..Y))
2.014000 0.6530 0.6530 0.6510 0.6510 0.6490
2.048030 0.6470 0.6410 0.6410 0.6370 0.6370
2.082000 0.6420 0.6460 0.6490 0.6540 0.6540
2.116030 0.6530 0.6530 0.6610 0.6630 0.6640
2.150000 0.6660 0.6680 0.6680 0.6680 0.6610
2.184030 0.6560 0.6590 0.6580 0.6560 0.6560
2.218000 0.6530 0.6510 0.6470 0.6420 0.6420
2.252030 0.6420 0.6420 0.6420 0.6410 0.6410
2.286000 0.6410 0.6420 0.6470 0.6490 0.6510
2.320030 0.6530 0.6510 0.6540 0.6580 0.6580
2.354000 0.6580 0.6560 0.6530 0.6490 0.6470
2.388030 0.6460 0.6440 0.6410 0.6390 0.6410
2.422000 0.6420 0.6460 0.6580 0.6660 0.6660
2.456030 0.6640 0.6590 0.6530 0.6530 0.6560
2.490000 0.6580 0.6580 0.6610 0.6640 0.6630
2.524030 0.6610 0.6660 0.6680 0.6760 0.6780
2.558000 0.6800 0.6810 0.6850 0.6880 0.6900
2.592030 0.6900 0.6880 0.6830 0.6780 0.6750
2.626000 0.6730 0.6760 0.6920 0.6980 0.7040
2.660030 0.7070 0.7090 0.7090 0.7090 0.7050
2.694000 0.7050 0.7040 0.7020 0.7000 0.6980
2.728030 0.6970 0.6950 0.6900 0.6850 0.6810
2.762000 0.6750 0.6700 0.6640 0.6630 0.6590
2.796030 0.6540 0.6470 0.6420 0.6390 0.6340
2.830000 0.6320 0.6270 0.6170 0.6050 0.5980
2.864030 0.5590 0.5510 0.5420 0.5010 0.4770
2.898000 0.4550 0.4300 0.4040 0.3700 0.3550
2.932030 0.3290 0.3110 0.2800 0.2730 0.2580
2.966000 0.2210 0.2190 0.2090 0.2000 0.1880
3.000030 0.1760 0.1640 0.1460 0.1340 0.1340
3.034000 0.1340 0.1340 0.1390 0.1510 0.1580
3.068030 0.1660 0.1700 0.1700 0.1640 0.1610
3.102000 0.1590 0.1610 0.1680 0.1750 0.1810
3.136030 0.1880 0.1950 0.2040 0.2120 0.2210
3.170000 0.2310 0.2390 0.2480 0.2500 0.2580
3.204030 0.2730 0.2890 0.3010 0.3040 0.3120
3.238000 0.3180 0.3230 0.3260 0.3260 0.3110
3.272030 0.3070 0.3060 0.3060 0.3040 0.3120
3.306000 0.3160 0.3160 0.3110 0.2990 0.2890
3.340030 0.2770 0.2610 0.2410 0.2100 0.1660
3.374000 0.1020 0.0930 0.0830 0.0760 0.0680
3.408030 0.0620 0.0560 0.0520 0.0520 0.0590
3.442000 0.0710 0.0780 0.0950 0.1020 0.1030
3.476030 0.1080 0.1100 0.1130 0.1130 0.1130
3.510000 0.1150 0.1150 0.1150 0.1170 0.1200
3.544030 0.2070 0.2390 0.2820 0.3970 0.4370
3.578000 0.4550 0.4650 0.4670 0.4720 0.4810
3.612030 0.4860 0.5060 0.5270 0.5340 0.5640
3.646000 0.5740 0.5780 0.5780 0.5740 0.5710
3.680030 0.5610 0.5570 0.5520 0.5510 0.5470
3.714000 0.5450 0.5440 0.5420 0.5390 0.5370
3.748030 0.5340 0.5340 0.5340 0.5350 0.5390
3.782000 0.5440 0.5450 0.5590 0.5620 0.5730
3.816030 0.5880 0.5910 0.5980 0.6020 0.6020
3.850000 0.6020 0.6020 0.6000 0.6000 0.6000
3.884030 0.5980 0.5960 0.5960 0.5950 0.5950
3.918000 0.5950 0.5960 0.5980 0.6020 0.6030
3.952030 0.6050 0.6050 0.6070 0.6080 0.6100
3.986000 0.6150 0.6190 0.6220 0.6250 0.6270
4.020030 0.6300 0.6360 0.6420 0.6420 0.6410
4.054000 0.6340 0.6300 0.6250 0.6150 0.6120
4.088030 0.6170 0.6220 0.6220 0.6240 0.6240
4.122000 0.6250 0.6270 0.6300 0.6320 0.6360
4.156030 0.6390 0.6420 0.6440 0.6470 0.6470
4.190000 0.6490 0.6510 0.6530 0.6560 0.6580
4.224030 0.6590 0.6590 0.6610 0.6590 0.6460
4.259000 0.6420 0.6420 0.6420 0.6420 0.6420
4.293030 0.6470 0.6630 0.6730 0.6850 0.6930
4.327000 0.6970 0.7000 0.7050 0.7100 0.7190
4.361030 0.7310 0.7340 0.7440 0.7500 0.7500
4.395000 0.7460 0.7410 0.7380 0.7340 0.7260
4.429030 0.7220 0.7220 0.7270 0.7270 0.7270
4.463000 0.7270 0.7270 0.7270 0.7290 0.7320
4.497030 0.7340 0.7340 0.7380 0.7390 0.7390
4.531000 0.7390 0.7390 0.7390 0.7320 0.7320
4.565030 0.7320 0.7320 0.7380 0.7390 0.7430
4.599000 0.7460 0.7500 0.7500 0.7480 0.7440
4.633030 0.7430 0.7440 0.7460 0.7500 0.7510
4.667000 0.7550 0.7550 0.7580 0.7600 0.7600
4.701030 0.7600 0.7580 0.7580 0.7480 0.7360
4.735000 0.7320 0.7320 0.7320 0.7320 0.7360
4.769030 0.7430 0.7460 0.7500 0.7530 0.7560
4.803000 0.7580 0.7600 0.7610 0.7650 0.7670
4.837030 0.7680 0.7700 0.7700 0.7680 0.7650
4.871000 0.7650 0.7650 0.7610 0.7610 0.7650
4.905030 0.7650 0.7680 0.7700 0.7720 0.7750
4.939000 0.7770 0.7820 0.7840 0.7840 0.7850
4.973030 0.7850 0.7850 0.7870 0.7870 0.7900
5.007000 0.7920 0.7940 0.7940 0.7950 0.7950
5.041030 0.7970 0.7990 0.7950 0.7950 0.7950
5.075000 0.7950 0.7970 0.8020 0.8070 0.8090
5.109030 0.8090 0.8070 0.8070 0.8070 0.8040
5.143000 0.7970 0.7950 0.8010 0.8010 0.8010
5.177030 0.8010 0.7990 0.7990 0.7990 0.7870
5.211000 0.7820 0.7750 0.7650 0.7440 0.7310
5.245030 0.7430 0.7610 0.7720 0.7800 0.7870
5.279000 0.7920 0.8020 0.8090 0.8120 0.8140
5.313030 0.8160 0.8180 0.8190 0.8190 0.8190
5.347000 0.8190 0.8110 0.8110 0.8110 0.8110
5.381030 0.8110 0.8140 0.8380 0.8380 0.8350
5.415000 0.8290 0.8280 0.8230 0.8210 0.8160
5.449030 0.8110 0.8040 0.7990 0.7900 0.7700
5.483000 0.7610 0.7600 0.7600 0.7610 0.7870
5.517030 0.8090 0.8230 0.8240 0.8280 0.8290
5.551000 0.8350 0.8400 0.8410 0.8400 0.8400
5.585030 0.8310 0.8310 0.8360 0.8410 0.8430
5.619000 0.8450 0.8430 0.8350 0.8210 0.8210
5.653030 0.8210 0.8210 0.8210 0.8210 0.8580
5.687000 0.8580 0.8520 0.8500 0.8350 0.8180
5.721030 0.8160 0.8160 0.8290 0.8280 0.8110
5.755000 0.8110 0.8110 0.8110 0.8310 0.8310
5.789030 0.8310 0.8310 0.8290 0.7890 0.7870
5.823000 0.8330 0.8330 0.8290 0.8010 0.7850
5.857030 0.7580 0.7510 0.7510 0.7600 0.7950
5.891000 0.8260 0.8520 0.8650 0.8630 0.8410
5.925030 0.8550 0.8600 0.8690 0.8800 0.8890
5.959000 0.8770 0.8840 0.8840 0.8990 0.9090
5.993030 0.9180 0.9200 0.9180 0.9090 0.9080
6.027000 0.8790 0.8800 0.9030 0.9140 0.9330
6.061030 0.9380 0.9330 0.9280 0.9200 0.9180
6.095000 0.8990 0.8800 0.8630 0.8450 0.8240
6.129030 0.7970 0.7610 0.7150 0.6590 0.5880
6.163000 0.5010 0.3960 0.1800 0.1580 0.1420
6.197030 0.1410 0.1420 0.1510 0.1560 0.1560
6.231000 0.1540 0.1270 0.1100 0.0980 0.0900
6.265030 0.0860 0.0880 0.1000 0.1250 0.1540
6.299000 0.1850 0.2150 0.2500 0.2800 0.3110
6.333030 0.3360 0.3600 0.3790 0.3910 0.3940
6.367000 0.4010 0.4160 0.4430 0.4760 0.5150
6.401030 0.5540 0.5640 0.5710 0.5730 0.5710
6.435000 0.5680 0.5610 0.5560 0.5540 0.5470
6.469030 0.5400 0.5400 0.5400 0.5400 0.5420
6.503000 0.5520 0.5660 0.5810 0.6000 0.6200
6.537030 0.6390 0.6590 0.6800 0.6970 0.7170
6.571000 0.7190 0.7170 0.7170 0.6980 0.6870
6.605030 0.6800 0.6710 0.6610 0.6440 0.6190
6.639000 0.5780 0.5200 0.4840 0.3860 0.3690
6.673030 0.2260 0.1900 0.1630 0.1440 0.1320
6.707000 0.1240 0.1190 0.1100 0.1020 0.0860
6.741030 0.0780 0.0740 0.0730 0.0710 0.0690
6.776000 0.0660 0.0620 0.0590 0.0570 0.0560
6.810030 0.0570 0.0590 0.0590 0.0610 0.0610
6.844000 0.0610 0.0620 0.0620 0.0640 0.0680
6.878030 0.0710 0.0760 0.0880 0.0980 0.1080
6.912000 0.1170 0.1270 0.1390 0.1530 0.1660
6.946030 0.1850 0.2050 0.2310 0.2600 0.2680
6.980000 0.2800 0.2950 0.3140 0.3330 0.3520
7.014030 0.3700 0.3860 0.3970 0.4040 0.4110
7.048000 0.4130 0.4140 0.4130 0.4130 0.4200
7.082030 0.4330 0.4450 0.4590 0.4720 0.4840
7.116000 0.4980 0.5110 0.5220 0.5320 0.5400
7.150030 0.5590 0.5610 0.5680 0.5680 0.5610
7.184000 0.5350 0.5180 0.5000 0.4790 0.4550
7.218030 0.4330 0.4090 0.3840 0.3580 0.3310
7.252000 0.3140 0.3090 0.3110 0.3230 0.3460
7.286030 0.3770 0.3870 0.3970 0.3990 0.4010
7.320000 0.4030 0.4140 0.4300 0.4310 0.4350
7.354030 0.4350 0.4310 0.4010 0.3870 0.3740
7.388000 0.3690 0.3630 0.3580 0.3570 0.3550
7.422030 0.3550 0.3550 0.3570 0.3500 0.3350
7.456000 0.3210 0.3020 0.2800 0.2600 0.2380
7.490030 0.2170 0.1980 0.1830 0.1710 0.1580
7.524000 0.1490 0.1460 0.1420 0.1420 0.1410
7.558030 0.1410 0.1440 0.1540 0.1640 0.1750
7.592000 0.1880 0.2020 0.2190 0.2390 0.2630
7.626030 0.2900 0.3210 0.3450 0.3650 0.3800
7.660000 0.4010 0.4030 0.4010 0.3650 0.3450
7.694030 0.3310 0.3140 0.3040 0.2970 0.2990
7.728000 0.3240 0.3720 0.4130 0.4500 0.4810
7.762030 0.5100 0.5340 0.5540 0.5710 0.5860
7.796000 0.6020 0.6130 0.6250 0.6370 0.6470
7.830030 0.6590 0.6630 0.6680 0.6700 0.6700
7.864000 0.6700 0.6680 0.6410 0.6300 0.5980
7.898030 0.5490 0.4910 0.4260 0.3620 0.3040
7.932000 0.2580 0.2270 0.1970 0.1780 0.1760
7.966030 0.1760 0.1780 0.1880 0.1970 0.2070
8.000000 0.2150 0.2260 0.2340 0.2430 0.2530
8.034030 0.2610 0.2720 0.2800 0.2900 0.3010
8.068000 0.3090 0.3190 0.3260 0.3330 0.3400
8.102030 0.3380 0.3290 0.3180 0.3040 0.2900
8.136000 0.2770 0.2650 0.2510 0.2390 0.2270
8.170030 0.2140 0.2000 0.1850 0.1810 0.1710
8.204000 0.1590 0.1470 0.1390 0.1360 0.1290
8.238030 0.1200 0.1130 0.1070 0.1030 0.0980
8.272000 0.0960 0.0930 0.0910 0.0930 0.0900
8.306030 0.0900 0.0880 0.0900 0.0930 0.1000
8.340000 0.1070 0.1120 0.1190 0.1270 0.1370
8.374030 0.1490 0.1610 0.1750 0.1900 0.2040
8.408000 0.2190 0.2320 0.2480 0.2610 0.2750
8.442030 0.2870 0.2970 0.3010 0.3090 0.3190
8.476000 0.3280 0.3380 0.3450 0.3520 0.3570
8.510030 0.3630 0.3670 0.3700 0.3770 0.3860
8.544000 0.3910 0.3970 0.4040 0.4090 0.4090
8.578030 0.4030 0.3920 0.3840 0.3800 0.3770
8.612000 0.3750 0.3750 0.3750 0.3720 0.3620
8.646030 0.3430 0.3240 0.3140 0.3110 0.3110
8.680000 0.3230 0.3740 0.4040 0.4250 0.4380
8.714030 0.4500 0.4600 0.4690 0.4760 0.4840
8.748000 0.4930 0.5010 0.5080 0.5130 0.5170
8.782030 0.5220 0.5270 0.5320 0.5390 0.5450
8.816000 0.5510 0.5520 0.5540 0.5590 0.5590
8.850030 0.5610 0.5610 0.5620 0.5640 0.5680
8.884000 0.5690 0.5710 0.5710 0.5740 0.5780
8.918030 0.5790 0.5810 0.5850 0.5880 0.5950
8.952000 0.6020 0.6030 0.6020 0.6000 0.5910
8.986030 0.5860 0.5780 0.5680 0.5540 0.5370
9.020000 0.5150 0.4840 0.4590 0.4350 0.4180
9.054030 0.3990 0.3800 0.3630 0.3480 0.3330
9.088000 0.3180 0.3040 0.2900 0.2780 0.2670
9.122030 0.2530 0.2390 0.2240 0.2090 0.1880
9.156000 0.1800 0.1760 0.1750 0.1780 0.2150
9.190030 0.2580 0.2820 0.3060 0.3290 0.3530
9.224000 0.3790 0.4640 0.4840 0.4980 0.5080
9.258030 0.5180 0.5200 0.5230 0.5230 0.5180
9.293000 0.4760 0.4400 0.4090 0.3800 0.3450
9.327030 0.3230 0.2750 0.2560 0.2410 0.2260
9.361000 0.2140 0.2090 0.2100 0.2320 0.2580
9.395030 0.3020 0.3410 0.3740 0.4040 0.4280
9.429000 0.4480 0.4640 0.4790 0.4910 0.5010
9.463030 0.5110 0.5220 0.5300 0.5390 0.5450
9.497000 0.5540 0.5610 0.5680 0.5740 0.5740
9.531030 0.5780 0.5850 0.5880 0.5880 0.5910
9.565000 0.5980 0.5980 0.6000 0.6020 0.6030
9.599030 0.6050 0.6070 0.6070 0.6080 0.6100
9.633000 0.6100 0.6120 0.6120 0.6120 0.6130
9.667030 0.6130 0.6150 0.6190 0.6200 0.6220
9.701000 0.6220 0.6250 0.6270 0.6270 0.6290
9.735030 0.6300 0.6300 0.6320 0.6340 0.6360
9.769000 0.6370 0.6410 0.6420 0.6420 0.6410
9.803030 0.6250 0.6170 0.6150 0.6170 0.6190
9.837000 0.6200 0.6220 0.6220 0.6240 0.6250
9.871030 0.6290 0.6320 0.6370 0.6440 0.6530
9.905000 0.6610 0.6680 0.6730 0.6750 0.6920
9.939030 0.7040 0.7090 0.7100 0.7140 0.7210
9.973000 0.7210 0.7210 0.6390 0.5610 0.4820
10.007030 0.4040 0.3480 0.3240 0.3230 0.3260
10.041000 0.5000 0.5660 0.6020 0.6250 0.6420
10.075030 0.6510 0.6590 0.6640 0.6710 0.6780
10.109000 0.6780 0.6780 0.6780 0.6610 0.6590
10.143030 0.6610 0.6700 0.6800 0.6830 0.6930
10.177000 0.7000 0.7050 0.7070 0.7120 0.7150
10.211030 0.7170 0.7170 0.7170 0.7170 0.7170
10.245000 0.7170 0.7190 0.7190 0.7210 0.7220
10.279030 0.7220 0.7220 0.7220 0.7140 0.7100
10.313000 0.7070 0.7070 0.7070 0.7070 0.7070
10.347030 0.7000 0.6930 0.6900 0.6850 0.6800
10.381000 0.6680 0.6580 0.6540 0.6560 0.6640
10.415030 0.6800 0.6930 0.7040 0.7120 0.7190
10.449000 0.7260 0.7290 0.7320 0.7360 0.7390
10.483030 0.7410 0.7430 0.7440 0.7460 0.7500
10.517000 0.7510 0.7550 0.7550 0.7560 0.7560
10.551030 0.7560 0.7560 0.7580 0.7580 0.7580
10.585000 0.7580 0.7600 0.7600 0.7600 0.7600
10.619030 0.7600 0.7600 0.7600 0.7600 0.7610
10.653000 0.7610 0.7610 0.7610 0.7610 0.7610
10.687030 0.7630 0.7630 0.7650 0.7650 0.7650
10.721000 0.7670 0.7670 0.7670 0.7680 0.7680
10.755030 0.7680 0.7700 0.7700 0.7700 0.7680
10.789000 0.7680 0.7680 0.7700 0.7730 0.7750
10.823030 0.7770 0.7770 0.7780 0.7800 0.7800
10.857000 0.7800 0.7800 0.7780 0.7780 0.7770
10.891030 0.7750 0.7750 0.7770 0.7780 0.7800
10.925000 0.7840 0.7870 0.7870 0.7890 0.7890
10.959030 0.7900 0.7920 0.7920 0.7920 0.7920
10.993000 0.7900 0.7900 0.7890 0.7840 0.7820
11.027030 0.7780 0.7680 0.7580 0.7460 0.7380
11.061000 0.7310 0.7210 0.7020 0.6800 0.6530
11.095030 0.6220 0.5860 0.5510 0.5110 0.4720
11.129000 0.4330 0.3920 0.3550 0.3180 0.2820
11.163030 0.2510 0.2240 0.2000 0.1810 0.1660
11.197000 0.1610 0.1320 0.1130 0.1020 0.0960
11.231030 0.0880 0.0810 0.0730 0.0710 0.0710
11.265000 0.0690 0.0690 0.0690 0.0690 0.0690
11.299030 0.0690 0.0690 0.0690 0.0690 0.0690
11.333000 0.0690 0.0690 0.0690 0.0690 0.0690
11.367030 0.0690 0.0710 0.0760 0.0850 0.0930
11.401000 0.1020 0.1050 0.1080 0.1190 0.1270
11.435030 0.1390 0.1540 0.1730 0.1920 0.2140
11.469000 0.2360 0.2580 0.2800 0.2990 0.3110
11.503030 0.3180 0.3240 0.3290 0.3400 0.3530
11.537000 0.3630 0.3690 0.3700 0.3690 0.3570
11.571030 0.3500 0.3410 0.3400 0.3410 0.3530
11.605000 0.3630 0.3740 0.3860 0.3960 0.4040
11.639030 0.4130 0.4180 0.4180 0.4180 0.4180
11.673000 0.4210 0.4210 0.4200 0.4200 0.4140
11.707030 0.4080 0.4060 0.4010 0.3960 0.3920
11.741000 0.3860 0.3790 0.3690 0.3600 0.3480
11.775030 0.3460 0.3360 0.3290 0.3240 0.3120
11.810000 0.3020 0.2900 0.2800 0.2720 0.2610
11.844030 0.2530 0.2430 0.2340 0.2270 0.2190
11.878000 0.2100 0.2020 0.1950 0.1870 0.1850
11.912030 0.1830 0.1810 0.1780 0.1710 0.1680
11.946000 0.1640 0.1630 0.1590 0.1590 0.1610
11.980030 0.1730 0.1870 0.1980 0.2100 0.2630
12.014000 0.2900 0.3090 0.3180 0.3450 0.4090
12.048030 0.4370 0.4570 0.4960 0.5180 0.5320
12.082000 0.5400 0.5470 0.5610 0.5830 0.5980
12.116030 0.6020 0.6130 0.6220 0.6200 0.6340
12.150000 0.6390 0.6440 0.6470 0.6530 0.6530
12.184030 0.6540 0.6580 0.6660 0.6730 0.6730
12.218000 0.6750 0.6750 0.6760 0.6780 0.6800
12.252030 0.6810 0.6870 0.6900 0.6900 0.6920
12.286000 0.6900 0.6880 0.6880 0.6870 0.6870
12.320030 0.6880 0.6930 0.6980 0.7000 0.6930
12.354000 0.6930 0.6930 0.6950 0.7000 0.7070
12.388030 0.7070 0.7090 0.7070 0.7070 0.7070
12.422000 0.6970 0.6950 0.6970 0.7000 0.7040
12.456030 0.7070 0.7070 0.7040 0.6980 0.6980
12.490000 0.6970 0.6970 0.6970 0.7000 0.7000
12.524030 0.7000 0.7000 0.6980 0.6970 0.6950
12.558000 0.6920 0.6900 0.6880 0.6870 0.6870
12.592030 0.6850 0.6830 0.6830 0.6780 0.6730
12.626000 0.6660 0.6630 0.6610 0.6510 0.6490
12.660030 0.6440 0.6410 0.6360 0.6320 0.6250
12.694000 0.6150 0.6030 0.5830 0.5830 0.5730
12.728030 0.5610 0.5440 0.5250 0.5080 0.4910
12.762000 0.4810 0.4740 0.4570 0.4380 0.4200
12.796030 0.3990 0.3800 0.3600 0.3410 0.3210
12.830000 0.3020 0.2820 0.2630 0.2460 0.2290
12.864030 0.2120 0.1980 0.1830 0.1710 0.1590
12.898000 0.1510 0.1420 0.1360 0.1300 0.1250
12.932030 0.1220 0.1170 0.1130 0.1100 0.1100
12.966000 0.1070 0.1050 0.1030 0.1030 0.1020
13.000030 0.1000 0.0980 0.0950 0.0950 0.0930
13.034000 0.0850 0.0810 0.0810 0.0810 0.0830
13.068030 0.0860 0.0910 0.0930 0.1000 0.1030
13.102000 0.1080 0.1120 0.1190 0.1270 0.1370
13.136030 0.1470 0.1610 0.1760 0.1880 0.2020
13.170000 0.2170 0.2290 0.2410 0.2480 0.2700
13.204030 0.2890 0.3060 0.3190 0.3350 0.3460
13.238000 0.3580 0.3700 0.3840 0.3970 0.4130
13.272030 0.4280 0.4400 0.4470 0.4540 0.4590
13.306000 0.4650 0.4720 0.4880 0.4960 0.5110
13.340030 0.5200 0.5230 0.5270 0.5300 0.5350
13.374000 0.5400 0.5470 0.5520 0.5590 0.5640
13.408030 0.5710 0.5730 0.5810 0.5810 0.5810
13.442000 0.5830 0.5860 0.5880 0.5930 0.5980
13.476030 0.6020 0.6030 0.6050 0.6070 0.6070
13.510000 0.6080 0.6080 0.6100 0.6100 0.6120
13.544030 0.6120 0.6130 0.6130 0.6130 0.6130
13.578000 0.6130 0.6150 0.6150 0.6150 0.6170
13.612030 0.6190 0.6190 0.6200 0.6200 0.6190
13.646000 0.6190 0.6190 0.6170 0.6150 0.6170
13.680030 0.6170 0.6170 0.6150 0.6120 0.6120
13.714000 0.6100 0.6080 0.6070 0.6070 0.6050
13.748030 0.5980 0.5950 0.5950 0.5930 0.5930
13.782000 0.5910 0.5880 0.5860 0.5850 0.5790
13.816030 0.5780 0.5760 0.5710 0.5690 0.5680
13.850000 0.5660 0.5660 0.5620 0.5610 0.5610
13.884030 0.5590 0.5570 0.5560 0.5520 0.5520
13.918000 0.5510 0.5510 0.5510 0.5520 0.5540
13.952030 0.5540 0.5540 0.5560 0.5560 0.5560
13.986000 0.5560 0.5560 0.5560 0.5540 0.5540
14.020030 0.5520 0.5520 0.5510 0.5490 0.5470
14.054000 0.5440 0.5400 0.5390 0.5320 0.5280
14.088030 0.5270 0.5250 0.5230 0.5220 0.5180
14.122000 0.5100 0.5080 0.5050 0.5030 0.5000
14.156030 0.4980 0.4940 0.4890 0.4910 0.4890
14.190000 0.4860 0.4840 0.4810 0.4770 0.4740
14.224030 0.4710 0.4670 0.4620 0.4600 0.4590
14.259000 0.4570 0.4540 0.4520 0.4500 0.4480
14.293030 0.4470 0.4430 0.4400 0.4380 0.4370
14.327000 0.4350 0.4350 0.4330 0.4310 0.4280
14.361030 0.4260 0.4250 0.4210 0.4200 0.4180
14.395000 0.4180 0.4160 0.4130 0.4110 0.4090
14.429030 0.4080 0.4010 0.3970 0.3960 0.3920
14.463000 0.3910 0.3890 0.3870 0.3870 0.3860
14.497030 0.3770 0.3700 0.3630 0.3570 0.3520
14.531000 0.3450 0.3400 0.3330 0.3240 0.3160
14.565030 0.3110 0.3060 0.3020 0.2990 0.2970
14.599000 0.2920 0.2870 0.2780 0.2730 0.2700
14.633030 0.2670 0.2650 0.2610 0.2580 0.2560
14.667000 0.2530 0.2510 0.2510 0.2500 0.2480
14.701030 0.2440 0.2430 0.2410 0.2380 0.2360
14.735000 0.2340 0.2320 0.2290 0.2270 0.2240
14.769030 0.2210 0.2170 0.2120 0.2090 0.2050
14.803000 0.2040 0.2020 0.2000 0.1980 0.1970
14.837030 0.1970 0.1970 0.1970 0.1970 0.1970
14.871000 0.1970 0.1970 0.1970 0.1980 0.1980
14.905030 0.2000 0.2000 0.2020 0.2040 0.2050
14.939000 0.2090 0.2120 0.2170 0.2240 0.2270
14.973030 0.2290 0.2340 0.2360 0.2530 0.2600
15.007000 0.2680 0.2750 0.2850 0.2950 0.3040
15.041030 0.3120 0.3190 0.3280 0.3350 0.3430
15.075000 0.3500 0.3550 0.3620 0.3690 0.3750
15.109030 0.3800 0.3860 0.3890 0.3910 0.3940
15.143000 0.3990 0.4080 0.4140 0.4210 0.4230
15.177030 0.4250 0.4330 0.4370 0.4420 0.4450
15.211000 0.4520 0.4570 0.4620 0.4690 0.4740
15.245030 0.4770 0.4810 0.4820 0.4880 0.4910
15.279000 0.4960 0.5000 0.5010 0.5030 0.5030
15.313030 0.5050 0.5050 0.5060 0.5080 0.5110
15.347000 0.5110 0.5130 0.5130 0.5150 0.5150
15.381030 0.5170 0.5170 0.5180 0.5180 0.5200
15.415000 0.5200 0.5220 0.5220 0.5230 0.5230
15.449030 0.5230 0.5230 0.5230 0.5230 0.5230
15.483000 0.5230 0.5230 0.5230 0.5250 0.5250
15.517030 0.5250 0.5250 0.5250 0.5250 0.5270
15.551000 0.5270 0.5270 0.5270 0.5280 0.5280
15.585030 0.5280 0.5280 0.5280 0.5280 0.5280
15.619000 0.5280 0.5280 0.5280 0.5280 0.5280
15.653030 0.5280 0.5300 0.5300 0.5320 0.5320
15.687000 0.5320 0.5340 0.5340 0.5340 0.5340
15.721030 0.5340 0.5340 0.5340 0.5320 0.5320
15.755000 0.5320 0.5320 0.5320 0.5320 0.5320
15.789030 0.5320 0.5320 0.5300 0.5300 0.5280
15.823000 0.5280 0.5270 0.5250 0.5250 0.5250
15.857030 0.5250 0.5250 0.5230 0.5230 0.5230
15.891000 0.5230 0.5220 0.5220 0.5220 0.5220
15.925030 0.5200 0.5200 0.5180 0.5170 0.5170
15.959000 0.5150 0.5130 0.5110 0.5100 0.5080
15.993030 0.5060
##END=
