##TITLE=BENZENE, 1,3-DIMETHYL-
##JCAMP-DX=4.24
##DATA TYPE=INFRARED SPECTRUM
##CLASS=COBLENTZ III
##ORIGIN=STANDARD OIL OF OHIO
##OWNER=COBLENTZ SOCIETY
Collection (C) 2018 copyright by the U.S. Secretary of Commerce
on behalf of the United States of America. All rights reserved.
##DATE=Not specified, most likely prior to 1970
##NAMES=m-xylene
m-XYLENE
##CAS REGISTRY NO=108-38-3
##MOLFORM=C8 H10
##SOURCE REFERENCE=COBLENTZ NO. 3578
##$NIST SOURCE=COBLENTZ
##$NIST IMAGE=cob3578
##SPECTROMETER/DATA SYSTEM=PERKIN-ELMER 521 (GRATING)
##INSTRUMENT PARAMETERS=FILTERS AT 3150, 2500, 2000, 1150, 700, 410. GRATING CHANGES: 2000, 630 CM^-^1
##STATE=LIQUID (NEAT)
##PATH LENGTH=0.0024 CM
##SAMPLING PROCEDURE=TRANSMISSION
##RESOLUTION=4
##DATA PROCESSING=DIGITIZED BY NIST FROM HARD COPY (FROM TWO SEGMENTS)
##XUNITS=1/CM
##YUNITS=TRANSMITTANCE
##XFACTOR=1.000000
##YFACTOR=1
##DELTAX=1.311192
##FIRSTX=593.094
##LASTX=3953.68
##FIRSTY=0.621
##MAXX=3953.68
##MINX=593.094
##MAXY=0.925
##MINY=0.01
##NPOINTS=2564
##XYDATA=(X++(Y..Y))
593.094000 0.6210 0.6200 0.6170 0.6030 0.6000
599.649961 0.5960 0.5900 0.5860 0.5830 0.5830
606.205922 0.5820 0.5820 0.5820 0.5830 0.5830
612.761883 0.5830 0.5840 0.5840 0.5840 0.5840
619.317844 0.5840 0.5860 0.5870 0.5900 0.5910
625.873805 0.5950 0.5960 0.5970 0.6010 0.6030
632.429766 0.6040 0.6090 0.6100 0.6130 0.6170
638.985727 0.6180 0.6210 0.6220 0.6260 0.6300
645.541688 0.6340 0.6380 0.6400 0.6440 0.6480
652.097649 0.6510 0.6510 0.6520 0.6540 0.6540
658.653610 0.6560 0.6560 0.6560 0.6570 0.6570
665.209571 0.6570 0.6590 0.6600 0.6669 0.6729
671.765532 0.6820 0.6840 0.6890 0.6940 0.6970
678.321493 0.6940 0.6890 0.6870 0.6810 0.6651
684.877454 0.6400 0.6050 0.5611 0.5161 0.4343
691.433415 0.3514 0.2367 0.1675 0.0975 0.0782
697.989376 0.0770 0.2478 0.4186 0.4957 0.6035
704.545337 0.6329 0.6817 0.7029 0.7209 0.7309
711.101298 0.7440 0.7510 0.7570 0.7630 0.7700
717.657259 0.7720 0.7780 0.7830 0.7840 0.7840
724.213220 0.7840 0.7830 0.7800 0.7740 0.7710
730.769182 0.7760 0.7800 0.7840 0.7880 0.7920
737.325143 0.8000 0.7980 0.7970 0.7930 0.7910
743.881104 0.7880 0.7840 0.7800 0.7750 0.7661
750.437065 0.7550 0.7400 0.7290 0.7210 0.7031
756.993026 0.6821 0.6522 0.6123 0.5832 0.5532
763.548987 0.5010 0.4261 0.3871 0.3471 0.2803
770.104948 0.2253 0.1693 0.0756 0.0333 0.0132
776.660909 0.0100 0.0100 0.0140 0.0280 0.0400
783.216870 0.0818 0.1267 0.2323 0.2955 0.4249
789.772831 0.4730 0.5309 0.6098 0.6349 0.6519
796.328792 0.6769 0.6869 0.7108 0.7358 0.7618
802.884753 0.7790 0.8010 0.8060 0.8210 0.8250
809.440714 0.8300 0.8350 0.8390 0.8400 0.8440
815.996675 0.8450 0.8470 0.8480 0.8490 0.8490
822.552636 0.8510 0.8520 0.8530 0.8570 0.8610
829.108597 0.8620 0.8680 0.8690 0.8690 0.8700
835.664558 0.8700 0.8720 0.8720 0.8730 0.8740
842.220519 0.8740 0.8740 0.8750 0.8750 0.8750
848.776480 0.8750 0.8750 0.8740 0.8730 0.8720
855.332441 0.8720 0.8700 0.8690 0.8690 0.8660
861.888402 0.8610 0.8600 0.8550 0.8520 0.8441
868.444363 0.8400 0.8310 0.8210 0.8100 0.7980
875.000324 0.7741 0.7412 0.6694 0.6015 0.5673
881.556285 0.5320 0.5030 0.5030 0.5369 0.5480
888.112246 0.6097 0.6418 0.6738 0.6988 0.7159
894.668207 0.7310 0.7410 0.7500 0.7580 0.7650
901.224168 0.7789 0.7800 0.7780 0.7720 0.7631
907.780129 0.7440 0.7110 0.6471 0.6470 0.7028
914.336090 0.7070 0.7309 0.8015 0.8248 0.8379
920.892051 0.8470 0.8490 0.8510 0.8520 0.8530
927.448012 0.8550 0.8570 0.8590 0.8600 0.8600
934.003973 0.8610 0.8610 0.8610 0.8610 0.8610
940.559934 0.8610 0.8610 0.8600 0.8600 0.8600
947.115895 0.8590 0.8570 0.8560 0.8520 0.8490
953.671856 0.8480 0.8480 0.8480 0.8480 0.8470
960.227817 0.8440 0.8430 0.8420 0.8390 0.8360
966.783778 0.8340 0.8260 0.8250 0.8171 0.8101
973.339739 0.8080 0.8060 0.8080 0.8090 0.8100
979.895700 0.8100 0.8150 0.8170 0.8170 0.8180
986.451661 0.8180 0.8180 0.8180 0.8180 0.8170
993.007622 0.8170 0.8130 0.8100 0.8060 0.8020
999.563583 0.7970 0.7920 0.7880 0.7850 0.7830
1006.119545 0.7800 0.7750 0.7740 0.7710 0.7700
1012.675506 0.7620 0.7550 0.7510 0.7500 0.7440
1019.231467 0.7420 0.7400 0.7380 0.7370 0.7340
1025.787428 0.7320 0.7280 0.7200 0.7140 0.7020
1032.343389 0.6871 0.6641 0.6421 0.6202 0.6091
1038.899350 0.5970 0.5630 0.5330 0.5091 0.4901
1045.455311 0.4840 0.4840 0.4850 0.4999 0.5238
1052.011272 0.5710 0.6040 0.6250 0.6400 0.6729
1058.567233 0.6810 0.7069 0.7150 0.7329 0.7370
1065.123194 0.7500 0.7540 0.7660 0.7720 0.7780
1071.679155 0.7850 0.7890 0.7930 0.7960 0.8000
1078.235116 0.8010 0.8010 0.8010 0.8000 0.7980
1084.791077 0.7970 0.7910 0.7870 0.7800 0.7651
1091.347038 0.7400 0.7030 0.6630 0.6470 0.6330
1097.902999 0.5792 0.5263 0.6702 0.7028 0.7040
1104.458960 0.7140 0.7420 0.7810 0.8129 0.8230
1111.014921 0.8310 0.8360 0.8390 0.8420 0.8440
1117.570882 0.8440 0.8450 0.8470 0.8450 0.8450
1124.126843 0.8440 0.8430 0.8420 0.8400 0.8400
1130.682804 0.8400 0.8400 0.8430 0.8510 0.8520
1137.238765 0.8530 0.8530 0.8530 0.8530 0.8520
1143.794726 0.8510 0.8510 0.8510 0.8490 0.8450
1150.350687 0.8400 0.8350 0.8280 0.8210 0.8012
1156.906648 0.7880 0.7740 0.7530 0.7580 0.7789
1163.462609 0.7870 0.7870 0.7761 0.7611 0.7233
1170.018570 0.6609 0.6010 0.6010 0.6329 0.6629
1176.574531 0.7059 0.8006 0.8229 0.8359 0.8420
1183.130492 0.8480 0.8520 0.8530 0.8560 0.8590
1189.686453 0.8590 0.8600 0.8600 0.8600 0.8600
1196.242414 0.8600 0.8600 0.8600 0.8610 0.8610
1202.798375 0.8610 0.8620 0.8640 0.8650 0.8660
1209.354336 0.8680 0.8690 0.8690 0.8700 0.8700
1215.910297 0.8690 0.8700 0.8720 0.8720 0.8730
1222.466258 0.8730 0.8730 0.8730 0.8730 0.8730
1229.022219 0.8720 0.8720 0.8720 0.8720 0.8700
1235.578180 0.8680 0.8660 0.8650 0.8640 0.8610
1242.134141 0.8590 0.8560 0.8530 0.8470 0.8430
1248.690102 0.8340 0.8320 0.8340 0.8360 0.8380
1255.246063 0.8420 0.8520 0.8550 0.8550 0.8530
1261.802024 0.8520 0.8520 0.8510 0.8480 0.8480
1268.357985 0.8510 0.8520 0.8550 0.8550 0.8560
1274.913947 0.8560 0.8560 0.8560 0.8560 0.8560
1281.469908 0.8560 0.8550 0.8550 0.8550 0.8560
1288.025869 0.8560 0.8550 0.8530 0.8530 0.8520
1294.581830 0.8520 0.8510 0.8510 0.8490 0.8480
1301.137791 0.8470 0.8440 0.8430 0.8420 0.8420
1307.693752 0.8420 0.8420 0.8430 0.8430 0.8430
1314.249713 0.8420 0.8420 0.8420 0.8420 0.8400
1320.805674 0.8400 0.8390 0.8390 0.8380 0.8360
1327.361635 0.8340 0.8320 0.8300 0.8270 0.8260
1333.917596 0.8230 0.8210 0.8190 0.8170 0.8140
1340.473557 0.8120 0.8100 0.8080 0.8040 0.8010
1347.029518 0.8000 0.7980 0.7970 0.7920 0.7870
1353.585479 0.7840 0.7810 0.7740 0.7700 0.7670
1360.141440 0.7620 0.7530 0.7500 0.7420 0.7311
1366.697401 0.7210 0.7100 0.7020 0.6760 0.6521
1373.253362 0.6221 0.5921 0.5622 0.5103 0.4713
1379.809323 0.4710 0.4900 0.5190 0.5390 0.5540
1386.365284 0.6038 0.6169 0.6309 0.6429 0.6470
1392.921245 0.6470 0.6470 0.6440 0.6420 0.6400
1399.477206 0.6380 0.6350 0.6330 0.6310 0.6300
1406.033167 0.6300 0.6300 0.6300 0.6300 0.6300
1412.589128 0.6290 0.6260 0.6250 0.6220 0.6200
1419.145089 0.6170 0.6040 0.6000 0.5950 0.5920
1425.701050 0.5800 0.5770 0.5621 0.5024 0.5020
1432.257011 0.5770 0.5730 0.5660 0.5610 0.5530
1438.812972 0.5460 0.5311 0.5141 0.5001 0.4841
1445.368933 0.4630 0.4530 0.4370 0.4220 0.4030
1451.924894 0.3960 0.3900 0.3781 0.3740 0.3661
1458.480855 0.3600 0.3530 0.3440 0.3420 0.3400
1465.036816 0.3350 0.3260 0.3131 0.3130 0.3170
1471.592777 0.3310 0.3340 0.3340 0.3360 0.3430
1478.148738 0.3530 0.3610 0.3570 0.3431 0.3152
1484.704699 0.3100 0.2800 0.2710 0.2650 0.2650
1491.260660 0.2680 0.2680 0.2620 0.2540 0.2411
1497.816621 0.2190 0.2060 0.1930 0.2100 0.2619
1504.372582 0.2710 0.2760 0.2959 0.2980 0.3248
1510.928543 0.4021 0.4710 0.5160 0.5160 0.5160
1517.484504 0.5150 0.5140 0.5130 0.4981 0.4970
1524.040465 0.5141 0.5500 0.5610 0.6080 0.6220
1530.596426 0.6240 0.6240 0.6240 0.6220 0.6220
1537.152387 0.6220 0.6210 0.6210 0.6170 0.6140
1543.708348 0.6130 0.6140 0.6628 0.6719 0.6740
1550.264310 0.6760 0.6800 0.6810 0.6820 0.6850
1556.820271 0.6990 0.7010 0.7020 0.7040 0.7189
1563.376232 0.7200 0.7240 0.7250 0.7250 0.7240
1569.932193 0.7250 0.7250 0.7270 0.7270 0.7280
1576.488154 0.7290 0.7290 0.7280 0.7280 0.7250
1583.044115 0.7240 0.7180 0.7140 0.7100 0.7021
1589.600076 0.6940 0.6820 0.6640 0.6001 0.5920
1596.156037 0.5830 0.5312 0.4753 0.4213 0.4210
1602.711998 0.4691 0.5630 0.5670 0.5670 0.5331
1609.267959 0.4114 0.3751 0.3392 0.3151 0.2634
1615.823920 0.2380 0.2290 0.2230 0.2190 0.1801
1622.379881 0.1391 0.2416 0.4191 0.4598 0.6060
1628.935842 0.6741 0.7270 0.7830 0.8100 0.8190
1635.491803 0.8230 0.8340 0.8420 0.8549 0.8659
1642.047764 0.8680 0.8690 0.8680 0.8680 0.8680
1648.603725 0.8660 0.8620 0.8600 0.8520 0.8510
1655.159686 0.8510 0.8450 0.8400 0.8380 0.8360
1661.715647 0.8360 0.8360 0.8360 0.8380 0.8390
1668.271608 0.8490 0.8520 0.8600 0.8640 0.8690
1674.827569 0.8750 0.8830 0.8850 0.8870 0.8910
1681.383530 0.9000 0.9020 0.9030 0.9060 0.9080
1687.939491 0.9090 0.9110 0.9110 0.9110 0.9090
1694.495452 0.9090 0.9070 0.9060 0.9060 0.9090
1701.051413 0.9110 0.9110 0.9090 0.9070 0.9040
1707.607374 0.9030 0.9020 0.8980 0.8920 0.8920
1714.163335 0.8950 0.8980 0.9060 0.9090 0.9090
1720.719296 0.9110 0.9110 0.9110 0.9120 0.9110
1727.275257 0.9090 0.9070 0.9030 0.9030 0.9020
1733.831218 0.9000 0.8950 0.8920 0.8900 0.8830
1740.387179 0.8740 0.8730 0.8700 0.8640 0.8561
1746.943140 0.8550 0.8490 0.8440 0.8440 0.8450
1753.499101 0.8470 0.8490 0.8520 0.8530 0.8550
1760.055062 0.8560 0.8550 0.8550 0.8530 0.8520
1766.611023 0.8510 0.8490 0.8430 0.8400 0.8390
1773.166984 0.8380 0.8350 0.8350 0.8340 0.8340
1779.722945 0.8340 0.8350 0.8350 0.8390 0.8400
1786.278906 0.8430 0.8520 0.8590 0.8650 0.8700
1792.834867 0.8750 0.8780 0.8810 0.8860 0.8910
1799.390828 0.8950 0.8960 0.8990 0.8990 0.9000
1805.946789 0.9000 0.9000 0.9000 0.9000 0.9000
1812.502750 0.9000 0.9000 0.9000 0.9000 0.9000
1819.058711 0.9020 0.9020 0.9030 0.9030 0.9060
1825.614673 0.9070 0.9070 0.9080 0.9080 0.9060
1832.170634 0.9060 0.9040 0.9020 0.9000 0.8990
1838.726595 0.8960 0.8920 0.8860 0.8830 0.8730
1845.282556 0.8660 0.8560 0.8520 0.8391 0.8271
1851.838517 0.8230 0.8180 0.8130 0.8080 0.8050
1858.394478 0.8040 0.8040 0.8050 0.8060 0.8090
1864.950439 0.8180 0.8280 0.8350 0.8510 0.8610
1871.506400 0.8690 0.8750 0.8859 0.8910 0.8950
1878.062361 0.9000 0.9000 0.9020 0.9030 0.9030
1884.618322 0.9020 0.9000 0.8990 0.9020 0.9060
1891.174283 0.9080 0.9080 0.9070 0.9060 0.9060
1897.730244 0.9060 0.9040 0.9030 0.9030 0.9030
1904.286205 0.9030 0.9030 0.9030 0.9020 0.8990
1910.842166 0.8950 0.8920 0.8900 0.8860 0.8830
1917.398127 0.8820 0.8780 0.8750 0.8740 0.8720
1923.954088 0.8680 0.8650 0.8620 0.8590 0.8520
1930.510049 0.8420 0.8340 0.8230 0.8140 0.8010
1937.066010 0.8000 0.8000 0.8010 0.8040 0.8100
1943.621971 0.8170 0.8230 0.8310 0.8360 0.8520
1950.177932 0.8749 0.8770 0.8820 0.8860 0.8940
1956.733893 0.9000 0.9030 0.9070 0.9110 0.9120
1963.289854 0.9130 0.9130 0.9150 0.9150 0.9150
1969.845815 0.9150 0.9150 0.9150 0.9150 0.9150
1976.401776 0.9150 0.9150 0.9160 0.9170 0.9200
1982.957737 0.9200 0.9210 0.9210 0.9210 0.9210
1989.513698 0.9210 0.9200 0.9200 0.9200 0.9200
1996.069659 0.9200 0.9190 0.9190 0.9160 0.9080
2002.625620 0.9080 0.9149 0.9170 0.9190 0.9190
2009.181581 0.9200 0.9200 0.9200 0.9200 0.9200
2015.737542 0.9200 0.9200 0.9200 0.9200 0.9200
2022.293503 0.9200 0.9200 0.9200 0.9200 0.9200
2028.849464 0.9200 0.9191 0.9199 0.9209 0.9210
2035.405425 0.9210 0.9210 0.9219 0.9220 0.9220
2041.961386 0.9237 0.9240 0.9240 0.9240 0.9240
2048.517347 0.9248 0.9250 0.9242 0.9240 0.9240
2055.073308 0.9240 0.9240 0.9240 0.9240 0.9240
2061.629269 0.9225 0.9220 0.9220 0.9212 0.9210
2068.185230 0.9210 0.9210 0.9210 0.9210 0.9203
2074.741191 0.9200 0.9193 0.9176 0.9170 0.9163
2081.297152 0.9153 0.9136 0.9123 0.9120 0.9140
2087.853113 0.9164 0.9190 0.9200 0.9200 0.9207
2094.409075 0.9210 0.9210 0.9210 0.9210 0.9210
2100.965036 0.9204 0.9194 0.9178 0.9158 0.9138
2107.520997 0.9124 0.9114 0.9110 0.9116 0.9126
2114.076958 0.9142 0.9161 0.9181 0.9196 0.9206
2120.632919 0.9210 0.9210 0.9210 0.9210 0.9210
2127.188880 0.9210 0.9210 0.9210 0.9210 0.9210
2133.744841 0.9210 0.9205 0.9200 0.9200 0.9200
2140.300802 0.9200 0.9195 0.9190 0.9190 0.9190
2146.856763 0.9181 0.9170 0.9170 0.9170 0.9170
2153.412724 0.9170 0.9170 0.9170 0.9170 0.9170
2159.968685 0.9170 0.9178 0.9190 0.9190 0.9190
2166.524646 0.9190 0.9194 0.9204 0.9210 0.9206
2173.080607 0.9200 0.9200 0.9200 0.9200 0.9200
2179.636568 0.9200 0.9200 0.9203 0.9210 0.9207
2186.192529 0.9200 0.9200 0.9200 0.9197 0.9190
2192.748490 0.9190 0.9190 0.9190 0.9193 0.9203
2199.304451 0.9210 0.9210 0.9210 0.9210 0.9210
2205.860412 0.9208 0.9200 0.9200 0.9200 0.9198
2212.416373 0.9190 0.9190 0.9186 0.9168 0.9160
2218.972334 0.9160 0.9160 0.9160 0.9160 0.9162
2225.528295 0.9170 0.9170 0.9173 0.9190 0.9192
2232.084256 0.9200 0.9200 0.9200 0.9200 0.9200
2238.640217 0.9200 0.9200 0.9200 0.9200 0.9200
2245.196178 0.9200 0.9200 0.9200 0.9200 0.9199
2251.752139 0.9190 0.9190 0.9190 0.9190 0.9189
2258.308100 0.9170 0.9170 0.9160 0.9160 0.9150
2264.864061 0.9149 0.9130 0.9120 0.9110 0.9110
2271.420022 0.9090 0.9080 0.9070 0.9080 0.9080
2277.975983 0.9090 0.9110 0.9091 0.9090 0.9080
2284.531944 0.9061 0.9032 0.9030 0.9002 0.8981
2291.087905 0.8980 0.8989 0.8999 0.9000 0.9027
2297.643866 0.9066 0.9088 0.9108 0.9128 0.9130
2304.199827 0.9121 0.9120 0.9120 0.9120 0.9129
2310.755788 0.9147 0.9150 0.9133 0.9130 0.9130
2317.311749 0.9122 0.9120 0.9120 0.9120 0.9120
2323.867710 0.9120 0.9120 0.9120 0.9112 0.9086
2330.423671 0.9064 0.9029 0.9004 0.9000 0.9000
2336.979632 0.9015 0.9028 0.9053 0.9060 0.9060
2343.535593 0.9060 0.9045 0.9040 0.9062 0.9070
2350.091554 0.9070 0.9077 0.9080 0.9073 0.9070
2356.647515 0.9077 0.9087 0.9090 0.9090 0.9090
2363.203476 0.9090 0.9103 0.9110 0.9110 0.9110
2369.759438 0.9110 0.9110 0.9110 0.9110 0.9110
2376.315399 0.9110 0.9098 0.9090 0.9090 0.9078
2382.871360 0.9070 0.9064 0.9060 0.9060 0.9048
2389.427321 0.9034 0.9024 0.9009 0.9000 0.8994
2395.983282 0.8984 0.8980 0.8969 0.8960 0.8955
2402.539243 0.8945 0.8930 0.8920 0.8920 0.8930
2409.095204 0.8945 0.8955 0.8970 0.8985 0.8990
2415.651165 0.8990 0.8990 0.8990 0.8985 0.8980
2422.207126 0.8971 0.8960 0.8960 0.8960 0.8969
2428.763087 0.8980 0.8980 0.8980 0.8980 0.8980
2435.319048 0.8984 0.8990 0.8990 0.8990 0.8994
2441.875009 0.9000 0.9007 0.9020 0.9020 0.9020
2448.430970 0.9024 0.9030 0.9027 0.9020 0.9020
2454.986931 0.9020 0.9020 0.9020 0.9014 0.9000
2461.542892 0.8997 0.8993 0.8997 0.8990 0.8987
2468.098853 0.8980 0.8980 0.8980 0.8980 0.8983
2474.654814 0.8990 0.8987 0.8972 0.8943 0.8918
2481.210775 0.8910 0.8910 0.8910 0.8912 0.8935
2487.766736 0.8992 0.9004 0.9020 0.9022 0.9030
2494.322697 0.9032 0.9040 0.9040 0.9040 0.9043
2500.878658 0.9060 0.9060 0.9062 0.9070 0.9071
2507.434619 0.9080 0.9081 0.9093 0.9110 0.9110
2513.990580 0.9111 0.9120 0.9120 0.9120 0.9120
2520.546541 0.9120 0.9120 0.9120 0.9120 0.9120
2527.102502 0.9120 0.9120 0.9120 0.9120 0.9120
2533.658463 0.9110 0.9109 0.9089 0.9070 0.9070
2540.214424 0.9059 0.9030 0.9030 0.9030 0.9020
2546.770385 0.9020 0.9030 0.9069 0.9090 0.9119
2553.326346 0.9120 0.9120 0.9120 0.9120 0.9120
2559.882307 0.9120 0.9120 0.9120 0.9120 0.9120
2566.438268 0.9120 0.9120 0.9120 0.9120 0.9120
2572.994229 0.9120 0.9120 0.9120 0.9120 0.9120
2579.550190 0.9120 0.9120 0.9120 0.9120 0.9120
2586.106151 0.9111 0.9110 0.9110 0.9110 0.9093
2592.662112 0.9090 0.9082 0.9080 0.9080 0.9072
2599.218073 0.9062 0.9068 0.9102 0.9110 0.9110
2605.774034 0.9110 0.9110 0.9110 0.9095 0.9090
2612.329995 0.9090 0.9090 0.9090 0.9090 0.9090
2618.885956 0.9083 0.9080 0.9080 0.9080 0.9080
2625.441917 0.9080 0.9080 0.9073 0.9063 0.9039
2631.997878 0.9030 0.9030 0.9030 0.9030 0.9037
2638.553840 0.9040 0.9053 0.9066 0.9070 0.9076
2645.109801 0.9080 0.9080 0.9080 0.9080 0.9099
2651.665762 0.9110 0.9092 0.9080 0.9080 0.9080
2658.221723 0.9080 0.9080 0.9080 0.9080 0.9080
2664.777684 0.9080 0.9080 0.9086 0.9090 0.9090
2671.333645 0.9101 0.9110 0.9110 0.9110 0.9110
2677.889606 0.9110 0.9110 0.9110 0.9110 0.9110
2684.445567 0.9100 0.9090 0.9090 0.9090 0.9090
2691.001528 0.9085 0.9080 0.9080 0.9075 0.9070
2697.557489 0.9070 0.9070 0.9066 0.9051 0.9040
2704.113450 0.9036 0.9030 0.9026 0.9020 0.9020
2710.669411 0.9012 0.9000 0.8996 0.8979 0.8952
2717.225372 0.8933 0.8920 0.8916 0.8906 0.8890
2723.781333 0.8863 0.8840 0.8806 0.8767 0.8733
2730.337294 0.8697 0.8621 0.8519 0.8418 0.8336
2736.893255 0.8153 0.8002 0.7940 0.7827 0.7600
2743.449216 0.7415 0.7403 0.7447 0.7594 0.7804
2750.005177 0.8135 0.8445 0.8612 0.8644 0.8722
2756.561138 0.8741 0.8787 0.8810 0.8812 0.8822
2763.117099 0.8830 0.8830 0.8830 0.8834 0.8850
2769.673060 0.8850 0.8850 0.8850 0.8847 0.8830
2776.229021 0.8828 0.8820 0.8820 0.8819 0.8810
2782.784982 0.8810 0.8808 0.8789 0.8780 0.8779
2789.340943 0.8768 0.8749 0.8739 0.8729 0.8718
2795.896904 0.8699 0.8689 0.8678 0.8648 0.8619
2802.452865 0.8598 0.8569 0.8558 0.8530 0.8520
2809.008826 0.8508 0.8449 0.8429 0.8400 0.8389
2815.564787 0.8350 0.8340 0.8310 0.8250 0.8230
2822.120748 0.8191 0.8131 0.8091 0.8022 0.8010
2828.676709 0.7981 0.7951 0.7893 0.7843 0.7783
2835.232670 0.7714 0.7654 0.7548 0.7503 0.7390
2841.788631 0.7316 0.7237 0.7157 0.7069 0.6952
2848.344592 0.6851 0.6778 0.6682 0.6373 0.6121
2854.900553 0.6021 0.5932 0.5722 0.5562 0.5336
2861.456514 0.4963 0.4749 0.4479 0.4248 0.4062
2868.012475 0.3965 0.3877 0.3722 0.3553 0.3392
2874.568436 0.3281 0.3221 0.3210 0.3226 0.3261
2881.124397 0.3308 0.3366 0.3487 0.3573 0.3635
2887.680358 0.3710 0.3767 0.3809 0.3842 0.3850
2894.236319 0.3857 0.3853 0.3836 0.3823 0.3785
2900.792280 0.3735 0.3671 0.3616 0.3566 0.3530
2907.348241 0.3513 0.3436 0.3333 0.3221 0.3101
2913.904203 0.2969 0.2862 0.2734 0.2585 0.2373
2920.460164 0.2143 0.1992 0.1882 0.1674 0.1533
2927.016125 0.1311 0.1090 0.0965 0.0897 0.0874
2933.572086 0.0876 0.0903 0.1057 0.1245 0.1383
2940.128047 0.1507 0.1681 0.1921 0.2094 0.2177
2946.684008 0.2231 0.2261 0.2270 0.2254 0.2240
2953.239969 0.2235 0.2230 0.2235 0.2240 0.2255
2959.795930 0.2289 0.2320 0.2344 0.2383 0.2424
2966.351891 0.2449 0.2474 0.2499 0.2519 0.2534
2972.907852 0.2557 0.2597 0.2637 0.2685 0.2749
2979.463813 0.2806 0.2846 0.2870 0.2874 0.2884
2986.019774 0.2898 0.2918 0.2960 0.3021 0.3055
2992.575735 0.3102 0.3154 0.3191 0.3231 0.3284
2999.131696 0.3323 0.3363 0.3390 0.3380 0.3354
3005.687657 0.3331 0.3298 0.3234 0.3111 0.2979
3012.243618 0.2820 0.2630 0.2462 0.2229 0.2054
3018.799579 0.1989 0.1875 0.1697 0.1607 0.1535
3025.355540 0.1520 0.1525 0.1542 0.1561 0.1611
3031.911501 0.1659 0.1694 0.1712 0.1722 0.1732
3038.467462 0.1744 0.1764 0.1784 0.1804 0.1834
3045.023423 0.1934 0.2113 0.2209 0.2386 0.2542
3051.579384 0.2626 0.2732 0.2814 0.2849 0.2915
3058.135345 0.2959 0.3024 0.3058 0.3130 0.3219
3064.691306 0.3318 0.3496 0.3584 0.3853 0.4231
3071.247267 0.4483 0.4655 0.4871 0.5046 0.5307
3077.803228 0.5437 0.5578 0.5762 0.6037 0.6213
3084.359189 0.6293 0.6402 0.6501 0.6551 0.6640
3090.915150 0.6740 0.6810 0.6860 0.6929 0.7009
3097.471111 0.7059 0.7118 0.7197 0.7248 0.7288
3104.027072 0.7319 0.7329 0.7339 0.7359 0.7341
3110.583033 0.7331 0.7321 0.7311 0.7310 0.7319
3117.138994 0.7329 0.7375 0.7416 0.7527 0.7655
3123.694955 0.7749 0.7979 0.8132 0.8211 0.8306
3130.250916 0.8388 0.8468 0.8514 0.8554 0.8594
3136.806877 0.8633 0.8648 0.8658 0.8685 0.8714
3143.362838 0.8728 0.8746 0.8766 0.8770 0.8786
3149.918799 0.8806 0.8810 0.8810 0.8818 0.8820
3156.474760 0.8828 0.8830 0.8845 0.8850 0.8857
3163.030721 0.8860 0.8867 0.8870 0.8870 0.8884
3169.586682 0.8890 0.8897 0.8900 0.8900 0.8900
3176.142643 0.8907 0.8910 0.8910 0.8910 0.8910
3182.698605 0.8910 0.8910 0.8910 0.8910 0.8910
3189.254566 0.8910 0.8910 0.8916 0.8939 0.8969
3195.810527 0.8980 0.8986 0.8990 0.8990 0.8990
3202.366488 0.8990 0.8990 0.8990 0.8990 0.8996
3208.922449 0.9000 0.9000 0.8994 0.8990 0.8996
3215.478410 0.9000 0.9000 0.9000 0.9000 0.9000
3222.034371 0.9000 0.9000 0.9000 0.9000 0.9000
3228.590332 0.9010 0.9010 0.9000 0.9000 0.9000
3235.146293 0.9000 0.9000 0.9000 0.9000 0.9000
3241.702254 0.9000 0.9000 0.9000 0.9000 0.9000
3248.258215 0.9000 0.9000 0.9008 0.9020 0.9012
3254.814176 0.9000 0.9000 0.9000 0.9000 0.9008
3261.370137 0.9020 0.9020 0.9020 0.9020 0.9020
3267.926098 0.9020 0.9023 0.9030 0.9030 0.9030
3274.482059 0.9030 0.9030 0.9030 0.9030 0.9033
3281.038020 0.9040 0.9040 0.9040 0.9040 0.9040
3287.593981 0.9040 0.9040 0.9040 0.9040 0.9040
3294.149942 0.9040 0.9040 0.9040 0.9040 0.9040
3300.705903 0.9040 0.9040 0.9040 0.9040 0.9040
3307.261864 0.9040 0.9040 0.9040 0.9040 0.9040
3313.817825 0.9040 0.9038 0.9030 0.9030 0.9030
3320.373786 0.9030 0.9030 0.9030 0.9030 0.9030
3326.929747 0.9030 0.9030 0.9030 0.9030 0.9030
3333.485708 0.9030 0.9030 0.9030 0.9030 0.9030
3340.041669 0.9030 0.9030 0.9030 0.9030 0.9030
3346.597630 0.9030 0.9030 0.9030 0.9030 0.9030
3353.153591 0.9030 0.9030 0.9030 0.9030 0.9030
3359.709552 0.9030 0.9030 0.9020 0.9020 0.9020
3366.265513 0.9020 0.9020 0.9020 0.9020 0.9020
3372.821474 0.9020 0.9020 0.9020 0.9020 0.9020
3379.377435 0.9020 0.9020 0.9020 0.9020 0.9020
3385.933396 0.9020 0.9002 0.9000 0.9000 0.9000
3392.489357 0.9000 0.9000 0.9000 0.9000 0.9000
3399.045318 0.9000 0.9000 0.9000 0.9000 0.9000
3405.601279 0.9000 0.9000 0.9000 0.9017 0.9020
3412.157240 0.9020 0.9004 0.9016 0.9020 0.9020
3418.713201 0.9020 0.9020 0.9020 0.9020 0.9020
3425.269162 0.9004 0.9000 0.9000 0.9000 0.8992
3431.825123 0.8990 0.8990 0.8990 0.8990 0.8983
3438.381084 0.8980 0.8980 0.8980 0.8980 0.8980
3444.937045 0.8980 0.8980 0.8966 0.8960 0.8960
3451.493006 0.8960 0.8960 0.8960 0.8960 0.8960
3458.048968 0.8960 0.8960 0.8960 0.8960 0.8960
3464.604929 0.8960 0.8960 0.8960 0.8960 0.8960
3471.160890 0.8960 0.8960 0.8960 0.8960 0.8960
3477.716851 0.8960 0.8960 0.8960 0.8960 0.8960
3484.272812 0.8960 0.8960 0.8960 0.8960 0.8960
3490.828773 0.8960 0.8960 0.8960 0.8960 0.8960
3497.384734 0.8960 0.8960 0.8960 0.8960 0.8960
3503.940695 0.8960 0.8960 0.8960 0.8960 0.8960
3510.496656 0.8960 0.8960 0.8969 0.8980 0.8980
3517.052617 0.8980 0.8980 0.8980 0.8980 0.8980
3523.608578 0.8980 0.8980 0.8972 0.8960 0.8960
3530.164539 0.8960 0.8956 0.8950 0.8950 0.8946
3536.720500 0.8940 0.8940 0.8940 0.8940 0.8933
3543.276461 0.8920 0.8920 0.8920 0.8920 0.8920
3549.832422 0.8920 0.8920 0.8920 0.8920 0.8920
3556.388383 0.8920 0.8920 0.8926 0.8940 0.8943
3562.944344 0.8950 0.8953 0.8960 0.8960 0.8960
3569.500305 0.8965 0.8980 0.8980 0.8980 0.8980
3576.056266 0.8982 0.8990 0.8990 0.8990 0.8990
3582.612227 0.8988 0.8976 0.8960 0.8958 0.8950
3589.168188 0.8948 0.8940 0.8940 0.8942 0.8950
3595.724149 0.8955 0.8983 0.9000 0.9003 0.9020
3602.280110 0.9021 0.9030 0.9030 0.9030 0.9030
3608.836071 0.9030 0.9030 0.9030 0.9030 0.9030
3615.392032 0.9030 0.9030 0.9029 0.9021 0.9030
3621.947993 0.9031 0.9040 0.9040 0.9040 0.9040
3628.503954 0.9040 0.9040 0.9030 0.9030 0.9030
3635.059915 0.9030 0.9030 0.9030 0.9030 0.9030
3641.615876 0.9020 0.9020 0.9020 0.9020 0.9020
3648.171837 0.9020 0.9020 0.9020 0.9020 0.9020
3654.727798 0.9020 0.9029 0.9021 0.9020 0.9002
3661.283759 0.9000 0.9000 0.9000 0.9000 0.8991
3667.839720 0.8990 0.8990 0.8990 0.8990 0.8990
3674.395681 0.8999 0.9000 0.9000 0.8992 0.8990
3680.951642 0.8990 0.8990 0.8990 0.8990 0.8990
3687.507603 0.8990 0.8990 0.8990 0.8990 0.8990
3694.063564 0.8990 0.8990 0.8998 0.9000 0.9000
3700.619525 0.8992 0.8998 0.9000 0.9000 0.9000
3707.175486 0.8993 0.8990 0.8990 0.8990 0.8990
3713.731447 0.8990 0.8990 0.8990 0.8990 0.8990
3720.287408 0.8990 0.8990 0.8990 0.8983 0.8987
3726.843369 0.8990 0.8983 0.8980 0.8967 0.8953
3733.399331 0.8944 0.8940 0.8927 0.8920 0.8914
3739.955292 0.8910 0.8910 0.8910 0.8916 0.8920
3746.511253 0.8920 0.8932 0.8940 0.8940 0.8940
3753.067214 0.8928 0.8920 0.8931 0.8929 0.8920
3759.623175 0.8915 0.8915 0.8915 0.8910 0.8910
3766.179136 0.8905 0.8900 0.8900 0.8900 0.8905
3772.735097 0.8910 0.8910 0.8910 0.8910 0.8915
3779.291058 0.8915 0.8915 0.8920 0.8920 0.8920
3785.847019 0.8920 0.8920 0.8920 0.8920 0.8929
3792.402980 0.8940 0.8944 0.8950 0.8954 0.8960
3798.958941 0.8960 0.8960 0.8960 0.8960 0.8960
3805.514902 0.8956 0.8950 0.8950 0.8950 0.8946
3812.070863 0.8940 0.8940 0.8940 0.8940 0.8940
3818.626824 0.8940 0.8940 0.8933 0.8920 0.8917
3825.182785 0.8913 0.8917 0.8910 0.8907 0.8900
3831.738746 0.8900 0.8903 0.8910 0.8913 0.8920
3838.294707 0.8920 0.8920 0.8920 0.8920 0.8920
3844.850668 0.8920 0.8920 0.8920 0.8920 0.8920
3851.406629 0.8920 0.8920 0.8918 0.8910 0.8910
3857.962590 0.8910 0.8910 0.8910 0.8908 0.8902
3864.518551 0.8910 0.8910 0.8910 0.8909 0.8900
3871.074512 0.8900 0.8900 0.8900 0.8899 0.8890
3877.630473 0.8888 0.8870 0.8869 0.8859 0.8850
3884.186434 0.8848 0.8830 0.8830 0.8830 0.8829
3890.742395 0.8820 0.8820 0.8820 0.8820 0.8820
3897.298356 0.8810 0.8809 0.8790 0.8790 0.8790
3903.854317 0.8790 0.8790 0.8790 0.8790 0.8780
3910.410278 0.8780 0.8780 0.8780 0.8780 0.8780
3916.966239 0.8780 0.8780 0.8780 0.8809 0.8810
3923.522200 0.8791 0.8790 0.8809 0.8810 0.8791
3930.078161 0.8790 0.8790 0.8781 0.8789 0.8781
3936.634122 0.8780 0.8780 0.8780 0.8780 0.8780
3943.190083 0.8771 0.8779 0.8780 0.8780 0.8754
3949.746044 0.8776 0.8780 0.8780 0.8755
##END=
