##TITLE=1,3-Dimethylbenzene
##JCAMP-DX=4.24
##DATA TYPE=INFRARED SPECTRUM
##CLASS=IUPAC A
##ORIGIN=NIST, Analytical Chemistry Division, 301-975-3108
##OWNER=COPYRIGHT (C) 2001 by the U.S. Secretary of Commerce
##DATE=01/06/01
##$SPECTRA VERSION=1.10
##$UNCERTAINTY IN Y=2.1 % relative (B=1.13E-04,C=1.33E-9,D=3.50E-14)
##CAS NAME=1,3-Dimethylbenzene
##CAS REGISTRY NO=108-38-3
##MOLFORM=1,3-( C H3)2 C6 H4
##MP=-47.87 C
##BP=139.1 C
##$NIST SOURCE=QUANT-IR
##SPECTROMETER/DATA SYSTEM=IFS66V (Bruker)
##INSTRUMENT PARAMETERS=KBr Beam Splitter; MCT Detector; Multipass cell
##STATE=gas
##SAMPLE DESCRIPTION=m-Xylene Primary Gas Standard
##PRESSURE=101.3 Pa
##TEMPERATURE=23 C
##SAMPLING PROCEDURE=1 L/min Flow
##RESOLUTION=1.9290
##DATA PROCESSING=Triangular Apodization
##XUNITS=cm-1
##YUNITS=(micromol/mol)-1m-1 (base 10)
##XFACTOR=1.0
##YFACTOR=9.0949E-13
##DELTAX=0.9645
##FIRSTX=575.652
##LASTX=3974.606
##FIRSTY=-2.75E-07
##MAXX=3973.64
##MINX=575.65
##MAXY=.0005106
##MINY=-8.97E-07
##NPOINTS=3526
##XYDATA=(X++(Y..Y))
575.65-302717-42101-556400-780866-861072-38585
580.47 192688-643016-920279-448902-614998-544255
586.26-370978-723903-519166-273236 18653 106370
592.04-477390-856155-692885-430614-599518-930630
597.83-986727-412321-195505-632290-594533-527456
603.62-532145-238370-499884-347187-294871-522718
609.40-578363-690413-371840-266583-535013-536050
615.19-326352-150697-81324-376437-608200-582131
620.97-539098-255353 95192-295641-549293-341751
626.76-111809-165663-366125-222220-351992-376263
632.54-96495-224638-426191-368396-295219-347291
638.33-216921-308960-297820-280873-296656-10259
644.11 86405 190408 292743 338967 526527 591783
649.90 564405 722090 1052253 1283199 1490416 1903171
655.68 2106016 1976246 2015616 2127143 2565551 3043362
661.47 3260285 3603390 4406501 5443562 7281550 8717834
667.26 9019056 9728026 11320413 13527858 16395255 19642890
673.04 23452117 27330738 31766807 36329693 40817502 44734862
678.83 48212647 50997767 53504154 55502800 57808776 59435423
684.61 63149400 68522517 80163921 98538337 148156483 214172062
690.40 173018000 98907724 79724082 73640604 75881120 73232672
696.18 68295657 65431764 63896909 61983799 59890351 55928988
701.97 50572769 44734940 39084466 33661468 28615112 23690482
707.75 19474545 15915144 12952585 10442505 8554901 7160552
713.54 5949775 4895528 4135954 3636231 3348743 2926282
719.32 2648732 2669803 2524904 2306331 2268527 2239560
725.11 2253855 2519250 2648694 2705124 2893435 2789488
730.90 2534795 2450502 2591508 2901794 2910891 3044025
736.68 3500002 4260475 5239445 6593588 7854025 9134820
742.47 11166653 14023144 17629422 22532480 28488762 35687564
748.25 44209108 54194487 65413412 77902373 90935575 104626719
754.04 117953242 130455155 141274688 151574441 160958200 169438560
759.82 175931328 181741353 188152457 202857914 230925015 287926928
765.61 385705390 531954785 561416036 368373357 226761633 199333362
771.39 187814349 186678565 183671902 182326019 176805365 169036399
777.18 159320674 148606214 135680065 121231185 105624425 90644957
782.96 76338783 63274963 51434917 41411761 32792486 25879031
788.75 20203384 15877465 12440724 10072578 8268737 6983685
794.53 6070504 5074432 4218917 3700377 3125988 2797974
800.32 2672076 2674606 2414986 2131635 1852976 1789721
806.11 1824250 1682200 1600569 1496243 1258213 1199364
811.89 1300586 1230721 934728 925745 1085990 1097696
817.68 940811 1031943 1098330 1185617 1151416 915259
823.46 734289 657470 737501 811561 785987 801698
829.25 712301 648579 762036 693114 555046 695047
835.03 725468 654450 654025 671074 641476 642926
840.82 678136 698451 806718 923614 920281 966010
846.60 1049550 1228771 1398320 1628323 1912595 1995439
852.39 2192903 2722850 3331221 4041596 4770789 5521586
858.17 6322426 7248390 8225652 9360474 10522590 11279438
863.96 11931178 12572793 13237471 13924335 14496667 15230696
869.75 16345048 18068938 20941198 26535741 35453711 42245003
875.53 34995513 21630123 16412651 15268564 14836551 14493210
881.32 14303546 14171272 13925371 13814372 13305101 12631154
887.10 12011126 11383069 10747315 10338039 10253953 10494592
892.89 11232472 12260875 13442399 14705936 15966019 17067240
898.67 17730978 17810483 17290036 16790021 16799241 17514781
904.46 18863265 19380541 17705181 15552258 15162830 15808017
910.24 15951214 15208583 13709164 11647997 9363425 7090811
916.03 5250548 3942580 3026398 2382631 1957674 1734140
921.81 1600874 1627957 1609416 1496633 1428455 1522625
927.60 1591586 1577724 1651875 1709202 1763714 1861927
933.39 1927326 1997607 2184711 2309998 2305492 2395935
939.17 2409926 2401295 2489309 2574405 2750671 2845453
944.96 2814723 2801577 2860048 2933614 2942519 3060203
950.74 3183002 3227108 3295150 3309998 3350751 3461673
956.53 3526137 3537260 3572316 3660999 3751135 3853741
962.31 4041570 4188264 4337699 4491394 4564802 4772718
968.10 4967820 5011172 5031006 5103869 5281915 5442195
973.88 5416676 5290832 5143627 5024304 4998384 5013918
979.67 4989018 4903806 4846453 4901016 4968285 4961604
985.45 4997434 5086122 5190094 5307606 5531764 5813870
991.24 6014282 6309273 6704433 6989999 7288610 7742095
997.03 8187204 8624853 9043041 9328650 9585000 9920058
1002.81 10323892 10667357 10925730 11157027 11171150 11019965
1008.60 10753301 10351055 10067691 9855206 9664602 9409504
1014.38 8901518 8504700 8275687 7946737 7604526 7232663
1020.17 6884895 6547407 6361969 6434149 6549420 6832691
1025.95 7201777 7638193 8199378 8819280 9515423 10207919
1031.74 10859769 11601790 12399277 13147624 13884305 14724404
1037.52 15751443 17166487 19374795 21947327 24838902 26290502
1043.31 25597653 24228449 22891510 22718802 22682688 22123398
1049.09 21542558 21201339 21100941 20938789 20728614 20288610
1054.88 19753631 19274689 18611673 17775614 16820689 15808461
1060.67 14779714 13880782 13201551 12538861 11832329 11160336
1066.45 10583729 10196835 9954489 9622160 9237377 9044497
1072.24 8950506 8948654 9106213 9272244 9554863 10022592
1078.02 10587565 11402324 12361745 13407778 14662711 16171517
1083.81 17936534 19798757 21733032 23676539 25538145 27179534
1089.59 28362212 29065560 28799609 26995118 24186008 22176479
1095.38 22029858 22891116 24139743 25395555 25982946 25609442
1101.16 24387041 22483638 20292132 18084563 15893465 13959860
1106.95 12314771 10820607 9511730 8467503 7691694 7167094
1112.73 6773953 6483200 6262188 6081169 5980644 5970649
1118.52 5896320 5718880 5478910 5211468 4985103 4796539
1124.31 4718005 4724038 4891008 5068989 5025908 4946377
1130.09 4731713 4463975 4309883 4146467 3943023 3701794
1135.88 3489398 3268760 3186111 3137779 3041364 2936938
1141.66 2789889 2740819 2780283 2853539 2872971 2981808
1147.45 3234412 3451451 3581952 3715486 4055128 4432210
1153.23 4573340 4538242 4531092 4784772 5351580 5935101
1159.02 6272011 6791012 7671917 8664018 9454900 9863569
1164.80 9850658 9443190 8806562 8339717 8617165 9989888
1170.59 10373635 8535076 7326771 7552294 8201086 8604688
1176.37 8473367 7940768 7144162 6130896 5117848 4332023
1182.16 3734763 3323755 2996119 2812057 2697597 2677470
1187.95 2660859 2643601 2658940 2530368 2336501 2229471
1193.73 2170978 2131410 2062086 2112443 2241444 2232553
1199.52 2184828 2108289 2040053 1977371 1854929 1792950
1205.30 1768782 1724246 1653010 1534848 1503070 1544977
1211.09 1473752 1407446 1417617 1398617 1392138 1372098
1216.87 1303878 1253302 1248597 1308184 1303272 1201990
1222.66 1227716 1313300 1307035 1299095 1318100 1324068
1228.44 1370474 1481584 1488870 1559559 1681069 1729328
1234.23 1819031 1909066 2078890 2244737 2364412 2542698
1240.01 2694591 2879724 3153082 3359567 3500807 3606510
1245.80 3607059 3521245 3427594 3308170 3252067 3349996
1251.59 3522471 3787517 4042932 4266176 4417471 4417023
1257.37 4341508 4136032 3960492 3797241 3577965 3405744
1263.16 3208066 3033283 2920887 2870083 2925549 3067410
1268.94 3105863 3059441 2967940 2777702 2616456 2506668
1274.73 2348549 2242439 2229380 2193664 2204960 2189268
1280.51 2141959 2073148 1982863 1970985 1917735 1808295
1286.30 1794886 1749471 1684311 1809769 1858647 1830533
1292.08 1801729 1840672 2027340 2110605 2163051 2262630
1297.87 2297182 2216564 2135069 2158940 2123401 2175681
1303.65 2214448 2199585 2310238 2388327 2445624 2495483
1309.44 2528361 2487808 2425871 2454950 2445613 2408993
1315.23 2417414 2411719 2464155 2489462 2420611 2410347
1321.01 2407569 2458325 2520466 2498608 2510617 2607223
1326.80 2756853 2780206 2725644 2728379 2782121 2836503
1332.58 2887312 2941810 3014790 3071233 3057780 3061648
1338.37 3142323 3315446 3446970 3629198 3773388 3872397
1344.15 4041139 4171176 4353751 4533884 4750750 5006771
1349.94 5188031 5275039 5658338 6101393 6376528 6812893
1355.72 7080269 7388893 7871050 8210579 8546153 8969978
1361.51 9330556 9765740 10388048 10907775 11556821 12328522
1367.29 12931830 13577157 14450937 15680631 17230463 18945860
1373.08 20939633 22998624 24941606 26653814 27739177 28503811
1378.87 30293295 33288980 33610656 31583007 31140728 32449431
1384.65 34574402 36226222 36423652 35418369 33829182 32043238
1390.44 30424025 28704916 26522932 24524209 23124843 22209415
1396.22 21710941 21302485 21041056 20864409 20569352 20106994
1402.01 19415164 18720472 18179971 17856679 17680159 17677096
1407.79 17829496 18101816 18471087 18714845 18862694 18898123
1413.58 18914337 18999127 19105918 19344748 19426758 19419380
1419.36 19780501 20202122 20524188 20687174 20793842 20919024
1425.15 21059746 21375009 21857013 22433047 23192506 24251980
1430.93 25594507 27164551 28897125 30844257 32630690 34349166
1436.72 36311778 38047236 39368194 40505417 41508434 42559445
1442.51 43740515 44741403 45779800 46997305 48316149 49718784
1448.29 50652472 50909784 50996840 50914673 50364373 49551975
1454.08 48985488 48359046 47753338 47479491 47006441 46473533
1459.86 46331896 46655609 47182463 47713415 48203303 48953488
1465.65 49902219 51127932 52810177 54485803 55783430 56631695
1471.43 57263075 57963818 58917894 60076344 61563184 63648830
1477.22 66270596 68758085 70331842 71810524 74788207 78834971
1483.00 82698700 86419369 90328377 94166454 97647480 100290783
1488.79 101913418 103697869 106470238 109833449 112953248 115279389
1494.57 116388399 116410111 116178175 116301625 117637909 119485845
1500.36 119958364 118352138 114779219 110773364 107444438 104557701
1506.15 101441487 97792294 93356367 88317236 83144402 77963471
1511.93 73176801 69330082 66697376 64968114 63213445 60919017
1517.72 58705413 57031983 55730283 54785500 54038235 53327046
1523.50 52791931 52528457 52762826 53099891 52950310 52304041
1529.29 51594780 50975859 50249882 49189617 47890998 46686694
1535.07 45677722 45042418 44514109 43887999 43337034 42396793
1540.86 40652524 38535592 36211054 33621596 31289778 29326002
1546.64 27517262 25932623 24555995 23461938 22580702 21824027
1552.43 21067295 20408671 20012566 19599807 19018099 18506310
1558.21 18256188 18067250 18093438 18031251 17944248 17987519
1564.00 17992467 18115378 18378134 18740053 19039109 19307772
1569.79 19582365 19706096 19716881 19710782 19662520 19353888
1575.57 19373870 19993940 20458298 20746918 21078165 21538863
1581.36 22253038 23239564 24386805 25639099 26851408 28307104
1587.14 30121839 32241809 34597132 37175618 39672848 41661024
1592.93 42991049 43565327 43806488 44573953 46952815 51561980
1598.71 57892044 64780336 71274783 76980562 81718268 86160058
1604.50 91170087 97681425 106858159 119182553 132614276 144605941
1610.28 154242082 160603606 161184653 155960940 148904669 146289340
1616.07 151703102 165333551 162474873 136870283 122782150 123623678
1621.85 126794874 126559177 119870240 107414612 91243579 73955692
1627.64 57717603 44051008 33180963 25067412 19261062 15206833
1633.43 12324465 10434459 9480791 8899767 8264340 7603526
1639.21 7005671 6616134 6353744 6172464 6149837 6220906
1645.00 6330207 6677765 6953429 7194765 7355569 7399574
1650.78 7113099 6551077 6449396 6719509 7004652 7024016
1656.57 6512505 5924872 5773805 5833350 5823501 5559287
1662.35 5130047 4695150 4158931 3572868 3014596 2485396
1668.14 2020225 1813517 1638682 1447173 1344688 1200612
1673.92 1003498 991320 1076274 996105 894335 809094
1679.71 790801 777188 670993 511894 255129 437798
1685.49 746812 709685 707535 726318 780289 889442
1691.28 931599 978306 1087484 802287 730645 1195698
1697.07 1425889 1408849 1186165 1312805 1581436 1520716
1702.85 1398170 1427616 1612159 1678942 1602940 1451761
1708.64 1404062 1490084 1578092 1585561 1570683 1418870
1714.42 1324345 1276498 1059878 1140482 1308764 1383279
1720.21 1460644 1584469 1750193 1900725 2160548 2477275
1725.99 2754530 3021098 3243550 3429431 3645735 3834172
1731.78 4063648 4394025 5008270 5959235 6849015 7543996
1737.56 8075485 8431244 8819136 9096629 9106797 8905825
1743.35 8497576 7966597 7485067 7381016 7619767 8155649
1749.13 8742749 8977290 9147072 9066720 8675817 8264078
1754.92 7813169 7435156 7194601 6919231 6661586 6493690
1760.71 6377309 6530889 6818994 7168327 7550172 7743478
1766.49 8036229 8546068 9025841 9242193 9078753 8547138
1772.28 7953013 7339822 6640537 6323806 6421546 6879042
1778.06 7566657 7855751 7566443 6950479 6292842 5660085
1783.85 5006702 4402549 3751644 3177735 2741588 2349101
1789.63 1982606 1656406 1395499 1315322 1296431 1227978
1795.42 1161854 1123701 1140500 1126197 1199641 1319874
1801.20 1434113 1562117 1627522 1699282 1803434 1902904
1806.99 2013435 2102716 2156034 2309318 2434842 2407098
1812.77 2349309 2336711 2364174 2420872 2506016 2501448
1818.56 2415269 2362292 2292925 2231766 2209036 2138085
1824.35 2121120 2189291 2258282 2366294 2474661 2642335
1830.13 2906190 3230916 3563919 3903865 4301689 4675240
1835.92 4984726 5282029 5575771 5833318 6061276 6398865
1841.70 7077907 7988884 9202126 10691896 12139561 13314070
1847.49 14023579 14239078 13903112 13124252 12635465 12960269
1853.27 14097161 14003235 11387569 9647909 10028161 10842481
1859.06 11273967 10989449 10061709 8746987 7300821 5809222
1864.84 4432325 3322135 2563016 2049094 1782648 1697235
1870.63 1585608 1510038 1487205 1461730 1445892 1388595
1876.41 1329956 1252720 1182948 1174163 1149797 1152798
1882.20 1238829 1258038 1179273 1178423 1255780 1341912
1887.99 1403846 1446202 1475156 1430401 1349578 1304400
1893.77 1375077 1515407 1564064 1546227 1561211 1605705
1899.56 1658793 1760464 1892425 1982929 2098784 2218083
1905.34 2387790 2612791 2762686 2900002 3123267 3371769
1911.13 3606055 3898077 4170503 4518933 4884961 5084923
1916.91 5317390 5792238 6385822 7008257 7708712 8447917
1922.70 9231872 10057113 10899094 11670282 12275431 12709470
1928.48 12837327 12596435 11863076 10650375 9687307 9399764
1934.27 9460366 10235592 11531463 12178064 11910957 11046176
1940.05 9949930 8792963 7618592 6466194 5382955 4469725
1945.84 3713314 3061858 2519794 2096464 1699504 1329944
1951.63 1025645 790158 628224 519793 443069 341371
1957.41 264254 194885 157349 100740 46725 115634
1963.20 185628 180597 167625 191938 243330 273700
1968.98 245687 195436 197212 169279 154820 153314
1974.77 125873 114362 92493 91525 63385 69076
1980.55 57286 47420 65554 39612 13711-8938
1986.34-26088-42049-23380 15743-27269-36583
1992.12-8541-27515-25868 19225 52429 35020
1997.91 40014 18244 7681 29897 30040 4825
2003.69 23210 77810 9840-100587-58918-17334
2009.48-73777-91929-81114-73323-65654-64566
2015.27-52924-60705-33516 17242 2954-34531
2021.05-28959-182 15634-21738-65883-59289
2026.84-86870-147407-184676-201456-202016-193912
2032.62-171444-139387-204340-287399-298687-296036
2038.41-307961-310981-334975-380095-418133-472660
2044.19-469091-439454-438325-410461-433204-487058
2049.98-484716-466482-450372-482225-516777-505458
2055.76-486100-440154-420824-421489-362966-369288
2061.55-390287-355502-347604-286731-209624-189631
2067.33-137258-83732-77964-47391-1953 51323
2073.12 39629 19410-46808-66077-37848-76061
2078.91-28825 63998 131258 117713 75808-7291
2084.69 24512-1514-140145-192288-186795-119860
2090.48-170348-165896-129421-39676-238-63404
2096.26 15689 206207 332720 291116 290146 316048
2102.05 434591 449216 508607 618230 653380 579181
2107.83 432700 428824 592469 711961 591948 466977
2113.62 430313 487209 269437 22849-3720-1470
2119.40-173717-332837-321051-186381-182869-313782
2125.19-326288-213547-200342-341461-395053-327918
2130.97-288212-355500-336573-255658-256376-255745
2136.76-221111-208530-112498-77760-87868-85923
2142.55-52813 30775 78016 75871 73189 60629
2148.33 46031 143634 230471 144865 79421 147384
2154.12 132123 29055 87476 194019 125206 8423
2159.90 45644 137228-12140-162113-22545 74373
2165.69-66508-181941-59721-23351-199629-160177
2171.47-10757-97740-219122-98710 7556-163266
2177.26-255186-120349-98882-238644-258509-131485
2183.04-172137-286694-228687-216887-286456-251604
2188.83-139376-183549-310575-227242-193659-313403
2194.61-265155-183208-231524-257960-200756-186847
2200.40-228161-170116-127528-165970-108526-34820
2206.19-73779-93245-28654 4870-21501 31150
2211.97 90120 68164 63215 83587 79219 63689
2217.76 53585 30853 57202 61883 20039-2069
2223.54-12853-18386-32546-74186-101957-145680
2229.33-177122-162993-208931-194994-148665-136898
2235.11-112146-132845-203932-225405-139935-91972
2240.90-144735-171291-133920-109642-83138-78266
2246.68-76608-53255-39588-38578-31598 4339
2252.47 72395 135737 189530 284785 307642 345724
2258.25 465846 514843 486515 517980 547978 528312
2264.04 551547 570723 649879 722449 702876 709926
2269.83 766228 812077 819747 825155 837800 924769
2275.61 1042088 1085422 1150510 1205078 1287405 1396687
2281.40 1421029 1433303 1474853 1541698 1590557 1693259
2287.18 1769601 1771029 1803682 1859746 1866056 1859033
2292.97 1859196 1737838 1521073 1341927 1217151 1080666
2298.75 976591 873497 766963 687233 622412 620595
2304.54 560044 495745 465435 473245 510583 547911
2310.32 574025 562608 547814 554862 595698 657085
2316.11 774040 868267 944717 1041548 1172163 1243202
2321.89 1304792 1364521 1389013 1422998 1446123 1414252
2327.68 1446897 1457755 1533380 1714635 1864688 2011705
2333.47 2133230 2195888 2177971 2157142 2138318 2062558
2339.25 2028735 2003184 1916049 1849926 1837677 1820379
2345.04 1819241 1861150 1835405 1728842 1705081 1740565
2350.82 1728889 1705991 1664713 1600950 1614643 1662638
2356.61 1632023 1622696 1595315 1544570 1508799 1438014
2362.39 1391163 1401118 1346931 1263039 1206853 1151831
2368.18 1091763 1001999 953666 917651 829498 755582
2373.96 706280 711964 708068 715992 716152 743176
2379.75 789033 837063 903232 947466 993469 1017785
2385.53 1051986 1148244 1285521 1363016 1354017 1352713
2391.32 1373979 1382393 1392460 1418723 1479359 1445854
2397.11 1437514 1520199 1525377 1486764 1504502 1525481
2402.89 1474491 1481965 1517800 1539096 1590309 1610988
2408.68 1649164 1706912 1738851 1769936 1849941 1945468
2414.46 2019092 2095730 2156093 2222044 2237507 2156459
2420.25 2169222 2207887 2147846 2100021 2136714 2162832
2426.03 2132452 2091039 2015468 1922093 1841784 1825329
2431.82 1761963 1719929 1680294 1652143 1657597 1620365
2437.60 1601063 1590545 1565213 1560884 1575261 1556229
2443.39 1590695 1561902 1534696 1561540 1517665 1502074
2449.17 1524809 1512806 1503199 1537665 1519522 1516367
2454.96 1517801 1499109 1486864 1472988 1457531 1437399
2460.75 1441977 1437021 1423631 1449080 1488051 1531841
2466.53 1555564 1550666 1604132 1607600 1535942 1485247
2472.32 1444375 1427241 1409560 1419652 1443143 1393169
2478.10 1453078 1507425 1437582 1437235 1452969 1461604
2483.89 1448755 1361764 1289949 1298800 1342702 1366026
2489.67 1366676 1339700 1363873 1331581 1298208 1341577
2495.46 1299923 1250659 1298264 1313165 1261727 1265902
2501.24 1212078 1175736 1227086 1240114 1192396 1084803
2507.03 1003663 908094 830561 806590 795066 767809
2512.81 674038 642616 632717 586135 522104 497530
2518.60 478403 436789 446397 446152 429797 402223
2524.39 433239 454207 431432 474377 616200 764600
2530.17 832141 879605 974860 1078917 1200309 1236605
2535.96 1242145 1271733 1271231 1404879 1514700 1548383
2541.74 1513264 1410599 1395362 1409523 1390960 1344014
2547.53 1290613 1224251 1136853 1033668 830247 663243
2553.31 584672 523101 528897 525594 461521 429009
2559.10 433402 423430 451481 473175 399635 348764
2564.88 351183 327000 335292 343700 332739 360281
2570.67 361461 323101 308373 320979 332078 333797
2576.45 321018 279344 225969 197669 224935 244539
2582.24 269106 303374 349035 384536 395868 447560
2588.03 483081 522465 548032 540834 567270 587060
2593.81 507968 530148 615941 663622 747694 784353
2599.60 791340 792625 760001 731959 684515 647513
2605.38 651489 626968 659144 698718 705034 745064
2611.17 752183 700951 701084 776840 779439 756090
2616.95 738291 725169 760901 823711 901699 923870
2622.74 996929 1050715 969904 937078 950113 929402
2628.52 900066 942163 981936 960766 976031 1030597
2634.31 1067122 1116243 1160655 1135218 1085213 1008884
2640.09 953525 881180 871131 877234 824848 823083
2645.88 734723 676763 707339 741101 774541 797213
2651.67 760022 666264 626986 556055 447733 400101
2657.45 443031 421494 340592 376083 384047 326945
2663.24 272814 168805 174981 248590 230902 138270
2669.02 113651 147036 113961 77046 80828 158652
2674.81 170878 128556 131934 75504 70027 157896
2680.59 202787 149078 91728 91312 65000 78139
2686.38 147226 201151 161378 130719 232968 336929
2692.16 295444 212622 168089 156769 167779 234726
2697.95 304469 334331 421294 508063 523872 570769
2703.73 660086 685742 722842 796574 891362 932959
2709.52 1023765 1108456 1137482 1185938 1275379 1371141
2715.31 1406628 1520526 1659269 1767947 1875178 1941480
2721.09 2048781 2247264 2487767 2729242 3000290 3357326
2726.88 3793189 4339026 5024041 5823814 6816434 7952957
2732.66 9135911 10373767 11510947 12368162 12892526 12907382
2738.45 12766105 12897342 14055135 16093323 15324981 13423535
2744.23 13972888 15273833 16075044 16178646 15566012 14229780
2750.02 12441218 10557280 8881987 7469639 6357489 5649970
2755.80 5022851 4421399 3970637 3604758 3360415 3141357
2761.59 2922803 2725524 2567611 2503774 2435657 2306264
2767.37 2181706 2135292 2179121 2188513 2142761 2075424
2773.16 2020281 2026454 2069016 2113833 2122832 2133319
2778.95 2152846 2124719 2159443 2220677 2231316 2272859
2784.73 2345764 2366235 2412953 2522554 2610227 2725046
2790.52 2820903 2882357 2900274 3006255 3120137 3219663
2796.30 3317439 3384963 3530846 3624454 3707990 3773171
2802.09 3875473 4013912 4155017 4326330 4417104 4537635
2807.87 4760860 4924090 5061051 5241838 5515563 5717647
2813.66 5883253 6091789 6334054 6583479 6789647 7105741
2819.44 7423077 7683796 8026314 8332202 8598231 8905557
2825.23 9258630 9628530 9945925 10333587 10717323 10969205
2831.01 11206059 11537233 11924394 12357976 12772961 13216302
2836.80 13746124 14304496 14883123 15525868 16190964 16965741
2842.59 17875298 18813183 19889007 21024491 22254132 23726481
2848.37 25195267 26784185 28677471 30790557 33101435 35632449
2854.16 38349755 41234054 44544487 48123500 51822357 55990320
2859.94 60499920 65185943 70162858 75424841 80959722 86762834
2865.73 92630271 98328668 103876216 109130200 113991581 118273233
2871.51 121946486 125127853 127664411 129546438 130947726 131938739
2877.30 132398207 132577340 132480463 131921333 130910260 129479381
2883.08 127608442 125118359 122283555 119235763 116032162 112871353
2888.87 109983557 107515332 105338558 103671855 102559121 101828952
2894.65 101438913 101356934 101598142 102196143 102939187 103792846
2900.44 105156077 106987859 108891553 110874746 112967097 115051970
2906.23 117264305 119564119 121821444 124178511 126742903 129697936
2912.01 133191324 137312383 141814091 146800153 152485674 158728978
2917.80 165695631 173376306 181637420 190142753 198754507 207538082
2923.58 216383423 224994665 233142797 240563354 247220912 253416661
2929.37 259297699 264849389 269761306 273619894 276560223 278729318
2935.15 279813558 278960206 275900152 272087292 268383083 264552905
2940.94 260507094 256272325 251877381 246094874 235280217 219381363
2946.72 203171196 188923534 177121701 167814997 160496333 155411835
2952.51 150994949 143382508 133643233 125924872 120633891 116909436
2958.29 114258839 112135838 109654763 106568404 103181062 99525537
2964.08 95943588 92381294 88767137 85373961 82289778 79652616
2969.87 77665781 76358204 75673617 75714523 76362591 77268092
2975.65 78339498 79492300 80810353 82785545 85468065 88612388
2981.44 91924692 94817022 96680998 97224926 96988500 97233090
2987.22 98800746 101648579 104713908 106766745 108197326 110004018
2993.01 112663867 115872219 118892568 121086933 122516941 123766182
2998.79 125290759 127634841 131054083 135603404 140932820 146480895
3004.58 151313867 154817015 157280668 159941514 163933474 169354550
3010.36 175928299 182960883 189250802 193458701 196189472 198895287
3016.15 202177384 206775762 213133876 220760939 228527886 234938907
3021.93 239574983 243406041 246850394 250056794 253740436 257963375
3027.72 260770085 261146021 261090362 261947998 263133095 263516336
3033.51 262159271 258685890 253350021 246694405 239810028 233796741
3039.29 228627599 223372638 216967209 210273366 205025302 201569085
3045.08 198683138 194939853 189601843 182826346 175552966 168482618
3050.86 162191728 157049481 153130589 150307276 148407013 147177997
3056.65 146216610 145319701 144101276 141911063 138457725 134239625
3062.43 130603153 129041533 129304504 130673779 132705593 133532323
3068.22 131448648 126444109 119652966 112158393 104503673 96877821
3074.00 89410335 82349509 75878870 69869437 64405384 59444991
3079.79 55036916 51250962 47982127 45400385 43066115 40965257
3085.57 39219761 37736401 36612034 35592566 34435062 33194767
3091.36 31977111 30856455 29961582 29212184 28519598 27833995
3097.15 27259642 26902826 26595268 26245515 25838680 25388058
3102.93 24903752 24549465 24239877 23933897 23776705 23656301
3108.72 23551582 23476005 23344825 23138656 22951830 22696526
3114.50 22341261 21725825 20948993 20125936 19449932 18757382
3120.29 18084192 17645686 17030328 16315583 15600835 14713973
3126.07 13652360 12538423 11333323 10194473 9132890 8121590
3131.86 7324810 6677144 6036183 5472004 4959074 4439356
3137.64 3944786 3580253 3379642 3137767 2858566 2606834
3143.43 2457803 2314281 2123021 2039457 1965092 1845051
3149.21 1758149 1671549 1561846 1482471 1462016 1424252
3155.00 1394169 1355939 1348101 1316749 1230425 1166736
3160.79 1155948 1126926 1024392 971979 981721 945702
3166.57 920005 937040 896464 826963 842054 931939
3172.36 918322 888718 759130 637269 718781 827155
3178.14 835240 809682 801785 859682 836568 742931
3183.93 704615 672165 716333 725899 666780 607301
3189.71 607812 604354 553491 554650 641369 679711
3195.50 628225 632392 584540 471376 396349 443133
3201.28 435411 437870 488916 434987 343183 319803
3207.07 413073 456449 440262 501616 547633 462596
3212.85 459719 407057 273469 176863 111290 106565
3218.64 104540 46977-17188-88222-211618-324491
3224.43-331093-372427-466738-417533-375201-349728
3230.21-222005-278216-409218-552806-669029-647735
3236.00-605310-426698-312572-363077-403957-353572
3241.78-373452-335430-294781-266474-182163-260510
3247.57-232353-164397-210313-147083 25409 110342
3253.35 79162 88309 166137 272814 361011 419286
3259.14 373308 320255 392222 376330 339302 363869
3264.92 406001 484302 464998 500481 517594 385116
3270.71 303528 343046 304034 269096 260235 167072
3276.49 201170 265199 212618 134123 92994 17205
3282.28-21734 20217 87011 104356 83790 87539
3288.07 81660 64846 42310 51534 102689 117865
3293.85 112480 113249 108637 121776 49296 77577
3299.64 102367 75313 34591-7134 112017 92142
3305.42 24379 14332 21823 2140-22744 61219
3311.21 55754 33003 19942-51549-49815-48359
3316.99-47386-31658-33300-34169 26870 24130
3322.78-5515-70572-115629-54010-37506-25945
3328.56-67555-8191 64965 38039 35253-11636
3334.35-37636 11829 80038-3616-72605 43275
3340.13 97141 116412 101822-23899-56597 33057
3345.92 67847 95370 82684 73745 77151-36566
3351.71-68585-7611-71004-62008-518-8423
3357.49-12727-53727-115102-86519-60787-103788
3363.28-110103-164701-193062-110674-69279-74914
3369.06-70850 83921 190633 97002 79634 1416
3374.85 21358 82881 55218 151952 167511 141894
3380.63 210412 128138 111563 250413 346191 261069
3386.42 254518 340635 291596 396038 416921 330752
3392.20 250487 286153 495471 642997 638760 446436
3397.99 408086 395449 240204 307397 425695 460760
3403.77 468806 422855 320635 335655 417236 396689
3409.56 415403 383463 456027 395526 239912 330505
3415.35 398012 482751 497362 410592 436150 550109
3421.13 560176 517710 484405 433589 491169 427591
3426.92 369925 450564 511579 493945 376727 367354
3432.70 492608 547036 452778 377371 374926 364419
3438.49 379635 447982 488965 442821 364590 351541
3444.27 325220 354423 399432 469447 489811 444474
3450.06 439433 502329 459421 426762 501187 471837
3455.84 411216 501713 577426 508531 418470 352242
3461.63 380919 377221 442883 405194 382781 476273
3467.41 459698 484997 500629 443294 406288 356008
3473.20 247448 214902 162955 121246 158470 48642
3478.99 7536 39522 59503 86267 18680-45798
3484.77-133656-168144-171240-261047-267213-188877
3490.56-187258-226569-317488-363000-275885-194418
3496.34-271253-264142-205026-279124-271714-315305
3502.13-364299-398169-448322-373177-270958-292076
3507.91-285763-288899-304435-289362-371305-366435
3513.70-358229-340203-241149-214655-235382-314136
3519.48-377066-287480-209077-276594-329730-217796
3525.27-202118-297312-213822-184400-191104-126765
3531.05-106054-58793-55539-85382-88916 6039
3536.84 87236 68582 131543 215991 241554 167264
3542.63 183758 339695 433652 473245 490995 487751
3548.41 554522 657713 564881 486073 567305 573740
3554.20 548631 536519 517688 555852 515363 435816
3559.98 430652 481492 516059 392009 319934 400894
3565.77 392293 199855 143717 204008 135255 170264
3571.55 245134 184831 173589 198264 149807 130531
3577.34 128125 130329 102970 77105 81964 59169
3583.12 80836 126772 901-144889-155907-124850
3588.91-78159-129131-240683-250485-169197-196250
3594.69-171786-158479-216394-262536-301522-324402
3600.48-305560-209856-306696-378010-295784-302991
3606.27-336899-422339-489320-302843-193797-310350
3612.05-344199-365315-390715-285302-247273-263874
3617.84-373253-434508-285146-274861-299092-228425
3623.62-235745-275137-294983-334208-443841-463082
3629.41-330918-322559-324830-283235-224670-167721
3635.19-251940-296350-299692-340037-252565-199040
3640.98-301517-336638-267782-217604-230628-352205
3646.76-365480-425908-500810-363728-294141-291545
3652.55-360594-378535-411349-406714-267179-209639
3658.33-235177-327367-374669-334945-316495-353587
3664.12-306059-324888-340615-309944-312514-470581
3669.91-546056-273775-178773-312794-565429-676023
3675.69-474963-304265-238696-264782-283401-225357
3681.48-221593-261152-337909-347180-211827-319996
3687.26-618440-506447-367085-349499-211678-259879
3693.05-308209-153215-195740-325291-256093-218575
3698.83-153159-151996-201789-91758-47871-79604
3704.62-133367-118051-128329-225089-368630-280645
3710.40-239428-269569-96643-77717-131822-168901
3716.19-108773-54630-112288-63476 3627-83355
3721.97-88045-91885-48284 71205 115497 170093
3727.76 132226 179397 286317 195240 231126 351210
3733.55 277230 243581 263632 359800 497427 529749
3739.33 552506 511327 509798 465629 89208 168469
3745.12 604485 674637 561331 273590 270793 443029
3750.90 254020 378839 689408 742259 721467 701829
3756.69 739465 594879 459309 610003 745054 778736
3762.47 835323 786213 763647 842857 894114 886663
3768.26 779067 760136 894278 923622 837699 815450
3774.04 865122 896461 844037 801978 779743 707255
3779.83 783835 877374 865031 799538 753566 728518
3785.61 651893 554014 514354 451945 471909 528986
3791.40 545790 540445 500368 454356 280037 269532
3797.19 351968 291315 137547-89776-62165 145521
3802.97 224049 208411 185475 125827 226447 237528
3808.76 200596 266662 160251 82036 132479 197260
3814.54-23597-14909 297893 368981 328294 216954
3820.33 127372 233521 380090 414977 505482 501370
3826.11 407883 475742 568004 522124 389885 424976
3831.90 568578 536047 456510 527284 494669 246894
3837.68 335798 522925 452597 480965 564267 533185
3843.47 559683 609857 591822 556729 540385 538116
3849.25 507630 335084 201583 80857-186086 92553
3855.04 388061 441750 469983 389439 455448 366866
3860.83 194603 300936 389533 232017 232565 388768
3866.61 443580 441871 258611 209650 397200 504260
3872.40 523812 514405 592625 663528 681569 711587
3878.18 746564 687318 683648 861254 883965 876102
3883.97 852050 748683 875315 996392 970178 962205
3889.75 915300 974888 1140943 1185913 1177299 1192338
3895.54 1236145 1272410 1253921 1204271 1271176 1305719
3901.32 1347105 1411891 1426158 1483050 1622061 1748848
3907.11 1698783 1672474 1723979 1796987 1789013 1830149
3912.89 1912362 1943052 1988806 1954693 1882986 1844338
3918.68 1828891 1797009 1847736 1944962 1850211 1786683
3924.47 1878705 1924300 1755021 1611520 1685325 1682535
3930.25 1622247 1563228 1522790 1544920 1577679 1587531
3936.04 1546713 1530813 1562476 1507559 1514345 1521950
3941.82 1567386 1607424 1525888 1500281 1468669 1426672
3947.61 1478293 1557239 1514834 1530594 1477863 1402139
3953.39 1437404 1488163 1471717 1410272 1486552 1555263
3959.18 1558738 1576587 1613066 1595464 1590072 1683396
3964.96 1783808 1711204 1670478 1677846 1665198 1685856
3970.75 1667445 1597052 1660442 1679237
##END=
