##TITLE=1,3-Dimethylbenzene
##JCAMP-DX=4.24
##DATA TYPE=INFRARED SPECTRUM
##CLASS=IUPAC A
##ORIGIN=NIST, Analytical Chemistry Division, 301-975-3108
##OWNER=COPYRIGHT (C) 2001 by the U.S. Secretary of Commerce
##DATE=01/06/01
##$SPECTRA VERSION=1.10
##$UNCERTAINTY IN Y=2.1 % relative (B=1.13E-04,C=1.33E-9,D=3.50E-14)
##CAS NAME=1,3-Dimethylbenzene
##CAS REGISTRY NO=108-38-3
##MOLFORM=1,3-( C H3)2 C6 H4
##MP=-47.87 C
##BP=139.1 C
##$NIST SOURCE=QUANT-IR
##SPECTROMETER/DATA SYSTEM=IFS66V (Bruker)
##INSTRUMENT PARAMETERS=KBr Beam Splitter; MCT Detector; Multipass cell
##STATE=gas
##SAMPLE DESCRIPTION=m-Xylene Primary Gas Standard
##PRESSURE=101.3 Pa
##TEMPERATURE=23 C
##SAMPLING PROCEDURE=1 L/min Flow
##RESOLUTION=0.9640
##DATA PROCESSING=NB Strong Apodization
##XUNITS=cm-1
##YUNITS=(micromol/mol)-1m-1 (base 10)
##XFACTOR=1.0
##YFACTOR=9.0949E-13
##DELTAX=0.4820
##FIRSTX=575.17
##LASTX=3974.606
##FIRSTY=-1.25E-06
##MAXX=3974.12
##MINX=575.17
##MAXY=.0006271
##MINY=-1.75E-06
##NPOINTS=7052
##XYDATA=(X++(Y..Y))
575.17-1378448-95042 614712 536672-954939-1017219
577.58-138545-588044-1927159-1140340-194090-258180
580.47 703007 557894-45048-768596-1637932-1189478
583.37-528648-404084-485295-392292-1205867-887268
586.26 52740-13801-961057-1112642-644858-638256
589.15-521372-80334-252843-231690 523285 443715
592.04-66104-843570-1036252-684669-1217550-1069063
594.94-339810-208988-426511-912741-782738-852859
597.83-1406455-1442993-928102-200725 45656-175479
600.72-433409-658507-1129781-729453-389568-435249
603.62-767752-990917-386675 207367-238122-930707
606.51-971400-149351 109796-414073-790962-543133
609.40-507887-621378-973268-881142-752772-280074
612.29-335296-104962-405498-853743-772641-660911
615.19-522146-387881-293775-232765-103885 100007
618.08-216396-583668-706814-717472-845467-709806
620.97-708257-613977-689750-520743 42332 469928
623.86 4725-592515-730607-787524-689445-389881
626.76-316626-187581-101133-31509-538062-790417
629.65-336379-212987-346512-340185-887665-680531
632.54-140216-61649-277639-225683-569650-695655
635.44-624085-538527-408383-396972-532951-511249
638.33-583512-343776-116750-546610-810205-486809
641.22-201295-401928-832998-585594-316694-91779
644.11-96579-168969-139569 79558 65375 47507
647.01 92431 161492 11922 437793 425957 384599
649.90 251719 265820 259180 433019 566728 816078
652.79 925737 1133636 973965 1128773 1397404 1718865
655.68 1884129 1972817 1716490 1621007 1429610 1707039
658.58 1727719 1518815 1656883 2268028 2475484 2639030
661.47 2684308 2848277 2660961 2939813 3237174 3877148
664.36 4209428 4727642 5339703 6948805 8221537 8663235
667.26 8382855 8311067 8298272 8868383 9530136 10393045
670.15 11357123 12743935 14000742 15582249 17336863 18926500
673.04 20651512 23186220 24967498 26816794 28910142 31598361
675.93 34090408 36414753 38560705 41172347 43198690 45279026
678.83 46830304 48574119 50055864 51606483 52409939 53686200
681.72 54544858 55620696 56462362 57483147 58091748 58692880
684.61 59206407 61281770 63407386 66804252 70115444 75955214
687.50 84081547 96010650 112145813 142789889 196722527 272647634
690.40 272260366 172050765 113395462 93196140 80117851 72640522
693.29 70756425 70937493 73188189 76386562 77884013 74334745
696.18 70032250 67286624 66439541 65682114 64742561 64165281
699.08 63639392 62617804 61954104 61003281 59479219 57074531
701.97 54107643 50958734 47943419 45002432 41860080 38747526
704.86 36033651 33381688 30591236 28042130 25429756 22913113
707.75 20450461 18349490 16741865 14931292 13131245 11892505
710.65 10659895 9240520 8211768 7503518 6744977 6177410
713.54 5655820 4952380 4360862 3988623 3509938 3198564
716.43 2898493 2734125 2687059 2610728 2330843 2191617
719.32 1886699 1676670 1847134 2183612 1891185 1751159
722.22 1686379 1583074 1401753 1576555 1557630 1530436
725.11 1389744 1447787 1584319 1876765 1949153 2030958
728.00 1830383 1907168 2072652 2319800 2188235 2087984
730.90 1733373 1622760 1614146 1477536 1366321 1658813
733.79 1781841 2025551 1932694 1866077 1631908 1765583
736.68 1954822 2271349 2385801 2864655 3349511 3815772
739.57 4295117 5140434 5866344 6497046 6505260 7170629
742.47 8016670 9201440 10347455 11895070 13369802 15364733
745.36 17436293 20193310 23087570 26283760 29441020 33420040
748.25 37543234 42143118 46931183 52452035 57766161 64048835
751.14 70270878 77007555 83534680 90653628 97476300 104868266
754.04 111866787 119072292 125331044 131852107 137302929 142822261
756.93 147570512 152808927 157684066 162820780 166604667 170709755
759.82 173618520 177012533 178772372 180667982 181712621 184878621
762.72 188808049 196293017 206276506 223560410 246064409 279753617
765.61 325938217 393119113 477655970 583074549 669974697 689529561
768.50 544689157 330941014 239538455 208655280 194074792 184717645
771.39 183650682 183164864 184695555 184148788 184566772 183623477
774.29 184401018 183924912 183166343 179275938 175668913 170871537
777.18 166852492 161621087 156645716 150441172 144651562 137533647
780.07 130398341 122044852 114100990 105692635 97909154 89822870
782.96 82557712 75087691 68357484 61430824 55289789 49182175
785.86 44048004 39089295 34585792 30060918 26819725 23392420
788.75 20454597 17651130 15590798 13554688 11900136 10109766
791.64 9096318 8016264 7396235 6459464 5919409 5170638
794.54 5146174 4781363 4421493 3611182 3313430 2919598
797.43 2884245 2563408 2389908 1969933 1932700 1730080
800.32 1816027 1724021 1911318 1915833 2005013 1592258
803.21 1575815 1334779 1392085 1140369 1001629 1028247
806.11 1377646 1299090 1243669 1007251 1110973 1087282
809.00 1147782 936012 986962 656444 617302 707760
811.89 874801 743497 1036845 1006042 581785 279726
814.78 508522 484977 588254 652645 979647 745551
817.68 655794 437766 612530 650338 880773 777779
820.57 751843 848839 1194052 839225 793398 489798
823.46 590708 434069 274007 254578 471512 395358
826.36 547776 537663 672460 394676 524637 631385
829.25 598233 360935 424444 301348 410696 617895
832.14 629681 413326 379595 121942 336212 515532
835.03 632078 455761 462686 379326 440396 384082
837.93 476395 390565 489583 424162 315535 372322
840.82 526350 392436 434049 422880 543288 492420
843.71 676728 779082 743589 561540 705732 733930
846.60 744783 757443 826133 954621 1183085 1095379
849.50 1139923 1360145 1658689 1632915 1776073 1715104
852.39 1664595 1741965 2110667 2448645 2773595 2948605
855.28 3425979 3788067 4241960 4490059 4900154 5306921
858.18 5766036 6005464 6596031 7054072 7597434 8067200
861.07 8614844 9147307 10057948 10688955 10975731 11214008
863.96 11603118 11878070 12277248 12486491 12820251 13121157
866.85 13597975 13861475 14135730 14260019 14617375 14969451
869.75 15374991 15936196 16742498 17567205 18737009 20178823
872.64 22769165 26252153 31171812 37862043 43904015 47873770
875.53 48560157 38569557 25944048 19263692 16463349 15102180
878.42 14566734 14561277 14610322 14447504 14395593 14234103
881.32 14054650 14090042 14225515 14144181 13932053 13697281
884.21 13821879 13998302 13771292 13147413 12856299 12599475
887.10 12224613 11815722 11559398 11213826 10877377 10405015
890.00 10150797 9947601 9930211 9878458 9946823 9979496
892.89 10458414 10978288 11472599 12023614 12751407 13351130
895.78 14045407 14753313 15500996 16074953 16861937 17463700
898.67 17849364 18113040 18356105 18211410 17936051 17448601
901.57 17010892 16686856 16694972 16726353 16959738 17473116
904.46 18430167 19455232 20282455 20389547 19790782 18139968
907.35 16313364 15077314 14726261 14963166 15609973 16147407
910.24 16515827 16551753 16249167 15689096 15084843 14173648
913.14 13021482 11773487 10653386 9337768 8074289 6757855
916.03 5704601 4824074 4158684 3478853 3018454 2601142
918.92 2296977 2009462 1757252 1514019 1531934 1474268
921.82 1317539 1241139 1350567 1449267 1448261 1393627
924.71 1410960 1246733 1235982 1194245 1228646 1318964
927.60 1496853 1482267 1375318 1354179 1516018 1463045
930.49 1589864 1561123 1574535 1635856 1657837 1759462
933.39 1816944 1753546 1879127 1822273 1920551 2133392
936.28 2242336 2247586 2237546 2165803 2230140 2309102
939.17 2436359 2331427 2217409 2261061 2399047 2398270
942.06 2410381 2450611 2600042 2640167 2856001 2852252
944.96 2699652 2755299 2752609 2685129 2707138 2765329
947.85 2884732 2848243 2886226 2818627 2855382 2978978
950.74 3153988 3101381 3151014 3163060 3184375 3239028
953.64 3296392 3233833 3193037 3251512 3380235 3403920
956.53 3440603 3456771 3547332 3422912 3426024 3507748
959.42 3585566 3520648 3635330 3718309 3736132 3685382
962.31 3869986 4028458 4120805 4074094 4204260 4290049
965.21 4403795 4467888 4518198 4448157 4547963 4746264
968.10 4974941 4927770 5025029 4978485 5005886 4972599
970.99 4983902 5077956 5133706 5217953 5451558 5514994
973.88 5464022 5424734 5401329 5242424 5169934 5132475
976.78 5011999 4897040 4935358 4949549 4947316 4937888
979.67 4989372 4952290 4906467 4773143 4803264 4744996
982.56 4727776 4794012 4932465 4908688 4872923 4853573
985.46 4899424 4856693 4948542 4982937 5076040 5041806
988.35 5143396 5214930 5263382 5365266 5633937 5789913
991.24 5861002 5831211 6035778 6254918 6428627 6613127
994.13 6909899 6982978 6923739 7197345 7511697 7671386
997.03 7972495 8171417 8415597 8616187 8877539 9132230
999.92 9263924 9333622 9488797 9574023 9756132 9945217
1002.81 10170601 10375023 10632390 10808456 10884776 10997786
1005.70 11216982 11335406 11418296 11311251 11227074 11145622
1008.60 11073378 10860439 10616627 10342925 10190265 10037663
1011.49 9993402 9896008 9759550 9619115 9644487 9561218
1014.38 9195347 8755034 8580417 8410790 8331886 8223659
1017.28 8098588 7877900 7662441 7464316 7395024 7100454
1020.17 6841466 6692008 6606676 6335014 6080183 6021723
1023.06 6177669 6248465 6228982 6240328 6396514 6628330
1025.95 6841964 6926330 7161779 7473402 7680799 7977061
1028.85 8375168 8641005 8985375 9374253 9811362 10082004
1031.74 10418241 10770502 11035096 11484565 12007439 12302905
1034.63 12654669 13148181 13451674 13702197 14160850 14627401
1037.52 15057751 15540377 16186897 16941395 17966453 19389333
1040.42 20950910 22288960 23654849 25707960 27585609 27830714
1043.31 26743912 26184674 25880519 24740042 23412232 22688084
1046.20 22704859 22918722 23181611 23065747 22683969 22313473
1049.10 21971317 21673620 21350044 21251081 21316683 21278431
1051.99 21248493 21108184 21033289 20987397 20885419 20462471
1054.88 20130595 19935288 19714063 19472046 19245003 18789660
1057.77 18334925 17941431 17508513 16823516 16350153 15889907
1060.67 15303919 14631559 14208420 13789561 13374996 13087269
1063.56 12837313 12474910 12041067 11658479 11390815 10972206
1066.45 10624354 10351064 10163206 9936394 9891365 9800520
1069.34 9663433 9464189 9191416 8923745 8848351 8786099
1072.24 8785555 8649492 8625699 8681686 8749405 8802508
1075.13 8990287 9026235 8994504 9231993 9541881 9746685
1078.02 9966406 10261369 10670351 11109670 11676266 12148194
1080.92 12609539 13178890 13794239 14465090 15198188 16030636
1083.81 16937976 17913002 18960129 19866916 20867673 21951849
1086.70 23051781 24014568 25012954 26066098 27047354 27865043
1089.59 28583162 29182995 29631255 30020335 30235427 29902367
1092.49 29082763 27741705 26024191 24126309 22566624 21539995
1095.38 21330999 21821227 22330297 22739078 23589734 24466831
1098.27 25287560 25963856 26614133 26891456 26731329 26388089
1101.16 25935391 25108823 24130934 22945732 21790524 20533863
1104.06 19396635 18246334 17027995 15802505 14774089 13807101
1106.95 12952560 12139030 11357706 10578042 9873608 9195958
1109.84 8649357 8148849 7725593 7357235 7102119 6885450
1112.74 6733153 6520161 6333986 6287965 6196460 6026424
1115.63 5977036 5917152 5832389 5788084 5841149 5873245
1118.52 5887327 5819606 5753965 5603911 5538636 5429269
1121.41 5190868 5075561 4977717 4873004 4743567 4592515
1124.31 4604437 4595652 4544712 4596572 4618129 4784570
1127.20 5041223 5091204 5030297 5034591 4947657 4888842
1130.09 4940885 4759308 4407888 4333731 4397718 4234663
1132.98 4137293 4079451 4039372 3862899 3747899 3570701
1135.88 3524296 3395922 3271022 3113867 3043973 3044757
1138.77 3126908 3087891 2933586 2899226 2966063 2875157
1141.66 2667271 2645219 2629068 2575198 2612180 2635832
1144.56 2702981 2777577 2737895 2715720 2768165 2789745
1147.45 2961481 3187252 3290079 3339527 3461399 3529006
1150.34 3503240 3543036 3729476 3961139 4263055 4476385
1153.23 4524181 4551190 4575656 4439671 4340788 4367985
1156.13 4454568 4539686 4894429 5270533 5665624 5968256
1159.02 6114150 6184515 6307713 6638623 7191151 7686002
1161.91 8233924 8824952 9392972 9757105 9997245 10173764
1164.80 10278505 10144703 9932412 9646036 9219684 8826359
1167.70 8426495 8105247 8066824 8379045 9214058 10283826
1170.59 11369412 11668233 9950322 8120597 7288906 6989352
1173.48 7057461 7332334 7851398 8394437 8757072 8862925
1176.38 8869794 8798549 8548426 8105785 7745818 7309829
1179.27 6808540 6139394 5497999 4995900 4600953 4193791
1182.16 3823015 3517203 3401655 3171134 2981625 2805730
1185.05 2717969 2677126 2652150 2507403 2537627 2610712
1187.95 2595518 2580032 2559201 2529744 2640043 2629796
1190.84 2630773 2474550 2329431 2267826 2165301 2121844
1193.73 2138467 2098266 2047905 2053789 2083919 1943941
1196.62 1887561 2037154 2196447 2225588 2228047 2216861
1199.52 2161649 2152972 2128520 2076098 1994919 1984888
1202.41 1996706 1943903 1901048 1742501 1737571 1733141
1205.30 1751437 1704917 1692234 1700805 1643344 1603833
1208.20 1565482 1429305 1398809 1424809 1459798 1549891
1211.09 1518567 1380519 1349052 1324039 1352389 1374167
1213.98 1353927 1360854 1303373 1335824 1385729 1306073
1216.87 1299556 1231487 1194493 1198015 1145943 1170489
1219.77 1218636 1231432 1340891 1284705 1167049 1091734
1222.66 1099542 1116113 1249926 1293105 1278033 1229434
1225.55 1232333 1229103 1251486 1253214 1244462 1265600
1228.44 1257786 1248916 1368697 1462151 1506762 1372049
1231.34 1368991 1486237 1614531 1672195 1611955 1627712
1234.23 1737795 1776170 1767891 1817157 1932770 2001233
1237.12 2132389 2258335 2242005 2255220 2421797 2519420
1240.02 2605261 2649974 2688005 2844527 3004926 3128984
1242.91 3332473 3384554 3431134 3518689 3608694 3658068
1245.80 3656704 3648772 3578614 3525074 3450838 3409018
1248.69 3362743 3231951 3205936 3106584 3201935 3321718
1251.59 3374785 3401085 3614779 3817346 3921732 4051098
1254.48 4189811 4316516 4442315 4492726 4546793 4467154
1257.37 4405750 4456383 4354167 4108961 3969205 4001302
1260.26 3945488 3773350 3682377 3524266 3469239 3392881
1263.16 3277629 3159269 3047137 2941828 2925185 2843251
1266.05 2770589 2810112 2806837 2828321 2941735 3111597
1268.94 3134313 3090787 3093461 3036288 3054779 2993219
1271.84 2847637 2740201 2645810 2526225 2525615 2493012
1274.73 2372122 2279349 2187994 2129805 2165662 2196183
1277.62 2170101 2085664 2124871 2169323 2195220 2146254
1280.51 2085286 2113096 2080306 2026923 1978218 1852946
1283.41 1895753 1976990 1895290 1852780 1833879 1689733
1286.30 1670086 1742616 1765422 1681156 1603464 1509629
1289.19 1594917 1831059 1851324 1772910 1779930 1756913
1292.08 1760633 1737325 1650855 1700128 1872939 2013242
1294.98 2078560 2055780 2060064 2094816 2175669 2266254
1297.87 2259915 2276014 2281325 2164990 2069233 2031287
1300.76 2065209 2126396 2126765 2010514 1996206 2095628
1303.66 2244084 2189749 2047132 2074365 2205004 2262617
1306.55 2324156 2304886 2379541 2401610 2436948 2428513
1309.44 2480160 2517005 2485082 2438089 2386509 2309719
1312.33 2365305 2413442 2399701 2423449 2341179 2274354
1315.23 2355994 2402233 2305502 2295314 2375037 2391541
1318.12 2448850 2451088 2405646 2320954 2265386 2341634
1321.01 2377515 2282498 2270569 2388426 2466463 2452722
1323.90 2424644 2400909 2395833 2377956 2453893 2502729
1326.80 2576177 2744979 2779819 2714424 2629420 2624640
1329.69 2656072 2576381 2629950 2710212 2735382 2719244
1332.58 2734092 2809203 2852879 2778466 2873794 2947672
1335.48 2956020 2968904 2995376 2934427 2887905 2936862
1338.37 2950600 2940909 3108686 3200558 3297007 3301360
1341.26 3363148 3520636 3635312 3716759 3660571 3660821
1344.15 3829543 4014240 3985880 3904194 4144079 4299015
1347.05 4277789 4360895 4463997 4631130 4821175 4757919
1349.94 5028629 5175011 5026956 4986431 5109141 5569579
1352.83 5823392 5975188 6167086 6100333 6411207 6767953
1355.72 6947321 6957326 6860324 7227168 7531826 7807631
1358.62 7914377 8038947 8263309 8308731 8631385 8789890
1361.51 9033907 9201572 9256330 9431977 9952028 10325272
1364.40 10438809 10669545 11004015 11305051 11781663 12251913
1367.29 12533978 12662581 12973402 13342751 13677520 14110560
1370.19 14687823 15404637 16180063 17052824 17917408 18753842
1373.08 19797332 20942298 22095975 23154744 24174661 25177394
1375.97 26206998 27124632 27725182 28075336 28280323 28455790
1378.87 29126479 30267444 32055338 34726839 36152346 34686949
1381.76 32681872 31453728 30772980 30802696 31429708 32470521
1384.65 33802970 35180328 36384020 37341342 37718423 37391603
1387.54 36914992 36229405 35381215 34341789 33346492 32400987
1390.44 31438630 30687723 29954968 29025468 27821364 26465783
1393.33 25230418 24199974 23489105 22847279 22250910 21808798
1396.22 21704603 21536429 21286465 21072664 20964829 20856403
1399.11 20839913 20848527 20655167 20470377 20354961 20087183
1402.01 19704484 19220444 18848222 18507121 18160916 17842312
1404.90 17708141 17575672 17448042 17392188 17335626 17354331
1407.79 17483876 17608850 17678652 17809323 18138616 18391915
1410.69 18476488 18562131 18683603 18749696 18808011 18729987
1413.58 18694256 18714159 18817003 18799025 18811612 18916745
1416.47 19008788 19167362 19323420 19329760 19161113 18926785
1419.36 19308219 19656866 19797589 20015452 20194388 20410950
1422.26 20533876 20467521 20452964 20591848 20676312 20607852
1425.15 20636858 20750086 20850607 20951456 21235840 21539029
1428.04 21738137 22013692 22369399 22721739 23257346 23858876
1430.93 24452797 25214611 26055648 26858066 27737187 28624846
1433.83 29662173 30783868 31797381 32609002 33397197 34183055
1436.72 35346821 36551748 37412108 38264028 39029728 39556868
1439.61 40103634 40683699 41238922 41624234 42063749 42664373
1442.51 43278652 43970186 44517277 44850487 45277942 45944880
1445.40 46572529 47134610 47857670 48589506 49349003 50180632
1448.29 50930234 51262142 51314975 51334824 51355860 51361501
1451.18 51470240 51360175 51094251 50720695 50120383 49606971
1454.08 49306934 49035121 48815286 48528078 47840835 47404191
1456.97 47677157 47547183 47162544 46852508 46517118 46201605
1459.86 45929248 45894343 46152732 46388914 46593973 46952798
1462.75 47227844 47507424 47750877 47805241 48150876 48711120
1465.65 49163472 49543888 50112817 50786138 51687636 52730271
1468.54 53646559 54560609 55313348 55862223 56357971 56683403
1471.43 56842508 57139647 57489156 57649452 58136775 58715416
1474.33 59157988 59766717 60392438 61120969 62169671 63342760
1477.22 64666948 66223789 67746180 68982798 69882843 70320992
1480.11 70566513 71237601 72493115 74342472 76744016 79056581
1483.00 81055105 82970210 84871020 86779560 88788123 90893842
1485.90 93027397 95025333 96863749 98665348 100343299 101528878
1488.79 102155699 102634618 103323708 104163448 105544032 107224425
1491.68 109023539 110981713 112854267 114470340 115793983 117002481
1494.57 117869682 118122082 117939245 117770500 117613235 117226919
1497.47 117128608 117206908 117689493 118756487 120274827 121649191
1500.36 122226574 122147237 121749934 120813061 118757953 116231852
1503.25 113923416 111848318 110066516 108312784 106835966 105875985
1506.15 104249781 102338590 100865484 99023494 96688130 94238256
1509.04 91592452 88844655 86167712 83385775 80665306 77847897
1511.93 75170265 72755612 70486276 68625778 67244985 66117467
1514.82 65292066 64690994 64070036 63214590 61930238 60580404
1517.72 59405149 58212860 57322855 56584413 55922641 55373479
1520.61 54704452 54362783 54242064 53737390 53337449 53007671
1523.50 52748917 52552659 52304472 52129144 52381882 52722260
1526.39 52993326 53239956 53411536 53175226 52827434 52454180
1529.29 51969498 51676060 51413571 51092974 50814637 50459782
1532.18 50006462 49318499 48642178 47869002 47257707 46620946
1535.07 46087544 45538522 45206431 45016404 44864491 44663082
1537.97 44345783 43790809 43873453 43740832 43199008 42864400
1540.86 42131851 40832854 39684613 38761435 37515085 36228976
1543.75 34886460 33361520 32008294 30957529 29921033 28955159
1546.64 28002774 27055300 26225002 25479799 24705289 24051621
1549.54 23441837 22917537 22559073 22112765 21728816 21346204
1552.43 21041392 20682320 20200637 19769050 19799140 19680635
1555.32 19407832 19193538 19006324 18573302 18291046 17918256
1558.21 17777155 18020474 17729075 17380943 17604133 17872300
1561.11 17734689 17597726 17509017 17536929 17590217 17630557
1564.00 17572320 17542789 17656412 17695414 17773594 18015932
1566.89 18226972 18388477 18596567 18769841 18860252 18938325
1569.79 19201528 19368348 19407455 19432305 19421195 19414626
1572.68 19395452 19383104 19359264 19340487 19227303 18914436
1575.57 18439263 18690143 19268630 19601797 19849092 20049775
1578.46 20208940 20264867 20342158 20542047 20772496 20915894
1581.36 21185248 21644419 22144162 22660168 23186314 23827744
1584.25 24494974 25114971 25727382 26260807 26830924 27666143
1587.14 28633884 29512465 30531047 31756091 32940340 34159288
1590.03 35463582 36892885 38361999 39656618 40689967 41616025
1592.93 42441780 42968473 43185541 43184061 43101645 42968340
1595.82 42945240 43207754 43925420 45313539 47475178 50253072
1598.71 53488513 57212286 61029628 64670675 68207898 71555296
1601.61 74644482 77456040 79844297 81981666 83959418 86053810
1604.50 88326675 90763946 93618851 97046112 101260135 106493064
1607.39 112813623 120101118 127878826 135266830 142104271 148348054
1610.28 153870189 158872129 163158894 166288066 167624175 166666776
1613.18 163813275 159520651 154418808 149837436 146810141 145959509
1616.07 147656984 152748405 161102060 172470277 182290632 176786539
1618.96 153106866 133255836 123958905 120292181 121015938 123960190
1621.85 127497891 130261308 131624306 131231136 129070982 124633990
1624.75 118424573 110784708 102263972 93034211 83521101 73906106
1627.64 64805021 56412649 48767471 41872002 35925555 30697828
1630.53 26238742 22446457 19387510 16883022 14774810 12984106
1633.43 11564643 10384202 9399312 8531209 8154798 8125601
1636.32 7953245 7670215 7480808 7298204 6940117 6597152
1639.21 6341452 6059027 5884700 5754363 5668501 5554466
1642.10 5508061 5440477 5381306 5465479 5564965 5690979
1645.00 5665324 5582908 6006078 6334161 6385956 6544648
1647.89 6717069 6876125 7015517 7119824 7140138 7173968
1650.78 7172120 7047349 6404790 6096460 5888503 6090472
1653.67 6356127 6329252 6701795 6943860 7036239 6952680
1656.57 6803237 6408560 5864298 5501196 5496100 5548224
1659.46 5580597 5649947 5744481 5758437 5701188 5464972
1662.35 5187547 5011434 4796525 4556461 4307986 4026707
1665.25 3659103 3348225 3109161 2771304 2483142 2240172
1668.14 1997119 1627186 1530263 1609261 1547724 1402393
1671.03 1225252 1198578 1195694 1126326 1071349 983705
1673.92 919062 748202 598457 762177 948751 938157
1676.82 853439 842375 782885 671959 687782 621534
1679.71 575390 624404 656314 625548 629494 516065
1682.60 362738 388967 333570-172621-258743 390574
1685.49 607575 666641 604510 576376 550333 544222
1688.39 561312 608642 582795 607603 690177 792703
1691.28 860341 808559 727725 887820 989336 1021458
1694.17 997258 755331 194037 269314 967203 1215561
1697.07 1301269 1349379 1407755 1474122 1247279 868643
1699.96 918690 1192675 1511394 1586140 1546415 1421090
1702.85 1370763 1288334 1189729 1238188 1482818 1584760
1705.74 1600680 1639659 1644894 1527059 1441038 1315782
1708.64 1267848 1261657 1299911 1412943 1474800 1503354
1711.53 1541930 1495027 1521403 1523131 1451202 1361813
1714.42 1171062 1119042 1266757 1295301 1100733 622236
1717.31 840904 1111599 1095631 1168862 1246864 1250049
1720.21 1324669 1309653 1325074 1473741 1561989 1617917
1723.10 1679611 1758001 1848939 2031365 2218094 2397636
1725.99 2540044 2660117 2796837 2958968 3085971 3160923
1728.89 3264114 3313989 3422390 3597314 3662043 3668913
1731.78 3796789 3988158 3973025 4221337 4495867 4718219
1734.67 5391303 5995175 6492411 6903582 7347909 7669339
1737.56 7947513 8236750 8449575 8503429 8656770 9034133
1740.46 9239453 9284598 9313220 9317579 9238315 9053056
1743.35 8853149 8579999 8306620 7938971 7591186 7329601
1746.24 7171696 7173102 7371067 7499243 7713101 8126374
1749.13 8581259 8955027 9117021 9004444 9116895 9420599
1752.03 9436139 9215457 8994420 8775061 8537556 8317822
1754.92 8041117 7818162 7568503 7320470 7276645 7167348
1757.81 7054260 6861119 6667865 6530161 6510346 6408190
1760.71 6278946 6158133 6252843 6428212 6580224 6751598
1763.60 6911975 7104306 7356544 7661958 7729960 7673684
1766.49 7776761 8054284 8297059 8630628 8971327 9200714
1769.38 9459489 9525588 9454651 9282846 9145875 8697403
1772.28 8154612 8039078 7822551 7310634 6875272 6488262
1775.17 6180616 6089213 6181147 6291888 6443946 6763054
1778.06 7329069 7811758 8081238 8168792 8047743 7803223
1780.95 7469727 7052462 6681652 6337932 6012550 5715656
1783.85 5348742 4925335 4661617 4431325 4045938 3618692
1786.74 3310772 3063238 2835429 2614992 2407268 2228936
1789.63 2074757 1809835 1629035 1558827 1365628 1136197
1792.53 1128408 1225708 1185647 1159431 1174649 1116794
1795.42 1045773 1063713 1025019 950583 1021758 1056597
1798.31 1050693 975050 957999 1125509 1199990 1194372
1801.20 1291019 1341297 1438487 1521525 1540913 1546913
1804.10 1584894 1619268 1684540 1744223 1791884 1851598
1806.99 1891980 1955990 2040252 2077699 2063308 2079634
1809.88 2140628 2276608 2420874 2458426 2420650 2375909
1812.77 2332821 2307733 2262519 2269988 2291780 2334087
1815.67 2314863 2344901 2456518 2502950 2499568 2501455
1818.56 2427493 2350868 2314449 2304752 2326146 2211700
1821.45 2145497 2160027 2166028 2138702 2085896 2059883
1824.35 1991017 1954647 2071544 2113518 2109937 2124638
1827.24 2197369 2283768 2318123 2336218 2417355 2484923
1830.13 2671450 2790692 2929047 3143299 3346895 3483612
1833.02 3621094 3822284 4045045 4245550 4466215 4650729
1835.92 4809367 4950977 5069994 5239936 5412441 5515263
1838.81 5662259 5787708 5855941 5939605 6063812 6172862
1841.70 6462073 6954967 7423103 7851524 8356740 9185640
1844.59 10027008 10798949 11667175 12483355 13165237 13764464
1847.49 14241093 14538349 14683916 14749239 14654810 14329503
1850.38 13824148 13241059 12753240 12568594 12631162 12949298
1853.27 13684811 14683985 15490343 15285498 13541815 11028563
1856.17 9431647 9095044 9362710 9892980 10518464 11118943
1859.06 11524739 11716155 11696305 11461040 11013284 10403950
1861.95 9687926 8935735 8150311 7379751 6565833 5706060
1864.84 4954414 4257784 3569325 3022659 2637682 2267999
1867.74 2013141 1812587 1552940 1521593 1585071 1527983
1870.63 1485639 1434970 1381437 1336015 1383046 1388641
1873.52 1355619 1333853 1360604 1394982 1325673 1288706
1876.41 1279452 1233171 1230652 1168788 1093843 1072559
1879.31 1071263 1108397 1092306 1040814 1033544 1066402
1882.20 1098526 1158817 1270644 1235442 1127259 1060665
1885.09 1094185 1073107 1101978 1221523 1236012 1260612
1887.99 1351643 1365866 1360272 1399269 1435006 1444218
1890.88 1445051 1377705 1315393 1278009 1241230 1184838
1893.77 1206432 1287538 1395710 1479643 1533240 1529116
1896.66 1492776 1469443 1476086 1471571 1523256 1526951
1899.56 1546636 1571909 1627420 1654768 1768394 1848433
1902.45 1894097 1884381 1937624 2053000 2107711 2105378
1905.34 2197973 2319502 2417770 2587177 2691955 2669644
1908.23 2730222 2842882 2917235 3015173 3198514 3358484
1911.13 3413433 3490119 3675854 3890794 4006822 4060075
1914.02 4234822 4492084 4727547 4874606 4997020 5030556
1916.91 5093791 5145139 5397283 5744151 6031275 6333177
1919.81 6643162 6999202 7334307 7690333 8123110 8504360
1922.70 8864291 9295839 9768828 10197838 10615920 11094197
1925.59 11577855 11959213 12286635 12592689 12891757 13100075
1928.48 13245630 13281360 13165813 12997853 12754819 12238388
1931.38 11461445 10670336 9965477 9454158 9240491 9320998
1934.27 9318964 9190071 9450203 10179844 11154116 11953339
1937.16 12560267 12796329 12710616 12423647 11985049 11423362
1940.05 10773196 10166890 9611219 8932285 8289188 7689568
1942.95 7092538 6454316 5849881 5305720 4793357 4339346
1945.84 3971507 3583492 3240115 2931290 2622811 2370196
1948.73 2160737 1962652 1799644 1578622 1367941 1166444
1951.63 1048103 908614 735133 621051 589937 535626
1954.52 406364 373570 438589 352297 273580 257358
1957.41 196796 178413 144585 101940 71785 76151
1960.30 82463 31105-44697-89844-22688 58795
1963.20 119949 143315 150219 136087 106572 98655
1966.09 128607 125461 170905 226077 219483 260969
1968.98 262866 211031 157825 161511 144674 135157
1971.87 202262 147828 65912 87284 177669 148979
1974.77 67613 54020 123747 107356 41680 17108
1977.66 92394 78283 33153 21007 4671 46801
1980.55 66546 32352-27969 2351 68649 46690
1983.45 12863 28299-5968-25928-25583-46677
1986.34-34320-73246-89238-44250-84051-113886
1989.23 8832 51476-29988-82832-82817-81119
1992.12-43088-10205-28757-82464-72209-52415
1995.02-42334-11700 34027 64560 35085-8997
1997.91 1489 31710 48988-6647-74277-6889
2000.80 24139 3241 2969 17679 32468-39646
2003.69-62762 1814 66184 105560 68545 2441
2006.59-66687-192436-206671-48807 10328-16493
2009.48-87133-92803-112842-145296-124304-76090
2012.37-97106-122935-85713-64425-94214-94986
2015.27-84078-75757-36467-100524-129128-43880
2018.16 21275 8360-4879 21763-21843-97689
2021.05-66493-38564-22552-18570-2183 24904
2023.94 31197-48687-82923-89110-92669-52434
2026.84-65037-100273-125907-183052-195853-213208
2029.73-233815-202858-246215-245567-194668-209426
2032.62-229647-188189-155947-104850-139301-229835
2035.51-285776-330387-330404-339175-307546-293401
2038.41-340064-345352-291483-340482-350478-315344
2041.30-364436-445145-426635-396365-467317-571063
2044.19-515816-478424-486741-459885-452533-459854
2047.09-467992-427314-372113-448249-511323-545770
2049.98-507481-504222-521948-488719-456935-474263
2052.87-460041-497176-556427-565030-543226-527760
2055.76-531910-532950-482072-462545-435959-423318
2058.66-444810-494554-427842-334293-344700-394796
2061.55-432819-445482-380563-375991-372173-377266
2064.44-397833-315177-213182-225309-218823-193985
2067.33-202684-175521-85192-61033-97302-114032
2070.23-87192-38720-37494-34265 27754 86393
2073.12 75957 20183 17624 13400 18265-43503
2076.01-169092-139815 15343-18400-103192-152459
2078.91-102783-20877-6639 33731 119966 197290
2081.80 151676 66940 126241 116564 4279-47956
2084.69-70086-11962 164473 31482-179108-169946
2087.58-210090-227998-242819-265041-200910-42150
2090.48-111331-271195-264355-180650-128704-172875
2093.37-203986-49918 105466-5712-99831-147356
2096.26-100755-23379 88712 160879 330263 486073
2099.15 301918 203490 280582 325254 267988 257486
2102.05 296104 505935 575470 362752 378494 513285
2104.94 636606 683441 622353 631279 799045 622927
2107.83 409470 354607 398882 405890 436740 518498
2110.73 823214 897262 649052 558974 540874 494034
2113.62 421164 329734 432613 717852 528618 183345
2116.51 20706-13646-25970-79577-54071 108250
2119.40 21124-299459-387570-372728-384208-430066
2122.30-358959-143233-15069-225066-304274-369419
2125.19-381050-371613-366030-231376-41243-174251
2128.08-339590-389465-433210-436919-431254-431008
2130.97-198534-232354-421294-417492-378804-381825
2133.87-321990-295089-186832-239029-386254-304615
2136.76-181778-232075-279731-270160-194446-75841
2139.65-64929-95406-108891-93315-85564-141317
2142.55-109069-62980-35487 19989 75346 112283
2145.44 77394 31635 81644 105229 20689 44579
2148.33 54883-691 19663 101569 302234 306891
2151.22 181699 132353 83604 38972 27274 153967
2154.12 286978 127980-8456-10603-5610 64707
2157.01 120823 276728 281279 97336-22899-32401
2159.90 29023-37616 22624 340795 194016-136074
2162.79-206543-227976-170195-93324 107465 237934
2165.69 19501-146511-197738-222245-222173-161306
2168.58 161032 101469-211212-336327-259930-168845
2171.47-157629 79285 134530-180059-286810-265739
2174.37-208015-192461 7147 231045-62188-277575
2177.26-306957-292865-280891-169263 100452-77981
2180.15-261493-253657-295841-371168-295703 17796
2183.04-44170-249775-280377-310860-354017-294167
2185.94-95095-187503-374365-323697-280714-313318
2188.83-281380-30110-41898-250410-274457-385520
2191.72-379900-265823-85859-126625-339914-387660
2194.61-377533-301682-195504-140495-198834-272944
2197.51-294655-293302-271337-233299-127916-185725
2200.40-281095-246599-253689-229549-91231-74011
2203.29-220619-213321-176738-144140-53179 10194
2206.19-41676-97459-138584-139184-86908-34967
2209.08 19940-11087-319-45248-88377 13887
2211.97 133012 106112 48261 65597 68922 26580
2214.86 46134 112243 85043 63064 62362 44602
2217.76 60974 49486 19478 7214 11772 41566
2220.65 91394 89227 7585-17314 24447-23940
2223.54-40085-28306-8797-32489-55672-15861
2226.43-50253-106092-125675-116038-96097-190251
2229.33-217816-204370-202634-153912-181053-252700
2232.22-310643-215072-139320-180456-167273-160278
2235.11-123872-116825-122326-126661-179806-251432
2238.01-284484-282541-238074-143988-94872-56280
2240.90-129654-188803-195027-209374-217263-138809
2243.79-107414-156869-132326-94420-56583-104887
2246.68-145790-93372-50136-105108-79783-26236
2249.58-62284-91083-50632-69557-70000-10022
2252.47-3822 28681 107579 141703 110292 140107
2255.36 239315 295401 308308 307203 265729 266455
2258.25 424021 506235 485405 544401 529721 432292
2261.15 447971 518146 554591 567985 508175 478014
2264.04 527036 540523 545682 535701 546083 637606
2266.93 740164 730020 711794 700027 640459 689374
2269.83 735845 729970 793246 827763 817422 775759
2272.72 815037 820828 790144 788168 835408 885256
2275.61 995154 1063537 1069453 1085586 1056975 1146246
2278.50 1224020 1202631 1147456 1291856 1404668 1409300
2281.40 1421371 1441122 1417862 1416268 1457815 1442794
2284.29 1503361 1584996 1545892 1572911 1631582 1708832
2287.18 1780437 1829710 1782549 1775949 1761307 1844944
2290.07 1865338 1857020 1930761 1923151 1855718 1875297
2292.97 1910289 1939661 1917551 1745967 1645640 1571297
2295.86 1382844 1284508 1289794 1227262 1127168 1044621
2298.75 983220 960807 934299 838691 766454 727632
2301.65 712583 648239 590788 567145 584492 605845
2304.54 598795 525924 470630 432679 435410 441321
2307.43 410624 375339 482132 501423 500568 469674
2310.32 551081 617644 525671 503240 500275 569981
2313.22 503693 444273 520041 624416 578449 544764
2316.11 642013 827503 846089 785634 818827 1026314
2319.00 992543 924942 1050662 1274745 1288092 1151816
2321.89 1172214 1416577 1417255 1259297 1298524 1520295
2324.79 1458200 1273436 1372233 1630483 1501707 1160201
2327.68 1332749 1650917 1495139 1193402 1390409 1706376
2330.57 1576873 1500181 1881294 2064610 1826498 1861291
2333.47 2270837 2319354 2024617 2132546 2491018 2234985
2336.36 1893617 2251824 2416516 2001000 1995274 2258330
2339.25 2044909 1846893 2090800 2186714 1864452 1791334
2342.14 2020323 1829363 1690729 1873538 1923830 1746168
2345.04 1729953 1872151 1854007 1827238 1898118 1890628
2347.93 1784492 1666764 1646080 1696367 1732306 1723556
2350.82 1768178 1721927 1679694 1752725 1695132 1581703
2353.71 1698865 1599528 1417315 1662174 1738063 1531159
2356.61 1753361 1682450 1418198 1769591 1677133 1415679
2359.50 1712675 1524400 1391561 1687732 1379676 1384512
2362.39 1527588 1189284 1438222 1509276 1264905 1433730
2365.29 1268876 1190849 1306961 1099734 1222610 1132932
2368.18 1067311 1139010 986276 1007394 900053 903578
2371.07 977543 876499 894942 735797 768541 742466
2373.96 662424 626844 665649 696388 675963 664365
2376.86 648834 706350 676584 683540 668779 668788
2379.75 768476 783059 738280 778147 873009 919915
2382.64 864350 908745 976135 981970 988602 957852
2385.53 1018791 1027276 1025634 1105048 1228047 1303582
2388.43 1345972 1374833 1392478 1353446 1311184 1323293
2391.32 1373022 1379288 1359531 1350977 1372586 1410692
2394.21 1370294 1357006 1449474 1537544 1489328 1400239
2397.11 1374557 1413026 1454717 1527979 1576120 1526992
2400.00 1468039 1457331 1479495 1466864 1522402 1547422
2402.89 1510135 1406963 1428030 1439109 1502352 1535745
2405.78 1459397 1492651 1584376 1582302 1567133 1604344
2408.68 1605474 1596160 1689665 1700546 1708975 1722538
2411.57 1740621 1725556 1780927 1832328 1893405 1956848
2414.46 1980117 2007526 2061889 2104144 2152134 2147696
2417.35 2194799 2248789 2288272 2274595 2231015 2113194
2420.25 2102903 2155066 2248027 2249875 2197315 2110620
2423.14 2129237 2082288 2050018 2141291 2223191 2167406
2426.03 2144942 2155736 2109363 2127652 2058457 2007900
2428.93 1963368 1921485 1868091 1782083 1778399 1868619
2431.82 1831699 1695491 1675434 1728155 1727721 1630654
2434.71 1608637 1629263 1647860 1672553 1616132 1581707
2437.60 1587732 1595315 1578522 1537716 1601425 1553629
2440.50 1479924 1546896 1576100 1562588 1554158 1514512
2443.39 1529748 1591845 1638661 1555184 1439898 1510825
2446.28 1569291 1565632 1540968 1478264 1459880 1486929
2449.17 1499433 1489729 1540579 1509294 1447353 1469553
2452.07 1507713 1544993 1548097 1491665 1462705 1500591
2454.96 1551757 1495303 1468031 1490947 1501695 1446544
2457.85 1462346 1467971 1433915 1457656 1419314 1400431
2460.75 1411790 1426697 1443302 1402663 1397380 1399889
2463.64 1404139 1410292 1437072 1515490 1476481 1484094
2466.53 1577578 1586202 1514038 1494053 1571112 1623614
2469.42 1651180 1612367 1565864 1536932 1473226 1460736
2472.32 1452901 1430548 1383158 1404271 1415561 1386206
2475.21 1368119 1366169 1447724 1471031 1408645 1315605
2478.10 1340421 1431164 1564709 1533457 1452805 1392753
2480.99 1400440 1417721 1431292 1469852 1430141 1431643
2483.89 1492301 1471871 1396043 1338856 1265016 1255154
2486.78 1242770 1247838 1299364 1344080 1355965 1338424
2489.67 1343737 1395136 1358277 1262399 1307402 1398563
2492.57 1395417 1292683 1244133 1263354 1313657 1354155
2495.46 1343246 1294734 1205899 1214145 1238124 1260732
2498.35 1358185 1356711 1227078 1220649 1261465 1269645
2501.24 1243684 1217936 1115455 1118743 1170779 1266382
2504.14 1253967 1206477 1249213 1235430 1132336 1037916
2507.03 1000397 1023211 948266 851295 821959 783931
2509.92 779954 776275 775919 756529 771848 784780
2512.81 718051 585325 581749 640178 615146 592429
2515.71 612185 539060 528522 481832 447165 434001
2518.60 482125 477602 383023 368741 387821 431335
2521.49 431019 379402 397247 424272 378706 302123
2524.39 353791 408524 428971 428643 373128 362377
2527.28 395257 370288 466166 593766 680928 765508
2530.17 783724 829901 825072 823665 894794 940689
2533.06 1043985 1051082 1086196 1243504 1295232 1222056
2535.96 1183717 1229844 1257276 1302869 1232657 1175478
2538.85 1292757 1417029 1523496 1546569 1524308 1574629
2541.74 1611695 1546705 1416964 1399156 1363520 1353479
2544.63 1433769 1427226 1373368 1419942 1378522 1334702
2547.53 1319383 1287558 1254762 1247691 1191199 1076875
2550.42 1120208 1090365 903247 795436 679641 569088
2553.31 565034 575696 475797 440408 457700 516783
2556.21 515388 479159 480635 442835 343988 356382
2559.10 446819 382694 371305 394674 382940 408378
2561.99 471765 478727 420193 382243 296415 253933
2564.88 346090 358820 254808 274030 312111 281164
2567.78 312019 310280 326037 279526 257215 364748
2570.67 390371 306203 292324 305980 283601 237377
2573.56 253468 332323 285940 286378 306972 306760
2576.45 329569 274592 251176 292154 210760 122448
2579.35 188479 146731 118611 182708 223994 207213
2582.24 177611 219553 265962 278133 253785 299125
2585.13 369386 380474 325056 325477 397460 428214
2588.03 444674 440492 455048 511106 532872 520829
2590.92 501075 515671 523487 511672 545821 645812
2593.81 544986 373839 418001 487840 557253 599287
2596.70 590166 616180 673285 762846 758258 766118
2599.60 777869 771532 767692 791129 769713 731562
2602.49 694831 712956 708636 645357 594608 584247
2605.38 626378 637707 581369 569908 582209 593553
2608.27 686290 679757 651284 652949 691972 721912
2611.17 749908 734708 697591 648261 626865 630231
2614.06 689553 784641 784691 762257 701455 697035
2616.95 757009 709084 625051 669876 711339 723790
2619.85 700296 782174 872604 868161 888256 902620
2622.74 887552 955578 1069423 1094145 1010609 893957
2625.63 888597 895033 930182 910704 912814 893509
2628.52 885406 838684 804589 935637 975554 956107
2631.42 908971 940989 920888 892197 968836 1033763
2634.31 1009851 1025508 1070801 1073661 1143543 1182034
2637.20 1144274 1098183 1113033 1074321 1010866 977373
2640.09 936285 906394 899669 845874 765132 792863
2642.99 881112 939763 743862 704422 862520 812993
2645.88 736056 698711 604460 581049 639004 671006
2648.77 683787 673372 725426 766141 758945 748572
2651.67 796425 771103 675151 567892 586862 626275
2654.56 592081 473375 440065 413464 329239 270082
2657.45 350743 455141 417875 352847 353244 233736
2660.34 237051 342854 399127 358522 283881 260719
2663.24 260445 271528 130680 66357 43990 80670
2666.13 188982 221224 202275 218142 136288 42292
2669.02 16379 31353 59565 129304 112314-10525
2671.91 32912 34019-42032-10660 33862 120444
2674.81 180698 110459 76162 44514 60994 96737
2677.70 68483-15757-73497-20627 52458 98163
2680.59 142633 194413 138868 65876 65432-28703
2683.49-8070 63600 22133-65604-36050-956
2686.38 40184 58328 118394 171836 157738 81348
2689.27-3442 16989 102828 122467 244540 357151
2692.16 305038 210714 166882 131959 94442 67357
2695.06 64783 15231 107776 73572 3144 168472
2697.95 252771 192983 196374 268601 256338 308839
2700.84 421957 457732 426876 433274 436187 451141
2703.73 523452 618141 630664 537623 578444 677695
2706.63 639046 654334 769989 831640 841049 806978
2709.52 827438 940112 1019869 1044818 990579 1017749
2712.41 1077259 1081412 1073194 1144043 1256262 1318720
2715.31 1243012 1233957 1338655 1405719 1453197 1556560
2718.20 1620337 1641481 1646514 1797755 1840786 1703416
2721.09 1800956 1944788 1931743 2033731 2252939 2329755
2723.98 2418465 2559366 2687065 2796173 2940727 3179115
2726.88 3374886 3555844 3846378 4127239 4448776 4844096
2729.77 5221545 5647075 6071865 6698804 7324913 7848003
2732.66 8531936 9174013 9748538 10510533 11180104 11737835
2735.55 12227117 12658240 12974438 13248570 13253989 13096637
2738.45 12870083 12736810 12680782 12777689 13058439 13782263
2741.34 15415667 17399530 17869550 15814371 13506764 12753978
2744.23 13121285 13869036 14794657 15663462 16259268 16620745
2747.13 16780571 16789230 16607478 16136984 15506526 14644988
2750.02 13665574 12639153 11546912 10511545 9588285 8705488
2752.91 7932619 7257344 6591649 5982340 5652864 5459983
2755.80 5168795 4779044 4433256 4143917 3964311 3719042
2758.70 3504493 3369902 3205556 3158059 3051041 2934541
2761.59 2826358 2697706 2623313 2533075 2396541 2342409
2764.48 2316765 2312613 2303710 2290788 2197616 2080576
2767.37 2062418 2010426 1862574 1923677 2006842 1979126
2770.27 2035875 2052898 2001428 1967797 1938750 1903433
2773.16 1855889 1809320 1808894 1839393 1894129 1853671
2776.05 1918962 1985588 1943586 1951166 1947230 1924790
2778.95 2032905 1962914 1955586 1965260 1893720 1948925
2781.84 2049490 2082657 2028312 2010195 2079367 2084917
2784.73 2094780 2198909 2180343 2192223 2156679 2150413
2787.62 2317680 2354436 2369751 2389591 2463230 2589861
2790.52 2595177 2603394 2705446 2713730 2698353 2669672
2793.41 2693282 2797951 2919873 2945989 2912100 2994977
2796.30 3132823 3157890 3076051 3153719 3236903 3356301
2799.19 3430202 3374084 3424849 3542456 3536686 3524611
2802.09 3541832 3648663 3746296 3775136 3816454 3916652
2804.98 4036337 4118423 4131295 4211080 4194441 4203471
2807.87 4389923 4590075 4640846 4615228 4721423 4880114
2810.77 4823901 4897203 5152440 5272537 5409355 5472130
2813.66 5508802 5583537 5705057 5853592 5899581 5990644
2816.55 6225204 6380229 6347562 6415179 6635564 6849807
2819.44 6988014 7120842 7266243 7408098 7459761 7716417
2822.34 8007207 8012490 8117507 8254698 8437124 8626743
2825.23 8688422 8870895 9194295 9359856 9404572 9553394
2828.12 9813701 10014928 10183223 10397994 10579473 10611989
2831.01 10637758 10787252 10967645 11119317 11282496 11472530
2833.91 11726944 11938162 12117405 12330880 12493238 12725006
2836.80 12985961 13249344 13538915 13800474 14080243 14338027
2839.69 14631239 15021873 15303728 15570108 15962033 16340680
2842.59 16788022 17321831 17711100 18139322 18690090 19219996
2845.48 19856864 20374228 20859726 21541351 22236463 23064116
2848.37 23860166 24455339 25113507 26013706 26952092 27860698
2851.26 28934454 30032948 31157266 32333142 33557805 34875935
2854.16 36261958 37616774 39010736 40415496 42049085 43817648
2857.05 45664395 47560447 49273803 51068837 53172281 55453715
2859.94 57705998 60028634 62426712 64757112 67264644 69916279
2862.83 72531422 75225500 78087234 80976396 83886752 86969418
2865.73 90088230 93132074 96029871 98964833 101871201 104738552
2868.62 107510951 110183717 112737789 115216924 117560754 119678539
2871.51 121506668 123330662 125081488 126663113 128021597 129174696
2874.41 130212443 131066334 131745287 132369307 132939115 133484562
2877.30 133631479 133705208 133813692 133885255 133932474 133798906
2880.19 133559869 133205535 132690545 132142611 131413379 130559956
2883.08 129696727 128732480 127445936 125895705 124423226 122943946
2885.98 121358725 119642901 117935051 116199163 114506416 112810613
2888.87 111147872 109660426 108396026 107121458 105916474 104782986
2891.76 103733444 102971590 102462600 101864320 101413843 101166157
2894.65 100896659 100716020 100617210 100643014 100709379 100827784
2897.55 101113016 101497218 101968979 102238616 102556580 103039952
2900.44 103523547 104392620 105347098 106377971 107411279 108278466
2903.33 109275537 110335916 111400523 112477264 113507042 114521002
2906.23 115591880 116757128 117910847 119106842 120220513 121204907
2909.12 122372513 123617473 124745881 125969889 127410496 128925197
2912.01 130540604 132362639 134357496 136612530 138847690 141125365
2914.90 143454396 146014629 148925995 151967542 154952637 158140365
2917.80 161672999 165365025 169226587 173232510 177452995 181943149
2920.69 186305226 190621949 195074115 199579805 204061418 208587564
2923.58 213241198 217924967 222362908 226824452 231139976 235282672
2926.47 239311151 242965184 246356128 249698308 252924608 255990126
2929.37 259071516 262050744 265105353 267902914 270569629 273246320
2932.26 275365157 277033909 278713274 280235143 281434867 282557313
2935.15 283382483 283981056 283957958 283155397 281590300 279435779
2938.05 277216073 275178107 273283765 271467867 269503964 267503490
2940.94 265572486 263528578 261441822 259346322 257376261 255447703
2943.83 253375912 250720605 246462823 239643466 230756206 221170447
2946.72 212015447 203552485 195663157 188366061 181716549 176018349
2949.62 171183529 166718699 162698186 159369932 156683821 154774896
2952.51 153408656 151853463 148759731 143628336 137678278 132195154
2955.40 127708860 124136197 121299789 119010599 117043411 115479118
2958.29 114164217 113176093 112285371 111386321 110501309 109257682
2961.19 107546273 105934371 104398189 102621602 100682867 98678363
2964.08 96887214 95120367 93317705 91447673 89537716 87670045
2966.97 85793096 84105460 82505327 80851622 79352561 78138411
2969.87 76950595 75972985 75319669 74749968 74241276 74018909
2972.76 73985376 74104156 74507162 75025200 75443074 75971889
2975.65 76562579 77127341 77722109 78344750 78897614 79470656
2978.54 80372533 81607143 82973825 84420849 86120549 87921399
2981.44 89729392 91557519 93323783 94826902 95957026 96797082
2984.33 97160643 97063812 96732344 96231658 96023954 96165212
2987.22 96660793 97729335 99193603 100944157 102917086 104582337
2990.11 105789300 106528090 107015772 107621097 108351180 109278670
2993.01 110480220 112036929 113885301 115640880 117288705 118869209
2995.90 120280447 121113205 121648121 122222042 122810516 123237505
2998.79 123746006 124448272 125433371 126738502 128233069 130116295
3001.69 132390626 134986695 137754462 140662892 143671374 146785507
3004.58 149531141 151879042 153773340 155311181 156418855 157252870
3007.47 158150938 159434546 161221021 163430844 166060884 169071865
3010.36 172438722 176187031 180015756 183788172 187528787 190823190
3013.26 193302278 194754149 195938959 196982774 198101476 199375811
3016.15 200755236 202277714 204301079 206867149 209940335 213558211
3019.04 217663024 221933944 226294794 230490503 234333209 237408119
3021.93 239743074 241744033 243699508 245608270 247289260 248964169
3024.83 250555819 252032883 253735147 255846221 258270573 260871393
3027.72 263019610 264118102 264309065 263804514 263328082 263338948
3030.61 263753956 264429205 265308822 266099715 266752911 266994531
3033.51 266604047 265753434 264218123 262085281 259382843 256230866
3036.40 252803158 248968847 245052652 241254033 238086495 235268981
3039.29 232453035 230025536 227762370 225117037 221877291 218108161
3042.18 214283064 210802313 207610463 205207296 203556033 202302674
3045.08 201102188 199951916 198468637 196445752 194032025 191040213
3047.97 187504184 183696411 179733118 175919892 172140266 168257408
3050.86 164827423 161791796 158802084 156391468 154284684 152413533
3053.75 150987602 149780926 148708217 148018207 147518036 147084249
3056.65 146730565 146326242 146031247 145791645 145364202 144814909
3059.54 143999488 142780710 141041162 138928181 136715530 134189190
3062.43 131732646 129940095 128766485 128408101 128758703 129255246
3065.33 129917154 131043123 132571540 134204039 135389433 135844547
3068.22 135394283 133885162 131525023 128381235 124777090 121014548
3071.11 117019591 112902405 108966853 104953333 100892513 96972709
3074.00 93027077 89146275 85402131 81791805 78405643 75198238
3076.90 72102958 69002264 66072079 63454670 60933953 58352748
3079.79 56002685 53869209 51920881 50142309 48397340 46667115
3082.68 45417924 44421745 43312736 41963345 40842438 40024720
3085.57 39104109 38204292 37479259 36851247 36235116 35748051
3088.47 35466025 34963706 34321255 33786284 33226654 32509657
3091.36 31852591 31359421 30711161 30107127 29655777 29320333
3094.25 28964961 28561011 28259440 27928526 27638074 27248750
3097.15 26865442 26667901 26515112 26402320 26259734 26136841
3100.04 26032135 25828664 25623183 25439515 25258312 24991909
3102.93 24709853 24501765 24267365 24124912 24039901 23917450
3105.82 23697465 23466001 23452179 23530853 23401548 23294459
3108.72 23293377 23368972 23251817 23177868 23258275 23255202
3111.61 23013636 22890206 22904617 22883106 22705839 22564258
3114.50 22439990 22350150 22085750 21586538 21189617 20885728
3117.39 20401963 19891955 19485851 19277829 19075309 18567420
3120.29 18095745 17783867 17731342 17592344 17244894 16910891
3123.18 16540990 16177483 15839480 15528267 15112379 14632571
3126.07 14065580 13466347 12929626 12401944 11721870 11042463
3128.97 10457433 9879257 9341193 8863074 8211804 7682337
3131.86 7324242 6945918 6576136 6364455 6043605 5620025
3134.75 5360805 5148812 4868455 4613244 4375421 4053730
3137.64 3863500 3542856 3348868 3192817 3075517 3114467
3140.54 3014368 2777955 2672130 2600880 2394388 2243468
3143.43 2213238 2142092 2151715 2066411 1899436 1779155
3146.32 1817469 1758335 1722520 1770218 1670560 1523929
3149.21 1546696 1556437 1463796 1435823 1357855 1350629
3152.11 1274957 1189880 1218983 1293353 1254717 1127212
3155.00 1211687 1231856 1137470 1156421 1123304 1143389
3157.89 1218176 1130905 1052297 1052524 1010715 951622
3160.79 934318 993406 1015268 929836 940159 828097
3163.68 740800 786797 842848 770714 798041 835463
3166.57 737216 650918 811352 846327 762672 680932
3169.46 710045 726074 568132 591331 804936 877180
3172.36 779284 749272 773110 821706 714455 601889
3175.25 476146 420749 454943 556999 684975 719002
3178.14 722416 719309 709824 644471 677993 695845
3181.03 630291 765302 845302 744940 614300 587692
3183.93 619972 598058 539015 485118 568958 649030
3186.82 601611 639455 618381 534045 502864 486374
3189.71 466047 474132 522946 520909 465261 394880
3192.61 414105 425394 485621 510679 611474 685013
3195.50 524549 465569 554266 577225 531205 517875
3198.39 415235 368566 292145 252820 253336 347710
3201.28 429423 359177 215278 304549 482451 426393
3204.18 349263 352249 342990 205651 147221 201791
3207.07 243390 348758 383871 392978 348163 345150
3209.96 367463 400013 492542 578957 453381 324314
3212.85 310116 478585 429789 318640 278601 155589
3215.75 156444 104686-24098 30385 31235 6732
3218.64 3873 79458 41680-63301-85205-75492
3221.53-91543-172255-262484-248659-373338-511002
3224.43-456883-365326-434262-425638-552426-633420
3227.32-558945-537623-446394-408061-495806-515496
3230.21-335439-196213-215472-330939-462734-486469
3233.10-511333-645168-769484-862973-804201-663429
3236.00-752645-843162-624209-419260-370506-379217
3238.89-376435-361396-519240-572368-435339-363803
3241.78-415233-502080-480685-407805-333807-341611
3244.67-419278-366962-271445-150375-234965-400104
3247.57-419830-320076-179415-183733-297587-332711
3250.46-279643-245097-182630-314 144391 50622
3253.35 19777 53150 926-29696 46144 144010
3256.25 143472 214937 295305 351083 357087 387140
3259.14 430100 352640 253298 177906 295741 446600
3262.03 353163 308425 311220 257193 276733 331320
3264.92 330164 339206 367209 510131 533407 358720
3267.82 342749 514648 606978 459112 420050 406162
3270.71 199132 192327 288515 309405 335700 284754
3273.60 155360 190148 287650 270535 124415 61050
3276.49 84979 135798 246223 248990 229265 185154
3279.39 126442 58983 41080 77696 31560-75411
3282.28-125377-74151-74767-58044 522 45644
3285.17 119876 59965-7989 95046 19427 19642
3288.07 68402 41776 24064 8797 14953-15445
3290.96-28348 402-591 89489 123401 35706
3293.85 74811 95193 69135 54847 82481 84851
3296.74 30471 112578 145557-60319-118728 68175
3299.64 174711 39655 13364 25726 48418 59858
3302.53-107452-181654 1379 203901 138736 3264
3305.42 26 4933-41873-42425-45457 6709
3308.31 5513-56780-91589-71501-67710 17829
3311.21 170370 4566-77789 7848 46564 20396
3314.10-92132-128691-124616-56593-88821-108778
3316.99-107640-62793-82359-100761-40659-59617
3319.89-97352-95745-77996 50561 37457-3122
3322.78-49473-61343 22702-123229-242680-172004
3325.67-126292-88059-46684-79440-120013-3965
3328.56-20654-214625-132785-45171 73863 70963
3331.46-3402 23007-23333 31008 39180-115504
3334.35-83969-71922-71614-64101 46926 118588
3337.24 62920-32909-166800-187351-69529 22886
3340.13 112375 90486 28698 96539 185026 92553
3343.03-11361-51982-154850-164596-63016 66557
3345.92 17738 44362 42481 63122 133243 69774
3348.81-25432 41069 124838 81066 3278-108310
3351.71-123832-156253-117699 90105-26546-213031
3354.60-124874-131134-21603 11751-35102-79974
3357.49 8910-19600-91001-39867-147426-178977
3360.38-148083-184768-50408 6147-157884-221477
3363.28-96785-67183-226336-226825-220580-248828
3366.17-301012-104705-35415-114790-152663-96752
3369.06-89672-143955-159226 78379 270699 258903
3371.95 118891 4165 51591 113986 54556-116438
3374.85-99997-12076 58897 99360 38043-53988
3377.74 22723 177644 229149 153756 51274 96559
3380.63 153691 239944 231145 54261-27213 33983
3383.53 149456 257701 302262 360338 382486 255734
3386.42 72950 157749 354507 438860 273930 132548
3389.31 267015 497416 455142 399925 348334 317164
3392.20 246959 219447 97454 188853 373138 524745
3395.10 588070 672610 750986 700900 555197 401855
3397.99 308555 293095 512883 511512 164823 107045
3400.88 182250 265149 376216 437292 421034 467709
3403.77 475000 452156 464498 422944 351722 265558
3406.67 201529 288954 374098 471717 391490 339610
3409.56 344041 458222 416674 320721 293363 464493
3412.45 627375 408478 148550 84612 247241 348690
3415.35 345012 309845 450794 519763 455130 584302
3418.24 435793 317170 324030 427725 477463 546331
3421.13 606503 595188 512851 459263 495768 536477
3424.02 434801 269599 453260 576610 477857 399759
3426.92 305962 282297 372096 478457 469003 486559
3429.81 538452 574199 381535 305847 267804 333970
3432.70 386411 462369 598144 602391 524572 391910
3435.59 369220 368203 304460 352664 369332 324232
3438.49 320198 352244 350410 472374 501751 479407
3441.38 459150 472356 419479 255844 268275 405665
3444.27 386567 166560 239900 426871 402322 269865
3447.17 372160 572310 507477 468468 381605 515787
3450.06 432082 280271 476909 593486 477456 474053
3452.95 330834 335585 534212 514385 444670 524705
3455.84 421619 294640 372359 520655 603417 627357
3458.74 554216 481051 478224 400856 338407 275938
3461.63 301389 413313 405867 272779 346243 498813
3464.52 495645 403271 263391 275907 487656 567933
3467.41 413836 407552 491525 489909 480190 536679
3470.31 508667 423434 370359 416344 425584 357457
3473.20 265910 230258 164583 190151 223284 146239
3476.09 83340 28553 139439 230893 129007 21394
3478.99-151506-23060 105755-28147-18460 56890
3481.88 121130 97565 29984 44831-56751-68426
3484.77-82333-154415-253951-206201-164392-144280
3487.66-233405-346818-355307-284469-283483-192128
3490.56-123560-202713-283979-182828-250045-381720
3493.45-475772-384911-359433-363248-202214-113601
3496.34-224270-326666-375204-301601-207355-145908
3499.23-226724-363243-381287-207318-212874-420874
3502.13-402212-374386-349608-440116-555046-427946
3505.02-504091-468896-288803-211332-253991-375848
3507.91-334314-251720-311104-278281-343283-354544
3510.81-304329-250321-287142-500813-471874-314905
3513.70-381537-404461-402023-404635-314564-212329
3516.59-192586-241005-236851-196887-280614-362259
3519.48-382611-474260-420994-290532-225074-138710
3522.38-282880-267858-363607-435745-339478-225675
3525.27-83655-190864-332915-379484-336985-223897
3528.16-122847-202891-264082-235392-204761-60797
3531.05-143100-183963-80650-44447-34375-98423
3533.95-82381-98348-149483-134010-112270-13077
3536.84 70638 140857 64622-8638 34443 158335
3539.73 181447 181107 268312 275821 221393 103907
3542.63 63556 140968 204341 385252 414817 441477
3545.52 436529 508209 507625 454763 491801 501086
3548.41 463708 507072 650696 771917 691365 524631
3551.30 457028 429064 503508 576935 645516 580188
3554.20 506641 564985 549631 532514 526675 475994
3557.09 504644 599797 623184 480849 427957 447077
3559.98 375370 413726 415439 500138 536170 552978
3562.87 513719 393373 251340 205502 391181 452892
3565.77 415526 427742 390755 140774-23563 62516
3568.66 268543 228344 124318 89477 78531 141675
3571.55 223167 292753 251915 162024 81036 153199
3574.45 237619 214046 149228 127730 120690 123178
3577.34 97074 120384 134484 113095 108597 136647
3580.23 31284 36102 100337 71418 61689 49551
3583.12 14390 63455 135277 194722 109504 23954
3586.02-152106-235603-203007-155728-178952-179961
3588.91-98376-36722-63372-141524-219274-280602
3591.80-319060-319399-241761-144400-96418-247361
3594.69-332010-147489-37163-182048-276572-198667
3597.59-184970-334602-344536-279904-360311-325887
3600.48-383473-389910-241350-128493-186864-341495
3603.37-456960-473893-308059-307467-265230-298329
3606.27-362272-340139-366611-423404-544464-655706
3609.16-497559-246204-137234-161352-218969-315751
3612.05-435923-398828-283047-337280-531922-466083
3614.94-309747-282358-279849-189441-246969-298224
3617.84-282810-327422-544109-610904-374579-193036
3620.73-216494-316998-356994-306807-264796-255600
3623.62-175807-189232-327419-293196-265972-293259
3626.51-342379-332205-349216-536473-527992-574073
3629.41-463666-221696-289114-387616-369106-331519
3632.30-307390-311436-280324-233512-175269-100331
3635.19-160963-304622-332806-311313-315947-268358
3638.09-350627-429475-364496-230373-168051-150527
3640.98-228681-359692-375915-391436-331802-259792
3643.87-242606-177436-231487-184491-260144-382000
3646.76-494750-410457-250399-382389-702518-623242
3649.66-391308-339487-365466-286411-227548-281782
3652.55-360690-377969-363073-469428-402070-332286
3655.44-515506-603123-287984-161118-255805-245452
3658.33-149688-175942-312187-375356-391374-409153
3661.23-366378-401244-313013-226187-383324-472067
3664.12-311238-283833-287055-340565-387361-366606
3667.01-347677-260737-285259-374094-326231-355314
3669.91-764541-865335-312159-168472-175819-126139
3672.80-151554-276457-443883-665782-758254-815777
3675.69-753995-435638-314187-319265-278039-197106
3678.58-186286-274394-361319-306184-238282-221258
3681.48-200661-211058-250972-242998-295642-381863
3684.37-426697-386451-312232-164659-77362-272243
3687.26-508977-863203-839280-418135-357430-404060
3690.15-406078-391136-312143-154192-134886-238710
3693.05-410090-445046-217542-51810-99110-170329
3695.94-327097-414355-401339-218216-188196-270158
3698.83-269526-111225-86577-127835-230493-327590
3701.73-176772-29002-4144-74371-85211-5989
3704.62-99610-224643-178853-67701-52391-177984
3707.51-200437-138644-322451-567045-432582-277703
3710.40-197389-148599-392794-468378-145885 25726
3713.30-59519-116982-91951-124468-173898-246707
3716.19-220157-72420-51874-61031-66344-136305
3719.08-191691-120569 63698 54967-34049-133765
3721.97-204128-67311-41137-168311-187233-50126
3724.87-6985 110943 87088 90424 150266 164583
3727.76 240401 85970 10547 174227 287114 360120
3730.65 288543 133118 59524 227215 351690 382501
3733.55 386735 283986 107768 209817 357107 173768
3736.44 140044 445848 464425 480056 564331 569970
3739.33 517516 564963 609276 530822 400532 538889
3742.22 606288 525818 388574-66238-423791 103329
3745.12 544994 681928 760856 748857 678271 616839
3748.01 484327 182878-71784 246012 446129 507362
3750.90 477580 100794-72679 382008 672530 744476
3753.79 773844 763096 742176 799316 688718 606267
3756.69 749544 893328 695559 547785 440278 367263
3759.58 378128 609347 757925 808606 726179 719885
3762.47 877686 892987 823485 778011 722668 724637
3765.37 789057 863749 882661 919875 944971 882251
3768.26 866014 814054 602610 682366 881400 900182
3771.15 984891 971968 868047 850145 770874 757659
3774.04 861779 870441 913334 901183 891400 907786
3776.94 765169 737022 813459 891792 666483 593473
3779.83 705181 798899 881085 891044 896599 931020
3782.72 846062 765579 778754 747299 764470 723915
3785.61 720863 646144 609136 513692 457674 537026
3788.51 530057 361733 355378 472123 544756 526410
3791.40 524578 510470 616903 577125 482053 468321
3794.29 523388 538783 375579 149822 165791 268388
3797.19 294807 413463 374273 312033 191705 135159
3800.08 74404-245475-397906-40913 50798 122305
3802.97 212565 249917 272300 196111 95179 224281
3805.86 262679-25587-37406 354527 403223 206956
3808.76 43299 192372 309395 330413 200130 121729
3811.65 103538 35815-27736 129549 255606 221645
3814.54 134413-2291-383487-231942 284310 391348
3817.43 366019 390370 386290 354456 298982 181716
3820.33 71595 97916 31802 193398 361718 405824
3823.22 415984 380715 424107 533252 602678 576853
3826.11 365658 311161 438798 478786 492635 630873
3829.01 650923 525664 395955 375500 295593 336294
3831.90 543436 628060 636991 554562 426411 400374
3834.79 477040 556677 558269 590792 446777 14760
3837.68 15875 365564 538499 592297 490867 406502
3840.58 398414 480636 494893 628151 615612 475074
3843.47 469364 549303 674687 633209 528606 671157
3846.36 595844 490177 576457 539941 503224 605477
3849.25 540988 518140 473206 386413 182256 25089
3852.15 210631 263589-193828-582017-332018 174445
3855.04 401620 384670 424300 437813 506377 590780
3857.93 370694 295125 413589 512467 498291 434465
3860.83 169650 19272 197358 282129 388432 498848
3863.72 334388 168608 21555 174529 357759 399040
3866.61 410894 482025 445424 499164 406936 231532
3869.50-27648 104233 329839 373405 467730 538976
3872.40 507092 531350 525820 439971 492191 603554
3875.29 683105 640739 662760 687035 694140 701868
3878.18 702504 778067 804770 605885 584544 626923
3881.07 728775 912460 991024 888744 807015 867295
3883.97 908401 955820 713537 583975 734821 920983
3886.86 969532 1021475 1035079 948093 917511 981584
3889.75 962222 863747 820290 912659 1088683 1200135
3892.65 1201499 1173355 1193938 1196240 1142728 1170987
3895.54 1225472 1232083 1265651 1293772 1237542 1325976
3898.43 1212971 1069488 1215949 1314276 1283595 1306858
3901.32 1281629 1300783 1408193 1461662 1401924 1342754
3904.22 1454754 1512439 1473559 1581049 1799470 1840775
3907.11 1776970 1665356 1618054 1717715 1688386 1643255
3910.00 1799081 1874613 1797013 1774408 1761317 1813166
3912.89 1917584 1963411 1912553 1950221 1997915 2035003
3915.79 2024657 2002476 1873288 1898752 1901182 1768700
3918.68 1845264 1883911 1779695 1750109 1801550 1839023
3921.57 1882160 2062597 2020097 1798589 1709160 1780321
3924.47 1842063 1850510 1990549 2023737 1899619 1788338
3927.36 1572126 1493328 1607551 1765896 1731265 1641850
3930.25 1685452 1609711 1579065 1582984 1471433 1489240
3933.14 1539222 1524344 1523305 1606498 1634737 1529707
3936.04 1588679 1600983 1459611 1474067 1573118 1626270
3938.93 1533129 1473254 1432157 1524671 1570132 1496068
3941.82 1465079 1563267 1670379 1665765 1579903 1459221
3944.71 1474238 1568232 1469290 1426284 1409016 1478677
3947.61 1347954 1380242 1628321 1642578 1501472 1473128
3950.50 1519688 1554734 1558957 1481715 1390496 1334829
3953.39 1374808 1452581 1481688 1456547 1482538 1560383
3956.29 1436032 1231683 1394902 1600918 1502078 1519835
3959.18 1599206 1571521 1560220 1525285 1596804 1679838
3962.07 1631809 1538318 1549521 1631801 1563813 1664217
3964.96 1789463 1865497 1862844 1667709 1585254 1722488
3967.86 1710950 1667295 1648086 1657043 1696739 1732807
3970.75 1643983 1689846 1717417 1526429 1475119 1739137
3973.64 1821795 1704871
##END=
