##TITLE=1,3-Dimethylbenzene
##JCAMP-DX=4.24
##DATA TYPE=INFRARED SPECTRUM
##CLASS=IUPAC A
##ORIGIN=NIST, Analytical Chemistry Division, 301-975-3108
##OWNER=COPYRIGHT (C) 2001 by the U.S. Secretary of Commerce
##DATE=01/06/01
##$SPECTRA VERSION=1.10
##$UNCERTAINTY IN Y=2.1 % relative (B=1.13E-04,C=1.33E-9,D=3.50E-14)
##CAS NAME=1,3-Dimethylbenzene
##CAS REGISTRY NO=108-38-3
##MOLFORM=1,3-( C H3)2 C6 H4
##MP=-47.87 C
##BP=139.1 C
##$NIST SOURCE=QUANT-IR
##SPECTROMETER/DATA SYSTEM=IFS66V (Bruker)
##INSTRUMENT PARAMETERS=KBr Beam Splitter; MCT Detector; Multipass cell
##STATE=gas
##SAMPLE DESCRIPTION=m-Xylene Primary Gas Standard
##PRESSURE=101.3 Pa
##TEMPERATURE=23 C
##SAMPLING PROCEDURE=1 L/min Flow
##RESOLUTION=0.9640
##DATA PROCESSING=Happ Genzel Apodization
##XUNITS=cm-1
##YUNITS=(micromol/mol)-1m-1 (base 10)
##XFACTOR=1.0
##YFACTOR=9.0949E-13
##DELTAX=0.4820
##FIRSTX=575.17
##LASTX=3974.606
##FIRSTY=-1.27E-06
##MAXX=3974.12
##MINX=575.17
##MAXY=.0006296
##MINY=-1.77E-06
##NPOINTS=7052
##XYDATA=(X++(Y..Y))
575.17-1398910-95802 647424 540642-963974-1040457
577.58-109980-585916-1949095-1146350-192863-249659
580.47 700656 577332-41179-776571-1649405-1202265
583.37-513634-408592-472324-396143-1211223-904165
586.26 72902-2367-970858-1123020-641008-639289
589.15-522717-74083-258392-234684 525837 461573
592.04-66540-855514-1036056-683677-1220101-1079639
594.94-335389-194004-431021-915298-782470-846948
597.83-1411192-1457048-928679-194729 56140-177306
600.72-427086-665821-1133239-736832-379132-429775
603.62-772824-1002963-385263 221588-229017-947427
606.51-980512-144585 126313-419405-795858-547778
609.40-496340-627112-969564-895375-743726-287008
612.29-325447-104510-401036-859995-777487-658939
615.19-523092-386941-292557-236358-100377 104038
618.08-211614-590426-705618-721104-843017-714834
620.97-703115-616409-691105-529989 48574 481729
623.86 9058-599047-734427-790892-689693-390990
626.76-312143-192442-94004-26971-541403-799818
629.65-333350-211387-338748-343928-890198-692041
632.54-129271-61275-273527-227971-567047-702049
635.44-624130-539158-405183-397334-531020-514566
638.33-586672-341556-109180-547427-819716-488252
641.22-189496-403880-836677-593881-310525-91143
644.11-92658-173723-138909 79115 69629 41934
647.01 99185 153821 15935 432206 436778 378885
649.90 255171 260397 261526 427802 571132 810954
652.79 933195 1130455 976771 1120424 1401289 1716610
655.68 1892191 1970870 1723323 1612141 1430936 1704949
658.58 1735191 1508816 1655160 2266250 2485227 2632345
661.47 2692949 2841678 2666118 2925966 3244078 3869547
664.36 4219332 4710938 5336291 6943601 8245140 8668214
667.26 8389272 8299411 8297255 8858065 9533601 10383419
670.15 11357948 12737736 14000824 15575531 17343906 18914190
673.04 20652964 23182146 24980545 26800952 28909703 31591985
675.93 34103254 36405750 38568367 41165116 43215641 45271859
678.83 46843113 48562625 50073263 51598912 52423402 53673952
681.72 54557876 55610007 56473636 57475656 58110081 58669384
684.61 59209398 61243838 63423296 66762820 70110606 75865486
687.50 84070607 95841651 111990324 142135984 196590489 274156202
690.40 273491105 172016167 112318391 93124461 79997475 72556904
693.29 70691847 70916577 73155432 76443484 77944522 74375704
696.18 69988395 67263109 66428404 65688314 64734908 64169032
699.08 63639123 62621740 61951712 61019409 59492044 57087426
701.97 54109941 50956847 47942674 45005244 41858905 38741503
704.86 36032947 33380616 30592011 28038332 25431634 22909975
707.75 20443016 18343556 16742732 14930111 13124108 11890779
710.65 10661708 9234966 8206558 7501635 6743620 6176292
713.54 5658317 4949906 4359679 3986018 3511338 3194747
716.43 2898343 2730045 2690400 2609975 2333713 2190035
719.32 1887892 1666240 1850777 2185767 1896832 1744187
722.22 1691816 1578164 1403107 1572336 1564412 1526684
725.11 1391513 1440825 1587606 1873675 1957059 2027652
728.00 1833281 1898263 2078763 2318268 2196513 2084783
730.90 1734630 1617718 1618902 1472326 1366676 1652309
733.79 1789632 2022032 1941691 1859864 1633937 1756398
736.68 1960533 2266314 2387228 2858214 3354938 3809383
739.57 4296323 5132904 5880653 6492943 6508940 7153806
742.47 8021793 9190468 10352387 11883046 13373706 15349450
745.36 17436551 20178452 23094172 26270291 29440730 33402745
748.25 37548172 42123653 46937042 52432556 57772178 64026940
751.14 70282792 76989710 83546127 90635728 97489567 104851019
754.04 111889505 119060871 125357199 131841513 137331316 142808023
756.93 147589754 152786484 157712536 162807674 166641125 170687184
759.82 173657166 176994837 178818989 180631569 181728903 184803681
762.72 188807158 196167560 206226820 223363515 245957835 279384843
765.61 325710983 392556434 477563633 583073091 671737854 692334483
768.50 545518340 329616221 237698035 208641843 193797224 184708547
771.39 183515111 183230272 184643353 184213137 184515832 183662861
774.29 184358654 183994882 183159850 179332979 175635429 170908592
777.18 166827469 161661227 156625489 150475920 144636366 137571843
780.07 130385683 122070303 114079352 105709702 97886546 89835171
782.96 82534533 75099748 68336017 61439896 55266404 49184746
785.86 44025488 39100150 34563060 30062461 26799083 23403030
788.75 20434724 17653543 15574265 13563861 11884486 10114606
791.64 9078030 8026864 7382649 6471937 5902493 5177983
794.54 5133292 4798885 4412323 3619096 3298853 2928058
797.43 2875263 2574407 2380647 1976803 1922104 1737764
800.32 1806600 1731321 1901961 1928497 1998193 1601732
803.21 1564155 1343330 1386109 1147395 990064 1032238
806.11 1374378 1309749 1236167 1011830 1102712 1096532
809.00 1140835 944377 981162 661639 606389 715109
811.89 869608 746453 1035350 1017717 574235 278665
814.78 502484 493136 577792 661074 975477 756958
817.68 645059 443060 602983 658094 876744 785409
820.57 739533 858207 1189369 851964 781197 496846
823.46 584482 441558 264983 258330 466578 402433
826.36 539095 547616 666871 398791 516594 640722
829.25 594407 364297 419434 303022 405425 624819
832.14 628128 418993 372632 124077 327795 524481
835.03 629554 460596 456529 384142 434989 389156
837.93 471856 394133 487668 427750 310004 374980
840.82 524923 396722 427687 427830 538851 494977
843.71 672834 786480 740435 562194 702237 737868
846.60 742412 758583 821823 957754 1182953 1098163
849.50 1132117 1364444 1657023 1637909 1773261 1719591
852.39 1658187 1740936 2106372 2454402 2769335 2951232
855.28 3419796 3794286 4238228 4493934 4893792 5313192
858.18 5761139 6008643 6589802 7059441 7592930 8071607
861.07 8608241 9147518 10057844 10698193 10974124 11215460
863.96 11599412 11882487 12273768 12490978 12814130 13124884
866.85 13594940 13867994 14132075 14261405 14613265 14971205
869.75 15369190 15935866 16736043 17568306 18722575 20165983
872.64 22746621 26224236 31142222 37879960 43914966 47993798
875.53 48700918 38639275 25848555 19176494 16438154 15086040
878.42 14557097 14561136 14611200 14449244 14395048 14235221
881.32 14050372 14089503 14227265 14149260 13929246 13693772
884.21 13818940 14008098 13774067 13146908 12851755 12603910
887.10 12222712 11816531 11556754 11218432 10874522 10406501
890.00 10144503 9949304 9925403 9882211 9940539 9977863
892.89 10452752 10981723 11468599 12024321 12749151 13353675
895.78 14041081 14757362 15498249 16077126 16860811 17470789
898.67 17848580 18117980 18358079 18218977 17935617 17451640
901.57 17004613 16685263 16689987 16726176 16950884 17468699
904.46 18424800 19463700 20290341 20409705 19804003 18147545
907.35 16299744 15063543 14711610 14959139 15608386 16153398
910.24 16520147 16559913 16251634 15693260 15087547 14180836
913.14 13019971 11775966 10651416 9342312 8070063 6757569
916.03 5697157 4824273 4154288 3479115 3013984 2601858
918.92 2294226 2011389 1753636 1512940 1530579 1477352
921.82 1315101 1239011 1349455 1452435 1446918 1396359
924.71 1409117 1249027 1232398 1195902 1224857 1320296
927.60 1497647 1486323 1370650 1355999 1512987 1466792
930.49 1587253 1563397 1572863 1636090 1656679 1761640
933.39 1815369 1755680 1876879 1823103 1917021 2135738
936.28 2243385 2249726 2236030 2166392 2226529 2311783
939.17 2437438 2333627 2213188 2261167 2398996 2400779
942.06 2406800 2452628 2596988 2641848 2857310 2854581
944.96 2698125 2754681 2753702 2684916 2704119 2767554
947.85 2883318 2851501 2883936 2820152 2850605 2981907
950.74 3153489 3103883 3148684 3164598 3182618 3240301
953.64 3297117 3234641 3190074 3251924 3379749 3406498
956.53 3437577 3459848 3546364 3424733 3421459 3510965
959.42 3584163 3521572 3632431 3722598 3733694 3685207
962.31 3866646 4033295 4119201 4075346 4201121 4292651
965.21 4401967 4471225 4516800 4448696 4542354 4750597
968.10 4973573 4932132 5021529 4981819 5003974 4973135
970.99 4982173 5078789 5131883 5217656 5452341 5518547
973.88 5462766 5426208 5401500 5242706 5168516 5134319
976.78 5010902 4895981 4933952 4951403 4945716 4939076
979.67 4988203 4955789 4904071 4774487 4801114 4746859
982.56 4724107 4795159 4932687 4911428 4870204 4855449
985.46 4897048 4858697 4945029 4986478 5073755 5043345
988.35 5141093 5217303 5260186 5365134 5632799 5794789
991.24 5859114 5830630 6032785 6257443 6426606 6613256
994.13 6913022 6984047 6919827 7196318 7511851 7673052
997.03 7970131 8174071 8413799 8616710 8876955 9135054
999.92 9263707 9334544 9487078 9575001 9753741 9946408
1002.81 10169211 10375649 10632886 10810849 10883132 10997888
1005.70 11215988 11339335 11418575 11313669 11224740 11147736
1008.60 11073607 10863425 10614634 10343507 10187293 10038384
1011.49 9992144 9898616 9757481 9618289 9645149 9567383
1014.38 9194648 8753703 8576484 8412198 8329982 8226117
1017.28 8098245 7880169 7658993 7466144 7394823 7103045
1020.17 6837142 6693236 6607636 6336424 6075148 6019470
1023.06 6177572 6251088 6227650 6238570 6393997 6630256
1025.95 6842151 6925215 7160237 7474450 7679252 7976838
1028.85 8374722 8642469 8981857 9376293 9811448 10082742
1031.74 10417910 10770735 11032664 11484006 12009784 12302610
1034.63 12653192 13150371 13452339 13699998 14159194 14628874
1037.52 15055920 15538470 16183768 16936418 17959386 19386782
1040.42 20955355 22285516 23645554 25711299 27616182 27850696
1043.31 26740072 26180674 25891185 24746807 23399065 22677302
1046.20 22696947 22921666 23185986 23071462 22684565 22311744
1049.10 21972065 21672229 21346762 21248995 21316059 21281353
1051.99 21247535 21109604 21030290 20991712 20887524 20463661
1054.88 20126986 19936183 19713222 19474287 19246237 18792158
1057.77 18331670 17945420 17508422 16824322 16346722 15894604
1060.67 15302503 14630351 14205958 13790149 13372658 13086875
1063.56 12838721 12477024 12038666 11659100 11390156 10973914
1066.45 10620444 10352225 10160448 9936555 9889508 9802960
1069.34 9663725 9466528 9189465 8922994 8844736 8788567
1072.24 8784432 8650259 8622386 8683011 8747471 8802593
1075.13 8991592 9026893 8991047 9230033 9543152 9747404
1078.02 9963877 10260825 10667513 11109821 11676069 12149021
1080.92 12607899 13177401 13793647 14463545 15196478 16029516
1083.81 16935509 17913978 18959750 19867718 20864280 21953335
1086.70 23052435 24015218 25011461 26067817 27049833 27867423
1089.59 28585418 29185573 29632131 30025401 30243198 29914048
1092.49 29090609 27750900 26025037 24122531 22554478 21525282
1095.38 21318503 21821014 22328428 22736463 23584347 24471439
1098.27 25287005 25967599 26619151 26900386 26733893 26392874
1101.16 25938517 25115945 24130585 22949516 21788354 20534927
1104.06 19394745 18249108 17026209 15801226 14770620 13806754
1106.95 12950436 12139594 11356318 10578231 9871266 9195322
1109.84 8646861 8148753 7723182 7356557 7099865 6885707
1112.74 6733274 6519627 6332092 6288652 6196759 6025985
1115.63 5975827 5918412 5830780 5787526 5840040 5875212
1118.52 5886965 5821795 5753260 5603970 5539425 5430057
1121.41 5190678 5073834 4978245 4874004 4742471 4591251
1124.31 4604000 4595604 4544772 4595009 4616473 4783356
1127.20 5044239 5092977 5030570 5035008 4947013 4888228
1130.09 4944296 4761705 4403608 4332502 4398580 4236868
1132.98 4133757 4082068 4038302 3865840 3744798 3572410
1135.88 3522273 3398609 3269431 3114015 3041087 3044657
1138.77 3128424 3089748 2931761 2897650 2968934 2875982
1141.66 2665894 2643976 2629315 2574823 2611150 2635588
1144.56 2703187 2778999 2737617 2715453 2766877 2788415
1147.45 2960072 3189401 3290722 3339044 3461936 3530664
1150.34 3501847 3541171 3727318 3960971 4264264 4479305
1153.23 4524461 4552482 4576837 4440376 4337452 4368477
1156.13 4451579 4538260 4890973 5272059 5666566 5971347
1159.02 6115531 6183686 6303016 6636378 7189731 7686947
1161.91 8231722 8826877 9395261 9760648 9997390 10176730
1164.80 10281187 10147272 9934107 9647387 9220476 8825824
1167.70 8424488 8101255 8058148 8371282 9208613 10281550
1170.59 11392597 11694026 9959482 8102638 7275756 6984782
1173.48 7051307 7329601 7849779 8398674 8760847 8865776
1176.38 8870691 8803046 8549696 8107349 7744417 7313522
1179.27 6809597 6140216 5494617 4994840 4599780 4194832
1182.16 3819218 3517238 3399969 3173442 2979098 2805873
1185.05 2715305 2679207 2651292 2506814 2535650 2612322
1187.95 2595578 2580993 2557115 2530631 2638329 2633259
1190.84 2631003 2475502 2328258 2267595 2164714 2121024
1193.73 2138836 2099037 2046057 2054979 2085064 1943451
1196.62 1883738 2037028 2198251 2226563 2228568 2216811
1199.52 2161857 2152381 2129759 2075942 1993929 1985094
1202.41 1996122 1946612 1899507 1743364 1734533 1734987
1205.30 1750953 1705187 1691873 1701548 1643103 1604742
1208.20 1565583 1428858 1397220 1424122 1459713 1551849
1211.09 1519555 1380375 1347235 1324043 1352404 1374118
1213.98 1354946 1360393 1302572 1336247 1385902 1307425
1216.87 1298598 1231800 1194111 1197977 1145253 1170495
1219.77 1217372 1232520 1341292 1287614 1164997 1091789
1222.66 1097099 1116522 1249347 1295828 1277338 1229767
1225.55 1231301 1229474 1251422 1253409 1244098 1266353
1228.44 1256629 1248505 1366858 1465769 1507099 1371939
1231.34 1365728 1486106 1616365 1673462 1611105 1626303
1234.23 1738463 1777379 1766447 1816865 1932316 2000957
1237.12 2132581 2260485 2241065 2254029 2421088 2521015
1240.02 2605557 2649716 2686431 2844577 3004074 3130116
1242.91 3332686 3386304 3429762 3518768 3609640 3658410
1245.80 3657879 3648687 3579479 3524672 3450260 3410353
1248.69 3361570 3233894 3202967 3106662 3199051 3324587
1251.59 3373357 3399633 3613918 3819002 3921790 4050834
1254.48 4189518 4317678 4442045 4494636 4547768 4467015
1257.37 4404775 4458219 4356954 4106904 3966688 4002749
1260.26 3946211 3774630 3680469 3525035 3467935 3394399
1263.16 3277225 3159826 3045831 2941681 2925315 2842937
1266.05 2769721 2809488 2807281 2825870 2941742 3113443
1268.94 3135331 3091473 3092332 3037058 3054964 2995065
1271.84 2846973 2740494 2644933 2525503 2525510 2494326
1274.73 2372309 2278954 2187081 2128807 2164888 2198317
1277.62 2169521 2085310 2123221 2170634 2196257 2145985
1280.51 2084823 2113216 2080722 2028041 1977616 1851413
1283.41 1895029 1978830 1895294 1853220 1834157 1689263
1286.30 1667400 1744261 1766256 1682554 1602399 1506551
1289.19 1593400 1833464 1853414 1772471 1779094 1757259
1292.08 1761228 1737622 1649033 1697911 1872949 2015361
1294.98 2079358 2056076 2059056 2093881 2176200 2266980
1297.87 2260156 2276621 2282477 2165660 2067472 2030400
1300.76 2064233 2128444 2127371 2010255 1992634 2096315
1303.66 2246558 2191601 2044180 2073165 2204467 2265102
1306.55 2322675 2306258 2377738 2403671 2435829 2428828
1309.44 2479766 2518418 2485175 2438955 2385546 2308699
1312.33 2364927 2413797 2400593 2424085 2341155 2272051
1315.23 2356734 2403930 2304538 2294292 2374565 2392530
1318.12 2448630 2452647 2406259 2319899 2263725 2342249
1321.01 2379218 2281500 2268341 2388924 2467904 2453556
1323.90 2423903 2401537 2394648 2377725 2453480 2501904
1326.80 2575881 2745922 2782617 2714414 2627702 2625371
1329.69 2655648 2576300 2628058 2711819 2735768 2719001
1332.58 2732481 2811207 2852367 2778333 2872173 2949731
1335.48 2955434 2969464 2996169 2934405 2886347 2937893
1338.37 2949082 2940820 3106692 3203335 3296681 3301095
1341.26 3361899 3520077 3637657 3717699 3660340 3657568
1344.15 3829472 4018352 3984906 3901407 4143772 4301758
1347.05 4277403 4359729 4461674 4634612 4819513 4757923
1349.94 5028147 5179366 5028128 4979221 5107542 5570031
1352.83 5825119 5978673 6165138 6099581 6407146 6771239
1355.72 6953159 6953791 6858945 7221855 7536736 7808531
1358.62 7913577 8041007 8259781 8311648 8627125 8793524
1361.51 9032492 9205139 9252052 9428426 9953074 10329559
1364.40 10437599 10668180 11002518 11304061 11780317 12256640
1367.29 12534880 12661329 12971352 13343054 13676308 14107225
1370.19 14685964 15402556 16178917 17053196 17916455 18751856
1373.08 19793947 20943250 22096691 23156369 24174267 25177376
1375.97 26209350 27130115 27729744 28079522 28278147 28449030
1378.87 29117185 30251674 32043485 34753552 36195226 34705373
1381.76 32667544 31440179 30761850 30790378 31421855 32465193
1384.65 33802301 35182855 36389356 37353418 37728200 37398816
1387.54 36915644 36234995 35382744 34342131 33346024 32399387
1390.44 31436767 30686262 29958996 29030750 27823354 26465073
1393.33 25224528 24196348 23485607 22848158 22245517 21805837
1396.22 21702892 21539474 21284775 21071941 20963581 20855070
1399.11 20840429 20850693 20655649 20470101 20356033 20091262
1402.01 19704286 19220415 18846133 18508414 18158741 17840816
1404.90 17706721 17575777 17447310 17391448 17334442 17352537
1407.79 17483645 17610140 17676546 17807212 18139020 18395032
1410.69 18476551 18562269 18683011 18752098 18808048 18731487
1413.58 18691124 18714882 18817172 18799400 18810246 18916039
1416.47 19008088 19167875 19324736 19336165 19156536 18922152
1419.36 19304617 19660839 19798197 20013994 20195170 20412486
1422.26 20536691 20467011 20450309 20593159 20677778 20607527
1425.15 20634461 20750983 20849320 20949389 21235111 21540283
1428.04 21737201 22012821 22367822 22719829 23255684 23858204
1430.93 24450491 25213327 26054959 26858577 27735032 28623491
1433.83 29659796 30786896 31799207 32612323 33393720 34178781
1436.72 35346008 36555757 37414536 38265559 39032594 39558392
1439.61 40101563 40685724 41240536 41623708 42061765 42662217
1442.51 43278990 43972189 44520913 44848718 45274445 45945065
1445.40 46572638 47133632 47855829 48589782 49347041 50183611
1448.29 50936439 51268162 51315435 51335688 51354096 51362464
1451.18 51471966 51363846 51097351 50723182 50119648 49603505
1454.08 49305504 49034002 48818429 48533641 47833997 47397961
1456.97 47677565 47554946 47161493 46851805 46517819 46199927
1459.86 45924756 45889831 46152476 46388384 46593487 46952206
1462.75 47228353 47509780 47751034 47802667 48145918 48713312
1465.65 49163555 49542474 50108923 50782531 51686029 52730371
1468.54 53648730 54562781 55316695 55864277 56360912 56685801
1471.43 56840190 57140790 57488326 57647247 58134098 58715973
1474.33 59157625 59764797 60390064 61116584 62165961 63339929
1477.22 64663260 66224322 67750832 68990272 69891082 70323600
1480.11 70559875 71226372 72480427 74334561 76743942 79062269
1483.00 81057454 82970327 84870532 86778119 88785899 90893801
1485.90 93029668 95028139 96864519 98668518 100351969 101539441
1488.79 102157504 102633689 103316610 104156981 105536639 107221706
1491.68 109021895 110982154 112860187 114474296 115797790 117008620
1494.57 117880990 118129998 117938980 117772897 117612482 117226860
1497.47 117121335 117201088 117677713 118748369 120278511 121662343
1500.36 122239823 122152794 121763094 120830259 118768131 116229476
1503.25 113916594 111845026 110065158 108304277 106833668 105882116
1506.15 104255110 102335450 100868409 99033064 96691945 94241081
1509.04 91593469 88845965 86166191 83388180 80664324 77846290
1511.93 75166144 72751200 70479211 68617552 67238695 66112522
1514.82 65288019 64690606 64075806 63221139 61931431 60579665
1517.72 59401614 58210406 57318660 56582025 55923281 55372306
1520.61 54699534 54361665 54243429 53740571 53333239 53007470
1523.50 52747444 52554254 52300816 52124367 52377824 52724671
1526.39 52992503 53243980 53416155 53178962 52828713 52453806
1529.29 51968444 51674396 51413999 51093857 50813946 50464495
1532.18 50007076 49322790 48639179 47870804 47253695 46623044
1535.07 46084138 45537307 45201855 45017348 44862734 44670557
1537.97 44341431 43788337 43872733 43746650 43199975 42869448
1540.86 42141494 40830808 39682954 38763272 37518705 36229719
1543.75 34888800 33358541 32004162 30954982 29921328 28954201
1546.64 28002655 27053041 26224273 25478686 24704570 24050186
1549.54 23439236 22916944 22557478 22114559 21726314 21346779
1552.43 21040847 20686534 20195719 19766132 19797130 19685935
1555.32 19404957 19196446 19005739 18575827 18289426 17912927
1558.21 17775388 18024653 17731730 17371696 17603496 17876840
1561.11 17738124 17594380 17508583 17535126 17591500 17631768
1564.00 17571335 17541685 17656275 17694894 17771410 18015767
1566.89 18227695 18388388 18596483 18772296 18858679 18937344
1569.79 19201575 19371052 19408318 19432219 19421847 19414176
1572.68 19396044 19382432 19360357 19340620 19234335 18911671
1575.57 18431203 18682266 19271645 19605277 19848759 20051645
1578.46 20209914 20264917 20339715 20542135 20772901 20914166
1581.36 21182095 21642758 22144738 22658932 23185076 23826989
1584.25 24495380 25115923 25728375 26259728 26826504 27664161
1587.14 28634164 29510296 30528299 31755099 32940901 34156976
1590.03 35461555 36892228 38365347 39661016 40692278 41618579
1592.93 42446581 42974937 43189049 43186476 43101821 42966613
1595.82 42939783 43198918 43912701 45299028 47463934 50242791
1598.71 53481124 57209767 61032238 64673585 68211287 71559531
1601.61 74651330 77461987 79851055 81982979 83958250 86050630
1604.50 88322409 90757099 93607318 97031255 101240805 106472635
1607.39 112794435 120094215 127883376 135278310 142116429 148359785
1610.28 153881952 158885047 163180994 166323418 167665244 166704252
1613.18 163841276 159533530 154411250 149806173 146771809 145905934
1616.07 147598064 152682563 161040622 172516717 182598654 177048709
1618.96 153106750 133047816 123832412 120225358 120963246 123955091
1621.85 127507773 130291833 131653003 131271083 129107415 124673257
1624.75 118447273 110805784 102273371 93043673 83518970 73899614
1627.64 64789552 56400309 48750496 41857373 35908565 30685988
1630.53 26223641 22434478 19375700 16876410 14767453 12978731
1633.43 11558256 10382736 9394236 8523815 8148619 8126943
1636.32 7955655 7668647 7481329 7300255 6940320 6596443
1639.21 6340115 6058909 5882208 5755074 5667414 5554553
1642.10 5507927 5439628 5380119 5463632 5565387 5694727
1645.00 5662448 5578767 6004884 6338596 6386240 6542673
1647.89 6718268 6875750 7017259 7119734 7142248 7170999
1650.78 7180981 7047563 6408382 6086905 5884735 6090586
1653.67 6355052 6330197 6697521 6950971 7036470 6956624
1656.57 6806088 6412065 5860007 5496249 5493410 5549218
1659.46 5579516 5650259 5744842 5761105 5703588 5465664
1662.35 5186761 5010968 4797726 4556152 4309249 4027599
1665.25 3658085 3348099 3108991 2772302 2480510 2242601
1668.14 1996287 1624399 1526866 1610486 1550903 1401322
1671.03 1223918 1197631 1196287 1127303 1070530 984648
1673.92 920502 746669 594604 760643 952458 939322
1676.82 852726 843320 782364 672058 687102 622202
1679.71 573439 625051 656388 626449 630679 516709
1682.60 359497 392504 338819-181207-265587 389575
1685.49 617265 664852 606484 574729 550994 542796
1688.39 562052 608527 582946 605996 690005 793228
1691.28 863249 807004 726403 886166 992228 1021258
1694.17 1004115 757003 183855 261546 969055 1223161
1697.07 1300185 1349337 1408438 1479633 1247584 864565
1699.96 911032 1194819 1512972 1590934 1545755 1421705
1702.85 1370064 1289251 1185927 1236596 1483335 1587474
1705.74 1599780 1641293 1645375 1528676 1439747 1315786
1708.64 1266397 1260654 1299168 1413418 1475079 1504488
1711.53 1541649 1495301 1521246 1523983 1452869 1362348
1714.42 1168505 1117257 1265510 1305050 1097471 618021
1717.31 835371 1116692 1095622 1168400 1247011 1250745
1720.21 1324753 1309267 1323707 1473487 1563469 1617278
1723.10 1679932 1756791 1848362 2030323 2218857 2397979
1725.99 2540591 2659753 2796417 2959885 3086090 3161707
1728.89 3263898 3313323 3421707 3598567 3663565 3665709
1731.78 3798488 3987411 3971935 4220447 4492934 4715830
1734.67 5387389 6000488 6491520 6905403 7348290 7671151
1737.56 7946957 8238766 8451826 8501122 8654657 9035265
1740.46 9243218 9285055 9313460 9319634 9239281 9054868
1743.35 8852771 8581860 8306782 7939594 7589066 7328131
1746.24 7167496 7171510 7370184 7498549 7709553 8125340
1749.13 8582445 8960470 9119639 9001943 9114015 9424486
1752.03 9440966 9215884 8994383 8774753 8538420 8317438
1754.92 8041217 7818720 7566643 7319788 7274602 7170042
1757.81 7053798 6862648 6665194 6530066 6509652 6410705
1760.71 6276722 6155911 6250497 6428394 6580553 6751023
1763.60 6912190 7101954 7357469 7664694 7732877 7670410
1766.49 7774719 8053073 8296498 8630931 8971382 9203092
1769.38 9460318 9530602 9453940 9285184 9150184 8697393
1772.28 8150385 8038944 7827070 7311253 6873156 6486924
1775.17 6176534 6086265 6179983 6291725 6439719 6760113
1778.06 7329398 7815905 8085200 8172169 8050356 7805233
1780.95 7470514 7052426 6680721 6337534 6012260 5717166
1783.85 5348736 4923527 4660766 4433834 4046607 3617129
1786.74 3309079 3063128 2835068 2615067 2406020 2229834
1789.63 2075229 1808988 1627533 1560389 1366030 1132586
1792.53 1127004 1226808 1186366 1158665 1175773 1116685
1795.42 1044936 1064518 1024573 949886 1020566 1058596
1798.31 1051473 973343 956090 1126220 1200805 1194451
1801.20 1289708 1342000 1438016 1522928 1540916 1546846
1804.10 1584306 1619229 1684408 1744304 1792077 1851488
1806.99 1891803 1955614 2041185 2078302 2063248 2078331
1809.88 2139470 2276609 2422559 2459858 2421124 2375345
1812.77 2333279 2307045 2262673 2268592 2292568 2334181
1815.67 2314317 2343797 2457237 2503750 2500235 2502070
1818.56 2427857 2350467 2312919 2305941 2326644 2212135
1821.45 2143684 2159988 2166972 2138651 2086061 2060439
1824.35 1989546 1953616 2071162 2115375 2109086 2123894
1827.24 2196960 2284957 2317584 2336741 2415183 2485370
1830.13 2670539 2791371 2927445 3143583 3347903 3483677
1833.02 3619981 3822042 4044899 4245885 4466364 4651392
1835.92 4809880 4950973 5069312 5240279 5412696 5515541
1838.81 5662097 5788893 5855399 5939665 6062961 6169883
1841.70 6459010 6954145 7425162 7847982 8353252 9183897
1844.59 10027907 10798359 11667478 12485775 13167166 13766666
1847.49 14244553 14540892 14685964 14752093 14659072 14332964
1850.38 13825776 13238637 12748365 12563642 12625541 12942410
1853.27 13679117 14688582 15509500 15314357 13553590 11014477
1856.17 9408148 9081893 9358543 9890554 10519678 11121906
1859.06 11529234 11719980 11700590 11464824 11016648 10405581
1861.95 9689175 8935753 8150521 7380613 6565949 5704888
1864.84 4953123 4257306 3566632 3020473 2636126 2266399
1867.74 2012986 1811557 1550480 1519687 1585995 1529224
1870.63 1484684 1435973 1380083 1335694 1382727 1389844
1873.52 1355300 1332742 1361262 1395727 1325848 1288390
1876.41 1279111 1233679 1230788 1169243 1093273 1071431
1879.31 1071368 1108825 1093045 1040138 1032727 1066554
1882.20 1097265 1159335 1271821 1237905 1125490 1060177
1885.09 1093921 1072373 1101330 1222122 1236312 1259970
1887.99 1352217 1366600 1359514 1399352 1435099 1445141
1890.88 1445469 1378252 1314534 1278488 1240818 1184147
1893.77 1204768 1287443 1395752 1480613 1534001 1529971
1896.66 1492163 1469668 1475004 1472143 1522522 1528046
1899.56 1545245 1572845 1626072 1655121 1767381 1850357
1902.45 1894064 1883835 1936410 2054206 2108124 2104388
1905.34 2197320 2319208 2417311 2588351 2693339 2669185
1908.23 2728914 2843437 2916713 3013891 3199000 3359976
1911.13 3413270 3488176 3675329 3892699 4007317 4058747
1914.02 4232604 4493188 4728002 4876806 4996602 5032335
1916.91 5091613 5143117 5395120 5744510 6032015 6332066
1919.81 6643164 6999074 7333707 7689710 8123325 8504927
1922.70 8863038 9295214 9769376 10198046 10614862 11094451
1925.59 11579088 11960870 12286442 12593629 12892632 13101821
1928.48 13247710 13283821 13167013 12999693 12759759 12242695
1931.38 11462659 10668028 9962277 9447764 9236115 9322344
1934.27 9319466 9184994 9439696 10177272 11154725 11959420
1937.16 12565670 12803066 12714418 12426452 11987581 11424788
1940.05 10772131 10167251 9611602 8933171 8287499 7690145
1942.95 7092681 6454068 5848679 5305160 4791804 4338674
1945.84 3970779 3583351 3239353 2931001 2621958 2369597
1948.73 2159783 1963173 1799350 1579755 1366474 1166077
1951.63 1047792 909344 734022 619641 590495 536517
1954.52 404501 373083 439576 353061 272894 256930
1957.41 197279 177826 145200 101469 71218 76326
1960.30 83114 32066-46009-90999-23756 59671
1963.20 120295 143912 150453 136503 105828 98678
1966.09 128310 125074 171063 226096 219922 260788
1968.98 264364 210583 157337 161699 143780 135362
1971.87 202908 149192 63480 86936 178773 150651
1974.77 65748 53534 124158 109176 39888 16747
1977.66 92694 79335 32970 20159 4577 46480
1980.55 68098 32201-29167 1795 69870 46847
1983.45 12718 28302-5786-26046-26028-46192
1986.34-34245-73556-89715-43252-84746-115336
1989.23 9329 53810-30275-83622-83400-81277
1992.12-43313-8920-28726-82893-72847-52190
1995.02-42612-12097 34503 65523 35224-9632
1997.91 759 32204 50457-7354-75287-7327
2000.80 25318 3212 2076 18645 32970-39945
2003.69-64275 1330 67176 106601 69081 3073
2006.59-66307-194749-208420-48790 13353-16899
2009.48-87149-93302-112417-146371-124419-75304
2012.37-96925-123831-85491-63815-94402-95089
2015.27-84822-74945-35939-100602-131007-43783
2018.16 22697 8249-5135 22845-21883-98438
2021.05-67549-37659-22781-18426-2823 26099
2023.94 31666-48605-83684-89633-92645-52140
2026.84-64493-99948-126159-183139-195953-213803
2029.73-233408-202962-246221-246407-193830-209454
2032.62-230008-189135-155192-103917-138326-229818
2035.51-286888-330228-331240-339194-307443-292373
2038.41-341139-345245-291171-340223-351334-313999
2041.30-364167-446330-427227-394117-467857-572323
2044.19-516624-477532-486823-460081-451918-459986
2047.09-469201-426443-371408-446817-513235-545933
2049.98-507623-503676-522799-488407-456889-473745
2052.87-459854-496579-557240-565661-543191-527170
2055.76-532540-532968-482524-461855-436291-421994
2058.66-445302-495812-428511-332722-343790-394646
2061.55-434231-445530-380837-375141-372064-377530
2064.44-399287-315178-212122-224765-219359-193527
2067.33-203478-176104-84510-59808-97499-115066
2070.23-87226-38226-37497-35100 27618 87914
2073.12 76180 20156 16731 13880 19430-42782
2076.01-172032-140655 16632-15796-104752-153906
2078.91-103142-20387-6455 32476 120536 199495
2081.80 151494 65886 126525 118268 3821-48578
2084.69-72957-11341 167716 33013-180926-171714
2087.58-208728-228895-242268-267583-200784-39639
2090.48-109393-273461-266518-179629-127174-173371
2093.37-207244-48691 107770-3367-102615-147644
2096.26-102677-22723 88300 159116 332645 488920
2099.15 302924 199380 281643 325959 268836 254613
2102.05 294455 509004 577786 361958 374220 514243
2104.94 637814 685831 619219 632345 800931 626474
2107.83 405275 353865 397985 407376 433133 517234
2110.73 826453 901572 648771 556121 541731 494671
2113.62 421466 324590 433228 722210 533778 179829
2116.51 18029-13862-25380-81689-55118 112339
2119.40 23778-301091-391303-371297-384495-431478
2122.30-362546-139179-13098-222909-307727-368765
2125.19-382007-371555-369082-230113-38217-171885
2128.08-341779-390078-434050-435713-434420-430874
2130.97-196883-228925-423772-418643-378996-381013
2133.87-323901-294119-185115-237899-389165-305549
2136.76-179658-231070-281145-271707-194360-74873
2139.65-63543-95839-109654-92397-85753-141585
2142.55-110037-62673-35635 19578 76117 113374
2145.44 77378 30218 82588 105671 20378 44229
2148.33 55336-523 16363 101885 304038 309528
2151.22 181249 131364 84191 37804 24610 155434
2154.12 289953 129012-10537-12335-4768 62553
2157.01 121260 278469 284321 97295-26122-32330
2159.90 30392-41389 22143 345268 198285-138778
2162.79-210170-227300-172281-94913 110095 241579
2165.69 20899-149279-198920-220963-226901-161058
2168.58 164095 107277-214022-340861-258836-170205
2171.47-158926 82428 138407-179995-291943-264621
2174.37-208693-196093 10199 235124-59324-282633
2177.26-307731-292080-285363-167100 103197-74789
2180.15-265070-253846-294059-376356-295907 20789
2183.04-40189-251966-281752-309662-357524-294015
2185.94-92013-185747-376868-325401-278026-316558
2188.83-282465-26986-39617-249942-277067-384539
2191.72-384155-265259-82482-124532-340774-390607
2194.61-377749-302753-194092-138883-198345-273630
2197.51-295638-292890-273021-232611-126421-184962
2200.40-282264-247060-254120-231088-88807-72708
2203.29-221147-215330-176369-145135-52335 11523
2206.19-40807-98101-139448-139616-87908-33538
2209.08 19671-10059-327-45320-90626 13682
2211.97 135139 106868 47239 65654 69549 25452
2214.86 45983 112873 85644 62732 62069 44734
2217.76 60945 50003 19200 6830 11256 41303
2220.65 92483 90341 6484-17517 24499-23179
2223.54-41420-27960-8161-32975-55744-15539
2226.43-49429-106547-126968-114817-95805-190110
2229.33-218857-204923-202181-153822-179071-254242
2232.22-312301-214889-138303-179739-168699-159659
2235.11-124057-116365-122158-125992-179433-252057
2238.01-285079-283824-238004-144575-93001-55737
2240.90-128975-190051-194722-210083-218102-138079
2243.79-106785-156863-133870-93254-55913-104665
2246.68-147544-92684-49548-105505-80503-24889
2249.58-62543-91506-50471-69709-70430-10016
2252.47-3742 27753 108521 142487 109448 139035
2255.36 239740 296291 308748 307982 264156 264858
2258.25 424744 507419 485345 545076 530771 431037
2261.15 446697 518349 555762 568691 507697 477206
2264.04 526769 541375 545620 535320 544573 637886
2266.93 741444 730552 712286 699521 639800 688997
2269.83 736054 730005 792592 829641 816744 775676
2272.72 814627 821971 789258 787898 834393 885032
2275.61 995646 1064053 1070772 1084368 1056776 1145088
2278.50 1227010 1201420 1146004 1291032 1406849 1409399
2281.40 1421311 1441702 1417256 1416382 1457608 1442043
2284.29 1503644 1585501 1546453 1571087 1632067 1708059
2287.18 1782186 1829630 1783987 1773835 1761536 1844898
2290.07 1865757 1856497 1931569 1923986 1854933 1874441
2292.97 1910272 1941644 1918723 1745804 1645414 1572192
2295.86 1381978 1282840 1290351 1228304 1126884 1044089
2298.75 982473 961322 934759 839088 765131 727952
2301.65 712698 648696 589772 566722 584028 606942
2304.54 599231 526418 469620 432480 434835 442846
2307.43 408912 375388 481002 504050 499319 468642
2310.32 551859 618536 527045 500206 501615 570246
2313.22 504710 441289 520421 625790 579342 541352
2316.11 641923 828783 849099 781854 818892 1027454
2319.00 994931 920624 1049925 1277504 1291394 1147941
2321.89 1170441 1418764 1421047 1255007 1297124 1523461
2324.79 1460910 1268313 1370310 1637059 1503505 1153706
2327.68 1329492 1658837 1496850 1186131 1388568 1712513
2330.57 1575924 1494118 1883814 2070882 1822402 1856045
2333.47 2275999 2324656 2018099 2130335 2499281 2235449
2336.36 1884968 2254040 2423706 1996898 1991288 2263845
2339.25 2045527 1840428 2092971 2192739 1860314 1789212
2342.14 2023084 1830773 1685455 1875234 1927271 1743892
2345.04 1727954 1873428 1854826 1826042 1898780 1892911
2347.93 1784310 1665416 1644392 1697180 1731946 1724176
2350.82 1768717 1721747 1678625 1754781 1694356 1580712
2353.71 1701025 1599357 1412844 1664629 1738904 1529746
2356.61 1755995 1681681 1415556 1771834 1678252 1413675
2359.50 1714060 1523735 1391405 1688231 1380081 1384522
2362.39 1526813 1188777 1437111 1511413 1265764 1432324
2365.29 1269548 1191470 1304201 1103195 1219725 1134490
2368.18 1067534 1137425 989417 1004813 900067 903752
2371.07 976277 880569 891535 737977 765964 745105
2373.96 660932 625838 665835 696673 677001 662695
2376.86 649763 705568 677763 683102 668139 668091
2379.75 769140 784161 737212 776627 874723 920374
2382.64 863846 907985 976520 983421 987363 958201
2385.53 1018268 1028030 1024009 1104504 1228485 1304557
2388.43 1345929 1375486 1393086 1353745 1310025 1322913
2391.32 1373452 1379922 1359416 1350068 1373009 1411313
2394.21 1370150 1355046 1449870 1539439 1490499 1398891
2397.11 1373710 1412413 1454477 1528622 1577385 1527693
2400.00 1466658 1457612 1478684 1467225 1521535 1550093
2402.89 1509297 1407087 1426125 1439262 1503089 1536558
2405.78 1458484 1491457 1585608 1582740 1566408 1605077
2408.68 1604583 1596245 1689106 1702134 1707813 1723538
2411.57 1739888 1725619 1779992 1832588 1893394 1957397
2414.46 1980014 2007467 2061306 2105181 2151728 2148038
2417.35 2193674 2249937 2288216 2276641 2230485 2113113
2420.25 2100083 2155860 2248162 2252487 2196046 2110856
2423.14 2128746 2082584 2047771 2141872 2224738 2167403
2426.03 2144971 2154970 2110592 2126983 2059732 2006948
2428.93 1963591 1921858 1868332 1780482 1777396 1870429
2431.82 1833103 1694241 1673471 1729771 1728420 1630324
2434.71 1607472 1628895 1648695 1672959 1616453 1580816
2437.60 1587405 1596564 1577375 1537888 1602002 1554034
2440.50 1478540 1546502 1577109 1563021 1553913 1514193
2443.39 1528402 1592566 1641035 1554732 1438246 1509720
2446.28 1570737 1566423 1541053 1477941 1458761 1487602
2449.17 1498876 1489970 1541116 1509915 1446392 1468660
2452.07 1507985 1545771 1548777 1491585 1460991 1501287
2454.96 1552405 1495873 1466418 1491975 1501689 1446369
2457.85 1462251 1467881 1434375 1457302 1419856 1399677
2460.75 1411369 1427456 1443299 1402970 1396682 1399981
2463.64 1404384 1408986 1437776 1515869 1476519 1482736
2466.53 1578657 1587856 1512828 1493010 1570566 1624950
2469.42 1651838 1612593 1566127 1536533 1473356 1459781
2472.32 1453967 1430038 1382826 1404029 1416073 1386710
2475.21 1366705 1365965 1447658 1473558 1408035 1314930
2478.10 1337452 1432402 1565753 1535815 1451580 1392051
2480.99 1400107 1417276 1431933 1470096 1429964 1430788
2483.89 1493426 1472714 1396542 1337989 1264980 1254404
2486.78 1242663 1247126 1299297 1344798 1356489 1337757
2489.67 1343421 1396604 1358625 1260884 1305916 1400690
2492.57 1396614 1292365 1242562 1262751 1314090 1354599
2495.46 1344807 1294280 1205263 1213354 1237695 1260164
2498.35 1359968 1357889 1226428 1218687 1262726 1269351
2501.24 1245292 1217204 1115649 1115994 1171517 1267394
2504.14 1254548 1205661 1249668 1237003 1132628 1036170
2507.03 1000327 1024072 948799 850774 821066 784242
2509.92 779176 776904 775576 756443 771585 786728
2512.81 718311 583842 580471 641393 614799 593136
2515.71 611593 540293 527300 482905 445790 433555
2518.60 483147 478287 382875 367069 387959 432117
2521.49 431369 378916 396588 426081 378248 301120
2524.39 352794 409323 429744 429165 372315 362538
2527.28 394564 369621 464971 594058 682119 765284
2530.17 784618 830045 824781 823575 893320 941750
2533.06 1044179 1050819 1084855 1244575 1297787 1221188
2535.96 1183057 1228722 1258544 1303941 1232206 1173530
2538.85 1291191 1418326 1524695 1547053 1523723 1574306
2541.74 1614214 1546653 1416590 1398272 1363104 1352549
2544.63 1434941 1427264 1373447 1419637 1379670 1333903
2547.53 1319650 1287534 1254297 1249248 1190587 1075906
2550.42 1120888 1092230 903498 794493 679704 567124
2553.31 565485 576174 476222 438196 457872 517303
2556.21 516043 478806 481352 443538 341867 356356
2559.10 447369 383533 370056 395125 382459 407732
2561.99 472894 479341 420795 382430 295427 252238
2564.88 347320 360001 253789 273488 312239 281821
2567.78 310829 311441 326356 278833 255819 365671
2570.67 391938 305790 291345 306729 284100 235630
2573.56 253885 332501 286709 285496 306859 307420
2576.45 329976 274249 250688 293813 210094 121814
2579.35 188184 147544 116985 182739 225404 206913
2582.24 177039 218801 267211 278021 253234 298290
2585.13 370728 381339 324142 324641 397412 429145
2588.03 444704 440102 454687 511264 533870 520598
2590.92 500868 515484 524112 510048 546084 648484
2593.81 545631 371798 415761 488652 557770 599651
2596.70 590389 614527 674108 763009 759248 765432
2599.60 778523 771049 767896 791183 770714 730859
2602.49 694433 713143 709501 645499 593499 583561
2605.38 627009 638455 580973 569742 580980 593956
2608.27 686296 681340 650070 652827 691508 722586
2611.17 750149 735592 697412 648083 626221 628916
2614.06 689808 785081 786383 762084 700612 696380
2616.95 758535 709213 624047 668526 713089 723167
2619.85 699370 781913 873602 868513 888202 902725
2622.74 886389 954886 1070620 1096770 1010147 893512
2625.63 886624 896175 929569 911736 912127 893950
2628.52 886270 837001 804009 934841 978559 954961
2631.42 909142 940884 921094 890716 968988 1034870
2634.31 1009511 1025398 1070391 1073722 1143323 1183843
2637.20 1143868 1098003 1113219 1074998 1010563 977222
2640.09 936116 906113 900665 845572 764386 790099
2642.99 884151 941560 742319 702106 863857 814977
2645.88 735467 698894 603655 579783 638768 672203
2648.77 683230 673203 724975 767464 758296 748629
2651.67 796679 773358 674245 566793 585520 628517
2654.56 592401 473095 439264 414722 328389 267939
2657.45 350371 457471 417774 353714 352755 233419
2660.34 234448 343818 401013 358752 283839 258867
2663.24 262410 271651 131579 64291 43077 79818
2666.13 190017 221717 202902 218697 137152 40885
2669.02 15778 30662 59168 131445 112386-11240
2671.91 32489 34900-42580-12195 33578 121535
2674.81 181624 111478 74862 44255 60569 97754
2677.70 69717-16675-74893-21517 53197 97821
2680.59 143204 195930 138616 66449 64654-28969
2683.49-9656 65865 22185-66310-37605 72
2686.38 39622 58285 118238 173081 159039 81272
2689.27-5456 16704 102328 121999 244454 359706
2692.16 306118 210048 166292 132476 93368 68607
2695.06 62985 15526 108459 73521 993 168351
2697.95 255675 191816 196003 268669 256145 307578
2700.84 423311 458607 426876 432857 436019 450194
2703.73 522896 620226 631429 536075 577757 678940
2706.63 638806 652824 770172 833301 841433 805884
2709.52 826434 939700 1022060 1044928 990233 1016669
2712.41 1078370 1081334 1072243 1142722 1258070 1320080
2715.31 1242490 1232040 1338975 1405781 1453084 1556234
2718.20 1622300 1640171 1645389 1799721 1842072 1701464
2721.09 1799474 1946653 1930236 2032570 2253696 2330837
2723.98 2417158 2559520 2687599 2794979 2939824 3179412
2726.88 3374645 3555009 3845520 4126596 4448262 4842836
2729.77 5222695 5644648 6070105 6698446 7325227 7847105
2732.66 8532064 9173642 9747944 10509807 11183590 11738187
2735.55 12229539 12658416 12977880 13251107 13258979 13096390
2738.45 12869814 12734124 12678658 12774157 13048573 13766360
2741.34 15409664 17431106 17909254 15822956 13479821 12731394
2744.23 13113041 13866468 14795815 15667906 16264355 16624254
2747.13 16783381 16793726 16611310 16141903 15509445 14647864
2750.02 13666667 12639900 11545949 10509980 9586665 8703978
2752.91 7930599 7257474 6589455 5978349 5649829 5461860
2755.80 5170033 4779387 4430698 4143634 3964052 3718737
2758.70 3504197 3368159 3205965 3157125 3052206 2934366
2761.59 2826189 2697252 2623656 2533089 2396158 2340914
2764.48 2317054 2312068 2304438 2291911 2197830 2079144
2767.37 2063634 2010182 1860841 1922661 2007691 1979306
2770.27 2035596 2054247 2001439 1967472 1938928 1903780
2773.16 1855479 1809133 1807245 1840645 1893701 1853445
2776.05 1918579 1986780 1943516 1951702 1945465 1926003
2778.95 2032333 1964272 1954895 1965523 1892868 1947226
2781.84 2051150 2083946 2027579 2009242 2080051 2084090
2784.73 2095195 2198460 2181975 2192276 2155061 2149833
2787.62 2317220 2356776 2368811 2388503 2463169 2591109
2790.52 2595084 2602976 2705465 2715520 2697767 2669084
2793.41 2691623 2797811 2921664 2946482 2910762 2993472
2796.30 3135686 3157959 3075707 3151439 3237292 3357408
2799.19 3431408 3372998 3424060 3543359 3538173 3522966
2802.09 3541019 3648477 3747449 3774977 3815579 3915851
2804.98 4037921 4118061 4132195 4211225 4194307 4200657
2807.87 4389437 4592764 4642074 4612693 4721989 4881691
2810.77 4822546 4895249 5152087 5274897 5409048 5473305
2813.66 5508097 5582181 5705543 5854415 5899034 5988374
2816.55 6226883 6382485 6346790 6412106 6635723 6850740
2819.44 6988833 7119677 7267927 7407553 7457263 7717078
2822.34 8008991 8014235 8114751 8254421 8437805 8627606
2825.23 8686909 8868972 9196266 9362219 9402780 9551780
2828.12 9814124 10015713 10182443 10398992 10581605 10612254
2831.01 10635869 10786439 10967914 11119595 11281320 11472098
2833.91 11727342 11938330 12117997 12330280 12493177 12723941
2836.80 12985712 13249513 13538586 13800890 14080343 14336796
2839.69 14630798 15022700 15303976 15568881 15961182 16339356
2842.59 16787785 17322809 17710878 18138265 18688071 19220545
2845.48 19857666 20374145 20858393 21538381 22235826 23064450
2848.37 23863114 24454411 25109572 26012910 26951283 27859580
2851.26 28932462 30033117 31156168 32332156 33555847 34875485
2854.16 36261056 37617947 39008286 40413101 42045711 43815593
2857.05 45665270 47561743 49273248 51062987 53169356 55453332
2859.94 57704841 60028408 62425934 64755222 67261911 69916216
2862.83 72530127 75222784 78086580 80975068 83884996 86967404
2865.73 90091012 93132967 96031119 98963934 101872951 104739580
2868.62 107513540 110185208 112740030 115218678 117566405 119681813
2871.51 121508943 123330885 125085115 126667337 128025059 129177528
2874.41 130215802 131068893 131747909 132367824 132943434 133487940
2877.30 133635428 133704117 133813595 133887141 133934474 133801614
2880.19 133562472 133207163 132693055 132144642 131416158 130560214
2883.08 129698897 128738662 127449513 125896301 124421938 122947003
2885.98 121359828 119644358 117934102 116199542 114505730 112810336
2888.87 111143802 109657893 108394253 107121361 105914843 104781056
2891.76 103727721 102968705 102461658 101862732 101410883 101164637
2894.65 100896722 100713147 100615791 100641963 100707655 100826149
2897.55 101109041 101498297 101970261 102238206 102555806 103035403
2900.44 103521181 104387537 105346849 106378912 107411900 108278472
2903.33 109273082 110336014 111400640 112477703 113507687 114519374
2906.23 115591144 116756071 117910921 119108703 120221307 121203068
2909.12 122370951 123618673 124744508 125966329 127408600 128922792
2912.01 130538142 132357043 134355553 136610016 138848956 141123074
2914.90 143450329 146008328 148923808 151967500 154949095 158134875
2917.80 161668591 165362653 169223750 173227243 177450431 181943150
2920.69 186306882 190619666 195073013 199579912 204060956 208584331
2923.58 213242924 217926012 222365825 226825529 231142983 235286519
2926.47 239316627 242970602 246357293 249701112 252925615 255993033
2929.37 259069558 262053308 265107649 267905047 270572392 273254347
2932.26 275373566 277035070 278716627 280238511 281440393 282558755
2935.15 283390576 283990503 283973537 283170185 281600297 279437947
2938.05 277212926 275174460 273283652 271469407 269504646 267503599
2940.94 265572770 263530984 261440556 259345133 257374865 255450520
2943.83 253387385 250752483 246508865 239683133 230769367 221163431
2946.72 212002408 203540604 195653029 188352330 181699101 176003196
2949.62 171174812 166710116 162686689 159355569 156670833 154763321
2952.51 153414266 151882327 148795450 143645601 137669498 132176826
2955.40 127691154 124121745 121290717 119002121 117038524 115471606
2958.29 114160278 113173209 112285041 111387179 110508343 109264153
2961.19 107546606 105933157 104400961 102626751 100681570 98677137
2964.08 96884767 95121946 93318856 91447748 89538400 87668266
2966.97 85791073 84103470 82505920 80848181 79349173 78135666
2969.87 76947417 75967408 75317714 74747881 74237216 74014752
2972.76 73981981 74099323 74505672 75025150 75442720 75970074
2975.65 76562937 77126876 77721807 78346059 78896370 79465391
2978.54 80365964 81604961 82970995 84417698 86117691 87921354
2981.44 89729128 91558740 93329121 94832807 95964038 96805515
2984.33 97168435 97070492 96732678 96228376 96016852 96157292
2987.22 96651529 97721218 99187051 100942440 102920555 104592270
2990.11 105797873 106531966 107015191 107617483 108347995 109273365
2993.01 110472850 112033178 113884959 115644374 117288477 118875129
2995.90 120288406 121120334 121646936 122223032 122811547 123237468
2998.79 123741805 124442467 125428784 126732745 128227503 130107664
3001.69 132385617 134982153 137753303 140658637 143672864 146788971
3004.58 149541378 151885495 153782023 155318083 156424425 157251495
3007.47 158143702 159425452 161212367 163423124 166053872 169064171
3010.36 172432771 176185039 180015609 183791179 187534704 190842263
3013.26 193316232 194764648 195938136 196983229 198097661 199374776
3016.15 200750729 202269925 204289942 206857824 209929234 213550694
3019.04 217657571 221934482 226295824 230499388 234346301 237422122
3021.93 239749918 241744436 243701952 245610138 247291406 248965213
3024.83 250557286 252028975 253728062 255839100 258268312 260880720
3027.72 263036901 264138212 264319554 263805425 263318995 263331415
3030.61 263747863 264427205 265308525 266103548 266761227 267004143
3033.51 266616051 265763677 264231104 262095782 259390208 256238892
3036.40 252807261 248974083 245046555 241245152 238079851 235266055
3039.29 232448349 230022032 227768928 225128832 221886903 218108268
3042.18 214279721 210792522 207598931 205191284 203550020 202299312
3045.08 201103488 199957519 198477663 196455099 194042028 191049956
3047.97 187510924 183697482 179731588 175920041 172139521 168250461
3050.86 164822049 161785592 158796482 156382881 154280091 152406328
3053.75 150983180 149776843 148703008 148013629 147516288 147084136
3056.65 146729870 146324957 146031018 145793376 145368257 144818924
3059.54 144007739 142790587 141046779 138932908 136719341 134187216
3062.43 131722747 129925818 128751812 128396001 128754211 129251987
3065.33 129909421 131034543 132570852 134211430 135403377 135862783
3068.22 135412512 133903341 131538525 128390158 124780950 121018782
3071.11 117020339 112901619 108966618 104953874 100891603 96971462
3074.00 93026615 89143855 85398840 81788455 78401394 75197142
3076.90 72101954 68999314 66066474 63453427 60933066 58350443
3079.79 55997423 53866119 51917279 50143076 48393861 46661491
3082.68 45411100 44425401 43315100 41960091 40838108 40024426
3085.57 39104723 38201032 37477359 36851086 36231492 35746757
3088.47 35467885 34966773 34319923 33786630 33229201 32507904
3091.36 31851929 31359380 30712184 30103515 29653881 29321015
3094.25 28964429 28561356 28257563 27929887 27638694 27248359
3097.15 26863371 26665475 26515588 26402056 26259487 26137235
3100.04 26032829 25829661 25622139 25440078 25259526 24991803
3102.93 24709745 24500651 24266828 24123315 24040782 23919336
3105.82 23697103 23462228 23451710 23532234 23403411 23290540
3108.72 23294406 23369933 23252482 23174620 23260818 23257436
3111.61 23013532 22886498 22906404 22884217 22707122 22562323
3114.50 22440563 22353298 22089080 21585411 21188790 20887283
3117.39 20403781 19889302 19482090 19279476 19077803 18569835
3120.29 18090180 17781258 17731984 17595351 17246376 16910136
3123.18 16541872 16176076 15840184 15528936 15114633 14633612
3126.07 14066362 13464992 12930320 12403579 11722466 11040863
3128.97 10457206 9877571 9342384 8863400 8211402 7678762
3131.86 7324673 6944647 6575025 6365444 6044876 5618302
3134.75 5359278 5150018 4867626 4614674 4373592 4055800
3137.64 3861372 3543821 3346774 3191456 3074320 3115927
3140.54 3016535 2776380 2671623 2602509 2393503 2242557
3143.43 2211605 2143106 2151599 2069187 1897030 1778489
3146.32 1817162 1758561 1721781 1772065 1671154 1521755
3149.21 1546845 1556851 1465088 1434026 1358972 1350332
3152.11 1275527 1187979 1217901 1296212 1254270 1125938
3155.00 1211604 1233019 1137604 1155430 1122890 1143379
3157.89 1219578 1131599 1051102 1052678 1011407 950627
3160.79 932895 995010 1014955 931227 939695 829081
3163.68 737675 787739 843218 770723 797037 838517
3166.57 735187 649461 810891 850010 761926 679078
3169.46 711339 727144 566268 587818 807331 879449
3172.36 779656 746543 774732 822242 716621 600730
3175.25 475560 418892 453355 557296 685692 720478
3178.14 721762 720508 709446 643660 678725 695166
3181.03 629311 764745 848936 745476 612494 586849
3183.93 620345 599495 537983 483274 569478 649547
3186.82 602240 639247 619665 533539 502211 486616
3189.71 465199 473997 523168 522699 464355 394890
3192.61 412351 426322 484709 509879 613093 687087
3195.50 524347 462557 555438 577609 532587 517035
3198.39 416639 367133 292904 250924 252412 347620
3201.28 432591 359511 211802 303694 484798 428323
3204.18 347048 353409 344063 204848 145771 200336
3207.07 244242 348150 385975 392656 348345 344217
3209.96 367413 398386 494226 580589 455736 319673
3212.85 309944 479775 431751 318803 277514 155595
3215.75 156824 104468-24600 28751 33471 4832
3218.64 4041 80414 43026-64309-86183-74947
3221.53-89966-173352-262261-247976-372479-514689
3224.43-456267-365370-432027-425881-552567-634980
3227.32-560243-537027-446182-405717-497487-518115
3230.21-335447-193293-213211-331308-464094-486354
3233.10-510221-644219-770948-865746-804568-660439
3236.00-753120-846935-625393-416263-368873-380405
3238.89-374790-360375-520141-575401-435050-360895
3241.78-415287-503199-482300-407594-331858-341714
3244.67-419671-369901-269777-148125-233183-402158
3247.57-422884-319972-177325-181771-298769-334161
3250.46-279695-245644-184873 1525 146649 51162
3253.35 18418 54040 1016-32007 46673 144095
3256.25 143910 213571 296509 351515 356623 387787
3259.14 430937 354492 251510 174932 296217 448704
3262.03 354215 307212 311510 256500 276210 331503
3264.92 331154 337394 366451 512185 535771 357162
3267.82 338608 517177 609384 458579 420521 406814
3270.71 198107 189528 289306 310076 337254 284988
3273.60 153769 188199 290288 272054 123643 59538
3276.49 83370 136433 246386 250795 228938 185888
3279.39 126347 57920 40701 78557 33068-77001
3282.28-126171-74374-74603-58427-293 46422
3285.17 121799 58712-7654 94303 20732 18029
3288.07 69223 42507 23195 9170 15080-15826
3290.96-28272-462-1101 90629 123995 35592
3293.85 73619 96654 68716 54098 83493 84595
3296.74 29071 113975 148086-61650-123552 70452
3299.64 176881 40220 11270 25437 49991 61376
3302.53-108280-186528 1654 207677 140456 1322
3305.42-296 5134-41437-43819-45181 6901
3308.31 6887-57429-92235-71397-70354 19760
3311.21 172234 5583-81111 7672 49176 20268
3314.10-91603-131447-123630-56920-87297-110497
3316.99-107295-62342-82582-101152-40236-59076
3319.89-97198-97987-77345 50604 39517-3176
3322.78-51459-60367 24146-122627-245413-172830
3325.67-125512-88161-45122-80304-121597-1199
3328.56-20430-215199-136925-43091 75056 71506
3331.46-2964 21676-23509 32366 39407-115287
3334.35-86564-69789-73270-64800 47262 120443
3337.24 64646-33078-168734-189116-70496 24343
3340.13 113619 91202 26549 96720 187285 93125
3343.03-11516-52589-154972-168230-61228 66673
3345.92 19405 42982 42500 62920 134945 70213
3348.81-27776 40808 126153 83228 2235-108548
3351.71-124147-158922-117677 93490-25809-214266
3354.60-128181-128940-23116 15122-36992-80319
3357.49 9813-19634-90469-40127-147035-179700
3360.38-149035-185610-49705 9381-158971-224959
3363.28-94341-66151-225995-229746-217360-251825
3366.17-301660-105218-31529-116052-153535-96866
3369.06-87442-146514-161654 77787 274793 261518
3371.95 117788 2207 50345 117386 54675-117762
3374.85-102601-11517 59673 101253 37974-56349
3377.74 21152 179155 232145 153053 50336 94613
3380.63 154155 241883 233113 53557-30149 32701
3383.53 150101 258128 302675 360771 385769 255183
3386.42 70027 154190 357800 442218 274132 126994
3389.31 267064 499281 458367 397737 349917 315467
3392.20 249347 217475 96680 185165 374856 525429
3395.10 588275 672897 752878 703156 554738 401957
3397.99 304936 290988 516932 514785 163542 102141
3400.88 182706 264574 377560 437625 421247 467615
3403.77 475478 452214 464815 423731 352466 263736
3406.67 200932 286283 376939 471816 393830 335943
3409.56 344803 458597 419290 318490 289798 466327
3412.45 631579 411591 143264 82227 246536 352106
3415.35 343951 308074 452545 518684 457470 583550
3418.24 439254 312558 323963 427079 478232 546029
3421.13 608054 596306 512307 457874 495337 540229
3424.02 433085 266791 452429 580168 479166 398640
3426.92 305409 279684 372745 478996 470258 483984
3429.81 541742 574385 383395 302000 268050 333000
3432.70 385877 462530 598915 605507 524142 390897
3435.59 368967 367903 304219 352073 370832 323131
3438.49 320700 350627 350846 471838 504009 478727
3441.38 458797 474187 419939 254093 265180 409834
3444.27 387447 164040 236682 430807 403803 265715
3447.17 372400 572932 512173 463919 382736 516643
3450.06 433003 276064 477676 595404 479614 472870
3452.95 329525 333117 536593 515084 444210 525753
3455.84 422773 291279 370824 521444 605153 628803
3458.74 553833 481096 477853 402112 337334 274676
3461.63 299958 415825 406705 270531 344570 500742
3464.52 498492 403217 260742 272727 490300 570508
3467.41 413055 405222 492942 489768 480009 537159
3470.31 510460 422105 369497 416191 427616 357050
3473.20 266258 229237 163889 190206 224050 147740
3476.09 81332 26749 140163 232259 132591 18600
3478.99-154011-23337 108073-27726-21600 57904
3481.88 122860 97013 31188 43694-55614-70199
3484.77-79881-155699-254496-208080-162442-143312
3487.66-232432-349262-355528-285179-283388-192542
3490.56-120264-204384-284123-183110-246244-384717
3493.45-476880-385152-359204-365113-201200-110892
3496.34-222932-329061-376182-303180-205623-144201
3499.23-225037-366372-383489-204183-211410-421433
3502.13-405392-372702-347343-442308-554632-429277
3505.02-503229-471950-287780-207910-253925-377942
3507.91-334244-251872-309200-279615-342366-356349
3510.81-304703-247137-286381-503566-473460-313423
3513.70-379983-405846-402211-405743-315117-210659
3516.59-191565-241957-236796-195524-280588-362116
3519.48-383251-475744-421838-291983-220947-140157
3522.38-280232-269553-363000-437749-342205-223094
3525.27-81998-188372-335356-380877-338830-222523
3528.16-120883-202749-264570-238225-202982-60225
3531.05-142206-186008-81186-41924-35109-98055
3533.95-82682-98035-149513-135766-111959-14581
3536.84 72780 141871 65632-11449 33777 159485
3539.73 181574 180834 268279 278159 221860 102253
3542.63 62983 138206 206001 384211 418102 439465
3545.52 437190 508468 508375 454015 491757 501790
3548.41 462523 504969 651641 775173 692593 524162
3551.30 454527 428895 501870 578530 647077 579976
3554.20 505821 564592 550531 532522 526645 475298
3557.09 502913 601981 624896 479945 427668 446043
3559.98 376721 411081 416707 498998 537713 553671
3562.87 515033 394480 247848 203830 391202 455632
3565.77 414325 429808 392795 140691-29392 62195
3568.66 270795 230761 123228 88171 78111 140358
3571.55 224479 293651 253998 160535 79462 152360
3574.45 239648 214656 148957 126787 121319 122698
3577.34 97122 119924 135589 111871 109898 136656
3580.23 30984 34811 101186 71863 61732 49138
3583.12 14100 61544 137445 194935 112246 23235
3586.02-152284-238463-202814-154963-179209-181216
3588.91-98193-35129-62380-141421-219713-280818
3591.80-320245-320172-243034-142132-94045-248529
3594.69-335921-146495-33330-182290-279578-197254
3597.59-183191-336380-344654-280475-358611-327092
3600.48-383279-392653-240905-125271-185516-340959
3603.37-461195-473560-309301-304747-265655-297654
3606.27-362832-340425-365312-422091-545878-659240
3609.16-499899-243680-134772-160528-217938-316228
3612.05-438017-400521-279331-336635-534406-468883
3614.94-307157-282818-279292-189097-245575-300137
3617.84-280748-325518-546669-615402-374587-189123
3620.73-214929-318150-358531-306551-264941-256041
3623.62-173823-188839-327985-294975-264070-293204
3626.51-343851-329631-350081-535301-530767-575851
3629.41-464267-219007-286637-390009-369868-330816
3632.30-307406-311627-280735-234121-174774-98312
3635.19-159742-306160-333555-312159-314885-267760
3638.09-349869-432338-365358-229841-166556-148677
3640.98-228766-360038-377647-391953-331649-260621
3643.87-240351-179208-229256-185528-256942-383958
3646.76-497378-411825-244621-381308-706825-627470
3649.66-388054-338339-366553-286400-225740-280835
3652.55-362648-376692-363664-470337-402563-328003
3655.44-518667-607090-287403-156474-257253-246936
3658.33-147664-174272-312999-376029-392603-408183
3661.23-367335-401996-312740-222735-384960-474107
3664.12-312045-280887-287242-340677-387684-368162
3667.01-347203-259724-284173-376332-323507-350152
3669.91-771905-870918-312101-161440-177903-124494
3672.80-150321-274402-444599-666547-759519-819464
3675.69-755623-434999-310399-320482-278424-196128
3678.58-184161-275093-362963-307008-237447-221022
3681.48-199994-211216-250730-242838-294482-383054
3684.37-427723-387651-313729-161833-75316-267508
3687.26-510163-869695-843327-416341-352262-405931
3690.15-406043-393068-312230-153047-131563-237971
3693.05-413006-448886-216656-49229-96298-171145
3695.94-326147-418667-401713-217735-184760-273008
3698.83-270301-111001-84048-126570-232206-329894
3701.73-178411-25957-2689-75848-85414-4332
3704.62-98664-227264-180597-65311-50781-179387
3707.51-201241-134622-322992-570949-435032-276758
3710.40-194253-146034-395234-473919-144918 30663
3713.30-59743-117918-91994-123141-174097-248834
3716.19-220988-71822-50347-61016-65669-136063
3719.08-195000-120783 65196 57539-33437-136113
3721.97-205482-66989-37827-171000-187869-51997
3724.87-4504 110515 87943 90053 148714 166956
3727.76 241466 85601 7378 172932 289855 361402
3730.65 291173 130101 57118 226369 353922 383065
3733.55 389333 283624 104086 209630 361283 170769
3736.44 137606 446074 467777 477731 566177 570165
3739.33 516866 564103 612736 529300 398763 538184
3742.22 608957 528250 394602-72678-432458 98881
3745.12 552407 683516 762113 749845 678645 617566
3748.01 489074 177632-76033 243024 450375 510423
3750.90 482309 95686-79639 380386 678658 744834
3753.79 775184 761809 743157 800089 689311 601434
3756.69 751678 895883 698259 544729 441295 363467
3759.58 376913 608154 761767 809836 724715 718371
3762.47 878619 895196 823441 777491 722129 723109
3765.37 789337 864136 882697 920450 945801 881672
3768.26 868108 813988 599687 680247 882296 901705
3771.15 985411 973103 868169 849772 769765 756987
3774.04 861173 871946 913203 900838 892908 907685
3776.94 766015 732317 817017 893146 666679 589339
3779.83 704793 800029 881825 891030 896988 932287
3782.72 845909 765257 777318 748959 762884 725894
3785.61 719649 647637 608811 513187 455629 538880
3788.51 531461 360479 352175 473561 545224 528057
3791.40 522190 511261 617165 579276 480322 467043
3794.29 524333 542117 375824 146429 164534 267386
3797.19 296668 412855 377527 311252 191186 136087
3800.08 78349-250802-401408-42712 55419 120467
3802.97 213578 250609 274268 195271 92472 226204
3805.86 266853-30545-41557 356414 411093 203341
3808.76 41116 189654 313665 331199 200590 120039
3811.65 105011 34166-29700 128647 259328 221231
3814.54 138967-3023-390055-237539 288187 396278
3817.43 364696 390662 386973 354805 300711 179716
3820.33 72561 95133 31402 191384 364039 407335
3823.22 415843 379824 423063 533128 606094 578162
3826.11 364105 307955 439845 478638 492053 631558
3829.01 654520 524680 395745 374799 293743 334482
3831.90 543806 630859 638212 555189 424959 398109
3834.79 477546 557119 558327 595553 448484 9564
3837.68 9750 366254 543409 592986 492396 403291
3840.58 399157 478664 495846 629160 617684 473960
3843.47 466348 549579 677773 632028 528318 671559
3846.36 597214 488229 577100 539498 503392 604908
3849.25 543296 516601 475162 388368 179969 20817
3852.15 212831 271755-195245-592274-337451 179356
3855.04 405348 385435 423583 436310 508856 592371
3857.93 371113 290253 414641 513215 501291 436539
3860.83 167128 15822 196137 282642 390155 500471
3863.72 338365 164322 19378 171980 361170 398417
3866.61 412375 480273 447993 497868 412491 228590
3869.50-31086 101193 332023 373998 467855 540069
3872.40 506964 532059 525896 439207 489578 605673
3875.29 683453 641350 661688 687611 694339 701617
3878.18 700958 780783 805477 606182 581144 626372
3881.07 727569 914249 994244 887840 806281 864585
3883.97 912285 957193 713768 578232 734556 922392
3886.86 970522 1022070 1036460 947213 916338 982495
3889.75 963820 862757 817723 911320 1089653 1202211
3892.65 1201954 1172681 1194486 1196441 1142068 1170232
3895.54 1226181 1231362 1267247 1292286 1238674 1327119
3898.43 1213384 1066084 1215518 1316108 1284229 1306327
3901.32 1281320 1299428 1408798 1464160 1400877 1341148
3904.22 1454878 1513923 1471045 1580005 1801150 1843857
3907.11 1777621 1663371 1617046 1718708 1688353 1641044
3910.00 1799750 1876709 1797528 1772918 1760837 1811824
3912.89 1919349 1963753 1912703 1948529 1999415 2034322
3915.79 2027106 2001737 1872542 1899160 1901369 1767734
3918.68 1844528 1886200 1779175 1748084 1802486 1837126
3921.57 1882290 2064816 2023651 1796652 1705949 1780980
3924.47 1841461 1850062 1991688 2025686 1901729 1787732
3927.36 1571301 1488801 1607618 1768812 1731492 1641816
3930.25 1685056 1610105 1579199 1582963 1471125 1487646
3933.14 1540541 1523985 1521844 1608371 1635014 1528968
3936.04 1588993 1602331 1458808 1470914 1575477 1626977
3938.93 1534788 1470693 1431529 1524639 1572297 1495368
3941.82 1462865 1563176 1671967 1667912 1580010 1456445
3944.71 1474750 1568413 1471893 1422205 1411415 1478595
3947.61 1346597 1377228 1631045 1645763 1499987 1471484
3950.50 1519588 1555911 1559789 1482587 1389290 1333482
3953.39 1373920 1453544 1482566 1455368 1482445 1563850
3956.29 1435994 1226801 1394456 1603757 1502549 1518180
3959.18 1599982 1573036 1558870 1524545 1596357 1681870
3962.07 1633053 1535551 1550474 1631002 1564013 1661924
3964.96 1790620 1867953 1865123 1665608 1583222 1722509
3967.86 1713392 1665969 1648126 1655606 1698498 1732696
3970.75 1643434 1690020 1720552 1523463 1471641 1740110
3973.64 1826365 1704860
##END=
