##TITLE=Vinyl Acetate
##JCAMP-DX=4.24
##DATA TYPE=INFRARED SPECTRUM
##CLASS=IUPAC A
##ORIGIN=NIST, Anayltical Chemistry Division, 301-975-3108
##OWNER=COPYRIGHT (C) 1998 by the U.S. Secretary of Commerce
##DATE=98/10/1
##$SPECTRA VERSION=1.00
##$UNCERTAINTY IN Y=2.1 % relative (B=1.1E-04,C=7.7E-10,D=2.7E-14)
##CAS NAME=Ethenyl Ester-Acetic Acid
##CAS REGISTRY NO=108-05-4
##MOLFORM=C H3 C O2 C H: C H2
##MP=-93.2 C
##BP=72.2 C
##$NIST SOURCE=QUANT-IR
##SPECTROMETER/DATA SYSTEM=IFS66V (Bruker)
##INSTRUMENT PARAMETERS=KBr Beam splitter; MCT Detector; Multipass cell
##STATE=gas
##SAMPLE DESCRIPTION=Vinyl Acetate Primary Gas Standard
##PRESSURE=101.3 kPa
##TEMPERATURE=23 C
##SAMPLING PROCEDURE=1 L/min Flow
##RESOLUTION=0.9640
##DATA PROCESSING=Triangular Apodization
##XUNITS=cm-1
##YUNITS=(micromol/mol)-1m-1 (base 10)
##XFACTOR=1.0
##YFACTOR=18.189E-13
##DELTAX=0.4820
##FIRSTX=575.169
##LASTX=3975.077
##FIRSTY=.000011
##MAXX=3974.59
##MINX=575.17
##MAXY=.0027741
##MINY=-1.50E-06
##NPOINTS=7053
##XYDATA=(X++(Y..Y))
575.17 6062910 6385710 6716270 7005410 7320042 7633242
577.58 7764394 7867348 8106464 8415422 8854596 9104210
580.47 9244904 9569800 9924074 10104130 10164130 10496780
583.37 10880590 11068500 11211860 11523360 11740100 12208050
586.26 13043820 14222960 15182200 15041790 15010000 15654280
589.15 16249040 16723780 17502240 18609810 19684760 20346190
592.04 20543980 20420030 20302680 20106910 19827380 19482060
594.94 18965530 18344450 17814120 17427230 17096740 16817610
597.83 16483150 16159520 15978250 15921610 15856560 15840910
600.72 15803750 15815840 15960690 15970100 15990260 16104990
603.61 16169310 16274340 16396480 16565320 16703090 16799630
606.51 16954810 17118140 17361290 17593910 17749000 17838160
609.40 17996310 18180920 18241170 18433260 18567250 18634080
612.29 18786760 18862100 18898540 18910050 18873330 18884130
615.18 18986540 18980170 18877240 18801020 18747830 18779490
618.08 18818760 18841140 18837250 18856060 18954070 19086090
620.97 19259270 19457730 19704390 19959430 20196370 20520350
623.86 20918200 21312050 21733970 22200880 22635030 22993880
626.76 23401920 23805770 24193060 24536960 24766590 24962750
629.65 25093630 25234980 25301620 25194720 25027060 24828180
632.54 24507490 24107760 23839450 23530070 23229930 23108440
635.43 23011470 22904950 22925450 23049180 23289070 23545160
638.33 23401680 23018460 22759270 22721440 22785570 22787860
641.22 22814280 22845080 22890290 22864050 22723090 22551280
644.11 22292090 22044120 21834320 21444730 20931320 20464480
647.00 19999020 19490410 18933750 18390510 17869010 17342410
649.90 16765080 16213820 15716230 15210230 14686610 14126580
652.79 13638070 13221990 12749340 12287160 11863360 11468130
655.68 11133630 10782620 10444520 10090820 9721376 9356584
658.58 9009284 8678810 8330864 7999604 7664880 7352426
661.47 7079630 6761830 6460426 6210126 5953366 5698928
664.36 5442440 5182008 4936264 4706452 4504390 4341232
667.25 4169020 3989118 3816510 3684234 3555600 3390784
670.15 3260556 3167732 3082554 3007718 2947880 2919304
673.04 2864494 2753916 2689486 2703402 2699134 2650854
675.93 2628320 2616572 2599004 2629932 2685942 2710920
678.82 2721364 2736698 2798316 2826108 2821602 2869532
681.72 2935576 3004688 3052760 3090362 3134436 3229670
684.61 3340454 3386672 3413704 3527706 3640606 3669258
687.50 3751202 3842766 3883490 3971142 4059926 4132702
690.40 4238480 4332894 4364008 4462230 4594326 4686136
693.29 4811214 4945626 5047546 5085078 5143516 5258586
696.18 5356182 5418192 5516476 5695270 5868926 5945266
699.07 5864052 5742214 5726190 5745874 5741922 5735048
701.97 5742412 5752412 5791222 5871864 5929976 5952704
704.86 5944436 5917400 5922312 5957658 5994864 6000988
707.75 5989348 5973612 6005496 6060028 6121116 6178094
710.64 6232000 6326968 6423984 6567266 6650736 6649640
713.54 6678140 6651198 6585218 6603246 6645158 6594490
716.43 6480808 6369170 6279286 6168226 6030644 5892256
719.32 5753356 5620858 5491094 5307332 5136482 5044978
722.22 4970876 4871548 4793520 4750776 4689868 4644262
725.11 4602460 4578536 4537706 4456724 4375906 4307606
728.00 4252040 4187566 4154956 4107078 4040494 4006756
730.89 3972192 3931874 3880896 3839090 3797108 3749540
733.79 3698654 3659266 3637174 3607816 3566620 3505118
736.68 3443258 3418388 3394348 3349918 3302512 3286560
739.57 3271006 3218998 3180246 3155036 3131532 3127834
742.46 3142982 3144258 3147276 3150586 3134570 3102566
745.36 3107240 3116806 3123980 3158334 3171162 3169814
748.25 3182570 3216946 3253286 3260684 3263440 3292310
751.14 3311758 3323996 3333948 3347692 3362908 3380328
754.04 3397856 3411150 3455352 3497718 3518184 3535392
756.93 3571476 3598152 3601048 3632550 3657568 3684850
759.82 3763508 3832322 3875966 3916148 3955448 3992300
762.71 4052326 4116778 4157188 4204886 4265808 4309930
765.61 4369536 4451882 4531070 4608872 4688400 4752972
768.50 4825350 4884298 4912104 4995150 5065380 5107876
771.39 5190086 5245850 5264200 5326810 5387272 5407154
774.28 5421328 5433566 5454394 5484276 5480908 5481152
777.18 5499864 5463020 5452044 5433382 5398154 5396504
780.07 5371314 5355534 5364150 5367296 5365372 5357798
782.96 5354916 5360058 5334336 5320102 5320228 5309118
785.86 5290264 5275610 5272596 5250428 5229010 5216508
788.75 5204708 5191902 5143432 5094710 5112410 5108198
791.64 5073222 5043258 5010648 5007284 4992872 4948908
794.53 4971736 4997518 4993328 5002666 5014910 5027264
797.43 5037628 5047910 5035506 5030844 5056402 5095002
800.32 5133032 5170412 5194556 5198638 5247846 5294554
803.21 5361058 5391512 5394642 5456968 5499566 5535546
806.10 5588872 5652458 5693922 5745816 5828134 5892404
809.00 5960598 6049130 6158472 6260098 6377942 6518698
811.89 6654338 6807042 6948792 7082320 7232910 7395734
814.78 7605700 7748826 7857050 8064712 8269768 8427326
817.68 8608728 8851758 9066814 9236460 9461212 9707788
820.57 9920538 10184900 10474580 10746260 11060070 11416210
823.46 11766330 12076210 12469890 12922900 13359000 13828160
826.35 14284100 14755610 15299980 15866760 16453770 17067820
829.25 17682590 18370650 19135230 19926340 20798050 21684210
832.14 22592660 23591040 24651760 25779260 26972010 28174630
835.03 29467860 30871150 32316270 33773640 35285900 36750340
837.92 38182900 39632220 41030850 42332510 43562270 44668780
840.82 45662810 46522480 47174900 47788340 48334190 48676610
843.71 49039000 49502000 50125400 51066960 52371700 53609180
846.60 54499030 55230240 55986500 56871480 57950730 59254440
849.50 60780150 62535850 64606900 66814430 68998620 71232220
852.39 73547800 75823860 77945060 79931300 81790050 83390810
855.28 84764240 85851900 86620740 87119250 87332690 87327080
858.17 87250340 87002860 86638760 86262080 85897780 85485040
861.07 85177340 84780790 84312060 83929410 83815690 83737790
863.96 83850770 84271300 85226940 86433500 88369060 90585180
866.85 93652550 97075140 102153600 107837100 117411100 134536200
869.74 150751900 162034600 160043500 154326200 149007600 141397500
872.64 135000900 128873200 123686500 118193000 113063400 108044300
875.53 103309200 99249540 96081610 93311600 91018710 89183270
878.42 87817710 86637130 85620100 84691390 83840050 82936290
881.31 82088500 81290540 80451460 79446900 78489740 77485990
884.21 76371280 75216780 73980300 72698720 71234460 69554510
887.10 67912300 66269380 64452830 62467700 60532080 58568310
889.99 56630720 54663640 52608100 50584530 48556860 46480610
892.89 44399170 42321750 40263920 38245550 36333770 34475170
895.78 32646370 30891260 29194980 27549990 25996520 24516020
898.67 23132630 21797200 20529200 19349100 18244210 17212220
901.56 16226040 15296860 14479930 13719760 12990600 12314250
904.46 11695580 11125260 10619870 10176340 9741000 9331186
907.35 8993200 8702566 8455536 8234938 8042016 7887908
910.24 7760432 7656404 7592074 7567740 7556596 7561070
913.13 7600728 7687550 7790546 7922688 8096088 8283990
916.03 8502184 8767110 9052196 9353956 9679404 10041330
918.92 10433980 10851220 11310830 11788750 12326360 12892770
921.81 13482290 14124520 14803630 15514750 16257250 17052640
924.71 17889710 18769360 19688320 20633000 21622010 22674380
927.60 23750430 24834340 25963950 27109890 28278490 29446700
930.49 30599730 31764050 32941770 34093520 35190870 36286730
933.38 37359490 38402810 39395760 40351390 41288570 42199040
936.28 43057870 43908010 44781440 45670280 46607720 47614810
939.17 48675570 49809420 51016170 52257100 53559690 54945900
942.06 56358440 57765820 59239320 60767400 62211830 63564880
944.95 64739020 65769850 66707740 67644470 68436000 68947050
947.85 69388280 69892660 70287580 70687270 71333160 71914700
950.74 72247420 72926000 73970880 75044480 76271060 77754120
953.63 79345890 81297780 83324980 84868970 84893150 84724580
956.53 84988210 83488890 79277460 77044860 74387660 65334660
959.42 59950760 59030120 58321690 58224670 58249320 58683580
962.31 59160300 59816550 60544660 61293390 61945630 62685540
965.20 63467560 64305840 65131160 65898120 66529740 67051290
968.10 67441020 67686670 67726550 67558350 67153810 66483500
970.99 65592920 64548670 63365960 62126970 60878300 59767400
973.88 58849870 58244190 58042520 58209760 58324970 57501300
976.77 56105770 55184450 54741520 54085760 53196410 52744600
979.67 52950570 53601880 54449360 55420080 56308500 57044120
982.56 57498810 57578010 57295220 56754710 55942920 54794560
985.45 53461090 51960070 50234060 48371520 46600950 44931040
988.35 43344410 41902870 40597620 39474920 38530420 37747200
991.24 37161900 36765900 36504500 36448060 36604480 36856620
994.13 37215480 37727980 38362860 39136160 40026060 41003200
997.02 42070960 43240330 44499740 45856860 47341760 48925010
999.92 50599420 52390450 54325150 56385590 58538440 60822100
1002.81 63275060 65848080 68562380 71453490 74517580 77756290
1005.70 81136970 84659910 88314450 92150030 96220380 100511100
1008.59 104962700 109610400 114444300 119370200 124397800 129552300
1011.49 134876900 140247900 145579600 150812800 155943200 160979100
1014.38 165740800 170164000 174340300 178111800 181388100 184202900
1017.27 186417000 188190900 189366900 189928100 190219500 190157700
1020.17 189640400 188825900 188027800 187342100 187157900 187522800
1023.06 187349000 186726600 186388500 185866300 186431500 190440400
1025.95 190852600 183824500 176288300 172412400 171393600 171580600
1028.84 172042700 171278700 169672900 167922200 165630000 162446000
1031.74 158267700 153354200 147937800 142055300 135778500 129142000
1034.63 122405800 115705700 108936900 102218900 95772440 89727530
1037.52 84185380 79112660 74444740 70209140 66356410 62873790
1040.41 59790120 57029330 54587780 52445270 50545440 48866340
1043.31 47355160 46044150 44921530 43936350 43127430 42495120
1046.20 42094780 41884270 41765750 42008920 42638600 42301420
1049.09 41037440 40080130 39437340 38944920 38554840 38259770
1051.99 37893100 37510480 37209660 36904560 36581100 36266270
1054.88 35970930 35700020 35461040 35266960 35091660 34918380
1057.77 34735920 34591520 34440140 34270680 34145550 34035570
1060.66 33936070 33819080 33676150 33567320 33472630 33345490
1063.56 33205950 33054300 32906120 32719550 32539650 32411960
1066.45 32232480 32008910 31759140 31538190 31348680 31102820
1069.34 30863280 30649630 30405690 30152870 29895980 29634200
1072.23 29419010 29200560 28962800 28735680 28507110 28305700
1075.13 28079940 27820670 27589740 27337110 27051330 26810790
1078.02 26567450 26317470 26082830 25814710 25546890 25306740
1080.91 25085960 24861220 24604680 24337200 24074670 23810950
1083.81 23545740 23252560 22966860 22711410 22441540 22185340
1086.70 21931030 21664160 21445130 21235810 21003800 20755610
1089.59 20513590 20293440 20076770 19875130 19668930 19452310
1092.48 19232770 19010020 18791290 18588940 18386440 18194750
1095.38 18006330 17825560 17684540 17550280 17413090 17293600
1098.27 17198290 17099390 17002800 16925770 16862200 16817000
1101.16 16774080 16747730 16733950 16715650 16699980 16710980
1104.05 16746450 16788410 16832780 16876960 16942870 17005920
1106.95 17071250 17156930 17232470 17324880 17445420 17575150
1109.84 17689440 17797510 17935640 18115130 18305070 18506380
1112.73 18720430 18955180 19223900 19514110 19825700 20147940
1115.63 20504080 20924070 21389560 21899850 22466600 23102610
1118.52 23792470 24527540 25346110 26255500 27244140 28306650
1121.41 29432750 30667400 32058020 33618820 35273560 37007330
1124.30 38939420 41165260 43652430 46462520 49631780 53256270
1127.20 57449320 62276480 67862890 74323120 81822840 90477270
1130.09 100378800 111625300 124294600 138398600 153853200 170680600
1132.98 188729000 207946200 228896100 251486200 275245400 300072100
1135.87 325695900 351627900 377070700 401832800 425327500 446807900
1138.77 465778700 481581600 493861700 502662600 507372900 508007600
1141.66 504605300 497502000 487839000 477250900 467036900 458810000
1144.55 454652200 455584400 462088700 473871800 489220600 505186700
1147.45 516524100 521362100 519020100 506142200 487152200 474782800
1150.34 471918100 473661300 485735800 504181000 520232900 531478600
1153.23 536772900 535436900 526858700 512343800 492307800 467388500
1156.12 438965400 407790800 374457000 340456400 306747500 274171700
1159.02 243126500 213990200 187174800 162916200 141358000 122464100
1161.91 106034400 92023250 80211740 70295460 62060040 55301420
1164.80 49798400 45355470 41765040 38863900 36530930 34679300
1167.69 33195160 32006110 31040770 30258360 29636620 29164520
1170.59 28778620 28457090 28232890 28118990 28054390 28023090
1173.48 28063670 28217280 28423770 28677030 28969760 29234210
1176.37 29555930 29951960 30402820 30916460 31469030 32132560
1179.26 32860020 33642500 34479170 35344910 36278040 37289690
1182.16 38349710 39476460 40697760 41991570 43296320 44634290
1185.05 46061830 47523060 49019250 50591600 52193730 53811470
1187.94 55462670 57173850 58985030 60859620 62765760 64784180
1190.84 66960000 69283120 71792900 74606680 77693810 81114160
1193.73 84973840 89260070 94068400 99505360 105561800 112309000
1196.62 119576300 127002300 134807800 143332900 152917300 163900900
1199.51 176232400 189774400 204316400 219846400 236463200 254215300
1202.41 273010000 292987200 314445400 337004800 360701700 385964100
1205.30 412867400 441373900 471257000 502940400 536730900 572476400
1208.19 609954400 649317500 690700100 734096600 779446700 826734600
1211.08 876210800 927206400 979084600 1031694000 1084426000 1136165000
1213.98 1186472000 1236252000 1283352000 1326121000 1365082000 1399560000
1216.87 1430011000 1455074000 1474673000 1489091000 1498013000 1502360000
1219.76 1500885000 1495717000 1491071000 1486206000 1480272000 1475034000
1222.66 1471494000 1471593000 1480786000 1501863000 1525096000 1519684000
1225.55 1484212000 1447309000 1417617000 1397503000 1388409000 1390350000
1228.44 1399428000 1409796000 1415724000 1414669000 1405340000 1384946000
1231.33 1353014000 1309214000 1254940000 1191280000 1120364000 1045318000
1234.23 967769800 889473700 812026900 737404400 666616100 600507500
1237.12 540352800 485776400 437020200 394274900 357110100 325051500
1240.01 297680000 274436600 254803600 238357700 224491100 212832700
1242.90 202987900 194569300 187241400 180694800 174704600 169217100
1245.80 164031300 159091300 154339200 149757300 145442900 141394000
1248.69 137637300 134295400 131500900 129453200 128343600 127881400
1251.58 127497900 126706200 124658400 120940400 116782600 113334900
1254.48 110842800 109391200 108869300 109018200 109538600 110083400
1257.37 110374200 110248500 109555700 108126200 105943800 103092700
1260.26 99683140 95798880 91518670 86936290 82185570 77459100
1263.15 72834830 68362500 64095420 60113660 56468540 53175740
1266.05 50168280 47466260 45075280 42911880 41036950 39415840
1268.94 37976380 36735360 35665110 34732720 33907950 33160550
1271.83 32543260 32041560 31635000 31381230 31256230 31198770
1274.72 31224330 31347230 31562430 31863910 32254410 32803340
1277.62 33536330 34441000 35554860 36868250 38382000 40113510
1280.51 42058760 44208170 46570890 49189400 52018450 55051540
1283.40 58294360 61696010 65211660 68772700 72320190 75882380
1286.30 79309040 82367900 85055270 87379110 89344700 90873060
1289.19 91939700 92553780 92733340 92663880 92554040 92420370
1292.08 92189810 92335020 93324610 94452260 94576050 94397820
1294.97 94816060 95202370 94918150 94446820 94188270 93920950
1297.87 93756820 93670900 93625850 93600540 93593250 93587980
1300.76 93440750 93087620 92519350 91684780 90446270 88724780
1303.65 86563460 83990270 81039420 77720860 74099160 70323220
1306.54 66434310 62453400 58462420 54534630 50741330 47107320
1309.44 43644950 40397150 37382320 34587710 32018490 29669640
1312.33 27538570 25602980 23846390 22285190 20879370 19615080
1315.22 18473220 17432870 16497930 15657830 14906560 14237390
1318.12 13619290 13042450 12540680 12088960 11666020 11270760
1321.01 10904750 10560840 10244130 9968568 9722668 9479014
1323.90 9240726 9025584 8843312 8678288 8506742 8354676
1326.79 8223394 8100488 7977092 7860466 7770586 7692662
1329.69 7615864 7549578 7497932 7453650 7416946 7392152
1332.58 7368346 7345420 7328522 7322870 7325862 7327262
1335.47 7339296 7361174 7393724 7440824 7485512 7528124
1338.36 7586546 7674698 7779768 7879132 8005764 8170132
1341.26 8337098 8533452 8750712 8989524 9237844 9476708
1344.15 9751890 10077280 10438990 10830430 11261450 11718420
1347.04 12207730 12746080 13340120 13992560 14686140 15444100
1349.94 16256230 17127330 18106930 19175160 20343100 21631780
1352.83 23015940 24535720 26202610 28030160 30043480 32264480
1355.72 34696060 37334000 40204610 43309870 46739930 50514690
1358.61 54620410 59050250 63865570 69019390 74520710 80433780
1361.51 86633780 93178570 100001700 106998500 114177600 121468700
1364.40 128742600 135932300 143031500 149890600 156454800 162731300
1367.29 168379700 173342800 177748000 181648600 185096900 188097000
1370.18 190540400 192493500 194567900 197443800 201452300 207000400
1373.08 213704300 220152800 221861500 218434600 215970900 215887300
1375.97 216901900 218963400 222173500 226260900 230832400 235366400
1378.86 239401600 242524700 244313100 244449800 243063900 240382400
1381.76 236344700 231161100 224760500 217519400 209834400 201742600
1384.65 193256700 184624500 176128200 167893800 160272300 153667400
1387.54 147146300 140089500 133285600 126678400 120089800 113611900
1390.43 107449900 101690600 96399070 91663220 87366910 83353820
1393.33 79496130 75674850 72004740 68438840 64866850 61413580
1396.22 58010720 54668700 51440440 48380130 45420180 42569760
1399.11 39961340 37539650 35257470 33120590 31140260 29285790
1402.00 27576770 26029490 24612480 23337910 22184200 21140720
1404.90 20269290 19524500 18850590 18253190 17724570 17266590
1407.79 16872350 16544510 16275670 16062200 15867310 15715110
1410.68 15614130 15540150 15492730 15473980 15480770 15509350
1413.58 15546620 15596640 15665310 15719840 15777370 15877320
1416.47 15961290 16039050 16145460 16253010 16253820 16193830
1419.36 16403350 16649910 16763150 16872950 16968040 17079260
1422.25 17191240 17294230 17388040 17533190 17729250 17929180
1425.15 18146790 18383480 18622730 18893740 19198380 19509870
1428.04 19824310 20161650 20545540 20917380 21247450 21499420
1430.93 21630060 21749440 21883520 21988920 22056800 22130970
1433.82 22196870 22238170 22247750 22203620 21965380 21616160
1436.72 21545310 21456650 21139460 20836090 20599340 20382680
1439.61 20174850 19989260 19834710 19730300 19668170 19670860
1442.50 19758730 19817410 19829500 19911670 20008930 20060770
1445.40 20072480 20047740 20001030 19919260 19761320 19646640
1448.29 19558710 19403010 19221220 19040860 18848900 18660860
1451.18 18462800 18245130 18034340 17809670 17577320 17365040
1454.07 17171570 16977480 16782560 16547190 16106860 15828990
1456.97 15935120 15850370 15666550 15519640 15335050 15168830
1459.86 14935230 14690540 14466690 14282690 14116720 13944340
1462.75 13768650 13608890 13444920 13216130 13109480 13106920
1465.64 13025000 12926370 12834310 12749670 12678940 12604140
1468.54 12536410 12474080 12408920 12335060 12259670 12157140
1471.43 11983650 11990990 12026040 11857650 11847330 11916400
1474.32 11861780 11793140 11688660 11579670 11554840 11539600
1477.21 11509410 11459660 11392300 11346880 11283430 11203430
1480.11 11127780 11037280 10961650 10889270 10803620 10740720
1483.00 10687800 10626510 10559410 10486790 10417380 10333300
1485.89 10254770 10161530 10056850 10035560 10002120 9913244
1488.79 9801264 9693040 9630112 9544070 9510472 9500368
1491.68 9436112 9371184 9316870 9264258 9201346 9140438
1494.57 9099638 9040566 8804540 8759246 8910676 8900446
1497.46 8862792 8754234 8670978 8715672 8724922 8701522
1500.36 8683834 8653838 8645644 8619474 8567428 8515316
1503.25 8476160 8423642 8379280 8172866 7966016 8109820
1506.14 8002554 7831040 8054410 8148180 8108868 8136354
1509.03 8119428 8110442 8121456 8100016 8089808 8021516
1511.93 7965276 7997956 7996974 7973844 7941540 7880020
1514.82 7857018 7841648 7774996 7720614 7660012 7648814
1517.71 7685850 7659182 7626044 7541872 7431092 7358672
1520.61 7108620 7108172 7273020 7180118 7170520 7202468
1523.50 7163292 7129676 7041054 6916104 6935206 6971024
1526.39 6921846 6871580 6856814 6811356 6771244 6770032
1529.28 6741224 6707070 6671830 6618866 6566426 6550378
1532.18 6488280 6397432 6315222 6301542 6363578 6358844
1535.07 6331390 6311508 6286646 6263888 6209918 6145482
1537.96 6014798 5715172 5809602 5905502 5801788 5984270
1540.85 6048442 5885904 5889796 6086954 6134020 6148720
1543.75 6202950 6178398 6140766 6262428 6383732 6442090
1546.64 6498992 6560194 6630388 6704014 6778480 6836362
1549.53 6901418 7012674 7152840 7266674 7360470 7471076
1552.43 7573138 7672380 7673686 7658898 7899696 8114974
1555.32 8227380 8337730 8420382 8401536 8450798 8402172
1558.21 8448012 8818902 8851696 8738854 9017792 9343166
1561.10 9447706 9530888 9593186 9672230 9750604 9806960
1564.00 9817800 9816790 9870498 9939064 9978488 10015070
1566.89 10080910 10238060 10412530 10410060 10272760 10189570
1569.78 10326530 10473630 10554480 10666340 10777900 10890320
1572.67 11007840 11119850 11232720 11328650 11410840 11367650
1575.57 11134000 11330500 11676390 11754480 11819460 11861320
1578.46 11892170 11915300 11944910 11970250 11983940 11996770
1581.35 12012010 12026410 12035970 12030670 12033950 12057400
1584.25 12088210 12126630 12174430 12216560 12250040 12282410
1587.14 12307990 12317040 12332060 12357690 12375080 12372970
1590.03 12379310 12395600 12417110 12438960 12446880 12466230
1592.92 12486680 12496570 12506220 12519640 12539550 12562510
1595.82 12582380 12598940 12609210 12614060 12634730 12655820
1598.71 12665570 12674720 12684960 12703370 12736850 12796800
1601.60 12861700 12941880 13039550 13151700 13287890 13416840
1604.49 13546300 13655620 13764300 13894660 14043950 14216180
1607.39 14392110 14564580 14721430 14878490 15077320 15301150
1610.28 15535580 15779050 16040120 16329500 16643170 16967410
1613.17 17272340 17559980 17862080 18182430 18562770 18897430
1616.07 19020600 19457780 20068420 20469520 20851530 21219640
1618.96 21590140 21935520 22246640 22525040 22782430 23018550
1621.85 23256890 23492910 23672140 23978190 24421060 24801060
1624.74 25183320 25579890 25954430 26215220 26369020 26586000
1627.64 27049650 27744290 28568120 29549940 30706160 32002240
1630.53 33415780 34836220 36167720 37563870 39283170 41397270
1633.42 43863940 46649660 49788130 53249530 57338080 62194380
1636.31 67394940 73042280 79389080 86461150 94193290 102574800
1639.21 111601400 121304200 131650500 142539300 153897200 165641000
1642.10 177627100 189629800 201354500 212682700 223259500 232561600
1644.99 239215900 243505400 247589700 249704400 249061500 246420200
1647.89 241750800 235988800 229770800 224229400 220971200 221852600
1650.78 228906600 242848100 260875500 281620300 292491400 278714200
1653.67 250419900 225811400 214079600 213974900 221300800 233397900
1656.56 247296700 260975800 272839700 281627500 286677000 287822400
1659.46 284960300 278189900 267946600 254788100 239467200 222258600
1662.35 204107300 186115000 168128100 150561700 133948300 118518200
1665.24 104505700 92042950 81059860 71420100 63158830 56166940
1668.13 50237360 45132910 40951360 37594400 34669880 32103110
1671.03 29901440 28080950 26467990 25002080 23693800 22507460
1673.92 21419160 20288950 19272350 18562250 17865720 17137230
1676.81 16461410 15813600 15223870 14671880 14145990 13650470
1679.71 13203660 12799930 12442880 12102150 11783760 11439820
1682.60 11092500 10829690 10595440 10101820 9858156 10100670
1685.49 10094130 9967802 9861860 9752762 9664680 9583446
1688.38 9546724 9511370 9456310 9427740 9428542 9428154
1691.28 9433884 9445214 9435998 9407738 9365138 9303392
1694.17 9203102 9035846 8599818 8449828 8718526 8727112
1697.06 8637700 8599954 8583230 8606500 8490226 8325006
1699.95 8352090 8449186 8523314 8433170 8266038 8123714
1702.85 8031158 7978140 7916412 7955882 8042196 8057126
1705.74 8023234 8049940 8078040 8045756 7990682 7907338
1708.63 7809392 7690606 7559964 7447590 7341248 7211938
1711.53 7103716 7009070 6912372 6851256 6787120 6756378
1714.42 6676600 6683032 6790604 6853984 6799428 6582496
1717.31 6772114 6979440 6962146 7067262 7116346 7132926
1720.20 7171052 7236612 7318626 7417282 7540986 7680480
1723.10 7845618 8040484 8235798 8440970 8663940 8893552
1725.99 9123968 9367564 9639132 9932728 10234560 10561400
1728.88 10886540 11201480 11567130 11964450 12354390 12731310
1731.77 13086630 13375240 13494970 13853290 14161510 14312230
1734.67 14745530 15059360 15243400 15410380 15543060 15682440
1737.56 15855450 16073240 16346590 16625650 17072340 17755970
1740.45 18399440 18988560 19652530 20490210 21511520 22706770
1743.34 24044540 25439370 26842970 28234650 29598800 30973930
1746.24 32400400 33807120 35255440 36780160 38328400 39944100
1749.13 41685580 43571410 45550730 47587190 49924040 52601250
1752.02 55380740 58353820 61587630 65053940 68754610 72722110
1754.92 76902080 81324400 85937940 90755440 95982610 101476000
1757.81 107121300 113014000 119236600 125753200 132567500 139797500
1760.70 147400000 155243400 163798600 172918400 182299500 192196400
1763.59 202627900 213569600 225140200 237390900 250416700 264372800
1766.49 279349000 295330100 311922200 330157400 349983100 370306900
1769.38 391393500 413440700 436248000 460012000 485441000 510548500
1772.27 535876100 563388400 590085400 615052400 638824300 660449000
1775.16 679283500 695475700 708400100 716829000 720684600 720157200
1778.06 714539600 703816100 688795100 669721200 647336300 623466200
1780.95 599655200 577695400 560278100 548262700 540472600 533928900
1783.84 525717700 518172700 519096100 534017200 562692200 601442900
1786.74 645326300 688927600 728205600 760328500 783462500 797218300
1789.63 801484700 796792000 784763300 766859700 743365200 715424900
1792.52 685479600 653968900 621280500 588285200 555088800 522589400
1795.41 491464100 461793100 433455800 406808000 382013000 358924600
1798.31 337432100 317336300 298755000 281812400 266119000 251477300
1801.20 238024000 225392300 213380200 202035100 190962600 180117500
1804.09 169553500 159413600 149782800 140649400 132097000 124022500
1806.98 116266200 108801800 101655800 94790840 88204870 81935020
1809.88 75985830 70417700 65268010 60477680 56029790 51920160
1812.77 48107710 44556880 41269700 38235340 35450780 32901170
1815.66 30571600 28459650 26525790 24793930 23264810 21876180
1818.56 20636280 19530490 18535750 17655670 16883960 16207550
1821.45 15618570 15091390 14616290 14236840 13937590 13661030
1824.34 13374160 13156100 12997190 12807700 12646170 12525850
1827.23 12438240 12376720 12309840 12242980 12181050 12112150
1830.13 12105830 12089070 12023330 11951300 11857830 11749650
1833.02 11631230 11510910 11372700 11232020 11107430 10985220
1835.91 10849850 10718110 10617360 10526040 10448820 10392270
1838.80 10344390 10313310 10307170 10325030 10342630 10367980
1841.70 10415040 10472130 10537750 10570220 10542060 10698410
1844.59 10917690 11034430 11167280 11292870 11420220 11534510
1847.48 11659500 11804910 11933100 12055320 12169720 12267650
1850.38 12378670 12495120 12602940 12716420 12847000 12988240
1853.27 13124050 13263480 13410920 13547160 13698570 13853330
1856.16 13997500 14146350 14303200 14467740 14623640 14781770
1859.05 14929120 15078760 15223050 15339800 15460750 15576390
1861.95 15672380 15757460 15838320 15888860 15918150 15945500
1864.84 15945680 15912420 15861760 15814450 15750460 15657510
1867.73 15587250 15517860 15418630 15405690 15412050 15321150
1870.62 15225470 15158100 15050920 14898950 14742520 14578810
1873.52 14423680 14285150 14166120 14073300 13990900 13904150
1876.41 13800280 13665170 13507690 13317080 13111800 12877110
1879.30 12595010 12297390 11986830 11667780 11331170 10998430
1882.20 10673630 10360490 10064640 9779898 9530528 9301818
1885.09 9092728 8915906 8755132 8613628 8500082 8393100
1887.98 8308368 8236662 8147878 8103930 8092352 8084592
1890.87 8087544 8078044 8071966 8073600 8076874 8086102
1893.77 8106954 8116358 8120142 8156620 8192142 8205416
1896.66 8185448 8156294 8149440 8138308 8123646 8093146
1899.55 8052228 8002702 7942692 7882736 7792504 7683908
1902.44 7565224 7463148 7392664 7307842 7208126 7131772
1905.34 7064664 6939492 6770686 6624276 6499690 6449984
1908.23 6458744 6439926 6370070 6137294 5882636 5768016
1911.12 5708948 5655346 5584896 5493924 5387030 5276886
1914.02 5151624 5011852 4846934 4667336 4485560 4300000
1916.91 4107092 3889974 3748360 3638682 3494470 3358976
1919.80 3230598 3115956 3016796 2924734 2837480 2764622
1922.69 2698026 2656902 2624986 2581858 2545150 2516628
1925.59 2491224 2473204 2462774 2455022 2444086 2439568
1928.48 2440614 2438918 2436906 2434938 2441856 2450624
1931.37 2452342 2455746 2458204 2471522 2489326 2499148
1934.26 2519144 2536780 2552220 2579628 2607364 2628182
1937.16 2647048 2668648 2700928 2729500 2749998 2778494
1940.05 2800904 2816388 2841778 2851486 2845512 2871494
1942.94 2906930 2917920 2917384 2916918 2915704 2917038
1945.84 2913716 2909878 2910880 2901520 2886364 2884862
1948.73 2886370 2890736 2892702 2882952 2879386 2891340
1951.62 2913922 2932804 2956680 2977688 3002204 3024424
1954.51 3037208 3057376 3071578 3078784 3086940 3087476
1957.41 3085616 3087136 3075884 3056196 3038880 3013214
1960.30 2984928 2961432 2921918 2884196 2857230 2832004
1963.19 2804650 2767296 2739512 2717424 2698774 2683382
1966.08 2671792 2652786 2638630 2645134 2652488 2660214
1968.98 2657788 2665850 2687570 2713336 2748740 2777934
1971.87 2814026 2869234 2926596 2986056 3062728 3132856
1974.76 3210694 3309148 3413752 3532002 3654500 3777606
1977.66 3913808 4069632 4233250 4408434 4589080 4776042
1980.55 4986436 5190372 5386706 5601000 5810146 6008098
1983.44 6209458 6391630 6556856 6722696 6858540 6972582
1986.33 7072278 7142936 7188504 7201518 7200362 7186558
1989.23 7159940 7131596 7116772 7131078 7165552 7251210
1992.12 7392950 7556790 7701988 7795960 7805924 7691638
1995.01 7510250 7360272 7309522 7347442 7428148 7534612
1997.90 7652686 7739564 7790414 7811920 7779830 7688456
2000.80 7540544 7337226 7088434 6812582 6503760 6168630
2003.69 5833896 5504888 5188708 4889788 4605838 4352326
2006.58 4130052 3930382 3757426 3614994 3493002 3394376
2009.48 3315702 3247740 3189522 3149066 3114650 3086106
2012.37 3067352 3036344 3021084 3019754 3004798 2990132
2015.26 2995944 2997784 2982284 2982062 2979442 2971296
2018.15 2972660 2979634 2982238 2991468 3013392 3024660
2021.05 3032434 3019860 2991456 2971538 2952728 2941782
2023.94 2940976 2947088 2949598 2944174 2947688 2964226
2026.83 2969224 2971214 2986132 2992874 2987252 2989482
2029.72 3007000 3020268 3024934 3036406 3046788 3053626
2032.62 3067966 3083448 3103716 3131808 3161860 3195012
2035.51 3237890 3284666 3331264 3377400 3425884 3482404
2038.40 3547534 3626130 3706628 3797260 3892124 3992644
2041.29 4110286 4244594 4388014 4531908 4686588 4850166
2044.19 5018992 5190138 5379644 5584164 5798740 6017282
2047.08 6251972 6508638 6774510 7045972 7326190 7620384
2049.97 7921542 8229956 8557880 8901440 9240118 9580440
2052.87 9933720 10306640 10682570 11042270 11393720 11750130
2055.76 12089790 12415470 12743570 13041370 13318990 13593950
2058.65 13854440 14089090 14294850 14477220 14629440 14752090
2061.54 14859600 14962470 15037870 15089660 15152850 15239590
2064.44 15352280 15465130 15557160 15574200 15485610 15362640
2067.33 15261050 15188970 15141670 15120350 15095250 15048530
2070.22 14983190 14883130 14747230 14565960 14336130 14063930
2073.11 13739630 13364510 12951630 12501950 12031760 11539430
2076.01 11027740 10511200 9982306 9475116 8990784 8514136
2078.90 8071218 7646298 7238366 6874012 6533200 6202512
2081.79 5908780 5652616 5411988 5191134 4992902 4816560
2084.69 4660050 4506664 4361348 4251922 4153002 4056622
2087.58 3967220 3881438 3817586 3753622 3684436 3616324
2090.47 3567040 3523876 3477714 3443446 3402346 3358230
2093.36 3323650 3279692 3233302 3218418 3199670 3168788
2096.26 3151528 3134428 3113832 3110542 3089200 3067214
2099.15 3085142 3098002 3101576 3102826 3109344 3117316
2102.04 3130832 3131992 3146190 3184596 3217134 3249236
2104.93 3282332 3316638 3351332 3381908 3409504 3462102
2107.83 3511642 3551498 3594940 3625220 3660216 3699196
2110.72 3708486 3735370 3795642 3836834 3864562 3892678
2113.61 3918028 3940094 3946454 3938376 3957300 3977228
2116.51 3981160 3977736 3966074 3950054 3928062 3891342
2119.40 3879342 3893828 3902002 3909962 3919266 3940096
2122.29 3973544 4000212 3999308 3982696 3968140 3967166
2125.18 3948348 3932858 3947454 3957188 3955218 3972740
2128.08 3984022 3965598 3928142 3868610 3795774 3697880
2130.97 3584324 3475920 3354534 3229924 3111144 2980334
2133.86 2854894 2733240 2615154 2535176 2465500 2385408
2136.75 2327434 2278490 2234784 2210874 2187814 2180892
2139.65 2177212 2170688 2170510 2164804 2173456 2192602
2142.54 2205492 2213698 2229968 2253886 2270416 2281580
2145.43 2297436 2309636 2319884 2332138 2348564 2365366
2148.33 2371240 2371730 2382832 2393402 2389878 2395286
2151.22 2407540 2418318 2427968 2438350 2446996 2442000
2154.11 2441862 2467074 2492222 2508916 2514972 2521806
2157.00 2535200 2526550 2536822 2570870 2585820 2599174
2159.90 2612966 2630306 2635514 2622844 2644846 2678996
2162.79 2682860 2689454 2692140 2686256 2660212 2631622
2165.68 2645356 2652500 2645128 2631800 2623454 2599232
2168.57 2558502 2564114 2572440 2565990 2567126 2559306
2171.47 2547448 2512354 2496956 2527060 2539282 2532648
2174.36 2498284 2446372 2405330 2372804 2371136 2359604
2177.25 2343066 2323508 2299896 2263480 2195876 2167948
2180.15 2146810 2101368 2046882 1993792 1937040 1854590
2183.04 1806852 1775530 1722968 1677660 1634804 1597098
2185.93 1542892 1510756 1508146 1480904 1456726 1445102
2188.82 1421516 1382614 1373668 1382908 1373214 1370428
2191.72 1367478 1347218 1320502 1314856 1307666 1291732
2194.61 1281940 1263086 1240802 1208092 1207112 1210044
2197.50 1191978 1177562 1163678 1152446 1131526 1122194
2200.39 1126582 1128546 1128092 1130924 1129534 1134210
2203.29 1149140 1155666 1168468 1186796 1203532 1209104
2206.18 1225200 1254916 1275032 1301246 1333198 1362350
2209.07 1390846 1424810 1456092 1486684 1517208 1560052
2211.97 1599610 1641750 1690798 1717870 1746202 1782102
2214.86 1815454 1851120 1893882 1936356 1972806 2007910
2217.75 2045430 2080726 2120200 2167242 2212414 2255886
2220.64 2290318 2314898 2339712 2377022 2412524 2437720
2223.54 2468434 2501822 2550032 2594694 2627308 2659384
2226.43 2683740 2701932 2706230 2712756 2721406 2720276
2229.32 2711654 2695742 2678660 2666592 2656996 2639392
2232.21 2613432 2589192 2575736 2553786 2527310 2507932
2235.11 2489576 2465590 2434452 2412992 2387606 2358606
2238.00 2329786 2292860 2258898 2227920 2193222 2163714
2240.89 2139704 2113262 2077900 2042356 2017538 1989442
2243.79 1950950 1919404 1892998 1867118 1838704 1805626
2246.68 1785142 1759592 1729538 1711232 1696914 1684494
2249.57 1670224 1653038 1624712 1598996 1583680 1563446
2252.46 1544614 1520596 1487310 1461156 1438934 1410718
2255.36 1384846 1363038 1342580 1324026 1303982 1285176
2258.25 1275020 1268136 1262034 1256850 1250480 1248760
2261.14 1252426 1266056 1273916 1280398 1301816 1324390
2264.03 1342124 1368024 1395830 1419608 1465518 1518214
2266.93 1559112 1612788 1674484 1732816 1795744 1865718
2269.82 1946534 2039296 2144324 2259232 2379500 2507146
2272.71 2651536 2804498 2955504 3116000 3296778 3487668
2275.61 3674130 3869916 4081960 4290282 4487934 4686026
2278.50 4886134 5079366 5261962 5426882 5570754 5703124
2281.39 5832328 5939298 6029640 6090166 6123816 6144838
2284.28 6162198 6170838 6161458 6148666 6132394 6118046
2287.18 6106132 6113868 6133452 6160546 6186202 6205102
2290.07 6225296 6247574 6269670 6272974 6235856 6167316
2292.96 6122080 6117266 6104010 6051694 5984658 5883786
2295.85 5761002 5632844 5464690 5268246 5053186 4795640
2298.75 4498234 4200506 3906238 3593510 3284622 2991386
2301.64 2707906 2443804 2191768 1967072 1782672 1613958
2304.53 1459580 1329438 1215234 1125084 1054772 992230
2307.43 932772 882134 844788 808488 776320 757668
2310.32 743008 730914 712428 696510 693954 681004
2313.21 665644 661600 665328 668942 656624 649550
2316.10 663122 675384 670386 658678 655610 661604
2319.00 658262 653968 657788 670518 682526 681580
2321.89 686218 700894 704594 696986 707002 729832
2324.78 743032 741224 754644 785328 797392 794122
2327.67 821620 862174 867704 872424 908268 947516
2330.57 960390 974170 1019016 1054630 1064878 1097436
2333.46 1158572 1198226 1214752 1254446 1304496 1335240
2336.35 1361446 1417486 1459632 1476548 1519604 1569940
2339.24 1597846 1621888 1663266 1699552 1707622 1719602
2342.14 1756454 1773974 1782316 1823190 1839694 1835682
2345.03 1859700 1874366 1878580 1891948 1912308 1934250
2347.92 1949860 1967986 1993900 2031464 2068630 2097974
2350.82 2138586 2167814 2193950 2233448 2262722 2287348
2353.71 2319056 2331544 2324890 2347318 2357656 2340008
2356.60 2330268 2305872 2283256 2280156 2252214 2216412
2359.49 2208212 2171128 2144664 2141084 2096654 2082094
2362.39 2084886 2049628 2046210 2035630 2003798 2000800
2365.28 1969912 1943780 1940914 1922874 1906140 1873076
2368.17 1855182 1848520 1823108 1807564 1781884 1769632
2371.06 1756932 1738578 1730080 1710992 1698100 1678522
2373.96 1655002 1622000 1587558 1556732 1525812 1503352
2376.85 1485836 1474050 1453406 1433170 1414646 1381294
2379.74 1347784 1312140 1270690 1228730 1185848 1149272
2382.64 1115374 1073422 1038716 1009202 968518 937874
2385.53 921336 905378 890674 876436 867214 865060
2388.42 860018 860064 856506 856766 869768 886574
2391.31 898324 903142 905328 912886 935884 946276
2394.21 945792 953054 964950 981002 1006926 1028508
2397.10 1036926 1051940 1072714 1092232 1108214 1130082
2399.99 1155416 1164064 1175684 1204096 1229204 1256294
2402.88 1281172 1299604 1328412 1349936 1372526 1395996
2405.78 1418942 1443094 1473202 1511168 1538138 1563296
2408.67 1590798 1617682 1649364 1679974 1706328 1746390
2411.56 1785898 1823762 1864024 1903460 1944326 1980928
2414.46 2030070 2080956 2133698 2194414 2252398 2311962
2417.35 2374030 2432890 2489186 2543670 2585784 2626160
2420.24 2684440 2751206 2809730 2876276 2941972 3004070
2423.13 3069312 3135176 3223456 3312804 3382512 3456400
2426.03 3541350 3627386 3708510 3794786 3883350 3963492
2428.92 4047326 4131018 4213910 4296936 4376232 4444854
2431.81 4502690 4552260 4598294 4633934 4663700 4690724
2434.70 4691624 4686064 4672914 4655362 4632800 4604144
2437.60 4576954 4547692 4527950 4524680 4518228 4506150
2440.49 4510218 4505100 4466328 4401752 4319416 4252530
2443.38 4214350 4178210 4144192 4116392 4086630 4042346
2446.28 3985374 3920272 3853058 3768422 3668688 3558604
2449.17 3435776 3308718 3172122 3028178 2883902 2747474
2452.06 2616740 2492848 2373152 2259752 2147220 2038446
2454.95 1941988 1861074 1788524 1718130 1657232 1603014
2457.85 1552806 1496582 1445584 1403806 1363824 1329120
2460.74 1302200 1281852 1251964 1231394 1209628 1173996
2463.63 1150062 1132560 1107602 1088900 1085292 1079548
2466.52 1054528 1031204 1019730 1016784 1009786 995582
2469.42 993588 978956 959146 955080 953022 940610
2472.31 941220 943508 936868 927542 920768 914580
2475.20 904858 900298 887642 877712 869952 868004
2478.10 859054 845830 844920 843268 839208 841176
2480.99 849172 855820 863028 869324 881512 896360
2483.88 910838 927886 942188 954476 970392 983216
2486.77 1002902 1018514 1019970 1013678 1004134 1007396
2489.67 1012582 1017264 1022822 1020986 1013114 1025424
2492.56 1046832 1054394 1066676 1075842 1079020 1072596
2495.45 1051964 1030234 1021388 1028244 1030044 1036320
2498.34 1042486 1041882 1048918 1062296 1070152 1055738
2501.24 1036410 1023562 998302 971810 942634 909280
2504.13 884314 851100 811266 779108 742874 702950
2507.02 673318 651166 629258 609434 585748 559818
2509.92 535980 518266 510584 499102 490192 480408
2512.81 470196 468530 465052 465100 457934 449312
2515.70 450966 446668 440762 433410 433798 423988
2518.59 415182 413502 406676 405174 403110 405256
2521.49 401784 389132 385726 385766 376552 377072
2524.38 369568 353278 352414 347710 335924 331096
2527.27 332154 321530 310902 304478 292370 284002
2530.16 279396 266254 257128 260172 260684 259488
2533.06 257666 245902 227768 222596 217874 218218
2535.95 222652 222206 212814 198698 189030 185910
2538.84 187254 184666 188498 189238 187314 180404
2541.74 171082 166162 162816 170430 176372 173918
2544.63 165602 155192 152542 156932 155574 149700
2547.52 154284 150622 140092 143332 152358 148582
2550.41 148854 150946 148578 153258 145380 146042
2553.31 155816 150674 152376 155396 163868 166492
2556.20 158556 156800 152528 144550 140978 143380
2559.09 144420 152100 156720 149982 146970 156798
2561.98 155684 150654 155436 160232 171256 181152
2564.88 179990 185060 195242 198376 212712 229926
2567.77 236136 247094 262302 282686 292916 308326
2570.66 330518 348888 368254 390784 414182 430074
2573.56 454466 478498 493626 514810 544884 563446
2576.45 579050 604004 627508 658928 689910 704088
2579.34 738282 771442 783466 797650 815748 834646
2582.23 859078 883108 900544 922500 944728 959990
2585.13 969344 992028 1012342 1034868 1057568 1072752
2588.02 1089210 1090868 1082086 1084102 1093026 1095274
2590.91 1088562 1081390 1079426 1080204 1073370 1055818
2593.80 1049376 1047484 1034882 1034346 1034278 1018024
2596.70 1000048 988352 982244 966454 945086 938304
2599.59 942184 940426 925006 906344 885626 858742
2602.48 840964 824520 804212 795910 784842 758534
2605.37 733836 713972 692616 674216 664108 647426
2608.27 629222 616892 610162 600976 596974 601946
2611.16 602484 601158 605368 624606 641250 643758
2614.05 658404 678862 698498 730490 751108 768764
2616.95 798832 820008 844050 868930 885558 913194
2619.84 938518 968062 993780 1003258 1017498 1042088
2622.73 1059470 1058994 1080734 1096346 1088200 1093034
2625.62 1100216 1113990 1114990 1117716 1132200 1132254
2628.52 1128698 1132792 1151558 1159596 1157072 1157414
2631.41 1166216 1172348 1166732 1168754 1168128 1173862
2634.30 1189768 1198100 1192698 1193762 1193216 1176692
2637.19 1168202 1159836 1126924 1086236 1050566 1019540
2640.09 980438 935282 898100 853504 816888 775488
2642.98 735480 705586 671898 638762 614450 588380
2645.87 560830 546300 532210 526314 519948 510480
2648.77 513790 500816 490082 492936 498616 497518
2651.66 479174 474006 482138 490142 490706 491032
2654.55 497830 489358 484594 500166 509418 510396
2657.44 515940 530352 537164 526854 522956 539612
2660.34 555638 560154 570332 581546 579352 586534
2663.23 598918 597220 606364 620494 615430 625914
2666.12 639170 640938 651542 641402 644252 659920
2669.01 662834 665362 653450 636802 637374 645410
2671.91 641998 644112 650340 644212 630678 631632
2674.80 636426 630858 613882 612496 610738 592970
2677.69 587876 581086 572238 565222 559600 559490
2680.59 548264 536074 520010 496880 497900 492422
2683.48 470894 460634 439446 421230 413078 393634
2686.37 370716 360606 352528 341792 341574 332480
2689.26 321144 310784 300116 289480 282650 284380
2692.16 281210 266592 261518 262840 261030 261122
2695.05 253772 245174 235044 224272 228668 229486
2697.94 230408 230202 221000 220372 217564 211182
2700.83 208726 206628 202878 208214 214812 212484
2703.73 211244 209722 210816 217122 218898 215926
2706.62 210556 207322 208348 220248 232188 230960
2709.51 223050 220934 221924 215714 210248 217792
2712.41 216580 212698 216680 221972 236772 236346
2715.30 229906 231196 234884 234992 227628 238978
2718.19 248896 241846 249788 257114 254848 251412
2721.08 253878 252428 250192 254292 263230 276896
2723.98 273790 273938 276022 287442 285910 279388
2726.87 300204 315498 325906 335080 342006 337800
2729.76 334526 345352 360408 374984 389604 403964
2732.65 419410 442386 470142 486430 500754 520956
2735.55 541726 566366 594870 626376 661172 691460
2738.44 710852 747880 791480 821046 854960 892730
2741.33 932488 984530 1041478 1078588 1125106 1172858
2744.23 1220040 1274796 1326692 1378506 1422148 1462980
2747.12 1502474 1539230 1569174 1596620 1620606 1646976
2750.01 1673800 1684002 1688356 1688934 1682722 1671168
2752.90 1652904 1643790 1628620 1607262 1594362 1566114
2755.80 1541020 1523644 1510750 1511264 1520108 1540020
2758.69 1562418 1591834 1618202 1659974 1715936 1753008
2761.58 1776300 1804618 1831306 1834868 1823056 1811376
2764.47 1782250 1732770 1674412 1612302 1550634 1492394
2767.37 1436296 1363772 1283398 1216398 1151408 1093496
2770.26 1051996 998586 951788 918158 870570 821038
2773.15 784398 758534 727368 691342 669528 650298
2776.05 633302 625608 614758 602638 601342 592926
2778.94 583264 593858 599460 599236 605772 615118
2781.83 612494 610052 619102 631904 636900 651556
2784.72 674686 687646 691524 693684 715516 741902
2787.62 744234 744044 746662 742442 734222 739328
2790.51 752960 746484 735466 740474 756500 764558
2793.40 766290 780884 803750 817750 824720 823426
2796.29 826014 843436 856892 863528 874874 883884
2799.19 880958 880470 889206 891030 880534 871668
2802.08 870176 860100 833694 808536 782092 739830
2804.97 708096 683744 660750 630172 592634 559244
2807.87 533368 507542 478052 446158 418556 420700
2810.76 419842 413018 415068 410986 401326 388460
2813.65 387504 394234 394404 388904 387696 391978
2816.54 394080 386504 391014 396826 396718 411832
2819.44 399302 390824 391350 380052 373776 366426
2822.33 375410 388096 389706 388400 395360 388364
2825.22 393668 396556 392488 407118 410886 414812
2828.11 415236 416132 426396 434194 435166 432112
2831.01 435912 444244 451020 459484 465014 461544
2833.90 450726 462748 478080 478600 484650 501860
2836.79 519972 523616 536088 549240 554766 574788
2839.69 576110 583796 612884 637600 649600 671888
2842.58 710470 729718 738206 762062 786722 803548
2845.47 833828 878398 910968 930670 958412 988378
2848.36 1011870 1028700 1062676 1084664 1092948 1120674
2851.26 1144320 1160452 1182568 1202446 1219228 1223542
2854.15 1224794 1226980 1240576 1249056 1256174 1286164
2857.04 1290750 1279796 1284788 1293634 1299328 1292866
2859.93 1291956 1305858 1319444 1319986 1319080 1336982
2862.83 1344836 1335626 1334724 1329656 1317776 1314322
2865.72 1305954 1301278 1298466 1292976 1278718 1255600
2868.61 1226010 1196134 1185398 1176090 1147606 1110756
2871.51 1089240 1081172 1068468 1040516 1006318 975278
2874.40 960162 936320 899064 880952 871258 862538
2877.29 852978 832066 807504 792072 784996 773796
2880.18 755206 738334 730566 735538 730944 725166
2883.08 720166 709980 696362 680876 676560 670236
2885.97 664026 649660 639080 648662 643970 627346
2888.86 633092 639412 642586 644968 642288 641536
2891.75 629322 621468 620922 625074 622196 630350
2894.65 640300 636324 636254 630922 644180 647044
2897.54 648730 641984 621088 640618 658616 653884
2900.43 655928 663516 652540 641972 648456 654466
2903.32 646604 653318 668948 668894 670784 658202
2906.22 659978 685574 674104 660288 673190 674224
2909.11 681322 686984 706806 717568 697208 712688
2912.00 742516 739006 727458 729336 733210 744178
2914.90 750966 756532 760194 773760 794208 793724
2917.79 788658 803014 825636 826498 842184 858574
2920.68 877150 905480 925556 948668 958382 989224
2923.57 1028016 1052506 1072842 1098054 1124602 1151240
2926.47 1185436 1226480 1259942 1299232 1350884 1390408
2929.36 1452188 1504278 1545432 1610062 1672022 1735226
2932.25 1815716 1891534 1949992 2020814 2089814 2174252
2935.14 2280326 2363330 2467360 2591580 2702548 2829626
2938.04 2974354 3100070 3231320 3391610 3539152 3695536
2940.93 3861932 4026712 4203566 4384526 4564398 4713660
2943.82 4862156 5012702 5148710 5270150 5375310 5464470
2946.72 5527514 5599466 5640170 5645850 5669362 5674642
2949.61 5680536 5708858 5732344 5754232 5791830 5859876
2952.50 5911672 5945068 5989514 6034740 6106542 6193394
2955.39 6274064 6385544 6491472 6580314 6672078 6772820
2958.29 6850824 6879510 6899836 6917410 6911860 6861854
2961.18 6776128 6735566 6718130 6624492 6511740 6409358
2964.07 6292672 6177734 6062522 5940922 5836794 5737408
2966.96 5634174 5537992 5462554 5406188 5328296 5255414
2969.86 5198886 5154576 5110348 5069274 5041840 5021410
2972.75 4984676 4968024 4967534 4952646 4945564 4922378
2975.64 4907010 4900614 4906122 4915608 4916028 4934742
2978.54 4957066 4962456 4961622 4979798 4994772 5006232
2981.43 5043858 5062350 5087670 5119088 5127650 5163382
2984.32 5217056 5248178 5288522 5336100 5367976 5411438
2987.21 5454434 5506740 5567328 5594798 5624248 5680710
2990.11 5761242 5858490 5961200 6101652 6273188 6435722
2993.00 6647100 6887124 6967784 6890990 6785340 6727374
2995.89 6703786 6671840 6636206 6604634 6557886 6524218
2998.78 6499332 6472406 6481872 6499126 6479988 6460664
3001.68 6453824 6420120 6390550 6348918 6310492 6288592
3004.57 6263410 6235072 6224242 6248764 6263794 6259612
3007.46 6246540 6238714 6216894 6187942 6185960 6179738
3010.36 6189306 6228236 6260514 6286452 6323094 6357512
3013.25 6375550 6382504 6401422 6418636 6425598 6432220
3016.14 6452444 6497634 6561002 6629110 6694334 6767776
3019.03 6842178 6939574 7050178 7156616 7270104 7384214
3021.93 7518754 7654634 7772502 7898956 8035048 8169094
3024.82 8304614 8427310 8537714 8654050 8774924 8875634
3027.71 8965488 9050900 9129150 9219762 9271728 9315050
3030.60 9378464 9412884 9462172 9532232 9586616 9650504
3033.50 9729858 9866788 10023510 10096890 10089160 10056790
3036.39 10044270 10060970 10091760 10140610 10219210 10302220
3039.28 10365800 10425640 10482910 10540560 10593040 10649590
3042.18 10694540 10714090 10739290 10776700 10807390 10833670
3045.07 10887950 10959940 11026400 11088650 11176160 11280220
3047.96 11380390 11479970 11578340 11665030 11748060 11820750
3050.85 11884970 11961850 12017080 12073130 12143380 12170240
3053.75 12180210 12184020 12180800 12170480 12156140 12169250
3056.64 12196290 12241660 12296250 12363030 12443070 12513820
3059.53 12554700 12560700 12544130 12530940 12521500 12508680
3062.42 12548760 12622810 12680250 12711440 12746720 12816940
3065.32 12876240 12871060 12836500 12780160 12681580 12557000
3068.21 12416670 12246270 12064250 11861370 11658240 11458600
3071.10 11221170 10990970 10780790 10592790 10419000 10249330
3074.00 10093250 9951450 9835156 9746350 9646768 9553996
3076.89 9486564 9414650 9364970 9362012 9358952 9369068
3079.78 9388172 9403170 9468164 9556914 9669202 9807170
3082.67 9964036 10172040 10394580 10656610 10963730 11305360
3085.57 11697430 12141920 12642740 13193010 13812520 14523290
3088.46 15276900 16068990 16928580 17827320 18753860 19696540
3091.35 20625910 21530360 22424170 23267090 24045210 24689060
3094.24 25187840 25584550 25809320 25827390 25677850 25386830
3097.14 24932230 24335080 23756880 23282520 22963060 22908320
3100.03 23158420 23758380 24665130 25676860 26380710 26281580
3102.92 24959420 22794350 21200640 20860790 21374760 22298730
3105.82 23342810 24326280 25152720 25746620 26050850 26054860
3108.71 25754810 25190770 24387740 23367410 22222100 20988840
3111.60 19663470 18362950 17102520 15862680 14732190 13705170
3114.49 12800760 12030380 11388270 10898650 10530050 10276910
3117.39 10163750 10170720 10270720 10468300 10753580 11090490
3120.28 11453770 11839880 12263300 12703490 13126030 13529460
3123.17 13859770 14112210 14305700 14381510 14341000 14222410
3126.06 14012100 13696460 13283130 12848420 12464730 12141070
3128.96 11949730 11980910 12260530 12640490 12753400 12427060
3131.85 11929970 11579990 11407210 11415250 11636060 12021160
3134.74 12488590 12951800 13368880 13718220 13967920 14109680
3137.64 14116100 13987540 13757790 13406040 12936620 12396260
3140.53 11826300 11209520 10557740 9900072 9257210 8638292
3143.42 8030964 7475650 6955208 6450074 5983782 5558704
3146.31 5174494 4832888 4528446 4251170 4008170 3779624
3149.21 3575276 3390328 3233254 3090434 2930784 2792346
3152.10 2664902 2539186 2430520 2341024 2231320 2137418
3154.99 2069296 1986818 1906746 1851926 1792374 1705584
3157.88 1646480 1590020 1527760 1481856 1428300 1368424
3160.78 1336886 1314144 1280118 1240348 1199782 1161332
3163.67 1136698 1114228 1076360 1043858 1016562 992280
3166.56 974466 950656 940672 917392 877144 860880
3169.46 838956 814998 789428 769582 766716 754926
3172.35 728134 715810 714762 702714 699808 684862
3175.24 681262 697726 690138 672408 659826 650314
3178.13 649984 651788 634036 611398 611728 616066
3181.03 598544 589234 595964 599858 587330 591454
3183.92 600318 588792 581134 576238 564442 566954
3186.81 566246 545654 552134 567570 561618 550140
3189.70 543290 550388 561228 564512 575324 572528
3192.60 573040 574514 586432 585482 569314 584198
3195.49 590474 583714 578058 573742 561292 548268
3198.38 528088 515382 522262 518194 510494 510538
3201.27 497786 474648 475854 482708 464588 441532
3204.17 433244 427364 418186 425888 432830 421784
3207.06 412472 412348 409672 404546 386998 375568
3209.95 371674 355400 354470 357202 349542 337650
3212.85 336526 319604 303050 307360 319032 324640
3215.74 319696 305156 298002 316452 304776 277642
3218.63 271736 268462 266212 257662 243330 241476
3221.52 237366 231022 231750 218428 209936 212130
3224.42 204458 191928 181722 177856 171486 168966
3227.31 163336 165950 170706 147890 133886 135114
3230.20 143868 124254 107256 109494 118396 131638
3233.09 112480 107682 110328 100800 99606 78916
3235.99 61370 82410 86634 84186 80976 69456
3238.88 52528 41584 38838 43884 53232 38662
3241.77 30788 37084 42172 26058 12262 17630
3244.67 28896 39652 37628 32322 18548 7136
3247.56 3954 4988 8864 14162 8386-11638
3250.45-1712 18968 12442 11870 18746 18384
3253.34 12590 19518 32254 41568 25738 15774
3256.24 28868 23098 18804 14000 11254-6602
3259.13-7428 14066 10470 554-6478 1216
3262.02 11496 6928 188 862 2418 2696
3264.91-1188-8082-15508-21356-6166 636
3267.81-5468-21918-37018-24666-10314-15062
3270.70-14248-21686-34944-32632-38854-34290
3273.59-30144-42896-36208-9204-9174-45280
3276.49-64168-68136-77158-79974-70550-62970
3279.38-71130-71804-59048-49276-38306-40882
3282.27-48598-38062-35604-34624-28178-16618
3285.16-9698-10318-22780-29274-1788 6790
3288.06 21158 31688 13758 4944-7904 11186
3290.95 42024 42872 37652 34318 38532 41806
3293.84 37320 40072 32672 28898 32284 35222
3296.73 40828 44660 50234 46160 43966 35284
3299.63 31850 45408 42142 28966 31798 38654
3302.52 35560 40634 45006 34736 2574-10026
3305.41 2950-12796-44184-64256-74610-80230
3308.31-101664-127250-138546-152404-146904-148122
3311.20-152824-155610-184756-188280-190628-218756
3314.09-234410-225732-220226-242370-257602-265782
3316.98-284348-305838-286958-267710-256712-243090
3319.88-247906-241918-245204-246230-254700-271870
3322.77-275544-251506-235344-233882-228668-235164
3325.66-245140-243106-227574-216484-186944-185316
3328.55-201938-188256-170822-145410-131484-124178
3331.45-113084-123390-121934-108482-94774-84790
3334.34-83610-83654-85632-65514-50866-49742
3337.23-50906-51702-42796-27562-24664-17726
3340.13 4036-820-17418 1468 6104-7692
3343.02-3252 5498 15338 12820 20728 32026
3345.91 25670 35650 41476 17488 12482 28256
3348.80 29972 17346 6700 14496 20126 7522
3351.70-4674-24316-38744-37180-26704-22540
3354.59-49310-40510-12056-24896-48760-65658
3357.48-68420-57400-59392-73210-67788-68390
3360.37-76188-72448-72176-73022-57078-56610
3363.27-76250-91910-104336-94170-84098-79018
3366.16-74222-78598-65978-73480-88160-79636
3369.05-64664-57934-71810-72618-51694-57500
3371.95-76288-77784-85352-65402-58486-60972
3374.84-66262-64324-42882-45300-46542-31446
3377.73-20576-25756-25970-8676-14384-9336
3380.62-5674-26790-35618-31232-34844-37572
3383.52-9266 2302-8232-15220-3312-5588
3386.41-16784-2990-6674-8286 5270-14586
3389.30-28296-24440-6636 9206 23230 7160
3392.19-25546 2596 19654 6346 11416-2154
3395.09-15246-26866-45860-43674-34440-26336
3397.98-22224-24570-41178-53954-44458-55546
3400.87-72326-55370-46842-34960-45324-81064
3403.77-71684-59854-85858-108288-91976-92922
3406.66-95516-71152-83072-73198-65196-92788
3409.55-84998-77658-75560-68354-87328-86818
3412.44-66810-57918-75654-83730-56484-43864
3415.34-43902-47720-57336-43108-44544-67080
3418.23-64530-28548-900-19826-52274-62846
3421.12-61518-60236-39868-40442-31716-21946
3424.01-33176-19654-27736-32748-20568-31192
3426.91-18962 8598-306-19446-13160-14230
3429.80-15810-19110-27108-6544-4028-12682
3432.69 4212 860-23912-10386 686-8856
3435.59-5426-3806-7644-9302 2846-2292
3438.48-27360-29126 7436 7938 282-1660
3441.37-21574-7786 1052 2500 13040 25704
3444.26 45126 40124 35478 55518 53170 35730
3447.16 42158 41530 42872 47214 34034 25450
3450.05 40006 66316 76388 84026 92694 105182
3452.94 107396 108872 106856 108930 128364 130828
3455.83 139828 138110 136010 133634 126122 113050
3458.73 107378 119276 122690 125544 97644 80980
3461.62 95500 103672 96670 87180 84040 94980
3464.51 115038 114344 99756 94018 88684 95786
3467.40 111210 109270 113856 115264 107894 97086
3470.30 100116 118058 104028 89788 118054 134834
3473.19 106016 62482 36704 31376 41754 39622
3476.08 32478 35096 27980 2650-22578 13790
3478.98 24456-3890-18078-22970-16688-22088
3481.87-32494-29306-11150-2594-23800-57352
3484.76-80672-75304-61612-61242-58034-60314
3487.65-66830-80730-81466-68170-81516-89896
3490.55-69158-69842-82162-76368-55572-54634
3493.44-56268-57932-73018-66828-54234-70304
3496.33-73596-58448-53592-41630-32020-24954
3499.22-19060-18552-14012-18260-19014 190
3502.12 6862 1004-2172-7396-6906 2668
3505.01 18662 46468 78752 84606 84170 97682
3507.90 128990 135364 133198 179274 205632 217114
3510.80 244132 248296 272866 332534 353276 354852
3513.69 387878 435850 459854 503150 549430 566052
3516.58 619036 656786 686718 743628 811926 895330
3519.47 944670 997348 1059916 1126170 1201308 1268084
3522.37 1337394 1413554 1509452 1623668 1732090 1808982
3525.26 1905552 2046318 2155050 2262466 2416016 2584386
3528.15 2728544 2869986 3048984 3236926 3434400 3615342
3531.04 3798284 4007784 4231364 4466876 4708742 4961290
3533.94 5211806 5473150 5724300 5987900 6251740 6518168
3536.83 6804680 7053630 7270290 7506864 7724138 7899970
3539.72 8055534 8193896 8307806 8375664 8417142 8422004
3542.62 8394980 8322618 8222002 8125104 8022862 7894666
3545.51 7757434 7629104 7511054 7452444 7417836 7363294
3548.40 7337122 7354550 7428684 7590706 7808334 8075374
3551.29 8365316 8674064 8979102 9213144 9372798 9478026
3554.19 9509884 9414140 9220984 8969606 8661040 8317302
3557.08 7935334 7527504 7139376 6762488 6353956 5927242
3559.97 5540318 5194166 4874520 4563044 4252646 3971068
3562.86 3711088 3502616 3317456 3113442 2896052 2682470
3565.76 2503956 2344252 2227756 2069432 1903764 1834122
3568.65 1747396 1621974 1496338 1370558 1265106 1163956
3571.54 1046946 953234 881534 806256 732826 661858
3574.44 570278 490592 445588 389408 313696 263452
3577.33 233564 201472 173020 131686 81278 51676
3580.22 39620 18950 16576 12042-14828-37536
3583.11-42504-38722-55424-77010-86172-126960
3586.01-206598-197796-159528-160214-202376-216740
3588.90-155318-149744-153736-157516-169154-161328
3591.79-167174-193202-202486-194820-183824-198328
3594.68-239004-223560-199444-198276-208708-223070
3597.58-226076-222890-220820-235770-249936-258856
3600.47-273008-261302-251884-265330-273226-292180
3603.36-291032-275632-283412-278084-283712-317638
3606.26-352122-362212-332274-305310-358944-471898
3609.15-397000-298550-310188-330004-329084-350140
3612.04-401748-353750-307378-316114-353622-370682
3614.93-346524-326682-329690-319936-355806-389412
3617.83-343746-328712-424618-461608-353020-302230
3620.72-305124-309042-314460-305376-297166-288330
3623.61-281692-297616-285370-265224-282050-287708
3626.50-286402-277338-394646-492200-414922-512106
3629.40-474716-286676-257858-243732-242226-250156
3632.29-249586-246136-265348-256346-242348-255784
3635.18-239822-225862-227918-234560-250514-254334
3638.08-255256-238334-213258-203634-202094-199568
3640.97-202098-212854-218428-223174-226848-213106
3643.86-211006-208440-204018-225020-253286-269000
3646.75-309724-297422-241280-336278-516414-416120
3649.65-278042-316510-329714-298802-241880-228630
3652.54-228706-234578-229132-220982-241378-248852
3655.43-328820-381442-281426-221846-202914-200048
3658.32-196168-197278-220756-217776-213042-214292
3661.22-215850-210550-193058-198828-202268-180420
3664.11-182296-193056-202348-199708-205894-210504
3667.00-214316-228342-309134-339874-288680-267448
3669.90-426154-531202-321638-222562-237886-238128
3672.79-227860-233434-270422-390078-406924-463954
3675.68-514036-303112-244086-256952-239238-228392
3678.57-261098-289396-240936-230280-227386-213412
3681.47-216126-228714-238256-235192-237588-259338
3684.36-255538-240186-247930-238638-236916-272002
3687.25-330046-585004-595808-338338-288016-283960
3690.14-307102-381930-353884-262046-268180-274548
3693.04-253144-246268-257994-265480-259958-251276
3695.93-268814-269718-247796-254488-261592-250660
3698.82-253788-254504-254576-256774-283918-340732
3701.72-296210-244106-254022-258408-265128-269756
3704.61-258784-254810-266870-257722-240706-239522
3707.50-257714-264116-328244-386056-312472-265000
3710.39-276564-291892-428768-484078-309192-230762
3713.29-239748-231614-240014-240270-235582-232366
3716.18-236902-246702-258680-251972-249120-252348
3719.07-237492-231916-228670-226010-255340-314154
3721.96-303838-246118-235502-231106-228390-245866
3724.86-243420-237158-297190-315182-256786-244068
3727.75-241168-234660-219302-217800-222892-231242
3730.64-229676-305634-459722-378748-256340-259004
3733.54-276144-331108-359090-325644-291304-405838
3736.43-438798-285392-252450-286936-265030-243928
3739.32-247464-245170-251192-278246-255284-259044
3742.21-265560-296734-396050-631472-828890-582058
3745.11-312650-278032-252332-252512-265782-292508
3748.00-296972-481576-675444-463968-290396-301496
3750.89-304926-548386-687902-401090-263670-282088
3753.78-259660-255932-259134-250782-276406-297744
3756.68-264920-248832-240234-254036-264416-311212
3759.57-324288-257774-238682-235798-227090-226440
3762.46-219510-229190-233650-254976-252902-259804
3765.35-298718-243656-203046-227642-226914-221594
3768.25-235146-257550-336674-328230-245616-241870
3771.14-235324-220466-216860-213448-209192-222350
3774.03-233256-222274-217696-222536-232184-241196
3776.93-227370-209328-206182-232290-306540-303212
3779.82-242582-228710-228832-222228-218820-232956
3782.71-242118-245910-252458-253900-260776-248304
3785.60-221228-238282-230552-222134-225448-211722
3788.50-225326-229008-240844-245320-214758-205620
3791.39-210822-209932-213088-213234-212966-224286
3794.28-235552-243256-239420-280414-274278-234496
3797.17-235686-238568-236428-238138-242276-269746
3800.07-289892-475756-609120-368702-259314-278416
3802.96-244346-206744-197926-204172-192476-207206
3805.85-265962-471400-452258-265132-234804-217806
3808.75-207668-199182-210982-209968-191280-204782
3811.64-196450-179568-187738-201518-215352-238656
3814.53-205440-302604-574692-446454-212776-203652
3817.42-191932-206368-203772-206988-207948-280148
3820.32-336262-327276-369172-277036-197928-199474
3823.21-176300-174986-170464-170438-178668-186156
3826.10-225906-218750-169036-169090-171726-163418
3828.99-158624-163874-169612-178896-259024-281966
3831.89-195212-169878-165500-167252-195098-272392
3834.78-249550-162338-160034-187692-263100-521318
3837.67-483402-214650-166716-164108-180390-197826
3840.57-228296-185104-133504-136072-157392-208694
3843.46-211678-163134-149102-135780-124764-129944
3846.35-137246-145600-147402-138172-130124-130212
3849.24-138292-142358-165032-173058-360838-508972
3852.14-298196-198188-389598-710548-619860-282234
3855.03-173290-144068-135598-157934-161130-117016
3857.92-122012-129588-114882-132556-139418-112130
3860.81-149430-206522-165116-143870-133602-124810
3863.71-139514-224510-289084-169954-99396-111424
3866.60-118560-115928-109702-121354-180064-246156
3869.49-359162-301582-138302-118576-106308-91482
3872.39-99492-113352-136140-166576-134902-82376
3875.28-76418-85194-100486-104000-90568-73204
3878.17-64576-74178-112490-171510-137454-86904
3881.06-76898-75090-73224-72866-55792-53508
3883.96-77992-83912-198132-247606-123894-71450
3886.85-58206-39686-26542-20236-32178-34356
3889.74-29774-64646-162784-126612-31090-22276
3892.63-9888-11702-28510-11864-206-20234
3895.53-3112 15186-17870-13308-22612-35118
3898.42-84238-153388-67528 1132 7952-35746
3901.31-124024-70774-8926-8954-54546-130880
3904.21-60466 4338-20236-20080 17298 56116
3907.10 69740 61822 50900 42578 45384 37566
3909.99 32818 59060 65626 46388 46650 46614
3912.88 61036 82440 66636 54370 68470 59146
3915.78 57162 52008 1100 22886 57032 62900
3918.67 90544 78850 63878 77772 75752 78044
3921.56 82676 81294 73274 68154 69380 61458
3924.45 56464 69318 68802 67192 85076 78262
3927.35 58982 72396 83396 64396 71214 64482
3930.24 62108 81368 77600 53976 43286 76154
3933.13 82046 80364 84758 66588 80460 97292
3936.03 102784 110072 104958 95208 96876 88986
3938.92 86820 97198 92224 69980 93438 118808
3941.81 73906 46024 58146 86768 108908 112268
3944.70 110880 116148 118426 124266 110570 105770
3947.60 118426 131578 139624 118722 105650 123528
3950.49 147632 159012 164274 160626 154960 178912
3953.38 199674 203528 202422 193198 206110 240728
3956.27 255540 246228 242666 243272 243256 253698
3959.17 265438 262974 265598 283610 291074 308224
3962.06 333986 347468 371452 384524 385560 404404
3964.95 407214 419202 454792 482104 504568 506240
3967.85 507014 509054 526056 548246 557064 559370
3970.74 566926 568524 570628 583934 595528 604162
3973.63 604558 626084 633304
##END=
