##TITLE=1,3-Dimethylbenzene
##JCAMP-DX=4.24
##DATA TYPE=INFRARED SPECTRUM
##CLASS=IUPAC A
##ORIGIN=NIST, Analytical Chemistry Division, 301-975-3108
##OWNER=COPYRIGHT (C) 2001 by the U.S. Secretary of Commerce
##DATE=01/06/01
##$SPECTRA VERSION=1.10
##$UNCERTAINTY IN Y=2.1 % relative (B=1.13E-04,C=1.33E-9,D=3.50E-14)
##CAS NAME=1,3-Dimethylbenzene
##CAS REGISTRY NO=108-38-3
##MOLFORM=1,3-( C H3)2 C6 H4
##MP=-47.87 C
##BP=139.1 C
##$NIST SOURCE=QUANT-IR
##SPECTROMETER/DATA SYSTEM=IFS66V (Bruker)
##INSTRUMENT PARAMETERS=KBr Beam Splitter; MCT Detector; Multipass cell
##STATE=gas
##SAMPLE DESCRIPTION=m-Xylene Primary Gas Standard
##PRESSURE=101.3 Pa
##TEMPERATURE=23 C
##SAMPLING PROCEDURE=1 L/min Flow
##RESOLUTION=1.9290
##DATA PROCESSING=Happ Genzel Apodization
##XUNITS=cm-1
##YUNITS=(micromol/mol)-1m-1 (base 10)
##XFACTOR=1.0
##YFACTOR=9.0949E-13
##DELTAX=0.9645
##FIRSTX=575.652
##LASTX=3974.606
##FIRSTY=-3.01E-07
##MAXX=3973.64
##MINX=575.65
##MAXY=.0005434
##MINY=-1.02E-06
##NPOINTS=3526
##XYDATA=(X++(Y..Y))
575.65-331956-25543-601878-889053-949164-7444
580.47 172941-654417-1037182-527161-681470-564760
586.26-476077-758807-632402-276624 17446 132592
592.04-558731-930925-812848-450988-700088-1019956
597.83-1122138-433485-272887-639188-728792-580535
603.62-616394-285627-577264-380709-390572-564476
609.40-724271-758685-471902-321116-640469-627028
615.19-429008-178203-156589-447611-748192-715471
620.97-674678-306022 4912-366573-703115-445766
626.76-227297-247472-494204-339776-510470-475005
632.54-247899-330000-598635-513104-483188-474520
638.33-416996-451599-518931-463530-528686-186774
644.11-138959 25927 39903 162317 261742 384745
649.90 257485 482696 734918 1046695 1184856 1679865
655.68 1778667 1692219 1567258 1748380 2085270 2633372
661.47 2700745 3089587 3728824 4965508 6750805 8308859
667.26 8369216 9061577 10432647 12842387 15593831 19141137
673.04 22847002 27092324 31453631 36467094 40847436 45180555
678.83 48347899 51461659 53414490 55725284 57111101 59028046
684.61 61373998 67417102 77362094 99972001 158337118 228191941
690.40 184189215 102108406 75904396 72000690 75382518 73333114
696.18 68613675 65436274 64353136 62539795 60757440 56562055
701.97 51139489 44805211 39048937 33248195 28144669 22897838
707.75 18677216 14893353 12014520 9356353 7611744 6127718
713.54 5071383 3919782 3298665 2737474 2587091 2082521
719.32 1936871 1873075 1848952 1529666 1576273 1445720
725.11 1573442 1742221 1978232 1942548 2198987 1957598
730.90 1723686 1474864 1682918 1839322 1872666 1803603
736.68 2271948 2861320 3901863 5068542 6310954 7320891
742.47 9303142 11912599 15577704 20311575 26431746 33578187
748.25 42402082 52492217 64228850 76973479 90694868 104715298
754.04 118738223 131333890 142584241 152663382 162317108 170182325
759.82 176378605 180433522 185894634 198503202 227978849 288756283
765.61 406423098 569587372 597561043 387024078 224108147 188684106
771.39 183879228 184305425 184064841 183406333 178856471 171061442
777.18 161419934 150414386 137203284 122097626 105866205 90184000
782.96 75353322 61804856 49628958 39343298 30604013 23634913
788.75 17993292 13737095 10429211 8205357 6569248 5465056
794.53 4680704 3805496 3032886 2586716 2089973 1840601
800.32 1804373 1892310 1685887 1424906 1171213 1160090
806.11 1232034 1142350 1078313 989371 760863 735016
811.89 861519 811198 506428 520657 701344 743543
817.68 587785 693754 787549 910180 867911 628748
823.46 417494 353918 447317 545624 533102 548748
829.25 451327 405729 511635 450066 310494 456152
835.03 493240 430911 416501 441264 403220 409174
840.82 430705 465301 569744 695699 679055 717650
846.60 789317 974332 1138430 1387721 1644638 1718118
852.39 1885677 2426359 3055229 3800613 4537917 5314267
858.17 6122235 7078151 8089335 9296874 10485710 11277374
863.96 11892256 12531366 13165816 13838450 14336004 15028641
869.75 16048482 17773709 20802354 27244393 37594749 44866266
875.53 36822823 21962547 15667894 14594213 14481434 14218540
881.32 14157628 14035544 13888619 13757074 13274341 12535318
887.10 11885455 11180382 10508495 10025834 9935234 10176482
892.89 10987806 12087738 13391229 14747734 16141271 17325873
898.67 18056146 18076527 17469742 16849006 16857420 17716524
904.46 19302838 19852227 18013949 15621374 15210303 16009932
910.24 16339284 15601426 14026754 11795855 9339420 6888170
916.03 4947367 3576020 2665747 2023636 1631436 1424203
921.81 1340197 1392449 1404609 1289696 1239016 1339265
927.60 1432722 1422565 1507833 1564635 1638706 1730708
933.39 1809480 1884014 2092210 2216703 2230091 2301848
939.17 2324100 2303525 2396069 2489685 2687535 2778516
944.96 2750361 2718415 2785583 2848021 2871693 2983668
950.74 3121900 3165248 3234219 3237712 3288367 3392883
956.53 3467982 3464746 3503007 3581507 3679965 3782996
962.31 3981536 4134029 4296094 4439589 4528813 4739651
968.10 4949663 4987992 4999558 5071130 5273376 5442098
973.88 5421901 5268331 5102078 4963346 4941027 4953943
979.67 4931313 4826322 4767952 4815922 4889857 4873595
985.45 4907015 4986021 5090886 5204294 5440968 5721562
991.24 5934699 6235507 6641650 6931979 7241562 7702963
997.03 8179350 8637840 9070262 9356202 9614360 9959401
1002.81 10389680 10755800 11044186 11283111 11305320 11132997
1008.60 10829832 10393631 10085363 9868532 9687915 9405793
1014.38 8875052 8447227 8205263 7869647 7503761 7101917
1020.17 6715935 6341097 6136916 6196083 6323278 6610716
1025.95 6991319 7443206 8020917 8665084 9386981 10089859
1031.74 10759720 11507746 12323709 13065758 13799104 14609280
1037.52 15639059 17117462 19472347 22359640 25520132 27091890
1043.31 26273973 24624826 23124648 22922259 22893253 22340138
1049.09 21687424 21345455 21252229 21136210 20924865 20486724
1054.88 19937536 19451864 18770698 17905304 16892962 15826399
1060.67 14735558 13808367 13105207 12435868 11699769 10997212
1066.45 10394627 10012193 9765694 9425185 9015146 8800901
1072.24 8694231 8697527 8842337 9010091 9283465 9748976
1078.02 10326305 11161256 12142820 13219780 14508772 16085800
1083.81 17935571 19905794 21952093 24024009 26020621 27788840
1089.59 29096248 29878129 29557475 27490256 24319284 22060324
1095.38 21890837 22932624 24429454 25896534 26628283 26281087
1101.16 24973541 22929127 20576322 18213867 15898246 13871866
1106.95 12156725 10616675 9262999 8196663 7419036 6912263
1112.73 6540836 6275329 6069952 5910439 5835306 5854182
1118.52 5801805 5628905 5378571 5097711 4857106 4663060
1124.31 4583606 4613203 4816925 5023773 5005455 4915042
1130.09 4686589 4404846 4243042 4077940 3870564 3614483
1135.88 3386099 3158517 3077148 3034277 2941772 2823495
1141.66 2665660 2610578 2654614 2728898 2747086 2863149
1147.45 3130081 3361007 3486049 3625497 3987085 4389810
1153.23 4527770 4454903 4408245 4668560 5269593 5877363
1159.02 6222772 6760086 7707036 8798364 9670124 10109434
1164.80 10072819 9578633 8833331 8281612 8692762 10227307
1170.59 10628817 8633989 7243501 7467910 8284501 8780684
1176.37 8687619 8116170 7251513 6150832 5058832 4218070
1182.16 3597481 3179856 2852897 2677852 2577190 2577535
1187.95 2575052 2582980 2601140 2473756 2264614 2150481
1193.73 2092830 2052300 1986142 2052368 2194494 2201931
1199.52 2146971 2068036 1996448 1927992 1801008 1737659
1205.30 1714695 1676674 1593993 1473651 1442400 1488076
1211.09 1417407 1350231 1355292 1346204 1338709 1318530
1216.87 1242627 1187418 1185619 1253940 1241112 1139246
1222.66 1159513 1253471 1248216 1239435 1247792 1257247
1228.44 1305108 1416579 1426051 1498446 1617309 1672177
1234.23 1752743 1849481 2023810 2195840 2322460 2500029
1240.01 2656568 2856902 3143286 3370212 3520991 3629015
1245.80 3620787 3522185 3400971 3262570 3191509 3291476
1251.59 3482749 3773936 4057268 4307425 4469493 4475772
1257.37 4380593 4162482 3966644 3791124 3560550 3374949
1263.16 3160783 2977702 2850472 2807700 2877893 3044213
1268.94 3096825 3056967 2949069 2749566 2573303 2452589
1274.73 2286210 2177664 2161313 2138810 2151235 2143799
1280.51 2092380 2018777 1924424 1913955 1850635 1746527
1286.30 1716591 1670814 1606731 1739889 1794629 1764847
1292.08 1718662 1771781 1961672 2064079 2118951 2228152
1297.87 2256672 2169703 2073162 2089379 2056265 2110076
1303.65 2142764 2136970 2244587 2335456 2396318 2451439
1309.44 2480847 2433176 2365364 2390097 2378815 2341796
1315.23 2340181 2342211 2394887 2419477 2344960 2323371
1321.01 2319638 2375911 2434866 2409851 2415670 2523218
1326.80 2681205 2704367 2636957 2630105 2681035 2739042
1332.58 2785619 2843782 2913895 2968403 2938863 2932981
1338.37 3008764 3185943 3326518 3510748 3652178 3750158
1344.15 3909205 4039031 4216773 4394442 4617419 4872180
1349.94 5032293 5117946 5497172 5954494 6249269 6674400
1355.72 6937010 7252104 7722688 8071403 8396120 8805050
1361.51 9154122 9590472 10198445 10730575 11379660 12149035
1367.29 12733071 13347207 14199741 15461418 17050845 18862668
1373.08 20941847 23130303 25170972 26945593 27966529 28733923
1378.87 30738440 33916991 34186923 31892848 31200913 32648049
1384.65 35085726 36961801 37228161 36109495 34349911 32421563
1390.44 30702200 28852766 26531512 24375752 22894683 21971920
1396.22 21496838 21123467 20903726 20757659 20489119 20003094
1402.01 19267023 18510397 17931564 17583928 17409896 17411062
1407.79 17591128 17898040 18306778 18572823 18725249 18740649
1413.58 18746474 18807953 18931472 19155809 19224921 19200390
1419.36 19566368 20011492 20349114 20488357 20567286 20644498
1425.15 20753898 21038357 21500347 22059818 22810162 23883526
1430.93 25263758 26889472 28705138 30721787 32572835 34364865
1436.72 36397095 38195929 39544459 40657062 41647648 42700301
1442.51 43884981 44896944 45947830 47200043 48615044 50104105
1448.29 51081639 51334612 51384381 51249788 50615830 49719405
1454.08 49052154 48366558 47714829 47391326 46851022 46252450
1459.86 46050041 46390415 46930782 47469763 47941023 48680073
1465.65 49630014 50921298 52687011 54464241 55793264 56607374
1471.43 57156985 57789138 58680127 59805589 61288774 63456651
1477.22 66202518 68740499 70222983 71629324 74649349 78889723
1483.00 82952699 86842398 90898640 94939137 98546652 101202219
1488.79 102728493 104469169 107326167 110934505 114292483 116768439
1494.57 117852195 117758575 117345739 117485074 119015080 121193059
1500.36 121867692 120188567 116306847 112014931 108500290 105598045
1506.15 102463414 98745120 94125536 88857201 83388384 77931140
1511.93 72894757 68920771 66307041 64682160 62978294 60655298
1517.72 58365177 56648841 55367739 54458655 53746362 53058928
1523.50 52541658 52345102 52699536 53156619 53072960 52425735
1529.29 51704769 51098907 50378735 49289230 47929665 46665977
1535.07 45650661 45048984 44574906 44035486 43555320 42640698
1540.86 40862134 38639350 36173333 33454462 31007346 28967424
1546.64 27117415 25489974 24093802 22994332 22130395 21377488
1552.43 20625303 19971784 19600150 19187122 18601327 18061322
1558.21 17809626 17641968 17688195 17634718 17558229 17588668
1564.00 17600255 17726370 18012470 18402006 18724608 19014757
1569.79 19294306 19417635 19407588 19383992 19265612 18904688
1575.57 18892923 19529959 20008324 20285475 20551321 20993203
1581.36 21677265 22687705 23838753 25103555 26290780 27755212
1587.14 29579452 31772401 34208475 36913980 39497644 41534702
1592.93 42760533 43124746 43033972 43530501 45800330 50595634
1598.71 57276256 64592131 71374134 77215031 81879415 86181274
1604.50 91015470 97596602 107200415 120408218 134877415 147921891
1610.28 158350736 165111573 165346778 159076538 150814973 147748746
1616.07 155073633 170322100 167021974 139296834 123195758 124335613
1621.85 129363140 129949595 123441565 110130494 92838095 74191115
1627.64 56935671 42448704 31215012 22901188 17171121 13201383
1633.43 10521028 8799649 8094746 7690197 7229059 6628007
1639.21 6118315 5770161 5585362 5451752 5498313 5611272
1645.00 5804064 6203166 6567274 6855979 7084449 7138976
1650.78 6832258 6226371 6134749 6461254 6847519 6871439
1656.57 6335488 5692627 5551029 5655433 5697324 5436192
1662.35 5005236 4543476 3991444 3375709 2789663 2229217
1668.14 1760523 1553039 1395756 1218359 1123505 974517
1673.92 785547 783533 890369 822371 716415 630997
1679.71 623695 616831 511540 312536 57535 254490
1685.49 595934 579062 566241 577062 649693 756582
1691.28 815397 877485 960885 654708 583798 1077464
1697.07 1357873 1318879 1078175 1211284 1496415 1440852
1702.85 1298282 1326134 1534606 1610728 1526609 1348380
1708.64 1299546 1390521 1497748 1513744 1486893 1326509
1714.42 1218871 1142182 921543 994763 1175609 1259939
1720.21 1332558 1454707 1620094 1773270 2046103 2373000
1725.99 2671816 2937269 3164295 3340543 3550333 3719920
1731.78 3933483 4253884 4915009 5926168 6899212 7635365
1737.56 8186809 8555255 8965396 9253249 9267685 9025650
1743.35 8562483 7945001 7408228 7269674 7554931 8159547
1749.13 8815955 9099670 9286278 9185448 8771831 8298165
1754.92 7813378 7406930 7149686 6858309 6583367 6384876
1760.71 6269715 6426930 6752565 7141276 7543999 7750455
1766.49 8071346 8630166 9181224 9431913 9250677 8670148
1772.28 8008549 7314228 6555710 6200245 6329048 6889495
1778.06 7681684 8040330 7739067 7068995 6352909 5680244
1783.85 4996160 4359089 3675281 3080188 2625499 2229656
1789.63 1849489 1509442 1246527 1175318 1171632 1111512
1795.42 1045362 1008934 1025075 1015757 1095080 1226227
1801.20 1356635 1489758 1559391 1633078 1738621 1847710
1806.99 1961869 2051641 2112886 2277205 2409598 2378854
1812.77 2305945 2284560 2313396 2380873 2472727 2466879
1818.56 2373406 2305806 2228357 2161697 2125839 2046930
1824.35 2021050 2085094 2156246 2258880 2362789 2529878
1830.13 2801667 3138660 3483986 3836736 4249125 4631158
1835.92 4946647 5237711 5526482 5759795 5958223 6276806
1841.70 6960111 7917802 9220611 10828360 12407397 13679936
1847.49 14440593 14643273 14208951 13311535 12741888 13207871
1853.27 14514032 14362500 11512967 9552099 9954867 11001322
1859.06 11573327 11320533 10335463 8917933 7357536 5754392
1864.84 4285367 3113128 2327064 1817079 1578008 1517819
1870.63 1435408 1374638 1367484 1358200 1352026 1301030
1876.41 1242369 1161538 1093532 1082759 1061771 1074767
1882.20 1168894 1189834 1105998 1099847 1185132 1282976
1887.99 1352972 1401149 1428892 1375725 1278712 1225532
1893.77 1304379 1456073 1509123 1484652 1490338 1530132
1899.56 1583531 1688558 1821536 1915728 2024867 2145832
1905.34 2320692 2551108 2698049 2835579 3053503 3309733
1911.13 3546718 3840601 4118715 4482629 4842645 5032734
1916.91 5248167 5728185 6343130 6997230 7721572 8497046
1922.70 9317680 10195417 11091516 11921640 12577147 13050222
1928.48 13194519 12928969 12083193 10731118 9647675 9295989
1934.27 9408138 10329100 11801934 12584102 12321046 11374475
1940.05 10182830 8939115 7691909 6471070 5334230 4382938
1945.84 3604630 2941942 2397667 1973285 1577855 1203599
1951.63 897379 662534 510473 411614 345646 248877
1957.41 175333 109639 75404 15300-31167 45813
1963.20 129513 128886 115700 143901 205671 240508
1968.98 211314 159681 157289 133202 118293 118441
1974.77 90894 80090 57575 57561 29739 36629
1980.55 24154 19663 35903 13134-16888-40573
1986.34-60816-75190-51189-12581-53576-65397
1992.12-37940-56624-52345-4935 33943 16788
1997.91 19516-5603-13395 7911 9546-16913
2003.69 9614 64131-10147-126323-85540-39552
2009.48-93860-118423-106304-95627-87426-84775
2015.27-75443-81330-49727 4400-10519-50991
2021.05-47217-10739 5098-33045-80450-73069
2026.84-103596-165426-210864-224591-226924-211592
2032.62-183631-147983-220174-307633-325230-316651
2038.41-326588-327459-353849-399727-447209-501541
2044.19-499259-465043-457344-428517-455186-511186
2049.98-512982-487724-472515-506332-546394-536583
2055.76-512896-463135-445080-439079-385358-389021
2061.55-414709-383664-373986-306022-230129-200470
2067.33-151486-93239-90252-56452-8752 50610
2073.12 38569 10271-62720-84340-61405-97379
2078.91-46060 56900 135460 121097 67248-14512
2084.69 13654-13841-164707-225411-216821-145497
2090.48-197413-196941-156259-57647-24422-93058
2096.26-7990 197936 338702 289496 278507 306658
2102.05 427533 449375 513665 635716 671266 587063
2107.83 412949 422821 595914 744852 603633 479277
2113.62 434317 505766 258700 11115-35591-14755
2119.40-210716-373711-364468-203107-204413-337525
2125.19-355658-227456-215003-365789-428261-355604
2130.97-312377-381987-361328-281205-272939-279365
2136.76-245194-227431-125387-89432-100178-106745
2142.55-66538 21532 75020 71961 64146 43553
2148.33 33848 141989 232318 142125 72083 138132
2154.12 119758 15751 78409 193656 120561-4692
2159.90 39318 131267-29507-185616-38403 70021
2165.69-80758-201772-75429-40197-217900-177807
2171.47-22530-111464-238000-108921 1127-176900
2177.26-276371-136291-109944-257925-277500-146766
2183.04-185657-303485-251323-238523-308061-267392
2188.83-148696-198700-326825-247706-214943-332076
2194.61-287469-201041-247748-277634-220453-206661
2200.40-246059-188373-147043-180931-122475-46389
2206.19-86832-109083-43586-8643-32577 21279
2211.97 83369 62689 55499 74336 72620 53959
2217.76 40865 19385 48144 52700 10541-16546
2223.54-26097-29980-45818-87441-121728-167481
2229.33-199327-189677-233990-219434-170227-149983
2235.11-125162-151878-231419-253820-160016-108578
2240.90-163615-197479-159823-130214-103042-99523
2246.68-98470-75838-63365-64637-62204-23223
2252.47 46011 114460 173689 269176 291647 335631
2258.25 458677 510615 480811 506460 534878 514071
2264.04 530261 553507 639443 712644 692316 694551
2269.83 752331 800719 806203 803109 815508 907934
2275.61 1030482 1080452 1141239 1198687 1287710 1400520
2281.40 1424843 1433239 1471898 1540371 1596143 1706034
2287.18 1785382 1789164 1823128 1881870 1895651 1894105
2292.97 1896843 1764901 1532842 1334982 1202737 1062351
2298.75 954592 846071 736538 649937 590598 585977
2304.54 527907 454809 424291 431046 478958 516639
2310.32 550362 528027 515787 509766 559243 616809
2316.11 750182 839329 930180 1022227 1168919 1234934
2321.89 1308745 1355366 1392113 1413461 1439983 1396382
2327.68 1425737 1426425 1515265 1699373 1874339 2028131
2333.47 2164527 2223425 2206836 2176380 2153305 2071312
2339.25 2036980 2003260 1914313 1839461 1826536 1809690
2345.04 1817251 1862107 1833420 1720260 1692610 1732174
2350.82 1726477 1702585 1651931 1588876 1603116 1657803
2356.61 1631374 1622321 1590776 1543738 1498337 1428347
2362.39 1380240 1393985 1338245 1253344 1189453 1138075
2368.18 1069438 981613 927442 893344 797065 719070
2373.96 663649 673956 669536 680243 677425 707970
2379.75 754111 809197 876707 925646 969743 990908
2385.53 1025575 1130176 1280531 1362244 1351647 1342693
2391.32 1362645 1368612 1378744 1409306 1468053 1432667
2397.11 1425690 1508771 1516187 1475745 1490420 1508569
2402.89 1455946 1458603 1494604 1521315 1570849 1593589
2408.68 1632941 1690759 1722264 1753764 1836805 1939109
2414.46 2019446 2099369 2166884 2237840 2245680 2162799
2420.25 2171194 2211047 2146986 2097999 2134217 2171194
2426.03 2139549 2098189 2010971 1913743 1826258 1810187
2431.82 1745147 1702211 1657978 1634916 1637450 1603371
2437.60 1582239 1569516 1545696 1541232 1555343 1542964
2443.39 1574154 1547046 1519995 1543434 1499338 1484941
2449.17 1503616 1496836 1486157 1522312 1504979 1503133
2454.96 1501460 1485113 1469446 1455754 1437259 1417469
2460.75 1420681 1414103 1401109 1426154 1472183 1519427
2466.53 1544267 1543897 1600709 1603573 1528915 1466599
2472.32 1424819 1402905 1388599 1400567 1420603 1375872
2478.10 1439669 1494004 1428222 1419797 1441138 1454757
2483.89 1438012 1341295 1262809 1270475 1324100 1351755
2489.67 1352164 1327227 1348002 1314756 1284438 1324724
2495.46 1281775 1234510 1281122 1301673 1252389 1249692
2501.24 1193022 1159794 1215634 1238925 1187244 1073931
2507.03 980949 879952 797761 776984 769506 740973
2512.81 643511 610987 600699 554049 486191 459074
2518.60 438075 397339 406837 407299 388136 358893
2524.39 389913 406921 380195 423770 577689 738330
2530.17 808983 856531 951106 1069797 1192591 1234603
2535.96 1231448 1254364 1256656 1401687 1523192 1566772
2541.74 1515456 1409426 1385314 1408102 1389758 1346203
2547.53 1287012 1223661 1132419 1020598 799790 621577
2553.31 530931 479208 487248 489128 422224 389508
2559.10 390516 390000 421601 445371 366850 312578
2564.88 308373 291141 296633 308125 298723 329836
2570.67 328310 290354 269944 286972 298976 305246
2576.45 288064 243356 179596 152018 175844 203043
2582.24 224734 266522 310054 350947 358884 415935
2588.03 449971 498137 515114 515871 536704 553912
2593.81 466678 489129 574680 639631 722975 768122
2599.60 772593 772468 735669 702954 647959 610618
2605.38 606723 587776 618317 662916 672479 716313
2611.17 716674 664269 661596 743049 747551 721495
2616.95 693547 680357 714932 788095 866301 899551
2622.74 975946 1029987 943520 904549 911629 891624
2628.52 859066 905317 944292 925419 937891 995943
2634.31 1039475 1095812 1143278 1119149 1060378 979132
2640.09 912059 840689 828450 837801 789043 780911
2645.88 685098 625277 654254 700371 741368 768687
2651.67 727045 630198 583267 505508 388979 342203
2657.45 388084 367080 288129 322311 335739 279554
2663.24 209466 102363 110247 193530 174789 77506
2669.02 46434 83277 47255 7366 12355 98589
2674.81 110983 72122 60562 4285-3205 96391
2680.59 142665 88420 18060 14342-18103 2006
2686.38 73217 133660 81398 53507 159529 276826
2692.16 229083 134638 74596 60071 70178 141993
2697.95 211317 246260 334931 421515 437798 482139
2703.73 569996 593974 627352 701179 794669 839422
2709.52 927856 1012019 1034183 1079728 1164603 1258464
2715.31 1287503 1401270 1535800 1650111 1740231 1798670
2721.09 1889052 2087917 2320556 2561134 2817200 3171952
2726.88 3599051 4156830 4844038 5679459 6705058 7907931
2732.66 9155709 10482650 11679804 12602749 13093885 13064091
2738.45 12790205 12931573 14307240 16441695 15581650 13509613
2744.23 13978789 15498258 16492637 16649895 16010636 14556685
2750.02 12614903 10570565 8773969 7274871 6136266 5415222
2755.80 4796746 4191327 3735986 3376466 3144475 2932224
2761.59 2720100 2517546 2368805 2310709 2251961 2116991
2767.37 1988129 1944125 2000911 2018191 1973156 1894988
2773.16 1836737 1841650 1893058 1940062 1952512 1960641
2778.95 1974705 1944017 1977739 2036703 2048693 2088839
2784.73 2157178 2176742 2219435 2329434 2421984 2540670
2790.52 2636241 2689974 2703257 2802834 2921768 3019285
2796.30 3113892 3178663 3324679 3414528 3494183 3546110
2802.09 3647539 3778491 3928939 4088445 4177546 4289738
2807.87 4513793 4671846 4803476 4980056 5256383 5455753
2813.66 5613926 5813253 6053567 6294073 6498509 6811486
2819.44 7124960 7390668 7723386 8028205 8281269 8583270
2825.23 8930308 9298396 9609668 10000125 10368772 10607891
2831.01 10811006 11126035 11498132 11924030 12316854 12748822
2836.80 13256128 13804474 14361454 14982777 15621894 16382190
2842.59 17267552 18200262 19249956 20369084 21585485 23039908
2848.37 24487025 26057863 27933368 30053453 32371890 34914043
2854.16 37630600 40537911 43873727 47488459 51239574 55468671
2859.94 60060711 64847285 69924259 75313048 81008283 86996986
2865.73 93059047 98952862 104679253 110111253 115121095 119520673
2871.51 123280142 126519702 129078447 130961110 132336481 133290458
2877.30 133709882 133851427 133716794 133117233 132042108 130532959
2883.08 128542381 125904037 122880275 119630402 116213172 112847790
2888.87 109779427 107159087 104861052 103110736 101940897 101190205
2894.65 100774960 100680784 100922333 101524911 102252902 103103188
2900.44 104484187 106365402 108326576 110347882 112453787 114555668
2906.23 116768537 119057482 121282978 123583452 126087230 129000344
2912.01 132494963 136633506 141177926 146215136 151977035 158337512
2917.80 165475198 173376482 181908745 190682239 199580832 208653465
2923.58 217818851 226742166 235169003 242797792 249624942 255969865
2929.37 262045620 267819504 272940714 276972245 280062696 282394661
2935.15 283583418 282650966 279363190 275280120 271401430 267519859
2940.94 263493563 259411947 255341260 249629230 238321372 221382207
2946.72 203962083 188827388 176560446 167027683 159831742 155103499
2952.51 150881148 143069541 132821228 124636735 119252614 115677127
2958.29 113253299 111351565 109011425 105959333 102508802 98776463
2964.08 95097773 91425648 87692184 84159433 80945605 78206834
2969.87 76151318 74817538 74153871 74263192 75002901 76009640
2975.65 77140401 78315533 79662010 81713177 84555945 87938886
2981.44 91503780 94594621 96496750 96883225 96387394 96430426
2987.22 98009439 101042949 104281383 106372683 107715926 109466404
2993.01 112200193 115575239 118717720 120918069 122216093 123278349
2998.79 124632579 126904739 130370998 135116717 140735516 146585633
3004.58 151584999 155042266 157294505 159757120 163709951 169318703
3010.36 176261379 183722078 190281590 194501852 197025494 199455138
3016.15 202580275 207222300 213859362 221978122 230223070 236944342
3021.93 241685132 245501684 248907645 252169248 256064992 260567061
3027.72 263495988 263801133 263614760 264542152 265980441 266610331
3033.51 265323179 261711761 256009363 248900282 241596624 235355860
3039.29 230102527 224735851 218057292 211065856 205683609 202376720
3045.08 199743271 196142738 190694147 183618004 175937655 168495993
3050.86 161919684 156621358 152661164 149910754 148153464 147121512
3056.65 146375918 145702592 144633008 142458434 138800834 134259430
3062.43 130392256 128837198 129391077 131299446 133929760 135230982
3068.22 133289956 128072306 120880343 112964726 104937807 96984595
3074.00 89228198 81931638 75264626 69116743 63524178 58475800
3079.79 53996517 50176907 46918802 44369650 42073547 40014821
3085.57 38295325 36883169 35831675 34886034 33769898 32537295
3091.36 31310716 30195884 29317285 28601029 27930181 27262894
3097.15 26712806 26396450 26133857 25821811 25431578 24984602
3102.93 24507135 24159279 23863324 23578099 23445179 23355312
3108.72 23292466 23244519 23147869 22964391 22809229 22582798
3114.50 22245461 21618561 20809190 19962541 19265095 18569360
3120.29 17911543 17489516 16893458 16197174 15472160 14584816
3126.07 13489656 12336208 11083148 9907618 8800683 7774012
3131.86 6963008 6322045 5686640 5128166 4614051 4090994
3137.64 3589221 3235843 3050499 2826600 2548438 2302924
3143.43 2161544 2026102 1844886 1769513 1704899 1596664
3149.21 1512462 1430525 1322640 1249201 1234565 1209002
3155.00 1182353 1155171 1152505 1127870 1037973 980472
3160.79 971043 949207 840077 795126 799985 779071
3166.57 750289 779438 728368 667973 680851 791508
3172.36 782861 754082 598861 482242 561735 697220
3178.14 706567 684117 676594 744552 718372 624524
3183.93 572344 550634 598025 616205 550706 491939
3189.71 488807 490135 432649 445453 535731 588310
3195.50 535344 543234 483948 367220 284156 335539
3201.28 333454 347414 397624 342529 239338 216594
3207.07 319820 368742 363575 427731 478446 398267
3212.85 392120 334609 196179 85465 22063 23142
3218.64 26798-27148-93341-170229-304416-418557
3224.43-429142-471987-564606-516090-466019-416803
3230.21-288507-333815-488700-648909-781205-758687
3236.00-704185-497254-381989-425001-481931-431334
3241.78-450790-409730-370757-326480-255321-325767
3247.57-305784-240562-287591-216481-34937 62847
3253.35 20906 27575 104804 228319 324263 386318
3259.14 327296 278063 339302 332605 284952 313356
3264.92 360520 446263 429855 475323 480380 346184
3270.71 253206 292944 258846 225795 204626 116514
3276.49 152903 224435 174065 88969 36509-43349
3282.28-86211-35647 38566 62680 38990 43740
3288.07 34399 18407-10914 6249 56268 81490
3293.85 70351 75356 69548 79500 6904 35004
3299.64 63665 36012-15147-48391 72609 58167
3305.42-14128-30040-21223-44118-62301 21798
3311.21 24904 684-20902-93128-95567-92956
3316.99-87204-73431-74143-69756-7308-2546
3322.78-42030-113596-162918-96180-74727-64954
3328.56-108706-41268 32883 15832 358-49091
3334.35-79086-17217 47274-39231-114795 6598
3340.13 73301 103155 69885-59577-102719-3089
3345.92 41136 73694 57063 56140 44249-68314
3351.71-106932-46709-106584-94979-33474-30089
3357.49-41031-87930-151098-121756-93602-132833
3363.28-149089-209814-236436-152314-102820-117197
3369.06-102275 61751 178954 84615 47531-35820
3374.85-12602 42524 32342 121813 144272 122814
3380.63 179593 93886 76802 228227 326753 244200
3386.42 227604 311363 273864 381390 400582 305532
3392.20 204340 251733 482280 657685 640931 440006
3397.99 383762 358647 204038 271031 402650 454640
3403.77 458283 400605 291798 305896 392624 381307
3409.56 390779 371088 438329 368454 206268 290588
3415.35 376212 474669 477957 390850 413392 538341
3421.13 554592 508320 461566 419274 467026 405289
3426.92 341970 431723 500548 481323 345693 344669
3432.70 474892 545966 436211 358270 340006 341940
3438.49 352140 440518 475029 435466 337580 326790
3444.27 290440 331927 375298 463595 473408 433245
3450.06 422039 489098 441172 415074 483160 454605
3455.84 394950 490404 577543 503896 400389 326167
3461.63 354497 361929 426297 388353 370076 461169
3467.41 456141 484466 497022 444886 400093 344424
3473.20 232847 192440 139347 106441 134531 28514
3478.99-21129 16932 47945 78491 8313-64286
3484.77-160804-190845-204675-289899-298541-209179
3490.56-201380-246368-352858-395954-299998-213821
3496.34-285970-281667-224308-290792-291986-337211
3502.13-389432-436303-482643-399727-290932-301795
3507.91-304657-305274-320892-311337-396094-396007
3513.70-391092-359175-258535-218886-250335-341011
3519.48-408170-308681-227047-297887-353012-239217
3525.27-225420-315933-243671-205584-210746-147846
3531.05-121058-71701-74052-110050-115275-12729
3536.84 69951 55753 117905 210780 229520 146389
3542.63 160715 327400 434107 478546 485560 486442
3548.41 560653 665588 565081 482963 557550 576714
3554.20 546508 531165 516284 555309 510565 425724
3559.98 418894 483730 515403 385217 310341 399250
3565.77 385292 186744 118563 177554 117098 159017
3571.55 230814 181192 161747 188748 138488 119017
3577.34 115011 121657 89910 67327 66189 50644
3583.12 80781 126237-8455-169073-185500-140638
3588.91-86158-145299-263885-274966-190682-205669
3594.69-181815-166708-228549-279020-328224-346582
3600.48-319834-220742-324366-393073-319147-307840
3606.27-357554-455571-519437-315035-199651-309118
3612.05-367522-390058-411207-297678-248735-272016
3617.84-399869-455528-307833-283889-305398-236791
3623.62-239478-281004-304543-355001-474000-490337
3629.41-354428-334518-339727-295750-224775-170009
3635.19-256358-310409-323873-354193-260855-206055
3640.98-312319-355087-279119-215338-237266-358283
3646.76-390142-455467-529039-382842-299709-294365
3652.55-373673-399139-440391-424079-276471-203732
3658.33-235963-341690-392561-352235-331276-362400
3664.12-320705-334351-351871-311069-330703-500264
3669.91-575696-277956-164284-311427-612663-722825
3675.69-516449-304770-240350-264583-293457-225832
3681.48-226504-265334-362513-346098-219705-336745
3687.26-656904-548497-400317-345753-227212-266013
3693.05-316656-158580-208934-335976-288402-223083
3698.83-166437-159474-216275-92667-52142-74402
3704.62-145886-116756-140617-245088-399931-311329
3710.40-270500-279588-110305-78382-144905-186846
3716.19-122390-69828-122912-72845-10240-92598
3721.97-116371-116990-69843 59438 112261 163473
3727.76 120576 179372 271693 193592 221918 346768
3733.55 269761 225880 239257 356536 496965 549075
3739.33 556845 526305 520999 440319 44329 133980
3745.12 601990 718287 560812 252213 243355 402565
3750.90 228021 356887 688646 765486 733359 713545
3756.69 740165 574812 434832 584332 743873 789091
3762.47 839424 783514 760826 841327 906927 887230
3768.26 771278 750858 896803 929001 840956 807585
3774.04 869424 898147 851502 796143 769121 693461
3779.83 783439 882701 882108 802725 760510 725708
3785.61 649853 540889 494866 430818 457499 521879
3791.40 548883 544105 507038 442559 264910 252985
3797.19 348013 290518 108245-140646-105776 119738
3802.97 223751 204021 166868 114010 210383 231474
3808.76 198812 259082 142818 64242 116976 172932
3814.54-61312-45039 281946 386528 329975 193189
3820.33 96703 208303 368007 422074 509862 499103
3826.11 401812 472272 572139 519374 374167 414734
3831.90 565529 537200 458446 527768 475168 225217
3837.68 309032 508576 450703 477449 554214 537511
3843.47 555854 617149 592455 563508 536885 554880
3849.25 501558 338226 169514 21905-251076 49914
3855.04 374934 466183 465499 401850 447950 352106
3860.83 171443 284200 367020 215922 201865 377366
3866.61 447109 432855 224627 175344 367381 499769
3872.40 512066 504285 579779 659437 676363 712508
3878.18 733966 672528 669961 855016 889354 879661
3883.97 830165 733726 858608 994593 971704 946718
3889.75 893189 962136 1136069 1191836 1176891 1188436
3895.54 1235529 1272425 1244752 1194692 1253674 1297882
3901.32 1338386 1405285 1412988 1481739 1627297 1767084
3907.11 1705075 1676621 1720973 1803334 1790877 1839567
3912.89 1919208 1966876 2006026 1972906 1887992 1846998
3918.68 1820326 1796305 1853959 1955806 1855079 1791855
3924.47 1890775 1940793 1756358 1604109 1674521 1684019
3930.25 1619691 1550334 1509347 1534063 1575393 1584542
3936.04 1542500 1526881 1553747 1503379 1501989 1518178
3941.82 1569319 1611471 1526032 1495520 1450555 1417602
3947.61 1468586 1557991 1519525 1531110 1467371 1390952
3953.39 1424933 1482755 1461449 1398453 1477153 1551227
3959.18 1561545 1576052 1613723 1589297 1589015 1691170
3964.96 1797912 1724652 1675097 1677592 1671857 1693332
3970.75 1667118 1605276 1666441 1691782
##END=
