##TITLE=Toluene
##JCAMP-DX=4.24
##DATA TYPE=INFRARED SPECTRUM
##CLASS=IUPAC A
##ORIGIN=NIST, Anayltical Chemistry Division, 301-975-3108
##OWNER=COPYRIGHT (C) 1998 by the U.S. Secretary of Commerce
##DATE=98/10/1
##$SPECTRA VERSION=1.00
##$UNCERTAINTY IN Y=2.4 % relative (B=1.4E-04,C=2.2E-09,D=2.7E-14)
##CAS NAME=Toluene
##CAS REGISTRY NO=108-88-3
##MOLFORM=C H3 C6 H5
##MP=-95 C
##BP=110.6 C
##$NIST SOURCE=QUANT-IR
##SPECTROMETER/DATA SYSTEM=IFS66V (Bruker)
##INSTRUMENT PARAMETERS=KBr Beam splitter; MCT Detector; Multipass cell
##STATE=gas
##SAMPLE DESCRIPTION=Toluene Primary Gas Standard
##PRESSURE=101.3 kPa
##TEMPERATURE=23 C
##SAMPLING PROCEDURE=1 L/min Flow
##RESOLUTION=1.9290
##DATA PROCESSING=Boxcar Apodization
##XUNITS=cm-1
##YUNITS=(micromol/mol)-1m-1 (base 10)
##XFACTOR=1.0
##YFACTOR=4.5474E-13
##DELTAX=0.9645
##FIRSTX=574.687
##LASTX=3974.595
##FIRSTY=1.39E-07
##MAXX=3973.63
##MINX=574.69
##MAXY=.0007837
##MINY=-5.81E-07
##NPOINTS=3527
##XYDATA=(X++(Y..Y))
574.69 307752 819636 290684 491496-1278016 551574
579.51-849636 309092-795018-650234-942574 44010
585.29-260118-710428-413802 857494 355958 318130
591.08-668454 240820-52456 131740-483408 648102
596.86 286008 201612-41702 371432-648916 210056
602.65 164536 712538-171078 569760 73398 610880
608.44 225352 1332614 11110 751232 110688 698644
614.22 400064 1143304 301554 1589200-24964 1060274
620.01 126924 1083538-258982 1032846 14792 773176
625.79 1339616 2472260 2040868 3255444 2235252 3455174
631.58 1855672 1952676 1318402 2302738 1056310 2576750
637.36 1225142 2055686 1042372 2157946 814012 2442098
643.15 1058266 1926356 1091324 2696848 735720 2083754
648.93 609964 2508928 502098 2543552 1029812 3130730
654.72 1794294 3836152 2219950 5249582 3391894 6707558
660.50 5523560 9674874 7780464 12817070 11916220 17983580
666.29 18043240 25392380 25833560 34275750 37948190 50094240
672.08 53362940 67744700 68921510 85829810 89184520 108387100
677.86 114736800 144133700 162658500 158590500 147090900 156859900
683.65 145706500 164180600 148332400 172027300 148324000 197655500
689.43 163698100 196382900 172567800 510613900 1299375000 145178600
695.22 170412600 145191900 193351700 163354900 201924400 183620600
701.00 237874800 244726600 230504800 225419300 253151300 245004600
706.79 275799500 273818600 304099600 303577700 335745200 335261500
712.57 365675300 361801200 390808700 384989000 415759900 400149600
718.36 420941300 399620500 421654600 406690700 465374200 524307700
724.14 720477800 773135800 810838800 1224697000 1723411000 1088521000
729.93 556001800 564634400 405360600 446734700 402913500 433128000
735.71 403627500 422376300 394500400 401560400 371624700 367807900
741.50 334939100 320588900 281343100 261734400 222727800 201188500
747.29 165183500 146125500 114936500 100076600 76287100 66649760
753.07 49408620 43749600 27492420 26059070 16018900 16444290
758.86 9121272 11100240 5450236 8266042 3238726 6498674
764.64 2278732 5557612 1887574 4929472 2049964 5266634
770.43 1918224 5461400 2619614 5604216 3436364 6020216
776.21 3747448 6255974 4046008 6214608 3218586 5192528
782.00 2743406 4175082 4037036 9380240 2063138 3305360
787.78 2008684 4052808 2916564 4730720 3545098 4629944
793.57 2550156 4312782 2012124 3015658 1288202 2460818
799.35 875494 1667804 570796 1678784 574966 1689074
805.14 260776 1597612 474186 1502624 257458 1584262
810.93 650740 1658906 386624 1183924 364530 1272812
816.71 204150 1366954-48916 1401506 264866 1555812
822.50 241480 1086178 497188 1657886 447964 1299054
828.28 536104 1063634 352954 1100408 317232 1253096
834.07 597714 1371010 301118 1096930 326706 1505616
839.85 345674 1129508 491974 1308222 437698 1394518
845.64 597006 1521742 854050 1963830 1044238 1840392
851.42 1328670 1880718 1129776 2168776 1450558 2414192
857.21 1614358 2590122 1854664 2802464 1910102 2511104
862.99 1969894 2962156 2069322 2989294 2381402 3484686
868.78 2524606 3547242 3108340 3912668 4607236 5162466
874.57 3464470 4778406 4178774 5382466 4641024 5851694
880.35 5195590 6204448 5607840 6768582 5935838 6987530
886.14 6046592 7557438 6455248 7954296 6982412 10568250
891.92 11442390 23159430 25572160 8080956 7875010 7330574
897.71 7987640 7020026 7032674 6841978 7151426 7168518
903.49 6930200 7394994 7273602 7283648 6635864 6825000
909.28 6311754 6448200 5986098 6422330 6128578 6817454
915.06 6614124 6786932 6827600 7074750 6684990 7130384
920.85 6892370 7738660 9479838 10116830 7744794 8177088
926.63 8160594 9084852 8929680 9195760 8761142 9248036
932.42 8922044 8989540 7409148 7278708 6811358 6732796
938.21 6318654 6482244 6062846 6143330 5509132 5334050
943.99 4788786 4957222 4230138 4424924 3875780 4175016
949.78 3654234 4186500 3813246 4181430 4220620 4607656
955.56 4392414 4697662 4711624 5309068 5108562 5359052
961.35 5322778 6014512 5641620 5823506 6018768 6036790
967.13 6113810 7135836 8470614 7084224 7297092 7597232
972.92 6655958 6747612 6750804 6597190 6662514 6799742
978.70 6640598 7127156 6226754 5977994 5479640 5371006
984.49 5235588 5235778 5068594 5041758 4946224 4970602
990.27 4576564 4495338 4409966 4629490 4511054 4442530
996.06 4301152 4182646 4106372 3886772 4005416 4118408
1001.85 4109486 4095292 4050148 3630560 4236234 4405388
1007.63 4765884 4499666 5135300 5272998 6371960 6489632
1013.42 8398326 9485092 12568110 14914720 19626250 23620630
1019.20 30316930 35648760 43286780 48353020 54754880 53656460
1024.99 57068720 47992880 46924330 35672860 45052340 45317330
1030.77 115010400 63044790 25255090 41523150 42934340 56274870
1036.56 57196590 62663110 58211050 57679620 51290920 51754280
1042.34 49812200 50703520 40590620 37316660 34884420 31597970
1048.13 25462780 27729640 23948730 28401570 25556640 27759770
1053.91 29148100 31960730 28368610 28438550 27405760 29390710
1059.70 28316500 30163630 29369850 31217480 30986180 33386710
1065.48 33722470 36586250 37587380 40953540 42268280 46181810
1071.27 47901970 52198160 54491890 57427370 56768170 61558820
1077.06 56885450 52572780 42777580 36765190 33787450 38358340
1082.84 43104120 49355380 51756230 54291650 53442780 52671180
1088.63 50120690 48707090 45518900 44069250 40528630 39315360
1094.41 36745360 36526660 34179920 33824400 30677260 28330960
1100.20 24327650 21135890 17079450 17154610 16909090 19206210
1105.98 19838620 21182340 20480490 20717660 19110660 19295140
1111.77 17456160 16507500 14450480 13939490 12015460 11642190
1117.55 9709102 9445498 8042820 8066548 6788196 6920258
1123.34 5502354 5802214 4804364 5098312 4090890 4687898
1129.12 4078044 4631720 3807454 4313392 3454830 4231834
1134.91 3331100 4040696 3381942 3934874 3074606 3685510
1140.70 2868994 3773714 3077298 3795942 3163476 4012570
1146.48 3313364 4239540 3517394 4364836 3747268 4476232
1152.27 3944554 4504674 3879778 4772004 4409160 5289396
1158.05 4648596 5406966 4817070 5439684 4877742 5452326
1163.84 4912760 6030708 5166652 5568712 5190740 6448708
1169.62 6078694 6980622 6145412 6749808 5640938 6011908
1175.41 4968310 5930436 5625778 7176692 5024426 5405616
1181.19 4694524 5677158 5380610 6307918 5724822 6392340
1186.98 5411862 5811202 4719984 5161476 4330350 5865760
1192.76 5232744 5057490 4720530 5616146 5818786 7227874
1198.55 7348254 8965758 8831140 10104800 9718796 10630160
1204.34 9853786 10363770 9176918 9602004 8878616 10396700
1210.12 10636650 12847070 13406260 8933368 8400226 10123350
1215.91 10626640 11857630 11401520 11450030 10005010 9334540
1221.69 7732244 7147870 5818196 5554570 4634772 5040196
1227.48 4337544 5047602 4686582 5897090 5583950 6406122
1233.26 5916052 6689746 5858842 6631158 5603594 6295348
1239.05 5866792 7808924 8245704 6145422 6012422 6599722
1244.83 6282062 7817472 7202422 7096616 6312126 6362760
1250.62 5395742 5323926 4418936 4418408 3611920 3700868
1256.40 3121054 3537684 2794504 3029982 2255356 2714410
1262.19 2120786 2583734 1749340 2347112 1728804 2078786
1267.98 1391160 2007242 1375148 2060192 1503792 1940684
1273.76 1382902 2038636 1491120 2153772 1629784 2132452
1279.55 1666444 2283532 1805050 2405718 2106280 2818538
1285.33 2251380 3021634 2518578 3222984 2816490 3518626
1291.12 2919174 3603760 3153882 3670396 3240822 3982440
1296.90 3836406 4695194 4567928 5512880 5330126 6128594
1302.69 5633126 6401742 5712570 6118980 5049110 5143454
1308.47 4280990 4714502 4410132 5466316 5448238 6338390
1314.26 5879788 6420948 5888456 6159738 5399818 5802562
1320.04 4998068 5358970 4587942 5332498 4566058 5064636
1325.83 4061980 4431086 3891966 4379754 3666734 4301234
1331.61 3990384 4623374 3995450 4330220 3821140 4527358
1337.40 4051178 4675444 4229246 5019084 4519346 5288300
1343.19 4871692 5518436 5094734 5936610 5679324 6546070
1348.97 6179508 7002350 6713288 7488064 7319206 8270506
1354.76 8731808 9480978 8120218 9097690 8975884 9940838
1360.54 9856418 11185320 11077670 12196490 12104310 13580490
1366.33 13938760 15905440 16129500 17883920 18809280 20620150
1372.11 21573270 23593360 24184710 26328990 27044320 28521710
1377.90 27764100 28800360 29173360 31910870 35933170 49040220
1383.68 37966460 33682410 34432100 37167400 39430240 40618060
1389.47 39991290 38705290 35444850 32590080 28871900 26799230
1395.25 24157620 22281260 19780450 19280030 17847860 18021820
1401.04 16835410 18139990 17939220 18777090 18135740 21762300
1406.83 19510510 17345080 17408370 17692910 18198520 19377680
1412.61 19713620 20911630 20947010 23317800 24794140 25638290
1418.40 26505680 29887190 32893730 30437350 25958280 23987470
1424.18 23535970 22533110 22444190 23182170 23981120 25428540
1429.97 26367470 27592420 28769370 29960800 29981810 30923240
1435.75 31636870 34945940 38255370 41323700 46586190 49095090
1441.54 48111500 52154690 54468560 58504840 61097050 64761420
1447.32 67711660 72322920 72739420 74378900 72282060 71157980
1453.11 68638680 71202700 71413780 71813440 75358510 75761310
1458.89 75656240 80327870 79160400 85330410 85545860 73049150
1464.68 70027330 68316740 69201890 70640760 74378060 79899860
1470.47 79998760 79136020 75556500 71707600 70022730 66984840
1476.25 67321310 65725060 62717760 63340160 65411540 71069640
1482.04 78826160 88218020 101860200 122722400 133736200 149921200
1487.82 166363500 185195500 200719400 216737300 218443800 217007400
1493.61 206630100 196424300 195599300 216917800 210321300 241372200
1499.39 324377700 199242100 167698400 188723500 210449600 223431500
1505.18 230992000 227984000 215688800 196595600 170994300 146443800
1510.96 123865000 105631900 90335460 78624690 71343970 67758250
1516.75 63125970 58060360 50348150 46332850 42395990 43678270
1522.53 45164580 52892820 49725640 48722670 46314330 43133550
1528.32 43682600 43900790 43395270 42193340 40436750 40699830
1534.11 43177770 39291070 39525430 35842250 32255230 31922150
1539.89 31143350 30590820 30138780 29786360 27504270 26462760
1545.68 24495910 23379890 22274890 21994580 21873750 22871220
1551.46 21275820 21700900 20988380 23119950 23428390 24190580
1557.25 23531390 24977930 24073850 25480450 24910140 24146740
1563.03 23080470 21647020 19651910 19348840 18946030 20098010
1568.82 21270680 24320910 25377920 26979570 25895030 26173300
1574.60 24351080 23924560 24315070 23673290 22785640 22106310
1580.39 20822530 20028010 19057560 19076200 19947370 21872260
1586.17 25528210 22186390 20721390 24450120 26952210 31822350
1591.96 35376280 41168640 46317360 53077270 59172590 67477550
1597.74 74122880 81601620 87254510 89191530 90114530 90432390
1603.53 90026820 94627510 101737100 104429600 106887700 159990500
1609.32 110338400 95418630 105492800 109771500 115128900 114233700
1615.10 109210500 97907810 92586700 82113300 98816660 79574180
1620.89 62154500 59621840 53009960 52711410 48462120 46493810
1626.67 41506400 38039900 32076320 27645230 22240520 18520900
1632.46 14134240 11839490 7994820 7623802 6171734 5890738
1638.24 5046260 4835106 4158794 4428828 3834742 4099176
1644.03 3713810 3343868 3665964 3749120 3631100 4017248
1649.81 3729710 3948588 1793668 2871300 2844280 3419032
1655.60 2812070 3358378 3268496 4058862 3938946 4523572
1661.38 3935578 4333344 4284744 4414662 4224198 4529632
1667.17 4173960 3743626 3683574 4021136 3406674 3840506
1672.96 3599224 3238144 3326546 4133888 3606430 4089518
1678.74 3877620 4348240 4162004 4159714 3683876 2775544
1684.53 3086296 4260194 3040340 3536200 2860860 3338980
1690.31 2793120 3545070 2993586 4041094 2823988 2648874
1696.10 4328262 5037954 3835456 2429128 2354658 3752482
1701.88 3304414 3629824 3164344 3892770 3246654 4257624
1707.67 3524804 4241304 3764536 4674850 4385390 5101644
1713.45 4591986 5367576 5707594 5524778 6195862 7660234
1719.24 8009742 9127008 9511198 10645040 10996130 12033390
1725.02 12025790 12437700 11657980 11638590 9979350 9459296
1730.81 7968164 7797176 7332902 9372714 11420880 13170640
1736.60 12366000 12621910 10621430 10370950 9398618 8806810
1742.38 7361210 7121340 5836348 5681778 4586390 4648140
1748.17 3517666 3946476 2404956 3086942 2569036 2884920
1753.95 2472308 2912694 2155570 3028528 2686116 3580918
1759.74 3219478 3422758 3282974 4371794 4057308 5145748
1765.52 4684980 5441518 4864400 6278534 5558956 6724254
1771.31 6230740 7928538 7633542 8196158 7745914 8896050
1777.09 8901994 10736640 10925250 11240610 10909530 12425640
1782.88 12634040 14024830 14417940 17063130 17611720 19836550
1788.66 21198100 24441460 24801300 26449860 25898130 27419900
1794.45 25943640 27128270 21968160 22239660 21475550 42351290
1800.24 38215940 15246390 20062730 20535040 24683430 25818160
1806.02 27582320 26682170 26259920 23398890 20458730 17480390
1811.81 15075190 12836940 11004020 9459288 8128310 7196104
1817.59 6697416 7019140 7580360 8094708 8047594 8122798
1823.38 7588210 7360088 7109510 6989546 6486034 6420636
1829.16 5940390 6325362 6251970 6563602 6547904 6913824
1834.95 6941716 7720188 8032124 9145276 9683464 10949550
1840.73 11621910 13273260 14046460 15737050 17764080 19315820
1846.52 20440510 21850200 22574560 23150680 22584280 21722930
1852.30 19750400 18249090 16019950 15943960 17581220 22415710
1858.09 27382910 30875060 32036630 32805600 32047120 31238720
1863.88 29923800 28302720 26095980 24568910 22353530 20520940
1869.66 20126370 22434290 23057660 16274070 14136320 15099980
1875.45 15797750 16752840 16615360 16189970 14643620 13146650
1881.23 10978360 9335140 7469144 6403962 5190544 4787894
1887.02 3954808 3782150 3268486 3597270 3114354 3293718
1892.80 2847512 3162296 2786920 3126942 2894480 3145494
1898.59 2522888 2765118 2421016 2893360 2662030 2620110
1904.37 2162090 2617136 2418050 2774356 2526736 2954924
1910.16 2831356 3276288 3160918 3674082 3608728 4227922
1915.94 4323462 4837636 5133618 6081284 6332288 7493858
1921.73 7839532 9438186 10231310 12299810 13131580 14548850
1927.51 16048170 18310050 20102380 22544680 24255520 26006800
1933.30 26805620 27487720 27013990 26469840 24899440 23630450
1939.09 21436560 20958080 21292510 24676200 29334600 33890260
1944.87 35526280 36887110 36191540 35324280 33478540 32106390
1950.66 29672560 28621320 25577170 23801780 21778550 19812430
1956.44 19849080 23401040 17958040 13576480 13142310 13805420
1962.23 14022100 14349870 13640690 12754280 11003760 9550368
1968.01 7737116 6533260 5030248 4312084 3248640 2920606
1973.80 2297412 2367996 1852894 1998192 1706252 2096414
1979.58 1859364 2472956 2366166 3274600 3310366 2658406
1985.37 2301758 2698796 2401632 2842098 2799704 3144244
1991.15 2746902 3139892 2573624 3277736 2631958 2604162
1996.94 2485524 2964442 2604350 3024184 2683924 3009260
2002.73 2481484 2622700 2147734 2323552 1881034 2170240
2008.51 1735536 2220954 2069608 1964402 1599608 1804292
2014.30 1377970 1670688 1401350 1704564 1365280 1573074
2020.08 1149652 1396994 1105710 1456160 1080976 1301080
2025.87 851800 1049888 728098 987792 580772 900362
2031.65 532454 773164 431350 684890 363140 516952
2037.44 135270 585588 203610 420352 102540 496960
2043.22 152370 363126 79898 451406 65098 358126
2049.01 1178 364512 6234 399692 68732 456946
2054.79 191862 501736 119860 511990 171680 513032
2060.58 73160 319918-48316 582510 346994 659844
2066.37 323066 703818 345312 536552 228792 694242
2072.15 261566 627692 299352 633308 313448 745784
2077.94 408010 891998 310162 712384 297662 578902
2083.72 187434 565192 216992 579852 231054 668408
2089.51 232364 663836 305432 564054 159968 618760
2095.29 163454 616736 244970 719898 259004 547006
2101.08 286892 590782 265730 684314 302130 559634
2106.86 326650 712696 281276 665710 447742 842938
2112.65 381250 702742 409556 711464 364820 709646
2118.43 352838 777336 517518 825756 484590 820008
2124.22 431984 896670 419978 932150 429212 835704
2130.01 438864 733414 453196 900448 512878 814848
2135.79 383840 708460 259298 692990 275796 621210
2141.58 256480 644988 284824 720788 316818 761100
2147.36 389586 735406 466702 852806 564442 1057230
2153.15 872838 1318016 1032086 1648142 1425250 2004360
2158.93 1677658 2139968 2007092 2375306 2065584 2430776
2164.72 2144864 2454418 2703782 3385412 2267010 2432836
2170.50 2330460 2894954 2772448 3173696 2871188 3265060
2176.29 2573594 2976338 2270798 2435628 1888224 2130648
2182.07 1686622 1885454 1317440 1602966 1214522 1555356
2187.86 1222576 1603062 1293004 1911226 1463726 1707772
2193.64 1316238 1577344 1255224 1459206 1082608 1500322
2199.43 1000110 1347870 920992 1336992 982472 1238868
2205.22 852268 1245596 882098 1411348 981192 1213408
2211.00 802270 1202878 869602 1278882 989950 1294970
2216.79 1029404 1270556 802152 1160512 830098 1261428
2222.57 966268 1085960 825294 1175418 827504 1168792
2228.36 827456 1298328 926496 1228620 825472 1165196
2234.14 855040 1242922 1073038 1379606 851416 1377594
2239.93 1101630 1486982 1276178 1623048 1404322 1789036
2245.71 1535950 1820680 1683740 2200190 1821478 2236354
2251.50 1931046 2407764 1984440 2515374 2140582 2553644
2257.28 2054860 2401378 2033046 2334290 2089506 2466204
2263.07 2133850 2673650 2348018 2817454 2408348 2872922
2268.86 2654360 2923162 2602018 2975026 2535638 3174676
2274.64 2882698 3264070 3004644 3374368 2959034 3251270
2280.43 2795266 3120386 2610300 3168308 2837692 3078974
2286.21 2685472 3144446 2859084 3276440 2886026 3309430
2292.00 2770562 2877626 2580178 3018504 2620846 3018492
2297.78 2657628 3172696 2873452 3474308 3119146 3793014
2303.57 3647508 4120652 3789038 4124422 3493754 3855046
2309.35 3251702 3940728 3495686 4904690 4534352 4278824
2315.14 3840822 4168824 4001662 4759524 4559522 4815172
2320.92 4466690 4867690 4328294 4594978 4034256 4404214
2326.71 4025850 4504846 4232628 4651178 4219170 4472404
2332.50 3969750 4206438 3727552 4062724 3921704 4350504
2338.28 4075402 4735758 4449574 5042420 4838888 5267130
2344.07 4865902 5061808 4572872 4636572 4252252 4532652
2349.85 4195632 4719310 4437578 4899878 4563334 5152650
2355.64 4867448 5227170 4795836 4991188 4430634 4446852
2361.42 3671470 3652452 3159648 3724664 3600370 4380134
2367.21 4197784 4454908 3850658 4062282 3390806 3633866
2372.99 2886410 2974922 2418594 2764580 2403190 2621864
2378.78 2272266 2708628 2360912 2775470 2309564 2638582
2384.56 2356972 2622510 2211136 2674928 2418224 2846902
2390.35 2580006 2836784 2424618 2829008 2606106 3013106
2396.14 2632298 2986188 2664828 3086472 3056678 3372716
2401.92 2902062 3471820 3095300 3678974 3302902 3830308
2407.71 3415184 3863438 3376974 3833568 3654578 4510080
2413.49 3887788 4059266 3903856 4499320 4160142 4529256
2419.28 4143516 4608786 4542316 4686134 3956142 4126218
2425.06 3651676 3911298 3456476 3670352 3213072 3642076
2430.85 2780270 2942446 2579220 2803026 2424764 2757830
2436.63 2289140 2388620 2051262 2336762 1938590 2244360
2442.42 1870248 2102092 1648240 2099584 1710358 2023234
2448.20 1697526 2027902 1711110 2083824 1718646 2083356
2453.99 1733440 2166714 1807690 2243286 1910828 2335176
2459.77 2011210 2405942 1924708 2277704 2008150 2378564
2465.56 2107676 2381624 2026536 2308432 1941738 2400114
2471.35 1867618 2250946 1880522 2188252 1767980 2074292
2477.13 1795212 2040830 1674794 1959736 1583014 1872086
2482.92 1571626 1942828 1443452 1940628 1638058 1914998
2488.70 1635410 2033482 1704570 2001838 1741742 2156286
2494.49 1868542 2293924 1915618 2276178 1882676 2490992
2500.27 1985342 2262148 1926692 2216422 1897386 2198514
2506.06 1856850 2201602 1842422 2322334 1904720 2175926
2511.84 1664540 2105416 1625802 1952982 1600678 1850762
2517.63 1575148 1846414 1438760 1848188 1390264 1749904
2523.41 1402038 1682304 1504746 1863898 1347586 1859654
2529.20 1336722 1842108 1367920 1757028 1583392 1948970
2534.99 1543638 1809672 1481698 1728922 1466280 1710782
2540.77 1380012 1766444 1434312 1829282 1433114 1674836
2546.56 1372130 1775424 1463590 1847186 1458368 1913852
2552.34 1358628 1769118 1292908 1619220 1124076 1508206
2558.13 1190930 1533516 1263778 1658574 1163640 1505504
2563.91 1330926 1659158 1381516 1835044 1500738 1972138
2569.70 1636518 2040698 1835580 2148240 2103422 2438692
2575.48 2207548 2735118 2610214 3165266 3136622 3799386
2581.27 3898016 4312734 4078246 4622008 4599458 4979866
2587.05 4778162 5116154 4860054 5121926 4913462 5555638
2592.84 5394162 5561250 5124750 6038490 5872416 6280258
2598.63 5917992 6160322 5468668 5556110 4699754 4663394
2604.41 3864286 4101248 3389958 3647338 3152928 3528904
2610.20 3364426 3560644 2863006 3172586 2729862 3079202
2615.98 2768440 3049196 2657462 2976402 2699698 3124244
2621.77 2891754 3157410 2778766 3055472 2762938 3058744
2627.55 2495666 2916424 2489782 2939740 2361190 2743816
2633.34 2327554 2694400 2292810 2704220 2537982 2789710
2639.12 2316092 2513012 2172750 2660382 2275734 2593268
2644.91 1894074 2258490 1837860 2155854 1773160 2148358
2650.69 1650082 1890450 1638858 2049412 1524374 1742954
2656.48 1390482 1618092 1199080 1625764 1111536 1607712
2662.27 1301278 1424600 1076508 1569752 1146180 1499672
2668.05 1120826 1465160 1145000 1449672 980558 1414342
2673.84 1022734 1279836 932608 1377524 1039360 1364012
2679.62 932256 1389184 992458 1469056 984212 1340150
2685.41 1053952 1278816 1051214 1332010 1143576 1313898
2691.19 1071244 1397580 967104 1266154 962662 1282234
2696.98 1086752 1565824 924240 1294462 1059616 1506816
2702.76 1064316 1435852 947126 1384074 1108078 1408892
2708.55 1081732 1589754 1100908 1605168 1311662 1673652
2714.33 1547668 1804280 1518750 1968326 1716050 2138512
2720.12 1784138 2315094 2084184 2654128 2502984 3049576
2725.91 3055258 3836540 3958206 5076170 5262452 6639900
2731.69 7074644 8562226 9281266 10619490 10961880 11860670
2737.48 11923550 12022640 11349200 11382900 11049210 12645250
2743.26 16766770 20037090 12391670 11067340 12188800 14250630
2749.05 15251870 16487020 15956840 15301720 13252360 11668010
2754.83 9677036 8483246 6874000 6241246 5288686 5173986
2760.62 4360158 4450942 3855084 3984244 3324400 3285300
2766.40 2727300 3066172 2693614 3137302 2810400 3193844
2772.19 2901856 3190414 2975502 3214428 3044492 3467080
2777.97 3225518 3602696 3392252 3924596 3528168 3706478
2783.76 3462000 3802164 3679598 4308596 3948690 4288720
2789.54 4006534 4335742 3867716 4400762 4222652 4504562
2795.33 4320990 4616300 4218028 4915982 4719820 4940492
2801.12 4515814 4900070 4701720 5098882 4926938 5289678
2806.90 5278438 5729942 5663340 6409278 6150098 6628766
2812.69 6558604 7108532 6907720 7797354 7826692 8165902
2818.47 8076310 8663176 8663814 9255072 8932452 9399996
2824.26 9008616 9404964 9167850 9768750 9636714 10537230
2830.04 10688200 11474860 11563340 12452420 12397710 13022770
2835.83 12910010 13700360 13860110 14251590 14318870 15048020
2841.61 15275570 16030260 16309180 17847340 18434590 19860530
2847.40 20747510 22454990 23643180 25704960 27214810 29385070
2853.18 31290600 33771970 35869820 38968740 41626780 45239160
2858.97 48585390 52366040 55965810 60877910 65101360 69682880
2864.76 73992540 78822220 82860200 87703120 92357140 97314790
2870.54 103894100 111046600 113781900 119226000 125006600 131991900
2876.33 138296700 144868200 147796900 150537100 151237600 149546500
2882.11 147584800 146393100 145278400 144171100 141139600 140642300
2887.90 140151200 139685900 136863600 133970200 131141900 128646500
2893.68 124619600 121368500 116694300 112637300 107870100 103604100
2899.47 98627480 95243690 91874580 89792980 87835940 87439720
2905.25 87122580 89266120 89243190 90438410 93391130 98418250
2911.04 101437500 105809500 108667400 112030700 118733500 124926500
2916.82 133772400 141937700 148459700 158900100 170072900 184345800
2922.61 198196500 209474600 219613400 227833500 235053300 237860600
2928.40 236823300 238761000 244453200 254994000 262619000 267302200
2934.18 263497900 259524500 263740100 269753900 269160600 268732700
2939.97 262951200 257559800 256248900 250916300 241402300 234349100
2945.75 226265500 213758300 199237800 187548500 175734300 161937500
2951.54 154358800 149560100 149362600 150712400 138658300 123826000
2957.32 116063300 114640900 114763900 116756500 113802000 111901000
2963.11 107287200 100464000 97469520 94569620 90063760 86391970
2968.89 82044710 78458180 75021570 74178400 75075400 76816220
2974.68 78558290 81380270 82334640 84432730 86029480 87179940
2980.46 87056770 87560260 87655740 90404650 95132690 100869200
2986.25 97712960 89875100 87016000 87374910 90740960 96518050
2992.04 100683400 99987100 100866700 104754300 113518500 119149000
2997.82 116510900 113286700 116059000 123828800 133544500 143782400
3003.61 150818900 147068600 141165700 141984200 146848100 149329000
3009.39 149340400 152679000 152308200 157605300 166256000 172003500
3015.18 177296700 183465700 193723300 205339200 221330000 239372300
3020.96 265669600 285795400 301498800 326069800 348437100 372068600
3026.75 397681300 428447300 459906500 477431700 482573300 487913700
3032.53 490003300 482992300 471099400 469170800 472625900 473755700
3038.32 485060600 487482100 488896900 493028700 482168400 490444800
3044.10 487486800 481351100 462414100 437958100 406778300 377702800
3049.89 345514700 316682000 290167900 271913600 256279200 245906300
3055.67 238084300 234541100 232492800 236106800 239732700 243862100
3061.46 246829600 253536000 256715100 260854000 261886400 260977200
3067.25 258483400 259180400 260228100 272640500 290946800 322899700
3073.03 316858700 273085700 262317600 266223800 275536400 282145900
3078.82 287873700 287898300 287110100 279097300 263287700 256029900
3084.60 247736900 243023500 237414300 233065800 224962700 217068400
3090.39 205067000 191244900 177626100 165187400 154632900 149438400
3096.17 148728500 154880000 160435600 164723200 164581200 160418100
3101.96 153108700 145568900 135663600 126706900 116463000 107909700
3107.74 100005800 92948470 87459530 83555300 79566580 76688950
3113.53 72834500 69387350 65553960 62600230 58833560 55925560
3119.31 50736270 48512590 46519410 42308550 40604540 38706210
3125.10 35817660 34593180 32553960 31449550 28737380 26558940
3130.89 23104520 21160660 18183260 16263880 13452530 11922190
3136.67 9774794 9015750 7252232 6729276 5520376 5319482
3142.46 4272382 4385358 3501590 3693472 3267878 3537396
3148.24 3141840 3291192 2761270 3198944 2598130 3145022
3154.03 2601442 3188354 2567146 3055838 2631748 3027118
3159.81 2902266 3195828 2855636 3336692 2914342 3477778
3165.60 3049906 3380708 3135660 3689708 3271388 3715896
3171.38 3418160 3699546 3244444 3728720 3291816 3751340
3177.17 3005456 3534186 3204924 3495606 2895566 3018100
3182.95 2357484 2975618 2470718 2831642 2344052 2424562
3188.74 1554798 1680220 984464 1095864 712846 937060
3194.53 366944 705394 356588 744924 231120 637530
3200.31 221390 594484 91206 501972 204574 522524
3206.10 307274 773708 415054 665792 231266 497504
3211.88-48600 430938 79006 489924 51988 166794
3217.67-359000 741606 397296 748124 128310 407752
3223.45 73366 448444-169212 168060 2338 467364
3229.24-197016 376774-64694 460910 138624 462994
3235.02 193618 422224 31374 316600 69326 451122
3240.81 310892 562828 291572 709922 405008 536594
3246.59 274138 746284 239722 746166 338910 596670
3252.38 426756 798416 295842 946846 487122 800434
3258.17 517670 848710 515672 898270 549526 1099522
3263.95 638438 1136036 661754 1169470 570326 1166002
3269.74 700918 1054948 912856 1385912 943164 1169494
3275.52 790158 1325086 851670 1215726 827332 1235244
3281.31 851164 1173942 755458 1241776 922798 1192318
3287.09 663402 1083264 634226 1310196 868594 1154196
3292.88 958424 1216496 844832 1068184 591368 1183570
3298.66 697618 1029348 748892 1369192 804756 1093804
3304.45 682014 1180392 622674 987650 740152 919882
3310.23 612406 1151176 652428 1220618 625936 1026974
3316.02 745164 1111750 911672 1006706 693182 1310174
3321.80 811760 1248664 947414 1429844 950090 1734994
3327.59 1025502 1545402 1212896 1726638 1232260 1750140
3333.38 1464766 1609730 1329924 1778712 1326166 1539250
3339.16 1436852 1851434 1468540 1849582 1319844 1607012
3344.95 1287528 1572604 1366050 1545886 1244280 1431628
3350.73 1100658 1357020 881554 1420708 941550 1250940
3356.52 773996 1470266 841976 1282066 1198212 1403682
3362.30 1338488 1428354 1182708 1459666 1067762 1419360
3368.09 1045486 1440284 1070118 1465678 1138658 1740400
3373.87 1269344 1699112 1346650 1756102 1348600 1587400
3379.66 1402356 1822884 1426858 1879358 1400784 1604756
3385.44 1336888 1385808 1176746 1624990 940112 1691400
3391.23 1010046 1538662 1229958 1472236 1032408 1487872
3397.02 965110 1520144 1064328 1385822 924108 1233200
3402.80 865404 1409086 988480 1335318 863804 1456714
3408.59 920464 1247784 871258 1198980 683012 965146
3414.37 848230 1314466 856238 1328740 642258 745544
3420.16 445888 1247076 648218 1149672 772706 1069854
3425.94 678244 1162942 956318 1358490 760658 1335032
3431.73 787310 1246398 698442 1119448 1092150 1214586
3437.51 1036180 1682112 1033282 1491486 1390174 1708084
3443.30 1250996 1662390 1344900 1624924 1138728 1335748
3449.08 958752 1621362 1069512 1236126 887214 1239646
3454.87 920336 1134826 896626 1194066 871274 1086012
3460.66 957694 964042 604000 1105644 742840 888180
3466.44 489360 835742 196136 750932 293230 862208
3472.23 289976 673988 320764 550168 126778 459974
3478.01 182424 549334 168058 434350 234076 536538
3483.80 268712 494460 301880 726546 161268 555314
3489.58 360394 581944 245800 552686 294436 748172
3495.37 166050 638978 361658 796014 100976 765064
3501.15 369208 667174 276670 645074 375408 670326
3506.94 196632 616556 298750 762470 310828 735696
3512.72 289754 814810 383920 779740 364712 746684
3518.51 403282 816266 620614 729444 453764 1053198
3524.30 1014448 1116466 447214 888894 322204 902590
3530.08 396480 710366 447036 815818 575702 826410
3535.87 479126 842564 455068 1005270 453920 941200
3541.65 465192 972718 616840 963064 522538 1038102
3547.44 860160 954718 724734 993146 590226 1187854
3553.22 950716 1289034 687464 1049064 773362 1147762
3559.01 845256 1076742 781924 1179556 846922 1121326
3564.79 699148 1112198 669594 955758 699672 843554
3570.58 404916 907998 417440 850670 329238 808722
3576.36 270680 717250 289530 854676 723016 964934
3582.15 811194 992698 613098 666540 474342 883222
3587.94 175574 1071674 544500 1146304 456886 1069146
3593.72 640918 957058 698856 1090796 526176 875600
3599.51 346124 697268 1000398 1173696 839784 1097572
3605.29 335076 629072 518770 428844 306962 880354
3611.08 244816 566350 392602 490104 457594 833018
3616.86 565020 1007228 131194 1140386 617630 1294342
3622.65 731394 1356930 870412 1427208 1016930 969158
3628.43 317330 1241050 980204 1477110 891492 1243576
3634.22 1284046 1511442 1426506 1710036 1394260 1877660
3640.00 1542152 2131506 1836402 2169670 1779046 2243230
3645.79 1581084 2189638 1587964 1796446 2044246 2207372
3651.57 2571560 2768142 2452636 2588632 2128838 2851372
3657.36 2523264 2790846 2397172 2802874 2361028 2801918
3663.15 2381742 2866146 2385902 2693258 2286526 2325752
3668.93 1944966 1483428 1791432 2122750 1642718 1401684
3674.72 633526 1172248 1540158 1566072 1180698 1432200
3680.50 1406182 1617588 1140466 1425264 1124818 1343824
3686.29 1267272 541314 711644 1528320 831726 1501096
3692.07 954756 1404222 1112280 1312690 1143394 1278304
3697.86 1001838 1513026 1015582 992134 1116640 1346356
3703.64 1088146 1370940 1117698 1217130 889442 1093858
3709.43 1021422 1024636 56280 1383282 943218 1334096
3715.21 1107510 1509932 816830 1353402 771404 1282732
3721.00 771790 1372156 1181412 1300904 976732 1102116
3726.79 764062 1137192 698662 1175938 525554 676294
3732.57 1018836 953738 504080 419068 370024 937024
3738.36 667702 898924 628776 770938 628984-356686
3744.14-534144 1219172 506262 1191224-117144 146792
3749.93 778548-254030-209592 943946 407972 817016
3755.71 360094 978742 384696 596974 474088 987380
3761.50 341482 974118 325928 727776 385004 928282
3767.28 502796 707914 32580 947970 605430 1126782
3773.07 460562 975416 725728 1014848 610356 1019334
3778.85 557388 1171558 651320 1298666 1091678 1431406
3784.64 964646 1274348 1259538 1682854 1246960 1705384
3790.43 1371446 1802740 1578476 1883130 1506116 1840082
3796.21 1241296 1911358 1396892 2157638 702854 1188804
3802.00 1577996 1751660 1733490 1978666 1012608 1468356
3807.78 1689632 1736988 1736482 1753142 1605788 1587294
3813.57 1621156 1003550 479898 2072812 1401616 2031922
3819.35 1228642 1479816 1321934 1997164 1733162 2307294
3825.14 1719902 1960254 1998510 2297742 1941558 2234020
3830.92 1651394 2598198 2041188 2231452 1934708 2872974
3836.71 1172446 2416260 2358884 2590262 2276460 2788786
3842.49 2391332 2916938 2787564 3099050 2851126 3419990
3848.28 3057804 3491970 3126282 2493932 3204762 1816802
3854.07 2850574 3795594 2985666 3592984 3192836 3321072
3859.85 2912042 3222620 2973736 3463480 2459940 2903162
3865.64 2924262 2972574 2628278 2313476 1867824 2765650
3871.42 2414990 2809190 2057628 2583746 2256684 2432276
3877.21 2043284 2241910 1582990 2169126 2078536 2349132
3882.99 1886226 1995344 1155260 2167470 1847344 2001790
3888.78 1663010 1934260 1156550 2208804 1579016 2089858
3894.56 1564882 2184150 1814142 2048312 1273456 2091754
3900.35 1596888 1876320 2027488 1684156 2067312 2113642
3906.13 2110070 2394516 2095666 2464874 2285590 2532842
3911.92 2311544 2683468 2302822 2602716 2306824 2756572
3917.70 2849952 2683686 2467244 2871306 2274478 2983644
3923.49 2322808 2836664 2420674 2763744 2255364 2683188
3929.28 2191806 2451056 1937106 2440578 2022018 2299100
3935.06 2014108 2288672 2011484 2085020 2011592 2337034
3940.85 1832462 2135788 1727000 1869008 1605770 2065958
3946.63 1817550 2131070 1805144 1976458 1823458 2055290
3952.42 1803900 1887540 1696182 2110276 1830346 2046068
3958.20 1578516 2258802 2030054 2133310 1730578 2371322
3963.99 1985778 2277626 1815436 2214546 1912602 2351554
3969.77 2075736 2250968 1837862 2310466 1786060
##END=
