##TITLE=Vinyl Acetate
##JCAMP-DX=4.24
##DATA TYPE=INFRARED SPECTRUM
##CLASS=IUPAC A
##ORIGIN=NIST, Anayltical Chemistry Division, 301-975-3108
##OWNER=COPYRIGHT (C) 1998 by the U.S. Secretary of Commerce
##DATE=98/10/1
##$SPECTRA VERSION=1.00
##$UNCERTAINTY IN Y=2.1 % relative (B=1.1E-04,C=7.7E-10,D=2.7E-14)
##CAS NAME=Ethenyl Ester-Acetic Acid
##CAS REGISTRY NO=108-05-4
##MOLFORM=C H3 C O2 C H: C H2
##MP=-93.2 C
##BP=72.2 C
##$NIST SOURCE=QUANT-IR
##SPECTROMETER/DATA SYSTEM=IFS66V (Bruker)
##INSTRUMENT PARAMETERS=KBr Beam splitter; MCT Detector; Multipass cell
##STATE=gas
##SAMPLE DESCRIPTION=Vinyl Acetate Primary Gas Standard
##PRESSURE=101.3 kPa
##TEMPERATURE=23 C
##SAMPLING PROCEDURE=1 L/min Flow
##RESOLUTION=1.9290
##DATA PROCESSING=3-Term B-H Apodization
##XUNITS=cm-1
##YUNITS=(micromol/mol)-1m-1 (base 10)
##XFACTOR=1.0
##YFACTOR=18.189E-13
##DELTAX=0.9645
##FIRSTX=574.687
##LASTX=3974.595
##FIRSTY=.0000106
##MAXX=3973.63
##MINX=574.69
##MAXY=.0027498
##MINY=-1.01E-06
##NPOINTS=3527
##XYDATA=(X++(Y..Y))
574.69 5841524 6368332 6971090 7496038 7931114 8443426
579.51 9022204 9556862 10035410 10506800 10989970 11538620
585.29 12535810 13953160 15030220 15826910 17043410 18713460
591.08 20097110 20525200 20208980 19479160 18490160 17545300
596.86 16808820 16252250 15930310 15821630 15846380 15944620
602.65 16084380 16282250 16538970 16824840 17169030 17549400
608.44 17881680 18168250 18442220 18684130 18852760 18921480
614.22 18945540 18925220 18842250 18794060 18815590 18896220
620.01 19108380 19475040 19965740 20589570 21367800 22231200
625.79 23086240 23891320 24578630 25057910 25303180 25248810
631.58 24859060 24248580 23639120 23213520 23061970 23198210
637.36 23340240 23155630 22910550 22883100 22940410 22889230
643.15 22621710 22147950 21460760 20558750 19536730 18458210
648.93 17358140 16264850 15197230 14159550 13184560 12281820
654.72 11468330 10738950 10031420 9316858 8617354 7941882
660.50 7301558 6699308 6139788 5613672 5107378 4644494
666.29 4251034 3905444 3593782 3315378 3089516 2929814
672.08 2807938 2693242 2614192 2568396 2543274 2564280
677.86 2620278 2678722 2739840 2817772 2921636 3036152
683.65 3171874 3319908 3472574 3627130 3775032 3927292
689.43 4094970 4263860 4444898 4661182 4882274 5062456
695.22 5228576 5428864 5667810 5810502 5780532 5722026
701.00 5715408 5751936 5833438 5896794 5913508 5932410
706.79 5955954 5976658 6042074 6161048 6329646 6517076
712.57 6629974 6639480 6613114 6538684 6370496 6138218
718.36 5873538 5584212 5285306 5026074 4839946 4705582
724.14 4607342 4519172 4405848 4271686 4153302 4052184
729.93 3961832 3876442 3788922 3698586 3618424 3542124
735.71 3454134 3366526 3293486 3227160 3161520 3103408
741.50 3079252 3080524 3076130 3059418 3061576 3086528
747.29 3118500 3156838 3197552 3231036 3261870 3288904
753.07 3320654 3365786 3424920 3479950 3526378 3573528
758.86 3650018 3754020 3853180 3944788 4046174 4149458
764.64 4261888 4397492 4551374 4696424 4823154 4943716
770.43 5068682 5181826 5278128 5348286 5392004 5420130
776.21 5430640 5411686 5373014 5332166 5307826 5299490
782.00 5294872 5280660 5259538 5234454 5207522 5175440
787.78 5140586 5093862 5044474 5002786 4957330 4910240
793.57 4884972 4887624 4905700 4922190 4931722 4943662
799.35 4986860 5045376 5105700 5179850 5258364 5330696
805.14 5415160 5511436 5622564 5753648 5917800 6122852
810.93 6372010 6647290 6938836 7250456 7573264 7905254
816.71 8269906 8662838 9075648 9514394 10007960 10570600
822.50 11206330 11911310 12714140 13605370 14577440 15656630
828.28 16855360 18202090 19750790 21495920 23449630 25643490
834.07 28091890 30801140 33718600 36696380 39602310 42295590
839.85 44615620 46430560 47731680 48666140 49674760 51277180
845.64 53302920 55156690 56995860 59434080 62785650 66919470
851.42 71451400 75987150 80154060 83592240 86023890 87315180
857.21 87616780 87240380 86511140 85661600 84789250 84034740
862.99 83758390 84448420 86670100 90943520 98373140 112781200
868.78 135822000 154492200 155277900 143918700 130871600 119205500
874.57 108843600 100199000 93848570 89596470 86812090 84805980
880.35 83082920 81408360 79621580 77626960 75373880 72766380
886.14 69730130 66314420 62582920 58655660 54643070 50549680
891.92 46385030 42204330 38130710 34273770 30658860 27300680
897.71 24237530 21479560 19020220 16849190 14956950 13329580
903.49 11933640 10750150 9767366 8956340 8318174 7841612
909.28 7499106 7278762 7178708 7187968 7312808 7557608
915.06 7922216 8403268 8994866 9692790 10512180 11464870
920.85 12564020 13811090 15211480 16770910 18498970 20389700
926.63 22442060 24630750 26921790 29266230 31621830 33937680
932.42 36168330 38278730 40253080 42091380 43850840 45645080
938.21 47612530 49825240 52298910 55002220 57889300 60837120
943.99 63584020 65890220 67723830 69067830 70057060 70978790
949.78 72018720 73399610 75463820 78350340 81796790 84555920
955.56 85137470 82578370 76176360 67057410 60131450 58040360
961.35 58453520 59627840 61097810 62666630 64309660 65869780
967.13 67064070 67674790 67500540 66411810 64499650 62137440
972.92 59926530 58547970 57924930 56943120 55314730 53812080
978.70 53085280 53683550 55270490 56761320 57285760 56528490
984.49 54577100 51671100 48194620 44692680 41593520 39104840
990.27 37321220 36274240 35951160 36281020 37168130 38565670
996.06 40418430 42669960 45318220 48386070 51900750 55894820
1001.85 60398570 65458350 71138500 77473300 84448800 92106510
1007.63 100549700 109770600 119644300 130045300 140790000 151503100
1013.42 161747800 171072300 179012200 185127400 189131100 191032800
1019.20 191153300 190110600 188992000 188427200 188030300 188488700
1024.99 188746000 183870600 176372700 172886000 171608000 168595000
1030.77 162750600 153885400 142514700 129567000 115915600 102393000
1036.56 89860890 78988840 69904300 62474870 56531990 51873750
1042.34 48245620 45447140 43374410 42035430 41499450 41553220
1048.13 41169980 39899000 38636760 37803280 37129010 36494800
1053.91 35891960 35355020 34919260 34564960 34248680 33965430
1059.70 33721910 33500190 33276850 33040650 32762930 32448040
1065.48 32106590 31714630 31274680 30821820 30352760 29862260
1071.27 29369110 28899540 28444970 27993300 27520420 27016970
1077.06 26503560 25998130 25489660 24991330 24502330 23991610
1082.84 23450450 22892500 22336760 21801690 21294370 20816450
1088.63 20342080 19876510 19433740 18995530 18548840 18113290
1094.41 17704290 17338820 17027540 16766900 16546320 16367310
1100.20 16235680 16149560 16097280 16088310 16128170 16203240
1105.98 16301090 16423970 16579800 16770040 16987230 17259810
1111.77 17603510 18019690 18516350 19108480 19835560 20750040
1117.55 21877200 23242450 24881450 26827640 29142670 31921410
1123.34 35240200 39320210 44526270 51329460 60401470 72632060
1129.12 89023020 110479000 137517500 170184000 208519100 252707100
1134.91 301938800 353729000 404307300 449199200 483848900 504620300
1140.70 509505400 499565300 481112600 465297700 463623000 480230800
1146.48 504920800 517074500 505553300 486419400 486024500 507952500
1152.27 531359000 535424400 513675600 469515800 409905200 342814000
1158.05 275897700 214827500 162902200 121483200 90297660 67950920
1163.84 52617260 42473120 35950670 31826070 29249290 27638890
1169.62 26651670 26075640 25814940 25813690 26067690 26532730
1175.41 27138930 27890090 28861280 30086200 31566960 33263470
1181.19 35187240 37363200 39790330 42415270 45225600 48203760
1186.98 51329480 54615260 58133210 61971650 66342380 71548160
1192.76 77969080 86030040 96201960 108636500 123073400 139910600
1198.55 160642100 186170800 216291400 250797100 289947200 334090900
1204.34 383723600 439491800 502114400 572259500 650283000 736393200
1210.12 830685100 932116400 1037773000 1143411000 1244278000 1334627000
1215.91 1409190000 1464570000 1498716000 1511745000 1508593000 1498170000
1221.69 1489166000 1493392000 1511627000 1508262000 1464633000 1420564000
1227.48 1409127000 1419452000 1421043000 1389262000 1313505000 1196552000
1233.26 1051433000 894840500 741678700 603264200 486320400 393043900
1239.05 322203500 270483000 233746300 207986500 189666700 175938700
1244.83 164768500 154980400 146062200 138079800 131558800 127339500
1250.62 125312900 123079800 118202500 112153800 108328400 107613000
1256.40 108368400 108461100 106366400 101562000 94388760 85636120
1262.19 76247180 67112620 58850820 51808110 46042730 41461080
1267.98 37918780 35241020 33220650 31699100 30621170 30006990
1273.76 29822320 30009920 30568870 31614020 33315390 35802840
1279.55 39130260 43335220 48445830 54448690 61193400 68377630
1285.33 75529680 81984180 87116100 90595260 92336670 92712420
1291.12 92589160 92990210 93987600 94744700 94957900 94668020
1296.90 94187780 93925260 93876630 93798930 93260850 91730430
1302.69 88704750 83962120 77668230 70273730 62330380 54369560
1308.47 46840000 40049380 34143740 29153550 25025030 21669530
1314.26 18962720 16774730 15003810 13573730 12406320 11447550
1320.04 10641820 9954396 9374182 8883294 8459566 8102682
1325.83 7799688 7541570 7322462 7148178 7014390 6919006
1331.61 6853206 6810098 6786706 6789442 6820854 6884472
1337.40 6976378 7114700 7313960 7588350 7943530 8371514
1343.19 8862330 9454000 10180360 11046900 12068590 13283470
1348.97 14713010 16402390 18425850 20858530 23771520 27283140
1354.76 31525580 36614820 42692130 49971720 58617650 68713090
1360.54 80270000 93182440 107158200 121749500 136386400 150454300
1366.33 163226800 173980600 182449900 188818600 193897000 200090000
1372.11 209382200 217855400 219857600 218938400 221610000 228503600
1377.90 237002700 243666400 245603800 241734400 232497700 219088000
1383.68 203068300 185962400 169380900 154370800 140425700 126826100
1389.47 113771400 101891200 91709180 83061880 75300000 67968700
1395.25 60926190 54184370 47858740 42088580 36981880 32534840
1401.04 28691670 25430930 22736630 20583240 18930340 17673400
1406.83 16717780 16022010 15546200 15242860 15084370 15045220
1412.61 15097180 15207840 15352690 15524830 15713190 15870280
1418.40 16035140 16299380 16582920 16815190 17043200 17328060
1424.18 17710510 18177160 18720430 19343620 20040300 20744380
1429.97 21302480 21653650 21882910 22048320 22123970 21993660
1435.75 21657580 21242160 20762140 20277870 19889300 19648900
1441.54 19598200 19686130 19822780 19934440 19938740 19806150
1447.32 19582700 19300620 18956890 18569810 18153760 17715380
1453.11 17284480 16852000 16359230 15927310 15661910 15391210
1458.89 15020100 14592450 14181630 13818350 13471590 13164050
1464.68 12955480 12798090 12637880 12489950 12355230 12205580
1470.47 12033400 11891910 11809050 11753870 11658990 11525990
1476.25 11429140 11347160 11238280 11100340 10943800 10787890
1482.04 10648810 10520750 10384800 10229340 10069510 9931242
1487.82 9786442 9614076 9471268 9371828 9272114 9159562
1493.61 9034452 8877448 8769116 8737458 8676402 8617380
1499.39 8596262 8564564 8508802 8425792 8292582 8096792
1505.18 7933756 7899274 7969834 8023674 8024562 7996604
1510.96 7943640 7901700 7866526 7805144 7724786 7638492
1516.75 7583722 7540082 7418258 7223608 7100146 7086302
1522.53 7072346 6995058 6893106 6831546 6780910 6717196
1528.32 6660796 6599234 6519092 6418572 6305078 6238366
1534.11 6227560 6202364 6128906 5965958 5778762 5734494
1539.89 5794970 5841978 5920964 6015680 6069588 6161202
1545.68 6307542 6448372 6583754 6731324 6919056 7142174
1551.46 7352246 7512222 7688196 7954934 8193038 8299540
1557.25 8388550 8570128 8822316 9139034 9414534 9579508
1563.03 9681950 9749100 9827190 9951772 10121340 10206610
1568.82 10218140 10341250 10559380 10788730 11015820 11175150
1574.60 11223730 11342860 11584880 11746920 11814480 11856300
1580.39 11886260 11904350 11916690 11944700 12006640 12082180
1586.17 12145270 12186360 12215560 12235030 12256170 12283910
1591.96 12312860 12336600 12361780 12391400 12419260 12439780
1597.74 12460110 12477850 12512590 12593990 12738480 12941880
1603.53 13180970 13419260 13673450 13971830 14298380 14642560
1609.32 15044480 15519720 16069640 16667630 17279350 17900010
1615.10 18533240 19261330 20100690 20887090 21566120 22139050
1620.89 22618660 23064730 23608930 24295250 24986090 25529570
1626.67 26106660 27162160 28909890 31229370 33870640 36843210
1632.46 40687330 45870220 52700120 61556800 72687190 86320720
1638.24 102688400 121775300 143349000 166794700 190986700 214024400
1644.03 232963600 245274000 250034400 246747200 237163200 227813200
1649.81 229494100 249573800 273049800 267856000 238142000 223389100
1655.60 236645700 261500400 281478700 288033000 278935100 256128300
1661.38 223991800 187771300 151903800 119498100 92448370 71307150
1667.17 55583130 44338180 36493740 30980460 26966660 23929980
1672.96 21473430 19399270 17699940 16303350 15060230 13952170
1678.74 12986400 12171740 11475340 10840540 10228370 9726834
1684.53 9505622 9428580 9285922 9147210 9061088 9021634
1690.31 9022714 9037326 9009538 8868830 8563854 8313528
1696.10 8269346 8253914 8171074 8084616 8068974 8004880
1701.88 7810042 7652652 7630964 7677452 7702442 7668144
1707.67 7537148 7325088 7080458 6840162 6624674 6455830
1713.45 6344794 6322718 6333042 6345038 6452154 6593778
1719.24 6685736 6788384 6958362 7214472 7550004 7945852
1725.02 8382192 8865758 9413108 10022760 10686590 11410860
1730.81 12125040 12724860 13243150 13782200 14298830 14674920
1736.60 14954150 15308200 15907790 16859840 18099180 19692810
1742.38 21836360 24430200 27174920 29927290 32721790 35644270
1748.17 38808020 42351170 46449360 51327430 57086890 63756710
1753.95 71378590 79940980 89476030 100052400 111671500 124424900
1759.74 138507400 154178000 171694600 191148000 212702800 236834500
1765.52 264205000 295449000 331154500 371316800 415364700 463133000
1771.31 514313100 567566700 619417300 665027900 700173400 720825600
1777.09 723454800 706573600 672155300 627191000 583658900 551922500
1782.88 531975800 524810000 547272400 608986200 690330500 760200500
1788.66 798525500 800652200 772016800 721941100 659914900 593259200
1794.45 527030400 464950800 409105700 360162300 317914600 281818000
1800.24 251062000 224474200 200722600 178720000 158173000 139416100
1806.02 122555900 107259700 93217250 80396940 68941570 58963240
1811.81 50385210 43030780 36751560 31455590 27053730 23459910
1817.59 20575150 18281660 16475980 15081590 14022040 13243730
1823.38 12681600 12265460 11954970 11740400 11610000 11524620
1829.16 11465530 11419040 11325480 11160610 10943310 10701630
1834.95 10457010 10229880 10046750 9925970 9871648 9885070
1840.73 9953126 10052670 10169960 10369570 10657740 10945090
1846.52 11213230 11484050 11744310 11983040 12214820 12461150
1852.30 12731750 13021310 13320470 13628160 13943640 14268530
1858.09 14592540 14899960 15176330 15415270 15607970 15740220
1863.88 15797620 15774140 15680250 15543220 15403830 15299340
1869.66 15192630 15023750 14775770 14477860 14198350 13979800
1875.45 13787010 13543920 13200690 12743150 12177840 11540330
1881.23 10876860 10235610 9657240 9168716 8777294 8476776
1887.02 8252028 8086854 7984732 7948620 7944680 7951278
1892.80 7971448 8006016 8051384 8081050 8072484 8044520
1898.59 7996444 7911086 7777806 7595176 7397904 7219356
1904.37 7041872 6819874 6573868 6410640 6283462 6035170
1910.16 5747772 5558132 5394802 5181876 4907250 4572462
1915.94 4197814 3833318 3523510 3256544 3018276 2820064
1921.73 2664892 2554858 2476204 2416064 2375732 2354334
1927.51 2344580 2342580 2346166 2355408 2367362 2386920
1933.30 2416384 2453878 2498554 2547030 2597158 2651082
1939.09 2702636 2745542 2777628 2810086 2839464 2850700
1944.87 2849414 2843980 2832834 2823448 2820652 2821174
1950.66 2835000 2870834 2916474 2960348 2995946 3019870
1956.44 3029496 3023616 2997832 2953552 2894842 2829646
1962.23 2766432 2706562 2654534 2615642 2587988 2577896
1968.01 2583682 2603080 2644484 2709962 2800926 2920810
1973.80 3067628 3248656 3468510 3724180 4020492 4362170
1979.58 4743036 5151870 5572130 5985850 6369058 6699422
1985.37 6955702 7119350 7183758 7171340 7134444 7151352
1991.15 7295024 7541994 7710188 7636446 7444462 7401056
1996.94 7546096 7723908 7789048 7660574 7316022 6791574
2002.73 6155402 5489260 4863352 4322700 3889398 3565996
2008.51 3339150 3186812 3087362 3023476 2980762 2954262
2014.30 2940186 2932956 2925998 2921800 2927496 2946652
2020.08 2965422 2957478 2924510 2898612 2892218 2896578
2025.87 2907456 2921920 2932970 2943962 2960670 2979376
2031.65 2999138 3028432 3074210 3139540 3221600 3315330
2037.44 3425638 3564946 3735238 3939900 4187376 4474742
2043.22 4792620 5143370 5536352 5977918 6470898 7012050
2049.01 7593980 8219008 8886042 9587076 10316820 11055210
2054.79 11772780 12453060 13080750 13646160 14135870 14527450
2060.58 14816480 15022790 15180830 15349610 15525050 15580240
2066.37 15463040 15307540 15210660 15120780 14944770 14618640
2072.15 14107380 13405420 12540930 11563520 10525680 9490458
2077.94 8514646 7628462 6845334 6171224 5606330 5142244
2083.72 4761800 4449298 4197264 3996454 3831112 3691156
2089.51 3569934 3470334 3387244 3308128 3231986 3170564
2095.29 3124610 3087582 3057726 3042650 3048270 3062226
2101.08 3077084 3101796 3148144 3213118 3281978 3353170
2106.86 3434832 3522592 3600636 3666126 3733188 3808630
2112.65 3873192 3913898 3936896 3954226 3955200 3927994
2118.43 3891648 3879944 3897796 3934600 3968488 3971640
2124.22 3952928 3941420 3949896 3964256 3943422 3849962
2130.01 3680478 3459600 3213492 2958252 2714764 2512994
2135.79 2360134 2249200 2180078 2147780 2136968 2140188
2141.58 2158896 2188486 2222706 2255796 2284000 2311126
2147.36 2335860 2353580 2365952 2378956 2396674 2413714
2153.15 2427270 2451058 2482112 2503340 2520292 2548682
2158.93 2582458 2607170 2627110 2653572 2671370 2662138
2164.72 2641588 2631078 2615252 2583366 2559066 2551900
2170.50 2538218 2516794 2511204 2496526 2440340 2380100
2176.29 2343376 2304204 2239520 2161400 2076776 1971098
2182.07 1853316 1748466 1656198 1570176 1501970 1455198
2187.86 1413260 1374824 1354334 1343044 1321266 1294040
2193.64 1267874 1234894 1200346 1175834 1151994 1124358
2199.43 1105030 1100470 1103514 1112984 1132382 1158866
2205.22 1189248 1228798 1280084 1338978 1401400 1467316
2211.00 1541508 1622530 1697732 1766302 1839268 1917594
2216.79 1994302 2071794 2155826 2237638 2306004 2368208
2222.57 2432456 2504592 2583306 2650340 2692162 2711294
2228.36 2711304 2692758 2664156 2629616 2588486 2545418
2234.14 2501506 2454658 2403480 2346926 2282950 2216490
2239.93 2154418 2094744 2032776 1969554 1907168 1848352
2245.71 1792488 1740476 1697452 1663792 1627560 1585042
2251.50 1541974 1494490 1440882 1387842 1339360 1296994
2257.28 1262740 1240072 1226750 1223110 1232838 1255500
2263.07 1290234 1336172 1397780 1481314 1583358 1701242
2268.86 1841288 2017218 2234660 2491122 2783778 3112512
2274.64 3478610 3876116 4289448 4700072 5090976 5439446
2280.43 5730662 5958472 6106562 6177080 6194384 6178426
2286.21 6154578 6155962 6190870 6239342 6280132 6279482
2292.00 6224996 6159740 6074094 5910208 5648454 5279470
2297.78 4792062 4212024 3594080 2987426 2431886 1960256
2303.57 1586148 1301136 1095066 951220 847086 772420
2309.35 723524 691728 667206 647644 636084 631814
2315.14 632664 637262 636354 632480 634292 644756
2320.92 659026 670992 682954 701564 725984 754090
2326.71 786922 825062 867138 915094 968076 1026206
2332.50 1094282 1169954 1244900 1320834 1398750 1475444
2338.28 1549914 1619158 1676574 1721776 1763956 1804512
2344.07 1836354 1861562 1888738 1923082 1967042 2025978
2349.85 2095036 2163460 2228706 2285908 2324456 2342630
2355.64 2337220 2308462 2268688 2222048 2171742 2124368
2361.42 2084576 2052744 2021522 1985106 1947464 1911406
2367.21 1872628 1834232 1797370 1762972 1733308 1703594
2372.99 1664872 1610842 1549858 1498778 1460210 1420588
2378.78 1366882 1296304 1215704 1135184 1058894 987358
2384.56 927324 885596 859032 844112 838714 844846
2390.35 862996 882272 900970 920630 939826 968154
2396.14 1003850 1038366 1074602 1112766 1149174 1189852
2401.92 1238098 1286968 1333958 1380906 1432752 1491042
2407.71 1548762 1605014 1665220 1733588 1809812 1889342
2413.49 1973994 2071480 2183242 2302756 2420740 2527790
2419.28 2629454 2743162 2869444 3001010 3144572 3302182
2425.06 3464018 3630458 3802306 3974414 4144990 4310042
2430.85 4455534 4569792 4652212 4698626 4702810 4672692
2436.63 4623758 4575296 4545542 4531100 4497188 4407534
2442.42 4290468 4199100 4130072 4048502 3931512 3770378
2448.20 3560660 3308324 3029862 2749886 2488260 2248254
2453.99 2032168 1850506 1704742 1584398 1478812 1387236
2459.77 1315100 1259852 1210444 1160114 1113924 1079598
2465.56 1051724 1022648 999676 982088 961740 942794
2471.35 931586 924650 914440 900090 883552 866330
2477.13 850642 837082 829258 831194 842242 860154
2482.92 885440 915698 946504 977262 1000022 1004918
2488.70 1003728 1007774 1012990 1025494 1047984 1063874
2494.49 1056746 1034568 1024172 1030270 1042322 1053142
2500.27 1046668 1015012 965808 906576 840720 769334
2506.06 699914 642608 595012 549638 512146 486996
2511.84 469236 457574 450020 442302 434208 424810
2517.63 413498 402782 396222 391270 383084 373628
2523.41 363154 349386 335544 323448 310006 292848
2529.20 274596 258934 250720 245566 232228 216308
2534.99 209694 204314 190780 178890 176226 175286
2540.77 168078 159806 159146 157710 149844 144222
2546.56 141546 137628 136026 137878 139062 138672
2552.34 139142 142040 147194 149962 144868 136450
2558.13 134028 137714 140180 140892 143300 151374
2563.91 163640 175544 191470 213352 238610 267554
2569.70 300768 338766 380488 423264 466114 509580
2575.48 553278 599088 650910 705316 755024 795248
2581.27 833810 876542 918270 955178 992104 1033072
2587.05 1068008 1084456 1088376 1088514 1083384 1073318
2592.84 1058328 1043166 1030438 1012168 987004 961022
2598.63 941768 926360 898118 857470 819106 786052
2604.41 748694 706024 667630 635284 608660 592464
2610.20 587970 593832 611260 636860 671310 716214
2615.98 764524 812682 860286 909552 959284 1001278
2621.77 1035300 1063514 1082918 1094906 1106802 1118798
2627.55 1127828 1138282 1151002 1160134 1165530 1169618
2633.34 1179228 1191290 1192944 1179720 1146416 1088010
2639.12 1014080 933636 850404 769844 696530 632388
2644.91 578340 538608 515402 501860 490956 484148
2650.69 478320 473068 476164 481034 482948 489970
2656.48 503516 515706 522622 533866 552802 569198
2662.27 581870 594644 608176 622374 634776 642672
2668.05 650362 650974 641788 637594 639136 636096
2673.84 629428 620630 607420 591418 575358 561798
2679.62 548274 527124 501782 478126 450070 417200
2685.41 384052 355562 336470 320634 301612 284002
2691.19 271848 261388 253712 247088 234764 222936
2696.98 219220 216782 210446 202942 198272 199274
2702.76 201794 203024 205214 204506 203628 210616
2708.55 216512 213266 207806 205462 207562 215220
2714.33 222244 223468 224332 229284 236878 242362
2720.12 243324 242884 248376 258356 265622 271086
2725.91 281638 301336 319452 327576 338904 362578
2731.69 394318 432442 472500 511986 559212 616744
2737.48 678090 742714 812864 890148 979918 1075572
2743.26 1172284 1273894 1374610 1464072 1539138 1600864
2749.05 1651168 1683308 1689280 1672916 1644460 1608372
2754.83 1565270 1527756 1517332 1541726 1594724 1669784
2760.62 1749590 1809394 1833070 1808524 1732480 1620124
2766.40 1494018 1357748 1218202 1095300 993284 901950
2772.19 817296 744268 684660 639976 611286 592522
2777.97 581444 581074 589222 597550 605456 620584
2783.76 645838 672352 697216 722348 735784 735674
2789.54 735338 736206 740748 755624 779820 804792
2795.33 822096 839540 860464 875394 882520 882578
2801.12 872680 847960 801974 740500 678846 617892
2806.90 554748 494000 441964 412050 402562 394530
2812.69 384430 380120 379820 379776 381262 386236
2818.47 389772 383242 370980 365626 371904 378976
2824.26 381764 385540 393718 402436 410640 419068
2830.04 425630 434600 444918 449260 455168 469832
2835.83 491138 514458 536352 557566 584348 622428
2841.61 668356 713586 755336 804342 865384 926190
2847.40 980048 1029718 1075214 1117634 1159452 1195552
2853.18 1217586 1230738 1249354 1271034 1283370 1288712
2858.97 1294094 1304006 1318116 1330550 1334172 1325754
2864.76 1312810 1300952 1283408 1248144 1203602 1160226
2870.54 1114834 1072424 1027578 974496 922376 879702
2876.33 849360 818876 786478 757858 734382 721188
2882.11 711982 695402 674682 656304 640996 630098
2887.90 624532 625832 628902 623590 614140 611750
2893.68 617540 622640 626284 629368 627486 630432
2899.47 640042 641676 637012 636624 643634 650362
2905.25 652740 654982 656084 661440 675874 690476
2911.04 704124 714122 717528 725114 739198 756228
2916.82 771844 787662 810230 841130 880914 924036
2922.61 972592 1025590 1076826 1132826 1200782 1280806
2928.40 1373690 1476112 1589080 1718830 1858342 2000870
2934.18 2161594 2351404 2571300 2819612 3089886 3381268
2939.97 3696752 4035362 4386092 4720824 5021364 5276574
2945.75 5471630 5599894 5665028 5693484 5723824 5779000
2951.54 5862662 5956690 6064564 6214088 6404158 6605576
2957.32 6783388 6898662 6929498 6877564 6773064 6625796
2963.11 6422708 6189070 5955282 5737554 5547882 5389488
2968.89 5254364 5144318 5062264 5002218 4961748 4934656
2974.68 4909174 4893152 4898584 4919582 4942576 4965950
2980.46 5000904 5047356 5097936 5159198 5235588 5316986
2986.25 5401790 5492156 5581182 5690664 5865654 6129850
2992.04 6478040 6786686 6868900 6776920 6680718 6603778
2997.82 6534234 6493498 6479776 6458320 6410838 6344494
3003.61 6280170 6240030 6234430 6236366 6215814 6184316
3009.39 6176782 6211336 6271482 6328018 6366578 6391542
3015.18 6421960 6489778 6604746 6750844 6929550 7142442
3020.96 7381294 7636912 7899936 8165776 8422358 8659866
3026.75 8873642 9057254 9209072 9327146 9427698 9537100
3032.53 9684560 9882320 10038800 10077560 10089740 10167440
3038.32 10297190 10429650 10547010 10646600 10720720 10780820
3044.10 10855680 10964710 11110630 11290980 11488870 11674500
3049.89 11835250 11975050 12094520 12172800 12196160 12189220
3055.67 12201760 12269890 12388970 12506820 12560540 12555340
3061.46 12566830 12639630 12743580 12839320 12872660 12783270
3067.25 12568240 12252980 11867450 11436620 10991190 10577760
3073.03 10220950 9924532 9690402 9503410 9365610 9296834
3078.82 9292746 9347278 9488012 9735218 10099450 10598140
3084.60 11257910 12110540 13193800 14533980 16117340 17893060
3090.39 19775710 21649530 23379790 24780100 25659900 25882680
3096.17 25421130 24472940 23553360 23330010 24188020 25476120
3101.96 25344390 23303450 21814480 22523910 24306420 25691700
3107.74 26032990 25219840 23448320 21067030 18453200 15930690
3113.53 13738850 12030040 10865920 10242650 10120890 10424990
3119.31 11034480 11823830 12690250 13502690 14098320 14349410
3125.10 14195880 13658510 12903760 12294950 12195780 12410100
3130.89 12253580 11752440 11617870 12124280 12968020 13723940
3136.67 14113140 14015920 13432590 12462390 11255890 9952244
3142.46 8669914 7490110 6444126 5545432 4805786 4211846
3148.24 3733246 3345720 3023810 2740994 2493344 2280930
3154.03 2097476 1939636 1800446 1668746 1545820 1436018
3159.81 1342692 1268660 1200438 1132860 1071704 1013744
3165.60 963448 922154 879062 831046 785696 748926
3171.38 719914 695356 677774 667544 662182 650218
3177.17 634062 618888 601242 586238 577324 574180
3182.95 573730 568546 557566 546586 540512 539362
3188.74 536806 538472 549062 558116 563896 567486
3194.53 570158 569146 556754 533730 513482 502910
3200.31 490926 474164 457202 435510 417776 412508
3206.10 408934 400356 386552 367226 350844 340230
3211.88 327140 310112 303058 304486 300832 291706
3217.67 275786 258530 244604 231768 221216 209952
3223.45 197298 182326 167954 159192 152726 140574
3229.24 126654 113832 106938 106778 101668 89332
3235.02 74620 69640 69316 56166 39506 33278
3240.81 30542 25076 17242 15302 21464 17350
3246.59 3960-2152-3702-5928-1186 5182
3252.38 8714 15302 20494 17874 12920 4236
3258.17-4284-5202-5346-5246-3836-5324
3263.95-8778-15836-18708-18472-25792-29024
3269.74-25956-31602-40280-43316-39144-34732
3275.52-49328-73580-82278-79432-72180-60188
3281.31-51332-46920-38540-27900-23718-18694
3287.09-1086 8956 4738 12038 27944 32976
3292.88 32906 30416 27782 31106 37990 38864
3298.66 35008 32738 31194 32070 33094 20094
3304.45-2734-29540-62452-95738-127878-150190
3310.23-159720-173516-196484-220266-236488-253696
3316.02-279316-293680-280988-261294-254328-260876
3321.80-269320-261666-247388-245422-241268-221796
3327.59-203060-186426-158560-134726-124154-112498
3333.38-97560-86752-72898-59662-50532-36640
3339.16-19902-10644-7846-5590 1006 11636
3344.95 21998 26094 22088 17946 14302 8914
3350.73-3076-24360-37192-39318-37802-43478
3356.52-59890-69838-73502-77516-78106-74074
3362.30-76958-91946-97216-88564-81940-82320
3368.09-80220-74074-70332-73112-79330-76632
3373.87-69584-62712-51552-39214-28828-20894
3379.66-18958-28190-36604-29962-17000-12972
3385.44-13540-12506-12328-18650-17608-4640
3391.23-1362-1448 1416-10268-31588-41432
3397.02-36826-38736-51244-61458-59782-57424
3402.80-68118-84130-97404-98922-89588-84254
3408.59-86172-86262-84792-82762-78254-71860
3414.37-60110-54392-57054-56092-41688-39714
3420.16-56704-59160-45948-35708-32760-32584
3425.94-25782-15704-15592-21414-23274-18592
3431.73-12326-12908-14440-12758-11758-12418
3437.51-17006-16952-9778-11624-12442-22
3443.30 19162 33850 39798 38270 35566 32252
3449.08 34342 53160 77784 94310 102958 112066
3454.87 125094 131058 124944 114616 111154 104396
3460.66 92404 87516 86664 92246 97258 92470
3466.44 94032 102414 103854 100064 99684 103866
3472.23 98826 66396 36128 27898 18750 2430
3478.01-4554-11692-25194-32340-29832-33608
3483.80-58360-76472-74530-75688-83866-89272
3489.58-89676-86960-79826-72148-72944-77188
3495.37-78164-71702-55782-40428-32410-27796
3501.15-19982-16824-18606-5532 28344 61662
3506.94 87582 116980 156256 198838 242610 294754
3512.72 348812 409378 480978 554672 633554 733856
3518.51 856006 979704 1106724 1245446 1405698 1593970
3524.30 1796742 2015630 2267074 2555190 2874746 3227866
3530.08 3608782 4019704 4477572 4974202 5491572 6022826
3535.87 6563834 7085442 7554526 7948482 8244954 8422364
3541.65 8461946 8365888 8173544 7928702 7680352 7493994
3547.44 7397854 7431300 7679806 8152350 8734908 9244250
3553.22 9511774 9438046 9026734 8376700 7605076 6791782
3559.01 5981168 5230238 4567344 3988338 3503928 3080324
3564.79 2683776 2338060 2049780 1808484 1586228 1355650
3570.58 1134310 941326 778008 625320 480448 354110
3576.36 251372 172674 101746 39708 2862-21872
3582.15-46638-67826-100398-155082-193350-202138
3587.94-197202-180116-173316-182786-197510-208746
3593.72-219854-225252-222276-227546-236374-249610
3599.51-266148-273242-279568-290432-292934-299848
3605.29-327214-349360-369054-387622-361856-342480
3611.08-358758-357716-348952-353204-347936-349970
3616.86-366134-389132-392214-350026-317832-309062
3622.65-299488-291640-285946-294374-348958-434038
3628.43-448364-357692-271180-251862-257334-258680
3634.22-250940-242124-245646-252210-239044-216880
3640.00-209018-216348-223528-220536-218110-238556
3645.79-272924-308158-365532-384526-337930-289220
3651.57-250540-234046-243814-285108-305298-258278
3657.36-212726-209578-217802-218660-211370-201700
3663.15-194348-196406-204402-220298-259990-307924
3668.93-361448-378028-302776-244186-273288-366312
3674.72-423660-360896-272794-253164-256686-241862
3680.50-227186-230942-242236-250860-249166-255666
3686.29-335346-443486-414922-338618-328264-306046
3692.07-272188-261490-262762-265744-264876-261542
3697.86-259018-261682-279684-294922-279800-266250
3703.64-266842-264700-257252-260054-295008-322544
3709.43-316432-349028-366352-297946-245064-239518
3715.21-242276-250400-255446-249644-241078-254272
3721.00-277726-267558-244148-245692-267488-279474
3726.79-259852-235972-226544-252930-320922-340670
3732.57-308168-316880-346708-362508-331022-280334
3738.36-256938-253870-258910-276288-383974-555766
3744.14-532692-349786-268954-327922-444228-447302
3749.93-401996-460328-432128-311768-263320-268206
3755.71-273198-263874-269412-288898-275806-244584
3761.50-231062-236144-253220-265170-251256-231734
3767.28-241000-278076-290982-259296-230168-221314
3773.07-224306-228186-231348-231494-230948-254562
3778.85-270766-249424-232286-237864-251038-257332
3784.64-250002-238188-230206-228474-234712-233282
3790.43-220836-215160-219128-230386-248622-261524
3796.21-254358-242726-249646-314704-415024-398896
3802.00-290564-224208-209462-266740-349256-323106
3807.78-241694-211044-206114-199816-195508-205730
3813.57-252848-349854-361526-259700-206344-225220
3819.35-282084-322362-282626-213470-180944-181530
3825.14-197654-200132-181670-168758-175776-209702
3830.92-226410-199470-196570-216920-210274-263826
3836.71-354244-302694-206566-192204-181096-168390
3842.49-181790-174756-147022-137886-141994-140290
3848.28-137324-163790-257532-344130-407492-478700
3854.07-375242-201102-145986-135778-127902-131146
3859.85-147014-164430-156828-161976-196582-181296
3865.64-131476-120658-165354-244468-243576-158262
3871.42-112022-124138-133722-112040-96248-94618
3877.21-87478-102072-125700-111262-83638-70902
3882.99-79932-131402-160072-108962-51430-33144
3888.78-46320-84848-89698-46800-21224-16844
3894.56-11050-9660-24394-61954-79564-53704
3900.35-51662-59072-57420-64956-43418-3554
3906.13 34414 51126 43724 38740 44168 47054
3911.92 51276 59434 59806 50938 34428 32846
3917.70 55574 69644 70964 72980 71890 64786
3923.49 58904 60176 66102 67658 66438 64414
3929.28 63028 62122 58192 62296 71022 75554
3935.06 86922 96328 93304 86794 83458 83068
3940.85 77566 66324 77084 99276 109274 109566
3946.63 110616 116048 116630 124234 143342 156908
3952.42 172978 189342 202586 223710 238208 240388
3958.20 246974 258480 276524 306402 342928 373182
3963.99 396740 428742 470532 499124 516740 538508
3969.77 556798 568028 582334 600814 618038
##END=
