##TITLE=MALEIC ANHYDRIDE
##JCAMP-DX=4.24
##DATA TYPE=INFRARED SPECTRUM
##CLASS=COBLENTZ III
##ORIGIN=DOW CHEMICAL COMPANY
##OWNER=COBLENTZ SOCIETY
Collection (C) 2018 copyright by the U.S. Secretary of Commerce
on behalf of the United States of America. All rights reserved.
##DATE=1973/07/17
##NAMES=2,5-furandione
2,5-FURANDIONE
##CAS REGISTRY NO=108-31-6
##MOLFORM=C4 H2 O3
##SOURCE REFERENCE=COBLENTZ NO. 10198
##$NIST SOURCE=COBLENTZ
##$NIST IMAGE=cob10198
##SPECTROMETER/DATA SYSTEM=BECKMAN IR-9 (GRATING)
##INSTRUMENT PARAMETERS=ORDER CHANGES AT 670, 1200, 2000 CM^-^1
##STATE=SOLID (SPLIT MULL, FLUOROLUBE FOR 3800-1330 AND NUJOL FOR 1330-400 CM ^-^1)
##SAMPLING PROCEDURE=TRANSMISSION
##RESOLUTION=4
##DATA PROCESSING=DIGITIZED BY NIST FROM HARD COPY (FROM TWO SEGMENTS)
##XUNITS=1/CM
##YUNITS=TRANSMITTANCE
##XFACTOR=1.000000
##YFACTOR=1
##DELTAX=0.853242
##FIRSTX=404.437
##LASTX=3796.93
##FIRSTY=0.636
##MAXX=3796.93
##MINX=404.437
##MAXY=0.99
##MINY=0.073
##NPOINTS=3977
##XYDATA=(X++(Y..Y))
404.437000 0.6360 0.6340 0.6330 0.6260 0.6060
408.703211 0.5811 0.5332 0.5320 0.5330 0.5400
412.969422 0.5520 0.5690 0.5890 0.5970 0.6090
417.235634 0.6180 0.6320 0.6410 0.6520 0.6659
421.501845 0.6780 0.6860 0.6960 0.7090 0.7120
425.768056 0.7250 0.7300 0.7410 0.7440 0.7520
430.034267 0.7600 0.7650 0.7690 0.7770 0.7770
434.300479 0.7820 0.7860 0.7940 0.7960 0.7970
438.566690 0.8000 0.8040 0.8100 0.8120 0.8160
442.832901 0.8210 0.8240 0.8250 0.8280 0.8330
447.099112 0.8360 0.8380 0.8400 0.8420 0.8460
451.365324 0.8500 0.8530 0.8540 0.8560 0.8570
455.631535 0.8580 0.8610 0.8650 0.8690 0.8700
459.897746 0.8720 0.8740 0.8760 0.8770 0.8800
464.163957 0.8810 0.8820 0.8850 0.8890 0.8900
468.430168 0.8930 0.8940 0.8970 0.8970 0.9010
472.696380 0.9020 0.9050 0.9060 0.9090 0.9120
476.962591 0.9120 0.9130 0.9140 0.9170 0.9200
481.228802 0.9220 0.9240 0.9250 0.9250 0.9260
485.495013 0.9280 0.9280 0.9300 0.9320 0.9330
489.761225 0.9360 0.9370 0.9380 0.9380 0.9400
494.027436 0.9400 0.9410 0.9420 0.9440 0.9450
498.293647 0.9460 0.9480 0.9490 0.9490 0.9490
502.559858 0.9500 0.9520 0.9530 0.9530 0.9540
506.826070 0.9540 0.9540 0.9560 0.9570 0.9570
511.092281 0.9570 0.9580 0.9600 0.9600 0.9610
515.358492 0.9610 0.9640 0.9640 0.9640 0.9640
519.624703 0.9650 0.9650 0.9650 0.9660 0.9660
523.890914 0.9660 0.9680 0.9680 0.9680 0.9680
528.157126 0.9680 0.9680 0.9690 0.9690 0.9690
532.423337 0.9690 0.9700 0.9700 0.9700 0.9700
536.689548 0.9700 0.9700 0.9700 0.9700 0.9700
540.955759 0.9700 0.9700 0.9700 0.9700 0.9700
545.221971 0.9700 0.9700 0.9700 0.9700 0.9700
549.488182 0.9700 0.9700 0.9700 0.9700 0.9700
553.754393 0.9700 0.9700 0.9690 0.9690 0.9650
558.020604 0.9570 0.9240 0.8252 0.8170 0.8170
562.286816 0.8698 0.8859 0.9049 0.9418 0.9559
566.553027 0.9620 0.9680 0.9690 0.9700 0.9720
570.819238 0.9740 0.9760 0.9760 0.9770 0.9770
575.085449 0.9780 0.9780 0.9780 0.9780 0.9780
579.351660 0.9780 0.9780 0.9800 0.9800 0.9810
583.617872 0.9810 0.9810 0.9820 0.9820 0.9820
587.884083 0.9820 0.9820 0.9840 0.9840 0.9840
592.150294 0.9840 0.9840 0.9840 0.9840 0.9840
596.416505 0.9840 0.9840 0.9840 0.9840 0.9840
600.682717 0.9820 0.9810 0.9810 0.9800 0.9800
604.948928 0.9800 0.9780 0.9780 0.9780 0.9780
609.215139 0.9780 0.9800 0.9800 0.9800 0.9800
613.481350 0.9820 0.9820 0.9840 0.9850 0.9850
617.747561 0.9850 0.9850 0.9850 0.9860 0.9880
622.013773 0.9890 0.9900 0.9900 0.9900 0.9880
626.279984 0.9860 0.9840 0.9820 0.9810 0.9800
630.546195 0.9780 0.9760 0.9700 0.9650 0.9620
634.812406 0.9580 0.9450 0.9400 0.9360 0.9340
639.078618 0.9330 0.9210 0.9180 0.9180 0.9369
643.344829 0.9450 0.9560 0.9640 0.9680 0.9700
647.611040 0.9730 0.9740 0.9740 0.9760 0.9760
651.877251 0.9770 0.9770 0.9780 0.9780 0.9780
656.143463 0.9780 0.9780 0.9780 0.9780 0.9780
660.409674 0.9770 0.9770 0.9770 0.9770 0.9760
664.675885 0.9760 0.9760 0.9760 0.9760 0.9740
668.942096 0.9740 0.9730 0.9720 0.9690 0.9690
673.208307 0.9650 0.9620 0.9560 0.9480 0.9420
677.474519 0.9370 0.9330 0.9280 0.9210 0.9180
681.740730 0.9140 0.9130 0.9100 0.9060 0.8980
686.006941 0.8810 0.8650 0.8450 0.8290 0.7641
690.273152 0.6683 0.5903 0.5013 0.4164 0.3603
694.539364 0.3460 0.3450 0.3610 0.4039 0.4699
698.805575 0.5618 0.6837 0.7807 0.8368 0.8808
703.071786 0.8900 0.9120 0.9200 0.9360 0.9420
707.337997 0.9570 0.9660 0.9720 0.9760 0.9800
711.604209 0.9820 0.9840 0.9850 0.9850 0.9850
715.870420 0.9850 0.9850 0.9820 0.9800 0.9770
720.136631 0.9760 0.9730 0.9720 0.9700 0.9690
724.402842 0.9690 0.9690 0.9690 0.9700 0.9720
728.669053 0.9720 0.9730 0.9760 0.9770 0.9770
732.935265 0.9770 0.9770 0.9770 0.9770 0.9780
737.201476 0.9780 0.9780 0.9800 0.9800 0.9800
741.467687 0.9800 0.9810 0.9820 0.9820 0.9840
745.733898 0.9850 0.9850 0.9850 0.9850 0.9840
750.000110 0.9840 0.9850 0.9850 0.9850 0.9850
754.266321 0.9850 0.9860 0.9860 0.9860 0.9860
758.532532 0.9860 0.9860 0.9860 0.9860 0.9880
762.798743 0.9860 0.9860 0.9860 0.9850 0.9840
767.064955 0.9820 0.9820 0.9820 0.9820 0.9840
771.331166 0.9850 0.9850 0.9860 0.9860 0.9860
775.597377 0.9860 0.9860 0.9860 0.9860 0.9850
779.863588 0.9850 0.9840 0.9840 0.9840 0.9820
784.129799 0.9800 0.9780 0.9770 0.9770 0.9770
788.396011 0.9770 0.9770 0.9770 0.9770 0.9770
792.662222 0.9780 0.9780 0.9780 0.9780 0.9780
796.928433 0.9800 0.9800 0.9800 0.9800 0.9780
801.194644 0.9780 0.9780 0.9770 0.9760 0.9760
805.460856 0.9760 0.9760 0.9740 0.9730 0.9720
809.727067 0.9680 0.9650 0.9600 0.9570 0.9540
813.993278 0.9530 0.9450 0.9410 0.9370 0.9320
818.259489 0.9210 0.9100 0.8980 0.8890 0.8731
822.525701 0.8690 0.8560 0.8380 0.8240 0.8060
826.791912 0.7940 0.7761 0.7650 0.7292 0.6922
831.058123 0.6620 0.6160 0.5760 0.5121 0.4681
835.324334 0.3802 0.3132 0.2482 0.2291 0.2171
839.590545 0.2170 0.2770 0.3780 0.4559 0.4800
843.856757 0.4840 0.4341 0.4340 0.5396 0.6953
848.122968 0.7140 0.7770 0.8299 0.8600 0.8620
852.389179 0.8899 0.8940 0.9050 0.9100 0.9120
856.655390 0.9140 0.9160 0.9170 0.9170 0.9140
860.921602 0.9100 0.9080 0.9040 0.9010 0.8970
865.187813 0.8920 0.8890 0.8600 0.8161 0.7402
869.454024 0.6722 0.6720 0.7168 0.7807 0.7939
873.720235 0.8160 0.8300 0.8330 0.8360 0.8380
877.986447 0.8380 0.8380 0.8320 0.8041 0.7841
882.252658 0.7740 0.7400 0.6941 0.6601 0.6201
886.518869 0.5891 0.5521 0.5012 0.4522 0.3933
890.785080 0.3400 0.2820 0.2720 0.2610 0.2580
895.051291 0.2580 0.2730 0.3158 0.3369 0.3888
899.317503 0.4440 0.5080 0.5680 0.5890 0.6299
903.583714 0.6530 0.6640 0.6770 0.6820 0.6900
907.849925 0.6920 0.6920 0.6930 0.7060 0.7339
912.116136 0.7569 0.7759 0.7939 0.8079 0.8239
916.382348 0.8380 0.8520 0.8580 0.8650 0.8740
920.648559 0.8900 0.8960 0.8980 0.9020 0.9100
924.914770 0.9100 0.9130 0.9170 0.9180 0.9200
929.180981 0.9210 0.9220 0.9250 0.9280 0.9280
933.447193 0.9300 0.9300 0.9320 0.9320 0.9320
937.713404 0.9330 0.9330 0.9330 0.9330 0.9340
941.979615 0.9360 0.9370 0.9370 0.9370 0.9370
946.245826 0.9370 0.9360 0.9340 0.9330 0.9330
950.512037 0.9330 0.9330 0.9330 0.9330 0.9330
954.778249 0.9320 0.9260 0.9210 0.9051 0.9020
959.044460 0.9050 0.9240 0.9360 0.9370 0.9370
963.310671 0.9380 0.9410 0.9410 0.9420 0.9440
967.576882 0.9440 0.9450 0.9450 0.9450 0.9450
971.843094 0.9450 0.9450 0.9450 0.9450 0.9450
976.109305 0.9460 0.9460 0.9460 0.9480 0.9480
980.375516 0.9490 0.9500 0.9500 0.9500 0.9520
984.641727 0.9520 0.9520 0.9520 0.9520 0.9520
988.907939 0.9520 0.9520 0.9520 0.9530 0.9530
993.174150 0.9530 0.9530 0.9540 0.9540 0.9540
997.440361 0.9540 0.9540 0.9560 0.9570 0.9570
1001.706572 0.9580 0.9580 0.9600 0.9610 0.9610
1005.972783 0.9610 0.9620 0.9620 0.9640 0.9620
1010.238995 0.9620 0.9620 0.9620 0.9620 0.9620
1014.505206 0.9620 0.9620 0.9620 0.9620 0.9620
1018.771417 0.9620 0.9620 0.9610 0.9610 0.9610
1023.037628 0.9610 0.9600 0.9580 0.9570 0.9560
1027.303840 0.9560 0.9540 0.9540 0.9490 0.9450
1031.570051 0.9420 0.9420 0.9420 0.9420 0.9440
1035.836262 0.9450 0.9450 0.9450 0.9450 0.9450
1040.102473 0.9420 0.9400 0.9370 0.9340 0.9320
1044.368684 0.9320 0.9260 0.9170 0.9120 0.8960
1048.634896 0.8880 0.8531 0.8291 0.8021 0.7761
1052.901107 0.7480 0.6980 0.6021 0.4962 0.3982
1057.167318 0.3461 0.2942 0.2661 0.2401 0.2400
1061.433529 0.3001 0.4890 0.5490 0.5890 0.6020
1065.699741 0.6050 0.5422 0.5420 0.6606 0.7138
1069.965952 0.7850 0.8300 0.8600 0.8690 0.8740
1074.232163 0.8810 0.8900 0.8940 0.9010 0.9129
1078.498374 0.9180 0.9220 0.9280 0.9290 0.9330
1082.764586 0.9340 0.9360 0.9380 0.9400 0.9410
1087.030797 0.9420 0.9450 0.9460 0.9490 0.9520
1091.297008 0.9530 0.9530 0.9540 0.9540 0.9560
1095.563219 0.9560 0.9570 0.9570 0.9580 0.9600
1099.829430 0.9600 0.9580 0.9570 0.9560 0.9540
1104.095642 0.9530 0.9480 0.9450 0.9440 0.9420
1108.361853 0.9410 0.9410 0.9410 0.9410 0.9410
1112.628064 0.9420 0.9420 0.9420 0.9420 0.9420
1116.894275 0.9420 0.9420 0.9420 0.9460 0.9540
1121.160487 0.9580 0.9680 0.9680 0.9700 0.9720
1125.426698 0.9720 0.9720 0.9720 0.9730 0.9730
1129.692909 0.9740 0.9760 0.9760 0.9760 0.9760
1133.959120 0.9770 0.9770 0.9770 0.9770 0.9770
1138.225332 0.9760 0.9740 0.9720 0.9660 0.9620
1142.491543 0.9610 0.9600 0.9600 0.9600 0.9600
1146.757754 0.9600 0.9600 0.9600 0.9600 0.9600
1151.023965 0.9580 0.9570 0.9560 0.9560 0.9560
1155.290176 0.9560 0.9560 0.9560 0.9540 0.9540
1159.556388 0.9540 0.9560 0.9560 0.9540 0.9540
1163.822599 0.9540 0.9540 0.9530 0.9530 0.9520
1168.088810 0.9520 0.9520 0.9520 0.9520 0.9520
1172.355021 0.9520 0.9500 0.9500 0.9500 0.9500
1176.621233 0.9500 0.9490 0.9480 0.9480 0.9450
1180.887444 0.9420 0.9420 0.9440 0.9490 0.9500
1185.153655 0.9530 0.9530 0.9530 0.9540 0.9560
1189.419866 0.9560 0.9560 0.9570 0.9570 0.9560
1193.686078 0.9560 0.9560 0.9570 0.9570 0.9560
1197.952289 0.9560 0.9560 0.9560 0.9560 0.9560
1202.218500 0.9540 0.9540 0.9540 0.9540 0.9530
1206.484711 0.9500 0.9500 0.9490 0.9490 0.9490
1210.750922 0.9480 0.9460 0.9420 0.9400 0.9370
1215.017134 0.9340 0.9320 0.9280 0.9170 0.9130
1219.283345 0.9100 0.9020 0.9000 0.8980 0.8960
1223.549556 0.8890 0.8810 0.8690 0.8580 0.8490
1227.815767 0.8321 0.8091 0.7891 0.7621 0.7361
1232.081979 0.7090 0.6740 0.6330 0.6011 0.5651
1236.348190 0.5341 0.4961 0.4562 0.4341 0.4260
1240.614401 0.4250 0.4890 0.5490 0.6139 0.6599
1244.880612 0.7219 0.7579 0.7839 0.8019 0.8249
1249.146824 0.8380 0.8540 0.8620 0.8660 0.8690
1253.413035 0.8690 0.8700 0.8700 0.8610 0.8491
1257.679246 0.8300 0.8140 0.8100 0.7960 0.7740
1261.945457 0.7062 0.6302 0.5931 0.5522 0.5102
1266.211668 0.5100 0.5460 0.6099 0.6849 0.7139
1270.477880 0.7449 0.7689 0.7859 0.7979 0.8060
1274.744091 0.8120 0.8160 0.8170 0.8210 0.8220
1279.010302 0.8220 0.8080 0.7891 0.7581 0.7172
1283.276513 0.6760 0.6320 0.5540 0.4861 0.4700
1287.542725 0.4700 0.4999 0.5738 0.6198 0.6738
1291.808936 0.7160 0.7290 0.7450 0.7600 0.7690
1296.075147 0.7770 0.7880 0.7940 0.7980 0.8089
1300.341358 0.8200 0.8260 0.8330 0.8400 0.8420
1304.607570 0.8450 0.8460 0.8480 0.8480 0.8480
1308.873781 0.8480 0.8490 0.8919 0.9010 0.9040
1313.139992 0.9050 0.9100 0.9100 0.9120 0.9120
1317.406203 0.9130 0.9160 0.9170 0.9170 0.9180
1321.672414 0.9200 0.9200 0.9210 0.9210 0.9210
1325.938626 0.9210 0.9210 0.9200 0.9200 0.9210
1330.204837 0.9210 0.9210 0.9210 0.9220 0.9220
1334.471048 0.9220 0.9220 0.9220 0.9240 0.9240
1338.737259 0.9250 0.9250 0.9260 0.9280 0.9290
1343.003471 0.9300 0.9300 0.9300 0.9300 0.9320
1347.269682 0.9320 0.9320 0.9320 0.9320 0.9330
1351.535893 0.9330 0.9330 0.9330 0.9330 0.9330
1355.802104 0.9330 0.9330 0.9330 0.9330 0.9330
1360.068316 0.9330 0.9330 0.9330 0.9330 0.9330
1364.334527 0.9330 0.9330 0.9330 0.9330 0.9320
1368.600738 0.9320 0.9320 0.9320 0.9300 0.9300
1372.866949 0.9300 0.9300 0.9300 0.9300 0.9300
1377.133160 0.9300 0.9300 0.9320 0.9320 0.9320
1381.399372 0.9330 0.9330 0.9330 0.9340 0.9340
1385.665583 0.9360 0.9360 0.9360 0.9360 0.9360
1389.931794 0.9360 0.9340 0.9330 0.9320 0.9300
1394.198005 0.9250 0.9250 0.9240 0.9240 0.9240
1398.464217 0.9240 0.9210 0.9140 0.9100 0.9060
1402.730428 0.9060 0.9160 0.9220 0.9260 0.9320
1406.996639 0.9320 0.9340 0.9340 0.9340 0.9360
1411.262850 0.9380 0.9440 0.9480 0.9530 0.9540
1415.529061 0.9560 0.9580 0.9600 0.9610 0.9620
1419.795273 0.9640 0.9650 0.9660 0.9680 0.9680
1424.061484 0.9690 0.9690 0.9700 0.9700 0.9720
1428.327695 0.9720 0.9720 0.9720 0.9720 0.9700
1432.593906 0.9690 0.9660 0.9650 0.9640 0.9610
1436.860118 0.9600 0.9570 0.9570 0.9570 0.9560
1441.126329 0.9560 0.9560 0.9570 0.9600 0.9610
1445.392540 0.9620 0.9640 0.9640 0.9650 0.9650
1449.658751 0.9650 0.9620 0.9610 0.9600 0.9570
1453.924963 0.9560 0.9540 0.9490 0.9490 0.9480
1458.191174 0.9480 0.9460 0.9460 0.9410 0.9400
1462.457385 0.9370 0.9370 0.9360 0.9360 0.9360
1466.723596 0.9360 0.9340 0.9340 0.9340 0.9340
1470.989807 0.9340 0.9340 0.9340 0.9340 0.9340
1475.256019 0.9340 0.9340 0.9340 0.9340 0.9360
1479.522230 0.9360 0.9360 0.9360 0.9360 0.9370
1483.788441 0.9370 0.9370 0.9370 0.9370 0.9370
1488.054652 0.9370 0.9370 0.9380 0.9380 0.9380
1492.320864 0.9380 0.9380 0.9370 0.9370 0.9370
1496.587075 0.9370 0.9370 0.9360 0.9340 0.9330
1500.853286 0.9330 0.9330 0.9340 0.9340 0.9340
1505.119497 0.9340 0.9340 0.9340 0.9340 0.9340
1509.385709 0.9340 0.9340 0.9340 0.9340 0.9340
1513.651920 0.9340 0.9340 0.9340 0.9340 0.9330
1517.918131 0.9330 0.9330 0.9330 0.9330 0.9330
1522.184342 0.9330 0.9330 0.9330 0.9330 0.9330
1526.450553 0.9330 0.9330 0.9320 0.9320 0.9320
1530.716765 0.9320 0.9320 0.9320 0.9320 0.9320
1534.982976 0.9320 0.9320 0.9320 0.9320 0.9300
1539.249187 0.9300 0.9300 0.9300 0.9300 0.9300
1543.515398 0.9300 0.9300 0.9300 0.9300 0.9300
1547.781610 0.9300 0.9300 0.9290 0.9290 0.9290
1552.047821 0.9280 0.9280 0.9260 0.9250 0.9240
1556.314032 0.9240 0.9220 0.9210 0.9200 0.9180
1560.580243 0.9170 0.9160 0.9130 0.9120 0.9100
1564.846455 0.9050 0.9020 0.9000 0.8960 0.8930
1569.112666 0.8920 0.8920 0.8920 0.8920 0.8920
1573.378877 0.8900 0.8900 0.8900 0.8900 0.8900
1577.645088 0.8900 0.8900 0.8900 0.8900 0.8900
1581.911299 0.8900 0.8900 0.8890 0.8850 0.8810
1586.177511 0.8760 0.8700 0.8640 0.8610 0.8600
1590.443722 0.8580 0.8560 0.8540 0.8530 0.8490
1594.709933 0.8460 0.8340 0.8320 0.8340 0.8648
1598.976144 0.8660 0.8690 0.8780 0.8880 0.8890
1603.242356 0.8890 0.8890 0.8890 0.8890 0.8890
1607.508567 0.8890 0.8890 0.8890 0.8900 0.8900
1611.774778 0.8930 0.8940 0.8970 0.8980 0.9020
1616.040989 0.9060 0.9100 0.9100 0.9120 0.9130
1620.307201 0.9130 0.9140 0.9140 0.9130 0.9120
1624.573412 0.9050 0.9040 0.9040 0.9040 0.9050
1628.839623 0.9050 0.9050 0.9050 0.9040 0.9000
1633.105834 0.9000 0.8980 0.8980 0.8980 0.9000
1637.372045 0.9000 0.9020 0.9040 0.9050 0.9060
1641.638257 0.9090 0.9100 0.9100 0.9100 0.9120
1645.904468 0.9130 0.9140 0.9140 0.9140 0.9160
1650.170679 0.9170 0.9170 0.9170 0.9180 0.9180
1654.436890 0.9180 0.9200 0.9200 0.9200 0.9200
1658.703102 0.9200 0.9200 0.9200 0.9200 0.9200
1662.969313 0.9200 0.9200 0.9210 0.9210 0.9210
1667.235524 0.9210 0.9210 0.9200 0.9200 0.9200
1671.501735 0.9200 0.9200 0.9200 0.9180 0.9180
1675.767947 0.9180 0.9170 0.9170 0.9160 0.9160
1680.034158 0.9140 0.9130 0.9120 0.9120 0.9100
1684.300369 0.9100 0.9080 0.9060 0.9050 0.9020
1688.566580 0.9000 0.8980 0.8970 0.8940 0.8920
1692.832791 0.8900 0.8880 0.8820 0.8810 0.8800
1697.099003 0.8780 0.8770 0.8760 0.8720 0.8690
1701.365214 0.8660 0.8650 0.8650 0.8660 0.8660
1705.631425 0.8660 0.8650 0.8620 0.8610 0.8600
1709.897636 0.8580 0.8570 0.8570 0.8580 0.8580
1714.163848 0.8610 0.8620 0.8640 0.8650 0.8650
1718.430059 0.8660 0.8650 0.8640 0.8610 0.8610
1722.696270 0.8580 0.8580 0.8560 0.8540 0.8500
1726.962481 0.8450 0.8420 0.8380 0.8340 0.8320
1731.228693 0.8131 0.8010 0.7970 0.7940 0.7930
1735.494904 0.7880 0.7850 0.7610 0.7480 0.7420
1739.761115 0.7360 0.7290 0.7240 0.7121 0.7080
1744.027326 0.6970 0.6920 0.6760 0.6680 0.6540
1748.293537 0.6440 0.6300 0.5981 0.5621 0.5301
1752.559749 0.4940 0.4660 0.4420 0.4170 0.4140
1756.825960 0.4140 0.4180 0.4250 0.4340 0.4489
1761.092171 0.4610 0.4720 0.4730 0.4730 0.4700
1765.358382 0.4570 0.4440 0.4261 0.4011 0.3801
1769.624594 0.3580 0.3320 0.2971 0.2701 0.2421
1773.890805 0.2181 0.1981 0.1811 0.1651 0.1521
1778.157016 0.1400 0.1290 0.1160 0.1020 0.0960
1782.423227 0.0890 0.0880 0.0850 0.0800 0.0780
1786.689439 0.0740 0.0730 0.0740 0.0850 0.1060
1790.955650 0.1489 0.1620 0.1859 0.2577 0.2779
1795.221861 0.3010 0.3240 0.3540 0.3640 0.3780
1799.488072 0.3840 0.3810 0.3491 0.3400 0.3400
1803.754283 0.3740 0.3860 0.3970 0.4839 0.5249
1808.020495 0.5499 0.5809 0.6139 0.6479 0.6759
1812.286706 0.6970 0.7080 0.7220 0.7290 0.7440
1816.552917 0.7600 0.7690 0.7819 0.7920 0.7980
1820.819128 0.8050 0.8130 0.8200 0.8220 0.8260
1825.085340 0.8320 0.8330 0.8360 0.8380 0.8420
1829.351551 0.8440 0.8460 0.8490 0.8490 0.8450
1833.617762 0.8410 0.8370 0.8330 0.8330 0.8400
1837.883973 0.8440 0.8520 0.8530 0.8560 0.8640
1842.150184 0.8660 0.8660 0.8660 0.8660 0.8650
1846.416396 0.8330 0.7970 0.7500 0.7180 0.7040
1850.682607 0.7040 0.7519 0.7540 0.7540 0.6783
1854.948818 0.6450 0.5960 0.5491 0.5121 0.5090
1859.215029 0.5529 0.5620 0.7672 0.8018 0.8120
1863.481241 0.8240 0.8380 0.8500 0.8580 0.8700
1867.747452 0.8700 0.8770 0.8810 0.8840 0.8920
1872.013663 0.8930 0.8970 0.8980 0.9000 0.9010
1876.279874 0.9040 0.9050 0.9060 0.9090 0.9100
1880.546086 0.9100 0.9100 0.9120 0.9120 0.9120
1884.812297 0.9120 0.9120 0.9130 0.9130 0.9140
1889.078508 0.9160 0.9200 0.9260 0.9300 0.9320
1893.344719 0.9330 0.9340 0.9360 0.9360 0.9370
1897.610930 0.9380 0.9400 0.9400 0.9400 0.9410
1901.877142 0.9410 0.9410 0.9410 0.9420 0.9420
1906.143353 0.9420 0.9420 0.9420 0.9420 0.9420
1910.409564 0.9420 0.9420 0.9410 0.9410 0.9410
1914.675775 0.9410 0.9410 0.9420 0.9420 0.9420
1918.941987 0.9410 0.9410 0.9410 0.9410 0.9400
1923.208198 0.9380 0.9370 0.9360 0.9340 0.9320
1927.474409 0.9320 0.9290 0.9220 0.9140 0.9060
1931.740620 0.8980 0.8920 0.8900 0.8890 0.8890
1936.006832 0.8900 0.9010 0.9120 0.9130 0.9160
1940.273043 0.9220 0.9280 0.9330 0.9370 0.9380
1944.539254 0.9400 0.9400 0.9410 0.9420 0.9450
1948.805465 0.9450 0.9460 0.9480 0.9490 0.9490
1953.071676 0.9490 0.9500 0.9500 0.9530 0.9540
1957.337888 0.9540 0.9540 0.9560 0.9560 0.9560
1961.604099 0.9560 0.9560 0.9540 0.9540 0.9530
1965.870310 0.9530 0.9500 0.9500 0.9490 0.9490
1970.136521 0.9490 0.9490 0.9490 0.9490 0.9490
1974.402733 0.9500 0.9500 0.9520 0.9520 0.9520
1978.668944 0.9540 0.9540 0.9530 0.9520 0.9500
1982.935155 0.9480 0.9450 0.9420 0.9380 0.9340
1987.201366 0.9340 0.9330 0.9330 0.9330 0.9340
1991.467578 0.9360 0.9400 0.9420 0.9460 0.9490
1995.733789 0.9500 0.9520 0.9410 0.9340 0.9340
2000.000000 0.9420 0.9480 0.9540 0.9560 0.9580
2004.266211 0.9590 0.9600 0.9605 0.9610 0.9630
2008.532422 0.9650 0.9650 0.9650 0.9630 0.9610
2012.798634 0.9605 0.9600 0.9600 0.9600 0.9590
2017.064845 0.9580 0.9580 0.9580 0.9580 0.9580
2021.331056 0.9580 0.9580 0.9580 0.9580 0.9575
2025.597267 0.9570 0.9570 0.9570 0.9570 0.9570
2029.863479 0.9570 0.9570 0.9570 0.9570 0.9570
2034.129690 0.9570 0.9565 0.9560 0.9560 0.9560
2038.395901 0.9550 0.9540 0.9540 0.9540 0.9540
2042.662112 0.9540 0.9540 0.9540 0.9540 0.9540
2046.928324 0.9540 0.9540 0.9540 0.9540 0.9550
2051.194535 0.9560 0.9560 0.9560 0.9560 0.9560
2055.460746 0.9560 0.9560 0.9560 0.9560 0.9560
2059.726957 0.9560 0.9560 0.9560 0.9560 0.9560
2063.993168 0.9560 0.9560 0.9550 0.9540 0.9540
2068.259380 0.9540 0.9540 0.9540 0.9540 0.9540
2072.525591 0.9540 0.9540 0.9540 0.9540 0.9540
2076.791802 0.9540 0.9540 0.9540 0.9540 0.9540
2081.058013 0.9540 0.9540 0.9540 0.9540 0.9540
2085.324225 0.9540 0.9540 0.9540 0.9540 0.9540
2089.590436 0.9540 0.9540 0.9540 0.9540 0.9535
2093.856647 0.9530 0.9530 0.9530 0.9530 0.9530
2098.122858 0.9530 0.9530 0.9530 0.9530 0.9530
2102.389070 0.9530 0.9530 0.9530 0.9530 0.9530
2106.655281 0.9530 0.9530 0.9525 0.9520 0.9520
2110.921492 0.9520 0.9510 0.9500 0.9500 0.9500
2115.187703 0.9495 0.9490 0.9490 0.9490 0.9485
2119.453914 0.9480 0.9480 0.9480 0.9466 0.9451
2123.720126 0.9450 0.9450 0.9450 0.9450 0.9445
2127.986337 0.9440 0.9440 0.9440 0.9426 0.9411
2132.252548 0.9405 0.9400 0.9400 0.9400 0.9400
2136.518759 0.9400 0.9390 0.9380 0.9380 0.9380
2140.784971 0.9380 0.9380 0.9389 0.9399 0.9400
2145.051182 0.9400 0.9400 0.9400 0.9405 0.9410
2149.317393 0.9415 0.9420 0.9420 0.9420 0.9420
2153.583604 0.9420 0.9429 0.9439 0.9440 0.9440
2157.849816 0.9440 0.9440 0.9440 0.9440 0.9440
2162.116027 0.9440 0.9431 0.9421 0.9420 0.9420
2166.382238 0.9420 0.9420 0.9415 0.9410 0.9405
2170.648449 0.9400 0.9391 0.9381 0.9371 0.9361
2174.914660 0.9351 0.9341 0.9335 0.9330 0.9325
2179.180872 0.9320 0.9311 0.9301 0.9300 0.9300
2183.447083 0.9318 0.9338 0.9358 0.9378 0.9380
2187.713294 0.9380 0.9389 0.9399 0.9400 0.9400
2191.979505 0.9400 0.9400 0.9405 0.9410 0.9410
2196.245717 0.9410 0.9415 0.9420 0.9420 0.9420
2200.511928 0.9420 0.9420 0.9420 0.9420 0.9420
2204.778139 0.9420 0.9420 0.9420 0.9420 0.9420
2209.044350 0.9420 0.9420 0.9420 0.9420 0.9420
2213.310561 0.9420 0.9420 0.9420 0.9420 0.9420
2217.576773 0.9420 0.9420 0.9420 0.9420 0.9420
2221.842984 0.9420 0.9420 0.9420 0.9420 0.9420
2226.109195 0.9420 0.9420 0.9420 0.9420 0.9420
2230.375406 0.9420 0.9420 0.9420 0.9420 0.9420
2234.641618 0.9420 0.9420 0.9415 0.9410 0.9410
2238.907829 0.9410 0.9410 0.9410 0.9405 0.9400
2243.174040 0.9400 0.9400 0.9400 0.9400 0.9400
2247.440251 0.9400 0.9400 0.9400 0.9400 0.9400
2251.706463 0.9391 0.9381 0.9380 0.9380 0.9380
2255.972674 0.9380 0.9380 0.9380 0.9375 0.9370
2260.238885 0.9370 0.9370 0.9370 0.9370 0.9370
2264.505096 0.9370 0.9370 0.9370 0.9365 0.9361
2268.771307 0.9360 0.9360 0.9360 0.9360 0.9360
2273.037519 0.9360 0.9351 0.9341 0.9340 0.9340
2277.303730 0.9340 0.9340 0.9340 0.9340 0.9340
2281.569941 0.9340 0.9340 0.9340 0.9340 0.9340
2285.836152 0.9340 0.9340 0.9340 0.9340 0.9340
2290.102364 0.9340 0.9335 0.9330 0.9330 0.9330
2294.368575 0.9330 0.9330 0.9330 0.9330 0.9326
2298.634786 0.9321 0.9320 0.9320 0.9311 0.9301
2302.900997 0.9300 0.9300 0.9300 0.9300 0.9300
2307.167209 0.9300 0.9296 0.9291 0.9286 0.9281
2311.433420 0.9271 0.9261 0.9260 0.9260 0.9260
2315.699631 0.9260 0.9260 0.9260 0.9269 0.9279
2319.965842 0.9284 0.9289 0.9290 0.9290 0.9290
2324.232053 0.9290 0.9290 0.9290 0.9290 0.9290
2328.498265 0.9290 0.9290 0.9290 0.9290 0.9290
2332.764476 0.9290 0.9290 0.9290 0.9290 0.9290
2337.030687 0.9290 0.9290 0.9290 0.9290 0.9290
2341.296898 0.9290 0.9290 0.9290 0.9290 0.9290
2345.563110 0.9290 0.9290 0.9290 0.9290 0.9290
2349.829321 0.9290 0.9290 0.9290 0.9290 0.9290
2354.095532 0.9290 0.9290 0.9290 0.9290 0.9290
2358.361743 0.9290 0.9290 0.9290 0.9290 0.9290
2362.627955 0.9290 0.9290 0.9290 0.9290 0.9290
2366.894166 0.9290 0.9290 0.9290 0.9290 0.9290
2371.160377 0.9290 0.9290 0.9290 0.9290 0.9290
2375.426588 0.9290 0.9290 0.9290 0.9290 0.9290
2379.692799 0.9294 0.9299 0.9300 0.9300 0.9300
2383.959011 0.9300 0.9309 0.9319 0.9324 0.9329
2388.225222 0.9330 0.9330 0.9330 0.9330 0.9330
2392.491433 0.9330 0.9334 0.9339 0.9340 0.9340
2396.757644 0.9340 0.9340 0.9340 0.9340 0.9340
2401.023856 0.9340 0.9340 0.9340 0.9340 0.9340
2405.290067 0.9340 0.9340 0.9340 0.9340 0.9340
2409.556278 0.9340 0.9340 0.9340 0.9340 0.9340
2413.822489 0.9340 0.9340 0.9340 0.9340 0.9340
2418.088701 0.9340 0.9340 0.9340 0.9340 0.9340
2422.354912 0.9340 0.9340 0.9340 0.9340 0.9340
2426.621123 0.9340 0.9340 0.9340 0.9340 0.9340
2430.887334 0.9340 0.9340 0.9340 0.9340 0.9340
2435.153545 0.9340 0.9340 0.9340 0.9340 0.9340
2439.419757 0.9340 0.9340 0.9340 0.9340 0.9340
2443.685968 0.9340 0.9340 0.9340 0.9340 0.9340
2447.952179 0.9340 0.9340 0.9340 0.9340 0.9348
2452.218390 0.9358 0.9360 0.9360 0.9352 0.9342
2456.484602 0.9340 0.9340 0.9348 0.9358 0.9360
2460.750813 0.9360 0.9360 0.9360 0.9360 0.9360
2465.017024 0.9360 0.9360 0.9360 0.9360 0.9360
2469.283235 0.9360 0.9360 0.9360 0.9360 0.9360
2473.549447 0.9360 0.9360 0.9360 0.9360 0.9360
2477.815658 0.9360 0.9360 0.9360 0.9360 0.9360
2482.081869 0.9360 0.9360 0.9360 0.9360 0.9360
2486.348080 0.9360 0.9360 0.9360 0.9360 0.9360
2490.614291 0.9352 0.9342 0.9340 0.9340 0.9348
2494.880503 0.9358 0.9360 0.9360 0.9360 0.9360
2499.146714 0.9360 0.9360 0.9360 0.9360 0.9360
2503.412925 0.9360 0.9360 0.9360 0.9360 0.9360
2507.679136 0.9360 0.9360 0.9360 0.9360 0.9364
2511.945348 0.9369 0.9370 0.9370 0.9366 0.9361
2516.211559 0.9360 0.9360 0.9360 0.9360 0.9364
2520.477770 0.9369 0.9370 0.9370 0.9370 0.9370
2524.743981 0.9370 0.9370 0.9370 0.9370 0.9370
2529.010193 0.9370 0.9370 0.9370 0.9370 0.9370
2533.276404 0.9370 0.9370 0.9370 0.9370 0.9370
2537.542615 0.9370 0.9366 0.9361 0.9360 0.9360
2541.808826 0.9360 0.9360 0.9360 0.9360 0.9360
2546.075037 0.9360 0.9360 0.9360 0.9360 0.9360
2550.341249 0.9364 0.9369 0.9370 0.9370 0.9370
2554.607460 0.9370 0.9370 0.9370 0.9370 0.9370
2558.873671 0.9370 0.9370 0.9370 0.9370 0.9370
2563.139882 0.9370 0.9370 0.9370 0.9370 0.9370
2567.406094 0.9370 0.9370 0.9370 0.9370 0.9370
2571.672305 0.9370 0.9370 0.9370 0.9370 0.9370
2575.938516 0.9370 0.9370 0.9370 0.9370 0.9370
2580.204727 0.9370 0.9370 0.9370 0.9370 0.9370
2584.470939 0.9370 0.9370 0.9370 0.9370 0.9370
2588.737150 0.9370 0.9370 0.9370 0.9370 0.9370
2593.003361 0.9370 0.9370 0.9370 0.9370 0.9370
2597.269572 0.9370 0.9370 0.9370 0.9370 0.9370
2601.535783 0.9370 0.9370 0.9370 0.9370 0.9370
2605.801995 0.9370 0.9370 0.9370 0.9374 0.9379
2610.068206 0.9376 0.9371 0.9370 0.9370 0.9370
2614.334417 0.9370 0.9370 0.9370 0.9370 0.9370
2618.600628 0.9370 0.9370 0.9370 0.9370 0.9370
2622.866840 0.9370 0.9370 0.9370 0.9370 0.9370
2627.133051 0.9370 0.9370 0.9374 0.9379 0.9380
2631.399262 0.9380 0.9380 0.9380 0.9380 0.9380
2635.665473 0.9380 0.9380 0.9380 0.9380 0.9380
2639.931684 0.9380 0.9380 0.9380 0.9380 0.9380
2644.197896 0.9380 0.9380 0.9380 0.9380 0.9380
2648.464107 0.9380 0.9380 0.9380 0.9380 0.9380
2652.730318 0.9380 0.9380 0.9380 0.9380 0.9380
2656.996529 0.9380 0.9380 0.9380 0.9380 0.9380
2661.262741 0.9380 0.9380 0.9380 0.9380 0.9380
2665.528952 0.9380 0.9380 0.9380 0.9380 0.9380
2669.795163 0.9380 0.9380 0.9380 0.9380 0.9380
2674.061374 0.9380 0.9380 0.9380 0.9380 0.9380
2678.327586 0.9380 0.9380 0.9380 0.9380 0.9380
2682.593797 0.9380 0.9380 0.9380 0.9380 0.9380
2686.860008 0.9380 0.9380 0.9380 0.9380 0.9380
2691.126219 0.9380 0.9380 0.9380 0.9380 0.9380
2695.392430 0.9380 0.9380 0.9380 0.9380 0.9380
2699.658642 0.9380 0.9380 0.9380 0.9380 0.9380
2703.924853 0.9380 0.9380 0.9380 0.9380 0.9380
2708.191064 0.9380 0.9380 0.9380 0.9380 0.9380
2712.457275 0.9380 0.9380 0.9380 0.9380 0.9380
2716.723487 0.9380 0.9380 0.9380 0.9380 0.9380
2720.989698 0.9376 0.9371 0.9374 0.9379 0.9380
2725.255909 0.9380 0.9380 0.9380 0.9380 0.9380
2729.522120 0.9380 0.9380 0.9380 0.9380 0.9380
2733.788332 0.9380 0.9380 0.9380 0.9380 0.9380
2738.054543 0.9380 0.9380 0.9380 0.9380 0.9380
2742.320754 0.9380 0.9380 0.9380 0.9380 0.9380
2746.586965 0.9380 0.9380 0.9380 0.9380 0.9380
2750.853176 0.9380 0.9387 0.9397 0.9393 0.9383
2755.119388 0.9380 0.9380 0.9380 0.9380 0.9380
2759.385599 0.9380 0.9387 0.9397 0.9400 0.9400
2763.651810 0.9393 0.9383 0.9380 0.9380 0.9380
2767.918021 0.9380 0.9380 0.9380 0.9380 0.9380
2772.184233 0.9380 0.9380 0.9380 0.9380 0.9380
2776.450444 0.9380 0.9380 0.9380 0.9380 0.9380
2780.716655 0.9387 0.9397 0.9400 0.9400 0.9393
2784.982866 0.9383 0.9380 0.9380 0.9380 0.9380
2789.249078 0.9380 0.9380 0.9387 0.9397 0.9400
2793.515289 0.9400 0.9393 0.9383 0.9380 0.9380
2797.781500 0.9380 0.9380 0.9380 0.9380 0.9387
2802.047711 0.9397 0.9393 0.9383 0.9380 0.9380
2806.313922 0.9380 0.9380 0.9380 0.9380 0.9380
2810.580134 0.9380 0.9380 0.9380 0.9380 0.9380
2814.846345 0.9380 0.9380 0.9380 0.9380 0.9380
2819.112556 0.9380 0.9380 0.9380 0.9380 0.9380
2823.378767 0.9380 0.9380 0.9380 0.9380 0.9387
2827.644979 0.9397 0.9393 0.9383 0.9380 0.9380
2831.911190 0.9380 0.9380 0.9380 0.9380 0.9380
2836.177401 0.9380 0.9380 0.9380 0.9380 0.9380
2840.443612 0.9380 0.9380 0.9376 0.9371 0.9370
2844.709824 0.9370 0.9370 0.9370 0.9370 0.9370
2848.976035 0.9370 0.9370 0.9370 0.9370 0.9370
2853.242246 0.9370 0.9370 0.9370 0.9370 0.9370
2857.508457 0.9366 0.9361 0.9360 0.9360 0.9360
2861.774668 0.9360 0.9360 0.9360 0.9360 0.9360
2866.040880 0.9360 0.9360 0.9360 0.9360 0.9360
2870.307091 0.9360 0.9364 0.9369 0.9370 0.9370
2874.573302 0.9370 0.9370 0.9370 0.9370 0.9370
2878.839513 0.9370 0.9370 0.9370 0.9370 0.9370
2883.105725 0.9370 0.9370 0.9370 0.9370 0.9367
2887.371936 0.9362 0.9360 0.9360 0.9353 0.9343
2891.638147 0.9337 0.9332 0.9330 0.9330 0.9330
2895.904358 0.9330 0.9330 0.9330 0.9333 0.9338
2900.170570 0.9340 0.9340 0.9347 0.9357 0.9360
2904.436781 0.9360 0.9353 0.9343 0.9340 0.9340
2908.702992 0.9340 0.9340 0.9340 0.9340 0.9340
2912.969203 0.9340 0.9340 0.9340 0.9340 0.9340
2917.235414 0.9340 0.9340 0.9340 0.9340 0.9340
2921.501626 0.9340 0.9340 0.9340 0.9340 0.9340
2925.767837 0.9340 0.9340 0.9340 0.9340 0.9340
2930.034048 0.9340 0.9340 0.9340 0.9340 0.9340
2934.300259 0.9340 0.9340 0.9340 0.9340 0.9340
2938.566471 0.9340 0.9340 0.9340 0.9340 0.9340
2942.832682 0.9340 0.9340 0.9340 0.9340 0.9340
2947.098893 0.9340 0.9340 0.9340 0.9340 0.9340
2951.365104 0.9340 0.9340 0.9340 0.9340 0.9340
2955.631316 0.9340 0.9340 0.9340 0.9340 0.9340
2959.897527 0.9340 0.9340 0.9340 0.9340 0.9340
2964.163738 0.9340 0.9347 0.9357 0.9360 0.9360
2968.429949 0.9360 0.9360 0.9360 0.9360 0.9353
2972.696160 0.9343 0.9340 0.9340 0.9347 0.9357
2976.962372 0.9360 0.9360 0.9360 0.9360 0.9360
2981.228583 0.9360 0.9363 0.9368 0.9367 0.9362
2985.494794 0.9360 0.9360 0.9360 0.9360 0.9363
2989.761005 0.9368 0.9360 0.9345 0.9340 0.9340
2994.027217 0.9347 0.9357 0.9360 0.9360 0.9360
2998.293428 0.9360 0.9360 0.9360 0.9360 0.9360
3002.559639 0.9360 0.9360 0.9360 0.9360 0.9360
3006.825850 0.9360 0.9360 0.9360 0.9360 0.9360
3011.092061 0.9360 0.9360 0.9363 0.9368 0.9370
3015.358273 0.9370 0.9370 0.9370 0.9370 0.9370
3019.624484 0.9370 0.9370 0.9373 0.9378 0.9380
3023.890695 0.9380 0.9380 0.9380 0.9380 0.9380
3028.156906 0.9380 0.9380 0.9380 0.9380 0.9380
3032.423118 0.9380 0.9380 0.9380 0.9380 0.9380
3036.689329 0.9380 0.9380 0.9380 0.9380 0.9380
3040.955540 0.9380 0.9380 0.9380 0.9380 0.9380
3045.221751 0.9380 0.9380 0.9380 0.9380 0.9380
3049.487963 0.9380 0.9380 0.9380 0.9380 0.9380
3053.754174 0.9380 0.9380 0.9380 0.9380 0.9380
3058.020385 0.9380 0.9380 0.9380 0.9380 0.9380
3062.286596 0.9377 0.9372 0.9370 0.9370 0.9367
3066.552807 0.9362 0.9360 0.9360 0.9360 0.9360
3070.819019 0.9354 0.9344 0.9340 0.9340 0.9346
3075.085230 0.9356 0.9360 0.9360 0.9360 0.9360
3079.351441 0.9360 0.9360 0.9360 0.9360 0.9360
3083.617652 0.9360 0.9360 0.9360 0.9360 0.9360
3087.883864 0.9360 0.9360 0.9360 0.9360 0.9354
3092.150075 0.9344 0.9340 0.9340 0.9340 0.9340
3096.416286 0.9340 0.9340 0.9340 0.9340 0.9340
3100.682497 0.9340 0.9340 0.9340 0.9337 0.9332
3104.948709 0.9330 0.9330 0.9327 0.9322 0.9320
3109.214920 0.9320 0.9314 0.9304 0.9294 0.9284
3113.481131 0.9274 0.9264 0.9254 0.9244 0.9231
3117.747342 0.9216 0.9185 0.9145 0.9102 0.9057
3122.013553 0.8688 0.8114 0.7890 0.7890 0.7927
3126.279765 0.7987 0.8047 0.8107 0.8155 0.8195
3130.545976 0.8213 0.8218 0.8220 0.8220 0.8097
3134.812187 0.7897 0.7820 0.7820 0.8033 0.8383
3139.078398 0.8581 0.8681 0.8792 0.8912 0.8996
3143.344610 0.9057 0.9095 0.9120 0.9139 0.9154
3147.610821 0.9163 0.9168 0.9182 0.9202 0.9219
3151.877032 0.9234 0.9246 0.9256 0.9260 0.9260
3156.143243 0.9266 0.9276 0.9280 0.9280 0.9280
3160.409455 0.9280 0.9283 0.9288 0.9290 0.9290
3164.675666 0.9290 0.9290 0.9290 0.9290 0.9290
3168.941877 0.9290 0.9293 0.9298 0.9300 0.9300
3173.208088 0.9300 0.9300 0.9300 0.9300 0.9300
3177.474299 0.9300 0.9306 0.9316 0.9320 0.9320
3181.740511 0.9326 0.9336 0.9340 0.9340 0.9337
3186.006722 0.9332 0.9318 0.9298 0.9290 0.9290
3190.272933 0.9275 0.9250 0.9219 0.9184 0.9167
3194.539144 0.9162 0.9154 0.9144 0.9146 0.9156
3198.805356 0.9163 0.9168 0.9182 0.9202 0.9222
3203.071567 0.9242 0.9253 0.9258 0.9266 0.9276
3207.337778 0.9280 0.9280 0.9280 0.9280 0.9280
3211.603989 0.9280 0.9283 0.9288 0.9290 0.9290
3215.870201 0.9293 0.9298 0.9300 0.9300 0.9300
3220.136412 0.9300 0.9306 0.9316 0.9320 0.9320
3224.402623 0.9320 0.9320 0.9323 0.9328 0.9330
3228.668834 0.9330 0.9330 0.9330 0.9330 0.9330
3232.935045 0.9330 0.9330 0.9330 0.9330 0.9330
3237.201257 0.9330 0.9330 0.9330 0.9330 0.9330
3241.467468 0.9330 0.9330 0.9330 0.9330 0.9330
3245.733679 0.9330 0.9330 0.9330 0.9330 0.9330
3249.999890 0.9330 0.9330 0.9330 0.9330 0.9330
3254.266102 0.9330 0.9330 0.9330 0.9330 0.9330
3258.532313 0.9330 0.9330 0.9330 0.9330 0.9330
3262.798524 0.9330 0.9330 0.9330 0.9330 0.9330
3267.064735 0.9330 0.9330 0.9330 0.9330 0.9330
3271.330947 0.9330 0.9330 0.9330 0.9330 0.9330
3275.597158 0.9330 0.9330 0.9330 0.9330 0.9330
3279.863369 0.9330 0.9327 0.9322 0.9320 0.9320
3284.129580 0.9320 0.9320 0.9320 0.9320 0.9320
3288.395791 0.9320 0.9320 0.9320 0.9320 0.9320
3292.662003 0.9320 0.9320 0.9314 0.9304 0.9300
3296.928214 0.9300 0.9300 0.9300 0.9300 0.9300
3301.194425 0.9300 0.9300 0.9300 0.9300 0.9300
3305.460636 0.9300 0.9297 0.9292 0.9290 0.9290
3309.726848 0.9290 0.9290 0.9287 0.9282 0.9280
3313.993059 0.9280 0.9280 0.9280 0.9280 0.9280
3318.259270 0.9274 0.9264 0.9257 0.9252 0.9247
3322.525481 0.9242 0.9240 0.9240 0.9235 0.9225
3326.791693 0.9217 0.9212 0.9207 0.9202 0.9195
3331.057904 0.9184 0.9180 0.9180 0.9180 0.9180
3335.324115 0.9180 0.9180 0.9177 0.9172 0.9170
3339.590326 0.9170 0.9167 0.9162 0.9160 0.9160
3343.856537 0.9155 0.9145 0.9140 0.9140 0.9140
3348.122749 0.9140 0.9137 0.9132 0.9130 0.9130
3352.388960 0.9127 0.9122 0.9120 0.9120 0.9115
3356.655171 0.9105 0.9100 0.9100 0.9097 0.9092
3360.921382 0.9090 0.9090 0.9090 0.9090 0.9087
3365.187594 0.9082 0.9080 0.9080 0.9080 0.9080
3369.453805 0.9075 0.9065 0.9060 0.9060 0.9060
3373.720016 0.9060 0.9057 0.9052 0.9050 0.9050
3377.986227 0.9047 0.9042 0.9040 0.9040 0.9040
3382.252439 0.9040 0.9040 0.9040 0.9040 0.9040
3386.518650 0.9040 0.9040 0.9040 0.9040 0.9040
3390.784861 0.9040 0.9040 0.9040 0.9040 0.9040
3395.051072 0.9040 0.9040 0.9040 0.9040 0.9040
3399.317283 0.9040 0.9035 0.9025 0.9020 0.9020
3403.583495 0.9020 0.9020 0.9020 0.9020 0.9017
3407.849706 0.9012 0.9010 0.9010 0.9010 0.9010
3412.115917 0.9010 0.9010 0.9007 0.9002 0.9000
3416.382128 0.9000 0.9000 0.9000 0.9000 0.9000
3420.648340 0.9000 0.9000 0.9000 0.9000 0.9000
3424.914551 0.9000 0.9000 0.9000 0.9000 0.9000
3429.180762 0.8995 0.8985 0.8980 0.8980 0.8980
3433.446973 0.8980 0.8980 0.8980 0.8980 0.8980
3437.713184 0.8980 0.8980 0.8980 0.8980 0.8980
3441.979396 0.8980 0.8980 0.8980 0.8980 0.8980
3446.245607 0.8980 0.8980 0.8980 0.8980 0.8980
3450.511818 0.8980 0.8980 0.8980 0.8980 0.8980
3454.778029 0.8980 0.8980 0.8980 0.8980 0.8980
3459.044241 0.8980 0.8980 0.8980 0.8980 0.8980
3463.310452 0.8980 0.8980 0.8980 0.8980 0.8980
3467.576663 0.8980 0.8980 0.8980 0.8980 0.8980
3471.842874 0.8980 0.8980 0.8980 0.8980 0.8980
3476.109086 0.8980 0.8980 0.8980 0.8980 0.8980
3480.375297 0.8980 0.8980 0.8980 0.8980 0.8980
3484.641508 0.8980 0.8980 0.8980 0.8980 0.8980
3488.907719 0.8980 0.8980 0.8980 0.8980 0.8980
3493.173930 0.8980 0.8980 0.8980 0.8980 0.8980
3497.440142 0.8980 0.8980 0.8980 0.8980 0.8980
3501.706353 0.8980 0.8980 0.8980 0.8980 0.8980
3505.972564 0.8980 0.8980 0.8980 0.8980 0.8980
3510.238775 0.8980 0.8980 0.8980 0.8980 0.8980
3514.504987 0.8980 0.8980 0.8980 0.8980 0.8980
3518.771198 0.8980 0.8980 0.8980 0.8985 0.8995
3523.037409 0.9000 0.9000 0.9000 0.9000 0.9000
3527.303620 0.9000 0.9000 0.9000 0.9000 0.9000
3531.569832 0.9000 0.9000 0.9000 0.9000 0.9000
3535.836043 0.9000 0.9000 0.9000 0.9000 0.9000
3540.102254 0.9000 0.9000 0.9000 0.9000 0.8995
3544.368465 0.8985 0.8980 0.8980 0.8980 0.8980
3548.634676 0.8980 0.8980 0.8980 0.8980 0.8980
3552.900888 0.8980 0.8980 0.8980 0.8980 0.8980
3557.167099 0.8980 0.8980 0.8985 0.8995 0.9000
3561.433310 0.9000 0.9000 0.9000 0.9000 0.9000
3565.699521 0.9000 0.9000 0.9002 0.9007 0.9010
3569.965733 0.9010 0.9010 0.9010 0.9012 0.9017
3574.231944 0.9020 0.9020 0.9020 0.9020 0.9020
3578.498155 0.9020 0.9020 0.9020 0.9020 0.9020
3582.764366 0.9020 0.9020 0.9020 0.9020 0.9018
3587.030578 0.9013 0.9010 0.9010 0.9008 0.9003
3591.296789 0.8991 0.8971 0.8951 0.8931 0.8913
3595.563000 0.8898 0.8881 0.8861 0.8848 0.8843
3599.829211 0.8835 0.8825 0.8825 0.8834 0.8842
3604.095422 0.8847 0.8852 0.8857 0.8865 0.8875
3608.361634 0.8885 0.8895 0.8900 0.8900 0.8905
3612.627845 0.8915 0.8920 0.8920 0.8922 0.8927
3616.894056 0.8930 0.8930 0.8932 0.8937 0.8944
3621.160267 0.8955 0.8960 0.8960 0.8962 0.8967
3625.426479 0.8977 0.8992 0.9000 0.9000 0.9002
3629.692690 0.9007 0.9010 0.9010 0.9012 0.9017
3633.958901 0.9024 0.9034 0.9040 0.9040 0.9040
3638.225112 0.9040 0.9040 0.9040 0.9042 0.9047
3642.491324 0.9050 0.9050 0.9050 0.9050 0.9050
3646.757535 0.9050 0.9052 0.9057 0.9064 0.9074
3651.023746 0.9082 0.9087 0.9090 0.9090 0.9090
3655.289957 0.9090 0.9090 0.9090 0.9092 0.9097
3659.556168 0.9100 0.9100 0.9100 0.9100 0.9104
3663.822380 0.9114 0.9120 0.9120 0.9120 0.9120
3668.088591 0.9120 0.9120 0.9120 0.9120 0.9122
3672.354802 0.9127 0.9130 0.9130 0.9130 0.9130
3676.621013 0.9130 0.9130 0.9130 0.9130 0.9132
3680.887225 0.9137 0.9140 0.9140 0.9140 0.9140
3685.153436 0.9140 0.9140 0.9140 0.9140 0.9140
3689.419647 0.9140 0.9140 0.9140 0.9140 0.9140
3693.685858 0.9138 0.9133 0.9130 0.9130 0.9130
3697.952070 0.9130 0.9130 0.9130 0.9130 0.9130
3702.218281 0.9130 0.9130 0.9130 0.9130 0.9130
3706.484492 0.9130 0.9130 0.9130 0.9130 0.9130
3710.750703 0.9130 0.9130 0.9130 0.9130 0.9130
3715.016914 0.9130 0.9130 0.9130 0.9130 0.9130
3719.283126 0.9130 0.9130 0.9130 0.9130 0.9130
3723.549337 0.9130 0.9132 0.9137 0.9140 0.9140
3727.815548 0.9140 0.9140 0.9140 0.9140 0.9140
3732.081759 0.9140 0.9140 0.9140 0.9140 0.9140
3736.347971 0.9140 0.9140 0.9140 0.9140 0.9140
3740.614182 0.9140 0.9140 0.9140 0.9140 0.9140
3744.880393 0.9140 0.9140 0.9140 0.9140 0.9140
3749.146604 0.9140 0.9140 0.9140 0.9140 0.9140
3753.412816 0.9140 0.9140 0.9140 0.9140 0.9140
3757.679027 0.9140 0.9140 0.9140 0.9140 0.9140
3761.945238 0.9144 0.9154 0.9156 0.9146 0.9140
3766.211449 0.9140 0.9140 0.9140 0.9140 0.9140
3770.477660 0.9138 0.9133 0.9130 0.9130 0.9130
3774.743872 0.9130 0.9130 0.9130 0.9130 0.9130
3779.010083 0.9130 0.9130 0.9132 0.9137 0.9140
3783.276294 0.9140 0.9140 0.9140 0.9140 0.9140
3787.542505 0.9138 0.9133 0.9132 0.9137 0.9140
3791.808717 0.9140 0.9140 0.9140 0.9138 0.9133
3796.074928 0.9130 0.9130
##END=
