##TITLE=Vinyl Acetate
##JCAMP-DX=4.24
##DATA TYPE=INFRARED SPECTRUM
##CLASS=IUPAC A
##ORIGIN=NIST, Anayltical Chemistry Division, 301-975-3108
##OWNER=COPYRIGHT (C) 1998 by the U.S. Secretary of Commerce
##DATE=98/10/1
##$SPECTRA VERSION=1.00
##$UNCERTAINTY IN Y=2.1 % relative (B=1.1E-04,C=7.7E-10,D=2.7E-14)
##CAS NAME=Ethenyl Ester-Acetic Acid
##CAS REGISTRY NO=108-05-4
##MOLFORM=C H3 C O2 C H: C H2
##MP=-93.2 C
##BP=72.2 C
##$NIST SOURCE=QUANT-IR
##SPECTROMETER/DATA SYSTEM=IFS66V (Bruker)
##INSTRUMENT PARAMETERS=KBr Beam splitter; MCT Detector; Multipass cell
##STATE=gas
##SAMPLE DESCRIPTION=Vinyl Acetate Primary Gas Standard
##PRESSURE=101.3 kPa
##TEMPERATURE=23 C
##SAMPLING PROCEDURE=1 L/min Flow
##RESOLUTION=0.9640
##DATA PROCESSING=Happ Genzel Apodization
##XUNITS=cm-1
##YUNITS=(micromol/mol)-1m-1 (base 10)
##XFACTOR=1.0
##YFACTOR=18.189E-13
##DELTAX=0.4820
##FIRSTX=575.169
##LASTX=3975.077
##FIRSTY=.0000109
##MAXX=3974.59
##MINX=575.17
##MAXY=.0028082
##MINY=-1.60E-06
##NPOINTS=7053
##XYDATA=(X++(Y..Y))
575.17 6003900 6345298 6680438 6984878 7308374 7623728
577.58 7740770 7827614 8051698 8389526 8835180 9092452
580.47 9221836 9556656 9911580 10086600 10125140 10467150
583.37 10848730 11040660 11159430 11441860 11643660 12110320
586.26 13021520 14316240 15300450 15115790 15023510 15639500
589.15 16271870 16751310 17579190 18770580 19954670 20658800
592.04 20852480 20687340 20539800 20317930 20028370 19648770
594.94 19092680 18418480 17847950 17438960 17103300 16812680
597.83 16457240 16116260 15925090 15872090 15816100 15798580
600.72 15759610 15784060 15928320 15946500 15963800 16075560
603.61 16145590 16249940 16378580 16554200 16693150 16791000
606.51 16941320 17115780 17370970 17618200 17771740 17862660
609.40 18020160 18204330 18273930 18465290 18601710 18678370
612.29 18827230 18910250 18943610 18943580 18898760 18912010
615.18 19017070 19011100 18893820 18797840 18737780 18767750
618.08 18808930 18826650 18812280 18822670 18916660 19050560
620.97 19226880 19430040 19683950 19938380 20180840 20509520
623.86 20922170 21330460 21773330 22257230 22707790 23078690
626.76 23498440 23921170 24330830 24686650 24928190 25123020
629.65 25264310 25413910 25485060 25371220 25193620 24972450
632.54 24627160 24200970 23905860 23573520 23263910 23129890
635.43 23033400 22926910 22949840 23101980 23393530 23677060
638.33 23526860 23098760 22806300 22770550 22852430 22872340
641.22 22909780 22958080 23022570 23007100 22873320 22693180
644.11 22431430 22190220 21980410 21585820 21053550 20569780
647.00 20094860 19576120 19003220 18448260 17917370 17380250
649.90 16789940 16227780 15723290 15213800 14676670 14104410
652.79 13610520 13188690 12715350 12242080 11812440 11417090
655.68 11084640 10737300 10400830 10043990 9671378 9300778
658.58 8951922 8617762 8268504 7931084 7592628 7280514
661.47 7003656 6684326 6378872 6127232 5871758 5616884
664.36 5355506 5092554 4839914 4608684 4405792 4245936
667.25 4073546 3892602 3717856 3588226 3456780 3291598
670.15 3156624 3065682 2981792 2909342 2853456 2830652
673.04 2772920 2658694 2591782 2611206 2610662 2564346
675.93 2537782 2524974 2508240 2543864 2604554 2634384
678.82 2641374 2661240 2722384 2752480 2744422 2793576
681.72 2862100 2938258 2983560 3021388 3062914 3167574
684.61 3279528 3327196 3351410 3471426 3583800 3619560
687.50 3696126 3790064 3830734 3919732 4006420 4086934
690.40 4192080 4286968 4315802 4415294 4548160 4648642
693.29 4776378 4919556 5020572 5055408 5110466 5228880
696.18 5327096 5389746 5491714 5687634 5879594 5959156
699.07 5860910 5722434 5695724 5717752 5713794 5704974
701.97 5707990 5718062 5760358 5847920 5912468 5936064
704.86 5921608 5889486 5891904 5930550 5970576 5976260
707.75 5957786 5938936 5968448 6028306 6091174 6150920
710.64 6206002 6305360 6414316 6570012 6657762 6662572
713.54 6684152 6652898 6584068 6606430 6655952 6608284
716.43 6486020 6368586 6274564 6161748 6018454 5874534
719.32 5730316 5597540 5458874 5267442 5086616 4995046
722.22 4919404 4823178 4741622 4702084 4641038 4598398
725.11 4557258 4539982 4497220 4416546 4328532 4260462
728.00 4200282 4140128 4104554 4058912 3989472 3957500
730.89 3921988 3884746 3830036 3790644 3745156 3699230
733.79 3643722 3607522 3584064 3559682 3514254 3451212
736.68 3384826 3362036 3336930 3292854 3242664 3229150
739.57 3211802 3160080 3116286 3089750 3065296 3063958
742.46 3080074 3084950 3088436 3092656 3072424 3039828
745.36 3040544 3052446 3060880 3097988 3109552 3108880
748.25 3118698 3158602 3194008 3203504 3202974 3233712
751.14 3252214 3266084 3272746 3287558 3300596 3319198
754.04 3333144 3348886 3392844 3438732 3457342 3475764
756.93 3509994 3536714 3537574 3566862 3588508 3619222
759.82 3698688 3773362 3816940 3856688 3892396 3930786
762.71 3990506 4057246 4096438 4145292 4202722 4248940
765.61 4306526 4392964 4473086 4556386 4633778 4704274
768.50 4773872 4833356 4859300 4944866 5013150 5063218
771.39 5142012 5201132 5217478 5283026 5343122 5366484
774.28 5374310 5387318 5407352 5438188 5433262 5435690
777.18 5448752 5414874 5396726 5377092 5339038 5335580
780.07 5306726 5292820 5297832 5306194 5300102 5295266
782.96 5289796 5296302 5266744 5253518 5250316 5241496
785.86 5218494 5205586 5199196 5178164 5153060 5141108
788.75 5129302 5114848 5059640 5010710 5026162 5025600
791.64 4987510 4952570 4917822 4913848 4893440 4850540
794.53 4869752 4899328 4894052 4903040 4912586 4927060
797.43 4934590 4944226 4925188 4918968 4940970 4982952
800.32 5020858 5059630 5077698 5081974 5125100 5178886
803.21 5242062 5272180 5269626 5331068 5369136 5407284
806.10 5454138 5519754 5553786 5607666 5682458 5749226
809.00 5809094 5900118 6003002 6108360 6220572 6365180
811.89 6498076 6654750 6790098 6925796 7067062 7240148
814.78 7443350 7587470 7685522 7895374 8094140 8254750
817.68 8426640 8676112 8881404 9053622 9265444 9513162
820.57 9717232 9982586 10261940 10536960 10842260 11204560
823.46 11542430 11853370 12236240 12695760 13129920 13600860
826.35 14044850 14519000 15052980 15627310 16207450 16820900
829.25 17425610 18116240 18874990 19679060 20548170 21442360
832.14 22348620 23354470 24420460 25566570 26764350 27985370
835.03 29291280 30725020 32195410 33693230 35229720 36731180
837.92 38187220 39672930 41094480 42431520 43670500 44801420
840.82 45793750 46651100 47279520 47878150 48375800 48683230
843.71 48974600 49396720 49984400 50963230 52309780 53605180
846.60 54479170 55180390 55871200 56736820 57780780 59101220
849.50 60622830 62441370 64555900 66856590 69090090 71414730
852.39 73785830 76163340 78331440 80405560 82291900 83967890
855.28 85344630 86473150 87210700 87711160 87851730 87830900
858.17 87666990 87397190 86938450 86537720 86078020 85660920
861.07 85257760 84842940 84247120 83839500 83593220 83501020
863.96 83460420 83887700 84689020 85972740 87737670 90095740
866.85 92916620 96584710 101285800 107337700 117524000 136474100
869.74 154571800 166859000 164493600 158018800 151520600 143544800
872.64 136410000 130066100 124563100 118910200 113537400 108296700
875.53 103368900 99167040 95932770 93132880 90840900 89017390
878.42 87708940 86573390 85620320 84726960 83925690 83041790
881.31 82238170 81462340 80657450 79662850 78726610 77726870
884.21 76635580 75474620 74260990 72972960 71503530 69793500
887.10 68141830 66475260 64644240 62614760 60647460 58650770
889.99 56700460 54696640 52624550 50561450 48513800 46399060
892.89 44289200 42166560 40078230 38020240 36088720 34198580
895.78 32355700 30568450 28857980 27185140 25619800 24119240
898.67 22730480 21376770 20105170 18908920 17806680 16762550
901.56 15776050 14837610 14025550 13261670 12538520 11855060
904.46 11240390 10666170 10169920 9724560 9295132 8880408
907.35 8547066 8257250 8018840 7797692 7611854 7456430
910.24 7334598 7229190 7171210 7146958 7141032 7142530
913.13 7186798 7271980 7380936 7512396 7690578 7877258
916.03 8101734 8365824 8658700 8957728 9288818 9647564
918.92 10046660 10461860 10926490 11403770 11948820 12514590
921.81 13113160 13755170 14444530 15156630 15909010 16706920
924.71 17557020 18442900 19375370 20325800 21332080 22394930
927.60 23491100 24587130 25735970 26897160 28088410 29269710
930.49 30442420 31620710 32819930 33984100 35097630 36200650
933.38 37288090 38337380 39337960 40292970 41234300 42138230
936.28 42994060 43830980 44698500 45576600 46514840 47517550
939.17 48589280 49729750 50954430 52208040 53537180 54946020
942.06 56390510 57826140 59343290 60913500 62411640 63793430
944.95 64992000 66023200 66978000 67921920 68717820 69202380
947.85 69625150 70090220 70468010 70848790 71499740 72048010
950.74 72370330 73021950 74100070 75207220 76499350 78027980
953.63 79762750 81863830 84150810 85761540 85882120 85738010
956.53 86155900 84394020 80220670 77788460 74695750 65043240
959.42 59099310 57982610 57661490 57571020 57767960 58225710
962.31 58825350 59519900 60342740 61119460 61835820 62592690
965.20 63439510 64317510 65214640 66020000 66708770 67254540
968.10 67689030 67949640 68017710 67843650 67434810 66723410
970.99 65793030 64677870 63434520 62107080 60791020 59600610
973.88 58646320 58023430 57888850 58163500 58346280 57469410
976.77 55970010 54965280 54506200 53808380 52847060 52339270
979.67 52572260 53308080 54267270 55345300 56341460 57163730
982.56 57680220 57784150 57505230 56945300 56101240 54901630
985.45 53509190 51928810 50114320 48149260 46287390 44535600
988.35 42884390 41375500 40019480 38849380 37868160 37053970
991.24 36447470 36030380 35758410 35696940 35855260 36110340
994.13 36470540 36981730 37623920 38404540 39304210 40288400
997.02 41362960 42535680 43799650 45161300 46652760 48241630
999.92 49921480 51718240 53663630 55734040 57896920 60192560
1002.81 62658010 65248610 67979660 70894100 73987000 77261380
1005.70 80676800 84235580 87921950 91800680 95922260 100278400
1008.59 104802100 109534700 114455800 119477900 124597700 129865500
1011.49 135311500 140823700 146285500 151654600 156916700 162093900
1014.38 166975400 171529700 175804000 179686800 183035600 185909400
1017.27 188152000 189941600 191076000 191605100 191817000 191695500
1020.17 191059000 190139600 189193400 188460500 188285200 188722000
1023.06 188548300 187943200 187466500 186932500 187972000 192558000
1025.95 193100500 185509800 177057000 172749600 171907700 172464800
1028.84 173252200 172661100 171158500 169441100 167234100 164026800
1031.74 159778100 154710900 149146700 143079900 136617700 129760900
1034.63 122831300 115916200 108956900 102020800 95390170 89178860
1037.52 83526660 78354320 73629830 69330830 65448300 61932910
1040.41 58843850 56074430 53649600 51513130 49643330 47973500
1043.31 46491300 45191280 44097750 43125410 42345320 41733900
1046.20 41385900 41206180 41167460 41551540 42301370 41988920
1049.09 40658940 39598580 38936300 38458960 38092100 37817020
1051.99 37463340 37089980 36794780 36500760 36182430 35868960
1054.88 35576020 35307950 35076000 34890330 34726160 34558500
1057.77 34385480 34245140 34100390 33934350 33815630 33713440
1060.66 33625390 33509840 33374820 33268370 33184190 33060840
1063.56 32926460 32775880 32630000 32440690 32267310 32140640
1066.45 31969120 31737910 31485400 31261380 31073210 30824920
1069.34 30586510 30367420 30126930 29866290 29606000 29339490
1072.23 29125650 28905200 28669740 28436370 28212370 28008880
1075.13 27784350 27522040 27289220 27029040 26742650 26493310
1078.02 26251830 25998690 25762630 25487140 25216740 24970660
1080.91 24754740 24526050 24269890 23993350 23728930 23458570
1083.81 23189900 22886070 22596900 22330940 22061120 21795580
1086.70 21536710 21262410 21042660 20829160 20595930 20336840
1089.59 20090130 19860810 19643270 19435020 19226640 19001500
1092.48 18775920 18541760 18317260 18103420 17896290 17692540
1095.38 17497000 17305550 17160170 17016470 16874920 16745210
1098.27 16645730 16536630 16433990 16345080 16276980 16220960
1101.16 16173240 16136530 16116820 16085570 16061650 16059880
1104.05 16090130 16121090 16157590 16188820 16245220 16293700
1106.95 16349130 16417030 16480160 16554960 16663770 16776450
1109.84 16873440 16957020 17076210 17233610 17406870 17583230
1112.73 17775180 17982450 18227920 18489600 18773490 19059740
1115.63 19384060 19766910 20200580 20672170 21204180 21799820
1118.52 22450120 23138960 23912710 24773740 25715210 26719710
1121.41 27783730 28949820 30277550 31770360 33345790 34982750
1124.30 36812520 38930260 41312910 44003240 47050300 50545530
1127.20 54614200 59318640 64794950 71159060 78596400 87220400
1130.09 97141270 108454100 121254100 135537000 151234000 168334300
1132.98 186675500 206255900 227658500 250827100 275268200 300866800
1135.87 327345800 354180300 380545500 406223100 430595000 452900800
1138.77 472547400 488867700 501496400 510423500 515057200 515311600
1141.66 511227300 503116800 492267000 480347100 468888100 459580900
1144.55 454783100 455580700 462679100 475617300 492778300 510422600
1147.45 523220100 528656200 525830900 510947500 489752700 475480000
1150.34 471948700 474286700 487995700 508644600 527148900 539960600
1153.23 546348600 545399800 536802400 521745000 500893500 474894100
1156.12 445226600 412662300 377902900 342445000 307407500 273624200
1159.02 241524500 211468000 183888400 159024100 137030400 117830100
1161.91 101232300 87146170 75357570 65521360 57418300 50816550
1164.80 45503550 41252210 37862370 35146240 32997200 31310670
1167.69 29987720 28937220 28101440 27427500 26910430 26525180
1170.59 26219590 25960370 25797950 25734680 25718940 25720480
1173.48 25797730 25979690 26222460 26500860 26812430 27084730
1176.37 27411790 27808610 28266040 28774980 29330130 29989190
1179.26 30719640 31498570 32329340 33182500 34105320 35099990
1182.16 36147500 37255640 38466480 39741160 41027020 42336510
1185.05 43736930 45164240 46629520 48159600 49721180 51282720
1187.94 52873260 54516510 56259890 58052340 59869650 61784920
1190.84 63854480 66059200 68452090 71136770 74100100 77390910
1193.73 81123010 85282110 89978820 95308560 101298200 107987800
1196.62 115178900 122475200 130096300 138421500 147862700 158764900
1199.51 171094300 184658700 199233000 214785300 231439700 249223100
1202.41 268062500 288110700 309653500 332304900 356098300 381475900
1205.30 408560700 437257100 467360600 499303500 533443500 569600100
1208.19 607553200 647424300 689417000 733491300 779635900 827844800
1211.08 878405900 930588700 983782000 1037756000 1091913000 1144995000
1213.98 1196783000 1247974000 1296509000 1340461000 1380383000 1415687000
1216.87 1446818000 1472309000 1492135000 1506406000 1515097000 1518689000
1219.76 1516195000 1509857000 1504204000 1498453000 1491775000 1485592000
1222.66 1481336000 1481283000 1492148000 1517282000 1543869000 1538694000
1225.55 1499980000 1458452000 1425721000 1404448000 1395543000 1399277000
1228.44 1410994000 1424335000 1432819000 1433828000 1425806000 1406068000
1231.33 1373849000 1328998000 1272894000 1206825000 1133131000 1055121000
1234.23 974620000 893417300 813226200 736090900 663092000 595157800
1237.12 533503800 477801300 428233700 384963400 347559000 315473000
1240.01 288237600 265266900 246001900 229992500 216598300 205438800
1242.90 196082700 188157300 181275400 175145600 169516300 164354400
1245.80 159444000 154744400 150177300 145759600 141572100 137638700
1248.69 133976600 130728200 128046400 126186100 125350000 125235400
1251.58 125226000 124714100 122732500 118881100 114489600 110872500
1254.48 108357200 107000400 106667100 107073200 107874400 108695800
1257.37 109232700 109314100 108772200 107434900 105277800 102405200
1260.26 98934660 94966430 90572390 85861060 80971000 76116060
1263.15 71371860 66797300 62435080 58381640 54683740 51359150
1266.05 48332230 45625390 43231890 41081910 39223010 37627040
1268.94 36216830 35006330 33967970 33068590 32267490 31543800
1271.83 30943900 30460890 30073770 29843700 29741090 29707370
1274.72 29747630 29886570 30111910 30420570 30813010 31368680
1277.62 32109260 33033370 34166130 35509280 37053910 38827120
1280.51 40814600 43016820 45436860 48127240 51035230 54164890
1283.40 57509920 61033610 64673010 68365370 72051110 75762940
1286.30 79328120 82510280 85283900 87682180 89697260 91260000
1289.19 92322070 92901380 93006750 92864100 92674060 92461520
1292.08 92149670 92310640 93402220 94626770 94765470 94570910
1294.97 95003060 95431020 95142500 94622780 94326600 94061450
1297.87 93907890 93843800 93836330 93852820 93906150 93964970
1300.76 93886060 93592590 93081430 92292310 91078450 89350260
1303.65 87153450 84523520 81495130 78076170 74343120 70448100
1306.54 66441220 62340630 58230120 54190580 50297650 46574380
1309.44 43035400 39721880 36654380 33818540 31217200 28846090
1312.33 26700320 24756040 22997790 21439280 20042310 18788840
1315.22 17658160 16629790 15707150 14880380 14145680 13491460
1318.12 12887670 12323800 11836010 11398540 10989790 10605230
1321.01 10249250 9913266 9605716 9340136 9104434 8868762
1323.90 8635548 8426386 8251304 8092938 7926716 7779214
1326.79 7652806 7534792 7413440 7299698 7212338 7138128
1329.69 7063600 6999518 6949340 6907432 6872288 6849180
1332.58 6825648 6802460 6784066 6778094 6778954 6779014
1335.47 6787366 6807046 6836954 6881758 6921124 6957908
1338.36 7009206 7093764 7191736 7285914 7404842 7563568
1341.26 7724790 7915194 8126092 8359860 8596882 8824304
1344.15 9085386 9400492 9751918 10134450 10552950 10997900
1347.04 11471430 11995790 12575020 13213600 13891380 14632610
1349.94 15423120 16275960 17232930 18284010 19432790 20702380
1352.83 22066060 23565660 25211300 27021640 29019360 31230430
1355.72 33653860 36286970 39149480 42254580 45691410 49489080
1358.61 53624280 58101950 62967780 68193790 73778200 79792660
1361.51 86110130 92794300 99760220 106924900 114269700 121745600
1364.40 129194200 136571800 143839200 150876700 157607400 164037600
1367.29 169794500 174827800 179248000 183158100 186584800 189538900
1370.18 191854400 193641900 195544400 198354000 202492500 208434400
1373.08 215857600 222800400 224399800 220377300 217231100 216826400
1375.97 217857700 219987300 223411800 227803600 232767800 237697600
1378.86 242122300 245561600 247565500 247798000 246408600 243645000
1381.76 239478400 234086200 227422600 219890100 211906800 203519800
1384.65 194728300 185785500 176993200 168501200 160756200 154083700
1387.54 147516000 140361200 133424100 126684300 119982100 113353100
1390.43 107071300 101199000 95855760 91089000 86813160 82816980
1393.33 78974810 75152420 71481340 67898910 64318880 60835530
1396.22 57408530 54029740 50774060 47680150 44693470 41813590
1399.11 39189250 36754960 34471990 32325610 30344980 28483960
1402.00 26779330 25230250 23825200 22554760 21412300 20378930
1404.90 19528320 18803420 18155520 17574320 17066760 16624390
1407.79 16250760 15939810 15694010 15496790 15322050 15184220
1410.68 15102520 15043790 15015410 15009930 15036320 15077400
1413.58 15132780 15194690 15279100 15340910 15414410 15520510
1416.47 15620770 15704560 15830780 15939090 15933420 15870390
1419.36 16093640 16360460 16495370 16600450 16701730 16814080
1422.25 16931190 17031730 17127060 17273820 17478360 17686410
1425.15 17913630 18155250 18404590 18683410 19001850 19324080
1428.04 19652210 20005330 20411760 20807940 21159980 21417780
1430.93 21550550 21666470 21804000 21911800 21985050 22061240
1433.82 22137700 22185750 22212190 22160340 21899500 21534160
1436.72 21461320 21373800 21052700 20721540 20473630 20248930
1439.61 20035090 19840290 19681620 19572850 19512930 19527330
1442.50 19628740 19698130 19719820 19811650 19923820 19989550
1445.40 20006100 19986690 19942160 19855740 19694670 19578680
1448.29 19492040 19337770 19151660 18965250 18772590 18580890
1451.18 18381420 18159890 17946340 17715280 17480630 17263870
1454.07 17073250 16880540 16694960 16431120 15969530 15687690
1456.97 15808630 15750860 15573000 15414690 15238420 15064800
1459.86 14828250 14571550 14342360 14155620 13991960 13817210
1462.75 13642750 13480450 13306800 13071640 12968060 12972660
1465.64 12903210 12802400 12709410 12625970 12556520 12483810
1468.54 12418150 12358350 12295120 12223850 12149090 12031880
1471.43 11860970 11871390 11906750 11744110 11734210 11810450
1474.32 11771120 11692390 11581330 11467730 11444740 11436190
1477.21 11412450 11361090 11296750 11249640 11188560 11107080
1480.11 11029270 10937110 10861190 10786220 10701740 10638000
1483.00 10588090 10528090 10461750 10389270 10319000 10235350
1485.89 10154260 10055420 9952572 9933678 9907016 9817034
1488.79 9697922 9586110 9517866 9434582 9404392 9398250
1491.68 9336372 9270508 9214074 9164198 9098018 9041882
1494.57 9004910 8928950 8683200 8637888 8801008 8813504
1497.46 8767168 8645954 8563110 8607574 8628776 8606840
1500.36 8588346 8560488 8554748 8529306 8477030 8424186
1503.25 8384296 8342252 8284100 8057564 7854190 7986016
1506.14 7878090 7714342 7936432 8056170 8024454 8041242
1509.03 8029168 8019968 8031604 8015066 7999964 7926536
1511.93 7870006 7903602 7910306 7889106 7851492 7790578
1514.82 7766710 7751910 7684746 7623046 7560368 7555456
1517.71 7596620 7580988 7543692 7456326 7345160 7243580
1520.61 6991062 6991334 7164816 7087262 7076420 7104594
1523.50 7080900 7034102 6940330 6805548 6831698 6869036
1526.39 6828860 6770304 6757546 6707508 6672508 6667108
1529.28 6645430 6607486 6573812 6514738 6467498 6445730
1532.18 6386836 6280566 6197142 6182066 6257240 6252978
1535.07 6232810 6202846 6189802 6157112 6115788 6038776
1537.96 5880770 5572780 5662008 5759940 5682202 5863088
1540.85 5926432 5758368 5752056 5961586 6019780 6039784
1543.75 6080786 6051770 6006808 6133316 6262558 6327914
1546.64 6379530 6441290 6511208 6586140 6659950 6713830
1549.53 6779004 6892128 7040622 7155932 7255486 7362480
1552.43 7476550 7564138 7554986 7533476 7786042 8014976
1555.32 8145282 8249752 8329540 8307684 8334238 8271172
1558.21 8335980 8711044 8741028 8624780 8900572 9258750
1561.10 9375242 9451790 9505840 9588578 9663974 9721982
1564.00 9721236 9717316 9765458 9836834 9872270 9903768
1566.89 9972600 10147120 10333140 10323490 10156260 10058890
1569.78 10195200 10356800 10443190 10556690 10668190 10788660
1572.67 10903840 11027040 11136880 11249650 11323650 11250110
1575.57 10999290 11202590 11570430 11677550 11729420 11768200
1578.46 11794660 11814350 11842020 11864840 11876520 11886030
1581.35 11899580 11911960 11918210 11908290 11908080 11928910
1584.25 11960060 11998940 12048150 12090490 12124490 12155550
1587.14 12179370 12185300 12198580 12222670 12238110 12232490
1590.03 12234930 12249280 12270170 12289730 12295950 12312960
1592.92 12331210 12338700 12344550 12355140 12373000 12394110
1595.82 12412100 12425500 12431180 12432340 12449300 12467230
1598.71 12472450 12475390 12478730 12490710 12519580 12575300
1601.60 12637680 12714510 12810120 12922300 13058680 13188460
1604.49 13314970 13418920 13521110 13645850 13792870 13964290
1607.39 14139150 14308210 14456660 14607530 14799640 15022640
1610.28 15253090 15494740 15751040 16042260 16355530 16683820
1613.17 16982590 17268750 17558180 17885800 18265300 18577970
1616.07 18689130 19125470 19750160 20171730 20543380 20904710
1618.96 21272550 21609260 21912610 22174440 22415990 22630810
1621.85 22851970 23053450 23210220 23495310 23931110 24302280
1624.74 24672360 25048920 25402250 25610390 25697670 25841880
1627.64 26258580 26918470 27722950 28681490 29824680 31111670
1630.53 32515100 33896250 35160530 36470030 38116820 40180880
1633.42 42613140 45368180 48458370 51887500 55976430 60856380
1636.31 66093170 71775900 78173460 85343100 93198970 101732000
1639.21 110938000 120860500 131463600 142649500 154341200 166459900
1642.10 178861000 191296000 203484800 215279900 226369400 236013200
1644.99 242813900 247190600 251283100 253397300 252562800 249451400
1647.89 244167500 237638700 230536900 224146500 220155000 220819900
1650.78 228442400 243796800 264541500 288205500 300250000 284833400
1653.67 252705300 224560900 211300600 211353300 219863400 233426200
1656.56 248918300 264041600 277125600 286816200 292461500 293878700
1659.46 291018300 283976600 273247800 259452400 243358500 225308100
1662.35 206328400 187536100 168833800 150596100 133376200 117449100
1665.24 103045400 90296090 79114290 69349950 61030200 54038950
1668.13 48139150 43096200 39003940 35758730 32947700 30478080
1671.03 28368190 26644180 25119700 23736120 22493980 21379190
1673.92 20333620 19240560 18263510 17601700 16958680 16271930
1676.81 15619690 15001810 14436370 13909420 13404420 12928400
1679.71 12500400 12118310 11781870 11463950 11160870 10827450
1682.60 10489750 10249670 9996740 9499184 9266690 9547262
1685.49 9587084 9478866 9364330 9271380 9181228 9116972
1688.38 9084576 9064122 9012434 8996584 9002826 9019104
1691.28 9032040 9058824 9055212 9039528 8999818 8949144
1694.17 8854034 8652010 8188572 8037902 8326144 8367952
1697.06 8279268 8230378 8233236 8251258 8131666 7951898
1699.95 7986164 8104642 8198604 8101554 7921568 7759830
1702.85 7664626 7602604 7546288 7592196 7691846 7710440
1705.74 7679952 7706964 7743186 7712296 7655438 7565362
1708.63 7463310 7333302 7197640 7076156 6964796 6827048
1711.53 6712688 6608542 6509636 6438636 6377080 6330220
1714.42 6250768 6250896 6376844 6440070 6360000 6130914
1717.31 6320352 6535422 6535886 6621564 6669668 6675802
1720.20 6701702 6760158 6834912 6928536 7045520 7181256
1723.10 7342912 7535618 7727592 7929978 8147918 8373930
1725.99 8596912 8835686 9101296 9392436 9691042 10016190
1728.88 10333600 10646500 11007030 11409570 11799410 12181750
1731.77 12533360 12795220 12907190 13241780 13535600 13685090
1734.67 14105010 14415290 14586260 14711260 14816360 14913780
1737.56 15055750 15238070 15473190 15714870 16145410 16816870
1740.45 17449930 18004260 18629510 19439200 20451810 21651390
1743.34 23002480 24408030 25817240 27198580 28547190 29900330
1746.24 31300390 32676770 34092620 35577620 37086050 38655270
1749.13 40355080 42200530 44125090 46111060 48407790 51057110
1752.02 53815270 56760390 59966240 63415140 67101560 71055660
1754.92 75229650 79637230 84230440 89035200 94258340 99748990
1757.81 105388500 111260000 117469300 123965300 130771800 137989600
1760.70 145567400 153408100 161968600 171111700 180518300 190427200
1763.59 200865200 211834700 223413300 235704300 248766100 262819000
1766.49 277917900 294018100 310788500 329293500 349454100 370173300
1769.38 391629200 414059400 437297500 461671300 487677900 513448100
1772.27 539583700 567998700 595727600 621681900 646288600 668743900
1775.16 688312800 705174000 718617700 727383000 731336500 730644400
1778.06 724590500 713115800 697024600 676566800 652573200 626891300
1780.95 601285000 577756400 559269200 546764900 538851700 531816900
1783.84 522414500 513278500 513236200 528627500 559416400 601374000
1786.74 648937900 696109000 738469400 772933100 797668100 812244700
1789.63 816652000 811538200 798725800 779739600 754937500 725585900
1792.52 694196700 661356200 627408600 593171100 558808000 525256000
1795.41 493205900 462762500 433743200 406533600 381274000 357847400
1798.31 336053900 315729900 296975900 279938400 264187700 249550000
1801.20 236098800 223516100 211547400 200241600 189176200 178310400
1804.09 167683800 157497300 147813200 138667600 130109400 122053800
1806.98 114303300 106845000 99687670 92816580 86211370 79925550
1809.88 73957270 68387510 63240330 58470700 54043490 49964860
1812.77 46180560 42663890 39404660 36406020 33653890 31143840
1815.66 28851890 26780630 24885650 23199380 21713000 20374020
1818.56 19177520 18117710 17165160 16329410 15598760 14967720
1821.45 14418570 13930920 13491920 13153650 12895060 12655220
1824.34 12400820 12215840 12087370 11928660 11791280 11697070
1827.23 11639460 11605150 11565120 11520600 11477140 11432270
1830.13 11449110 11457040 11411300 11354070 11273080 11177610
1833.02 11068410 10958460 10826130 10694460 10575870 10462670
1835.91 10330520 10205840 10108170 10026440 9954288 9907106
1838.80 9863898 9843168 9843462 9874036 9897432 9935134
1841.70 9987106 10060110 10130350 10160370 10134820 10303800
1844.59 10540340 10678260 10814640 10950060 11083700 11204890
1847.48 11337920 11491580 11629010 11758040 11876250 11979190
1850.38 12093930 12215320 12327180 12445180 12581480 12729490
1853.27 12871670 13017760 13169760 13313150 13469890 13631500
1856.16 13780960 13935930 14098980 14271600 14434800 14600020
1859.05 14754270 14912090 15061710 15185610 15311510 15433620
1861.95 15535220 15626800 15711970 15767370 15799800 15830790
1864.84 15832430 15799250 15746900 15699810 15632290 15539280
1867.73 15465890 15392830 15296640 15291280 15304650 15219710
1870.62 15123870 15058070 14952870 14797860 14635170 14466750
1873.52 14308210 14168030 14051750 13964040 13889840 13810980
1876.41 13713150 13582360 13425580 13236290 13030100 12792640
1879.30 12504870 12199770 11881400 11554480 11208580 10866840
1882.20 10533160 10213270 9909540 9620186 9365916 9134882
1885.09 8924594 8747118 8586570 8447212 8334022 8230938
1887.98 8148416 8077100 7989668 7947874 7941378 7941860
1890.87 7948876 7943982 7940456 7945144 7951508 7965666
1893.77 7989680 8002240 8009866 8052152 8095300 8112834
1896.66 8092612 8063992 8058186 8051950 8040174 8012520
1899.55 7972626 7924292 7866094 7806714 7715438 7602408
1902.44 7478754 7376324 7306654 7223160 7124724 7051974
1905.34 6987560 6859416 6682770 6524288 6398886 6355740
1908.23 6380050 6378970 6306884 6057818 5785906 5663480
1911.12 5614194 5570506 5505262 5416996 5310976 5201480
1914.02 5076992 4935528 4767562 4582704 4396710 4205852
1916.91 4003230 3780852 3636902 3528548 3385924 3246792
1919.80 3115574 3000796 2900220 2808988 2720578 2647706
1922.69 2581614 2543752 2513180 2472850 2435568 2408580
1925.59 2383716 2367922 2358780 2353162 2343078 2340502
1928.48 2342562 2342920 2340844 2340486 2348332 2358902
1931.37 2361304 2364660 2367526 2382312 2400764 2412712
1934.26 2432948 2451682 2468332 2497372 2526810 2549006
1937.16 2567640 2591014 2624552 2655128 2677036 2706852
1940.05 2729714 2747744 2772822 2782058 2775506 2803322
1942.94 2841306 2854974 2852966 2851952 2850282 2851840
1945.84 2848038 2845038 2845326 2835358 2819038 2816746
1948.73 2819270 2824586 2826068 2814900 2810352 2822742
1951.62 2847216 2868126 2893294 2916078 2942346 2965412
1954.51 2979840 3000696 3015964 3024340 3032344 3033462
1957.41 3032248 3034116 3022736 3002756 2983866 2957550
1960.30 2928674 2903282 2862252 2822272 2794376 2768978
1963.19 2740290 2701104 2671588 2648356 2629472 2613800
1966.08 2600952 2580278 2565018 2571318 2579918 2586652
1968.98 2582814 2589288 2610474 2637144 2672152 2700402
1971.87 2736520 2791178 2849486 2909798 2986216 3056404
1974.76 3134356 3232952 3339988 3460102 3583850 3708084
1977.66 3845744 4004058 4171704 4350374 4534466 4726990
1980.55 4942570 5151948 5354276 5573738 5789382 5994300
1983.44 6200878 6388396 6559298 6728808 6869162 6985666
1986.33 7086904 7158324 7201792 7210984 7204766 7184698
1989.23 7151194 7115128 7094746 7104168 7138840 7229900
1992.12 7385192 7566466 7729570 7834776 7843676 7712620
1995.01 7506498 7335492 7278974 7322144 7416348 7538114
1997.90 7671394 7771448 7833076 7861882 7834780 7743872
2000.80 7591630 7380604 7121988 6834450 6512032 6162722
2003.69 5812934 5471408 5143704 4834416 4541416 4281154
2006.58 4053344 3850568 3675074 3531824 3410080 3313028
2009.48 3235874 3169758 3113616 3075008 3043232 3017522
2012.37 2999488 2970140 2956536 2956760 2943048 2929876
2015.26 2937056 2940452 2926040 2925616 2923194 2915670
2018.15 2917242 2924862 2928554 2939612 2963680 2978404
2021.05 2986860 2972914 2942112 2918894 2898460 2886838
2023.94 2886404 2893734 2895916 2890076 2893842 2910764
2026.83 2916214 2918516 2933378 2939654 2932576 2933760
2029.72 2951544 2964872 2969406 2979424 2988870 2994522
2032.62 3007318 3021610 3041286 3068430 3097978 3130646
2035.51 3173362 3220286 3266306 3311146 3357846 3412918
2038.40 3477552 3555614 3636406 3726336 3820484 3920104
2041.29 4038322 4173726 4319112 4463566 4619742 4783568
2044.19 4953366 5124142 5315066 5520942 5737690 5957214
2047.08 6194604 6454250 6724392 6999044 7282894 7580662
2049.97 7885410 8198298 8531854 8881708 9226102 9571362
2052.87 9931184 10313070 10697910 11065360 11424390 11787360
2055.76 12134320 12467480 12801650 13105240 13387970 13667950
2058.65 13934800 14174280 14383710 14567890 14720270 14841620
2061.54 14948640 15050110 15123080 15170780 15231720 15321990
2064.44 15443580 15569610 15672300 15689770 15591890 15454570
2067.33 15342790 15267800 15224000 15209250 15192450 15153460
2070.22 15094150 14999300 14866720 14685950 14455350 14178930
2073.11 13848480 13464070 13039390 12577420 12093780 11587440
2076.01 11061530 10528310 9984582 9463240 8966248 8480044
2078.90 8027102 7593304 7178860 6808564 6462920 6128180
2081.79 5831226 5573782 5333110 5111642 4913442 4738812
2084.69 4583260 4429762 4285616 4177322 4082044 3987604
2087.58 3899198 3815214 3753840 3691700 3623320 3555412
2090.47 3507542 3465932 3422548 3389288 3349342 3306518
2093.36 3271318 3226536 3180684 3166444 3149282 3119672
2096.26 3102090 3085080 3066798 3062094 3040592 3018334
2099.15 3037996 3053388 3059088 3059190 3066790 3075066
2102.04 3088464 3088686 3103892 3143576 3179296 3212904
2104.93 3246994 3283148 3318308 3348852 3377714 3432202
2107.83 3484542 3527346 3570784 3602594 3639162 3676674
2110.72 3685886 3713210 3776344 3821044 3850578 3878314
2113.61 3906256 3927952 3933356 3924112 3943900 3965392
2116.51 3971474 3966628 3954574 3936842 3910972 3871392
2119.40 3857892 3873828 3883966 3892888 3902168 3926814
2122.29 3963538 3994628 3992804 3975224 3958852 3957666
2125.18 3936920 3922966 3937876 3951284 3952314 3974322
2128.08 3989728 3975058 3936746 3877226 3801164 3699740
2130.97 3581744 3468694 3343082 3215108 3090850 2956662
2133.86 2825230 2698016 2576652 2495334 2424276 2344616
2136.75 2283992 2235212 2191658 2167932 2146504 2141346
2139.65 2138976 2134386 2133570 2128906 2138696 2159862
2142.54 2174196 2183138 2200686 2226352 2244188 2256318
2145.43 2272280 2285278 2295518 2308604 2326168 2344184
2148.33 2349444 2350294 2361080 2371976 2367870 2373126
2151.22 2385440 2397662 2407430 2419116 2426444 2420334
2154.11 2419472 2446154 2474088 2491936 2497634 2505088
2157.00 2516192 2507418 2517812 2553346 2570842 2584358
2159.90 2599110 2617472 2620400 2607838 2630740 2667360
2162.79 2674188 2680210 2684042 2676398 2647040 2617096
2165.68 2631478 2641242 2634872 2621286 2612232 2584130
2168.57 2542842 2547300 2558598 2554318 2555774 2549188
2171.47 2534866 2496864 2482682 2515522 2534612 2528308
2174.36 2491686 2435022 2389996 2357554 2357412 2348636
2177.25 2333508 2315104 2292280 2252418 2183598 2154618
2180.15 2135136 2090406 2034138 1979590 1918394 1833772
2183.04 1784104 1752766 1701006 1653736 1610828 1570470
2185.93 1514940 1483048 1481158 1455690 1432148 1420074
2188.82 1395390 1355000 1346536 1357102 1350626 1348552
2191.72 1346252 1324572 1297528 1290816 1285298 1269478
2194.61 1260016 1240214 1215638 1181782 1181624 1185384
2197.50 1168496 1152254 1138222 1125436 1103356 1093524
2200.39 1098244 1101244 1101156 1103094 1101592 1106330
2203.29 1121308 1128382 1141520 1160636 1177004 1182166
2206.18 1198044 1228132 1249136 1276170 1308244 1338766
2209.07 1367280 1402224 1433526 1464240 1495168 1538646
2211.97 1579682 1624212 1673612 1701284 1728858 1764150
2214.86 1798078 1834188 1878132 1921640 1958676 1993948
2217.75 2031268 2066930 2107184 2155694 2202992 2247872
2220.64 2282328 2305888 2330474 2368192 2404390 2429762
2223.54 2459648 2494748 2545120 2592404 2626922 2660004
2226.43 2685396 2703490 2707240 2713800 2722428 2721830
2229.32 2711922 2694520 2676174 2663954 2654516 2636326
2232.21 2608798 2584088 2569934 2548050 2520692 2501362
2235.11 2482904 2458664 2426824 2405070 2379408 2350808
2238.00 2320312 2283014 2247546 2215838 2180296 2150826
2240.89 2126958 2100688 2064008 2028108 2002810 1974426
2243.79 1935048 1902330 1875876 1850092 1820602 1787512
2246.68 1766144 1740182 1709540 1690816 1677344 1666092
2249.57 1652620 1634996 1605602 1579262 1563430 1544182
2252.46 1525218 1500086 1465752 1438394 1415280 1386420
2255.36 1359268 1336670 1315746 1296412 1275084 1255544
2258.25 1244582 1237918 1231428 1225666 1218124 1215542
2261.14 1219258 1232856 1240024 1246250 1267212 1289748
2264.03 1307520 1332442 1358808 1382404 1428490 1481270
2266.93 1522902 1575826 1637682 1695758 1757700 1826672
2269.82 1907540 2000670 2107388 2223480 2345236 2474472
2272.71 2621624 2776744 2930042 3092690 3277702 3472512
2275.61 3663638 3863970 4082250 4296112 4499344 4701766
2278.50 4908130 5106988 5295660 5463636 5610892 5745530
2281.39 5878104 5988234 6080322 6139898 6171184 6189322
2284.28 6204562 6211034 6198580 6182360 6162240 6144876
2287.18 6130648 6138474 6159890 6190294 6218188 6239572
2290.07 6262132 6288676 6315896 6321568 6281776 6208356
2292.96 6162970 6162992 6156552 6109210 6042456 5941576
2295.85 5818996 5689490 5520000 5320966 5100220 4834714
2298.75 4526374 4218324 3913198 3591250 3271148 2968702
2301.64 2676972 2405214 2145584 1917152 1729140 1560138
2304.53 1403924 1273138 1158652 1070732 1002068 942456
2307.43 883572 835250 798458 764340 732934 716604
2310.32 704002 693956 675614 661800 659230 647858
2313.21 631772 629132 634478 639466 626160 620146
2316.10 634806 650078 644440 632264 628484 635314
2319.00 631646 627146 630958 645620 657918 657328
2321.89 662174 677354 680442 671896 681920 706398
2324.78 719620 717170 731008 762964 774184 770716
2327.67 798902 840990 845898 849828 886248 927532
2330.57 939306 953628 998720 1035326 1044280 1078320
2333.46 1141166 1182990 1198486 1239062 1289536 1321222
2336.35 1347938 1405614 1447832 1465928 1508740 1561180
2339.24 1589498 1614080 1656576 1693538 1700244 1712154
2342.14 1748176 1766066 1775814 1816398 1833090 1829070
2345.03 1851142 1866170 1869584 1881812 1902826 1924894
2347.92 1940262 1957534 1984376 2023438 2062050 2093534
2350.82 2134616 2164820 2192378 2232694 2263656 2290692
2353.71 2323032 2334986 2329118 2351578 2362950 2345786
2356.60 2332886 2306722 2284656 2279838 2251540 2215302
2359.49 2203966 2167000 2140840 2133858 2090952 2075634
2362.39 2077158 2045128 2040010 2029432 1999572 1993674
2365.28 1963032 1936600 1933144 1917658 1898626 1865228
2368.17 1846838 1840220 1815996 1798560 1773218 1760688
2371.06 1748334 1730962 1722300 1704184 1691772 1672362
2373.96 1648624 1613900 1578202 1545438 1514050 1491148
2376.85 1475010 1463844 1444316 1424778 1406080 1372806
2379.74 1338164 1301296 1258706 1214722 1170616 1133398
2382.64 1098146 1055656 1019824 988862 946776 915078
2385.53 898028 883152 867794 853656 844276 842502
2388.42 837982 837814 833704 834262 848292 866898
2391.31 879770 883874 885300 893530 917584 928222
2394.21 927176 932786 944700 961866 989226 1011230
2397.10 1019652 1033954 1055234 1074858 1091296 1113896
2399.99 1139088 1146902 1158096 1185928 1213124 1240366
2402.88 1265482 1284126 1312772 1334460 1357052 1379948
2405.78 1402640 1426562 1457666 1496344 1523786 1548700
2408.67 1575142 1602558 1633720 1664010 1690326 1730424
2411.56 1770628 1809090 1849286 1889036 1929058 1965832
2414.46 2014672 2066350 2120250 2181902 2241100 2302152
2417.35 2364970 2425416 2482288 2536766 2576868 2616520
2420.24 2674418 2742466 2802280 2869460 2935556 2998178
2423.13 3062190 3129786 3220190 3311780 3382558 3456646
2426.03 3542866 3630778 3713694 3801854 3891988 3974264
2428.92 4059414 4145294 4230682 4316746 4398612 4469634
2431.81 4528162 4579352 4625366 4662734 4693286 4720960
2434.70 4721118 4714102 4698622 4680050 4654880 4624800
2437.60 4594592 4563778 4543872 4541648 4536524 4527298
2440.49 4534548 4532502 4493752 4423642 4335542 4265052
2443.38 4226436 4191958 4160204 4134642 4107710 4064628
2446.28 4007896 3943064 3875734 3790738 3689074 3576170
2449.17 3450188 3319762 3178608 3030312 2880856 2741008
2452.06 2606900 2481002 2358876 2243640 2128130 2017064
2454.95 1918668 1837582 1764796 1694784 1633848 1580794
2457.85 1530402 1474232 1422346 1380704 1340550 1306792
2460.74 1280766 1261456 1232658 1213070 1190564 1155340
2463.63 1130494 1113080 1087992 1070008 1068118 1063334
2466.52 1037982 1012914 1002064 999992 993996 980536
2469.42 978664 963110 943548 938760 937424 925596
2472.31 926844 930086 923974 914444 907302 901344
2475.20 891726 887002 873842 863510 855768 854108
2478.10 844382 830944 829398 827792 823812 825632
2480.99 834432 841576 849028 855368 868284 883660
2483.88 899616 917124 932314 945108 961280 975606
2486.77 996712 1013634 1014800 1006636 995692 998626
2489.67 1004168 1010112 1015362 1012406 1003944 1017060
2492.56 1039870 1049842 1062610 1073336 1077110 1069786
2495.45 1046354 1022286 1012576 1020156 1023428 1030888
2498.34 1037134 1037582 1045654 1061956 1070912 1056654
2501.24 1036474 1022596 997252 969576 938828 905314
2504.13 879298 845254 804488 770630 732986 691618
2507.02 661026 638848 617766 597668 573792 546416
2509.92 521790 503888 496710 485864 477248 466906
2512.81 457420 455426 453780 453530 446854 437948
2515.70 440220 436034 430394 422988 423488 413376
2518.59 404636 402202 396150 394388 393316 396198
2521.49 392252 379606 375830 375824 367854 367958
2524.38 360038 343696 342410 337692 326144 321320
2527.27 322772 312294 301380 294080 282008 273604
2530.16 268262 254864 245338 249038 250558 250768
2533.06 248438 235988 216462 210402 205952 207510
2535.95 212920 213184 203054 187400 177010 173790
2538.84 175648 173700 178166 179480 177770 169942
2541.74 159978 153894 151332 159802 167138 164700
2544.63 155280 143624 141310 145810 144900 139182
2547.52 143760 139268 128678 131788 141434 138366
2550.41 138224 140050 138634 142090 134450 135210
2553.31 144734 140416 141186 145228 154436 157264
2556.20 148940 146618 141184 133124 128300 131220
2559.09 132412 141608 145298 138690 134778 145070
2561.98 143318 138344 141486 147814 158998 169336
2564.88 167484 172592 181362 185798 199628 217864
2567.77 223528 234558 249806 270820 280734 296558
2570.66 318568 337848 357364 380604 404006 420466
2573.56 445232 469124 484560 506016 536574 555282
2576.45 570772 594824 619874 652400 683206 698790
2579.34 733558 767770 779956 792952 810044 830100
2582.23 854532 879794 897004 920308 942056 957770
2585.13 966230 989442 1010408 1034974 1057884 1075440
2588.02 1091378 1092576 1082020 1083770 1093108 1096060
2590.91 1088254 1080482 1078462 1079964 1071988 1053958
2593.80 1046622 1044390 1032508 1032464 1032672 1016132
2596.70 996578 984778 978604 961816 939470 932770
2599.59 938692 938114 922960 903004 880740 852782
2602.48 834220 816774 797378 789092 778518 751118
2605.37 725240 703606 682050 663002 652958 635422
2608.27 616626 603282 596338 586658 583022 587978
2611.16 588736 586426 591192 611570 628570 631380
2614.05 645212 666094 687806 720396 741872 760454
2616.95 790202 813048 837382 862230 879642 907230
2619.84 934320 965512 991488 1000722 1015122 1040470
2622.73 1057572 1058044 1079662 1095372 1086972 1089820
2625.62 1098034 1111800 1112874 1115950 1130326 1130234
2628.52 1125626 1129986 1150152 1158940 1155960 1155946
2631.41 1165332 1171652 1166104 1167024 1166364 1173558
2634.30 1191072 1200550 1196038 1197326 1196872 1180940
2637.19 1173360 1164722 1131534 1087614 1051262 1018554
2640.09 979196 931904 893468 847472 810030 766450
2642.98 726534 694696 661114 626846 602168 574862
2645.87 547392 531490 518936 512956 507384 498970
2648.77 502122 488938 477948 481238 488954 487042
2651.66 467724 461516 470718 480006 480926 481972
2654.55 487824 478758 473770 489864 500248 501396
2657.44 507252 523024 529420 517764 512806 530464
2660.34 547620 553384 563670 574658 572630 579964
2663.23 591704 591032 600348 613930 609994 620002
2666.12 633964 637564 646340 636394 639044 655614
2669.01 660520 662632 648446 631050 630668 640012
2671.91 636868 640368 646166 640330 625362 627138
2674.80 632456 626882 609316 607888 605598 588422
2677.69 582018 575586 566684 559398 554862 554832
2680.59 544446 531336 513346 490576 491648 486718
2683.48 466078 453612 432376 413708 405262 384778
2686.37 361548 349980 342836 332400 333014 323708
2689.26 312796 300990 290608 278630 273054 274872
2692.16 272164 256688 251508 252844 252754 252394
2695.05 245598 235682 224522 213556 218054 220072
2697.94 221798 220976 212050 210830 207870 201526
2700.83 198456 196034 192502 198494 205558 203744
2703.73 201626 199984 201402 208372 210428 207134
2706.62 200592 196632 198004 211578 224666 223520
2709.51 214576 212038 212600 205744 200514 207486
2712.41 206880 202196 206034 212726 228452 227834
2715.30 220976 221298 225738 224350 217784 228904
2718.19 239366 232686 240526 247990 245898 241614
2721.08 243546 241700 238732 242910 253082 267096
2723.98 264010 262736 265450 276284 273908 266922
2726.87 288082 304720 316640 325182 332100 325442
2729.76 321540 331086 347634 362042 377324 390630
2732.65 406878 430264 459230 475114 489272 508152
2735.55 529504 553724 583132 615338 651586 680586
2738.44 700678 737264 782342 811942 846056 882476
2741.33 924454 977552 1036484 1074258 1121160 1168934
2744.23 1218304 1273846 1328460 1381374 1426358 1467840
2747.12 1508278 1545674 1576248 1603508 1628152 1655836
2750.01 1683522 1694316 1697998 1697758 1690732 1677144
2752.90 1658100 1647494 1631472 1609710 1594382 1564708
2755.80 1536628 1517108 1502926 1503234 1512512 1534070
2758.69 1557866 1588536 1616390 1662376 1721838 1762722
2761.58 1787578 1818600 1847388 1852492 1840944 1829096
2764.47 1799190 1747414 1685390 1620090 1556150 1497012
2767.37 1439318 1363848 1280314 1209434 1142748 1084460
2770.26 1041738 988252 941328 906850 858566 807138
2773.15 769812 744200 712380 675906 652898 634020
2776.05 617550 610318 599354 588410 586148 578088
2778.94 568326 579982 586072 587358 593666 604148
2781.83 600374 598080 606672 620404 625590 641806
2784.72 666028 680462 682662 685262 708598 736928
2787.62 740126 739188 740814 735426 726446 732152
2790.51 746310 739064 726584 731144 748600 756652
2793.40 758742 773758 798750 814128 820794 817974
2796.29 820914 838708 853774 861120 873498 882362
2799.19 879748 879030 889130 891090 880894 871546
2802.08 871556 860900 834810 807588 779766 735224
2804.97 702268 677288 655142 622980 584168 549016
2807.87 522692 496358 465340 430662 403006 405388
2810.76 406540 401058 403562 399900 389442 375510
2813.65 375186 382612 383684 377592 376582 381414
2816.54 383154 376030 379996 386382 388554 402834
2819.44 390950 381272 380806 369236 361376 353468
2822.33 364118 377184 380184 378444 384618 378108
2825.22 382738 385100 381916 396276 401106 405028
2828.11 404192 405872 415912 425020 424812 421626
2831.01 424394 433766 440616 450478 455110 450418
2833.90 438112 450676 465880 467150 472058 490926
2836.79 508616 513632 524654 538148 544160 563256
2839.69 563406 571418 600630 626658 638394 661924
2842.58 701494 721154 729242 751962 776800 793318
2845.47 825366 871308 906042 925146 953758 983564
2848.36 1007710 1024772 1059736 1080882 1090468 1116746
2851.26 1142242 1158396 1181494 1201992 1219540 1222554
2854.15 1222476 1223920 1237322 1245460 1255026 1285304
2857.04 1290496 1278200 1281860 1291784 1297110 1289590
2859.93 1288180 1303192 1317698 1318104 1317688 1336664
2862.83 1345098 1336610 1334120 1329004 1316714 1312646
2865.72 1304396 1300364 1298300 1293780 1279346 1254690
2868.61 1222546 1191650 1181690 1172912 1143556 1104106
2871.51 1082296 1075372 1064088 1034952 998482 966702
2874.40 951300 926338 887996 868532 859894 852998
2877.29 843442 821854 795678 780098 773324 762540
2880.18 742596 724786 717500 723450 720152 714670
2883.08 709702 699144 684448 668296 663840 658106
2885.97 651440 635592 625892 635344 630708 613812
2888.86 618748 626832 630864 633560 631150 629666
2891.75 616270 607552 606852 610858 608888 617460
2894.65 628206 624358 622792 618038 631314 635864
2897.54 637196 627434 606462 626442 645814 642706
2900.43 643864 651338 639006 627664 633798 639698
2903.32 632026 638860 655264 656684 656296 642434
2906.22 645904 670722 659878 644260 655680 658082
2909.11 664216 671386 692498 701608 680802 696666
2912.00 727452 725136 710458 710916 714752 726244
2914.90 732862 737750 740894 755606 776140 774442
2917.79 767904 781966 804242 805810 819410 836118
2920.68 854924 883906 904310 926236 934884 966728
2923.57 1005630 1031402 1049872 1074454 1099708 1125954
2926.47 1160190 1200608 1234188 1273178 1323856 1365088
2929.36 1426558 1478140 1519484 1582706 1645016 1709746
2932.25 1790956 1867366 1925508 1993480 2061754 2147536
2935.14 2252740 2337316 2441650 2566436 2679724 2809238
2938.04 2954972 3082822 3215502 3377250 3528412 3687344
2940.93 3856196 4025332 4206656 4394322 4578308 4731590
2943.82 4882322 5036638 5176002 5300646 5406758 5495932
2946.72 5559554 5631032 5668296 5672078 5688292 5690892
2949.61 5692780 5719246 5740118 5760764 5798194 5869006
2952.50 5921004 5954742 5994272 6040836 6112454 6202308
2955.39 6287086 6403942 6514244 6608426 6704526 6812592
2958.29 6893896 6924692 6944320 6963782 6957980 6901456
2961.18 6810970 6770314 6753200 6659142 6539684 6430446
2964.07 6309920 6190118 6069108 5944148 5835396 5733820
2966.96 5625966 5527722 5450930 5394792 5314712 5240114
2969.86 5181034 5137680 5091884 5051434 5023996 5002984
2972.75 4966324 4949588 4950092 4937310 4929038 4904598
2975.64 4887632 4880574 4887494 4896532 4898452 4917972
2978.54 4941754 4946360 4945188 4961704 4976790 4989436
2981.43 5026494 5046626 5072554 5101540 5110438 5146294
2984.32 5200522 5234154 5274210 5321746 5354166 5396480
2987.21 5439772 5494712 5553938 5580042 5604478 5659664
2990.11 5740930 5840082 5945378 6093214 6270156 6447866
2993.00 6680052 6940404 7025638 6935472 6808636 6741628
2995.89 6713898 6682212 6643904 6608958 6559254 6522460
2998.78 6494170 6467892 6479926 6498844 6481676 6460932
3001.68 6453008 6418920 6386110 6340816 6300488 6276146
3004.57 6249140 6218216 6208064 6235278 6253632 6249562
3007.46 6235624 6225266 6200382 6168740 6163178 6155694
3010.36 6166476 6206372 6241600 6268696 6307028 6342304
3013.25 6359610 6364844 6382084 6397758 6401598 6404152
3016.14 6421480 6467060 6531768 6601806 6667354 6740112
3019.03 6814870 6914136 7026858 7136416 7250312 7367662
3021.93 7505358 7644266 7764374 7892572 8031064 8169856
3024.82 8307842 8432944 8544026 8663390 8785518 8889422
3027.71 8978110 9064090 9143648 9234500 9284570 9327600
3030.60 9385342 9420118 9466230 9536030 9589186 9651214
3033.50 9733292 9882758 10050070 10128890 10112030 10068350
3036.39 10046530 10059770 10088380 10139800 10221240 10309050
3039.28 10374390 10435040 10492170 10550570 10604050 10661830
3042.18 10705430 10722690 10745180 10780250 10808700 10832550
3045.07 10886870 10959840 11027260 11089420 11179120 11286450
3047.96 11391480 11494230 11595500 11684760 11769080 11841960
3050.85 11908410 11984850 12042180 12100870 12172200 12200090
3053.75 12206980 12207150 12200280 12184670 12166290 12176390
3056.64 12203870 12250840 12308340 12380240 12466760 12543110
3059.53 12586440 12588940 12568450 12549330 12534810 12519530
3062.42 12562930 12643030 12707030 12738980 12779550 12857340
3065.32 12925260 12924260 12890160 12831080 12730190 12600480
3068.21 12453990 12277950 12086970 11876980 11666630 11458430
3071.10 11211000 10970020 10750220 10557570 10377240 10203450
3074.00 10039990 9894492 9775252 9684672 9581434 9485844
3076.89 9411552 9335922 9282462 9277290 9273892 9281740
3079.78 9294184 9305772 9364652 9452524 9562050 9697254
3082.67 9852416 10058180 10279460 10540980 10846660 11189920
3085.57 11583050 12031760 12537280 13094370 13726860 14452970
3088.46 15226720 16039740 16924110 17850840 18810550 19784010
3091.35 20747150 21683600 22612440 23491810 24303500 24971610
3094.24 25491940 25899960 26129460 26136940 25965600 25639390
3097.14 25133110 24472910 23827720 23295860 22938090 22868020
3100.03 23141870 23814020 24844750 26007850 26837530 26735550
3102.92 25230340 22794390 20988320 20598410 21204310 22262500
3105.82 23435990 24531950 25446660 26105590 26449040 26467350
3108.71 26159930 25571310 24725670 23654980 22451220 21154680
3111.60 19768440 18407460 17090440 15801920 14624300 13560840
3114.49 12626990 11833440 11177400 10679440 10307570 10057600
3117.39 9951710 9972882 10090490 10310720 10621040 10985560
3120.28 11373040 11785700 12235760 12706250 13159430 13590570
3123.17 13943370 14216570 14421630 14504900 14462310 14336580
3126.06 14112140 13772220 13323650 12852500 12431700 12080950
3128.96 11875530 11926740 12263260 12708140 12842930 12483340
3131.85 11921320 11517950 11320650 11331160 11573490 12000590
3134.74 12515490 13025450 13482320 13864540 14140940 14300030
3137.64 14314460 14186730 13950000 13584080 13093930 12530000
3140.53 11936260 11296010 10618850 9936580 9272092 8632946
3143.42 8009782 7440716 6908880 6393880 5917760 5485252
3146.31 5097056 4752726 4447876 4171258 3929004 3701964
3149.21 3498360 3316320 3163100 3022704 2865038 2727206
3152.10 2599940 2476322 2369852 2281374 2173346 2080656
3154.99 2014150 1933028 1855744 1802158 1744526 1657826
3157.88 1598856 1542034 1483170 1436014 1383480 1323088
3160.78 1293904 1273320 1242458 1201844 1161346 1122920
3163.67 1100500 1078416 1041858 1008072 981558 958200
3166.56 941006 919604 910600 887034 847150 829618
3169.46 808984 784638 758196 739446 738034 726356
3172.35 699844 686890 686858 676634 672986 658246
3175.24 656846 674670 668820 650148 635852 627300
3178.13 628344 631214 611966 589046 589298 594790
3181.03 576794 567608 575024 579788 567852 572814
3183.92 582218 571588 563162 556860 546444 548640
3186.81 547492 526620 534184 550438 546274 531748
3189.70 525434 532222 545370 549576 561198 558210
3192.60 558634 561014 573998 572052 556714 571524
3195.49 579456 573554 567136 562930 550320 535604
3198.38 513890 501418 508806 505968 499484 498982
3201.27 485336 461498 463604 471326 453154 428106
3204.17 418864 412490 404700 413444 421732 410604
3207.06 401024 400626 399924 393334 376134 363166
3209.95 359166 342408 342880 345236 339080 326372
3212.85 325066 306240 289470 293710 308368 315518
3215.74 309922 293850 288322 307326 295938 267314
3218.63 259500 257694 256030 246716 232514 229952
3221.52 226544 221136 221220 207930 199498 201792
3224.42 194602 181174 170486 166270 160678 157444
3227.31 153054 156800 161500 137546 122178 124700
3230.20 133770 113782 94434 97290 108886 122822
3233.09 103386 98488 99680 93358 88704 67500
3235.99 49048 71522 77804 77026 72256 60520
3238.88 41414 29516 26956 34222 43600 28898
3241.77 20244 27642 32938 15846 172 6144
3244.67 19442 32220 30396 24462 8632-3400
3247.56-7598-5340-562 5864-2458-22486
3250.45-12602 9820 4102 3382 9678 9702
3253.34 3140 10822 25914 34956 18408 7570
3256.24 20694 15876 11380 6112 2086-17030
3259.13-16630 5566 3686-8336-15912-7148
3262.02 4190-338-7598-7534-4762-4794
3264.91-8226-16740-24920-30554-13570-5416
3267.81-11672-31634-46818-33896-17614-20778
3270.70-21110-29514-43032-42242-47328-42182
3273.59-39038-51632-43220-13352-13272-51894
3276.49-74298-79264-88278-90590-80148-71994
3279.38-80834-81586-68754-56058-45518-48246
3282.27-56808-46390-43884-42416-36074-22924
3285.16-15314-17058-32202-37852-10854 2054
3288.06 17196 27742 8462-4114-17942 4326
3290.95 36594 40310 32104 29150 32570 36846
3293.84 32086 34564 26134 22500 25134 29510
3296.73 35070 40432 45566 42420 38388 29390
3299.63 26296 40902 37088 24206 25848 34244
3302.52 31696 38580 43626 32176-2646-14592
3305.41-1116-15786-49718-71794-81150-86776
3308.31-108926-136062-149402-161724-155934-155112
3311.20-158478-163310-192066-196262-199410-228474
3314.09-245044-234758-227954-250612-267188-277134
3316.98-298158-319790-300960-277658-264686-250500
3319.88-255204-249178-253052-253392-265084-283416
3322.77-287808-261374-243260-240302-236400-244338
3325.66-255838-254546-238636-223858-193704-192674
3328.55-210876-198964-178846-151420-136628-127868
3331.45-119182-129488-130084-115118-100642-89226
3334.34-89616-90358-93058-70870-55970-53516
3337.23-57662-57850-49282-32766-30280-20776
3340.13 160-4844-22098-3628 1178-12702
3343.02-9974 626 10208 8542 16708 27728
3345.91 22808 33330 37732 13148 6860 24160
3348.80 26818 12906 1480 10476 16800 4932
3351.70-10202-31260-47558-44486-32100-29056
3354.59-56242-46032-16006-27326-55056-74446
3357.48-76156-64172-65926-79670-75026-75482
3360.37-82830-79868-79506-78416-61766-60470
3363.27-82102-101032-114016-103142-91400-84802
3366.16-81108-83470-72194-79856-96270-86952
3369.05-70442-62776-79004-77512-57950-61358
3371.95-83742-86490-93988-71860-64762-66634
3374.84-74818-70376-49994-50760-52914-36482
3377.73-25586-30646-30736-13936-17692-12762
3380.62-10020-32648-42286-39738-42502-44968
3383.52-13634-1846-11902-21020-7926-11938
3386.41-20758-10072-10840-12796 904-21028
3389.30-35938-33422-12018 6500 21798 1006
3392.19-30994-4056 16558 4792 7796-5888
3395.09-20086-34666-53846-52238-40986-30972
3397.98-25728-28928-47438-59914-51622-63034
3400.87-79938-63348-50490-37666-51006-87478
3403.77-78508-66052-93474-117066-102340-101194
3406.66-102040-79024-88158-78104-72508-98738
3409.55-93948-84430-80766-75358-95158-94702
3412.44-72962-63482-83488-91708-63626-47884
3415.34-47904-54194-62688-49038-51070-76248
3418.23-72716-32886-1090-22888-58282-73262
3421.12-70788-68360-47030-46428-36412-28588
3424.01-36944-26620-33414-39112-28282-38376
3426.91-23496 4138-3558-25216-19874-20390
3429.80-21700-27500-33220-13488-9628-17462
3432.69-558-5892-29708-18416-4822-14884
3435.59-10948-11000-13356-16086-1364-10144
3438.48-35764-38264 1122 3344-4090-10926
3441.37-29090-17554-6450-5298 5994 20320
3444.26 40792 34398 31446 50002 48746 29716
3447.16 35006 34710 37398 39876 25604 15154
3450.05 31250 59412 71526 78642 88362 100472
3452.94 103872 103198 101256 103148 123826 127454
3455.83 137018 134588 132958 129538 121038 106446
3458.73 100642 113690 119602 121042 90408 72782
3461.62 87494 98082 90420 79036 75510 88570
3464.51 110568 110010 94326 85646 80816 88730
3467.40 105260 104500 109254 110280 101968 89788
3470.30 94740 112408 97832 84118 114950 134642
3473.19 103738 54710 25102 21240 32580 32510
3476.08 25134 29156 19968-8340-33250 5464
3478.98 18176-10550-28950-32892-26132-31860
3481.87-42768-38886-17252-7754-30376-69496
3484.76-94264-89084-72418-71188-66938-70280
3487.65-77182-93474-91996-80760-92846-102504
3490.55-80380-81976-93960-89240-66004-64714
3493.44-65760-70944-85204-79672-67074-83938
3496.33-88078-73692-66520-54906-44262-37122
3499.22-31474-31052-27654-33316-33342-14104
3502.12-6294-13414-18714-25880-26278-17810
3505.01-212 29890 63582 68698 65800 79858
3507.90 110632 115764 113694 159466 187332 200302
3510.80 222620 226926 252056 313456 333500 333480
3513.69 364530 412974 438354 481912 525844 544694
3516.58 594016 631996 659590 716426 787624 873148
3519.47 921990 973656 1033698 1101878 1175450 1242588
3522.37 1308942 1384878 1481678 1599926 1707148 1783008
3525.26 1878836 2019816 2128312 2235594 2390272 2562412
3528.15 2706866 2848446 3027750 3221346 3420720 3603300
3531.04 3785722 3997694 4224186 4465714 4711164 4970138
3533.94 5224990 5492076 5747590 6017302 6285846 6563264
3536.83 6856754 7113300 7335714 7578156 7802454 7983490
3539.72 8142314 8284566 8401360 8470512 8510930 8513786
3542.62 8481806 8401132 8291684 8187038 8076738 7940162
3545.51 7790968 7650654 7524782 7462892 7423694 7365662
3548.40 7330044 7343446 7418876 7589776 7822812 8109532
3551.29 8421806 8757558 9086846 9341898 9516540 9634174
3554.19 9671878 9574574 9371210 9105518 8783142 8423396
3557.08 8023562 7599942 7198936 6810804 6388212 5946216
3559.97 5545632 5192986 4868458 4551548 4234790 3946106
3562.86 3684256 3477300 3295234 3091108 2869180 2650552
3565.76 2468684 2313164 2196438 2036040 1871554 1803768
3568.65 1723174 1599546 1468610 1342550 1235628 1133768
3571.54 1015030 921316 849906 777750 705052 633198
3574.44 539194 459590 414808 359186 282388 231260
3577.33 203120 174396 146936 104298 52782 22766
3580.22 11446-5960-6312-9296-36524-59528
3583.11-63070-56450-72870-91882-102816-149306
3586.01-232160-223640-178028-178284-223860-237544
3588.90-172736-161780-164968-172452-181036-174402
3591.79-179672-207754-217922-207690-194718-212466
3594.68-254028-239054-210572-207408-219188-235286
3597.58-237630-233564-230164-246472-260792-273210
3600.47-284588-273326-260688-274894-284128-305340
3603.36-301158-287388-289484-286412-289810-330098
3606.26-365826-378836-337962-312628-374984-494324
3609.15-414938-306984-311028-335742-337634-364296
3612.04-416108-365584-313044-320314-364914-382856
3614.93-357572-334226-333404-327458-366680-400562
3617.83-349670-339648-441288-483094-366488-306644
3620.72-305766-317542-320316-314864-302106-294740
3623.61-287108-305008-289180-271088-283458-293696
3626.50-281556-284196-407260-510292-446070-539106
3629.40-493480-299248-250940-242282-244510-252790
3632.29-254326-252202-272114-262708-250318-260872
3635.18-246408-229500-231954-239892-258566-263382
3638.08-265186-244592-218742-205738-205766-201808
3640.97-206960-216452-225484-228896-233616-217170
3643.86-215468-208550-207104-226280-258864-277696
3646.75-320890-297626-243518-353348-541368-439764
3649.65-287594-319286-340416-308290-244174-229846
3652.54-229494-238910-229982-224960-239212-258820
3655.43-345208-401590-295152-225278-200716-202072
3658.32-196026-202282-224362-224978-217938-220432
3661.22-221550-215352-197286-203230-205352-183492
3664.11-183644-195996-205684-203240-208154-212204
3667.00-212582-234292-318068-353252-287506-277906
3669.90-448320-560916-337026-222258-226806-240524
3672.79-221006-230214-274046-398870-429922-497014
3675.68-534180-317646-240752-252092-240014-229490
3678.57-267636-296574-247980-233508-227716-216394
3681.47-216388-233406-240894-240218-241104-265990
3684.36-258668-246114-246200-239218-230876-264286
3687.25-349518-621162-630380-357646-279666-277562
3690.14-317678-392860-367164-266522-270248-275578
3693.04-258420-246816-263468-269348-265574-255494
3695.93-275500-274188-253882-258024-266460-255610
3698.82-257620-258568-257048-260410-294812-352372
3701.72-306200-248498-254516-262820-271316-274922
3704.61-264112-259658-272212-261654-242806-240428
3707.50-256856-269532-341864-400032-323080-265860
3710.39-269376-302760-452244-508570-324094-228924
3713.29-234006-234362-241670-244338-238456-235500
3716.18-239998-252554-264156-258724-254770-257556
3719.07-241638-235006-228806-227748-262792-326552
3721.96-315150-253362-236286-232254-231684-248828
3724.86-244874-243876-306618-326462-265420-246988
3727.75-243846-237306-220364-217368-223412-226492
3730.64-228710-321242-480514-397654-260152-251408
3733.54-277924-340322-369068-329128-300412-422592
3736.43-454490-295812-250876-286268-268818-244876
3739.32-246436-245276-253892-278406-256696-253208
3742.21-258320-285656-407382-678340-884656-618676
3745.11-316604-258138-243684-242662-261592-278540
3748.00-301240-508912-710748-487384-288876-272840
3750.89-313864-578180-726618-423984-261692-268714
3753.78-262514-253062-260424-251896-283570-303218
3756.68-272366-249054-242296-253836-272656-322312
3759.57-336194-265264-241550-236266-231344-226874
3762.46-223398-229730-240256-258022-260658-269302
3765.35-308492-248206-206996-225410-231576-221802
3768.25-237050-266970-352624-341144-256198-242970
3771.14-239210-223852-219848-215248-212980-226492
3774.03-239140-226834-221968-225994-239296-246734
3776.93-232944-209444-206130-239108-319530-316044
3779.82-251412-230940-231602-225158-222024-237228
3782.71-247614-252916-258614-262740-268242-254168
3785.60-226778-242146-235814-227588-228088-216528
3788.50-228506-235562-248798-252062-219680-208760
3791.39-212824-214654-215890-217362-215464-229308
3794.28-239928-248128-246974-289460-281906-240560
3797.17-237228-241054-238924-237440-243560-261616
3800.07-302612-507956-644018-393192-262404-273324
3802.96-248088-204442-195764-200626-187532-199256
3805.85-282326-498126-481250-279510-232192-215514
3808.75-209986-199024-216260-210696-197684-205122
3811.64-200702-178382-189730-199866-222562-230772
3814.53-205030-325026-609840-477244-223450-189376
3817.42-191026-204496-205554-203270-212002-286632
3820.32-351764-349982-386686-287394-202882-195280
3823.21-179286-174522-172330-171886-180420-193368
3826.10-234828-226950-174162-171194-173636-166986
3828.99-159232-166314-167346-188040-270422-297764
3831.89-202256-171594-160246-169100-200416-287138
3834.78-255680-165672-147714-179724-285048-557824
3837.67-518166-228804-156352-156922-183476-203884
3840.57-239130-188682-135176-130734-163784-216974
3843.46-223316-169678-152222-135760-126952-130146
3846.35-141246-149142-152034-140140-131078-129544
3849.24-136250-141234-153134-179026-384140-535438
3852.14-305236-189578-410332-765662-668574-301976
3855.03-158834-132058-133072-158536-163824-118446
3857.92-122968-128908-119000-134812-140932-114278
3860.81-157080-214292-177010-146134-135390-120932
3863.71-146406-239982-309084-179536-101396-104998
3866.60-123140-113250-110556-118318-185778-267674
3869.49-389074-322170-148848-113428-104648-91978
3872.39-99316-117678-145818-178148-142950-86040
3875.28-75602-88780-105846-111422-94850-76182
3878.17-63358-76882-121970-185480-149158-93736
3881.06-78194-78730-77706-75546-57472-54324
3883.96-75332-93974-218078-268738-140896-73792
3886.85-58632-41352-26930-21016-34564-34462
3889.74-31360-76082-179576-141898-39440-20272
3892.63-11252-15762-32320-16040-5110-23204
3895.53-5742 11828-18600-18486-23834-41210
3898.42-100012-169354-79420 2012 13124-46078
3901.31-135180-84416-9552-9406-66290-146304
3904.21-71940-3308-23228-29774 12996 54598
3907.10 71524 60114 47876 37374 40164 29986
3909.99 27936 54126 62378 41722 39396 40104
3912.88 57702 79078 63010 50420 62262 56264
3915.78 53058 42974-8816 12142 48772 61672
3918.67 86596 75704 58890 71750 70936 73862
3921.56 78148 77206 67806 62802 62886 54476
3924.45 50006 62368 62846 62392 80590 72250
3927.35 53560 65908 77948 59616 64158 57148
3930.24 56604 76228 72228 45198 34894 68230
3933.13 77606 75928 77358 59546 73230 91528
3936.03 99754 105982 100598 90110 90302 82374
3938.92 80628 91750 83974 63586 88086 114718
3941.81 66228 34446 45010 80200 102768 108646
3944.70 104408 111076 112646 118824 102474 98060
3947.60 110194 127484 133232 110922 94732 114408
3950.49 140382 154676 158016 152978 146522 172144
3953.38 194442 199652 194858 184902 198608 236502
3956.27 252414 242526 236100 235874 235592 247034
3959.17 258108 255530 257386 274894 283246 301368
3962.06 327288 343390 367280 380088 381738 398016
3964.95 401102 413144 450832 481278 504750 505032
3967.85 504054 504754 523476 546512 556280 558136
3970.74 564546 565802 567390 581462 593650 602120
3973.63 603562 625524 634282
##END=
