##TITLE=Toluene
##JCAMP-DX=4.24
##DATA TYPE=INFRARED SPECTRUM
##CLASS=IUPAC A
##ORIGIN=NIST, Anayltical Chemistry Division, 301-975-3108
##OWNER=COPYRIGHT (C) 1998 by the U.S. Secretary of Commerce
##DATE=98/10/1
##$SPECTRA VERSION=1.00
##$UNCERTAINTY IN Y=2.4 % relative (B=1.4E-04,C=2.2E-09,D=2.7E-14)
##CAS NAME=Toluene
##CAS REGISTRY NO=108-88-3
##MOLFORM=C H3 C6 H5
##MP=-95 C
##BP=110.6 C
##$NIST SOURCE=QUANT-IR
##SPECTROMETER/DATA SYSTEM=IFS66V (Bruker)
##INSTRUMENT PARAMETERS=KBr Beam splitter; MCT Detector; Multipass cell
##STATE=gas
##SAMPLE DESCRIPTION=Toluene Primary Gas Standard
##PRESSURE=101.3 kPa
##TEMPERATURE=23 C
##SAMPLING PROCEDURE=1 L/min Flow
##RESOLUTION=1.9290
##DATA PROCESSING=Happ Genzel Apodization
##XUNITS=cm-1
##YUNITS=(micromol/mol)-1m-1 (base 10)
##XFACTOR=1.0
##YFACTOR=4.5474E-13
##DELTAX=0.9645
##FIRSTX=574.687
##LASTX=3974.595
##FIRSTY=9.18E-08
##MAXX=3973.63
##MINX=574.69
##MAXY=.0006647
##MINY=-3.41E-07
##NPOINTS=3527
##XYDATA=(X++(Y..Y))
574.69 202008 579494 459052 36902-447624-193840
579.51-259004-212992-506874-751084-647498-253784
585.29-293848-538090-188924 448462 462942 99232
591.08-231036-36632 57704-52684-80416 303494
596.86 350076 164948 109752 40696-215314 1372
602.65 301470 382234 203718 284312 311926 397924
608.44 569768 772246 486770 432686 394128 494104
614.22 640432 777616 792850 919690 597842 594544
620.01 562976 553080 348816 499906 424654 728894
625.79 1470248 2111404 2420626 2739836 2752092 2804672
631.58 2247090 1783960 1691848 1788054 1694684 1914108
637.36 1728608 1630272 1533550 1590486 1499720 1747186
643.15 1577830 1533414 1654408 1873946 1499212 1432702
648.93 1388128 1607780 1436122 1723296 1863788 2337662
654.72 2573734 2992162 3291840 4121974 4585494 5669394
660.50 6754526 8279998 9379594 11447180 13523930 16597480
666.29 19725070 23798570 27679560 33175270 39903210 48046040
672.08 55926940 64698020 72551080 82702690 92840920 105421600
677.86 120054200 141625100 157445800 156875800 151998000 152032700
683.65 152542200 156261700 157455800 161091400 165174600 178438600
689.43 179073900 183346900 256048700 614519200 850959100 417176700
695.22 158773400 162121500 175319400 179174200 188802600 200360900
701.00 226937800 239864200 232612900 232990900 244873300 253989200
706.79 268237400 281262000 296992700 311119700 328211800 342390100
712.57 357764300 369387600 382773300 393431100 405058700 408548200
718.36 411225100 409623300 413118400 423682500 465431300 555966700
724.14 687361800 769684900 897610300 1244224000 1461819000 1112057000
729.93 680832400 525892700 451652300 427078300 419994800 419350400
735.71 414759500 411618900 402560700 393024600 377650700 361104900
741.50 339211600 314844800 285873600 257258700 226757700 197850800
747.29 169093300 143326500 118703800 98016280 79552220 64895380
753.07 52080810 41304360 30912570 24073300 18433510 14656580
758.86 11267430 9340082 7403466 6456474 5150764 4772912
764.64 4008860 3954356 3436152 3563286 3456474 3751936
770.43 3508252 3988258 3963878 4415442 4532676 4899696
776.21 4850586 5167322 5056228 5023024 4365258 4172038
782.00 3638782 3812930 5301666 6459220 4037950 2719596
787.78 2779472 3319034 3597280 4038610 4068936 3899798
793.57 3436680 3375298 2774468 2385564 1957306 1824506
799.35 1424062 1231902 1079534 1168476 1086686 1102488
805.14 898748 1029980 970664 978058 850864 1062760
810.93 1098726 1132760 864118 810920 763138 816692
816.71 718994 772000 612396 804618 824958 954720
822.50 739612 755400 900876 1110934 923482 926664
828.28 833842 777954 689374 747260 713850 885964
834.07 927338 945750 731574 735614 776410 965994
839.85 794142 801572 827390 919050 859304 989758
845.64 994364 1154338 1264148 1495612 1440096 1538640
851.42 1574102 1580092 1542752 1763350 1838594 2007324
857.21 2024024 2195308 2243026 2377900 2254650 2247574
862.99 2323696 2527226 2487574 2636786 2776204 3008624
868.78 2982060 3210036 3395180 3887348 4575082 4642598
874.57 4159388 4336908 4594836 4933684 5091416 5420990
880.35 5579730 5834034 6013296 6308644 6370614 6527790
886.14 6612268 6954558 7055406 7384204 8033974 9942610
891.92 13944090 21012680 20979830 12069030 7796936 7607780
897.71 7612794 7246192 6985760 6957372 7083974 7109588
903.49 7092424 7259748 7303926 7131872 6828958 6662946
909.28 6461652 6310104 6193362 6253908 6355290 6611602
915.06 6700906 6756446 6875238 6927802 6877678 6972708
920.85 7142544 7945134 9225072 9422578 8391814 8073546
926.63 8377644 8835804 9026870 9034094 8973754 9060486
932.42 9012826 8609336 7743682 7200978 6901058 6655372
938.21 6451948 6347736 6178178 5978438 5615060 5248642
943.99 4953450 4750606 4442832 4253284 4071518 3985822
949.78 3897196 3977578 3984312 4105526 4300874 4468698
955.56 4512502 4630458 4846246 5124964 5212616 5292892
961.35 5490746 5768880 5769620 5826592 5977874 6050404
967.13 6331846 7207992 7842776 7453208 7317228 7310808
972.92 6894278 6727202 6714624 6647704 6679104 6731364
978.70 6789574 6807152 6377102 5920408 5569556 5364828
984.49 5266876 5197162 5100976 5025908 4973890 4874064
990.27 4648736 4494382 4480312 4551514 4522570 4425720
996.06 4306430 4192390 4073304 3964814 4004112 4090278
1001.85 4108270 4088150 3963756 3867110 4135522 4449532
1007.63 4621290 4707742 5020418 5494780 6145558 6902858
1013.42 8208692 9945668 12398210 15460350 19460790 24244010
1019.20 30002120 36180830 42693410 48661150 53024400 54697150
1024.99 54187440 49840300 44574930 40432840 42949540 61335440
1030.77 86940410 66314920 37727420 38095340 45686670 53409560
1036.56 58245150 60374670 59115610 56328220 52871840 51199310
1042.34 50465920 48164590 42168500 37510880 34687320 30940710
1048.13 27401310 26334300 25848430 26717810 26721330 27571790
1053.91 29476710 30483010 29213520 28184140 28102020 28684900
1059.70 28990510 29554320 29979280 30737830 31593390 32910320
1065.48 34305740 36156500 38133040 40480230 42867870 45675760
1071.27 48496310 51736150 54639940 56598010 58025560 59375250
1077.06 56968640 51307820 43650340 37465360 35529100 38398700
1082.84 43451450 48467000 51787270 53510820 53460600 52260750
1088.63 50382990 48297660 45920020 43586820 41065600 39002340
1094.41 37287860 36035680 34639340 33180310 30862020 27948650
1100.20 24514880 20936390 18032700 17080630 17495730 18822130
1105.98 20002730 20710380 20697140 20292170 19523990 18828290
1111.77 17661570 16251780 14807180 13613470 12373250 11282310
1117.55 10094290 9182692 8371920 7766132 7113606 6562650
1123.34 5898678 5502808 5102408 4798060 4461066 4409452
1129.12 4346494 4313802 4114358 3998576 3832188 3844746
1134.91 3702636 3724990 3661500 3608820 3414034 3356176
1140.70 3266118 3404300 3403780 3484214 3505302 3655346
1146.48 3688372 3859238 3879530 4026828 4057940 4185376
1152.27 4196454 4231268 4229808 4482434 4695962 4938462
1158.05 4971412 5095894 5096820 5166384 5139962 5195270
1163.84 5295182 5573418 5458770 5388746 5568186 6073100
1169.62 6372156 6579828 6477558 6354522 5982366 5685540
1175.41 5431072 5638166 6053894 6322286 5608946 5153608
1181.19 5085302 5382026 5662978 5959438 6013364 6012114
1186.98 5730214 5467300 5073612 4867860 4876360 5365458
1192.76 5338356 5020186 5004912 5456264 6097138 6930542
1198.55 7693670 8561508 9156056 9721878 10018120 10240760
1204.34 10150570 9972276 9548824 9337030 9395772 10101810
1210.12 11091280 12466090 12245240 9842358 8920802 9841906
1215.91 10794530 11468380 11517940 11105440 10183720 9119550
1221.69 7967100 6975916 6064154 5403180 4940528 4784542
1227.48 4663486 4800484 5049166 5545552 5845888 6103362
1233.26 6207628 6319532 6228736 6215888 6000276 6036872
1239.05 6413762 7461604 7660342 6599320 6178612 6390930
1244.83 6709606 7321314 7319912 6940030 6504806 6127966
1250.62 5602284 5131696 4627614 4232456 3818514 3546572
1256.40 3350954 3270092 3020300 2796930 2539992 2471536
1262.19 2364558 2284410 2079770 2066538 1952208 1839390
1267.98 1691952 1719262 1679038 1773766 1732964 1711192
1273.76 1662884 1761022 1770330 1879990 1866654 1908960
1279.55 1916336 2030762 2054032 2198046 2339698 2523350
1285.33 2559948 2727856 2797164 2966678 3072274 3218324
1291.12 3215428 3342016 3376848 3452114 3511040 3777642
1296.90 4068238 4467692 4815310 5252696 5556514 5830056
1302.69 5924776 6065400 5965342 5778370 5317718 4922700
1308.47 4579998 4544260 4724040 5218462 5657784 6027204
1314.26 6110452 6173234 6073902 5921820 5668068 5524028
1320.04 5266948 5097812 4937620 4983880 4857922 4718270
1325.83 4378474 4221540 4128894 4102704 3977634 4083124
1331.61 4208146 4332454 4217562 4135528 4101534 4254554
1337.40 4305072 4428466 4514424 4721554 4812060 5014768
1343.19 5117028 5271462 5386728 5683012 5938660 6261520
1348.97 6453928 6745812 6958736 7270350 7577650 8157456
1354.76 8798222 8994172 8659698 8844066 9226620 9698728
1360.54 10182500 10853880 11360640 11917090 12466160 13322560
1366.33 14309850 15503380 16482590 17692640 19013580 20422250
1372.11 21819440 23263720 24543000 25999300 27220140 28006050
1377.90 28177980 28647340 29718900 32207320 38029190 43461130
1383.68 39532970 34843830 34890230 37058400 39182200 40199390
1389.47 39839190 38249740 35538440 32390870 29251550 26667960
1395.25 24334180 22137190 20241980 19065060 18218430 17707950
1401.04 17410130 17792670 18178850 18435800 19120440 20406030
1406.83 19530430 17859300 17459420 17743920 18353920 19183130
1412.61 19912520 20643390 21485840 23111430 24648280 25643650
1418.40 27085740 29800670 31633300 29970660 26536990 24338020
1424.18 23408760 22743980 22634970 23196240 24130740 25311220
1429.97 26433460 27581350 28772710 29690760 30194170 30870680
1435.75 32235690 34946020 38199740 41829940 45950870 48289300
1441.54 49271300 51755700 54865960 58171660 61344420 64596660
1447.32 68094880 71355100 73021580 73516850 72506490 70836080
1453.11 69811520 70659830 71457290 72539160 74633520 75644140
1458.89 76758330 78980660 80853320 83956540 82612850 75235210
1464.68 70329870 68915630 69329650 71171060 74789780 78648670
1470.47 79776880 78509190 75494340 72206890 69710570 67763380
1476.25 66875390 65399500 63555220 63674480 66239080 71553790
1482.04 79203460 89198650 103525900 120450100 134929200 149980500
1487.82 166914800 184432200 200833300 213435300 217718700 214944500
1493.61 206669700 198588700 200708300 210477200 219007500 253358300
1499.39 276353200 220834100 179827400 188885100 208432000 222180600
1505.18 228553600 225841200 214120300 195093900 171236600 146898600
1510.96 124867600 106309400 91162710 79646790 72196490 67516780
1516.75 63025980 57449720 51201100 46350960 43600160 43725360
1522.53 46604720 50378990 50224960 48398420 46136100 43994110
1528.32 43606260 43733810 43234600 42065370 40902740 41210840
1534.11 41709300 40241880 38621560 35864430 33005990 31819310
1539.89 31195560 30614010 30161760 29341140 27790500 26249270
1545.68 24692210 23382430 22465160 22031380 22131770 22272990
1551.46 21741990 21438440 21644580 22699320 23533070 23862640
1557.25 24017220 24435590 24606970 25024330 24865590 24076860
1563.03 22995750 21517440 20042300 19325830 19304750 20102790
1568.82 21703870 23861030 25503570 26359810 26209460 25688670
1574.60 24673100 24113070 24076900 23616560 22833700 21966850
1580.39 20935410 19987420 19285770 19272900 20190490 22271650
1586.17 23913660 22619410 21919700 24167110 27498570 31518680
1591.96 35892730 41020140 46689090 52923930 59682390 67094630
1597.74 74315150 81180340 86397160 88957580 89974900 90265480
1603.53 91181870 95206380 100718000 104375600 118572300 136282200
1609.32 118351600 101185400 104155600 110020400 113686300 113281300
1615.10 107761700 99287860 91397970 88383550 90523090 79994630
1620.89 65589270 58680680 54466580 51799890 48988380 45797240
1626.67 41857300 37463760 32429890 27420590 22629300 18367000
1632.46 14616890 11481890 8796266 7374384 6441924 5760732
1638.24 5192380 4727786 4377136 4229458 4032820 3949254
1644.03 3717368 3503538 3610834 3702704 3747422 3861816
1649.81 3846548 3400902 2539490 2616436 2983118 3146386
1655.60 3078154 3211598 3471588 3848842 4101498 4253024
1661.38 4163014 4230360 4325930 4340744 4338612 4377100
1667.17 4156732 3829060 3775312 3801484 3648538 3684742
1672.96 3571582 3341852 3492420 3825920 3839584 3929170
1678.74 4035090 4196690 4204442 4050456 3584088 3056818
1684.53 3285442 3707902 3436192 3265982 3126986 3102728
1690.31 3092552 3244342 3362506 3518598 3064400 3076754
1696.10 4104528 4596766 3788426 2736422 2694350 3326594
1701.88 3482870 3447350 3439802 3575634 3628978 3855296
1707.67 3859192 3965994 4084564 4398038 4617428 4818802
1713.45 4888522 5267082 5586962 5721794 6378892 7403010
1719.24 8186878 8957872 9684156 10464440 11154440 11792320
1725.02 12122580 12162760 11833400 11260240 10242180 9235248
1730.81 8272750 7729514 7910652 9374646 11352030 12581280
1736.60 12610690 12101310 11025190 10204410 9486410 8609824
1742.38 7639396 6880210 6097160 5464714 4853364 4373070
1748.17 3877424 3491880 2917966 2810104 2761408 2716844
1753.95 2669110 2636404 2531664 2748118 2971566 3291076
1759.74 3349768 3343608 3566438 4048022 4380992 4788314
1765.52 4965836 5133818 5323824 5786242 5993836 6341534
1771.31 6736322 7468758 7831408 7962472 8115156 8632064
1777.09 9323914 10356860 10954490 11091470 11335710 12123920
1782.88 12906840 13794650 14937540 16579400 17998460 19637380
1788.66 21632270 23776170 25098630 25942210 26376530 26728200
1794.45 26557560 25664400 23221340 22000750 26468320 36580600
1800.24 33870390 21657200 19060490 21383180 23988110 25963380
1806.02 26967600 26792420 25697240 23380630 20449920 17612630
1811.81 15113710 12930460 11070510 9508606 8220316 7296128
1817.59 6886706 7074398 7569544 7965166 8075814 7982104
1823.38 7658918 7354908 7139644 6901054 6587116 6324924
1829.16 6140016 6219608 6340802 6488082 6635950 6835834
1834.95 7114892 7612550 8216982 9012622 9851406 10812570
1840.73 11847780 13070660 14258130 15814680 17654420 19217290
1846.52 20506270 21692080 22540360 22887080 22516230 21466560
1852.30 19859120 18081160 16516730 16339250 18318890 22446320
1858.09 27042570 30337340 31946050 32453180 32035600 31121850
1863.88 29853160 28167600 26252790 24410100 22441850 20852730
1869.66 20749900 22045620 21348700 17345970 14851900 15038640
1875.45 15857120 16500760 16548930 15931340 14655010 12991760
1881.23 11099510 9283742 7653910 6369762 5377606 4688584
1887.02 4107182 3703474 3462856 3409994 3267156 3149388
1892.80 3023088 3003062 2951976 2994858 3006026 2943932
1898.59 2722424 2629840 2609388 2731008 2705730 2524108
1904.37 2372754 2466216 2546190 2635018 2682658 2827622
1910.16 2962520 3147016 3305934 3540606 3766668 4107106
1915.94 4420050 4787296 5283974 5920550 6542374 7305614
1921.73 8128620 9252334 10525560 12014470 13266670 14567780
1927.51 16224110 18201720 20252340 22375920 24264850 25787050
1933.30 26778690 27221040 26997740 26233060 24968980 23417060
1939.09 21832350 21145640 21996050 24970310 29310890 33216630
1944.87 35462780 36412650 36151930 35098520 33587800 31861440
1950.66 29991550 28161510 25869900 23744600 21791720 20274520
1956.44 20660140 21325690 18202930 14487240 13395480 13702420
1962.23 14047730 14110620 13599800 12554910 11072310 9467340
1968.01 7877716 6464240 5211330 4232422 3418314 2852508
1973.80 2457482 2232866 2005262 1897314 1863628 1951704
1979.58 2055624 2306750 2600400 3073256 3151690 2726542
1985.37 2475650 2538630 2571818 2730692 2888976 2973076
1991.15 2929248 2918572 2866728 2966288 2774538 2583206
1996.94 2623392 2770864 2784294 2848814 2837490 2812430
2002.73 2635834 2480536 2297884 2180890 2049858 2003220
2008.51 1947828 2074040 2080252 1904512 1730998 1658706
2014.30 1543868 1541010 1533448 1556326 1491502 1427440
2020.08 1304410 1272722 1253772 1288740 1218320 1146640
2025.87 1001160 929942 862258 833968 748416 741742
2031.65 672874 638764 568710 552160 472862 393404
2037.44 327230 393560 341746 297020 266866 326456
2043.22 280498 249154 230958 276562 221834 208164
2049.01 167362 198022 179674 232554 234660 306218
2054.79 324516 342134 298438 343000 328952 332788
2060.58 231580 178028 182188 382628 473512 509962
2066.37 488614 533256 472148 421422 407186 487026
2072.15 445866 467464 452156 482460 486994 568104
2077.94 597608 646090 537204 523898 458234 423696
2083.72 364910 397698 381048 415658 412434 466898
2089.51 432518 481596 447792 411154 359052 407860
2095.29 373084 426380 440318 503984 431790 420546
2101.08 417018 445672 437302 499560 449718 446470
2106.86 469472 524090 469510 526724 589210 645236
2112.65 561946 560924 546856 561830 524356 547764
2118.43 533102 619450 648580 675926 640692 653096
2124.22 628722 679476 648130 697944 639036 650360
2130.01 598382 600804 621038 707838 671968 645736
2135.79 558178 529932 462990 496674 451744 457366
2141.58 430268 472254 468506 526998 512526 572878
2147.36 555088 593624 617778 697192 744670 900990
2153.15 1018092 1149334 1240192 1454580 1610288 1795370
2158.93 1859700 2002646 2122702 2218892 2221300 2280554
2164.72 2282250 2440534 2803514 2970104 2563308 2370958
2170.50 2484320 2736448 2893288 3011324 3031856 3014650
2176.29 2826050 2720634 2471610 2271302 2070452 1972270
2182.07 1834942 1708526 1514368 1447468 1382780 1399940
2187.86 1387140 1443740 1507178 1665342 1623280 1561132
2193.64 1466814 1442782 1376606 1325254 1265872 1288536
2199.43 1195754 1169146 1115460 1159216 1123422 1090516
2205.22 1032214 1070982 1088074 1189992 1134014 1064974
2211.00 989556 1033556 1040924 1117790 1126986 1163324
2216.79 1146314 1106848 992904 1001598 1005848 1093812
2222.57 1061982 998206 966216 1014368 986518 1011298
2228.36 1014848 1103898 1081990 1065900 996868 1015256
2234.14 1016092 1114234 1182964 1187010 1094680 1192524
2239.93 1254208 1349436 1404844 1492554 1543548 1641882
2245.71 1660034 1723394 1834490 1993658 2004574 2070192
2251.50 2111474 2200106 2204608 2306406 2322356 2343262
2257.28 2249888 2236448 2187530 2208312 2232894 2302612
2263.07 2335074 2473978 2531456 2614756 2609924 2715308
2268.86 2766804 2787050 2762172 2787590 2784454 2959872
2274.64 3038052 3116224 3149802 3193238 3122284 3078636
2280.43 2975488 2927688 2856732 2963284 2969640 2932516
2286.21 2882156 2972712 3021214 3090072 3073790 3087414
2292.00 2919590 2784298 2749936 2825626 2804338 2843488
2297.78 2859722 2984818 3081124 3253736 3356564 3603968
2303.57 3790242 3934978 3942928 3901534 3722618 3632486
2309.35 3549878 3679076 3923454 4494156 4560838 4236726
2315.14 4017554 4054580 4215084 4538524 4664648 4675786
2320.92 4639610 4650722 4514272 4404078 4248984 4231562
2326.71 4223660 4331526 4392002 4454936 4377268 4298006
2332.50 4140330 4041340 3915372 3952858 4053172 4188100
2338.28 4291232 4517372 4652384 4858680 4984650 5075754
2344.07 5003672 4903800 4700376 4533206 4405616 4390202
2349.85 4394214 4533486 4609242 4715568 4776948 4950880
2355.64 5016244 5044658 4940424 4816786 4563706 4264214
2361.42 3845978 3543142 3403710 3565626 3808954 4158154
2367.21 4299178 4256170 4038896 3858532 3601808 3405334
2372.99 3079284 2826144 2626776 2601374 2537022 2490752
2378.78 2453604 2527726 2536784 2572328 2492970 2497698
2384.56 2483210 2466332 2413054 2508694 2576354 2686418
2390.35 2700826 2682446 2613014 2684280 2751436 2831342
2396.14 2801806 2830394 2836254 2982316 3136466 3191210
2401.92 3142108 3253494 3316836 3457540 3511352 3612848
2407.71 3614382 3647780 3594556 3686928 3893256 4169120
2413.49 4070926 3983848 4077098 4283678 4323558 4355096
2419.28 4339862 4486102 4590832 4484528 4163806 3977492
2425.06 3821062 3746462 3610758 3515504 3417556 3344258
2430.85 3016524 2821226 2714660 2664118 2588882 2572848
2436.63 2420228 2287834 2194968 2179024 2101004 2087498
2442.42 2010054 1943888 1857088 1905648 1872346 1875900
2448.20 1848898 1878588 1870194 1913578 1887046 1918478
2453.99 1914138 1983916 1991026 2066080 2085438 2162524
2459.77 2177028 2203838 2117182 2134070 2155804 2230602
2465.56 2233380 2236492 2173500 2158790 2132098 2171500
2471.35 2078918 2077040 2036986 2020288 1935618 1939230
2477.13 1916270 1899710 1824988 1807078 1736626 1736070
2482.92 1726592 1741968 1673378 1756110 1771762 1786596
2488.70 1791760 1865752 1849042 1873244 1897396 1994254
2494.49 2033074 2108498 2086090 2102202 2113816 2233976
2500.27 2165870 2120886 2070934 2075968 2040470 2050210
2506.06 2015220 2039190 2036018 2115256 2063644 1995366
2511.84 1884246 1893040 1811946 1796212 1739660 1729474
2517.63 1701324 1689774 1627276 1648072 1578892 1586668
2523.41 1546960 1576676 1628576 1661912 1584856 1620860
2529.20 1573976 1616100 1567100 1627192 1707798 1771104
2534.99 1698536 1672622 1614408 1611286 1583288 1578056
2540.77 1545486 1600656 1602068 1646750 1580288 1549226
2546.56 1535018 1610430 1624040 1668974 1653164 1680660
2552.34 1581438 1564538 1478066 1429694 1326942 1346378
2558.13 1343172 1392240 1417100 1453294 1356706 1386352
2563.91 1446934 1519372 1550212 1653274 1686630 1785942
2569.70 1807206 1900122 1955042 2065762 2191114 2308010
2575.48 2382600 2584580 2767094 3030596 3296144 3669230
2581.27 3970944 4162948 4257804 4491348 4692428 4845562
2587.05 4902680 4979084 4979560 5013410 5109722 5370218
2592.84 5469966 5421990 5436280 5789354 6004828 6102578
2598.63 6057484 5944834 5648422 5338356 4888942 4487412
2604.41 4103328 3882468 3613450 3473884 3353744 3404212
2610.20 3447644 3354412 3095392 2999014 2912606 2926904
2615.98 2904914 2894038 2821428 2838974 2861490 2972652
2621.77 3006686 3008758 2929970 2924138 2898680 2860582
2627.55 2722658 2720912 2692030 2702442 2582952 2559496
2633.34 2508232 2517106 2480386 2570946 2634414 2622358
2639.12 2470798 2389074 2363762 2459130 2437740 2358688
2644.91 2139472 2077364 2008276 1994192 1948020 1946830
2650.69 1820502 1776946 1791628 1833552 1695942 1611202
2656.48 1524318 1468904 1394200 1408676 1344658 1422534
2662.27 1400430 1315836 1270622 1358224 1325464 1330706
2668.05 1287678 1311848 1289160 1271144 1188874 1223908
2673.84 1172404 1140406 1115372 1196852 1192284 1189494
2679.62 1137294 1192228 1193952 1247230 1178196 1191996
2685.41 1171864 1174424 1168512 1223750 1226348 1218616
2691.19 1202520 1222968 1135420 1127136 1106416 1163402
2696.98 1242386 1307264 1157684 1154862 1216976 1301544
2702.76 1252130 1237372 1160698 1219584 1241160 1264006
2708.55 1274426 1359756 1330038 1421106 1462898 1561066
2714.33 1635940 1679198 1688354 1806394 1871726 1959280
2720.12 1988402 2139316 2268956 2487758 2663966 2924778
2725.91 3234204 3684354 4188072 4861212 5537280 6422400
2731.69 7317556 8384908 9424122 10389730 11090250 11667810
2737.48 11931900 11844400 11512350 11298140 11494440 13227940
2743.26 16570370 17518570 13850080 11631650 12405760 14005930
2749.05 15305840 16079720 15928010 14980040 13359650 11574190
2754.83 9860962 8387392 7099298 6167462 5481998 5012684
2760.62 4568872 4292520 4022360 3802204 3467618 3165580
2766.40 2934228 2902030 2881938 2959512 2974292 3038008
2772.19 3035800 3074254 3080212 3120096 3181198 3313846
2777.97 3368274 3467120 3563628 3710308 3660770 3608932
2783.76 3596888 3695404 3853000 4080434 4110180 4145164
2789.54 4147594 4151804 4098684 4236684 4328788 4397166
2795.33 4431476 4456276 4470950 4709692 4815992 4791598
2801.12 4702452 4765652 4839116 4967578 5050300 5203394
2806.90 5385202 5610406 5850810 6177376 6320334 6502140
2812.69 6701670 6935320 7159308 7598866 7898184 8066970
2818.47 8232382 8527922 8800082 9044222 9114758 9201824
2824.26 9190360 9258812 9361196 9599648 9874946 10364290
2830.04 10834860 11313770 11748050 12234670 12554550 12852540
2835.83 13118380 13554870 13913570 14176790 14471570 14932290
2841.61 15397190 15920490 16599710 17627950 18628090 19736180
2847.40 20936820 22335180 23844730 25577620 27367180 29323990
2853.18 31423460 33683480 36100790 38867020 41846960 45177750
2858.97 48685620 52324300 56268590 60719020 65183960 69620150
2864.76 74112520 78639560 83045920 87659540 92427200 97688940
2870.54 104026300 110027500 114406900 119303700 125284600 131834900
2876.33 138358200 144027700 147753400 150066500 150685800 149484100
2882.11 147762400 146410800 145280100 143727100 141724300 140643800
2887.90 140157200 139142100 136847200 133985200 131218700 128293100
2893.68 124798600 121040200 116836700 112473400 107985700 103440200
2899.47 98994980 95247080 92171640 89821720 88196060 87457980
2905.25 87690310 88766270 89524250 90843900 93869740 97954980
2911.04 101749600 105460100 108784000 112801200 118615900 125538600
2916.82 133615400 141558500 149363800 159069100 170788100 184248400
2922.61 197602900 209211700 219170700 227602700 234035200 236973600
2928.40 237509700 239627200 245571900 254321300 261940200 265343900
2934.18 263458900 261413900 264155000 268229500 269198800 267497500
2939.97 263041200 258501200 255321000 249951500 241970000 234111400
2945.75 225244900 213293800 199891000 187519600 175276800 163372100
2951.54 155000200 150621700 149719600 147619800 138017200 125457100
2957.32 117526200 114997500 115195300 115615100 114045000 111275100
2963.11 106777500 101347400 97491350 94199090 90256190 86236120
2968.89 82220220 78492770 75619940 74579900 75270090 76816500
2974.68 78807440 80949370 82598520 84317060 85926500 86886070
2980.46 87201340 87466130 88267940 90861280 95365360 98817420
2986.25 96632780 91023820 87758480 88068740 91297240 96146170
2992.04 99561680 100350700 101560700 105879500 112795500 117241200
2997.82 116375700 114670200 117212000 124277700 133664900 143043700
3003.61 148330100 146572000 142716500 142917600 146298300 148759200
3009.39 150108000 151823200 153615900 158379100 165586200 171898700
3015.18 177498800 184409000 194036700 206348500 221803300 241276800
3020.96 264245600 284775000 303544700 325561200 348728600 372525500
3026.75 398870100 428607000 456691500 474574500 482619100 487163600
3032.53 487903600 481865900 473398400 470412900 472089400 476103300
3038.32 483011000 487249800 489523700 489569700 486583600 487852700
3044.10 486753600 478397500 461140600 436406600 407263600 376984400
3049.89 346288700 317216800 292073500 272518000 257493100 246494800
3055.67 239071500 234886000 233799200 236109500 239848900 243594000
3061.46 247692300 252722200 256936500 260137300 261438400 260611600
3067.25 259219600 259261300 262850200 274000400 294095200 314133500
3073.03 308152900 280700500 265703400 267471200 274912700 281942500
3078.82 286557900 287710800 285443200 277298400 265260800 255791000
3084.60 248562800 242816800 237705200 232199500 225010800 216120800
3090.39 204646900 191291800 177898400 165622100 155869600 150473100
3096.17 150311600 154742500 160143100 163701200 163653400 159692200
3101.96 153055500 145023100 135882400 126409900 116853000 108059500
3107.74 100201100 93310340 87825140 83535810 79822930 76463570
3113.53 72928460 69298230 65756910 62412660 59031660 55399210
3119.31 51420500 48565770 46007740 42886930 40559700 38477740
3125.10 36201590 34405200 32769640 31078610 28860520 26264540
3130.89 23453030 20922200 18427370 16058090 13748080 11779820
3136.67 10095120 8783998 7538456 6571016 5752944 5124246
3142.46 4540036 4155388 3749764 3551008 3428254 3383950
3148.24 3267560 3134470 2984514 2959344 2862930 2893428
3154.03 2862270 2909616 2823222 2845240 2820814 2907092
3159.81 2998802 3049608 3045114 3128258 3141784 3249062
3165.60 3224946 3247848 3320028 3465362 3470460 3544646
3171.38 3551774 3529624 3461178 3516186 3498640 3473228
3177.17 3299536 3336230 3347956 3290098 3062278 2837412
3182.95 2652520 2716512 2670480 2635872 2475122 2205314
3188.74 1784408 1490758 1170692 981794 852946 753792
3194.53 576570 546832 526662 536782 443432 447750
3200.31 403482 392286 302094 338584 346546 399504
3206.10 464552 583344 555652 507688 392946 310080
3211.88 188036 239100 255010 294076 179516 18996
3217.67 16244 408234 557678 524176 335786 266132
3223.45 237054 219400 51108 52010 147864 206786
3229.24 88654 142532 158428 265284 287820 326006
3235.02 308512 279302 187358 193742 214466 330680
3240.81 401372 442118 450678 543050 505716 445682
3246.59 443626 520476 473444 535358 492342 497998
3252.38 551708 596712 561996 690578 665478 662908
3258.17 659286 695494 680784 729536 756884 866246
3263.95 859626 911804 888320 914094 845996 921262
3269.74 889904 940484 1054782 1174616 1097534 1029756
3275.52 1001098 1092440 1044892 1042122 1011056 1052516
3281.31 1014250 1002918 964214 1055978 1058574 1008102
3287.09 882304 882792 893790 1052348 1036374 1043134
3292.88 1063134 1071204 982114 906642 838014 934818
3298.66 886274 888106 956714 1095848 1001672 932108
3304.45 892008 936728 835558 846340 838720 807474
3310.23 807652 911798 898592 952318 855668 869428
3316.02 894762 981010 979758 912444 907870 1052826
3321.80 1027556 1078358 1128224 1207848 1241872 1390206
3327.59 1309148 1348736 1408142 1494044 1465808 1564814
3333.38 1564054 1511728 1498026 1570756 1479740 1466464
3339.16 1556130 1667440 1644794 1639446 1508320 1467044
3344.95 1427012 1459176 1455198 1434808 1357092 1312042
3350.73 1236166 1188172 1115648 1185762 1123484 1069518
3356.52 1044680 1164662 1088474 1161182 1264964 1341234
3362.30 1374262 1350946 1303284 1305346 1239302 1251978
3368.09 1222834 1263792 1246786 1298964 1352942 1492884
3373.87 1477182 1518636 1522438 1567614 1497714 1489612
3379.66 1542074 1634488 1622630 1664540 1558260 1495894
3385.44 1409976 1326288 1328400 1363556 1271466 1360860
3391.23 1289212 1345476 1357080 1314862 1238970 1262176
3397.02 1213780 1286920 1243668 1205120 1101948 1077030
3402.80 1075700 1186606 1165544 1146508 1109388 1196194
3408.59 1119706 1085392 1033742 1004324 867150 873078
3414.37 982774 1101172 1070976 1061338 824474 652580
3420.16 699876 924056 902082 947002 928236 910944
3425.94 880426 1003440 1096778 1127768 1031110 1076142
3431.73 1019602 1014052 922002 1016016 1126694 1145176
3437.51 1226372 1383382 1288698 1362396 1486896 1529276
3443.30 1451372 1494222 1482758 1448140 1296358 1203312
3449.08 1198610 1341160 1235276 1117184 1049028 1084662
3454.87 1043494 1030382 1020208 1050966 995294 1006862
3460.66 988762 879510 802810 906198 860078 762632
3466.44 661292 608254 471710 517328 530106 598906
3472.23 510600 503894 455188 399556 301338 319064
3478.01 331114 376712 317464 326704 350066 404962
3483.80 382590 397944 444290 498144 382604 419428
3489.58 456482 453274 394160 422298 458704 509178
3495.37 409472 465882 525856 535440 414556 520512
3501.15 529286 508330 451766 497858 505668 492992
3506.94 402808 446348 479064 551278 513056 534782
3512.72 513782 594254 574658 592662 548596 579326
3518.51 577796 675842 690862 640730 655670 905956
3524.30 1046924 938518 703528 656242 586858 651914
3530.08 585670 577190 592876 675334 688944 688442
3535.87 643104 669308 671414 751120 693554 718950
3541.65 692114 773514 778828 781544 743128 878096
3547.44 923030 879840 839724 838256 821074 995256
3553.22 1083484 1072182 909688 902026 923352 991586
3559.01 968458 955314 941686 1011068 986976 960610
3564.79 891852 914780 837734 830650 791952 709156
3570.58 622190 678746 630576 630410 560170 573958
3576.36 497850 515534 518606 693910 809208 873648
3582.15 888540 863240 713008 609866 613022 625616
3587.94 545592 743296 804978 848392 757210 829084
3593.72 812658 824546 848856 870098 737064 672820
3599.51 549302 686192 970440 1056672 976300 862170
3605.29 578832 535794 523470 421474 467376 601428
3611.08 465632 452080 455184 460108 551712 684568
3616.86 728878 703084 566156 786934 894370 1008326
3622.65 1005600 1100356 1111126 1204084 1100564 829792
3628.43 680842 967746 1155032 1227350 1107840 1171682
3634.22 1327172 1439380 1511518 1571764 1578646 1688722
3640.00 1755538 1927444 1981380 2002654 1976268 1983362
3645.79 1874262 1910412 1774884 1805520 2024710 2253764
3651.57 2532888 2649992 2556806 2451172 2401626 2608966
3657.36 2660700 2638280 2581604 2607328 2564692 2603252
3663.15 2590446 2643582 2567618 2528504 2389418 2228846
3668.93 1926334 1660980 1796810 1935552 1697858 1280066
3674.72 935052 1132838 1461250 1471180 1327640 1368172
3680.50 1460960 1458730 1316256 1290236 1244666 1275632
3686.29 1117438 748110 860770 1179174 1146882 1220606
3692.07 1184508 1233164 1225874 1227392 1213580 1183392
3697.86 1183566 1280312 1124942 1026272 1140912 1233780
3703.64 1212966 1247266 1199066 1118586 1012210 1029984
3709.43 1038874 800476 585870 975582 1134932 1191636
3715.21 1252634 1257172 1100542 1095326 1023656 1046874
3721.00 1028192 1189632 1252988 1198542 1080452 995192
3726.79 928146 949926 909958 915762 710390 720550
3732.57 924784 865012 588212 427368 512158 744066
3738.36 783186 783248 723904 705386 434316-170210
3744.14-88670 650158 828778 731318 245620 231658
3749.93 394544-5536 46300 554138 626006 617220
3755.71 608250 698948 570732 519648 620866 719930
3761.50 636466 678604 568192 555978 589434 704768
3767.28 648288 504776 399594 657740 804746 852786
3773.07 733060 799022 850042 854818 798040 818394
3778.85 805670 909826 920706 1101554 1217816 1245332
3784.64 1143792 1199478 1360622 1484616 1453298 1522570
3790.43 1548000 1651490 1700508 1725856 1670152 1624876
3796.21 1534046 1638064 1691108 1646466 1150624 1166482
3802.00 1528266 1707400 1794248 1699208 1340650 1414260
3807.78 1649502 1725946 1740442 1715300 1635518 1599374
3813.57 1470846 1025230 968236 1550432 1701898 1701164
3819.35 1471926 1385440 1514150 1780464 1926536 2039306
3825.14 1910880 1913628 2058720 2146524 2091214 2032120
3830.92 2004266 2251236 2213598 2119092 2219648 2264148
3836.71 1851770 2116050 2425502 2464480 2467064 2578880
3842.49 2604300 2765822 2889278 2969984 3039576 3205176
3848.28 3241538 3307426 3064758 2803834 2720524 2375552
3854.07 2830096 3390686 3312656 3360540 3314744 3197114
3859.85 3078070 3093542 3144152 3118948 2793740 2805772
3865.64 2930538 2881992 2635082 2283288 2177794 2477598
3871.42 2586844 2544840 2352416 2386900 2372654 2302016
3877.21 2178858 2044056 1870252 2012992 2161868 2179898
3882.99 2018202 1776344 1582624 1860072 1956836 1887994
3888.78 1803756 1692244 1578762 1820722 1842182 1850874
3894.56 1828884 1955904 1953536 1815510 1641030 1788780
3900.35 1775534 1846728 1913394 1851774 1989598 2102130
3906.13 2176522 2259938 2249800 2338326 2384000 2424738
3911.92 2448412 2509836 2459836 2465256 2478858 2674350
3917.70 2790044 2672112 2610406 2640380 2575798 2667556
3923.49 2593834 2622130 2595804 2567298 2471366 2471108
3929.28 2364992 2272664 2171846 2227846 2182518 2169420
3935.06 2143208 2161372 2092402 2051114 2103618 2145532
3940.85 2018860 1971488 1854080 1775510 1772680 1902470
3946.63 1947198 1983538 1919868 1901632 1912246 1943800
3952.42 1881198 1824094 1835872 1950150 1944702 1888424
3958.20 1843346 2049068 2106652 2016570 1971330 2134536
3963.99 2142064 2103654 2014156 2052798 2083542 2186642
3969.77 2179802 2115226 2042214 2080436 2066158
##END=
