##TITLE=TOLUENE
##JCAMP-DX=4.24
##DATA TYPE=INFRARED SPECTRUM
##CLASS=COBLENTZ
##ORIGIN=STANDARD OIL OF OHIO
##OWNER=COBLENTZ SOCIETY
Collection (C) 2018 copyright by the U.S. Secretary of Commerce
on behalf of the United States of America. All rights reserved.
##DATE=Not specified, most likely prior to 1970
##CAS REGISTRY NO=108-88-3
##MOLFORM=C7 H8
##SOURCE REFERENCE=COBLENTZ NO. 3574
##$NIST SOURCE=COBLENTZ
##$NIST IMAGE=cob3574
##SPECTROMETER/DATA SYSTEM=PERKIN-ELMER
##STATE=LIQUID
##PATH LENGTH=0.0024 CM
##SAMPLING PROCEDURE=TRANSMISSION
##RESOLUTION=4
##DATA PROCESSING=DIGITIZED BY NIST FROM HARD COPY (FROM TWO SEGMENTS)
##XUNITS=1/CM
##YUNITS=TRANSMITTANCE
##XFACTOR=1.000000
##YFACTOR=1
##DELTAX=1.686341
##FIRSTX=579.481
##LASTX=3943.73
##FIRSTY=0.641
##MAXX=3943.73
##MINX=579.481
##MAXY=0.923
##MINY=0.016
##NPOINTS=1996
##XYDATA=(X++(Y..Y))
579.481000 0.6410 0.6410 0.6400 0.6360 0.6291
587.912705 0.6280 0.6212 0.6123 0.6091 0.6013
596.344410 0.5971 0.5902 0.5842 0.5782 0.5770
604.776115 0.5770 0.5751 0.5750 0.5750 0.5750
613.207820 0.5769 0.5770 0.5770 0.5779 0.5780
621.639525 0.5798 0.5818 0.5847 0.5886 0.5899
630.071230 0.5918 0.5984 0.5990 0.6017 0.6083
638.502935 0.6108 0.6155 0.6169 0.6205 0.6228
646.934640 0.6274 0.6307 0.6389 0.6444 0.6476
655.366345 0.6497 0.6500 0.6509 0.6510 0.6510
663.798050 0.6510 0.6501 0.6483 0.6455 0.6357
672.229755 0.6248 0.6113 0.6023 0.5911 0.5651
680.661460 0.5442 0.5228 0.5132 0.5063 0.4928
689.093165 0.4429 0.3828 0.2979 0.2009 0.1325
697.524870 0.0575 0.0476 0.0991 0.1603 0.2289
705.956575 0.3035 0.3504 0.4226 0.5166 0.5390
714.388280 0.5274 0.5086 0.4818 0.4361 0.3906
722.819985 0.3347 0.2682 0.1912 0.1205 0.0505
731.251690 0.0216 0.0165 0.0160 0.0175 0.0195
739.683395 0.0324 0.0370 0.0794 0.1482 0.2238
748.115100 0.2982 0.3876 0.4697 0.5372 0.5658
756.546805 0.5973 0.6375 0.6756 0.7049 0.7232
764.978510 0.7349 0.7483 0.7626 0.7718 0.7821
773.410215 0.7880 0.7957 0.8017 0.8037 0.8066
781.841920 0.8113 0.8071 0.8007 0.7938 0.7807
790.273625 0.7686 0.7739 0.7930 0.8161 0.8325
798.705330 0.8408 0.8462 0.8505 0.8539 0.8562
807.137035 0.8582 0.8590 0.8596 0.8600 0.8612
815.568740 0.8620 0.8620 0.8632 0.8646 0.8650
824.000445 0.8650 0.8662 0.8658 0.8644 0.8629
832.432150 0.8609 0.8594 0.8567 0.8522 0.8489
840.863855 0.8424 0.8374 0.8359 0.8350 0.8350
849.295560 0.8361 0.8403 0.8457 0.8491 0.8516
857.727265 0.8562 0.8606 0.8636 0.8650 0.8650
866.158970 0.8650 0.8650 0.8645 0.8630 0.8610
874.590675 0.8600 0.8600 0.8600 0.8610 0.8620
883.022380 0.8620 0.8605 0.8580 0.8546 0.8501
891.454085 0.8418 0.8317 0.8191 0.8034 0.7846
899.885790 0.7585 0.7395 0.7541 0.7890 0.8109
908.317495 0.8284 0.8381 0.8455 0.8509 0.8520
916.749200 0.8524 0.8539 0.8567 0.8590 0.8582
925.180905 0.8570 0.8553 0.8518 0.8492 0.8476
933.612610 0.8462 0.8462 0.8480 0.8488 0.8492
942.044315 0.8468 0.8438 0.8420 0.8412 0.8389
950.476020 0.8363 0.8350 0.8350 0.8343 0.8323
958.907725 0.8306 0.8286 0.8249 0.8223 0.8207
967.339430 0.8193 0.8180 0.8180 0.8173 0.8160
975.771135 0.8160 0.8153 0.8130 0.8104 0.8090
984.202840 0.8090 0.8096 0.8110 0.8119 0.8146
992.634545 0.8160 0.8160 0.8151 0.8130 0.8124
1001.066250 0.8101 0.8074 0.8060 0.8060 0.8066
1009.497955 0.8080 0.8075 0.8052 0.8025 0.8005
1017.929660 0.7964 0.7866 0.7771 0.7646 0.7464
1026.361365 0.7253 0.6992 0.6417 0.5529 0.4612
1034.793070 0.3930 0.4108 0.4846 0.5528 0.5990
1043.224775 0.5963 0.5870 0.5876 0.5925 0.6094
1051.656480 0.6415 0.6602 0.6843 0.7036 0.7178
1060.088185 0.7345 0.7433 0.7537 0.7570 0.7563
1068.519890 0.7525 0.7475 0.7330 0.7159 0.6941
1076.951595 0.6544 0.6150 0.5500 0.4990 0.4486
1085.383300 0.4120 0.4175 0.4604 0.5501 0.6680
1093.815005 0.7094 0.7459 0.7672 0.7825 0.7855
1102.246710 0.7814 0.7760 0.7675 0.7551 0.7410
1110.678415 0.7422 0.7538 0.7723 0.8027 0.8192
1119.110120 0.8318 0.8407 0.8471 0.8480 0.8480
1127.541825 0.8480 0.8480 0.8479 0.8469 0.8450
1135.973530 0.8449 0.8429 0.8419 0.8400 0.8398
1144.405235 0.8369 0.8348 0.8299 0.8277 0.8206
1152.836940 0.8107 0.8009 0.7989 0.7970 0.7960
1161.268645 0.7971 0.8010 0.8031 0.8080 0.8080
1169.700350 0.8040 0.8030 0.8009 0.7909 0.7750
1178.132055 0.7551 0.7282 0.7013 0.7207 0.7406
1186.563760 0.7781 0.8026 0.8158 0.8228 0.8259
1194.995465 0.8279 0.8299 0.8310 0.8329 0.8378
1203.427170 0.8380 0.8351 0.8302 0.8215 0.8097
1211.858875 0.7977 0.7970 0.8082 0.8220 0.8341
1220.290580 0.8488 0.8593 0.8637 0.8668 0.8688
1228.722285 0.8690 0.8690 0.8690 0.8690 0.8690
1237.153990 0.8672 0.8652 0.8623 0.8602 0.8573
1245.585695 0.8535 0.8521 0.8520 0.8520 0.8520
1254.017400 0.8581 0.8599 0.8643 0.8667 0.8670
1262.449105 0.8687 0.8690 0.8690 0.8690 0.8690
1270.880810 0.8673 0.8670 0.8670 0.8670 0.8670
1279.312515 0.8670 0.8670 0.8670 0.8670 0.8670
1287.744220 0.8686 0.8674 0.8670 0.8654 0.8642
1296.175925 0.8624 0.8604 0.8592 0.8558 0.8550
1304.607630 0.8534 0.8522 0.8504 0.8461 0.8427
1313.039335 0.8420 0.8420 0.8428 0.8445 0.8488
1321.471040 0.8500 0.8477 0.8470 0.8440 0.8423
1329.902745 0.8405 0.8400 0.8400 0.8400 0.8400
1338.334450 0.8386 0.8380 0.8380 0.8373 0.8356
1346.766155 0.8336 0.8316 0.8289 0.8245 0.8209
1355.197860 0.8158 0.8105 0.8048 0.8002 0.7942
1363.629565 0.7879 0.7819 0.7766 0.7662 0.7539
1372.061270 0.7353 0.7031 0.6641 0.6263 0.6027
1380.492975 0.5970 0.6101 0.6320 0.6582 0.6828
1388.924680 0.7025 0.7212 0.7325 0.7382 0.7451
1397.356385 0.7480 0.7474 0.7458 0.7419 0.7400
1405.788090 0.7375 0.7354 0.7325 0.7279 0.7230
1414.219795 0.7192 0.7150 0.7106 0.7072 0.7048
1422.651500 0.7022 0.6998 0.6972 0.6937 0.6914
1431.083205 0.6898 0.6879 0.6830 0.6766 0.6706
1439.514910 0.6608 0.6388 0.6210 0.6081 0.5883
1447.946615 0.5566 0.5178 0.4784 0.4487 0.4236
1456.378320 0.4010 0.3797 0.3526 0.3290 0.3174
1464.810025 0.3134 0.3120 0.3135 0.3323 0.3515
1473.241730 0.3620 0.3760 0.4057 0.4520 0.4765
1481.673435 0.4888 0.5020 0.5098 0.5160 0.5127
1490.105140 0.5048 0.4768 0.4025 0.3405 0.2870
1498.536845 0.1906 0.0979 0.0908 0.1754 0.2484
1506.968550 0.3032 0.3769 0.5034 0.6334 0.6903
1515.400255 0.6929 0.6949 0.6994 0.7053 0.7070
1523.831960 0.7058 0.7019 0.6860 0.6680 0.6808
1532.263665 0.7080 0.7279 0.7428 0.7532 0.7604
1540.695370 0.7652 0.7678 0.7768 0.7944 0.8034
1549.127075 0.8048 0.8060 0.8060 0.8060 0.8053
1557.558780 0.8036 0.8030 0.8023 0.8003 0.7979
1565.990485 0.7953 0.7933 0.7879 0.7756 0.7623
1574.422190 0.7503 0.7437 0.7417 0.7443 0.7486
1582.853895 0.7552 0.7630 0.7650 0.7641 0.7598
1591.285600 0.7508 0.7410 0.7407 0.7400 0.7364
1599.717305 0.7245 0.7061 0.6714 0.6348 0.5900
1608.149010 0.5195 0.4374 0.3320 0.2340 0.3093
1616.580715 0.5485 0.6663 0.7197 0.7549 0.7693
1625.012420 0.7705 0.7720 0.7720 0.7720 0.7725
1633.444125 0.7776 0.7965 0.8242 0.8396 0.8584
1641.875830 0.8737 0.8879 0.8914 0.8937 0.8960
1650.307535 0.8964 0.8982 0.8990 0.8990 0.8990
1658.739240 0.8990 0.8990 0.8994 0.9010 0.9010
1667.170945 0.9010 0.9010 0.9010 0.9010 0.9010
1675.602650 0.9010 0.9010 0.9007 0.8990 0.8993
1684.034355 0.9010 0.9013 0.9031 0.9046 0.9080
1692.466060 0.9080 0.9077 0.9060 0.9057 0.9039
1700.897765 0.9030 0.9030 0.9031 0.9040 0.9042
1709.329470 0.9060 0.9062 0.9080 0.9080 0.9078
1717.761175 0.9058 0.9037 0.9010 0.9010 0.9008
1726.192880 0.8990 0.8984 0.8904 0.8836 0.8783
1734.624585 0.8694 0.8610 0.8467 0.8429 0.8421
1743.056290 0.8434 0.8501 0.8535 0.8624 0.8706
1751.487995 0.8825 0.8933 0.9011 0.9030 0.9041
1759.919700 0.9060 0.9059 0.9029 0.9010 0.9010
1768.351405 0.9010 0.8990 0.8990 0.8960 0.8930
1776.783110 0.8910 0.8841 0.8820 0.8810 0.8810
1785.214815 0.8810 0.8810 0.8810 0.8791 0.8771
1793.646520 0.8760 0.8693 0.8671 0.8573 0.8474
1802.078225 0.8355 0.8207 0.8000 0.7801 0.7677
1810.509930 0.7670 0.7689 0.7765 0.7854 0.8075
1818.941635 0.8239 0.8389 0.8511 0.8566 0.8616
1827.373340 0.8638 0.8667 0.8688 0.8754 0.8805
1835.805045 0.8819 0.8838 0.8840 0.8858 0.8860
1844.236750 0.8860 0.8842 0.8822 0.8776 0.8665
1852.668455 0.8606 0.8513 0.8353 0.8201 0.8034
1861.100160 0.7779 0.7621 0.7394 0.7360 0.7496
1869.531865 0.7571 0.7765 0.8001 0.8082 0.8090
1877.963570 0.8082 0.8080 0.8088 0.8123 0.8196
1886.395275 0.8308 0.8468 0.8613 0.8705 0.8792
1894.826980 0.8858 0.8918 0.8978 0.8990 0.9006
1903.258685 0.9026 0.9030 0.9038 0.9040 0.9055
1911.690390 0.9075 0.9080 0.9080 0.9080 0.9065
1920.122095 0.9060 0.9045 0.9017 0.8995 0.8968
1928.553800 0.8908 0.8838 0.8783 0.8718 0.8656
1936.985505 0.8559 0.8508 0.8318 0.8134 0.7946
1945.417210 0.7711 0.7541 0.7364 0.7303 0.7307
1953.848915 0.7423 0.7540 0.7696 0.7917 0.8038
1962.280620 0.8108 0.8137 0.8154 0.8187 0.8220
1970.712325 0.8277 0.8381 0.8507 0.8643 0.8756
1979.144030 0.8856 0.8955 0.8990 0.9003 0.9010
1987.575735 0.8997 0.8990 0.8984 0.8967 0.8947
1996.007440 0.8940 0.8940 0.8940 0.8965 0.8999
2004.439145 0.9029 0.9065 0.9099 0.9123 0.9130
2012.870850 0.9130 0.9130 0.9130 0.9130 0.9143
2021.302555 0.9150 0.9156 0.9173 0.9193 0.9200
2029.734260 0.9206 0.9210 0.9210 0.9210 0.9210
2038.165965 0.9210 0.9210 0.9210 0.9210 0.9223
2046.597670 0.9230 0.9230 0.9230 0.9230 0.9230
2055.029375 0.9230 0.9230 0.9230 0.9230 0.9230
2063.461080 0.9230 0.9218 0.9210 0.9210 0.9210
2071.892785 0.9210 0.9210 0.9204 0.9200 0.9200
2080.324490 0.9206 0.9210 0.9210 0.9210 0.9223
2088.756195 0.9230 0.9230 0.9230 0.9230 0.9230
2097.187900 0.9230 0.9230 0.9230 0.9230 0.9230
2105.619605 0.9230 0.9230 0.9217 0.9210 0.9210
2114.051310 0.9210 0.9210 0.9210 0.9210 0.9210
2122.483015 0.9210 0.9210 0.9210 0.9210 0.9210
2130.914720 0.9210 0.9210 0.9210 0.9210 0.9210
2139.346425 0.9210 0.9210 0.9210 0.9210 0.9210
2147.778130 0.9210 0.9210 0.9210 0.9210 0.9210
2156.209835 0.9204 0.9200 0.9187 0.9180 0.9167
2164.641540 0.9154 0.9138 0.9111 0.9062 0.9021
2173.073245 0.9010 0.9041 0.9085 0.9119 0.9149
2181.504950 0.9160 0.9173 0.9167 0.9160 0.9160
2189.936655 0.9154 0.9150 0.9150 0.9150 0.9150
2198.368360 0.9150 0.9156 0.9173 0.9193 0.9200
2206.800065 0.9200 0.9187 0.9180 0.9167 0.9160
2215.231770 0.9154 0.9150 0.9156 0.9173 0.9193
2223.663475 0.9200 0.9200 0.9200 0.9200 0.9200
2232.095180 0.9200 0.9188 0.9180 0.9167 0.9160
2240.526885 0.9160 0.9160 0.9160 0.9160 0.9160
2248.958590 0.9160 0.9160 0.9160 0.9173 0.9167
2257.390295 0.9154 0.9150 0.9137 0.9117 0.9104
2265.822000 0.9100 0.9100 0.9100 0.9100 0.9106
2274.253705 0.9123 0.9130 0.9130 0.9130 0.9130
2282.685410 0.9117 0.9110 0.9110 0.9110 0.9110
2291.117115 0.9110 0.9110 0.9110 0.9110 0.9110
2299.548820 0.9123 0.9143 0.9150 0.9150 0.9150
2307.980525 0.9150 0.9137 0.9117 0.9104 0.9075
2316.412230 0.9041 0.9018 0.9010 0.9010 0.9023
2324.843935 0.9036 0.9040 0.9040 0.9034 0.9030
2333.275640 0.9030 0.9018 0.8997 0.8990 0.8990
2341.707345 0.9003 0.9010 0.9010 0.9023 0.9030
2350.139050 0.9036 0.9040 0.9053 0.9073 0.9080
2358.570755 0.9080 0.9080 0.9080 0.9080 0.9080
2367.002460 0.9080 0.9092 0.9100 0.9100 0.9106
2375.434165 0.9110 0.9110 0.9110 0.9110 0.9110
2383.865870 0.9104 0.9100 0.9087 0.9080 0.9055
2392.297575 0.9034 0.9030 0.9030 0.9030 0.9030
2400.729280 0.9049 0.9060 0.9060 0.9047 0.9040
2409.160985 0.9040 0.9040 0.9034 0.9030 0.9017
2417.592690 0.8997 0.8990 0.9003 0.9010 0.9010
2426.024395 0.9023 0.9049 0.9073 0.9099 0.9110
2434.456100 0.9110 0.9123 0.9130 0.9130 0.9143
2442.887805 0.9150 0.9150 0.9150 0.9150 0.9150
2451.319510 0.9150 0.9150 0.9150 0.9150 0.9150
2459.751215 0.9156 0.9160 0.9154 0.9150 0.9150
2468.182920 0.9150 0.9150 0.9150 0.9150 0.9150
2476.614625 0.9150 0.9150 0.9156 0.9160 0.9160
2485.046330 0.9154 0.9150 0.9150 0.9150 0.9150
2493.478035 0.9150 0.9150 0.9150 0.9150 0.9137
2501.909740 0.9143 0.9150 0.9150 0.9150 0.9150
2510.341445 0.9150 0.9150 0.9150 0.9150 0.9150
2518.773150 0.9150 0.9150 0.9156 0.9160 0.9160
2527.204855 0.9160 0.9160 0.9160 0.9160 0.9154
2535.636560 0.9150 0.9150 0.9150 0.9150 0.9150
2544.068265 0.9150 0.9150 0.9137 0.9130 0.9143
2552.499970 0.9150 0.9150 0.9150 0.9150 0.9156
2560.931675 0.9160 0.9160 0.9160 0.9160 0.9160
2569.363380 0.9160 0.9154 0.9150 0.9150 0.9137
2577.795085 0.9130 0.9117 0.9110 0.9091 0.9055
2586.226790 0.9021 0.9010 0.8947 0.8885 0.8864
2594.658495 0.8860 0.8860 0.8891 0.8960 0.9003
2603.090200 0.9023 0.9030 0.9030 0.9036 0.9040
2611.521905 0.9053 0.9073 0.9080 0.9080 0.9093
2619.953610 0.9106 0.9110 0.9110 0.9110 0.9110
2628.385315 0.9110 0.9110 0.9110 0.9110 0.9110
2636.817020 0.9110 0.9110 0.9110 0.9110 0.9123
2645.248725 0.9130 0.9130 0.9130 0.9130 0.9130
2653.680430 0.9130 0.9130 0.9130 0.9130 0.9130
2662.112135 0.9130 0.9130 0.9130 0.9130 0.9130
2670.543840 0.9130 0.9130 0.9130 0.9130 0.9130
2678.975545 0.9130 0.9130 0.9130 0.9130 0.9130
2687.407250 0.9130 0.9130 0.9130 0.9130 0.9130
2695.838955 0.9117 0.9110 0.9110 0.9110 0.9110
2704.270660 0.9110 0.9110 0.9110 0.9110 0.9104
2712.702365 0.9087 0.9080 0.9080 0.9055 0.9034
2721.134070 0.9030 0.9018 0.9010 0.8978 0.8947
2729.565775 0.8921 0.8879 0.8829 0.8735 0.8634
2737.997480 0.8537 0.8406 0.8293 0.8241 0.8249
2746.429185 0.8292 0.8442 0.8633 0.8769 0.8873
2754.860890 0.8929 0.8984 0.9010 0.9010 0.9010
2763.292595 0.8997 0.8990 0.9003 0.9010 0.9010
2771.724300 0.8991 0.8968 0.8960 0.8960 0.8947
2780.156005 0.8940 0.8940 0.8934 0.8930 0.8930
2788.587710 0.8930 0.8918 0.8910 0.8897 0.8877
2797.019415 0.8864 0.8847 0.8827 0.8814 0.8810
2805.451120 0.8797 0.8790 0.8771 0.8735 0.8707
2813.882825 0.8669 0.8644 0.8615 0.8600 0.8594
2822.314530 0.8590 0.8578 0.8545 0.8511 0.8468
2830.746235 0.8431 0.8407 0.8381 0.8345 0.8299
2839.177940 0.8236 0.8166 0.8109 0.8039 0.7947
2847.609645 0.7878 0.7753 0.7602 0.7462 0.7285
2856.041350 0.7091 0.6882 0.6617 0.6352 0.6109
2864.473055 0.5837 0.5604 0.5392 0.5185 0.5041
2872.904760 0.4919 0.4826 0.4781 0.4757 0.4737
2881.336465 0.4730 0.4743 0.4763 0.4801 0.4851
2889.768170 0.4964 0.5064 0.5184 0.5404 0.5506
2898.199875 0.5617 0.5768 0.5851 0.5914 0.5927
2906.631580 0.5889 0.5839 0.5732 0.5598 0.5411
2915.063285 0.5191 0.4915 0.4662 0.4335 0.3902
2923.494990 0.3467 0.2998 0.2772 0.2617 0.2496
2931.926695 0.2470 0.2495 0.2573 0.2698 0.2919
2940.358400 0.3145 0.3401 0.3630 0.3782 0.3874
2948.790105 0.3913 0.3926 0.3930 0.3924 0.3920
2957.221810 0.3926 0.3930 0.3930 0.3943 0.3982
2965.653515 0.4032 0.4094 0.4164 0.4234 0.4335
2974.085220 0.4461 0.4554 0.4599 0.4604 0.4568
2982.516925 0.4525 0.4497 0.4490 0.4490 0.4490
2990.948630 0.4503 0.4522 0.4574 0.4638 0.4685
2999.380335 0.4706 0.4723 0.4711 0.4675 0.4622
3007.812040 0.4500 0.4359 0.4234 0.4101 0.4018
3016.243745 0.3968 0.3906 0.3786 0.3636 0.3411
3024.675450 0.3135 0.2817 0.2457 0.2023 0.1591
3033.107155 0.1182 0.0904 0.0799 0.0780 0.0786
3041.538860 0.0896 0.1066 0.1237 0.1528 0.1957
3049.970565 0.2388 0.2779 0.3140 0.3314 0.3384
3058.402270 0.3410 0.3379 0.3291 0.3212 0.3121
3066.833975 0.3030 0.2924 0.2849 0.2830 0.2843
3075.265680 0.2881 0.3025 0.3283 0.3624 0.4044
3083.697385 0.4336 0.4561 0.4650 0.4606 0.4442
3092.129090 0.4191 0.3909 0.3617 0.3466 0.3667
3100.560795 0.4140 0.4894 0.5767 0.6260 0.6523
3108.992500 0.6651 0.6670 0.6670 0.6702 0.6796
3117.424205 0.6966 0.7166 0.7403 0.7550 0.7649
3125.855910 0.7759 0.7919 0.8066 0.8205 0.8304
3134.287615 0.8406 0.8500 0.8555 0.8601 0.8651
3142.719320 0.8689 0.8712 0.8733 0.8740 0.8759
3151.151025 0.8783 0.8803 0.8810 0.8816 0.8820
3159.582730 0.8820 0.8832 0.8840 0.8840 0.8840
3168.014435 0.8827 0.8820 0.8833 0.8840 0.8840
3176.446140 0.8853 0.8860 0.8879 0.8915 0.8936
3184.877845 0.8953 0.8960 0.8973 0.8986 0.8990
3193.309550 0.8990 0.8990 0.9003 0.9010 0.9010
3201.741255 0.9010 0.9010 0.9010 0.9010 0.9010
3210.172960 0.9023 0.9030 0.9030 0.9030 0.9030
3218.604665 0.9030 0.9030 0.9030 0.9030 0.9036
3227.036370 0.9040 0.9040 0.9053 0.9060 0.9060
3235.468075 0.9060 0.9060 0.9060 0.9047 0.9040
3243.899780 0.9040 0.9040 0.9040 0.9040 0.9040
3252.331485 0.9040 0.9040 0.9040 0.9040 0.9040
3260.763190 0.9040 0.9040 0.9040 0.9040 0.9040
3269.194895 0.9040 0.9040 0.9040 0.9040 0.9040
3277.626600 0.9040 0.9040 0.9040 0.9040 0.9040
3286.058305 0.9040 0.9040 0.9040 0.9040 0.9040
3294.490010 0.9040 0.9040 0.9040 0.9040 0.9040
3302.921715 0.9040 0.9040 0.9034 0.9030 0.9030
3311.353420 0.9030 0.9030 0.9030 0.9030 0.9030
3319.785125 0.9030 0.9030 0.9030 0.9030 0.9030
3328.216830 0.9030 0.9030 0.9030 0.9030 0.9030
3336.648535 0.9030 0.9030 0.9030 0.9030 0.9030
3345.080240 0.9030 0.9030 0.9030 0.9030 0.9030
3353.511945 0.9030 0.9030 0.9030 0.9030 0.9030
3361.943650 0.9030 0.9030 0.9030 0.9017 0.9010
3370.375355 0.9010 0.9010 0.9010 0.9010 0.9010
3378.807060 0.9010 0.9010 0.9010 0.9010 0.9010
3387.238765 0.9010 0.9010 0.9010 0.9010 0.9010
3395.670470 0.9010 0.9010 0.9010 0.9010 0.9010
3404.102175 0.9010 0.9010 0.9010 0.9010 0.9010
3412.533880 0.9010 0.9010 0.9010 0.9010 0.9010
3420.965585 0.9010 0.9010 0.9010 0.8997 0.8990
3429.397290 0.8990 0.8990 0.8990 0.8990 0.8990
3437.828995 0.8990 0.8990 0.8990 0.8990 0.8990
3446.260700 0.8990 0.8990 0.8990 0.8990 0.8990
3454.692405 0.8990 0.8990 0.8990 0.8984 0.8980
3463.124110 0.8980 0.8980 0.8980 0.8980 0.8980
3471.555815 0.8980 0.8980 0.8980 0.8980 0.8980
3479.987520 0.8967 0.8960 0.8960 0.8960 0.8960
3488.419225 0.8960 0.8960 0.8960 0.8960 0.8960
3496.850930 0.8960 0.8960 0.8960 0.8960 0.8960
3505.282635 0.8960 0.8960 0.8960 0.8960 0.8960
3513.714340 0.8960 0.8960 0.8960 0.8973 0.8980
3522.146045 0.8980 0.8980 0.8980 0.8980 0.8980
3530.577750 0.8980 0.8980 0.8980 0.8980 0.8980
3539.009455 0.8980 0.8980 0.8986 0.8990 0.8990
3547.441160 0.8990 0.8990 0.8984 0.8980 0.8980
3555.872865 0.8980 0.8980 0.8980 0.8980 0.8980
3564.304570 0.8980 0.8980 0.8980 0.8967 0.8960
3572.736275 0.8960 0.8960 0.8960 0.8960 0.8960
3581.167980 0.8947 0.8940 0.8934 0.8930 0.8930
3589.599685 0.8930 0.8936 0.8940 0.8953 0.8960
3598.031390 0.8960 0.8960 0.8960 0.8960 0.8960
3606.463095 0.8947 0.8940 0.8940 0.8940 0.8934
3614.894800 0.8930 0.8930 0.8930 0.8930 0.8930
3623.326505 0.8930 0.8930 0.8930 0.8930 0.8930
3631.758210 0.8930 0.8930 0.8917 0.8910 0.8910
3640.189915 0.8910 0.8910 0.8910 0.8910 0.8910
3648.621620 0.8910 0.8910 0.8910 0.8910 0.8910
3657.053325 0.8910 0.8923 0.8930 0.8930 0.8930
3665.485030 0.8930 0.8930 0.8930 0.8930 0.8930
3673.916735 0.8930 0.8930 0.8930 0.8930 0.8930
3682.348440 0.8930 0.8930 0.8936 0.8940 0.8940
3690.780145 0.8940 0.8940 0.8940 0.8940 0.8934
3699.211850 0.8930 0.8930 0.8930 0.8930 0.8930
3707.643555 0.8930 0.8930 0.8930 0.8930 0.8930
3716.075260 0.8930 0.8930 0.8930 0.8930 0.8930
3724.506965 0.8930 0.8930 0.8930 0.8930 0.8930
3732.938670 0.8930 0.8930 0.8930 0.8930 0.8930
3741.370375 0.8930 0.8930 0.8930 0.8930 0.8930
3749.802080 0.8917 0.8910 0.8910 0.8923 0.8930
3758.233785 0.8917 0.8910 0.8910 0.8910 0.8910
3766.665490 0.8910 0.8910 0.8910 0.8910 0.8910
3775.097195 0.8897 0.8890 0.8890 0.8890 0.8890
3783.528900 0.8890 0.8890 0.8890 0.8890 0.8890
3791.960605 0.8890 0.8890 0.8890 0.8877 0.8870
3800.392310 0.8870 0.8870 0.8870 0.8870 0.8870
3808.824015 0.8870 0.8870 0.8870 0.8870 0.8870
3817.255720 0.8870 0.8870 0.8870 0.8864 0.8860
3825.687425 0.8860 0.8860 0.8860 0.8860 0.8860
3834.119130 0.8860 0.8860 0.8860 0.8860 0.8860
3842.550835 0.8860 0.8860 0.8860 0.8860 0.8860
3850.982540 0.8860 0.8860 0.8860 0.8866 0.8870
3859.414245 0.8870 0.8870 0.8870 0.8864 0.8860
3867.845950 0.8860 0.8860 0.8860 0.8860 0.8860
3876.277655 0.8860 0.8860 0.8860 0.8860 0.8860
3884.709360 0.8860 0.8860 0.8860 0.8860 0.8860
3893.141065 0.8860 0.8860 0.8860 0.8860 0.8860
3901.572770 0.8860 0.8860 0.8860 0.8860 0.8860
3910.004475 0.8860 0.8860 0.8866 0.8870 0.8870
3918.436180 0.8870 0.8870 0.8870 0.8870 0.8870
3926.867885 0.8870 0.8870 0.8870 0.8870 0.8870
3935.299590 0.8870 0.8870 0.8870 0.8870 0.8870
3943.731295 0.8870
##END=
