##TITLE=BENZENE, CHLORO-
##JCAMP-DX=4.24
$$ By DXEDIT 1.05 (RS McDonald)
##DATA TYPE=INFRARED SPECTRUM
##CLASS=COBLENTZ III
##ORIGIN=DOW CHEMICAL COMPANY
##OWNER=COBLENTZ SOC.
Collection (C) 2018 copyright by the U.S. Secretary of Commerce
on behalf of the United States of America. All rights reserved.
##DATE=1962/02/20
##NAMES=chlorobenzene
##CAS REGISTRY NO=108-90-7
##MOLFORM=C6 H5 Cl
##SOURCE REFERENCE=COBLENTZ NO. 05726
##$NIST SOURCE=COBLENTZ
##$NIST IMAGE=cob5726
##SPECTROMETER/DATA SYSTEM=DOW KBr FOREPRISM-GRATING
##INSTRUMENT PARAMETERS=BLAZED AT 3.5, 12.0, 20.0 MICRON AND CHANGED AT 5.0, 7.5, 14.9 MICRON
##STATE=SOLUTION (10% CCl4 FOR 3800-1250, 10% CS2 FOR 1250-450 CM^-^1) VS SOLVENT
##PATH LENGTH=0.0115 CM, 0.01132 CM
##SAMPLING PROCEDURE=TRANSMISSION
##RESOLUTION=2
##DATA PROCESSING=DIGITIZED BY COBLENTZ SOCIETY (BATCH I) FROM HARD COPY
##XUNITS=1/CM
##YUNITS=TRANSMITTANCE
##XLABEL=Wavenumbers (cm-1)
##YLABEL=% Transmission
##XFACTOR=1
##YFACTOR=1
##DELTAX=1
##FIRSTX=3800
##LASTX=443
##FIRSTY=0.8767
##MAXX=3800
##MINX=443
##MAXY=0.9203
##MINY=0.0032
##NPOINTS=3358
##XYDATA=(X++(Y..Y))
3800.000000 0.8767 0.8770 0.8773 0.8777 0.8781
3795.000000 0.8785 0.8789 0.8789 0.8788 0.8788
3790.000000 0.8786 0.8784 0.8782 0.8778 0.8775
3785.000000 0.8773 0.8771 0.8768 0.8765 0.8762
3780.000000 0.8760 0.8758 0.8756 0.8754 0.8753
3775.000000 0.8751 0.8750 0.8748 0.8747 0.8745
3770.000000 0.8744 0.8742 0.8740 0.8739 0.8738
3765.000000 0.8738 0.8738 0.8738 0.8739 0.8739
3760.000000 0.8739 0.8739 0.8739 0.8739 0.8740
3755.000000 0.8740 0.8740 0.8740 0.8740 0.8740
3750.000000 0.8741 0.8741 0.8741 0.8742 0.8744
3745.000000 0.8746 0.8748 0.8750 0.8752 0.8754
3740.000000 0.8756 0.8758 0.8760 0.8762 0.8764
3735.000000 0.8766 0.8768 0.8770 0.8773 0.8775
3730.000000 0.8778 0.8781 0.8784 0.8786 0.8789
3725.000000 0.8792 0.8795 0.8798 0.8801 0.8801
3720.000000 0.8802 0.8802 0.8802 0.8802 0.8802
3715.000000 0.8801 0.8800 0.8797 0.8794 0.8791
3710.000000 0.8789 0.8786 0.8783 0.8775 0.8768
3705.000000 0.8756 0.8743 0.8730 0.8718 0.8708
3700.000000 0.8698 0.8692 0.8686 0.8686 0.8687
3695.000000 0.8687 0.8688 0.8688 0.8689 0.8697
3690.000000 0.8705 0.8713 0.8721 0.8730 0.8739
3685.000000 0.8744 0.8750 0.8754 0.8758 0.8762
3680.000000 0.8767 0.8771 0.8775 0.8778 0.8783
3675.000000 0.8787 0.8792 0.8793 0.8795 0.8795
3670.000000 0.8796 0.8796 0.8797 0.8797 0.8798
3665.000000 0.8798 0.8799 0.8799 0.8800 0.8800
3660.000000 0.8801 0.8801 0.8802 0.8802 0.8802
3655.000000 0.8802 0.8803 0.8803 0.8804 0.8804
3650.000000 0.8804 0.8804 0.8805 0.8805 0.8806
3645.000000 0.8806 0.8807 0.8807 0.8807 0.8807
3640.000000 0.8808 0.8809 0.8810 0.8810 0.8811
3635.000000 0.8812 0.8813 0.8814 0.8815 0.8815
3630.000000 0.8816 0.8817 0.8818 0.8818 0.8818
3625.000000 0.8820 0.8821 0.8821 0.8823 0.8824
3620.000000 0.8825 0.8827 0.8828 0.8830 0.8832
3615.000000 0.8833 0.8835 0.8837 0.8839 0.8840
3610.000000 0.8842 0.8843 0.8845 0.8846 0.8848
3605.000000 0.8850 0.8852 0.8854 0.8856 0.8858
3600.000000 0.8860 0.8862 0.8864 0.8866 0.8868
3595.000000 0.8868 0.8871 0.8873 0.8875 0.8877
3590.000000 0.8878 0.8881 0.8883 0.8885 0.8887
3585.000000 0.8888 0.8890 0.8890 0.8890 0.8890
3580.000000 0.8890 0.8890 0.8890 0.8890 0.8890
3575.000000 0.8890 0.8890 0.8890 0.8890 0.8890
3570.000000 0.8890 0.8890 0.8890 0.8890 0.8890
3565.000000 0.8890 0.8890 0.8889 0.8889 0.8889
3560.000000 0.8889 0.8888 0.8888 0.8887 0.8887
3555.000000 0.8887 0.8887 0.8886 0.8886 0.8885
3550.000000 0.8885 0.8885 0.8885 0.8884 0.8884
3545.000000 0.8883 0.8883 0.8883 0.8883 0.8882
3540.000000 0.8882 0.8881 0.8881 0.8881 0.8881
3535.000000 0.8880 0.8880 0.8878 0.8878 0.8878
3530.000000 0.8878 0.8878 0.8878 0.8878 0.8878
3525.000000 0.8878 0.8878 0.8878 0.8880 0.8880
3520.000000 0.8881 0.8881 0.8882 0.8882 0.8882
3515.000000 0.8882 0.8883 0.8883 0.8884 0.8884
3510.000000 0.8884 0.8884 0.8885 0.8885 0.8886
3505.000000 0.8886 0.8886 0.8886 0.8887 0.8887
3500.000000 0.8888 0.8888 0.8889 0.8889 0.8889
3495.000000 0.8889 0.8890 0.8890 0.8891 0.8891
3490.000000 0.8891 0.8892 0.8893 0.8894 0.8896
3485.000000 0.8897 0.8899 0.8900 0.8902 0.8903
3480.000000 0.8904 0.8905 0.8907 0.8908 0.8910
3475.000000 0.8911 0.8913 0.8914 0.8916 0.8917
3470.000000 0.8918 0.8920 0.8921 0.8921 0.8924
3465.000000 0.8925 0.8927 0.8928 0.8930 0.8931
3460.000000 0.8933 0.8934 0.8936 0.8938 0.8940
3455.000000 0.8942 0.8944 0.8946 0.8948 0.8950
3450.000000 0.8953 0.8955 0.8957 0.8959 0.8961
3445.000000 0.8963 0.8965 0.8967 0.8968 0.8971
3440.000000 0.8973 0.8975 0.8978 0.8980 0.8982
3435.000000 0.8984 0.8986 0.8988 0.8990 0.8992
3430.000000 0.8994 0.8996 0.8998 0.9000 0.9002
3425.000000 0.9004 0.9006 0.9007 0.9009 0.9011
3420.000000 0.9013 0.9015 0.9017 0.9018 0.9020
3415.000000 0.9021 0.9024 0.9025 0.9028 0.9030
3410.000000 0.9032 0.9033 0.9035 0.9037 0.9039
3405.000000 0.9040 0.9041 0.9042 0.9043 0.9044
3400.000000 0.9046 0.9047 0.9048 0.9049 0.9050
3395.000000 0.9051 0.9052 0.9053 0.9055 0.9056
3390.000000 0.9057 0.9058 0.9058 0.9058 0.9058
3385.000000 0.9057 0.9056 0.9055 0.9054 0.9053
3380.000000 0.9052 0.9051 0.9050 0.9049 0.9048
3375.000000 0.9047 0.9046 0.9044 0.9042 0.9040
3370.000000 0.9038 0.9036 0.9034 0.9032 0.9030
3365.000000 0.9028 0.9025 0.9024 0.9021 0.9020
3360.000000 0.9018 0.9016 0.9014 0.9012 0.9010
3355.000000 0.9008 0.9007 0.9005 0.9004 0.9002
3350.000000 0.9001 0.8999 0.8998 0.8997 0.8996
3345.000000 0.8994 0.8993 0.8991 0.8990 0.8988
3340.000000 0.8987 0.8985 0.8984 0.8982 0.8981
3335.000000 0.8978 0.8978 0.8977 0.8975 0.8974
3330.000000 0.8973 0.8971 0.8970 0.8968 0.8967
3325.000000 0.8965 0.8964 0.8963 0.8962 0.8960
3320.000000 0.8959 0.8958 0.8957 0.8956 0.8955
3315.000000 0.8953 0.8952 0.8951 0.8950 0.8948
3310.000000 0.8947 0.8946 0.8945 0.8944 0.8943
3305.000000 0.8941 0.8940 0.8939 0.8938 0.8936
3300.000000 0.8935 0.8934 0.8933 0.8931 0.8930
3295.000000 0.8928 0.8927 0.8925 0.8925 0.8923
3290.000000 0.8921 0.8920 0.8918 0.8917 0.8916
3285.000000 0.8915 0.8914 0.8912 0.8911 0.8909
3280.000000 0.8908 0.8907 0.8906 0.8904 0.8903
3275.000000 0.8901 0.8900 0.8899 0.8898 0.8896
3270.000000 0.8895 0.8893 0.8892 0.8890 0.8889
3265.000000 0.8888 0.8887 0.8885 0.8884 0.8882
3260.000000 0.8881 0.8880 0.8878 0.8877 0.8875
3255.000000 0.8874 0.8873 0.8871 0.8871 0.8871
3250.000000 0.8870 0.8868 0.8868 0.8868 0.8868
3245.000000 0.8867 0.8866 0.8865 0.8865 0.8864
3240.000000 0.8864 0.8863 0.8862 0.8861 0.8861
3235.000000 0.8860 0.8860 0.8859 0.8858 0.8857
3230.000000 0.8857 0.8856 0.8856 0.8855 0.8854
3225.000000 0.8853 0.8853 0.8852 0.8852 0.8851
3220.000000 0.8850 0.8849 0.8849 0.8848 0.8848
3215.000000 0.8847 0.8847 0.8848 0.8849 0.8850
3210.000000 0.8851 0.8851 0.8852 0.8853 0.8853
3205.000000 0.8853 0.8852 0.8851 0.8851 0.8850
3200.000000 0.8849 0.8848 0.8848 0.8847 0.8846
3195.000000 0.8845 0.8845 0.8844 0.8843 0.8842
3190.000000 0.8841 0.8840 0.8840 0.8839 0.8838
3185.000000 0.8837 0.8837 0.8835 0.8834 0.8830
3180.000000 0.8825 0.8821 0.8817 0.8813 0.8809
3175.000000 0.8804 0.8800 0.8792 0.8785 0.8774
3170.000000 0.8763 0.8751 0.8740 0.8732 0.8725
3165.000000 0.8720 0.8716 0.8716 0.8715 0.8716
3160.000000 0.8718 0.8721 0.8723 0.8725 0.8728
3155.000000 0.8730 0.8733 0.8735 0.8737 0.8738
3150.000000 0.8738 0.8738 0.8736 0.8734 0.8732
3145.000000 0.8730 0.8728 0.8725 0.8724 0.8721
3140.000000 0.8720 0.8718 0.8716 0.8714 0.8712
3135.000000 0.8710 0.8708 0.8706 0.8704 0.8702
3130.000000 0.8700 0.8698 0.8696 0.8693 0.8690
3125.000000 0.8686 0.8682 0.8678 0.8661 0.8670
3120.000000 0.8666 0.8662 0.8658 0.8654 0.8650
3115.000000 0.8644 0.8638 0.8632 0.8625 0.8620
3110.000000 0.8614 0.8607 0.8600 0.8584 0.8568
3105.000000 0.8552 0.8536 0.8506 0.8477 0.8432
3100.000000 0.8387 0.8334 0.8282 0.8228 0.8175
3095.000000 0.8008 0.7843 0.7642 0.7441 0.7240
3090.000000 0.7039 0.6838 0.6637 0.6435 0.6234
3085.000000 0.6194 0.6150 0.6188 0.6223 0.6269
3080.000000 0.6316 0.6362 0.6483 0.6441 0.6474
3075.000000 0.6292 0.6110 0.5851 0.5593 0.5587
3070.000000 0.5596 0.5636 0.5692 0.5794 0.5896
3065.000000 0.5998 0.6101 0.6203 0.6305 0.6372
3060.000000 0.6439 0.6455 0.6471 0.6500 0.6528
3055.000000 0.6565 0.6603 0.6671 0.6740 0.6808
3050.000000 0.6878 0.6946 0.7015 0.7083 0.7151
3045.000000 0.7219 0.7289 0.7358 0.7426 0.7495
3040.000000 0.7564 0.7632 0.7701 0.7769 0.7839
3035.000000 0.7899 0.7960 0.7957 0.7946 0.7947
3030.000000 0.7948 0.7903 0.7858 0.7811 0.7767
3025.000000 0.7721 0.7676 0.7650 0.7606 0.7637
3020.000000 0.7651 0.7681 0.7711 0.7744 0.7776
3015.000000 0.7791 0.7805 0.7814 0.7824 0.7846
3010.000000 0.7868 0.7900 0.7932 0.7964 0.7997
3005.000000 0.8024 0.8051 0.8075 0.8101 0.8125
3000.000000 0.8151 0.8175 0.8201 0.8239 0.8278
2995.000000 0.8316 0.8354 0.8382 0.8411 0.8434
2990.000000 0.8458 0.8471 0.8486 0.8500 0.8514
2985.000000 0.8528 0.8543 0.8555 0.8568 0.8577
2980.000000 0.8587 0.8596 0.8606 0.8615 0.8625
2975.000000 0.8634 0.8644 0.8653 0.8663 0.8671
2970.000000 0.8680 0.8686 0.8692 0.8698 0.8704
2965.000000 0.8710 0.8717 0.8723 0.8728 0.8732
2960.000000 0.8736 0.8739 0.8742 0.8745 0.8770
2955.000000 0.8749 0.8751 0.8752 0.8754 0.8755
2950.000000 0.8757 0.8759 0.8761 0.8762 0.8764
2945.000000 0.8765 0.8767 0.8768 0.8770 0.8771
2940.000000 0.8773 0.8777 0.8782 0.8787 0.8792
2935.000000 0.8797 0.8802 0.8805 0.8808 0.8811
2930.000000 0.8814 0.8817 0.8820 0.8821 0.8825
2925.000000 0.8814 0.8804 0.8788 0.8773 0.8760
2920.000000 0.8747 0.8736 0.8725 0.8720 0.8721
2915.000000 0.8721 0.8727 0.8738 0.8749 0.8761
2910.000000 0.8773 0.8783 0.8793 0.8798 0.8804
2905.000000 0.8809 0.8815 0.8820 0.8825 0.8828
2900.000000 0.8833 0.8832 0.8832 0.8831 0.8831
2895.000000 0.8828 0.8828 0.8823 0.8818 0.8815
2890.000000 0.8812 0.8809 0.8807 0.8804 0.8802
2885.000000 0.8799 0.8797 0.8794 0.8791 0.8788
2880.000000 0.8786 0.8783 0.8781 0.8781 0.8781
2875.000000 0.8782 0.8783 0.8784 0.8786 0.8787
2870.000000 0.8788 0.8790 0.8793 0.8797 0.8801
2865.000000 0.8805 0.8810 0.8814 0.8818 0.8821
2860.000000 0.8827 0.8828 0.8828 0.8828 0.8827
2855.000000 0.8818 0.8812 0.8804 0.8797 0.8789
2850.000000 0.8782 0.8775 0.8768 0.8763 0.8759
2845.000000 0.8760 0.8762 0.8763 0.8764 0.8765
2840.000000 0.8766 0.8767 0.8768 0.8770 0.8771
2835.000000 0.8771 0.8773 0.8774 0.8775 0.8775
2830.000000 0.8777 0.8778 0.8778 0.8780 0.8781
2825.000000 0.8782 0.8783 0.8784 0.8785 0.8785
2820.000000 0.8785 0.8785 0.8785 0.8785 0.8785
2815.000000 0.8785 0.8785 0.8785 0.8785 0.8785
2810.000000 0.8785 0.8785 0.8785 0.8785 0.8785
2805.000000 0.8785 0.8785 0.8785 0.8786 0.8786
2800.000000 0.8787 0.8787 0.8788 0.8788 0.8788
2795.000000 0.8788 0.8789 0.8789 0.8790 0.8790
2790.000000 0.8791 0.8791 0.8791 0.8791 0.8791
2785.000000 0.8789 0.8788 0.8786 0.8785 0.8783
2780.000000 0.8782 0.8780 0.8778 0.8777 0.8775
2775.000000 0.8773 0.8771 0.8768 0.8767 0.8765
2770.000000 0.8763 0.8760 0.8758 0.8756 0.8754
2765.000000 0.8752 0.8750 0.8750 0.8750 0.8751
2760.000000 0.8752 0.8753 0.8755 0.8756 0.8758
2755.000000 0.8759 0.8760 0.8761 0.8763 0.8764
2750.000000 0.8766 0.8767 0.8768 0.8768 0.8771
2745.000000 0.8771 0.8774 0.8775 0.8775 0.8777
2740.000000 0.8778 0.8778 0.8780 0.8781 0.8782
2735.000000 0.8783 0.8784 0.8785 0.8786 0.8786
2730.000000 0.8787 0.8788 0.8789 0.8790 0.8791
2725.000000 0.8792 0.8793 0.8794 0.8795 0.8796
2720.000000 0.8797 0.8797 0.8798 0.8798 0.8798
2715.000000 0.8798 0.8799 0.8799 0.8799 0.8799
2710.000000 0.8799 0.8799 0.8799 0.8799 0.8800
2705.000000 0.8800 0.8800 0.8800 0.8800 0.8800
2700.000000 0.8801 0.8801 0.8801 0.8801 0.8802
2695.000000 0.8802 0.8803 0.8803 0.8803 0.8803
2690.000000 0.8804 0.8804 0.8805 0.8805 0.8805
2685.000000 0.8805 0.8806 0.8806 0.8806 0.8806
2680.000000 0.8807 0.8807 0.8808 0.8804 0.8800
2675.000000 0.8795 0.8790 0.8785 0.8780 0.8775
2670.000000 0.8770 0.8765 0.8761 0.8755 0.8750
2665.000000 0.8743 0.8737 0.8731 0.8725 0.8721
2660.000000 0.8717 0.8717 0.8718 0.8718 0.8718
2655.000000 0.8718 0.8718 0.8718 0.8718 0.8718
2650.000000 0.8718 0.8718 0.8720 0.8720 0.8720
2645.000000 0.8721 0.8723 0.8725 0.8728 0.8730
2640.000000 0.8733 0.8735 0.8738 0.8740 0.8743
2635.000000 0.8745 0.8748 0.8750 0.8753 0.8755
2630.000000 0.8757 0.8758 0.8760 0.8761 0.8763
2625.000000 0.8764 0.8764 0.8764 0.8763 0.8759
2620.000000 0.8755 0.8751 0.8748 0.8744 0.8741
2615.000000 0.8737 0.8734 0.8730 0.8727 0.8728
2610.000000 0.8730 0.8731 0.8733 0.8734 0.8736
2605.000000 0.8737 0.8738 0.8739 0.8739 0.8739
2600.000000 0.8738 0.8736 0.8734 0.8732 0.8731
2595.000000 0.8728 0.8727 0.8725 0.8725 0.8725
2590.000000 0.8727 0.8728 0.8730 0.8732 0.8734
2585.000000 0.8736 0.8738 0.8740 0.8742 0.8743
2580.000000 0.8745 0.8747 0.8749 0.8751 0.8753
2575.000000 0.8755 0.8757 0.8758 0.8760 0.8762
2570.000000 0.8764 0.8764 0.8764 0.8762 0.8760
2565.000000 0.8758 0.8756 0.8754 0.8752 0.8750
2560.000000 0.8748 0.8746 0.8744 0.8742 0.8740
2555.000000 0.8738 0.8737 0.8736 0.8735 0.8734
2550.000000 0.8733 0.8732 0.8731 0.8730 0.8728
2545.000000 0.8728 0.8727 0.8727 0.8727 0.8728
2540.000000 0.8728 0.8730 0.8732 0.8733 0.8734
2535.000000 0.8736 0.8738 0.8740 0.8743 0.8746
2530.000000 0.8749 0.8752 0.8755 0.8758 0.8761
2525.000000 0.8764 0.8767 0.8768 0.8771 0.8774
2520.000000 0.8775 0.8775 0.8777 0.8777 0.8777
2515.000000 0.8777 0.8777 0.8777 0.8778 0.8778
2510.000000 0.8778 0.8778 0.8778 0.8778 0.8778
2505.000000 0.8778 0.8778 0.8777 0.8777 0.8775
2500.000000 0.8775 0.8775 0.8775 0.8774 0.8774
2495.000000 0.8773 0.8771 0.8771 0.8771 0.8770
2490.000000 0.8770 0.8768 0.8768 0.8768 0.8768
2485.000000 0.8767 0.8767 0.8767 0.8767 0.8766
2480.000000 0.8766 0.8766 0.8766 0.8765 0.8765
2475.000000 0.8764 0.8764 0.8764 0.8764 0.8763
2470.000000 0.8763 0.8763 0.8763 0.8762 0.8762
2465.000000 0.8761 0.8761 0.8761 0.8761 0.8760
2460.000000 0.8760 0.8759 0.8759 0.8758 0.8758
2455.000000 0.8757 0.8757 0.8756 0.8756 0.8755
2450.000000 0.8755 0.8754 0.8753 0.8752 0.8752
2445.000000 0.8751 0.8751 0.8750 0.8750 0.8749
2440.000000 0.8749 0.8748 0.8748 0.8747 0.8747
2435.000000 0.8746 0.8746 0.8745 0.8744 0.8742
2430.000000 0.8741 0.8740 0.8739 0.8738 0.8737
2425.000000 0.8735 0.8734 0.8733 0.8732 0.8731
2420.000000 0.8730 0.8728 0.8727 0.8725 0.8725
2415.000000 0.8723 0.8721 0.8720 0.8718 0.8718
2410.000000 0.8717 0.8716 0.8715 0.8714 0.8713
2405.000000 0.8712 0.8712 0.8711 0.8711 0.8710
2400.000000 0.8709 0.8708 0.8708 0.8707 0.8706
2395.000000 0.8705 0.8704 0.8701 0.8698 0.8694
2390.000000 0.8694 0.8693 0.8696 0.8699 0.8703
2385.000000 0.8706 0.8710 0.8713 0.8717 0.8720
2380.000000 0.8724 0.8725 0.8728 0.8731 0.8733
2375.000000 0.8735 0.8737 0.8739 0.8742 0.8742
2370.000000 0.8742 0.8742 0.8741 0.8740 0.8739
2365.000000 0.8738 0.8737 0.8736 0.8735 0.8733
2360.000000 0.8732 0.8731 0.8730 0.8728 0.8728
2355.000000 0.8727 0.8725 0.8724 0.8723 0.8721
2350.000000 0.8720 0.8718 0.8717 0.8715 0.8713
2345.000000 0.8706 0.8699 0.8692 0.8685 0.8678
2340.000000 0.8671 0.8664 0.8658 0.8651 0.8644
2335.000000 0.8637 0.8631 0.8627 0.8624 0.8621
2330.000000 0.8618 0.8617 0.8616 0.8615 0.8614
2325.000000 0.8613 0.8612 0.8611 0.8611 0.8610
2320.000000 0.8609 0.8608 0.8607 0.8606 0.8606
2315.000000 0.8617 0.8628 0.8640 0.8652 0.8660
2310.000000 0.8668 0.8677 0.8686 0.8694 0.8703
2305.000000 0.8711 0.8718 0.8727 0.8736 0.8742
2300.000000 0.8749 0.8752 0.8755 0.8758 0.8762
2295.000000 0.8765 0.8768 0.8771 0.8774 0.8777
2290.000000 0.8781 0.8783 0.8786 0.8786 0.8787
2285.000000 0.8787 0.8788 0.8788 0.8787 0.8787
2280.000000 0.8786 0.8782 0.8778 0.8775 0.8771
2275.000000 0.8767 0.8763 0.8759 0.8756 0.8752
2270.000000 0.8748 0.8748 0.8749 0.8751 0.8753
2265.000000 0.8755 0.8757 0.8759 0.8761 0.8763
2260.000000 0.8765 0.8766 0.8767 0.8768 0.8770
2255.000000 0.8771 0.8771 0.8771 0.8771 0.8771
2250.000000 0.8770 0.8768 0.8766 0.8764 0.8762
2245.000000 0.8759 0.8757 0.8755 0.8753 0.8749
2240.000000 0.8745 0.8740 0.8736 0.8731 0.8727
2235.000000 0.8718 0.8718 0.8718 0.8725 0.8731
2230.000000 0.8738 0.8744 0.8751 0.8757 0.8764
2225.000000 0.8767 0.8771 0.8773 0.8775 0.8777
2220.000000 0.8780 0.8782 0.8785 0.8787 0.8790
2215.000000 0.8792 0.8794 0.8796 0.8799 0.8799
2210.000000 0.8800 0.8800 0.8801 0.8801 0.8802
2205.000000 0.8802 0.8803 0.8803 0.8804 0.8804
2200.000000 0.8805 0.8805 0.8806 0.8806 0.8806
2195.000000 0.8806 0.8806 0.8806 0.8806 0.8806
2190.000000 0.8806 0.8806 0.8806 0.8806 0.8806
2185.000000 0.8806 0.8806 0.8806 0.8806 0.8804
2180.000000 0.8802 0.8795 0.8788 0.8781 0.8774
2175.000000 0.8771 0.8768 0.8768 0.8768 0.8770
2170.000000 0.8774 0.8777 0.8781 0.8784 0.8788
2165.000000 0.8791 0.8795 0.8799 0.8803 0.8805
2160.000000 0.8807 0.8809 0.8811 0.8812 0.8814
2155.000000 0.8815 0.8817 0.8818 0.8821 0.8821
2150.000000 0.8824 0.8825 0.8828 0.8828 0.8831
2145.000000 0.8832 0.8834 0.8836 0.8838 0.8839
2140.000000 0.8839 0.8840 0.8840 0.8839 0.8839
2135.000000 0.8838 0.8838 0.8837 0.8837 0.8836
2130.000000 0.8835 0.8834 0.8834 0.8833 0.8833
2125.000000 0.8832 0.8832 0.8831 0.8831 0.8831
2120.000000 0.8831 0.8831 0.8832 0.8832 0.8833
2115.000000 0.8833 0.8834 0.8834 0.8835 0.8835
2110.000000 0.8836 0.8836 0.8837 0.8837 0.8838
2105.000000 0.8838 0.8839 0.8839 0.8840 0.8840
2100.000000 0.8841 0.8842 0.8843 0.8843 0.8844
2095.000000 0.8845 0.8846 0.8847 0.8848 0.8848
2090.000000 0.8849 0.8850 0.8851 0.8851 0.8852
2085.000000 0.8852 0.8853 0.8853 0.8853 0.8853
2080.000000 0.8854 0.8854 0.8855 0.8855 0.8856
2075.000000 0.8856 0.8857 0.8857 0.8858 0.8858
2070.000000 0.8859 0.8859 0.8860 0.8860 0.8861
2065.000000 0.8861 0.8862 0.8862 0.8863 0.8864
2060.000000 0.8865 0.8865 0.8866 0.8866 0.8867
2055.000000 0.8867 0.8868 0.8868 0.8868 0.8870
2050.000000 0.8871 0.8871 0.8871 0.8871 0.8873
2045.000000 0.8873 0.8874 0.8875 0.8875 0.8875
2040.000000 0.8875 0.8875 0.8877 0.8877 0.8877
2035.000000 0.8877 0.8878 0.8878 0.8878 0.8878
2030.000000 0.8878 0.8878 0.8878 0.8878 0.8878
2025.000000 0.8878 0.8878 0.8877 0.8877 0.8875
2020.000000 0.8875 0.8875 0.8875 0.8875 0.8875
2015.000000 0.8877 0.8878 0.8881 0.8884 0.8886
2010.000000 0.8889 0.8891 0.8893 0.8895 0.8897
2005.000000 0.8898 0.8899 0.8900 0.8901 0.8902
2000.000000 0.8904 0.8905 0.8906 0.8907 0.8902
1995.000000 0.8897 0.8878 0.8862 0.8843 0.8808
1990.000000 0.8767 0.8725 0.8687 0.8649 0.8642
1985.000000 0.8634 0.8628 0.8625 0.8623 0.8620
1980.000000 0.8618 0.8616 0.8615 0.8613 0.8612
1975.000000 0.8611 0.8606 0.8593 0.8580 0.8567
1970.000000 0.8555 0.8542 0.8528 0.8503 0.8477
1965.000000 0.8455 0.8423 0.8365 0.8306 0.8271
1960.000000 0.8264 0.8255 0.8268 0.8283 0.8298
1955.000000 0.8312 0.8344 0.8343 0.8342 0.8331
1950.000000 0.8291 0.8214 0.8121 0.8030 0.7939
1945.000000 0.7847 0.7755 0.7664 0.7601 0.7581
1940.000000 0.7647 0.7746 0.7844 0.7943 0.8041
1935.000000 0.8140 0.8241 0.8325 0.8366 0.8407
1930.000000 0.8441 0.8463 0.8486 0.8506 0.8517
1925.000000 0.8527 0.8538 0.8549 0.8560 0.8570
1920.000000 0.8581 0.8592 0.8602 0.8613 0.8624
1915.000000 0.8634 0.8641 0.8643 0.8644 0.8646
1910.000000 0.8648 0.8650 0.8651 0.8651 0.8639
1905.000000 0.8634 0.8628 0.8624 0.8618 0.8613
1900.000000 0.8608 0.8603 0.8597 0.8592 0.8586
1895.000000 0.8580 0.8575 0.8565 0.8544 0.8524
1890.000000 0.8465 0.8320 0.8230 0.8168 0.8142
1885.000000 0.8117 0.8086 0.8090 0.8091 0.8096
1880.000000 0.8121 0.8153 0.8190 0.8231 0.8267
1875.000000 0.8284 0.8270 0.8277 0.8263 0.8230
1870.000000 0.8156 0.8019 0.7884 0.7748 0.7611
1865.000000 0.7481 0.7475 0.7415 0.7535 0.7681
1860.000000 0.7825 0.7971 0.8043 0.8110 0.8176
1855.000000 0.8250 0.8328 0.8386 0.8410 0.8434
1850.000000 0.8458 0.8482 0.8503 0.8520 0.8538
1845.000000 0.8555 0.8570 0.8577 0.8584 0.8591
1840.000000 0.8595 0.8597 0.8599 0.8600 0.8592
1835.000000 0.8584 0.8575 0.8571 0.8563 0.8557
1830.000000 0.8551 0.8549 0.8549 0.8548 0.8547
1825.000000 0.8546 0.8545 0.8543 0.8541 0.8539
1820.000000 0.8537 0.8535 0.8533 0.8521 0.8503
1815.000000 0.8485 0.8468 0.8458 0.8450 0.8444
1810.000000 0.8438 0.8432 0.8428 0.8424 0.8421
1805.000000 0.8418 0.8413 0.8402 0.8391 0.8381
1800.000000 0.8335 0.8281 0.8224 0.8165 0.8108
1795.000000 0.8050 0.7992 0.7934 0.7875 0.7771
1790.000000 0.7784 0.7775 0.7780 0.7828 0.7898
1785.000000 0.7967 0.8037 0.8106 0.8175 0.8239
1780.000000 0.8281 0.8310 0.8324 0.8328 0.8334
1775.000000 0.8358 0.8382 0.8407 0.8430 0.8445
1770.000000 0.8459 0.8474 0.8489 0.8499 0.8507
1765.000000 0.8514 0.8521 0.8523 0.8524 0.8524
1760.000000 0.8525 0.8525 0.8525 0.8524 0.8524
1755.000000 0.8523 0.8521 0.8517 0.8511 0.8506
1750.000000 0.8500 0.8500 0.8500 0.8503 0.8496
1745.000000 0.8487 0.8475 0.8454 0.8432 0.8411
1740.000000 0.8390 0.8368 0.8334 0.8245 0.8164
1735.000000 0.8082 0.8001 0.7919 0.7798 0.7815
1730.000000 0.7838 0.7892 0.7946 0.7999 0.8053
1725.000000 0.8107 0.8160 0.8205 0.8241 0.8277
1720.000000 0.8314 0.8350 0.8383 0.8417 0.8443
1715.000000 0.8467 0.8490 0.8514 0.8532 0.8537
1710.000000 0.8542 0.8546 0.8547 0.8547 0.8545
1705.000000 0.8543 0.8540 0.8532 0.8524 0.8515
1700.000000 0.8515 0.8516 0.8521 0.8528 0.8536
1695.000000 0.8543 0.8551 0.8559 0.8565 0.8571
1690.000000 0.8578 0.8584 0.8590 0.8589 0.8585
1685.000000 0.8582 0.8578 0.8580 0.8584 0.8588
1680.000000 0.8592 0.8602 0.8612 0.8621 0.8631
1675.000000 0.8641 0.8642 0.8642 0.8642 0.8642
1670.000000 0.8642 0.8639 0.8636 0.8633 0.8630
1665.000000 0.8625 0.8621 0.8621 0.8621 0.8631
1660.000000 0.8641 0.8652 0.8663 0.8675 0.8685
1655.000000 0.8695 0.8705 0.8715 0.8684 0.8731
1650.000000 0.8731 0.8714 0.8691 0.8645 0.8581
1645.000000 0.8533 0.8486 0.8446 0.8406 0.8384
1640.000000 0.8389 0.8395 0.8401 0.8410 0.8421
1635.000000 0.8508 0.8557 0.8564 0.8561 0.8558
1630.000000 0.8553 0.8547 0.8516 0.8483 0.8439
1625.000000 0.8393 0.8341 0.8317 0.8299 0.8289
1620.000000 0.8288 0.8292 0.8328 0.8375 0.8417
1615.000000 0.8449 0.8481 0.8512 0.8528 0.8543
1610.000000 0.8548 0.8546 0.8541 0.8537 0.8523
1605.000000 0.8497 0.8468 0.8408 0.8348 0.8287
1600.000000 0.8225 0.8165 0.8082 0.7998 0.7265
1595.000000 0.6718 0.6173 0.5626 0.5079 0.4533
1590.000000 0.3986 0.3440 0.2893 0.2346 0.1800
1585.000000 0.1545 0.1517 0.1517 0.1591 0.2414
1580.000000 0.3191 0.3968 0.4746 0.5523 0.6300
1575.000000 0.6608 0.6639 0.6650 0.6662 0.6667
1570.000000 0.6655 0.6633 0.6621 0.6611 0.6584
1565.000000 0.6607 0.6631 0.6791 0.6912 0.7100
1560.000000 0.7286 0.7472 0.7658 0.7846 0.8032
1555.000000 0.8216 0.8302 0.8384 0.8447 0.8502
1550.000000 0.8540 0.8578 0.8592 0.8604 0.8617
1545.000000 0.8623 0.8627 0.8631 0.8634 0.8637
1540.000000 0.8640 0.8642 0.8644 0.8647 0.8647
1535.000000 0.8646 0.8645 0.8644 0.8642 0.8638
1530.000000 0.8634 0.8630 0.8625 0.8621 0.8616
1525.000000 0.8607 0.8597 0.8587 0.8577 0.8568
1520.000000 0.8541 0.8514 0.8487 0.8457 0.8423
1515.000000 0.8389 0.8346 0.8302 0.8262 0.8237
1510.000000 0.8216 0.8206 0.8196 0.8186 0.8162
1505.000000 0.8133 0.8025 0.7703 0.7549 0.7444
1500.000000 0.7350 0.7278 0.7228 0.7184 0.7140
1495.000000 0.7097 0.7047 0.6942 0.6837 0.6693
1490.000000 0.6542 0.6395 0.6128 0.5860 0.5101
1485.000000 0.4252 0.3403 0.2554 0.1704 0.0856
1480.000000 0.0067 0.0070 0.0060 0.0090 0.0812
1475.000000 0.1577 0.2342 0.3107 0.3872 0.4637
1470.000000 0.5402 0.6167 0.6932 0.7197 0.7267
1465.000000 0.7346 0.7468 0.7551 0.7614 0.7651
1460.000000 0.7676 0.7698 0.7737 0.7717 0.7718
1455.000000 0.7708 0.7688 0.7633 0.6406 0.4936
1450.000000 0.3466 0.1998 0.1244 0.1237 0.1236
1445.000000 0.1240 0.1428 0.2014 0.2600 0.3187
1440.000000 0.3773 0.4359 0.4945 0.5531 0.6118
1435.000000 0.6704 0.7290 0.7875 0.8117 0.8228
1430.000000 0.8305 0.8357 0.8364 0.8361 0.8357
1425.000000 0.8356 0.8356 0.8366 0.8380 0.8409
1420.000000 0.8437 0.8465 0.8487 0.8509 0.8532
1415.000000 0.8554 0.8571 0.8578 0.8588 0.8596
1410.000000 0.8603 0.8600 0.8596 0.8594 0.8591
1405.000000 0.8588 0.8585 0.8581 0.8575 0.8571
1400.000000 0.8567 0.8562 0.8558 0.8553 0.8549
1395.000000 0.8544 0.8535 0.8527 0.8518 0.8509
1390.000000 0.8494 0.8478 0.8464 0.8448 0.8428
1385.000000 0.8392 0.8364 0.8347 0.8337 0.8343
1380.000000 0.8356 0.8389 0.8420 0.8445 0.8458
1375.000000 0.8460 0.8454 0.8418 0.8305 0.8227
1370.000000 0.8157 0.8154 0.8128 0.8178 0.8278
1365.000000 0.8362 0.8405 0.8447 0.8478 0.8498
1360.000000 0.8517 0.8535 0.8554 0.8560 0.8566
1355.000000 0.8571 0.8577 0.8583 0.8586 0.8589
1350.000000 0.8593 0.8596 0.8599 0.8603 0.8605
1345.000000 0.8659 0.8608 0.8610 0.8612 0.8613
1340.000000 0.8615 0.8617 0.8618 0.8618 0.8620
1335.000000 0.8620 0.8621 0.8621 0.8618 0.8615
1330.000000 0.8595 0.8570 0.8537 0.8494 0.8450
1325.000000 0.8421 0.8416 0.8411 0.8397 0.8424
1320.000000 0.8435 0.8451 0.8468 0.8484 0.8501
1315.000000 0.8512 0.8523 0.8534 0.8545 0.8545
1310.000000 0.8545 0.8561 0.8562 0.8562 0.8561
1305.000000 0.8554 0.8547 0.8540 0.8524 0.8509
1300.000000 0.8488 0.8460 0.8325 0.8268 0.8256
1295.000000 0.8256 0.8257 0.8310 0.8357 0.8402
1290.000000 0.8425 0.8447 0.8467 0.8478 0.8488
1285.000000 0.8499 0.8497 0.8492 0.8488 0.8473
1280.000000 0.8453 0.8433 0.8398 0.8351 0.8292
1275.000000 0.8220 0.8162 0.8088 0.8141 0.8144
1270.000000 0.8154 0.8162 0.8194 0.8225 0.8260
1265.000000 0.8299 0.8338 0.8377 0.8402 0.8418
1260.000000 0.8437 0.8454 0.8471 0.8488 0.8505
1255.000000 0.8520 0.8535 0.8550 0.8564 0.8578
1250.000000 0.8594 0.8607 0.8618 0.8630 0.8633
1245.000000 0.8624 0.8613 0.8651 0.8537 0.8503
1240.000000 0.8477 0.8456 0.8434 0.8416 0.8398
1235.000000 0.8389 0.8387 0.8387 0.8387 0.8388
1230.000000 0.8449 0.8503 0.8527 0.8551 0.8571
1225.000000 0.8584 0.8597 0.8610 0.8623 0.8628
1220.000000 0.8628 0.8628 0.8621 0.8606 0.8591
1215.000000 0.8573 0.8556 0.8538 0.8513 0.8487
1210.000000 0.8433 0.8371 0.8311 0.8263 0.8245
1205.000000 0.8268 0.8282 0.8301 0.8331 0.8368
1200.000000 0.8390 0.8405 0.8421 0.8436 0.8436
1195.000000 0.8436 0.8431 0.8425 0.8420 0.8414
1190.000000 0.8404 0.8378 0.8354 0.8330 0.8286
1185.000000 0.8240 0.8195 0.8151 0.8119 0.8087
1180.000000 0.8056 0.8024 0.7993 0.7980 0.7965
1175.000000 0.7953 0.7940 0.7925 0.7912 0.7899
1170.000000 0.7885 0.7849 0.7854 0.7835 0.7837
1165.000000 0.7851 0.7868 0.7883 0.7899 0.7914
1160.000000 0.7928 0.7940 0.7951 0.7962 0.7968
1155.000000 0.7971 0.7975 0.7980 0.7990 0.8006
1150.000000 0.8021 0.8038 0.8054 0.8075 0.8097
1145.000000 0.8118 0.8141 0.8164 0.8186 0.8208
1140.000000 0.8221 0.8232 0.8236 0.8240 0.8241
1135.000000 0.8275 0.8235 0.8224 0.8212 0.8143
1130.000000 0.8058 0.7946 0.7474 0.6999 0.6522
1125.000000 0.6048 0.5891 0.5891 0.5982 0.6155
1120.000000 0.6328 0.6501 0.6614 0.6707 0.6853
1115.000000 0.6991 0.7101 0.7210 0.7325 0.7444
1110.000000 0.7533 0.7622 0.7638 0.7650 0.7650
1105.000000 0.7651 0.7635 0.7607 0.7548 0.7442
1100.000000 0.7301 0.7134 0.6641 0.6370 0.5651
1095.000000 0.5490 0.5385 0.5264 0.5120 0.4977
1090.000000 0.4368 0.3590 0.2813 0.2034 0.1257
1085.000000 0.0480 0.0450 0.0448 0.0640 0.1181
1080.000000 0.1723 0.2264 0.2806 0.3347 0.3889
1075.000000 0.4430 0.4972 0.5512 0.6054 0.6153
1070.000000 0.6148 0.6142 0.5620 0.4456 0.4543
1065.000000 0.4466 0.4724 0.5181 0.5639 0.6096
1060.000000 0.6554 0.7011 0.7468 0.7710 0.7826
1055.000000 0.7928 0.8031 0.8095 0.8142 0.8190
1050.000000 0.8224 0.8254 0.8285 0.8309 0.8323
1045.000000 0.8334 0.8338 0.8342 0.8346 0.8346
1040.000000 0.8346 0.8341 0.8336 0.8331 0.8312
1035.000000 0.8287 0.8262 0.8237 0.8183 0.8128
1030.000000 0.8075 0.7999 0.7890 0.7782 0.7471
1025.000000 0.7082 0.2504 0.0450 0.0458 0.0698
1020.000000 0.1854 0.3012 0.4168 0.5325 0.6481
1015.000000 0.7162 0.7236 0.7338 0.7374 0.7387
1010.000000 0.7446 0.7636 0.7825 0.7928 0.7937
1005.000000 0.7944 0.7944 0.7665 0.6737 0.5680
1000.000000 0.5682 0.5815 0.6243 0.6671 0.7099
995.000000 0.7525 0.7954 0.8139 0.8164 0.8188
990.000000 0.8213 0.8221 0.8231 0.8239 0.8247
985.000000 0.8246 0.8245 0.8245 0.8244 0.8232
980.000000 0.8218 0.8204 0.8191 0.8167 0.8142
975.000000 0.8117 0.8095 0.8114 0.8128 0.8141
970.000000 0.8153 0.8165 0.8178 0.8178 0.8178
965.000000 0.8165 0.8161 0.8158 0.8151 0.8146
960.000000 0.8140 0.8134 0.8136 0.8138 0.8140
955.000000 0.8144 0.8157 0.8171 0.8185 0.8199
950.000000 0.8211 0.8224 0.8236 0.8245 0.8253
945.000000 0.8262 0.8267 0.8271 0.8289 0.8275
940.000000 0.8260 0.8234 0.8207 0.8168 0.8124
935.000000 0.8090 0.7961 0.7833 0.7704 0.7583
930.000000 0.7575 0.7597 0.7622 0.7693 0.7839
925.000000 0.7993 0.8057 0.8115 0.8165 0.8218
920.000000 0.8213 0.8208 0.8205 0.8202 0.8199
915.000000 0.8197 0.8194 0.8205 0.8191 0.8189
910.000000 0.8187 0.8184 0.8181 0.8168 0.8139
905.000000 0.8108 0.8044 0.7981 0.7815 0.7626
900.000000 0.6183 0.4910 0.4912 0.5085 0.5384
895.000000 0.5684 0.5984 0.6283 0.6583 0.6883
890.000000 0.7183 0.7482 0.7782 0.8082 0.8121
885.000000 0.8158 0.8187 0.8212 0.8237 0.8262
880.000000 0.8278 0.8285 0.8292 0.8299 0.8305
875.000000 0.8312 0.8318 0.8323 0.8323 0.8324
870.000000 0.8324 0.8325 0.8325 0.8325 0.8321
865.000000 0.8315 0.8309 0.8303 0.8299 0.8313
860.000000 0.8328 0.8343 0.8357 0.8371 0.8387
855.000000 0.8402 0.8417 0.8432 0.8447 0.8459
850.000000 0.8468 0.8478 0.8487 0.8492 0.8492
845.000000 0.8492 0.8492 0.8491 0.8486 0.8463
840.000000 0.8441 0.8418 0.8395 0.8366 0.8337
835.000000 0.8308 0.8280 0.8253 0.8225 0.8199
830.000000 0.8172 0.8161 0.8151 0.8140 0.8125
825.000000 0.8128 0.8128 0.8132 0.8136 0.8161
820.000000 0.8188 0.8214 0.8241 0.8264 0.8286
815.000000 0.8308 0.8328 0.8351 0.8368 0.8382
810.000000 0.8397 0.8412 0.8425 0.8441 0.8456
805.000000 0.8470 0.8482 0.8494 0.8506 0.8517
800.000000 0.8528 0.8536 0.8541 0.8545 0.8550
795.000000 0.8555 0.8559 0.8564 0.8564 0.8562
790.000000 0.8560 0.8558 0.8556 0.8554 0.8552
785.000000 0.8540 0.8547 0.8543 0.8539 0.8535
780.000000 0.8531 0.8527 0.8523 0.8518 0.8515
775.000000 0.8511 0.8499 0.8486 0.8473 0.8459
770.000000 0.8446 0.8433 0.8409 0.8383 0.8357
765.000000 0.8332 0.8306 0.8280 0.8252 0.8201
760.000000 0.8149 0.8098 0.8047 0.7996 0.7918
755.000000 0.7801 0.7268 0.7004 0.6704 0.6451
750.000000 0.6284 0.6044 0.5812 0.5712 0.4433
745.000000 0.3090 0.1746 0.0404 0.0088 0.0081
740.000000 0.0076 0.0032 0.0067 0.0063 0.0071
735.000000 0.0132 0.0207 0.0760 0.1369 0.1978
730.000000 0.2585 0.3195 0.3804 0.4412 0.5021
725.000000 0.5629 0.6238 0.6587 0.6665 0.6743
720.000000 0.6833 0.7164 0.7306 0.7365 0.7404
715.000000 0.7412 0.7441 0.7421 0.7415 0.7375
710.000000 0.7310 0.7178 0.6984 0.6736 0.6071
705.000000 0.4567 0.3062 0.1558 0.0381 0.0366
700.000000 0.0365 0.1126 0.2334 0.3544 0.4753
695.000000 0.5783 0.5881 0.5966 0.6005 0.5995
690.000000 0.6001 0.5967 0.4817 0.3509 0.2204
685.000000 0.0897 0.0189 0.0217 0.0227 0.0339
680.000000 0.1427 0.2514 0.3600 0.4689 0.5776
675.000000 0.6628 0.6756 0.6883 0.6983 0.7083
670.000000 0.7182 0.7341 0.7535 0.7668 0.7739
665.000000 0.7783 0.7819 0.7849 0.7868 0.7884
660.000000 0.7895 0.7817 0.7737 0.7690 0.7686
655.000000 0.7778 0.7887 0.7994 0.8101 0.8208
650.000000 0.8304 0.8365 0.8425 0.8487 0.8538
645.000000 0.8561 0.8585 0.8609 0.8633 0.8657
640.000000 0.8678 0.8697 0.8715 0.8734 0.8748
635.000000 0.8760 0.8773 0.8785 0.8827 0.8809
630.000000 0.8817 0.8825 0.8835 0.8843 0.8852
625.000000 0.8859 0.8865 0.8870 0.8875 0.8882
620.000000 0.8887 0.8890 0.8892 0.8894 0.8897
615.000000 0.8839 0.8748 0.8656 0.8564 0.8523
610.000000 0.8541 0.8525 0.8566 0.8608 0.8651
605.000000 0.8694 0.8736 0.8778 0.8821 0.8864
600.000000 0.8907 0.8925 0.8935 0.8944 0.8953
595.000000 0.8962 0.8970 0.8980 0.8991 0.9002
590.000000 0.9015 0.9028 0.9044 0.9059 0.9071
585.000000 0.9084 0.9097 0.9099 0.9100 0.9101
580.000000 0.9100 0.9097 0.9094 0.9094 0.9093
575.000000 0.9099 0.9105 0.9111 0.9117 0.9123
570.000000 0.9128 0.9135 0.9142 0.9149 0.9155
565.000000 0.9162 0.9168 0.9175 0.9181 0.9185
560.000000 0.9188 0.9192 0.9196 0.9200 0.9203
555.000000 0.9203 0.9202 0.9200 0.9199 0.9197
550.000000 0.9193 0.9187 0.9181 0.9175 0.9168
545.000000 0.9163 0.9157 0.9155 0.9153 0.9152
540.000000 0.9150 0.9148 0.9146 0.9145 0.9145
535.000000 0.9144 0.9144 0.9143 0.9143 0.9142
530.000000 0.9141 0.9138 0.9135 0.9133 0.9130
525.000000 0.9127 0.9124 0.9121 0.9118 0.9115
520.000000 0.9112 0.9110 0.9107 0.9104 0.9100
515.000000 0.9096 0.9092 0.9089 0.9085 0.9081
510.000000 0.9077 0.9074 0.9070 0.9066 0.9063
505.000000 0.9061 0.9058 0.9056 0.9053 0.9051
500.000000 0.9048 0.9046 0.9044 0.9041 0.9039
495.000000 0.9036 0.9033 0.9031 0.9028 0.9025
490.000000 0.9021 0.9015 0.9009 0.9002 0.8996
485.000000 0.8989 0.8980 0.8959 0.8937 0.8916
480.000000 0.8890 0.8857 0.8824 0.8791 0.8740
475.000000 0.8687 0.8635 0.8582 0.8510 0.8433
470.000000 0.8357 0.8280 0.8139 0.7945 0.2192
465.000000 0.2200 0.2423 0.3005 0.3587 0.4168
460.000000 0.4750 0.5331 0.5912 0.6492 0.6630
455.000000 0.6760 0.6880 0.6941 0.6988 0.7026
450.000000 0.7053 0.7078 0.7098 0.7108 0.7119
445.000000 0.7131 0.7134 0.7141
##END=
