##TITLE=Vinyl Acetate
##JCAMP-DX=4.24
##DATA TYPE=INFRARED SPECTRUM
##CLASS=IUPAC A
##ORIGIN=NIST, Anayltical Chemistry Division, 301-975-3108
##OWNER=COPYRIGHT (C) 1998 by the U.S. Secretary of Commerce
##DATE=98/10/1
##$SPECTRA VERSION=1.00
##$UNCERTAINTY IN Y=2.1 % relative (B=1.1E-04,C=7.7E-10,D=2.7E-14)
##CAS NAME=Ethenyl Ester-Acetic Acid
##CAS REGISTRY NO=108-05-4
##MOLFORM=C H3 C O2 C H: C H2
##MP=-93.2 C
##BP=72.2 C
##$NIST SOURCE=QUANT-IR
##SPECTROMETER/DATA SYSTEM=IFS66V (Bruker)
##INSTRUMENT PARAMETERS=KBr Beam splitter; MCT Detector; Multipass cell
##STATE=gas
##SAMPLE DESCRIPTION=Vinyl Acetate Primary Gas Standard
##PRESSURE=101.3 kPa
##TEMPERATURE=23 C
##SAMPLING PROCEDURE=1 L/min Flow
##RESOLUTION=1.9290
##DATA PROCESSING=Boxcar Apodization
##XUNITS=cm-1
##YUNITS=(micromol/mol)-1m-1 (base 10)
##XFACTOR=1.0
##YFACTOR=18.189E-13
##DELTAX=0.9645
##FIRSTX=574.687
##LASTX=3974.595
##FIRSTY=.0000104
##MAXX=3973.63
##MINX=574.69
##MAXY=.0028113
##MINY=-1.47E-06
##NPOINTS=3527
##XYDATA=(X++(Y..Y))
574.69 5729424 6350554 6972020 7660328 7771356 8448114
579.51 9050814 9582690 10052850 10452850 11055140 11414440
585.29 11938330 14477440 15248900 15406540 16893940 18596540
591.08 20961060 20581230 20453290 19569540 18524670 17288070
596.86 16929030 15988950 15947980 15690160 15882800 15881350
602.65 16117230 16179400 16613290 16739500 17165540 17570940
608.44 17935570 18114600 18510800 18648730 18976790 18882390
614.22 18964770 18992520 18810400 18721780 18872930 18770030
620.01 19083340 19389940 19967950 20453790 21375600 22207550
625.79 23150740 23859820 24767950 25057320 25491690 25359110
631.58 25017190 24191100 23591390 23052420 22989180 22992910
637.36 23803900 23046310 22764690 22870220 22976370 23015500
643.15 22701270 22192280 21640880 20516150 19634050 18391700
648.93 17432820 16166140 15279380 14046600 13225230 12194780
654.72 11457340 10699970 10092110 9250250 8664476 7873738
660.50 7334492 6638104 6160022 5576562 5136566 4550848
666.29 4291428 3839972 3632588 3249112 3100020 2859146
672.08 2878674 2617774 2632752 2549002 2538342 2510836
677.86 2674262 2622740 2797266 2728248 3000064 2953248
683.65 3224068 3276284 3503366 3602416 3809412 3874546
689.43 4138510 4229524 4454638 4609136 4968370 5016820
695.22 5260426 5350954 5709804 5966788 5738788 5683044
701.00 5739756 5677140 5875502 5920454 5912810 5896776
706.79 6020418 5895442 6062044 6113208 6324494 6533054
712.57 6734138 6596492 6641518 6597930 6388378 6146036
718.36 5889746 5584392 5290072 4948924 4864174 4650870
724.14 4634030 4500158 4465156 4208508 4191058 4009576
729.93 3993990 3844436 3826474 3660830 3638460 3530556
735.71 3481834 3320610 3332468 3182820 3213310 3033044
741.50 3110304 3042240 3136062 3001202 3085050 3056264
747.29 3148812 3113330 3251392 3178818 3317652 3234818
753.07 3367860 3300412 3485500 3430370 3582462 3510538
758.86 3670480 3724692 3905948 3881330 4102244 4097972
764.64 4297314 4335632 4609324 4656710 4879646 4877834
770.43 5135338 5133548 5336756 5320588 5435846 5381490
776.21 5493384 5373772 5420878 5276132 5344952 5251792
782.00 5349066 5235576 5308732 5185324 5260992 5125088
787.78 5192152 5061288 5064558 4977404 4997852 4858502
793.57 4911742 4836220 4958480 4869492 4999476 4857922
799.35 5035382 5007320 5137084 5126254 5329458 5254022
805.14 5477022 5443166 5676028 5680720 5958314 6045448
810.93 6414002 6596824 6976068 7188616 7645138 7809338
816.71 8335640 8577358 9153984 9400000 10071070 10441070
822.50 11285810 11770680 12754320 13518120 14589090 15539000
828.28 16890000 18010390 19764800 21339320 23415710 25469730
834.07 28063600 30596500 33808890 36622330 39780740 42351280
839.85 44940500 46557180 48006780 48615880 49406710 50801970
845.64 53777380 55061100 56794900 58906800 62511070 66691340
851.42 71542020 76025400 80593020 83865570 86696340 87580500
857.21 88049220 87206550 86721090 85443140 85070040 83512020
862.99 83772080 83358820 86357220 89286410 97276220 105266700
868.78 135887400 168844400 158207100 143904000 129608700 119293900
874.57 107899400 99238250 92863780 89077780 86433740 84840130
880.35 82958100 81551990 79644550 77786520 75440980 73054980
886.14 69797990 66508200 62648120 58651590 54709930 50553880
891.92 46431070 42142090 38034420 34163460 30582550 27148730
897.71 24133820 21339480 18918380 16722650 14858660 13217050
903.49 11883780 10615890 9757184 8834258 8290986 7750226
909.28 7495374 7177604 7189110 7090736 7310348 7461420
915.06 7924162 8302966 9016012 9577508 10525810 11333130
920.85 12576970 13673220 15228090 16613510 18524070 20229500
926.63 22474920 24498690 26988490 29175240 31721640 33890370
932.42 36307220 38241970 40414480 42028530 43954620 45442120
938.21 47629600 49583370 52341660 54778060 57996350 60721440
943.99 64046460 65817840 68179950 69031500 70285600 70634160
949.78 72308600 72610100 75636060 77406820 82498450 85166790
955.56 86867010 83585690 78859620 65649490 56399610 58388600
961.35 57567330 59985810 60760220 62871520 64079600 66257550
967.13 67115870 68142060 67790370 66884060 64631650 62158260
972.92 59528720 57887730 58260060 57640640 54759650 53988150
978.70 52024110 53380300 55225630 57355950 57769880 57099850
984.49 54900280 52025960 48109910 44536510 41306510 38833520
990.27 36994890 35996210 35646330 36103000 36927890 38391380
996.06 40263770 42511860 45144590 48208170 51703280 55685910
1001.85 60185860 65189420 70876280 77191820 84239600 91703210
1007.63 100274900 109439700 119525800 129746500 140927900 151568800
1013.42 162247900 171497400 179926100 185853400 190246000 191522200
1019.20 191993100 189893700 188682700 188160500 188854100 185523400
1024.99 193502100 186719300 170790300 173444900 172296200 169947100
1030.77 163967200 155118000 142948100 130030700 115688900 102192500
1036.56 88851420 78448620 69050380 62037760 55826630 51630010
1042.34 47759050 45330880 42914040 41895740 40907900 41795740
1048.13 42055580 39517480 38418430 37833070 37066940 36531870
1053.91 35831220 35334700 34846810 34596340 34200240 33980260
1059.70 33670330 33554680 33222290 33114670 32739880 32483910
1065.48 32093180 31794020 31209940 30889400 30306050 29929180
1071.27 29284550 28961300 28379360 28058980 27487940 27072760
1077.06 26437740 26058700 25441660 25010420 24490550 24036700
1082.84 23422260 22933260 22277910 21845660 21218040 20874980
1088.63 20298080 19895150 19396260 19047240 18499370 18142720
1094.41 17650360 17347600 16972190 16787120 16496000 16382240
1100.20 16176320 16179190 16043870 16096060 16082160 16232270
1105.98 16251840 16455350 16509710 16822970 16911020 17268860
1111.77 17541840 18019190 18446090 19098960 19704940 20713660
1117.55 21732120 23185620 24689740 26774370 28841350 31818910
1123.34 34881250 38919000 43857560 50491120 59071780 71001130
1129.12 86827640 108217200 135083600 168163000 205803400 250538200
1134.91 300599800 354308800 406403200 453698000 489542900 511498600
1140.70 516204200 504004700 479929800 459032900 453575300 475261200
1146.48 510412800 532406100 511270600 473382100 473034800 507731900
1152.27 542652500 546283100 523697800 475366700 413484600 341977000
1158.05 273542800 210617100 158636900 116948100 86871250 64898300
1163.84 50740660 40844140 35230380 31019180 29096370 27192820
1169.62 26702150 25754380 25904260 25532540 26127360 26338120
1175.41 27256060 27615250 28936960 29785700 31677760 32989870
1181.19 35263680 37061490 39909440 42154860 45332780 47966280
1186.98 51469690 54309770 58233500 61560050 66216520 70849480
1192.76 77525450 84947680 95349240 107662300 122700600 137862200
1198.55 158699900 184139900 214849400 248626200 288183100 331673000
1204.34 381425000 436527200 499211700 568753000 647404000 732525000
1210.12 827933100 929695200 1038449000 1144549000 1249058000 1341156000
1215.91 1417362000 1473058000 1508354000 1518899000 1511525000 1496677000
1221.69 1487624000 1475760000 1520328000 1545581000 1454723000 1402604000
1227.48 1396148000 1426301000 1435335000 1409751000 1331151000 1209057000
1233.26 1055081000 893681900 734554200 594362500 475905200 383983500
1239.05 314018000 264735200 229041200 205331700 187619500 175304800
1244.83 163992600 154991100 145444500 137835400 130324800 126234400
1250.62 124879100 125354800 118885300 110663400 106661000 107099800
1256.40 108638200 109586400 107510700 102655800 94951440 86008940
1262.19 75966540 66861860 58180710 51388270 45452380 41135730
1267.98 37459110 35077660 32936550 31634450 30316850 29920780
1273.76 29592130 29960200 30303020 31413440 32904600 35539060
1279.55 38696280 43040880 47987120 54195660 60931710 68426950
1285.33 75716790 82705430 87672140 91475990 92894350 92994530
1291.12 92316530 92278660 94601140 94701890 95350180 94767240
1296.90 93928530 93934300 93748020 94079350 93563470 92465840
1302.69 89392980 84692270 78072550 70539530 62283260 54221630
1308.47 46464080 39731340 33701090 28859850 24646650 21459530
1314.26 18700950 16669650 14796430 13539910 12254160 11447570
1320.04 10544090 9963224 9275198 8929042 8358088 8151762
1325.83 7712794 7596534 7234432 7197686 6935052 6967668
1331.61 6784296 6865646 6710606 6845924 6734510 6949860
1337.40 6885978 7156728 7217960 7618440 7842868 8426180
1343.19 8755084 9451666 10065610 11055080 11914520 13268490
1348.97 14547210 16332670 18183090 20749080 23453650 27058520
1354.76 31095180 36327390 42094670 49493270 57933500 68198390
1360.54 79587890 92839140 106776200 121847300 136493800 151062000
1366.33 164000200 175180200 183030500 189928800 193384100 198273600
1372.11 207679000 224115600 220816800 215866300 220112000 227418200
1377.90 238004500 245773000 248306000 243828300 234422400 219977600
1383.68 203603000 185798400 168279600 153977900 140565700 126497800
1389.47 113442300 100954100 91070440 82715900 75223980 67797190
1395.25 60890040 53946890 47696940 41740120 36748940 32266870
1401.04 28485070 25161330 22560520 20322090 18806180 17538000
1406.83 16630590 15906280 15506270 15159420 15056120 14989550
1412.61 15088560 15185180 15353700 15501290 15724960 15933790
1418.40 15892350 16334780 16625640 16794090 17049110 17242470
1424.18 17710520 18126370 18699460 19305070 20013670 20810220
1429.97 21447660 21652330 21934370 22041920 22217770 22164100
1435.75 21574730 21347970 20745820 20218250 19860520 19526970
1441.54 19549940 19674690 19818360 19992360 20007930 19843000
1447.32 19584470 19351160 18958020 18587280 18162520 17721780
1453.11 17246350 16912570 16403100 15677710 15808360 15367750
1458.89 15104190 14538160 14176840 13793410 13509240 13054890
1464.68 12960090 12814000 12616620 12493480 12343460 12252650
1470.47 11995750 11866770 11795080 11755810 11743490 11426650
1476.25 11471330 11334840 11271980 11091610 10960050 10762160
1482.04 10654600 10514920 10404750 10229600 10059290 9907358
1487.82 9856462 9553516 9468928 9357136 9311332 9117254
1493.61 9094890 8867040 8643216 8854286 8638596 8572416
1499.39 8649398 8526568 8573642 8372850 8417668 8013130
1505.18 7926030 7771838 8050792 8027362 8030832 8020844
1510.96 7937098 7865624 7931438 7758938 7783780 7579370
1516.75 7586588 7563256 7508926 7156792 7012660 7130802
1522.53 7077794 7056284 6807584 6862958 6786688 6703384
1528.32 6664136 6615826 6514192 6444294 6288628 6162066
1534.11 6295530 6172986 6194358 6021716 5659338 5654426
1539.89 5894168 5771936 5898034 6098050 6016550 6112750
1545.68 6358012 6414476 6611088 6691742 6902364 7152028
1551.46 7369824 7563710 7543718 8018838 8255492 8358380
1557.25 8230744 8660264 8690668 9193252 9508620 9533290
1563.03 9777102 9663854 9885966 9840310 10192730 10330580
1568.82 10044780 10352070 10548610 10796070 11004560 11299430
1574.60 11202330 11127110 11802980 11684420 11887080 11802120
1580.39 11944740 11858360 11964380 11867240 12056010 12035870
1586.17 12213370 12132250 12275760 12183830 12297210 12238640
1591.96 12362450 12290850 12403040 12343850 12478370 12380670
1597.74 12519800 12422380 12539910 12514500 12767970 12861990
1603.53 13253010 13361140 13696080 13903160 14370810 14542340
1609.32 15076710 15432800 16088740 16634250 17311980 17848110
1615.10 18600910 19011480 20330790 20775270 21746110 22056190
1620.89 22767360 22909980 23605360 24198810 25173510 25527950
1626.67 25905760 26751140 28773200 30960650 34052830 36272250
1632.46 40214530 45178120 51898670 60523210 71860360 84929480
1638.24 101824700 120438400 142813800 166091900 191667400 215084500
1644.03 236917100 247286200 254367000 249345800 238446700 222720900
1649.81 220442900 240197500 292575100 289537400 219857100 210125400
1655.60 232302100 265176800 287241100 295339000 284433600 260412600
1661.38 225202300 187639600 150240200 117224900 89793570 69167460
1667.17 53653220 43036840 35480860 30541890 26444850 23831840
1672.96 21262250 19326870 17428050 16420100 14862860 14015770
1678.74 12820360 12193420 11399410 10872910 10215110 9559850
1684.53 9349720 9666706 9109628 9251494 8930464 9110746
1690.31 8900462 9173218 8923040 9089264 8514096 8096632
1696.10 8370856 8235486 8237376 7977498 8074094 8184910
1701.88 7692254 7637464 7534032 7778906 7635378 7798424
1707.67 7504398 7399606 7011770 6897224 6536808 6498470
1713.45 6257270 6297326 6420876 6212810 6449764 6671506
1719.24 6634510 6792942 6885108 7215488 7488934 7969954
1725.02 8330842 8870422 9346852 10049750 10613170 11423590
1730.81 12181680 12804810 13167980 13800250 14361870 14783720
1736.60 14842170 15302790 15623720 16835810 17979920 19402340
1742.38 21599130 24438660 27170960 29935240 32642110 35591900
1748.17 38599470 42208170 46046970 50989880 56719610 63352610
1753.95 70992930 79592670 88979410 99686850 111213000 123871900
1759.74 137914600 153333300 170947700 190340100 211683100 235508500
1765.52 262593100 293710200 328907400 370232800 413524500 461848300
1771.31 513085900 567703200 622521300 668972700 706247600 728362900
1777.09 731878900 714295500 677362900 626844500 576783500 545365200
1782.88 532758900 511307200 524528100 600388300 697192900 775260700
1788.66 814583600 813426600 780853500 726433600 661329200 593274900
1794.45 524812700 462476900 405986100 357575700 315283100 279640800
1800.24 249310500 223355100 200113400 178304900 157317500 138595700
1806.02 121907500 106840900 92693960 79893150 68244150 58436120
1811.81 49843600 42655850 36296350 31140860 26680650 23205580
1817.59 20297080 18133070 16258080 14996770 13865930 13182370
1823.38 12605710 12245690 11900830 11713060 11576200 11550980
1829.16 11403730 11489840 11325880 11211800 10924760 10727760
1834.95 10426510 10238790 9985234 9938446 9798350 9909160
1840.73 9886096 10112500 10099290 10310390 10687860 10957340
1846.52 11194260 11499600 11749850 11995210 12196340 12461400
1852.30 12707810 13038420 13294950 13648860 13914740 14289690
1858.09 14579070 14933860 15172740 15450060 15615710 15789300
1863.88 15813420 15828080 15671710 15579310 15343950 15317370
1869.66 15216830 15064820 14802090 14470880 14153040 13969080
1875.45 13806910 13601020 13233020 12809630 12190870 11566900
1881.23 10852450 10221610 9605232 9138824 8729104 8454676
1887.02 8219844 8079740 7928146 7956578 7934354 7950630
1892.80 7959416 8008078 8037768 8132588 8050782 8065282
1898.59 8006810 7932102 7803120 7609246 7367934 7229124
1904.37 7045614 6883150 6496678 6346640 6411496 6076180
1910.16 5607302 5609256 5392326 5226368 4919746 4603690
1915.94 4190972 3799716 3500156 3268130 2974792 2829116
1921.73 2619824 2561128 2456808 2421362 2350886 2367820
1927.51 2323248 2360080 2322900 2375408 2346632 2396334
1933.30 2400806 2463640 2481696 2565706 2573932 2672256
1939.09 2686640 2771452 2760878 2815600 2847870 2861552
1944.87 2839408 2858546 2824306 2823036 2817420 2825202
1950.66 2808012 2882520 2904032 2977662 2986844 3040466
1956.44 3020318 3046636 2993654 2969690 2890204 2834022
1962.23 2757478 2715788 2631924 2629518 2565574 2579406
1968.01 2576596 2595688 2628942 2709644 2775660 2923872
1973.80 3044004 3237142 3450254 3715614 3989242 4358414
1979.58 4717100 5161916 5558780 6012944 6377628 6741988
1985.37 6982174 7176322 7207604 7195276 7104916 7100048
1991.15 7210756 7574106 7857258 7741194 7298204 7317148
1996.94 7530338 7791434 7859432 7773740 7376922 6853180
2002.73 6154154 5478216 4817884 4284060 3834954 3533310
2008.51 3300348 3176348 3060968 3029400 2961512 2960988
2014.30 2924958 2945772 2915832 2925752 2913042 2948080
2020.08 2975256 2983730 2906652 2893920 2884752 2900172
2025.87 2896916 2932984 2928176 2943192 2955954 2987010
2031.65 2987882 3027686 3059470 3137572 3212256 3318578
2037.44 3402252 3559850 3718360 3924024 4164410 4470932
2043.22 4774898 5130106 5510998 5962814 6441736 7006608
2049.01 7568866 8204204 8871024 9577820 10301250 11080680
2054.79 11772910 12488200 13096380 13681350 14171030 14584520
2060.58 14836480 15061520 15166160 15317000 15576070 15716100
2066.37 15445740 15262950 15202290 15168440 15001840 14704310
2072.15 14182890 13483420 12576050 11599250 10518780 9464044
2077.94 8474128 7588564 6797016 6129882 5558334 5114582
2083.72 4728720 4434046 4161538 3999324 3803576 3702766
2089.51 3544510 3473894 3376890 3320858 3213320 3169900
2095.29 3118292 3087124 3054386 3025734 3049114 3064606
2101.08 3072074 3093818 3131892 3221884 3275924 3354420
2106.86 3419180 3541684 3594952 3681794 3703374 3836222
2112.65 3865672 3943476 3914106 3977122 3957642 3950884
2118.43 3859648 3877360 3885282 3930580 3992094 3983470
2124.22 3943488 3934662 3937510 3983144 3975492 3889472
2130.01 3696066 3472772 3210836 2966262 2683650 2496444
2135.79 2342774 2233822 2159268 2143386 2132622 2131712
2141.58 2153824 2189442 2218240 2265844 2277292 2315638
2147.36 2336744 2359814 2361532 2380710 2388260 2430360
2153.15 2410432 2449360 2488038 2512786 2503512 2551402
2158.93 2583604 2619892 2609108 2662834 2683942 2676830
2164.72 2618608 2640920 2627614 2580270 2538322 2563900
2170.50 2548640 2501070 2498792 2550752 2421666 2368508
2176.29 2339126 2329604 2239136 2157842 2091234 1983668
2182.07 1835590 1746598 1656340 1564630 1482628 1461670
2187.86 1413832 1364134 1342300 1361474 1317004 1293236
2193.64 1269296 1246394 1179192 1187444 1149226 1127244
2199.43 1087188 1107698 1095212 1112892 1123374 1165636
2205.22 1179366 1226658 1274046 1341094 1397664 1467916
2211.00 1529672 1632968 1699608 1764740 1831648 1924782
2216.79 1991380 2070000 2149380 2255762 2300532 2370948
2222.57 2428790 2495934 2591198 2662880 2702460 2714856
2228.36 2724466 2694406 2663348 2638626 2582840 2550464
2234.14 2497820 2462202 2398924 2357182 2279770 2217242
2239.93 2147422 2104084 2025356 1977402 1897360 1854130
2245.71 1785764 1742848 1684062 1671348 1631064 1582252
2251.50 1543146 1502644 1434404 1391386 1330808 1300936
2257.28 1250290 1241460 1221430 1217258 1227284 1251592
2263.07 1283660 1335848 1379628 1481070 1571708 1700320
2268.86 1819430 2002510 2217220 2477352 2770054 3095276
2274.64 3465134 3867992 4293170 4705636 5107096 5471956
2280.43 5743966 6000728 6140766 6195800 6207966 6187514
2286.21 6137140 6137712 6186574 6245346 6282186 6339170
2292.00 6199466 6161440 6122684 5945386 5689352 5335754
2297.78 4836284 4221388 3591760 2963164 2399330 1910706
2303.57 1556452 1265252 1067254 940360 833624 763034
2309.35 712822 694662 660890 650252 623114 643628
2315.14 613508 656778 626596 638552 621382 649978
2320.92 654672 679708 670104 706964 718128 759264
2326.71 776248 832604 856576 918918 962556 1026180
2332.50 1082374 1180784 1237648 1322878 1397834 1477872
2338.28 1549222 1626130 1683208 1722936 1758674 1815518
2344.07 1834966 1865138 1878940 1927304 1953228 2023836
2349.85 2095632 2167014 2225604 2300804 2329572 2350166
2355.64 2355728 2303704 2276320 2222610 2169592 2123008
2361.42 2076708 2055982 2021878 1991234 1936340 1924084
2367.21 1863834 1838300 1795298 1759552 1733488 1706334
2372.99 1673972 1616614 1541704 1491392 1460800 1428784
2378.78 1373964 1302492 1212908 1133732 1057092 985726
2384.56 913628 883504 852312 840780 837164 832466
2390.35 867914 884558 892626 932798 926382 966460
2396.14 1007534 1036622 1070940 1117992 1146806 1181994
2401.92 1242408 1285958 1335146 1380018 1425018 1495674
2407.71 1549032 1603030 1662232 1727780 1810996 1888208
2413.49 1967596 2063620 2181238 2301850 2426676 2536478
2419.28 2616598 2738194 2870584 2997536 3129932 3310410
2425.06 3456882 3629106 3802228 3976304 4143562 4318624
2430.85 4471924 4580932 4664674 4720700 4716914 4678834
2436.63 4628478 4559006 4540910 4527744 4539320 4425802
2442.42 4259716 4192820 4133526 4070636 3942724 3798044
2448.20 3574192 3324260 3027828 2740226 2477372 2244644
2453.99 2012562 1836158 1693046 1580832 1474774 1376884
2459.77 1307136 1257516 1214132 1157954 1108364 1071570
2465.56 1062606 1013098 996742 987498 960280 938224
2471.35 928248 928472 916438 899218 886780 861952
2477.13 853442 832734 826020 825382 842162 855384
2482.92 882662 917536 945572 976260 1015352 1007504
2488.70 992892 1015938 1007452 1016276 1053100 1073462
2494.49 1072964 1019570 1015614 1033814 1035174 1064340
2500.27 1060566 1019048 972146 905662 846712 768024
2506.06 693998 634200 601288 543802 504494 486576
2511.84 466546 453222 454376 438788 437390 423966
2517.63 415622 398550 395036 394844 383524 370808
2523.41 369662 345312 337246 320428 316824 288772
2529.20 277826 252592 247006 253088 236668 205042
2534.99 209738 213296 188862 170574 177814 177492
2540.77 174156 147666 162506 164764 145076 141620
2546.56 146080 134446 133688 139332 140108 138092
2552.34 137654 141592 145284 157948 144806 134778
2558.13 126310 144034 138178 141864 140684 145704
2563.91 170284 169838 189294 212998 236576 265876
2569.70 299270 335428 382434 421122 468690 505144
2575.48 559722 587320 657544 698864 769388 789874
2581.27 832846 875332 923692 954450 988210 1033072
2587.05 1081294 1090612 1083288 1097246 1080040 1079166
2592.84 1058636 1036892 1037088 1015216 986244 961184
2598.63 930002 941496 902738 855308 813318 789510
2604.41 755848 698316 667696 632680 605476 583724
2610.20 589366 583342 611248 634682 661522 719618
2615.98 762572 813710 861480 903020 969388 1001304
2621.77 1038568 1065344 1091112 1089530 1108594 1119768
2627.55 1130368 1129126 1162378 1153016 1174822 1160832
2633.34 1177490 1197994 1199866 1182932 1165596 1089308
2639.12 1017388 935470 848440 767444 691144 630488
2644.91 571554 530682 509844 505160 486968 481142
2650.69 487114 458902 479946 484916 478234 486100
2656.48 504180 520824 522376 521160 564162 564566
2662.27 586664 588626 614606 613774 648626 631934
2668.05 656710 660762 634708 631580 647478 634714
2673.84 629650 624378 607554 591966 574308 558740
2679.62 554438 531966 493066 486148 450854 416008
2685.41 386014 345454 338000 322178 303928 275208
2691.19 277152 257676 250998 253438 236052 213386
2696.98 221738 219610 209662 203562 193220 198506
2702.76 206152 198036 208080 209444 192164 213274
2708.55 224592 211508 206308 204602 203868 213272
2714.33 231026 218664 225630 223952 241766 241456
2720.12 248346 236616 245100 263064 265014 271226
2725.91 273512 300506 331960 322742 330070 363090
2731.69 389828 429936 478966 504048 555282 614296
2737.48 681962 732032 821376 872768 984280 1074670
2743.26 1169686 1270298 1385504 1465042 1550304 1599366
2749.05 1660582 1695178 1700384 1675912 1646274 1613468
2754.83 1566256 1512862 1500194 1532486 1584380 1662274
2760.62 1766390 1816994 1860368 1825242 1758202 1611904
2766.40 1504470 1362012 1206830 1084374 990734 901570
2772.19 810906 737768 682346 626806 612932 586620
2777.97 580060 571384 595410 595402 605504 610164
2783.76 648532 676264 690350 729312 749260 725948
2789.54 739654 735650 732304 755276 772824 817762
2795.33 817918 834080 867952 877020 884722 887506
2801.12 876774 858468 813030 734534 677790 624574
2806.90 547020 498796 427134 399142 407376 397814
2812.69 377834 378984 382080 376598 383152 378864
2818.47 404590 378732 375922 347692 382148 375686
2824.26 386764 376586 398654 400994 409840 420948
2830.04 427022 425076 459452 441504 453610 465004
2835.83 491554 515198 537220 556894 575710 620918
2841.61 666526 720532 750778 794002 868590 931506
2847.40 978768 1033140 1076616 1116822 1159606 1204814
2853.18 1223502 1225560 1242470 1283754 1282138 1290262
2858.97 1291758 1299282 1322504 1328942 1347862 1320794
2864.76 1316460 1295080 1299958 1252678 1193194 1172454
2870.54 1105846 1071608 1042112 961560 932144 856934
2876.33 863168 815606 783482 759852 726090 717402
2882.11 720558 696168 671538 657110 637810 628326
2887.90 622900 618786 640968 621956 613126 602422
2893.68 622634 624202 620638 638788 624806 617346
2899.47 655652 638850 638510 628320 645416 656052
2905.25 647928 657948 657964 647814 684378 688302
2911.04 701090 728030 705532 727118 735928 755870
2916.82 778958 773896 819198 823140 892814 913714
2922.61 972356 1027854 1077604 1120936 1203506 1267766
2928.40 1375610 1470052 1583396 1706604 1872722 1982308
2934.18 2154070 2336138 2560648 2808838 3087404 3362774
2939.97 3696884 4014672 4405522 4730020 5040370 5302070
2945.75 5500946 5624998 5691338 5676620 5726600 5747646
2951.54 5873518 5951866 6044836 6186030 6411316 6600358
2957.32 6824698 6924710 6976034 6897260 6769648 6679320
2963.11 6415334 6200782 5936716 5737538 5519246 5394732
2968.89 5235750 5136022 5050050 5000330 4945038 4947272
2974.68 4900566 4883092 4889788 4921082 4946560 4957700
2980.46 4992822 5051972 5092228 5148366 5235992 5320468
2986.25 5389376 5502434 5578866 5654942 5829076 6093440
2992.04 6436044 6959752 6965826 6707952 6706412 6587376
2997.82 6536272 6454230 6508974 6453344 6437722 6326802
3003.61 6286296 6204676 6238428 6250494 6225814 6170434
3009.39 6153576 6198908 6276576 6338062 6372638 6392684
3015.18 6406972 6454668 6609868 6727822 6917356 7132622
3020.96 7371080 7639666 7893452 8170144 8435670 8660490
3026.75 8897496 9058560 9234048 9333050 9420444 9531406
3032.53 9641926 9876284 10161940 10051370 10061720 10128090
3038.32 10316870 10429330 10554420 10659200 10732310 10769910
3044.10 10840680 10947730 11099740 11271740 11508120 11677140
3049.89 11853630 11969070 12118540 12198170 12215700 12176840
3055.67 12173730 12243570 12381260 12548650 12596920 12545900
3061.46 12517750 12637850 12746490 12846630 12955170 12817990
3067.25 12623990 12269630 11892570 11443480 10979300 10538950
3073.03 10216460 9874040 9692246 9475032 9343972 9251382
3078.82 9300344 9286168 9461448 9673856 10059980 10519640
3084.60 11193040 12004930 13094050 14415240 16055910 17816810
3090.39 19813510 21662520 23544530 24973210 25963930 26159610
3096.17 25701200 24462830 23266520 22757330 23757700 26028670
3101.96 27132470 22681160 20255470 22322100 24522560 26217380
3107.74 26509010 25654410 23677200 21171370 18387370 15801530
3113.53 13515320 11810720 10633790 10042930 9931834 10303990
3119.31 10967470 11790170 12694900 13610920 14234070 14538780
3125.10 14346240 13809010 12827350 12071110 11821660 12801080
3130.89 12542790 11434070 11303730 11959760 13056300 13872230
3136.67 14342650 14211120 13615670 12535780 11309450 9927620
3142.46 8627934 7425272 6396944 5464942 4752168 4159778
3148.24 3704930 3305266 3025952 2716188 2484134 2265288
3154.03 2091860 1924004 1806354 1662014 1539304 1434142
3159.81 1326566 1268764 1208324 1117330 1082872 1002864
3165.60 961568 919948 889780 820790 791254 732752
3171.38 734328 675710 691564 646902 680750 646158
3177.17 631018 625740 596184 584808 574850 571048
3182.95 577312 573118 555046 546930 533870 543130
3188.74 540192 520786 564468 548704 573166 561608
3194.53 574048 572200 566456 530170 505766 503382
3200.31 501556 461148 471320 429874 408854 412600
3206.10 416074 394720 399002 358100 351422 336956
3211.88 338168 300020 293710 317886 293774 300742
3217.67 276834 249408 255516 217752 234274 198998
3223.45 208712 174216 172680 147162 167950 132966
3229.24 129156 115034 91976 122868 93686 101834
3235.02 62472 63574 83822 58196 27084 36034
3240.81 32344 23672 23386-5940 41712 17282
3246.59 1604-12762 12734-25324 8028 3242
3252.38 10174 7226 37546 6176 21896 4678
3258.17-13464-2138-2146-15144 9976-17680
3263.95 4842-23472-24888-5462-29504-42886
3269.74-7356-37568-41876-44320-47802-19176
3275.52-36782-96354-78914-82232-75566-60132
3281.31-41814-57572-34368-30816-8814-46324
3287.09 14254 19622-3228-6466 57264 14052
3292.88 49248 19872 34198 17398 52626 34216
3298.66 38430 26282 40624 14972 55948 16870
3304.45-2910-21030-67736-94242-126014-172150
3310.23-141110-180390-184398-236600-230110-249070
3316.02-277018-321902-275606-254914-249278-254418
3321.80-282748-271344-226804-252058-252174-223118
3327.59-185438-214974-141438-133438-118114-130394
3333.38-73912-107418-61540-61272-49460-47006
3339.16-5686-15150-1838-12602 1554 10470
3344.95 24064 33626 19744 13898 24138-4648
3350.73 25318-49784-30492-45900-37504-25320
3356.52-75838-69354-69542-83726-75328-83154
3362.30-49364-114738-97214-91548-70614-88908
3368.09-83586-68250-74496-59090-96248-73790
3373.87-65330-72316-44774-45202-19642-30126
3379.66-64-36638-38962-44964 4786-24692
3385.44-3902-24266 2546-23224-36302 13558
3391.23 1488-20190 27636-17346-25246-68732
3397.02-14762-42974-45136-73814-63150-39818
3402.80-75718-78298-105668-108308-82288-81382
3408.59-85486-95506-68854-106584-50214-107228
3414.37-27368-74624-32754-91008-22778-20302
3420.16-77248-66458-38498-36198-26668-38976
3425.94-31466-4840-12788-27788-20598-29194
3431.73 3182-20304-13732-13470-8900-15748
3437.51-4526-47422 24670-32046-6808-15798
3443.30 34438 26732 53946 29656 39756 34044
3449.08 19072 51340 87174 92180 111840 94786
3454.87 142856 124638 141792 94438 120548 112266
3460.66 78136 93742 83540 80136 125106 68428
3466.44 102034 96626 121950 77938 120498 74128
3472.23 152088 40222 31278 20694 43208-24840
3478.01 6446-5780-34764-30702-41922-1004
3483.80-71298-95952-60664-75560-84904-93254
3489.58-89200-88342-85446-61338-73040-82352
3495.37-73248-88678-43502-47082-17576-45292
3501.15-6778-17766-18418-31380 42510 62066
3506.94 87060 111150 150472 211772 221864 307474
3512.72 342702 398484 488712 548180 632638 704814
3518.51 876810 967718 1105042 1241708 1379856 1600740
3524.30 1787458 2003462 2245528 2549672 2857634 3211232
3530.08 3615134 3976814 4477450 4952454 5503840 5997416
3535.87 6583606 7102190 7588808 7984904 8297046 8475406
3541.65 8530426 8401492 8190318 7945256 7639572 7451862
3547.44 7377420 7310748 7582330 8088636 8773898 9351074
3553.22 9659990 9601510 9111744 8433918 7598510 6811536
3559.01 5946910 5178182 4557904 3926716 3475772 3098910
3564.79 2639174 2322392 2030758 1783470 1624056 1324114
3570.58 1144922 902552 794682 615166 473468 346628
3576.36 235158 170460 112446 8206 9918-24186
3582.15-45806-76570-65104-173432-223060-175702
3587.94-240106-143462-185490-165642-212168-203772
3593.72-213738-252160-191016-246546-224704-247194
3599.51-274596-277986-262028-310516-287520-284986
3605.29-321198-391290-293964-490492-316866-317432
3611.08-381578-377418-299172-405336-315298-349396
3616.86-375766-356512-479646-292904-322458-312900
3622.65-294104-294006-284224-276192-306846-474410
3628.43-532734-339490-208640-272218-242300-278226
3634.22-241972-244104-226966-280998-236572-209480
3640.00-199722-215904-234664-217366-214934-205502
3645.79-319352-253854-378062-481690-249694-364434
3651.57-171232-282388-183434-299506-369522-242412
3657.36-172272-228044-205522-239238-195574-216944
3663.15-175950-201482-202982-208774-238904-354110
3668.93-272838-567446-183120-262860-199628-384738
3674.72-516000-379628-182076-285884-245662-270698
3680.50-177714-268786-202738-298292-209988-285072
3686.29-180156-659934-396022-241170-404080-286812
3692.07-257782-263880-254574-277340-256636-271074
3697.86-246014-272242-241572-364162-236736-278312
3703.64-257634-278930-247370-252250-257748-418692
3709.43-232474-338162-493456-220428-235712-248938
3715.21-226974-260620-255256-259288-229314-228070
3721.00-319930-273584-213086-255852-241884-337966
3726.79-225886-250796-207002-220880-319264-469336
3732.57-148780-425348-251912-469258-293940-284328
3738.36-231444-270354-236048-300090-200170-758658
3744.14-669402-163288-305394-205010-544378-587848
3749.93-113438-675070-460426-216374-277734-247810
3755.71-304452-250456-236984-337308-273470-233056
3761.50-221836-236500-240560-297560-246410-220184
3767.28-218082-282898-348046-221820-239346-204010
3773.07-230948-231930-217864-259822-193338-253606
3778.85-322220-219106-230646-229938-257410-263894
3784.64-255112-228060-238572-212004-243702-245780
3790.43-207902-214992-216216-225302-248702-274064
3796.21-266836-210920-275752-192388-556324-452538
3802.00-207236-247288-169660-198424-468706-357356
3807.78-148998-260900-158036-254628-128148-265578
3813.57-141308-409196-507396-120398-238212-177866
3819.35-283420-388890-295418-169818-186260-160670
3825.14-206860-227346-156504-180560-145462-207334
3830.92-290682-158990-163866-274878-196102-119556
3836.71-572096-283488-103090-252668-173946-129218
3842.49-211776-195242-114932-144628-137316-156206
3848.28-113258-154366-168840-557710-112124-809878
3854.07-331406-88538-177648-123908-121732-135094
3859.85-124008-200162-159194-98732-257054-219850
3865.64-56250-161482-66150-332130-311292-91068
3871.42-99166-112356-179616-91520-77160-125606
3877.21-62126-80332-174078-109484-59152-93936
3882.99-27800-130714-250820-76898-29496-37976
3888.78-10928-100180-155450 11252-34120-10946
3894.56-17724 6032-24632-31380-175758 23748
3900.35-58174-108952 28170-162514 12492-49920
3906.13 76414 47764 53412 14936 62934 39942
3911.92 44544 71184 57704 57776 38832-8812
3917.70 89032 62584 75202 66886 85868 53590
3923.49 65574 44932 81808 59878 70876 64410
3929.28 57602 71200 53132 47652 97342 47338
3935.06 103248 94156 105218 69250 101792 56990
3940.85 121242 18148 89084 102532 114996 110908
3946.63 100426 125544 119502 96146 174822 135012
3952.42 179552 196886 189188 225534 260450 217114
3958.20 261666 244282 280940 290484 359026 368014
3963.99 404728 401898 497142 497540 513444 535780
3969.77 572526 552394 591774 589916 631692
##END=
