##TITLE=1,3-Dimethylbenzene
##JCAMP-DX=4.24
##DATA TYPE=INFRARED SPECTRUM
##CLASS=IUPAC A
##ORIGIN=NIST, Analytical Chemistry Division, 301-975-3108
##OWNER=COPYRIGHT (C) 2001 by the U.S. Secretary of Commerce
##DATE=01/06/01
##$SPECTRA VERSION=1.10
##$UNCERTAINTY IN Y=2.1 % relative (B=1.13E-04,C=1.33E-9,D=3.50E-14)
##CAS NAME=1,3-Dimethylbenzene
##CAS REGISTRY NO=108-38-3
##MOLFORM=1,3-( C H3)2 C6 H4
##MP=-47.87 C
##BP=139.1 C
##$NIST SOURCE=QUANT-IR
##SPECTROMETER/DATA SYSTEM=IFS66V (Bruker)
##INSTRUMENT PARAMETERS=KBr Beam Splitter; MCT Detector; Multipass cell
##STATE=gas
##SAMPLE DESCRIPTION=m-Xylene Primary Gas Standard
##PRESSURE=101.3 Pa
##TEMPERATURE=23 C
##SAMPLING PROCEDURE=1 L/min Flow
##RESOLUTION=1.9290
##DATA PROCESSING=Boxcar Apodization
##XUNITS=cm-1
##YUNITS=(micromol/mol)-1m-1 (base 10)
##XFACTOR=1.0
##YFACTOR=9.0949E-13
##DELTAX=0.9645
##FIRSTX=575.652
##LASTX=3974.606
##FIRSTY=-2.87E-07
##MAXX=3973.64
##MINX=575.65
##MAXY=.0006541
##MINY=-1.78E-06
##NPOINTS=3526
##XYDATA=(X++(Y..Y))
575.65-315959 634691-1276258-264280-1960223 726004
580.47 233299-520980-1853624 352382-1253751-379479
586.26-308266-964368-729533-73705-297382 843493
592.04-1096836-704885-1292663 199197-1127000-602844
597.83-1886561 142911-325854-565030-1125641 33795
603.62-1469429 724613-1459964 181298-613317-442491
609.40-800385-828378-554314 76954-1017107-478729
615.19-583121-19548-143627-323877-1040424-490369
620.97-915963-295770 279984-336470-1083402-182084
626.76-423631 185789-1082653 199386-855433-415097
632.54-234428-112136-934120-302032-584782-427193
638.33-474739-272004-847681 1529-1164944 426279
644.11-639622 464479-332214 483949-93927 869765
649.90-268738 873543 321789 1560647 571909 2239836
655.68 1480712 2013013 1154904 2084047 1558314 3316547
661.47 2113735 3455173 3212057 5208743 6151168 9692597
667.26 7236592 9689666 9420424 13538421 14639628 19876616
673.04 21925863 27967604 30215680 37829414 39538556 46920789
678.83 46760447 53480585 51450214 57933569 54845666 61576808
684.61 57260942 70772247 69741485 101741154 126073773 290267363
690.40 185435311 75227279 81536823 63434113 82461313 70807667
696.18 70100121 62949922 66576216 60567156 63108042 55460907
701.97 52586525 43440413 40209770 31947852 29322018 21593316
707.75 19518789 13796692 12827823 8333901 8271550 5349426
713.54 5800625 3091108 3973278 1931502 3383018 1384791
719.32 2410706 1382892 2479664 842771 2183056 893392
725.11 1997661 1263252 2604825 1230586 2942170 1432616
730.90 2198474 906475 2078019 1537088 2306128 1196428
736.68 2718375 2305388 4301951 4564424 7011887 6421333
742.47 9729686 11189284 15783926 19484756 26769285 32590901
748.25 42691782 51537189 64522167 76236126 91146332 104100165
754.04 119720586 131083594 143531792 151873294 163639480 169674355
759.82 177911066 179505770 185121650 194087776 222192106 275380679
765.61 386556809 583888819 719296268 327190905 194579111 189965319
771.39 179798574 187318270 181779707 186145453 178639319 172074511
777.18 161119013 151468014 137250678 122828381 105239376 90367742
782.96 74700202 61863851 48772133 39394342 29795480 23701102
788.75 17319905 13857366 9873559 8298083 6320705 5420570
794.53 4713243 3864890 2759109 2839940 1823238 1962628
800.32 1573117 2185926 1526135 1558750 1011250 1157065
806.11 1315990 1111035 1041805 1130810 606787 750561
811.89 826952 1053168 230631 603463 617388 995204
817.68 282261 893529 638921 1028501 905248 620174
823.46 372258 320403 413804 652457 428072 658914
829.25 412270 334911 564492 564985 67393 623452
835.03 454392 453714 354199 524717 333531 444392
840.82 402609 482601 487609 848609 546860 818075
846.60 654021 1076373 1056455 1391835 1709380 1746323
852.39 1661017 2549437 2904403 3913086 4434283 5404656
858.17 5983262 7164213 7972151 9287995 10642327 11317854
863.96 11817932 12640151 12990868 14099855 14075848 15179423
869.75 15629466 17895626 19633354 26437811 36738269 50751260
875.53 39257721 17211473 15757772 13914446 15017402 13797338
881.32 14402870 13945460 13878502 13855387 13406170 12385577
887.10 12014001 11085276 10568769 9791015 10031022 9855854
892.89 11070361 11927051 13480202 14647721 16248727 17383995
898.67 18267359 18235286 17515125 16598265 16768169 17324894
904.46 19579030 20636103 18295718 14734107 15018101 16135126
910.24 16709544 15679182 14311825 11708918 9482835 6635166
916.03 4884080 3407290 2661815 1933377 1596142 1411877
921.81 1281037 1406607 1470816 1248070 1205741 1307632
927.60 1546627 1291932 1603431 1500584 1675350 1691290
933.39 1878079 1767541 2161825 2254381 2183633 2314242
939.17 2391134 2177484 2510125 2348421 2798989 2766490
944.96 2786119 2650763 2808625 2866618 2844012 2941379
950.74 3222036 3068679 3333873 3167143 3306279 3367781
956.53 3538082 3404551 3531920 3533974 3742048 3681036
962.31 4061942 4094350 4298739 4491661 4458893 4729173
968.10 5044868 4947923 5024648 4992625 5300858 5489978
973.88 5471576 5237870 5136192 4886656 4969515 4928899
979.67 4996834 4780788 4762098 4768778 4979792 4801007
985.45 4936835 4943416 5134657 5136183 5432918 5764543
991.24 5909880 6162785 6730884 6912222 7179191 7716490
997.03 8195160 8605306 9156462 9334010 9607747 9910145
1002.81 10426031 10784364 11018898 11363037 11360763 11118190
1008.60 10939798 10284790 10101526 9848206 9682983 9539138
1014.38 8817350 8345654 8314197 7810594 7562941 7058785
1020.17 6741572 6313240 6005645 6267007 6220967 6618367
1025.95 6982604 7384614 8040574 8611335 9415056 10097094
1031.74 10747778 11450219 12401997 13014457 13849271 14466649
1037.52 15702226 16664017 19591145 22003380 25959747 28010765
1043.31 26079197 24991852 22313732 23150302 22998473 22390609
1049.09 21563992 21272354 21297549 21126319 20997961 20552791
1054.88 19821272 19593669 18751452 17992659 16855251 15881297
1060.67 14669406 13744233 13097028 12485273 11659385 11008531
1066.45 10308616 9981492 9787433 9499156 8890271 8822624
1072.24 8660822 8643824 8859584 9000593 9182768 9801385
1078.02 10192849 11162740 12126196 13161708 14448919 15995546
1083.81 17933360 19880765 21936660 24059453 26028634 27963097
1089.59 29142302 30121906 30044936 27855222 24083694 21333275
1095.38 21734034 22814398 24407181 26096505 26919123 26481187
1101.16 25175985 22993359 20532351 18261934 15783196 13803119
1106.95 12121010 10593701 9165970 8158783 7315774 6920326
1112.73 6489931 6280172 6049421 5907656 5777952 5896831
1118.52 5830860 5638960 5403479 5060042 4879871 4601032
1124.31 4591036 4548838 4785612 5158102 4948381 4986035
1130.09 4715990 4318514 4295219 4045777 3935739 3543216
1135.88 3459583 3057455 3093350 3059020 2917448 2881300
1141.66 2594609 2615867 2614199 2787702 2706336 2801591
1147.45 3163651 3380213 3513534 3527726 3965677 4496417
1153.23 4565104 4471981 4304837 4585884 5225265 6056774
1159.02 6110676 6650426 7665462 8860692 9785783 10209586
1164.80 10199315 9640784 8812882 8073609 8235860 10378412
1170.59 11866064 7991240 6902248 7292298 8443489 8905592
1176.37 8826322 8145886 7336659 6158392 4947360 4219474
1182.16 3485500 3236875 2741117 2729838 2493238 2620504
1187.95 2561533 2561156 2655366 2514548 2196927 2172679
1193.73 2052219 2107778 1922881 2012169 2275686 2187300
1199.52 2162330 2070790 1967312 1990114 1743665 1745755
1205.30 1712754 1688164 1613774 1453650 1380212 1576310
1211.09 1389984 1322515 1375171 1341670 1327819 1361169
1216.87 1209712 1200918 1133610 1291720 1286086 1085527
1222.66 1117795 1330876 1208466 1258345 1226263 1287495
1228.44 1217625 1526928 1357951 1484136 1672346 1622016
1234.23 1789095 1798616 2028598 2237828 2265071 2541051
1240.01 2639233 2812548 3178103 3392753 3509706 3675571
1245.80 3639651 3521972 3405214 3270065 3102431 3320880
1251.59 3411882 3810036 4051724 4317441 4539746 4457559
1257.37 4454313 4131547 3942862 3857255 3485019 3440153
1263.16 3112679 2993701 2805378 2812503 2798807 3127886
1268.94 3094306 3071645 2985367 2741767 2531971 2501319
1274.73 2259462 2133536 2198868 2101429 2166006 2166564
1280.51 2068455 2074043 1840097 1971643 1853156 1723744
1286.30 1693076 1764329 1430265 1861044 1766708 1793391
1292.08 1696356 1695999 2024095 2081638 2063075 2286690
1297.87 2256588 2226852 1949417 2208322 1951697 2148292
1303.65 2179251 2052067 2292873 2324397 2403855 2450646
1309.44 2500875 2464302 2292822 2435755 2380797 2317252
1315.23 2360084 2316649 2384003 2498530 2270423 2365379
1321.01 2278261 2370481 2486234 2379348 2404670 2477666
1326.80 2748095 2728611 2604050 2622114 2674811 2754486
1332.58 2767225 2859690 2883204 3039740 2887084 2958849
1338.37 2918493 3269391 3258608 3542164 3689554 3674948
1344.15 3986320 3963455 4268154 4350153 4624109 4869068
1349.94 5127516 4973246 5446135 6140231 6029302 6871759
1355.72 6858819 7184781 7802535 8074215 8333709 8863705
1361.51 9139477 9478722 10302314 10675717 11286885 12300163
1367.29 12658421 13340234 14052266 15403487 17005792 18803372
1373.08 20857959 23276146 25062223 27319660 27955815 28638417
1378.87 29734945 35180865 35148926 30947495 30843436 32288738
1384.65 35291379 37402690 37603110 36178429 34454985 32276133
1390.44 30727614 29068951 26473309 24129942 22851974 21759112
1396.22 21588605 21020354 20899016 20798087 20521934 20103555
1402.01 19249758 18470794 17863479 17551258 17380632 17336840
1407.79 17614743 17790292 18432844 18529000 18815101 18711766
1413.58 18733619 18811188 18874737 19184189 19370640 18925512
1419.36 19671764 19961201 20468613 20458088 20578757 20649708
1425.15 20698078 20988384 21495285 22024127 22707659 23835459
1430.93 25171591 26907202 28565971 30827929 32629853 34184656
1436.72 36520530 38321422 39578410 40688250 41662919 42571400
1442.51 44038570 44840056 45888108 47195009 48523729 50248234
1448.29 51348060 51293164 51417916 51397324 50737284 49550840
1454.08 49094995 48453469 47435252 47628786 46793118 46208426
1459.86 45814537 46441373 46847339 47614969 47753240 48705404
1465.65 49547777 50746582 52702645 54590954 55930070 56676245
1471.43 57123922 57714901 58627635 59767880 61071561 63316691
1477.22 66168443 69167903 70314919 71063468 74264554 79133450
1483.00 82946020 86787573 90866777 95084122 98673104 101714054
1488.79 102536617 104190819 107051450 111102787 114424783 117173393
1494.57 118166862 117796510 117261740 117091035 118628169 121842272
1500.36 122242561 121018119 116198252 111849113 108218685 105808812
1506.15 102485442 99066632 94254360 88883801 83398013 77870555
1511.93 72605743 68593616 65999459 64738430 63233518 60622423
1517.72 58153829 56601270 55254894 54397612 53804903 52958466
1523.50 52547454 52111316 52688456 53313620 53258315 52399648
1529.29 51654051 51128279 50475205 49404014 47835329 46675518
1535.07 45474350 45037352 44650766 43935389 43653856 42945253
1540.86 40916654 38651766 36333078 33322038 30884967 28978322
1546.64 27024447 25473520 23993911 22947254 22104645 21373640
1552.43 20659317 19797566 19690911 19190875 18674579 17840788
1558.21 17962842 17420819 17837308 17607506 17495650 17655023
1564.00 17526800 17716948 17947932 18458639 18723887 18992259
1569.79 19358141 19447349 19407771 19367399 19398945 18852603
1575.57 18532005 19775704 19954287 20367087 20426160 21027711
1581.36 21479693 22787998 23661609 25303011 26079927 27770734
1587.14 29394264 31820451 34038384 36993542 39603876 41753795
1592.93 42954128 43315390 42850360 43181142 45026103 50226746
1598.71 57026283 64909370 71417584 77737578 81792801 86223477
1604.50 90471264 97077814 105932995 120281715 135179152 148769243
1610.28 158687030 167147468 166783995 160191419 148766883 146219314
1616.07 150300533 175069888 179262070 130404985 120089354 123237393
1621.85 131145443 131328662 125534823 110668633 93470628 73531803
1627.64 56451302 41470663 30729401 22093046 16959447 12743311
1633.43 10512581 8318456 8209931 7602158 7375971 6513033
1639.21 6148424 5653309 5664658 5332319 5517633 5619210
1645.00 5686380 6263615 6578850 6843911 7161279 7145649
1650.78 7101105 5891317 6133726 6380560 6977144 7011905
1656.57 6437863 5420106 5583515 5606116 5842471 5449729
1662.35 4998316 4576894 4010631 3361208 2774634 2253198
1668.14 1627824 1577596 1420930 1155153 1163326 998906
1673.92 728779 704693 1022317 768049 749229 588185
1679.71 612697 684876 462133 453534-166179 183732
1685.49 840324 437676 647831 504352 676016 733586
1691.28 890829 721131 1229108 574551 267410 1331563
1697.07 1294393 1532366 845040 1168173 1678157 1400433
1702.85 1297897 1197023 1655744 1589425 1615440 1256438
1708.64 1295935 1351081 1577172 1459019 1578056 1301973
1714.42 1132233 1338001 695044 1033783 1203396 1252577
1720.21 1333667 1409949 1680224 1689882 2060961 2367639
1725.99 2697552 2915918 3226824 3266713 3626599 3655927
1731.78 3962617 4143033 4803898 5946340 7001355 7613662
1737.56 8320039 8448970 9038565 9311028 9333068 9071726
1743.35 8610683 7940733 7289281 7153366 7521552 8034406
1749.13 9089652 8958636 9438897 9257672 8763418 8305630
1754.92 7815488 7316199 7210159 6842017 6544488 6415471
1760.71 6153850 6394413 6775912 7056219 7705182 7655542
1766.49 8017278 8613355 9282297 9513170 9391861 8658631
1772.28 7975320 7436035 6368813 6111642 6238491 6757831
1778.06 7847834 8217710 7818790 7074335 6306734 5739270
1783.85 4915975 4440222 3612819 3056143 2603683 2245778
1789.63 1817995 1526715 1160567 1166990 1209510 1087860
1795.42 1068724 948330 1090609 948848 1097087 1236625
1801.20 1331098 1536254 1539885 1628060 1737984 1850669
1806.99 1950528 2099541 2040944 2294159 2473890 2374967
1812.77 2292892 2267390 2316304 2352613 2511404 2502559
1818.56 2339070 2324402 2229134 2130497 2167087 2024897
1824.35 1978202 2117221 2116994 2286893 2335375 2502676
1830.13 2787875 3132851 3503005 3790727 4277862 4640444
1835.92 4962780 5215192 5565208 5747375 5983377 6110354
1841.70 6958768 7813000 9121470 10859644 12462231 13827162
1847.49 14553988 14789338 14391617 13202189 12486691 12877264
1853.27 14700754 15714974 10867311 8818087 9950211 11102515
1859.06 11816236 11477145 10459270 8904795 7407271 5694191
1864.84 4242040 2977677 2300386 1738720 1516678 1560453
1870.63 1419443 1347629 1392878 1328064 1393869 1278316
1876.41 1261212 1162438 1059762 1103453 1057451 1030170
1882.20 1196181 1243923 1057231 1081906 1184339 1290210
1887.99 1364727 1388296 1467573 1379197 1275772 1185090
1893.77 1269689 1504638 1529096 1466987 1481442 1534455
1899.56 1568730 1667154 1858346 1889998 2033168 2140360
1905.34 2271270 2616384 2678576 2825169 3016879 3367329
1911.13 3468143 3909519 4052186 4483204 4911730 5040833
1916.91 5134832 5720049 6340531 6972278 7712173 8492808
1922.70 9291810 10202939 11081470 12003548 12570621 13165983
1928.48 13259615 13071111 12266537 10667319 9344620 9335424
1934.27 9155302 10071021 12105313 12824703 12501289 11396671
1940.05 10195858 8938582 7683619 6464590 5273648 4345284
1945.84 3580123 2921181 2352222 1980230 1578137 1174822
1951.63 896236 622604 522038 371343 395190 204301
1957.41 206614 73347 97378 26168-92145 53831
1963.20 165059 122225 108265 126529 220087 251162
1968.98 236062 113697 190638 123039 99489 157438
1974.77 46364 128293 1298 118220-27766 75493
1980.55 10308 5136 62926 3591-14384-43215
1986.34-60594-78934-81049 46256-81456-88332
1992.12 4195-85904-49098-26367 89254-34851
1997.91 64863-31969-14527 7821 30559-37776
2003.69-15687 116063 22733-213108-72806 12301
2009.48-127336-121879-101442-102076-74759-102341
2015.27-53786-99096-67406 40907-9005-65479
2021.05-59158-1082 15139-12154-129996-33094
2026.84-109454-160422-233079-209452-251441-187167
2032.62-228756-74763-238121-323691-339666-293072
2038.41-348674-308549-350383-407238-431539-523758
2044.19-519684-427086-499002-390365-447087-538913
2049.98-510565-492690-453290-497214-580657-515595
2055.76-541499-443430-430765-480142-351542-369508
2061.55-472047-326070-429718-291813-215494-202603
2067.33-180465-32724-147268-14688-63125 124102
2073.12-7198 59870-88033-126224 17121-179885
2078.91-19293 25281 206901 78880 133838-99819
2084.69 36261 74360-269825-158404-337412 6248
2090.48-307791-143426-211007-41297 57548-198887
2096.26 3362 156403 489462 169095 370577 173006
2102.05 554717 385185 493868 688352 654701 692851
2107.83 272491 460907 484242 991591 429518 622105
2113.62 195636 803667 120527 36266-157012 175979
2119.40-317717-347645-490556-86972-186744-363097
2125.19-428620-177909-141944-422633-456947-366933
2130.97-227817-455205-365252-258292-250638-339642
2136.76-167391-332358-42550-111776-84159-125974
2142.55-84447 34698 96779 64553 64437 63059
2148.33-22861 137011 318462 126547 2153 180850
2154.12 174397-68872 54633 281187 128364-58277
2159.90-12672 258273-21247-336568 2365 164597
2165.69-83079-320697-42868 93837-350393-220372
2171.47 94133-97004-350814-115666 148715-226579
2177.26-386558-68964-43179-306767-358666-58776
2183.04-140250-418528-198188-208148-349760-310641
2188.83-84072-137593-455966-214613-116690-444616
2194.61-284770-136624-267673-312361-206533-161036
2200.40-313288-174155-96646-237567-133015 17221
2206.19-108244-140904-35644 35193-83968 19607
2211.97 130430 37281 54257 76617 89091 30175
2217.76 74344-26595 71754 67770-1529-18512
2223.54-26973-31638-29119-98976-118836-151228
2229.33-254063-119657-288734-220541-147550-172847
2235.11-99047-138436-236085-313512-132220-71399
2240.90-171718-236916-131186-149575-84050-100843
2246.68-111915-64711-65733-56488-82561-20404
2252.47 29530 150898 114333 335032 270299 298093
2258.25 488584 549456 441987 502790 579500 462808
2264.04 568303 508916 642794 762149 666942 681712
2269.83 752128 823422 796318 812057 789013 880804
2275.61 1090180 1040814 1163249 1190291 1253724 1464461
2281.40 1398062 1447738 1434573 1583186 1546227 1725614
2287.18 1820136 1764027 1816868 1896839 1911931 1856461
2292.97 1964146 1780127 1530117 1291918 1240367 1025717
2298.75 969845 847861 718118 668211 539099 633194
2304.54 522642 434910 433424 392355 518981 472135
2310.32 618183 470279 572668 428522 636510 509603
2316.11 847354 763936 1007294 916422 1284136 1152470
2321.89 1378223 1302839 1455122 1334306 1556567 1273527
2327.68 1522971 1350980 1505986 1701207 1888482 2014456
2333.47 2199703 2232490 2225989 2136475 2219917 2014645
2339.25 2054979 2017300 1918772 1800919 1850114 1797114
2345.04 1798620 1880875 1881784 1673074 1668880 1767535
2350.82 1712929 1717044 1658492 1571503 1559812 1735809
2356.61 1573710 1661542 1579382 1546606 1501400 1442920
2362.39 1321277 1455195 1323815 1254977 1179061 1148188
2368.18 1073484 981245 890601 959633 741352 764544
2373.96 590640 733174 619043 723761 639863 718768
2379.75 750870 797017 895953 911472 988426 984402
2385.53 1008577 1106424 1307215 1392352 1346995 1321800
2391.32 1387160 1346265 1402226 1356411 1539854 1412095
2397.11 1373501 1561105 1521884 1457971 1471091 1567988
2402.89 1407351 1457334 1512817 1489361 1604401 1574019
2408.68 1628457 1702331 1726049 1733360 1829107 1958220
2414.46 2004504 2115551 2156461 2242548 2308231 2102806
2420.25 2157405 2271770 2122947 2078312 2119004 2225634
2426.03 2096308 2154401 1968857 1965843 1737014 1894989
2431.82 1685412 1734739 1643083 1615987 1670934 1580752
2437.60 1588608 1568858 1551960 1507912 1608280 1479207
2443.39 1626472 1546979 1467776 1614902 1452271 1493639
2449.17 1497307 1528321 1422871 1591716 1459749 1523820
2454.96 1498227 1486647 1468416 1454649 1445669 1400239
2460.75 1429488 1420566 1383631 1422449 1477325 1509913
2466.53 1583739 1486485 1638067 1627730 1512693 1467966
2472.32 1417315 1399188 1397172 1357998 1503330 1290104
2478.10 1448614 1568353 1365846 1433687 1441324 1448156
2483.89 1483600 1321458 1245293 1245047 1355013 1330995
2489.67 1396955 1268778 1393933 1320015 1223304 1391561
2495.46 1270132 1199165 1281390 1362455 1180075 1311122
2501.24 1175917 1114848 1248582 1239510 1227904 1040069
2507.03 999001 879693 761505 800457 737672 812865
2512.81 576464 630659 599588 573333 463500 452014
2518.60 471128 346981 441096 386721 421539 311579
2524.39 406691 429082 355421 389135 572960 777279
2530.17 812785 831813 957974 1054366 1217640 1272349
2535.96 1163456 1349254 1123776 1474228 1510267 1602325
2541.74 1540287 1370627 1369130 1437779 1377799 1369655
2547.53 1259865 1267738 1084571 1108787 750772 605213
2553.31 530578 457474 478567 537284 387284 388720
2559.10 393571 385182 397672 513874 333170 298442
2564.88 324981 279540 284381 342324 252039 364091
2570.67 327673 294019 244481 305304 286671 321374
2576.45 286175 259163 163641 137275 174810 216830
2582.24 199095 292486 273341 413319 282963 481668
2588.03 395472 545489 490271 542732 478771 665910
2593.81 367625 498660 588381 618717 739699 788195
2599.60 749691 810449 706589 728769 639062 587915
2605.38 635164 559141 607228 703377 624161 754368
2611.17 719636 672066 590701 816612 723686 734195
2616.95 689657 661980 713952 770171 904077 874254
2622.74 954071 1128699 875489 917140 904216 923425
2628.52 804801 921375 968348 911055 916016 1015786
2634.31 1029550 1086330 1184206 1104690 1087842 951958
2640.09 933851 821291 792807 918809 693702 881827
2645.88 632560 611005 651308 704380 740077 781370
2651.67 767694 577835 614927 514800 374401 297186
2657.45 415083 415963 204973 354397 364751 249361
2663.24 264836 40325 84700 239798 194360 64097
2669.02-8050 155949 4972 37260-60022 156394
2674.81 122269 39228 98758-7262-63232 140969
2680.59 151959 122668-55060 84133-79164 22191
2686.38 36060 210977 50783 23282 126781 372217
2692.16 204209 144012 43183 78506 33925 146472
2697.95 239608 210124 337263 454295 429251 441253
2703.73 630463 557594 642403 661975 851468 794781
2709.52 931578 1052244 998568 1099257 1115300 1345038
2715.31 1199544 1435282 1523602 1664792 1742353 1810717
2721.09 1826864 2112548 2291474 2596448 2748362 3198636
2726.88 3533256 4153049 4789228 5662968 6608180 7973285
2732.66 9055131 10572909 11699487 12740763 13183858 13236998
2738.45 12540719 12925774 13335942 17955949 16012882 12200794
2744.23 14061407 15563927 16781840 16746289 16292957 14615994
2750.02 12681986 10457235 8723690 7208069 5981983 5424590
2755.80 4826594 4099230 3771034 3290932 3181554 2911466
2761.59 2731351 2502472 2338926 2304880 2296099 2096016
2767.37 1986845 1883238 2043529 2019105 1990721 1886207
2773.16 1819752 1826915 1897944 1947798 1964121 1930128
2778.95 2028386 1893976 1976452 2064503 2032066 2071695
2784.73 2185632 2176245 2169010 2380327 2371063 2582504
2790.52 2612627 2745099 2638649 2812226 2945097 2976856
2796.30 3192514 3067406 3424512 3348917 3557694 3491199
2802.09 3662703 3768482 3917643 4115764 4195479 4197466
2807.87 4599380 4630340 4841196 4888563 5332484 5446567
2813.66 5600466 5812704 6027323 6355688 6416997 6831597
2819.44 7159033 7338792 7743392 8061282 8235808 8607374
2825.23 8874468 9383586 9523471 10036955 10390811 10649150
2831.01 10728665 11165065 11432300 11984868 12273750 12749458
2836.80 13222408 13841512 14300084 15024650 15567731 16345565
2842.59 17282140 18155491 19222890 20407604 21425363 23137127
2848.37 24427528 25975809 27879735 30016125 32314309 34862069
2854.16 37635106 40388629 43789192 47556176 51029686 55412927
2859.94 60037811 64761995 69855893 75246157 80926404 86961602
2865.73 93150241 98943703 104776935 110186861 115269148 119709795
2871.51 123330785 126732310 129212370 131111995 132357661 133511538
2877.30 133707209 133914470 133848490 133211714 132165442 130584621
2883.08 128779896 125945746 122930844 119696788 116175026 112818622
2888.87 109588657 107185546 104667764 102987742 101840801 101127697
2894.65 100685511 100631015 100792222 101517355 102275237 102936314
2900.44 104320659 106413771 108297249 110307845 112491978 114510593
2906.23 116724581 119129096 121223232 123576331 125960303 128894416
2912.01 132287657 136579432 141105612 145945260 151954669 158061085
2917.80 165365689 173145038 181927654 190628468 199562501 208576149
2923.58 217925077 226813773 235392274 243003213 249723927 256015710
2929.37 262108875 267927958 273277051 277168441 280209508 282614280
2935.15 284067194 283423338 279431889 275142728 271449084 267548926
2940.94 263522821 259369942 255399155 251177486 240245523 220974413
2946.72 203471490 188095442 175892187 166585531 159195386 154563399
2952.51 152272350 143951628 131807993 124056139 118820774 115457126
2958.29 113047016 111530983 109237324 105964594 102669088 98678897
2964.08 95111609 91484380 87602623 84109068 80833827 78043071
2969.87 75962106 74701226 73944465 74095311 74973785 75978455
2975.65 77118288 78353967 79423063 81527806 84435993 87864092
2981.44 91616388 94880645 96905238 97159371 96216635 96013999
2987.22 97616234 100922706 104750365 106545378 107591906 109175961
2993.01 112018863 115647705 118962488 121216420 122177245 123306452
2998.79 124313850 126702691 129967253 134981760 140581249 146849438
3004.58 151974314 155411868 157247513 159286840 163364474 168939513
3010.36 176158122 183824379 191047367 194951398 196907036 199376108
3016.15 202187722 206700763 213474309 221916868 230625069 237591061
3021.93 241754113 245618228 248977245 252034627 255675500 261004554
3027.72 264437470 263789830 263191189 264428390 266158657 267116506
3033.51 265880499 262228982 256335784 249027915 241166978 235168316
3039.29 229982565 225316813 218133127 210620875 205037340 202254900
3045.08 200000458 196631339 191144578 183705653 175886967 168288095
3050.86 161590398 156319964 152355869 149715003 147922566 147130892
3056.65 146298560 145801517 144875714 142897986 139015171 134203420
3062.43 129634465 128349942 129177272 130931269 134281033 136108328
3068.22 134133045 128503692 121004727 112966789 104920047 96950416
3074.00 89129056 81737518 75187435 68971994 63383994 58403639
3079.79 53736086 50197333 46570068 44454309 41971627 39930698
3085.57 38254378 36755533 35809888 34958673 33792626 32528077
3091.36 31303485 30110234 29288209 28592208 27934440 27258213
3097.15 26602272 26425409 26123027 25867585 25413749 25037189
3102.93 24432705 24150816 23905607 23477137 23486261 23317322
3108.72 23313038 23219588 23234197 22874638 22904088 22522396
3114.50 22402505 21601949 20873399 19866553 19275743 18638785
3120.29 17700922 17675939 16842954 16228869 15477409 14703206
3126.07 13415875 12448331 10994821 9924147 8781834 7721219
3131.86 6889419 6376569 5627399 5134994 4612996 4095573
3137.64 3558302 3155039 3101999 2825746 2553197 2260020
3143.43 2152797 2083486 1765459 1791686 1721811 1578636
3149.21 1513597 1443641 1316839 1215179 1260977 1192300
3155.00 1196015 1140514 1148540 1173751 1000104 990591
3160.79 937220 1030446 771564 809634 784820 825734
3166.57 664398 875335 670629 716177 552794 944439
3172.36 673245 877156 547633 440142 515115 792153
3178.14 657729 734981 591776 816191 730108 593162
3183.93 592143 505312 614917 651308 535557 485465
3189.71 463430 551386 373867 451124 503801 694875
3195.50 424073 635544 446922 418782 167157 422633
3201.28 300624 320909 456070 337913 239762 139771
3207.07 372745 376327 347033 389434 597823 288805
3212.85 454222 350475 177965 84397-4543 21832
3218.64 53885-31463-98108-144092-303359-467209
3224.43-420194-411962-663893-485493-439708-507960
3230.21-181117-319724-519405-586005-925247-640177
3236.00-868761-384037-390024-361180-608952-306184
3241.78-545845-373515-358149-397428-129205-407596
3247.57-331320-144367-374345-228312-31003 149258
3253.35-45001 46399 56211 276636 287646 457365
3259.14 319148 216246 381271 364395 209733 381087
3264.92 258876 577213 327984 520289 517701 353358
3270.71 157918 375477 235319 197134 283173 28773
3276.49 154661 272932 181008 58993 66901-56914
3282.28-121936-32119 42406 100290-4838 79998
3288.07 7682 51166-47334 12019 46366 123635
3293.85 18239 138709-15408 198695-103820 73569
3299.64 83811 6737 56549-204390 210806 27028
3305.42-21783-37418-21072-5381-157584 103190
3311.21 11192-21373 41664-166478-56707-115365
3316.99-76896-83103-47387-127639 42987-4377
3322.78-43807-75535-272229 4854-155970 35331
3328.56-208030-20902 77953-18532 33924-59101
3334.35-108741-29851 103796-7531-256254 108136
3340.13 32439 133849 102222-69559-198079 86713
3345.92-17719 132945 26804 51812 95579-83127
3351.71-197632 80979-193841-90471-6644-39102
3357.49-32497-62880-201836-120884-43712-182775
3363.28-105379-217431-296468-115314-94523-109691
3369.06-157393 33798 346145-66151 175009-136350
3374.85-11989 109713-59792 170032 190865 9755
3380.63 318669 24798 30370 237186 405173 233274
3386.42 108728 499418 75035 512423 381881 332397
3392.20 166475 164668 540219 664650 758895 341857
3397.99 350218 503965 27871 315323 410801 470951
3403.77 460404 440666 247297 246804 502429 282134
3409.56 491677 263906 500687 467196 5735 413430
3415.35 288696 543277 500493 360034 353138 607398
3421.13 562353 483675 511815 322163 553412 410244
3426.92 245598 498647 461629 593298 239642 345636
3432.70 447432 668250 359060 384262 296805 396593
3438.49 259502 523926 426840 538622 203301 449978
3444.27 162724 429022 274486 556894 434922 479759
3450.06 322990 595523 406786 367087 535371 477362
3455.84 320721 485804 670826 451539 459180 212004
3461.63 459636 251571 521826 378037 278959 574803
3467.41 378132 519568 508861 446845 376340 408785
3473.20 162275 221642 154440 21822 255962-36205
3478.99-47863 56348-10280 175458-59081-1515
3484.77-216014-191223-164794-311215-365249-130154
3490.56-237573-188121-391125-428271-325351-112544
3496.34-338694-336330-97046-409346-207804-371125
3502.13-387457-412351-541060-416577-219064-333044
3507.91-311583-260102-404407-186738-509110-341645
3513.70-409800-396869-220566-208830-240682-314371
3519.48-503525-279392-182205-279371-456789-184415
3525.27-149562-443491-184557-181835-282045-73227
3531.05-187824-13039-92510-91978-169777-11351
3536.84 141103-14827 135157 210369 287364 113651
3542.63 81829 391916 422376 503680 476047 489647
3548.41 489353 798091 532532 408047 608260 588686
3554.20 517219 572697 448165 618876 514074 394064
3559.98 411276 461503 608069 353004 237558 437568
3565.77 471501 131788 30266 311444 12314 167342
3571.55 286283 164810 114338 269348 75020 155777
3577.34 77207 162488 70797 61946 76416 46559
3583.12 34404 223255-8391-240315-163462-182128
3588.91-20968-142354-276501-355970-84350-273597
3594.69-168428-121283-271022-236672-385868-285221
3600.48-450527-49380-390956-443917-276513-293894
3606.27-371720-388146-696812-236698-116113-357594
3612.05-388972-327378-537454-200348-285093-212254
3617.84-398438-590828-196801-284010-370694-174371
3623.62-248590-283316-308020-317653-489156-594969
3629.41-247285-363984-352969-284560-264651-71908
3635.19-304356-328769-273608-436309-243104-126834
3640.98-353924-400687-249809-225969-156049-438139
3646.76-374114-379559-714006-246764-369317-190168
3652.55-462632-349524-451459-505423-206824-210089
3658.33-185798-378933-410648-363973-266422-449964
3664.12-253985-347183-384763-279783-310404-429000
3669.91-856475-66993-191875-197164-697695-829678
3675.69-498541-245021-250467-212061-401299-123122
3681.48-290115-181400-436477-370979-197645-119917
3687.26-981970-435115-379687-413668-153291-213298
3693.05-501783 12116-213822-418575-265327-212088
3698.83-206507-27251-421083 72769-150419 52350
3704.62-294258 2211-216955-105254-599627-228471
3710.40-216441-438715 28702-106372-120128-241275
3716.19-126517 6128-190439-94332 94900-171572
3721.97-95753-109296-156188 171161 14278 282075
3727.76 35823 156911 375347 144524 126369 522345
3733.55 157332 279616 168992 362913 529192 555795
3739.33 553271 566238 406124 743907-234124-5275
3745.12 827136 683720 690129 136050 85443 719262
3750.90-19554 314677 831854 728335 785839 615880
3756.69 869222 563204 307495 603689 815987 715727
3762.47 933444 743659 726613 857851 917473 931389
3768.26 753913 651698 979265 949425 831066 755573
3774.04 905512 899036 888710 717113 888050 543519
3779.83 848868 870633 944708 747462 789740 705328
3785.61 709249 455735 571299 355587 465945 539697
3791.40 536225 587619 450416 558627 163772 207271
3797.19 448904 253254 219118-295564-138797 161085
3802.97 281763 151006 250029-11388 270698 291367
3808.76 52444 447911 24952 112853-9939 417353
3814.54-214726-181879 444057 367370 373723 190465
3820.33 19013 184287 453654 351807 554514 563688
3826.11 292934 494079 600707 583516 288319 365204
3831.90 656763 552894 381003 544767 634856 32822
3837.68 264667 688801 331802 490150 593450 526696
3843.47 506817 699475 535315 618815 462600 628355
3849.25 475650 435241-25656 359368-718250 228969
3855.04 400121 462111 541750 290901 520928 434651
3860.83-9391 330345 470077 163142 84967 513455
3866.61 352101 602537 117535 96695 416732 522872
3872.40 528879 462014 578361 700854 643834 727800
3878.18 745483 713252 504511 1012867 837061 887905
3883.97 903016 602376 871035 1085834 905175 1012868
3889.75 833851 912016 1207412 1193594 1172159 1171232
3895.54 1244869 1278023 1286916 1113059 1293015 1302460
3901.32 1292061 1482446 1338396 1517644 1541269 1937760
3907.11 1594502 1730494 1632986 1916834 1708745 1856633
3912.89 1930551 1955308 2030204 2000310 1851644 1860518
3918.68 1810790 1802395 1767600 2107105 1790845 1752990
3924.47 1883579 2045359 1753926 1473034 1760247 1675906
3930.25 1626728 1547049 1481606 1536397 1581074 1601129
3936.04 1549293 1468013 1641882 1433753 1527397 1510915
3941.82 1525912 1729049 1422579 1564501 1407444 1437242
3947.61 1381911 1702254 1397329 1622034 1452654 1347063
3953.39 1431694 1487020 1523862 1290192 1525751 1550676
3959.18 1577991 1534024 1672218 1556881 1582041 1637427
3964.96 1925748 1660000 1674467 1691663 1647870 1708040
3970.75 1704466 1539021 1660741 1807167
##END=
