##TITLE=ACETIC ACID ANHYDRIDE
##JCAMP-DX=4.24
##DATA TYPE=INFRARED SPECTRUM
##CLASS=COBLENTZ III
##ORIGIN=DOW CHEMICAL COMPANY
##OWNER=COBLENTZ SOCIETY
Collection (C) 2018 copyright by the U.S. Secretary of Commerce
on behalf of the United States of America. All rights reserved.
##DATE=1963/11/07
##NAMES=acetic anhydride
##CAS REGISTRY NO=108-24-7
##MOLFORM=C4 H6 O3
##SOURCE REFERENCE=COBLENTZ NO. 10197
##$NIST SOURCE=COBLENTZ
##$NIST IMAGE=cob10197
##SPECTROMETER/DATA SYSTEM=BECKMAN IR-9 (GRATING)
##INSTRUMENT PARAMETERS=ORDER CHANGES AT 670, 1200, 2000 CM^-^1
##STATE=SOLUTION (2% IN CCl4 FOR 3800-1330, 2% IN CS2 FOR 1330-400 CM^-^1)
##PATH LENGTH=0.011, 0.011 CM
$$SPECTRAL CONTAMINATION DUE TO AN UNKNOWN AROUND 1715, CCl4 AROUND 1550, AND CS2 AROUND 860, 655 CM^-^1
$$ SEE SPECTRUM NO. 5944 FOR LIQUID (NEAT) AND SOLUTION STATE
##SAMPLING PROCEDURE=TRANSMISSION
##RESOLUTION=4
##DATA PROCESSING=DIGITIZED BY NIST FROM HARD COPY (FROM TWO SEGMENTS)
##XUNITS=1/CM
##YUNITS=TRANSMITTANCE
##XFACTOR=1.000000
##YFACTOR=1
##DELTAX=0.853244
##FIRSTX=407.85
##LASTX=3798.64
##FIRSTY=0.29
##MAXX=3798.64
##MINX=407.85
##MAXY=0.975
##MINY=0.016
##NPOINTS=3975
##XYDATA=(X++(Y..Y))
407.850000 0.2900 0.2910 0.2960 0.2990 0.3060
412.116220 0.3100 0.3180 0.3240 0.3280 0.3360
416.382439 0.3440 0.3470 0.3520 0.3580 0.3670
420.648659 0.3770 0.3890 0.3990 0.4129 0.4249
424.914879 0.4370 0.4500 0.4630 0.4780 0.4930
429.181099 0.5090 0.5240 0.5529 0.5679 0.5819
433.447318 0.5960 0.6080 0.6180 0.6280 0.6370
437.713538 0.6440 0.6480 0.6490 0.6639 0.6789
441.979758 0.6930 0.7050 0.7170 0.7230 0.7280
446.245977 0.7370 0.7450 0.7540 0.7590 0.7660
450.512197 0.7710 0.7750 0.7790 0.7830 0.7910
454.778417 0.7960 0.8020 0.8060 0.8080 0.8100
459.044637 0.8120 0.8160 0.8240 0.8300 0.8320
463.310856 0.8350 0.8390 0.8430 0.8480 0.8500
467.577076 0.8520 0.8540 0.8560 0.8600 0.8640
471.843296 0.8670 0.8680 0.8700 0.8710 0.8720
476.109515 0.8750 0.8770 0.8790 0.8810 0.8820
480.375735 0.8850 0.8870 0.8890 0.8900 0.8910
484.641955 0.8940 0.9010 0.9050 0.9090 0.9110
488.908175 0.9140 0.9150 0.9180 0.9220 0.9220
493.174394 0.9230 0.9250 0.9260 0.9270 0.9290
497.440614 0.9300 0.9300 0.9300 0.9300 0.9310
501.706834 0.9330 0.9330 0.9330 0.9340 0.9340
505.973054 0.9340 0.9340 0.9340 0.9350 0.9350
510.239273 0.9370 0.9370 0.9370 0.9370 0.9380
514.505493 0.9380 0.9370 0.9350 0.9350 0.9340
518.771713 0.9330 0.9310 0.9290 0.9220 0.9170
523.037932 0.9110 0.9020 0.8930 0.8890 0.8810
527.304152 0.8740 0.8700 0.8680 0.8680 0.8700
531.570372 0.8740 0.8780 0.8820 0.8870 0.8890
535.836592 0.8910 0.8930 0.8940 0.8950 0.8970
540.102811 0.8970 0.8950 0.8950 0.8950 0.8970
544.369031 0.8970 0.8980 0.8990 0.8990 0.9010
548.635251 0.9010 0.9010 0.8990 0.8990 0.8990
552.901470 0.8980 0.8980 0.8950 0.8950 0.8940
557.167690 0.8940 0.8930 0.8900 0.8900 0.8890
561.433910 0.8890 0.8900 0.8930 0.8990 0.9030
565.700130 0.9090 0.9130 0.9170 0.9210 0.9250
569.966349 0.9300 0.9330 0.9340 0.9340 0.9350
574.232569 0.9350 0.9370 0.9370 0.9370 0.9370
578.498789 0.9370 0.9350 0.9330 0.9290 0.9210
582.765008 0.9150 0.9110 0.9070 0.8970 0.8890
587.031228 0.8830 0.8710 0.8600 0.8510 0.8430
591.297448 0.8380 0.8320 0.8310 0.8310 0.8310
595.563668 0.8320 0.8350 0.8360 0.8390 0.8480
599.829887 0.8510 0.8580 0.8640 0.8710 0.8720
604.096107 0.8850 0.8950 0.9030 0.9100 0.9130
608.362327 0.9150 0.9220 0.9300 0.9330 0.9340
612.628546 0.9340 0.9350 0.9370 0.9380 0.9410
616.894766 0.9430 0.9460 0.9490 0.9500 0.9530
621.160986 0.9530 0.9530 0.9530 0.9510 0.9500
625.427206 0.9490 0.9470 0.9460 0.9460 0.9460
629.693425 0.9460 0.9470 0.9470 0.9470 0.9470
633.959645 0.9460 0.9460 0.9430 0.9420 0.9410
638.225865 0.9410 0.9390 0.9350 0.9330 0.9310
642.492085 0.9300 0.9270 0.9250 0.9190 0.9170
646.758304 0.9130 0.9100 0.9060 0.9050 0.8990
651.024524 0.8980 0.8970 0.8950 0.8940 0.8910
655.290744 0.8910 0.8900 0.8900 0.8900 0.8910
659.556963 0.9010 0.9090 0.9180 0.9230 0.9230
663.823183 0.9300 0.9310 0.9330 0.9340 0.9350
668.089403 0.9390 0.9420 0.9420 0.9450 0.9470
672.355623 0.9490 0.9490 0.9490 0.9490 0.9490
676.621842 0.9490 0.9500 0.9500 0.9530 0.9530
680.888062 0.9540 0.9550 0.9550 0.9570 0.9570
685.154282 0.9580 0.9580 0.9590 0.9590 0.9590
689.420501 0.9590 0.9610 0.9630 0.9650 0.9650
693.686721 0.9650 0.9650 0.9650 0.9650 0.9650
697.952941 0.9650 0.9630 0.9630 0.9630 0.9630
702.219161 0.9630 0.9630 0.9650 0.9650 0.9650
706.485380 0.9650 0.9650 0.9650 0.9630 0.9630
710.751600 0.9650 0.9650 0.9650 0.9650 0.9650
715.017820 0.9650 0.9660 0.9660 0.9660 0.9660
719.284039 0.9660 0.9670 0.9670 0.9670 0.9670
723.550259 0.9670 0.9670 0.9670 0.9670 0.9670
727.816479 0.9690 0.9690 0.9690 0.9700 0.9700
732.082699 0.9700 0.9710 0.9710 0.9740 0.9740
736.348918 0.9750 0.9750 0.9750 0.9750 0.9750
740.615138 0.9750 0.9750 0.9740 0.9740 0.9740
744.881358 0.9740 0.9740 0.9740 0.9740 0.9750
749.147577 0.9750 0.9750 0.9750 0.9750 0.9750
753.413797 0.9750 0.9750 0.9740 0.9740 0.9730
757.680017 0.9730 0.9710 0.9710 0.9670 0.9660
761.946237 0.9650 0.9620 0.9610 0.9570 0.9550
766.212456 0.9530 0.9510 0.9500 0.9490 0.9420
770.478676 0.9350 0.9290 0.9230 0.9180 0.9110
774.744896 0.9030 0.8910 0.8860 0.8740 0.8670
779.011116 0.8560 0.8470 0.8440 0.8360 0.8340
783.277335 0.8320 0.8310 0.8310 0.8310 0.8320
787.543555 0.8350 0.8360 0.8390 0.8440 0.8510
791.809775 0.8560 0.8590 0.8670 0.8680 0.8700
796.075994 0.8700 0.8710 0.8720 0.8750 0.8780
800.342214 0.8790 0.8790 0.8790 0.8780 0.8770
804.608434 0.8740 0.8720 0.8700 0.8680 0.8680
808.874654 0.8680 0.8700 0.8720 0.8780 0.8810
813.140873 0.8890 0.8930 0.9030 0.9110 0.9180
817.407093 0.9220 0.9290 0.9300 0.9330 0.9370
821.673313 0.9390 0.9410 0.9410 0.9430 0.9450
825.939532 0.9460 0.9460 0.9470 0.9470 0.9470
830.205752 0.9490 0.9490 0.9490 0.9470 0.9460
834.471972 0.9450 0.9420 0.9390 0.9370 0.9340
838.738192 0.9310 0.9290 0.9250 0.9190 0.9130
843.004411 0.9060 0.8990 0.8910 0.8820 0.8720
847.270631 0.8630 0.8540 0.8430 0.8340 0.8260
851.536851 0.8160 0.8100 0.8030 0.7980 0.7940
855.803070 0.7910 0.7900 0.7840 0.7820 0.7800
860.069290 0.7790 0.7790 0.7800 0.7800 0.7820
864.335510 0.7840 0.7860 0.7870 0.7880 0.7900
868.601730 0.7910 0.7920 0.7940 0.7950 0.7960
872.867949 0.7960 0.7960 0.7950 0.7950 0.7950
877.134169 0.7940 0.7920 0.7910 0.7900 0.7830
881.400389 0.7740 0.7680 0.7620 0.7510 0.7400
885.666608 0.7250 0.7080 0.6870 0.6630 0.6330
889.932828 0.6061 0.5581 0.5371 0.5141 0.4821
894.199048 0.4630 0.4530 0.4500 0.4490 0.4510
898.465268 0.4650 0.4790 0.5009 0.5518 0.5719
902.731487 0.5800 0.5930 0.6020 0.6120 0.6170
906.997707 0.6220 0.6270 0.6280 0.6290 0.6330
911.263927 0.6390 0.6410 0.6430 0.6440 0.6450
915.530147 0.6490 0.6530 0.6560 0.6590 0.6630
919.796366 0.6690 0.6770 0.6840 0.6930 0.7010
924.062586 0.7110 0.7210 0.7320 0.7430 0.7550
928.328806 0.7670 0.7780 0.7900 0.8000 0.8150
932.595025 0.8200 0.8280 0.8340 0.8440 0.8500
936.861245 0.8600 0.8670 0.8680 0.8700 0.8740
941.127465 0.8790 0.8830 0.8870 0.8890 0.8900
945.393685 0.8910 0.8950 0.8970 0.8980 0.8990
949.659904 0.9010 0.9020 0.9030 0.9050 0.9050
953.926124 0.9050 0.9050 0.9050 0.9050 0.9050
958.192344 0.9030 0.9030 0.9020 0.9010 0.8980
962.458563 0.8970 0.8930 0.8910 0.8900 0.8870
966.724783 0.8810 0.8770 0.8720 0.8670 0.8600
970.991003 0.8520 0.8430 0.8340 0.8240 0.8120
975.257223 0.7990 0.7820 0.7710 0.7511 0.7390
979.523442 0.7079 0.6690 0.6290 0.5890 0.5580
983.789662 0.5490 0.5380 0.4821 0.4381 0.4031
988.055882 0.3740 0.3350 0.2700 0.2590 0.2450
992.322101 0.2430 0.2430 0.2440 0.2520 0.2749
996.588321 0.2780 0.2920 0.2950 0.3100 0.3230
1000.854541 0.3380 0.3510 0.3630 0.3720 0.3820
1005.120761 0.3850 0.3930 0.4010 0.4100 0.4300
1009.386980 0.4460 0.4870 0.5559 0.5740 0.6009
1013.653200 0.6270 0.6560 0.6710 0.6890 0.7070
1017.919420 0.7190 0.7250 0.7390 0.7550 0.7699
1022.185639 0.7750 0.7790 0.7900 0.7920 0.7950
1026.451859 0.7960 0.7990 0.8030 0.8040 0.8060
1030.718079 0.8040 0.8020 0.8000 0.7980 0.7950
1034.984299 0.7920 0.7900 0.7780 0.7740 0.7700
1039.250518 0.7560 0.7430 0.7360 0.7270 0.7240
1043.516738 0.7210 0.7190 0.7170 0.7160 0.7160
1047.782958 0.7170 0.7190 0.7210 0.7250 0.7360
1052.049178 0.7410 0.7440 0.7540 0.7580 0.7620
1056.315397 0.7640 0.7680 0.7720 0.7740 0.7750
1060.581617 0.7760 0.7780 0.7790 0.7790 0.7800
1064.847837 0.7800 0.7800 0.7800 0.7800 0.7800
1069.114056 0.7800 0.7800 0.7800 0.7800 0.7800
1073.380276 0.7800 0.7800 0.7800 0.7790 0.7790
1077.646496 0.7790 0.7790 0.7780 0.7760 0.7750
1081.912716 0.7740 0.7740 0.7700 0.7700 0.7670
1086.178935 0.7640 0.7620 0.7590 0.7580 0.7560
1090.445155 0.7480 0.7400 0.7390 0.7290 0.7240
1094.711375 0.7210 0.7110 0.7050 0.6960 0.6791
1098.977594 0.6510 0.6350 0.6220 0.6080 0.5920
1103.243814 0.5660 0.5570 0.5460 0.5221 0.4821
1107.510034 0.4430 0.4070 0.3890 0.2980 0.2331
1111.776254 0.1921 0.1631 0.1411 0.1171 0.1011
1116.042473 0.0840 0.0680 0.0490 0.0410 0.0340
1120.308693 0.0260 0.0170 0.0160 0.0160 0.0170
1124.574913 0.0180 0.0210 0.0290 0.0400 0.0480
1128.841132 0.0640 0.0980 0.1200 0.1430 0.1639
1133.107352 0.1880 0.2110 0.2320 0.2550 0.2760
1137.373572 0.2950 0.3220 0.3260 0.3440 0.3679
1141.639792 0.3970 0.4050 0.4190 0.4430 0.4550
1145.906011 0.4750 0.4940 0.5140 0.5639 0.5700
1150.172231 0.5980 0.6200 0.6360 0.6440 0.6530
1154.438451 0.6710 0.6830 0.7040 0.7200 0.7270
1158.704670 0.7390 0.7510 0.7600 0.7670 0.7750
1162.970890 0.7800 0.7870 0.7920 0.7960 0.8020
1167.237110 0.8060 0.8110 0.8120 0.8180 0.8220
1171.503330 0.8270 0.8300 0.8300 0.8320 0.8350
1175.769549 0.8380 0.8390 0.8400 0.8420 0.8440
1180.035769 0.8460 0.8460 0.8480 0.8480 0.8480
1184.301989 0.8500 0.8500 0.8500 0.8500 0.8500
1188.568208 0.8500 0.8480 0.8470 0.8440 0.8430
1192.834428 0.8420 0.8390 0.8380 0.8360 0.8340
1197.100648 0.8310 0.8300 0.8280 0.8260 0.8200
1201.366868 0.8180 0.8150 0.8120 0.8100 0.8030
1205.633087 0.7990 0.7940 0.7860 0.7780 0.7740
1209.899307 0.7560 0.7430 0.7270 0.7200 0.7080
1214.165527 0.7030 0.6890 0.6760 0.6630 0.6550
1218.431747 0.6450 0.6390 0.6290 0.6270 0.6240
1222.697966 0.6240 0.6250 0.6280 0.6350 0.6410
1226.964186 0.6510 0.6630 0.6750 0.6880 0.7030
1231.230406 0.7190 0.7270 0.7390 0.7470 0.7600
1235.496625 0.7740 0.7780 0.7910 0.7950 0.8060
1239.762845 0.8150 0.8230 0.8300 0.8350 0.8390
1244.029065 0.8470 0.8520 0.8580 0.8630 0.8680
1248.295285 0.8710 0.8770 0.8820 0.8860 0.8900
1252.561504 0.8930 0.8950 0.8990 0.9020 0.9100
1256.827724 0.9100 0.9130 0.9150 0.9170 0.9180
1261.093944 0.9210 0.9220 0.9230 0.9230 0.9260
1265.360163 0.9260 0.9270 0.9270 0.9290 0.9300
1269.626383 0.9300 0.9300 0.9300 0.9300 0.9300
1273.892603 0.9300 0.9300 0.9290 0.9290 0.9290
1278.158823 0.9290 0.9270 0.9270 0.9260 0.9260
1282.425042 0.9230 0.9220 0.9190 0.9150 0.9130
1286.691262 0.9110 0.9100 0.9090 0.9070 0.9060
1290.957482 0.9060 0.9050 0.9050 0.9060 0.9070
1295.223701 0.9090 0.9100 0.9150 0.9190 0.9210
1299.489921 0.9250 0.9300 0.9310 0.9330 0.9330
1303.756141 0.9340 0.9340 0.9340 0.9340 0.9350
1308.022361 0.9350 0.9350 0.9350 0.9350 0.9350
1312.288580 0.9350 0.9350 0.9350 0.9350 0.9350
1316.554800 0.9350 0.9340 0.9340 0.9340 0.9340
1320.821020 0.9330 0.9310 0.9310 0.9310 0.9300
1325.087239 0.9300 0.9300 0.9300 0.9270 0.9250
1329.353459 0.9220 0.9190 0.9180 0.9170 0.9150
1333.619679 0.9140 0.9130 0.9110 0.9100 0.9100
1337.885899 0.9090 0.9070 0.9060 0.9050 0.9050
1342.152118 0.9050 0.9030 0.9020 0.9010 0.8970
1346.418338 0.8950 0.8930 0.8910 0.8900 0.8860
1350.684558 0.8810 0.8770 0.8700 0.8670 0.8590
1354.950778 0.8500 0.8380 0.8240 0.8100 0.7950
1359.216997 0.7870 0.7560 0.6851 0.6710 0.6161
1363.483217 0.5679 0.5179 0.4699 0.4009 0.3160
1367.749437 0.2910 0.2670 0.2670 0.3079 0.3260
1372.015656 0.3831 0.4370 0.4611 0.5720 0.6120
1376.281876 0.6570 0.6830 0.7090 0.7210 0.7519
1380.548096 0.7710 0.7820 0.7940 0.8030 0.8110
1384.814316 0.8160 0.8200 0.8300 0.8340 0.8420
1389.080535 0.8460 0.8500 0.8520 0.8560 0.8580
1393.346755 0.8590 0.8620 0.8620 0.8630 0.8630
1397.612975 0.8630 0.8630 0.8630 0.8630 0.8620
1401.879194 0.8620 0.8600 0.8590 0.8560 0.8540
1406.145414 0.8510 0.8480 0.8470 0.8420 0.8360
1410.411634 0.8310 0.8260 0.8200 0.8140 0.8120
1414.677854 0.8080 0.7990 0.7940 0.7870 0.7790
1418.944073 0.7780 0.7720 0.7630 0.7540 0.7480
1423.210293 0.7430 0.7360 0.7270 0.7190 0.7120
1427.476513 0.7090 0.7080 0.7070 0.7070 0.7080
1431.742732 0.7120 0.7130 0.7210 0.7280 0.7390
1436.008952 0.7440 0.7540 0.7620 0.7720 0.7820
1440.275172 0.7920 0.8020 0.8100 0.8140 0.8190
1444.541392 0.8300 0.8310 0.8340 0.8390 0.8430
1448.807611 0.8470 0.8510 0.8540 0.8590 0.8630
1453.073831 0.8640 0.8660 0.8680 0.8680 0.8700
1457.340051 0.8710 0.8710 0.8720 0.8740 0.8750
1461.606270 0.8770 0.8770 0.8780 0.8780 0.8790
1465.872490 0.8810 0.8820 0.8830 0.8850 0.8860
1470.138710 0.8860 0.8860 0.8860 0.8860 0.8860
1474.404930 0.8860 0.8860 0.8850 0.8850 0.8850
1478.671149 0.8830 0.8830 0.8820 0.8810 0.8790
1482.937369 0.8780 0.8770 0.8740 0.8710 0.8700
1487.203589 0.8680 0.8680 0.8670 0.8630 0.8580
1491.469809 0.8540 0.8510 0.8480 0.8430 0.8390
1495.736028 0.8350 0.8320 0.8270 0.8240 0.8190
1500.002248 0.8150 0.8080 0.8030 0.7950 0.7940
1504.268468 0.7900 0.7790 0.7750 0.7720 0.7660
1508.534687 0.7600 0.7540 0.7470 0.7400 0.7360
1512.800907 0.7310 0.7240 0.7210 0.7160 0.7090
1517.067127 0.7050 0.7040 0.7010 0.6930 0.6850
1521.333347 0.6810 0.6750 0.6720 0.6670 0.6640
1525.599566 0.6610 0.6570 0.6520 0.6450 0.6410
1529.865786 0.6310 0.6200 0.6090 0.6020 0.6000
1534.132006 0.5880 0.5800 0.5730 0.5620 0.5570
1538.398225 0.5530 0.5480 0.5420 0.5280 0.5180
1542.664445 0.5050 0.4980 0.4870 0.4780 0.4710
1546.930665 0.4660 0.4620 0.4570 0.4550 0.4540
1551.196885 0.4530 0.4510 0.4510 0.4510 0.4530
1555.463104 0.4540 0.4550 0.4620 0.4650 0.4710
1559.729324 0.4770 0.4850 0.4930 0.5040 0.5130
1563.995544 0.5200 0.5290 0.5370 0.5600 0.5660
1568.261763 0.5720 0.5760 0.5850 0.5940 0.6000
1572.527983 0.6040 0.6060 0.6100 0.6140 0.6160
1576.794203 0.6180 0.6220 0.6270 0.6280 0.6290
1581.060423 0.6310 0.6320 0.6320 0.6360 0.6370
1585.326642 0.6430 0.6430 0.6470 0.6550 0.6600
1589.592862 0.6650 0.6730 0.6810 0.6890 0.6950
1593.859082 0.7070 0.7210 0.7310 0.7370 0.7430
1598.125301 0.7450 0.7550 0.7640 0.7750 0.7840
1602.391521 0.7940 0.8000 0.8100 0.8150 0.8220
1606.657741 0.8300 0.8340 0.8360 0.8400 0.8510
1610.923961 0.8560 0.8590 0.8630 0.8670 0.8700
1615.190180 0.8720 0.8780 0.8820 0.8850 0.8890
1619.456400 0.8900 0.8910 0.8940 0.8970 0.8980
1623.722620 0.8990 0.9020 0.9030 0.9050 0.9060
1627.988840 0.9070 0.9100 0.9110 0.9110 0.9130
1632.255059 0.9140 0.9140 0.9150 0.9150 0.9150
1636.521279 0.9170 0.9170 0.9180 0.9190 0.9190
1640.787499 0.9210 0.9210 0.9210 0.9210 0.9220
1645.053718 0.9220 0.9220 0.9220 0.9220 0.9220
1649.319938 0.9220 0.9220 0.9220 0.9220 0.9220
1653.586158 0.9210 0.9210 0.9210 0.9210 0.9210
1657.852378 0.9220 0.9220 0.9220 0.9220 0.9220
1662.118597 0.9220 0.9220 0.9230 0.9230 0.9230
1666.384817 0.9230 0.9230 0.9250 0.9250 0.9230
1670.651037 0.9230 0.9230 0.9220 0.9220 0.9220
1674.917256 0.9220 0.9220 0.9220 0.9210 0.9210
1679.183476 0.9190 0.9180 0.9150 0.9140 0.9130
1683.449696 0.9110 0.9100 0.9060 0.9030 0.9010
1687.715916 0.8990 0.8980 0.8970 0.8950 0.8930
1691.982135 0.8910 0.8900 0.8890 0.8890 0.8870
1696.248355 0.8870 0.8870 0.8860 0.8860 0.8850
1700.514575 0.8850 0.8820 0.8820 0.8810 0.8790
1704.780794 0.8770 0.8740 0.8700 0.8680 0.8630
1709.047014 0.8590 0.8480 0.8340 0.8160 0.7960
1713.313234 0.7910 0.7830 0.7750 0.7720 0.7740
1717.579454 0.7790 0.7880 0.7950 0.8100 0.8150
1721.845673 0.8200 0.8200 0.8230 0.8260 0.8260
1726.111893 0.8270 0.8270 0.8260 0.8240 0.8230
1730.378113 0.8200 0.8150 0.8110 0.8100 0.8030
1734.644332 0.7950 0.7910 0.7760 0.7670 0.7620
1738.910552 0.7550 0.7440 0.7239 0.6970 0.6800
1743.176772 0.6760 0.6550 0.6370 0.6120 0.5900
1747.442992 0.5660 0.5520 0.5369 0.5089 0.4710
1751.709211 0.4350 0.4010 0.3740 0.3400 0.3180
1755.975431 0.2670 0.2550 0.2470 0.2350 0.2270
1760.241651 0.2150 0.2130 0.2160 0.2190 0.2250
1764.507870 0.2320 0.2410 0.2500 0.2620 0.2740
1768.774090 0.2840 0.2960 0.3070 0.3180 0.3300
1773.040310 0.3400 0.3510 0.3620 0.3720 0.3850
1777.306530 0.3950 0.4060 0.4170 0.4290 0.4390
1781.572749 0.4500 0.4610 0.4650 0.4690 0.4770
1785.838969 0.4860 0.4900 0.4980 0.5000 0.5020
1790.105189 0.5020 0.5050 0.5050 0.5020 0.5010
1794.371409 0.4970 0.4870 0.4770 0.4660 0.4610
1798.637628 0.4539 0.4370 0.4260 0.4170 0.4050
1802.903848 0.3910 0.3790 0.3710 0.3680 0.3640
1807.170068 0.3620 0.3600 0.3590 0.3580 0.3550
1811.436287 0.3540 0.3520 0.3520 0.3510 0.3470
1815.702507 0.3440 0.3380 0.3340 0.3280 0.3190
1819.968727 0.3100 0.3020 0.2870 0.2780 0.2670
1824.234947 0.2499 0.2280 0.2150 0.2030 0.1960
1828.501166 0.1850 0.1730 0.1640 0.1550 0.1490
1832.767386 0.1480 0.1490 0.1680 0.1870 0.2120
1837.033606 0.2360 0.2980 0.3340 0.3869 0.4369
1841.299825 0.4823 0.5611 0.5821 0.6200 0.6430
1845.566045 0.6600 0.6870 0.7050 0.7200 0.7390
1849.832265 0.7500 0.7620 0.7740 0.7820 0.7910
1854.098485 0.7960 0.8070 0.8140 0.8180 0.8230
1858.364704 0.8280 0.8280 0.8350 0.8400 0.8440
1862.630924 0.8470 0.8500 0.8510 0.8540 0.8560
1866.897144 0.8590 0.8620 0.8630 0.8680 0.8680
1871.163363 0.8710 0.8720 0.8710 0.8740 0.8770
1875.429583 0.8790 0.8820 0.8830 0.8850 0.8890
1879.695803 0.8900 0.8910 0.8930 0.8940 0.8970
1883.962023 0.8980 0.8990 0.9010 0.9030 0.9050
1888.228242 0.9060 0.9060 0.9070 0.9090 0.9090
1892.494462 0.9100 0.9110 0.9110 0.9130 0.9130
1896.760682 0.9130 0.9140 0.9150 0.9150 0.9170
1901.026901 0.9170 0.9180 0.9180 0.9180 0.9180
1905.293121 0.9190 0.9190 0.9190 0.9210 0.9210
1909.559341 0.9210 0.9210 0.9220 0.9220 0.9230
1913.825561 0.9230 0.9230 0.9230 0.9230 0.9230
1918.091780 0.9230 0.9230 0.9230 0.9230 0.9230
1922.358000 0.9230 0.9230 0.9230 0.9230 0.9250
1926.624220 0.9250 0.9250 0.9260 0.9260 0.9260
1930.890440 0.9260 0.9270 0.9270 0.9270 0.9270
1935.156659 0.9300 0.9300 0.9310 0.9310 0.9310
1939.422879 0.9310 0.9330 0.9330 0.9330 0.9330
1943.689099 0.9330 0.9340 0.9340 0.9340 0.9340
1947.955318 0.9350 0.9350 0.9350 0.9350 0.9350
1952.221538 0.9350 0.9350 0.9350 0.9350 0.9350
1956.487758 0.9350 0.9350 0.9350 0.9350 0.9350
1960.753978 0.9350 0.9350 0.9350 0.9350 0.9350
1965.020197 0.9350 0.9350 0.9350 0.9350 0.9350
1969.286417 0.9350 0.9350 0.9350 0.9350 0.9350
1973.552637 0.9350 0.9350 0.9350 0.9350 0.9350
1977.818856 0.9350 0.9350 0.9350 0.9350 0.9350
1982.085076 0.9340 0.9340 0.9340 0.9340 0.9340
1986.351296 0.9340 0.9330 0.9330 0.9330 0.9330
1990.617516 0.9310 0.9310 0.9310 0.9310 0.9310
1994.883735 0.9310 0.9310 0.9310 0.9310 0.9310
1999.149955 0.9310 0.9310 0.9320 0.9330 0.9330
2003.416175 0.9330 0.9330 0.9330 0.9335 0.9340
2007.682394 0.9340 0.9340 0.9345 0.9350 0.9360
2011.948614 0.9370 0.9370 0.9370 0.9370 0.9370
2016.214834 0.9370 0.9370 0.9370 0.9370 0.9370
2020.481054 0.9370 0.9370 0.9370 0.9370 0.9370
2024.747273 0.9370 0.9370 0.9375 0.9380 0.9380
2029.013493 0.9380 0.9380 0.9380 0.9385 0.9390
2033.279713 0.9390 0.9390 0.9390 0.9390 0.9400
2037.545932 0.9410 0.9410 0.9410 0.9410 0.9410
2041.812152 0.9415 0.9420 0.9420 0.9420 0.9420
2046.078372 0.9420 0.9420 0.9420 0.9425 0.9430
2050.344592 0.9440 0.9450 0.9450 0.9450 0.9450
2054.610811 0.9450 0.9450 0.9450 0.9450 0.9450
2058.877031 0.9450 0.9450 0.9440 0.9430 0.9430
2063.143251 0.9430 0.9430 0.9430 0.9430 0.9430
2067.409471 0.9430 0.9430 0.9440 0.9450 0.9440
2071.675690 0.9430 0.9430 0.9430 0.9430 0.9430
2075.941910 0.9430 0.9430 0.9440 0.9450 0.9455
2080.208130 0.9460 0.9460 0.9460 0.9460 0.9460
2084.474349 0.9460 0.9460 0.9460 0.9460 0.9465
2088.740569 0.9470 0.9470 0.9470 0.9470 0.9470
2093.006789 0.9470 0.9470 0.9470 0.9470 0.9465
2097.273009 0.9460 0.9455 0.9450 0.9440 0.9430
2101.539228 0.9430 0.9430 0.9430 0.9430 0.9425
2105.805448 0.9420 0.9420 0.9420 0.9420 0.9420
2110.071668 0.9415 0.9410 0.9400 0.9390 0.9385
2114.337887 0.9380 0.9380 0.9380 0.9375 0.9370
2118.604107 0.9370 0.9370 0.9370 0.9370 0.9360
2122.870327 0.9350 0.9350 0.9350 0.9360 0.9370
2127.136547 0.9370 0.9370 0.9370 0.9370 0.9370
2131.402766 0.9370 0.9375 0.9380 0.9380 0.9380
2135.668986 0.9380 0.9380 0.9380 0.9380 0.9385
2139.935206 0.9390 0.9390 0.9390 0.9390 0.9390
2144.201425 0.9390 0.9390 0.9390 0.9390 0.9399
2148.467645 0.9409 0.9410 0.9410 0.9410 0.9410
2152.733865 0.9410 0.9410 0.9415 0.9420 0.9420
2157.000085 0.9420 0.9420 0.9420 0.9420 0.9420
2161.266304 0.9425 0.9430 0.9430 0.9430 0.9430
2165.532524 0.9430 0.9430 0.9430 0.9430 0.9430
2169.798744 0.9439 0.9449 0.9450 0.9450 0.9450
2174.064963 0.9450 0.9450 0.9450 0.9450 0.9450
2178.331183 0.9450 0.9450 0.9455 0.9460 0.9460
2182.597403 0.9460 0.9460 0.9460 0.9460 0.9460
2186.863623 0.9460 0.9460 0.9460 0.9460 0.9465
2191.129842 0.9470 0.9465 0.9460 0.9460 0.9460
2195.396062 0.9460 0.9460 0.9460 0.9460 0.9460
2199.662282 0.9460 0.9460 0.9460 0.9460 0.9460
2203.928502 0.9465 0.9470 0.9465 0.9460 0.9460
2208.194721 0.9460 0.9460 0.9460 0.9460 0.9460
2212.460941 0.9455 0.9450 0.9450 0.9450 0.9450
2216.727161 0.9450 0.9450 0.9450 0.9450 0.9450
2220.993380 0.9450 0.9450 0.9441 0.9431 0.9430
2225.259600 0.9430 0.9430 0.9430 0.9430 0.9430
2229.525820 0.9430 0.9430 0.9425 0.9420 0.9420
2233.792040 0.9420 0.9420 0.9420 0.9420 0.9420
2238.058259 0.9415 0.9410 0.9415 0.9420 0.9415
2242.324479 0.9410 0.9410 0.9410 0.9410 0.9410
2246.590699 0.9410 0.9410 0.9410 0.9410 0.9410
2250.856918 0.9410 0.9401 0.9391 0.9390 0.9390
2255.123138 0.9381 0.9371 0.9370 0.9370 0.9361
2259.389358 0.9351 0.9350 0.9350 0.9345 0.9340
2263.655578 0.9340 0.9340 0.9335 0.9330 0.9330
2267.921797 0.9330 0.9330 0.9330 0.9321 0.9311
2272.188017 0.9310 0.9310 0.9310 0.9310 0.9305
2276.454237 0.9300 0.9295 0.9290 0.9290 0.9290
2280.720456 0.9290 0.9290 0.9276 0.9262 0.9260
2284.986676 0.9260 0.9256 0.9251 0.9250 0.9250
2289.252896 0.9241 0.9231 0.9225 0.9220 0.9220
2293.519116 0.9220 0.9215 0.9210 0.9210 0.9210
2297.785335 0.9210 0.9210 0.9210 0.9210 0.9210
2302.051555 0.9210 0.9214 0.9219 0.9220 0.9220
2306.317775 0.9224 0.9230 0.9230 0.9230 0.9239
2310.583994 0.9249 0.9250 0.9250 0.9254 0.9259
2314.850214 0.9260 0.9260 0.9264 0.9269 0.9266
2319.116434 0.9261 0.9260 0.9260 0.9264 0.9269
2323.382654 0.9270 0.9270 0.9270 0.9270 0.9270
2327.648873 0.9270 0.9279 0.9289 0.9290 0.9290
2331.915093 0.9290 0.9290 0.9290 0.9290 0.9290
2336.181313 0.9290 0.9290 0.9290 0.9290 0.9290
2340.447533 0.9294 0.9299 0.9300 0.9300 0.9300
2344.713752 0.9300 0.9304 0.9309 0.9310 0.9310
2348.979972 0.9310 0.9310 0.9310 0.9310 0.9310
2353.246192 0.9310 0.9310 0.9310 0.9310 0.9310
2357.512411 0.9319 0.9329 0.9330 0.9330 0.9330
2361.778631 0.9330 0.9330 0.9330 0.9330 0.9330
2366.044851 0.9330 0.9330 0.9330 0.9330 0.9330
2370.311071 0.9330 0.9334 0.9339 0.9340 0.9340
2374.577290 0.9340 0.9340 0.9344 0.9349 0.9350
2378.843510 0.9350 0.9359 0.9369 0.9370 0.9370
2383.109730 0.9370 0.9370 0.9370 0.9370 0.9370
2387.375949 0.9370 0.9370 0.9370 0.9370 0.9370
2391.642169 0.9370 0.9370 0.9370 0.9370 0.9361
2395.908389 0.9351 0.9350 0.9350 0.9350 0.9350
2400.174609 0.9350 0.9350 0.9350 0.9350 0.9350
2404.440828 0.9350 0.9350 0.9350 0.9350 0.9350
2408.707048 0.9350 0.9350 0.9350 0.9350 0.9350
2412.973268 0.9350 0.9359 0.9369 0.9370 0.9370
2417.239487 0.9370 0.9370 0.9361 0.9351 0.9350
2421.505707 0.9350 0.9350 0.9350 0.9350 0.9350
2425.771927 0.9350 0.9350 0.9350 0.9350 0.9350
2430.038147 0.9350 0.9359 0.9369 0.9370 0.9370
2434.304366 0.9370 0.9370 0.9370 0.9370 0.9374
2438.570586 0.9379 0.9380 0.9380 0.9380 0.9380
2442.836806 0.9380 0.9380 0.9380 0.9380 0.9384
2447.103025 0.9389 0.9390 0.9390 0.9390 0.9390
2451.369245 0.9398 0.9408 0.9410 0.9410 0.9410
2455.635465 0.9410 0.9410 0.9410 0.9410 0.9410
2459.901685 0.9410 0.9410 0.9410 0.9410 0.9410
2464.167904 0.9410 0.9410 0.9410 0.9402 0.9392
2468.434124 0.9398 0.9408 0.9410 0.9410 0.9402
2472.700344 0.9392 0.9390 0.9390 0.9386 0.9381
2476.966563 0.9380 0.9380 0.9384 0.9389 0.9390
2481.232783 0.9390 0.9386 0.9381 0.9380 0.9380
2485.499003 0.9380 0.9380 0.9380 0.9380 0.9380
2489.765223 0.9380 0.9380 0.9380 0.9380 0.9380
2494.031442 0.9380 0.9380 0.9380 0.9380 0.9376
2498.297662 0.9371 0.9370 0.9370 0.9370 0.9370
2502.563882 0.9374 0.9379 0.9376 0.9371 0.9370
2506.830102 0.9370 0.9370 0.9370 0.9374 0.9379
2511.096321 0.9380 0.9380 0.9380 0.9380 0.9380
2515.362541 0.9380 0.9380 0.9380 0.9376 0.9371
2519.628761 0.9370 0.9370 0.9370 0.9370 0.9370
2523.894980 0.9370 0.9370 0.9370 0.9370 0.9370
2528.161200 0.9370 0.9370 0.9374 0.9379 0.9380
2532.427420 0.9380 0.9380 0.9380 0.9380 0.9380
2536.693640 0.9380 0.9380 0.9380 0.9380 0.9384
2540.959859 0.9389 0.9386 0.9381 0.9380 0.9380
2545.226079 0.9380 0.9380 0.9384 0.9389 0.9390
2549.492299 0.9390 0.9390 0.9390 0.9390 0.9390
2553.758518 0.9390 0.9390 0.9390 0.9390 0.9390
2558.024738 0.9390 0.9390 0.9390 0.9390 0.9390
2562.290958 0.9390 0.9390 0.9390 0.9390 0.9390
2566.557178 0.9390 0.9390 0.9390 0.9386 0.9381
2570.823397 0.9380 0.9380 0.9380 0.9380 0.9380
2575.089617 0.9380 0.9380 0.9380 0.9376 0.9371
2579.355837 0.9370 0.9370 0.9370 0.9370 0.9370
2583.622056 0.9370 0.9370 0.9370 0.9370 0.9370
2587.888276 0.9362 0.9352 0.9350 0.9350 0.9350
2592.154496 0.9350 0.9350 0.9350 0.9350 0.9350
2596.420716 0.9350 0.9350 0.9350 0.9350 0.9346
2600.686935 0.9341 0.9340 0.9340 0.9340 0.9340
2604.953155 0.9340 0.9340 0.9340 0.9340 0.9340
2609.219375 0.9340 0.9340 0.9340 0.9340 0.9340
2613.485594 0.9340 0.9340 0.9340 0.9340 0.9340
2617.751814 0.9340 0.9340 0.9340 0.9340 0.9340
2622.018034 0.9344 0.9349 0.9346 0.9341 0.9340
2626.284254 0.9340 0.9340 0.9340 0.9336 0.9331
2630.550473 0.9330 0.9330 0.9330 0.9330 0.9330
2634.816693 0.9330 0.9330 0.9330 0.9330 0.9330
2639.082913 0.9334 0.9339 0.9340 0.9340 0.9336
2643.349133 0.9331 0.9330 0.9330 0.9330 0.9330
2647.615352 0.9330 0.9330 0.9330 0.9330 0.9330
2651.881572 0.9330 0.9334 0.9339 0.9336 0.9331
2656.147792 0.9330 0.9330 0.9330 0.9330 0.9330
2660.414011 0.9330 0.9330 0.9330 0.9330 0.9330
2664.680231 0.9330 0.9330 0.9330 0.9330 0.9330
2668.946451 0.9330 0.9330 0.9330 0.9330 0.9330
2673.212671 0.9330 0.9330 0.9330 0.9330 0.9330
2677.478890 0.9330 0.9330 0.9330 0.9330 0.9330
2681.745110 0.9330 0.9330 0.9330 0.9330 0.9322
2686.011330 0.9312 0.9310 0.9310 0.9310 0.9310
2690.277549 0.9310 0.9310 0.9310 0.9310 0.9310
2694.543769 0.9310 0.9310 0.9310 0.9310 0.9310
2698.809989 0.9310 0.9310 0.9310 0.9310 0.9310
2703.076209 0.9310 0.9310 0.9310 0.9310 0.9310
2707.342428 0.9310 0.9310 0.9310 0.9310 0.9310
2711.608648 0.9310 0.9310 0.9310 0.9310 0.9310
2715.874868 0.9310 0.9310 0.9310 0.9310 0.9310
2720.141087 0.9310 0.9310 0.9310 0.9310 0.9310
2724.407307 0.9310 0.9310 0.9310 0.9310 0.9310
2728.673527 0.9310 0.9310 0.9310 0.9310 0.9310
2732.939747 0.9310 0.9310 0.9310 0.9310 0.9310
2737.205966 0.9310 0.9310 0.9310 0.9310 0.9310
2741.472186 0.9310 0.9310 0.9310 0.9310 0.9310
2745.738406 0.9310 0.9310 0.9310 0.9317 0.9327
2750.004625 0.9330 0.9330 0.9319 0.9304 0.9300
2754.270845 0.9300 0.9300 0.9300 0.9300 0.9300
2758.537065 0.9300 0.9300 0.9300 0.9300 0.9300
2762.803285 0.9300 0.9300 0.9300 0.9304 0.9309
2767.069504 0.9310 0.9310 0.9317 0.9327 0.9330
2771.335724 0.9330 0.9323 0.9313 0.9310 0.9310
2775.601944 0.9310 0.9310 0.9310 0.9310 0.9317
2779.868164 0.9327 0.9330 0.9330 0.9319 0.9304
2784.134383 0.9300 0.9300 0.9300 0.9300 0.9300
2788.400603 0.9300 0.9300 0.9300 0.9300 0.9300
2792.666823 0.9300 0.9300 0.9300 0.9300 0.9300
2796.933042 0.9300 0.9300 0.9300 0.9300 0.9300
2801.199262 0.9300 0.9300 0.9300 0.9300 0.9304
2805.465482 0.9309 0.9310 0.9310 0.9310 0.9310
2809.731702 0.9317 0.9327 0.9330 0.9330 0.9323
2813.997921 0.9313 0.9310 0.9310 0.9317 0.9327
2818.264141 0.9330 0.9330 0.9330 0.9330 0.9330
2822.530361 0.9330 0.9330 0.9330 0.9330 0.9330
2826.796580 0.9330 0.9330 0.9330 0.9330 0.9330
2831.062800 0.9330 0.9330 0.9330 0.9330 0.9330
2835.329020 0.9330 0.9330 0.9323 0.9313 0.9310
2839.595240 0.9310 0.9310 0.9310 0.9310 0.9310
2843.861459 0.9310 0.9310 0.9310 0.9310 0.9310
2848.127679 0.9310 0.9310 0.9310 0.9310 0.9310
2852.393899 0.9310 0.9310 0.9310 0.9310 0.9310
2856.660118 0.9310 0.9317 0.9327 0.9330 0.9330
2860.926338 0.9334 0.9339 0.9340 0.9340 0.9340
2865.192558 0.9340 0.9344 0.9349 0.9350 0.9350
2869.458778 0.9350 0.9350 0.9350 0.9350 0.9350
2873.724997 0.9350 0.9350 0.9350 0.9350 0.9350
2877.991217 0.9350 0.9350 0.9350 0.9350 0.9350
2882.257437 0.9350 0.9350 0.9350 0.9350 0.9350
2886.523656 0.9350 0.9350 0.9350 0.9350 0.9350
2890.789876 0.9350 0.9346 0.9341 0.9340 0.9340
2895.056096 0.9337 0.9332 0.9330 0.9330 0.9330
2899.322316 0.9330 0.9330 0.9330 0.9330 0.9330
2903.588535 0.9330 0.9330 0.9323 0.9313 0.9310
2907.854755 0.9310 0.9307 0.9302 0.9290 0.9275
2912.120975 0.9270 0.9270 0.9267 0.9262 0.9260
2916.387195 0.9260 0.9257 0.9252 0.9250 0.9250
2920.653414 0.9243 0.9233 0.9227 0.9222 0.9220
2924.919634 0.9220 0.9220 0.9220 0.9220 0.9220
2929.185854 0.9217 0.9212 0.9210 0.9210 0.9203
2933.452073 0.9193 0.9190 0.9190 0.9190 0.9190
2937.718293 0.9190 0.9190 0.9190 0.9190 0.9190
2941.984513 0.9190 0.9190 0.9190 0.9190 0.9190
2946.250733 0.9190 0.9190 0.9197 0.9207 0.9210
2950.516952 0.9210 0.9217 0.9227 0.9237 0.9247
2954.783172 0.9253 0.9258 0.9263 0.9268 0.9280
2959.049392 0.9295 0.9300 0.9300 0.9303 0.9308
2963.315611 0.9310 0.9310 0.9310 0.9310 0.9310
2967.581831 0.9310 0.9310 0.9310 0.9310 0.9310
2971.848051 0.9310 0.9310 0.9310 0.9310 0.9310
2976.114271 0.9310 0.9310 0.9310 0.9307 0.9302
2980.380490 0.9297 0.9292 0.9283 0.9273 0.9267
2984.646710 0.9262 0.9260 0.9260 0.9260 0.9260
2988.912930 0.9257 0.9252 0.9250 0.9250 0.9250
2993.179149 0.9250 0.9250 0.9250 0.9250 0.9250
2997.445369 0.9253 0.9258 0.9260 0.9260 0.9260
3001.711589 0.9260 0.9260 0.9260 0.9260 0.9260
3005.977809 0.9257 0.9252 0.9250 0.9250 0.9243
3010.244028 0.9233 0.9227 0.9222 0.9217 0.9212
3014.510248 0.9203 0.9193 0.9187 0.9182 0.9170
3018.776468 0.9155 0.9143 0.9133 0.9123 0.9114
3023.042687 0.9103 0.9093 0.9083 0.9073 0.9070
3027.308907 0.9070 0.9077 0.9087 0.9093 0.9098
3031.575127 0.9110 0.9125 0.9130 0.9130 0.9136
3035.841347 0.9146 0.9160 0.9175 0.9183 0.9188
3040.107566 0.9200 0.9215 0.9223 0.9228 0.9237
3044.373786 0.9247 0.9253 0.9258 0.9260 0.9260
3048.640006 0.9260 0.9260 0.9263 0.9268 0.9276
3052.906225 0.9286 0.9290 0.9290 0.9290 0.9290
3057.172445 0.9290 0.9290 0.9293 0.9298 0.9300
3061.438665 0.9300 0.9297 0.9292 0.9290 0.9290
3065.704885 0.9290 0.9290 0.9293 0.9298 0.9300
3069.971104 0.9300 0.9300 0.9300 0.9303 0.9308
3074.237324 0.9310 0.9310 0.9310 0.9310 0.9310
3078.503544 0.9310 0.9310 0.9310 0.9316 0.9326
3082.769764 0.9330 0.9330 0.9324 0.9314 0.9310
3087.035983 0.9310 0.9310 0.9310 0.9310 0.9310
3091.302203 0.9310 0.9310 0.9310 0.9310 0.9310
3095.568423 0.9310 0.9310 0.9310 0.9310 0.9310
3099.834642 0.9310 0.9310 0.9310 0.9310 0.9310
3104.100862 0.9310 0.9310 0.9310 0.9310 0.9310
3108.367082 0.9310 0.9310 0.9310 0.9310 0.9316
3112.633302 0.9326 0.9330 0.9330 0.9330 0.9330
3116.899521 0.9330 0.9330 0.9330 0.9330 0.9330
3121.165741 0.9330 0.9330 0.9330 0.9330 0.9330
3125.431961 0.9333 0.9338 0.9340 0.9340 0.9337
3129.698180 0.9332 0.9330 0.9330 0.9330 0.9330
3133.964400 0.9330 0.9330 0.9330 0.9330 0.9330
3138.230620 0.9330 0.9330 0.9330 0.9330 0.9330
3142.496840 0.9330 0.9330 0.9333 0.9338 0.9343
3146.763059 0.9348 0.9350 0.9350 0.9350 0.9350
3151.029279 0.9350 0.9350 0.9350 0.9350 0.9350
3155.295499 0.9350 0.9350 0.9350 0.9350 0.9350
3159.561718 0.9350 0.9350 0.9350 0.9350 0.9350
3163.827938 0.9350 0.9350 0.9350 0.9350 0.9350
3168.094158 0.9350 0.9350 0.9350 0.9350 0.9350
3172.360378 0.9350 0.9350 0.9350 0.9350 0.9350
3176.626597 0.9350 0.9350 0.9350 0.9350 0.9350
3180.892817 0.9350 0.9350 0.9350 0.9350 0.9350
3185.159037 0.9350 0.9350 0.9350 0.9350 0.9350
3189.425256 0.9350 0.9350 0.9350 0.9350 0.9350
3193.691476 0.9350 0.9350 0.9350 0.9350 0.9347
3197.957696 0.9342 0.9340 0.9340 0.9340 0.9340
3202.223916 0.9340 0.9340 0.9340 0.9340 0.9340
3206.490135 0.9340 0.9340 0.9340 0.9340 0.9340
3210.756355 0.9340 0.9340 0.9340 0.9340 0.9340
3215.022575 0.9340 0.9340 0.9340 0.9340 0.9340
3219.288795 0.9340 0.9340 0.9340 0.9340 0.9340
3223.555014 0.9340 0.9340 0.9340 0.9340 0.9340
3227.821234 0.9340 0.9340 0.9340 0.9340 0.9340
3232.087454 0.9340 0.9340 0.9340 0.9340 0.9340
3236.353673 0.9340 0.9340 0.9340 0.9340 0.9340
3240.619893 0.9340 0.9340 0.9340 0.9340 0.9340
3244.886113 0.9340 0.9340 0.9340 0.9340 0.9340
3249.152333 0.9340 0.9340 0.9340 0.9340 0.9340
3253.418552 0.9340 0.9340 0.9340 0.9340 0.9340
3257.684772 0.9340 0.9340 0.9340 0.9340 0.9340
3261.950992 0.9340 0.9340 0.9340 0.9340 0.9340
3266.217211 0.9340 0.9340 0.9340 0.9340 0.9340
3270.483431 0.9340 0.9340 0.9340 0.9340 0.9340
3274.749651 0.9340 0.9340 0.9340 0.9340 0.9340
3279.015871 0.9340 0.9340 0.9340 0.9340 0.9340
3283.282090 0.9340 0.9340 0.9340 0.9340 0.9340
3287.548310 0.9340 0.9340 0.9340 0.9340 0.9340
3291.814530 0.9340 0.9340 0.9340 0.9340 0.9340
3296.080749 0.9340 0.9340 0.9340 0.9340 0.9340
3300.346969 0.9340 0.9337 0.9332 0.9330 0.9330
3304.613189 0.9330 0.9330 0.9330 0.9330 0.9330
3308.879409 0.9330 0.9330 0.9330 0.9330 0.9330
3313.145628 0.9330 0.9330 0.9330 0.9330 0.9330
3317.411848 0.9330 0.9330 0.9330 0.9330 0.9330
3321.678068 0.9330 0.9330 0.9330 0.9330 0.9330
3325.944287 0.9330 0.9330 0.9330 0.9330 0.9330
3330.210507 0.9330 0.9330 0.9330 0.9330 0.9330
3334.476727 0.9330 0.9330 0.9330 0.9330 0.9330
3338.742947 0.9330 0.9330 0.9333 0.9338 0.9340
3343.009166 0.9340 0.9340 0.9340 0.9340 0.9340
3347.275386 0.9340 0.9340 0.9340 0.9340 0.9340
3351.541606 0.9340 0.9340 0.9340 0.9340 0.9340
3355.807826 0.9340 0.9340 0.9337 0.9332 0.9330
3360.074045 0.9330 0.9330 0.9330 0.9330 0.9330
3364.340265 0.9330 0.9330 0.9330 0.9330 0.9330
3368.606485 0.9330 0.9330 0.9330 0.9330 0.9330
3372.872704 0.9330 0.9330 0.9330 0.9330 0.9330
3377.138924 0.9330 0.9325 0.9315 0.9310 0.9310
3381.405144 0.9310 0.9310 0.9310 0.9310 0.9310
3385.671364 0.9310 0.9310 0.9310 0.9310 0.9310
3389.937583 0.9315 0.9325 0.9330 0.9330 0.9330
3394.203803 0.9330 0.9330 0.9330 0.9325 0.9315
3398.470023 0.9310 0.9310 0.9310 0.9310 0.9310
3402.736242 0.9310 0.9310 0.9310 0.9310 0.9310
3407.002462 0.9310 0.9310 0.9310 0.9310 0.9310
3411.268682 0.9310 0.9310 0.9310 0.9310 0.9310
3415.534902 0.9310 0.9310 0.9310 0.9310 0.9310
3419.801121 0.9310 0.9310 0.9310 0.9310 0.9310
3424.067341 0.9310 0.9310 0.9310 0.9310 0.9310
3428.333561 0.9310 0.9315 0.9325 0.9330 0.9330
3432.599780 0.9330 0.9330 0.9325 0.9315 0.9310
3436.866000 0.9310 0.9310 0.9310 0.9310 0.9310
3441.132220 0.9310 0.9310 0.9310 0.9310 0.9310
3445.398440 0.9310 0.9310 0.9310 0.9310 0.9310
3449.664659 0.9310 0.9310 0.9310 0.9310 0.9310
3453.930879 0.9310 0.9310 0.9310 0.9310 0.9310
3458.197099 0.9310 0.9310 0.9315 0.9325 0.9330
3462.463318 0.9330 0.9330 0.9330 0.9330 0.9330
3466.729538 0.9330 0.9330 0.9330 0.9330 0.9330
3470.995758 0.9330 0.9330 0.9330 0.9325 0.9315
3475.261978 0.9310 0.9310 0.9310 0.9310 0.9310
3479.528197 0.9310 0.9307 0.9303 0.9300 0.9300
3483.794417 0.9300 0.9300 0.9300 0.9300 0.9300
3488.060637 0.9300 0.9300 0.9300 0.9300 0.9300
3492.326857 0.9297 0.9293 0.9290 0.9290 0.9290
3496.593076 0.9290 0.9290 0.9290 0.9290 0.9290
3500.859296 0.9285 0.9275 0.9270 0.9270 0.9270
3505.125516 0.9270 0.9270 0.9270 0.9268 0.9263
3509.391735 0.9260 0.9260 0.9260 0.9260 0.9260
3513.657955 0.9260 0.9260 0.9260 0.9260 0.9260
3517.924175 0.9260 0.9260 0.9260 0.9260 0.9260
3522.190395 0.9260 0.9262 0.9267 0.9270 0.9270
3526.456614 0.9270 0.9270 0.9270 0.9270 0.9270
3530.722834 0.9270 0.9270 0.9270 0.9270 0.9270
3534.989054 0.9270 0.9270 0.9275 0.9285 0.9290
3539.255273 0.9290 0.9290 0.9290 0.9290 0.9290
3543.521493 0.9290 0.9290 0.9290 0.9290 0.9290
3547.787713 0.9290 0.9290 0.9290 0.9290 0.9290
3552.053933 0.9290 0.9290 0.9290 0.9290 0.9292
3556.320152 0.9297 0.9300 0.9300 0.9300 0.9300
3560.586372 0.9300 0.9300 0.9300 0.9300 0.9300
3564.852592 0.9300 0.9300 0.9300 0.9300 0.9300
3569.118811 0.9300 0.9300 0.9298 0.9293 0.9290
3573.385031 0.9290 0.9290 0.9290 0.9290 0.9290
3577.651251 0.9290 0.9290 0.9285 0.9275 0.9270
3581.917471 0.9270 0.9270 0.9270 0.9270 0.9270
3586.183690 0.9275 0.9285 0.9290 0.9290 0.9290
3590.449910 0.9290 0.9292 0.9297 0.9300 0.9300
3594.716130 0.9300 0.9300 0.9300 0.9300 0.9300
3598.982349 0.9300 0.9300 0.9300 0.9300 0.9300
3603.248569 0.9300 0.9300 0.9300 0.9300 0.9300
3607.514789 0.9300 0.9302 0.9307 0.9310 0.9310
3611.781009 0.9310 0.9310 0.9310 0.9310 0.9315
3616.047228 0.9325 0.9330 0.9330 0.9330 0.9330
3620.313448 0.9330 0.9330 0.9330 0.9330 0.9332
3624.579668 0.9337 0.9340 0.9340 0.9340 0.9340
3628.845888 0.9340 0.9340 0.9340 0.9340 0.9340
3633.112107 0.9340 0.9340 0.9340 0.9340 0.9340
3637.378327 0.9340 0.9340 0.9340 0.9340 0.9340
3641.644547 0.9340 0.9340 0.9340 0.9340 0.9340
3645.910766 0.9340 0.9340 0.9340 0.9340 0.9338
3650.176986 0.9333 0.9330 0.9330 0.9330 0.9330
3654.443206 0.9330 0.9330 0.9330 0.9330 0.9330
3658.709426 0.9330 0.9330 0.9330 0.9330 0.9330
3662.975645 0.9330 0.9330 0.9330 0.9330 0.9332
3667.241865 0.9337 0.9340 0.9340 0.9340 0.9340
3671.508085 0.9340 0.9340 0.9340 0.9340 0.9340
3675.774304 0.9340 0.9340 0.9340 0.9340 0.9340
3680.040524 0.9342 0.9347 0.9350 0.9350 0.9350
3684.306744 0.9350 0.9350 0.9350 0.9350 0.9350
3688.572964 0.9350 0.9350 0.9350 0.9350 0.9350
3692.839183 0.9350 0.9350 0.9350 0.9350 0.9350
3697.105403 0.9350 0.9350 0.9350 0.9350 0.9350
3701.371623 0.9350 0.9350 0.9350 0.9350 0.9350
3705.637842 0.9350 0.9350 0.9350 0.9350 0.9350
3709.904062 0.9350 0.9354 0.9364 0.9370 0.9370
3714.170282 0.9370 0.9370 0.9370 0.9370 0.9370
3718.436502 0.9370 0.9370 0.9370 0.9370 0.9370
3722.702721 0.9370 0.9370 0.9370 0.9370 0.9370
3726.968941 0.9370 0.9370 0.9370 0.9370 0.9370
3731.235161 0.9370 0.9370 0.9370 0.9370 0.9372
3735.501380 0.9377 0.9380 0.9380 0.9380 0.9380
3739.767600 0.9380 0.9380 0.9380 0.9380 0.9380
3744.033820 0.9380 0.9380 0.9380 0.9380 0.9380
3748.300040 0.9380 0.9380 0.9380 0.9380 0.9380
3752.566259 0.9380 0.9380 0.9380 0.9380 0.9380
3756.832479 0.9380 0.9380 0.9380 0.9380 0.9380
3761.098699 0.9380 0.9380 0.9380 0.9380 0.9380
3765.364918 0.9380 0.9380 0.9380 0.9380 0.9382
3769.631138 0.9387 0.9390 0.9390 0.9390 0.9390
3773.897358 0.9390 0.9390 0.9390 0.9390 0.9390
3778.163578 0.9390 0.9390 0.9390 0.9390 0.9390
3782.429797 0.9390 0.9390 0.9390 0.9390 0.9390
3786.696017 0.9390 0.9390 0.9390 0.9390 0.9390
3790.962237 0.9388 0.9383 0.9380 0.9380 0.9380
3795.228457 0.9380 0.9380 0.9380 0.9380 0.9380
##END=
