##TITLE=ACETIC ACID, ETHENYL ESTER
##JCAMP-DX=4.24
##DATA TYPE=INFRARED SPECTRUM
##CLASS=COBLENTZ III
##ORIGIN=DOW CHEMICAL COMPANY
##OWNER=COBLENTZ SOCIETY
Collection (C) 2018 copyright by the U.S. Secretary of Commerce
on behalf of the United States of America. All rights reserved.
##DATE=1963/01/04
##NAMES=vinyl acetate
VINYL ACETATE
##CAS REGISTRY NO=108-05-4
##MOLFORM=C4 H6 O2
##SOURCE REFERENCE=COBLENTZ NO. 10171
##$NIST SOURCE=COBLENTZ
##$NIST IMAGE=cob10171
##SPECTROMETER/DATA SYSTEM=DOW KBr FOREPRISM-GRATING
##INSTRUMENT PARAMETERS=BLAZED AT 3.5, 12.0, 20.0 MICRON, CHANGED AT 5.0, 7.5, 14.9 MICRON
##STATE=SOLUTION (10% IN CCl4 FOR 3800-1333, 10% IN CS2 FOR 1333-400 CM^-^1)
##PATH LENGTH=0.011, 0.011 CM
$$SPECTRAL CONTAMINATION DUE TO CCl4 AROUND 1550 CM^-^1
##SAMPLING PROCEDURE=TRANSMISSION
##RESOLUTION=4
##DATA PROCESSING=DIGITIZED BY NIST FROM HARD COPY (FROM TWO SEGMENTS)
##XUNITS=1/CM
##YUNITS=TRANSMITTANCE
##XFACTOR=1.000000
##YFACTOR=1
##DELTAX=0.852759
##FIRSTX=382.319
##LASTX=3795.91
##FIRSTY=0.544
##MAXX=3795.91
##MINX=382.319
##MAXY=1.05
##MINY=0
##NPOINTS=4004
##XYDATA=(X++(Y..Y))
382.319000 0.5440 0.5440 0.5440 0.5440 0.5440
386.582797 0.5440 0.5420 0.5420 0.5420 0.5420
390.846593 0.5440 0.5440 0.5450 0.5450 0.5460
395.110390 0.5460 0.5480 0.5500 0.5520 0.5530
399.374187 0.5600 0.5660 0.5760 0.5850 0.6000
403.637983 0.6080 0.6160 0.6240 0.6369 0.6559
407.901780 0.6730 0.6800 0.6930 0.7070 0.7130
412.165577 0.7698 0.7959 0.8149 0.8260 0.8320
416.429373 0.8440 0.8550 0.8630 0.8700 0.8780
420.693170 0.8850 0.8910 0.8970 0.9030 0.9090
424.956967 0.9130 0.9170 0.9220 0.9260 0.9300
429.220763 0.9330 0.9370 0.9420 0.9470 0.9510
433.484560 0.9540 0.9550 0.9570 0.9570 0.9580
437.748356 0.9590 0.9610 0.9630 0.9650 0.9660
442.012153 0.9690 0.9710 0.9740 0.9750 0.9770
446.275950 0.9770 0.9780 0.9780 0.9780 0.9780
450.539746 0.9780 0.9770 0.9750 0.9730 0.9710
454.803543 0.9690 0.9650 0.9610 0.9530 0.9450
459.067340 0.9310 0.9130 0.9090 0.9070 0.9090
463.331136 0.9130 0.9349 0.9489 0.9580 0.9709
467.594933 0.9870 1.0010 1.0020 1.0060 1.0140
471.858730 1.0200 1.0210 1.0220 1.0240 1.0250
476.122526 1.0250 1.0260 1.0280 1.0280 1.0290
480.386323 1.0320 1.0330 1.0330 1.0330 1.0330
484.650120 1.0320 1.0300 1.0300 1.0320 1.0320
488.913916 1.0340 1.0370 1.0370 1.0380 1.0380
493.177713 1.0380 1.0380 1.0380 1.0380 1.0380
497.441510 1.0380 1.0400 1.0410 1.0410 1.0420
501.705306 1.0420 1.0440 1.0440 1.0450 1.0450
505.969103 1.0460 1.0480 1.0480 1.0480 1.0480
510.232900 1.0460 1.0460 1.0450 1.0450 1.0440
514.496696 1.0420 1.0420 1.0420 1.0420 1.0410
518.760493 1.0410 1.0410 1.0420 1.0420 1.0440
523.024289 1.0450 1.0460 1.0480 1.0480 1.0480
527.288086 1.0480 1.0480 1.0460 1.0450 1.0440
531.551883 1.0420 1.0420 1.0410 1.0410 1.0410
535.815679 1.0410 1.0410 1.0410 1.0420 1.0420
540.079476 1.0460 1.0490 1.0490 1.0500 1.0500
544.343273 1.0500 1.0490 1.0490 1.0480 1.0460
548.607069 1.0450 1.0450 1.0450 1.0450 1.0460
552.870866 1.0460 1.0480 1.0480 1.0490 1.0500
557.134663 1.0500 1.0490 1.0490 1.0480 1.0480
561.398459 1.0440 1.0420 1.0420 1.0400 1.0380
565.662256 1.0370 1.0360 1.0360 1.0340 1.0340
569.926053 1.0300 1.0250 1.0210 1.0180 1.0140
574.189849 1.0100 1.0020 1.0010 0.9980 0.9861
578.453646 0.9810 0.9790 0.9690 0.9540 0.9470
582.717443 0.9261 0.9140 0.8931 0.8701 0.8312
586.981239 0.7880 0.7430 0.7130 0.6311 0.5881
591.245036 0.5441 0.5340 0.5659 0.5839 0.6308
595.508833 0.6400 0.7439 0.7780 0.8189 0.8419
599.772629 0.8629 0.8789 0.9149 0.9339 0.9459
604.036426 0.9540 0.9580 0.9620 0.9690 0.9710
608.300222 0.9770 0.9810 0.9820 0.9810 0.9780
612.564019 0.9770 0.9740 0.9730 0.9730 0.9710
616.827816 0.9700 0.9670 0.9610 0.9570 0.9540
621.091612 0.9430 0.9310 0.9170 0.9130 0.9050
625.355409 0.8950 0.8751 0.8591 0.8500 0.8281
629.619206 0.8110 0.7870 0.7580 0.7320 0.7130
633.883002 0.6950 0.6611 0.6490 0.6490 0.6520
638.146799 0.6600 0.6690 0.6880 0.7070 0.7329
642.410596 0.7669 0.7869 0.8109 0.8309 0.8499
646.674392 0.8640 0.8750 0.8860 0.8940 0.9010
650.938189 0.9070 0.9140 0.9210 0.9290 0.9310
655.201986 0.9340 0.9370 0.9430 0.9540 0.9610
659.465782 0.9690 0.9730 0.9790 0.9820 0.9900
663.729579 0.9940 0.9970 0.9980 1.0010 1.0020
667.993376 1.0050 1.0060 1.0080 1.0090 1.0120
672.257172 1.0140 1.0160 1.0170 1.0180 1.0180
676.520969 1.0210 1.0220 1.0220 1.0240 1.0240
680.784766 1.0240 1.0240 1.0220 1.0220 1.0200
685.048562 1.0180 1.0160 1.0140 1.0140 1.0130
689.312359 1.0120 1.0050 1.0020 1.0010 0.9980
693.576155 0.9970 0.9930 0.9910 0.9860 0.9790
697.839952 0.9770 0.9750 0.9690 0.9580 0.9470
702.103749 0.9350 0.9260 0.9180 0.9150 0.9110
706.367545 0.9100 0.9110 0.9110 0.9150 0.9180
710.631342 0.9260 0.9330 0.9380 0.9450 0.9500
714.895139 0.9550 0.9580 0.9630 0.9750 0.9790
719.158935 0.9810 0.9820 0.9870 0.9930 0.9970
723.422732 1.0010 1.0020 1.0040 1.0080 1.0090
727.686529 1.0100 1.0120 1.0130 1.0140 1.0170
731.950325 1.0180 1.0200 1.0210 1.0220 1.0240
736.214122 1.0240 1.0250 1.0260 1.0280 1.0290
740.477919 1.0290 1.0290 1.0290 1.0290 1.0290
744.741715 1.0280 1.0280 1.0260 1.0260 1.0250
749.005512 1.0250 1.0250 1.0250 1.0250 1.0250
753.269309 1.0250 1.0240 1.0240 1.0220 1.0220
757.533105 1.0220 1.0220 1.0220 1.0210 1.0210
761.796902 1.0210 1.0210 1.0240 1.0250 1.0250
766.060699 1.0250 1.0250 1.0250 1.0250 1.0250
770.324495 1.0250 1.0250 1.0240 1.0240 1.0220
774.588292 1.0210 1.0200 1.0180 1.0160 1.0130
778.852088 1.0120 1.0080 1.0060 1.0050 1.0050
783.115885 1.0050 1.0040 1.0020 1.0020 1.0010
787.379682 1.0010 1.0010 1.0010 1.0010 1.0000
791.643478 1.0000 1.0000 0.9980 0.9970 0.9950
795.907275 0.9940 0.9940 0.9930 0.9910 0.9910
800.171072 0.9900 0.9870 0.9850 0.9830 0.9820
804.434868 0.9820 0.9810 0.9790 0.9780 0.9780
808.698665 0.9770 0.9750 0.9730 0.9710 0.9700
812.962462 0.9690 0.9690 0.9690 0.9670 0.9670
817.226258 0.9660 0.9650 0.9650 0.9630 0.9620
821.490055 0.9590 0.9570 0.9550 0.9530 0.9490
825.753852 0.9430 0.9410 0.9370 0.9310 0.9260
830.017648 0.9170 0.9110 0.8940 0.8870 0.8860
834.281445 0.8720 0.8560 0.8380 0.8230 0.8120
838.545242 0.7910 0.7750 0.7551 0.6165 0.5662
842.809038 0.5460 0.5259 0.4420 0.4030 0.3770
847.072835 0.3141 0.2441 0.2430 0.2520 0.2829
851.336632 0.3270 0.3770 0.4070 0.4210 0.4460
855.600428 0.4610 0.4610 0.4580 0.4490 0.4410
859.864225 0.4070 0.3700 0.3560 0.3270 0.3180
864.128021 0.2472 0.2151 0.2120 0.1283 0.1131
868.391818 0.0970 0.0680 0.0420 0.0300 0.0290
872.655615 0.0300 0.0380 0.0440 0.0580 0.1078
876.919411 0.1270 0.1440 0.1630 0.2080 0.2509
881.183208 0.2899 0.3279 0.3639 0.4009 0.4368
885.447005 0.4740 0.5100 0.5570 0.6010 0.6220
889.710801 0.6310 0.6689 0.6969 0.7169 0.7280
893.974598 0.7410 0.7510 0.7670 0.7790 0.7910
898.238395 0.8000 0.8040 0.8120 0.8230 0.8340
902.502191 0.8430 0.8470 0.8500 0.8520 0.8550
906.765988 0.8620 0.8660 0.8670 0.8680 0.8700
911.029785 0.8700 0.8700 0.8700 0.8700 0.8700
915.293581 0.8700 0.8680 0.8660 0.8630 0.8620
919.557378 0.8600 0.8590 0.8580 0.8540 0.8500
923.821175 0.8460 0.8420 0.8340 0.8240 0.8150
928.084971 0.8110 0.7980 0.7910 0.7760 0.7590
932.348768 0.7400 0.7250 0.7150 0.6911 0.6711
936.612565 0.5880 0.5530 0.5180 0.4511 0.3891
940.876361 0.3281 0.2751 0.2242 0.1802 0.1402
945.140158 0.1060 0.0920 0.0770 0.0500 0.0480
949.403954 0.0490 0.0600 0.1328 0.1589 0.2088
953.667751 0.2280 0.2600 0.3480 0.3980 0.4429
957.931548 0.4979 0.5519 0.5680 0.5889 0.6219
962.195344 0.6370 0.6450 0.6520 0.6520 0.6490
966.459141 0.6440 0.6210 0.5781 0.5740 0.5411
970.722938 0.5079 0.4589 0.3660 0.3600 0.2711
974.986734 0.2500 0.1971 0.1970 0.2070 0.2409
979.250531 0.2840 0.3310 0.4210 0.5759 0.5860
983.514328 0.5920 0.6050 0.6279 0.6350 0.6509
987.778124 0.6530 0.6590 0.6570 0.6550 0.6510
992.041921 0.6450 0.6360 0.6320 0.6200 0.6160
996.305718 0.6020 0.5900 0.5620 0.5460 0.5300
1000.569514 0.4781 0.4580 0.4331 0.4230 0.4031
1004.833311 0.3890 0.3810 0.3540 0.3070 0.2870
1009.097108 0.2620 0.1991 0.1451 0.1141 0.1020
1013.360904 0.0960 0.0880 0.0680 0.0480 0.0420
1017.624701 0.0380 0.0370 0.0380 0.0440 0.0540
1021.888498 0.0621 0.1000 0.1130 0.1270 0.1530
1026.152294 0.1760 0.2000 0.2210 0.2449 0.2679
1030.416091 0.2950 0.3220 0.3510 0.3670 0.3770
1034.679888 0.3870 0.4030 0.4050 0.4050 0.4030
1038.943684 0.3980 0.3950 0.3870 0.3780 0.3670
1043.207481 0.3620 0.3600 0.3600 0.3620 0.3670
1047.471277 0.3710 0.3830 0.4030 0.4340 0.4580
1051.735074 0.4810 0.5010 0.5200 0.5519 0.5679
1055.998871 0.5810 0.5940 0.6080 0.6200 0.6320
1060.262667 0.6440 0.6560 0.6680 0.6730 0.6770
1064.526464 0.6840 0.6890 0.6970 0.7050 0.7070
1068.790261 0.7090 0.7110 0.7210 0.7240 0.7290
1073.054057 0.7330 0.7350 0.7370 0.7390 0.7430
1077.317854 0.7450 0.7480 0.7520 0.7550 0.7560
1081.581651 0.7580 0.7590 0.7590 0.7600 0.7620
1085.845447 0.7640 0.7660 0.7660 0.7660 0.7670
1090.109244 0.7670 0.7680 0.7700 0.7700 0.7700
1094.373041 0.7700 0.7700 0.7680 0.7670 0.7670
1098.636837 0.7660 0.7660 0.7660 0.7640 0.7630
1102.900634 0.7600 0.7580 0.7560 0.7520 0.7480
1107.164431 0.7440 0.7390 0.7320 0.7270 0.7230
1111.428227 0.7080 0.6970 0.6651 0.6610 0.6600
1115.692024 0.6440 0.6160 0.5930 0.5640 0.5540
1119.955821 0.5440 0.5121 0.4821 0.4302 0.3682
1124.219617 0.3550 0.3360 0.3020 0.2860 0.2540
1128.483414 0.2160 0.1890 0.1371 0.0931 0.0481
1132.747210 0.0260 0.0140 0.0060 0.0040 0.0010
1137.011007 0.0010 0.0000 0.0000 0.0000 0.0010
1141.274804 0.0020 0.0020 0.0040 0.0050 0.0050
1145.538600 0.0060 0.0080 0.0140 0.0160 0.0489
1149.802397 0.1161 0.1490 0.1830 0.2160 0.2600
1154.066194 0.3149 0.3599 0.3929 0.4070 0.4339
1158.329990 0.4470 0.4540 0.4690 0.4750 0.4890
1162.593787 0.5160 0.5210 0.5280 0.5330 0.5360
1166.857584 0.5370 0.5380 0.5440 0.5460 0.5440
1171.121380 0.5410 0.5370 0.5300 0.5280 0.5180
1175.385177 0.5080 0.4930 0.4860 0.4770 0.4670
1179.648974 0.4500 0.4300 0.4100 0.3911 0.3621
1183.912770 0.3479 0.3230 0.3060 0.2910 0.2750
1188.176567 0.2560 0.2410 0.2240 0.2070 0.1890
1192.440364 0.1720 0.1550 0.1250 0.1090 0.1020
1196.704160 0.0940 0.0800 0.0650 0.0460 0.0330
1200.967957 0.0240 0.0140 0.0050 0.0040 0.0040
1205.231754 0.0020 0.0020 0.0020 0.0040 0.0040
1209.495550 0.0040 0.0040 0.0040 0.0040 0.0040
1213.759347 0.0040 0.0040 0.0040 0.0050 0.0050
1218.023143 0.0050 0.0050 0.0050 0.0050 0.0050
1222.286940 0.0050 0.0050 0.0050 0.0060 0.0060
1226.550737 0.0060 0.0080 0.0080 0.0090 0.0100
1230.814533 0.0120 0.0170 0.0290 0.0360 0.0480
1235.078330 0.0610 0.0680 0.0980 0.1140 0.1240
1239.342127 0.1370 0.1640 0.1850 0.2039 0.2229
1243.605923 0.2280 0.2440 0.2520 0.2640 0.2680
1247.869720 0.2750 0.2760 0.2740 0.2640 0.2540
1252.133517 0.2500 0.2350 0.2330 0.2350 0.2400
1256.397313 0.2470 0.2520 0.3149 0.3439 0.3560
1260.661110 0.3681 0.4290 0.4740 0.5060 0.5300
1264.924907 0.5580 0.5680 0.5770 0.5880 0.5900
1269.188703 0.5960 0.6060 0.6140 0.6220 0.6270
1273.452500 0.6310 0.6310 0.6370 0.6430 0.6470
1277.716297 0.6510 0.6520 0.6520 0.6510 0.6470
1281.980093 0.6390 0.6270 0.6170 0.5781 0.5601
1286.243890 0.5399 0.5019 0.4670 0.4350 0.4060
1290.507687 0.3810 0.2441 0.2091 0.1711 0.1570
1294.771483 0.1570 0.1641 0.2160 0.2320 0.3440
1299.035280 0.3830 0.4259 0.4739 0.5837 0.6019
1303.299076 0.6361 0.6600 0.6760 0.6880 0.6970
1307.562873 0.7030 0.7090 0.7170 0.7270 0.7400
1311.826670 0.7580 0.7680 0.7800 0.7950 0.8070
1316.090466 0.8180 0.8240 0.8300 0.8350 0.8400
1320.354263 0.8440 0.8480 0.8500 0.8520 0.8540
1324.618060 0.8540 0.8550 0.8550 0.8550 0.8550
1328.881856 0.8550 0.8540 0.8500 0.8500 0.8470
1333.145653 0.8470 0.8440 0.8400 0.8380 0.8350
1337.409450 0.8320 0.8300 0.8280 0.8270 0.8260
1341.673246 0.8240 0.8230 0.8180 0.8110 0.7990
1345.937043 0.7950 0.7910 0.7830 0.7720 0.7630
1350.200840 0.7510 0.7370 0.7210 0.7050 0.6850
1354.464636 0.6609 0.6249 0.5610 0.5490 0.5370
1358.728433 0.4910 0.4540 0.4410 0.3662 0.2942
1362.992230 0.2668 0.2029 0.1770 0.1510 0.1050
1367.256026 0.0840 0.0610 0.0340 0.0080 0.0050
1371.519823 0.0060 0.0100 0.0140 0.0280 0.0290
1375.783620 0.0980 0.1320 0.1949 0.1960 0.2040
1380.047416 0.2040 0.2000 0.1950 0.1920 0.1910
1384.311213 0.1910 0.1920 0.2080 0.2170 0.2429
1388.575009 0.2801 0.3360 0.3522 0.5021 0.5880
1392.838806 0.5890 0.6130 0.6320 0.6450 0.6530
1397.102603 0.6680 0.6750 0.6770 0.6880 0.6950
1401.366399 0.7010 0.7050 0.7090 0.7090 0.7110
1405.630196 0.7120 0.7120 0.7110 0.7090 0.7070
1409.893993 0.7030 0.6990 0.6960 0.6930 0.6920
1414.157789 0.6840 0.6790 0.6750 0.6680 0.6590
1418.421586 0.6530 0.6430 0.6320 0.6200 0.6100
1422.685383 0.6010 0.5930 0.5890 0.5880 0.5820
1426.949179 0.5800 0.5780 0.5770 0.5770 0.5770
1431.212976 0.5780 0.5820 0.5850 0.5860 0.5890
1435.476773 0.5930 0.6000 0.6040 0.6100 0.6160
1439.740569 0.6200 0.6310 0.6410 0.6490 0.6520
1444.004366 0.6610 0.6750 0.6800 0.6930 0.6960
1448.268163 0.7070 0.7090 0.7160 0.7250 0.7320
1452.531959 0.7400 0.7470 0.7520 0.7560 0.7590
1456.795756 0.7630 0.7700 0.7750 0.7780 0.7840
1461.059553 0.7910 0.7940 0.7950 0.7960 0.8040
1465.323349 0.8060 0.8070 0.8110 0.8120 0.8140
1469.587146 0.8180 0.8190 0.8200 0.8200 0.8190
1473.850942 0.8150 0.8140 0.8120 0.8120 0.8110
1478.114739 0.8070 0.8060 0.8040 0.8040 0.8030
1482.378536 0.8030 0.8030 0.8030 0.8030 0.8040
1486.642332 0.8040 0.8040 0.8040 0.8060 0.8060
1490.906129 0.8060 0.8040 0.8030 0.8030 0.8030
1495.169926 0.8030 0.8020 0.7980 0.7960 0.7940
1499.433722 0.7910 0.7870 0.7800 0.7740 0.7740
1503.697519 0.7710 0.7680 0.7660 0.7590 0.7540
1507.961316 0.7500 0.7440 0.7400 0.7390 0.7320
1512.225112 0.7290 0.7270 0.7230 0.7190 0.7160
1516.488909 0.7150 0.7120 0.7070 0.7040 0.7010
1520.752706 0.6970 0.6950 0.6930 0.6890 0.6890
1525.016502 0.6840 0.6810 0.6760 0.6730 0.6690
1529.280299 0.6590 0.6560 0.6490 0.6370 0.6320
1533.544096 0.6270 0.6160 0.6060 0.6000 0.5900
1537.807892 0.5850 0.5760 0.5680 0.5540 0.5500
1542.071689 0.5450 0.5330 0.5250 0.5220 0.5170
1546.335486 0.5100 0.5060 0.5040 0.5020 0.5010
1550.599282 0.5000 0.5000 0.5000 0.5010 0.5020
1554.863079 0.5040 0.5060 0.5100 0.5130 0.5220
1559.126875 0.5240 0.5250 0.5300 0.5500 0.5600
1563.390672 0.5620 0.5720 0.5770 0.5820 0.5860
1567.654469 0.5900 0.5930 0.5940 0.5960 0.5970
1571.918265 0.6000 0.6000 0.6000 0.6000 0.5980
1576.182062 0.5980 0.6000 0.6010 0.6020 0.6050
1580.445859 0.6080 0.6130 0.6160 0.6170 0.6170
1584.709655 0.6200 0.6270 0.6280 0.6320 0.6390
1588.973452 0.6440 0.6450 0.6590 0.6600 0.6720
1593.237249 0.6760 0.6770 0.6800 0.6840 0.6880
1597.501045 0.6920 0.6930 0.6950 0.6970 0.7000
1601.764842 0.7040 0.7040 0.7050 0.7050 0.7040
1606.028639 0.7030 0.6970 0.6930 0.6910 0.6890
1610.292435 0.6870 0.6760 0.6690 0.6650 0.6610
1614.556232 0.6530 0.6480 0.6440 0.6400 0.6360
1618.820029 0.6320 0.6270 0.6240 0.6250 0.6370
1623.083825 0.6320 0.6240 0.6160 0.6280 0.6360
1627.347622 0.6390 0.6440 0.6440 0.6400 0.6250
1631.611419 0.5890 0.5700 0.5520 0.5320 0.5090
1635.875215 0.4859 0.4649 0.4069 0.3680 0.3320
1640.139012 0.2950 0.2470 0.2110 0.1451 0.1121
1644.402809 0.0768 0.0100 0.0060 0.0050 0.0050
1648.666605 0.0050 0.0080 0.0220 0.0410 0.1668
1652.930402 0.2161 0.2400 0.2601 0.3061 0.3511
1657.194198 0.4380 0.4670 0.4890 0.5120 0.5859
1661.457995 0.6141 0.6361 0.6560 0.6710 0.6770
1665.721792 0.6920 0.7040 0.7090 0.7230 0.7280
1669.985588 0.7360 0.7440 0.7500 0.7560 0.7600
1674.249385 0.7660 0.7710 0.7740 0.7760 0.7780
1678.513182 0.7820 0.7840 0.7870 0.7900 0.7920
1682.776978 0.7920 0.7920 0.7920 0.7940 0.7950
1687.040775 0.7950 0.7950 0.7940 0.7940 0.7910
1691.304572 0.7880 0.7880 0.7860 0.7840 0.7840
1695.568368 0.7750 0.7740 0.7710 0.7680 0.7640
1699.832165 0.7590 0.7580 0.7560 0.7580 0.7590
1704.095962 0.7590 0.7580 0.7550 0.7480 0.7470
1708.359758 0.7430 0.7400 0.7360 0.7150 0.7080
1712.623555 0.7080 0.6920 0.6750 0.6530 0.6370
1716.887352 0.6170 0.6010 0.5850 0.5650 0.5620
1721.151148 0.5620 0.5650 0.5690 0.5700 0.5690
1725.414945 0.5660 0.5660 0.5620 0.5600 0.5540
1729.678742 0.5479 0.5260 0.5130 0.5010 0.4890
1733.942538 0.4780 0.4710 0.4010 0.3970 0.3970
1738.206335 0.3889 0.3600 0.3439 0.2820 0.2410
1742.470131 0.2160 0.1610 0.1430 0.1290 0.1011
1746.733928 0.0759 0.0500 0.0460 0.0300 0.0220
1750.997725 0.0100 0.0080 0.0060 0.0050 0.0040
1755.261521 0.0040 0.0040 0.0040 0.0040 0.0020
1759.525318 0.0020 0.0020 0.0020 0.0020 0.0020
1763.789115 0.0020 0.0020 0.0020 0.0020 0.0040
1768.052911 0.0040 0.0040 0.0050 0.0080 0.0100
1772.316708 0.0260 0.0370 0.0400 0.0540 0.0660
1776.580505 0.0800 0.1350 0.1560 0.1870 0.2000
1780.844301 0.2312 0.2800 0.2921 0.3112 0.3780
1785.108098 0.3910 0.4030 0.4310 0.4490 0.4650
1789.371895 0.4750 0.4891 0.5131 0.5660 0.5770
1793.635691 0.5890 0.5980 0.6080 0.6160 0.6240
1797.899488 0.6290 0.6440 0.6610 0.6670 0.6750
1802.163285 0.6840 0.6920 0.6960 0.7050 0.7080
1806.427081 0.7080 0.7110 0.7200 0.7210 0.7210
1810.690878 0.7230 0.7230 0.7230 0.7210 0.7190
1814.954675 0.7190 0.7170 0.7160 0.7150 0.7130
1819.218471 0.7130 0.7130 0.7150 0.7230 0.7270
1823.482268 0.7370 0.7400 0.7470 0.7620 0.7720
1827.746064 0.7790 0.7840 0.7900 0.7960 0.8060
1832.009861 0.8110 0.8140 0.8150 0.8190 0.8200
1836.273658 0.8220 0.8230 0.8240 0.8260 0.8260
1840.537454 0.8260 0.8270 0.8280 0.8280 0.8280
1844.801251 0.8300 0.8300 0.8300 0.8310 0.8310
1849.065048 0.8300 0.8300 0.8280 0.8260 0.8230
1853.328844 0.8220 0.8160 0.8150 0.8140 0.8100
1857.592641 0.8040 0.8020 0.8000 0.7960 0.7940
1861.856438 0.7900 0.7880 0.7870 0.7880 0.7910
1866.120234 0.7950 0.8060 0.8100 0.8150 0.8220
1870.384031 0.8310 0.8420 0.8510 0.8540 0.8630
1874.647828 0.8680 0.8720 0.8750 0.8790 0.8820
1878.911624 0.8850 0.8860 0.8870 0.8890 0.8890
1883.175421 0.8870 0.8860 0.8860 0.8850 0.8850
1887.439218 0.8830 0.8820 0.8810 0.8810 0.8810
1891.703014 0.8810 0.8820 0.8830 0.8900 0.8930
1895.966811 0.8930 0.8950 0.9010 0.9050 0.9090
1900.230608 0.9130 0.9180 0.9250 0.9270 0.9300
1904.494404 0.9330 0.9340 0.9370 0.9380 0.9390
1908.758201 0.9420 0.9430 0.9460 0.9470 0.9470
1913.021997 0.9490 0.9500 0.9510 0.9530 0.9540
1917.285794 0.9540 0.9540 0.9550 0.9550 0.9550
1921.549591 0.9550 0.9550 0.9550 0.9550 0.9550
1925.813387 0.9550 0.9550 0.9550 0.9550 0.9550
1930.077184 0.9550 0.9550 0.9540 0.9540 0.9530
1934.340981 0.9530 0.9530 0.9510 0.9510 0.9510
1938.604777 0.9500 0.9500 0.9490 0.9470 0.9470
1942.868574 0.9460 0.9420 0.9410 0.9380 0.9350
1947.132371 0.9350 0.9340 0.9340 0.9450 0.9450
1951.396167 0.9350 0.9340 0.9350 0.9410 0.9410
1955.659964 0.9450 0.9470 0.9490 0.9510 0.9530
1959.923761 0.9540 0.9550 0.9550 0.9550 0.9540
1964.187557 0.9500 0.9500 0.9490 0.9460 0.9450
1968.451354 0.9450 0.9430 0.9420 0.9410 0.9370
1972.715151 0.9350 0.9340 0.9260 0.9210 0.9150
1976.978947 0.9110 0.9060 0.9010 0.8910 0.8830
1981.242744 0.8710 0.8600 0.8500 0.8440 0.8430
1985.506541 0.8440 0.8480 0.8550 0.8670 0.8720
1989.770337 0.8790 0.8860 0.8950 0.8980 0.8980
1994.034134 0.8780 0.8781 0.8980 0.9140 0.9180
1998.297930 0.9180 0.9190 0.9210 0.9210 0.9210
2002.561727 0.9215 0.9220 0.9220 0.9220 0.9220
2006.825524 0.9220 0.9225 0.9230 0.9240 0.9250
2011.089320 0.9255 0.9260 0.9265 0.9270 0.9280
2015.353117 0.9290 0.9295 0.9300 0.9305 0.9310
2019.616914 0.9320 0.9330 0.9335 0.9340 0.9340
2023.880710 0.9340 0.9345 0.9350 0.9350 0.9350
2028.144507 0.9350 0.9350 0.9350 0.9350 0.9350
2032.408304 0.9350 0.9345 0.9339 0.9319 0.9299
2036.672100 0.9274 0.9250 0.9230 0.9209 0.9179
2040.935897 0.9149 0.9124 0.9100 0.9080 0.9060
2045.199694 0.9060 0.9059 0.9034 0.9009 0.8969
2049.463490 0.8929 0.8879 0.8828 0.8773 0.8718
2053.727287 0.8658 0.8598 0.8548 0.8498 0.8443
2057.991084 0.8388 0.8343 0.8299 0.8264 0.8230
2062.254880 0.8225 0.8220 0.8225 0.8231 0.8251
2066.518677 0.8271 0.8296 0.8321 0.8336 0.8352
2070.782474 0.8387 0.8422 0.8462 0.8504 0.8589
2075.046270 0.8672 0.8712 0.8752 0.8787 0.8821
2079.310067 0.8841 0.8862 0.8907 0.8953 0.9013
2083.573863 0.9072 0.9112 0.9152 0.9182 0.9211
2087.837660 0.9221 0.9231 0.9241 0.9251 0.9276
2092.101457 0.9301 0.9316 0.9330 0.9335 0.9340
2096.365253 0.9340 0.9340 0.9335 0.9330 0.9330
2100.629050 0.9329 0.9319 0.9310 0.9310 0.9309
2104.892847 0.9299 0.9289 0.9279 0.9270 0.9265
2109.156643 0.9259 0.9244 0.9228 0.9203 0.9179
2113.420440 0.9159 0.9140 0.9135 0.9129 0.9109
2117.684237 0.9089 0.9074 0.9060 0.9060 0.9062
2121.948033 0.9082 0.9108 0.9203 0.9292 0.9312
2126.211830 0.9332 0.9352 0.9372 0.9392 0.9412
2130.475627 0.9437 0.9460 0.9465 0.9471 0.9481
2134.739423 0.9490 0.9490 0.9490 0.9495 0.9500
2139.003220 0.9500 0.9500 0.9500 0.9500 0.9495
2143.267017 0.9489 0.9479 0.9470 0.9465 0.9460
2147.530813 0.9455 0.9449 0.9439 0.9430 0.9425
2151.794610 0.9420 0.9420 0.9419 0.9414 0.9409
2156.058407 0.9399 0.9389 0.9384 0.9380 0.9380
2160.322203 0.9380 0.9380 0.9381 0.9386 0.9390
2164.586000 0.9390 0.9391 0.9401 0.9410 0.9416
2168.849796 0.9420 0.9426 0.9431 0.9441 0.9452
2173.113593 0.9472 0.9491 0.9496 0.9500 0.9500
2177.377390 0.9500 0.9500 0.9501 0.9506 0.9510
2181.641186 0.9510 0.9511 0.9521 0.9529 0.9519
2185.904983 0.9509 0.9504 0.9499 0.9494 0.9491
2190.168780 0.9496 0.9500 0.9500 0.9501 0.9506
2194.432576 0.9511 0.9521 0.9530 0.9530 0.9531
2198.696373 0.9541 0.9550 0.9550 0.9551 0.9561
2202.960170 0.9570 0.9570 0.9569 0.9559 0.9550
2207.223966 0.9550 0.9550 0.9550 0.9550 0.9550
2211.487763 0.9549 0.9544 0.9538 0.9523 0.9509
2215.751560 0.9504 0.9499 0.9494 0.9486 0.9456
2220.015356 0.9427 0.9401 0.9378 0.9363 0.9349
2224.279153 0.9344 0.9340 0.9340 0.9341 0.9346
2228.542950 0.9350 0.9350 0.9350 0.9350 0.9349
2232.806746 0.9344 0.9340 0.9340 0.9339 0.9334
2237.070543 0.9330 0.9330 0.9331 0.9336 0.9340
2241.334340 0.9340 0.9341 0.9346 0.9352 0.9362
2245.598136 0.9372 0.9382 0.9392 0.9402 0.9410
2249.861933 0.9410 0.9410 0.9410 0.9410 0.9410
2254.125730 0.9408 0.9398 0.9390 0.9390 0.9388
2258.389526 0.9378 0.9368 0.9358 0.9349 0.9344
2262.653323 0.9336 0.9311 0.9287 0.9272 0.9257
2266.917119 0.9242 0.9228 0.9218 0.9205 0.9175
2271.180916 0.9143 0.9103 0.9058 0.8993 0.8935
2275.444713 0.8910 0.8883 0.8843 0.8807 0.8792
2279.708509 0.8780 0.8780 0.8783 0.8798 0.8819
2283.972306 0.8869 0.8914 0.8934 0.8960 0.9015
2288.236103 0.9064 0.9084 0.9107 0.9142 0.9180
2292.499899 0.9230 0.9274 0.9294 0.9313 0.9328
2296.763696 0.9341 0.9346 0.9353 0.9368 0.9384
2301.027493 0.9404 0.9423 0.9438 0.9450 0.9450
2305.291289 0.9450 0.9450 0.9450 0.9450 0.9451
2309.555086 0.9456 0.9460 0.9460 0.9461 0.9466
2313.818883 0.9470 0.9470 0.9470 0.9470 0.9472
2318.082679 0.9482 0.9491 0.9496 0.9501 0.9506
2322.346476 0.9510 0.9510 0.9510 0.9510 0.9512
2326.610273 0.9522 0.9531 0.9536 0.9540 0.9540
2330.874069 0.9537 0.9522 0.9508 0.9498 0.9490
2335.137866 0.9490 0.9488 0.9478 0.9469 0.9464
2339.401663 0.9457 0.9442 0.9425 0.9405 0.9389
2343.665459 0.9384 0.9377 0.9362 0.9348 0.9338
2347.929256 0.9328 0.9318 0.9309 0.9304 0.9299
2352.193052 0.9294 0.9290 0.9290 0.9292 0.9302
2356.456849 0.9313 0.9329 0.9340 0.9340 0.9341
2360.720646 0.9346 0.9354 0.9369 0.9385 0.9405
2364.984442 0.9420 0.9420 0.9421 0.9426 0.9432
2369.248239 0.9442 0.9455 0.9475 0.9495 0.9515
2373.512036 0.9531 0.9536 0.9540 0.9540 0.9540
2377.775832 0.9540 0.9541 0.9546 0.9550 0.9550
2382.039629 0.9553 0.9563 0.9570 0.9570 0.9570
2386.303426 0.9570 0.9567 0.9558 0.9549 0.9544
2390.567222 0.9539 0.9534 0.9526 0.9511 0.9500
2394.831019 0.9500 0.9499 0.9494 0.9490 0.9490
2399.094816 0.9487 0.9477 0.9469 0.9464 0.9459
2403.358612 0.9454 0.9447 0.9437 0.9427 0.9417
2407.622409 0.9407 0.9397 0.9389 0.9384 0.9376
2411.886206 0.9361 0.9350 0.9350 0.9349 0.9344
2416.150002 0.9340 0.9340 0.9339 0.9334 0.9327
2420.413799 0.9317 0.9305 0.9285 0.9263 0.9238
2424.677596 0.9220 0.9220 0.9216 0.9201 0.9189
2428.941392 0.9184 0.9180 0.9180 0.9176 0.9161
2433.205189 0.9150 0.9150 0.9153 0.9163 0.9173
2437.468985 0.9183 0.9200 0.9235 0.9271 0.9311
2441.732782 0.9351 0.9392 0.9428 0.9453 0.9473
2445.996579 0.9483 0.9493 0.9503 0.9514 0.9529
2450.260375 0.9541 0.9546 0.9554 0.9569 0.9584
2454.524172 0.9599 0.9611 0.9616 0.9620 0.9620
2458.787969 0.9621 0.9627 0.9633 0.9643 0.9650
2463.051765 0.9650 0.9647 0.9637 0.9630 0.9630
2467.315562 0.9630 0.9630 0.9628 0.9623 0.9622
2471.579359 0.9627 0.9633 0.9643 0.9650 0.9650
2475.843155 0.9650 0.9650 0.9652 0.9657 0.9660
2480.106952 0.9660 0.9660 0.9660 0.9655 0.9640
2484.370749 0.9628 0.9623 0.9620 0.9620 0.9618
2488.634545 0.9613 0.9607 0.9597 0.9588 0.9583
2492.898342 0.9582 0.9587 0.9590 0.9590 0.9595
2497.162139 0.9610 0.9622 0.9627 0.9635 0.9650
2501.425935 0.9662 0.9667 0.9670 0.9670 0.9670
2505.689732 0.9670 0.9673 0.9683 0.9690 0.9690
2509.953529 0.9692 0.9697 0.9700 0.9700 0.9700
2514.217325 0.9700 0.9700 0.9700 0.9700 0.9700
2518.481122 0.9700 0.9700 0.9700 0.9700 0.9702
2522.744918 0.9707 0.9710 0.9710 0.9710 0.9710
2527.008715 0.9710 0.9710 0.9710 0.9710 0.9714
2531.272512 0.9724 0.9730 0.9730 0.9726 0.9716
2535.536308 0.9710 0.9710 0.9710 0.9710 0.9710
2539.800105 0.9710 0.9708 0.9703 0.9700 0.9700
2544.063902 0.9698 0.9693 0.9690 0.9690 0.9690
2548.327698 0.9690 0.9690 0.9690 0.9686 0.9676
2552.591495 0.9670 0.9670 0.9670 0.9670 0.9668
2556.855292 0.9663 0.9660 0.9660 0.9660 0.9660
2561.119088 0.9658 0.9653 0.9646 0.9636 0.9630
2565.382885 0.9630 0.9628 0.9623 0.9620 0.9620
2569.646682 0.9620 0.9620 0.9618 0.9613 0.9604
2573.910478 0.9589 0.9578 0.9573 0.9570 0.9570
2578.174275 0.9566 0.9556 0.9546 0.9536 0.9526
2582.438072 0.9516 0.9514 0.9524 0.9534 0.9544
2586.701868 0.9550 0.9550 0.9554 0.9564 0.9572
2590.965665 0.9577 0.9582 0.9587 0.9590 0.9590
2595.229462 0.9588 0.9583 0.9580 0.9580 0.9580
2599.493258 0.9580 0.9582 0.9587 0.9588 0.9583
2603.757055 0.9578 0.9573 0.9566 0.9556 0.9550
2608.020851 0.9550 0.9550 0.9550 0.9550 0.9550
2612.284648 0.9548 0.9543 0.9540 0.9540 0.9540
2616.548445 0.9540 0.9538 0.9533 0.9532 0.9537
2620.812241 0.9542 0.9547 0.9554 0.9564 0.9572
2625.076038 0.9577 0.9580 0.9580 0.9586 0.9601
2629.339835 0.9610 0.9610 0.9610 0.9610 0.9612
2633.603631 0.9617 0.9620 0.9620 0.9620 0.9620
2637.867428 0.9620 0.9620 0.9620 0.9620 0.9618
2642.131225 0.9613 0.9606 0.9596 0.9586 0.9576
2646.395021 0.9570 0.9570 0.9570 0.9570 0.9566
2650.658818 0.9556 0.9563 0.9593 0.9610 0.9610
2654.922615 0.9606 0.9596 0.9590 0.9590 0.9590
2659.186411 0.9590 0.9586 0.9576 0.9566 0.9556
2663.450208 0.9550 0.9550 0.9550 0.9550 0.9550
2667.714005 0.9550 0.9550 0.9550 0.9550 0.9550
2671.977801 0.9550 0.9550 0.9554 0.9564 0.9570
2676.241598 0.9570 0.9570 0.9570 0.9572 0.9577
2680.505395 0.9580 0.9580 0.9582 0.9587 0.9595
2684.769191 0.9605 0.9610 0.9610 0.9610 0.9610
2689.032988 0.9610 0.9610 0.9610 0.9610 0.9610
2693.296784 0.9610 0.9610 0.9610 0.9605 0.9595
2697.560581 0.9590 0.9590 0.9590 0.9590 0.9588
2701.824378 0.9583 0.9580 0.9580 0.9578 0.9573
2706.088174 0.9570 0.9570 0.9563 0.9548 0.9538
2710.351971 0.9533 0.9530 0.9530 0.9523 0.9508
2714.615768 0.9498 0.9493 0.9483 0.9468 0.9460
2718.879564 0.9460 0.9458 0.9453 0.9443 0.9428
2723.143361 0.9413 0.9398 0.9385 0.9375 0.9365
2727.407158 0.9355 0.9348 0.9343 0.9333 0.9318
2731.670954 0.9305 0.9295 0.9280 0.9260 0.9245
2735.934751 0.9235 0.9235 0.9245 0.9260 0.9280
2740.198548 0.9295 0.9305 0.9317 0.9332 0.9347
2744.462344 0.9362 0.9375 0.9385 0.9405 0.9435
2748.726141 0.9462 0.9488 0.9500 0.9500 0.9508
2752.989938 0.9523 0.9533 0.9538 0.9540 0.9540
2757.253734 0.9540 0.9540 0.9540 0.9540 0.9540
2761.517531 0.9540 0.9540 0.9540 0.9540 0.9540
2765.781328 0.9537 0.9532 0.9530 0.9530 0.9525
2770.045124 0.9515 0.9507 0.9502 0.9497 0.9492
2774.308921 0.9490 0.9490 0.9485 0.9475 0.9470
2778.572717 0.9470 0.9467 0.9462 0.9460 0.9460
2782.836514 0.9460 0.9460 0.9463 0.9468 0.9470
2787.100311 0.9470 0.9470 0.9470 0.9470 0.9470
2791.364107 0.9470 0.9470 0.9470 0.9470 0.9470
2795.627904 0.9470 0.9475 0.9485 0.9490 0.9490
2799.891701 0.9493 0.9498 0.9500 0.9500 0.9500
2804.155497 0.9500 0.9500 0.9500 0.9500 0.9500
2808.419294 0.9500 0.9500 0.9500 0.9500 0.9500
2812.683091 0.9500 0.9497 0.9492 0.9493 0.9498
2816.946887 0.9497 0.9492 0.9490 0.9490 0.9484
2821.210684 0.9475 0.9467 0.9462 0.9460 0.9460
2825.474481 0.9460 0.9460 0.9457 0.9452 0.9445
2829.738277 0.9435 0.9430 0.9430 0.9427 0.9422
2834.002074 0.9417 0.9412 0.9404 0.9394 0.9387
2838.265871 0.9382 0.9380 0.9380 0.9377 0.9372
2842.529667 0.9370 0.9370 0.9370 0.9370 0.9370
2846.793464 0.9370 0.9373 0.9378 0.9380 0.9380
2851.057261 0.9383 0.9388 0.9396 0.9406 0.9410
2855.321057 0.9410 0.9410 0.9410 0.9404 0.9394
2859.584854 0.9387 0.9382 0.9380 0.9380 0.9377
2863.848651 0.9372 0.9370 0.9370 0.9370 0.9370
2868.112447 0.9370 0.9370 0.9370 0.9370 0.9370
2872.376244 0.9370 0.9370 0.9370 0.9370 0.9370
2876.640040 0.9370 0.9370 0.9370 0.9370 0.9364
2880.903837 0.9354 0.9350 0.9350 0.9350 0.9350
2885.167634 0.9350 0.9350 0.9350 0.9350 0.9347
2889.431430 0.9342 0.9340 0.9340 0.9337 0.9332
2893.695227 0.9330 0.9330 0.9330 0.9330 0.9330
2897.959024 0.9330 0.9324 0.9314 0.9310 0.9310
2902.222820 0.9310 0.9310 0.9310 0.9310 0.9307
2906.486617 0.9302 0.9300 0.9300 0.9300 0.9300
2910.750414 0.9300 0.9300 0.9300 0.9300 0.9300
2915.014210 0.9300 0.9291 0.9276 0.9270 0.9270
2919.278007 0.9264 0.9254 0.9238 0.9218 0.9191
2923.541804 0.9161 0.9144 0.9134 0.9121 0.9106
2927.805600 0.9097 0.9092 0.9084 0.9074 0.9045
2932.069397 0.9005 0.8975 0.8950 0.8937 0.8932
2936.333194 0.8921 0.8906 0.8891 0.8876 0.8864
2940.596990 0.8854 0.8844 0.8834 0.8830 0.8830
2944.860787 0.8830 0.8830 0.8836 0.8846 0.8850
2949.124584 0.8850 0.8850 0.8850 0.8850 0.8850
2953.388380 0.8850 0.8850 0.8853 0.8858 0.8860
2957.652177 0.8860 0.8857 0.8852 0.8850 0.8850
2961.915973 0.8844 0.8834 0.8830 0.8830 0.8827
2966.179770 0.8822 0.8817 0.8812 0.8810 0.8810
2970.443567 0.8804 0.8793 0.8783 0.8773 0.8763
2974.707363 0.8753 0.8740 0.8725 0.8717 0.8712
2978.971160 0.8700 0.8685 0.8664 0.8639 0.8617
2983.234957 0.8597 0.8580 0.8565 0.8554 0.8544
2987.498753 0.8530 0.8515 0.8500 0.8485 0.8473
2991.762550 0.8463 0.8447 0.8427 0.8407 0.8387
2996.026347 0.8373 0.8363 0.8360 0.8360 0.8367
3000.290143 0.8377 0.8387 0.8397 0.8413 0.8433
3004.553940 0.8463 0.8499 0.8524 0.8544 0.8550
3008.817737 0.8550 0.8553 0.8558 0.8560 0.8560
3013.081533 0.8560 0.8560 0.8557 0.8552 0.8547
3017.345330 0.8542 0.8533 0.8523 0.8517 0.8512
3021.609127 0.8500 0.8485 0.8473 0.8463 0.8453
3025.872923 0.8443 0.8440 0.8440 0.8433 0.8423
3030.136720 0.8413 0.8403 0.8400 0.8400 0.8397
3034.400517 0.8392 0.8390 0.8390 0.8390 0.8390
3038.664313 0.8387 0.8382 0.8380 0.8380 0.8373
3042.928110 0.8363 0.8357 0.8352 0.8340 0.8325
3047.191906 0.8317 0.8312 0.8310 0.8310 0.8313
3051.455703 0.8318 0.8327 0.8337 0.8354 0.8374
3055.719500 0.8387 0.8397 0.8411 0.8426 0.8441
3059.983296 0.8456 0.8481 0.8511 0.8534 0.8554
3064.247093 0.8567 0.8577 0.8584 0.8589 0.8590
3068.510890 0.8590 0.8590 0.8590 0.8586 0.8581
3072.774686 0.8573 0.8563 0.8553 0.8543 0.8533
3077.038483 0.8523 0.8516 0.8511 0.8481 0.8441
3081.302280 0.8390 0.8335 0.8288 0.8243 0.8198
3085.566076 0.8153 0.8111 0.8071 0.8024 0.7974
3089.829873 0.7902 0.7821 0.7605 0.7341 0.6962
3094.093670 0.6542 0.6221 0.5936 0.5860 0.5860
3098.357466 0.5929 0.6024 0.6342 0.6742 0.7040
3102.621263 0.7300 0.7490 0.7655 0.7766 0.7856
3106.885060 0.7924 0.7985 0.8052 0.8122 0.8214
3111.148856 0.8314 0.8392 0.8462 0.8487 0.8497
3115.412653 0.8493 0.8483 0.8461 0.8436 0.8411
3119.676450 0.8387 0.8354 0.8319 0.8280 0.8240
3123.940246 0.8196 0.8151 0.8132 0.8122 0.8128
3128.204043 0.8138 0.8193 0.8263 0.8333 0.8403
3132.467839 0.8514 0.8639 0.8723 0.8793 0.8840
3136.731636 0.8880 0.8894 0.8899 0.8911 0.8926
3140.995433 0.8938 0.8948 0.8973 0.9003 0.9014
3145.259229 0.9019 0.9024 0.9029 0.9042 0.9056
3149.523026 0.9060 0.9060 0.9064 0.9069 0.9078
3153.786823 0.9088 0.9105 0.9125 0.9134 0.9139
3158.050619 0.9152 0.9167 0.9174 0.9179 0.9184
3162.314416 0.9189 0.9202 0.9217 0.9220 0.9220
3166.578213 0.9224 0.9229 0.9238 0.9248 0.9250
3170.842009 0.9250 0.9250 0.9250 0.9250 0.9250
3175.105806 0.9250 0.9250 0.9254 0.9259 0.9260
3179.369603 0.9260 0.9264 0.9269 0.9270 0.9270
3183.633399 0.9278 0.9288 0.9290 0.9290 0.9290
3187.897196 0.9290 0.9294 0.9299 0.9304 0.9309
3192.160993 0.9310 0.9310 0.9318 0.9328 0.9330
3196.424789 0.9330 0.9330 0.9330 0.9338 0.9348
3200.688586 0.9350 0.9350 0.9350 0.9350 0.9350
3204.952383 0.9350 0.9350 0.9350 0.9350 0.9350
3209.216179 0.9350 0.9350 0.9350 0.9350 0.9350
3213.479976 0.9350 0.9350 0.9350 0.9358 0.9368
3217.743772 0.9370 0.9370 0.9370 0.9370 0.9370
3222.007569 0.9370 0.9370 0.9370 0.9370 0.9370
3226.271366 0.9374 0.9379 0.9380 0.9380 0.9384
3230.535162 0.9389 0.9390 0.9390 0.9390 0.9390
3234.798959 0.9398 0.9408 0.9410 0.9410 0.9414
3239.062756 0.9419 0.9420 0.9420 0.9420 0.9420
3243.326552 0.9420 0.9420 0.9420 0.9420 0.9420
3247.590349 0.9420 0.9424 0.9429 0.9430 0.9430
3251.854146 0.9430 0.9430 0.9426 0.9421 0.9420
3256.117942 0.9420 0.9416 0.9411 0.9410 0.9410
3260.381739 0.9410 0.9410 0.9414 0.9419 0.9424
3264.645536 0.9429 0.9430 0.9430 0.9430 0.9430
3268.909332 0.9430 0.9430 0.9430 0.9430 0.9426
3273.173129 0.9421 0.9420 0.9420 0.9416 0.9411
3277.436926 0.9410 0.9410 0.9410 0.9410 0.9410
3281.700722 0.9410 0.9410 0.9410 0.9401 0.9391
3285.964519 0.9386 0.9381 0.9380 0.9380 0.9380
3290.228316 0.9380 0.9380 0.9380 0.9384 0.9389
3294.492112 0.9416 0.9446 0.9450 0.9450 0.9454
3298.755909 0.9459 0.9460 0.9460 0.9460 0.9460
3303.019705 0.9460 0.9460 0.9460 0.9460 0.9460
3307.283502 0.9460 0.9460 0.9460 0.9460 0.9460
3311.547299 0.9464 0.9469 0.9479 0.9489 0.9494
3315.811095 0.9499 0.9500 0.9500 0.9487 0.9472
3320.074892 0.9466 0.9461 0.9460 0.9460 0.9460
3324.338689 0.9460 0.9460 0.9460 0.9460 0.9460
3328.602485 0.9460 0.9460 0.9460 0.9460 0.9464
3332.866282 0.9469 0.9470 0.9470 0.9470 0.9470
3337.130079 0.9470 0.9470 0.9470 0.9470 0.9479
3341.393875 0.9489 0.9490 0.9490 0.9477 0.9462
3345.657672 0.9460 0.9460 0.9460 0.9460 0.9460
3349.921469 0.9460 0.9460 0.9460 0.9460 0.9460
3354.185265 0.9465 0.9470 0.9470 0.9470 0.9470
3358.449062 0.9470 0.9479 0.9489 0.9495 0.9499
3362.712859 0.9500 0.9500 0.9500 0.9500 0.9500
3366.976655 0.9500 0.9500 0.9500 0.9500 0.9500
3371.240452 0.9486 0.9471 0.9479 0.9489 0.9490
3375.504249 0.9490 0.9495 0.9500 0.9500 0.9500
3379.768045 0.9505 0.9510 0.9510 0.9510 0.9505
3384.031842 0.9500 0.9500 0.9500 0.9500 0.9500
3388.295638 0.9500 0.9500 0.9495 0.9490 0.9481
3392.559435 0.9471 0.9470 0.9470 0.9465 0.9460
3396.823232 0.9460 0.9460 0.9465 0.9470 0.9470
3401.087028 0.9470 0.9479 0.9489 0.9495 0.9500
3405.350825 0.9500 0.9500 0.9500 0.9500 0.9500
3409.614622 0.9500 0.9495 0.9490 0.9481 0.9471
3413.878418 0.9470 0.9470 0.9470 0.9470 0.9470
3418.142215 0.9470 0.9465 0.9460 0.9460 0.9460
3422.406012 0.9460 0.9460 0.9460 0.9460 0.9460
3426.669808 0.9460 0.9460 0.9460 0.9465 0.9470
3430.933605 0.9465 0.9460 0.9460 0.9460 0.9455
3435.197402 0.9450 0.9450 0.9450 0.9450 0.9450
3439.461198 0.9440 0.9430 0.9430 0.9430 0.9440
3443.724995 0.9450 0.9450 0.9450 0.9450 0.9450
3447.988792 0.9450 0.9450 0.9440 0.9430 0.9425
3452.252588 0.9420 0.9415 0.9410 0.9410 0.9410
3456.516385 0.9410 0.9410 0.9410 0.9410 0.9415
3460.780182 0.9420 0.9415 0.9410 0.9400 0.9390
3465.043978 0.9390 0.9390 0.9385 0.9380 0.9375
3469.307775 0.9370 0.9370 0.9370 0.9360 0.9350
3473.571572 0.9350 0.9350 0.9350 0.9350 0.9350
3477.835368 0.9350 0.9345 0.9340 0.9335 0.9330
3482.099165 0.9320 0.9310 0.9305 0.9300 0.9285
3486.362961 0.9270 0.9260 0.9250 0.9230 0.9210
3490.626758 0.9190 0.9170 0.9140 0.9110 0.9085
3494.890555 0.9060 0.9035 0.9010 0.8975 0.8940
3499.154351 0.8900 0.8860 0.8820 0.8780 0.8740
3503.418148 0.8700 0.8650 0.8600 0.8540 0.8480
3507.681945 0.8470 0.8460 0.8450 0.8440 0.8440
3511.945741 0.8440 0.8440 0.8440 0.8450 0.8460
3516.209538 0.8465 0.8470 0.8485 0.8500 0.8525
3520.473335 0.8550 0.8555 0.8561 0.8636 0.8711
3524.737131 0.8766 0.8821 0.8856 0.8890 0.8895
3529.000928 0.8901 0.8936 0.8971 0.9031 0.9090
3533.264725 0.9110 0.9131 0.9156 0.9181 0.9206
3537.528521 0.9231 0.9251 0.9271 0.9301 0.9330
3541.792318 0.9340 0.9350 0.9360 0.9370 0.9380
3546.056115 0.9390 0.9400 0.9410 0.9410 0.9410
3550.319911 0.9400 0.9390 0.9390 0.9390 0.9385
3554.583708 0.9380 0.9380 0.9380 0.9375 0.9370
3558.847505 0.9370 0.9370 0.9370 0.9370 0.9375
3563.111301 0.9380 0.9380 0.9381 0.9396 0.9410
3567.375098 0.9415 0.9421 0.9436 0.9450 0.9455
3571.638894 0.9460 0.9460 0.9460 0.9465 0.9470
3575.902691 0.9470 0.9470 0.9470 0.9470 0.9480
3580.166488 0.9490 0.9490 0.9490 0.9490 0.9490
3584.430284 0.9479 0.9470 0.9470 0.9470 0.9470
3588.694081 0.9470 0.9470 0.9471 0.9481 0.9490
3592.957878 0.9495 0.9500 0.9505 0.9510 0.9510
3597.221674 0.9510 0.9510 0.9510 0.9510 0.9510
3601.485471 0.9510 0.9510 0.9505 0.9500 0.9500
3605.749268 0.9500 0.9500 0.9500 0.9500 0.9500
3610.013064 0.9500 0.9500 0.9500 0.9500 0.9500
3614.276861 0.9500 0.9500 0.9500 0.9500 0.9500
3618.540658 0.9500 0.9500 0.9500 0.9500 0.9500
3622.804454 0.9500 0.9500 0.9500 0.9500 0.9500
3627.068251 0.9500 0.9500 0.9500 0.9500 0.9500
3631.332048 0.9500 0.9495 0.9490 0.9490 0.9490
3635.595844 0.9490 0.9490 0.9490 0.9490 0.9490
3639.859641 0.9490 0.9490 0.9490 0.9490 0.9490
3644.123438 0.9490 0.9490 0.9495 0.9500 0.9500
3648.387234 0.9500 0.9500 0.9500 0.9500 0.9500
3652.651031 0.9500 0.9500 0.9500 0.9499 0.9494
3656.914827 0.9490 0.9490 0.9490 0.9490 0.9490
3661.178624 0.9490 0.9490 0.9490 0.9490 0.9490
3665.442421 0.9490 0.9490 0.9490 0.9490 0.9490
3669.706217 0.9490 0.9490 0.9490 0.9490 0.9490
3673.970014 0.9490 0.9490 0.9491 0.9496 0.9501
3678.233811 0.9506 0.9510 0.9510 0.9510 0.9510
3682.497607 0.9510 0.9510 0.9510 0.9510 0.9510
3686.761404 0.9510 0.9510 0.9510 0.9510 0.9510
3691.025201 0.9510 0.9510 0.9510 0.9510 0.9510
3695.288997 0.9510 0.9510 0.9510 0.9510 0.9510
3699.552794 0.9510 0.9510 0.9511 0.9521 0.9530
3703.816591 0.9530 0.9531 0.9536 0.9540 0.9540
3708.080387 0.9540 0.9540 0.9540 0.9540 0.9540
3712.344184 0.9540 0.9539 0.9534 0.9530 0.9530
3716.607981 0.9530 0.9530 0.9530 0.9530 0.9530
3720.871777 0.9530 0.9530 0.9530 0.9530 0.9530
3725.135574 0.9530 0.9530 0.9530 0.9530 0.9530
3729.399371 0.9530 0.9530 0.9530 0.9530 0.9530
3733.663167 0.9530 0.9530 0.9530 0.9530 0.9530
3737.926964 0.9530 0.9530 0.9530 0.9530 0.9530
3742.190760 0.9530 0.9530 0.9531 0.9536 0.9540
3746.454557 0.9540 0.9540 0.9540 0.9540 0.9540
3750.718354 0.9540 0.9540 0.9540 0.9540 0.9540
3754.982150 0.9540 0.9540 0.9540 0.9540 0.9540
3759.245947 0.9540 0.9540 0.9540 0.9540 0.9540
3763.509744 0.9540 0.9540 0.9540 0.9540 0.9540
3767.773540 0.9540 0.9540 0.9540 0.9540 0.9540
3772.037337 0.9540 0.9540 0.9540 0.9540 0.9540
3776.301134 0.9540 0.9540 0.9540 0.9540 0.9540
3780.564930 0.9540 0.9540 0.9540 0.9540 0.9540
3784.828727 0.9540 0.9540 0.9539 0.9534 0.9530
3789.092524 0.9530 0.9530 0.9530 0.9530 0.9530
3793.356320 0.9530 0.9530 0.9530 0.9530
##END=
