##TITLE=Toluene
##JCAMP-DX=4.24
##DATA TYPE=INFRARED SPECTRUM
##CLASS=IUPAC A
##ORIGIN=NIST, Anayltical Chemistry Division, 301-975-3108
##OWNER=COPYRIGHT (C) 1998 by the U.S. Secretary of Commerce
##DATE=98/10/1
##$SPECTRA VERSION=1.00
##$UNCERTAINTY IN Y=2.4 % relative (B=1.4E-04,C=2.2E-09,D=2.7E-14)
##CAS NAME=Toluene
##CAS REGISTRY NO=108-88-3
##MOLFORM=C H3 C6 H5
##MP=-95 C
##BP=110.6 C
##$NIST SOURCE=QUANT-IR
##SPECTROMETER/DATA SYSTEM=IFS66V (Bruker)
##INSTRUMENT PARAMETERS=KBr Beam splitter; MCT Detector; Multipass cell
##STATE=gas
##SAMPLE DESCRIPTION=Toluene Primary Gas Standard
##PRESSURE=101.3 kPa
##TEMPERATURE=23 C
##SAMPLING PROCEDURE=1 L/min Flow
##RESOLUTION=1.9290
##DATA PROCESSING=NB Strong Apodization
##XUNITS=cm-1
##YUNITS=(micromol/mol)-1m-1 (base 10)
##XFACTOR=1.0
##YFACTOR=4.5474E-13
##DELTAX=0.9645
##FIRSTX=574.687
##LASTX=3974.595
##FIRSTY=8.85E-08
##MAXX=3973.63
##MINX=574.69
##MAXY=.0006612
##MINY=-3.36E-07
##NPOINTS=3527
##XYDATA=(X++(Y..Y))
574.69 194720 571544 448356 45862-448860-184040
579.51-270194-209504-511916-740548-646726-258208
585.29-297558-527910-186540 442302 451110 105146
591.08-228026-32900 50250-46528-79420 302934
596.86 343250 168526 106266 43552-213552 8084
602.65 293126 383176 201720 289286 308284 404592
608.44 562766 773094 481546 440166 391568 499224
614.22 635342 782606 784444 924020 591466 604342
620.01 553754 560302 343614 506370 425076 739888
625.79 1465624 2110854 2412480 2744178 2741202 2804412
631.58 2240916 1796302 1688556 1794816 1687846 1919180
637.36 1719572 1639516 1526618 1599496 1492582 1752440
643.15 1569626 1545794 1644588 1877620 1489756 1447722
648.93 1377258 1618334 1426404 1737944 1853636 2348988
654.72 2561334 3007668 3281054 4138008 4574212 5692236
660.50 6737990 8300568 9367422 11477860 13512510 16629330
666.29 19710760 23828610 27678720 33228350 39895430 48084380
672.08 55890920 64744610 72524320 82773840 92814850 105542700
677.86 120105700 141535100 157170800 156801000 152011800 152156700
683.65 152460800 156386100 157292300 161383600 164959300 178666400
689.43 178563200 185619400 261112800 608923300 845087500 414919300
695.22 165625200 162129800 175256400 179085800 189081600 200393600
701.00 226811700 239517000 232718300 233124800 244984800 253912000
706.79 268375600 281164400 297108300 311027600 328305200 342263900
712.57 357845400 369265600 382883600 393269000 405097100 408343700
718.36 411332300 409527200 413468300 424061900 466645500 556222600
724.14 686835500 771001000 901033900 1240490000 1453999000 1109402000
729.93 684763100 528931700 451669800 427972400 419768300 419546000
735.71 414558800 411705600 402376900 393067500 377493700 361119700
741.50 339060500 314857800 285783800 257310800 226708500 197926900
747.29 169080200 143415100 118716500 98114540 79573660 64977220
753.07 52071350 41367660 30922380 24146640 18425370 14704640
758.86 11256000 9378200 7384494 6487602 5130970 4801702
764.64 3987836 3978310 3417958 3587388 3435364 3772380
770.43 3490368 4008864 3945694 4433346 4514890 4913980
776.21 4835444 5180798 5035840 5034230 4351278 4185408
782.00 3637726 3852516 5264346 6438902 4018976 2766892
787.78 2775022 3327612 3587032 4043242 4052970 3908728
793.57 3426616 3383310 2762474 2398632 1949766 1831894
799.35 1417208 1242210 1074476 1175380 1077766 1110208
805.14 892684 1037960 961274 986386 845996 1070052
810.93 1088746 1136946 858986 819048 757092 822890
816.71 711240 780198 606042 813960 814966 959680
822.50 734324 765742 893590 1113408 917502 932532
828.28 828380 783198 685680 752776 710122 890868
834.07 919510 949440 727390 744596 769916 969284
839.85 788512 809204 821732 923862 854608 995666
845.64 989352 1161288 1257924 1499100 1435092 1543602
851.42 1568214 1585496 1539942 1768854 1832180 2012690
857.21 2018680 2201116 2236494 2380970 2249990 2255288
862.99 2319060 2530910 2482862 2644444 2769560 3013100
868.78 2977846 3216432 3396888 3891898 4561170 4640662
874.57 4159720 4349140 4587360 4939212 5085638 5426312
880.35 5573688 5840248 6007314 6312992 6363410 6536154
886.14 6606040 6961962 7047460 7404890 8038920 10012970
891.92 13959490 20886550 20869900 12087240 7903210 7606030
897.71 7610062 7244712 6991972 6958922 7082702 7110138
903.49 7093056 7259974 7297844 7132142 6827928 6665776
909.28 6459476 6314026 6193000 6258804 6353856 6612144
915.06 6698280 6758432 6872762 6928534 6876700 6978052
920.85 7152942 7951636 9204472 9408320 8394184 8091652
926.63 8376550 8834532 9020398 9035908 8972834 9061360
932.42 9001982 8606740 7743950 7208662 6900570 6657860
938.21 6451542 6349092 6174896 5978040 5612746 5252188
943.99 4952076 4752670 4440908 4257330 4069456 3990040
949.78 3895766 3980512 3983312 4108910 4298548 4468624
955.56 4511720 4634330 4844782 5124378 5210118 5297324
961.35 5488786 5767804 5768004 5828792 5976788 6055424
967.13 6341520 7200004 7832626 7450432 7320100 7307716
972.92 6894430 6731674 6714268 6648620 6679494 6733086
978.70 6784990 6803712 6372824 5924372 5571222 5367426
984.49 5266966 5197268 5100850 5026788 4972092 4873176
990.27 4648808 4497896 4480778 4550856 4520594 4425576
996.06 4306456 4191990 4074372 3966646 4005228 4089422
1001.85 4107128 4085856 3966390 3870700 4138878 4445132
1007.63 4622232 4708792 5026752 5494200 6153052 6906988
1013.42 8223250 9952918 12416410 15471330 19482920 24254510
1019.20 30018290 36178830 42691490 48617610 52995660 54623190
1024.99 54154790 49781820 44644980 40493170 43402180 61121730
1030.77 86465340 66035970 38144960 38374310 45610020 53407850
1036.56 58154480 60343470 59058500 56341820 52881410 51234460
1042.34 50412270 48131790 42166160 37549690 34671700 30958520
1048.13 27417870 26381570 25836740 26735140 26716340 27600800
1053.91 29448360 30459840 29200640 28212850 28103210 28693490
1059.70 28981740 29564420 29973970 30750640 31591270 32922600
1065.48 34304010 36168860 38130100 40491540 42864840 45687120
1071.27 48494010 51737220 54614440 56604200 57994820 59334070
1077.06 56886220 51287080 43667350 37552810 35607980 38450570
1082.84 43442580 48445200 51747800 53484960 53432760 52253130
1088.63 50372590 48299550 45912170 43592990 41064770 39017820
1094.41 37287020 36043280 34627400 33173800 30843660 27943950
1100.20 24507460 20957110 18058850 17115810 17504720 18826890
1105.98 19987710 20703090 20682940 20292950 19516530 18827230
1111.77 17651210 16256420 14805570 13619550 12368850 11287960
1117.55 10092460 9190902 8369720 7771542 7108842 6567870
1123.34 5896370 5509320 5098158 4803856 4459862 4415278
1129.12 4341374 4316650 4109666 4004338 3828096 3849662
1134.91 3698362 3729844 3655684 3612456 3409894 3362730
1140.70 3262818 3409122 3398544 3489594 3500928 3660424
1146.48 3683340 3864094 3874526 4031508 4053474 4188848
1152.27 4191572 4236348 4228300 4487896 4690284 4941162
1158.05 4966458 5099782 5092388 5169920 5136298 5202062
1163.84 5290936 5574036 5453384 5398712 5567906 6076362
1169.62 6363402 6581176 6469734 6357156 5976718 5693614
1175.41 5432318 5649774 6040424 6317768 5601840 5168760
1181.19 5085798 5387846 5657310 5961108 6005720 6013680
1186.98 5723666 5471664 5070296 4879896 4875626 5364066
1192.76 5329044 5027932 5010456 5464142 6095706 6935438
1198.55 7688446 8563968 9148068 9723878 10009730 10241800
1204.34 10141820 9975024 9545556 9349786 9399412 10116350
1210.12 11090230 12434620 12219470 9856692 8955022 9849404
1215.91 10783120 11462250 11503940 11100830 10176300 9122172
1221.69 7965900 6981530 6064906 5411244 4941218 4791024
1227.48 4662470 4808744 5047090 5548586 5839074 6106266
1233.26 6201414 6322894 6222226 6220394 5997138 6051640
1239.05 6417666 7448132 7643694 6603542 6191152 6398448
1244.83 6706508 7317926 7307874 6942106 6502156 6129492
1250.62 5599044 5135128 4625678 4236028 3817486 3551776
1256.40 3348684 3271892 3015904 2801284 2538308 2475958
1262.19 2359774 2288076 2077048 2070296 1947348 1843772
1267.98 1689554 1724066 1675528 1776794 1728410 1715558
1273.76 1660280 1765044 1766536 1883060 1862802 1913004
1279.55 1913454 2034084 2051536 2202500 2335596 2526330
1285.33 2556226 2732034 2793430 2970776 3067590 3221390
1291.12 3211976 3345578 3372928 3456472 3510182 3782688
1296.90 4065814 4471398 4812082 5255162 5550792 5832356
1302.69 5919396 6067106 5957546 5779294 5313358 4928800
1308.47 4580914 4553210 4724780 5222588 5651414 6027138
1314.26 6104894 6174710 6068642 5924528 5664858 5527410
1320.04 5263140 5103846 4934840 4987530 4850970 4721136
1325.83 4375944 4227674 4125326 4106378 3976376 4088432
1331.61 4203340 4332978 4213514 4140964 4099922 4258072
1337.40 4301220 4433018 4511038 4725356 4808264 5018368
1343.19 5112898 5275930 5384704 5687634 5934528 6264670
1348.97 6450236 6749582 6955698 7274944 7578912 8161126
1354.76 8785970 8992210 8660070 8854738 9223292 9704190
1360.54 10179920 10857170 11355570 11923030 12465670 13331520
1366.33 14306470 15507200 16480330 17699410 19011530 20426020
1372.11 21815300 23266940 24539540 26000720 27205910 28001950
1377.90 28176980 28663020 29743740 32283340 37968490 43361960
1383.68 39475960 34933670 34935120 37056980 39161880 40174470
1389.47 39813130 38232490 35525850 32395600 29256770 26676740
1395.25 24333720 22147470 20249290 19077790 18218250 17720120
1401.04 17413980 17800110 18170460 18454660 19111840 20384520
1406.83 19510430 17877890 17476430 17749820 18355970 19185000
1412.61 19907730 20652620 21492560 23113900 24638120 25654700
1418.40 27104360 29780670 31576440 29937610 26554260 24361500
1424.18 23418240 22752220 22647120 23205130 24133130 25312440
1429.97 26432730 27582500 28766060 29686620 30193230 30889170
1435.75 32254660 34959030 38211420 41828970 45922280 48274490
1441.54 49280920 51781160 54861500 58175250 61341560 64606020
1447.32 68080700 71338280 72986380 73499500 72485190 70859840
1453.11 69830080 70671020 71464290 72545110 74625500 75648670
1458.89 76758510 79007140 80842370 83878540 82533840 75242750
1464.68 70411380 68946040 69361020 71203230 74785390 78611560
1470.47 79721810 78481460 75489400 72214220 69732660 67770250
1476.25 66871370 65397740 63583260 63727190 66287520 71597830
1482.04 79253580 89281880 103550300 120443000 134914600 150025100
1487.82 166918600 184422200 200737600 213308600 217561300 214855700
1493.61 206673300 198798800 200753400 210624400 219441900 252776600
1499.39 275558600 220665900 180788400 189161600 208311000 222036000
1505.18 228384200 225673000 213975600 195012200 171218500 146945800
1510.96 124929300 106376800 91232620 79722380 72245140 67526210
1516.75 63001260 57446610 51216040 46401280 43643680 43792400
1522.53 46592150 50341630 50171080 48394930 46145000 44015960
1528.32 43621740 43721950 43220720 42069710 40927820 41203420
1534.11 41696210 40214400 38615280 35861840 33028860 31836460
1539.89 31195000 30616470 30152280 29333540 27783940 26253870
1545.68 24693970 23391450 22473290 22043200 22126980 22270050
1551.46 21736650 21457180 21650550 22703140 23518630 23865490
1557.25 24012670 24442320 24600580 25020610 24851660 24070570
1563.03 22988580 21520060 20052130 19343160 19316780 20122140
1568.82 21707770 23858890 25481280 26349570 26192850 25687930
1574.60 24677170 24121170 24072590 23609410 22830680 21966160
1580.39 20934550 19994630 19296850 19291690 20214220 22250010
1586.17 23879710 22623110 21964570 24201220 27501740 31534300
1591.96 35899410 41036410 46694670 52940050 59686750 67098910
1597.74 74302580 81148660 86353340 88923100 89962230 90281720
1603.53 91238620 95216810 100705900 104641600 118373200 135968200
1609.32 118174200 101547700 104271800 109948700 113622100 113178600
1615.10 107719700 99271270 91551530 88358210 90407980 79886820
1620.89 65691610 58775690 54466040 51818500 48966650 45794590
1626.67 41838570 37460850 32422880 27430520 22633940 18382530
1632.46 14620910 11501120 8808652 7392078 6442020 5765924
1638.24 5191982 4732734 4377206 4232872 4030972 3948900
1644.03 3718080 3507264 3612242 3702156 3746886 3862000
1649.81 3833110 3403568 2545162 2629594 2975020 3146526
1655.60 3077328 3217868 3470042 3850432 4095316 4253292
1661.38 4161740 4233290 4323200 4341880 4337114 4374042
1667.17 4154758 3833592 3775280 3802226 3647488 3684530
1672.96 3569660 3348508 3493268 3825170 3835896 3933400
1678.74 4032872 4196356 4199676 4044738 3585580 3068480
1684.53 3285820 3703632 3429258 3273086 3123882 3108214
1690.31 3089808 3250600 3354548 3515650 3070710 3091512
1696.10 4097098 4574172 3783848 2754148 2703336 3324566
1701.88 3473952 3452102 3437256 3580780 3624458 3859030
1707.67 3854106 3972474 4082198 4401944 4611638 4822106
1713.45 4889404 5267528 5585716 5729576 6384026 7402940
1719.24 8182382 8960650 9681666 10466240 11149760 11790110
1725.02 12113510 12159870 11823540 11257950 10236500 9241270
1730.81 8276082 7748626 7929314 9386826 11335560 12565090
1736.60 12591770 12099650 11022350 10210510 9480922 8611586
1742.38 7638502 6884938 6095102 5469882 4850774 4378780
1748.17 3871856 3497754 2917606 2817748 2757470 2720098
1753.95 2665330 2640750 2531006 2754714 2967492 3290960
1759.74 3345606 3350626 3566662 4051584 4375544 4790602
1765.52 4959460 5141172 5320176 5791116 5987352 6351432
1771.31 6733196 7469928 7821500 7967916 8115978 8642314
1777.09 9322790 10354500 10942860 11097100 11339730 12130350
1782.88 12903370 13805930 14938050 16584700 17995330 19650310
1788.66 21626530 23770710 25080700 25943040 26364790 26730440
1794.45 26526560 25658170 23221260 22152890 26486540 36399340
1800.24 33738220 21740470 19212040 21368200 23986540 25937910
1806.02 26951880 26768080 25679820 23366450 20452090 17618320
1811.81 15120300 12936330 11076120 9514166 8226990 7306456
1817.59 6897018 7080622 7567346 7961102 8070106 7979746
1823.38 7657854 7357114 7138532 6901090 6586078 6329044
1829.16 6141908 6223018 6339478 6489634 6635356 6839418
1834.95 7116358 7617560 8217474 9016610 9850588 10817530
1840.73 11847050 13074480 14262440 15819600 17650460 19212560
1846.52 20502430 21687490 22529000 22875460 22501330 21458690
1852.30 19852340 18090070 16539160 16383190 18354890 22456870
1858.09 27018490 30308110 31921220 32438870 32023940 31115760
1863.88 29844750 28165120 26250840 24410620 22448670 20882620
1869.66 20769870 22004640 21307460 17357360 14902120 15056160
1875.45 15850500 16492180 16534090 15921180 14645350 12989690
1881.23 11098700 9289386 7658234 6377584 5380804 4693328
1887.02 4108128 3709164 3463078 3411986 3264314 3152394
1892.80 3021774 3005836 2950648 2996960 3001784 2944530
1898.59 2721064 2634708 2608666 2730926 2701046 2526894
1904.37 2374074 2469276 2543512 2637090 2681590 2830178
1910.16 2960840 3149230 3304548 3543380 3765942 4109018
1915.94 4419374 4791380 5284160 5923700 6541068 7311320
1921.73 8129370 9260326 10524030 12015080 13264900 14575810
1927.51 16228220 18205840 20250790 22373970 24255830 25778990
1933.30 26766080 27210760 26985090 26226140 24960360 23420970
1939.09 21845100 21178920 22032350 24996830 29300890 33191170
1944.87 35432460 36393950 36133850 35092240 33580420 31863540
1950.66 29985100 28160850 25867430 23749040 21803300 20310860
1956.44 20647410 21280940 18182030 14530560 13425380 13704830
1962.23 14040210 14101980 13587750 12548680 11067900 9469534
1968.01 7878924 6469650 5213944 4238164 3420586 2858126
1973.80 2458064 2235752 2004794 1901310 1863106 1955320
1979.58 2054686 2311760 2599440 3067958 3143274 2728922
1985.37 2479630 2541532 2570998 2733114 2885296 2973668
1991.15 2925964 2922728 2863628 2966246 2771430 2589120
1996.94 2623152 2771818 2781504 2850922 2833724 2813114
2002.73 2632946 2482986 2296206 2183686 2048100 2006838
2008.51 1947476 2074308 2075750 1905698 1730654 1660924
2014.30 1542852 1543806 1531264 1557452 1488730 1429218
2020.08 1303224 1275786 1251804 1289892 1215222 1148264
2025.87 999696 932644 860270 835986 746586 743774
2031.65 670602 640846 567026 553486 470488 396462
2037.44 326162 394984 338830 300106 265432 327634
2043.22 278054 251952 229204 277984 219348 210830
2049.01 165422 200528 177538 235036 232694 308214
2054.79 321606 344150 296642 345334 325902 334182
2060.58 229240 182616 181818 384416 469376 511846
2066.37 486604 534400 469666 424808 405530 488716
2072.15 443258 470104 449950 485092 485080 570782
2077.94 593800 647814 534414 526828 455476 426472
2083.72 363270 400154 378702 418348 409808 469244
2089.51 430092 483582 444644 414102 357110 410536
2095.29 370522 429708 437138 505488 429470 423454
2101.08 415022 447938 435208 500928 447620 449560
2106.86 467108 525608 468052 529946 585910 646234
2112.65 559934 563736 544574 563810 522314 550442
2118.43 531562 621526 645698 677628 638472 655870
2124.22 626168 682372 644932 700596 636038 652900
2130.01 596256 604090 619006 709084 668696 647964
2135.79 555780 532962 460894 499130 449080 460160
2141.58 428146 474944 465940 529556 509964 575162
2147.36 552822 596350 615834 699820 743360 903450
2153.15 1015248 1152076 1238564 1457514 1606812 1797118
2158.93 1857586 2005088 2119630 2220032 2219238 2282376
2164.72 2283272 2445688 2796444 2965534 2561728 2379882
2170.50 2484438 2737422 2889810 3012460 3027390 3016146
2176.29 2822320 2722946 2468292 2274902 2069002 1974740
2182.07 1831962 1710770 1513106 1450956 1381082 1402574
2187.86 1385228 1447470 1504654 1666006 1619204 1563572
2193.64 1465300 1444608 1374392 1327964 1263798 1290480
2199.43 1192946 1172508 1113518 1161176 1120432 1093104
2205.22 1030630 1074364 1085510 1191088 1130300 1068086
2211.00 988336 1036430 1038800 1119692 1124682 1164854
2216.79 1143236 1108654 991612 1005108 1003942 1094564
2222.57 1059184 1000804 965140 1016052 984252 1014318
2228.36 1012734 1105546 1078656 1068218 995208 1018126
2234.14 1014976 1116268 1178984 1188980 1093808 1195854
2239.93 1251618 1351450 1402860 1494498 1541656 1643120
2245.71 1658482 1726634 1832356 1994632 2001820 2073300
2251.50 2108622 2202696 2202048 2309006 2318400 2345174
2257.28 2247502 2239206 2185898 2211068 2230908 2305296
2263.07 2333182 2476480 2527936 2617168 2608136 2717424
2268.86 2763684 2788824 2759894 2791122 2783168 2962344
2274.64 3034614 3118340 3146922 3194404 3119376 3080986
2280.43 2972820 2931474 2855520 2965404 2965686 2935364
2286.21 2881298 2975470 3018118 3092166 3070306 3087916
2292.00 2917146 2788726 2748948 2827492 2801726 2846806
2297.78 2857908 2988282 3078324 3256988 3354794 3606644
2303.57 3786186 3935618 3938440 3903048 3719742 3637598
2309.35 3548276 3688056 3921560 4491122 4550826 4239878
2315.14 4020216 4060046 4214280 4538608 4659564 4677654
2320.92 4636996 4651956 4510732 4407260 4247550 4235634
2326.71 4222102 4334192 4388550 4455842 4373742 4299960
2332.50 4137970 4044328 3915250 3956708 4051190 4190886
2338.28 4289374 4520106 4649546 4860836 4980584 5076010
2344.07 4999978 4904720 4698538 4536344 4405026 4393806
2349.85 4393080 4536080 4606136 4718608 4774916 4952750
2355.64 5012052 5045446 4936820 4817462 4559668 4265306
2361.42 3844952 3549512 3405628 3571180 3806872 4157976
2367.21 4292506 4256280 4035666 3861256 3598524 3407290
2372.99 3076748 2830756 2626432 2603966 2534568 2493794
2378.78 2452340 2530174 2533460 2574084 2490960 2500296
2384.56 2480416 2468872 2412188 2511740 2573886 2687590
2390.35 2697394 2684592 2612292 2687390 2748518 2832708
2396.14 2799428 2833296 2835976 2984654 3132414 3192640
2401.92 3140648 3257282 3313722 3460372 3507886 3615234
2407.71 3610746 3650396 3593340 3693004 3889538 4167644
2413.49 4067120 3989846 4076150 4284348 4319664 4357864
2419.28 4339526 4487702 4584716 4483714 4162470 3981572
2425.06 3819320 3748534 3608408 3518880 3413496 3344826
2430.85 3014398 2826066 2713134 2666506 2586698 2573606
2436.63 2417860 2290958 2193724 2180982 2098980 2089388
2442.42 2007246 1946912 1855702 1908006 1869634 1878378
2448.20 1846990 1880916 1867958 1915628 1884734 1921260
2453.99 1911932 1986454 1988602 2068652 2082994 2164822
2459.77 2173626 2205592 2115412 2137370 2153880 2232042
2465.56 2230686 2238008 2171496 2161808 2129426 2173456
2471.35 2076352 2080010 2034086 2022330 1934094 1941520
2477.13 1913814 1901356 1823078 1809150 1734976 1738822
2482.92 1723742 1744460 1671864 1758614 1768808 1789138
2488.70 1790028 1867222 1846874 1876040 1895774 1996400
2494.49 2030334 2110198 2083256 2106016 2111224 2235200
2500.27 2162376 2123858 2069188 2077984 2038484 2052336
2506.06 2013184 2042136 2033718 2116670 2059698 1998362
2511.84 1882236 1895640 1809366 1798654 1737822 1731588
2517.63 1699034 1691976 1625076 1650404 1576518 1589102
2523.41 1545574 1579386 1625496 1663690 1582242 1624312
2529.20 1570716 1618978 1565352 1630504 1704698 1771682
2534.99 1696254 1674854 1612880 1613190 1581330 1580284
2540.77 1543954 1603070 1599354 1648094 1577922 1552362
2546.56 1533666 1612520 1621284 1671442 1649860 1682826
2552.34 1578428 1567430 1474864 1432576 1325428 1349372
2558.13 1341146 1394722 1413968 1454646 1355492 1389694
2563.91 1444754 1521368 1548238 1655672 1684016 1788260
2569.70 1805114 1902286 1953862 2067794 2189076 2309830
2575.48 2381784 2587504 2765524 3033658 3295258 3670316
2581.27 3966690 4163898 4257202 4493474 4689232 4846144
2587.05 4900446 4980214 4977768 5017338 5109408 5370324
2592.84 5464716 5426636 5437534 5791662 5998994 6102960
2598.63 6052864 5945118 5644110 5339796 4885922 4491756
2604.41 4101950 3886210 3611552 3478214 3353544 3406658
2610.20 3442564 3354918 3094136 3003204 2910986 2929348
2615.98 2902204 2895924 2820010 2842142 2860086 2974094
2621.77 3003404 3010016 2928494 2926494 2895402 2862544
2627.55 2720898 2724664 2688422 2704602 2580318 2562936
2633.34 2505678 2519914 2479384 2573160 2630538 2622548
2639.12 2469152 2393168 2362504 2460752 2432668 2360564
2644.91 2137786 2081248 2005866 1996950 1945246 1948230
2650.69 1818788 1780842 1788930 1833960 1693432 1614004
2656.48 1522226 1471682 1391988 1411712 1342848 1424174
2662.27 1396822 1319092 1269596 1360026 1322346 1333286
2668.05 1285672 1314036 1286114 1273550 1187076 1226036
2673.84 1169584 1143616 1113972 1198718 1188956 1192146
2679.62 1135342 1195374 1190628 1249274 1175852 1194444
2685.41 1169876 1176432 1167508 1224748 1224380 1220444
2691.19 1200516 1224248 1133572 1129890 1105220 1166508
2696.98 1238552 1307854 1156012 1159564 1214082 1302790
2702.76 1248770 1240328 1159258 1222258 1238344 1266836
2708.55 1271952 1362174 1327756 1424056 1460980 1562838
2714.33 1633374 1681026 1687300 1808698 1868786 1961858
2720.12 1986792 2142738 2267010 2490354 2662534 2928598
2725.91 3233758 3688966 4187050 4866130 5536122 6427570
2731.69 7316322 8388154 9419198 10388370 11084520 11664340
2737.48 11923360 11842190 11511610 11309350 11523620 13253690
2743.26 16515210 17463770 13851090 11692990 12422070 14002860
2749.05 15292160 16066170 15909370 14970790 13353420 11577960
2754.83 9862824 8393930 7102998 6175022 5482954 5016864
2760.62 4568262 4296214 4019856 3803394 3465280 3169908
2766.40 2934498 2905996 2880066 2961970 2971812 3039856
2772.19 3033866 3075940 3078830 3122614 3179960 3315312
2777.97 3366186 3470124 3560982 3710326 3657778 3611964
2783.76 3596732 3699156 3850818 4080738 4106696 4147538
2789.54 4144516 4154544 4098146 4239218 4325960 4398534
2795.33 4428886 4459634 4470702 4711122 4810640 4793290
2801.12 4702054 4768896 4837406 4969310 5049378 5205860
2806.90 5384012 5613402 5848672 6178140 6317466 6505338
2812.69 6699350 6939002 7158884 7599878 7893486 8068926
2818.47 8232256 8530294 8796380 9044706 9111058 9203860
2824.26 9188286 9262836 9360222 9604316 9874834 10367660
2830.04 10831850 11316220 11745240 12235480 12550460 12855620
2835.83 13117900 13556130 13910180 14179040 14472380 14934820
2841.61 15395940 15926760 16601620 17632260 18626300 19741150
2847.40 20937460 22340520 23845660 25581780 27367920 29328660
2853.18 31424480 33689210 36104050 38874540 41850580 45183250
2858.97 48686630 52332640 56274090 60722940 65181430 69622800
2864.76 74110700 78640750 83046750 87663780 92438570 97706340
2870.54 104014900 110011300 114404700 119328700 125292800 131837500
2876.33 138335900 143999700 147719800 150035600 150654400 149472300
2882.11 147768300 146415700 145269500 143726400 141733500 140658600
2887.90 140144100 139122800 136834000 133987100 131213400 128287200
2893.68 124788000 121036900 116829700 112473900 107981800 103446200
2899.47 99003740 95263240 92182780 89838260 88209720 87481360
2905.25 87697620 88769660 89531650 90876200 93884890 97958710
2911.04 101739400 105458800 108798500 112826700 118647100 125551700
2916.82 133615500 141564000 149388600 159115700 170814100 184247800
2922.61 197574000 209176800 219144700 227558600 233973000 236934500
2928.40 237532800 239702100 245615500 254309500 261851000 265258300
2934.18 263457300 261487800 264179500 268188700 269130300 267459200
2939.97 263038400 258512200 255289500 249909500 241960000 234092800
2945.75 225192400 213269100 199901100 187523300 175296000 163423900
2951.54 155085400 150683500 149680200 147506600 137958400 125533000
2957.32 117627200 115055800 115189500 115593200 114009200 111246900
2963.11 106767500 101364700 97505650 94191430 90249360 86240020
2968.89 82222980 78512780 75651300 74612730 75286860 76827020
2974.68 78805200 80947350 82594160 84316970 85913260 86876620
2980.46 87196740 87481180 88298320 90898820 95333460 98725880
2986.25 96573300 91054390 87830380 88124830 91323530 96119180
2992.04 99522410 100352000 101622600 105917900 112750600 117154200
2997.82 116357300 114743300 117297000 124325000 133662200 142959100
3003.61 148214300 146531700 142781600 142974600 146288400 148744500
3009.39 150097800 151846400 153658200 158421200 165579800 171882400
3015.18 177526100 184454100 194094600 206401600 221892700 241316700
3020.96 264218500 284755500 303575300 325603100 348735700 372577700
3026.75 398928500 428562100 456515300 474399000 482533500 487089000
3032.53 487784700 481833100 473479100 470499300 472161800 476115000
3038.32 482997500 487204100 489453000 489579500 486583600 487857900
3044.10 486592900 478244900 460989200 436333400 407226200 376990000
3049.89 346310900 317300000 292166900 272614200 257563700 246567400
3055.67 239128100 234953400 233852600 236143600 239846500 243608400
3061.46 247695400 252721300 256906900 260106300 261397700 260604500
3067.25 259238100 259345000 262975000 274197100 294016800 313693800
3073.03 307827100 280827000 266045200 267582000 274912800 281888000
3078.82 286504700 287630500 285337300 277245400 265277200 255853500
3084.60 248580000 242836500 237689300 232178200 224968100 216079000
3090.39 204611000 191288800 177920000 165673000 155947700 150577800
3096.17 150387600 154769600 160104500 163635600 163579500 159643200
3101.96 153023100 145008900 135869100 126414800 116862800 108078600
3107.74 100220800 93335890 87846270 83550230 79825540 76464280
3113.53 72924090 69302200 65757440 62416030 59020370 55403480
3119.31 51432020 48571480 46006600 42891880 40567450 38478120
3125.10 36204220 34413810 32763290 31074050 28848510 26265930
3130.89 23452090 20928440 18424970 16063970 13749890 11789840
3136.67 10097030 8790728 7538830 6578078 5752440 5129620
3142.46 4538864 4160040 3749258 3555952 3426752 3385382
3148.24 3264538 3137418 2982626 2962980 2860044 2897622
3154.03 2858264 2912668 2820072 2848804 2819428 2909678
3159.81 2995882 3051346 3043080 3131276 3138910 3250974
3165.60 3222246 3251934 3317758 3466930 3467730 3546744
3171.38 3548212 3532164 3459446 3519154 3493748 3475920
3177.17 3298054 3340034 3343196 3290334 3058750 2842426
3182.95 2651946 2719694 2666302 2637076 2469636 2206488
3188.74 1782374 1494346 1169816 985660 850650 755892
3194.53 575528 550578 523624 538882 441078 450808
3200.31 400210 394882 300480 341478 344580 402436
3206.10 462444 583954 552088 509510 390166 313308
3211.88 186958 242538 251728 294486 175680 26170
3217.67 17392 409924 549510 525334 334224 270176
3223.45 233744 220752 50428 56802 143788 208292
3229.24 86344 146992 155598 267566 284970 327578
3235.02 305776 280882 186312 196814 213612 332160
3240.81 398706 443980 449210 543542 503028 449016
3246.59 441798 522588 470740 537544 490222 501174
3252.38 548848 599278 559912 692670 662032 665842
3258.17 657272 697504 678764 732716 754280 868622
3263.95 856122 914964 884434 917592 843234 924150
3269.74 887772 944450 1051910 1174382 1094402 1033798
3275.52 999332 1094260 1041646 1045288 1008792 1054568
3281.31 1011320 1006032 962798 1057874 1054330 1010290
3287.09 880514 887626 891458 1053916 1033224 1045780
3292.88 1060744 1071856 979498 910420 836482 936856
3298.66 883306 892850 953832 1096238 997878 936438
3304.45 889382 938638 833556 848896 836180 810542
3310.23 805912 914358 894552 954792 853158 873208
3316.02 893068 981522 976884 915922 906760 1054462
3321.80 1024576 1082046 1125038 1211680 1238020 1392468
3327.59 1305664 1353614 1404470 1496438 1463712 1566430
3333.38 1560736 1514722 1496444 1571372 1478268 1470488
3339.16 1554124 1668238 1641206 1641170 1506242 1470208
3344.95 1425734 1460702 1452946 1435740 1355518 1313834
3350.73 1233890 1191352 1113858 1187794 1119608 1074346
3356.52 1042002 1166912 1086460 1164600 1263036 1341256
3362.30 1372370 1351896 1301890 1307130 1237358 1254722
3368.09 1220586 1266272 1244578 1302722 1350218 1494670
3373.87 1473886 1521772 1519550 1568930 1496020 1493136
3379.66 1540030 1636156 1619480 1665802 1555858 1497536
3385.44 1408736 1329402 1325948 1366396 1268204 1364600
3391.23 1285984 1348608 1353142 1317342 1236876 1265498
3397.02 1211132 1289314 1239816 1207464 1100014 1081010
3402.80 1073806 1188290 1161670 1150292 1106890 1198076
3408.59 1116282 1088550 1030724 1005936 866670 877510
3414.37 980122 1102278 1066624 1061750 822084 659936
3420.16 698516 925362 897918 949970 924914 914016
3425.94 879836 1006130 1092206 1129798 1028450 1079596
3431.73 1015498 1017208 921624 1018476 1124010 1148024
3437.51 1223966 1384072 1286980 1366514 1482844 1530222
3443.30 1449902 1496642 1479170 1449106 1294364 1208450
3449.08 1196762 1341442 1231214 1121038 1048034 1086166
3454.87 1041488 1032730 1018478 1052032 994252 1007728
3460.66 986026 882096 802784 907008 856258 765226
3466.44 658704 611324 469904 521872 526064 601020
3472.23 507662 506602 452128 401762 300354 322040
3478.01 328616 377984 315838 329392 348342 405880
3483.80 381104 400780 441270 499202 381302 422460
3489.58 453470 454598 393142 425326 455384 510870
3495.37 407854 469804 520958 538146 412970 523690
3501.15 525002 510884 450530 500068 502360 494978
3506.94 401520 449862 476030 553260 510010 538248
3512.72 511236 596754 571308 595310 546326 582274
3518.51 576388 676810 687834 644190 657058 906432
3524.30 1040228 939318 702348 661094 584034 654394
3530.08 582852 580662 591412 676610 686232 690276
3535.87 641300 672562 668434 753522 690130 722708
3541.65 689684 776070 775156 784612 742450 879380
3547.44 919670 881336 838260 841312 820558 997512
3553.22 1078030 1073360 908490 906032 921202 992726
3559.01 966056 957930 940222 1012496 983818 963172
3564.79 889754 916780 835744 832510 789004 711924
3570.58 620878 681348 626928 633660 557024 577052
3576.36 494984 519758 517670 695974 806196 874280
3582.15 886036 862858 712200 613474 610270 629182
3587.94 543890 747554 798518 851878 754430 832262
3593.72 809662 827624 845558 871270 733880 676006
3599.51 551220 689772 966610 1055006 972358 863540
3605.29 579122 538518 521460 425006 465944 601260
3611.08 463490 455012 454094 462524 550980 685480
3616.86 723506 707358 564896 792328 888202 1011874
3622.65 1001878 1104044 1107868 1204030 1094814 835788
3628.43 683344 971582 1148108 1228302 1107554 1175356
3634.22 1325446 1439696 1509528 1573474 1577022 1691972
3640.00 1753284 1929098 1977436 2005140 1972656 1986548
3645.79 1870916 1912718 1774714 1809682 2025844 2253482
3651.57 2530138 2647302 2554178 2455778 2401638 2610704
3657.36 2655782 2640786 2579576 2610010 2562094 2606506
3663.15 2587296 2645530 2564340 2529860 2386576 2227334
3668.93 1928044 1666448 1797048 1930454 1691988 1284838
3674.72 941482 1136876 1455338 1469354 1328976 1370882
3680.50 1457382 1458936 1314986 1293012 1243852 1272140
3686.29 1116230 754760 862614 1178694 1141892 1224618
3692.07 1181270 1235604 1223716 1228680 1211806 1186242
3697.86 1181734 1279456 1123922 1030534 1140068 1233398
3703.64 1211526 1248034 1196492 1120030 1012800 1030828
3709.43 1032590 806238 588384 979460 1128046 1194698
3715.21 1248286 1258780 1097858 1099580 1020210 1051224
3721.00 1026834 1191240 1248696 1199016 1079172 997904
3726.79 926658 952762 906048 916642 711546 724084
3732.57 920764 861356 589326 433196 512502 743796
3738.36 779464 784516 722974 700064 431186-157958
3744.14-82712 649930 813744 732856 249042 233378
3749.93 390418-888 51946 552492 618728 621948
3755.71 605052 699836 568606 524866 617726 721430
3761.50 632794 681618 565156 560856 587048 705342
3767.28 643024 510244 400218 661622 797754 854836
3773.07 731564 802486 846336 856660 795872 822058
3778.85 802880 913528 918760 1104388 1212878 1246210
3784.64 1143810 1203564 1357586 1485190 1451104 1525636
3790.43 1546008 1653406 1697402 1727180 1666890 1628498
3796.21 1532286 1643130 1681672 1647336 1152888 1175274
3802.00 1525462 1705616 1788504 1699284 1343608 1419518
3807.78 1646688 1724380 1739590 1714688 1636242 1596276
3813.57 1466940 1034126 972624 1552224 1690854 1703158
3819.35 1470104 1392604 1513420 1782300 1921308 2039450
3825.14 1909930 1917906 2056334 2146070 2087902 2037488
3830.92 2002976 2251986 2208628 2126132 2211746 2267150
3836.71 1852526 2124104 2417628 2465956 2465748 2581414
3842.49 2602876 2768194 2886056 2972582 3037546 3207244
3848.28 3237660 3304314 3065914 2800290 2726268 2381604
3854.07 2833372 3384620 3307638 3363984 3310172 3199706
3859.85 3077852 3097238 3138298 3119606 2794306 2810730
3865.64 2926462 2878658 2632740 2289848 2180746 2479544
3871.42 2579058 2547236 2351312 2390096 2368852 2303412
3877.21 2175646 2047544 1871546 2016578 2157018 2178996
3882.99 2013386 1782582 1584366 1862630 1950504 1889758
3888.78 1800244 1697618 1577788 1824260 1835824 1855460
3894.56 1826782 1957674 1947160 1819960 1640360 1791996
3900.35 1773446 1847030 1913342 1852302 1991182 2101248
3906.13 2175218 2260812 2248626 2340174 2381696 2426708
3911.92 2446268 2511054 2457558 2468636 2479516 2673978
3917.70 2786068 2673366 2609624 2643354 2572594 2670854
3923.49 2590124 2625588 2591928 2569952 2468944 2473212
3929.28 2361484 2276452 2170390 2230168 2179704 2171956
3935.06 2141494 2161936 2091476 2053978 2101402 2145724
3940.85 2016532 1973498 1852214 1779398 1772214 1904068
3946.63 1944048 1984386 1918476 1903934 1910880 1943856
3952.42 1879724 1827102 1835346 1950738 1940876 1892310
3958.20 1843500 2050116 2101404 2020188 1971084 2136068
3963.99 2137398 2106276 2012888 2056194 2081568 2187486
3969.77 2176246 2117904 2040404 2084366 2064424
##END=
