##TITLE=BENZENE, 1,3-DIMETHYL-
##JCAMP-DX=4.24
##DATA TYPE=INFRARED SPECTRUM
##CLASS=COBLENTZ
##ORIGIN=DOW CHEMICAL COMPANY
##OWNER=COBLENTZ SOCIETY
Collection (C) 2018 copyright by the U.S. Secretary of Commerce
on behalf of the United States of America. All rights reserved.
##DATE=1980/05/30
##NAMES=m-XYLENE
##CAS REGISTRY NO=108-38-3
##MOLFORM=C8 H10
##BP=139 C
##SOURCE REFERENCE=COBLENTZ NO. 10567
##$NIST SOURCE=COBLENTZ
##$NIST IMAGE=cob-r10567
##SPECTROMETER/DATA SYSTEM=PERKIN-ELMER 180
##INSTRUMENT PARAMETERS=
$$ ABSORPTION AT 1607 IS AFFECTED BY AN ABSOPTION DUE TO BLANK CELL AT 1572 CM^-^1.
##STATE=VAPOR (30 mmHg, N2 ADDED, TOTAL PRESSURE 600 mmHg)
##PATH LENGTH=7 CM
##SAMPLING PROCEDURE=TRANSMISSION
##RESOLUTION=2 CM^-^1
##DATA PROCESSING=DIGITIZED BY NIST FROM HARD COPY (FROM TWO SEGMENTS)
##XUNITS=1/CM
##YUNITS=TRANSMITTANCE
##XFACTOR=1.000000
##YFACTOR=1
##DELTAX=1.453958
##FIRSTX=255.25
##LASTX=4010.82
##FIRSTY=0.008
##MAXX=4010.82
##MINX=255.25
##MAXY=0.994
##MINY=0.001
##NPOINTS=2584
##XYDATA=(X++(Y..Y))
255.250000 0.0080 0.0070 0.0040 0.0040 0.0020
262.519792 0.0010 0.0010 0.0010 0.0010 0.0010
269.789583 0.0010 0.0010 0.0010 0.0010 0.0010
277.059375 0.0010 0.0010 0.0010 0.0010 0.0010
284.329167 0.0010 0.0010 0.0010 0.0010 0.0010
291.598958 0.0010 0.0010 0.0010 0.0010 0.0010
298.868750 0.0010 0.0010 0.0010 0.0010 0.0010
306.138542 0.0010 0.0020 0.0020 0.0020 0.0020
313.408333 0.0020 0.0020 0.0020 0.0020 0.0020
320.678125 0.0020 0.0020 0.0020 0.0010 0.0010
327.947917 0.0020 0.0020 0.0020 0.0020 0.0050
335.217708 0.0050 0.0100 0.0130 0.0140 0.0180
342.487500 0.0230 0.0330 0.0330 0.0370 0.0400
349.757292 0.0430 0.0500 0.0530 0.0679 0.0799
357.027083 0.0810 0.0840 0.0900 0.0930 0.1010
364.296875 0.1120 0.1220 0.1309 0.1439 0.1519
371.566667 0.1630 0.1710 0.1930 0.2030 0.2110
378.836458 0.2190 0.2289 0.2340 0.2499 0.2599
386.106250 0.2860 0.2920 0.3020 0.3110 0.3200
393.376042 0.3329 0.3419 0.3619 0.3650 0.3749
400.645833 0.3840 0.3940 0.4100 0.4299 0.4519
407.915625 0.4540 0.4620 0.4729 0.4809 0.4870
415.185417 0.4960 0.4970 0.5020 0.5080 0.5120
422.455208 0.5210 0.5260 0.5220 0.5160 0.5021
429.725000 0.5020 0.5120 0.5180 0.5759 0.6119
436.994792 0.6249 0.6310 0.6370 0.6440 0.6490
444.264583 0.6630 0.6760 0.7079 0.7200 0.7330
451.534375 0.7489 0.7589 0.7769 0.7869 0.7969
458.804167 0.8020 0.8060 0.8130 0.8180 0.8260
466.073958 0.8340 0.8449 0.8450 0.8510 0.8599
473.343750 0.8660 0.8710 0.8800 0.8820 0.8850
480.613542 0.8900 0.8930 0.8980 0.9010 0.9050
487.883333 0.9110 0.9120 0.9170 0.9220 0.9270
495.153125 0.9310 0.9350 0.9350 0.9380 0.9380
502.422917 0.9300 0.9220 0.9110 0.9030 0.9030
509.692708 0.9060 0.9080 0.9080 0.9120 0.9140
516.962500 0.9140 0.9140 0.9140 0.9140 0.9150
524.232292 0.9190 0.9250 0.9349 0.9410 0.9430
531.502083 0.9510 0.9510 0.9530 0.9540 0.9570
538.771875 0.9570 0.9590 0.9590 0.9620 0.9630
546.041667 0.9670 0.9700 0.9700 0.9720 0.9720
553.311458 0.9750 0.9780 0.9820 0.9820 0.9820
560.581250 0.9810 0.9810 0.9790 0.9790 0.9790
567.851042 0.9790 0.9810 0.9810 0.9820 0.9820
575.120833 0.9820 0.9830 0.9830 0.9850 0.9880
582.390625 0.9890 0.9910 0.9880 0.9880 0.9880
589.660417 0.9880 0.9890 0.9910 0.9920 0.9940
596.930208 0.9940 0.9920 0.9920 0.9920 0.9920
604.200000 0.9920 0.9940 0.9940 0.9920 0.9910
611.469792 0.9910 0.9880 0.9830 0.9820 0.9820
618.739583 0.9820 0.9790 0.9810 0.9790 0.9790
626.009375 0.9810 0.9820 0.9830 0.9850 0.9850
633.279167 0.9860 0.9860 0.9890 0.9910 0.9910
640.548958 0.9860 0.9850 0.9830 0.9810 0.9750
647.818750 0.9750 0.9810 0.9820 0.9830 0.9850
655.088542 0.9850 0.9850 0.9830 0.9830 0.9820
662.358333 0.9810 0.9780 0.9720 0.9620 0.9510
669.628125 0.9381 0.9211 0.8991 0.8772 0.8601
676.897917 0.8420 0.8260 0.8120 0.7771 0.7640
684.167708 0.7511 0.7371 0.6853 0.6334 0.5834
691.437500 0.5340 0.5250 0.5769 0.6169 0.6519
698.707292 0.6809 0.7049 0.7189 0.7299 0.7419
705.977083 0.7510 0.7650 0.7780 0.8129 0.8608
713.246875 0.8859 0.9109 0.9279 0.9340 0.9429
720.516667 0.9510 0.9590 0.9660 0.9690 0.9720
727.786458 0.9750 0.9760 0.9790 0.9790 0.9790
735.056250 0.9730 0.9730 0.9720 0.9660 0.9630
742.326042 0.9491 0.9341 0.9032 0.8603 0.8154
749.595833 0.7680 0.7360 0.7031 0.6053 0.5063
756.865625 0.4741 0.4422 0.4092 0.3752 0.3055
764.135417 0.2700 0.2350 0.1641 0.1610 0.1640
771.405208 0.1988 0.2855 0.3267 0.3905 0.4198
778.675000 0.4220 0.4380 0.4809 0.5119 0.6117
785.944792 0.6329 0.6619 0.6749 0.7286 0.7866
793.214583 0.8220 0.8919 0.8960 0.9050 0.9209
800.484375 0.9329 0.9410 0.9470 0.9510 0.9540
807.754167 0.9540 0.9570 0.9590 0.9600 0.9600
815.023958 0.9630 0.9660 0.9670 0.9700 0.9700
822.293750 0.9690 0.9690 0.9700 0.9720 0.9720
829.563542 0.9720 0.9700 0.9690 0.9670 0.9670
836.833333 0.9690 0.9690 0.9690 0.9660 0.9650
844.103125 0.9620 0.9620 0.9590 0.9560 0.9560
851.372917 0.9540 0.9510 0.9470 0.9430 0.9410
858.642708 0.9380 0.9330 0.9221 0.9150 0.9120
865.912500 0.9060 0.9050 0.9050 0.8950 0.8741
873.182292 0.8640 0.8541 0.8470 0.8361 0.8568
880.452083 0.8700 0.8870 0.9060 0.9060 0.9050
887.721875 0.9030 0.9030 0.9020 0.9020 0.8990
894.991667 0.8950 0.8920 0.8890 0.8860 0.8850
902.261458 0.8830 0.8830 0.8820 0.8820 0.8820
909.531250 0.8820 0.8830 0.8860 0.8920 0.8930
916.801042 0.9020 0.9120 0.9239 0.9339 0.9429
924.070833 0.9500 0.9500 0.9500 0.9500 0.9490
931.340625 0.9460 0.9460 0.9440 0.9440 0.9440
938.610417 0.9430 0.9400 0.9370 0.9330 0.9340
945.880208 0.9340 0.9330 0.9330 0.9310 0.9310
953.150000 0.9270 0.9250 0.9250 0.9240 0.9240
960.419792 0.9220 0.9220 0.9210 0.9150 0.9140
967.689583 0.9140 0.9140 0.9140 0.9140 0.9140
974.959375 0.9120 0.9110 0.9090 0.9080 0.9060
982.229167 0.9050 0.9030 0.9030 0.9030 0.9010
989.498958 0.8980 0.8920 0.8920 0.8890 0.8890
996.768750 0.8870 0.8760 0.8660 0.8580 0.8510
1004.038542 0.8500 0.8500 0.8510 0.8520 0.8520
1011.308333 0.8580 0.8610 0.8610 0.8630 0.8630
1018.578125 0.8630 0.8660 0.8660 0.8630 0.8610
1025.847917 0.8570 0.8520 0.8500 0.8470 0.8440
1033.117708 0.8420 0.8410 0.8360 0.8340 0.8191
1040.387500 0.8040 0.7940 0.7940 0.8020 0.8030
1047.657292 0.8060 0.8070 0.8070 0.8090 0.8120
1054.927083 0.8120 0.8120 0.8130 0.8190 0.8230
1062.196875 0.8310 0.8320 0.8360 0.8420 0.8420
1069.466667 0.8440 0.8440 0.8440 0.8440 0.8420
1076.736458 0.8410 0.8390 0.8350 0.8320 0.8221
1084.006250 0.8120 0.8030 0.7930 0.7910 0.7900
1091.276042 0.7910 0.7960 0.8000 0.8020 0.8030
1098.545833 0.8040 0.8040 0.8060 0.8120 0.8180
1105.815625 0.8230 0.8320 0.8350 0.8380 0.8449
1113.085417 0.8640 0.8670 0.8710 0.8730 0.8740
1120.355208 0.8760 0.8770 0.8790 0.8790 0.8790
1127.625000 0.8790 0.8790 0.8790 0.8820 0.8850
1134.894792 0.8860 0.8870 0.8890 0.8900 0.8900
1142.164583 0.8920 0.8960 0.9020 0.9020 0.9030
1149.434375 0.9060 0.9060 0.9030 0.9020 0.9020
1156.704167 0.9010 0.8960 0.8950 0.8930 0.8870
1163.973958 0.8860 0.8860 0.8870 0.8890 0.8890
1171.243750 0.8920 0.8920 0.8920 0.8920 0.8890
1178.513542 0.8870 0.8890 0.8950 0.9029 0.9139
1185.783333 0.9220 0.9220 0.9240 0.9250 0.9270
1193.053125 0.9270 0.9280 0.9310 0.9310 0.9310
1200.322917 0.9310 0.9330 0.9330 0.9340 0.9340
1207.592708 0.9340 0.9350 0.9400 0.9410 0.9430
1214.862500 0.9430 0.9430 0.9430 0.9430 0.9430
1222.132292 0.9410 0.9410 0.9380 0.9370 0.9340
1229.402083 0.9340 0.9340 0.9310 0.9300 0.9250
1236.671875 0.9240 0.9240 0.9220 0.9210 0.9190
1243.941667 0.9190 0.9180 0.9180 0.9190 0.9190
1251.211458 0.9180 0.9170 0.9140 0.9120 0.9120
1258.481250 0.9140 0.9150 0.9170 0.9180 0.9190
1265.751042 0.9210 0.9220 0.9210 0.9180 0.9170
1273.020833 0.9170 0.9190 0.9240 0.9280 0.9330
1280.290625 0.9340 0.9370 0.9370 0.9370 0.9350
1287.560417 0.9340 0.9340 0.9330 0.9330 0.9330
1294.830208 0.9330 0.9310 0.9310 0.9300 0.9270
1302.100000 0.9220 0.9210 0.9190 0.9190 0.9170
1309.369792 0.9170 0.9120 0.9060 0.9030 0.9030
1316.639583 0.9030 0.9030 0.9020 0.9020 0.9020
1323.909375 0.9010 0.8980 0.8960 0.8950 0.8950
1331.179167 0.8950 0.8930 0.8920 0.8870 0.8850
1338.448958 0.8830 0.8800 0.8800 0.8790 0.8790
1345.718750 0.8770 0.8770 0.8740 0.8730 0.8710
1352.988542 0.8700 0.8680 0.8660 0.8630 0.8630
1360.258333 0.8610 0.8580 0.8540 0.8510 0.8500
1367.528125 0.8420 0.8410 0.8281 0.8151 0.8021
1374.797917 0.7880 0.7720 0.7680 0.7520 0.7321
1382.067708 0.7230 0.7200 0.7190 0.7200 0.7269
1389.337500 0.7330 0.7400 0.7460 0.7620 0.7640
1396.607292 0.7680 0.7720 0.7770 0.7830 0.7860
1403.877083 0.7870 0.7880 0.7900 0.7910 0.7930
1411.146875 0.7990 0.7990 0.8000 0.8000 0.8000
1418.416667 0.8020 0.8020 0.8040 0.8100 0.8100
1425.686458 0.8100 0.8100 0.8090 0.8030 0.7990
1432.956250 0.7830 0.7720 0.7650 0.7640 0.7560
1440.226042 0.7480 0.7460 0.7331 0.7260 0.7230
1447.495833 0.7230 0.7240 0.7240 0.7260 0.7260
1454.765625 0.7270 0.7300 0.7300 0.7300 0.7211
1462.035417 0.7170 0.7130 0.7050 0.7010 0.6970
1469.305208 0.6711 0.6601 0.6530 0.6500 0.6411
1476.575000 0.6220 0.6020 0.5850 0.5760 0.5660
1483.844792 0.5511 0.5440 0.5420 0.5350 0.5340
1491.114583 0.5320 0.5310 0.5290 0.5310 0.5340
1498.384375 0.5400 0.5450 0.5530 0.5540 0.5758
1505.654167 0.5950 0.6140 0.6330 0.6470 0.6649
1512.923958 0.6680 0.6720 0.6730 0.6750 0.6760
1520.193750 0.6790 0.6810 0.6820 0.6820 0.6840
1527.463542 0.6840 0.6850 0.6850 0.6850 0.6840
1534.733333 0.6820 0.6790 0.6720 0.6710 0.6710
1542.003125 0.6720 0.6730 0.6730 0.6750 0.6760
1549.272917 0.6820 0.6880 0.6910 0.6920 0.6940
1556.542708 0.6980 0.7010 0.7000 0.6950 0.6950
1563.812500 0.6910 0.6880 0.6840 0.6820 0.6820
1571.082292 0.6790 0.6790 0.6790 0.6790 0.6780
1578.352083 0.6720 0.6680 0.6560 0.6520 0.6430
1585.621875 0.6360 0.6300 0.6211 0.6180 0.5991
1592.891667 0.5720 0.5580 0.5450 0.5211 0.4941
1600.161458 0.4621 0.4332 0.4221 0.4101 0.4090
1607.431250 0.4100 0.4160 0.4200 0.4360 0.4460
1614.701042 0.4570 0.4779 0.4989 0.5248 0.6074
1621.970833 0.6270 0.6430 0.6949 0.7638 0.8188
1629.240625 0.8827 0.8870 0.8920 0.8960 0.9010
1636.510417 0.9050 0.9090 0.9120 0.9140 0.9140
1643.780208 0.9140 0.9140 0.9140 0.9120 0.9120
1651.050000 0.9140 0.9150 0.9150 0.9180 0.9180
1658.319792 0.9180 0.9190 0.9210 0.9220 0.9220
1665.589583 0.9220 0.9240 0.9250 0.9330 0.9330
1672.859375 0.9340 0.9340 0.9340 0.9340 0.9340
1680.129167 0.9350 0.9380 0.9410 0.9440 0.9470
1687.398958 0.9470 0.9490 0.9490 0.9500 0.9500
1694.668750 0.9500 0.9530 0.9560 0.9570 0.9590
1701.938542 0.9600 0.9620 0.9630 0.9650 0.9660
1709.208333 0.9650 0.9600 0.9560 0.9540 0.9540
1716.478125 0.9570 0.9600 0.9620 0.9600 0.9590
1723.747917 0.9540 0.9540 0.9530 0.9440 0.9370
1731.017708 0.9340 0.9340 0.9330 0.9330 0.9340
1738.287500 0.9340 0.9340 0.9400 0.9350 0.9330
1745.557292 0.9310 0.9310 0.9310 0.9350 0.9380
1752.827083 0.9380 0.9400 0.9400 0.9400 0.9410
1760.096875 0.9430 0.9430 0.9430 0.9430 0.9410
1767.366667 0.9410 0.9440 0.9460 0.9490 0.9500
1774.636458 0.9500 0.9500 0.9510 0.9510 0.9540
1781.906250 0.9570 0.9650 0.9660 0.9690 0.9700
1789.176042 0.9700 0.9720 0.9750 0.9750 0.9780
1796.445833 0.9790 0.9790 0.9780 0.9760 0.9750
1803.715625 0.9750 0.9750 0.9750 0.9730 0.9730
1810.985417 0.9730 0.9730 0.9750 0.9750 0.9750
1818.255208 0.9730 0.9720 0.9730 0.9730 0.9730
1825.525000 0.9730 0.9730 0.9730 0.9700 0.9630
1832.794792 0.9600 0.9540 0.9530 0.9470 0.9460
1840.064583 0.9400 0.9350 0.9280 0.9270 0.9270
1847.334375 0.9280 0.9280 0.9300 0.9330 0.9330
1854.604167 0.9330 0.9340 0.9380 0.9410 0.9440
1861.873958 0.9530 0.9570 0.9620 0.9630 0.9699
1869.143750 0.9700 0.9720 0.9760 0.9760 0.9780
1876.413542 0.9780 0.9780 0.9790 0.9790 0.9780
1883.683333 0.9780 0.9780 0.9780 0.9760 0.9750
1890.953125 0.9730 0.9730 0.9730 0.9750 0.9730
1898.222917 0.9720 0.9690 0.9690 0.9670 0.9650
1905.492708 0.9630 0.9630 0.9630 0.9630 0.9620
1912.762500 0.9560 0.9510 0.9510 0.9440 0.9400
1920.032292 0.9340 0.9310 0.9240 0.9240 0.9220
1927.302083 0.9240 0.9270 0.9340 0.9340 0.9330
1934.571875 0.9330 0.9330 0.9310 0.9330 0.9370
1941.841667 0.9460 0.9530 0.9600 0.9600 0.9620
1949.111458 0.9630 0.9700 0.9720 0.9690 0.9690
1956.381250 0.9670 0.9630 0.9630 0.9700 0.9760
1963.651042 0.9780 0.9790 0.9810 0.9810 0.9810
1970.920833 0.9820 0.9820 0.9820 0.9820 0.9810
1978.190625 0.9810 0.9810 0.9810 0.9810 0.9810
1985.460417 0.9810 0.9810 0.9810 0.9810 0.9810
1992.730208 0.9810 0.9810 0.9810 0.9810 0.9810
2000.000000 0.9790 0.9790 0.9790 0.9790 0.9790
2007.269792 0.9790 0.9790 0.9790 0.9790 0.9785
2014.539583 0.9780 0.9780 0.9780 0.9766 0.9751
2021.809375 0.9750 0.9750 0.9741 0.9731 0.9730
2029.079167 0.9730 0.9730 0.9730 0.9730 0.9730
2036.348958 0.9739 0.9748 0.9750 0.9750 0.9754
2043.618750 0.9759 0.9760 0.9760 0.9760 0.9760
2050.888542 0.9760 0.9760 0.9768 0.9778 0.9780
2058.158333 0.9780 0.9792 0.9807 0.9810 0.9810
2065.428125 0.9803 0.9793 0.9790 0.9790 0.9776
2072.697917 0.9756 0.9750 0.9750 0.9743 0.9733
2079.967708 0.9727 0.9722 0.9720 0.9720 0.9720
2087.237500 0.9720 0.9713 0.9703 0.9700 0.9700
2094.507292 0.9700 0.9700 0.9706 0.9716 0.9720
2101.777083 0.9720 0.9720 0.9720 0.9720 0.9720
2109.046875 0.9720 0.9720 0.9714 0.9705 0.9700
2116.316667 0.9700 0.9700 0.9700 0.9700 0.9700
2123.586458 0.9700 0.9700 0.9700 0.9700 0.9700
2130.856250 0.9700 0.9700 0.9700 0.9700 0.9700
2138.126042 0.9700 0.9700 0.9698 0.9693 0.9690
2145.395833 0.9690 0.9690 0.9690 0.9690 0.9690
2152.665625 0.9690 0.9690 0.9686 0.9676 0.9670
2159.935417 0.9670 0.9674 0.9684 0.9690 0.9690
2167.205208 0.9690 0.9690 0.9690 0.9690 0.9692
2174.475000 0.9697 0.9703 0.9713 0.9722 0.9727
2181.744792 0.9733 0.9743 0.9750 0.9750 0.9746
2189.014583 0.9731 0.9720 0.9720 0.9717 0.9708
2196.284375 0.9700 0.9700 0.9700 0.9700 0.9700
2203.554167 0.9700 0.9699 0.9694 0.9688 0.9678
2210.823958 0.9670 0.9670 0.9669 0.9664 0.9660
2218.093750 0.9660 0.9660 0.9660 0.9661 0.9666
2225.363542 0.9670 0.9670 0.9671 0.9681 0.9690
2232.633333 0.9690 0.9690 0.9690 0.9690 0.9690
2239.903125 0.9690 0.9690 0.9688 0.9658 0.9630
2247.172917 0.9630 0.9630 0.9630 0.9630 0.9640
2254.442708 0.9650 0.9650 0.9650 0.9635 0.9620
2261.712500 0.9620 0.9620 0.9620 0.9620 0.9610
2268.982292 0.9600 0.9600 0.9600 0.9595 0.9590
2276.252083 0.9581 0.9571 0.9551 0.9532 0.9530
2283.521875 0.9530 0.9530 0.9530 0.9530 0.9530
2290.791667 0.9530 0.9530 0.9530 0.9530 0.9543
2298.061458 0.9558 0.9560 0.9560 0.9560 0.9560
2305.331250 0.9560 0.9560 0.9560 0.9560 0.9560
2312.601042 0.9560 0.9552 0.9542 0.9536 0.9531
2319.870833 0.9518 0.9503 0.9500 0.9500 0.9500
2327.140625 0.9500 0.9500 0.9500 0.9496 0.9491
2334.410417 0.9490 0.9490 0.9490 0.9490 0.9493
2341.680208 0.9498 0.9500 0.9500 0.9500 0.9500
2348.950000 0.9500 0.9500 0.9500 0.9500 0.9503
2356.219792 0.9508 0.9510 0.9510 0.9507 0.9502
2363.489583 0.9500 0.9500 0.9503 0.9508 0.9510
2370.759375 0.9510 0.9507 0.9502 0.9500 0.9500
2378.029167 0.9500 0.9500 0.9500 0.9500 0.9500
2385.298958 0.9500 0.9500 0.9500 0.9500 0.9500
2392.568750 0.9497 0.9493 0.9490 0.9490 0.9485
2399.838542 0.9475 0.9468 0.9463 0.9456 0.9446
2407.108333 0.9440 0.9440 0.9440 0.9440 0.9438
2414.378125 0.9433 0.9430 0.9430 0.9430 0.9430
2421.647917 0.9430 0.9430 0.9430 0.9430 0.9430
2428.917708 0.9430 0.9430 0.9430 0.9430 0.9430
2436.187500 0.9430 0.9430 0.9430 0.9430 0.9430
2443.457292 0.9430 0.9430 0.9430 0.9430 0.9430
2450.727083 0.9430 0.9430 0.9430 0.9430 0.9430
2457.996875 0.9430 0.9430 0.9430 0.9430 0.9430
2465.266667 0.9430 0.9430 0.9431 0.9436 0.9442
2472.536458 0.9452 0.9461 0.9466 0.9470 0.9470
2479.806250 0.9470 0.9470 0.9470 0.9470 0.9470
2487.076042 0.9470 0.9470 0.9470 0.9471 0.9481
2494.345833 0.9490 0.9490 0.9490 0.9490 0.9490
2501.615625 0.9490 0.9490 0.9495 0.9500 0.9500
2508.885417 0.9500 0.9500 0.9500 0.9500 0.9500
2516.155208 0.9495 0.9490 0.9490 0.9490 0.9475
2523.425000 0.9460 0.9445 0.9430 0.9420 0.9410
2530.694792 0.9405 0.9400 0.9400 0.9400 0.9400
2537.964583 0.9400 0.9414 0.9429 0.9444 0.9459
2545.234375 0.9460 0.9460 0.9465 0.9470 0.9470
2552.504167 0.9470 0.9470 0.9470 0.9470 0.9470
2559.773958 0.9479 0.9489 0.9490 0.9490 0.9494
2567.043750 0.9499 0.9500 0.9500 0.9500 0.9500
2574.313542 0.9496 0.9491 0.9490 0.9490 0.9490
2581.583333 0.9490 0.9482 0.9472 0.9470 0.9470
2588.853125 0.9466 0.9461 0.9452 0.9442 0.9440
2596.122917 0.9440 0.9436 0.9431 0.9430 0.9430
2603.392708 0.9430 0.9430 0.9430 0.9430 0.9423
2610.662500 0.9413 0.9410 0.9410 0.9410 0.9410
2617.932292 0.9410 0.9410 0.9410 0.9410 0.9410
2625.202083 0.9410 0.9410 0.9410 0.9410 0.9410
2632.471875 0.9416 0.9426 0.9430 0.9430 0.9430
2639.741667 0.9430 0.9430 0.9430 0.9430 0.9430
2647.011458 0.9430 0.9430 0.9430 0.9430 0.9430
2654.281250 0.9430 0.9430 0.9430 0.9430 0.9430
2661.551042 0.9430 0.9430 0.9430 0.9430 0.9430
2668.820833 0.9430 0.9430 0.9430 0.9430 0.9430
2676.090625 0.9426 0.9416 0.9410 0.9410 0.9408
2683.360417 0.9403 0.9400 0.9400 0.9400 0.9400
2690.630208 0.9400 0.9400 0.9400 0.9400 0.9397
2697.900000 0.9387 0.9378 0.9373 0.9365 0.9350
2705.169792 0.9338 0.9333 0.9327 0.9317 0.9310
2712.439583 0.9310 0.9306 0.9291 0.9272 0.9242
2719.709375 0.9207 0.9157 0.9113 0.9083 0.9052
2726.979167 0.9017 0.8982 0.8947 0.8905 0.8840
2734.248958 0.8780 0.8735 0.8697 0.8682 0.8671
2741.518750 0.8676 0.8687 0.8727 0.8768 0.8818
2748.788542 0.8872 0.8946 0.9016 0.9055 0.9095
2756.058333 0.9135 0.9172 0.9192 0.9211 0.9216
2763.328125 0.9221 0.9231 0.9240 0.9240 0.9240
2770.597917 0.9240 0.9240 0.9240 0.9239 0.9229
2777.867708 0.9220 0.9220 0.9220 0.9215 0.9210
2785.137500 0.9200 0.9190 0.9190 0.9190 0.9185
2792.407292 0.9180 0.9160 0.9140 0.9125 0.9110
2799.677083 0.9086 0.9061 0.9046 0.9031 0.9021
2806.946875 0.9011 0.9010 0.9010 0.9001 0.8991
2814.216667 0.8950 0.8905 0.8855 0.8805 0.8768
2821.486458 0.8734 0.8699 0.8664 0.8638 0.8613
2828.756250 0.8606 0.8601 0.8545 0.8480 0.8408
2836.026042 0.8333 0.8189 0.8030 0.7899 0.7775
2843.295833 0.7655 0.7536 0.7415 0.7295 0.7112
2850.565625 0.6913 0.6703 0.6489 0.6192 0.5869
2857.835417 0.5543 0.5215 0.5060 0.4966 0.4889
2865.105208 0.4820 0.4733 0.4638 0.4565 0.4500
2872.375000 0.4480 0.4480 0.4524 0.4589 0.4665
2879.644792 0.4744 0.4823 0.4903 0.4982 0.5062
2886.914583 0.5090 0.5090 0.5062 0.5017 0.4991
2894.184375 0.4976 0.4883 0.4739 0.4578 0.4404
2901.454167 0.4299 0.4244 0.4186 0.4126 0.4017
2908.723958 0.3873 0.3671 0.3422 0.3247 0.3133
2915.993750 0.3014 0.2890 0.2732 0.2543 0.2410
2923.263542 0.2330 0.2256 0.2186 0.2145 0.2135
2930.533333 0.2135 0.2145 0.2216 0.2362 0.2567
2937.803125 0.2840 0.3046 0.3170 0.3474 0.4011
2945.072917 0.4354 0.4433 0.4527 0.4641 0.4749
2952.342708 0.4849 0.4961 0.5095 0.5278 0.5547
2959.612500 0.5780 0.5948 0.6058 0.6053 0.6045
2966.882292 0.6030 0.6008 0.5973 0.5931 0.5871
2974.152083 0.5814 0.5765 0.5717 0.5672 0.5629
2981.421875 0.5589 0.5534 0.5440 0.5338 0.5214
2988.691667 0.5078 0.4904 0.4728 0.4547 0.4352
2995.961458 0.4113 0.3873 0.3624 0.3416 0.3351
3003.231250 0.3285 0.3210 0.3137 0.3067 0.2999
3010.501042 0.2934 0.2870 0.2811 0.2751 0.2686
3017.770833 0.2598 0.2360 0.2148 0.2133 0.2120
3025.040625 0.2120 0.2122 0.2137 0.2160 0.2254
3032.310417 0.2349 0.2448 0.2555 0.2754 0.2946
3039.580208 0.3035 0.3125 0.3229 0.3333 0.3428
3046.850000 0.3522 0.3621 0.3722 0.4010 0.4290
3054.119792 0.4295 0.4300 0.4345 0.4390 0.4449
3061.389583 0.4509 0.4607 0.4707 0.4753 0.4798
3068.659375 0.4966 0.5139 0.5477 0.5824 0.6048
3075.929167 0.6261 0.6407 0.6546 0.6646 0.6742
3083.198958 0.6995 0.7263 0.7290 0.7290 0.7431
3090.468750 0.7590 0.7649 0.7694 0.7734 0.7774
3097.738542 0.7801 0.7826 0.7846 0.7866 0.7894
3105.008333 0.7924 0.7970 0.8019 0.8034 0.8039
3112.278125 0.8084 0.8138 0.8166 0.8186 0.8236
3119.547917 0.8296 0.8352 0.8406 0.8490 0.8585
3126.817708 0.8679 0.8773 0.8800 0.8800 0.8821
3134.087500 0.8851 0.8874 0.8894 0.8938 0.8993
3141.357292 0.9024 0.9044 0.9063 0.9083 0.9090
3148.627083 0.9090 0.9096 0.9106 0.9110 0.9110
3155.896875 0.9110 0.9110 0.9119 0.9134 0.9140
3163.166667 0.9140 0.9131 0.9116 0.9110 0.9110
3170.436458 0.9110 0.9110 0.9110 0.9110 0.9110
3177.706250 0.9110 0.9113 0.9118 0.9120 0.9120
3184.976042 0.9120 0.9120 0.9118 0.9113 0.9110
3192.245833 0.9110 0.9105 0.9095 0.9090 0.9090
3199.515625 0.9090 0.9090 0.9095 0.9104 0.9112
3206.785417 0.9117 0.9120 0.9120 0.9120 0.9120
3214.055208 0.9120 0.9120 0.9120 0.9120 0.9120
3221.325000 0.9120 0.9129 0.9154 0.9172 0.9177
3228.594792 0.9180 0.9180 0.9180 0.9180 0.9180
3235.864583 0.9180 0.9180 0.9180 0.9178 0.9174
3243.134375 0.9167 0.9157 0.9149 0.9144 0.9137
3250.404167 0.9127 0.9120 0.9120 0.9120 0.9120
3257.673958 0.9120 0.9120 0.9122 0.9132 0.9140
3264.943750 0.9140 0.9140 0.9140 0.9138 0.9128
3272.213542 0.9120 0.9120 0.9120 0.9120 0.9120
3279.483333 0.9120 0.9123 0.9148 0.9171 0.9176
3286.753125 0.9180 0.9180 0.9180 0.9180 0.9180
3294.022917 0.9180 0.9180 0.9175 0.9169 0.9159
3301.292708 0.9150 0.9150 0.9151 0.9160 0.9170
3308.562500 0.9175 0.9180 0.9180 0.9180 0.9180
3315.832292 0.9180 0.9175 0.9170 0.9170 0.9170
3323.102083 0.9170 0.9170 0.9170 0.9170 0.9175
3330.371875 0.9180 0.9180 0.9180 0.9185 0.9190
3337.641667 0.9190 0.9190 0.9190 0.9190 0.9185
3344.911458 0.9180 0.9180 0.9180 0.9176 0.9171
3352.181250 0.9170 0.9170 0.9170 0.9170 0.9170
3359.451042 0.9170 0.9162 0.9152 0.9150 0.9150
3366.720833 0.9150 0.9150 0.9146 0.9141 0.9140
3373.990625 0.9140 0.9140 0.9140 0.9140 0.9140
3381.260417 0.9140 0.9140 0.9140 0.9140 0.9140
3388.530208 0.9140 0.9140 0.9140 0.9140 0.9140
3395.800000 0.9133 0.9123 0.9120 0.9120 0.9120
3403.069792 0.9120 0.9120 0.9120 0.9117 0.9112
3410.339583 0.9110 0.9110 0.9110 0.9110 0.9110
3417.609375 0.9110 0.9113 0.9118 0.9120 0.9120
3424.879167 0.9117 0.9112 0.9110 0.9110 0.9110
3432.148958 0.9110 0.9110 0.9110 0.9110 0.9110
3439.418750 0.9110 0.9110 0.9110 0.9110 0.9110
3446.688542 0.9110 0.9113 0.9118 0.9120 0.9120
3453.958333 0.9120 0.9120 0.9118 0.9113 0.9110
3461.228125 0.9110 0.9110 0.9110 0.9119 0.9139
3468.497917 0.9150 0.9150 0.9144 0.9129 0.9120
3475.767708 0.9120 0.9114 0.9099 0.9090 0.9090
3483.037500 0.9096 0.9111 0.9124 0.9134 0.9140
3490.307292 0.9140 0.9145 0.9160 0.9170 0.9170
3497.577083 0.9167 0.9157 0.9148 0.9143 0.9135
3504.846875 0.9120 0.9110 0.9110 0.9116 0.9135
3512.116667 0.9153 0.9163 0.9170 0.9170 0.9168
3519.386458 0.9158 0.9146 0.9131 0.9119 0.9114
3526.656250 0.9110 0.9110 0.9110 0.9110 0.9108
3533.926042 0.9098 0.9089 0.9084 0.9078 0.9068
3541.195833 0.9059 0.9054 0.9050 0.9050 0.9050
3548.465625 0.9050 0.9051 0.9056 0.9060 0.9060
3555.735417 0.9061 0.9071 0.9081 0.9085 0.9090
3563.005208 0.9090 0.9090 0.9090 0.9090 0.9090
3570.275000 0.9090 0.9090 0.9090 0.9100 0.9110
3577.544792 0.9110 0.9110 0.9100 0.9090 0.9090
3584.814583 0.9090 0.9085 0.9080 0.9080 0.9080
3592.084375 0.9070 0.9060 0.9060 0.9060 0.9060
3599.354167 0.9060 0.9060 0.9060 0.9069 0.9079
3606.623958 0.9085 0.9090 0.9090 0.9090 0.9090
3613.893750 0.9090 0.9090 0.9090 0.9090 0.9090
3621.163542 0.9077 0.9062 0.9068 0.9078 0.9080
3628.433333 0.9080 0.9084 0.9089 0.9090 0.9090
3635.703125 0.9098 0.9108 0.9110 0.9110 0.9098
3642.972917 0.9083 0.9068 0.9053 0.9054 0.9059
3650.242708 0.9068 0.9077 0.9084 0.9089 0.9090
3657.512500 0.9090 0.9097 0.9107 0.9100 0.9085
3664.782292 0.9073 0.9063 0.9060 0.9060 0.9067
3672.052083 0.9077 0.9083 0.9088 0.9097 0.9106
3679.321875 0.9094 0.9069 0.9057 0.9052 0.9041
3686.591667 0.9026 0.9020 0.9020 0.9020 0.9020
3693.861458 0.9023 0.9028 0.9030 0.9030 0.9030
3701.131250 0.9030 0.9036 0.9046 0.9050 0.9050
3708.401042 0.9050 0.9050 0.9045 0.9035 0.9027
3715.670833 0.9023 0.9020 0.9020 0.9018 0.9013
3722.940625 0.9005 0.8995 0.8990 0.8990 0.8988
3730.210417 0.8983 0.8980 0.8980 0.8989 0.9009
3737.480208 0.9020 0.9020 0.9014 0.8999 0.8988
3744.750000 0.8983 0.8980 0.8980 0.8982 0.8987
3752.019792 0.8990 0.8990 0.8990 0.8990 0.8994
3759.289583 0.9003 0.9010 0.9010 0.9007 0.8997
3766.559375 0.8990 0.8990 0.8990 0.8990 0.8990
3773.829167 0.8990 0.8990 0.8990 0.8993 0.9003
3781.098958 0.9011 0.9016 0.9020 0.9020 0.9021
3788.368750 0.9026 0.9030 0.9030 0.9029 0.9024
3795.638542 0.9020 0.9020 0.9020 0.9020 0.9019
3802.908333 0.9014 0.9008 0.8998 0.8990 0.8990
3810.178125 0.8990 0.8990 0.8990 0.8990 0.8990
3817.447917 0.8990 0.8990 0.8990 0.8990 0.8990
3824.717708 0.8990 0.8990 0.8990 0.8985 0.8979
3831.987500 0.8969 0.8960 0.8960 0.8960 0.8970
3839.257292 0.8980 0.8980 0.8981 0.8996 0.9010
3846.527083 0.8995 0.8980 0.8980 0.8980 0.8970
3853.796875 0.8960 0.8960 0.8960 0.8960 0.8960
3861.066667 0.8960 0.8960 0.8960 0.8960 0.8955
3868.336458 0.8950 0.8950 0.8950 0.8968 0.8988
3875.606250 0.8990 0.8990 0.8950 0.8905 0.8900
3882.876042 0.8900 0.8909 0.8919 0.8920 0.8920
3890.145833 0.8933 0.8948 0.8950 0.8950 0.8938
3897.415625 0.8923 0.8912 0.8902 0.8896 0.8891
3904.685417 0.8890 0.8890 0.8890 0.8890 0.8890
3911.955208 0.8890 0.8890 0.8890 0.8890 0.8890
3919.225000 0.8883 0.8873 0.8866 0.8861 0.8860
3926.494792 0.8860 0.8864 0.8869 0.8870 0.8870
3933.764583 0.8880 0.8895 0.8900 0.8900 0.8890
3941.034375 0.8875 0.8864 0.8854 0.8850 0.8850
3948.304167 0.8856 0.8866 0.8870 0.8870 0.8876
3955.573958 0.8886 0.8893 0.8898 0.8897 0.8892
3962.843750 0.8890 0.8890 0.8884 0.8874 0.8870
3970.113542 0.8870 0.8870 0.8870 0.8875 0.8885
3977.383333 0.8893 0.8898 0.8898 0.8893 0.8890
3984.653125 0.8890 0.8890 0.8890 0.8890 0.8890
3991.922917 0.8885 0.8875 0.8877 0.8892 0.8898
3999.192708 0.8893 0.8890 0.8890 0.8890 0.8890
4006.462500 0.8890 0.8890 0.8886 0.8876
##END=
