##TITLE=MALONONITRILE
$$ E.K. (W.L.) NO. 3076
##JCAMP-DX=4.24
##DATA TYPE=INFRARED SPECTRUM
##CLASS=COBLENTZ
##ORIGIN=WYANDOTTE CHEMICALS CORP., WYANDOTTE, MICHIGAN, USA
##OWNER=COBLENTZ SOCIETY
Collection (C) 2018 copyright by the U.S. Secretary of Commerce
on behalf of the United States of America. All rights reserved.
##DATE=Not specified, most likely prior to 1970
##CAS REGISTRY NO=109-77-3
##MOLFORM=C3 H2 N2
##MP=30-32 C
##SOURCE REFERENCE=COBLENTZ NO. 167
##$NIST SOURCE=COBLENTZ
##$NIST IMAGE=cob167
##SPECTROMETER/DATA SYSTEM=Not specified, most likely a prism, grating, or hybrid spectrometer.
##STATE=SOLID (MULL, KEL-F OIL FOR 2-7.5 AND MINERAL OIL FOR 7.5-16 MICRONS)
##SAMPLING PROCEDURE=TRANSMISSION
##RESOLUTION=4
##DATA PROCESSING=DIGITIZED BY NIST FROM HARD COPY
##XUNITS=MICROMETERS
##YUNITS=TRANSMITTANCE
##XFACTOR=1.000000
##YFACTOR=1
##DELTAX=000.006459
##FIRSTX=2.051
##LASTX=16.0268
##FIRSTY=0.972
##MAXX=16.0268
##MINX=2.051
##MAXY=0.978
##MINY=0.113
##NPOINTS=2165
##XYDATA=(X++(Y..Y))
2.051000 0.9720 0.9770 0.9770 0.9770 0.9780
2.083308 0.9780 0.9780 0.9770 0.9770 0.9750
2.115000 0.9740 0.9700 0.9670 0.9670 0.9700
2.147308 0.9720 0.9740 0.9740 0.9740 0.9740
2.180000 0.9720 0.9690 0.9510 0.9410 0.9350
2.212308 0.9200 0.8910 0.8910 0.9090 0.9200
2.244000 0.9220 0.9170 0.9070 0.9070 0.9130
2.276308 0.9170 0.9150 0.8960 0.8570 0.8570
2.309000 0.8790 0.9020 0.9200 0.9390 0.9430
2.341308 0.9480 0.9490 0.9570 0.9590 0.9570
2.374000 0.9570 0.9570 0.9560 0.9560 0.9540
2.406308 0.9540 0.9520 0.9510 0.9510 0.9490
2.438000 0.9490 0.9460 0.9440 0.9410 0.9390
2.470308 0.9360 0.9350 0.9220 0.9120 0.9090
2.503000 0.9050 0.9020 0.8990 0.8970 0.8970
2.535308 0.9020 0.9090 0.9220 0.9260 0.9310
2.567000 0.9520 0.9520 0.9430 0.9350 0.9250
2.599308 0.9130 0.9130 0.9260 0.9390 0.9620
2.632000 0.9650 0.9690 0.9690 0.9570 0.9220
2.664308 0.9130 0.8940 0.8830 0.8650 0.8440
2.696000 0.8340 0.8240 0.8160 0.8100 0.8060
2.728308 0.8060 0.8140 0.8230 0.8340 0.8360
2.761000 0.8360 0.8360 0.8340 0.8320 0.8310
2.793308 0.8290 0.8290 0.8320 0.8370 0.8450
2.826000 0.8490 0.8530 0.8600 0.8620 0.8620
2.858308 0.8620 0.8620 0.8620 0.8650 0.8660
2.890000 0.8700 0.8730 0.8780 0.8810 0.8830
2.922308 0.8810 0.8830 0.8840 0.8870 0.8890
2.955000 0.8890 0.8870 0.8870 0.8890 0.8910
2.987308 0.8910 0.8890 0.8890 0.8860 0.8830
3.019000 0.8790 0.8780 0.8700 0.8650 0.8650
3.051308 0.8680 0.8780 0.8760 0.8630 0.8520
3.084000 0.8500 0.8530 0.8710 0.8840 0.8910
3.116308 0.8890 0.8870 0.8710 0.8600 0.8570
3.149000 0.8550 0.8400 0.8210 0.8010 0.8010
3.181308 0.8240 0.8580 0.8620 0.8620 0.8530
3.213000 0.8440 0.8370 0.8310 0.8180 0.8050
3.245308 0.7880 0.7720 0.7560 0.7380 0.7170
3.278000 0.7070 0.6910 0.6810 0.6760 0.6700
3.310308 0.6460 0.5770 0.5430 0.5090 0.4670
3.342000 0.3790 0.2900 0.2900 0.3060 0.3210
3.374308 0.3210 0.3100 0.2970 0.2970 0.3260
3.407000 0.3570 0.4200 0.4510 0.4800 0.5640
3.439308 0.5840 0.5990 0.6100 0.6290 0.6420
3.471000 0.6540 0.6620 0.6720 0.7010 0.7190
3.503308 0.7250 0.7350 0.7450 0.7580 0.7710
3.536000 0.7870 0.8030 0.8190 0.8290 0.8360
3.568308 0.8490 0.8550 0.8620 0.8660 0.8710
3.601000 0.8750 0.8760 0.8780 0.8810 0.8870
3.633308 0.8970 0.9020 0.9070 0.9090 0.9120
3.665000 0.9220 0.9220 0.9130 0.9130 0.9150
3.697308 0.9150 0.9170 0.9180 0.9200 0.9220
3.730000 0.9230 0.9220 0.9200 0.9170 0.9130
3.762308 0.9100 0.9040 0.8870 0.8630 0.8500
3.794000 0.8360 0.8290 0.8290 0.8340 0.8500
3.826308 0.8520 0.8500 0.8420 0.8440 0.8550
3.859000 0.8630 0.8730 0.8810 0.8920 0.9040
3.891308 0.9100 0.9170 0.9200 0.9230 0.9230
3.924000 0.9200 0.9200 0.9200 0.9200 0.9180
3.956308 0.9150 0.9090 0.9070 0.9050 0.9020
3.988000 0.9000 0.9000 0.9050 0.9090 0.9120
4.020308 0.9130 0.9130 0.9170 0.9170 0.9170
4.053000 0.9180 0.9220 0.9220 0.9230 0.9250
4.085308 0.9220 0.9200 0.9150 0.9150 0.9150
4.117000 0.9130 0.9120 0.9090 0.9050 0.9020
4.149308 0.9000 0.9000 0.9000 0.9050 0.9050
4.182000 0.9070 0.9070 0.9040 0.9000 0.8960
4.214308 0.8940 0.8910 0.8830 0.8710 0.8620
4.247000 0.8530 0.8470 0.8400 0.8390 0.8370
4.279308 0.8530 0.8600 0.8700 0.8710 0.8700
4.311000 0.8680 0.8680 0.8710 0.8710 0.8710
4.343308 0.8700 0.8700 0.8660 0.8530 0.8470
4.376000 0.8390 0.8010 0.7460 0.7170 0.6860
4.408308 0.6620 0.6360 0.6160 0.5970 0.5770
4.440000 0.5760 0.5290 0.4800 0.4260 0.4260
4.472308 0.4610 0.4950 0.5610 0.5950 0.6290
4.505000 0.7820 0.8000 0.8130 0.8240 0.8340
4.537308 0.8520 0.8630 0.8650 0.8680 0.8680
4.569000 0.8700 0.8680 0.8730 0.8780 0.8870
4.601308 0.8910 0.8910 0.8920 0.8920 0.8890
4.634000 0.8890 0.8960 0.8990 0.9000 0.9040
4.666308 0.9090 0.9120 0.9150 0.9170 0.9200
4.699000 0.9230 0.9250 0.9230 0.9220 0.9220
4.731308 0.9220 0.9260 0.9250 0.9230 0.9220
4.763000 0.9200 0.9230 0.9260 0.9300 0.9280
4.795308 0.9300 0.9300 0.9300 0.9310 0.9330
4.828000 0.9350 0.9350 0.9360 0.9350 0.9330
4.860308 0.9330 0.9330 0.9330 0.9330 0.9350
4.892000 0.9350 0.9350 0.9330 0.9350 0.9350
4.924308 0.9350 0.9350 0.9360 0.9380 0.9380
4.957000 0.9380 0.9380 0.9390 0.9390 0.9390
4.989308 0.9390 0.9410 0.9430 0.9430 0.9430
5.022000 0.9410 0.9410 0.9390 0.9350 0.9310
5.054308 0.9310 0.9280 0.9310 0.9310 0.9350
5.086000 0.9380 0.9380 0.9380 0.9360 0.9360
5.118308 0.9350 0.9350 0.9380 0.9380 0.9380
5.151000 0.9360 0.9350 0.9350 0.9330 0.9310
5.183308 0.9310 0.9310 0.9380 0.9430 0.9410
5.215000 0.9380 0.9360 0.9330 0.9280 0.9280
5.247308 0.9300 0.9350 0.9330 0.9310 0.9280
5.280000 0.9310 0.9310 0.9310 0.9300 0.9250
5.312308 0.9250 0.9300 0.9350 0.9360 0.9350
5.344000 0.9300 0.9250 0.9170 0.9100 0.9100
5.376308 0.9120 0.9180 0.9260 0.9310 0.9310
5.409000 0.9300 0.9300 0.9280 0.9250 0.9200
5.441308 0.9170 0.9170 0.9200 0.9350 0.9360
5.474000 0.9250 0.9130 0.9100 0.9120 0.9220
5.506308 0.9250 0.9250 0.9220 0.9070 0.9000
5.538000 0.8970 0.9050 0.9050 0.9020 0.8890
5.570308 0.8700 0.8680 0.8700 0.8760 0.8830
5.603000 0.8970 0.9040 0.9000 0.8910 0.8860
5.635308 0.8730 0.8660 0.8630 0.8680 0.8920
5.667000 0.8960 0.8960 0.8780 0.8550 0.8470
5.699308 0.8400 0.8340 0.8230 0.8160 0.8160
5.732000 0.8230 0.8290 0.8290 0.8270 0.8270
5.764308 0.8240 0.8240 0.8290 0.8260 0.8230
5.797000 0.8210 0.8190 0.8210 0.8810 0.8840
5.829308 0.8830 0.8760 0.8600 0.8550 0.8530
5.861000 0.8520 0.8530 0.8650 0.8810 0.8830
5.893308 0.8810 0.8750 0.8660 0.8620 0.8580
5.926000 0.8580 0.8580 0.8580 0.8530 0.8440
5.958308 0.8400 0.8400 0.8440 0.8660 0.8660
5.990000 0.8650 0.8500 0.8450 0.8420 0.8390
6.022308 0.8260 0.8180 0.8160 0.8180 0.8290
6.055000 0.8320 0.8310 0.8190 0.8080 0.8000
6.087308 0.7980 0.8000 0.7970 0.7870 0.7750
6.119000 0.7740 0.7750 0.7770 0.7790 0.7820
6.151308 0.7880 0.7970 0.8060 0.8140 0.8190
6.184000 0.8240 0.8340 0.8390 0.8500 0.8520
6.216308 0.8550 0.8620 0.8650 0.8680 0.8700
6.249000 0.8710 0.8660 0.8620 0.8620 0.8620
6.281308 0.8620 0.8600 0.8620 0.8700 0.8750
6.313000 0.8750 0.8730 0.8660 0.8550 0.8440
6.345308 0.8360 0.8260 0.8140 0.8000 0.7980
6.378000 0.8000 0.8030 0.8080 0.8100 0.8130
6.410308 0.8160 0.8180 0.8140 0.8100 0.7970
6.442000 0.7930 0.7930 0.7970 0.8060 0.8140
6.474308 0.8240 0.8340 0.8500 0.8500 0.8500
6.507000 0.8500 0.8490 0.8470 0.8420 0.8400
6.539308 0.8390 0.8390 0.8530 0.8570 0.8570
6.572000 0.8570 0.8400 0.8370 0.8320 0.8320
6.604308 0.8520 0.8550 0.8530 0.8470 0.8400
6.636000 0.8400 0.8390 0.8370 0.8360 0.8270
6.668308 0.8130 0.8110 0.8110 0.8160 0.8260
6.701000 0.8260 0.8230 0.8100 0.8050 0.7970
6.733308 0.7900 0.7840 0.7790 0.7750 0.7740
6.765000 0.7750 0.7750 0.7740 0.7720 0.7710
6.797308 0.7670 0.7660 0.7640 0.7580 0.7540
6.830000 0.7560 0.7660 0.7720 0.7750 0.7770
6.862308 0.7750 0.7710 0.7690 0.7660 0.7690
6.895000 0.7690 0.7670 0.7640 0.7580 0.7480
6.927308 0.7430 0.7410 0.7410 0.7410 0.7380
6.959000 0.7370 0.7330 0.7280 0.7240 0.7190
6.991308 0.7110 0.7020 0.6960 0.6830 0.6810
7.024000 0.6800 0.6760 0.6680 0.6470 0.6250
7.056308 0.6070 0.5920 0.5810 0.5640 0.5420
7.088000 0.5240 0.5060 0.4720 0.4410 0.4100
7.120308 0.3940 0.3660 0.3580 0.3490 0.3450
7.153000 0.3180 0.3060 0.2930 0.2790 0.2750
7.185308 0.2580 0.2580 0.2770 0.2970 0.3160
7.217000 0.3360 0.3550 0.3750 0.3920 0.4050
7.249308 0.4220 0.4410 0.4610 0.4820 0.5010
7.282000 0.5380 0.5530 0.5600 0.5730 0.5810
7.314308 0.5860 0.5920 0.5970 0.6050 0.6150
7.347000 0.6180 0.6200 0.6200 0.6200 0.6230
7.379308 0.6280 0.6330 0.6370 0.6410 0.6420
7.411000 0.6460 0.6470 0.6470 0.6470 0.6490
7.443308 0.6490 0.6500 0.6520 0.6540 0.6540
7.476000 0.6550 0.6550 0.6550 0.6540 0.6490
7.508308 0.6410 0.5870 0.5290 0.4980 0.4650
7.540000 0.4300 0.4050 0.3780 0.3490 0.3500
7.572308 0.4050 0.4260 0.4570 0.5030 0.5500
7.605000 0.5550 0.5580 0.5580 0.5610 0.5760
7.637308 0.5900 0.6030 0.6150 0.6280 0.6410
7.670000 0.6550 0.6670 0.6720 0.6720 0.6730
7.702308 0.6750 0.6760 0.6780 0.6780 0.6760
7.734000 0.6760 0.6750 0.6750 0.6780 0.6960
7.766308 0.7010 0.7020 0.7090 0.7110 0.7090
7.799000 0.7090 0.7010 0.6910 0.6830 0.6780
7.831308 0.6730 0.6630 0.6590 0.6630 0.6680
7.863000 0.6700 0.6750 0.6880 0.6880 0.6850
7.895308 0.6810 0.6780 0.6630 0.6540 0.6360
7.928000 0.6200 0.6200 0.6260 0.6520 0.6760
7.960308 0.7040 0.7110 0.7190 0.7270 0.7400
7.992000 0.7410 0.7410 0.7380 0.7370 0.7330
8.024308 0.7300 0.7220 0.7200 0.7220 0.7300
8.057000 0.7330 0.7370 0.7410 0.7450 0.7480
8.089308 0.7510 0.7560 0.7610 0.7620 0.7640
8.122000 0.7640 0.7670 0.7670 0.7670 0.7670
8.154308 0.7660 0.7540 0.7450 0.7330 0.6960
8.186000 0.6750 0.6520 0.6280 0.6030 0.5630
8.218308 0.5240 0.5240 0.5660 0.6080 0.6520
8.251000 0.7460 0.7640 0.7970 0.8210 0.8290
8.283308 0.8340 0.8370 0.8500 0.8530 0.8550
8.315000 0.8580 0.8620 0.8650 0.8650 0.8660
8.347308 0.8650 0.8680 0.8700 0.8710 0.8710
8.380000 0.8730 0.8730 0.8750 0.8760 0.8760
8.412308 0.8760 0.8790 0.8810 0.8860 0.8860
8.445000 0.8790 0.8790 0.8830 0.8890 0.8890
8.477308 0.8830 0.8760 0.8760 0.8810 0.8810
8.509000 0.8830 0.8830 0.8830 0.8790 0.8780
8.541308 0.8750 0.8730 0.8730 0.8710 0.8680
8.574000 0.8650 0.8650 0.8620 0.8550 0.8490
8.606308 0.8420 0.8400 0.8400 0.8420 0.8420
8.638000 0.8440 0.8450 0.8500 0.8520 0.8530
8.670308 0.8530 0.8530 0.8580 0.8600 0.8620
8.703000 0.8630 0.8630 0.8650 0.8680 0.8700
8.735308 0.8710 0.8730 0.8760 0.8760 0.8780
8.767000 0.8810 0.8830 0.8840 0.8860 0.8870
8.799308 0.8870 0.8870 0.8860 0.8860 0.8870
8.832000 0.8890 0.8960 0.8970 0.9000 0.9000
8.864308 0.8890 0.8890 0.8910 0.8920 0.8960
8.897000 0.8970 0.8990 0.8990 0.8990 0.9000
8.929308 0.9000 0.9020 0.9050 0.9050 0.9020
8.961000 0.8990 0.8970 0.8990 0.9050 0.9050
8.993308 0.9050 0.9020 0.9020 0.9020 0.9020
9.026000 0.9020 0.9070 0.9120 0.9150 0.9170
9.058308 0.9150 0.9130 0.9100 0.9070 0.9040
9.090000 0.9040 0.9050 0.9050 0.9070 0.9090
9.122308 0.9090 0.9090 0.9100 0.9120 0.9150
9.155000 0.9130 0.9120 0.9120 0.9100 0.9100
9.187308 0.9040 0.9040 0.9090 0.9090 0.9090
9.220000 0.9070 0.9070 0.9070 0.9070 0.9070
9.252308 0.9040 0.9000 0.8960 0.8960 0.8960
9.284000 0.8940 0.8940 0.8920 0.8920 0.8910
9.316308 0.8920 0.8920 0.8940 0.8920 0.8890
9.349000 0.8860 0.8810 0.8830 0.8890 0.8910
9.381308 0.8910 0.8910 0.8870 0.8870 0.8860
9.413000 0.8840 0.8840 0.8810 0.8810 0.8810
9.445308 0.8810 0.8830 0.8830 0.8830 0.8830
9.478000 0.8790 0.8780 0.8760 0.8750 0.8730
9.510308 0.8730 0.8790 0.8840 0.8860 0.8860
9.543000 0.8860 0.8860 0.8860 0.8860 0.8870
9.575308 0.8890 0.8940 0.9000 0.9020 0.9020
9.607000 0.8990 0.8970 0.8990 0.8990 0.8990
9.639308 0.8990 0.8970 0.8960 0.8960 0.8940
9.672000 0.8940 0.8940 0.8920 0.8920 0.8910
9.704308 0.8890 0.8870 0.8870 0.8870 0.8870
9.736000 0.8870 0.8840 0.8790 0.8760 0.8760
9.768308 0.8760 0.8760 0.8760 0.8750 0.8750
9.801000 0.8790 0.8810 0.8830 0.8830 0.8810
9.833308 0.8810 0.8790 0.8790 0.8790 0.8780
9.865000 0.8780 0.8830 0.8810 0.8750 0.8650
9.897308 0.8530 0.8490 0.8400 0.8360 0.8310
9.930000 0.8060 0.7930 0.7770 0.7580 0.7370
9.962308 0.7120 0.6830 0.6680 0.6520 0.6180
9.995000 0.5790 0.5450 0.5290 0.5120 0.4830
10.027308 0.4570 0.4360 0.4200 0.4020 0.3890
10.059000 0.3860 0.3810 0.3750 0.3700 0.3680
10.091308 0.3660 0.3620 0.3570 0.3420 0.3400
10.124000 0.3340 0.3320 0.3310 0.3230 0.3160
10.156308 0.3080 0.3060 0.2980 0.2970 0.2880
10.188000 0.2880 0.3130 0.3360 0.3580 0.4050
10.220308 0.4250 0.4560 0.4820 0.5040 0.5190
10.253000 0.5470 0.5550 0.5630 0.5730 0.5810
10.285308 0.5890 0.5950 0.5990 0.6080 0.6160
10.318000 0.6260 0.6340 0.6420 0.6500 0.6570
10.350308 0.6650 0.6720 0.6760 0.6780 0.6860
10.382000 0.6890 0.6910 0.6960 0.6980 0.6980
10.414308 0.7010 0.7020 0.7020 0.7040 0.7060
10.447000 0.7090 0.7120 0.7120 0.7110 0.7070
10.479308 0.7040 0.7040 0.7020 0.6940 0.6860
10.511000 0.6810 0.6760 0.6720 0.6600 0.6520
10.543308 0.6460 0.6370 0.6230 0.6080 0.5970
10.576000 0.5820 0.5690 0.5530 0.5220 0.5160
10.608308 0.5080 0.4960 0.4870 0.4770 0.4650
10.640000 0.4520 0.4390 0.4220 0.4020 0.3810
10.672308 0.3680 0.3550 0.3240 0.3010 0.2920
10.705000 0.2790 0.2710 0.2670 0.2690 0.2770
10.737308 0.2850 0.2970 0.3000 0.3000 0.2950
10.770000 0.2930 0.2870 0.2770 0.2750 0.2660
10.802308 0.2610 0.2560 0.2540 0.2560 0.2690
10.834000 0.2840 0.3000 0.3190 0.3270 0.3470
10.866308 0.3750 0.3910 0.4020 0.4180 0.4330
10.899000 0.4460 0.4610 0.4720 0.4830 0.4950
10.931308 0.5040 0.5120 0.5250 0.5270 0.5250
10.963000 0.5240 0.5210 0.5060 0.4910 0.4740
10.995308 0.4590 0.4430 0.4260 0.4070 0.4050
11.028000 0.3920 0.3780 0.3750 0.3780 0.3990
11.060308 0.4040 0.4150 0.4230 0.4300 0.4350
11.093000 0.4460 0.4520 0.4520 0.4490 0.4460
11.125308 0.4390 0.4280 0.4150 0.4000 0.3780
11.157000 0.3620 0.3440 0.3270 0.3060 0.2920
11.189308 0.2740 0.2530 0.2320 0.2110 0.2010
11.222000 0.1910 0.1750 0.1620 0.1540 0.1340
11.254308 0.1330 0.1130 0.1130 0.1620 0.1650
11.286000 0.2510 0.2950 0.3270 0.3910 0.4200
11.318308 0.4510 0.4780 0.5060 0.5580 0.5820
11.351000 0.6050 0.6260 0.6390 0.6500 0.6590
11.383308 0.6680 0.6750 0.6880 0.6930 0.6960
11.416000 0.6980 0.6990 0.6990 0.7010 0.7010
11.448308 0.6990 0.6990 0.6980 0.6980 0.6960
11.480000 0.6960 0.6980 0.7010 0.7070 0.7220
11.512308 0.7370 0.7450 0.7560 0.7610 0.7640
11.545000 0.7670 0.7710 0.7770 0.7850 0.7900
11.577308 0.7930 0.7980 0.8000 0.8010 0.8010
11.609000 0.8010 0.8030 0.8030 0.8030 0.8050
11.641308 0.8050 0.8060 0.8060 0.8050 0.8050
11.674000 0.8030 0.8030 0.8060 0.8080 0.8110
11.706308 0.8140 0.8160 0.8180 0.8160 0.8110
11.738000 0.8100 0.8080 0.8080 0.8100 0.8100
11.770308 0.8100 0.8110 0.8100 0.8060 0.8060
11.803000 0.8050 0.8050 0.8030 0.8030 0.8010
11.835308 0.7980 0.7980 0.7970 0.7950 0.7950
11.868000 0.7970 0.7970 0.8000 0.8010 0.8030
11.900308 0.8060 0.8110 0.8190 0.8230 0.8260
11.932000 0.8270 0.8310 0.8340 0.8390 0.8440
11.964308 0.8450 0.8450 0.8470 0.8470 0.8490
11.997000 0.8490 0.8500 0.8500 0.8490 0.8490
12.029308 0.8500 0.8520 0.8520 0.8530 0.8530
12.061000 0.8530 0.8520 0.8520 0.8530 0.8530
12.093308 0.8530 0.8570 0.8620 0.8620 0.8620
12.126000 0.8580 0.8570 0.8570 0.8580 0.8580
12.158308 0.8580 0.8580 0.8600 0.8620 0.8620
12.191000 0.8620 0.8630 0.8650 0.8660 0.8700
12.223308 0.8710 0.8710 0.8680 0.8650 0.8650
12.255000 0.8660 0.8660 0.8680 0.8680 0.8660
12.287308 0.8660 0.8660 0.8660 0.8680 0.8700
12.320000 0.8680 0.8700 0.8700 0.8710 0.8710
12.352308 0.8710 0.8710 0.8730 0.8730 0.8750
12.384000 0.8760 0.8790 0.8810 0.8830 0.8840
12.416308 0.8840 0.8830 0.8840 0.8870 0.8910
12.449000 0.8920 0.8910 0.8910 0.8910 0.8910
12.481308 0.8910 0.8910 0.8910 0.8920 0.8940
12.513000 0.8990 0.8990 0.8970 0.8970 0.8960
12.545308 0.8960 0.8960 0.8970 0.8990 0.9000
12.578000 0.9000 0.9000 0.9000 0.8990 0.8970
12.610308 0.8960 0.8970 0.8990 0.9020 0.9040
12.643000 0.9040 0.9050 0.9070 0.9100 0.9120
12.675308 0.9120 0.9130 0.9120 0.9100 0.9100
12.707000 0.9100 0.9120 0.9120 0.9130 0.9150
12.739308 0.9170 0.9180 0.9170 0.9130 0.9150
12.772000 0.9170 0.9170 0.9180 0.9180 0.9130
12.804308 0.9130 0.9170 0.9170 0.9170 0.9170
12.836000 0.9170 0.9170 0.9170 0.9170 0.9150
12.868308 0.9150 0.9130 0.9120 0.9100 0.9120
12.901000 0.9120 0.9130 0.9130 0.9130 0.9120
12.933308 0.9090 0.9090 0.9090 0.9090 0.9090
12.966000 0.9090 0.9100 0.9100 0.9100 0.9100
12.998308 0.9100 0.9100 0.9100 0.9100 0.9100
13.030000 0.9100 0.9120 0.9120 0.9100 0.9090
13.062308 0.9090 0.9090 0.9090 0.9070 0.9050
13.095000 0.9050 0.9050 0.9050 0.9040 0.9040
13.127308 0.9040 0.9040 0.9040 0.9040 0.9020
13.159000 0.9020 0.9020 0.9000 0.8990 0.8990
13.191308 0.8970 0.8970 0.8960 0.8960 0.8940
13.224000 0.8920 0.8890 0.8890 0.8920 0.8920
13.256308 0.8890 0.8840 0.8830 0.8830 0.8840
13.288000 0.8840 0.8830 0.8830 0.8810 0.8790
13.320308 0.8780 0.8760 0.8710 0.8710 0.8680
13.353000 0.8660 0.8630 0.8620 0.8600 0.8550
13.385308 0.8520 0.8420 0.8360 0.8270 0.8190
13.418000 0.8180 0.8100 0.8010 0.7900 0.7720
13.450308 0.7580 0.7430 0.7320 0.7220 0.7190
13.482000 0.7150 0.7140 0.7150 0.7190 0.7240
13.514308 0.7280 0.7330 0.7380 0.7450 0.7530
13.547000 0.7610 0.7690 0.7720 0.7720 0.7740
13.579308 0.7750 0.7790 0.7800 0.7800 0.7790
13.611000 0.7740 0.7660 0.7590 0.7500 0.7410
13.643308 0.7330 0.7250 0.7150 0.7040 0.6910
13.676000 0.6810 0.6750 0.6670 0.6570 0.6490
13.708308 0.6410 0.6370 0.6370 0.6410 0.6520
13.741000 0.6570 0.6750 0.7110 0.7320 0.7480
13.773308 0.7620 0.7710 0.7790 0.7950 0.8030
13.805000 0.8140 0.8240 0.8260 0.8290 0.8310
13.837308 0.8310 0.8320 0.8340 0.8360 0.8370
13.870000 0.8370 0.8360 0.8340 0.8310 0.8260
13.902308 0.8210 0.8180 0.8140 0.8110 0.8080
13.934000 0.8080 0.8050 0.8030 0.8000 0.7980
13.966308 0.7930 0.7920 0.7840 0.7750 0.7640
13.999000 0.7540 0.7410 0.7300 0.7170 0.7020
14.031308 0.6860 0.6780 0.6700 0.6540 0.6390
14.064000 0.6260 0.6150 0.5970 0.5870 0.5810
14.096308 0.5730 0.5640 0.5630 0.5580 0.5560
14.128000 0.5550 0.5550 0.5560 0.5600 0.5680
14.160308 0.5740 0.5790 0.5860 0.5900 0.5970
14.193000 0.6030 0.6120 0.6210 0.6330 0.6420
14.225308 0.6470 0.6570 0.6650 0.6730 0.6880
14.257000 0.6940 0.7010 0.7060 0.7140 0.7200
14.289308 0.7270 0.7350 0.7400 0.7460 0.7510
14.322000 0.7540 0.7610 0.7640 0.7690 0.7740
14.354308 0.7770 0.7820 0.7850 0.7870 0.7900
14.386000 0.7930 0.7970 0.7980 0.8010 0.8010
14.418308 0.8050 0.8060 0.8080 0.8100 0.8100
14.451000 0.8130 0.8140 0.8210 0.8210 0.8230
14.483308 0.8230 0.8210 0.8190 0.8190 0.8190
14.516000 0.8190 0.8190 0.8190 0.8180 0.8180
14.548308 0.8180 0.8180 0.8180 0.8180 0.8180
14.580000 0.8160 0.8160 0.8140 0.8140 0.8110
14.612308 0.8050 0.8010 0.8000 0.7980 0.7970
14.645000 0.7930 0.7920 0.7870 0.7790 0.7750
14.677308 0.7720 0.7670 0.7640 0.7590 0.7580
14.709000 0.7580 0.7530 0.7480 0.7430 0.7410
14.741308 0.7400 0.7370 0.7330 0.7300 0.7270
14.774000 0.7240 0.7220 0.7220 0.7240 0.7250
14.806308 0.7250 0.7240 0.7220 0.7220 0.7220
14.839000 0.7240 0.7270 0.7280 0.7320 0.7330
14.871308 0.7400 0.7460 0.7530 0.7530 0.7560
14.903000 0.7580 0.7610 0.7670 0.7770 0.7820
14.935308 0.7870 0.7900 0.7920 0.7930 0.7970
14.968000 0.8000 0.8010 0.8050 0.8050 0.8100
15.000308 0.8110 0.8130 0.8140 0.8140 0.8130
15.032000 0.8110 0.8100 0.8100 0.8110 0.8140
15.064308 0.8180 0.8190 0.8270 0.8310 0.8340
15.097000 0.8390 0.8450 0.8500 0.8570 0.8620
15.129308 0.8660 0.8680 0.8730 0.8760 0.8780
15.161000 0.8790 0.8830 0.8830 0.8810 0.8790
15.193308 0.8760 0.8780 0.8760 0.8760 0.8760
15.226000 0.8760 0.8760 0.8760 0.8760 0.8760
15.258308 0.8760 0.8760 0.8760 0.8750 0.8730
15.291000 0.8730 0.8730 0.8730 0.8730 0.8730
15.323308 0.8730 0.8730 0.8730 0.8710 0.8710
15.355000 0.8700 0.8700 0.8700 0.8680 0.8680
15.387308 0.8680 0.8680 0.8700 0.8680 0.8660
15.420000 0.8660 0.8650 0.8620 0.8600 0.8550
15.452308 0.8520 0.8490 0.8470 0.8470 0.8470
15.484000 0.8490 0.8490 0.8490 0.8500 0.8500
15.516308 0.8520 0.8520 0.8530 0.8530 0.8550
15.549000 0.8570 0.8580 0.8580 0.8530 0.8520
15.581308 0.8520 0.8520 0.8500 0.8500 0.8450
15.614000 0.8440 0.8450 0.8470 0.8470 0.8450
15.646308 0.8440 0.8420 0.8400 0.8400 0.8420
15.678000 0.8440 0.8450 0.8470 0.8470 0.8470
15.710308 0.8450 0.8420 0.8400 0.8400 0.8390
15.743000 0.8370 0.8370 0.8390 0.8470 0.8470
15.775308 0.8440 0.8420 0.8390 0.8370 0.8360
15.807000 0.8320 0.8320 0.8310 0.8290 0.8290
15.839308 0.8290 0.8310 0.8310 0.8310 0.8290
15.872000 0.8270 0.8230 0.8230 0.8240 0.8260
15.904308 0.8260 0.8260 0.8260 0.8260 0.8260
15.936000 0.8240 0.8240 0.8210 0.8160 0.8140
15.968308 0.8100 0.8080 0.8060 0.8050 0.8010
16.001000 0.8000 0.7980 0.8050 0.8010 0.8000
##END=
