##TITLE=1-Bromobutane
##JCAMP-DX=4.24
$$ By DXEDIT 1.05 (RS McDonald)
##DATA TYPE=INFRARED SPECTRUM
##CLASS=COBLENTZ III
##ORIGIN=DOW CHEMICAL COMPANY
##OWNER=COPYRIGHT (C) 1988 by COBLENTZ SOCIETY INC.
Collection (C) 2018 copyright by the U.S. Secretary of Commerce
on behalf of the United States of America. All rights reserved.
##DATE=1960/01/10
##CAS REGISTRY NO=109-65-9
##MOLFORM=C4 H9 Br
##SOURCE REFERENCE=COBLENTZ NO. 5663
##$NIST SOURCE=COBLENTZ
##$NIST IMAGE=cob5663
##SPECTROMETER/DATA SYSTEM=DOW KBr FOREPRISM-GRATING
$$SPECTRAL CONTAMINATION DUE TO CCl4 AROUND 1550 AND CS2 AROUND 850 CM^-^1 HAVE BEEN SUBTRACTED
##INSTRUMENT PARAMETERS=BLAZED AT 3.5, 12.0, 20.0 MICRON AND CHANGED AT 5.0, 7.5, 14.9 MICRON
##STATE=SOLUTION (10% CCl4 FOR 3800-1400, 10% CS2 FOR 1400-430)
##PATH LENGTH=0.0116 CM, 0.0112 CM
##SAMPLING PROCEDURE=TRANSMISSION
##RESOLUTION=2
##DATA PROCESSING=DIGITIZED BY COBLENTZ SOCIETY (BATCH I) FROM HARD COPY
##XUNITS=1/CM
##YUNITS=TRANSMITTANCE
##XFACTOR=1
##YFACTOR=1
##DELTAX=1
##FIRSTX=423
##LASTX=3770
##FIRSTY=0.8484
##MAXX=3770
##MINX=423
##MAXY=0.9629
##MINY=-0.0036
##NPOINTS=3348
##XYDATA=(X++(Y..Y))
423.000000 0.8484 0.8484 0.8484 0.8487 0.8490
428.000000 0.8491 0.8494 0.8496 0.8499 0.8503
433.000000 0.8508 0.8514 0.8519 0.8526 0.8531
438.000000 0.8543 0.8555 0.8569 0.8582 0.8596
443.000000 0.8613 0.8629 0.8640 0.8642 0.8645
448.000000 0.8648 0.8649 0.8652 0.8652 0.8654
453.000000 0.8655 0.8655 0.8655 0.8655 0.8656
458.000000 0.8665 0.8693 0.8757 0.8829 0.8896
463.000000 0.8943 0.8991 0.9028 0.9063 0.9098
468.000000 0.9133 0.9162 0.9193 0.9222 0.9252
473.000000 0.9282 0.9303 0.9322 0.9340 0.9359
478.000000 0.9378 0.9396 0.9412 0.9425 0.9435
483.000000 0.9448 0.9461 0.9472 0.9485 0.9496
488.000000 0.9506 0.9518 0.9528 0.9538 0.9548
493.000000 0.9560 0.9568 0.9574 0.9580 0.9585
498.000000 0.9590 0.9597 0.9603 0.9609 0.9615
503.000000 0.9615 0.9614 0.9613 0.9610 0.9609
508.000000 0.9608 0.9606 0.9605 0.9605 0.9604
513.000000 0.9604 0.9603 0.9601 0.9601 0.9602
518.000000 0.9601 0.9598 0.9595 0.9591 0.9589
523.000000 0.9585 0.9582 0.9578 0.9568 0.9553
528.000000 0.9544 0.9534 0.9526 0.9518 0.9509
533.000000 0.9498 0.9466 0.9453 0.9439 0.9405
538.000000 0.9381 0.9345 0.9319 0.9284 0.9250
543.000000 0.9216 0.9180 0.9146 0.9105 0.9050
548.000000 0.8995 0.8939 0.8864 0.8777 0.8687
553.000000 0.8615 0.8470 0.8328 0.7564 0.7272
558.000000 0.6980 0.6688 0.6465 0.6466 0.6473
563.000000 0.6568 0.6641 0.6730 0.7205 0.8129
568.000000 0.8257 0.8377 0.8522 0.8649 0.8745
573.000000 0.8834 0.8897 0.8949 0.9016 0.9086
578.000000 0.9149 0.9199 0.9249 0.9299 0.9366
583.000000 0.9428 0.9461 0.9506 0.9538 0.9574
588.000000 0.9598 0.9616 0.9629 0.9627 0.9626
593.000000 0.9624 0.9622 0.9621 0.9619 0.9599
598.000000 0.9610 0.9605 0.9601 0.9597 0.9587
603.000000 0.9572 0.9559 0.9546 0.9533 0.9526
608.000000 0.9522 0.9507 0.9501 0.9494 0.9488
613.000000 0.9482 0.9487 0.9489 0.9480 0.9463
618.000000 0.9431 0.9381 0.9340 0.9296 0.9249
623.000000 0.9202 0.9166 0.9105 0.9045 0.8977
628.000000 0.8894 0.8819 0.8719 0.8215 0.8024
633.000000 0.7886 0.7699 0.7376 0.7035 0.6691
638.000000 0.6360 0.6027 0.5738 0.5758 0.5778
643.000000 0.5930 0.6201 0.6267 0.6399 0.6883
648.000000 0.7361 0.7838 0.8319 0.8502 0.8651
653.000000 0.8950 0.9116 0.9218 0.9290 0.9336
658.000000 0.9334 0.9334 0.9310 0.9283 0.9295
663.000000 0.9317 0.9337 0.9342 0.9360 0.9462
668.000000 0.9568 0.9476 0.9342 0.9308 0.9302
673.000000 0.9314 0.9334 0.9366 0.9369 0.9348
678.000000 0.9344 0.9319 0.9330 0.9325 0.9330
683.000000 0.9333 0.9317 0.9326 0.9324 0.9323
688.000000 0.9315 0.9302 0.9301 0.9299 0.9297
693.000000 0.9294 0.9293 0.9279 0.9268 0.9264
698.000000 0.9260 0.9255 0.9251 0.9232 0.9225
703.000000 0.9220 0.9197 0.9188 0.9183 0.9176
708.000000 0.9162 0.9144 0.9125 0.9108 0.9086
713.000000 0.9058 0.9026 0.8987 0.8958 0.8930
718.000000 0.8894 0.8870 0.8846 0.8798 0.8712
723.000000 0.8625 0.8514 0.8388 0.8291 0.8203
728.000000 0.8125 0.8058 0.8018 0.7962 0.7916
733.000000 0.7861 0.7797 0.7701 0.7592 0.7160
738.000000 0.6534 0.5910 0.5697 0.5696 0.5913
743.000000 0.5712 0.6443 0.6707 0.6972 0.7238
748.000000 0.7502 0.7768 0.8033 0.8260 0.8413
753.000000 0.8540 0.8654 0.8777 0.8844 0.8909
758.000000 0.8955 0.8986 0.9016 0.9020 0.9023
763.000000 0.9023 0.9022 0.9023 0.9031 0.9026
768.000000 0.9014 0.8989 0.8970 0.8941 0.8902
773.000000 0.8851 0.8814 0.8777 0.8777 0.8792
778.000000 0.8855 0.8903 0.8946 0.8984 0.9004
783.000000 0.9019 0.9035 0.9074 0.9028 0.9023
788.000000 0.9010 0.8997 0.8975 0.8950 0.8888
793.000000 0.8841 0.8765 0.8753 0.8754 0.8779
798.000000 0.8758 0.8904 0.8966 0.9009 0.9053
803.000000 0.9090 0.9128 0.9165 0.9176 0.9191
808.000000 0.9227 0.9252 0.9246 0.9255 0.9244
813.000000 0.9229 0.9232 0.9236 0.9239 0.9222
818.000000 0.9236 0.9218 0.9215 0.9214 0.9222
823.000000 0.9215 0.9211 0.9205 0.9208 0.9212
828.000000 0.9213 0.9222 0.9222 0.9220 0.9224
833.000000 0.9228 0.9243 0.9251 0.9262 0.9270
838.000000 0.9261 0.9272 0.9272 0.9287 0.9244
843.000000 0.9231 0.9233 0.9255 0.9272 0.9305
848.000000 0.9333 0.9268 0.9206 0.9118 0.9042
853.000000 0.8991 0.8930 0.8896 0.8844 0.8784
858.000000 0.8726 0.8658 0.8584 0.8487 0.8370
863.000000 0.8259 0.8021 0.7777 0.7571 0.7544
868.000000 0.7501 0.7608 0.7756 0.7904 0.8050
873.000000 0.8193 0.8337 0.8448 0.8597 0.8678
878.000000 0.8765 0.8858 0.8939 0.8989 0.9027
883.000000 0.9056 0.9077 0.9070 0.9067 0.9062
888.000000 0.9061 0.9053 0.9053 0.9055 0.9052
893.000000 0.9036 0.9038 0.9012 0.8997 0.8982
898.000000 0.8999 0.8934 0.8924 0.8887 0.8859
903.000000 0.8803 0.8753 0.8682 0.8607 0.8545
908.000000 0.8479 0.8414 0.8355 0.8287 0.8206
913.000000 0.8133 0.8084 0.8094 0.8109 0.8047
918.000000 0.8161 0.8217 0.8448 0.8723 0.8849
923.000000 0.8916 0.8967 0.9007 0.9046 0.9073
928.000000 0.9092 0.9108 0.9124 0.9127 0.9131
933.000000 0.9135 0.9135 0.9135 0.9166 0.9132
938.000000 0.9130 0.9128 0.9125 0.9124 0.9123
943.000000 0.9121 0.9119 0.9117 0.9116 0.9115
948.000000 0.9115 0.9116 0.9116 0.9116 0.9116
953.000000 0.9117 0.9117 0.9117 0.9119 0.9120
958.000000 0.9120 0.9121 0.9122 0.9109 0.9094
963.000000 0.9067 0.9036 0.9002 0.8967 0.8926
968.000000 0.8892 0.8886 0.8873 0.8911 0.8944
973.000000 0.8994 0.9028 0.9060 0.9142 0.9096
978.000000 0.9097 0.9093 0.9086 0.9075 0.9052
983.000000 0.9028 0.9000 0.8970 0.8915 0.8860
988.000000 0.8804 0.8750 0.8694 0.8638 0.8571
993.000000 0.8508 0.8462 0.8421 0.8379 0.8342
998.000000 0.8396 0.8449 0.8536 0.8624 0.8713
1003.000000 0.8809 0.8886 0.8914 0.8912 0.8904
1008.000000 0.8896 0.8903 0.8888 0.8875 0.8859
1013.000000 0.8865 0.8901 0.8950 0.8998 0.9060
1018.000000 0.9057 0.9049 0.9050 0.9039 0.9028
1023.000000 0.9018 0.9007 0.8997 0.8999 0.8990
1028.000000 0.8976 0.8965 0.8952 0.8955 0.8943
1033.000000 0.8930 0.8913 0.8888 0.8866 0.8842
1038.000000 0.8813 0.8772 0.8732 0.8693 0.8623
1043.000000 0.8548 0.8439 0.8360 0.8304 0.8304
1048.000000 0.8304 0.8304 0.8393 0.8448 0.8497
1053.000000 0.8542 0.8574 0.8590 0.8594 0.8623
1058.000000 0.8600 0.8558 0.8547 0.8514 0.8490
1063.000000 0.8468 0.8463 0.8508 0.8548 0.8585
1068.000000 0.8630 0.8671 0.8707 0.8742 0.8785
1073.000000 0.8828 0.8876 0.8944 0.8978 0.9023
1078.000000 0.9058 0.9086 0.9107 0.9121 0.9140
1083.000000 0.9144 0.9146 0.9161 0.9142 0.9140
1088.000000 0.9134 0.9123 0.9115 0.9101 0.9082
1093.000000 0.9062 0.9043 0.8999 0.8918 0.8836
1098.000000 0.8755 0.8685 0.8666 0.8697 0.8803
1103.000000 0.8908 0.9014 0.9126 0.9170 0.9234
1108.000000 0.9263 0.9300 0.9325 0.9341 0.9356
1113.000000 0.9364 0.9373 0.9379 0.9385 0.9371
1118.000000 0.9373 0.9375 0.9377 0.9377 0.9370
1123.000000 0.9358 0.9358 0.9357 0.9357 0.9354
1128.000000 0.9349 0.9355 0.9358 0.9354 0.9344
1133.000000 0.9336 0.9341 0.9336 0.9312 0.9301
1138.000000 0.9275 0.9247 0.9220 0.9212 0.9211
1143.000000 0.9195 0.9214 0.9215 0.9216 0.9217
1148.000000 0.9222 0.9234 0.9225 0.9216 0.9212
1153.000000 0.9194 0.9176 0.9158 0.9140 0.9126
1158.000000 0.9111 0.9097 0.9083 0.9069 0.9063
1163.000000 0.9062 0.9069 0.9075 0.9081 0.9085
1168.000000 0.9061 0.9043 0.9026 0.9007 0.8989
1173.000000 0.8970 0.8951 0.8921 0.8888 0.8853
1178.000000 0.8809 0.8761 0.8718 0.8679 0.8664
1183.000000 0.8665 0.8657 0.8653 0.8653 0.8653
1188.000000 0.8653 0.8655 0.8655 0.8655 0.8638
1193.000000 0.8608 0.8547 0.8485 0.8420 0.8349
1198.000000 0.8280 0.8223 0.8117 0.7998 0.7859
1203.000000 0.7713 0.7525 0.7205 0.7020 0.6833
1208.000000 0.6648 0.6268 0.5702 0.5135 0.4569
1213.000000 0.3997 0.3428 0.3354 0.3345 0.3347
1218.000000 0.3817 0.4489 0.5160 0.5831 0.6501
1223.000000 0.7070 0.7348 0.7489 0.7608 0.7717
1228.000000 0.7826 0.8158 0.8387 0.8460 0.8533
1233.000000 0.8574 0.8574 0.8579 0.8562 0.8555
1238.000000 0.8542 0.8503 0.8451 0.8399 0.8344
1243.000000 0.8289 0.8218 0.8157 0.8077 0.7994
1248.000000 0.7914 0.7816 0.7718 0.7617 0.7507
1253.000000 0.7370 0.6406 0.5676 0.4946 0.4216
1258.000000 0.3486 0.2757 0.2026 0.1764 0.1764
1263.000000 0.1765 0.2145 0.2897 0.3651 0.4401
1268.000000 0.5151 0.5905 0.6658 0.7078 0.7445
1273.000000 0.7582 0.7618 0.7623 0.7629 0.7614
1278.000000 0.7615 0.7605 0.7577 0.7535 0.7474
1283.000000 0.7402 0.7327 0.7260 0.7191 0.7120
1288.000000 0.7054 0.6992 0.6955 0.6946 0.6905
1293.000000 0.6882 0.6858 0.6851 0.6837 0.6815
1298.000000 0.7100 0.7278 0.7455 0.7633 0.7779
1303.000000 0.7796 0.7812 0.7844 0.7858 0.7905
1308.000000 0.8445 0.8498 0.8528 0.8541 0.8556
1313.000000 0.8565 0.8562 0.8560 0.8557 0.8568
1318.000000 0.8531 0.8523 0.8515 0.8507 0.8496
1323.000000 0.8495 0.8488 0.8473 0.8466 0.8445
1328.000000 0.8423 0.8399 0.8388 0.8361 0.8335
1333.000000 0.8315 0.8303 0.8303 0.8301 0.8301
1338.000000 0.8300 0.8298 0.8303 0.8320 0.8334
1343.000000 0.8356 0.8371 0.8386 0.8400 0.8417
1348.000000 0.8426 0.8402 0.8377 0.8352 0.8327
1353.000000 0.8304 0.8282 0.8259 0.8242 0.8247
1358.000000 0.8236 0.8276 0.8321 0.8370 0.8379
1363.000000 0.8377 0.8376 0.8360 0.8346 0.8328
1368.000000 0.8310 0.8291 0.8273 0.8236 0.8173
1373.000000 0.8103 0.8021 0.7935 0.7826 0.7368
1378.000000 0.6714 0.6229 0.6234 0.6242 0.6242
1383.000000 0.6903 0.7255 0.7580 0.7870 0.8159
1388.000000 0.8339 0.8396 0.8423 0.8451 0.8479
1393.000000 0.8548 0.8639 0.8656 0.8655 0.8655
1398.000000 0.8639 0.8618 0.8605 0.8592 0.8584
1403.000000 0.8584 0.8584 0.8591 0.8595 0.8593
1408.000000 0.8586 0.8574 0.8562 0.8547 0.8532
1413.000000 0.8514 0.8489 0.8461 0.8432 0.8409
1418.000000 0.8336 0.8245 0.8145 0.8057 0.7968
1423.000000 0.7881 0.7786 0.7648 0.7480 0.7129
1428.000000 0.6786 0.6447 0.6113 0.6116 0.6134
1433.000000 0.6190 0.6220 0.6231 0.6230 0.6025
1438.000000 0.5442 0.5078 0.5067 0.5341 0.5671
1443.000000 0.6000 0.6331 0.6511 0.6479 0.6420
1448.000000 0.6281 0.6131 0.5987 0.5844 0.5695
1453.000000 0.5544 0.5362 0.5092 0.4821 0.4546
1458.000000 0.4270 0.4135 0.4126 0.4110 0.4096
1463.000000 0.4084 0.4064 0.3895 0.3708 0.3526
1468.000000 0.3510 0.3515 0.5010 0.5915 0.6757
1473.000000 0.6907 0.7067 0.7252 0.7360 0.7462
1478.000000 0.7593 0.7731 0.7868 0.7984 0.8029
1483.000000 0.8059 0.8096 0.8120 0.8149 0.8165
1488.000000 0.8214 0.8213 0.8233 0.8253 0.8261
1493.000000 0.8269 0.8278 0.8301 0.8309 0.8322
1498.000000 0.8337 0.8361 0.8369 0.8380 0.8393
1503.000000 0.8418 0.8438 0.8453 0.8475 0.8495
1508.000000 0.8516 0.8540 0.8551 0.8573 0.8602
1513.000000 0.8619 0.8643 0.8657 0.8684 0.8693
1518.000000 0.8697 0.8720 0.8728 0.8732 0.8753
1523.000000 0.8750 0.8759 0.8757 0.8748 0.8707
1528.000000 0.8636 0.8484 0.8384 0.8367 0.8363
1533.000000 0.8339 0.8277 0.8211 0.8132 0.8084
1538.000000 0.8090 0.8049 0.8034 0.8054 0.8071
1543.000000 0.8052 0.7995 0.7925 0.7880 0.7877
1548.000000 0.7881 0.7888 0.7909 0.7883 0.7818
1553.000000 0.7722 0.7641 0.7625 0.8024 0.8068
1558.000000 0.8434 0.8336 0.8176 0.8014 0.7909
1563.000000 0.7830 0.8239 0.8397 0.8454 0.8448
1568.000000 0.8443 0.8470 0.8467 0.8458 0.8416
1573.000000 0.8416 0.8411 0.8389 0.8387 0.8403
1578.000000 0.8398 0.8415 0.8410 0.8409 0.8398
1583.000000 0.8399 0.8348 0.8312 0.8363 0.8407
1588.000000 0.8453 0.8472 0.8480 0.8516 0.8492
1593.000000 0.8465 0.8473 0.8495 0.8528 0.8550
1598.000000 0.8558 0.8562 0.8606 0.8633 0.8705
1603.000000 0.8715 0.8747 0.8725 0.8773 0.8785
1608.000000 0.8826 0.8856 0.8877 0.8898 0.8894
1613.000000 0.8900 0.8912 0.8905 0.8888 0.8873
1618.000000 0.8873 0.8875 0.8874 0.8882 0.8882
1623.000000 0.8867 0.8865 0.8855 0.8877 0.8893
1628.000000 0.8890 0.8904 0.8902 0.8915 0.8913
1633.000000 0.8924 0.8924 0.8936 0.8944 0.8943
1638.000000 0.8950 0.8951 0.8959 0.8963 0.8957
1643.000000 0.8952 0.8955 0.8958 0.8950 0.8947
1648.000000 0.8949 0.8950 0.8951 0.8951 0.8937
1653.000000 0.8950 0.8953 0.8954 0.8954 0.8954
1658.000000 0.8938 0.8941 0.8954 0.8940 0.8940
1663.000000 0.8938 0.8938 0.8937 0.8937 0.8936
1668.000000 0.8936 0.8936 0.8935 0.8935 0.8934
1673.000000 0.8923 0.8918 0.8919 0.8920 0.8920
1678.000000 0.8922 0.8922 0.8923 0.8925 0.8925
1683.000000 0.8927 0.8930 0.8931 0.8934 0.8937
1688.000000 0.8938 0.8941 0.8944 0.8947 0.8949
1693.000000 0.8952 0.8954 0.8953 0.8954 0.8953
1698.000000 0.8954 0.8954 0.8954 0.8954 0.8954
1703.000000 0.8954 0.8953 0.8954 0.8954 0.8954
1708.000000 0.8954 0.8954 0.8954 0.8953 0.8953
1713.000000 0.8952 0.8951 0.8951 0.8949 0.8949
1718.000000 0.8948 0.8947 0.8946 0.8946 0.8944
1723.000000 0.8944 0.8943 0.8942 0.8941 0.8940
1728.000000 0.8940 0.8938 0.8938 0.8936 0.8936
1733.000000 0.8934 0.8934 0.8932 0.8931 0.8929
1738.000000 0.8928 0.8925 0.8924 0.8922 0.8921
1743.000000 0.8919 0.8917 0.8916 0.8913 0.8913
1748.000000 0.8912 0.8911 0.8908 0.8909 0.8907
1753.000000 0.8905 0.8905 0.8905 0.8904 0.8903
1758.000000 0.8902 0.8888 0.8883 0.8882 0.8881
1763.000000 0.8880 0.8879 0.8879 0.8879 0.8879
1768.000000 0.8879 0.8879 0.8879 0.8879 0.8879
1773.000000 0.8879 0.8879 0.8879 0.8886 0.8896
1778.000000 0.8896 0.8896 0.8896 0.8896 0.8895
1783.000000 0.8895 0.8894 0.8893 0.8892 0.8892
1788.000000 0.8891 0.8890 0.8890 0.8889 0.8888
1793.000000 0.8888 0.8887 0.8886 0.8886 0.8885
1798.000000 0.8885 0.8885 0.8885 0.8885 0.8885
1803.000000 0.8885 0.8892 0.8901 0.8901 0.8901
1808.000000 0.8901 0.8912 0.8918 0.8918 0.8918
1813.000000 0.8918 0.8918 0.8917 0.8917 0.8917
1818.000000 0.8917 0.8917 0.8900 0.8900 0.8900
1823.000000 0.8899 0.8899 0.8899 0.8899 0.8899
1828.000000 0.8898 0.8898 0.8898 0.8897 0.8896
1833.000000 0.8895 0.8895 0.8894 0.8904 0.8909
1838.000000 0.8909 0.8908 0.8907 0.8905 0.8902
1843.000000 0.8899 0.8895 0.8891 0.8888 0.8885
1848.000000 0.8882 0.8879 0.8875 0.8872 0.8870
1853.000000 0.8869 0.8868 0.8866 0.8871 0.8874
1858.000000 0.8863 0.8863 0.8863 0.8864 0.8866
1863.000000 0.8867 0.8869 0.8872 0.8878 0.8883
1868.000000 0.8888 0.8892 0.8898 0.8898 0.8898
1873.000000 0.8898 0.8896 0.8895 0.8879 0.8879
1878.000000 0.8879 0.8879 0.8879 0.8879 0.8879
1883.000000 0.8878 0.8871 0.8861 0.8861 0.8861
1888.000000 0.8860 0.8860 0.8860 0.8869 0.8875
1893.000000 0.8875 0.8875 0.8875 0.8875 0.8874
1898.000000 0.8874 0.8874 0.8874 0.8874 0.8875
1903.000000 0.8875 0.8877 0.8879 0.8879 0.8878
1908.000000 0.8866 0.8866 0.8869 0.8870 0.8871
1913.000000 0.8872 0.8873 0.8875 0.8876 0.8877
1918.000000 0.8879 0.8880 0.8881 0.8882 0.8883
1923.000000 0.8884 0.8885 0.8886 0.8887 0.8888
1928.000000 0.8889 0.8890 0.8891 0.8892 0.8893
1933.000000 0.8896 0.8897 0.8898 0.8898 0.8899
1938.000000 0.8900 0.8901 0.8902 0.8902 0.8903
1943.000000 0.8904 0.8905 0.8905 0.8906 0.8907
1948.000000 0.8908 0.8908 0.8909 0.8910 0.8911
1953.000000 0.8911 0.8912 0.8913 0.8914 0.8914
1958.000000 0.8915 0.8916 0.8917 0.8917 0.8918
1963.000000 0.8919 0.8920 0.8920 0.8921 0.8922
1968.000000 0.8923 0.8923 0.8924 0.8925 0.8926
1973.000000 0.8926 0.8927 0.8928 0.8929 0.8929
1978.000000 0.8930 0.8931 0.8932 0.8932 0.8933
1983.000000 0.8929 0.8926 0.8923 0.8923 0.8935
1988.000000 0.8932 0.8930 0.8923 0.8915 0.8907
1993.000000 0.8900 0.8850 0.8776 0.8683 0.8609
1998.000000 0.8622 0.8696 0.8763 0.8829 0.8897
2003.000000 0.8930 0.8964 0.8993 0.9022 0.9026
2008.000000 0.9029 0.9031 0.9036 0.9038 0.9042
2013.000000 0.9042 0.9044 0.9044 0.9045 0.9045
2018.000000 0.9046 0.9046 0.9047 0.9048 0.9049
2023.000000 0.9050 0.9052 0.9043 0.9037 0.9050
2028.000000 0.9046 0.9042 0.9043 0.9044 0.9045
2033.000000 0.9046 0.9048 0.9049 0.9050 0.9051
2038.000000 0.9052 0.9053 0.9056 0.9056 0.9057
2043.000000 0.9058 0.9059 0.9060 0.9061 0.9061
2048.000000 0.9062 0.9071 0.9082 0.9072 0.9075
2053.000000 0.9084 0.9085 0.9085 0.9087 0.9074
2058.000000 0.9071 0.9071 0.9073 0.9074 0.9075
2063.000000 0.9075 0.9075 0.9077 0.9078 0.9078
2068.000000 0.9078 0.9078 0.9078 0.9078 0.9078
2073.000000 0.9078 0.9078 0.9078 0.9078 0.9077
2078.000000 0.9077 0.9077 0.9077 0.9077 0.9077
2083.000000 0.9077 0.9078 0.9078 0.9078 0.9075
2088.000000 0.9075 0.9075 0.9075 0.9074 0.9073
2093.000000 0.9070 0.9056 0.9071 0.9067 0.9051
2098.000000 0.9056 0.9068 0.9068 0.9067 0.9066
2103.000000 0.9065 0.9065 0.9064 0.9064 0.9063
2108.000000 0.9062 0.9061 0.9061 0.9060 0.9059
2113.000000 0.9058 0.9058 0.9057 0.9057 0.9056
2118.000000 0.9055 0.9054 0.9053 0.9048 0.9035
2123.000000 0.9048 0.9047 0.9045 0.9044 0.9042
2128.000000 0.9041 0.9040 0.9039 0.9037 0.9036
2133.000000 0.9034 0.9033 0.9032 0.9031 0.9029
2138.000000 0.9026 0.9025 0.9023 0.9022 0.9021
2143.000000 0.9019 0.9019 0.9016 0.9016 0.9014
2148.000000 0.9013 0.9012 0.9012 0.9011 0.9011
2153.000000 0.9010 0.9010 0.9009 0.9009 0.9008
2158.000000 0.9008 0.9007 0.9007 0.9006 0.9006
2163.000000 0.9005 0.9005 0.9004 0.9004 0.9003
2168.000000 0.9003 0.9017 0.9019 0.9018 0.9018
2173.000000 0.9017 0.9017 0.9016 0.9016 0.9015
2178.000000 0.9011 0.8996 0.8996 0.8996 0.8996
2183.000000 0.9003 0.9006 0.8996 0.8996 0.8995
2188.000000 0.8995 0.8995 0.8995 0.8995 0.8995
2193.000000 0.9009 0.9013 0.8998 0.9011 0.9012
2198.000000 0.9012 0.9010 0.9009 0.9006 0.9005
2203.000000 0.9004 0.9003 0.9001 0.9000 0.8998
2208.000000 0.8997 0.8995 0.8994 0.8991 0.8989
2213.000000 0.8984 0.8983 0.8981 0.8979 0.8976
2218.000000 0.8974 0.8971 0.8969 0.8965 0.8978
2223.000000 0.8978 0.8976 0.8973 0.8971 0.8968
2228.000000 0.8966 0.8962 0.8959 0.8956 0.8953
2233.000000 0.8949 0.8945 0.8949 0.8957 0.8954
2238.000000 0.8951 0.8948 0.8945 0.8941 0.8938
2243.000000 0.8935 0.8932 0.8940 0.8943 0.8939
2248.000000 0.8936 0.8933 0.8930 0.8942 0.8941
2253.000000 0.8937 0.8934 0.8948 0.8946 0.8943
2258.000000 0.8943 0.8955 0.8952 0.8954 0.8964
2263.000000 0.8961 0.8959 0.8964 0.8972 0.8969
2268.000000 0.8967 0.8972 0.8978 0.8975 0.8985
2273.000000 0.8987 0.8985 0.8982 0.8994 0.8994
2278.000000 0.8991 0.9004 0.9003 0.9000 0.8997
2283.000000 0.8995 0.9009 0.9006 0.9002 0.8999
2288.000000 0.9002 0.9011 0.9008 0.9004 0.9001
2293.000000 0.8999 0.8997 0.8996 0.8996 0.8996
2298.000000 0.8996 0.8983 0.8977 0.8976 0.8976
2303.000000 0.8980 0.8941 0.8991 0.8997 0.9006
2308.000000 0.9016 0.9026 0.9035 0.9044 0.9054
2313.000000 0.9066 0.9079 0.9091 0.9104 0.9116
2318.000000 0.9129 0.9142 0.9155 0.9169 0.9185
2323.000000 0.9200 0.9216 0.9220 0.9230 0.9231
2328.000000 0.9238 0.9243 0.9248 0.9237 0.9240
2333.000000 0.9245 0.9250 0.9237 0.9243 0.9262
2338.000000 0.9260 0.9248 0.9263 0.9263 0.9263
2343.000000 0.9262 0.9268 0.9280 0.9280 0.9272
2348.000000 0.9254 0.9243 0.9243 0.9252 0.9258
2353.000000 0.9257 0.9256 0.9254 0.9239 0.9219
2358.000000 0.9215 0.9197 0.9190 0.9173 0.9172
2363.000000 0.9172 0.9171 0.9169 0.9167 0.9163
2368.000000 0.9160 0.9160 0.9170 0.9165 0.9162
2373.000000 0.9158 0.9147 0.9133 0.9130 0.9116
2378.000000 0.9105 0.9093 0.9086 0.9086 0.9073
2383.000000 0.9069 0.9069 0.9054 0.9052 0.9052
2388.000000 0.9052 0.9052 0.9035 0.9035 0.9035
2393.000000 0.9036 0.9039 0.9040 0.9041 0.9042
2398.000000 0.9044 0.9044 0.9044 0.9044 0.9044
2403.000000 0.9044 0.9044 0.9044 0.9045 0.9034
2408.000000 0.9040 0.9033 0.9028 0.9028 0.9028
2413.000000 0.9028 0.9028 0.9028 0.9029 0.9029
2418.000000 0.9029 0.9029 0.9029 0.9029 0.9029
2423.000000 0.9029 0.9029 0.9029 0.9029 0.9029
2428.000000 0.9029 0.9029 0.9029 0.9029 0.9029
2433.000000 0.9029 0.9031 0.9031 0.9031 0.9031
2438.000000 0.9031 0.9031 0.9031 0.9031 0.9031
2443.000000 0.9031 0.9031 0.9031 0.9031 0.9031
2448.000000 0.9031 0.9027 0.9018 0.9031 0.9031
2453.000000 0.9025 0.9014 0.9014 0.9021 0.9022
2458.000000 0.9023 0.9031 0.9031 0.9031 0.9031
2463.000000 0.9031 0.9031 0.9031 0.9031 0.9031
2468.000000 0.9031 0.9031 0.9031 0.9030 0.9030
2473.000000 0.9029 0.9029 0.9028 0.9027 0.9026
2478.000000 0.9026 0.9025 0.9025 0.9017 0.9007
2483.000000 0.9006 0.9005 0.9003 0.9003 0.9002
2488.000000 0.9002 0.9001 0.9001 0.9000 0.8999
2493.000000 0.8998 0.8998 0.8997 0.8997 0.8996
2498.000000 0.8996 0.8995 0.8994 0.8993 0.8993
2503.000000 0.8992 0.8992 0.8991 0.8991 0.8990
2508.000000 0.8989 0.8988 0.8988 0.8987 0.8987
2513.000000 0.8986 0.8986 0.8985 0.8985 0.8985
2518.000000 0.8985 0.8984 0.8984 0.8984 0.8984
2523.000000 0.8983 0.8983 0.8983 0.8983 0.8982
2528.000000 0.8982 0.8982 0.8982 0.8980 0.8980
2533.000000 0.8980 0.8980 0.8980 0.8980 0.8980
2538.000000 0.8980 0.8980 0.8980 0.8979 0.8979
2543.000000 0.8979 0.8979 0.8977 0.8977 0.8977
2548.000000 0.8977 0.8977 0.8977 0.8977 0.8977
2553.000000 0.8976 0.8976 0.8976 0.8976 0.8975
2558.000000 0.8975 0.8975 0.8975 0.8973 0.8973
2563.000000 0.8973 0.8973 0.8973 0.8973 0.8973
2568.000000 0.8973 0.8970 0.8970 0.8969 0.8968
2573.000000 0.8966 0.8965 0.8962 0.8961 0.8960
2578.000000 0.8959 0.8957 0.8956 0.8954 0.8953
2583.000000 0.8952 0.8951 0.8949 0.8948 0.8947
2588.000000 0.8946 0.8944 0.8943 0.8940 0.8939
2593.000000 0.8938 0.8937 0.8935 0.8934 0.8932
2598.000000 0.8931 0.8930 0.8928 0.8927 0.8925
2603.000000 0.8925 0.8924 0.8921 0.8921 0.8917
2608.000000 0.8916 0.8913 0.8911 0.8909 0.8907
2613.000000 0.8905 0.8903 0.8899 0.8897 0.8895
2618.000000 0.8893 0.8890 0.8888 0.8886 0.8884
2623.000000 0.8882 0.8879 0.8875 0.8874 0.8872
2628.000000 0.8870 0.8867 0.8850 0.8846 0.8859
2633.000000 0.8856 0.8853 0.8831 0.8827 0.8821
2638.000000 0.8817 0.8812 0.8808 0.8807 0.8810
2643.000000 0.8793 0.8789 0.8790 0.8796 0.8791
2648.000000 0.8778 0.8764 0.8760 0.8766 0.8766
2653.000000 0.8776 0.8784 0.8799 0.8815 0.8830
2658.000000 0.8831 0.8831 0.8834 0.8834 0.8836
2663.000000 0.8837 0.8837 0.8836 0.8833 0.8831
2668.000000 0.8829 0.8827 0.8825 0.8823 0.8822
2673.000000 0.8820 0.8818 0.8816 0.8813 0.8811
2678.000000 0.8809 0.8806 0.8805 0.8802 0.8799
2683.000000 0.8798 0.8796 0.8794 0.8791 0.8789
2688.000000 0.8787 0.8785 0.8785 0.8785 0.8788
2693.000000 0.8790 0.8794 0.8796 0.8798 0.8799
2698.000000 0.8803 0.8805 0.8809 0.8811 0.8814
2703.000000 0.8816 0.8818 0.8820 0.8821 0.8820
2708.000000 0.8819 0.8817 0.8816 0.8814 0.8813
2713.000000 0.8810 0.8807 0.8796 0.8788 0.8778
2718.000000 0.8769 0.8758 0.8748 0.8738 0.8728
2723.000000 0.8718 0.8708 0.8697 0.8686 0.8674
2728.000000 0.8664 0.8652 0.8641 0.8635 0.8630
2733.000000 0.8629 0.8629 0.8629 0.8629 0.8628
2738.000000 0.8628 0.8628 0.8628 0.8641 0.8653
2743.000000 0.8670 0.8688 0.8704 0.8720 0.8735
2748.000000 0.8751 0.8766 0.8781 0.8786 0.8792
2753.000000 0.8794 0.8796 0.8797 0.8797 0.8796
2758.000000 0.8795 0.8790 0.8786 0.8782 0.8779
2763.000000 0.8775 0.8770 0.8766 0.8762 0.8758
2768.000000 0.8755 0.8747 0.8742 0.8736 0.8730
2773.000000 0.8724 0.8718 0.8711 0.8706 0.8699
2778.000000 0.8693 0.8687 0.8682 0.8668 0.8652
2783.000000 0.8654 0.8656 0.8639 0.8625 0.8618
2788.000000 0.8611 0.8604 0.8609 0.8592 0.8596
2793.000000 0.8592 0.8584 0.8577 0.8571 0.8563
2798.000000 0.8556 0.8548 0.8540 0.8529 0.8518
2803.000000 0.8506 0.8494 0.8483 0.8471 0.8459
2808.000000 0.8441 0.8420 0.8408 0.8397 0.8385
2813.000000 0.8363 0.8341 0.8317 0.8294 0.8271
2818.000000 0.8248 0.8237 0.8216 0.8187 0.8144
2823.000000 0.8107 0.8040 0.7991 0.7954 0.7857
2828.000000 0.7750 0.7609 0.7447 0.7287 0.7128
2833.000000 0.6970 0.6811 0.6651 0.6498 0.6345
2838.000000 0.6186 0.6139 0.6108 0.6112 0.6112
2843.000000 0.6262 0.6427 0.6645 0.6862 0.6848
2848.000000 0.6856 0.6838 0.6831 0.6712 0.6593
2853.000000 0.6428 0.6265 0.6110 0.5946 0.5780
2858.000000 0.5616 0.5451 0.5285 0.5120 0.4956
2863.000000 0.4820 0.4686 0.4479 0.4273 0.4098
2868.000000 0.3923 0.3643 0.3364 0.3238 0.3112
2873.000000 0.2809 0.2506 0.2202 0.1898 0.1883
2878.000000 0.1877 0.1878 0.1878 0.1878 0.1878
2883.000000 0.2168 0.2415 0.2662 0.2909 0.3156
2888.000000 0.3403 0.3648 0.3896 0.4143 0.4390
2893.000000 0.4590 0.4791 0.4790 0.4789 0.4781
2898.000000 0.4795 0.4764 0.4758 0.4745 0.4732
2903.000000 0.4714 0.4698 0.4680 0.4663 0.4654
2908.000000 0.4636 0.4605 0.4583 0.4559 0.4534
2913.000000 0.4499 0.4467 0.4432 0.4398 0.4350
2918.000000 0.4303 0.4242 0.4179 0.4063 0.3951
2923.000000 0.3641 0.3326 0.3139 0.2954 0.2768
2928.000000 0.2582 0.2396 0.2210 0.2023 0.1837
2933.000000 0.1651 0.1465 0.1280 0.1096 0.0957
2938.000000 0.0818 0.0812 0.0779 0.0817 0.0832
2943.000000 0.0969 0.1107 0.1243 0.1381 0.1519
2948.000000 0.1660 0.1798 0.1935 0.2041 0.2146
2953.000000 0.2143 0.2166 0.2132 0.2127 0.2010
2958.000000 0.1897 0.1703 0.1506 0.1314 0.1122
2963.000000 0.0928 0.0736 0.0543 0.0350 0.0158
2968.000000 -0.0034 -0.0036 -0.0036 -0.0036 -0.0036
2973.000000 -0.0036 -0.0036 -0.0036 -0.0036 0.0067
2978.000000 0.0285 0.0710 0.1133 0.1556 0.1981
2983.000000 0.2405 0.2829 0.3254 0.3678 0.4103
2988.000000 0.4527 0.4980 0.5434 0.5609 0.5783
2993.000000 0.5923 0.6058 0.6182 0.6305 0.6500
2998.000000 0.6696 0.6709 0.6714 0.6708 0.6708
3003.000000 0.6715 0.6720 0.6717 0.6708 0.6701
3008.000000 0.6710 0.6712 0.6710 0.6710 0.6710
3013.000000 0.6712 0.6713 0.6735 0.6756 0.6801
3018.000000 0.6833 0.6970 0.7098 0.7200 0.7302
3023.000000 0.7450 0.7596 0.7715 0.7838 0.7880
3028.000000 0.7923 0.7956 0.8001 0.8042 0.8076
3033.000000 0.8121 0.8172 0.8213 0.8266 0.8335
3038.000000 0.8390 0.8450 0.8511 0.8544 0.8579
3043.000000 0.8582 0.8585 0.8589 0.8607 0.8607
3048.000000 0.8619 0.8628 0.8636 0.8640 0.8639
3053.000000 0.8644 0.8659 0.8664 0.8662 0.8677
3058.000000 0.8689 0.8697 0.8692 0.8691 0.8696
3063.000000 0.8700 0.8719 0.8725 0.8729 0.8732
3068.000000 0.8754 0.8742 0.8763 0.8766 0.8772
3073.000000 0.8791 0.8792 0.8782 0.8786 0.8785
3078.000000 0.8772 0.8764 0.8768 0.8771 0.8784
3083.000000 0.8776 0.8779 0.8794 0.8814 0.8810
3088.000000 0.8809 0.8825 0.8845 0.8851 0.8869
3093.000000 0.8873 0.8876 0.8880 0.8865 0.8850
3098.000000 0.8837 0.8840 0.8841 0.8829 0.8832
3103.000000 0.8835 0.8838 0.8841 0.8844 0.8839
3108.000000 0.8832 0.8834 0.8836 0.8839 0.8842
3113.000000 0.8844 0.8847 0.8849 0.8852 0.8854
3118.000000 0.8858 0.8860 0.8863 0.8865 0.8868
3123.000000 0.8870 0.8872 0.8875 0.8878 0.8880
3128.000000 0.8883 0.8885 0.8888 0.8889 0.8891
3133.000000 0.8891 0.8892 0.8893 0.8894 0.8895
3138.000000 0.8896 0.8897 0.8898 0.8887 0.8883
3143.000000 0.8884 0.8885 0.8885 0.8886 0.8887
3148.000000 0.8889 0.8906 0.8908 0.8909 0.8910
3153.000000 0.8910 0.8908 0.8894 0.8898 0.8906
3158.000000 0.8901 0.8913 0.8913 0.8906 0.8905
3163.000000 0.8914 0.8905 0.8897 0.8899 0.8899
3168.000000 0.8900 0.8900 0.8902 0.8902 0.8902
3173.000000 0.8902 0.8902 0.8902 0.8904 0.8904
3178.000000 0.8905 0.8905 0.8905 0.8905 0.8907
3183.000000 0.8907 0.8908 0.8908 0.8915 0.8926
3188.000000 0.8927 0.8920 0.8920 0.8928 0.8929
3193.000000 0.8929 0.8929 0.8930 0.8918 0.8926
3198.000000 0.8918 0.8929 0.8918 0.8916 0.8917
3203.000000 0.8917 0.8918 0.8918 0.8919 0.8919
3208.000000 0.8923 0.8937 0.8938 0.8938 0.8939
3213.000000 0.8939 0.8940 0.8941 0.8943 0.8944
3218.000000 0.8946 0.8948 0.8950 0.8957 0.8965
3223.000000 0.8972 0.8981 0.8975 0.8978 0.8996
3228.000000 0.9003 0.9005 0.9008 0.9010 0.9010
3233.000000 0.9011 0.9011 0.9010 0.9010 0.9009
3238.000000 0.9009 0.9008 0.9007 0.9006 0.9006
3243.000000 0.9005 0.8997 0.8996 0.9004 0.9003
3248.000000 0.9003 0.9002 0.9002 0.9001 0.9001
3253.000000 0.9000 0.9000 0.8999 0.8983 0.8997
3258.000000 0.8997 0.8996 0.8996 0.8995 0.8994
3263.000000 0.8993 0.8993 0.8992 0.8991 0.8990
3268.000000 0.8989 0.8988 0.8988 0.8987 0.8986
3273.000000 0.8985 0.8985 0.8984 0.8971 0.8964
3278.000000 0.8977 0.8980 0.8966 0.8961 0.8974
3283.000000 0.8976 0.8960 0.8958 0.8956 0.8956
3288.000000 0.8956 0.8955 0.8954 0.8952 0.8952
3293.000000 0.8952 0.8951 0.8949 0.8949 0.8949
3298.000000 0.8949 0.8948 0.8948 0.8947 0.8947
3303.000000 0.8946 0.8958 0.8962 0.8962 0.8947
3308.000000 0.8958 0.8960 0.8960 0.8959 0.8959
3313.000000 0.8941 0.8941 0.8940 0.8940 0.8939
3318.000000 0.8939 0.8938 0.8938 0.8937 0.8937
3323.000000 0.8937 0.8937 0.8936 0.8936 0.8935
3328.000000 0.8935 0.8934 0.8934 0.8933 0.8933
3333.000000 0.8932 0.8932 0.8930 0.8945 0.8947
3338.000000 0.8947 0.8929 0.8928 0.8928 0.8943
3343.000000 0.8929 0.8944 0.8939 0.8925 0.8924
3348.000000 0.8924 0.8923 0.8923 0.8923 0.8923
3353.000000 0.8922 0.8922 0.8922 0.8922 0.8922
3358.000000 0.8922 0.8922 0.8922 0.8921 0.8921
3363.000000 0.8921 0.8921 0.8922 0.8922 0.8922
3368.000000 0.8922 0.8923 0.8937 0.8922 0.8922
3373.000000 0.8922 0.8922 0.8922 0.8922 0.8921
3378.000000 0.8921 0.8921 0.8921 0.8921 0.8921
3383.000000 0.8921 0.8921 0.8921 0.8921 0.8921
3388.000000 0.8921 0.8921 0.8921 0.8921 0.8921
3393.000000 0.8920 0.8920 0.8920 0.8920 0.8920
3398.000000 0.8920 0.8920 0.8920 0.8920 0.8920
3403.000000 0.8920 0.8920 0.8920 0.8928 0.8929
3408.000000 0.8920 0.8919 0.8919 0.8919 0.8919
3413.000000 0.8919 0.8919 0.8919 0.8919 0.8919
3418.000000 0.8919 0.8919 0.8920 0.8920 0.8921
3423.000000 0.8921 0.8921 0.8908 0.8924 0.8924
3428.000000 0.8925 0.8925 0.8926 0.8927 0.8928
3433.000000 0.8928 0.8929 0.8929 0.8930 0.8930
3438.000000 0.8931 0.8931 0.8932 0.8932 0.8933
3443.000000 0.8933 0.8934 0.8934 0.8935 0.8937
3448.000000 0.8938 0.8938 0.8939 0.8939 0.8940
3453.000000 0.8940 0.8941 0.8941 0.8942 0.8942
3458.000000 0.8943 0.8943 0.8944 0.8944 0.8945
3463.000000 0.8945 0.8946 0.8947 0.8948 0.8948
3468.000000 0.8949 0.8950 0.8951 0.8951 0.8952
3473.000000 0.8952 0.8952 0.8952 0.8954 0.8954
3478.000000 0.8955 0.8955 0.8955 0.8957 0.8958
3483.000000 0.8958 0.8959 0.8959 0.8959 0.8959
3488.000000 0.8961 0.8961 0.8962 0.8963 0.8963
3493.000000 0.8963 0.8963 0.8963 0.8963 0.8963
3498.000000 0.8963 0.8963 0.8963 0.8962 0.8962
3503.000000 0.8962 0.8962 0.8962 0.8962 0.8962
3508.000000 0.8962 0.8962 0.8962 0.8962 0.8962
3513.000000 0.8962 0.8962 0.8960 0.8960 0.8960
3518.000000 0.8960 0.8960 0.8960 0.8960 0.8960
3523.000000 0.8960 0.8960 0.8960 0.8960 0.8960
3528.000000 0.8960 0.8960 0.8977 0.8977 0.8977
3533.000000 0.8977 0.8977 0.8977 0.8977 0.8973
3538.000000 0.8965 0.8971 0.8967 0.8977 0.8977
3543.000000 0.8977 0.8968 0.8969 0.8976 0.8976
3548.000000 0.8976 0.8964 0.8972 0.8976 0.8976
3553.000000 0.8962 0.8959 0.8975 0.8961 0.8960
3558.000000 0.8960 0.8960 0.8960 0.8960 0.8960
3563.000000 0.8961 0.8961 0.8961 0.8963 0.8963
3568.000000 0.8963 0.8963 0.8964 0.8964 0.8973
3573.000000 0.8981 0.8981 0.8970 0.8976 0.8981
3578.000000 0.8981 0.8981 0.8983 0.8983 0.8983
3583.000000 0.8983 0.8984 0.8984 0.8985 0.8985
3588.000000 0.8987 0.8987 0.8987 0.8987 0.8988
3593.000000 0.8988 0.8987 0.8987 0.8986 0.8981
3598.000000 0.8971 0.8960 0.8967 0.8971 0.8958
3603.000000 0.8962 0.8964 0.8960 0.8958 0.8955
3608.000000 0.8938 0.8949 0.8947 0.8942 0.8937
3613.000000 0.8932 0.8928 0.8922 0.8918 0.8913
3618.000000 0.8908 0.8903 0.8898 0.8893 0.8889
3623.000000 0.8884 0.8879 0.8873 0.8869 0.8865
3628.000000 0.8849 0.8835 0.8841 0.8838 0.8832
3633.000000 0.8810 0.8801 0.8794 0.8788 0.8780
3638.000000 0.8774 0.8767 0.8760 0.8753 0.8747
3643.000000 0.8741 0.8735 0.8729 0.8724 0.8717
3648.000000 0.8712 0.8706 0.8701 0.8697 0.8694
3653.000000 0.8694 0.8694 0.8693 0.8693 0.8699
3658.000000 0.8706 0.8712 0.8719 0.8728 0.8738
3663.000000 0.8749 0.8761 0.8772 0.8784 0.8795
3668.000000 0.8804 0.8818 0.8841 0.8838 0.8848
3673.000000 0.8856 0.8864 0.8870 0.8875 0.8880
3678.000000 0.8885 0.8890 0.8895 0.8900 0.8906
3683.000000 0.8910 0.8916 0.8918 0.8920 0.8935
3688.000000 0.8941 0.8942 0.8943 0.8944 0.8946
3693.000000 0.8947 0.8949 0.8950 0.8954 0.8970
3698.000000 0.8972 0.8973 0.8974 0.8974 0.8974
3703.000000 0.8974 0.8974 0.8973 0.8973 0.8973
3708.000000 0.8973 0.8973 0.8962 0.8967 0.8961
3713.000000 0.8956 0.8956 0.8956 0.8956 0.8955
3718.000000 0.8939 0.8937 0.8954 0.8953 0.8953
3723.000000 0.8952 0.8952 0.8951 0.8950 0.8949
3728.000000 0.8949 0.8948 0.8948 0.8947 0.8939
3733.000000 0.8930 0.8940 0.8949 0.8951 0.8952
3738.000000 0.8954 0.8943 0.8940 0.8942 0.8944
3743.000000 0.8944 0.8946 0.8946 0.8947 0.8947
3748.000000 0.8948 0.8948 0.8948 0.8948 0.8949
3753.000000 0.8949 0.8950 0.8950 0.8951 0.8951
3758.000000 0.8951 0.8959 0.8961 0.8952 0.8953
3763.000000 0.8953 0.8953 0.8953 0.8954 0.8954
3768.000000 0.8955 0.8955 0.8956
##END=
