##TITLE=3-BUTENENITRILE
##JCAMP-DX=4.24
##DATA TYPE=INFRARED SPECTRUM
##CLASS=COBLENTZ III
##ORIGIN=STANDARD OIL OF OHIO
##OWNER=COBLENTZ SOCIETY
Collection (C) 2018 copyright by the U.S. Secretary of Commerce
on behalf of the United States of America. All rights reserved.
##DATE=1969/04/24
##NAMES=ALLYL CYANIDE
##CAS REGISTRY NO=109-75-1
##MOLFORM=C4 H5 N
##SOURCE REFERENCE=COBLENTZ NO. 10257
##$NIST SOURCE=COBLENTZ
##$NIST IMAGE=cob10257
##SPECTROMETER/DATA SYSTEM=PERKIN-ELMER 180 (GRATING)
##INSTRUMENT PARAMETERS=GRATING CHANGES AT 2000, 1000, 500, 250 CM^-^1
##STATE=SOLID (KBr DISC)
##PATH LENGTH=0.0025 CM
##SAMPLING PROCEDURE=TRANSMISSION
##RESOLUTION=4
##DATA PROCESSING=DIGITIZED BY NIST FROM HARD COPY (FROM TWO SEGMENTS)
##XUNITS=1/CM
##YUNITS=TRANSMITTANCE
##XFACTOR=1.000000
##YFACTOR=1
##DELTAX=0.951777
##FIRSTX=391.497
##LASTX=3914.98
##FIRSTY=0.626
##MAXX=3914.98
##MINX=391.497
##MAXY=0.921
##MINY=0.0340015
##NPOINTS=3703
##XYDATA=(X++(Y..Y))
391.497000 0.6260 0.6310 0.6330 0.6350 0.6350
396.255885 0.6370 0.6370 0.6360 0.6360 0.6350
401.014769 0.6340 0.6330 0.6280 0.6260 0.6210
405.773654 0.6160 0.5971 0.5910 0.5771 0.5730
410.532538 0.5730 0.5750 0.5790 0.5860 0.5970
415.291423 0.6070 0.6170 0.6279 0.6350 0.6529
420.050308 0.6600 0.6690 0.6780 0.6880 0.7099
424.809192 0.7210 0.7320 0.7420 0.7529 0.7679
429.568077 0.7820 0.7920 0.7960 0.8020 0.8090
434.326962 0.8200 0.8260 0.8280 0.8300 0.8340
439.085846 0.8370 0.8400 0.8430 0.8490 0.8500
443.844731 0.8550 0.8590 0.8610 0.8630 0.8670
448.603615 0.8710 0.8730 0.8750 0.8780 0.8800
453.362500 0.8810 0.8850 0.8860 0.8890 0.8910
458.121385 0.8930 0.8950 0.8980 0.8990 0.9010
462.880269 0.9040 0.9060 0.9080 0.9110 0.9130
467.639154 0.9140 0.9170 0.9180 0.9190 0.9200
472.398038 0.9210 0.9210 0.9210 0.9210 0.9210
477.156923 0.9210 0.9210 0.9210 0.9210 0.9210
481.915808 0.9210 0.9210 0.9210 0.9210 0.9210
486.674692 0.9210 0.9200 0.9200 0.9200 0.9200
491.433577 0.9200 0.9190 0.9190 0.9190 0.9180
496.192462 0.9170 0.9150 0.9140 0.9120 0.9100
500.951346 0.9070 0.9040 0.9010 0.8950 0.8920
505.710231 0.8890 0.8860 0.8780 0.8720 0.8680
510.469115 0.8600 0.8520 0.8411 0.8340 0.8280
515.228000 0.8210 0.8170 0.8160 0.8170 0.8180
519.986885 0.8200 0.8230 0.8260 0.8290 0.8330
524.745769 0.8400 0.8470 0.8540 0.8620 0.8730
529.504654 0.8800 0.8890 0.8930 0.9010 0.9060
534.263538 0.9100 0.9130 0.9140 0.9150 0.9150
539.022423 0.9170 0.9170 0.9170 0.9170 0.9170
543.781308 0.9170 0.9170 0.9150 0.9150 0.9150
548.540192 0.9140 0.9140 0.9130 0.9110 0.9080
553.299077 0.9070 0.9060 0.9040 0.9020 0.8990
558.057962 0.8970 0.8920 0.8910 0.8860 0.8790
562.816846 0.8740 0.8710 0.8650 0.8610 0.8540
567.575731 0.8420 0.8340 0.8260 0.8141 0.7981
572.334615 0.7900 0.7720 0.7560 0.7400 0.7270
577.093500 0.7101 0.7000 0.6890 0.6671 0.6411
581.852385 0.6150 0.5860 0.5581 0.5271 0.4981
586.611269 0.4671 0.4371 0.4081 0.4010 0.3940
591.370154 0.3760 0.3730 0.3760 0.3850 0.4019
596.129038 0.4159 0.4369 0.4728 0.4989 0.5248
600.887923 0.5510 0.5820 0.6090 0.6340 0.6589
605.646808 0.7039 0.7239 0.7449 0.7649 0.7779
610.405692 0.7860 0.8010 0.8240 0.8400 0.8420
615.164577 0.8430 0.8420 0.8231 0.7812 0.7323
619.923462 0.7140 0.7130 0.7130 0.7130 0.7130
624.682346 0.7140 0.7170 0.7200 0.7260 0.7359
629.441231 0.7390 0.7460 0.7570 0.7690 0.7830
634.200115 0.7960 0.8099 0.8219 0.8300 0.8370
638.959000 0.8490 0.8540 0.8600 0.8670 0.8730
643.717885 0.8780 0.8850 0.8860 0.8870 0.8910
648.476769 0.8940 0.8980 0.9010 0.9020 0.9040
653.235654 0.9060 0.9070 0.9080 0.9100 0.9110
657.994538 0.9120 0.9130 0.9130 0.9140 0.9130
662.753423 0.9130 0.9130 0.9130 0.9130 0.9130
667.512308 0.9130 0.9120 0.9120 0.9120 0.9110
672.271192 0.9110 0.9100 0.9080 0.9080 0.9080
677.030077 0.9070 0.9070 0.9070 0.9060 0.9060
681.788962 0.9050 0.9050 0.9040 0.9020 0.9010
686.547846 0.9010 0.8990 0.8930 0.8920 0.8910
691.306731 0.8890 0.8890 0.8880 0.8850 0.8840
696.065615 0.8820 0.8820 0.8800 0.8780 0.8760
700.824500 0.8730 0.8720 0.8690 0.8670 0.8650
705.583385 0.8610 0.8570 0.8530 0.8470 0.8420
710.342269 0.8360 0.8310 0.8270 0.8151 0.8070
715.101154 0.7970 0.7920 0.7900 0.7890 0.7900
719.860038 0.7920 0.7950 0.7980 0.8040 0.8169
724.618923 0.8280 0.8300 0.8370 0.8500 0.8560
729.377808 0.8630 0.8690 0.8790 0.8850 0.8890
734.136692 0.8910 0.8920 0.8920 0.8930 0.8930
738.895577 0.8920 0.8910 0.8910 0.8910 0.8910
743.654462 0.8910 0.8910 0.8920 0.8920 0.8930
748.413346 0.8930 0.8930 0.8940 0.8940 0.8950
753.172231 0.8980 0.9010 0.9020 0.9050 0.9080
757.931115 0.9110 0.9130 0.9140 0.9140 0.9140
762.690000 0.9140 0.9140 0.9140 0.9140 0.9140
767.448885 0.9140 0.9140 0.9130 0.9130 0.9130
772.207769 0.9130 0.9130 0.9130 0.9130 0.9130
776.966654 0.9120 0.9120 0.9120 0.9120 0.9120
781.725538 0.9120 0.9120 0.9120 0.9120 0.9120
786.484423 0.9120 0.9120 0.9120 0.9120 0.9120
791.243308 0.9120 0.9120 0.9120 0.9110 0.9110
796.002192 0.9110 0.9110 0.9110 0.9110 0.9110
800.761077 0.9110 0.9110 0.9110 0.9110 0.9110
805.519962 0.9110 0.9110 0.9110 0.9100 0.9080
810.278846 0.9080 0.9070 0.9070 0.9060 0.9060
815.037731 0.9050 0.9050 0.9040 0.9040 0.9020
819.796615 0.9020 0.9020 0.9010 0.9000 0.9000
824.555500 0.8990 0.8980 0.8970 0.8970 0.8950
829.314385 0.8940 0.8940 0.8930 0.8920 0.8910
834.073269 0.8890 0.8890 0.8880 0.8860 0.8850
838.832154 0.8840 0.8810 0.8790 0.8780 0.8750
843.591038 0.8730 0.8710 0.8690 0.8670 0.8650
848.349923 0.8620 0.8600 0.8540 0.8490 0.8420
853.108808 0.8340 0.8210 0.7941 0.7920 0.7920
857.867692 0.7960 0.7970 0.7980 0.7980 0.7980
862.626577 0.7970 0.7950 0.7910 0.7860 0.7790
867.385462 0.7750 0.7650 0.7570 0.7520 0.7390
872.144346 0.7310 0.7131 0.7060 0.7020 0.6990
876.903231 0.6970 0.6940 0.6890 0.6860 0.6820
881.662115 0.6760 0.6690 0.6620 0.6531 0.6431
886.421000 0.6290 0.6160 0.5840 0.5600 0.5430
891.179885 0.5141 0.4721 0.4441 0.4211 0.3971
895.938769 0.3530 0.3280 0.3100 0.2950 0.2860
900.697654 0.2810 0.2780 0.2760 0.2760 0.2680
905.456538 0.2520 0.2420 0.2240 0.2021 0.1761
910.215423 0.1491 0.1231 0.1011 0.0930 0.0841
914.974308 0.0730 0.0630 0.0590 0.0570 0.0560
919.733192 0.0540 0.0530 0.0500 0.0490 0.0480
924.492077 0.0480 0.0480 0.0480 0.0480 0.0490
929.250962 0.0500 0.0520 0.0560 0.0620 0.0670
934.009846 0.0750 0.0810 0.1040 0.1170 0.1330
938.768731 0.1499 0.1699 0.1979 0.2080 0.2329
943.527615 0.2590 0.2810 0.3010 0.3180 0.3330
948.286500 0.3460 0.3639 0.4088 0.4199 0.4389
953.045385 0.4500 0.4620 0.4760 0.4890 0.4980
957.804269 0.4980 0.5000 0.4990 0.4980 0.4930
962.563154 0.4910 0.4850 0.4780 0.4650 0.4550
967.322038 0.4420 0.4300 0.4011 0.3861 0.3711
972.080923 0.3420 0.3130 0.2840 0.2531 0.2221
976.839808 0.1901 0.1551 0.1241 0.1111 0.0981
981.598692 0.0810 0.0800 0.0810 0.0820 0.0860
986.357577 0.1000 0.1199 0.1439 0.1629 0.1859
991.116462 0.2110 0.2530 0.2989 0.3299 0.3649
995.875346 0.4208 0.4479 0.4739 0.4989 0.5239
1000.634231 0.5490 0.5700 0.5910 0.6100 0.6269
1005.393115 0.6390 0.6529 0.6669 0.6750 0.6859
1010.152000 0.7070 0.7140 0.7250 0.7320 0.7360
1014.910885 0.7390 0.7430 0.7460 0.7510 0.7570
1019.669769 0.7650 0.7710 0.7760 0.7810 0.7890
1024.428654 0.7940 0.7970 0.8010 0.8040 0.8070
1029.187538 0.8090 0.8110 0.8110 0.8110 0.8130
1033.946423 0.8130 0.8140 0.8140 0.8130 0.8130
1038.705308 0.8130 0.8130 0.8130 0.8130 0.8110
1043.464192 0.8110 0.8100 0.8100 0.8090 0.8080
1048.223077 0.8050 0.8030 0.8000 0.7960 0.7940
1052.981962 0.7900 0.7830 0.7780 0.7730 0.7680
1057.740846 0.7600 0.7530 0.7460 0.7400 0.7360
1062.499731 0.7330 0.7320 0.7320 0.7330 0.7360
1067.258615 0.7390 0.7400 0.7430 0.7500 0.7550
1072.017500 0.7580 0.7650 0.7700 0.7770 0.7840
1076.776385 0.7910 0.7940 0.7980 0.8070 0.8140
1081.535269 0.8220 0.8240 0.8260 0.8260 0.8270
1086.294154 0.8270 0.8270 0.8270 0.8270 0.8270
1091.053038 0.8270 0.8260 0.8260 0.8240 0.8210
1095.811923 0.8170 0.8150 0.8100 0.8030 0.7950
1100.570808 0.7880 0.7760 0.7710 0.7650 0.7640
1105.329692 0.7640 0.7650 0.7700 0.7760 0.7850
1110.088577 0.7980 0.8139 0.8259 0.8310 0.8419
1114.847462 0.8500 0.8560 0.8610 0.8650 0.8710
1119.606346 0.8740 0.8750 0.8780 0.8820 0.8880
1124.365231 0.8890 0.8920 0.8920 0.8950 0.8970
1129.124115 0.8970 0.8980 0.8980 0.8990 0.8990
1133.883000 0.8990 0.9000 0.9000 0.9000 0.9000
1138.641885 0.9000 0.9010 0.9010 0.9010 0.9010
1143.400769 0.9010 0.9010 0.9010 0.9010 0.9010
1148.159654 0.9010 0.9020 0.9020 0.9010 0.9010
1152.918538 0.9010 0.9010 0.9010 0.9010 0.9010
1157.677423 0.9010 0.9010 0.9010 0.9010 0.9010
1162.436308 0.9010 0.9010 0.9010 0.9010 0.9010
1167.195192 0.9010 0.9000 0.9000 0.9000 0.8990
1171.954077 0.8990 0.8990 0.8980 0.8980 0.8980
1176.712962 0.8980 0.8980 0.8970 0.8950 0.8950
1181.471846 0.8940 0.8930 0.8920 0.8920 0.8910
1186.230731 0.8890 0.8890 0.8890 0.8880 0.8860
1190.989615 0.8850 0.8850 0.8840 0.8820 0.8800
1195.748500 0.8790 0.8780 0.8750 0.8720 0.8690
1200.507385 0.8650 0.8620 0.8590 0.8560 0.8550
1205.266269 0.8550 0.8560 0.8570 0.8590 0.8590
1210.025154 0.8610 0.8620 0.8630 0.8650 0.8650
1214.784038 0.8660 0.8660 0.8660 0.8670 0.8670
1219.542923 0.8670 0.8680 0.8680 0.8690 0.8690
1224.301808 0.8690 0.8690 0.8690 0.8690 0.8690
1229.060692 0.8690 0.8690 0.8690 0.8690 0.8690
1233.819577 0.8680 0.8680 0.8670 0.8670 0.8670
1238.578462 0.8660 0.8660 0.8650 0.8630 0.8610
1243.337346 0.8610 0.8600 0.8600 0.8600 0.8590
1248.096231 0.8590 0.8570 0.8560 0.8550 0.8540
1252.855115 0.8520 0.8500 0.8470 0.8430 0.8400
1257.614000 0.8350 0.8310 0.8300 0.8270 0.8220
1262.372885 0.8160 0.8110 0.8070 0.8030 0.8010
1267.131769 0.7980 0.7960 0.7920 0.7860 0.7820
1271.890654 0.7790 0.7730 0.7660 0.7580 0.7520
1276.649538 0.7380 0.7230 0.7060 0.7010 0.6950
1281.408423 0.6930 0.6940 0.6970 0.7050 0.7060
1286.167308 0.7050 0.7040 0.7000 0.6980 0.6950
1290.926192 0.6870 0.6860 0.6870 0.6910 0.7129
1295.685077 0.7270 0.7440 0.7590 0.7760 0.7900
1300.443962 0.8040 0.8160 0.8240 0.8260 0.8280
1305.202846 0.8290 0.8290 0.8290 0.8300 0.8300
1309.961731 0.8290 0.8290 0.8280 0.8280 0.8280
1314.720615 0.8280 0.8290 0.8300 0.8310 0.8350
1319.479500 0.8400 0.8460 0.8480 0.8500 0.8520
1324.238385 0.8520 0.8520 0.8520 0.8520 0.8520
1328.997269 0.8520 0.8520 0.8520 0.8520 0.8500
1333.756154 0.8500 0.8490 0.8490 0.8490 0.8490
1338.515038 0.8480 0.8470 0.8470 0.8460 0.8460
1343.273923 0.8440 0.8440 0.8430 0.8430 0.8420
1348.032808 0.8420 0.8410 0.8390 0.8370 0.8350
1352.791692 0.8340 0.8330 0.8300 0.8280 0.8260
1357.550577 0.8240 0.8220 0.8180 0.8170 0.8170
1362.309462 0.8160 0.8150 0.8140 0.8110 0.8080
1367.068346 0.8050 0.8020 0.7980 0.7940 0.7851
1371.827231 0.7780 0.7730 0.7680 0.7580 0.7510
1376.586115 0.7440 0.7390 0.7390 0.7370 0.7360
1381.345000 0.7320 0.7250 0.7130 0.7070 0.7040
1386.103885 0.6990 0.6870 0.6780 0.6661 0.6531
1390.862769 0.6370 0.6280 0.6150 0.5960 0.5721
1395.621654 0.5561 0.5301 0.4971 0.4562 0.4132
1400.380538 0.3900 0.3680 0.3241 0.2811 0.2431
1405.139423 0.2021 0.1661 0.1332 0.1061 0.0881
1409.898308 0.0710 0.0470 0.0350 0.0340 0.0350
1414.657192 0.0360 0.0440 0.0589 0.1148 0.1498
1419.416077 0.1910 0.2310 0.2879 0.3309 0.4068
1424.174962 0.4409 0.4729 0.5019 0.5309 0.5579
1428.933846 0.5840 0.6070 0.6280 0.6390 0.6470
1433.692731 0.6560 0.6650 0.6750 0.6859 0.7039
1438.451615 0.7140 0.7270 0.7380 0.7500 0.7580
1443.210500 0.7660 0.7730 0.7849 0.7920 0.7960
1447.969385 0.8030 0.8180 0.8270 0.8300 0.8310
1452.728269 0.8310 0.8310 0.8330 0.8340 0.8370
1457.487154 0.8410 0.8420 0.8430 0.8430 0.8440
1462.246038 0.8440 0.8460 0.8460 0.8460 0.8460
1467.004923 0.8460 0.8460 0.8460 0.8460 0.8470
1471.763808 0.8470 0.8470 0.8470 0.8480 0.8480
1476.522692 0.8480 0.8490 0.8490 0.8520 0.8540
1481.281577 0.8550 0.8560 0.8570 0.8570 0.8590
1486.040462 0.8590 0.8590 0.8600 0.8620 0.8650
1490.799346 0.8660 0.8660 0.8670 0.8680 0.8680
1495.558231 0.8690 0.8720 0.8740 0.8790 0.8800
1500.317115 0.8820 0.8840 0.8840 0.8840 0.8840
1505.076000 0.8840 0.8840 0.8840 0.8840 0.8850
1509.834885 0.8850 0.8840 0.8840 0.8840 0.8840
1514.593769 0.8840 0.8840 0.8840 0.8840 0.8840
1519.352654 0.8840 0.8840 0.8840 0.8840 0.8820
1524.111538 0.8820 0.8810 0.8800 0.8800 0.8790
1528.870423 0.8790 0.8780 0.8760 0.8730 0.8710
1533.629308 0.8710 0.8690 0.8690 0.8680 0.8670
1538.388192 0.8670 0.8660 0.8660 0.8660 0.8660
1543.147077 0.8660 0.8660 0.8660 0.8660 0.8660
1547.905962 0.8660 0.8660 0.8660 0.8660 0.8660
1552.664846 0.8660 0.8660 0.8660 0.8660 0.8660
1557.423731 0.8660 0.8660 0.8660 0.8660 0.8660
1562.182615 0.8660 0.8660 0.8660 0.8660 0.8660
1566.941500 0.8660 0.8660 0.8670 0.8670 0.8670
1571.700385 0.8670 0.8670 0.8690 0.8710 0.8720
1576.459269 0.8740 0.8750 0.8760 0.8780 0.8780
1581.218154 0.8780 0.8790 0.8790 0.8790 0.8790
1585.977038 0.8790 0.8790 0.8790 0.8790 0.8790
1590.735923 0.8790 0.8790 0.8790 0.8780 0.8780
1595.494808 0.8780 0.8760 0.8760 0.8740 0.8730
1600.253692 0.8710 0.8680 0.8670 0.8660 0.8650
1605.012577 0.8620 0.8590 0.8560 0.8540 0.8480
1609.771462 0.8420 0.8350 0.8290 0.8170 0.8130
1614.530346 0.8090 0.8050 0.8010 0.7970 0.7950
1619.289231 0.7920 0.7860 0.7820 0.7790 0.7760
1624.048115 0.7700 0.7640 0.7560 0.7510 0.7321
1628.807000 0.7170 0.7020 0.6870 0.6561 0.6271
1633.565885 0.5791 0.5421 0.4165 0.3443 0.2714
1638.324769 0.2240 0.1621 0.1251 0.1250 0.1948
1643.083654 0.2090 0.4043 0.4727 0.5417 0.5877
1647.842538 0.7379 0.7520 0.7680 0.7890 0.8089
1652.601423 0.8210 0.8290 0.8360 0.8440 0.8520
1657.360308 0.8600 0.8650 0.8660 0.8690 0.8740
1662.119192 0.8790 0.8880 0.8890 0.8910 0.8920
1666.878077 0.8930 0.8940 0.8950 0.8950 0.8970
1671.636962 0.8970 0.8980 0.8990 0.9000 0.9000
1676.395846 0.9000 0.9010 0.9010 0.9010 0.9010
1681.154731 0.9010 0.9010 0.9010 0.9010 0.9010
1685.913615 0.9010 0.9020 0.9020 0.9020 0.9020
1690.672500 0.9020 0.9020 0.9020 0.9020 0.9040
1695.431385 0.9040 0.9020 0.9020 0.9040 0.9040
1700.190269 0.9050 0.9040 0.9040 0.9040 0.9040
1704.949154 0.9040 0.9040 0.9040 0.9040 0.9040
1709.708038 0.9040 0.9040 0.9040 0.9040 0.9040
1714.466923 0.9040 0.9040 0.9040 0.9040 0.9040
1719.225808 0.9040 0.9040 0.9040 0.9040 0.9050
1723.984692 0.9060 0.9060 0.9060 0.9060 0.9060
1728.743577 0.9060 0.9060 0.9060 0.9060 0.9060
1733.502462 0.9060 0.9060 0.9060 0.9060 0.9060
1738.261346 0.9060 0.9060 0.9060 0.9060 0.9060
1743.020231 0.9060 0.9060 0.9060 0.9060 0.9060
1747.779115 0.9050 0.9050 0.9050 0.9040 0.9040
1752.538000 0.9020 0.9020 0.9010 0.9010 0.9000
1757.296885 0.9000 0.9000 0.8990 0.8990 0.8990
1762.055769 0.8980 0.8980 0.8980 0.8970 0.8970
1766.814654 0.8970 0.8970 0.8950 0.8950 0.8950
1771.573538 0.8950 0.8950 0.8950 0.8950 0.8950
1776.332423 0.8950 0.8950 0.8950 0.8950 0.8950
1781.091308 0.8950 0.8950 0.8950 0.8950 0.8950
1785.850192 0.8950 0.8950 0.8940 0.8940 0.8940
1790.609077 0.8940 0.8930 0.8930 0.8930 0.8910
1795.367962 0.8910 0.8910 0.8890 0.8890 0.8880
1800.126846 0.8880 0.8880 0.8870 0.8870 0.8870
1804.885731 0.8860 0.8860 0.8850 0.8850 0.8850
1809.644615 0.8840 0.8840 0.8820 0.8820 0.8820
1814.403500 0.8810 0.8810 0.8800 0.8790 0.8780
1819.162385 0.8750 0.8720 0.8710 0.8690 0.8670
1823.921269 0.8660 0.8650 0.8620 0.8590 0.8560
1828.680154 0.8540 0.8520 0.8500 0.8470 0.8440
1833.439038 0.8420 0.8410 0.8400 0.8400 0.8390
1838.197923 0.8370 0.8350 0.8340 0.8330 0.8310
1842.956808 0.8300 0.8300 0.8290 0.8270 0.8260
1847.715692 0.8240 0.8240 0.8180 0.8140 0.8130
1852.474577 0.8090 0.8090 0.8090 0.8090 0.8080
1857.233462 0.8080 0.8080 0.8080 0.8080 0.8080
1861.992346 0.8080 0.8080 0.8080 0.8080 0.8080
1866.751231 0.8090 0.8090 0.8110 0.8140 0.8170
1871.510115 0.8220 0.8230 0.8230 0.8240 0.8240
1876.269000 0.8240 0.8260 0.8280 0.8300 0.8310
1881.027885 0.8340 0.8360 0.8400 0.8420 0.8460
1885.786769 0.8490 0.8500 0.8520 0.8540 0.8570
1890.545654 0.8610 0.8630 0.8650 0.8650 0.8660
1895.304538 0.8670 0.8670 0.8690 0.8710 0.8730
1900.063423 0.8740 0.8750 0.8760 0.8760 0.8760
1904.822308 0.8760 0.8760 0.8760 0.8760 0.8780
1909.581192 0.8780 0.8790 0.8790 0.8800 0.8800
1914.340077 0.8800 0.8810 0.8810 0.8810 0.8820
1919.098962 0.8820 0.8820 0.8820 0.8820 0.8840
1923.857846 0.8840 0.8840 0.8840 0.8840 0.8840
1928.616731 0.8840 0.8840 0.8840 0.8840 0.8840
1933.375615 0.8840 0.8840 0.8840 0.8840 0.8840
1938.134500 0.8840 0.8840 0.8840 0.8820 0.8820
1942.893385 0.8820 0.8820 0.8820 0.8810 0.8810
1947.652269 0.8810 0.8810 0.8800 0.8790 0.8760
1952.411154 0.8730 0.8690 0.8680 0.8680 0.8680
1957.170038 0.8670 0.8670 0.8660 0.8660 0.8660
1961.928923 0.8660 0.8660 0.8660 0.8660 0.8660
1966.687808 0.8660 0.8660 0.8660 0.8660 0.8660
1971.446692 0.8670 0.8670 0.8670 0.8680 0.8710
1976.205577 0.8730 0.8740 0.8750 0.8760 0.8780
1980.964462 0.8790 0.8800 0.8810 0.8810 0.8820
1985.723346 0.8820 0.8820 0.8820 0.8820 0.8820
1990.482231 0.8820 0.8820 0.8820 0.8810 0.8810
1995.241115 0.8810 0.8810 0.8810 0.8800 0.8800
2000.000000 0.8790 0.8790 0.8790 0.8795 0.8800
2004.758885 0.8800 0.8800 0.8800 0.8800 0.8800
2009.517769 0.8800 0.8800 0.8800 0.8800 0.8800
2014.276654 0.8800 0.8800 0.8800 0.8800 0.8800
2019.035538 0.8800 0.8800 0.8800 0.8800 0.8800
2023.794423 0.8800 0.8800 0.8800 0.8800 0.8800
2028.553308 0.8800 0.8800 0.8800 0.8800 0.8800
2033.312192 0.8800 0.8800 0.8800 0.8800 0.8800
2038.071077 0.8800 0.8800 0.8800 0.8800 0.8800
2042.829962 0.8800 0.8800 0.8800 0.8800 0.8800
2047.588846 0.8800 0.8800 0.8800 0.8800 0.8800
2052.347731 0.8800 0.8800 0.8800 0.8800 0.8800
2057.106615 0.8800 0.8800 0.8800 0.8800 0.8800
2061.865500 0.8800 0.8800 0.8800 0.8800 0.8800
2066.624385 0.8800 0.8800 0.8800 0.8800 0.8800
2071.383269 0.8800 0.8800 0.8800 0.8800 0.8800
2076.142154 0.8800 0.8800 0.8800 0.8800 0.8800
2080.901038 0.8800 0.8800 0.8800 0.8800 0.8800
2085.659923 0.8800 0.8800 0.8800 0.8800 0.8800
2090.418808 0.8800 0.8800 0.8800 0.8799 0.8794
2095.177692 0.8790 0.8790 0.8790 0.8790 0.8790
2099.936577 0.8790 0.8790 0.8790 0.8790 0.8790
2104.695462 0.8789 0.8784 0.8780 0.8780 0.8780
2109.454346 0.8780 0.8780 0.8780 0.8780 0.8780
2114.213231 0.8780 0.8780 0.8780 0.8780 0.8777
2118.972115 0.8767 0.8760 0.8760 0.8760 0.8760
2123.731000 0.8760 0.8760 0.8760 0.8760 0.8760
2128.489885 0.8760 0.8758 0.8753 0.8750 0.8750
2133.248769 0.8750 0.8750 0.8748 0.8743 0.8740
2138.007654 0.8740 0.8738 0.8733 0.8728 0.8723
2142.766538 0.8720 0.8720 0.8718 0.8713 0.8710
2147.525423 0.8710 0.8710 0.8710 0.8706 0.8696
2152.284308 0.8688 0.8683 0.8680 0.8680 0.8680
2157.043192 0.8680 0.8678 0.8673 0.8670 0.8670
2161.802077 0.8670 0.8670 0.8670 0.8670 0.8670
2166.560962 0.8670 0.8668 0.8663 0.8660 0.8660
2171.319846 0.8658 0.8653 0.8650 0.8650 0.8645
2176.078731 0.8635 0.8630 0.8630 0.8628 0.8623
2180.837615 0.8618 0.8613 0.8605 0.8595 0.8585
2185.596500 0.8575 0.8568 0.8563 0.8555 0.8545
2190.355385 0.8535 0.8525 0.8520 0.8520 0.8515
2195.114269 0.8505 0.8500 0.8500 0.8500 0.8500
2199.873154 0.8497 0.8492 0.8485 0.8475 0.8459
2204.632038 0.8439 0.8425 0.8415 0.8394 0.8363
2209.390923 0.8319 0.8264 0.8159 0.8013 0.7880
2214.149808 0.7754 0.7663 0.7598 0.7570 0.7570
2218.908692 0.7567 0.7562 0.7560 0.7560 0.7551
2223.667577 0.7536 0.7507 0.7467 0.7355 0.7193
2228.426462 0.7084 0.7009 0.6931 0.6851 0.6722
2233.185346 0.6561 0.6373 0.6168 0.5925 0.5660
2237.944231 0.5329 0.4958 0.4660 0.4405 0.4146
2242.703115 0.3886 0.3540 0.3144 0.2920 0.2793
2247.462000 0.2753 0.2758 0.2800 0.2860 0.3276
2252.220885 0.3872 0.4234 0.4479 0.4705 0.4920
2256.979769 0.5115 0.5300 0.5472 0.5637 0.5799
2261.738654 0.5959 0.6126 0.6297 0.6617 0.7007
2266.497538 0.7234 0.7394 0.7540 0.7680 0.7810
2271.256423 0.7935 0.8056 0.8176 0.8221 0.8236
2276.015308 0.8251 0.8266 0.8281 0.8296 0.8318
2280.774192 0.8343 0.8372 0.8402 0.8414 0.8419
2285.533077 0.8435 0.8455 0.8464 0.8469 0.8478
2290.291962 0.8488 0.8494 0.8499 0.8508 0.8518
2295.050846 0.8528 0.8538 0.8552 0.8567 0.8578
2299.809731 0.8588 0.8598 0.8608 0.8614 0.8619
2304.568615 0.8620 0.8620 0.8624 0.8629 0.8630
2309.327500 0.8630 0.8630 0.8630 0.8630 0.8630
2314.086385 0.8630 0.8630 0.8630 0.8630 0.8630
2318.845269 0.8630 0.8630 0.8630 0.8630 0.8630
2323.604154 0.8630 0.8630 0.8630 0.8630 0.8630
2328.363038 0.8630 0.8630 0.8630 0.8630 0.8630
2333.121923 0.8630 0.8630 0.8630 0.8630 0.8630
2337.880808 0.8630 0.8630 0.8630 0.8630 0.8630
2342.639692 0.8630 0.8630 0.8630 0.8630 0.8630
2347.398577 0.8630 0.8630 0.8630 0.8630 0.8630
2352.157462 0.8625 0.8620 0.8620 0.8620 0.8620
2356.916346 0.8620 0.8620 0.8620 0.8620 0.8620
2361.675231 0.8620 0.8620 0.8620 0.8620 0.8620
2366.434115 0.8620 0.8620 0.8620 0.8620 0.8620
2371.193000 0.8620 0.8620 0.8620 0.8620 0.8620
2375.951885 0.8620 0.8620 0.8620 0.8620 0.8620
2380.710769 0.8620 0.8620 0.8620 0.8620 0.8620
2385.469654 0.8620 0.8620 0.8620 0.8620 0.8620
2390.228538 0.8620 0.8620 0.8620 0.8620 0.8620
2394.987423 0.8620 0.8620 0.8620 0.8620 0.8620
2399.746308 0.8625 0.8630 0.8625 0.8620 0.8620
2404.505192 0.8620 0.8620 0.8620 0.8620 0.8620
2409.264077 0.8620 0.8620 0.8620 0.8620 0.8620
2414.022962 0.8620 0.8620 0.8620 0.8620 0.8620
2418.781846 0.8620 0.8620 0.8620 0.8620 0.8620
2423.540731 0.8620 0.8620 0.8620 0.8620 0.8620
2428.299615 0.8620 0.8620 0.8620 0.8620 0.8620
2433.058500 0.8620 0.8620 0.8620 0.8620 0.8620
2437.817385 0.8620 0.8620 0.8620 0.8620 0.8620
2442.576269 0.8620 0.8620 0.8620 0.8620 0.8620
2447.335154 0.8620 0.8620 0.8620 0.8620 0.8620
2452.094038 0.8620 0.8620 0.8620 0.8620 0.8620
2456.852923 0.8620 0.8620 0.8620 0.8620 0.8620
2461.611808 0.8620 0.8620 0.8620 0.8620 0.8619
2466.370692 0.8614 0.8610 0.8610 0.8610 0.8610
2471.129577 0.8610 0.8610 0.8610 0.8610 0.8610
2475.888462 0.8610 0.8610 0.8610 0.8610 0.8610
2480.647346 0.8610 0.8610 0.8610 0.8610 0.8609
2485.406231 0.8604 0.8600 0.8600 0.8600 0.8600
2490.165115 0.8600 0.8600 0.8599 0.8593 0.8590
2494.924000 0.8590 0.8590 0.8590 0.8590 0.8590
2499.682885 0.8590 0.8590 0.8590 0.8590 0.8590
2504.441769 0.8590 0.8590 0.8590 0.8590 0.8590
2509.200654 0.8590 0.8590 0.8590 0.8590 0.8590
2513.959538 0.8590 0.8590 0.8590 0.8590 0.8590
2518.718423 0.8590 0.8590 0.8590 0.8590 0.8590
2523.477308 0.8590 0.8590 0.8590 0.8590 0.8590
2528.236192 0.8590 0.8590 0.8590 0.8590 0.8590
2532.995077 0.8590 0.8590 0.8590 0.8590 0.8590
2537.753962 0.8586 0.8576 0.8570 0.8570 0.8570
2542.512846 0.8570 0.8568 0.8563 0.8560 0.8560
2547.271731 0.8558 0.8553 0.8550 0.8550 0.8548
2552.030615 0.8543 0.8540 0.8540 0.8540 0.8540
2556.789500 0.8540 0.8540 0.8540 0.8540 0.8540
2561.548385 0.8540 0.8540 0.8540 0.8540 0.8540
2566.307269 0.8540 0.8540 0.8540 0.8540 0.8540
2571.066154 0.8540 0.8540 0.8540 0.8540 0.8540
2575.825038 0.8540 0.8540 0.8537 0.8532 0.8530
2580.583923 0.8530 0.8530 0.8530 0.8530 0.8530
2585.342808 0.8527 0.8522 0.8520 0.8520 0.8520
2590.101692 0.8520 0.8514 0.8504 0.8497 0.8492
2594.860577 0.8490 0.8490 0.8490 0.8490 0.8490
2599.619462 0.8490 0.8490 0.8490 0.8490 0.8490
2604.378346 0.8490 0.8490 0.8493 0.8498 0.8500
2609.137231 0.8500 0.8506 0.8516 0.8526 0.8536
2613.896115 0.8546 0.8556 0.8563 0.8568 0.8570
2618.655000 0.8570 0.8576 0.8586 0.8590 0.8590
2623.413885 0.8590 0.8590 0.8590 0.8590 0.8590
2628.172769 0.8590 0.8590 0.8590 0.8590 0.8590
2632.931654 0.8593 0.8598 0.8600 0.8600 0.8600
2637.690538 0.8600 0.8600 0.8600 0.8600 0.8600
2642.449423 0.8600 0.8600 0.8600 0.8600 0.8600
2647.208308 0.8600 0.8600 0.8600 0.8600 0.8600
2651.967192 0.8600 0.8600 0.8600 0.8600 0.8600
2656.726077 0.8600 0.8600 0.8600 0.8600 0.8600
2661.484962 0.8600 0.8600 0.8600 0.8600 0.8600
2666.243846 0.8600 0.8596 0.8591 0.8590 0.8590
2671.002731 0.8590 0.8590 0.8590 0.8590 0.8590
2675.761615 0.8590 0.8582 0.8572 0.8570 0.8570
2680.520500 0.8566 0.8561 0.8556 0.8551 0.8546
2685.279385 0.8541 0.8540 0.8540 0.8536 0.8531
2690.038269 0.8530 0.8530 0.8530 0.8530 0.8530
2694.797154 0.8530 0.8530 0.8530 0.8530 0.8530
2699.556038 0.8526 0.8521 0.8524 0.8529 0.8530
2704.314923 0.8530 0.8530 0.8530 0.8530 0.8530
2709.073808 0.8530 0.8530 0.8530 0.8530 0.8530
2713.832692 0.8530 0.8530 0.8530 0.8530 0.8530
2718.591577 0.8530 0.8530 0.8530 0.8530 0.8530
2723.350462 0.8530 0.8530 0.8530 0.8530 0.8530
2728.109346 0.8530 0.8530 0.8530 0.8530 0.8530
2732.868231 0.8530 0.8530 0.8530 0.8530 0.8530
2737.627115 0.8530 0.8530 0.8530 0.8530 0.8530
2742.386000 0.8530 0.8530 0.8530 0.8530 0.8530
2747.144885 0.8530 0.8530 0.8525 0.8520 0.8520
2751.903769 0.8520 0.8520 0.8520 0.8510 0.8500
2756.662654 0.8500 0.8500 0.8495 0.8490 0.8490
2761.421538 0.8490 0.8490 0.8490 0.8485 0.8480
2766.180423 0.8480 0.8480 0.8480 0.8480 0.8480
2770.939308 0.8480 0.8475 0.8470 0.8465 0.8460
2775.698192 0.8449 0.8440 0.8440 0.8440 0.8435
2780.457077 0.8430 0.8425 0.8419 0.8409 0.8400
2785.215962 0.8395 0.8389 0.8374 0.8359 0.8349
2789.974846 0.8340 0.8340 0.8340 0.8335 0.8329
2794.733731 0.8319 0.8309 0.8299 0.8289 0.8279
2799.492615 0.8265 0.8230 0.8198 0.8183 0.8168
2804.251500 0.8153 0.8139 0.8134 0.8130 0.8130
2809.010385 0.8130 0.8130 0.8130 0.8130 0.8130
2813.769269 0.8130 0.8130 0.8130 0.8130 0.8130
2818.528154 0.8130 0.8130 0.8128 0.8118 0.8110
2823.287038 0.8110 0.8109 0.8104 0.8100 0.8100
2828.045923 0.8099 0.8094 0.8090 0.8090 0.8089
2832.804808 0.8084 0.8080 0.8080 0.8079 0.8074
2837.563692 0.8068 0.8058 0.8048 0.8038 0.8029
2842.322577 0.8024 0.8019 0.8014 0.8009 0.8004
2847.081462 0.7996 0.7981 0.7969 0.7964 0.7957
2851.840346 0.7947 0.7935 0.7915 0.7893 0.7868
2856.599231 0.7846 0.7831 0.7816 0.7801 0.7789
2861.358115 0.7784 0.7779 0.7774 0.7764 0.7744
2866.117000 0.7727 0.7717 0.7707 0.7697 0.7685
2870.875885 0.7670 0.7657 0.7647 0.7637 0.7627
2875.634769 0.7615 0.7600 0.7585 0.7570 0.7553
2880.393654 0.7533 0.7518 0.7513 0.7503 0.7483
2885.152538 0.7463 0.7443 0.7423 0.7403 0.7378
2889.911423 0.7343 0.7313 0.7293 0.7261 0.7211
2894.670308 0.7167 0.7132 0.7096 0.7061 0.7032
2899.429192 0.7012 0.6990 0.6965 0.6932 0.6887
2904.188077 0.6840 0.6790 0.6734 0.6669 0.6604
2908.946962 0.6539 0.6465 0.6379 0.6302 0.6237
2913.705846 0.6139 0.5999 0.5896 0.5841 0.5810
2918.464731 0.5810 0.5806 0.5796 0.5790 0.5790
2923.223615 0.5790 0.5790 0.5788 0.5783 0.5775
2927.982500 0.5765 0.5744 0.5708 0.5688 0.5683
2932.741385 0.5680 0.5680 0.5682 0.5687 0.5697
2937.500269 0.5712 0.5735 0.5765 0.5820 0.5900
2942.259154 0.5965 0.6015 0.6063 0.6108 0.6140
2947.018038 0.6160 0.6173 0.6178 0.6185 0.6195
2951.776923 0.6200 0.6200 0.6203 0.6208 0.6210
2956.535808 0.6210 0.6213 0.6218 0.6225 0.6235
2961.294692 0.6257 0.6287 0.6311 0.6331 0.6346
2966.053577 0.6356 0.6360 0.6360 0.6354 0.6344
2970.812462 0.6331 0.6316 0.6304 0.6294 0.6287
2975.571346 0.6282 0.6250 0.6200 0.6153 0.6108
2980.330231 0.6045 0.5970 0.5867 0.5747 0.5624
2985.089115 0.5499 0.5447 0.5442 0.5446 0.5456
2989.848000 0.5501 0.5567 0.5670 0.5795 0.5949
2994.606885 0.6120 0.6219 0.6279 0.6414 0.6589
2999.365769 0.6657 0.6667 0.6670 0.6670 0.6667
3004.124654 0.6662 0.6657 0.6652 0.6643 0.6633
3008.883538 0.6623 0.6613 0.6607 0.6602 0.6583
3013.642423 0.6558 0.6526 0.6491 0.6448 0.6403
3018.401308 0.6355 0.6305 0.6241 0.6170 0.6083
3023.160192 0.5987 0.5956 0.5951 0.5954 0.5959
3027.919077 0.5986 0.6021 0.6060 0.6100 0.6170
3032.677962 0.6250 0.6352 0.6462 0.6550 0.6630
3037.436846 0.6722 0.6817 0.6851 0.6866 0.6870
3042.195731 0.6870 0.6866 0.6861 0.6860 0.6860
3046.954615 0.6856 0.6851 0.6850 0.6850 0.6846
3051.713500 0.6841 0.6832 0.6822 0.6812 0.6802
3056.472385 0.6784 0.6764 0.6748 0.6733 0.6698
3061.231269 0.6658 0.6625 0.6595 0.6552 0.6507
3065.990154 0.6471 0.6436 0.6379 0.6319 0.6234
3070.749038 0.6144 0.6054 0.5963 0.5933 0.5913
3075.507923 0.5906 0.5901 0.5900 0.5900 0.5883
3080.266808 0.5863 0.5803 0.5737 0.5672 0.5607
3085.025692 0.5484 0.5354 0.5126 0.4885 0.4842
3089.784577 0.4822 0.4838 0.4858 0.4968 0.5089
3094.543462 0.5236 0.5386 0.5618 0.5858 0.6053
3099.302346 0.6244 0.6385 0.6521 0.6755 0.6996
3104.061231 0.7024 0.7039 0.7172 0.7312 0.7358
3108.820115 0.7398 0.7424 0.7449 0.7474 0.7499
3113.579000 0.7533 0.7569 0.7594 0.7619 0.7639
3118.337885 0.7659 0.7684 0.7710 0.7740 0.7770
3123.096769 0.7790 0.7810 0.7825 0.7840 0.7875
3127.855654 0.7910 0.7915 0.7920 0.7935 0.7950
3132.614538 0.7965 0.7980 0.7990 0.8000 0.8010
3137.373423 0.8020 0.8025 0.8030 0.8035 0.8040
3142.132308 0.8045 0.8050 0.8060 0.8070 0.8075
3146.891192 0.8080 0.8080 0.8080 0.8080 0.8080
3151.650077 0.8080 0.8080 0.8080 0.8080 0.8080
3156.408962 0.8080 0.8080 0.8080 0.8080 0.8080
3161.167846 0.8080 0.8080 0.8080 0.8080 0.8080
3165.926731 0.8079 0.8074 0.8070 0.8070 0.8070
3170.685615 0.8070 0.8070 0.8070 0.8070 0.8070
3175.444500 0.8069 0.8059 0.8050 0.8050 0.8050
3180.203385 0.8050 0.8051 0.8061 0.8070 0.8070
3184.962269 0.8070 0.8070 0.8070 0.8070 0.8070
3189.721154 0.8070 0.8070 0.8070 0.8070 0.8070
3194.480038 0.8071 0.8076 0.8080 0.8080 0.8080
3199.238923 0.8080 0.8081 0.8086 0.8095 0.8120
3203.997808 0.8143 0.8158 0.8173 0.8188 0.8203
3208.756692 0.8218 0.8231 0.8236 0.8244 0.8264
3213.515577 0.8283 0.8298 0.8312 0.8322 0.8332
3218.274462 0.8342 0.8352 0.8362 0.8373 0.8383
3223.033346 0.8393 0.8403 0.8410 0.8410 0.8411
3227.792231 0.8416 0.8420 0.8420 0.8421 0.8426
3232.551115 0.8430 0.8430 0.8431 0.8436 0.8440
3237.310000 0.8440 0.8440 0.8440 0.8440 0.8440
3242.068885 0.8440 0.8440 0.8440 0.8440 0.8440
3246.827769 0.8440 0.8440 0.8440 0.8440 0.8440
3251.586654 0.8440 0.8440 0.8443 0.8453 0.8457
3256.345538 0.8447 0.8440 0.8440 0.8440 0.8440
3261.104423 0.8444 0.8454 0.8460 0.8460 0.8460
3265.863308 0.8460 0.8460 0.8460 0.8460 0.8460
3270.622192 0.8460 0.8460 0.8460 0.8460 0.8460
3275.381077 0.8460 0.8460 0.8460 0.8460 0.8460
3280.139962 0.8460 0.8460 0.8460 0.8460 0.8460
3284.898846 0.8460 0.8460 0.8460 0.8460 0.8460
3289.657731 0.8460 0.8460 0.8460 0.8460 0.8460
3294.416615 0.8460 0.8460 0.8460 0.8460 0.8460
3299.175500 0.8462 0.8467 0.8470 0.8470 0.8470
3303.934385 0.8470 0.8470 0.8470 0.8470 0.8470
3308.693269 0.8470 0.8470 0.8470 0.8470 0.8470
3313.452154 0.8470 0.8470 0.8470 0.8470 0.8470
3318.211038 0.8473 0.8478 0.8480 0.8480 0.8480
3322.969923 0.8480 0.8480 0.8480 0.8480 0.8480
3327.728808 0.8480 0.8480 0.8480 0.8480 0.8480
3332.487692 0.8480 0.8480 0.8480 0.8480 0.8480
3337.246577 0.8480 0.8480 0.8480 0.8480 0.8480
3342.005462 0.8480 0.8480 0.8480 0.8480 0.8480
3346.764346 0.8480 0.8480 0.8480 0.8480 0.8480
3351.523231 0.8480 0.8480 0.8480 0.8480 0.8480
3356.282115 0.8480 0.8480 0.8480 0.8480 0.8480
3361.041000 0.8480 0.8480 0.8480 0.8480 0.8480
3365.799885 0.8480 0.8480 0.8480 0.8480 0.8480
3370.558769 0.8480 0.8480 0.8480 0.8480 0.8480
3375.317654 0.8480 0.8480 0.8480 0.8480 0.8480
3380.076538 0.8480 0.8480 0.8480 0.8480 0.8480
3384.835423 0.8480 0.8480 0.8480 0.8480 0.8480
3389.594308 0.8480 0.8480 0.8480 0.8480 0.8480
3394.353192 0.8480 0.8480 0.8480 0.8480 0.8480
3399.112077 0.8480 0.8484 0.8489 0.8486 0.8481
3403.870962 0.8480 0.8480 0.8480 0.8480 0.8480
3408.629846 0.8480 0.8480 0.8480 0.8480 0.8480
3413.388731 0.8480 0.8480 0.8480 0.8480 0.8480
3418.147615 0.8480 0.8480 0.8480 0.8480 0.8480
3422.906500 0.8480 0.8480 0.8480 0.8480 0.8480
3427.665385 0.8480 0.8480 0.8480 0.8480 0.8480
3432.424269 0.8480 0.8480 0.8480 0.8480 0.8480
3437.183154 0.8480 0.8476 0.8471 0.8470 0.8470
3441.942038 0.8470 0.8470 0.8470 0.8470 0.8474
3446.700923 0.8479 0.8480 0.8480 0.8480 0.8480
3451.459808 0.8476 0.8471 0.8470 0.8470 0.8466
3456.218692 0.8461 0.8451 0.8441 0.8440 0.8440
3460.977577 0.8436 0.8431 0.8430 0.8430 0.8430
3465.736462 0.8430 0.8425 0.8420 0.8420 0.8420
3470.495346 0.8420 0.8420 0.8420 0.8420 0.8415
3475.254231 0.8410 0.8410 0.8410 0.8410 0.8410
3480.013115 0.8410 0.8410 0.8405 0.8400 0.8400
3484.772000 0.8400 0.8395 0.8390 0.8390 0.8390
3489.530885 0.8390 0.8390 0.8380 0.8370 0.8370
3494.289769 0.8370 0.8365 0.8360 0.8360 0.8360
3499.048654 0.8360 0.8360 0.8360 0.8360 0.8355
3503.807538 0.8350 0.8350 0.8350 0.8350 0.8350
3508.566423 0.8350 0.8350 0.8350 0.8350 0.8350
3513.325308 0.8350 0.8350 0.8350 0.8345 0.8340
3518.084192 0.8340 0.8340 0.8340 0.8340 0.8340
3522.843077 0.8340 0.8340 0.8340 0.8340 0.8340
3527.601962 0.8340 0.8340 0.8340 0.8340 0.8340
3532.360846 0.8340 0.8345 0.8350 0.8350 0.8350
3537.119731 0.8350 0.8350 0.8350 0.8350 0.8350
3541.878615 0.8350 0.8350 0.8350 0.8350 0.8351
3546.637500 0.8356 0.8360 0.8360 0.8360 0.8360
3551.396385 0.8361 0.8366 0.8370 0.8370 0.8371
3556.155269 0.8381 0.8391 0.8396 0.8401 0.8406
3560.914154 0.8411 0.8416 0.8421 0.8426 0.8430
3565.673038 0.8430 0.8430 0.8430 0.8430 0.8430
3570.431923 0.8431 0.8436 0.8440 0.8440 0.8442
3575.190808 0.8452 0.8460 0.8460 0.8461 0.8466
3579.949692 0.8471 0.8476 0.8480 0.8480 0.8480
3584.708577 0.8480 0.8480 0.8480 0.8480 0.8480
3589.467462 0.8480 0.8480 0.8480 0.8480 0.8480
3594.226346 0.8480 0.8480 0.8480 0.8480 0.8480
3598.985231 0.8480 0.8480 0.8480 0.8480 0.8480
3603.744115 0.8480 0.8480 0.8480 0.8480 0.8480
3608.503000 0.8480 0.8480 0.8480 0.8480 0.8480
3613.261885 0.8480 0.8480 0.8480 0.8480 0.8480
3618.020769 0.8478 0.8473 0.8470 0.8470 0.8470
3622.779654 0.8470 0.8470 0.8470 0.8470 0.8470
3627.538538 0.8470 0.8470 0.8470 0.8470 0.8470
3632.297423 0.8470 0.8470 0.8470 0.8470 0.8470
3637.056308 0.8470 0.8470 0.8472 0.8477 0.8480
3641.815192 0.8480 0.8480 0.8480 0.8480 0.8480
3646.574077 0.8480 0.8480 0.8480 0.8480 0.8480
3651.332962 0.8480 0.8480 0.8480 0.8480 0.8480
3656.091846 0.8480 0.8480 0.8480 0.8480 0.8482
3660.850731 0.8487 0.8492 0.8497 0.8504 0.8514
3665.609615 0.8522 0.8527 0.8532 0.8537 0.8540
3670.368500 0.8540 0.8540 0.8540 0.8540 0.8540
3675.127385 0.8540 0.8540 0.8540 0.8540 0.8540
3679.886269 0.8540 0.8540 0.8540 0.8540 0.8540
3684.645154 0.8540 0.8540 0.8540 0.8540 0.8540
3689.404038 0.8540 0.8540 0.8540 0.8540 0.8540
3694.162923 0.8540 0.8540 0.8540 0.8540 0.8540
3698.921808 0.8540 0.8543 0.8548 0.8547 0.8542
3703.680692 0.8540 0.8540 0.8540 0.8540 0.8540
3708.439577 0.8540 0.8540 0.8540 0.8540 0.8540
3713.198462 0.8540 0.8540 0.8540 0.8540 0.8540
3717.957346 0.8540 0.8540 0.8540 0.8540 0.8540
3722.716231 0.8540 0.8540 0.8540 0.8540 0.8540
3727.475115 0.8540 0.8540 0.8540 0.8540 0.8540
3732.234000 0.8540 0.8540 0.8540 0.8540 0.8540
3736.992885 0.8540 0.8540 0.8540 0.8537 0.8532
3741.751769 0.8530 0.8530 0.8533 0.8538 0.8540
3746.510654 0.8540 0.8540 0.8540 0.8537 0.8532
3751.269538 0.8530 0.8530 0.8530 0.8530 0.8530
3756.028423 0.8530 0.8530 0.8530 0.8530 0.8530
3760.787308 0.8530 0.8530 0.8530 0.8530 0.8530
3765.546192 0.8530 0.8530 0.8530 0.8530 0.8530
3770.305077 0.8526 0.8521 0.8520 0.8520 0.8513
3775.063962 0.8503 0.8500 0.8500 0.8500 0.8500
3779.822846 0.8496 0.8491 0.8494 0.8499 0.8500
3784.581731 0.8500 0.8500 0.8500 0.8500 0.8500
3789.340615 0.8500 0.8500 0.8500 0.8500 0.8500
3794.099500 0.8500 0.8500 0.8500 0.8500 0.8500
3798.858385 0.8500 0.8500 0.8500 0.8500 0.8496
3803.617269 0.8491 0.8490 0.8490 0.8490 0.8490
3808.376154 0.8490 0.8490 0.8490 0.8490 0.8490
3813.135038 0.8490 0.8486 0.8481 0.8480 0.8480
3817.893923 0.8484 0.8489 0.8490 0.8490 0.8503
3822.652808 0.8518 0.8520 0.8520 0.8520 0.8520
3827.411692 0.8520 0.8520 0.8520 0.8520 0.8511
3832.170577 0.8501 0.8500 0.8500 0.8500 0.8500
3836.929462 0.8500 0.8500 0.8500 0.8500 0.8496
3841.688346 0.8490 0.8490 0.8490 0.8490 0.8490
3846.447231 0.8490 0.8490 0.8490 0.8490 0.8490
3851.206115 0.8490 0.8490 0.8490 0.8490 0.8490
3855.965000 0.8490 0.8490 0.8490 0.8490 0.8490
3860.723885 0.8490 0.8490 0.8490 0.8490 0.8490
3865.482769 0.8495 0.8500 0.8500 0.8500 0.8500
3870.241654 0.8500 0.8500 0.8500 0.8500 0.8500
3875.000538 0.8500 0.8500 0.8500 0.8500 0.8510
3879.759423 0.8520 0.8520 0.8520 0.8520 0.8520
3884.518308 0.8520 0.8520 0.8525 0.8530 0.8530
3889.277192 0.8530 0.8530 0.8530 0.8530 0.8530
3894.036077 0.8530 0.8530 0.8530 0.8530 0.8530
3898.794962 0.8530 0.8530 0.8530 0.8530 0.8530
3903.553846 0.8530 0.8530 0.8530 0.8530 0.8530
3908.312731 0.8530 0.8530 0.8530 0.8530 0.8530
3913.071615 0.8530 0.8530 0.8530
##END=
