##TITLE=Beta-Ethoxyethyl adipate
##JCAMP-DX=4.24
$$ By DXEDIT 1.05 (RS McDonald)
##DATA TYPE=INFRARED SPECTRUM
##CLASS=COBLENTZ III
##ORIGIN=DOW CHEMICAL COMPANY
##OWNER=COPYRIGHT (C) 1988 by COBLENTZ SOCIETY INC.
Collection (C) 2018 copyright by the U.S. Secretary of Commerce
on behalf of the United States of America. All rights reserved.
##DATE=1970/01/12
##CAS NAME=Hexanedioic acid, bis(2-ethoxyethyl) ester
##NAMES=bis(2-ethoxyethyl) hexanedioate
##CAS REGISTRY NO=109-44-4
##MOLFORM=C14 H26 O6
##SOURCE REFERENCE=COBLENTZ NO. 09434
##$NIST SOURCE=COBLENTZ
##$NIST IMAGE=cob9434
##SPECTROMETER/DATA SYSTEM=DOW KBr FOREPRISM-GRATING
##INSTRUMENT PARAMETERS=BLAZED AT 3.5, 12.0, 20.0 MICRON AND CHANGED AT 5.0, 7.5, 14.9 MICRON
##STATE=SOLUTION (10% CCl4 FOR 2.7-7.5, 10% CS2 FOR 7.5-25 MICRON) VS SOLVENT
##PATH LENGTH=0.011 CM, 0.011 CM, 0.011 CM
$$ SPECTRAL FEATURE AT 939 CM^-^1 IS AN ARTIFACT
##SAMPLING PROCEDURE=TRANSMISSION
##RESOLUTION=2
##DATA PROCESSING=DIGITIZED BY COBLENTZ SOCIETY (BATCH I) FROM HARD COPY
##XUNITS=1/CM
##YUNITS=TRANSMITTANCE
##XFACTOR=1
##YFACTOR=1
##DELTAX=1
##FIRSTX=3800
##LASTX=404
##FIRSTY=0.8539
##MAXX=3800
##MINX=404
##MAXY=0.8624
##MINY=0.0046
##NPOINTS=3397
##XYDATA=(X++(Y..Y))
3800.000000 0.8539 0.8539 0.8540 0.8540 0.8541
3795.000000 0.8541 0.8542 0.8542 0.8543 0.8543
3790.000000 0.8544 0.8544 0.8545 0.8545 0.8546
3785.000000 0.8546 0.8547 0.8547 0.8548 0.8548
3780.000000 0.8549 0.8549 0.8550 0.8550 0.8551
3775.000000 0.8551 0.8552 0.8552 0.8552 0.8552
3770.000000 0.8552 0.8552 0.8553 0.8553 0.8553
3765.000000 0.8553 0.8554 0.8554 0.8554 0.8554
3760.000000 0.8555 0.8555 0.8555 0.8555 0.8556
3755.000000 0.8556 0.8557 0.8557 0.8558 0.8558
3750.000000 0.8559 0.8559 0.8560 0.8560 0.8561
3745.000000 0.8561 0.8562 0.8562 0.8563 0.8563
3740.000000 0.8564 0.8564 0.8565 0.8565 0.8566
3735.000000 0.8566 0.8567 0.8567 0.8568 0.8568
3730.000000 0.8568 0.8568 0.8568 0.8568 0.8570
3725.000000 0.8570 0.8570 0.8570 0.8571 0.8571
3720.000000 0.8571 0.8571 0.8573 0.8573 0.8573
3715.000000 0.8573 0.8574 0.8574 0.8574 0.8574
3710.000000 0.8573 0.8571 0.8571 0.8571 0.8571
3705.000000 0.8570 0.8568 0.8568 0.8568 0.8567
3700.000000 0.8567 0.8565 0.8563 0.8561 0.8559
3695.000000 0.8557 0.8555 0.8553 0.8551 0.8547
3690.000000 0.8543 0.8534 0.8525 0.8514 0.8504
3685.000000 0.8492 0.8481 0.8470 0.8459 0.8450
3680.000000 0.8442 0.8433 0.8424 0.8418 0.8412
3675.000000 0.8407 0.8402 0.8397 0.8389 0.8388
3670.000000 0.8385 0.8386 0.8388 0.8393 0.8398
3665.000000 0.8403 0.8408 0.8414 0.8420 0.8425
3660.000000 0.8433 0.8439 0.8446 0.8452 0.8458
3655.000000 0.8463 0.8468 0.8471 0.8473 0.8475
3650.000000 0.8478 0.8480 0.8483 0.8485 0.8487
3645.000000 0.8487 0.8488 0.8488 0.8488 0.8488
3640.000000 0.8488 0.8488 0.8488 0.8488 0.8489
3635.000000 0.8489 0.8489 0.8489 0.8489 0.8488
3630.000000 0.8487 0.8486 0.8485 0.8484 0.8483
3625.000000 0.8481 0.8480 0.8478 0.8478 0.8475
3620.000000 0.8474 0.8471 0.8470 0.8468 0.8466
3615.000000 0.8463 0.8461 0.8457 0.8454 0.8449
3610.000000 0.8444 0.8439 0.8434 0.8428 0.8421
3605.000000 0.8416 0.8411 0.8404 0.8398 0.8391
3600.000000 0.8385 0.8378 0.8371 0.8365 0.8359
3595.000000 0.8354 0.8349 0.8344 0.8339 0.8340
3590.000000 0.8341 0.8346 0.8351 0.8356 0.8361
3585.000000 0.8367 0.8374 0.8381 0.8389 0.8396
3580.000000 0.8403 0.8408 0.8414 0.8418 0.8425
3575.000000 0.8430 0.8435 0.8440 0.8445 0.8448
3570.000000 0.8452 0.8454 0.8454 0.8455 0.8453
3565.000000 0.8451 0.8449 0.8447 0.8445 0.8443
3560.000000 0.8441 0.8439 0.8437 0.8434 0.8432
3555.000000 0.8428 0.8427 0.8424 0.8421 0.8418
3550.000000 0.8417 0.8415 0.8413 0.8410 0.8408
3545.000000 0.8405 0.8403 0.8400 0.8398 0.8396
3540.000000 0.8394 0.8392 0.8390 0.8387 0.8385
3535.000000 0.8383 0.8381 0.8378 0.8377 0.8374
3530.000000 0.8371 0.8370 0.8368 0.8365 0.8363
3525.000000 0.8361 0.8359 0.8358 0.8357 0.8356
3520.000000 0.8356 0.8357 0.8358 0.8360 0.8363
3515.000000 0.8366 0.8368 0.8371 0.8374 0.8377
3510.000000 0.8380 0.8383 0.8386 0.8389 0.8393
3505.000000 0.8396 0.8400 0.8403 0.8406 0.8409
3500.000000 0.8412 0.8413 0.8415 0.8416 0.8418
3495.000000 0.8418 0.8420 0.8421 0.8423 0.8424
3490.000000 0.8425 0.8425 0.8427 0.8427 0.8427
3485.000000 0.8427 0.8427 0.8427 0.8427 0.8427
3480.000000 0.8427 0.8425 0.8425 0.8421 0.8418
3475.000000 0.8416 0.8414 0.8411 0.8409 0.8402
3470.000000 0.8396 0.8386 0.8377 0.8366 0.8356
3465.000000 0.8343 0.8331 0.8320 0.8310 0.8300
3460.000000 0.8290 0.8280 0.8271 0.8259 0.8247
3455.000000 0.8236 0.8225 0.8218 0.8214 0.8209
3450.000000 0.8180 0.8203 0.8203 0.8202 0.8202
3445.000000 0.8201 0.8200 0.8204 0.8208 0.8215
3440.000000 0.8221 0.8228 0.8235 0.8241 0.8248
3435.000000 0.8257 0.8266 0.8275 0.8287 0.8298
3430.000000 0.8309 0.8320 0.8331 0.8341 0.8352
3425.000000 0.8365 0.8378 0.8393 0.8407 0.8420
3420.000000 0.8434 0.8446 0.8458 0.8470 0.8482
3415.000000 0.8493 0.8505 0.8513 0.8521 0.8527
3410.000000 0.8533 0.8539 0.8545 0.8551 0.8557
3405.000000 0.8563 0.8568 0.8573 0.8577 0.8581
3400.000000 0.8585 0.8589 0.8593 0.8596 0.8599
3395.000000 0.8600 0.8601 0.8602 0.8604 0.8605
3390.000000 0.8606 0.8607 0.8609 0.8610 0.8611
3385.000000 0.8611 0.8612 0.8613 0.8614 0.8614
3380.000000 0.8615 0.8615 0.8616 0.8617 0.8618
3375.000000 0.8618 0.8618 0.8618 0.8620 0.8620
3370.000000 0.8621 0.8621 0.8621 0.8621 0.8621
3365.000000 0.8621 0.8623 0.8623 0.8624 0.8624
3360.000000 0.8624 0.8624 0.8623 0.8621 0.8621
3355.000000 0.8618 0.8618 0.8617 0.8616 0.8614
3350.000000 0.8613 0.8612 0.8611 0.8609 0.8608
3345.000000 0.8607 0.8606 0.8604 0.8603 0.8601
3340.000000 0.8600 0.8599 0.8598 0.8596 0.8595
3335.000000 0.8593 0.8592 0.8590 0.8589 0.8588
3330.000000 0.8587 0.8585 0.8583 0.8581 0.8580
3325.000000 0.8578 0.8577 0.8575 0.8573 0.8571
3320.000000 0.8570 0.8568 0.8567 0.8565 0.8564
3315.000000 0.8562 0.8560 0.8558 0.8557 0.8556
3310.000000 0.8555 0.8554 0.8553 0.8552 0.8551
3305.000000 0.8550 0.8550 0.8549 0.8548 0.8547
3300.000000 0.8546 0.8545 0.8544 0.8543 0.8542
3295.000000 0.8541 0.8541 0.8540 0.8539 0.8538
3290.000000 0.8537 0.8536 0.8536 0.8535 0.8535
3285.000000 0.8534 0.8534 0.8533 0.8533 0.8532
3280.000000 0.8531 0.8530 0.8530 0.8528 0.8528
3275.000000 0.8528 0.8528 0.8527 0.8527 0.8527
3270.000000 0.8527 0.8525 0.8525 0.8525 0.8525
3265.000000 0.8524 0.8524 0.8523 0.8523 0.8521
3260.000000 0.8521 0.8521 0.8521 0.8521 0.8521
3255.000000 0.8520 0.8520 0.8518 0.8518 0.8518
3250.000000 0.8518 0.8517 0.8516 0.8515 0.8514
3245.000000 0.8513 0.8512 0.8511 0.8510 0.8508
3240.000000 0.8507 0.8504 0.8502 0.8498 0.8494
3235.000000 0.8490 0.8487 0.8483 0.8480 0.8475
3230.000000 0.8473 0.8470 0.8467 0.8463 0.8460
3225.000000 0.8457 0.8454 0.8450 0.8447 0.8443
3220.000000 0.8440 0.8436 0.8432 0.8428 0.8425
3215.000000 0.8423 0.8421 0.8418 0.8417 0.8417
3210.000000 0.8417 0.8417 0.8417 0.8416 0.8416
3205.000000 0.8416 0.8416 0.8416 0.8416 0.8416
3200.000000 0.8417 0.8417 0.8417 0.8417 0.8418
3195.000000 0.8418 0.8418 0.8418 0.8418 0.8418
3190.000000 0.8420 0.8420 0.8421 0.8421 0.8421
3185.000000 0.8421 0.8421 0.8421 0.8423 0.8423
3180.000000 0.8423 0.8423 0.8423 0.8421 0.8421
3175.000000 0.8421 0.8420 0.8418 0.8418 0.8418
3170.000000 0.8418 0.8417 0.8416 0.8415 0.8415
3165.000000 0.8413 0.8412 0.8411 0.8410 0.8408
3160.000000 0.8407 0.8405 0.8404 0.8403 0.8402
3155.000000 0.8401 0.8400 0.8398 0.8397 0.8396
3150.000000 0.8395 0.8394 0.8393 0.8392 0.8391
3145.000000 0.8390 0.8389 0.8388 0.8387 0.8386
3140.000000 0.8386 0.8385 0.8384 0.8383 0.8382
3135.000000 0.8381 0.8381 0.8380 0.8378 0.8378
3130.000000 0.8377 0.8375 0.8375 0.8373 0.8371
3125.000000 0.8368 0.8367 0.8365 0.8363 0.8361
3120.000000 0.8359 0.8357 0.8355 0.8353 0.8351
3115.000000 0.8349 0.8347 0.8345 0.8343 0.8341
3110.000000 0.8339 0.8337 0.8335 0.8332 0.8330
3105.000000 0.8327 0.8324 0.8321 0.8318 0.8315
3100.000000 0.8312 0.8309 0.8306 0.8303 0.8300
3095.000000 0.8297 0.8294 0.8290 0.8287 0.8284
3090.000000 0.8281 0.8278 0.8275 0.8271 0.8268
3085.000000 0.8266 0.8263 0.8260 0.8257 0.8253
3080.000000 0.8249 0.8244 0.8239 0.8234 0.8228
3075.000000 0.8224 0.8218 0.8214 0.8209 0.8204
3070.000000 0.8199 0.8194 0.8189 0.8184 0.8178
3065.000000 0.8174 0.8168 0.8162 0.8158 0.8151
3060.000000 0.8145 0.8138 0.8131 0.8124 0.8118
3055.000000 0.8111 0.8105 0.8098 0.8092 0.8085
3050.000000 0.8078 0.8069 0.8062 0.8053 0.8043
3045.000000 0.8033 0.8022 0.8012 0.8003 0.7993
3040.000000 0.7983 0.7971 0.7958 0.7943 0.7928
3035.000000 0.7911 0.7897 0.7881 0.7865 0.7849
3030.000000 0.7834 0.7812 0.7793 0.7768 0.7744
3025.000000 0.7718 0.7694 0.7668 0.7644 0.7618
3020.000000 0.7594 0.7557 0.7519 0.7483 0.7446
3015.000000 0.7410 0.7374 0.7338 0.7303 0.7267
3010.000000 0.7232 0.7176 0.7122 0.7017 0.6911
3005.000000 0.6712 0.6515 0.6253 0.5992 0.5869
3000.000000 0.5747 0.5688 0.5630 0.5356 0.5082
2995.000000 0.4683 0.4284 0.3884 0.3484 0.3085
2990.000000 0.2687 0.2288 0.1889 0.1659 0.1300
2985.000000 0.1372 0.1314 0.1307 0.1300 0.1310
2980.000000 0.1321 0.1389 0.1458 0.1526 0.1594
2975.000000 0.1662 0.1729 0.1798 0.1866 0.1934
2970.000000 0.2002 0.2070 0.2138 0.2206 0.2274
2965.000000 0.2295 0.2315 0.2319 0.2322 0.2297
2960.000000 0.2272 0.2237 0.2202 0.2167 0.2132
2955.000000 0.2097 0.2062 0.2061 0.2060 0.2063
2950.000000 0.2080 0.2113 0.2146 0.2179 0.2213
2945.000000 0.2246 0.2279 0.2312 0.2345 0.2376
2940.000000 0.2407 0.2415 0.2423 0.2431 0.2439
2935.000000 0.2444 0.2450 0.2453 0.2457 0.2516
2930.000000 0.2576 0.2634 0.2695 0.2754 0.2814
2925.000000 0.2873 0.2932 0.2991 0.3051 0.3110
2920.000000 0.3170 0.3229 0.3289 0.3348 0.3408
2915.000000 0.3466 0.3526 0.3529 0.3568 0.3532
2910.000000 0.3534 0.3523 0.3512 0.3500 0.3489
2905.000000 0.3442 0.3396 0.3287 0.3179 0.3002
2900.000000 0.2825 0.2764 0.2703 0.2658 0.2614
2895.000000 0.2566 0.2519 0.2449 0.2380 0.2280
2890.000000 0.2180 0.2094 0.2009 0.1935 0.1863
2885.000000 0.1813 0.1764 0.1711 0.1658 0.1574
2880.000000 0.1490 0.1441 0.1392 0.1364 0.1336
2875.000000 0.1327 0.1318 0.1311 0.1287 0.1300
2870.000000 0.1295 0.1303 0.1311 0.1319 0.1327
2865.000000 0.1368 0.1410 0.1646 0.1884 0.2022
2860.000000 0.2160 0.2298 0.2435 0.2574 0.2712
2855.000000 0.2850 0.2988 0.3126 0.3264 0.3403
2850.000000 0.3541 0.3679 0.3816 0.3955 0.4093
2845.000000 0.4231 0.4370 0.4508 0.4646 0.4784
2840.000000 0.4922 0.5060 0.5198 0.5336 0.5474
2835.000000 0.5531 0.5588 0.5605 0.5622 0.5630
2830.000000 0.5638 0.5642 0.5654 0.5646 0.5647
2825.000000 0.5648 0.5650 0.5600 0.5550 0.5490
2820.000000 0.5431 0.5371 0.5310 0.5282 0.5257
2815.000000 0.5257 0.5256 0.5259 0.5262 0.5327
2810.000000 0.5393 0.5543 0.5694 0.5844 0.5995
2805.000000 0.6102 0.6210 0.6272 0.6334 0.6372
2800.000000 0.6411 0.6440 0.6469 0.6500 0.6530
2795.000000 0.6556 0.6582 0.6601 0.6619 0.6633
2790.000000 0.6646 0.6658 0.6672 0.6686 0.6699
2785.000000 0.6711 0.6725 0.6745 0.6764 0.6788
2780.000000 0.6812 0.6844 0.6875 0.6917 0.6960
2775.000000 0.6999 0.7038 0.7071 0.7107 0.7142
2770.000000 0.7176 0.7211 0.7246 0.7275 0.7306
2765.000000 0.7335 0.7365 0.7391 0.7418 0.7441
2760.000000 0.7464 0.7483 0.7503 0.7518 0.7535
2755.000000 0.7535 0.7535 0.7535 0.7535 0.7534
2750.000000 0.7534 0.7534 0.7534 0.7534 0.7534
2745.000000 0.7534 0.7534 0.7536 0.7538 0.7540
2740.000000 0.7543 0.7545 0.7548 0.7550 0.7553
2735.000000 0.7555 0.7557 0.7558 0.7561 0.7564
2730.000000 0.7567 0.7572 0.7578 0.7585 0.7591
2725.000000 0.7597 0.7604 0.7610 0.7617 0.7628
2720.000000 0.7640 0.7651 0.7665 0.7675 0.7687
2715.000000 0.7697 0.7707 0.7717 0.7728 0.7738
2710.000000 0.7748 0.7758 0.7768 0.7778 0.7789
2705.000000 0.7797 0.7805 0.7806 0.7807 0.7806
2700.000000 0.7803 0.7798 0.7794 0.7792 0.7791
2695.000000 0.7789 0.7789 0.7788 0.7790 0.7797
2690.000000 0.7804 0.7832 0.7861 0.7887 0.7912
2685.000000 0.7933 0.7954 0.7974 0.7995 0.8015
2680.000000 0.8037 0.8053 0.8069 0.8086 0.8103
2675.000000 0.8118 0.8135 0.8150 0.8165 0.8181
2670.000000 0.8196 0.8200 0.8204 0.8207 0.8211
2665.000000 0.8214 0.8217 0.8220 0.8223 0.8224
2660.000000 0.8225 0.8227 0.8228 0.8228 0.8231
2655.000000 0.8232 0.8234 0.8235 0.8237 0.8238
2650.000000 0.8240 0.8241 0.8243 0.8246 0.8249
2645.000000 0.8251 0.8254 0.8257 0.8260 0.8262
2640.000000 0.8265 0.8268 0.8271 0.8273 0.8275
2635.000000 0.8278 0.8280 0.8282 0.8284 0.8286
2630.000000 0.8288 0.8290 0.8292 0.8293 0.8295
2625.000000 0.8297 0.8299 0.8301 0.8303 0.8304
2620.000000 0.8306 0.8308 0.8308 0.8309 0.8309
2615.000000 0.8307 0.8305 0.8297 0.8290 0.8283
2610.000000 0.8275 0.8263 0.8250 0.8239 0.8228
2605.000000 0.8221 0.8216 0.8216 0.8216 0.8218
2600.000000 0.8220 0.8221 0.8225 0.8228 0.8231
2595.000000 0.8236 0.8242 0.8247 0.8252 0.8257
2590.000000 0.8263 0.8268 0.8273 0.8277 0.8282
2585.000000 0.8286 0.8291 0.8295 0.8300 0.8304
2580.000000 0.8308 0.8312 0.8317 0.8321 0.8325
2575.000000 0.8330 0.8334 0.8338 0.8343 0.8347
2570.000000 0.8352 0.8356 0.8361 0.8364 0.8368
2565.000000 0.8371 0.8374 0.8377 0.8380 0.8383
2560.000000 0.8387 0.8390 0.8393 0.8396 0.8399
2555.000000 0.8402 0.8405 0.8408 0.8412 0.8415
2550.000000 0.8418 0.8418 0.8421 0.8421 0.8424
2545.000000 0.8425 0.8427 0.8428 0.8431 0.8432
2540.000000 0.8434 0.8435 0.8437 0.8438 0.8440
2535.000000 0.8441 0.8443 0.8444 0.8446 0.8448
2530.000000 0.8450 0.8451 0.8453 0.8454 0.8456
2525.000000 0.8457 0.8459 0.8460 0.8462 0.8463
2520.000000 0.8465 0.8467 0.8468 0.8470 0.8471
2515.000000 0.8473 0.8475 0.8475 0.8478 0.8478
2510.000000 0.8481 0.8482 0.8484 0.8485 0.8487
2505.000000 0.8488 0.8490 0.8492 0.8494 0.8495
2500.000000 0.8497 0.8498 0.8500 0.8501 0.8503
2495.000000 0.8504 0.8506 0.8507 0.8509 0.8510
2490.000000 0.8512 0.8513 0.8515 0.8516 0.8518
2485.000000 0.8520 0.8521 0.8523 0.8524 0.8525
2480.000000 0.8525 0.8527 0.8528 0.8528 0.8531
2475.000000 0.8532 0.8533 0.8534 0.8535 0.8536
2470.000000 0.8537 0.8538 0.8540 0.8541 0.8542
2465.000000 0.8543 0.8544 0.8545 0.8546 0.8547
2460.000000 0.8549 0.8549 0.8549 0.8548 0.8548
2455.000000 0.8547 0.8547 0.8546 0.8546 0.8545
2450.000000 0.8545 0.8544 0.8543 0.8542 0.8542
2445.000000 0.8541 0.8540 0.8538 0.8536 0.8533
2440.000000 0.8531 0.8528 0.8525 0.8524 0.8521
2435.000000 0.8518 0.8517 0.8514 0.8512 0.8511
2430.000000 0.8510 0.8509 0.8509 0.8508 0.8507
2425.000000 0.8506 0.8505 0.8504 0.8504 0.8503
2420.000000 0.8502 0.8501 0.8500 0.8499 0.8498
2415.000000 0.8497 0.8497 0.8496 0.8495 0.8494
2410.000000 0.8494 0.8493 0.8493 0.8492 0.8492
2405.000000 0.8491 0.8491 0.8490 0.8490 0.8489
2400.000000 0.8489 0.8488 0.8488 0.8487 0.8487
2395.000000 0.8487 0.8488 0.8488 0.8489 0.8489
2390.000000 0.8490 0.8490 0.8491 0.8491 0.8491
2385.000000 0.8491 0.8492 0.8493 0.8494 0.8496
2380.000000 0.8499 0.8501 0.8503 0.8505 0.8507
2375.000000 0.8509 0.8511 0.8513 0.8516 0.8518
2370.000000 0.8520 0.8521 0.8524 0.8525 0.8528
2365.000000 0.8528 0.8528 0.8528 0.8528 0.8527
2360.000000 0.8527 0.8527 0.8527 0.8525 0.8525
2355.000000 0.8525 0.8525 0.8525 0.8525 0.8525
2350.000000 0.8525 0.8524 0.8524 0.8524 0.8524
2345.000000 0.8523 0.8523 0.8523 0.8523 0.8523
2340.000000 0.8523 0.8521 0.8521 0.8521 0.8521
2335.000000 0.8521 0.8521 0.8521 0.8521 0.8521
2330.000000 0.8521 0.8521 0.8521 0.8520 0.8520
2325.000000 0.8518 0.8518 0.8518 0.8517 0.8509
2320.000000 0.8501 0.8488 0.8475 0.8465 0.8456
2315.000000 0.8446 0.8437 0.8428 0.8421 0.8418
2310.000000 0.8414 0.8409 0.8405 0.8401 0.8397
2305.000000 0.8393 0.8390 0.8389 0.8389 0.8388
2300.000000 0.8387 0.8386 0.8386 0.8385 0.8385
2295.000000 0.8384 0.8384 0.8383 0.8383 0.8382
2290.000000 0.8382 0.8380 0.8378 0.8378 0.8377
2285.000000 0.8375 0.8374 0.8371 0.8371 0.8368
2280.000000 0.8368 0.8367 0.8366 0.8364 0.8363
2275.000000 0.8361 0.8360 0.8358 0.8357 0.8356
2270.000000 0.8355 0.8353 0.8352 0.8351 0.8351
2265.000000 0.8351 0.8352 0.8352 0.8353 0.8353
2260.000000 0.8353 0.8353 0.8354 0.8354 0.8355
2255.000000 0.8355 0.8355 0.8355 0.8356 0.8359
2250.000000 0.8362 0.8366 0.8371 0.8375 0.8380
2245.000000 0.8384 0.8389 0.8393 0.8398 0.8404
2240.000000 0.8411 0.8417 0.8423 0.8428 0.8435
2235.000000 0.8439 0.8443 0.8445 0.8447 0.8448
2230.000000 0.8450 0.8452 0.8454 0.8456 0.8458
2225.000000 0.8459 0.8461 0.8462 0.8462 0.8463
2220.000000 0.8463 0.8462 0.8462 0.8461 0.8461
2215.000000 0.8460 0.8460 0.8459 0.8459 0.8459
2210.000000 0.8459 0.8459 0.8459 0.8459 0.8459
2205.000000 0.8458 0.8458 0.8458 0.8458 0.8459
2200.000000 0.8460 0.8461 0.8462 0.8463 0.8464
2195.000000 0.8465 0.8466 0.8466 0.8467 0.8470
2190.000000 0.8473 0.8475 0.8478 0.8480 0.8483
2185.000000 0.8487 0.8491 0.8499 0.8507 0.8515
2180.000000 0.8524 0.8532 0.8540 0.8547 0.8554
2175.000000 0.8560 0.8567 0.8571 0.8578 0.8563
2170.000000 0.8549 0.8539 0.8530 0.8524 0.8518
2165.000000 0.8514 0.8511 0.8509 0.8508 0.8506
2160.000000 0.8505 0.8503 0.8502 0.8502 0.8502
2155.000000 0.8501 0.8501 0.8501 0.8501 0.8501
2150.000000 0.8501 0.8501 0.8501 0.8500 0.8500
2145.000000 0.8499 0.8499 0.8498 0.8497 0.8496
2140.000000 0.8496 0.8495 0.8495 0.8494 0.8494
2135.000000 0.8493 0.8493 0.8493 0.8493 0.8492
2130.000000 0.8492 0.8491 0.8491 0.8490 0.8490
2125.000000 0.8489 0.8489 0.8488 0.8488 0.8487
2120.000000 0.8487 0.8486 0.8485 0.8484 0.8483
2115.000000 0.8482 0.8481 0.8480 0.8478 0.8478
2110.000000 0.8477 0.8475 0.8475 0.8474 0.8473
2105.000000 0.8471 0.8471 0.8470 0.8468 0.8468
2100.000000 0.8467 0.8466 0.8465 0.8464 0.8463
2095.000000 0.8462 0.8461 0.8460 0.8459 0.8458
2090.000000 0.8457 0.8456 0.8455 0.8454 0.8453
2085.000000 0.8451 0.8450 0.8448 0.8447 0.8446
2080.000000 0.8445 0.8443 0.8442 0.8440 0.8439
2075.000000 0.8437 0.8436 0.8434 0.8433 0.8432
2070.000000 0.8431 0.8428 0.8428 0.8425 0.8425
2065.000000 0.8423 0.8421 0.8421 0.8420 0.8418
2060.000000 0.8417 0.8415 0.8414 0.8412 0.8411
2055.000000 0.8410 0.8409 0.8407 0.8406 0.8404
2050.000000 0.8403 0.8401 0.8400 0.8398 0.8397
2045.000000 0.8396 0.8395 0.8393 0.8392 0.8390
2040.000000 0.8389 0.8387 0.8386 0.8384 0.8383
2035.000000 0.8381 0.8380 0.8378 0.8375 0.8374
2030.000000 0.8371 0.8370 0.8368 0.8366 0.8364
2025.000000 0.8362 0.8360 0.8358 0.8357 0.8355
2020.000000 0.8354 0.8352 0.8351 0.8349 0.8347
2015.000000 0.8345 0.8344 0.8343 0.8342 0.8341
2010.000000 0.8340 0.8339 0.8338 0.8337 0.8337
2005.000000 0.8336 0.8335 0.8332 0.8330 0.8324
2000.000000 0.8318 0.8312 0.8306 0.8298 0.8288
1995.000000 0.8277 0.8271 0.8268 0.8266 0.8263
1990.000000 0.8260 0.8258 0.8256 0.8254 0.8252
1985.000000 0.8250 0.8248 0.8246 0.8245 0.8243
1980.000000 0.8241 0.8239 0.8237 0.8235 0.8233
1975.000000 0.8231 0.8230 0.8228 0.8225 0.8224
1970.000000 0.8221 0.8220 0.8218 0.8217 0.8215
1965.000000 0.8213 0.8212 0.8210 0.8208 0.8206
1960.000000 0.8205 0.8193 0.8201 0.8199 0.8198
1955.000000 0.8196 0.8194 0.8192 0.8191 0.8189
1950.000000 0.8188 0.8188 0.8188 0.8189 0.8189
1945.000000 0.8189 0.8190 0.8190 0.8191 0.8191
1940.000000 0.8191 0.8192 0.8194 0.8197 0.8200
1935.000000 0.8201 0.8202 0.8202 0.8202 0.8202
1930.000000 0.8203 0.8203 0.8203 0.8203 0.8203
1925.000000 0.8210 0.8217 0.8223 0.8230 0.8237
1920.000000 0.8243 0.8250 0.8255 0.8259 0.8264
1915.000000 0.8268 0.8273 0.8278 0.8283 0.8285
1910.000000 0.8288 0.8290 0.8293 0.8295 0.8297
1905.000000 0.8300 0.8302 0.8305 0.8307 0.8309
1900.000000 0.8312 0.8314 0.8317 0.8318 0.8321
1895.000000 0.8324 0.8325 0.8325 0.8328 0.8328
1890.000000 0.8330 0.8331 0.8332 0.8333 0.8335
1885.000000 0.8336 0.8337 0.8338 0.8339 0.8340
1880.000000 0.8340 0.8341 0.8341 0.8341 0.8341
1875.000000 0.8340 0.8340 0.8340 0.8340 0.8340
1870.000000 0.8339 0.8339 0.8337 0.8334 0.8332
1865.000000 0.8328 0.8325 0.8324 0.8321 0.8318
1860.000000 0.8316 0.8313 0.8311 0.8309 0.8307
1855.000000 0.8305 0.8303 0.8301 0.8300 0.8300
1850.000000 0.8300 0.8300 0.8300 0.8299 0.8298
1845.000000 0.8297 0.8296 0.8295 0.8290 0.8285
1840.000000 0.8281 0.8275 0.8271 0.8267 0.8263
1835.000000 0.8259 0.8254 0.8246 0.8239 0.8231
1830.000000 0.8223 0.8215 0.8208 0.8200 0.8192
1825.000000 0.8184 0.8175 0.8167 0.8157 0.8148
1820.000000 0.8138 0.8128 0.8119 0.8106 0.8093
1815.000000 0.8078 0.8065 0.8051 0.8039 0.8025
1810.000000 0.8011 0.7998 0.7975 0.7955 0.7933
1805.000000 0.7911 0.7890 0.7868 0.7847 0.7825
1800.000000 0.7804 0.7781 0.7754 0.7728 0.7701
1795.000000 0.7675 0.7650 0.7622 0.7597 0.7571
1790.000000 0.7545 0.7518 0.7492 0.7465 0.7440
1785.000000 0.7414 0.7387 0.7358 0.7332 0.7305
1780.000000 0.7276 0.7243 0.7204 0.7164 0.7125
1775.000000 0.7064 0.6996 0.6928 0.6831 0.6734
1770.000000 0.6625 0.6348 0.6098 0.5985 0.5875
1765.000000 0.5752 0.5486 0.5300 0.5101 0.4860
1760.000000 0.4610 0.4266 0.3278 0.3000 0.2723
1755.000000 0.2445 0.2167 0.1889 0.1612 0.1334
1750.000000 0.1056 0.0778 0.0501 0.0282 0.0228
1745.000000 0.0191 0.0163 0.0144 0.0126 0.0110
1740.000000 0.0094 0.0081 0.0075 0.0068 0.0062
1735.000000 0.0058 0.0054 0.0050 0.0047 0.0046
1730.000000 0.0050 0.0063 0.0093 0.0154 0.0275
1725.000000 0.1078 0.1214 0.1385 0.1740 0.2090
1720.000000 0.2281 0.2454 0.2611 0.2768 0.2893
1715.000000 0.3006 0.3119 0.3243 0.3398 0.3557
1710.000000 0.3756 0.3908 0.4005 0.4130 0.4348
1705.000000 0.4495 0.4632 0.4784 0.4936 0.5089
1700.000000 0.5241 0.5393 0.5546 0.5607 0.5662
1695.000000 0.5737 0.5819 0.5901 0.6057 0.6243
1690.000000 0.6356 0.6450 0.6545 0.6621 0.6697
1685.000000 0.6772 0.6847 0.6918 0.6989 0.7060
1680.000000 0.7118 0.7165 0.7211 0.7258 0.7306
1675.000000 0.7348 0.7385 0.7421 0.7458 0.7496
1670.000000 0.7533 0.7556 0.7578 0.7603 0.7625
1665.000000 0.7649 0.7671 0.7693 0.7710 0.7726
1660.000000 0.7744 0.7761 0.7778 0.7795 0.7811
1655.000000 0.7828 0.7846 0.7858 0.7868 0.7878
1650.000000 0.7889 0.7899 0.7910 0.7919 0.7930
1645.000000 0.7941 0.7951 0.7961 0.7968 0.7975
1640.000000 0.7982 0.7989 0.7996 0.8001 0.8008
1635.000000 0.8015 0.8021 0.8028 0.8035 0.8041
1630.000000 0.8047 0.8051 0.8058 0.8064 0.8069
1625.000000 0.8075 0.8081 0.8087 0.8090 0.8092
1620.000000 0.8095 0.8097 0.8099 0.8101 0.8104
1615.000000 0.8106 0.8108 0.8111 0.8112 0.8115
1610.000000 0.8118 0.8121 0.8124 0.8126 0.8128
1605.000000 0.8132 0.8135 0.8138 0.8141 0.8143
1600.000000 0.8146 0.8149 0.8153 0.8156 0.8158
1595.000000 0.8161 0.8165 0.8168 0.8171 0.8175
1590.000000 0.8178 0.8182 0.8185 0.8189 0.8192
1585.000000 0.8196 0.8200 0.8203 0.8207 0.8210
1580.000000 0.8214 0.8216 0.8217 0.8218 0.8220
1575.000000 0.8221 0.8223 0.8224 0.8225 0.8228
1570.000000 0.8228 0.8231 0.8233 0.8236 0.8238
1565.000000 0.8241 0.8244 0.8247 0.8251 0.8257
1560.000000 0.8263 0.8268 0.8275 0.8278 0.8280
1555.000000 0.8281 0.8282 0.8283 0.8285 0.8286
1550.000000 0.8286 0.8286 0.8294 0.8283 0.8282
1545.000000 0.8281 0.8278 0.8278 0.8277 0.8275
1540.000000 0.8274 0.8271 0.8268 0.8267 0.8264
1535.000000 0.8262 0.8260 0.8254 0.8248 0.8242
1530.000000 0.8236 0.8230 0.8224 0.8218 0.8214
1525.000000 0.8209 0.8204 0.8198 0.8192 0.8180
1520.000000 0.8167 0.8155 0.8142 0.8128 0.8117
1515.000000 0.8099 0.8082 0.8064 0.8047 0.8028
1510.000000 0.8011 0.7994 0.7972 0.7951 0.7930
1505.000000 0.7908 0.7886 0.7864 0.7836 0.7799
1500.000000 0.7761 0.7725 0.7668 0.7608 0.7547
1495.000000 0.7478 0.7397 0.7278 0.7151 0.7031
1490.000000 0.5370 0.5358 0.5460 0.5729 0.5998
1485.000000 0.6267 0.6390 0.6447 0.6498 0.6526
1480.000000 0.6537 0.6551 0.6528 0.6521 0.6496
1475.000000 0.6453 0.6400 0.6329 0.6256 0.6181
1470.000000 0.5640 0.4664 0.4608 0.4591 0.4560
1465.000000 0.4086 0.3610 0.3464 0.3323 0.3122
1460.000000 0.2957 0.2943 0.3124 0.3316 0.3509
1455.000000 0.3700 0.3894 0.4034 0.4010 0.3950
1450.000000 0.3804 0.3657 0.3450 0.3440 0.3432
1445.000000 0.3539 0.3670 0.3800 0.3930 0.4060
1440.000000 0.4192 0.4323 0.4453 0.4584 0.4714
1435.000000 0.4845 0.4975 0.5106 0.5162 0.5165
1430.000000 0.5041 0.4869 0.4698 0.4526 0.4354
1425.000000 0.4183 0.4010 0.3914 0.3900 0.4016
1420.000000 0.4183 0.4349 0.4515 0.4681 0.4847
1415.000000 0.5012 0.5180 0.5346 0.5472 0.5508
1410.000000 0.5501 0.5498 0.5495 0.5471 0.5442
1405.000000 0.5367 0.5178 0.4700 0.4495 0.4241
1400.000000 0.3988 0.3734 0.3480 0.3227 0.2973
1395.000000 0.2720 0.2466 0.2212 0.1959 0.1868
1390.000000 0.1827 0.1944 0.2084 0.2226 0.2367
1385.000000 0.2508 0.2649 0.2790 0.2874 0.2897
1380.000000 0.2901 0.2902 0.2903 0.2922 0.3003
1375.000000 0.3152 0.3380 0.3612 0.3845 0.4077
1370.000000 0.4148 0.4124 0.4118 0.4012 0.3906
1365.000000 0.3800 0.3776 0.3775 0.3796 0.3816
1360.000000 0.3816 0.3812 0.3800 0.3650 0.3490
1355.000000 0.3329 0.3168 0.3008 0.2970 0.2965
1350.000000 0.3002 0.3169 0.3391 0.3614 0.3836
1345.000000 0.4046 0.4149 0.4228 0.4314 0.4403
1340.000000 0.4440 0.4450 0.4456 0.4460 0.4464
1335.000000 0.4472 0.4480 0.4489 0.4592 0.4684
1330.000000 0.4760 0.4834 0.4926 0.4997 0.5028
1325.000000 0.5075 0.5039 0.5032 0.5018 0.4941
1320.000000 0.4604 0.4514 0.4443 0.4373 0.4307
1315.000000 0.4242 0.4177 0.4121 0.4070 0.4018
1310.000000 0.3971 0.3918 0.3858 0.3798 0.3738
1305.000000 0.3678 0.3618 0.3558 0.3499 0.3439
1300.000000 0.3379 0.3318 0.3259 0.3199 0.3139
1295.000000 0.3079 0.3020 0.2960 0.2900 0.2840
1290.000000 0.2780 0.2720 0.2660 0.2601 0.2541
1285.000000 0.2494 0.2461 0.2433 0.2424 0.2425
1280.000000 0.2426 0.2439 0.2456 0.2472 0.2487
1275.000000 0.2500 0.2512 0.2513 0.2514 0.2507
1270.000000 0.2500 0.2475 0.2448 0.2414 0.2360
1265.000000 0.2306 0.2251 0.2194 0.2138 0.2077
1260.000000 0.2014 0.1951 0.1895 0.1842 0.1789
1255.000000 0.1737 0.1687 0.1639 0.1591 0.1555
1250.000000 0.1529 0.1504 0.1484 0.1466 0.1458
1245.000000 0.1450 0.1444 0.1439 0.1439 0.1438
1240.000000 0.1438 0.1438 0.1442 0.1451 0.1478
1235.000000 0.1520 0.1565 0.1614 0.1666 0.1717
1230.000000 0.1763 0.1807 0.1841 0.1872 0.1878
1225.000000 0.1879 0.1881 0.1881 0.1879 0.1879
1220.000000 0.1879 0.1878 0.1877 0.1877 0.1876
1215.000000 0.1876 0.1876 0.1876 0.1876 0.1874
1210.000000 0.1870 0.1866 0.1861 0.1854 0.1832
1205.000000 0.1808 0.1784 0.1758 0.1733 0.1707
1200.000000 0.1681 0.1629 0.1577 0.1516 0.1468
1195.000000 0.1421 0.1374 0.1327 0.1280 0.1233
1190.000000 0.1186 0.1139 0.1092 0.1045 0.0997
1185.000000 0.0951 0.0904 0.0857 0.0810 0.0763
1180.000000 0.0716 0.0669 0.0622 0.0575 0.0550
1175.000000 0.0481 0.0505 0.0494 0.0486 0.0490
1170.000000 0.0501 0.0519 0.0538 0.0567 0.0606
1165.000000 0.0647 0.0697 0.0746 0.0793 0.0838
1160.000000 0.0881 0.0909 0.0937 0.0953 0.0964
1155.000000 0.0972 0.0975 0.1008 0.0983 0.0986
1150.000000 0.0981 0.0976 0.0926 0.0878 0.0783
1145.000000 0.0681 0.0599 0.0520 0.0452 0.0408
1140.000000 0.0363 0.0320 0.0280 0.0238 0.0207
1135.000000 0.0179 0.0151 0.0135 0.0122 0.0107
1130.000000 0.0095 0.0088 0.0080 0.0076 0.0074
1125.000000 0.0071 0.0070 0.0070 0.0074 0.0090
1120.000000 0.0113 0.0140 0.0167 0.0211 0.0261
1115.000000 0.0350 0.0506 0.0756 0.0982 0.1187
1110.000000 0.1370 0.1534 0.1696 0.1777 0.1832
1105.000000 0.1884 0.1937 0.1992 0.2045 0.2113
1100.000000 0.2189 0.2333 0.2414 0.2494 0.2574
1095.000000 0.2654 0.2734 0.2815 0.2892 0.2916
1090.000000 0.2952 0.2933 0.2931 0.2915 0.2866
1085.000000 0.2817 0.2753 0.2687 0.2624 0.2574
1080.000000 0.2537 0.2507 0.2477 0.2501 0.2502
1075.000000 0.2506 0.2542 0.2610 0.2676 0.2734
1070.000000 0.2783 0.2820 0.2860 0.2846 0.2846
1065.000000 0.2828 0.2794 0.2758 0.2721 0.2684
1060.000000 0.2654 0.2624 0.2588 0.2553 0.2421
1055.000000 0.2277 0.2133 0.1994 0.1981 0.1957
1050.000000 0.1990 0.2089 0.2283 0.2434 0.2551
1045.000000 0.2615 0.2678 0.2746 0.2818 0.2889
1040.000000 0.2959 0.3026 0.3094 0.3166 0.3262
1035.000000 0.3358 0.3448 0.3532 0.3616 0.3702
1030.000000 0.3782 0.3862 0.3942 0.4022 0.4126
1025.000000 0.4267 0.4410 0.4553 0.4695 0.4838
1020.000000 0.4981 0.5124 0.5257 0.5306 0.5356
1015.000000 0.5405 0.5455 0.5510 0.5567 0.5623
1010.000000 0.5672 0.5720 0.5768 0.5816 0.5864
1005.000000 0.5916 0.5972 0.6027 0.6083 0.6138
1000.000000 0.6190 0.6236 0.6282 0.6328 0.6374
995.000000 0.6417 0.6456 0.6494 0.6533 0.6571
990.000000 0.6608 0.6643 0.6676 0.6711 0.6732
985.000000 0.6753 0.6771 0.6787 0.6801 0.6815
980.000000 0.6828 0.6842 0.6849 0.6853 0.6840
975.000000 0.6842 0.6830 0.6814 0.6785 0.6747
970.000000 0.6708 0.6618 0.6511 0.6436 0.6371
965.000000 0.6307 0.6241 0.6152 0.6062 0.5974
960.000000 0.5876 0.5779 0.5674 0.5562 0.5516
955.000000 0.5478 0.5452 0.5436 0.5430 0.5445
950.000000 0.5446 0.5467 0.5489 0.5512 0.5537
945.000000 0.5558 0.5578 0.5596 0.5612 0.5562
940.000000 0.5262 0.5066 0.5292 0.5657 0.6022
935.000000 0.6187 0.6128 0.6068 0.6008 0.6049
930.000000 0.6115 0.6164 0.6189 0.6215 0.6240
925.000000 0.6249 0.6257 0.6265 0.6265 0.6265
920.000000 0.6278 0.6280 0.6281 0.6282 0.6283
915.000000 0.6283 0.6284 0.6287 0.6295 0.6303
910.000000 0.6333 0.6366 0.6400 0.6462 0.6528
905.000000 0.6592 0.6656 0.6718 0.6780 0.6839
900.000000 0.6888 0.6936 0.6981 0.7014 0.7048
895.000000 0.7071 0.7092 0.7108 0.7117 0.7118
890.000000 0.7136 0.7095 0.7076 0.7047 0.7015
885.000000 0.6980 0.6935 0.6891 0.6846 0.6801
880.000000 0.6757 0.6711 0.6667 0.6622 0.6578
875.000000 0.6533 0.6489 0.6444 0.6400 0.6355
870.000000 0.6310 0.6266 0.6221 0.6176 0.6132
865.000000 0.6087 0.6047 0.6014 0.5988 0.5971
860.000000 0.5949 0.5959 0.5960 0.5962 0.6001
855.000000 0.6152 0.6271 0.6336 0.6400 0.6458
850.000000 0.6507 0.6554 0.6597 0.6632 0.6667
845.000000 0.6694 0.6721 0.6748 0.6771 0.6794
840.000000 0.6812 0.6806 0.6796 0.6789 0.6782
835.000000 0.6775 0.6771 0.6771 0.6775 0.6778
830.000000 0.6792 0.6808 0.6824 0.6847 0.6869
825.000000 0.6894 0.6917 0.6946 0.6974 0.7003
820.000000 0.7018 0.7031 0.7039 0.7044 0.7049
815.000000 0.7058 0.7069 0.7107 0.7146 0.7193
810.000000 0.7245 0.7292 0.7331 0.7371 0.7405
805.000000 0.7425 0.7446 0.7457 0.7467 0.7461
800.000000 0.7446 0.7426 0.7408 0.7389 0.7372
795.000000 0.7362 0.7353 0.7344 0.7342 0.7340
790.000000 0.7354 0.7371 0.7390 0.7411 0.7433
785.000000 0.7456 0.7478 0.7496 0.7508 0.7521
780.000000 0.7536 0.7549 0.7562 0.7574 0.7583
775.000000 0.7592 0.7641 0.7610 0.7618 0.7626
770.000000 0.7628 0.7628 0.7615 0.7605 0.7595
765.000000 0.7585 0.7575 0.7565 0.7557 0.7549
760.000000 0.7541 0.7534 0.7528 0.7521 0.7515
755.000000 0.7510 0.7506 0.7501 0.7465 0.7494
750.000000 0.7494 0.7493 0.7493 0.7501 0.7515
745.000000 0.7530 0.7583 0.7631 0.7675 0.7708
740.000000 0.7736 0.7757 0.7768 0.7780 0.7791
735.000000 0.7795 0.7796 0.7796 0.7792 0.7789
730.000000 0.7798 0.7806 0.7815 0.7822 0.7832
725.000000 0.7840 0.7858 0.7880 0.7901 0.7922
720.000000 0.7944 0.7965 0.7976 0.7983 0.7989
715.000000 0.7995 0.8001 0.8007 0.8012 0.8018
710.000000 0.8022 0.8028 0.8033 0.8038 0.8042
705.000000 0.8047 0.8051 0.8058 0.8065 0.8071
700.000000 0.8078 0.8086 0.8093 0.8100 0.8107
695.000000 0.8114 0.8121 0.8126 0.8133 0.8139
690.000000 0.8145 0.8151 0.8157 0.8162 0.8168
685.000000 0.8178 0.8187 0.8195 0.8204 0.8210
680.000000 0.8216 0.8221 0.8228 0.8233 0.8239
675.000000 0.8245 0.8250 0.8255 0.8260 0.8266
670.000000 0.8271 0.8277 0.8282 0.8285 0.8287
665.000000 0.8289 0.8289 0.8289 0.8287 0.8286
660.000000 0.8275 0.8263 0.8251 0.8228 0.8188
655.000000 0.8155 0.8124 0.8097 0.8071 0.8050
650.000000 0.8030 0.8010 0.7998 0.7994 0.7992
645.000000 0.7991 0.7990 0.7988 0.7987 0.7986
640.000000 0.7986 0.7987 0.7987 0.7987 0.7987
635.000000 0.7987 0.7987 0.7987 0.7987 0.7987
630.000000 0.7986 0.7981 0.7975 0.7968 0.7962
625.000000 0.7957 0.7951 0.7946 0.7940 0.7934
620.000000 0.7925 0.7918 0.7911 0.7905 0.7898
615.000000 0.7891 0.7884 0.7876 0.7871 0.7864
610.000000 0.7858 0.7851 0.7845 0.7838 0.7828
605.000000 0.7821 0.7811 0.7804 0.7795 0.7787
600.000000 0.7778 0.7772 0.7767 0.7761 0.7756
595.000000 0.7750 0.7745 0.7739 0.7734 0.7728
590.000000 0.7722 0.7717 0.7711 0.7706 0.7701
585.000000 0.7697 0.7692 0.7688 0.7683 0.7678
580.000000 0.7680 0.7683 0.7687 0.7691 0.7694
575.000000 0.7699 0.7706 0.7712 0.7718 0.7725
570.000000 0.7732 0.7737 0.7741 0.7745 0.7749
565.000000 0.7753 0.7757 0.7758 0.7761 0.7762
560.000000 0.7765 0.7767 0.7768 0.7769 0.7771
555.000000 0.7769 0.7810 0.7767 0.7765 0.7761
550.000000 0.7746 0.7731 0.7715 0.7699 0.7682
545.000000 0.7664 0.7647 0.7630 0.7612 0.7595
540.000000 0.7576 0.7557 0.7537 0.7518 0.7498
535.000000 0.7478 0.7458 0.7439 0.7419 0.7401
530.000000 0.7381 0.7353 0.7318 0.7286 0.7251
525.000000 0.7201 0.7145 0.7103 0.7068 0.7051
520.000000 0.7036 0.7025 0.7018 0.7006 0.7006
515.000000 0.7007 0.7006 0.7034 0.7061 0.7095
510.000000 0.7136 0.7176 0.7217 0.7258 0.7298
505.000000 0.7336 0.7374 0.7411 0.7450 0.7487
500.000000 0.7512 0.7540 0.7565 0.7593 0.7603
495.000000 0.7612 0.7622 0.7633 0.7636 0.7639
490.000000 0.7642 0.7645 0.7648 0.7651 0.7655
485.000000 0.7658 0.7658 0.7658 0.7658 0.7658
480.000000 0.7651 0.7645 0.7638 0.7632 0.7625
475.000000 0.7618 0.7611 0.7606 0.7601 0.7595
470.000000 0.7590 0.7584 0.7578 0.7574 0.7568
465.000000 0.7562 0.7557 0.7551 0.7547 0.7542
460.000000 0.7538 0.7535 0.7532 0.7528 0.7525
455.000000 0.7521 0.7518 0.7515 0.7511 0.7508
450.000000 0.7505 0.7501 0.7500 0.7497 0.7495
445.000000 0.7492 0.7489 0.7487 0.7484 0.7481
440.000000 0.7478 0.7475 0.7474 0.7471 0.7468
435.000000 0.7465 0.7465 0.7464 0.7461 0.7461
430.000000 0.7460 0.7458 0.7457 0.7456 0.7455
425.000000 0.7453 0.7451 0.7451 0.7450 0.7450
420.000000 0.7450 0.7449 0.7449 0.7449 0.7449
415.000000 0.7449 0.7448 0.7448 0.7448 0.7448
410.000000 0.7447 0.7447 0.7447 0.7447 0.7446
405.000000 0.7446 0.7446
##END=
