##TITLE=BUTANAMINE
##JCAMP-DX=4.24
##DATA TYPE=INFRARED SPECTRUM
##CLASS=COBLENTZ III
##ORIGIN=DOW CHEMICAL COMPANY
##OWNER=COBLENTZ SOCIETY
Collection (C) 2018 copyright by the U.S. Secretary of Commerce
on behalf of the United States of America. All rights reserved.
##DATE=1961/12/12
##NAMES=butylamine
1-butanamine
##CAS REGISTRY NO=109-73-9
##MOLFORM=C4 H11 N
##SOURCE REFERENCE=COBLENTZ NO. 10239
##$NIST SOURCE=COBLENTZ
##$NIST IMAGE=cob10239
##SPECTROMETER/DATA SYSTEM=DOW KBr FOREPRISM-GRATING
##INSTRUMENT PARAMETERS=BLAZED AT 3.5, 12.0, 20.0 MICRON, CHANGED AT 5.0, 7.5, 14.9 MICRON
##STATE=LIQUID (NEAT)
##PATH LENGTH=CAPILLARY
##SAMPLING PROCEDURE=TRANSMISSION
##RESOLUTION=4
##DATA PROCESSING=DIGITIZED BY NIST FROM HARD COPY (FROM TWO SEGMENTS)
##XUNITS=1/CM
##YUNITS=TRANSMITTANCE
##XFACTOR=1.000000
##YFACTOR=1
##DELTAX=0.852757
##FIRSTX=447.982
##LASTX=3789.94
##FIRSTY=0.73
##MAXX=3789.94
##MINX=447.982
##MAXY=1.018
##MINY=0.016
##NPOINTS=3920
##XYDATA=(X++(Y..Y))
447.982000 0.7300 0.7300 0.7300 0.7290 0.7290
452.245786 0.7280 0.7280 0.7260 0.7260 0.7260
456.509571 0.7260 0.7260 0.7260 0.7260 0.7250
460.773357 0.7250 0.7240 0.7240 0.7240 0.7240
465.037143 0.7240 0.7220 0.7210 0.7200 0.7200
469.300929 0.7170 0.7170 0.7170 0.7160 0.7140
473.564714 0.7130 0.7120 0.7120 0.7100 0.7090
477.828500 0.7090 0.7080 0.7080 0.7060 0.7050
482.092286 0.7040 0.7010 0.7000 0.6980 0.6970
486.356071 0.6940 0.6930 0.6920 0.6900 0.6890
490.619857 0.6860 0.6850 0.6810 0.6800 0.6770
494.883643 0.6760 0.6730 0.6720 0.6700 0.6690
499.147429 0.6680 0.6680 0.6680 0.6680 0.6690
503.411214 0.6700 0.6730 0.6760 0.6780 0.6840
507.675000 0.6890 0.6940 0.7010 0.7060 0.7100
511.938786 0.7140 0.7170 0.7200 0.7240 0.7260
516.202571 0.7300 0.7320 0.7330 0.7370 0.7400
520.466357 0.7400 0.7400 0.7400 0.7400 0.7400
524.730143 0.7400 0.7400 0.7400 0.7400 0.7400
528.993929 0.7400 0.7400 0.7370 0.7370 0.7370
533.257714 0.7370 0.7360 0.7360 0.7340 0.7340
537.521500 0.7340 0.7340 0.7340 0.7340 0.7340
541.785286 0.7340 0.7340 0.7340 0.7340 0.7340
546.049071 0.7340 0.7340 0.7340 0.7340 0.7340
550.312857 0.7330 0.7330 0.7300 0.7280 0.7260
554.576643 0.7260 0.7240 0.7240 0.7240 0.7240
558.840429 0.7240 0.7220 0.7220 0.7220 0.7220
563.104214 0.7220 0.7200 0.7200 0.7180 0.7160
567.368000 0.7160 0.7160 0.7140 0.7130 0.7130
571.631786 0.7100 0.7100 0.7100 0.7090 0.7080
575.895571 0.7080 0.7050 0.7040 0.7040 0.7020
580.159357 0.7010 0.7010 0.7000 0.6980 0.6970
584.423143 0.6960 0.6960 0.6960 0.6960 0.6960
588.686929 0.6940 0.6930 0.6930 0.6920 0.6900
592.950714 0.6900 0.6890 0.6880 0.6860 0.6860
597.214500 0.6860 0.6850 0.6850 0.6850 0.6840
601.478286 0.6840 0.6840 0.6840 0.6820 0.6810
605.742071 0.6800 0.6800 0.6800 0.6780 0.6780
610.005857 0.6780 0.6780 0.6770 0.6770 0.6770
614.269643 0.6770 0.6770 0.6760 0.6760 0.6760
618.533429 0.6740 0.6740 0.6730 0.6730 0.6730
622.797214 0.6730 0.6720 0.6700 0.6690 0.6680
627.061000 0.6680 0.6680 0.6680 0.6680 0.6680
631.324786 0.6660 0.6650 0.6650 0.6650 0.6640
635.588571 0.6620 0.6620 0.6610 0.6610 0.6610
639.852357 0.6600 0.6600 0.6600 0.6600 0.6580
644.116143 0.6580 0.6580 0.6580 0.6580 0.6570
648.379929 0.6560 0.6560 0.6540 0.6540 0.6530
652.643714 0.6530 0.6520 0.6520 0.6500 0.6500
656.907500 0.6490 0.6490 0.6480 0.6480 0.6460
661.171286 0.6460 0.6460 0.6460 0.6460 0.6460
665.435071 0.6460 0.6460 0.6460 0.6460 0.6460
669.698857 0.6460 0.6480 0.6480 0.6460 0.6460
673.962643 0.6440 0.6440 0.6410 0.6400 0.6380
678.226429 0.6380 0.6380 0.6370 0.6360 0.6340
682.490214 0.6330 0.6320 0.6300 0.6280 0.6260
686.754000 0.6250 0.6240 0.6240 0.6220 0.6180
691.017786 0.6180 0.6170 0.6160 0.6160 0.6140
695.281571 0.6120 0.6100 0.6090 0.6090 0.6090
699.545357 0.6090 0.6060 0.6040 0.6020 0.6010
703.809143 0.6000 0.5970 0.5940 0.5930 0.5900
708.072929 0.5900 0.5890 0.5860 0.5840 0.5820
712.336714 0.5810 0.5800 0.5770 0.5760 0.5740
716.600500 0.5700 0.5660 0.5640 0.5620 0.5600
720.864286 0.5490 0.5460 0.5380 0.5360 0.5300
725.128071 0.5240 0.5160 0.5080 0.5000 0.4861
729.391857 0.4700 0.4530 0.4370 0.4200 0.4020
733.655643 0.3841 0.3681 0.3501 0.3490 0.3490
737.919429 0.3500 0.3530 0.3600 0.3660 0.3770
742.183214 0.3890 0.3940 0.4000 0.4060 0.4100
746.447000 0.4140 0.4140 0.4140 0.4160 0.4160
750.710786 0.4170 0.4170 0.4170 0.4170 0.4170
754.974571 0.4170 0.4160 0.4160 0.4140 0.4120
759.238357 0.4090 0.4050 0.4000 0.3930 0.3890
763.502143 0.3820 0.3740 0.3680 0.3600 0.3500
767.765929 0.3420 0.3340 0.3260 0.3180 0.3011
772.029714 0.2920 0.2810 0.2700 0.2600 0.2520
776.293500 0.2450 0.2370 0.2280 0.2200 0.2120
780.557286 0.2050 0.1980 0.1940 0.1850 0.1800
784.821071 0.1740 0.1700 0.1660 0.1620 0.1610
789.084857 0.1580 0.1540 0.1520 0.1500 0.1500
793.348643 0.1500 0.1500 0.1500 0.1500 0.1520
797.612429 0.1520 0.1530 0.1540 0.1560 0.1570
801.876214 0.1570 0.1580 0.1580 0.1580 0.1580
806.140000 0.1580 0.1580 0.1580 0.1570 0.1540
810.403786 0.1520 0.1500 0.1480 0.1440 0.1400
814.667571 0.1370 0.1320 0.1260 0.1240 0.1220
818.931357 0.1220 0.1180 0.1140 0.1090 0.1040
823.195143 0.1000 0.1000 0.0980 0.0970 0.0920
827.458929 0.0900 0.0880 0.0850 0.0820 0.0800
831.722714 0.0780 0.0770 0.0730 0.0720 0.0700
835.986500 0.0690 0.0680 0.0660 0.0660 0.0650
840.250286 0.0650 0.0650 0.0650 0.0650 0.0650
844.514071 0.0660 0.0660 0.0690 0.0720 0.0760
848.777857 0.0770 0.0780 0.0800 0.0820 0.0850
853.041643 0.0850 0.0860 0.0860 0.0880 0.0880
857.305429 0.0880 0.0880 0.0880 0.0880 0.0890
861.569214 0.0880 0.0880 0.0880 0.0880 0.0890
865.833000 0.0890 0.0890 0.0890 0.0890 0.0890
870.096786 0.0890 0.0900 0.0940 0.0970 0.1010
874.360571 0.1010 0.1020 0.1020 0.1020 0.1040
878.624357 0.1040 0.1050 0.1060 0.1080 0.1090
882.888143 0.1090 0.1120 0.1130 0.1160 0.1170
887.151929 0.1180 0.1200 0.1240 0.1240 0.1250
891.415714 0.1260 0.1300 0.1360 0.1410 0.1450
895.679500 0.1490 0.1520 0.1540 0.1560 0.1570
899.943286 0.1570 0.1580 0.1600 0.1610 0.1640
904.207071 0.1660 0.1720 0.1770 0.1850 0.1930
908.470857 0.1970 0.2000 0.2040 0.2130 0.2220
912.734643 0.2260 0.2330 0.2370 0.2450 0.2559
916.998429 0.2640 0.2730 0.2800 0.2890 0.2980
921.262214 0.3130 0.3180 0.3260 0.3340 0.3420
925.526000 0.3500 0.3580 0.3680 0.3760 0.3850
929.789786 0.3930 0.4010 0.4100 0.4140 0.4210
934.053571 0.4260 0.4300 0.4370 0.4410 0.4450
938.317357 0.4480 0.4490 0.4500 0.4520 0.4530
942.581143 0.4540 0.4570 0.4610 0.4620 0.4650
946.844929 0.4660 0.4680 0.4680 0.4680 0.4660
951.108714 0.4660 0.4650 0.4610 0.4580 0.4560
955.372500 0.4490 0.4440 0.4360 0.4300 0.4250
959.636286 0.4140 0.4020 0.3930 0.3880 0.3810
963.900071 0.3730 0.3640 0.3560 0.3480 0.3420
968.163857 0.3400 0.3400 0.3420 0.3480 0.3500
972.427643 0.3520 0.3580 0.3640 0.3720 0.3780
976.691429 0.3860 0.3930 0.4010 0.4060 0.4170
980.955214 0.4300 0.4320 0.4400 0.4480 0.4560
985.219000 0.4640 0.4720 0.4800 0.4880 0.4960
989.482786 0.5040 0.5120 0.5160 0.5180 0.5210
993.746571 0.5240 0.5290 0.5340 0.5360 0.5360
998.010357 0.5370 0.5380 0.5400 0.5410 0.5450
1002.274143 0.5480 0.5500 0.5540 0.5600 0.5610
1006.537929 0.5640 0.5690 0.5730 0.5800 0.5860
1010.801714 0.5900 0.5940 0.6000 0.6010 0.6050
1015.065500 0.6130 0.6160 0.6180 0.6280 0.6300
1019.329286 0.6340 0.6400 0.6410 0.6420 0.6440
1023.593071 0.6440 0.6440 0.6440 0.6410 0.6380
1027.856857 0.6370 0.6360 0.6340 0.6360 0.6360
1032.120643 0.6370 0.6370 0.6380 0.6380 0.6380
1036.384429 0.6380 0.6370 0.6330 0.6320 0.6280
1040.648214 0.6200 0.6120 0.6020 0.5940 0.5850
1044.912000 0.5780 0.5720 0.5650 0.5620 0.5620
1049.175786 0.5610 0.5600 0.5600 0.5570 0.5570
1053.439571 0.5540 0.5520 0.5490 0.5480 0.5440
1057.703357 0.5420 0.5420 0.5420 0.5410 0.5410
1061.967143 0.5400 0.5380 0.5380 0.5380 0.5360
1066.230929 0.5340 0.5330 0.5320 0.5290 0.5260
1070.494714 0.5260 0.5250 0.5210 0.5200 0.5160
1074.758500 0.5090 0.4980 0.4880 0.4761 0.4651
1079.022286 0.4530 0.4440 0.4370 0.4370 0.4400
1083.286071 0.4420 0.4440 0.4450 0.4460 0.4460
1087.549857 0.4460 0.4480 0.4480 0.4500 0.4520
1091.813643 0.4570 0.4600 0.4660 0.4700 0.4780
1096.077429 0.4890 0.5040 0.5210 0.5420 0.5660
1100.341214 0.5889 0.6129 0.6339 0.6529 0.6610
1104.605000 0.6730 0.6780 0.6860 0.6930 0.6970
1108.868786 0.6980 0.6980 0.6970 0.6940 0.6920
1113.132571 0.6890 0.6840 0.6800 0.6760 0.6690
1117.396357 0.6600 0.6490 0.6370 0.6250 0.6131
1121.660143 0.6020 0.5960 0.5920 0.5880 0.5860
1125.923929 0.5860 0.5860 0.5880 0.5890 0.5900
1130.187714 0.5960 0.6020 0.6060 0.6130 0.6180
1134.451500 0.6220 0.6290 0.6300 0.6300 0.6330
1138.715286 0.6400 0.6520 0.6580 0.6640 0.6700
1142.979071 0.6770 0.6840 0.6920 0.7000 0.7080
1147.242857 0.7170 0.7250 0.7340 0.7440 0.7530
1151.506643 0.7620 0.7720 0.7770 0.7820 0.7860
1155.770429 0.7930 0.7970 0.8020 0.8100 0.8130
1160.034214 0.8180 0.8210 0.8250 0.8290 0.8320
1164.298000 0.8330 0.8360 0.8370 0.8380 0.8380
1168.561786 0.8380 0.8380 0.8380 0.8380 0.8380
1172.825571 0.8370 0.8370 0.8370 0.8360 0.8360
1177.089357 0.8360 0.8360 0.8360 0.8370 0.8370
1181.353143 0.8370 0.8460 0.8520 0.8580 0.8650
1185.616929 0.8700 0.8720 0.8730 0.8740 0.8760
1189.880714 0.8770 0.8770 0.8800 0.8800 0.8800
1194.144500 0.8800 0.8800 0.8810 0.8810 0.8810
1198.408286 0.8810 0.8820 0.8820 0.8850 0.8890
1202.672071 0.8890 0.8900 0.8900 0.8900 0.8900
1206.935857 0.8920 0.8920 0.8920 0.8920 0.8920
1211.199643 0.8920 0.8920 0.8920 0.8920 0.8920
1215.463429 0.8900 0.8900 0.8900 0.8900 0.8890
1219.727214 0.8890 0.8840 0.8820 0.8800 0.8780
1223.991000 0.8770 0.8770 0.8760 0.8730 0.8700
1228.254786 0.8690 0.8660 0.8610 0.8560 0.8520
1232.518571 0.8500 0.8460 0.8420 0.8400 0.8370
1236.782357 0.8330 0.8290 0.8240 0.8200 0.8140
1241.046143 0.8120 0.8080 0.8060 0.8060 0.8060
1245.309929 0.8060 0.8060 0.8060 0.8060 0.8080
1249.573714 0.8080 0.8090 0.8090 0.8090 0.8090
1253.837500 0.8090 0.8090 0.8090 0.8080 0.8080
1258.101286 0.8080 0.8080 0.8080 0.8090 0.8090
1262.365071 0.8090 0.8090 0.8090 0.8100 0.8120
1266.628857 0.8120 0.8130 0.8140 0.8140 0.8160
1270.892643 0.8160 0.8140 0.8140 0.8140 0.8130
1275.156429 0.8130 0.8120 0.8120 0.8060 0.8050
1279.420214 0.8040 0.8000 0.7970 0.7960 0.7940
1283.684000 0.7930 0.7880 0.7840 0.7820 0.7810
1287.947786 0.7770 0.7740 0.7700 0.7640 0.7600
1292.211571 0.7560 0.7520 0.7480 0.7420 0.7400
1296.475357 0.7340 0.7320 0.7280 0.7250 0.7240
1300.739143 0.7180 0.7130 0.7090 0.7080 0.7060
1305.002929 0.7060 0.7020 0.7010 0.7000 0.6980
1309.266714 0.6970 0.6960 0.6960 0.6940 0.6930
1313.530500 0.6930 0.6930 0.6930 0.6940 0.6960
1317.794286 0.6960 0.6980 0.7000 0.7020 0.7060
1322.058071 0.7080 0.7090 0.7130 0.7140 0.7160
1326.321857 0.7170 0.7160 0.7160 0.7140 0.7130
1330.585643 0.7090 0.7090 0.7080 0.7060 0.7000
1334.849429 0.6980 0.6970 0.6930 0.6890 0.6850
1339.113214 0.6840 0.6820 0.6820 0.6840 0.6890
1343.377000 0.6900 0.6930 0.6960 0.6970 0.6970
1347.640786 0.6970 0.6970 0.6960 0.6930 0.6890
1351.904571 0.6840 0.6780 0.6760 0.6660 0.6600
1356.168357 0.6530 0.6460 0.6440 0.6380 0.6360
1360.432143 0.6300 0.6240 0.6200 0.6140 0.6020
1364.695929 0.5920 0.5820 0.5730 0.5640 0.5501
1368.959714 0.5440 0.5320 0.5250 0.5170 0.5120
1373.223500 0.5040 0.4980 0.4880 0.4721 0.4501
1377.487286 0.4060 0.3650 0.3420 0.3011 0.2960
1381.751071 0.2960 0.2980 0.3159 0.3379 0.3619
1386.014857 0.3840 0.4020 0.4170 0.4260 0.4340
1390.278643 0.4400 0.4450 0.4490 0.4560 0.4580
1394.542429 0.4690 0.4800 0.4900 0.5080 0.5300
1398.806214 0.5420 0.5649 0.5939 0.6239 0.6479
1403.070000 0.6600 0.6690 0.6810 0.6940 0.7080
1407.333786 0.7210 0.7300 0.7330 0.7370 0.7440
1411.597571 0.7480 0.7490 0.7490 0.7480 0.7480
1415.861357 0.7460 0.7450 0.7440 0.7410 0.7400
1420.125143 0.7370 0.7320 0.7280 0.7250 0.7240
1424.388929 0.7200 0.7140 0.7090 0.7000 0.6920
1428.652714 0.6850 0.6770 0.6610 0.6440 0.6211
1432.916500 0.6090 0.6000 0.5821 0.5651 0.5421
1437.180286 0.5220 0.5010 0.4890 0.4880 0.4800
1441.444071 0.4780 0.4770 0.4690 0.4650 0.4560
1445.707857 0.4450 0.4360 0.4220 0.4040 0.3940
1449.971643 0.3621 0.3411 0.3121 0.3011 0.2851
1454.235429 0.2640 0.2420 0.2180 0.1960 0.1760
1458.499214 0.1600 0.1480 0.1380 0.1360 0.1330
1462.763000 0.1320 0.1300 0.1280 0.1260 0.1250
1467.026786 0.1250 0.1250 0.1260 0.1320 0.1439
1471.290571 0.1610 0.1770 0.1940 0.2179 0.2569
1475.554357 0.3078 0.3259 0.3360 0.3460 0.3569
1479.818143 0.3680 0.3930 0.4060 0.4240 0.4440
1484.081929 0.4659 0.4899 0.5129 0.5359 0.5539
1488.345714 0.5690 0.5820 0.6060 0.6260 0.6420
1492.609500 0.6480 0.6580 0.6620 0.6650 0.6680
1496.873286 0.6760 0.6820 0.6860 0.6890 0.6960
1501.137071 0.7000 0.7020 0.7060 0.7060 0.7080
1505.400857 0.7100 0.7130 0.7140 0.7170 0.7180
1509.664643 0.7200 0.7200 0.7210 0.7210 0.7210
1513.928429 0.7200 0.7200 0.7200 0.7200 0.7200
1518.192214 0.7200 0.7200 0.7200 0.7200 0.7200
1522.456000 0.7180 0.7180 0.7170 0.7160 0.7160
1526.719786 0.7140 0.7130 0.7100 0.7090 0.7080
1530.983571 0.7060 0.7010 0.6980 0.6960 0.6940
1535.247357 0.6920 0.6900 0.6840 0.6810 0.6800
1539.511143 0.6780 0.6740 0.6650 0.6570 0.6500
1543.774929 0.6460 0.6450 0.6440 0.6400 0.6370
1548.038714 0.6330 0.6320 0.6280 0.6240 0.6140
1552.302500 0.6060 0.6020 0.5970 0.5930 0.5880
1556.566286 0.5820 0.5740 0.5690 0.5650 0.5500
1560.830071 0.5360 0.5320 0.5300 0.5300 0.5290
1565.093857 0.5260 0.5240 0.5140 0.5120 0.5040
1569.357643 0.5000 0.4920 0.4860 0.4760 0.4690
1573.621429 0.4660 0.4610 0.4560 0.4480 0.4370
1577.885214 0.4260 0.4170 0.4090 0.4060 0.4000
1582.149000 0.3960 0.3900 0.3810 0.3730 0.3700
1586.412786 0.3640 0.3560 0.3520 0.3450 0.3331
1590.676571 0.3250 0.3220 0.3140 0.3120 0.3090
1594.940357 0.3040 0.3010 0.2970 0.2940 0.2930
1599.204143 0.2890 0.2860 0.2840 0.2820 0.2810
1603.467929 0.2820 0.2840 0.2860 0.2880 0.2900
1607.731714 0.2930 0.2960 0.2980 0.3050 0.3100
1611.995500 0.3130 0.3180 0.3220 0.3250 0.3300
1616.259286 0.3340 0.3410 0.3480 0.3580 0.3650
1620.523071 0.3720 0.3740 0.3770 0.3800 0.3880
1624.786857 0.3940 0.4000 0.4090 0.4120 0.4140
1629.050643 0.4160 0.4210 0.4290 0.4360 0.4380
1633.314429 0.4400 0.4460 0.4560 0.4650 0.4740
1637.578214 0.4800 0.4880 0.4900 0.4940 0.5000
1641.842000 0.5020 0.5040 0.5100 0.5130 0.5180
1646.105786 0.5240 0.5300 0.5380 0.5440 0.5480
1650.369571 0.5520 0.5540 0.5540 0.5540 0.5570
1654.633357 0.5570 0.5570 0.5570 0.5570 0.5570
1658.897143 0.5570 0.5580 0.5600 0.5600 0.5600
1663.160929 0.5600 0.5610 0.5610 0.5610 0.5610
1667.424714 0.5610 0.5610 0.5610 0.5640 0.5680
1671.688500 0.5770 0.5810 0.5820 0.5840 0.5900
1675.952286 0.5940 0.6020 0.6170 0.6340 0.6410
1680.216071 0.6420 0.6460 0.6580 0.6640 0.6759
1684.479857 0.6840 0.6920 0.7050 0.7180 0.7200
1688.743643 0.7220 0.7240 0.7280 0.7399 0.7480
1693.007429 0.7530 0.7580 0.7610 0.7680 0.7760
1697.271214 0.7840 0.7960 0.8010 0.8060 0.8120
1701.535000 0.8210 0.8300 0.8340 0.8340 0.8360
1705.798786 0.8360 0.8400 0.8450 0.8500 0.8540
1710.062571 0.8540 0.8580 0.8690 0.8720 0.8730
1714.326357 0.8760 0.8800 0.8900 0.8930 0.9010
1718.590143 0.9060 0.9060 0.9100 0.9120 0.9130
1722.853929 0.9140 0.9140 0.9160 0.9170 0.9180
1727.117714 0.9200 0.9210 0.9220 0.9240 0.9260
1731.381500 0.9320 0.9330 0.9340 0.9400 0.9420
1735.645286 0.9460 0.9480 0.9490 0.9500 0.9490
1739.909071 0.9500 0.9500 0.9500 0.9520 0.9520
1744.172857 0.9530 0.9540 0.9540 0.9560 0.9570
1748.436643 0.9580 0.9580 0.9600 0.9600 0.9610
1752.700429 0.9610 0.9620 0.9640 0.9660 0.9680
1756.964214 0.9680 0.9680 0.9690 0.9700 0.9720
1761.228000 0.9740 0.9760 0.9740 0.9760 0.9760
1765.491786 0.9770 0.9770 0.9770 0.9780 0.9780
1769.755571 0.9780 0.9810 0.9820 0.9840 0.9840
1774.019357 0.9840 0.9840 0.9850 0.9850 0.9850
1778.283143 0.9840 0.9840 0.9840 0.9840 0.9840
1782.546929 0.9840 0.9840 0.9840 0.9850 0.9850
1786.810714 0.9850 0.9840 0.9820 0.9820 0.9820
1791.074500 0.9820 0.9820 0.9840 0.9850 0.9850
1795.338286 0.9860 0.9860 0.9880 0.9880 0.9890
1799.602071 0.9890 0.9890 0.9880 0.9880 0.9860
1803.865857 0.9860 0.9860 0.9850 0.9850 0.9820
1808.129643 0.9770 0.9780 0.9820 0.9880 0.9890
1812.393429 0.9890 0.9890 0.9900 0.9920 1.0010
1816.657214 1.0020 0.9960 0.9890 0.9880 0.9880
1820.921000 0.9860 0.9860 0.9860 0.9860 0.9880
1825.184786 0.9890 0.9890 0.9890 0.9890 0.9890
1829.448571 0.9890 0.9890 0.9890 0.9890 0.9890
1833.712357 0.9890 0.9890 0.9880 0.9880 0.9880
1837.976143 0.9880 0.9860 0.9860 0.9860 0.9860
1842.239929 0.9860 0.9860 0.9860 0.9860 0.9860
1846.503714 0.9860 0.9860 0.9860 0.9860 0.9860
1850.767500 0.9860 0.9860 0.9850 0.9850 0.9840
1855.031286 0.9840 0.9840 0.9840 0.9820 0.9820
1859.295071 0.9780 0.9780 0.9820 0.9840 0.9840
1863.558857 0.9840 0.9840 0.9840 0.9840 0.9850
1867.822643 0.9890 0.9940 0.9860 0.9850 0.9850
1872.086429 0.9850 0.9850 0.9850 0.9850 0.9840
1876.350214 0.9840 0.9840 0.9820 0.9820 0.9820
1880.614000 0.9810 0.9810 0.9800 0.9800 0.9780
1884.877786 0.9780 0.9800 0.9810 0.9810 0.9820
1889.141571 0.9820 0.9820 0.9840 0.9840 0.9840
1893.405357 0.9840 0.9840 0.9840 0.9840 0.9840
1897.669143 0.9820 0.9820 0.9810 0.9810 0.9810
1901.932929 0.9810 0.9810 0.9810 0.9810 0.9810
1906.196714 0.9810 0.9810 0.9810 0.9800 0.9800
1910.460500 0.9800 0.9800 0.9800 0.9800 0.9800
1914.724286 0.9780 0.9800 0.9780 0.9780 0.9780
1918.988071 0.9780 0.9780 0.9770 0.9770 0.9770
1923.251857 0.9770 0.9760 0.9760 0.9740 0.9740
1927.515643 0.9740 0.9720 0.9720 0.9700 0.9690
1931.779429 0.9680 0.9680 0.9680 0.9650 0.9650
1936.043214 0.9720 0.9730 0.9730 0.9730 0.9730
1940.307000 0.9730 0.9740 0.9760 0.9760 0.9770
1944.570786 0.9770 0.9770 0.9780 0.9780 0.9780
1948.834571 0.9800 0.9810 0.9810 0.9820 0.9820
1953.098357 0.9820 0.9820 0.9820 0.9820 0.9820
1957.362143 0.9820 0.9820 0.9820 0.9840 0.9900
1961.625929 1.0040 1.0050 1.0040 0.9980 0.9920
1965.889714 0.9900 0.9890 0.9840 0.9840 0.9840
1970.153500 0.9840 0.9840 0.9840 0.9840 0.9840
1974.417286 0.9840 0.9840 0.9840 0.9840 0.9840
1978.681071 0.9840 0.9820 0.9820 0.9820 0.9820
1982.944857 0.9820 0.9820 0.9820 0.9820 0.9820
1987.208643 0.9820 0.9820 0.9840 0.9840 0.9840
1991.472429 0.9840 0.9850 0.9850 0.9850 1.0179
1995.736214 1.0180 1.0060 0.9941 0.9890 0.9880
2000.000000 0.9850 0.9815 0.9780 0.9820 0.9860
2004.263786 0.9860 0.9860 0.9860 0.9860 0.9855
2008.527571 0.9850 0.9850 0.9850 0.9850 0.9850
2012.791357 0.9845 0.9840 0.9840 0.9840 0.9830
2017.055143 0.9820 0.9815 0.9810 0.9805 0.9800
2021.318929 0.9790 0.9780 0.9761 0.9741 0.9735
2025.582714 0.9730 0.9730 0.9730 0.9730 0.9730
2029.846500 0.9735 0.9740 0.9740 0.9740 0.9740
2034.110286 0.9740 0.9735 0.9730 0.9730 0.9730
2038.374071 0.9725 0.9720 0.9720 0.9720 0.9744
2042.637857 0.9769 0.9775 0.9780 0.9780 0.9780
2046.901643 0.9780 0.9780 0.9775 0.9770 0.9770
2051.165429 0.9770 0.9770 0.9770 0.9765 0.9760
2055.429214 0.9760 0.9760 0.9760 0.9760 0.9746
2059.693000 0.9731 0.9711 0.9691 0.9676 0.9661
2063.956786 0.9669 0.9679 0.9680 0.9680 0.9685
2068.220571 0.9690 0.9690 0.9690 0.9704 0.9719
2072.484357 0.9725 0.9730 0.9730 0.9730 0.9730
2076.748143 0.9730 0.9744 0.9759 0.9765 0.9770
2081.011929 0.9775 0.9780 0.9794 0.9808 0.9810
2085.275714 0.9810 0.9815 0.9820 0.9820 0.9820
2089.539500 0.9820 0.9820 0.9820 0.9820 0.9815
2093.803286 0.9811 0.9810 0.9810 0.9810 0.9810
2098.067071 0.9806 0.9801 0.9800 0.9800 0.9791
2102.330857 0.9781 0.9780 0.9780 0.9776 0.9771
2106.594643 0.9766 0.9761 0.9760 0.9760 0.9769
2110.858429 0.9779 0.9793 0.9808 0.9810 0.9810
2115.122214 0.9810 0.9810 0.9810 0.9810 0.9810
2119.386000 0.9810 0.9806 0.9801 0.9800 0.9800
2123.649786 0.9791 0.9781 0.9780 0.9780 0.9780
2127.913571 0.9780 0.9780 0.9780 0.9780 0.9780
2132.177357 0.9780 0.9780 0.9780 0.9780 0.9780
2136.441143 0.9780 0.9780 0.9780 0.9780 0.9780
2140.704929 0.9780 0.9780 0.9780 0.9780 0.9780
2144.968714 0.9780 0.9780 0.9780 0.9780 0.9780
2149.232500 0.9780 0.9780 0.9776 0.9771 0.9766
2153.496286 0.9761 0.9747 0.9732 0.9726 0.9721
2157.760071 0.9720 0.9720 0.9712 0.9702 0.9696
2162.023857 0.9691 0.9690 0.9690 0.9690 0.9690
2166.287643 0.9690 0.9690 0.9686 0.9681 0.9680
2170.551429 0.9680 0.9680 0.9680 0.9680 0.9680
2174.815214 0.9680 0.9680 0.9680 0.9680 0.9680
2179.079000 0.9680 0.9680 0.9680 0.9680 0.9680
2183.342786 0.9680 0.9680 0.9680 0.9680 0.9680
2187.606571 0.9680 0.9672 0.9662 0.9660 0.9660
2191.870357 0.9656 0.9651 0.9650 0.9650 0.9650
2196.134143 0.9650 0.9650 0.9650 0.9650 0.9650
2200.397929 0.9646 0.9641 0.9640 0.9640 0.9640
2204.661714 0.9640 0.9640 0.9640 0.9640 0.9640
2208.925500 0.9640 0.9640 0.9640 0.9640 0.9640
2213.189286 0.9640 0.9644 0.9649 0.9650 0.9650
2217.453071 0.9650 0.9650 0.9646 0.9641 0.9640
2221.716857 0.9640 0.9640 0.9640 0.9644 0.9649
2225.980643 0.9646 0.9641 0.9640 0.9640 0.9640
2230.244429 0.9640 0.9640 0.9640 0.9640 0.9640
2234.508214 0.9644 0.9649 0.9650 0.9650 0.9650
2238.772000 0.9650 0.9654 0.9659 0.9660 0.9660
2243.035786 0.9660 0.9660 0.9660 0.9660 0.9660
2247.299571 0.9660 0.9660 0.9660 0.9660 0.9660
2251.563357 0.9660 0.9660 0.9660 0.9660 0.9660
2255.827143 0.9660 0.9660 0.9660 0.9660 0.9660
2260.090929 0.9660 0.9660 0.9660 0.9660 0.9667
2264.354714 0.9677 0.9684 0.9689 0.9690 0.9690
2268.618500 0.9690 0.9690 0.9690 0.9690 0.9686
2272.882286 0.9681 0.9680 0.9680 0.9680 0.9680
2277.146071 0.9684 0.9689 0.9701 0.9716 0.9734
2281.409857 0.9754 0.9760 0.9760 0.9753 0.9743
2285.673643 0.9740 0.9740 0.9740 0.9740 0.9747
2289.937429 0.9757 0.9764 0.9769 0.9770 0.9770
2294.201214 0.9766 0.9761 0.9760 0.9760 0.9760
2298.465000 0.9760 0.9763 0.9768 0.9773 0.9778
2302.728786 0.9787 0.9797 0.9793 0.9783 0.9780
2306.992571 0.9780 0.9777 0.9772 0.9770 0.9770
2311.256357 0.9770 0.9770 0.9770 0.9770 0.9767
2315.520143 0.9762 0.9760 0.9760 0.9763 0.9768
2319.783929 0.9780 0.9795 0.9800 0.9800 0.9800
2324.047714 0.9800 0.9800 0.9800 0.9800 0.9800
2328.311500 0.9800 0.9800 0.9800 0.9800 0.9793
2332.575286 0.9783 0.9787 0.9797 0.9800 0.9800
2336.839071 0.9800 0.9800 0.9800 0.9800 0.9803
2341.102857 0.9808 0.9813 0.9818 0.9820 0.9820
2345.366643 0.9820 0.9820 0.9820 0.9820 0.9820
2349.630429 0.9820 0.9820 0.9820 0.9820 0.9820
2353.894214 0.9817 0.9812 0.9810 0.9810 0.9807
2358.158000 0.9802 0.9790 0.9775 0.9767 0.9762
2362.421786 0.9760 0.9760 0.9760 0.9760 0.9760
2366.685571 0.9760 0.9760 0.9760 0.9760 0.9760
2370.949357 0.9763 0.9768 0.9770 0.9770 0.9770
2375.213143 0.9770 0.9770 0.9770 0.9770 0.9770
2379.476929 0.9770 0.9770 0.9761 0.9746 0.9740
2383.740714 0.9740 0.9740 0.9740 0.9752 0.9772
2388.004500 0.9780 0.9780 0.9777 0.9772 0.9758
2392.268286 0.9738 0.9727 0.9722 0.9720 0.9720
2396.532071 0.9720 0.9720 0.9714 0.9704 0.9700
2400.795857 0.9700 0.9700 0.9700 0.9700 0.9700
2405.059643 0.9700 0.9700 0.9700 0.9700 0.9700
2409.323429 0.9700 0.9706 0.9716 0.9723 0.9728
2413.587214 0.9730 0.9730 0.9727 0.9722 0.9720
2417.851000 0.9720 0.9723 0.9728 0.9733 0.9738
2422.114786 0.9746 0.9756 0.9763 0.9768 0.9770
2426.378571 0.9770 0.9770 0.9770 0.9767 0.9762
2430.642357 0.9760 0.9760 0.9763 0.9768 0.9770
2434.906143 0.9770 0.9770 0.9770 0.9770 0.9770
2439.169929 0.9770 0.9770 0.9770 0.9770 0.9773
2443.433714 0.9778 0.9780 0.9780 0.9780 0.9780
2447.697500 0.9780 0.9780 0.9780 0.9780 0.9785
2451.961286 0.9795 0.9795 0.9785 0.9780 0.9780
2456.225071 0.9780 0.9780 0.9777 0.9772 0.9770
2460.488857 0.9770 0.9770 0.9770 0.9770 0.9770
2464.752643 0.9767 0.9762 0.9760 0.9760 0.9760
2469.016429 0.9760 0.9760 0.9760 0.9760 0.9760
2473.280214 0.9752 0.9737 0.9730 0.9730 0.9727
2477.544000 0.9722 0.9720 0.9720 0.9720 0.9720
2481.807786 0.9715 0.9705 0.9700 0.9700 0.9700
2486.071571 0.9700 0.9697 0.9693 0.9690 0.9690
2490.335357 0.9688 0.9683 0.9680 0.9680 0.9675
2494.599143 0.9665 0.9657 0.9652 0.9650 0.9650
2498.862929 0.9650 0.9650 0.9650 0.9650 0.9648
2503.126714 0.9643 0.9635 0.9625 0.9620 0.9620
2507.390500 0.9618 0.9613 0.9608 0.9603 0.9595
2511.654286 0.9585 0.9580 0.9580 0.9580 0.9580
2515.918071 0.9578 0.9573 0.9570 0.9570 0.9570
2520.181857 0.9570 0.9568 0.9563 0.9555 0.9545
2524.445643 0.9540 0.9540 0.9538 0.9533 0.9528
2528.709429 0.9523 0.9513 0.9498 0.9488 0.9483
2532.973214 0.9475 0.9465 0.9460 0.9460 0.9455
2537.237000 0.9445 0.9435 0.9426 0.9418 0.9413
2541.500786 0.9410 0.9410 0.9408 0.9403 0.9396
2545.764571 0.9386 0.9378 0.9373 0.9368 0.9363
2550.028357 0.9356 0.9346 0.9338 0.9333 0.9330
2554.292143 0.9330 0.9328 0.9323 0.9316 0.9306
2558.555929 0.9298 0.9293 0.9288 0.9283 0.9274
2562.819714 0.9259 0.9243 0.9228 0.9218 0.9213
2567.083500 0.9210 0.9210 0.9208 0.9203 0.9194
2571.347286 0.9179 0.9168 0.9163 0.9160 0.9160
2575.611071 0.9156 0.9146 0.9138 0.9133 0.9128
2579.874857 0.9123 0.9120 0.9120 0.9112 0.9092
2584.138643 0.9074 0.9059 0.9042 0.9022 0.9004
2588.402429 0.8989 0.8978 0.8973 0.8964 0.8949
2592.666214 0.8938 0.8933 0.8928 0.8923 0.8920
2596.930000 0.8920 0.8916 0.8906 0.8892 0.8872
2601.193786 0.8856 0.8846 0.8836 0.8826 0.8816
2605.457571 0.8806 0.8796 0.8786 0.8780 0.8780
2609.721357 0.8776 0.8766 0.8754 0.8739 0.8723
2613.985143 0.8702 0.8682 0.8662 0.8644 0.8629
2618.248929 0.8620 0.8620 0.8616 0.8606 0.8596
2622.512714 0.8586 0.8578 0.8573 0.8568 0.8563
2626.776500 0.8555 0.8540 0.8528 0.8523 0.8516
2631.040286 0.8506 0.8498 0.8493 0.8485 0.8470
2635.304071 0.8458 0.8453 0.8448 0.8443 0.8440
2639.567857 0.8440 0.8437 0.8427 0.8417 0.8407
2643.831643 0.8395 0.8380 0.8365 0.8350 0.8340
2648.095429 0.8340 0.8333 0.8313 0.8297 0.8287
2652.359214 0.8273 0.8253 0.8230 0.8200 0.8178
2656.623000 0.8173 0.8168 0.8163 0.8157 0.8147
2660.886786 0.8130 0.8100 0.8064 0.8014 0.7978
2665.150571 0.7973 0.7963 0.7943 0.7918 0.7884
2669.414357 0.7852 0.7827 0.7805 0.7790 0.7772
2673.678143 0.7747 0.7724 0.7704 0.7682 0.7657
2677.941929 0.7635 0.7620 0.7608 0.7603 0.7597
2682.205714 0.7587 0.7580 0.7580 0.7578 0.7573
2686.469500 0.7570 0.7570 0.7568 0.7563 0.7560
2690.733286 0.7560 0.7560 0.7560 0.7560 0.7560
2694.997071 0.7560 0.7560 0.7557 0.7547 0.7540
2699.260857 0.7540 0.7540 0.7540 0.7540 0.7540
2703.524643 0.7539 0.7534 0.7529 0.7524 0.7520
2707.788429 0.7520 0.7514 0.7494 0.7472 0.7442
2712.052214 0.7412 0.7382 0.7356 0.7341 0.7321
2716.316000 0.7285 0.7257 0.7247 0.7230 0.7195
2720.579786 0.7160 0.7125 0.7092 0.7062 0.7027
2724.843571 0.6977 0.6928 0.6883 0.6838 0.6793
2729.107357 0.6739 0.6660 0.6581 0.6506 0.6425
2733.371143 0.6324 0.6239 0.6199 0.6156 0.6101
2737.634929 0.6057 0.6047 0.6031 0.5996 0.5966
2741.898714 0.5951 0.5938 0.5928 0.5918 0.5908
2746.162500 0.5899 0.5894 0.5886 0.5871 0.5858
2750.426286 0.5848 0.5836 0.5821 0.5806 0.5791
2754.690071 0.5779 0.5774 0.5769 0.5764 0.5760
2758.953857 0.5760 0.5761 0.5766 0.5773 0.5788
2763.217643 0.5801 0.5806 0.5813 0.5828 0.5844
2767.481429 0.5865 0.5885 0.5905 0.5925 0.5945
2771.745214 0.5961 0.5966 0.5970 0.5970 0.5969
2776.009000 0.5964 0.5960 0.5960 0.5957 0.5942
2780.272786 0.5927 0.5912 0.5895 0.5870 0.5847
2784.536571 0.5832 0.5816 0.5796 0.5778 0.5768
2788.800357 0.5753 0.5718 0.5681 0.5636 0.5590
2793.064143 0.5540 0.5490 0.5440 0.5390 0.5340
2797.327929 0.5291 0.5241 0.5187 0.5117 0.5048
2801.591714 0.4983 0.4913 0.4828 0.4739 0.4629
2805.855500 0.4524 0.4439 0.4354 0.4269 0.4185
2810.119286 0.4106 0.4023 0.3928 0.3833 0.3739
2814.383071 0.3642 0.3537 0.3430 0.3310 0.3187
2818.646857 0.3046 0.2899 0.2724 0.2558 0.2433
2822.910643 0.2308 0.2184 0.2057 0.1922 0.1790
2827.174429 0.1670 0.1551 0.1437 0.1323 0.1219
2831.438214 0.1124 0.1084 0.1043 0.0998 0.0950
2835.702000 0.0879 0.0812 0.0762 0.0707 0.0627
2839.965786 0.0549 0.0479 0.0418 0.0408 0.0398
2844.229571 0.0383 0.0369 0.0364 0.0358 0.0343
2848.493357 0.0328 0.0313 0.0299 0.0294 0.0288
2852.757143 0.0273 0.0259 0.0249 0.0239 0.0229
2857.020929 0.0219 0.0214 0.0210 0.0210 0.0209
2861.284714 0.0204 0.0200 0.0200 0.0200 0.0200
2865.548500 0.0200 0.0200 0.0200 0.0200 0.0200
2869.812286 0.0200 0.0200 0.0200 0.0200 0.0200
2874.076071 0.0200 0.0200 0.0200 0.0200 0.0200
2878.339857 0.0200 0.0201 0.0206 0.0214 0.0254
2882.603643 0.0292 0.0307 0.0321 0.0331 0.0340
2886.867429 0.0340 0.0341 0.0351 0.0360 0.0360
2891.131214 0.0359 0.0349 0.0340 0.0340 0.0339
2895.395000 0.0329 0.0319 0.0309 0.0299 0.0289
2899.658786 0.0279 0.0264 0.0248 0.0228 0.0210
2903.922571 0.0205 0.0199 0.0189 0.0180 0.0180
2908.186357 0.0180 0.0175 0.0170 0.0170 0.0170
2912.450143 0.0170 0.0170 0.0170 0.0170 0.0170
2916.713929 0.0170 0.0170 0.0170 0.0170 0.0170
2920.977714 0.0165 0.0160 0.0160 0.0160 0.0160
2925.241500 0.0160 0.0160 0.0160 0.0160 0.0160
2929.505286 0.0160 0.0160 0.0160 0.0160 0.0165
2933.769071 0.0170 0.0170 0.0170 0.0170 0.0170
2938.032857 0.0170 0.0170 0.0170 0.0170 0.0170
2942.296643 0.0170 0.0170 0.0170 0.0170 0.0170
2946.560429 0.0170 0.0170 0.0170 0.0170 0.0170
2950.824214 0.0170 0.0170 0.0170 0.0170 0.0170
2955.088000 0.0170 0.0170 0.0170 0.0170 0.0170
2959.351786 0.0170 0.0175 0.0180 0.0180 0.0180
2963.615571 0.0180 0.0180 0.0180 0.0180 0.0180
2967.879357 0.0180 0.0190 0.0200 0.0200 0.0200
2972.143143 0.0225 0.0251 0.0286 0.0320 0.0330
2976.406929 0.0340 0.0355 0.0371 0.0436 0.0501
2980.670714 0.0571 0.0643 0.0972 0.1301 0.1430
2984.934500 0.1560 0.1725 0.1890 0.2029 0.2169
2989.198286 0.2305 0.2441 0.2566 0.2691 0.2795
2993.462071 0.2900 0.3000 0.3100 0.3195 0.3290
2997.725857 0.3374 0.3459 0.3534 0.3609 0.3709
3001.989643 0.3808 0.3889 0.3968 0.4029 0.4089
3006.253429 0.4149 0.4210 0.4250 0.4290 0.4330
3010.517214 0.4369 0.4409 0.4449 0.4489 0.4529
3014.781000 0.4569 0.4609 0.4644 0.4679 0.4704
3019.044786 0.4729 0.4764 0.4799 0.4810 0.4820
3023.308571 0.4849 0.4879 0.4890 0.4900 0.4910
3027.572357 0.4920 0.4939 0.4959 0.4984 0.5009
3031.836143 0.5024 0.5039 0.5045 0.5050 0.5055
3036.099929 0.5060 0.5069 0.5079 0.5085 0.5090
3040.363714 0.5095 0.5100 0.5100 0.5100 0.5110
3044.627500 0.5120 0.5120 0.5120 0.5120 0.5120
3048.891286 0.5125 0.5130 0.5130 0.5130 0.5125
3053.155071 0.5120 0.5120 0.5120 0.5101 0.5081
3057.418857 0.5071 0.5061 0.5060 0.5060 0.5051
3061.682643 0.5041 0.5040 0.5040 0.5040 0.5040
3065.946429 0.5031 0.5021 0.5020 0.5020 0.5020
3070.210214 0.5020 0.5015 0.5010 0.5010 0.5010
3074.474000 0.5005 0.5000 0.4986 0.4971 0.4956
3078.737786 0.4941 0.4931 0.4921 0.4911 0.4901
3083.001571 0.4895 0.4890 0.4890 0.4890 0.4885
3087.265357 0.4881 0.4867 0.4852 0.4846 0.4841
3091.529143 0.4827 0.4811 0.4805 0.4800 0.4791
3095.792929 0.4781 0.4776 0.4771 0.4757 0.4742
3100.056714 0.4722 0.4702 0.4691 0.4681 0.4662
3104.320500 0.4642 0.4631 0.4621 0.4611 0.4601
3108.584286 0.4591 0.4581 0.4576 0.4571 0.4566
3112.848071 0.4561 0.4529 0.4494 0.4486 0.4481
3117.111857 0.4467 0.4452 0.4437 0.4422 0.4403
3121.375643 0.4383 0.4363 0.4343 0.4323 0.4303
3125.639429 0.4291 0.4281 0.4267 0.4252 0.4228
3129.903214 0.4203 0.4187 0.4172 0.4140 0.4105
3134.167000 0.4091 0.4081 0.4063 0.4043 0.4014
3138.430786 0.3985 0.3963 0.3943 0.3923 0.3903
3142.694571 0.3883 0.3863 0.3843 0.3823 0.3811
3146.958357 0.3802 0.3766 0.3726 0.3695 0.3665
3151.222143 0.3639 0.3614 0.3597 0.3582 0.3563
3155.485929 0.3543 0.3523 0.3503 0.3483 0.3464
3159.749714 0.3439 0.3414 0.3372 0.3327 0.3291
3164.013500 0.3256 0.3233 0.3213 0.3198 0.3183
3168.277286 0.3164 0.3144 0.3107 0.3067 0.3044
3172.541071 0.3024 0.3004 0.2984 0.2964 0.2944
3176.804857 0.2920 0.2894 0.2874 0.2854 0.2834
3181.068643 0.2814 0.2798 0.2783 0.2772 0.2762
3185.332429 0.2748 0.2733 0.2726 0.2721 0.2712
3189.596214 0.2702 0.2696 0.2691 0.2690 0.2690
3193.860000 0.2690 0.2690 0.2686 0.2681 0.2680
3198.123786 0.2680 0.2672 0.2662 0.2660 0.2660
3202.387571 0.2660 0.2660 0.2660 0.2660 0.2660
3206.651357 0.2660 0.2656 0.2651 0.2650 0.2650
3210.915143 0.2650 0.2650 0.2650 0.2650 0.2650
3215.178929 0.2650 0.2650 0.2650 0.2646 0.2641
3219.442714 0.2632 0.2622 0.2616 0.2611 0.2606
3223.706500 0.2601 0.2592 0.2582 0.2580 0.2580
3227.970286 0.2576 0.2571 0.2555 0.2535 0.2526
3232.234071 0.2521 0.2509 0.2494 0.2486 0.2481
3236.497857 0.2469 0.2454 0.2446 0.2441 0.2433
3240.761643 0.2423 0.2401 0.2376 0.2366 0.2361
3245.025429 0.2360 0.2360 0.2352 0.2342 0.2325
3249.289214 0.2305 0.2285 0.2265 0.2253 0.2243
3253.553000 0.2218 0.2188 0.2173 0.2163 0.2138
3257.816786 0.2108 0.2085 0.2065 0.2053 0.2043
3262.080571 0.2029 0.2014 0.1999 0.1984 0.1973
3266.344357 0.1963 0.1949 0.1934 0.1916 0.1896
3270.608143 0.1865 0.1830 0.1806 0.1786 0.1776
3274.871929 0.1771 0.1759 0.1744 0.1726 0.1706
3279.135714 0.1682 0.1657 0.1650 0.1650 0.1639
3283.399500 0.1624 0.1613 0.1603 0.1593 0.1583
3287.663286 0.1576 0.1571 0.1570 0.1570 0.1567
3291.927071 0.1562 0.1553 0.1543 0.1537 0.1532
3296.190857 0.1530 0.1530 0.1534 0.1538 0.1547
3300.454643 0.1557 0.1560 0.1560 0.1563 0.1568
3304.718429 0.1580 0.1595 0.1603 0.1608 0.1627
3308.982214 0.1652 0.1680 0.1710 0.1740 0.1770
3313.246000 0.1804 0.1839 0.1864 0.1884 0.1914
3317.509786 0.1949 0.1967 0.1977 0.1987 0.1997
3321.773571 0.2007 0.2017 0.2030 0.2045 0.2050
3326.037357 0.2050 0.2063 0.2083 0.2100 0.2115
3330.301143 0.2123 0.2128 0.2140 0.2155 0.2163
3334.564929 0.2168 0.2170 0.2170 0.2170 0.2170
3338.828714 0.2170 0.2170 0.2170 0.2170 0.2160
3343.092500 0.2145 0.2137 0.2132 0.2127 0.2122
3347.356286 0.2110 0.2095 0.2074 0.2049 0.2021
3351.620071 0.1991 0.1961 0.1931 0.1898 0.1863
3355.883857 0.1828 0.1793 0.1764 0.1739 0.1708
3360.147643 0.1673 0.1644 0.1619 0.1594 0.1569
3364.411429 0.1551 0.1536 0.1521 0.1506 0.1487
3368.675214 0.1467 0.1457 0.1452 0.1450 0.1450
3372.939000 0.1450 0.1450 0.1450 0.1450 0.1453
3377.202786 0.1458 0.1478 0.1508 0.1547 0.1592
3381.466571 0.1622 0.1642 0.1653 0.1658 0.1691
3385.730357 0.1741 0.1790 0.1840 0.1893 0.1948
3389.994143 0.1997 0.2042 0.2093 0.2148 0.2203
3394.257929 0.2258 0.2310 0.2359 0.2415 0.2475
3398.521714 0.2532 0.2588 0.2646 0.2706 0.2766
3402.785500 0.2826 0.2883 0.2937 0.2966 0.2976
3407.049286 0.3000 0.3035 0.3073 0.3113 0.3144
3411.313071 0.3169 0.3209 0.3259 0.3286 0.3296
3415.576857 0.3309 0.3324 0.3339 0.3354 0.3377
3419.840643 0.3407 0.3432 0.3451 0.3469 0.3484
3424.104429 0.3499 0.3513 0.3526 0.3536 0.3551
3428.368214 0.3571 0.3588 0.3603 0.3618 0.3633
3432.632000 0.3651 0.3671 0.3686 0.3696 0.3706
3436.895786 0.3716 0.3726 0.3736 0.3751 0.3771
3441.159571 0.3791 0.3811 0.3825 0.3835 0.3851
3445.423357 0.3871 0.3883 0.3888 0.3898 0.3913
3449.687143 0.3933 0.3959 0.3973 0.3978 0.3985
3453.950929 0.3995 0.3995 0.3985 0.3985 0.3995
3458.214714 0.4013 0.4038 0.4053 0.4058 0.4071
3462.478500 0.4090 0.4116 0.4146 0.4163 0.4168
3466.742286 0.4173 0.4178 0.4196 0.4226 0.4245
3471.006071 0.4255 0.4268 0.4283 0.4303 0.4328
3475.269857 0.4345 0.4355 0.4365 0.4375 0.4395
3479.533643 0.4425 0.4445 0.4455 0.4475 0.4505
3483.797429 0.4525 0.4535 0.4545 0.4555 0.4563
3488.061214 0.4568 0.4583 0.4608 0.4630 0.4650
3492.325000 0.4675 0.4705 0.4730 0.4750 0.4762
3496.588786 0.4767 0.4780 0.4800 0.4822 0.4847
3500.852571 0.4870 0.4890 0.4910 0.4930 0.4950
3505.116357 0.4970 0.4987 0.5002 0.5012 0.5017
3509.380143 0.5039 0.5079 0.5110 0.5130 0.5149
3513.643929 0.5169 0.5194 0.5224 0.5242 0.5247
3517.907714 0.5257 0.5272 0.5294 0.5324 0.5350
3522.171500 0.5370 0.5389 0.5409 0.5429 0.5449
3526.435286 0.5474 0.5504 0.5529 0.5549 0.5569
3530.699071 0.5589 0.5611 0.5636 0.5659 0.5679
3534.962857 0.5701 0.5726 0.5749 0.5769 0.5794
3539.226643 0.5824 0.5851 0.5876 0.5899 0.5919
3543.490429 0.5941 0.5966 0.5993 0.6023 0.6053
3547.754214 0.6083 0.6113 0.6143 0.6171 0.6196
3552.018000 0.6225 0.6260 0.6293 0.6323 0.6353
3556.281786 0.6383 0.6411 0.6436 0.6461 0.6486
3560.545571 0.6515 0.6550 0.6581 0.6606 0.6635
3564.809357 0.6670 0.6698 0.6718 0.6738 0.6758
3569.073143 0.6793 0.6848 0.6891 0.6916 0.6945
3573.336929 0.6980 0.7008 0.7028 0.7042 0.7047
3577.600714 0.7056 0.7071 0.7096 0.7136 0.7172
3581.864500 0.7202 0.7232 0.7262 0.7288 0.7308
3586.128286 0.7332 0.7362 0.7386 0.7401 0.7426
3590.392071 0.7466 0.7504 0.7539 0.7570 0.7595
3594.655857 0.7616 0.7631 0.7648 0.7668 0.7690
3598.919643 0.7715 0.7738 0.7758 0.7780 0.7805
3603.183429 0.7831 0.7862 0.7884 0.7894 0.7904
3607.447214 0.7914 0.7924 0.7934 0.7952 0.7981
3611.711000 0.8019 0.8069 0.8106 0.8121 0.8136
3615.974786 0.8151 0.8169 0.8194 0.8217 0.8237
3620.238571 0.8263 0.8298 0.8328 0.8347 0.8367
3624.502357 0.8387 0.8402 0.8407 0.8412 0.8417
3628.766143 0.8425 0.8440 0.8459 0.8484 0.8505
3633.029929 0.8520 0.8537 0.8557 0.8579 0.8604
3637.293714 0.8627 0.8647 0.8667 0.8687 0.8704
3641.557500 0.8714 0.8722 0.8727 0.8732 0.8737
3645.821286 0.8750 0.8780 0.8810 0.8840 0.8865
3650.085071 0.8880 0.8890 0.8890 0.8892 0.8897
3654.348857 0.8900 0.8900 0.8900 0.8900 0.8900
3658.612643 0.8900 0.8900 0.8900 0.8898 0.8893
3662.876429 0.8888 0.8883 0.8877 0.8867 0.8860
3667.140214 0.8860 0.8854 0.8834 0.8814 0.8794
3671.404000 0.8771 0.8740 0.8713 0.8694 0.8677
3675.667786 0.8667 0.8658 0.8653 0.8648 0.8643
3679.931571 0.8640 0.8640 0.8646 0.8666 0.8688
3684.195357 0.8713 0.8748 0.8808 0.8874 0.8954
3688.459143 0.9047 0.9173 0.9279 0.9338 0.9395
3692.722929 0.9445 0.9494 0.9539 0.9576 0.9596
3696.986714 0.9623 0.9668 0.9710 0.9745 0.9774
3701.250500 0.9789 0.9803 0.9813 0.9823 0.9833
3705.514286 0.9840 0.9840 0.9841 0.9846 0.9851
3709.778071 0.9856 0.9863 0.9873 0.9880 0.9880
3714.041857 0.9881 0.9886 0.9891 0.9896 0.9900
3718.305643 0.9900 0.9903 0.9913 0.9923 0.9933
3722.569429 0.9943 0.9953 0.9961 0.9966 0.9971
3726.833214 0.9976 0.9980 0.9980 0.9980 0.9980
3731.097000 0.9983 0.9993 1.0001 1.0006 1.0010
3735.360786 1.0010 1.0010 1.0010 1.0011 1.0016
3739.624571 1.0020 1.0020 1.0020 1.0020 1.0020
3743.888357 1.0020 1.0020 1.0020 1.0019 1.0014
3748.152143 1.0010 1.0010 1.0011 1.0016 1.0020
3752.415929 1.0020 1.0022 1.0032 1.0041 1.0046
3756.679714 1.0050 1.0050 1.0050 1.0050 1.0050
3760.943500 1.0050 1.0050 1.0050 1.0050 1.0050
3765.207286 1.0050 1.0050 1.0050 1.0050 1.0050
3769.471071 1.0050 1.0049 1.0044 1.0040 1.0040
3773.734857 1.0040 1.0040 1.0040 1.0040 1.0040
3777.998643 1.0040 1.0040 1.0040 1.0040 1.0040
3782.262429 1.0040 1.0040 1.0040 1.0040 1.0040
3786.526214 1.0040 1.0040 1.0040 1.0040 1.0040
##END=
