##TITLE=PYRIDINE
##JCAMP-DX=4.24
##DATA TYPE=INFRARED SPECTRUM
##CLASS=COBLENTZ III
##ORIGIN=DOW CORNING CORP.
##OWNER=COBLENTZ SOCIETY
Collection (C) 2018 copyright by the U.S. Secretary of Commerce
on behalf of the United States of America. All rights reserved.
##DATE=1966/01/05
##CAS REGISTRY NO=110-86-1
##MOLFORM=C5 H5 N
##SOURCE REFERENCE=COBLENTZ NO. 4840
##$NIST SOURCE=COBLENTZ
##$NIST IMAGE=cob4840
##SPECTROMETER/DATA SYSTEM=PERKIN-ELMER 521 (GRATING)
##INSTRUMENT PARAMETERS=FILTERS AT 3150, 2500, 2000, 1150, 700, 410; GRATING CHANGES AT 2000, 630 CM^-^1
##STATE=SOLUTION (10% IN CCl4 FOR 3800-1300, 10% IN CS2 FOR 1300-650, 10% IN CCl4 FOR 650-250 CM^-^1) VERSUS SOLVENT
##PATH LENGTH=0.012, 0.011, AND 0.010 CM (CsBr CELL)
$$ PURITY - REAGENT GRADE
##SAMPLING PROCEDURE=TRANSMISSION
##RESOLUTION=4
##DATA PROCESSING=DIGITIZED BY NIST FROM HARD COPY (FROM TWO SEGMENTS)
##XUNITS=1/CM
##YUNITS=TRANSMITTANCE
##XFACTOR=1.000000
##YFACTOR=1
##DELTAX=0.983608
##FIRSTX=243.279
##LASTX=3790.17
##FIRSTY=0.886
##MAXX=3790.17
##MINX=243.279
##MAXY=0.976999
##MINY=0.0140013
##NPOINTS=3607
##XYDATA=(X++(Y..Y))
243.279000 0.8860 0.8860 0.8860 0.8860 0.8860
248.197040 0.8860 0.8860 0.8860 0.8860 0.8870
253.115080 0.8870 0.8880 0.8880 0.8880 0.8880
258.033120 0.8880 0.8880 0.8880 0.8880 0.8880
262.951161 0.8900 0.8900 0.8920 0.8940 0.8950
267.869201 0.8960 0.8990 0.9000 0.9030 0.9030
272.787241 0.9040 0.9040 0.9030 0.9030 0.9030
277.705281 0.9040 0.9040 0.9060 0.9070 0.9100
282.623321 0.9110 0.9120 0.9140 0.9150 0.9150
287.541361 0.9160 0.9190 0.9220 0.9240 0.9260
292.459402 0.9270 0.9280 0.9280 0.9280 0.9270
297.377442 0.9270 0.9260 0.9260 0.9270 0.9310
302.295482 0.9320 0.9340 0.9340 0.9320 0.9310
307.213522 0.9280 0.9270 0.9270 0.9270 0.9280
312.131562 0.9310 0.9320 0.9340 0.9360 0.9410
317.049602 0.9430 0.9460 0.9470 0.9510 0.9530
321.967643 0.9550 0.9570 0.9580 0.9580 0.9590
326.885683 0.9610 0.9610 0.9610 0.9620 0.9630
331.803723 0.9650 0.9650 0.9630 0.9630 0.9630
336.721763 0.9630 0.9650 0.9650 0.9650 0.9650
341.639803 0.9660 0.9690 0.9700 0.9700 0.9700
346.557843 0.9700 0.9700 0.9700 0.9700 0.9700
351.475884 0.9700 0.9700 0.9700 0.9710 0.9710
356.393924 0.9710 0.9710 0.9730 0.9730 0.9740
361.311964 0.9740 0.9750 0.9750 0.9770 0.9750
366.230004 0.9750 0.9750 0.9740 0.9730 0.9710
371.148044 0.9710 0.9700 0.9690 0.9690 0.9700
376.066084 0.9710 0.9730 0.9730 0.9730 0.9730
380.984125 0.9710 0.9690 0.9610 0.9590 0.9570
385.902165 0.9540 0.9450 0.9410 0.9410 0.9410
390.820205 0.9360 0.9320 0.9190 0.9160 0.9120
395.738245 0.9020 0.8910 0.8800 0.8730 0.8690
400.656285 0.6620 0.5420 0.5340 0.4491 0.3392
405.574325 0.3390 0.4656 0.5288 0.5927 0.6557
410.492365 0.7520 0.8450 0.8760 0.8990 0.9040
415.410406 0.9180 0.9300 0.9310 0.9320 0.9340
420.328446 0.9340 0.9350 0.9360 0.9360 0.9380
425.246486 0.9380 0.9380 0.9380 0.9380 0.9380
430.164526 0.9360 0.9360 0.9360 0.9360 0.9350
435.082566 0.9350 0.9340 0.9340 0.9320 0.9320
440.000606 0.9310 0.9310 0.9300 0.9300 0.9280
444.918647 0.9260 0.9230 0.9230 0.9220 0.9190
449.836687 0.9140 0.9110 0.9060 0.9030 0.8990
454.754727 0.8960 0.8950 0.8940 0.8920 0.8920
459.672767 0.8940 0.8940 0.8960 0.8980 0.8990
464.590807 0.9020 0.9030 0.9060 0.9070 0.9080
469.508847 0.9070 0.9080 0.9080 0.9080 0.9070
474.426888 0.9070 0.9060 0.9060 0.9060 0.9060
479.344928 0.9060 0.9070 0.9060 0.9060 0.9060
484.262968 0.9060 0.9060 0.9060 0.9040 0.9040
489.181008 0.9040 0.9030 0.9030 0.9020 0.9020
494.099048 0.9020 0.9020 0.9020 0.9020 0.9020
499.017088 0.9000 0.9000 0.9000 0.9000 0.9000
503.935129 0.9000 0.9000 0.9000 0.9000 0.8990
508.853169 0.8980 0.8980 0.8960 0.8960 0.8950
513.771209 0.8950 0.8950 0.8940 0.8940 0.8940
518.689249 0.8940 0.8940 0.8940 0.8940 0.8940
523.607289 0.8940 0.8940 0.8950 0.8950 0.8960
528.525329 0.8960 0.8960 0.8960 0.8980 0.8980
533.443370 0.8980 0.8960 0.8960 0.8960 0.8960
538.361410 0.8960 0.8980 0.8980 0.8990 0.8990
543.279450 0.8990 0.8990 0.8990 0.8990 0.8990
548.197490 0.8990 0.8990 0.8990 0.8990 0.8990
553.115530 0.8990 0.9000 0.9000 0.9020 0.9020
558.033570 0.9020 0.9030 0.9030 0.9030 0.9040
562.951610 0.9040 0.9040 0.9040 0.9040 0.9060
567.869651 0.9060 0.9060 0.9070 0.9070 0.9060
572.787691 0.9060 0.9040 0.9040 0.9040 0.9030
577.705731 0.9030 0.9020 0.9000 0.8990 0.8980
582.623771 0.8960 0.8900 0.8880 0.8880 0.8840
587.541811 0.8760 0.8750 0.8720 0.8680 0.8510
592.459851 0.8241 0.7971 0.7472 0.7171 0.6752
597.377892 0.6159 0.4850 0.3950 0.3630 0.3630
602.295932 0.4319 0.5946 0.7565 0.7769 0.7969
607.213972 0.8250 0.8410 0.8550 0.8680 0.8690
612.132012 0.8780 0.8900 0.8910 0.8960 0.9000
617.050052 0.9070 0.9080 0.9110 0.9120 0.9150
621.968092 0.9150 0.9160 0.9180 0.9180 0.9180
626.886133 0.9180 0.9180 0.9180 0.9160 0.9160
631.804173 0.9150 0.9140 0.9100 0.9080 0.9060
636.722213 0.9040 0.9020 0.9000 0.8920 0.8790
641.640253 0.8680 0.8560 0.8440 0.8330 0.8210
646.558293 0.8090 0.7980 0.7680 0.7530 0.7390
651.476333 0.7260 0.7110 0.7110 0.7220 0.7310
656.394374 0.7410 0.7560 0.7570 0.7570 0.7560
661.312414 0.7470 0.7300 0.7230 0.7220 0.7130
666.230454 0.6970 0.6700 0.6620 0.6600 0.6590
671.148494 0.6500 0.6310 0.6120 0.6010 0.5841
676.066534 0.5790 0.5790 0.5990 0.6090 0.6150
680.984574 0.6110 0.6040 0.6000 0.5960 0.5880
685.902615 0.5370 0.5240 0.4900 0.4630 0.4261
690.820655 0.3103 0.2641 0.2172 0.0765 0.0402
695.738695 0.0290 0.0200 0.0180 0.0180 0.0180
700.656735 0.0200 0.0210 0.0240 0.0330 0.0400
705.574775 0.0450 0.0480 0.0910 0.1230 0.1550
710.492815 0.2109 0.3197 0.3469 0.3729 0.4158
715.410855 0.4780 0.5140 0.5330 0.5500 0.5830
720.328896 0.6159 0.6459 0.6510 0.6560 0.6630
725.246936 0.6720 0.6760 0.6820 0.6830 0.6820
730.164976 0.6780 0.6710 0.6580 0.6540 0.6381
735.083016 0.6150 0.5790 0.5010 0.4610 0.0815
740.001056 0.0710 0.0710 0.0880 0.1049 0.1229
744.919096 0.1930 0.2140 0.2890 0.3170 0.3440
749.837137 0.5167 0.5529 0.5889 0.6538 0.6739
754.755177 0.6930 0.7070 0.7260 0.7500 0.7600
759.673217 0.7700 0.7760 0.7800 0.7860 0.7900
764.591257 0.7920 0.7940 0.7960 0.7980 0.8000
769.509297 0.8040 0.8060 0.8160 0.8250 0.8270
774.427337 0.8280 0.8310 0.8310 0.8310 0.8310
779.345378 0.8320 0.8350 0.8390 0.8400 0.8450
784.263418 0.8450 0.8470 0.8480 0.8480 0.8480
789.181458 0.8480 0.8480 0.8470 0.8470 0.8470
794.099498 0.8470 0.8450 0.8450 0.8450 0.8440
799.017538 0.8440 0.8430 0.8430 0.8430 0.8430
803.935578 0.8440 0.8450 0.8470 0.8470 0.8480
808.853619 0.8490 0.8490 0.8510 0.8520 0.8530
813.771659 0.8550 0.8560 0.8570 0.8570 0.8600
818.689699 0.8630 0.8650 0.8670 0.8680 0.8690
823.607739 0.8690 0.8690 0.8680 0.8680 0.8680
828.525779 0.8680 0.8680 0.8680 0.8670 0.8670
833.443819 0.8650 0.8650 0.8640 0.8630 0.8600
838.361860 0.8570 0.8570 0.8530 0.8510 0.8470
843.279900 0.8410 0.8400 0.8370 0.8290 0.8270
848.197940 0.8250 0.8240 0.8230 0.8190 0.8170
853.115980 0.8160 0.8150 0.8150 0.8130 0.8100
858.034020 0.8090 0.8060 0.8050 0.8020 0.8020
862.952060 0.8000 0.7970 0.7970 0.7960 0.7960
867.870100 0.7960 0.7960 0.7970 0.7970 0.7980
872.788141 0.8000 0.8000 0.8010 0.8020 0.8080
877.706181 0.8090 0.8120 0.8160 0.8210 0.8310
882.624221 0.8360 0.8370 0.8390 0.8430 0.8470
887.542261 0.8510 0.8520 0.8530 0.8550 0.8550
892.460301 0.8560 0.8570 0.8570 0.8590 0.8590
897.378341 0.8600 0.8600 0.8600 0.8600 0.8610
902.296382 0.8610 0.8610 0.8600 0.8600 0.8600
907.214422 0.8600 0.8590 0.8590 0.8590 0.8570
912.132462 0.8570 0.8560 0.8550 0.8530 0.8520
917.050502 0.8510 0.8490 0.8470 0.8450 0.8430
921.968542 0.8400 0.8390 0.8350 0.8320 0.8310
926.886582 0.8310 0.8290 0.8290 0.8290 0.8290
931.804623 0.8310 0.8310 0.8320 0.8320 0.8330
936.722663 0.8350 0.8360 0.8390 0.8400 0.8410
941.640703 0.8410 0.8430 0.8440 0.8440 0.8440
946.558743 0.8440 0.8440 0.8440 0.8430 0.8400
951.476783 0.8390 0.8370 0.8350 0.8330 0.8320
956.394823 0.8310 0.8310 0.8280 0.8270 0.8250
961.312864 0.8230 0.8210 0.8190 0.8170 0.8060
966.230904 0.8050 0.8040 0.8010 0.7980 0.7960
971.148944 0.7930 0.7620 0.7580 0.7500 0.7420
976.066984 0.7330 0.7260 0.7230 0.7130 0.7070
980.985024 0.6800 0.6620 0.6520 0.5201 0.4860
985.903064 0.4541 0.4221 0.3512 0.2105 0.2100
990.821105 0.3391 0.4670 0.5170 0.5650 0.6109
995.739145 0.6779 0.6950 0.6970 0.7169 0.7329
1000.657185 0.7390 0.7420 0.7420 0.7410 0.7390
1005.575225 0.7380 0.7350 0.7310 0.7290 0.7270
1010.493265 0.7250 0.7220 0.7180 0.7130 0.7070
1015.411305 0.6930 0.6800 0.6660 0.6550 0.6440
1020.329345 0.6300 0.6159 0.5370 0.5100 0.4391
1025.247386 0.1244 0.1240 0.1968 0.2429 0.3048
1030.165426 0.3280 0.3491 0.4410 0.5090 0.5769
1035.083466 0.6199 0.6390 0.6669 0.6839 0.6940
1040.001506 0.7060 0.7140 0.7170 0.7180 0.7230
1044.919546 0.7230 0.7250 0.7250 0.7250 0.7250
1049.837586 0.7250 0.7220 0.7190 0.7180 0.7110
1054.755627 0.7020 0.6950 0.6900 0.6711 0.6600
1059.673667 0.6320 0.6089 0.5260 0.5000 0.4430
1064.591707 0.3980 0.3860 0.3321 0.3320 0.4456
1069.509747 0.5041 0.5320 0.5601 0.6580 0.6710
1074.427787 0.6840 0.6990 0.7070 0.7130 0.7150
1079.345827 0.7180 0.7260 0.7310 0.7350 0.7410
1084.263868 0.7410 0.7420 0.7430 0.7430 0.7450
1089.181908 0.7460 0.7460 0.7460 0.7460 0.7460
1094.099948 0.7460 0.7460 0.7470 0.7470 0.7470
1099.017988 0.7490 0.7490 0.7490 0.7490 0.7490
1103.936028 0.7490 0.7490 0.7490 0.7490 0.7490
1108.854068 0.7490 0.7490 0.7490 0.7490 0.7470
1113.772109 0.7470 0.7470 0.7470 0.7470 0.7460
1118.690149 0.7460 0.7450 0.7430 0.7420 0.7390
1123.608189 0.7390 0.7270 0.7260 0.7250 0.7230
1128.526229 0.7230 0.7180 0.7110 0.6990 0.6910
1133.444269 0.6820 0.6750 0.6620 0.6321 0.5961
1138.362309 0.5159 0.4390 0.4160 0.3900 0.3900
1143.280350 0.4449 0.5318 0.5759 0.6199 0.6698
1148.198390 0.6860 0.7210 0.7420 0.7620 0.7720
1153.116430 0.7800 0.7840 0.7860 0.7940 0.7960
1158.034470 0.8100 0.8120 0.8150 0.8160 0.8170
1162.952510 0.8190 0.8190 0.8200 0.8210 0.8210
1167.870550 0.8230 0.8230 0.8240 0.8240 0.8250
1172.788590 0.8250 0.8250 0.8250 0.8250 0.8250
1177.706631 0.8250 0.8250 0.8240 0.8240 0.8240
1182.624671 0.8230 0.8210 0.8200 0.8150 0.8120
1187.542711 0.8050 0.8040 0.8040 0.7960 0.7940
1192.460751 0.7920 0.7840 0.7660 0.7530 0.7410
1197.378791 0.7310 0.7180 0.7110 0.6940 0.6750
1202.296831 0.6680 0.6640 0.6590 0.6500 0.6321
1207.214872 0.6070 0.5889 0.5050 0.4470 0.3790
1212.132912 0.3151 0.3150 0.3879 0.4608 0.5089
1217.050952 0.5561 0.5912 0.7660 0.7820 0.7980
1221.968992 0.8270 0.8410 0.8440 0.8530 0.8600
1226.887032 0.8710 0.8730 0.8790 0.8820 0.8840
1231.805072 0.8840 0.8860 0.8860 0.8880 0.8900
1236.723113 0.8910 0.8920 0.8920 0.8940 0.8940
1241.641153 0.8960 0.8980 0.8980 0.8980 0.8990
1246.559193 0.9000 0.9020 0.9030 0.9060 0.9070
1251.477233 0.9100 0.9110 0.9110 0.9120 0.9140
1256.395273 0.9140 0.9140 0.9150 0.9150 0.9160
1261.313313 0.9160 0.9160 0.9180 0.9180 0.9180
1266.231354 0.9180 0.9180 0.9180 0.9180 0.9180
1271.149394 0.9160 0.9160 0.9150 0.9150 0.9140
1276.067434 0.9140 0.9120 0.9110 0.9080 0.9060
1280.985474 0.9030 0.9020 0.9000 0.9000 0.9020
1285.903514 0.9020 0.9030 0.9040 0.9080 0.9110
1290.821554 0.9110 0.9140 0.9160 0.9180 0.9180
1295.739595 0.9180 0.9180 0.9190 0.9190 0.9180
1300.657635 0.9160 0.9150 0.9140 0.9140 0.9140
1305.575675 0.9140 0.9140 0.9120 0.9120 0.9120
1310.493715 0.9120 0.9120 0.9120 0.9120 0.9140
1315.411755 0.9140 0.9140 0.9140 0.9140 0.9140
1320.329795 0.9140 0.9140 0.9140 0.9140 0.9140
1325.247835 0.9120 0.9120 0.9120 0.9110 0.9110
1330.165876 0.9080 0.9060 0.9040 0.9030 0.9020
1335.083916 0.9000 0.9000 0.8980 0.8980 0.8960
1340.001956 0.8960 0.8950 0.8940 0.8940 0.8910
1344.919996 0.8880 0.8880 0.8870 0.8870 0.8860
1349.838036 0.8820 0.8690 0.8680 0.8680 0.8670
1354.756076 0.8650 0.8640 0.8610 0.8590 0.8510
1359.674117 0.8480 0.8360 0.8320 0.8200 0.8170
1364.592157 0.8170 0.8200 0.8230 0.8320 0.8440
1369.510197 0.8550 0.8640 0.8720 0.8730 0.8760
1374.428237 0.8780 0.8790 0.8820 0.8830 0.8830
1379.346277 0.8830 0.8820 0.8800 0.8790 0.8780
1384.264317 0.8760 0.8750 0.8730 0.8720 0.8720
1389.182358 0.8710 0.8670 0.8630 0.8550 0.8520
1394.100398 0.8510 0.8510 0.8520 0.8530 0.8530
1399.018438 0.8550 0.8530 0.8530 0.8520 0.8510
1403.936478 0.8490 0.8490 0.8480 0.8450 0.8450
1408.854518 0.8440 0.8440 0.8410 0.8370 0.8270
1413.772558 0.8230 0.8210 0.8160 0.8100 0.8020
1418.690599 0.7970 0.7700 0.7580 0.7271 0.7150
1423.608639 0.6969 0.6620 0.6360 0.5960 0.5100
1428.526679 0.4730 0.3712 0.2692 0.0965 0.0721
1433.444719 0.0450 0.0170 0.0140 0.0160 0.0300
1438.362759 0.0440 0.0909 0.1549 0.2178 0.2977
1443.280799 0.3792 0.5040 0.5360 0.5680 0.6210
1448.198840 0.6580 0.6989 0.7259 0.7599 0.7720
1453.116880 0.7840 0.7930 0.8000 0.8080 0.8200
1458.034920 0.8210 0.8270 0.8310 0.8350 0.8370
1462.952960 0.8390 0.8390 0.8370 0.8360 0.8330
1467.871000 0.8310 0.8280 0.8200 0.8090 0.7661
1472.789040 0.7500 0.7260 0.7100 0.6820 0.6540
1477.707080 0.6040 0.5081 0.2904 0.2900 0.3857
1482.625121 0.4812 0.5762 0.7100 0.7580 0.7700
1487.543161 0.7820 0.8000 0.8080 0.8210 0.8330
1492.461201 0.8390 0.8390 0.8400 0.8430 0.8450
1497.379241 0.8530 0.8560 0.8600 0.8640 0.8670
1502.297281 0.8690 0.8710 0.8710 0.8720 0.8730
1507.215321 0.8730 0.8730 0.8750 0.8750 0.8760
1512.133362 0.8760 0.8760 0.8760 0.8760 0.8760
1517.051402 0.8760 0.8760 0.8780 0.8780 0.8780
1521.969442 0.8780 0.8780 0.8780 0.8760 0.8760
1526.887482 0.8760 0.8750 0.8750 0.8730 0.8730
1531.805522 0.8730 0.8730 0.8720 0.8720 0.8720
1536.723562 0.8720 0.8690 0.8690 0.8680 0.8640
1541.641603 0.8610 0.8600 0.8570 0.8560 0.8510
1546.559643 0.8450 0.8430 0.8430 0.8400 0.8370
1551.477683 0.8310 0.8280 0.8230 0.8190 0.8120
1556.395723 0.8050 0.7980 0.7930 0.7641 0.7430
1561.313763 0.7260 0.7070 0.6930 0.6750 0.6460
1566.231803 0.6300 0.6030 0.5791 0.4663 0.3175
1571.149844 0.2649 0.1989 0.1519 0.0770 0.0670
1576.067884 0.0570 0.0480 0.0420 0.0290 0.0290
1580.985924 0.0641 0.0950 0.1210 0.1470 0.2380
1585.903964 0.3279 0.4099 0.4789 0.5079 0.5080
1590.822004 0.4739 0.4490 0.4200 0.3920 0.3630
1595.740044 0.3350 0.2771 0.2770 0.3408 0.4058
1600.658084 0.4772 0.5681 0.6590 0.6970 0.7410
1605.576125 0.7640 0.7770 0.7900 0.7930 0.7960
1610.494165 0.8040 0.8080 0.8100 0.8200 0.8210
1615.412205 0.8230 0.8240 0.8240 0.8250 0.8250
1620.330245 0.8240 0.8240 0.8200 0.8200 0.8190
1625.248285 0.8160 0.8130 0.8100 0.8020 0.7930
1630.166325 0.7600 0.7600 0.7680 0.7730 0.7780
1635.084366 0.7840 0.7930 0.8050 0.8120 0.8130
1640.002406 0.8310 0.8390 0.8450 0.8510 0.8560
1644.920446 0.8590 0.8680 0.8720 0.8780 0.8790
1649.838486 0.8790 0.8800 0.8830 0.8830 0.8830
1654.756526 0.8840 0.8840 0.8840 0.8840 0.8840
1659.674566 0.8860 0.8860 0.8860 0.8840 0.8840
1664.592607 0.8830 0.8830 0.8820 0.8820 0.8820
1669.510647 0.8800 0.8800 0.8790 0.8780 0.8750
1674.428687 0.8710 0.8690 0.8510 0.8450 0.8370
1679.346727 0.8310 0.8250 0.8230 0.8250 0.8370
1684.264767 0.8450 0.8570 0.8690 0.8750 0.8790
1689.182807 0.8830 0.8900 0.8910 0.8940 0.8940
1694.100848 0.8940 0.8960 0.8960 0.8980 0.8980
1699.018888 0.8980 0.8990 0.9000 0.9000 0.9020
1703.936928 0.9030 0.9030 0.9030 0.9040 0.9060
1708.854968 0.9060 0.9060 0.9040 0.9030 0.9000
1713.773008 0.9000 0.8980 0.8950 0.8950 0.8950
1718.691048 0.8940 0.8940 0.8950 0.8950 0.8950
1723.609089 0.8950 0.8940 0.8920 0.8920 0.8920
1728.527129 0.8910 0.8910 0.8910 0.8910 0.8910
1733.445169 0.8900 0.8880 0.8860 0.8860 0.8830
1738.363209 0.8800 0.8800 0.8790 0.8780 0.8760
1743.281249 0.8750 0.8750 0.8750 0.8760 0.8760
1748.199289 0.8760 0.8780 0.8790 0.8790 0.8800
1753.117329 0.8800 0.8820 0.8820 0.8900 0.8900
1758.035370 0.8920 0.8940 0.8960 0.8990 0.9000
1762.953410 0.9020 0.9020 0.9020 0.9020 0.9020
1767.871450 0.9020 0.9020 0.9000 0.9000 0.9020
1772.789490 0.9030 0.9030 0.9040 0.9060 0.9060
1777.707530 0.9060 0.9060 0.9060 0.9060 0.9070
1782.625570 0.9070 0.9070 0.9060 0.9060 0.9060
1787.543611 0.9040 0.9040 0.9020 0.8990 0.8980
1792.461651 0.8960 0.8960 0.8950 0.8920 0.8910
1797.379691 0.8900 0.8900 0.8920 0.8950 0.8960
1802.297731 0.8960 0.8960 0.8960 0.8960 0.8950
1807.215771 0.8920 0.8910 0.8900 0.8880 0.8840
1812.133811 0.8780 0.8790 0.8830 0.8860 0.8880
1817.051852 0.8900 0.8900 0.8900 0.8910 0.8910
1821.969892 0.8910 0.8920 0.8910 0.8900 0.8900
1826.887932 0.8900 0.8910 0.8920 0.8940 0.8960
1831.805972 0.8980 0.8990 0.8980 0.8980 0.8980
1836.724012 0.8950 0.8920 0.8920 0.8920 0.8910
1841.642052 0.8900 0.8870 0.8830 0.8780 0.8760
1846.560093 0.8690 0.8640 0.8590 0.8520 0.8430
1851.478133 0.8400 0.8370 0.8230 0.8170 0.8100
1856.396173 0.8080 0.8050 0.8050 0.8040 0.8020
1861.314213 0.8010 0.8010 0.8010 0.8010 0.8010
1866.232253 0.8020 0.8020 0.8060 0.8100 0.8160
1871.150293 0.8240 0.8320 0.8490 0.8520 0.8560
1876.068334 0.8600 0.8650 0.8690 0.8710 0.8750
1880.986374 0.8760 0.8780 0.8790 0.8800 0.8800
1885.904414 0.8820 0.8820 0.8830 0.8830 0.8830
1890.822454 0.8830 0.8830 0.8830 0.8830 0.8820
1895.740494 0.8800 0.8780 0.8760 0.8760 0.8730
1900.658534 0.8720 0.8650 0.8530 0.8490 0.8470
1905.576574 0.8400 0.8310 0.8160 0.8050 0.7680
1910.494615 0.7580 0.7500 0.7420 0.7330 0.7300
1915.412655 0.7300 0.7310 0.7350 0.7390 0.7430
1920.330695 0.7620 0.7650 0.7780 0.7900 0.7930
1925.248735 0.7940 0.7980 0.8000 0.8010 0.8090
1930.166775 0.8170 0.8310 0.8470 0.8510 0.8630
1935.084815 0.8650 0.8710 0.8730 0.8760 0.8780
1940.002856 0.8790 0.8790 0.8800 0.8800 0.8820
1944.920896 0.8820 0.8820 0.8820 0.8820 0.8820
1949.838936 0.8820 0.8820 0.8800 0.8800 0.8800
1954.756976 0.8790 0.8790 0.8790 0.8780 0.8760
1959.675016 0.8760 0.8730 0.8720 0.8690 0.8680
1964.593056 0.8610 0.8560 0.8530 0.8480 0.8470
1969.511097 0.8410 0.8330 0.8240 0.8170 0.8150
1974.429137 0.8130 0.8120 0.8120 0.8120 0.8130
1979.347177 0.8130 0.8150 0.8160 0.8170 0.8170
1984.265217 0.8190 0.8200 0.8210 0.8250 0.8320
1989.183257 0.8390 0.8520 0.8590 0.8720 0.8730
1994.101297 0.8750 0.8780 0.8860 0.8900 0.8910
1999.019338 0.8920 0.8940 0.8945 0.8950 0.8955
2003.937378 0.8960 0.8970 0.8980 0.8980 0.8980
2008.855418 0.8985 0.8990 0.8990 0.8990 0.8995
2013.773458 0.9000 0.9000 0.9000 0.9000 0.9000
2018.691498 0.9000 0.9000 0.9000 0.9000 0.9000
2023.609538 0.9001 0.9011 0.9019 0.9004 0.8990
2028.527579 0.8990 0.8990 0.8995 0.9000 0.8995
2033.445619 0.8990 0.8990 0.8990 0.8985 0.8980
2038.363659 0.8980 0.8980 0.8985 0.8990 0.8995
2043.281699 0.9002 0.9022 0.9041 0.9051 0.9061
2048.199739 0.9065 0.9070 0.9070 0.9069 0.9064
2053.117779 0.9060 0.9060 0.9060 0.9060 0.9060
2058.035819 0.9060 0.9059 0.9049 0.9039 0.9034
2062.953860 0.9030 0.9030 0.9031 0.9036 0.9040
2067.871900 0.9040 0.9040 0.9040 0.9040 0.9040
2072.789940 0.9040 0.9040 0.9042 0.9052 0.9060
2077.707980 0.9060 0.9061 0.9066 0.9067 0.9052
2082.626020 0.9042 0.9052 0.9060 0.9060 0.9060
2087.544060 0.9060 0.9060 0.9060 0.9058 0.9048
2092.462101 0.9040 0.9040 0.9040 0.9040 0.9040
2097.380141 0.9040 0.9040 0.9040 0.9043 0.9058
2102.298181 0.9070 0.9070 0.9069 0.9064 0.9057
2107.216221 0.9042 0.9027 0.9012 0.8999 0.8994
2112.134261 0.8989 0.8984 0.8978 0.8968 0.8960
2117.052301 0.8960 0.8959 0.8954 0.8949 0.8944
2121.970342 0.8940 0.8940 0.8937 0.8927 0.8923
2126.888382 0.8933 0.8940 0.8940 0.8940 0.8940
2131.806422 0.8940 0.8940 0.8937 0.8927 0.8919
2136.724462 0.8914 0.8908 0.8903 0.8900 0.8900
2141.642502 0.8908 0.8933 0.8952 0.8957 0.8960
2146.560542 0.8960 0.8960 0.8960 0.8960 0.8960
2151.478583 0.8960 0.8960 0.8953 0.8933 0.8920
2156.396623 0.8920 0.8931 0.8961 0.8980 0.8980
2161.314663 0.8980 0.8980 0.8980 0.8980 0.8980
2166.232703 0.8980 0.8980 0.8980 0.8976 0.8966
2171.150743 0.8960 0.8960 0.8958 0.8953 0.8944
2176.068783 0.8929 0.8920 0.8920 0.8920 0.8920
2180.986824 0.8932 0.8962 0.8982 0.8987 0.8988
2185.904864 0.8983 0.8976 0.8966 0.8958 0.8953
2190.822904 0.8948 0.8943 0.8936 0.8926 0.8920
2195.740944 0.8920 0.8918 0.8913 0.8910 0.8910
2200.658984 0.8908 0.8903 0.8900 0.8900 0.8896
2205.577024 0.8885 0.8878 0.8873 0.8868 0.8863
2210.495064 0.8855 0.8845 0.8835 0.8825 0.8820
2215.413105 0.8820 0.8822 0.8827 0.8847 0.8882
2220.331145 0.8910 0.8930 0.8945 0.8955 0.8960
2225.249185 0.8960 0.8960 0.8960 0.8960 0.8960
2230.167225 0.8960 0.8960 0.8960 0.8960 0.8960
2235.085265 0.8960 0.8960 0.8960 0.8957 0.8952
2240.003305 0.8947 0.8942 0.8935 0.8925 0.8920
2244.921346 0.8920 0.8917 0.8912 0.8910 0.8910
2249.839386 0.8910 0.8910 0.8910 0.8910 0.8913
2254.757426 0.8918 0.8920 0.8920 0.8920 0.8920
2259.675466 0.8920 0.8920 0.8920 0.8920 0.8917
2264.593506 0.8912 0.8910 0.8910 0.8910 0.8910
2269.511546 0.8910 0.8910 0.8910 0.8910 0.8910
2274.429587 0.8910 0.8910 0.8910 0.8907 0.8902
2279.347627 0.8900 0.8900 0.8894 0.8884 0.8864
2284.265667 0.8839 0.8814 0.8789 0.8764 0.8739
2289.183707 0.8717 0.8697 0.8674 0.8649 0.8630
2294.101747 0.8615 0.8597 0.8577 0.8563 0.8553
2299.019787 0.8553 0.8558 0.8600 0.8660 0.8727
2303.937828 0.8797 0.8847 0.8887 0.8907 0.8917
2308.855868 0.8920 0.8920 0.8927 0.8937 0.8940
2313.773908 0.8940 0.8944 0.8949 0.8954 0.8959
2318.691948 0.8960 0.8960 0.8956 0.8951 0.8950
2323.609988 0.8950 0.8946 0.8941 0.8933 0.8923
2328.528028 0.8920 0.8920 0.8920 0.8920 0.8920
2333.446069 0.8920 0.8920 0.8920 0.8927 0.8937
2338.364109 0.8940 0.8940 0.8929 0.8914 0.8910
2343.282149 0.8910 0.8914 0.8919 0.8920 0.8920
2348.200189 0.8920 0.8920 0.8920 0.8920 0.8920
2353.118229 0.8920 0.8916 0.8911 0.8910 0.8910
2358.036269 0.8910 0.8910 0.8910 0.8910 0.8906
2362.954309 0.8901 0.8900 0.8900 0.8900 0.8900
2367.872350 0.8904 0.8909 0.8914 0.8919 0.8932
2372.790390 0.8947 0.8950 0.8950 0.8950 0.8950
2377.708430 0.8950 0.8950 0.8954 0.8959 0.8960
2382.626470 0.8960 0.8960 0.8960 0.8960 0.8960
2387.544510 0.8960 0.8960 0.8956 0.8951 0.8946
2392.462550 0.8941 0.8931 0.8921 0.8920 0.8920
2397.380591 0.8920 0.8920 0.8920 0.8920 0.8916
2402.298631 0.8911 0.8914 0.8919 0.8916 0.8911
2407.216671 0.8906 0.8901 0.8900 0.8900 0.8905
2412.134711 0.8910 0.8910 0.8910 0.8905 0.8900
2417.052751 0.8891 0.8881 0.8875 0.8870 0.8865
2421.970791 0.8860 0.8860 0.8860 0.8851 0.8841
2426.888832 0.8840 0.8840 0.8840 0.8840 0.8840
2431.806872 0.8840 0.8850 0.8860 0.8870 0.8880
2436.724912 0.8880 0.8880 0.8875 0.8870 0.8870
2441.642952 0.8870 0.8855 0.8840 0.8840 0.8840
2446.560992 0.8835 0.8830 0.8805 0.8780 0.8770
2451.479032 0.8760 0.8755 0.8750 0.8755 0.8760
2456.397073 0.8770 0.8780 0.8785 0.8790 0.8810
2461.315113 0.8830 0.8845 0.8860 0.8870 0.8880
2466.233153 0.8890 0.8900 0.8890 0.8880 0.8890
2471.151193 0.8900 0.8900 0.8900 0.8905 0.8910
2476.069233 0.8910 0.8909 0.8894 0.8880 0.8880
2480.987273 0.8879 0.8869 0.8859 0.8849 0.8840
2485.905314 0.8835 0.8830 0.8835 0.8840 0.8840
2490.823354 0.8841 0.8851 0.8862 0.8882 0.8900
2495.741394 0.8900 0.8899 0.8889 0.8879 0.8874
2500.659434 0.8869 0.8864 0.8861 0.8866 0.8870
2505.577474 0.8870 0.8869 0.8864 0.8860 0.8860
2510.495514 0.8861 0.8866 0.8872 0.8887 0.8900
2515.413554 0.8900 0.8900 0.8900 0.8901 0.8906
2520.331595 0.8908 0.8893 0.8880 0.8880 0.8880
2525.249635 0.8880 0.8880 0.8880 0.8880 0.8880
2530.167675 0.8879 0.8874 0.8870 0.8870 0.8873
2535.085715 0.8888 0.8900 0.8900 0.8900 0.8900
2540.003755 0.8901 0.8906 0.8911 0.8916 0.8920
2544.921795 0.8920 0.8919 0.8914 0.8907 0.8892
2549.839836 0.8879 0.8874 0.8869 0.8864 0.8860
2554.757876 0.8860 0.8860 0.8860 0.8860 0.8860
2559.675916 0.8860 0.8860 0.8860 0.8860 0.8860
2564.593956 0.8860 0.8860 0.8860 0.8860 0.8860
2569.511996 0.8861 0.8866 0.8870 0.8870 0.8871
2574.430036 0.8876 0.8883 0.8893 0.8900 0.8900
2579.348077 0.8900 0.8900 0.8900 0.8900 0.8897
2584.266117 0.8887 0.8880 0.8880 0.8880 0.8880
2589.184157 0.8883 0.8893 0.8900 0.8900 0.8900
2594.102197 0.8900 0.8900 0.8900 0.8894 0.8874
2599.020237 0.8854 0.8834 0.8820 0.8820 0.8815
2603.938277 0.8800 0.8795 0.8810 0.8820 0.8820
2608.856318 0.8824 0.8834 0.8840 0.8840 0.8844
2613.774358 0.8854 0.8860 0.8860 0.8860 0.8860
2618.692398 0.8860 0.8860 0.8856 0.8846 0.8833
2623.610438 0.8813 0.8800 0.8800 0.8804 0.8814
2628.528478 0.8822 0.8827 0.8844 0.8879 0.8900
2633.446518 0.8900 0.8894 0.8879 0.8870 0.8870
2638.364559 0.8868 0.8863 0.8856 0.8846 0.8838
2643.282599 0.8833 0.8830 0.8830 0.8830 0.8830
2648.200639 0.8830 0.8830 0.8830 0.8830 0.8830
2653.118679 0.8830 0.8839 0.8859 0.8872 0.8877
2658.036719 0.8885 0.8895 0.8900 0.8900 0.8900
2662.954759 0.8900 0.8900 0.8900 0.8900 0.8900
2667.872799 0.8900 0.8900 0.8900 0.8900 0.8902
2672.790840 0.8907 0.8910 0.8910 0.8908 0.8903
2677.708880 0.8895 0.8885 0.8880 0.8880 0.8880
2682.626920 0.8880 0.8880 0.8880 0.8880 0.8880
2687.544960 0.8880 0.8880 0.8880 0.8880 0.8880
2692.463000 0.8880 0.8880 0.8880 0.8885 0.8895
2697.381040 0.8900 0.8900 0.8900 0.8900 0.8895
2702.299081 0.8885 0.8880 0.8880 0.8880 0.8880
2707.217121 0.8886 0.8896 0.8903 0.8908 0.8910
2712.135161 0.8910 0.8910 0.8910 0.8910 0.8910
2717.053201 0.8910 0.8910 0.8910 0.8910 0.8910
2721.971241 0.8910 0.8913 0.8918 0.8920 0.8920
2726.889281 0.8920 0.8920 0.8917 0.8912 0.8910
2731.807322 0.8910 0.8910 0.8910 0.8907 0.8902
2736.725362 0.8903 0.8908 0.8910 0.8910 0.8920
2741.643402 0.8935 0.8943 0.8948 0.8950 0.8950
2746.561442 0.8950 0.8950 0.8950 0.8950 0.8947
2751.479482 0.8942 0.8940 0.8940 0.8933 0.8923
2756.397522 0.8920 0.8920 0.8917 0.8912 0.8910
2761.315563 0.8910 0.8910 0.8910 0.8907 0.8901
2766.233603 0.8900 0.8900 0.8893 0.8883 0.8876
2771.151643 0.8871 0.8866 0.8861 0.8860 0.8860
2776.069683 0.8853 0.8843 0.8840 0.8840 0.8840
2780.987723 0.8840 0.8840 0.8840 0.8840 0.8840
2785.905763 0.8840 0.8840 0.8840 0.8840 0.8840
2790.823804 0.8840 0.8848 0.8858 0.8875 0.8895
2795.741844 0.8900 0.8900 0.8904 0.8909 0.8910
2800.659884 0.8910 0.8910 0.8910 0.8906 0.8901
2805.577924 0.8900 0.8900 0.8900 0.8900 0.8876
2810.495964 0.8846 0.8832 0.8822 0.8812 0.8802
2815.414004 0.8800 0.8800 0.8800 0.8800 0.8772
2820.332044 0.8737 0.8698 0.8658 0.8617 0.8577
2825.250085 0.8570 0.8570 0.8595 0.8625 0.8647
2830.168125 0.8667 0.8691 0.8716 0.8724 0.8729
2835.086165 0.8789 0.8859 0.8883 0.8898 0.8900
2840.004205 0.8900 0.8900 0.8900 0.8900 0.8900
2844.922245 0.8900 0.8900 0.8900 0.8900 0.8900
2849.840285 0.8900 0.8891 0.8881 0.8876 0.8871
2854.758326 0.8866 0.8861 0.8860 0.8860 0.8851
2859.676366 0.8841 0.8840 0.8840 0.8840 0.8840
2864.594406 0.8849 0.8859 0.8860 0.8860 0.8851
2869.512446 0.8841 0.8835 0.8830 0.8830 0.8830
2874.430486 0.8830 0.8830 0.8830 0.8830 0.8844
2879.348526 0.8859 0.8860 0.8860 0.8850 0.8840
2884.266567 0.8835 0.8830 0.8815 0.8800 0.8795
2889.184607 0.8790 0.8785 0.8780 0.8770 0.8760
2894.102647 0.8760 0.8760 0.8735 0.8710 0.8690
2899.020687 0.8670 0.8640 0.8610 0.8590 0.8570
2903.938727 0.8550 0.8529 0.8484 0.8440 0.8415
2908.856767 0.8390 0.8380 0.8370 0.8385 0.8401
2913.774808 0.8426 0.8450 0.8471 0.8490 0.8505
2918.692848 0.8520 0.8520 0.8520 0.8515 0.8510
2923.610888 0.8510 0.8509 0.8499 0.8489 0.8479
2928.528928 0.8469 0.8459 0.8450 0.8445 0.8440
2933.446968 0.8445 0.8451 0.8466 0.8481 0.8501
2938.365008 0.8520 0.8515 0.8507 0.8472 0.8438
2943.283049 0.8413 0.8388 0.8368 0.8348 0.8333
2948.201089 0.8316 0.8276 0.8238 0.8218 0.8199
2953.119129 0.8194 0.8191 0.8201 0.8213 0.8243
2958.037169 0.8271 0.8281 0.8294 0.8330 0.8360
2962.955209 0.8360 0.8358 0.8343 0.8326 0.8301
2967.873249 0.8277 0.8257 0.8237 0.8217 0.8199
2972.791289 0.8194 0.8188 0.8178 0.8169 0.8164
2977.709330 0.8147 0.8067 0.7997 0.7976 0.7953
2982.627370 0.7913 0.7861 0.7761 0.7669 0.7609
2987.545410 0.7536 0.7411 0.7287 0.7167 0.7056
2992.463450 0.6986 0.6889 0.6684 0.6488 0.6328
2997.381490 0.6108 0.5658 0.5221 0.4837 0.4415
3002.299530 0.3870 0.3450 0.3450 0.3507 0.3752
3007.217571 0.4088 0.4719 0.5347 0.5968 0.6442
3012.135611 0.6452 0.6453 0.6423 0.6394 0.6369
3017.053651 0.6234 0.5764 0.5332 0.5018 0.4681
3021.971691 0.4280 0.3894 0.3543 0.3287 0.3277
3026.889731 0.3271 0.3276 0.3291 0.3331 0.3371
3031.807771 0.3411 0.3451 0.3491 0.3532 0.3572
3036.725812 0.3619 0.3684 0.3755 0.3841 0.4039
3041.643852 0.4480 0.4919 0.5354 0.5679 0.5769
3046.561892 0.5832 0.5837 0.5835 0.5820 0.5730
3051.479932 0.5484 0.5244 0.5014 0.4860 0.4860
3056.397972 0.4893 0.4994 0.5065 0.5080 0.5090
3061.316012 0.5090 0.5085 0.5070 0.5053 0.5033
3066.234053 0.5005 0.4965 0.4916 0.4851 0.4762
3071.152093 0.4632 0.4466 0.4241 0.3905 0.3384
3076.070133 0.2960 0.2695 0.2524 0.2509 0.2395
3080.988173 0.2135 0.1980 0.1980 0.2160 0.2600
3085.906213 0.3039 0.3474 0.3945 0.4466 0.4878
3090.824253 0.5138 0.5397 0.5652 0.5957 0.6333
3095.742294 0.6698 0.7048 0.7310 0.7452 0.7593
3100.660334 0.7733 0.7853 0.7948 0.8052 0.8167
3105.578374 0.8239 0.8259 0.8279 0.8299 0.8328
3110.496414 0.8368 0.8408 0.8448 0.8470 0.8470
3115.414454 0.8479 0.8499 0.8512 0.8517 0.8522
3120.332494 0.8527 0.8545 0.8575 0.8592 0.8597
3125.250534 0.8610 0.8630 0.8640 0.8640 0.8643
3130.168575 0.8648 0.8650 0.8650 0.8645 0.8635
3135.086615 0.8620 0.8600 0.8585 0.8575 0.8559
3140.004655 0.8539 0.8517 0.8492 0.8450 0.8395
3144.922695 0.8356 0.8331 0.8317 0.8312 0.8321
3149.840735 0.8341 0.8364 0.8389 0.8430 0.8485
3154.758775 0.8535 0.8580 0.8636 0.8702 0.8756
3159.676816 0.8801 0.8823 0.8828 0.8833 0.8838
3164.594856 0.8840 0.8840 0.8840 0.8840 0.8849
3169.512896 0.8864 0.8873 0.8878 0.8880 0.8880
3174.430936 0.8886 0.8896 0.8903 0.8908 0.8913
3179.348976 0.8918 0.8920 0.8920 0.8926 0.8936
3184.267016 0.8940 0.8940 0.8943 0.8948 0.8950
3189.185057 0.8950 0.8950 0.8950 0.8950 0.8950
3194.103097 0.8950 0.8950 0.8950 0.8950 0.8953
3199.021137 0.8958 0.8960 0.8960 0.8960 0.8960
3203.939177 0.8960 0.8960 0.8967 0.8977 0.8980
3208.857217 0.8980 0.8983 0.8988 0.8990 0.8990
3213.775257 0.8993 0.8998 0.9000 0.9000 0.9007
3218.693298 0.9017 0.9020 0.9020 0.9024 0.9029
3223.611338 0.9030 0.9030 0.9034 0.9039 0.9040
3228.529378 0.9040 0.9040 0.9040 0.9047 0.9057
3233.447418 0.9060 0.9060 0.9060 0.9060 0.9060
3238.365458 0.9060 0.9060 0.9060 0.9060 0.9060
3243.283498 0.9060 0.9060 0.9060 0.9060 0.9060
3248.201539 0.9060 0.9060 0.9060 0.9060 0.9060
3253.119579 0.9060 0.9060 0.9052 0.9042 0.9040
3258.037619 0.9040 0.9040 0.9040 0.9040 0.9040
3262.955659 0.9040 0.9040 0.9036 0.9031 0.9030
3267.873699 0.9030 0.9030 0.9030 0.9030 0.9030
3272.791739 0.9030 0.9030 0.9026 0.9021 0.9020
3277.709779 0.9020 0.9020 0.9020 0.9020 0.9020
3282.627820 0.9020 0.9020 0.9012 0.9001 0.8996
3287.545860 0.8991 0.8990 0.8990 0.8990 0.8990
3292.463900 0.8990 0.8990 0.8990 0.8990 0.8986
3297.381940 0.8981 0.8980 0.8980 0.8980 0.8980
3302.299980 0.8980 0.8980 0.8971 0.8961 0.8960
3307.218020 0.8960 0.8960 0.8960 0.8960 0.8960
3312.136061 0.8960 0.8960 0.8960 0.8960 0.8960
3317.054101 0.8960 0.8960 0.8960 0.8960 0.8960
3321.972141 0.8960 0.8960 0.8960 0.8960 0.8960
3326.890181 0.8960 0.8955 0.8950 0.8950 0.8950
3331.808221 0.8950 0.8950 0.8950 0.8950 0.8950
3336.726261 0.8950 0.8945 0.8940 0.8940 0.8940
3341.644302 0.8940 0.8940 0.8940 0.8940 0.8940
3346.562342 0.8940 0.8940 0.8940 0.8930 0.8920
3351.480382 0.8920 0.8920 0.8920 0.8920 0.8920
3356.398422 0.8920 0.8920 0.8920 0.8915 0.8910
3361.316462 0.8910 0.8910 0.8910 0.8910 0.8910
3366.234502 0.8910 0.8910 0.8910 0.8910 0.8910
3371.152543 0.8910 0.8910 0.8910 0.8910 0.8910
3376.070583 0.8910 0.8910 0.8910 0.8910 0.8910
3380.988623 0.8910 0.8910 0.8910 0.8910 0.8905
3385.906663 0.8900 0.8900 0.8900 0.8900 0.8900
3390.824703 0.8900 0.8900 0.8900 0.8900 0.8900
3395.742743 0.8901 0.8906 0.8910 0.8910 0.8911
3400.660784 0.8916 0.8919 0.8914 0.8910 0.8910
3405.578824 0.8910 0.8910 0.8910 0.8910 0.8911
3410.496864 0.8916 0.8919 0.8914 0.8910 0.8910
3415.414904 0.8910 0.8910 0.8911 0.8916 0.8920
3420.332944 0.8920 0.8919 0.8914 0.8910 0.8910
3425.250984 0.8910 0.8910 0.8910 0.8910 0.8911
3430.169024 0.8916 0.8920 0.8920 0.8920 0.8920
3435.087065 0.8920 0.8920 0.8922 0.8932 0.8940
3440.005105 0.8940 0.8940 0.8940 0.8940 0.8940
3444.923145 0.8940 0.8940 0.8940 0.8940 0.8941
3449.841185 0.8946 0.8950 0.8950 0.8950 0.8950
3454.759225 0.8950 0.8950 0.8951 0.8956 0.8960
3459.677265 0.8960 0.8960 0.8960 0.8960 0.8960
3464.595306 0.8960 0.8960 0.8962 0.8972 0.8980
3469.513346 0.8980 0.8981 0.8986 0.8990 0.8990
3474.431386 0.8990 0.8990 0.8991 0.8996 0.9000
3479.349426 0.9000 0.9000 0.9000 0.8999 0.8994
3484.267466 0.8990 0.8990 0.8990 0.8990 0.8990
3489.185506 0.8990 0.8990 0.8990 0.8990 0.8990
3494.103547 0.8990 0.8990 0.8992 0.8997 0.9000
3499.021587 0.9000 0.9003 0.9013 0.9020 0.9020
3503.939627 0.9020 0.9020 0.9022 0.9027 0.9028
3508.857667 0.9023 0.9020 0.9020 0.9020 0.9020
3513.775707 0.9016 0.9006 0.9000 0.9000 0.9000
3518.693747 0.9000 0.9004 0.9014 0.9020 0.9020
3523.611788 0.9022 0.9027 0.9030 0.9030 0.9030
3528.529828 0.9030 0.9032 0.9037 0.9044 0.9054
3533.447868 0.9062 0.9067 0.9072 0.9077 0.9080
3538.365908 0.9080 0.9080 0.9080 0.9080 0.9080
3543.283948 0.9076 0.9066 0.9060 0.9060 0.9060
3548.201988 0.9060 0.9062 0.9067 0.9070 0.9070
3553.120029 0.9070 0.9070 0.9068 0.9063 0.9060
3558.038069 0.9060 0.9062 0.9067 0.9072 0.9077
3562.956109 0.9080 0.9080 0.9080 0.9080 0.9078
3567.874149 0.9073 0.9072 0.9077 0.9085 0.9095
3572.792189 0.9102 0.9107 0.9113 0.9118 0.9125
3577.710229 0.9135 0.9143 0.9148 0.9150 0.9150
3582.628269 0.9147 0.9142 0.9140 0.9140 0.9135
3587.546310 0.9125 0.9117 0.9112 0.9110 0.9110
3592.464350 0.9107 0.9102 0.9100 0.9100 0.9095
3597.382390 0.9085 0.9075 0.9065 0.9052 0.9037
3602.300430 0.9030 0.9030 0.9038 0.9053 0.9060
3607.218470 0.9060 0.9063 0.9068 0.9070 0.9070
3612.136510 0.9070 0.9070 0.9070 0.9070 0.9070
3617.054551 0.9070 0.9067 0.9062 0.9054 0.9044
3621.972591 0.9046 0.9056 0.9054 0.9044 0.9037
3626.890631 0.9032 0.9027 0.9022 0.9014 0.9004
3631.808671 0.9000 0.9000 0.8997 0.8992 0.8990
3636.726711 0.8990 0.8987 0.8982 0.8974 0.8964
3641.644751 0.8954 0.8944 0.8940 0.8940 0.8940
3646.562792 0.8940 0.8940 0.8940 0.8933 0.8923
3651.480832 0.8920 0.8920 0.8920 0.8920 0.8917
3656.398872 0.8912 0.8910 0.8910 0.8900 0.8885
3661.316912 0.8866 0.8846 0.8826 0.8806 0.8797
3666.234952 0.8792 0.8787 0.8781 0.8780 0.8780
3671.152992 0.8780 0.8780 0.8784 0.8789 0.8801
3676.071033 0.8816 0.8824 0.8829 0.8855 0.8890
3680.989073 0.8915 0.8935 0.8940 0.8940 0.8955
3685.907113 0.8975 0.8987 0.8998 0.9000 0.9000
3690.825153 0.9008 0.9018 0.9024 0.9029 0.9026
3695.743193 0.9021 0.9020 0.9020 0.9020 0.9020
3700.661233 0.9012 0.9002 0.9000 0.9000 0.9008
3705.579274 0.9018 0.9012 0.9002 0.9000 0.9000
3710.497314 0.8996 0.8991 0.8986 0.8981 0.8968
3715.415354 0.8953 0.8950 0.8950 0.8938 0.8923
3720.333394 0.8928 0.8938 0.8932 0.8922 0.8920
3725.251434 0.8920 0.8916 0.8911 0.8910 0.8910
3730.169474 0.8906 0.8901 0.8900 0.8900 0.8891
3735.087514 0.8881 0.8880 0.8880 0.8893 0.8908
3740.005555 0.8923 0.8938 0.8957 0.8977 0.8989
3744.923595 0.8999 0.9009 0.9019 0.9024 0.9029
3749.841635 0.9043 0.9058 0.9064 0.9069 0.9070
3754.759675 0.9070 0.9070 0.9070 0.9070 0.9070
3759.677715 0.9056 0.9041 0.9040 0.9040 0.9040
3764.595755 0.9040 0.9040 0.9040 0.9049 0.9059
3769.513796 0.9060 0.9060 0.9065 0.9070 0.9070
3774.431836 0.9070 0.9070 0.9070 0.9070 0.9070
3779.349876 0.9065 0.9060 0.9065 0.9070 0.9070
3784.267916 0.9070 0.9075 0.9080 0.9080 0.9080
3789.185956 0.9080 0.9080
##END=
