##TITLE=PYRIDINE
##JCAMP-DX=4.24
##DATA TYPE=INFRARED SPECTRUM
##CLASS=COBLENTZ
##ORIGIN=MONSANTO (JOHN J. FREEMAN)
##OWNER=COBLENTZ SOCIETY
Collection (C) 2018 copyright by the U.S. Secretary of Commerce
on behalf of the United States of America. All rights reserved.
##DATE=1979/07/17
##CAS REGISTRY NO=110-86-1
##MOLFORM=C5 H5 N
##BP=116 C
##SOURCE REFERENCE=COBLENTZ NO. 10514
##$NIST SOURCE=COBLENTZ
##$NIST IMAGE=cob-r10514
##SPECTROMETER/DATA SYSTEM=NICOLET FTIR
##INSTRUMENT PARAMETERS=Hg-Cd-Te DETECTOR - TYPE A, DEAD BELOW 680 CM^-^1, LOW S/N 710 - 680
$$ ABSORPTION DUE TO AN UNKNOWN AT 2347 CM^-^1.
##STATE=VAPOR (0.5 MICROLITER AT 150 C)
##PATH LENGTH=0.2 CM x 30 CM GOLD-PLATED LIGHT PIPE. HELIUM CARRIER. INTERFEROGRAMS CO-ADDED FOR FULL TRANSIT TIME.
##SAMPLING PROCEDURE=TRANSMISSION
##RESOLUTION=4 CM^-^1
##DATA PROCESSING=DIGITIZED BY NIST FROM HARD COPY (FROM TWO SEGMENTS)
##XUNITS=1/CM
##YUNITS=TRANSMITTANCE
##XFACTOR=1.000000
##YFACTOR=1
##DELTAX=1.158646
##FIRSTX=702.317
##LASTX=4002.14
##FIRSTY=0.359
##MAXX=4002.14
##MINX=702.317
##MAXY=1.01673
##MINY=0.249
##NPOINTS=2849
##XYDATA=(X++(Y..Y))
702.317000 0.3590 0.3390 0.3270 0.3090 0.2970
708.110228 0.2970 0.3268 0.3270 0.3191 0.3031
713.903455 0.2880 0.2770 0.2710 0.2700 0.2690
719.696683 0.2620 0.2560 0.2490 0.2490 0.2549
725.489911 0.2620 0.2780 0.3030 0.3379 0.3599
731.283138 0.4556 0.5057 0.5567 0.6722 0.7414
737.076366 0.7420 0.6621 0.5822 0.4783 0.4312
742.869594 0.3832 0.4764 0.6697 0.6720 0.7206
748.662821 0.8380 0.8330 0.8260 0.8190 0.8021
754.456049 0.7920 0.7840 0.7751 0.7661 0.7571
760.249277 0.7550 0.7550 0.7630 0.7710 0.7790
766.042504 0.7870 0.8019 0.8020 0.8387 0.8568
771.835732 0.8700 0.8710 0.8870 0.9030 0.9329
777.628960 0.9330 0.9449 0.9559 0.9649 0.9719
783.422188 0.9730 0.9770 0.9820 0.9840 0.9860
789.215415 0.9870 0.9880 0.9890 0.9890 0.9900
795.008643 0.9900 0.9900 0.9900 0.9920 0.9920
800.801871 0.9930 0.9940 0.9950 0.9950 0.9960
806.595098 0.9960 0.9960 0.9940 0.9850 0.9790
812.388326 0.9780 0.9770 0.9770 0.9820 0.9870
818.181554 0.9920 0.9930 0.9930 0.9930 0.9930
823.974781 0.9930 0.9930 0.9930 0.9930 0.9930
829.768009 0.9930 0.9930 0.9920 0.9920 0.9920
835.561237 0.9920 0.9900 0.9900 0.9900 0.9900
841.354464 0.9900 0.9900 0.9900 0.9920 0.9920
847.147692 0.9920 0.9920 0.9930 0.9930 0.9930
852.940920 0.9930 0.9940 0.9940 0.9940 0.9940
858.734147 0.9940 0.9940 0.9940 0.9940 0.9940
864.527375 0.9940 0.9940 0.9940 0.9940 0.9940
870.320603 0.9940 0.9940 0.9940 0.9940 0.9940
876.113830 0.9940 0.9940 0.9950 0.9950 0.9950
881.907058 0.9950 0.9960 0.9960 0.9960 0.9960
887.700286 0.9960 0.9960 0.9960 0.9960 0.9960
893.493513 0.9960 0.9960 0.9960 0.9960 0.9960
899.286741 0.9960 0.9960 0.9960 0.9960 0.9960
905.079969 0.9970 0.9970 0.9970 0.9970 0.9970
910.873196 0.9960 0.9960 0.9960 0.9960 0.9960
916.666424 0.9970 0.9970 0.9970 0.9970 0.9970
922.459652 0.9970 0.9970 0.9970 0.9970 0.9970
928.252879 0.9970 0.9970 0.9970 0.9960 0.9960
934.046107 0.9960 0.9960 0.9970 0.9980 1.0000
939.839335 1.0000 0.9980 0.9980 0.9980 0.9980
945.632563 0.9970 0.9970 0.9970 0.9960 0.9950
951.425790 0.9940 0.9930 0.9920 0.9900 0.9890
957.219018 0.9860 0.9810 0.9720 0.9680 0.9630
963.012246 0.9600 0.9481 0.9391 0.9320 0.9270
968.805473 0.9240 0.8950 0.8820 0.8720 0.8600
974.598701 0.8481 0.8381 0.8301 0.8280 0.8260
980.391929 0.8240 0.8280 0.8300 0.8340 0.8430
986.185156 0.8430 0.8311 0.8300 0.8270 0.8161
991.978384 0.8280 0.8310 0.8310 0.8250 0.8190
997.771612 0.8180 0.8051 0.7911 0.7841 0.7790
1003.564839 0.7760 0.7750 0.7740 0.7730 0.7670
1009.358067 0.7531 0.7421 0.7301 0.7111 0.6852
1015.151295 0.6800 0.6780 0.6750 0.6750 0.6750
1020.944522 0.6770 0.6810 0.6840 0.6900 0.6960
1026.737750 0.6920 0.6810 0.6710 0.6800 0.6930
1032.530978 0.7059 0.7120 0.7011 0.6861 0.6751
1038.324205 0.6720 0.6680 0.6720 0.6810 0.6930
1044.117433 0.7099 0.7329 0.7569 0.7788 0.7929
1049.910661 0.8430 0.8500 0.8570 0.8590 0.8630
1055.703888 0.8630 0.8600 0.8580 0.8570 0.8560
1061.497116 0.8560 0.8560 0.8570 0.8580 0.8640
1067.290344 0.8660 0.8700 0.8799 0.8870 0.8949
1073.083571 0.8950 0.8870 0.8800 0.8760 0.8730
1078.876799 0.8730 0.8770 0.8820 0.8889 0.8969
1084.670027 0.9090 0.9190 0.9320 0.9390 0.9549
1090.463254 0.9580 0.9640 0.9660 0.9720 0.9760
1096.256482 0.9770 0.9790 0.9810 0.9860 0.9860
1102.049710 0.9870 0.9870 0.9860 0.9860 0.9850
1107.842937 0.9820 0.9800 0.9770 0.9760 0.9710
1113.636165 0.9660 0.9610 0.9530 0.9480 0.9391
1119.429393 0.9290 0.9160 0.9070 0.8901 0.8800
1125.222621 0.8720 0.8640 0.8570 0.8520 0.8510
1131.015848 0.8510 0.8500 0.8500 0.8500 0.8500
1136.809076 0.8500 0.8580 0.8650 0.8670 0.8640
1142.602304 0.8560 0.8540 0.8500 0.8480 0.8440
1148.395531 0.8390 0.8380 0.8390 0.8400 0.8479
1154.188759 0.8580 0.8680 0.8880 0.9010 0.9189
1159.981987 0.9290 0.9370 0.9479 0.9559 0.9649
1165.775214 0.9700 0.9770 0.9790 0.9850 0.9860
1171.568442 0.9870 0.9880 0.9880 0.9880 0.9870
1177.361670 0.9870 0.9860 0.9860 0.9850 0.9810
1183.154897 0.9780 0.9770 0.9700 0.9690 0.9611
1188.948125 0.9550 0.9470 0.9380 0.9300 0.9200
1194.741353 0.9160 0.9041 0.8891 0.8711 0.8571
1200.534580 0.8500 0.8480 0.8430 0.8420 0.8420
1206.327808 0.8430 0.8480 0.8520 0.8520 0.8490
1212.121036 0.8440 0.8400 0.8440 0.8500 0.8620
1217.914263 0.8660 0.8600 0.8520 0.8480 0.8430
1223.707491 0.8430 0.8420 0.8430 0.8520 0.8659
1229.500719 0.8789 0.8889 0.9029 0.9169 0.9319
1235.293946 0.9410 0.9470 0.9630 0.9740 0.9760
1241.087174 0.9800 0.9840 0.9870 0.9880 0.9890
1246.880402 0.9900 0.9920 0.9920 0.9930 0.9930
1252.673629 0.9930 0.9930 0.9930 0.9930 0.9920
1258.466857 0.9900 0.9900 0.9890 0.9890 0.9880
1264.260085 0.9870 0.9870 0.9870 0.9870 0.9870
1270.053312 0.9870 0.9880 0.9880 0.9880 0.9880
1275.846540 0.9890 0.9890 0.9890 0.9900 0.9900
1281.639768 0.9890 0.9890 0.9890 0.9890 0.9890
1287.432996 0.9890 0.9890 0.9890 0.9890 0.9890
1293.226223 0.9890 0.9900 0.9900 0.9900 0.9920
1299.019451 0.9930 0.9940 0.9950 0.9950 0.9950
1304.812679 0.9950 0.9950 0.9960 0.9960 0.9960
1310.605906 0.9960 0.9960 0.9960 0.9960 0.9950
1316.399134 0.9940 0.9930 0.9930 0.9920 0.9920
1322.192362 0.9920 0.9920 0.9920 0.9900 0.9890
1327.985589 0.9880 0.9860 0.9850 0.9850 0.9840
1333.778817 0.9820 0.9810 0.9780 0.9770 0.9720
1339.572045 0.9700 0.9680 0.9660 0.9640 0.9630
1345.365272 0.9620 0.9620 0.9600 0.9600 0.9600
1351.158500 0.9610 0.9610 0.9620 0.9620 0.9630
1356.951728 0.9630 0.9640 0.9640 0.9630 0.9610
1362.744955 0.9610 0.9600 0.9580 0.9570 0.9570
1368.538183 0.9570 0.9570 0.9570 0.9570 0.9580
1374.331411 0.9580 0.9600 0.9620 0.9630 0.9640
1380.124638 0.9680 0.9690 0.9710 0.9720 0.9730
1385.917866 0.9730 0.9730 0.9730 0.9730 0.9730
1391.711094 0.9740 0.9740 0.9710 0.9690 0.9660
1397.504321 0.9610 0.9540 0.9480 0.9420 0.9370
1403.297549 0.9290 0.9161 0.9011 0.8881 0.8602
1409.090777 0.8470 0.8310 0.8140 0.7861 0.7422
1414.884004 0.7022 0.6622 0.6411 0.6211 0.5466
1420.677232 0.5140 0.4840 0.4580 0.4311 0.4121
1426.470460 0.3941 0.3751 0.3670 0.3660 0.3670
1432.263687 0.3670 0.3690 0.3750 0.3770 0.3770
1438.056915 0.3870 0.3950 0.4129 0.4130 0.3922
1443.850143 0.3810 0.3780 0.3770 0.3760 0.3720
1449.643371 0.3670 0.3710 0.3799 0.3870 0.4455
1455.436598 0.4810 0.5249 0.5579 0.6358 0.6828
1461.229826 0.6999 0.7437 0.7748 0.7978 0.8109
1467.023054 0.8320 0.8430 0.8480 0.8510 0.8560
1472.816281 0.8580 0.8620 0.8630 0.8630 0.8630
1478.609509 0.8640 0.8650 0.8710 0.8830 0.8880
1484.402737 0.8820 0.8770 0.8671 0.8591 0.8560
1490.195964 0.8550 0.8570 0.8630 0.8710 0.8810
1495.989192 0.8900 0.9039 0.9139 0.9408 0.9460
1501.782420 0.9550 0.9710 0.9770 0.9810 0.9820
1507.575647 0.9820 0.9850 0.9860 0.9890 0.9920
1513.368875 0.9950 0.9960 0.9960 0.9970 0.9970
1519.162103 0.9960 0.9960 0.9950 0.9930 0.9920
1524.955330 0.9890 0.9880 0.9880 0.9880 0.9860
1530.748558 0.9850 0.9840 0.9850 0.9860 0.9860
1536.541786 0.9810 0.9710 0.9640 0.9520 0.9420
1542.335013 0.9360 0.9280 0.9141 0.8981 0.8792
1548.128241 0.8510 0.8320 0.8200 0.8090 0.7901
1553.921469 0.7512 0.7321 0.6435 0.6241 0.6051
1559.714696 0.5640 0.5390 0.5061 0.4681 0.4461
1565.507924 0.4360 0.4251 0.4031 0.3782 0.3691
1571.301152 0.3680 0.3670 0.3660 0.3620 0.3560
1577.094379 0.3470 0.3231 0.3091 0.2911 0.2781
1582.887607 0.2750 0.2740 0.2810 0.2940 0.3159
1588.680835 0.3439 0.3758 0.4416 0.4738 0.4988
1594.474062 0.5240 0.5470 0.5660 0.6398 0.6559
1600.267290 0.6670 0.6720 0.6829 0.6929 0.7049
1606.060518 0.7190 0.7320 0.7540 0.7630 0.7789
1611.853746 0.8019 0.8328 0.8469 0.8589 0.8669
1617.646973 0.8810 0.8880 0.8950 0.8990 0.9030
1623.440201 0.9070 0.9090 0.9120 0.9130 0.9170
1629.233429 0.9220 0.9270 0.9270 0.9270 0.9240
1635.026656 0.9240 0.9250 0.9280 0.9320 0.9370
1640.819884 0.9400 0.9440 0.9460 0.9480 0.9550
1646.613112 0.9630 0.9720 0.9710 0.9650 0.9630
1652.406339 0.9640 0.9660 0.9680 0.9720 0.9720
1658.199567 0.9690 0.9660 0.9650 0.9650 0.9660
1663.992795 0.9680 0.9680 0.9660 0.9660 0.9680
1669.786022 0.9690 0.9660 0.9650 0.9640 0.9650
1675.579250 0.9660 0.9720 0.9780 0.9770 0.9680
1681.372478 0.9620 0.9620 0.9620 0.9630 0.9630
1687.165705 0.9650 0.9660 0.9710 0.9760 0.9770
1692.958933 0.9790 0.9820 0.9840 0.9850 0.9860
1698.752161 0.9870 0.9890 0.9890 0.9870 0.9870
1704.545388 0.9860 0.9860 0.9870 0.9870 0.9890
1710.338616 0.9930 0.9930 0.9890 0.9850 0.9820
1716.131844 0.9810 0.9800 0.9790 0.9770 0.9760
1721.925071 0.9740 0.9740 0.9730 0.9740 0.9740
1727.718299 0.9770 0.9770 0.9760 0.9690 0.9690
1733.511527 0.9710 0.9720 0.9740 0.9740 0.9720
1739.304754 0.9730 0.9740 0.9760 0.9760 0.9770
1745.097982 0.9770 0.9770 0.9760 0.9730 0.9740
1750.891210 0.9760 0.9760 0.9780 0.9780 0.9780
1756.684437 0.9800 0.9810 0.9820 0.9820 0.9840
1762.477665 0.9860 0.9870 0.9890 0.9920 0.9940
1768.270893 0.9940 0.9920 0.9900 0.9900 0.9900
1774.064121 0.9900 0.9920 0.9920 0.9890 0.9890
1779.857348 0.9870 0.9860 0.9860 0.9850 0.9850
1785.650576 0.9870 0.9870 0.9860 0.9810 0.9800
1791.443804 0.9780 0.9780 0.9790 0.9790 0.9800
1797.237031 0.9800 0.9780 0.9770 0.9770 0.9760
1803.030259 0.9760 0.9760 0.9760 0.9760 0.9740
1808.823487 0.9740 0.9740 0.9760 0.9770 0.9770
1814.616714 0.9780 0.9780 0.9780 0.9780 0.9780
1820.409942 0.9780 0.9770 0.9770 0.9770 0.9770
1826.203170 0.9760 0.9760 0.9680 0.9660 0.9640
1831.996397 0.9600 0.9580 0.9530 0.9480 0.9460
1837.789625 0.9420 0.9380 0.9360 0.9300 0.9270
1843.582853 0.9230 0.9210 0.9190 0.9170 0.9150
1849.376080 0.9140 0.9130 0.9130 0.9130 0.9130
1855.169308 0.9140 0.9140 0.9140 0.9130 0.9130
1860.962536 0.9130 0.9130 0.9130 0.9140 0.9160
1866.755763 0.9160 0.9170 0.9190 0.9210 0.9269
1872.548991 0.9270 0.9310 0.9360 0.9390 0.9450
1878.342219 0.9460 0.9500 0.9530 0.9550 0.9560
1884.135446 0.9560 0.9550 0.9520 0.9470 0.9410
1889.928674 0.9370 0.9310 0.9270 0.9191 0.9091
1895.721902 0.9060 0.8980 0.8930 0.8900 0.8850
1901.515129 0.8790 0.8770 0.8760 0.8750 0.8740
1907.308357 0.8730 0.8730 0.8730 0.8740 0.8750
1913.101585 0.8760 0.8760 0.8760 0.8760 0.8750
1918.894812 0.8750 0.8740 0.8730 0.8730 0.8740
1924.688040 0.8760 0.8790 0.8850 0.8900 0.8979
1930.481268 0.9070 0.9150 0.9190 0.9270 0.9330
1936.274496 0.9380 0.9450 0.9460 0.9520 0.9540
1942.067723 0.9540 0.9540 0.9540 0.9530 0.9530
1947.860951 0.9520 0.9490 0.9450 0.9410 0.9380
1953.654179 0.9360 0.9310 0.9280 0.9270 0.9230
1959.447406 0.9190 0.9190 0.9170 0.9170 0.9170
1965.240634 0.9170 0.9170 0.9170 0.9170 0.9190
1971.033862 0.9200 0.9210 0.9210 0.9220 0.9230
1976.827089 0.9230 0.9230 0.9250 0.9270 0.9270
1982.620317 0.9280 0.9300 0.9330 0.9360 0.9390
1988.413545 0.9450 0.9480 0.9560 0.9580 0.9620
1994.206772 0.9660 0.9700 0.9760 0.9760 0.9790
2000.000000 0.9810 0.9825 0.9840 0.9850 0.9860
2005.793228 0.9865 0.9870 0.9870 0.9870 0.9870
2011.586455 0.9870 0.9870 0.9870 0.9861 0.9851
2017.379683 0.9850 0.9850 0.9854 0.9859 0.9860
2023.172911 0.9860 0.9864 0.9869 0.9870 0.9870
2028.966138 0.9870 0.9870 0.9870 0.9870 0.9870
2034.759366 0.9870 0.9870 0.9870 0.9874 0.9879
2040.552594 0.9884 0.9889 0.9890 0.9890 0.9890
2046.345821 0.9890 0.9890 0.9890 0.9894 0.9899
2052.139049 0.9900 0.9900 0.9900 0.9900 0.9900
2057.932277 0.9900 0.9907 0.9917 0.9923 0.9928
2063.725504 0.9930 0.9930 0.9930 0.9930 0.9930
2069.518732 0.9930 0.9930 0.9930 0.9930 0.9930
2075.311960 0.9927 0.9922 0.9920 0.9920 0.9920
2081.105187 0.9920 0.9923 0.9928 0.9930 0.9930
2086.898415 0.9930 0.9930 0.9930 0.9930 0.9933
2092.691643 0.9938 0.9940 0.9940 0.9940 0.9940
2098.484871 0.9940 0.9940 0.9938 0.9933 0.9930
2104.278098 0.9930 0.9928 0.9923 0.9920 0.9920
2110.071326 0.9916 0.9906 0.9900 0.9900 0.9898
2115.864554 0.9893 0.9888 0.9883 0.9874 0.9859
2121.657781 0.9850 0.9850 0.9850 0.9850 0.9850
2127.451009 0.9850 0.9850 0.9850 0.9852 0.9857
2133.244237 0.9860 0.9860 0.9860 0.9860 0.9860
2139.037464 0.9860 0.9861 0.9866 0.9870 0.9870
2144.830692 0.9870 0.9870 0.9870 0.9870 0.9870
2150.623920 0.9870 0.9871 0.9876 0.9881 0.9886
2156.417147 0.9890 0.9890 0.9891 0.9896 0.9900
2162.210375 0.9900 0.9900 0.9900 0.9900 0.9900
2168.003603 0.9899 0.9894 0.9890 0.9890 0.9890
2173.796830 0.9890 0.9890 0.9885 0.9879 0.9869
2179.590058 0.9860 0.9860 0.9860 0.9860 0.9860
2185.383286 0.9860 0.9860 0.9855 0.9850 0.9845
2191.176513 0.9840 0.9830 0.9820 0.9820 0.9820
2196.969741 0.9820 0.9820 0.9830 0.9840 0.9845
2202.762969 0.9850 0.9850 0.9850 0.9855 0.9860
2208.556196 0.9860 0.9860 0.9865 0.9870 0.9870
2214.349424 0.9870 0.9870 0.9870 0.9870 0.9870
2220.142652 0.9870 0.9870 0.9874 0.9879 0.9884
2225.935879 0.9889 0.9894 0.9899 0.9900 0.9900
2231.729107 0.9900 0.9900 0.9896 0.9891 0.9886
2237.522335 0.9881 0.9876 0.9871 0.9866 0.9861
2243.315562 0.9860 0.9860 0.9856 0.9851 0.9846
2249.108790 0.9841 0.9833 0.9823 0.9817 0.9812
2254.902018 0.9807 0.9802 0.9790 0.9775 0.9767
2260.695246 0.9762 0.9747 0.9727 0.9717 0.9712
2266.488473 0.9707 0.9702 0.9697 0.9692 0.9681
2272.281701 0.9666 0.9660 0.9660 0.9660 0.9660
2278.074929 0.9666 0.9676 0.9680 0.9680 0.9683
2283.868156 0.9688 0.9693 0.9698 0.9703 0.9708
2289.661384 0.9710 0.9710 0.9713 0.9717 0.9722
2295.454612 0.9727 0.9749 0.9789 0.9822 0.9846
2301.247839 0.9862 0.9867 0.9875 0.9885 0.9897
2307.041067 0.9912 0.9926 0.9941 0.9954 0.9964
2312.834295 0.9980 1.0005 1.0026 1.0041 1.0052
2318.627522 1.0057 1.0062 1.0067 1.0074 1.0083
2324.420750 1.0092 1.0097 1.0100 1.0100 1.0100
2330.213978 1.0100 1.0100 1.0100 1.0100 1.0100
2336.007205 1.0096 1.0081 1.0067 1.0057 1.0044
2341.800433 1.0019 0.9996 0.9981 0.9970 0.9970
2347.593661 0.9981 1.0031 1.0075 1.0094 1.0113
2353.386888 1.0128 1.0143 1.0158 1.0167 1.0152
2359.180116 1.0139 1.0134 1.0127 1.0107 1.0088
2364.973344 1.0073 1.0059 1.0049 1.0038 1.0018
2370.766571 0.9999 0.9983 0.9969 0.9965 0.9960
2376.559799 0.9960 0.9960 0.9955 0.9950 0.9950
2382.353027 0.9950 0.9950 0.9950 0.9945 0.9940
2388.146254 0.9935 0.9930 0.9930 0.9930 0.9930
2393.939482 0.9930 0.9915 0.9900 0.9895 0.9890
2399.732710 0.9880 0.9870 0.9870 0.9870 0.9870
2405.525937 0.9870 0.9870 0.9870 0.9865 0.9860
2411.319165 0.9860 0.9860 0.9856 0.9851 0.9850
2417.112393 0.9850 0.9850 0.9850 0.9850 0.9850
2422.905621 0.9846 0.9841 0.9840 0.9840 0.9832
2428.698848 0.9822 0.9820 0.9820 0.9820 0.9820
2434.492076 0.9820 0.9820 0.9820 0.9820 0.9828
2440.285304 0.9837 0.9840 0.9840 0.9844 0.9849
2446.078531 0.9854 0.9859 0.9864 0.9869 0.9874
2451.871759 0.9878 0.9883 0.9888 0.9890 0.9890
2457.664987 0.9890 0.9890 0.9893 0.9898 0.9900
2463.458214 0.9900 0.9900 0.9900 0.9897 0.9892
2469.251442 0.9890 0.9890 0.9890 0.9890 0.9890
2475.044670 0.9890 0.9893 0.9898 0.9900 0.9900
2480.837897 0.9897 0.9892 0.9890 0.9890 0.9890
2486.631125 0.9890 0.9890 0.9890 0.9887 0.9882
2492.424353 0.9880 0.9880 0.9878 0.9873 0.9870
2498.217580 0.9870 0.9875 0.9884 0.9890 0.9890
2504.010808 0.9892 0.9897 0.9900 0.9900 0.9904
2509.804036 0.9914 0.9920 0.9920 0.9920 0.9920
2515.597263 0.9920 0.9920 0.9920 0.9920 0.9920
2521.390491 0.9920 0.9920 0.9920 0.9920 0.9920
2527.183719 0.9917 0.9907 0.9900 0.9900 0.9900
2532.976946 0.9900 0.9900 0.9900 0.9903 0.9913
2538.770174 0.9920 0.9920 0.9920 0.9920 0.9920
2544.563402 0.9920 0.9918 0.9908 0.9900 0.9900
2550.356629 0.9899 0.9894 0.9890 0.9890 0.9890
2556.149857 0.9890 0.9890 0.9890 0.9890 0.9890
2561.943085 0.9889 0.9879 0.9870 0.9870 0.9870
2567.736312 0.9870 0.9870 0.9870 0.9870 0.9870
2573.529540 0.9870 0.9870 0.9870 0.9870 0.9870
2579.322768 0.9870 0.9870 0.9870 0.9870 0.9865
2585.115996 0.9860 0.9860 0.9860 0.9860 0.9860
2590.909223 0.9855 0.9850 0.9850 0.9850 0.9845
2596.702451 0.9840 0.9830 0.9821 0.9820 0.9820
2602.495679 0.9815 0.9810 0.9805 0.9800 0.9800
2608.288906 0.9800 0.9805 0.9809 0.9828 0.9848
2614.082134 0.9854 0.9859 0.9869 0.9879 0.9880
2619.875362 0.9880 0.9880 0.9880 0.9880 0.9880
2625.668589 0.9880 0.9880 0.9880 0.9880 0.9880
2631.461817 0.9880 0.9880 0.9880 0.9876 0.9871
2637.255045 0.9870 0.9870 0.9870 0.9870 0.9870
2643.048272 0.9870 0.9870 0.9870 0.9870 0.9870
2648.841500 0.9870 0.9870 0.9870 0.9870 0.9877
2654.634728 0.9887 0.9890 0.9890 0.9893 0.9898
2660.427955 0.9900 0.9900 0.9900 0.9900 0.9900
2666.221183 0.9900 0.9900 0.9900 0.9900 0.9900
2672.014411 0.9900 0.9900 0.9900 0.9900 0.9900
2677.807638 0.9900 0.9900 0.9900 0.9900 0.9900
2683.600866 0.9900 0.9900 0.9905 0.9915 0.9920
2689.394094 0.9920 0.9920 0.9920 0.9920 0.9920
2695.187321 0.9920 0.9920 0.9920 0.9920 0.9920
2700.980549 0.9920 0.9920 0.9920 0.9922 0.9927
2706.773777 0.9930 0.9930 0.9930 0.9930 0.9930
2712.567004 0.9930 0.9930 0.9930 0.9932 0.9937
2718.360232 0.9940 0.9940 0.9940 0.9940 0.9942
2724.153460 0.9947 0.9950 0.9950 0.9950 0.9950
2729.946687 0.9950 0.9950 0.9951 0.9956 0.9960
2735.739915 0.9960 0.9960 0.9960 0.9960 0.9960
2741.533143 0.9960 0.9960 0.9960 0.9960 0.9959
2747.326371 0.9954 0.9950 0.9950 0.9949 0.9944
2753.119598 0.9940 0.9940 0.9939 0.9934 0.9929
2758.912826 0.9924 0.9919 0.9909 0.9899 0.9894
2764.706054 0.9890 0.9890 0.9890 0.9885 0.9880
2770.499281 0.9875 0.9870 0.9865 0.9860 0.9860
2776.292509 0.9860 0.9855 0.9850 0.9850 0.9850
2782.085737 0.9850 0.9850 0.9845 0.9840 0.9840
2787.878964 0.9840 0.9830 0.9820 0.9815 0.9810
2793.672192 0.9810 0.9810 0.9810 0.9810 0.9805
2799.465420 0.9800 0.9795 0.9790 0.9785 0.9780
2805.258647 0.9776 0.9771 0.9770 0.9770 0.9770
2811.051875 0.9770 0.9766 0.9761 0.9760 0.9760
2816.845103 0.9760 0.9760 0.9747 0.9733 0.9730
2822.638330 0.9730 0.9730 0.9730 0.9730 0.9730
2828.431558 0.9730 0.9730 0.9726 0.9721 0.9720
2834.224786 0.9720 0.9720 0.9720 0.9720 0.9720
2840.018013 0.9735 0.9755 0.9760 0.9760 0.9767
2845.811241 0.9777 0.9787 0.9797 0.9807 0.9817
2851.604469 0.9830 0.9845 0.9857 0.9866 0.9870
2857.397696 0.9870 0.9870 0.9870 0.9873 0.9878
2863.190924 0.9880 0.9880 0.9880 0.9880 0.9880
2868.984152 0.9880 0.9880 0.9880 0.9880 0.9880
2874.777379 0.9880 0.9880 0.9880 0.9880 0.9880
2880.570607 0.9880 0.9880 0.9880 0.9880 0.9880
2886.363835 0.9875 0.9865 0.9858 0.9853 0.9850
2892.157062 0.9850 0.9848 0.9843 0.9829 0.9804
2897.950290 0.9786 0.9776 0.9758 0.9728 0.9700
2903.743518 0.9675 0.9656 0.9646 0.9632 0.9612
2909.536746 0.9592 0.9573 0.9554 0.9540 0.9519
2915.329973 0.9490 0.9468 0.9463 0.9449 0.9414
2921.123201 0.9388 0.9383 0.9380 0.9380 0.9381
2926.916429 0.9386 0.9391 0.9396 0.9400 0.9400
2932.709656 0.9401 0.9406 0.9411 0.9416 0.9424
2938.502884 0.9438 0.9451 0.9456 0.9461 0.9466
2944.296112 0.9472 0.9482 0.9491 0.9496 0.9502
2950.089339 0.9512 0.9522 0.9531 0.9541 0.9546
2955.882567 0.9551 0.9561 0.9570 0.9570 0.9569
2961.675795 0.9559 0.9547 0.9523 0.9498 0.9478
2967.469022 0.9458 0.9439 0.9419 0.9399 0.9378
2973.262250 0.9328 0.9278 0.9223 0.9169 0.9108
2979.055478 0.9044 0.8845 0.8648 0.8514 0.8380
2984.848705 0.8251 0.8122 0.7997 0.7873 0.7662
2990.641933 0.7449 0.7278 0.7109 0.7006 0.6907
2996.435161 0.6817 0.6727 0.6679 0.6634 0.6557
3002.228388 0.6477 0.6398 0.6318 0.6163 0.5999
3008.021616 0.5901 0.5812 0.5649 0.5475 0.5318
3013.814844 0.5165 0.4977 0.4784 0.4672 0.4578
3019.608071 0.4500 0.4425 0.4351 0.4276 0.4205
3025.401299 0.4135 0.4081 0.4031 0.4020 0.4020
3031.194527 0.4081 0.4160 0.4180 0.4180 0.4169
3036.987754 0.4154 0.4107 0.4047 0.3970 0.3886
3042.780982 0.3839 0.3810 0.3820 0.3850 0.3887
3048.574210 0.3927 0.3970 0.4015 0.4060 0.4104
3054.367437 0.4162 0.4226 0.4269 0.4299 0.4310
3060.160665 0.4310 0.4232 0.4103 0.3939 0.3750
3065.953893 0.3504 0.3216 0.3029 0.2919 0.2834
3071.747121 0.2769 0.2737 0.2732 0.2743 0.2768
3077.540348 0.2798 0.2833 0.2878 0.2933 0.2975
3083.333576 0.3005 0.3025 0.3035 0.3042 0.3047
3089.126804 0.3052 0.3057 0.3071 0.3096 0.3144
3094.920031 0.3225 0.3303 0.3377 0.3698 0.4353
3100.713259 0.5100 0.5979 0.6594 0.6808 0.7027
3106.506487 0.7255 0.7597 0.8133 0.8552 0.8755
3112.299714 0.8929 0.9043 0.9146 0.9225 0.9296
3118.092942 0.9346 0.9382 0.9387 0.9393 0.9403
3123.886170 0.9410 0.9410 0.9407 0.9397 0.9389
3129.679397 0.9384 0.9379 0.9374 0.9369 0.9364
3135.472625 0.9360 0.9360 0.9360 0.9360 0.9360
3141.265853 0.9360 0.9361 0.9366 0.9370 0.9370
3147.059080 0.9369 0.9364 0.9360 0.9360 0.9361
3152.852308 0.9366 0.9371 0.9381 0.9392 0.9407
3158.645536 0.9422 0.9442 0.9462 0.9482 0.9502
3164.438763 0.9532 0.9562 0.9587 0.9611 0.9631
3170.231991 0.9650 0.9655 0.9660 0.9670 0.9680
3176.025219 0.9680 0.9680 0.9685 0.9690 0.9700
3181.818446 0.9710 0.9734 0.9759 0.9760 0.9760
3187.611674 0.9765 0.9770 0.9770 0.9770 0.9770
3193.404902 0.9770 0.9775 0.9780 0.9780 0.9780
3199.198129 0.9780 0.9780 0.9776 0.9771 0.9770
3204.991357 0.9770 0.9770 0.9770 0.9770 0.9770
3210.784585 0.9770 0.9770 0.9770 0.9770 0.9770
3216.577812 0.9770 0.9770 0.9770 0.9770 0.9770
3222.371040 0.9770 0.9770 0.9770 0.9770 0.9770
3228.164268 0.9770 0.9770 0.9770 0.9770 0.9770
3233.957496 0.9770 0.9770 0.9770 0.9770 0.9770
3239.750723 0.9770 0.9770 0.9770 0.9773 0.9778
3245.543951 0.9783 0.9788 0.9790 0.9790 0.9787
3251.337179 0.9782 0.9780 0.9780 0.9777 0.9772
3257.130406 0.9770 0.9770 0.9773 0.9778 0.9786
3262.923634 0.9796 0.9800 0.9800 0.9803 0.9808
3268.716862 0.9810 0.9810 0.9810 0.9810 0.9810
3274.510089 0.9810 0.9810 0.9810 0.9810 0.9810
3280.303317 0.9812 0.9817 0.9820 0.9820 0.9820
3286.096545 0.9820 0.9820 0.9820 0.9820 0.9820
3291.889772 0.9820 0.9820 0.9824 0.9834 0.9840
3297.683000 0.9840 0.9840 0.9840 0.9840 0.9840
3303.476228 0.9842 0.9847 0.9850 0.9850 0.9850
3309.269455 0.9850 0.9850 0.9850 0.9852 0.9857
3315.062683 0.9860 0.9860 0.9860 0.9860 0.9860
3320.855911 0.9860 0.9860 0.9860 0.9860 0.9860
3326.649138 0.9860 0.9860 0.9860 0.9860 0.9860
3332.442366 0.9860 0.9860 0.9860 0.9861 0.9866
3338.235594 0.9870 0.9870 0.9870 0.9870 0.9870
3344.028821 0.9870 0.9871 0.9876 0.9880 0.9880
3349.822049 0.9880 0.9880 0.9879 0.9874 0.9870
3355.615277 0.9870 0.9870 0.9870 0.9870 0.9875
3361.408504 0.9880 0.9880 0.9880 0.9880 0.9880
3367.201732 0.9880 0.9880 0.9885 0.9890 0.9890
3372.994960 0.9890 0.9885 0.9880 0.9880 0.9880
3378.788187 0.9880 0.9880 0.9880 0.9880 0.9880
3384.581415 0.9880 0.9875 0.9870 0.9870 0.9870
3390.374643 0.9865 0.9860 0.9860 0.9860 0.9860
3396.167871 0.9860 0.9856 0.9850 0.9850 0.9850
3401.961098 0.9850 0.9850 0.9850 0.9850 0.9854
3407.754326 0.9859 0.9864 0.9869 0.9874 0.9879
3413.547554 0.9872 0.9862 0.9860 0.9860 0.9860
3419.340781 0.9860 0.9860 0.9860 0.9864 0.9869
3425.134009 0.9874 0.9879 0.9880 0.9880 0.9880
3430.927237 0.9880 0.9880 0.9880 0.9884 0.9888
3436.720464 0.9893 0.9898 0.9900 0.9900 0.9900
3442.513692 0.9900 0.9900 0.9900 0.9900 0.9900
3448.306920 0.9900 0.9900 0.9897 0.9892 0.9887
3454.100147 0.9882 0.9880 0.9880 0.9886 0.9896
3459.893375 0.9909 0.9924 0.9933 0.9938 0.9937
3465.686603 0.9932 0.9930 0.9930 0.9930 0.9930
3471.479830 0.9930 0.9930 0.9930 0.9930 0.9930
3477.273058 0.9930 0.9930 0.9930 0.9930 0.9930
3483.066286 0.9930 0.9930 0.9932 0.9937 0.9940
3488.859513 0.9940 0.9940 0.9940 0.9940 0.9940
3494.652741 0.9940 0.9940 0.9938 0.9933 0.9930
3500.445969 0.9930 0.9932 0.9937 0.9942 0.9947
3506.239196 0.9950 0.9950 0.9948 0.9943 0.9940
3512.032424 0.9940 0.9940 0.9940 0.9942 0.9947
3517.825652 0.9950 0.9950 0.9951 0.9956 0.9960
3523.618879 0.9960 0.9960 0.9960 0.9959 0.9954
3529.412107 0.9950 0.9950 0.9949 0.9944 0.9941
3535.205335 0.9946 0.9950 0.9950 0.9950 0.9950
3540.998562 0.9950 0.9950 0.9951 0.9956 0.9960
3546.791790 0.9960 0.9959 0.9954 0.9950 0.9950
3552.585018 0.9950 0.9950 0.9950 0.9955 0.9962
3558.378246 0.9981 0.9999 0.9984 0.9970 0.9965
3564.171473 0.9960 0.9960 0.9960 0.9965 0.9970
3569.964701 0.9970 0.9970 0.9965 0.9960 0.9955
3575.757929 0.9950 0.9979 1.0009 1.0010 1.0010
3581.551156 0.9986 0.9961 0.9960 0.9960 0.9969
3587.344384 0.9979 0.9980 0.9980 0.9980 0.9980
3593.137612 0.9966 0.9952 0.9950 0.9950 0.9959
3598.930839 0.9969 0.9974 0.9979 0.9980 0.9980
3604.724067 0.9988 0.9998 1.0000 1.0000 1.0012
3610.517295 1.0027 1.0030 1.0030 0.9990 0.9940
3616.310522 0.9930 0.9930 0.9949 0.9974 0.9980
3622.103750 0.9980 0.9976 0.9971 0.9966 0.9961
3627.896978 0.9960 0.9960 0.9960 0.9960 0.9953
3633.690205 0.9943 0.9923 0.9898 0.9883 0.9873
3639.483433 0.9903 0.9953 0.9970 0.9970 0.9954
3645.276661 0.9929 0.9911 0.9896 0.9890 0.9890
3651.069888 0.9881 0.9866 0.9854 0.9844 0.9828
3656.863116 0.9808 0.9800 0.9800 0.9803 0.9808
3662.656344 0.9810 0.9810 0.9823 0.9848 0.9884
3668.449571 0.9928 0.9950 0.9950 0.9928 0.9883
3674.242799 0.9855 0.9845 0.9840 0.9840 0.9852
3680.036027 0.9877 0.9897 0.9912 0.9924 0.9934
3685.829254 0.9929 0.9904 0.9900 0.9925 0.9940
3691.622482 0.9940 0.9944 0.9954 0.9962 0.9967
3697.415710 0.9954 0.9909 0.9896 0.9941 0.9977
3703.208937 0.9997 1.0010 1.0010 0.9992 0.9937
3709.002165 0.9897 0.9887 0.9883 0.9893 0.9899
3714.795393 0.9894 0.9887 0.9877 0.9867 0.9857
3720.588621 0.9840 0.9800 0.9779 0.9820 0.9856
3726.381848 0.9881 0.9900 0.9900 0.9897 0.9882
3732.175076 0.9867 0.9852 0.9838 0.9828 0.9822
3737.968304 0.9832 0.9842 0.9857 0.9871 0.9881
3743.761531 0.9894 0.9924 0.9948 0.9933 0.9920
3749.554759 0.9920 0.9921 0.9926 0.9930 0.9935
3755.347987 0.9940 0.9945 0.9951 0.9961 0.9970
3761.141214 0.9970 0.9970 0.9975 0.9980 0.9965
3766.934442 0.9950 0.9950 0.9950 0.9960 0.9970
3772.727670 0.9975 0.9980 0.9975 0.9970 0.9965
3778.520897 0.9960 0.9955 0.9950 0.9945 0.9940
3784.314125 0.9940 0.9940 0.9940 0.9940 0.9945
3790.107353 0.9949 0.9954 0.9959 0.9969 0.9979
3795.900580 0.9993 1.0008 1.0014 1.0019 1.0012
3801.693808 1.0002 0.9979 0.9954 0.9946 0.9941
3807.487036 0.9944 0.9949 0.9954 0.9959 0.9968
3813.280263 0.9978 1.0007 1.0042 1.0050 1.0050
3819.073491 1.0023 0.9989 0.9980 0.9980 0.9976
3824.866719 0.9971 0.9970 0.9970 0.9966 0.9961
3830.659946 0.9967 0.9977 0.9997 1.0022 1.0030
3836.453174 1.0030 1.0024 1.0014 0.9981 0.9936
3842.246402 0.9920 0.9920 0.9948 0.9993 1.0022
3848.039629 1.0042 1.0050 1.0050 1.0023 0.9979
3853.832857 0.9966 0.9976 0.9980 0.9980 0.9980
3859.626085 0.9980 0.9985 0.9995 1.0003 1.0008
3865.419312 1.0010 1.0010 1.0010 1.0010 1.0010
3871.212540 1.0010 1.0008 1.0003 1.0007 1.0022
3877.005768 1.0030 1.0030 1.0019 0.9994 0.9978
3882.798996 0.9973 0.9968 0.9963 0.9972 1.0002
3888.592223 1.0006 0.9971 0.9948 0.9943 0.9940
3894.385451 0.9940 0.9951 0.9981 1.0004 1.0014
3900.178679 1.0020 1.0020 1.0012 0.9987 0.9968
3905.971906 0.9963 0.9959 0.9954 0.9950 0.9950
3911.765134 0.9951 0.9956 0.9960 0.9960 0.9960
3917.558362 0.9960 0.9960 0.9960 0.9960 0.9960
3923.351589 0.9959 0.9954 0.9952 0.9962 0.9970
3929.144817 0.9970 0.9968 0.9958 0.9949 0.9944
3934.938045 0.9940 0.9940 0.9940 0.9940 0.9941
3940.731272 0.9946 0.9950 0.9950 0.9949 0.9944
3946.524500 0.9940 0.9940 0.9940 0.9935 0.9930
3952.317728 0.9930 0.9930 0.9930 0.9930 0.9935
3958.110955 0.9940 0.9940 0.9940 0.9935 0.9930
3963.904183 0.9930 0.9930 0.9925 0.9920 0.9920
3969.697411 0.9920 0.9920 0.9920 0.9920 0.9920
3975.490638 0.9910 0.9901 0.9900 0.9900 0.9900
3981.283866 0.9900 0.9895 0.9890 0.9890 0.9890
3987.077094 0.9890 0.9890 0.9894 0.9899 0.9909
3992.870321 0.9919 0.9907 0.9892 0.9890 0.9890
3998.663549 0.9894 0.9899 0.9908 0.9918
##END=
