##TITLE=CYCLOHEXENE
##JCAMP-DX=4.24
$$ By DXEDIT 1.05 (RS McDonald)
##DATA TYPE=INFRARED SPECTRUM
##CLASS=COBLENTZ II
##ORIGIN=BECKMAN INSTRUMENTS, KENNETH STINE
##OWNER=COBLENTZ SOC.
Collection (C) 2018 copyright by the U.S. Secretary of Commerce
on behalf of the United States of America. All rights reserved.
##DATE=1969/05/12
##NAMES=1-cyclohexene
##CAS REGISTRY NO=110-83-8
##MOLFORM=C6 H10
##SOURCE REFERENCE=COBLENTZ NO. 06023
##$NIST SOURCE=COBLENTZ
##$NIST IMAGE=cob6023
##SPECTROMETER/DATA SYSTEM=BECKMAN IR-12 (GRATING)
##INSTRUMENT PARAMETERS=FILTERS AT 303, 473, 790, 1036, 1880, 2930 CM^-^1. GRATING CHANGE: 300.5, 650.0, 2000.4 CM^-^1
##STATE=LIQUID (NEAT)
##PATH LENGTH=CAPILLARY FOR 4000-400, AND 0.01 CM (CsBr CELL) FOR 420-240
$$ SEE SPECTRUM NO 6995 FOR "GAS" SPECTRUM
##SAMPLING PROCEDURE=TRANSMISSION
$$ SPECTRAL FEATURE AT 403 CM^-^1 IS AN ARTIFACT CAUSED BY A CHANGE IN RECORDING PARAMETER
##RESOLUTION=2
##DATA PROCESSING=DIGITIZED BY COBLENTZ SOCIETY (BATCH I) FROM HARD COPY
##XUNITS=1/CM
##YUNITS=TRANSMITTANCE
##XLABEL=Wavenumbers (cm-1)
##YLABEL=Transmittance
##XFACTOR=1
##YFACTOR=1
##DELTAX=1
##FIRSTX=4000
##LASTX=241
##FIRSTY=0.8734
##MAXX=4000
##MINX=241
##MAXY=0.9466
##MINY=0.0257
##NPOINTS=3760
##XYDATA=(X++(Y..Y))
4000.000000 0.8734 0.8734 0.8734 0.8734 0.8735
3995.000000 0.8735 0.8735 0.8735 0.8736 0.8736
3990.000000 0.8736 0.8736 0.8737 0.8737 0.8738
3985.000000 0.8738 0.8738 0.8737 0.8736 0.8735
3980.000000 0.8734 0.8732 0.8731 0.8728 0.8728
3975.000000 0.8727 0.8725 0.8724 0.8723 0.8721
3970.000000 0.8720 0.8718 0.8718 0.8716 0.8715
3965.000000 0.8713 0.8712 0.8710 0.8709 0.8708
3960.000000 0.8707 0.8706 0.8706 0.8706 0.8706
3955.000000 0.8705 0.8705 0.8705 0.8705 0.8704
3950.000000 0.8704 0.8704 0.8704 0.8704 0.8704
3945.000000 0.8703 0.8703 0.8703 0.8703 0.8705
3940.000000 0.8707 0.8709 0.8711 0.8713 0.8715
3935.000000 0.8717 0.8720 0.8721 0.8724 0.8725
3930.000000 0.8728 0.8732 0.8737 0.8742 0.8747
3925.000000 0.8751 0.8756 0.8760 0.8765 0.8770
3920.000000 0.8775 0.8778 0.8784 0.8788 0.8793
3915.000000 0.8797 0.8802 0.8806 0.8810 0.8814
3910.000000 0.8818 0.8821 0.8825 0.8830 0.8834
3905.000000 0.8837 0.8841 0.8843 0.8845 0.8847
3900.000000 0.8849 0.8851 0.8853 0.8855 0.8857
3895.000000 0.8859 0.8862 0.8862 0.8863 0.8863
3890.000000 0.8863 0.8863 0.8863 0.8863 0.8863
3885.000000 0.8863 0.8863 0.8863 0.8863 0.8862
3880.000000 0.8862 0.8862 0.8862 0.8862 0.8862
3875.000000 0.8862 0.8863 0.8863 0.8863 0.8863
3870.000000 0.8864 0.8864 0.8864 0.8864 0.8865
3865.000000 0.8865 0.8865 0.8865 0.8866 0.8866
3860.000000 0.8866 0.8866 0.8867 0.8867 0.8867
3855.000000 0.8867 0.8868 0.8868 0.8868 0.8868
3850.000000 0.8868 0.8868 0.8868 0.8868 0.8870
3845.000000 0.8870 0.8870 0.8870 0.8871 0.8871
3840.000000 0.8871 0.8871 0.8871 0.8871 0.8871
3835.000000 0.8871 0.8871 0.8871 0.8873 0.8873
3830.000000 0.8873 0.8873 0.8874 0.8874 0.8874
3825.000000 0.8874 0.8875 0.8875 0.8875 0.8875
3820.000000 0.8875 0.8875 0.8875 0.8875 0.8875
3815.000000 0.8874 0.8874 0.8873 0.8873 0.8871
3810.000000 0.8871 0.8871 0.8871 0.8870 0.8870
3805.000000 0.8868 0.8868 0.8868 0.8868 0.8867
3800.000000 0.8867 0.8866 0.8866 0.8865 0.8865
3795.000000 0.8864 0.8864 0.8863 0.8863 0.8862
3790.000000 0.8862 0.8861 0.8861 0.8860 0.8860
3785.000000 0.8859 0.8859 0.8858 0.8858 0.8858
3780.000000 0.8858 0.8857 0.8857 0.8856 0.8856
3775.000000 0.8856 0.8856 0.8855 0.8855 0.8854
3770.000000 0.8854 0.8854 0.8854 0.8853 0.8853
3765.000000 0.8852 0.8852 0.8852 0.8852 0.8851
3760.000000 0.8851 0.8850 0.8850 0.8850 0.8850
3755.000000 0.8849 0.8849 0.8848 0.8848 0.8848
3750.000000 0.8848 0.8847 0.8847 0.8847 0.8847
3745.000000 0.8846 0.8846 0.8846 0.8846 0.8846
3740.000000 0.8846 0.8846 0.8846 0.8846 0.8846
3735.000000 0.8846 0.8846 0.8846 0.8846 0.8845
3730.000000 0.8845 0.8845 0.8845 0.8845 0.8845
3725.000000 0.8845 0.8845 0.8845 0.8845 0.8845
3720.000000 0.8845 0.8845 0.8845 0.8845 0.8845
3715.000000 0.8845 0.8846 0.8846 0.8847 0.8847
3710.000000 0.8847 0.8847 0.8848 0.8848 0.8848
3705.000000 0.8848 0.8849 0.8849 0.8849 0.8849
3700.000000 0.8850 0.8850 0.8850 0.8850 0.8851
3695.000000 0.8851 0.8851 0.8851 0.8852 0.8853
3690.000000 0.8854 0.8855 0.8856 0.8856 0.8857
3685.000000 0.8858 0.8859 0.8860 0.8861 0.8861
3680.000000 0.8862 0.8864 0.8866 0.8868 0.8870
3675.000000 0.8871 0.8874 0.8875 0.8878 0.8880
3670.000000 0.8882 0.8884 0.8886 0.8887 0.8889
3665.000000 0.8891 0.8893 0.8895 0.8897 0.8898
3660.000000 0.8900 0.8900 0.8901 0.8901 0.8901
3655.000000 0.8901 0.8902 0.8902 0.8902 0.8902
3650.000000 0.8903 0.8903 0.8903 0.8903 0.8904
3645.000000 0.8904 0.8904 0.8904 0.8904 0.8903
3640.000000 0.8902 0.8901 0.8900 0.8899 0.8898
3635.000000 0.8897 0.8897 0.8896 0.8895 0.8894
3630.000000 0.8893 0.8892 0.8891 0.8890 0.8890
3625.000000 0.8889 0.8888 0.8887 0.8887 0.8886
3620.000000 0.8886 0.8885 0.8884 0.8883 0.8883
3615.000000 0.8882 0.8882 0.8881 0.8881 0.8880
3610.000000 0.8880 0.8878 0.8878 0.8878 0.8877
3605.000000 0.8875 0.8875 0.8875 0.8875 0.8874
3600.000000 0.8873 0.8871 0.8871 0.8868 0.8868
3595.000000 0.8867 0.8866 0.8865 0.8864 0.8862
3590.000000 0.8861 0.8860 0.8859 0.8857 0.8856
3585.000000 0.8855 0.8854 0.8852 0.8851 0.8849
3580.000000 0.8848 0.8847 0.8846 0.8844 0.8844
3575.000000 0.8844 0.8845 0.8846 0.8847 0.8848
3570.000000 0.8849 0.8850 0.8851 0.8852 0.8853
3565.000000 0.8855 0.8857 0.8861 0.8866 0.8870
3560.000000 0.8874 0.8878 0.8882 0.8886 0.8890
3555.000000 0.8891 0.8892 0.8892 0.8893 0.8894
3550.000000 0.8895 0.8896 0.8897 0.8898 0.8899
3545.000000 0.8899 0.8899 0.8898 0.8897 0.8895
3540.000000 0.8894 0.8893 0.8892 0.8890 0.8889
3535.000000 0.8887 0.8886 0.8885 0.8884 0.8882
3530.000000 0.8881 0.8878 0.8878 0.8877 0.8875
3525.000000 0.8875 0.8874 0.8873 0.8871 0.8870
3520.000000 0.8868 0.8868 0.8867 0.8866 0.8865
3515.000000 0.8864 0.8863 0.8862 0.8861 0.8860
3510.000000 0.8859 0.8859 0.8859 0.8858 0.8858
3505.000000 0.8857 0.8857 0.8857 0.8857 0.8856
3500.000000 0.8856 0.8856 0.8856 0.8855 0.8855
3495.000000 0.8855 0.8855 0.8855 0.8856 0.8856
3490.000000 0.8856 0.8856 0.8857 0.8857 0.8857
3485.000000 0.8858 0.8859 0.8860 0.8862 0.8863
3480.000000 0.8865 0.8866 0.8868 0.8868 0.8871
3475.000000 0.8873 0.8875 0.8875 0.8878 0.8878
3470.000000 0.8880 0.8881 0.8883 0.8884 0.8886
3465.000000 0.8887 0.8889 0.8889 0.8889 0.8888
3460.000000 0.8886 0.8883 0.8880 0.8877 0.8875
3455.000000 0.8871 0.8868 0.8867 0.8865 0.8864
3450.000000 0.8863 0.8861 0.8860 0.8859 0.8858
3445.000000 0.8856 0.8855 0.8854 0.8853 0.8851
3440.000000 0.8850 0.8849 0.8848 0.8847 0.8847
3435.000000 0.8846 0.8846 0.8845 0.8844 0.8843
3430.000000 0.8843 0.8842 0.8842 0.8841 0.8841
3425.000000 0.8840 0.8839 0.8837 0.8836 0.8834
3420.000000 0.8833 0.8831 0.8830 0.8828 0.8827
3415.000000 0.8825 0.8823 0.8821 0.8820 0.8818
3410.000000 0.8818 0.8816 0.8815 0.8814 0.8813
3405.000000 0.8811 0.8810 0.8808 0.8807 0.8806
3400.000000 0.8805 0.8804 0.8803 0.8802 0.8801
3395.000000 0.8800 0.8799 0.8798 0.8797 0.8796
3390.000000 0.8795 0.8794 0.8793 0.8792 0.8791
3385.000000 0.8790 0.8790 0.8790 0.8790 0.8791
3380.000000 0.8792 0.8802 0.8812 0.8821 0.8830
3375.000000 0.8832 0.8835 0.8838 0.8841 0.8843
3370.000000 0.8846 0.8849 0.8852 0.8853 0.8854
3365.000000 0.8855 0.8856 0.8857 0.8858 0.8859
3360.000000 0.8860 0.8861 0.8862 0.8863 0.8865
3355.000000 0.8866 0.8867 0.8868 0.8870 0.8871
3350.000000 0.8873 0.8874 0.8875 0.8877 0.8878
3345.000000 0.8880 0.8882 0.8883 0.8885 0.8886
3340.000000 0.8888 0.8889 0.8891 0.8891 0.8891
3335.000000 0.8891 0.8891 0.8887 0.8884 0.8881
3330.000000 0.8878 0.8875 0.8873 0.8871 0.8870
3325.000000 0.8868 0.8868 0.8868 0.8868 0.8868
3320.000000 0.8868 0.8867 0.8866 0.8860 0.8854
3315.000000 0.8848 0.8843 0.8839 0.8835 0.8831
3310.000000 0.8827 0.8821 0.8818 0.8812 0.8807
3305.000000 0.8802 0.8797 0.8792 0.8787 0.8781
3300.000000 0.8775 0.8771 0.8768 0.8766 0.8764
3295.000000 0.8763 0.8762 0.8763 0.8765 0.8768
3290.000000 0.8774 0.8778 0.8783 0.8788 0.8793
3285.000000 0.8798 0.8804 0.8810 0.8816 0.8821
3280.000000 0.8827 0.8833 0.8839 0.8843 0.8847
3275.000000 0.8849 0.8852 0.8854 0.8857 0.8859
3270.000000 0.8862 0.8864 0.8867 0.8868 0.8871
3265.000000 0.8874 0.8877 0.8878 0.8882 0.8884
3260.000000 0.8887 0.8888 0.8889 0.8890 0.8891
3255.000000 0.8891 0.8892 0.8892 0.8893 0.8893
3250.000000 0.8894 0.8894 0.8895 0.8895 0.8896
3245.000000 0.8897 0.8898 0.8898 0.8899 0.8899
3240.000000 0.8900 0.8900 0.8901 0.8901 0.8902
3235.000000 0.8902 0.8903 0.8903 0.8902 0.8902
3230.000000 0.8900 0.8898 0.8896 0.8894 0.8892
3225.000000 0.8890 0.8888 0.8886 0.8884 0.8882
3220.000000 0.8880 0.8878 0.8875 0.8874 0.8871
3215.000000 0.8870 0.8868 0.8866 0.8865 0.8865
3210.000000 0.8867 0.8868 0.8871 0.8871 0.8874
3205.000000 0.8875 0.8878 0.8878 0.8881 0.8883
3200.000000 0.8885 0.8886 0.8888 0.8890 0.8892
3195.000000 0.8893 0.8895 0.8897 0.8899 0.8902
3190.000000 0.8905 0.8908 0.8911 0.8914 0.8917
3185.000000 0.8920 0.8923 0.8925 0.8928 0.8932
3180.000000 0.8936 0.8939 0.8942 0.8945 0.8948
3175.000000 0.8949 0.8950 0.8950 0.8951 0.8952
3170.000000 0.8953 0.8954 0.8955 0.8955 0.8956
3165.000000 0.8957 0.8958 0.8958 0.8959 0.8960
3160.000000 0.8961 0.8962 0.8963 0.8963 0.8964
3155.000000 0.8964 0.8964 0.8963 0.8963 0.8962
3150.000000 0.8962 0.8962 0.8962 0.8961 0.8961
3145.000000 0.8960 0.8960 0.8959 0.8959 0.8959
3140.000000 0.8959 0.8958 0.8958 0.8957 0.8956
3135.000000 0.8953 0.8950 0.8946 0.8943 0.8940
3130.000000 0.8937 0.8934 0.8931 0.8928 0.8925
3125.000000 0.8921 0.8917 0.8912 0.8907 0.8902
3120.000000 0.8898 0.8893 0.8888 0.8883 0.8878
3115.000000 0.8873 0.8868 0.8862 0.8857 0.8848
3110.000000 0.8839 0.8830 0.8821 0.8813 0.8804
3105.000000 0.8795 0.8786 0.8775 0.8767 0.8754
3100.000000 0.8742 0.8728 0.8717 0.8704 0.8691
3095.000000 0.8678 0.8667 0.8655 0.8644 0.8632
3090.000000 0.8620 0.8608 0.8596 0.8584 0.8573
3085.000000 0.8561 0.8549 0.8534 0.8520 0.8505
3080.000000 0.8491 0.8474 0.8457 0.8437 0.8417
3075.000000 0.8392 0.8368 0.8289 0.8210 0.8093
3070.000000 0.7975 0.7858 0.7742 0.7634 0.7525
3065.000000 0.7534 0.7519 0.7578 0.7617 0.7654
3060.000000 0.7692 0.7728 0.7767 0.7804 0.7953
3055.000000 0.7878 0.7917 0.7934 0.7951 0.7947
3050.000000 0.7943 0.7894 0.7846 0.7783 0.7721
3045.000000 0.7658 0.7596 0.7533 0.7471 0.7408
3040.000000 0.7346 0.7283 0.7221 0.7162 0.7105
3035.000000 0.6724 0.6343 0.5891 0.5439 0.4987
3030.000000 0.4536 0.4084 0.3632 0.3181 0.2729
3025.000000 0.2277 0.1446 0.1634 0.1442 0.1715
3020.000000 0.1987 0.2396 0.2804 0.3212 0.3620
3015.000000 0.4027 0.4435 0.4843 0.5251 0.5659
3010.000000 0.6067 0.6354 0.6642 0.6686 0.6731
3005.000000 0.6785 0.6840 0.6895 0.6950 0.7004
3000.000000 0.7058 0.7075 0.7091 0.7050 0.7008
2995.000000 0.6935 0.6861 0.6789 0.6717 0.6644
2990.000000 0.6571 0.6498 0.6425 0.6383 0.6331
2985.000000 0.6347 0.6354 0.6388 0.6422 0.6458
2980.000000 0.6493 0.6526 0.6562 0.6565 0.6568
2975.000000 0.6480 0.6392 0.6264 0.6136 0.6007
2970.000000 0.5879 0.5751 0.5623 0.5494 0.5366
2965.000000 0.5238 0.5110 0.4981 0.4853 0.4725
2960.000000 0.4597 0.4468 0.4340 0.4212 0.4084
2955.000000 0.3955 0.3827 0.3699 0.3571 0.3362
2950.000000 0.3154 0.2887 0.2620 0.2353 0.2085
2945.000000 0.1819 0.1553 0.1286 0.1019 0.0752
2940.000000 0.0485 0.0398 0.0312 0.0302 0.0293
2935.000000 0.0287 0.0281 0.0277 0.0273 0.0270
2930.000000 0.0259 0.0265 0.0263 0.0260 0.0258
2925.000000 0.0258 0.0257 0.0258 0.0261 0.0302
2920.000000 0.0343 0.0452 0.0562 0.0609 0.0657
2915.000000 0.0690 0.0724 0.0755 0.0786 0.0820
2910.000000 0.0855 0.0915 0.0976 0.1039 0.1102
2905.000000 0.1165 0.1228 0.1291 0.1354 0.1417
2900.000000 0.1480 0.1542 0.1604 0.1668 0.1731
2895.000000 0.1794 0.1857 0.1872 0.1887 0.1891
2890.000000 0.1894 0.1898 0.1901 0.1886 0.1874
2885.000000 0.1851 0.1829 0.1832 0.1835 0.1903
2880.000000 0.1971 0.2072 0.2173 0.2273 0.2374
2875.000000 0.2475 0.2576 0.2635 0.2696 0.2696
2870.000000 0.2697 0.2622 0.2545 0.2420 0.2296
2865.000000 0.2172 0.2048 0.1923 0.1799 0.1733
2860.000000 0.1644 0.1709 0.1751 0.1901 0.2052
2855.000000 0.2202 0.2352 0.2502 0.2653 0.2720
2850.000000 0.2803 0.2771 0.2756 0.2550 0.2344
2845.000000 0.2137 0.1931 0.1725 0.1519 0.1312
2840.000000 0.1106 0.1099 0.1089 0.1242 0.1392
2835.000000 0.1701 0.2010 0.2318 0.2627 0.2935
2830.000000 0.3245 0.3553 0.3862 0.4170 0.4479
2825.000000 0.4788 0.5097 0.5405 0.5714 0.6023
2820.000000 0.6332 0.6762 0.7195 0.7271 0.7349
2815.000000 0.7405 0.7461 0.7524 0.7587 0.7651
2810.000000 0.7715 0.7761 0.7807 0.7834 0.7861
2805.000000 0.7886 0.7911 0.7935 0.7960 0.7980
2800.000000 0.8001 0.8021 0.8043 0.8061 0.8080
2795.000000 0.8098 0.8117 0.8135 0.8153 0.8174
2790.000000 0.8195 0.8215 0.8236 0.8259 0.8283
2785.000000 0.8309 0.8336 0.8365 0.8395 0.8408
2780.000000 0.8421 0.8427 0.8432 0.8423 0.8414
2775.000000 0.8400 0.8387 0.8383 0.8378 0.8385
2770.000000 0.8391 0.8425 0.8461 0.8496 0.8531
2765.000000 0.8557 0.8584 0.8610 0.8637 0.8666
2760.000000 0.8695 0.8724 0.8753 0.8777 0.8801
2755.000000 0.8813 0.8825 0.8837 0.8848 0.8854
2750.000000 0.8860 0.8862 0.8864 0.8866 0.8868
2745.000000 0.8868 0.8871 0.8873 0.8875 0.8877
2740.000000 0.8878 0.8881 0.8884 0.8887 0.8890
2735.000000 0.8893 0.8897 0.8902 0.8908 0.8913
2730.000000 0.8918 0.8923 0.8928 0.8934 0.8939
2725.000000 0.8942 0.8946 0.8949 0.8953 0.8956
2720.000000 0.8950 0.8959 0.8959 0.8951 0.8944
2715.000000 0.8936 0.8928 0.8867 0.8805 0.8802
2710.000000 0.8800 0.8797 0.8795 0.8802 0.8810
2705.000000 0.8828 0.8846 0.8853 0.8860 0.8865
2700.000000 0.8870 0.8868 0.8866 0.8863 0.8861
2695.000000 0.8857 0.8853 0.8847 0.8841 0.8835
2690.000000 0.8830 0.8807 0.8784 0.8749 0.8714
2685.000000 0.8695 0.8675 0.8670 0.8664 0.8664
2680.000000 0.8665 0.8678 0.8692 0.8709 0.8727
2675.000000 0.8731 0.8730 0.8728 0.8723 0.8650
2670.000000 0.8577 0.8504 0.8432 0.8359 0.8286
2665.000000 0.8213 0.8141 0.8068 0.7995 0.7921
2660.000000 0.7801 0.7831 0.7812 0.7858 0.7903
2655.000000 0.7982 0.8061 0.8141 0.8220 0.8299
2650.000000 0.8378 0.8458 0.8537 0.8616 0.8696
2645.000000 0.8720 0.8744 0.8745 0.8747 0.8756
2640.000000 0.8765 0.8789 0.8814 0.8844 0.8875
2635.000000 0.8904 0.8934 0.8954 0.8974 0.8992
2630.000000 0.9011 0.9023 0.9035 0.9047 0.9059
2625.000000 0.9067 0.9075 0.9082 0.9088 0.9091
2620.000000 0.9090 0.9090 0.9086 0.9080 0.9075
2615.000000 0.9068 0.9062 0.9054 0.9053 0.9053
2610.000000 0.9060 0.9066 0.9071 0.9078 0.9084
2605.000000 0.9090 0.9096 0.9098 0.9100 0.9100
2600.000000 0.9100 0.9100 0.9100 0.9100 0.9100
2595.000000 0.9093 0.9087 0.9080 0.9074 0.9067
2590.000000 0.9061 0.9054 0.9048 0.9042 0.9036
2585.000000 0.9028 0.9023 0.9016 0.9010 0.9006
2580.000000 0.9002 0.9000 0.8999 0.8998 0.8997
2575.000000 0.8995 0.8994 0.8992 0.8991 0.8998
2570.000000 0.9006 0.9017 0.9028 0.9040 0.9052
2565.000000 0.9063 0.9075 0.9086 0.9098 0.9109
2560.000000 0.9120 0.9131 0.9142 0.9150 0.9159
2555.000000 0.9163 0.9167 0.9170 0.9174 0.9178
2550.000000 0.9182 0.9185 0.9189 0.9189 0.9190
2545.000000 0.9190 0.9191 0.9191 0.9191 0.9188
2540.000000 0.9186 0.9182 0.9178 0.9175 0.9171
2535.000000 0.9168 0.9165 0.9162 0.9159 0.9155
2530.000000 0.9152 0.9148 0.9147 0.9146 0.9147
2525.000000 0.9150 0.9153 0.9156 0.9159 0.9162
2520.000000 0.9165 0.9168 0.9171 0.9174 0.9178
2515.000000 0.9177 0.9175 0.9175 0.9175 0.9174
2510.000000 0.9173 0.9171 0.9171 0.9170 0.9170
2505.000000 0.9168 0.9168 0.9164 0.9161 0.9156
2500.000000 0.9152 0.9147 0.9142 0.9137 0.9133
2495.000000 0.9128 0.9124 0.9118 0.9114 0.9109
2490.000000 0.9105 0.9100 0.9095 0.9090 0.9086
2485.000000 0.9081 0.9077 0.9073 0.9068 0.9064
2480.000000 0.9060 0.9056 0.9052 0.9047 0.9043
2475.000000 0.9039 0.9035 0.9030 0.9025 0.9033
2470.000000 0.9041 0.9050 0.9059 0.9067 0.9075
2465.000000 0.9081 0.9087 0.9092 0.9098 0.9103
2460.000000 0.9109 0.9114 0.9120 0.9125 0.9130
2455.000000 0.9135 0.9140 0.9141 0.9142 0.9143
2450.000000 0.9144 0.9144 0.9145 0.9146 0.9147
2445.000000 0.9148 0.9149 0.9149 0.9150 0.9151
2440.000000 0.9152 0.9152 0.9153 0.9154 0.9155
2435.000000 0.9156 0.9157 0.9157 0.9158 0.9159
2430.000000 0.9160 0.9160 0.9161 0.9162 0.9163
2425.000000 0.9164 0.9164 0.9164 0.9164 0.9163
2420.000000 0.9163 0.9162 0.9162 0.9161 0.9160
2415.000000 0.9159 0.9159 0.9158 0.9158 0.9157
2410.000000 0.9157 0.9156 0.9156 0.9155 0.9155
2405.000000 0.9154 0.9153 0.9152 0.9152 0.9151
2400.000000 0.9151 0.9150 0.9150 0.9149 0.9149
2395.000000 0.9148 0.9148 0.9148 0.9148 0.9148
2390.000000 0.9148 0.9148 0.9148 0.9148 0.9148
2385.000000 0.9148 0.9148 0.9148 0.9148 0.9148
2380.000000 0.9148 0.9148 0.9148 0.9148 0.9148
2375.000000 0.9148 0.9148 0.9148 0.9148 0.9148
2370.000000 0.9148 0.9148 0.9148 0.9148 0.9148
2365.000000 0.9148 0.9148 0.9148 0.9148 0.9148
2360.000000 0.9148 0.9148 0.9148 0.9148 0.9148
2355.000000 0.9148 0.9148 0.9148 0.9148 0.9148
2350.000000 0.9148 0.9148 0.9148 0.9148 0.9149
2345.000000 0.9149 0.9149 0.9149 0.9150 0.9150
2340.000000 0.9150 0.9150 0.9150 0.9150 0.9151
2335.000000 0.9151 0.9151 0.9151 0.9152 0.9152
2330.000000 0.9152 0.9152 0.9152 0.9152 0.9153
2325.000000 0.9153 0.9153 0.9153 0.9154 0.9154
2320.000000 0.9154 0.9154 0.9154 0.9154 0.9155
2315.000000 0.9155 0.9155 0.9155 0.9156 0.9156
2310.000000 0.9156 0.9156 0.9156 0.9156 0.9157
2305.000000 0.9158 0.9159 0.9159 0.9160 0.9160
2300.000000 0.9161 0.9162 0.9163 0.9163 0.9164
2295.000000 0.9164 0.9165 0.9166 0.9167 0.9167
2290.000000 0.9168 0.9168 0.9168 0.9170 0.9171
2285.000000 0.9171 0.9171 0.9171 0.9173 0.9174
2280.000000 0.9175 0.9175 0.9175 0.9175 0.9177
2275.000000 0.9178 0.9178 0.9178 0.9180 0.9180
2270.000000 0.9181 0.9182 0.9183 0.9183 0.9184
2265.000000 0.9184 0.9185 0.9186 0.9187 0.9187
2260.000000 0.9188 0.9188 0.9189 0.9190 0.9191
2255.000000 0.9191 0.9192 0.9192 0.9193 0.9193
2250.000000 0.9194 0.9194 0.9195 0.9195 0.9196
2245.000000 0.9197 0.9198 0.9198 0.9199 0.9199
2240.000000 0.9200 0.9200 0.9201 0.9201 0.9202
2235.000000 0.9202 0.9203 0.9204 0.9205 0.9205
2230.000000 0.9206 0.9206 0.9207 0.9207 0.9208
2225.000000 0.9208 0.9209 0.9209 0.9210 0.9211
2220.000000 0.9212 0.9212 0.9213 0.9213 0.9214
2215.000000 0.9215 0.9216 0.9216 0.9217 0.9217
2210.000000 0.9218 0.9213 0.9208 0.9203 0.9199
2205.000000 0.9194 0.9189 0.9183 0.9178 0.9171
2200.000000 0.9167 0.9168 0.9171 0.9173 0.9175
2195.000000 0.9177 0.9180 0.9182 0.9184 0.9186
2190.000000 0.9189 0.9191 0.9193 0.9195 0.9198
2185.000000 0.9200 0.9203 0.9205 0.9207 0.9209
2180.000000 0.9211 0.9212 0.9214 0.9216 0.9218
2175.000000 0.9220 0.9221 0.9223 0.9225 0.9225
2170.000000 0.9227 0.9228 0.9228 0.9230 0.9231
2165.000000 0.9232 0.9233 0.9234 0.9235 0.9236
2160.000000 0.9237 0.9237 0.9237 0.9236 0.9235
2155.000000 0.9234 0.9233 0.9232 0.9231 0.9228
2150.000000 0.9225 0.9224 0.9221 0.9218 0.9217
2145.000000 0.9217 0.9217 0.9217 0.9218 0.9218
2140.000000 0.9218 0.9218 0.9218 0.9218 0.9220
2135.000000 0.9220 0.9221 0.9221 0.9221 0.9221
2130.000000 0.9223 0.9224 0.9225 0.9225 0.9225
2125.000000 0.9224 0.9223 0.9220 0.9218 0.9215
2120.000000 0.9213 0.9205 0.9198 0.9189 0.9180
2115.000000 0.9165 0.9151 0.9137 0.9123 0.9117
2110.000000 0.9112 0.9106 0.9100 0.9098 0.9097
2105.000000 0.9096 0.9096 0.9097 0.9101 0.9105
2100.000000 0.9109 0.9121 0.9136 0.9151 0.9167
2095.000000 0.9180 0.9194 0.9207 0.9220 0.9224
2090.000000 0.9228 0.9230 0.9232 0.9233 0.9235
2085.000000 0.9236 0.9238 0.9239 0.9241 0.9242
2080.000000 0.9243 0.9243 0.9244 0.9245 0.9246
2075.000000 0.9247 0.9248 0.9248 0.9249 0.9250
2070.000000 0.9251 0.9251 0.9252 0.9253 0.9254
2065.000000 0.9254 0.9255 0.9256 0.9257 0.9257
2060.000000 0.9258 0.9259 0.9260 0.9260 0.9261
2055.000000 0.9261 0.9262 0.9263 0.9264 0.9264
2050.000000 0.9265 0.9266 0.9267 0.9267 0.9268
2045.000000 0.9268 0.9270 0.9270 0.9271 0.9271
2040.000000 0.9273 0.9273 0.9274 0.9274 0.9275
2035.000000 0.9275 0.9277 0.9277 0.9277 0.9277
2030.000000 0.9278 0.9278 0.9278 0.9278 0.9278
2025.000000 0.9278 0.9278 0.9277 0.9275 0.9270
2020.000000 0.9265 0.9259 0.9254 0.9249 0.9245
2015.000000 0.9242 0.9239 0.9236 0.9234 0.9231
2010.000000 0.9228 0.9225 0.9223 0.9220 0.9218
2005.000000 0.9217 0.9217 0.9217 0.9217 0.9216
2000.000000 0.9216 0.9215 0.9215 0.9215 0.9215
1995.000000 0.9217 0.9218 0.9220 0.9221 0.9223
1990.000000 0.9225 0.9225 0.9228 0.9228 0.9228
1985.000000 0.9228 0.9225 0.9233 0.9223 0.9221
1980.000000 0.9218 0.9216 0.9213 0.9210 0.9208
1975.000000 0.9205 0.9202 0.9200 0.9197 0.9195
1970.000000 0.9193 0.9191 0.9189 0.9188 0.9187
1965.000000 0.9188 0.9190 0.9192 0.9193 0.9193
1960.000000 0.9192 0.9184 0.9175 0.9166 0.9157
1955.000000 0.9148 0.9145 0.9144 0.9144 0.9150
1950.000000 0.9157 0.9163 0.9168 0.9175 0.9182
1945.000000 0.9182 0.9182 0.9180 0.9177 0.9175
1940.000000 0.9171 0.9170 0.9168 0.9168 0.9168
1935.000000 0.9168 0.9168 0.9168 0.9168 0.9168
1930.000000 0.9168 0.9168 0.9170 0.9170 0.9170
1925.000000 0.9162 0.9154 0.9147 0.9139 0.9134
1920.000000 0.9133 0.9133 0.9132 0.9131 0.9131
1915.000000 0.9136 0.9143 0.9151 0.9158 0.9166
1910.000000 0.9174 0.9180 0.9182 0.9184 0.9186
1905.000000 0.9188 0.9188 0.9188 0.9188 0.9188
1900.000000 0.9188 0.9188 0.9182 0.9174 0.9165
1895.000000 0.9146 0.9127 0.9105 0.9082 0.9060
1890.000000 0.9035 0.9003 0.8971 0.8942 0.8925
1885.000000 0.8896 0.8920 0.8921 0.8921 0.8932
1880.000000 0.8970 0.8992 0.9015 0.9037 0.9057
1875.000000 0.9075 0.9094 0.9113 0.9123 0.9132
1870.000000 0.9142 0.9151 0.9160 0.9168 0.9174
1865.000000 0.9177 0.9181 0.9185 0.9188 0.9192
1860.000000 0.9195 0.9199 0.9202 0.9204 0.9207
1855.000000 0.9210 0.9213 0.9216 0.9218 0.9218
1850.000000 0.9218 0.9217 0.9217 0.9216 0.9215
1845.000000 0.9214 0.9214 0.9213 0.9212 0.9212
1840.000000 0.9212 0.9212 0.9213 0.9213 0.9213
1835.000000 0.9213 0.9213 0.9213 0.9213 0.9214
1830.000000 0.9214 0.9215 0.9216 0.9217 0.9218
1825.000000 0.9218 0.9218 0.9220 0.9221 0.9221
1820.000000 0.9220 0.9218 0.9218 0.9218 0.9217
1815.000000 0.9216 0.9216 0.9215 0.9214 0.9214
1810.000000 0.9214 0.9215 0.9215 0.9215 0.9215
1805.000000 0.9214 0.9212 0.9209 0.9208 0.9207
1800.000000 0.9206 0.9205 0.9204 0.9202 0.9197
1795.000000 0.9191 0.9185 0.9180 0.9180 0.9180
1790.000000 0.9185 0.9191 0.9197 0.9204 0.9211
1785.000000 0.9217 0.9221 0.9225 0.9228 0.9232
1780.000000 0.9235 0.9263 0.9242 0.9245 0.9245
1775.000000 0.9245 0.9243 0.9241 0.9239 0.9238
1770.000000 0.9236 0.9234 0.9232 0.9230 0.9228
1765.000000 0.9227 0.9225 0.9224 0.9221 0.9221
1760.000000 0.9218 0.9217 0.9216 0.9214 0.9213
1755.000000 0.9211 0.9210 0.9208 0.9208 0.9208
1750.000000 0.9208 0.9207 0.9207 0.9207 0.9207
1745.000000 0.9207 0.9207 0.9207 0.9206 0.9205
1740.000000 0.9205 0.9204 0.9203 0.9203 0.9200
1735.000000 0.9197 0.9193 0.9190 0.9187 0.9183
1730.000000 0.9180 0.9177 0.9174 0.9168 0.9160
1725.000000 0.9151 0.9142 0.9136 0.9131 0.9125
1720.000000 0.9121 0.9116 0.9114 0.9113 0.9112
1715.000000 0.9111 0.9111 0.9112 0.9112 0.9113
1710.000000 0.9114 0.9114 0.9115 0.9116 0.9116
1705.000000 0.9117 0.9118 0.9118 0.9118 0.9118
1700.000000 0.9118 0.9118 0.9116 0.9107 0.9097
1695.000000 0.9081 0.9061 0.9041 0.9005 0.8968
1690.000000 0.8870 0.8797 0.8751 0.8712 0.8686
1685.000000 0.8636 0.8657 0.8662 0.8718 0.8768
1680.000000 0.8815 0.8851 0.8887 0.8923 0.8960
1675.000000 0.8997 0.9020 0.9040 0.9071 0.9049
1670.000000 0.9046 0.9041 0.9015 0.8990 0.8963
1665.000000 0.8928 0.8895 0.8861 0.8811 0.8728
1660.000000 0.8477 0.7883 0.7289 0.6994 0.6997
1655.000000 0.7156 0.7375 0.7594 0.7812 0.8032
1650.000000 0.8251 0.8470 0.8654 0.8725 0.8782
1645.000000 0.8828 0.8859 0.8878 0.8899 0.8911
1640.000000 0.8917 0.8923 0.8928 0.8934 0.8940
1635.000000 0.8946 0.8951 0.8957 0.8962 0.8968
1630.000000 0.8974 0.8978 0.8983 0.8988 0.8992
1625.000000 0.9021 0.9000 0.9000 0.8999 0.8998
1620.000000 0.8997 0.8983 0.8963 0.8943 0.8921
1615.000000 0.8902 0.8878 0.8852 0.8827 0.8803
1610.000000 0.8781 0.8759 0.8748 0.8708 0.8734
1605.000000 0.8734 0.8738 0.8748 0.8757 0.8789
1600.000000 0.8821 0.8863 0.8906 0.8946 0.8968
1595.000000 0.8989 0.9010 0.9032 0.9053 0.9071
1590.000000 0.9087 0.9102 0.9117 0.9131 0.9146
1585.000000 0.9161 0.9168 0.9175 0.9184 0.9191
1580.000000 0.9198 0.9203 0.9207 0.9212 0.9216
1575.000000 0.9221 0.9221 0.9220 0.9217 0.9214
1570.000000 0.9211 0.9208 0.9205 0.9203 0.9202
1565.000000 0.9200 0.9198 0.9197 0.9197 0.9196
1560.000000 0.9198 0.9200 0.9201 0.9203 0.9205
1555.000000 0.9206 0.9208 0.9210 0.9211 0.9211
1550.000000 0.9211 0.9204 0.9197 0.9191 0.9183
1545.000000 0.9173 0.9164 0.9155 0.9145 0.9136
1540.000000 0.9125 0.9120 0.9114 0.9108 0.9108
1535.000000 0.9107 0.9094 0.9097 0.9100 0.9104
1530.000000 0.9108 0.9114 0.9120 0.9125 0.9130
1525.000000 0.9133 0.9136 0.9139 0.9142 0.9146
1520.000000 0.9146 0.9146 0.9145 0.9144 0.9143
1515.000000 0.9140 0.9136 0.9133 0.9128 0.9125
1510.000000 0.9121 0.9118 0.9115 0.9112 0.9108
1505.000000 0.9105 0.9101 0.9098 0.9094 0.9091
1500.000000 0.9088 0.9084 0.9081 0.9077 0.9074
1495.000000 0.9068 0.9064 0.9059 0.9055 0.9050
1490.000000 0.9045 0.9039 0.9025 0.9012 0.8998
1485.000000 0.8984 0.8970 0.8956 0.8941 0.8912
1480.000000 0.8884 0.8856 0.8828 0.8797 0.8765
1475.000000 0.8733 0.8698 0.8641 0.8585 0.8528
1470.000000 0.8475 0.8421 0.8367 0.8268 0.8132
1465.000000 0.7965 0.7828 0.7631 0.7435 0.7239
1460.000000 0.7042 0.6846 0.6650 0.6540 0.6493
1455.000000 0.6398 0.5743 0.5310 0.4866 0.4869
1450.000000 0.4924 0.5030 0.5136 0.5242 0.5279
1445.000000 0.5280 0.4995 0.4668 0.4342 0.4024
1440.000000 0.4024 0.4024 0.4715 0.5095 0.5475
1435.000000 0.5855 0.6235 0.6615 0.6995 0.7375
1430.000000 0.7949 0.8061 0.8122 0.8175 0.8228
1425.000000 0.8278 0.8323 0.8367 0.8412 0.8454
1420.000000 0.8495 0.8535 0.8575 0.8618 0.8664
1415.000000 0.8702 0.8731 0.8759 0.8783 0.8797
1410.000000 0.8807 0.8817 0.8824 0.8821 0.8830
1405.000000 0.8828 0.8825 0.8820 0.8814 0.8800
1400.000000 0.8781 0.8753 0.8717 0.8678 0.8613
1395.000000 0.8568 0.8568 0.8568 0.8586 0.8586
1390.000000 0.8573 0.8421 0.8105 0.7950 0.7980
1385.000000 0.8121 0.8264 0.8405 0.8547 0.8689
1380.000000 0.8821 0.8862 0.8912 0.8941 0.8966
1375.000000 0.8989 0.9005 0.8997 0.8988 0.8978
1370.000000 0.8993 0.8963 0.8962 0.8962 0.8963
1365.000000 0.8963 0.8964 0.8963 0.8961 0.8948
1360.000000 0.8916 0.8875 0.8828 0.8775 0.8737
1355.000000 0.8732 0.8731 0.8730 0.8731 0.8737
1350.000000 0.8744 0.8745 0.8745 0.8702 0.8659
1345.000000 0.8616 0.8571 0.8493 0.8513 0.8511
1340.000000 0.8556 0.8607 0.8658 0.8708 0.8735
1335.000000 0.8768 0.8787 0.8792 0.8792 0.8791
1330.000000 0.8775 0.8641 0.8424 0.8207 0.7989
1325.000000 0.7917 0.7914 0.8047 0.8194 0.8342
1320.000000 0.8489 0.8636 0.8720 0.8752 0.8770
1315.000000 0.8787 0.8801 0.8814 0.8825 0.8837
1310.000000 0.8854 0.8875 0.8923 0.8968 0.9009
1305.000000 0.9043 0.9074 0.9096 0.9115 0.9121
1300.000000 0.9127 0.9132 0.9147 0.9138 0.9138
1295.000000 0.9138 0.9138 0.9137 0.9132 0.9127
1290.000000 0.9121 0.9117 0.9112 0.9104 0.9096
1285.000000 0.9085 0.9073 0.9060 0.9038 0.9013
1280.000000 0.8989 0.8939 0.8890 0.8839 0.8788
1275.000000 0.8738 0.8663 0.8589 0.8496 0.8271
1270.000000 0.7997 0.7792 0.7778 0.7837 0.7975
1265.000000 0.8115 0.8254 0.8394 0.8533 0.8671
1260.000000 0.8743 0.8790 0.8839 0.8886 0.8924
1255.000000 0.8948 0.8963 0.8977 0.8978 0.8982
1250.000000 0.8985 0.8977 0.8968 0.8945 0.8913
1245.000000 0.8883 0.8868 0.8862 0.8883 0.8909
1240.000000 0.8938 0.8967 0.8989 0.9011 0.9032
1235.000000 0.9048 0.9064 0.9080 0.9091 0.9100
1230.000000 0.9108 0.9115 0.9118 0.9121 0.9125
1225.000000 0.9130 0.9134 0.9139 0.9144 0.9149
1220.000000 0.9154 0.9159 0.9164 0.9168 0.9174
1215.000000 0.9178 0.9182 0.9186 0.9191 0.9195
1210.000000 0.9199 0.9203 0.9207 0.9212 0.9216
1205.000000 0.9220 0.9224 0.9225 0.9227 0.9228
1200.000000 0.9230 0.9231 0.9233 0.9234 0.9236
1195.000000 0.9237 0.9239 0.9240 0.9241 0.9241
1190.000000 0.9242 0.9243 0.9244 0.9244 0.9245
1185.000000 0.9245 0.9246 0.9245 0.9239 0.9233
1180.000000 0.9228 0.9221 0.9216 0.9207 0.9198
1175.000000 0.9190 0.9181 0.9171 0.9163 0.9155
1170.000000 0.9146 0.9138 0.9130 0.9121 0.9113
1165.000000 0.9098 0.9081 0.9064 0.9043 0.9018
1160.000000 0.8992 0.8967 0.8941 0.8912 0.8882
1155.000000 0.8853 0.8823 0.8792 0.8756 0.8720
1150.000000 0.8685 0.8628 0.8560 0.8421 0.8160
1145.000000 0.7876 0.7318 0.6761 0.6203 0.5645
1140.000000 0.4778 0.4800 0.4949 0.5479 0.6008
1135.000000 0.6537 0.7067 0.7596 0.8125 0.8396
1130.000000 0.8497 0.8573 0.8634 0.8680 0.8715
1125.000000 0.8749 0.8767 0.8785 0.8802 0.8815
1120.000000 0.8828 0.8837 0.8842 0.8847 0.8852
1115.000000 0.8856 0.8861 0.8865 0.8870 0.8874
1110.000000 0.8905 0.8935 0.8954 0.8971 0.8980
1105.000000 0.8988 0.8991 0.8991 0.8991 0.8992
1100.000000 0.8992 0.8992 0.8993 0.8994 0.8995
1095.000000 0.8996 0.8997 0.8998 0.8999 0.9000
1090.000000 0.9002 0.9005 0.9007 0.9009 0.9011
1085.000000 0.9011 0.9010 0.9008 0.9007 0.9006
1080.000000 0.9005 0.8998 0.8991 0.8983 0.8975
1075.000000 0.8968 0.8962 0.8953 0.8940 0.8928
1070.000000 0.8915 0.8903 0.8889 0.8875 0.8861
1065.000000 0.8847 0.8832 0.8823 0.8818 0.8814
1060.000000 0.8824 0.8837 0.8843 0.8847 0.8846
1055.000000 0.8838 0.8830 0.8811 0.8792 0.8771
1050.000000 0.8738 0.8705 0.8671 0.8605 0.8528
1045.000000 0.8371 0.8115 0.7834 0.7551 0.7271
1040.000000 0.6989 0.6814 0.6825 0.6961 0.7206
1035.000000 0.7449 0.7693 0.7937 0.8180 0.8424
1030.000000 0.8628 0.8673 0.8717 0.8761 0.8798
1025.000000 0.8812 0.8825 0.8835 0.8877 0.8846
1020.000000 0.8850 0.8851 0.8847 0.8842 0.8820
1015.000000 0.8798 0.8773 0.8747 0.8725 0.8704
1010.000000 0.8660 0.8668 0.8667 0.8689 0.8714
1005.000000 0.8740 0.8766 0.8792 0.8818 0.8847
1000.000000 0.8875 0.8903 0.8918 0.8930 0.8942
995.000000 0.8954 0.8966 0.8977 0.8989 0.9001
990.000000 0.9013 0.9025 0.9035 0.9045 0.9054
985.000000 0.9064 0.9074 0.9083 0.9093 0.9103
980.000000 0.9113 0.9121 0.9128 0.9136 0.9143
975.000000 0.9150 0.9157 0.9165 0.9171 0.9178
970.000000 0.9186 0.9189 0.9192 0.9196 0.9199
965.000000 0.9202 0.9203 0.9204 0.9205 0.9205
960.000000 0.9206 0.9207 0.9207 0.9207 0.9207
955.000000 0.9206 0.9205 0.9204 0.9203 0.9202
950.000000 0.9201 0.9199 0.9196 0.9194 0.9191
945.000000 0.9189 0.9186 0.9184 0.9181 0.9178
940.000000 0.9175 0.9173 0.9168 0.9161 0.9154
935.000000 0.9146 0.9133 0.9109 0.9086 0.9062
930.000000 0.9018 0.8974 0.8925 0.8850 0.8775
925.000000 0.8678 0.8554 0.8014 0.7207 0.6399
920.000000 0.5592 0.5107 0.5107 0.5465 0.5855
915.000000 0.6245 0.6635 0.7025 0.7415 0.7805
910.000000 0.8094 0.8081 0.8001 0.7921 0.7915
905.000000 0.7911 0.8047 0.8200 0.8353 0.8506
900.000000 0.8659 0.8812 0.8965 0.8999 0.9016
895.000000 0.9030 0.9043 0.9040 0.9037 0.9024
890.000000 0.9011 0.8997 0.8944 0.8880 0.8687
885.000000 0.8273 0.7858 0.7445 0.7031 0.6617
880.000000 0.6204 0.5574 0.5579 0.5578 0.5631
875.000000 0.6199 0.6767 0.7335 0.7903 0.8471
870.000000 0.8557 0.8641 0.8756 0.8849 0.8918
865.000000 0.8989 0.9034 0.9075 0.9115 0.9148
860.000000 0.9180 0.9212 0.9235 0.9256 0.9268
855.000000 0.9277 0.9286 0.9292 0.9298 0.9304
850.000000 0.9310 0.9313 0.9315 0.9317 0.9318
845.000000 0.9320 0.9356 0.9324 0.9325 0.9325
840.000000 0.9325 0.9325 0.9325 0.9325 0.9324
835.000000 0.9324 0.9323 0.9321 0.9321 0.9321
830.000000 0.9316 0.9312 0.9308 0.9303 0.9299
825.000000 0.9292 0.9283 0.9274 0.9264 0.9249
820.000000 0.9234 0.9218 0.9199 0.9168 0.9116
815.000000 0.9035 0.8953 0.8871 0.8818 0.8798
810.000000 0.8852 0.8920 0.8988 0.9055 0.9116
805.000000 0.9159 0.9194 0.9224 0.9254 0.9278
800.000000 0.9302 0.9325 0.9345 0.9361 0.9378
795.000000 0.9394 0.9410 0.9418 0.9428 0.9438
790.000000 0.9447 0.9453 0.9456 0.9458 0.9461
785.000000 0.9464 0.9466 0.9460 0.9460 0.9456
780.000000 0.9453 0.9450 0.9446 0.9443 0.9441
775.000000 0.9438 0.9435 0.9433 0.9430 0.9427
770.000000 0.9425 0.9421 0.9418 0.9413 0.9408
765.000000 0.9402 0.9396 0.9390 0.9384 0.9378
760.000000 0.9371 0.9367 0.9361 0.9355 0.9347
755.000000 0.9338 0.9328 0.9318 0.9308 0.9299
750.000000 0.9289 0.9278 0.9270 0.9260 0.9248
745.000000 0.9235 0.9221 0.9209 0.9196 0.9175
740.000000 0.9157 0.9137 0.9117 0.9098 0.9065
735.000000 0.9014 0.8936 0.8851 0.8765 0.8707
730.000000 0.8651 0.8586 0.8514 0.8415 0.8117
725.000000 0.7054 0.6064 0.5074 0.4084 0.3284
720.000000 0.3303 0.4059 0.4648 0.5236 0.5824
715.000000 0.6411 0.7000 0.7587 0.8175 0.8325
710.000000 0.8421 0.8542 0.8825 0.8910 0.8978
705.000000 0.9021 0.9063 0.9097 0.9110 0.9114
700.000000 0.9118 0.9121 0.9121 0.9104 0.9124
695.000000 0.9121 0.9118 0.9116 0.9113 0.9105
690.000000 0.9091 0.9075 0.9056 0.9020 0.8985
685.000000 0.8950 0.8868 0.8784 0.8696 0.8597
680.000000 0.8503 0.8417 0.8327 0.8186 0.8054
675.000000 0.7938 0.7843 0.7804 0.7794 0.7787
670.000000 0.7781 0.7775 0.7762 0.7750 0.7737
665.000000 0.7715 0.7693 0.7671 0.7624 0.7575
660.000000 0.7471 0.7318 0.7154 0.7006 0.6726
655.000000 0.6331 0.5936 0.5541 0.5145 0.4750
650.000000 0.4355 0.3959 0.3564 0.3169 0.2774
645.000000 0.2378 0.1983 0.1842 0.1863 0.2263
640.000000 0.2696 0.3129 0.3560 0.3994 0.4427
635.000000 0.4859 0.5292 0.5725 0.6157 0.6493
630.000000 0.6769 0.7231 0.7558 0.7717 0.7795
625.000000 0.7872 0.7951 0.8041 0.8133 0.8225
620.000000 0.8306 0.8381 0.8456 0.8513 0.8560
615.000000 0.8608 0.8655 0.8707 0.8774 0.8842
610.000000 0.8882 0.8918 0.8950 0.8975 0.9000
605.000000 0.9025 0.9050 0.9068 0.9086 0.9102
600.000000 0.9118 0.9135 0.9149 0.9161 0.9173
595.000000 0.9185 0.9197 0.9208 0.9215 0.9221
590.000000 0.9228 0.9235 0.9241 0.9248 0.9255
585.000000 0.9259 0.9262 0.9264 0.9267 0.9270
580.000000 0.9271 0.9275 0.9275 0.9275 0.9274
575.000000 0.9274 0.9274 0.9274 0.9275 0.9278
570.000000 0.9280 0.9282 0.9284 0.9286 0.9288
565.000000 0.9290 0.9292 0.9294 0.9295 0.9298
560.000000 0.9300 0.9302 0.9304 0.9306 0.9309
555.000000 0.9311 0.9313 0.9315 0.9317 0.9320
550.000000 0.9324 0.9324 0.9325 0.9328 0.9330
545.000000 0.9331 0.9332 0.9332 0.9333 0.9334
540.000000 0.9335 0.9335 0.9336 0.9337 0.9338
535.000000 0.9338 0.9339 0.9340 0.9340 0.9340
530.000000 0.9339 0.9339 0.9339 0.9327 0.9313
525.000000 0.9298 0.9283 0.9268 0.9263 0.9263
520.000000 0.9263 0.9261 0.9258 0.9255 0.9252
515.000000 0.9249 0.9246 0.9242 0.9236 0.9231
510.000000 0.9225 0.9218 0.9214 0.9208 0.9202
505.000000 0.9197 0.9191 0.9185 0.9177 0.9168
500.000000 0.9159 0.9150 0.9141 0.9133 0.9124
495.000000 0.9115 0.9106 0.9097 0.9087 0.9077
490.000000 0.9067 0.9057 0.9047 0.9037 0.9027
485.000000 0.9017 0.9006 0.8994 0.8981 0.8968
480.000000 0.8955 0.8942 0.8930 0.8917 0.8904
475.000000 0.8889 0.8873 0.8857 0.8841 0.8825
470.000000 0.8808 0.8792 0.8775 0.8760 0.8738
465.000000 0.8714 0.8689 0.8665 0.8630 0.8580
460.000000 0.8453 0.8310 0.8167 0.8025 0.7882
455.000000 0.7828 0.7855 0.7889 0.7957 0.8024
450.000000 0.8091 0.8158 0.8225 0.8268 0.8282
445.000000 0.8287 0.8289 0.8282 0.8273 0.8264
440.000000 0.8254 0.8228 0.8205 0.8180 0.8132
435.000000 0.8083 0.8033 0.7990 0.7947 0.7905
430.000000 0.7862 0.7819 0.7778 0.7740 0.7700
425.000000 0.7660 0.7621 0.7578 0.7526 0.7475
420.000000 0.7424 0.7371 0.7315 0.7258 0.7201
415.000000 0.7144 0.7075 0.7007 0.6939 0.6871
410.000000 0.6811 0.6749 0.6701 0.6657 0.6617
405.000000 0.6587 0.6561 0.6545 0.6550 0.7257
400.000000 0.7628 0.7998 0.8368 0.8738 0.9108
395.000000 0.9178 0.9182 0.9192 0.9206 0.9225
390.000000 0.9245 0.9265 0.9285 0.9306 0.9316
385.000000 0.9325 0.9335 0.9345 0.9353 0.9362
380.000000 0.9370 0.9378 0.9385 0.9389 0.9393
375.000000 0.9397 0.9398 0.9399 0.9389 0.9380
370.000000 0.9370 0.9364 0.9360 0.9355 0.9351
365.000000 0.9346 0.9342 0.9340 0.9337 0.9335
360.000000 0.9332 0.9330 0.9327 0.9327 0.9327
355.000000 0.9327 0.9328 0.9328 0.9332 0.9340
350.000000 0.9349 0.9359 0.9370 0.9382 0.9393
345.000000 0.9399 0.9398 0.9397 0.9389 0.9382
340.000000 0.9371 0.9347 0.9321 0.9297 0.9267
335.000000 0.9230 0.9192 0.9157 0.9131 0.9105
330.000000 0.9085 0.9075 0.9067 0.9060 0.9056
325.000000 0.9057 0.9058 0.9067 0.9075 0.9077
320.000000 0.9077 0.9077 0.9061 0.9045 0.9028
315.000000 0.9013 0.8994 0.8973 0.8953 0.8932
310.000000 0.8912 0.8891 0.8871 0.8851 0.8831
305.000000 0.8803 0.8730 0.8657 0.8609 0.8561
300.000000 0.8513 0.8474 0.8439 0.8404 0.8370
295.000000 0.8335 0.8301 0.8249 0.8197 0.8145
290.000000 0.8093 0.8024 0.7905 0.7786 0.7707
285.000000 0.7628 0.7558 0.7501 0.7446 0.7390
280.000000 0.7334 0.7278 0.7218 0.7158 0.7099
275.000000 0.7039 0.6915 0.6788 0.6675 0.6561
270.000000 0.6448 0.6335 0.6222 0.6108 0.5995
265.000000 0.5882 0.5768 0.5655 0.5542 0.5428
260.000000 0.5315 0.5202 0.5088 0.4975 0.4862
255.000000 0.4749 0.4635 0.4522 0.4409 0.4295
250.000000 0.4182 0.4068 0.3955 0.3882 0.3830
245.000000 0.3779 0.3728 0.3666 0.3607 0.3549
##END=
