##TITLE=Cyclohexane
##JCAMP-DX=4.24
$$ By DXEDIT 1.05 (RS McDonald)
##DATA TYPE=INFRARED SPECTRUM
##CLASS=COBLENTZ II
##ORIGIN=DOW CHEMICAL COMPANY
##OWNER=COPYRIGHT (C) 1988 by COBLENTZ SOCIETY INC.
Collection (C) 2018 copyright by the U.S. Secretary of Commerce
on behalf of the United States of America. All rights reserved.
##DATE=1969/05/08
##CAS REGISTRY NO=110-82-7
##MOLFORM=C6 H12
##SOURCE REFERENCE=COBLENTZ NO. 06045
##$NIST SOURCE=COBLENTZ
##$NIST IMAGE=cob6045
##SPECTROMETER/DATA SYSTEM=DOW KBr FOREPRISM-GRATING
##INSTRUMENT PARAMETERS=BLAZED AT 3.5, 12.0, 20.0 MICRON AND CHANGED AT 5.0, 7.5, 14.9 MICRON
##STATE=LIQUID (NEAT)
##PATH LENGTH=CAPILLARY
##SAMPLING PROCEDURE=TRANSMISSION
##RESOLUTION=2
##DATA PROCESSING=DIGITIZED BY COBLENTZ SOCIETY (BATCH I) FROM HARD COPY
##XUNITS=1/CM
##YUNITS=TRANSMITTANCE
##XFACTOR=1
##YFACTOR=1
##DELTAX=1
##FIRSTX=3800
##LASTX=387
##FIRSTY=0.8533
##MAXX=3800
##MINX=387
##MAXY=0.9123
##MINY=0.0407
##NPOINTS=3414
##XYDATA=(X++(Y..Y))
3800.000000 0.8533 0.8533 0.8533 0.8532 0.8532
3795.000000 0.8532 0.8532 0.8532 0.8532 0.8532
3790.000000 0.8532 0.8532 0.8532 0.8532 0.8532
3785.000000 0.8532 0.8532 0.8532 0.8532 0.8532
3780.000000 0.8532 0.8532 0.8532 0.8532 0.8532
3775.000000 0.8532 0.8532 0.8531 0.8531 0.8531
3770.000000 0.8531 0.8531 0.8531 0.8531 0.8531
3765.000000 0.8531 0.8531 0.8531 0.8531 0.8531
3760.000000 0.8531 0.8531 0.8531 0.8531 0.8531
3755.000000 0.8532 0.8533 0.8534 0.8536 0.8538
3750.000000 0.8540 0.8542 0.8544 0.8545 0.8547
3745.000000 0.8549 0.8551 0.8553 0.8555 0.8556
3740.000000 0.8558 0.8559 0.8560 0.8560 0.8561
3735.000000 0.8562 0.8563 0.8563 0.8564 0.8564
3730.000000 0.8565 0.8565 0.8566 0.8566 0.8567
3725.000000 0.8567 0.8568 0.8568 0.8568 0.8568
3720.000000 0.8570 0.8570 0.8571 0.8571 0.8571
3715.000000 0.8571 0.8573 0.8574 0.8575 0.8575
3710.000000 0.8575 0.8575 0.8577 0.8578 0.8578
3705.000000 0.8580 0.8581 0.8582 0.8583 0.8584
3700.000000 0.8585 0.8586 0.8587 0.8588 0.8589
3695.000000 0.8590 0.8591 0.8592 0.8594 0.8595
3690.000000 0.8596 0.8597 0.8598 0.8599 0.8600
3685.000000 0.8601 0.8602 0.8603 0.8604 0.8605
3680.000000 0.8606 0.8607 0.8608 0.8609 0.8610
3675.000000 0.8610 0.8611 0.8611 0.8611 0.8611
3670.000000 0.8612 0.8612 0.8613 0.8613 0.8614
3665.000000 0.8614 0.8615 0.8615 0.8616 0.8616
3660.000000 0.8617 0.8617 0.8618 0.8618 0.8618
3655.000000 0.8618 0.8620 0.8620 0.8621 0.8621
3650.000000 0.8621 0.8621 0.8623 0.8623 0.8623
3645.000000 0.8623 0.8624 0.8624 0.8625 0.8625
3640.000000 0.8625 0.8625 0.8625 0.8625 0.8627
3635.000000 0.8627 0.8627 0.8627 0.8628 0.8628
3630.000000 0.8628 0.8628 0.8628 0.8628 0.8628
3625.000000 0.8628 0.8630 0.8630 0.8630 0.8630
3620.000000 0.8630 0.8630 0.8631 0.8631 0.8631
3615.000000 0.8631 0.8631 0.8631 0.8632 0.8632
3610.000000 0.8632 0.8632 0.8633 0.8633 0.8634
3605.000000 0.8634 0.8635 0.8635 0.8636 0.8636
3600.000000 0.8637 0.8637 0.8638 0.8638 0.8639
3595.000000 0.8639 0.8640 0.8640 0.8641 0.8641
3590.000000 0.8642 0.8642 0.8642 0.8641 0.8641
3585.000000 0.8640 0.8640 0.8640 0.8640 0.8639
3580.000000 0.8639 0.8638 0.8638 0.8637 0.8637
3575.000000 0.8637 0.8637 0.8636 0.8636 0.8635
3570.000000 0.8635 0.8634 0.8634 0.8634 0.8634
3565.000000 0.8634 0.8635 0.8635 0.8635 0.8635
3560.000000 0.8636 0.8636 0.8637 0.8637 0.8638
3555.000000 0.8638 0.8639 0.8639 0.8640 0.8640
3550.000000 0.8641 0.8641 0.8641 0.8641 0.8642
3545.000000 0.8642 0.8643 0.8643 0.8644 0.8644
3540.000000 0.8645 0.8645 0.8646 0.8646 0.8647
3535.000000 0.8647 0.8648 0.8649 0.8650 0.8650
3530.000000 0.8651 0.8651 0.8652 0.8652 0.8653
3525.000000 0.8653 0.8654 0.8654 0.8655 0.8655
3520.000000 0.8656 0.8656 0.8657 0.8657 0.8657
3515.000000 0.8657 0.8657 0.8657 0.8657 0.8657
3510.000000 0.8657 0.8657 0.8657 0.8657 0.8657
3505.000000 0.8657 0.8657 0.8657 0.8657 0.8657
3500.000000 0.8657 0.8656 0.8656 0.8656 0.8656
3495.000000 0.8655 0.8655 0.8654 0.8654 0.8653
3490.000000 0.8653 0.8653 0.8653 0.8652 0.8652
3485.000000 0.8651 0.8651 0.8650 0.8650 0.8649
3480.000000 0.8649 0.8649 0.8649 0.8649 0.8649
3475.000000 0.8648 0.8648 0.8648 0.8648 0.8648
3470.000000 0.8648 0.8648 0.8648 0.8647 0.8647
3465.000000 0.8645 0.8644 0.8642 0.8641 0.8639
3460.000000 0.8638 0.8637 0.8636 0.8634 0.8633
3455.000000 0.8631 0.8630 0.8628 0.8628 0.8625
3450.000000 0.8625 0.8625 0.8625 0.8625 0.8627
3445.000000 0.8627 0.8627 0.8627 0.8628 0.8628
3440.000000 0.8628 0.8628 0.8628 0.8628 0.8630
3435.000000 0.8630 0.8631 0.8631 0.8631 0.8631
3430.000000 0.8632 0.8632 0.8633 0.8633 0.8633
3425.000000 0.8633 0.8634 0.8634 0.8635 0.8635
3420.000000 0.8636 0.8636 0.8637 0.8638 0.8639
3415.000000 0.8639 0.8640 0.8641 0.8642 0.8642
3410.000000 0.8643 0.8644 0.8645 0.8646 0.8647
3405.000000 0.8647 0.8648 0.8649 0.8650 0.8650
3400.000000 0.8651 0.8652 0.8653 0.8653 0.8654
3395.000000 0.8655 0.8656 0.8656 0.8657 0.8658
3390.000000 0.8659 0.8659 0.8660 0.8661 0.8662
3385.000000 0.8662 0.8663 0.8664 0.8665 0.8665
3380.000000 0.8666 0.8666 0.8667 0.8668 0.8668
3375.000000 0.8668 0.8670 0.8671 0.8671 0.8671
3370.000000 0.8673 0.8674 0.8675 0.8675 0.8675
3365.000000 0.8675 0.8677 0.8678 0.8678 0.8678
3360.000000 0.8680 0.8681 0.8682 0.8682 0.8683
3355.000000 0.8684 0.8685 0.8685 0.8686 0.8687
3350.000000 0.8688 0.8688 0.8689 0.8689 0.8690
3345.000000 0.8691 0.8692 0.8693 0.8694 0.8695
3340.000000 0.8697 0.8698 0.8699 0.8700 0.8701
3335.000000 0.8702 0.8703 0.8704 0.8706 0.8707
3330.000000 0.8708 0.8709 0.8710 0.8711 0.8712
3325.000000 0.8713 0.8715 0.8716 0.8717 0.8718
3320.000000 0.8718 0.8720 0.8721 0.8721 0.8724
3315.000000 0.8725 0.8725 0.8727 0.8728 0.8728
3310.000000 0.8730 0.8731 0.8732 0.8733 0.8734
3305.000000 0.8735 0.8736 0.8737 0.8738 0.8739
3300.000000 0.8740 0.8741 0.8742 0.8743 0.8744
3295.000000 0.8745 0.8746 0.8746 0.8747 0.8748
3290.000000 0.8749 0.8750 0.8751 0.8752 0.8753
3285.000000 0.8754 0.8755 0.8756 0.8757 0.8758
3280.000000 0.8759 0.8760 0.8761 0.8762 0.8763
3275.000000 0.8763 0.8764 0.8765 0.8766 0.8767
3270.000000 0.8768 0.8768 0.8768 0.8770 0.8771
3265.000000 0.8771 0.8771 0.8771 0.8773 0.8774
3260.000000 0.8775 0.8775 0.8775 0.8777 0.8778
3255.000000 0.8778 0.8778 0.8780 0.8781 0.8781
3250.000000 0.8782 0.8783 0.8784 0.8784 0.8785
3245.000000 0.8786 0.8787 0.8787 0.8788 0.8788
3240.000000 0.8789 0.8790 0.8791 0.8791 0.8792
3235.000000 0.8793 0.8794 0.8794 0.8794 0.8794
3230.000000 0.8795 0.8795 0.8796 0.8796 0.8797
3225.000000 0.8797 0.8797 0.8797 0.8798 0.8798
3220.000000 0.8799 0.8799 0.8800 0.8800 0.8801
3215.000000 0.8801 0.8801 0.8801 0.8802 0.8802
3210.000000 0.8803 0.8803 0.8804 0.8804 0.8804
3205.000000 0.8804 0.8805 0.8805 0.8806 0.8806
3200.000000 0.8807 0.8807 0.8807 0.8807 0.8808
3195.000000 0.8808 0.8809 0.8809 0.8809 0.8809
3190.000000 0.8809 0.8807 0.8806 0.8804 0.8802
3185.000000 0.8800 0.8799 0.8797 0.8796 0.8794
3180.000000 0.8792 0.8790 0.8789 0.8786 0.8783
3175.000000 0.8778 0.8775 0.8771 0.8767 0.8763
3170.000000 0.8759 0.8754 0.8750 0.8745 0.8741
3165.000000 0.8737 0.8733 0.8728 0.8724 0.8721
3160.000000 0.8720 0.8718 0.8718 0.8717 0.8717
3155.000000 0.8718 0.8718 0.8721 0.8724 0.8725
3150.000000 0.8728 0.8732 0.8735 0.8737 0.8740
3145.000000 0.8742 0.8745 0.8747 0.8750 0.8753
3140.000000 0.8756 0.8758 0.8761 0.8763 0.8766
3135.000000 0.8767 0.8768 0.8768 0.8770 0.8770
3130.000000 0.8771 0.8771 0.8773 0.8773 0.8774
3125.000000 0.8775 0.8775 0.8775 0.8777 0.8777
3120.000000 0.8778 0.8778 0.8780 0.8780 0.8781
3115.000000 0.8782 0.8783 0.8783 0.8784 0.8785
3110.000000 0.8786 0.8786 0.8787 0.8787 0.8788
3105.000000 0.8788 0.8789 0.8789 0.8790 0.8790
3100.000000 0.8791 0.8791 0.8792 0.8792 0.8793
3095.000000 0.8793 0.8794 0.8794 0.8795 0.8795
3090.000000 0.8796 0.8797 0.8798 0.8798 0.8799
3085.000000 0.8799 0.8800 0.8800 0.8801 0.8801
3080.000000 0.8802 0.8802 0.8803 0.8803 0.8804
3075.000000 0.8804 0.8805 0.8805 0.8805 0.8805
3070.000000 0.8805 0.8804 0.8804 0.8803 0.8803
3065.000000 0.8803 0.8803 0.8802 0.8802 0.8802
3060.000000 0.8802 0.8801 0.8801 0.8800 0.8800
3055.000000 0.8799 0.8799 0.8798 0.8797 0.8796
3050.000000 0.8795 0.8794 0.8794 0.8792 0.8791
3045.000000 0.8789 0.8788 0.8786 0.8785 0.8783
3040.000000 0.8782 0.8780 0.8778 0.8777 0.8775
3035.000000 0.8775 0.8774 0.8768 0.8768 0.8766
3030.000000 0.8764 0.8762 0.8760 0.8755 0.8751
3025.000000 0.8745 0.8740 0.8735 0.8730 0.8724
3020.000000 0.8718 0.8713 0.8708 0.8703 0.8698
3015.000000 0.8692 0.8687 0.8681 0.8675 0.8670
3010.000000 0.8665 0.8659 0.8654 0.8648 0.8643
3005.000000 0.8637 0.8632 0.8625 0.8621 0.8615
3000.000000 0.8610 0.8602 0.8595 0.8584 0.8573
2995.000000 0.8562 0.8551 0.8539 0.8528 0.8515
2990.000000 0.8502 0.8481 0.8460 0.8439 0.8418
2985.000000 0.8396 0.8374 0.8337 0.8301 0.8265
2980.000000 0.8228 0.8192 0.8156 0.8118 0.8082
2975.000000 0.8045 0.8008 0.7971 0.7933 0.7895
2970.000000 0.7857 0.7818 0.7782 0.7731 0.7681
2965.000000 0.7624 0.7568 0.7488 0.7408 0.7261
2960.000000 0.7114 0.7021 0.6928 0.6370 0.5810
2955.000000 0.5131 0.4451 0.4328 0.4206 0.4097
2950.000000 0.3989 0.3725 0.3462 0.3306 0.3150
2945.000000 0.2803 0.2456 0.2109 0.1762 0.1440
2940.000000 0.1119 0.1016 0.0914 0.0831 0.0749
2935.000000 0.0596 0.0443 0.0434 0.0407 0.0421
2930.000000 0.0417 0.0414 0.0411 0.0410 0.0409
2925.000000 0.0410 0.0412 0.1101 0.1790 0.1863
2920.000000 0.1935 0.2002 0.2068 0.2124 0.2180
2915.000000 0.2384 0.2590 0.2668 0.2746 0.2831
2910.000000 0.2917 0.3030 0.3143 0.3287 0.3432
2905.000000 0.3572 0.3712 0.3854 0.3995 0.4136
2900.000000 0.4277 0.4418 0.4559 0.4699 0.4840
2895.000000 0.4981 0.5122 0.5262 0.5404 0.5545
2890.000000 0.5686 0.5826 0.5967 0.6108 0.6249
2885.000000 0.6390 0.6531 0.6605 0.6678 0.6684
2880.000000 0.6690 0.6693 0.6739 0.6696 0.6697
2875.000000 0.6689 0.6681 0.6354 0.6027 0.5700
2870.000000 0.5373 0.5046 0.4719 0.4392 0.4066
2865.000000 0.3739 0.3412 0.3084 0.2758 0.2431
2860.000000 0.2104 0.1777 0.1450 0.1430 0.1444
2855.000000 0.2059 0.2707 0.3430 0.4155 0.4758
2850.000000 0.5360 0.5598 0.5835 0.6116 0.6397
2845.000000 0.6481 0.6565 0.6669 0.6775 0.6939
2840.000000 0.7103 0.7222 0.7344 0.7522 0.7701
2835.000000 0.7791 0.7881 0.7946 0.8011 0.8068
2830.000000 0.8124 0.8161 0.8199 0.8231 0.8263
2825.000000 0.8288 0.8314 0.8339 0.8365 0.8393
2820.000000 0.8421 0.8446 0.8471 0.8486 0.8501
2815.000000 0.8516 0.8532 0.8550 0.8568 0.8570
2810.000000 0.8573 0.8573 0.8573 0.8573 0.8573
2805.000000 0.8570 0.8567 0.8544 0.8521 0.8463
2800.000000 0.8405 0.8353 0.8302 0.8271 0.8243
2795.000000 0.8233 0.8218 0.8217 0.8216 0.8216
2790.000000 0.8216 0.8259 0.8303 0.8356 0.8409
2785.000000 0.8431 0.8454 0.8475 0.8499 0.8521
2780.000000 0.8544 0.8566 0.8588 0.8607 0.8625
2775.000000 0.8644 0.8663 0.8682 0.8701 0.8712
2770.000000 0.8723 0.8733 0.8743 0.8753 0.8763
2765.000000 0.8773 0.8783 0.8793 0.8803 0.8810
2760.000000 0.8817 0.8821 0.8825 0.8828 0.8834
2755.000000 0.8838 0.8843 0.8845 0.8848 0.8850
2750.000000 0.8853 0.8855 0.8857 0.8859 0.8862
2745.000000 0.8864 0.8867 0.8868 0.8870 0.8871
2740.000000 0.8873 0.8874 0.8875 0.8875 0.8877
2735.000000 0.8878 0.8924 0.8881 0.8882 0.8882
2730.000000 0.8883 0.8883 0.8883 0.8882 0.8882
2725.000000 0.8881 0.8881 0.8881 0.8881 0.8880
2720.000000 0.8880 0.8878 0.8878 0.8875 0.8871
2715.000000 0.8868 0.8866 0.8863 0.8860 0.8857
2710.000000 0.8854 0.8848 0.8843 0.8837 0.8831
2705.000000 0.8825 0.8818 0.8812 0.8806 0.8799
2700.000000 0.8793 0.8786 0.8778 0.8771 0.8764
2695.000000 0.8757 0.8750 0.8743 0.8736 0.8728
2690.000000 0.8721 0.8715 0.8716 0.8717 0.8725
2685.000000 0.8735 0.8746 0.8759 0.8771 0.8788
2680.000000 0.8804 0.8807 0.8811 0.8811 0.8811
2675.000000 0.8811 0.8811 0.8808 0.8806 0.8797
2670.000000 0.8788 0.8761 0.8734 0.8706 0.8678
2665.000000 0.8559 0.8099 0.8288 0.8135 0.8118
2660.000000 0.8101 0.8164 0.8227 0.8300 0.8373
2655.000000 0.8446 0.8518 0.8592 0.8666 0.8710
2650.000000 0.8755 0.8778 0.8803 0.8816 0.8828
2645.000000 0.8842 0.8856 0.8862 0.8868 0.8875
2640.000000 0.8881 0.8884 0.8887 0.8889 0.8891
2635.000000 0.8893 0.8895 0.8897 0.8899 0.8901
2630.000000 0.8903 0.8903 0.8903 0.8903 0.8903
2625.000000 0.8899 0.8896 0.8888 0.8880 0.8864
2620.000000 0.8849 0.8833 0.8818 0.8804 0.8791
2615.000000 0.8785 0.8780 0.8774 0.8768 0.8766
2610.000000 0.8764 0.8768 0.8774 0.8780 0.8786
2605.000000 0.8792 0.8799 0.8805 0.8812 0.8818
2600.000000 0.8825 0.8832 0.8839 0.8845 0.8852
2595.000000 0.8857 0.8862 0.8867 0.8871 0.8875
2590.000000 0.8881 0.8885 0.8890 0.8894 0.8899
2585.000000 0.8904 0.8909 0.8913 0.8918 0.8921
2580.000000 0.8927 0.8930 0.8933 0.8935 0.8938
2575.000000 0.8940 0.8943 0.8946 0.8949 0.8951
2570.000000 0.8954 0.8956 0.8959 0.8961 0.8964
2565.000000 0.8966 0.8968 0.8971 0.8974 0.8975
2560.000000 0.8977 0.8978 0.8980 0.8981 0.8983
2555.000000 0.8984 0.8986 0.8987 0.8989 0.8990
2550.000000 0.8992 0.8993 0.8994 0.8995 0.8997
2545.000000 0.8997 0.8998 0.8998 0.8998 0.8998
2540.000000 0.8998 0.8998 0.8998 0.8997 0.8997
2535.000000 0.8997 0.8997 0.8997 0.8997 0.8997
2530.000000 0.8997 0.8997 0.8997 0.8997 0.8997
2525.000000 0.8996 0.8996 0.8996 0.8996 0.8995
2520.000000 0.8995 0.8994 0.8994 0.8993 0.8993
2515.000000 0.8992 0.8992 0.8991 0.8991 0.8990
2510.000000 0.8990 0.8989 0.8989 0.8989 0.8989
2505.000000 0.8989 0.8989 0.8989 0.8989 0.8989
2500.000000 0.8989 0.8989 0.8989 0.8988 0.8988
2495.000000 0.8987 0.8987 0.8986 0.8985 0.8984
2490.000000 0.8983 0.8982 0.8981 0.8980 0.8978
2485.000000 0.8977 0.8975 0.8975 0.8974 0.8973
2480.000000 0.8971 0.8971 0.8970 0.8968 0.8968
2475.000000 0.8968 0.8968 0.8968 0.8968 0.8968
2470.000000 0.8968 0.8968 0.8968 0.8967 0.8967
2465.000000 0.8967 0.8967 0.8967 0.8967 0.8966
2460.000000 0.8966 0.8966 0.8966 0.8966 0.8966
2455.000000 0.8965 0.8965 0.8965 0.8965 0.8965
2450.000000 0.8965 0.8964 0.8964 0.8964 0.8964
2445.000000 0.8964 0.8964 0.8964 0.8964 0.8964
2440.000000 0.8964 0.8964 0.8964 0.8964 0.8964
2435.000000 0.8964 0.8964 0.8964 0.8964 0.8964
2430.000000 0.8964 0.8964 0.8964 0.8963 0.8963
2425.000000 0.8963 0.8963 0.8963 0.8963 0.8963
2420.000000 0.8963 0.8963 0.8963 0.8963 0.8963
2415.000000 0.8963 0.8964 0.8965 0.8966 0.8966
2410.000000 0.8967 0.8967 0.8968 0.8968 0.8968
2405.000000 0.8968 0.8970 0.8970 0.8971 0.8971
2400.000000 0.8973 0.8973 0.8974 0.8974 0.8975
2395.000000 0.8975 0.8975 0.8977 0.8978 0.8978
2390.000000 0.8981 0.8982 0.8984 0.8985 0.8986
2385.000000 0.8987 0.8989 0.8990 0.8992 0.8993
2380.000000 0.8995 0.8996 0.8998 0.8999 0.9001
2375.000000 0.9002 0.9004 0.9006 0.9008 0.9009
2370.000000 0.9011 0.9012 0.9014 0.9016 0.9018
2365.000000 0.9018 0.9021 0.9023 0.9025 0.9025
2360.000000 0.9028 0.9028 0.9031 0.9032 0.9033
2355.000000 0.9034 0.9035 0.9036 0.9037 0.9038
2350.000000 0.9039 0.9040 0.9042 0.9043 0.9044
2345.000000 0.9045 0.9046 0.9047 0.9048 0.9049
2340.000000 0.9050 0.9051 0.9052 0.9052 0.9053
2335.000000 0.9053 0.9053 0.9053 0.9054 0.9054
2330.000000 0.9054 0.9054 0.9055 0.9055 0.9055
2325.000000 0.9054 0.9054 0.9053 0.9052 0.9051
2320.000000 0.9050 0.9049 0.9048 0.9047 0.9046
2315.000000 0.9045 0.9044 0.9043 0.9042 0.9041
2310.000000 0.9040 0.9039 0.9038 0.9037 0.9036
2305.000000 0.9035 0.9034 0.9033 0.9032 0.9030
2300.000000 0.9028 0.9028 0.9027 0.9025 0.9025
2295.000000 0.9024 0.9024 0.9023 0.9023 0.9023
2290.000000 0.9023 0.9021 0.9021 0.9021 0.9021
2285.000000 0.9021 0.9021 0.9021 0.9024 0.9025
2280.000000 0.9027 0.9028 0.9030 0.9032 0.9034
2275.000000 0.9035 0.9037 0.9037 0.9037 0.9037
2270.000000 0.9037 0.9036 0.9035 0.9033 0.9032
2265.000000 0.9025 0.9021 0.9018 0.9016 0.9013
2260.000000 0.9010 0.9009 0.9008 0.9007 0.9007
2255.000000 0.9006 0.9006 0.9005 0.9005 0.9004
2250.000000 0.9004 0.9003 0.9003 0.9002 0.9002
2245.000000 0.9001 0.9001 0.9001 0.9002 0.9002
2240.000000 0.9003 0.9004 0.9005 0.9005 0.9006
2235.000000 0.9007 0.9008 0.9008 0.9009 0.9010
2230.000000 0.9011 0.9011 0.9012 0.9013 0.9014
2225.000000 0.9014 0.9015 0.9016 0.9017 0.9017
2220.000000 0.9017 0.9017 0.9017 0.9017 0.9017
2215.000000 0.9016 0.9016 0.9016 0.9016 0.9015
2210.000000 0.9015 0.9015 0.9015 0.9014 0.9014
2205.000000 0.9014 0.9014 0.9013 0.9013 0.9015
2200.000000 0.9018 0.9021 0.9025 0.9028 0.9031
2195.000000 0.9034 0.9037 0.9040 0.9044 0.9047
2190.000000 0.9050 0.9054 0.9059 0.9064 0.9070
2185.000000 0.9075 0.9082 0.9087 0.9093 0.9099
2180.000000 0.9105 0.9111 0.9117 0.9121 0.9121
2175.000000 0.9123 0.9118 0.9111 0.9104 0.9097
2170.000000 0.9090 0.9088 0.9086 0.9084 0.9083
2165.000000 0.9081 0.9078 0.9077 0.9075 0.9074
2160.000000 0.9071 0.9070 0.9068 0.9067 0.9066
2155.000000 0.9065 0.9064 0.9063 0.9063 0.9062
2150.000000 0.9061 0.9060 0.9059 0.9058 0.9058
2145.000000 0.9057 0.9057 0.9057 0.9058 0.9061
2140.000000 0.9064 0.9067 0.9070 0.9073 0.9075
2135.000000 0.9078 0.9082 0.9085 0.9088 0.9091
2130.000000 0.9094 0.9096 0.9099 0.9099 0.9099
2125.000000 0.9099 0.9099 0.9099 0.9099 0.9099
2120.000000 0.9099 0.9098 0.9098 0.9098 0.9098
2115.000000 0.9098 0.9098 0.9097 0.9097 0.9096
2110.000000 0.9095 0.9094 0.9093 0.9092 0.9091
2105.000000 0.9090 0.9090 0.9089 0.9088 0.9087
2100.000000 0.9086 0.9085 0.9085 0.9084 0.9083
2095.000000 0.9082 0.9081 0.9080 0.9080 0.9078
2090.000000 0.9078 0.9077 0.9075 0.9075 0.9075
2085.000000 0.9073 0.9071 0.9068 0.9068 0.9066
2080.000000 0.9065 0.9063 0.9061 0.9059 0.9058
2075.000000 0.9056 0.9055 0.9053 0.9052 0.9050
2070.000000 0.9049 0.9047 0.9046 0.9044 0.9043
2065.000000 0.9042 0.9042 0.9043 0.9045 0.9046
2060.000000 0.9048 0.9049 0.9051 0.9052 0.9053
2055.000000 0.9053 0.9054 0.9055 0.9056 0.9057
2050.000000 0.9058 0.9058 0.9059 0.9060 0.9061
2045.000000 0.9061 0.9061 0.9061 0.9060 0.9059
2040.000000 0.9058 0.9057 0.9056 0.9055 0.9054
2035.000000 0.9053 0.9052 0.9050 0.9049 0.9046
2030.000000 0.9044 0.9041 0.9039 0.9036 0.9034
2025.000000 0.9031 0.9028 0.9025 0.9024 0.9021
2020.000000 0.9018 0.9015 0.9013 0.9010 0.9008
2015.000000 0.9005 0.9003 0.9000 0.8998 0.8997
2010.000000 0.8996 0.8995 0.8994 0.8992 0.8991
2005.000000 0.8990 0.8989 0.8988 0.8987 0.8984
2000.000000 0.8982 0.8980 0.8978 0.8977 0.8975
1995.000000 0.8975 0.8974 0.8973 0.8971 0.8970
1990.000000 0.8968 0.8968 0.8968 0.8968 0.8971
1985.000000 0.8973 0.8975 0.8977 0.8978 0.8981
1980.000000 0.8985 0.8989 0.8993 0.8996 0.9000
1975.000000 0.9004 0.9008 0.9007 0.9006 0.9002
1970.000000 0.8999 0.8996 0.8992 0.8989 0.8986
1965.000000 0.8982 0.8978 0.8975 0.8971 0.8968
1960.000000 0.8964 0.8960 0.8956 0.8953 0.8952
1955.000000 0.8952 0.8954 0.8956 0.8958 0.8960
1950.000000 0.8963 0.8966 0.8968 0.8971 0.8975
1945.000000 0.8978 0.8981 0.8985 0.8988 0.8990
1940.000000 0.8990 0.8991 0.8992 0.8993 0.8994
1935.000000 0.8995 0.8995 0.8995 0.8994 0.8993
1930.000000 0.8992 0.8991 0.8990 0.8990 0.8989
1925.000000 0.8989 0.8989 0.8991 0.8992 0.8993
1920.000000 0.8994 0.8996 0.9024 0.8998 0.8998
1915.000000 0.8997 0.8997 0.8997 0.8996 0.8996
1910.000000 0.8995 0.8995 0.8995 0.8994 0.8994
1905.000000 0.8994 0.8994 0.8994 0.8994 0.8994
1900.000000 0.8995 0.8995 0.8995 0.8995 0.8996
1895.000000 0.8996 0.8996 0.8996 0.8996 0.8995
1890.000000 0.8995 0.8994 0.8993 0.8993 0.8992
1885.000000 0.8992 0.8993 0.8994 0.8995 0.8996
1880.000000 0.8996 0.8997 0.8997 0.8998 0.8998
1875.000000 0.8999 0.8999 0.9000 0.9000 0.9001
1870.000000 0.9001 0.9001 0.9001 0.9001 0.9000
1865.000000 0.9000 0.9000 0.8999 0.8999 0.8999
1860.000000 0.8998 0.8998 0.8997 0.8997 0.8997
1855.000000 0.8997 0.8998 0.8998 0.8998 0.8999
1850.000000 0.8999 0.8999 0.8999 0.8999 0.8997
1845.000000 0.8996 0.8994 0.8993 0.8991 0.8990
1840.000000 0.8988 0.8987 0.8985 0.8984 0.8982
1835.000000 0.8981 0.8978 0.8977 0.8975 0.8975
1830.000000 0.8974 0.8975 0.8977 0.8980 0.8982
1825.000000 0.8985 0.8987 0.8990 0.8992 0.8995
1820.000000 0.8997 0.9000 0.9002 0.9005 0.9007
1815.000000 0.9009 0.9010 0.9012 0.9013 0.9014
1810.000000 0.9016 0.9017 0.9018 0.9018 0.9018
1805.000000 0.9018 0.9018 0.9018 0.9018 0.9018
1800.000000 0.9018 0.9018 0.9018 0.9018 0.9018
1795.000000 0.9018 0.9018 0.9018 0.9018 0.9018
1790.000000 0.9018 0.9018 0.9020 0.9020 0.9020
1785.000000 0.9020 0.9020 0.9018 0.9018 0.9017
1780.000000 0.9017 0.9016 0.9015 0.9014 0.9013
1775.000000 0.9012 0.9012 0.9011 0.9011 0.9010
1770.000000 0.9010 0.9010 0.9009 0.9009 0.9008
1765.000000 0.9008 0.9009 0.9010 0.9011 0.9012
1760.000000 0.9013 0.9014 0.9016 0.9017 0.9018
1755.000000 0.9018 0.9020 0.9021 0.9021 0.9023
1750.000000 0.9024 0.9025 0.9025 0.9027 0.9028
1745.000000 0.9028 0.9030 0.9031 0.9032 0.9033
1740.000000 0.9034 0.9035 0.9036 0.9037 0.9038
1735.000000 0.9039 0.9039 0.9040 0.9040 0.9041
1730.000000 0.9041 0.9041 0.9042 0.9042 0.9043
1725.000000 0.9043 0.9044 0.9044 0.9044 0.9043
1720.000000 0.9043 0.9042 0.9040 0.9038 0.9037
1715.000000 0.9035 0.9034 0.9032 0.9030 0.9028
1710.000000 0.9027 0.9025 0.9023 0.9020 0.9017
1705.000000 0.9015 0.9012 0.9009 0.9007 0.9004
1700.000000 0.9001 0.8999 0.8996 0.8993 0.8990
1695.000000 0.8987 0.8984 0.8981 0.8978 0.8975
1690.000000 0.8971 0.8968 0.8965 0.8963 0.8961
1685.000000 0.8958 0.8956 0.8954 0.8952 0.8949
1680.000000 0.8947 0.8945 0.8942 0.8940 0.8938
1675.000000 0.8936 0.8935 0.8934 0.8932 0.8931
1670.000000 0.8928 0.8928 0.8925 0.8925 0.8923
1665.000000 0.8921 0.8921 0.8920 0.8918 0.8918
1660.000000 0.8917 0.8916 0.8915 0.8914 0.8913
1655.000000 0.8912 0.8911 0.8910 0.8908 0.8907
1650.000000 0.8906 0.8905 0.8904 0.8903 0.8903
1645.000000 0.8903 0.8903 0.8903 0.8903 0.8904
1640.000000 0.8904 0.8904 0.8905 0.8905 0.8905
1635.000000 0.8906 0.8906 0.8906 0.8907 0.8907
1630.000000 0.8907 0.8907 0.8908 0.8908 0.8908
1625.000000 0.8909 0.8909 0.8909 0.8910 0.8910
1620.000000 0.8910 0.8911 0.8911 0.8910 0.8908
1615.000000 0.8906 0.8904 0.8902 0.8900 0.8898
1610.000000 0.8896 0.8894 0.8892 0.8889 0.8888
1605.000000 0.8887 0.8886 0.8885 0.8885 0.8884
1600.000000 0.8883 0.8882 0.8881 0.8881 0.8880
1595.000000 0.8878 0.8878 0.8877 0.8877 0.8875
1590.000000 0.8875 0.8874 0.8873 0.8873 0.8871
1585.000000 0.8871 0.8873 0.8874 0.8875 0.8875
1580.000000 0.8877 0.8878 0.8878 0.8880 0.8881
1575.000000 0.8881 0.8882 0.8883 0.8884 0.8885
1570.000000 0.8886 0.8887 0.8889 0.8890 0.8891
1565.000000 0.8892 0.8893 0.8894 0.8895 0.8897
1560.000000 0.8898 0.8899 0.8899 0.8900 0.8900
1555.000000 0.8901 0.8901 0.8901 0.8902 0.8902
1550.000000 0.8903 0.8903 0.8904 0.8904 0.8905
1545.000000 0.8905 0.8904 0.8903 0.8902 0.8901
1540.000000 0.8900 0.8899 0.8898 0.8897 0.8896
1535.000000 0.8895 0.8894 0.8893 0.8892 0.8892
1530.000000 0.8892 0.8891 0.8891 0.8890 0.8890
1525.000000 0.8889 0.8889 0.8888 0.8887 0.8886
1520.000000 0.8885 0.8884 0.8883 0.8882 0.8881
1515.000000 0.8878 0.8878 0.8877 0.8875 0.8875
1510.000000 0.8874 0.8873 0.8871 0.8871 0.8870
1505.000000 0.8868 0.8868 0.8865 0.8862 0.8859
1500.000000 0.8856 0.8854 0.8851 0.8848 0.8845
1495.000000 0.8842 0.8837 0.8832 0.8825 0.8821
1490.000000 0.8816 0.8810 0.8803 0.8795 0.8788
1485.000000 0.8780 0.8771 0.8761 0.8751 0.8741
1480.000000 0.8731 0.8720 0.8703 0.8678 0.8654
1475.000000 0.8628 0.8603 0.8577 0.8550 0.8524
1470.000000 0.8495 0.8461 0.8428 0.8387 0.8328
1465.000000 0.8270 0.8200 0.8117 0.7901 0.7811
1460.000000 0.7306 0.6618 0.5931 0.5244 0.4691
1455.000000 0.4688 0.4703 0.4707 0.5197 0.5688
1450.000000 0.6178 0.6668 0.7160 0.7676 0.7776
1445.000000 0.7858 0.7940 0.8031 0.8121 0.8186
1440.000000 0.8247 0.8308 0.8365 0.8416 0.8467
1435.000000 0.8501 0.8527 0.8551 0.8570 0.8589
1430.000000 0.8608 0.8627 0.8647 0.8657 0.8664
1425.000000 0.8671 0.8678 0.8685 0.8691 0.8695
1420.000000 0.8698 0.8702 0.8705 0.8708 0.8712
1415.000000 0.8715 0.8718 0.8721 0.8725 0.8730
1410.000000 0.8734 0.8738 0.8742 0.8747 0.8751
1405.000000 0.8755 0.8759 0.8763 0.8768 0.8774
1400.000000 0.8780 0.8786 0.8792 0.8799 0.8805
1395.000000 0.8811 0.8817 0.8825 0.8835 0.8844
1390.000000 0.8853 0.8862 0.8866 0.8870 0.8874
1385.000000 0.8877 0.8881 0.8885 0.8889 0.8893
1380.000000 0.8898 0.8902 0.8907 0.8911 0.8915
1375.000000 0.8918 0.8921 0.8924 0.8918 0.8911
1370.000000 0.8904 0.8897 0.8890 0.8883 0.8875
1365.000000 0.8871 0.8866 0.8862 0.8857 0.8853
1360.000000 0.8848 0.8843 0.8839 0.8834 0.8830
1355.000000 0.8825 0.8820 0.8816 0.8812 0.8810
1350.000000 0.8809 0.8807 0.8806 0.8804 0.8803
1345.000000 0.8801 0.8800 0.8798 0.8797 0.8795
1340.000000 0.8794 0.8792 0.8791 0.8789 0.8789
1335.000000 0.8791 0.8792 0.8794 0.8795 0.8797
1330.000000 0.8798 0.8799 0.8801 0.8802 0.8804
1325.000000 0.8805 0.8807 0.8808 0.8809 0.8811
1320.000000 0.8812 0.8814 0.8815 0.8817 0.8818
1315.000000 0.8818 0.8820 0.8821 0.8821 0.8823
1310.000000 0.8824 0.8825 0.8825 0.8827 0.8828
1305.000000 0.8830 0.8831 0.8832 0.8833 0.8834
1300.000000 0.8835 0.8837 0.8838 0.8839 0.8840
1295.000000 0.8842 0.8843 0.8844 0.8846 0.8847
1290.000000 0.8848 0.8849 0.8849 0.8849 0.8846
1285.000000 0.8843 0.8840 0.8838 0.8835 0.8832
1280.000000 0.8825 0.8818 0.8812 0.8805 0.8798
1275.000000 0.8791 0.8784 0.8768 0.8754 0.8739
1270.000000 0.8724 0.8709 0.8690 0.8666 0.8642
1265.000000 0.8608 0.8574 0.8536 0.8495 0.8465
1260.000000 0.8436 0.8416 0.8410 0.8411 0.8411
1255.000000 0.8421 0.8442 0.8481 0.8518 0.8543
1250.000000 0.8566 0.8589 0.8613 0.8636 0.8659
1245.000000 0.8683 0.8705 0.8727 0.8748 0.8768
1240.000000 0.8790 0.8803 0.8813 0.8824 0.8834
1235.000000 0.8844 0.8854 0.8865 0.8871 0.8875
1230.000000 0.8881 0.8886 0.8891 0.8896 0.8901
1225.000000 0.8906 0.8909 0.8912 0.8916 0.8918
1220.000000 0.8923 0.8925 0.8928 0.8931 0.8933
1215.000000 0.8936 0.8938 0.8940 0.8942 0.8944
1210.000000 0.8944 0.8943 0.8943 0.8942 0.8942
1205.000000 0.8942 0.8941 0.8941 0.8941 0.8940
1200.000000 0.8940 0.8939 0.8937 0.8936 0.8935
1195.000000 0.8934 0.8933 0.8932 0.8930 0.8928
1190.000000 0.8928 0.8927 0.8925 0.8925 0.8923
1185.000000 0.8921 0.8921 0.8920 0.8918 0.8918
1180.000000 0.8916 0.8916 0.8916 0.8916 0.8916
1175.000000 0.8915 0.8915 0.8915 0.8915 0.8915
1170.000000 0.8915 0.8915 0.8915 0.8915 0.8915
1165.000000 0.8915 0.8915 0.8914 0.8914 0.8914
1160.000000 0.8914 0.8914 0.8914 0.8914 0.8914
1155.000000 0.8914 0.8914 0.8914 0.8913 0.8912
1150.000000 0.8911 0.8910 0.8909 0.8908 0.8907
1145.000000 0.8906 0.8905 0.8904 0.8903 0.8902
1140.000000 0.8901 0.8901 0.8900 0.8899 0.8898
1135.000000 0.8897 0.8897 0.8897 0.8896 0.8896
1130.000000 0.8895 0.8895 0.8895 0.8894 0.8894
1125.000000 0.8894 0.8893 0.8893 0.8893 0.8893
1120.000000 0.8893 0.8893 0.8893 0.8893 0.8893
1115.000000 0.8893 0.8894 0.8894 0.8894 0.8894
1110.000000 0.8894 0.8894 0.8894 0.8895 0.8895
1105.000000 0.8895 0.8895 0.8895 0.8894 0.8894
1100.000000 0.8894 0.8894 0.8893 0.8893 0.8893
1095.000000 0.8892 0.8892 0.8892 0.8892 0.8891
1090.000000 0.8891 0.8891 0.8891 0.8890 0.8890
1085.000000 0.8890 0.8890 0.8889 0.8889 0.8889
1080.000000 0.8889 0.8889 0.8889 0.8889 0.8889
1075.000000 0.8889 0.8889 0.8889 0.8889 0.8889
1070.000000 0.8889 0.8889 0.8890 0.8891 0.8891
1065.000000 0.8892 0.8892 0.8893 0.8893 0.8894
1060.000000 0.8895 0.8895 0.8896 0.8896 0.8897
1055.000000 0.8897 0.8897 0.8897 0.8890 0.8883
1050.000000 0.8875 0.8863 0.8842 0.8821 0.8794
1045.000000 0.8762 0.8728 0.8693 0.8660 0.8631
1040.000000 0.8621 0.8624 0.8624 0.8624 0.8645
1035.000000 0.8671 0.8695 0.8713 0.8732 0.8750
1030.000000 0.8760 0.8770 0.8780 0.8790 0.8800
1025.000000 0.8800 0.8800 0.8800 0.8799 0.8793
1020.000000 0.8786 0.8780 0.8774 0.8766 0.8757
1015.000000 0.8749 0.8740 0.8732 0.8728 0.8725
1010.000000 0.8723 0.8728 0.8736 0.8742 0.8749
1005.000000 0.8755 0.8761 0.8768 0.8774 0.8781
1000.000000 0.8787 0.8794 0.8800 0.8807 0.8813
995.000000 0.8820 0.8824 0.8827 0.8828 0.8831
990.000000 0.8833 0.8836 0.8838 0.8840 0.8842
985.000000 0.8845 0.8847 0.8849 0.8850 0.8852
980.000000 0.8853 0.8854 0.8856 0.8857 0.8859
975.000000 0.8860 0.8861 0.8863 0.8864 0.8866
970.000000 0.8867 0.8868 0.8870 0.8871 0.8873
965.000000 0.8873 0.8874 0.8875 0.8875 0.8877
960.000000 0.8877 0.8878 0.8878 0.8880 0.8881
955.000000 0.8881 0.8882 0.8890 0.8884 0.8885
950.000000 0.8885 0.8886 0.8886 0.8886 0.8886
945.000000 0.8886 0.8886 0.8885 0.8885 0.8885
940.000000 0.8885 0.8885 0.8885 0.8885 0.8885
935.000000 0.8883 0.8881 0.8878 0.8877 0.8875
930.000000 0.8873 0.8870 0.8868 0.8866 0.8863
925.000000 0.8861 0.8858 0.8855 0.8852 0.8849
920.000000 0.8843 0.8838 0.8833 0.8827 0.8821
915.000000 0.8810 0.8797 0.8784 0.8764 0.8734
910.000000 0.8700 0.8657 0.8614 0.8483 0.8245
905.000000 0.8006 0.7775 0.7801 0.7968 0.8171
900.000000 0.8375 0.8573 0.8674 0.8702 0.8728
895.000000 0.8745 0.8758 0.8771 0.8784 0.8793
890.000000 0.8793 0.8792 0.8792 0.8792 0.8791
885.000000 0.8789 0.8787 0.8786 0.8783 0.8778
880.000000 0.8774 0.8768 0.8764 0.8755 0.8746
875.000000 0.8737 0.8724 0.8708 0.8691 0.8668
870.000000 0.8644 0.8600 0.8548 0.8434 0.8304
865.000000 0.8174 0.8044 0.7915 0.7931 0.8024
860.000000 0.8168 0.8313 0.8417 0.8494 0.8541
855.000000 0.8574 0.8607 0.8641 0.8662 0.8682
850.000000 0.8702 0.8718 0.8730 0.8742 0.8754
845.000000 0.8763 0.8771 0.8778 0.8785 0.8792
840.000000 0.8799 0.8806 0.8811 0.8813 0.8814
835.000000 0.8815 0.8817 0.8818 0.8818 0.8820
830.000000 0.8821 0.8821 0.8823 0.8824 0.8825
825.000000 0.8825 0.8827 0.8828 0.8828 0.8831
820.000000 0.8832 0.8834 0.8835 0.8837 0.8838
815.000000 0.8840 0.8841 0.8843 0.8844 0.8846
810.000000 0.8848 0.8851 0.8853 0.8856 0.8858
805.000000 0.8861 0.8863 0.8865 0.8878 0.8870
800.000000 0.8868 0.8868 0.8867 0.8866 0.8865
795.000000 0.8864 0.8863 0.8862 0.8862 0.8861
790.000000 0.8860 0.8859 0.8857 0.8855 0.8853
785.000000 0.8851 0.8850 0.8848 0.8846 0.8844
780.000000 0.8842 0.8840 0.8838 0.8836 0.8834
775.000000 0.8832 0.8830 0.8827 0.8825 0.8823
770.000000 0.8820 0.8818 0.8815 0.8813 0.8811
765.000000 0.8808 0.8806 0.8803 0.8801 0.8798
760.000000 0.8795 0.8791 0.8787 0.8782 0.8778
755.000000 0.8773 0.8768 0.8764 0.8760 0.8755
750.000000 0.8751 0.8746 0.8742 0.8737 0.8731
745.000000 0.8725 0.8721 0.8715 0.8710 0.8704
740.000000 0.8699 0.8694 0.8688 0.8683 0.8677
735.000000 0.8671 0.8667 0.8661 0.8656 0.8650
730.000000 0.8645 0.8640 0.8635 0.8630 0.8625
725.000000 0.8620 0.8615 0.8610 0.8605 0.8600
720.000000 0.8595 0.8590 0.8585 0.8580 0.8575
715.000000 0.8570 0.8566 0.8563 0.8560 0.8557
710.000000 0.8554 0.8551 0.8548 0.8545 0.8542
705.000000 0.8539 0.8536 0.8533 0.8530 0.8527
700.000000 0.8525 0.8521 0.8518 0.8515 0.8512
695.000000 0.8508 0.8505 0.8501 0.8498 0.8494
690.000000 0.8491 0.8488 0.8484 0.8481 0.8477
685.000000 0.8475 0.8475 0.8474 0.8473 0.8471
680.000000 0.8471 0.8470 0.8468 0.8468 0.8468
675.000000 0.8468 0.8467 0.8467 0.8466 0.8466
670.000000 0.8465 0.8465 0.8464 0.8464 0.8463
665.000000 0.8463 0.8462 0.8462 0.8461 0.8461
660.000000 0.8460 0.8460 0.8460 0.8460 0.8461
655.000000 0.8461 0.8461 0.8461 0.8461 0.8461
650.000000 0.8461 0.8461 0.8461 0.8461 0.8462
645.000000 0.8462 0.8462 0.8462 0.8462 0.8462
640.000000 0.8462 0.8463 0.8464 0.8466 0.8467
635.000000 0.8468 0.8468 0.8470 0.8471 0.8473
630.000000 0.8474 0.8475 0.8475 0.8477 0.8478
625.000000 0.8478 0.8481 0.8482 0.8483 0.8484
620.000000 0.8485 0.8486 0.8487 0.8487 0.8488
615.000000 0.8488 0.8489 0.8489 0.8490 0.8490
610.000000 0.8490 0.8491 0.8491 0.8492 0.8492
605.000000 0.8493 0.8493 0.8492 0.8492 0.8492
600.000000 0.8492 0.8492 0.8490 0.8488 0.8486
595.000000 0.8485 0.8483 0.8481 0.8480 0.8502
590.000000 0.8475 0.8474 0.8473 0.8471 0.8468
585.000000 0.8467 0.8466 0.8463 0.8459 0.8455
580.000000 0.8452 0.8448 0.8444 0.8440 0.8437
575.000000 0.8433 0.8428 0.8425 0.8421 0.8415
570.000000 0.8409 0.8404 0.8398 0.8393 0.8387
565.000000 0.8382 0.8375 0.8371 0.8365 0.8359
560.000000 0.8353 0.8347 0.8341 0.8335 0.8328
555.000000 0.8323 0.8317 0.8311 0.8305 0.8298
550.000000 0.8291 0.8284 0.8277 0.8270 0.8263
545.000000 0.8254 0.8244 0.8234 0.8224 0.8214
540.000000 0.8204 0.8194 0.8188 0.8182 0.8175
535.000000 0.8168 0.8161 0.8160 0.8158 0.8147
530.000000 0.8154 0.8151 0.8151 0.8157 0.8162
525.000000 0.8168 0.8174 0.8186 0.8201 0.8215
520.000000 0.8230 0.8244 0.8258 0.8266 0.8274
515.000000 0.8282 0.8290 0.8298 0.8306 0.8310
510.000000 0.8313 0.8317 0.8320 0.8323 0.8324
505.000000 0.8325 0.8325 0.8324 0.8324 0.8323
500.000000 0.8323 0.8323 0.8321 0.8321 0.8318
495.000000 0.8314 0.8310 0.8306 0.8302 0.8297
490.000000 0.8293 0.8289 0.8287 0.8281 0.8275
485.000000 0.8268 0.8264 0.8258 0.8252 0.8246
480.000000 0.8240 0.8234 0.8228 0.8220 0.8211
475.000000 0.8202 0.8193 0.8185 0.8175 0.8167
470.000000 0.8158 0.8149 0.8140 0.8130 0.8119
465.000000 0.8108 0.8099 0.8089 0.8078 0.8068
460.000000 0.8058 0.8048 0.8038 0.8028 0.8012
455.000000 0.7998 0.7983 0.7968 0.7953 0.7938
450.000000 0.7922 0.7908 0.7893 0.7878 0.7861
445.000000 0.7845 0.7828 0.7812 0.7797 0.7781
440.000000 0.7765 0.7755 0.7745 0.7735 0.7725
435.000000 0.7714 0.7704 0.7694 0.7684 0.7675
430.000000 0.7668 0.7662 0.7656 0.7649 0.7642
425.000000 0.7636 0.7631 0.7626 0.7621 0.7617
420.000000 0.7612 0.7608 0.7606 0.7604 0.7601
415.000000 0.7598 0.7596 0.7593 0.7590 0.7588
410.000000 0.7588 0.7587 0.7587 0.7587 0.7587
405.000000 0.7587 0.7587 0.7587 0.7587 0.7587
400.000000 0.7587 0.7588 0.7588 0.7588 0.7589
395.000000 0.7589 0.7590 0.7592 0.7595 0.7598
390.000000 0.7601 0.7604 0.7607 0.7610
##END=
