##TITLE=BUTANEDIOIC ACID
##JCAMP-DX=4.24
##DATA TYPE=INFRARED SPECTRUM
##CLASS=COBLENTZ III
##ORIGIN=DOW CHEMICAL COMPANY
##OWNER=COBLENTZ SOCIETY
Collection (C) 2018 copyright by the U.S. Secretary of Commerce
on behalf of the United States of America. All rights reserved.
##DATE=1964/01/14
##NAMES=succinic acid
SUCCINIC ACID
##CAS REGISTRY NO=110-15-6
##MOLFORM=C4 H6 O4
##SOURCE REFERENCE=COBLENTZ NO. 10163
##$NIST SOURCE=COBLENTZ
##$NIST IMAGE=cob10163
##SPECTROMETER/DATA SYSTEM=BECKMAN IR-9 (GRATING)
##INSTRUMENT PARAMETERS=ORDER CHANGES AT 670, 1200, 2000 CM^-^1
##STATE=SOLID (SPLIT MULL, FLUOROLUBE FOR 3800-1330 AND NUJOL FOR 1330-400 CM ^-^1)
##PATH LENGTH=
$$ SPECTRAL FEATURE AT 1316 CM^-^1 IS AN ARTIFACT CAUSED BY A CHANGE IN SOLVENT
##SAMPLING PROCEDURE=TRANSMISSION
##RESOLUTION=4
##DATA PROCESSING=DIGITIZED BY NIST FROM HARD COPY (FROM TWO SEGMENTS)
##XUNITS=1/CM
##YUNITS=TRANSMITTANCE
##XFACTOR=1.000000
##YFACTOR=1
##DELTAX=0.853243
##FIRSTX=400.171
##LASTX=3790.96
##FIRSTY=0.712
##MAXX=3790.96
##MINX=400.171
##MAXY=0.955
##MINY=0.018
##NPOINTS=3975
##XYDATA=(X++(Y..Y))
400.171000 0.7120 0.7110 0.7090 0.7080 0.7080
404.437217 0.7050 0.7040 0.6990 0.6970 0.6960
408.703435 0.6930 0.6920 0.6910 0.6840 0.6800
412.969652 0.6790 0.6770 0.6760 0.6720 0.6680
417.235869 0.6670 0.6640 0.6630 0.6630 0.6600
421.502087 0.6590 0.6560 0.6550 0.6530 0.6510
425.768304 0.6490 0.6470 0.6470 0.6450 0.6450
430.034521 0.6430 0.6430 0.6400 0.6390 0.6370
434.300738 0.6360 0.6360 0.6360 0.6350 0.6330
438.566956 0.6330 0.6330 0.6320 0.6320 0.6320
442.833173 0.6320 0.6320 0.6330 0.6330 0.6330
447.099390 0.6330 0.6330 0.6350 0.6350 0.6360
451.365608 0.6360 0.6370 0.6370 0.6390 0.6410
455.631825 0.6440 0.6450 0.6480 0.6520 0.6560
459.898042 0.6590 0.6640 0.6670 0.6750 0.6800
464.164260 0.6850 0.6890 0.6910 0.6930 0.6960
468.430477 0.7000 0.7040 0.7080 0.7110 0.7130
472.696694 0.7170 0.7170 0.7210 0.7230 0.7270
476.962911 0.7310 0.7330 0.7360 0.7390 0.7410
481.229129 0.7440 0.7440 0.7450 0.7470 0.7480
485.495346 0.7510 0.7520 0.7550 0.7560 0.7560
489.761563 0.7590 0.7620 0.7620 0.7630 0.7630
494.027781 0.7660 0.7660 0.7670 0.7680 0.7710
498.293998 0.7720 0.7720 0.7720 0.7740 0.7740
502.560215 0.7750 0.7750 0.7750 0.7760 0.7780
506.826433 0.7780 0.7800 0.7820 0.7820 0.7830
511.092650 0.7840 0.7860 0.7860 0.7860 0.7870
515.358867 0.7870 0.7880 0.7900 0.7900 0.7910
519.625084 0.7910 0.7910 0.7920 0.7920 0.7920
523.891302 0.7920 0.7920 0.7920 0.7940 0.7940
528.157519 0.7940 0.7940 0.7940 0.7940 0.7940
532.423736 0.7920 0.7920 0.7920 0.7910 0.7900
536.689954 0.7880 0.7870 0.7830 0.7800 0.7760
540.956171 0.7720 0.7670 0.7630 0.7580 0.7500
545.222388 0.7450 0.7390 0.7330 0.7310 0.7290
549.488606 0.7280 0.7290 0.7310 0.7330 0.7400
553.754823 0.7450 0.7510 0.7540 0.7560 0.7560
558.021040 0.7590 0.7600 0.7600 0.7590 0.7580
562.287257 0.7560 0.7560 0.7580 0.7590 0.7630
566.553475 0.7680 0.7720 0.7750 0.7790 0.7800
570.819692 0.7820 0.7820 0.7820 0.7800 0.7790
575.085909 0.7760 0.7720 0.7670 0.7600 0.7560
579.352127 0.7500 0.7400 0.7350 0.7250 0.7210
583.618344 0.7130 0.7080 0.7040 0.7000 0.6990
587.884561 0.6990 0.7040 0.7110 0.7250 0.7390
592.150779 0.7450 0.7480 0.7520 0.7600 0.7700
596.416996 0.7760 0.7780 0.7830 0.7870 0.7900
600.683213 0.7950 0.7960 0.7960 0.7990 0.8000
604.949430 0.8020 0.8030 0.8040 0.8070 0.8080
609.215648 0.8080 0.8100 0.8110 0.8110 0.8110
613.481865 0.8110 0.8110 0.8100 0.8080 0.8080
617.748082 0.8070 0.8060 0.8040 0.8030 0.7990
622.014300 0.7950 0.7940 0.7920 0.7870 0.7780
626.280517 0.7750 0.7660 0.7560 0.7450 0.7281
630.546734 0.7090 0.6810 0.6590 0.6330 0.5931
634.812952 0.5321 0.4352 0.3931 0.3561 0.3401
639.079169 0.3320 0.3220 0.3140 0.3140 0.3190
643.345386 0.3300 0.3540 0.3869 0.4229 0.4768
647.611603 0.5130 0.5420 0.6140 0.6450 0.6730
651.877821 0.6840 0.7010 0.7279 0.7429 0.7540
656.144038 0.7580 0.7710 0.7740 0.7790 0.7840
660.410255 0.7910 0.7950 0.7990 0.8000 0.8020
664.676473 0.8040 0.8060 0.8070 0.8080 0.8080
668.942690 0.8100 0.8110 0.8150 0.8160 0.8180
673.208907 0.8180 0.8180 0.8160 0.8150 0.8140
677.475125 0.8140 0.8120 0.8120 0.8110 0.8100
681.741342 0.8100 0.8100 0.8110 0.8110 0.8100
686.007559 0.8100 0.8110 0.8120 0.8120 0.8120
690.273777 0.8120 0.8110 0.8110 0.8110 0.8110
694.539994 0.8110 0.8110 0.8120 0.8120 0.8110
698.806211 0.8110 0.8120 0.8120 0.8110 0.8110
703.072428 0.8110 0.8110 0.8100 0.8100 0.8100
707.338646 0.8100 0.8100 0.8100 0.8080 0.8080
711.604863 0.8070 0.8070 0.8060 0.8060 0.8040
715.871080 0.8030 0.8020 0.8000 0.7990 0.7950
720.137298 0.7940 0.7920 0.7910 0.7880 0.7860
724.403515 0.7830 0.7820 0.7820 0.7830 0.7840
728.669732 0.7860 0.7880 0.7910 0.7940 0.7950
732.935950 0.7960 0.7980 0.7990 0.8000 0.8030
737.202167 0.8030 0.8030 0.8040 0.8060 0.8070
741.468384 0.8100 0.8100 0.8110 0.8110 0.8110
745.734601 0.8120 0.8120 0.8140 0.8140 0.8150
750.000819 0.8150 0.8150 0.8160 0.8160 0.8180
754.267036 0.8180 0.8180 0.8180 0.8180 0.8180
758.533253 0.8190 0.8200 0.8200 0.8190 0.8190
762.799471 0.8190 0.8190 0.8190 0.8190 0.8180
767.065688 0.8180 0.8160 0.8150 0.8150 0.8160
771.331905 0.8160 0.8160 0.8160 0.8160 0.8160
775.598123 0.8140 0.8140 0.8140 0.8140 0.8140
779.864340 0.8160 0.8160 0.8160 0.8160 0.8150
784.130557 0.8120 0.8120 0.8120 0.8120 0.8120
788.396774 0.8120 0.8120 0.8110 0.8110 0.8110
792.662992 0.8100 0.8080 0.8070 0.8060 0.8020
796.929209 0.8000 0.7960 0.7920 0.7860 0.7740
801.195426 0.7600 0.7410 0.7200 0.6920 0.6371
805.461644 0.6101 0.6080 0.6090 0.6239 0.6479
809.727861 0.6730 0.6970 0.7110 0.7150 0.7190
813.994078 0.7210 0.7210 0.7190 0.7170 0.7150
818.260296 0.7160 0.7240 0.7320 0.7390 0.7470
822.526513 0.7600 0.7670 0.7740 0.7760 0.7790
826.792730 0.7800 0.7820 0.7820 0.7830 0.7860
831.058947 0.7870 0.7870 0.7870 0.7880 0.7900
835.325165 0.7900 0.7900 0.7900 0.7880 0.7880
839.591382 0.7880 0.7860 0.7860 0.7840 0.7840
843.857599 0.7840 0.7840 0.7830 0.7830 0.7830
848.123817 0.7830 0.7820 0.7820 0.7800 0.7790
852.390034 0.7790 0.7780 0.7780 0.7760 0.7750
856.656251 0.7750 0.7720 0.7720 0.7710 0.7680
860.922469 0.7670 0.7660 0.7640 0.7620 0.7600
865.188686 0.7590 0.7590 0.7580 0.7560 0.7550
869.454903 0.7520 0.7480 0.7470 0.7440 0.7430
873.721120 0.7400 0.7390 0.7350 0.7330 0.7310
877.987338 0.7270 0.7250 0.7230 0.7170 0.7110
882.253555 0.7070 0.7050 0.6990 0.6930 0.6910
886.519772 0.6810 0.6770 0.6750 0.6680 0.6590
890.785990 0.6490 0.6310 0.6220 0.6080 0.5970
895.052207 0.5800 0.5620 0.5570 0.5460 0.5420
899.318424 0.5370 0.5360 0.5370 0.5410 0.5440
903.584642 0.5480 0.5480 0.5480 0.5460 0.5380
907.850859 0.5330 0.5280 0.5140 0.5050 0.4980
912.117076 0.4940 0.4870 0.4820 0.4780 0.4740
916.383293 0.4670 0.4650 0.4620 0.4580 0.4500
920.649511 0.4430 0.4370 0.4340 0.4330 0.4270
924.915728 0.4250 0.4220 0.4180 0.4170 0.4150
929.181945 0.4150 0.4140 0.4140 0.4150 0.4150
933.448163 0.4170 0.4190 0.4210 0.4250 0.4300
937.714380 0.4340 0.4370 0.4450 0.4530 0.4580
941.980597 0.4610 0.4650 0.4650 0.4690 0.4710
946.246815 0.4750 0.4770 0.4790 0.4820 0.4860
950.513032 0.4900 0.4930 0.4940 0.4980 0.5000
954.779249 0.5020 0.5090 0.5120 0.5160 0.5260
959.045467 0.5330 0.5380 0.5490 0.5600 0.5640
963.311684 0.5700 0.5760 0.5810 0.5860 0.5900
967.577901 0.5970 0.6000 0.6040 0.6120 0.6130
971.844118 0.6140 0.6220 0.6280 0.6290 0.6310
976.110336 0.6350 0.6400 0.6450 0.6450 0.6490
980.376553 0.6570 0.6610 0.6630 0.6680 0.6730
984.642770 0.6750 0.6760 0.6770 0.6810 0.6850
988.908988 0.6880 0.6890 0.6910 0.6920 0.6930
993.175205 0.6990 0.7000 0.7010 0.7050 0.7050
997.441422 0.7070 0.7080 0.7120 0.7150 0.7160
1001.707640 0.7170 0.7190 0.7200 0.7210 0.7210
1005.973857 0.7230 0.7240 0.7250 0.7250 0.7280
1010.240074 0.7290 0.7310 0.7320 0.7330 0.7330
1014.506291 0.7330 0.7330 0.7350 0.7350 0.7350
1018.772509 0.7360 0.7360 0.7370 0.7390 0.7390
1023.038726 0.7390 0.7390 0.7390 0.7400 0.7400
1027.304943 0.7400 0.7400 0.7400 0.7400 0.7410
1031.571161 0.7410 0.7410 0.7410 0.7410 0.7410
1035.837378 0.7410 0.7430 0.7430 0.7430 0.7430
1040.103595 0.7430 0.7430 0.7440 0.7440 0.7440
1044.369813 0.7450 0.7450 0.7470 0.7470 0.7470
1048.636030 0.7470 0.7470 0.7480 0.7500 0.7510
1052.902247 0.7510 0.7510 0.7510 0.7510 0.7510
1057.168464 0.7510 0.7520 0.7520 0.7520 0.7520
1061.434682 0.7520 0.7520 0.7520 0.7520 0.7540
1065.700899 0.7520 0.7520 0.7520 0.7520 0.7520
1069.967116 0.7520 0.7540 0.7540 0.7540 0.7540
1074.233334 0.7540 0.7560 0.7560 0.7550 0.7540
1078.499551 0.7540 0.7540 0.7540 0.7550 0.7550
1082.765768 0.7550 0.7550 0.7550 0.7550 0.7550
1087.031986 0.7550 0.7550 0.7550 0.7550 0.7560
1091.298203 0.7560 0.7550 0.7550 0.7560 0.7560
1095.564420 0.7560 0.7560 0.7560 0.7580 0.7580
1099.830637 0.7580 0.7590 0.7590 0.7590 0.7590
1104.096855 0.7590 0.7590 0.7580 0.7580 0.7580
1108.363072 0.7580 0.7580 0.7580 0.7580 0.7580
1112.629289 0.7580 0.7590 0.7590 0.7590 0.7590
1116.895507 0.7590 0.7590 0.7590 0.7590 0.7590
1121.161724 0.7600 0.7600 0.7600 0.7600 0.7590
1125.427941 0.7590 0.7590 0.7590 0.7580 0.7580
1129.694159 0.7580 0.7580 0.7560 0.7560 0.7560
1133.960376 0.7560 0.7550 0.7550 0.7550 0.7550
1138.226593 0.7540 0.7540 0.7520 0.7510 0.7500
1142.492810 0.7500 0.7500 0.7500 0.7500 0.7480
1146.759028 0.7480 0.7480 0.7470 0.7470 0.7450
1151.025245 0.7440 0.7430 0.7430 0.7410 0.7400
1155.291462 0.7390 0.7390 0.7390 0.7360 0.7350
1159.557680 0.7330 0.7320 0.7310 0.7290 0.7280
1163.823897 0.7270 0.7250 0.7230 0.7170 0.7130
1168.090114 0.7080 0.7070 0.7010 0.6950 0.6810
1172.356332 0.6760 0.6630 0.6450 0.6290 0.5941
1176.622549 0.5619 0.5179 0.4430 0.4260 0.4260
1180.888766 0.4869 0.5559 0.5610 0.5680 0.5740
1185.154984 0.5880 0.5900 0.5900 0.5880 0.5860
1189.421201 0.5740 0.5540 0.5281 0.5011 0.4781
1193.687418 0.4459 0.3979 0.3540 0.3220 0.2950
1197.953635 0.2710 0.2410 0.2151 0.1801 0.1730
1202.219853 0.1600 0.1560 0.1350 0.1240 0.1120
1206.486070 0.1080 0.1020 0.1020 0.1120 0.1319
1210.752287 0.1841 0.2350 0.2590 0.2700 0.2860
1215.018505 0.2980 0.3000 0.3120 0.3180 0.3359
1219.284722 0.3601 0.4051 0.4460 0.4870 0.5160
1223.550939 0.5530 0.5880 0.6130 0.6429 0.6560
1227.817157 0.6720 0.6990 0.7010 0.7040 0.7130
1232.083374 0.7270 0.7320 0.7370 0.7390 0.7400
1236.349591 0.7410 0.7450 0.7480 0.7500 0.7520
1240.615808 0.7540 0.7550 0.7560 0.7580 0.7580
1244.882026 0.7580 0.7590 0.7590 0.7600 0.7600
1249.148243 0.7600 0.7620 0.7600 0.7600 0.7600
1253.414460 0.7600 0.7600 0.7590 0.7580 0.7580
1257.680678 0.7580 0.7550 0.7550 0.7540 0.7510
1261.946895 0.7480 0.7470 0.7450 0.7440 0.7410
1266.213112 0.7400 0.7390 0.7390 0.7370 0.7360
1270.479330 0.7320 0.7280 0.7250 0.7230 0.7210
1274.745547 0.7130 0.7090 0.7050 0.7040 0.6930
1279.011764 0.6910 0.6830 0.6750 0.6630 0.6520
1283.277981 0.6430 0.6320 0.6210 0.6040 0.5900
1287.544199 0.5850 0.5730 0.5570 0.5460 0.5400
1291.810416 0.5100 0.5080 0.5010 0.4940 0.4820
1296.076633 0.4740 0.4690 0.4630 0.4500 0.4390
1300.342851 0.4220 0.4070 0.3870 0.3790 0.3680
1304.609068 0.3540 0.3360 0.3200 0.3060 0.2920
1308.875285 0.2760 0.2580 0.2430 0.2211 0.2160
1313.141503 0.2110 0.2070 0.2050 0.2070 0.2080
1317.407720 0.2160 0.2270 0.2430 0.2580 0.2749
1321.673937 0.2900 0.2920 0.3100 0.3100 0.3100
1325.940154 0.3100 0.3100 0.3100 0.3100 0.3100
1330.206372 0.3100 0.3100 0.3100 0.3100 0.3100
1334.472589 0.3100 0.3100 0.3100 0.3080 0.3080
1338.738806 0.3080 0.3080 0.3080 0.3080 0.3080
1343.005024 0.3080 0.3080 0.3080 0.3080 0.3080
1347.271241 0.3080 0.3280 0.3480 0.3560 0.3830
1351.537458 0.4070 0.4150 0.4260 0.4539 0.4550
1355.803676 0.4660 0.4790 0.4870 0.4910 0.4970
1360.069893 0.5000 0.5060 0.5090 0.5100 0.5120
1364.336110 0.5130 0.5140 0.5170 0.5170 0.5170
1368.602327 0.5160 0.5160 0.5140 0.5130 0.5100
1372.868545 0.5050 0.5010 0.5000 0.5000 0.4970
1377.134762 0.4950 0.4910 0.4870 0.4820 0.4750
1381.400979 0.4670 0.4650 0.4590 0.4550 0.4460
1385.667197 0.4430 0.4380 0.4340 0.4290 0.4260
1389.933414 0.4230 0.4140 0.3970 0.3870 0.3790
1394.199631 0.3700 0.3620 0.3540 0.3460 0.3430
1398.465849 0.3360 0.3230 0.3000 0.2800 0.2620
1402.732066 0.2440 0.2240 0.2170 0.2090 0.2000
1406.998283 0.1890 0.1810 0.1710 0.1490 0.1180
1411.264500 0.1020 0.1000 0.0850 0.0780 0.0760
1415.530718 0.0720 0.0680 0.0640 0.0610 0.0600
1419.796935 0.0600 0.0570 0.0560 0.0560 0.0560
1424.063152 0.0560 0.0570 0.0620 0.0690 0.0760
1428.329370 0.0780 0.0850 0.0880 0.0940 0.1040
1432.595587 0.1050 0.1211 0.1750 0.2050 0.2270
1436.861804 0.2480 0.2640 0.2760 0.2830 0.2980
1441.128022 0.3561 0.3970 0.4140 0.4430 0.4570
1445.394239 0.4770 0.4970 0.5050 0.5210 0.5280
1449.660456 0.5450 0.5690 0.5810 0.5890 0.5980
1453.926674 0.6040 0.6160 0.6270 0.6290 0.6330
1458.192891 0.6370 0.6430 0.6450 0.6490 0.6570
1462.459108 0.6670 0.6770 0.6880 0.6890 0.6920
1466.725325 0.6960 0.7000 0.7050 0.7070 0.7150
1470.991543 0.7230 0.7250 0.7270 0.7290 0.7360
1475.257760 0.7370 0.7390 0.7390 0.7390 0.7390
1479.523977 0.7400 0.7410 0.7440 0.7470 0.7500
1483.790195 0.7550 0.7560 0.7580 0.7590 0.7600
1488.056412 0.7600 0.7620 0.7630 0.7640 0.7680
1492.322629 0.7720 0.7740 0.7740 0.7740 0.7740
1496.588847 0.7750 0.7750 0.7760 0.7780 0.7790
1500.855064 0.7790 0.7790 0.7780 0.7780 0.7780
1505.121281 0.7780 0.7780 0.7780 0.7760 0.7760
1509.387498 0.7780 0.7790 0.7790 0.7780 0.7760
1513.653716 0.7750 0.7750 0.7740 0.7740 0.7710
1517.919933 0.7710 0.7700 0.7700 0.7680 0.7670
1522.186150 0.7660 0.7640 0.7640 0.7620 0.7590
1526.452368 0.7560 0.7560 0.7520 0.7500 0.7450
1530.718585 0.7430 0.7410 0.7410 0.7410 0.7400
1534.984802 0.7390 0.7390 0.7350 0.7330 0.7320
1539.251020 0.7320 0.7310 0.7290 0.7280 0.7270
1543.517237 0.7240 0.7230 0.7210 0.7080 0.7070
1547.783454 0.7050 0.7040 0.7010 0.6960 0.6920
1552.049671 0.6890 0.6890 0.6890 0.6840 0.6830
1556.315889 0.6830 0.6810 0.6810 0.6800 0.6790
1560.582106 0.6760 0.6610 0.6470 0.6440 0.6390
1564.848323 0.6350 0.6310 0.6290 0.6290 0.6250
1569.114541 0.6240 0.6220 0.6200 0.6170 0.6140
1573.380758 0.6130 0.6130 0.6130 0.6130 0.6100
1577.646975 0.6090 0.6080 0.6080 0.6050 0.6020
1581.913193 0.6010 0.6000 0.6000 0.5930 0.5880
1586.179410 0.5860 0.5860 0.5810 0.5800 0.5770
1590.445627 0.5730 0.5680 0.5620 0.5610 0.5600
1594.711844 0.5560 0.5520 0.5480 0.5420 0.5370
1598.978062 0.5360 0.5340 0.5290 0.5250 0.5220
1603.244279 0.5160 0.5120 0.5100 0.5050 0.5010
1607.510496 0.5010 0.5000 0.4970 0.4900 0.4870
1611.776714 0.4820 0.4790 0.4780 0.4770 0.4770
1616.042931 0.4750 0.4750 0.4690 0.4650 0.4570
1620.309148 0.4490 0.4460 0.4430 0.4420 0.4350
1624.575366 0.4290 0.4250 0.4230 0.4170 0.4130
1628.841583 0.4050 0.3990 0.3950 0.3900 0.3870
1633.107800 0.3860 0.3860 0.3820 0.3790 0.3770
1637.374017 0.3700 0.3540 0.3510 0.3440 0.3390
1641.640235 0.3320 0.3300 0.3270 0.3230 0.3220
1645.906452 0.3200 0.3180 0.3150 0.3070 0.2940
1650.172669 0.2860 0.2840 0.2830 0.2820 0.2800
1654.438887 0.2740 0.2520 0.2350 0.2290 0.2240
1658.705104 0.2170 0.2110 0.2040 0.2000 0.1990
1662.971321 0.1890 0.1800 0.1730 0.1710 0.1600
1667.237539 0.1570 0.1560 0.1520 0.1450 0.1370
1671.503756 0.1210 0.1050 0.1020 0.1010 0.1000
1675.769973 0.0730 0.0700 0.0660 0.0610 0.0600
1680.036190 0.0560 0.0520 0.0490 0.0480 0.0460
1684.302408 0.0450 0.0410 0.0370 0.0340 0.0300
1688.568625 0.0300 0.0280 0.0260 0.0250 0.0220
1692.834842 0.0210 0.0210 0.0200 0.0200 0.0200
1697.101060 0.0200 0.0200 0.0180 0.0180 0.0180
1701.367277 0.0180 0.0180 0.0180 0.0180 0.0180
1705.633494 0.0180 0.0200 0.0200 0.0210 0.0220
1709.899712 0.0240 0.0250 0.0260 0.0260 0.0280
1714.165929 0.0290 0.0290 0.0320 0.0330 0.0360
1718.432146 0.0370 0.0400 0.0460 0.0500 0.0530
1722.698364 0.0570 0.0600 0.0610 0.0640 0.0690
1726.964581 0.0700 0.0720 0.0720 0.0730 0.0760
1731.230798 0.0780 0.0810 0.0840 0.0850 0.0860
1735.497015 0.1000 0.1180 0.1400 0.1570 0.1640
1739.763233 0.2190 0.2321 0.2590 0.2800 0.2960
1744.029450 0.3110 0.3190 0.3420 0.3500 0.3590
1748.295667 0.3710 0.3830 0.3870 0.4090 0.4190
1752.561885 0.4380 0.4510 0.4590 0.4650 0.4690
1756.828102 0.4750 0.4790 0.4900 0.4970 0.5010
1761.094319 0.5040 0.5130 0.5220 0.5260 0.5290
1765.360537 0.5370 0.5410 0.5480 0.5490 0.5520
1769.626754 0.5580 0.5640 0.5680 0.5720 0.5730
1773.892971 0.5760 0.5820 0.5860 0.5880 0.5900
1778.159188 0.5920 0.5930 0.5960 0.6000 0.6020
1782.425406 0.6040 0.6050 0.6060 0.6080 0.6090
1786.691623 0.6090 0.6140 0.6140 0.6160 0.6170
1790.957840 0.6200 0.6220 0.6220 0.6280 0.6290
1795.224058 0.6310 0.6320 0.6320 0.6360 0.6370
1799.490275 0.6430 0.6440 0.6470 0.6490 0.6510
1803.756492 0.6530 0.6560 0.6570 0.6590 0.6600
1808.022710 0.6600 0.6610 0.6640 0.6650 0.6670
1812.288927 0.6680 0.6690 0.6710 0.6710 0.6710
1816.555144 0.6730 0.6730 0.6730 0.6750 0.6750
1820.821361 0.6750 0.6750 0.6750 0.6750 0.6730
1825.087579 0.6730 0.6730 0.6730 0.6720 0.6710
1829.353796 0.6710 0.6690 0.6680 0.6670 0.6670
1833.620013 0.6690 0.6730 0.6770 0.6830 0.6890
1837.886231 0.6930 0.6960 0.7030 0.7070 0.7090
1842.152448 0.7130 0.7130 0.7150 0.7170 0.7200
1846.418665 0.7210 0.7210 0.7240 0.7250 0.7270
1850.684883 0.7290 0.7290 0.7290 0.7310 0.7310
1854.951100 0.7310 0.7310 0.7310 0.7310 0.7310
1859.217317 0.7310 0.7310 0.7310 0.7310 0.7310
1863.483534 0.7310 0.7290 0.7290 0.7310 0.7310
1867.749752 0.7310 0.7310 0.7310 0.7310 0.7320
1872.015969 0.7320 0.7320 0.7320 0.7330 0.7330
1876.282186 0.7350 0.7350 0.7350 0.7360 0.7370
1880.548404 0.7390 0.7400 0.7400 0.7400 0.7410
1884.814621 0.7410 0.7430 0.7440 0.7450 0.7470
1889.080838 0.7470 0.7480 0.7500 0.7540 0.7550
1893.347056 0.7560 0.7560 0.7580 0.7580 0.7580
1897.613273 0.7580 0.7600 0.7620 0.7630 0.7630
1901.879490 0.7630 0.7640 0.7660 0.7660 0.7660
1906.145707 0.7670 0.7680 0.7700 0.7700 0.7720
1910.411925 0.7740 0.7740 0.7740 0.7720 0.7720
1914.678142 0.7720 0.7720 0.7720 0.7740 0.7740
1918.944359 0.7740 0.7750 0.7750 0.7750 0.7750
1923.210577 0.7760 0.7760 0.7760 0.7760 0.7760
1927.476794 0.7760 0.7760 0.7760 0.7760 0.7760
1931.743011 0.7760 0.7760 0.7780 0.7780 0.7780
1936.009229 0.7780 0.7780 0.7790 0.7790 0.7790
1940.275446 0.7800 0.7800 0.7800 0.7800 0.7790
1944.541663 0.7790 0.7800 0.7800 0.7800 0.7800
1948.807880 0.7800 0.7800 0.7820 0.7820 0.7800
1953.074098 0.7800 0.7820 0.7820 0.7820 0.7820
1957.340315 0.7820 0.7800 0.7800 0.7800 0.7800
1961.606532 0.7790 0.7790 0.7790 0.7790 0.7800
1965.872750 0.7800 0.7790 0.7790 0.7790 0.7790
1970.138967 0.7780 0.7760 0.7760 0.7760 0.7750
1974.405184 0.7750 0.7740 0.7740 0.7740 0.7710
1978.671402 0.7700 0.7700 0.7680 0.7680 0.7680
1982.937619 0.7670 0.7670 0.7670 0.7660 0.7660
1987.203836 0.7660 0.7640 0.7630 0.7630 0.7620
1991.470054 0.7600 0.7600 0.7590 0.7590 0.7580
1995.736271 0.7580 0.7580 0.7580 0.7560 0.7560
2000.002488 0.7560 0.7555 0.7550 0.7550 0.7550
2004.268705 0.7545 0.7540 0.7530 0.7520 0.7520
2008.534923 0.7520 0.7515 0.7510 0.7510 0.7510
2012.801140 0.7510 0.7510 0.7510 0.7510 0.7505
2017.067357 0.7500 0.7500 0.7500 0.7500 0.7500
2021.333575 0.7500 0.7500 0.7500 0.7500 0.7500
2025.599792 0.7500 0.7500 0.7500 0.7500 0.7500
2029.866009 0.7500 0.7500 0.7490 0.7480 0.7480
2034.132227 0.7480 0.7480 0.7480 0.7480 0.7480
2038.398444 0.7480 0.7480 0.7475 0.7470 0.7460
2042.664661 0.7450 0.7445 0.7440 0.7435 0.7430
2046.930878 0.7430 0.7429 0.7419 0.7409 0.7399
2051.197096 0.7390 0.7390 0.7389 0.7379 0.7369
2055.463313 0.7359 0.7349 0.7339 0.7330 0.7325
2059.729530 0.7319 0.7304 0.7290 0.7285 0.7279
2063.995748 0.7259 0.7240 0.7240 0.7240 0.7235
2068.261965 0.7229 0.7214 0.7199 0.7184 0.7170
2072.528182 0.7165 0.7160 0.7155 0.7149 0.7139
2076.794400 0.7130 0.7125 0.7118 0.7098 0.7080
2081.060617 0.7075 0.7070 0.7070 0.7069 0.7059
2085.326834 0.7050 0.7050 0.7049 0.7039 0.7030
2089.593051 0.7030 0.7030 0.7030 0.7029 0.7019
2093.859269 0.7009 0.7004 0.7000 0.7000 0.7000
2098.125486 0.7000 0.7000 0.7000 0.7000 0.7000
2102.391703 0.7000 0.7000 0.7000 0.7000 0.6999
2106.657921 0.6994 0.6990 0.6990 0.6989 0.6979
2110.924138 0.6969 0.6964 0.6959 0.6954 0.6949
2115.190355 0.6939 0.6929 0.6924 0.6920 0.6920
2119.456573 0.6919 0.6914 0.6910 0.6910 0.6908
2123.722790 0.6898 0.6890 0.6890 0.6888 0.6878
2127.989007 0.6868 0.6858 0.6846 0.6821 0.6799
2132.255224 0.6794 0.6788 0.6773 0.6759 0.6754
2136.521442 0.6750 0.6750 0.6748 0.6738 0.6729
2140.787659 0.6724 0.6720 0.6720 0.6719 0.6714
2145.053876 0.6710 0.6710 0.6710 0.6710 0.6710
2149.320094 0.6710 0.6710 0.6710 0.6710 0.6710
2153.586311 0.6708 0.6698 0.6690 0.6690 0.6689
2157.852528 0.6684 0.6680 0.6680 0.6679 0.6674
2162.118746 0.6668 0.6658 0.6650 0.6650 0.6649
2166.384963 0.6644 0.6640 0.6640 0.6637 0.6622
2170.651180 0.6608 0.6598 0.6588 0.6578 0.6569
2174.917397 0.6564 0.6560 0.6560 0.6560 0.6560
2179.183615 0.6557 0.6542 0.6525 0.6505 0.6489
2183.449832 0.6484 0.6479 0.6474 0.6468 0.6458
2187.716049 0.6449 0.6444 0.6439 0.6434 0.6422
2191.982267 0.6392 0.6369 0.6364 0.6359 0.6354
2196.248484 0.6350 0.6350 0.6346 0.6331 0.6319
2200.514701 0.6314 0.6307 0.6297 0.6290 0.6290
2204.780919 0.6289 0.6284 0.6280 0.6280 0.6276
2209.047136 0.6261 0.6246 0.6231 0.6217 0.6207
2213.313353 0.6197 0.6187 0.6179 0.6174 0.6169
2217.579571 0.6164 0.6156 0.6141 0.6124 0.6104
2221.845788 0.6084 0.6064 0.6046 0.6031 0.6017
2226.112005 0.6007 0.6000 0.6000 0.5995 0.5980
2230.378222 0.5964 0.5944 0.5924 0.5904 0.5888
2234.644440 0.5883 0.5875 0.5860 0.5842 0.5817
2238.910657 0.5795 0.5780 0.5765 0.5750 0.5738
2243.176874 0.5733 0.5725 0.5710 0.5692 0.5667
2247.443092 0.5645 0.5630 0.5614 0.5594 0.5577
2251.709309 0.5567 0.5555 0.5540 0.5530 0.5530
2255.975526 0.5530 0.5530 0.5528 0.5523 0.5517
2260.241744 0.5507 0.5498 0.5493 0.5490 0.5490
2264.507961 0.5490 0.5490 0.5490 0.5490 0.5488
2268.774178 0.5483 0.5480 0.5480 0.5480 0.5480
2273.040395 0.5480 0.5480 0.5480 0.5480 0.5480
2277.306613 0.5480 0.5476 0.5466 0.5460 0.5460
2281.572830 0.5460 0.5460 0.5460 0.5460 0.5460
2285.839047 0.5460 0.5458 0.5453 0.5450 0.5450
2290.105265 0.5450 0.5450 0.5450 0.5450 0.5450
2294.371482 0.5450 0.5448 0.5443 0.5440 0.5440
2298.637699 0.5440 0.5440 0.5436 0.5426 0.5418
2302.903917 0.5413 0.5408 0.5403 0.5400 0.5400
2307.170134 0.5396 0.5386 0.5378 0.5373 0.5368
2311.436351 0.5363 0.5356 0.5346 0.5340 0.5340
2315.702568 0.5338 0.5333 0.5330 0.5330 0.5328
2319.968786 0.5323 0.5316 0.5306 0.5298 0.5293
2324.235003 0.5283 0.5268 0.5260 0.5260 0.5260
2328.501220 0.5260 0.5258 0.5253 0.5250 0.5250
2332.767438 0.5248 0.5243 0.5240 0.5240 0.5236
2337.033655 0.5226 0.5220 0.5220 0.5218 0.5213
2341.299872 0.5203 0.5188 0.5180 0.5180 0.5178
2345.566090 0.5173 0.5170 0.5170 0.5168 0.5163
2349.832307 0.5153 0.5138 0.5123 0.5108 0.5098
2354.098524 0.5093 0.5083 0.5068 0.5060 0.5060
2358.364741 0.5060 0.5060 0.5058 0.5053 0.5050
2362.630959 0.5050 0.5050 0.5050 0.5050 0.5050
2366.897176 0.5050 0.5050 0.5050 0.5050 0.5050
2371.163393 0.5050 0.5048 0.5043 0.5033 0.5018
2375.429611 0.5007 0.5002 0.4992 0.4977 0.4962
2379.695828 0.4947 0.4932 0.4917 0.4905 0.4895
2383.962045 0.4885 0.4875 0.4855 0.4825 0.4802
2388.228263 0.4787 0.4777 0.4772 0.4765 0.4755
2392.494480 0.4734 0.4704 0.4685 0.4675 0.4667
2396.760697 0.4662 0.4657 0.4652 0.4645 0.4635
2401.026914 0.4625 0.4615 0.4605 0.4595 0.4587
2405.293132 0.4582 0.4577 0.4572 0.4565 0.4555
2409.559349 0.4525 0.4480 0.4457 0.4452 0.4442
2413.825566 0.4427 0.4412 0.4397 0.4387 0.4382
2418.091784 0.4380 0.4380 0.4372 0.4357 0.4347
2422.358001 0.4342 0.4337 0.4332 0.4319 0.4299
2426.624218 0.4284 0.4274 0.4264 0.4254 0.4244
2430.890436 0.4234 0.4227 0.4222 0.4217 0.4212
2435.156653 0.4201 0.4186 0.4180 0.4180 0.4177
2439.422870 0.4172 0.4170 0.4170 0.4170 0.4170
2443.689087 0.4170 0.4170 0.4170 0.4170 0.4173
2447.955305 0.4178 0.4180 0.4180 0.4177 0.4172
2452.221522 0.4164 0.4154 0.4150 0.4150 0.4147
2456.487739 0.4142 0.4140 0.4140 0.4131 0.4116
2460.753957 0.4098 0.4078 0.4067 0.4062 0.4057
2465.020174 0.4052 0.4050 0.4050 0.4031 0.4001
2469.286391 0.3984 0.3974 0.3961 0.3946 0.3931
2473.552609 0.3916 0.3907 0.3902 0.3897 0.3892
2477.818826 0.3890 0.3890 0.3880 0.3865 0.3850
2482.085043 0.3835 0.3824 0.3814 0.3800 0.3785
2486.351261 0.3777 0.3772 0.3760 0.3745 0.3727
2490.617478 0.3707 0.3690 0.3675 0.3657 0.3637
2494.883695 0.3627 0.3622 0.3613 0.3603 0.3587
2499.149912 0.3567 0.3553 0.3543 0.3517 0.3482
2503.416130 0.3467 0.3462 0.3453 0.3443 0.3437
2507.682347 0.3432 0.3417 0.3397 0.3377 0.3356
2511.948564 0.3336 0.3316 0.3293 0.3268 0.3246
2516.214782 0.3226 0.3213 0.3203 0.3197 0.3192
2520.480999 0.3180 0.3165 0.3133 0.3092 0.3066
2524.747216 0.3046 0.3033 0.3023 0.3020 0.3020
2529.013434 0.3013 0.3003 0.2972 0.2932 0.2906
2533.279651 0.2886 0.2876 0.2871 0.2866 0.2861
2537.545868 0.2853 0.2843 0.2840 0.2840 0.2836
2541.812085 0.2831 0.2830 0.2830 0.2830 0.2830
2546.078303 0.2830 0.2830 0.2834 0.2839 0.2855
2550.344520 0.2875 0.2906 0.2941 0.2965 0.2985
2554.610737 0.3005 0.3025 0.3041 0.3056 0.3064
2558.876955 0.3069 0.3081 0.3096 0.3107 0.3118
2563.143172 0.3128 0.3138 0.3144 0.3149 0.3161
2567.409389 0.3176 0.3199 0.3224 0.3234 0.3239
2571.675607 0.3251 0.3266 0.3274 0.3279 0.3288
2575.941824 0.3298 0.3304 0.3309 0.3310 0.3310
2580.208041 0.3314 0.3319 0.3320 0.3320 0.3320
2584.474258 0.3320 0.3320 0.3320 0.3316 0.3311
2588.740476 0.3310 0.3310 0.3306 0.3301 0.3292
2593.006693 0.3282 0.3280 0.3280 0.3264 0.3244
2597.272910 0.3236 0.3231 0.3210 0.3185 0.3152
2601.539128 0.3117 0.3090 0.3065 0.3060 0.3060
2605.805345 0.3044 0.3024 0.3012 0.3002 0.2984
2610.071562 0.2964 0.2924 0.2879 0.2858 0.2843
2614.337780 0.2836 0.2831 0.2818 0.2803 0.2800
2618.603997 0.2800 0.2792 0.2782 0.2764 0.2744
2622.870214 0.2728 0.2713 0.2694 0.2674 0.2666
2627.136431 0.2661 0.2660 0.2660 0.2652 0.2642
2631.402649 0.2640 0.2640 0.2636 0.2631 0.2630
2635.668866 0.2630 0.2630 0.2630 0.2626 0.2621
2639.935083 0.2620 0.2620 0.2620 0.2620 0.2620
2644.201301 0.2620 0.2620 0.2620 0.2620 0.2620
2648.467518 0.2620 0.2620 0.2620 0.2620 0.2620
2652.733735 0.2620 0.2624 0.2629 0.2634 0.2639
2656.999953 0.2640 0.2640 0.2653 0.2668 0.2687
2661.266170 0.2707 0.2740 0.2775 0.2806 0.2837
2665.532387 0.2849 0.2859 0.2864 0.2869 0.2883
2669.798604 0.2898 0.2918 0.2938 0.2985 0.3035
2674.064822 0.3053 0.3068 0.3074 0.3079 0.3093
2678.331039 0.3108 0.3123 0.3138 0.3145 0.3150
2682.597256 0.3164 0.3179 0.3198 0.3218 0.3229
2686.863474 0.3239 0.3258 0.3278 0.3289 0.3299
2691.129691 0.3305 0.3310 0.3310 0.3310 0.3310
2695.395908 0.3310 0.3315 0.3320 0.3320 0.3320
2699.662126 0.3320 0.3320 0.3320 0.3320 0.3315
2703.928343 0.3310 0.3310 0.3310 0.3310 0.3310
2708.194560 0.3305 0.3300 0.3286 0.3271 0.3265
2712.460777 0.3260 0.3246 0.3231 0.3225 0.3220
2716.726995 0.3210 0.3200 0.3195 0.3190 0.3176
2720.993212 0.3161 0.3150 0.3140 0.3130 0.3120
2725.259429 0.3110 0.3100 0.3086 0.3071 0.3065
2729.525647 0.3060 0.3046 0.3031 0.3030 0.3030
2733.791864 0.3025 0.3020 0.3005 0.2990 0.2975
2738.058081 0.2960 0.2955 0.2950 0.2950 0.2950
2742.324299 0.2945 0.2940 0.2940 0.2940 0.2930
2746.590516 0.2920 0.2920 0.2920 0.2915 0.2910
2750.856733 0.2910 0.2910 0.2905 0.2900 0.2900
2755.122951 0.2900 0.2900 0.2900 0.2900 0.2900
2759.389168 0.2900 0.2900 0.2905 0.2910 0.2910
2763.655385 0.2910 0.2910 0.2910 0.2915 0.2920
2767.921602 0.2930 0.2940 0.2945 0.2950 0.2955
2772.187820 0.2960 0.2970 0.2980 0.2985 0.2990
2776.454037 0.2990 0.2990 0.2990 0.2990 0.2990
2780.720254 0.2990 0.2995 0.3000 0.3000 0.3000
2784.986472 0.3000 0.3001 0.3011 0.3020 0.3020
2789.252689 0.3019 0.3009 0.3000 0.3000 0.3000
2793.518906 0.3000 0.3000 0.3000 0.3000 0.3000
2797.785124 0.3000 0.3000 0.3000 0.3000 0.3000
2802.051341 0.2995 0.2990 0.2985 0.2979 0.2969
2806.317558 0.2960 0.2955 0.2950 0.2945 0.2939
2810.583775 0.2929 0.2919 0.2909 0.2899 0.2889
2814.849993 0.2880 0.2880 0.2880 0.2875 0.2869
2819.116210 0.2854 0.2839 0.2829 0.2819 0.2809
2823.382427 0.2798 0.2773 0.2750 0.2750 0.2750
2827.648645 0.2745 0.2740 0.2740 0.2739 0.2729
2831.914862 0.2719 0.2709 0.2699 0.2683 0.2668
2836.181079 0.2653 0.2639 0.2634 0.2629 0.2624
2840.447297 0.2619 0.2609 0.2600 0.2600 0.2599
2844.713514 0.2589 0.2579 0.2569 0.2559 0.2554
2848.979731 0.2549 0.2544 0.2538 0.2517 0.2499
2853.245948 0.2489 0.2478 0.2463 0.2450 0.2450
2857.512166 0.2449 0.2444 0.2439 0.2434 0.2427
2861.778383 0.2407 0.2390 0.2390 0.2389 0.2379
2866.044600 0.2369 0.2364 0.2360 0.2360 0.2357
2870.310818 0.2337 0.2320 0.2320 0.2318 0.2303
2874.577035 0.2289 0.2284 0.2279 0.2274 0.2268
2878.843252 0.2258 0.2249 0.2244 0.2240 0.2240
2883.109470 0.2239 0.2234 0.2230 0.2230 0.2228
2887.375687 0.2218 0.2210 0.2210 0.2208 0.2198
2891.641904 0.2190 0.2190 0.2190 0.2190 0.2190
2895.908121 0.2190 0.2191 0.2196 0.2200 0.2200
2900.174339 0.2200 0.2200 0.2200 0.2200 0.2200
2904.440556 0.2200 0.2200 0.2200 0.2201 0.2206
2908.706773 0.2210 0.2210 0.2210 0.2210 0.2210
2912.972991 0.2210 0.2209 0.2204 0.2200 0.2200
2917.239208 0.2197 0.2182 0.2166 0.2146 0.2129
2921.505425 0.2124 0.2117 0.2102 0.2089 0.2084
2925.771643 0.2077 0.2062 0.2045 0.2025 0.2008
2930.037860 0.1998 0.1988 0.1978 0.1961 0.1921
2934.304077 0.1889 0.1884 0.1879 0.1874 0.1871
2938.570294 0.1876 0.1884 0.1899 0.1915 0.1935
2942.836512 0.1955 0.1975 0.1991 0.1996 0.2001
2947.102729 0.2006 0.2018 0.2048 0.2071 0.2076
2951.368946 0.2081 0.2086 0.2090 0.2090 0.2094
2955.635164 0.2109 0.2120 0.2120 0.2126 0.2146
2959.901381 0.2160 0.2160 0.2164 0.2179 0.2191
2964.167598 0.2196 0.2201 0.2206 0.2213 0.2223
2968.433816 0.2233 0.2243 0.2250 0.2250 0.2250
2972.700033 0.2250 0.2253 0.2263 0.2270 0.2270
2976.966250 0.2270 0.2270 0.2272 0.2277 0.2280
2981.232467 0.2280 0.2280 0.2280 0.2280 0.2280
2985.498685 0.2280 0.2280 0.2280 0.2280 0.2280
2989.764902 0.2280 0.2280 0.2280 0.2280 0.2280
2994.031119 0.2280 0.2280 0.2280 0.2280 0.2280
2998.297337 0.2280 0.2280 0.2280 0.2280 0.2280
3002.563554 0.2282 0.2287 0.2290 0.2290 0.2293
3006.829771 0.2303 0.2312 0.2317 0.2320 0.2320
3011.095989 0.2322 0.2327 0.2333 0.2343 0.2350
3015.362206 0.2350 0.2352 0.2357 0.2360 0.2360
3019.628423 0.2360 0.2360 0.2360 0.2360 0.2360
3023.894641 0.2360 0.2360 0.2360 0.2360 0.2360
3028.160858 0.2360 0.2360 0.2360 0.2360 0.2360
3032.427075 0.2360 0.2360 0.2360 0.2358 0.2353
3036.693292 0.2350 0.2350 0.2350 0.2350 0.2350
3040.959510 0.2350 0.2350 0.2350 0.2352 0.2357
3045.225727 0.2360 0.2360 0.2362 0.2367 0.2370
3049.491944 0.2370 0.2370 0.2370 0.2374 0.2384
3053.758162 0.2390 0.2390 0.2392 0.2397 0.2402
3058.024379 0.2407 0.2416 0.2431 0.2442 0.2447
3062.290596 0.2454 0.2464 0.2476 0.2491 0.2500
3066.556814 0.2500 0.2502 0.2507 0.2518 0.2538
3070.823031 0.2552 0.2557 0.2564 0.2574 0.2582
3075.089248 0.2587 0.2590 0.2590 0.2597 0.2612
3079.355465 0.2629 0.2649 0.2660 0.2660 0.2664
3083.621683 0.2674 0.2680 0.2680 0.2687 0.2702
3087.887900 0.2712 0.2717 0.2724 0.2735 0.2749
3092.154117 0.2769 0.2782 0.2787 0.2792 0.2797
3096.420335 0.2800 0.2800 0.2805 0.2815 0.2825
3100.686552 0.2835 0.2840 0.2840 0.2845 0.2855
3104.952769 0.2865 0.2875 0.2885 0.2895 0.2902
3109.218987 0.2907 0.2917 0.2932 0.2945 0.2955
3113.485204 0.2965 0.2975 0.2985 0.2995 0.3015
3117.751421 0.3045 0.3065 0.3075 0.3087 0.3102
3122.017638 0.3112 0.3117 0.3125 0.3135 0.3145
3126.283856 0.3155 0.3175 0.3205 0.3225 0.3235
3130.550073 0.3255 0.3285 0.3313 0.3338 0.3358
3134.816290 0.3373 0.3383 0.3388 0.3408 0.3443
3139.082508 0.3465 0.3475 0.3485 0.3495 0.3505
3143.348725 0.3515 0.3528 0.3543 0.3553 0.3558
3147.614942 0.3576 0.3606 0.3636 0.3666 0.3696
3151.881160 0.3726 0.3759 0.3794 0.3813 0.3818
3156.147377 0.3828 0.3843 0.3855 0.3865 0.3881
3160.413594 0.3901 0.3921 0.3941 0.3958 0.3973
3164.679811 0.3980 0.3980 0.3991 0.4011 0.4028
3168.946029 0.4043 0.4061 0.4081 0.4101 0.4121
3173.212246 0.4141 0.4161 0.4173 0.4178 0.4183
3177.478463 0.4188 0.4210 0.4245 0.4271 0.4291
3181.744681 0.4309 0.4324 0.4336 0.4346 0.4359
3186.010898 0.4374 0.4392 0.4412 0.4432 0.4452
3190.277115 0.4463 0.4468 0.4487 0.4518 0.4542
3194.543333 0.4562 0.4573 0.4578 0.4592 0.4612
3198.809550 0.4629 0.4644 0.4665 0.4690 0.4715
3203.075767 0.4740 0.4762 0.4782 0.4790 0.4790
3207.341984 0.4796 0.4806 0.4828 0.4858 0.4879
3211.608202 0.4894 0.4903 0.4908 0.4919 0.4934
3215.874419 0.4952 0.4972 0.5002 0.5037 0.5066
3220.140636 0.5091 0.5112 0.5132 0.5140 0.5140
3224.406854 0.5162 0.5197 0.5219 0.5235 0.5243
3228.673071 0.5248 0.5266 0.5291 0.5322 0.5357
3232.939288 0.5373 0.5378 0.5399 0.5429 0.5453
3237.205506 0.5473 0.5496 0.5521 0.5553 0.5588
3241.471723 0.5613 0.5633 0.5643 0.5648 0.5673
3245.737940 0.5708 0.5727 0.5737 0.5763 0.5798
3250.004157 0.5833 0.5868 0.5887 0.5897 0.5907
3254.270375 0.5917 0.5927 0.5937 0.5960 0.5990
3258.536592 0.6020 0.6050 0.6084 0.6119 0.6157
3262.802809 0.6197 0.6224 0.6244 0.6260 0.6275
3267.069027 0.6283 0.6288 0.6304 0.6324 0.6358
3271.335244 0.6398 0.6434 0.6469 0.6490 0.6505
3275.601461 0.6531 0.6561 0.6577 0.6587 0.6604
3279.867679 0.6624 0.6648 0.6673 0.6694 0.6714
3284.133896 0.6734 0.6754 0.6774 0.6794 0.6818
3288.400113 0.6843 0.6871 0.6901 0.6924 0.6944
3292.666331 0.6968 0.6993 0.7014 0.7035 0.7051
3296.932548 0.7066 0.7085 0.7105 0.7139 0.7179
3301.198765 0.7219 0.7259 0.7277 0.7287 0.7316
3305.464982 0.7351 0.7364 0.7369 0.7381 0.7396
3309.731200 0.7411 0.7426 0.7456 0.7491 0.7519
3313.997417 0.7544 0.7561 0.7576 0.7584 0.7589
3318.263634 0.7601 0.7616 0.7628 0.7638 0.7655
3322.529852 0.7675 0.7695 0.7715 0.7728 0.7738
3326.796069 0.7744 0.7749 0.7761 0.7777 0.7784
3331.062286 0.7789 0.7802 0.7817 0.7824 0.7829
3335.328504 0.7830 0.7830 0.7842 0.7857 0.7864
3339.594721 0.7869 0.7890 0.7915 0.7932 0.7947
3343.860938 0.7954 0.7959 0.7968 0.7978 0.7988
3348.127155 0.7998 0.8016 0.8036 0.8068 0.8103
3352.393373 0.8126 0.8146 0.8170 0.8195 0.8232
3356.659590 0.8272 0.8280 0.8280 0.8320 0.8370
3360.925807 0.8404 0.8434 0.8464 0.8495 0.8508
3365.192025 0.8518 0.8536 0.8556 0.8576 0.8596
3369.458242 0.8625 0.8655 0.8685 0.8715 0.8741
3373.724459 0.8766 0.8778 0.8788 0.8802 0.8817
3377.990677 0.8832 0.8847 0.8867 0.8887 0.8907
3382.256894 0.8927 0.8934 0.8939 0.8944 0.8949
3386.523111 0.8967 0.8987 0.9015 0.9045 0.9058
3390.789328 0.9068 0.9083 0.9098 0.9104 0.9109
3395.055546 0.9118 0.9128 0.9134 0.9139 0.9144
3399.321763 0.9149 0.9167 0.9187 0.9203 0.9218
3403.587980 0.9224 0.9229 0.9243 0.9258 0.9264
3407.854198 0.9269 0.9279 0.9289 0.9294 0.9299
3412.120415 0.9304 0.9309 0.9310 0.9310 0.9319
3416.386632 0.9329 0.9334 0.9339 0.9340 0.9340
3420.652850 0.9344 0.9349 0.9350 0.9350 0.9359
3424.919067 0.9369 0.9370 0.9370 0.9379 0.9389
3429.185284 0.9403 0.9418 0.9425 0.9430 0.9430
3433.451501 0.9430 0.9439 0.9449 0.9450 0.9450
3437.717719 0.9455 0.9460 0.9460 0.9460 0.9474
3441.983936 0.9489 0.9495 0.9500 0.9505 0.9510
3446.250153 0.9510 0.9510 0.9519 0.9529 0.9530
3450.516371 0.9530 0.9530 0.9530 0.9535 0.9540
3454.782588 0.9540 0.9540 0.9540 0.9540 0.9540
3459.048805 0.9540 0.9540 0.9540 0.9540 0.9540
3463.315023 0.9540 0.9540 0.9540 0.9540 0.9540
3467.581240 0.9540 0.9545 0.9550 0.9550 0.9550
3471.847457 0.9550 0.9550 0.9550 0.9550 0.9550
3476.113674 0.9550 0.9550 0.9550 0.9550 0.9550
3480.379892 0.9550 0.9550 0.9550 0.9550 0.9550
3484.646109 0.9550 0.9550 0.9550 0.9550 0.9550
3488.912326 0.9550 0.9550 0.9550 0.9550 0.9550
3493.178544 0.9550 0.9550 0.9550 0.9550 0.9550
3497.444761 0.9550 0.9550 0.9545 0.9540 0.9540
3501.710978 0.9540 0.9540 0.9540 0.9540 0.9540
3505.977196 0.9540 0.9540 0.9540 0.9540 0.9535
3510.243413 0.9530 0.9530 0.9530 0.9530 0.9530
3514.509630 0.9530 0.9530 0.9530 0.9530 0.9530
3518.775848 0.9530 0.9530 0.9530 0.9530 0.9530
3523.042065 0.9530 0.9530 0.9530 0.9530 0.9530
3527.308282 0.9530 0.9520 0.9510 0.9510 0.9510
3531.574499 0.9510 0.9510 0.9510 0.9510 0.9510
3535.840717 0.9510 0.9510 0.9510 0.9505 0.9500
3540.106934 0.9500 0.9500 0.9495 0.9490 0.9490
3544.373151 0.9490 0.9490 0.9490 0.9490 0.9490
3548.639369 0.9490 0.9489 0.9479 0.9470 0.9465
3552.905586 0.9460 0.9460 0.9460 0.9460 0.9460
3557.171803 0.9460 0.9460 0.9455 0.9449 0.9439
3561.438021 0.9430 0.9430 0.9431 0.9441 0.9450
3565.704238 0.9450 0.9450 0.9450 0.9449 0.9439
3569.970455 0.9430 0.9425 0.9420 0.9420 0.9420
3574.236672 0.9420 0.9420 0.9420 0.9420 0.9420
3578.502890 0.9420 0.9420 0.9420 0.9415 0.9409
3582.769107 0.9399 0.9390 0.9390 0.9389 0.9384
3587.035324 0.9380 0.9380 0.9380 0.9380 0.9380
3591.301542 0.9380 0.9379 0.9374 0.9370 0.9370
3595.567759 0.9370 0.9370 0.9369 0.9359 0.9350
3599.833976 0.9350 0.9349 0.9344 0.9340 0.9340
3604.100194 0.9339 0.9334 0.9330 0.9330 0.9330
3608.366411 0.9330 0.9329 0.9319 0.9310 0.9310
3612.632628 0.9309 0.9299 0.9290 0.9290 0.9290
3616.898845 0.9290 0.9290 0.9290 0.9288 0.9278
3621.165063 0.9269 0.9264 0.9260 0.9260 0.9260
3625.431280 0.9260 0.9260 0.9260 0.9261 0.9266
3629.697497 0.9270 0.9270 0.9269 0.9264 0.9260
3633.963715 0.9260 0.9259 0.9254 0.9248 0.9238
3638.229932 0.9228 0.9218 0.9208 0.9198 0.9190
3642.496149 0.9190 0.9189 0.9184 0.9180 0.9180
3646.762367 0.9180 0.9180 0.9180 0.9180 0.9179
3651.028584 0.9174 0.9168 0.9158 0.9149 0.9144
3655.294801 0.9140 0.9140 0.9140 0.9140 0.9139
3659.561018 0.9134 0.9130 0.9130 0.9130 0.9130
3663.827236 0.9130 0.9130 0.9130 0.9130 0.9130
3668.093453 0.9130 0.9130 0.9130 0.9128 0.9118
3672.359670 0.9109 0.9104 0.9100 0.9100 0.9099
3676.625888 0.9094 0.9090 0.9090 0.9090 0.9090
3680.892105 0.9088 0.9078 0.9070 0.9070 0.9070
3685.158322 0.9070 0.9069 0.9064 0.9060 0.9060
3689.424540 0.9060 0.9060 0.9060 0.9060 0.9059
3693.690757 0.9054 0.9050 0.9050 0.9050 0.9050
3697.956974 0.9047 0.9037 0.9029 0.9024 0.9019
3702.223191 0.9014 0.9007 0.8997 0.8990 0.8990
3706.489409 0.8989 0.8984 0.8979 0.8974 0.8970
3710.755626 0.8970 0.8970 0.8970 0.8970 0.8970
3715.021843 0.8967 0.8957 0.8950 0.8950 0.8949
3719.288061 0.8944 0.8939 0.8934 0.8930 0.8930
3723.554278 0.8927 0.8917 0.8910 0.8910 0.8910
3727.820495 0.8910 0.8908 0.8903 0.8900 0.8900
3732.086713 0.8900 0.8900 0.8900 0.8900 0.8898
3736.352930 0.8893 0.8890 0.8890 0.8890 0.8890
3740.619147 0.8890 0.8890 0.8890 0.8890 0.8887
3744.885364 0.8877 0.8870 0.8870 0.8870 0.8870
3749.151582 0.8870 0.8870 0.8868 0.8863 0.8858
3753.417799 0.8853 0.8850 0.8850 0.8850 0.8850
3757.684016 0.8845 0.8830 0.8818 0.8813 0.8807
3761.950234 0.8797 0.8790 0.8790 0.8790 0.8790
3766.216451 0.8790 0.8790 0.8788 0.8783 0.8778
3770.482668 0.8773 0.8766 0.8756 0.8748 0.8743
3774.748886 0.8740 0.8740 0.8736 0.8726 0.8718
3779.015103 0.8713 0.8710 0.8710 0.8710 0.8710
3783.281320 0.8708 0.8703 0.8700 0.8700 0.8700
3787.547538 0.8700 0.8700 0.8700 0.8700 0.8700
##END=
