##TITLE=Cyclohexane
##JCAMP-DX=4.24
$$ By DXEDIT 1.05 (RS McDonald)
##DATA TYPE=INFRARED SPECTRUM
##CLASS=COBLENTZ II
##ORIGIN=DOW CHEMICAL COMPANY
##OWNER=COPYRIGHT (C) 1988 by COBLENTZ SOCIETY INC.
Collection (C) 2018 copyright by the U.S. Secretary of Commerce
on behalf of the United States of America. All rights reserved.
##DATE=1969/05/08
##CAS REGISTRY NO=110-82-7
##MOLFORM=C6 H12
##BP=80.7 C AT 760 mmHg
##SOURCE REFERENCE=COBLENTZ NO. 06046
##$NIST SOURCE=COBLENTZ
##$NIST IMAGE=cob6046
##SPECTROMETER/DATA SYSTEM=DOW KBr FOREPRISM-GRATING
##INSTRUMENT PARAMETERS=BLAZED AT 3.5, 12.0, 20.0 MICRON AND CHANGED AT 5.0, 7.5, 14.9 MICRON
##STATE=SOLUTION (10% CCl4 FOR 3800-1350, AND 10% CS2 FOR 1350-400 CM^-^1)
##PATH LENGTH=0.011 CM, 0.011 CM
##SAMPLING PROCEDURE=TRANSMISSION
##RESOLUTION=2
##DATA PROCESSING=DIGITIZED BY COBLENTZ SOCIETY (BATCH I) FROM HARD COPY
##XUNITS=1/CM
##YUNITS=TRANSMITTANCE
##XFACTOR=1
##YFACTOR=1
##DELTAX=1
##FIRSTX=3800
##LASTX=391
##FIRSTY=0.8674
##MAXX=3800
##MINX=391
##MAXY=0.8994
##MINY=0.007
##NPOINTS=3410
##XYDATA=(X++(Y..Y))
3800.000000 0.8674 0.8674 0.8674 0.8675 0.8675
3795.000000 0.8677 0.8678 0.8678 0.8678 0.8680
3790.000000 0.8681 0.8682 0.8683 0.8684 0.8685
3785.000000 0.8686 0.8687 0.8687 0.8688 0.8689
3780.000000 0.8690 0.8691 0.8692 0.8693 0.8694
3775.000000 0.8694 0.8695 0.8696 0.8697 0.8698
3770.000000 0.8699 0.8699 0.8700 0.8700 0.8700
3765.000000 0.8700 0.8701 0.8697 0.8693 0.8687
3760.000000 0.8682 0.8675 0.8670 0.8664 0.8659
3755.000000 0.8658 0.8658 0.8658 0.8661 0.8663
3750.000000 0.8666 0.8668 0.8671 0.8675 0.8680
3745.000000 0.8688 0.8696 0.8704 0.8712 0.8718
3740.000000 0.8725 0.8721 0.8718 0.8715 0.8712
3735.000000 0.8709 0.8706 0.8702 0.8699 0.8696
3730.000000 0.8693 0.8690 0.8687 0.8684 0.8682
3725.000000 0.8678 0.8677 0.8674 0.8671 0.8668
3720.000000 0.8667 0.8664 0.8661 0.8658 0.8656
3715.000000 0.8653 0.8653 0.8652 0.8653 0.8654
3710.000000 0.8655 0.8656 0.8657 0.8658 0.8659
3705.000000 0.8660 0.8661 0.8663 0.8665 0.8668
3700.000000 0.8671 0.8675 0.8680 0.8683 0.8687
3695.000000 0.8691 0.8695 0.8698 0.8702 0.8706
3690.000000 0.8710 0.8713 0.8717 0.8721 0.8725
3685.000000 0.8727 0.8730 0.8732 0.8734 0.8736
3680.000000 0.8738 0.8740 0.8742 0.8744 0.8746
3675.000000 0.8748 0.8751 0.8753 0.8755 0.8757
3670.000000 0.8759 0.8761 0.8761 0.8762 0.8762
3665.000000 0.8761 0.8760 0.8759 0.8759 0.8758
3660.000000 0.8758 0.8757 0.8757 0.8756 0.8755
3655.000000 0.8753 0.8752 0.8750 0.8748 0.8746
3650.000000 0.8744 0.8742 0.8740 0.8738 0.8736
3645.000000 0.8734 0.8732 0.8728 0.8727 0.8721
3640.000000 0.8718 0.8713 0.8708 0.8703 0.8704
3635.000000 0.8704 0.8710 0.8715 0.8721 0.8727
3630.000000 0.8733 0.8739 0.8745 0.8750 0.8756
3625.000000 0.8758 0.8761 0.8763 0.8766 0.8768
3620.000000 0.8771 0.8773 0.8775 0.8778 0.8780
3615.000000 0.8782 0.8785 0.8787 0.8789 0.8789
3610.000000 0.8789 0.8789 0.8789 0.8789 0.8789
3605.000000 0.8789 0.8789 0.8789 0.8789 0.8789
3600.000000 0.8789 0.8789 0.8789 0.8789 0.8789
3595.000000 0.8789 0.8789 0.8788 0.8788 0.8788
3590.000000 0.8788 0.8788 0.8788 0.8788 0.8788
3585.000000 0.8788 0.8788 0.8788 0.8788 0.8788
3580.000000 0.8788 0.8788 0.8788 0.8788 0.8788
3575.000000 0.8788 0.8788 0.8787 0.8787 0.8787
3570.000000 0.8787 0.8787 0.8787 0.8787 0.8787
3565.000000 0.8787 0.8787 0.8787 0.8787 0.8789
3560.000000 0.8792 0.8794 0.8797 0.8800 0.8803
3555.000000 0.8805 0.8808 0.8810 0.8813 0.8815
3550.000000 0.8818 0.8820 0.8823 0.8825 0.8828
3545.000000 0.8831 0.8834 0.8836 0.8838 0.8839
3540.000000 0.8840 0.8841 0.8842 0.8843 0.8845
3535.000000 0.8846 0.8847 0.8848 0.8849 0.8850
3530.000000 0.8851 0.8852 0.8853 0.8854 0.8873
3525.000000 0.8857 0.8858 0.8859 0.8860 0.8861
3520.000000 0.8862 0.8863 0.8864 0.8865 0.8867
3515.000000 0.8868 0.8868 0.8870 0.8871 0.8871
3510.000000 0.8873 0.8873 0.8873 0.8873 0.8873
3505.000000 0.8873 0.8874 0.8874 0.8874 0.8874
3500.000000 0.8874 0.8874 0.8874 0.8874 0.8875
3495.000000 0.8875 0.8875 0.8875 0.8875 0.8874
3490.000000 0.8874 0.8871 0.8871 0.8868 0.8868
3485.000000 0.8866 0.8865 0.8863 0.8861 0.8859
3480.000000 0.8858 0.8856 0.8855 0.8853 0.8852
3475.000000 0.8850 0.8849 0.8844 0.8839 0.8834
3470.000000 0.8830 0.8825 0.8821 0.8816 0.8812
3465.000000 0.8807 0.8803 0.8798 0.8794 0.8789
3460.000000 0.8784 0.8778 0.8775 0.8770 0.8765
3455.000000 0.8760 0.8755 0.8750 0.8746 0.8741
3450.000000 0.8736 0.8731 0.8725 0.8721 0.8717
3445.000000 0.8713 0.8709 0.8704 0.8700 0.8696
3440.000000 0.8692 0.8688 0.8687 0.8686 0.8670
3435.000000 0.8695 0.8701 0.8707 0.8713 0.8718
3430.000000 0.8725 0.8731 0.8737 0.8743 0.8749
3425.000000 0.8754 0.8759 0.8762 0.8766 0.8768
3420.000000 0.8771 0.8775 0.8778 0.8781 0.8785
3415.000000 0.8788 0.8791 0.8794 0.8797 0.8800
3410.000000 0.8803 0.8806 0.8810 0.8813 0.8816
3405.000000 0.8816 0.8817 0.8817 0.8818 0.8818
3400.000000 0.8818 0.8818 0.8820 0.8820 0.8821
3395.000000 0.8821 0.8821 0.8821 0.8823 0.8823
3390.000000 0.8824 0.8824 0.8825 0.8825 0.8825
3385.000000 0.8825 0.8827 0.8827 0.8828 0.8828
3380.000000 0.8828 0.8828 0.8828 0.8828 0.8830
3375.000000 0.8830 0.8831 0.8831 0.8832 0.8832
3370.000000 0.8832 0.8831 0.8830 0.8828 0.8828
3365.000000 0.8827 0.8825 0.8825 0.8825 0.8825
3360.000000 0.8827 0.8828 0.8828 0.8830 0.8832
3355.000000 0.8833 0.8835 0.8836 0.8837 0.8838
3350.000000 0.8840 0.8840 0.8840 0.8840 0.8839
3345.000000 0.8837 0.8836 0.8834 0.8833 0.8831
3340.000000 0.8830 0.8828 0.8827 0.8825 0.8824
3335.000000 0.8821 0.8821 0.8820 0.8818 0.8818
3330.000000 0.8818 0.8818 0.8818 0.8818 0.8818
3325.000000 0.8818 0.8818 0.8818 0.8818 0.8818
3320.000000 0.8818 0.8818 0.8818 0.8818 0.8818
3315.000000 0.8818 0.8818 0.8820 0.8821 0.8821
3310.000000 0.8821 0.8821 0.8823 0.8824 0.8825
3305.000000 0.8825 0.8825 0.8827 0.8828 0.8828
3300.000000 0.8828 0.8830 0.8831 0.8831 0.8832
3295.000000 0.8833 0.8834 0.8834 0.8835 0.8836
3290.000000 0.8837 0.8837 0.8838 0.8839 0.8840
3285.000000 0.8841 0.8842 0.8843 0.8844 0.8845
3280.000000 0.8846 0.8847 0.8848 0.8849 0.8850
3275.000000 0.8851 0.8853 0.8854 0.8855 0.8856
3270.000000 0.8857 0.8858 0.8859 0.8860 0.8861
3265.000000 0.8862 0.8863 0.8864 0.8865 0.8866
3260.000000 0.8867 0.8868 0.8868 0.8868 0.8870
3255.000000 0.8871 0.8871 0.8873 0.8874 0.8874
3250.000000 0.8875 0.8875 0.8877 0.8878 0.8878
3245.000000 0.8878 0.8880 0.8881 0.8882 0.8883
3240.000000 0.8884 0.8884 0.8885 0.8886 0.8887
3235.000000 0.8887 0.8888 0.8888 0.8888 0.8888
3230.000000 0.8889 0.8889 0.8889 0.8889 0.8889
3225.000000 0.8889 0.8889 0.8889 0.8890 0.8890
3220.000000 0.8890 0.8890 0.8890 0.8890 0.8890
3215.000000 0.8889 0.8889 0.8888 0.8887 0.8886
3210.000000 0.8885 0.8884 0.8883 0.8882 0.8881
3205.000000 0.8880 0.8878 0.8875 0.8874 0.8870
3200.000000 0.8867 0.8862 0.8858 0.8851 0.8844
3195.000000 0.8837 0.8830 0.8823 0.8817 0.8810
3190.000000 0.8803 0.8796 0.8790 0.8783 0.8777
3185.000000 0.8770 0.8764 0.8757 0.8751 0.8745
3180.000000 0.8739 0.8732 0.8725 0.8716 0.8706
3175.000000 0.8695 0.8684 0.8671 0.8661 0.8650
3170.000000 0.8639 0.8627 0.8616 0.8604 0.8593
3165.000000 0.8581 0.8568 0.8557 0.8546 0.8539
3160.000000 0.8533 0.8528 0.8525 0.8525 0.8525
3155.000000 0.8525 0.8525 0.8527 0.8528 0.8540
3150.000000 0.8552 0.8568 0.8585 0.8601 0.8617
3145.000000 0.8630 0.8644 0.8657 0.8671 0.8684
3140.000000 0.8697 0.8709 0.8721 0.8728 0.8735
3135.000000 0.8742 0.8750 0.8757 0.8764 0.8771
3130.000000 0.8778 0.8786 0.8793 0.8794 0.8796
3125.000000 0.8797 0.8798 0.8799 0.8800 0.8801
3120.000000 0.8803 0.8804 0.8805 0.8806 0.8806
3115.000000 0.8806 0.8806 0.8804 0.8803 0.8801
3110.000000 0.8800 0.8799 0.8798 0.8793 0.8789
3105.000000 0.8782 0.8775 0.8765 0.8754 0.8743
3100.000000 0.8732 0.8718 0.8707 0.8699 0.8696
3095.000000 0.8688 0.8689 0.8689 0.8692 0.8696
3090.000000 0.8701 0.8705 0.8710 0.8717 0.8725
3085.000000 0.8732 0.8740 0.8746 0.8753 0.8756
3080.000000 0.8760 0.8763 0.8791 0.8770 0.8774
3075.000000 0.8775 0.8775 0.8775 0.8775 0.8775
3070.000000 0.8775 0.8774 0.8773 0.8768 0.8765
3065.000000 0.8761 0.8758 0.8754 0.8750 0.8744
3060.000000 0.8739 0.8732 0.8725 0.8718 0.8711
3055.000000 0.8704 0.8697 0.8689 0.8681 0.8671
3050.000000 0.8663 0.8654 0.8645 0.8636 0.8627
3045.000000 0.8618 0.8609 0.8598 0.8588 0.8575
3040.000000 0.8562 0.8548 0.8535 0.8521 0.8508
3035.000000 0.8495 0.8482 0.8468 0.8455 0.8440
3030.000000 0.8425 0.8407 0.8389 0.8371 0.8354
3025.000000 0.8336 0.8318 0.8300 0.8282 0.8259
3020.000000 0.8236 0.8211 0.8186 0.8161 0.8136
3015.000000 0.8112 0.8091 0.8071 0.8053 0.8034
3010.000000 0.8015 0.7996 0.7976 0.7951 0.7925
3005.000000 0.7895 0.7865 0.7834 0.7803 0.7758
3000.000000 0.7712 0.7662 0.7612 0.7562 0.7514
2995.000000 0.7465 0.7417 0.7117 0.6818 0.6471
2990.000000 0.6125 0.6007 0.5889 0.5799 0.5709
2985.000000 0.5407 0.5106 0.5037 0.4968 0.4899
2980.000000 0.4830 0.4767 0.4705 0.4643 0.4582
2975.000000 0.4469 0.4356 0.4016 0.3679 0.3539
2970.000000 0.3399 0.3258 0.3118 0.2977 0.2837
2965.000000 0.2697 0.2557 0.2416 0.2276 0.2135
2960.000000 0.1995 0.1854 0.1715 0.1574 0.1434
2955.000000 0.1294 0.1154 0.1013 0.0872 0.0732
2950.000000 0.0592 0.0452 0.0312 0.0197 0.0082
2945.000000 0.0082 0.0083 0.0083 0.0084 0.0084
2940.000000 0.0084 0.0084 0.0084 0.0083 0.0083
2935.000000 0.0082 0.0082 0.0081 0.0080 0.0079
2930.000000 0.0079 0.0078 0.0078 0.0078 0.0078
2925.000000 0.0078 0.0077 0.0080 0.0081 0.0081
2920.000000 0.0082 0.0083 0.0084 0.0084 0.0085
2915.000000 0.0085 0.0085 0.0085 0.0086 0.0086
2910.000000 0.0087 0.0088 0.0090 0.0091 0.0093
2905.000000 0.0093 0.0094 0.0207 0.0321 0.0516
2900.000000 0.0712 0.0908 0.1104 0.1300 0.1496
2895.000000 0.1691 0.1886 0.2083 0.2279 0.2475
2890.000000 0.2671 0.2750 0.2830 0.2831 0.2862
2885.000000 0.2834 0.2834 0.2824 0.2813 0.2734
2880.000000 0.2656 0.2578 0.2500 0.2421 0.2343
2875.000000 0.2266 0.2190 0.2182 0.2174 0.2166
2870.000000 0.2159 0.2151 0.2144 0.1911 0.1679
2865.000000 0.1416 0.1154 0.0891 0.0629 0.0366
2860.000000 0.0104 0.0089 0.0074 0.0072 0.0071
2855.000000 0.0070 0.0070 0.0160 0.0250 0.0553
2850.000000 0.0856 0.1159 0.1462 0.1765 0.2068
2845.000000 0.2371 0.2674 0.2977 0.3280 0.3582
2840.000000 0.3886 0.4704 0.5522 0.5605 0.5688
2835.000000 0.5771 0.5854 0.5937 0.6020 0.6102
2830.000000 0.6185 0.6267 0.6350 0.6397 0.6445
2825.000000 0.6491 0.6538 0.6574 0.6611 0.6642
2820.000000 0.6672 0.6767 0.6861 0.6998 0.7134
2815.000000 0.7269 0.7406 0.7431 0.7487 0.7458
2810.000000 0.7461 0.7462 0.7465 0.7433 0.7401
2805.000000 0.7165 0.6931 0.6696 0.6461 0.6226
2800.000000 0.5810 0.5891 0.5792 0.5809 0.5826
2795.000000 0.6003 0.6180 0.6419 0.6660 0.6900
2790.000000 0.7140 0.7354 0.7568 0.7615 0.7661
2785.000000 0.7691 0.7719 0.7758 0.7799 0.7872
2780.000000 0.7947 0.8037 0.8126 0.8184 0.8241
2775.000000 0.8283 0.8325 0.8360 0.8396 0.8418
2770.000000 0.8443 0.8462 0.8481 0.8495 0.8509
2765.000000 0.8521 0.8536 0.8547 0.8558 0.8565
2760.000000 0.8573 0.8581 0.8589 0.8597 0.8605
2755.000000 0.8611 0.8618 0.8624 0.8630 0.8635
2750.000000 0.8641 0.8647 0.8653 0.8658 0.8664
2745.000000 0.8667 0.8671 0.8673 0.8675 0.8678
2740.000000 0.8681 0.8683 0.8685 0.8686 0.8688
2735.000000 0.8690 0.8691 0.8691 0.8691 0.8690
2730.000000 0.8690 0.8689 0.8689 0.8685 0.8682
2725.000000 0.8675 0.8670 0.8658 0.8646 0.8630
2720.000000 0.8615 0.8585 0.8556 0.8533 0.8511
2715.000000 0.8496 0.8481 0.8468 0.8458 0.8448
2710.000000 0.8438 0.8430 0.8423 0.8404 0.8385
2705.000000 0.8289 0.8193 0.8097 0.8001 0.7906
2700.000000 0.7811 0.7740 0.7669 0.7665 0.7618
2695.000000 0.7656 0.7651 0.7682 0.7711 0.7789
2690.000000 0.7867 0.7944 0.8021 0.8078 0.8136
2685.000000 0.8145 0.8155 0.8164 0.8172 0.8178
2680.000000 0.8207 0.8188 0.8191 0.8124 0.8057
2675.000000 0.7730 0.7404 0.7076 0.6751 0.6424
2670.000000 0.6098 0.5771 0.5445 0.5412 0.5412
2665.000000 0.5398 0.5416 0.5677 0.5938 0.6199
2660.000000 0.6460 0.6721 0.6982 0.7243 0.7505
2655.000000 0.7743 0.7982 0.8168 0.8356 0.8406
2650.000000 0.8456 0.8488 0.8521 0.8551 0.8582
2645.000000 0.8603 0.8624 0.8633 0.8642 0.8650
2640.000000 0.8659 0.8664 0.8670 0.8671 0.8675
2635.000000 0.8675 0.8678 0.8678 0.8683 0.8683
2630.000000 0.8683 0.8674 0.8666 0.8654 0.8643
2625.000000 0.8618 0.8596 0.8448 0.8301 0.8005
2620.000000 0.7724 0.7710 0.7710 0.7789 0.7868
2615.000000 0.7951 0.8035 0.8064 0.8062 0.8061
2610.000000 0.8031 0.7994 0.7958 0.7924 0.7893
2605.000000 0.7901 0.7914 0.7933 0.7953 0.7990
2600.000000 0.8028 0.8151 0.8274 0.8366 0.8458
2595.000000 0.8496 0.8535 0.8563 0.8591 0.8611
2590.000000 0.8631 0.8644 0.8658 0.8670 0.8683
2585.000000 0.8690 0.8698 0.8705 0.8713 0.8720
2580.000000 0.8727 0.8734 0.8742 0.8748 0.8754
2575.000000 0.8759 0.8764 0.8766 0.8768 0.8768
2570.000000 0.8768 0.8768 0.8768 0.8758 0.8748
2565.000000 0.8736 0.8725 0.8717 0.8709 0.8702
2560.000000 0.8695 0.8690 0.8690 0.8690 0.8695
2555.000000 0.8699 0.8704 0.8710 0.8717 0.8725
2550.000000 0.8733 0.8741 0.8749 0.8757 0.8765
2545.000000 0.8767 0.8770 0.8771 0.8773 0.8774
2540.000000 0.8775 0.8777 0.8778 0.8780 0.8782
2535.000000 0.8783 0.8784 0.8785 0.8786 0.8786
2530.000000 0.8787 0.8788 0.8789 0.8789 0.8790
2525.000000 0.8790 0.8791 0.8792 0.8793 0.8793
2520.000000 0.8794 0.8794 0.8795 0.8798 0.8802
2515.000000 0.8806 0.8810 0.8814 0.8818 0.8821
2510.000000 0.8825 0.8824 0.8824 0.8824 0.8824
2505.000000 0.8824 0.8824 0.8824 0.8824 0.8821
2500.000000 0.8820 0.8805 0.8790 0.8775 0.8760
2495.000000 0.8745 0.8731 0.8712 0.8694 0.8675
2490.000000 0.8657 0.8638 0.8620 0.8616 0.8613
2485.000000 0.8630 0.8647 0.8664 0.8682 0.8699
2480.000000 0.8716 0.8733 0.8751 0.8764 0.8778
2475.000000 0.8783 0.8788 0.8793 0.8799 0.8804
2470.000000 0.8809 0.8814 0.8818 0.8824 0.8830
2465.000000 0.8830 0.8830 0.8830 0.8830 0.8830
2460.000000 0.8831 0.8831 0.8831 0.8831 0.8831
2455.000000 0.8831 0.8832 0.8832 0.8832 0.8832
2450.000000 0.8832 0.8831 0.8830 0.8825 0.8823
2445.000000 0.8818 0.8815 0.8811 0.8808 0.8804
2440.000000 0.8800 0.8796 0.8792 0.8787 0.8783
2435.000000 0.8778 0.8774 0.8768 0.8765 0.8760
2430.000000 0.8756 0.8751 0.8747 0.8742 0.8738
2425.000000 0.8735 0.8732 0.8731 0.8731 0.8731
2420.000000 0.8731 0.8731 0.8731 0.8731 0.8731
2415.000000 0.8731 0.8732 0.8735 0.8738 0.8740
2410.000000 0.8743 0.8746 0.8749 0.8751 0.8754
2405.000000 0.8757 0.8760 0.8762 0.8764 0.8765
2400.000000 0.8767 0.8768 0.8771 0.8773 0.8775
2395.000000 0.8775 0.8777 0.8774 0.8771 0.8768
2390.000000 0.8765 0.8762 0.8759 0.8756 0.8753
2385.000000 0.8751 0.8750 0.8748 0.8747 0.8746
2380.000000 0.8745 0.8743 0.8742 0.8741 0.8740
2375.000000 0.8738 0.8737 0.8740 0.8743 0.8748
2370.000000 0.8753 0.8758 0.8763 0.8768 0.8773
2365.000000 0.8777 0.8782 0.8787 0.8792 0.8796
2360.000000 0.8800 0.8804 0.8808 0.8812 0.8816
2355.000000 0.8820 0.8824 0.8828 0.8832 0.8836
2350.000000 0.8840 0.8844 0.8848 0.8851 0.8855
2345.000000 0.8857 0.8860 0.8862 0.8865 0.8867
2340.000000 0.8868 0.8871 0.8874 0.8875 0.8875
2335.000000 0.8875 0.8873 0.8871 0.8868 0.8866
2330.000000 0.8864 0.8862 0.8860 0.8858 0.8856
2325.000000 0.8851 0.8846 0.8841 0.8837 0.8832
2320.000000 0.8827 0.8817 0.8807 0.8793 0.8778
2315.000000 0.8764 0.8764 0.8765 0.8780 0.8789
2310.000000 0.8798 0.8807 0.8817 0.8825 0.8836
2305.000000 0.8839 0.8842 0.8836 0.8830 0.8821
2300.000000 0.8813 0.8803 0.8793 0.8799 0.8806
2295.000000 0.8818 0.8830 0.8839 0.8849 0.8853
2290.000000 0.8858 0.8862 0.8866 0.8870 0.8875
2285.000000 0.8878 0.8878 0.8878 0.8875 0.8871
2280.000000 0.8867 0.8863 0.8860 0.8856 0.8852
2275.000000 0.8848 0.8845 0.8837 0.8830 0.8820
2270.000000 0.8810 0.8799 0.8789 0.8778 0.8768
2265.000000 0.8758 0.8747 0.8735 0.8724 0.8713
2260.000000 0.8702 0.8708 0.8714 0.8724 0.8734
2255.000000 0.8739 0.8745 0.8748 0.8752 0.8755
2250.000000 0.8758 0.8761 0.8764 0.8767 0.8770
2245.000000 0.8773 0.8777 0.8778 0.8781 0.8783
2240.000000 0.8785 0.8787 0.8789 0.8791 0.8793
2235.000000 0.8795 0.8797 0.8799 0.8801 0.8801
2230.000000 0.8801 0.8801 0.8801 0.8800 0.8800
2225.000000 0.8799 0.8799 0.8795 0.8792 0.8786
2220.000000 0.8780 0.8774 0.8768 0.8768 0.8768
2215.000000 0.8777 0.8786 0.8794 0.8803 0.8808
2210.000000 0.8809 0.8810 0.8806 0.8802 0.8799
2205.000000 0.8795 0.8791 0.8787 0.8783 0.8775
2200.000000 0.8768 0.8757 0.8747 0.8736 0.8725
2195.000000 0.8714 0.8704 0.8711 0.8718 0.8727
2190.000000 0.8736 0.8739 0.8742 0.8745 0.8749
2185.000000 0.8752 0.8755 0.8758 0.8761 0.8764
2180.000000 0.8768 0.8771 0.8774 0.8775 0.8775
2175.000000 0.8775 0.8773 0.8771 0.8770 0.8768
2170.000000 0.8767 0.8763 0.8760 0.8755 0.8751
2165.000000 0.8750 0.8750 0.8750 0.8751 0.8752
2160.000000 0.8754 0.8755 0.8756 0.8757 0.8758
2155.000000 0.8761 0.8765 0.8768 0.8774 0.8778
2150.000000 0.8782 0.8786 0.8790 0.8794 0.8798
2145.000000 0.8802 0.8806 0.8809 0.8812 0.8815
2140.000000 0.8818 0.8821 0.8825 0.8828 0.8831
2135.000000 0.8834 0.8838 0.8841 0.8844 0.8847
2130.000000 0.8850 0.8852 0.8854 0.8855 0.8856
2125.000000 0.8857 0.8859 0.8860 0.8861 0.8862
2120.000000 0.8863 0.8864 0.8866 0.8867 0.8868
2115.000000 0.8868 0.8870 0.8871 0.8871 0.8873
2110.000000 0.8875 0.8875 0.8877 0.8878 0.8878
2105.000000 0.8880 0.8881 0.8882 0.8883 0.8884
2100.000000 0.8885 0.8886 0.8888 0.8889 0.8890
2095.000000 0.8890 0.8889 0.8889 0.8887 0.8885
2090.000000 0.8883 0.8881 0.8878 0.8870 0.8862
2085.000000 0.8853 0.8845 0.8836 0.8828 0.8818
2080.000000 0.8811 0.8802 0.8794 0.8790 0.8787
2075.000000 0.8786 0.8785 0.8784 0.8784 0.8786
2070.000000 0.8789 0.8792 0.8796 0.8800 0.8804
2065.000000 0.8808 0.8812 0.8815 0.8818 0.8823
2060.000000 0.8827 0.8831 0.8835 0.8837 0.8840
2055.000000 0.8842 0.8844 0.8845 0.8847 0.8849
2050.000000 0.8851 0.8853 0.8855 0.8857 0.8859
2045.000000 0.8860 0.8862 0.8864 0.8866 0.8867
2040.000000 0.8868 0.8868 0.8868 0.8868 0.8870
2035.000000 0.8870 0.8871 0.8871 0.8871 0.8871
2030.000000 0.8873 0.8874 0.8875 0.8875 0.8875
2025.000000 0.8875 0.8875 0.8875 0.8875 0.8875
2020.000000 0.8875 0.8875 0.8875 0.8874 0.8874
2015.000000 0.8873 0.8873 0.8873 0.8873 0.8871
2010.000000 0.8871 0.8870 0.8870 0.8868 0.8868
2005.000000 0.8867 0.8867 0.8866 0.8865 0.8857
2000.000000 0.8849 0.8838 0.8825 0.8815 0.8804
1995.000000 0.8795 0.8786 0.8777 0.8768 0.8767
1990.000000 0.8765 0.8764 0.8763 0.8762 0.8761
1985.000000 0.8761 0.8777 0.8792 0.8809 0.8825
1980.000000 0.8841 0.8857 0.8861 0.8859 0.8858
1975.000000 0.8856 0.8856 0.8855 0.8855 0.8855
1970.000000 0.8856 0.8856 0.8857 0.8857 0.8858
1965.000000 0.8859 0.8860 0.8861 0.8862 0.8863
1960.000000 0.8864 0.8865 0.8866 0.8867 0.8867
1955.000000 0.8868 0.8868 0.8870 0.8870 0.8871
1950.000000 0.8871 0.8873 0.8873 0.8874 0.8875
1945.000000 0.8875 0.8877 0.8877 0.8878 0.8878
1940.000000 0.8880 0.8881 0.8882 0.8883 0.8884
1935.000000 0.8885 0.8886 0.8887 0.8888 0.8889
1930.000000 0.8890 0.8891 0.8892 0.8893 0.8894
1925.000000 0.8894 0.8895 0.8895 0.8896 0.8896
1920.000000 0.8897 0.8897 0.8898 0.8898 0.8899
1915.000000 0.8899 0.8900 0.8900 0.8901 0.8901
1910.000000 0.8902 0.8902 0.8903 0.8904 0.8905
1905.000000 0.8906 0.8907 0.8908 0.8909 0.8910
1900.000000 0.8911 0.8912 0.8913 0.8914 0.8916
1895.000000 0.8916 0.8916 0.8916 0.8916 0.8916
1890.000000 0.8916 0.8915 0.8915 0.8915 0.8915
1885.000000 0.8914 0.8910 0.8906 0.8903 0.8899
1880.000000 0.8894 0.8887 0.8881 0.8875 0.8868
1875.000000 0.8859 0.8850 0.8843 0.8839 0.8836
1870.000000 0.8843 0.8850 0.8857 0.8864 0.8871
1865.000000 0.8878 0.8886 0.8889 0.8892 0.8894
1860.000000 0.8897 0.8899 0.8901 0.8904 0.8905
1855.000000 0.8905 0.8905 0.8905 0.8905 0.8906
1850.000000 0.8906 0.8907 0.8907 0.8907 0.8907
1845.000000 0.8907 0.8907 0.8907 0.8907 0.8907
1840.000000 0.8907 0.8907 0.8907 0.8907 0.8907
1835.000000 0.8907 0.8908 0.8908 0.8908 0.8909
1830.000000 0.8909 0.8909 0.8909 0.8909 0.8909
1825.000000 0.8909 0.8909 0.8909 0.8909 0.8908
1820.000000 0.8908 0.8908 0.8908 0.8908 0.8908
1815.000000 0.8908 0.8908 0.8908 0.8908 0.8909
1810.000000 0.8909 0.8909 0.8909 0.8909 0.8909
1805.000000 0.8910 0.8910 0.8910 0.8910 0.8911
1800.000000 0.8912 0.8913 0.8914 0.8915 0.8916
1795.000000 0.8917 0.8918 0.8918 0.8918 0.8918
1790.000000 0.8917 0.8915 0.8913 0.8912 0.8910
1785.000000 0.8909 0.8902 0.8894 0.8886 0.8877
1780.000000 0.8867 0.8856 0.8845 0.8835 0.8827
1775.000000 0.8820 0.8813 0.8807 0.8805 0.8809
1770.000000 0.8821 0.8833 0.8845 0.8857 0.8870
1765.000000 0.8882 0.8895 0.8903 0.8904 0.8905
1760.000000 0.8906 0.8907 0.8908 0.8909 0.8910
1755.000000 0.8910 0.8911 0.8912 0.8913 0.8914
1750.000000 0.8915 0.8916 0.8917 0.8918 0.8918
1745.000000 0.8920 0.8921 0.8921 0.8921 0.8923
1740.000000 0.8924 0.8925 0.8925 0.8927 0.8928
1735.000000 0.8928 0.8928 0.8930 0.8931 0.8932
1730.000000 0.8932 0.8932 0.8931 0.8931 0.8930
1725.000000 0.8930 0.8930 0.8928 0.8928 0.8928
1720.000000 0.8928 0.8928 0.8927 0.8927 0.8925
1715.000000 0.8925 0.8925 0.8924 0.8923 0.8923
1710.000000 0.8921 0.8921 0.8920 0.8920 0.8918
1705.000000 0.8918 0.8916 0.8914 0.8912 0.8910
1700.000000 0.8908 0.8906 0.8904 0.8902 0.8900
1695.000000 0.8893 0.8882 0.8870 0.8859 0.8847
1690.000000 0.8836 0.8825 0.8816 0.8807 0.8798
1685.000000 0.8791 0.8792 0.8793 0.8794 0.8794
1680.000000 0.8795 0.8796 0.8797 0.8797 0.8798
1675.000000 0.8799 0.8800 0.8801 0.8802 0.8803
1670.000000 0.8804 0.8805 0.8805 0.8806 0.8807
1665.000000 0.8808 0.8810 0.8811 0.8812 0.8813
1660.000000 0.8815 0.8816 0.8817 0.8818 0.8820
1655.000000 0.8821 0.8821 0.8823 0.8825 0.8825
1650.000000 0.8827 0.8828 0.8830 0.8832 0.8834
1645.000000 0.8835 0.8837 0.8839 0.8841 0.8842
1640.000000 0.8844 0.8846 0.8848 0.8849 0.8851
1635.000000 0.8853 0.8855 0.8856 0.8857 0.8857
1630.000000 0.8858 0.8859 0.8859 0.8860 0.8861
1625.000000 0.8861 0.8862 0.8863 0.8864 0.8864
1620.000000 0.8865 0.8866 0.8866 0.8867 0.8868
1615.000000 0.8868 0.8870 0.8871 0.8874 0.8875
1610.000000 0.8878 0.8880 0.8882 0.8884 0.8886
1605.000000 0.8888 0.8890 0.8892 0.8894 0.8896
1600.000000 0.8898 0.8900 0.8902 0.8904 0.8904
1595.000000 0.8905 0.8906 0.8907 0.8907 0.8908
1590.000000 0.8909 0.8909 0.8910 0.8911 0.8912
1585.000000 0.8912 0.8913 0.8914 0.8914 0.8915
1580.000000 0.8916 0.8917 0.8918 0.8918 0.8918
1575.000000 0.8920 0.8921 0.8921 0.8923 0.8924
1570.000000 0.8925 0.8925 0.8927 0.8927 0.8928
1565.000000 0.8928 0.8930 0.8931 0.8932 0.8933
1560.000000 0.8934 0.8935 0.8936 0.8940 0.8943
1555.000000 0.8947 0.8950 0.8954 0.8957 0.8961
1550.000000 0.8963 0.8964 0.8966 0.8968 0.8970
1545.000000 0.8971 0.8975 0.8978 0.8980 0.8983
1540.000000 0.8983 0.8983 0.8978 0.8975 0.8971
1535.000000 0.8967 0.8966 0.8965 0.8964 0.8962
1530.000000 0.8961 0.8960 0.8956 0.8947 0.8939
1525.000000 0.8932 0.8925 0.8918 0.8912 0.8900
1520.000000 0.8887 0.8871 0.8856 0.8840 0.8824
1515.000000 0.8808 0.8792 0.8775 0.8760 0.8744
1510.000000 0.8728 0.8712 0.8694 0.8677 0.8660
1505.000000 0.8643 0.8625 0.8609 0.8592 0.8574
1500.000000 0.8553 0.8528 0.8506 0.8482 0.8459
1495.000000 0.8435 0.8411 0.8388 0.8364 0.8332
1490.000000 0.8295 0.8257 0.8218 0.8181 0.8144
1485.000000 0.8101 0.8061 0.8018 0.7976 0.7936
1480.000000 0.7881 0.7811 0.7742 0.7672 0.7595
1475.000000 0.7506 0.7415 0.7319 0.7192 0.7062
1470.000000 0.6900 0.6719 0.6522 0.6321 0.6038
1465.000000 0.5780 0.5597 0.5257 0.5139 0.5031
1460.000000 0.4374 0.3459 0.2547 0.1633 0.0719
1455.000000 0.0304 0.0303 0.0302 0.0830 0.1674
1450.000000 0.2518 0.3362 0.4400 0.4746 0.5262
1445.000000 0.5579 0.5862 0.6282 0.6435 0.6589
1440.000000 0.6771 0.6975 0.7124 0.7260 0.7358
1435.000000 0.7425 0.7492 0.7558 0.7612 0.7651
1430.000000 0.7691 0.7730 0.7758 0.7787 0.7815
1425.000000 0.7844 0.7865 0.7883 0.7900 0.7918
1420.000000 0.7935 0.7953 0.7969 0.7985 0.7999
1415.000000 0.8011 0.8025 0.8040 0.8051 0.8061
1410.000000 0.8071 0.8082 0.8093 0.8104 0.8114
1405.000000 0.8119 0.8125 0.8131 0.8137 0.8143
1400.000000 0.8149 0.8155 0.8161 0.8167 0.8169
1395.000000 0.8171 0.8175 0.8176 0.8178 0.8182
1390.000000 0.8184 0.8187 0.8189 0.8189 0.8190
1385.000000 0.8190 0.8191 0.8191 0.8191 0.8192
1380.000000 0.8192 0.8192 0.8192 0.8191 0.8191
1375.000000 0.8191 0.8189 0.8187 0.8185 0.8183
1370.000000 0.8181 0.8178 0.8176 0.8175 0.8171
1365.000000 0.8168 0.8165 0.8161 0.8158 0.8155
1360.000000 0.8151 0.8149 0.8147 0.8146 0.8146
1355.000000 0.8148 0.8150 0.8153 0.8162 0.8178
1350.000000 0.8182 0.8193 0.8205 0.8217 0.8228
1345.000000 0.8240 0.8252 0.8265 0.8278 0.8291
1340.000000 0.8301 0.8308 0.8315 0.8321 0.8325
1335.000000 0.8325 0.8327 0.8328 0.8328 0.8331
1330.000000 0.8332 0.8333 0.8336 0.8339 0.8342
1325.000000 0.8346 0.8350 0.8357 0.8365 0.8371
1320.000000 0.8378 0.8386 0.8393 0.8401 0.8409
1315.000000 0.8417 0.8425 0.8434 0.8442 0.8450
1310.000000 0.8456 0.8461 0.8467 0.8471 0.8475
1305.000000 0.8480 0.8484 0.8488 0.8491 0.8494
1300.000000 0.8495 0.8497 0.8498 0.8500 0.8494
1295.000000 0.8486 0.8477 0.8468 0.8451 0.8433
1290.000000 0.8404 0.8371 0.8339 0.8307 0.8275
1285.000000 0.8238 0.8200 0.8162 0.8125 0.8075
1280.000000 0.8018 0.7964 0.7908 0.7857 0.7805
1275.000000 0.7753 0.7696 0.7624 0.7553 0.7481
1270.000000 0.7410 0.7338 0.7271 0.7205 0.7139
1265.000000 0.7054 0.6965 0.6865 0.6762 0.6515
1260.000000 0.5975 0.6018 0.5986 0.5996 0.6280
1255.000000 0.6564 0.6848 0.7115 0.7348 0.7587
1250.000000 0.7700 0.7799 0.7896 0.7972 0.8049
1245.000000 0.8125 0.8203 0.8268 0.8332 0.8392
1240.000000 0.8436 0.8480 0.8524 0.8564 0.8595
1235.000000 0.8627 0.8658 0.8689 0.8716 0.8736
1230.000000 0.8757 0.8778 0.8799 0.8818 0.8840
1225.000000 0.8853 0.8867 0.8880 0.8885 0.8889
1220.000000 0.8894 0.8899 0.8903 0.8908 0.8913
1215.000000 0.8917 0.8921 0.8927 0.8930 0.8931
1210.000000 0.8932 0.8933 0.8934 0.8934 0.8935
1205.000000 0.8936 0.8937 0.8938 0.8939 0.8939
1200.000000 0.8940 0.8941 0.8942 0.8942 0.8943
1195.000000 0.8944 0.8944 0.8945 0.8946 0.8947
1190.000000 0.8947 0.8948 0.8949 0.8949 0.8948
1185.000000 0.8946 0.8945 0.8943 0.8942 0.8940
1180.000000 0.8939 0.8937 0.8935 0.8934 0.8928
1175.000000 0.8921 0.8916 0.8910 0.8904 0.8898
1170.000000 0.8891 0.8878 0.8866 0.8853 0.8840
1165.000000 0.8827 0.8813 0.8798 0.8784 0.8775
1160.000000 0.8767 0.8767 0.8768 0.8768 0.8768
1155.000000 0.8775 0.8782 0.8789 0.8796 0.8802
1150.000000 0.8809 0.8815 0.8821 0.8828 0.8836
1145.000000 0.8843 0.8849 0.8855 0.8861 0.8867
1140.000000 0.8873 0.8878 0.8868 0.8860 0.8851
1135.000000 0.8842 0.8833 0.8821 0.8812 0.8802
1130.000000 0.8791 0.8781 0.8771 0.8760 0.8750
1125.000000 0.8741 0.8733 0.8725 0.8718 0.8710
1120.000000 0.8702 0.8695 0.8688 0.8681 0.8675
1115.000000 0.8668 0.8662 0.8655 0.8648 0.8647
1110.000000 0.8647 0.8647 0.8646 0.8653 0.8661
1105.000000 0.8668 0.8677 0.8685 0.8696 0.8707
1100.000000 0.8718 0.8728 0.8740 0.8751 0.8763
1095.000000 0.8773 0.8783 0.8793 0.8803 0.8813
1090.000000 0.8823 0.8833 0.8839 0.8846 0.8853
1085.000000 0.8859 0.8866 0.8871 0.8878 0.8884
1080.000000 0.8887 0.8890 0.8893 0.8895 0.8898
1075.000000 0.8901 0.8902 0.8903 0.8904 0.8904
1070.000000 0.8905 0.8906 0.8906 0.8906 0.8903
1065.000000 0.8900 0.8897 0.8893 0.8890 0.8885
1060.000000 0.8880 0.8874 0.8868 0.8863 0.8852
1055.000000 0.8839 0.8825 0.8814 0.8798 0.8775
1050.000000 0.8754 0.8732 0.8700 0.8659 0.8601
1045.000000 0.8500 0.8248 0.7995 0.7743 0.7538
1040.000000 0.7508 0.7530 0.7532 0.7578 0.7655
1035.000000 0.7738 0.7882 0.8021 0.8095 0.8158
1030.000000 0.8209 0.8250 0.8281 0.8298 0.8307
1025.000000 0.8328 0.8315 0.8317 0.8288 0.8256
1020.000000 0.8215 0.8167 0.8115 0.8055 0.8021
1015.000000 0.7998 0.7988 0.7976 0.7991 0.8018
1010.000000 0.8112 0.8192 0.8296 0.8412 0.8493
1005.000000 0.8575 0.8631 0.8668 0.8706 0.8735
1000.000000 0.8758 0.8782 0.8805 0.8817 0.8828
995.000000 0.8838 0.8849 0.8860 0.8870 0.8881
990.000000 0.8891 0.8900 0.8909 0.8917 0.8925
985.000000 0.8935 0.8943 0.8952 0.8960 0.8967
980.000000 0.8971 0.8975 0.8981 0.8985 0.8990
975.000000 0.8994 0.8993 0.8992 0.8991 0.8989
970.000000 0.8987 0.8985 0.8983 0.8981 0.8978
965.000000 0.8975 0.8974 0.8971 0.8933 0.8968
960.000000 0.8966 0.8964 0.8961 0.8959 0.8957
955.000000 0.8955 0.8953 0.8951 0.8949 0.8946
950.000000 0.8944 0.8941 0.8937 0.8933 0.8928
945.000000 0.8925 0.8921 0.8918 0.8914 0.8910
940.000000 0.8906 0.8902 0.8898 0.8893 0.8889
935.000000 0.8884 0.8878 0.8875 0.8870 0.8863
930.000000 0.8852 0.8842 0.8832 0.8821 0.8809
925.000000 0.8796 0.8782 0.8768 0.8755 0.8741
920.000000 0.8725 0.8709 0.8691 0.8668 0.8648
915.000000 0.8627 0.8592 0.8540 0.8482 0.8393
910.000000 0.8255 0.7945 0.7147 0.6348 0.5550
905.000000 0.4752 0.4556 0.4594 0.5288 0.7174
900.000000 0.7917 0.8124 0.8242 0.8344 0.8416
895.000000 0.8468 0.8545 0.8593 0.8616 0.8625
890.000000 0.8630 0.8634 0.8638 0.8639 0.8639
885.000000 0.8635 0.8631 0.8609 0.8585 0.8561
880.000000 0.8537 0.8505 0.8470 0.8434 0.8399
875.000000 0.8355 0.8310 0.8264 0.8171 0.8065
870.000000 0.7955 0.7839 0.7422 0.6680 0.5937
865.000000 0.5193 0.5003 0.4998 0.5449 0.5956
860.000000 0.6461 0.6968 0.7587 0.7742 0.7892
855.000000 0.8039 0.8178 0.8340 0.8523 0.8621
850.000000 0.8682 0.8725 0.8752 0.8774 0.8797
845.000000 0.8807 0.8815 0.8823 0.8827 0.8828
840.000000 0.8832 0.8834 0.8836 0.8839 0.8841
835.000000 0.8843 0.8843 0.8843 0.8843 0.8843
830.000000 0.8844 0.8844 0.8844 0.8844 0.8844
825.000000 0.8844 0.8844 0.8844 0.8845 0.8845
820.000000 0.8845 0.8845 0.8845 0.8845 0.8846
815.000000 0.8846 0.8846 0.8847 0.8847 0.8847
810.000000 0.8848 0.8848 0.8848 0.8849 0.8849
805.000000 0.8849 0.8850 0.8850 0.8850 0.8851
800.000000 0.8851 0.8851 0.8852 0.8852 0.8853
795.000000 0.8853 0.8853 0.8854 0.8854 0.8854
790.000000 0.8855 0.8855 0.8856 0.8856 0.8856
785.000000 0.8857 0.8857 0.8857 0.8857 0.8857
780.000000 0.8857 0.8857 0.8858 0.8858 0.8858
775.000000 0.8858 0.8858 0.8858 0.8858 0.8858
770.000000 0.8858 0.8858 0.8858 0.8858 0.8858
765.000000 0.8858 0.8858 0.8858 0.8858 0.8857
760.000000 0.8857 0.8857 0.8857 0.8857 0.8857
755.000000 0.8856 0.8856 0.8855 0.8854 0.8854
750.000000 0.8853 0.8853 0.8852 0.8852 0.8851
745.000000 0.8851 0.8850 0.8850 0.8849 0.8848
740.000000 0.8848 0.8846 0.8845 0.8843 0.8841
735.000000 0.8840 0.8838 0.8836 0.8835 0.8833
730.000000 0.8832 0.8830 0.8828 0.8827 0.8825
725.000000 0.8823 0.8821 0.8820 0.8818 0.8817
720.000000 0.8815 0.8813 0.8811 0.8807 0.8803
715.000000 0.8799 0.8795 0.8791 0.8787 0.8783
710.000000 0.8778 0.8775 0.8771 0.8767 0.8763
705.000000 0.8760 0.8756 0.8752 0.8748 0.8744
700.000000 0.8740 0.8737 0.8733 0.8730 0.8727
695.000000 0.8723 0.8720 0.8717 0.8714 0.8710
690.000000 0.8707 0.8704 0.8700 0.8696 0.8692
685.000000 0.8688 0.8684 0.8680 0.8675 0.8671
680.000000 0.8667 0.8663 0.8659 0.8655 0.8650
675.000000 0.8644 0.8637 0.8631 0.8625 0.8618
670.000000 0.8612 0.8606 0.8600 0.8595 0.8595
665.000000 0.8597 0.8600 0.8603 0.8606 0.8608
660.000000 0.8611 0.8614 0.8616 0.8618 0.8621
655.000000 0.8624 0.8624 0.8624 0.8623 0.8621
650.000000 0.8621 0.8621 0.8620 0.8618 0.8618
645.000000 0.8617 0.8617 0.8616 0.8615 0.8614
640.000000 0.8613 0.8613 0.8612 0.8611 0.8611
635.000000 0.8610 0.8610 0.8609 0.8609 0.8608
630.000000 0.8607 0.8607 0.8606 0.8606 0.8605
625.000000 0.8605 0.8604 0.8603 0.8603 0.8602
620.000000 0.8602 0.8601 0.8601 0.8600 0.8599
615.000000 0.8599 0.8598 0.8598 0.8597 0.8597
610.000000 0.8597 0.8596 0.8596 0.8595 0.8595
605.000000 0.8594 0.8594 0.8593 0.8593 0.8592
600.000000 0.8592 0.8591 0.8591 0.8590 0.8590
595.000000 0.8589 0.8588 0.8587 0.8587 0.8586
590.000000 0.8585 0.8584 0.8583 0.8582 0.8581
585.000000 0.8581 0.8580 0.8578 0.8578 0.8577
580.000000 0.8574 0.8571 0.8568 0.8565 0.8562
575.000000 0.8559 0.8556 0.8553 0.8550 0.8547
570.000000 0.8544 0.8541 0.8538 0.8534 0.8530
565.000000 0.8525 0.8523 0.8518 0.8515 0.8512
560.000000 0.8508 0.8504 0.8498 0.8492 0.8486
555.000000 0.8480 0.8474 0.8468 0.8461 0.8450
550.000000 0.8440 0.8430 0.8420 0.8410 0.8399
545.000000 0.8389 0.8378 0.8363 0.8347 0.8330
540.000000 0.8312 0.8292 0.8271 0.8250 0.8227
535.000000 0.8204 0.8182 0.8142 0.8103 0.7954
530.000000 0.7780 0.7503 0.7551 0.7547 0.7644
525.000000 0.7771 0.7912 0.8048 0.8162 0.8250
520.000000 0.8294 0.8337 0.8361 0.8383 0.8404
515.000000 0.8423 0.8421 0.8418 0.8417 0.8416
510.000000 0.8414 0.8412 0.8411 0.8409 0.8408
505.000000 0.8408 0.8409 0.8409 0.8410 0.8411
500.000000 0.8412 0.8412 0.8413 0.8414 0.8415
495.000000 0.8415 0.8416 0.8416 0.8416 0.8416
490.000000 0.8416 0.8415 0.8415 0.8415 0.8414
485.000000 0.8414 0.8414 0.8413 0.8413 0.8412
480.000000 0.8412 0.8412 0.8411 0.8411 0.8411
475.000000 0.8411 0.8410 0.8410 0.8410 0.8409
470.000000 0.8409 0.8409 0.8408 0.8408 0.8408
465.000000 0.8407 0.8407 0.8407 0.8407 0.8406
460.000000 0.8406 0.8407 0.8408 0.8409 0.8410
455.000000 0.8411 0.8412 0.8413 0.8414 0.8415
450.000000 0.8416 0.8417 0.8417 0.8418 0.8418
445.000000 0.8420 0.8421 0.8421 0.8425 0.8428
440.000000 0.8431 0.8434 0.8437 0.8440 0.8443
435.000000 0.8446 0.8450 0.8453 0.8456 0.8459
430.000000 0.8462 0.8467 0.8471 0.8478 0.8483
425.000000 0.8488 0.8493 0.8498 0.8504 0.8509
420.000000 0.8514 0.8518 0.8524 0.8530 0.8535
415.000000 0.8541 0.8547 0.8553 0.8559 0.8565
410.000000 0.8570 0.8575 0.8582 0.8588 0.8594
405.000000 0.8600 0.8605 0.8610 0.8615 0.8620
400.000000 0.8625 0.8630 0.8634 0.8639 0.8643
395.000000 0.8647 0.8652 0.8657 0.8664 0.8673
##END=
