##TITLE=CYCLOHEXENE
##JCAMP-DX=4.24
$$ By DXEDIT 1.05 (RS McDonald)
##DATA TYPE=INFRARED SPECTRUM
##CLASS=COBLENTZ III
##ORIGIN=BECKMAN INSTRUMENTS, KENNETH STINE
##OWNER=COBLENTZ SOC.
Collection (C) 2018 copyright by the U.S. Secretary of Commerce
on behalf of the United States of America. All rights reserved.
##DATE=1969/05/12
##NAMES=1-cyclohexene
##CAS REGISTRY NO=110-83-8
##MOLFORM=C6 H10
##SOURCE REFERENCE=COBLENTZ NO. 06022
##$NIST SOURCE=COBLENTZ
##$NIST IMAGE=cob6022
##SPECTROMETER/DATA SYSTEM=BECKMAN IR-12 (GRATING)
##INSTRUMENT PARAMETERS=FILTERS AT 303, 473, 790, 1036, 1880, 2930 CM^-^1. GRATING CHANGE: 300.5, 650.0, 2000.4 CM^-^1
##STATE=LIQUID (NEAT)
$$ 99.9% PURE
##PATH LENGTH=0.0025 CM KBr CELL
$$ SEE SPECTRUM NO 6995 FOR "GAS" SPECTRUM
##SAMPLING PROCEDURE=TRANSMISSION
##RESOLUTION=2
##DATA PROCESSING=DIGITIZED BY COBLENTZ SOCIETY (BATCH I) FROM HARD COPY
##XUNITS=1/CM
##YUNITS=TRANSMITTANCE
##XLABEL=Wavenumbers (cm-1)
##YLABEL=Transmittance
##XFACTOR=1
##YFACTOR=1
##DELTAX=1
##FIRSTX=4000
##LASTX=403
##FIRSTY=0.8691
##MAXX=4000
##MINX=403
##MAXY=0.9571
##MINY=0.0009
##NPOINTS=3598
##XYDATA=(X++(Y..Y))
4000.000000 0.8691 0.8691 0.8691 0.8699 0.8708
3995.000000 0.8716 0.8725 0.8733 0.8742 0.8748
3990.000000 0.8754 0.8759 0.8764 0.8768 0.8774
3985.000000 0.8778 0.8782 0.8786 0.8790 0.8794
3980.000000 0.8798 0.8801 0.8805 0.8807 0.8809
3975.000000 0.8811 0.8814 0.8816 0.8818 0.8821
3970.000000 0.8823 0.8825 0.8828 0.8830 0.8833
3965.000000 0.8834 0.8836 0.8831 0.8825 0.8820
3960.000000 0.8815 0.8808 0.8801 0.8792 0.8784
3955.000000 0.8775 0.8766 0.8757 0.8749 0.8745
3950.000000 0.8741 0.8738 0.8736 0.8733 0.8731
3945.000000 0.8728 0.8728 0.8725 0.8725 0.8723
3940.000000 0.8721 0.8720 0.8720 0.8720 0.8720
3935.000000 0.8721 0.8721 0.8728 0.8737 0.8745
3930.000000 0.8753 0.8761 0.8768 0.8778 0.8788
3925.000000 0.8797 0.8806 0.8815 0.8825 0.8834
3920.000000 0.8843 0.8852 0.8862 0.8871 0.8882
3915.000000 0.8892 0.8903 0.8914 0.8925 0.8935
3910.000000 0.8946 0.8956 0.8967 0.8977 0.8988
3905.000000 0.8997 0.9007 0.9017 0.9027 0.9036
3900.000000 0.9046 0.9056 0.9066 0.9074 0.9083
3895.000000 0.9089 0.9096 0.9102 0.9109 0.9115
3890.000000 0.9121 0.9128 0.9135 0.9139 0.9143
3885.000000 0.9145 0.9147 0.9148 0.9150 0.9151
3880.000000 0.9151 0.9152 0.9152 0.9152 0.9152
3875.000000 0.9151 0.9151 0.9150 0.9150 0.9150
3870.000000 0.9150 0.9149 0.9149 0.9147 0.9145
3865.000000 0.9143 0.9141 0.9139 0.9137 0.9134
3860.000000 0.9132 0.9128 0.9127 0.9124 0.9121
3855.000000 0.9118 0.9116 0.9113 0.9111 0.9108
3850.000000 0.9105 0.9103 0.9101 0.9101 0.9101
3845.000000 0.9100 0.9100 0.9100 0.9100 0.9101
3840.000000 0.9102 0.9105 0.9108 0.9110 0.9113
3835.000000 0.9116 0.9118 0.9121 0.9125 0.9128
3830.000000 0.9131 0.9133 0.9136 0.9139 0.9142
3825.000000 0.9144 0.9147 0.9150 0.9153 0.9155
3820.000000 0.9158 0.9160 0.9163 0.9166 0.9168
3815.000000 0.9171 0.9174 0.9175 0.9178 0.9181
3810.000000 0.9184 0.9186 0.9189 0.9191 0.9193
3805.000000 0.9195 0.9198 0.9199 0.9200 0.9200
3800.000000 0.9201 0.9201 0.9202 0.9197 0.9192
3795.000000 0.9184 0.9177 0.9168 0.9162 0.9154
3790.000000 0.9147 0.9139 0.9131 0.9128 0.9128
3785.000000 0.9128 0.9133 0.9137 0.9141 0.9145
3780.000000 0.9149 0.9153 0.9157 0.9160 0.9163
3775.000000 0.9166 0.9170 0.9171 0.9173 0.9168
3770.000000 0.9165 0.9160 0.9156 0.9151 0.9147
3765.000000 0.9141 0.9135 0.9128 0.9124 0.9118
3760.000000 0.9112 0.9106 0.9100 0.9094 0.9088
3755.000000 0.9082 0.9077 0.9071 0.9067 0.9062
3750.000000 0.9057 0.9052 0.9047 0.9045 0.9045
3745.000000 0.9045 0.9047 0.9048 0.9050 0.9056
3740.000000 0.9062 0.9068 0.9074 0.9078 0.9084
3735.000000 0.9088 0.9093 0.9097 0.9102 0.9107
3730.000000 0.9112 0.9116 0.9121 0.9125 0.9130
3725.000000 0.9133 0.9136 0.9139 0.9142 0.9145
3720.000000 0.9148 0.9151 0.9154 0.9157 0.9160
3715.000000 0.9163 0.9166 0.9168 0.9171 0.9174
3710.000000 0.9175 0.9177 0.9178 0.9180 0.9181
3705.000000 0.9182 0.9184 0.9185 0.9187 0.9188
3700.000000 0.9190 0.9190 0.9190 0.9190 0.9190
3695.000000 0.9189 0.9188 0.9187 0.9187 0.9186
3690.000000 0.9186 0.9185 0.9184 0.9183 0.9183
3685.000000 0.9182 0.9181 0.9178 0.9178 0.9175
3680.000000 0.9174 0.9171 0.9171 0.9168 0.9168
3675.000000 0.9166 0.9165 0.9164 0.9164 0.9164
3670.000000 0.9164 0.9164 0.9165 0.9165 0.9166
3665.000000 0.9167 0.9168 0.9171 0.9174 0.9177
3660.000000 0.9180 0.9183 0.9186 0.9189 0.9192
3655.000000 0.9196 0.9201 0.9206 0.9212 0.9218
3650.000000 0.9224 0.9228 0.9235 0.9238 0.9242
3645.000000 0.9245 0.9248 0.9250 0.9253 0.9256
3640.000000 0.9259 0.9262 0.9265 0.9265 0.9265
3635.000000 0.9265 0.9265 0.9265 0.9265 0.9265
3630.000000 0.9265 0.9264 0.9264 0.9264 0.9264
3625.000000 0.9263 0.9263 0.9263 0.9263 0.9263
3620.000000 0.9263 0.9262 0.9262 0.9261 0.9261
3615.000000 0.9260 0.9259 0.9258 0.9257 0.9256
3610.000000 0.9255 0.9254 0.9253 0.9252 0.9251
3605.000000 0.9250 0.9249 0.9248 0.9247 0.9246
3600.000000 0.9245 0.9244 0.9243 0.9242 0.9241
3595.000000 0.9240 0.9240 0.9239 0.9239 0.9238
3590.000000 0.9237 0.9236 0.9236 0.9235 0.9235
3585.000000 0.9234 0.9234 0.9233 0.9233 0.9232
3580.000000 0.9232 0.9231 0.9231 0.9230 0.9230
3575.000000 0.9228 0.9228 0.9228 0.9228 0.9227
3570.000000 0.9225 0.9225 0.9225 0.9224 0.9224
3565.000000 0.9223 0.9223 0.9223 0.9223 0.9221
3560.000000 0.9221 0.9221 0.9221 0.9221 0.9221
3555.000000 0.9221 0.9221 0.9220 0.9220 0.9220
3550.000000 0.9220 0.9221 0.9221 0.9221 0.9223
3545.000000 0.9224 0.9225 0.9225 0.9225 0.9225
3540.000000 0.9227 0.9227 0.9227 0.9227 0.9227
3535.000000 0.9225 0.9225 0.9225 0.9224 0.9218
3530.000000 0.9215 0.9210 0.9206 0.9202 0.9198
3525.000000 0.9195 0.9193 0.9192 0.9191 0.9195
3520.000000 0.9199 0.9203 0.9208 0.9212 0.9217
3515.000000 0.9221 0.9225 0.9232 0.9239 0.9248
3510.000000 0.9257 0.9265 0.9274 0.9278 0.9283
3505.000000 0.9286 0.9289 0.9292 0.9292 0.9292
3500.000000 0.9290 0.9288 0.9286 0.9283 0.9281
3495.000000 0.9278 0.9277 0.9275 0.9273 0.9271
3490.000000 0.9268 0.9267 0.9265 0.9263 0.9261
3485.000000 0.9258 0.9256 0.9254 0.9252 0.9250
3480.000000 0.9248 0.9246 0.9244 0.9242 0.9240
3475.000000 0.9239 0.9239 0.9238 0.9238 0.9237
3470.000000 0.9237 0.9236 0.9236 0.9235 0.9235
3465.000000 0.9234 0.9234 0.9233 0.9233 0.9233
3460.000000 0.9233 0.9233 0.9233 0.9233 0.9233
3455.000000 0.9233 0.9233 0.9233 0.9233 0.9233
3450.000000 0.9233 0.9233 0.9233 0.9233 0.9233
3445.000000 0.9233 0.9233 0.9232 0.9232 0.9232
3440.000000 0.9232 0.9232 0.9232 0.9231 0.9230
3435.000000 0.9228 0.9228 0.9228 0.9228 0.9227
3430.000000 0.9227 0.9225 0.9225 0.9225 0.9225
3425.000000 0.9224 0.9224 0.9223 0.9221 0.9221
3420.000000 0.9221 0.9220 0.9220 0.9218 0.9218
3415.000000 0.9215 0.9213 0.9210 0.9208 0.9205
3410.000000 0.9203 0.9201 0.9199 0.9196 0.9193
3405.000000 0.9187 0.9182 0.9175 0.9171 0.9165
3400.000000 0.9160 0.9155 0.9150 0.9144 0.9139
3395.000000 0.9133 0.9128 0.9124 0.9120 0.9116
3390.000000 0.9113 0.9109 0.9105 0.9101 0.9098
3385.000000 0.9094 0.9091 0.9088 0.9083 0.9085
3380.000000 0.9085 0.9084 0.9084 0.9083 0.9083
3375.000000 0.9083 0.9084 0.9087 0.9090 0.9092
3370.000000 0.9095 0.9098 0.9101 0.9103 0.9106
3365.000000 0.9109 0.9112 0.9114 0.9117 0.9120
3360.000000 0.9123 0.9125 0.9128 0.9131 0.9134
3355.000000 0.9137 0.9140 0.9142 0.9145 0.9148
3350.000000 0.9151 0.9153 0.9156 0.9158 0.9161
3345.000000 0.9163 0.9166 0.9167 0.9168 0.9168
3340.000000 0.9171 0.9171 0.9174 0.9175 0.9177
3335.000000 0.9178 0.9178 0.9180 0.9182 0.9183
3330.000000 0.9185 0.9186 0.9186 0.9186 0.9185
3325.000000 0.9183 0.9181 0.9178 0.9177 0.9173
3320.000000 0.9168 0.9164 0.9159 0.9154 0.9149
3315.000000 0.9144 0.9139 0.9133 0.9128 0.9118
3310.000000 0.9108 0.9097 0.9086 0.9062 0.9038
3305.000000 0.9000 0.8962 0.8924 0.8887 0.8836
3300.000000 0.8786 0.8774 0.8763 0.8759 0.8727
3295.000000 0.8754 0.8754 0.8754 0.8756 0.8765
3290.000000 0.8774 0.8784 0.8794 0.8804 0.8814
3285.000000 0.8824 0.8834 0.8844 0.8854 0.8866
3280.000000 0.8878 0.8891 0.8905 0.8918 0.8931
3275.000000 0.8944 0.8957 0.8970 0.8984 0.8997
3270.000000 0.9011 0.9025 0.9041 0.9055 0.9070
3265.000000 0.9085 0.9100 0.9114 0.9128 0.9138
3260.000000 0.9149 0.9159 0.9170 0.9180 0.9191
3255.000000 0.9201 0.9211 0.9220 0.9230 0.9237
3250.000000 0.9244 0.9250 0.9257 0.9264 0.9271
3245.000000 0.9273 0.9275 0.9268 0.9263 0.9257
3240.000000 0.9251 0.9245 0.9240 0.9233 0.9227
3235.000000 0.9218 0.9211 0.9203 0.9195 0.9187
3230.000000 0.9178 0.9171 0.9163 0.9157 0.9151
3225.000000 0.9146 0.9142 0.9138 0.9134 0.9128
3220.000000 0.9125 0.9120 0.9116 0.9112 0.9108
3215.000000 0.9106 0.9105 0.9105 0.9106 0.9106
3210.000000 0.9107 0.9108 0.9110 0.9111 0.9113
3205.000000 0.9115 0.9117 0.9118 0.9120 0.9121
3200.000000 0.9123 0.9125 0.9128 0.9131 0.9134
3195.000000 0.9137 0.9140 0.9143 0.9146 0.9149
3190.000000 0.9152 0.9155 0.9158 0.9161 0.9164
3185.000000 0.9167 0.9170 0.9173 0.9175 0.9178
3180.000000 0.9182 0.9184 0.9186 0.9188 0.9191
3175.000000 0.9193 0.9195 0.9197 0.9199 0.9201
3170.000000 0.9203 0.9203 0.9203 0.9202 0.9202
3165.000000 0.9202 0.9202 0.9201 0.9201 0.9200
3160.000000 0.9209 0.9194 0.9189 0.9184 0.9178
3155.000000 0.9173 0.9168 0.9163 0.9159 0.9156
3150.000000 0.9154 0.9151 0.9148 0.9145 0.9142
3145.000000 0.9139 0.9137 0.9137 0.9137 0.9137
3140.000000 0.9137 0.9137 0.9137 0.9137 0.9137
3135.000000 0.9135 0.9134 0.9133 0.9132 0.9130
3130.000000 0.9128 0.9127 0.9125 0.9116 0.9108
3125.000000 0.9100 0.9092 0.9083 0.9075 0.9066
3120.000000 0.9058 0.9048 0.9039 0.9021 0.9005
3115.000000 0.8988 0.8971 0.8954 0.8937 0.8915
3110.000000 0.8894 0.8870 0.8846 0.8821 0.8799
3105.000000 0.8775 0.8751 0.8714 0.8678 0.8641
3100.000000 0.8605 0.8568 0.8531 0.8486 0.8441
3095.000000 0.8390 0.8340 0.8290 0.8240 0.8181
3090.000000 0.8122 0.8060 0.7997 0.7940 0.7883
3085.000000 0.7828 0.7774 0.7725 0.7675 0.7626
3080.000000 0.7578 0.7492 0.7407 0.7347 0.7288
3075.000000 0.7239 0.7191 0.7110 0.7028 0.6861
3070.000000 0.6694 0.6597 0.6500 0.6434 0.6368
3065.000000 0.5738 0.5108 0.5131 0.5118 0.5284
3060.000000 0.5415 0.5545 0.5676 0.5806 0.5937
3055.000000 0.6067 0.6198 0.6226 0.6269 0.6171
3050.000000 0.6088 0.5808 0.5528 0.5248 0.4968
3045.000000 0.4688 0.4408 0.4128 0.3848 0.3568
3040.000000 0.3288 0.3008 0.2728 0.2448 0.2168
3035.000000 0.1887 0.1608 0.1328 0.1048 0.0768
3030.000000 0.0488 0.0293 0.0099 0.0092 0.0085
3025.000000 0.0083 0.0082 0.0082 0.0084 0.0094
3020.000000 0.0104 0.0144 0.0183 0.0290 0.0397
3015.000000 0.0629 0.0861 0.1092 0.1324 0.1556
3010.000000 0.1787 0.2020 0.2252 0.2483 0.2715
3005.000000 0.2947 0.3179 0.3409 0.3642 0.3874
3000.000000 0.4106 0.4227 0.4348 0.4348 0.4362
2995.000000 0.4252 0.4157 0.4016 0.3876 0.3734
2990.000000 0.3595 0.3454 0.3314 0.3173 0.3033
2985.000000 0.3002 0.2972 0.3026 0.3081 0.3141
2980.000000 0.3200 0.3260 0.3412 0.3368 0.3416
2975.000000 0.3412 0.3409 0.3246 0.3082 0.2917
2970.000000 0.2753 0.2588 0.2423 0.2258 0.2093
2965.000000 0.1928 0.1763 0.1598 0.1433 0.1268
2960.000000 0.1104 0.0939 0.0774 0.0645 0.0516
2955.000000 0.0385 0.0254 0.0222 0.0191 0.0171
2950.000000 0.0152 0.0132 0.0113 0.0100 0.0088
2945.000000 0.0076 0.0064 0.0054 0.0044 0.0033
2940.000000 0.0023 0.0016 0.0009 0.0010 0.0011
2935.000000 0.0011 0.0011 0.0016 0.0018 0.0019
2930.000000 0.0021 0.0023 0.0025 0.0026 0.0028
2925.000000 0.0029 0.0031 0.0032 0.0034 0.0035
2920.000000 0.0037 0.0038 0.0040 0.0042 0.0044
2915.000000 0.0045 0.0047 0.0048 0.0050 0.0051
2910.000000 0.0052 0.0054 0.0056 0.0057 0.0059
2905.000000 0.0061 0.0063 0.0064 0.0066 0.0067
2900.000000 0.0069 0.0071 0.0074 0.0076 0.0079
2895.000000 0.0081 0.0084 0.0086 0.0089 0.0091
2890.000000 0.0094 0.0096 0.0098 0.0100 0.0103
2885.000000 0.0104 0.0108 0.0111 0.0114 0.0120
2880.000000 0.0126 0.0135 0.0147 0.0158 0.0169
2875.000000 0.0177 0.0185 0.0191 0.0191 0.0192
2870.000000 0.0188 0.0178 0.0133 0.0156 0.0144
2865.000000 0.0132 0.0121 0.0116 0.0116 0.0116
2860.000000 0.0121 0.0133 0.0146 0.0158 0.0170
2855.000000 0.0174 0.0178 0.0182 0.0185 0.0188
2850.000000 0.0191 0.0183 0.0178 0.0164 0.0150
2845.000000 0.0134 0.0121 0.0107 0.0093 0.0078
2840.000000 0.0064 0.0060 0.0057 0.0063 0.0070
2835.000000 0.0085 0.0101 0.0130 0.0159 0.0195
2830.000000 0.0232 0.0287 0.0342 0.0443 0.0544
2825.000000 0.1165 0.1786 0.2124 0.2461 0.2798
2820.000000 0.3135 0.3473 0.3810 0.4141 0.4471
2815.000000 0.4641 0.4812 0.4983 0.5154 0.5325
2810.000000 0.5496 0.5667 0.5838 0.5910 0.5985
2805.000000 0.6004 0.6023 0.6038 0.6053 0.6064
2800.000000 0.6076 0.6090 0.6105 0.6127 0.6150
2795.000000 0.6232 0.6315 0.6397 0.6480 0.6561
2790.000000 0.6645 0.6726 0.6810 0.6892 0.6975
2785.000000 0.7057 0.7140 0.7164 0.7188 0.7161
2780.000000 0.7135 0.7085 0.7035 0.7060 0.7085
2775.000000 0.7188 0.7291 0.7394 0.7497 0.7599
2770.000000 0.7701 0.7805 0.7908 0.8011 0.8114
2765.000000 0.8217 0.8320 0.8353 0.8386 0.8412
2760.000000 0.8439 0.8461 0.8484 0.8506 0.8528
2755.000000 0.8548 0.8567 0.8575 0.8584 0.8591
2750.000000 0.8598 0.8605 0.8612 0.8617 0.8621
2745.000000 0.8627 0.8632 0.8636 0.8641 0.8647
2740.000000 0.8653 0.8659 0.8665 0.8671 0.8677
2735.000000 0.8682 0.8688 0.8694 0.8700 0.8705
2730.000000 0.8711 0.8717 0.8723 0.8728 0.8734
2725.000000 0.8740 0.8747 0.8754 0.8755 0.8710
2720.000000 0.8659 0.8574 0.8490 0.8405 0.8320
2715.000000 0.8284 0.8247 0.8247 0.8247 0.8278
2710.000000 0.8312 0.8352 0.8393 0.8434 0.8475
2705.000000 0.8515 0.8556 0.8586 0.8616 0.8614
2700.000000 0.8593 0.8610 0.8608 0.8595 0.8583
2695.000000 0.8561 0.8540 0.8531 0.8523 0.8515
2690.000000 0.8508 0.8416 0.8325 0.8217 0.8110
2685.000000 0.8001 0.7894 0.7875 0.7857 0.7882
2680.000000 0.7908 0.7946 0.7985 0.8018 0.8054
2675.000000 0.8049 0.8044 0.7878 0.7711 0.7534
2670.000000 0.7357 0.7180 0.7003 0.6825 0.6648
2665.000000 0.6471 0.6294 0.6116 0.5939 0.5782
2660.000000 0.5599 0.5626 0.5626 0.5710 0.5795
2655.000000 0.6050 0.6305 0.6560 0.6815 0.7071
2650.000000 0.7325 0.7581 0.7836 0.7975 0.8117
2645.000000 0.8121 0.8125 0.8130 0.8134 0.8236
2640.000000 0.8339 0.8475 0.8613 0.8717 0.8821
2635.000000 0.8846 0.8871 0.8896 0.8921 0.8945
2630.000000 0.8970 0.8995 0.9020 0.9044 0.9068
2625.000000 0.9078 0.9087 0.9087 0.9087 0.9087
2620.000000 0.9087 0.9065 0.9043 0.9004 0.8966
2615.000000 0.8965 0.8965 0.8966 0.8967 0.8967
2610.000000 0.8968 0.8993 0.9018 0.9034 0.9050
2605.000000 0.9062 0.9075 0.9081 0.9088 0.9094
2600.000000 0.9100 0.9105 0.9111 0.9115 0.9133
2595.000000 0.9112 0.9104 0.9078 0.9053 0.9027
2590.000000 0.9002 0.8975 0.8951 0.8925 0.8900
2585.000000 0.8874 0.8849 0.8823 0.8798 0.8771
2580.000000 0.8747 0.8721 0.8697 0.8689 0.8683
2575.000000 0.8693 0.8703 0.8732 0.8762 0.8797
2570.000000 0.8833 0.8866 0.8900 0.8938 0.8977
2565.000000 0.9015 0.9053 0.9083 0.9114 0.9132
2560.000000 0.9151 0.9170 0.9190 0.9213 0.9236
2555.000000 0.9253 0.9271 0.9285 0.9300 0.9309
2550.000000 0.9321 0.9328 0.9339 0.9342 0.9345
2545.000000 0.9337 0.9328 0.9321 0.9314 0.9306
2540.000000 0.9298 0.9290 0.9282 0.9277 0.9271
2535.000000 0.9268 0.9265 0.9261 0.9258 0.9254
2530.000000 0.9251 0.9247 0.9244 0.9242 0.9240
2525.000000 0.9238 0.9236 0.9234 0.9232 0.9230
2520.000000 0.9228 0.9225 0.9225 0.9225 0.9225
2515.000000 0.9225 0.9225 0.9225 0.9225 0.9224
2510.000000 0.9224 0.9228 0.9232 0.9235 0.9239
2505.000000 0.9241 0.9243 0.9244 0.9246 0.9247
2500.000000 0.9248 0.9243 0.9239 0.9224 0.9209
2495.000000 0.9193 0.9178 0.9163 0.9148 0.9133
2490.000000 0.9118 0.9103 0.9088 0.9073 0.9058
2485.000000 0.9042 0.9027 0.9012 0.8997 0.8982
2480.000000 0.8967 0.8952 0.8937 0.8928 0.8920
2475.000000 0.8920 0.8897 0.8927 0.8933 0.8951
2470.000000 0.8970 0.8996 0.9021 0.9048 0.9074
2465.000000 0.9097 0.9120 0.9142 0.9165 0.9185
2460.000000 0.9206 0.9220 0.9235 0.9249 0.9264
2455.000000 0.9273 0.9283 0.9288 0.9293 0.9298
2450.000000 0.9303 0.9308 0.9313 0.9318 0.9323
2445.000000 0.9327 0.9332 0.9334 0.9337 0.9338
2440.000000 0.9340 0.9341 0.9343 0.9345 0.9347
2435.000000 0.9348 0.9350 0.9350 0.9350 0.9350
2430.000000 0.9349 0.9348 0.9348 0.9347 0.9346
2425.000000 0.9345 0.9344 0.9343 0.9343 0.9339
2420.000000 0.9336 0.9331 0.9327 0.9323 0.9318
2415.000000 0.9315 0.9311 0.9306 0.9302 0.9297
2410.000000 0.9292 0.9287 0.9282 0.9277 0.9271
2405.000000 0.9267 0.9263 0.9260 0.9258 0.9255
2400.000000 0.9253 0.9250 0.9248 0.9245 0.9243
2395.000000 0.9241 0.9239 0.9237 0.9235 0.9233
2390.000000 0.9232 0.9230 0.9228 0.9228 0.9228
2385.000000 0.9231 0.9235 0.9256 0.9277 0.9300
2380.000000 0.9323 0.9348 0.9373 0.9398 0.9423
2375.000000 0.9447 0.9471 0.9494 0.9517 0.9533
2370.000000 0.9549 0.9557 0.9565 0.9568 0.9571
2365.000000 0.9571 0.9571 0.9571 0.9571 0.9562
2360.000000 0.9553 0.9543 0.9534 0.9525 0.9516
2355.000000 0.9508 0.9500 0.9499 0.9498 0.9499
2350.000000 0.9501 0.9503 0.9505 0.9510 0.9516
2345.000000 0.9521 0.9527 0.9527 0.9527 0.9527
2340.000000 0.9525 0.9525 0.9524 0.9521 0.9520
2335.000000 0.9513 0.9507 0.9501 0.9495 0.9487
2330.000000 0.9478 0.9470 0.9461 0.9452 0.9443
2325.000000 0.9435 0.9428 0.9421 0.9415 0.9408
2320.000000 0.9402 0.9389 0.9375 0.9363 0.9350
2315.000000 0.9335 0.9321 0.9307 0.9294 0.9282
2310.000000 0.9271 0.9262 0.9254 0.9255 0.9256
2305.000000 0.9257 0.9258 0.9259 0.9261 0.9263
2300.000000 0.9266 0.9268 0.9273 0.9277 0.9281
2295.000000 0.9283 0.9286 0.9288 0.9290 0.9290
2290.000000 0.9290 0.9290 0.9287 0.9281 0.9275
2285.000000 0.9270 0.9265 0.9260 0.9255 0.9249
2280.000000 0.9244 0.9238 0.9233 0.9225 0.9220
2275.000000 0.9213 0.9206 0.9198 0.9191 0.9184
2270.000000 0.9177 0.9170 0.9163 0.9155 0.9148
2265.000000 0.9139 0.9131 0.9121 0.9113 0.9104
2260.000000 0.9096 0.9088 0.9080 0.9073 0.9066
2255.000000 0.9063 0.9064 0.9064 0.9068 0.9075
2250.000000 0.9082 0.9095 0.9108 0.9120 0.9132
2245.000000 0.9143 0.9155 0.9166 0.9178 0.9188
2240.000000 0.9199 0.9210 0.9221 0.9231 0.9242
2235.000000 0.9252 0.9263 0.9264 0.9265 0.9264
2230.000000 0.9260 0.9255 0.9251 0.9248 0.9246
2225.000000 0.9246 0.9246 0.9249 0.9253 0.9257
2220.000000 0.9262 0.9267 0.9273 0.9278 0.9284
2215.000000 0.9285 0.9287 0.9287 0.9288 0.9283
2210.000000 0.9278 0.9261 0.9245 0.9218 0.9192
2205.000000 0.9165 0.9139 0.9113 0.9087 0.9060
2200.000000 0.9034 0.9027 0.9021 0.9021 0.9021
2195.000000 0.9049 0.9077 0.9104 0.9131 0.9158
2190.000000 0.9186 0.9212 0.9238 0.9242 0.9243
2185.000000 0.9243 0.9241 0.9238 0.9235 0.9232
2180.000000 0.9230 0.9227 0.9225 0.9221 0.9221
2175.000000 0.9221 0.9225 0.9237 0.9249 0.9261
2170.000000 0.9274 0.9282 0.9291 0.9299 0.9307
2165.000000 0.9315 0.9324 0.9332 0.9340 0.9347
2160.000000 0.9356 0.9355 0.9354 0.9354 0.9352
2155.000000 0.9349 0.9347 0.9340 0.9333 0.9325
2150.000000 0.9318 0.9310 0.9303 0.9296 0.9289
2145.000000 0.9284 0.9280 0.9275 0.9271 0.9266
2140.000000 0.9262 0.9258 0.9254 0.9262 0.9270
2135.000000 0.9280 0.9291 0.9301 0.9312 0.9320
2130.000000 0.9328 0.9336 0.9344 0.9352 0.9360
2125.000000 0.9366 0.9373 0.9378 0.9380 0.9381
2120.000000 0.9377 0.9367 0.9357 0.9339 0.9321
2115.000000 0.9282 0.9243 0.9187 0.9131 0.9075
2110.000000 0.9018 0.8963 0.8907 0.8851 0.8795
2105.000000 0.8768 0.8742 0.8743 0.8730 0.8796
2100.000000 0.8848 0.8899 0.8951 0.9002 0.9054
2095.000000 0.9106 0.9158 0.9209 0.9261 0.9278
2090.000000 0.9298 0.9304 0.9310 0.9312 0.9315
2085.000000 0.9317 0.9318 0.9321 0.9323 0.9323
2080.000000 0.9323 0.9323 0.9323 0.9313 0.9304
2075.000000 0.9293 0.9282 0.9271 0.9261 0.9265
2070.000000 0.9270 0.9275 0.9282 0.9287 0.9293
2065.000000 0.9299 0.9305 0.9312 0.9320 0.9328
2060.000000 0.9338 0.9347 0.9357 0.9365 0.9374
2055.000000 0.9381 0.9389 0.9396 0.9403 0.9409
2050.000000 0.9415 0.9418 0.9421 0.9421 0.9421
2045.000000 0.9416 0.9411 0.9405 0.9399 0.9396
2040.000000 0.9393 0.9390 0.9389 0.9389 0.9390
2035.000000 0.9394 0.9399 0.9403 0.9408 0.9411
2030.000000 0.9414 0.9416 0.9418 0.9420 0.9421
2025.000000 0.9424 0.9424 0.9424 0.9423 0.9421
2020.000000 0.9420 0.9418 0.9416 0.9414 0.9413
2015.000000 0.9411 0.9409 0.9407 0.9405 0.9403
2010.000000 0.9402 0.9400 0.9398 0.9395 0.9393
2005.000000 0.9391 0.9389 0.9387 0.9385 0.9380
2000.000000 0.9375 0.9371 0.9368 0.9361 0.9352
1995.000000 0.9343 0.9334 0.9327 0.9318 0.9313
1990.000000 0.9296 0.9308 0.9313 0.9318 0.9327
1985.000000 0.9337 0.9347 0.9356 0.9360 0.9364
1980.000000 0.9368 0.9371 0.9373 0.9374 0.9384
1975.000000 0.9370 0.9368 0.9367 0.9363 0.9360
1970.000000 0.9356 0.9352 0.9348 0.9345 0.9340
1965.000000 0.9332 0.9325 0.9317 0.9309 0.9302
1960.000000 0.9294 0.9286 0.9275 0.9267 0.9257
1955.000000 0.9247 0.9238 0.9228 0.9218 0.9210
1950.000000 0.9202 0.9178 0.9195 0.9195 0.9195
1945.000000 0.9201 0.9207 0.9213 0.9221 0.9230
1940.000000 0.9240 0.9249 0.9285 0.9261 0.9261
1935.000000 0.9261 0.9261 0.9261 0.9256 0.9245
1930.000000 0.9205 0.9188 0.9182 0.9177 0.9170
1925.000000 0.9162 0.9155 0.9147 0.9132 0.9115
1920.000000 0.9099 0.9048 0.8993 0.8952 0.8952
1915.000000 0.8952 0.8962 0.8971 0.8990 0.9012
1910.000000 0.9049 0.9089 0.9124 0.9159 0.9188
1905.000000 0.9212 0.9218 0.9224 0.9213 0.9232
1900.000000 0.9228 0.9224 0.9218 0.9205 0.9189
1895.000000 0.9173 0.9148 0.9121 0.9086 0.8990
1890.000000 0.8865 0.8739 0.8614 0.8489 0.8364
1885.000000 0.8238 0.8212 0.8203 0.8220 0.8280
1880.000000 0.8394 0.8507 0.8621 0.8734 0.8848
1875.000000 0.8960 0.9057 0.9102 0.9136 0.9168
1870.000000 0.9186 0.9203 0.9218 0.9228 0.9239
1865.000000 0.9250 0.9260 0.9270 0.9275 0.9281
1860.000000 0.9286 0.9288 0.9290 0.9291 0.9292
1855.000000 0.9293 0.9292 0.9288 0.9284 0.9281
1850.000000 0.9277 0.9274 0.9267 0.9260 0.9253
1845.000000 0.9245 0.9237 0.9228 0.9221 0.9218
1840.000000 0.9215 0.9212 0.9208 0.9205 0.9202
1835.000000 0.9197 0.9193 0.9199 0.9216 0.9233
1830.000000 0.9246 0.9259 0.9271 0.9284 0.9297
1825.000000 0.9308 0.9315 0.9321 0.9328 0.9336
1820.000000 0.9342 0.9343 0.9344 0.9346 0.9347
1815.000000 0.9348 0.9349 0.9349 0.9347 0.9345
1810.000000 0.9343 0.9340 0.9334 0.9328 0.9323
1805.000000 0.9318 0.9310 0.9300 0.9291 0.9281
1800.000000 0.9268 0.9252 0.9236 0.9221 0.9207
1795.000000 0.9192 0.9175 0.9161 0.9146 0.9133
1790.000000 0.9131 0.9153 0.9175 0.9193 0.9211
1785.000000 0.9228 0.9248 0.9262 0.9275 0.9288
1780.000000 0.9300 0.9313 0.9325 0.9338 0.9349
1775.000000 0.9357 0.9365 0.9374 0.9382 0.9389
1770.000000 0.9393 0.9398 0.9403 0.9407 0.9410
1765.000000 0.9402 0.9395 0.9387 0.9357 0.9325
1760.000000 0.9307 0.9287 0.9268 0.9252 0.9235
1755.000000 0.9221 0.9223 0.9227 0.9232 0.9237
1750.000000 0.9241 0.9243 0.9245 0.9248 0.9247
1745.000000 0.9247 0.9242 0.9238 0.9233 0.9228
1740.000000 0.9223 0.9218 0.9214 0.9207 0.9197
1735.000000 0.9188 0.9178 0.9168 0.9160 0.9150
1730.000000 0.9141 0.9121 0.9100 0.9078 0.9058
1725.000000 0.9037 0.9017 0.8996 0.8966 0.8936
1720.000000 0.8902 0.8871 0.8847 0.8824 0.8804
1715.000000 0.8800 0.8800 0.8804 0.8812 0.8821
1710.000000 0.8841 0.8861 0.8884 0.8908 0.8913
1705.000000 0.8913 0.8939 0.8901 0.8891 0.8881
1700.000000 0.8868 0.8852 0.8834 0.8817 0.8797
1695.000000 0.8773 0.8750 0.8716 0.8674 0.8620
1690.000000 0.8462 0.8238 0.8015 0.7791 0.7567
1685.000000 0.7415 0.7415 0.7531 0.7661 0.7793
1680.000000 0.7925 0.8056 0.8187 0.8318 0.8450
1675.000000 0.8581 0.8616 0.8637 0.8651 0.8656
1670.000000 0.8657 0.8657 0.8655 0.8637 0.8600
1665.000000 0.8478 0.8178 0.7618 0.7042 0.6465
1660.000000 0.5887 0.5310 0.4733 0.4156 0.3579
1655.000000 0.3514 0.3905 0.4508 0.5110 0.5714
1650.000000 0.6317 0.6919 0.7522 0.7828 0.8018
1645.000000 0.8099 0.8174 0.8225 0.8263 0.8285
1640.000000 0.8308 0.8330 0.8349 0.8368 0.8394
1635.000000 0.8421 0.8450 0.8483 0.8525 0.8560
1630.000000 0.8577 0.8589 0.8593 0.8595 0.8585
1625.000000 0.8599 0.8601 0.8603 0.8598 0.8590
1620.000000 0.8571 0.8547 0.8523 0.8471 0.8390
1615.000000 0.8306 0.8221 0.8134 0.7888 0.7806
1610.000000 0.7725 0.7672 0.7656 0.7657 0.7661
1605.000000 0.7675 0.7689 0.7736 0.7821 0.7911
1600.000000 0.8011 0.8111 0.8212 0.8312 0.8413
1595.000000 0.8513 0.8613 0.8744 0.8877 0.8942
1590.000000 0.8983 0.9024 0.9051 0.9070 0.9090
1585.000000 0.9107 0.9121 0.9134 0.9147 0.9160
1580.000000 0.9171 0.9183 0.9194 0.9205 0.9210
1575.000000 0.9214 0.9218 0.9221 0.9225 0.9225
1570.000000 0.9225 0.9224 0.9223 0.9221 0.9220
1565.000000 0.9212 0.9204 0.9195 0.9188 0.9180
1560.000000 0.9178 0.9178 0.9178 0.9178 0.9178
1555.000000 0.9177 0.9175 0.9174 0.9171 0.9166
1550.000000 0.9160 0.9154 0.9148 0.9137 0.9118
1545.000000 0.9101 0.9083 0.9054 0.9018 0.8978
1540.000000 0.8924 0.8851 0.8785 0.8736 0.8681
1535.000000 0.8653 0.8640 0.8635 0.8633 0.8698
1530.000000 0.8757 0.8798 0.8825 0.8852 0.8875
1525.000000 0.8899 0.8921 0.8942 0.8961 0.8978
1520.000000 0.8996 0.9001 0.9007 0.9010 0.9017
1515.000000 0.9021 0.9015 0.9008 0.9001 0.8982
1510.000000 0.8951 0.8917 0.8891 0.8883 0.8875
1505.000000 0.8868 0.8860 0.8852 0.8842 0.8821
1500.000000 0.8802 0.8782 0.8762 0.8742 0.8721
1495.000000 0.8692 0.8662 0.8632 0.8602 0.8571
1490.000000 0.8541 0.8508 0.8470 0.8431 0.8392
1485.000000 0.8353 0.8314 0.8275 0.8236 0.8197
1480.000000 0.8141 0.8075 0.8011 0.7948 0.7875
1475.000000 0.7795 0.7714 0.7607 0.7471 0.7335
1470.000000 0.7097 0.6594 0.6455 0.6317 0.6164
1465.000000 0.5977 0.5783 0.5572 0.4654 0.4310
1460.000000 0.3968 0.3625 0.3282 0.2844 0.2729
1455.000000 0.2626 0.2525 0.2375 0.2062 0.1504
1450.000000 0.0945 0.0881 0.0889 0.0974 0.1058
1445.000000 0.1142 0.1211 0.1208 0.1114 0.0892
1440.000000 0.0672 0.0516 0.0517 0.0517 0.0549
1435.000000 0.0668 0.0750 0.1263 0.2044 0.2827
1430.000000 0.3609 0.4180 0.5217 0.5424 0.5630
1425.000000 0.5837 0.6044 0.6250 0.6431 0.6557
1420.000000 0.6757 0.6953 0.7121 0.7249 0.7381
1415.000000 0.7495 0.7558 0.7622 0.7689 0.7760
1410.000000 0.7830 0.7894 0.7931 0.7964 0.7990
1405.000000 0.8008 0.8022 0.8030 0.8035 0.8040
1400.000000 0.8039 0.8026 0.7972 0.7794 0.7615
1395.000000 0.7336 0.7350 0.7347 0.7345 0.7450
1390.000000 0.7632 0.7812 0.7994 0.8175 0.8243
1385.000000 0.8285 0.8327 0.8367 0.8408 0.8436
1380.000000 0.8454 0.8468 0.8480 0.8491 0.8498
1375.000000 0.8518 0.8508 0.8513 0.8512 0.8507
1370.000000 0.8501 0.8495 0.8485 0.8468 0.8452
1365.000000 0.8435 0.8412 0.8382 0.8353 0.8323
1360.000000 0.8255 0.8143 0.8030 0.7957 0.7886
1355.000000 0.7733 0.7572 0.7458 0.7453 0.7446
1350.000000 0.7517 0.7595 0.7615 0.7607 0.7565
1345.000000 0.7469 0.7293 0.7115 0.6937 0.6830
1340.000000 0.6860 0.6990 0.7119 0.7250 0.7380
1335.000000 0.7508 0.7639 0.7730 0.7728 0.7733
1330.000000 0.7592 0.7219 0.6849 0.6476 0.6106
1325.000000 0.5734 0.5362 0.5067 0.5062 0.5221
1320.000000 0.5591 0.5960 0.6330 0.6700 0.7069
1315.000000 0.7439 0.7700 0.7726 0.7742 0.7751
1310.000000 0.7805 0.7886 0.7962 0.8041 0.8196
1305.000000 0.8309 0.8387 0.8449 0.8499 0.8539
1300.000000 0.8557 0.8574 0.8586 0.8592 0.8598
1295.000000 0.8604 0.8608 0.8610 0.8611 0.8611
1290.000000 0.8599 0.8588 0.8575 0.8541 0.8508
1285.000000 0.8471 0.8427 0.8382 0.8336 0.8274
1280.000000 0.8208 0.8142 0.8058 0.7971 0.7858
1275.000000 0.7728 0.7538 0.7160 0.6675 0.6192
1270.000000 0.5707 0.5223 0.4776 0.4769 0.4767
1265.000000 0.5068 0.5497 0.5927 0.6357 0.6786
1260.000000 0.7215 0.7590 0.7704 0.7775 0.7851
1255.000000 0.7921 0.7998 0.8018 0.8035 0.8040
1250.000000 0.8045 0.8047 0.7993 0.7915 0.7840
1245.000000 0.7764 0.7688 0.7667 0.7664 0.7651
1240.000000 0.7824 0.7921 0.8018 0.8115 0.8199
1235.000000 0.8255 0.8311 0.8371 0.8433 0.8471
1230.000000 0.8495 0.8516 0.8533 0.8541 0.8549
1225.000000 0.8555 0.8561 0.8568 0.8588 0.8618
1220.000000 0.8650 0.8678 0.8704 0.8728 0.8754
1215.000000 0.8778 0.8804 0.8828 0.8851 0.8874
1210.000000 0.8897 0.8918 0.8942 0.8958 0.8968
1205.000000 0.8977 0.8987 0.8997 0.9006 0.9012
1200.000000 0.9018 0.9023 0.9025 0.9027 0.9027
1195.000000 0.9027 0.9027 0.9027 0.9021 0.9016
1190.000000 0.9010 0.9005 0.8999 0.8994 0.8988
1185.000000 0.8982 0.8977 0.8964 0.8951 0.8938
1180.000000 0.8924 0.8911 0.8898 0.8885 0.8871
1175.000000 0.8855 0.8834 0.8812 0.8791 0.8770
1170.000000 0.8748 0.8727 0.8701 0.8674 0.8647
1165.000000 0.8618 0.8592 0.8565 0.8538 0.8511
1160.000000 0.8462 0.8412 0.8362 0.8312 0.8223
1155.000000 0.8075 0.7922 0.7760 0.7415 0.6818
1150.000000 0.6665 0.6532 0.6419 0.5812 0.5253
1145.000000 0.4695 0.4137 0.3579 0.3020 0.2462
1140.000000 0.1904 0.1345 0.0781 0.0775 0.1401
1135.000000 0.2187 0.2973 0.3759 0.4545 0.5331
1130.000000 0.6117 0.7532 0.7658 0.7774 0.7886
1125.000000 0.7980 0.8067 0.8165 0.8249 0.8308
1120.000000 0.8321 0.8327 0.8333 0.8338 0.8345
1115.000000 0.8360 0.8375 0.8401 0.8443 0.8488
1110.000000 0.8543 0.8593 0.8631 0.8657 0.8668
1105.000000 0.8678 0.8689 0.8698 0.8704 0.8711
1100.000000 0.8714 0.8716 0.8718 0.8720 0.8721
1095.000000 0.8724 0.8728 0.8728 0.8728 0.8725
1090.000000 0.8724 0.8721 0.8721 0.8718 0.8717
1085.000000 0.8713 0.8704 0.8696 0.8687 0.8678
1080.000000 0.8659 0.8638 0.8618 0.8597 0.8564
1075.000000 0.8528 0.8490 0.8444 0.8398 0.8353
1070.000000 0.8311 0.8268 0.8217 0.8167 0.8135
1065.000000 0.8122 0.8121 0.8118 0.8118 0.8121
1060.000000 0.8158 0.8186 0.8185 0.8185 0.8161
1055.000000 0.8136 0.8096 0.8055 0.7986 0.7900
1050.000000 0.7739 0.7388 0.6954 0.6519 0.6085
1045.000000 0.5651 0.5217 0.4782 0.4348 0.3914
1040.000000 0.3479 0.2984 0.2999 0.3001 0.3416
1035.000000 0.3923 0.4429 0.4936 0.5442 0.5949
1030.000000 0.6455 0.6961 0.7468 0.7841 0.7921
1025.000000 0.8005 0.8082 0.8149 0.8171 0.8183
1020.000000 0.8188 0.8190 0.8185 0.8064 0.7932
1015.000000 0.7799 0.7667 0.7535 0.7403 0.7271
1010.000000 0.7286 0.7291 0.7314 0.7349 0.7419
1005.000000 0.7483 0.7546 0.7608 0.7671 0.7734
1000.000000 0.7796 0.7858 0.7921 0.7984 0.8047
995.000000 0.8110 0.8171 0.8235 0.8298 0.8360
990.000000 0.8415 0.8451 0.8486 0.8521 0.8556
985.000000 0.8586 0.8612 0.8638 0.8664 0.8681
980.000000 0.8693 0.8705 0.8717 0.8724 0.8728
975.000000 0.8733 0.8738 0.8742 0.8747 0.8747
970.000000 0.8748 0.8747 0.8746 0.8743 0.8741
965.000000 0.8740 0.8746 0.8766 0.8793 0.8821
960.000000 0.8848 0.8862 0.8864 0.8880 0.8880
955.000000 0.8875 0.8847 0.8794 0.8761 0.8741
950.000000 0.8733 0.8727 0.8721 0.8716 0.8710
945.000000 0.8705 0.8700 0.8690 0.8678 0.8668
940.000000 0.8650 0.8608 0.8566 0.8506 0.8446
935.000000 0.8375 0.8291 0.8207 0.8074 0.7939
930.000000 0.7638 0.7518 0.7408 0.7288 0.7144
925.000000 0.6974 0.6731 0.6348 0.6247 0.5883
920.000000 0.4452 0.3022 0.1591 0.0922 0.0942
915.000000 0.1126 0.2065 0.3003 0.3941 0.4880
910.000000 0.5474 0.5474 0.5324 0.5152 0.4980
905.000000 0.4808 0.4764 0.4781 0.5385 0.5990
900.000000 0.6594 0.7198 0.7803 0.8011 0.8068
895.000000 0.8103 0.8115 0.8125 0.8126 0.8118
890.000000 0.8104 0.8074 0.8015 0.7862 0.7445
885.000000 0.6714 0.5982 0.5251 0.4520 0.3788
880.000000 0.3057 0.2325 0.1594 0.1178 0.1178
875.000000 0.1203 0.1881 0.2558 0.3234 0.3912
870.000000 0.4590 0.5267 0.5945 0.6621 0.8001
865.000000 0.8096 0.8214 0.8325 0.8395 0.8464
860.000000 0.8533 0.8597 0.8647 0.8697 0.8748
855.000000 0.8795 0.8830 0.8866 0.8901 0.8936
850.000000 0.8958 0.8978 0.8999 0.9015 0.9028
845.000000 0.9041 0.9055 0.9061 0.9066 0.9071
840.000000 0.9071 0.9073 0.9073 0.9071 0.9071
835.000000 0.9068 0.9064 0.9059 0.9050 0.9040
830.000000 0.9030 0.9021 0.9005 0.8981 0.8957
825.000000 0.8933 0.8900 0.8866 0.8832 0.8774
820.000000 0.8710 0.8528 0.8348 0.8165 0.7984
815.000000 0.7803 0.7621 0.7439 0.7258 0.7215
810.000000 0.7230 0.7442 0.7618 0.7797 0.7974
805.000000 0.8151 0.8328 0.8507 0.8685 0.8834
800.000000 0.8889 0.8943 0.8994 0.9039 0.9083
795.000000 0.9121 0.9141 0.9161 0.9180 0.9200
790.000000 0.9210 0.9216 0.9221 0.9227 0.9233
785.000000 0.9239 0.9241 0.9242 0.9243 0.9244
780.000000 0.9244 0.9245 0.9246 0.9242 0.9238
775.000000 0.9234 0.9228 0.9225 0.9220 0.9216
770.000000 0.9212 0.9203 0.9190 0.9178 0.9165
765.000000 0.9153 0.9140 0.9128 0.9115 0.9094
760.000000 0.9067 0.9039 0.9012 0.8985 0.8957
755.000000 0.8927 0.8895 0.8863 0.8832 0.8800
750.000000 0.8759 0.8713 0.8666 0.8614 0.8556
745.000000 0.8498 0.8440 0.8375 0.8291 0.8207
740.000000 0.8121 0.7971 0.7796 0.7487 0.7251
735.000000 0.6928 0.6450 0.6017 0.5795 0.5635
730.000000 0.5451 0.5071 0.4520 0.3968 0.3418
725.000000 0.2868 0.2317 0.1766 0.1215 0.0664
720.000000 0.0199 0.0202 0.0204 0.0698 0.1340
715.000000 0.1981 0.2623 0.3264 0.3906 0.4547
710.000000 0.5189 0.5831 0.6471 0.7114 0.7722
705.000000 0.7803 0.7862 0.7921 0.7975 0.8042
700.000000 0.8099 0.8137 0.8178 0.8149 0.8149
695.000000 0.8141 0.8118 0.8072 0.7988 0.7890
690.000000 0.7771 0.7598 0.7399 0.7276 0.7148
685.000000 0.7017 0.6800 0.6558 0.6318 0.6076
680.000000 0.5835 0.5594 0.5352 0.5110 0.4870
675.000000 0.4662 0.4637 0.4612 0.4589 0.4567
670.000000 0.4546 0.4525 0.4505 0.4486 0.4467
665.000000 0.4448 0.4424 0.4399 0.4360 0.4296
660.000000 0.4217 0.3957 0.3670 0.3384 0.3097
655.000000 0.2811 0.2524 0.2237 0.1951 0.1664
650.000000 0.1378 0.1091 0.0804 0.0518 0.0231
645.000000 0.0114 0.0094 0.0075 0.0070 0.0067
640.000000 0.0075 0.0095 0.0123 0.0153 0.0207
635.000000 0.0261 0.0360 0.0518 0.1100 0.1664
630.000000 0.2284 0.2903 0.3522 0.4141 0.4545
625.000000 0.4637 0.4884 0.5170 0.5455 0.5741
620.000000 0.6026 0.6312 0.6575 0.6701 0.6825
615.000000 0.6980 0.7175 0.7451 0.7675 0.7819
610.000000 0.7911 0.8001 0.8093 0.8188 0.8287
605.000000 0.8385 0.8473 0.8554 0.8634 0.8680
600.000000 0.8725 0.8773 0.8818 0.8857 0.8892
595.000000 0.8927 0.8962 0.8989 0.9011 0.9033
590.000000 0.9050 0.9062 0.9074 0.9086 0.9090
585.000000 0.9091 0.9092 0.9093 0.9094 0.9094
580.000000 0.9094 0.9094 0.9093 0.9092 0.9091
575.000000 0.9090 0.9089 0.9088 0.9092 0.9096
570.000000 0.9099 0.9103 0.9108 0.9121 0.9135
565.000000 0.9148 0.9161 0.9175 0.9187 0.9198
560.000000 0.9208 0.9218 0.9228 0.9239 0.9250
555.000000 0.9260 0.9271 0.9281 0.9288 0.9292
550.000000 0.9296 0.9300 0.9303 0.9307 0.9311
545.000000 0.9315 0.9318 0.9323 0.9325 0.9330
540.000000 0.9331 0.9332 0.9333 0.9334 0.9335
535.000000 0.9336 0.9337 0.9338 0.9339 0.9340
530.000000 0.9341 0.9325 0.9343 0.9343 0.9344
525.000000 0.9344 0.9343 0.9341 0.9338 0.9335
520.000000 0.9333 0.9330 0.9327 0.9325 0.9321
515.000000 0.9318 0.9317 0.9314 0.9310 0.9304
510.000000 0.9298 0.9292 0.9285 0.9278 0.9273
505.000000 0.9267 0.9260 0.9254 0.9248 0.9242
500.000000 0.9236 0.9230 0.9224 0.9218 0.9212
495.000000 0.9206 0.9200 0.9194 0.9188 0.9182
490.000000 0.9171 0.9160 0.9149 0.9138 0.9127
485.000000 0.9116 0.9106 0.9095 0.9078 0.9064
480.000000 0.9048 0.9032 0.9017 0.9001 0.8986
475.000000 0.8961 0.8931 0.8900 0.8870 0.8839
470.000000 0.8792 0.8745 0.8698 0.8659 0.8625
465.000000 0.8593 0.8561 0.8528 0.8486 0.8357
460.000000 0.7961 0.7546 0.7130 0.6712 0.6297
455.000000 0.6025 0.6025 0.6025 0.6112 0.6337
450.000000 0.6561 0.6786 0.7010 0.7234 0.7458
445.000000 0.7682 0.7906 0.8130 0.8206 0.8225
440.000000 0.8225 0.8225 0.8225 0.8207 0.8187
435.000000 0.8164 0.8138 0.8111 0.8086 0.8060
430.000000 0.8034 0.8008 0.7974 0.7939 0.7905
425.000000 0.7869 0.7836 0.7801 0.7767 0.7732
420.000000 0.7671 0.7608 0.7544 0.7480 0.7415
415.000000 0.7334 0.7237 0.7140 0.7043 0.6987
410.000000 0.6946 0.6906 0.6865 0.6825 0.6789
405.000000 0.6754 0.6718 0.6697
##END=
