##TITLE=CYCLOHEXENE
##JCAMP-DX=4.24
##DATA TYPE=INFRARED SPECTRUM
##CLASS=COBLENTZ
##ORIGIN=DOW CHEMICAL COMPANY
##OWNER=COBLENTZ SOCIETY
Collection (C) 2018 copyright by the U.S. Secretary of Commerce
on behalf of the United States of America. All rights reserved.
##DATE=1964/10/13
##NAMES=1-cyclohexene
##CAS REGISTRY NO=110-83-8
##MOLFORM=C6 H10
##SOURCE REFERENCE=COBLENTZ NO. 6995
##$NIST SOURCE=COBLENTZ
##$NIST IMAGE=cob6995
##SPECTROMETER/DATA SYSTEM=DOW KBr FOREPRISM
##INSTRUMENT PARAMETERS=GRATING BLAZED AT 3.5, 12.0, 20.0 MICRONS AND CHANGED AT 5.0, 7.5, 14.9 MICRONS
##STATE=LIQUID (60 mmHg DILUTED TO A TOTAL PRESSURE OF 600 mmHg WITH NITROGEN)
##PATH LENGTH=5 CM
##SAMPLING PROCEDURE=TRANSMISSION
##RESOLUTION=4
##DATA PROCESSING=DIGITIZED BY NIST FROM HARD COPY (FROM TWO SEGMENTS)
##XUNITS=1/CM
##YUNITS=TRANSMITTANCE
##XFACTOR=1.000000
##YFACTOR=1
##DELTAX=0.879765
##FIRSTX=380.352
##LASTX=3792.96
##FIRSTY=0.987
##MAXX=3792.96
##MINX=380.352
##MAXY=1.008
##MINY=0.011
##NPOINTS=3880
##XYDATA=(X++(Y..Y))
380.352000 0.9870 0.9870 0.9870 0.9880 0.9880
384.750827 0.9880 0.9900 0.9880 0.9880 0.9880
389.149655 0.9880 0.9880 0.9870 0.9870 0.9880
393.548482 0.9880 0.9880 0.9870 0.9870 0.9860
397.947310 0.9860 0.9860 0.9840 0.9840 0.9840
402.346137 0.9840 0.9840 0.9830 0.9830 0.9830
406.744964 0.9830 0.9820 0.9820 0.9820 0.9800
411.143792 0.9800 0.9790 0.9790 0.9790 0.9790
415.542619 0.9770 0.9770 0.9770 0.9760 0.9760
419.941446 0.9750 0.9750 0.9730 0.9730 0.9720
424.340274 0.9720 0.9720 0.9720 0.9720 0.9710
428.739101 0.9710 0.9710 0.9710 0.9690 0.9690
433.137929 0.9690 0.9680 0.9680 0.9660 0.9660
437.536756 0.9660 0.9650 0.9650 0.9650 0.9640
441.935583 0.9640 0.9620 0.9610 0.9600 0.9580
446.334411 0.9580 0.9570 0.9570 0.9570 0.9580
450.733238 0.9600 0.9620 0.9650 0.9720 0.9790
455.132066 0.9800 0.9800 0.9800 0.9820 0.9820
459.530893 0.9820 0.9830 0.9830 0.9840 0.9840
463.929720 0.9840 0.9860 0.9860 0.9870 0.9880
468.328548 0.9900 0.9910 0.9910 0.9940 0.9950
472.727375 0.9970 0.9970 1.0000 1.0000 1.0010
477.126202 1.0010 1.0010 1.0010 1.0010 1.0010
481.525030 1.0010 1.0000 1.0000 1.0000 1.0000
485.923857 1.0000 0.9980 0.9980 0.9980 0.9980
490.322685 0.9980 0.9970 0.9970 0.9970 0.9970
494.721512 0.9970 0.9970 0.9950 0.9950 0.9950
499.120339 0.9950 0.9950 0.9940 0.9940 0.9930
503.519167 0.9930 0.9910 0.9910 0.9900 0.9900
507.917994 0.9910 0.9910 0.9900 0.9900 0.9900
512.316822 0.9900 0.9880 0.9880 0.9870 0.9860
516.715649 0.9860 0.9840 0.9840 0.9840 0.9840
521.114476 0.9840 0.9840 0.9830 0.9830 0.9800
525.513304 0.9790 0.9770 0.9770 0.9760 0.9760
529.912131 0.9760 0.9760 0.9760 0.9750 0.9750
534.310959 0.9750 0.9750 0.9750 0.9750 0.9750
538.709786 0.9750 0.9730 0.9730 0.9730 0.9730
543.108613 0.9720 0.9710 0.9710 0.9690 0.9690
547.507441 0.9690 0.9690 0.9690 0.9690 0.9710
551.906268 0.9710 0.9730 0.9750 0.9760 0.9760
556.305095 0.9760 0.9770 0.9770 0.9790 0.9800
560.703923 0.9800 0.9820 0.9820 0.9820 0.9800
565.102750 0.9800 0.9800 0.9800 0.9790 0.9790
569.501578 0.9830 0.9830 0.9840 0.9840 0.9840
573.900405 0.9840 0.9840 0.9840 0.9830 0.9830
578.299232 0.9830 0.9820 0.9820 0.9800 0.9800
582.698060 0.9790 0.9790 0.9770 0.9770 0.9770
587.096887 0.9800 0.9800 0.9800 0.9820 0.9820
591.495715 0.9820 0.9800 0.9790 0.9790 0.9770
595.894542 0.9770 0.9770 0.9760 0.9750 0.9720
600.293369 0.9680 0.9640 0.9610 0.9580 0.9550
604.692197 0.9540 0.9490 0.9420 0.9360 0.9330
609.091024 0.9290 0.9150 0.9040 0.8870 0.8650
613.489851 0.8590 0.8331 0.8031 0.7682 0.7491
617.888679 0.7410 0.7270 0.7170 0.7090 0.7020
622.287506 0.6920 0.6850 0.6830 0.6810 0.6800
626.686334 0.6800 0.6760 0.6790 0.6730 0.5752
631.085161 0.5331 0.4871 0.4870 0.5189 0.5190
635.483988 0.4580 0.4210 0.3840 0.3810 0.3042
639.882816 0.3040 0.4824 0.6504 0.6510 0.6211
644.281643 0.6140 0.6040 0.5950 0.5730 0.5630
648.680471 0.5600 0.5590 0.5550 0.5590 0.5968
653.079298 0.6010 0.5990 0.5600 0.5600 0.6329
657.478125 0.6470 0.6470 0.4686 0.4680 0.5158
661.876953 0.5410 0.5420 0.5879 0.6439 0.6500
666.275780 0.7098 0.7568 0.7919 0.8049 0.8120
670.674607 0.8150 0.8160 0.8180 0.8220 0.8250
675.073435 0.8310 0.8340 0.8440 0.8520 0.8600
679.472262 0.8650 0.8730 0.8850 0.8960 0.9070
683.871090 0.9110 0.9200 0.9280 0.9310 0.9330
688.269917 0.9420 0.9440 0.9460 0.9470 0.9490
692.668744 0.9470 0.9470 0.9440 0.9400 0.9360
697.067572 0.9310 0.9170 0.9110 0.8990 0.8850
701.466399 0.8700 0.8620 0.8510 0.8380 0.8261
705.865227 0.8180 0.8160 0.8180 0.8220 0.8250
710.264054 0.8340 0.8420 0.8510 0.8620 0.8729
714.662881 0.8800 0.8780 0.6992 0.5862 0.4623
719.061709 0.4580 0.2258 0.2250 0.7407 0.9141
723.460536 0.9150 0.9110 0.9030 0.8880 0.8730
727.859363 0.8530 0.8380 0.8260 0.8111 0.7961
732.258191 0.7930 0.7940 0.8030 0.8160 0.8310
736.657018 0.8470 0.8520 0.8660 0.8740 0.8909
741.055846 0.9090 0.9240 0.9380 0.9500 0.9570
745.454673 0.9640 0.9690 0.9760 0.9790 0.9830
749.853500 0.9860 0.9880 0.9910 0.9930 0.9940
754.252328 0.9970 0.9970 0.9980 1.0000 1.0000
758.651155 1.0000 1.0010 1.0010 1.0000 1.0000
763.049983 1.0000 1.0000 1.0000 0.9980 0.9980
767.448810 0.9980 0.9980 0.9980 1.0000 1.0000
771.847637 1.0010 1.0020 1.0040 1.0050 1.0050
776.246465 1.0060 1.0080 1.0080 1.0080 1.0080
780.645292 1.0080 1.0080 1.0080 1.0080 1.0060
785.044120 1.0050 1.0050 1.0050 1.0020 1.0020
789.442947 1.0010 1.0000 1.0000 0.9980 0.9970
793.841774 0.9930 0.9910 0.9880 0.9830 0.9830
798.240602 0.9800 0.9800 0.9770 0.9750 0.9750
802.639429 0.9750 0.9730 0.9730 0.9720 0.9720
807.038256 0.9720 0.9720 0.9710 0.9710 0.9690
811.437084 0.9680 0.9660 0.9660 0.9660 0.9660
815.835911 0.9680 0.9710 0.9720 0.9720 0.9720
820.234739 0.9730 0.9730 0.9750 0.9750 0.9760
824.633566 0.9760 0.9760 0.9790 0.9820 0.9880
829.032393 0.9900 0.9930 0.9940 0.9950 0.9950
833.431221 0.9970 0.9970 0.9980 1.0000 1.0010
837.830048 1.0010 1.0020 1.0020 1.0040 1.0020
842.228876 1.0020 1.0010 1.0000 1.0000 1.0000
846.627703 0.9980 0.9970 0.9950 0.9930 0.9910
851.026530 0.9900 0.9870 0.9840 0.9790 0.9760
855.425358 0.9690 0.9620 0.9540 0.9440 0.9360
859.824185 0.9250 0.9140 0.8991 0.8851 0.8760
864.223012 0.8690 0.8520 0.8380 0.8290 0.8220
868.621840 0.8200 0.8220 0.8230 0.8260 0.8270
873.020667 0.8230 0.8120 0.8010 0.7890 0.7740
877.419495 0.7580 0.7431 0.7430 0.8216 0.8230
881.818322 0.8250 0.8250 0.8250 0.8250 0.8300
886.217149 0.8330 0.8400 0.8490 0.8649 0.8760
890.615977 0.8870 0.8950 0.9060 0.9110 0.9110
895.014804 0.9110 0.9100 0.9020 0.8930 0.8850
899.413632 0.8810 0.8690 0.8580 0.8490 0.8410
903.812459 0.8360 0.8300 0.8260 0.8250 0.8220
908.211286 0.8220 0.8200 0.8220 0.8230 0.8260
912.610114 0.8200 0.8140 0.7941 0.7562 0.7132
917.008941 0.6030 0.4901 0.3771 0.3770 0.8410
921.407768 0.8490 0.8550 0.8590 0.8600 0.8590
925.806596 0.8590 0.8580 0.8530 0.8470 0.8450
930.205423 0.8480 0.8530 0.8590 0.8690 0.8710
934.604251 0.8800 0.8880 0.8920 0.8950 0.9040
939.003078 0.9110 0.9200 0.9290 0.9380 0.9489
943.401905 0.9510 0.9540 0.9550 0.9570 0.9600
947.800733 0.9640 0.9660 0.9680 0.9690 0.9720
952.199560 0.9730 0.9730 0.9750 0.9750 0.9750
956.598388 0.9750 0.9760 0.9760 0.9750 0.9750
960.997215 0.9730 0.9730 0.9720 0.9710 0.9710
965.396042 0.9710 0.9720 0.9720 0.9730 0.9730
969.794870 0.9750 0.9750 0.9760 0.9760 0.9760
974.193697 0.9750 0.9750 0.9720 0.9720 0.9710
978.592524 0.9690 0.9690 0.9680 0.9650 0.9620
982.991352 0.9620 0.9620 0.9610 0.9600 0.9570
987.390179 0.9540 0.9540 0.9530 0.9510 0.9460
991.789007 0.9420 0.9390 0.9400 0.9390 0.9390
996.187834 0.9390 0.9380 0.9350 0.9330 0.9360
1000.586661 0.9350 0.9320 0.9280 0.9250 0.9200
1004.985489 0.9140 0.9110 0.8880 0.8880 0.9110
1009.384316 0.9290 0.9380 0.9380 0.9330 0.9320
1013.783144 0.9240 0.9200 0.9140 0.9110 0.9100
1018.181971 0.9040 0.9020 0.8960 0.8920 0.8870
1022.580798 0.8810 0.8740 0.8690 0.8650 0.8600
1026.979626 0.8520 0.8480 0.8450 0.8440 0.8420
1031.378453 0.8420 0.8420 0.8440 0.8440 0.8440
1035.777281 0.8410 0.8121 0.7711 0.7710 0.8228
1040.176108 0.8530 0.8550 0.8550 0.8520 0.8510
1044.574935 0.8450 0.8410 0.8410 0.8420 0.8440
1048.973763 0.8490 0.8560 0.8670 0.8780 0.8950
1053.372590 0.9070 0.9140 0.9220 0.9310 0.9380
1057.771417 0.9460 0.9470 0.9490 0.9530 0.9540
1062.170245 0.9550 0.9570 0.9570 0.9580 0.9580
1066.569072 0.9580 0.9580 0.9570 0.9570 0.9570
1070.967900 0.9570 0.9580 0.9600 0.9610 0.9610
1075.366727 0.9620 0.9640 0.9640 0.9640 0.9650
1079.765554 0.9650 0.9660 0.9660 0.9680 0.9680
1084.164382 0.9680 0.9680 0.9680 0.9680 0.9680
1088.563209 0.9660 0.9660 0.9660 0.9660 0.9660
1092.962037 0.9660 0.9660 0.9660 0.9660 0.9660
1097.360864 0.9650 0.9650 0.9650 0.9640 0.9640
1101.759691 0.9640 0.9640 0.9620 0.9620 0.9610
1106.158519 0.9600 0.9570 0.9570 0.9550 0.9550
1110.557346 0.9540 0.9540 0.9530 0.9500 0.9470
1114.956173 0.9430 0.9360 0.9330 0.9310 0.9240
1119.355001 0.9170 0.9140 0.9090 0.8960 0.8880
1123.753828 0.8850 0.8740 0.8690 0.8630 0.8580
1128.152656 0.8530 0.8520 0.8510 0.8520 0.8560
1132.551483 0.8590 0.8620 0.8630 0.8690 0.8690
1136.950310 0.8650 0.8440 0.7501 0.4654 0.4650
1141.349138 0.5727 0.8183 0.8439 0.8450 0.8450
1145.747965 0.8440 0.8400 0.8400 0.8370 0.8330
1150.146793 0.8360 0.8400 0.8440 0.8480 0.8550
1154.545620 0.8600 0.8670 0.8730 0.8800 0.8870
1158.944447 0.8920 0.8980 0.9070 0.9170 0.9250
1163.343275 0.9310 0.9350 0.9360 0.9420 0.9440
1167.742102 0.9470 0.9510 0.9530 0.9530 0.9550
1172.140929 0.9570 0.9570 0.9570 0.9580 0.9580
1176.539757 0.9600 0.9600 0.9610 0.9610 0.9610
1180.938584 0.9610 0.9610 0.9610 0.9610 0.9600
1185.337412 0.9600 0.9600 0.9580 0.9580 0.9580
1189.736239 0.9570 0.9550 0.9540 0.9530 0.9510
1194.135066 0.9500 0.9500 0.9490 0.9490 0.9470
1198.533894 0.9470 0.9470 0.9470 0.9460 0.9430
1202.932721 0.9430 0.9430 0.9430 0.9440 0.9440
1207.331549 0.9460 0.9460 0.9440 0.9440 0.9440
1211.730376 0.9430 0.9420 0.9400 0.9390 0.9380
1216.129203 0.9380 0.9390 0.9390 0.9390 0.9390
1220.528031 0.9390 0.9390 0.9380 0.9330 0.9320
1224.926858 0.9310 0.9240 0.9210 0.9170 0.9140
1229.325686 0.9130 0.9110 0.9070 0.9040 0.9030
1233.724513 0.9030 0.9030 0.9030 0.9040 0.9040
1238.123340 0.9060 0.9070 0.9110 0.9110 0.9110
1242.522168 0.9070 0.9060 0.9040 0.9020 0.9020
1246.920995 0.9000 0.8990 0.8990 0.8990 0.8980
1251.319822 0.8950 0.8910 0.8890 0.8850 0.8820
1255.718650 0.8810 0.8760 0.8730 0.8710 0.8700
1260.117477 0.8700 0.8690 0.8670 0.8670 0.8670
1264.516305 0.8690 0.8690 0.8670 0.8630 0.8451
1268.915132 0.8200 0.8200 0.8310 0.8709 0.8760
1273.313959 0.8760 0.8730 0.8730 0.8710 0.8710
1277.712787 0.8710 0.8730 0.8740 0.8780 0.8810
1282.111614 0.8840 0.8880 0.8930 0.8950 0.9020
1286.510442 0.9040 0.9100 0.9130 0.9150 0.9180
1290.909269 0.9200 0.9240 0.9260 0.9260 0.9260
1295.308096 0.9260 0.9260 0.9250 0.9240 0.9240
1299.706924 0.9220 0.9240 0.9220 0.9210 0.9200
1304.105751 0.9180 0.9170 0.9140 0.9130 0.9100
1308.504578 0.9090 0.9070 0.9060 0.9040 0.9000
1312.903406 0.8980 0.8960 0.8930 0.8910 0.8880
1317.302233 0.8840 0.8800 0.8780 0.8780 0.8770
1321.701061 0.8740 0.8730 0.8710 0.8690 0.8520
1326.099888 0.8480 0.8490 0.8470 0.8380 0.8360
1330.498715 0.8340 0.8310 0.8290 0.8270 0.8270
1334.897543 0.8290 0.8290 0.8290 0.8290 0.8290
1339.296370 0.8300 0.8300 0.8300 0.8300 0.8310
1343.695198 0.8330 0.8330 0.8330 0.8310 0.8310
1348.094025 0.8290 0.8180 0.8090 0.7960 0.7830
1352.492852 0.7720 0.7650 0.7610 0.7580 0.7580
1356.891680 0.7570 0.7560 0.7500 0.7490 0.7470
1361.290507 0.7460 0.7450 0.7450 0.7430 0.7430
1365.689334 0.7430 0.7450 0.7450 0.7460 0.7470
1370.088162 0.7490 0.7500 0.7530 0.7560 0.7580
1374.486989 0.7630 0.7680 0.7740 0.7760 0.7780
1378.885817 0.7800 0.7820 0.7900 0.7940 0.7970
1383.284644 0.7980 0.8010 0.8040 0.8050 0.8110
1387.683471 0.8140 0.8160 0.8180 0.8190 0.8290
1392.082299 0.8340 0.8360 0.8370 0.8400 0.8440
1396.481126 0.8490 0.8520 0.8530 0.8580 0.8620
1400.879954 0.8660 0.8690 0.8730 0.8760 0.8780
1405.278781 0.8800 0.8820 0.8840 0.8850 0.8880
1409.677608 0.8910 0.8910 0.8920 0.8920 0.8930
1414.076436 0.8930 0.8930 0.8920 0.8920 0.8910
1418.475263 0.8910 0.8880 0.8850 0.8800 0.8740
1422.874090 0.8660 0.8560 0.8440 0.8330 0.8181
1427.272918 0.7980 0.7760 0.7540 0.7310 0.7061
1431.671745 0.6831 0.6621 0.6411 0.6251 0.6111
1436.070573 0.5960 0.5930 0.5920 0.5900 0.5900
1440.469400 0.5890 0.5860 0.5352 0.4842 0.4840
1444.868227 0.4900 0.5120 0.5130 0.5150 0.5150
1449.267055 0.5130 0.5110 0.5080 0.4204 0.4200
1453.665882 0.5120 0.5120 0.4461 0.3602 0.3600
1458.064710 0.5295 0.5778 0.6368 0.6410 0.6480
1462.463537 0.6550 0.6610 0.6630 0.6690 0.6770
1466.862364 0.6910 0.7050 0.7100 0.7210 0.7339
1471.261192 0.7430 0.7670 0.7750 0.8010 0.8180
1475.660019 0.8310 0.8360 0.8480 0.8530 0.8630
1480.058847 0.8700 0.8780 0.8890 0.8960 0.9070
1484.457674 0.9100 0.9130 0.9140 0.9140 0.9170
1488.856501 0.9200 0.9210 0.9240 0.9250 0.9250
1493.255329 0.9250 0.9250 0.9240 0.9240 0.9250
1497.654156 0.9260 0.9310 0.9320 0.9330 0.9320
1502.052983 0.9320 0.9310 0.9290 0.9250 0.9180
1506.451811 0.9130 0.9170 0.9200 0.9240 0.9250
1510.850638 0.9250 0.9260 0.9260 0.9250 0.9240
1515.249466 0.9220 0.9200 0.9180 0.9150 0.9130
1519.648293 0.9130 0.9070 0.9070 0.9100 0.9130
1524.047120 0.9140 0.9140 0.9170 0.9170 0.9180
1528.445948 0.9180 0.9180 0.9200 0.9200 0.9180
1532.844775 0.9200 0.9200 0.9200 0.9210 0.9200
1537.243603 0.9150 0.9100 0.9070 0.9070 0.9100
1541.642430 0.9130 0.9150 0.9210 0.9220 0.9240
1546.041257 0.9260 0.9290 0.9310 0.9310 0.9320
1550.440085 0.9330 0.9330 0.9320 0.9310 0.9290
1554.838912 0.9280 0.9260 0.9250 0.9210 0.9110
1559.237739 0.9110 0.9180 0.9250 0.9290 0.9310
1563.636567 0.9330 0.9350 0.9350 0.9350 0.9330
1568.035394 0.9330 0.9320 0.9330 0.9330 0.9350
1572.434222 0.9360 0.9360 0.9310 0.9250 0.9200
1576.833049 0.9220 0.9320 0.9330 0.9320 0.9320
1581.231876 0.9310 0.9260 0.9210 0.9180 0.9140
1585.630704 0.9130 0.9110 0.9110 0.9100 0.9070
1590.029531 0.9070 0.9040 0.9020 0.8990 0.8980
1594.428359 0.8960 0.8960 0.8960 0.8960 0.8960
1598.827186 0.8950 0.8950 0.8950 0.8930 0.8930
1603.226013 0.8920 0.8920 0.8920 0.8920 0.8920
1607.624841 0.8920 0.8920 0.8910 0.8910 0.8910
1612.023668 0.8910 0.8910 0.8880 0.8840 0.8780
1616.422495 0.8730 0.8780 0.8800 0.8870 0.8930
1620.821323 0.8960 0.8960 0.8930 0.8930 0.8920
1625.220150 0.8920 0.8920 0.8920 0.8920 0.8920
1629.618978 0.8930 0.8930 0.8930 0.8920 0.8890
1634.017805 0.8880 0.8760 0.8700 0.8670 0.8690
1638.416632 0.8700 0.8670 0.8650 0.8550 0.8420
1642.815460 0.8290 0.8190 0.8150 0.7941 0.7930
1647.214287 0.7940 0.7960 0.7970 0.7970 0.7940
1651.613115 0.7820 0.7611 0.7650 0.7720 0.7800
1656.011942 0.7860 0.7940 0.8030 0.8030 0.8000
1660.410769 0.7930 0.7900 0.7860 0.7830 0.7800
1664.809597 0.7790 0.7790 0.7820 0.7860 0.7920
1669.208424 0.7980 0.8120 0.8220 0.8340 0.8420
1673.607251 0.8490 0.8510 0.8530 0.8670 0.8740
1678.006079 0.8800 0.8820 0.8840 0.8870 0.8880
1682.404906 0.8850 0.8630 0.8620 0.8650 0.8770
1686.803734 0.8920 0.8930 0.8930 0.8920 0.8920
1691.202561 0.8910 0.8910 0.8910 0.8880 0.8820
1695.601388 0.8810 0.8780 0.8810 0.8870 0.8920
1700.000216 0.8950 0.8960 0.8980 0.9020 0.9030
1704.399043 0.9060 0.9070 0.9070 0.9090 0.9100
1708.797871 0.9100 0.9100 0.9100 0.9090 0.9060
1713.196698 0.9040 0.9030 0.9020 0.8980 0.8920
1717.595525 0.8980 0.9040 0.9060 0.9070 0.9090
1721.994353 0.9090 0.9090 0.9090 0.9070 0.9070
1726.393180 0.9070 0.9060 0.9040 0.9040 0.9030
1730.792008 0.9020 0.8990 0.8950 0.8950 0.8980
1735.190835 0.9030 0.9030 0.9030 0.9030 0.9040
1739.589662 0.9040 0.9040 0.9040 0.9060 0.9060
1743.988490 0.9060 0.9060 0.9060 0.9060 0.9070
1748.387317 0.9070 0.9070 0.9070 0.9090 0.9100
1752.786144 0.9110 0.9130 0.9130 0.9130 0.9140
1757.184972 0.9140 0.9140 0.9150 0.9170 0.9170
1761.583799 0.9170 0.9180 0.9200 0.9200 0.9200
1765.982627 0.9210 0.9210 0.9210 0.9210 0.9220
1770.381454 0.9220 0.9240 0.9240 0.9240 0.9240
1774.780281 0.9240 0.9220 0.9220 0.9220 0.9220
1779.179109 0.9220 0.9220 0.9220 0.9220 0.9220
1783.577936 0.9220 0.9220 0.9210 0.9210 0.9200
1787.976764 0.9200 0.9180 0.9170 0.9170 0.9180
1792.375591 0.9220 0.9240 0.9240 0.9240 0.9240
1796.774418 0.9240 0.9240 0.9240 0.9240 0.9240
1801.173246 0.9240 0.9280 0.9290 0.9310 0.9320
1805.572073 0.9320 0.9320 0.9320 0.9320 0.9320
1809.970900 0.9320 0.9310 0.9310 0.9310 0.9310
1814.369728 0.9310 0.9310 0.9290 0.9290 0.9290
1818.768555 0.9290 0.9290 0.9290 0.9280 0.9280
1823.167383 0.9280 0.9280 0.9280 0.9280 0.9280
1827.566210 0.9290 0.9280 0.9280 0.9260 0.9260
1831.965037 0.9260 0.9260 0.9280 0.9280 0.9290
1836.363865 0.9310 0.9320 0.9320 0.9320 0.9330
1840.762692 0.9330 0.9320 0.9280 0.9250 0.9260
1845.161520 0.9280 0.9290 0.9310 0.9320 0.9320
1849.560347 0.9320 0.9310 0.9310 0.9290 0.9290
1853.959174 0.9280 0.9280 0.9290 0.9280 0.9280
1858.358002 0.9280 0.9280 0.9280 0.9280 0.9260
1862.756829 0.9260 0.9250 0.9240 0.9220 0.9210
1867.155656 0.9200 0.9180 0.9150 0.9150 0.9140
1871.554484 0.9140 0.9130 0.9110 0.9100 0.9100
1875.953311 0.9100 0.9100 0.9100 0.9100 0.9100
1880.352139 0.9110 0.9110 0.9100 0.9100 0.9090
1884.750966 0.9070 0.9060 0.9060 0.9060 0.9070
1889.149793 0.9070 0.9060 0.9060 0.9040 0.9040
1893.548621 0.9030 0.9030 0.9040 0.9060 0.9070
1897.947448 0.9090 0.9100 0.9110 0.9130 0.9140
1902.346276 0.9180 0.9210 0.9210 0.9210 0.9210
1906.745103 0.9220 0.9220 0.9240 0.9240 0.9220
1911.143930 0.9220 0.9220 0.9220 0.9220 0.9220
1915.542758 0.9240 0.9220 0.9220 0.9210 0.9200
1919.941585 0.9200 0.9180 0.9200 0.9210 0.9220
1924.340412 0.9220 0.9220 0.9220 0.9240 0.9250
1928.739240 0.9250 0.9260 0.9260 0.9260 0.9260
1933.138067 0.9260 0.9260 0.9260 0.9260 0.9260
1937.536895 0.9260 0.9260 0.9250 0.9250 0.9250
1941.935722 0.9250 0.9250 0.9250 0.9250 0.9250
1946.334549 0.9260 0.9260 0.9280 0.9280 0.9280
1950.733377 0.9290 0.9290 0.9290 0.9290 0.9310
1955.132204 0.9310 0.9310 0.9310 0.9310 0.9310
1959.531032 0.9320 0.9320 0.9320 0.9320 0.9320
1963.929859 0.9320 0.9320 0.9320 0.9320 0.9320
1968.328686 0.9320 0.9320 0.9320 0.9320 0.9320
1972.727514 0.9330 0.9330 0.9320 0.9320 0.9320
1977.126341 0.9320 0.9320 0.9310 0.9310 0.9310
1981.525169 0.9310 0.9310 0.9310 0.9310 0.9310
1985.923996 0.9310 0.9310 0.9310 0.9310 0.9310
1990.322823 0.9310 0.9310 0.9310 0.9310 0.9310
1994.721651 0.9310 0.9310 0.9310 0.9320 0.9320
1999.120478 0.9330 0.9330 0.9340 0.9350 0.9350
2003.519305 0.9350 0.9355 0.9360 0.9360 0.9360
2007.918133 0.9360 0.9360 0.9360 0.9360 0.9360
2012.316960 0.9360 0.9360 0.9360 0.9370 0.9380
2016.715788 0.9380 0.9380 0.9380 0.9380 0.9380
2021.114615 0.9380 0.9385 0.9390 0.9390 0.9390
2025.513442 0.9390 0.9390 0.9390 0.9390 0.9390
2029.912270 0.9390 0.9390 0.9390 0.9390 0.9390
2034.311097 0.9385 0.9380 0.9380 0.9380 0.9380
2038.709925 0.9380 0.9380 0.9379 0.9369 0.9360
2043.108752 0.9360 0.9360 0.9360 0.9360 0.9360
2047.507579 0.9360 0.9360 0.9360 0.9360 0.9360
2051.906407 0.9360 0.9360 0.9360 0.9359 0.9354
2056.305234 0.9349 0.9339 0.9330 0.9330 0.9330
2060.704061 0.9330 0.9329 0.9324 0.9320 0.9320
2065.102889 0.9320 0.9320 0.9320 0.9320 0.9320
2069.501716 0.9320 0.9320 0.9320 0.9321 0.9326
2073.900544 0.9330 0.9330 0.9329 0.9324 0.9320
2078.299371 0.9320 0.9320 0.9320 0.9320 0.9320
2082.698198 0.9320 0.9320 0.9320 0.9320 0.9320
2087.097026 0.9320 0.9320 0.9320 0.9320 0.9320
2091.495853 0.9319 0.9314 0.9307 0.9292 0.9278
2095.894681 0.9268 0.9260 0.9260 0.9260 0.9260
2100.293508 0.9260 0.9260 0.9262 0.9272 0.9278
2104.692335 0.9268 0.9258 0.9248 0.9240 0.9240
2109.091163 0.9241 0.9246 0.9251 0.9256 0.9260
2113.489990 0.9260 0.9259 0.9254 0.9249 0.9244
2117.888817 0.9240 0.9240 0.9241 0.9246 0.9254
2122.287645 0.9269 0.9285 0.9305 0.9321 0.9326
2126.686472 0.9330 0.9330 0.9330 0.9330 0.9330
2131.085300 0.9330 0.9333 0.9343 0.9347 0.9337
2135.484127 0.9330 0.9330 0.9330 0.9330 0.9330
2139.882954 0.9330 0.9329 0.9324 0.9320 0.9320
2144.281782 0.9320 0.9320 0.9320 0.9320 0.9320
2148.680609 0.9320 0.9320 0.9320 0.9320 0.9320
2153.079437 0.9322 0.9327 0.9330 0.9330 0.9330
2157.478264 0.9330 0.9330 0.9330 0.9330 0.9330
2161.877091 0.9330 0.9330 0.9333 0.9343 0.9350
2166.275919 0.9350 0.9350 0.9350 0.9350 0.9350
2170.674746 0.9350 0.9350 0.9347 0.9337 0.9330
2175.073573 0.9330 0.9330 0.9330 0.9330 0.9330
2179.472401 0.9334 0.9344 0.9350 0.9350 0.9346
2183.871228 0.9336 0.9328 0.9323 0.9318 0.9313
2188.270056 0.9312 0.9317 0.9318 0.9313 0.9306
2192.668883 0.9296 0.9288 0.9283 0.9280 0.9280
2197.067710 0.9280 0.9280 0.9280 0.9280 0.9282
2201.466538 0.9287 0.9290 0.9290 0.9290 0.9290
2205.865365 0.9290 0.9290 0.9288 0.9283 0.9280
2210.264193 0.9280 0.9280 0.9280 0.9276 0.9266
2214.663020 0.9260 0.9260 0.9264 0.9274 0.9282
2219.061847 0.9287 0.9290 0.9290 0.9297 0.9312
2223.460675 0.9320 0.9320 0.9320 0.9320 0.9320
2227.859502 0.9320 0.9320 0.9320 0.9320 0.9320
2232.258330 0.9322 0.9327 0.9330 0.9330 0.9325
2236.657157 0.9315 0.9310 0.9310 0.9310 0.9310
2241.055984 0.9310 0.9310 0.9310 0.9310 0.9310
2245.454812 0.9310 0.9310 0.9310 0.9310 0.9310
2249.853639 0.9310 0.9310 0.9305 0.9295 0.9290
2254.252466 0.9290 0.9290 0.9290 0.9290 0.9290
2258.651294 0.9298 0.9313 0.9320 0.9320 0.9323
2263.050121 0.9328 0.9330 0.9330 0.9327 0.9322
2267.448949 0.9320 0.9320 0.9320 0.9320 0.9320
2271.847776 0.9320 0.9323 0.9328 0.9330 0.9330
2276.246603 0.9324 0.9314 0.9310 0.9310 0.9310
2280.645431 0.9310 0.9310 0.9310 0.9310 0.9310
2285.044258 0.9316 0.9326 0.9336 0.9346 0.9350
2289.443086 0.9350 0.9353 0.9358 0.9360 0.9360
2293.841913 0.9360 0.9360 0.9360 0.9360 0.9357
2298.240740 0.9352 0.9350 0.9350 0.9350 0.9350
2302.639568 0.9344 0.9334 0.9336 0.9346 0.9344
2307.038395 0.9334 0.9330 0.9330 0.9330 0.9330
2311.437222 0.9330 0.9330 0.9330 0.9330 0.9327
2315.836050 0.9322 0.9317 0.9312 0.9310 0.9310
2320.234877 0.9303 0.9293 0.9290 0.9290 0.9300
2324.633705 0.9315 0.9323 0.9328 0.9330 0.9330
2329.032532 0.9330 0.9330 0.9330 0.9330 0.9337
2333.431359 0.9347 0.9350 0.9350 0.9353 0.9358
2337.830187 0.9360 0.9360 0.9360 0.9360 0.9360
2342.229014 0.9360 0.9360 0.9360 0.9367 0.9377
2346.627842 0.9380 0.9380 0.9380 0.9380 0.9384
2351.026669 0.9389 0.9386 0.9381 0.9380 0.9380
2355.425496 0.9373 0.9363 0.9360 0.9360 0.9360
2359.824324 0.9360 0.9360 0.9360 0.9360 0.9360
2364.223151 0.9356 0.9351 0.9354 0.9359 0.9360
2368.621978 0.9360 0.9360 0.9360 0.9360 0.9360
2373.020806 0.9356 0.9351 0.9342 0.9332 0.9330
2377.419633 0.9330 0.9326 0.9321 0.9320 0.9320
2381.818461 0.9320 0.9320 0.9324 0.9329 0.9338
2386.217288 0.9348 0.9350 0.9350 0.9350 0.9350
2390.616115 0.9350 0.9350 0.9354 0.9359 0.9360
2395.014943 0.9360 0.9356 0.9351 0.9350 0.9350
2399.413770 0.9342 0.9332 0.9330 0.9330 0.9330
2403.812598 0.9330 0.9330 0.9330 0.9338 0.9348
2408.211425 0.9350 0.9350 0.9354 0.9359 0.9360
2412.610252 0.9360 0.9369 0.9379 0.9384 0.9389
2417.009080 0.9394 0.9399 0.9409 0.9419 0.9424
2421.407907 0.9429 0.9430 0.9430 0.9434 0.9439
2425.806735 0.9440 0.9440 0.9440 0.9440 0.9440
2430.205562 0.9440 0.9440 0.9440 0.9440 0.9440
2434.604389 0.9449 0.9459 0.9460 0.9460 0.9460
2439.003217 0.9460 0.9460 0.9460 0.9460 0.9460
2443.402044 0.9460 0.9460 0.9465 0.9470 0.9470
2447.800871 0.9470 0.9470 0.9470 0.9470 0.9470
2452.199699 0.9470 0.9470 0.9470 0.9470 0.9465
2456.598526 0.9460 0.9460 0.9460 0.9460 0.9460
2460.997354 0.9460 0.9460 0.9460 0.9460 0.9450
2465.396181 0.9440 0.9440 0.9440 0.9435 0.9430
2469.795008 0.9430 0.9430 0.9425 0.9420 0.9410
2474.193836 0.9400 0.9390 0.9380 0.9370 0.9360
2478.592663 0.9355 0.9350 0.9350 0.9350 0.9350
2482.991491 0.9350 0.9355 0.9360 0.9370 0.9380
2487.390318 0.9380 0.9380 0.9385 0.9390 0.9390
2491.789145 0.9390 0.9395 0.9400 0.9410 0.9420
2496.187973 0.9420 0.9420 0.9420 0.9420 0.9420
2500.586800 0.9420 0.9425 0.9430 0.9435 0.9440
2504.985627 0.9440 0.9440 0.9450 0.9460 0.9460
2509.384455 0.9460 0.9460 0.9460 0.9460 0.9460
2513.783282 0.9465 0.9470 0.9470 0.9470 0.9470
2518.182110 0.9471 0.9481 0.9490 0.9490 0.9490
2522.580937 0.9490 0.9490 0.9490 0.9490 0.9495
2526.979764 0.9500 0.9500 0.9500 0.9500 0.9500
2531.378592 0.9506 0.9510 0.9510 0.9510 0.9510
2535.777419 0.9510 0.9510 0.9511 0.9521 0.9530
2540.176247 0.9530 0.9530 0.9530 0.9530 0.9530
2544.575074 0.9531 0.9536 0.9540 0.9540 0.9540
2548.973901 0.9540 0.9540 0.9540 0.9541 0.9546
2553.372729 0.9550 0.9550 0.9549 0.9544 0.9540
2557.771556 0.9540 0.9539 0.9534 0.9527 0.9507
2562.170383 0.9487 0.9472 0.9460 0.9460 0.9457
2566.569211 0.9442 0.9429 0.9424 0.9418 0.9408
2570.968038 0.9399 0.9394 0.9389 0.9384 0.9378
2575.366866 0.9368 0.9360 0.9360 0.9360 0.9360
2579.765693 0.9360 0.9360 0.9359 0.9354 0.9350
2584.164520 0.9350 0.9350 0.9350 0.9351 0.9356
2588.563348 0.9360 0.9360 0.9362 0.9372 0.9381
2592.962175 0.9386 0.9391 0.9396 0.9400 0.9400
2597.361003 0.9404 0.9419 0.9430 0.9430 0.9430
2601.759830 0.9430 0.9431 0.9436 0.9440 0.9440
2606.158657 0.9439 0.9434 0.9430 0.9430 0.9431
2610.557485 0.9436 0.9440 0.9440 0.9440 0.9440
2614.956312 0.9440 0.9440 0.9440 0.9440 0.9440
2619.355139 0.9440 0.9440 0.9440 0.9440 0.9440
2623.753967 0.9440 0.9440 0.9437 0.9427 0.9420
2628.152794 0.9420 0.9417 0.9407 0.9400 0.9400
2632.551622 0.9394 0.9374 0.9355 0.9340 0.9328
2636.950449 0.9323 0.9320 0.9320 0.9318 0.9313
2641.349276 0.9300 0.9270 0.9239 0.9203 0.9173
2645.748104 0.9153 0.9135 0.9120 0.9107 0.9097
2650.146931 0.9070 0.9015 0.8968 0.8932 0.8887
2654.545759 0.8822 0.8764 0.8719 0.8665 0.8595
2658.944586 0.8539 0.8509 0.8477 0.8442 0.8416
2663.343413 0.8406 0.8404 0.8414 0.8431 0.8462
2667.742241 0.8488 0.8508 0.8522 0.8527 0.8534
2672.141068 0.8544 0.8552 0.8557 0.8568 0.8588
2676.539896 0.8618 0.8663 0.8700 0.8725 0.8754
2680.938723 0.8789 0.8812 0.8817 0.8843 0.8898
2685.337550 0.8949 0.8994 0.9035 0.9070 0.9094
2689.736378 0.9104 0.9116 0.9132 0.9142 0.9147
2694.135205 0.9154 0.9164 0.9172 0.9177 0.9187
2698.534032 0.9202 0.9212 0.9217 0.9227 0.9242
2702.932860 0.9250 0.9250 0.9252 0.9257 0.9265
2707.331687 0.9275 0.9280 0.9280 0.9282 0.9287
2711.730515 0.9295 0.9305 0.9310 0.9310 0.9312
2716.129342 0.9317 0.9322 0.9327 0.9330 0.9330
2720.528169 0.9335 0.9345 0.9353 0.9358 0.9360
2724.926997 0.9360 0.9365 0.9375 0.9380 0.9380
2729.325824 0.9383 0.9388 0.9390 0.9390 0.9393
2733.724652 0.9398 0.9400 0.9400 0.9400 0.9400
2738.123479 0.9400 0.9400 0.9400 0.9400 0.9400
2742.522306 0.9400 0.9397 0.9392 0.9390 0.9390
2746.921134 0.9390 0.9390 0.9390 0.9390 0.9387
2751.319961 0.9382 0.9374 0.9364 0.9357 0.9352
2755.718788 0.9344 0.9334 0.9324 0.9314 0.9301
2760.117616 0.9286 0.9274 0.9264 0.9254 0.9244
2764.516443 0.9228 0.9208 0.9185 0.9160 0.9147
2768.915271 0.9142 0.9137 0.9132 0.9109 0.9074
2773.314098 0.9039 0.9004 0.8987 0.8982 0.8974
2777.712925 0.8964 0.8957 0.8952 0.8944 0.8934
2782.111753 0.8927 0.8922 0.8911 0.8896 0.8884
2786.510580 0.8874 0.8854 0.8829 0.8820 0.8820
2790.909408 0.8817 0.8812 0.8810 0.8810 0.8807
2795.308235 0.8802 0.8793 0.8783 0.8780 0.8780
2799.707062 0.8780 0.8780 0.8780 0.8780 0.8787
2804.105890 0.8797 0.8803 0.8808 0.8813 0.8818
2808.504717 0.8827 0.8837 0.8843 0.8848 0.8857
2812.903544 0.8867 0.8884 0.8904 0.8910 0.8910
2817.302372 0.8913 0.8918 0.8920 0.8920 0.8906
2821.701199 0.8886 0.8842 0.8787 0.8685 0.8564
2826.100027 0.8433 0.8298 0.8159 0.8019 0.7893
2830.498854 0.7773 0.7635 0.7490 0.6763 0.5817
2834.897681 0.5396 0.5171 0.4858 0.4513 0.3919
2839.296509 0.3233 0.2900 0.2694 0.2425 0.2131
2843.695336 0.2049 0.2034 0.2030 0.2030 0.2030
2848.094164 0.2030 0.2026 0.2021 0.1711 0.1305
2852.492991 0.1183 0.1148 0.1125 0.1105 0.1088
2856.891818 0.1073 0.1070 0.1070 0.1086 0.1106
2861.290646 0.1134 0.1164 0.1257 0.1368 0.1382
2865.689473 0.1372 0.1278 0.1163 0.1100 0.1050
2870.088300 0.1004 0.0959 0.1091 0.1266 0.1445
2874.487128 0.1625 0.1773 0.1913 0.1977 0.2022
2878.885955 0.2042 0.2057 0.2102 0.2152 0.2223
2883.284783 0.2298 0.2352 0.2402 0.2456 0.2511
2887.683610 0.2524 0.2529 0.2526 0.2521 0.2158
2892.082437 0.1727 0.1293 0.0857 0.1520 0.2385
2896.481265 0.2500 0.2500 0.2113 0.1668 0.1484
2900.880092 0.1339 0.1320 0.1320 0.1421 0.1536
2905.278920 0.1594 0.1644 0.1668 0.1688 0.1519
2909.677747 0.1323 0.1124 0.0924 0.0815 0.0719
2914.076574 0.0588 0.0453 0.0381 0.0316 0.0274
2918.475402 0.0234 0.0198 0.0163 0.0146 0.0131
2922.874229 0.0125 0.0120 0.0120 0.0120 0.0120
2927.273057 0.0120 0.0115 0.0110 0.0110 0.0110
2931.671884 0.0115 0.0120 0.0120 0.0120 0.0120
2936.070711 0.0120 0.0120 0.0120 0.0120 0.0120
2940.469539 0.0125 0.0130 0.0140 0.0150 0.0150
2944.868366 0.0150 0.0155 0.0160 0.0165 0.0170
2949.267193 0.0170 0.0170 0.0185 0.0200 0.0229
2953.666021 0.0259 0.0294 0.0329 0.0350 0.0370
2958.064848 0.0429 0.0489 0.0776 0.1067 0.1357
2962.463676 0.1647 0.1804 0.1959 0.2196 0.2434
2966.862503 0.2739 0.3045 0.3375 0.3706 0.4056
2971.261330 0.4406 0.4747 0.5085 0.5325 0.5569
2975.660158 0.5969 0.6361 0.6386 0.6411 0.6436
2980.058985 0.6461 0.6481 0.6502 0.6562 0.6626
2984.457813 0.6751 0.6878 0.7028 0.7174 0.7249
2988.856640 0.7323 0.7378 0.7431 0.7451 0.7473
2993.255467 0.7528 0.7581 0.7591 0.7600 0.7600
2997.654295 0.7601 0.7621 0.7640 0.7640 0.7640
3002.053122 0.7640 0.7640 0.7635 0.7629 0.7614
3006.451949 0.7600 0.7600 0.7600 0.7600 0.7597
3010.850777 0.7562 0.7525 0.7470 0.7386 0.7041
3015.249604 0.6678 0.6152 0.5624 0.5068 0.4540
3019.648432 0.4209 0.3877 0.3532 0.3188 0.2858
3024.047259 0.2529 0.2203 0.1920 0.1920 0.1919
3028.446086 0.1909 0.1897 0.1872 0.1842 0.1782
3032.844914 0.1728 0.1713 0.1700 0.1700 0.1702
3037.243741 0.1712 0.1724 0.1749 0.1781 0.1851
3041.642569 0.1910 0.1910 0.1904 0.1869 0.1837
3046.041396 0.1822 0.1810 0.1810 0.1888 0.2343
3050.440223 0.2886 0.3847 0.4641 0.4646 0.4753
3054.839051 0.5278 0.5772 0.6137 0.6489 0.6784
3059.237878 0.7061 0.7266 0.7502 0.7857 0.8144
3063.636705 0.8164 0.8180 0.8180 0.8178 0.8168
3068.035533 0.8160 0.8160 0.8163 0.8178 0.8190
3072.434360 0.8190 0.8191 0.8196 0.8200 0.8200
3076.833188 0.8204 0.8219 0.8230 0.8230 0.8229
3081.232015 0.8224 0.8220 0.8220 0.8229 0.8264
3085.630842 0.8306 0.8371 0.8431 0.8477 0.8529
3090.029670 0.8599 0.8683 0.8803 0.8920 0.9030
3094.428497 0.9118 0.9148 0.9180 0.9215 0.9243
3098.827325 0.9253 0.9267 0.9292 0.9311 0.9316
3103.226152 0.9328 0.9359 0.9386 0.9406 0.9420
3107.624979 0.9420 0.9423 0.9433 0.9443 0.9453
3112.023807 0.9465 0.9480 0.9496 0.9516 0.9536
3116.422634 0.9556 0.9570 0.9570 0.9572 0.9577
3120.821461 0.9583 0.9593 0.9602 0.9607 0.9610
3125.220289 0.9610 0.9610 0.9610 0.9610 0.9610
3129.619116 0.9610 0.9610 0.9610 0.9610 0.9612
3134.017944 0.9617 0.9620 0.9620 0.9620 0.9620
3138.416771 0.9624 0.9634 0.9640 0.9640 0.9642
3142.815598 0.9647 0.9650 0.9650 0.9650 0.9650
3147.214426 0.9650 0.9650 0.9652 0.9657 0.9660
3151.613253 0.9660 0.9660 0.9660 0.9660 0.9660
3156.012081 0.9664 0.9674 0.9676 0.9666 0.9660
3160.410908 0.9660 0.9660 0.9660 0.9660 0.9660
3164.809735 0.9660 0.9660 0.9660 0.9660 0.9660
3169.208563 0.9660 0.9658 0.9653 0.9650 0.9650
3173.607390 0.9650 0.9650 0.9648 0.9643 0.9640
3178.006218 0.9640 0.9640 0.9640 0.9640 0.9640
3182.405045 0.9635 0.9625 0.9618 0.9613 0.9610
3186.803872 0.9610 0.9608 0.9603 0.9600 0.9600
3191.202700 0.9595 0.9585 0.9578 0.9573 0.9570
3195.601527 0.9570 0.9565 0.9555 0.9550 0.9550
3200.000354 0.9555 0.9565 0.9570 0.9570 0.9570
3204.399182 0.9570 0.9573 0.9577 0.9580 0.9580
3208.798009 0.9580 0.9580 0.9580 0.9580 0.9585
3213.196837 0.9595 0.9600 0.9600 0.9600 0.9600
3217.595664 0.9600 0.9600 0.9603 0.9608 0.9610
3221.994491 0.9610 0.9613 0.9618 0.9620 0.9620
3226.393319 0.9620 0.9620 0.9620 0.9620 0.9620
3230.792146 0.9620 0.9626 0.9636 0.9640 0.9640
3235.190974 0.9640 0.9640 0.9643 0.9648 0.9650
3239.589801 0.9650 0.9650 0.9650 0.9653 0.9658
3243.988628 0.9660 0.9660 0.9666 0.9676 0.9674
3248.387456 0.9664 0.9660 0.9660 0.9660 0.9660
3252.786283 0.9660 0.9660 0.9660 0.9660 0.9660
3257.185110 0.9660 0.9660 0.9660 0.9660 0.9660
3261.583938 0.9660 0.9660 0.9657 0.9652 0.9650
3265.982765 0.9650 0.9650 0.9650 0.9647 0.9642
3270.381593 0.9634 0.9624 0.9617 0.9612 0.9607
3274.780420 0.9602 0.9594 0.9584 0.9577 0.9572
3279.179247 0.9570 0.9570 0.9570 0.9570 0.9563
3283.578075 0.9553 0.9547 0.9542 0.9530 0.9515
3287.976902 0.9503 0.9493 0.9490 0.9490 0.9483
3292.375730 0.9473 0.9467 0.9462 0.9460 0.9460
3296.774557 0.9460 0.9460 0.9463 0.9469 0.9470
3301.173384 0.9470 0.9470 0.9470 0.9470 0.9470
3305.572212 0.9477 0.9487 0.9497 0.9507 0.9510
3309.971039 0.9510 0.9510 0.9510 0.9517 0.9527
3314.369866 0.9534 0.9539 0.9544 0.9549 0.9550
3318.768694 0.9550 0.9557 0.9567 0.9581 0.9596
3323.167521 0.9604 0.9609 0.9614 0.9619 0.9620
3327.566349 0.9620 0.9620 0.9620 0.9628 0.9638
3331.965176 0.9644 0.9649 0.9654 0.9659 0.9660
3336.364003 0.9660 0.9660 0.9660 0.9660 0.9660
3340.762831 0.9660 0.9660 0.9660 0.9660 0.9660
3345.161658 0.9660 0.9660 0.9660 0.9660 0.9660
3349.560486 0.9660 0.9660 0.9660 0.9660 0.9660
3353.959313 0.9660 0.9660 0.9660 0.9660 0.9660
3358.358140 0.9660 0.9660 0.9660 0.9660 0.9660
3362.756968 0.9660 0.9660 0.9660 0.9660 0.9660
3367.155795 0.9656 0.9651 0.9650 0.9650 0.9650
3371.554622 0.9650 0.9646 0.9641 0.9640 0.9640
3375.953450 0.9640 0.9640 0.9640 0.9640 0.9640
3380.352277 0.9640 0.9640 0.9640 0.9640 0.9640
3384.751105 0.9644 0.9649 0.9650 0.9650 0.9654
3389.149932 0.9659 0.9660 0.9660 0.9660 0.9660
3393.548759 0.9660 0.9660 0.9660 0.9660 0.9660
3397.947587 0.9660 0.9660 0.9660 0.9660 0.9660
3402.346414 0.9674 0.9689 0.9699 0.9709 0.9715
3406.745242 0.9720 0.9720 0.9720 0.9720 0.9720
3411.144069 0.9725 0.9730 0.9730 0.9730 0.9725
3415.542896 0.9720 0.9720 0.9720 0.9720 0.9720
3419.941724 0.9720 0.9720 0.9725 0.9730 0.9730
3424.340551 0.9730 0.9730 0.9730 0.9725 0.9720
3428.739379 0.9720 0.9720 0.9720 0.9720 0.9720
3433.138206 0.9720 0.9720 0.9720 0.9720 0.9720
3437.537033 0.9720 0.9720 0.9720 0.9720 0.9725
3441.935861 0.9730 0.9730 0.9730 0.9730 0.9730
3446.334688 0.9730 0.9730 0.9730 0.9730 0.9740
3450.733515 0.9750 0.9750 0.9750 0.9750 0.9750
3455.132343 0.9750 0.9750 0.9750 0.9750 0.9750
3459.531170 0.9750 0.9750 0.9750 0.9750 0.9750
3463.929998 0.9750 0.9750 0.9750 0.9750 0.9750
3468.328825 0.9750 0.9750 0.9750 0.9750 0.9750
3472.727652 0.9750 0.9750 0.9750 0.9750 0.9755
3477.126480 0.9760 0.9760 0.9760 0.9760 0.9760
3481.525307 0.9760 0.9760 0.9760 0.9760 0.9760
3485.924135 0.9760 0.9760 0.9760 0.9760 0.9760
3490.322962 0.9760 0.9760 0.9760 0.9761 0.9766
3494.721789 0.9770 0.9770 0.9770 0.9770 0.9770
3499.120617 0.9770 0.9770 0.9770 0.9770 0.9770
3503.519444 0.9770 0.9770 0.9770 0.9770 0.9770
3507.918271 0.9770 0.9770 0.9770 0.9770 0.9770
3512.317099 0.9769 0.9764 0.9760 0.9760 0.9760
3516.715926 0.9760 0.9760 0.9760 0.9760 0.9760
3521.114754 0.9759 0.9754 0.9748 0.9738 0.9729
3525.513581 0.9724 0.9719 0.9714 0.9710 0.9710
3529.912408 0.9710 0.9710 0.9710 0.9710 0.9710
3534.311236 0.9710 0.9710 0.9710 0.9710 0.9710
3538.710063 0.9711 0.9716 0.9720 0.9720 0.9720
3543.108891 0.9720 0.9721 0.9726 0.9730 0.9730
3547.507718 0.9730 0.9730 0.9730 0.9730 0.9730
3551.906545 0.9730 0.9730 0.9730 0.9730 0.9730
3556.305373 0.9730 0.9730 0.9729 0.9724 0.9720
3560.704200 0.9720 0.9720 0.9720 0.9719 0.9714
3565.103027 0.9710 0.9710 0.9711 0.9716 0.9720
3569.501855 0.9720 0.9721 0.9726 0.9730 0.9730
3573.900682 0.9730 0.9730 0.9733 0.9743 0.9750
3578.299510 0.9750 0.9750 0.9750 0.9750 0.9750
3582.698337 0.9750 0.9750 0.9750 0.9750 0.9751
3587.097164 0.9757 0.9761 0.9767 0.9770 0.9770
3591.495992 0.9770 0.9770 0.9770 0.9770 0.9768
3595.894819 0.9763 0.9758 0.9753 0.9747 0.9737
3600.293647 0.9728 0.9723 0.9720 0.9720 0.9718
3604.692474 0.9713 0.9712 0.9717 0.9718 0.9713
3609.091301 0.9710 0.9710 0.9710 0.9710 0.9710
3613.490129 0.9710 0.9710 0.9710 0.9710 0.9710
3617.888956 0.9710 0.9710 0.9706 0.9696 0.9694
3622.287783 0.9704 0.9706 0.9696 0.9690 0.9690
3626.686611 0.9688 0.9683 0.9676 0.9666 0.9660
3631.085438 0.9660 0.9670 0.9695 0.9712 0.9717
3635.484266 0.9720 0.9720 0.9720 0.9720 0.9720
3639.883093 0.9720 0.9720 0.9720 0.9718 0.9713
3644.281920 0.9706 0.9696 0.9688 0.9683 0.9672
3648.680748 0.9652 0.9636 0.9626 0.9624 0.9634
3653.079575 0.9642 0.9647 0.9657 0.9672 0.9680
3657.478403 0.9680 0.9680 0.9680 0.9687 0.9702
3661.877230 0.9710 0.9710 0.9703 0.9688 0.9675
3666.276057 0.9665 0.9655 0.9645 0.9635 0.9625
3670.674885 0.9618 0.9613 0.9610 0.9610 0.9610
3675.073712 0.9610 0.9612 0.9617 0.9625 0.9635
3679.472540 0.9642 0.9647 0.9657 0.9672 0.9682
3683.871367 0.9687 0.9690 0.9690 0.9687 0.9682
3688.270194 0.9672 0.9657 0.9650 0.9650 0.9660
3692.669022 0.9680 0.9690 0.9690 0.9690 0.9690
3697.067849 0.9690 0.9690 0.9690 0.9690 0.9690
3701.466676 0.9690 0.9690 0.9690 0.9687 0.9682
3705.865504 0.9680 0.9680 0.9674 0.9664 0.9666
3710.264331 0.9676 0.9674 0.9664 0.9660 0.9660
3714.663159 0.9657 0.9652 0.9650 0.9650 0.9650
3719.061986 0.9650 0.9650 0.9650 0.9650 0.9650
3723.460813 0.9653 0.9658 0.9657 0.9652 0.9650
3727.859641 0.9650 0.9650 0.9650 0.9647 0.9642
3732.258468 0.9622 0.9592 0.9571 0.9556 0.9550
3736.657296 0.9550 0.9556 0.9566 0.9573 0.9578
3741.056123 0.9580 0.9580 0.9580 0.9580 0.9580
3745.454950 0.9580 0.9577 0.9572 0.9564 0.9554
3749.853778 0.9547 0.9542 0.9543 0.9548 0.9556
3754.252605 0.9566 0.9580 0.9595 0.9607 0.9617
3758.651432 0.9630 0.9645 0.9653 0.9658 0.9667
3763.050260 0.9677 0.9680 0.9680 0.9680 0.9680
3767.449087 0.9683 0.9688 0.9687 0.9682 0.9683
3771.847915 0.9688 0.9697 0.9707 0.9710 0.9710
3776.246742 0.9713 0.9718 0.9724 0.9728 0.9730
3780.645569 0.9730 0.9737 0.9747 0.9750 0.9750
3785.044397 0.9750 0.9750 0.9750 0.9750 0.9754
3789.443224 0.9759 0.9760 0.9760 0.9760 0.9760
##END=
