##TITLE=N-OCTYL BROMIDE
##JCAMP-DX=4.24
##DATA TYPE=INFRARED SPECTRUM
##CLASS=COBLENTZ
##ORIGIN=CONTINENTAL OIL CO. (HAROLD F. SMITH)
##OWNER=COBLENTZ SOCIETY
Collection (C) 2018 copyright by the U.S. Secretary of Commerce
on behalf of the United States of America. All rights reserved.
##DATE=Not specified, most likely prior to 1970
##NAMES=1-bromooctane
##CAS REGISTRY NO=111-83-1
##MOLFORM=C8 H17 Br
##SOURCE REFERENCE=COBLENTZ NO. 3751
##$NIST SOURCE=COBLENTZ
##$NIST IMAGE=cob3751
##SPECTROMETER/DATA SYSTEM=Not specified, most likely a prism, grating, or hybrid spectrometer.
##STATE=LIQUID
##PATH LENGTH=0.0036 CM
##SAMPLING PROCEDURE=TRANSMISSION
##RESOLUTION=4
##DATA PROCESSING=DIGITIZED BY NIST FROM HARD COPY
##XUNITS=MICROMETERS
##YUNITS=TRANSMITTANCE
##XFACTOR=1.000000
##YFACTOR=1
##DELTAX=000.006189
##FIRSTX=12.025
##LASTX=26.0057
##FIRSTY=0.899
##MAXX=26.0057
##MINX=12.025
##MAXY=0.967
##MINY=0.215
##NPOINTS=2260
##XYDATA=(X++(Y..Y))
12.025000 0.8990 0.8990 0.8990 0.9000 0.9000
12.055960 0.8990 0.8990 0.8990 0.8990 0.9000
12.087000 0.9000 0.9020 0.9020 0.9030 0.9050
12.117960 0.9090 0.9140 0.9190 0.9220 0.9230
12.149000 0.9280 0.9310 0.9330 0.9340 0.9360
12.179960 0.9360 0.9360 0.9360 0.9340 0.9340
12.210000 0.9330 0.9330 0.9340 0.9340 0.9360
12.240960 0.9360 0.9360 0.9370 0.9390 0.9420
12.272000 0.9440 0.9450 0.9470 0.9480 0.9480
12.302960 0.9470 0.9440 0.9400 0.9390 0.9330
12.334000 0.9330 0.9330 0.9330 0.9330 0.9340
12.364960 0.9340 0.9310 0.9300 0.9270 0.9250
12.396000 0.9230 0.9230 0.9160 0.9110 0.9090
12.426960 0.9060 0.9050 0.9000 0.8860 0.8850
12.458000 0.8850 0.8830 0.8830 0.8830 0.8810
12.488960 0.8810 0.8810 0.8800 0.8800 0.8780
12.520000 0.8770 0.8740 0.8740 0.8740 0.8740
12.550960 0.8740 0.8740 0.8750 0.8750 0.8780
12.582000 0.8780 0.8750 0.8750 0.8720 0.8720
12.612960 0.8750 0.8780 0.8780 0.8770 0.8770
12.644000 0.8780 0.8780 0.8830 0.8890 0.8910
12.674960 0.8920 0.8950 0.9000 0.9020 0.9030
12.706000 0.9050 0.9080 0.9110 0.9140 0.9160
12.736960 0.9170 0.9170 0.9170 0.9190 0.9200
12.767000 0.9200 0.9220 0.9220 0.9220 0.9220
12.797960 0.9200 0.9200 0.9160 0.9140 0.9110
12.829000 0.9090 0.9080 0.9080 0.9080 0.9080
12.859960 0.9060 0.9050 0.9030 0.9020 0.9000
12.891000 0.8970 0.8950 0.8920 0.8890 0.8880
12.921960 0.8860 0.8850 0.8830 0.8780 0.8770
12.953000 0.8740 0.8720 0.8690 0.8600 0.8500
12.983960 0.8440 0.8350 0.8330 0.8240 0.8150
13.015000 0.8070 0.8010 0.7960 0.7820 0.7710
13.045960 0.7590 0.7510 0.7450 0.7400 0.7370
13.077000 0.7360 0.7340 0.7310 0.7260 0.7220
13.107960 0.7120 0.7090 0.7060 0.7040 0.7030
13.139000 0.7010 0.7000 0.6950 0.6900 0.6870
13.169960 0.6870 0.6860 0.6840 0.6810 0.6810
13.201000 0.6780 0.6770 0.6750 0.6750 0.6750
13.231960 0.6750 0.6780 0.6800 0.6810 0.6900
13.263000 0.7000 0.7010 0.7060 0.7110 0.7120
13.293960 0.7140 0.7140 0.7170 0.7180 0.7200
13.324000 0.7200 0.7200 0.7200 0.7250 0.7250
13.354960 0.7230 0.7230 0.7230 0.7230 0.7250
13.386000 0.7250 0.7250 0.7250 0.7220 0.7180
13.416960 0.7150 0.7140 0.7110 0.7080 0.7060
13.448000 0.7040 0.7030 0.7010 0.7000 0.6900
13.478960 0.6870 0.6810 0.6720 0.6700 0.6660
13.510000 0.6640 0.6630 0.6590 0.6550 0.6500
13.540960 0.6410 0.6350 0.6250 0.6140 0.6110
13.572000 0.6050 0.6020 0.6000 0.5990 0.5930
13.602960 0.5900 0.5880 0.5860 0.5850 0.5800
13.634000 0.5760 0.5720 0.5710 0.5710 0.5710
13.664960 0.5710 0.5720 0.5720 0.5690 0.5660
13.696000 0.5630 0.5630 0.5630 0.5630 0.5620
13.726960 0.5600 0.5590 0.5550 0.5520 0.5510
13.758000 0.5430 0.5400 0.5340 0.5320 0.5290
13.788960 0.5230 0.5200 0.5170 0.5100 0.5060
13.820000 0.5030 0.4920 0.4810 0.4650 0.4510
13.850960 0.4360 0.4250 0.4130 0.3940 0.3800
13.882000 0.3610 0.3540 0.3300 0.3100 0.3010
13.912960 0.2900 0.2810 0.2740 0.2630 0.2600
13.943000 0.2560 0.2540 0.2540 0.2560 0.2600
13.973960 0.2630 0.2710 0.2730 0.2840 0.2930
14.005000 0.3050 0.3190 0.3360 0.3410 0.3550
14.035960 0.3610 0.3720 0.3910 0.4140 0.4310
14.067000 0.4400 0.4670 0.4960 0.5100 0.5240
14.097960 0.5400 0.5510 0.5600 0.5690 0.5740
14.129000 0.5850 0.5940 0.6020 0.6140 0.6240
14.159960 0.6350 0.6590 0.6640 0.6730 0.6840
14.191000 0.6900 0.6970 0.7110 0.7220 0.7310
14.221960 0.7310 0.7400 0.7430 0.7510 0.7540
14.253000 0.7600 0.7620 0.7700 0.7760 0.7810
14.283960 0.7840 0.7930 0.8020 0.8070 0.8130
14.315000 0.8190 0.8300 0.8320 0.8350 0.8380
14.345960 0.8400 0.8460 0.8470 0.8500 0.8520
14.377000 0.8520 0.8540 0.8600 0.8610 0.8690
14.407960 0.8720 0.8770 0.8810 0.8810 0.8830
14.439000 0.8860 0.8880 0.8890 0.8940 0.8950
14.469960 0.8970 0.8990 0.8990 0.9000 0.9000
14.500000 0.9000 0.9000 0.9020 0.9080 0.9090
14.530960 0.9090 0.9090 0.9090 0.9090 0.9080
14.562000 0.9080 0.9090 0.9090 0.9090 0.9110
14.592960 0.9110 0.9130 0.9130 0.9130 0.9130
14.624000 0.9110 0.9110 0.9090 0.9090 0.9130
14.654960 0.9160 0.9170 0.9160 0.9140 0.9130
14.686000 0.9130 0.9130 0.9130 0.9130 0.9130
14.716960 0.9140 0.9140 0.9160 0.9190 0.9190
14.748000 0.9190 0.9190 0.9190 0.9190 0.9190
14.778960 0.9200 0.9200 0.9200 0.9190 0.9190
14.810000 0.9190 0.9230 0.9230 0.9250 0.9250
14.840960 0.9250 0.9250 0.9250 0.9230 0.9230
14.872000 0.9200 0.9170 0.9160 0.9140 0.9140
14.902960 0.9140 0.9130 0.9110 0.9090 0.9080
14.934000 0.9060 0.9050 0.9030 0.9020 0.9000
14.964960 0.8940 0.8920 0.8920 0.8910 0.8910
14.996000 0.8910 0.8880 0.8860 0.8880 0.8890
15.026960 0.8890 0.8920 0.8940 0.8940 0.8940
15.057000 0.8920 0.8890 0.8800 0.8800 0.8780
15.087960 0.8780 0.8750 0.8720 0.8690 0.8660
15.119000 0.8630 0.8550 0.8520 0.8430 0.8300
15.149960 0.8270 0.8210 0.8130 0.8100 0.8050
15.181000 0.8010 0.7930 0.7910 0.7910 0.7880
15.211960 0.7840 0.7820 0.7730 0.7620 0.7510
15.243000 0.7370 0.7310 0.7260 0.7220 0.7140
15.273960 0.7110 0.7010 0.6900 0.6730 0.6610
15.305000 0.6500 0.6420 0.6350 0.6300 0.6140
15.335960 0.6020 0.5820 0.5650 0.5540 0.5320
15.367000 0.5100 0.5010 0.4930 0.4840 0.4790
15.397960 0.4620 0.4510 0.4360 0.4300 0.4160
15.429000 0.4000 0.3800 0.3630 0.3500 0.3410
15.459960 0.3270 0.3210 0.3150 0.3020 0.2820
15.491000 0.2740 0.2710 0.2650 0.2600 0.2460
15.521960 0.2420 0.2370 0.2340 0.2320 0.2310
15.553000 0.2260 0.2230 0.2200 0.2180 0.2170
15.583960 0.2150 0.2150 0.2170 0.2180 0.2220
15.615000 0.2220 0.2310 0.2370 0.2400 0.2430
15.645960 0.2510 0.2540 0.2570 0.2620 0.2630
15.676000 0.2710 0.2810 0.2910 0.3010 0.3100
15.706960 0.3220 0.3300 0.3330 0.3500 0.3600
15.738000 0.3750 0.3850 0.4000 0.4110 0.4200
15.768960 0.4310 0.4420 0.4540 0.4840 0.4950
15.800000 0.5260 0.5450 0.5490 0.5520 0.5620
15.830960 0.5710 0.5790 0.5860 0.5940 0.6040
15.862000 0.6110 0.6210 0.6310 0.6420 0.6590
15.892960 0.6720 0.6770 0.6860 0.6940 0.7010
15.924000 0.7120 0.7140 0.7220 0.7310 0.7340
15.954960 0.7420 0.7510 0.7510 0.7540 0.7560
15.986000 0.7600 0.7620 0.7650 0.7710 0.7760
16.016960 0.7810 0.7840 0.7910 0.8010 0.8010
16.048000 0.8010 0.8020 0.8070 0.8100 0.8150
16.078960 0.8180 0.8210 0.8270 0.8300 0.8300
16.110000 0.8300 0.8300 0.8320 0.8400 0.8440
16.140960 0.8490 0.8490 0.8490 0.8500 0.8520
16.172000 0.8600 0.8630 0.8660 0.8690 0.8690
16.202960 0.8690 0.8690 0.8690 0.8710 0.8720
16.233000 0.8720 0.8740 0.8750 0.8770 0.8800
16.263960 0.8830 0.8860 0.8860 0.8860 0.8850
16.295000 0.8850 0.8850 0.8850 0.8860 0.8880
16.325960 0.8890 0.8910 0.8910 0.8890 0.8890
16.357000 0.8880 0.8880 0.8890 0.8910 0.8920
16.387960 0.9000 0.9000 0.9020 0.9020 0.9000
16.419000 0.9000 0.9000 0.9000 0.9000 0.9000
16.449960 0.8970 0.8990 0.8990 0.8990 0.8990
16.481000 0.9000 0.9000 0.9000 0.9020 0.9020
16.511960 0.9030 0.9030 0.9000 0.8990 0.8990
16.543000 0.9000 0.9000 0.8990 0.8990 0.8990
16.573960 0.8990 0.9000 0.9020 0.9060 0.9090
16.605000 0.9090 0.9060 0.9030 0.9020 0.9020
16.635960 0.9020 0.9020 0.9000 0.9000 0.9000
16.667000 0.9000 0.8970 0.8970 0.9000 0.9000
16.697960 0.9000 0.9000 0.9020 0.9020 0.9020
16.729000 0.9000 0.9000 0.9020 0.9020 0.9030
16.759960 0.9030 0.9030 0.9030 0.9030 0.9030
16.790000 0.9020 0.9020 0.9020 0.9020 0.9020
16.820960 0.9020 0.9000 0.8990 0.8990 0.8990
16.852000 0.8990 0.8990 0.8990 0.8990 0.8990
16.882960 0.8970 0.8950 0.8940 0.8940 0.8940
16.914000 0.8940 0.8920 0.8920 0.8920 0.8920
16.944960 0.8920 0.8910 0.8910 0.8910 0.8910
16.976000 0.8920 0.8920 0.8940 0.8940 0.8920
17.006960 0.8910 0.8890 0.8880 0.8850 0.8850
17.038000 0.8850 0.8850 0.8850 0.8850 0.8830
17.068960 0.8810 0.8810 0.8800 0.8780 0.8750
17.100000 0.8750 0.8750 0.8750 0.8740 0.8720
17.130960 0.8710 0.8690 0.8680 0.8660 0.8640
17.162000 0.8630 0.8610 0.8600 0.8580 0.8540
17.192960 0.8520 0.8490 0.8440 0.8410 0.8380
17.224000 0.8360 0.8330 0.8320 0.8290 0.8240
17.254960 0.8210 0.8190 0.8150 0.8120 0.8090
17.286000 0.8040 0.8020 0.7960 0.7950 0.7930
17.316960 0.7880 0.7820 0.7760 0.7710 0.7650
17.347000 0.7620 0.7560 0.7530 0.7430 0.7340
17.377960 0.7260 0.7180 0.7170 0.7060 0.7030
17.409000 0.6920 0.6870 0.6830 0.6720 0.6610
17.439960 0.6550 0.6450 0.6410 0.6350 0.6310
17.471000 0.6220 0.6130 0.6040 0.5960 0.5830
17.501960 0.5720 0.5660 0.5540 0.5520 0.5430
17.533000 0.5320 0.5210 0.5120 0.5030 0.5010
17.563960 0.4950 0.4890 0.4840 0.4760 0.4680
17.595000 0.4590 0.4510 0.4420 0.4330 0.4250
17.625960 0.4170 0.4130 0.4050 0.4030 0.3910
17.657000 0.3740 0.3630 0.3520 0.3440 0.3430
17.687960 0.3410 0.3330 0.3220 0.3050 0.3020
17.719000 0.2960 0.2930 0.2910 0.2910 0.2900
17.749960 0.2900 0.2880 0.2870 0.2820 0.2760
17.781000 0.2730 0.2710 0.2680 0.2630 0.2620
17.811960 0.2620 0.2620 0.2620 0.2620 0.2620
17.843000 0.2630 0.2650 0.2710 0.2760 0.2810
17.873960 0.2820 0.2850 0.2930 0.3020 0.3070
17.905000 0.3120 0.3150 0.3220 0.3240 0.3320
17.935960 0.3360 0.3490 0.3630 0.3740 0.3810
17.966000 0.3850 0.4000 0.4130 0.4250 0.4360
17.996960 0.4500 0.4640 0.4820 0.4950 0.5040
18.028000 0.5120 0.5150 0.5240 0.5430 0.5540
18.058960 0.5630 0.5720 0.5830 0.5930 0.6020
18.090000 0.6050 0.6100 0.6130 0.6220 0.6310
18.120960 0.6420 0.6450 0.6490 0.6550 0.6720
18.152000 0.6750 0.6840 0.6950 0.7030 0.7060
18.182960 0.7140 0.7180 0.7250 0.7310 0.7340
18.214000 0.7360 0.7390 0.7430 0.7530 0.7560
18.244960 0.7600 0.7620 0.7630 0.7670 0.7700
18.276000 0.7710 0.7760 0.7770 0.7810 0.7820
18.306960 0.7840 0.7870 0.7910 0.7930 0.7930
18.338000 0.7950 0.7950 0.8020 0.8050 0.8100
18.368960 0.8120 0.8150 0.8160 0.8190 0.8190
18.400000 0.8210 0.8240 0.8260 0.8260 0.8270
18.430960 0.8320 0.8360 0.8380 0.8410 0.8410
18.462000 0.8430 0.8440 0.8440 0.8460 0.8460
18.492960 0.8460 0.8460 0.8460 0.8460 0.8460
18.523000 0.8460 0.8460 0.8500 0.8550 0.8600
18.553960 0.8610 0.8610 0.8610 0.8630 0.8630
18.585000 0.8630 0.8640 0.8660 0.8680 0.8690
18.615960 0.8710 0.8720 0.8740 0.8740 0.8740
18.647000 0.8720 0.8720 0.8720 0.8750 0.8770
18.677960 0.8780 0.8810 0.8830 0.8850 0.8890
18.709000 0.8890 0.8850 0.8850 0.8850 0.8850
18.739960 0.8850 0.8830 0.8830 0.8830 0.8830
18.771000 0.8850 0.8850 0.8860 0.8860 0.8860
18.801960 0.8830 0.8830 0.8850 0.8860 0.8880
18.833000 0.8860 0.8850 0.8850 0.8850 0.8850
18.863960 0.8850 0.8850 0.8850 0.8860 0.8860
18.895000 0.8860 0.8850 0.8850 0.8860 0.8860
18.925960 0.8880 0.8890 0.8890 0.8890 0.8880
18.957000 0.8880 0.8890 0.8910 0.8910 0.8910
18.987960 0.8890 0.8890 0.8910 0.8920 0.8920
19.019000 0.8920 0.8940 0.8940 0.8940 0.8940
19.049960 0.8940 0.8940 0.8940 0.8940 0.8940
19.080000 0.8950 0.8950 0.8940 0.8910 0.8890
19.110960 0.8890 0.8880 0.8880 0.8880 0.8890
19.142000 0.8910 0.8910 0.8910 0.8910 0.8910
19.172960 0.8920 0.8940 0.8940 0.8940 0.8940
19.204000 0.8940 0.8920 0.8920 0.8920 0.8940
19.234960 0.8950 0.8950 0.8950 0.8970 0.8970
19.266000 0.8950 0.8940 0.8940 0.8940 0.8950
19.296960 0.8970 0.9020 0.9020 0.8950 0.8940
19.328000 0.8940 0.8940 0.8940 0.8950 0.9020
19.358960 0.9020 0.9020 0.8970 0.8950 0.8940
19.390000 0.8940 0.8940 0.8920 0.8910 0.8910
19.420960 0.8910 0.8920 0.8920 0.8940 0.8940
19.452000 0.8940 0.8940 0.8940 0.8940 0.8950
19.482960 0.8970 0.9000 0.9020 0.9020 0.9020
19.514000 0.9020 0.9030 0.9030 0.9020 0.9020
19.544960 0.9020 0.9020 0.9030 0.9030 0.9020
19.576000 0.9020 0.9020 0.9030 0.9030 0.9030
19.606960 0.9020 0.9030 0.9050 0.9060 0.9110
19.637000 0.9110 0.9110 0.9130 0.9140 0.9160
19.667960 0.9160 0.9140 0.9140 0.9140 0.9140
19.699000 0.9140 0.9140 0.9140 0.9140 0.9160
19.729960 0.9160 0.9170 0.9170 0.9160 0.9140
19.761000 0.9140 0.9140 0.9140 0.9140 0.9130
19.791960 0.9130 0.9130 0.9090 0.9110 0.9110
19.823000 0.9110 0.9090 0.9080 0.9080 0.9080
19.853960 0.9080 0.9030 0.9030 0.9080 0.9090
19.885000 0.9110 0.9110 0.9130 0.9130 0.9130
19.915960 0.9110 0.9110 0.9110 0.9090 0.9080
19.947000 0.9030 0.9030 0.9030 0.9090 0.9140
19.977960 0.9140 0.9140 0.9140 0.9140 0.9130
20.009000 0.9090 0.9090 0.9090 0.9110 0.9110
20.039960 0.9130 0.9160 0.9170 0.9200 0.9200
20.071000 0.9130 0.9090 0.9090 0.9110 0.9130
20.101960 0.9140 0.9200 0.9200 0.9170 0.9160
20.133000 0.9140 0.9130 0.9130 0.9110 0.9110
20.163960 0.9110 0.9130 0.9140 0.9160 0.9140
20.195000 0.9170 0.9170 0.9200 0.9200 0.9190
20.225960 0.9190 0.9190 0.9160 0.9140 0.9110
20.256000 0.9110 0.9140 0.9140 0.9160 0.9200
20.286960 0.9220 0.9230 0.9250 0.9250 0.9250
20.318000 0.9250 0.9270 0.9250 0.9270 0.9280
20.348960 0.9310 0.9310 0.9340 0.9330 0.9330
20.380000 0.9330 0.9330 0.9310 0.9300 0.9280
20.410960 0.9280 0.9300 0.9330 0.9340 0.9360
20.442000 0.9330 0.9330 0.9340 0.9340 0.9340
20.472960 0.9340 0.9330 0.9330 0.9330 0.9330
20.504000 0.9310 0.9310 0.9310 0.9310 0.9310
20.534960 0.9310 0.9300 0.9300 0.9310 0.9310
20.566000 0.9330 0.9330 0.9330 0.9330 0.9330
20.596960 0.9330 0.9340 0.9360 0.9340 0.9330
20.628000 0.9310 0.9310 0.9310 0.9310 0.9300
20.658960 0.9280 0.9280 0.9300 0.9310 0.9310
20.690000 0.9310 0.9310 0.9280 0.9300 0.9300
20.720960 0.9310 0.9310 0.9330 0.9340 0.9340
20.752000 0.9340 0.9360 0.9360 0.9340 0.9330
20.782960 0.9330 0.9340 0.9360 0.9340 0.9330
20.813000 0.9310 0.9310 0.9310 0.9310 0.9330
20.843960 0.9340 0.9400 0.9400 0.9400 0.9400
20.875000 0.9400 0.9400 0.9400 0.9400 0.9400
20.905960 0.9340 0.9340 0.9340 0.9340 0.9390
20.937000 0.9420 0.9440 0.9440 0.9440 0.9440
20.967960 0.9450 0.9470 0.9470 0.9440 0.9450
20.999000 0.9470 0.9500 0.9510 0.9510 0.9510
21.029960 0.9510 0.9450 0.9450 0.9470 0.9510
21.061000 0.9510 0.9530 0.9530 0.9530 0.9530
21.091960 0.9510 0.9500 0.9510 0.9510 0.9510
21.123000 0.9510 0.9530 0.9510 0.9510 0.9510
21.153960 0.9510 0.9510 0.9530 0.9530 0.9530
21.185000 0.9530 0.9530 0.9530 0.9540 0.9540
21.215960 0.9540 0.9540 0.9540 0.9540 0.9540
21.247000 0.9530 0.9480 0.9480 0.9510 0.9530
21.277960 0.9530 0.9580 0.9610 0.9610 0.9610
21.309000 0.9610 0.9610 0.9580 0.9580 0.9560
21.339960 0.9560 0.9590 0.9590 0.9610 0.9610
21.370000 0.9590 0.9560 0.9560 0.9560 0.9540
21.400960 0.9540 0.9590 0.9620 0.9590 0.9620
21.432000 0.9640 0.9640 0.9620 0.9620 0.9620
21.462960 0.9620 0.9620 0.9610 0.9610 0.9610
21.494000 0.9620 0.9640 0.9640 0.9620 0.9640
21.524960 0.9640 0.9640 0.9640 0.9640 0.9640
21.556000 0.9650 0.9650 0.9650 0.9650 0.9640
21.586960 0.9620 0.9620 0.9610 0.9590 0.9580
21.618000 0.9580 0.9560 0.9560 0.9560 0.9560
21.648960 0.9560 0.9580 0.9580 0.9590 0.9610
21.680000 0.9620 0.9640 0.9640 0.9640 0.9640
21.710960 0.9640 0.9640 0.9640 0.9640 0.9640
21.742000 0.9640 0.9620 0.9620 0.9610 0.9610
21.772960 0.9610 0.9610 0.9610 0.9610 0.9540
21.804000 0.9620 0.9620 0.9620 0.9620 0.9620
21.834960 0.9590 0.9580 0.9560 0.9560 0.9540
21.866000 0.9560 0.9560 0.9540 0.9540 0.9610
21.896960 0.9620 0.9620 0.9610 0.9590 0.9580
21.927000 0.9560 0.9540 0.9540 0.9560 0.9590
21.957960 0.9590 0.9610 0.9610 0.9590 0.9580
21.989000 0.9560 0.9580 0.9610 0.9620 0.9640
22.019960 0.9620 0.9590 0.9590 0.9610 0.9620
22.051000 0.9640 0.9640 0.9650 0.9650 0.9650
22.081960 0.9670 0.9650 0.9640 0.9620 0.9590
22.113000 0.9560 0.9540 0.9540 0.9590 0.9610
22.143960 0.9610 0.9620 0.9640 0.9640 0.9590
22.175000 0.9590 0.9580 0.9580 0.9580 0.9560
22.205960 0.9560 0.9560 0.9560 0.9580 0.9580
22.237000 0.9590 0.9610 0.9610 0.9590 0.9610
22.267960 0.9610 0.9640 0.9640 0.9620 0.9540
22.299000 0.9530 0.9530 0.9530 0.9530 0.9540
22.329960 0.9560 0.9580 0.9580 0.9540 0.9540
22.361000 0.9540 0.9540 0.9540 0.9540 0.9560
22.391960 0.9560 0.9560 0.9560 0.9540 0.9530
22.423000 0.9480 0.9450 0.9450 0.9440 0.9440
22.453960 0.9440 0.9440 0.9450 0.9450 0.9470
22.485000 0.9450 0.9450 0.9450 0.9450 0.9450
22.515960 0.9450 0.9440 0.9420 0.9400 0.9400
22.546000 0.9390 0.9390 0.9400 0.9400 0.9420
22.576960 0.9440 0.9450 0.9450 0.9450 0.9470
22.608000 0.9450 0.9440 0.9420 0.9400 0.9420
22.638960 0.9370 0.9340 0.9370 0.9370 0.9370
22.670000 0.9390 0.9390 0.9420 0.9420 0.9400
22.700960 0.9400 0.9400 0.9420 0.9420 0.9440
22.732000 0.9450 0.9450 0.9450 0.9450 0.9440
22.762960 0.9420 0.9420 0.9400 0.9390 0.9420
22.794000 0.9420 0.9420 0.9420 0.9400 0.9390
22.824960 0.9370 0.9370 0.9360 0.9340 0.9340
22.856000 0.9340 0.9340 0.9340 0.9340 0.9340
22.886960 0.9370 0.9400 0.9420 0.9420 0.9450
22.918000 0.9470 0.9450 0.9450 0.9440 0.9420
22.948960 0.9400 0.9400 0.9440 0.9470 0.9470
22.980000 0.9440 0.9440 0.9440 0.9440 0.9440
23.010960 0.9440 0.9450 0.9450 0.9510 0.9510
23.042000 0.9530 0.9530 0.9510 0.9510 0.9510
23.072960 0.9510 0.9510 0.9510 0.9510 0.9510
23.103000 0.9510 0.9510 0.9510 0.9510 0.9510
23.133960 0.9530 0.9530 0.9540 0.9540 0.9540
23.165000 0.9560 0.9540 0.9530 0.9510 0.9510
23.195960 0.9510 0.9480 0.9480 0.9450 0.9450
23.227000 0.9510 0.9510 0.9510 0.9510 0.9510
23.257960 0.9500 0.9500 0.9500 0.9500 0.9500
23.289000 0.9480 0.9480 0.9500 0.9530 0.9530
23.319960 0.9540 0.9540 0.9560 0.9560 0.9560
23.351000 0.9580 0.9610 0.9610 0.9610 0.9560
23.381960 0.9540 0.9530 0.9510 0.9500 0.9470
23.413000 0.9450 0.9440 0.9440 0.9450 0.9450
23.443960 0.9450 0.9480 0.9470 0.9450 0.9450
23.475000 0.9450 0.9450 0.9470 0.9470 0.9470
23.505960 0.9470 0.9440 0.9440 0.9480 0.9510
23.537000 0.9510 0.9510 0.9510 0.9480 0.9450
23.567960 0.9440 0.9420 0.9400 0.9390 0.9390
23.599000 0.9390 0.9360 0.9360 0.9360 0.9370
23.629960 0.9370 0.9370 0.9370 0.9370 0.9370
23.660000 0.9370 0.9370 0.9370 0.9360 0.9360
23.690960 0.9340 0.9340 0.9330 0.9310 0.9280
23.722000 0.9280 0.9300 0.9300 0.9300 0.9330
23.752960 0.9330 0.9310 0.9250 0.9220 0.9200
23.784000 0.9220 0.9230 0.9230 0.9230 0.9220
23.814960 0.9200 0.9200 0.9200 0.9200 0.9170
23.846000 0.9140 0.9160 0.9160 0.9140 0.9130
23.876960 0.9110 0.9110 0.9110 0.9110 0.9110
23.908000 0.9110 0.9110 0.9090 0.9050 0.9030
23.938960 0.9030 0.9030 0.9030 0.9030 0.9020
23.970000 0.9020 0.9020 0.9020 0.9020 0.9020
24.000960 0.9030 0.9050 0.9050 0.9060 0.9060
24.032000 0.9060 0.9090 0.9110 0.9130 0.9130
24.062960 0.9130 0.9130 0.9140 0.9140 0.9130
24.094000 0.9130 0.9140 0.9140 0.9140 0.9160
24.124960 0.9160 0.9170 0.9170 0.9160 0.9140
24.156000 0.9130 0.9130 0.9130 0.9130 0.9110
24.186960 0.9110 0.9140 0.9140 0.9140 0.9140
24.218000 0.9130 0.9130 0.9130 0.9130 0.9110
24.248960 0.9110 0.9110 0.9090 0.9050 0.9050
24.279000 0.9030 0.9020 0.9020 0.9020 0.9030
24.309960 0.9030 0.9050 0.9050 0.9030 0.9020
24.341000 0.9000 0.9000 0.8990 0.8990 0.8970
24.371960 0.8970 0.8950 0.8920 0.8920 0.8910
24.403000 0.8910 0.8920 0.8920 0.8920 0.8920
24.433960 0.8910 0.8910 0.8910 0.8890 0.8890
24.465000 0.8910 0.8910 0.8910 0.8910 0.8880
24.495960 0.8860 0.8850 0.8830 0.8810 0.8810
24.527000 0.8800 0.8800 0.8770 0.8750 0.8740
24.557960 0.8740 0.8740 0.8740 0.8740 0.8740
24.589000 0.8740 0.8740 0.8710 0.8660 0.8640
24.619960 0.8630 0.8630 0.8660 0.8660 0.8660
24.651000 0.8660 0.8640 0.8630 0.8630 0.8630
24.681960 0.8630 0.8660 0.8660 0.8610 0.8600
24.713000 0.8600 0.8580 0.8570 0.8570 0.8550
24.743960 0.8550 0.8550 0.8550 0.8550 0.8540
24.775000 0.8520 0.8500 0.8500 0.8490 0.8490
24.805960 0.8470 0.8460 0.8430 0.8410 0.8380
24.836000 0.8350 0.8300 0.8290 0.8270 0.8270
24.866960 0.8260 0.8240 0.8220 0.8220 0.8210
24.898000 0.8210 0.8190 0.8190 0.8190 0.8180
24.928960 0.8160 0.8150 0.8130 0.8130 0.8130
24.960000 0.8130 0.8130 0.8100 0.8090 0.8070
24.990960 0.8050 0.8050 0.8020 0.7990 0.7930
25.022000 0.7900 0.7870 0.7850 0.7840 0.7810
25.052960 0.7740 0.7710 0.7710 0.7680 0.7670
25.084000 0.7670 0.7670 0.7650 0.7650 0.7630
25.114960 0.7630 0.7630 0.7650 0.7650 0.7650
25.146000 0.7650 0.7650 0.7650 0.7650 0.7670
25.176960 0.7670 0.7670 0.7650 0.7630 0.7620
25.208000 0.7600 0.7590 0.7570 0.7560 0.7560
25.238960 0.7560 0.7570 0.7570 0.7570 0.7570
25.270000 0.7570 0.7570 0.7570 0.7590 0.7590
25.300960 0.7590 0.7590 0.7590 0.7590 0.7600
25.332000 0.7600 0.7620 0.7620 0.7630 0.7630
25.362960 0.7630 0.7630 0.7630 0.7630 0.7630
25.393000 0.7620 0.7620 0.7620 0.7600 0.7590
25.423960 0.7590 0.7590 0.7570 0.7570 0.7570
25.455000 0.7560 0.7540 0.7540 0.7540 0.7540
25.485960 0.7560 0.7570 0.7590 0.7590 0.7590
25.517000 0.7590 0.7600 0.7600 0.7600 0.7620
25.547960 0.7620 0.7620 0.7600 0.7600 0.7590
25.579000 0.7570 0.7570 0.7560 0.7560 0.7540
25.609960 0.7530 0.7530 0.7530 0.7530 0.7530
25.641000 0.7530 0.7530 0.7530 0.7530 0.7530
25.671960 0.7510 0.7510 0.7530 0.7510 0.7510
25.703000 0.7500 0.7500 0.7480 0.7480 0.7460
25.733960 0.7450 0.7430 0.7430 0.7430 0.7420
25.765000 0.7420 0.7420 0.7400 0.7400 0.7400
25.795960 0.7390 0.7370 0.7360 0.7320 0.7310
25.827000 0.7290 0.7280 0.7250 0.7230 0.7230
25.857960 0.7220 0.7200 0.7170 0.7170 0.7150
25.889000 0.7140 0.7140 0.7110 0.7110 0.7110
25.919960 0.7090 0.7080 0.7080 0.7040 0.7040
25.950000 0.7030 0.7030 0.7030 0.7030 0.7030
25.980960 0.7040 0.7040 0.7060 0.7080 0.7080
##END=
