##TITLE=DI-n-PROPYL ETHER
##JCAMP-DX=4.24
##DATA TYPE=INFRARED SPECTRUM
##CLASS=COBLENTZ
##ORIGIN=DOW CHEMICAL COMPANY
##OWNER=COBLENTZ SOCIETY
Collection (C) 2018 copyright by the U.S. Secretary of Commerce
on behalf of the United States of America. All rights reserved.
##DATE=1964/04/16
##NAMES=dipropyl ether
1-propoxypropane
##CAS REGISTRY NO=111-43-3
##MOLFORM=C6 H14 O
##SOURCE REFERENCE=COBLENTZ NO. 6996
##$NIST SOURCE=COBLENTZ
##$NIST IMAGE=cob6996
##SPECTROMETER/DATA SYSTEM=DOW KBr FOREPRISM
##INSTRUMENT PARAMETERS=GRATING BLAZED AT 3.5, 12.0, 20.0 MICRONS AND CHANGED AT 5.0, 7.5, 14.9 MICRONS
##STATE=LIQUID (25 mmHg DILUTED TO A TOTAL PRESSURE OF 600 mmHg WITH NITROGEN)
##PATH LENGTH=5 CM
$$SPECTRAL CONTAMINATION DUE TO AN UNKNOWN AROUND 1760 CM^-^1
##SAMPLING PROCEDURE=TRANSMISSION
##RESOLUTION=4
##DATA PROCESSING=DIGITIZED BY NIST FROM HARD COPY (FROM TWO SEGMENTS)
##XUNITS=1/CM
##YUNITS=TRANSMITTANCE
##XFACTOR=1.000000
##YFACTOR=1
##DELTAX=0.878736
##FIRSTX=379.613
##LASTX=3796.14
##FIRSTY=1.008
##MAXX=3796.14
##MINX=379.613
##MAXY=1.038
##MINY=0.116003
##NPOINTS=3889
##XYDATA=(X++(Y..Y))
379.613000 1.0080 1.0080 1.0060 1.0060 1.0060
384.006679 1.0060 1.0060 1.0050 1.0050 1.0050
388.400358 1.0040 1.0040 1.0040 1.0040 1.0040
392.794037 1.0040 1.0040 1.0040 1.0040 1.0040
397.187716 1.0040 1.0050 1.0050 1.0050 1.0050
401.581395 1.0050 1.0050 1.0050 1.0060 1.0060
405.975074 1.0060 1.0060 1.0060 1.0060 1.0060
410.368754 1.0080 1.0080 1.0080 1.0080 1.0080
414.762433 1.0080 1.0080 1.0080 1.0080 1.0080
419.156112 1.0080 1.0080 1.0060 1.0060 1.0060
423.549791 1.0060 1.0060 1.0060 1.0050 1.0050
427.943470 1.0050 1.0050 1.0040 1.0040 1.0040
432.337149 1.0040 1.0040 1.0040 1.0040 1.0040
436.730828 1.0040 1.0040 1.0020 1.0020 1.0020
441.124507 1.0020 1.0020 1.0020 1.0010 1.0010
445.518186 1.0010 1.0010 1.0010 1.0000 1.0000
449.911865 1.0000 1.0000 1.0000 1.0000 1.0000
454.305544 1.0000 1.0000 1.0000 1.0000 0.9980
458.699223 0.9980 0.9980 0.9980 0.9980 0.9980
463.092903 0.9980 0.9980 0.9980 0.9980 0.9980
467.486582 0.9970 0.9970 0.9970 0.9980 1.0000
471.880261 1.0000 1.0000 1.0010 1.0010 1.0010
476.273940 1.0010 1.0010 1.0010 1.0010 1.0000
480.667619 1.0000 1.0000 1.0000 1.0000 1.0000
485.061298 0.9980 0.9980 0.9980 0.9980 0.9980
489.454977 0.9970 0.9940 0.9930 0.9910 0.9910
493.848656 0.9910 0.9910 0.9910 0.9910 0.9900
498.242335 0.9900 0.9900 0.9870 0.9860 0.9860
502.636014 0.9860 0.9860 0.9870 0.9870 0.9870
507.029693 0.9870 0.9870 0.9870 0.9870 0.9880
511.423372 0.9870 0.9870 0.9870 0.9870 0.9870
515.817052 0.9870 0.9870 0.9870 0.9870 0.9870
520.210731 0.9870 0.9880 0.9880 0.9880 0.9900
524.604410 0.9910 0.9910 0.9930 0.9930 0.9950
528.998089 1.0000 1.0000 1.0010 1.0010 1.0010
533.391768 1.0020 1.0020 1.0020 1.0020 1.0010
537.785447 1.0010 1.0010 1.0010 1.0010 1.0010
542.179126 1.0010 1.0010 1.0010 1.0010 1.0020
546.572805 1.0020 1.0040 1.0040 1.0040 1.0040
550.966484 1.0040 1.0040 1.0040 1.0040 1.0040
555.360163 1.0050 1.0050 1.0050 1.0050 1.0050
559.753842 1.0050 1.0050 1.0050 1.0050 1.0050
564.147521 1.0060 1.0060 1.0080 1.0090 1.0110
568.541201 1.0110 1.0110 1.0120 1.0120 1.0120
572.934880 1.0120 1.0120 1.0120 1.0120 1.0130
577.328559 1.0130 1.0130 1.0130 1.0150 1.0150
581.722238 1.0130 1.0130 1.0150 1.0150 1.0150
586.115917 1.0150 1.0150 1.0150 1.0150 1.0150
590.509596 1.0150 1.0160 1.0160 1.0160 1.0160
594.903275 1.0170 1.0170 1.0170 1.0170 1.0170
599.296954 1.0170 1.0150 1.0150 1.0160 1.0160
603.690633 1.0160 1.0160 1.0160 1.0160 1.0170
608.084312 1.0170 1.0170 1.0170 1.0170 1.0160
612.477991 1.0160 1.0160 1.0160 1.0160 1.0160
616.871670 1.0160 1.0160 1.0150 1.0150 1.0160
621.265350 1.0170 1.0190 1.0190 1.0190 1.0190
625.659029 1.0190 1.0190 1.0190 1.0190 1.0190
630.052708 1.0220 1.0220 1.0190 1.0190 1.0190
634.446387 1.0190 1.0190 1.0190 1.0190 1.0190
638.840066 1.0190 1.0190 1.0190 1.0190 1.0190
643.233745 1.0190 1.0190 1.0190 1.0200 1.0200
647.627424 1.0200 1.0200 1.0200 1.0200 1.0200
652.021103 1.0200 1.0200 1.0200 1.0220 1.0220
656.414782 1.0230 1.0240 1.0240 1.0240 1.0230
660.808461 1.0230 1.0230 1.0260 1.0270 1.0290
665.202140 1.0290 1.0290 1.0290 1.0290 1.0290
669.595819 1.0290 1.0270 1.0270 1.0270 1.0260
673.989499 1.0260 1.0260 1.0260 1.0260 1.0260
678.383178 1.0260 1.0270 1.0290 1.0300 1.0300
682.776857 1.0300 1.0300 1.0300 1.0300 1.0310
687.170536 1.0310 1.0310 1.0310 1.0310 1.0310
691.564215 1.0310 1.0300 1.0300 1.0300 1.0300
695.957894 1.0310 1.0310 1.0310 1.0330 1.0330
700.351573 1.0340 1.0340 1.0340 1.0340 1.0340
704.745252 1.0340 1.0340 1.0340 1.0330 1.0330
709.138931 1.0330 1.0310 1.0340 1.0350 1.0350
713.532610 1.0350 1.0350 1.0350 1.0350 1.0350
717.926289 1.0340 1.0340 1.0340 1.0350 1.0350
722.319968 1.0350 1.0350 1.0340 1.0340 1.0340
726.713648 1.0340 1.0340 1.0340 1.0340 1.0340
731.107327 1.0340 1.0330 1.0310 1.0310 1.0310
735.501006 1.0300 1.0300 1.0290 1.0290 1.0270
739.894685 1.0270 1.0260 1.0260 1.0260 1.0260
744.288364 1.0260 1.0240 1.0240 1.0240 1.0240
748.682043 1.0240 1.0240 1.0240 1.0240 1.0240
753.075722 1.0230 1.0230 1.0230 1.0230 1.0230
757.469401 1.0230 1.0230 1.0230 1.0230 1.0230
761.863080 1.0230 1.0230 1.0240 1.0240 1.0240
766.256759 1.0260 1.0260 1.0260 1.0260 1.0260
770.650438 1.0260 1.0240 1.0240 1.0240 1.0240
775.044117 1.0260 1.0260 1.0260 1.0270 1.0270
779.437797 1.0270 1.0290 1.0290 1.0290 1.0300
783.831476 1.0300 1.0310 1.0310 1.0310 1.0310
788.225155 1.0340 1.0340 1.0340 1.0350 1.0350
792.618834 1.0350 1.0370 1.0370 1.0370 1.0370
797.012513 1.0370 1.0370 1.0370 1.0370 1.0370
801.406192 1.0370 1.0370 1.0370 1.0370 1.0370
805.799871 1.0370 1.0370 1.0370 1.0380 1.0380
810.193550 1.0380 1.0380 1.0370 1.0370 1.0370
814.587229 1.0370 1.0370 1.0370 1.0370 1.0370
818.980908 1.0370 1.0370 1.0370 1.0370 1.0350
823.374587 1.0350 1.0350 1.0350 1.0350 1.0350
827.768266 1.0350 1.0350 1.0350 1.0340 1.0340
832.161946 1.0340 1.0340 1.0340 1.0340 1.0340
836.555625 1.0340 1.0340 1.0330 1.0330 1.0330
840.949304 1.0330 1.0330 1.0310 1.0310 1.0310
845.342983 1.0300 1.0300 1.0300 1.0300 1.0290
849.736662 1.0290 1.0290 1.0290 1.0270 1.0270
854.130341 1.0260 1.0260 1.0260 1.0240 1.0240
858.524020 1.0240 1.0240 1.0230 1.0230 1.0230
862.917699 1.0220 1.0220 1.0200 1.0190 1.0190
867.311378 1.0170 1.0170 1.0160 1.0150 1.0150
871.705057 1.0130 1.0130 1.0120 1.0120 1.0110
876.098736 1.0110 1.0090 1.0090 1.0080 1.0060
880.492415 1.0060 1.0050 1.0040 1.0040 1.0020
884.886095 1.0010 1.0010 1.0000 0.9980 0.9970
889.279774 0.9940 0.9930 0.9880 0.9860 0.9840
893.673453 0.9840 0.9830 0.9830 0.9830 0.9820
898.067132 0.9800 0.9790 0.9760 0.9720 0.9690
902.460811 0.9660 0.9650 0.9640 0.9640 0.9620
906.854490 0.9590 0.9570 0.9550 0.9520 0.9500
911.248169 0.9480 0.9480 0.9480 0.9470 0.9470
915.641848 0.9470 0.9470 0.9470 0.9460 0.9460
920.035527 0.9440 0.9440 0.9440 0.9440 0.9430
924.429206 0.9430 0.9410 0.9410 0.9410 0.9410
928.822885 0.9400 0.9400 0.9390 0.9370 0.9360
933.216564 0.9360 0.9340 0.9330 0.9320 0.9290
937.610244 0.9260 0.9260 0.9230 0.9210 0.9180
942.003923 0.9170 0.9150 0.9140 0.9120 0.9110
946.397602 0.9110 0.9110 0.9120 0.9140 0.9150
950.791281 0.9180 0.9190 0.9220 0.9230 0.9260
955.184960 0.9280 0.9300 0.9330 0.9340 0.9370
959.578639 0.9410 0.9440 0.9480 0.9510 0.9550
963.972318 0.9580 0.9620 0.9650 0.9690 0.9720
968.365997 0.9750 0.9770 0.9800 0.9820 0.9840
972.759676 0.9860 0.9870 0.9870 0.9880 0.9900
977.153355 0.9910 0.9910 0.9910 0.9910 0.9910
981.547034 0.9880 0.9870 0.9840 0.9800 0.9770
985.940713 0.9730 0.9690 0.9650 0.9610 0.9550
990.334392 0.9510 0.9470 0.9430 0.9390 0.9340
994.728072 0.9300 0.9220 0.9140 0.9050 0.8960
999.121751 0.8850 0.8740 0.8601 0.8431 0.8241
1003.515430 0.8130 0.7990 0.7880 0.7780 0.7730
1007.909109 0.7710 0.7710 0.7710 0.7710 0.7730
1012.302788 0.7740 0.7770 0.7810 0.7820 0.7880
1016.696467 0.7920 0.7930 0.8090 0.8220 0.8379
1021.090146 0.8560 0.8720 0.8860 0.8940 0.9000
1025.483825 0.9050 0.9100 0.9120 0.9150 0.9190
1029.877504 0.9210 0.9230 0.9250 0.9260 0.9290
1034.271183 0.9290 0.9300 0.9320 0.9320 0.9320
1038.664862 0.9330 0.9340 0.9340 0.9340 0.9330
1043.058541 0.9300 0.9280 0.9260 0.9220 0.9210
1047.452221 0.9210 0.9190 0.9140 0.9110 0.9070
1051.845900 0.9000 0.8960 0.8930 0.8920 0.8900
1056.239579 0.8900 0.8900 0.8900 0.8900 0.8900
1060.633258 0.8900 0.8920 0.8930 0.8930 0.8930
1065.026937 0.8930 0.8930 0.8930 0.8930 0.8930
1069.420616 0.8920 0.8870 0.8870 0.8830 0.8750
1073.814295 0.8650 0.8540 0.8420 0.8270 0.8110
1078.207974 0.7960 0.7810 0.7670 0.7521 0.7440
1082.601653 0.7350 0.7270 0.7190 0.7120 0.7040
1086.995332 0.6970 0.6900 0.6840 0.6790 0.6740
1091.389011 0.6700 0.6680 0.6650 0.6590 0.6550
1095.782690 0.6540 0.6520 0.6520 0.6510 0.6500
1100.176370 0.6480 0.6470 0.6430 0.6340 0.6250
1104.570049 0.6160 0.6070 0.5980 0.5900 0.5820
1108.963728 0.5720 0.5620 0.5530 0.5420 0.5380
1113.357407 0.5280 0.5110 0.4911 0.4671 0.4391
1117.751086 0.4090 0.3770 0.3450 0.3130 0.2830
1122.144765 0.2540 0.2261 0.2031 0.1831 0.1681
1126.538444 0.1590 0.1520 0.1430 0.1340 0.1270
1130.932123 0.1200 0.1170 0.1160 0.1170 0.1210
1135.325802 0.1250 0.1360 0.1410 0.1450 0.1520
1139.719481 0.1680 0.1969 0.2259 0.2320 0.2469
1144.113160 0.2720 0.3050 0.3230 0.3470 0.3630
1148.506839 0.3979 0.4369 0.4878 0.5318 0.5609
1152.900519 0.6010 0.6180 0.6340 0.6520 0.6740
1157.294198 0.6910 0.7060 0.7150 0.7280 0.7509
1161.687877 0.7640 0.7750 0.7920 0.8040 0.8140
1166.081556 0.8240 0.8350 0.8470 0.8530 0.8630
1170.475235 0.8710 0.8750 0.8830 0.8890 0.8920
1174.868914 0.8940 0.9030 0.9120 0.9170 0.9190
1179.262593 0.9260 0.9300 0.9370 0.9430 0.9440
1183.656272 0.9460 0.9480 0.9540 0.9570 0.9610
1188.049951 0.9640 0.9660 0.9690 0.9750 0.9770
1192.443630 0.9790 0.9790 0.9800 0.9800 0.9820
1196.837309 0.9830 0.9830 0.9830 0.9840 0.9840
1201.230988 0.9840 0.9860 0.9840 0.9840 0.9840
1205.624668 0.9840 0.9840 0.9840 0.9840 0.9840
1210.018347 0.9830 0.9830 0.9830 0.9830 0.9830
1214.412026 0.9820 0.9820 0.9820 0.9820 0.9800
1218.805705 0.9790 0.9770 0.9770 0.9760 0.9750
1223.199384 0.9750 0.9730 0.9700 0.9680 0.9650
1227.593063 0.9640 0.9590 0.9570 0.9540 0.9540
1231.986742 0.9510 0.9480 0.9440 0.9400 0.9370
1236.380421 0.9340 0.9320 0.9300 0.9280 0.9260
1240.774100 0.9220 0.9190 0.9170 0.9140 0.9120
1245.167779 0.9110 0.9100 0.9080 0.9080 0.9070
1249.561458 0.9070 0.9050 0.9050 0.9050 0.9050
1253.955137 0.9070 0.9070 0.9080 0.9080 0.9100
1258.348817 0.9110 0.9120 0.9140 0.9150 0.9170
1262.742496 0.9180 0.9180 0.9190 0.9210 0.9230
1267.136175 0.9250 0.9260 0.9280 0.9290 0.9290
1271.529854 0.9300 0.9320 0.9320 0.9320 0.9330
1275.923533 0.9340 0.9340 0.9360 0.9370 0.9370
1280.317212 0.9370 0.9370 0.9370 0.9370 0.9370
1284.710891 0.9360 0.9360 0.9360 0.9360 0.9340
1289.104570 0.9340 0.9340 0.9330 0.9320 0.9320
1293.498249 0.9320 0.9320 0.9320 0.9330 0.9330
1297.891928 0.9340 0.9340 0.9340 0.9360 0.9360
1302.285607 0.9390 0.9400 0.9430 0.9440 0.9460
1306.679286 0.9470 0.9500 0.9520 0.9550 0.9570
1311.072966 0.9580 0.9610 0.9650 0.9690 0.9730
1315.466645 0.9750 0.9770 0.9800 0.9830 0.9840
1319.860324 0.9860 0.9860 0.9870 0.9880 0.9900
1324.254003 0.9900 0.9900 0.9900 0.9880 0.9870
1328.647682 0.9860 0.9840 0.9830 0.9790 0.9750
1333.041361 0.9580 0.9470 0.9340 0.9280 0.9141
1337.435040 0.9030 0.8930 0.8890 0.8830 0.8810
1341.828719 0.8790 0.8780 0.8750 0.8750 0.8740
1346.222398 0.8740 0.8710 0.8670 0.8610 0.8570
1350.616077 0.8540 0.8520 0.8490 0.8470 0.8420
1355.009756 0.8350 0.8270 0.8200 0.8110 0.8040
1359.403435 0.8000 0.7711 0.7531 0.7410 0.7330
1363.797115 0.7260 0.7210 0.7170 0.7130 0.7090
1368.190794 0.7040 0.7010 0.6990 0.7010 0.7020
1372.584473 0.7040 0.7060 0.7090 0.7100 0.7130
1376.978152 0.7150 0.7170 0.7190 0.7210 0.7240
1381.371831 0.7280 0.7380 0.7410 0.7440 0.7460
1385.765510 0.7510 0.7570 0.7590 0.7600 0.7690
1390.159189 0.7770 0.7930 0.8130 0.8320 0.8490
1394.552868 0.8650 0.8810 0.8940 0.9050 0.9140
1398.946547 0.9210 0.9440 0.9520 0.9540 0.9540
1403.340226 0.9550 0.9570 0.9570 0.9580 0.9580
1407.733905 0.9590 0.9590 0.9610 0.9620 0.9620
1412.127584 0.9620 0.9620 0.9620 0.9610 0.9610
1416.521264 0.9590 0.9580 0.9590 0.9590 0.9610
1420.914943 0.9640 0.9650 0.9650 0.9650 0.9650
1425.308622 0.9650 0.9650 0.9640 0.9640 0.9620
1429.702301 0.9620 0.9610 0.9590 0.9580 0.9570
1434.095980 0.9570 0.9500 0.9400 0.9330 0.9300
1438.489659 0.9290 0.9260 0.9220 0.9210 0.9170
1442.883338 0.9110 0.9050 0.9010 0.8990 0.8970
1447.277017 0.8930 0.8890 0.8760 0.8710 0.8600
1451.670696 0.8470 0.8350 0.8290 0.8160 0.8100
1456.064375 0.7960 0.7880 0.7840 0.7820 0.7780
1460.458054 0.7690 0.7590 0.7530 0.7450 0.7390
1464.851733 0.7340 0.7330 0.7330 0.7340 0.7350
1469.245413 0.7370 0.7380 0.7390 0.7410 0.7420
1473.639092 0.7450 0.7480 0.7550 0.7600 0.7730
1478.032771 0.7810 0.7930 0.8070 0.8180 0.8350
1482.426450 0.8500 0.8600 0.8690 0.8780 0.8890
1486.820129 0.8930 0.9000 0.9110 0.9150 0.9260
1491.213808 0.9390 0.9460 0.9510 0.9540 0.9540
1495.607487 0.9570 0.9580 0.9650 0.9680 0.9720
1500.001166 0.9760 0.9790 0.9800 0.9800 0.9770
1504.394845 0.9770 0.9760 0.9760 0.9840 0.9930
1508.788524 0.9980 0.9980 1.0000 1.0000 1.0000
1513.182203 1.0000 1.0000 1.0000 1.0000 1.0000
1517.575882 1.0000 1.0000 1.0000 1.0010 1.0020
1521.969562 1.0020 1.0050 1.0060 1.0080 1.0080
1526.363241 1.0090 1.0090 1.0090 1.0090 1.0090
1530.756920 1.0010 1.0010 1.0010 1.0010 1.0080
1535.150599 1.0080 1.0060 1.0000 0.9970 0.9970
1539.544278 1.0000 1.0010 1.0020 1.0040 1.0060
1543.937957 1.0080 1.0090 1.0110 1.0120 1.0120
1548.331636 1.0120 1.0120 1.0120 1.0130 1.0110
1552.725315 1.0110 1.0090 1.0090 1.0080 1.0080
1557.118994 1.0010 1.0000 1.0000 1.0050 1.0120
1561.512673 1.0150 1.0160 1.0160 1.0160 1.0160
1565.906352 1.0160 1.0150 1.0150 1.0150 1.0150
1570.300031 1.0170 1.0170 1.0160 1.0130 1.0080
1574.693710 1.0010 1.0060 1.0150 1.0170 1.0170
1579.087390 1.0190 1.0190 1.0230 1.0230 1.0170
1583.481069 1.0170 1.0170 1.0160 1.0160 1.0160
1587.874748 1.0160 1.0160 1.0160 1.0150 1.0160
1592.268427 1.0160 1.0150 1.0150 1.0150 1.0150
1596.662106 1.0160 1.0160 1.0160 1.0170 1.0170
1601.055785 1.0170 1.0150 1.0150 1.0150 1.0150
1605.449464 1.0150 1.0150 1.0150 1.0150 1.0150
1609.843143 1.0150 1.0170 1.0160 1.0130 1.0110
1614.236822 1.0080 1.0060 1.0080 1.0110 1.0150
1618.630501 1.0150 1.0150 1.0120 1.0120 1.0130
1623.024180 1.0130 1.0150 1.0150 1.0150 1.0150
1627.417859 1.0150 1.0160 1.0160 1.0150 1.0130
1631.811539 1.0120 1.0090 1.0080 1.0110 1.0160
1636.205218 1.0190 1.0190 1.0230 1.0230 1.0230
1640.598897 1.0230 1.0170 1.0160 1.0120 1.0110
1644.992576 1.0130 1.0160 1.0230 1.0230 1.0230
1649.386255 1.0220 1.0040 0.9940 0.9940 1.0159
1653.779934 1.0190 1.0190 1.0170 1.0170 1.0170
1658.173613 1.0170 1.0160 1.0160 1.0160 1.0190
1662.567292 1.0190 1.0170 1.0170 1.0160 1.0160
1666.960971 1.0150 1.0130 1.0120 1.0160 1.0170
1671.354650 1.0130 1.0130 1.0130 1.0150 1.0160
1675.748329 1.0160 1.0160 1.0160 1.0160 1.0150
1680.142008 1.0120 1.0080 1.0050 1.0010 1.0120
1684.535688 1.0170 1.0170 1.0170 1.0190 1.0190
1688.929367 1.0190 1.0170 1.0170 1.0130 1.0130
1693.323046 1.0130 1.0120 1.0110 1.0090 1.0080
1697.716725 1.0080 1.0090 1.0110 1.0150 1.0190
1702.110404 1.0170 1.0190 1.0190 1.0190 1.0230
1706.504083 1.0230 1.0230 1.0230 1.0220 1.0200
1710.897762 1.0160 1.0130 1.0130 1.0130 1.0130
1715.291441 1.0130 1.0160 1.0220 1.0230 1.0230
1719.685120 1.0230 1.0240 1.0240 1.0230 1.0230
1724.078799 1.0220 1.0190 1.0160 1.0150 1.0130
1728.472478 1.0120 1.0120 1.0090 1.0090 1.0110
1732.866157 1.0150 1.0160 1.0150 1.0120 1.0120
1737.259837 1.0120 1.0120 1.0110 1.0110 1.0080
1741.653516 1.0060 1.0040 1.0020 1.0010 1.0010
1746.047195 1.0000 0.9980 0.9970 0.9950 0.9950
1750.440874 0.9940 0.9930 0.9910 0.9900 0.9900
1754.834553 0.9900 0.9900 0.9900 0.9880 0.9880
1759.228232 0.9880 0.9880 0.9880 0.9880 0.9870
1763.621911 0.9870 0.9870 0.9870 0.9870 0.9870
1768.015590 0.9870 0.9880 0.9980 1.0010 1.0020
1772.409269 1.0020 1.0040 1.0060 1.0080 1.0080
1776.802948 1.0090 1.0110 1.0120 1.0130 1.0150
1781.196627 1.0160 1.0170 1.0170 1.0170 1.0160
1785.590306 1.0160 1.0150 1.0130 1.0130 1.0130
1789.983986 1.0150 1.0160 1.0160 1.0160 1.0160
1794.377665 1.0160 1.0160 1.0160 1.0170 1.0170
1798.771344 1.0170 1.0190 1.0220 1.0220 1.0170
1803.165023 1.0170 1.0170 1.0170 1.0170 1.0170
1807.558702 1.0170 1.0170 1.0190 1.0220 1.0220
1811.952381 1.0170 1.0170 1.0170 1.0170 1.0170
1816.346060 1.0170 1.0170 1.0170 1.0170 1.0170
1820.739739 1.0160 1.0160 1.0160 1.0160 1.0160
1825.133418 1.0160 1.0160 1.0160 1.0160 1.0160
1829.527097 1.0160 1.0170 1.0160 1.0160 1.0150
1833.920776 1.0150 1.0130 1.0130 1.0130 1.0130
1838.314455 1.0120 1.0120 1.0130 1.0110 1.0110
1842.708135 1.0120 1.0120 1.0130 1.0130 1.0130
1847.101814 1.0130 1.0130 1.0130 1.0150 1.0150
1851.495493 1.0120 1.0120 1.0120 1.0110 1.0110
1855.889172 1.0110 1.0110 1.0110 1.0110 1.0110
1860.282851 1.0110 1.0110 1.0110 1.0110 1.0110
1864.676530 1.0110 1.0090 1.0090 1.0090 1.0090
1869.070209 1.0090 1.0090 1.0080 1.0080 1.0080
1873.463888 1.0080 1.0080 1.0060 1.0060 1.0060
1877.857567 1.0060 1.0060 1.0060 1.0050 1.0050
1882.251246 1.0060 1.0060 1.0060 1.0060 1.0060
1886.644925 1.0060 1.0060 1.0060 1.0060 1.0060
1891.038604 1.0080 1.0080 1.0080 1.0080 1.0080
1895.432284 1.0080 1.0080 1.0080 1.0080 1.0080
1899.825963 1.0080 1.0080 1.0080 1.0080 1.0080
1904.219642 1.0080 1.0080 1.0080 1.0080 1.0080
1908.613321 1.0080 1.0080 1.0080 1.0080 1.0080
1913.007000 1.0080 1.0080 1.0080 1.0080 1.0080
1917.400679 1.0080 1.0080 1.0080 1.0080 1.0080
1921.794358 1.0080 1.0080 1.0080 1.0080 1.0080
1926.188037 1.0080 1.0090 1.0080 1.0080 1.0080
1930.581716 1.0080 1.0080 1.0080 1.0060 1.0060
1934.975395 1.0060 1.0060 1.0060 1.0060 1.0050
1939.369074 1.0060 1.0050 1.0050 1.0050 1.0050
1943.762753 1.0060 1.0060 1.0060 1.0060 1.0060
1948.156433 1.0050 1.0050 1.0050 1.0050 1.0050
1952.550112 1.0040 1.0040 1.0040 1.0050 1.0050
1956.943791 1.0050 1.0050 1.0050 1.0050 1.0060
1961.337470 1.0060 1.0060 1.0060 1.0060 1.0060
1965.731149 1.0060 1.0060 1.0060 1.0060 1.0060
1970.124828 1.0060 1.0060 1.0060 1.0060 1.0060
1974.518507 1.0060 1.0060 1.0050 1.0050 1.0050
1978.912186 1.0050 1.0050 1.0050 1.0040 1.0040
1983.305865 1.0040 1.0020 1.0020 1.0020 1.0020
1987.699544 1.0020 1.0020 1.0010 1.0010 1.0010
1992.093223 1.0010 1.0010 1.0010 1.0020 1.0020
1996.486902 1.0020 1.0020 1.0040 1.0040 1.0040
2000.880582 1.0040 1.0040 1.0040 1.0040 1.0040
2005.274261 1.0040 1.0040 1.0040 1.0040 1.0040
2009.667940 1.0040 1.0040 1.0040 1.0040 1.0040
2014.061619 1.0040 1.0040 1.0040 1.0040 1.0040
2018.455298 1.0040 1.0040 1.0040 1.0040 1.0030
2022.848977 1.0020 1.0020 1.0020 1.0015 1.0010
2027.242656 1.0010 1.0010 1.0005 1.0000 1.0005
2031.636335 1.0010 1.0010 1.0010 1.0010 1.0010
2036.030014 1.0005 1.0000 1.0000 1.0000 1.0000
2040.423693 1.0000 1.0000 1.0000 0.9990 0.9980
2044.817372 0.9980 0.9980 0.9980 0.9980 0.9975
2049.211051 0.9970 0.9970 0.9970 0.9970 0.9970
2053.604731 0.9970 0.9970 0.9975 0.9980 0.9980
2057.998410 0.9980 0.9980 0.9980 0.9980 0.9980
2062.392089 0.9980 0.9980 0.9980 0.9980 0.9980
2066.785768 0.9980 0.9980 0.9980 0.9980 0.9980
2071.179447 0.9980 0.9980 0.9990 1.0000 1.0000
2075.573126 1.0000 1.0000 1.0000 1.0005 1.0010
2079.966805 1.0010 1.0010 1.0010 1.0010 1.0015
2084.360484 1.0020 1.0020 1.0020 1.0020 1.0020
2088.754163 1.0020 1.0020 1.0030 1.0040 1.0040
2093.147842 1.0040 1.0040 1.0040 1.0045 1.0050
2097.541521 1.0050 1.0050 1.0050 1.0050 1.0055
2101.935200 1.0060 1.0069 1.0079 1.0080 1.0080
2106.328880 1.0080 1.0080 1.0080 1.0080 1.0080
2110.722559 1.0080 1.0085 1.0090 1.0090 1.0090
2115.116238 1.0090 1.0090 1.0090 1.0090 1.0090
2119.509917 1.0090 1.0085 1.0080 1.0085 1.0090
2123.903596 1.0090 1.0090 1.0090 1.0090 1.0090
2128.297275 1.0090 1.0099 1.0109 1.0115 1.0120
2132.690954 1.0120 1.0120 1.0120 1.0120 1.0120
2137.084633 1.0120 1.0120 1.0120 1.0120 1.0120
2141.478312 1.0120 1.0120 1.0120 1.0120 1.0120
2145.871991 1.0120 1.0120 1.0120 1.0120 1.0120
2150.265670 1.0125 1.0130 1.0125 1.0120 1.0120
2154.659349 1.0120 1.0120 1.0120 1.0120 1.0120
2159.053028 1.0115 1.0110 1.0110 1.0110 1.0115
2163.446708 1.0120 1.0120 1.0120 1.0115 1.0111
2167.840387 1.0110 1.0110 1.0110 1.0110 1.0101
2172.234066 1.0091 1.0090 1.0090 1.0090 1.0090
2176.627745 1.0090 1.0090 1.0090 1.0090 1.0090
2181.021424 1.0090 1.0090 1.0090 1.0090 1.0090
2185.415103 1.0090 1.0090 1.0090 1.0090 1.0090
2189.808782 1.0090 1.0090 1.0090 1.0090 1.0090
2194.202461 1.0090 1.0090 1.0090 1.0090 1.0090
2198.596140 1.0090 1.0099 1.0109 1.0110 1.0110
2202.989819 1.0110 1.0110 1.0110 1.0110 1.0110
2207.383498 1.0110 1.0110 1.0110 1.0101 1.0091
2211.777177 1.0099 1.0109 1.0110 1.0110 1.0110
2216.170857 1.0110 1.0110 1.0110 1.0114 1.0119
2220.564536 1.0120 1.0120 1.0116 1.0111 1.0110
2224.958215 1.0110 1.0110 1.0110 1.0110 1.0110
2229.351894 1.0114 1.0119 1.0120 1.0120 1.0120
2233.745573 1.0120 1.0120 1.0120 1.0120 1.0120
2238.139252 1.0120 1.0120 1.0124 1.0129 1.0130
2242.532931 1.0130 1.0126 1.0121 1.0120 1.0120
2246.926610 1.0116 1.0111 1.0110 1.0110 1.0110
2251.320289 1.0110 1.0101 1.0091 1.0090 1.0090
2255.713968 1.0090 1.0090 1.0090 1.0090 1.0090
2260.107647 1.0090 1.0090 1.0090 1.0090 1.0090
2264.501326 1.0090 1.0090 1.0099 1.0109 1.0110
2268.895006 1.0110 1.0114 1.0119 1.0120 1.0120
2273.288685 1.0116 1.0111 1.0110 1.0110 1.0110
2277.682364 1.0110 1.0110 1.0110 1.0114 1.0119
2282.076043 1.0120 1.0120 1.0120 1.0120 1.0120
2286.469722 1.0120 1.0120 1.0120 1.0120 1.0120
2290.863401 1.0124 1.0129 1.0130 1.0130 1.0130
2295.257080 1.0130 1.0130 1.0130 1.0138 1.0149
2299.650759 1.0154 1.0159 1.0160 1.0160 1.0156
2304.044438 1.0151 1.0154 1.0159 1.0160 1.0160
2308.438117 1.0160 1.0160 1.0164 1.0169 1.0166
2312.831796 1.0161 1.0164 1.0169 1.0170 1.0170
2317.225475 1.0170 1.0170 1.0170 1.0170 1.0183
2321.619155 1.0197 1.0213 1.0228 1.0230 1.0230
2326.012834 1.0230 1.0230 1.0234 1.0239 1.0240
2330.406513 1.0240 1.0240 1.0240 1.0236 1.0231
2334.800192 1.0226 1.0221 1.0212 1.0202 1.0196
2339.193871 1.0191 1.0190 1.0190 1.0182 1.0172
2343.587550 1.0170 1.0170 1.0166 1.0161 1.0160
2347.981229 1.0160 1.0160 1.0160 1.0160 1.0160
2352.374908 1.0164 1.0169 1.0170 1.0170 1.0166
2356.768587 1.0161 1.0160 1.0160 1.0160 1.0160
2361.162266 1.0160 1.0160 1.0156 1.0151 1.0150
2365.555945 1.0150 1.0150 1.0150 1.0150 1.0150
2369.949624 1.0154 1.0159 1.0160 1.0160 1.0160
2374.343304 1.0160 1.0160 1.0160 1.0156 1.0151
2378.736983 1.0154 1.0159 1.0160 1.0160 1.0156
2383.130662 1.0151 1.0142 1.0132 1.0130 1.0130
2387.524341 1.0130 1.0130 1.0130 1.0130 1.0130
2391.918020 1.0130 1.0130 1.0130 1.0130 1.0130
2396.311699 1.0130 1.0130 1.0130 1.0130 1.0130
2400.705378 1.0130 1.0130 1.0130 1.0138 1.0148
2405.099057 1.0150 1.0150 1.0150 1.0150 1.0150
2409.492736 1.0150 1.0154 1.0159 1.0160 1.0160
2413.886415 1.0160 1.0160 1.0160 1.0160 1.0160
2418.280094 1.0160 1.0160 1.0160 1.0160 1.0160
2422.673773 1.0160 1.0160 1.0160 1.0160 1.0160
2427.067453 1.0160 1.0160 1.0160 1.0160 1.0160
2431.461132 1.0160 1.0160 1.0160 1.0160 1.0160
2435.854811 1.0160 1.0160 1.0160 1.0160 1.0160
2440.248490 1.0156 1.0151 1.0154 1.0159 1.0160
2444.642169 1.0160 1.0160 1.0160 1.0160 1.0160
2449.035848 1.0160 1.0160 1.0160 1.0160 1.0160
2453.429527 1.0160 1.0160 1.0160 1.0160 1.0160
2457.823206 1.0160 1.0160 1.0164 1.0169 1.0166
2462.216885 1.0161 1.0160 1.0160 1.0160 1.0160
2466.610564 1.0160 1.0160 1.0160 1.0160 1.0164
2471.004243 1.0169 1.0170 1.0170 1.0166 1.0161
2475.397922 1.0160 1.0160 1.0160 1.0160 1.0164
2479.791602 1.0169 1.0170 1.0170 1.0166 1.0161
2484.185281 1.0160 1.0160 1.0160 1.0160 1.0164
2488.578960 1.0169 1.0170 1.0170 1.0170 1.0170
2492.972639 1.0170 1.0170 1.0166 1.0161 1.0160
2497.366318 1.0160 1.0164 1.0169 1.0170 1.0170
2501.759997 1.0166 1.0161 1.0160 1.0160 1.0160
2506.153676 1.0160 1.0160 1.0160 1.0160 1.0160
2510.547355 1.0160 1.0160 1.0160 1.0160 1.0156
2514.941034 1.0151 1.0150 1.0150 1.0154 1.0159
2519.334713 1.0160 1.0160 1.0160 1.0160 1.0160
2523.728392 1.0160 1.0160 1.0160 1.0160 1.0160
2528.122071 1.0164 1.0169 1.0170 1.0170 1.0170
2532.515751 1.0170 1.0170 1.0170 1.0170 1.0170
2536.909430 1.0170 1.0170 1.0166 1.0161 1.0160
2541.303109 1.0160 1.0156 1.0151 1.0150 1.0150
2545.696788 1.0143 1.0133 1.0130 1.0130 1.0130
2550.090467 1.0130 1.0130 1.0130 1.0126 1.0121
2554.484146 1.0120 1.0120 1.0120 1.0120 1.0116
2558.877825 1.0112 1.0110 1.0110 1.0110 1.0110
2563.271504 1.0099 1.0084 1.0073 1.0063 1.0060
2567.665183 1.0060 1.0060 1.0060 1.0056 1.0052
2572.058862 1.0047 1.0042 1.0040 1.0040 1.0033
2576.452541 1.0023 1.0020 1.0020 1.0016 1.0011
2580.846220 1.0006 1.0001 1.0000 1.0000 0.9993
2585.239900 0.9983 0.9976 0.9971 0.9963 0.9953
2589.633579 0.9950 0.9950 0.9947 0.9942 0.9940
2594.027258 0.9940 0.9940 0.9940 0.9940 0.9940
2598.420937 0.9940 0.9940 0.9940 0.9940 0.9940
2602.814616 0.9940 0.9940 0.9940 0.9943 0.9948
2607.208295 0.9950 0.9950 0.9950 0.9950 0.9957
2611.601974 0.9967 0.9970 0.9970 0.9973 0.9978
2615.995653 0.9980 0.9980 0.9987 0.9997 1.0000
2620.389332 1.0000 1.0000 1.0000 1.0000 1.0000
2624.783011 1.0000 1.0000 1.0000 1.0000 1.0000
2629.176690 1.0000 1.0000 1.0000 1.0000 1.0000
2633.570369 1.0000 1.0000 1.0000 1.0000 0.9993
2637.964049 0.9983 0.9980 0.9980 0.9980 0.9980
2642.357728 0.9977 0.9972 0.9970 0.9970 0.9963
2646.751407 0.9953 0.9950 0.9950 0.9950 0.9950
2651.145086 0.9950 0.9950 0.9943 0.9933 0.9930
2655.538765 0.9930 0.9923 0.9913 0.9910 0.9910
2659.932444 0.9900 0.9885 0.9877 0.9872 0.9867
2664.326123 0.9862 0.9853 0.9843 0.9837 0.9832
2668.719802 0.9827 0.9822 0.9813 0.9803 0.9797
2673.113481 0.9792 0.9783 0.9773 0.9770 0.9770
2677.507160 0.9770 0.9770 0.9757 0.9737 0.9720
2681.900839 0.9705 0.9700 0.9700 0.9700 0.9700
2686.294518 0.9697 0.9692 0.9690 0.9690 0.9674
2690.688198 0.9649 0.9630 0.9615 0.9604 0.9594
2695.081877 0.9587 0.9582 0.9577 0.9572 0.9570
2699.475556 0.9570 0.9564 0.9554 0.9537 0.9517
2703.869235 0.9497 0.9477 0.9467 0.9462 0.9454
2708.262914 0.9444 0.9437 0.9432 0.9420 0.9405
2712.656593 0.9381 0.9351 0.9337 0.9332 0.9327
2717.050272 0.9322 0.9301 0.9271 0.9247 0.9227
2721.443951 0.9217 0.9212 0.9204 0.9194 0.9187
2725.837630 0.9182 0.9180 0.9180 0.9177 0.9172
2730.231309 0.9164 0.9154 0.9147 0.9142 0.9140
2734.624988 0.9140 0.9140 0.9140 0.9134 0.9124
2739.018667 0.9120 0.9120 0.9120 0.9120 0.9120
2743.412346 0.9120 0.9126 0.9136 0.9140 0.9140
2747.806026 0.9143 0.9148 0.9156 0.9166 0.9170
2752.199705 0.9170 0.9173 0.9178 0.9180 0.9180
2756.593384 0.9183 0.9188 0.9190 0.9190 0.9187
2760.987063 0.9182 0.9168 0.9148 0.9134 0.9124
2765.380742 0.9117 0.9112 0.9107 0.9102 0.9094
2769.774421 0.9084 0.9068 0.9048 0.9037 0.9032
2774.168100 0.9018 0.8998 0.8972 0.8942 0.8921
2778.561779 0.8906 0.8876 0.8836 0.8766 0.8676
2782.955458 0.8610 0.8560 0.8504 0.8444 0.8411
2787.349137 0.8396 0.8334 0.8239 0.8137 0.8032
2791.742816 0.7948 0.7878 0.7817 0.7762 0.7710
2796.136495 0.7660 0.7625 0.7600 0.7578 0.7558
2800.530175 0.7544 0.7534 0.7527 0.7522 0.7523
2804.923854 0.7528 0.7550 0.7585 0.7618 0.7648
2809.317533 0.7681 0.7716 0.7763 0.7818 0.7861
2813.711212 0.7896 0.7925 0.7950 0.7969 0.7984
2818.104891 0.8005 0.8030 0.8049 0.8064 0.8070
2822.498570 0.8070 0.8067 0.8062 0.8054 0.8044
2826.892249 0.8025 0.8000 0.7987 0.7982 0.7928
2831.285928 0.7838 0.7742 0.7642 0.7522 0.7387
2835.679607 0.7278 0.7188 0.7079 0.6954 0.6820
2840.073286 0.6681 0.6478 0.6229 0.5995 0.5773
2844.466965 0.5599 0.5459 0.5302 0.5132 0.4945
2848.860644 0.4745 0.4520 0.4275 0.4028 0.3778
2853.254324 0.3523 0.3263 0.3099 0.3009 0.2872
2857.648003 0.2697 0.2559 0.2449 0.2291 0.2094
2862.041682 0.2004 0.1994 0.1990 0.1990 0.1993
2866.435361 0.1998 0.2023 0.2062 0.2100 0.2135
2870.829040 0.2186 0.2251 0.2319 0.2389 0.2453
2875.222719 0.2513 0.2578 0.2648 0.2713 0.2774
2879.616398 0.2839 0.2909 0.2957 0.2987 0.3070
2884.010077 0.3194 0.3275 0.3320 0.3370 0.3425
2888.403756 0.3508 0.3612 0.3698 0.3768 0.3838
2892.797435 0.3908 0.3981 0.4055 0.4161 0.4292
2897.191114 0.4458 0.4653 0.4883 0.5143 0.5356
2901.584793 0.5531 0.5656 0.5741 0.5813 0.5873
2905.978473 0.5903 0.5908 0.5907 0.5902 0.5879
2910.372152 0.5839 0.5809 0.5789 0.5761 0.5726
2914.765831 0.5685 0.5641 0.5606 0.5581 0.5540
2919.159510 0.5485 0.5401 0.5291 0.5165 0.5025
2923.553189 0.4883 0.4738 0.4604 0.4479 0.4370
2927.946868 0.4275 0.4212 0.4177 0.4037 0.3800
2932.340547 0.3596 0.3421 0.3273 0.3148 0.3050
2936.734226 0.2975 0.2921 0.2887 0.2812 0.2702
2941.127905 0.2603 0.2513 0.2467 0.2462 0.2460
2945.521584 0.2460 0.2463 0.2468 0.2486 0.2516
2949.915263 0.2541 0.2561 0.2583 0.2608 0.2630
2954.308942 0.2650 0.2673 0.2698 0.2723 0.2748
2958.702622 0.2775 0.2805 0.2815 0.2805 0.2790
2963.096301 0.2770 0.2740 0.2700 0.2642 0.2566
2967.489980 0.2475 0.2371 0.2266 0.2161 0.2082
2971.883659 0.2027 0.1990 0.1970 0.1957 0.1952
2976.277338 0.1953 0.1958 0.1978 0.2013 0.2060
2980.671017 0.2120 0.2167 0.2202 0.2237 0.2273
2985.064696 0.2318 0.2373 0.2446 0.2536 0.2653
2989.458375 0.2798 0.2978 0.3193 0.3415 0.3645
2993.852054 0.3762 0.3767 0.3805 0.3874 0.4138
2998.245733 0.4603 0.5126 0.5710 0.6231 0.6684
3002.639412 0.7121 0.7540 0.7927 0.8282 0.8495
3007.033091 0.8565 0.8652 0.8757 0.8859 0.8959
3011.426771 0.9044 0.9114 0.9174 0.9224 0.9260
3015.820450 0.9280 0.9297 0.9312 0.9320 0.9320
3020.214129 0.9347 0.9402 0.9442 0.9467 0.9490
3024.607808 0.9510 0.9520 0.9520 0.9525 0.9535
3029.001487 0.9542 0.9547 0.9557 0.9572 0.9582
3033.395166 0.9587 0.9597 0.9612 0.9625 0.9635
3037.788845 0.9645 0.9655 0.9667 0.9682 0.9700
3042.182524 0.9720 0.9735 0.9745 0.9750 0.9750
3046.576203 0.9752 0.9757 0.9762 0.9767 0.9770
3050.969882 0.9770 0.9775 0.9785 0.9792 0.9797
3055.363561 0.9805 0.9815 0.9822 0.9827 0.9830
3059.757240 0.9830 0.9830 0.9830 0.9832 0.9837
3064.150920 0.9840 0.9840 0.9840 0.9840 0.9840
3068.544599 0.9840 0.9840 0.9840 0.9845 0.9855
3072.938278 0.9860 0.9860 0.9860 0.9860 0.9860
3077.331957 0.9860 0.9855 0.9845 0.9840 0.9840
3081.725636 0.9845 0.9855 0.9860 0.9860 0.9860
3086.119315 0.9860 0.9860 0.9860 0.9856 0.9845
3090.512994 0.9840 0.9840 0.9845 0.9855 0.9860
3094.906673 0.9860 0.9860 0.9860 0.9856 0.9846
3099.300352 0.9840 0.9840 0.9840 0.9840 0.9840
3103.694031 0.9840 0.9840 0.9840 0.9840 0.9840
3108.087710 0.9840 0.9840 0.9840 0.9840 0.9840
3112.481389 0.9840 0.9840 0.9840 0.9840 0.9840
3116.875069 0.9840 0.9840 0.9840 0.9840 0.9840
3121.268748 0.9840 0.9840 0.9840 0.9840 0.9840
3125.662427 0.9840 0.9840 0.9844 0.9854 0.9860
3130.056106 0.9860 0.9860 0.9860 0.9860 0.9860
3134.449785 0.9860 0.9860 0.9860 0.9860 0.9862
3138.843464 0.9867 0.9870 0.9870 0.9872 0.9877
3143.237143 0.9880 0.9880 0.9880 0.9880 0.9880
3147.630822 0.9880 0.9880 0.9880 0.9880 0.9880
3152.024501 0.9880 0.9880 0.9880 0.9880 0.9880
3156.418180 0.9880 0.9880 0.9880 0.9880 0.9880
3160.811859 0.9880 0.9880 0.9878 0.9873 0.9870
3165.205538 0.9870 0.9870 0.9870 0.9870 0.9870
3169.599218 0.9870 0.9870 0.9870 0.9870 0.9870
3173.992897 0.9870 0.9870 0.9870 0.9870 0.9870
3178.386576 0.9872 0.9877 0.9880 0.9880 0.9884
3182.780255 0.9894 0.9900 0.9900 0.9900 0.9900
3187.173934 0.9900 0.9900 0.9902 0.9907 0.9910
3191.567613 0.9910 0.9910 0.9910 0.9910 0.9910
3195.961292 0.9910 0.9910 0.9914 0.9924 0.9932
3200.354971 0.9937 0.9940 0.9940 0.9942 0.9947
3204.748650 0.9950 0.9950 0.9954 0.9964 0.9970
3209.142329 0.9970 0.9970 0.9970 0.9972 0.9977
3213.536008 0.9980 0.9980 0.9980 0.9980 0.9980
3217.929687 0.9980 0.9980 0.9980 0.9980 0.9980
3222.323367 0.9980 0.9980 0.9980 0.9980 0.9980
3226.717046 0.9980 0.9980 0.9980 0.9980 0.9980
3231.110725 0.9980 0.9980 0.9984 0.9994 1.0000
3235.504404 1.0000 0.9996 0.9986 0.9980 0.9980
3239.898083 0.9980 0.9980 0.9980 0.9980 0.9980
3244.291762 0.9980 0.9980 0.9980 0.9980 0.9980
3248.685441 0.9980 0.9980 0.9980 0.9980 0.9980
3253.079120 0.9980 0.9980 0.9980 0.9980 0.9980
3257.472799 0.9980 0.9980 0.9980 0.9980 0.9980
3261.866478 0.9980 0.9980 0.9980 0.9980 0.9980
3266.260157 0.9980 0.9980 0.9980 0.9980 0.9980
3270.653836 0.9980 0.9980 0.9980 0.9980 0.9980
3275.047516 0.9980 0.9980 0.9984 0.9994 1.0000
3279.441195 1.0000 1.0000 1.0000 1.0000 1.0000
3283.834874 1.0000 1.0000 1.0000 1.0000 1.0000
3288.228553 1.0000 1.0000 1.0000 1.0000 1.0000
3292.622232 1.0000 1.0000 1.0000 1.0000 1.0000
3297.015911 1.0000 1.0000 1.0000 1.0000 1.0000
3301.409590 1.0000 1.0000 1.0000 1.0000 1.0000
3305.803269 1.0000 1.0000 1.0000 1.0000 1.0000
3310.196948 1.0000 1.0000 1.0000 1.0000 1.0000
3314.590627 1.0000 1.0000 1.0000 1.0000 1.0000
3318.984306 1.0000 1.0000 0.9997 0.9987 0.9980
3323.377985 0.9980 0.9980 0.9980 0.9980 0.9980
3327.771664 0.9978 0.9973 0.9970 0.9970 0.9970
3332.165344 0.9970 0.9970 0.9970 0.9967 0.9957
3336.559023 0.9950 0.9950 0.9950 0.9950 0.9950
3340.952702 0.9950 0.9948 0.9943 0.9940 0.9940
3345.346381 0.9940 0.9940 0.9940 0.9940 0.9940
3349.740060 0.9940 0.9940 0.9940 0.9940 0.9940
3354.133739 0.9940 0.9940 0.9940 0.9940 0.9940
3358.527418 0.9940 0.9940 0.9940 0.9938 0.9933
3362.921097 0.9930 0.9930 0.9927 0.9917 0.9910
3367.314776 0.9910 0.9913 0.9923 0.9932 0.9937
3371.708455 0.9940 0.9940 0.9940 0.9940 0.9940
3376.102134 0.9940 0.9940 0.9940 0.9940 0.9940
3380.495813 0.9938 0.9933 0.9930 0.9930 0.9930
3384.889493 0.9930 0.9930 0.9930 0.9927 0.9917
3389.283172 0.9910 0.9910 0.9913 0.9923 0.9930
3393.676851 0.9930 0.9930 0.9930 0.9931 0.9936
3398.070530 0.9940 0.9940 0.9940 0.9940 0.9940
3402.464209 0.9940 0.9940 0.9940 0.9940 0.9940
3406.857888 0.9940 0.9940 0.9940 0.9940 0.9940
3411.251567 0.9940 0.9940 0.9940 0.9940 0.9940
3415.645246 0.9940 0.9940 0.9939 0.9934 0.9930
3420.038925 0.9930 0.9931 0.9936 0.9940 0.9940
3424.432604 0.9940 0.9940 0.9940 0.9940 0.9939
3428.826283 0.9934 0.9930 0.9930 0.9930 0.9930
3433.219962 0.9930 0.9930 0.9927 0.9917 0.9909
3437.613642 0.9904 0.9900 0.9900 0.9900 0.9900
3442.007321 0.9900 0.9900 0.9900 0.9900 0.9900
3446.401000 0.9900 0.9900 0.9900 0.9900 0.9900
3450.794679 0.9900 0.9900 0.9900 0.9900 0.9900
3455.188358 0.9900 0.9900 0.9900 0.9900 0.9900
3459.582037 0.9900 0.9900 0.9900 0.9900 0.9897
3463.975716 0.9887 0.9880 0.9880 0.9880 0.9880
3468.369395 0.9880 0.9880 0.9880 0.9880 0.9880
3472.763074 0.9880 0.9880 0.9880 0.9880 0.9880
3477.156753 0.9879 0.9874 0.9870 0.9870 0.9870
3481.550432 0.9870 0.9870 0.9870 0.9871 0.9876
3485.944111 0.9880 0.9880 0.9880 0.9880 0.9880
3490.337791 0.9880 0.9880 0.9880 0.9880 0.9880
3494.731470 0.9880 0.9880 0.9880 0.9880 0.9883
3499.125149 0.9892 0.9900 0.9900 0.9900 0.9900
3503.518828 0.9900 0.9900 0.9900 0.9900 0.9900
3507.912507 0.9900 0.9900 0.9900 0.9898 0.9888
3512.306186 0.9879 0.9874 0.9870 0.9870 0.9870
3516.699865 0.9870 0.9870 0.9870 0.9870 0.9870
3521.093544 0.9870 0.9870 0.9870 0.9870 0.9871
3525.487223 0.9876 0.9879 0.9874 0.9870 0.9870
3529.880902 0.9870 0.9870 0.9870 0.9870 0.9870
3534.274581 0.9870 0.9870 0.9870 0.9870 0.9870
3538.668260 0.9870 0.9870 0.9870 0.9870 0.9870
3543.061940 0.9870 0.9870 0.9870 0.9870 0.9870
3547.455619 0.9870 0.9870 0.9870 0.9870 0.9870
3551.849298 0.9870 0.9870 0.9870 0.9869 0.9864
3556.242977 0.9860 0.9860 0.9858 0.9848 0.9840
3560.636656 0.9840 0.9839 0.9834 0.9830 0.9830
3565.030335 0.9830 0.9830 0.9831 0.9836 0.9842
3569.424014 0.9852 0.9860 0.9860 0.9861 0.9866
3573.817693 0.9870 0.9870 0.9870 0.9870 0.9870
3578.211372 0.9870 0.9867 0.9852 0.9840 0.9840
3582.605051 0.9839 0.9834 0.9830 0.9830 0.9830
3586.998730 0.9830 0.9830 0.9830 0.9830 0.9830
3591.392409 0.9830 0.9830 0.9829 0.9824 0.9820
3595.786089 0.9820 0.9820 0.9820 0.9818 0.9808
3600.179768 0.9800 0.9800 0.9800 0.9800 0.9800
3604.573447 0.9800 0.9800 0.9800 0.9800 0.9800
3608.967126 0.9800 0.9800 0.9800 0.9800 0.9800
3613.360805 0.9800 0.9800 0.9800 0.9800 0.9800
3617.754484 0.9800 0.9800 0.9799 0.9794 0.9790
3622.148163 0.9790 0.9790 0.9790 0.9790 0.9790
3626.541842 0.9790 0.9790 0.9790 0.9790 0.9790
3630.935521 0.9790 0.9791 0.9796 0.9800 0.9800
3635.329200 0.9800 0.9800 0.9800 0.9800 0.9800
3639.722879 0.9800 0.9799 0.9794 0.9790 0.9790
3644.116558 0.9790 0.9790 0.9788 0.9778 0.9770
3648.510238 0.9770 0.9769 0.9764 0.9760 0.9760
3652.903917 0.9760 0.9760 0.9760 0.9760 0.9759
3657.297596 0.9754 0.9750 0.9750 0.9754 0.9779
3661.691275 0.9800 0.9800 0.9800 0.9800 0.9799
3666.084954 0.9794 0.9788 0.9773 0.9759 0.9754
3670.478633 0.9746 0.9721 0.9699 0.9694 0.9690
3674.872312 0.9690 0.9691 0.9696 0.9704 0.9729
3679.265991 0.9751 0.9756 0.9761 0.9766 0.9770
3683.659670 0.9770 0.9769 0.9764 0.9760 0.9760
3688.053349 0.9759 0.9754 0.9748 0.9738 0.9728
3692.447028 0.9713 0.9700 0.9700 0.9704 0.9729
3696.840707 0.9751 0.9756 0.9761 0.9766 0.9770
3701.234387 0.9770 0.9770 0.9770 0.9770 0.9770
3705.628066 0.9770 0.9770 0.9769 0.9764 0.9760
3710.021745 0.9760 0.9758 0.9743 0.9728 0.9713
3714.415424 0.9701 0.9711 0.9723 0.9748 0.9771
3718.809103 0.9781 0.9790 0.9790 0.9789 0.9779
3723.202782 0.9770 0.9770 0.9770 0.9770 0.9770
3727.596461 0.9770 0.9769 0.9764 0.9757 0.9737
3731.990140 0.9718 0.9703 0.9691 0.9696 0.9704
3736.383819 0.9734 0.9761 0.9766 0.9769 0.9764
3740.777498 0.9759 0.9754 0.9749 0.9739 0.9725
3745.171177 0.9691 0.9657 0.9632 0.9610 0.9610
3749.564856 0.9610 0.9610 0.9611 0.9616 0.9620
3753.958536 0.9620 0.9624 0.9659 0.9692 0.9712
3758.352215 0.9731 0.9741 0.9751 0.9756 0.9760
3762.745894 0.9760 0.9760 0.9760 0.9761 0.9766
3767.139573 0.9769 0.9759 0.9750 0.9750 0.9750
3771.533252 0.9750 0.9750 0.9750 0.9750 0.9750
3775.926931 0.9750 0.9750 0.9750 0.9750 0.9750
3780.320610 0.9750 0.9750 0.9750 0.9751 0.9756
3784.714289 0.9760 0.9760 0.9760 0.9760 0.9760
3789.107968 0.9760 0.9760 0.9760 0.9760 0.9760
3793.501647 0.9760 0.9760 0.9760 0.9760
##END=
