##TITLE=N-HEXYL BROMIDE
##JCAMP-DX=4.24
##DATA TYPE=INFRARED SPECTRUM
##CLASS=COBLENTZ
##ORIGIN=CONTINENTAL OIL CO. (HAROLD F. SMITH)
##OWNER=COBLENTZ SOCIETY
Collection (C) 2018 copyright by the U.S. Secretary of Commerce
on behalf of the United States of America. All rights reserved.
##DATE=Not specified, most likely prior to 1970
##NAMES=1-bromohexane
##CAS REGISTRY NO=111-25-1
##MOLFORM=C6 H13 Br
##SOURCE REFERENCE=COBLENTZ NO. 3753
##$NIST SOURCE=COBLENTZ
##$NIST IMAGE=cob3753
##SPECTROMETER/DATA SYSTEM=Not specified, most likely a prism, grating, or hybrid spectrometer.
##STATE=LIQUID
##PATH LENGTH=0.0036 CM
##SAMPLING PROCEDURE=TRANSMISSION
##RESOLUTION=4
##DATA PROCESSING=DIGITIZED BY NIST FROM HARD COPY
##XUNITS=MICROMETERS
##YUNITS=TRANSMITTANCE
##XFACTOR=1.000000
##YFACTOR=1
##DELTAX=000.006186
##FIRSTX=12.019
##LASTX=26.0062
##FIRSTY=0.897
##MAXX=26.0062
##MINX=12.019
##MAXY=0.945
##MINY=0.17
##NPOINTS=2262
##XYDATA=(X++(Y..Y))
12.019000 0.8970 0.8990 0.8990 0.9020 0.9020
12.049946 0.9050 0.9060 0.9110 0.9160 0.9170
12.080000 0.9170 0.9190 0.9200 0.9250 0.9280
12.110946 0.9310 0.9310 0.9310 0.9310 0.9330
12.142000 0.9330 0.9340 0.9340 0.9370 0.9390
12.172946 0.9410 0.9410 0.9420 0.9440 0.9450
12.204000 0.9450 0.9440 0.9440 0.9410 0.9360
12.234946 0.9310 0.9280 0.9250 0.9220 0.9200
12.266000 0.9190 0.9130 0.8940 0.8850 0.8750
12.296946 0.8650 0.8580 0.8460 0.8290 0.8130
12.328000 0.7960 0.7840 0.7730 0.7620 0.7510
12.358946 0.7480 0.7470 0.7470 0.7470 0.7470
12.390000 0.7480 0.7500 0.7530 0.7560 0.7580
12.420946 0.7590 0.7610 0.7670 0.7700 0.7820
12.452000 0.7870 0.7900 0.7920 0.7950 0.7960
12.482946 0.7980 0.8000 0.8030 0.8060 0.8090
12.513000 0.8100 0.8120 0.8130 0.8150 0.8180
12.543946 0.8230 0.8270 0.8290 0.8310 0.8320
12.575000 0.8370 0.8440 0.8480 0.8490 0.8520
12.605946 0.8540 0.8570 0.8600 0.8620 0.8630
12.637000 0.8680 0.8690 0.8720 0.8740 0.8790
12.667946 0.8820 0.8860 0.8880 0.8910 0.8930
12.699000 0.8960 0.8970 0.8970 0.8970 0.8970
12.729946 0.8960 0.8940 0.8940 0.8930 0.8910
12.761000 0.8890 0.8860 0.8850 0.8820 0.8800
12.791946 0.8770 0.8740 0.8710 0.8680 0.8630
12.823000 0.8620 0.8600 0.8580 0.8580 0.8570
12.853946 0.8550 0.8550 0.8550 0.8520 0.8520
12.885000 0.8510 0.8490 0.8480 0.8460 0.8440
12.915946 0.8410 0.8410 0.8400 0.8400 0.8380
12.947000 0.8350 0.8350 0.8320 0.8290 0.8290
12.977946 0.8260 0.8230 0.8210 0.8200 0.8150
13.008000 0.8130 0.8120 0.8100 0.8090 0.8070
13.038946 0.8070 0.8060 0.8060 0.8060 0.8060
13.070000 0.8070 0.8090 0.8120 0.8130 0.8130
13.100946 0.8130 0.8130 0.8130 0.8120 0.8120
13.132000 0.8060 0.8030 0.8010 0.7960 0.7920
13.162946 0.7890 0.7870 0.7820 0.7750 0.7730
13.194000 0.7640 0.7590 0.7560 0.7550 0.7500
13.224946 0.7450 0.7420 0.7390 0.7370 0.7340
13.256000 0.7300 0.7240 0.7170 0.7110 0.7060
13.286946 0.7000 0.6990 0.6960 0.6910 0.6880
13.318000 0.6860 0.6850 0.6850 0.6830 0.6800
13.348946 0.6790 0.6770 0.6770 0.6770 0.6790
13.380000 0.6800 0.6830 0.6860 0.6890 0.6940
13.410946 0.7000 0.7000 0.7030 0.7080 0.7080
13.441000 0.7080 0.7100 0.7100 0.7100 0.7110
13.471946 0.7110 0.7110 0.7110 0.7110 0.7110
13.503000 0.7110 0.7130 0.7130 0.7140 0.7160
13.533946 0.7170 0.7170 0.7160 0.7160 0.7140
13.565000 0.7060 0.7050 0.7050 0.7080 0.7080
13.595946 0.7030 0.6800 0.6650 0.6550 0.6400
13.627000 0.6290 0.6200 0.6180 0.6060 0.5950
13.657946 0.5820 0.5700 0.5560 0.5410 0.5310
13.689000 0.5170 0.5000 0.4820 0.4650 0.4480
13.719946 0.4370 0.4240 0.4060 0.3960 0.3860
13.751000 0.3750 0.3560 0.3420 0.3300 0.3220
13.781946 0.3130 0.3050 0.2970 0.2880 0.2750
13.813000 0.2740 0.2630 0.2580 0.2540 0.2510
13.843946 0.2490 0.2460 0.2440 0.2440 0.2440
13.875000 0.2460 0.2480 0.2520 0.2570 0.2600
13.905946 0.2650 0.2710 0.2850 0.2990 0.3130
13.936000 0.3240 0.3370 0.3530 0.3670 0.3840
13.966946 0.4010 0.4180 0.4370 0.4570 0.4750
13.998000 0.5060 0.5240 0.5330 0.5390 0.5480
14.028946 0.5640 0.5840 0.5980 0.6030 0.6150
14.060000 0.6210 0.6340 0.6460 0.6580 0.6690
14.090946 0.6820 0.6910 0.7000 0.7080 0.7190
14.122000 0.7300 0.7370 0.7420 0.7480 0.7510
14.152946 0.7590 0.7670 0.7680 0.7720 0.7780
14.184000 0.7890 0.7900 0.7960 0.8060 0.8150
14.214946 0.8240 0.8270 0.8270 0.8270 0.8310
14.246000 0.8340 0.8400 0.8430 0.8460 0.8480
14.276946 0.8490 0.8510 0.8540 0.8570 0.8600
14.308000 0.8680 0.8740 0.8770 0.8790 0.8800
14.338946 0.8850 0.8880 0.8880 0.8890 0.8890
14.369000 0.8890 0.8910 0.8910 0.8930 0.8960
14.399946 0.8990 0.9020 0.9020 0.8990 0.8970
14.431000 0.8960 0.8990 0.9030 0.9050 0.9080
14.461946 0.9100 0.9080 0.9080 0.9110 0.9170
14.493000 0.9170 0.9170 0.9170 0.9170 0.9170
14.523946 0.9170 0.9170 0.9170 0.9170 0.9170
14.555000 0.9190 0.9190 0.9190 0.9190 0.9170
14.585946 0.9170 0.9170 0.9190 0.9190 0.9190
14.617000 0.9170 0.9160 0.9160 0.9140 0.9140
14.647946 0.9140 0.9130 0.9130 0.9110 0.9110
14.679000 0.9110 0.9110 0.9110 0.9110 0.9100
14.709946 0.9100 0.9100 0.9100 0.9100 0.9100
14.741000 0.9100 0.9100 0.9100 0.9100 0.9100
14.771946 0.9080 0.9080 0.9050 0.9050 0.9030
14.802000 0.9020 0.9000 0.8990 0.8990 0.9000
14.832946 0.9000 0.8990 0.8990 0.8990 0.8940
14.864000 0.8910 0.8880 0.8880 0.8850 0.8830
14.894946 0.8820 0.8820 0.8830 0.8830 0.8830
14.926000 0.8820 0.8820 0.8800 0.8800 0.8790
14.956946 0.8790 0.8790 0.8790 0.8770 0.8720
14.988000 0.8710 0.8710 0.8710 0.8710 0.8740
15.018946 0.8740 0.8740 0.8720 0.8690 0.8680
15.050000 0.8630 0.8620 0.8520 0.8480 0.8400
15.080946 0.8320 0.8270 0.8150 0.8010 0.7980
15.112000 0.7950 0.7890 0.7790 0.7780 0.7720
15.142946 0.7680 0.7620 0.7610 0.7590 0.7500
15.174000 0.7480 0.7420 0.7360 0.7280 0.7190
15.204946 0.7130 0.7100 0.7080 0.7030 0.7000
15.236000 0.6970 0.6890 0.6720 0.6600 0.6520
15.266946 0.6410 0.6310 0.6210 0.6100 0.6010
15.297000 0.5920 0.5810 0.5730 0.5610 0.5510
15.327946 0.5410 0.5250 0.5100 0.4940 0.4750
15.359000 0.4600 0.4460 0.4370 0.4290 0.4170
15.389946 0.4060 0.4000 0.3780 0.3560 0.3450
15.421000 0.3250 0.3140 0.3030 0.2890 0.2800
15.451946 0.2690 0.2580 0.2480 0.2380 0.2290
15.483000 0.2230 0.2180 0.2150 0.2130 0.2090
15.513946 0.2000 0.1920 0.1890 0.1870 0.1810
15.545000 0.1780 0.1750 0.1730 0.1730 0.1720
15.575946 0.1720 0.1720 0.1700 0.1700 0.1700
15.607000 0.1720 0.1730 0.1760 0.1790 0.1840
15.637946 0.1920 0.2010 0.2060 0.2100 0.2170
15.669000 0.2230 0.2290 0.2310 0.2380 0.2510
15.699946 0.2580 0.2630 0.2720 0.2790 0.2890
15.730000 0.3020 0.3130 0.3250 0.3410 0.3550
15.760946 0.3750 0.3950 0.4040 0.4150 0.4240
15.792000 0.4320 0.4520 0.4750 0.4940 0.5020
15.822946 0.5110 0.5280 0.5390 0.5480 0.5590
15.854000 0.5640 0.5720 0.5820 0.5920 0.6010
15.884946 0.6130 0.6260 0.6380 0.6410 0.6490
15.916000 0.6520 0.6580 0.6720 0.6800 0.6850
15.946946 0.6910 0.6990 0.7020 0.7110 0.7190
15.978000 0.7250 0.7340 0.7410 0.7440 0.7480
16.008946 0.7500 0.7510 0.7550 0.7620 0.7700
16.040000 0.7730 0.7780 0.7790 0.7820 0.7860
16.070946 0.7870 0.7920 0.7930 0.7960 0.8000
16.102000 0.8010 0.8010 0.8040 0.8060 0.8090
16.132946 0.8090 0.8130 0.8150 0.8180 0.8180
16.163000 0.8180 0.8200 0.8200 0.8200 0.8200
16.193946 0.8180 0.8150 0.8120 0.8100 0.8090
16.225000 0.8090 0.8100 0.8120 0.8100 0.8090
16.255946 0.8060 0.8060 0.8060 0.8030 0.8030
16.287000 0.8040 0.8040 0.8030 0.8030 0.8010
16.317946 0.8000 0.7980 0.7960 0.7960 0.8000
16.349000 0.8010 0.8100 0.8180 0.8200 0.8230
16.379946 0.8240 0.8260 0.8290 0.8310 0.8310
16.411000 0.8310 0.8320 0.8340 0.8350 0.8400
16.441946 0.8410 0.8410 0.8430 0.8410 0.8410
16.473000 0.8400 0.8410 0.8430 0.8490 0.8490
16.503946 0.8540 0.8580 0.8580 0.8600 0.8600
16.535000 0.8600 0.8600 0.8600 0.8620 0.8630
16.565946 0.8650 0.8650 0.8660 0.8680 0.8690
16.597000 0.8710 0.8720 0.8740 0.8750 0.8750
16.627946 0.8750 0.8750 0.8740 0.8720 0.8720
16.658000 0.8720 0.8750 0.8790 0.8800 0.8830
16.688946 0.8860 0.8880 0.8880 0.8880 0.8850
16.720000 0.8820 0.8800 0.8790 0.8800 0.8800
16.750946 0.8820 0.8800 0.8790 0.8770 0.8770
16.782000 0.8770 0.8770 0.8770 0.8750 0.8770
16.812946 0.8790 0.8800 0.8800 0.8830 0.8830
16.844000 0.8820 0.8800 0.8790 0.8790 0.8740
16.874946 0.8710 0.8710 0.8690 0.8690 0.8680
16.906000 0.8680 0.8660 0.8660 0.8660 0.8680
16.936946 0.8690 0.8720 0.8740 0.8750 0.8790
16.968000 0.8790 0.8790 0.8790 0.8770 0.8770
16.998946 0.8740 0.8710 0.8690 0.8690 0.8680
17.030000 0.8650 0.8630 0.8630 0.8620 0.8600
17.060946 0.8580 0.8540 0.8520 0.8510 0.8490
17.091000 0.8480 0.8480 0.8480 0.8460 0.8430
17.121946 0.8400 0.8370 0.8350 0.8340 0.8340
17.153000 0.8340 0.8340 0.8340 0.8340 0.8340
17.183946 0.8340 0.8320 0.8290 0.8230 0.8210
17.215000 0.8180 0.8180 0.8150 0.8100 0.8090
17.245946 0.8030 0.8000 0.7980 0.7920 0.7890
17.277000 0.7790 0.7720 0.7700 0.7680 0.7610
17.307946 0.7530 0.7480 0.7420 0.7410 0.7310
17.339000 0.7300 0.7280 0.7190 0.7110 0.7080
17.369946 0.7030 0.6990 0.6970 0.6910 0.6820
17.401000 0.6750 0.6620 0.6600 0.6510 0.6320
17.431946 0.6230 0.6130 0.6040 0.5980 0.5890
17.463000 0.5780 0.5680 0.5530 0.5450 0.5300
17.493946 0.5200 0.5130 0.5020 0.4960 0.4880
17.525000 0.4790 0.4710 0.4630 0.4510 0.4410
17.555946 0.4310 0.4130 0.4040 0.4000 0.3960
17.586000 0.3890 0.3790 0.3640 0.3480 0.3410
17.616946 0.3330 0.3280 0.3220 0.3170 0.3140
17.648000 0.3110 0.3030 0.2970 0.2850 0.2800
17.678946 0.2690 0.2650 0.2580 0.2540 0.2490
17.710000 0.2480 0.2410 0.2380 0.2290 0.2230
17.740946 0.2200 0.2150 0.2130 0.2120 0.2120
17.772000 0.2100 0.2090 0.2090 0.2030 0.2000
17.802946 0.1980 0.1980 0.2000 0.2000 0.2030
17.834000 0.2070 0.2090 0.2090 0.2090 0.2100
17.864946 0.2130 0.2200 0.2240 0.2310 0.2400
17.896000 0.2430 0.2490 0.2520 0.2580 0.2620
17.926946 0.2710 0.2800 0.2880 0.2970 0.3000
17.958000 0.3100 0.3240 0.3420 0.3550 0.3590
17.988946 0.3680 0.3790 0.3920 0.4010 0.4090
18.019000 0.4120 0.4210 0.4320 0.4430 0.4550
18.049946 0.4790 0.4910 0.5080 0.5200 0.5330
18.081000 0.5420 0.5500 0.5590 0.5680 0.5720
18.111946 0.5790 0.5950 0.6010 0.6130 0.6180
18.143000 0.6240 0.6320 0.6400 0.6490 0.6520
18.173946 0.6580 0.6600 0.6650 0.6770 0.6880
18.205000 0.6930 0.6990 0.7000 0.7030 0.7050
18.235946 0.7060 0.7140 0.7190 0.7240 0.7250
18.267000 0.7280 0.7370 0.7390 0.7440 0.7500
18.297946 0.7530 0.7580 0.7590 0.7620 0.7680
18.329000 0.7680 0.7720 0.7750 0.7780 0.7780
18.359946 0.7780 0.7790 0.7840 0.7870 0.7870
18.391000 0.7890 0.7920 0.7930 0.7950 0.7960
18.421946 0.7980 0.8000 0.8000 0.8000 0.8000
18.452000 0.8010 0.8010 0.8010 0.8060 0.8100
18.482946 0.8130 0.8150 0.8170 0.8180 0.8180
18.514000 0.8200 0.8210 0.8210 0.8230 0.8230
18.544946 0.8240 0.8240 0.8260 0.8260 0.8260
18.576000 0.8290 0.8290 0.8310 0.8320 0.8350
18.606946 0.8400 0.8400 0.8400 0.8410 0.8410
18.638000 0.8410 0.8410 0.8410 0.8430 0.8430
18.668946 0.8490 0.8490 0.8510 0.8510 0.8490
18.700000 0.8490 0.8490 0.8510 0.8520 0.8520
18.730946 0.8520 0.8520 0.8520 0.8540 0.8540
18.762000 0.8520 0.8540 0.8540 0.8550 0.8550
18.792946 0.8550 0.8580 0.8600 0.8620 0.8620
18.824000 0.8620 0.8620 0.8620 0.8620 0.8630
18.854946 0.8650 0.8660 0.8680 0.8680 0.8680
18.886000 0.8680 0.8650 0.8650 0.8650 0.8650
18.916946 0.8690 0.8710 0.8740 0.8720 0.8710
18.947000 0.8690 0.8680 0.8650 0.8650 0.8630
18.977946 0.8650 0.8650 0.8660 0.8660 0.8680
19.009000 0.8680 0.8680 0.8690 0.8690 0.8710
19.039946 0.8720 0.8720 0.8720 0.8720 0.8720
19.071000 0.8740 0.8740 0.8720 0.8720 0.8720
19.101946 0.8720 0.8770 0.8800 0.8820 0.8790
19.133000 0.8750 0.8750 0.8750 0.8750 0.8750
19.163946 0.8750 0.8750 0.8750 0.8750 0.8750
19.195000 0.8770 0.8790 0.8800 0.8800 0.8820
19.225946 0.8820 0.8820 0.8820 0.8820 0.8830
19.257000 0.8880 0.8880 0.8860 0.8860 0.8860
19.287946 0.8860 0.8860 0.8860 0.8880 0.8880
19.319000 0.8890 0.8930 0.8940 0.8990 0.8990
19.349946 0.8970 0.8990 0.8990 0.8990 0.8990
19.380000 0.8990 0.9000 0.9000 0.9030 0.9060
19.410946 0.9080 0.9080 0.9080 0.9080 0.9060
19.442000 0.9050 0.9060 0.9080 0.9080 0.9100
19.472946 0.9100 0.9100 0.9080 0.9080 0.9050
19.504000 0.9050 0.9080 0.9080 0.9080 0.9080
19.534946 0.9080 0.9080 0.9080 0.9080 0.9030
19.566000 0.9020 0.9020 0.9020 0.9020 0.9020
19.596946 0.9020 0.9020 0.9020 0.9020 0.9030
19.628000 0.9030 0.9030 0.9030 0.9050 0.9080
19.658946 0.9080 0.9080 0.9080 0.9060 0.9060
19.690000 0.9060 0.9050 0.9050 0.9050 0.9050
19.720946 0.9050 0.9030 0.9030 0.9030 0.9030
19.752000 0.9020 0.9020 0.9020 0.9020 0.9020
19.782946 0.9020 0.9020 0.9020 0.9020 0.9020
19.814000 0.9020 0.9030 0.9030 0.9030 0.9060
19.844946 0.9060 0.9080 0.9100 0.9080 0.9050
19.875000 0.9050 0.9030 0.9030 0.9030 0.9050
19.905946 0.9050 0.9060 0.9060 0.9060 0.9080
19.937000 0.9080 0.9080 0.9080 0.9080 0.9100
19.967946 0.9100 0.9100 0.9110 0.9110 0.9110
19.999000 0.9130 0.9110 0.9130 0.9130 0.9130
20.029946 0.9130 0.9130 0.9140 0.9140 0.9140
20.061000 0.9140 0.9140 0.9130 0.9130 0.9140
20.091946 0.9160 0.9160 0.9160 0.9140 0.9130
20.123000 0.9110 0.9100 0.9100 0.9080 0.9080
20.153946 0.9080 0.9080 0.9080 0.9100 0.9100
20.185000 0.9100 0.9100 0.9100 0.9100 0.9100
20.215946 0.9100 0.9110 0.9130 0.9140 0.9140
20.247000 0.9130 0.9110 0.9100 0.9030 0.9020
20.277946 0.9020 0.9020 0.9000 0.9000 0.8990
20.308000 0.8990 0.8990 0.8940 0.8930 0.8940
20.338946 0.8940 0.8970 0.8990 0.9000 0.8990
20.370000 0.8970 0.8990 0.8940 0.8940 0.8910
20.400946 0.8860 0.8860 0.8860 0.8850 0.8830
20.432000 0.8830 0.8830 0.8830 0.8850 0.8860
20.462946 0.8860 0.8890 0.8890 0.8880 0.8880
20.494000 0.8880 0.8880 0.8910 0.8930 0.8930
20.524946 0.8930 0.8930 0.8930 0.8930 0.8930
20.556000 0.8930 0.8930 0.8930 0.8930 0.8930
20.586946 0.8930 0.8930 0.8930 0.8910 0.8910
20.618000 0.8890 0.8880 0.8860 0.8860 0.8860
20.648946 0.8850 0.8850 0.8850 0.8830 0.8820
20.680000 0.8820 0.8800 0.8790 0.8790 0.8800
20.710946 0.8800 0.8820 0.8820 0.8800 0.8800
20.741000 0.8790 0.8790 0.8790 0.8800 0.8800
20.771946 0.8800 0.8800 0.8820 0.8820 0.8830
20.803000 0.8820 0.8830 0.8830 0.8850 0.8880
20.833946 0.8880 0.8880 0.8880 0.8860 0.8860
20.865000 0.8850 0.8860 0.8880 0.8880 0.8890
20.895946 0.8890 0.8910 0.8930 0.8930 0.8930
20.927000 0.8910 0.8910 0.8910 0.8910 0.8910
20.957946 0.8910 0.8930 0.8940 0.8960 0.8970
20.989000 0.8990 0.8990 0.9000 0.9020 0.9030
21.019946 0.9050 0.9020 0.9030 0.9050 0.9050
21.051000 0.9060 0.9060 0.9080 0.9080 0.9080
21.081946 0.9080 0.9080 0.9080 0.9030 0.9000
21.113000 0.8990 0.8990 0.9000 0.9000 0.9020
21.143946 0.9020 0.9020 0.9020 0.9020 0.9000
21.175000 0.9000 0.9000 0.9020 0.9020 0.9030
21.205946 0.9030 0.9020 0.9020 0.9020 0.9000
21.236000 0.9020 0.9050 0.9050 0.9050 0.9020
21.266946 0.9000 0.9000 0.9000 0.9020 0.9020
21.298000 0.9000 0.8940 0.8930 0.8930 0.8930
21.328946 0.8970 0.8970 0.8970 0.8970 0.8970
21.360000 0.8970 0.8970 0.8970 0.8990 0.8990
21.390946 0.8970 0.8970 0.9000 0.9020 0.9020
21.422000 0.9030 0.9080 0.9080 0.9100 0.9100
21.452946 0.9110 0.9110 0.9130 0.9130 0.9130
21.484000 0.9130 0.9130 0.9140 0.9170 0.9190
21.514946 0.9190 0.9190 0.9170 0.9160 0.9160
21.546000 0.9170 0.9190 0.9190 0.9200 0.9220
21.576946 0.9250 0.9250 0.9270 0.9280 0.9280
21.608000 0.9300 0.9300 0.9300 0.9300 0.9300
21.638946 0.9300 0.9310 0.9310 0.9330 0.9330
21.669000 0.9330 0.9330 0.9330 0.9330 0.9330
21.699946 0.9340 0.9340 0.9360 0.9390 0.9410
21.731000 0.9410 0.9410 0.9390 0.9390 0.9360
21.761946 0.9330 0.9310 0.9310 0.9310 0.9310
21.793000 0.9310 0.9310 0.9330 0.9330 0.9330
21.823946 0.9410 0.9440 0.9450 0.9450 0.9450
21.855000 0.9440 0.9420 0.9420 0.9420 0.9420
21.885946 0.9420 0.9420 0.9420 0.9420 0.9420
21.917000 0.9420 0.9440 0.9450 0.9450 0.9450
21.947946 0.9420 0.9420 0.9420 0.9420 0.9420
21.979000 0.9410 0.9410 0.9410 0.9410 0.9440
22.009946 0.9440 0.9440 0.9420 0.9420 0.9420
22.041000 0.9410 0.9410 0.9420 0.9420 0.9410
22.071946 0.9410 0.9410 0.9410 0.9410 0.9410
22.103000 0.9410 0.9410 0.9410 0.9410 0.9390
22.133946 0.9370 0.9370 0.9370 0.9370 0.9370
22.164000 0.9360 0.9340 0.9340 0.9330 0.9330
22.194946 0.9330 0.9330 0.9300 0.9270 0.9270
22.226000 0.9250 0.9220 0.9200 0.9190 0.9190
22.256946 0.9190 0.9190 0.9200 0.9220 0.9220
22.288000 0.9220 0.9200 0.9200 0.9200 0.9200
22.318946 0.9200 0.9190 0.9190 0.9190 0.9190
22.350000 0.9190 0.9190 0.9190 0.9190 0.9190
22.380946 0.9190 0.9190 0.9190 0.9200 0.9220
22.412000 0.9240 0.9240 0.9280 0.9300 0.9300
22.442946 0.9300 0.9300 0.9300 0.9300 0.9300
22.474000 0.9300 0.9280 0.9280 0.9300 0.9310
22.504946 0.9330 0.9330 0.9330 0.9330 0.9310
22.536000 0.9330 0.9340 0.9340 0.9330 0.9330
22.566946 0.9310 0.9310 0.9300 0.9300 0.9300
22.597000 0.9310 0.9310 0.9330 0.9330 0.9340
22.627946 0.9370 0.9370 0.9360 0.9360 0.9360
22.659000 0.9360 0.9360 0.9360 0.9340 0.9340
22.689946 0.9340 0.9330 0.9330 0.9300 0.9280
22.721000 0.9270 0.9270 0.9250 0.9240 0.9220
22.751946 0.9220 0.9200 0.9190 0.9190 0.9130
22.783000 0.9100 0.9080 0.9030 0.9020 0.9000
22.813946 0.9000 0.9020 0.9020 0.9030 0.9050
22.845000 0.9060 0.9100 0.9100 0.9060 0.9060
22.875946 0.9060 0.9050 0.9050 0.9050 0.9050
22.907000 0.9050 0.9050 0.9050 0.9050 0.9030
22.937946 0.9030 0.9030 0.9030 0.9030 0.9030
22.969000 0.9030 0.9030 0.9030 0.9030 0.9030
22.999946 0.9050 0.9080 0.9100 0.9110 0.9130
23.030000 0.9140 0.9190 0.9200 0.9220 0.9220
23.060946 0.9220 0.9220 0.9240 0.9250 0.9270
23.092000 0.9270 0.9280 0.9300 0.9300 0.9310
23.122946 0.9310 0.9310 0.9330 0.9330 0.9310
23.154000 0.9310 0.9310 0.9310 0.9310 0.9330
23.184946 0.9330 0.9330 0.9330 0.9330 0.9330
23.216000 0.9330 0.9330 0.9330 0.9360 0.9390
23.246946 0.9390 0.9390 0.9390 0.9410 0.9420
23.278000 0.9420 0.9420 0.9420 0.9420 0.9420
23.308946 0.9420 0.9440 0.9440 0.9440 0.9420
23.340000 0.9410 0.9390 0.9370 0.9390 0.9390
23.370946 0.9390 0.9390 0.9410 0.9420 0.9420
23.402000 0.9420 0.9450 0.9450 0.9420 0.9410
23.432946 0.9360 0.9340 0.9330 0.9330 0.9330
23.464000 0.9310 0.9300 0.9300 0.9300 0.9300
23.494946 0.9300 0.9300 0.9300 0.9360 0.9370
23.525000 0.9390 0.9410 0.9420 0.9440 0.9450
23.555946 0.9440 0.9420 0.9390 0.9340 0.9340
23.587000 0.9390 0.9390 0.9370 0.9370 0.9360
23.617946 0.9330 0.9330 0.9330 0.9310 0.9310
23.649000 0.9310 0.9330 0.9340 0.9340 0.9330
23.679946 0.9310 0.9280 0.9220 0.9220 0.9220
23.711000 0.9220 0.9270 0.9270 0.9240 0.9220
23.741946 0.9200 0.9200 0.9190 0.9190 0.9170
23.773000 0.9140 0.9130 0.9130 0.9130 0.9110
23.803946 0.9080 0.9050 0.9030 0.9020 0.9000
23.835000 0.9000 0.9000 0.9020 0.9030 0.9050
23.865946 0.9030 0.9030 0.9020 0.9020 0.9000
23.897000 0.9000 0.9000 0.9000 0.8990 0.8990
23.927946 0.8990 0.8970 0.8930 0.8930 0.8930
23.958000 0.8940 0.8960 0.8960 0.8940 0.8940
23.988946 0.8930 0.8930 0.8930 0.8930 0.8930
24.020000 0.8930 0.8930 0.8940 0.8940 0.8940
24.050946 0.8940 0.8960 0.8960 0.8970 0.9000
24.082000 0.9050 0.9050 0.9030 0.9030 0.9030
24.112946 0.9030 0.9020 0.9020 0.9020 0.9020
24.144000 0.9000 0.8940 0.8910 0.8890 0.8880
24.174946 0.8880 0.8880 0.8880 0.8890 0.8890
24.206000 0.8910 0.8910 0.8910 0.8910 0.8910
24.236946 0.8890 0.8880 0.8850 0.8830 0.8800
24.268000 0.8800 0.8800 0.8800 0.8790 0.8790
24.298946 0.8750 0.8720 0.8720 0.8710 0.8710
24.330000 0.8740 0.8740 0.8720 0.8720 0.8710
24.360946 0.8690 0.8680 0.8660 0.8650 0.8630
24.392000 0.8630 0.8630 0.8620 0.8620 0.8600
24.422946 0.8570 0.8550 0.8520 0.8520 0.8510
24.453000 0.8490 0.8440 0.8430 0.8410 0.8410
24.483946 0.8410 0.8410 0.8400 0.8400 0.8370
24.515000 0.8370 0.8340 0.8340 0.8370 0.8380
24.545946 0.8400 0.8400 0.8380 0.8380 0.8380
24.577000 0.8380 0.8380 0.8380 0.8380 0.8370
24.607946 0.8350 0.8350 0.8350 0.8340 0.8320
24.639000 0.8320 0.8320 0.8320 0.8340 0.8340
24.669946 0.8350 0.8370 0.8380 0.8380 0.8370
24.701000 0.8370 0.8350 0.8320 0.8290 0.8290
24.731946 0.8290 0.8290 0.8310 0.8310 0.8290
24.763000 0.8260 0.8230 0.8230 0.8230 0.8240
24.793946 0.8260 0.8260 0.8270 0.8290 0.8290
24.825000 0.8290 0.8290 0.8260 0.8230 0.8210
24.855946 0.8210 0.8200 0.8170 0.8150 0.8130
24.886000 0.8090 0.8090 0.8070 0.8030 0.8010
24.916946 0.8000 0.7980 0.7920 0.7920 0.7900
24.948000 0.7930 0.7930 0.7930 0.7890 0.7870
24.978946 0.7860 0.7840 0.7810 0.7790 0.7780
25.010000 0.7780 0.7750 0.7750 0.7730 0.7720
25.040946 0.7700 0.7680 0.7680 0.7680 0.7650
25.072000 0.7650 0.7640 0.7620 0.7590 0.7580
25.102946 0.7590 0.7580 0.7560 0.7560 0.7560
25.134000 0.7580 0.7580 0.7590 0.7580 0.7580
25.164946 0.7580 0.7580 0.7580 0.7510 0.7510
25.196000 0.7510 0.7530 0.7560 0.7580 0.7580
25.226946 0.7590 0.7610 0.7590 0.7580 0.7580
25.258000 0.7610 0.7590 0.7580 0.7580 0.7580
25.288946 0.7580 0.7560 0.7550 0.7510 0.7510
25.319000 0.7510 0.7560 0.7560 0.7530 0.7510
25.349946 0.7500 0.7500 0.7500 0.7500 0.7510
25.381000 0.7560 0.7560 0.7550 0.7550 0.7550
25.411946 0.7530 0.7510 0.7500 0.7500 0.7500
25.443000 0.7500 0.7480 0.7480 0.7450 0.7420
25.473946 0.7410 0.7410 0.7410 0.7420 0.7440
25.505000 0.7450 0.7450 0.7450 0.7450 0.7440
25.535946 0.7420 0.7410 0.7410 0.7390 0.7390
25.567000 0.7370 0.7370 0.7370 0.7390 0.7390
25.597946 0.7390 0.7390 0.7410 0.7420 0.7420
25.629000 0.7420 0.7420 0.7410 0.7410 0.7410
25.659946 0.7390 0.7390 0.7390 0.7390 0.7410
25.691000 0.7410 0.7410 0.7410 0.7390 0.7390
25.721946 0.7390 0.7370 0.7340 0.7310 0.7310
25.753000 0.7300 0.7280 0.7280 0.7280 0.7270
25.783946 0.7250 0.7240 0.7240 0.7220 0.7200
25.814000 0.7200 0.7190 0.7140 0.7130 0.7100
25.844946 0.7080 0.7080 0.7100 0.7100 0.7080
25.876000 0.7080 0.7060 0.7050 0.7050 0.7030
25.906946 0.7030 0.7020 0.7020 0.7000 0.6990
25.938000 0.6970 0.6970 0.6960 0.6960 0.6930
25.968946 0.6910 0.6910 0.6890 0.6890 0.6940
26.000000 0.6970 0.6970
##END=
