##TITLE=2-Octanone
##JCAMP-DX=4.24
$$ By DXEDIT 1.05 (RS McDonald)
##DATA TYPE=INFRARED SPECTRUM
##CLASS=COBLENTZ III
##ORIGIN=DOW CHEMICAL COMPANY
##OWNER=COPYRIGHT (C) 1988 by COBLENTZ SOCIETY INC.
Collection (C) 2018 copyright by the U.S. Secretary of Commerce
on behalf of the United States of America. All rights reserved.
##DATE=1966/05/25
##CAS REGISTRY NO=111-13-7
##MOLFORM=C8 H16 O
##SOURCE REFERENCE=COBLENTZ NO. 07599
##$NIST SOURCE=COBLENTZ
##$NIST IMAGE=cob7599
##SPECTROMETER/DATA SYSTEM=DOW KBr FOREPRISM-GRATING
##INSTRUMENT PARAMETERS=BLAZED AT 3.5, 12.0, 20.0 MICRON AND CHANGED AT 5.0, 7.5, 14.9 MICRON
##STATE=SOLUTION (10% CCl4 FOR 3800-1330, 10% CS2 FOR 1330-450 CM^-^1)
##PATH LENGTH=0.012 CM, 0.011 CM
##SAMPLING PROCEDURE=TRANSMISSION
##RESOLUTION=2
##DATA PROCESSING=DIGITIZED BY COBLENTZ SOCIETY (BATCH I) FROM HARD COPY
##XUNITS=1/CM
##YUNITS=TRANSMITTANCE
##XFACTOR=1
##YFACTOR=1
##DELTAX=1
##FIRSTX=3800
##LASTX=455
##FIRSTY=0.8288
##MAXX=3800
##MINX=455
##MAXY=0.9518
##MINY=0.0001
##NPOINTS=3346
##XYDATA=(X++(Y..Y))
3800.000000 0.8288 0.8288 0.8288 0.8289 0.8290
3795.000000 0.8290 0.8291 0.8292 0.8293 0.8293
3790.000000 0.8294 0.8294 0.8295 0.8296 0.8297
3785.000000 0.8297 0.8298 0.8299 0.8300 0.8300
3780.000000 0.8300 0.8299 0.8299 0.8298 0.8298
3775.000000 0.8297 0.8297 0.8296 0.8296 0.8295
3770.000000 0.8295 0.8294 0.8294 0.8294 0.8294
3765.000000 0.8293 0.8293 0.8292 0.8292 0.8291
3760.000000 0.8291 0.8290 0.8290 0.8290 0.8290
3755.000000 0.8290 0.8291 0.8291 0.8291 0.8291
3750.000000 0.8292 0.8292 0.8292 0.8292 0.8293
3745.000000 0.8293 0.8293 0.8293 0.8294 0.8294
3740.000000 0.8294 0.8294 0.8294 0.8294 0.8294
3735.000000 0.8294 0.8294 0.8294 0.8294 0.8293
3730.000000 0.8293 0.8293 0.8293 0.8293 0.8293
3725.000000 0.8293 0.8293 0.8292 0.8291 0.8290
3720.000000 0.8289 0.8288 0.8288 0.8287 0.8286
3715.000000 0.8285 0.8284 0.8283 0.8282 0.8280
3710.000000 0.8278 0.8278 0.8277 0.8275 0.8274
3705.000000 0.8271 0.8270 0.8265 0.8260 0.8254
3700.000000 0.8248 0.8240 0.8232 0.8224 0.8216
3695.000000 0.8202 0.8188 0.8174 0.8161 0.8146
3690.000000 0.8132 0.8121 0.8111 0.8101 0.8093
3685.000000 0.8085 0.8076 0.8071 0.8067 0.8068
3680.000000 0.8068 0.8076 0.8086 0.8097 0.8108
3675.000000 0.8118 0.8128 0.8136 0.8144 0.8151
3670.000000 0.8161 0.8168 0.8176 0.8184 0.8191
3665.000000 0.8198 0.8206 0.8213 0.8220 0.8224
3660.000000 0.8228 0.8231 0.8234 0.8236 0.8239
3655.000000 0.8241 0.8243 0.8244 0.8245 0.8245
3650.000000 0.8246 0.8247 0.8248 0.8248 0.8247
3645.000000 0.8247 0.8245 0.8243 0.8241 0.8239
3640.000000 0.8237 0.8230 0.8224 0.8217 0.8211
3635.000000 0.8203 0.8195 0.8187 0.8178 0.8168
3630.000000 0.8160 0.8151 0.8145 0.8141 0.8140
3625.000000 0.8140 0.8142 0.8145 0.8149 0.8151
3620.000000 0.8155 0.8158 0.8162 0.8167 0.8171
3615.000000 0.8175 0.8180 0.8184 0.8188 0.8192
3610.000000 0.8196 0.8199 0.8203 0.8206 0.8210
3605.000000 0.8213 0.8217 0.8220 0.8224 0.8225
3600.000000 0.8228 0.8230 0.8232 0.8233 0.8233
3595.000000 0.8234 0.8234 0.8233 0.8233 0.8232
3590.000000 0.8232 0.8231 0.8230 0.8228 0.8227
3585.000000 0.8223 0.8220 0.8214 0.8209 0.8204
3580.000000 0.8199 0.8194 0.8189 0.8184 0.8178
3575.000000 0.8174 0.8168 0.8164 0.8160 0.8155
3570.000000 0.8151 0.8146 0.8142 0.8138 0.8134
3565.000000 0.8131 0.8128 0.8125 0.8101 0.8121
3560.000000 0.8118 0.8115 0.8114 0.8110 0.8107
3555.000000 0.8104 0.8101 0.8098 0.8095 0.8092
3550.000000 0.8089 0.8086 0.8083 0.8081 0.8078
3545.000000 0.8076 0.8075 0.8074 0.8072 0.8071
3540.000000 0.8069 0.8068 0.8067 0.8065 0.8064
3535.000000 0.8061 0.8060 0.8058 0.8058 0.8061
3530.000000 0.8062 0.8065 0.8067 0.8068 0.8069
3525.000000 0.8071 0.8074 0.8075 0.8076 0.8078
3520.000000 0.8081 0.8083 0.8086 0.8088 0.8091
3515.000000 0.8093 0.8096 0.8098 0.8101 0.8103
3510.000000 0.8106 0.8108 0.8111 0.8112 0.8115
3505.000000 0.8118 0.8121 0.8122 0.8125 0.8128
3500.000000 0.8130 0.8132 0.8134 0.8135 0.8137
3495.000000 0.8139 0.8141 0.8143 0.8145 0.8146
3490.000000 0.8148 0.8150 0.8151 0.8154 0.8156
3485.000000 0.8157 0.8158 0.8161 0.8162 0.8165
3480.000000 0.8167 0.8168 0.8171 0.8171 0.8174
3475.000000 0.8175 0.8178 0.8178 0.8181 0.8183
3470.000000 0.8185 0.8186 0.8188 0.8189 0.8191
3465.000000 0.8192 0.8194 0.8194 0.8194 0.8194
3460.000000 0.8194 0.8193 0.8193 0.8192 0.8192
3455.000000 0.8190 0.8188 0.8185 0.8182 0.8175
3450.000000 0.8168 0.8158 0.8148 0.8136 0.8124
3445.000000 0.8111 0.8099 0.8085 0.8071 0.8058
3440.000000 0.8045 0.8025 0.8007 0.7985 0.7964
3435.000000 0.7940 0.7915 0.7886 0.7856 0.7825
3430.000000 0.7797 0.7774 0.7751 0.7728 0.7708
3425.000000 0.7697 0.7665 0.7685 0.7684 0.7690
3420.000000 0.7696 0.7703 0.7711 0.7728 0.7747
3415.000000 0.7765 0.7786 0.7805 0.7824 0.7843
3410.000000 0.7862 0.7882 0.7901 0.7918 0.7938
3405.000000 0.7955 0.7971 0.7989 0.8006 0.8022
3400.000000 0.8040 0.8057 0.8074 0.8086 0.8098
3395.000000 0.8106 0.8115 0.8124 0.8133 0.8141
3390.000000 0.8150 0.8158 0.8167 0.8175 0.8184
3385.000000 0.8192 0.8201 0.8208 0.8216 0.8223
3380.000000 0.8231 0.8237 0.8244 0.8248 0.8252
3375.000000 0.8255 0.8259 0.8263 0.8267 0.8270
3370.000000 0.8274 0.8278 0.8282 0.8285 0.8289
3365.000000 0.8293 0.8297 0.8301 0.8305 0.8308
3360.000000 0.8312 0.8316 0.8320 0.8323 0.8327
3355.000000 0.8331 0.8335 0.8337 0.8339 0.8341
3350.000000 0.8344 0.8346 0.8349 0.8351 0.8353
3345.000000 0.8355 0.8357 0.8359 0.8361 0.8363
3340.000000 0.8366 0.8368 0.8370 0.8370 0.8371
3335.000000 0.8371 0.8373 0.8373 0.8374 0.8375
3330.000000 0.8375 0.8375 0.8377 0.8378 0.8378
3325.000000 0.8378 0.8380 0.8381 0.8382 0.8382
3320.000000 0.8383 0.8384 0.8385 0.8385 0.8386
3315.000000 0.8386 0.8386 0.8386 0.8387 0.8387
3310.000000 0.8388 0.8388 0.8388 0.8388 0.8389
3305.000000 0.8389 0.8390 0.8390 0.8390 0.8390
3300.000000 0.8390 0.8390 0.8390 0.8390 0.8390
3295.000000 0.8389 0.8389 0.8389 0.8389 0.8389
3290.000000 0.8389 0.8389 0.8389 0.8388 0.8388
3285.000000 0.8388 0.8388 0.8387 0.8387 0.8387
3280.000000 0.8387 0.8386 0.8386 0.8385 0.8385
3275.000000 0.8385 0.8385 0.8384 0.8384 0.8383
3270.000000 0.8383 0.8383 0.8383 0.8382 0.8382
3265.000000 0.8380 0.8378 0.8375 0.8375 0.8373
3260.000000 0.8371 0.8368 0.8368 0.8366 0.8364
3255.000000 0.8362 0.8361 0.8359 0.8357 0.8355
3250.000000 0.8354 0.8352 0.8350 0.8348 0.8347
3245.000000 0.8345 0.8343 0.8341 0.8340 0.8337
3240.000000 0.8335 0.8332 0.8330 0.8327 0.8324
3235.000000 0.8321 0.8318 0.8315 0.8313 0.8310
3230.000000 0.8307 0.8304 0.8302 0.8299 0.8296
3225.000000 0.8293 0.8290 0.8287 0.8284 0.8280
3220.000000 0.8277 0.8274 0.8271 0.8268 0.8265
3215.000000 0.8262 0.8259 0.8255 0.8252 0.8249
3210.000000 0.8246 0.8243 0.8240 0.8237 0.8234
3205.000000 0.8231 0.8228 0.8227 0.8225 0.8224
3200.000000 0.8221 0.8220 0.8218 0.8217 0.8216
3195.000000 0.8214 0.8212 0.8210 0.8209 0.8208
3190.000000 0.8207 0.8207 0.8207 0.8206 0.8206
3185.000000 0.8206 0.8206 0.8206 0.8206 0.8206
3180.000000 0.8206 0.8205 0.8205 0.8205 0.8205
3175.000000 0.8205 0.8205 0.8205 0.8205 0.8204
3170.000000 0.8204 0.8203 0.8203 0.8203 0.8203
3165.000000 0.8202 0.8202 0.8201 0.8201 0.8200
3160.000000 0.8200 0.8200 0.8200 0.8199 0.8199
3155.000000 0.8198 0.8198 0.8196 0.8194 0.8192
3150.000000 0.8191 0.8189 0.8188 0.8186 0.8185
3145.000000 0.8183 0.8182 0.8180 0.8178 0.8176
3140.000000 0.8175 0.8172 0.8171 0.8168 0.8165
3135.000000 0.8162 0.8161 0.8158 0.8155 0.8151
3130.000000 0.8150 0.8147 0.8145 0.8142 0.8139
3125.000000 0.8135 0.8132 0.8128 0.8125 0.8121
3120.000000 0.8118 0.8115 0.8111 0.8108 0.8105
3115.000000 0.8101 0.8098 0.8094 0.8091 0.8086
3110.000000 0.8082 0.8076 0.8072 0.8068 0.8064
3105.000000 0.8058 0.8055 0.8051 0.8047 0.8042
3100.000000 0.8038 0.8033 0.8028 0.8024 0.8019
3095.000000 0.8012 0.8006 0.7998 0.7990 0.7982
3090.000000 0.7975 0.7967 0.7960 0.7951 0.7944
3085.000000 0.7936 0.7928 0.7921 0.7912 0.7903
3080.000000 0.7894 0.7883 0.7871 0.7861 0.7850
3075.000000 0.7839 0.7828 0.7817 0.7807 0.7796
3070.000000 0.7785 0.7771 0.7760 0.7748 0.7736
3065.000000 0.7722 0.7711 0.7698 0.7686 0.7674
3060.000000 0.7661 0.7649 0.7636 0.7618 0.7601
3055.000000 0.7585 0.7568 0.7551 0.7535 0.7518
3050.000000 0.7501 0.7484 0.7467 0.7447 0.7428
3045.000000 0.7408 0.7389 0.7369 0.7351 0.7332
3040.000000 0.7312 0.7294 0.7275 0.7257 0.7239
3035.000000 0.7219 0.7201 0.7183 0.7164 0.7137
3030.000000 0.7110 0.7083 0.7057 0.7025 0.6995
3025.000000 0.6956 0.6918 0.6875 0.6834 0.6789
3020.000000 0.6744 0.6693 0.6643 0.6581 0.6519
3015.000000 0.6458 0.6397 0.6335 0.6273 0.5992
3010.000000 0.5710 0.5662 0.5616 0.5586 0.5556
3005.000000 0.5537 0.5518 0.5499 0.5481 0.5460
3000.000000 0.5441 0.5417 0.5393 0.5358 0.5323
2995.000000 0.5298 0.5274 0.5249 0.5224 0.5106
2990.000000 0.4989 0.4854 0.4719 0.4431 0.4144
2985.000000 0.4054 0.3964 0.3796 0.3629 0.3395
2980.000000 0.3162 0.2945 0.2729 0.2512 0.2296
2975.000000 0.2079 0.1863 0.1645 0.1430 0.1214
2970.000000 0.0997 0.0781 0.0565 0.0388 0.0211
2965.000000 0.0189 0.0166 0.0154 0.0143 0.0135
2960.000000 0.0130 0.0126 0.0112 0.0119 0.0115
2955.000000 0.0113 0.0112 0.0128 0.0145 0.0194
2950.000000 0.0244 0.0279 0.0315 0.0316 0.0360
2945.000000 0.0320 0.0320 0.0318 0.0318 0.0288
2940.000000 0.0258 0.0205 0.0153 0.0139 0.0125
2935.000000 0.0119 0.0113 0.0111 0.0109 0.0108
2930.000000 0.0087 0.0105 0.0105 0.0107 0.0109
2925.000000 0.0113 0.0117 0.0207 0.0298 0.0364
2920.000000 0.0431 0.0479 0.0527 0.0575 0.0624
2915.000000 0.0672 0.0721 0.0769 0.0817 0.0865
2910.000000 0.0914 0.0962 0.1011 0.1059 0.1108
2905.000000 0.1156 0.1204 0.1252 0.1301 0.1349
2900.000000 0.1398 0.1446 0.1494 0.1542 0.1591
2895.000000 0.1639 0.1687 0.1735 0.1784 0.1832
2890.000000 0.1881 0.1929 0.1978 0.2026 0.2100
2885.000000 0.2076 0.2078 0.2079 0.2081 0.1901
2880.000000 0.1721 0.1517 0.1313 0.1112 0.0878
2875.000000 0.0910 0.0908 0.0947 0.0988 0.1029
2870.000000 0.1070 0.1111 0.1153 0.1161 0.1170
2865.000000 0.1111 0.1054 0.0919 0.0784 0.0734
2860.000000 0.0685 0.0682 0.0681 0.0681 0.0684
2855.000000 0.0695 0.0706 0.0737 0.0768 0.1210
2850.000000 0.1652 0.2066 0.2481 0.2896 0.3310
2845.000000 0.3723 0.4135 0.4501 0.4868 0.5059
2840.000000 0.5250 0.5304 0.5359 0.5414 0.5469
2835.000000 0.5576 0.5683 0.5941 0.6199 0.6255
2830.000000 0.6312 0.6374 0.6436 0.6504 0.6572
2825.000000 0.6636 0.6699 0.6742 0.6786 0.6818
2820.000000 0.6853 0.6889 0.6925 0.6961 0.6998
2815.000000 0.7024 0.7051 0.7064 0.7078 0.7090
2810.000000 0.7103 0.7115 0.7128 0.7142 0.7156
2805.000000 0.7169 0.7184 0.7199 0.7215 0.7237
2800.000000 0.7260 0.7293 0.7326 0.7371 0.7415
2795.000000 0.7453 0.7491 0.7521 0.7551 0.7578
2790.000000 0.7606 0.7631 0.7656 0.7681 0.7707
2785.000000 0.7725 0.7745 0.7762 0.7782 0.7800
2780.000000 0.7818 0.7834 0.7850 0.7865 0.7881
2775.000000 0.7896 0.7911 0.7924 0.7938 0.7951
2770.000000 0.7965 0.7975 0.7988 0.7998 0.8008
2765.000000 0.8019 0.8031 0.8037 0.8043 0.8048
2760.000000 0.8053 0.8055 0.8058 0.8058 0.8060
2755.000000 0.8060 0.8058 0.8058 0.8057 0.8056
2750.000000 0.8055 0.8053 0.8051 0.8045 0.8040
2745.000000 0.8035 0.8030 0.8019 0.8010 0.7997
2740.000000 0.7984 0.7972 0.7962 0.7961 0.7958
2735.000000 0.7957 0.7956 0.7955 0.7955 0.7971
2730.000000 0.7988 0.8005 0.8021 0.8040 0.8058
2725.000000 0.8065 0.8074 0.8081 0.8089 0.8096
2720.000000 0.8104 0.8111 0.8118 0.8125 0.8133
2715.000000 0.8138 0.8144 0.8148 0.8153 0.8158
2710.000000 0.8162 0.8167 0.8171 0.8175 0.8180
2705.000000 0.8180 0.8181 0.8181 0.8181 0.8181
2700.000000 0.8180 0.8178 0.8175 0.8174 0.8171
2695.000000 0.8169 0.8168 0.8162 0.8158 0.8153
2690.000000 0.8148 0.8142 0.8136 0.8128 0.8122
2685.000000 0.8115 0.8110 0.8105 0.8100 0.8095
2680.000000 0.8091 0.8087 0.8084 0.8083 0.8082
2675.000000 0.8081 0.8080 0.8078 0.8078 0.8076
2670.000000 0.8075 0.8080 0.8085 0.8096 0.8108
2665.000000 0.8117 0.8125 0.8133 0.8140 0.8147
2660.000000 0.8154 0.8161 0.8168 0.8175 0.8182
2655.000000 0.8189 0.8196 0.8201 0.8206 0.8210
2650.000000 0.8215 0.8218 0.8223 0.8227 0.8232
2645.000000 0.8236 0.8241 0.8245 0.8249 0.8253
2640.000000 0.8258 0.8262 0.8267 0.8270 0.8274
2635.000000 0.8277 0.8280 0.8283 0.8287 0.8290
2630.000000 0.8294 0.8297 0.8301 0.8304 0.8308
2625.000000 0.8311 0.8315 0.8318 0.8323 0.8327
2620.000000 0.8331 0.8335 0.8339 0.8343 0.8347
2615.000000 0.8351 0.8355 0.8358 0.8362 0.8366
2610.000000 0.8370 0.8374 0.8378 0.8382 0.8386
2605.000000 0.8390 0.8395 0.8399 0.8403 0.8404
2600.000000 0.8404 0.8405 0.8404 0.8401 0.8399
2595.000000 0.8394 0.8389 0.8385 0.8382 0.8378
2590.000000 0.8378 0.8377 0.8378 0.8381 0.8383
2585.000000 0.8385 0.8388 0.8390 0.8393 0.8395
2580.000000 0.8397 0.8399 0.8402 0.8404 0.8407
2575.000000 0.8409 0.8411 0.8413 0.8415 0.8416
2570.000000 0.8418 0.8418 0.8421 0.8423 0.8425
2565.000000 0.8425 0.8428 0.8428 0.8431 0.8432
2560.000000 0.8434 0.8435 0.8437 0.8438 0.8440
2555.000000 0.8441 0.8443 0.8444 0.8445 0.8446
2550.000000 0.8448 0.8449 0.8451 0.8452 0.8454
2545.000000 0.8455 0.8457 0.8458 0.8460 0.8461
2540.000000 0.8462 0.8463 0.8465 0.8466 0.8467
2535.000000 0.8468 0.8470 0.8471 0.8471 0.8473
2530.000000 0.8474 0.8475 0.8475 0.8477 0.8478
2525.000000 0.8478 0.8480 0.8481 0.8483 0.8484
2520.000000 0.8485 0.8486 0.8487 0.8488 0.8489
2515.000000 0.8490 0.8491 0.8492 0.8494 0.8495
2510.000000 0.8496 0.8497 0.8498 0.8499 0.8500
2505.000000 0.8501 0.8502 0.8503 0.8504 0.8505
2500.000000 0.8506 0.8507 0.8508 0.8509 0.8510
2495.000000 0.8511 0.8512 0.8513 0.8514 0.8515
2490.000000 0.8516 0.8517 0.8518 0.8518 0.8520
2485.000000 0.8521 0.8521 0.8523 0.8524 0.8525
2480.000000 0.8525 0.8525 0.8527 0.8528 0.8528
2475.000000 0.8528 0.8530 0.8531 0.8532 0.8532
2470.000000 0.8533 0.8534 0.8535 0.8535 0.8536
2465.000000 0.8537 0.8538 0.8538 0.8539 0.8540
2460.000000 0.8541 0.8541 0.8542 0.8542 0.8543
2455.000000 0.8543 0.8544 0.8544 0.8545 0.8545
2450.000000 0.8545 0.8545 0.8546 0.8546 0.8547
2445.000000 0.8547 0.8548 0.8548 0.8548 0.8548
2440.000000 0.8548 0.8548 0.8548 0.8548 0.8548
2435.000000 0.8548 0.8548 0.8548 0.8548 0.8548
2430.000000 0.8548 0.8548 0.8549 0.8549 0.8549
2425.000000 0.8549 0.8549 0.8549 0.8549 0.8549
2420.000000 0.8549 0.8549 0.8550 0.8550 0.8550
2415.000000 0.8550 0.8550 0.8550 0.8550 0.8550
2410.000000 0.8550 0.8549 0.8549 0.8548 0.8548
2405.000000 0.8547 0.8547 0.8547 0.8547 0.8546
2400.000000 0.8546 0.8545 0.8544 0.8543 0.8542
2395.000000 0.8541 0.8541 0.8540 0.8539 0.8538
2390.000000 0.8537 0.8537 0.8537 0.8537 0.8538
2385.000000 0.8538 0.8538 0.8538 0.8538 0.8538
2380.000000 0.8539 0.8543 0.8547 0.8552 0.8557
2375.000000 0.8562 0.8567 0.8573 0.8580 0.8588
2370.000000 0.8596 0.8604 0.8613 0.8621 0.8628
2365.000000 0.8636 0.8643 0.8649 0.8656 0.8661
2360.000000 0.8667 0.8671 0.8677 0.8681 0.8685
2355.000000 0.8687 0.8689 0.8691 0.8693 0.8694
2350.000000 0.8696 0.8696 0.8696 0.8696 0.8696
2345.000000 0.8695 0.8695 0.8693 0.8691 0.8689
2340.000000 0.8687 0.8681 0.8675 0.8671 0.8666
2335.000000 0.8660 0.8655 0.8649 0.8643 0.8637
2330.000000 0.8632 0.8625 0.8618 0.8611 0.8604
2325.000000 0.8597 0.8590 0.8582 0.8575 0.8570
2320.000000 0.8566 0.8561 0.8557 0.8552 0.8548
2315.000000 0.8546 0.8544 0.8541 0.8539 0.8537
2310.000000 0.8536 0.8535 0.8535 0.8534 0.8533
2305.000000 0.8532 0.8531 0.8530 0.8528 0.8528
2300.000000 0.8530 0.8531 0.8533 0.8534 0.8535
2295.000000 0.8536 0.8538 0.8541 0.8545 0.8548
2290.000000 0.8552 0.8556 0.8560 0.8563 0.8567
2285.000000 0.8568 0.8571 0.8571 0.8573 0.8573
2280.000000 0.8574 0.8575 0.8575 0.8575 0.8577
2275.000000 0.8577 0.8577 0.8577 0.8578 0.8578
2270.000000 0.8578 0.8578 0.8578 0.8580 0.8581
2265.000000 0.8582 0.8583 0.8584 0.8585 0.8585
2260.000000 0.8586 0.8587 0.8588 0.8589 0.8590
2255.000000 0.8590 0.8591 0.8592 0.8594 0.8595
2250.000000 0.8596 0.8597 0.8599 0.8600 0.8602
2245.000000 0.8603 0.8604 0.8605 0.8607 0.8608
2240.000000 0.8610 0.8611 0.8612 0.8613 0.8615
2235.000000 0.8616 0.8618 0.8618 0.8620 0.8621
2230.000000 0.8624 0.8625 0.8628 0.8631 0.8634
2225.000000 0.8636 0.8639 0.8641 0.8643 0.8644
2220.000000 0.8646 0.8647 0.8648 0.8649 0.8651
2215.000000 0.8651 0.8651 0.8651 0.8650 0.8648
2210.000000 0.8647 0.8646 0.8645 0.8643 0.8642
2205.000000 0.8641 0.8640 0.8639 0.8639 0.8638
2200.000000 0.8638 0.8637 0.8637 0.8636 0.8636
2195.000000 0.8637 0.8639 0.8640 0.8642 0.8643
2190.000000 0.8645 0.8646 0.8648 0.8651 0.8655
2185.000000 0.8658 0.8662 0.8667 0.8673 0.8678
2180.000000 0.8683 0.8685 0.8687 0.8687 0.8687
2175.000000 0.8686 0.8682 0.8677 0.8673 0.8668
2170.000000 0.8665 0.8667 0.8668 0.8671 0.8674
2165.000000 0.8675 0.8678 0.8680 0.8682 0.8684
2160.000000 0.8686 0.8688 0.8690 0.8691 0.8693
2155.000000 0.8694 0.8696 0.8697 0.8699 0.8700
2150.000000 0.8702 0.8703 0.8705 0.8706 0.8707
2145.000000 0.8708 0.8709 0.8709 0.8710 0.8711
2140.000000 0.8712 0.8713 0.8714 0.8714 0.8715
2135.000000 0.8715 0.8716 0.8716 0.8716 0.8716
2130.000000 0.8716 0.8716 0.8716 0.8716 0.8716
2125.000000 0.8716 0.8716 0.8716 0.8716 0.8716
2120.000000 0.8716 0.8716 0.8716 0.8716 0.8716
2115.000000 0.8716 0.8716 0.8716 0.8716 0.8716
2110.000000 0.8716 0.8717 0.8718 0.8718 0.8720
2105.000000 0.8721 0.8721 0.8723 0.8724 0.8724
2100.000000 0.8725 0.8725 0.8727 0.8728 0.8728
2095.000000 0.8730 0.8731 0.8732 0.8734 0.8735
2090.000000 0.8736 0.8737 0.8738 0.8738 0.8739
2085.000000 0.8740 0.8741 0.8741 0.8742 0.8743
2080.000000 0.8744 0.8744 0.8745 0.8746 0.8747
2075.000000 0.8748 0.8749 0.8750 0.8752 0.8753
2070.000000 0.8755 0.8756 0.8758 0.8759 0.8761
2065.000000 0.8763 0.8765 0.8766 0.8768 0.8768
2060.000000 0.8768 0.8768 0.8768 0.8768 0.8770
2055.000000 0.8770 0.8771 0.8771 0.8771 0.8771
2050.000000 0.8773 0.8773 0.8773 0.8774 0.8775
2045.000000 0.8777 0.8778 0.8781 0.8783 0.8784
2040.000000 0.8786 0.8788 0.8790 0.8791 0.8793
2035.000000 0.8794 0.8795 0.8796 0.8797 0.8798
2030.000000 0.8799 0.8800 0.8801 0.8802 0.8804
2025.000000 0.8805 0.8806 0.8807 0.8808 0.8809
2020.000000 0.8810 0.8811 0.8813 0.8814 0.8816
2015.000000 0.8817 0.8818 0.8820 0.8821 0.8823
2010.000000 0.8825 0.8825 0.8828 0.8828 0.8830
2005.000000 0.8830 0.8831 0.8831 0.8832 0.8833
2000.000000 0.8834 0.8834 0.8835 0.8834 0.8833
1995.000000 0.8832 0.8830 0.8828 0.8828 0.8825
1990.000000 0.8825 0.8824 0.8821 0.8821 0.8820
1985.000000 0.8818 0.8816 0.8814 0.8812 0.8810
1980.000000 0.8808 0.8806 0.8803 0.8801 0.8798
1975.000000 0.8797 0.8797 0.8796 0.8796 0.8795
1970.000000 0.8794 0.8794 0.8793 0.8794 0.8797
1965.000000 0.8801 0.8816 0.8831 0.8845 0.8859
1960.000000 0.8859 0.8859 0.8836 0.8805 0.8778
1955.000000 0.8762 0.8759 0.8757 0.8754 0.8753
1950.000000 0.8752 0.8750 0.8749 0.8748 0.8746
1945.000000 0.8745 0.8745 0.8744 0.8744 0.8744
1940.000000 0.8744 0.8743 0.8743 0.8743 0.8743
1935.000000 0.8743 0.8743 0.8745 0.8748 0.8751
1930.000000 0.8753 0.8756 0.8758 0.8758 0.8757
1925.000000 0.8757 0.8756 0.8755 0.8754 0.8754
1920.000000 0.8753 0.8751 0.8750 0.8749 0.8747
1915.000000 0.8746 0.8744 0.8743 0.8741 0.8740
1910.000000 0.8739 0.8737 0.8736 0.8734 0.8732
1905.000000 0.8730 0.8728 0.8725 0.8723 0.8721
1900.000000 0.8718 0.8718 0.8717 0.8717 0.8716
1895.000000 0.8715 0.8715 0.8714 0.8714 0.8713
1890.000000 0.8712 0.8712 0.8711 0.8710 0.8709
1885.000000 0.8708 0.8707 0.8706 0.8705 0.8704
1880.000000 0.8704 0.8703 0.8702 0.8701 0.8700
1875.000000 0.8700 0.8699 0.8698 0.8698 0.8697
1870.000000 0.8696 0.8696 0.8695 0.8694 0.8693
1865.000000 0.8693 0.8692 0.8691 0.8690 0.8689
1860.000000 0.8687 0.8684 0.8681 0.8678 0.8675
1855.000000 0.8673 0.8671 0.8668 0.8665 0.8663
1850.000000 0.8660 0.8659 0.8657 0.8654 0.8651
1845.000000 0.8647 0.8643 0.8641 0.8640 0.8636
1840.000000 0.8631 0.8627 0.8623 0.8618 0.8635
1835.000000 0.8611 0.8607 0.8602 0.8598 0.8593
1830.000000 0.8588 0.8583 0.8578 0.8574 0.8568
1825.000000 0.8564 0.8558 0.8552 0.8546 0.8540
1820.000000 0.8534 0.8528 0.8521 0.8515 0.8507
1815.000000 0.8497 0.8488 0.8478 0.8468 0.8457
1810.000000 0.8445 0.8433 0.8421 0.8409 0.8397
1805.000000 0.8385 0.8373 0.8361 0.8344 0.8328
1800.000000 0.8311 0.8295 0.8278 0.8262 0.8245
1795.000000 0.8228 0.8212 0.8196 0.8178 0.8162
1790.000000 0.8146 0.8130 0.8111 0.8090 0.8068
1785.000000 0.8047 0.8025 0.8004 0.7981 0.7958
1780.000000 0.7936 0.7912 0.7890 0.7868 0.7840
1775.000000 0.7810 0.7780 0.7750 0.7719 0.7684
1770.000000 0.7647 0.7610 0.7571 0.7535 0.7496
1765.000000 0.7458 0.7418 0.7380 0.7342 0.7293
1760.000000 0.7242 0.7191 0.7139 0.7081 0.7024
1755.000000 0.6967 0.6868 0.6758 0.6654 0.6558
1750.000000 0.6464 0.6349 0.6224 0.6080 0.5927
1745.000000 0.5758 0.5597 0.5474 0.5339 0.5148
1740.000000 0.4950 0.4608 0.4296 0.3858 0.3421
1735.000000 0.2983 0.2546 0.2108 0.1671 0.1264
1730.000000 0.1091 0.0739 0.0601 0.0456 0.0278
1725.000000 0.0082 0.0003 0.0003 0.0003 0.0002
1720.000000 0.0002 0.0002 0.0001 0.0001 0.0010
1715.000000 0.0021 0.0039 0.0109 0.0204 0.0325
1710.000000 0.0469 0.0617 0.0818 0.1080 0.1328
1705.000000 0.1722 0.2320 0.2918 0.3516 0.4114
1700.000000 0.4592 0.4800 0.4951 0.5081 0.5199
1695.000000 0.5320 0.5573 0.5698 0.5819 0.5941
1690.000000 0.6053 0.6155 0.6218 0.6321 0.6406
1685.000000 0.6428 0.6439 0.6451 0.6489 0.6525
1680.000000 0.6564 0.6612 0.6708 0.6799 0.6851
1675.000000 0.6904 0.6976 0.7057 0.7137 0.7249
1670.000000 0.7368 0.7449 0.7524 0.7584 0.7631
1665.000000 0.7678 0.7718 0.7753 0.7787 0.7821
1660.000000 0.7856 0.7882 0.7901 0.7918 0.7938
1655.000000 0.7956 0.7971 0.7985 0.7998 0.8010
1650.000000 0.8022 0.8036 0.8046 0.8068 0.8068
1645.000000 0.8078 0.8089 0.8099 0.8110 0.8121
1640.000000 0.8131 0.8137 0.8141 0.8146 0.8151
1635.000000 0.8155 0.8160 0.8165 0.8169 0.8174
1630.000000 0.8178 0.8183 0.8188 0.8192 0.8196
1625.000000 0.8201 0.8205 0.8209 0.8214 0.8218
1620.000000 0.8221 0.8224 0.8227 0.8230 0.8233
1615.000000 0.8236 0.8239 0.8242 0.8245 0.8248
1610.000000 0.8252 0.8258 0.8264 0.8270 0.8275
1605.000000 0.8282 0.8288 0.8294 0.8301 0.8312
1600.000000 0.8323 0.8333 0.8345 0.8357 0.8370
1595.000000 0.8383 0.8395 0.8407 0.8418 0.8428
1590.000000 0.8439 0.8450 0.8461 0.8473 0.8485
1585.000000 0.8498 0.8510 0.8521 0.8535 0.8545
1580.000000 0.8552 0.8559 0.8566 0.8566 0.8566
1575.000000 0.8567 0.8568 0.8571 0.8574 0.8583
1570.000000 0.8592 0.8601 0.8610 0.8620 0.8635
1565.000000 0.8650 0.8665 0.8680 0.8694 0.8709
1560.000000 0.8723 0.8737 0.8751 0.8763 0.8775
1555.000000 0.8784 0.8793 0.8802 0.8806 0.8806
1550.000000 0.8807 0.8812 0.8801 0.8782 0.8750
1545.000000 0.8715 0.8680 0.8651 0.8621 0.8594
1540.000000 0.8566 0.8545 0.8525 0.8507 0.8488
1535.000000 0.8468 0.8455 0.8441 0.8427 0.8413
1530.000000 0.8399 0.8386 0.8371 0.8356 0.8340
1525.000000 0.8325 0.8310 0.8295 0.8275 0.8257
1520.000000 0.8239 0.8220 0.8201 0.8183 0.8165
1515.000000 0.8147 0.8128 0.8110 0.8090 0.8069
1510.000000 0.8049 0.8028 0.8008 0.7987 0.7967
1505.000000 0.7947 0.7928 0.7908 0.7889 0.7869
1500.000000 0.7851 0.7833 0.7815 0.7797 0.7778
1495.000000 0.7760 0.7732 0.7701 0.7671 0.7638
1490.000000 0.7603 0.7567 0.7532 0.7489 0.7419
1485.000000 0.7351 0.7276 0.7201 0.7126 0.7058
1480.000000 0.6992 0.6925 0.6848 0.6762 0.6678
1475.000000 0.6510 0.5810 0.5644 0.5414 0.4446
1470.000000 0.3455 0.2464 0.2420 0.2434 0.2589
1465.000000 0.2744 0.2899 0.2946 0.2907 0.2835
1460.000000 0.2769 0.2763 0.2766 0.2784 0.2837
1455.000000 0.2998 0.3146 0.3289 0.3525 0.3760
1450.000000 0.3997 0.4135 0.4175 0.4215 0.4252
1445.000000 0.4288 0.4320 0.4340 0.4348 0.4352
1440.000000 0.4352 0.4352 0.4353 0.4357 0.4365
1435.000000 0.4393 0.4412 0.4430 0.4427 0.4412
1430.000000 0.4389 0.4353 0.4315 0.4266 0.4217
1425.000000 0.4171 0.4128 0.4087 0.4053 0.4018
1420.000000 0.3984 0.3950 0.3894 0.3828 0.3764
1415.000000 0.3700 0.3639 0.3553 0.3432 0.3277
1410.000000 0.3278 0.3273 0.3280 0.3347 0.3466
1405.000000 0.3730 0.4014 0.4301 0.4586 0.4872
1400.000000 0.5157 0.5443 0.5689 0.5780 0.5882
1395.000000 0.5949 0.5985 0.5999 0.5999 0.6002
1390.000000 0.5996 0.5980 0.5938 0.5887 0.5823
1385.000000 0.5749 0.5669 0.5586 0.5222 0.3850
1380.000000 0.3355 0.3330 0.3308 0.3284 0.3250
1375.000000 0.3212 0.3158 0.3061 0.2946 0.2764
1370.000000 0.2392 0.2144 0.2039 0.1950 0.1853
1365.000000 0.1733 0.1585 0.1515 0.1446 0.1377
1360.000000 0.1307 0.1258 0.1248 0.1248 0.1273
1355.000000 0.1345 0.1538 0.1826 0.2155 0.2483
1350.000000 0.2812 0.3140 0.3468 0.4175 0.4450
1345.000000 0.4710 0.4866 0.5030 0.5216 0.5462
1340.000000 0.5672 0.5797 0.5951 0.6089 0.6206
1335.000000 0.6306 0.6419 0.6562 0.6640 0.6711
1330.000000 0.6776 0.6835 0.6886 0.6946 0.7008
1325.000000 0.7058 0.7071 0.7082 0.7087 0.7089
1320.000000 0.7090 0.7093 0.7099 0.7104 0.7114
1315.000000 0.7125 0.7136 0.7154 0.7191 0.7185
1310.000000 0.7195 0.7205 0.7212 0.7221 0.7225
1305.000000 0.7231 0.7236 0.7241 0.7246 0.7251
1300.000000 0.7255 0.7258 0.7260 0.7260 0.7243
1295.000000 0.7215 0.7190 0.7165 0.7165 0.7165
1290.000000 0.7182 0.7215 0.7254 0.7275 0.7285
1285.000000 0.7290 0.7290 0.7250 0.7195 0.7107
1280.000000 0.7043 0.7008 0.6990 0.6991 0.6985
1275.000000 0.6983 0.7000 0.7028 0.7076 0.7122
1270.000000 0.7162 0.7201 0.7235 0.7265 0.7298
1265.000000 0.7330 0.7361 0.7394 0.7432 0.7467
1260.000000 0.7500 0.7495 0.7490 0.7487 0.7487
1255.000000 0.7487 0.7500 0.7534 0.7568 0.7604
1250.000000 0.7640 0.7661 0.7678 0.7690 0.7699
1245.000000 0.7705 0.7730 0.7708 0.7700 0.7668
1240.000000 0.7584 0.7476 0.7368 0.7169 0.7032
1235.000000 0.6905 0.6783 0.6655 0.6551 0.6448
1230.000000 0.6347 0.6259 0.6176 0.6092 0.6009
1225.000000 0.5925 0.5842 0.5749 0.5746 0.5745
1220.000000 0.5800 0.5906 0.6025 0.6143 0.6262
1215.000000 0.6381 0.6500 0.6618 0.6738 0.6856
1210.000000 0.6975 0.7080 0.7139 0.7192 0.7234
1205.000000 0.7267 0.7296 0.7321 0.7333 0.7339
1200.000000 0.7362 0.7325 0.7307 0.7286 0.7265
1195.000000 0.7241 0.7215 0.7189 0.7162 0.7137
1190.000000 0.7110 0.7084 0.7057 0.7028 0.7001
1185.000000 0.6972 0.6947 0.6926 0.6894 0.6851
1180.000000 0.6803 0.6730 0.6658 0.6575 0.6456
1175.000000 0.6143 0.5478 0.5298 0.4849 0.4390
1170.000000 0.3930 0.3471 0.3012 0.2553 0.2105
1165.000000 0.1953 0.1808 0.1756 0.1771 0.1779
1160.000000 0.1890 0.2797 0.3266 0.3736 0.4205
1155.000000 0.4675 0.5144 0.5348 0.5776 0.5970
1150.000000 0.6822 0.7083 0.7428 0.7671 0.7805
1145.000000 0.7887 0.7969 0.8057 0.8180 0.8327
1140.000000 0.8396 0.8430 0.8464 0.8504 0.8545
1135.000000 0.8587 0.8627 0.8666 0.8705 0.8734
1130.000000 0.8741 0.8740 0.8730 0.8668 0.8586
1125.000000 0.8520 0.8458 0.8391 0.8323 0.8256
1120.000000 0.8190 0.8115 0.8038 0.7961 0.7878
1115.000000 0.7888 0.7882 0.7882 0.7895 0.7924
1110.000000 0.7965 0.8025 0.8082 0.8122 0.8162
1105.000000 0.8199 0.8235 0.8351 0.8501 0.8581
1100.000000 0.8654 0.8707 0.8755 0.8799 0.8843
1095.000000 0.8887 0.8927 0.8965 0.9001 0.9033
1090.000000 0.9051 0.9067 0.9075 0.9084 0.9092
1085.000000 0.9099 0.9099 0.9094 0.9088 0.9078
1080.000000 0.9067 0.9057 0.9050 0.9053 0.9055
1075.000000 0.9059 0.9064 0.9068 0.9075 0.9080
1070.000000 0.9081 0.9070 0.9056 0.9036 0.9017
1065.000000 0.8995 0.8970 0.8946 0.8921 0.8900
1060.000000 0.8883 0.8875 0.8864 0.8868 0.8875
1055.000000 0.8883 0.8900 0.8917 0.8933 0.8954
1050.000000 0.8975 0.8997 0.9018 0.9031 0.9038
1045.000000 0.9039 0.9039 0.9039 0.9040 0.9027
1040.000000 0.8992 0.8955 0.8925 0.8894 0.8860
1035.000000 0.8825 0.8792 0.8758 0.8723 0.8697
1030.000000 0.8689 0.8695 0.8709 0.8721 0.8738
1025.000000 0.8753 0.8768 0.8785 0.8804 0.8818
1020.000000 0.8834 0.8846 0.8858 0.8868 0.8847
1015.000000 0.8824 0.8803 0.8787 0.8775 0.8768
1010.000000 0.8762 0.8755 0.8755 0.8760 0.8764
1005.000000 0.8774 0.8791 0.8810 0.8830 0.8850
1000.000000 0.8870 0.8886 0.8902 0.8917 0.8932
995.000000 0.8946 0.8959 0.8971 0.8975 0.8978
990.000000 0.8978 0.8978 0.8975 0.8971 0.8958
985.000000 0.8946 0.8934 0.8913 0.8889 0.8864
980.000000 0.8836 0.8800 0.8765 0.8739 0.8715
975.000000 0.8700 0.8686 0.8673 0.8659 0.8651
970.000000 0.8650 0.8643 0.8637 0.8628 0.8616
965.000000 0.8603 0.8578 0.8531 0.8468 0.8406
960.000000 0.8344 0.8283 0.8220 0.8156 0.8093
955.000000 0.8017 0.7939 0.7871 0.7803 0.7739
950.000000 0.7715 0.7694 0.7680 0.7675 0.7668
945.000000 0.7665 0.7684 0.7731 0.7826 0.7945
940.000000 0.8058 0.8155 0.8252 0.8350 0.8444
935.000000 0.8532 0.8618 0.8687 0.8748 0.8809
930.000000 0.8866 0.8915 0.8963 0.9004 0.9038
925.000000 0.9073 0.9097 0.9118 0.9136 0.9155
920.000000 0.9173 0.9178 0.9183 0.9186 0.9186
915.000000 0.9181 0.9175 0.9165 0.9142 0.9120
910.000000 0.9101 0.9084 0.9074 0.9064 0.9062
905.000000 0.9062 0.9066 0.9071 0.9077 0.9084
900.000000 0.9090 0.9090 0.9091 0.9073 0.9050
895.000000 0.9025 0.9004 0.8984 0.8974 0.8967
890.000000 0.8968 0.8971 0.8991 0.9024 0.9068
885.000000 0.9135 0.9196 0.9225 0.9225 0.9228
880.000000 0.9228 0.9228 0.9228 0.9230 0.9230
875.000000 0.9232 0.9235 0.9237 0.9240 0.9244
870.000000 0.9249 0.9254 0.9259 0.9265 0.9271
865.000000 0.9278 0.9286 0.9293 0.9300 0.9312
860.000000 0.9323 0.9335 0.9347 0.9358 0.9370
855.000000 0.9384 0.9398 0.9412 0.9427 0.9442
850.000000 0.9457 0.9471 0.9487 0.9498 0.9509
845.000000 0.9518 0.9518 0.9518 0.9518 0.9511
840.000000 0.9504 0.9498 0.9493 0.9489 0.9485
835.000000 0.9483 0.9483 0.9483 0.9482 0.9480
830.000000 0.9478 0.9475 0.9473 0.9471 0.9468
825.000000 0.9467 0.9463 0.9459 0.9455 0.9451
820.000000 0.9446 0.9442 0.9438 0.9437 0.9436
815.000000 0.9434 0.9433 0.9431 0.9430 0.9428
810.000000 0.9428 0.9427 0.9425 0.9425 0.9425
805.000000 0.9425 0.9425 0.9425 0.9425 0.9427
800.000000 0.9428 0.9430 0.9432 0.9434 0.9436
795.000000 0.9439 0.9441 0.9443 0.9444 0.9445
790.000000 0.9446 0.9447 0.9448 0.9448 0.9431
785.000000 0.9413 0.9396 0.9378 0.9362 0.9344
780.000000 0.9328 0.9316 0.9303 0.9290 0.9277
775.000000 0.9268 0.9264 0.9259 0.9274 0.9293
770.000000 0.9310 0.9327 0.9340 0.9354 0.9367
765.000000 0.9380 0.9394 0.9398 0.9402 0.9405
760.000000 0.9408 0.9400 0.9391 0.9377 0.9352
755.000000 0.9328 0.9303 0.9278 0.9254 0.9230
750.000000 0.9205 0.9183 0.9161 0.9139 0.9115
745.000000 0.9088 0.9060 0.9031 0.8999 0.8968
740.000000 0.8937 0.8907 0.8880 0.8860 0.8839
735.000000 0.8817 0.8795 0.8773 0.8745 0.8708
730.000000 0.8654 0.8599 0.8546 0.8482 0.8396
725.000000 0.8306 0.8210 0.8078 0.7885 0.7575
720.000000 0.7367 0.6989 0.6978 0.6978 0.6989
715.000000 0.7168 0.7368 0.7569 0.7771 0.7972
710.000000 0.8174 0.8375 0.8577 0.8716 0.8810
705.000000 0.8899 0.8964 0.9021 0.9068 0.9113
700.000000 0.9153 0.9191 0.9227 0.9260 0.9284
695.000000 0.9304 0.9324 0.9335 0.9346 0.9356
690.000000 0.9366 0.9373 0.9381 0.9389 0.9395
685.000000 0.9401 0.9407 0.9413 0.9418 0.9423
680.000000 0.9428 0.9433 0.9438 0.9439 0.9440
675.000000 0.9441 0.9442 0.9443 0.9444 0.9444
670.000000 0.9445 0.9450 0.9460 0.9471 0.9486
665.000000 0.9496 0.9471 0.9430 0.9424 0.9417
660.000000 0.9405 0.9394 0.9362 0.9321 0.9268
655.000000 0.9193 0.9142 0.9112 0.9103 0.9098
650.000000 0.9123 0.9166 0.9206 0.9225 0.9237
645.000000 0.9244 0.9250 0.9257 0.9263 0.9267
640.000000 0.9268 0.9270 0.9271 0.9271 0.9271
635.000000 0.9268 0.9267 0.9265 0.9262 0.9260
630.000000 0.9257 0.9255 0.9252 0.9246 0.9240
625.000000 0.9234 0.9228 0.9221 0.9207 0.9194
620.000000 0.9180 0.9166 0.9152 0.9138 0.9124
615.000000 0.9107 0.9088 0.9068 0.9050 0.9031
610.000000 0.9012 0.8971 0.8930 0.8888 0.8809
605.000000 0.8725 0.8524 0.8332 0.8213 0.8074
600.000000 0.7962 0.7868 0.7765 0.7686 0.7601
595.000000 0.7530 0.7495 0.7491 0.7480 0.7557
590.000000 0.7661 0.7993 0.8081 0.8180 0.8277
585.000000 0.8364 0.8424 0.8480 0.8518 0.8558
580.000000 0.8598 0.8631 0.8659 0.8688 0.8717
575.000000 0.8744 0.8764 0.8784 0.8801 0.8817
570.000000 0.8833 0.8846 0.8855 0.8865 0.8867
565.000000 0.8868 0.8880 0.8871 0.8868 0.8865
560.000000 0.8861 0.8853 0.8843 0.8833 0.8820
555.000000 0.8804 0.8787 0.8760 0.8734 0.8704
550.000000 0.8668 0.8631 0.8601 0.8571 0.8543
545.000000 0.8515 0.8486 0.8454 0.8416 0.8378
540.000000 0.8345 0.8315 0.8292 0.8287 0.8294
535.000000 0.8304 0.8312 0.8317 0.8323 0.8321
530.000000 0.8317 0.8311 0.8306 0.8300 0.8285
525.000000 0.8262 0.8239 0.8213 0.8186 0.8154
520.000000 0.8117 0.8094 0.8093 0.8100 0.8182
515.000000 0.8261 0.8328 0.8384 0.8439 0.8483
510.000000 0.8525 0.8550 0.8571 0.8591 0.8594
505.000000 0.8598 0.8602 0.8606 0.8609 0.8613
500.000000 0.8620 0.8628 0.8635 0.8643 0.8649
495.000000 0.8655 0.8658 0.8659 0.8660 0.8659
490.000000 0.8644 0.8635 0.8625 0.8618 0.8610
485.000000 0.8602 0.8594 0.8588 0.8581 0.8574
480.000000 0.8570 0.8568 0.8567 0.8567 0.8567
475.000000 0.8571 0.8591 0.8610 0.8628 0.8652
470.000000 0.8675 0.8700 0.8723 0.8747 0.8774
465.000000 0.8800 0.8827 0.8853 0.8880 0.8907
460.000000 0.8935 0.8962 0.8990 0.9020 0.9051
455.000000 0.9093
##END=
