##TITLE=METHYL LAURATE
##JCAMP-DX=4.24
##DATA TYPE=INFRARED SPECTRUM
##CLASS=COBLENTZ
##OWNER=COBLENTZ SOCIETY
Collection (C) 2018 copyright by the U.S. Secretary of Commerce
on behalf of the United States of America. All rights reserved.
##DATE=Not specified, most likely prior to 1970
##CAS REGISTRY NO=111-82-0
##MOLFORM=C13 H26 O2
##SOURCE REFERENCE=COBLENTZ NO. 2086
##$NIST SOURCE=COBLENTZ
##$NIST IMAGE=cob2086
##SPECTROMETER/DATA SYSTEM=Not specified, most likely a prism, grating, or hybrid spectrometer.
##STATE=LIQUID
##PATH LENGTH=0.0025 CM
##SAMPLING PROCEDURE=TRANSMISSION
##RESOLUTION=4
##DATA PROCESSING=DIGITIZED BY NIST FROM HARD COPY (FROM TWO SEGMENTS)
##XUNITS=1/CM
##YUNITS=TRANSMITTANCE
##XFACTOR=1.000000
##YFACTOR=1
##DELTAX=1.129521
##FIRSTX=503.389
##LASTX=3993.61
##FIRSTY=0.593
##MAXX=3993.61
##MINX=503.389
##MAXY=0.948
##MINY=0.006
##NPOINTS=3091
##XYDATA=(X++(Y..Y))
503.389000 0.5930 0.5930 0.5930 0.5930 0.5930
509.036603 0.5930 0.5930 0.5910 0.5910 0.5910
514.684206 0.5910 0.5890 0.5890 0.5890 0.5880
520.331810 0.5880 0.5860 0.5840 0.5820 0.5790
525.979413 0.5770 0.5760 0.5740 0.5700 0.5670
531.627016 0.5600 0.5520 0.5430 0.5331 0.5211
537.274619 0.5090 0.4970 0.4850 0.4710 0.4580
542.922223 0.4460 0.4321 0.4201 0.4101 0.3981
548.569826 0.3890 0.3810 0.3740 0.3690 0.3640
554.217429 0.3620 0.3620 0.3640 0.3739 0.3770
559.865032 0.3810 0.3840 0.3910 0.3930 0.3940
565.512636 0.3940 0.3910 0.3840 0.3770 0.3700
571.160239 0.3640 0.3600 0.3570 0.3520 0.3500
576.807842 0.3480 0.3480 0.3520 0.3570 0.3620
582.455445 0.3690 0.3720 0.3770 0.3860 0.3930
588.103048 0.4000 0.4080 0.4170 0.4230 0.4290
593.750652 0.4320 0.4390 0.4420 0.4470 0.4510
599.398255 0.4580 0.4630 0.4710 0.4800 0.4870
605.045858 0.4940 0.5000 0.5050 0.5120 0.5170
610.693461 0.5240 0.5290 0.5350 0.5400 0.5470
616.341065 0.5520 0.5570 0.5640 0.5700 0.5760
621.988668 0.5820 0.5890 0.5960 0.6010 0.6050
627.636271 0.6100 0.6130 0.6180 0.6230 0.6290
633.283874 0.6350 0.6420 0.6470 0.6520 0.6590
638.931478 0.6640 0.6700 0.6750 0.6800 0.6850
644.579081 0.6880 0.6940 0.6990 0.7020 0.7050
650.226684 0.7070 0.7110 0.7170 0.7230 0.7280
655.874287 0.7290 0.7360 0.7380 0.7430 0.7450
661.521890 0.7520 0.7550 0.7580 0.7600 0.7640
667.169494 0.7690 0.7720 0.7760 0.7770 0.7770
672.817097 0.7770 0.7790 0.7790 0.7810 0.7810
678.464700 0.7810 0.7810 0.7820 0.7820 0.7820
684.112303 0.7840 0.7840 0.7840 0.7840 0.7840
689.759907 0.7840 0.7860 0.7860 0.7880 0.7890
695.407510 0.7890 0.7890 0.7880 0.7840 0.7840
701.055113 0.7820 0.7810 0.7810 0.7790 0.7760
706.702716 0.7690 0.7600 0.7530 0.7450 0.7360
712.350320 0.7260 0.7140 0.6971 0.6801 0.6561
717.997923 0.6300 0.5980 0.5570 0.5520 0.5530
723.645526 0.5570 0.5620 0.5839 0.5999 0.6129
729.293129 0.6220 0.6320 0.6410 0.6470 0.6560
734.940732 0.6680 0.6820 0.6999 0.7229 0.7399
740.588336 0.7520 0.7640 0.7740 0.7840 0.7910
746.235939 0.7980 0.8030 0.8080 0.8110 0.8170
751.883542 0.8200 0.8230 0.8270 0.8300 0.8340
757.531145 0.8350 0.8350 0.8350 0.8350 0.8350
763.178749 0.8350 0.8350 0.8350 0.8350 0.8370
768.826352 0.8370 0.8390 0.8390 0.8420 0.8440
774.473955 0.8460 0.8490 0.8490 0.8510 0.8540
780.121558 0.8560 0.8580 0.8610 0.8630 0.8630
785.769161 0.8680 0.8700 0.8710 0.8710 0.8730
791.416765 0.8750 0.8750 0.8760 0.8760 0.8760
797.064368 0.8760 0.8760 0.8760 0.8760 0.8750
802.711971 0.8750 0.8730 0.8710 0.8700 0.8700
808.359574 0.8680 0.8680 0.8660 0.8660 0.8640
814.007178 0.8640 0.8630 0.8610 0.8610 0.8590
819.654781 0.8580 0.8540 0.8490 0.8420 0.8350
825.302384 0.8300 0.8230 0.8200 0.8150 0.8110
830.949987 0.8080 0.8050 0.8000 0.7980 0.7940
836.597591 0.7930 0.7890 0.7880 0.7840 0.7840
842.245194 0.7820 0.7790 0.7740 0.7700 0.7700
847.892797 0.7700 0.7720 0.7770 0.7770 0.7790
853.540400 0.7810 0.7810 0.7810 0.7790 0.7790
859.188003 0.7770 0.7770 0.7740 0.7700 0.7670
864.835607 0.7640 0.7620 0.7600 0.7570 0.7530
870.483210 0.7500 0.7450 0.7410 0.7350 0.7310
876.130813 0.7260 0.7240 0.7240 0.7260 0.7350
881.778416 0.7430 0.7550 0.7699 0.7819 0.7939
887.426020 0.7980 0.8080 0.8130 0.8220 0.8300
893.073623 0.8370 0.8420 0.8490 0.8540 0.8580
898.721226 0.8630 0.8640 0.8710 0.8760 0.8820
904.368829 0.8850 0.8880 0.8920 0.8940 0.8950
910.016433 0.8950 0.8970 0.8970 0.8970 0.8990
915.664036 0.8990 0.9000 0.9000 0.9020 0.9040
921.311639 0.9040 0.9040 0.9040 0.9040 0.9020
926.959242 0.9020 0.9020 0.9020 0.9020 0.9020
932.606845 0.9020 0.9020 0.9020 0.9020 0.9020
938.254449 0.9020 0.9020 0.9020 0.9020 0.9020
943.902052 0.9020 0.9020 0.9000 0.8990 0.8970
949.549655 0.8970 0.8950 0.8920 0.8880 0.8870
955.197258 0.8850 0.8830 0.8820 0.8800 0.8760
960.844862 0.8750 0.8700 0.8610 0.8580 0.8520
966.492465 0.8470 0.8420 0.8390 0.8340 0.8270
972.140068 0.8220 0.8150 0.8080 0.8010 0.7940
977.787671 0.7840 0.7760 0.7650 0.7530 0.7410
983.435275 0.7280 0.7190 0.7120 0.7040 0.6990
989.082878 0.6940 0.6900 0.6880 0.6870 0.6850
994.730481 0.6830 0.6800 0.6760 0.6710 0.6660
1000.378084 0.6590 0.6510 0.6440 0.6350 0.6290
1006.025687 0.6200 0.6130 0.6080 0.6030 0.6000
1011.673291 0.5980 0.5960 0.5960 0.5960 0.5960
1017.320894 0.5960 0.6000 0.6050 0.6110 0.6170
1022.968497 0.6300 0.6470 0.6630 0.6750 0.6850
1028.616100 0.6940 0.7000 0.7050 0.7110 0.7160
1034.263704 0.7210 0.7240 0.7290 0.7310 0.7330
1039.911307 0.7330 0.7350 0.7350 0.7330 0.7330
1045.558910 0.7310 0.7280 0.7260 0.7240 0.7210
1051.206513 0.7170 0.7140 0.7110 0.7070 0.7020
1056.854117 0.6950 0.6940 0.6900 0.6880 0.6850
1062.501720 0.6820 0.6800 0.6780 0.6750 0.6710
1068.149323 0.6700 0.6680 0.6660 0.6660 0.6660
1073.796926 0.6660 0.6660 0.6680 0.6700 0.6710
1079.444529 0.6750 0.6760 0.6800 0.6850 0.6900
1085.092133 0.6920 0.6940 0.6940 0.6940 0.6940
1090.739736 0.6940 0.6920 0.6870 0.6760 0.6710
1096.387339 0.6560 0.6321 0.6011 0.5672 0.5312
1102.034942 0.4939 0.4580 0.4270 0.4000 0.3810
1107.682546 0.3700 0.3690 0.3690 0.3690 0.3700
1113.330149 0.3700 0.3770 0.3880 0.4010 0.4180
1118.977752 0.4370 0.4579 0.4799 0.4999 0.5209
1124.625355 0.5380 0.5530 0.5650 0.5740 0.5760
1130.272959 0.5770 0.5770 0.5760 0.5670 0.5580
1135.920562 0.5470 0.5310 0.5110 0.4630 0.4181
1141.568165 0.3791 0.3431 0.3091 0.2801 0.2522
1147.215768 0.2290 0.2080 0.1890 0.1720 0.1570
1152.863371 0.1430 0.1310 0.1210 0.1110 0.1001
1158.510975 0.0920 0.0830 0.0750 0.0660 0.0640
1164.158578 0.0640 0.0640 0.0640 0.0640 0.0640
1169.806181 0.0660 0.0700 0.0750 0.0830 0.0900
1175.453784 0.1000 0.1070 0.1229 0.1280 0.1350
1181.101388 0.1360 0.1360 0.1350 0.1280 0.1230
1186.748991 0.1110 0.1000 0.0920 0.0870 0.0830
1192.396594 0.0820 0.0820 0.0830 0.0870 0.0940
1198.044197 0.1000 0.1070 0.1140 0.1230 0.1290
1203.691801 0.1360 0.1470 0.1500 0.1550 0.1580
1209.339404 0.1650 0.1720 0.1820 0.1890 0.1940
1214.987007 0.2000 0.2030 0.2050 0.2080 0.2100
1220.634610 0.2100 0.2100 0.2080 0.2060 0.2060
1226.282213 0.2060 0.2050 0.2030 0.2010 0.2010
1231.929817 0.2010 0.2010 0.2010 0.2010 0.2010
1237.577420 0.2010 0.2010 0.2000 0.2000 0.1980
1243.225023 0.1980 0.1980 0.1980 0.1980 0.2000
1248.872626 0.2000 0.2010 0.2030 0.2050 0.2080
1254.520230 0.2110 0.2180 0.2250 0.2370 0.2489
1260.167833 0.2750 0.2950 0.3120 0.3260 0.3380
1265.815436 0.3470 0.3530 0.3580 0.3640 0.3690
1271.463039 0.3760 0.3810 0.3880 0.3880 0.3910
1277.110642 0.3940 0.3960 0.4000 0.4030 0.4100
1282.758246 0.4150 0.4220 0.4300 0.4370 0.4440
1288.405849 0.4490 0.4490 0.4510 0.4510 0.4470
1294.053452 0.4470 0.4470 0.4470 0.4470 0.4470
1299.701055 0.4490 0.4510 0.4520 0.4520 0.4540
1305.348659 0.4560 0.4590 0.4590 0.4610 0.4610
1310.996262 0.4630 0.4630 0.4610 0.4610 0.4590
1316.643865 0.4590 0.4590 0.4610 0.4680 0.4760
1322.291468 0.4940 0.4990 0.5020 0.5070 0.5120
1327.939072 0.5230 0.5260 0.5280 0.5280 0.5240
1333.586675 0.5230 0.5170 0.5120 0.5050 0.4990
1339.234278 0.4920 0.4830 0.4760 0.4700 0.4610
1344.881881 0.4520 0.4370 0.4230 0.4110 0.4030
1350.529484 0.3960 0.3910 0.3840 0.3770 0.3670
1356.177088 0.3600 0.3530 0.3520 0.3530 0.3550
1361.824691 0.3580 0.3650 0.3700 0.3810 0.3890
1367.472294 0.3980 0.4100 0.4130 0.4150 0.4150
1373.119897 0.4150 0.4150 0.4060 0.4060 0.4080
1378.767501 0.4470 0.4899 0.5349 0.5788 0.6178
1384.415104 0.6490 0.6660 0.6940 0.7050 0.7230
1390.062707 0.7350 0.7430 0.7500 0.7530 0.7530
1395.710310 0.7550 0.7550 0.7550 0.7550 0.7520
1401.357914 0.7500 0.7450 0.7410 0.7360 0.7290
1407.005517 0.7210 0.7070 0.6920 0.6730 0.6510
1412.653120 0.6230 0.5911 0.5481 0.5191 0.5001
1418.300723 0.4920 0.4880 0.4880 0.4850 0.4780
1423.948326 0.4630 0.4391 0.4061 0.3651 0.3162
1429.595930 0.2579 0.2029 0.1230 0.1170 0.1190
1435.243533 0.1210 0.1569 0.1819 0.2099 0.2349
1440.891136 0.2560 0.2590 0.2590 0.2590 0.2590
1446.538739 0.2580 0.2540 0.2520 0.2391 0.2221
1452.186343 0.2050 0.1910 0.1820 0.1740 0.1700
1457.833946 0.1690 0.1690 0.1670 0.1670 0.1650
1463.481549 0.1650 0.1690 0.1940 0.2290 0.2750
1469.129152 0.3349 0.4028 0.4588 0.5307 0.5818
1474.776756 0.6181 0.6420 0.6610 0.6760 0.6940
1480.424359 0.7090 0.7230 0.7400 0.7530 0.7620
1486.071962 0.7700 0.7770 0.7810 0.7860 0.7910
1491.719565 0.7960 0.8000 0.8050 0.8080 0.8110
1497.367168 0.8130 0.8200 0.8270 0.8290 0.8320
1503.014772 0.8340 0.8340 0.8370 0.8390 0.8410
1508.662375 0.8410 0.8440 0.8470 0.8490 0.8510
1514.309978 0.8520 0.8520 0.8540 0.8560 0.8560
1519.957581 0.8580 0.8590 0.8590 0.8610 0.8610
1525.605185 0.8630 0.8640 0.8660 0.8680 0.8680
1531.252788 0.8680 0.8680 0.8700 0.8700 0.8710
1536.900391 0.8710 0.8710 0.8730 0.8730 0.8750
1542.547994 0.8750 0.8760 0.8760 0.8760 0.8760
1548.195598 0.8760 0.8760 0.8750 0.8710 0.8660
1553.843201 0.8590 0.8540 0.8470 0.8440 0.8460
1559.490804 0.8780 0.8820 0.8830 0.8830 0.8830
1565.138407 0.8820 0.8820 0.8820 0.8820 0.8820
1570.786010 0.8820 0.8830 0.8830 0.8830 0.8850
1576.433614 0.8850 0.8850 0.8850 0.8850 0.8850
1582.081217 0.8850 0.8850 0.8850 0.8870 0.8870
1587.728820 0.8870 0.8870 0.8870 0.8870 0.8870
1593.376423 0.8870 0.8870 0.8870 0.8870 0.8870
1599.024027 0.8870 0.8870 0.8870 0.8870 0.8870
1604.671630 0.8870 0.8870 0.8850 0.8850 0.8850
1610.319233 0.8850 0.8850 0.8850 0.8850 0.8850
1615.966836 0.8850 0.8850 0.8850 0.8850 0.8850
1621.614440 0.8850 0.8850 0.8850 0.8850 0.8850
1627.262043 0.8850 0.8850 0.8830 0.8830 0.8830
1632.909646 0.8830 0.8820 0.8820 0.8820 0.8820
1638.557249 0.8830 0.8850 0.8850 0.8850 0.8850
1644.204852 0.8820 0.8800 0.8760 0.8750 0.8730
1649.852456 0.8750 0.8730 0.8730 0.8730 0.8710
1655.500059 0.8710 0.8710 0.8700 0.8700 0.8680
1661.147662 0.8640 0.8610 0.8580 0.8540 0.8520
1666.795265 0.8510 0.8470 0.8440 0.8420 0.8390
1672.442869 0.8350 0.8370 0.8340 0.8320 0.8270
1678.090472 0.8230 0.8180 0.8100 0.8010 0.7940
1683.738075 0.7880 0.7840 0.7810 0.7720 0.7640
1689.385678 0.7520 0.7410 0.7290 0.7160 0.7040
1695.033282 0.6900 0.6760 0.6630 0.6490 0.6341
1700.680885 0.6200 0.6180 0.6130 0.6110 0.6050
1706.328488 0.6000 0.5930 0.5820 0.5700 0.5640
1711.976091 0.5500 0.5330 0.5120 0.4900 0.4630
1717.623694 0.4340 0.4051 0.3721 0.3381 0.3041
1723.271298 0.2699 0.2349 0.2010 0.1690 0.1380
1728.918901 0.1070 0.0800 0.0541 0.0321 0.0111
1734.566504 0.0100 0.0100 0.0100 0.0100 0.0110
1740.214107 0.0130 0.0130 0.0150 0.0170 0.0180
1745.861711 0.0220 0.0250 0.0300 0.0390 0.0520
1751.509314 0.0680 0.0870 0.1120 0.1379 0.1669
1757.156917 0.1961 0.2301 0.2680 0.3120 0.3530
1762.804520 0.3910 0.4249 0.4579 0.4869 0.5139
1768.452124 0.5401 0.5640 0.5840 0.6050 0.6220
1774.099727 0.6390 0.6540 0.6680 0.6820 0.6940
1779.747330 0.7050 0.7170 0.7280 0.7380 0.7480
1785.394933 0.7550 0.7600 0.7650 0.7740 0.7860
1791.042536 0.7940 0.8010 0.8080 0.8150 0.8200
1796.690140 0.8270 0.8350 0.8420 0.8510 0.8560
1802.337743 0.8610 0.8660 0.8700 0.8750 0.8780
1807.985346 0.8820 0.8850 0.8900 0.8920 0.8950
1813.632949 0.8970 0.8970 0.9000 0.9020 0.9050
1819.280553 0.9090 0.9140 0.9140 0.9160 0.9170
1824.928156 0.9190 0.9190 0.9210 0.9230 0.9230
1830.575759 0.9230 0.9240 0.9240 0.9240 0.9240
1836.223362 0.9240 0.9240 0.9240 0.9240 0.9240
1841.870965 0.9240 0.9260 0.9260 0.9260 0.9260
1847.518569 0.9260 0.9260 0.9260 0.9260 0.9280
1853.166172 0.9280 0.9280 0.9280 0.9290 0.9290
1858.813775 0.9290 0.9290 0.9290 0.9290 0.9290
1864.461378 0.9290 0.9290 0.9310 0.9310 0.9310
1870.108982 0.9310 0.9310 0.9310 0.9330 0.9330
1875.756585 0.9330 0.9330 0.9330 0.9330 0.9350
1881.404188 0.9350 0.9350 0.9350 0.9350 0.9350
1887.051791 0.9350 0.9350 0.9350 0.9350 0.9350
1892.699395 0.9350 0.9360 0.9360 0.9360 0.9360
1898.346998 0.9360 0.9360 0.9360 0.9360 0.9360
1903.994601 0.9380 0.9360 0.9350 0.9350 0.9330
1909.642204 0.9330 0.9330 0.9330 0.9330 0.9330
1915.289807 0.9330 0.9330 0.9330 0.9330 0.9330
1920.937411 0.9330 0.9330 0.9330 0.9330 0.9330
1926.585014 0.9330 0.9330 0.9330 0.9330 0.9330
1932.232617 0.9330 0.9310 0.9310 0.9290 0.9290
1937.880220 0.9290 0.9280 0.9280 0.9260 0.9260
1943.527824 0.9260 0.9260 0.9260 0.9260 0.9260
1949.175427 0.9260 0.9260 0.9260 0.9260 0.9260
1954.823030 0.9260 0.9260 0.9260 0.9260 0.9260
1960.470633 0.9260 0.9240 0.9240 0.9240 0.9240
1966.118237 0.9240 0.9240 0.9240 0.9240 0.9240
1971.765840 0.9240 0.9240 0.9230 0.9210 0.9210
1977.413443 0.9210 0.9210 0.9210 0.9210 0.9210
1983.061046 0.9190 0.9190 0.9190 0.9190 0.9160
1988.708649 0.9160 0.9160 0.9140 0.9110 0.9050
1994.356253 0.9000 0.8940 0.8830 0.8640 0.8340
2000.003856 0.8300 0.8308 0.8316 0.8368 0.8464
2005.651459 0.8559 0.8810 0.9062 0.9190 0.9190
2011.299062 0.9190 0.9198 0.9206 0.9210 0.9210
2016.946666 0.9210 0.9210 0.9210 0.9210 0.9210
2022.594269 0.9210 0.9210 0.9210 0.9210 0.9210
2028.241872 0.9210 0.9210 0.9210 0.9210 0.9210
2033.889475 0.9210 0.9210 0.9210 0.9210 0.9210
2039.537079 0.9210 0.9210 0.9210 0.9214 0.9222
2045.184682 0.9230 0.9230 0.9230 0.9230 0.9230
2050.832285 0.9230 0.9234 0.9238 0.9240 0.9240
2056.479888 0.9240 0.9240 0.9240 0.9240 0.9240
2062.127491 0.9240 0.9248 0.9256 0.9260 0.9260
2067.775095 0.9260 0.9260 0.9260 0.9260 0.9260
2073.422698 0.9260 0.9268 0.9276 0.9280 0.9280
2079.070301 0.9280 0.9284 0.9288 0.9290 0.9290
2084.717904 0.9290 0.9298 0.9306 0.9310 0.9310
2090.365508 0.9310 0.9325 0.9341 0.9356 0.9368
2096.013111 0.9379 0.9388 0.9396 0.9402 0.9406
2101.660714 0.9410 0.9418 0.9426 0.9430 0.9430
2107.308317 0.9430 0.9430 0.9430 0.9430 0.9430
2112.955921 0.9430 0.9438 0.9446 0.9450 0.9450
2118.603524 0.9450 0.9450 0.9450 0.9450 0.9450
2124.251127 0.9450 0.9450 0.9450 0.9450 0.9450
2129.898730 0.9450 0.9450 0.9450 0.9450 0.9450
2135.546333 0.9450 0.9450 0.9450 0.9450 0.9450
2141.193937 0.9450 0.9450 0.9450 0.9450 0.9450
2146.841540 0.9450 0.9450 0.9450 0.9450 0.9450
2152.489143 0.9450 0.9450 0.9450 0.9450 0.9450
2158.136746 0.9450 0.9450 0.9450 0.9450 0.9450
2163.784350 0.9450 0.9450 0.9450 0.9450 0.9450
2169.431953 0.9450 0.9450 0.9450 0.9450 0.9450
2175.079556 0.9450 0.9450 0.9450 0.9450 0.9450
2180.727159 0.9450 0.9450 0.9450 0.9450 0.9450
2186.374763 0.9450 0.9450 0.9450 0.9450 0.9450
2192.022366 0.9450 0.9450 0.9450 0.9450 0.9450
2197.669969 0.9450 0.9450 0.9450 0.9450 0.9450
2203.317572 0.9450 0.9450 0.9450 0.9450 0.9450
2208.965175 0.9450 0.9450 0.9450 0.9450 0.9450
2214.612779 0.9450 0.9450 0.9450 0.9450 0.9450
2220.260382 0.9450 0.9457 0.9465 0.9470 0.9470
2225.907985 0.9470 0.9470 0.9470 0.9470 0.9470
2231.555588 0.9470 0.9470 0.9470 0.9470 0.9470
2237.203192 0.9470 0.9470 0.9470 0.9470 0.9470
2242.850795 0.9470 0.9470 0.9470 0.9470 0.9470
2248.498398 0.9470 0.9470 0.9470 0.9470 0.9470
2254.146001 0.9470 0.9470 0.9470 0.9470 0.9470
2259.793605 0.9470 0.9470 0.9470 0.9470 0.9470
2265.441208 0.9470 0.9470 0.9470 0.9470 0.9470
2271.088811 0.9470 0.9470 0.9470 0.9472 0.9476
2276.736414 0.9480 0.9480 0.9480 0.9480 0.9480
2282.384017 0.9480 0.9480 0.9480 0.9480 0.9480
2288.031621 0.9480 0.9476 0.9472 0.9470 0.9470
2293.679224 0.9470 0.9470 0.9470 0.9470 0.9470
2299.326827 0.9470 0.9463 0.9455 0.9450 0.9450
2304.974430 0.9450 0.9450 0.9450 0.9450 0.9450
2310.622034 0.9450 0.9450 0.9450 0.9450 0.9450
2316.269637 0.9450 0.9443 0.9435 0.9430 0.9430
2321.917240 0.9430 0.9430 0.9430 0.9430 0.9430
2327.564843 0.9430 0.9430 0.9430 0.9430 0.9430
2333.212446 0.9430 0.9430 0.9430 0.9430 0.9430
2338.860050 0.9430 0.9430 0.9430 0.9430 0.9430
2344.507653 0.9430 0.9430 0.9430 0.9433 0.9441
2350.155256 0.9449 0.9450 0.9450 0.9450 0.9450
2355.802859 0.9450 0.9443 0.9435 0.9433 0.9441
2361.450463 0.9449 0.9450 0.9450 0.9450 0.9450
2367.098066 0.9450 0.9450 0.9450 0.9450 0.9450
2372.745669 0.9450 0.9450 0.9450 0.9450 0.9450
2378.393272 0.9450 0.9450 0.9450 0.9450 0.9450
2384.040876 0.9450 0.9450 0.9450 0.9450 0.9450
2389.688479 0.9450 0.9450 0.9450 0.9450 0.9450
2395.336082 0.9450 0.9450 0.9450 0.9450 0.9450
2400.983685 0.9450 0.9450 0.9450 0.9447 0.9439
2406.631288 0.9431 0.9430 0.9430 0.9430 0.9430
2412.278892 0.9430 0.9430 0.9430 0.9430 0.9430
2417.926495 0.9430 0.9430 0.9430 0.9430 0.9430
2423.574098 0.9430 0.9423 0.9415 0.9410 0.9410
2429.221701 0.9410 0.9407 0.9403 0.9400 0.9400
2434.869305 0.9400 0.9393 0.9385 0.9380 0.9380
2440.516908 0.9380 0.9380 0.9380 0.9380 0.9380
2446.164511 0.9380 0.9380 0.9380 0.9380 0.9380
2451.812114 0.9380 0.9380 0.9380 0.9380 0.9380
2457.459718 0.9380 0.9380 0.9380 0.9380 0.9380
2463.107321 0.9380 0.9373 0.9365 0.9360 0.9360
2468.754924 0.9360 0.9360 0.9360 0.9359 0.9355
2474.402527 0.9351 0.9343 0.9335 0.9321 0.9293
2480.050130 0.9264 0.9230 0.9194 0.9147 0.9079
2485.697734 0.9011 0.8910 0.8802 0.8730 0.8730
2491.345337 0.8730 0.8753 0.8781 0.8853 0.9016
2496.992940 0.9180 0.9249 0.9297 0.9333 0.9340
2502.640543 0.9348 0.9350 0.9350 0.9350 0.9350
2508.288147 0.9350 0.9350 0.9350 0.9350 0.9350
2513.935750 0.9350 0.9343 0.9335 0.9330 0.9330
2519.583353 0.9330 0.9330 0.9330 0.9330 0.9330
2525.230956 0.9330 0.9330 0.9330 0.9330 0.9330
2530.878560 0.9330 0.9330 0.9330 0.9330 0.9330
2536.526163 0.9330 0.9330 0.9330 0.9330 0.9330
2542.173766 0.9330 0.9323 0.9315 0.9310 0.9310
2547.821369 0.9310 0.9304 0.9296 0.9290 0.9290
2553.468972 0.9290 0.9287 0.9283 0.9280 0.9280
2559.116576 0.9280 0.9274 0.9266 0.9258 0.9250
2564.764179 0.9241 0.9230 0.9218 0.9204 0.9184
2570.411782 0.9164 0.9147 0.9131 0.9120 0.9120
2576.059385 0.9120 0.9117 0.9113 0.9108 0.9100
2581.706989 0.9092 0.9084 0.9076 0.9068 0.9060
2587.354592 0.9052 0.9047 0.9043 0.9038 0.9030
2593.002195 0.9022 0.9014 0.9006 0.9000 0.9000
2598.649798 0.9000 0.9000 0.9000 0.8999 0.8995
2604.297402 0.8991 0.8984 0.8976 0.8970 0.8970
2609.945005 0.8970 0.8970 0.8970 0.8968 0.8960
2615.592608 0.8952 0.8950 0.8950 0.8950 0.8950
2621.240211 0.8950 0.8947 0.8943 0.8940 0.8940
2626.887814 0.8940 0.8940 0.8940 0.8940 0.8940
2632.535418 0.8940 0.8934 0.8926 0.8918 0.8910
2638.183021 0.8902 0.8894 0.8886 0.8879 0.8875
2643.830624 0.8871 0.8864 0.8856 0.8850 0.8850
2649.478227 0.8850 0.8844 0.8836 0.8829 0.8825
2655.125831 0.8821 0.8814 0.8806 0.8798 0.8790
2660.773434 0.8782 0.8774 0.8766 0.8759 0.8755
2666.421037 0.8751 0.8744 0.8736 0.8730 0.8730
2672.068640 0.8730 0.8736 0.8744 0.8751 0.8755
2677.716244 0.8759 0.8766 0.8774 0.8782 0.8790
2683.363847 0.8798 0.8800 0.8800 0.8800 0.8800
2689.011450 0.8800 0.8800 0.8800 0.8800 0.8800
2694.659053 0.8800 0.8809 0.8821 0.8832 0.8840
2700.306656 0.8848 0.8850 0.8850 0.8848 0.8840
2705.954260 0.8832 0.8830 0.8830 0.8829 0.8825
2711.601863 0.8821 0.8814 0.8806 0.8800 0.8800
2717.249466 0.8800 0.8788 0.8772 0.8759 0.8755
2722.897069 0.8751 0.8744 0.8736 0.8728 0.8720
2728.544673 0.8712 0.8707 0.8703 0.8700 0.8700
2734.192276 0.8700 0.8694 0.8686 0.8680 0.8680
2739.839879 0.8680 0.8680 0.8680 0.8680 0.8680
2745.487482 0.8680 0.8680 0.8680 0.8680 0.8680
2751.135086 0.8680 0.8680 0.8680 0.8678 0.8670
2756.782689 0.8662 0.8660 0.8660 0.8660 0.8660
2762.430292 0.8660 0.8654 0.8646 0.8639 0.8635
2768.077895 0.8631 0.8618 0.8602 0.8589 0.8585
2773.725498 0.8581 0.8568 0.8552 0.8537 0.8525
2779.373102 0.8513 0.8484 0.8448 0.8405 0.8337
2785.020705 0.8269 0.8227 0.8195 0.8160 0.8111
2790.668308 0.8063 0.8038 0.8022 0.8001 0.7961
2796.315911 0.7921 0.7854 0.7779 0.7706 0.7646
2801.963515 0.7587 0.7524 0.7460 0.7399 0.7347
2807.611118 0.7295 0.7231 0.7164 0.7096 0.7028
2813.258721 0.6960 0.6875 0.6783 0.6688 0.6579
2818.906324 0.6469 0.6344 0.6212 0.6073 0.5909
2824.553927 0.5745 0.5564 0.5377 0.5178 0.4938
2830.201531 0.4698 0.4430 0.4151 0.3861 0.3534
2835.849134 0.3207 0.2834 0.2443 0.2035 0.1560
2841.496737 0.1084 0.0720 0.0405 0.0147 0.0131
2847.144340 0.0114 0.0122 0.0138 0.0154 0.0174
2852.791944 0.0194 0.0226 0.0262 0.0298 0.0338
2858.439547 0.0378 0.0432 0.0492 0.0555 0.0631
2864.087150 0.0707 0.0777 0.0845 0.0913 0.0981
2869.734753 0.1049 0.1130 0.1218 0.1299 0.1347
2875.382357 0.1396 0.1436 0.1472 0.1504 0.1524
2881.029960 0.1544 0.1536 0.1516 0.1475 0.1351
2886.677563 0.1228 0.1090 0.0946 0.0820 0.0768
2892.325166 0.0716 0.0637 0.0545 0.0458 0.0390
2897.972769 0.0322 0.0265 0.0213 0.0164 0.0127
2903.620373 0.0091 0.0074 0.0066 0.0060 0.0060
2909.267976 0.0060 0.0060 0.0060 0.0062 0.0070
2914.915579 0.0077 0.0080 0.0080 0.0081 0.0089
2920.563182 0.0097 0.0100 0.0100 0.0101 0.0105
2926.210786 0.0109 0.0110 0.0110 0.0111 0.0119
2931.858389 0.0128 0.0136 0.0144 0.0152 0.0160
2937.505992 0.0167 0.0170 0.0170 0.0171 0.0175
2943.153595 0.0179 0.0185 0.0193 0.0201 0.0209
2948.801199 0.0217 0.0220 0.0220 0.0225 0.0257
2954.448802 0.0289 0.0350 0.0426 0.0508 0.0626
2960.096405 0.0743 0.0884 0.1036 0.1190 0.1358
2965.744008 0.1526 0.1710 0.1901 0.2094 0.2294
2971.391611 0.2494 0.2688 0.2880 0.3070 0.3254
2977.039215 0.3437 0.3613 0.3785 0.3951 0.4087
2982.686818 0.4222 0.4335 0.4435 0.4528 0.4585
2988.334421 0.4642 0.4719 0.4807 0.4894 0.4978
2993.982024 0.5062 0.5149 0.5236 0.5326 0.5421
2999.629628 0.5517 0.5605 0.5689 0.5772 0.5852
3005.277231 0.5932 0.6014 0.6098 0.6180 0.6248
3010.924834 0.6316 0.6373 0.6425 0.6476 0.6521
3016.572437 0.6565 0.6588 0.6600 0.6616 0.6652
3022.220041 0.6688 0.6758 0.6846 0.6929 0.6989
3027.867644 0.7049 0.7124 0.7208 0.7296 0.7403
3033.515247 0.7511 0.7604 0.7687 0.7770 0.7842
3039.162850 0.7913 0.7975 0.8031 0.8086 0.8135
3044.810453 0.8183 0.8224 0.8260 0.8295 0.8327
3050.458057 0.8359 0.8393 0.8429 0.8463 0.8487
3056.105660 0.8511 0.8543 0.8579 0.8614 0.8642
3061.753263 0.8670 0.8698 0.8726 0.8753 0.8772
3067.400866 0.8792 0.8807 0.8819 0.8831 0.8839
3073.048470 0.8847 0.8855 0.8863 0.8871 0.8875
3078.696073 0.8879 0.8890 0.8906 0.8921 0.8929
3084.343676 0.8937 0.8948 0.8960 0.8972 0.8983
3089.991279 0.8995 0.9012 0.9032 0.9052 0.9068
3095.638883 0.9084 0.9095 0.9103 0.9110 0.9114
3101.286486 0.9119 0.9125 0.9133 0.9141 0.9149
3106.934089 0.9157 0.9163 0.9167 0.9171 0.9179
3112.581692 0.9187 0.9190 0.9190 0.9191 0.9199
3118.229295 0.9207 0.9210 0.9210 0.9210 0.9210
3123.876899 0.9210 0.9210 0.9210 0.9211 0.9219
3129.524502 0.9227 0.9233 0.9237 0.9240 0.9240
3135.172105 0.9240 0.9240 0.9240 0.9240 0.9240
3140.819708 0.9240 0.9240 0.9240 0.9241 0.9249
3146.467312 0.9257 0.9265 0.9273 0.9280 0.9280
3152.114915 0.9280 0.9282 0.9286 0.9291 0.9299
3157.762518 0.9307 0.9310 0.9310 0.9310 0.9310
3163.410121 0.9310 0.9310 0.9310 0.9310 0.9310
3169.057725 0.9310 0.9310 0.9310 0.9310 0.9310
3174.705328 0.9310 0.9310 0.9310 0.9310 0.9310
3180.352931 0.9310 0.9310 0.9310 0.9310 0.9310
3186.000534 0.9310 0.9315 0.9323 0.9330 0.9330
3191.648137 0.9330 0.9330 0.9330 0.9331 0.9339
3197.295741 0.9347 0.9352 0.9356 0.9360 0.9360
3202.943344 0.9360 0.9365 0.9373 0.9380 0.9380
3208.590947 0.9380 0.9380 0.9380 0.9381 0.9389
3214.238550 0.9397 0.9400 0.9400 0.9400 0.9404
3219.886154 0.9408 0.9410 0.9410 0.9411 0.9427
3225.533757 0.9443 0.9450 0.9450 0.9450 0.9450
3231.181360 0.9450 0.9450 0.9450 0.9450 0.9450
3236.828963 0.9450 0.9450 0.9450 0.9450 0.9450
3242.476567 0.9450 0.9450 0.9450 0.9450 0.9450
3248.124170 0.9450 0.9450 0.9450 0.9450 0.9450
3253.771773 0.9450 0.9450 0.9450 0.9450 0.9450
3259.419376 0.9450 0.9450 0.9450 0.9450 0.9450
3265.066979 0.9450 0.9450 0.9450 0.9450 0.9450
3270.714583 0.9450 0.9450 0.9450 0.9450 0.9450
3276.362186 0.9450 0.9450 0.9450 0.9450 0.9450
3282.009789 0.9450 0.9450 0.9450 0.9450 0.9450
3287.657392 0.9450 0.9450 0.9450 0.9450 0.9450
3293.304996 0.9450 0.9450 0.9450 0.9450 0.9450
3298.952599 0.9450 0.9450 0.9450 0.9449 0.9441
3304.600202 0.9433 0.9430 0.9430 0.9430 0.9430
3310.247805 0.9430 0.9430 0.9430 0.9430 0.9430
3315.895409 0.9430 0.9430 0.9430 0.9430 0.9430
3321.543012 0.9430 0.9430 0.9430 0.9430 0.9430
3327.190615 0.9430 0.9430 0.9430 0.9430 0.9430
3332.838218 0.9430 0.9430 0.9430 0.9430 0.9430
3338.485821 0.9430 0.9430 0.9430 0.9430 0.9422
3344.133425 0.9414 0.9410 0.9410 0.9410 0.9406
3349.781028 0.9402 0.9400 0.9400 0.9400 0.9400
3355.428631 0.9400 0.9400 0.9400 0.9400 0.9400
3361.076234 0.9400 0.9400 0.9400 0.9400 0.9400
3366.723838 0.9400 0.9400 0.9400 0.9400 0.9400
3372.371441 0.9400 0.9400 0.9400 0.9400 0.9400
3378.019044 0.9400 0.9400 0.9400 0.9400 0.9400
3383.666647 0.9400 0.9400 0.9400 0.9400 0.9400
3389.314250 0.9400 0.9400 0.9400 0.9400 0.9400
3394.961854 0.9400 0.9400 0.9400 0.9400 0.9400
3400.609457 0.9400 0.9400 0.9400 0.9400 0.9400
3406.257060 0.9400 0.9396 0.9388 0.9380 0.9380
3411.904663 0.9380 0.9376 0.9368 0.9360 0.9360
3417.552267 0.9360 0.9358 0.9354 0.9350 0.9342
3423.199870 0.9334 0.9330 0.9330 0.9330 0.9330
3428.847473 0.9330 0.9326 0.9318 0.9310 0.9302
3434.495076 0.9294 0.9284 0.9272 0.9260 0.9252
3440.142680 0.9244 0.9234 0.9222 0.9210 0.9190
3445.790283 0.9170 0.9152 0.9136 0.9120 0.9100
3451.437886 0.9080 0.9064 0.9052 0.9040 0.9024
3457.085489 0.9008 0.8998 0.8994 0.8990 0.8982
3462.733092 0.8974 0.8970 0.8970 0.8970 0.8982
3468.380696 0.8994 0.9004 0.9012 0.9020 0.9040
3474.028299 0.9060 0.9078 0.9094 0.9110 0.9130
3479.675902 0.9150 0.9176 0.9208 0.9240 0.9260
3485.323505 0.9280 0.9298 0.9314 0.9330 0.9338
3490.971109 0.9346 0.9352 0.9356 0.9360 0.9368
3496.618712 0.9376 0.9380 0.9380 0.9380 0.9388
3502.266315 0.9396 0.9400 0.9400 0.9400 0.9400
3507.913918 0.9400 0.9400 0.9400 0.9400 0.9400
3513.561522 0.9400 0.9400 0.9400 0.9400 0.9400
3519.209125 0.9400 0.9400 0.9400 0.9400 0.9400
3524.856728 0.9400 0.9396 0.9388 0.9380 0.9380
3530.504331 0.9380 0.9376 0.9368 0.9360 0.9360
3536.151934 0.9360 0.9360 0.9360 0.9360 0.9360
3541.799538 0.9360 0.9360 0.9360 0.9360 0.9356
3547.447141 0.9352 0.9350 0.9350 0.9350 0.9350
3553.094744 0.9350 0.9350 0.9350 0.9350 0.9350
3558.742347 0.9350 0.9350 0.9350 0.9350 0.9350
3564.389951 0.9350 0.9350 0.9350 0.9350 0.9342
3570.037554 0.9334 0.9330 0.9330 0.9330 0.9330
3575.685157 0.9330 0.9326 0.9318 0.9310 0.9310
3581.332760 0.9310 0.9310 0.9310 0.9310 0.9310
3586.980364 0.9310 0.9310 0.9310 0.9310 0.9318
3592.627967 0.9326 0.9330 0.9330 0.9330 0.9338
3598.275570 0.9346 0.9350 0.9350 0.9350 0.9335
3603.923173 0.9319 0.9310 0.9310 0.9310 0.9310
3609.570776 0.9310 0.9310 0.9310 0.9310 0.9310
3615.218380 0.9310 0.9306 0.9298 0.9290 0.9290
3620.865983 0.9290 0.9290 0.9290 0.9290 0.9305
3626.513586 0.9321 0.9330 0.9330 0.9330 0.9337
3632.161189 0.9345 0.9350 0.9350 0.9350 0.9354
3637.808793 0.9358 0.9360 0.9360 0.9360 0.9360
3643.456396 0.9360 0.9360 0.9360 0.9360 0.9360
3649.103999 0.9360 0.9360 0.9360 0.9360 0.9360
3654.751602 0.9360 0.9360 0.9360 0.9360 0.9360
3660.399206 0.9360 0.9360 0.9360 0.9360 0.9360
3666.046809 0.9360 0.9360 0.9360 0.9360 0.9360
3671.694412 0.9360 0.9360 0.9360 0.9360 0.9360
3677.342015 0.9360 0.9363 0.9371 0.9379 0.9387
3682.989618 0.9395 0.9400 0.9400 0.9400 0.9400
3688.637222 0.9400 0.9400 0.9400 0.9400 0.9400
3694.284825 0.9400 0.9400 0.9400 0.9400 0.9400
3699.932428 0.9400 0.9400 0.9400 0.9400 0.9400
3705.580031 0.9400 0.9397 0.9389 0.9381 0.9380
3711.227635 0.9380 0.9380 0.9380 0.9380 0.9380
3716.875238 0.9380 0.9380 0.9380 0.9380 0.9387
3722.522841 0.9395 0.9400 0.9400 0.9400 0.9400
3728.170444 0.9400 0.9402 0.9406 0.9410 0.9410
3733.818048 0.9410 0.9410 0.9410 0.9410 0.9417
3739.465651 0.9425 0.9430 0.9430 0.9430 0.9430
3745.113254 0.9430 0.9430 0.9430 0.9430 0.9430
3750.760857 0.9430 0.9427 0.9419 0.9411 0.9410
3756.408460 0.9410 0.9410 0.9410 0.9410 0.9406
3762.056064 0.9402 0.9400 0.9400 0.9400 0.9400
3767.703667 0.9400 0.9400 0.9400 0.9400 0.9400
3773.351270 0.9400 0.9400 0.9400 0.9400 0.9400
3778.998873 0.9400 0.9397 0.9389 0.9381 0.9380
3784.646477 0.9380 0.9377 0.9369 0.9361 0.9360
3790.294080 0.9360 0.9360 0.9360 0.9360 0.9360
3795.941683 0.9360 0.9360 0.9360 0.9360 0.9360
3801.589286 0.9360 0.9360 0.9360 0.9360 0.9360
3807.236890 0.9360 0.9358 0.9354 0.9350 0.9350
3812.884493 0.9350 0.9350 0.9350 0.9350 0.9350
3818.532096 0.9350 0.9350 0.9350 0.9350 0.9350
3824.179699 0.9350 0.9350 0.9350 0.9350 0.9343
3829.827302 0.9335 0.9330 0.9330 0.9330 0.9330
3835.474906 0.9330 0.9330 0.9330 0.9330 0.9330
3841.122509 0.9330 0.9333 0.9341 0.9349 0.9350
3846.770112 0.9350 0.9350 0.9350 0.9350 0.9350
3852.417715 0.9350 0.9350 0.9350 0.9350 0.9350
3858.065319 0.9350 0.9350 0.9350 0.9350 0.9350
3863.712922 0.9350 0.9350 0.9350 0.9350 0.9350
3869.360525 0.9350 0.9350 0.9350 0.9350 0.9350
3875.008128 0.9350 0.9350 0.9350 0.9350 0.9343
3880.655731 0.9335 0.9330 0.9330 0.9330 0.9330
3886.303335 0.9330 0.9330 0.9330 0.9330 0.9330
3891.950938 0.9330 0.9330 0.9330 0.9330 0.9323
3897.598541 0.9315 0.9310 0.9310 0.9310 0.9310
3903.246144 0.9310 0.9310 0.9310 0.9310 0.9310
3908.893748 0.9310 0.9310 0.9310 0.9310 0.9310
3914.541351 0.9310 0.9310 0.9310 0.9310 0.9310
3920.188954 0.9310 0.9310 0.9310 0.9310 0.9310
3925.836557 0.9310 0.9310 0.9310 0.9310 0.9317
3931.484161 0.9325 0.9330 0.9330 0.9330 0.9330
3937.131764 0.9330 0.9330 0.9330 0.9330 0.9330
3942.779367 0.9330 0.9330 0.9330 0.9330 0.9323
3948.426970 0.9315 0.9310 0.9310 0.9310 0.9303
3954.074573 0.9295 0.9290 0.9290 0.9290 0.9287
3959.722177 0.9283 0.9280 0.9280 0.9280 0.9280
3965.369780 0.9280 0.9277 0.9269 0.9261 0.9260
3971.017383 0.9260 0.9257 0.9249 0.9241 0.9237
3976.664986 0.9233 0.9230 0.9230 0.9230 0.9230
3982.312590 0.9230 0.9230 0.9230 0.9230 0.9230
3987.960193 0.9230 0.9230 0.9230 0.9230 0.9230
3993.607796 0.9230
##END=
