##TITLE=1-Octene
##JCAMP-DX=4.24
##DATA TYPE=INFRARED SPECTRUM
##CLASS=COBLENTZ III
##ORIGIN=COLGATE-PALMOLIVE COMPANY (KELLENBACH)
##OWNER=Copyright (C) 1987 by the Coblentz Society
Collection (C) 2018 copyright by the U.S. Secretary of Commerce
on behalf of the United States of America. All rights reserved.
##DATE=1966/09/08
##CAS REGISTRY NO=111-66-0
##MOLFORM=C8 H16
##SOURCE REFERENCE=COBLENTZ NO. 9768
##$NIST SOURCE=COBLENTZ
##$NIST IMAGE=cob9768
##SPECTROMETER/DATA SYSTEM=BECKMAN IR-12 (GRATING)
##INSTRUMENT PARAMETERS=GRATING
##STATE=LIQUID (NEAT)
$$ SOURCE - PHILLIPS PETROLEUM
##PATH LENGTH=0.010 CM
##SAMPLING PROCEDURE=TRANSMISSION
##RESOLUTION=2
##DATA PROCESSING=DIGITIZED BY COBLENTZ SOCIETY (BATCH II) FROM HARD COPY
##XUNITS=1/CM
##YUNITS=TRANSMITTANCE
##XFACTOR=1.0
##YFACTOR=1
##FIRSTX=403
##LASTX=4000
##FIRSTY=0.7652
##MAXX=4000
##MINX=403
##MAXY=0.9698
##MINY=0
##NPOINTS=3598
##XYDATA=(X++(Y..Y))
403.000000 0.7652 0.7692 0.7717 0.7738 0.7759
408.000000 0.7780 0.7804 0.7829 0.7853 0.7930
413.000000 0.8006 0.8071 0.8104 0.8133 0.8161
418.000000 0.8189 0.8219 0.8254 0.8289 0.8323
423.000000 0.8356 0.8384 0.8407 0.8431 0.8455
428.000000 0.8471 0.8487 0.8503 0.8511 0.8517
433.000000 0.8513 0.8499 0.8482 0.8441 0.8409
438.000000 0.8393 0.8384 0.8383 0.8386 0.8394
443.000000 0.8405 0.8435 0.8480 0.8532 0.8583
448.000000 0.8636 0.8689 0.8742 0.8796 0.8844
453.000000 0.8890 0.8937 0.8983 0.9028 0.9072
458.000000 0.9117 0.9161 0.9220 0.9288 0.9340
463.000000 0.9380 0.9404 0.9422 0.9439 0.9456
468.000000 0.9472 0.9487 0.9502 0.9508 0.9509
473.000000 0.9509 0.9506 0.9500 0.9495 0.9489
478.000000 0.9479 0.9469 0.9458 0.9448 0.9436
483.000000 0.9424 0.9420 0.9419 0.9419 0.9419
488.000000 0.9424 0.9429 0.9433 0.9438 0.9445
493.000000 0.9460 0.9476 0.9494 0.9522 0.9550
498.000000 0.9577 0.9607 0.9636 0.9665 0.9682
503.000000 0.9690 0.9698 0.9678 0.9696 0.9692
508.000000 0.9687 0.9682 0.9675 0.9664 0.9652
513.000000 0.9647 0.9644 0.9642 0.9640 0.9638
518.000000 0.9633 0.9625 0.9611 0.9590 0.9570
523.000000 0.9560 0.9558 0.9556 0.9554 0.9551
528.000000 0.9549 0.9546 0.9527 0.9473 0.9418
533.000000 0.9360 0.9287 0.9227 0.9174 0.9121
538.000000 0.9055 0.8951 0.8828 0.8632 0.8367
543.000000 0.8102 0.7837 0.7572 0.7307 0.7043
548.000000 0.6778 0.6513 0.6248 0.5983 0.5882
553.000000 0.5863 0.5865 0.5971 0.6170 0.6368
558.000000 0.6567 0.6765 0.6964 0.7162 0.7361
563.000000 0.7493 0.7585 0.7667 0.7747 0.7828
568.000000 0.7909 0.7991 0.8104 0.8257 0.8391
573.000000 0.8505 0.8619 0.8705 0.8788 0.8864
578.000000 0.8908 0.8952 0.8981 0.8998 0.9014
583.000000 0.9030 0.9036 0.9030 0.9042 0.9038
588.000000 0.9032 0.9024 0.9002 0.8968 0.8934
593.000000 0.8901 0.8853 0.8800 0.8748 0.8698
598.000000 0.8642 0.8584 0.8517 0.8425 0.8334
603.000000 0.8242 0.8139 0.8024 0.7908 0.7794
608.000000 0.7681 0.7537 0.7228 0.6919 0.6611
613.000000 0.6302 0.5994 0.5661 0.5375 0.5090
618.000000 0.4804 0.4519 0.4233 0.3948 0.3662
623.000000 0.3377 0.3091 0.2806 0.2385 0.2270
628.000000 0.2164 0.2069 0.1976 0.1934 0.1896
633.000000 0.1893 0.1877 0.1909 0.1936 0.1996
638.000000 0.2080 0.2128 0.2365 0.2602 0.2839
643.000000 0.3076 0.3313 0.3551 0.3788 0.4025
648.000000 0.4262 0.4499 0.4736 0.4974 0.5211
653.000000 0.5448 0.5685 0.6168 0.6412 0.6614
658.000000 0.6740 0.6851 0.6996 0.7097 0.7165
663.000000 0.7232 0.7295 0.7353 0.7392 0.7442
668.000000 0.7513 0.7918 0.8039 0.8107 0.8172
673.000000 0.8226 0.8280 0.8335 0.8391 0.8448
678.000000 0.8489 0.8531 0.8570 0.8605 0.8637
683.000000 0.8650 0.8663 0.8676 0.8686 0.8695
688.000000 0.8695 0.8686 0.8672 0.8654 0.8634
693.000000 0.8615 0.8591 0.8565 0.8532 0.8499
698.000000 0.8463 0.8424 0.8379 0.8333 0.8274
703.000000 0.8216 0.8112 0.7931 0.7815 0.7707
708.000000 0.7641 0.7545 0.6888 0.6230 0.5811
713.000000 0.5526 0.5139 0.4753 0.4366 0.3980
718.000000 0.3593 0.3207 0.2820 0.2434 0.2047
723.000000 0.1483 0.1498 0.1503 0.1788 0.2127
728.000000 0.2465 0.2803 0.3141 0.3480 0.3818
733.000000 0.4156 0.4495 0.4833 0.5171 0.5962
738.000000 0.6220 0.6352 0.6453 0.6520 0.6586
743.000000 0.6639 0.6671 0.6703 0.6725 0.6739
748.000000 0.6747 0.6738 0.6692 0.6529 0.6367
753.000000 0.6204 0.6083 0.6050 0.6029 0.6030
758.000000 0.6024 0.6047 0.6168 0.6294 0.6421
763.000000 0.6547 0.6673 0.6799 0.6925 0.7051
768.000000 0.7177 0.7304 0.7430 0.7556 0.7682
773.000000 0.7773 0.7851 0.7914 0.7954 0.7966
778.000000 0.7972 0.7997 0.7966 0.7955 0.7914
783.000000 0.7856 0.7801 0.7750 0.7667 0.7641
788.000000 0.7644 0.7650 0.7641 0.7674 0.7710
793.000000 0.7764 0.7818 0.7862 0.7905 0.7941
798.000000 0.7961 0.7952 0.7960 0.7953 0.7940
803.000000 0.7926 0.7885 0.7828 0.7767 0.7671
808.000000 0.7533 0.7421 0.7358 0.7297 0.7255
813.000000 0.7230 0.7229 0.7227 0.7242 0.7254
818.000000 0.7270 0.7300 0.7350 0.7407 0.7472
823.000000 0.7539 0.7599 0.7650 0.7706 0.7709
828.000000 0.7712 0.7708 0.7680 0.7701 0.7693
833.000000 0.7683 0.7668 0.7634 0.7510 0.7386
838.000000 0.7262 0.7138 0.7013 0.6901 0.6833
843.000000 0.6764 0.6698 0.6641 0.6602 0.6563
848.000000 0.6525 0.6493 0.6471 0.6450 0.6428
853.000000 0.6410 0.6397 0.6385 0.6372 0.6359
858.000000 0.6346 0.6325 0.6303 0.6280 0.6235
863.000000 0.6186 0.6129 0.6065 0.5998 0.5910
868.000000 0.5732 0.5538 0.5399 0.5082 0.4750
873.000000 0.4418 0.4086 0.3754 0.3422 0.3090
878.000000 0.2758 0.2427 0.2264 0.2157 0.2067
883.000000 0.2007 0.1946 0.1891 0.1836 0.1770
888.000000 0.1698 0.1069 0.0922 0.0644 0.0508
893.000000 0.0415 0.0338 0.0268 0.0228 0.0188
898.000000 0.0147 0.0104 0.0061 0.0018 0.0001
903.000000 0.0000 0.0000 0.0000 0.0000 0.0000
908.000000 0.0000 0.0000 0.0000 0.0000 0.0000
913.000000 0.0000 0.0001 0.0001 0.0088 0.0315
918.000000 0.0542 0.0770 0.0997 0.1225 0.1452
923.000000 0.1712 0.1885 0.2058 0.2231 0.2404
928.000000 0.2576 0.2749 0.2922 0.3095 0.3268
933.000000 0.3441 0.3614 0.3787 0.3960 0.4133
938.000000 0.4305 0.4451 0.4528 0.4652 0.4772
943.000000 0.4890 0.4973 0.5053 0.5109 0.5156
948.000000 0.5192 0.5208 0.5202 0.5202 0.5185
953.000000 0.5166 0.5088 0.4909 0.4730 0.4551
958.000000 0.4372 0.4193 0.4014 0.3836 0.3657
963.000000 0.3478 0.3299 0.3120 0.2941 0.2762
968.000000 0.2583 0.2404 0.2226 0.2047 0.1868
973.000000 0.1689 0.1510 0.1331 0.1152 0.0973
978.000000 0.0794 0.0615 0.0474 0.0353 0.0265
983.000000 0.0208 0.0161 0.0132 0.0109 0.0087
988.000000 0.0068 0.0058 0.0049 0.0039 0.0039
993.000000 0.0045 0.0054 0.0080 0.0121 0.0166
998.000000 0.0255 0.0472 0.0688 0.0905 0.1121
1003.000000 0.1338 0.1554 0.1770 0.1987 0.2148
1008.000000 0.2449 0.2755 0.3061 0.3367 0.3673
1013.000000 0.4146 0.4313 0.4435 0.4550 0.4660
1018.000000 0.4752 0.4843 0.5206 0.5345 0.5462
1023.000000 0.5560 0.5634 0.5690 0.5736 0.5759
1028.000000 0.5770 0.5772 0.5773 0.5774 0.5774
1033.000000 0.5774 0.5798 0.5772 0.5770 0.5768
1038.000000 0.5766 0.5764 0.5759 0.5749 0.5730
1043.000000 0.5693 0.5628 0.5562 0.5497 0.5432
1048.000000 0.5366 0.5294 0.5286 0.5273 0.5376
1053.000000 0.5439 0.5502 0.5564 0.5627 0.5690
1058.000000 0.5753 0.5815 0.5878 0.5941 0.6003
1063.000000 0.6066 0.6129 0.6196 0.6245 0.6273
1068.000000 0.6290 0.6297 0.6302 0.6307 0.6316
1073.000000 0.6326 0.6340 0.6356 0.6378 0.6401
1078.000000 0.6427 0.6455 0.6489 0.6522 0.6556
1083.000000 0.6591 0.6643 0.6698 0.6767 0.6933
1088.000000 0.7076 0.7141 0.7185 0.7203 0.7207
1093.000000 0.7231 0.7203 0.7189 0.7155 0.7028
1098.000000 0.6893 0.6758 0.6622 0.6487 0.6351
1103.000000 0.6216 0.6080 0.5945 0.5810 0.5674
1108.000000 0.5588 0.5567 0.5584 0.5606 0.5718
1113.000000 0.5831 0.5944 0.6057 0.6170 0.6283
1118.000000 0.6396 0.6509 0.6622 0.6735 0.6848
1123.000000 0.6988 0.7073 0.7094 0.7074 0.7070
1128.000000 0.7062 0.7051 0.7017 0.6950 0.6857
1133.000000 0.6784 0.6713 0.6706 0.6706 0.6715
1138.000000 0.6714 0.6718 0.6724 0.6735 0.6750
1143.000000 0.6780 0.6824 0.6890 0.6970 0.7073
1148.000000 0.7153 0.7231 0.7296 0.7361 0.7404
1153.000000 0.7441 0.7477 0.7511 0.7543 0.7570
1158.000000 0.7594 0.7617 0.7641 0.7675 0.7714
1163.000000 0.7754 0.7794 0.7828 0.7861 0.7895
1168.000000 0.7926 0.7956 0.7965 0.7971 0.7978
1173.000000 0.7972 0.7968 0.7947 0.7916 0.7880
1178.000000 0.7836 0.7791 0.7745 0.7690 0.7634
1183.000000 0.7580 0.7532 0.7483 0.7434 0.7383
1188.000000 0.7325 0.7297 0.7292 0.7288 0.7285
1193.000000 0.7283 0.7282 0.7281 0.7294 0.7337
1198.000000 0.7368 0.7383 0.7382 0.7378 0.7362
1203.000000 0.7347 0.7327 0.7308 0.7292 0.7286
1208.000000 0.7290 0.7297 0.7333 0.7377 0.7394
1213.000000 0.7398 0.7398 0.7394 0.7353 0.7282
1218.000000 0.7211 0.7140 0.7069 0.6975 0.7015
1223.000000 0.7107 0.7200 0.7293 0.7385 0.7478
1228.000000 0.7571 0.7663 0.7746 0.7767 0.7777
1233.000000 0.7792 0.7779 0.7776 0.7768 0.7758
1238.000000 0.7747 0.7715 0.7650 0.7584 0.7519
1243.000000 0.7454 0.7388 0.7323 0.7258 0.7193
1248.000000 0.7127 0.7062 0.6997 0.6932 0.6866
1253.000000 0.6822 0.6774 0.6727 0.6679 0.6629
1258.000000 0.6554 0.6386 0.6212 0.6132 0.6067
1263.000000 0.5966 0.5900 0.5829 0.5804 0.5798
1268.000000 0.5803 0.5805 0.5987 0.6230 0.6330
1273.000000 0.6361 0.6381 0.6390 0.6397 0.6381
1278.000000 0.6397 0.6371 0.6263 0.6138 0.6013
1283.000000 0.5889 0.5764 0.5640 0.5515 0.5396
1288.000000 0.5282 0.5170 0.5051 0.4957 0.4915
1293.000000 0.4890 0.4860 0.4871 0.4877 0.4882
1298.000000 0.4890 0.4897 0.4927 0.5016 0.5134
1303.000000 0.5252 0.5369 0.5487 0.5604 0.5722
1308.000000 0.5812 0.5860 0.5884 0.5881 0.5869
1313.000000 0.5846 0.5823 0.5794 0.5774 0.5762
1318.000000 0.5762 0.5735 0.5803 0.5827 0.5850
1323.000000 0.5864 0.5872 0.5872 0.5861 0.5846
1328.000000 0.5752 0.5691 0.5627 0.5565 0.5501
1333.000000 0.5415 0.5051 0.4889 0.4727 0.4344
1338.000000 0.4403 0.4308 0.4390 0.4475 0.4472
1343.000000 0.4487 0.4432 0.4393 0.4355 0.4336
1348.000000 0.4326 0.4420 0.4522 0.4625 0.4689
1353.000000 0.4696 0.4700 0.4700 0.4698 0.4687
1358.000000 0.4686 0.4578 0.4411 0.4244 0.4077
1363.000000 0.3910 0.3772 0.3644 0.3553 0.3458
1368.000000 0.3310 0.3007 0.2501 0.1839 0.1177
1373.000000 0.0593 0.0587 0.0588 0.0914 0.1348
1378.000000 0.1782 0.2216 0.2650 0.3084 0.3518
1383.000000 0.3952 0.4386 0.4895 0.4981 0.5027
1388.000000 0.5067 0.5084 0.5100 0.5108 0.5089
1393.000000 0.5095 0.5081 0.5065 0.5039 0.5009
1398.000000 0.4970 0.4683 0.4395 0.4107 0.3820
1403.000000 0.3532 0.3244 0.2956 0.2669 0.2381
1408.000000 0.2093 0.1806 0.1450 0.1465 0.1475
1413.000000 0.1634 0.1838 0.2043 0.2248 0.2269
1418.000000 0.2251 0.2196 0.2017 0.1838 0.1659
1423.000000 0.1480 0.1301 0.1122 0.0919 0.0826
1428.000000 0.0734 0.0601 0.0399 0.0339 0.0279
1433.000000 0.0235 0.0196 0.0177 0.0175 0.0172
1438.000000 0.0170 0.0171 0.0171 0.0167 0.0164
1443.000000 0.0154 0.0140 0.0126 0.0112 0.0100
1448.000000 0.0086 0.0070 0.0054 0.0038 0.0022
1453.000000 0.0006 0.0001 0.0001 0.0001 0.0001
1458.000000 0.0000 0.0001 0.0001 0.0001 0.0001
1463.000000 0.0001 0.0001 0.0001 0.0001 0.0001
1468.000000 0.0157 0.0517 0.0877 0.1237 0.1597
1473.000000 0.1957 0.2317 0.2677 0.3037 0.3398
1478.000000 0.3758 0.4118 0.4478 0.4677 0.4737
1483.000000 0.4889 0.5130 0.5300 0.5481 0.5575
1488.000000 0.5718 0.5808 0.5892 0.5964 0.6036
1493.000000 0.6108 0.6184 0.6260 0.6338 0.6428
1498.000000 0.6517 0.6583 0.6644 0.6705 0.6758
1503.000000 0.6809 0.6859 0.6909 0.6946 0.6984
1508.000000 0.7021 0.7055 0.7088 0.7121 0.7154
1513.000000 0.7186 0.7210 0.7234 0.7257 0.7276
1518.000000 0.7289 0.7303 0.7323 0.7343 0.7375
1523.000000 0.7422 0.7467 0.7469 0.7468 0.7482
1528.000000 0.7456 0.7445 0.7434 0.7423 0.7413
1533.000000 0.7405 0.7398 0.7393 0.7395 0.7408
1538.000000 0.7407 0.7417 0.7427 0.7443 0.7460
1543.000000 0.7476 0.7493 0.7512 0.7533 0.7554
1548.000000 0.7578 0.7602 0.7626 0.7646 0.7666
1553.000000 0.7683 0.7700 0.7717 0.7738 0.7776
1558.000000 0.7814 0.7860 0.7906 0.7953 0.8001
1563.000000 0.8049 0.8097 0.8145 0.8193 0.8227
1568.000000 0.8258 0.8289 0.8305 0.8316 0.8327
1573.000000 0.8338 0.8348 0.8351 0.8355 0.8358
1578.000000 0.8355 0.8360 0.8360 0.8359 0.8358
1583.000000 0.8352 0.8346 0.8340 0.8334 0.8325
1588.000000 0.8317 0.8307 0.8293 0.8273 0.8247
1593.000000 0.8218 0.8187 0.8155 0.8117 0.8079
1598.000000 0.8041 0.7989 0.7937 0.7881 0.7818
1603.000000 0.7681 0.7319 0.6964 0.6898 0.6848
1608.000000 0.6779 0.6721 0.6604 0.6496 0.6432
1613.000000 0.6381 0.6362 0.6343 0.6324 0.6304
1618.000000 0.6272 0.6230 0.6136 0.5687 0.5168
1623.000000 0.4649 0.4130 0.3611 0.3153 0.3061
1628.000000 0.2988 0.2240 0.1152 0.0367 0.0303
1633.000000 0.0243 0.0169 0.0128 0.0100 0.0083
1638.000000 0.0062 0.0080 0.0095 0.0464 0.1208
1643.000000 0.1952 0.2593 0.2649 0.2694 0.2726
1648.000000 0.2757 0.2841 0.4260 0.5748 0.6504
1653.000000 0.6927 0.7017 0.7097 0.7177 0.7259
1658.000000 0.7344 0.7430 0.7514 0.7588 0.7652
1663.000000 0.7693 0.7735 0.7777 0.7820 0.7888
1668.000000 0.7965 0.8037 0.8098 0.8137 0.8163
1673.000000 0.8189 0.8218 0.8247 0.8276 0.8303
1678.000000 0.8327 0.8351 0.8375 0.8396 0.8412
1683.000000 0.8427 0.8443 0.8459 0.8474 0.8489
1688.000000 0.8486 0.8483 0.8478 0.8472 0.8459
1693.000000 0.8438 0.8415 0.8387 0.8363 0.8354
1698.000000 0.8351 0.8370 0.8470 0.8570 0.8623
1703.000000 0.8670 0.8710 0.8740 0.8763 0.8785
1708.000000 0.8808 0.8830 0.8833 0.8829 0.8822
1713.000000 0.8827 0.8843 0.8859 0.8870 0.8881
1718.000000 0.8892 0.8904 0.8913 0.8922 0.8931
1723.000000 0.8939 0.8948 0.8957 0.8967 0.8978
1728.000000 0.8988 0.8999 0.9004 0.9009 0.9014
1733.000000 0.9020 0.9027 0.9037 0.9047 0.9060
1738.000000 0.9072 0.9085 0.9098 0.9106 0.9115
1743.000000 0.9124 0.9125 0.9125 0.9126 0.9126
1748.000000 0.9126 0.9126 0.9127 0.9128 0.9130
1753.000000 0.9133 0.9138 0.9143 0.9149 0.9157
1758.000000 0.9165 0.9172 0.9180 0.9183 0.9184
1763.000000 0.9185 0.9186 0.9185 0.9192 0.9183
1768.000000 0.9182 0.9181 0.9177 0.9173 0.9169
1773.000000 0.9161 0.9151 0.9140 0.9130 0.9119
1778.000000 0.9104 0.9087 0.9067 0.9048 0.9030
1783.000000 0.9019 0.9009 0.8999 0.8989 0.8973
1788.000000 0.8953 0.8919 0.8876 0.8831 0.8787
1793.000000 0.8743 0.8690 0.8635 0.8580 0.8517
1798.000000 0.8438 0.8308 0.7828 0.7388 0.7197
1803.000000 0.6863 0.6529 0.6195 0.5860 0.5526
1808.000000 0.5192 0.4858 0.4524 0.4255 0.4208
1813.000000 0.4161 0.4118 0.4077 0.4062 0.4047
1818.000000 0.4034 0.4161 0.4515 0.4869 0.5224
1823.000000 0.5578 0.5932 0.6287 0.6641 0.6995
1828.000000 0.7132 0.7219 0.7300 0.7388 0.7514
1833.000000 0.7689 0.7898 0.8027 0.8135 0.8214
1838.000000 0.8293 0.8374 0.8458 0.8543 0.8603
1843.000000 0.8662 0.8720 0.8759 0.8794 0.8828
1848.000000 0.8863 0.8898 0.8933 0.8965 0.8990
1853.000000 0.9015 0.9032 0.9047 0.9061 0.9086
1858.000000 0.9112 0.9139 0.9165 0.9177 0.9171
1863.000000 0.9166 0.9159 0.9152 0.9147 0.9142
1868.000000 0.9138 0.9141 0.9148 0.9155 0.9160
1873.000000 0.9165 0.9159 0.9146 0.9133 0.9121
1878.000000 0.9109 0.9097 0.9087 0.9078 0.9068
1883.000000 0.9060 0.9054 0.9049 0.9044 0.9046
1888.000000 0.9048 0.9050 0.9055 0.9061 0.9067
1893.000000 0.9074 0.9085 0.9097 0.9109 0.9123
1898.000000 0.9137 0.9151 0.9166 0.9180 0.9195
1903.000000 0.9209 0.9224 0.9238 0.9250 0.9257
1908.000000 0.9256 0.9255 0.9254 0.9253 0.9251
1913.000000 0.9250 0.9248 0.9247 0.9246 0.9246
1918.000000 0.9246 0.9250 0.9253 0.9257 0.9261
1923.000000 0.9265 0.9271 0.9277 0.9284 0.9290
1928.000000 0.9297 0.9306 0.9315 0.9324 0.9333
1933.000000 0.9342 0.9369 0.9360 0.9368 0.9371
1938.000000 0.9367 0.9363 0.9359 0.9355 0.9352
1943.000000 0.9348 0.9344 0.9337 0.9329 0.9321
1948.000000 0.9313 0.9299 0.9285 0.9271 0.9257
1953.000000 0.9239 0.9221 0.9203 0.9176 0.9144
1958.000000 0.9109 0.9059 0.9009 0.8960 0.8916
1963.000000 0.8871 0.8829 0.8789 0.8749 0.8709
1968.000000 0.8668 0.8635 0.8602 0.8572 0.8553
1973.000000 0.8561 0.8571 0.8544 0.8599 0.8615
1978.000000 0.8631 0.8647 0.8664 0.8680 0.8696
1983.000000 0.8712 0.8737 0.8759 0.8781 0.8806
1988.000000 0.8842 0.8878 0.8918 0.8959 0.9000
1993.000000 0.9036 0.9071 0.9098 0.9120 0.9141
1998.000000 0.9145 0.9148 0.9152 0.9164 0.9177
2003.000000 0.9181 0.9186 0.9187 0.9188 0.9186
2008.000000 0.9184 0.9179 0.9175 0.9170 0.9165
2013.000000 0.9160 0.9156 0.9149 0.9142 0.9135
2018.000000 0.9128 0.9121 0.9114 0.9103 0.9093
2023.000000 0.9081 0.9069 0.9059 0.9050 0.9050
2028.000000 0.9051 0.9051 0.9052 0.9052 0.9053
2033.000000 0.9054 0.9055 0.9056 0.9057 0.9059
2038.000000 0.9061 0.9065 0.9070 0.9074 0.9079
2043.000000 0.9083 0.9087 0.9093 0.9099 0.9105
2048.000000 0.9111 0.9117 0.9124 0.9130 0.9136
2053.000000 0.9142 0.9149 0.9156 0.9163 0.9169
2058.000000 0.9176 0.9183 0.9190 0.9197 0.9204
2063.000000 0.9208 0.9213 0.9216 0.9220 0.9223
2068.000000 0.9227 0.9227 0.9228 0.9228 0.9228
2073.000000 0.9228 0.9228 0.9228 0.9228 0.9227
2078.000000 0.9227 0.9227 0.9227 0.9227 0.9227
2083.000000 0.9227 0.9227 0.9227 0.9228 0.9232
2088.000000 0.9236 0.9243 0.9251 0.9259 0.9267
2093.000000 0.9269 0.9272 0.9274 0.9276 0.9276
2098.000000 0.9276 0.9276 0.9276 0.9276 0.9277
2103.000000 0.9277 0.9277 0.9277 0.9277 0.9277
2108.000000 0.9277 0.9277 0.9277 0.9277 0.9277
2113.000000 0.9276 0.9276 0.9276 0.9276 0.9276
2118.000000 0.9276 0.9274 0.9273 0.9271 0.9270
2123.000000 0.9268 0.9267 0.9265 0.9263 0.9261
2128.000000 0.9260 0.9257 0.9255 0.9252 0.9249
2133.000000 0.9246 0.9243 0.9239 0.9236 0.9231
2138.000000 0.9226 0.9221 0.9217 0.9212 0.9207
2143.000000 0.9202 0.9197 0.9192 0.9187 0.9182
2148.000000 0.9177 0.9172 0.9167 0.9164 0.9161
2153.000000 0.9157 0.9154 0.9151 0.9148 0.9145
2158.000000 0.9142 0.9138 0.9135 0.9133 0.9131
2163.000000 0.9129 0.9127 0.9125 0.9123 0.9121
2168.000000 0.9119 0.9117 0.9115 0.9113 0.9111
2173.000000 0.9109 0.9107 0.9105 0.9103 0.9102
2178.000000 0.9101 0.9100 0.9099 0.9098 0.9097
2183.000000 0.9097 0.9097 0.9099 0.9101 0.9103
2188.000000 0.9105 0.9107 0.9110 0.9113 0.9116
2193.000000 0.9119 0.9102 0.9124 0.9126 0.9125
2198.000000 0.9125 0.9124 0.9123 0.9122 0.9121
2203.000000 0.9119 0.9118 0.9118 0.9118 0.9117
2208.000000 0.9117 0.9117 0.9117 0.9117 0.9117
2213.000000 0.9117 0.9117 0.9118 0.9119 0.9120
2218.000000 0.9121 0.9122 0.9124 0.9125 0.9126
2223.000000 0.9127 0.9129 0.9130 0.9132 0.9133
2228.000000 0.9135 0.9134 0.9134 0.9133 0.9132
2233.000000 0.9131 0.9131 0.9125 0.9120 0.9114
2238.000000 0.9109 0.9103 0.9097 0.9090 0.9084
2243.000000 0.9077 0.9071 0.9064 0.9058 0.9051
2248.000000 0.9045 0.9038 0.9032 0.9025 0.9018
2253.000000 0.9011 0.9005 0.8997 0.8989 0.8979
2258.000000 0.8969 0.8960 0.8951 0.8947 0.8944
2263.000000 0.8941 0.8938 0.8934 0.8931 0.8928
2268.000000 0.8926 0.8926 0.8927 0.8928 0.8929
2273.000000 0.8929 0.8930 0.8930 0.8931 0.8931
2278.000000 0.8932 0.8933 0.8934 0.8935 0.8937
2283.000000 0.8938 0.8940 0.8942 0.8944 0.8945
2288.000000 0.8947 0.8948 0.8950 0.8952 0.8954
2293.000000 0.8956 0.8959 0.8961 0.8964 0.8966
2298.000000 0.8969 0.8971 0.8974 0.8976 0.8979
2303.000000 0.8982 0.8985 0.8988 0.8991 0.8994
2308.000000 0.8998 0.8998 0.8998 0.8998 0.8999
2313.000000 0.8994 0.8990 0.8984 0.8979 0.8973
2318.000000 0.8968 0.8962 0.8956 0.8949 0.8943
2323.000000 0.8936 0.8930 0.8924 0.8919 0.8914
2328.000000 0.8909 0.8904 0.8899 0.8893 0.8888
2333.000000 0.8885 0.8882 0.8880 0.8879 0.8878
2338.000000 0.8877 0.8875 0.8874 0.8872 0.8871
2343.000000 0.8870 0.8869 0.8868 0.8868 0.8868
2348.000000 0.8869 0.8869 0.8870 0.8870 0.8871
2353.000000 0.8871 0.8872 0.8872 0.8873 0.8873
2358.000000 0.8874 0.8875 0.8876 0.8879 0.8883
2363.000000 0.8886 0.8889 0.8892 0.8896 0.8899
2368.000000 0.8902 0.8907 0.8913 0.8921 0.8929
2373.000000 0.8937 0.8945 0.8953 0.8961 0.8968
2378.000000 0.8976 0.8984 0.8992 0.9003 0.9014
2383.000000 0.9026 0.9038 0.9050 0.9062 0.9071
2388.000000 0.9080 0.9085 0.9090 0.9095 0.9100
2393.000000 0.9105 0.9111 0.9109 0.9108 0.9107
2398.000000 0.9106 0.9104 0.9103 0.9101 0.9100
2403.000000 0.9096 0.9093 0.9089 0.9086 0.9082
2408.000000 0.9079 0.9075 0.9072 0.9068 0.9064
2413.000000 0.9060 0.9056 0.9052 0.9049 0.9045
2418.000000 0.9042 0.9040 0.9039 0.9037 0.9036
2423.000000 0.9034 0.9033 0.9031 0.9030 0.9031
2428.000000 0.9032 0.9033 0.9035 0.9036 0.9037
2433.000000 0.9039 0.9041 0.9045 0.9049 0.9053
2438.000000 0.9057 0.9061 0.9066 0.9070 0.9074
2443.000000 0.9078 0.9082 0.9086 0.9090 0.9093
2448.000000 0.9097 0.9100 0.9104 0.9107 0.9111
2453.000000 0.9114 0.9118 0.9121 0.9125 0.9126
2458.000000 0.9128 0.9129 0.9130 0.9131 0.9132
2463.000000 0.9133 0.9134 0.9132 0.9131 0.9129
2468.000000 0.9128 0.9126 0.9125 0.9121 0.9118
2473.000000 0.9113 0.9108 0.9103 0.9098 0.9093
2478.000000 0.9088 0.9083 0.9078 0.9073 0.9069
2483.000000 0.9064 0.9059 0.9053 0.9048 0.9042
2488.000000 0.9037 0.9032 0.9027 0.9021 0.9016
2493.000000 0.9010 0.9005 0.8999 0.8994 0.8988
2498.000000 0.8983 0.8974 0.8966 0.8958 0.8950
2503.000000 0.8941 0.8933 0.8925 0.8917 0.8908
2508.000000 0.8899 0.8886 0.8874 0.8861 0.8849
2513.000000 0.8835 0.8822 0.8801 0.8780 0.8747
2518.000000 0.8715 0.8707 0.8699 0.8695 0.8691
2523.000000 0.8686 0.8682 0.8677 0.8673 0.8664
2528.000000 0.8655 0.8643 0.8632 0.8617 0.8602
2533.000000 0.8585 0.8569 0.8550 0.8532 0.8513
2538.000000 0.8494 0.8463 0.8433 0.8407 0.8381
2543.000000 0.8357 0.8333 0.8318 0.8303 0.8287
2548.000000 0.8272 0.8257 0.8242 0.8227 0.8212
2553.000000 0.8198 0.8185 0.8171 0.8158 0.8144
2558.000000 0.8131 0.8117 0.8104 0.8091 0.8079
2563.000000 0.8067 0.8055 0.8042 0.8030 0.8017
2568.000000 0.8005 0.7995 0.7986 0.7976 0.7967
2573.000000 0.7957 0.7948 0.7939 0.7930 0.7920
2578.000000 0.7911 0.7901 0.7892 0.7884 0.7877
2583.000000 0.7869 0.7861 0.7853 0.7845 0.7837
2588.000000 0.7829 0.7817 0.7806 0.7789 0.7772
2593.000000 0.7755 0.7738 0.7721 0.7704 0.7688
2598.000000 0.7672 0.7656 0.7641 0.7626 0.7611
2603.000000 0.7595 0.7580 0.7565 0.7550 0.7535
2608.000000 0.7521 0.7506 0.7491 0.7476 0.7462
2613.000000 0.7447 0.7433 0.7419 0.7405 0.7391
2618.000000 0.7377 0.7363 0.7349 0.7334 0.7320
2623.000000 0.7305 0.7291 0.7280 0.7270 0.7263
2628.000000 0.7256 0.7248 0.7241 0.7228 0.7216
2633.000000 0.7180 0.7144 0.7108 0.7072 0.7036
2638.000000 0.7000 0.6964 0.6928 0.6892 0.6856
2643.000000 0.6820 0.6784 0.6748 0.6712 0.6676
2648.000000 0.6640 0.6604 0.6568 0.6534 0.6501
2653.000000 0.6474 0.6448 0.6435 0.6423 0.6414
2658.000000 0.6422 0.6403 0.6401 0.6403 0.6406
2663.000000 0.6408 0.6411 0.6416 0.6421 0.6426
2668.000000 0.6432 0.6437 0.6442 0.6458 0.6474
2673.000000 0.6518 0.6562 0.6605 0.6649 0.6693
2678.000000 0.6737 0.6784 0.6831 0.6855 0.6879
2683.000000 0.6897 0.6915 0.6923 0.6932 0.6936
2688.000000 0.6941 0.6943 0.6948 0.6943 0.6942
2693.000000 0.6935 0.6929 0.6907 0.6886 0.6852
2698.000000 0.6819 0.6782 0.6746 0.6712 0.6678
2703.000000 0.6649 0.6620 0.6596 0.6573 0.6549
2708.000000 0.6526 0.6506 0.6486 0.6384 0.6283
2713.000000 0.6159 0.6035 0.5970 0.5905 0.5871
2718.000000 0.5838 0.5812 0.5787 0.5779 0.5759
2723.000000 0.5773 0.5775 0.5787 0.5800 0.5844
2728.000000 0.5888 0.5933 0.5978 0.6023 0.6068
2733.000000 0.6113 0.6158 0.6203 0.6249 0.6288
2738.000000 0.6328 0.6325 0.6314 0.6319 0.6316
2743.000000 0.6311 0.6307 0.6302 0.6298 0.6292
2748.000000 0.6286 0.6279 0.6273 0.6263 0.6253
2753.000000 0.6240 0.6227 0.6201 0.6175 0.6147
2758.000000 0.6119 0.6093 0.6068 0.6028 0.5988
2763.000000 0.5945 0.5902 0.5854 0.5806 0.5737
2768.000000 0.5669 0.5572 0.5475 0.5387 0.5299
2773.000000 0.5233 0.5168 0.5077 0.4986 0.4870
2778.000000 0.4755 0.4639 0.4524 0.4408 0.4293
2783.000000 0.4177 0.4062 0.3946 0.3831 0.3715
2788.000000 0.3600 0.3484 0.3369 0.3253 0.3138
2793.000000 0.3023 0.2908 0.2800 0.2693 0.2639
2798.000000 0.2585 0.2505 0.2426 0.2329 0.2232
2803.000000 0.2138 0.2045 0.1951 0.1858 0.1764
2808.000000 0.1671 0.1577 0.1484 0.1390 0.1297
2813.000000 0.1203 0.1109 0.1015 0.0922 0.0828
2818.000000 0.0735 0.0628 0.0522 0.0469 0.0416
2823.000000 0.0314 0.0212 0.0185 0.0159 0.0138
2828.000000 0.0117 0.0106 0.0096 0.0090 0.0084
2833.000000 0.0079 0.0074 0.0068 0.0062 0.0056
2838.000000 0.0050 0.0044 0.0038 0.0032 0.0027
2843.000000 0.0021 0.0015 0.0009 0.0003 0.0001
2848.000000 0.0000 0.0000 0.0000 0.0000 0.0000
2853.000000 0.0000 0.0000 0.0000 0.0000 0.0000
2858.000000 0.0000 0.0000 0.0000 0.0000 0.0000
2863.000000 0.0000 0.0000 0.0000 0.0000 0.0000
2868.000000 0.0000 0.0000 0.0000 0.0000 0.0000
2873.000000 0.0000 0.0000 0.0000 0.0000 0.0000
2878.000000 0.0000 0.0000 0.0000 0.0000 0.0000
2883.000000 0.0000 0.0000 0.0000 0.0000 0.0000
2888.000000 0.0000 0.0000 0.0000 0.0000 0.0000
2893.000000 0.0000 0.0000 0.0000 0.0000 0.0000
2898.000000 0.0000 0.0000 0.0000 0.0000 0.0000
2903.000000 0.0000 0.0000 0.0000 0.0000 0.0000
2908.000000 0.0000 0.0000 0.0000 0.0000 0.0000
2913.000000 0.0000 0.0000 0.0000 0.0000 0.0000
2918.000000 0.0000 0.0000 0.0000 0.0000 0.0000
2923.000000 0.0000 0.0000 0.0000 0.0000 0.0000
2928.000000 0.0000 0.0000 0.0000 0.0000 0.0000
2933.000000 0.0000 0.0000 0.0000 0.0000 0.0000
2938.000000 0.0000 0.0000 0.0000 0.0000 0.0000
2943.000000 0.0000 0.0000 0.0000 0.0000 0.0000
2948.000000 0.0000 0.0000 0.0000 0.0000 0.0000
2953.000000 0.0000 0.0000 0.0000 0.0000 0.0000
2958.000000 0.0000 0.0000 0.0000 0.0000 0.0000
2963.000000 0.0000 0.0000 0.0000 0.0000 0.0000
2968.000000 0.0000 0.0000 0.0001 0.0014 0.0027
2973.000000 0.0040 0.0053 0.0066 0.0079 0.0092
2978.000000 0.0105 0.0120 0.0135 0.0144 0.0154
2983.000000 0.0162 0.0171 0.0172 0.0174 0.0174
2988.000000 0.0174 0.0175 0.0176 0.0178 0.0180
2993.000000 0.0184 0.0189 0.0398 0.0607 0.1195
2998.000000 0.1783 0.1866 0.1949 0.2020 0.2091
3003.000000 0.2162 0.2233 0.2303 0.2374 0.2445
3008.000000 0.2516 0.2586 0.2657 0.2728 0.2799
3013.000000 0.2870 0.2941 0.3011 0.3082 0.3153
3018.000000 0.3224 0.3291 0.3359 0.3394 0.3429
3023.000000 0.3445 0.3462 0.3469 0.3476 0.3476
3028.000000 0.3476 0.3457 0.3439 0.3325 0.3484
3033.000000 0.3097 0.2983 0.2869 0.2756 0.2642
3038.000000 0.2528 0.2414 0.2300 0.2186 0.2072
3043.000000 0.1958 0.1844 0.1730 0.1616 0.1502
3048.000000 0.1388 0.1274 0.1160 0.1046 0.0932
3053.000000 0.0835 0.0739 0.0683 0.0627 0.0584
3058.000000 0.0542 0.0489 0.0436 0.0375 0.0314
3063.000000 0.0262 0.0210 0.0183 0.0156 0.0147
3068.000000 0.0139 0.0136 0.0133 0.0135 0.0119
3073.000000 0.0145 0.0153 0.0750 0.1347 0.2583
3078.000000 0.3819 0.3937 0.4055 0.4172 0.4290
3083.000000 0.4408 0.4526 0.4643 0.4761 0.4878
3088.000000 0.4996 0.5114 0.5232 0.5349 0.5467
3093.000000 0.5810 0.6154 0.6321 0.6489 0.6619
3098.000000 0.6750 0.6790 0.6831 0.6865 0.6900
3103.000000 0.6934 0.6968 0.7005 0.7042 0.7080
3108.000000 0.7118 0.7156 0.7194 0.7226 0.7258
3113.000000 0.7285 0.7312 0.7339 0.7367 0.7395
3118.000000 0.7423 0.7444 0.7465 0.7483 0.7502
3123.000000 0.7520 0.7538 0.7556 0.7575 0.7593
3128.000000 0.7612 0.7625 0.7639 0.7651 0.7664
3133.000000 0.7676 0.7689 0.7701 0.7713 0.7725
3138.000000 0.7738 0.7750 0.7763 0.7775 0.7787
3143.000000 0.7796 0.7805 0.7814 0.7823 0.7831
3148.000000 0.7840 0.7849 0.7858 0.7867 0.7876
3153.000000 0.7885 0.7894 0.7902 0.7911 0.7919
3158.000000 0.7927 0.7935 0.7943 0.7951 0.7959
3163.000000 0.7967 0.7975 0.7983 0.7991 0.7999
3168.000000 0.8007 0.8015 0.8023 0.8031 0.8039
3173.000000 0.8047 0.8055 0.8063 0.8071 0.8079
3178.000000 0.8087 0.8099 0.8111 0.8124 0.8137
3183.000000 0.8149 0.8162 0.8175 0.8188 0.8210
3188.000000 0.8232 0.8260 0.8288 0.8319 0.8351
3193.000000 0.8379 0.8407 0.8425 0.8443 0.8461
3198.000000 0.8480 0.8498 0.8516 0.8535 0.8554
3203.000000 0.8572 0.8591 0.8610 0.8629 0.8648
3208.000000 0.8667 0.8682 0.8698 0.8713 0.8729
3213.000000 0.8744 0.8759 0.8774 0.8790 0.8802
3218.000000 0.8815 0.8827 0.8839 0.8851 0.8863
3223.000000 0.8875 0.8887 0.8898 0.8910 0.8920
3228.000000 0.8931 0.8941 0.8952 0.8962 0.8973
3233.000000 0.8983 0.8993 0.8997 0.9001 0.9005
3238.000000 0.9009 0.9012 0.9016 0.9016 0.9017
3243.000000 0.9017 0.9018 0.9019 0.9020 0.9019
3248.000000 0.9019 0.9019 0.9019 0.9018 0.9018
3253.000000 0.9014 0.9010 0.9005 0.9000 0.8997
3258.000000 0.8994 0.8991 0.8989 0.8992 0.8995
3263.000000 0.9002 0.9010 0.9019 0.9029 0.9047
3268.000000 0.9066 0.9088 0.9110 0.9129 0.9148
3273.000000 0.9161 0.9175 0.9184 0.9194 0.9200
3278.000000 0.9207 0.9211 0.9215 0.9218 0.9221
3283.000000 0.9224 0.9228 0.9231 0.9234 0.9236
3288.000000 0.9238 0.9239 0.9241 0.9242 0.9243
3293.000000 0.9244 0.9246 0.9247 0.9248 0.9248
3298.000000 0.9249 0.9249 0.9249 0.9249 0.9250
3303.000000 0.9250 0.9250 0.9249 0.9249 0.9247
3308.000000 0.9246 0.9244 0.9243 0.9241 0.9239
3313.000000 0.9237 0.9236 0.9234 0.9233 0.9230
3318.000000 0.9227 0.9224 0.9222 0.9219 0.9217
3323.000000 0.9214 0.9212 0.9209 0.9206 0.9205
3328.000000 0.9205 0.9204 0.9204 0.9203 0.9203
3333.000000 0.9202 0.9202 0.9201 0.9201 0.9200
3338.000000 0.9200 0.9199 0.9199 0.9199 0.9199
3343.000000 0.9200 0.9201 0.9202 0.9203 0.9204
3348.000000 0.9206 0.9207 0.9208 0.9209 0.9210
3353.000000 0.9211 0.9212 0.9213 0.9215 0.9216
3358.000000 0.9217 0.9218 0.9219 0.9220 0.9222
3363.000000 0.9223 0.9224 0.9225 0.9226 0.9227
3368.000000 0.9228 0.9229 0.9230 0.9231 0.9232
3373.000000 0.9233 0.9234 0.9235 0.9236 0.9237
3378.000000 0.9238 0.9240 0.9242 0.9243 0.9245
3383.000000 0.9247 0.9249 0.9250 0.9252 0.9253
3388.000000 0.9255 0.9257 0.9259 0.9260 0.9262
3393.000000 0.9263 0.9265 0.9267 0.9269 0.9269
3398.000000 0.9269 0.9268 0.9267 0.9266 0.9266
3403.000000 0.9265 0.9265 0.9264 0.9263 0.9262
3408.000000 0.9262 0.9261 0.9260 0.9259 0.9258
3413.000000 0.9257 0.9256 0.9255 0.9254 0.9253
3418.000000 0.9252 0.9251 0.9251 0.9250 0.9249
3423.000000 0.9248 0.9247 0.9248 0.9250 0.9252
3428.000000 0.9254 0.9256 0.9258 0.9260 0.9263
3433.000000 0.9265 0.9267 0.9269 0.9271 0.9273
3438.000000 0.9275 0.9277 0.9280 0.9282 0.9284
3443.000000 0.9286 0.9288 0.9290 0.9293 0.9295
3448.000000 0.9297 0.9299 0.9302 0.9304 0.9306
3453.000000 0.9308 0.9311 0.9313 0.9315 0.9317
3458.000000 0.9320 0.9320 0.9321 0.9321 0.9321
3463.000000 0.9320 0.9320 0.9320 0.9320 0.9320
3468.000000 0.9320 0.9320 0.9320 0.9320 0.9320
3473.000000 0.9320 0.9320 0.9320 0.9320 0.9319
3478.000000 0.9319 0.9319 0.9319 0.9319 0.9319
3483.000000 0.9319 0.9319 0.9319 0.9319 0.9319
3488.000000 0.9319 0.9319 0.9319 0.9320 0.9321
3493.000000 0.9321 0.9322 0.9322 0.9323 0.9323
3498.000000 0.9324 0.9324 0.9325 0.9326 0.9327
3503.000000 0.9327 0.9328 0.9328 0.9329 0.9329
3508.000000 0.9330 0.9330 0.9331 0.9332 0.9333
3513.000000 0.9333 0.9334 0.9334 0.9335 0.9335
3518.000000 0.9336 0.9337 0.9338 0.9339 0.9340
3523.000000 0.9340 0.9341 0.9342 0.9343 0.9344
3528.000000 0.9345 0.9346 0.9347 0.9348 0.9349
3533.000000 0.9349 0.9350 0.9351 0.9352 0.9353
3538.000000 0.9354 0.9355 0.9356 0.9356 0.9357
3543.000000 0.9358 0.9359 0.9360 0.9362 0.9364
3548.000000 0.9366 0.9368 0.9371 0.9373 0.9375
3553.000000 0.9377 0.9379 0.9381 0.9384 0.9386
3558.000000 0.9388 0.9386 0.9385 0.9383 0.9381
3563.000000 0.9378 0.9376 0.9374 0.9372 0.9370
3568.000000 0.9368 0.9366 0.9364 0.9362 0.9360
3573.000000 0.9358 0.9356 0.9351 0.9346 0.9340
3578.000000 0.9334 0.9328 0.9322 0.9316 0.9311
3583.000000 0.9305 0.9299 0.9293 0.9287 0.9280
3588.000000 0.9274 0.9265 0.9257 0.9249 0.9241
3593.000000 0.9232 0.9224 0.9216 0.9208 0.9200
3598.000000 0.9192 0.9183 0.9175 0.9167 0.9159
3603.000000 0.9151 0.9143 0.9136 0.9129 0.9122
3608.000000 0.9115 0.9108 0.9101 0.9094 0.9087
3613.000000 0.9080 0.9074 0.9073 0.9072 0.9072
3618.000000 0.9072 0.9072 0.9072 0.9072 0.9073
3623.000000 0.9073 0.9073 0.9077 0.9082 0.9087
3628.000000 0.9093 0.9098 0.9104 0.9110 0.9116
3633.000000 0.9119 0.9123 0.9120 0.9117 0.9114
3638.000000 0.9111 0.9108 0.9105 0.9102 0.9099
3643.000000 0.9096 0.9093 0.9090 0.9087 0.9084
3648.000000 0.9081 0.9086 0.9092 0.9101 0.9111
3653.000000 0.9119 0.9127 0.9128 0.9129 0.9130
3658.000000 0.9131 0.9132 0.9133 0.9132 0.9131
3663.000000 0.9130 0.9130 0.9129 0.9129 0.9128
3668.000000 0.9128 0.9127 0.9127 0.9126 0.9126
3673.000000 0.9125 0.9125 0.9125 0.9125 0.9124
3678.000000 0.9124 0.9121 0.9119 0.9115 0.9112
3683.000000 0.9108 0.9105 0.9101 0.9098 0.9095
3688.000000 0.9092 0.9088 0.9085 0.9081 0.9078
3693.000000 0.9077 0.9077 0.9078 0.9080 0.9082
3698.000000 0.9084 0.9086 0.9088 0.9090 0.9092
3703.000000 0.9096 0.9101 0.9105 0.9110 0.9114
3708.000000 0.9119 0.9123 0.9128 0.9132 0.9136
3713.000000 0.9136 0.9136 0.9136 0.9137 0.9137
3718.000000 0.9137 0.9137 0.9137 0.9131 0.9125
3723.000000 0.9119 0.9114 0.9106 0.9098 0.9085
3728.000000 0.9073 0.9060 0.9048 0.9035 0.9022
3733.000000 0.9005 0.8989 0.8975 0.8961 0.8959
3738.000000 0.8958 0.8964 0.8970 0.8982 0.8994
3743.000000 0.9006 0.9019 0.9026 0.9033 0.9035
3748.000000 0.9038 0.9038 0.9039 0.9039 0.9040
3753.000000 0.9041 0.9042 0.9042 0.9042 0.9042
3758.000000 0.9043 0.9043 0.9044 0.9044 0.9045
3763.000000 0.9045 0.9045 0.9045 0.9046 0.9046
3768.000000 0.9046 0.9046 0.9046 0.9046 0.9046
3773.000000 0.9046 0.9047 0.9046 0.9046 0.9046
3778.000000 0.9046 0.9046 0.9046 0.9046 0.9046
3783.000000 0.9045 0.9045 0.9045 0.9045 0.9047
3788.000000 0.9050 0.9053 0.9057 0.9060 0.9064
3793.000000 0.9071 0.9078 0.9085 0.9093 0.9097
3798.000000 0.9102 0.9101 0.9101 0.9100 0.9100
3803.000000 0.9099 0.9099 0.9095 0.9091 0.9087
3808.000000 0.9083 0.9079 0.9075 0.9069 0.9064
3813.000000 0.9059 0.9054 0.9048 0.9043 0.9037
3818.000000 0.9032 0.9029 0.9026 0.9024 0.9022
3823.000000 0.9020 0.9018 0.9016 0.9015 0.9013
3828.000000 0.9011 0.9009 0.9007 0.9005 0.8994
3833.000000 0.9002 0.9000 0.8997 0.8994 0.8991
3838.000000 0.8989 0.8986 0.8983 0.8980 0.8977
3843.000000 0.8974 0.8972 0.8968 0.8965 0.8960
3848.000000 0.8955 0.8949 0.8944 0.8939 0.8935
3853.000000 0.8933 0.8931 0.8929 0.8928 0.8926
3858.000000 0.8924 0.8922 0.8921 0.8919 0.8917
3863.000000 0.8915 0.8914 0.8912 0.8911 0.8909
3868.000000 0.8908 0.8907 0.8906 0.8904 0.8903
3873.000000 0.8902 0.8901 0.8899 0.8898 0.8896
3878.000000 0.8895 0.8894 0.8893 0.8891 0.8890
3883.000000 0.8889 0.8888 0.8886 0.8885 0.8883
3888.000000 0.8882 0.8881 0.8880 0.8878 0.8877
3893.000000 0.8875 0.8874 0.8873 0.8872 0.8870
3898.000000 0.8869 0.8867 0.8866 0.8865 0.8864
3903.000000 0.8862 0.8861 0.8860 0.8859 0.8857
3908.000000 0.8856 0.8855 0.8854 0.8852 0.8851
3913.000000 0.8850 0.8849 0.8848 0.8847 0.8845
3918.000000 0.8844 0.8843 0.8842 0.8841 0.8840
3923.000000 0.8838 0.8837 0.8835 0.8834 0.8830
3928.000000 0.8827 0.8823 0.8820 0.8816 0.8813
3933.000000 0.8809 0.8806 0.8799 0.8792 0.8779
3938.000000 0.8766 0.8753 0.8740 0.8727 0.8714
3943.000000 0.8701 0.8688 0.8675 0.8662 0.8649
3948.000000 0.8636 0.8622 0.8609 0.8602 0.8595
3953.000000 0.8590 0.8585 0.8579 0.8574 0.8569
3958.000000 0.8564 0.8558 0.8553 0.8548 0.8543
3963.000000 0.8542 0.8541 0.8540 0.8540 0.8539
3968.000000 0.8538 0.8536 0.8535 0.8531 0.8527
3973.000000 0.8523 0.8520 0.8516 0.8513 0.8506
3978.000000 0.8500 0.8491 0.8483 0.8474 0.8465
3983.000000 0.8454 0.8444 0.8433 0.8423 0.8414
3988.000000 0.8405 0.8397 0.8390 0.8382 0.8374
3993.000000 0.8366 0.8359 0.8350 0.8342 0.8334
3998.000000 0.8326 0.8323 0.8321
##END=
