##TITLE=1,5-CYCLOOCTADIENE
##JCAMP-DX=4.24
##DATA TYPE=INFRARED SPECTRUM
##CLASS=COBLENTZ
##OWNER=COBLENTZ SOCIETY
Collection (C) 2018 copyright by the U.S. Secretary of Commerce
on behalf of the United States of America. All rights reserved.
##DATE=Not specified, most likely prior to 1970
##CAS REGISTRY NO=111-78-4
##MOLFORM=C8 H12
##SOURCE REFERENCE=COBLENTZ NO. 165
##$NIST SOURCE=COBLENTZ
##$NIST IMAGE=cob165
##SPECTROMETER/DATA SYSTEM=Not specified, most likely a prism, grating, or hybrid spectrometer.
##PATH LENGTH=0.0035 CM
##SAMPLING PROCEDURE=TRANSMISSION
##RESOLUTION=4
##DATA PROCESSING=DIGITIZED BY NIST FROM HARD COPY
##XUNITS=MICROMETERS
##YUNITS=TRANSMITTANCE
##XFACTOR=1.000000
##YFACTOR=1
##DELTAX=000.006651
##FIRSTX=1.018
##LASTX=15.9089
##FIRSTY=0.992
##MAXX=15.9089
##MINX=1.018
##MAXY=0.994
##MINY=0.032
##NPOINTS=2240
##XYDATA=(X++(Y..Y))
1.018000 0.9920 0.9890 0.9860 0.9850 0.9840
1.051268 0.9820 0.9840 0.9880 0.9900 0.9920
1.085000 0.9930 0.9940 0.9930 0.9930 0.9930
1.118268 0.9930 0.9930 0.9930 0.9930 0.9940
1.151000 0.9940 0.9940 0.9930 0.9930 0.9940
1.184268 0.9940 0.9940 0.9930 0.9920 0.9920
1.218000 0.9900 0.9900 0.9900 0.9890 0.9880
1.251268 0.9880 0.9890 0.9920 0.9920 0.9900
1.284000 0.9900 0.9890 0.9890 0.9900 0.9890
1.317268 0.9890 0.9860 0.9860 0.9850 0.9850
1.351000 0.9850 0.9850 0.9850 0.9850 0.9850
1.384268 0.9850 0.9850 0.9880 0.9880 0.9860
1.417000 0.9860 0.9820 0.9820 0.9810 0.9810
1.450268 0.9820 0.9820 0.9800 0.9800 0.9820
1.484000 0.9820 0.9820 0.9820 0.9810 0.9810
1.517268 0.9800 0.9770 0.9760 0.9760 0.9760
1.550000 0.9760 0.9760 0.9730 0.9690 0.9660
1.583268 0.9580 0.9540 0.9540 0.9600 0.9660
1.617000 0.9660 0.9690 0.9690 0.9700 0.9700
1.650268 0.9720 0.9720 0.9720 0.9700 0.9700
1.683000 0.9720 0.9720 0.9730 0.9720 0.9720
1.716268 0.9730 0.9730 0.9720 0.9690 0.9690
1.750000 0.9740 0.9760 0.9760 0.9760 0.9770
1.783268 0.9780 0.9800 0.9800 0.9770 0.9770
1.816000 0.9760 0.9760 0.9760 0.9760 0.9770
1.849268 0.9770 0.9770 0.9770 0.9780 0.9810
1.883000 0.9820 0.9810 0.9820 0.9840 0.9840
1.916268 0.9840 0.9810 0.9780 0.9780 0.9780
1.949000 0.9800 0.9800 0.9780 0.9780 0.9780
1.982268 0.9780 0.9810 0.9810 0.9780 0.9760
2.016000 0.9730 0.9720 0.9700 0.9690 0.9680
2.049268 0.9680 0.9680 0.9680 0.9720 0.9720
2.082000 0.9700 0.9690 0.9680 0.9680 0.9680
2.115268 0.9660 0.9650 0.9640 0.9620 0.9610
2.149000 0.9600 0.9610 0.9640 0.9650 0.9620
2.182268 0.9600 0.9580 0.9560 0.9490 0.9450
2.215000 0.9400 0.9320 0.9290 0.9260 0.9250
2.248268 0.9200 0.9180 0.9180 0.9170 0.9160
2.282000 0.9120 0.9100 0.9090 0.9090 0.9100
2.315268 0.9130 0.9180 0.9210 0.9210 0.9210
2.348000 0.9220 0.9250 0.9320 0.9340 0.9370
2.381268 0.9380 0.9400 0.9400 0.9400 0.9400
2.415000 0.9380 0.9380 0.9380 0.9400 0.9400
2.448268 0.9400 0.9400 0.9400 0.9440 0.9450
2.481000 0.9460 0.9460 0.9460 0.9450 0.9440
2.514268 0.9450 0.9480 0.9480 0.9490 0.9490
2.548000 0.9490 0.9490 0.9490 0.9490 0.9480
2.581268 0.9480 0.9460 0.9450 0.9440 0.9410
2.614000 0.9370 0.9370 0.9400 0.9410 0.9400
2.647268 0.9380 0.9370 0.9360 0.9330 0.9330
2.681000 0.9340 0.9380 0.9380 0.9370 0.9280
2.714268 0.9210 0.9180 0.9160 0.9080 0.9050
2.747000 0.9010 0.8900 0.8880 0.8850 0.8810
2.780268 0.8780 0.8760 0.8740 0.8760 0.8860
2.814000 0.8900 0.8980 0.9000 0.9010 0.9050
2.847268 0.9090 0.9140 0.9170 0.9180 0.9180
2.880000 0.9200 0.9200 0.9210 0.9210 0.9220
2.913268 0.9220 0.9240 0.9240 0.9260 0.9370
2.947000 0.9370 0.9360 0.9340 0.9300 0.9280
2.980268 0.9280 0.9250 0.9250 0.9280 0.9290
3.013000 0.9300 0.9300 0.9290 0.9280 0.9250
3.046268 0.9250 0.9260 0.9320 0.9400 0.9410
3.080000 0.9410 0.9410 0.9410 0.9380 0.9380
3.113268 0.9400 0.9400 0.9410 0.9440 0.9440
3.146000 0.9440 0.9420 0.9410 0.9380 0.9300
3.179268 0.9280 0.9260 0.9220 0.9160 0.9020
3.213000 0.8810 0.8720 0.8490 0.8260 0.7960
3.246268 0.7650 0.7060 0.6760 0.6570 0.6300
3.279000 0.5820 0.4920 0.3900 0.2860 0.2120
3.312268 0.1370 0.1120 0.0880 0.0380 0.0380
3.346000 0.0600 0.0640 0.0770 0.0930 0.0930
3.379268 0.0820 0.0600 0.0540 0.0480 0.0410
3.412000 0.0400 0.0400 0.0420 0.0420 0.0410
3.445268 0.0400 0.0400 0.0410 0.0530 0.0660
3.479000 0.0860 0.1210 0.1920 0.2250 0.2420
3.512268 0.2600 0.2770 0.2960 0.3520 0.4080
3.545000 0.5120 0.6020 0.6160 0.6290 0.6580
3.578268 0.6880 0.7170 0.7460 0.7730 0.8360
3.612000 0.8450 0.8450 0.8500 0.8540 0.8600
3.645268 0.8610 0.8610 0.8600 0.8490 0.8410
3.678000 0.8340 0.8250 0.8160 0.8060 0.7970
3.711268 0.7970 0.8080 0.8180 0.8300 0.8400
3.745000 0.8500 0.8610 0.8680 0.8840 0.8890
3.778268 0.8920 0.8930 0.8960 0.9010 0.9050
3.811000 0.9100 0.9160 0.9200 0.9250 0.9320
3.844268 0.9340 0.9360 0.9360 0.9340 0.9330
3.878000 0.9330 0.9340 0.9370 0.9380 0.9370
3.911268 0.9340 0.9320 0.9300 0.9290 0.9280
3.944000 0.9260 0.9260 0.9280 0.9290 0.9300
3.977268 0.9320 0.9330 0.9360 0.9360 0.9370
4.011000 0.9370 0.9380 0.9380 0.9400 0.9410
4.044268 0.9410 0.9420 0.9440 0.9450 0.9450
4.077000 0.9420 0.9360 0.9340 0.9320 0.9320
4.110268 0.9330 0.9330 0.9320 0.9300 0.9280
4.144000 0.9280 0.9300 0.9400 0.9410 0.9410
4.177268 0.9410 0.9410 0.9410 0.9410 0.9400
4.210000 0.9370 0.9360 0.9370 0.9400 0.9400
4.243268 0.9400 0.9380 0.9360 0.9330 0.9320
4.277000 0.9300 0.9320 0.9360 0.9400 0.9410
4.310268 0.9410 0.9420 0.9440 0.9450 0.9480
4.343000 0.9490 0.9490 0.9490 0.9490 0.9500
4.376268 0.9490 0.9490 0.9460 0.9450 0.9440
4.410000 0.9440 0.9440 0.9420 0.9410 0.9400
4.443268 0.9380 0.9400 0.9410 0.9440 0.9450
4.476000 0.9460 0.9460 0.9480 0.9480 0.9490
4.509268 0.9490 0.9490 0.9490 0.9490 0.9490
4.543000 0.9490 0.9480 0.9480 0.9460 0.9450
4.576268 0.9440 0.9420 0.9420 0.9410 0.9380
4.609000 0.9360 0.9340 0.9320 0.9300 0.9320
4.642268 0.9330 0.9360 0.9370 0.9400 0.9410
4.676000 0.9420 0.9450 0.9450 0.9450 0.9450
4.709268 0.9450 0.9450 0.9460 0.9460 0.9460
4.742000 0.9480 0.9480 0.9490 0.9500 0.9500
4.775268 0.9490 0.9490 0.9490 0.9480 0.9460
4.809000 0.9440 0.9420 0.9420 0.9460 0.9480
4.842268 0.9460 0.9410 0.9400 0.9400 0.9460
4.875000 0.9490 0.9520 0.9530 0.9540 0.9570
4.908268 0.9570 0.9560 0.9540 0.9540 0.9540
4.942000 0.9540 0.9530 0.9540 0.9530 0.9520
4.975268 0.9500 0.9500 0.9490 0.9490 0.9460
5.008000 0.9450 0.9420 0.9410 0.9400 0.9340
5.041268 0.9330 0.9320 0.9300 0.9240 0.9220
5.075000 0.9210 0.9210 0.9250 0.9260 0.9320
5.108268 0.9370 0.9380 0.9400 0.9400 0.9400
5.141000 0.9380 0.9360 0.9340 0.9320 0.9330
5.174268 0.9340 0.9370 0.9400 0.9400 0.9340
5.208000 0.9340 0.9360 0.9360 0.9370 0.9370
5.241268 0.9360 0.9330 0.9300 0.9240 0.9220
5.274000 0.9220 0.9220 0.9240 0.9260 0.9250
5.307268 0.9240 0.9240 0.9220 0.9240 0.9250
5.341000 0.9280 0.9300 0.9320 0.9340 0.9370
5.374268 0.9380 0.9380 0.9380 0.9380 0.9380
5.407000 0.9380 0.9370 0.9370 0.9360 0.9330
5.440268 0.9320 0.9300 0.9320 0.9330 0.9320
5.474000 0.9300 0.9290 0.9280 0.9260 0.9250
5.507268 0.9240 0.9220 0.9210 0.9210 0.9220
5.541000 0.9250 0.9320 0.9330 0.9330 0.9320
5.574268 0.9320 0.9300 0.9240 0.9210 0.9160
5.607000 0.9120 0.9100 0.9090 0.9010 0.8960
5.640268 0.8930 0.8850 0.8770 0.8770 0.8850
5.674000 0.8930 0.9010 0.9090 0.9170 0.9220
5.707268 0.9260 0.9260 0.9260 0.9250 0.9250
5.740000 0.9240 0.9250 0.9250 0.9250 0.9240
5.773268 0.9240 0.9220 0.9210 0.9200 0.9180
5.807000 0.9170 0.9160 0.9120 0.9100 0.9090
5.840268 0.9060 0.9020 0.8970 0.8930 0.8840
5.873000 0.8760 0.8690 0.8640 0.8570 0.8500
5.906268 0.8380 0.8330 0.8250 0.8130 0.8010
5.940000 0.7890 0.7780 0.7680 0.7600 0.7540
5.973268 0.7490 0.7320 0.7080 0.6760 0.6410
6.006000 0.6020 0.5780 0.5690 0.5200 0.4720
6.039268 0.4720 0.5010 0.5440 0.6170 0.6540
6.073000 0.6820 0.7040 0.7170 0.7290 0.7370
6.106268 0.7460 0.7580 0.7730 0.7810 0.7850
6.139000 0.7900 0.7930 0.7940 0.7960 0.8020
6.172268 0.8060 0.8090 0.8120 0.8170 0.8240
6.206000 0.8320 0.8410 0.8500 0.8610 0.8730
6.239268 0.8850 0.8930 0.8960 0.9010 0.9060
6.272000 0.9120 0.9140 0.9160 0.9200 0.9240
6.305268 0.9260 0.9290 0.9290 0.9280 0.9260
6.339000 0.9260 0.9250 0.9240 0.9220 0.9210
6.372268 0.9200 0.9180 0.9170 0.9160 0.9160
6.405000 0.9170 0.9180 0.9200 0.9210 0.9220
6.438268 0.9220 0.9240 0.9240 0.9240 0.9250
6.472000 0.9260 0.9260 0.9250 0.9240 0.9210
6.505268 0.9200 0.9180 0.9160 0.9130 0.9090
6.538000 0.9050 0.9000 0.8920 0.8850 0.8780
6.571268 0.8690 0.8620 0.8580 0.8560 0.8490
6.605000 0.8400 0.8210 0.8170 0.8040 0.7780
6.638268 0.7410 0.7240 0.7200 0.7090 0.7080
6.671000 0.6690 0.6120 0.5480 0.5160 0.4020
6.704268 0.3200 0.2440 0.2010 0.2010 0.2440
6.738000 0.2850 0.3260 0.3650 0.4530 0.5460
6.771268 0.6060 0.6530 0.6620 0.6660 0.6800
6.804000 0.6880 0.6900 0.6900 0.6890 0.6860
6.837268 0.6640 0.6540 0.6400 0.6130 0.5680
6.871000 0.5440 0.5240 0.5160 0.4960 0.4770
6.904268 0.4600 0.4520 0.4520 0.4620 0.4820
6.937000 0.4860 0.4820 0.4340 0.3800 0.3050
6.970268 0.2720 0.2420 0.2160 0.1880 0.1370
7.004000 0.1370 0.1700 0.2340 0.2680 0.3000
7.037268 0.3320 0.3650 0.4660 0.5460 0.5820
7.070000 0.6180 0.6530 0.6660 0.6840 0.7050
7.103268 0.7280 0.7490 0.7690 0.7850 0.7920
7.137000 0.7940 0.8000 0.8040 0.8140 0.8200
7.170268 0.8240 0.8290 0.8340 0.8370 0.8400
7.203000 0.8420 0.8440 0.8460 0.8480 0.8450
7.236268 0.8440 0.8400 0.8360 0.8340 0.8320
7.270000 0.8320 0.8300 0.8260 0.8210 0.8100
7.303268 0.8060 0.7970 0.7890 0.7760 0.7650
7.336000 0.7580 0.7260 0.7160 0.7050 0.7050
7.369268 0.7080 0.7170 0.7280 0.7380 0.7480
7.403000 0.7580 0.7690 0.7840 0.7980 0.8050
7.436268 0.8160 0.8220 0.8250 0.8300 0.8330
7.469000 0.8330 0.8330 0.8320 0.8300 0.8290
7.502268 0.8280 0.8260 0.8250 0.8210 0.8120
7.536000 0.8090 0.8060 0.8050 0.8040 0.8020
7.569268 0.8020 0.8040 0.8080 0.8130 0.8170
7.602000 0.8210 0.8260 0.8320 0.8370 0.8410
7.635268 0.8420 0.8420 0.8420 0.8440 0.8450
7.669000 0.8460 0.8480 0.8480 0.8490 0.8490
7.702268 0.8490 0.8500 0.8490 0.8480 0.8460
7.735000 0.8460 0.8450 0.8440 0.8420 0.8410
7.768268 0.8380 0.8380 0.8370 0.8330 0.8300
7.802000 0.8250 0.8200 0.8130 0.8050 0.7970
7.835268 0.7860 0.7740 0.7530 0.7360 0.7210
7.868000 0.7020 0.6840 0.6690 0.6580 0.6500
7.901268 0.6500 0.6570 0.6690 0.6850 0.6980
7.935000 0.7130 0.7260 0.7440 0.7640 0.7740
7.968268 0.7780 0.7810 0.7810 0.7740 0.7730
8.001000 0.7700 0.7650 0.7580 0.7490 0.7410
8.034268 0.7300 0.7200 0.7100 0.6980 0.6880
8.068000 0.6520 0.6130 0.5940 0.5780 0.5620
8.101268 0.5130 0.5130 0.5300 0.5600 0.5820
8.134000 0.6020 0.6250 0.6530 0.6800 0.6970
8.167268 0.7100 0.7160 0.7210 0.7210 0.7200
8.201000 0.7160 0.7100 0.6360 0.6140 0.6040
8.234268 0.5320 0.4860 0.4420 0.3970 0.3530
8.267000 0.3530 0.3850 0.4160 0.4480 0.4780
8.300268 0.5100 0.5620 0.6000 0.6380 0.6780
8.334000 0.6820 0.6860 0.6940 0.7080 0.7120
8.367268 0.7140 0.7120 0.7090 0.7080 0.7060
8.400000 0.7080 0.7240 0.7450 0.7740 0.7960
8.433268 0.8130 0.8260 0.8370 0.8420 0.8480
8.467000 0.8500 0.8520 0.8560 0.8600 0.8640
8.500268 0.8660 0.8680 0.8700 0.8730 0.8740
8.533000 0.8780 0.8800 0.8810 0.8820 0.8840
8.566268 0.8850 0.8860 0.8860 0.8850 0.8850
8.600000 0.8850 0.8850 0.8840 0.8820 0.8810
8.633268 0.8780 0.8770 0.8760 0.8740 0.8730
8.666000 0.8730 0.8730 0.8740 0.8760 0.8770
8.699268 0.8780 0.8780 0.8800 0.8810 0.8810
8.733000 0.8810 0.8800 0.8770 0.8760 0.8730
8.766268 0.8700 0.8680 0.8650 0.8640 0.8650
8.799000 0.8660 0.8700 0.8720 0.8760 0.8810
8.832268 0.8840 0.8840 0.8850 0.8860 0.8880
8.866000 0.8890 0.8900 0.8900 0.8890 0.8890
8.899268 0.8880 0.8880 0.8860 0.8860 0.8850
8.932000 0.8840 0.8840 0.8840 0.8840 0.8840
8.965268 0.8840 0.8840 0.8840 0.8840 0.8820
8.999000 0.8820 0.8810 0.8810 0.8800 0.8800
9.032268 0.8770 0.8740 0.8730 0.8720 0.8690
9.065000 0.8640 0.8540 0.8520 0.8460 0.8420
9.098268 0.8370 0.8330 0.8240 0.8120 0.7920
9.132000 0.7810 0.7740 0.7620 0.7380 0.7300
9.165268 0.7080 0.6980 0.6650 0.6380 0.5980
9.198000 0.5820 0.5520 0.5240 0.5010 0.4760
9.231268 0.4620 0.4620 0.4680 0.4770 0.4820
9.265000 0.4930 0.5220 0.5580 0.5860 0.6100
9.298268 0.6320 0.6500 0.6680 0.6880 0.7090
9.331000 0.7330 0.7460 0.7580 0.7700 0.7840
9.364268 0.7940 0.8040 0.8130 0.8200 0.8240
9.398000 0.8250 0.8280 0.8300 0.8340 0.8380
9.431268 0.8380 0.8400 0.8410 0.8420 0.8440
9.464000 0.8450 0.8500 0.8520 0.8530 0.8540
9.497268 0.8540 0.8580 0.8610 0.8620 0.8620
9.531000 0.8640 0.8610 0.8580 0.8560 0.8540
9.564268 0.8540 0.8520 0.8520 0.8500 0.8490
9.597000 0.8480 0.8460 0.8450 0.8440 0.8440
9.630268 0.8450 0.8450 0.8460 0.8460 0.8490
9.664000 0.8500 0.8520 0.8520 0.8530 0.8530
9.697268 0.8520 0.8520 0.8500 0.8480 0.8450
9.730000 0.8420 0.8380 0.8360 0.8320 0.8280
9.763268 0.8240 0.8220 0.8170 0.8140 0.8120
9.797000 0.8050 0.7970 0.7900 0.7810 0.7700
9.830268 0.7600 0.7520 0.7420 0.7280 0.7220
9.863000 0.6970 0.6810 0.6520 0.6290 0.6080
9.896268 0.5760 0.5490 0.5200 0.4900 0.4620
9.930000 0.4360 0.4100 0.3900 0.3740 0.3620
9.963268 0.3560 0.3450 0.3440 0.3450 0.3530
9.996000 0.3610 0.3690 0.3770 0.3860 0.3970
10.029268 0.4080 0.4210 0.4340 0.4480 0.4600
10.063000 0.4730 0.4850 0.4960 0.5040 0.5210
10.096268 0.5370 0.5530 0.5680 0.5840 0.5980
10.129000 0.6160 0.6320 0.6500 0.6690 0.6880
10.162268 0.6980 0.7080 0.7180 0.7240 0.7320
10.196000 0.7400 0.7490 0.7580 0.7690 0.7770
10.229268 0.7780 0.7780 0.7780 0.7770 0.7770
10.262000 0.7760 0.7730 0.7720 0.7680 0.7620
10.295268 0.7600 0.7580 0.7530 0.7450 0.7370
10.329000 0.7340 0.7330 0.7320 0.7330 0.7360
10.362268 0.7420 0.7520 0.7600 0.7680 0.7760
10.395000 0.7850 0.7930 0.8020 0.8090 0.8170
10.428268 0.8220 0.8250 0.8290 0.8410 0.8450
10.462000 0.8490 0.8530 0.8530 0.8540 0.8540
10.495268 0.8540 0.8540 0.8540 0.8540 0.8560
10.528000 0.8570 0.8570 0.8580 0.8600 0.8600
10.561268 0.8600 0.8610 0.8610 0.8600 0.8580
10.595000 0.8580 0.8580 0.8580 0.8580 0.8570
10.628268 0.8570 0.8570 0.8570 0.8560 0.8560
10.661000 0.8560 0.8560 0.8560 0.8570 0.8570
10.694268 0.8570 0.8570 0.8540 0.8540 0.8530
10.728000 0.8530 0.8530 0.8520 0.8500 0.8500
10.761268 0.8490 0.8490 0.8490 0.8480 0.8450
10.794000 0.8440 0.8420 0.8370 0.8330 0.8280
10.827268 0.8220 0.8180 0.8140 0.8120 0.8050
10.861000 0.8010 0.7940 0.7880 0.7810 0.7730
10.894268 0.7660 0.7580 0.7500 0.7420 0.7280
10.927000 0.7220 0.7140 0.6940 0.6740 0.6660
10.960268 0.6570 0.6440 0.6300 0.6220 0.6140
10.994000 0.6120 0.6080 0.6040 0.6020 0.6010
11.027268 0.6010 0.6020 0.6050 0.6080 0.6130
11.060000 0.6210 0.6330 0.6480 0.6650 0.6760
11.093268 0.6810 0.6860 0.6920 0.7010 0.7140
11.127000 0.7240 0.7280 0.7300 0.7320 0.7360
11.160268 0.7420 0.7440 0.7530 0.7640 0.7680
11.193000 0.7740 0.7770 0.7840 0.7880 0.7920
11.226268 0.7940 0.8010 0.8040 0.8060 0.8080
11.260000 0.8130 0.8220 0.8240 0.8290 0.8340
11.293268 0.8400 0.8440 0.8480 0.8500 0.8540
11.326000 0.8580 0.8580 0.8600 0.8620 0.8640
11.359268 0.8640 0.8640 0.8640 0.8650 0.8680
11.393000 0.8730 0.8730 0.8740 0.8800 0.8810
11.426268 0.8810 0.8820 0.8820 0.8820 0.8820
11.459000 0.8820 0.8820 0.8810 0.8770 0.8760
11.492268 0.8760 0.8740 0.8700 0.8690 0.8660
11.526000 0.8650 0.8640 0.8640 0.8650 0.8650
11.559268 0.8660 0.8660 0.8680 0.8680 0.8660
11.593000 0.8660 0.8640 0.8610 0.8600 0.8580
11.626268 0.8540 0.8530 0.8520 0.8520 0.8520
11.659000 0.8520 0.8500 0.8500 0.8490 0.8480
11.692268 0.8450 0.8440 0.8420 0.8400 0.8360
11.726000 0.8320 0.8300 0.8260 0.8250 0.8220
11.759268 0.8120 0.8040 0.7970 0.7860 0.7760
11.792000 0.7730 0.7660 0.7520 0.7380 0.7240
11.825268 0.7080 0.6970 0.6820 0.6660 0.6500
11.859000 0.6420 0.6360 0.6280 0.6240 0.6200
11.892268 0.6170 0.6170 0.6200 0.6250 0.6290
11.925000 0.6340 0.6410 0.6440 0.6500 0.6570
11.958268 0.6680 0.6730 0.6810 0.6850 0.6880
11.992000 0.6920 0.6920 0.6900 0.6880 0.6880
12.025268 0.6850 0.6800 0.6720 0.6620 0.6520
12.058000 0.6380 0.6220 0.6060 0.5890 0.5700
12.091268 0.5500 0.5180 0.4890 0.4640 0.4410
12.125000 0.4220 0.4060 0.4020 0.3730 0.3680
12.158268 0.3620 0.3580 0.3570 0.3570 0.3580
12.191000 0.3610 0.3690 0.3770 0.3840 0.3880
12.224268 0.3930 0.3970 0.4010 0.4060 0.4130
12.258000 0.4210 0.4300 0.4340 0.4370 0.4420
12.291268 0.4460 0.4520 0.4570 0.4600 0.4610
12.324000 0.4620 0.4640 0.4640 0.4610 0.4580
12.357268 0.4560 0.4540 0.4490 0.4460 0.4400
12.391000 0.4360 0.4210 0.4060 0.3900 0.3700
12.424268 0.3500 0.3280 0.3040 0.2800 0.2530
12.457000 0.2250 0.2130 0.2000 0.1780 0.1610
12.490268 0.1460 0.1340 0.1240 0.1200 0.1130
12.524000 0.1120 0.1120 0.1130 0.1160 0.1300
12.557268 0.1420 0.1540 0.1650 0.1770 0.1890
12.590000 0.1970 0.2370 0.2530 0.2660 0.2740
12.623268 0.3040 0.3320 0.3530 0.3690 0.3860
12.657000 0.4040 0.4220 0.4410 0.4600 0.4770
12.690268 0.4860 0.5050 0.5100 0.5220 0.5410
12.723000 0.5620 0.5820 0.5880 0.5920 0.6000
12.756268 0.6090 0.6180 0.6260 0.6360 0.6450
12.790000 0.6520 0.6570 0.6610 0.6640 0.6720
12.823268 0.6800 0.6880 0.6940 0.6980 0.7020
12.856000 0.7020 0.7040 0.7060 0.7060 0.7080
12.889268 0.7090 0.7090 0.7100 0.7100 0.7120
12.923000 0.7120 0.7130 0.7130 0.7130 0.7140
12.956268 0.7160 0.7160 0.7170 0.7200 0.7210
12.989000 0.7240 0.7260 0.7260 0.7250 0.7250
13.022268 0.7240 0.7220 0.7210 0.7180 0.7170
13.056000 0.7140 0.7100 0.7060 0.7060 0.7040
13.089268 0.7040 0.7020 0.6980 0.6920 0.6840
13.122000 0.6760 0.6700 0.6640 0.6620 0.6540
13.155268 0.6500 0.6410 0.6330 0.6260 0.6200
13.189000 0.6130 0.6050 0.5960 0.5820 0.5760
13.222268 0.5700 0.5660 0.5610 0.5570 0.5560
13.255000 0.5560 0.5570 0.5570 0.5580 0.5600
13.288268 0.5620 0.5660 0.5720 0.5770 0.5810
13.322000 0.5820 0.5840 0.5850 0.5880 0.5890
13.355268 0.5900 0.5900 0.5920 0.5920 0.5900
13.388000 0.5900 0.5890 0.5880 0.5860 0.5860
13.421268 0.5840 0.5820 0.5780 0.5780 0.5770
13.455000 0.5740 0.5730 0.5700 0.5690 0.5680
13.488268 0.5640 0.5600 0.5560 0.5530 0.5500
13.521000 0.5460 0.5410 0.5330 0.5290 0.5280
13.554268 0.5220 0.5180 0.5170 0.5130 0.5000
13.588000 0.4900 0.4850 0.4760 0.4660 0.4580
13.621268 0.4500 0.4440 0.4370 0.4300 0.4210
13.654000 0.4130 0.4020 0.3890 0.3740 0.3700
13.687268 0.3580 0.3420 0.3250 0.3080 0.2920
13.721000 0.2780 0.2700 0.2690 0.2600 0.2500
13.754268 0.2410 0.2290 0.2160 0.2080 0.2000
13.787000 0.1900 0.1810 0.1700 0.1530 0.1450
13.820268 0.1380 0.1200 0.1180 0.1170 0.1130
13.854000 0.1120 0.1120 0.1100 0.1100 0.1090
13.887268 0.1090 0.1080 0.1080 0.1080 0.1060
13.920000 0.1060 0.1060 0.1080 0.1080 0.1080
13.953268 0.1100 0.1120 0.1130 0.1130 0.1130
13.987000 0.1130 0.1130 0.1140 0.1130 0.1120
14.020268 0.1080 0.1060 0.0970 0.0860 0.0850
14.053000 0.0840 0.0820 0.0800 0.0690 0.0610
14.086268 0.0560 0.0530 0.0490 0.0460 0.0440
14.120000 0.0380 0.0360 0.0330 0.0320 0.0320
14.153268 0.0330 0.0340 0.0370 0.0380 0.0410
14.186000 0.0460 0.0500 0.0530 0.0580 0.0640
14.219268 0.0680 0.0700 0.0730 0.0850 0.0940
14.253000 0.1050 0.1140 0.1250 0.1340 0.1490
14.286268 0.1560 0.1680 0.1760 0.1930 0.2250
14.319000 0.2380 0.2540 0.2600 0.2700 0.2820
14.352268 0.2960 0.3090 0.3220 0.3360 0.3490
14.386000 0.3580 0.3650 0.3770 0.3890 0.4010
14.419268 0.4140 0.4260 0.4360 0.4450 0.4500
14.452000 0.4530 0.4620 0.4690 0.4730 0.4770
14.485268 0.4800 0.4810 0.4850 0.4890 0.4940
14.519000 0.5000 0.5050 0.5100 0.5160 0.5200
14.552268 0.5210 0.5210 0.5210 0.5220 0.5220
14.585000 0.5210 0.5210 0.5210 0.5210 0.5200
14.618268 0.5200 0.5170 0.5140 0.5120 0.5090
14.652000 0.5090 0.5020 0.5000 0.4930 0.4850
14.685268 0.4800 0.4780 0.4780 0.4780 0.4780
14.718000 0.4780 0.4760 0.4740 0.4700 0.4600
14.751268 0.4560 0.4500 0.4490 0.4380 0.4340
14.785000 0.4320 0.4300 0.4250 0.4180 0.4100
14.818268 0.4040 0.3980 0.3940 0.3900 0.3880
14.851000 0.3780 0.3690 0.3620 0.3520 0.3410
14.884268 0.3300 0.3210 0.3130 0.3050 0.2960
14.918000 0.2880 0.2800 0.2730 0.2620 0.2500
14.951268 0.2480 0.2300 0.2180 0.2040 0.1980
14.984000 0.1920 0.1890 0.1800 0.1620 0.1560
15.017268 0.1460 0.1440 0.1400 0.1400 0.1400
15.051000 0.1380 0.1380 0.1380 0.1380 0.1370
15.084268 0.1360 0.1340 0.1330 0.1290 0.1240
15.117000 0.1220 0.1200 0.1170 0.1160 0.1140
15.150268 0.1130 0.1120 0.1100 0.1090 0.1080
15.184000 0.1040 0.1010 0.1000 0.0980 0.0960
15.217268 0.0900 0.0850 0.0780 0.0760 0.0760
15.250000 0.0740 0.0730 0.0700 0.0690 0.0680
15.283268 0.0660 0.0660 0.0650 0.0640 0.0620
15.317000 0.0620 0.0610 0.0610 0.0600 0.0600
15.350268 0.0600 0.0580 0.0570 0.0560 0.0570
15.383000 0.0580 0.0600 0.0620 0.0650 0.0660
15.416268 0.0680 0.0690 0.0700 0.0730 0.0770
15.450000 0.0780 0.0800 0.0840 0.0860 0.0890
15.483268 0.0940 0.1000 0.1050 0.1080 0.1120
15.516000 0.1170 0.1240 0.1290 0.1340 0.1380
15.549268 0.1410 0.1480 0.1490 0.1500 0.1530
15.583000 0.1530 0.1570 0.1580 0.1610 0.1640
15.616268 0.1650 0.1660 0.1660 0.1680 0.1690
15.649000 0.1690 0.1700 0.1700 0.1700 0.1690
15.682268 0.1690 0.1680 0.1650 0.1620 0.1530
15.716000 0.1500 0.1440 0.1420 0.1420 0.1420
15.749268 0.1420 0.1410 0.1410 0.1380 0.1370
15.782000 0.1370 0.1330 0.1330 0.1300 0.1200
15.815268 0.1130 0.1120 0.1100 0.1090 0.1080
15.849000 0.1060 0.1020 0.0980 0.0900 0.0860
15.882268 0.0810 0.0780 0.0720 0.0700 0.0690
##END=
