##TITLE=DI-n-PROPYL ETHER
##JCAMP-DX=4.24
##DATA TYPE=INFRARED SPECTRUM
##CLASS=COBLENTZ III
##ORIGIN=DOW CHEMICAL COMPANY
##OWNER=COBLENTZ SOCIETY
Collection (C) 2018 copyright by the U.S. Secretary of Commerce
on behalf of the United States of America. All rights reserved.
##DATE=1964/04/14
##NAMES=dipropyl ether
1-propoxypropane
##CAS REGISTRY NO=111-43-3
##MOLFORM=C6 H14 O
##SOURCE REFERENCE=COBLENTZ NO. 6259
##$NIST SOURCE=COBLENTZ
##$NIST IMAGE=cob6259
##SPECTROMETER/DATA SYSTEM=DOW KBr FOREPRISM-GRATING
##INSTRUMENT PARAMETERS=BLAZED AT 3.5, 12.0, 20.0 MICRONS AND CHANGED AT 5.0, 7.5, 14.9 MICRONS
##STATE=SOLUTION (10% IN CCl4 FOR 3800-1340, 10% IN CS2 FOR 1340-460 CM^-^1)
##PATH LENGTH=0.011 CM, 0.011 CM
$$SPECTRAL CONTAMINATION DUE TO CS2 AROUND 650, 850, AND CCl4 AROUND 1550 CM^-^1
##SAMPLING PROCEDURE=TRANSMISSION
##RESOLUTION=2
##DATA PROCESSING=DIGITIZED BY NIST FROM HARD COPY (FROM TWO SEGMENTS)
##XUNITS=1/CM
##YUNITS=TRANSMITTANCE
##XFACTOR=1.000000
##YFACTOR=1
##DELTAX=0.864554
##FIRSTX=458.501
##LASTX=3804.33
##FIRSTY=0.901
##MAXX=3804.33
##MINX=458.501
##MAXY=0.998
##MINY=0.00217316
##NPOINTS=3871
##XYDATA=(X++(Y..Y))
458.501000 0.9010 0.9010 0.9010 0.9010 0.9010
462.823771 0.9010 0.9030 0.9030 0.9050 0.9070
467.146542 0.9090 0.9110 0.9110 0.9120 0.9120
471.469313 0.9120 0.9130 0.9130 0.9130 0.9130
475.792084 0.9150 0.9150 0.9150 0.9150 0.9160
480.114855 0.9160 0.9160 0.9160 0.9160 0.9160
484.437626 0.9160 0.9150 0.9150 0.9150 0.9150
488.760397 0.9130 0.9130 0.9120 0.9120 0.9110
493.083167 0.9110 0.9090 0.9090 0.9090 0.9090
497.405938 0.9090 0.9090 0.9110 0.9110 0.9110
501.728709 0.9110 0.9110 0.9110 0.9110 0.9110
506.051480 0.9110 0.9110 0.9090 0.9080 0.9070
510.374251 0.9000 0.8990 0.8890 0.8800 0.8760
514.697022 0.8760 0.8800 0.8820 0.8860 0.8930
519.019793 0.8930 0.8900 0.8880 0.8880 0.8860
523.342564 0.8860 0.8860 0.8920 0.8970 0.9040
527.665335 0.9070 0.9080 0.9120 0.9160 0.9160
531.988106 0.9160 0.9170 0.9170 0.9170 0.9170
536.310877 0.9170 0.9190 0.9200 0.9210 0.9240
540.633648 0.9270 0.9270 0.9280 0.9300 0.9310
544.956419 0.9340 0.9350 0.9380 0.9390 0.9390
549.279190 0.9420 0.9430 0.9430 0.9430 0.9430
553.601961 0.9430 0.9430 0.9440 0.9440 0.9460
557.924732 0.9470 0.9480 0.9500 0.9510 0.9520
562.247502 0.9540 0.9550 0.9560 0.9580 0.9590
566.570273 0.9590 0.9600 0.9620 0.9620 0.9630
570.893044 0.9630 0.9650 0.9650 0.9660 0.9660
575.215815 0.9670 0.9670 0.9690 0.9690 0.9690
579.538586 0.9690 0.9690 0.9690 0.9690 0.9690
583.861357 0.9690 0.9690 0.9690 0.9690 0.9690
588.184128 0.9690 0.9700 0.9700 0.9710 0.9710
592.506899 0.9710 0.9710 0.9710 0.9710 0.9710
596.829670 0.9710 0.9710 0.9710 0.9710 0.9710
601.152441 0.9710 0.9710 0.9700 0.9710 0.9710
605.475212 0.9700 0.9700 0.9700 0.9690 0.9690
609.797983 0.9670 0.9670 0.9670 0.9670 0.9670
614.120754 0.9660 0.9660 0.9660 0.9660 0.9660
618.443525 0.9660 0.9660 0.9670 0.9670 0.9670
622.766296 0.9670 0.9670 0.9670 0.9670 0.9670
627.089066 0.9660 0.9660 0.9660 0.9660 0.9650
631.411837 0.9630 0.9620 0.9620 0.9600 0.9590
635.734608 0.9590 0.9580 0.9560 0.9540 0.9520
640.057379 0.9510 0.9500 0.9480 0.9470 0.9420
644.380150 0.9390 0.9350 0.9340 0.9310 0.9300
648.702921 0.9280 0.9270 0.9250 0.9240 0.9210
653.025692 0.9190 0.9150 0.9080 0.9070 0.9070
657.348463 0.9070 0.9130 0.9270 0.9310 0.9360
661.671234 0.9390 0.9440 0.9470 0.9500 0.9510
665.994005 0.9520 0.9520 0.9540 0.9540 0.9550
670.316776 0.9550 0.9560 0.9560 0.9580 0.9580
674.639547 0.9590 0.9590 0.9590 0.9590 0.9590
678.962318 0.9590 0.9600 0.9600 0.9600 0.9600
683.285089 0.9600 0.9600 0.9620 0.9620 0.9620
687.607860 0.9620 0.9620 0.9630 0.9630 0.9630
691.930630 0.9630 0.9630 0.9630 0.9630 0.9630
696.253401 0.9630 0.9630 0.9630 0.9630 0.9630
700.576172 0.9630 0.9630 0.9630 0.9630 0.9650
704.898943 0.9650 0.9630 0.9630 0.9630 0.9630
709.221714 0.9630 0.9630 0.9620 0.9620 0.9620
713.544485 0.9620 0.9620 0.9620 0.9630 0.9630
717.867256 0.9630 0.9630 0.9650 0.9650 0.9630
722.190027 0.9620 0.9600 0.9600 0.9590 0.9590
726.512798 0.9580 0.9580 0.9580 0.9580 0.9580
730.835569 0.9560 0.9560 0.9550 0.9540 0.9510
735.158340 0.9500 0.9480 0.9470 0.9460 0.9430
739.481111 0.9400 0.9350 0.9310 0.9280 0.9270
743.803882 0.9200 0.9160 0.9080 0.9030 0.8970
748.126653 0.8920 0.8880 0.8850 0.8820 0.8810
752.449424 0.8800 0.8690 0.8640 0.8470 0.8420
756.772195 0.8330 0.8290 0.8300 0.8340 0.8618
761.094965 0.8700 0.8770 0.8860 0.8880 0.8990
765.417736 0.9050 0.9110 0.9210 0.9310 0.9340
769.740507 0.9340 0.9320 0.9310 0.9300 0.9270
774.063278 0.9240 0.9160 0.9150 0.9130 0.9130
778.386049 0.9160 0.9230 0.9300 0.9320 0.9360
782.708820 0.9380 0.9400 0.9440 0.9480 0.9500
787.031591 0.9510 0.9520 0.9520 0.9550 0.9550
791.354362 0.9560 0.9580 0.9590 0.9600 0.9600
795.677133 0.9620 0.9620 0.9630 0.9650 0.9650
799.999904 0.9650 0.9650 0.9630 0.9620 0.9590
804.322675 0.9590 0.9590 0.9590 0.9590 0.9590
808.645446 0.9600 0.9620 0.9630 0.9650 0.9660
812.968217 0.9660 0.9670 0.9670 0.9670 0.9670
817.290988 0.9670 0.9670 0.9660 0.9660 0.9650
821.613759 0.9650 0.9630 0.9620 0.9620 0.9590
825.936529 0.9590 0.9590 0.9580 0.9580 0.9560
830.259300 0.9550 0.9540 0.9520 0.9500 0.9430
834.582071 0.9380 0.9340 0.9310 0.9280 0.9250
838.904842 0.9160 0.9070 0.9000 0.8920 0.8860
843.227613 0.8800 0.8680 0.8531 0.8411 0.8370
847.550384 0.8220 0.8080 0.7980 0.7880 0.7810
851.873155 0.7750 0.7690 0.7680 0.7680 0.7680
856.195926 0.7720 0.7720 0.7720 0.7720 0.7710
860.518697 0.7690 0.7670 0.7670 0.7650 0.7600
864.841468 0.7560 0.7530 0.7550 0.7560 0.7600
869.164239 0.7640 0.7670 0.7710 0.7730 0.7750
873.487010 0.7750 0.7750 0.7750 0.7750 0.7750
877.809781 0.7750 0.7730 0.7670 0.7650 0.7650
882.132552 0.7650 0.7640 0.7610 0.7590 0.7560
886.455323 0.7550 0.7530 0.7530 0.7520 0.7530
890.778094 0.7590 0.7590 0.7630 0.7640 0.7650
895.100864 0.7650 0.7650 0.7670 0.7670 0.7630
899.423635 0.7560 0.7480 0.7360 0.7220 0.7090
903.746406 0.7020 0.6940 0.6781 0.6621 0.6461
908.069177 0.6310 0.6160 0.6040 0.5920 0.5820
912.391948 0.5810 0.5810 0.5840 0.5940 0.6079
916.714719 0.6230 0.6370 0.6550 0.6720 0.7019
921.037490 0.7140 0.7220 0.7300 0.7320 0.7320
925.360261 0.7250 0.7170 0.7130 0.7050 0.7010
929.683032 0.6970 0.6870 0.6790 0.6710 0.6431
934.005803 0.6310 0.5840 0.5770 0.5730 0.5700
938.328574 0.5700 0.5720 0.5760 0.5780 0.5879
942.651345 0.5960 0.6010 0.5980 0.5920 0.5860
946.974116 0.5800 0.5042 0.5020 0.5020 0.5080
951.296887 0.5280 0.5590 0.5840 0.6090 0.6409
955.619658 0.7018 0.7279 0.7509 0.7669 0.7760
959.942428 0.7770 0.7800 0.7830 0.7900 0.7920
964.265199 0.8040 0.8120 0.8200 0.8220 0.8330
968.587970 0.8340 0.8340 0.8330 0.8310 0.8250
972.910741 0.8190 0.8110 0.8070 0.7941 0.7811
977.233512 0.7720 0.7680 0.7720 0.7800 0.7910
981.556283 0.8000 0.8120 0.8230 0.8270 0.8270
985.879054 0.8270 0.8270 0.8260 0.8120 0.7910
990.201825 0.7730 0.7610 0.7490 0.7371 0.7211
994.524596 0.6990 0.6780 0.6660 0.6351 0.6151
998.847367 0.6020 0.5960 0.5930 0.5890 0.5840
1003.170138 0.5720 0.5510 0.5200 0.4731 0.4101
1007.492909 0.3701 0.3291 0.3131 0.3140 0.3140
1011.815680 0.3370 0.4219 0.4649 0.5119 0.5569
1016.138451 0.5939 0.6149 0.6150 0.7046 0.7050
1020.461222 0.7050 0.7060 0.7050 0.6990 0.6930
1024.783992 0.6860 0.6710 0.6551 0.6440 0.6430
1029.106763 0.6440 0.6580 0.7099 0.7369 0.7520
1033.429534 0.7570 0.7729 0.7750 0.7720 0.7690
1037.752305 0.7650 0.7610 0.7530 0.7460 0.7300
1042.075076 0.7110 0.7020 0.6930 0.6791 0.6740
1046.397847 0.6470 0.6270 0.6110 0.5970 0.5860
1050.720618 0.5770 0.5660 0.5531 0.5351 0.5121
1055.043389 0.5110 0.5110 0.5150 0.5340 0.5580
1059.366160 0.6119 0.6120 0.6110 0.6090 0.6060
1063.688931 0.6040 0.6010 0.6010 0.5980 0.5930
1068.011702 0.5900 0.5800 0.5760 0.5690 0.5591
1072.334473 0.5460 0.5300 0.5110 0.4880 0.4620
1076.657244 0.4331 0.4011 0.3831 0.3661 0.3252
1080.980015 0.2820 0.2620 0.2570 0.2570 0.2730
1085.302786 0.2710 0.2700 0.2610 0.2530 0.2460
1089.625557 0.2310 0.2190 0.2090 0.1830 0.1600
1093.948327 0.1311 0.1290 0.1250 0.1190 0.1140
1098.271098 0.1090 0.1030 0.0990 0.0980 0.0960
1102.593869 0.0820 0.0760 0.0650 0.0630 0.0610
1106.916640 0.0530 0.0410 0.0330 0.0250 0.0160
1111.239411 0.0160 0.0120 0.0090 0.0090 0.0090
1115.562182 0.0090 0.0090 0.0090 0.0090 0.0090
1119.884953 0.0100 0.0130 0.0140 0.0180 0.0220
1124.207724 0.0300 0.0360 0.0440 0.0530 0.0670
1128.530495 0.0800 0.1109 0.1259 0.1389 0.1489
1132.853266 0.1620 0.1700 0.1810 0.2040 0.2120
1137.176037 0.2160 0.2280 0.2708 0.2959 0.3050
1141.498808 0.3180 0.3330 0.3410 0.3520 0.3580
1145.821579 0.3620 0.3660 0.3710 0.3800 0.4009
1150.144350 0.4010 0.4060 0.4150 0.4250 0.4370
1154.467121 0.4500 0.4679 0.4829 0.4840 0.4930
1158.789891 0.5020 0.5100 0.5120 0.5220 0.5300
1163.112662 0.5470 0.5719 0.5889 0.6009 0.6169
1167.435433 0.6350 0.6540 0.6830 0.6910 0.6910
1171.758204 0.7030 0.7060 0.7140 0.7250 0.7369
1176.080975 0.7420 0.7530 0.7650 0.7810 0.7980
1180.403746 0.8060 0.8110 0.8160 0.8220 0.8290
1184.726517 0.8350 0.8420 0.8450 0.8460 0.8460
1189.049288 0.8530 0.8570 0.8570 0.8600 0.8620
1193.372059 0.8660 0.8690 0.8690 0.8700 0.8720
1197.694830 0.8740 0.8810 0.8840 0.8860 0.8860
1202.017601 0.8880 0.8880 0.8890 0.8920 0.8930
1206.340372 0.8950 0.8960 0.8960 0.8990 0.9030
1210.663143 0.9030 0.9030 0.9040 0.9040 0.9050
1214.985914 0.9050 0.9050 0.9070 0.9070 0.9070
1219.308685 0.9070 0.9070 0.9050 0.9050 0.9050
1223.631455 0.9030 0.9010 0.9000 0.8930 0.8930
1227.954226 0.8920 0.8890 0.8860 0.8840 0.8800
1232.276997 0.8760 0.8720 0.8690 0.8610 0.8510
1236.599768 0.8460 0.8350 0.8250 0.8070 0.7940
1240.922539 0.7870 0.7670 0.7510 0.7380 0.7141
1245.245310 0.7030 0.6930 0.6790 0.6510 0.6241
1249.568081 0.6060 0.6010 0.5960 0.5890 0.5890
1253.890852 0.6270 0.6560 0.6720 0.6820 0.6890
1258.213623 0.6930 0.7020 0.7070 0.7130 0.7210
1262.536394 0.7250 0.7330 0.7410 0.7480 0.7510
1266.859165 0.7520 0.7560 0.7560 0.7560 0.7520
1271.181936 0.7510 0.7460 0.7400 0.7300 0.7250
1275.504707 0.7220 0.7200 0.7130 0.7110 0.7090
1279.827478 0.7090 0.7090 0.7070 0.7070 0.7070
1284.150249 0.7070 0.7070 0.7070 0.7070 0.7070
1288.473020 0.7090 0.7100 0.7140 0.7140 0.7160
1292.795790 0.7200 0.7220 0.7240 0.7240 0.7180
1297.118561 0.7130 0.7060 0.7050 0.7060 0.7070
1301.441332 0.7100 0.7180 0.7240 0.7320 0.7400
1305.764103 0.7480 0.7550 0.7720 0.7860 0.7980
1310.086874 0.8060 0.8140 0.8190 0.8260 0.8310
1314.409645 0.8370 0.8420 0.8450 0.8460 0.8470
1318.732416 0.8500 0.8510 0.8530 0.8530 0.8540
1323.055187 0.8540 0.8530 0.8500 0.8470 0.8460
1327.377958 0.8460 0.8450 0.8410 0.8261 0.8160
1331.700729 0.8080 0.8000 0.7920 0.7840 0.7750
1336.023500 0.7670 0.7590 0.7510 0.7440 0.7141
1340.346271 0.6980 0.6820 0.6630 0.6500 0.6500
1344.669042 0.6510 0.7018 0.7140 0.7180 0.7299
1348.991813 0.7670 0.7680 0.7680 0.7670 0.7640
1353.314584 0.7570 0.7400 0.7240 0.7071 0.7020
1357.637354 0.6969 0.5730 0.5320 0.5000 0.4501
1361.960125 0.4211 0.3901 0.3631 0.3291 0.3270
1366.282896 0.3270 0.3320 0.3470 0.4090 0.4320
1370.605667 0.4540 0.4540 0.4460 0.4301 0.4111
1374.928438 0.4050 0.3980 0.3660 0.3330 0.3130
1379.251209 0.2891 0.2621 0.2590 0.2620 0.2690
1383.573980 0.3332 0.4830 0.5490 0.5960 0.6240
1387.896751 0.7358 0.7400 0.7440 0.7599 0.7600
1392.219522 0.7590 0.7590 0.7570 0.7570 0.7570
1396.542293 0.7600 0.7670 0.7750 0.7830 0.7870
1400.865064 0.7910 0.7920 0.7920 0.7910 0.7860
1405.187835 0.7830 0.7770 0.7750 0.7670 0.7630
1409.510606 0.7610 0.7570 0.7570 0.7570 0.7570
1413.833377 0.7630 0.7710 0.7760 0.7870 0.7920
1418.156148 0.7980 0.8000 0.8040 0.8100 0.8100
1422.478919 0.8100 0.8100 0.8100 0.8060 0.8000
1426.801689 0.7950 0.7940 0.7840 0.7730 0.7640
1431.124460 0.7530 0.7410 0.7221 0.7031 0.6851
1435.447231 0.6630 0.5960 0.5630 0.5620 0.5660
1439.770002 0.5800 0.5890 0.5980 0.5980 0.5980
1444.092773 0.5900 0.5780 0.5670 0.5420 0.5100
1448.415544 0.4761 0.4381 0.3991 0.3880 0.3761
1452.738315 0.3130 0.2820 0.2730 0.2660 0.2590
1457.061086 0.2580 0.2530 0.2470 0.2440 0.2430
1461.383857 0.2260 0.1910 0.1830 0.1830 0.1830
1465.706628 0.1910 0.2159 0.2688 0.3308 0.3330
1470.029399 0.3480 0.3760 0.3780 0.4140 0.4400
1474.352170 0.4669 0.4879 0.5139 0.5379 0.5380
1478.674941 0.5370 0.5200 0.5040 0.4950 0.4870
1482.997712 0.4770 0.4710 0.4620 0.4670 0.5019
1487.320483 0.5200 0.6000 0.6470 0.6750 0.7099
1491.643253 0.7329 0.7440 0.7530 0.7590 0.7650
1495.966024 0.7670 0.7670 0.7670 0.7670 0.7640
1500.288795 0.7640 0.7610 0.7600 0.7590 0.7570
1504.611566 0.7550 0.7490 0.7450 0.7420 0.7360
1508.934337 0.7300 0.7280 0.7250 0.7240 0.7220
1513.257108 0.7200 0.7160 0.7100 0.7070 0.7050
1517.579879 0.7010 0.6990 0.6970 0.6930 0.6900
1521.902650 0.6870 0.6790 0.6780 0.6750 0.6700
1526.225421 0.6660 0.6640 0.6600 0.6550 0.6440
1530.548192 0.6370 0.6350 0.6240 0.6150 0.6050
1534.870963 0.6000 0.5900 0.5810 0.5691 0.5551
1539.193734 0.5450 0.5340 0.5240 0.5160 0.5100
1543.516505 0.5030 0.4970 0.4920 0.4890 0.4870
1547.839276 0.4850 0.4840 0.4870 0.4870 0.4880
1552.162047 0.4910 0.4990 0.5030 0.5070 0.5189
1556.484817 0.5220 0.5380 0.5490 0.5580 0.5630
1560.807588 0.5690 0.5740 0.5820 0.5900 0.6020
1565.130359 0.6090 0.6160 0.6250 0.6330 0.6430
1569.453130 0.6510 0.6560 0.6590 0.6590 0.6620
1573.775901 0.6630 0.6660 0.6670 0.6680 0.6700
1578.098672 0.6720 0.6750 0.6760 0.6780 0.6790
1582.421443 0.6820 0.6850 0.6900 0.6990 0.7050
1586.744214 0.7110 0.7180 0.7250 0.7300 0.7400
1591.066985 0.7480 0.7560 0.7640 0.7730 0.7810
1595.389756 0.7900 0.7980 0.8060 0.8150 0.8220
1599.712527 0.8300 0.8380 0.8450 0.8510 0.8600
1604.035298 0.8660 0.8700 0.8720 0.8780 0.8840
1608.358069 0.8880 0.8930 0.8970 0.9000 0.9040
1612.680840 0.9080 0.9110 0.9130 0.9150 0.9190
1617.003611 0.9230 0.9240 0.9280 0.9300 0.9310
1621.326382 0.9320 0.9340 0.9350 0.9360 0.9380
1625.649152 0.9390 0.9420 0.9420 0.9430 0.9440
1629.971923 0.9440 0.9460 0.9470 0.9470 0.9480
1634.294694 0.9480 0.9500 0.9500 0.9510 0.9510
1638.617465 0.9520 0.9520 0.9540 0.9540 0.9540
1642.940236 0.9540 0.9540 0.9550 0.9550 0.9550
1647.263007 0.9550 0.9550 0.9550 0.9550 0.9550
1651.585778 0.9550 0.9550 0.9560 0.9560 0.9560
1655.908549 0.9560 0.9580 0.9580 0.9580 0.9580
1660.231320 0.9580 0.9580 0.9580 0.9580 0.9580
1664.554091 0.9580 0.9580 0.9580 0.9590 0.9590
1668.876862 0.9590 0.9590 0.9590 0.9590 0.9600
1673.199633 0.9600 0.9600 0.9600 0.9600 0.9600
1677.522404 0.9620 0.9620 0.9620 0.9620 0.9620
1681.845175 0.9620 0.9620 0.9620 0.9630 0.9620
1686.167946 0.9620 0.9620 0.9620 0.9620 0.9620
1690.490716 0.9600 0.9600 0.9600 0.9600 0.9600
1694.813487 0.9620 0.9620 0.9630 0.9650 0.9650
1699.136258 0.9650 0.9650 0.9650 0.9650 0.9650
1703.459029 0.9650 0.9650 0.9650 0.9650 0.9630
1707.781800 0.9630 0.9630 0.9620 0.9620 0.9620
1712.104571 0.9600 0.9600 0.9590 0.9590 0.9580
1716.427342 0.9580 0.9560 0.9550 0.9550 0.9550
1720.750113 0.9550 0.9550 0.9550 0.9550 0.9550
1725.072884 0.9540 0.9540 0.9540 0.9540 0.9540
1729.395655 0.9540 0.9520 0.9520 0.9520 0.9510
1733.718426 0.9510 0.9510 0.9510 0.9510 0.9510
1738.041197 0.9510 0.9510 0.9520 0.9540 0.9540
1742.363968 0.9540 0.9540 0.9540 0.9540 0.9540
1746.686739 0.9540 0.9540 0.9540 0.9540 0.9520
1751.009510 0.9520 0.9510 0.9510 0.9500 0.9500
1755.332281 0.9470 0.9470 0.9460 0.9460 0.9460
1759.655051 0.9440 0.9440 0.9440 0.9440 0.9460
1763.977822 0.9460 0.9470 0.9480 0.9480 0.9480
1768.300593 0.9480 0.9480 0.9470 0.9440 0.9430
1772.623364 0.9420 0.9420 0.9400 0.9400 0.9400
1776.946135 0.9400 0.9400 0.9400 0.9420 0.9430
1781.268906 0.9440 0.9470 0.9470 0.9480 0.9500
1785.591677 0.9520 0.9540 0.9550 0.9560 0.9580
1789.914448 0.9590 0.9600 0.9620 0.9630 0.9630
1794.237219 0.9630 0.9630 0.9650 0.9660 0.9660
1798.559990 0.9670 0.9670 0.9670 0.9660 0.9660
1802.882761 0.9660 0.9660 0.9660 0.9660 0.9660
1807.205532 0.9660 0.9660 0.9660 0.9650 0.9650
1811.528303 0.9650 0.9630 0.9630 0.9620 0.9620
1815.851074 0.9620 0.9620 0.9600 0.9600 0.9600
1820.173845 0.9600 0.9600 0.9600 0.9600 0.9600
1824.496615 0.9600 0.9600 0.9600 0.9600 0.9600
1828.819386 0.9600 0.9600 0.9600 0.9600 0.9620
1833.142157 0.9630 0.9620 0.9620 0.9620 0.9620
1837.464928 0.9620 0.9600 0.9600 0.9590 0.9590
1841.787699 0.9580 0.9580 0.9560 0.9560 0.9550
1846.110470 0.9540 0.9540 0.9540 0.9540 0.9540
1850.433241 0.9540 0.9540 0.9540 0.9540 0.9520
1854.756012 0.9520 0.9520 0.9510 0.9500 0.9500
1859.078783 0.9500 0.9500 0.9480 0.9480 0.9470
1863.401554 0.9500 0.9500 0.9500 0.9500 0.9500
1867.724325 0.9500 0.9500 0.9500 0.9500 0.9510
1872.047096 0.9510 0.9510 0.9520 0.9520 0.9520
1876.369867 0.9540 0.9540 0.9540 0.9540 0.9550
1880.692638 0.9550 0.9550 0.9550 0.9550 0.9560
1885.015409 0.9560 0.9560 0.9560 0.9560 0.9560
1889.338179 0.9560 0.9560 0.9560 0.9560 0.9560
1893.660950 0.9560 0.9560 0.9560 0.9560 0.9560
1897.983721 0.9560 0.9550 0.9550 0.9540 0.9550
1902.306492 0.9550 0.9550 0.9550 0.9550 0.9560
1906.629263 0.9560 0.9560 0.9560 0.9560 0.9560
1910.952034 0.9580 0.9580 0.9580 0.9580 0.9590
1915.274805 0.9590 0.9590 0.9590 0.9590 0.9590
1919.597576 0.9590 0.9590 0.9590 0.9590 0.9580
1923.920347 0.9590 0.9590 0.9590 0.9590 0.9580
1928.243118 0.9580 0.9560 0.9560 0.9560 0.9560
1932.565889 0.9560 0.9560 0.9560 0.9560 0.9560
1936.888660 0.9560 0.9560 0.9560 0.9560 0.9560
1941.211431 0.9560 0.9560 0.9560 0.9560 0.9560
1945.534202 0.9560 0.9560 0.9560 0.9560 0.9560
1949.856973 0.9560 0.9580 0.9590 0.9590 0.9590
1954.179744 0.9590 0.9590 0.9590 0.9590 0.9590
1958.502514 0.9580 0.9580 0.9550 0.9550 0.9550
1962.825285 0.9550 0.9550 0.9550 0.9550 0.9550
1967.148056 0.9550 0.9560 0.9560 0.9600 0.9600
1971.470827 0.9600 0.9600 0.9590 0.9580 0.9580
1975.793598 0.9580 0.9580 0.9560 0.9560 0.9550
1980.116369 0.9550 0.9580 0.9580 0.9580 0.9580
1984.439140 0.9580 0.9580 0.9580 0.9560 0.9560
1988.761911 0.9560 0.9560 0.9550 0.9550 0.9550
1993.084682 0.9550 0.9540 0.9520 0.9500 0.9480
1997.407453 0.9500 0.9510 0.9510 0.9540 0.9540
2001.730224 0.9540 0.9545 0.9550 0.9550 0.9550
2006.052995 0.9550 0.9550 0.9550 0.9550 0.9550
2010.375766 0.9550 0.9550 0.9551 0.9556 0.9562
2014.698537 0.9572 0.9580 0.9580 0.9580 0.9580
2019.021308 0.9580 0.9580 0.9580 0.9580 0.9577
2023.344078 0.9567 0.9560 0.9560 0.9560 0.9560
2027.666849 0.9560 0.9560 0.9560 0.9560 0.9558
2031.989620 0.9553 0.9548 0.9543 0.9540 0.9540
2036.312391 0.9535 0.9525 0.9520 0.9520 0.9517
2040.635162 0.9512 0.9510 0.9510 0.9507 0.9502
2044.957933 0.9494 0.9484 0.9477 0.9472 0.9461
2049.280704 0.9445 0.9437 0.9432 0.9427 0.9421
2053.603475 0.9413 0.9403 0.9393 0.9383 0.9369
2057.926246 0.9354 0.9346 0.9341 0.9340 0.9340
2062.249017 0.9340 0.9340 0.9340 0.9340 0.9344
2066.571788 0.9349 0.9354 0.9360 0.9369 0.9379
2070.894559 0.9389 0.9400 0.9410 0.9420 0.9425
2075.217330 0.9430 0.9435 0.9440 0.9450 0.9460
2079.540101 0.9465 0.9471 0.9486 0.9500 0.9505
2083.862872 0.9510 0.9510 0.9511 0.9516 0.9520
2088.185643 0.9520 0.9522 0.9532 0.9540 0.9540
2092.508413 0.9541 0.9546 0.9550 0.9550 0.9551
2096.831184 0.9556 0.9563 0.9573 0.9580 0.9580
2101.153955 0.9582 0.9587 0.9596 0.9611 0.9622
2105.476726 0.9627 0.9636 0.9651 0.9662 0.9667
2109.799497 0.9675 0.9685 0.9695 0.9705 0.9715
2114.122268 0.9725 0.9733 0.9738 0.9743 0.9748
2118.445039 0.9750 0.9750 0.9756 0.9766 0.9770
2122.767810 0.9770 0.9770 0.9770 0.9770 0.9770
2127.090581 0.9770 0.9770 0.9770 0.9770 0.9770
2131.413352 0.9770 0.9770 0.9770 0.9770 0.9770
2135.736123 0.9770 0.9770 0.9770 0.9770 0.9770
2140.058894 0.9770 0.9770 0.9770 0.9770 0.9770
2144.381665 0.9775 0.9780 0.9775 0.9770 0.9770
2148.704436 0.9770 0.9770 0.9770 0.9770 0.9770
2153.027207 0.9770 0.9770 0.9770 0.9770 0.9770
2157.349977 0.9770 0.9770 0.9770 0.9770 0.9770
2161.672748 0.9770 0.9771 0.9776 0.9779 0.9774
2165.995519 0.9770 0.9770 0.9768 0.9758 0.9749
2170.318290 0.9744 0.9739 0.9734 0.9727 0.9717
2174.641061 0.9708 0.9703 0.9700 0.9700 0.9700
2178.963832 0.9700 0.9698 0.9693 0.9690 0.9690
2183.286603 0.9686 0.9676 0.9670 0.9670 0.9670
2187.609374 0.9670 0.9670 0.9670 0.9670 0.9670
2191.932145 0.9667 0.9662 0.9660 0.9660 0.9660
2196.254916 0.9660 0.9660 0.9660 0.9660 0.9660
2200.577687 0.9660 0.9660 0.9660 0.9660 0.9660
2204.900458 0.9660 0.9660 0.9660 0.9660 0.9660
2209.223229 0.9660 0.9660 0.9660 0.9660 0.9660
2213.546000 0.9660 0.9660 0.9660 0.9660 0.9660
2217.868771 0.9664 0.9670 0.9670 0.9670 0.9670
2222.191541 0.9670 0.9680 0.9690 0.9690 0.9690
2226.514312 0.9690 0.9690 0.9690 0.9690 0.9690
2230.837083 0.9690 0.9690 0.9690 0.9690 0.9690
2235.159854 0.9690 0.9690 0.9690 0.9690 0.9690
2239.482625 0.9690 0.9690 0.9688 0.9678 0.9670
2243.805396 0.9670 0.9669 0.9664 0.9660 0.9660
2248.128167 0.9659 0.9653 0.9650 0.9650 0.9647
2252.450938 0.9636 0.9630 0.9630 0.9628 0.9623
2256.773709 0.9620 0.9620 0.9613 0.9598 0.9590
2261.096480 0.9590 0.9590 0.9590 0.9587 0.9582
2265.419251 0.9580 0.9580 0.9580 0.9580 0.9574
2269.742022 0.9564 0.9560 0.9560 0.9560 0.9560
2274.064793 0.9557 0.9552 0.9547 0.9542 0.9540
2278.387564 0.9540 0.9540 0.9540 0.9540 0.9540
2282.710335 0.9540 0.9540 0.9532 0.9522 0.9520
2287.033106 0.9520 0.9520 0.9520 0.9520 0.9520
2291.355876 0.9516 0.9511 0.9515 0.9520 0.9520
2295.678647 0.9520 0.9529 0.9540 0.9540 0.9540
2300.001418 0.9545 0.9550 0.9550 0.9550 0.9555
2304.324189 0.9560 0.9560 0.9561 0.9571 0.9580
2308.646960 0.9580 0.9581 0.9586 0.9590 0.9590
2312.969731 0.9591 0.9596 0.9600 0.9600 0.9602
2317.292502 0.9612 0.9620 0.9620 0.9621 0.9626
2321.615273 0.9633 0.9643 0.9650 0.9650 0.9650
2325.938044 0.9650 0.9652 0.9657 0.9660 0.9660
2330.260815 0.9660 0.9660 0.9660 0.9660 0.9660
2334.583586 0.9660 0.9660 0.9660 0.9658 0.9653
2338.906357 0.9645 0.9635 0.9630 0.9630 0.9630
2343.229128 0.9630 0.9630 0.9630 0.9630 0.9630
2347.551899 0.9636 0.9646 0.9666 0.9692 0.9703
2351.874670 0.9708 0.9717 0.9727 0.9734 0.9739
2356.197440 0.9744 0.9749 0.9750 0.9750 0.9758
2360.520211 0.9768 0.9770 0.9770 0.9770 0.9770
2364.842982 0.9770 0.9770 0.9770 0.9770 0.9770
2369.165753 0.9770 0.9770 0.9770 0.9770 0.9770
2373.488524 0.9770 0.9770 0.9770 0.9770 0.9770
2377.811295 0.9770 0.9770 0.9770 0.9770 0.9770
2382.134066 0.9770 0.9770 0.9770 0.9770 0.9770
2386.456837 0.9769 0.9758 0.9749 0.9744 0.9739
2390.779608 0.9734 0.9726 0.9705 0.9690 0.9690
2395.102379 0.9690 0.9690 0.9690 0.9690 0.9690
2399.425150 0.9690 0.9690 0.9690 0.9690 0.9690
2403.747921 0.9690 0.9690 0.9690 0.9690 0.9692
2408.070692 0.9697 0.9702 0.9707 0.9715 0.9725
2412.393463 0.9730 0.9730 0.9730 0.9730 0.9741
2416.716234 0.9761 0.9770 0.9770 0.9773 0.9778
2421.039005 0.9783 0.9788 0.9796 0.9806 0.9810
2425.361775 0.9810 0.9810 0.9810 0.9810 0.9810
2429.684546 0.9810 0.9810 0.9810 0.9810 0.9810
2434.007317 0.9810 0.9810 0.9810 0.9802 0.9792
2438.330088 0.9790 0.9790 0.9790 0.9790 0.9790
2442.652859 0.9790 0.9790 0.9790 0.9790 0.9790
2446.975630 0.9790 0.9790 0.9790 0.9790 0.9790
2451.298401 0.9790 0.9790 0.9790 0.9790 0.9790
2455.621172 0.9790 0.9790 0.9790 0.9790 0.9790
2459.943943 0.9790 0.9790 0.9790 0.9790 0.9790
2464.266714 0.9790 0.9790 0.9790 0.9790 0.9790
2468.589485 0.9790 0.9790 0.9790 0.9790 0.9790
2472.912256 0.9790 0.9790 0.9790 0.9790 0.9790
2477.235027 0.9790 0.9790 0.9790 0.9790 0.9790
2481.557798 0.9790 0.9790 0.9790 0.9790 0.9790
2485.880569 0.9790 0.9790 0.9790 0.9790 0.9790
2490.203339 0.9790 0.9790 0.9790 0.9790 0.9790
2494.526110 0.9790 0.9790 0.9790 0.9790 0.9790
2498.848881 0.9790 0.9790 0.9790 0.9790 0.9790
2503.171652 0.9790 0.9790 0.9790 0.9790 0.9790
2507.494423 0.9790 0.9790 0.9790 0.9790 0.9790
2511.817194 0.9790 0.9790 0.9790 0.9790 0.9790
2516.139965 0.9790 0.9790 0.9790 0.9790 0.9790
2520.462736 0.9790 0.9790 0.9785 0.9780 0.9780
2524.785507 0.9780 0.9780 0.9780 0.9780 0.9780
2529.108278 0.9780 0.9780 0.9780 0.9780 0.9780
2533.431049 0.9780 0.9780 0.9780 0.9780 0.9779
2537.753820 0.9774 0.9770 0.9770 0.9770 0.9770
2542.076591 0.9768 0.9758 0.9750 0.9750 0.9749
2546.399362 0.9744 0.9739 0.9733 0.9727 0.9717
2550.722133 0.9710 0.9710 0.9708 0.9703 0.9698
2555.044903 0.9693 0.9686 0.9676 0.9674 0.9684
2559.367674 0.9683 0.9668 0.9658 0.9653 0.9645
2563.690445 0.9635 0.9622 0.9607 0.9595 0.9584
2568.013216 0.9571 0.9556 0.9541 0.9526 0.9514
2572.335987 0.9504 0.9487 0.9467 0.9447 0.9427
2576.658758 0.9400 0.9369 0.9346 0.9326 0.9316
2580.981529 0.9311 0.9283 0.9248 0.9228 0.9213
2585.304300 0.9190 0.9165 0.9156 0.9151 0.9142
2589.627071 0.9131 0.9126 0.9121 0.9116 0.9111
2593.949842 0.9101 0.9091 0.9090 0.9090 0.9100
2598.272613 0.9110 0.9115 0.9120 0.9125 0.9130
2602.595384 0.9140 0.9150 0.9161 0.9171 0.9186
2606.918155 0.9200 0.9205 0.9212 0.9227 0.9241
2611.240926 0.9246 0.9251 0.9262 0.9273 0.9294
2615.563697 0.9311 0.9316 0.9323 0.9339 0.9350
2619.886468 0.9350 0.9350 0.9350 0.9351 0.9357
2624.209238 0.9360 0.9360 0.9360 0.9360 0.9360
2628.532009 0.9360 0.9360 0.9360 0.9358 0.9353
2632.854780 0.9348 0.9343 0.9335 0.9325 0.9320
2637.177551 0.9320 0.9317 0.9312 0.9302 0.9287
2641.500322 0.9277 0.9272 0.9264 0.9254 0.9247
2645.823093 0.9242 0.9237 0.9232 0.9220 0.9205
2650.145864 0.9190 0.9175 0.9156 0.9136 0.9126
2654.468635 0.9121 0.9094 0.9059 0.9016 0.8971
2658.791406 0.8944 0.8924 0.8912 0.8902 0.8892
2663.114177 0.8882 0.8851 0.8815 0.8797 0.8782
2667.436948 0.8780 0.8780 0.8780 0.8780 0.8789
2671.759719 0.8800 0.8805 0.8810 0.8815 0.8820
2676.082490 0.8820 0.8820 0.8820 0.8820 0.8815
2680.405261 0.8810 0.8805 0.8799 0.8789 0.8778
2684.728032 0.8757 0.8739 0.8728 0.8710 0.8650
2689.050802 0.8592 0.8546 0.8500 0.8449 0.8402
2693.373573 0.8367 0.8323 0.8252 0.8188 0.8142
2697.696344 0.8103 0.8078 0.8049 0.8013 0.7978
2702.019115 0.7942 0.7896 0.7830 0.7755 0.7664
2706.341886 0.7589 0.7539 0.7490 0.7445 0.7418
2710.664657 0.7413 0.7400 0.7380 0.7360 0.7340
2714.987428 0.7327 0.7322 0.7315 0.7304 0.7297
2719.310199 0.7292 0.7281 0.7266 0.7241 0.7211
2723.632970 0.7168 0.7117 0.7070 0.7025 0.6989
2727.955741 0.6959 0.6932 0.6907 0.6896 0.6891
2732.278512 0.6950 0.7031 0.7093 0.7149 0.7196
2736.601283 0.7242 0.7254 0.7259 0.7256 0.7251
2740.924054 0.7237 0.7222 0.7216 0.7210 0.7196
2745.246825 0.7181 0.7175 0.7170 0.7156 0.7140
2749.569596 0.7120 0.7100 0.7095 0.7090 0.7080
2753.892366 0.7071 0.7081 0.7091 0.7112 0.7131
2758.215137 0.7147 0.7161 0.7171 0.7179 0.7174
2762.537908 0.7165 0.7135 0.7103 0.7062 0.7025
2766.860679 0.7000 0.6972 0.6936 0.6898 0.6853
2771.183450 0.6792 0.6691 0.6576 0.6429 0.6276
2775.506221 0.6110 0.5941 0.5769 0.5598 0.5426
2779.828992 0.5270 0.5138 0.5017 0.4911 0.4831
2784.151763 0.4785 0.4653 0.4413 0.4251 0.4170
2788.474534 0.4084 0.3993 0.3894 0.3788 0.3712
2792.797305 0.3662 0.3640 0.3640 0.3497 0.3254
2797.120076 0.3151 0.3136 0.3133 0.3138 0.3153
2801.442847 0.3173 0.3497 0.3966 0.4270 0.4507
2805.765618 0.4681 0.4833 0.4920 0.4985 0.5043
2810.088389 0.5099 0.5098 0.5083 0.5043 0.4997
2814.411160 0.4965 0.4934 0.4817 0.4686 0.4568
2818.733931 0.4451 0.4376 0.4304 0.4224 0.4143
2823.056701 0.4067 0.3991 0.3896 0.3800 0.3709
2827.379472 0.3612 0.3304 0.3003 0.2862 0.2725
2831.702243 0.2644 0.2557 0.2410 0.2267 0.2151
2836.025014 0.1997 0.1594 0.1243 0.1142 0.1054
2840.347785 0.1024 0.0982 0.0896 0.0809 0.0718
2844.670556 0.0583 0.0321 0.0126 0.0111 0.0100
2848.993327 0.0100 0.0100 0.0100 0.0100 0.0100
2853.316098 0.0104 0.0114 0.0122 0.0127 0.0130
2857.638869 0.0130 0.0132 0.0137 0.0147 0.0162
2861.961640 0.0172 0.0177 0.0185 0.0195 0.0203
2866.284411 0.0208 0.0210 0.0210 0.0207 0.0202
2870.607182 0.0200 0.0200 0.0191 0.0175 0.0170
2874.929953 0.0170 0.0180 0.0195 0.0221 0.0251
2879.252724 0.0289 0.0329 0.0381 0.0436 0.0526
2883.575495 0.0627 0.0876 0.1169 0.1394 0.1602
2887.898265 0.1644 0.1649 0.1689 0.1734 0.1762
2892.221036 0.1787 0.1795 0.1800 0.1795 0.1790
2896.543807 0.1776 0.1761 0.1750 0.1740 0.1735
2900.866578 0.1730 0.1715 0.1699 0.1674 0.1648
2905.189349 0.1607 0.1565 0.1499 0.1431 0.1345
2909.512120 0.1262 0.1202 0.1146 0.1121 0.1092
2913.834891 0.1041 0.0991 0.0940 0.0874 0.0747
2918.157662 0.0634 0.0563 0.0492 0.0422 0.0366
2922.480433 0.0351 0.0318 0.0247 0.0193 0.0173
2926.803204 0.0155 0.0140 0.0124 0.0109 0.0100
2931.125975 0.0100 0.0100 0.0100 0.0100 0.0100
2935.448746 0.0105 0.0115 0.0122 0.0127 0.0140
2939.771517 0.0161 0.0205 0.0271 0.0359 0.0465
2944.094288 0.0516 0.0526 0.0530 0.0530 0.0470
2948.417059 0.0374 0.0288 0.0207 0.0173 0.0163
2952.739830 0.0150 0.0134 0.0119 0.0104 0.0093
2957.062600 0.0082 0.0068 0.0053 0.0046 0.0041
2961.385371 0.0032 0.0022 0.0028 0.0038 0.0040
2965.708142 0.0040 0.0044 0.0049 0.0050 0.0050
2970.030913 0.0064 0.0079 0.0099 0.0119 0.0130
2974.353684 0.0140 0.0155 0.0171 0.0226 0.0283
2978.676455 0.0364 0.0446 0.0552 0.0663 0.0835
2982.999226 0.1005 0.1162 0.1319 0.1481 0.1649
2987.321997 0.1856 0.2112 0.2623 0.3146 0.3727
2991.644768 0.4237 0.4495 0.4838 0.5450 0.5904
2995.967539 0.5919 0.5949 0.6014 0.6083 0.6159
3000.290310 0.6235 0.6311 0.6386 0.6462 0.6542
3004.613081 0.6628 0.6757 0.6954 0.7118 0.7235
3008.935852 0.7325 0.7381 0.7436 0.7492 0.7542
3013.258623 0.7588 0.7646 0.7717 0.7807 0.7913
3017.581394 0.7988 0.8039 0.8075 0.8100 0.8119
3021.904164 0.8134 0.8146 0.8156 0.8193 0.8244
3026.226935 0.8291 0.8336 0.8375 0.8410 0.8431
3030.549706 0.8446 0.8469 0.8494 0.8512 0.8527
3034.872477 0.8550 0.8575 0.8621 0.8671 0.8688
3039.195248 0.8698 0.8709 0.8719 0.8729 0.8739
3043.518019 0.8754 0.8769 0.8784 0.8799 0.8824
3047.840790 0.8849 0.8870 0.8890 0.8905 0.8920
3052.163561 0.8925 0.8930 0.8940 0.8951 0.8961
3056.486332 0.8971 0.8992 0.9011 0.9027 0.9041
3060.809103 0.9046 0.9052 0.9062 0.9071 0.9076
3065.131874 0.9081 0.9086 0.9092 0.9102 0.9111
3069.454645 0.9116 0.9121 0.9126 0.9134 0.9149
3073.777416 0.9160 0.9160 0.9162 0.9167 0.9174
3078.100187 0.9184 0.9192 0.9197 0.9202 0.9207
3082.422958 0.9214 0.9224 0.9232 0.9237 0.9242
3086.745728 0.9247 0.9255 0.9265 0.9270 0.9270
3091.068499 0.9273 0.9278 0.9280 0.9280 0.9280
3095.391270 0.9280 0.9286 0.9296 0.9300 0.9300
3099.714041 0.9300 0.9300 0.9303 0.9308 0.9310
3104.036812 0.9310 0.9310 0.9310 0.9314 0.9319
3108.359583 0.9320 0.9320 0.9320 0.9320 0.9320
3112.682354 0.9320 0.9320 0.9320 0.9320 0.9320
3117.005125 0.9320 0.9320 0.9320 0.9320 0.9329
3121.327896 0.9339 0.9340 0.9340 0.9340 0.9340
3125.650667 0.9340 0.9340 0.9340 0.9340 0.9340
3129.973438 0.9340 0.9340 0.9340 0.9340 0.9341
3134.296209 0.9346 0.9350 0.9350 0.9350 0.9350
3138.618980 0.9351 0.9356 0.9360 0.9360 0.9362
3142.941751 0.9372 0.9380 0.9380 0.9380 0.9380
3147.264522 0.9381 0.9387 0.9390 0.9390 0.9392
3151.587293 0.9397 0.9404 0.9414 0.9420 0.9420
3155.910063 0.9420 0.9420 0.9420 0.9420 0.9420
3160.232834 0.9420 0.9420 0.9420 0.9420 0.9420
3164.555605 0.9420 0.9420 0.9420 0.9420 0.9420
3168.878376 0.9420 0.9423 0.9428 0.9430 0.9430
3173.201147 0.9430 0.9430 0.9430 0.9430 0.9430
3177.523918 0.9430 0.9434 0.9439 0.9447 0.9457
3181.846689 0.9468 0.9478 0.9480 0.9480 0.9488
3186.169460 0.9498 0.9504 0.9509 0.9510 0.9510
3190.492231 0.9514 0.9519 0.9529 0.9539 0.9540
3194.815002 0.9540 0.9545 0.9550 0.9555 0.9560
3199.137773 0.9560 0.9560 0.9570 0.9580 0.9585
3203.460544 0.9590 0.9595 0.9601 0.9611 0.9620
3207.783315 0.9625 0.9630 0.9630 0.9631 0.9641
3212.106086 0.9650 0.9650 0.9650 0.9650 0.9651
3216.428857 0.9656 0.9660 0.9660 0.9660 0.9660
3220.751627 0.9660 0.9660 0.9661 0.9667 0.9670
3225.074398 0.9670 0.9670 0.9670 0.9674 0.9684
3229.397169 0.9690 0.9690 0.9690 0.9690 0.9692
3233.719940 0.9697 0.9700 0.9700 0.9700 0.9700
3238.042711 0.9703 0.9708 0.9715 0.9725 0.9730
3242.365482 0.9730 0.9733 0.9738 0.9740 0.9740
3246.688253 0.9743 0.9748 0.9750 0.9750 0.9757
3251.011024 0.9767 0.9770 0.9770 0.9774 0.9779
3255.333795 0.9780 0.9780 0.9780 0.9780 0.9780
3259.656566 0.9780 0.9780 0.9780 0.9780 0.9780
3263.979337 0.9780 0.9780 0.9784 0.9789 0.9790
3268.302108 0.9790 0.9790 0.9790 0.9790 0.9790
3272.624879 0.9790 0.9790 0.9790 0.9790 0.9790
3276.947650 0.9790 0.9800 0.9810 0.9810 0.9810
3281.270421 0.9810 0.9810 0.9810 0.9811 0.9816
3285.593192 0.9820 0.9820 0.9820 0.9820 0.9820
3289.915962 0.9820 0.9821 0.9826 0.9830 0.9830
3294.238733 0.9830 0.9830 0.9830 0.9830 0.9830
3298.561504 0.9830 0.9833 0.9843 0.9850 0.9850
3302.884275 0.9850 0.9850 0.9850 0.9850 0.9850
3307.207046 0.9850 0.9850 0.9850 0.9850 0.9850
3311.529817 0.9850 0.9850 0.9850 0.9850 0.9850
3315.852588 0.9850 0.9850 0.9850 0.9850 0.9850
3320.175359 0.9850 0.9850 0.9853 0.9858 0.9860
3324.498130 0.9860 0.9860 0.9860 0.9860 0.9860
3328.820901 0.9860 0.9860 0.9860 0.9860 0.9860
3333.143672 0.9860 0.9864 0.9869 0.9870 0.9870
3337.466443 0.9870 0.9870 0.9870 0.9870 0.9870
3341.789214 0.9870 0.9870 0.9870 0.9870 0.9870
3346.111985 0.9870 0.9870 0.9884 0.9900 0.9900
3350.434756 0.9900 0.9900 0.9900 0.9900 0.9900
3354.757526 0.9900 0.9900 0.9900 0.9900 0.9900
3359.080297 0.9901 0.9906 0.9910 0.9910 0.9910
3363.403068 0.9910 0.9910 0.9910 0.9910 0.9910
3367.725839 0.9910 0.9910 0.9910 0.9910 0.9910
3372.048610 0.9910 0.9910 0.9910 0.9910 0.9910
3376.371381 0.9910 0.9910 0.9910 0.9910 0.9910
3380.694152 0.9910 0.9910 0.9910 0.9910 0.9910
3385.016923 0.9910 0.9910 0.9910 0.9910 0.9915
3389.339694 0.9925 0.9930 0.9930 0.9930 0.9930
3393.662465 0.9930 0.9930 0.9930 0.9930 0.9930
3397.985236 0.9930 0.9930 0.9930 0.9930 0.9930
3402.308007 0.9930 0.9930 0.9930 0.9930 0.9930
3406.630778 0.9930 0.9930 0.9930 0.9930 0.9930
3410.953549 0.9930 0.9930 0.9930 0.9930 0.9930
3415.276320 0.9930 0.9930 0.9930 0.9930 0.9930
3419.599090 0.9930 0.9930 0.9930 0.9930 0.9930
3423.921861 0.9930 0.9930 0.9930 0.9930 0.9930
3428.244632 0.9930 0.9930 0.9930 0.9930 0.9930
3432.567403 0.9930 0.9930 0.9930 0.9930 0.9930
3436.890174 0.9930 0.9930 0.9930 0.9930 0.9930
3441.212945 0.9930 0.9930 0.9930 0.9930 0.9930
3445.535716 0.9930 0.9930 0.9930 0.9930 0.9930
3449.858487 0.9930 0.9930 0.9930 0.9930 0.9930
3454.181258 0.9930 0.9930 0.9930 0.9930 0.9930
3458.504029 0.9926 0.9915 0.9910 0.9910 0.9905
3462.826800 0.9895 0.9890 0.9890 0.9885 0.9875
3467.149571 0.9870 0.9870 0.9870 0.9870 0.9870
3471.472342 0.9870 0.9870 0.9870 0.9877 0.9887
3475.795113 0.9890 0.9890 0.9893 0.9899 0.9900
3480.117884 0.9900 0.9904 0.9909 0.9918 0.9928
3484.440655 0.9930 0.9930 0.9930 0.9930 0.9934
3488.763425 0.9939 0.9940 0.9940 0.9936 0.9931
3493.086196 0.9930 0.9930 0.9921 0.9911 0.9910
3497.408967 0.9910 0.9910 0.9910 0.9905 0.9900
3501.731738 0.9895 0.9890 0.9890 0.9890 0.9890
3506.054509 0.9890 0.9890 0.9890 0.9890 0.9890
3510.377280 0.9890 0.9890 0.9890 0.9890 0.9890
3514.700051 0.9891 0.9896 0.9900 0.9900 0.9900
3519.022822 0.9900 0.9901 0.9906 0.9910 0.9910
3523.345593 0.9910 0.9910 0.9910 0.9910 0.9914
3527.668364 0.9924 0.9930 0.9930 0.9932 0.9937
3531.991135 0.9940 0.9940 0.9942 0.9947 0.9950
3536.313906 0.9950 0.9955 0.9965 0.9973 0.9978
3540.636677 0.9980 0.9980 0.9980 0.9980 0.9980
3544.959448 0.9980 0.9980 0.9980 0.9980 0.9980
3549.282219 0.9980 0.9980 0.9980 0.9980 0.9980
3553.604989 0.9980 0.9980 0.9980 0.9976 0.9971
3557.927760 0.9970 0.9970 0.9970 0.9970 0.9962
3562.250531 0.9952 0.9950 0.9950 0.9946 0.9941
3566.573302 0.9940 0.9940 0.9935 0.9930 0.9912
3570.896073 0.9891 0.9861 0.9831 0.9791 0.9750
3575.218844 0.9750 0.9750 0.9781 0.9811 0.9836
3579.541615 0.9860 0.9865 0.9872 0.9892 0.9911
3583.864386 0.9921 0.9930 0.9930 0.9930 0.9930
3588.187157 0.9930 0.9930 0.9930 0.9930 0.9928
3592.509928 0.9918 0.9909 0.9904 0.9900 0.9900
3596.832699 0.9899 0.9894 0.9890 0.9890 0.9890
3601.155470 0.9890 0.9890 0.9890 0.9890 0.9890
3605.478241 0.9890 0.9890 0.9892 0.9897 0.9902
3609.801012 0.9907 0.9915 0.9925 0.9930 0.9930
3614.123783 0.9930 0.9930 0.9930 0.9930 0.9930
3618.446554 0.9930 0.9930 0.9930 0.9930 0.9930
3622.769324 0.9930 0.9930 0.9930 0.9930 0.9930
3627.092095 0.9930 0.9930 0.9930 0.9930 0.9930
3631.414866 0.9930 0.9930 0.9930 0.9930 0.9930
3635.737637 0.9930 0.9930 0.9930 0.9930 0.9930
3640.060408 0.9930 0.9930 0.9930 0.9930 0.9930
3644.383179 0.9930 0.9921 0.9911 0.9910 0.9910
3648.705950 0.9920 0.9930 0.9930 0.9930 0.9930
3653.028721 0.9930 0.9935 0.9940 0.9940 0.9940
3657.351492 0.9945 0.9949 0.9944 0.9940 0.9940
3661.674263 0.9940 0.9940 0.9940 0.9940 0.9940
3665.997034 0.9940 0.9940 0.9940 0.9936 0.9921
3670.319805 0.9909 0.9904 0.9896 0.9881 0.9870
3674.642576 0.9870 0.9868 0.9863 0.9860 0.9860
3678.965347 0.9858 0.9853 0.9842 0.9822 0.9806
3683.288118 0.9796 0.9788 0.9783 0.9778 0.9773
3687.610888 0.9770 0.9770 0.9780 0.9800 0.9821
3691.933659 0.9841 0.9856 0.9866 0.9876 0.9886
3696.256430 0.9890 0.9890 0.9893 0.9898 0.9900
3700.579201 0.9900 0.9903 0.9908 0.9910 0.9910
3704.901972 0.9910 0.9910 0.9910 0.9910 0.9910
3709.224743 0.9910 0.9910 0.9910 0.9910 0.9910
3713.547514 0.9910 0.9910 0.9910 0.9910 0.9910
3717.870285 0.9910 0.9910 0.9910 0.9910 0.9910
3722.193056 0.9900 0.9890 0.9890 0.9890 0.9890
3726.515827 0.9890 0.9895 0.9900 0.9905 0.9910
3730.838598 0.9910 0.9910 0.9910 0.9910 0.9910
3735.161369 0.9910 0.9910 0.9910 0.9910 0.9910
3739.484140 0.9910 0.9910 0.9910 0.9909 0.9904
3743.806911 0.9900 0.9900 0.9900 0.9900 0.9899
3748.129682 0.9893 0.9890 0.9890 0.9887 0.9877
3752.452452 0.9874 0.9884 0.9892 0.9897 0.9902
3756.775223 0.9907 0.9910 0.9910 0.9910 0.9910
3761.097994 0.9910 0.9910 0.9910 0.9910 0.9907
3765.420765 0.9902 0.9900 0.9900 0.9897 0.9892
3769.743536 0.9890 0.9890 0.9890 0.9890 0.9890
3774.066307 0.9890 0.9890 0.9890 0.9890 0.9890
3778.389078 0.9890 0.9890 0.9890 0.9890 0.9890
3782.711849 0.9890 0.9890 0.9890 0.9894 0.9899
3787.034620 0.9900 0.9900 0.9900 0.9900 0.9900
3791.357391 0.9900 0.9896 0.9891 0.9890 0.9890
3795.680162 0.9890 0.9890 0.9890 0.9890 0.9880
3800.002933 0.9870 0.9870 0.9870 0.9870 0.9870
3804.325704 0.9870
##END=
