##TITLE=HEXANE, 1-BROMO
##JCAMP-DX=4.24
##DATA TYPE=INFRARED SPECTRUM
##CLASS=COBLENTZ III
##ORIGIN=DOW CHEMICAL COMPANY
##OWNER=COBLENTZ SOCIETY
Collection (C) 2018 copyright by the U.S. Secretary of Commerce
on behalf of the United States of America. All rights reserved.
##DATE=1962/09/07
##NAMES=1-bromohexane
##CAS REGISTRY NO=111-25-1
##MOLFORM=C6 H13 Br
##SOURCE REFERENCE=COBLENTZ NO. 10006
##$NIST SOURCE=COBLENTZ
##$NIST IMAGE=cob10006
##SPECTROMETER/DATA SYSTEM=DOW KBr FOREPRISM-GRATING
##INSTRUMENT PARAMETERS=BLAZED AT 3.5, 12.0, 20.0 MICRON, CHANGED AT 5.0, 7.5, 14.9 MICRON
##STATE=SOLUTION (10% IN CCl4 FOR 3800-1333, AND 10% IN CS2 FOR 1333-450 CM^-^1)
##PATH LENGTH=0.010, 0.010 CM
$$SPECTRAL CONTAMINATION DUE TO CCl4 AROUND 1550, AND CS2 AROUND 855 CM^-^1
##SAMPLING PROCEDURE=TRANSMISSION
##RESOLUTION=4
##DATA PROCESSING=DIGITIZED BY NIST FROM HARD COPY (FROM TWO SEGMENTS)
##XUNITS=1/CM
##YUNITS=TRANSMITTANCE
##XFACTOR=1.000000
##YFACTOR=1
##DELTAX=0.869566
##FIRSTX=449.565
##LASTX=3800
##FIRSTY=0.978
##MAXX=3800
##MINX=449.565
##MAXY=1.025
##MINY=0.039
##NPOINTS=3854
##XYDATA=(X++(Y..Y))
449.565000 0.9780 0.9760 0.9760 0.9780 0.9780
453.912830 0.9790 0.9790 0.9800 0.9800 0.9820
458.260660 0.9820 0.9830 0.9830 0.9830 0.9850
462.608490 0.9850 0.9850 0.9860 0.9860 0.9860
466.956320 0.9860 0.9860 0.9870 0.9870 0.9890
471.304150 0.9890 0.9890 0.9890 0.9900 0.9900
475.651980 0.9910 0.9930 0.9930 0.9950 0.9950
479.999810 0.9970 0.9980 0.9980 0.9980 1.0000
484.347640 1.0000 1.0010 1.0010 1.0010 1.0020
488.695470 1.0020 1.0040 1.0040 1.0050 1.0060
493.043299 1.0080 1.0090 1.0100 1.0120 1.0130
497.391129 1.0130 1.0130 1.0130 1.0130 1.0140
501.738959 1.0140 1.0140 1.0140 1.0160 1.0160
506.086789 1.0160 1.0160 1.0160 1.0190 1.0190
510.434619 1.0190 1.0190 1.0190 1.0190 1.0190
514.782449 1.0190 1.0190 1.0190 1.0190 1.0190
519.130279 1.0190 1.0190 1.0190 1.0190 1.0170
523.478109 1.0170 1.0160 1.0160 1.0160 1.0160
527.825939 1.0160 1.0160 1.0160 1.0140 1.0140
532.173769 1.0140 1.0130 1.0130 1.0130 1.0130
536.521599 1.0130 1.0130 1.0130 1.0130 1.0130
540.869429 1.0140 1.0140 1.0140 1.0130 1.0120
545.217259 1.0100 1.0090 1.0060 1.0050 1.0020
549.565089 1.0010 1.0000 0.9980 0.9940 0.9910
553.912919 0.9820 0.9760 0.9670 0.9590 0.9500
558.260749 0.9380 0.9151 0.8881 0.8591 0.8222
562.608579 0.7940 0.7880 0.7880 0.7910 0.7970
566.956409 0.8110 0.8349 0.8549 0.8739 0.8959
571.304239 0.9120 0.9260 0.9380 0.9520 0.9680
575.652069 0.9800 0.9910 0.9980 1.0050 1.0100
579.999898 1.0130 1.0160 1.0170 1.0190 1.0210
584.347728 1.0230 1.0230 1.0230 1.0240 1.0240
588.695558 1.0250 1.0250 1.0240 1.0240 1.0230
593.043388 1.0230 1.0230 1.0230 1.0230 1.0230
597.391218 1.0230 1.0240 1.0240 1.0240 1.0240
601.739048 1.0230 1.0210 1.0170 1.0140 1.0130
606.086878 1.0120 1.0100 1.0080 1.0060 1.0040
610.434708 1.0040 1.0020 1.0020 1.0020 1.0040
614.782538 1.0040 1.0040 1.0040 1.0040 1.0040
619.130368 1.0040 1.0020 1.0010 1.0010 1.0000
623.478198 1.0000 0.9980 0.9980 0.9940 0.9900
627.826028 0.9870 0.9860 0.9800 0.9720 0.9650
632.173858 0.9610 0.9560 0.9500 0.9410 0.9300
636.521688 0.9150 0.8971 0.8850 0.8671 0.8411
640.869518 0.8140 0.7900 0.7730 0.7540 0.7420
645.217348 0.7410 0.7410 0.7420 0.7460 0.7599
649.565178 0.7860 0.8070 0.8250 0.8430 0.8560
653.913008 0.8700 0.8840 0.8970 0.9109 0.9249
658.260838 0.9330 0.9420 0.9520 0.9590 0.9650
662.608667 0.9680 0.9710 0.9760 0.9780 0.9780
666.956497 0.9790 0.9790 0.9790 0.9790 0.9790
671.304327 0.9790 0.9790 0.9790 0.9790 0.9790
675.652157 0.9790 0.9790 0.9790 0.9790 0.9790
679.999987 0.9790 0.9790 0.9780 0.9780 0.9780
684.347817 0.9780 0.9780 0.9780 0.9780 0.9780
688.695647 0.9780 0.9790 0.9790 0.9790 0.9790
693.043477 0.9780 0.9780 0.9780 0.9760 0.9760
697.391307 0.9750 0.9760 0.9750 0.9740 0.9710
701.739137 0.9700 0.9680 0.9680 0.9680 0.9670
706.086967 0.9670 0.9640 0.9610 0.9590 0.9560
710.434797 0.9530 0.9500 0.9480 0.9460 0.9400
714.782627 0.9330 0.9250 0.9200 0.9120 0.9050
719.130457 0.8880 0.8700 0.8520 0.8330 0.8170
723.478287 0.8050 0.7791 0.7710 0.7680 0.7710
727.826117 0.7760 0.7840 0.7920 0.8070 0.8200
732.173947 0.8350 0.8500 0.8590 0.8709 0.8889
736.521777 0.9000 0.9110 0.9160 0.9230 0.9270
740.869607 0.9300 0.9310 0.9310 0.9330 0.9330
745.217436 0.9330 0.9330 0.9310 0.9310 0.9300
749.565266 0.9290 0.9270 0.9270 0.9260 0.9260
753.913096 0.9250 0.9250 0.9260 0.9260 0.9310
758.260926 0.9340 0.9380 0.9420 0.9460 0.9460
762.608756 0.9480 0.9490 0.9530 0.9530 0.9550
766.956586 0.9550 0.9550 0.9550 0.9550 0.9550
771.304416 0.9560 0.9560 0.9560 0.9560 0.9560
775.652246 0.9560 0.9560 0.9550 0.9550 0.9530
780.000076 0.9530 0.9530 0.9530 0.9550 0.9550
784.347906 0.9560 0.9560 0.9570 0.9570 0.9590
788.695736 0.9590 0.9600 0.9600 0.9590 0.9590
793.043566 0.9590 0.9570 0.9560 0.9550 0.9550
797.391396 0.9530 0.9530 0.9520 0.9490 0.9480
801.739226 0.9480 0.9480 0.9450 0.9420 0.9410
806.087056 0.9410 0.9400 0.9380 0.9350 0.9350
810.434886 0.9340 0.9330 0.9300 0.9290 0.9290
814.782716 0.9290 0.9300 0.9340 0.9370 0.9420
819.130546 0.9480 0.9550 0.9590 0.9670 0.9670
823.478376 0.9680 0.9680 0.9680 0.9680 0.9680
827.826206 0.9680 0.9680 0.9650 0.9630 0.9610
832.174035 0.9590 0.9560 0.9550 0.9530 0.9460
836.521865 0.9420 0.9400 0.9340 0.9300 0.9230
840.869695 0.9150 0.9080 0.8990 0.8910 0.8780
845.217525 0.8710 0.8610 0.8481 0.8351 0.8241
849.565355 0.8170 0.8100 0.8020 0.7950 0.7920
853.913185 0.7910 0.7920 0.7940 0.7940 0.7970
858.261015 0.7990 0.8010 0.8030 0.8050 0.8060
862.608845 0.8100 0.8140 0.8170 0.8180 0.8220
866.956675 0.8260 0.8310 0.8310 0.8390 0.8460
871.304505 0.8510 0.8520 0.8550 0.8580 0.8620
875.652335 0.8650 0.8700 0.8730 0.8740 0.8800
880.000165 0.8850 0.8910 0.8930 0.8960 0.8990
884.347995 0.9010 0.9040 0.9110 0.9110 0.9140
888.695825 0.9150 0.9180 0.9200 0.9270 0.9330
893.043655 0.9370 0.9410 0.9450 0.9500 0.9560
897.391485 0.9570 0.9590 0.9630 0.9670 0.9680
901.739315 0.9680 0.9680 0.9680 0.9680 0.9680
906.087145 0.9670 0.9670 0.9670 0.9670 0.9670
910.434975 0.9670 0.9680 0.9680 0.9680 0.9680
914.782804 0.9680 0.9680 0.9680 0.9700 0.9700
919.130634 0.9700 0.9710 0.9740 0.9760 0.9760
923.478464 0.9760 0.9760 0.9780 0.9780 0.9780
927.826294 0.9780 0.9780 0.9790 0.9790 0.9790
932.174124 0.9780 0.9780 0.9780 0.9760 0.9760
936.521954 0.9760 0.9760 0.9760 0.9760 0.9760
940.869784 0.9750 0.9720 0.9700 0.9650 0.9640
945.217614 0.9610 0.9560 0.9550 0.9480 0.9440
949.565444 0.9420 0.9410 0.9400 0.9400 0.9400
953.913274 0.9410 0.9410 0.9420 0.9440 0.9460
958.261104 0.9490 0.9500 0.9500 0.9520 0.9530
962.608934 0.9550 0.9550 0.9550 0.9550 0.9560
966.956764 0.9570 0.9570 0.9570 0.9590 0.9590
971.304594 0.9590 0.9590 0.9590 0.9560 0.9560
975.652424 0.9560 0.9560 0.9560 0.9570 0.9590
980.000254 0.9590 0.9570 0.9560 0.9550 0.9550
984.348084 0.9530 0.9530 0.9530 0.9530 0.9550
988.695914 0.9550 0.9560 0.9570 0.9570 0.9600
993.043744 0.9630 0.9640 0.9650 0.9650 0.9650
997.391573 0.9670 0.9680 0.9680 0.9700 0.9700
1001.739403 0.9700 0.9700 0.9700 0.9700 0.9700
1006.087233 0.9710 0.9710 0.9720 0.9720 0.9740
1010.435063 0.9750 0.9760 0.9760 0.9760 0.9750
1014.782893 0.9750 0.9750 0.9740 0.9740 0.9720
1019.130723 0.9720 0.9710 0.9710 0.9680 0.9670
1023.478553 0.9650 0.9650 0.9650 0.9650 0.9640
1027.826383 0.9640 0.9630 0.9600 0.9570 0.9570
1032.174213 0.9560 0.9550 0.9500 0.9490 0.9490
1036.522043 0.9460 0.9460 0.9450 0.9450 0.9440
1040.869873 0.9400 0.9380 0.9370 0.9350 0.9340
1045.217703 0.9330 0.9310 0.9310 0.9310 0.9310
1049.565533 0.9330 0.9350 0.9370 0.9410 0.9440
1053.913363 0.9450 0.9460 0.9490 0.9490 0.9500
1058.261193 0.9500 0.9500 0.9520 0.9520 0.9500
1062.609023 0.9500 0.9500 0.9500 0.9500 0.9500
1066.956853 0.9500 0.9500 0.9500 0.9500 0.9490
1071.304683 0.9490 0.9490 0.9480 0.9480 0.9490
1075.652513 0.9490 0.9490 0.9480 0.9480 0.9480
1080.000343 0.9460 0.9440 0.9420 0.9420 0.9420
1084.348172 0.9420 0.9420 0.9440 0.9450 0.9480
1088.696002 0.9500 0.9530 0.9530 0.9550 0.9550
1093.043832 0.9550 0.9550 0.9550 0.9530 0.9520
1097.391662 0.9500 0.9490 0.9480 0.9450 0.9410
1101.739492 0.9400 0.9370 0.9330 0.9300 0.9290
1106.087322 0.9290 0.9300 0.9300 0.9300 0.9310
1110.435152 0.9310 0.9330 0.9330 0.9340 0.9340
1114.782982 0.9350 0.9350 0.9370 0.9420 0.9460
1119.130812 0.9480 0.9490 0.9530 0.9560 0.9570
1123.478642 0.9590 0.9610 0.9640 0.9640 0.9650
1127.826472 0.9670 0.9670 0.9670 0.9670 0.9650
1132.174302 0.9650 0.9650 0.9650 0.9640 0.9640
1136.522132 0.9640 0.9630 0.9630 0.9630 0.9610
1140.869962 0.9610 0.9610 0.9610 0.9610 0.9630
1145.217792 0.9630 0.9630 0.9630 0.9630 0.9630
1149.565622 0.9630 0.9640 0.9640 0.9630 0.9610
1153.913452 0.9600 0.9600 0.9600 0.9570 0.9570
1158.261282 0.9560 0.9560 0.9570 0.9570 0.9560
1162.609112 0.9560 0.9560 0.9550 0.9550 0.9550
1166.956941 0.9520 0.9490 0.9480 0.9450 0.9410
1171.304771 0.9380 0.9340 0.9310 0.9290 0.9270
1175.652601 0.9250 0.9230 0.9200 0.9190 0.9160
1180.000431 0.9110 0.9100 0.9070 0.9050 0.9050
1184.348261 0.9040 0.9030 0.9010 0.9000 0.8990
1188.696091 0.8950 0.8930 0.8920 0.8910 0.8880
1193.043921 0.8840 0.8800 0.8760 0.8700 0.8591
1197.391751 0.8520 0.8480 0.8350 0.8090 0.7691
1201.739581 0.7321 0.7300 0.7320 0.7450 0.7560
1206.087411 0.7650 0.7990 0.8140 0.8250 0.8520
1210.435241 0.8730 0.8840 0.8930 0.8970 0.9000
1214.783071 0.9010 0.9010 0.9010 0.9000 0.8990
1219.130901 0.8930 0.8910 0.8840 0.8740 0.8710
1223.478731 0.8690 0.8550 0.8510 0.8460 0.8011
1227.826561 0.7840 0.7720 0.7610 0.7520 0.7470
1232.174391 0.7430 0.7420 0.7410 0.7380 0.7240
1236.522221 0.6711 0.6441 0.6181 0.5961 0.5771
1240.870051 0.5530 0.5500 0.5530 0.5730 0.6468
1245.217881 0.6879 0.6930 0.6960 0.6960 0.6890
1249.565710 0.6820 0.6750 0.6640 0.6560 0.6450
1253.913540 0.6380 0.6300 0.6300 0.6370 0.6470
1258.261370 0.6750 0.7010 0.7200 0.7410 0.7600
1262.609200 0.7710 0.7830 0.7940 0.8010 0.8030
1266.957030 0.8060 0.8060 0.8060 0.8020 0.7950
1271.304860 0.7880 0.7760 0.7680 0.7461 0.7410
1275.652690 0.7320 0.7230 0.7170 0.7160 0.7160
1280.000520 0.7190 0.7240 0.7260 0.7280 0.7310
1284.348350 0.7370 0.7450 0.7490 0.7560 0.7680
1288.696180 0.7750 0.7870 0.7950 0.8020 0.8100
1293.044010 0.8110 0.8110 0.8110 0.8110 0.8110
1297.391840 0.8110 0.8100 0.8100 0.8090 0.8060
1301.739670 0.8050 0.8050 0.8060 0.8060 0.8100
1306.087500 0.8110 0.8160 0.8200 0.8260 0.8310
1310.435330 0.8400 0.8460 0.8510 0.8560 0.8590
1314.783160 0.8690 0.8710 0.8740 0.8770 0.8810
1319.130990 0.8890 0.8920 0.8930 0.8970 0.8990
1323.478820 0.8990 0.8990 0.8990 0.8970 0.8970
1327.826650 0.8960 0.8950 0.8950 0.8920 0.8910
1332.174480 0.8850 0.8820 0.8820 0.8810 0.8700
1336.522309 0.8670 0.8630 0.8620 0.8610 0.8610
1340.870139 0.8620 0.8620 0.8630 0.8650 0.8700
1345.217969 0.8730 0.8770 0.8780 0.8800 0.8810
1349.565799 0.8810 0.8780 0.8770 0.8770 0.8770
1353.913629 0.8770 0.8770 0.8770 0.8770 0.8770
1358.261459 0.8780 0.8780 0.8780 0.8770 0.8760
1362.609289 0.8740 0.8730 0.8710 0.8700 0.8690
1366.957119 0.8650 0.8630 0.8620 0.8540 0.8470
1371.304949 0.8400 0.8360 0.8350 0.8310 0.8260
1375.652779 0.8170 0.8130 0.8030 0.7940 0.7571
1380.000609 0.6970 0.6830 0.6830 0.6920 0.7259
1384.348439 0.7490 0.8138 0.8429 0.8759 0.8860
1388.696269 0.8890 0.8950 0.8990 0.9000 0.9010
1393.044099 0.9050 0.9100 0.9110 0.9120 0.9140
1397.391929 0.9150 0.9160 0.9160 0.9180 0.9180
1401.739759 0.9180 0.9180 0.9180 0.9180 0.9160
1406.087589 0.9150 0.9140 0.9140 0.9140 0.9120
1410.435419 0.9110 0.9110 0.9100 0.9070 0.9050
1414.783249 0.9040 0.9000 0.8970 0.8960 0.8930
1419.131078 0.8930 0.8910 0.8820 0.8780 0.8760
1423.478908 0.8710 0.8620 0.8580 0.8510 0.8390
1427.826738 0.8310 0.8160 0.7751 0.7242 0.7071
1432.174568 0.6960 0.6920 0.6960 0.6980 0.6940
1436.522398 0.6810 0.6591 0.6381 0.6300 0.6300
1440.870228 0.6550 0.6700 0.6770 0.6820 0.6830
1445.218058 0.6820 0.6780 0.6740 0.6640 0.6511
1449.565888 0.6400 0.6210 0.5910 0.5760 0.5540
1453.913718 0.5390 0.5230 0.5041 0.4900 0.4780
1458.261548 0.4670 0.4610 0.4600 0.4600 0.4610
1462.609378 0.4630 0.4640 0.4650 0.4640 0.4491
1466.957208 0.4440 0.4250 0.4160 0.4150 0.4200
1471.305038 0.4739 0.5418 0.5878 0.7364 0.7499
1475.652868 0.7570 0.7940 0.8050 0.8140 0.8180
1480.000698 0.8310 0.8330 0.8360 0.8360 0.8370
1484.348528 0.8370 0.8370 0.8370 0.8370 0.8370
1488.696358 0.8360 0.8350 0.8330 0.8320 0.8310
1493.044188 0.8310 0.8310 0.8290 0.8260 0.8220
1497.392018 0.8210 0.8180 0.8140 0.8100 0.8050
1501.739847 0.8020 0.7980 0.7950 0.7940 0.7920
1506.087677 0.7840 0.7770 0.7750 0.7710 0.7670
1510.435507 0.7600 0.7580 0.7580 0.7570 0.7490
1514.783337 0.7460 0.7420 0.7390 0.7390 0.7310
1519.131167 0.7280 0.7240 0.7220 0.7160 0.7120
1523.478997 0.7080 0.7050 0.6970 0.6960 0.6930
1527.826827 0.6890 0.6850 0.6790 0.6770 0.6710
1532.174657 0.6620 0.6560 0.6381 0.6330 0.6280
1536.522487 0.6170 0.6060 0.6020 0.5880 0.5740
1540.870317 0.5610 0.5540 0.5460 0.5390 0.5350
1545.218147 0.5270 0.5240 0.5170 0.5130 0.5120
1549.565977 0.5120 0.5120 0.5120 0.5130 0.5130
1553.913807 0.5160 0.5190 0.5230 0.5250 0.5350
1558.261637 0.5400 0.5609 0.5730 0.5830 0.5890
1562.609467 0.5940 0.6080 0.6100 0.6180 0.6290
1566.957297 0.6360 0.6470 0.6560 0.6620 0.6680
1571.305127 0.6740 0.6780 0.6820 0.6830 0.6900
1575.652957 0.6900 0.6920 0.6940 0.6970 0.7000
1580.000787 0.7050 0.7070 0.7080 0.7090 0.7120
1584.348617 0.7130 0.7160 0.7190 0.7230 0.7260
1588.696446 0.7270 0.7320 0.7410 0.7460 0.7520
1593.044276 0.7580 0.7620 0.7760 0.7800 0.7840
1597.392106 0.7980 0.8030 0.8140 0.8240 0.8330
1601.739936 0.8430 0.8520 0.8580 0.8660 0.8710
1606.087766 0.8770 0.8840 0.8890 0.8920 0.8960
1610.435596 0.8990 0.9050 0.9120 0.9150 0.9190
1614.783426 0.9220 0.9250 0.9290 0.9300 0.9310
1619.131256 0.9310 0.9330 0.9400 0.9410 0.9420
1623.479086 0.9440 0.9450 0.9460 0.9480 0.9490
1627.826916 0.9530 0.9550 0.9560 0.9570 0.9600
1632.174746 0.9610 0.9630 0.9640 0.9650 0.9680
1636.522576 0.9720 0.9760 0.9780 0.9820 0.9850
1640.870406 0.9890 0.9910 0.9910 0.9930 0.9940
1645.218236 0.9940 0.9940 0.9940 0.9940 0.9930
1649.566066 0.9910 0.9900 0.9890 0.9860 0.9850
1653.913896 0.9820 0.9790 0.9760 0.9720 0.9710
1658.261726 0.9710 0.9710 0.9710 0.9680 0.9680
1662.609556 0.9680 0.9670 0.9650 0.9630 0.9610
1666.957386 0.9600 0.9600 0.9600 0.9600 0.9600
1671.305215 0.9590 0.9590 0.9590 0.9590 0.9590
1675.653045 0.9570 0.9570 0.9570 0.9570 0.9570
1680.000875 0.9570 0.9570 0.9570 0.9570 0.9570
1684.348705 0.9560 0.9560 0.9560 0.9560 0.9560
1688.696535 0.9550 0.9550 0.9550 0.9550 0.9530
1693.044365 0.9530 0.9530 0.9530 0.9530 0.9500
1697.392195 0.9500 0.9490 0.9490 0.9480 0.9450
1701.740025 0.9440 0.9420 0.9420 0.9420 0.9420
1706.087855 0.9420 0.9410 0.9380 0.9370 0.9350
1710.435685 0.9340 0.9340 0.9340 0.9330 0.9330
1714.783515 0.9330 0.9330 0.9310 0.9310 0.9310
1719.131345 0.9300 0.9300 0.9330 0.9330 0.9330
1723.479175 0.9330 0.9330 0.9330 0.9330 0.9310
1727.827005 0.9310 0.9310 0.9300 0.9260 0.9250
1732.174835 0.9200 0.9180 0.9160 0.9150 0.9120
1736.522665 0.9100 0.9100 0.9080 0.9070 0.9070
1740.870495 0.9070 0.9080 0.9100 0.9120 0.9150
1745.218325 0.9190 0.9220 0.9230 0.9260 0.9310
1749.566155 0.9340 0.9380 0.9410 0.9410 0.9420
1753.913984 0.9450 0.9480 0.9490 0.9490 0.9500
1758.261814 0.9500 0.9500 0.9530 0.9550 0.9550
1762.609644 0.9550 0.9560 0.9560 0.9560 0.9560
1766.957474 0.9560 0.9560 0.9560 0.9560 0.9560
1771.305304 0.9560 0.9560 0.9560 0.9560 0.9560
1775.653134 0.9560 0.9560 0.9560 0.9560 0.9560
1780.000964 0.9570 0.9570 0.9560 0.9560 0.9560
1784.348794 0.9560 0.9560 0.9570 0.9570 0.9560
1788.696624 0.9560 0.9570 0.9560 0.9560 0.9560
1793.044454 0.9560 0.9560 0.9560 0.9560 0.9560
1797.392284 0.9560 0.9550 0.9550 0.9550 0.9550
1801.740114 0.9550 0.9550 0.9550 0.9550 0.9550
1806.087944 0.9560 0.9560 0.9550 0.9550 0.9550
1810.435774 0.9550 0.9550 0.9550 0.9550 0.9550
1814.783604 0.9550 0.9550 0.9550 0.9550 0.9550
1819.131434 0.9550 0.9550 0.9550 0.9550 0.9550
1823.479264 0.9550 0.9550 0.9550 0.9550 0.9550
1827.827094 0.9550 0.9550 0.9550 0.9550 0.9550
1832.174924 0.9550 0.9550 0.9550 0.9550 0.9550
1836.522754 0.9550 0.9550 0.9550 0.9550 0.9550
1840.870583 0.9550 0.9550 0.9560 0.9560 0.9560
1845.218413 0.9560 0.9560 0.9560 0.9550 0.9550
1849.566243 0.9550 0.9550 0.9550 0.9550 0.9550
1853.914073 0.9550 0.9550 0.9550 0.9550 0.9550
1858.261903 0.9550 0.9550 0.9550 0.9550 0.9550
1862.609733 0.9550 0.9550 0.9550 0.9550 0.9550
1866.957563 0.9550 0.9550 0.9550 0.9550 0.9560
1871.305393 0.9570 0.9570 0.9560 0.9560 0.9570
1875.653223 0.9570 0.9570 0.9570 0.9570 0.9570
1880.001053 0.9600 0.9600 0.9590 0.9590 0.9590
1884.348883 0.9590 0.9590 0.9590 0.9590 0.9590
1888.696713 0.9590 0.9590 0.9590 0.9590 0.9570
1893.044543 0.9570 0.9570 0.9570 0.9570 0.9570
1897.392373 0.9570 0.9570 0.9570 0.9560 0.9560
1901.740203 0.9570 0.9570 0.9570 0.9570 0.9570
1906.088033 0.9570 0.9570 0.9570 0.9570 0.9570
1910.435863 0.9590 0.9570 0.9570 0.9570 0.9570
1914.783693 0.9590 0.9590 0.9590 0.9590 0.9590
1919.131523 0.9590 0.9600 0.9600 0.9570 0.9570
1923.479352 0.9570 0.9570 0.9570 0.9570 0.9570
1927.827182 0.9570 0.9570 0.9570 0.9600 0.9600
1932.175012 0.9600 0.9600 0.9600 0.9600 0.9600
1936.522842 0.9600 0.9600 0.9600 0.9600 0.9600
1940.870672 0.9600 0.9600 0.9600 0.9610 0.9610
1945.218502 0.9610 0.9610 0.9600 0.9600 0.9600
1949.566332 0.9600 0.9600 0.9600 0.9600 0.9600
1953.914162 0.9600 0.9600 0.9600 0.9610 0.9610
1958.261992 0.9630 0.9630 0.9670 0.9720 0.9790
1962.609822 0.9790 0.9780 0.9650 0.9590 0.9570
1966.957652 0.9570 0.9570 0.9570 0.9570 0.9590
1971.305482 0.9570 0.9570 0.9570 0.9570 0.9570
1975.653312 0.9570 0.9570 0.9570 0.9570 0.9570
1980.001142 0.9570 0.9570 0.9570 0.9570 0.9570
1984.348972 0.9570 0.9570 0.9570 0.9570 0.9570
1988.696802 0.9560 0.9560 0.9550 0.9550 0.9550
1993.044632 0.9550 0.9590 0.9630 0.9640 0.9640
1997.392462 0.9640 0.9420 0.9500 0.9630 0.9650
2001.740292 0.9670 0.9670 0.9670 0.9670 0.9670
2006.088121 0.9675 0.9680 0.9675 0.9670 0.9670
2010.435951 0.9670 0.9670 0.9670 0.9670 0.9670
2014.783781 0.9670 0.9670 0.9670 0.9670 0.9670
2019.131611 0.9670 0.9675 0.9680 0.9689 0.9699
2023.479441 0.9700 0.9700 0.9705 0.9710 0.9710
2027.827271 0.9710 0.9715 0.9720 0.9715 0.9710
2032.175101 0.9710 0.9710 0.9715 0.9720 0.9720
2036.522931 0.9720 0.9715 0.9710 0.9710 0.9710
2040.870761 0.9715 0.9720 0.9716 0.9711 0.9710
2045.218591 0.9710 0.9710 0.9710 0.9710 0.9710
2049.566421 0.9710 0.9710 0.9710 0.9710 0.9710
2053.914251 0.9710 0.9706 0.9701 0.9700 0.9700
2058.262081 0.9700 0.9700 0.9700 0.9700 0.9700
2062.609911 0.9700 0.9700 0.9700 0.9692 0.9682
2066.957741 0.9688 0.9698 0.9704 0.9709 0.9723
2071.305571 0.9738 0.9748 0.9758 0.9768 0.9778
2075.653401 0.9780 0.9780 0.9780 0.9780 0.9780
2080.001231 0.9780 0.9780 0.9780 0.9780 0.9780
2084.349061 0.9780 0.9780 0.9780 0.9780 0.9780
2088.696891 0.9780 0.9780 0.9780 0.9772 0.9762
2093.044720 0.9760 0.9760 0.9760 0.9760 0.9760
2097.392550 0.9760 0.9760 0.9760 0.9760 0.9760
2101.740380 0.9760 0.9760 0.9760 0.9760 0.9760
2106.088210 0.9760 0.9760 0.9760 0.9768 0.9778
2110.436040 0.9780 0.9780 0.9769 0.9754 0.9750
2114.783870 0.9750 0.9750 0.9750 0.9750 0.9750
2119.131700 0.9750 0.9750 0.9750 0.9750 0.9750
2123.479530 0.9750 0.9750 0.9750 0.9750 0.9750
2127.827360 0.9750 0.9750 0.9746 0.9741 0.9740
2132.175190 0.9740 0.9740 0.9740 0.9740 0.9740
2136.523020 0.9740 0.9740 0.9743 0.9748 0.9750
2140.870850 0.9750 0.9740 0.9725 0.9720 0.9720
2145.218680 0.9720 0.9720 0.9720 0.9720 0.9717
2149.566510 0.9712 0.9710 0.9710 0.9710 0.9710
2153.914340 0.9710 0.9710 0.9713 0.9718 0.9717
2158.262170 0.9712 0.9710 0.9710 0.9710 0.9710
2162.610000 0.9710 0.9710 0.9710 0.9710 0.9710
2166.957830 0.9710 0.9710 0.9710 0.9707 0.9702
2171.305660 0.9700 0.9700 0.9703 0.9708 0.9710
2175.653489 0.9710 0.9710 0.9710 0.9710 0.9710
2180.001319 0.9710 0.9710 0.9710 0.9710 0.9707
2184.349149 0.9702 0.9700 0.9700 0.9700 0.9700
2188.696979 0.9700 0.9700 0.9700 0.9700 0.9700
2193.044809 0.9700 0.9703 0.9708 0.9710 0.9710
2197.392639 0.9710 0.9710 0.9710 0.9710 0.9710
2201.740469 0.9710 0.9710 0.9710 0.9710 0.9710
2206.088299 0.9710 0.9710 0.9713 0.9718 0.9720
2210.436129 0.9720 0.9717 0.9712 0.9710 0.9710
2214.783959 0.9710 0.9710 0.9707 0.9702 0.9700
2219.131789 0.9700 0.9700 0.9700 0.9695 0.9685
2223.479619 0.9680 0.9680 0.9680 0.9680 0.9680
2227.827449 0.9680 0.9678 0.9673 0.9670 0.9670
2232.175279 0.9665 0.9655 0.9650 0.9650 0.9650
2236.523109 0.9650 0.9650 0.9650 0.9648 0.9643
2240.870939 0.9638 0.9633 0.9630 0.9630 0.9630
2245.218769 0.9630 0.9625 0.9616 0.9610 0.9610
2249.566599 0.9610 0.9610 0.9608 0.9603 0.9600
2253.914429 0.9600 0.9600 0.9600 0.9598 0.9593
2258.262258 0.9590 0.9590 0.9586 0.9576 0.9568
2262.610088 0.9563 0.9560 0.9560 0.9560 0.9560
2266.957918 0.9560 0.9560 0.9558 0.9553 0.9550
2271.305748 0.9550 0.9546 0.9536 0.9530 0.9530
2275.653578 0.9528 0.9523 0.9516 0.9506 0.9498
2280.001408 0.9493 0.9488 0.9483 0.9480 0.9480
2284.349238 0.9480 0.9480 0.9480 0.9480 0.9476
2288.697068 0.9467 0.9460 0.9460 0.9460 0.9460
2293.044898 0.9463 0.9473 0.9480 0.9480 0.9480
2297.392728 0.9480 0.9480 0.9480 0.9480 0.9480
2301.740558 0.9482 0.9487 0.9488 0.9483 0.9480
2306.088388 0.9480 0.9480 0.9480 0.9482 0.9486
2310.436218 0.9490 0.9490 0.9489 0.9484 0.9480
2314.784048 0.9480 0.9480 0.9480 0.9480 0.9480
2319.131878 0.9477 0.9467 0.9460 0.9460 0.9460
2323.479708 0.9460 0.9460 0.9460 0.9463 0.9473
2327.827538 0.9480 0.9480 0.9483 0.9493 0.9503
2332.175368 0.9513 0.9520 0.9520 0.9521 0.9526
2336.523198 0.9532 0.9542 0.9550 0.9550 0.9550
2340.871028 0.9550 0.9551 0.9556 0.9560 0.9560
2345.218857 0.9560 0.9560 0.9560 0.9560 0.9559
2349.566687 0.9554 0.9550 0.9550 0.9550 0.9550
2353.914517 0.9550 0.9550 0.9550 0.9550 0.9550
2358.262347 0.9550 0.9550 0.9550 0.9551 0.9556
2362.610177 0.9564 0.9584 0.9600 0.9600 0.9600
2366.958007 0.9600 0.9601 0.9606 0.9612 0.9622
2371.305837 0.9630 0.9630 0.9630 0.9630 0.9632
2375.653667 0.9642 0.9652 0.9661 0.9670 0.9670
2380.001497 0.9670 0.9670 0.9670 0.9670 0.9670
2384.349327 0.9670 0.9670 0.9670 0.9670 0.9670
2388.697157 0.9670 0.9670 0.9670 0.9670 0.9671
2393.044987 0.9676 0.9680 0.9680 0.9680 0.9680
2397.392817 0.9680 0.9680 0.9680 0.9680 0.9680
2401.740647 0.9680 0.9680 0.9680 0.9680 0.9680
2406.088477 0.9680 0.9680 0.9680 0.9680 0.9680
2410.436307 0.9680 0.9680 0.9680 0.9680 0.9680
2414.784137 0.9680 0.9680 0.9680 0.9680 0.9681
2419.131967 0.9691 0.9700 0.9700 0.9699 0.9689
2423.479797 0.9680 0.9680 0.9680 0.9690 0.9700
2427.827626 0.9700 0.9700 0.9700 0.9700 0.9700
2432.175456 0.9700 0.9700 0.9700 0.9700 0.9700
2436.523286 0.9700 0.9700 0.9700 0.9700 0.9700
2440.871116 0.9700 0.9700 0.9700 0.9700 0.9700
2445.218946 0.9700 0.9700 0.9700 0.9700 0.9700
2449.566776 0.9700 0.9705 0.9710 0.9710 0.9710
2453.914606 0.9710 0.9710 0.9710 0.9710 0.9710
2458.262436 0.9710 0.9715 0.9720 0.9720 0.9720
2462.610266 0.9715 0.9710 0.9710 0.9710 0.9710
2466.958096 0.9710 0.9710 0.9710 0.9710 0.9710
2471.305926 0.9710 0.9710 0.9710 0.9710 0.9715
2475.653756 0.9720 0.9720 0.9720 0.9715 0.9710
2480.001586 0.9710 0.9710 0.9710 0.9710 0.9710
2484.349416 0.9710 0.9710 0.9710 0.9710 0.9710
2488.697246 0.9710 0.9710 0.9715 0.9720 0.9720
2493.045076 0.9720 0.9720 0.9720 0.9716 0.9711
2497.392906 0.9710 0.9710 0.9706 0.9701 0.9700
2501.740736 0.9700 0.9700 0.9700 0.9700 0.9700
2506.088566 0.9700 0.9700 0.9700 0.9700 0.9704
2510.436396 0.9709 0.9710 0.9710 0.9710 0.9710
2514.784225 0.9710 0.9710 0.9710 0.9710 0.9706
2519.132055 0.9701 0.9700 0.9700 0.9700 0.9700
2523.479885 0.9700 0.9700 0.9700 0.9700 0.9700
2527.827715 0.9700 0.9692 0.9682 0.9680 0.9680
2532.175545 0.9680 0.9680 0.9680 0.9680 0.9680
2536.523375 0.9680 0.9680 0.9680 0.9680 0.9680
2540.871205 0.9676 0.9671 0.9670 0.9670 0.9670
2545.219035 0.9670 0.9662 0.9652 0.9650 0.9650
2549.566865 0.9650 0.9650 0.9650 0.9650 0.9646
2553.914695 0.9641 0.9640 0.9640 0.9644 0.9649
2558.262525 0.9646 0.9641 0.9640 0.9640 0.9640
2562.610355 0.9640 0.9640 0.9640 0.9640 0.9640
2566.958185 0.9640 0.9640 0.9636 0.9631 0.9630
2571.306015 0.9630 0.9630 0.9630 0.9630 0.9630
2575.653845 0.9630 0.9630 0.9630 0.9630 0.9630
2580.001675 0.9630 0.9630 0.9630 0.9630 0.9630
2584.349505 0.9630 0.9630 0.9630 0.9630 0.9630
2588.697335 0.9630 0.9630 0.9630 0.9623 0.9613
2593.045165 0.9610 0.9610 0.9610 0.9610 0.9610
2597.392994 0.9610 0.9610 0.9610 0.9610 0.9610
2601.740824 0.9607 0.9602 0.9597 0.9592 0.9584
2606.088654 0.9574 0.9570 0.9570 0.9567 0.9562
2610.436484 0.9560 0.9560 0.9560 0.9560 0.9560
2614.784314 0.9560 0.9560 0.9560 0.9560 0.9560
2619.132144 0.9560 0.9560 0.9560 0.9560 0.9560
2623.479974 0.9560 0.9560 0.9560 0.9560 0.9560
2627.827804 0.9560 0.9560 0.9563 0.9568 0.9570
2632.175634 0.9570 0.9567 0.9562 0.9560 0.9560
2636.523464 0.9560 0.9560 0.9557 0.9552 0.9550
2640.871294 0.9550 0.9550 0.9550 0.9550 0.9550
2645.219124 0.9550 0.9550 0.9550 0.9550 0.9544
2649.566954 0.9534 0.9522 0.9507 0.9497 0.9492
2653.914784 0.9490 0.9490 0.9487 0.9482 0.9480
2658.262614 0.9480 0.9475 0.9465 0.9460 0.9460
2662.610444 0.9457 0.9452 0.9450 0.9450 0.9450
2666.958274 0.9450 0.9450 0.9450 0.9447 0.9442
2671.306104 0.9440 0.9440 0.9440 0.9440 0.9440
2675.653934 0.9440 0.9440 0.9440 0.9440 0.9440
2680.001763 0.9440 0.9440 0.9440 0.9440 0.9442
2684.349593 0.9447 0.9450 0.9450 0.9450 0.9450
2688.697423 0.9450 0.9450 0.9452 0.9457 0.9465
2693.045253 0.9474 0.9482 0.9487 0.9490 0.9490
2697.393083 0.9490 0.9490 0.9492 0.9497 0.9500
2701.740913 0.9500 0.9500 0.9500 0.9498 0.9493
2706.088743 0.9490 0.9490 0.9488 0.9483 0.9476
2710.436573 0.9466 0.9458 0.9453 0.9450 0.9450
2714.784403 0.9450 0.9450 0.9444 0.9429 0.9418
2719.132233 0.9413 0.9404 0.9389 0.9374 0.9359
2723.480063 0.9348 0.9343 0.9338 0.9333 0.9326
2727.827893 0.9316 0.9308 0.9303 0.9300 0.9300
2732.175723 0.9300 0.9300 0.9302 0.9307 0.9310
2736.523553 0.9310 0.9314 0.9324 0.9332 0.9337
2740.871383 0.9347 0.9367 0.9385 0.9400 0.9412
2745.219213 0.9417 0.9423 0.9433 0.9440 0.9440
2749.567043 0.9440 0.9440 0.9440 0.9440 0.9440
2753.914873 0.9440 0.9440 0.9440 0.9440 0.9440
2758.262703 0.9440 0.9440 0.9440 0.9440 0.9437
2762.610533 0.9427 0.9420 0.9420 0.9419 0.9414
2766.958362 0.9410 0.9410 0.9410 0.9410 0.9410
2771.306192 0.9410 0.9406 0.9391 0.9376 0.9361
2775.654022 0.9349 0.9344 0.9340 0.9340 0.9339
2780.001852 0.9334 0.9322 0.9293 0.9265 0.9245
2784.349682 0.9226 0.9211 0.9197 0.9188 0.9176
2788.697512 0.9161 0.9146 0.9131 0.9119 0.9114
2793.045342 0.9107 0.9092 0.9079 0.9074 0.9068
2797.393172 0.9058 0.9046 0.9026 0.9008 0.8998
2801.741002 0.8986 0.8966 0.8947 0.8932 0.8917
2806.088832 0.8902 0.8890 0.8890 0.8889 0.8884
2810.436662 0.8870 0.8821 0.8775 0.8750 0.8728
2814.784492 0.8718 0.8708 0.8698 0.8687 0.8666
2819.132322 0.8640 0.8585 0.8533 0.8493 0.8456
2823.480152 0.8431 0.8406 0.8381 0.8350 0.8291
2827.827982 0.8232 0.8177 0.8111 0.7981 0.7828
2832.175812 0.7534 0.7275 0.7235 0.7195 0.7155
2836.523642 0.7113 0.7063 0.6973 0.6629 0.6311
2840.871472 0.6166 0.6035 0.5995 0.5956 0.5921
2845.219302 0.5887 0.5857 0.5786 0.5377 0.4968
2849.567131 0.4559 0.4135 0.3572 0.3056 0.3016
2853.914961 0.2965 0.2820 0.2677 0.2542 0.2407
2858.262791 0.2262 0.2123 0.2038 0.1960 0.1960
2862.610621 0.1965 0.2024 0.2090 0.2240 0.2387
2866.958451 0.2502 0.2613 0.2663 0.2709 0.2694
2871.306281 0.2676 0.2622 0.2566 0.2491 0.2419
2875.654111 0.2404 0.2390 0.2390 0.2398 0.2588
2880.001941 0.2784 0.3158 0.3529 0.3803 0.4076
2884.349771 0.4300 0.4521 0.4566 0.4610 0.4641
2888.697601 0.4670 0.4670 0.4669 0.4619 0.4568
2893.045431 0.4428 0.4289 0.4139 0.3990 0.3980
2897.393261 0.3970 0.3910 0.3850 0.3781 0.3711
2901.741091 0.3631 0.3552 0.3477 0.3402 0.3321
2906.088921 0.3241 0.3206 0.3171 0.3082 0.2992
2910.436751 0.2732 0.2468 0.2276 0.2087 0.1955
2914.784581 0.1825 0.1729 0.1634 0.1554 0.1474
2919.132411 0.1390 0.1305 0.1178 0.1048 0.0922
2923.480241 0.0796 0.0705 0.0615 0.0582 0.0552
2927.828071 0.0513 0.0473 0.0447 0.0422 0.0411
2932.175900 0.0401 0.0395 0.0390 0.0390 0.0390
2936.523730 0.0395 0.0400 0.0414 0.0428 0.0466
2940.871560 0.0506 0.0814 0.1148 0.1243 0.1313
2945.219390 0.1320 0.1320 0.1338 0.1358 0.1351
2949.567220 0.1341 0.1287 0.1227 0.1168 0.1108
2953.915050 0.1048 0.0988 0.0872 0.0748 0.0695
2958.262880 0.0655 0.0598 0.0538 0.0487 0.0437
2962.610710 0.0417 0.0402 0.0409 0.0418 0.0437
2966.958540 0.0457 0.0489 0.0524 0.0772 0.1061
2971.306370 0.1268 0.1457 0.1708 0.1972 0.2028
2975.654200 0.2038 0.2281 0.2570 0.2628 0.2638
2980.002030 0.2861 0.3130 0.3729 0.4402 0.4995
2984.349860 0.5568 0.5989 0.6373 0.6458 0.6468
2988.697690 0.6679 0.6944 0.7110 0.7249 0.7288
2993.045520 0.7298 0.7359 0.7434 0.7493 0.7548
2997.393350 0.7568 0.7578 0.7603 0.7633 0.7644
3001.741180 0.7649 0.7658 0.7668 0.7674 0.7679
3006.089010 0.7684 0.7689 0.7712 0.7742 0.7821
3010.436840 0.7917 0.7951 0.7966 0.8019 0.8083
3014.784670 0.8159 0.8239 0.8348 0.8468 0.8504
3019.132499 0.8509 0.8619 0.8768 0.8853 0.8913
3023.480329 0.8937 0.8947 0.8971 0.9001 0.9031
3027.828159 0.9061 0.9084 0.9104 0.9135 0.9170
3032.175989 0.9205 0.9240 0.9250 0.9250 0.9253
3036.523819 0.9258 0.9274 0.9294 0.9310 0.9325
3040.871649 0.9333 0.9338 0.9343 0.9348 0.9357
3045.219479 0.9367 0.9373 0.9378 0.9387 0.9397
3049.567309 0.9407 0.9417 0.9430 0.9445 0.9460
3053.915139 0.9475 0.9483 0.9488 0.9500 0.9515
3058.262969 0.9520 0.9520 0.9523 0.9528 0.9536
3062.610799 0.9546 0.9553 0.9558 0.9560 0.9560
3066.958629 0.9563 0.9568 0.9570 0.9570 0.9576
3071.306459 0.9586 0.9593 0.9598 0.9600 0.9600
3075.654289 0.9600 0.9600 0.9603 0.9608 0.9616
3080.002119 0.9626 0.9633 0.9638 0.9643 0.9648
3084.349949 0.9656 0.9666 0.9670 0.9670 0.9673
3088.697779 0.9678 0.9686 0.9696 0.9700 0.9700
3093.045609 0.9703 0.9708 0.9710 0.9710 0.9713
3097.393439 0.9718 0.9720 0.9720 0.9720 0.9720
3101.741268 0.9726 0.9735 0.9743 0.9748 0.9753
3106.089098 0.9758 0.9760 0.9760 0.9760 0.9760
3110.436928 0.9760 0.9760 0.9765 0.9775 0.9780
3114.784758 0.9780 0.9783 0.9788 0.9790 0.9790
3119.132588 0.9793 0.9798 0.9800 0.9800 0.9800
3123.480418 0.9800 0.9805 0.9815 0.9820 0.9820
3127.828248 0.9820 0.9820 0.9820 0.9820 0.9822
3132.176078 0.9827 0.9830 0.9830 0.9830 0.9830
3136.523908 0.9828 0.9823 0.9820 0.9820 0.9820
3140.871738 0.9820 0.9820 0.9820 0.9820 0.9820
3145.219568 0.9820 0.9820 0.9822 0.9827 0.9830
3149.567398 0.9830 0.9834 0.9844 0.9850 0.9850
3153.915228 0.9850 0.9850 0.9850 0.9850 0.9850
3158.263058 0.9850 0.9850 0.9850 0.9852 0.9857
3162.610888 0.9860 0.9860 0.9860 0.9860 0.9860
3166.958718 0.9860 0.9860 0.9860 0.9860 0.9860
3171.306548 0.9860 0.9860 0.9860 0.9860 0.9860
3175.654378 0.9860 0.9860 0.9860 0.9860 0.9860
3180.002208 0.9860 0.9860 0.9860 0.9860 0.9860
3184.350037 0.9860 0.9862 0.9867 0.9870 0.9870
3188.697867 0.9870 0.9870 0.9870 0.9870 0.9870
3193.045697 0.9870 0.9870 0.9870 0.9870 0.9870
3197.393527 0.9873 0.9883 0.9890 0.9890 0.9892
3201.741357 0.9897 0.9900 0.9900 0.9900 0.9900
3206.089187 0.9900 0.9900 0.9900 0.9900 0.9900
3210.437017 0.9900 0.9902 0.9906 0.9910 0.9910
3214.784847 0.9910 0.9910 0.9913 0.9923 0.9930
3219.132677 0.9930 0.9931 0.9936 0.9940 0.9940
3223.480507 0.9940 0.9940 0.9940 0.9940 0.9940
3227.828337 0.9940 0.9940 0.9940 0.9941 0.9946
3232.176167 0.9950 0.9950 0.9950 0.9950 0.9950
3236.523997 0.9950 0.9950 0.9950 0.9952 0.9962
3240.871827 0.9971 0.9976 0.9982 0.9992 1.0000
3245.219657 1.0000 1.0000 1.0000 1.0001 1.0006
3249.567487 1.0010 1.0010 1.0010 1.0010 1.0011
3253.915317 1.0016 1.0020 1.0020 1.0020 1.0020
3258.263147 1.0020 1.0020 1.0022 1.0032 1.0040
3262.610977 1.0040 1.0040 1.0040 1.0040 1.0040
3266.958807 1.0041 1.0046 1.0051 1.0056 1.0060
3271.306636 1.0060 1.0062 1.0072 1.0080 1.0080
3275.654466 1.0080 1.0080 1.0080 1.0080 1.0081
3280.002296 1.0086 1.0090 1.0090 1.0091 1.0096
3284.350126 1.0100 1.0100 1.0101 1.0111 1.0120
3288.697956 1.0120 1.0121 1.0126 1.0130 1.0130
3293.045786 1.0130 1.0130 1.0130 1.0130 1.0130
3297.393616 1.0130 1.0131 1.0136 1.0140 1.0140
3301.741446 1.0140 1.0140 1.0140 1.0140 1.0140
3306.089276 1.0140 1.0140 1.0140 1.0140 1.0140
3310.437106 1.0140 1.0140 1.0140 1.0140 1.0140
3314.784936 1.0135 1.0130 1.0130 1.0130 1.0130
3319.132766 1.0130 1.0130 1.0130 1.0130 1.0130
3323.480596 1.0130 1.0130 1.0130 1.0130 1.0130
3327.828426 1.0130 1.0130 1.0130 1.0130 1.0130
3332.176256 1.0130 1.0130 1.0130 1.0130 1.0130
3336.524086 1.0130 1.0130 1.0130 1.0130 1.0130
3340.871916 1.0130 1.0130 1.0135 1.0140 1.0135
3345.219746 1.0130 1.0130 1.0130 1.0130 1.0130
3349.567576 1.0130 1.0130 1.0130 1.0130 1.0135
3353.915405 1.0140 1.0135 1.0130 1.0130 1.0130
3358.263235 1.0130 1.0130 1.0135 1.0140 1.0150
3362.611065 1.0160 1.0160 1.0160 1.0160 1.0160
3366.958895 1.0165 1.0170 1.0180 1.0190 1.0195
3371.306725 1.0200 1.0200 1.0200 1.0200 1.0200
3375.654555 1.0205 1.0210 1.0205 1.0200 1.0200
3380.002385 1.0200 1.0200 1.0200 1.0200 1.0200
3384.350215 1.0200 1.0200 1.0200 1.0200 1.0200
3388.698045 1.0200 1.0200 1.0200 1.0200 1.0200
3393.045875 1.0200 1.0200 1.0200 1.0200 1.0205
3397.393705 1.0210 1.0206 1.0201 1.0200 1.0200
3401.741535 1.0200 1.0200 1.0200 1.0200 1.0200
3406.089365 1.0200 1.0200 1.0200 1.0196 1.0191
3410.437195 1.0181 1.0171 1.0170 1.0170 1.0166
3414.785025 1.0161 1.0160 1.0160 1.0160 1.0160
3419.132855 1.0152 1.0142 1.0140 1.0140 1.0140
3423.480685 1.0140 1.0140 1.0140 1.0140 1.0140
3427.828515 1.0136 1.0131 1.0126 1.0121 1.0120
3432.176345 1.0120 1.0120 1.0120 1.0120 1.0120
3436.524174 1.0120 1.0120 1.0112 1.0102 1.0100
3440.872004 1.0100 1.0100 1.0100 1.0096 1.0091
3445.219834 1.0090 1.0090 1.0086 1.0081 1.0080
3449.567664 1.0080 1.0084 1.0089 1.0086 1.0081
3453.915494 1.0080 1.0080 1.0080 1.0080 1.0080
3458.263324 1.0080 1.0080 1.0080 1.0073 1.0063
3462.611154 1.0060 1.0060 1.0060 1.0060 1.0056
3466.958984 1.0051 1.0050 1.0050 1.0046 1.0041
3471.306814 1.0040 1.0040 1.0040 1.0040 1.0040
3475.654644 1.0040 1.0040 1.0040 1.0040 1.0040
3480.002474 1.0033 1.0023 1.0027 1.0037 1.0040
3484.350304 1.0040 1.0040 1.0040 1.0040 1.0040
3488.698134 1.0033 1.0023 1.0017 1.0012 1.0010
3493.045964 1.0010 1.0010 1.0010 1.0010 1.0010
3497.393794 1.0007 1.0002 1.0000 1.0000 1.0000
3501.741624 1.0000 1.0003 1.0008 1.0010 1.0010
3506.089454 1.0010 1.0010 1.0007 1.0002 0.9994
3510.437284 0.9984 0.9980 0.9980 0.9980 0.9980
3514.785114 0.9980 0.9980 0.9980 0.9980 0.9980
3519.132944 0.9980 0.9980 0.9980 0.9986 0.9996
3523.480773 0.9994 0.9984 0.9977 0.9972 0.9970
3527.828603 0.9970 0.9970 0.9970 0.9973 0.9978
3532.176433 0.9986 0.9996 1.0000 1.0000 1.0000
3536.524263 1.0000 1.0000 1.0000 1.0000 1.0000
3540.872093 1.0000 1.0000 1.0000 1.0000 0.9994
3545.219923 0.9984 0.9980 0.9980 0.9977 0.9972
3549.567753 0.9970 0.9970 0.9970 0.9970 0.9965
3553.915583 0.9955 0.9950 0.9950 0.9950 0.9950
3558.263413 0.9950 0.9950 0.9950 0.9950 0.9950
3562.611243 0.9950 0.9950 0.9950 0.9950 0.9950
3566.959073 0.9950 0.9950 0.9950 0.9950 0.9947
3571.306903 0.9942 0.9940 0.9940 0.9940 0.9940
3575.654733 0.9940 0.9940 0.9940 0.9940 0.9942
3580.002563 0.9947 0.9950 0.9950 0.9948 0.9943
3584.350393 0.9938 0.9933 0.9930 0.9930 0.9930
3588.698223 0.9930 0.9932 0.9937 0.9940 0.9940
3593.046053 0.9938 0.9933 0.9926 0.9916 0.9910
3597.393883 0.9910 0.9910 0.9910 0.9908 0.9903
3601.741713 0.9900 0.9900 0.9900 0.9900 0.9898
3606.089542 0.9893 0.9890 0.9890 0.9890 0.9890
3610.437372 0.9890 0.9890 0.9890 0.9890 0.9890
3614.785202 0.9890 0.9890 0.9890 0.9890 0.9890
3619.133032 0.9892 0.9897 0.9900 0.9900 0.9898
3623.480862 0.9893 0.9890 0.9890 0.9890 0.9890
3627.828692 0.9886 0.9876 0.9870 0.9870 0.9870
3632.176522 0.9870 0.9870 0.9870 0.9870 0.9870
3636.524352 0.9870 0.9870 0.9870 0.9870 0.9870
3640.872182 0.9870 0.9870 0.9870 0.9870 0.9870
3645.220012 0.9870 0.9870 0.9870 0.9870 0.9873
3649.567842 0.9883 0.9892 0.9897 0.9900 0.9900
3653.915672 0.9900 0.9900 0.9900 0.9900 0.9900
3658.263502 0.9900 0.9902 0.9907 0.9910 0.9910
3662.611332 0.9909 0.9904 0.9900 0.9900 0.9900
3666.959162 0.9900 0.9900 0.9900 0.9900 0.9900
3671.306992 0.9900 0.9900 0.9901 0.9906 0.9910
3675.654822 0.9910 0.9913 0.9923 0.9930 0.9930
3680.002652 0.9935 0.9955 0.9970 0.9970 0.9968
3684.350482 0.9958 0.9948 0.9938 0.9930 0.9930
3688.698311 0.9931 0.9936 0.9940 0.9940 0.9936
3693.046141 0.9921 0.9910 0.9910 0.9910 0.9910
3697.393971 0.9910 0.9910 0.9912 0.9922 0.9930
3701.741801 0.9930 0.9931 0.9936 0.9941 0.9946
3706.089631 0.9949 0.9944 0.9939 0.9934 0.9928
3710.437461 0.9918 0.9910 0.9910 0.9909 0.9904
3714.785291 0.9900 0.9900 0.9900 0.9900 0.9901
3719.133121 0.9906 0.9912 0.9922 0.9930 0.9930
3723.480951 0.9928 0.9918 0.9910 0.9910 0.9910
3727.828781 0.9910 0.9910 0.9910 0.9912 0.9921
3732.176611 0.9930 0.9930 0.9931 0.9936 0.9940
3736.524441 0.9940 0.9939 0.9934 0.9928 0.9913
3740.872271 0.9899 0.9894 0.9890 0.9890 0.9891
3745.220101 0.9896 0.9900 0.9900 0.9900 0.9900
3749.567931 0.9900 0.9900 0.9902 0.9916 0.9930
3753.915761 0.9930 0.9930 0.9930 0.9930 0.9930
3758.263591 0.9930 0.9930 0.9930 0.9930 0.9930
3762.611421 0.9930 0.9930 0.9930 0.9930 0.9935
3766.959251 0.9940 0.9940 0.9940 0.9935 0.9930
3771.307081 0.9930 0.9930 0.9930 0.9930 0.9930
3775.654910 0.9930 0.9930 0.9930 0.9930 0.9930
3780.002740 0.9935 0.9940 0.9945 0.9950 0.9945
3784.350570 0.9940 0.9940 0.9940 0.9940 0.9940
3788.698400 0.9940 0.9940 0.9940 0.9940 0.9940
3793.046230 0.9940 0.9940 0.9940 0.9940 0.9940
3797.394060 0.9925 0.9910 0.9910 0.9910
##END=
