##TITLE=Caprylic acid, methyl ester
##JCAMP-DX=4.24
$$ By DXEDIT 1.05 (RS McDonald)
##DATA TYPE=INFRARED SPECTRUM
##CLASS=COBLENTZ III
##ORIGIN=DOW CHEMICAL COMPANY
##OWNER=COPYRIGHT (C) 1988 by COBLENTZ SOCIETY INC.
Collection (C) 2018 copyright by the U.S. Secretary of Commerce
on behalf of the United States of America. All rights reserved.
##DATE=1954/05/25
##NAMES=methyl octanoate
##CAS REGISTRY NO=111-11-5
##MOLFORM=C9 H18 O2
##BP=61 C AT 5 mmHg
##SOURCE REFERENCE=COBLENTZ NO. 6757
##$NIST SOURCE=COBLENTZ
##$NIST IMAGE=cob6757
##SPECTROMETER/DATA SYSTEM=BAIRD (GRATING)
##INSTRUMENT PARAMETERS=NaCl PRISM
##STATE=SOLUTION (10% CCl4 FOR 2-7.6, 10% CS2 FOR 7.6-16 MICRON)
##PATH LENGTH=0.012 CM, AND 0.012 CM
$$SPECTRAL CONTAMINATION DUE TO CCl4 AROUND 1560 CM^-^1 HAS BEEN SUBTRACTED
##SAMPLING PROCEDURE=TRANSMISSION
##RESOLUTION=2
##DATA PROCESSING=DIGITIZED BY COBLENTZ SOCIETY (BATCH I) FROM HARD COPY
##XUNITS=1/CM
##YUNITS=TRANSMITTANCE
##XFACTOR=1
##YFACTOR=1
##DELTAX=1
##FIRSTX=4000
##LASTX=631
##FIRSTY=0.8901
##MAXX=4000
##MINX=631
##MAXY=0.9137
##MINY=0.0426
##NPOINTS=3370
##XYDATA=(X++(Y..Y))
4000.000000 0.8901 0.8901 0.8901 0.8901 0.8901
3995.000000 0.8901 0.8894 0.8895 0.8895 0.8895
3990.000000 0.8895 0.8895 0.8902 0.8903 0.8903
3985.000000 0.8903 0.8903 0.8905 0.8908 0.8906
3980.000000 0.8908 0.8904 0.8904 0.8904 0.8904
3975.000000 0.8904 0.8905 0.8905 0.8905 0.8905
3970.000000 0.8905 0.8905 0.8906 0.8906 0.8906
3965.000000 0.8906 0.8906 0.8899 0.8899 0.8906
3960.000000 0.8906 0.8906 0.8906 0.8906 0.8906
3955.000000 0.8906 0.8906 0.8906 0.8906 0.8906
3950.000000 0.8906 0.8905 0.8905 0.8905 0.8905
3945.000000 0.8910 0.8912 0.8912 0.8912 0.8912
3940.000000 0.8912 0.8905 0.8905 0.8904 0.8904
3935.000000 0.8904 0.8904 0.8904 0.8904 0.8904
3930.000000 0.8903 0.8903 0.8903 0.8903 0.8903
3925.000000 0.8899 0.8895 0.8895 0.8899 0.8903
3920.000000 0.8898 0.8895 0.8899 0.8901 0.8896
3915.000000 0.8894 0.8894 0.8894 0.8901 0.8901
3910.000000 0.8901 0.8901 0.8901 0.8895 0.8901
3905.000000 0.8901 0.8901 0.8901 0.8903 0.8909
3900.000000 0.8909 0.8906 0.8901 0.8901 0.8901
3895.000000 0.8901 0.8900 0.8900 0.8900 0.8900
3890.000000 0.8900 0.8900 0.8900 0.8900 0.8900
3885.000000 0.8900 0.8907 0.8900 0.8900 0.8900
3880.000000 0.8901 0.8907 0.8900 0.8902 0.8907
3875.000000 0.8907 0.8905 0.8900 0.8903 0.8907
3870.000000 0.8904 0.8901 0.8901 0.8905 0.8909
3865.000000 0.8909 0.8904 0.8903 0.8909 0.8910
3860.000000 0.8910 0.8910 0.8911 0.8911 0.8911
3855.000000 0.8911 0.8911 0.8911 0.8912 0.8911
3850.000000 0.8905 0.8908 0.8913 0.8913 0.8914
3845.000000 0.8914 0.8912 0.8913 0.8917 0.8919
3840.000000 0.8920 0.8921 0.8922 0.8923 0.8924
3835.000000 0.8925 0.8926 0.8927 0.8921 0.8927
3830.000000 0.8928 0.8930 0.8931 0.8931 0.8933
3825.000000 0.8934 0.8935 0.8935 0.8935 0.8932
3820.000000 0.8938 0.8940 0.8940 0.8941 0.8942
3815.000000 0.8943 0.8940 0.8938 0.8939 0.8943
3810.000000 0.8947 0.8943 0.8942 0.8948 0.8951
3805.000000 0.8952 0.8952 0.8953 0.8947 0.8947
3800.000000 0.8947 0.8948 0.8948 0.8949 0.8954
3795.000000 0.8949 0.8955 0.8954 0.8954 0.8954
3790.000000 0.8953 0.8953 0.8953 0.8952 0.8952
3785.000000 0.8951 0.8945 0.8942 0.8941 0.8946
3780.000000 0.8948 0.8941 0.8945 0.8945 0.8944
3775.000000 0.8936 0.8942 0.8941 0.8940 0.8937
3770.000000 0.8937 0.8936 0.8934 0.8934 0.8932
3765.000000 0.8930 0.8930 0.8929 0.8927 0.8927
3760.000000 0.8930 0.8928 0.8924 0.8923 0.8922
3755.000000 0.8921 0.8920 0.8918 0.8917 0.8916
3750.000000 0.8914 0.8913 0.8911 0.8911 0.8910
3745.000000 0.8909 0.8909 0.8908 0.8907 0.8906
3740.000000 0.8906 0.8907 0.8911 0.8911 0.8910
3735.000000 0.8909 0.8904 0.8900 0.8903 0.8906
3730.000000 0.8906 0.8905 0.8904 0.8903 0.8903
3725.000000 0.8901 0.8901 0.8900 0.8899 0.8899
3720.000000 0.8898 0.8891 0.8891 0.8898 0.8898
3715.000000 0.8898 0.8898 0.8898 0.8900 0.8903
3710.000000 0.8901 0.8907 0.8907 0.8907 0.8907
3705.000000 0.8907 0.8907 0.8907 0.8907 0.8907
3700.000000 0.8907 0.8907 0.8908 0.8908 0.8901
3695.000000 0.8900 0.8900 0.8900 0.8900 0.8901
3690.000000 0.8902 0.8902 0.8903 0.8903 0.8898
3685.000000 0.8899 0.8900 0.8900 0.8901 0.8902
3680.000000 0.8903 0.8904 0.8904 0.8905 0.8906
3675.000000 0.8906 0.8906 0.8907 0.8907 0.8907
3670.000000 0.8913 0.8908 0.8907 0.8907 0.8907
3665.000000 0.8906 0.8906 0.8905 0.8905 0.8905
3660.000000 0.8904 0.8901 0.8898 0.8896 0.8893
3655.000000 0.8891 0.8888 0.8884 0.8881 0.8878
3650.000000 0.8875 0.8873 0.8870 0.8868 0.8865
3645.000000 0.8862 0.8860 0.8857 0.8854 0.8852
3640.000000 0.8849 0.8845 0.8843 0.8840 0.8838
3635.000000 0.8834 0.8831 0.8831 0.8834 0.8831
3630.000000 0.8827 0.8819 0.8818 0.8820 0.8818
3625.000000 0.8815 0.8812 0.8809 0.8805 0.8802
3620.000000 0.8799 0.8797 0.8794 0.8790 0.8787
3615.000000 0.8785 0.8782 0.8779 0.8776 0.8774
3610.000000 0.8771 0.8767 0.8758 0.8761 0.8758
3605.000000 0.8755 0.8752 0.8747 0.8741 0.8743
3600.000000 0.8736 0.8728 0.8730 0.8730 0.8727
3595.000000 0.8724 0.8721 0.8719 0.8716 0.8713
3590.000000 0.8709 0.8706 0.8703 0.8700 0.8697
3585.000000 0.8694 0.8690 0.8687 0.8684 0.8680
3580.000000 0.8677 0.8675 0.8672 0.8669 0.8664
3575.000000 0.8658 0.8660 0.8656 0.8649 0.8642
3570.000000 0.8639 0.8635 0.8632 0.8629 0.8625
3565.000000 0.8622 0.8619 0.8616 0.8613 0.8609
3560.000000 0.8605 0.8602 0.8599 0.8595 0.8592
3555.000000 0.8596 0.8585 0.8583 0.8585 0.8582
3550.000000 0.8576 0.8568 0.8570 0.8566 0.8562
3545.000000 0.8555 0.8551 0.8551 0.8547 0.8543
3540.000000 0.8535 0.8533 0.8525 0.8526 0.8523
3535.000000 0.8518 0.8511 0.8505 0.8497 0.8491
3530.000000 0.8485 0.8471 0.8465 0.8458 0.8452
3525.000000 0.8446 0.8440 0.8435 0.8429 0.8424
3520.000000 0.8421 0.8419 0.8416 0.8414 0.8411
3515.000000 0.8408 0.8407 0.8405 0.8403 0.8401
3510.000000 0.8400 0.8398 0.8397 0.8395 0.8394
3505.000000 0.8394 0.8393 0.8392 0.8392 0.8391
3500.000000 0.8391 0.8391 0.8390 0.8390 0.8389
3495.000000 0.8389 0.8389 0.8389 0.8389 0.8389
3490.000000 0.8389 0.8389 0.8389 0.8389 0.8389
3485.000000 0.8391 0.8392 0.8393 0.8394 0.8396
3480.000000 0.8398 0.8400 0.8402 0.8404 0.8407
3475.000000 0.8411 0.8413 0.8418 0.8423 0.8428
3470.000000 0.8434 0.8440 0.8445 0.8451 0.8456
3465.000000 0.8462 0.8467 0.8474 0.8481 0.8487
3460.000000 0.8494 0.8501 0.8507 0.8510 0.8514
3455.000000 0.8516 0.8518 0.8521 0.8522 0.8523
3450.000000 0.8526 0.8528 0.8530 0.8532 0.8534
3445.000000 0.8536 0.8539 0.8541 0.8543 0.8545
3440.000000 0.8547 0.8549 0.8549 0.8549 0.8548
3435.000000 0.8548 0.8547 0.8547 0.8547 0.8546
3430.000000 0.8546 0.8545 0.8545 0.8544 0.8543
3425.000000 0.8537 0.8541 0.8540 0.8539 0.8538
3420.000000 0.8537 0.8535 0.8534 0.8533 0.8532
3415.000000 0.8531 0.8530 0.8529 0.8526 0.8526
3410.000000 0.8524 0.8522 0.8521 0.8524 0.8521
3405.000000 0.8518 0.8518 0.8518 0.8518 0.8520
3400.000000 0.8520 0.8521 0.8521 0.8521 0.8522
3395.000000 0.8522 0.8522 0.8522 0.8522 0.8522
3390.000000 0.8522 0.8522 0.8522 0.8524 0.8524
3385.000000 0.8524 0.8524 0.8524 0.8525 0.8525
3380.000000 0.8525 0.8525 0.8525 0.8525 0.8524
3375.000000 0.8524 0.8524 0.8522 0.8522 0.8522
3370.000000 0.8528 0.8523 0.8522 0.8522 0.8522
3365.000000 0.8522 0.8521 0.8521 0.8521 0.8521
3360.000000 0.8520 0.8520 0.8520 0.8518 0.8518
3355.000000 0.8518 0.8518 0.8518 0.8518 0.8517
3350.000000 0.8517 0.8517 0.8515 0.8515 0.8515
3345.000000 0.8519 0.8520 0.8513 0.8517 0.8510
3340.000000 0.8509 0.8508 0.8514 0.8513 0.8511
3335.000000 0.8504 0.8502 0.8501 0.8500 0.8499
3330.000000 0.8498 0.8497 0.8495 0.8494 0.8493
3325.000000 0.8492 0.8491 0.8491 0.8490 0.8490
3320.000000 0.8490 0.8490 0.8490 0.8490 0.8490
3315.000000 0.8489 0.8489 0.8489 0.8496 0.8496
3310.000000 0.8496 0.8496 0.8495 0.8490 0.8496
3305.000000 0.8496 0.8494 0.8489 0.8489 0.8489
3300.000000 0.8489 0.8489 0.8489 0.8489 0.8489
3295.000000 0.8489 0.8489 0.8488 0.8486 0.8485
3290.000000 0.8484 0.8483 0.8482 0.8481 0.8479
3285.000000 0.8478 0.8477 0.8482 0.8480 0.8473
3280.000000 0.8474 0.8477 0.8474 0.8468 0.8469
3275.000000 0.8472 0.8470 0.8470 0.8468 0.8467
3270.000000 0.8466 0.8465 0.8464 0.8462 0.8461
3265.000000 0.8460 0.8459 0.8458 0.8457 0.8456
3260.000000 0.8455 0.8454 0.8453 0.8451 0.8444
3255.000000 0.8450 0.8448 0.8447 0.8446 0.8445
3250.000000 0.8444 0.8443 0.8442 0.8441 0.8440
3245.000000 0.8435 0.8434 0.8436 0.8435 0.8434
3240.000000 0.8432 0.8431 0.8429 0.8429 0.8428
3235.000000 0.8426 0.8425 0.8424 0.8422 0.8422
3230.000000 0.8421 0.8419 0.8419 0.8417 0.8410
3225.000000 0.8410 0.8413 0.8412 0.8411 0.8410
3220.000000 0.8409 0.8407 0.8406 0.8405 0.8404
3215.000000 0.8402 0.8401 0.8400 0.8399 0.8398
3210.000000 0.8396 0.8395 0.8388 0.8386 0.8385
3205.000000 0.8383 0.8382 0.8381 0.8380 0.8378
3200.000000 0.8378 0.8381 0.8375 0.8378 0.8373
3195.000000 0.8375 0.8374 0.8373 0.8370 0.8370
3190.000000 0.8364 0.8364 0.8364 0.8364 0.8356
3185.000000 0.8353 0.8352 0.8350 0.8348 0.8346
3180.000000 0.8343 0.8342 0.8340 0.8338 0.8336
3175.000000 0.8334 0.8332 0.8329 0.8327 0.8325
3170.000000 0.8323 0.8321 0.8319 0.8316 0.8315
3165.000000 0.8312 0.8312 0.8313 0.8306 0.8306
3160.000000 0.8305 0.8301 0.8294 0.8293 0.8287
3155.000000 0.8281 0.8284 0.8282 0.8279 0.8275
3150.000000 0.8272 0.8268 0.8258 0.8255 0.8252
3145.000000 0.8249 0.8245 0.8242 0.8239 0.8237
3140.000000 0.8239 0.8235 0.8232 0.8227 0.8223
3135.000000 0.8217 0.8213 0.8209 0.8205 0.8200
3130.000000 0.8195 0.8191 0.8185 0.8181 0.8176
3125.000000 0.8172 0.8165 0.8159 0.8155 0.8149
3120.000000 0.8141 0.8135 0.8129 0.8121 0.8115
3115.000000 0.8110 0.8103 0.8096 0.8090 0.8083
3110.000000 0.8077 0.8070 0.8062 0.8060 0.8056
3105.000000 0.8049 0.8040 0.8031 0.8022 0.8014
3100.000000 0.8010 0.8003 0.7994 0.7991 0.7990
3095.000000 0.7987 0.7979 0.7970 0.7960 0.7945
3090.000000 0.7933 0.7916 0.7904 0.7897 0.7890
3085.000000 0.7872 0.7860 0.7851 0.7840 0.7829
3080.000000 0.7817 0.7806 0.7799 0.7795 0.7785
3075.000000 0.7774 0.7768 0.7758 0.7741 0.7727
3070.000000 0.7713 0.7695 0.7687 0.7665 0.7652
3065.000000 0.7636 0.7620 0.7600 0.7585 0.7571
3060.000000 0.7556 0.7539 0.7515 0.7490 0.7459
3055.000000 0.7423 0.7382 0.7338 0.7300 0.7272
3050.000000 0.7241 0.7208 0.7176 0.7142 0.7115
3045.000000 0.7081 0.7023 0.6967 0.6909 0.6856
3040.000000 0.6805 0.6749 0.6693 0.6640 0.6583
3035.000000 0.6528 0.6475 0.6427 0.6381 0.6337
3030.000000 0.6294 0.6252 0.6214 0.6172 0.6091
3025.000000 0.5988 0.5885 0.5782 0.5738 0.5696
3020.000000 0.5653 0.5616 0.5576 0.5537 0.5493
3015.000000 0.5456 0.5421 0.5386 0.5351 0.5309
3010.000000 0.5267 0.5225 0.5141 0.5002 0.4867
3005.000000 0.4734 0.4693 0.4672 0.4651 0.4617
3000.000000 0.4525 0.4430 0.4334 0.4224 0.4103
2995.000000 0.3983 0.3862 0.3744 0.3624 0.3502
2990.000000 0.3382 0.3261 0.3139 0.3018 0.2897
2985.000000 0.2775 0.2652 0.2532 0.2410 0.2288
2980.000000 0.2167 0.2046 0.1924 0.1800 0.1679
2975.000000 0.1558 0.1433 0.1312 0.1190 0.1067
2970.000000 0.0945 0.0832 0.0793 0.0755 0.0717
2965.000000 0.0685 0.0660 0.0633 0.0607 0.0589
2960.000000 0.0570 0.0552 0.0542 0.0537 0.0532
2955.000000 0.0528 0.0527 0.0527 0.0524 0.0523
2950.000000 0.0522 0.0519 0.0519 0.0519 0.0519
2945.000000 0.0519 0.0526 0.0539 0.0551 0.0563
2940.000000 0.0581 0.0599 0.0616 0.0642 0.0669
2935.000000 0.0698 0.0731 0.0773 0.0815 0.0857
2930.000000 0.0908 0.0962 0.1014 0.1068 0.1122
2925.000000 0.1176 0.1229 0.1283 0.1336 0.1389
2920.000000 0.1444 0.1497 0.1550 0.1605 0.1658
2915.000000 0.1713 0.1766 0.1820 0.1875 0.1929
2910.000000 0.1983 0.2037 0.2092 0.2147 0.2199
2905.000000 0.2254 0.2308 0.2346 0.2377 0.2406
2900.000000 0.2428 0.2428 0.2429 0.2429 0.2425
2895.000000 0.2420 0.2415 0.2403 0.2386 0.2369
2890.000000 0.2352 0.2335 0.2318 0.2301 0.2283
2885.000000 0.2267 0.2249 0.2237 0.2231 0.2225
2880.000000 0.2220 0.2220 0.2220 0.2218 0.2327
2875.000000 0.2452 0.2577 0.2718 0.2872 0.3025
2870.000000 0.3179 0.3333 0.3487 0.3639 0.3793
2865.000000 0.3949 0.4102 0.4256 0.4412 0.4566
2860.000000 0.4721 0.4875 0.5030 0.5185 0.5340
2855.000000 0.5495 0.5647 0.6051 0.6491 0.6931
2850.000000 0.7116 0.7148 0.7180 0.7216 0.7263
2845.000000 0.7308 0.7349 0.7385 0.7429 0.7468
2840.000000 0.7498 0.7529 0.7564 0.7594 0.7619
2835.000000 0.7645 0.7668 0.7687 0.7706 0.7725
2830.000000 0.7745 0.7768 0.7785 0.7808 0.7827
2825.000000 0.7840 0.7857 0.7879 0.7892 0.7913
2820.000000 0.7930 0.7945 0.7955 0.7971 0.7988
2815.000000 0.8002 0.8016 0.8032 0.8046 0.8059
2810.000000 0.8072 0.8086 0.8103 0.8118 0.8132
2805.000000 0.8146 0.8161 0.8176 0.8192 0.8210
2800.000000 0.8227 0.8239 0.8250 0.8260 0.8269
2795.000000 0.8275 0.8284 0.8293 0.8299 0.8303
2790.000000 0.8315 0.8316 0.8321 0.8327 0.8333
2785.000000 0.8342 0.8351 0.8350 0.8349 0.8354
2780.000000 0.8359 0.8360 0.8362 0.8363 0.8364
2775.000000 0.8365 0.8366 0.8367 0.8368 0.8368
2770.000000 0.8371 0.8372 0.8373 0.8374 0.8375
2765.000000 0.8375 0.8377 0.8378 0.8378 0.8379
2760.000000 0.8382 0.8382 0.8385 0.8385 0.8388
2755.000000 0.8389 0.8391 0.8392 0.8393 0.8395
2750.000000 0.8397 0.8400 0.8403 0.8406 0.8411
2745.000000 0.8414 0.8417 0.8421 0.8424 0.8427
2740.000000 0.8430 0.8433 0.8436 0.8439 0.8443
2735.000000 0.8448 0.8453 0.8457 0.8460 0.8464
2730.000000 0.8469 0.8472 0.8476 0.8479 0.8482
2725.000000 0.8484 0.8485 0.8487 0.8487 0.8489
2720.000000 0.8490 0.8490 0.8493 0.8494 0.8494
2715.000000 0.8494 0.8494 0.8494 0.8493 0.8492
2710.000000 0.8490 0.8490 0.8490 0.8490 0.8490
2705.000000 0.8489 0.8489 0.8489 0.8489 0.8489
2700.000000 0.8489 0.8490 0.8490 0.8492 0.8493
2695.000000 0.8494 0.8494 0.8494 0.8496 0.8497
2690.000000 0.8497 0.8501 0.8503 0.8506 0.8509
2685.000000 0.8512 0.8516 0.8519 0.8523 0.8526
2680.000000 0.8530 0.8533 0.8536 0.8538 0.8542
2675.000000 0.8545 0.8548 0.8551 0.8554 0.8557
2670.000000 0.8560 0.8563 0.8566 0.8569 0.8572
2665.000000 0.8575 0.8578 0.8581 0.8585 0.8587
2660.000000 0.8590 0.8593 0.8598 0.8607 0.8610
2655.000000 0.8612 0.8615 0.8618 0.8621 0.8622
2650.000000 0.8620 0.8623 0.8631 0.8639 0.8643
2645.000000 0.8643 0.8644 0.8648 0.8658 0.8659
2640.000000 0.8661 0.8665 0.8670 0.8674 0.8678
2635.000000 0.8682 0.8693 0.8697 0.8702 0.8699
2630.000000 0.8703 0.8715 0.8719 0.8723 0.8728
2625.000000 0.8732 0.8736 0.8741 0.8745 0.8750
2620.000000 0.8754 0.8758 0.8763 0.8767 0.8771
2615.000000 0.8776 0.8780 0.8785 0.8790 0.8793
2610.000000 0.8796 0.8800 0.8802 0.8807 0.8809
2605.000000 0.8814 0.8817 0.8820 0.8824 0.8827
2600.000000 0.8832 0.8836 0.8839 0.8842 0.8846
2595.000000 0.8849 0.8852 0.8856 0.8859 0.8862
2590.000000 0.8866 0.8871 0.8874 0.8878 0.8881
2585.000000 0.8885 0.8888 0.8891 0.8895 0.8898
2580.000000 0.8901 0.8904 0.8907 0.8912 0.8915
2575.000000 0.8919 0.8923 0.8926 0.8929 0.8932
2570.000000 0.8935 0.8937 0.8940 0.8943 0.8943
2565.000000 0.8943 0.8942 0.8942 0.8941 0.8940
2560.000000 0.8940 0.8940 0.8940 0.8940 0.8940
2555.000000 0.8940 0.8940 0.8941 0.8941 0.8941
2550.000000 0.8941 0.8941 0.8942 0.8942 0.8942
2545.000000 0.8942 0.8942 0.8943 0.8944 0.8946
2540.000000 0.8948 0.8949 0.8951 0.8953 0.8955
2535.000000 0.8955 0.8958 0.8958 0.8962 0.8963
2530.000000 0.8965 0.8966 0.8968 0.8969 0.8969
2525.000000 0.8970 0.8970 0.8971 0.8972 0.8972
2520.000000 0.8973 0.8973 0.8974 0.8975 0.8975
2515.000000 0.8976 0.8976 0.8977 0.8978 0.8978
2510.000000 0.8979 0.8979 0.8980 0.8981 0.8981
2505.000000 0.8981 0.8981 0.8981 0.8980 0.8980
2500.000000 0.8980 0.8979 0.8979 0.8979 0.8979
2495.000000 0.8978 0.8978 0.8978 0.8978 0.8978
2490.000000 0.8977 0.8977 0.8977 0.8977 0.8977
2485.000000 0.8976 0.8976 0.8976 0.8977 0.9014
2480.000000 0.8987 0.8988 0.8989 0.8990 0.8992
2475.000000 0.8993 0.8995 0.8996 0.8998 0.9000
2470.000000 0.9002 0.9004 0.9005 0.9008 0.9010
2465.000000 0.9012 0.9014 0.9017 0.9017 0.9017
2460.000000 0.9014 0.9014 0.9008 0.9006 0.9004
2455.000000 0.8998 0.8995 0.8997 0.8995 0.8992
2450.000000 0.8982 0.8982 0.8982 0.8981 0.8981
2445.000000 0.8981 0.8981 0.8982 0.8982 0.8982
2440.000000 0.8982 0.8983 0.8983 0.8983 0.8983
2435.000000 0.8983 0.8983 0.8983 0.8983 0.8983
2430.000000 0.8983 0.8983 0.8983 0.8983 0.8983
2425.000000 0.8983 0.8983 0.8983 0.8983 0.8983
2420.000000 0.8981 0.8981 0.8980 0.8979 0.8978
2415.000000 0.8977 0.8977 0.8976 0.8976 0.8975
2410.000000 0.8972 0.8974 0.8976 0.8972 0.8974
2405.000000 0.8972 0.8971 0.8969 0.8967 0.8964
2400.000000 0.8958 0.8953 0.8946 0.8939 0.8933
2395.000000 0.8927 0.8921 0.8915 0.8908 0.8902
2390.000000 0.8896 0.8897 0.8891 0.8884 0.8877
2385.000000 0.8872 0.8871 0.8863 0.8858 0.8856
2380.000000 0.8850 0.8847 0.8847 0.8847 0.8849
2375.000000 0.8846 0.8847 0.8847 0.8845 0.8842
2370.000000 0.8840 0.8832 0.8829 0.8827 0.8824
2365.000000 0.8822 0.8820 0.8807 0.8817 0.8815
2360.000000 0.8821 0.8820 0.8824 0.8825 0.8830
2355.000000 0.8835 0.8831 0.8831 0.8831 0.8828
2350.000000 0.8824 0.8824 0.8828 0.8836 0.8845
2345.000000 0.8850 0.8852 0.8858 0.8865 0.8870
2340.000000 0.8875 0.8873 0.8882 0.8887 0.8883
2335.000000 0.8888 0.8901 0.8905 0.8909 0.8914
2330.000000 0.8925 0.8928 0.8930 0.8934 0.8942
2325.000000 0.8947 0.8954 0.8957 0.8959 0.8961
2320.000000 0.8964 0.8967 0.8970 0.8972 0.8975
2315.000000 0.8977 0.8980 0.8983 0.8985 0.8987
2310.000000 0.8990 0.8992 0.8994 0.8997 0.9000
2305.000000 0.9003 0.9006 0.9009 0.9012 0.9013
2300.000000 0.9016 0.9024 0.9032 0.9035 0.9038
2295.000000 0.9041 0.9044 0.9047 0.9051 0.9054
2290.000000 0.9057 0.9061 0.9058 0.9058 0.9061
2285.000000 0.9065 0.9068 0.9065 0.9068 0.9071
2280.000000 0.9073 0.9076 0.9073 0.9076 0.9078
2275.000000 0.9074 0.9078 0.9081 0.9081 0.9079
2270.000000 0.9082 0.9082 0.9081 0.9084 0.9087
2265.000000 0.9086 0.9086 0.9090 0.9093 0.9091
2260.000000 0.9092 0.9095 0.9092 0.9093 0.9097
2255.000000 0.9100 0.9097 0.9101 0.9104 0.9107
2250.000000 0.9104 0.9109 0.9113 0.9117 0.9121
2245.000000 0.9123 0.9122 0.9126 0.9130 0.9132
2240.000000 0.9135 0.9137 0.9137 0.9137 0.9135
2235.000000 0.9128 0.9124 0.9122 0.9119 0.9115
2230.000000 0.9111 0.9107 0.9103 0.9099 0.9096
2225.000000 0.9094 0.9092 0.9091 0.9089 0.9083
2220.000000 0.9083 0.9086 0.9088 0.9091 0.9093
2215.000000 0.9096 0.9098 0.9100 0.9102 0.9105
2210.000000 0.9107 0.9110 0.9113 0.9115 0.9118
2205.000000 0.9120 0.9120 0.9120 0.9120 0.9120
2200.000000 0.9118 0.9118 0.9118 0.9118 0.9116
2195.000000 0.9110 0.9115 0.9111 0.9103 0.9101
2190.000000 0.9099 0.9097 0.9096 0.9094 0.9092
2185.000000 0.9090 0.9092 0.9089 0.9085 0.9084
2180.000000 0.9082 0.9081 0.9085 0.9085 0.9084
2175.000000 0.9082 0.9080 0.9078 0.9078 0.9078
2170.000000 0.9079 0.9080 0.9074 0.9075 0.9076
2165.000000 0.9077 0.9078 0.9079 0.9080 0.9081
2160.000000 0.9083 0.9085 0.9088 0.9091 0.9093
2155.000000 0.9097 0.9098 0.9099 0.9100 0.9101
2150.000000 0.9101 0.9101 0.9099 0.9097 0.9096
2145.000000 0.9094 0.9093 0.9092 0.9091 0.9090
2140.000000 0.9089 0.9088 0.9087 0.9085 0.9084
2135.000000 0.9083 0.9081 0.9079 0.9078 0.9076
2130.000000 0.9074 0.9073 0.9072 0.9070 0.9069
2125.000000 0.9065 0.9064 0.9062 0.9055 0.9057
2120.000000 0.9055 0.9052 0.9048 0.9045 0.9041
2115.000000 0.9037 0.9034 0.9029 0.9026 0.9022
2110.000000 0.9018 0.9016 0.9013 0.9009 0.9006
2105.000000 0.9003 0.8999 0.8995 0.8991 0.8988
2100.000000 0.8985 0.8982 0.8974 0.8968 0.8970
2095.000000 0.8969 0.8958 0.8961 0.8957 0.8954
2090.000000 0.8951 0.8948 0.8944 0.8940 0.8937
2085.000000 0.8933 0.8930 0.8926 0.8922 0.8918
2080.000000 0.8915 0.8911 0.8908 0.8904 0.8901
2075.000000 0.8898 0.8894 0.8891 0.8886 0.8883
2070.000000 0.8879 0.8876 0.8872 0.8869 0.8865
2065.000000 0.8862 0.8859 0.8856 0.8852 0.8849
2060.000000 0.8849 0.8849 0.8849 0.8851 0.8857
2055.000000 0.8857 0.8859 0.8859 0.8856 0.8856
2050.000000 0.8863 0.8860 0.8863 0.8863 0.8863
2045.000000 0.8865 0.8867 0.8868 0.8869 0.8870
2040.000000 0.8872 0.8874 0.8875 0.8876 0.8877
2035.000000 0.8878 0.8878 0.8877 0.8876 0.8874
2030.000000 0.8872 0.8871 0.8872 0.8872 0.8867
2025.000000 0.8868 0.8872 0.8872 0.8872 0.8874
2020.000000 0.8875 0.8876 0.8877 0.8879 0.8881
2015.000000 0.8882 0.8883 0.8884 0.8886 0.8887
2010.000000 0.8889 0.8891 0.8894 0.8897 0.8900
2005.000000 0.8903 0.8906 0.8908 0.8911 0.8914
2000.000000 0.8917 0.8920 0.8920 0.8918 0.8921
1995.000000 0.8923 0.8926 0.8929 0.8932 0.8934
1990.000000 0.8936 0.8938 0.8940 0.8942 0.8939
1985.000000 0.8940 0.8942 0.8944 0.8946 0.8947
1980.000000 0.8950 0.8951 0.8947 0.8949 0.8951
1975.000000 0.8953 0.8955 0.8958 0.8960 0.8962
1970.000000 0.8964 0.8966 0.8969 0.8971 0.8977
1965.000000 0.8978 0.8978 0.8986 0.8990 0.8992
1960.000000 0.8995 0.8997 0.8998 0.9001 0.9005
1955.000000 0.9008 0.9002 0.9004 0.9006 0.9009
1950.000000 0.9011 0.9007 0.9009 0.9012 0.9014
1945.000000 0.9016 0.9019 0.9021 0.9022 0.9024
1940.000000 0.9027 0.9028 0.9030 0.9032 0.9034
1935.000000 0.9035 0.9038 0.9039 0.9041 0.9042
1930.000000 0.9046 0.9045 0.9044 0.9044 0.9045
1925.000000 0.9045 0.9044 0.9042 0.9042 0.9042
1920.000000 0.9041 0.9041 0.9039 0.9039 0.9038
1915.000000 0.9037 0.9035 0.9031 0.9030 0.9028
1910.000000 0.9026 0.9024 0.9022 0.9026 0.9025
1905.000000 0.9023 0.9021 0.9019 0.9017 0.9015
1900.000000 0.9013 0.9011 0.9009 0.9007 0.9005
1895.000000 0.9003 0.9001 0.8998 0.8995 0.8991
1890.000000 0.8983 0.8982 0.8980 0.8978 0.8975
1885.000000 0.8972 0.8973 0.8971 0.8968 0.8964
1880.000000 0.8960 0.8956 0.8951 0.8946 0.8943
1875.000000 0.8946 0.8942 0.8938 0.8934 0.8931
1870.000000 0.8930 0.8929 0.8928 0.8926 0.8925
1865.000000 0.8924 0.8922 0.8917 0.8913 0.8907
1860.000000 0.8902 0.8898 0.8892 0.8893 0.8887
1855.000000 0.8880 0.8875 0.8870 0.8865 0.8861
1850.000000 0.8855 0.8848 0.8843 0.8837 0.8830
1845.000000 0.8823 0.8818 0.8811 0.8804 0.8792
1840.000000 0.8784 0.8775 0.8765 0.8756 0.8745
1835.000000 0.8728 0.8714 0.8701 0.8687 0.8672
1830.000000 0.8658 0.8645 0.8630 0.8612 0.8589
1825.000000 0.8564 0.8539 0.8513 0.8489 0.8464
1820.000000 0.8433 0.8410 0.8378 0.8347 0.8315
1815.000000 0.8282 0.8249 0.8211 0.8173 0.8133
1810.000000 0.8096 0.8055 0.8012 0.7970 0.7927
1805.000000 0.7879 0.7826 0.7775 0.7727 0.7679
1800.000000 0.7631 0.7586 0.7539 0.7493 0.7446
1795.000000 0.7391 0.7323 0.7254 0.7183 0.7113
1790.000000 0.7044 0.6974 0.6899 0.6811 0.6715
1785.000000 0.6617 0.6523 0.6428 0.6334 0.6178
1780.000000 0.5942 0.5709 0.5562 0.5387 0.5153
1775.000000 0.4956 0.4817 0.4724 0.4608 0.4428
1770.000000 0.4234 0.4042 0.3846 0.3649 0.3453
1765.000000 0.3257 0.3061 0.2864 0.2666 0.2469
1760.000000 0.2271 0.2073 0.1877 0.1676 0.1480
1755.000000 0.1280 0.1081 0.0885 0.0703 0.0614
1750.000000 0.0536 0.0480 0.0455 0.0437 0.0439
1745.000000 0.0439 0.0426 0.0427 0.0435 0.0466
1740.000000 0.0535 0.0711 0.0905 0.1061 0.1170
1735.000000 0.1278 0.1387 0.1495 0.1607 0.1767
1730.000000 0.2015 0.2265 0.2516 0.2767 0.3018
1725.000000 0.3270 0.3522 0.3775 0.4027 0.4280
1720.000000 0.4534 0.4787 0.5043 0.5304 0.5419
1715.000000 0.5562 0.5754 0.5899 0.5972 0.6035
1710.000000 0.6090 0.6142 0.6192 0.6241 0.6286
1705.000000 0.6349 0.6449 0.6564 0.6633 0.6703
1700.000000 0.6773 0.6843 0.6931 0.7049 0.7177
1695.000000 0.7311 0.7390 0.7451 0.7506 0.7554
1690.000000 0.7599 0.7643 0.7683 0.7722 0.7760
1685.000000 0.7796 0.7826 0.7853 0.7881 0.7908
1680.000000 0.7934 0.7956 0.7979 0.8001 0.8022
1675.000000 0.8049 0.8076 0.8106 0.8135 0.8153
1670.000000 0.8170 0.8180 0.8188 0.8198 0.8207
1665.000000 0.8215 0.8215 0.8215 0.8213 0.8211
1660.000000 0.8215 0.8209 0.8207 0.8211 0.8212
1655.000000 0.8214 0.8215 0.8217 0.8214 0.8223
1650.000000 0.8230 0.8236 0.8243 0.8249 0.8257
1645.000000 0.8274 0.8269 0.8268 0.8270 0.8272
1640.000000 0.8270 0.8264 0.8258 0.8247 0.8241
1635.000000 0.8230 0.8217 0.8211 0.8195 0.8179
1630.000000 0.8158 0.8142 0.8121 0.8106 0.8083
1625.000000 0.8059 0.8042 0.8018 0.7998 0.7970
1620.000000 0.7938 0.7913 0.7888 0.7863 0.7839
1615.000000 0.7818 0.7794 0.7770 0.7749 0.7710
1610.000000 0.7660 0.7617 0.7553 0.7448 0.7341
1605.000000 0.7216 0.7114 0.7019 0.6946 0.6859
1600.000000 0.6808 0.6768 0.6744 0.6726 0.6719
1595.000000 0.6709 0.6701 0.6700 0.6718 0.6737
1590.000000 0.6742 0.6756 0.6762 0.6755 0.6751
1585.000000 0.6744 0.6738 0.6731 0.6708 0.6688
1580.000000 0.6663 0.6640 0.6602 0.6571 0.6532
1575.000000 0.6500 0.6466 0.6423 0.6376 0.6296
1570.000000 0.6169 0.6109 0.6046 0.5994 0.5939
1565.000000 0.5893 0.5848 0.5802 0.5759 0.5742
1560.000000 0.5748 0.5759 0.5776 0.5800 0.5833
1555.000000 0.5883 0.5929 0.5969 0.6032 0.6101
1550.000000 0.6225 0.6423 0.6592 0.6716 0.6819
1545.000000 0.6898 0.6972 0.7045 0.7123 0.7175
1540.000000 0.7198 0.7214 0.7220 0.7192 0.7183
1535.000000 0.7181 0.7164 0.7147 0.7133 0.7118
1530.000000 0.7108 0.7110 0.7113 0.7115 0.7124
1525.000000 0.7137 0.7159 0.7175 0.7191 0.7200
1520.000000 0.7214 0.7228 0.7237 0.7259 0.7281
1515.000000 0.7300 0.7322 0.7341 0.7371 0.7406
1510.000000 0.7456 0.7521 0.7591 0.7638 0.7629
1505.000000 0.7613 0.7593 0.7572 0.7545 0.7522
1500.000000 0.7506 0.7476 0.7448 0.7422 0.7388
1495.000000 0.7354 0.7315 0.7272 0.7225 0.7177
1490.000000 0.7130 0.7053 0.6960 0.6860 0.6730
1485.000000 0.6554 0.6202 0.5880 0.5577 0.5260
1480.000000 0.4934 0.4603 0.4272 0.3941 0.3615
1475.000000 0.3291 0.2966 0.2645 0.2339 0.2360
1470.000000 0.2351 0.2350 0.2348 0.2421 0.2472
1465.000000 0.2541 0.2615 0.2690 0.2764 0.2839
1460.000000 0.2915 0.2991 0.3049 0.3101 0.3083
1455.000000 0.3080 0.3078 0.3064 0.2992 0.2882
1450.000000 0.2767 0.2654 0.2542 0.2427 0.2313
1445.000000 0.2253 0.2271 0.2273 0.2286 0.2348
1440.000000 0.3233 0.3654 0.4078 0.4490 0.4745
1435.000000 0.4853 0.4935 0.4998 0.5063 0.5140
1430.000000 0.5227 0.5313 0.5402 0.5500 0.5602
1425.000000 0.5679 0.5737 0.5794 0.5895 0.6052
1420.000000 0.6210 0.6367 0.6525 0.6684 0.6838
1415.000000 0.6994 0.7121 0.7220 0.7274 0.7307
1410.000000 0.7324 0.7337 0.7350 0.7350 0.7349
1405.000000 0.7347 0.7338 0.7318 0.7301 0.7277
1400.000000 0.7254 0.7230 0.7201 0.7154 0.7106
1395.000000 0.7057 0.6988 0.6884 0.6696 0.5750
1390.000000 0.5250 0.5135 0.5018 0.4920 0.4825
1385.000000 0.4728 0.4655 0.4606 0.4582 0.4557
1380.000000 0.4532 0.4507 0.4484 0.4453 0.4421
1375.000000 0.4382 0.4289 0.4178 0.4068 0.3957
1370.000000 0.3846 0.3786 0.3756 0.3714 0.3739
1365.000000 0.3739 0.3745 0.3758 0.3807 0.3900
1360.000000 0.3970 0.4038 0.4109 0.4226 0.4346
1355.000000 0.4457 0.4550 0.4626 0.4694 0.4765
1350.000000 0.4835 0.4907 0.4976 0.5045 0.5114
1345.000000 0.5183 0.5251 0.5320 0.5386 0.5423
1340.000000 0.5470 0.5443 0.5442 0.5425 0.5382
1335.000000 0.5319 0.5251 0.5182 0.5113 0.5046
1330.000000 0.4978 0.4904 0.4837 0.4771 0.4755
1325.000000 0.4739 0.4730 0.4728 0.4725 0.4728
1320.000000 0.4730 0.4734 0.4739 0.4745 0.4748
1315.000000 0.4749 0.4736 0.4720 0.4701 0.4678
1310.000000 0.4653 0.4630 0.4608 0.4589 0.4571
1305.000000 0.4554 0.4540 0.4544 0.4555 0.4584
1300.000000 0.4624 0.4657 0.4684 0.4705 0.4723
1295.000000 0.4732 0.4733 0.4718 0.4702 0.4661
1290.000000 0.4620 0.4581 0.4542 0.4500 0.4459
1285.000000 0.4419 0.4382 0.4340 0.4283 0.4209
1280.000000 0.4104 0.3998 0.3897 0.3797 0.3716
1275.000000 0.3636 0.3517 0.3339 0.3193 0.3074
1270.000000 0.2955 0.2835 0.2716 0.2612 0.2563
1265.000000 0.2512 0.2462 0.2409 0.2356 0.2302
1260.000000 0.2245 0.2190 0.2147 0.2125 0.2083
1255.000000 0.2097 0.2096 0.2095 0.2106 0.2128
1250.000000 0.2172 0.2213 0.2254 0.2302 0.2362
1245.000000 0.2413 0.2446 0.2510 0.2483 0.2481
1240.000000 0.2463 0.2430 0.2386 0.2338 0.2288
1235.000000 0.2230 0.2171 0.2121 0.2087 0.2062
1230.000000 0.2052 0.2043 0.2033 0.2023 0.2006
1225.000000 0.1986 0.1967 0.1945 0.1914 0.1880
1220.000000 0.1847 0.1809 0.1762 0.1715 0.1669
1215.000000 0.1615 0.1550 0.1485 0.1426 0.1370
1210.000000 0.1319 0.1275 0.1246 0.1223 0.1207
1205.000000 0.1194 0.1184 0.1166 0.1187 0.1229
1200.000000 0.1288 0.1355 0.1417 0.1473 0.1529
1195.000000 0.1587 0.1643 0.1693 0.1725 0.1752
1190.000000 0.1776 0.1782 0.1818 0.1781 0.1741
1185.000000 0.1669 0.1575 0.1446 0.1302 0.1166
1180.000000 0.1057 0.0992 0.0924 0.0854 0.0781
1175.000000 0.0710 0.0612 0.0518 0.0479 0.0458
1170.000000 0.0444 0.0451 0.0464 0.0493 0.0539
1165.000000 0.0601 0.0707 0.0826 0.0983 0.1222
1160.000000 0.1444 0.1616 0.1776 0.1962 0.2156
1155.000000 0.2394 0.2632 0.2871 0.3111 0.3348
1150.000000 0.3590 0.3832 0.4070 0.4311 0.4554
1145.000000 0.4762 0.4915 0.5034 0.5132 0.5210
1140.000000 0.5289 0.5354 0.5396 0.5430 0.5452
1135.000000 0.5492 0.5471 0.5464 0.5448 0.5422
1130.000000 0.5373 0.5306 0.5201 0.5087 0.4974
1125.000000 0.4839 0.4631 0.4467 0.4305 0.4142
1120.000000 0.3976 0.3812 0.3645 0.3476 0.3379
1115.000000 0.3310 0.3251 0.3199 0.3159 0.3127
1110.000000 0.3088 0.3095 0.3117 0.3186 0.3264
1105.000000 0.3351 0.3471 0.3664 0.3958 0.4241
1100.000000 0.4524 0.4808 0.5093 0.5316 0.5460
1095.000000 0.5637 0.5863 0.6010 0.6090 0.6163
1090.000000 0.6218 0.6267 0.6314 0.6343 0.6373
1085.000000 0.6403 0.6430 0.6454 0.6478 0.6496
1080.000000 0.6519 0.6538 0.6550 0.6565 0.6575
1075.000000 0.6585 0.6594 0.6598 0.6602 0.6585
1070.000000 0.6563 0.6537 0.6508 0.6477 0.6439
1065.000000 0.6397 0.6373 0.6362 0.6361 0.6371
1060.000000 0.6379 0.6383 0.6400 0.6401 0.6396
1055.000000 0.6396 0.6393 0.6387 0.6371 0.6355
1050.000000 0.6335 0.6304 0.6271 0.6229 0.6182
1045.000000 0.6122 0.6053 0.5995 0.5941 0.5891
1040.000000 0.5843 0.5799 0.5754 0.5726 0.5724
1035.000000 0.5732 0.5751 0.5773 0.5799 0.5820
1030.000000 0.5836 0.5846 0.5848 0.5844 0.5833
1025.000000 0.5817 0.5807 0.5797 0.5788 0.5781
1020.000000 0.5771 0.5770 0.5766 0.5764 0.5763
1015.000000 0.5773 0.5790 0.5809 0.5828 0.5849
1010.000000 0.5868 0.5889 0.5905 0.5924 0.5945
1005.000000 0.5969 0.5985 0.6007 0.6035 0.6061
1000.000000 0.6089 0.6119 0.6153 0.6193 0.6255
995.000000 0.6319 0.6385 0.6483 0.6632 0.6764
990.000000 0.6905 0.7075 0.7211 0.7311 0.7395
985.000000 0.7462 0.7537 0.7613 0.7690 0.7767
980.000000 0.7844 0.7920 0.7997 0.8074 0.8152
975.000000 0.8229 0.8308 0.8382 0.8431 0.8478
970.000000 0.8517 0.8544 0.8561 0.8577 0.8592
965.000000 0.8604 0.8617 0.8628 0.8639 0.8650
960.000000 0.8663 0.8675 0.8686 0.8699 0.8710
955.000000 0.8721 0.8730 0.8739 0.8746 0.8753
950.000000 0.8784 0.8763 0.8763 0.8762 0.8754
945.000000 0.8730 0.8694 0.8652 0.8620 0.8591
940.000000 0.8567 0.8543 0.8520 0.8495 0.8470
935.000000 0.8447 0.8428 0.8409 0.8389 0.8375
930.000000 0.8365 0.8355 0.8347 0.8329 0.8301
925.000000 0.8259 0.8218 0.8183 0.8147 0.8110
920.000000 0.8074 0.8044 0.8014 0.7979 0.7953
915.000000 0.7920 0.7892 0.7866 0.7844 0.7825
910.000000 0.7807 0.7805 0.7808 0.7811 0.7813
905.000000 0.7817 0.7820 0.7817 0.7809 0.7789
900.000000 0.7763 0.7730 0.7690 0.7653 0.7612
895.000000 0.7568 0.7525 0.7463 0.7405 0.7347
890.000000 0.7284 0.7219 0.7155 0.7037 0.6914
885.000000 0.6819 0.6728 0.6651 0.6604 0.6597
880.000000 0.6596 0.6590 0.6586 0.6581 0.6574
875.000000 0.6567 0.6557 0.6542 0.6526 0.6505
870.000000 0.6482 0.6460 0.6436 0.6413 0.6384
865.000000 0.6357 0.6334 0.6310 0.6286 0.6264
860.000000 0.6243 0.6214 0.6176 0.6140 0.6152
855.000000 0.6154 0.6172 0.6201 0.6246 0.6282
850.000000 0.6319 0.6350 0.6394 0.6435 0.6475
845.000000 0.6519 0.6562 0.6612 0.6661 0.6710
840.000000 0.6760 0.6812 0.6863 0.6913 0.6956
835.000000 0.7004 0.7056 0.7104 0.7156 0.7206
830.000000 0.7260 0.7314 0.7363 0.7419 0.7471
825.000000 0.7518 0.7569 0.7616 0.7659 0.7695
820.000000 0.7731 0.7760 0.7776 0.7776 0.7782
815.000000 0.7757 0.7728 0.7699 0.7673 0.7642
810.000000 0.7613 0.7595 0.7569 0.7550 0.7539
805.000000 0.7533 0.7522 0.7513 0.7506 0.7500
800.000000 0.7493 0.7489 0.7484 0.7484 0.7482
795.000000 0.7482 0.7477 0.7482 0.7489 0.7499
790.000000 0.7502 0.7507 0.7517 0.7531 0.7547
785.000000 0.7565 0.7581 0.7589 0.7594 0.7603
780.000000 0.7598 0.7591 0.7575 0.7559 0.7547
775.000000 0.7537 0.7528 0.7511 0.7502 0.7499
770.000000 0.7515 0.7530 0.7547 0.7565 0.7584
765.000000 0.7590 0.7599 0.7595 0.7588 0.7577
760.000000 0.7561 0.7543 0.7522 0.7493 0.7469
755.000000 0.7442 0.7420 0.7399 0.7376 0.7360
750.000000 0.7344 0.7327 0.7311 0.7293 0.7276
745.000000 0.7260 0.7243 0.7227 0.7212 0.7194
740.000000 0.7173 0.7153 0.7129 0.7094 0.7024
735.000000 0.6904 0.6726 0.6583 0.6450 0.6321
730.000000 0.6206 0.6108 0.6017 0.5926 0.5864
725.000000 0.5822 0.5844 0.5921 0.6025 0.6137
720.000000 0.6233 0.6325 0.6416 0.6501 0.6577
715.000000 0.6618 0.6658 0.6686 0.6691 0.6695
710.000000 0.6697 0.6691 0.6676 0.6651 0.6625
705.000000 0.6599 0.6574 0.6558 0.6532 0.6512
700.000000 0.6497 0.6483 0.6470 0.6457 0.6446
695.000000 0.6436 0.6445 0.6414 0.6401 0.6387
690.000000 0.6373 0.6351 0.6333 0.6312 0.6286
685.000000 0.6257 0.6228 0.6203 0.6174 0.6144
680.000000 0.6109 0.6066 0.6035 0.6004 0.5976
675.000000 0.5938 0.5882 0.5818 0.5740 0.5671
670.000000 0.5630 0.5649 0.5698 0.5673 0.5589
665.000000 0.5525 0.5451 0.5378 0.5307 0.5239
660.000000 0.5175 0.5110 0.5053 0.4999 0.4942
655.000000 0.4891 0.4843 0.4797 0.4744 0.4700
650.000000 0.4651 0.4604 0.4555 0.4506 0.4452
645.000000 0.4401 0.4350 0.4306 0.4267 0.4227
640.000000 0.4186 0.4146 0.4105 0.4061 0.4020
635.000000 0.3978 0.3940 0.3905 0.3868 0.3832
##END=
