##TITLE=N-TETRADECYL BROMIDE
##JCAMP-DX=4.24
##DATA TYPE=INFRARED SPECTRUM
##CLASS=COBLENTZ
##ORIGIN=CONTINENTAL OIL CO. (HAROLD F. SMITH)
##OWNER=COBLENTZ SOCIETY
Collection (C) 2018 copyright by the U.S. Secretary of Commerce
on behalf of the United States of America. All rights reserved.
##DATE=Not specified, most likely prior to 1970
##NAMES=1-bromotetradecane
##CAS REGISTRY NO=112-71-0
##MOLFORM=C14 H29 Br
##SOURCE REFERENCE=COBLENTZ NO. 3757
##$NIST SOURCE=COBLENTZ
##$NIST IMAGE=cob3757
##SPECTROMETER/DATA SYSTEM=Not specified, most likely a prism, grating, or hybrid spectrometer.
##STATE=LIQUID
##PATH LENGTH=0.0036 CM
##SAMPLING PROCEDURE=TRANSMISSION
##RESOLUTION=4
##DATA PROCESSING=DIGITIZED BY NIST FROM HARD COPY
##XUNITS=MICROMETERS
##YUNITS=TRANSMITTANCE
##XFACTOR=1.000000
##YFACTOR=1
##DELTAX=000.006195
##FIRSTX=12
##LASTX=25.9876
##FIRSTY=0.947
##MAXX=25.9876
##MINX=12
##MAXY=0.975
##MINY=0.237
##NPOINTS=2259
##XYDATA=(X++(Y..Y))
12.000000 0.9470 0.9470 0.9450 0.9420 0.9390
12.030987 0.9370 0.9370 0.9370 0.9360 0.9360
12.062000 0.9340 0.9360 0.9360 0.9370 0.9370
12.092987 0.9390 0.9420 0.9420 0.9400 0.9400
12.124000 0.9390 0.9370 0.9370 0.9360 0.9300
12.154987 0.9280 0.9270 0.9250 0.9250 0.9230
12.186000 0.9220 0.9200 0.9220 0.9230 0.9270
12.216987 0.9300 0.9310 0.9310 0.9330 0.9330
12.248000 0.9330 0.9310 0.9280 0.9280 0.9300
12.278987 0.9340 0.9360 0.9370 0.9390 0.9390
12.310000 0.9370 0.9370 0.9370 0.9340 0.9340
12.340987 0.9340 0.9340 0.9330 0.9310 0.9310
12.372000 0.9310 0.9310 0.9310 0.9300 0.9300
12.402987 0.9280 0.9250 0.9220 0.9190 0.9170
12.434000 0.9190 0.9220 0.9270 0.9310 0.9370
12.464987 0.9390 0.9400 0.9400 0.9310 0.9270
12.496000 0.9270 0.9270 0.9270 0.9270 0.9270
12.526987 0.9270 0.9250 0.9200 0.9140 0.9090
12.558000 0.9080 0.9060 0.9050 0.9030 0.9030
12.588987 0.9050 0.9090 0.9140 0.9170 0.9190
12.619000 0.9190 0.9190 0.9190 0.9190 0.9170
12.649987 0.9170 0.9170 0.9140 0.9130 0.9110
12.681000 0.9110 0.9080 0.9080 0.9080 0.9130
12.711987 0.9110 0.9050 0.9050 0.9090 0.9110
12.743000 0.9140 0.9160 0.9170 0.9170 0.9170
12.773987 0.9160 0.9140 0.9110 0.9090 0.9060
12.805000 0.9030 0.9030 0.9020 0.9020 0.9030
12.835987 0.9050 0.9050 0.9030 0.9020 0.8950
12.867000 0.8990 0.8970 0.8920 0.8910 0.8910
12.897987 0.8910 0.8890 0.8880 0.8880 0.8830
12.929000 0.8780 0.8710 0.8690 0.8710 0.8770
12.959987 0.8780 0.8780 0.8780 0.8780 0.8750
12.991000 0.8680 0.8660 0.8630 0.8610 0.8600
13.021987 0.8570 0.8500 0.8470 0.8460 0.8460
13.053000 0.8470 0.8500 0.8520 0.8490 0.8470
13.083987 0.8400 0.8320 0.8290 0.8240 0.8260
13.115000 0.8270 0.8260 0.8220 0.8210 0.8210
13.145987 0.8190 0.8190 0.8180 0.8130 0.8120
13.177000 0.8100 0.8120 0.8100 0.8090 0.8100
13.207987 0.8090 0.8050 0.7990 0.7990 0.8070
13.239000 0.8070 0.8020 0.7980 0.7910 0.7960
13.269987 0.7990 0.7960 0.7900 0.7880 0.7850
13.301000 0.7820 0.7790 0.7790 0.7760 0.7710
13.331987 0.7700 0.7700 0.7670 0.7620 0.7600
13.363000 0.7560 0.7530 0.7510 0.7510 0.7480
13.393987 0.7450 0.7430 0.7430 0.7420 0.7400
13.425000 0.7370 0.7320 0.7310 0.7280 0.7220
13.455987 0.7180 0.7140 0.7140 0.7110 0.7090
13.487000 0.7030 0.7010 0.7000 0.7000 0.7010
13.517987 0.7010 0.7040 0.7080 0.7060 0.7040
13.549000 0.7040 0.7010 0.6980 0.6920 0.6890
13.579987 0.6840 0.6800 0.6730 0.6690 0.6660
13.611000 0.6630 0.6610 0.6590 0.6530 0.6450
13.641987 0.6390 0.6360 0.6330 0.6300 0.6220
13.673000 0.6190 0.6130 0.6100 0.6100 0.6050
13.703987 0.6000 0.5910 0.5830 0.5800 0.5790
13.735000 0.5710 0.5680 0.5600 0.5520 0.5510
13.765987 0.5480 0.5380 0.5310 0.5200 0.5100
13.796000 0.5030 0.4900 0.4840 0.4720 0.4640
13.826987 0.4610 0.4470 0.4360 0.4300 0.4190
13.858000 0.4060 0.3910 0.3720 0.3550 0.3470
13.888987 0.3360 0.3300 0.3180 0.3050 0.3010
13.920000 0.2950 0.2810 0.2730 0.2650 0.2570
13.950987 0.2540 0.2500 0.2450 0.2400 0.2390
13.982000 0.2370 0.2390 0.2400 0.2430 0.2480
14.012987 0.2530 0.2590 0.2630 0.2680 0.2730
14.044000 0.2850 0.3050 0.3220 0.3380 0.3500
14.074987 0.3600 0.3710 0.3780 0.3880 0.3990
14.106000 0.4130 0.4270 0.4370 0.4700 0.4860
14.136987 0.5010 0.5150 0.5230 0.5310 0.5410
14.168000 0.5490 0.5550 0.5620 0.5690 0.5880
14.198987 0.6050 0.6160 0.6300 0.6420 0.6530
14.230000 0.6630 0.6700 0.6800 0.6840 0.6900
14.260987 0.6980 0.7150 0.7290 0.7360 0.7400
14.292000 0.7450 0.7540 0.7600 0.7630 0.7700
14.322987 0.7710 0.7810 0.7880 0.7930 0.8010
14.354000 0.8040 0.8130 0.8190 0.8240 0.8290
14.384987 0.8380 0.8440 0.8490 0.8500 0.8520
14.416000 0.8660 0.8690 0.8720 0.8740 0.8750
14.446987 0.8780 0.8800 0.8810 0.8830 0.8880
14.478000 0.8890 0.8920 0.8940 0.8950 0.8970
14.508987 0.8990 0.9000 0.9030 0.9030 0.9060
14.540000 0.9030 0.9020 0.9030 0.9060 0.9080
14.570987 0.9090 0.9110 0.9110 0.9130 0.9130
14.602000 0.9130 0.9130 0.9140 0.9190 0.9230
14.632987 0.9230 0.9250 0.9250 0.9250 0.9250
14.664000 0.9250 0.9250 0.9270 0.9270 0.9270
14.694987 0.9250 0.9250 0.9230 0.9220 0.9200
14.726000 0.9200 0.9190 0.9190 0.9190 0.9190
14.756987 0.9190 0.9200 0.9220 0.9230 0.9230
14.788000 0.9250 0.9280 0.9280 0.9270 0.9280
14.818987 0.9280 0.9280 0.9280 0.9280 0.9230
14.850000 0.9230 0.9250 0.9250 0.9250 0.9250
14.880987 0.9250 0.9230 0.9230 0.9200 0.9170
14.912000 0.9170 0.9170 0.9170 0.9170 0.9140
14.942987 0.9130 0.9110 0.9110 0.9110 0.9130
14.973000 0.9130 0.9140 0.9130 0.9080 0.9060
15.003987 0.9080 0.9080 0.9080 0.9080 0.9050
15.035000 0.9000 0.9000 0.9000 0.9000 0.9000
15.065987 0.9000 0.9000 0.9020 0.9020 0.9000
15.097000 0.8970 0.8880 0.8850 0.8800 0.8740
15.127987 0.8710 0.8690 0.8680 0.8680 0.8640
15.159000 0.8630 0.8600 0.8550 0.8460 0.8400
15.189987 0.8360 0.8330 0.8300 0.8290 0.8240
15.221000 0.8210 0.8130 0.8090 0.8020 0.8010
15.251987 0.7980 0.7870 0.7790 0.7730 0.7680
15.283000 0.7630 0.7480 0.7390 0.7310 0.7250
15.313987 0.7150 0.7010 0.6900 0.6830 0.6800
15.345000 0.6690 0.6520 0.6380 0.6280 0.6160
15.375987 0.6100 0.5940 0.5800 0.5650 0.5510
15.407000 0.5430 0.5210 0.5030 0.4980 0.4870
15.437987 0.4810 0.4700 0.4650 0.4590 0.4470
15.469000 0.4390 0.4310 0.4250 0.4190 0.4090
15.499987 0.4000 0.3920 0.3890 0.3800 0.3740
15.531000 0.3720 0.3710 0.3710 0.3690 0.3630
15.561987 0.3600 0.3570 0.3570 0.3540 0.3540
15.593000 0.3570 0.3600 0.3630 0.3640 0.3680
15.623987 0.3710 0.3810 0.4000 0.4020 0.4110
15.655000 0.4190 0.4220 0.4300 0.4400 0.4500
15.685987 0.4610 0.4720 0.4810 0.4960 0.5200
15.717000 0.5290 0.5400 0.5460 0.5540 0.5620
15.747987 0.5710 0.5830 0.5960 0.6130 0.6360
15.779000 0.6500 0.6660 0.6810 0.6900 0.6940
15.809987 0.7000 0.7110 0.7220 0.7290 0.7370
15.841000 0.7400 0.7430 0.7500 0.7530 0.7600
15.871987 0.7650 0.7680 0.7700 0.7740 0.7790
15.903000 0.7840 0.7900 0.7980 0.8010 0.8090
15.933987 0.8120 0.8190 0.8210 0.8220 0.8260
15.965000 0.8290 0.8300 0.8330 0.8380 0.8430
15.995987 0.8470 0.8490 0.8490 0.8500 0.8500
16.027000 0.8500 0.8520 0.8540 0.8580 0.8600
16.057987 0.8600 0.8610 0.8610 0.8640 0.8720
16.088000 0.8780 0.8800 0.8780 0.8780 0.8780
16.118987 0.8780 0.8810 0.8830 0.8850 0.8880
16.150000 0.8890 0.8910 0.8940 0.8950 0.8970
16.180987 0.8970 0.8990 0.9000 0.9020 0.9050
16.212000 0.9050 0.9030 0.9030 0.9050 0.9050
16.242987 0.9030 0.9030 0.9030 0.9030 0.9030
16.274000 0.9020 0.9020 0.9020 0.9050 0.9080
16.304987 0.9090 0.9140 0.9140 0.9160 0.9160
16.336000 0.9160 0.9190 0.9190 0.9160 0.9160
16.366987 0.9160 0.9140 0.9140 0.9190 0.9190
16.398000 0.9170 0.9160 0.9130 0.9110 0.9110
16.428987 0.9130 0.9130 0.9140 0.9140 0.9130
16.460000 0.9140 0.9140 0.9140 0.9160 0.9160
16.490987 0.9170 0.9170 0.9190 0.9190 0.9190
16.522000 0.9190 0.9190 0.9190 0.9170 0.9160
16.552987 0.9160 0.9140 0.9140 0.9130 0.9140
16.584000 0.9160 0.9160 0.9160 0.9140 0.9140
16.614987 0.9130 0.9130 0.9160 0.9170 0.9220
16.646000 0.9230 0.9220 0.9200 0.9170 0.9160
16.676987 0.9160 0.9160 0.9160 0.9160 0.9160
16.708000 0.9160 0.9190 0.9220 0.9230 0.9220
16.738987 0.9200 0.9190 0.9190 0.9170 0.9190
16.770000 0.9160 0.9140 0.9130 0.9110 0.9110
16.800987 0.9110 0.9110 0.9090 0.9090 0.9110
16.832000 0.9110 0.9090 0.9110 0.9130 0.9140
16.862987 0.9190 0.9190 0.9130 0.9080 0.9110
16.894000 0.9130 0.9130 0.9080 0.9080 0.9060
16.924987 0.9060 0.9060 0.9090 0.9140 0.9170
16.956000 0.9190 0.9220 0.9220 0.9220 0.9190
16.986987 0.9160 0.9110 0.9090 0.9080 0.9080
17.018000 0.9060 0.9030 0.9030 0.9030 0.9030
17.048987 0.9030 0.9050 0.9030 0.9020 0.9000
17.080000 0.8990 0.8990 0.9000 0.9000 0.8990
17.110987 0.8990 0.8950 0.8920 0.8910 0.8860
17.142000 0.8810 0.8800 0.8780 0.8800 0.8800
17.172987 0.8810 0.8810 0.8800 0.8800 0.8800
17.204000 0.8780 0.8770 0.8740 0.8740 0.8740
17.234987 0.8720 0.8710 0.8690 0.8640 0.8600
17.265000 0.8520 0.8500 0.8470 0.8430 0.8350
17.295987 0.8320 0.8300 0.8290 0.8240 0.8210
17.327000 0.8160 0.8100 0.8090 0.8070 0.8040
17.357987 0.8010 0.8010 0.7990 0.7950 0.7870
17.389000 0.7840 0.7760 0.7730 0.7680 0.7620
17.419987 0.7560 0.7510 0.7420 0.7340 0.7310
17.451000 0.7260 0.7220 0.7140 0.7060 0.7030
17.481987 0.7000 0.6900 0.6830 0.6720 0.6640
17.513000 0.6560 0.6530 0.6530 0.6500 0.6410
17.543987 0.6310 0.6240 0.6190 0.6130 0.6110
17.575000 0.6080 0.6020 0.5910 0.5800 0.5690
17.605987 0.5600 0.5520 0.5490 0.5430 0.5400
17.637000 0.5340 0.5230 0.5180 0.5120 0.5060
17.667987 0.4960 0.4860 0.4790 0.4720 0.4640
17.699000 0.4610 0.4530 0.4510 0.4500 0.4470
17.729987 0.4450 0.4390 0.4330 0.4300 0.4230
17.761000 0.4200 0.4130 0.4110 0.4110 0.4110
17.791987 0.4110 0.4110 0.4110 0.4130 0.4130
17.823000 0.4130 0.4140 0.4190 0.4200 0.4230
17.853987 0.4360 0.4450 0.4500 0.4560 0.4640
17.885000 0.4720 0.4810 0.4960 0.5010 0.5100
17.915987 0.5170 0.5230 0.5310 0.5380 0.5510
17.947000 0.5600 0.5720 0.5790 0.5800 0.5860
17.977987 0.6000 0.6110 0.6300 0.6490 0.6580
18.009000 0.6670 0.6700 0.6800 0.6890 0.6900
18.039987 0.7000 0.7110 0.7180 0.7200 0.7250
18.071000 0.7290 0.7400 0.7450 0.7500 0.7510
18.101987 0.7530 0.7590 0.7620 0.7650 0.7700
18.133000 0.7740 0.7790 0.7820 0.7850 0.7900
18.163987 0.7930 0.7980 0.8010 0.8040 0.8120
18.195000 0.8130 0.8130 0.8150 0.8190 0.8190
18.225987 0.8210 0.8210 0.8220 0.8220 0.8290
18.257000 0.8320 0.8350 0.8380 0.8400 0.8410
18.287987 0.8440 0.8500 0.8540 0.8570 0.8580
18.319000 0.8600 0.8600 0.8610 0.8610 0.8610
18.349987 0.8610 0.8610 0.8610 0.8630 0.8660
18.381000 0.8680 0.8710 0.8720 0.8720 0.8720
18.411987 0.8740 0.8740 0.8750 0.8750 0.8780
18.442000 0.8800 0.8810 0.8830 0.8810 0.8810
18.472987 0.8810 0.8810 0.8830 0.8860 0.8880
18.504000 0.8860 0.8860 0.8850 0.8850 0.8830
18.534987 0.8850 0.8860 0.8880 0.8910 0.8920
18.566000 0.8910 0.8880 0.8880 0.8880 0.8880
18.596987 0.8880 0.8880 0.8880 0.8880 0.8880
18.628000 0.8880 0.8890 0.8910 0.8940 0.8990
18.658987 0.8990 0.9000 0.9000 0.8990 0.8950
18.690000 0.8920 0.8910 0.8910 0.8910 0.8910
18.720987 0.8910 0.8910 0.8910 0.8910 0.8920
18.752000 0.8940 0.8920 0.8920 0.8920 0.8920
18.782987 0.8910 0.8910 0.8890 0.8860 0.8860
18.814000 0.8890 0.8920 0.8940 0.8940 0.8950
18.844987 0.9000 0.9000 0.9020 0.9000 0.9000
18.876000 0.9000 0.9000 0.9020 0.9060 0.9030
18.906987 0.9030 0.9030 0.9030 0.9030 0.9030
18.938000 0.9030 0.9030 0.9050 0.9060 0.9060
18.968987 0.9060 0.9060 0.9080 0.9080 0.9060
19.000000 0.9080 0.9080 0.9090 0.9110 0.9130
19.030987 0.9130 0.9140 0.9140 0.9190 0.9140
19.062000 0.9140 0.9140 0.9140 0.9160 0.9190
19.092987 0.9190 0.9140 0.9140 0.9140 0.9140
19.124000 0.9140 0.9140 0.9170 0.9200 0.9220
19.154987 0.9220 0.9170 0.9170 0.9140 0.9130
19.186000 0.9130 0.9140 0.9140 0.9160 0.9190
19.216987 0.9200 0.9200 0.9220 0.9250 0.9250
19.248000 0.9200 0.9190 0.9190 0.9220 0.9230
19.278987 0.9250 0.9270 0.9300 0.9300 0.9310
19.310000 0.9310 0.9310 0.9330 0.9340 0.9360
19.340987 0.9370 0.9330 0.9310 0.9270 0.9230
19.372000 0.9230 0.9230 0.9220 0.9200 0.9200
19.402987 0.9220 0.9230 0.9250 0.9270 0.9300
19.434000 0.9300 0.9310 0.9300 0.9270 0.9220
19.464987 0.9220 0.9220 0.9220 0.9230 0.9270
19.496000 0.9300 0.9300 0.9300 0.9270 0.9270
19.526987 0.9300 0.9330 0.9340 0.9370 0.9370
19.558000 0.9340 0.9340 0.9330 0.9300 0.9230
19.588987 0.9330 0.9330 0.9340 0.9340 0.9340
19.619000 0.9340 0.9340 0.9340 0.9340 0.9340
19.649987 0.9330 0.9330 0.9330 0.9330 0.9340
19.681000 0.9340 0.9340 0.9340 0.9360 0.9400
19.711987 0.9420 0.9440 0.9420 0.9420 0.9400
19.743000 0.9370 0.9340 0.9330 0.9310 0.9310
19.773987 0.9310 0.9310 0.9310 0.9310 0.9310
19.805000 0.9310 0.9310 0.9310 0.9310 0.9310
19.835987 0.9310 0.9310 0.9310 0.9310 0.9330
19.867000 0.9330 0.9330 0.9330 0.9330 0.9330
19.897987 0.9330 0.9330 0.9330 0.9330 0.9330
19.929000 0.9330 0.9340 0.9340 0.9360 0.9370
19.959987 0.9370 0.9370 0.9370 0.9400 0.9420
19.991000 0.9420 0.9420 0.9400 0.9390 0.9370
20.021987 0.9370 0.9370 0.9370 0.9370 0.9390
20.053000 0.9400 0.9400 0.9400 0.9390 0.9340
20.083987 0.9340 0.9360 0.9370 0.9390 0.9390
20.115000 0.9390 0.9400 0.9400 0.9420 0.9420
20.145987 0.9440 0.9440 0.9440 0.9440 0.9420
20.177000 0.9420 0.9420 0.9420 0.9420 0.9420
20.207987 0.9450 0.9450 0.9450 0.9440 0.9420
20.239000 0.9400 0.9370 0.9360 0.9340 0.9340
20.269987 0.9330 0.9340 0.9400 0.9440 0.9470
20.301000 0.9480 0.9480 0.9510 0.9510 0.9440
20.331987 0.9400 0.9360 0.9360 0.9370 0.9370
20.363000 0.9390 0.9390 0.9390 0.9400 0.9420
20.393987 0.9440 0.9420 0.9400 0.9390 0.9370
20.425000 0.9370 0.9340 0.9360 0.9370 0.9390
20.455987 0.9390 0.9370 0.9340 0.9310 0.9300
20.487000 0.9310 0.9310 0.9330 0.9330 0.9340
20.517987 0.9400 0.9420 0.9450 0.9450 0.9420
20.549000 0.9420 0.9420 0.9450 0.9450 0.9420
20.579987 0.9420 0.9390 0.9370 0.9330 0.9330
20.611000 0.9330 0.9340 0.9360 0.9360 0.9360
20.641987 0.9390 0.9400 0.9420 0.9470 0.9500
20.673000 0.9500 0.9500 0.9500 0.9500 0.9470
20.703987 0.9470 0.9450 0.9440 0.9440 0.9440
20.735000 0.9450 0.9470 0.9500 0.9510 0.9530
20.765987 0.9510 0.9500 0.9470 0.9450 0.9470
20.796000 0.9480 0.9510 0.9530 0.9510 0.9500
20.826987 0.9500 0.9500 0.9500 0.9510 0.9530
20.858000 0.9530 0.9510 0.9500 0.9450 0.9440
20.888987 0.9400 0.9400 0.9420 0.9440 0.9450
20.920000 0.9500 0.9500 0.9500 0.9510 0.9510
20.950987 0.9530 0.9530 0.9500 0.9500 0.9500
20.982000 0.9510 0.9510 0.9530 0.9530 0.9530
21.012987 0.9530 0.9530 0.9540 0.9560 0.9590
21.044000 0.9590 0.9590 0.9580 0.9540 0.9530
21.074987 0.9510 0.9510 0.9500 0.9500 0.9500
21.106000 0.9510 0.9530 0.9510 0.9530 0.9530
21.136987 0.9540 0.9560 0.9580 0.9580 0.9560
21.168000 0.9560 0.9540 0.9540 0.9500 0.9470
21.198987 0.9470 0.9500 0.9500 0.9510 0.9560
21.230000 0.9580 0.9580 0.9530 0.9530 0.9530
21.260987 0.9530 0.9530 0.9530 0.9530 0.9530
21.292000 0.9530 0.9540 0.9540 0.9540 0.9540
21.322987 0.9540 0.9530 0.9530 0.9530 0.9540
21.354000 0.9540 0.9560 0.9560 0.9540 0.9540
21.384987 0.9530 0.9530 0.9580 0.9590 0.9610
21.416000 0.9620 0.9640 0.9640 0.9610 0.9590
21.446987 0.9590 0.9590 0.9580 0.9560 0.9560
21.478000 0.9560 0.9590 0.9590 0.9610 0.9620
21.508987 0.9620 0.9620 0.9610 0.9610 0.9610
21.540000 0.9610 0.9610 0.9610 0.9620 0.9620
21.570987 0.9640 0.9640 0.9620 0.9620 0.9650
21.602000 0.9640 0.9620 0.9620 0.9640 0.9640
21.632987 0.9640 0.9640 0.9640 0.9620 0.9620
21.664000 0.9610 0.9610 0.9610 0.9610 0.9620
21.694987 0.9620 0.9620 0.9610 0.9590 0.9580
21.726000 0.9580 0.9580 0.9580 0.9580 0.9580
21.756987 0.9580 0.9580 0.9590 0.9590 0.9610
21.788000 0.9610 0.9620 0.9640 0.9650 0.9700
21.818987 0.9670 0.9640 0.9640 0.9620 0.9540
21.850000 0.9540 0.9540 0.9540 0.9540 0.9590
21.880987 0.9510 0.9480 0.9480 0.9500 0.9510
21.912000 0.9510 0.9540 0.9560 0.9560 0.9610
21.942987 0.9620 0.9650 0.9650 0.9620 0.9610
21.973000 0.9610 0.9620 0.9650 0.9680 0.9680
22.003987 0.9640 0.9640 0.9640 0.9640 0.9640
22.035000 0.9640 0.9670 0.9680 0.9680 0.9700
22.065987 0.9720 0.9720 0.9680 0.9680 0.9680
22.097000 0.9700 0.9700 0.9700 0.9700 0.9700
22.127987 0.9700 0.9700 0.9670 0.9640 0.9670
22.159000 0.9670 0.9700 0.9700 0.9700 0.9700
22.189987 0.9720 0.9750 0.9750 0.9750 0.9730
22.221000 0.9730 0.9730 0.9720 0.9720 0.9720
22.251987 0.9700 0.9700 0.9670 0.9650 0.9650
22.283000 0.9670 0.9680 0.9700 0.9700 0.9670
22.313987 0.9670 0.9670 0.9670 0.9680 0.9680
22.345000 0.9680 0.9680 0.9680 0.9680 0.9700
22.375987 0.9700 0.9700 0.9700 0.9700 0.9640
22.407000 0.9640 0.9640 0.9670 0.9700 0.9720
22.437987 0.9720 0.9700 0.9670 0.9640 0.9670
22.469000 0.9670 0.9670 0.9670 0.9680 0.9700
22.499987 0.9700 0.9700 0.9700 0.9700 0.9680
22.531000 0.9640 0.9640 0.9640 0.9640 0.9670
22.561987 0.9700 0.9700 0.9700 0.9700 0.9720
22.593000 0.9720 0.9700 0.9670 0.9650 0.9670
22.623987 0.9670 0.9650 0.9640 0.9640 0.9640
22.655000 0.9650 0.9670 0.9670 0.9680 0.9700
22.685987 0.9700 0.9700 0.9700 0.9680 0.9670
22.717000 0.9640 0.9610 0.9560 0.9540 0.9540
22.747987 0.9540 0.9610 0.9640 0.9650 0.9670
22.779000 0.9680 0.9650 0.9640 0.9590 0.9580
22.809987 0.9580 0.9610 0.9620 0.9650 0.9650
22.841000 0.9640 0.9640 0.9640 0.9640 0.9640
22.871987 0.9640 0.9620 0.9610 0.9610 0.9610
22.903000 0.9610 0.9620 0.9640 0.9640 0.9650
22.933987 0.9670 0.9650 0.9640 0.9640 0.9620
22.965000 0.9610 0.9610 0.9620 0.9650 0.9650
22.995987 0.9620 0.9610 0.9590 0.9610 0.9620
23.027000 0.9620 0.9610 0.9610 0.9580 0.9540
23.057987 0.9540 0.9540 0.9610 0.9640 0.9650
23.088000 0.9670 0.9670 0.9650 0.9620 0.9610
23.118987 0.9610 0.9610 0.9610 0.9610 0.9590
23.150000 0.9580 0.9580 0.9580 0.9580 0.9610
23.180987 0.9610 0.9610 0.9610 0.9620 0.9610
23.212000 0.9620 0.9650 0.9670 0.9640 0.9640
23.242987 0.9640 0.9640 0.9680 0.9680 0.9650
23.274000 0.9650 0.9650 0.9670 0.9670 0.9670
23.304987 0.9670 0.9700 0.9720 0.9700 0.9670
23.336000 0.9670 0.9670 0.9650 0.9640 0.9620
23.366987 0.9610 0.9610 0.9610 0.9610 0.9610
23.398000 0.9620 0.9640 0.9640 0.9650 0.9680
23.428987 0.9610 0.9560 0.9560 0.9540 0.9530
23.460000 0.9510 0.9510 0.9510 0.9510 0.9510
23.490987 0.9510 0.9530 0.9560 0.9560 0.9540
23.522000 0.9530 0.9510 0.9530 0.9530 0.9530
23.552987 0.9530 0.9530 0.9510 0.9500 0.9500
23.584000 0.9440 0.9400 0.9400 0.9400 0.9420
23.614987 0.9420 0.9470 0.9500 0.9500 0.9480
23.646000 0.9500 0.9500 0.9510 0.9540 0.9560
23.676987 0.9560 0.9540 0.9510 0.9450 0.9420
23.708000 0.9400 0.9400 0.9400 0.9400 0.9400
23.738987 0.9390 0.9340 0.9340 0.9360 0.9360
23.770000 0.9360 0.9370 0.9370 0.9400 0.9420
23.800987 0.9420 0.9390 0.9340 0.9330 0.9330
23.832000 0.9310 0.9270 0.9250 0.9230 0.9230
23.862987 0.9230 0.9230 0.9220 0.9220 0.9220
23.894000 0.9220 0.9200 0.9200 0.9190 0.9160
23.924987 0.9140 0.9130 0.9130 0.9130 0.9140
23.956000 0.9190 0.9200 0.9200 0.9230 0.9300
23.986987 0.9300 0.9300 0.9200 0.9190 0.9190
24.018000 0.9190 0.9190 0.9170 0.9190 0.9190
24.048987 0.9190 0.9190 0.9200 0.9200 0.9220
24.080000 0.9310 0.9330 0.9360 0.9360 0.9310
24.110987 0.9300 0.9300 0.9300 0.9200 0.9170
24.142000 0.9140 0.9200 0.9230 0.9300 0.9300
24.172987 0.9270 0.9250 0.9250 0.9230 0.9220
24.204000 0.9200 0.9200 0.9190 0.9160 0.9140
24.234987 0.9140 0.9140 0.9140 0.9130 0.9110
24.265000 0.9090 0.9060 0.9030 0.9030 0.9030
24.295987 0.9030 0.9030 0.9050 0.9090 0.9110
24.327000 0.9110 0.9130 0.9130 0.9130 0.9140
24.357987 0.9160 0.9160 0.9110 0.9090 0.9030
24.389000 0.9030 0.9030 0.9030 0.9030 0.9030
24.419987 0.9030 0.9030 0.9050 0.9050 0.9050
24.451000 0.9030 0.9030 0.9000 0.9000 0.9000
24.481987 0.8920 0.8910 0.8890 0.8880 0.8880
24.513000 0.8860 0.8830 0.8830 0.8830 0.8830
24.543987 0.8830 0.8850 0.8860 0.8910 0.8920
24.575000 0.8940 0.8920 0.8890 0.8850 0.8830
24.605987 0.8830 0.8810 0.8800 0.8740 0.8680
24.637000 0.8640 0.8640 0.8610 0.8580 0.8600
24.667987 0.8600 0.8600 0.8600 0.8570 0.8550
24.699000 0.8540 0.8540 0.8540 0.8540 0.8540
24.729987 0.8550 0.8550 0.8520 0.8500 0.8440
24.761000 0.8460 0.8460 0.8460 0.8440 0.8440
24.791987 0.8380 0.8320 0.8270 0.8270 0.8300
24.823000 0.8300 0.8300 0.8300 0.8270 0.8270
24.853987 0.8270 0.8290 0.8300 0.8300 0.8290
24.885000 0.8290 0.8290 0.8300 0.8330 0.8400
24.915987 0.8400 0.8360 0.8350 0.8330 0.8350
24.947000 0.8360 0.8360 0.8350 0.8350 0.8320
24.977987 0.8300 0.8290 0.8290 0.8260 0.8260
25.009000 0.8240 0.8240 0.8220 0.8190 0.8190
25.039987 0.8190 0.8180 0.8150 0.8120 0.8040
25.071000 0.8010 0.8010 0.7990 0.7950 0.7900
25.101987 0.7880 0.7870 0.7870 0.7870 0.7850
25.133000 0.7850 0.7840 0.7820 0.7810 0.7770
25.163987 0.7760 0.7760 0.7760 0.7760 0.7760
25.195000 0.7740 0.7730 0.7710 0.7710 0.7710
25.225987 0.7710 0.7710 0.7740 0.7770 0.7790
25.257000 0.7760 0.7770 0.7770 0.7770 0.7740
25.287987 0.7740 0.7760 0.7760 0.7760 0.7770
25.319000 0.7810 0.7810 0.7820 0.7840 0.7900
25.349987 0.7900 0.7900 0.7870 0.7870 0.7900
25.381000 0.7910 0.7910 0.7910 0.7910 0.7900
25.411987 0.7840 0.7810 0.7790 0.7790 0.7790
25.442000 0.7770 0.7770 0.7790 0.7790 0.7770
25.472987 0.7760 0.7740 0.7740 0.7740 0.7730
25.504000 0.7710 0.7710 0.7710 0.7710 0.7710
25.534987 0.7700 0.7710 0.7710 0.7730 0.7740
25.566000 0.7740 0.7760 0.7760 0.7770 0.7810
25.596987 0.7810 0.7810 0.7810 0.7810 0.7810
25.628000 0.7790 0.7650 0.7630 0.7630 0.7650
25.658987 0.7650 0.7670 0.7670 0.7650 0.7630
25.690000 0.7620 0.7600 0.7600 0.7620 0.7630
25.720987 0.7630 0.7620 0.7620 0.7600 0.7600
25.752000 0.7600 0.7600 0.7600 0.7590 0.7570
25.782987 0.7540 0.7540 0.7540 0.7530 0.7510
25.814000 0.7530 0.7510 0.7510 0.7510 0.7510
25.844987 0.7480 0.7460 0.7460 0.7430 0.7430
25.876000 0.7420 0.7420 0.7400 0.7400 0.7400
25.906987 0.7400 0.7400 0.7430 0.7430 0.7370
25.938000 0.7340 0.7320 0.7320 0.7320 0.7310
25.968987 0.7290 0.7290 0.7280 0.7250
##END=
