##TITLE=Pentyl disulfide
##JCAMP-DX=4.24
##DATA TYPE=INFRARED SPECTRUM
##CLASS=COBLENTZ III
##ORIGIN=WYANDOTTE CHEMICALS CORP.
##OWNER=Copyright (C) 1987 by the Coblentz Society
Collection (C) 2018 copyright by the U.S. Secretary of Commerce
on behalf of the United States of America. All rights reserved.
##DATE=Not specified, most likely prior to 1977
##NAMES=dipentyl disulfide
1-(pentyldisulfanyl)pentane
##CAS REGISTRY NO=112-51-6
##MOLFORM=C10 H22 S2
##SOURCE REFERENCE=COBLENTZ NO. 9812
##$NIST SOURCE=COBLENTZ
##$NIST IMAGE=cob9812
##SPECTROMETER/DATA SYSTEM=BAIRD (PRISM)
##INSTRUMENT PARAMETERS=NaCl PRISM
##STATE=LIQUID (NEAT)
##PATH LENGTH=
$$SPECTRAL CONTAMINATION DUE TO OIL AROUND 2900, 1470 CM^-^1
##SAMPLING PROCEDURE=TRANSMISSION
##RESOLUTION=2
##DATA PROCESSING=DIGITIZED BY COBLENTZ SOCIETY (BATCH II) FROM HARD COPY
##XUNITS=1/CM
##YUNITS=TRANSMITTANCE
##XFACTOR=1.0
##YFACTOR=1
##FIRSTX=626
##LASTX=4000
##FIRSTY=0.7414
##MAXX=4000
##MINX=626
##MAXY=0.9351
##MINY=0.0271
##NPOINTS=3375
##XYDATA=(X++(Y..Y))
626.000000 0.7414 0.7388 0.7403 0.7435 0.7467
631.000000 0.7503 0.7548 0.7586 0.7622 0.7659
636.000000 0.7697 0.7733 0.7766 0.7800 0.7832
641.000000 0.7864 0.7894 0.7915 0.7936 0.7956
646.000000 0.7976 0.7989 0.7999 0.7998 0.7993
651.000000 0.7989 0.7985 0.7982 0.7979 0.7977
656.000000 0.7974 0.7978 0.7984 0.8023 0.7992
661.000000 0.7995 0.7998 0.8001 0.8003 0.8006
666.000000 0.8009 0.8004 0.7998 0.7991 0.7985
671.000000 0.7977 0.7971 0.7959 0.7944 0.7930
676.000000 0.7915 0.7898 0.7880 0.7861 0.7843
681.000000 0.7815 0.7785 0.7752 0.7718 0.7684
686.000000 0.7646 0.7588 0.7522 0.7456 0.7390
691.000000 0.7314 0.7238 0.7165 0.7105 0.7046
696.000000 0.6986 0.6927 0.6871 0.6814 0.6758
701.000000 0.6722 0.6727 0.6674 0.6665 0.6656
706.000000 0.6648 0.6644 0.6641 0.6633 0.6617
711.000000 0.6596 0.6550 0.6480 0.6394 0.6284
716.000000 0.6118 0.5908 0.5613 0.5226 0.4839
721.000000 0.4235 0.3810 0.3595 0.3452 0.3346
726.000000 0.3297 0.3287 0.3298 0.3387 0.3617
731.000000 0.3966 0.4277 0.4588 0.4884 0.4984
736.000000 0.5094 0.5169 0.5226 0.5274 0.5316
741.000000 0.5343 0.5364 0.5379 0.5395 0.5421
746.000000 0.5451 0.5494 0.5576 0.5707 0.5849
751.000000 0.6013 0.6179 0.6316 0.6448 0.6536
756.000000 0.6561 0.6573 0.6577 0.6577 0.6567
761.000000 0.6576 0.6544 0.6537 0.6544 0.6591
766.000000 0.6665 0.6747 0.6836 0.6918 0.6997
771.000000 0.7064 0.7126 0.7154 0.7180 0.7184
776.000000 0.7183 0.7180 0.7172 0.7164 0.7154
781.000000 0.7136 0.7124 0.7141 0.7172 0.7223
786.000000 0.7286 0.7356 0.7426 0.7500 0.7577
791.000000 0.7622 0.7636 0.7658 0.7658 0.7662
796.000000 0.7660 0.7654 0.7647 0.7636 0.7625
801.000000 0.7612 0.7596 0.7581 0.7565 0.7550
806.000000 0.7534 0.7519 0.7481 0.7444 0.7385
811.000000 0.7291 0.7155 0.7020 0.6915 0.6818
816.000000 0.6734 0.6709 0.6699 0.6702 0.6673
821.000000 0.6741 0.6795 0.6881 0.6980 0.7076
826.000000 0.7163 0.7249 0.7339 0.7429 0.7504
831.000000 0.7570 0.7597 0.7621 0.7626 0.7630
836.000000 0.7622 0.7615 0.7605 0.7595 0.7585
841.000000 0.7581 0.7580 0.7581 0.7589 0.7599
846.000000 0.7607 0.7618 0.7627 0.7638 0.7648
851.000000 0.7657 0.7666 0.7675 0.7684 0.7693
856.000000 0.7701 0.7710 0.7718 0.7727 0.7736
861.000000 0.7744 0.7752 0.7759 0.7766 0.7796
866.000000 0.7834 0.7872 0.7905 0.7922 0.7929
871.000000 0.7924 0.7924 0.7905 0.7892 0.7875
876.000000 0.7857 0.7838 0.7814 0.7788 0.7757
881.000000 0.7724 0.7692 0.7650 0.7601 0.7558
886.000000 0.7516 0.7498 0.7491 0.7484 0.7482
891.000000 0.7480 0.7477 0.7474 0.7470 0.7465
896.000000 0.7443 0.7417 0.7390 0.7340 0.7290
901.000000 0.7236 0.7238 0.7210 0.7282 0.7323
906.000000 0.7397 0.7460 0.7489 0.7492 0.7533
911.000000 0.7480 0.7430 0.7354 0.7207 0.7103
916.000000 0.6958 0.6776 0.6590 0.6441 0.6369
921.000000 0.6337 0.6413 0.6471 0.6588 0.6724
926.000000 0.6881 0.7002 0.7117 0.7231 0.7327
931.000000 0.7417 0.7491 0.7545 0.7597 0.7620
936.000000 0.7637 0.7641 0.7659 0.7620 0.7601
941.000000 0.7579 0.7557 0.7534 0.7508 0.7482
946.000000 0.7456 0.7430 0.7402 0.7374 0.7346
951.000000 0.7320 0.7292 0.7264 0.7236 0.7209
956.000000 0.7181 0.7155 0.7128 0.7101 0.7070
961.000000 0.7019 0.6962 0.6915 0.6907 0.6887
966.000000 0.6951 0.7018 0.7138 0.7239 0.7367
971.000000 0.7493 0.7618 0.7707 0.7794 0.7874
976.000000 0.7947 0.8014 0.8053 0.8092 0.8131
981.000000 0.8153 0.8175 0.8184 0.8187 0.8189
986.000000 0.8193 0.8194 0.8195 0.8196 0.8196
991.000000 0.8198 0.8200 0.8202 0.8203 0.8204
996.000000 0.8206 0.8216 0.8212 0.8220 0.8230
1001.000000 0.8239 0.8247 0.8253 0.8257 0.8251
1006.000000 0.8246 0.8234 0.8220 0.8208 0.8193
1011.000000 0.8179 0.8165 0.8147 0.8117 0.8088
1016.000000 0.8042 0.7995 0.7948 0.7893 0.7837
1021.000000 0.7784 0.7747 0.7711 0.7676 0.7648
1026.000000 0.7621 0.7592 0.7555 0.7519 0.7496
1031.000000 0.7474 0.7458 0.7459 0.7456 0.7485
1036.000000 0.7513 0.7562 0.7615 0.7668 0.7742
1041.000000 0.7819 0.7883 0.7944 0.7971 0.7981
1046.000000 0.7989 0.7957 0.7933 0.7899 0.7865
1051.000000 0.7830 0.7784 0.7738 0.7682 0.7603
1056.000000 0.7524 0.7443 0.7352 0.7261 0.7172
1061.000000 0.7088 0.7002 0.6897 0.6787 0.6681
1066.000000 0.6587 0.6537 0.6524 0.6522 0.6521
1071.000000 0.6517 0.6509 0.6500 0.6467 0.6410
1076.000000 0.6387 0.6374 0.6376 0.6383 0.6403
1081.000000 0.6436 0.6492 0.6553 0.6624 0.6704
1086.000000 0.6785 0.6866 0.6979 0.7107 0.7188
1091.000000 0.7248 0.7275 0.7284 0.7292 0.7216
1096.000000 0.7171 0.7123 0.7052 0.6985 0.6923
1101.000000 0.6862 0.6802 0.6745 0.6700 0.6645
1106.000000 0.6512 0.6367 0.6222 0.6078 0.6038
1111.000000 0.6020 0.6097 0.6424 0.6765 0.7107
1116.000000 0.7364 0.7559 0.7700 0.7813 0.7891
1121.000000 0.7960 0.8015 0.8070 0.8097 0.8116
1126.000000 0.8136 0.8143 0.8145 0.8139 0.8143
1131.000000 0.8140 0.8138 0.8135 0.8128 0.8116
1136.000000 0.8105 0.8093 0.8076 0.8059 0.8041
1141.000000 0.8024 0.8006 0.7977 0.7947 0.7917
1146.000000 0.7889 0.7862 0.7837 0.7821 0.7810
1151.000000 0.7804 0.7761 0.7708 0.7661 0.7618
1156.000000 0.7575 0.7533 0.7491 0.7446 0.7395
1161.000000 0.7345 0.7294 0.7241 0.7175 0.7107
1166.000000 0.7039 0.6971 0.6903 0.6844 0.6823
1171.000000 0.6801 0.6779 0.6765 0.6761 0.6757
1176.000000 0.6753 0.6750 0.6749 0.6752 0.6767
1181.000000 0.6758 0.6760 0.6763 0.6765 0.6764
1186.000000 0.6762 0.6762 0.6754 0.6732 0.6696
1191.000000 0.6655 0.6614 0.6570 0.6509 0.6440
1196.000000 0.6361 0.6276 0.6178 0.6072 0.5921
1201.000000 0.5729 0.5467 0.5121 0.4777 0.4433
1206.000000 0.4090 0.3747 0.3405 0.3071 0.2892
1211.000000 0.2884 0.2827 0.3067 0.3264 0.3462
1216.000000 0.3659 0.3855 0.4052 0.4248 0.4444
1221.000000 0.4639 0.4835 0.5030 0.5223 0.5418
1226.000000 0.5612 0.5805 0.5998 0.6191 0.6248
1231.000000 0.6267 0.6268 0.6290 0.6261 0.6252
1236.000000 0.6234 0.6176 0.6110 0.6042 0.5939
1241.000000 0.5808 0.5624 0.5349 0.5070 0.4792
1246.000000 0.4515 0.4238 0.3962 0.3686 0.3411
1251.000000 0.3135 0.2860 0.2608 0.2525 0.2507
1256.000000 0.2554 0.2583 0.2706 0.2828 0.2951
1261.000000 0.3073 0.3195 0.3276 0.3288 0.3165
1266.000000 0.3009 0.2853 0.2698 0.2543 0.2388
1271.000000 0.2237 0.2242 0.2214 0.2286 0.2523
1276.000000 0.2783 0.3044 0.3304 0.3564 0.3823
1281.000000 0.4082 0.4340 0.4599 0.4856 0.5111
1286.000000 0.5204 0.5210 0.5224 0.5113 0.4833
1291.000000 0.4543 0.4252 0.3963 0.3673 0.3384
1296.000000 0.3096 0.2819 0.2708 0.2705 0.2702
1301.000000 0.2716 0.2838 0.3050 0.3264 0.3478
1306.000000 0.3690 0.3903 0.4115 0.4328 0.4539
1311.000000 0.4750 0.4961 0.5172 0.5382 0.5592
1316.000000 0.5802 0.6011 0.6218 0.6347 0.6394
1321.000000 0.6434 0.6469 0.6482 0.6484 0.6507
1326.000000 0.6443 0.6401 0.6290 0.6180 0.6070
1331.000000 0.5961 0.5851 0.5742 0.5632 0.5523
1336.000000 0.5415 0.5306 0.5197 0.5089 0.4981
1341.000000 0.4876 0.4825 0.4810 0.4794 0.4793
1346.000000 0.4808 0.4801 0.4819 0.4862 0.4934
1351.000000 0.5019 0.5104 0.5189 0.5274 0.5358
1356.000000 0.5443 0.5528 0.5558 0.5570 0.5557
1361.000000 0.5480 0.5321 0.5162 0.5003 0.4845
1366.000000 0.4686 0.4528 0.4370 0.4212 0.4066
1371.000000 0.4014 0.3991 0.3912 0.3621 0.3329
1376.000000 0.3039 0.2749 0.2459 0.2169 0.1948
1381.000000 0.1910 0.1906 0.1942 0.1927 0.2189
1386.000000 0.2552 0.2915 0.3277 0.3639 0.4000
1391.000000 0.4362 0.4722 0.5082 0.5441 0.5633
1396.000000 0.5666 0.5678 0.5685 0.5687 0.5725
1401.000000 0.5652 0.5629 0.5530 0.5331 0.5133
1406.000000 0.4934 0.4736 0.4538 0.4340 0.4142
1411.000000 0.3945 0.3748 0.3551 0.3355 0.3160
1416.000000 0.2964 0.2768 0.2573 0.2407 0.2441
1421.000000 0.2465 0.2594 0.2756 0.2917 0.3077
1426.000000 0.3238 0.3396 0.3489 0.3484 0.3475
1431.000000 0.3445 0.3217 0.2984 0.2751 0.2519
1436.000000 0.2288 0.2077 0.1935 0.1842 0.1758
1441.000000 0.1678 0.1616 0.1567 0.1517 0.1468
1446.000000 0.1429 0.1392 0.1356 0.1318 0.1274
1451.000000 0.1229 0.1182 0.1134 0.1075 0.1011
1456.000000 0.0937 0.0842 0.0748 0.0660 0.0596
1461.000000 0.0562 0.0534 0.0505 0.0481 0.0465
1466.000000 0.0450 0.0439 0.0432 0.0428 0.0426
1471.000000 0.0429 0.0437 0.0450 0.0664 0.1175
1476.000000 0.1700 0.2225 0.2749 0.3191 0.3426
1481.000000 0.3706 0.4454 0.4636 0.4750 0.4865
1486.000000 0.4979 0.5076 0.5158 0.5239 0.5319
1491.000000 0.5400 0.5491 0.5624 0.5782 0.5915
1496.000000 0.6012 0.6100 0.6187 0.6266 0.6340
1501.000000 0.6413 0.6486 0.6586 0.6704 0.6807
1506.000000 0.6882 0.6953 0.7025 0.7091 0.7147
1511.000000 0.7202 0.7258 0.7308 0.7351 0.7391
1516.000000 0.7432 0.7473 0.7513 0.7557 0.7600
1521.000000 0.7645 0.7689 0.7733 0.7778 0.7824
1526.000000 0.7870 0.7916 0.7943 0.7962 0.7980
1531.000000 0.7997 0.8013 0.8018 0.8023 0.8027
1536.000000 0.8031 0.8035 0.8040 0.8049 0.8064
1541.000000 0.8077 0.8091 0.8105 0.8122 0.8145
1546.000000 0.8169 0.8194 0.8218 0.8231 0.8244
1551.000000 0.8256 0.8268 0.8280 0.8292 0.8302
1556.000000 0.8306 0.8310 0.8314 0.8318 0.8323
1561.000000 0.8327 0.8331 0.8336 0.8340 0.8345
1566.000000 0.8350 0.8355 0.8360 0.8365 0.8370
1571.000000 0.8376 0.8383 0.8389 0.8396 0.8403
1576.000000 0.8409 0.8413 0.8417 0.8421 0.8425
1581.000000 0.8428 0.8432 0.8436 0.8440 0.8443
1586.000000 0.8446 0.8449 0.8452 0.8455 0.8458
1591.000000 0.8461 0.8464 0.8467 0.8470 0.8473
1596.000000 0.8476 0.8480 0.8484 0.8489 0.8493
1601.000000 0.8497 0.8501 0.8506 0.8510 0.8514
1606.000000 0.8519 0.8523 0.8528 0.8531 0.8536
1611.000000 0.8540 0.8544 0.8549 0.8553 0.8558
1616.000000 0.8561 0.8565 0.8570 0.8574 0.8580
1621.000000 0.8587 0.8593 0.8599 0.8606 0.8612
1626.000000 0.8619 0.8626 0.8633 0.8642 0.8651
1631.000000 0.8660 0.8670 0.8679 0.8689 0.8698
1636.000000 0.8707 0.8714 0.8718 0.8722 0.8727
1641.000000 0.8731 0.8734 0.8738 0.8742 0.8746
1646.000000 0.8749 0.8748 0.8748 0.8748 0.8748
1651.000000 0.8748 0.8748 0.8747 0.8747 0.8747
1656.000000 0.8747 0.8746 0.8746 0.8746 0.8746
1661.000000 0.8746 0.8746 0.8746 0.8746 0.8746
1666.000000 0.8746 0.8746 0.8746 0.8746 0.8746
1671.000000 0.8746 0.8746 0.8746 0.8746 0.8746
1676.000000 0.8746 0.8746 0.8745 0.8745 0.8745
1681.000000 0.8744 0.8743 0.8743 0.8742 0.8741
1686.000000 0.8741 0.8740 0.8740 0.8740 0.8739
1691.000000 0.8739 0.8740 0.8741 0.8743 0.8744
1696.000000 0.8745 0.8747 0.8748 0.8750 0.8751
1701.000000 0.8752 0.8754 0.8755 0.8756 0.8758
1706.000000 0.8759 0.8760 0.8762 0.8763 0.8765
1711.000000 0.8765 0.8767 0.8768 0.8769 0.8771
1716.000000 0.8773 0.8773 0.8776 0.8778 0.8781
1721.000000 0.8784 0.8787 0.8790 0.8792 0.8796
1726.000000 0.8801 0.8806 0.8812 0.8817 0.8823
1731.000000 0.8829 0.8835 0.8842 0.8848 0.8855
1736.000000 0.8862 0.8868 0.8874 0.8881 0.8887
1741.000000 0.8893 0.8896 0.8900 0.8904 0.8907
1746.000000 0.8911 0.8914 0.8918 0.8922 0.8925
1751.000000 0.8928 0.8931 0.8932 0.8933 0.8934
1756.000000 0.8936 0.8938 0.8938 0.8940 0.8942
1761.000000 0.8943 0.8944 0.8944 0.8944 0.8945
1766.000000 0.8945 0.8946 0.8946 0.8947 0.8947
1771.000000 0.8948 0.8949 0.8949 0.8949 0.8950
1776.000000 0.8950 0.8951 0.8951 0.8951 0.8952
1781.000000 0.8952 0.8953 0.8953 0.8953 0.8954
1786.000000 0.8954 0.8955 0.8955 0.8955 0.8956
1791.000000 0.8956 0.8956 0.8957 0.8957 0.8958
1796.000000 0.8958 0.8958 0.8958 0.8959 0.8959
1801.000000 0.8959 0.8960 0.8960 0.8961 0.8961
1806.000000 0.8961 0.8962 0.8962 0.8962 0.8962
1811.000000 0.8963 0.8963 0.8964 0.8964 0.8964
1816.000000 0.8964 0.8965 0.8965 0.8965 0.8966
1821.000000 0.8966 0.8966 0.8966 0.8967 0.8967
1826.000000 0.8967 0.8968 0.8968 0.8969 0.8969
1831.000000 0.8969 0.8969 0.8970 0.8970 0.8970
1836.000000 0.8971 0.8971 0.8971 0.8971 0.8971
1841.000000 0.8971 0.8971 0.8970 0.8969 0.8969
1846.000000 0.8969 0.8968 0.8968 0.8968 0.8967
1851.000000 0.8966 0.8966 0.8966 0.8965 0.8965
1856.000000 0.8964 0.8964 0.8964 0.8963 0.8963
1861.000000 0.8962 0.8962 0.8961 0.8961 0.8961
1866.000000 0.8960 0.8960 0.8959 0.8959 0.8958
1871.000000 0.8958 0.8958 0.8957 0.8957 0.8957
1876.000000 0.8956 0.8955 0.8955 0.8955 0.8954
1881.000000 0.8954 0.8954 0.8953 0.8952 0.8952
1886.000000 0.8952 0.8952 0.8952 0.8953 0.8953
1891.000000 0.8953 0.8953 0.8953 0.8954 0.8954
1896.000000 0.8954 0.8954 0.8954 0.8955 0.8955
1901.000000 0.8955 0.8955 0.8955 0.8955 0.8956
1906.000000 0.8956 0.8956 0.8956 0.8957 0.8957
1911.000000 0.8957 0.8957 0.8957 0.8957 0.8958
1916.000000 0.8958 0.8958 0.8958 0.8959 0.8959
1921.000000 0.8959 0.8960 0.8960 0.8960 0.8961
1926.000000 0.8961 0.8961 0.8962 0.8962 0.8962
1931.000000 0.8963 0.8963 0.8963 0.8964 0.8964
1936.000000 0.8964 0.8965 0.8965 0.8965 0.8966
1941.000000 0.8966 0.8966 0.8967 0.8967 0.8965
1946.000000 0.8963 0.8961 0.8959 0.8958 0.8956
1951.000000 0.8954 0.8952 0.8950 0.8948 0.8947
1956.000000 0.8945 0.8943 0.8941 0.8939 0.8937
1961.000000 0.8935 0.8932 0.8930 0.8928 0.8926
1966.000000 0.8924 0.8921 0.8919 0.8918 0.8916
1971.000000 0.8914 0.8913 0.8913 0.8913 0.8913
1976.000000 0.8913 0.8913 0.8913 0.8913 0.8912
1981.000000 0.8912 0.8912 0.8912 0.8912 0.8912
1986.000000 0.8913 0.8913 0.8914 0.8914 0.8914
1991.000000 0.8915 0.8915 0.8915 0.8916 0.8916
1996.000000 0.8916 0.8917 0.8917 0.8918 0.8918
2001.000000 0.8918 0.8919 0.8919 0.8919 0.8920
2006.000000 0.8920 0.8920 0.8920 0.8920 0.8921
2011.000000 0.8921 0.8921 0.8921 0.8921 0.8921
2016.000000 0.8921 0.8922 0.8922 0.8922 0.8922
2021.000000 0.8922 0.8923 0.8923 0.8923 0.8923
2026.000000 0.8924 0.8924 0.8924 0.8924 0.8924
2031.000000 0.8924 0.8924 0.8925 0.8925 0.8925
2036.000000 0.8925 0.8925 0.8926 0.8926 0.8926
2041.000000 0.8926 0.8926 0.8926 0.8926 0.8927
2046.000000 0.8926 0.8926 0.8925 0.8925 0.8924
2051.000000 0.8923 0.8923 0.8922 0.8922 0.8921
2056.000000 0.8921 0.8921 0.8920 0.8920 0.8919
2061.000000 0.8919 0.8918 0.8917 0.8917 0.8916
2066.000000 0.8916 0.8915 0.8915 0.8915 0.8914
2071.000000 0.8914 0.8913 0.8912 0.8912 0.8911
2076.000000 0.8911 0.8910 0.8910 0.8909 0.8908
2081.000000 0.8907 0.8906 0.8906 0.8905 0.8905
2086.000000 0.8903 0.8902 0.8902 0.8901 0.8900
2091.000000 0.8899 0.8899 0.8898 0.8897 0.8896
2096.000000 0.8895 0.8895 0.8894 0.8893 0.8892
2101.000000 0.8891 0.8891 0.8890 0.8889 0.8888
2106.000000 0.8888 0.8887 0.8885 0.8885 0.8884
2111.000000 0.8884 0.8883 0.8882 0.8881 0.8881
2116.000000 0.8880 0.8879 0.8879 0.8878 0.8878
2121.000000 0.8877 0.8877 0.8876 0.8876 0.8874
2126.000000 0.8873 0.8873 0.8872 0.8872 0.8871
2131.000000 0.8871 0.8871 0.8871 0.8872 0.8872
2136.000000 0.8872 0.8872 0.8872 0.8873 0.8873
2141.000000 0.8873 0.8873 0.8873 0.8873 0.8873
2146.000000 0.8874 0.8874 0.8874 0.8874 0.8874
2151.000000 0.8874 0.8875 0.8875 0.8875 0.8875
2156.000000 0.8875 0.8875 0.8875 0.8876 0.8876
2161.000000 0.8875 0.8874 0.8873 0.8873 0.8872
2166.000000 0.8871 0.8870 0.8869 0.8868 0.8868
2171.000000 0.8867 0.8866 0.8864 0.8863 0.8863
2176.000000 0.8862 0.8861 0.8860 0.8859 0.8858
2181.000000 0.8858 0.8857 0.8856 0.8855 0.8854
2186.000000 0.8853 0.8852 0.8851 0.8851 0.8850
2191.000000 0.8849 0.8848 0.8846 0.8846 0.8845
2196.000000 0.8844 0.8843 0.8842 0.8841 0.8841
2201.000000 0.8840 0.8839 0.8838 0.8837 0.8836
2206.000000 0.8836 0.8835 0.8834 0.8833 0.8832
2211.000000 0.8831 0.8831 0.8830 0.8829 0.8828
2216.000000 0.8827 0.8826 0.8826 0.8825 0.8824
2221.000000 0.8823 0.8822 0.8821 0.8821 0.8820
2226.000000 0.8819 0.8818 0.8817 0.8816 0.8816
2231.000000 0.8816 0.8816 0.8816 0.8816 0.8816
2236.000000 0.8816 0.8816 0.8816 0.8816 0.8816
2241.000000 0.8816 0.8816 0.8816 0.8816 0.8815
2246.000000 0.8815 0.8815 0.8815 0.8815 0.8815
2251.000000 0.8815 0.8815 0.8815 0.8815 0.8815
2256.000000 0.8815 0.8815 0.8815 0.8814 0.8814
2261.000000 0.8814 0.8814 0.8814 0.8814 0.8814
2266.000000 0.8814 0.8814 0.8814 0.8814 0.8814
2271.000000 0.8814 0.8814 0.8814 0.8814 0.8813
2276.000000 0.8813 0.8813 0.8813 0.8813 0.8813
2281.000000 0.8813 0.8813 0.8813 0.8813 0.8813
2286.000000 0.8813 0.8813 0.8813 0.8813 0.8813
2291.000000 0.8813 0.8814 0.8814 0.8814 0.8814
2296.000000 0.8814 0.8814 0.8814 0.8814 0.8814
2301.000000 0.8814 0.8814 0.8814 0.8814 0.8814
2306.000000 0.8814 0.8814 0.8814 0.8814 0.8814
2311.000000 0.8815 0.8815 0.8815 0.8815 0.8815
2316.000000 0.8815 0.8815 0.8815 0.8815 0.8815
2321.000000 0.8815 0.8815 0.8815 0.8815 0.8815
2326.000000 0.8814 0.8814 0.8813 0.8812 0.8811
2331.000000 0.8811 0.8810 0.8809 0.8808 0.8807
2336.000000 0.8806 0.8805 0.8804 0.8803 0.8802
2341.000000 0.8801 0.8800 0.8800 0.8799 0.8798
2346.000000 0.8796 0.8795 0.8794 0.8793 0.8791
2351.000000 0.8789 0.8786 0.8782 0.8778 0.8774
2356.000000 0.8770 0.8766 0.8761 0.8757 0.8753
2361.000000 0.8749 0.8745 0.8741 0.8737 0.8733
2366.000000 0.8732 0.8732 0.8731 0.8731 0.8730
2371.000000 0.8730 0.8730 0.8731 0.8733 0.8736
2376.000000 0.8739 0.8743 0.8747 0.8753 0.8759
2381.000000 0.8766 0.8772 0.8778 0.8785 0.8791
2386.000000 0.8798 0.8804 0.8810 0.8816 0.8822
2391.000000 0.8827 0.8831 0.8834 0.8836 0.8838
2396.000000 0.8840 0.8842 0.8844 0.8846 0.8848
2401.000000 0.8850 0.8851 0.8853 0.8855 0.8856
2406.000000 0.8857 0.8859 0.8861 0.8862 0.8864
2411.000000 0.8866 0.8867 0.8868 0.8870 0.8872
2416.000000 0.8873 0.8875 0.8877 0.8878 0.8879
2421.000000 0.8881 0.8883 0.8884 0.8885 0.8887
2426.000000 0.8888 0.8890 0.8892 0.8893 0.8894
2431.000000 0.8895 0.8897 0.8898 0.8899 0.8900
2436.000000 0.8902 0.8903 0.8904 0.8905 0.8906
2441.000000 0.8907 0.8908 0.8908 0.8909 0.8909
2446.000000 0.8909 0.8910 0.8910 0.8911 0.8912
2451.000000 0.8913 0.8913 0.8913 0.8914 0.8914
2456.000000 0.8915 0.8915 0.8915 0.8915 0.8915
2461.000000 0.8914 0.8912 0.8911 0.8909 0.8908
2466.000000 0.8907 0.8906 0.8904 0.8903 0.8901
2471.000000 0.8900 0.8898 0.8897 0.8896 0.8894
2476.000000 0.8893 0.8891 0.8890 0.8888 0.8887
2481.000000 0.8884 0.8881 0.8877 0.8872 0.8868
2486.000000 0.8863 0.8859 0.8855 0.8850 0.8846
2491.000000 0.8841 0.8836 0.8828 0.8817 0.8806
2496.000000 0.8795 0.8784 0.8774 0.8764 0.8755
2501.000000 0.8748 0.8741 0.8734 0.8728 0.8722
2506.000000 0.8715 0.8708 0.8704 0.8702 0.8700
2511.000000 0.8699 0.8698 0.8697 0.8696 0.8696
2516.000000 0.8695 0.8694 0.8693 0.8692 0.8692
2521.000000 0.8691 0.8689 0.8688 0.8687 0.8687
2526.000000 0.8686 0.8685 0.8684 0.8683 0.8682
2531.000000 0.8681 0.8680 0.8679 0.8679 0.8678
2536.000000 0.8677 0.8676 0.8675 0.8674 0.8673
2541.000000 0.8672 0.8669 0.8667 0.8664 0.8661
2546.000000 0.8658 0.8655 0.8653 0.8649 0.8644
2551.000000 0.8640 0.8633 0.8627 0.8620 0.8613
2556.000000 0.8606 0.8601 0.8596 0.8592 0.8591
2561.000000 0.8589 0.8588 0.8587 0.8586 0.8584
2566.000000 0.8583 0.8582 0.8581 0.8580 0.8579
2571.000000 0.8577 0.8576 0.8574 0.8573 0.8572
2576.000000 0.8570 0.8569 0.8567 0.8566 0.8564
2581.000000 0.8561 0.8558 0.8554 0.8548 0.8542
2586.000000 0.8535 0.8527 0.8519 0.8499 0.8478
2591.000000 0.8457 0.8436 0.8414 0.8392 0.8370
2596.000000 0.8348 0.8326 0.8305 0.8285 0.8272
2601.000000 0.8259 0.8245 0.8233 0.8220 0.8206
2606.000000 0.8193 0.8180 0.8167 0.8154 0.8141
2611.000000 0.8128 0.8115 0.8103 0.8092 0.8080
2616.000000 0.8071 0.8063 0.8054 0.8045 0.8035
2621.000000 0.8027 0.8018 0.8009 0.8000 0.7992
2626.000000 0.7983 0.7978 0.7973 0.7969 0.7964
2631.000000 0.7959 0.7955 0.7950 0.7945 0.7941
2636.000000 0.7936 0.7932 0.7929 0.7927 0.7924
2641.000000 0.7922 0.7919 0.7917 0.7914 0.7911
2646.000000 0.7908 0.7904 0.7900 0.7895 0.7891
2651.000000 0.7886 0.7882 0.7877 0.7873 0.7869
2656.000000 0.7864 0.7859 0.7855 0.7851 0.7847
2661.000000 0.7842 0.7838 0.7835 0.7832 0.7829
2666.000000 0.7827 0.7825 0.7823 0.7823 0.7823
2671.000000 0.7823 0.7823 0.7823 0.7824 0.7824
2676.000000 0.7824 0.7823 0.7822 0.7821 0.7819
2681.000000 0.7817 0.7814 0.7808 0.7798 0.7788
2686.000000 0.7779 0.7770 0.7761 0.7752 0.7743
2691.000000 0.7734 0.7724 0.7715 0.7705 0.7695
2696.000000 0.7684 0.7674 0.7664 0.7654 0.7643
2701.000000 0.7633 0.7623 0.7613 0.7603 0.7594
2706.000000 0.7584 0.7575 0.7566 0.7557 0.7548
2711.000000 0.7539 0.7530 0.7521 0.7512 0.7503
2716.000000 0.7494 0.7485 0.7476 0.7467 0.7458
2721.000000 0.7448 0.7439 0.7429 0.7422 0.7415
2726.000000 0.7407 0.7406 0.7406 0.7406 0.7407
2731.000000 0.7407 0.7407 0.7407 0.7407 0.7407
2736.000000 0.7407 0.7407 0.7407 0.7407 0.7407
2741.000000 0.7407 0.7408 0.7408 0.7408 0.7408
2746.000000 0.7408 0.7408 0.7406 0.7403 0.7401
2751.000000 0.7399 0.7396 0.7393 0.7391 0.7388
2756.000000 0.7385 0.7374 0.7357 0.7341 0.7311
2761.000000 0.7274 0.7237 0.7187 0.7128 0.7069
2766.000000 0.7026 0.6999 0.6972 0.6944 0.6917
2771.000000 0.6890 0.6853 0.6798 0.6743 0.6687
2776.000000 0.6630 0.6574 0.6522 0.6488 0.6454
2781.000000 0.6420 0.6386 0.6352 0.6318 0.6285
2786.000000 0.6251 0.6218 0.6168 0.6117 0.6067
2791.000000 0.5903 0.5716 0.5528 0.5410 0.5321
2796.000000 0.5232 0.5143 0.5054 0.4966 0.4877
2801.000000 0.4788 0.4700 0.4611 0.4523 0.4434
2806.000000 0.4346 0.4258 0.4170 0.4081 0.3994
2811.000000 0.3906 0.3818 0.3730 0.3642 0.3554
2816.000000 0.3467 0.3379 0.3292 0.3205 0.3117
2821.000000 0.3030 0.2943 0.2856 0.2768 0.2681
2826.000000 0.2594 0.2507 0.2420 0.2353 0.2287
2831.000000 0.2221 0.2168 0.2119 0.2069 0.2024
2836.000000 0.1982 0.1940 0.1895 0.1845 0.1794
2841.000000 0.1724 0.1468 0.1212 0.0956 0.0873
2846.000000 0.0818 0.0763 0.0722 0.0690 0.0657
2851.000000 0.0627 0.0600 0.0573 0.0548 0.0532
2856.000000 0.0517 0.0502 0.0486 0.0471 0.0456
2861.000000 0.0441 0.0425 0.0410 0.0396 0.0386
2866.000000 0.0376 0.0366 0.0357 0.0347 0.0337
2871.000000 0.0330 0.0324 0.0318 0.0313 0.0311
2876.000000 0.0309 0.0306 0.0304 0.0302 0.0300
2881.000000 0.0298 0.0295 0.0293 0.0290 0.0288
2886.000000 0.0286 0.0284 0.0282 0.0281 0.0279
2891.000000 0.0277 0.0275 0.0273 0.0272 0.0272
2896.000000 0.0272 0.0272 0.0272 0.0272 0.0272
2901.000000 0.0271 0.0271 0.0271 0.0271 0.0271
2906.000000 0.0271 0.0271 0.0271 0.0271 0.0271
2911.000000 0.0271 0.0271 0.0271 0.0271 0.0271
2916.000000 0.0271 0.0271 0.0271 0.0271 0.0271
2921.000000 0.0272 0.0272 0.0272 0.0273 0.0273
2926.000000 0.0273 0.0273 0.0274 0.0274 0.0274
2931.000000 0.0275 0.0275 0.0275 0.0275 0.0276
2936.000000 0.0276 0.0276 0.0275 0.0275 0.0275
2941.000000 0.0275 0.0274 0.0274 0.0274 0.0273
2946.000000 0.0273 0.0273 0.0273 0.0272 0.0272
2951.000000 0.0272 0.0272 0.0272 0.0272 0.0272
2956.000000 0.0271 0.0271 0.0271 0.0271 0.0272
2961.000000 0.0273 0.0273 0.0275 0.0276 0.0278
2966.000000 0.0279 0.0280 0.0282 0.0283 0.0287
2971.000000 0.0290 0.0294 0.0298 0.0303 0.0308
2976.000000 0.0314 0.0330 0.0349 0.0368 0.0436
2981.000000 0.0646 0.0856 0.1065 0.1214 0.1338
2986.000000 0.1461 0.1585 0.1709 0.1832 0.1955
2991.000000 0.2078 0.2201 0.2324 0.2447 0.2570
2996.000000 0.2693 0.2816 0.2938 0.3061 0.3183
3001.000000 0.3306 0.3428 0.3551 0.3673 0.3795
3006.000000 0.3917 0.4039 0.4161 0.4283 0.4404
3011.000000 0.4526 0.4648 0.4769 0.4890 0.5012
3016.000000 0.5133 0.5254 0.5375 0.5495 0.5616
3021.000000 0.5737 0.5858 0.5978 0.6061 0.6145
3026.000000 0.6228 0.6308 0.6381 0.6454 0.6527
3031.000000 0.6578 0.6620 0.6662 0.6703 0.6736
3036.000000 0.6768 0.6801 0.6831 0.6857 0.6883
3041.000000 0.6909 0.6932 0.6953 0.6975 0.6996
3046.000000 0.7017 0.7039 0.7060 0.7081 0.7102
3051.000000 0.7124 0.7145 0.7186 0.7248 0.7310
3056.000000 0.7372 0.7418 0.7459 0.7500 0.7540
3061.000000 0.7570 0.7599 0.7628 0.7657 0.7686
3066.000000 0.7715 0.7744 0.7770 0.7792 0.7814
3071.000000 0.7836 0.7857 0.7878 0.7898 0.7919
3076.000000 0.7939 0.7960 0.7981 0.8001 0.8019
3081.000000 0.8038 0.8056 0.8074 0.8090 0.8107
3086.000000 0.8124 0.8140 0.8157 0.8173 0.8190
3091.000000 0.8203 0.8216 0.8228 0.8241 0.8249
3096.000000 0.8258 0.8266 0.8274 0.8282 0.8290
3101.000000 0.8299 0.8307 0.8315 0.8323 0.8331
3106.000000 0.8339 0.8347 0.8355 0.8364 0.8371
3111.000000 0.8377 0.8384 0.8390 0.8397 0.8403
3116.000000 0.8409 0.8415 0.8421 0.8427 0.8433
3121.000000 0.8439 0.8445 0.8451 0.8457 0.8464
3126.000000 0.8468 0.8472 0.8476 0.8480 0.8484
3131.000000 0.8488 0.8492 0.8496 0.8500 0.8504
3136.000000 0.8508 0.8512 0.8517 0.8521 0.8525
3141.000000 0.8528 0.8530 0.8532 0.8534 0.8536
3146.000000 0.8537 0.8538 0.8540 0.8541 0.8542
3151.000000 0.8544 0.8545 0.8546 0.8547 0.8549
3156.000000 0.8550 0.8551 0.8552 0.8554 0.8555
3161.000000 0.8556 0.8557 0.8558 0.8559 0.8560
3166.000000 0.8561 0.8563 0.8564 0.8565 0.8567
3171.000000 0.8569 0.8570 0.8572 0.8574 0.8576
3176.000000 0.8578 0.8580 0.8583 0.8585 0.8587
3181.000000 0.8589 0.8591 0.8593 0.8595 0.8597
3186.000000 0.8599 0.8602 0.8604 0.8606 0.8608
3191.000000 0.8610 0.8613 0.8615 0.8619 0.8623
3196.000000 0.8628 0.8632 0.8636 0.8640 0.8644
3201.000000 0.8648 0.8653 0.8657 0.8661 0.8665
3206.000000 0.8671 0.8676 0.8682 0.8688 0.8695
3211.000000 0.8702 0.8709 0.8716 0.8723 0.8730
3216.000000 0.8737 0.8744 0.8752 0.8762 0.8771
3221.000000 0.8780 0.8791 0.8802 0.8814 0.8825
3226.000000 0.8837 0.8848 0.8860 0.8871 0.8883
3231.000000 0.8894 0.8906 0.8917 0.8929 0.8936
3236.000000 0.8943 0.8950 0.8956 0.8963 0.8969
3241.000000 0.8976 0.8982 0.8988 0.8995 0.9001
3246.000000 0.9008 0.9014 0.9020 0.9027 0.9033
3251.000000 0.9040 0.9046 0.9052 0.9058 0.9064
3256.000000 0.9070 0.9075 0.9080 0.9085 0.9090
3261.000000 0.9095 0.9100 0.9105 0.9109 0.9111
3266.000000 0.9112 0.9114 0.9116 0.9116 0.9117
3271.000000 0.9118 0.9118 0.9119 0.9120 0.9120
3276.000000 0.9121 0.9122 0.9122 0.9123 0.9123
3281.000000 0.9124 0.9124 0.9125 0.9126 0.9126
3286.000000 0.9126 0.9126 0.9126 0.9126 0.9126
3291.000000 0.9126 0.9126 0.9126 0.9126 0.9126
3296.000000 0.9126 0.9126 0.9126 0.9125 0.9125
3301.000000 0.9125 0.9125 0.9125 0.9125 0.9125
3306.000000 0.9125 0.9125 0.9125 0.9125 0.9125
3311.000000 0.9125 0.9125 0.9125 0.9125 0.9125
3316.000000 0.9125 0.9125 0.9125 0.9125 0.9125
3321.000000 0.9125 0.9125 0.9125 0.9125 0.9126
3326.000000 0.9126 0.9126 0.9126 0.9126 0.9126
3331.000000 0.9126 0.9126 0.9126 0.9126 0.9126
3336.000000 0.9126 0.9126 0.9127 0.9128 0.9128
3341.000000 0.9129 0.9130 0.9131 0.9132 0.9133
3346.000000 0.9134 0.9135 0.9136 0.9137 0.9137
3351.000000 0.9138 0.9139 0.9140 0.9142 0.9143
3356.000000 0.9144 0.9145 0.9146 0.9146 0.9147
3361.000000 0.9148 0.9149 0.9151 0.9152 0.9153
3366.000000 0.9154 0.9154 0.9155 0.9156 0.9157
3371.000000 0.9158 0.9159 0.9161 0.9162 0.9163
3376.000000 0.9165 0.9166 0.9168 0.9170 0.9171
3381.000000 0.9173 0.9175 0.9177 0.9179 0.9181
3386.000000 0.9182 0.9184 0.9186 0.9188 0.9190
3391.000000 0.9192 0.9193 0.9195 0.9197 0.9198
3396.000000 0.9200 0.9202 0.9204 0.9205 0.9207
3401.000000 0.9209 0.9211 0.9212 0.9214 0.9216
3406.000000 0.9218 0.9219 0.9221 0.9223 0.9224
3411.000000 0.9227 0.9229 0.9232 0.9235 0.9238
3416.000000 0.9240 0.9243 0.9245 0.9248 0.9251
3421.000000 0.9253 0.9256 0.9258 0.9261 0.9263
3426.000000 0.9266 0.9269 0.9272 0.9275 0.9277
3431.000000 0.9280 0.9282 0.9285 0.9287 0.9290
3436.000000 0.9292 0.9295 0.9297 0.9300 0.9303
3441.000000 0.9306 0.9308 0.9311 0.9314 0.9316
3446.000000 0.9318 0.9321 0.9323 0.9325 0.9328
3451.000000 0.9330 0.9333 0.9335 0.9336 0.9337
3456.000000 0.9338 0.9339 0.9340 0.9340 0.9340
3461.000000 0.9340 0.9340 0.9340 0.9340 0.9340
3466.000000 0.9340 0.9340 0.9340 0.9340 0.9340
3471.000000 0.9340 0.9340 0.9341 0.9341 0.9341
3476.000000 0.9341 0.9341 0.9341 0.9341 0.9341
3481.000000 0.9341 0.9341 0.9341 0.9341 0.9341
3486.000000 0.9341 0.9342 0.9342 0.9342 0.9342
3491.000000 0.9342 0.9342 0.9342 0.9342 0.9342
3496.000000 0.9342 0.9342 0.9342 0.9342 0.9342
3501.000000 0.9342 0.9342 0.9342 0.9342 0.9342
3506.000000 0.9342 0.9343 0.9343 0.9343 0.9343
3511.000000 0.9343 0.9343 0.9343 0.9343 0.9343
3516.000000 0.9343 0.9342 0.9342 0.9342 0.9342
3521.000000 0.9342 0.9342 0.9342 0.9342 0.9342
3526.000000 0.9342 0.9341 0.9341 0.9341 0.9341
3531.000000 0.9341 0.9341 0.9341 0.9341 0.9341
3536.000000 0.9341 0.9341 0.9341 0.9341 0.9341
3541.000000 0.9341 0.9340 0.9340 0.9340 0.9340
3546.000000 0.9340 0.9340 0.9340 0.9340 0.9340
3551.000000 0.9340 0.9340 0.9340 0.9340 0.9340
3556.000000 0.9340 0.9339 0.9339 0.9339 0.9339
3561.000000 0.9339 0.9338 0.9338 0.9338 0.9338
3566.000000 0.9338 0.9337 0.9337 0.9337 0.9337
3571.000000 0.9337 0.9336 0.9336 0.9336 0.9336
3576.000000 0.9336 0.9335 0.9335 0.9335 0.9335
3581.000000 0.9335 0.9334 0.9334 0.9334 0.9334
3586.000000 0.9334 0.9351 0.9333 0.9333 0.9333
3591.000000 0.9333 0.9332 0.9332 0.9332 0.9332
3596.000000 0.9332 0.9332 0.9331 0.9331 0.9331
3601.000000 0.9331 0.9331 0.9330 0.9330 0.9329
3606.000000 0.9329 0.9329 0.9328 0.9328 0.9328
3611.000000 0.9328 0.9328 0.9327 0.9327 0.9327
3616.000000 0.9327 0.9327 0.9326 0.9326 0.9326
3621.000000 0.9326 0.9326 0.9326 0.9325 0.9325
3626.000000 0.9325 0.9325 0.9325 0.9324 0.9324
3631.000000 0.9324 0.9323 0.9323 0.9322 0.9322
3636.000000 0.9321 0.9321 0.9320 0.9320 0.9319
3641.000000 0.9318 0.9318 0.9317 0.9317 0.9316
3646.000000 0.9316 0.9315 0.9314 0.9314 0.9313
3651.000000 0.9312 0.9312 0.9311 0.9310 0.9309
3656.000000 0.9309 0.9308 0.9308 0.9307 0.9307
3661.000000 0.9306 0.9306 0.9305 0.9304 0.9304
3666.000000 0.9303 0.9303 0.9302 0.9302 0.9301
3671.000000 0.9301 0.9301 0.9301 0.9301 0.9301
3676.000000 0.9301 0.9301 0.9301 0.9301 0.9301
3681.000000 0.9301 0.9301 0.9301 0.9301 0.9301
3686.000000 0.9301 0.9301 0.9301 0.9301 0.9301
3691.000000 0.9301 0.9301 0.9301 0.9301 0.9301
3696.000000 0.9301 0.9301 0.9301 0.9300 0.9300
3701.000000 0.9300 0.9300 0.9300 0.9300 0.9300
3706.000000 0.9300 0.9300 0.9300 0.9300 0.9300
3711.000000 0.9300 0.9300 0.9300 0.9300 0.9300
3716.000000 0.9300 0.9300 0.9300 0.9300 0.9300
3721.000000 0.9300 0.9300 0.9300 0.9300 0.9300
3726.000000 0.9300 0.9300 0.9300 0.9300 0.9300
3731.000000 0.9300 0.9300 0.9300 0.9300 0.9300
3736.000000 0.9300 0.9300 0.9300 0.9300 0.9300
3741.000000 0.9300 0.9300 0.9300 0.9300 0.9300
3746.000000 0.9300 0.9300 0.9300 0.9300 0.9300
3751.000000 0.9300 0.9300 0.9300 0.9300 0.9300
3756.000000 0.9300 0.9300 0.9300 0.9300 0.9300
3761.000000 0.9300 0.9300 0.9300 0.9300 0.9300
3766.000000 0.9300 0.9300 0.9300 0.9300 0.9300
3771.000000 0.9300 0.9300 0.9300 0.9300 0.9300
3776.000000 0.9300 0.9300 0.9300 0.9300 0.9300
3781.000000 0.9300 0.9300 0.9300 0.9300 0.9300
3786.000000 0.9300 0.9300 0.9300 0.9300 0.9300
3791.000000 0.9300 0.9300 0.9300 0.9300 0.9300
3796.000000 0.9300 0.9300 0.9300 0.9300 0.9299
3801.000000 0.9298 0.9297 0.9296 0.9296 0.9295
3806.000000 0.9294 0.9293 0.9293 0.9292 0.9291
3811.000000 0.9290 0.9290 0.9289 0.9288 0.9288
3816.000000 0.9287 0.9286 0.9286 0.9285 0.9284
3821.000000 0.9284 0.9283 0.9282 0.9281 0.9280
3826.000000 0.9280 0.9279 0.9278 0.9277 0.9276
3831.000000 0.9276 0.9275 0.9274 0.9274 0.9273
3836.000000 0.9272 0.9272 0.9271 0.9270 0.9270
3841.000000 0.9269 0.9268 0.9268 0.9267 0.9266
3846.000000 0.9266 0.9265 0.9263 0.9262 0.9261
3851.000000 0.9260 0.9259 0.9256 0.9253 0.9251
3856.000000 0.9248 0.9245 0.9243 0.9240 0.9238
3861.000000 0.9235 0.9232 0.9230 0.9227 0.9226
3866.000000 0.9225 0.9224 0.9223 0.9222 0.9221
3871.000000 0.9220 0.9219 0.9218 0.9217 0.9216
3876.000000 0.9214 0.9213 0.9212 0.9211 0.9210
3881.000000 0.9209 0.9208 0.9207 0.9206 0.9205
3886.000000 0.9204 0.9203 0.9202 0.9201 0.9200
3891.000000 0.9200 0.9199 0.9198 0.9198 0.9197
3896.000000 0.9197 0.9197 0.9197 0.9197 0.9197
3901.000000 0.9196 0.9196 0.9196 0.9196 0.9196
3906.000000 0.9196 0.9196 0.9196 0.9196 0.9196
3911.000000 0.9196 0.9196 0.9195 0.9195 0.9195
3916.000000 0.9195 0.9195 0.9195 0.9194 0.9194
3921.000000 0.9194 0.9194 0.9194 0.9194 0.9193
3926.000000 0.9193 0.9193 0.9193 0.9193 0.9193
3931.000000 0.9192 0.9192 0.9192 0.9191 0.9191
3936.000000 0.9191 0.9191 0.9190 0.9190 0.9190
3941.000000 0.9190 0.9190 0.9190 0.9189 0.9189
3946.000000 0.9189 0.9189 0.9189 0.9189 0.9188
3951.000000 0.9188 0.9188 0.9188 0.9188 0.9188
3956.000000 0.9187 0.9187 0.9187 0.9187 0.9187
3961.000000 0.9187 0.9186 0.9186 0.9186 0.9186
3966.000000 0.9185 0.9185 0.9185 0.9184 0.9184
3971.000000 0.9183 0.9183 0.9182 0.9182 0.9181
3976.000000 0.9181 0.9180 0.9180 0.9179 0.9179
3981.000000 0.9178 0.9178 0.9177 0.9177 0.9176
3986.000000 0.9175 0.9175 0.9174 0.9174 0.9173
3991.000000 0.9173 0.9172 0.9172 0.9171 0.9171
3996.000000 0.9170 0.9170 0.9169 0.9169 0.9169
##END=
