##TITLE=TETRADECANE, 1-BROMO-
##JCAMP-DX=4.24
##DATA TYPE=INFRARED SPECTRUM
##CLASS=COBLENTZ III
##ORIGIN=DOW CHEMICAL COMPANY
##OWNER=COBLENTZ SOCIETY
Collection (C) 2018 copyright by the U.S. Secretary of Commerce
on behalf of the United States of America. All rights reserved.
##DATE=1963/02/26
##NAMES=1-bromotetradecane
##CAS REGISTRY NO=112-71-0
##MOLFORM=C14 H29 Br
##SOURCE REFERENCE=COBLENTZ NO. 10010
##$NIST SOURCE=COBLENTZ
##$NIST IMAGE=cob10010
##SPECTROMETER/DATA SYSTEM=DOW KBr FOREPRISM-GRATING
##INSTRUMENT PARAMETERS=BLAZED AT 3.5, 12.0, 20.0 MICRON, CHANGED AT 5.0, 7.5, 14.9 MICRON
##STATE=SOLUTION (10% IN CCl4 FOR 3800-1333, AND 10% IN CS2 FOR 1333-450 CM^-^1)
##PATH LENGTH=0.011, 0.010 CM
$$SPECTRAL CONTAMINATION DUE TO CCl4 AROUND 1550, AND CS2 AROUND 855 CM^-^1
##SAMPLING PROCEDURE=TRANSMISSION
##RESOLUTION=4
##DATA PROCESSING=DIGITIZED BY NIST FROM HARD COPY (FROM TWO SEGMENTS)
##XUNITS=1/CM
##YUNITS=TRANSMITTANCE
##XFACTOR=1.000000
##YFACTOR=1
##DELTAX=0.869094
##FIRSTX=450.407
##LASTX=3799.9
##FIRSTY=1.008
##MAXX=3799.9
##MINX=450.407
##MAXY=1.025
##MINY=0.01
##NPOINTS=3855
##XYDATA=(X++(Y..Y))
450.407000 1.0080 1.0080 1.0080 1.0090 1.0080
454.752470 1.0080 1.0080 1.0080 1.0080 1.0080
459.097941 1.0080 1.0060 1.0060 1.0060 1.0060
463.443411 1.0060 1.0050 1.0050 1.0050 1.0050
467.788882 1.0050 1.0050 1.0050 1.0050 1.0060
472.134352 1.0060 1.0060 1.0060 1.0060 1.0060
476.479822 1.0080 1.0080 1.0080 1.0080 1.0080
480.825293 1.0090 1.0090 1.0090 1.0090 1.0090
485.170763 1.0090 1.0090 1.0090 1.0090 1.0090
489.516234 1.0090 1.0100 1.0100 1.0090 1.0090
493.861704 1.0090 1.0090 1.0100 1.0100 1.0120
498.207174 1.0120 1.0130 1.0130 1.0140 1.0140
502.552645 1.0140 1.0140 1.0140 1.0140 1.0140
506.898115 1.0140 1.0140 1.0140 1.0140 1.0130
511.243585 1.0120 1.0100 1.0120 1.0130 1.0160
515.589056 1.0160 1.0170 1.0170 1.0160 1.0160
519.934526 1.0140 1.0130 1.0130 1.0120 1.0120
524.279997 1.0120 1.0120 1.0120 1.0120 1.0120
528.625467 1.0120 1.0100 1.0120 1.0100 1.0100
532.970937 1.0090 1.0090 1.0090 1.0090 1.0080
537.316408 1.0080 1.0080 1.0080 1.0060 1.0060
541.661878 1.0060 1.0060 1.0050 1.0050 1.0050
546.007349 1.0050 1.0050 1.0040 1.0040 1.0020
550.352819 1.0020 1.0010 1.0010 1.0000 0.9940
554.698289 0.9910 0.9890 0.9820 0.9780 0.9720
559.043760 0.9650 0.9590 0.9411 0.9291 0.8992
563.389230 0.8840 0.8700 0.8620 0.8610 0.8630
567.734701 0.8660 0.8839 0.8950 0.9119 0.9299
572.080171 0.9440 0.9570 0.9630 0.9680 0.9760
576.425641 0.9860 0.9910 1.0040 1.0060 1.0100
580.771112 1.0160 1.0170 1.0190 1.0200 1.0200
585.116582 1.0200 1.0200 1.0200 1.0200 1.0210
589.462053 1.0210 1.0230 1.0230 1.0240 1.0240
593.807523 1.0240 1.0250 1.0250 1.0240 1.0240
598.152993 1.0240 1.0240 1.0230 1.0210 1.0200
602.498464 1.0200 1.0170 1.0170 1.0160 1.0140
606.843934 1.0140 1.0130 1.0120 1.0120 1.0120
611.189405 1.0100 1.0120 1.0100 1.0100 1.0100
615.534875 1.0100 1.0100 1.0090 1.0090 1.0090
619.880345 1.0090 1.0080 1.0060 1.0060 1.0050
624.225816 1.0040 1.0020 1.0010 1.0010 1.0010
628.571286 1.0000 0.9970 0.9950 0.9900 0.9860
632.916756 0.9800 0.9760 0.9720 0.9650 0.9630
637.262227 0.9560 0.9440 0.9330 0.9250 0.9071
641.607697 0.8850 0.8650 0.8560 0.8440 0.8250
645.953168 0.8210 0.8170 0.8160 0.8160 0.8240
650.298638 0.8400 0.8510 0.8660 0.8880 0.8960
654.644108 0.9070 0.9120 0.9259 0.9399 0.9420
658.989579 0.9490 0.9530 0.9550 0.9560 0.9560
663.335049 0.9570 0.9590 0.9590 0.9600 0.9600
667.680520 0.9600 0.9600 0.9600 0.9610 0.9610
672.025990 0.9610 0.9630 0.9630 0.9630 0.9640
676.371460 0.9640 0.9640 0.9650 0.9650 0.9650
680.716931 0.9670 0.9670 0.9670 0.9670 0.9670
685.062401 0.9670 0.9670 0.9670 0.9650 0.9650
689.407872 0.9640 0.9630 0.9610 0.9610 0.9610
693.753342 0.9600 0.9600 0.9570 0.9570 0.9560
698.098812 0.9560 0.9560 0.9530 0.9500 0.9450
702.444283 0.9400 0.9380 0.9350 0.9340 0.9310
706.789753 0.9250 0.9150 0.9100 0.9010 0.8930
711.135224 0.8850 0.8730 0.8620 0.8550 0.8430
715.480694 0.8320 0.8200 0.8070 0.7941 0.7761
719.826164 0.7530 0.7340 0.7220 0.7170 0.7200
724.171635 0.7270 0.7449 0.7599 0.7769 0.7939
728.517105 0.8030 0.8110 0.8210 0.8320 0.8410
732.862575 0.8500 0.8550 0.8580 0.8690 0.8740
737.208046 0.8800 0.8810 0.8850 0.8890 0.8920
741.553516 0.8930 0.8950 0.8990 0.9010 0.9040
745.898987 0.9080 0.9120 0.9120 0.9140 0.9150
750.244457 0.9150 0.9160 0.9180 0.9190 0.9190
754.589927 0.9230 0.9260 0.9290 0.9290 0.9300
758.935398 0.9330 0.9330 0.9340 0.9350 0.9370
763.280868 0.9380 0.9380 0.9400 0.9400 0.9400
767.626339 0.9410 0.9440 0.9450 0.9450 0.9460
771.971809 0.9480 0.9490 0.9490 0.9490 0.9490
776.317279 0.9500 0.9500 0.9490 0.9490 0.9490
780.662750 0.9490 0.9490 0.9490 0.9490 0.9500
785.008220 0.9500 0.9500 0.9500 0.9500 0.9500
789.353691 0.9500 0.9490 0.9490 0.9490 0.9490
793.699161 0.9490 0.9490 0.9500 0.9500 0.9490
798.044631 0.9490 0.9490 0.9490 0.9490 0.9490
802.390102 0.9500 0.9500 0.9520 0.9530 0.9550
806.735572 0.9550 0.9550 0.9550 0.9550 0.9550
811.081043 0.9560 0.9570 0.9570 0.9570 0.9600
815.426513 0.9600 0.9610 0.9610 0.9610 0.9610
819.771983 0.9610 0.9630 0.9630 0.9610 0.9600
824.117454 0.9600 0.9600 0.9570 0.9570 0.9560
828.462924 0.9560 0.9550 0.9530 0.9520 0.9500
832.808394 0.9460 0.9440 0.9420 0.9410 0.9400
837.153865 0.9370 0.9350 0.9330 0.9300 0.9250
841.499335 0.9180 0.9140 0.9030 0.8960 0.8910
845.844806 0.8770 0.8710 0.8650 0.8540 0.8500
850.190276 0.8390 0.8310 0.8240 0.8180 0.8170
854.535746 0.8140 0.8130 0.8130 0.8130 0.8140
858.881217 0.8140 0.8160 0.8160 0.8180 0.8220
863.226687 0.8240 0.8260 0.8320 0.8350 0.8400
867.572158 0.8400 0.8410 0.8460 0.8500 0.8520
871.917628 0.8580 0.8620 0.8620 0.8630 0.8650
876.263098 0.8710 0.8740 0.8800 0.8820 0.8850
880.608569 0.8890 0.8930 0.8970 0.9000 0.9010
884.954039 0.9040 0.9120 0.9140 0.9160 0.9200
889.299510 0.9220 0.9230 0.9260 0.9330 0.9350
893.644980 0.9350 0.9410 0.9450 0.9480 0.9500
897.990450 0.9500 0.9520 0.9520 0.9560 0.9570
902.335921 0.9590 0.9590 0.9600 0.9610 0.9630
906.681391 0.9630 0.9630 0.9650 0.9650 0.9670
911.026862 0.9670 0.9680 0.9680 0.9700 0.9700
915.372332 0.9710 0.9710 0.9710 0.9720 0.9720
919.717802 0.9720 0.9720 0.9740 0.9760 0.9760
924.063273 0.9780 0.9780 0.9760 0.9780 0.9780
928.408743 0.9780 0.9780 0.9790 0.9790 0.9800
932.754214 0.9800 0.9800 0.9800 0.9800 0.9820
937.099684 0.9820 0.9830 0.9830 0.9830 0.9830
941.445154 0.9820 0.9820 0.9820 0.9820 0.9820
945.790625 0.9800 0.9800 0.9790 0.9790 0.9790
950.136095 0.9780 0.9780 0.9780 0.9780 0.9780
954.481565 0.9760 0.9750 0.9750 0.9750 0.9750
958.827036 0.9750 0.9750 0.9750 0.9740 0.9720
963.172506 0.9710 0.9710 0.9710 0.9710 0.9710
967.517977 0.9720 0.9720 0.9720 0.9720 0.9720
971.863447 0.9740 0.9740 0.9740 0.9750 0.9780
976.208917 0.9780 0.9790 0.9790 0.9790 0.9800
980.554388 0.9800 0.9820 0.9830 0.9830 0.9830
984.899858 0.9830 0.9820 0.9820 0.9820 0.9820
989.245329 0.9820 0.9820 0.9820 0.9830 0.9830
993.590799 0.9830 0.9830 0.9820 0.9820 0.9820
997.936269 0.9820 0.9800 0.9800 0.9800 0.9790
1002.281740 0.9800 0.9800 0.9790 0.9790 0.9790
1006.627210 0.9790 0.9790 0.9780 0.9780 0.9780
1010.972681 0.9780 0.9780 0.9780 0.9760 0.9750
1015.318151 0.9750 0.9720 0.9720 0.9720 0.9720
1019.663621 0.9720 0.9720 0.9710 0.9700 0.9680
1024.009092 0.9680 0.9680 0.9680 0.9680 0.9670
1028.354562 0.9670 0.9670 0.9670 0.9650 0.9650
1032.700033 0.9630 0.9610 0.9610 0.9610 0.9600
1037.045503 0.9600 0.9600 0.9600 0.9600 0.9600
1041.390973 0.9570 0.9570 0.9570 0.9570 0.9570
1045.736444 0.9570 0.9570 0.9560 0.9560 0.9560
1050.081914 0.9560 0.9560 0.9560 0.9560 0.9560
1054.427384 0.9570 0.9570 0.9570 0.9570 0.9570
1058.772855 0.9570 0.9570 0.9570 0.9560 0.9560
1063.118325 0.9560 0.9560 0.9560 0.9560 0.9570
1067.463796 0.9590 0.9590 0.9590 0.9590 0.9560
1071.809266 0.9560 0.9530 0.9520 0.9500 0.9500
1076.154736 0.9500 0.9500 0.9500 0.9500 0.9500
1080.500207 0.9520 0.9550 0.9570 0.9570 0.9590
1084.845677 0.9590 0.9590 0.9590 0.9590 0.9600
1089.191148 0.9610 0.9630 0.9650 0.9670 0.9680
1093.536618 0.9680 0.9680 0.9700 0.9710 0.9710
1097.882088 0.9710 0.9710 0.9710 0.9710 0.9760
1102.227559 0.9760 0.9780 0.9780 0.9780 0.9760
1106.573029 0.9780 0.9790 0.9790 0.9800 0.9800
1110.918500 0.9800 0.9820 0.9820 0.9820 0.9830
1115.263970 0.9830 0.9820 0.9800 0.9800 0.9800
1119.609440 0.9790 0.9790 0.9790 0.9780 0.9780
1123.954911 0.9780 0.9780 0.9760 0.9760 0.9780
1128.300381 0.9780 0.9780 0.9790 0.9790 0.9800
1132.645852 0.9820 0.9800 0.9790 0.9780 0.9780
1136.991322 0.9750 0.9750 0.9740 0.9720 0.9680
1141.336792 0.9680 0.9670 0.9650 0.9650 0.9650
1145.682263 0.9650 0.9650 0.9650 0.9670 0.9670
1150.027733 0.9670 0.9680 0.9700 0.9710 0.9720
1154.373204 0.9720 0.9720 0.9720 0.9720 0.9720
1158.718674 0.9720 0.9720 0.9720 0.9720 0.9720
1163.064144 0.9720 0.9720 0.9710 0.9710 0.9700
1167.409615 0.9700 0.9700 0.9700 0.9700 0.9700
1171.755085 0.9680 0.9680 0.9670 0.9650 0.9640
1176.100555 0.9630 0.9600 0.9570 0.9560 0.9530
1180.446026 0.9530 0.9490 0.9460 0.9460 0.9520
1184.791496 0.9550 0.9550 0.9520 0.9500 0.9490
1189.136967 0.9460 0.9450 0.9400 0.9350 0.9330
1193.482437 0.9330 0.9270 0.9220 0.9190 0.9160
1197.827907 0.9120 0.9110 0.9040 0.9000 0.8960
1202.173378 0.8920 0.8920 0.8850 0.8840 0.8810
1206.518848 0.8810 0.8800 0.8800 0.8800 0.8780
1210.864319 0.8770 0.8740 0.8730 0.8710 0.8700
1215.209789 0.8700 0.8650 0.8590 0.8520 0.8500
1219.555259 0.8440 0.8430 0.8410 0.8400 0.8400
1223.900730 0.8400 0.8400 0.8400 0.8400 0.8390
1228.246200 0.8370 0.8370 0.8370 0.8360 0.8350
1232.591671 0.8350 0.8350 0.8350 0.8330 0.8320
1236.937141 0.8320 0.8240 0.8200 0.8140 0.8060
1241.282611 0.7970 0.7910 0.7790 0.7750 0.7670
1245.628082 0.7640 0.7620 0.7610 0.7600 0.7600
1249.973552 0.7580 0.7570 0.7570 0.7570 0.7580
1254.319023 0.7610 0.7640 0.7670 0.7680 0.7690
1258.664493 0.7720 0.7750 0.7770 0.7770 0.7770
1263.009963 0.7760 0.7760 0.7770 0.7820 0.7830
1267.355434 0.7860 0.7950 0.7970 0.8020 0.8060
1271.700904 0.8100 0.8130 0.8140 0.8160 0.8160
1276.046374 0.8170 0.8180 0.8210 0.8210 0.8200
1280.391845 0.8200 0.8200 0.8200 0.8200 0.8210
1284.737315 0.8210 0.8210 0.8220 0.8220 0.8240
1289.082786 0.8250 0.8250 0.8250 0.8240 0.8220
1293.428256 0.8220 0.8210 0.8200 0.8200 0.8200
1297.773726 0.8200 0.8200 0.8200 0.8180 0.8180
1302.119197 0.8180 0.8210 0.8210 0.8250 0.8260
1306.464667 0.8310 0.8320 0.8350 0.8390 0.8440
1310.810138 0.8500 0.8540 0.8560 0.8590 0.8630
1315.155608 0.8660 0.8710 0.8740 0.8770 0.8810
1319.501078 0.8840 0.8910 0.8920 0.8950 0.8970
1323.846549 0.8970 0.8990 0.8990 0.9000 0.9000
1328.192019 0.8990 0.8970 0.8970 0.8950 0.8920
1332.537490 0.8920 0.8910 0.8910 0.8890 0.8880
1336.882960 0.8800 0.8780 0.8770 0.8740 0.8730
1341.228430 0.8710 0.8710 0.8710 0.8700 0.8700
1345.573901 0.8690 0.8670 0.8650 0.8630 0.8610
1349.919371 0.8580 0.8540 0.8460 0.8430 0.8400
1354.264842 0.8370 0.8360 0.8350 0.8350 0.8370
1358.610312 0.8370 0.8360 0.8350 0.8320 0.8320
1362.955782 0.8280 0.8250 0.8220 0.8200 0.8160
1367.301253 0.8130 0.8060 0.8050 0.8030 0.8020
1371.646723 0.8010 0.8010 0.7980 0.7980 0.7970
1375.992193 0.7830 0.7760 0.7710 0.7650 0.7491
1380.337664 0.7310 0.7490 0.7650 0.7920 0.8170
1384.683134 0.8519 0.8670 0.8730 0.8780 0.8820
1389.028605 0.8860 0.8880 0.8920 0.8930 0.8960
1393.374075 0.8970 0.8990 0.9010 0.9030 0.9030
1397.719545 0.9040 0.9050 0.9070 0.9070 0.9070
1402.065016 0.9070 0.9070 0.9070 0.9070 0.9070
1406.410486 0.9070 0.9070 0.9050 0.9050 0.9050
1410.755957 0.9050 0.9040 0.9040 0.9040 0.9030
1415.101427 0.9030 0.9010 0.9000 0.9000 0.8990
1419.446897 0.8970 0.8960 0.8930 0.8910 0.8820
1423.792368 0.8760 0.8730 0.8630 0.8540 0.8510
1428.137838 0.8360 0.8160 0.7751 0.7371 0.7340
1432.483309 0.7350 0.7370 0.7370 0.7350 0.7270
1436.828779 0.7110 0.6791 0.6521 0.6430 0.6430
1441.174249 0.6520 0.6600 0.6630 0.6630 0.6640
1445.519720 0.6630 0.6630 0.6620 0.6560 0.6480
1449.865190 0.6440 0.6360 0.5980 0.5690 0.5620
1454.210661 0.5360 0.5041 0.4821 0.4481 0.4341
1458.556131 0.4260 0.4260 0.4220 0.4110 0.4010
1462.901601 0.3960 0.3880 0.3800 0.3631 0.3431
1467.247072 0.3360 0.3320 0.3360 0.3460 0.3710
1471.592542 0.4189 0.5198 0.6776 0.7089 0.7449
1475.938013 0.7830 0.7990 0.8140 0.8220 0.8320
1480.283483 0.8390 0.8460 0.8480 0.8500 0.8500
1484.628953 0.8480 0.8480 0.8480 0.8470 0.8470
1488.974424 0.8470 0.8470 0.8460 0.8430 0.8410
1493.319894 0.8390 0.8370 0.8350 0.8320 0.8320
1497.665364 0.8280 0.8240 0.8240 0.8210 0.8170
1502.010835 0.8130 0.8060 0.8020 0.7970 0.7950
1506.356305 0.7940 0.7860 0.7800 0.7770 0.7760
1510.701776 0.7690 0.7610 0.7530 0.7500 0.7450
1515.047246 0.7420 0.7410 0.7340 0.7320 0.7310
1519.392716 0.7270 0.7240 0.7160 0.7090 0.7070
1523.738187 0.7010 0.6970 0.6930 0.6880 0.6830
1528.083657 0.6810 0.6770 0.6750 0.6700 0.6620
1532.429128 0.6480 0.6430 0.6330 0.6230 0.6150
1536.774598 0.6040 0.5960 0.5890 0.5790 0.5660
1541.120068 0.5540 0.5460 0.5340 0.5250 0.5200
1545.465539 0.5120 0.5050 0.5010 0.5000 0.4970
1549.811009 0.4970 0.4950 0.4950 0.4950 0.4970
1554.156480 0.5000 0.5040 0.5120 0.5140 0.5190
1558.501950 0.5240 0.5320 0.5460 0.5540 0.5640
1562.847420 0.5730 0.5760 0.5880 0.5950 0.6100
1567.192891 0.6280 0.6400 0.6470 0.6530 0.6580
1571.538361 0.6630 0.6700 0.6740 0.6770 0.6790
1575.883832 0.6810 0.6830 0.6850 0.6860 0.6860
1580.229302 0.6860 0.6880 0.6900 0.6930 0.6960
1584.574772 0.7020 0.7080 0.7080 0.7110 0.7130
1588.920243 0.7190 0.7230 0.7270 0.7340 0.7430
1593.265713 0.7530 0.7620 0.7680 0.7800 0.7880
1597.611183 0.7950 0.8020 0.8070 0.8180 0.8310
1601.956654 0.8400 0.8480 0.8580 0.8630 0.8670
1606.302124 0.8710 0.8760 0.8820 0.8920 0.8950
1610.647595 0.9000 0.9050 0.9100 0.9140 0.9150
1614.993065 0.9190 0.9220 0.9250 0.9300 0.9340
1619.338535 0.9340 0.9370 0.9370 0.9380 0.9410
1623.684006 0.9440 0.9450 0.9460 0.9480 0.9480
1628.029476 0.9480 0.9490 0.9490 0.9490 0.9520
1632.374947 0.9550 0.9560 0.9560 0.9560 0.9560
1636.720417 0.9560 0.9560 0.9560 0.9560 0.9570
1641.065887 0.9570 0.9590 0.9590 0.9590 0.9590
1645.411358 0.9590 0.9590 0.9600 0.9600 0.9600
1649.756828 0.9600 0.9600 0.9590 0.9600 0.9610
1654.102299 0.9630 0.9630 0.9630 0.9630 0.9630
1658.447769 0.9630 0.9630 0.9630 0.9630 0.9630
1662.793239 0.9640 0.9640 0.9640 0.9640 0.9640
1667.138710 0.9640 0.9640 0.9640 0.9640 0.9640
1671.484180 0.9640 0.9640 0.9640 0.9640 0.9640
1675.829651 0.9640 0.9640 0.9640 0.9640 0.9640
1680.175121 0.9640 0.9640 0.9640 0.9650 0.9650
1684.520591 0.9650 0.9670 0.9670 0.9650 0.9650
1688.866062 0.9650 0.9650 0.9640 0.9640 0.9640
1693.211532 0.9650 0.9650 0.9650 0.9670 0.9670
1697.557003 0.9670 0.9650 0.9650 0.9650 0.9650
1701.902473 0.9650 0.9650 0.9650 0.9650 0.9650
1706.247943 0.9650 0.9640 0.9640 0.9640 0.9640
1710.593414 0.9640 0.9640 0.9650 0.9650 0.9670
1714.938884 0.9670 0.9670 0.9670 0.9670 0.9670
1719.284354 0.9670 0.9670 0.9670 0.9670 0.9670
1723.629825 0.9670 0.9670 0.9670 0.9670 0.9670
1727.975295 0.9670 0.9650 0.9650 0.9650 0.9670
1732.320766 0.9670 0.9670 0.9670 0.9670 0.9670
1736.666236 0.9670 0.9670 0.9670 0.9670 0.9670
1741.011706 0.9670 0.9670 0.9670 0.9670 0.9680
1745.357177 0.9680 0.9680 0.9680 0.9680 0.9680
1749.702647 0.9680 0.9680 0.9680 0.9680 0.9680
1754.048118 0.9680 0.9680 0.9680 0.9680 0.9680
1758.393588 0.9680 0.9670 0.9670 0.9670 0.9670
1762.739058 0.9670 0.9680 0.9670 0.9670 0.9670
1767.084529 0.9670 0.9670 0.9670 0.9670 0.9670
1771.429999 0.9680 0.9680 0.9680 0.9680 0.9680
1775.775470 0.9680 0.9680 0.9680 0.9680 0.9670
1780.120940 0.9670 0.9650 0.9650 0.9670 0.9670
1784.466410 0.9670 0.9670 0.9670 0.9670 0.9670
1788.811881 0.9670 0.9670 0.9670 0.9670 0.9670
1793.157351 0.9670 0.9670 0.9670 0.9670 0.9670
1797.502822 0.9670 0.9670 0.9650 0.9650 0.9650
1801.848292 0.9650 0.9640 0.9640 0.9640 0.9640
1806.193762 0.9640 0.9640 0.9640 0.9640 0.9640
1810.539233 0.9640 0.9640 0.9640 0.9640 0.9640
1814.884703 0.9640 0.9640 0.9640 0.9640 0.9640
1819.230173 0.9640 0.9640 0.9640 0.9640 0.9640
1823.575644 0.9640 0.9640 0.9640 0.9640 0.9640
1827.921114 0.9640 0.9640 0.9640 0.9630 0.9630
1832.266585 0.9630 0.9630 0.9630 0.9630 0.9640
1836.612055 0.9640 0.9640 0.9640 0.9640 0.9640
1840.957525 0.9640 0.9630 0.9630 0.9630 0.9610
1845.302996 0.9610 0.9610 0.9610 0.9610 0.9610
1849.648466 0.9610 0.9600 0.9600 0.9600 0.9600
1853.993937 0.9600 0.9600 0.9600 0.9610 0.9610
1858.339407 0.9610 0.9610 0.9610 0.9600 0.9600
1862.684877 0.9610 0.9610 0.9610 0.9610 0.9610
1867.030348 0.9610 0.9610 0.9630 0.9640 0.9640
1871.375818 0.9640 0.9640 0.9640 0.9650 0.9650
1875.721289 0.9650 0.9650 0.9650 0.9650 0.9650
1880.066759 0.9650 0.9650 0.9650 0.9650 0.9650
1884.412229 0.9670 0.9670 0.9670 0.9670 0.9670
1888.757700 0.9670 0.9670 0.9650 0.9650 0.9670
1893.103170 0.9650 0.9650 0.9650 0.9650 0.9650
1897.448641 0.9650 0.9650 0.9650 0.9650 0.9670
1901.794111 0.9670 0.9670 0.9670 0.9680 0.9680
1906.139581 0.9680 0.9680 0.9670 0.9670 0.9670
1910.485052 0.9670 0.9670 0.9680 0.9680 0.9680
1914.830522 0.9680 0.9680 0.9680 0.9680 0.9680
1919.175992 0.9680 0.9680 0.9680 0.9680 0.9680
1923.521463 0.9680 0.9680 0.9680 0.9680 0.9680
1927.866933 0.9680 0.9670 0.9700 0.9700 0.9700
1932.212404 0.9700 0.9700 0.9700 0.9700 0.9700
1936.557874 0.9700 0.9680 0.9680 0.9670 0.9670
1940.903344 0.9680 0.9700 0.9710 0.9710 0.9710
1945.248815 0.9710 0.9700 0.9700 0.9700 0.9710
1949.594285 0.9710 0.9700 0.9700 0.9700 0.9700
1953.939756 0.9700 0.9700 0.9700 0.9700 0.9700
1958.285226 0.9720 0.9800 0.9910 0.9910 0.9750
1962.630696 0.9670 0.9670 0.9670 0.9670 0.9670
1966.976167 0.9670 0.9670 0.9670 0.9670 0.9670
1971.321637 0.9670 0.9670 0.9670 0.9670 0.9670
1975.667108 0.9680 0.9680 0.9680 0.9700 0.9700
1980.012578 0.9710 0.9710 0.9710 0.9710 0.9710
1984.358048 0.9710 0.9710 0.9710 0.9700 0.9700
1988.703519 0.9700 0.9710 0.9710 0.9720 0.9720
1993.048989 0.9720 0.9860 0.9860 0.9800 0.9800
1997.394460 0.9789 0.9141 0.9640 0.9700 0.9720
2001.739930 0.9740 0.9760 0.9780 0.9780 0.9780
2006.085400 0.9780 0.9780 0.9780 0.9780 0.9780
2010.430871 0.9780 0.9780 0.9780 0.9780 0.9780
2014.776341 0.9785 0.9790 0.9790 0.9790 0.9790
2019.121812 0.9790 0.9790 0.9790 0.9795 0.9800
2023.467282 0.9800 0.9800 0.9800 0.9800 0.9800
2027.812752 0.9800 0.9800 0.9800 0.9800 0.9800
2032.158223 0.9795 0.9790 0.9790 0.9790 0.9790
2036.503693 0.9790 0.9790 0.9790 0.9785 0.9780
2040.849163 0.9780 0.9780 0.9785 0.9790 0.9790
2045.194634 0.9790 0.9790 0.9790 0.9790 0.9790
2049.540104 0.9790 0.9790 0.9785 0.9780 0.9780
2053.885575 0.9780 0.9780 0.9780 0.9780 0.9780
2058.231045 0.9780 0.9780 0.9780 0.9780 0.9784
2062.576515 0.9789 0.9790 0.9790 0.9790 0.9790
2066.921986 0.9773 0.9753 0.9750 0.9750 0.9772
2071.267456 0.9797 0.9822 0.9847 0.9850 0.9850
2075.612927 0.9854 0.9859 0.9860 0.9860 0.9860
2079.958397 0.9860 0.9860 0.9860 0.9856 0.9851
2084.303867 0.9850 0.9850 0.9854 0.9859 0.9860
2088.649338 0.9860 0.9860 0.9860 0.9860 0.9860
2092.994808 0.9856 0.9851 0.9850 0.9850 0.9850
2097.340279 0.9850 0.9850 0.9850 0.9850 0.9850
2101.685749 0.9830 0.9805 0.9800 0.9800 0.9820
2106.031219 0.9845 0.9850 0.9850 0.9850 0.9850
2110.376690 0.9850 0.9850 0.9850 0.9850 0.9850
2114.722160 0.9850 0.9850 0.9850 0.9850 0.9850
2119.067631 0.9850 0.9850 0.9850 0.9850 0.9850
2123.413101 0.9850 0.9850 0.9850 0.9850 0.9850
2127.758571 0.9850 0.9850 0.9850 0.9850 0.9850
2132.104042 0.9850 0.9842 0.9832 0.9838 0.9848
2136.449512 0.9850 0.9850 0.9850 0.9850 0.9850
2140.794982 0.9850 0.9850 0.9850 0.9843 0.9833
2145.140453 0.9830 0.9830 0.9826 0.9821 0.9820
2149.485923 0.9820 0.9820 0.9820 0.9813 0.9803
2153.831394 0.9800 0.9800 0.9800 0.9800 0.9800
2158.176864 0.9800 0.9800 0.9800 0.9800 0.9800
2162.522334 0.9800 0.9800 0.9800 0.9800 0.9800
2166.867805 0.9800 0.9800 0.9800 0.9800 0.9800
2171.213275 0.9800 0.9800 0.9800 0.9800 0.9800
2175.558746 0.9800 0.9800 0.9800 0.9797 0.9792
2179.904216 0.9790 0.9790 0.9790 0.9790 0.9790
2184.249686 0.9790 0.9790 0.9790 0.9790 0.9790
2188.595157 0.9790 0.9790 0.9790 0.9790 0.9790
2192.940627 0.9790 0.9790 0.9790 0.9790 0.9790
2197.286098 0.9790 0.9790 0.9790 0.9790 0.9790
2201.631568 0.9790 0.9790 0.9790 0.9790 0.9790
2205.977038 0.9790 0.9790 0.9790 0.9790 0.9790
2210.322509 0.9790 0.9790 0.9790 0.9787 0.9782
2214.667979 0.9780 0.9780 0.9780 0.9780 0.9783
2219.013450 0.9788 0.9790 0.9790 0.9790 0.9790
2223.358920 0.9787 0.9782 0.9780 0.9780 0.9780
2227.704390 0.9780 0.9780 0.9780 0.9774 0.9764
2232.049861 0.9757 0.9752 0.9747 0.9742 0.9740
2236.395331 0.9740 0.9740 0.9740 0.9740 0.9740
2240.740802 0.9734 0.9724 0.9720 0.9720 0.9720
2245.086272 0.9720 0.9720 0.9720 0.9720 0.9720
2249.431742 0.9717 0.9712 0.9710 0.9710 0.9707
2253.777213 0.9702 0.9700 0.9700 0.9700 0.9700
2258.122683 0.9695 0.9685 0.9672 0.9657 0.9650
2262.468153 0.9650 0.9647 0.9642 0.9640 0.9640
2266.813624 0.9637 0.9632 0.9630 0.9630 0.9625
2271.159094 0.9615 0.9607 0.9602 0.9600 0.9600
2275.504565 0.9597 0.9592 0.9590 0.9590 0.9590
2279.850035 0.9590 0.9585 0.9575 0.9570 0.9570
2284.195505 0.9570 0.9570 0.9570 0.9570 0.9570
2288.540976 0.9570 0.9575 0.9585 0.9590 0.9590
2292.886446 0.9590 0.9590 0.9590 0.9590 0.9590
2297.231917 0.9590 0.9590 0.9590 0.9592 0.9597
2301.577387 0.9600 0.9600 0.9600 0.9600 0.9602
2305.922857 0.9607 0.9610 0.9610 0.9610 0.9610
2310.268328 0.9614 0.9624 0.9630 0.9630 0.9630
2314.613798 0.9630 0.9625 0.9616 0.9610 0.9610
2318.959269 0.9617 0.9632 0.9642 0.9647 0.9654
2323.304739 0.9664 0.9670 0.9670 0.9664 0.9649
2327.650209 0.9638 0.9633 0.9624 0.9609 0.9600
2331.995680 0.9600 0.9602 0.9607 0.9616 0.9631
2336.341150 0.9669 0.9739 0.9780 0.9780 0.9752
2340.686621 0.9682 0.9640 0.9640 0.9646 0.9661
2345.032091 0.9680 0.9705 0.9720 0.9720 0.9720
2349.377561 0.9720 0.9726 0.9741 0.9758 0.9778
2353.723032 0.9792 0.9797 0.9800 0.9800 0.9800
2358.068502 0.9800 0.9800 0.9800 0.9800 0.9800
2362.413972 0.9800 0.9800 0.9800 0.9800 0.9800
2366.759443 0.9800 0.9798 0.9793 0.9790 0.9790
2371.104913 0.9790 0.9790 0.9788 0.9783 0.9780
2375.450384 0.9780 0.9780 0.9780 0.9780 0.9780
2379.795854 0.9780 0.9780 0.9780 0.9780 0.9780
2384.141324 0.9780 0.9780 0.9780 0.9780 0.9780
2388.486795 0.9780 0.9780 0.9780 0.9780 0.9780
2392.832265 0.9780 0.9780 0.9780 0.9780 0.9780
2397.177736 0.9781 0.9786 0.9789 0.9783 0.9780
2401.523206 0.9780 0.9780 0.9780 0.9780 0.9780
2405.868676 0.9780 0.9780 0.9781 0.9786 0.9790
2410.214147 0.9790 0.9790 0.9790 0.9790 0.9790
2414.559617 0.9790 0.9790 0.9790 0.9790 0.9790
2418.905088 0.9790 0.9790 0.9790 0.9790 0.9790
2423.250558 0.9790 0.9790 0.9790 0.9790 0.9790
2427.596028 0.9790 0.9790 0.9790 0.9790 0.9790
2431.941499 0.9790 0.9790 0.9790 0.9790 0.9790
2436.286969 0.9790 0.9790 0.9790 0.9790 0.9790
2440.632440 0.9791 0.9796 0.9799 0.9794 0.9790
2444.977910 0.9790 0.9790 0.9790 0.9790 0.9790
2449.323380 0.9790 0.9790 0.9790 0.9790 0.9790
2453.668851 0.9790 0.9790 0.9790 0.9790 0.9790
2458.014321 0.9790 0.9790 0.9789 0.9784 0.9780
2462.359791 0.9780 0.9780 0.9780 0.9780 0.9780
2466.705262 0.9780 0.9780 0.9780 0.9780 0.9780
2471.050732 0.9780 0.9778 0.9768 0.9762 0.9772
2475.396203 0.9780 0.9780 0.9780 0.9780 0.9780
2479.741673 0.9780 0.9780 0.9780 0.9778 0.9769
2484.087143 0.9760 0.9760 0.9760 0.9760 0.9759
2488.432614 0.9754 0.9750 0.9750 0.9750 0.9750
2492.778084 0.9750 0.9750 0.9750 0.9750 0.9750
2497.123555 0.9750 0.9750 0.9750 0.9749 0.9744
2501.469025 0.9740 0.9740 0.9740 0.9740 0.9740
2505.814495 0.9740 0.9740 0.9740 0.9739 0.9729
2510.159966 0.9720 0.9720 0.9720 0.9720 0.9720
2514.505436 0.9720 0.9720 0.9720 0.9720 0.9720
2518.850907 0.9720 0.9720 0.9720 0.9720 0.9720
2523.196377 0.9720 0.9720 0.9720 0.9720 0.9720
2527.541847 0.9720 0.9720 0.9720 0.9720 0.9720
2531.887318 0.9715 0.9710 0.9710 0.9710 0.9710
2536.232788 0.9710 0.9710 0.9710 0.9710 0.9710
2540.578259 0.9710 0.9710 0.9710 0.9710 0.9705
2544.923729 0.9700 0.9700 0.9700 0.9705 0.9710
2549.269199 0.9710 0.9710 0.9705 0.9700 0.9700
2553.614670 0.9700 0.9700 0.9700 0.9705 0.9710
2557.960140 0.9705 0.9700 0.9700 0.9700 0.9700
2562.305611 0.9700 0.9685 0.9670 0.9670 0.9670
2566.651081 0.9670 0.9670 0.9670 0.9670 0.9660
2570.996551 0.9650 0.9645 0.9640 0.9640 0.9640
2575.342022 0.9640 0.9640 0.9635 0.9630 0.9630
2579.687492 0.9630 0.9630 0.9630 0.9630 0.9630
2584.032962 0.9630 0.9630 0.9630 0.9630 0.9620
2588.378433 0.9610 0.9610 0.9610 0.9605 0.9600
2592.723903 0.9600 0.9600 0.9595 0.9590 0.9590
2597.069374 0.9590 0.9580 0.9570 0.9570 0.9570
2601.414844 0.9570 0.9570 0.9565 0.9560 0.9560
2605.760314 0.9560 0.9546 0.9531 0.9530 0.9530
2610.105785 0.9530 0.9530 0.9530 0.9530 0.9525
2614.451255 0.9520 0.9520 0.9520 0.9520 0.9520
2618.796726 0.9520 0.9520 0.9520 0.9520 0.9520
2623.142196 0.9520 0.9511 0.9501 0.9495 0.9490
2627.487666 0.9490 0.9490 0.9490 0.9490 0.9485
2631.833137 0.9480 0.9480 0.9480 0.9480 0.9480
2636.178607 0.9480 0.9480 0.9471 0.9461 0.9456
2640.524078 0.9451 0.9446 0.9441 0.9431 0.9421
2644.869548 0.9420 0.9420 0.9416 0.9411 0.9410
2649.215018 0.9410 0.9406 0.9401 0.9391 0.9381
2653.560489 0.9376 0.9371 0.9370 0.9370 0.9370
2657.905959 0.9370 0.9362 0.9352 0.9350 0.9350
2662.251430 0.9346 0.9341 0.9336 0.9331 0.9322
2666.596900 0.9312 0.9306 0.9301 0.9296 0.9291
2670.942370 0.9282 0.9272 0.9270 0.9270 0.9270
2675.287841 0.9270 0.9270 0.9270 0.9270 0.9270
2679.633311 0.9270 0.9270 0.9270 0.9270 0.9282
2683.978781 0.9297 0.9304 0.9309 0.9318 0.9328
2688.324252 0.9322 0.9312 0.9318 0.9328 0.9334
2692.669722 0.9339 0.9344 0.9349 0.9358 0.9368
2697.015193 0.9382 0.9397 0.9400 0.9400 0.9400
2701.360663 0.9400 0.9400 0.9400 0.9400 0.9400
2705.706133 0.9400 0.9400 0.9400 0.9400 0.9400
2710.051604 0.9400 0.9400 0.9400 0.9400 0.9400
2714.397074 0.9392 0.9382 0.9376 0.9371 0.9370
2718.742545 0.9370 0.9370 0.9370 0.9370 0.9370
2723.088015 0.9363 0.9353 0.9343 0.9333 0.9330
2727.433485 0.9330 0.9330 0.9330 0.9330 0.9330
2731.778956 0.9334 0.9339 0.9344 0.9349 0.9350
2736.124426 0.9350 0.9350 0.9350 0.9350 0.9350
2740.469897 0.9350 0.9350 0.9357 0.9367 0.9370
2744.815367 0.9370 0.9370 0.9370 0.9370 0.9370
2749.160837 0.9370 0.9370 0.9370 0.9370 0.9363
2753.506308 0.9353 0.9350 0.9350 0.9350 0.9350
2757.851778 0.9347 0.9342 0.9340 0.9340 0.9337
2762.197249 0.9332 0.9330 0.9330 0.9323 0.9313
2766.542719 0.9307 0.9302 0.9297 0.9292 0.9290
2770.888189 0.9290 0.9280 0.9265 0.9250 0.9235
2775.233660 0.9230 0.9230 0.9227 0.9222 0.9214
2779.579130 0.9204 0.9200 0.9200 0.9181 0.9151
2783.924601 0.9111 0.9066 0.9034 0.9009 0.8991
2788.270071 0.8976 0.8967 0.8962 0.8951 0.8936
2792.615541 0.8924 0.8914 0.8892 0.8862 0.8841
2796.961012 0.8826 0.8808 0.8788 0.8768 0.8748
2801.306482 0.8728 0.8708 0.8679 0.8644 0.8618
2805.651952 0.8598 0.8575 0.8550 0.8522 0.8492
2809.997423 0.8465 0.8440 0.8407 0.8367 0.8321
2814.342893 0.8271 0.8230 0.8195 0.8169 0.8148
2818.688364 0.8128 0.8108 0.8068 0.8013 0.7941
2823.033834 0.7857 0.7778 0.7703 0.7628 0.7553
2827.379304 0.7478 0.7403 0.7320 0.7231 0.7100
2831.724775 0.6935 0.6716 0.6452 0.6270 0.6160
2836.070245 0.6016 0.5847 0.5663 0.5469 0.5231
2840.415716 0.4957 0.4666 0.4362 0.3912 0.3333
2844.761186 0.2736 0.2123 0.1692 0.1427 0.1238
2849.106656 0.1118 0.0996 0.0871 0.0695 0.0468
2853.452127 0.0331 0.0276 0.0245 0.0235 0.0225
2857.797597 0.0215 0.0215 0.0225 0.0258 0.0312
2862.143068 0.0387 0.0482 0.0751 0.1200 0.1476
2866.488538 0.1571 0.1740 0.1990 0.2166 0.2261
2870.834008 0.2354 0.2444 0.2536 0.2631 0.2762
2875.179479 0.2931 0.3075 0.3190 0.3318 0.3463
2879.524949 0.3540 0.3540 0.3526 0.3496 0.3425
2883.870420 0.3306 0.3199 0.3110 0.3008 0.2892
2888.215890 0.2754 0.2589 0.2436 0.2296 0.2143
2892.561360 0.1974 0.1802 0.1627 0.1521 0.1501
2896.906831 0.1440 0.1325 0.1221 0.1131 0.1046
2901.252301 0.0966 0.0886 0.0806 0.0754 0.0739
2905.597771 0.0721 0.0701 0.0673 0.0633 0.0595
2909.943242 0.0560 0.0515 0.0455 0.0404 0.0364
2914.288712 0.0318 0.0263 0.0222 0.0202 0.0184
2918.634183 0.0169 0.0154 0.0139 0.0128 0.0123
2922.979653 0.0116 0.0106 0.0100 0.0100 0.0100
2927.325123 0.0100 0.0100 0.0100 0.0100 0.0100
2931.670594 0.0104 0.0114 0.0122 0.0127 0.0132
2936.016064 0.0137 0.0145 0.0160 0.0174 0.0184
2940.361535 0.0197 0.0217 0.0252 0.0312 0.0372
2944.707005 0.0431 0.0497 0.0571 0.0652 0.0741
2949.052475 0.0835 0.0934 0.0998 0.0993 0.0983
2953.397946 0.0963 0.0943 0.0923 0.0907 0.0897
2957.743416 0.0893 0.0903 0.0930 0.0990 0.1056
2962.088887 0.1136 0.1218 0.1302 0.1381 0.1446
2966.434357 0.1518 0.1608 0.1861 0.2474 0.2935
2970.779827 0.3050 0.3199 0.3429 0.3717 0.4145
2975.125298 0.4496 0.4675 0.4850 0.5015 0.5219
2979.470768 0.5513 0.5798 0.6063 0.6294 0.6443
2983.816239 0.6590 0.6730 0.6848 0.6913 0.6981
2988.161709 0.7055 0.7136 0.7230 0.7327 0.7428
2992.507179 0.7521 0.7596 0.7667 0.7726 0.7779
2996.852650 0.7814 0.7848 0.7878 0.7905 0.7925
3001.198120 0.7941 0.7946 0.7953 0.7962 0.7971
3005.543590 0.7976 0.7980 0.7980 0.7981 0.7986
3009.889061 0.7999 0.8034 0.8077 0.8147 0.8219
3014.234531 0.8299 0.8384 0.8483 0.8573 0.8628
3018.580002 0.8677 0.8707 0.8736 0.8760 0.8788
3022.925472 0.8822 0.8857 0.8892 0.8927 0.8963
3027.270942 0.8996 0.9020 0.9048 0.9082 0.9111
3031.616413 0.9116 0.9123 0.9138 0.9157 0.9192
3035.961883 0.9221 0.9226 0.9232 0.9242 0.9251
3040.307354 0.9256 0.9263 0.9278 0.9292 0.9302
3044.652824 0.9313 0.9328 0.9341 0.9346 0.9352
3048.998294 0.9362 0.9371 0.9376 0.9383 0.9397
3053.343765 0.9412 0.9427 0.9441 0.9446 0.9450
3057.689235 0.9450 0.9451 0.9456 0.9462 0.9477
3062.034706 0.9491 0.9496 0.9502 0.9517 0.9532
3066.380176 0.9547 0.9560 0.9560 0.9560 0.9560
3070.725646 0.9561 0.9566 0.9571 0.9581 0.9590
3075.071117 0.9590 0.9590 0.9590 0.9591 0.9596
3079.416587 0.9601 0.9606 0.9610 0.9610 0.9612
3083.762058 0.9627 0.9641 0.9646 0.9650 0.9650
3088.107528 0.9651 0.9661 0.9670 0.9670 0.9670
3092.452998 0.9675 0.9680 0.9680 0.9681 0.9691
3096.798469 0.9700 0.9700 0.9700 0.9700 0.9700
3101.143939 0.9705 0.9710 0.9710 0.9710 0.9715
3105.489410 0.9720 0.9720 0.9721 0.9731 0.9740
3109.834880 0.9745 0.9750 0.9750 0.9750 0.9750
3114.180350 0.9750 0.9750 0.9750 0.9750 0.9750
3118.525821 0.9750 0.9750 0.9750 0.9750 0.9750
3122.871291 0.9750 0.9745 0.9740 0.9740 0.9740
3127.216761 0.9740 0.9740 0.9740 0.9740 0.9740
3131.562232 0.9740 0.9745 0.9750 0.9755 0.9760
3135.907702 0.9770 0.9780 0.9780 0.9780 0.9780
3140.253173 0.9780 0.9780 0.9780 0.9780 0.9780
3144.598643 0.9770 0.9760 0.9770 0.9780 0.9780
3148.944113 0.9780 0.9780 0.9780 0.9780 0.9780
3153.289584 0.9780 0.9780 0.9780 0.9780 0.9780
3157.635054 0.9780 0.9780 0.9780 0.9785 0.9790
3161.980525 0.9790 0.9790 0.9790 0.9790 0.9790
3166.325995 0.9790 0.9790 0.9790 0.9790 0.9790
3170.671465 0.9790 0.9790 0.9790 0.9790 0.9795
3175.016936 0.9800 0.9800 0.9800 0.9800 0.9800
3179.362406 0.9800 0.9800 0.9800 0.9800 0.9800
3183.707877 0.9800 0.9800 0.9800 0.9809 0.9819
3188.053347 0.9820 0.9820 0.9825 0.9830 0.9830
3192.398817 0.9830 0.9830 0.9830 0.9830 0.9830
3196.744288 0.9830 0.9830 0.9830 0.9830 0.9839
3201.089758 0.9849 0.9850 0.9850 0.9841 0.9831
3205.435229 0.9830 0.9830 0.9839 0.9849 0.9850
3209.780699 0.9850 0.9854 0.9859 0.9860 0.9860
3214.126169 0.9860 0.9860 0.9860 0.9860 0.9864
3218.471640 0.9869 0.9879 0.9889 0.9890 0.9890
3222.817110 0.9890 0.9890 0.9881 0.9871 0.9870
3227.162580 0.9870 0.9870 0.9870 0.9870 0.9870
3231.508051 0.9870 0.9870 0.9878 0.9888 0.9890
3235.853521 0.9890 0.9890 0.9890 0.9890 0.9890
3240.198992 0.9890 0.9890 0.9890 0.9890 0.9898
3244.544462 0.9908 0.9910 0.9910 0.9910 0.9910
3248.889932 0.9910 0.9910 0.9910 0.9910 0.9910
3253.235403 0.9910 0.9910 0.9910 0.9910 0.9910
3257.580873 0.9918 0.9928 0.9930 0.9930 0.9922
3261.926344 0.9912 0.9910 0.9910 0.9910 0.9910
3266.271814 0.9910 0.9910 0.9910 0.9910 0.9910
3270.617284 0.9910 0.9910 0.9910 0.9918 0.9928
3274.962755 0.9930 0.9930 0.9930 0.9930 0.9930
3279.308225 0.9930 0.9930 0.9930 0.9930 0.9930
3283.653696 0.9934 0.9939 0.9940 0.9940 0.9940
3287.999166 0.9940 0.9940 0.9940 0.9940 0.9940
3292.344636 0.9940 0.9940 0.9940 0.9940 0.9944
3296.690107 0.9949 0.9946 0.9941 0.9940 0.9940
3301.035577 0.9940 0.9940 0.9940 0.9940 0.9940
3305.381048 0.9940 0.9940 0.9940 0.9940 0.9940
3309.726518 0.9940 0.9940 0.9940 0.9940 0.9940
3314.071988 0.9940 0.9940 0.9940 0.9944 0.9949
3318.417459 0.9950 0.9950 0.9950 0.9950 0.9947
3322.762929 0.9941 0.9940 0.9940 0.9940 0.9940
3327.108400 0.9940 0.9940 0.9940 0.9940 0.9937
3331.453870 0.9932 0.9930 0.9930 0.9930 0.9930
3335.799340 0.9933 0.9938 0.9937 0.9932 0.9930
3340.144811 0.9930 0.9930 0.9930 0.9930 0.9930
3344.490281 0.9930 0.9930 0.9930 0.9930 0.9930
3348.835751 0.9930 0.9930 0.9930 0.9930 0.9930
3353.181222 0.9930 0.9930 0.9930 0.9930 0.9930
3357.526692 0.9930 0.9930 0.9930 0.9930 0.9930
3361.872163 0.9930 0.9930 0.9930 0.9930 0.9930
3366.217633 0.9930 0.9930 0.9930 0.9930 0.9930
3370.563103 0.9930 0.9930 0.9930 0.9930 0.9930
3374.908574 0.9930 0.9930 0.9930 0.9930 0.9930
3379.254044 0.9930 0.9930 0.9930 0.9930 0.9930
3383.599515 0.9930 0.9933 0.9938 0.9940 0.9940
3387.944985 0.9940 0.9940 0.9940 0.9940 0.9943
3392.290455 0.9948 0.9950 0.9950 0.9950 0.9950
3396.635926 0.9950 0.9950 0.9950 0.9950 0.9947
3400.981396 0.9942 0.9940 0.9940 0.9940 0.9940
3405.326867 0.9937 0.9932 0.9930 0.9930 0.9930
3409.672337 0.9930 0.9930 0.9930 0.9933 0.9938
3414.017807 0.9940 0.9940 0.9943 0.9948 0.9950
3418.363278 0.9950 0.9950 0.9950 0.9950 0.9950
3422.708748 0.9950 0.9950 0.9950 0.9950 0.9950
3427.054219 0.9950 0.9950 0.9950 0.9950 0.9950
3431.399689 0.9950 0.9950 0.9947 0.9942 0.9940
3435.745159 0.9940 0.9940 0.9940 0.9940 0.9940
3440.090630 0.9940 0.9940 0.9942 0.9947 0.9950
3444.436100 0.9950 0.9950 0.9950 0.9950 0.9950
3448.781570 0.9950 0.9950 0.9957 0.9972 0.9980
3453.127041 0.9980 0.9973 0.9958 0.9950 0.9950
3457.472511 0.9950 0.9950 0.9950 0.9950 0.9950
3461.817982 0.9950 0.9950 0.9950 0.9950 0.9950
3466.163452 0.9950 0.9950 0.9950 0.9950 0.9948
3470.508922 0.9943 0.9940 0.9940 0.9942 0.9947
3474.854393 0.9950 0.9950 0.9950 0.9950 0.9950
3479.199863 0.9950 0.9950 0.9950 0.9954 0.9964
3483.545334 0.9970 0.9970 0.9970 0.9970 0.9970
3487.890804 0.9970 0.9966 0.9956 0.9950 0.9950
3492.236274 0.9950 0.9950 0.9950 0.9950 0.9950
3496.581745 0.9950 0.9950 0.9950 0.9950 0.9950
3500.927215 0.9950 0.9950 0.9950 0.9950 0.9950
3505.272686 0.9950 0.9954 0.9964 0.9970 0.9970
3509.618156 0.9970 0.9970 0.9972 0.9977 0.9978
3513.963626 0.9973 0.9970 0.9970 0.9970 0.9970
3518.309097 0.9970 0.9970 0.9966 0.9956 0.9950
3522.654567 0.9950 0.9950 0.9950 0.9950 0.9950
3527.000038 0.9950 0.9950 0.9953 0.9963 0.9970
3531.345508 0.9970 0.9970 0.9970 0.9970 0.9970
3535.690978 0.9970 0.9970 0.9970 0.9970 0.9970
3540.036449 0.9970 0.9970 0.9970 0.9970 0.9970
3544.381919 0.9967 0.9957 0.9950 0.9950 0.9950
3548.727389 0.9950 0.9950 0.9950 0.9950 0.9950
3553.072860 0.9950 0.9950 0.9950 0.9950 0.9953
3557.418330 0.9963 0.9967 0.9957 0.9950 0.9950
3561.763801 0.9949 0.9944 0.9940 0.9940 0.9940
3566.109271 0.9940 0.9940 0.9940 0.9940 0.9940
3570.454741 0.9940 0.9940 0.9939 0.9934 0.9930
3574.800212 0.9930 0.9931 0.9936 0.9940 0.9940
3579.145682 0.9940 0.9940 0.9940 0.9940 0.9939
3583.491153 0.9934 0.9930 0.9930 0.9930 0.9930
3587.836623 0.9928 0.9918 0.9910 0.9910 0.9910
3592.182093 0.9910 0.9910 0.9910 0.9909 0.9904
3596.527564 0.9899 0.9894 0.9890 0.9890 0.9890
3600.873034 0.9890 0.9890 0.9890 0.9888 0.9878
3605.218505 0.9870 0.9870 0.9870 0.9870 0.9870
3609.563975 0.9870 0.9872 0.9882 0.9890 0.9890
3613.909445 0.9888 0.9878 0.9870 0.9870 0.9870
3618.254916 0.9870 0.9870 0.9870 0.9870 0.9870
3622.600386 0.9869 0.9864 0.9860 0.9860 0.9860
3626.945857 0.9860 0.9860 0.9860 0.9860 0.9860
3631.291327 0.9859 0.9854 0.9851 0.9856 0.9861
3635.636797 0.9866 0.9872 0.9882 0.9890 0.9890
3639.982268 0.9890 0.9890 0.9890 0.9890 0.9890
3644.327738 0.9890 0.9889 0.9879 0.9870 0.9870
3648.673209 0.9870 0.9870 0.9871 0.9881 0.9890
3653.018679 0.9890 0.9890 0.9890 0.9890 0.9890
3657.364149 0.9890 0.9890 0.9890 0.9890 0.9891
3661.709620 0.9896 0.9899 0.9894 0.9890 0.9890
3666.055090 0.9890 0.9890 0.9890 0.9890 0.9890
3670.400560 0.9890 0.9890 0.9890 0.9890 0.9890
3674.746031 0.9890 0.9890 0.9890 0.9890 0.9890
3679.091501 0.9890 0.9890 0.9895 0.9900 0.9900
3683.436972 0.9900 0.9905 0.9910 0.9910 0.9910
3687.782442 0.9910 0.9910 0.9905 0.9900 0.9900
3692.127912 0.9900 0.9900 0.9900 0.9900 0.9900
3696.473383 0.9900 0.9900 0.9900 0.9900 0.9900
3700.818853 0.9900 0.9900 0.9900 0.9900 0.9900
3705.164324 0.9900 0.9900 0.9900 0.9900 0.9900
3709.509794 0.9900 0.9900 0.9900 0.9900 0.9900
3713.855264 0.9900 0.9900 0.9905 0.9910 0.9910
3718.200735 0.9910 0.9910 0.9910 0.9920 0.9930
3722.546205 0.9930 0.9930 0.9930 0.9930 0.9930
3726.891676 0.9930 0.9930 0.9930 0.9920 0.9910
3731.237146 0.9910 0.9910 0.9920 0.9930 0.9930
3735.582616 0.9930 0.9930 0.9930 0.9930 0.9930
3739.928087 0.9930 0.9930 0.9935 0.9940 0.9935
3744.273557 0.9930 0.9930 0.9930 0.9930 0.9930
3748.619028 0.9930 0.9930 0.9930 0.9930 0.9930
3752.964498 0.9930 0.9930 0.9930 0.9921 0.9911
3757.309968 0.9910 0.9910 0.9920 0.9929 0.9930
3761.655439 0.9930 0.9930 0.9930 0.9930 0.9930
3766.000909 0.9935 0.9940 0.9940 0.9940 0.9940
3770.346379 0.9940 0.9940 0.9940 0.9940 0.9940
3774.691850 0.9935 0.9930 0.9930 0.9930 0.9930
3779.037320 0.9930 0.9921 0.9911 0.9910 0.9910
3783.382791 0.9910 0.9910 0.9910 0.9910 0.9910
3787.728261 0.9910 0.9910 0.9910 0.9910 0.9910
3792.073731 0.9910 0.9910 0.9910 0.9910 0.9910
3796.419202 0.9910 0.9910 0.9910 0.9906 0.9901
##END=
