##TITLE=N-DECYL BROMIDE
##JCAMP-DX=4.24
##DATA TYPE=INFRARED SPECTRUM
##CLASS=COBLENTZ
##ORIGIN=CONTINENTAL OIL CO. (HAROLD F. SMITH)
##OWNER=COBLENTZ SOCIETY
Collection (C) 2018 copyright by the U.S. Secretary of Commerce
on behalf of the United States of America. All rights reserved.
##DATE=Not specified, most likely prior to 1970
##NAMES=1-bromodecane
##CAS REGISTRY NO=112-29-8
##MOLFORM=C10 H21 Br
##SOURCE REFERENCE=COBLENTZ NO. 3750
##$NIST SOURCE=COBLENTZ
##$NIST IMAGE=cob3750
##SPECTROMETER/DATA SYSTEM=Not specified, most likely a prism, grating, or hybrid spectrometer.
##STATE=LIQUID
##PATH LENGTH=0.0036 CM
##SAMPLING PROCEDURE=TRANSMISSION
##RESOLUTION=4
##DATA PROCESSING=DIGITIZED BY NIST FROM HARD COPY
##XUNITS=MICROMETERS
##YUNITS=TRANSMITTANCE
##XFACTOR=1.000000
##YFACTOR=1
##DELTAX=000.006195
##FIRSTX=12.019
##LASTX=26.0066
##FIRSTY=0.914
##MAXX=26.0066
##MINX=12.019
##MAXY=0.965
##MINY=0.266
##NPOINTS=2259
##XYDATA=(X++(Y..Y))
12.019000 0.9140 0.9150 0.9150 0.9170 0.9170
12.049987 0.9170 0.9170 0.9150 0.9140 0.9120
12.081000 0.9120 0.9120 0.9120 0.9110 0.9110
12.111987 0.9090 0.9090 0.9090 0.9090 0.9110
12.142000 0.9110 0.9110 0.9110 0.9110 0.9110
12.172987 0.9110 0.9110 0.9110 0.9120 0.9120
12.204000 0.9150 0.9150 0.9170 0.9190 0.9200
12.234987 0.9220 0.9250 0.9280 0.9280 0.9290
12.266000 0.9310 0.9310 0.9330 0.9310 0.9280
12.296987 0.9260 0.9250 0.9230 0.9220 0.9230
12.328000 0.9230 0.9250 0.9290 0.9290 0.9310
12.358987 0.9310 0.9310 0.9310 0.9290 0.9290
12.390000 0.9280 0.9250 0.9230 0.9200 0.9200
12.420987 0.9200 0.9190 0.9170 0.9150 0.9150
12.452000 0.9140 0.9090 0.9040 0.9030 0.9010
12.482987 0.9000 0.8950 0.8950 0.8950 0.8950
12.514000 0.8940 0.8920 0.8890 0.8870 0.8840
12.544987 0.8830 0.8810 0.8800 0.8800 0.8800
12.576000 0.8780 0.8780 0.8780 0.8780 0.8800
12.606987 0.8810 0.8810 0.8830 0.8840 0.8860
12.638000 0.8870 0.8890 0.8900 0.8920 0.8940
12.668987 0.8940 0.8940 0.8970 0.9000 0.9000
12.700000 0.9010 0.9010 0.9010 0.9030 0.9090
12.730987 0.9090 0.9110 0.9120 0.9120 0.9150
12.762000 0.9190 0.9190 0.9150 0.9140 0.9120
12.792987 0.9110 0.9090 0.9110 0.9110 0.9110
12.824000 0.9090 0.9090 0.9080 0.9060 0.9040
12.854987 0.9040 0.9030 0.9000 0.8940 0.8870
12.886000 0.8840 0.8830 0.8830 0.8830 0.8810
12.916987 0.8780 0.8760 0.8750 0.8730 0.8720
12.948000 0.8700 0.8660 0.8610 0.8560 0.8530
12.978987 0.8530 0.8500 0.8470 0.8440 0.8390
13.010000 0.8380 0.8360 0.8340 0.8330 0.8330
13.040987 0.8310 0.8300 0.8300 0.8250 0.8220
13.072000 0.8200 0.8200 0.8160 0.8140 0.8140
13.102987 0.8140 0.8140 0.8140 0.8140 0.8160
13.134000 0.8200 0.8220 0.8220 0.8200 0.8200
13.164987 0.8200 0.8200 0.8190 0.8160 0.8140
13.196000 0.8130 0.8110 0.8090 0.8090 0.8090
13.226987 0.8090 0.8090 0.8090 0.8090 0.8090
13.258000 0.8080 0.8060 0.8030 0.8030 0.8020
13.288987 0.8000 0.8000 0.7970 0.7950 0.7940
13.319000 0.7890 0.7830 0.7800 0.7710 0.7630
13.349987 0.7600 0.7500 0.7390 0.7350 0.7350
13.381000 0.7330 0.7270 0.7190 0.7100 0.7080
13.411987 0.7040 0.7020 0.6930 0.6860 0.6830
13.443000 0.6790 0.6740 0.6720 0.6690 0.6680
13.473987 0.6650 0.6600 0.6580 0.6570 0.6550
13.505000 0.6510 0.6490 0.6460 0.6440 0.6430
13.535987 0.6410 0.6410 0.6400 0.6400 0.6380
13.567000 0.6370 0.6330 0.6320 0.6260 0.6190
13.597987 0.6120 0.6090 0.6070 0.6050 0.6040
13.629000 0.6020 0.6010 0.5960 0.5850 0.5790
13.659987 0.5770 0.5700 0.5620 0.5600 0.5590
13.691000 0.5540 0.5510 0.5420 0.5400 0.5320
13.721987 0.5230 0.5200 0.5090 0.5000 0.4980
13.753000 0.4900 0.4890 0.4820 0.4790 0.4780
13.783987 0.4680 0.4610 0.4560 0.4450 0.4400
13.815000 0.4330 0.4290 0.4250 0.4200 0.4120
13.845987 0.4010 0.3970 0.3890 0.3890 0.3830
13.877000 0.3750 0.3670 0.3480 0.3390 0.3330
13.907987 0.3270 0.3160 0.2990 0.2890 0.2830
13.939000 0.2780 0.2710 0.2690 0.2690 0.2670
13.969987 0.2670 0.2690 0.2690 0.2720 0.2810
14.001000 0.2880 0.2920 0.3000 0.3060 0.3220
14.031987 0.3390 0.3480 0.3580 0.3690 0.3810
14.063000 0.3940 0.4170 0.4310 0.4420 0.4510
14.093987 0.4640 0.4750 0.4890 0.5040 0.5100
14.125000 0.5210 0.5510 0.5620 0.5800 0.5900
14.155987 0.6010 0.6190 0.6290 0.6330 0.6410
14.187000 0.6510 0.6610 0.6740 0.6830 0.6930
14.217987 0.7020 0.7110 0.7210 0.7240 0.7300
14.249000 0.7390 0.7410 0.7460 0.7500 0.7550
14.279987 0.7630 0.7710 0.7810 0.7890 0.7920
14.311000 0.8000 0.8020 0.8090 0.8160 0.8190
14.341987 0.8190 0.8200 0.8230 0.8270 0.8360
14.373000 0.8390 0.8420 0.8520 0.8560 0.8610
14.403987 0.8640 0.8640 0.8660 0.8660 0.8670
14.435000 0.8690 0.8730 0.8800 0.8840 0.8860
14.465987 0.8870 0.8890 0.8900 0.8920 0.8940
14.496000 0.8940 0.8970 0.9000 0.9000 0.9010
14.526987 0.9030 0.9030 0.9040 0.9040 0.9080
14.558000 0.9090 0.9090 0.9110 0.9110 0.9120
14.588987 0.9140 0.9140 0.9150 0.9150 0.9170
14.620000 0.9170 0.9170 0.9190 0.9190 0.9200
14.650987 0.9200 0.9220 0.9220 0.9230 0.9230
14.682000 0.9230 0.9230 0.9250 0.9230 0.9250
14.712987 0.9250 0.9290 0.9290 0.9310 0.9310
14.744000 0.9250 0.9220 0.9200 0.9190 0.9190
14.774987 0.9190 0.9190 0.9170 0.9150 0.9140
14.806000 0.9140 0.9140 0.9140 0.9150 0.9170
14.836987 0.9170 0.9170 0.9170 0.9170 0.9170
14.868000 0.9170 0.9150 0.9140 0.9140 0.9140
14.898987 0.9140 0.9120 0.9120 0.9140 0.9140
14.930000 0.9120 0.9120 0.9110 0.9110 0.9090
14.960987 0.9090 0.9090 0.9080 0.9040 0.9030
14.992000 0.9030 0.9010 0.8970 0.8920 0.8900
15.022987 0.8900 0.8900 0.8920 0.8940 0.8940
15.054000 0.8950 0.8950 0.8970 0.8940 0.8900
15.084987 0.8840 0.8810 0.8800 0.8780 0.8720
15.116000 0.8620 0.8530 0.8520 0.8470 0.8440
15.146987 0.8440 0.8420 0.8410 0.8410 0.8340
15.178000 0.8310 0.8280 0.8200 0.8130 0.8050
15.208987 0.8020 0.7990 0.7910 0.7800 0.7750
15.240000 0.7710 0.7610 0.7530 0.7420 0.7350
15.270987 0.7300 0.7220 0.7190 0.7070 0.6940
15.302000 0.6830 0.6720 0.6600 0.6510 0.6400
15.332987 0.6300 0.6190 0.6100 0.6020 0.5840
15.364000 0.5630 0.5510 0.5320 0.5280 0.5030
15.394987 0.4870 0.4750 0.4700 0.4610 0.4430
15.426000 0.4230 0.4090 0.4010 0.3890 0.3800
15.456987 0.3690 0.3560 0.3420 0.3300 0.3280
15.488000 0.3230 0.3190 0.3110 0.3020 0.2990
15.518987 0.2910 0.2890 0.2850 0.2810 0.2740
15.550000 0.2690 0.2690 0.2670 0.2660 0.2670
15.580987 0.2710 0.2720 0.2750 0.2780 0.2800
15.612000 0.2800 0.2830 0.2850 0.2910 0.2990
15.642987 0.3030 0.3130 0.3200 0.3300 0.3440
15.673000 0.3530 0.3610 0.3720 0.3810 0.3970
15.703987 0.4010 0.4090 0.4310 0.4400 0.4510
15.735000 0.4610 0.4700 0.4810 0.5000 0.5170
15.765987 0.5240 0.5310 0.5370 0.5520 0.5650
15.797000 0.5880 0.6050 0.6150 0.6290 0.6400
15.827987 0.6430 0.6510 0.6600 0.6720 0.6790
15.859000 0.6820 0.6990 0.7100 0.7190 0.7280
15.889987 0.7320 0.7330 0.7360 0.7390 0.7500
15.921000 0.7520 0.7580 0.7630 0.7720 0.7800
15.951987 0.7860 0.7890 0.7890 0.7940 0.7940
15.983000 0.7950 0.7990 0.8050 0.8130 0.8170
16.013987 0.8200 0.8220 0.8230 0.8250 0.8280
16.045000 0.8300 0.8310 0.8310 0.8340 0.8410
16.075987 0.8470 0.8520 0.8580 0.8590 0.8590
16.107000 0.8580 0.8550 0.8550 0.8580 0.8580
16.137987 0.8610 0.8640 0.8660 0.8690 0.8700
16.169000 0.8700 0.8730 0.8780 0.8800 0.8800
16.199987 0.8800 0.8800 0.8800 0.8830 0.8840
16.231000 0.8840 0.8860 0.8920 0.8950 0.8950
16.261987 0.8950 0.8950 0.8950 0.8950 0.8940
16.293000 0.8940 0.8940 0.8950 0.8950 0.8950
16.323987 0.8950 0.8970 0.9000 0.9010 0.9010
16.355000 0.9010 0.9000 0.9000 0.8970 0.8970
16.385987 0.8970 0.8950 0.8950 0.8950 0.8950
16.417000 0.8970 0.8970 0.8970 0.8980 0.9000
16.447987 0.8970 0.8970 0.9000 0.9000 0.9000
16.479000 0.9010 0.9010 0.9010 0.9030 0.9030
16.509987 0.9040 0.9060 0.9060 0.9060 0.9060
16.541000 0.9060 0.9060 0.9060 0.9060 0.9060
16.571987 0.9030 0.9030 0.9030 0.9030 0.9030
16.603000 0.9030 0.9030 0.9030 0.9030 0.9030
16.633987 0.9040 0.9040 0.9040 0.9030 0.9030
16.665000 0.9030 0.9010 0.9010 0.9010 0.9010
16.695987 0.9010 0.9010 0.9000 0.9000 0.9000
16.727000 0.9010 0.9010 0.9010 0.9000 0.9000
16.757987 0.9000 0.9010 0.8980 0.8980 0.8980
16.788000 0.9030 0.9060 0.9060 0.9060 0.9040
16.818987 0.9040 0.9030 0.9010 0.9010 0.9010
16.850000 0.9010 0.9010 0.9000 0.9000 0.9000
16.880987 0.9000 0.9010 0.9010 0.9010 0.9010
16.912000 0.8970 0.9000 0.9000 0.9000 0.9010
16.942987 0.9010 0.9010 0.9010 0.9030 0.9030
16.974000 0.9010 0.9010 0.9000 0.9030 0.9010
17.004987 0.8980 0.8980 0.8980 0.8970 0.8970
17.036000 0.8940 0.8920 0.8900 0.8840 0.8840
17.066987 0.8840 0.8840 0.8840 0.8840 0.8840
17.098000 0.8830 0.8810 0.8810 0.8760 0.8730
17.128987 0.8730 0.8730 0.8720 0.8700 0.8700
17.160000 0.8660 0.8660 0.8640 0.8640 0.8620
17.190987 0.8610 0.8560 0.8530 0.8520 0.8450
17.222000 0.8420 0.8410 0.8410 0.8410 0.8410
17.252987 0.8380 0.8330 0.8300 0.8300 0.8200
17.284000 0.8170 0.8060 0.8030 0.8020 0.7940
17.314987 0.7910 0.7810 0.7770 0.7740 0.7710
17.346000 0.7660 0.7630 0.7600 0.7520 0.7440
17.376987 0.7380 0.7330 0.7240 0.7190 0.7130
17.408000 0.7100 0.7070 0.7040 0.7020 0.7000
17.438987 0.6910 0.6800 0.6690 0.6600 0.6570
17.470000 0.6510 0.6440 0.6380 0.6330 0.6240
17.500987 0.6160 0.6100 0.6020 0.6010 0.5900
17.532000 0.5800 0.5700 0.5560 0.5450 0.5400
17.562987 0.5320 0.5290 0.5290 0.5170 0.5030
17.594000 0.4960 0.4850 0.4790 0.4730 0.4610
17.624987 0.4540 0.4510 0.4500 0.4480 0.4340
17.656000 0.4190 0.4110 0.4010 0.3980 0.3840
17.686987 0.3800 0.3720 0.3670 0.3590 0.3550
17.718000 0.3500 0.3410 0.3390 0.3300 0.3280
17.748987 0.3270 0.3250 0.3200 0.3190 0.3170
17.780000 0.3140 0.3130 0.3140 0.3160 0.3170
17.810987 0.3170 0.3190 0.3190 0.3200 0.3220
17.842000 0.3250 0.3330 0.3390 0.3410 0.3500
17.872987 0.3520 0.3590 0.3690 0.3730 0.3800
17.904000 0.3890 0.3980 0.4010 0.4190 0.4230
17.934987 0.4310 0.4400 0.4430 0.4540 0.4670
17.965000 0.4780 0.5000 0.5120 0.5260 0.5340
17.995987 0.5520 0.5650 0.5730 0.5840 0.5990
18.027000 0.6040 0.6100 0.6150 0.6230 0.6370
18.057987 0.6460 0.6540 0.6610 0.6710 0.6720
18.089000 0.6800 0.6910 0.6940 0.7020 0.7040
18.119987 0.7140 0.7240 0.7320 0.7350 0.7380
18.151000 0.7410 0.7440 0.7500 0.7500 0.7520
18.181987 0.7530 0.7570 0.7610 0.7660 0.7660
18.213000 0.7710 0.7740 0.7810 0.7850 0.7860
18.243987 0.7860 0.7910 0.8000 0.8000 0.8020
18.275000 0.8020 0.8060 0.8080 0.8080 0.8110
18.305987 0.8140 0.8200 0.8280 0.8300 0.8310
18.337000 0.8330 0.8340 0.8340 0.8340 0.8340
18.367987 0.8330 0.8330 0.8330 0.8330 0.8380
18.399000 0.8410 0.8410 0.8410 0.8410 0.8420
18.429987 0.8420 0.8440 0.8450 0.8500 0.8500
18.461000 0.8520 0.8520 0.8520 0.8520 0.8520
18.491987 0.8500 0.8480 0.8500 0.8520 0.8530
18.523000 0.8530 0.8530 0.8560 0.8580 0.8610
18.553987 0.8620 0.8640 0.8670 0.8700 0.8700
18.585000 0.8700 0.8690 0.8690 0.8700 0.8700
18.615987 0.8720 0.8720 0.8720 0.8720 0.8720
18.647000 0.8730 0.8750 0.8750 0.8730 0.8730
18.677987 0.8730 0.8730 0.8730 0.8730 0.8730
18.709000 0.8730 0.8730 0.8750 0.8750 0.8750
18.739987 0.8750 0.8750 0.8750 0.8780 0.8810
18.771000 0.8840 0.8840 0.8840 0.8810 0.8780
18.801987 0.8780 0.8780 0.8780 0.8760 0.8750
18.833000 0.8750 0.8750 0.8760 0.8800 0.8800
18.863987 0.8800 0.8800 0.8800 0.8800 0.8800
18.895000 0.8810 0.8810 0.8800 0.8750 0.8750
18.925987 0.8730 0.8730 0.8750 0.8750 0.8760
18.957000 0.8780 0.8780 0.8810 0.8840 0.8860
18.987987 0.8870 0.8870 0.8870 0.8890 0.8870
19.019000 0.8870 0.8870 0.8870 0.8870 0.8870
19.049987 0.8870 0.8870 0.8890 0.8890 0.8890
19.081000 0.8900 0.8920 0.8940 0.8950 0.8950
19.111987 0.8940 0.8900 0.8900 0.8900 0.8900
19.142000 0.8900 0.8940 0.8970 0.8970 0.8980
19.172987 0.9010 0.9010 0.9010 0.9010 0.9010
19.204000 0.8980 0.8970 0.8950 0.8950 0.8950
19.234987 0.8950 0.8950 0.8950 0.9000 0.9010
19.266000 0.9030 0.9060 0.9060 0.9040 0.9060
19.296987 0.9060 0.9080 0.9090 0.9090 0.9110
19.328000 0.9120 0.9150 0.9140 0.9140 0.9120
19.358987 0.9120 0.9110 0.9110 0.9110 0.9110
19.390000 0.9140 0.9150 0.9150 0.9150 0.9150
19.420987 0.9150 0.9140 0.9140 0.9140 0.9140
19.452000 0.9120 0.9110 0.9090 0.9090 0.9090
19.482987 0.9090 0.9110 0.9110 0.9110 0.9110
19.514000 0.9110 0.9110 0.9110 0.9110 0.9120
19.544987 0.9140 0.9150 0.9150 0.9150 0.9150
19.576000 0.9150 0.9150 0.9150 0.9170 0.9190
19.606987 0.9190 0.9220 0.9220 0.9220 0.9220
19.638000 0.9220 0.9220 0.9220 0.9220 0.9220
19.668987 0.9220 0.9230 0.9230 0.9250 0.9250
19.700000 0.9250 0.9230 0.9220 0.9190 0.9150
19.730987 0.9150 0.9150 0.9150 0.9150 0.9150
19.762000 0.9150 0.9170 0.9190 0.9200 0.9200
19.792987 0.9200 0.9220 0.9220 0.9230 0.9230
19.824000 0.9230 0.9250 0.9250 0.9230 0.9220
19.854987 0.9220 0.9200 0.9190 0.9190 0.9190
19.886000 0.9190 0.9200 0.9230 0.9260 0.9310
19.916987 0.9310 0.9330 0.9310 0.9310 0.9310
19.948000 0.9330 0.9330 0.9330 0.9340 0.9340
19.978987 0.9360 0.9360 0.9360 0.9360 0.9340
20.010000 0.9340 0.9340 0.9340 0.9340 0.9340
20.040987 0.9340 0.9340 0.9340 0.9340 0.9310
20.072000 0.9310 0.9290 0.9310 0.9310 0.9310
20.102987 0.9330 0.9340 0.9340 0.9340 0.9340
20.134000 0.9340 0.9340 0.9340 0.9340 0.9340
20.164987 0.9340 0.9340 0.9340 0.9360 0.9390
20.196000 0.9400 0.9400 0.9390 0.9370 0.9340
20.226987 0.9310 0.9310 0.9310 0.9330 0.9330
20.258000 0.9330 0.9330 0.9330 0.9340 0.9340
20.288987 0.9360 0.9360 0.9360 0.9370 0.9370
20.319000 0.9370 0.9340 0.9310 0.9310 0.9330
20.349987 0.9340 0.9370 0.9400 0.9420 0.9420
20.381000 0.9420 0.9420 0.9420 0.9400 0.9400
20.411987 0.9400 0.9420 0.9430 0.9450 0.9450
20.443000 0.9450 0.9470 0.9470 0.9450 0.9420
20.473987 0.9400 0.9400 0.9420 0.9430 0.9450
20.505000 0.9450 0.9430 0.9430 0.9420 0.9400
20.535987 0.9370 0.9370 0.9370 0.9370 0.9370
20.567000 0.9370 0.9370 0.9370 0.9370 0.9370
20.597987 0.9370 0.9390 0.9390 0.9400 0.9400
20.629000 0.9400 0.9400 0.9400 0.9400 0.9400
20.659987 0.9400 0.9400 0.9390 0.9370 0.9360
20.691000 0.9370 0.9390 0.9430 0.9430 0.9450
20.721987 0.9450 0.9450 0.9450 0.9480 0.9480
20.753000 0.9400 0.9400 0.9420 0.9430 0.9430
20.783987 0.9430 0.9430 0.9420 0.9420 0.9430
20.815000 0.9420 0.9420 0.9400 0.9400 0.9330
20.845987 0.9310 0.9290 0.9290 0.9330 0.9340
20.877000 0.9360 0.9360 0.9390 0.9420 0.9430
20.907987 0.9430 0.9430 0.9430 0.9430 0.9430
20.939000 0.9430 0.9450 0.9450 0.9450 0.9450
20.969987 0.9450 0.9450 0.9450 0.9450 0.9480
21.001000 0.9480 0.9450 0.9430 0.9420 0.9400
21.031987 0.9400 0.9400 0.9400 0.9400 0.9420
21.063000 0.9430 0.9430 0.9430 0.9430 0.9420
21.093987 0.9420 0.9400 0.9390 0.9360 0.9360
21.125000 0.9360 0.9340 0.9340 0.9360 0.9360
21.155987 0.9370 0.9370 0.9370 0.9360 0.9340
21.187000 0.9340 0.9330 0.9340 0.9340 0.9370
21.217987 0.9400 0.9420 0.9430 0.9430 0.9430
21.249000 0.9450 0.9450 0.9430 0.9430 0.9430
21.279987 0.9430 0.9430 0.9420 0.9400 0.9400
21.311000 0.9420 0.9420 0.9430 0.9430 0.9450
21.341987 0.9450 0.9470 0.9450 0.9450 0.9450
21.373000 0.9450 0.9450 0.9450 0.9470 0.9420
21.403987 0.9420 0.9430 0.9450 0.9450 0.9480
21.435000 0.9480 0.9480 0.9480 0.9500 0.9480
21.465987 0.9480 0.9470 0.9420 0.9400 0.9400
21.496000 0.9400 0.9420 0.9430 0.9430 0.9450
21.526987 0.9470 0.9480 0.9500 0.9510 0.9510
21.558000 0.9480 0.9480 0.9470 0.9450 0.9450
21.588987 0.9450 0.9450 0.9470 0.9480 0.9500
21.620000 0.9510 0.9510 0.9530 0.9530 0.9530
21.650987 0.9540 0.9560 0.9560 0.9560 0.9560
21.682000 0.9560 0.9560 0.9560 0.9560 0.9560
21.712987 0.9560 0.9560 0.9560 0.9540 0.9540
21.744000 0.9540 0.9540 0.9540 0.9560 0.9560
21.774987 0.9540 0.9540 0.9540 0.9530 0.9530
21.806000 0.9530 0.9530 0.9530 0.9530 0.9560
21.836987 0.9590 0.9610 0.9610 0.9610 0.9610
21.868000 0.9610 0.9590 0.9560 0.9540 0.9540
21.898987 0.9530 0.9530 0.9530 0.9540 0.9540
21.930000 0.9540 0.9530 0.9530 0.9530 0.9530
21.960987 0.9530 0.9530 0.9540 0.9540 0.9560
21.992000 0.9570 0.9590 0.9610 0.9610 0.9610
22.022987 0.9610 0.9610 0.9610 0.9610 0.9610
22.054000 0.9570 0.9540 0.9540 0.9540 0.9540
22.084987 0.9540 0.9540 0.9560 0.9590 0.9590
22.116000 0.9590 0.9590 0.9590 0.9590 0.9590
22.146987 0.9590 0.9570 0.9570 0.9570 0.9570
22.178000 0.9590 0.9590 0.9610 0.9610 0.9620
22.208987 0.9590 0.9590 0.9590 0.9590 0.9590
22.240000 0.9590 0.9590 0.9590 0.9610 0.9610
22.270987 0.9610 0.9610 0.9610 0.9590 0.9590
22.302000 0.9610 0.9610 0.9610 0.9590 0.9570
22.332987 0.9560 0.9560 0.9560 0.9560 0.9560
22.364000 0.9560 0.9560 0.9560 0.9560 0.9560
22.394987 0.9560 0.9560 0.9560 0.9560 0.9560
22.426000 0.9570 0.9590 0.9610 0.9570 0.9560
22.456987 0.9540 0.9540 0.9540 0.9560 0.9570
22.488000 0.9590 0.9590 0.9620 0.9620 0.9620
22.518987 0.9620 0.9610 0.9590 0.9560 0.9560
22.550000 0.9560 0.9560 0.9560 0.9560 0.9570
22.580987 0.9560 0.9560 0.9530 0.9510 0.9530
22.612000 0.9530 0.9540 0.9530 0.9510 0.9500
22.642987 0.9500 0.9510 0.9530 0.9510 0.9510
22.673000 0.9500 0.9510 0.9510 0.9530 0.9530
22.703987 0.9560 0.9610 0.9610 0.9590 0.9570
22.735000 0.9540 0.9530 0.9530 0.9530 0.9540
22.765987 0.9540 0.9570 0.9590 0.9610 0.9620
22.797000 0.9650 0.9650 0.9640 0.9620 0.9610
22.827987 0.9610 0.9590 0.9590 0.9560 0.9540
22.859000 0.9540 0.9540 0.9540 0.9560 0.9560
22.889987 0.9570 0.9570 0.9540 0.9530 0.9510
22.921000 0.9500 0.9500 0.9500 0.9530 0.9510
22.951987 0.9480 0.9470 0.9480 0.9480 0.9510
22.983000 0.9530 0.9530 0.9510 0.9530 0.9530
23.013987 0.9530 0.9560 0.9560 0.9560 0.9570
23.045000 0.9570 0.9560 0.9560 0.9560 0.9540
23.075987 0.9540 0.9530 0.9530 0.9530 0.9530
23.107000 0.9510 0.9510 0.9510 0.9530 0.9540
23.137987 0.9560 0.9560 0.9560 0.9570 0.9570
23.169000 0.9560 0.9540 0.9540 0.9530 0.9530
23.199987 0.9500 0.9500 0.9500 0.9510 0.9510
23.231000 0.9510 0.9510 0.9530 0.9530 0.9540
23.261987 0.9540 0.9560 0.9560 0.9560 0.9560
23.293000 0.9560 0.9560 0.9560 0.9560 0.9540
23.323987 0.9540 0.9540 0.9540 0.9530 0.9530
23.355000 0.9510 0.9500 0.9500 0.9510 0.9530
23.385987 0.9530 0.9530 0.9530 0.9530 0.9530
23.417000 0.9530 0.9530 0.9530 0.9530 0.9530
23.447987 0.9530 0.9540 0.9530 0.9510 0.9500
23.479000 0.9500 0.9500 0.9480 0.9480 0.9470
23.509987 0.9470 0.9470 0.9470 0.9450 0.9420
23.541000 0.9390 0.9390 0.9390 0.9400 0.9400
23.571987 0.9400 0.9400 0.9400 0.9400 0.9420
23.603000 0.9420 0.9420 0.9420 0.9420 0.9420
23.633987 0.9420 0.9420 0.9420 0.9420 0.9420
23.665000 0.9420 0.9420 0.9400 0.9400 0.9390
23.695987 0.9390 0.9370 0.9360 0.9360 0.9360
23.727000 0.9340 0.9330 0.9310 0.9290 0.9280
23.757987 0.9280 0.9260 0.9280 0.9290 0.9330
23.788000 0.9330 0.9330 0.9310 0.9260 0.9250
23.818987 0.9230 0.9220 0.9150 0.9120 0.9110
23.850000 0.9090 0.9090 0.9090 0.9090 0.9040
23.880987 0.9040 0.9040 0.9040 0.9040 0.9040
23.912000 0.9030 0.9030 0.9030 0.9030 0.9040
23.942987 0.9080 0.9110 0.9140 0.9140 0.9110
23.974000 0.9110 0.9090 0.9090 0.9120 0.9120
24.004987 0.9120 0.9120 0.9110 0.9110 0.9090
24.036000 0.9090 0.9090 0.9110 0.9120 0.9150
24.066987 0.9150 0.9150 0.9150 0.9190 0.9220
24.098000 0.9220 0.9200 0.9200 0.9190 0.9190
24.128987 0.9170 0.9150 0.9150 0.9150 0.9140
24.160000 0.9140 0.9140 0.9150 0.9190 0.9220
24.190987 0.9220 0.9190 0.9170 0.9150 0.9150
24.222000 0.9150 0.9150 0.9150 0.9200 0.9230
24.252987 0.9250 0.9220 0.9170 0.9140 0.9120
24.284000 0.9110 0.9090 0.9110 0.9110 0.9110
24.314987 0.9090 0.9090 0.9080 0.9060 0.9060
24.346000 0.9040 0.9030 0.9030 0.9010 0.9000
24.376987 0.9010 0.9010 0.9010 0.9010 0.9000
24.408000 0.8970 0.8950 0.8950 0.8950 0.8980
24.438987 0.8980 0.8970 0.8970 0.8950 0.8940
24.470000 0.8920 0.8920 0.8900 0.8890 0.8870
24.500987 0.8860 0.8840 0.8840 0.8840 0.8840
24.532000 0.8840 0.8840 0.8840 0.8830 0.8830
24.562987 0.8830 0.8830 0.8810 0.8780 0.8760
24.594000 0.8720 0.8690 0.8660 0.8620 0.8610
24.624987 0.8610 0.8610 0.8610 0.8620 0.8620
24.656000 0.8620 0.8640 0.8640 0.8640 0.8640
24.686987 0.8620 0.8560 0.8550 0.8530 0.8520
24.718000 0.8480 0.8480 0.8500 0.8480 0.8480
24.748987 0.8470 0.8450 0.8450 0.8440 0.8440
24.780000 0.8440 0.8420 0.8420 0.8410 0.8380
24.810987 0.8360 0.8340 0.8340 0.8360 0.8360
24.842000 0.8380 0.8360 0.8280 0.8250 0.8250
24.872987 0.8250 0.8250 0.8250 0.8310 0.8330
24.904000 0.8330 0.8310 0.8250 0.8220 0.8220
24.934987 0.8200 0.8200 0.8190 0.8170 0.8160
24.965000 0.8130 0.8110 0.8080 0.8050 0.8030
24.995987 0.8020 0.8000 0.8020 0.8020 0.8020
25.027000 0.8000 0.7910 0.7880 0.7860 0.7800
25.057987 0.7750 0.7720 0.7710 0.7710 0.7710
25.089000 0.7710 0.7710 0.7690 0.7670 0.7640
25.119987 0.7640 0.7640 0.7630 0.7630 0.7610
25.151000 0.7600 0.7600 0.7580 0.7600 0.7600
25.181987 0.7600 0.7610 0.7610 0.7610 0.7610
25.213000 0.7610 0.7630 0.7630 0.7660 0.7710
25.243987 0.7720 0.7740 0.7720 0.7710 0.7660
25.275000 0.7640 0.7640 0.7640 0.7660 0.7660
25.305987 0.7670 0.7690 0.7670 0.7670 0.7670
25.337000 0.7670 0.7670 0.7640 0.7610 0.7610
25.367987 0.7610 0.7610 0.7660 0.7710 0.7710
25.399000 0.7710 0.7710 0.7710 0.7710 0.7690
25.429987 0.7690 0.7690 0.7670 0.7670 0.7670
25.461000 0.7670 0.7670 0.7670 0.7670 0.7670
25.491987 0.7710 0.7710 0.7640 0.7640 0.7660
25.523000 0.7670 0.7710 0.7710 0.7670 0.7640
25.553987 0.7630 0.7610 0.7600 0.7580 0.7580
25.585000 0.7570 0.7570 0.7520 0.7520 0.7530
25.615987 0.7550 0.7550 0.7550 0.7550 0.7580
25.647000 0.7580 0.7520 0.7500 0.7490 0.7470
25.677987 0.7440 0.7440 0.7440 0.7440 0.7440
25.709000 0.7420 0.7420 0.7410 0.7410 0.7410
25.739987 0.7410 0.7410 0.7410 0.7390 0.7360
25.771000 0.7350 0.7350 0.7360 0.7360 0.7410
25.801987 0.7410 0.7320 0.7280 0.7270 0.7240
25.833000 0.7250 0.7300 0.7250 0.7250 0.7250
25.863987 0.7250 0.7250 0.7250 0.7250 0.7270
25.895000 0.7280 0.7300 0.7320 0.7320 0.7320
25.925987 0.7300 0.7270 0.7220 0.7190 0.7180
25.957000 0.7140 0.7130 0.7100 0.7100 0.7080
25.987987 0.7100 0.7100 0.7110 0.7100
##END=
