##TITLE=DECANE, 1-BROMO-
##JCAMP-DX=4.24
##DATA TYPE=INFRARED SPECTRUM
##CLASS=COBLENTZ III
##ORIGIN=DOW CHEMICAL COMPANY
##OWNER=COBLENTZ SOCIETY
Collection (C) 2018 copyright by the U.S. Secretary of Commerce
on behalf of the United States of America. All rights reserved.
##DATE=1964/04/16
##NAMES=1-bromodecane
##CAS REGISTRY NO=112-29-8
##MOLFORM=C10 H21 Br
##SOURCE REFERENCE=COBLENTZ NO. 10008
##$NIST SOURCE=COBLENTZ
##$NIST IMAGE=cob10008
##SPECTROMETER/DATA SYSTEM=DOW KBr FOREPRISM-GRATING
##INSTRUMENT PARAMETERS=BLAZED AT 3.5, 12.0, 20.0 MICRON, CHANGED AT 5.0, 7.5, 14.9 MICRON
##STATE=SOLUTION (10% IN CCl4 FOR 3800-1333, AND 10% IN CS2 FOR 1333-450 CM^-^1)
##PATH LENGTH=0.011, 0.011 CM
$$SPECTRAL CONTAMINATION DUE TO CCl4 AROUND 1550, AND CS2 AROUND 855 CM^-^1
##SAMPLING PROCEDURE=TRANSMISSION
##RESOLUTION=4
##DATA PROCESSING=DIGITIZED BY NIST FROM HARD COPY (FROM TWO SEGMENTS)
##XUNITS=1/CM
##YUNITS=TRANSMITTANCE
##XFACTOR=1.000000
##YFACTOR=1
##DELTAX=0.868622
##FIRSTX=450.38
##LASTX=3794.58
##FIRSTY=0.961
##MAXX=3794.58
##MINX=450.38
##MAXY=1.032
##MINY=0.008
##NPOINTS=3851
##XYDATA=(X++(Y..Y))
450.380000 0.9610 0.9630 0.9660 0.9660 0.9660
454.723112 0.9660 0.9660 0.9670 0.9670 0.9680
459.066224 0.9680 0.9700 0.9710 0.9720 0.9720
463.409337 0.9740 0.9750 0.9760 0.9760 0.9760
467.752449 0.9780 0.9780 0.9790 0.9790 0.9800
472.095561 0.9800 0.9800 0.9820 0.9820 0.9800
476.438673 0.9800 0.9820 0.9830 0.9850 0.9860
480.781785 0.9870 0.9870 0.9870 0.9870 0.9870
485.124898 0.9890 0.9900 0.9900 0.9910 0.9910
489.468010 0.9930 0.9930 0.9910 0.9910 0.9910
493.811122 0.9930 0.9930 0.9930 0.9930 0.9940
498.154234 0.9940 1.0000 1.0010 1.0020 1.0020
502.497346 1.0020 1.0010 1.0010 1.0000 1.0000
506.840459 0.9980 0.9980 0.9980 1.0020 1.0020
511.183571 1.0020 1.0020 1.0020 1.0020 1.0020
515.526683 1.0020 1.0020 1.0020 1.0020 1.0040
519.869795 1.0040 1.0010 1.0010 1.0010 1.0010
524.212907 1.0020 1.0020 1.0010 1.0010 1.0020
528.556020 1.0020 1.0010 0.9980 1.0000 1.0010
532.899132 1.0020 1.0020 1.0020 1.0020 1.0020
537.242244 1.0040 1.0040 1.0040 1.0050 1.0050
541.585356 1.0040 1.0040 1.0020 1.0020 1.0020
545.928468 1.0020 1.0020 1.0020 1.0010 1.0000
550.271581 0.9980 0.9970 0.9940 0.9910 0.9890
554.614693 0.9860 0.9830 0.9800 0.9780 0.9750
558.957805 0.9670 0.9550 0.9411 0.9231 0.9071
563.300917 0.8880 0.8620 0.8300 0.8110 0.8080
567.644029 0.7861 0.7860 0.8159 0.8528 0.8749
571.987142 0.8910 0.8960 0.9110 0.9230 0.9360
576.330254 0.9420 0.9520 0.9600 0.9739 0.9859
580.673366 1.0020 1.0050 1.0090 1.0120 1.0140
585.016478 1.0170 1.0190 1.0190 1.0200 1.0240
589.359590 1.0250 1.0270 1.0270 1.0270 1.0270
593.702703 1.0280 1.0290 1.0290 1.0310 1.0310
598.045815 1.0290 1.0310 1.0310 1.0310 1.0310
602.388927 1.0310 1.0310 1.0320 1.0320 1.0310
606.732039 1.0310 1.0310 1.0310 1.0310 1.0310
611.075151 1.0290 1.0280 1.0280 1.0270 1.0270
615.418264 1.0270 1.0250 1.0250 1.0250 1.0250
619.761376 1.0240 1.0230 1.0190 1.0190 1.0170
624.104488 1.0140 1.0130 1.0100 1.0080 1.0080
628.447600 1.0050 1.0040 1.0010 1.0000 0.9970
632.790712 0.9940 0.9910 0.9830 0.9790 0.9700
637.133825 0.9600 0.9381 0.9211 0.9071 0.8941
641.476937 0.8830 0.8690 0.8540 0.8191 0.8020
645.820049 0.7880 0.7701 0.7551 0.7510 0.7510
650.163161 0.7580 0.7730 0.7900 0.8070 0.8240
654.506273 0.8420 0.8540 0.8699 0.8879 0.8950
658.849386 0.9180 0.9360 0.9480 0.9590 0.9660
663.192498 0.9710 0.9760 0.9800 0.9830 0.9890
667.535610 0.9910 0.9950 0.9970 0.9980 1.0000
671.878722 1.0010 1.0020 1.0020 1.0040 1.0050
676.221834 1.0050 1.0060 1.0060 1.0050 1.0050
680.564947 1.0050 1.0050 1.0050 1.0040 1.0040
684.908059 1.0040 1.0040 1.0040 1.0040 1.0040
689.251171 1.0040 1.0040 1.0040 1.0020 1.0020
693.594283 1.0020 1.0010 1.0010 1.0000 1.0000
697.937395 1.0000 0.9980 0.9940 0.9900 0.9850
702.280508 0.9820 0.9800 0.9790 0.9780 0.9710
706.623620 0.9660 0.9600 0.9570 0.9421 0.9291
710.966732 0.9260 0.9230 0.9150 0.9070 0.8910
715.309844 0.8800 0.8650 0.8510 0.8271 0.8220
719.652956 0.7540 0.7430 0.7430 0.7590 0.7859
723.996069 0.8069 0.8219 0.8320 0.8410 0.8460
728.339181 0.8500 0.8530 0.8580 0.8640 0.8720
732.682293 0.8760 0.8830 0.8890 0.8940 0.8950
737.025405 0.9000 0.9030 0.9070 0.9130 0.9150
741.368517 0.9210 0.9230 0.9260 0.9270 0.9300
745.711630 0.9330 0.9330 0.9330 0.9360 0.9380
750.054742 0.9450 0.9510 0.9550 0.9570 0.9600
754.397854 0.9630 0.9680 0.9710 0.9720 0.9780
758.740966 0.9780 0.9800 0.9790 0.9760 0.9760
763.084078 0.9750 0.9750 0.9750 0.9750 0.9750
767.427191 0.9750 0.9750 0.9750 0.9780 0.9790
771.770303 0.9790 0.9790 0.9800 0.9820 0.9830
776.113415 0.9850 0.9860 0.9870 0.9870 0.9870
780.456527 0.9860 0.9860 0.9870 0.9870 0.9890
784.799639 0.9890 0.9910 0.9910 0.9910 0.9910
789.142752 0.9910 0.9930 0.9930 0.9930 0.9910
793.485864 0.9910 0.9900 0.9890 0.9890 0.9870
797.828976 0.9860 0.9830 0.9800 0.9790 0.9790
802.172088 0.9780 0.9780 0.9780 0.9780 0.9780
806.515200 0.9790 0.9790 0.9790 0.9800 0.9830
810.858313 0.9850 0.9870 0.9890 0.9900 0.9910
815.201425 0.9930 0.9940 0.9940 0.9950 0.9940
819.544537 0.9940 0.9940 0.9930 0.9930 0.9910
823.887649 0.9910 0.9910 0.9900 0.9890 0.9890
828.230761 0.9870 0.9860 0.9830 0.9800 0.9780
832.573874 0.9760 0.9720 0.9700 0.9660 0.9610
836.916986 0.9560 0.9520 0.9470 0.9410 0.9360
841.260098 0.9290 0.9220 0.9170 0.9110 0.9020
845.603210 0.8950 0.8920 0.8810 0.8760 0.8660
849.946322 0.8540 0.8460 0.8390 0.8350 0.8340
854.289435 0.8340 0.8350 0.8380 0.8390 0.8420
858.632547 0.8450 0.8470 0.8510 0.8540 0.8570
862.975659 0.8570 0.8620 0.8650 0.8700 0.8730
867.318771 0.8760 0.8790 0.8810 0.8850 0.8890
871.661883 0.8940 0.8960 0.9000 0.9030 0.9060
876.004996 0.9070 0.9130 0.9140 0.9150 0.9190
880.348108 0.9230 0.9270 0.9320 0.9330 0.9340
884.691220 0.9360 0.9370 0.9400 0.9420 0.9450
889.034332 0.9480 0.9520 0.9570 0.9630 0.9680
893.377444 0.9740 0.9790 0.9790 0.9820 0.9830
897.720557 0.9850 0.9870 0.9900 0.9930 0.9940
902.063669 0.9940 0.9940 0.9940 0.9950 0.9950
906.406781 0.9970 1.0000 1.0010 1.0010 1.0020
910.749893 1.0020 1.0020 1.0020 1.0020 1.0040
915.093005 1.0050 1.0050 1.0080 1.0080 1.0090
919.436118 1.0090 1.0100 1.0100 1.0100 1.0100
923.779230 1.0120 1.0120 1.0120 1.0120 1.0100
928.122342 1.0100 1.0100 1.0100 1.0100 1.0100
932.465454 1.0100 1.0100 1.0100 1.0100 1.0100
936.808566 1.0090 1.0090 1.0090 1.0080 1.0060
941.151679 1.0040 1.0020 1.0020 1.0010 1.0000
945.494791 0.9980 0.9970 0.9940 0.9930 0.9930
949.837903 0.9910 0.9910 0.9930 0.9930 0.9940
954.181015 0.9950 0.9950 1.0000 1.0010 1.0010
958.524127 1.0020 1.0020 1.0050 1.0050 1.0080
962.867240 1.0080 1.0080 1.0090 1.0100 1.0120
967.210352 1.0120 1.0120 1.0120 1.0120 1.0120
971.553464 1.0120 1.0120 1.0120 1.0120 1.0120
975.896576 1.0130 1.0140 1.0140 1.0140 1.0160
980.239688 1.0160 1.0160 1.0160 1.0160 1.0160
984.582801 1.0160 1.0170 1.0170 1.0190 1.0200
988.925913 1.0200 1.0190 1.0170 1.0170 1.0170
993.269025 1.0170 1.0160 1.0160 1.0160 1.0160
997.612137 1.0160 1.0160 1.0160 1.0140 1.0130
1001.955249 1.0130 1.0130 1.0130 1.0130 1.0120
1006.298362 1.0120 1.0120 1.0120 1.0120 1.0100
1010.641474 1.0090 1.0090 1.0090 1.0080 1.0060
1014.984586 1.0050 1.0020 1.0020 1.0020 1.0020
1019.327698 1.0010 1.0010 1.0010 1.0010 1.0000
1023.670810 1.0000 0.9980 0.9970 0.9950 0.9940
1028.013923 0.9910 0.9900 0.9900 0.9900 0.9890
1032.357035 0.9890 0.9890 0.9870 0.9870 0.9860
1036.700147 0.9860 0.9850 0.9850 0.9830 0.9820
1041.043259 0.9850 0.9860 0.9870 0.9890 0.9890
1045.386371 0.9890 0.9890 0.9890 0.9900 0.9900
1049.729484 0.9900 0.9900 0.9900 0.9900 0.9900
1054.072596 0.9900 0.9900 0.9910 0.9910 0.9910
1058.415708 0.9910 0.9910 0.9910 0.9930 0.9930
1062.758820 0.9940 0.9940 0.9940 0.9950 0.9950
1067.101932 0.9940 0.9930 0.9930 0.9910 0.9900
1071.445045 0.9890 0.9890 0.9890 0.9890 0.9890
1075.788157 0.9900 0.9900 0.9910 1.0000 1.0010
1080.131269 1.0020 1.0040 1.0040 1.0040 1.0040
1084.474381 1.0040 1.0040 1.0050 1.0050 1.0060
1088.817493 1.0060 1.0080 1.0090 1.0100 1.0120
1093.160606 1.0130 1.0140 1.0160 1.0160 1.0170
1097.503718 1.0170 1.0170 1.0190 1.0190 1.0200
1101.846830 1.0200 1.0200 1.0200 1.0210 1.0210
1106.189942 1.0200 1.0200 1.0200 1.0190 1.0170
1110.533054 1.0160 1.0160 1.0160 1.0160 1.0160
1114.876167 1.0160 1.0190 1.0190 1.0200 1.0200
1119.219279 1.0210 1.0250 1.0270 1.0270 1.0270
1123.562391 1.0270 1.0250 1.0250 1.0240 1.0240
1127.905503 1.0250 1.0270 1.0280 1.0290 1.0280
1132.248615 1.0280 1.0280 1.0270 1.0250 1.0250
1136.591728 1.0210 1.0190 1.0170 1.0160 1.0130
1140.934840 1.0120 1.0120 1.0100 1.0090 1.0080
1145.277952 1.0080 1.0080 1.0080 1.0080 1.0090
1149.621064 1.0100 1.0120 1.0120 1.0130 1.0140
1153.964176 1.0140 1.0140 1.0130 1.0130 1.0130
1158.307289 1.0120 1.0120 1.0120 1.0120 1.0120
1162.650401 1.0100 1.0100 1.0090 1.0090 1.0080
1166.993513 1.0080 1.0080 1.0080 1.0050 1.0050
1171.336625 1.0040 1.0040 1.0040 1.0020 1.0020
1175.679737 1.0000 0.9950 0.9910 0.9870 0.9860
1180.022850 0.9860 0.9870 0.9890 0.9900 0.9900
1184.365962 0.9900 0.9900 0.9900 0.9870 0.9850
1188.709074 0.9820 0.9790 0.9700 0.9630 0.9610
1193.052186 0.9610 0.9610 0.9610 0.9610 0.9600
1197.395298 0.9600 0.9590 0.9550 0.9510 0.9470
1201.738411 0.9370 0.9250 0.9170 0.9080 0.8960
1206.081523 0.8760 0.8720 0.8690 0.8690 0.8720
1210.424635 0.8750 0.8770 0.8770 0.8750 0.8730
1214.767747 0.8720 0.8640 0.8570 0.8540 0.8530
1219.110859 0.8300 0.8081 0.8070 0.8080 0.8090
1223.453972 0.8150 0.8190 0.8340 0.8450 0.8530
1227.797084 0.8540 0.8580 0.8720 0.8730 0.8730
1232.140196 0.8680 0.8660 0.8610 0.8550 0.8510
1236.483308 0.8360 0.8220 0.8130 0.8000 0.7641
1240.826420 0.7140 0.7050 0.7030 0.7020 0.7020
1245.169533 0.7020 0.7020 0.7010 0.6980 0.6970
1249.512645 0.6920 0.6920 0.6940 0.7010 0.7030
1253.855757 0.7070 0.7110 0.7240 0.7360 0.7500
1258.198869 0.7580 0.7630 0.7750 0.7790 0.7780
1262.541981 0.7770 0.7600 0.7500 0.7410 0.7370
1266.885094 0.7360 0.7350 0.7360 0.7430 0.7540
1271.228206 0.7630 0.7750 0.7770 0.7820 0.7920
1275.571318 0.7960 0.8040 0.8090 0.8120 0.8130
1279.914430 0.8150 0.8160 0.8190 0.8220 0.8280
1284.257542 0.8320 0.8350 0.8350 0.8320 0.8260
1288.600655 0.8200 0.8160 0.8150 0.8130 0.8120
1292.943767 0.8110 0.8110 0.8120 0.8130 0.8150
1297.286879 0.8150 0.8150 0.8150 0.8160 0.8190
1301.629991 0.8200 0.8220 0.8240 0.8280 0.8320
1305.973103 0.8340 0.8390 0.8450 0.8510 0.8530
1310.316216 0.8580 0.8650 0.8760 0.8770 0.8800
1314.659328 0.8810 0.8840 0.8920 0.8920 0.8950
1319.002440 0.8980 0.8980 0.9000 0.9030 0.9070
1323.345552 0.9080 0.9130 0.9130 0.9140 0.9150
1327.688664 0.9180 0.9180 0.9180 0.9170 0.9140
1332.031777 0.9130 0.9080 0.9000 0.9000 0.8960
1336.374889 0.8920 0.8830 0.8920 0.9000 0.8950
1340.718001 0.8940 0.8940 0.8920 0.8940 0.8990
1345.061113 0.9030 0.9060 0.9130 0.9140 0.9130
1349.404225 0.9100 0.9080 0.9060 0.9030 0.9030
1353.747338 0.9020 0.9020 0.9030 0.9030 0.9060
1358.090450 0.9140 0.9170 0.9220 0.9230 0.9230
1362.433562 0.9220 0.9210 0.9170 0.9140 0.9130
1366.776674 0.9080 0.9060 0.9020 0.9000 0.8940
1371.119786 0.8870 0.8800 0.8770 0.8750 0.8720
1375.462899 0.8700 0.8640 0.8610 0.8540 0.8470
1379.806011 0.8239 0.7550 0.7410 0.8170 0.8719
1384.149123 0.8800 0.8910 0.8960 0.9070 0.9180
1388.492235 0.9210 0.9230 0.9320 0.9340 0.9380
1392.835347 0.9400 0.9410 0.9440 0.9450 0.9470
1397.178460 0.9470 0.9480 0.9490 0.9510 0.9510
1401.521572 0.9510 0.9490 0.9490 0.9490 0.9490
1405.864684 0.9480 0.9480 0.9470 0.9470 0.9450
1410.207796 0.9440 0.9420 0.9410 0.9400 0.9360
1414.550908 0.9340 0.9340 0.9330 0.9300 0.9270
1418.894021 0.9250 0.9220 0.9190 0.9170 0.9140
1423.237133 0.9130 0.9040 0.9020 0.8980 0.8940
1427.580245 0.8870 0.8750 0.8660 0.8501 0.7932
1431.923357 0.7160 0.7090 0.7090 0.7290 0.7410
1436.266469 0.7430 0.7410 0.7290 0.6762 0.6302
1440.609582 0.6300 0.6410 0.6450 0.6610 0.6710
1444.952694 0.6860 0.6870 0.6860 0.6840 0.6800
1449.295806 0.6730 0.6630 0.6450 0.6250 0.6040
1453.638918 0.5860 0.5690 0.5520 0.5360 0.5171
1457.982030 0.4940 0.4850 0.4670 0.4550 0.4490
1462.325143 0.4480 0.4450 0.4450 0.4410 0.4320
1466.668255 0.4140 0.3850 0.3760 0.3760 0.3940
1471.011367 0.4739 0.5648 0.5820 0.6877 0.7448
1475.354479 0.7820 0.7980 0.8160 0.8270 0.8350
1479.697591 0.8420 0.8510 0.8550 0.8620 0.8640
1484.040704 0.8650 0.8650 0.8650 0.8650 0.8640
1488.383816 0.8640 0.8640 0.8620 0.8610 0.8600
1492.726928 0.8580 0.8550 0.8530 0.8510 0.8510
1497.070040 0.8460 0.8420 0.8390 0.8360 0.8310
1501.413152 0.8270 0.8220 0.8190 0.8150 0.8090
1505.756265 0.8050 0.7970 0.7960 0.7940 0.7880
1510.099377 0.7850 0.7780 0.7710 0.7640 0.7590
1514.442489 0.7520 0.7480 0.7440 0.7410 0.7390
1518.785601 0.7370 0.7300 0.7250 0.7220 0.7160
1523.128713 0.7130 0.7100 0.7060 0.7010 0.6950
1527.471826 0.6920 0.6880 0.6820 0.6730 0.6650
1531.814938 0.6570 0.6500 0.6460 0.6440 0.6330
1536.158050 0.6290 0.6160 0.6080 0.6030 0.5910
1540.501162 0.5720 0.5590 0.5510 0.5430 0.5360
1544.844274 0.5350 0.5270 0.5240 0.5140 0.5100
1549.187387 0.5090 0.5020 0.5010 0.5010 0.5020
1553.530499 0.5120 0.5140 0.5190 0.5250 0.5360
1557.873611 0.5460 0.5550 0.5590 0.5690 0.5770
1562.216723 0.5840 0.5920 0.5990 0.6040 0.6110
1566.559835 0.6160 0.6220 0.6290 0.6350 0.6410
1570.902948 0.6480 0.6530 0.6570 0.6630 0.6680
1575.246060 0.6720 0.6750 0.6760 0.6790 0.6800
1579.589172 0.6830 0.6840 0.6870 0.6900 0.6920
1583.932284 0.6950 0.6990 0.7020 0.7070 0.7090
1588.275396 0.7110 0.7170 0.7240 0.7330 0.7410
1592.618509 0.7510 0.7580 0.7640 0.7750 0.7919
1596.961621 0.8050 0.8160 0.8190 0.8310 0.8420
1601.304733 0.8500 0.8580 0.8640 0.8660 0.8720
1605.647845 0.8790 0.8840 0.8920 0.8950 0.8990
1609.990957 0.9040 0.9110 0.9150 0.9170 0.9180
1614.334070 0.9210 0.9260 0.9330 0.9330 0.9360
1618.677182 0.9370 0.9400 0.9410 0.9450 0.9480
1623.020294 0.9490 0.9510 0.9510 0.9530 0.9550
1627.363406 0.9560 0.9570 0.9570 0.9570 0.9600
1631.706518 0.9610 0.9610 0.9630 0.9630 0.9640
1636.049631 0.9660 0.9660 0.9660 0.9660 0.9670
1640.392743 0.9670 0.9700 0.9700 0.9680 0.9680
1644.735855 0.9680 0.9680 0.9700 0.9710 0.9720
1649.078967 0.9720 0.9720 0.9740 0.9740 0.9720
1653.422079 0.9720 0.9710 0.9710 0.9710 0.9710
1657.765192 0.9710 0.9710 0.9710 0.9710 0.9710
1662.108304 0.9710 0.9710 0.9700 0.9700 0.9710
1666.451416 0.9710 0.9710 0.9720 0.9720 0.9720
1670.794528 0.9720 0.9720 0.9720 0.9710 0.9710
1675.137640 0.9710 0.9710 0.9710 0.9710 0.9720
1679.480753 0.9720 0.9710 0.9710 0.9720 0.9710
1683.823865 0.9710 0.9710 0.9710 0.9710 0.9720
1688.166977 0.9720 0.9720 0.9720 0.9720 0.9720
1692.510089 0.9720 0.9720 0.9720 0.9720 0.9720
1696.853201 0.9720 0.9720 0.9720 0.9720 0.9720
1701.196314 0.9720 0.9720 0.9720 0.9740 0.9740
1705.539426 0.9740 0.9740 0.9740 0.9740 0.9740
1709.882538 0.9740 0.9750 0.9750 0.9740 0.9740
1714.225650 0.9740 0.9740 0.9740 0.9740 0.9740
1718.568762 0.9750 0.9740 0.9740 0.9740 0.9740
1722.911875 0.9740 0.9740 0.9740 0.9740 0.9740
1727.254987 0.9740 0.9740 0.9740 0.9740 0.9750
1731.598099 0.9750 0.9740 0.9740 0.9740 0.9740
1735.941211 0.9720 0.9720 0.9720 0.9720 0.9720
1740.284323 0.9720 0.9720 0.9710 0.9710 0.9710
1744.627436 0.9710 0.9710 0.9720 0.9720 0.9720
1748.970548 0.9720 0.9720 0.9720 0.9720 0.9710
1753.313660 0.9710 0.9710 0.9710 0.9710 0.9700
1757.656772 0.9680 0.9680 0.9670 0.9670 0.9680
1761.999884 0.9680 0.9700 0.9700 0.9710 0.9710
1766.342997 0.9710 0.9710 0.9700 0.9700 0.9680
1770.686109 0.9680 0.9680 0.9680 0.9680 0.9680
1775.029221 0.9680 0.9680 0.9680 0.9680 0.9680
1779.372333 0.9680 0.9680 0.9680 0.9680 0.9680
1783.715445 0.9680 0.9680 0.9670 0.9670 0.9660
1788.058558 0.9660 0.9670 0.9670 0.9670 0.9670
1792.401670 0.9680 0.9680 0.9680 0.9680 0.9680
1796.744782 0.9670 0.9660 0.9630 0.9630 0.9640
1801.087894 0.9660 0.9660 0.9660 0.9660 0.9660
1805.431006 0.9660 0.9660 0.9660 0.9660 0.9660
1809.774119 0.9660 0.9630 0.9600 0.9590 0.9590
1814.117231 0.9590 0.9610 0.9610 0.9610 0.9610
1818.460343 0.9630 0.9630 0.9630 0.9630 0.9630
1822.803455 0.9630 0.9640 0.9630 0.9630 0.9630
1827.146567 0.9610 0.9610 0.9610 0.9610 0.9610
1831.489680 0.9610 0.9610 0.9630 0.9630 0.9630
1835.832792 0.9630 0.9630 0.9630 0.9630 0.9630
1840.175904 0.9630 0.9630 0.9610 0.9630 0.9610
1844.519016 0.9610 0.9610 0.9590 0.9590 0.9590
1848.862128 0.9590 0.9590 0.9590 0.9590 0.9590
1853.205241 0.9590 0.9590 0.9590 0.9590 0.9590
1857.548353 0.9590 0.9590 0.9590 0.9590 0.9590
1861.891465 0.9570 0.9570 0.9590 0.9590 0.9600
1866.234577 0.9610 0.9610 0.9610 0.9610 0.9610
1870.577689 0.9600 0.9600 0.9600 0.9610 0.9610
1874.920802 0.9610 0.9630 0.9630 0.9640 0.9640
1879.263914 0.9640 0.9640 0.9640 0.9630 0.9630
1883.607026 0.9630 0.9630 0.9630 0.9630 0.9630
1887.950138 0.9630 0.9630 0.9630 0.9630 0.9630
1892.293250 0.9630 0.9630 0.9630 0.9630 0.9630
1896.636363 0.9630 0.9630 0.9630 0.9630 0.9630
1900.979475 0.9600 0.9630 0.9630 0.9630 0.9630
1905.322587 0.9630 0.9630 0.9640 0.9640 0.9640
1909.665699 0.9640 0.9640 0.9660 0.9660 0.9660
1914.008811 0.9660 0.9660 0.9660 0.9660 0.9660
1918.351924 0.9660 0.9640 0.9640 0.9640 0.9640
1922.695036 0.9660 0.9660 0.9660 0.9660 0.9660
1927.038148 0.9660 0.9660 0.9660 0.9640 0.9640
1931.381260 0.9640 0.9640 0.9640 0.9640 0.9640
1935.724372 0.9640 0.9640 0.9640 0.9640 0.9640
1940.067485 0.9640 0.9640 0.9640 0.9640 0.9640
1944.410597 0.9640 0.9640 0.9640 0.9640 0.9640
1948.753709 0.9640 0.9640 0.9640 0.9640 0.9640
1953.096821 0.9660 0.9660 0.9660 0.9660 0.9660
1957.439933 0.9660 0.9660 0.9660 0.9640 0.9640
1961.783046 0.9630 0.9630 0.9630 0.9630 0.9630
1966.126158 0.9630 0.9630 0.9640 0.9660 0.9660
1970.469270 0.9670 0.9660 0.9640 0.9640 0.9630
1974.812382 0.9630 0.9630 0.9630 0.9630 0.9630
1979.155494 0.9630 0.9630 0.9630 0.9630 0.9630
1983.498607 0.9610 0.9610 0.9610 0.9600 0.9600
1987.841719 0.9600 0.9600 0.9600 0.9610 0.9610
1992.184831 0.9600 0.9560 0.9530 0.9450 0.9230
1996.527943 0.9230 0.9360 0.9470 0.9570 0.9590
2000.871055 0.9615 0.9640 0.9660 0.9680 0.9690
2005.214168 0.9700 0.9705 0.9710 0.9710 0.9710
2009.557280 0.9710 0.9710 0.9710 0.9710 0.9710
2013.900392 0.9710 0.9710 0.9710 0.9710 0.9710
2018.243504 0.9710 0.9710 0.9710 0.9710 0.9710
2022.586616 0.9710 0.9710 0.9710 0.9710 0.9710
2026.929729 0.9705 0.9700 0.9705 0.9710 0.9710
2031.272841 0.9710 0.9715 0.9720 0.9720 0.9720
2035.615953 0.9720 0.9720 0.9720 0.9720 0.9720
2039.959065 0.9720 0.9720 0.9720 0.9730 0.9740
2044.302177 0.9730 0.9720 0.9720 0.9720 0.9730
2048.645290 0.9740 0.9740 0.9740 0.9745 0.9750
2052.988402 0.9750 0.9750 0.9750 0.9750 0.9755
2057.331514 0.9760 0.9760 0.9760 0.9760 0.9760
2061.674626 0.9760 0.9760 0.9755 0.9750 0.9750
2066.017738 0.9750 0.9745 0.9739 0.9729 0.9720
2070.360851 0.9715 0.9710 0.9710 0.9710 0.9710
2074.703963 0.9710 0.9710 0.9711 0.9726 0.9741
2079.047075 0.9761 0.9780 0.9785 0.9790 0.9790
2083.390187 0.9790 0.9790 0.9790 0.9790 0.9790
2087.733299 0.9790 0.9790 0.9790 0.9790 0.9790
2092.076412 0.9790 0.9790 0.9790 0.9795 0.9800
2096.419524 0.9795 0.9790 0.9790 0.9790 0.9790
2100.762636 0.9790 0.9795 0.9800 0.9800 0.9800
2105.105748 0.9800 0.9800 0.9800 0.9799 0.9794
2109.448860 0.9790 0.9790 0.9790 0.9790 0.9790
2113.791973 0.9790 0.9790 0.9790 0.9790 0.9790
2118.135085 0.9790 0.9790 0.9790 0.9790 0.9790
2122.478197 0.9790 0.9790 0.9790 0.9791 0.9796
2126.821309 0.9799 0.9794 0.9790 0.9790 0.9790
2131.164421 0.9790 0.9790 0.9790 0.9789 0.9784
2135.507534 0.9781 0.9786 0.9790 0.9790 0.9789
2139.850646 0.9784 0.9780 0.9780 0.9780 0.9780
2144.193758 0.9780 0.9780 0.9780 0.9780 0.9780
2148.536870 0.9780 0.9779 0.9769 0.9759 0.9754
2152.879982 0.9750 0.9750 0.9750 0.9750 0.9750
2157.223095 0.9750 0.9750 0.9750 0.9750 0.9750
2161.566207 0.9751 0.9756 0.9760 0.9760 0.9760
2165.909319 0.9760 0.9760 0.9760 0.9760 0.9760
2170.252431 0.9762 0.9772 0.9780 0.9780 0.9780
2174.595543 0.9780 0.9780 0.9780 0.9780 0.9780
2178.938656 0.9780 0.9780 0.9780 0.9780 0.9780
2183.281768 0.9780 0.9780 0.9780 0.9780 0.9780
2187.624880 0.9780 0.9780 0.9778 0.9768 0.9760
2191.967992 0.9760 0.9760 0.9760 0.9760 0.9760
2196.311104 0.9760 0.9760 0.9760 0.9760 0.9760
2200.654217 0.9760 0.9760 0.9760 0.9760 0.9760
2204.997329 0.9760 0.9760 0.9760 0.9760 0.9760
2209.340441 0.9760 0.9762 0.9772 0.9780 0.9780
2213.683553 0.9778 0.9768 0.9760 0.9760 0.9760
2218.026665 0.9760 0.9760 0.9760 0.9760 0.9760
2222.369778 0.9760 0.9760 0.9760 0.9760 0.9759
2226.712890 0.9754 0.9750 0.9750 0.9750 0.9750
2231.056002 0.9750 0.9750 0.9750 0.9750 0.9750
2235.399114 0.9750 0.9750 0.9750 0.9749 0.9744
2239.742226 0.9738 0.9728 0.9720 0.9720 0.9720
2244.085339 0.9720 0.9720 0.9720 0.9720 0.9720
2248.428451 0.9720 0.9720 0.9720 0.9720 0.9719
2252.771563 0.9714 0.9709 0.9704 0.9700 0.9700
2257.114675 0.9698 0.9688 0.9680 0.9680 0.9680
2261.457787 0.9680 0.9679 0.9674 0.9670 0.9670
2265.800900 0.9669 0.9664 0.9657 0.9647 0.9639
2270.144012 0.9634 0.9627 0.9617 0.9610 0.9610
2274.487124 0.9609 0.9604 0.9599 0.9594 0.9587
2278.830236 0.9577 0.9570 0.9570 0.9570 0.9570
2283.173348 0.9570 0.9570 0.9570 0.9570 0.9570
2287.516461 0.9570 0.9570 0.9570 0.9569 0.9564
2291.859573 0.9560 0.9560 0.9560 0.9560 0.9561
2296.202685 0.9566 0.9570 0.9570 0.9570 0.9570
2300.545797 0.9570 0.9570 0.9570 0.9570 0.9570
2304.888909 0.9570 0.9570 0.9570 0.9573 0.9583
2309.232022 0.9590 0.9590 0.9591 0.9597 0.9600
2313.575134 0.9600 0.9602 0.9607 0.9610 0.9610
2317.918246 0.9613 0.9623 0.9632 0.9637 0.9640
2322.261358 0.9640 0.9643 0.9653 0.9660 0.9660
2326.604470 0.9662 0.9667 0.9670 0.9670 0.9657
2330.947583 0.9617 0.9585 0.9570 0.9562 0.9567
2335.290695 0.9601 0.9696 0.9760 0.9760 0.9754
2339.633807 0.9734 0.9717 0.9707 0.9695 0.9680
2343.976919 0.9672 0.9677 0.9685 0.9700 0.9715
2348.320031 0.9730 0.9747 0.9767 0.9782 0.9787
2352.663144 0.9790 0.9790 0.9790 0.9790 0.9790
2357.006256 0.9790 0.9790 0.9790 0.9788 0.9783
2361.349368 0.9780 0.9780 0.9780 0.9780 0.9782
2365.692480 0.9787 0.9790 0.9790 0.9790 0.9790
2370.035592 0.9790 0.9790 0.9788 0.9783 0.9780
2374.378705 0.9780 0.9776 0.9766 0.9760 0.9760
2378.721817 0.9764 0.9774 0.9780 0.9780 0.9780
2383.064929 0.9780 0.9780 0.9780 0.9780 0.9780
2387.408041 0.9780 0.9780 0.9780 0.9780 0.9780
2391.751153 0.9780 0.9780 0.9780 0.9780 0.9780
2396.094266 0.9780 0.9780 0.9780 0.9780 0.9780
2400.437378 0.9780 0.9782 0.9787 0.9788 0.9783
2404.780490 0.9780 0.9780 0.9780 0.9780 0.9780
2409.123602 0.9780 0.9780 0.9780 0.9782 0.9787
2413.466714 0.9790 0.9790 0.9790 0.9790 0.9790
2417.809827 0.9790 0.9790 0.9790 0.9790 0.9790
2422.152939 0.9790 0.9790 0.9790 0.9790 0.9790
2426.496051 0.9790 0.9790 0.9790 0.9792 0.9797
2430.839163 0.9800 0.9800 0.9800 0.9800 0.9800
2435.182275 0.9800 0.9804 0.9814 0.9820 0.9820
2439.525388 0.9820 0.9820 0.9820 0.9820 0.9820
2443.868500 0.9820 0.9820 0.9820 0.9820 0.9820
2448.211612 0.9820 0.9820 0.9820 0.9820 0.9820
2452.554724 0.9820 0.9820 0.9820 0.9822 0.9827
2456.897836 0.9830 0.9830 0.9830 0.9830 0.9830
2461.240949 0.9830 0.9830 0.9830 0.9830 0.9830
2465.584061 0.9834 0.9844 0.9850 0.9850 0.9850
2469.927173 0.9850 0.9850 0.9850 0.9850 0.9850
2474.270285 0.9850 0.9850 0.9850 0.9850 0.9845
2478.613397 0.9835 0.9828 0.9823 0.9820 0.9820
2482.956510 0.9815 0.9805 0.9798 0.9793 0.9790
2487.299622 0.9790 0.9790 0.9790 0.9790 0.9790
2491.642734 0.9790 0.9790 0.9792 0.9797 0.9800
2495.985846 0.9800 0.9800 0.9800 0.9805 0.9815
2500.328958 0.9820 0.9820 0.9827 0.9842 0.9852
2504.672071 0.9857 0.9860 0.9860 0.9860 0.9860
2509.015183 0.9858 0.9853 0.9845 0.9835 0.9823
2513.358295 0.9808 0.9800 0.9800 0.9800 0.9800
2517.701407 0.9800 0.9800 0.9798 0.9792 0.9790
2522.044519 0.9790 0.9790 0.9790 0.9790 0.9790
2526.387632 0.9790 0.9790 0.9790 0.9790 0.9790
2530.730744 0.9790 0.9790 0.9790 0.9790 0.9790
2535.073856 0.9790 0.9790 0.9790 0.9790 0.9790
2539.416968 0.9790 0.9790 0.9790 0.9790 0.9790
2543.760080 0.9790 0.9790 0.9790 0.9790 0.9790
2548.103193 0.9790 0.9790 0.9790 0.9790 0.9790
2552.446305 0.9790 0.9790 0.9787 0.9782 0.9780
2556.789417 0.9780 0.9780 0.9780 0.9780 0.9780
2561.132529 0.9780 0.9780 0.9775 0.9765 0.9760
2565.475641 0.9760 0.9760 0.9760 0.9760 0.9760
2569.818754 0.9760 0.9760 0.9760 0.9760 0.9757
2574.161866 0.9752 0.9747 0.9742 0.9740 0.9740
2578.504978 0.9740 0.9740 0.9734 0.9724 0.9720
2582.848090 0.9720 0.9720 0.9720 0.9717 0.9712
2587.191202 0.9707 0.9702 0.9700 0.9700 0.9694
2591.534315 0.9684 0.9680 0.9680 0.9680 0.9680
2595.877427 0.9677 0.9672 0.9670 0.9670 0.9670
2600.220539 0.9670 0.9670 0.9670 0.9670 0.9670
2604.563651 0.9667 0.9662 0.9660 0.9660 0.9651
2608.906763 0.9636 0.9630 0.9630 0.9624 0.9614
2613.249876 0.9610 0.9610 0.9610 0.9610 0.9610
2617.592988 0.9610 0.9610 0.9610 0.9607 0.9602
2621.936100 0.9600 0.9600 0.9600 0.9600 0.9600
2626.279212 0.9600 0.9597 0.9592 0.9590 0.9590
2630.622324 0.9590 0.9590 0.9590 0.9590 0.9584
2634.965437 0.9574 0.9570 0.9570 0.9570 0.9570
2639.308549 0.9570 0.9570 0.9570 0.9570 0.9564
2643.651661 0.9554 0.9550 0.9550 0.9550 0.9550
2647.994773 0.9544 0.9534 0.9530 0.9530 0.9530
2652.337885 0.9530 0.9527 0.9522 0.9517 0.9512
2656.680998 0.9510 0.9510 0.9504 0.9494 0.9487
2661.024110 0.9482 0.9477 0.9472 0.9464 0.9454
2665.367222 0.9447 0.9442 0.9434 0.9424 0.9407
2669.710334 0.9387 0.9377 0.9372 0.9367 0.9362
2674.053446 0.9354 0.9344 0.9340 0.9340 0.9340
2678.396559 0.9340 0.9340 0.9340 0.9340 0.9340
2682.739671 0.9347 0.9357 0.9360 0.9360 0.9363
2687.082783 0.9368 0.9380 0.9395 0.9400 0.9400
2691.425895 0.9407 0.9417 0.9427 0.9437 0.9443
2695.769007 0.9448 0.9457 0.9467 0.9470 0.9470
2700.112120 0.9473 0.9478 0.9483 0.9488 0.9490
2704.455232 0.9490 0.9490 0.9490 0.9490 0.9490
2708.798344 0.9490 0.9490 0.9490 0.9490 0.9497
2713.141456 0.9507 0.9510 0.9510 0.9503 0.9493
2717.484568 0.9490 0.9490 0.9483 0.9473 0.9463
2721.827681 0.9453 0.9440 0.9425 0.9413 0.9403
2726.170793 0.9386 0.9366 0.9353 0.9343 0.9340
2730.513905 0.9340 0.9347 0.9357 0.9364 0.9369
2734.857017 0.9374 0.9379 0.9387 0.9397 0.9404
2739.200129 0.9409 0.9414 0.9419 0.9427 0.9437
2743.543242 0.9440 0.9440 0.9440 0.9440 0.9444
2747.886354 0.9449 0.9450 0.9450 0.9450 0.9450
2752.229466 0.9450 0.9450 0.9450 0.9450 0.9446
2756.572578 0.9441 0.9440 0.9440 0.9433 0.9423
2760.915690 0.9420 0.9420 0.9420 0.9420 0.9420
2765.258803 0.9420 0.9420 0.9420 0.9420 0.9420
2769.601915 0.9416 0.9411 0.9399 0.9384 0.9365
2773.945027 0.9345 0.9336 0.9331 0.9330 0.9330
2778.288139 0.9326 0.9321 0.9301 0.9276 0.9251
2782.631251 0.9226 0.9205 0.9185 0.9169 0.9154
2786.974364 0.9146 0.9141 0.9140 0.9140 0.9125
2791.317476 0.9105 0.9077 0.9047 0.9025 0.9005
2795.660588 0.8996 0.8991 0.8986 0.8981 0.8964
2800.003700 0.8944 0.8920 0.8895 0.8874 0.8854
2804.346812 0.8834 0.8814 0.8791 0.8766 0.8756
2808.689925 0.8751 0.8727 0.8697 0.8659 0.8619
2813.033037 0.8587 0.8557 0.8530 0.8505 0.8472
2817.376149 0.8437 0.8410 0.8385 0.8324 0.8254
2821.719261 0.8188 0.8123 0.8054 0.7984 0.7934
2826.062373 0.7889 0.7824 0.7754 0.7668 0.7578
2830.405486 0.7453 0.7318 0.7133 0.6937 0.6660
2834.748598 0.6365 0.6216 0.6101 0.6019 0.5944
2839.091710 0.5824 0.5694 0.5556 0.5416 0.5171
2843.434822 0.4901 0.4424 0.3899 0.3508 0.3148
2847.777934 0.2731 0.2301 0.1933 0.1579 0.1221
2852.121047 0.0861 0.0758 0.0708 0.0634 0.0554
2856.464159 0.0528 0.0513 0.0514 0.0519 0.0748
2860.807271 0.1023 0.1290 0.1555 0.1712 0.1847
2865.150383 0.1949 0.2044 0.2253 0.2485 0.2528
2869.493495 0.2538 0.2532 0.2522 0.2516 0.2511
2873.836608 0.2510 0.2510 0.2574 0.2649 0.2948
2878.179720 0.3288 0.3442 0.3562 0.3677 0.3792
2882.522832 0.3937 0.4087 0.4097 0.4082 0.4054
2886.865944 0.4024 0.3990 0.3955 0.3807 0.3642
2891.209056 0.3382 0.3107 0.3031 0.2986 0.2928
2895.552169 0.2868 0.2791 0.2711 0.2601 0.2486
2899.895281 0.2362 0.2237 0.2115 0.1994 0.1901
2904.238393 0.1811 0.1760 0.1715 0.1635 0.1550
2908.581505 0.1456 0.1361 0.1266 0.1171 0.1112
2912.924617 0.1057 0.0997 0.0937 0.0829 0.0714
2917.267730 0.0586 0.0456 0.0302 0.0146 0.0117
2921.610842 0.0102 0.0096 0.0091 0.0086 0.0081
2925.953954 0.0080 0.0080 0.0080 0.0080 0.0084
2930.297066 0.0089 0.0094 0.0099 0.0109 0.0119
2934.640178 0.0138 0.0158 0.0174 0.0189 0.0208
2938.983291 0.0228 0.0285 0.0345 0.0423 0.0503
2943.326403 0.0748 0.1008 0.1080 0.1135 0.1190
2947.669515 0.1245 0.1259 0.1269 0.1265 0.1260
2952.012627 0.1205 0.1145 0.1080 0.1014 0.1005
2956.355739 0.1000 0.0986 0.0971 0.0928 0.0883
2960.698852 0.0871 0.0861 0.0981 0.1111 0.1171
2965.041964 0.1226 0.1277 0.1327 0.1428 0.1533
2969.385076 0.1698 0.1868 0.2176 0.2494 0.2690
2973.728188 0.2880 0.3108 0.3338 0.3706 0.4081
2978.071300 0.4133 0.4168 0.4549 0.4949 0.5354
2982.414413 0.5759 0.5951 0.6131 0.6420 0.6714
2986.757525 0.6773 0.6818 0.6968 0.7125 0.7299
2991.100637 0.7474 0.7538 0.7598 0.7610 0.7620
2995.443749 0.7630 0.7640 0.7640 0.7640 0.7654
2999.786861 0.7669 0.7680 0.7690 0.7695 0.7700
3004.129974 0.7705 0.7710 0.7720 0.7730 0.7750
3008.473086 0.7770 0.7883 0.7998 0.8059 0.8119
3012.816198 0.8208 0.8298 0.8379 0.8459 0.8480
3017.159310 0.8500 0.8549 0.8599 0.8664 0.8729
3021.502422 0.8779 0.8829 0.8860 0.8890 0.8915
3025.845534 0.8940 0.8960 0.8980 0.8990 0.9000
3030.188647 0.9015 0.9030 0.9050 0.9070 0.9085
3034.531759 0.9100 0.9115 0.9130 0.9135 0.9140
3038.874871 0.9160 0.9180 0.9195 0.9210 0.9230
3043.217983 0.9250 0.9260 0.9270 0.9280 0.9290
3047.561095 0.9310 0.9330 0.9335 0.9340 0.9355
3051.904208 0.9370 0.9385 0.9400 0.9400 0.9400
3056.247320 0.9405 0.9410 0.9415 0.9420 0.9430
3060.590432 0.9440 0.9445 0.9450 0.9460 0.9470
3064.933544 0.9475 0.9480 0.9485 0.9490 0.9490
3069.276656 0.9490 0.9500 0.9510 0.9515 0.9520
3073.619769 0.9525 0.9530 0.9540 0.9550 0.9555
3077.962881 0.9560 0.9565 0.9570 0.9570 0.9571
3082.305993 0.9581 0.9590 0.9595 0.9600 0.9600
3086.649105 0.9600 0.9605 0.9610 0.9610 0.9610
3090.992217 0.9620 0.9630 0.9635 0.9640 0.9640
3095.335330 0.9640 0.9640 0.9640 0.9640 0.9640
3099.678442 0.9640 0.9641 0.9651 0.9660 0.9665
3104.021554 0.9670 0.9675 0.9681 0.9691 0.9700
3108.364666 0.9700 0.9700 0.9705 0.9710 0.9710
3112.707778 0.9710 0.9715 0.9720 0.9720 0.9720
3117.050891 0.9720 0.9720 0.9720 0.9720 0.9720
3121.394003 0.9720 0.9715 0.9710 0.9710 0.9710
3125.737115 0.9715 0.9720 0.9720 0.9720 0.9720
3130.080227 0.9721 0.9731 0.9740 0.9740 0.9740
3134.423339 0.9740 0.9740 0.9740 0.9740 0.9740
3138.766452 0.9740 0.9740 0.9740 0.9740 0.9740
3143.109564 0.9740 0.9740 0.9740 0.9740 0.9740
3147.452676 0.9740 0.9740 0.9740 0.9740 0.9740
3151.795788 0.9740 0.9741 0.9746 0.9751 0.9756
3156.138900 0.9760 0.9760 0.9760 0.9760 0.9761
3160.482013 0.9771 0.9780 0.9780 0.9781 0.9786
3164.825125 0.9790 0.9790 0.9790 0.9790 0.9789
3169.168237 0.9784 0.9780 0.9780 0.9780 0.9780
3173.511349 0.9780 0.9780 0.9781 0.9786 0.9790
3177.854461 0.9790 0.9790 0.9790 0.9790 0.9790
3182.197574 0.9790 0.9790 0.9790 0.9790 0.9790
3186.540686 0.9790 0.9790 0.9790 0.9790 0.9790
3190.883798 0.9791 0.9796 0.9800 0.9800 0.9800
3195.226910 0.9800 0.9799 0.9794 0.9791 0.9796
3199.570022 0.9800 0.9800 0.9802 0.9812 0.9821
3203.913135 0.9826 0.9830 0.9830 0.9830 0.9830
3208.256247 0.9832 0.9842 0.9850 0.9850 0.9850
3212.599359 0.9850 0.9850 0.9850 0.9850 0.9850
3216.942471 0.9850 0.9850 0.9851 0.9856 0.9860
3221.285583 0.9860 0.9860 0.9860 0.9861 0.9866
3225.628696 0.9870 0.9870 0.9870 0.9870 0.9872
3229.971808 0.9882 0.9890 0.9890 0.9890 0.9890
3234.314920 0.9891 0.9896 0.9900 0.9900 0.9900
3238.658032 0.9900 0.9900 0.9900 0.9900 0.9900
3243.001144 0.9900 0.9900 0.9900 0.9900 0.9900
3247.344257 0.9900 0.9901 0.9906 0.9910 0.9910
3251.687369 0.9910 0.9910 0.9910 0.9910 0.9910
3256.030481 0.9910 0.9910 0.9910 0.9910 0.9910
3260.373593 0.9910 0.9910 0.9910 0.9910 0.9912
3264.716705 0.9922 0.9930 0.9930 0.9930 0.9930
3269.059818 0.9930 0.9930 0.9930 0.9930 0.9930
3273.402930 0.9930 0.9930 0.9930 0.9930 0.9930
3277.746042 0.9930 0.9930 0.9930 0.9930 0.9930
3282.089154 0.9930 0.9930 0.9930 0.9930 0.9930
3286.432266 0.9930 0.9930 0.9930 0.9930 0.9930
3290.775379 0.9930 0.9930 0.9930 0.9931 0.9936
3295.118491 0.9940 0.9940 0.9940 0.9940 0.9941
3299.461603 0.9946 0.9950 0.9950 0.9950 0.9950
3303.804715 0.9950 0.9950 0.9949 0.9944 0.9940
3308.147827 0.9940 0.9940 0.9940 0.9940 0.9940
3312.490940 0.9940 0.9940 0.9940 0.9940 0.9940
3316.834052 0.9940 0.9940 0.9940 0.9940 0.9940
3321.177164 0.9939 0.9934 0.9930 0.9930 0.9931
3325.520276 0.9936 0.9940 0.9940 0.9940 0.9940
3329.863388 0.9940 0.9940 0.9940 0.9940 0.9941
3334.206501 0.9946 0.9949 0.9944 0.9940 0.9940
3338.549613 0.9942 0.9947 0.9950 0.9950 0.9950
3342.892725 0.9950 0.9948 0.9943 0.9940 0.9940
3347.235837 0.9942 0.9947 0.9950 0.9950 0.9950
3351.578949 0.9950 0.9950 0.9950 0.9953 0.9963
3355.922062 0.9967 0.9957 0.9950 0.9950 0.9948
3360.265174 0.9943 0.9940 0.9940 0.9940 0.9940
3364.608286 0.9940 0.9940 0.9940 0.9940 0.9940
3368.951398 0.9940 0.9940 0.9940 0.9940 0.9940
3373.294510 0.9940 0.9940 0.9940 0.9940 0.9940
3377.637623 0.9940 0.9940 0.9940 0.9940 0.9940
3381.980735 0.9940 0.9940 0.9938 0.9933 0.9930
3386.323847 0.9930 0.9930 0.9930 0.9930 0.9930
3390.666959 0.9930 0.9930 0.9930 0.9930 0.9930
3395.010071 0.9930 0.9930 0.9930 0.9930 0.9930
3399.353184 0.9930 0.9930 0.9930 0.9930 0.9930
3403.696296 0.9930 0.9930 0.9930 0.9930 0.9930
3408.039408 0.9930 0.9930 0.9930 0.9930 0.9930
3412.382520 0.9930 0.9930 0.9930 0.9930 0.9930
3416.725632 0.9930 0.9930 0.9930 0.9930 0.9930
3421.068745 0.9930 0.9930 0.9930 0.9930 0.9930
3425.411857 0.9930 0.9930 0.9930 0.9930 0.9930
3429.754969 0.9930 0.9930 0.9930 0.9930 0.9930
3434.098081 0.9930 0.9930 0.9930 0.9930 0.9930
3438.441193 0.9930 0.9930 0.9930 0.9926 0.9916
3442.784306 0.9910 0.9910 0.9908 0.9903 0.9900
3447.127418 0.9900 0.9898 0.9893 0.9890 0.9890
3451.470530 0.9890 0.9890 0.9890 0.9890 0.9890
3455.813642 0.9890 0.9892 0.9897 0.9900 0.9900
3460.156754 0.9902 0.9907 0.9910 0.9910 0.9910
3464.499867 0.9910 0.9910 0.9910 0.9910 0.9910
3468.842979 0.9910 0.9910 0.9910 0.9910 0.9910
3473.186091 0.9910 0.9910 0.9910 0.9910 0.9910
3477.529203 0.9910 0.9910 0.9910 0.9910 0.9910
3481.872315 0.9910 0.9910 0.9910 0.9910 0.9910
3486.215428 0.9910 0.9910 0.9910 0.9910 0.9910
3490.558540 0.9910 0.9910 0.9910 0.9908 0.9903
3494.901652 0.9900 0.9900 0.9900 0.9900 0.9902
3499.244764 0.9907 0.9915 0.9925 0.9930 0.9930
3503.587876 0.9930 0.9930 0.9930 0.9930 0.9930
3507.930989 0.9930 0.9930 0.9930 0.9930 0.9930
3512.274101 0.9930 0.9930 0.9930 0.9930 0.9930
3516.617213 0.9930 0.9930 0.9930 0.9930 0.9930
3520.960325 0.9930 0.9930 0.9925 0.9915 0.9910
3525.303437 0.9910 0.9910 0.9910 0.9910 0.9910
3529.646550 0.9908 0.9903 0.9900 0.9900 0.9900
3533.989662 0.9900 0.9900 0.9900 0.9900 0.9900
3538.332774 0.9898 0.9893 0.9890 0.9890 0.9890
3542.675886 0.9890 0.9890 0.9890 0.9890 0.9890
3547.018998 0.9890 0.9890 0.9890 0.9890 0.9890
3551.362111 0.9890 0.9890 0.9890 0.9893 0.9898
3555.705223 0.9900 0.9900 0.9897 0.9892 0.9890
3560.048335 0.9890 0.9890 0.9890 0.9890 0.9890
3564.391447 0.9890 0.9890 0.9890 0.9890 0.9890
3568.734559 0.9890 0.9890 0.9890 0.9890 0.9890
3573.077672 0.9890 0.9890 0.9890 0.9890 0.9890
3577.420784 0.9890 0.9890 0.9890 0.9885 0.9875
3581.763896 0.9867 0.9862 0.9860 0.9860 0.9857
3586.107008 0.9852 0.9850 0.9850 0.9845 0.9835
3590.450120 0.9830 0.9830 0.9827 0.9822 0.9815
3594.793233 0.9805 0.9800 0.9800 0.9797 0.9792
3599.136345 0.9793 0.9798 0.9800 0.9800 0.9797
3603.479457 0.9792 0.9790 0.9790 0.9790 0.9790
3607.822569 0.9790 0.9790 0.9787 0.9782 0.9774
3612.165681 0.9764 0.9760 0.9760 0.9760 0.9760
3616.508794 0.9757 0.9752 0.9747 0.9742 0.9731
3620.851906 0.9716 0.9707 0.9702 0.9694 0.9684
3625.195018 0.9680 0.9680 0.9686 0.9696 0.9703
3629.538130 0.9708 0.9719 0.9734 0.9746 0.9756
3633.881242 0.9760 0.9760 0.9772 0.9792 0.9800
3638.224355 0.9800 0.9800 0.9800 0.9797 0.9792
3642.567467 0.9787 0.9782 0.9780 0.9780 0.9774
3646.910579 0.9764 0.9766 0.9776 0.9780 0.9780
3651.253691 0.9783 0.9788 0.9793 0.9798 0.9800
3655.596803 0.9800 0.9809 0.9824 0.9830 0.9830
3659.939916 0.9827 0.9822 0.9814 0.9804 0.9797
3664.283028 0.9792 0.9790 0.9790 0.9790 0.9790
3668.626140 0.9793 0.9798 0.9800 0.9800 0.9809
3672.969252 0.9824 0.9830 0.9830 0.9821 0.9806
3677.312364 0.9794 0.9784 0.9771 0.9756 0.9747
3681.655477 0.9742 0.9740 0.9740 0.9743 0.9748
3685.998589 0.9750 0.9750 0.9753 0.9758 0.9766
3690.341701 0.9776 0.9786 0.9796 0.9810 0.9825
3694.684813 0.9830 0.9830 0.9836 0.9846 0.9850
3699.027925 0.9850 0.9850 0.9850 0.9850 0.9850
3703.371038 0.9850 0.9850 0.9850 0.9850 0.9850
3707.714150 0.9850 0.9850 0.9850 0.9857 0.9867
3712.057262 0.9870 0.9870 0.9877 0.9887 0.9890
3716.400374 0.9890 0.9893 0.9898 0.9900 0.9900
3720.743486 0.9900 0.9900 0.9903 0.9908 0.9910
3725.086599 0.9910 0.9910 0.9910 0.9917 0.9927
3729.429711 0.9930 0.9930 0.9923 0.9913 0.9910
3733.772823 0.9910 0.9907 0.9902 0.9897 0.9892
3738.115935 0.9883 0.9873 0.9870 0.9870 0.9870
3742.459047 0.9870 0.9870 0.9870 0.9870 0.9870
3746.802160 0.9870 0.9870 0.9870 0.9870 0.9870
3751.145272 0.9870 0.9870 0.9870 0.9870 0.9870
3755.488384 0.9870 0.9870 0.9870 0.9870 0.9877
3759.831496 0.9887 0.9890 0.9890 0.9894 0.9899
3764.174608 0.9896 0.9891 0.9890 0.9890 0.9890
3768.517721 0.9890 0.9890 0.9890 0.9890 0.9890
3772.860833 0.9890 0.9890 0.9890 0.9890 0.9883
3777.203945 0.9873 0.9870 0.9870 0.9877 0.9887
3781.547057 0.9897 0.9907 0.9921 0.9936 0.9940
3785.890169 0.9940 0.9936 0.9931 0.9930 0.9930
3790.233282 0.9923 0.9913 0.9910 0.9910 0.9903
3794.576394 0.9893
##END=
