##TITLE=1-Bromohexadecane
##JCAMP-DX=4.24
$$ By DXEDIT 1.05 (RS McDonald)
##DATA TYPE=INFRARED SPECTRUM
##CLASS=COBLENTZ III
##ORIGIN=DOW CHEMICAL COMPANY
##OWNER=COPYRIGHT (C) 1988 by COBLENTZ SOCIETY INC.
Collection (C) 2018 copyright by the U.S. Secretary of Commerce
on behalf of the United States of America. All rights reserved.
##DATE=1962/12/27
##CAS REGISTRY NO=112-82-3
##MOLFORM=C16 H33 Br
##SOURCE REFERENCE=COBLENTZ NO. 6296
##$NIST SOURCE=COBLENTZ
##$NIST IMAGE=cob6296
##SPECTROMETER/DATA SYSTEM=DOW KBr FOREPRISM-GRATING
##INSTRUMENT PARAMETERS=BLAZED AT 3.5, 12.0, 20.0 MICRON AND CHANGED AT 5.0, 7.5, 14.9 MICRON
##STATE=SOLUTION (10% CCl4 FOR 3800-1330, 10% CS2 FOR 1330-400 CM^-^1)
##PATH LENGTH=0.011 CM, 0.011 CM
$$SPECTRAL CONTAMINATIONS DUE TO CS2 AROUND 400, 850 AND CCl4 AROUND 1550 CM^-^1 HAVE BEEN SUBTRACTED
##SAMPLING PROCEDURE=TRANSMISSION
##RESOLUTION=2
##DATA PROCESSING=DIGITIZED BY COBLENTZ SOCIETY (BATCH I) FROM HARD COPY
##XUNITS=1/CM
##YUNITS=TRANSMITTANCE
##XFACTOR=1
##YFACTOR=1
##DELTAX=1
##FIRSTX=3814
##LASTX=384
##FIRSTY=0.8676
##MAXX=3814
##MINX=384
##MAXY=0.9131
##MINY=0.0129
##NPOINTS=3431
##XYDATA=(X++(Y..Y))
3814.000000 0.8676 0.8669 0.8667 0.8671 0.8672
3809.000000 0.8664 0.8660 0.8667 0.8671 0.8673
3804.000000 0.8675 0.8676 0.8669 0.8671 0.8673
3799.000000 0.8674 0.8676 0.8679 0.8687 0.8683
3794.000000 0.8693 0.8694 0.8694 0.8694 0.8694
3789.000000 0.8694 0.8694 0.8694 0.8694 0.8694
3784.000000 0.8690 0.8686 0.8686 0.8693 0.8696
3779.000000 0.8688 0.8694 0.8696 0.8696 0.8687
3774.000000 0.8696 0.8696 0.8696 0.8696 0.8697
3769.000000 0.8697 0.8697 0.8697 0.8697 0.8696
3764.000000 0.8696 0.8694 0.8694 0.8693 0.8696
3759.000000 0.8695 0.8690 0.8688 0.8688 0.8687
3754.000000 0.8686 0.8685 0.8684 0.8683 0.8682
3749.000000 0.8681 0.8680 0.8679 0.8679 0.8678
3744.000000 0.8677 0.8676 0.8675 0.8674 0.8673
3739.000000 0.8675 0.8681 0.8680 0.8679 0.8678
3734.000000 0.8673 0.8667 0.8671 0.8674 0.8674
3729.000000 0.8673 0.8672 0.8671 0.8670 0.8669
3724.000000 0.8669 0.8668 0.8667 0.8666 0.8666
3719.000000 0.8655 0.8655 0.8663 0.8662 0.8660
3714.000000 0.8660 0.8658 0.8661 0.8662 0.8659
3709.000000 0.8664 0.8663 0.8661 0.8661 0.8660
3704.000000 0.8658 0.8657 0.8655 0.8654 0.8653
3699.000000 0.8651 0.8650 0.8649 0.8640 0.8637
3694.000000 0.8636 0.8633 0.8632 0.8631 0.8630
3689.000000 0.8628 0.8627 0.8624 0.8616 0.8613
3684.000000 0.8612 0.8610 0.8609 0.8608 0.8607
3679.000000 0.8605 0.8604 0.8603 0.8602 0.8602
3674.000000 0.8602 0.8602 0.8603 0.8603 0.8612
3669.000000 0.8605 0.8605 0.8605 0.8606 0.8606
3664.000000 0.8607 0.8607 0.8608 0.8608 0.8609
3659.000000 0.8609 0.8610 0.8611 0.8613 0.8614
3654.000000 0.8616 0.8617 0.8619 0.8620 0.8621
3649.000000 0.8622 0.8625 0.8626 0.8628 0.8629
3644.000000 0.8630 0.8631 0.8633 0.8633 0.8634
3639.000000 0.8634 0.8634 0.8634 0.8635 0.8635
3634.000000 0.8636 0.8638 0.8646 0.8646 0.8644
3629.000000 0.8638 0.8641 0.8647 0.8649 0.8649
3624.000000 0.8650 0.8650 0.8650 0.8652 0.8653
3619.000000 0.8657 0.8660 0.8663 0.8667 0.8670
3614.000000 0.8673 0.8676 0.8680 0.8683 0.8687
3609.000000 0.8690 0.8686 0.8698 0.8701 0.8704
3604.000000 0.8708 0.8708 0.8709 0.8717 0.8716
3599.000000 0.8712 0.8717 0.8723 0.8726 0.8727
3594.000000 0.8729 0.8730 0.8732 0.8733 0.8735
3589.000000 0.8736 0.8737 0.8738 0.8740 0.8741
3584.000000 0.8743 0.8744 0.8746 0.8747 0.8749
3579.000000 0.8750 0.8750 0.8752 0.8750 0.8749
3574.000000 0.8757 0.8757 0.8755 0.8751 0.8751
3569.000000 0.8753 0.8754 0.8755 0.8756 0.8757
3564.000000 0.8758 0.8759 0.8760 0.8761 0.8762
3559.000000 0.8763 0.8764 0.8765 0.8766 0.8775
3554.000000 0.8767 0.8770 0.8779 0.8780 0.8778
3549.000000 0.8775 0.8783 0.8783 0.8783 0.8779
3544.000000 0.8779 0.8784 0.8785 0.8785 0.8779
3539.000000 0.8782 0.8779 0.8783 0.8787 0.8787
3534.000000 0.8788 0.8788 0.8788 0.8788 0.8789
3529.000000 0.8779 0.8780 0.8780 0.8780 0.8780
3524.000000 0.8781 0.8781 0.8782 0.8782 0.8783
3519.000000 0.8783 0.8783 0.8783 0.8784 0.8784
3514.000000 0.8785 0.8785 0.8785 0.8785 0.8786
3509.000000 0.8786 0.8787 0.8787 0.8788 0.8788
3504.000000 0.8788 0.8788 0.8789 0.8789 0.8790
3499.000000 0.8790 0.8790 0.8790 0.8791 0.8791
3494.000000 0.8791 0.8791 0.8791 0.8791 0.8791
3489.000000 0.8791 0.8791 0.8791 0.8791 0.8791
3484.000000 0.8791 0.8791 0.8791 0.8791 0.8791
3479.000000 0.8791 0.8791 0.8791 0.8791 0.8791
3474.000000 0.8793 0.8793 0.8793 0.8793 0.8793
3469.000000 0.8793 0.8793 0.8793 0.8793 0.8793
3464.000000 0.8793 0.8793 0.8793 0.8793 0.8793
3459.000000 0.8793 0.8794 0.8794 0.8794 0.8794
3454.000000 0.8794 0.8794 0.8794 0.8794 0.8794
3449.000000 0.8794 0.8794 0.8794 0.8794 0.8794
3444.000000 0.8796 0.8796 0.8796 0.8796 0.8797
3439.000000 0.8797 0.8797 0.8797 0.8798 0.8798
3434.000000 0.8798 0.8798 0.8798 0.8798 0.8798
3429.000000 0.8798 0.8800 0.8800 0.8800 0.8792
3424.000000 0.8800 0.8801 0.8801 0.8801 0.8801
3419.000000 0.8801 0.8801 0.8801 0.8803 0.8803
3414.000000 0.8803 0.8803 0.8804 0.8804 0.8804
3409.000000 0.8804 0.8804 0.8809 0.8808 0.8804
3404.000000 0.8804 0.8803 0.8803 0.8803 0.8803
3399.000000 0.8803 0.8803 0.8803 0.8803 0.8803
3394.000000 0.8803 0.8801 0.8801 0.8801 0.8801
3389.000000 0.8801 0.8801 0.8801 0.8801 0.8801
3384.000000 0.8801 0.8801 0.8801 0.8801 0.8801
3379.000000 0.8801 0.8801 0.8801 0.8801 0.8800
3374.000000 0.8800 0.8800 0.8800 0.8800 0.8808
3369.000000 0.8800 0.8799 0.8799 0.8799 0.8797
3364.000000 0.8797 0.8797 0.8797 0.8797 0.8797
3359.000000 0.8797 0.8797 0.8797 0.8797 0.8797
3354.000000 0.8797 0.8797 0.8799 0.8799 0.8799
3349.000000 0.8799 0.8799 0.8799 0.8799 0.8807
3344.000000 0.8809 0.8800 0.8809 0.8801 0.8800
3339.000000 0.8800 0.8810 0.8810 0.8809 0.8800
3334.000000 0.8800 0.8800 0.8800 0.8800 0.8800
3329.000000 0.8800 0.8800 0.8800 0.8800 0.8800
3324.000000 0.8800 0.8800 0.8802 0.8802 0.8802
3319.000000 0.8802 0.8803 0.8803 0.8804 0.8804
3314.000000 0.8804 0.8804 0.8815 0.8815 0.8816
3309.000000 0.8816 0.8815 0.8809 0.8817 0.8817
3304.000000 0.8815 0.8808 0.8809 0.8809 0.8810
3299.000000 0.8810 0.8810 0.8810 0.8811 0.8811
3294.000000 0.8812 0.8812 0.8813 0.8813 0.8813
3289.000000 0.8813 0.8814 0.8814 0.8815 0.8815
3284.000000 0.8816 0.8825 0.8825 0.8816 0.8818
3279.000000 0.8825 0.8822 0.8815 0.8818 0.8824
3274.000000 0.8824 0.8824 0.8824 0.8824 0.8824
3269.000000 0.8823 0.8823 0.8823 0.8823 0.8823
3264.000000 0.8823 0.8822 0.8822 0.8822 0.8822
3259.000000 0.8822 0.8822 0.8820 0.8812 0.8821
3254.000000 0.8821 0.8820 0.8820 0.8820 0.8819
3249.000000 0.8819 0.8819 0.8818 0.8818 0.8814
3244.000000 0.8814 0.8818 0.8818 0.8817 0.8817
3239.000000 0.8817 0.8817 0.8817 0.8817 0.8816
3234.000000 0.8816 0.8816 0.8816 0.8816 0.8816
3229.000000 0.8816 0.8816 0.8815 0.8806 0.8809
3224.000000 0.8816 0.8816 0.8816 0.8816 0.8817
3219.000000 0.8817 0.8817 0.8817 0.8817 0.8817
3214.000000 0.8817 0.8817 0.8817 0.8817 0.8817
3209.000000 0.8817 0.8809 0.8807 0.8808 0.8808
3204.000000 0.8808 0.8806 0.8804 0.8799 0.8796
3199.000000 0.8797 0.8788 0.8788 0.8778 0.8780
3194.000000 0.8775 0.8769 0.8764 0.8760 0.8751
3189.000000 0.8752 0.8756 0.8756 0.8750 0.8746
3184.000000 0.8747 0.8747 0.8747 0.8747 0.8747
3179.000000 0.8749 0.8750 0.8750 0.8751 0.8751
3174.000000 0.8752 0.8752 0.8752 0.8752 0.8753
3169.000000 0.8753 0.8754 0.8754 0.8755 0.8755
3164.000000 0.8761 0.8766 0.8762 0.8763 0.8768
3159.000000 0.8768 0.8761 0.8764 0.8759 0.8755
3154.000000 0.8762 0.8763 0.8762 0.8761 0.8760
3149.000000 0.8758 0.8747 0.8747 0.8746 0.8744
3144.000000 0.8744 0.8743 0.8742 0.8743 0.8749
3139.000000 0.8748 0.8746 0.8746 0.8745 0.8744
3134.000000 0.8743 0.8742 0.8741 0.8739 0.8738
3129.000000 0.8736 0.8735 0.8733 0.8732 0.8730
3124.000000 0.8728 0.8726 0.8724 0.8722 0.8721
3119.000000 0.8719 0.8718 0.8716 0.8714 0.8712
3114.000000 0.8711 0.8709 0.8707 0.8705 0.8704
3109.000000 0.8701 0.8699 0.8703 0.8704 0.8703
3104.000000 0.8701 0.8699 0.8697 0.8694 0.8700
3099.000000 0.8697 0.8693 0.8698 0.8703 0.8708
3094.000000 0.8704 0.8700 0.8694 0.8681 0.8675
3089.000000 0.8661 0.8649 0.8648 0.8647 0.8632
3084.000000 0.8622 0.8617 0.8611 0.8605 0.8599
3079.000000 0.8593 0.8594 0.8597 0.8595 0.8589
3074.000000 0.8590 0.8586 0.8572 0.8565 0.8560
3069.000000 0.8545 0.8548 0.8531 0.8525 0.8519
3064.000000 0.8511 0.8497 0.8490 0.8484 0.8481
3059.000000 0.8481 0.8475 0.8465 0.8452 0.8449
3054.000000 0.8442 0.8427 0.8419 0.8415 0.8409
3049.000000 0.8398 0.8389 0.8379 0.8377 0.8367
3044.000000 0.8367 0.8366 0.8365 0.8362 0.8357
3039.000000 0.8346 0.8333 0.8318 0.8295 0.8275
3034.000000 0.8261 0.8239 0.8220 0.8205 0.8188
3029.000000 0.8156 0.8130 0.8097 0.8068 0.8040
3024.000000 0.8014 0.7984 0.7955 0.7877 0.7802
3019.000000 0.7752 0.7697 0.7642 0.7582 0.7525
3014.000000 0.7470 0.7416 0.7363 0.7326 0.7289
3009.000000 0.7279 0.7268 0.7257 0.7257 0.7257
3004.000000 0.7255 0.7248 0.7238 0.7233 0.7231
2999.000000 0.7222 0.7211 0.7203 0.7196 0.7183
2994.000000 0.7171 0.7147 0.7119 0.7045 0.6971
2989.000000 0.6866 0.6763 0.6661 0.6561 0.6463
2984.000000 0.6367 0.6240 0.6114 0.5988 0.5866
2979.000000 0.5758 0.5644 0.5044 0.4451 0.4014
2974.000000 0.3578 0.3257 0.2936 0.2617 0.2297
2969.000000 0.1977 0.1658 0.1551 0.1444 0.1428
2964.000000 0.1413 0.1402 0.1392 0.1383 0.1374
2959.000000 0.1371 0.1366 0.1360 0.1356 0.1350
2954.000000 0.1347 0.1130 0.0912 0.0667 0.0422
2949.000000 0.0322 0.0221 0.0200 0.0178 0.0166
2944.000000 0.0155 0.0148 0.0143 0.0137 0.0132
2939.000000 0.0131 0.0131 0.0130 0.0129 0.0129
2934.000000 0.0129 0.0129 0.0130 0.0136 0.0142
2929.000000 0.0150 0.0159 0.0182 0.0205 0.0250
2924.000000 0.0295 0.0352 0.0410 0.0458 0.0508
2919.000000 0.0549 0.0592 0.0633 0.0674 0.0714
2914.000000 0.0754 0.0795 0.0835 0.0910 0.0984
2909.000000 0.1067 0.1152 0.1235 0.1317 0.1400
2904.000000 0.1484 0.1566 0.1649 0.1732 0.1816
2899.000000 0.1899 0.1982 0.2065 0.2149 0.2232
2894.000000 0.2314 0.2397 0.2481 0.2564 0.2647
2889.000000 0.2729 0.2814 0.2897 0.2980 0.3062
2884.000000 0.3146 0.3229 0.3373 0.3341 0.3371
2879.000000 0.3374 0.3377 0.3335 0.3300 0.3106
2874.000000 0.2912 0.2718 0.2525 0.2266 0.2007
2869.000000 0.1690 0.1372 0.1053 0.0735 0.0500
2864.000000 0.0267 0.0262 0.0258 0.0258 0.0280
2859.000000 0.0260 0.0261 0.0295 0.0328 0.0517
2854.000000 0.0704 0.0930 0.1157 0.1384 0.1610
2849.000000 0.1837 0.2063 0.2291 0.2520 0.2747
2844.000000 0.2973 0.3149 0.3330 0.3426 0.3521
2839.000000 0.3949 0.4380 0.4505 0.4628 0.4748
2834.000000 0.4871 0.5024 0.5178 0.5347 0.5515
2829.000000 0.5629 0.5735 0.5849 0.5961 0.6058
2824.000000 0.6161 0.6260 0.6346 0.6448 0.6543
2819.000000 0.6641 0.6737 0.6862 0.6986 0.7068
2814.000000 0.7148 0.7213 0.7278 0.7321 0.7365
2809.000000 0.7407 0.7455 0.7500 0.7543 0.7581
2804.000000 0.7620 0.7655 0.7692 0.7717 0.7740
2799.000000 0.7766 0.7791 0.7817 0.7841 0.7867
2794.000000 0.7892 0.7914 0.7935 0.7947 0.7971
2789.000000 0.7982 0.8001 0.8018 0.8035 0.8056
2784.000000 0.8079 0.8088 0.8100 0.8120 0.8139
2779.000000 0.8153 0.8169 0.8184 0.8199 0.8212
2774.000000 0.8229 0.8244 0.8257 0.8270 0.8284
2769.000000 0.8295 0.8306 0.8316 0.8328 0.8340
2764.000000 0.8350 0.8362 0.8374 0.8386 0.8399
2759.000000 0.8409 0.8420 0.8426 0.8432 0.8435
2754.000000 0.8438 0.8439 0.8440 0.8441 0.8443
2749.000000 0.8443 0.8446 0.8447 0.8448 0.8449
2744.000000 0.8450 0.8453 0.8454 0.8455 0.8457
2739.000000 0.8457 0.8458 0.8458 0.8458 0.8458
2734.000000 0.8460 0.8460 0.8461 0.8461 0.8461
2729.000000 0.8461 0.8461 0.8461 0.8461 0.8461
2724.000000 0.8462 0.8462 0.8462 0.8468 0.8475
2719.000000 0.8480 0.8486 0.8493 0.8499 0.8505
2714.000000 0.8511 0.8518 0.8523 0.8528 0.8533
2709.000000 0.8537 0.8542 0.8543 0.8544 0.8545
2704.000000 0.8546 0.8547 0.8548 0.8550 0.8550
2699.000000 0.8550 0.8548 0.8544 0.8540 0.8532
2694.000000 0.8525 0.8515 0.8508 0.8500 0.8492
2689.000000 0.8484 0.8477 0.8469 0.8463 0.8456
2684.000000 0.8450 0.8446 0.8443 0.8440 0.8436
2679.000000 0.8432 0.8429 0.8428 0.8427 0.8426
2674.000000 0.8426 0.8426 0.8428 0.8432 0.8436
2669.000000 0.8440 0.8445 0.8449 0.8453 0.8457
2664.000000 0.8460 0.8463 0.8467 0.8473 0.8477
2659.000000 0.8480 0.8485 0.8496 0.8501 0.8505
2654.000000 0.8509 0.8512 0.8516 0.8516 0.8514
2649.000000 0.8517 0.8526 0.8535 0.8539 0.8536
2644.000000 0.8537 0.8540 0.8550 0.8549 0.8551
2639.000000 0.8554 0.8558 0.8561 0.8563 0.8567
2634.000000 0.8580 0.8583 0.8588 0.8582 0.8587
2629.000000 0.8599 0.8603 0.8606 0.8609 0.8612
2624.000000 0.8616 0.8619 0.8624 0.8627 0.8631
2619.000000 0.8634 0.8638 0.8641 0.8644 0.8647
2614.000000 0.8652 0.8655 0.8659 0.8662 0.8666
2609.000000 0.8669 0.8673 0.8676 0.8679 0.8683
2604.000000 0.8687 0.8690 0.8694 0.8697 0.8701
2599.000000 0.8704 0.8708 0.8711 0.8716 0.8719
2594.000000 0.8722 0.8725 0.8728 0.8731 0.8735
2589.000000 0.8738 0.8744 0.8748 0.8752 0.8756
2584.000000 0.8760 0.8764 0.8768 0.8773 0.8777
2579.000000 0.8780 0.8785 0.8789 0.8793 0.8797
2574.000000 0.8801 0.8805 0.8809 0.8813 0.8817
2569.000000 0.8821 0.8825 0.8829 0.8834 0.8838
2564.000000 0.8842 0.8846 0.8850 0.8854 0.8858
2559.000000 0.8861 0.8865 0.8867 0.8870 0.8872
2554.000000 0.8875 0.8877 0.8880 0.8882 0.8883
2549.000000 0.8886 0.8889 0.8890 0.8893 0.8897
2544.000000 0.8899 0.8901 0.8904 0.8906 0.8909
2539.000000 0.8911 0.8914 0.8916 0.8918 0.8920
2534.000000 0.8922 0.8924 0.8927 0.8928 0.8930
2529.000000 0.8931 0.8933 0.8934 0.8935 0.8937
2524.000000 0.8938 0.8940 0.8942 0.8942 0.8945
2519.000000 0.8947 0.8949 0.8950 0.8952 0.8953
2514.000000 0.8955 0.8956 0.8958 0.8960 0.8962
2509.000000 0.8962 0.8963 0.8963 0.8964 0.8965
2504.000000 0.8966 0.8966 0.8967 0.8967 0.8968
2499.000000 0.8968 0.8969 0.8969 0.8970 0.8970
2494.000000 0.8971 0.8972 0.8973 0.8973 0.8973
2489.000000 0.8972 0.8972 0.8972 0.8972 0.8971
2484.000000 0.8971 0.8971 0.8971 0.8977 0.8981
2479.000000 0.8980 0.8979 0.8979 0.8979 0.8979
2474.000000 0.8979 0.8978 0.8978 0.8978 0.8978
2469.000000 0.8978 0.8978 0.8977 0.8977 0.8977
2464.000000 0.8977 0.8976 0.8976 0.8976 0.8976
2459.000000 0.8976 0.8973 0.8973 0.8975 0.8971
2454.000000 0.8973 0.8981 0.8985 0.8987 0.8981
2449.000000 0.8988 0.8991 0.8992 0.8994 0.8995
2444.000000 0.8996 0.8998 0.8999 0.8999 0.9002
2439.000000 0.9003 0.9005 0.9006 0.9006 0.9008
2434.000000 0.9010 0.9011 0.9013 0.9013 0.9014
2429.000000 0.9014 0.9014 0.9013 0.9013 0.9013
2424.000000 0.9013 0.9012 0.9012 0.9011 0.9011
2419.000000 0.9011 0.9011 0.9010 0.9010 0.9009
2414.000000 0.9009 0.9009 0.9009 0.9008 0.9008
2409.000000 0.9011 0.9015 0.9009 0.9016 0.9016
2404.000000 0.9016 0.9013 0.9013 0.9011 0.9008
2399.000000 0.9007 0.9005 0.9003 0.9002 0.9000
2394.000000 0.8999 0.8997 0.8996 0.8994 0.8993
2389.000000 0.9001 0.8999 0.8996 0.8995 0.8995
2384.000000 0.9002 0.9000 0.9002 0.9006 0.9004
2379.000000 0.9005 0.9010 0.9011 0.9013 0.9012
2374.000000 0.9016 0.9016 0.9015 0.9013 0.9011
2369.000000 0.9000 0.8995 0.8992 0.8990 0.8987
2364.000000 0.8984 0.8981 0.8978 0.8975 0.8981
2359.000000 0.8979 0.8985 0.8983 0.8990 0.8993
2354.000000 0.8990 0.8988 0.8985 0.8978 0.8969
2349.000000 0.8965 0.8968 0.8975 0.8976 0.8973
2344.000000 0.8963 0.8958 0.8955 0.8952 0.8950
2339.000000 0.8939 0.8944 0.8941 0.8930 0.8927
2334.000000 0.8934 0.8932 0.8930 0.8928 0.8935
2329.000000 0.8932 0.8930 0.8929 0.8934 0.8936
2324.000000 0.8940 0.8937 0.8935 0.8933 0.8930
2319.000000 0.8928 0.8925 0.8922 0.8921 0.8918
2314.000000 0.8917 0.8915 0.8912 0.8910 0.8908
2309.000000 0.8905 0.8903 0.8901 0.8899 0.8897
2304.000000 0.8894 0.8892 0.8890 0.8888 0.8886
2299.000000 0.8887 0.8892 0.8890 0.8887 0.8885
2294.000000 0.8882 0.8881 0.8879 0.8879 0.8879
2289.000000 0.8879 0.8872 0.8868 0.8868 0.8868
2284.000000 0.8868 0.8858 0.8857 0.8857 0.8857
2279.000000 0.8857 0.8849 0.8852 0.8855 0.8850
2274.000000 0.8854 0.8857 0.8857 0.8854 0.8858
2269.000000 0.8857 0.8854 0.8857 0.8862 0.8859
2264.000000 0.8858 0.8861 0.8865 0.8861 0.8862
2259.000000 0.8865 0.8860 0.8861 0.8864 0.8868
2254.000000 0.8862 0.8865 0.8868 0.8870 0.8865
2249.000000 0.8868 0.8871 0.8874 0.8877 0.8875
2244.000000 0.8871 0.8873 0.8876 0.8879 0.8881
2239.000000 0.8883 0.8886 0.8888 0.8891 0.8886
2234.000000 0.8885 0.8887 0.8890 0.8893 0.8895
2229.000000 0.8897 0.8900 0.8902 0.8903 0.8905
2224.000000 0.8907 0.8909 0.8909 0.8902 0.8904
2219.000000 0.8905 0.8908 0.8910 0.8912 0.8913
2214.000000 0.8915 0.8917 0.8919 0.8920 0.8922
2209.000000 0.8923 0.8925 0.8925 0.8926 0.8926
2204.000000 0.8926 0.8926 0.8926 0.8926 0.8927
2199.000000 0.8927 0.8927 0.8927 0.8926 0.8919
2194.000000 0.8927 0.8925 0.8917 0.8917 0.8917
2189.000000 0.8916 0.8916 0.8916 0.8916 0.8916
2184.000000 0.8922 0.8919 0.8915 0.8915 0.8915
2179.000000 0.8914 0.8922 0.8924 0.8924 0.8924
2174.000000 0.8924 0.8923 0.8923 0.8923 0.8923
2169.000000 0.8921 0.8913 0.8912 0.8912 0.8912
2164.000000 0.8912 0.8912 0.8912 0.8912 0.8912
2159.000000 0.8912 0.8913 0.8913 0.8913 0.8913
2154.000000 0.8913 0.8913 0.8913 0.8913 0.8913
2149.000000 0.8913 0.8913 0.8913 0.8913 0.8913
2144.000000 0.8913 0.8913 0.8913 0.8912 0.8912
2139.000000 0.8912 0.8912 0.8912 0.8912 0.8912
2134.000000 0.8912 0.8912 0.8912 0.8912 0.8912
2129.000000 0.8911 0.8911 0.8911 0.8912 0.8913
2124.000000 0.8914 0.8914 0.8907 0.8914 0.8916
2119.000000 0.8917 0.8919 0.8918 0.8920 0.8921
2114.000000 0.8922 0.8923 0.8925 0.8926 0.8927
2109.000000 0.8928 0.8930 0.8931 0.8933 0.8934
2104.000000 0.8936 0.8937 0.8938 0.8938 0.8941
2099.000000 0.8941 0.8937 0.8936 0.8946 0.8949
2094.000000 0.8943 0.8952 0.8955 0.8956 0.8958
2089.000000 0.8959 0.8961 0.8961 0.8962 0.8962
2084.000000 0.8963 0.8963 0.8964 0.8964 0.8965
2079.000000 0.8965 0.8965 0.8963 0.8961 0.8959
2074.000000 0.8957 0.8955 0.8953 0.8951 0.8950
2069.000000 0.8948 0.8947 0.8945 0.8943 0.8941
2064.000000 0.8940 0.8938 0.8937 0.8934 0.8932
2059.000000 0.8930 0.8928 0.8929 0.8935 0.8934
2054.000000 0.8933 0.8933 0.8929 0.8927 0.8932
2049.000000 0.8927 0.8922 0.8922 0.8922 0.8922
2044.000000 0.8923 0.8923 0.8923 0.8923 0.8924
2039.000000 0.8924 0.8924 0.8924 0.8924 0.8923
2034.000000 0.8923 0.8922 0.8922 0.8921 0.8921
2029.000000 0.8920 0.8923 0.8925 0.8918 0.8922
2024.000000 0.8927 0.8926 0.8926 0.8925 0.8924
2019.000000 0.8922 0.8921 0.8920 0.8919 0.8918
2014.000000 0.8918 0.8917 0.8917 0.8917 0.8917
2009.000000 0.8917 0.8917 0.8916 0.8916 0.8916
2004.000000 0.8916 0.8916 0.8917 0.8919 0.8921
1999.000000 0.8924 0.8921 0.8915 0.8914 0.8914
1994.000000 0.8907 0.8798 0.8689 0.8604 0.8587
1989.000000 0.8586 0.8586 0.8656 0.8717 0.8787
1984.000000 0.8857 0.8915 0.8919 0.8922 0.8924
1979.000000 0.8926 0.8927 0.8929 0.8931 0.8933
1974.000000 0.8935 0.8937 0.8938 0.8940 0.8942
1969.000000 0.8944 0.8946 0.8947 0.8949 0.8951
1964.000000 0.8953 0.8955 0.8957 0.8958 0.8960
1959.000000 0.8962 0.8964 0.8966 0.8967 0.8969
1954.000000 0.8971 0.8973 0.8975 0.8977 0.8978
1949.000000 0.8980 0.8982 0.8984 0.8986 0.8987
1944.000000 0.8989 0.8991 0.8993 0.8995 0.8997
1939.000000 0.8998 0.9000 0.9002 0.9004 0.9006
1934.000000 0.9008 0.9009 0.9011 0.9013 0.9012
1929.000000 0.9010 0.9010 0.9010 0.9010 0.9010
1924.000000 0.9010 0.9010 0.9010 0.9010 0.9010
1919.000000 0.9010 0.9010 0.9009 0.9009 0.9010
1914.000000 0.9010 0.9012 0.9013 0.9013 0.9013
1909.000000 0.9015 0.9016 0.9025 0.9028 0.9029
1904.000000 0.9030 0.9031 0.9031 0.9031 0.9031
1899.000000 0.9030 0.9029 0.9028 0.9027 0.9026
1894.000000 0.9025 0.9023 0.9023 0.9018 0.9010
1889.000000 0.9010 0.9010 0.9010 0.9009 0.9009
1884.000000 0.9015 0.9018 0.9018 0.9018 0.9016
1879.000000 0.9016 0.9015 0.9015 0.9015 0.9024
1874.000000 0.9024 0.9024 0.9022 0.9022 0.9022
1869.000000 0.9024 0.9025 0.9025 0.9027 0.9027
1864.000000 0.9028 0.9029 0.9029 0.9031 0.9033
1859.000000 0.9032 0.9032 0.9041 0.9039 0.9037
1854.000000 0.9038 0.9038 0.9039 0.9040 0.9041
1849.000000 0.9042 0.9043 0.9043 0.9044 0.9045
1844.000000 0.9046 0.9047 0.9047 0.9048 0.9049
1839.000000 0.9050 0.9051 0.9052 0.9048 0.9043
1834.000000 0.9043 0.9044 0.9044 0.9045 0.9045
1829.000000 0.9046 0.9046 0.9047 0.9048 0.9048
1824.000000 0.9049 0.9049 0.9050 0.9050 0.9051
1819.000000 0.9061 0.9062 0.9062 0.9063 0.9064
1814.000000 0.9064 0.9065 0.9065 0.9066 0.9066
1809.000000 0.9062 0.9057 0.9057 0.9057 0.9057
1804.000000 0.9053 0.9048 0.9048 0.9048 0.9048
1799.000000 0.9049 0.9049 0.9049 0.9049 0.9050
1794.000000 0.9050 0.9050 0.9050 0.9050 0.9050
1789.000000 0.9050 0.9050 0.9050 0.9050 0.9050
1784.000000 0.9050 0.9050 0.9050 0.9050 0.9050
1779.000000 0.9050 0.9050 0.9049 0.9043 0.9039
1774.000000 0.9039 0.9039 0.9039 0.9039 0.9039
1769.000000 0.9039 0.9039 0.9038 0.9038 0.9037
1764.000000 0.9037 0.9036 0.9036 0.9035 0.9035
1759.000000 0.9036 0.9044 0.9043 0.9043 0.9042
1754.000000 0.9042 0.9041 0.9041 0.9039 0.9039
1749.000000 0.9038 0.9037 0.9037 0.9036 0.9037
1744.000000 0.9036 0.9035 0.9034 0.9034 0.9034
1739.000000 0.9033 0.9032 0.9032 0.9032 0.9031
1734.000000 0.9030 0.9030 0.9030 0.9029 0.9028
1729.000000 0.9028 0.9028 0.9027 0.9026 0.9026
1724.000000 0.9025 0.9025 0.9024 0.9024 0.9023
1719.000000 0.9023 0.9023 0.9024 0.9024 0.9026
1714.000000 0.9026 0.9027 0.9029 0.9029 0.9030
1709.000000 0.9031 0.9032 0.9033 0.9033 0.9035
1704.000000 0.9036 0.9036 0.9037 0.9038 0.9039
1699.000000 0.9040 0.9041 0.9042 0.9043 0.9043
1694.000000 0.9045 0.9046 0.9046 0.9048 0.9048
1689.000000 0.9049 0.9050 0.9051 0.9052 0.9052
1684.000000 0.9052 0.9053 0.9053 0.9053 0.9054
1679.000000 0.9054 0.9054 0.9054 0.9055 0.9054
1674.000000 0.9054 0.9058 0.9065 0.9065 0.9065
1669.000000 0.9065 0.9066 0.9066 0.9066 0.9066
1664.000000 0.9067 0.9067 0.9065 0.9063 0.9070
1659.000000 0.9061 0.9058 0.9065 0.9063 0.9062
1654.000000 0.9060 0.9057 0.9048 0.9053 0.9053
1649.000000 0.9050 0.9047 0.9046 0.9048 0.9051
1644.000000 0.9050 0.9048 0.9050 0.9053 0.9051
1639.000000 0.9049 0.9053 0.9054 0.9060 0.9059
1634.000000 0.9056 0.9062 0.9062 0.9068 0.9066
1629.000000 0.9073 0.9068 0.9068 0.9058 0.9045
1624.000000 0.9051 0.9053 0.9063 0.9057 0.9047
1619.000000 0.9046 0.9046 0.9048 0.9059 0.9071
1614.000000 0.9084 0.9095 0.9110 0.9131 0.9125
1609.000000 0.9123 0.9122 0.9113 0.9122 0.9096
1604.000000 0.9111 0.9104 0.9111 0.9076 0.9075
1599.000000 0.9066 0.9062 0.9053 0.9038 0.8997
1594.000000 0.8951 0.8910 0.8894 0.8882 0.8852
1589.000000 0.8837 0.8809 0.8765 0.8719 0.8664
1584.000000 0.8613 0.8490 0.8378 0.8299 0.8263
1579.000000 0.8230 0.8186 0.8166 0.8147 0.8137
1574.000000 0.8139 0.8131 0.8128 0.8147 0.8149
1569.000000 0.8163 0.8160 0.8171 0.8152 0.8146
1564.000000 0.8143 0.8130 0.8108 0.8096 0.8100
1559.000000 0.8051 0.7990 0.7912 0.7835 0.7775
1554.000000 0.7693 0.7602 0.7517 0.7412 0.7280
1549.000000 0.7170 0.7123 0.7079 0.7045 0.7001
1544.000000 0.6957 0.6908 0.6924 0.6927 0.6946
1539.000000 0.6958 0.6970 0.6972 0.7006 0.7057
1534.000000 0.7088 0.7118 0.7153 0.7215 0.7283
1529.000000 0.7358 0.7418 0.7460 0.7507 0.7559
1524.000000 0.7616 0.7662 0.7714 0.7759 0.7798
1519.000000 0.7825 0.7843 0.7869 0.7892 0.7909
1514.000000 0.7932 0.7947 0.7966 0.7978 0.7994
1509.000000 0.8010 0.8022 0.8033 0.8044 0.8054
1504.000000 0.8073 0.8088 0.8097 0.8117 0.8131
1499.000000 0.8140 0.8141 0.8148 0.8156 0.8172
1494.000000 0.8182 0.8199 0.8217 0.8236 0.8249
1489.000000 0.8256 0.8263 0.8271 0.8284 0.8297
1484.000000 0.8307 0.8325 0.8335 0.8341 0.8358
1479.000000 0.8297 0.8249 0.8199 0.8147 0.8061
1474.000000 0.7862 0.7418 0.7248 0.7083 0.6926
1469.000000 0.6715 0.6359 0.4538 0.3254 0.3281
1464.000000 0.3236 0.3261 0.3428 0.3600 0.3770
1459.000000 0.3940 0.4107 0.4283 0.4316 0.4329
1454.000000 0.4337 0.4364 0.4566 0.4768 0.4966
1449.000000 0.5166 0.5367 0.5564 0.5764 0.5965
1444.000000 0.6167 0.6368 0.6438 0.6448 0.6438
1439.000000 0.6425 0.6394 0.6341 0.6284 0.6256
1434.000000 0.6250 0.6308 0.6506 0.6708 0.6904
1429.000000 0.7052 0.7073 0.7090 0.7202 0.7495
1424.000000 0.7784 0.8016 0.8110 0.8169 0.8224
1419.000000 0.8280 0.8327 0.8372 0.8409 0.8451
1414.000000 0.8491 0.8534 0.8569 0.8594 0.8617
1409.000000 0.8640 0.8663 0.8683 0.8700 0.8718
1404.000000 0.8736 0.8752 0.8767 0.8780 0.8792
1399.000000 0.8802 0.8818 0.8829 0.8833 0.8850
1394.000000 0.8838 0.8838 0.8837 0.8835 0.8841
1389.000000 0.8847 0.8842 0.8847 0.8854 0.8860
1384.000000 0.8845 0.8797 0.8748 0.8700 0.8647
1379.000000 0.8585 0.8512 0.8224 0.7858 0.7491
1374.000000 0.7382 0.7368 0.7373 0.7461 0.7575
1369.000000 0.7688 0.7799 0.7882 0.7874 0.7864
1364.000000 0.7860 0.7872 0.7889 0.7908 0.7931
1359.000000 0.7956 0.7980 0.8005 0.8021 0.8047
1354.000000 0.8063 0.8057 0.8050 0.8044 0.8039
1349.000000 0.8033 0.8033 0.8047 0.8068 0.8090
1344.000000 0.8112 0.8137 0.8157 0.8186 0.8213
1339.000000 0.8238 0.8258 0.8265 0.8273 0.8279
1334.000000 0.8287 0.8291 0.8298 0.8302 0.8305
1329.000000 0.8301 0.8306 0.8309 0.8311 0.8304
1324.000000 0.8301 0.8298 0.8276 0.8257 0.8232
1319.000000 0.8208 0.8177 0.8152 0.8125 0.8082
1314.000000 0.8036 0.7989 0.7943 0.7882 0.7820
1309.000000 0.7726 0.7581 0.7428 0.7286 0.7156
1304.000000 0.7067 0.7022 0.6977 0.6933 0.6915
1299.000000 0.6897 0.6880 0.6864 0.6859 0.6858
1294.000000 0.6855 0.6855 0.6854 0.6862 0.6849
1289.000000 0.6850 0.6851 0.6854 0.6855 0.6856
1284.000000 0.6857 0.6860 0.6862 0.6866 0.6869
1279.000000 0.6872 0.6874 0.6878 0.6892 0.6895
1274.000000 0.6895 0.6891 0.6888 0.6870 0.6840
1269.000000 0.6812 0.6781 0.6754 0.6730 0.6705
1264.000000 0.6689 0.6680 0.6672 0.6664 0.6655
1259.000000 0.6638 0.6604 0.6570 0.6534 0.6500
1254.000000 0.6469 0.6433 0.6400 0.6369 0.6336
1249.000000 0.6336 0.6335 0.6334 0.6358 0.6381
1244.000000 0.6400 0.6431 0.6462 0.6493 0.6523
1239.000000 0.6558 0.6594 0.6625 0.6656 0.6685
1234.000000 0.6719 0.6754 0.6789 0.6821 0.6848
1229.000000 0.6873 0.6898 0.6927 0.6958 0.6989
1224.000000 0.7017 0.7046 0.7072 0.7072 0.7067
1219.000000 0.7057 0.7043 0.7034 0.7018 0.7012
1214.000000 0.7034 0.7067 0.7103 0.7131 0.7162
1209.000000 0.7191 0.7221 0.7250 0.7279 0.7313
1204.000000 0.7349 0.7383 0.7419 0.7454 0.7489
1199.000000 0.7525 0.7551 0.7575 0.7598 0.7622
1194.000000 0.7646 0.7678 0.7701 0.7724 0.7749
1189.000000 0.7775 0.7801 0.7827 0.7853 0.7879
1184.000000 0.7905 0.7923 0.7936 0.7953 0.7980
1179.000000 0.7999 0.8016 0.8030 0.8040 0.8049
1174.000000 0.8059 0.8068 0.8077 0.8086 0.8097
1169.000000 0.8105 0.8114 0.8132 0.8140 0.8147
1164.000000 0.8155 0.8164 0.8171 0.8179 0.8187
1159.000000 0.8195 0.8199 0.8205 0.8209 0.8215
1154.000000 0.8219 0.8223 0.8227 0.8225 0.8232
1149.000000 0.8235 0.8224 0.8217 0.8211 0.8207
1144.000000 0.8200 0.8188 0.8188 0.8179 0.8163
1139.000000 0.8157 0.8153 0.8169 0.8185 0.8208
1134.000000 0.8222 0.8230 0.8244 0.8261 0.8276
1129.000000 0.8286 0.8297 0.8311 0.8313 0.8314
1124.000000 0.8314 0.8315 0.8321 0.8324 0.8317
1119.000000 0.8310 0.8303 0.8296 0.8298 0.8294
1114.000000 0.8292 0.8292 0.8295 0.8298 0.8302
1109.000000 0.8303 0.8302 0.8312 0.8308 0.8312
1104.000000 0.8316 0.8319 0.8324 0.8328 0.8334
1099.000000 0.8334 0.8334 0.8326 0.8319 0.8313
1094.000000 0.8302 0.8292 0.8283 0.8273 0.8264
1089.000000 0.8253 0.8243 0.8233 0.8228 0.8221
1084.000000 0.8213 0.8206 0.8198 0.8183 0.8175
1079.000000 0.8167 0.8153 0.8143 0.8133 0.8131
1074.000000 0.8129 0.8131 0.8134 0.8132 0.8130
1069.000000 0.8129 0.8128 0.8129 0.8134 0.8139
1064.000000 0.8143 0.8149 0.8162 0.8169 0.8173
1059.000000 0.8168 0.8183 0.8188 0.8183 0.8187
1054.000000 0.8191 0.8195 0.8200 0.8206 0.8217
1049.000000 0.8221 0.8224 0.8228 0.8234 0.8238
1044.000000 0.8241 0.8245 0.8248 0.8252 0.8255
1039.000000 0.8258 0.8262 0.8265 0.8270 0.8273
1034.000000 0.8276 0.8280 0.8283 0.8287 0.8281
1029.000000 0.8285 0.8288 0.8292 0.8295 0.8292
1024.000000 0.8275 0.8299 0.8305 0.8308 0.8312
1019.000000 0.8317 0.8322 0.8327 0.8331 0.8335
1014.000000 0.8339 0.8343 0.8348 0.8352 0.8356
1009.000000 0.8360 0.8355 0.8359 0.8362 0.8363
1004.000000 0.8354 0.8354 0.8354 0.8350 0.8344
999.000000 0.8340 0.8334 0.8320 0.8313 0.8305
994.000000 0.8298 0.8298 0.8301 0.8308 0.8309
989.000000 0.8311 0.8312 0.8314 0.8317 0.8319
984.000000 0.8321 0.8323 0.8326 0.8328 0.8329
979.000000 0.8332 0.8333 0.8336 0.8337 0.8339
974.000000 0.8340 0.8342 0.8337 0.8346 0.8349
969.000000 0.8350 0.8352 0.8354 0.8356 0.8358
964.000000 0.8360 0.8362 0.8365 0.8367 0.8369
959.000000 0.8370 0.8373 0.8375 0.8377 0.8379
954.000000 0.8380 0.8383 0.8383 0.8384 0.8384
949.000000 0.8384 0.8386 0.8387 0.8387 0.8387
944.000000 0.8386 0.8387 0.8387 0.8387 0.8387
939.000000 0.8387 0.8386 0.8386 0.8383 0.8380
934.000000 0.8378 0.8375 0.8372 0.8368 0.8366
929.000000 0.8365 0.8365 0.8366 0.8366 0.8367
924.000000 0.8367 0.8366 0.8365 0.8364 0.8364
919.000000 0.8364 0.8369 0.8363 0.8370 0.8369
914.000000 0.8366 0.8362 0.8362 0.8365 0.8361
909.000000 0.8359 0.8364 0.8365 0.8363 0.8368
904.000000 0.8368 0.8364 0.8367 0.8365 0.8367
899.000000 0.8356 0.8349 0.8341 0.8332 0.8323
894.000000 0.8318 0.8304 0.8301 0.8296 0.8291
889.000000 0.8289 0.8291 0.8289 0.8288 0.8273
884.000000 0.8267 0.8255 0.8236 0.8225 0.8211
879.000000 0.8195 0.8177 0.8161 0.8145 0.8132
874.000000 0.8117 0.8101 0.8088 0.8075 0.8063
869.000000 0.8051 0.8038 0.8033 0.8019 0.8008
864.000000 0.8003 0.8001 0.7991 0.7982 0.7980
859.000000 0.7971 0.7955 0.7931 0.7904 0.7866
854.000000 0.7831 0.7790 0.7754 0.7718 0.7688
849.000000 0.7734 0.7754 0.7773 0.7800 0.7835
844.000000 0.7853 0.7876 0.7902 0.7930 0.7971
839.000000 0.8019 0.8059 0.8105 0.8139 0.8165
834.000000 0.8185 0.8201 0.8212 0.8220 0.8232
829.000000 0.8245 0.8254 0.8265 0.8276 0.8288
824.000000 0.8303 0.8319 0.8335 0.8343 0.8344
819.000000 0.8350 0.8378 0.8353 0.8355 0.8350
814.000000 0.8342 0.8335 0.8339 0.8342 0.8337
809.000000 0.8337 0.8327 0.8313 0.8316 0.8321
804.000000 0.8320 0.8319 0.8318 0.8317 0.8317
799.000000 0.8318 0.8320 0.8321 0.8322 0.8324
794.000000 0.8318 0.8318 0.8319 0.8328 0.8321
789.000000 0.8321 0.8322 0.8323 0.8324 0.8323
784.000000 0.8323 0.8314 0.8306 0.8301 0.8292
779.000000 0.8290 0.8285 0.8276 0.8274 0.8272
774.000000 0.8270 0.8261 0.8250 0.8246 0.8242
769.000000 0.8229 0.8222 0.8216 0.8212 0.8197
764.000000 0.8188 0.8180 0.8172 0.8164 0.8155
759.000000 0.8149 0.8140 0.8131 0.8117 0.8105
754.000000 0.8094 0.8086 0.8075 0.8060 0.8048
749.000000 0.8033 0.8020 0.8006 0.7992 0.7977
744.000000 0.7964 0.7950 0.7931 0.7912 0.7891
739.000000 0.7871 0.7851 0.7831 0.7804 0.7776
734.000000 0.7748 0.7719 0.7686 0.7644 0.7608
729.000000 0.7561 0.7507 0.7451 0.7367 0.7199
724.000000 0.7008 0.6819 0.6632 0.6445 0.6275
719.000000 0.6244 0.6237 0.6237 0.6354 0.6481
714.000000 0.6618 0.6752 0.6884 0.7015 0.7146
709.000000 0.7306 0.7585 0.7723 0.7822 0.7890
704.000000 0.7959 0.8038 0.8105 0.8173 0.8246
699.000000 0.8311 0.8351 0.8388 0.8425 0.8462
694.000000 0.8490 0.8514 0.8535 0.8549 0.8564
689.000000 0.8577 0.8595 0.8610 0.8621 0.8633
684.000000 0.8643 0.8660 0.8667 0.8672 0.8686
679.000000 0.8689 0.8729 0.8726 0.8746 0.8754
674.000000 0.8746 0.8744 0.8731 0.8724 0.8732
669.000000 0.8796 0.8811 0.8668 0.8533 0.8454
664.000000 0.8409 0.8410 0.8411 0.8414 0.8417
659.000000 0.8420 0.8363 0.8290 0.8181 0.8053
654.000000 0.7923 0.7792 0.7653 0.7523 0.7383
649.000000 0.7245 0.7107 0.7017 0.6990 0.6973
644.000000 0.6962 0.6991 0.7106 0.7198 0.7289
639.000000 0.7384 0.7476 0.7566 0.7666 0.7764
634.000000 0.7852 0.7949 0.8045 0.8138 0.8239
629.000000 0.8316 0.8367 0.8399 0.8424 0.8456
624.000000 0.8489 0.8505 0.8532 0.8556 0.8579
619.000000 0.8595 0.8615 0.8624 0.8629 0.8640
614.000000 0.8648 0.8653 0.8664 0.8680 0.8698
609.000000 0.8725 0.8742 0.8750 0.8746 0.8747
604.000000 0.8744 0.8743 0.8741 0.8741 0.8741
599.000000 0.8744 0.8749 0.8752 0.8756 0.8763
594.000000 0.8768 0.8773 0.8776 0.8780 0.8812
589.000000 0.8879 0.8948 0.8993 0.8991 0.8992
584.000000 0.8879 0.8772 0.8720 0.8686 0.8648
579.000000 0.8599 0.8526 0.8448 0.8377 0.8309
574.000000 0.8222 0.8126 0.8060 0.7992 0.7890
569.000000 0.7744 0.7610 0.7507 0.7400 0.7349
564.000000 0.7333 0.7357 0.7321 0.7322 0.7572
559.000000 0.7886 0.8016 0.8127 0.8218 0.8305
554.000000 0.8357 0.8414 0.8440 0.8476 0.8511
549.000000 0.8544 0.8574 0.8592 0.8609 0.8626
544.000000 0.8639 0.8651 0.8661 0.8672 0.8677
539.000000 0.8682 0.8693 0.8700 0.8710 0.8711
534.000000 0.8710 0.8720 0.8721 0.8722 0.8722
529.000000 0.8723 0.8723 0.8724 0.8731 0.8736
524.000000 0.8735 0.8735 0.8735 0.8734 0.8734
519.000000 0.8733 0.8733 0.8733 0.8734 0.8734
514.000000 0.8735 0.8736 0.8736 0.8737 0.8737
509.000000 0.8736 0.8736 0.8735 0.8735 0.8735
504.000000 0.8734 0.8734 0.8733 0.8732 0.8731
499.000000 0.8730 0.8729 0.8728 0.8727 0.8726
494.000000 0.8725 0.8723 0.8722 0.8722 0.8721
489.000000 0.8721 0.8720 0.8720 0.8720 0.8719
484.000000 0.8719 0.8718 0.8718 0.8718 0.8718
479.000000 0.8717 0.8709 0.8702 0.8695 0.8687
474.000000 0.8680 0.8673 0.8666 0.8656 0.8647
469.000000 0.8640 0.8631 0.8622 0.8613 0.8605
464.000000 0.8595 0.8586 0.8576 0.8566 0.8555
459.000000 0.8544 0.8535 0.8524 0.8514 0.8503
454.000000 0.8491 0.8480 0.8467 0.8456 0.8444
449.000000 0.8430 0.8418 0.8404 0.8389 0.8376
444.000000 0.8363 0.8349 0.8334 0.8322 0.8302
439.000000 0.8282 0.8261 0.8240 0.8220 0.8199
434.000000 0.8178 0.8157 0.8136 0.8115 0.8091
429.000000 0.8065 0.8040 0.8014 0.7987 0.7955
424.000000 0.7924 0.7893 0.7861 0.7827 0.7791
419.000000 0.7754 0.7715 0.7673 0.7631 0.7589
414.000000 0.7545 0.7497 0.7435 0.7373 0.7280
409.000000 0.7180 0.7080 0.6947 0.6695 0.6362
404.000000 0.6237 0.6111 0.5982 0.5831 0.5595
399.000000 0.5381 0.5215 0.5106 0.5016 0.4928
394.000000 0.4860 0.4799 0.4739 0.4684 0.4630
389.000000 0.4574 0.4526 0.4481 0.4435 0.4374
384.000000 0.4286
##END=
