##TITLE=Naphthalene, 1-ethyl-
##JCAMP-DX=4.24
##DATA TYPE=INFRARED SPECTRUM
##CLASS=COBLENTZ III
##ORIGIN=DOW CHEMICAL COMPANY
##OWNER=Copyright (C) 1987 by the Coblentz Society
Collection (C) 2018 copyright by the U.S. Secretary of Commerce
on behalf of the United States of America. All rights reserved.
##DATE=1964/03/05
##NAMES=1-ethylnaphthalene
##CAS REGISTRY NO=1127-76-0
##MOLFORM=C12 H12
##SOURCE REFERENCE=COBLENTZ NO. 8055
##$NIST SOURCE=COBLENTZ
##$NIST IMAGE=cob8055
##SPECTROMETER/DATA SYSTEM=DOW KBr FOREPRISM-GRATING
##INSTRUMENT PARAMETERS=BLAZED AT 3.5, 12.0, 20.0 MICRON AND CHANGED AT 5.0, 7.5, 14.9 MICRON
##STATE=SOLUTION (10% CCl4 FOR 3800-1335, 10% CS2 FOR 1335-450 CM^-^1)
##PATH LENGTH=0.011 CM, 0.011 CM
$$SPECTRAL CONTAMINATION DUE TO CS2 AROUND 860, AND CCl4 AROUND 1550 CM^-^1
$$ SPECTRAL FEATURE AT 1993 CM^-^1 IS PROBABLY AN ARTIFACT CAUSED BY GRATING CHANGE
##SAMPLING PROCEDURE=TRANSMISSION
##RESOLUTION=2
##DATA PROCESSING=DIGITIZED BY COBLENTZ SOCIETY (BATCH II) FROM HARD COPY
##XUNITS=1/CM
##YUNITS=TRANSMITTANCE
##XFACTOR=1.0
##YFACTOR=1
##FIRSTX=451
##LASTX=3802
##FIRSTY=0.7772
##MAXX=3802
##MINX=451
##MAXY=0.9103
##MINY=0.0316
##NPOINTS=3352
##XYDATA=(X++(Y..Y))
451.000000 0.7772 0.7754 0.7727 0.7699 0.7670
456.000000 0.7642 0.7614 0.7585 0.7557 0.7528
461.000000 0.7500 0.7471 0.7443 0.7415 0.7387
466.000000 0.7359 0.7331 0.7291 0.7246 0.7195
471.000000 0.7115 0.6939 0.6628 0.6243 0.5857
476.000000 0.5472 0.5087 0.4702 0.4316 0.3952
481.000000 0.3934 0.4026 0.4620 0.5215 0.5810
486.000000 0.6404 0.6999 0.8029 0.8169 0.8369
491.000000 0.8440 0.8511 0.8571 0.8626 0.8654
496.000000 0.8681 0.8693 0.8705 0.8715 0.8717
501.000000 0.8719 0.8721 0.8723 0.8725 0.8727
506.000000 0.8725 0.8720 0.8715 0.8711 0.8706
511.000000 0.8699 0.8699 0.8703 0.8715 0.8712
516.000000 0.8711 0.8710 0.8709 0.8699 0.8688
521.000000 0.8677 0.8661 0.8643 0.8626 0.8606
526.000000 0.8575 0.8529 0.8482 0.8432 0.8378
531.000000 0.8297 0.8279 0.8275 0.8290 0.8311
536.000000 0.8339 0.8376 0.8413 0.8454 0.8503
541.000000 0.8559 0.8604 0.8651 0.8697 0.8711
546.000000 0.8721 0.8740 0.8713 0.8698 0.8647
551.000000 0.8563 0.8512 0.8461 0.8392 0.8039
556.000000 0.8078 0.8032 0.8169 0.8492 0.8785
561.000000 0.8932 0.8994 0.9001 0.8998 0.8990
566.000000 0.9037 0.8982 0.8980 0.8977 0.8972
571.000000 0.8967 0.8961 0.8953 0.8945 0.8922
576.000000 0.8887 0.8822 0.8773 0.8702 0.8347
581.000000 0.7992 0.7889 0.7879 0.8118 0.8520
586.000000 0.8829 0.8890 0.8936 0.8980 0.9009
591.000000 0.9035 0.9045 0.9054 0.9064 0.9073
596.000000 0.9077 0.9079 0.9081 0.9083 0.9084
601.000000 0.9083 0.9103 0.9080 0.9078 0.9069
606.000000 0.9061 0.9052 0.9043 0.9030 0.9012
611.000000 0.8993 0.8975 0.8950 0.8922 0.8883
616.000000 0.8791 0.8301 0.7811 0.7687 0.7658
621.000000 0.8032 0.8414 0.8797 0.8859 0.8889
626.000000 0.8909 0.8911 0.8920 0.8898 0.8888
631.000000 0.8878 0.8864 0.8849 0.8833 0.8808
636.000000 0.8781 0.8735 0.8673 0.8566 0.8388
641.000000 0.8192 0.8113 0.8112 0.8118 0.8131
646.000000 0.8181 0.8260 0.8267 0.8274 0.8271
651.000000 0.8258 0.8235 0.8194 0.8178 0.8184
656.000000 0.8199 0.8284 0.8363 0.8428 0.8569
661.000000 0.8679 0.8764 0.8821 0.8842 0.8824
666.000000 0.8868 0.8861 0.8803 0.8745 0.8688
671.000000 0.8630 0.8577 0.8584 0.8587 0.8586
676.000000 0.8584 0.8581 0.8576 0.8571 0.8563
681.000000 0.8552 0.8536 0.8519 0.8501 0.8483
686.000000 0.8465 0.8437 0.8409 0.8358 0.8303
691.000000 0.8238 0.8161 0.8016 0.7822 0.7629
696.000000 0.7463 0.7466 0.7671 0.8179 0.8266
701.000000 0.8360 0.8436 0.8476 0.8489 0.8502
706.000000 0.8508 0.8511 0.8499 0.8512 0.8511
711.000000 0.8509 0.8506 0.8497 0.8479 0.8460
716.000000 0.8435 0.8406 0.8374 0.8328 0.8282
721.000000 0.8212 0.8095 0.7997 0.7862 0.7653
726.000000 0.7342 0.7031 0.6721 0.6410 0.6337
731.000000 0.6348 0.6355 0.6346 0.6055 0.5705
736.000000 0.5235 0.4968 0.4642 0.4053 0.3464
741.000000 0.2875 0.2648 0.2652 0.3085 0.3922
746.000000 0.4758 0.5595 0.6432 0.6992 0.7019
751.000000 0.7020 0.7017 0.7013 0.6898 0.6810
756.000000 0.6741 0.6643 0.6386 0.5944 0.5502
761.000000 0.5380 0.5492 0.5718 0.5944 0.6074
766.000000 0.5216 0.4381 0.3545 0.2709 0.1873
771.000000 0.1037 0.0488 0.0410 0.0353 0.0316
776.000000 0.0322 0.0373 0.0453 0.0559 0.0659
781.000000 0.0730 0.0786 0.0838 0.0903 0.1967
786.000000 0.4353 0.4614 0.4946 0.4924 0.4012
791.000000 0.3178 0.2344 0.1510 0.0800 0.0806
796.000000 0.1091 0.0771 0.2956 0.3889 0.4656
801.000000 0.4791 0.5176 0.5562 0.5949 0.6281
806.000000 0.6318 0.6293 0.6307 0.5845 0.5114
811.000000 0.4382 0.3650 0.2919 0.2187 0.1456
816.000000 0.1267 0.2198 0.3625 0.5052 0.6425
821.000000 0.6702 0.6905 0.7121 0.7302 0.7477
826.000000 0.7664 0.7842 0.7960 0.8001 0.8026
831.000000 0.8024 0.8043 0.8019 0.8003 0.7974
836.000000 0.7944 0.7915 0.7875 0.7832 0.7778
841.000000 0.7688 0.7569 0.7405 0.7264 0.7104
846.000000 0.6433 0.5455 0.4477 0.3499 0.2522
851.000000 0.1941 0.1924 0.2940 0.4177 0.4959
856.000000 0.4992 0.5007 0.5022 0.5531 0.6792
861.000000 0.6895 0.6996 0.7085 0.7117 0.7146
866.000000 0.7163 0.7178 0.7196 0.7229 0.7262
871.000000 0.7304 0.7351 0.7390 0.7420 0.7439
876.000000 0.7442 0.7445 0.7442 0.7418 0.7389
881.000000 0.7125 0.6634 0.6143 0.5653 0.5162
886.000000 0.4671 0.4505 0.4501 0.5494 0.6227
891.000000 0.6959 0.7559 0.7829 0.8015 0.8080
896.000000 0.8125 0.8157 0.8190 0.8227 0.8269
901.000000 0.8310 0.8364 0.8425 0.8482 0.8517
906.000000 0.8552 0.8588 0.8602 0.8616 0.8630
911.000000 0.8644 0.8651 0.8656 0.8661 0.8665
916.000000 0.8664 0.8688 0.8661 0.8659 0.8654
921.000000 0.8650 0.8646 0.8635 0.8625 0.8614
926.000000 0.8603 0.8593 0.8582 0.8568 0.8552
931.000000 0.8536 0.8520 0.8495 0.8461 0.8427
936.000000 0.8384 0.8338 0.8264 0.8023 0.7306
941.000000 0.6552 0.6540 0.6538 0.6550 0.6556
946.000000 0.7137 0.7430 0.7546 0.7562 0.7566
951.000000 0.7559 0.7550 0.7508 0.7380 0.7253
956.000000 0.7168 0.7180 0.7493 0.7493 0.7424
961.000000 0.7347 0.7308 0.7323 0.8082 0.8168
966.000000 0.8234 0.8280 0.8314 0.8342 0.8370
971.000000 0.8399 0.8429 0.8459 0.8490 0.8521
976.000000 0.8552 0.8583 0.8613 0.8629 0.8644
981.000000 0.8660 0.8661 0.8661 0.8659 0.8657
986.000000 0.8673 0.8652 0.8646 0.8638 0.8630
991.000000 0.8623 0.8614 0.8602 0.8590 0.8576
996.000000 0.8552 0.8520 0.8481 0.8392 0.8241
1001.000000 0.8154 0.8087 0.8022 0.7883 0.7735
1006.000000 0.7587 0.7467 0.7461 0.7567 0.7754
1011.000000 0.7941 0.8054 0.8066 0.8055 0.7909
1016.000000 0.7676 0.7474 0.7480 0.7452 0.8031
1021.000000 0.8017 0.7909 0.7785 0.7661 0.7572
1026.000000 0.7650 0.8032 0.8413 0.8595 0.8620
1031.000000 0.8620 0.8620 0.8643 0.8604 0.8593
1036.000000 0.8576 0.8556 0.8523 0.8494 0.8464
1041.000000 0.8432 0.8401 0.8369 0.8339 0.8311
1046.000000 0.8268 0.8100 0.7932 0.7764 0.7596
1051.000000 0.7428 0.7260 0.7092 0.6929 0.6862
1056.000000 0.6860 0.6863 0.6891 0.7133 0.7692
1061.000000 0.8035 0.8066 0.8092 0.8117 0.8140
1066.000000 0.8164 0.8189 0.8224 0.8262 0.8311
1071.000000 0.8355 0.8365 0.8361 0.8352 0.8340
1076.000000 0.8327 0.8306 0.8267 0.8222 0.8180
1081.000000 0.8148 0.8160 0.8181 0.8209 0.8247
1086.000000 0.8284 0.8329 0.8381 0.8435 0.8513
1091.000000 0.8589 0.8657 0.8688 0.8709 0.8726
1096.000000 0.8731 0.8735 0.8740 0.8740 0.8738
1101.000000 0.8737 0.8736 0.8735 0.8731 0.8728
1106.000000 0.8724 0.8721 0.8717 0.8706 0.8695
1111.000000 0.8684 0.8673 0.8660 0.8638 0.8616
1116.000000 0.8594 0.8573 0.8547 0.8395 0.8242
1121.000000 0.8090 0.7937 0.7645 0.7582 0.7565
1126.000000 0.7537 0.7579 0.7884 0.8243 0.8392
1131.000000 0.8445 0.8407 0.8390 0.8352 0.8307
1136.000000 0.8262 0.8199 0.8133 0.7960 0.7770
1141.000000 0.7615 0.7608 0.7818 0.7998 0.8166
1146.000000 0.8170 0.8165 0.8174 0.8132 0.8109
1151.000000 0.8086 0.8058 0.8029 0.7999 0.7970
1156.000000 0.7940 0.7906 0.7872 0.7811 0.7703
1161.000000 0.7570 0.7218 0.7107 0.7016 0.6996
1166.000000 0.7008 0.7095 0.7311 0.7526 0.7742
1171.000000 0.7907 0.8069 0.8275 0.8351 0.8396
1176.000000 0.8431 0.8458 0.8485 0.8513 0.8551
1181.000000 0.8574 0.8586 0.8587 0.8588 0.8616
1186.000000 0.8590 0.8591 0.8589 0.8583 0.8572
1191.000000 0.8561 0.8548 0.8529 0.8510 0.8491
1196.000000 0.8472 0.8453 0.8435 0.8416 0.8397
1201.000000 0.8379 0.8359 0.8339 0.8319 0.8299
1206.000000 0.8278 0.8258 0.8237 0.8218 0.8211
1211.000000 0.8205 0.8197 0.8238 0.8287 0.8333
1216.000000 0.8380 0.8439 0.8493 0.8533 0.8567
1221.000000 0.8587 0.8602 0.8609 0.8599 0.8592
1226.000000 0.8580 0.8566 0.8539 0.8505 0.8449
1231.000000 0.8413 0.8426 0.8439 0.8456 0.8465
1236.000000 0.8469 0.8448 0.8417 0.8390 0.8366
1241.000000 0.8353 0.8350 0.8347 0.8340 0.8333
1246.000000 0.8309 0.8281 0.8247 0.8182 0.8095
1251.000000 0.8027 0.7978 0.7954 0.7933 0.7912
1256.000000 0.7873 0.7835 0.7798 0.7743 0.7574
1261.000000 0.7343 0.7343 0.7405 0.7523 0.7642
1266.000000 0.7760 0.7779 0.7625 0.7416 0.7207
1271.000000 0.7162 0.7492 0.8081 0.8293 0.8333
1276.000000 0.8374 0.8399 0.8422 0.8445 0.8460
1281.000000 0.8473 0.8485 0.8496 0.8501 0.8506
1286.000000 0.8511 0.8515 0.8518 0.8516 0.8513
1291.000000 0.8511 0.8546 0.8506 0.8495 0.8483
1296.000000 0.8471 0.8460 0.8442 0.8415 0.8388
1301.000000 0.8360 0.8316 0.8267 0.8218 0.8167
1306.000000 0.8113 0.8060 0.7996 0.7928 0.7860
1311.000000 0.7791 0.7721 0.7651 0.7586 0.7535
1316.000000 0.7484 0.7431 0.7373 0.7368 0.7367
1321.000000 0.7382 0.7470 0.7582 0.7695 0.7807
1326.000000 0.7920 0.8032 0.8143 0.8187 0.8222
1331.000000 0.8252 0.8274 0.8292 0.8306 0.8317
1336.000000 0.8327 0.8333 0.8339 0.8344 0.8345
1341.000000 0.8343 0.8344 0.8335 0.8318 0.8301
1346.000000 0.8274 0.8233 0.8195 0.8152 0.8095
1351.000000 0.8034 0.7975 0.7964 0.7968 0.7991
1356.000000 0.8019 0.8049 0.8085 0.8091 0.8084
1361.000000 0.8064 0.8015 0.7950 0.7885 0.7859
1366.000000 0.7834 0.7807 0.7775 0.7740 0.7688
1371.000000 0.7599 0.7486 0.7334 0.7001 0.6777
1376.000000 0.6775 0.6760 0.6775 0.6808 0.6855
1381.000000 0.6907 0.6985 0.7098 0.7177 0.7239
1386.000000 0.7291 0.7332 0.7372 0.7379 0.7381
1391.000000 0.7375 0.7342 0.7201 0.6984 0.6396
1396.000000 0.6268 0.6309 0.6422 0.6507 0.6566
1401.000000 0.6606 0.6659 0.6731 0.7261 0.7542
1406.000000 0.7970 0.8010 0.8031 0.8037 0.8040
1411.000000 0.8037 0.8035 0.8034 0.8049 0.8085
1416.000000 0.8114 0.8122 0.8128 0.8120 0.8112
1421.000000 0.8098 0.8075 0.8042 0.8005 0.7967
1426.000000 0.7929 0.7891 0.7852 0.7813 0.7774
1431.000000 0.7726 0.7669 0.7613 0.7549 0.7479
1436.000000 0.7413 0.7358 0.7303 0.7248 0.7194
1441.000000 0.7140 0.7087 0.7046 0.7008 0.6972
1446.000000 0.6936 0.6901 0.6855 0.6702 0.6395
1451.000000 0.6088 0.5781 0.5474 0.5167 0.4779
1456.000000 0.4773 0.4782 0.5112 0.5457 0.5803
1461.000000 0.5850 0.5844 0.5821 0.5752 0.5707
1466.000000 0.5705 0.5714 0.5724 0.5729 0.5738
1471.000000 0.6473 0.6812 0.7127 0.7446 0.7498
1476.000000 0.7524 0.7544 0.7556 0.7566 0.7575
1481.000000 0.7606 0.7577 0.7570 0.7560 0.7547
1486.000000 0.7532 0.7514 0.7482 0.7430 0.7355
1491.000000 0.7280 0.7212 0.7147 0.7086 0.7033
1496.000000 0.6980 0.6927 0.6865 0.6799 0.6731
1501.000000 0.6651 0.6570 0.6494 0.6419 0.6321
1506.000000 0.6178 0.6001 0.5826 0.5677 0.5131
1511.000000 0.3536 0.2967 0.2974 0.3340 0.3802
1516.000000 0.4264 0.4727 0.5189 0.5651 0.5910
1521.000000 0.5931 0.5957 0.5956 0.5955 0.5949
1526.000000 0.5933 0.5901 0.5868 0.5835 0.5802
1531.000000 0.5769 0.5733 0.5696 0.5653 0.5592
1536.000000 0.5531 0.5465 0.5396 0.5327 0.5245
1541.000000 0.5159 0.5092 0.5030 0.4967 0.4876
1546.000000 0.4782 0.4680 0.4600 0.4540 0.4490
1551.000000 0.4443 0.4436 0.4448 0.4477 0.4508
1556.000000 0.4539 0.4571 0.4607 0.4694 0.4799
1561.000000 0.4904 0.5008 0.5113 0.5218 0.5322
1566.000000 0.5427 0.5532 0.5637 0.5792 0.5815
1571.000000 0.5830 0.5840 0.5848 0.5851 0.5850
1576.000000 0.5855 0.5833 0.5799 0.5765 0.5737
1581.000000 0.5711 0.5704 0.5708 0.5714 0.5720
1586.000000 0.5726 0.5733 0.5734 0.5712 0.5634
1591.000000 0.5556 0.5477 0.5399 0.5321 0.5242
1596.000000 0.5132 0.5006 0.4867 0.4747 0.4728
1601.000000 0.4733 0.4725 0.5327 0.5688 0.6048
1606.000000 0.6409 0.6769 0.7130 0.7480 0.7600
1611.000000 0.7697 0.7768 0.7833 0.7867 0.7895
1616.000000 0.7914 0.7917 0.7932 0.7917 0.7907
1621.000000 0.7896 0.7881 0.7859 0.7834 0.7806
1626.000000 0.7767 0.7715 0.7648 0.7574 0.7500
1631.000000 0.7355 0.7341 0.7348 0.7351 0.7388
1636.000000 0.7469 0.7559 0.7649 0.7738 0.7828
1641.000000 0.7918 0.8008 0.8098 0.8163 0.8208
1646.000000 0.8240 0.8268 0.8289 0.8304 0.8315
1651.000000 0.8316 0.8314 0.8312 0.8309 0.8306
1656.000000 0.8302 0.8299 0.8295 0.8292 0.8290
1661.000000 0.8288 0.8284 0.8280 0.8275 0.8256
1666.000000 0.8237 0.8219 0.8201 0.8183 0.8164
1671.000000 0.8146 0.8136 0.8127 0.8118 0.8120
1676.000000 0.8127 0.8135 0.8143 0.8152 0.8161
1681.000000 0.8168 0.8167 0.8164 0.8146 0.8128
1686.000000 0.8110 0.8092 0.8082 0.8083 0.8083
1691.000000 0.8083 0.8088 0.8097 0.8106 0.8116
1696.000000 0.8137 0.8162 0.8186 0.8209 0.8229
1701.000000 0.8248 0.8264 0.8281 0.8297 0.8313
1706.000000 0.8329 0.8342 0.8355 0.8368 0.8381
1711.000000 0.8393 0.8402 0.8411 0.8409 0.8401
1716.000000 0.8392 0.8383 0.8369 0.8354 0.8338
1721.000000 0.8319 0.8312 0.8315 0.8318 0.8321
1726.000000 0.8324 0.8327 0.8330 0.8331 0.8331
1731.000000 0.8331 0.8329 0.8321 0.8313 0.8297
1736.000000 0.8276 0.8254 0.8227 0.8198 0.8201
1741.000000 0.8204 0.8208 0.8214 0.8223 0.8232
1746.000000 0.8241 0.8253 0.8265 0.8276 0.8288
1751.000000 0.8287 0.8276 0.8257 0.8230 0.8185
1756.000000 0.8149 0.8119 0.8090 0.8066 0.8066
1761.000000 0.8076 0.8085 0.8101 0.8118 0.8134
1766.000000 0.8151 0.8169 0.8186 0.8183 0.8171
1771.000000 0.8159 0.8166 0.8175 0.8198 0.8221
1776.000000 0.8244 0.8267 0.8285 0.8299 0.8314
1781.000000 0.8328 0.8326 0.8323 0.8320 0.8314
1786.000000 0.8299 0.8281 0.8250 0.8218 0.8183
1791.000000 0.8142 0.8100 0.8056 0.8009 0.7962
1796.000000 0.7911 0.7890 0.7895 0.7892 0.7916
1801.000000 0.7927 0.7943 0.7959 0.7976 0.7995
1806.000000 0.8014 0.8033 0.8067 0.8101 0.8148
1811.000000 0.8220 0.8280 0.8306 0.8313 0.8315
1816.000000 0.8312 0.8306 0.8298 0.8268 0.8232
1821.000000 0.8197 0.8181 0.8168 0.8157 0.8147
1826.000000 0.8144 0.8141 0.8142 0.8146 0.8149
1831.000000 0.8154 0.8164 0.8185 0.8224 0.8273
1836.000000 0.8313 0.8342 0.8365 0.8368 0.8365
1841.000000 0.8353 0.8340 0.8327 0.8315 0.8302
1846.000000 0.8290 0.8278 0.8266 0.8255 0.8245
1851.000000 0.8253 0.8265 0.8280 0.8284 0.8260
1856.000000 0.8226 0.8190 0.8155 0.8120 0.8089
1861.000000 0.8059 0.8054 0.8047 0.8066 0.8089
1866.000000 0.8136 0.8190 0.8232 0.8274 0.8316
1871.000000 0.8357 0.8380 0.8395 0.8409 0.8424
1876.000000 0.8432 0.8438 0.8435 0.8469 0.8428
1881.000000 0.8423 0.8415 0.8407 0.8399 0.8386
1886.000000 0.8371 0.8357 0.8342 0.8327 0.8312
1891.000000 0.8296 0.8284 0.8274 0.8265 0.8255
1896.000000 0.8232 0.8204 0.8178 0.8156 0.8133
1901.000000 0.8111 0.8103 0.8094 0.8086 0.8080
1906.000000 0.8075 0.8069 0.8051 0.8008 0.7942
1911.000000 0.7848 0.7802 0.7776 0.7772 0.7773
1916.000000 0.7781 0.7791 0.7819 0.7850 0.7890
1921.000000 0.7924 0.7938 0.7951 0.7960 0.7961
1926.000000 0.7962 0.7963 0.7965 0.8001 0.8046
1931.000000 0.8094 0.8103 0.8102 0.8113 0.8086
1936.000000 0.8060 0.8029 0.7996 0.7967 0.7944
1941.000000 0.7924 0.7922 0.7903 0.7942 0.7972
1946.000000 0.8035 0.8096 0.8155 0.8207 0.8257
1951.000000 0.8308 0.8347 0.8386 0.8425 0.8445
1956.000000 0.8464 0.8484 0.8494 0.8503 0.8511
1961.000000 0.8520 0.8529 0.8534 0.8537 0.8540
1966.000000 0.8543 0.8546 0.8548 0.8548 0.8547
1971.000000 0.8547 0.8547 0.8547 0.8547 0.8546
1976.000000 0.8546 0.8545 0.8544 0.8543 0.8542
1981.000000 0.8542 0.8541 0.8540 0.8539 0.8538
1986.000000 0.8536 0.8534 0.8531 0.8529 0.8527
1991.000000 0.8524 0.8508 0.8419 0.8330 0.8241
1996.000000 0.8172 0.8275 0.8386 0.8498 0.8526
2001.000000 0.8533 0.8541 0.8544 0.8548 0.8551
2006.000000 0.8555 0.8558 0.8562 0.8565 0.8569
2011.000000 0.8572 0.8576 0.8579 0.8582 0.8580
2016.000000 0.8579 0.8576 0.8573 0.8570 0.8568
2021.000000 0.8566 0.8564 0.8562 0.8560 0.8558
2026.000000 0.8556 0.8554 0.8553 0.8552 0.8552
2031.000000 0.8552 0.8553 0.8553 0.8554 0.8554
2036.000000 0.8555 0.8555 0.8556 0.8556 0.8557
2041.000000 0.8557 0.8558 0.8558 0.8559 0.8559
2046.000000 0.8560 0.8560 0.8561 0.8562 0.8563
2051.000000 0.8564 0.8565 0.8566 0.8567 0.8568
2056.000000 0.8569 0.8570 0.8571 0.8572 0.8573
2061.000000 0.8574 0.8576 0.8577 0.8578 0.8579
2066.000000 0.8581 0.8582 0.8584 0.8585 0.8587
2071.000000 0.8588 0.8589 0.8590 0.8592 0.8593
2076.000000 0.8595 0.8596 0.8598 0.8599 0.8601
2081.000000 0.8602 0.8604 0.8605 0.8607 0.8608
2086.000000 0.8610 0.8611 0.8613 0.8614 0.8616
2091.000000 0.8617 0.8619 0.8620 0.8621 0.8621
2096.000000 0.8621 0.8621 0.8621 0.8621 0.8622
2101.000000 0.8622 0.8622 0.8622 0.8622 0.8622
2106.000000 0.8622 0.8622 0.8623 0.8623 0.8623
2111.000000 0.8623 0.8623 0.8623 0.8624 0.8624
2116.000000 0.8624 0.8624 0.8624 0.8624 0.8624
2121.000000 0.8623 0.8623 0.8623 0.8623 0.8623
2126.000000 0.8623 0.8622 0.8622 0.8622 0.8622
2131.000000 0.8622 0.8622 0.8622 0.8622 0.8621
2136.000000 0.8621 0.8621 0.8621 0.8621 0.8621
2141.000000 0.8621 0.8621 0.8621 0.8621 0.8621
2146.000000 0.8621 0.8621 0.8621 0.8621 0.8622
2151.000000 0.8622 0.8622 0.8622 0.8622 0.8622
2156.000000 0.8623 0.8623 0.8623 0.8623 0.8623
2161.000000 0.8623 0.8624 0.8624 0.8624 0.8625
2166.000000 0.8626 0.8626 0.8627 0.8627 0.8628
2171.000000 0.8628 0.8629 0.8630 0.8631 0.8631
2176.000000 0.8632 0.8632 0.8633 0.8634 0.8635
2181.000000 0.8635 0.8636 0.8636 0.8637 0.8638
2186.000000 0.8639 0.8640 0.8641 0.8642 0.8644
2191.000000 0.8645 0.8647 0.8648 0.8649 0.8650
2196.000000 0.8652 0.8653 0.8654 0.8655 0.8657
2201.000000 0.8657 0.8658 0.8656 0.8654 0.8652
2206.000000 0.8650 0.8648 0.8646 0.8644 0.8642
2211.000000 0.8640 0.8638 0.8636 0.8634 0.8632
2216.000000 0.8630 0.8628 0.8626 0.8624 0.8622
2221.000000 0.8620 0.8618 0.8616 0.8615 0.8613
2226.000000 0.8611 0.8609 0.8607 0.8605 0.8603
2231.000000 0.8601 0.8599 0.8597 0.8596 0.8595
2236.000000 0.8594 0.8593 0.8592 0.8591 0.8590
2241.000000 0.8589 0.8588 0.8588 0.8588 0.8587
2246.000000 0.8587 0.8587 0.8587 0.8586 0.8586
2251.000000 0.8586 0.8586 0.8585 0.8584 0.8583
2256.000000 0.8582 0.8581 0.8580 0.8579 0.8578
2261.000000 0.8577 0.8576 0.8575 0.8574 0.8573
2266.000000 0.8572 0.8570 0.8569 0.8565 0.8562
2271.000000 0.8558 0.8555 0.8551 0.8547 0.8543
2276.000000 0.8540 0.8536 0.8533 0.8527 0.8521
2281.000000 0.8514 0.8507 0.8500 0.8494 0.8487
2286.000000 0.8481 0.8473 0.8465 0.8457 0.8449
2291.000000 0.8439 0.8426 0.8430 0.8431 0.8432
2296.000000 0.8434 0.8437 0.8441 0.8444 0.8448
2301.000000 0.8451 0.8454 0.8457 0.8461 0.8464
2306.000000 0.8468 0.8471 0.8475 0.8478 0.8481
2311.000000 0.8480 0.8480 0.8480 0.8480 0.8479
2316.000000 0.8479 0.8479 0.8479 0.8479 0.8479
2321.000000 0.8476 0.8473 0.8470 0.8467 0.8464
2326.000000 0.8461 0.8458 0.8455 0.8450 0.8446
2331.000000 0.8441 0.8436 0.8441 0.8447 0.8453
2336.000000 0.8459 0.8468 0.8478 0.8487 0.8497
2341.000000 0.8505 0.8513 0.8520 0.8528 0.8535
2346.000000 0.8542 0.8548 0.8554 0.8558 0.8563
2351.000000 0.8567 0.8572 0.8577 0.8582 0.8586
2356.000000 0.8591 0.8595 0.8600 0.8605 0.8610
2361.000000 0.8615 0.8621 0.8626 0.8631 0.8636
2366.000000 0.8641 0.8643 0.8646 0.8649 0.8652
2371.000000 0.8654 0.8657 0.8659 0.8662 0.8664
2376.000000 0.8667 0.8669 0.8672 0.8673 0.8675
2381.000000 0.8676 0.8678 0.8679 0.8680 0.8681
2386.000000 0.8683 0.8684 0.8686 0.8687 0.8688
2391.000000 0.8687 0.8687 0.8686 0.8686 0.8685
2396.000000 0.8685 0.8685 0.8685 0.8684 0.8684
2401.000000 0.8683 0.8683 0.8681 0.8680 0.8678
2406.000000 0.8677 0.8675 0.8673 0.8671 0.8670
2411.000000 0.8668 0.8666 0.8664 0.8663 0.8661
2416.000000 0.8659 0.8657 0.8656 0.8654 0.8652
2421.000000 0.8650 0.8649 0.8647 0.8646 0.8644
2426.000000 0.8643 0.8641 0.8639 0.8645 0.8651
2431.000000 0.8658 0.8666 0.8672 0.8679 0.8684
2436.000000 0.8689 0.8694 0.8699 0.8704 0.8709
2441.000000 0.8714 0.8719 0.8721 0.8723 0.8724
2446.000000 0.8726 0.8727 0.8728 0.8728 0.8729
2451.000000 0.8729 0.8730 0.8730 0.8731 0.8731
2456.000000 0.8743 0.8730 0.8730 0.8730 0.8730
2461.000000 0.8730 0.8730 0.8729 0.8729 0.8729
2466.000000 0.8730 0.8730 0.8730 0.8730 0.8731
2471.000000 0.8731 0.8732 0.8732 0.8733 0.8733
2476.000000 0.8733 0.8733 0.8734 0.8734 0.8735
2481.000000 0.8735 0.8735 0.8735 0.8735 0.8735
2486.000000 0.8735 0.8735 0.8735 0.8735 0.8735
2491.000000 0.8735 0.8735 0.8735 0.8735 0.8735
2496.000000 0.8735 0.8735 0.8735 0.8735 0.8735
2501.000000 0.8735 0.8735 0.8735 0.8735 0.8735
2506.000000 0.8736 0.8736 0.8736 0.8736 0.8736
2511.000000 0.8736 0.8736 0.8736 0.8737 0.8737
2516.000000 0.8737 0.8737 0.8737 0.8737 0.8738
2521.000000 0.8738 0.8738 0.8738 0.8738 0.8738
2526.000000 0.8739 0.8739 0.8740 0.8740 0.8741
2531.000000 0.8741 0.8742 0.8742 0.8743 0.8743
2536.000000 0.8744 0.8744 0.8745 0.8745 0.8746
2541.000000 0.8746 0.8747 0.8747 0.8748 0.8748
2546.000000 0.8749 0.8749 0.8750 0.8750 0.8751
2551.000000 0.8752 0.8753 0.8753 0.8754 0.8755
2556.000000 0.8756 0.8756 0.8757 0.8758 0.8759
2561.000000 0.8759 0.8760 0.8761 0.8762 0.8762
2566.000000 0.8763 0.8763 0.8763 0.8763 0.8763
2571.000000 0.8763 0.8763 0.8763 0.8763 0.8763
2576.000000 0.8763 0.8762 0.8762 0.8762 0.8762
2581.000000 0.8762 0.8762 0.8761 0.8761 0.8760
2586.000000 0.8759 0.8758 0.8757 0.8756 0.8755
2591.000000 0.8754 0.8754 0.8752 0.8751 0.8750
2596.000000 0.8749 0.8747 0.8746 0.8745 0.8744
2601.000000 0.8742 0.8741 0.8740 0.8739 0.8737
2606.000000 0.8736 0.8735 0.8734 0.8733 0.8732
2611.000000 0.8730 0.8729 0.8728 0.8727 0.8725
2616.000000 0.8723 0.8721 0.8720 0.8718 0.8717
2621.000000 0.8715 0.8714 0.8712 0.8710 0.8708
2626.000000 0.8707 0.8705 0.8704 0.8702 0.8700
2631.000000 0.8700 0.8701 0.8701 0.8702 0.8702
2636.000000 0.8703 0.8704 0.8706 0.8708 0.8711
2641.000000 0.8714 0.8717 0.8720 0.8723 0.8725
2646.000000 0.8728 0.8731 0.8734 0.8737 0.8741
2651.000000 0.8744 0.8747 0.8750 0.8753 0.8754
2656.000000 0.8755 0.8755 0.8756 0.8756 0.8757
2661.000000 0.8757 0.8758 0.8758 0.8759 0.8759
2666.000000 0.8760 0.8760 0.8760 0.8759 0.8758
2671.000000 0.8756 0.8755 0.8753 0.8752 0.8751
2676.000000 0.8750 0.8748 0.8747 0.8745 0.8744
2681.000000 0.8743 0.8742 0.8740 0.8739 0.8738
2686.000000 0.8737 0.8735 0.8734 0.8731 0.8729
2691.000000 0.8726 0.8724 0.8721 0.8719 0.8717
2696.000000 0.8715 0.8712 0.8710 0.8707 0.8705
2701.000000 0.8702 0.8700 0.8697 0.8695 0.8692
2706.000000 0.8690 0.8688 0.8686 0.8684 0.8682
2711.000000 0.8680 0.8678 0.8676 0.8674 0.8672
2716.000000 0.8670 0.8668 0.8666 0.8664 0.8662
2721.000000 0.8660 0.8658 0.8656 0.8655 0.8654
2726.000000 0.8654 0.8653 0.8652 0.8655 0.8658
2731.000000 0.8662 0.8667 0.8671 0.8676 0.8680
2736.000000 0.8685 0.8688 0.8692 0.8693 0.8695
2741.000000 0.8696 0.8698 0.8700 0.8702 0.8700
2746.000000 0.8699 0.8697 0.8696 0.8694 0.8692
2751.000000 0.8690 0.8688 0.8686 0.8684 0.8682
2756.000000 0.8680 0.8678 0.8677 0.8674 0.8672
2761.000000 0.8669 0.8666 0.8663 0.8661 0.8658
2766.000000 0.8656 0.8653 0.8650 0.8647 0.8645
2771.000000 0.8642 0.8639 0.8636 0.8634 0.8631
2776.000000 0.8629 0.8626 0.8623 0.8621 0.8619
2781.000000 0.8619 0.8619 0.8619 0.8619 0.8619
2786.000000 0.8619 0.8618 0.8618 0.8618 0.8618
2791.000000 0.8618 0.8618 0.8618 0.8619 0.8622
2796.000000 0.8625 0.8628 0.8632 0.8632 0.8633
2801.000000 0.8625 0.8618 0.8610 0.8602 0.8594
2806.000000 0.8587 0.8577 0.8567 0.8556 0.8546
2811.000000 0.8535 0.8525 0.8512 0.8499 0.8483
2816.000000 0.8467 0.8451 0.8435 0.8419 0.8403
2821.000000 0.8386 0.8370 0.8349 0.8328 0.8307
2826.000000 0.8286 0.8264 0.8243 0.8222 0.8201
2831.000000 0.8176 0.8152 0.8127 0.8102 0.8077
2836.000000 0.8052 0.8025 0.7999 0.7969 0.7940
2841.000000 0.7910 0.7881 0.7849 0.7818 0.7775
2846.000000 0.7733 0.7690 0.7648 0.7605 0.7563
2851.000000 0.7517 0.7472 0.7426 0.7381 0.7335
2856.000000 0.7289 0.7237 0.7186 0.7132 0.7079
2861.000000 0.7025 0.6972 0.6891 0.6811 0.6725
2866.000000 0.6640 0.6544 0.6449 0.6299 0.6149
2871.000000 0.5801 0.5454 0.4992 0.4530 0.4530
2876.000000 0.4530 0.4541 0.4530 0.4664 0.4776
2881.000000 0.4888 0.5000 0.5112 0.5224 0.5336
2886.000000 0.5448 0.5560 0.5672 0.5784 0.5896
2891.000000 0.6008 0.6120 0.6160 0.6201 0.6208
2896.000000 0.6215 0.6218 0.6222 0.6223 0.6224
2901.000000 0.6222 0.6258 0.6217 0.6213 0.6204
2906.000000 0.6195 0.6173 0.6151 0.6120 0.6089
2911.000000 0.6055 0.6022 0.5988 0.5954 0.5923
2916.000000 0.5893 0.5862 0.5832 0.5801 0.5771
2921.000000 0.5741 0.5711 0.5659 0.5607 0.5554
2926.000000 0.5502 0.5313 0.5125 0.4896 0.4667
2931.000000 0.4437 0.4208 0.3979 0.3750 0.3735
2936.000000 0.3721 0.3726 0.3747 0.4109 0.4487
2941.000000 0.4760 0.5034 0.5068 0.5103 0.5128
2946.000000 0.5153 0.5171 0.5189 0.5204 0.5220
2951.000000 0.5198 0.5293 0.5125 0.5074 0.5012
2956.000000 0.4951 0.4815 0.4680 0.4362 0.4045
2961.000000 0.3728 0.3411 0.3094 0.2777 0.2460
2966.000000 0.2143 0.1826 0.1509 0.1358 0.1207
2971.000000 0.1212 0.1255 0.1235 0.1253 0.1287
2976.000000 0.1321 0.1565 0.1810 0.2229 0.2648
2981.000000 0.3067 0.3486 0.3905 0.4325 0.4744
2986.000000 0.5163 0.5728 0.6294 0.6390 0.6486
2991.000000 0.6556 0.6627 0.6644 0.6661 0.6656
2996.000000 0.6651 0.6615 0.6579 0.6539 0.6704
3001.000000 0.6473 0.6446 0.6425 0.6405 0.6385
3006.000000 0.6365 0.6345 0.6326 0.6308 0.6291
3011.000000 0.6277 0.6263 0.6249 0.6235 0.6221
3016.000000 0.6208 0.6195 0.6183 0.6172 0.6161
3021.000000 0.6156 0.6151 0.6146 0.6141 0.6137
3026.000000 0.6133 0.6130 0.6127 0.6041 0.5956
3031.000000 0.5873 0.5790 0.5722 0.5655 0.5605
3036.000000 0.5555 0.5499 0.5444 0.5356 0.5269
3041.000000 0.5181 0.5094 0.5006 0.4919 0.4831
3046.000000 0.4744 0.4656 0.4569 0.4481 0.4393
3051.000000 0.4305 0.4218 0.4130 0.4043 0.3958
3056.000000 0.3873 0.3880 0.3880 0.3896 0.3905
3061.000000 0.3923 0.3942 0.3967 0.3993 0.4062
3066.000000 0.4132 0.4173 0.4215 0.4284 0.4353
3071.000000 0.4400 0.4447 0.4591 0.4736 0.4882
3076.000000 0.5029 0.5176 0.5323 0.5854 0.6386
3081.000000 0.6489 0.6593 0.6710 0.6827 0.6942
3086.000000 0.7058 0.7145 0.7233 0.7266 0.7300
3091.000000 0.7333 0.7366 0.7389 0.7412 0.7432
3096.000000 0.7453 0.7473 0.7494 0.7515 0.7537
3101.000000 0.7559 0.7581 0.7622 0.7663 0.7759
3106.000000 0.7856 0.8009 0.8162 0.8216 0.8270
3111.000000 0.8319 0.8369 0.8414 0.8460 0.8486
3116.000000 0.8513 0.8539 0.8565 0.8579 0.8593
3121.000000 0.8605 0.8618 0.8631 0.8644 0.8650
3126.000000 0.8656 0.8661 0.8667 0.8673 0.8679
3131.000000 0.8681 0.8683 0.8685 0.8687 0.8688
3136.000000 0.8690 0.8691 0.8693 0.8695 0.8697
3141.000000 0.8698 0.8700 0.8701 0.8703 0.8704
3146.000000 0.8705 0.8706 0.8708 0.8709 0.8710
3151.000000 0.8711 0.8713 0.8713 0.8713 0.8712
3156.000000 0.8712 0.8711 0.8711 0.8711 0.8711
3161.000000 0.8710 0.8710 0.8709 0.8709 0.8708
3166.000000 0.8707 0.8704 0.8702 0.8699 0.8697
3171.000000 0.8694 0.8692 0.8689 0.8687 0.8685
3176.000000 0.8683 0.8681 0.8680 0.8679 0.8678
3181.000000 0.8684 0.8690 0.8698 0.8706 0.8719
3186.000000 0.8733 0.8746 0.8759 0.8767 0.8775
3191.000000 0.8783 0.8791 0.8794 0.8798 0.8800
3196.000000 0.8803 0.8806 0.8809 0.8811 0.8813
3201.000000 0.8812 0.8812 0.8811 0.8811 0.8811
3206.000000 0.8811 0.8811 0.8811 0.8811 0.8811
3211.000000 0.8811 0.8811 0.8811 0.8812 0.8812
3216.000000 0.8812 0.8812 0.8812 0.8815 0.8818
3221.000000 0.8822 0.8826 0.8829 0.8832 0.8833
3226.000000 0.8834 0.8835 0.8836 0.8838 0.8840
3231.000000 0.8842 0.8845 0.8847 0.8849 0.8851
3236.000000 0.8854 0.8856 0.8859 0.8861 0.8864
3241.000000 0.8866 0.8869 0.8871 0.8874 0.8876
3246.000000 0.8878 0.8880 0.8883 0.8885 0.8887
3251.000000 0.8889 0.8892 0.8893 0.8895 0.8897
3256.000000 0.8899 0.8901 0.8903 0.8904 0.8906
3261.000000 0.8908 0.8910 0.8911 0.8913 0.8915
3266.000000 0.8917 0.8918 0.8920 0.8921 0.8922
3271.000000 0.8923 0.8924 0.8925 0.8926 0.8926
3276.000000 0.8927 0.8928 0.8929 0.8930 0.8931
3281.000000 0.8932 0.8933 0.8934 0.8935 0.8936
3286.000000 0.8937 0.8938 0.8939 0.8940 0.8941
3291.000000 0.8942 0.8943 0.8944 0.8945 0.8946
3296.000000 0.8947 0.8948 0.8949 0.8950 0.8952
3301.000000 0.8953 0.8954 0.8955 0.8956 0.8957
3306.000000 0.8958 0.8959 0.8960 0.8961 0.8963
3311.000000 0.8964 0.8965 0.8966 0.8967 0.8967
3316.000000 0.8967 0.8967 0.8967 0.8967 0.8967
3321.000000 0.8967 0.8967 0.8967 0.8967 0.8966
3326.000000 0.8966 0.8966 0.8966 0.8966 0.8966
3331.000000 0.8966 0.8966 0.8966 0.8966 0.8966
3336.000000 0.8966 0.8966 0.8966 0.8966 0.8966
3341.000000 0.8966 0.8966 0.8966 0.8966 0.8966
3346.000000 0.8966 0.8966 0.8966 0.8966 0.8966
3351.000000 0.8966 0.8966 0.8965 0.8965 0.8965
3356.000000 0.8965 0.8965 0.8965 0.8965 0.8965
3361.000000 0.8965 0.8965 0.8964 0.8964 0.8964
3366.000000 0.8964 0.8964 0.8964 0.8964 0.8964
3371.000000 0.8964 0.8964 0.8963 0.8963 0.8963
3376.000000 0.8963 0.8963 0.8963 0.8963 0.8963
3381.000000 0.8962 0.8962 0.8962 0.8962 0.8962
3386.000000 0.8962 0.8962 0.8962 0.8962 0.8962
3391.000000 0.8961 0.8961 0.8961 0.8961 0.8961
3396.000000 0.8961 0.8960 0.8960 0.8960 0.8960
3401.000000 0.8960 0.8960 0.8959 0.8959 0.8959
3406.000000 0.8959 0.8958 0.8958 0.8958 0.8958
3411.000000 0.8957 0.8957 0.8957 0.8957 0.8957
3416.000000 0.8957 0.8956 0.8956 0.8956 0.8956
3421.000000 0.8955 0.8955 0.8955 0.8955 0.8954
3426.000000 0.8954 0.8954 0.8954 0.8954 0.8954
3431.000000 0.8953 0.8953 0.8953 0.8953 0.8952
3436.000000 0.8952 0.8952 0.8952 0.8951 0.8951
3441.000000 0.8951 0.8951 0.8951 0.8951 0.8950
3446.000000 0.8950 0.8949 0.8949 0.8949 0.8949
3451.000000 0.8948 0.8948 0.8947 0.8947 0.8946
3456.000000 0.8946 0.8946 0.8946 0.8945 0.8945
3461.000000 0.8944 0.8944 0.8944 0.8944 0.8943
3466.000000 0.8943 0.8942 0.8942 0.8942 0.8942
3471.000000 0.8941 0.8941 0.8940 0.8940 0.8940
3476.000000 0.8940 0.8940 0.8940 0.8940 0.8940
3481.000000 0.8940 0.8940 0.8939 0.8939 0.8939
3486.000000 0.8939 0.8939 0.8939 0.8939 0.8939
3491.000000 0.8939 0.8939 0.8939 0.8939 0.8939
3496.000000 0.8939 0.8939 0.8939 0.8938 0.8938
3501.000000 0.8938 0.8938 0.8938 0.8938 0.8938
3506.000000 0.8938 0.8938 0.8938 0.8937 0.8937
3511.000000 0.8936 0.8936 0.8935 0.8935 0.8934
3516.000000 0.8934 0.8933 0.8933 0.8932 0.8932
3521.000000 0.8931 0.8931 0.8930 0.8930 0.8929
3526.000000 0.8928 0.8927 0.8927 0.8926 0.8926
3531.000000 0.8925 0.8925 0.8924 0.8924 0.8923
3536.000000 0.8931 0.8922 0.8922 0.8921 0.8921
3541.000000 0.8920 0.8919 0.8918 0.8918 0.8917
3546.000000 0.8917 0.8916 0.8916 0.8915 0.8915
3551.000000 0.8914 0.8914 0.8913 0.8912 0.8911
3556.000000 0.8911 0.8910 0.8910 0.8909 0.8909
3561.000000 0.8908 0.8908 0.8907 0.8907 0.8906
3566.000000 0.8905 0.8904 0.8904 0.8903 0.8903
3571.000000 0.8902 0.8902 0.8901 0.8901 0.8900
3576.000000 0.8900 0.8899 0.8898 0.8897 0.8897
3581.000000 0.8897 0.8897 0.8896 0.8896 0.8895
3586.000000 0.8895 0.8894 0.8894 0.8894 0.8894
3591.000000 0.8893 0.8893 0.8892 0.8892 0.8892
3596.000000 0.8892 0.8891 0.8891 0.8890 0.8890
3601.000000 0.8889 0.8889 0.8887 0.8885 0.8883
3606.000000 0.8882 0.8880 0.8879 0.8877 0.8876
3611.000000 0.8874 0.8872 0.8870 0.8869 0.8867
3616.000000 0.8866 0.8864 0.8862 0.8860 0.8859
3621.000000 0.8857 0.8856 0.8854 0.8852 0.8851
3626.000000 0.8851 0.8850 0.8849 0.8848 0.8847
3631.000000 0.8846 0.8846 0.8845 0.8844 0.8843
3636.000000 0.8842 0.8841 0.8841 0.8841 0.8842
3641.000000 0.8843 0.8845 0.8846 0.8848 0.8849
3646.000000 0.8851 0.8852 0.8854 0.8855 0.8857
3651.000000 0.8858 0.8860 0.8862 0.8864 0.8866
3656.000000 0.8868 0.8870 0.8872 0.8874 0.8876
3661.000000 0.8878 0.8880 0.8882 0.8885 0.8887
3666.000000 0.8889 0.8890 0.8892 0.8894 0.8896
3671.000000 0.8898 0.8900 0.8897 0.8894 0.8891
3676.000000 0.8888 0.8884 0.8880 0.8873 0.8866
3681.000000 0.8859 0.8853 0.8846 0.8839 0.8832
3686.000000 0.8826 0.8822 0.8819 0.8815 0.8812
3691.000000 0.8813 0.8815 0.8817 0.8819 0.8821
3696.000000 0.8823 0.8825 0.8828 0.8831 0.8835
3701.000000 0.8838 0.8842 0.8845 0.8849 0.8852
3706.000000 0.8856 0.8859 0.8863 0.8866 0.8870
3711.000000 0.8874 0.8878 0.8881 0.8885 0.8889
3716.000000 0.8893 0.8896 0.8900 0.8903 0.8906
3721.000000 0.8907 0.8909 0.8910 0.8912 0.8913
3726.000000 0.8915 0.8917 0.8919 0.8918 0.8918
3731.000000 0.8916 0.8914 0.8912 0.8910 0.8907
3736.000000 0.8905 0.8903 0.8901 0.8899 0.8897
3741.000000 0.8894 0.8892 0.8890 0.8888 0.8886
3746.000000 0.8885 0.8883 0.8882 0.8881 0.8880
3751.000000 0.8879 0.8878 0.8877 0.8876 0.8875
3756.000000 0.8874 0.8872 0.8871 0.8870 0.8869
3761.000000 0.8868 0.8867 0.8867 0.8868 0.8868
3766.000000 0.8869 0.8870 0.8871 0.8872 0.8873
3771.000000 0.8873 0.8874 0.8875 0.8876 0.8877
3776.000000 0.8878 0.8878 0.8879 0.8880 0.8881
3781.000000 0.8881 0.8882 0.8882 0.8883 0.8883
3786.000000 0.8884 0.8885 0.8886 0.8887 0.8888
3791.000000 0.8889 0.8890 0.8891 0.8892 0.8893
3796.000000 0.8894 0.8895 0.8896 0.8896 0.8897
3801.000000 0.8897 0.8898
##END=
