##TITLE=n-OCTADECANOL
##JCAMP-DX=4.24
##DATA TYPE=INFRARED SPECTRUM
##CLASS=COBLENTZ III
##ORIGIN=WYANDOTTE CHEMICALS CORP.
##OWNER=COBLENTZ SOCIETY
Collection (C) 2018 copyright by the U.S. Secretary of Commerce
on behalf of the United States of America. All rights reserved.
##DATE=Not specified, most likely prior to 1970
##NAMES=1-octadecanol
##CAS REGISTRY NO=112-92-5
##MOLFORM=C18 H38 O
##SOURCE REFERENCE=COBLENTZ NO. 7298
##$NIST SOURCE=COBLENTZ
##$NIST IMAGE=cob7298
##SPECTROMETER/DATA SYSTEM=BAIRD (PRISM)
##INSTRUMENT PARAMETERS=NaCl PRISM
##STATE=SOLID (OIL MULL)
##SAMPLING PROCEDURE=TRANSMISSION
##RESOLUTION=2
##DATA PROCESSING=DIGITIZED BY NIST FROM HARD COPY
##XUNITS=MICROMETERS
##YUNITS=TRANSMITTANCE
##XFACTOR=1.000000
##YFACTOR=1
##DELTAX=000.004910
##FIRSTX=2.003
##LASTX=15.9775
##FIRSTY=0.803
##MAXX=15.9775
##MINX=2.003
##MAXY=0.964
##MINY=0.007
##NPOINTS=2847
##XYDATA=(X++(Y..Y))
2.003000 0.8030 0.8030 0.8030 0.8060 0.8030
2.027559 0.8030 0.8030 0.8060 0.8070 0.8070
2.052000 0.8100 0.8130 0.8150 0.8170 0.8170
2.076559 0.8180 0.8190 0.8190 0.8210 0.8220
2.101000 0.8230 0.8260 0.8270 0.8280 0.8290
2.125559 0.8290 0.8320 0.8330 0.8330 0.8340
2.151000 0.8340 0.8330 0.8320 0.8310 0.8290
2.175559 0.8210 0.8160 0.8030 0.7820 0.7690
2.200000 0.7550 0.7380 0.7220 0.7040 0.6810
2.224559 0.6670 0.6490 0.6410 0.6390 0.6390
2.249000 0.6390 0.6410 0.6440 0.6460 0.6470
2.273559 0.6480 0.6480 0.6490 0.6490 0.6490
2.298000 0.6490 0.6480 0.6470 0.6460 0.6440
2.322559 0.6430 0.6420 0.6410 0.6350 0.6320
2.347000 0.6310 0.6300 0.6310 0.6320 0.6330
2.371559 0.6350 0.6410 0.6460 0.6510 0.6550
2.396000 0.6600 0.6650 0.6720 0.6830 0.6900
2.420559 0.6970 0.7050 0.7120 0.7200 0.7270
2.445000 0.7280 0.7360 0.7430 0.7520 0.7630
2.469559 0.7710 0.7740 0.7800 0.7850 0.7920
2.494000 0.7960 0.7990 0.8000 0.8010 0.8020
2.518559 0.8030 0.8030 0.8050 0.8070 0.8080
2.543000 0.8080 0.8080 0.8100 0.8100 0.8100
2.567559 0.8100 0.8100 0.8100 0.8110 0.8130
2.592000 0.8130 0.8170 0.8220 0.8310 0.8370
2.616559 0.8390 0.8420 0.8420 0.8420 0.8400
2.642000 0.8390 0.8380 0.8390 0.8390 0.8390
2.666559 0.8390 0.8420 0.8470 0.8500 0.8540
2.691000 0.8580 0.8590 0.8590 0.8590 0.8590
2.715559 0.8590 0.8590 0.8580 0.8550 0.8530
2.740000 0.8490 0.8450 0.8400 0.8380 0.8340
2.764559 0.8320 0.8310 0.8290 0.8270 0.8260
2.789000 0.8230 0.8230 0.8230 0.8230 0.8220
2.813559 0.8210 0.8170 0.8120 0.8050 0.7890
2.838000 0.7800 0.7690 0.7590 0.7470 0.7360
2.862559 0.7220 0.7100 0.6950 0.6800 0.6650
2.887000 0.6510 0.6330 0.6170 0.6000 0.5650
2.911559 0.5470 0.5280 0.5100 0.4900 0.4670
2.936000 0.4410 0.4140 0.3450 0.2990 0.2890
2.960559 0.2880 0.2730 0.2570 0.2420 0.2280
2.985000 0.2120 0.1820 0.1660 0.1510 0.1380
3.009559 0.1350 0.1340 0.1190 0.1090 0.0910
3.034000 0.0800 0.0720 0.0560 0.0480 0.0480
3.058559 0.0460 0.0430 0.0410 0.0410 0.0400
3.083000 0.0400 0.0390 0.0390 0.0390 0.0400
3.107559 0.0410 0.0440 0.0450 0.0480 0.0540
3.133000 0.0560 0.0560 0.0650 0.0660 0.0670
3.157559 0.0780 0.0880 0.0920 0.1030 0.1060
3.182000 0.1200 0.1350 0.1500 0.1650 0.1800
3.206559 0.1940 0.2020 0.2090 0.2240 0.2390
3.231000 0.2440 0.2510 0.2730 0.2990 0.3090
3.255559 0.3150 0.3210 0.3230 0.3240 0.3240
3.280000 0.3230 0.3210 0.3180 0.3130 0.3070
3.304559 0.3000 0.2920 0.2820 0.2710 0.2600
3.329000 0.2460 0.2310 0.2140 0.1750 0.1560
3.353559 0.1360 0.1190 0.1020 0.0860 0.0710
3.378000 0.0590 0.0460 0.0360 0.0280 0.0190
3.402559 0.0180 0.0130 0.0110 0.0090 0.0080
3.427000 0.0070 0.0070 0.0070 0.0080 0.0080
3.451559 0.0080 0.0080 0.0080 0.0090 0.0110
3.476000 0.0110 0.0130 0.0130 0.0140 0.0140
3.500559 0.0160 0.0160 0.0160 0.0160 0.0160
3.525000 0.0160 0.0160 0.0160 0.0160 0.0160
3.549559 0.0180 0.0190 0.0190 0.0250 0.0450
3.574000 0.0730 0.0940 0.1190 0.1380 0.1450
3.598559 0.1570 0.1650 0.1770 0.1890 0.2020
3.624000 0.2420 0.2670 0.2860 0.2980 0.3050
3.648559 0.3110 0.3180 0.3240 0.3300 0.3390
3.673000 0.3470 0.3570 0.3680 0.3790 0.3920
3.697559 0.3980 0.4040 0.4160 0.4300 0.4420
3.722000 0.4500 0.4540 0.4570 0.4590 0.4610
3.746559 0.4630 0.4660 0.4680 0.4690 0.4710
3.771000 0.4720 0.4730 0.4740 0.4780 0.4820
3.795559 0.4870 0.4930 0.5010 0.5060 0.5110
3.820000 0.5160 0.5210 0.5260 0.5320 0.5370
3.844559 0.5430 0.5490 0.5560 0.5630 0.5700
3.869000 0.5790 0.5880 0.5960 0.5980 0.5990
3.893559 0.6000 0.6050 0.6100 0.6170 0.6250
3.918000 0.6320 0.6380 0.6460 0.6520 0.6570
3.942559 0.6590 0.6620 0.6640 0.6680 0.6730
3.967000 0.6790 0.6850 0.6920 0.6990 0.7060
3.991559 0.7120 0.7180 0.7250 0.7290 0.7330
4.016000 0.7370 0.7410 0.7450 0.7490 0.7530
4.040559 0.7550 0.7590 0.7620 0.7620 0.7630
4.065000 0.7640 0.7660 0.7690 0.7710 0.7730
4.089559 0.7780 0.7890 0.7990 0.8010 0.8020
4.115000 0.8020 0.8030 0.8050 0.8060 0.8100
4.139559 0.8100 0.8120 0.8160 0.8180 0.8230
4.164000 0.8280 0.8330 0.8390 0.8420 0.8430
4.188559 0.8450 0.8480 0.8520 0.8530 0.8540
4.213000 0.8540 0.8540 0.8540 0.8540 0.8540
4.237559 0.8540 0.8540 0.8530 0.8530 0.8530
4.262000 0.8530 0.8530 0.8500 0.8520 0.8500
4.286559 0.8480 0.8470 0.8470 0.8450 0.8450
4.311000 0.8450 0.8500 0.8500 0.8490 0.8490
4.335559 0.8450 0.8420 0.8400 0.8360 0.8340
4.360000 0.8320 0.8280 0.8280 0.8270 0.8270
4.384559 0.8270 0.8270 0.8320 0.8390 0.8450
4.409000 0.8520 0.8540 0.8560 0.8560 0.8580
4.433559 0.8590 0.8630 0.8710 0.8770 0.8800
4.458000 0.8810 0.8820 0.8840 0.8850 0.8860
4.482559 0.8870 0.8890 0.8890 0.8900 0.8900
4.507000 0.8900 0.8900 0.8900 0.8920 0.8930
4.531559 0.8950 0.8960 0.8970 0.8980 0.8980
4.556000 0.9000 0.9000 0.9020 0.9020 0.9030
4.580559 0.9050 0.9060 0.9070 0.9070 0.9080
4.606000 0.9090 0.9090 0.9090 0.9080 0.9060
4.630559 0.9030 0.9030 0.9060 0.9090 0.9090
4.655000 0.9120 0.9130 0.9160 0.9230 0.9240
4.679559 0.9280 0.9280 0.9270 0.9270 0.9270
4.704000 0.9270 0.9260 0.9270 0.9270 0.9280
4.728559 0.9280 0.9290 0.9290 0.9300 0.9320
4.753000 0.9330 0.9340 0.9350 0.9350 0.9350
4.777559 0.9370 0.9350 0.9370 0.9370 0.9380
4.802000 0.9380 0.9380 0.9370 0.9370 0.9380
4.826559 0.9400 0.9400 0.9420 0.9420 0.9430
4.851000 0.9440 0.9440 0.9440 0.9450 0.9440
4.875559 0.9450 0.9440 0.9440 0.9440 0.9440
4.900000 0.9440 0.9430 0.9440 0.9450 0.9480
4.924559 0.9490 0.9500 0.9500 0.9490 0.9490
4.949000 0.9480 0.9490 0.9480 0.9480 0.9480
4.973559 0.9450 0.9440 0.9440 0.9440 0.9450
4.998000 0.9450 0.9460 0.9460 0.9480 0.9480
5.022559 0.9490 0.9490 0.9500 0.9530 0.9540
5.047000 0.9550 0.9560 0.9560 0.9560 0.9580
5.071559 0.9580 0.9560 0.9560 0.9550 0.9460
5.097000 0.9430 0.9350 0.9330 0.9330 0.9370
5.121559 0.9400 0.9450 0.9500 0.9500 0.9500
5.146000 0.9500 0.9500 0.9440 0.9430 0.9420
5.170559 0.9400 0.9420 0.9430 0.9440 0.9460
5.195000 0.9460 0.9480 0.9480 0.9460 0.9460
5.219559 0.9430 0.9380 0.9320 0.9300 0.9300
5.244000 0.9300 0.9300 0.9320 0.9330 0.9340
5.268559 0.9340 0.9340 0.9340 0.9340 0.9340
5.293000 0.9340 0.9340 0.9340 0.9340 0.9340
5.317559 0.9340 0.9350 0.9380 0.9400 0.9430
5.342000 0.9450 0.9450 0.9460 0.9460 0.9480
5.366559 0.9480 0.9490 0.9500 0.9500 0.9510
5.391000 0.9510 0.9510 0.9490 0.9500 0.9500
5.415559 0.9500 0.9500 0.9490 0.9460 0.9450
5.440000 0.9460 0.9480 0.9500 0.9550 0.9560
5.464559 0.9580 0.9560 0.9560 0.9550 0.9530
5.489000 0.9500 0.9500 0.9540 0.9550 0.9580
5.513559 0.9600 0.9610 0.9610 0.9610 0.9630
5.538000 0.9630 0.9630 0.9640 0.9640 0.9640
5.562559 0.9630 0.9610 0.9580 0.9560 0.9560
5.588000 0.9550 0.9540 0.9530 0.9510 0.9530
5.612559 0.9560 0.9590 0.9600 0.9600 0.9590
5.637000 0.9580 0.9560 0.9540 0.9540 0.9550
5.661559 0.9560 0.9580 0.9560 0.9560 0.9550
5.686000 0.9560 0.9560 0.9560 0.9560 0.9560
5.710559 0.9550 0.9540 0.9530 0.9500 0.9490
5.735000 0.9460 0.9460 0.9440 0.9420 0.9400
5.759559 0.9420 0.9450 0.9460 0.9480 0.9480
5.784000 0.9450 0.9340 0.9320 0.9300 0.9330
5.808559 0.9350 0.9380 0.9400 0.9420 0.9420
5.833000 0.9380 0.9340 0.9320 0.9290 0.9280
5.857559 0.9270 0.9260 0.9260 0.9270 0.9270
5.882000 0.9270 0.9280 0.9280 0.9270 0.9230
5.906559 0.9220 0.9210 0.9180 0.9170 0.9140
5.931000 0.9130 0.9120 0.9110 0.9090 0.9090
5.955559 0.9070 0.9060 0.9050 0.9030 0.9020
5.980000 0.9010 0.9000 0.8980 0.8970 0.8960
6.004559 0.8950 0.8930 0.8910 0.8900 0.8890
6.029000 0.8890 0.8910 0.8920 0.8920 0.8910
6.053559 0.8910 0.8900 0.8900 0.8890 0.8870
6.079000 0.8870 0.8860 0.8850 0.8840 0.8840
6.103559 0.8820 0.8810 0.8800 0.8800 0.8790
6.128000 0.8770 0.8760 0.8760 0.8760 0.8750
6.152559 0.8750 0.8740 0.8740 0.8740 0.8720
6.177000 0.8720 0.8710 0.8710 0.8710 0.8700
6.201559 0.8700 0.8690 0.8690 0.8690 0.8690
6.226000 0.8690 0.8690 0.8700 0.8700 0.8700
6.250559 0.8700 0.8700 0.8690 0.8680 0.8660
6.275000 0.8650 0.8640 0.8640 0.8630 0.8630
6.299559 0.8630 0.8610 0.8600 0.8600 0.8580
6.324000 0.8580 0.8560 0.8560 0.8560 0.8550
6.348559 0.8550 0.8550 0.8550 0.8540 0.8540
6.373000 0.8540 0.8530 0.8530 0.8530 0.8530
6.397559 0.8500 0.8500 0.8500 0.8490 0.8490
6.422000 0.8490 0.8490 0.8480 0.8480 0.8470
6.446559 0.8470 0.8450 0.8430 0.8420 0.8380
6.471000 0.8340 0.8320 0.8310 0.8310 0.8260
6.495559 0.8230 0.8170 0.8150 0.8130 0.8110
6.520000 0.8110 0.8100 0.8080 0.8070 0.8060
6.544559 0.8050 0.8030 0.8000 0.7920 0.7900
6.570000 0.7800 0.7750 0.7680 0.7600 0.7540
6.594559 0.7480 0.7420 0.7340 0.7260 0.7150
6.619000 0.7110 0.7060 0.6970 0.6800 0.6480
6.643559 0.6350 0.6200 0.6040 0.5690 0.5470
6.668000 0.5220 0.4930 0.4570 0.4320 0.4130
6.692559 0.3790 0.3600 0.3360 0.3050 0.2810
6.717000 0.2570 0.2340 0.2150 0.2020 0.1680
6.741559 0.1410 0.1190 0.0980 0.0800 0.0720
6.766000 0.0690 0.0620 0.0570 0.0510 0.0460
6.790559 0.0440 0.0440 0.0440 0.0440 0.0440
6.815000 0.0440 0.0440 0.0460 0.0480 0.0490
6.839559 0.0560 0.0620 0.0700 0.0770 0.0860
6.864000 0.0960 0.1060 0.1170 0.1280 0.1390
6.888559 0.1500 0.1620 0.1720 0.1830 0.1930
6.913000 0.1980 0.2030 0.2100 0.2260 0.2410
6.937559 0.2560 0.2720 0.2870 0.3030 0.3180
6.962000 0.3350 0.3510 0.3530 0.3600 0.3660
6.986559 0.3790 0.3810 0.3810 0.3810 0.3790
7.011000 0.3790 0.3760 0.3690 0.3610 0.3560
7.035559 0.3460 0.3310 0.3190 0.3090 0.3080
7.061000 0.3050 0.3050 0.3050 0.3040 0.3050
7.085559 0.3070 0.3080 0.3080 0.3080 0.3100
7.110000 0.3140 0.3200 0.3200 0.3250 0.3320
7.134559 0.3400 0.3500 0.3580 0.3640 0.3690
7.159000 0.3720 0.3740 0.3740 0.3660 0.3580
7.183559 0.3450 0.3340 0.3210 0.3100 0.2990
7.208000 0.2830 0.2700 0.2510 0.2450 0.2350
7.232559 0.2300 0.2290 0.2280 0.2290 0.2300
7.257000 0.2340 0.2450 0.2520 0.2620 0.2680
7.281559 0.2720 0.2780 0.2880 0.2980 0.3070
7.306000 0.3110 0.3150 0.3190 0.3190 0.3200
7.330559 0.3230 0.3260 0.3310 0.3340 0.3390
7.355000 0.3400 0.3410 0.3410 0.3390 0.3390
7.379559 0.3370 0.3360 0.3360 0.3350 0.3360
7.404000 0.3360 0.3370 0.3370 0.3400 0.3410
7.428559 0.3480 0.3560 0.3640 0.3710 0.3780
7.453000 0.3830 0.3870 0.3890 0.3920 0.3940
7.477559 0.3980 0.3980 0.3990 0.4010 0.4030
7.502000 0.4060 0.4110 0.4160 0.4210 0.4270
7.526559 0.4320 0.4410 0.4510 0.4590 0.4610
7.552000 0.4640 0.4670 0.4670 0.4670 0.4670
7.576559 0.4670 0.4670 0.4690 0.4720 0.4720
7.601000 0.4730 0.4750 0.4790 0.4840 0.4890
7.625559 0.4910 0.5000 0.5010 0.5030 0.5040
7.650000 0.5050 0.5040 0.5040 0.5010 0.5010
7.674559 0.4980 0.4940 0.4900 0.4880 0.4850
7.699000 0.4840 0.4850 0.4870 0.4880 0.4910
7.723559 0.4940 0.4980 0.5060 0.5090 0.5210
7.748000 0.5270 0.5320 0.5380 0.5470 0.5530
7.772559 0.5580 0.5650 0.5700 0.5770 0.5810
7.797000 0.5850 0.5850 0.5860 0.5860 0.5890
7.821559 0.5890 0.5910 0.5910 0.5940 0.5950
7.846000 0.5980 0.6000 0.6010 0.6040 0.6070
7.870559 0.6070 0.6110 0.6140 0.6160 0.6200
7.895000 0.6220 0.6250 0.6260 0.6280 0.6300
7.919559 0.6310 0.6320 0.6320 0.6360 0.6410
7.944000 0.6420 0.6430 0.6430 0.6430 0.6430
7.968559 0.6430 0.6440 0.6460 0.6470 0.6470
7.993000 0.6480 0.6510 0.6540 0.6580 0.6590
8.017559 0.6620 0.6620 0.6630 0.6630 0.6620
8.043000 0.6600 0.6570 0.6540 0.6540 0.6520
8.067559 0.6510 0.6480 0.6460 0.6440 0.6460
8.092000 0.6480 0.6490 0.6490 0.6510 0.6520
8.116559 0.6520 0.6520 0.6520 0.6520 0.6510
8.141000 0.6490 0.6480 0.6470 0.6470 0.6460
8.165559 0.6440 0.6460 0.6490 0.6510 0.6520
8.190000 0.6550 0.6590 0.6630 0.6670 0.6680
8.214559 0.6700 0.6730 0.6740 0.6740 0.6730
8.239000 0.6730 0.6730 0.6730 0.6720 0.6700
8.263559 0.6700 0.6690 0.6650 0.6600 0.6590
8.288000 0.6580 0.6600 0.6630 0.6630 0.6670
8.312559 0.6730 0.6760 0.6800 0.6850 0.6900
8.337000 0.6940 0.6950 0.6970 0.6970 0.6970
8.361559 0.7000 0.7000 0.6950 0.6920 0.6900
8.386000 0.6830 0.6740 0.6690 0.6620 0.6590
8.410559 0.6580 0.6600 0.6640 0.6650 0.6670
8.435000 0.6680 0.6720 0.6750 0.6810 0.6860
8.459559 0.6920 0.6960 0.6970 0.6990 0.7010
8.484000 0.7010 0.7040 0.7050 0.7070 0.7110
8.508559 0.7120 0.7120 0.7120 0.7130 0.7150
8.534000 0.7150 0.7150 0.7160 0.7160 0.7170
8.558559 0.7180 0.7200 0.7250 0.7280 0.7310
8.583000 0.7330 0.7360 0.7370 0.7390 0.7420
8.607559 0.7430 0.7450 0.7480 0.7490 0.7490
8.632000 0.7500 0.7500 0.7520 0.7530 0.7540
8.656559 0.7570 0.7580 0.7580 0.7580 0.7590
8.681000 0.7590 0.7580 0.7580 0.7570 0.7540
8.705559 0.7530 0.7530 0.7520 0.7500 0.7490
8.730000 0.7490 0.7490 0.7490 0.7450 0.7430
8.754559 0.7420 0.7380 0.7320 0.7260 0.7210
8.779000 0.7150 0.7070 0.6970 0.6890 0.6780
8.803559 0.6650 0.6520 0.6360 0.6180 0.5790
8.828000 0.5580 0.5360 0.5120 0.4890 0.4630
8.852559 0.4380 0.4130 0.3600 0.3320 0.3270
8.877000 0.3270 0.3270 0.3270 0.3270 0.3320
8.901559 0.3500 0.3620 0.3810 0.3920 0.4010
8.926000 0.4270 0.4530 0.4790 0.5030 0.5240
8.950559 0.5380 0.5540 0.5680 0.5810 0.5940
8.975000 0.6000 0.6060 0.6170 0.6280 0.6380
8.999559 0.6490 0.6580 0.6680 0.6760 0.6810
9.025000 0.6880 0.6920 0.6940 0.6950 0.6960
9.049559 0.6990 0.7000 0.7050 0.7070 0.7100
9.074000 0.7100 0.7110 0.7110 0.7110 0.7110
9.098559 0.7110 0.7070 0.7020 0.6940 0.6890
9.123000 0.6860 0.6790 0.6740 0.6680 0.6580
9.147559 0.6550 0.6480 0.6380 0.6250 0.6100
9.172000 0.5790 0.5650 0.5520 0.5420 0.5280
9.196559 0.5150 0.4980 0.4800 0.4610 0.4460
9.221000 0.4300 0.4130 0.3760 0.3570 0.3370
9.245559 0.3190 0.2990 0.2810 0.2670 0.2500
9.270000 0.2300 0.2100 0.1770 0.1620 0.1450
9.294559 0.1380 0.1330 0.1310 0.1310 0.1310
9.319000 0.1300 0.1300 0.1290 0.1290 0.1280
9.343559 0.1250 0.1200 0.1190 0.1180 0.1170
9.368000 0.1150 0.1140 0.1130 0.1130 0.1130
9.392559 0.1130 0.1130 0.1130 0.1130 0.1140
9.417000 0.1150 0.1150 0.1180 0.1240 0.1300
9.441559 0.1390 0.1460 0.1510 0.1550 0.1560
9.466000 0.1590 0.1610 0.1660 0.1710 0.1760
9.490559 0.1830 0.1910 0.1980 0.2020 0.2040
9.516000 0.2100 0.2300 0.2410 0.2490 0.2520
9.540559 0.2540 0.2580 0.2580 0.2580 0.2580
9.565000 0.2580 0.2570 0.2570 0.2560 0.2550
9.589559 0.2510 0.2490 0.2490 0.2490 0.2510
9.614000 0.2520 0.2550 0.2600 0.2650 0.2680
9.638559 0.2740 0.2860 0.2940 0.2980 0.3000
9.663000 0.3030 0.3070 0.3110 0.3130 0.3140
9.687559 0.3140 0.3140 0.3140 0.3130 0.3070
9.712000 0.3050 0.3000 0.2950 0.2860 0.2770
9.736559 0.2720 0.2660 0.2610 0.2550 0.2520
9.761000 0.2510 0.2500 0.2490 0.2490 0.2490
9.785559 0.2500 0.2510 0.2520 0.2570 0.2610
9.810000 0.2650 0.2660 0.2660 0.2670 0.2670
9.834559 0.2670 0.2700 0.2740 0.2810 0.2890
9.859000 0.2980 0.3090 0.3200 0.3260 0.3410
9.883559 0.3510 0.3560 0.3630 0.3640 0.3670
9.908000 0.3690 0.3710 0.3720 0.3730 0.3740
9.932559 0.3740 0.3740 0.3760 0.3780 0.3790
9.957000 0.3790 0.3790 0.3790 0.3790 0.3790
9.981559 0.3810 0.3790 0.3790 0.3760 0.3720
10.007000 0.3680 0.3640 0.3610 0.3570 0.3570
10.031559 0.3560 0.3550 0.3560 0.3570 0.3630
10.056000 0.3690 0.3810 0.3900 0.3990 0.4040
10.080559 0.4090 0.4180 0.4290 0.4400 0.4420
10.105000 0.4450 0.4500 0.4500 0.4500 0.4500
10.129559 0.4500 0.4500 0.4500 0.4500 0.4480
10.154000 0.4480 0.4480 0.4450 0.4430 0.4420
10.178559 0.4410 0.4410 0.4380 0.4380 0.4410
10.203000 0.4430 0.4470 0.4520 0.4570 0.4620
10.227559 0.4660 0.4690 0.4710 0.4720 0.4730
10.252000 0.4770 0.4820 0.4850 0.4890 0.4900
10.276559 0.4910 0.4910 0.4930 0.4930 0.4930
10.301000 0.4930 0.4910 0.4900 0.4900 0.4880
10.325559 0.4820 0.4780 0.4710 0.4670 0.4620
10.350000 0.4570 0.4520 0.4450 0.4370 0.4310
10.374559 0.4240 0.4160 0.4100 0.4050 0.4000
10.399000 0.3970 0.3950 0.3970 0.3980 0.4030
10.423559 0.4060 0.4260 0.4450 0.4610 0.4740
10.448000 0.4870 0.4990 0.5090 0.5170 0.5260
10.472559 0.5350 0.5430 0.5520 0.5590 0.5590
10.498000 0.5610 0.5620 0.5610 0.5610 0.5510
10.522559 0.5420 0.5320 0.5220 0.5150 0.5090
10.547000 0.5030 0.4950 0.4850 0.4710 0.4660
10.571559 0.4580 0.4540 0.4510 0.4500 0.4510
10.596000 0.4520 0.4720 0.4800 0.4940 0.5110
10.620559 0.5310 0.5490 0.5680 0.5830 0.5930
10.645000 0.5990 0.6050 0.6100 0.6100 0.6100
10.669559 0.6100 0.6100 0.6060 0.5910 0.5830
10.694000 0.5730 0.5630 0.5540 0.5450 0.5330
10.718559 0.5240 0.5200 0.5190 0.5160 0.5170
10.743000 0.5190 0.5250 0.5330 0.5430 0.5520
10.767559 0.5620 0.5730 0.5830 0.5940 0.5990
10.792000 0.6020 0.6120 0.6210 0.6280 0.6350
10.816559 0.6370 0.6430 0.6470 0.6530 0.6550
10.841000 0.6600 0.6600 0.6600 0.6620 0.6630
10.865559 0.6630 0.6620 0.6600 0.6600 0.6520
10.890000 0.6480 0.6420 0.6370 0.6350 0.6310
10.914559 0.6250 0.6220 0.6210 0.6200 0.6180
10.939000 0.6200 0.6220 0.6230 0.6250 0.6300
10.963559 0.6370 0.6440 0.6510 0.6520 0.6590
10.989000 0.6630 0.6650 0.6680 0.6690 0.6680
11.013559 0.6670 0.6650 0.6620 0.6600 0.6550
11.038000 0.6510 0.6430 0.6360 0.6280 0.6200
11.062559 0.6120 0.6060 0.5930 0.5800 0.5790
11.087000 0.5780 0.5780 0.5800 0.5810 0.5830
11.111559 0.5960 0.6000 0.6020 0.6070 0.6160
11.136000 0.6250 0.6350 0.6440 0.6530 0.6590
11.160559 0.6600 0.6690 0.6750 0.6830 0.6850
11.185000 0.6880 0.6890 0.6900 0.6900 0.6910
11.209559 0.6920 0.6920 0.6940 0.6950 0.6960
11.234000 0.6960 0.6960 0.6960 0.6950 0.6950
11.258559 0.6940 0.6910 0.6910 0.6900 0.6900
11.283000 0.6900 0.6890 0.6890 0.6880 0.6860
11.307559 0.6860 0.6860 0.6860 0.6840 0.6830
11.332000 0.6810 0.6750 0.6690 0.6620 0.6590
11.356559 0.6580 0.6570 0.6540 0.6490 0.6460
11.381000 0.6410 0.6370 0.6320 0.6280 0.6270
11.405559 0.6260 0.6270 0.6280 0.6280 0.6320
11.430000 0.6360 0.6370 0.6410 0.6480 0.6510
11.454559 0.6530 0.6550 0.6570 0.6580 0.6590
11.480000 0.6600 0.6630 0.6680 0.6720 0.6740
11.504559 0.6780 0.6830 0.6890 0.6910 0.7010
11.529000 0.7040 0.7050 0.7060 0.7070 0.7090
11.553559 0.7110 0.7130 0.7160 0.7210 0.7250
11.578000 0.7270 0.7310 0.7330 0.7370 0.7410
11.602559 0.7440 0.7480 0.7530 0.7580 0.7630
11.627000 0.7680 0.7700 0.7730 0.7730 0.7740
11.651559 0.7790 0.7800 0.7820 0.7820 0.7840
11.676000 0.7850 0.7850 0.7860 0.7870 0.7870
11.700559 0.7890 0.7870 0.7870 0.7870 0.7870
11.725000 0.7870 0.7870 0.7890 0.7890 0.7890
11.749559 0.7890 0.7890 0.7870 0.7870 0.7860
11.774000 0.7850 0.7850 0.7840 0.7850 0.7840
11.798559 0.7840 0.7840 0.7820 0.7810 0.7810
11.823000 0.7810 0.7800 0.7790 0.7740 0.7690
11.847559 0.7690 0.7680 0.7660 0.7680 0.7680
11.872000 0.7680 0.7680 0.7680 0.7680 0.7680
11.896559 0.7690 0.7680 0.7680 0.7660 0.7660
11.921000 0.7650 0.7640 0.7630 0.7620 0.7600
11.945559 0.7590 0.7590 0.7580 0.7580 0.7570
11.971000 0.7550 0.7550 0.7550 0.7550 0.7550
11.995559 0.7550 0.7580 0.7590 0.7600 0.7620
12.020000 0.7620 0.7630 0.7630 0.7630 0.7640
12.044559 0.7650 0.7660 0.7680 0.7680 0.7680
12.069000 0.7680 0.7680 0.7680 0.7680 0.7680
12.093559 0.7680 0.7660 0.7650 0.7650 0.7640
12.118000 0.7640 0.7650 0.7660 0.7680 0.7700
12.142559 0.7730 0.7740 0.7730 0.7740 0.7780
12.167000 0.7800 0.7810 0.7850 0.7860 0.7860
12.191559 0.7870 0.7870 0.7890 0.7900 0.7900
12.216000 0.7900 0.7900 0.7900 0.7900 0.7900
12.240559 0.7890 0.7870 0.7870 0.7860 0.7820
12.265000 0.7800 0.7760 0.7760 0.7750 0.7750
12.289559 0.7740 0.7730 0.7710 0.7700 0.7700
12.314000 0.7690 0.7680 0.7660 0.7650 0.7650
12.338559 0.7640 0.7630 0.7590 0.7570 0.7540
12.363000 0.7520 0.7480 0.7450 0.7440 0.7440
12.387559 0.7440 0.7440 0.7440 0.7440 0.7430
12.412000 0.7430 0.7430 0.7430 0.7430 0.7430
12.436559 0.7430 0.7420 0.7430 0.7420 0.7410
12.462000 0.7390 0.7390 0.7380 0.7370 0.7360
12.486559 0.7340 0.7340 0.7330 0.7320 0.7310
12.511000 0.7310 0.7320 0.7330 0.7340 0.7360
12.535559 0.7370 0.7370 0.7390 0.7420 0.7430
12.560000 0.7450 0.7470 0.7470 0.7480 0.7470
12.584559 0.7470 0.7470 0.7470 0.7450 0.7450
12.609000 0.7430 0.7420 0.7390 0.7370 0.7360
12.633559 0.7330 0.7320 0.7320 0.7320 0.7320
12.658000 0.7320 0.7320 0.7340 0.7340 0.7360
12.682559 0.7360 0.7380 0.7390 0.7410 0.7410
12.707000 0.7420 0.7420 0.7420 0.7420 0.7420
12.731559 0.7410 0.7410 0.7390 0.7390 0.7340
12.756000 0.7320 0.7290 0.7260 0.7220 0.7200
12.780559 0.7170 0.7130 0.7110 0.7100 0.7100
12.805000 0.7100 0.7100 0.7100 0.7100 0.7100
12.829559 0.7090 0.7090 0.7090 0.7090 0.7090
12.854000 0.7070 0.7050 0.7020 0.7000 0.6990
12.878559 0.6960 0.6940 0.6910 0.6900 0.6880
12.903000 0.6850 0.6830 0.6800 0.6800 0.6780
12.927559 0.6760 0.6750 0.6740 0.6730 0.6720
12.953000 0.6700 0.6700 0.6690 0.6690 0.6680
12.977559 0.6670 0.6680 0.6670 0.6650 0.6640
13.002000 0.6620 0.6570 0.6520 0.6470 0.6460
13.026559 0.6460 0.6460 0.6460 0.6460 0.6460
13.051000 0.6460 0.6460 0.6460 0.6460 0.6460
13.075559 0.6460 0.6440 0.6460 0.6440 0.6440
13.100000 0.6440 0.6440 0.6430 0.6390 0.6380
13.124559 0.6390 0.6390 0.6420 0.6430 0.6430
13.149000 0.6430 0.6440 0.6440 0.6460 0.6460
13.173559 0.6460 0.6470 0.6470 0.6460 0.6460
13.198000 0.6460 0.6440 0.6430 0.6410 0.6380
13.222559 0.6330 0.6300 0.6260 0.6200 0.6180
13.247000 0.6150 0.6120 0.6140 0.6150 0.6160
13.271559 0.6210 0.6270 0.6280 0.6280 0.6280
13.296000 0.6270 0.6260 0.6220 0.6210 0.6180
13.320559 0.6180 0.6170 0.6160 0.6150 0.6150
13.345000 0.6140 0.6110 0.6090 0.6060 0.6050
13.369559 0.6020 0.6000 0.5980 0.5960 0.5950
13.394000 0.5940 0.5930 0.5900 0.5860 0.5800
13.418559 0.5780 0.5770 0.5720 0.5680 0.5650
13.444000 0.5630 0.5620 0.5570 0.5560 0.5510
13.468559 0.5490 0.5470 0.5460 0.5430 0.5420
13.493000 0.5370 0.5360 0.5310 0.5260 0.5220
13.517559 0.5160 0.5110 0.5040 0.5000 0.4950
13.542000 0.4900 0.4840 0.4780 0.4710 0.4660
13.566559 0.4610 0.4580 0.4530 0.4470 0.4410
13.591000 0.4320 0.4220 0.4130 0.4010 0.3730
13.615559 0.3580 0.3560 0.3530 0.3500 0.3450
13.640000 0.3410 0.3300 0.3160 0.3000 0.2870
13.664559 0.2740 0.2600 0.2420 0.2260 0.2090
13.689000 0.1780 0.1660 0.1550 0.1470 0.1430
13.713559 0.1410 0.1360 0.1340 0.1220 0.1200
13.738000 0.1190 0.1190 0.1190 0.1190 0.1190
13.762559 0.1200 0.1250 0.1280 0.1310 0.1340
13.787000 0.1350 0.1360 0.1360 0.1380 0.1380
13.811559 0.1390 0.1390 0.1390 0.1380 0.1360
13.836000 0.1350 0.1330 0.1310 0.1290 0.1280
13.860559 0.1240 0.1200 0.1150 0.1120 0.1080
13.885000 0.1070 0.1060 0.1060 0.1060 0.1060
13.909559 0.1040 0.1040 0.1040 0.1060 0.1070
13.935000 0.1080 0.1100 0.1150 0.1190 0.1240
13.959559 0.1360 0.1460 0.1550 0.1650 0.1730
13.984000 0.1830 0.1930 0.1980 0.2020 0.2120
14.008559 0.2200 0.2300 0.2310 0.2350 0.2540
14.033000 0.2680 0.2780 0.2860 0.2930 0.3000
14.057559 0.3100 0.3240 0.3310 0.3370 0.3500
14.082000 0.3610 0.3690 0.3780 0.3840 0.3920
14.106559 0.3980 0.4000 0.4030 0.4060 0.4100
14.131000 0.4240 0.4340 0.4410 0.4470 0.4520
14.155559 0.4570 0.4610 0.4660 0.4710 0.4740
14.180000 0.4770 0.4790 0.4830 0.4870 0.4900
14.204559 0.4960 0.5030 0.5090 0.5120 0.5120
14.229000 0.5140 0.5150 0.5160 0.5170 0.5190
14.253559 0.5190 0.5200 0.5210 0.5220 0.5250
14.278000 0.5260 0.5280 0.5300 0.5310 0.5320
14.302559 0.5330 0.5380 0.5400 0.5430 0.5460
14.327000 0.5460 0.5470 0.5480 0.5490 0.5510
14.351559 0.5540 0.5580 0.5580 0.5580 0.5580
14.376000 0.5570 0.5570 0.5570 0.5570 0.5570
14.400559 0.5560 0.5570 0.5570 0.5570 0.5570
14.426000 0.5580 0.5580 0.5580 0.5580 0.5580
14.450559 0.5580 0.5580 0.5580 0.5580 0.5580
14.475000 0.5580 0.5580 0.5590 0.5610 0.5610
14.499559 0.5620 0.5620 0.5630 0.5640 0.5640
14.524000 0.5650 0.5650 0.5670 0.5670 0.5680
14.548559 0.5680 0.5690 0.5690 0.5700 0.5700
14.573000 0.5720 0.5730 0.5730 0.5740 0.5750
14.597559 0.5750 0.5770 0.5770 0.5780 0.5780
14.622000 0.5790 0.5800 0.5800 0.5800 0.5800
14.646559 0.5800 0.5800 0.5800 0.5810 0.5810
14.671000 0.5810 0.5830 0.5840 0.5850 0.5850
14.695559 0.5850 0.5850 0.5850 0.5850 0.5850
14.720000 0.5850 0.5850 0.5850 0.5850 0.5850
14.744559 0.5850 0.5850 0.5850 0.5850 0.5850
14.769000 0.5860 0.5860 0.5860 0.5860 0.5860
14.793559 0.5860 0.5860 0.5860 0.5860 0.5880
14.818000 0.5890 0.5900 0.5910 0.5930 0.5940
14.842559 0.5950 0.5960 0.5980 0.5980 0.5990
14.867000 0.6000 0.6000 0.6010 0.6020 0.6040
14.891559 0.6050 0.6060 0.6070 0.6070 0.6090
14.917000 0.6120 0.6160 0.6180 0.6210 0.6210
14.941559 0.6220 0.6230 0.6250 0.6250 0.6260
14.966000 0.6270 0.6270 0.6280 0.6300 0.6300
14.990559 0.6310 0.6310 0.6320 0.6330 0.6330
15.015000 0.6360 0.6370 0.6380 0.6390 0.6410
15.039559 0.6410 0.6420 0.6430 0.6510 0.6520
15.064000 0.6550 0.6550 0.6570 0.6570 0.6570
15.088559 0.6570 0.6570 0.6570 0.6570 0.6580
15.113000 0.6580 0.6580 0.6580 0.6580 0.6580
15.137559 0.6580 0.6580 0.6590 0.6630 0.6670
15.162000 0.6700 0.6720 0.6730 0.6740 0.6750
15.186559 0.6750 0.6750 0.6750 0.6750 0.6750
15.211000 0.6750 0.6750 0.6750 0.6750 0.6750
15.235559 0.6750 0.6760 0.6760 0.6780 0.6790
15.260000 0.6800 0.6810 0.6810 0.6880 0.6900
15.284559 0.6920 0.6940 0.6940 0.6950 0.6950
15.309000 0.6950 0.6960 0.6960 0.6960 0.6960
15.333559 0.6970 0.6970 0.6970 0.6970 0.6990
15.358000 0.7050 0.7070 0.7090 0.7110 0.7130
15.382559 0.7130 0.7150 0.7150 0.7160 0.7170
15.408000 0.7180 0.7200 0.7200 0.7210 0.7220
15.432559 0.7220 0.7220 0.7220 0.7220 0.7220
15.457000 0.7220 0.7220 0.7220 0.7220 0.7230
15.481559 0.7250 0.7260 0.7270 0.7270 0.7280
15.506000 0.7290 0.7310 0.7320 0.7320 0.7320
15.530559 0.7330 0.7330 0.7340 0.7360 0.7360
15.555000 0.7370 0.7370 0.7370 0.7370 0.7370
15.579559 0.7370 0.7370 0.7370 0.7370 0.7370
15.604000 0.7370 0.7340 0.7330 0.7310 0.7310
15.628559 0.7290 0.7290 0.7310 0.7310 0.7310
15.653000 0.7320 0.7320 0.7320 0.7330 0.7330
15.677559 0.7330 0.7340 0.7390 0.7410 0.7410
15.702000 0.7420 0.7420 0.7430 0.7430 0.7440
15.726559 0.7440 0.7450 0.7450 0.7470 0.7470
15.751000 0.7480 0.7480 0.7490 0.7490 0.7520
15.775559 0.7530 0.7540 0.7550 0.7550 0.7570
15.800000 0.7570 0.7570 0.7580 0.7580 0.7580
15.824559 0.7590 0.7590 0.7590 0.7590 0.7590
15.849000 0.7590 0.7590 0.7590 0.7590 0.7590
15.873559 0.7590 0.7590 0.7590 0.7590 0.7590
15.899000 0.7590 0.7600 0.7600 0.7600 0.7600
15.923559 0.7600 0.7600 0.7600 0.7600 0.7600
15.948000 0.7600 0.7600 0.7600 0.7600 0.7600
15.972559 0.7600 0.7600
##END=
