##TITLE=Ferulic acid
##JCAMP-DX=4.24
##DATA TYPE=INFRARED SPECTRUM
##CLASS=COBLENTZ III
##ORIGIN=UNIVERSITY OF FLORIDA
##OWNER=Copyright (C) 1987 by the Coblentz Society
Collection (C) 2018 copyright by the U.S. Secretary of Commerce
on behalf of the United States of America. All rights reserved.
##DATE=1964/06/22
##NAMES=(2E)-3-(4-hydroxy-3-methoxyphenyl)-2-propenoic acid
CINNAMIC ACID, 4-HYDROXY-3-METHOXY
##CAS REGISTRY NO=1135-24-6
##MOLFORM=C10 H10 O4
##SOURCE REFERENCE=COBLENTZ NO. 9961
##$NIST SOURCE=COBLENTZ
##$NIST IMAGE=cob9961
##SPECTROMETER/DATA SYSTEM=BECKMAN IR-4 (HYBRID PRISM-GRATING)
##STATE=SOLID (KBr DISC)
##SAMPLING PROCEDURE=TRANSMISSION
##RESOLUTION=2
##DATA PROCESSING=DIGITIZED BY COBLENTZ SOCIETY (BATCH II) FROM HARD COPY
##XUNITS=1/CM
##YUNITS=TRANSMITTANCE
##XFACTOR=1.0
##YFACTOR=1
##FIRSTX=667
##LASTX=4000
##FIRSTY=0.6082
##MAXX=4000
##MINX=667
##MAXY=0.6816
##MINY=0.0828
##NPOINTS=3334
##XYDATA=(X++(Y..Y))
667.000000 0.6082 0.6157 0.6215 0.6233 0.6207
672.000000 0.6162 0.6140 0.6121 0.6072 0.5889
677.000000 0.5872 0.5872 0.5826 0.5678 0.5520
682.000000 0.5321 0.5077 0.4820 0.4761 0.4907
687.000000 0.5033 0.5208 0.5366 0.5467 0.5426
692.000000 0.5403 0.5474 0.5587 0.5739 0.5975
697.000000 0.6111 0.6255 0.6380 0.6525 0.6621
702.000000 0.6607 0.6588 0.6592 0.6662 0.6662
707.000000 0.6617 0.6552 0.6507 0.6557 0.6519
712.000000 0.6556 0.6608 0.6666 0.6704 0.6710
717.000000 0.6661 0.6609 0.6574 0.6559 0.6581
722.000000 0.6604 0.6618 0.6611 0.6586 0.6545
727.000000 0.6504 0.6475 0.6443 0.6402 0.6361
732.000000 0.6320 0.6279 0.6238 0.6197 0.6157
737.000000 0.6118 0.6090 0.6061 0.6081 0.6160
742.000000 0.6169 0.6150 0.6125 0.6095 0.6057
747.000000 0.5996 0.5868 0.5674 0.5478 0.5330
752.000000 0.5227 0.5212 0.5380 0.5686 0.5909
757.000000 0.6061 0.6174 0.6258 0.6324 0.6374
762.000000 0.6406 0.6419 0.6414 0.6414 0.6409
767.000000 0.6403 0.6397 0.6382 0.6365 0.6346
772.000000 0.6324 0.6300 0.6277 0.6254 0.6231
777.000000 0.6208 0.6182 0.6155 0.6128 0.6096
782.000000 0.6062 0.6029 0.5994 0.5959 0.5922
787.000000 0.5885 0.5837 0.5778 0.5717 0.5648
792.000000 0.5568 0.5477 0.5375 0.5239 0.5076
797.000000 0.4918 0.4763 0.4601 0.4266 0.3665
802.000000 0.3242 0.2806 0.2641 0.2624 0.3096
807.000000 0.3684 0.4269 0.4833 0.5041 0.5093
812.000000 0.5093 0.5086 0.5100 0.5246 0.5497
817.000000 0.5657 0.5806 0.5934 0.6041 0.6089
822.000000 0.6101 0.6106 0.6106 0.6103 0.6108
827.000000 0.6091 0.6082 0.6065 0.6042 0.6013
832.000000 0.5982 0.5946 0.5906 0.5853 0.5793
837.000000 0.5732 0.5670 0.5602 0.5526 0.5451
842.000000 0.5373 0.5289 0.5170 0.5033 0.4869
847.000000 0.4573 0.4168 0.3880 0.3592 0.3305
852.000000 0.3000 0.2776 0.2761 0.2875 0.3275
857.000000 0.3686 0.4096 0.4506 0.4913 0.5113
862.000000 0.5325 0.5412 0.5466 0.5510 0.5549
867.000000 0.5584 0.5616 0.5641 0.5660 0.5675
872.000000 0.5683 0.5655 0.5678 0.5673 0.5663
877.000000 0.5654 0.5641 0.5627 0.5610 0.5590
882.000000 0.5569 0.5545 0.5520 0.5494 0.5468
887.000000 0.5441 0.5414 0.5386 0.5354 0.5324
892.000000 0.5292 0.5262 0.5234 0.5207 0.5178
897.000000 0.5143 0.5107 0.5072 0.5026 0.4981
902.000000 0.4936 0.4890 0.4845 0.4800 0.4755
907.000000 0.4723 0.4690 0.4639 0.4574 0.4484
912.000000 0.4369 0.4247 0.4118 0.4024 0.3973
917.000000 0.3969 0.3987 0.4000 0.3998 0.3986
922.000000 0.3965 0.3917 0.3866 0.3806 0.3743
927.000000 0.3676 0.3602 0.3535 0.3472 0.3409
932.000000 0.3345 0.3286 0.3227 0.3171 0.3121
937.000000 0.3071 0.3021 0.2971 0.2927 0.2887
942.000000 0.2849 0.2814 0.2778 0.2753 0.2730
947.000000 0.2715 0.2728 0.2704 0.2789 0.2867
952.000000 0.3054 0.3240 0.3425 0.3610 0.3790
957.000000 0.3933 0.4084 0.4219 0.4274 0.4320
962.000000 0.4356 0.4374 0.4386 0.4386 0.4410
967.000000 0.4356 0.4319 0.4242 0.4108 0.3983
972.000000 0.3925 0.3911 0.4083 0.4224 0.4366
977.000000 0.4506 0.4648 0.4765 0.4875 0.4956
982.000000 0.5001 0.5028 0.5054 0.5074 0.5093
987.000000 0.5119 0.5145 0.5163 0.5169 0.5174
992.000000 0.5175 0.5174 0.5171 0.5164 0.5153
997.000000 0.5142 0.5131 0.5110 0.5080 0.5047
1002.000000 0.5013 0.4980 0.4952 0.4925 0.4897
1007.000000 0.4866 0.4836 0.4807 0.4781 0.4756
1012.000000 0.4737 0.4722 0.4706 0.4689 0.4660
1017.000000 0.4621 0.4583 0.4546 0.4506 0.4452
1022.000000 0.4398 0.4344 0.4289 0.4234 0.4178
1027.000000 0.4124 0.4042 0.3950 0.3833 0.3709
1032.000000 0.3582 0.3447 0.3296 0.3132 0.2948
1037.000000 0.2790 0.2790 0.2811 0.3036 0.3273
1042.000000 0.3510 0.3802 0.4052 0.4176 0.4285
1047.000000 0.4391 0.4494 0.4577 0.4621 0.4653
1052.000000 0.4673 0.4689 0.4701 0.4711 0.4715
1057.000000 0.4717 0.4718 0.4716 0.4712 0.4706
1062.000000 0.4693 0.4679 0.4666 0.4650 0.4624
1067.000000 0.4599 0.4573 0.4548 0.4522 0.4497
1072.000000 0.4472 0.4446 0.4421 0.4395 0.4371
1077.000000 0.4345 0.4320 0.4295 0.4270 0.4245
1082.000000 0.4220 0.4195 0.4171 0.4145 0.4121
1087.000000 0.4096 0.4071 0.4047 0.4022 0.3998
1092.000000 0.3972 0.3931 0.3896 0.3870 0.3845
1097.000000 0.3817 0.3788 0.3758 0.3725 0.3691
1102.000000 0.3652 0.3599 0.3538 0.3471 0.3391
1107.000000 0.3306 0.3220 0.3136 0.3054 0.2976
1112.000000 0.2905 0.2842 0.2794 0.2774 0.2774
1117.000000 0.2743 0.2799 0.2844 0.2913 0.2966
1122.000000 0.3006 0.3045 0.3079 0.3099 0.3109
1127.000000 0.3112 0.3107 0.3112 0.3093 0.3077
1132.000000 0.3056 0.3031 0.3005 0.2976 0.2946
1137.000000 0.2913 0.2879 0.2843 0.2807 0.2764
1142.000000 0.2720 0.2675 0.2631 0.2588 0.2544
1147.000000 0.2494 0.2436 0.2377 0.2320 0.2265
1152.000000 0.2211 0.2156 0.2097 0.2034 0.1971
1157.000000 0.1909 0.1847 0.1794 0.1742 0.1690
1162.000000 0.1641 0.1592 0.1541 0.1485 0.1428
1167.000000 0.1388 0.1351 0.1318 0.1292 0.1267
1172.000000 0.1242 0.1224 0.1207 0.1190 0.1174
1177.000000 0.1153 0.1131 0.1108 0.1086 0.1068
1182.000000 0.1056 0.1044 0.1059 0.1066 0.1074
1187.000000 0.1082 0.1094 0.1106 0.1126 0.1149
1192.000000 0.1174 0.1210 0.1249 0.1292 0.1338
1197.000000 0.1370 0.1382 0.1384 0.1381 0.1381
1202.000000 0.1354 0.1305 0.1238 0.1166 0.1107
1207.000000 0.1055 0.1017 0.0985 0.0962 0.0948
1212.000000 0.0941 0.0929 0.0946 0.0953 0.0968
1217.000000 0.0994 0.1053 0.1213 0.1400 0.1586
1222.000000 0.1773 0.1975 0.2080 0.2173 0.2318
1227.000000 0.2462 0.2552 0.2611 0.2641 0.2662
1232.000000 0.2673 0.2681 0.2679 0.2678 0.2678
1237.000000 0.2677 0.2689 0.2713 0.2736 0.2756
1242.000000 0.2778 0.2800 0.2818 0.2837 0.2854
1247.000000 0.2871 0.2885 0.2898 0.2909 0.2913
1252.000000 0.2918 0.2918 0.2925 0.2873 0.2791
1257.000000 0.2708 0.2627 0.2545 0.2464 0.2382
1262.000000 0.2302 0.2220 0.2140 0.2057 0.1967
1267.000000 0.1874 0.1787 0.1703 0.1624 0.1541
1272.000000 0.1459 0.1387 0.1321 0.1261 0.1204
1277.000000 0.1138 0.1069 0.1018 0.0969 0.0904
1282.000000 0.0858 0.0837 0.0828 0.0828 0.0833
1287.000000 0.0834 0.0851 0.0881 0.0936 0.0997
1292.000000 0.1032 0.1055 0.1073 0.1086 0.1095
1297.000000 0.1120 0.1144 0.1180 0.1232 0.1343
1302.000000 0.1536 0.1751 0.1966 0.2180 0.2394
1307.000000 0.2608 0.2822 0.3032 0.3201 0.3389
1312.000000 0.3557 0.3664 0.3742 0.3813 0.3870
1317.000000 0.3927 0.3988 0.4046 0.4085 0.4117
1322.000000 0.4139 0.4158 0.4168 0.4172 0.4171
1327.000000 0.4166 0.4112 0.3963 0.3810 0.3658
1332.000000 0.3512 0.3462 0.3454 0.3447 0.3470
1337.000000 0.3546 0.3685 0.3823 0.3961 0.4100
1342.000000 0.4237 0.4375 0.4513 0.4650 0.4787
1347.000000 0.4924 0.5060 0.5197 0.5333 0.5469
1352.000000 0.5605 0.5739 0.5866 0.5964 0.6002
1357.000000 0.6026 0.6044 0.6058 0.6071 0.6081
1362.000000 0.6088 0.6081 0.6085 0.6080 0.6071
1367.000000 0.6057 0.6036 0.6001 0.5918 0.5829
1372.000000 0.5740 0.5651 0.5562 0.5474 0.5385
1377.000000 0.5297 0.5208 0.5119 0.5031 0.4943
1382.000000 0.4856 0.4768 0.4681 0.4593 0.4506
1387.000000 0.4435 0.4379 0.4327 0.4297 0.4284
1392.000000 0.4272 0.4272 0.4277 0.4287 0.4304
1397.000000 0.4324 0.4341 0.4354 0.4362 0.4361
1402.000000 0.4360 0.4355 0.4343 0.4329 0.4293
1407.000000 0.4212 0.4127 0.4042 0.3958 0.3874
1412.000000 0.3790 0.3706 0.3622 0.3538 0.3451
1417.000000 0.3371 0.3304 0.3263 0.3230 0.3206
1422.000000 0.3182 0.3156 0.3130 0.3100 0.3068
1427.000000 0.3036 0.3004 0.2972 0.2939 0.2896
1432.000000 0.2849 0.2798 0.2747 0.2697 0.2646
1437.000000 0.2572 0.2494 0.2425 0.2355 0.2285
1442.000000 0.2237 0.2226 0.2228 0.2244 0.2207
1447.000000 0.2611 0.2763 0.2855 0.2915 0.2977
1452.000000 0.3064 0.3146 0.3228 0.3310 0.3392
1457.000000 0.3474 0.3556 0.3629 0.3677 0.3708
1462.000000 0.3732 0.3744 0.3752 0.3755 0.3750
1467.000000 0.3754 0.3748 0.3704 0.3649 0.3595
1472.000000 0.3540 0.3486 0.3432 0.3376 0.3318
1477.000000 0.3310 0.3309 0.3309 0.3314 0.3303
1482.000000 0.3361 0.3450 0.3539 0.3627 0.3716
1487.000000 0.3805 0.3893 0.3981 0.4070 0.4158
1492.000000 0.4245 0.4329 0.4376 0.4392 0.4403
1497.000000 0.4408 0.4411 0.4411 0.4410 0.4407
1502.000000 0.4393 0.4401 0.4393 0.4384 0.4372
1507.000000 0.4339 0.4281 0.4170 0.4118 0.4067
1512.000000 0.4015 0.3985 0.3975 0.3967 0.3957
1517.000000 0.3945 0.3923 0.3888 0.3845 0.3777
1522.000000 0.3686 0.3617 0.3561 0.3506 0.3458
1527.000000 0.3413 0.3370 0.3345 0.3321 0.3304
1532.000000 0.3300 0.3300 0.3300 0.3316 0.3315
1537.000000 0.3335 0.3355 0.3377 0.3401 0.3427
1542.000000 0.3453 0.3483 0.3514 0.3540 0.3565
1547.000000 0.3589 0.3614 0.3630 0.3645 0.3659
1552.000000 0.3669 0.3678 0.3687 0.3724 0.3833
1557.000000 0.3926 0.3997 0.4060 0.4111 0.4152
1562.000000 0.4187 0.4214 0.4237 0.4254 0.4266
1567.000000 0.4279 0.4291 0.4303 0.4314 0.4325
1572.000000 0.4333 0.4335 0.4335 0.4336 0.4337
1577.000000 0.4332 0.4327 0.4351 0.4312 0.4302
1582.000000 0.4287 0.4264 0.4240 0.4175 0.4092
1587.000000 0.4009 0.3926 0.3843 0.3760 0.3677
1592.000000 0.3595 0.3512 0.3430 0.3347 0.3265
1597.000000 0.3183 0.3101 0.3019 0.2937 0.2856
1602.000000 0.2774 0.2692 0.2611 0.2530 0.2448
1607.000000 0.2367 0.2287 0.2213 0.2163 0.2126
1612.000000 0.2097 0.2079 0.2070 0.2062 0.2057
1617.000000 0.2052 0.2046 0.2040 0.2034 0.2026
1622.000000 0.2015 0.2003 0.1991 0.1978 0.1962
1627.000000 0.1945 0.1928 0.1912 0.1896 0.1882
1632.000000 0.1870 0.1861 0.1854 0.1858 0.1866
1637.000000 0.1845 0.1887 0.1905 0.1941 0.2008
1642.000000 0.2081 0.2127 0.2150 0.2173 0.2194
1647.000000 0.2232 0.2413 0.2503 0.2576 0.2624
1652.000000 0.2660 0.2687 0.2708 0.2724 0.2737
1657.000000 0.2748 0.2759 0.2769 0.2777 0.2779
1662.000000 0.2782 0.2784 0.2766 0.2785 0.2783
1667.000000 0.2777 0.2763 0.2743 0.2719 0.2695
1672.000000 0.2671 0.2643 0.2613 0.2580 0.2549
1677.000000 0.2520 0.2495 0.2470 0.2450 0.2429
1682.000000 0.2410 0.2397 0.2388 0.2378 0.2368
1687.000000 0.2359 0.2351 0.2344 0.2336 0.2328
1692.000000 0.2321 0.2314 0.2307 0.2302 0.2297
1697.000000 0.2292 0.2286 0.2278 0.2269 0.2257
1702.000000 0.2243 0.2220 0.2211 0.2203 0.2200
1707.000000 0.2200 0.2202 0.2203 0.2207 0.2211
1712.000000 0.2203 0.2222 0.2228 0.2236 0.2247
1717.000000 0.2261 0.2279 0.2316 0.2392 0.2492
1722.000000 0.2591 0.2686 0.2709 0.2734 0.2761
1727.000000 0.2787 0.2811 0.2855 0.3081 0.3355
1732.000000 0.3465 0.3502 0.3538 0.3575 0.3612
1737.000000 0.3649 0.3722 0.3821 0.3926 0.4015
1742.000000 0.4046 0.4075 0.4105 0.4135 0.4164
1747.000000 0.4196 0.4250 0.4304 0.4347 0.4381
1752.000000 0.4413 0.4445 0.4476 0.4508 0.4539
1757.000000 0.4570 0.4601 0.4631 0.4661 0.4692
1762.000000 0.4722 0.4752 0.4786 0.4823 0.4859
1767.000000 0.4897 0.4941 0.4996 0.5075 0.5178
1772.000000 0.5283 0.5334 0.5386 0.5450 0.5521
1777.000000 0.5588 0.5632 0.5672 0.5712 0.5752
1782.000000 0.5793 0.5847 0.5902 0.5951 0.5993
1787.000000 0.6028 0.6063 0.6098 0.6130 0.6159
1792.000000 0.6186 0.6214 0.6242 0.6270 0.6299
1797.000000 0.6328 0.6356 0.6384 0.6411 0.6438
1802.000000 0.6465 0.6491 0.6515 0.6532 0.6549
1807.000000 0.6566 0.6581 0.6592 0.6602 0.6612
1812.000000 0.6622 0.6631 0.6640 0.6645 0.6649
1817.000000 0.6653 0.6656 0.6660 0.6663 0.6666
1822.000000 0.6669 0.6671 0.6674 0.6676 0.6678
1827.000000 0.6680 0.6683 0.6686 0.6688 0.6689
1832.000000 0.6690 0.6691 0.6692 0.6693 0.6694
1837.000000 0.6696 0.6696 0.6698 0.6699 0.6701
1842.000000 0.6701 0.6703 0.6704 0.6704 0.6706
1847.000000 0.6707 0.6708 0.6709 0.6712 0.6715
1852.000000 0.6717 0.6719 0.6721 0.6723 0.6726
1857.000000 0.6728 0.6730 0.6733 0.6735 0.6737
1862.000000 0.6740 0.6744 0.6748 0.6753 0.6758
1867.000000 0.6762 0.6767 0.6771 0.6775 0.6779
1872.000000 0.6784 0.6788 0.6793 0.6797 0.6800
1877.000000 0.6804 0.6807 0.6811 0.6812 0.6815
1882.000000 0.6816 0.6815 0.6812 0.6810 0.6808
1887.000000 0.6806 0.6804 0.6802 0.6800 0.6798
1892.000000 0.6796 0.6793 0.6791 0.6789 0.6786
1897.000000 0.6784 0.6781 0.6778 0.6775 0.6772
1902.000000 0.6769 0.6765 0.6763 0.6759 0.6756
1907.000000 0.6752 0.6750 0.6746 0.6743 0.6740
1912.000000 0.6737 0.6734 0.6731 0.6729 0.6727
1917.000000 0.6725 0.6723 0.6721 0.6718 0.6715
1922.000000 0.6711 0.6709 0.6705 0.6702 0.6699
1927.000000 0.6696 0.6693 0.6690 0.6686 0.6683
1932.000000 0.6679 0.6675 0.6671 0.6666 0.6662
1937.000000 0.6657 0.6652 0.6648 0.6643 0.6639
1942.000000 0.6636 0.6633 0.6631 0.6627 0.6624
1947.000000 0.6621 0.6618 0.6615 0.6612 0.6609
1952.000000 0.6606 0.6603 0.6600 0.6598 0.6597
1957.000000 0.6595 0.6593 0.6592 0.6590 0.6588
1962.000000 0.6587 0.6586 0.6584 0.6582 0.6581
1967.000000 0.6581 0.6581 0.6580 0.6580 0.6579
1972.000000 0.6578 0.6578 0.6577 0.6576 0.6576
1977.000000 0.6575 0.6574 0.6574 0.6573 0.6572
1982.000000 0.6572 0.6571 0.6571 0.6570 0.6569
1987.000000 0.6569 0.6568 0.6567 0.6567 0.6566
1992.000000 0.6566 0.6565 0.6564 0.6563 0.6562
1997.000000 0.6560 0.6559 0.6558 0.6557 0.6555
2002.000000 0.6554 0.6554 0.6553 0.6551 0.6550
2007.000000 0.6549 0.6548 0.6545 0.6543 0.6540
2012.000000 0.6538 0.6535 0.6533 0.6531 0.6529
2017.000000 0.6526 0.6524 0.6521 0.6519 0.6518
2022.000000 0.6515 0.6513 0.6510 0.6508 0.6505
2027.000000 0.6503 0.6500 0.6498 0.6496 0.6493
2032.000000 0.6490 0.6487 0.6485 0.6483 0.6480
2037.000000 0.6478 0.6475 0.6472 0.6469 0.6467
2042.000000 0.6465 0.6462 0.6459 0.6455 0.6452
2047.000000 0.6449 0.6446 0.6442 0.6439 0.6435
2052.000000 0.6432 0.6429 0.6425 0.6422 0.6418
2057.000000 0.6415 0.6412 0.6409 0.6405 0.6402
2062.000000 0.6397 0.6392 0.6387 0.6383 0.6379
2067.000000 0.6374 0.6370 0.6365 0.6360 0.6356
2072.000000 0.6351 0.6347 0.6343 0.6338 0.6333
2077.000000 0.6329 0.6324 0.6320 0.6315 0.6310
2082.000000 0.6306 0.6301 0.6296 0.6292 0.6287
2087.000000 0.6283 0.6278 0.6273 0.6268 0.6263
2092.000000 0.6259 0.6254 0.6250 0.6246 0.6242
2097.000000 0.6240 0.6238 0.6235 0.6232 0.6230
2102.000000 0.6228 0.6225 0.6223 0.6220 0.6218
2107.000000 0.6215 0.6212 0.6210 0.6208 0.6205
2112.000000 0.6202 0.6199 0.6196 0.6194 0.6191
2117.000000 0.6189 0.6186 0.6184 0.6181 0.6178
2122.000000 0.6175 0.6173 0.6171 0.6167 0.6163
2127.000000 0.6157 0.6152 0.6146 0.6141 0.6136
2132.000000 0.6131 0.6125 0.6120 0.6114 0.6109
2137.000000 0.6104 0.6099 0.6093 0.6088 0.6082
2142.000000 0.6077 0.6071 0.6066 0.6061 0.6055
2147.000000 0.6050 0.6045 0.6040 0.6034 0.6029
2152.000000 0.6024 0.6019 0.6014 0.6009 0.6004
2157.000000 0.6000 0.5995 0.5990 0.5985 0.5980
2162.000000 0.5976 0.5971 0.5966 0.5961 0.5957
2167.000000 0.5953 0.5948 0.5944 0.5940 0.5936
2172.000000 0.5933 0.5929 0.5925 0.5921 0.5917
2177.000000 0.5913 0.5909 0.5906 0.5902 0.5898
2182.000000 0.5895 0.5891 0.5887 0.5884 0.5880
2187.000000 0.5875 0.5871 0.5867 0.5863 0.5860
2192.000000 0.5856 0.5851 0.5847 0.5843 0.5839
2197.000000 0.5835 0.5831 0.5827 0.5823 0.5819
2202.000000 0.5815 0.5811 0.5807 0.5803 0.5799
2207.000000 0.5795 0.5790 0.5786 0.5782 0.5778
2212.000000 0.5773 0.5769 0.5765 0.5761 0.5757
2217.000000 0.5752 0.5748 0.5744 0.5740 0.5735
2222.000000 0.5731 0.5727 0.5722 0.5718 0.5714
2227.000000 0.5710 0.5706 0.5702 0.5698 0.5694
2232.000000 0.5689 0.5685 0.5681 0.5677 0.5673
2237.000000 0.5669 0.5664 0.5660 0.5655 0.5651
2242.000000 0.5647 0.5643 0.5638 0.5634 0.5630
2247.000000 0.5626 0.5621 0.5617 0.5613 0.5609
2252.000000 0.5605 0.5601 0.5597 0.5592 0.5588
2257.000000 0.5584 0.5580 0.5576 0.5572 0.5568
2262.000000 0.5564 0.5560 0.5556 0.5553 0.5549
2267.000000 0.5546 0.5542 0.5538 0.5534 0.5530
2272.000000 0.5526 0.5523 0.5519 0.5516 0.5512
2277.000000 0.5508 0.5504 0.5500 0.5496 0.5493
2282.000000 0.5489 0.5485 0.5481 0.5477 0.5473
2287.000000 0.5470 0.5465 0.5461 0.5457 0.5453
2292.000000 0.5449 0.5445 0.5441 0.5437 0.5433
2297.000000 0.5429 0.5425 0.5421 0.5417 0.5413
2302.000000 0.5409 0.5405 0.5401 0.5397 0.5394
2307.000000 0.5389 0.5385 0.5381 0.5378 0.5374
2312.000000 0.5369 0.5365 0.5362 0.5358 0.5354
2317.000000 0.5349 0.5344 0.5339 0.5334 0.5330
2322.000000 0.5325 0.5320 0.5316 0.5311 0.5307
2327.000000 0.5303 0.5298 0.5294 0.5290 0.5287
2332.000000 0.5283 0.5279 0.5275 0.5271 0.5267
2337.000000 0.5264 0.5261 0.5258 0.5255 0.5253
2342.000000 0.5250 0.5248 0.5245 0.5243 0.5241
2347.000000 0.5238 0.5236 0.5233 0.5231 0.5228
2352.000000 0.5226 0.5224 0.5222 0.5219 0.5217
2357.000000 0.5216 0.5214 0.5213 0.5211 0.5210
2362.000000 0.5209 0.5207 0.5206 0.5205 0.5203
2367.000000 0.5202 0.5201 0.5199 0.5198 0.5197
2372.000000 0.5195 0.5195 0.5194 0.5194 0.5194
2377.000000 0.5193 0.5193 0.5193 0.5193 0.5192
2382.000000 0.5192 0.5192 0.5192 0.5192 0.5191
2387.000000 0.5191 0.5190 0.5190 0.5190 0.5190
2392.000000 0.5190 0.5189 0.5189 0.5188 0.5188
2397.000000 0.5187 0.5185 0.5183 0.5178 0.5172
2402.000000 0.5164 0.5155 0.5145 0.5134 0.5122
2407.000000 0.5110 0.5098 0.5086 0.5075 0.5063
2412.000000 0.5052 0.5040 0.5029 0.5018 0.5007
2417.000000 0.4996 0.4985 0.4975 0.4964 0.4954
2422.000000 0.4945 0.4936 0.4928 0.4919 0.4911
2427.000000 0.4902 0.4894 0.4885 0.4876 0.4867
2432.000000 0.4858 0.4848 0.4839 0.4830 0.4820
2437.000000 0.4811 0.4802 0.4793 0.4783 0.4774
2442.000000 0.4765 0.4756 0.4747 0.4738 0.4730
2447.000000 0.4722 0.4714 0.4706 0.4698 0.4689
2452.000000 0.4681 0.4674 0.4666 0.4658 0.4650
2457.000000 0.4642 0.4633 0.4626 0.4618 0.4611
2462.000000 0.4604 0.4597 0.4590 0.4583 0.4576
2467.000000 0.4569 0.4562 0.4555 0.4548 0.4541
2472.000000 0.4533 0.4526 0.4519 0.4512 0.4506
2477.000000 0.4500 0.4494 0.4487 0.4481 0.4474
2482.000000 0.4468 0.4461 0.4455 0.4448 0.4442
2487.000000 0.4435 0.4429 0.4422 0.4416 0.4409
2492.000000 0.4403 0.4396 0.4390 0.4384 0.4377
2497.000000 0.4371 0.4364 0.4358 0.4352 0.4345
2502.000000 0.4339 0.4332 0.4326 0.4320 0.4313
2507.000000 0.4307 0.4300 0.4294 0.4288 0.4281
2512.000000 0.4275 0.4269 0.4262 0.4256 0.4250
2517.000000 0.4244 0.4238 0.4233 0.4227 0.4222
2522.000000 0.4217 0.4212 0.4206 0.4201 0.4195
2527.000000 0.4190 0.4185 0.4179 0.4174 0.4169
2532.000000 0.4164 0.4158 0.4153 0.4148 0.4143
2537.000000 0.4137 0.4132 0.4127 0.4122 0.4117
2542.000000 0.4111 0.4106 0.4100 0.4094 0.4089
2547.000000 0.4083 0.4078 0.4072 0.4067 0.4062
2552.000000 0.4056 0.4050 0.4044 0.4039 0.4034
2557.000000 0.4028 0.4022 0.4017 0.4012 0.4008
2562.000000 0.4004 0.4000 0.3996 0.3992 0.3988
2567.000000 0.3985 0.3981 0.3978 0.3974 0.3970
2572.000000 0.3967 0.3963 0.3959 0.3955 0.3951
2577.000000 0.3948 0.3944 0.3941 0.3937 0.3934
2582.000000 0.3930 0.3926 0.3922 0.3919 0.3915
2587.000000 0.3912 0.3909 0.3906 0.3904 0.3901
2592.000000 0.3898 0.3895 0.3892 0.3889 0.3886
2597.000000 0.3883 0.3880 0.3877 0.3874 0.3871
2602.000000 0.3868 0.3865 0.3862 0.3859 0.3856
2607.000000 0.3853 0.3850 0.3846 0.3843 0.3840
2612.000000 0.3837 0.3835 0.3832 0.3830 0.3827
2617.000000 0.3825 0.3822 0.3820 0.3818 0.3815
2622.000000 0.3813 0.3810 0.3808 0.3805 0.3803
2627.000000 0.3800 0.3798 0.3796 0.3793 0.3791
2632.000000 0.3789 0.3786 0.3784 0.3782 0.3779
2637.000000 0.3777 0.3774 0.3772 0.3769 0.3767
2642.000000 0.3765 0.3763 0.3762 0.3760 0.3759
2647.000000 0.3758 0.3757 0.3756 0.3755 0.3754
2652.000000 0.3752 0.3751 0.3750 0.3752 0.3754
2657.000000 0.3758 0.3761 0.3765 0.3769 0.3773
2662.000000 0.3777 0.3781 0.3785 0.3789 0.3792
2667.000000 0.3796 0.3799 0.3802 0.3804 0.3807
2672.000000 0.3809 0.3811 0.3813 0.3814 0.3815
2677.000000 0.3816 0.3816 0.3817 0.3818 0.3819
2682.000000 0.3820 0.3821 0.3822 0.3822 0.3823
2687.000000 0.3824 0.3824 0.3825 0.3825 0.3825
2692.000000 0.3826 0.3827 0.3828 0.3828 0.3829
2697.000000 0.3830 0.3830 0.3830 0.3830 0.3830
2702.000000 0.3829 0.3828 0.3828 0.3828 0.3827
2707.000000 0.3827 0.3827 0.3826 0.3826 0.3825
2712.000000 0.3824 0.3824 0.3824 0.3823 0.3823
2717.000000 0.3823 0.3822 0.3821 0.3821 0.3820
2722.000000 0.3819 0.3819 0.3818 0.3818 0.3818
2727.000000 0.3817 0.3816 0.3816 0.3815 0.3815
2732.000000 0.3815 0.3814 0.3813 0.3813 0.3812
2737.000000 0.3812 0.3812 0.3812 0.3812 0.3812
2742.000000 0.3813 0.3813 0.3813 0.3813 0.3813
2747.000000 0.3813 0.3813 0.3813 0.3813 0.3813
2752.000000 0.3813 0.3813 0.3814 0.3814 0.3814
2757.000000 0.3814 0.3814 0.3814 0.3814 0.3815
2762.000000 0.3816 0.3817 0.3818 0.3819 0.3820
2767.000000 0.3821 0.3822 0.3823 0.3823 0.3824
2772.000000 0.3825 0.3826 0.3827 0.3828 0.3830
2777.000000 0.3832 0.3834 0.3835 0.3837 0.3839
2782.000000 0.3840 0.3842 0.3844 0.3845 0.3847
2787.000000 0.3848 0.3850 0.3852 0.3854 0.3857
2792.000000 0.3859 0.3862 0.3865 0.3867 0.3870
2797.000000 0.3873 0.3876 0.3878 0.3881 0.3884
2802.000000 0.3887 0.3888 0.3888 0.3887 0.3886
2807.000000 0.3885 0.3884 0.3883 0.3881 0.3878
2812.000000 0.3875 0.3872 0.3869 0.3865 0.3862
2817.000000 0.3859 0.3856 0.3853 0.3850 0.3847
2822.000000 0.3843 0.3840 0.3837 0.3834 0.3831
2827.000000 0.3828 0.3825 0.3822 0.3818 0.3815
2832.000000 0.3812 0.3810 0.3807 0.3804 0.3801
2837.000000 0.3798 0.3795 0.3791 0.3788 0.3785
2842.000000 0.3782 0.3779 0.3776 0.3773 0.3770
2847.000000 0.3767 0.3764 0.3761 0.3757 0.3754
2852.000000 0.3751 0.3747 0.3744 0.3741 0.3737
2857.000000 0.3734 0.3731 0.3727 0.3724 0.3721
2862.000000 0.3717 0.3714 0.3710 0.3707 0.3704
2867.000000 0.3700 0.3697 0.3694 0.3690 0.3687
2872.000000 0.3684 0.3681 0.3678 0.3675 0.3671
2877.000000 0.3668 0.3665 0.3661 0.3658 0.3655
2882.000000 0.3651 0.3648 0.3645 0.3642 0.3639
2887.000000 0.3636 0.3633 0.3629 0.3626 0.3623
2892.000000 0.3619 0.3616 0.3613 0.3610 0.3607
2897.000000 0.3604 0.3601 0.3598 0.3594 0.3591
2902.000000 0.3588 0.3584 0.3582 0.3579 0.3577
2907.000000 0.3574 0.3572 0.3570 0.3568 0.3566
2912.000000 0.3564 0.3561 0.3559 0.3557 0.3555
2917.000000 0.3553 0.3551 0.3548 0.3546 0.3544
2922.000000 0.3542 0.3540 0.3537 0.3535 0.3533
2927.000000 0.3531 0.3529 0.3528 0.3526 0.3524
2932.000000 0.3522 0.3521 0.3519 0.3517 0.3515
2937.000000 0.3513 0.3511 0.3509 0.3508 0.3506
2942.000000 0.3504 0.3502 0.3501 0.3499 0.3497
2947.000000 0.3495 0.3493 0.3491 0.3489 0.3488
2952.000000 0.3486 0.3484 0.3482 0.3480 0.3477
2957.000000 0.3475 0.3473 0.3471 0.3469 0.3467
2962.000000 0.3465 0.3462 0.3460 0.3458 0.3456
2967.000000 0.3454 0.3452 0.3450 0.3448 0.3445
2972.000000 0.3443 0.3441 0.3439 0.3437 0.3435
2977.000000 0.3433 0.3430 0.3428 0.3426 0.3425
2982.000000 0.3424 0.3423 0.3422 0.3421 0.3420
2987.000000 0.3419 0.3419 0.3418 0.3417 0.3416
2992.000000 0.3415 0.3414 0.3414 0.3413 0.3412
2997.000000 0.3412 0.3411 0.3410 0.3410 0.3409
3002.000000 0.3408 0.3407 0.3406 0.3405 0.3405
3007.000000 0.3404 0.3403 0.3402 0.3402 0.3402
3012.000000 0.3402 0.3402 0.3402 0.3402 0.3402
3017.000000 0.3402 0.3402 0.3402 0.3402 0.3402
3022.000000 0.3402 0.3402 0.3402 0.3402 0.3402
3027.000000 0.3403 0.3403 0.3403 0.3403 0.3387
3032.000000 0.3403 0.3403 0.3403 0.3403 0.3403
3037.000000 0.3403 0.3403 0.3403 0.3403 0.3403
3042.000000 0.3404 0.3404 0.3404 0.3404 0.3405
3047.000000 0.3406 0.3407 0.3408 0.3408 0.3409
3052.000000 0.3409 0.3410 0.3411 0.3412 0.3412
3057.000000 0.3413 0.3414 0.3415 0.3416 0.3417
3062.000000 0.3419 0.3420 0.3422 0.3423 0.3425
3067.000000 0.3426 0.3427 0.3429 0.3430 0.3431
3072.000000 0.3433 0.3434 0.3436 0.3437 0.3439
3077.000000 0.3440 0.3441 0.3443 0.3444 0.3446
3082.000000 0.3448 0.3449 0.3451 0.3452 0.3454
3087.000000 0.3456 0.3459 0.3461 0.3464 0.3467
3092.000000 0.3469 0.3472 0.3474 0.3477 0.3480
3097.000000 0.3483 0.3486 0.3488 0.3491 0.3494
3102.000000 0.3496 0.3499 0.3501 0.3504 0.3507
3107.000000 0.3511 0.3515 0.3520 0.3524 0.3529
3112.000000 0.3533 0.3538 0.3542 0.3547 0.3551
3117.000000 0.3556 0.3560 0.3564 0.3569 0.3573
3122.000000 0.3579 0.3584 0.3590 0.3596 0.3601
3127.000000 0.3607 0.3613 0.3619 0.3625 0.3630
3132.000000 0.3636 0.3641 0.3647 0.3653 0.3659
3137.000000 0.3665 0.3672 0.3678 0.3685 0.3692
3142.000000 0.3699 0.3706 0.3714 0.3721 0.3729
3147.000000 0.3736 0.3744 0.3751 0.3759 0.3766
3152.000000 0.3773 0.3781 0.3788 0.3796 0.3803
3157.000000 0.3811 0.3818 0.3825 0.3832 0.3840
3162.000000 0.3848 0.3856 0.3864 0.3872 0.3880
3167.000000 0.3888 0.3896 0.3904 0.3912 0.3920
3172.000000 0.3928 0.3936 0.3944 0.3952 0.3960
3177.000000 0.3968 0.3976 0.3984 0.3992 0.4001
3182.000000 0.4010 0.4019 0.4028 0.4037 0.4046
3187.000000 0.4055 0.4064 0.4074 0.4083 0.4092
3192.000000 0.4101 0.4110 0.4119 0.4127 0.4136
3197.000000 0.4145 0.4157 0.4168 0.4179 0.4190
3202.000000 0.4203 0.4216 0.4228 0.4241 0.4254
3207.000000 0.4266 0.4279 0.4291 0.4299 0.4306
3212.000000 0.4312 0.4318 0.4324 0.4330 0.4336
3217.000000 0.4342 0.4347 0.4354 0.4360 0.4366
3222.000000 0.4372 0.4377 0.4383 0.4389 0.4395
3227.000000 0.4400 0.4406 0.4411 0.4417 0.4421
3232.000000 0.4426 0.4431 0.4436 0.4440 0.4445
3237.000000 0.4449 0.4454 0.4459 0.4463 0.4468
3242.000000 0.4473 0.4478 0.4482 0.4487 0.4491
3247.000000 0.4496 0.4500 0.4505 0.4509 0.4514
3252.000000 0.4518 0.4523 0.4528 0.4533 0.4536
3257.000000 0.4539 0.4542 0.4545 0.4548 0.4551
3262.000000 0.4553 0.4556 0.4558 0.4561 0.4563
3267.000000 0.4566 0.4569 0.4571 0.4574 0.4576
3272.000000 0.4579 0.4581 0.4584 0.4587 0.4589
3277.000000 0.4592 0.4594 0.4596 0.4599 0.4601
3282.000000 0.4603 0.4606 0.4608 0.4610 0.4612
3287.000000 0.4614 0.4616 0.4619 0.4621 0.4623
3292.000000 0.4626 0.4628 0.4631 0.4634 0.4636
3297.000000 0.4639 0.4641 0.4643 0.4646 0.4648
3302.000000 0.4650 0.4653 0.4655 0.4658 0.4660
3307.000000 0.4663 0.4666 0.4669 0.4672 0.4675
3312.000000 0.4678 0.4682 0.4686 0.4690 0.4694
3317.000000 0.4698 0.4702 0.4706 0.4710 0.4714
3322.000000 0.4718 0.4722 0.4726 0.4728 0.4730
3327.000000 0.4731 0.4732 0.4734 0.4734 0.4734
3332.000000 0.4734 0.4734 0.4735 0.4735 0.4735
3337.000000 0.4735 0.4736 0.4736 0.4736 0.4736
3342.000000 0.4736 0.4737 0.4737 0.4737 0.4737
3347.000000 0.4736 0.4736 0.4735 0.4734 0.4734
3352.000000 0.4733 0.4732 0.4732 0.4731 0.4745
3357.000000 0.4730 0.4729 0.4728 0.4728 0.4726
3362.000000 0.4725 0.4724 0.4722 0.4721 0.4718
3367.000000 0.4716 0.4714 0.4711 0.4709 0.4707
3372.000000 0.4705 0.4702 0.4700 0.4698 0.4695
3377.000000 0.4693 0.4690 0.4688 0.4686 0.4684
3382.000000 0.4682 0.4679 0.4676 0.4672 0.4669
3387.000000 0.4665 0.4661 0.4657 0.4652 0.4648
3392.000000 0.4643 0.4639 0.4634 0.4629 0.4625
3397.000000 0.4620 0.4616 0.4611 0.4607 0.4602
3402.000000 0.4598 0.4593 0.4589 0.4584 0.4579
3407.000000 0.4575 0.4570 0.4566 0.4561 0.4557
3412.000000 0.4552 0.4548 0.4543 0.4539 0.4534
3417.000000 0.4530 0.4525 0.4521 0.4516 0.4512
3422.000000 0.4507 0.4503 0.4498 0.4494 0.4489
3427.000000 0.4485 0.4480 0.4475 0.4469 0.4463
3432.000000 0.4457 0.4450 0.4444 0.4438 0.4431
3437.000000 0.4425 0.4419 0.4412 0.4406 0.4399
3442.000000 0.4393 0.4387 0.4381 0.4374 0.4368
3447.000000 0.4362 0.4355 0.4349 0.4342 0.4336
3452.000000 0.4329 0.4323 0.4316 0.4309 0.4301
3457.000000 0.4294 0.4287 0.4280 0.4273 0.4266
3462.000000 0.4259 0.4252 0.4245 0.4238 0.4231
3467.000000 0.4224 0.4217 0.4210 0.4203 0.4196
3472.000000 0.4189 0.4182 0.4175 0.4168 0.4161
3477.000000 0.4154 0.4145 0.4135 0.4126 0.4117
3482.000000 0.4107 0.4097 0.4086 0.4076 0.4065
3487.000000 0.4055 0.4044 0.4034 0.4023 0.4013
3492.000000 0.4003 0.3992 0.3982 0.3972 0.3962
3497.000000 0.3951 0.3941 0.3930 0.3919 0.3909
3502.000000 0.3898 0.3888 0.3877 0.3866 0.3856
3507.000000 0.3845 0.3835 0.3824 0.3814 0.3803
3512.000000 0.3793 0.3783 0.3773 0.3762 0.3752
3517.000000 0.3743 0.3734 0.3725 0.3716 0.3707
3522.000000 0.3697 0.3688 0.3679 0.3670 0.3660
3527.000000 0.3652 0.3644 0.3636 0.3627 0.3619
3532.000000 0.3612 0.3605 0.3597 0.3590 0.3583
3537.000000 0.3579 0.3575 0.3571 0.3567 0.3563
3542.000000 0.3561 0.3559 0.3557 0.3555 0.3554
3547.000000 0.3553 0.3552 0.3552 0.3551 0.3551
3552.000000 0.3551 0.3551 0.3552 0.3552 0.3552
3557.000000 0.3554 0.3555 0.3556 0.3558 0.3559
3562.000000 0.3538 0.3562 0.3563 0.3565 0.3566
3567.000000 0.3568 0.3569 0.3571 0.3572 0.3574
3572.000000 0.3577 0.3582 0.3586 0.3591 0.3595
3577.000000 0.3602 0.3612 0.3622 0.3631 0.3641
3582.000000 0.3651 0.3662 0.3672 0.3683 0.3693
3587.000000 0.3704 0.3714 0.3725 0.3736 0.3746
3592.000000 0.3757 0.3767 0.3778 0.3788 0.3799
3597.000000 0.3809 0.3820 0.3830 0.3840 0.3851
3602.000000 0.3861 0.3872 0.3882 0.3892 0.3903
3607.000000 0.3913 0.3924 0.3934 0.3945 0.3955
3612.000000 0.3966 0.3976 0.3987 0.3997 0.4007
3617.000000 0.4018 0.4028 0.4038 0.4049 0.4059
3622.000000 0.4069 0.4080 0.4090 0.4100 0.4110
3627.000000 0.4121 0.4131 0.4141 0.4151 0.4161
3632.000000 0.4171 0.4180 0.4190 0.4200 0.4209
3637.000000 0.4218 0.4228 0.4237 0.4247 0.4256
3642.000000 0.4265 0.4274 0.4284 0.4293 0.4302
3647.000000 0.4311 0.4320 0.4329 0.4338 0.4347
3652.000000 0.4355 0.4364 0.4373 0.4382 0.4390
3657.000000 0.4399 0.4408 0.4416 0.4425 0.4433
3662.000000 0.4442 0.4451 0.4460 0.4468 0.4476
3667.000000 0.4482 0.4488 0.4494 0.4500 0.4506
3672.000000 0.4512 0.4518 0.4524 0.4531 0.4537
3677.000000 0.4543 0.4549 0.4554 0.4560 0.4566
3682.000000 0.4572 0.4576 0.4580 0.4585 0.4589
3687.000000 0.4593 0.4597 0.4601 0.4605 0.4609
3692.000000 0.4613 0.4617 0.4621 0.4626 0.4630
3697.000000 0.4634 0.4638 0.4642 0.4646 0.4650
3702.000000 0.4654 0.4658 0.4662 0.4666 0.4670
3707.000000 0.4674 0.4678 0.4682 0.4686 0.4690
3712.000000 0.4694 0.4698 0.4702 0.4705 0.4708
3717.000000 0.4710 0.4713 0.4715 0.4718 0.4721
3722.000000 0.4723 0.4726 0.4729 0.4731 0.4734
3727.000000 0.4737 0.4739 0.4742 0.4745 0.4748
3732.000000 0.4750 0.4753 0.4755 0.4758 0.4760
3737.000000 0.4763 0.4765 0.4768 0.4771 0.4773
3742.000000 0.4776 0.4779 0.4781 0.4784 0.4787
3747.000000 0.4789 0.4792 0.4794 0.4796 0.4799
3752.000000 0.4801 0.4803 0.4805 0.4807 0.4809
3757.000000 0.4811 0.4814 0.4816 0.4818 0.4820
3762.000000 0.4822 0.4824 0.4826 0.4828 0.4830
3767.000000 0.4833 0.4835 0.4837 0.4839 0.4841
3772.000000 0.4843 0.4845 0.4847 0.4849 0.4852
3777.000000 0.4854 0.4856 0.4858 0.4860 0.4862
3782.000000 0.4864 0.4866 0.4868 0.4870 0.4872
3787.000000 0.4874 0.4876 0.4878 0.4880 0.4881
3792.000000 0.4883 0.4885 0.4887 0.4889 0.4891
3797.000000 0.4893 0.4895 0.4897 0.4899 0.4900
3802.000000 0.4902 0.4904 0.4905 0.4907 0.4909
3807.000000 0.4911 0.4913 0.4915 0.4917 0.4919
3812.000000 0.4920 0.4922 0.4924 0.4926 0.4928
3817.000000 0.4930 0.4932 0.4933 0.4935 0.4937
3822.000000 0.4938 0.4940 0.4941 0.4943 0.4944
3827.000000 0.4945 0.4947 0.4948 0.4950 0.4951
3832.000000 0.4952 0.4954 0.4955 0.4956 0.4957
3837.000000 0.4959 0.4960 0.4961 0.4962 0.4963
3842.000000 0.4965 0.4966 0.4967 0.4968 0.4969
3847.000000 0.4970 0.4970 0.4970 0.4971 0.4971
3852.000000 0.4971 0.4972 0.4972 0.4972 0.4972
3857.000000 0.4972 0.4972 0.4973 0.4973 0.4973
3862.000000 0.4974 0.4974 0.4975 0.4975 0.4975
3867.000000 0.4976 0.4976 0.4976 0.4977 0.4977
3872.000000 0.4977 0.4978 0.4978 0.4978 0.4979
3877.000000 0.4979 0.4979 0.4980 0.4980 0.4980
3882.000000 0.4981 0.4981 0.4981 0.4981 0.4981
3887.000000 0.4981 0.4981 0.4982 0.4982 0.4982
3892.000000 0.4983 0.4983 0.4983 0.4984 0.4984
3897.000000 0.4984 0.4985 0.4985 0.4985 0.4986
3902.000000 0.4986 0.4986 0.4987 0.4987 0.4987
3907.000000 0.4988 0.4988 0.4988 0.4988 0.4988
3912.000000 0.4988 0.4988 0.4988 0.4988 0.4988
3917.000000 0.4988 0.4988 0.4989 0.4989 0.4989
3922.000000 0.4989 0.4989 0.4989 0.4990 0.4990
3927.000000 0.4990 0.4990 0.4990 0.4990 0.4990
3932.000000 0.4990 0.4990 0.4990 0.4990 0.4990
3937.000000 0.4990 0.4991 0.4991 0.4991 0.4991
3942.000000 0.4991 0.4991 0.4991 0.4991 0.4991
3947.000000 0.4991 0.4991 0.4991 0.4992 0.4992
3952.000000 0.4992 0.4992 0.4992 0.4992 0.4993
3957.000000 0.4994 0.4994 0.4995 0.4996 0.4997
3962.000000 0.4998 0.4998 0.4999 0.5000 0.5001
3967.000000 0.5002 0.5002 0.5003 0.5004 0.5005
3972.000000 0.5006 0.5007 0.5008 0.5009 0.5010
3977.000000 0.5011 0.5012 0.5013 0.5014 0.5015
3982.000000 0.5015 0.5016 0.5017 0.5018 0.5019
3987.000000 0.5019 0.5020 0.5021 0.5022 0.5023
3992.000000 0.5024 0.5025 0.5026 0.5027 0.5028
3997.000000 0.5029 0.5030 0.5031 0.5033
##END=
