##TITLE=Benzophenone, 4-nitro-
##JCAMP-DX=4.24
##DATA TYPE=INFRARED SPECTRUM
##CLASS=COBLENTZ II
##ORIGIN=K. K. DEB-NCI FREDERICK CANCER RESEARCH CENTER
##OWNER=Copyright (C) 1987 by the Coblentz Society
Collection (C) 2018 copyright by the U.S. Secretary of Commerce
on behalf of the United States of America. All rights reserved.
##DATE=1974/02/14
##NAMES=(4-nitrophenyl)(phenyl)methanone
##CAS REGISTRY NO=1144-74-7
##MOLFORM=C13 H9 N O3
##SOURCE REFERENCE=COBLENTZ NO. 9712
##$NIST SOURCE=COBLENTZ
##$NIST IMAGE=cob9712
##SPECTROMETER/DATA SYSTEM=PERKIN-ELMER 180 (GRATING)
##INSTRUMENT PARAMETERS=GRATINGS: 2000, 1000, 500, 250 CM^-^1; FILTER CHANGE: 2970, 2000, 1485, 1000, 743, 500, 372, 250, 186 CM^-^1.
##STATE=SOLID (1.2 mg / 340 mg KBr DISC)
$$ PURITY - ANALYTICAL
$$ SEE SPECTRUM NO. 9711 FOR "SPLIT MULL" RUN
##SAMPLING PROCEDURE=TRANSMISSION
##RESOLUTION=2
##DATA PROCESSING=DIGITIZED BY COBLENTZ SOCIETY (BATCH II) FROM HARD COPY
##XUNITS=1/CM
##YUNITS=TRANSMITTANCE
##XFACTOR=1.0
##YFACTOR=1
##FIRSTX=401
##LASTX=3792
##FIRSTY=0.8553
##MAXX=3792
##MINX=401
##MAXY=0.8777
##MINY=0.074
##NPOINTS=3392
##XYDATA=(X++(Y..Y))
401.000000 0.8553 0.8552 0.8553 0.8555 0.8554
406.000000 0.8553 0.8552 0.8551 0.8549 0.8546
411.000000 0.8543 0.8540 0.8537 0.8534 0.8531
416.000000 0.8527 0.8524 0.8503 0.8482 0.8463
421.000000 0.8455 0.8448 0.8450 0.8451 0.8456
426.000000 0.8469 0.8488 0.8520 0.8554 0.8594
431.000000 0.8635 0.8667 0.8686 0.8686 0.8680
436.000000 0.8674 0.8667 0.8660 0.8652 0.8645
441.000000 0.8637 0.8629 0.8621 0.8612 0.8600
446.000000 0.8587 0.8575 0.8560 0.8544 0.8530
451.000000 0.8521 0.8524 0.8529 0.8533 0.8543
456.000000 0.8561 0.8583 0.8612 0.8632 0.8652
461.000000 0.8671 0.8670 0.8669 0.8669 0.8667
466.000000 0.8665 0.8664 0.8662 0.8660 0.8658
471.000000 0.8655 0.8643 0.8631 0.8609 0.8583
476.000000 0.8556 0.8529 0.8502 0.8475 0.8447
481.000000 0.8428 0.8422 0.8421 0.8422 0.8430
486.000000 0.8462 0.8499 0.8542 0.8585 0.8626
491.000000 0.8667 0.8708 0.8738 0.8755 0.8772
496.000000 0.8776 0.8777 0.8777 0.8776 0.8774
501.000000 0.8773 0.8771 0.8770 0.8768 0.8767
506.000000 0.8765 0.8762 0.8756 0.8750 0.8744
511.000000 0.8738 0.8732 0.8725 0.8718 0.8711
516.000000 0.8704 0.8697 0.8690 0.8683 0.8676
521.000000 0.8676 0.8676 0.8677 0.8677 0.8685
526.000000 0.8694 0.8702 0.8711 0.8722 0.8732
531.000000 0.8729 0.8726 0.8723 0.8720 0.8717
536.000000 0.8714 0.8711 0.8708 0.8704 0.8701
541.000000 0.8700 0.8699 0.8698 0.8697 0.8695
546.000000 0.8694 0.8693 0.8692 0.8691 0.8690
551.000000 0.8689 0.8687 0.8686 0.8685 0.8683
556.000000 0.8682 0.8680 0.8678 0.8676 0.8674
561.000000 0.8672 0.8670 0.8668 0.8666 0.8665
566.000000 0.8656 0.8644 0.8632 0.8620 0.8608
571.000000 0.8591 0.8573 0.8556 0.8549 0.8542
576.000000 0.8539 0.8543 0.8564 0.8585 0.8606
581.000000 0.8628 0.8651 0.8674 0.8679 0.8684
586.000000 0.8689 0.8693 0.8698 0.8699 0.8697
591.000000 0.8695 0.8693 0.8691 0.8689 0.8687
596.000000 0.8685 0.8683 0.8680 0.8676 0.8676
601.000000 0.8673 0.8671 0.8668 0.8666 0.8663
606.000000 0.8661 0.8659 0.8652 0.8643 0.8635
611.000000 0.8626 0.8602 0.8560 0.8497 0.8487
616.000000 0.8480 0.8487 0.8515 0.8544 0.8574
621.000000 0.8603 0.8623 0.8620 0.8617 0.8602
626.000000 0.8553 0.8546 0.8549 0.8567 0.8588
631.000000 0.8609 0.8630 0.8632 0.8635 0.8637
636.000000 0.8638 0.8638 0.8639 0.8637 0.8635
641.000000 0.8632 0.8630 0.8627 0.8621 0.8615
646.000000 0.8608 0.8601 0.8594 0.8588 0.8571
651.000000 0.8545 0.8518 0.8492 0.8382 0.8169
656.000000 0.7956 0.7743 0.7530 0.7336 0.7330
661.000000 0.7423 0.7676 0.7930 0.8183 0.8423
666.000000 0.8442 0.8460 0.8465 0.8465 0.8454
671.000000 0.8440 0.8417 0.8388 0.8362 0.8339
676.000000 0.8317 0.8309 0.8304 0.8303 0.8308
681.000000 0.8310 0.8305 0.8296 0.8280 0.8251
686.000000 0.8202 0.8117 0.7410 0.6223 0.5035
691.000000 0.4374 0.4385 0.4727 0.5227 0.5726
696.000000 0.6226 0.6725 0.7103 0.7103 0.6473
701.000000 0.5300 0.4128 0.2955 0.2631 0.2634
706.000000 0.3235 0.3830 0.4424 0.5018 0.5613
711.000000 0.6207 0.6801 0.7396 0.7884 0.7976
716.000000 0.8076 0.8170 0.8235 0.8296 0.8331
721.000000 0.8366 0.8386 0.8397 0.8402 0.8397
726.000000 0.8382 0.8359 0.8333 0.8218 0.7916
731.000000 0.7614 0.7313 0.7011 0.6852 0.6859
736.000000 0.7101 0.7418 0.7735 0.8052 0.8368
741.000000 0.8564 0.8564 0.8564 0.8564 0.8581
746.000000 0.8562 0.8559 0.8554 0.8547 0.8525
751.000000 0.8504 0.8415 0.8113 0.7811 0.7510
756.000000 0.7208 0.6963 0.7034 0.6956 0.7786
761.000000 0.8162 0.8439 0.8490 0.8516 0.8539
766.000000 0.8558 0.8576 0.8585 0.8591 0.8597
771.000000 0.8603 0.8609 0.8611 0.8613 0.8616
776.000000 0.8637 0.8619 0.8618 0.8616 0.8615
781.000000 0.8613 0.8611 0.8605 0.8598 0.8591
786.000000 0.8584 0.8577 0.8570 0.8560 0.8550
791.000000 0.8539 0.8529 0.8519 0.8489 0.8460
796.000000 0.8349 0.8114 0.7879 0.7645 0.7609
801.000000 0.7622 0.7868 0.8039 0.8211 0.8382
806.000000 0.8509 0.8528 0.8540 0.8548 0.8555
811.000000 0.8556 0.8558 0.8560 0.8562 0.8560
816.000000 0.8558 0.8549 0.8555 0.8552 0.8548
821.000000 0.8544 0.8540 0.8534 0.8527 0.8520
826.000000 0.8513 0.8505 0.8498 0.8491 0.8484
831.000000 0.8468 0.8450 0.8431 0.8412 0.8392
836.000000 0.8372 0.8352 0.8331 0.8311 0.8286
841.000000 0.8252 0.8217 0.8183 0.8149 0.8073
846.000000 0.7986 0.7889 0.7650 0.7065 0.6480
851.000000 0.5895 0.5562 0.5551 0.5702 0.6030
856.000000 0.6359 0.6687 0.7015 0.7344 0.7672
861.000000 0.8001 0.8229 0.8211 0.8196 0.8178
866.000000 0.7882 0.7500 0.7117 0.6734 0.6351
871.000000 0.5969 0.5644 0.5661 0.6032 0.6369
876.000000 0.6706 0.7043 0.7380 0.7717 0.8054
881.000000 0.8212 0.8286 0.8344 0.8391 0.8407
886.000000 0.8422 0.8438 0.8454 0.8463 0.8467
891.000000 0.8472 0.8477 0.8482 0.8484 0.8483
896.000000 0.8481 0.8489 0.8479 0.8477 0.8476
901.000000 0.8474 0.8472 0.8470 0.8468 0.8467
906.000000 0.8465 0.8461 0.8456 0.8452 0.8447
911.000000 0.8442 0.8437 0.8432 0.8427 0.8423
916.000000 0.8408 0.8392 0.8377 0.8354 0.8329
921.000000 0.8304 0.8279 0.8242 0.8184 0.8116
926.000000 0.8038 0.7761 0.7485 0.7208 0.6931
931.000000 0.6717 0.6713 0.7031 0.7296 0.7561
936.000000 0.7826 0.8092 0.8110 0.8044 0.7785
941.000000 0.7525 0.7265 0.7006 0.6746 0.6720
946.000000 0.6710 0.7100 0.7417 0.7734 0.8051
951.000000 0.8286 0.8328 0.8355 0.8379 0.8395
956.000000 0.8412 0.8424 0.8426 0.8429 0.8427
961.000000 0.8434 0.8430 0.8426 0.8422 0.8416
966.000000 0.8392 0.8368 0.8336 0.8298 0.8266
971.000000 0.8250 0.8234 0.8241 0.8252 0.8259
976.000000 0.8263 0.8260 0.8247 0.8186 0.8134
981.000000 0.8111 0.8110 0.8119 0.8141 0.8269
986.000000 0.8326 0.8355 0.8360 0.8353 0.8344
991.000000 0.8336 0.8328 0.8323 0.8318 0.8314
996.000000 0.8309 0.8247 0.8169 0.8090 0.8012
1001.000000 0.7971 0.7973 0.8012 0.8103 0.8194
1006.000000 0.8284 0.8347 0.8344 0.8342 0.8226
1011.000000 0.8093 0.7994 0.7995 0.8062 0.8134
1016.000000 0.8207 0.8280 0.8351 0.8351 0.8351
1021.000000 0.8349 0.8347 0.8344 0.8341 0.8338
1026.000000 0.8338 0.8351 0.8358 0.8365 0.8371
1031.000000 0.8373 0.8375 0.8377 0.8379 0.8380
1036.000000 0.8382 0.8384 0.8386 0.8386 0.8386
1041.000000 0.8386 0.8386 0.8386 0.8385 0.8385
1046.000000 0.8385 0.8385 0.8382 0.8379 0.8376
1051.000000 0.8374 0.8371 0.8368 0.8365 0.8363
1056.000000 0.8359 0.8353 0.8347 0.8341 0.8334
1061.000000 0.8328 0.8322 0.8316 0.8304 0.8292
1066.000000 0.8280 0.8269 0.8257 0.8237 0.8212
1071.000000 0.8187 0.8163 0.8138 0.8119 0.8102
1076.000000 0.8084 0.8067 0.8065 0.8066 0.8066
1081.000000 0.8084 0.8120 0.8152 0.8180 0.8203
1086.000000 0.8219 0.8223 0.8223 0.8219 0.8215
1091.000000 0.8199 0.8177 0.8153 0.8129 0.8105
1096.000000 0.8079 0.8044 0.8010 0.7960 0.7850
1101.000000 0.7740 0.7630 0.7520 0.7410 0.7317
1106.000000 0.7305 0.7319 0.7316 0.7425 0.7537
1111.000000 0.7650 0.7762 0.7855 0.7870 0.7889
1116.000000 0.7913 0.7964 0.8032 0.8088 0.8140
1121.000000 0.8189 0.8218 0.8235 0.8251 0.8256
1126.000000 0.8255 0.8254 0.8253 0.8274 0.8246
1131.000000 0.8240 0.8230 0.8221 0.8212 0.8194
1136.000000 0.8177 0.8159 0.8141 0.8122 0.8104
1141.000000 0.8085 0.8001 0.7901 0.7802 0.7703
1146.000000 0.7603 0.7504 0.7441 0.7449 0.7453
1151.000000 0.7632 0.7812 0.7991 0.8159 0.8157
1156.000000 0.8154 0.8150 0.8147 0.8141 0.8138
1161.000000 0.8150 0.8179 0.8213 0.8236 0.8248
1166.000000 0.8255 0.8250 0.8241 0.8232 0.8223
1171.000000 0.8215 0.8206 0.8199 0.8193 0.8187
1176.000000 0.8181 0.8182 0.8188 0.8194 0.8198
1181.000000 0.8203 0.8176 0.8143 0.8076 0.8080
1186.000000 0.8084 0.8088 0.8099 0.8123 0.8162
1191.000000 0.8192 0.8220 0.8241 0.8258 0.8269
1196.000000 0.8302 0.8275 0.8275 0.8275 0.8276
1201.000000 0.8274 0.8272 0.8269 0.8266 0.8264
1206.000000 0.8259 0.8254 0.8249 0.8244 0.8239
1211.000000 0.8234 0.8229 0.8224 0.8220 0.8217
1216.000000 0.8214 0.8211 0.8207 0.8204 0.8201
1221.000000 0.8198 0.8195 0.8192 0.8189 0.8186
1226.000000 0.8178 0.8166 0.8153 0.8138 0.8117
1231.000000 0.8097 0.8076 0.8055 0.8033 0.8011
1236.000000 0.7989 0.7967 0.7945 0.7921 0.7890
1241.000000 0.7858 0.7826 0.7795 0.7762 0.7729
1246.000000 0.7696 0.7664 0.7631 0.7598 0.7565
1251.000000 0.7523 0.7481 0.7439 0.7396 0.7370
1256.000000 0.7348 0.7331 0.7333 0.7335 0.7337
1261.000000 0.7340 0.7342 0.7342 0.7329 0.7296
1266.000000 0.7256 0.7195 0.7118 0.6504 0.6291
1271.000000 0.6079 0.5866 0.5654 0.5441 0.5229
1276.000000 0.5016 0.4803 0.4636 0.4686 0.4897
1281.000000 0.5108 0.5318 0.5529 0.5740 0.5806
1286.000000 0.5752 0.5675 0.5597 0.5520 0.5508
1291.000000 0.5637 0.5798 0.5958 0.6119 0.6280
1296.000000 0.6441 0.6675 0.6667 0.6518 0.6263
1301.000000 0.6008 0.5828 0.5794 0.5748 0.5634
1306.000000 0.5520 0.5405 0.5320 0.5323 0.5478
1311.000000 0.5747 0.6051 0.5868 0.5317 0.4766
1316.000000 0.4216 0.3880 0.3876 0.4504 0.4980
1321.000000 0.5456 0.5932 0.6408 0.6884 0.7360
1326.000000 0.7496 0.7505 0.7506 0.7508 0.7503
1331.000000 0.7505 0.7493 0.7490 0.7489 0.7490
1336.000000 0.7494 0.7499 0.7502 0.7494 0.7474
1341.000000 0.7415 0.7252 0.7068 0.6884 0.6701
1346.000000 0.6517 0.6333 0.6149 0.5965 0.5782
1351.000000 0.5598 0.5364 0.5006 0.4648 0.4290
1356.000000 0.3932 0.3574 0.3434 0.3427 0.3923
1361.000000 0.4425 0.4927 0.5429 0.5931 0.6433
1366.000000 0.6935 0.7393 0.7532 0.7656 0.7750
1371.000000 0.7822 0.7869 0.7916 0.7970 0.8019
1376.000000 0.8041 0.8063 0.8068 0.8068 0.8041
1381.000000 0.8022 0.8006 0.7990 0.7977 0.7965
1386.000000 0.7969 0.7978 0.7987 0.7994 0.8002
1391.000000 0.8013 0.8012 0.8010 0.8008 0.8015
1396.000000 0.7991 0.7963 0.7913 0.7864 0.7821
1401.000000 0.7777 0.7742 0.7726 0.7726 0.7738
1406.000000 0.7775 0.7826 0.7876 0.7915 0.7950
1411.000000 0.7986 0.8009 0.8033 0.8056 0.8080
1416.000000 0.8105 0.8129 0.8154 0.8164 0.8172
1421.000000 0.8181 0.8187 0.8187 0.8186 0.8186
1426.000000 0.8185 0.8185 0.8172 0.8166 0.8159
1431.000000 0.8148 0.8137 0.8127 0.8116 0.8104
1436.000000 0.8078 0.8053 0.8028 0.7985 0.7938
1441.000000 0.7889 0.7819 0.7750 0.7489 0.7228
1446.000000 0.6967 0.6706 0.6609 0.6613 0.6925
1451.000000 0.7254 0.7583 0.7913 0.8032 0.8084
1456.000000 0.8102 0.8117 0.8132 0.8136 0.8141
1461.000000 0.8145 0.8133 0.8148 0.8149 0.8150
1466.000000 0.8150 0.8143 0.8135 0.8128 0.8121
1471.000000 0.8111 0.8099 0.8087 0.8076 0.8063
1476.000000 0.8048 0.8033 0.8018 0.7993 0.7967
1481.000000 0.7930 0.7893 0.7856 0.7820 0.7789
1486.000000 0.7758 0.7727 0.7696 0.7665 0.7633
1491.000000 0.7602 0.7571 0.7540 0.7507 0.7465
1496.000000 0.7424 0.7365 0.7265 0.7145 0.7028
1501.000000 0.6912 0.6762 0.6600 0.6387 0.6203
1506.000000 0.6047 0.5286 0.4656 0.4026 0.3396
1511.000000 0.2766 0.2136 0.1506 0.0876 0.0740
1516.000000 0.1310 0.2024 0.2737 0.3450 0.4164
1521.000000 0.4877 0.5174 0.5367 0.5516 0.5685
1526.000000 0.5864 0.6018 0.6172 0.6356 0.6541
1531.000000 0.6746 0.6952 0.7023 0.7086 0.7148
1536.000000 0.7210 0.7272 0.7336 0.7400 0.7464
1541.000000 0.7515 0.7549 0.7582 0.7616 0.7649
1546.000000 0.7674 0.7696 0.7718 0.7739 0.7761
1551.000000 0.7779 0.7787 0.7794 0.7801 0.7808
1556.000000 0.7811 0.7813 0.7816 0.7818 0.7820
1561.000000 0.7823 0.7826 0.7821 0.7831 0.7827
1566.000000 0.7823 0.7819 0.7806 0.7792 0.7772
1571.000000 0.7744 0.7686 0.7629 0.7572 0.7333
1576.000000 0.7047 0.6761 0.6433 0.6428 0.6482
1581.000000 0.6923 0.7340 0.7343 0.7294 0.7163
1586.000000 0.7032 0.6900 0.6769 0.6638 0.6473
1591.000000 0.6009 0.5530 0.5051 0.4571 0.4430
1596.000000 0.4431 0.4431 0.4883 0.5109 0.5336
1601.000000 0.5562 0.5789 0.6015 0.6242 0.6468
1606.000000 0.6695 0.6922 0.7148 0.7375 0.7601
1611.000000 0.7798 0.7858 0.7878 0.7897 0.7901
1616.000000 0.7901 0.7900 0.7899 0.7898 0.7897
1621.000000 0.7896 0.7894 0.7911 0.7889 0.7885
1626.000000 0.7880 0.7863 0.7834 0.7793 0.7748
1631.000000 0.7703 0.7656 0.7608 0.7559 0.7503
1636.000000 0.7446 0.7390 0.7324 0.7258 0.7190
1641.000000 0.7075 0.6957 0.6797 0.5829 0.5102
1646.000000 0.4374 0.3647 0.2920 0.2192 0.1465
1651.000000 0.0782 0.0812 0.1163 0.2200 0.3238
1656.000000 0.4276 0.5313 0.6351 0.6569 0.6644
1661.000000 0.7002 0.7073 0.7143 0.7216 0.7292
1666.000000 0.7369 0.7435 0.7494 0.7554 0.7617
1671.000000 0.7684 0.7752 0.7811 0.7859 0.7907
1676.000000 0.7952 0.7979 0.8006 0.8033 0.8060
1681.000000 0.8082 0.8095 0.8108 0.8117 0.8120
1686.000000 0.8123 0.8126 0.8129 0.8132 0.8134
1691.000000 0.8135 0.8135 0.8135 0.8135 0.8135
1696.000000 0.8133 0.8131 0.8129 0.8126 0.8124
1701.000000 0.8122 0.8120 0.8118 0.8116 0.8114
1706.000000 0.8112 0.8104 0.8089 0.8074 0.8059
1711.000000 0.8056 0.8053 0.8050 0.8047 0.8050
1716.000000 0.8060 0.8069 0.8082 0.8098 0.8113
1721.000000 0.8123 0.8132 0.8141 0.8150 0.8158
1726.000000 0.8166 0.8174 0.8182 0.8190 0.8197
1731.000000 0.8204 0.8211 0.8218 0.8226 0.8233
1736.000000 0.8240 0.8247 0.8253 0.8258 0.8263
1741.000000 0.8268 0.8273 0.8277 0.8282 0.8287
1746.000000 0.8292 0.8297 0.8301 0.8304 0.8307
1751.000000 0.8309 0.8312 0.8315 0.8318 0.8320
1756.000000 0.8323 0.8326 0.8329 0.8331 0.8334
1761.000000 0.8337 0.8340 0.8342 0.8344 0.8346
1766.000000 0.8348 0.8350 0.8351 0.8353 0.8355
1771.000000 0.8357 0.8358 0.8360 0.8362 0.8364
1776.000000 0.8366 0.8367 0.8368 0.8369 0.8370
1781.000000 0.8371 0.8372 0.8373 0.8374 0.8375
1786.000000 0.8376 0.8377 0.8378 0.8379 0.8379
1791.000000 0.8378 0.8377 0.8376 0.8375 0.8375
1796.000000 0.8375 0.8376 0.8377 0.8378 0.8379
1801.000000 0.8380 0.8381 0.8382 0.8383 0.8382
1806.000000 0.8377 0.8372 0.8367 0.8362 0.8357
1811.000000 0.8352 0.8347 0.8341 0.8335 0.8329
1816.000000 0.8323 0.8317 0.8311 0.8305 0.8299
1821.000000 0.8293 0.8287 0.8280 0.8272 0.8265
1826.000000 0.8264 0.8264 0.8264 0.8268 0.8273
1831.000000 0.8278 0.8283 0.8290 0.8301 0.8312
1836.000000 0.8324 0.8332 0.8337 0.8341 0.8344
1841.000000 0.8346 0.8349 0.8351 0.8354 0.8356
1846.000000 0.8357 0.8357 0.8357 0.8357 0.8358
1851.000000 0.8358 0.8358 0.8358 0.8359 0.8359
1856.000000 0.8359 0.8358 0.8357 0.8355 0.8354
1861.000000 0.8353 0.8351 0.8350 0.8349 0.8348
1866.000000 0.8346 0.8345 0.8344 0.8342 0.8341
1871.000000 0.8339 0.8338 0.8336 0.8335 0.8333
1876.000000 0.8332 0.8330 0.8329 0.8327 0.8325
1881.000000 0.8324 0.8322 0.8321 0.8319 0.8318
1886.000000 0.8317 0.8316 0.8315 0.8314 0.8314
1891.000000 0.8313 0.8312 0.8311 0.8310 0.8309
1896.000000 0.8308 0.8307 0.8306 0.8304 0.8301
1901.000000 0.8299 0.8296 0.8294 0.8292 0.8289
1906.000000 0.8287 0.8284 0.8282 0.8279 0.8278
1911.000000 0.8278 0.8278 0.8278 0.8278 0.8278
1916.000000 0.8278 0.8278 0.8277 0.8277 0.8283
1921.000000 0.8289 0.8295 0.8298 0.8296 0.8295
1926.000000 0.8293 0.8291 0.8289 0.8287 0.8286
1931.000000 0.8284 0.8282 0.8280 0.8279 0.8272
1936.000000 0.8264 0.8255 0.8247 0.8239 0.8232
1941.000000 0.8225 0.8218 0.8210 0.8203 0.8196
1946.000000 0.8194 0.8195 0.8196 0.8197 0.8199
1951.000000 0.8200 0.8201 0.8204 0.8206 0.8209
1956.000000 0.8212 0.8215 0.8218 0.8222 0.8227
1961.000000 0.8233 0.8239 0.8244 0.8248 0.8252
1966.000000 0.8255 0.8259 0.8253 0.8246 0.8239
1971.000000 0.8232 0.8225 0.8217 0.8221 0.8225
1976.000000 0.8229 0.8233 0.8237 0.8240 0.8243
1981.000000 0.8246 0.8250 0.8253 0.8257 0.8262
1986.000000 0.8267 0.8273 0.8278 0.8283 0.8288
1991.000000 0.8293 0.8298 0.8304 0.8310 0.8315
1996.000000 0.8319 0.8324 0.8328 0.8337 0.8346
2001.000000 0.8363 0.8380 0.8390 0.8401 0.8409
2006.000000 0.8417 0.8424 0.8432 0.8440 0.8448
2011.000000 0.8451 0.8454 0.8456 0.8458 0.8459
2016.000000 0.8461 0.8462 0.8464 0.8465 0.8450
2021.000000 0.8469 0.8471 0.8472 0.8474 0.8474
2026.000000 0.8474 0.8474 0.8474 0.8474 0.8475
2031.000000 0.8475 0.8475 0.8475 0.8475 0.8475
2036.000000 0.8475 0.8475 0.8476 0.8476 0.8476
2041.000000 0.8475 0.8475 0.8474 0.8474 0.8473
2046.000000 0.8473 0.8472 0.8472 0.8471 0.8470
2051.000000 0.8469 0.8469 0.8468 0.8468 0.8467
2056.000000 0.8467 0.8466 0.8465 0.8464 0.8464
2061.000000 0.8463 0.8463 0.8462 0.8462 0.8461
2066.000000 0.8460 0.8459 0.8459 0.8457 0.8456
2071.000000 0.8455 0.8454 0.8453 0.8452 0.8450
2076.000000 0.8449 0.8448 0.8447 0.8445 0.8444
2081.000000 0.8443 0.8442 0.8441 0.8440 0.8438
2086.000000 0.8437 0.8436 0.8435 0.8434 0.8433
2091.000000 0.8431 0.8430 0.8429 0.8428 0.8426
2096.000000 0.8425 0.8424 0.8423 0.8422 0.8421
2101.000000 0.8419 0.8418 0.8417 0.8416 0.8415
2106.000000 0.8414 0.8413 0.8413 0.8412 0.8411
2111.000000 0.8410 0.8410 0.8409 0.8408 0.8407
2116.000000 0.8406 0.8405 0.8405 0.8404 0.8403
2121.000000 0.8402 0.8401 0.8400 0.8400 0.8399
2126.000000 0.8398 0.8397 0.8397 0.8396 0.8395
2131.000000 0.8394 0.8394 0.8393 0.8392 0.8391
2136.000000 0.8391 0.8390 0.8390 0.8389 0.8388
2141.000000 0.8387 0.8387 0.8386 0.8385 0.8384
2146.000000 0.8384 0.8383 0.8383 0.8382 0.8381
2151.000000 0.8380 0.8380 0.8379 0.8379 0.8378
2156.000000 0.8377 0.8376 0.8376 0.8375 0.8374
2161.000000 0.8373 0.8373 0.8372 0.8372 0.8371
2166.000000 0.8370 0.8369 0.8369 0.8368 0.8367
2171.000000 0.8366 0.8365 0.8364 0.8363 0.8362
2176.000000 0.8361 0.8360 0.8359 0.8358 0.8357
2181.000000 0.8356 0.8355 0.8354 0.8353 0.8352
2186.000000 0.8351 0.8350 0.8349 0.8348 0.8347
2191.000000 0.8346 0.8345 0.8344 0.8343 0.8341
2196.000000 0.8340 0.8339 0.8338 0.8337 0.8336
2201.000000 0.8335 0.8334 0.8333 0.8332 0.8331
2206.000000 0.8330 0.8329 0.8328 0.8326 0.8325
2211.000000 0.8323 0.8322 0.8320 0.8319 0.8317
2216.000000 0.8316 0.8314 0.8313 0.8311 0.8310
2221.000000 0.8308 0.8307 0.8305 0.8304 0.8302
2226.000000 0.8301 0.8299 0.8298 0.8296 0.8295
2231.000000 0.8293 0.8292 0.8290 0.8289 0.8287
2236.000000 0.8286 0.8284 0.8283 0.8281 0.8280
2241.000000 0.8279 0.8278 0.8277 0.8277 0.8276
2246.000000 0.8275 0.8274 0.8273 0.8272 0.8271
2251.000000 0.8270 0.8269 0.8268 0.8267 0.8266
2256.000000 0.8265 0.8264 0.8263 0.8262 0.8261
2261.000000 0.8260 0.8259 0.8258 0.8257 0.8256
2266.000000 0.8255 0.8254 0.8254 0.8253 0.8252
2271.000000 0.8251 0.8250 0.8249 0.8248 0.8247
2276.000000 0.8246 0.8245 0.8244 0.8243 0.8242
2281.000000 0.8241 0.8240 0.8239 0.8238 0.8237
2286.000000 0.8236 0.8235 0.8234 0.8233 0.8233
2291.000000 0.8232 0.8231 0.8230 0.8229 0.8228
2296.000000 0.8227 0.8226 0.8225 0.8224 0.8223
2301.000000 0.8222 0.8221 0.8220 0.8219 0.8218
2306.000000 0.8217 0.8216 0.8216 0.8215 0.8214
2311.000000 0.8213 0.8213 0.8212 0.8212 0.8211
2316.000000 0.8210 0.8209 0.8209 0.8208 0.8208
2321.000000 0.8207 0.8206 0.8205 0.8205 0.8204
2326.000000 0.8203 0.8202 0.8202 0.8201 0.8201
2331.000000 0.8200 0.8199 0.8198 0.8198 0.8197
2336.000000 0.8197 0.8196 0.8195 0.8194 0.8194
2341.000000 0.8193 0.8193 0.8192 0.8191 0.8190
2346.000000 0.8190 0.8189 0.8189 0.8188 0.8187
2351.000000 0.8186 0.8186 0.8185 0.8185 0.8184
2356.000000 0.8183 0.8182 0.8182 0.8181 0.8181
2361.000000 0.8180 0.8179 0.8178 0.8178 0.8177
2366.000000 0.8177 0.8176 0.8175 0.8174 0.8174
2371.000000 0.8173 0.8173 0.8172 0.8171 0.8170
2376.000000 0.8170 0.8169 0.8169 0.8168 0.8168
2381.000000 0.8167 0.8166 0.8165 0.8165 0.8164
2386.000000 0.8164 0.8163 0.8162 0.8161 0.8161
2391.000000 0.8160 0.8160 0.8159 0.8159 0.8158
2396.000000 0.8157 0.8156 0.8156 0.8155 0.8155
2401.000000 0.8154 0.8153 0.8152 0.8152 0.8151
2406.000000 0.8151 0.8150 0.8149 0.8148 0.8148
2411.000000 0.8148 0.8148 0.8147 0.8147 0.8146
2416.000000 0.8146 0.8146 0.8146 0.8145 0.8145
2421.000000 0.8144 0.8144 0.8144 0.8144 0.8143
2426.000000 0.8143 0.8142 0.8142 0.8142 0.8142
2431.000000 0.8141 0.8141 0.8140 0.8140 0.8140
2436.000000 0.8140 0.8139 0.8139 0.8139 0.8139
2441.000000 0.8138 0.8138 0.8137 0.8137 0.8137
2446.000000 0.8137 0.8136 0.8136 0.8136 0.8136
2451.000000 0.8136 0.8137 0.8137 0.8137 0.8137
2456.000000 0.8137 0.8137 0.8137 0.8137 0.8138
2461.000000 0.8138 0.8138 0.8138 0.8138 0.8138
2466.000000 0.8138 0.8138 0.8139 0.8139 0.8139
2471.000000 0.8139 0.8139 0.8139 0.8140 0.8140
2476.000000 0.8140 0.8140 0.8140 0.8140 0.8140
2481.000000 0.8140 0.8141 0.8141 0.8141 0.8140
2486.000000 0.8140 0.8140 0.8140 0.8139 0.8139
2491.000000 0.8139 0.8139 0.8139 0.8139 0.8138
2496.000000 0.8138 0.8138 0.8138 0.8138 0.8138
2501.000000 0.8137 0.8137 0.8137 0.8137 0.8136
2506.000000 0.8136 0.8136 0.8136 0.8136 0.8136
2511.000000 0.8135 0.8135 0.8135 0.8135 0.8134
2516.000000 0.8134 0.8134 0.8134 0.8134 0.8134
2521.000000 0.8133 0.8133 0.8133 0.8133 0.8133
2526.000000 0.8133 0.8132 0.8132 0.8132 0.8132
2531.000000 0.8131 0.8131 0.8131 0.8131 0.8131
2536.000000 0.8131 0.8130 0.8129 0.8128 0.8127
2541.000000 0.8126 0.8125 0.8124 0.8123 0.8122
2546.000000 0.8121 0.8120 0.8119 0.8118 0.8118
2551.000000 0.8117 0.8116 0.8115 0.8114 0.8113
2556.000000 0.8112 0.8111 0.8110 0.8109 0.8108
2561.000000 0.8107 0.8106 0.8105 0.8104 0.8103
2566.000000 0.8102 0.8101 0.8100 0.8099 0.8099
2571.000000 0.8098 0.8097 0.8096 0.8095 0.8094
2576.000000 0.8093 0.8092 0.8091 0.8090 0.8089
2581.000000 0.8088 0.8087 0.8086 0.8085 0.8084
2586.000000 0.8083 0.8082 0.8081 0.8080 0.8080
2591.000000 0.8079 0.8078 0.8077 0.8076 0.8075
2596.000000 0.8074 0.8073 0.8072 0.8071 0.8070
2601.000000 0.8069 0.8068 0.8067 0.8066 0.8064
2606.000000 0.8063 0.8062 0.8061 0.8060 0.8059
2611.000000 0.8057 0.8056 0.8055 0.8054 0.8052
2616.000000 0.8051 0.8050 0.8049 0.8048 0.8047
2621.000000 0.8045 0.8044 0.8043 0.8042 0.8041
2626.000000 0.8040 0.8038 0.8037 0.8036 0.8035
2631.000000 0.8033 0.8032 0.8031 0.8030 0.8029
2636.000000 0.8028 0.8026 0.8025 0.8024 0.8023
2641.000000 0.8021 0.8020 0.8019 0.8018 0.8017
2646.000000 0.8016 0.8014 0.8013 0.8012 0.8011
2651.000000 0.8009 0.8008 0.8007 0.8006 0.8005
2656.000000 0.8004 0.8002 0.8001 0.8000 0.7999
2661.000000 0.7997 0.7996 0.7995 0.7994 0.7993
2666.000000 0.7992 0.7990 0.7989 0.7988 0.7987
2671.000000 0.7985 0.7984 0.7983 0.7982 0.7981
2676.000000 0.7980 0.7978 0.7977 0.7976 0.7975
2681.000000 0.7973 0.7972 0.7971 0.7970 0.7968
2686.000000 0.7967 0.7966 0.7965 0.7963 0.7962
2691.000000 0.7961 0.7960 0.7958 0.7957 0.7956
2696.000000 0.7955 0.7953 0.7952 0.7951 0.7950
2701.000000 0.7948 0.7947 0.7946 0.7945 0.7944
2706.000000 0.7943 0.7941 0.7940 0.7939 0.7938
2711.000000 0.7936 0.7935 0.7934 0.7933 0.7931
2716.000000 0.7930 0.7929 0.7928 0.7926 0.7925
2721.000000 0.7924 0.7923 0.7921 0.7920 0.7919
2726.000000 0.7918 0.7916 0.7915 0.7914 0.7913
2731.000000 0.7911 0.7910 0.7909 0.7908 0.7906
2736.000000 0.7905 0.7904 0.7903 0.7902 0.7901
2741.000000 0.7899 0.7898 0.7897 0.7896 0.7894
2746.000000 0.7893 0.7892 0.7891 0.7889 0.7888
2751.000000 0.7887 0.7886 0.7884 0.7883 0.7882
2756.000000 0.7881 0.7880 0.7879 0.7877 0.7876
2761.000000 0.7875 0.7874 0.7873 0.7872 0.7871
2766.000000 0.7870 0.7868 0.7867 0.7866 0.7865
2771.000000 0.7864 0.7863 0.7862 0.7861 0.7859
2776.000000 0.7858 0.7857 0.7856 0.7855 0.7854
2781.000000 0.7853 0.7852 0.7850 0.7849 0.7848
2786.000000 0.7847 0.7846 0.7845 0.7844 0.7843
2791.000000 0.7841 0.7840 0.7839 0.7838 0.7837
2796.000000 0.7836 0.7833 0.7831 0.7828 0.7826
2801.000000 0.7823 0.7821 0.7818 0.7816 0.7813
2806.000000 0.7811 0.7808 0.7806 0.7803 0.7801
2811.000000 0.7799 0.7797 0.7794 0.7792 0.7789
2816.000000 0.7787 0.7784 0.7782 0.7779 0.7777
2821.000000 0.7774 0.7772 0.7769 0.7767 0.7762
2826.000000 0.7758 0.7751 0.7745 0.7738 0.7731
2831.000000 0.7724 0.7718 0.7711 0.7705 0.7698
2836.000000 0.7692 0.7685 0.7679 0.7672 0.7666
2841.000000 0.7659 0.7653 0.7646 0.7640 0.7633
2846.000000 0.7627 0.7624 0.7621 0.7618 0.7615
2851.000000 0.7612 0.7610 0.7607 0.7605 0.7607
2856.000000 0.7609 0.7612 0.7616 0.7619 0.7622
2861.000000 0.7625 0.7629 0.7632 0.7635 0.7638
2866.000000 0.7642 0.7645 0.7649 0.7652 0.7656
2871.000000 0.7659 0.7662 0.7665 0.7669 0.7672
2876.000000 0.7676 0.7677 0.7678 0.7679 0.7680
2881.000000 0.7680 0.7681 0.7681 0.7682 0.7683
2886.000000 0.7684 0.7684 0.7685 0.7684 0.7684
2891.000000 0.7681 0.7678 0.7675 0.7672 0.7669
2896.000000 0.7667 0.7664 0.7661 0.7658 0.7655
2901.000000 0.7652 0.7649 0.7646 0.7643 0.7639
2906.000000 0.7635 0.7630 0.7626 0.7622 0.7618
2911.000000 0.7613 0.7609 0.7605 0.7601 0.7596
2916.000000 0.7592 0.7588 0.7584 0.7581 0.7579
2921.000000 0.7580 0.7581 0.7582 0.7584 0.7585
2926.000000 0.7586 0.7587 0.7588 0.7589 0.7591
2931.000000 0.7592 0.7593 0.7594 0.7595 0.7596
2936.000000 0.7597 0.7595 0.7594 0.7592 0.7591
2941.000000 0.7590 0.7589 0.7587 0.7586 0.7585
2946.000000 0.7584 0.7582 0.7581 0.7580 0.7579
2951.000000 0.7577 0.7575 0.7573 0.7571 0.7569
2956.000000 0.7568 0.7566 0.7564 0.7562 0.7560
2961.000000 0.7558 0.7557 0.7555 0.7553 0.7551
2966.000000 0.7549 0.7547 0.7546 0.7544 0.7542
2971.000000 0.7540 0.7539 0.7537 0.7536 0.7534
2976.000000 0.7533 0.7532 0.7531 0.7529 0.7528
2981.000000 0.7526 0.7525 0.7523 0.7522 0.7520
2986.000000 0.7519 0.7518 0.7517 0.7515 0.7514
2991.000000 0.7511 0.7509 0.7506 0.7504 0.7501
2996.000000 0.7499 0.7496 0.7494 0.7491 0.7489
3001.000000 0.7486 0.7483 0.7480 0.7478 0.7475
3006.000000 0.7473 0.7470 0.7468 0.7465 0.7463
3011.000000 0.7460 0.7458 0.7455 0.7452 0.7449
3016.000000 0.7447 0.7444 0.7442 0.7439 0.7437
3021.000000 0.7434 0.7432 0.7428 0.7425 0.7422
3026.000000 0.7419 0.7416 0.7413 0.7409 0.7406
3031.000000 0.7403 0.7400 0.7396 0.7393 0.7390
3036.000000 0.7387 0.7384 0.7381 0.7377 0.7374
3041.000000 0.7375 0.7376 0.7381 0.7387 0.7393
3046.000000 0.7399 0.7402 0.7405 0.7405 0.7406
3051.000000 0.7400 0.7395 0.7381 0.7367 0.7352
3056.000000 0.7338 0.7324 0.7310 0.7297 0.7285
3061.000000 0.7275 0.7265 0.7255 0.7246 0.7242
3066.000000 0.7238 0.7235 0.7233 0.7230 0.7227
3071.000000 0.7224 0.7222 0.7219 0.7217 0.7212
3076.000000 0.7208 0.7200 0.7192 0.7193 0.7194
3081.000000 0.7205 0.7217 0.7229 0.7242 0.7252
3086.000000 0.7262 0.7262 0.7262 0.7262 0.7262
3091.000000 0.7262 0.7262 0.7222 0.7182 0.7105
3096.000000 0.7028 0.6951 0.6874 0.6849 0.6825
3101.000000 0.6867 0.6910 0.6952 0.6814 0.7037
3106.000000 0.7079 0.7121 0.7164 0.7206 0.7249
3111.000000 0.7284 0.7320 0.7330 0.7341 0.7348
3116.000000 0.7356 0.7363 0.7370 0.7377 0.7384
3121.000000 0.7390 0.7396 0.7400 0.7405 0.7409
3126.000000 0.7414 0.7418 0.7423 0.7427 0.7432
3131.000000 0.7433 0.7434 0.7435 0.7436 0.7436
3136.000000 0.7437 0.7438 0.7439 0.7440 0.7441
3141.000000 0.7440 0.7439 0.7437 0.7436 0.7434
3146.000000 0.7433 0.7431 0.7430 0.7428 0.7427
3151.000000 0.7426 0.7425 0.7423 0.7422 0.7420
3156.000000 0.7419 0.7417 0.7416 0.7414 0.7413
3161.000000 0.7411 0.7410 0.7409 0.7408 0.7406
3166.000000 0.7405 0.7403 0.7402 0.7400 0.7399
3171.000000 0.7398 0.7397 0.7395 0.7394 0.7392
3176.000000 0.7391 0.7390 0.7389 0.7387 0.7386
3181.000000 0.7384 0.7383 0.7382 0.7381 0.7379
3186.000000 0.7378 0.7376 0.7375 0.7374 0.7373
3191.000000 0.7371 0.7370 0.7368 0.7367 0.7365
3196.000000 0.7364 0.7363 0.7362 0.7360 0.7359
3201.000000 0.7357 0.7356 0.7355 0.7354 0.7352
3206.000000 0.7351 0.7350 0.7350 0.7349 0.7348
3211.000000 0.7347 0.7347 0.7346 0.7346 0.7345
3216.000000 0.7344 0.7343 0.7343 0.7342 0.7341
3221.000000 0.7340 0.7340 0.7339 0.7339 0.7338
3226.000000 0.7337 0.7336 0.7336 0.7335 0.7334
3231.000000 0.7333 0.7333 0.7332 0.7332 0.7331
3236.000000 0.7330 0.7329 0.7329 0.7328 0.7328
3241.000000 0.7327 0.7326 0.7325 0.7325 0.7324
3246.000000 0.7323 0.7322 0.7322 0.7321 0.7321
3251.000000 0.7319 0.7317 0.7314 0.7312 0.7309
3256.000000 0.7307 0.7304 0.7302 0.7299 0.7297
3261.000000 0.7294 0.7292 0.7289 0.7287 0.7285
3266.000000 0.7283 0.7280 0.7278 0.7275 0.7273
3271.000000 0.7265 0.7258 0.7250 0.7242 0.7235
3276.000000 0.7229 0.7224 0.7219 0.7214 0.7210
3281.000000 0.7212 0.7214 0.7222 0.7231 0.7239
3286.000000 0.7248 0.7256 0.7264 0.7268 0.7273
3291.000000 0.7274 0.7276 0.7277 0.7278 0.7277
3296.000000 0.7277 0.7276 0.7276 0.7275 0.7275
3301.000000 0.7275 0.7275 0.7274 0.7274 0.7273
3306.000000 0.7273 0.7271 0.7269 0.7267 0.7266
3311.000000 0.7264 0.7263 0.7261 0.7260 0.7258
3316.000000 0.7257 0.7255 0.7254 0.7252 0.7250
3321.000000 0.7248 0.7247 0.7245 0.7243 0.7241
3326.000000 0.7240 0.7238 0.7236 0.7234 0.7232
3331.000000 0.7230 0.7228 0.7226 0.7224 0.7222
3336.000000 0.7221 0.7219 0.7217 0.7215 0.7213
3341.000000 0.7211 0.7209 0.7207 0.7205 0.7203
3346.000000 0.7202 0.7200 0.7198 0.7196 0.7194
3351.000000 0.7192 0.7190 0.7188 0.7186 0.7184
3356.000000 0.7182 0.7180 0.7178 0.7176 0.7175
3361.000000 0.7173 0.7171 0.7169 0.7167 0.7165
3366.000000 0.7163 0.7161 0.7159 0.7157 0.7155
3371.000000 0.7153 0.7151 0.7149 0.7148 0.7146
3376.000000 0.7144 0.7142 0.7140 0.7138 0.7136
3381.000000 0.7134 0.7132 0.7130 0.7128 0.7126
3386.000000 0.7124 0.7122 0.7120 0.7118 0.7116
3391.000000 0.7113 0.7111 0.7109 0.7107 0.7105
3396.000000 0.7103 0.7101 0.7099 0.7096 0.7094
3401.000000 0.7092 0.7090 0.7088 0.7086 0.7084
3406.000000 0.7082 0.7079 0.7077 0.7075 0.7073
3411.000000 0.7071 0.7069 0.7067 0.7065 0.7062
3416.000000 0.7060 0.7058 0.7056 0.7054 0.7052
3421.000000 0.7050 0.7048 0.7045 0.7043 0.7041
3426.000000 0.7039 0.7037 0.7035 0.7034 0.7034
3431.000000 0.7033 0.7033 0.7032 0.7031 0.7030
3436.000000 0.7030 0.7029 0.7029 0.7028 0.7028
3441.000000 0.7027 0.7027 0.7026 0.7026 0.7025
3446.000000 0.7024 0.7023 0.7023 0.7022 0.7022
3451.000000 0.7021 0.7021 0.7020 0.7020 0.7019
3456.000000 0.7018 0.7017 0.7017 0.7016 0.7016
3461.000000 0.7016 0.7017 0.7018 0.7019 0.7020
3466.000000 0.7021 0.7022 0.7023 0.7024 0.7026
3471.000000 0.7027 0.7028 0.7029 0.7030 0.7031
3476.000000 0.7032 0.7033 0.7034 0.7035 0.7036
3481.000000 0.7037 0.7038 0.7039 0.7041 0.7042
3486.000000 0.7043 0.7044 0.7045 0.7046 0.7047
3491.000000 0.7048 0.7049 0.7050 0.7051 0.7052
3496.000000 0.7053 0.7054 0.7056 0.7057 0.7058
3501.000000 0.7059 0.7060 0.7061 0.7062 0.7063
3506.000000 0.7064 0.7065 0.7066 0.7067 0.7068
3511.000000 0.7069 0.7070 0.7071 0.7072 0.7072
3516.000000 0.7073 0.7074 0.7075 0.7076 0.7077
3521.000000 0.7077 0.7078 0.7079 0.7080 0.7080
3526.000000 0.7081 0.7082 0.7083 0.7083 0.7084
3531.000000 0.7085 0.7086 0.7087 0.7088 0.7088
3536.000000 0.7089 0.7090 0.7091 0.7091 0.7092
3541.000000 0.7093 0.7094 0.7094 0.7095 0.7096
3546.000000 0.7097 0.7098 0.7099 0.7099 0.7100
3551.000000 0.7101 0.7102 0.7102 0.7103 0.7104
3556.000000 0.7105 0.7105 0.7106 0.7107 0.7108
3561.000000 0.7109 0.7110 0.7110 0.7111 0.7112
3566.000000 0.7113 0.7114 0.7115 0.7116 0.7117
3571.000000 0.7118 0.7119 0.7120 0.7121 0.7122
3576.000000 0.7123 0.7124 0.7125 0.7126 0.7127
3581.000000 0.7128 0.7129 0.7130 0.7131 0.7132
3586.000000 0.7134 0.7135 0.7136 0.7137 0.7138
3591.000000 0.7139 0.7140 0.7141 0.7142 0.7143
3596.000000 0.7144 0.7145 0.7146 0.7147 0.7148
3601.000000 0.7149 0.7151 0.7152 0.7153 0.7154
3606.000000 0.7155 0.7156 0.7157 0.7158 0.7159
3611.000000 0.7160 0.7161 0.7162 0.7163 0.7164
3616.000000 0.7165 0.7166 0.7167 0.7167 0.7167
3621.000000 0.7167 0.7167 0.7166 0.7166 0.7165
3626.000000 0.7165 0.7165 0.7165 0.7164 0.7164
3631.000000 0.7164 0.7164 0.7163 0.7163 0.7163
3636.000000 0.7163 0.7162 0.7162 0.7162 0.7162
3641.000000 0.7161 0.7161 0.7161 0.7161 0.7160
3646.000000 0.7160 0.7159 0.7159 0.7159 0.7159
3651.000000 0.7158 0.7158 0.7157 0.7156 0.7155
3656.000000 0.7155 0.7154 0.7153 0.7152 0.7151
3661.000000 0.7150 0.7149 0.7148 0.7147 0.7146
3666.000000 0.7146 0.7145 0.7144 0.7143 0.7142
3671.000000 0.7141 0.7140 0.7139 0.7138 0.7137
3676.000000 0.7137 0.7136 0.7135 0.7134 0.7133
3681.000000 0.7132 0.7131 0.7130 0.7129 0.7128
3686.000000 0.7128 0.7127 0.7126 0.7125 0.7124
3691.000000 0.7123 0.7122 0.7121 0.7121 0.7120
3696.000000 0.7119 0.7118 0.7117 0.7116 0.7115
3701.000000 0.7114 0.7114 0.7113 0.7112 0.7111
3706.000000 0.7110 0.7109 0.7108 0.7107 0.7107
3711.000000 0.7106 0.7105 0.7104 0.7103 0.7102
3716.000000 0.7101 0.7100 0.7100 0.7099 0.7098
3721.000000 0.7097 0.7096 0.7095 0.7094 0.7093
3726.000000 0.7093 0.7092 0.7091 0.7090 0.7089
3731.000000 0.7088 0.7088 0.7087 0.7086 0.7085
3736.000000 0.7084 0.7083 0.7083 0.7082 0.7081
3741.000000 0.7080 0.7080 0.7079 0.7078 0.7077
3746.000000 0.7076 0.7075 0.7075 0.7074 0.7073
3751.000000 0.7072 0.7070 0.7071 0.7070 0.7069
3756.000000 0.7068 0.7067 0.7067 0.7066 0.7065
3761.000000 0.7064 0.7064 0.7063 0.7062 0.7061
3766.000000 0.7060 0.7059 0.7059 0.7058 0.7058
3771.000000 0.7058 0.7058 0.7058 0.7058 0.7058
3776.000000 0.7058 0.7058 0.7058 0.7058 0.7058
3781.000000 0.7058 0.7058 0.7058 0.7058 0.7058
3786.000000 0.7058 0.7058 0.7058 0.7058 0.7058
3791.000000 0.7058 0.7058
##END=
