##TITLE=Lead chloride, triphenyl-
##JCAMP-DX=4.24
##DATA TYPE=INFRARED SPECTRUM
##CLASS=COBLENTZ III
##ORIGIN=DOW CHEMICAL COMPANY
##OWNER=COBLENTZ SOC.
Collection (C) 2018 copyright by the U.S. Secretary of Commerce
on behalf of the United States of America. All rights reserved.
##DATE=1965/11/19
##NAMES=chloro(triphenyl)plumbane
##CAS REGISTRY NO=1153-06-6
##MOLFORM=C18 H15 Cl Pb
##SOURCE REFERENCE=COBLENTZ NO. 08603
##$NIST SOURCE=COBLENTZ
##$NIST IMAGE=cob8603
##SPECTROMETER/DATA SYSTEM=DOW KBr FOREPRISM-GRATING
##INSTRUMENT PARAMETERS=BLAZED AT 3.5, 12.0, 20.0 MICRON AND CHANGED AT 5.0, 7.5, 14.9 MICRON
##STATE=SOLID (SPLIT MULL), FLUOROLUBE FOR 3800-1330 CM^-^1, NUJOL FOR 1330-460 CM^-^1
##SAMPLING PROCEDURE=TRANSMISSION
##RESOLUTION=2
##DATA PROCESSING=DIGITIZED BY COBLENTZ SOCIETY (BATCH I) FROM HARD COPY
##XUNITS=1/CM
##YUNITS=TRANSMITTANCE
##XLABEL=Wavenumbers (cm-1)
##YLABEL=% Transmission
##XFACTOR=1
##YFACTOR=1
##DELTAX=1
##FIRSTX=460
##LASTX=3784
##FIRSTY=0.7428
##MAXX=3784
##MINX=460
##MAXY=0.8523
##MINY=0.143
##NPOINTS=3325
##XYDATA=(X++(Y..Y))
460.000000 0.7428 0.7437 0.7447 0.7457 0.7471
465.000000 0.7485 0.7497 0.7508 0.7518 0.7528
470.000000 0.7536 0.7545 0.7553 0.7561 0.7568
475.000000 0.7576 0.7585 0.7592 0.7599 0.7606
480.000000 0.7614 0.7621 0.7626 0.7634 0.7640
485.000000 0.7647 0.7654 0.7650 0.7665 0.7671
490.000000 0.7675 0.7682 0.7687 0.7693 0.7698
495.000000 0.7703 0.7707 0.7711 0.7714 0.7717
500.000000 0.7721 0.7724 0.7726 0.7730 0.7734
505.000000 0.7737 0.7740 0.7743 0.7746 0.7749
510.000000 0.7753 0.7756 0.7758 0.7761 0.7764
515.000000 0.7767 0.7769 0.7772 0.7775 0.7778
520.000000 0.7782 0.7785 0.7787 0.7789 0.7791
525.000000 0.7793 0.7794 0.7796 0.7798 0.7800
530.000000 0.7801 0.7804 0.7806 0.7808 0.7810
535.000000 0.7811 0.7814 0.7815 0.7818 0.7819
540.000000 0.7821 0.7824 0.7825 0.7828 0.7830
545.000000 0.7832 0.7837 0.7841 0.7846 0.7850
550.000000 0.7855 0.7860 0.7868 0.7875 0.7883
555.000000 0.7891 0.7898 0.7906 0.7914 0.7919
560.000000 0.7925 0.7930 0.7935 0.7940 0.7945
565.000000 0.7951 0.7956 0.7961 0.7965 0.7969
570.000000 0.7972 0.7976 0.7981 0.7985 0.7988
575.000000 0.7992 0.7996 0.8001 0.8006 0.8011
580.000000 0.8015 0.8021 0.8025 0.8028 0.8031
585.000000 0.8033 0.8036 0.8038 0.8040 0.8043
590.000000 0.8046 0.8048 0.8051 0.8055 0.8061
595.000000 0.8069 0.8078 0.8085 0.8088 0.8089
600.000000 0.8090 0.8090 0.8089 0.8088 0.8084
605.000000 0.8075 0.8065 0.8041 0.8011 0.7974
610.000000 0.7942 0.7934 0.7937 0.7949 0.7971
615.000000 0.8008 0.8058 0.8108 0.8121 0.8125
620.000000 0.8126 0.8130 0.8131 0.8133 0.8134
625.000000 0.8134 0.8135 0.8135 0.8135 0.8136
630.000000 0.8137 0.8137 0.8138 0.8139 0.8139
635.000000 0.8139 0.8140 0.8140 0.8139 0.8139
640.000000 0.8138 0.8136 0.8134 0.8131 0.8126
645.000000 0.8122 0.8118 0.8121 0.8125 0.8140
650.000000 0.8153 0.8156 0.8155 0.8151 0.8141
655.000000 0.8128 0.8112 0.8099 0.8084 0.8068
660.000000 0.8051 0.8034 0.8017 0.7998 0.7974
665.000000 0.7951 0.7931 0.7917 0.7908 0.7908
670.000000 0.7907 0.7911 0.7915 0.7918 0.7918
675.000000 0.7918 0.7915 0.7905 0.7883 0.7837
680.000000 0.7772 0.7701 0.7541 0.6975 0.6431
685.000000 0.5886 0.5340 0.4767 0.4273 0.4134
690.000000 0.3826 0.3544 0.3555 0.3671 0.3814
695.000000 0.3957 0.4089 0.4234 0.5152 0.6319
700.000000 0.6901 0.7247 0.7574 0.7699 0.7778
705.000000 0.7828 0.7844 0.7844 0.7835 0.7817
710.000000 0.7772 0.7700 0.7585 0.7478 0.7365
715.000000 0.7101 0.5867 0.4055 0.2244 0.1430
720.000000 0.1441 0.2992 0.3882 0.4772 0.5143
725.000000 0.4408 0.3753 0.3099 0.2444 0.1868
730.000000 0.1934 0.3073 0.3816 0.3854 0.3887
735.000000 0.4276 0.4909 0.5543 0.6176 0.6731
740.000000 0.7110 0.7249 0.7387 0.7528 0.7654
745.000000 0.7732 0.7811 0.7911 0.7975 0.8011
750.000000 0.8047 0.8065 0.8086 0.8101 0.8110
755.000000 0.8118 0.8124 0.8128 0.8134 0.8139
760.000000 0.8142 0.8144 0.8147 0.8149 0.8151
765.000000 0.8155 0.8158 0.8161 0.8168 0.8176
770.000000 0.8186 0.8194 0.8203 0.8213 0.8221
775.000000 0.8232 0.8241 0.8248 0.8254 0.8261
780.000000 0.8267 0.8274 0.8280 0.8286 0.8289
785.000000 0.8291 0.8292 0.8294 0.8296 0.8298
790.000000 0.8298 0.8298 0.8297 0.8296 0.8296
795.000000 0.8295 0.8294 0.8294 0.8293 0.8291
800.000000 0.8290 0.8288 0.8287 0.8291 0.8298
805.000000 0.8306 0.8315 0.8323 0.8332 0.8340
810.000000 0.8340 0.8340 0.8338 0.8337 0.8336
815.000000 0.8331 0.8325 0.8318 0.8312 0.8304
820.000000 0.8294 0.8287 0.8291 0.8305 0.8313
825.000000 0.8320 0.8320 0.8320 0.8320 0.8318
830.000000 0.8314 0.8307 0.8299 0.8281 0.8263
835.000000 0.8233 0.8174 0.8015 0.7857 0.7731
840.000000 0.7701 0.8081 0.8075 0.8048 0.8026
845.000000 0.8045 0.8094 0.8143 0.8186 0.8227
850.000000 0.8250 0.8262 0.8264 0.8264 0.8264
855.000000 0.8265 0.8265 0.8264 0.8263 0.8262
860.000000 0.8261 0.8260 0.8259 0.8258 0.8255
865.000000 0.8251 0.8248 0.8245 0.8241 0.8238
870.000000 0.8234 0.8228 0.8224 0.8218 0.8215
875.000000 0.8209 0.8203 0.8197 0.8190 0.8184
880.000000 0.8178 0.8171 0.8165 0.8158 0.8153
885.000000 0.8145 0.8138 0.8131 0.8124 0.8117
890.000000 0.8108 0.8101 0.8095 0.8088 0.8082
895.000000 0.8075 0.8068 0.8062 0.8056 0.8050
900.000000 0.8043 0.8035 0.8015 0.7996 0.7976
905.000000 0.7951 0.7925 0.7907 0.7893 0.7880
910.000000 0.7887 0.7925 0.7978 0.8008 0.8025
915.000000 0.8037 0.8047 0.8047 0.8047 0.8044
920.000000 0.8040 0.8037 0.8034 0.8030 0.8025
925.000000 0.8021 0.8015 0.8011 0.8007 0.8003
930.000000 0.7999 0.7996 0.7992 0.7988 0.7984
935.000000 0.7982 0.7980 0.7978 0.7975 0.7972
940.000000 0.7971 0.7968 0.7965 0.7961 0.7958
945.000000 0.7954 0.7950 0.7946 0.7942 0.7936
950.000000 0.7928 0.7921 0.7915 0.7908 0.7901
955.000000 0.7893 0.7886 0.7878 0.7871 0.7865
960.000000 0.7857 0.7849 0.7840 0.7832 0.7824
965.000000 0.7815 0.7807 0.7803 0.7804 0.7804
970.000000 0.7804 0.7818 0.7833 0.7849 0.7871
975.000000 0.7889 0.7884 0.7861 0.7811 0.7764
980.000000 0.7754 0.7761 0.7781 0.7825 0.7853
985.000000 0.7867 0.7865 0.7849 0.7818 0.7743
990.000000 0.7669 0.7471 0.6551 0.5486 0.4420
995.000000 0.3868 0.3880 0.4681 0.6704 0.7842
1000.000000 0.7882 0.7908 0.7925 0.7928 0.7928
1005.000000 0.7928 0.7947 0.7912 0.7899 0.7875
1010.000000 0.7832 0.7661 0.7546 0.7189 0.6746
1015.000000 0.6303 0.5859 0.5507 0.5489 0.6601
1020.000000 0.7825 0.7925 0.7930 0.7931 0.7931
1025.000000 0.7931 0.7932 0.7932 0.7932 0.7932
1030.000000 0.7932 0.7932 0.7932 0.7933 0.7933
1035.000000 0.7932 0.7928 0.7925 0.7944 0.7921
1040.000000 0.7918 0.7915 0.7911 0.7908 0.7905
1045.000000 0.7901 0.7895 0.7887 0.7880 0.7864
1050.000000 0.7841 0.7806 0.7762 0.7718 0.7672
1055.000000 0.7625 0.7584 0.7478 0.7126 0.6775
1060.000000 0.6425 0.6328 0.6505 0.6861 0.7218
1065.000000 0.7575 0.7914 0.7925 0.7922 0.7911
1070.000000 0.7895 0.7883 0.7882 0.7883 0.7883
1075.000000 0.7887 0.7892 0.7897 0.7901 0.7907
1080.000000 0.7911 0.7915 0.7918 0.7921 0.7924
1085.000000 0.7925 0.7928 0.7932 0.7936 0.7941
1090.000000 0.7946 0.7951 0.7956 0.7960 0.7965
1095.000000 0.7968 0.7974 0.7978 0.7982 0.7985
1100.000000 0.7985 0.7984 0.7983 0.7983 0.7980
1105.000000 0.7975 0.7971 0.7965 0.7961 0.7955
1110.000000 0.7950 0.7945 0.7939 0.7936 0.7936
1115.000000 0.7935 0.7935 0.7935 0.7934 0.7934
1120.000000 0.7934 0.7932 0.7930 0.7928 0.7926
1125.000000 0.7925 0.7922 0.7921 0.7918 0.7915
1130.000000 0.7911 0.7908 0.7904 0.7901 0.7890
1135.000000 0.7875 0.7860 0.7844 0.7826 0.7815
1140.000000 0.7810 0.7806 0.7808 0.7810 0.7811
1145.000000 0.7814 0.7817 0.7801 0.7772 0.7740
1150.000000 0.7689 0.7625 0.7551 0.7465 0.7345
1155.000000 0.7304 0.7312 0.7415 0.7642 0.7815
1160.000000 0.7826 0.7828 0.7825 0.7818 0.7805
1165.000000 0.7789 0.7771 0.7751 0.7730 0.7711
1170.000000 0.7722 0.7734 0.7751 0.7768 0.7771
1175.000000 0.7772 0.7765 0.7756 0.7736 0.7708
1180.000000 0.7686 0.7669 0.7672 0.7698 0.7725
1185.000000 0.7764 0.7807 0.7851 0.7893 0.7930
1190.000000 0.7940 0.7950 0.7954 0.7953 0.7951
1195.000000 0.7951 0.7949 0.7946 0.7938 0.7931
1200.000000 0.7924 0.7918 0.7918 0.7918 0.7917
1205.000000 0.7917 0.7919 0.7922 0.7925 0.7928
1210.000000 0.7931 0.7932 0.7934 0.7936 0.7937
1215.000000 0.7938 0.7939 0.7943 0.7943 0.7943
1220.000000 0.7943 0.7943 0.7943 0.7942 0.7941
1225.000000 0.7940 0.7937 0.7934 0.7931 0.7925
1230.000000 0.7919 0.7915 0.7908 0.7903 0.7895
1235.000000 0.7887 0.7878 0.7869 0.7861 0.7853
1240.000000 0.7844 0.7835 0.7825 0.7818 0.7808
1245.000000 0.7794 0.7780 0.7765 0.7751 0.7736
1250.000000 0.7718 0.7700 0.7681 0.7662 0.7645
1255.000000 0.7626 0.7601 0.7575 0.7556 0.7556
1260.000000 0.7555 0.7562 0.7575 0.7589 0.7606
1265.000000 0.7625 0.7634 0.7636 0.7637 0.7638
1270.000000 0.7638 0.7637 0.7635 0.7634 0.7632
1275.000000 0.7630 0.7625 0.7622 0.7618 0.7612
1280.000000 0.7605 0.7597 0.7589 0.7576 0.7562
1285.000000 0.7546 0.7525 0.7505 0.7481 0.7458
1290.000000 0.7435 0.7411 0.7375 0.7338 0.7299
1295.000000 0.7258 0.7218 0.7157 0.7064 0.6955
1300.000000 0.6934 0.6903 0.6948 0.7021 0.7090
1305.000000 0.7222 0.7304 0.7365 0.7414 0.7457
1310.000000 0.7491 0.7518 0.7547 0.7562 0.7578
1315.000000 0.7587 0.7587 0.7587 0.7580 0.7572
1320.000000 0.7556 0.7536 0.7485 0.7417 0.7265
1325.000000 0.6984 0.6703 0.6554 0.6561 0.6715
1330.000000 0.7030 0.7346 0.7371 0.7371 0.7369
1335.000000 0.7361 0.7346 0.7318 0.7285 0.7249
1340.000000 0.7244 0.7247 0.7261 0.7297 0.7332
1345.000000 0.7368 0.7404 0.7440 0.7478 0.7518
1350.000000 0.7551 0.7578 0.7607 0.7634 0.7661
1355.000000 0.7687 0.7712 0.7734 0.7753 0.7772
1360.000000 0.7792 0.7804 0.7815 0.7825 0.7836
1365.000000 0.7839 0.7842 0.7845 0.7847 0.7847
1370.000000 0.7847 0.7846 0.7845 0.7845 0.7845
1375.000000 0.7845 0.7850 0.7876 0.7915 0.7960
1380.000000 0.7992 0.7995 0.7995 0.7996 0.7996
1385.000000 0.7997 0.7998 0.7999 0.7999 0.7999
1390.000000 0.7999 0.7998 0.7997 0.7996 0.7995
1395.000000 0.7994 0.7994 0.7994 0.7993 0.7991
1400.000000 0.7988 0.7980 0.7971 0.7960 0.7948
1405.000000 0.7935 0.7919 0.7905 0.7890 0.7875
1410.000000 0.7861 0.7845 0.7826 0.7808 0.7789
1415.000000 0.7761 0.7732 0.7696 0.7645 0.7560
1420.000000 0.7451 0.7349 0.7225 0.7039 0.6518
1425.000000 0.6157 0.5305 0.4283 0.3259 0.2237
1430.000000 0.2147 0.2133 0.4850 0.6848 0.8435
1435.000000 0.8523 0.8523 0.8523 0.8521 0.8511
1440.000000 0.8504 0.8493 0.8482 0.8470 0.8459
1445.000000 0.8448 0.8437 0.8424 0.8410 0.8396
1450.000000 0.8383 0.8370 0.8357 0.8344 0.8331
1455.000000 0.8313 0.8294 0.8275 0.8256 0.8233
1460.000000 0.8210 0.8187 0.8158 0.8125 0.8092
1465.000000 0.8038 0.7984 0.7894 0.7799 0.7695
1470.000000 0.7594 0.7504 0.7054 0.5778 0.4501
1475.000000 0.3818 0.3802 0.4823 0.6436 0.8049
1480.000000 0.8508 0.8508 0.8507 0.8506 0.8503
1485.000000 0.8497 0.8490 0.8482 0.8475 0.8467
1490.000000 0.8460 0.8452 0.8444 0.8436 0.8431
1495.000000 0.8425 0.8421 0.8416 0.8411 0.8409
1500.000000 0.8407 0.8405 0.8403 0.8401 0.8401
1505.000000 0.8400 0.8400 0.8399 0.8399 0.8399
1510.000000 0.8399 0.8399 0.8399 0.8399 0.8397
1515.000000 0.8394 0.8391 0.8388 0.8386 0.8383
1520.000000 0.8380 0.8377 0.8373 0.8367 0.8362
1525.000000 0.8356 0.8350 0.8345 0.8339 0.8333
1530.000000 0.8328 0.8325 0.8321 0.8317 0.8313
1535.000000 0.8309 0.8305 0.8301 0.8297 0.8293
1540.000000 0.8290 0.8286 0.8283 0.8278 0.8275
1545.000000 0.8271 0.8268 0.8263 0.8257 0.8251
1550.000000 0.8238 0.8215 0.8171 0.8118 0.8071
1555.000000 0.8037 0.8037 0.8038 0.8087 0.8094
1560.000000 0.8095 0.8058 0.8008 0.7861 0.7768
1565.000000 0.7661 0.6835 0.5920 0.5557 0.5565
1570.000000 0.5758 0.6618 0.7478 0.8318 0.8345
1575.000000 0.8358 0.8367 0.8375 0.8382 0.8391
1580.000000 0.8399 0.8403 0.8405 0.8407 0.8409
1585.000000 0.8411 0.8413 0.8415 0.8416 0.8416
1590.000000 0.8415 0.8414 0.8412 0.8411 0.8411
1595.000000 0.8411 0.8411 0.8411 0.8409 0.8402
1600.000000 0.8395 0.8388 0.8375 0.8361 0.8346
1605.000000 0.8332 0.8318 0.8316 0.8317 0.8317
1610.000000 0.8320 0.8323 0.8325 0.8328 0.8331
1615.000000 0.8331 0.8331 0.8328 0.8325 0.8323
1620.000000 0.8316 0.8307 0.8299 0.8291 0.8278
1625.000000 0.8264 0.8250 0.8237 0.8230 0.8224
1630.000000 0.8217 0.8211 0.8204 0.8198 0.8191
1635.000000 0.8184 0.8184 0.8184 0.8186 0.8189
1640.000000 0.8193 0.8203 0.8212 0.8218 0.8225
1645.000000 0.8232 0.8238 0.8245 0.8251 0.8251
1650.000000 0.8251 0.8251 0.8250 0.8248 0.8245
1655.000000 0.8241 0.8237 0.8232 0.8228 0.8224
1660.000000 0.8220 0.8215 0.8210 0.8206 0.8201
1665.000000 0.8196 0.8192 0.8189 0.8186 0.8182
1670.000000 0.8178 0.8175 0.8171 0.8168 0.8165
1675.000000 0.8161 0.8160 0.8157 0.8154 0.8151
1680.000000 0.8148 0.8145 0.8142 0.8139 0.8136
1685.000000 0.8133 0.8130 0.8125 0.8121 0.8118
1690.000000 0.8114 0.8110 0.8106 0.8101 0.8098
1695.000000 0.8094 0.8089 0.8084 0.8078 0.8074
1700.000000 0.8068 0.8064 0.8058 0.8054 0.8048
1705.000000 0.8043 0.8043 0.8049 0.8055 0.8061
1710.000000 0.8072 0.8083 0.8085 0.8078 0.8072
1715.000000 0.8064 0.8053 0.8044 0.8038 0.8037
1720.000000 0.8042 0.8058 0.8082 0.8095 0.8096
1725.000000 0.8098 0.8098 0.8098 0.8098 0.8097
1730.000000 0.8096 0.8095 0.8094 0.8093 0.8091
1735.000000 0.8084 0.8076 0.8071 0.8047 0.8022
1740.000000 0.7999 0.7974 0.7972 0.7976 0.7981
1745.000000 0.7985 0.7989 0.7993 0.7997 0.8001
1750.000000 0.8005 0.8008 0.8010 0.8011 0.8011
1755.000000 0.8012 0.8012 0.8011 0.8011 0.8004
1760.000000 0.7994 0.7990 0.7989 0.7988 0.7987
1765.000000 0.7987 0.7988 0.7989 0.7990 0.7991
1770.000000 0.7991 0.7991 0.7991 0.7991 0.7992
1775.000000 0.7992 0.7992 0.7992 0.7992 0.7989
1780.000000 0.7985 0.7981 0.7975 0.7971 0.7968
1785.000000 0.7967 0.7965 0.7961 0.7957 0.7947
1790.000000 0.7935 0.7914 0.7893 0.7871 0.7851
1795.000000 0.7836 0.7830 0.7828 0.7825 0.7824
1800.000000 0.7822 0.7821 0.7819 0.7818 0.7818
1805.000000 0.7821 0.7840 0.7860 0.7878 0.7892
1810.000000 0.7894 0.7889 0.7871 0.7837 0.7821
1815.000000 0.7815 0.7817 0.7818 0.7824 0.7830
1820.000000 0.7836 0.7843 0.7851 0.7858 0.7865
1825.000000 0.7874 0.7885 0.7896 0.7895 0.7894
1830.000000 0.7894 0.7895 0.7896 0.7897 0.7897
1835.000000 0.7897 0.7897 0.7896 0.7895 0.7894
1840.000000 0.7892 0.7889 0.7887 0.7885 0.7882
1845.000000 0.7881 0.7878 0.7878 0.7875 0.7875
1850.000000 0.7871 0.7867 0.7862 0.7858 0.7854
1855.000000 0.7850 0.7841 0.7832 0.7822 0.7812
1860.000000 0.7798 0.7783 0.7767 0.7745 0.7721
1865.000000 0.7699 0.7665 0.7597 0.7589 0.7588
1870.000000 0.7587 0.7587 0.7587 0.7591 0.7598
1875.000000 0.7611 0.7631 0.7656 0.7687 0.7711
1880.000000 0.7733 0.7743 0.7747 0.7751 0.7756
1885.000000 0.7760 0.7764 0.7778 0.7800 0.7808
1890.000000 0.7817 0.7814 0.7808 0.7801 0.7796
1895.000000 0.7783 0.7765 0.7757 0.7755 0.7755
1900.000000 0.7757 0.7762 0.7771 0.7782 0.7792
1905.000000 0.7801 0.7811 0.7821 0.7830 0.7839
1910.000000 0.7845 0.7850 0.7856 0.7858 0.7858
1915.000000 0.7858 0.7858 0.7858 0.7858 0.7855
1920.000000 0.7851 0.7848 0.7845 0.7841 0.7836
1925.000000 0.7831 0.7825 0.7819 0.7815 0.7808
1930.000000 0.7798 0.7786 0.7774 0.7761 0.7749
1935.000000 0.7737 0.7724 0.7708 0.7692 0.7678
1940.000000 0.7678 0.7678 0.7678 0.7676 0.7680
1945.000000 0.7688 0.7695 0.7694 0.7693 0.7689
1950.000000 0.7655 0.7634 0.7626 0.7626 0.7626
1955.000000 0.7628 0.7631 0.7634 0.7638 0.7645
1960.000000 0.7651 0.7658 0.7667 0.7674 0.7682
1965.000000 0.7690 0.7696 0.7701 0.7706 0.7711
1970.000000 0.7711 0.7711 0.7705 0.7698 0.7692
1975.000000 0.7686 0.7681 0.7675 0.7669 0.7671
1980.000000 0.7671 0.7671 0.7671 0.7674 0.7675
1985.000000 0.7678 0.7681 0.7684 0.7688 0.7691
1990.000000 0.7694 0.7698 0.7701 0.7704 0.7706
1995.000000 0.7708 0.7715 0.7724 0.7732 0.7741
2000.000000 0.7743 0.7744 0.7746 0.7746 0.7747
2005.000000 0.7748 0.7750 0.7751 0.7753 0.7754
2010.000000 0.7756 0.7757 0.7758 0.7760 0.7760
2015.000000 0.7760 0.7760 0.7758 0.7758 0.7757
2020.000000 0.7756 0.7753 0.7751 0.7749 0.7747
2025.000000 0.7744 0.7742 0.7739 0.7737 0.7733
2030.000000 0.7730 0.7726 0.7724 0.7721 0.7718
2035.000000 0.7715 0.7711 0.7708 0.7707 0.7705
2040.000000 0.7703 0.7701 0.7699 0.7696 0.7694
2045.000000 0.7692 0.7690 0.7688 0.7686 0.7683
2050.000000 0.7681 0.7678 0.7675 0.7672 0.7669
2055.000000 0.7665 0.7662 0.7660 0.7657 0.7653
2060.000000 0.7650 0.7647 0.7644 0.7640 0.7637
2065.000000 0.7634 0.7631 0.7630 0.7628 0.7628
2070.000000 0.7628 0.7625 0.7625 0.7622 0.7621
2075.000000 0.7618 0.7617 0.7615 0.7612 0.7611
2080.000000 0.7608 0.7607 0.7605 0.7603 0.7601
2085.000000 0.7598 0.7595 0.7591 0.7588 0.7584
2090.000000 0.7581 0.7576 0.7574 0.7571 0.7568
2095.000000 0.7564 0.7560 0.7556 0.7551 0.7547
2100.000000 0.7543 0.7538 0.7534 0.7530 0.7525
2105.000000 0.7521 0.7517 0.7512 0.7510 0.7508
2110.000000 0.7506 0.7504 0.7503 0.7501 0.7500
2115.000000 0.7498 0.7497 0.7498 0.7499 0.7500
2120.000000 0.7501 0.7504 0.7506 0.7507 0.7508
2125.000000 0.7508 0.7510 0.7508 0.7508 0.7507
2130.000000 0.7506 0.7505 0.7504 0.7501 0.7501
2135.000000 0.7500 0.7499 0.7496 0.7494 0.7490
2140.000000 0.7487 0.7483 0.7480 0.7475 0.7471
2145.000000 0.7468 0.7465 0.7461 0.7458 0.7454
2150.000000 0.7451 0.7447 0.7444 0.7440 0.7436
2155.000000 0.7432 0.7428 0.7425 0.7421 0.7417
2160.000000 0.7412 0.7408 0.7406 0.7401 0.7398
2165.000000 0.7394 0.7391 0.7387 0.7384 0.7380
2170.000000 0.7376 0.7372 0.7369 0.7365 0.7362
2175.000000 0.7358 0.7356 0.7351 0.7349 0.7345
2180.000000 0.7342 0.7338 0.7334 0.7330 0.7326
2185.000000 0.7322 0.7319 0.7315 0.7312 0.7308
2190.000000 0.7306 0.7301 0.7299 0.7295 0.7292
2195.000000 0.7288 0.7285 0.7281 0.7278 0.7274
2200.000000 0.7271 0.7267 0.7264 0.7260 0.7257
2205.000000 0.7254 0.7251 0.7247 0.7244 0.7240
2210.000000 0.7237 0.7233 0.7230 0.7225 0.7222
2215.000000 0.7218 0.7215 0.7211 0.7208 0.7205
2220.000000 0.7201 0.7197 0.7193 0.7188 0.7184
2225.000000 0.7180 0.7175 0.7171 0.7167 0.7162
2230.000000 0.7158 0.7154 0.7150 0.7145 0.7141
2235.000000 0.7137 0.7133 0.7130 0.7126 0.7124
2240.000000 0.7121 0.7118 0.7115 0.7111 0.7108
2245.000000 0.7106 0.7103 0.7099 0.7096 0.7093
2250.000000 0.7090 0.7087 0.7084 0.7080 0.7076
2255.000000 0.7072 0.7069 0.7067 0.7064 0.7060
2260.000000 0.7057 0.7053 0.7050 0.7046 0.7043
2265.000000 0.7040 0.7037 0.7034 0.7032 0.7028
2270.000000 0.7026 0.7024 0.7021 0.7018 0.7017
2275.000000 0.7014 0.7011 0.7008 0.7006 0.7003
2280.000000 0.7001 0.6998 0.6996 0.6993 0.6991
2285.000000 0.6988 0.6986 0.6983 0.6981 0.6978
2290.000000 0.6976 0.6975 0.6972 0.6971 0.6968
2295.000000 0.6967 0.6965 0.6962 0.6961 0.6958
2300.000000 0.6956 0.6954 0.6951 0.6950 0.6948
2305.000000 0.6946 0.6944 0.6942 0.6941 0.6941
2310.000000 0.6941 0.6940 0.6940 0.6939 0.6939
2315.000000 0.6938 0.6938 0.6937 0.6937 0.6936
2320.000000 0.6936 0.6936 0.6936 0.6936 0.6936
2325.000000 0.6936 0.6936 0.6934 0.6932 0.6930
2330.000000 0.6928 0.6925 0.6924 0.6921 0.6918
2335.000000 0.6917 0.6915 0.6912 0.6911 0.6908
2340.000000 0.6906 0.6904 0.6901 0.6900 0.6898
2345.000000 0.6895 0.6893 0.6891 0.6889 0.6887
2350.000000 0.6885 0.6883 0.6881 0.6878 0.6878
2355.000000 0.6875 0.6875 0.6872 0.6871 0.6869
2360.000000 0.6868 0.6865 0.6865 0.6862 0.6861
2365.000000 0.6858 0.6856 0.6851 0.6849 0.6846
2370.000000 0.6843 0.6840 0.6838 0.6836 0.6834
2375.000000 0.6832 0.6830 0.6826 0.6825 0.6824
2380.000000 0.6824 0.6824 0.6825 0.6825 0.6825
2385.000000 0.6825 0.6825 0.6825 0.6825 0.6825
2390.000000 0.6825 0.6824 0.6824 0.6822 0.6822
2395.000000 0.6821 0.6821 0.6821 0.6819 0.6818
2400.000000 0.6818 0.6818 0.6818 0.6817 0.6817
2405.000000 0.6815 0.6815 0.6814 0.6812 0.6811
2410.000000 0.6810 0.6808 0.6808 0.6807 0.6806
2415.000000 0.6805 0.6804 0.6801 0.6801 0.6800
2420.000000 0.6799 0.6797 0.6796 0.6794 0.6793
2425.000000 0.6792 0.6791 0.6789 0.6788 0.6786
2430.000000 0.6785 0.6784 0.6783 0.6780 0.6776
2435.000000 0.6774 0.6771 0.6768 0.6767 0.6764
2440.000000 0.6761 0.6758 0.6756 0.6753 0.6751
2445.000000 0.6748 0.6745 0.6742 0.6740 0.6737
2450.000000 0.6735 0.6733 0.6732 0.6730 0.6728
2455.000000 0.6726 0.6725 0.6724 0.6721 0.6719
2460.000000 0.6718 0.6717 0.6715 0.6714 0.6711
2465.000000 0.6710 0.6708 0.6707 0.6706 0.6704
2470.000000 0.6703 0.6701 0.6699 0.6697 0.6696
2475.000000 0.6694 0.6692 0.6690 0.6688 0.6686
2480.000000 0.6684 0.6682 0.6680 0.6676 0.6675
2485.000000 0.6672 0.6671 0.6668 0.6667 0.6665
2490.000000 0.6662 0.6660 0.6658 0.6656 0.6654
2495.000000 0.6651 0.6650 0.6648 0.6646 0.6643
2500.000000 0.6641 0.6639 0.6637 0.6635 0.6633
2505.000000 0.6631 0.6628 0.6626 0.6625 0.6624
2510.000000 0.6621 0.6619 0.6618 0.6615 0.6614
2515.000000 0.6611 0.6611 0.6608 0.6607 0.6605
2520.000000 0.6603 0.6601 0.6600 0.6598 0.6596
2525.000000 0.6594 0.6592 0.6590 0.6588 0.6586
2530.000000 0.6585 0.6582 0.6580 0.6576 0.6574
2535.000000 0.6571 0.6568 0.6565 0.6561 0.6558
2540.000000 0.6556 0.6553 0.6550 0.6546 0.6543
2545.000000 0.6540 0.6537 0.6534 0.6532 0.6528
2550.000000 0.6525 0.6522 0.6521 0.6518 0.6517
2555.000000 0.6515 0.6512 0.6511 0.6508 0.6506
2560.000000 0.6504 0.6496 0.6488 0.6481 0.6474
2565.000000 0.6468 0.6462 0.6457 0.6451 0.6451
2570.000000 0.6450 0.6450 0.6451 0.6454 0.6457
2575.000000 0.6465 0.6472 0.6484 0.6496 0.6501
2580.000000 0.6508 0.6510 0.6512 0.6512 0.6512
2585.000000 0.6511 0.6510 0.6507 0.6505 0.6501
2590.000000 0.6500 0.6497 0.6495 0.6494 0.6493
2595.000000 0.6492 0.6491 0.6490 0.6489 0.6487
2600.000000 0.6486 0.6485 0.6484 0.6483 0.6482
2605.000000 0.6480 0.6478 0.6476 0.6475 0.6474
2610.000000 0.6472 0.6471 0.6468 0.6467 0.6465
2615.000000 0.6464 0.6462 0.6461 0.6458 0.6457
2620.000000 0.6455 0.6453 0.6451 0.6450 0.6448
2625.000000 0.6446 0.6444 0.6441 0.6439 0.6437
2630.000000 0.6435 0.6432 0.6430 0.6426 0.6425
2635.000000 0.6422 0.6421 0.6418 0.6415 0.6414
2640.000000 0.6411 0.6408 0.6407 0.6404 0.6401
2645.000000 0.6399 0.6397 0.6394 0.6392 0.6389
2650.000000 0.6387 0.6384 0.6382 0.6379 0.6377
2655.000000 0.6374 0.6372 0.6369 0.6366 0.6364
2660.000000 0.6362 0.6360 0.6360 0.6358 0.6357
2665.000000 0.6356 0.6355 0.6354 0.6353 0.6352
2670.000000 0.6351 0.6350 0.6349 0.6347 0.6346
2675.000000 0.6345 0.6344 0.6343 0.6342 0.6340
2680.000000 0.6338 0.6335 0.6333 0.6330 0.6328
2685.000000 0.6325 0.6323 0.6320 0.6317 0.6314
2690.000000 0.6312 0.6309 0.6307 0.6304 0.6302
2695.000000 0.6300 0.6298 0.6296 0.6294 0.6292
2700.000000 0.6290 0.6288 0.6286 0.6284 0.6282
2705.000000 0.6280 0.6278 0.6276 0.6274 0.6272
2710.000000 0.6270 0.6268 0.6266 0.6262 0.6260
2715.000000 0.6258 0.6256 0.6253 0.6250 0.6247
2720.000000 0.6244 0.6241 0.6239 0.6236 0.6233
2725.000000 0.6230 0.6227 0.6224 0.6222 0.6219
2730.000000 0.6216 0.6212 0.6209 0.6206 0.6203
2735.000000 0.6200 0.6197 0.6194 0.6191 0.6188
2740.000000 0.6185 0.6181 0.6178 0.6175 0.6172
2745.000000 0.6169 0.6166 0.6162 0.6160 0.6157
2750.000000 0.6154 0.6151 0.6149 0.6146 0.6143
2755.000000 0.6140 0.6137 0.6134 0.6131 0.6128
2760.000000 0.6125 0.6122 0.6120 0.6117 0.6114
2765.000000 0.6110 0.6108 0.6105 0.6102 0.6099
2770.000000 0.6096 0.6093 0.6090 0.6086 0.6083
2775.000000 0.6079 0.6076 0.6072 0.6069 0.6065
2780.000000 0.6062 0.6058 0.6055 0.6051 0.6048
2785.000000 0.6044 0.6041 0.6037 0.6034 0.6031
2790.000000 0.6028 0.6025 0.6022 0.6019 0.6016
2795.000000 0.6012 0.6010 0.6007 0.6004 0.6001
2800.000000 0.5998 0.5995 0.5993 0.5990 0.5987
2805.000000 0.5983 0.5980 0.5976 0.5973 0.5969
2810.000000 0.5966 0.5962 0.5959 0.5956 0.5953
2815.000000 0.5949 0.5946 0.5942 0.5939 0.5935
2820.000000 0.5932 0.5928 0.5925 0.5922 0.5919
2825.000000 0.5915 0.5912 0.5909 0.5907 0.5904
2830.000000 0.5902 0.5899 0.5897 0.5894 0.5892
2835.000000 0.5889 0.5887 0.5884 0.5882 0.5879
2840.000000 0.5877 0.5874 0.5872 0.5869 0.5867
2845.000000 0.5864 0.5862 0.5859 0.5857 0.5854
2850.000000 0.5852 0.5849 0.5846 0.5842 0.5839
2855.000000 0.5836 0.5833 0.5830 0.5827 0.5824
2860.000000 0.5821 0.5818 0.5815 0.5812 0.5809
2865.000000 0.5806 0.5803 0.5800 0.5797 0.5794
2870.000000 0.5791 0.5787 0.5784 0.5781 0.5778
2875.000000 0.5774 0.5771 0.5767 0.5764 0.5760
2880.000000 0.5758 0.5754 0.5751 0.5747 0.5744
2885.000000 0.5741 0.5738 0.5734 0.5731 0.5727
2890.000000 0.5724 0.5721 0.5718 0.5714 0.5710
2895.000000 0.5707 0.5703 0.5699 0.5696 0.5692
2900.000000 0.5688 0.5684 0.5680 0.5676 0.5672
2905.000000 0.5668 0.5664 0.5660 0.5656 0.5652
2910.000000 0.5649 0.5645 0.5641 0.5638 0.5635
2915.000000 0.5632 0.5629 0.5626 0.5623 0.5620
2920.000000 0.5617 0.5615 0.5612 0.5612 0.5614
2925.000000 0.5614 0.5615 0.5616 0.5617 0.5618
2930.000000 0.5619 0.5620 0.5621 0.5622 0.5623
2935.000000 0.5624 0.5625 0.5626 0.5627 0.5627
2940.000000 0.5627 0.5627 0.5627 0.5626 0.5626
2945.000000 0.5625 0.5625 0.5624 0.5623 0.5622
2950.000000 0.5621 0.5620 0.5619 0.5618 0.5617
2955.000000 0.5615 0.5614 0.5608 0.5603 0.5598
2960.000000 0.5593 0.5588 0.5583 0.5573 0.5562
2965.000000 0.5552 0.5542 0.5530 0.5518 0.5502
2970.000000 0.5486 0.5470 0.5454 0.5438 0.5422
2975.000000 0.5406 0.5391 0.5379 0.5367 0.5367
2980.000000 0.5369 0.5371 0.5375 0.5416 0.5457
2985.000000 0.5491 0.5526 0.5536 0.5546 0.5547
2990.000000 0.5548 0.5551 0.5550 0.5548 0.5546
2995.000000 0.5542 0.5538 0.5532 0.5526 0.5516
3000.000000 0.5507 0.5496 0.5485 0.5474 0.5462
3005.000000 0.5451 0.5440 0.5430 0.5421 0.5410
3010.000000 0.5401 0.5391 0.5381 0.5369 0.5358
3015.000000 0.5346 0.5335 0.5323 0.5310 0.5298
3020.000000 0.5286 0.5273 0.5260 0.5247 0.5234
3025.000000 0.5218 0.5203 0.5186 0.5170 0.5151
3030.000000 0.5133 0.5110 0.5089 0.5064 0.5040
3035.000000 0.5010 0.4983 0.4950 0.4917 0.4874
3040.000000 0.4832 0.4814 0.4796 0.4784 0.4772
3045.000000 0.4760 0.4749 0.4737 0.4726 0.4714
3050.000000 0.4703 0.4698 0.4699 0.4699 0.4705
3055.000000 0.4717 0.4729 0.4729 0.4668 0.4722
3060.000000 0.4715 0.4710 0.4706 0.4717 0.4728
3065.000000 0.4976 0.5224 0.5386 0.5549 0.5558
3070.000000 0.5568 0.5572 0.5576 0.5577 0.5578
3075.000000 0.5578 0.5578 0.5578 0.5577 0.5576
3080.000000 0.5576 0.5573 0.5571 0.5568 0.5566
3085.000000 0.5562 0.5560 0.5559 0.5557 0.5554
3090.000000 0.5551 0.5547 0.5544 0.5541 0.5538
3095.000000 0.5535 0.5532 0.5528 0.5525 0.5522
3100.000000 0.5519 0.5516 0.5512 0.5510 0.5507
3105.000000 0.5504 0.5501 0.5498 0.5495 0.5492
3110.000000 0.5490 0.5487 0.5485 0.5482 0.5480
3115.000000 0.5477 0.5475 0.5472 0.5470 0.5467
3120.000000 0.5465 0.5462 0.5459 0.5455 0.5451
3125.000000 0.5447 0.5443 0.5440 0.5440 0.5440
3130.000000 0.5440 0.5440 0.5441 0.5443 0.5445
3135.000000 0.5447 0.5449 0.5451 0.5453 0.5454
3140.000000 0.5456 0.5457 0.5458 0.5457 0.5457
3145.000000 0.5453 0.5450 0.5447 0.5444 0.5440
3150.000000 0.5437 0.5433 0.5430 0.5427 0.5424
3155.000000 0.5420 0.5417 0.5414 0.5410 0.5407
3160.000000 0.5404 0.5401 0.5398 0.5394 0.5391
3165.000000 0.5387 0.5384 0.5380 0.5376 0.5372
3170.000000 0.5369 0.5365 0.5362 0.5358 0.5355
3175.000000 0.5351 0.5348 0.5345 0.5342 0.5338
3180.000000 0.5335 0.5331 0.5328 0.5324 0.5321
3185.000000 0.5317 0.5314 0.5312 0.5310 0.5307
3190.000000 0.5305 0.5303 0.5301 0.5299 0.5297
3195.000000 0.5294 0.5292 0.5290 0.5288 0.5285
3200.000000 0.5283 0.5281 0.5279 0.5277 0.5275
3205.000000 0.5272 0.5270 0.5268 0.5266 0.5262
3210.000000 0.5260 0.5258 0.5256 0.5253 0.5250
3215.000000 0.5247 0.5245 0.5242 0.5239 0.5236
3220.000000 0.5234 0.5231 0.5228 0.5225 0.5223
3225.000000 0.5220 0.5217 0.5214 0.5210 0.5208
3230.000000 0.5206 0.5203 0.5200 0.5198 0.5196
3235.000000 0.5194 0.5192 0.5190 0.5189 0.5187
3240.000000 0.5185 0.5183 0.5182 0.5180 0.5178
3245.000000 0.5176 0.5175 0.5173 0.5171 0.5169
3250.000000 0.5168 0.5166 0.5164 0.5162 0.5160
3255.000000 0.5159 0.5157 0.5155 0.5154 0.5152
3260.000000 0.5150 0.5148 0.5147 0.5145 0.5143
3265.000000 0.5141 0.5140 0.5138 0.5137 0.5135
3270.000000 0.5133 0.5131 0.5130 0.5128 0.5127
3275.000000 0.5125 0.5124 0.5122 0.5121 0.5119
3280.000000 0.5118 0.5116 0.5115 0.5112 0.5112
3285.000000 0.5110 0.5110 0.5108 0.5107 0.5105
3290.000000 0.5104 0.5102 0.5101 0.5099 0.5098
3295.000000 0.5096 0.5095 0.5093 0.5092 0.5090
3300.000000 0.5089 0.5087 0.5086 0.5085 0.5084
3305.000000 0.5082 0.5081 0.5079 0.5078 0.5076
3310.000000 0.5075 0.5073 0.5072 0.5070 0.5069
3315.000000 0.5067 0.5066 0.5064 0.5062 0.5060
3320.000000 0.5060 0.5058 0.5056 0.5053 0.5051
3325.000000 0.5049 0.5047 0.5045 0.5043 0.5041
3330.000000 0.5039 0.5036 0.5034 0.5032 0.5030
3335.000000 0.5028 0.5026 0.5024 0.5022 0.5020
3340.000000 0.5018 0.5015 0.5012 0.5010 0.5009
3345.000000 0.5007 0.5005 0.5003 0.5001 0.4998
3350.000000 0.4996 0.4994 0.4992 0.4990 0.4988
3355.000000 0.4986 0.4984 0.4981 0.4979 0.4977
3360.000000 0.4975 0.4973 0.4971 0.4969 0.4967
3365.000000 0.4964 0.4962 0.4960 0.4958 0.4956
3370.000000 0.4954 0.4952 0.4951 0.4949 0.4947
3375.000000 0.4945 0.4943 0.4941 0.4939 0.4937
3380.000000 0.4935 0.4933 0.4931 0.4929 0.4927
3385.000000 0.4925 0.4923 0.4921 0.4919 0.4917
3390.000000 0.4915 0.4912 0.4910 0.4909 0.4907
3395.000000 0.4905 0.4903 0.4901 0.4899 0.4897
3400.000000 0.4895 0.4893 0.4891 0.4889 0.4887
3405.000000 0.4885 0.4883 0.4881 0.4879 0.4877
3410.000000 0.4875 0.4873 0.4871 0.4869 0.4867
3415.000000 0.4865 0.4862 0.4860 0.4859 0.4857
3420.000000 0.4855 0.4853 0.4852 0.4850 0.4848
3425.000000 0.4846 0.4844 0.4842 0.4840 0.4838
3430.000000 0.4836 0.4834 0.4832 0.4830 0.4828
3435.000000 0.4826 0.4824 0.4822 0.4821 0.4819
3440.000000 0.4817 0.4815 0.4812 0.4810 0.4809
3445.000000 0.4807 0.4805 0.4803 0.4801 0.4799
3450.000000 0.4797 0.4795 0.4793 0.4791 0.4789
3455.000000 0.4787 0.4786 0.4784 0.4782 0.4780
3460.000000 0.4778 0.4776 0.4774 0.4772 0.4771
3465.000000 0.4769 0.4768 0.4766 0.4765 0.4762
3470.000000 0.4762 0.4760 0.4759 0.4757 0.4756
3475.000000 0.4754 0.4753 0.4751 0.4750 0.4748
3480.000000 0.4747 0.4745 0.4744 0.4742 0.4741
3485.000000 0.4740 0.4739 0.4737 0.4736 0.4734
3490.000000 0.4733 0.4731 0.4730 0.4728 0.4727
3495.000000 0.4725 0.4724 0.4722 0.4721 0.4719
3500.000000 0.4718 0.4716 0.4715 0.4712 0.4712
3505.000000 0.4710 0.4709 0.4707 0.4706 0.4704
3510.000000 0.4703 0.4701 0.4700 0.4699 0.4698
3515.000000 0.4696 0.4695 0.4693 0.4692 0.4690
3520.000000 0.4688 0.4686 0.4684 0.4681 0.4679
3525.000000 0.4676 0.4674 0.4672 0.4670 0.4667
3530.000000 0.4665 0.4662 0.4660 0.4658 0.4656
3535.000000 0.4653 0.4651 0.4648 0.4646 0.4644
3540.000000 0.4642 0.4639 0.4637 0.4634 0.4632
3545.000000 0.4630 0.4628 0.4625 0.4623 0.4621
3550.000000 0.4619 0.4616 0.4614 0.4610 0.4609
3555.000000 0.4607 0.4605 0.4602 0.4600 0.4597
3560.000000 0.4595 0.4593 0.4591 0.4588 0.4586
3565.000000 0.4583 0.4581 0.4579 0.4577 0.4574
3570.000000 0.4572 0.4570 0.4568 0.4565 0.4562
3575.000000 0.4560 0.4559 0.4556 0.4554 0.4552
3580.000000 0.4550 0.4547 0.4545 0.4543 0.4541
3585.000000 0.4538 0.4536 0.4534 0.4532 0.4529
3590.000000 0.4527 0.4525 0.4523 0.4520 0.4518
3595.000000 0.4516 0.4514 0.4510 0.4509 0.4507
3600.000000 0.4505 0.4502 0.4500 0.4498 0.4496
3605.000000 0.4493 0.4491 0.4489 0.4487 0.4484
3610.000000 0.4482 0.4480 0.4478 0.4475 0.4473
3615.000000 0.4471 0.4469 0.4467 0.4465 0.4464
3620.000000 0.4462 0.4460 0.4460 0.4458 0.4457
3625.000000 0.4456 0.4455 0.4453 0.4452 0.4450
3630.000000 0.4449 0.4448 0.4447 0.4445 0.4444
3635.000000 0.4443 0.4442 0.4440 0.4439 0.4437
3640.000000 0.4436 0.4435 0.4434 0.4432 0.4431
3645.000000 0.4429 0.4428 0.4427 0.4426 0.4424
3650.000000 0.4423 0.4421 0.4420 0.4419 0.4418
3655.000000 0.4416 0.4415 0.4412 0.4412 0.4410
3660.000000 0.4410 0.4408 0.4407 0.4406 0.4405
3665.000000 0.4403 0.4402 0.4401 0.4400 0.4398
3670.000000 0.4397 0.4396 0.4395 0.4393 0.4392
3675.000000 0.4391 0.4390 0.4388 0.4387 0.4386
3680.000000 0.4385 0.4384 0.4383 0.4381 0.4380
3685.000000 0.4379 0.4378 0.4376 0.4375 0.4374
3690.000000 0.4373 0.4371 0.4370 0.4369 0.4368
3695.000000 0.4366 0.4365 0.4364 0.4362 0.4360
3700.000000 0.4360 0.4359 0.4358 0.4356 0.4355
3705.000000 0.4353 0.4352 0.4351 0.4350 0.4348
3710.000000 0.4347 0.4345 0.4344 0.4343 0.4342
3715.000000 0.4340 0.4339 0.4338 0.4337 0.4335
3720.000000 0.4334 0.4332 0.4331 0.4330 0.4354
3725.000000 0.4327 0.4326 0.4324 0.4323 0.4322
3730.000000 0.4321 0.4319 0.4318 0.4315 0.4312
3735.000000 0.4310 0.4309 0.4306 0.4304 0.4302
3740.000000 0.4300 0.4298 0.4296 0.4293 0.4291
3745.000000 0.4289 0.4287 0.4285 0.4283 0.4280
3750.000000 0.4278 0.4276 0.4274 0.4272 0.4271
3755.000000 0.4270 0.4269 0.4268 0.4267 0.4265
3760.000000 0.4264 0.4262 0.4262 0.4260 0.4260
3765.000000 0.4259 0.4258 0.4257 0.4256 0.4255
3770.000000 0.4255 0.4254 0.4253 0.4252 0.4251
3775.000000 0.4250 0.4249 0.4248 0.4247 0.4246
3780.000000 0.4246 0.4245 0.4244 0.4243 0.4242
##END=
