##TITLE=METHANE, OXYBIS-
##JCAMP-DX=4.24
##DATA TYPE=INFRARED SPECTRUM
##CLASS=COBLENTZ
##ORIGIN=DOW CHEMICAL COMPANY
##OWNER=COBLENTZ SOCIETY
Collection (C) 2018 copyright by the U.S. Secretary of Commerce
on behalf of the United States of America. All rights reserved.
##DATE=1965/04/09
##NAMES=methoxymethane
dimethyl ether
##CAS REGISTRY NO=115-10-6
##MOLFORM=C2 H6 O
##SOURCE REFERENCE=COBLENTZ NO. 10489
##$NIST SOURCE=COBLENTZ
##$NIST IMAGE=cob-r10489
##SPECTROMETER/DATA SYSTEM=DOW KBr FOREPRISM-GRATING
##INSTRUMENT PARAMETERS=GRATING: BLAZED AT 3.5, 12.0, 20.0 MICRON, CHANGED AT 5.0, 7.5, 14.9 MICRON
##STATE=GAS
##PATH LENGTH=5 CM CELL
##SAMPLING PROCEDURE=TRANSMISSION
##RESOLUTION=2
##DATA PROCESSING=DIGITIZED BY NIST FROM HARD COPY (FROM TWO SEGMENTS)
##XUNITS=1/CM
##YUNITS=TRANSMITTANCE
##XFACTOR=1.000000
##YFACTOR=1
##DELTAX=1.260837
##FIRSTX=459.259
##LASTX=3799.22
##FIRSTY=0.97
##MAXX=3799.22
##MINX=459.259
##MAXY=1.02279
##MINY=0.0350485
##NPOINTS=2650
##XYDATA=(X++(Y..Y))
459.259000 0.9700 0.9720 0.9720 0.9740 0.9760
465.563185 0.9760 0.9760 0.9760 0.9780 0.9800
471.867369 0.9800 0.9820 0.9820 0.9820 0.9800
478.171554 0.9800 0.9800 0.9800 0.9800 0.9800
484.475739 0.9800 0.9800 0.9800 0.9800 0.9800
490.779923 0.9800 0.9800 0.9800 0.9800 0.9820
497.084108 0.9820 0.9840 0.9860 0.9860 0.9860
503.388293 0.9860 0.9860 0.9860 0.9860 0.9860
509.692477 0.9860 0.9860 0.9860 0.9860 0.9860
515.996662 0.9840 0.9840 0.9840 0.9840 0.9840
522.300847 0.9840 0.9840 0.9840 0.9860 0.9860
528.605031 0.9860 0.9860 0.9860 0.9880 0.9900
534.909216 0.9920 0.9920 0.9940 0.9940 0.9940
541.213401 0.9940 0.9960 0.9960 0.9960 0.9960
547.517586 0.9960 0.9960 0.9980 0.9980 0.9980
553.821770 1.0000 1.0000 1.0010 1.0030 1.0030
560.125955 1.0030 1.0050 1.0050 1.0050 1.0050
566.430140 1.0050 1.0050 1.0050 1.0070 1.0070
572.734324 1.0050 1.0050 1.0050 1.0050 1.0050
579.038509 1.0050 1.0050 1.0050 1.0050 1.0050
585.342694 1.0050 1.0050 1.0050 1.0050 1.0050
591.646878 1.0050 1.0050 1.0050 1.0050 1.0050
597.951063 1.0050 1.0050 1.0050 1.0050 1.0050
604.255248 1.0070 1.0070 1.0090 1.0090 1.0090
610.559432 1.0090 1.0090 1.0090 1.0090 1.0090
616.863617 1.0110 1.0130 1.0130 1.0130 1.0130
623.167802 1.0130 1.0090 1.0090 1.0090 1.0090
629.471986 1.0090 1.0090 1.0110 1.0110 1.0110
635.776171 1.0110 1.0090 1.0090 1.0090 1.0090
642.080356 1.0090 1.0090 1.0090 1.0090 1.0090
648.384540 1.0070 1.0070 1.0070 1.0070 1.0070
654.688725 1.0070 1.0070 1.0070 1.0070 1.0070
660.992910 1.0070 1.0070 1.0050 1.0050 1.0030
667.297094 1.0030 1.0030 1.0010 1.0010 1.0030
673.601279 1.0030 1.0030 1.0050 1.0050 1.0050
679.905464 1.0050 1.0050 1.0050 1.0030 1.0010
686.209648 1.0010 1.0010 1.0010 1.0010 1.0010
692.513833 1.0010 1.0010 1.0010 1.0010 1.0010
698.818018 1.0010 1.0030 1.0030 1.0030 1.0030
705.122203 1.0010 1.0010 1.0010 1.0010 1.0010
711.426387 1.0010 1.0010 1.0030 1.0030 1.0030
717.730572 1.0030 1.0010 1.0000 1.0000 0.9980
724.034757 0.9980 0.9980 0.9980 0.9980 0.9980
730.338941 0.9980 0.9980 0.9980 0.9980 1.0000
736.643126 1.0000 1.0010 1.0010 1.0010 1.0030
742.947311 1.0030 1.0030 1.0030 1.0010 1.0010
749.251495 1.0000 1.0000 1.0000 1.0000 1.0000
755.555680 1.0000 1.0000 1.0000 1.0010 1.0010
761.859865 1.0010 1.0010 1.0010 1.0010 1.0030
768.164049 1.0030 1.0030 1.0030 1.0030 1.0030
774.468234 1.0010 1.0010 1.0010 1.0010 1.0000
780.772419 1.0000 1.0000 1.0000 1.0000 0.9980
787.076603 0.9980 0.9960 0.9940 0.9940 0.9940
793.380788 0.9940 0.9940 0.9960 0.9960 0.9960
799.684973 0.9980 1.0010 1.0030 1.0030 1.0030
805.989157 1.0050 1.0050 1.0070 1.0090 1.0090
812.293342 1.0090 1.0090 1.0090 1.0090 1.0090
818.597527 1.0090 1.0090 1.0090 1.0090 1.0090
824.901711 1.0070 1.0070 1.0070 1.0070 1.0070
831.205896 1.0070 1.0070 1.0090 1.0090 1.0070
837.510081 1.0070 1.0070 1.0070 1.0070 1.0070
843.814266 1.0050 1.0050 1.0050 1.0050 1.0030
850.118450 1.0010 1.0000 1.0000 0.9980 0.9960
856.422635 0.9920 0.9880 0.9860 0.9840 0.9820
862.726820 0.9780 0.9740 0.9700 0.9680 0.9640
869.031004 0.9600 0.9540 0.9480 0.9420 0.9380
875.335189 0.9240 0.9180 0.9160 0.9100 0.8980
881.639374 0.8960 0.8781 0.8750 0.8571 0.8550
887.943558 0.8410 0.8270 0.8070 0.7990 0.7811
894.247743 0.7730 0.7630 0.7501 0.7321 0.7141
900.551928 0.6960 0.6820 0.6640 0.6500 0.6341
906.856112 0.6230 0.6210 0.5951 0.5811 0.5790
913.160297 0.5670 0.5650 0.5590 0.5570 0.5590
919.464482 0.5630 0.5789 0.5929 0.5990 0.6208
925.768666 0.6340 0.6520 0.6620 0.6640 0.6500
932.072851 0.5793 0.5611 0.5451 0.5291 0.5052
938.377036 0.5030 0.5050 0.5090 0.5230 0.5270
944.681220 0.5529 0.5590 0.5689 0.5809 0.5949
950.985405 0.6150 0.6320 0.6480 0.6540 0.6700
957.289590 0.6859 0.6999 0.7259 0.7320 0.7479
963.593774 0.7610 0.7770 0.7850 0.7910 0.8010
969.897959 0.8150 0.8269 0.8389 0.8450 0.8569
976.202144 0.8670 0.8760 0.8820 0.8920 0.9000
982.506328 0.9159 0.9200 0.9260 0.9359 0.9380
988.810513 0.9400 0.9480 0.9540 0.9620 0.9660
995.114698 0.9680 0.9740 0.9760 0.9780 0.9800
1001.418883 0.9820 0.9860 0.9920 0.9920 0.9960
1007.723067 0.9980 0.9980 1.0000 1.0030 1.0050
1014.027252 1.0050 1.0070 1.0070 1.0090 1.0090
1020.331437 1.0090 1.0090 1.0090 1.0110 1.0130
1026.635621 1.0130 1.0130 1.0130 1.0130 1.0130
1032.939806 1.0130 1.0130 1.0150 1.0150 1.0150
1039.243991 1.0130 1.0110 1.0090 1.0090 1.0090
1045.548175 1.0070 1.0070 1.0050 1.0030 1.0010
1051.852360 1.0000 0.9980 0.9940 0.9880 0.9840
1058.156545 0.9820 0.9720 0.9680 0.9620 0.9501
1064.460729 0.9380 0.9180 0.9000 0.8820 0.8611
1070.764914 0.8411 0.8171 0.7911 0.7592 0.7163
1077.069099 0.6640 0.6150 0.5671 0.5570 0.5470
1083.373283 0.4942 0.4602 0.4123 0.3822 0.3651
1089.677468 0.3530 0.3430 0.3410 0.3430 0.3430
1095.981653 0.3470 0.3570 0.3630 0.3630 0.3412
1102.285837 0.3190 0.2830 0.1921 0.1920 0.2728
1108.590022 0.6926 0.6940 0.5736 0.5193 0.4664
1114.894207 0.3840 0.2551 0.2400 0.2280 0.2280
1121.198391 0.2380 0.2629 0.2809 0.3188 0.3796
1127.502576 0.4260 0.4740 0.4960 0.5728 0.6209
1133.806761 0.6638 0.6978 0.7278 0.7360 0.7479
1140.110945 0.7550 0.7550 0.7460 0.7280 0.7100
1146.415130 0.6801 0.6501 0.6231 0.5812 0.5651
1152.719315 0.4880 0.4100 0.3711 0.3570 0.3331
1159.023500 0.2872 0.2462 0.2082 0.1842 0.1304
1165.327684 0.1170 0.1050 0.1010 0.0950 0.0890
1171.631869 0.0830 0.0810 0.0830 0.1029 0.1030
1177.936054 0.0930 0.0810 0.0650 0.0350 0.1108
1184.240238 0.2077 0.2080 0.1821 0.1383 0.1152
1190.544423 0.0890 0.0790 0.0630 0.0530 0.0530
1196.848608 0.0550 0.0570 0.0650 0.1028 0.1169
1203.152792 0.1621 0.2440 0.3349 0.3530 0.3819
1209.456977 0.4378 0.5844 0.6377 0.6798 0.7138
1215.761162 0.7670 0.7810 0.7990 0.8170 0.8350
1222.065346 0.8410 0.8490 0.8550 0.8610 0.8650
1228.369531 0.8690 0.8710 0.8730 0.8750 0.8780
1234.673716 0.8840 0.8880 0.8880 0.8900 0.8940
1240.977900 0.8940 0.8960 0.8980 0.9100 0.9260
1247.282085 0.9320 0.9380 0.9400 0.9400 0.9380
1253.586270 0.9380 0.9200 0.9180 0.9180 0.9180
1259.890454 0.9180 0.9200 0.9240 0.9280 0.9340
1266.194639 0.9380 0.9420 0.9480 0.9500 0.9560
1272.498824 0.9600 0.9620 0.9640 0.9660 0.9680
1278.803008 0.9700 0.9720 0.9720 0.9740 0.9740
1285.107193 0.9760 0.9780 0.9780 0.9800 0.9820
1291.411378 0.9820 0.9820 0.9840 0.9840 0.9860
1297.715562 0.9860 0.9860 0.9880 0.9880 0.9880
1304.019747 0.9900 0.9900 0.9920 0.9920 0.9920
1310.323932 0.9920 0.9900 0.9900 0.9920 0.9940
1316.628117 0.9940 0.9940 0.9920 0.9900 0.9900
1322.932301 0.9900 0.9900 0.9900 0.9900 0.9900
1329.236486 0.9900 0.9920 0.9920 0.9920 0.9920
1335.540671 0.9940 0.9940 0.9940 0.9940 0.9940
1341.844855 0.9920 0.9920 0.9920 0.9900 0.9900
1348.149040 0.9880 0.9860 0.9860 0.9820 0.9820
1354.453225 0.9760 0.9740 0.9700 0.9660 0.9620
1360.757409 0.9600 0.9600 0.9600 0.9600 0.9600
1367.061594 0.9600 0.9620 0.9620 0.9640 0.9660
1373.365779 0.9680 0.9700 0.9720 0.9720 0.9720
1379.669963 0.9720 0.9720 0.9720 0.9720 0.9700
1385.974148 0.9700 0.9700 0.9680 0.9680 0.9660
1392.278333 0.9640 0.9620 0.9620 0.9600 0.9580
1398.582517 0.9540 0.9500 0.9480 0.9440 0.9400
1404.886702 0.9340 0.9320 0.9280 0.9240 0.9220
1411.190887 0.9180 0.9160 0.9120 0.9100 0.9060
1417.495071 0.9000 0.8960 0.8960 0.8940 0.8940
1423.799256 0.8900 0.8880 0.8820 0.8750 0.8690
1430.103441 0.8590 0.8550 0.8350 0.8330 0.8290
1436.407625 0.8170 0.8011 0.7811 0.7711 0.7611
1442.711810 0.7500 0.7480 0.7440 0.7300 0.7140
1449.015995 0.7100 0.6921 0.6154 0.5355 0.5112
1455.320179 0.5050 0.5110 0.5630 0.5850 0.5810
1461.624364 0.5650 0.5511 0.5371 0.5529 0.5669
1467.928549 0.5690 0.5750 0.5790 0.5930 0.6070
1474.232734 0.6090 0.6190 0.6260 0.6379 0.6499
1480.536918 0.6660 0.6840 0.7020 0.7120 0.7160
1486.841103 0.7280 0.7360 0.7479 0.7609 0.7709
1493.145288 0.7830 0.7890 0.7990 0.8070 0.8170
1499.449472 0.8250 0.8350 0.8430 0.8490 0.8550
1505.753657 0.8610 0.8750 0.8780 0.8840 0.8880
1512.057842 0.8960 0.9060 0.9080 0.9160 0.9200
1518.362026 0.9280 0.9320 0.9360 0.9380 0.9420
1524.666211 0.9460 0.9520 0.9560 0.9600 0.9620
1530.970396 0.9620 0.9680 0.9700 0.9720 0.9740
1537.274580 0.9740 0.9760 0.9760 0.9780 0.9800
1543.578765 0.9800 0.9820 0.9840 0.9860 0.9920
1549.882950 0.9920 0.9940 0.9940 0.9920 0.9920
1556.187134 0.9920 0.9920 0.9920 0.9920 0.9920
1562.491319 0.9920 0.9920 0.9920 0.9920 0.9920
1568.795504 0.9920 0.9900 0.9880 0.9860 0.9860
1575.099688 0.9860 0.9860 0.9860 0.9840 0.9840
1581.403873 0.9860 0.9880 0.9900 0.9920 0.9920
1587.708058 0.9920 0.9900 0.9880 0.9860 0.9880
1594.012242 0.9880 0.9900 0.9920 0.9920 0.9920
1600.316427 0.9900 0.9880 0.9880 0.9880 0.9880
1606.620612 0.9880 0.9880 0.9880 0.9900 0.9900
1612.924797 0.9900 0.9900 0.9900 0.9900 0.9900
1619.228981 0.9900 0.9920 0.9940 0.9940 0.9940
1625.533166 0.9940 0.9940 0.9940 0.9940 0.9920
1631.837351 0.9920 0.9920 0.9940 0.9920 0.9920
1638.141535 0.9920 0.9920 0.9920 0.9900 0.9900
1644.445720 0.9900 0.9900 0.9900 0.9900 0.9900
1650.749905 0.9940 0.9960 0.9960 0.9960 0.9980
1657.054089 0.9980 0.9980 0.9980 0.9980 0.9980
1663.358274 0.9980 0.9980 0.9980 0.9980 0.9980
1669.662459 0.9960 0.9960 0.9980 0.9980 1.0000
1675.966643 1.0000 1.0000 1.0000 1.0000 0.9980
1682.270828 0.9960 0.9960 0.9960 0.9980 1.0010
1688.575013 1.0010 1.0010 1.0010 1.0010 1.0010
1694.879197 1.0010 1.0010 1.0010 1.0000 1.0000
1701.183382 1.0000 1.0000 1.0000 1.0000 0.9980
1707.487567 0.9980 0.9960 0.9960 0.9960 0.9940
1713.791751 0.9940 0.9960 0.9980 1.0000 1.0000
1720.095936 1.0000 0.9980 0.9980 0.9980 0.9980
1726.400121 0.9980 0.9980 0.9980 0.9960 0.9960
1732.704305 0.9940 0.9940 0.9940 0.9940 0.9960
1739.008490 0.9980 0.9980 1.0000 1.0000 1.0000
1745.312675 1.0010 1.0010 1.0030 1.0030 1.0030
1751.616859 1.0030 1.0030 1.0030 1.0030 1.0030
1757.921044 1.0030 1.0030 1.0010 1.0010 1.0010
1764.225229 1.0000 1.0000 1.0000 0.9980 0.9980
1770.529414 0.9980 0.9980 0.9980 1.0000 1.0000
1776.833598 1.0000 1.0010 1.0010 1.0010 1.0010
1783.137783 1.0010 1.0010 1.0010 1.0030 1.0030
1789.441968 1.0030 1.0030 1.0010 1.0010 1.0010
1795.746152 1.0010 1.0010 1.0010 1.0030 1.0030
1802.050337 1.0030 1.0030 1.0030 1.0030 1.0030
1808.354522 1.0010 1.0010 1.0010 1.0000 1.0000
1814.658706 1.0000 1.0000 1.0000 1.0000 1.0000
1820.962891 1.0000 0.9980 0.9980 0.9980 0.9980
1827.267076 0.9980 0.9980 0.9980 0.9980 0.9960
1833.571260 0.9960 0.9980 0.9980 0.9980 0.9980
1839.875445 0.9960 0.9960 0.9960 0.9960 0.9960
1846.179630 0.9960 0.9960 0.9960 0.9960 0.9960
1852.483814 0.9960 0.9960 0.9960 0.9980 0.9980
1858.787999 0.9980 0.9980 0.9980 0.9960 0.9960
1865.092184 0.9960 0.9960 0.9940 0.9940 0.9920
1871.396368 0.9920 0.9940 0.9940 0.9940 0.9940
1877.700553 0.9940 0.9960 0.9960 0.9980 0.9980
1884.004738 0.9980 0.9980 0.9980 0.9980 0.9980
1890.308922 0.9980 0.9980 1.0000 1.0000 1.0000
1896.613107 1.0000 1.0000 1.0000 1.0000 1.0000
1902.917292 1.0000 1.0000 1.0000 1.0000 1.0000
1909.221476 1.0000 1.0000 1.0000 0.9980 0.9980
1915.525661 0.9980 0.9980 0.9980 0.9980 1.0000
1921.829846 1.0000 1.0000 1.0000 1.0000 1.0000
1928.134031 1.0000 1.0000 1.0000 1.0000 1.0000
1934.438215 1.0000 1.0000 1.0000 1.0000 1.0000
1940.742400 1.0000 1.0000 1.0000 1.0000 1.0000
1947.046585 1.0000 1.0000 1.0000 1.0000 1.0000
1953.350769 1.0000 1.0000 1.0000 0.9980 0.9980
1959.654954 0.9980 0.9980 0.9980 0.9980 0.9980
1965.959139 0.9980 0.9980 0.9980 0.9980 0.9980
1972.263323 0.9960 0.9960 0.9960 0.9960 0.9940
1978.567508 0.9940 0.9920 0.9920 0.9920 0.9900
1984.871693 0.9900 0.9900 0.9880 0.9880 0.9860
1991.175877 0.9860 0.9840 0.9820 0.9820 0.9820
1997.480062 0.9820 0.9820 0.9760 0.9730 0.9700
2003.784247 0.9680 0.9660 0.9650 0.9640 0.9620
2010.088431 0.9600 0.9590 0.9580 0.9580 0.9580
2016.392616 0.9580 0.9580 0.9570 0.9560 0.9550
2022.696801 0.9540 0.9540 0.9540 0.9540 0.9541
2029.000985 0.9551 0.9563 0.9603 0.9640 0.9640
2035.305170 0.9640 0.9640 0.9633 0.9543 0.9456
2041.609355 0.9406 0.9359 0.9349 0.9342 0.9362
2047.913539 0.9383 0.9413 0.9450 0.9530 0.9609
2054.217724 0.9679 0.9741 0.9751 0.9763 0.9783
2060.521909 0.9797 0.9777 0.9759 0.9749 0.9739
2066.826093 0.9729 0.9717 0.9697 0.9674 0.9634
2073.130278 0.9598 0.9588 0.9571 0.9521 0.9469
2079.434463 0.9409 0.9352 0.9312 0.9272 0.9232
2085.738648 0.9196 0.9176 0.9152 0.9112 0.9078
2092.042832 0.9068 0.9056 0.9036 0.9018 0.9008
2098.347017 0.8998 0.8988 0.8970 0.8930 0.8900
2104.651202 0.8900 0.8918 0.8988 0.9040 0.9040
2110.955386 0.9024 0.8964 0.8904 0.8844 0.8800
2117.259571 0.8800 0.8819 0.8889 0.8956 0.9016
2123.563756 0.9080 0.9151 0.9240 0.9370 0.9488
2129.867940 0.9578 0.9656 0.9706 0.9753 0.9793
2136.172125 0.9820 0.9820 0.9823 0.9833 0.9843
2142.476310 0.9853 0.9860 0.9860 0.9860 0.9860
2148.780494 0.9860 0.9860 0.9856 0.9846 0.9840
2155.084679 0.9840 0.9840 0.9840 0.9840 0.9840
2161.388864 0.9840 0.9840 0.9840 0.9840 0.9840
2167.693048 0.9840 0.9840 0.9840 0.9844 0.9854
2173.997233 0.9860 0.9860 0.9860 0.9860 0.9860
2180.301418 0.9860 0.9860 0.9860 0.9860 0.9860
2186.605602 0.9856 0.9846 0.9840 0.9840 0.9840
2192.909787 0.9840 0.9840 0.9840 0.9840 0.9840
2199.213972 0.9849 0.9870 0.9885 0.9895 0.9905
2205.518156 0.9915 0.9925 0.9935 0.9945 0.9955
2211.822341 0.9960 0.9960 0.9960 0.9960 0.9960
2218.126526 0.9960 0.9960 0.9960 0.9955 0.9945
2224.430710 0.9940 0.9940 0.9946 0.9956 0.9966
2230.734895 0.9976 0.9980 0.9980 0.9980 0.9980
2237.039080 0.9980 0.9980 0.9980 0.9980 0.9986
2243.343265 0.9996 1.0000 1.0000 1.0000 1.0000
2249.647449 1.0003 1.0008 1.0010 1.0010 1.0016
2255.951634 1.0026 1.0030 1.0030 1.0030 1.0030
2262.255819 1.0043 1.0063 1.0070 1.0070 1.0051
2268.560003 1.0021 1.0000 0.9985 0.9961 0.9931
2274.864188 0.9962 1.0029 1.0043 1.0033 1.0020
2281.168373 1.0005 1.0000 1.0000 1.0000 1.0000
2287.472557 0.9979 0.9949 0.9954 0.9974 0.9980
2293.776742 0.9980 0.9973 0.9963 0.9960 0.9960
2300.080927 0.9967 0.9977 0.9980 0.9980 0.9980
2306.385111 0.9980 0.9973 0.9963 0.9945 0.9925
2312.689296 0.9976 1.0051 1.0138 1.0228 1.0227
2318.993481 1.0197 1.0122 1.0032 1.0006 1.0001
2325.297665 0.9992 0.9982 0.9988 0.9998 1.0004
2331.601850 1.0009 1.0026 1.0046 1.0058 1.0068
2337.906035 1.0070 1.0070 1.0070 1.0070 1.0086
2344.210219 1.0106 1.0110 1.0110 1.0102 1.0092
2350.514404 1.0082 1.0071 1.0053 1.0033 1.0021
2356.818589 1.0011 1.0010 1.0010 1.0010 1.0010
2363.122773 1.0019 1.0029 1.0030 1.0030 1.0030
2369.426958 1.0030 1.0030 1.0030 1.0030 1.0030
2375.731143 1.0030 1.0030 1.0039 1.0049 1.0050
2382.035328 1.0050 1.0041 1.0031 1.0030 1.0030
2388.339512 1.0030 1.0030 1.0021 1.0011 1.0005
2394.643697 1.0000 0.9972 0.9942 0.9940 0.9940
2400.947882 0.9921 0.9900 0.9900 0.9900 0.9890
2407.252066 0.9880 0.9870 0.9860 0.9860 0.9860
2413.556251 0.9850 0.9840 0.9840 0.9840 0.9830
2419.860436 0.9820 0.9820 0.9820 0.9820 0.9820
2426.164620 0.9820 0.9820 0.9830 0.9840 0.9850
2432.468805 0.9861 0.9881 0.9903 0.9958 1.0011
2438.772990 1.0021 1.0030 1.0030 1.0030 1.0030
2445.077174 1.0031 1.0041 1.0051 1.0061 1.0070
2451.381359 1.0070 1.0070 1.0070 1.0070 1.0070
2457.685544 1.0070 1.0070 1.0070 1.0070 1.0070
2463.989728 1.0070 1.0070 1.0070 1.0070 1.0070
2470.293913 1.0070 1.0070 1.0070 1.0070 1.0070
2476.598098 1.0070 1.0070 1.0070 1.0068 1.0058
2482.902282 1.0050 1.0050 1.0050 1.0050 1.0050
2489.206467 1.0050 1.0050 1.0050 1.0050 1.0050
2495.510652 1.0048 1.0038 1.0030 1.0030 1.0030
2501.814836 1.0030 1.0030 1.0030 1.0030 1.0030
2508.119021 1.0030 1.0030 1.0028 1.0018 1.0010
2514.423206 1.0010 1.0010 1.0010 1.0010 1.0010
2520.727390 1.0010 1.0010 1.0009 1.0004 1.0000
2527.031575 1.0000 0.9997 0.9987 0.9977 0.9967
2533.335760 0.9960 0.9960 0.9957 0.9947 0.9937
2539.639945 0.9927 0.9920 0.9920 0.9920 0.9920
2545.944129 0.9917 0.9907 0.9903 0.9913 0.9917
2552.248314 0.9907 0.9900 0.9900 0.9897 0.9886
2558.552499 0.9880 0.9880 0.9880 0.9880 0.9876
2564.856683 0.9866 0.9860 0.9860 0.9856 0.9846
2571.160868 0.9840 0.9840 0.9840 0.9840 0.9836
2577.465053 0.9826 0.9816 0.9806 0.9800 0.9800
2583.769237 0.9792 0.9772 0.9756 0.9746 0.9736
2590.073422 0.9726 0.9716 0.9706 0.9700 0.9700
2596.377607 0.9700 0.9700 0.9700 0.9700 0.9700
2602.681791 0.9700 0.9700 0.9700 0.9700 0.9700
2608.985976 0.9700 0.9700 0.9700 0.9700 0.9700
2615.290161 0.9700 0.9700 0.9700 0.9705 0.9715
2621.594345 0.9720 0.9720 0.9720 0.9720 0.9725
2627.898530 0.9735 0.9740 0.9740 0.9740 0.9740
2634.202715 0.9740 0.9740 0.9740 0.9740 0.9740
2640.506899 0.9740 0.9740 0.9740 0.9746 0.9756
2646.811084 0.9760 0.9760 0.9760 0.9760 0.9771
2653.115269 0.9792 0.9800 0.9800 0.9800 0.9800
2659.419453 0.9800 0.9800 0.9800 0.9800 0.9800
2665.723638 0.9800 0.9788 0.9768 0.9748 0.9728
2672.027823 0.9720 0.9720 0.9714 0.9704 0.9694
2678.332007 0.9684 0.9667 0.9647 0.9627 0.9607
2684.636192 0.9593 0.9583 0.9580 0.9580 0.9573
2690.940377 0.9563 0.9560 0.9560 0.9560 0.9560
2697.244562 0.9567 0.9577 0.9580 0.9580 0.9587
2703.548746 0.9597 0.9607 0.9617 0.9620 0.9620
2709.852931 0.9627 0.9637 0.9654 0.9675 0.9687
2716.157116 0.9697 0.9700 0.9700 0.9707 0.9717
2722.461300 0.9735 0.9755 0.9767 0.9777 0.9780
2728.765485 0.9780 0.9780 0.9780 0.9772 0.9762
2735.069670 0.9744 0.9724 0.9720 0.9720 0.9712
2741.373854 0.9702 0.9700 0.9700 0.9692 0.9682
2747.678039 0.9680 0.9680 0.9672 0.9662 0.9644
2753.982224 0.9623 0.9595 0.9565 0.9552 0.9542
2760.286408 0.9515 0.9485 0.9446 0.9406 0.9366
2766.590593 0.9326 0.9286 0.9246 0.9197 0.9147
2772.894778 0.9063 0.8972 0.8925 0.8885 0.8788
2779.198962 0.8681 0.8535 0.8385 0.8235 0.8085
2785.503147 0.7767 0.7432 0.7055 0.6675 0.6289
2791.807332 0.5904 0.5696 0.5506 0.5316 0.5125
2798.111516 0.4765 0.4389 0.4032 0.3676 0.3123
2804.415701 0.2554 0.2487 0.2442 0.2493 0.2548
2810.719886 0.2608 0.2668 0.2709 0.2749 0.2609
2817.024070 0.2464 0.2294 0.2124 0.1954 0.1783
2823.328255 0.1760 0.1740 0.2494 0.3261 0.2613
2829.632440 0.1958 0.1838 0.1719 0.1659 0.1599
2835.936624 0.1569 0.1542 0.1602 0.1665 0.1815
2842.240809 0.1964 0.2084 0.2205 0.2346 0.2483
2848.544994 0.2548 0.2610 0.2620 0.2630 0.2619
2854.849179 0.2605 0.2540 0.2474 0.2404 0.2334
2861.153363 0.2264 0.2194 0.2124 0.2054 0.1983
2867.457548 0.1913 0.1843 0.1773 0.1703 0.1627
2873.761733 0.1496 0.1378 0.1358 0.1340 0.1340
2880.065917 0.1340 0.1340 0.1323 0.1208 0.1101
2886.370102 0.1041 0.0990 0.0990 0.0988 0.0978
2892.674287 0.0976 0.1016 0.1053 0.1073 0.1103
2898.978471 0.1183 0.1254 0.1279 0.1303 0.1324
2905.282656 0.1346 0.1376 0.1402 0.1412 0.1420
2911.586841 0.1420 0.1418 0.1408 0.1396 0.1376
2917.891025 0.1356 0.1336 0.1318 0.1308 0.1300
2924.195210 0.1300 0.1302 0.1312 0.1325 0.1345
2930.499395 0.1365 0.1385 0.1413 0.1463 0.1513
2936.803579 0.1564 0.1608 0.1638 0.1688 0.1788
2943.107764 0.1905 0.2065 0.2220 0.2360 0.2481
2949.411949 0.2557 0.2636 0.2726 0.2826 0.2948
2955.716133 0.3066 0.3176 0.3309 0.3489 0.3623
2962.020318 0.3663 0.3690 0.3690 0.3690 0.3690
2968.324503 0.3683 0.3663 0.3581 0.3381 0.3163
2974.628687 0.2913 0.2722 0.2642 0.2567 0.2501
2980.932872 0.2452 0.2432 0.2428 0.2448 0.2482
2987.237057 0.2537 0.2625 0.2766 0.2914 0.3074
2993.541241 0.3178 0.3198 0.3210 0.3210 0.3165
2999.845426 0.3055 0.2961 0.2891 0.2846 0.2836
3006.149611 0.2834 0.2844 0.2859 0.2879 0.2917
3012.453796 0.2977 0.3037 0.3098 0.3181 0.3291
3018.757980 0.3433 0.3614 0.3773 0.3908 0.4457
3025.062165 0.5474 0.6173 0.6519 0.6840 0.7135
3031.366350 0.7405 0.7650 0.7847 0.7997 0.8132
3037.670534 0.8252 0.8336 0.8386 0.8473 0.8593
3043.974719 0.8684 0.8749 0.8796 0.8826 0.8851
3050.278904 0.8871 0.8901 0.8941 0.8987 0.9038
3056.583088 0.9066 0.9076 0.9097 0.9127 0.9152
3062.887273 0.9172 0.9203 0.9243 0.9277 0.9308
3069.191458 0.9326 0.9336 0.9340 0.9340 0.9352
3075.495642 0.9372 0.9380 0.9380 0.9380 0.9380
3081.799827 0.9386 0.9396 0.9406 0.9416 0.9420
3088.104012 0.9420 0.9426 0.9436 0.9440 0.9440
3094.408196 0.9446 0.9456 0.9460 0.9460 0.9460
3100.712381 0.9460 0.9460 0.9460 0.9467 0.9477
3107.016566 0.9480 0.9480 0.9480 0.9480 0.9480
3113.320750 0.9480 0.9480 0.9480 0.9487 0.9497
3119.624935 0.9500 0.9500 0.9507 0.9517 0.9527
3125.929120 0.9537 0.9547 0.9557 0.9560 0.9560
3132.233304 0.9560 0.9560 0.9560 0.9560 0.9568
3138.537489 0.9578 0.9580 0.9580 0.9580 0.9580
3144.841674 0.9580 0.9580 0.9588 0.9598 0.9600
3151.145859 0.9600 0.9600 0.9600 0.9608 0.9618
3157.450043 0.9628 0.9638 0.9640 0.9640 0.9648
3163.754228 0.9658 0.9668 0.9678 0.9680 0.9680
3170.058413 0.9680 0.9680 0.9680 0.9680 0.9680
3176.362597 0.9680 0.9680 0.9680 0.9680 0.9680
3182.666782 0.9680 0.9680 0.9689 0.9699 0.9700
3188.970967 0.9700 0.9709 0.9719 0.9729 0.9739
3195.275151 0.9758 0.9778 0.9780 0.9780 0.9780
3201.579336 0.9780 0.9789 0.9799 0.9800 0.9800
3207.883521 0.9800 0.9800 0.9800 0.9800 0.9800
3214.187705 0.9800 0.9800 0.9800 0.9800 0.9800
3220.491890 0.9810 0.9820 0.9820 0.9820 0.9830
3226.796075 0.9840 0.9840 0.9840 0.9840 0.9840
3233.100259 0.9850 0.9860 0.9860 0.9860 0.9860
3239.404444 0.9860 0.9870 0.9880 0.9880 0.9880
3245.708629 0.9890 0.9900 0.9900 0.9900 0.9900
3252.012813 0.9900 0.9900 0.9900 0.9890 0.9880
3258.316998 0.9880 0.9881 0.9891 0.9900 0.9900
3264.621183 0.9900 0.9900 0.9900 0.9900 0.9900
3270.925367 0.9900 0.9900 0.9900 0.9901 0.9911
3277.229552 0.9920 0.9920 0.9919 0.9909 0.9900
3283.533737 0.9900 0.9900 0.9900 0.9900 0.9900
3289.837921 0.9900 0.9900 0.9900 0.9900 0.9900
3296.142106 0.9900 0.9900 0.9900 0.9900 0.9900
3302.446291 0.9900 0.9900 0.9900 0.9900 0.9900
3308.750476 0.9900 0.9900 0.9900 0.9900 0.9900
3315.054660 0.9900 0.9900 0.9900 0.9900 0.9900
3321.358845 0.9900 0.9902 0.9912 0.9920 0.9920
3327.663030 0.9918 0.9908 0.9900 0.9900 0.9898
3333.967214 0.9888 0.9880 0.9880 0.9880 0.9880
3340.271399 0.9880 0.9880 0.9880 0.9880 0.9880
3346.575584 0.9880 0.9880 0.9880 0.9883 0.9893
3352.879768 0.9900 0.9900 0.9900 0.9900 0.9900
3359.183953 0.9900 0.9900 0.9900 0.9900 0.9900
3365.488138 0.9900 0.9900 0.9903 0.9913 0.9920
3371.792322 0.9920 0.9920 0.9920 0.9920 0.9920
3378.096507 0.9920 0.9920 0.9927 0.9947 0.9964
3384.400692 0.9974 0.9980 0.9980 0.9980 0.9980
3390.704876 0.9980 0.9980 0.9980 0.9980 0.9980
3397.009061 0.9980 0.9984 0.9994 1.0000 1.0000
3403.313246 1.0000 1.0000 1.0000 1.0000 1.0000
3409.617430 1.0000 1.0000 1.0000 1.0000 1.0000
3415.921615 1.0000 1.0000 1.0000 1.0000 1.0000
3422.225800 1.0000 1.0000 1.0000 1.0000 1.0000
3428.529984 1.0002 1.0007 1.0010 1.0010 1.0010
3434.834169 1.0010 1.0010 1.0010 1.0010 1.0010
3441.138354 1.0010 1.0010 1.0010 1.0010 1.0010
3447.442538 1.0010 1.0010 1.0010 1.0010 1.0010
3453.746723 1.0015 1.0025 1.0030 1.0030 1.0030
3460.050908 1.0030 1.0030 1.0030 1.0030 1.0030
3466.355093 1.0030 1.0030 1.0030 1.0030 1.0030
3472.659277 1.0030 1.0030 1.0030 1.0030 1.0030
3478.963462 1.0024 1.0014 1.0010 1.0010 1.0016
3485.267647 1.0026 1.0030 1.0030 1.0030 1.0030
3491.571831 1.0024 1.0014 1.0010 1.0010 1.0010
3497.876016 1.0010 1.0010 1.0010 1.0010 1.0010
3504.180201 1.0010 1.0010 1.0016 1.0027 1.0030
3510.484385 1.0030 1.0023 1.0013 1.0010 1.0010
3516.788570 1.0010 1.0010 1.0010 1.0010 1.0010
3523.092755 1.0010 1.0010 1.0010 1.0010 1.0010
3529.396939 1.0010 1.0010 1.0010 1.0010 1.0006
3535.701124 1.0001 1.0000 1.0000 1.0000 1.0000
3542.005309 1.0000 1.0000 1.0000 1.0000 1.0000
3548.309493 1.0000 1.0000 1.0000 1.0000 1.0000
3554.613678 1.0004 1.0009 1.0010 1.0010 1.0010
3560.917863 1.0010 1.0010 1.0010 1.0010 1.0010
3567.222047 1.0010 1.0010 1.0010 1.0010 1.0010
3573.526232 1.0010 1.0010 1.0010 1.0010 1.0010
3579.830417 1.0010 1.0010 1.0006 1.0001 1.0000
3586.134601 1.0000 1.0000 1.0000 1.0000 1.0000
3592.438786 1.0000 1.0000 1.0000 1.0000 1.0000
3598.742971 1.0000 1.0000 1.0000 1.0000 1.0000
3605.047155 0.9991 0.9981 0.9980 0.9980 0.9980
3611.351340 0.9980 0.9980 0.9980 0.9980 0.9980
3617.655525 0.9980 0.9980 0.9980 0.9980 0.9980
3623.959710 0.9980 0.9980 0.9980 0.9980 0.9980
3630.263894 0.9980 0.9980 0.9980 0.9980 0.9980
3636.568079 0.9980 0.9980 0.9980 0.9980 0.9980
3642.872264 0.9970 0.9960 0.9960 0.9960 0.9960
3649.176448 0.9960 0.9960 0.9960 0.9960 0.9960
3655.480633 0.9960 0.9960 0.9960 0.9960 0.9960
3661.784818 0.9960 0.9960 0.9960 0.9960 0.9960
3668.089002 0.9960 0.9960 0.9949 0.9940 0.9940
3674.393187 0.9940 0.9940 0.9940 0.9940 0.9940
3680.697372 0.9940 0.9940 0.9940 0.9939 0.9929
3687.001556 0.9920 0.9920 0.9920 0.9920 0.9920
3693.305741 0.9920 0.9919 0.9909 0.9900 0.9900
3699.609926 0.9900 0.9900 0.9900 0.9900 0.9899
3705.914110 0.9889 0.9880 0.9880 0.9880 0.9880
3712.218295 0.9878 0.9868 0.9860 0.9860 0.9860
3718.522480 0.9860 0.9860 0.9860 0.9858 0.9848
3724.826664 0.9840 0.9840 0.9838 0.9828 0.9820
3731.130849 0.9820 0.9820 0.9820 0.9820 0.9820
3737.435034 0.9818 0.9808 0.9800 0.9800 0.9800
3743.739218 0.9800 0.9798 0.9788 0.9780 0.9780
3750.043403 0.9782 0.9792 0.9802 0.9812 0.9822
3756.347588 0.9832 0.9843 0.9853 0.9860 0.9860
3762.651773 0.9863 0.9873 0.9883 0.9893 0.9900
3768.955957 0.9900 0.9900 0.9900 0.9900 0.9900
3775.260142 0.9900 0.9900 0.9897 0.9887 0.9880
3781.564327 0.9880 0.9880 0.9880 0.9877 0.9867
3787.868511 0.9857 0.9847 0.9837 0.9826 0.9813
3794.172696 0.9793 0.9766 0.9726 0.9700 0.9700
##END=
