##TITLE=2-PHENOXY-3-BENZOYL PYRAZINE PHENYL HYDRAZONE
##JCAMP-DX=4.24
##DATA TYPE=INFRARED SPECTRUM
##CLASS=COBLENTZ
##ORIGIN=WYANDOTTE CHEMICALS CORP., WYANDOTTE, MICHIGAN, USA
##OWNER=COBLENTZ SOCIETY
Collection (C) 2018 copyright by the U.S. Secretary of Commerce
on behalf of the United States of America. All rights reserved.
##DATE=Not specified, most likely prior to 1970
##NAMES=(E)-(3-phenoxy-2-pyrazinyl)(phenyl)methanone phenylhydrazone
##CAS REGISTRY NO=116660-00-5
##MOLFORM=C23 H18 N4 O
##MP=136-137.5 C
##SOURCE REFERENCE=COBLENTZ NO. 2918
##$NIST SOURCE=COBLENTZ
##$NIST IMAGE=cob2918
##SPECTROMETER/DATA SYSTEM=Not specified, most likely a prism, grating, or hybrid spectrometer.
##STATE=SOLID (MINERAL OIL MULL)
##PATH LENGTH=
$$SPECTRAL CONTAMINATION DUE TO OIL AROUND 2900 CM^-^1
##SAMPLING PROCEDURE=TRANSMISSION
##RESOLUTION=4
##DATA PROCESSING=DIGITIZED BY NIST FROM HARD COPY
##XUNITS=MICROMETERS
##YUNITS=TRANSMITTANCE
##XFACTOR=1.000000
##YFACTOR=1
##DELTAX=000.006632
##FIRSTX=2.027
##LASTX=15.9938
##FIRSTY=0.318
##MAXX=15.9938
##MINX=2.027
##MAXY=0.935
##MINY=0.038
##NPOINTS=2107
##XYDATA=(X++(Y..Y))
2.027000 0.3180 0.3200 0.3250 0.3280 0.3300
2.060175 0.3300 0.3310 0.3330 0.3360 0.3380
2.093000 0.3380 0.3380 0.3380 0.3380 0.3380
2.126175 0.3430 0.3460 0.3480 0.3480 0.3460
2.159000 0.3430 0.3410 0.3410 0.3410 0.3410
2.192175 0.3410 0.3410 0.3430 0.3430 0.3440
2.225000 0.3440 0.3460 0.3460 0.3480 0.3480
2.258175 0.3480 0.3490 0.3510 0.3540 0.3580
2.292000 0.3590 0.3590 0.3610 0.3610 0.3630
2.325175 0.3630 0.3640 0.3640 0.3640 0.3640
2.358000 0.3680 0.3690 0.3710 0.3740 0.3780
2.391175 0.3810 0.3810 0.3860 0.3910 0.3930
2.424000 0.3930 0.3940 0.3960 0.3960 0.3960
2.457175 0.3960 0.3960 0.3960 0.3980 0.3990
2.491000 0.3990 0.3990 0.4010 0.4020 0.4060
2.524175 0.4110 0.4160 0.4170 0.4170 0.4170
2.557000 0.4170 0.4170 0.4170 0.4170 0.4190
2.590175 0.4220 0.4240 0.4240 0.4270 0.4290
2.623000 0.4310 0.4310 0.4310 0.4310 0.4310
2.656175 0.4310 0.4320 0.4340 0.4360 0.4370
2.690000 0.4390 0.4390 0.4390 0.4390 0.4410
2.723175 0.4410 0.4420 0.4440 0.4470 0.4470
2.756000 0.4490 0.4490 0.4510 0.4520 0.4520
2.789175 0.4520 0.4520 0.4520 0.4520 0.4520
2.822000 0.4520 0.4520 0.4520 0.4540 0.4540
2.855175 0.4560 0.4560 0.4560 0.4540 0.4520
2.889000 0.4520 0.4520 0.4540 0.4560 0.4560
2.922175 0.4570 0.4570 0.4570 0.4570 0.4570
2.955000 0.4570 0.4570 0.4570 0.4570 0.4560
2.988175 0.4560 0.4520 0.4440 0.4340 0.4140
3.021000 0.3890 0.3480 0.3460 0.3480 0.3790
3.054175 0.3980 0.4140 0.4240 0.4270 0.4290
3.088000 0.4320 0.4340 0.4340 0.4360 0.4360
3.121175 0.4360 0.4370 0.4420 0.4440 0.4460
3.154000 0.4460 0.4460 0.4460 0.4440 0.4440
3.187175 0.4420 0.4410 0.4390 0.4310 0.4220
3.220000 0.4120 0.3890 0.3760 0.3630 0.3360
3.253175 0.3300 0.3280 0.3300 0.3330 0.3310
3.287000 0.3280 0.3050 0.2760 0.2570 0.2370
3.320175 0.1800 0.1310 0.0890 0.0610 0.0460
3.353000 0.0390 0.0380 0.0380 0.0380 0.0390
3.386175 0.0390 0.0410 0.0430 0.0440 0.0460
3.419000 0.0480 0.0510 0.0560 0.0590 0.0610
3.452175 0.0670 0.0670 0.0640 0.0630 0.0630
3.486000 0.0640 0.0770 0.1060 0.1470 0.1970
3.519175 0.3160 0.3810 0.4420 0.4990 0.5420
3.552000 0.5500 0.5570 0.5650 0.5770 0.5830
3.585175 0.5870 0.6000 0.6030 0.6010 0.6000
3.618000 0.5980 0.5970 0.5930 0.5920 0.5920
3.651175 0.5880 0.5870 0.5850 0.5870 0.5900
3.685000 0.5950 0.5970 0.5980 0.5970 0.5950
3.718175 0.5950 0.5980 0.5980 0.6000 0.6000
3.751000 0.6010 0.6030 0.6060 0.6080 0.6080
3.784175 0.6100 0.6110 0.6110 0.6150 0.6160
3.817000 0.6160 0.6160 0.6180 0.6180 0.6180
3.850175 0.6200 0.6200 0.6230 0.6260 0.6280
3.883000 0.6310 0.6310 0.6310 0.6310 0.6350
3.916175 0.6360 0.6400 0.6450 0.6480 0.6510
3.950000 0.6510 0.6510 0.6510 0.6510 0.6550
3.983175 0.6550 0.6560 0.6600 0.6630 0.6650
4.016000 0.6660 0.6660 0.6680 0.6680 0.6680
4.049175 0.6660 0.6650 0.6630 0.6610 0.6610
4.082000 0.6630 0.6650 0.6680 0.6690 0.6690
4.115175 0.6690 0.6690 0.6690 0.6690 0.6710
4.149000 0.6730 0.6780 0.6790 0.6810 0.6810
4.182175 0.6810 0.6810 0.6790 0.6790 0.6780
4.215000 0.6740 0.6710 0.6680 0.6650 0.6650
4.248175 0.6630 0.6630 0.6650 0.6650 0.6680
4.281000 0.6710 0.6740 0.6780 0.6830 0.6860
4.314175 0.6880 0.6910 0.6960 0.6980 0.7010
4.348000 0.7080 0.7090 0.7130 0.7160 0.7180
4.381175 0.7190 0.7210 0.7230 0.7230 0.7190
4.414000 0.7180 0.7140 0.7140 0.7130 0.7130
4.447175 0.7160 0.7180 0.7190 0.7190 0.7190
4.480000 0.7210 0.7210 0.7210 0.7310 0.7310
4.513175 0.7280 0.7210 0.7210 0.7230 0.7280
4.547000 0.7280 0.7290 0.7310 0.7340 0.7360
4.580175 0.7360 0.7360 0.7370 0.7370 0.7390
4.613000 0.7390 0.7410 0.7410 0.7410 0.7420
4.646175 0.7440 0.7440 0.7440 0.7420 0.7420
4.679000 0.7420 0.7410 0.7410 0.7410 0.7420
4.712175 0.7420 0.7470 0.7470 0.7490 0.7520
4.746000 0.7540 0.7570 0.7590 0.7590 0.7590
4.779175 0.7610 0.7620 0.7640 0.7670 0.7690
4.812000 0.7690 0.7670 0.7670 0.7670 0.7670
4.845175 0.7670 0.7690 0.7710 0.7720 0.7720
4.878000 0.7720 0.7720 0.7720 0.7740 0.7790
4.911175 0.7810 0.7820 0.7840 0.7870 0.7890
4.945000 0.7910 0.7890 0.7860 0.7860 0.7840
4.978175 0.7840 0.7840 0.7860 0.7910 0.7910
5.011000 0.7910 0.7910 0.7910 0.7910 0.7910
5.044175 0.7890 0.7890 0.7890 0.7870 0.7870
5.077000 0.7870 0.7870 0.7870 0.7890 0.7890
5.110175 0.7860 0.7820 0.7790 0.7740 0.7690
5.144000 0.7610 0.7590 0.7610 0.7610 0.7640
5.177175 0.7690 0.7710 0.7720 0.7740 0.7740
5.210000 0.7740 0.7760 0.7760 0.7770 0.7790
5.243175 0.7810 0.7810 0.7820 0.7820 0.7820
5.276000 0.7820 0.7870 0.7890 0.7920 0.7920
5.309175 0.7920 0.7940 0.7960 0.7970 0.7990
5.342000 0.7990 0.8000 0.8000 0.8040 0.8050
5.375175 0.8090 0.8100 0.8120 0.8120 0.8120
5.409000 0.8120 0.8100 0.8090 0.8090 0.8090
5.442175 0.8100 0.8120 0.8140 0.8140 0.8100
5.475000 0.8070 0.8070 0.8070 0.8070 0.8070
5.508175 0.8090 0.8090 0.8090 0.8070 0.8070
5.541000 0.8070 0.8070 0.8100 0.8100 0.8140
5.574175 0.8150 0.8190 0.8190 0.8220 0.8220
5.608000 0.8200 0.8200 0.8220 0.8240 0.8250
5.641175 0.8250 0.8290 0.8300 0.8320 0.8300
5.674000 0.8190 0.8170 0.8190 0.8240 0.8290
5.707175 0.8300 0.8350 0.8350 0.8290 0.8290
5.740000 0.8250 0.8190 0.8170 0.8190 0.8190
5.773175 0.8190 0.8190 0.8170 0.8150 0.8170
5.807000 0.8190 0.8220 0.8240 0.8200 0.8190
5.840175 0.8150 0.8140 0.8150 0.8200 0.8250
5.873000 0.8340 0.8350 0.8340 0.8250 0.8100
5.906175 0.8090 0.8090 0.8140 0.8190 0.8200
5.939000 0.8200 0.8220 0.8220 0.8240 0.8250
5.972175 0.8270 0.8290 0.8270 0.8250 0.8220
6.006000 0.8170 0.8140 0.8140 0.8190 0.8220
6.039175 0.8240 0.8250 0.8240 0.8200 0.8140
6.072000 0.8100 0.8090 0.8070 0.8050 0.8040
6.105175 0.8040 0.8040 0.8020 0.7960 0.7810
6.138000 0.7640 0.7520 0.7390 0.6250 0.5520
6.171175 0.5170 0.4800 0.4070 0.3340 0.2830
6.205000 0.2300 0.2300 0.2630 0.2750 0.3030
6.238175 0.3440 0.3910 0.4240 0.4570 0.4590
6.271000 0.4560 0.4540 0.4540 0.4570 0.4950
6.304175 0.5630 0.5700 0.5720 0.5680 0.5480
6.337000 0.5290 0.5140 0.4970 0.4590 0.4210
6.370175 0.3840 0.3490 0.3440 0.3440 0.3580
6.404000 0.4010 0.4260 0.4460 0.4660 0.4820
6.437175 0.5250 0.5480 0.5730 0.5880 0.6000
6.470000 0.6010 0.6000 0.5750 0.5620 0.5430
6.503175 0.5220 0.5070 0.5020 0.4970 0.4870
6.536000 0.4800 0.4610 0.4310 0.3980 0.3640
6.569175 0.3380 0.3210 0.3150 0.3010 0.2850
6.603000 0.2620 0.2380 0.1500 0.1290 0.1290
6.636175 0.1370 0.1500 0.1570 0.1570 0.1490
6.669000 0.1470 0.1470 0.1490 0.1590 0.1750
6.702175 0.2030 0.2430 0.2660 0.2760 0.2860
6.735000 0.2900 0.2910 0.2880 0.2710 0.2550
6.768175 0.2370 0.2000 0.1720 0.1520 0.1310
6.802000 0.1090 0.1010 0.1010 0.1110 0.1340
6.835175 0.1540 0.1740 0.1950 0.1990 0.2000
6.868000 0.2020 0.2020 0.2070 0.2120 0.2270
6.901175 0.2800 0.3080 0.3300 0.3490 0.3760
6.934000 0.4190 0.4660 0.5480 0.5770 0.6030
6.967175 0.6330 0.6430 0.6500 0.6500 0.6400
7.000000 0.6200 0.6110 0.6030 0.5600 0.4950
7.033175 0.4290 0.2850 0.2480 0.2120 0.2120
7.067000 0.2200 0.2980 0.3250 0.3440 0.3610
7.100175 0.3740 0.3990 0.4020 0.4020 0.3830
7.133000 0.3540 0.3180 0.2780 0.2470 0.2150
7.166175 0.1670 0.1350 0.1070 0.1040 0.1070
7.199000 0.1240 0.1370 0.1500 0.1670 0.1840
7.232175 0.1970 0.2000 0.2020 0.2070 0.2070
7.266000 0.2120 0.2230 0.2350 0.2900 0.3260
7.299175 0.3590 0.4010 0.4260 0.4540 0.4840
7.332000 0.5400 0.5480 0.5470 0.5100 0.4670
7.365175 0.4240 0.4160 0.4020 0.4010 0.4040
7.398000 0.4390 0.4700 0.5270 0.5370 0.5470
7.431175 0.5580 0.5630 0.5630 0.5580 0.5380
7.465000 0.5070 0.4890 0.4690 0.4470 0.4440
7.498175 0.4460 0.4570 0.4770 0.4990 0.5350
7.531000 0.5450 0.5480 0.5580 0.5700 0.5800
7.564175 0.5850 0.5850 0.5800 0.5290 0.5090
7.597000 0.4890 0.4460 0.4460 0.4460 0.4560
7.630175 0.4900 0.5650 0.5930 0.6080 0.6130
7.664000 0.6130 0.6100 0.6080 0.6050 0.6000
7.697175 0.6000 0.5980 0.5870 0.5770 0.5650
7.730000 0.5550 0.5430 0.5250 0.5040 0.4850
7.763175 0.4660 0.4060 0.3540 0.3080 0.2500
7.796000 0.2480 0.2470 0.2470 0.3000 0.3390
7.829175 0.3790 0.4060 0.4260 0.4590 0.4770
7.863000 0.4770 0.4770 0.4740 0.4720 0.4690
7.896175 0.4610 0.4420 0.4020 0.3590 0.3030
7.929000 0.2500 0.2280 0.2050 0.1690 0.1600
7.962175 0.1600 0.1790 0.2130 0.2750 0.3490
7.995000 0.3930 0.4040 0.4370 0.4570 0.4720
8.028175 0.4820 0.4970 0.5330 0.5470 0.5520
8.062000 0.5630 0.5750 0.5950 0.6150 0.6260
8.095175 0.6450 0.6550 0.6680 0.6730 0.6790
8.128000 0.6830 0.6840 0.6840 0.6810 0.6660
8.161175 0.6500 0.6480 0.6480 0.6500 0.6560
8.194000 0.6630 0.6780 0.6890 0.6960 0.6990
8.227175 0.7010 0.6990 0.6890 0.6630 0.6100
8.261000 0.5530 0.5170 0.4790 0.4010 0.3410
8.294175 0.3000 0.2750 0.2580 0.2520 0.2520
8.327000 0.2580 0.2620 0.2680 0.2850 0.3110
8.360175 0.3390 0.3690 0.3910 0.4290 0.4540
8.393000 0.4740 0.4970 0.5090 0.5070 0.4920
8.426175 0.4770 0.4610 0.4460 0.4390 0.4190
8.459000 0.4020 0.3890 0.3880 0.3890 0.4020
8.492175 0.4240 0.4390 0.4540 0.4640 0.4700
8.526000 0.4740 0.4720 0.4510 0.4190 0.3880
8.559175 0.3490 0.3180 0.2930 0.2800 0.2760
8.592000 0.2760 0.2780 0.2850 0.2860 0.2800
8.625175 0.2600 0.2500 0.2500 0.2570 0.2750
8.658000 0.3000 0.3230 0.3490 0.3810 0.4120
8.691175 0.4460 0.4740 0.4940 0.5380 0.5630
8.725000 0.5800 0.5900 0.6000 0.6130 0.6250
8.758175 0.6360 0.6450 0.6530 0.6580 0.6680
8.791000 0.6690 0.6730 0.6680 0.6300 0.5830
8.824175 0.5240 0.4870 0.4490 0.3840 0.3390
8.857000 0.3080 0.3000 0.3000 0.3030 0.3110
8.890175 0.3150 0.3110 0.3080 0.2960 0.2880
8.924000 0.2900 0.3100 0.3250 0.3430 0.3660
8.957175 0.3880 0.4040 0.4210 0.4360 0.4490
8.990000 0.4640 0.4770 0.4900 0.5200 0.5320
9.023175 0.5370 0.5380 0.5420 0.5530 0.5700
9.056000 0.5830 0.5930 0.6060 0.6180 0.6280
9.089175 0.6380 0.6480 0.6560 0.6660 0.6760
9.123000 0.6860 0.6880 0.6890 0.6940 0.7030
9.156175 0.7110 0.7140 0.7140 0.7160 0.7160
9.189000 0.7160 0.7160 0.7130 0.6980 0.6810
9.222175 0.6690 0.6600 0.6450 0.6380 0.6330
9.255000 0.6300 0.6230 0.6180 0.6030 0.5930
9.288175 0.5730 0.5380 0.5190 0.4990 0.4590
9.322000 0.4170 0.3890 0.3840 0.3860 0.4040
9.355175 0.4240 0.4590 0.4890 0.5430 0.5670
9.388000 0.5880 0.6100 0.6280 0.6450 0.6530
9.421175 0.6660 0.6790 0.6890 0.6980 0.6990
9.454000 0.7080 0.7110 0.7140 0.7180 0.7180
9.487175 0.7190 0.7210 0.7230 0.7240 0.7240
9.521000 0.7240 0.7190 0.7090 0.6940 0.6690
9.554175 0.6380 0.5930 0.5430 0.5330 0.5330
9.587000 0.5520 0.5750 0.6000 0.6380 0.6660
9.620175 0.6840 0.6960 0.7010 0.7060 0.7060
9.653000 0.7060 0.7060 0.7060 0.6990 0.6840
9.686175 0.6710 0.6600 0.6430 0.6400 0.6400
9.720000 0.6460 0.6630 0.6730 0.6780 0.6790
9.753175 0.6790 0.6780 0.6690 0.6680 0.6650
9.786000 0.6650 0.6810 0.7080 0.7260 0.7440
9.819175 0.7470 0.7490 0.7590 0.7690 0.7770
9.852000 0.7770 0.7790 0.7790 0.7790 0.7790
9.885175 0.7790 0.7770 0.7720 0.7640 0.7560
9.919000 0.7470 0.7180 0.6810 0.6260 0.6080
9.952175 0.6080 0.6250 0.6550 0.6790 0.6880
9.985000 0.6960 0.6960 0.6860 0.6660 0.6510
10.018175 0.6330 0.6150 0.6000 0.5980 0.6000
10.051000 0.6130 0.6280 0.6450 0.6610 0.6730
10.084175 0.6910 0.7030 0.7110 0.7160 0.7160
10.117000 0.7160 0.7060 0.6960 0.6890 0.6860
10.150175 0.6830 0.6730 0.6690 0.6690 0.6730
10.184000 0.6780 0.6880 0.6910 0.6980 0.6980
10.217175 0.6960 0.6880 0.6780 0.6610 0.6550
10.250000 0.6530 0.6530 0.6550 0.6560 0.6600
10.283175 0.6660 0.6660 0.6690 0.6760 0.6760
10.316000 0.6780 0.6790 0.6790 0.6760 0.6650
10.349175 0.6630 0.6630 0.6630 0.6650 0.6680
10.383000 0.6740 0.6790 0.6860 0.6860 0.6780
10.416175 0.6530 0.6110 0.5480 0.5100 0.4700
10.449000 0.4090 0.3490 0.3390 0.3390 0.3490
10.482175 0.4060 0.4590 0.5520 0.5900 0.6230
10.515000 0.6460 0.6660 0.6840 0.7030 0.7140
10.548175 0.7210 0.7360 0.7490 0.7640 0.7670
10.582000 0.7770 0.7810 0.7840 0.7870 0.7910
10.615175 0.7910 0.7970 0.7970 0.7990 0.8000
10.648000 0.8070 0.8070 0.8090 0.8120 0.8140
10.681175 0.8140 0.8140 0.8140 0.8150 0.8150
10.714000 0.8150 0.8170 0.8190 0.8200 0.8220
10.747175 0.8240 0.8270 0.8290 0.8300 0.8300
10.781000 0.8320 0.8320 0.8340 0.8340 0.8320
10.814175 0.8290 0.8270 0.8200 0.8100 0.8020
10.847000 0.7990 0.7910 0.7870 0.7840 0.7810
10.880175 0.7790 0.7740 0.7660 0.7610 0.7570
10.913000 0.7540 0.7520 0.7510 0.7520 0.7570
10.946175 0.7620 0.7670 0.7670 0.7590 0.7490
10.980000 0.7390 0.7240 0.7080 0.6930 0.6680
11.013175 0.6650 0.6650 0.6690 0.6840 0.6960
11.046000 0.7060 0.7240 0.7410 0.7610 0.7670
11.079175 0.7720 0.7720 0.7640 0.7570 0.7540
11.112000 0.7540 0.7560 0.7570 0.7590 0.7570
11.145175 0.7510 0.7440 0.7240 0.7040 0.6930
11.179000 0.6740 0.6680 0.6400 0.6300 0.6300
11.212175 0.6380 0.6530 0.6610 0.6730 0.6840
11.245000 0.6960 0.7110 0.7190 0.7210 0.7280
11.278175 0.7330 0.7390 0.7470 0.7690 0.7770
11.311000 0.7840 0.7960 0.8040 0.8100 0.8140
11.344175 0.8170 0.8200 0.8270 0.8350 0.8400
11.378000 0.8440 0.8470 0.8490 0.8520 0.8540
11.411175 0.8550 0.8570 0.8590 0.8600 0.8640
11.444000 0.8650 0.8650 0.8670 0.8680 0.8680
11.477175 0.8680 0.8680 0.8640 0.8620 0.8590
11.510000 0.8540 0.8450 0.8340 0.8150 0.7940
11.543175 0.7740 0.7560 0.7470 0.7390 0.7240
11.577000 0.7090 0.6990 0.6990 0.7040 0.7210
11.610175 0.7310 0.7420 0.7710 0.7770 0.7820
11.643000 0.7870 0.7870 0.7810 0.7720 0.7560
11.676175 0.7440 0.7330 0.7080 0.6890 0.6730
11.709000 0.6690 0.6690 0.6760 0.6840 0.7030
11.742175 0.7230 0.7420 0.7770 0.7870 0.7890
11.775000 0.7910 0.8000 0.8050 0.8100 0.8120
11.808175 0.8150 0.8150 0.8170 0.8190 0.8190
11.842000 0.8200 0.8200 0.8200 0.8220 0.8270
11.875175 0.8300 0.8390 0.8420 0.8490 0.8550
11.908000 0.8620 0.8670 0.8700 0.8720 0.8730
11.941175 0.8750 0.8750 0.8770 0.8770 0.8780
11.974000 0.8780 0.8770 0.8750 0.8680 0.8670
12.007175 0.8650 0.8620 0.8600 0.8590 0.8570
12.041000 0.8490 0.8400 0.8290 0.8200 0.8090
12.074175 0.7940 0.7790 0.7670 0.7610 0.7590
12.107000 0.7610 0.7690 0.7770 0.7870 0.7960
12.140175 0.7990 0.8100 0.8220 0.8300 0.8370
12.173000 0.8440 0.8500 0.8550 0.8590 0.8600
12.206175 0.8640 0.8650 0.8670 0.8670 0.8670
12.240000 0.8650 0.8620 0.8620 0.8620 0.8640
12.273175 0.8670 0.8680 0.8700 0.8770 0.8820
12.306000 0.8870 0.8870 0.8880 0.8980 0.9000
12.339175 0.9020 0.9050 0.9080 0.9080 0.9120
12.372000 0.9130 0.9150 0.9170 0.9180 0.9220
12.405175 0.9250 0.9280 0.9300 0.9270 0.9230
12.439000 0.9200 0.9180 0.9200 0.9230 0.9250
12.472175 0.9270 0.9300 0.9320 0.9350 0.9350
12.505000 0.9350 0.9330 0.9330 0.9320 0.9300
12.538175 0.9300 0.9270 0.9150 0.9120 0.9100
12.571000 0.9030 0.8930 0.8830 0.8640 0.8340
12.604175 0.8040 0.7770 0.7560 0.7420 0.7290
12.638000 0.7140 0.7080 0.7060 0.7080 0.7260
12.671175 0.7740 0.7990 0.8020 0.8000 0.7920
12.704000 0.7660 0.7570 0.7470 0.7310 0.7130
12.737175 0.6960 0.6940 0.6960 0.7280 0.7740
12.770000 0.7940 0.8040 0.8190 0.8290 0.8370
12.803175 0.8420 0.8470 0.8500 0.8520 0.8550
12.837000 0.8540 0.8450 0.8340 0.8220 0.8020
12.870175 0.7870 0.7590 0.7440 0.7290 0.6960
12.903000 0.6560 0.6080 0.5450 0.5150 0.4850
12.936175 0.4240 0.3830 0.3380 0.3110 0.3100
12.969000 0.3110 0.3310 0.3480 0.3940 0.4220
13.002175 0.4610 0.4920 0.4990 0.5270 0.5270
13.036000 0.5190 0.4940 0.4670 0.4310 0.3930
13.069175 0.3660 0.3330 0.3080 0.2880 0.2850
13.102000 0.2830 0.2850 0.2930 0.2980 0.3110
13.135175 0.3280 0.3480 0.3710 0.3940 0.4190
13.168000 0.4410 0.4590 0.4720 0.4820 0.4900
13.201175 0.4920 0.4920 0.4890 0.4820 0.4640
13.234000 0.4440 0.4270 0.4090 0.3940 0.3790
13.267175 0.3680 0.3560 0.3440 0.3330 0.3180
13.301000 0.3160 0.3150 0.3130 0.3110 0.3100
13.334175 0.3030 0.2950 0.2880 0.2810 0.2730
13.367000 0.2700 0.2650 0.2600 0.2580 0.2600
13.400175 0.3000 0.3230 0.3460 0.3730 0.3990
13.433000 0.4290 0.4590 0.4890 0.5470 0.5720
13.466175 0.5920 0.6030 0.6230 0.6430 0.6550
13.500000 0.6650 0.6740 0.6830 0.6890 0.6960
13.533175 0.7010 0.7090 0.7090 0.7110 0.7110
13.566000 0.7110 0.7110 0.7110 0.7110 0.7090
13.599175 0.7060 0.6990 0.6940 0.6930 0.6830
13.632000 0.6710 0.6530 0.6350 0.6210 0.6010
13.665175 0.5830 0.5650 0.5530 0.5430 0.5330
13.699000 0.5240 0.5200 0.5190 0.5200 0.5270
13.732175 0.5370 0.5430 0.5530 0.5720 0.5930
13.765000 0.6110 0.6260 0.6410 0.6530 0.6650
13.798175 0.6780 0.6890 0.7030 0.7060 0.7210
13.831000 0.7290 0.7330 0.7370 0.7460 0.7490
13.864175 0.7560 0.7560 0.7570 0.7570 0.7620
13.898000 0.7670 0.7670 0.7740 0.7820 0.7890
13.931175 0.7970 0.8000 0.8070 0.8100 0.8120
13.964000 0.8150 0.8200 0.8250 0.8270 0.8320
13.997175 0.8340 0.8370 0.8420 0.8440 0.8470
14.030000 0.8470 0.8520 0.8520 0.8550 0.8570
14.063175 0.8590 0.8590 0.8600 0.8620 0.8620
14.097000 0.8620 0.8620 0.8620 0.8620 0.8620
14.130175 0.8620 0.8600 0.8600 0.8590 0.8570
14.163000 0.8500 0.8470 0.8440 0.8350 0.8300
14.196175 0.8220 0.8150 0.8100 0.8040 0.7970
14.229000 0.7840 0.7740 0.7620 0.7560 0.7490
14.262175 0.7340 0.7180 0.6940 0.6730 0.6530
14.296000 0.6300 0.5980 0.5770 0.5530 0.5290
14.329175 0.5070 0.4970 0.4850 0.4670 0.4510
14.362000 0.4410 0.4360 0.4310 0.4270 0.4240
14.395175 0.4220 0.4160 0.4090 0.3990 0.3880
14.428000 0.3780 0.3660 0.3540 0.3440 0.3340
14.461175 0.3230 0.3130 0.3010 0.2900 0.2810
14.495000 0.2750 0.2660 0.2630 0.2620 0.2600
14.528175 0.2580 0.2530 0.2500 0.2500 0.2480
14.561000 0.2470 0.2470 0.2480 0.2630 0.2730
14.594175 0.2810 0.2930 0.3100 0.3230 0.3430
14.627000 0.3640 0.3860 0.4070 0.4290 0.4510
14.660175 0.4700 0.4920 0.5330 0.5530 0.5730
14.694000 0.5930 0.6110 0.6300 0.6460 0.6630
14.727175 0.6740 0.6880 0.6960 0.6990 0.7010
14.760000 0.7080 0.7140 0.7210 0.7280 0.7310
14.793175 0.7330 0.7360 0.7390 0.7410 0.7390
14.826000 0.7340 0.7290 0.7260 0.7180 0.7090
14.859175 0.6980 0.6880 0.6760 0.6680 0.6610
14.892000 0.6530 0.6480 0.6450 0.6450 0.6430
14.925175 0.6430 0.6430 0.6430 0.6450 0.6460
14.959000 0.6460 0.6460 0.6460 0.6460 0.6460
14.992175 0.6450 0.6430 0.6410 0.6380 0.6330
15.025000 0.6280 0.6200 0.6130 0.6010 0.5930
15.058175 0.5830 0.5770 0.5700 0.5630 0.5570
15.091000 0.5550 0.5550 0.5550 0.5570 0.5600
15.124175 0.5650 0.5750 0.5800 0.5830 0.5880
15.158000 0.5970 0.6050 0.6110 0.6200 0.6280
15.191175 0.6360 0.6460 0.6550 0.6630 0.6680
15.224000 0.6740 0.6830 0.6890 0.6960 0.6960
15.257175 0.6980 0.7010 0.7040 0.7040 0.7060
15.290000 0.7080 0.7080 0.7090 0.7140 0.7160
15.323175 0.7180 0.7190 0.7190 0.7210 0.7210
15.357000 0.7210 0.7230 0.7240 0.7260 0.7260
15.390175 0.7260 0.7260 0.7260 0.7240 0.7230
15.423000 0.7210 0.7210 0.7180 0.7160 0.7160
15.456175 0.7140 0.7140 0.7140 0.7130 0.7110
15.489000 0.7090 0.7080 0.7060 0.7010 0.6990
15.522175 0.6980 0.6980 0.6960 0.6960 0.6910
15.556000 0.6880 0.6860 0.6840 0.6790 0.6780
15.589175 0.6740 0.6710 0.6690 0.6680 0.6650
15.622000 0.6580 0.6560 0.6530 0.6510 0.6500
15.655175 0.6480 0.6460 0.6410 0.6360 0.6310
15.688000 0.6280 0.6280 0.6280 0.6260 0.6260
15.721175 0.6260 0.6250 0.6250 0.6230 0.6210
15.755000 0.6180 0.6180 0.6180 0.6180 0.6160
15.788175 0.6160 0.6160 0.6160 0.6150 0.6130
15.821000 0.6130 0.6130 0.6130 0.6110 0.6100
15.854175 0.6080 0.6060 0.6060 0.6060 0.6060
15.887000 0.6060 0.6080 0.6080 0.6080 0.6060
15.920175 0.6050 0.6000 0.5980 0.5970 0.5950
15.954000 0.5920 0.5920 0.5880 0.5870 0.5870
15.987175 0.5880 0.5870
##END=
