##TITLE=3-(N-METHYLANILINO)-2-METHYL-5-(5-NONYL) PYRAZINE
##JCAMP-DX=4.24
##DATA TYPE=INFRARED SPECTRUM
##CLASS=COBLENTZ
##ORIGIN=WYANDOTTE CHEMICALS CORP., WYANDOTTE, MICHIGAN, USA
##OWNER=COBLENTZ SOCIETY
Collection (C) 2018 copyright by the U.S. Secretary of Commerce
on behalf of the United States of America. All rights reserved.
##DATE=Not specified, most likely prior to 1970
##NAMES=N-[6-(1-butylpentyl)-3-methyl-2-pyrazinyl]-N-methyl-N-phenylamine
6-(1-butylpentyl)-N,3-dimethyl-N-phenyl-2-pyrazinamine
##CAS REGISTRY NO=116660-08-3
##MOLFORM=C21 H31 N3
##SOURCE REFERENCE=COBLENTZ NO. 2794
##$NIST SOURCE=COBLENTZ
##$NIST IMAGE=cob2794
##SPECTROMETER/DATA SYSTEM=Not specified, most likely a prism, grating, or hybrid spectrometer.
##STATE=LIQUID
##PATH LENGTH=0.0015 CM
##SAMPLING PROCEDURE=TRANSMISSION
##RESOLUTION=4
##DATA PROCESSING=DIGITIZED BY NIST FROM HARD COPY
##XUNITS=MICROMETERS
##YUNITS=TRANSMITTANCE
##XFACTOR=1.000000
##YFACTOR=1
##DELTAX=000.006629
##FIRSTX=2.007
##LASTX=15.9867
##FIRSTY=0.978
##MAXX=15.9867
##MINX=2.007
##MAXY=0.978
##MINY=0.043
##NPOINTS=2110
##XYDATA=(X++(Y..Y))
2.007000 0.9780 0.9780 0.9780 0.9780 0.9780
2.040160 0.9780 0.9780 0.9780 0.9780 0.9760
2.073000 0.9750 0.9750 0.9730 0.9710 0.9700
2.106160 0.9700 0.9680 0.9680 0.9660 0.9650
2.139000 0.9630 0.9600 0.9550 0.9510 0.9500
2.172160 0.9430 0.9410 0.9330 0.9210 0.9080
2.205000 0.8980 0.8910 0.8910 0.8910 0.8910
2.238160 0.8930 0.8930 0.8930 0.8950 0.8950
2.272000 0.8960 0.8960 0.8960 0.8980 0.8980
2.305160 0.8980 0.8980 0.8980 0.8980 0.8980
2.338000 0.8980 0.8980 0.8980 0.8960 0.8960
2.371160 0.8960 0.8980 0.8980 0.9000 0.9030
2.404000 0.9050 0.9080 0.9110 0.9160 0.9200
2.437160 0.9200 0.9230 0.9300 0.9350 0.9350
2.471000 0.9380 0.9430 0.9450 0.9460 0.9460
2.504160 0.9460 0.9450 0.9430 0.9430 0.9430
2.537000 0.9450 0.9450 0.9460 0.9480 0.9480
2.570160 0.9480 0.9480 0.9480 0.9500 0.9510
2.603000 0.9550 0.9580 0.9610 0.9630 0.9650
2.636160 0.9660 0.9660 0.9630 0.9610 0.9600
2.670000 0.9580 0.9580 0.9500 0.9480 0.9480
2.703160 0.9500 0.9500 0.9510 0.9510 0.9500
2.736000 0.9500 0.9480 0.9430 0.9410 0.9410
2.769160 0.9430 0.9430 0.9450 0.9450 0.9430
2.802000 0.9430 0.9410 0.9380 0.9350 0.9330
2.835160 0.9310 0.9300 0.9280 0.9260 0.9250
2.868000 0.9210 0.9200 0.9200 0.9200 0.9180
2.901160 0.9160 0.9050 0.9010 0.8950 0.8930
2.935000 0.8930 0.8930 0.8960 0.8980 0.8980
2.968160 0.8960 0.8880 0.8850 0.8830 0.8810
3.001000 0.8800 0.8800 0.8780 0.8780 0.8760
3.034160 0.8750 0.8750 0.8730 0.8730 0.8700
3.067000 0.8680 0.8630 0.8600 0.8580 0.8560
3.100160 0.8530 0.8480 0.8410 0.8360 0.8330
3.134000 0.8230 0.8210 0.8210 0.8200 0.8180
3.167160 0.8160 0.8150 0.8100 0.8050 0.8000
3.200000 0.7920 0.7770 0.7520 0.7250 0.6820
3.233160 0.6370 0.6050 0.5700 0.5400 0.4340
3.266000 0.4020 0.3860 0.3690 0.3660 0.3690
3.299160 0.3920 0.4090 0.4090 0.3890 0.3120
3.332000 0.2240 0.1610 0.1060 0.0680 0.0480
3.365160 0.0460 0.0460 0.0460 0.0460 0.0480
3.399000 0.0490 0.0530 0.0530 0.0540 0.0540
3.432160 0.0540 0.0580 0.0640 0.0740 0.0830
3.465000 0.0840 0.0830 0.0690 0.0660 0.0640
3.498160 0.0660 0.1090 0.1630 0.2240 0.2790
3.531000 0.3410 0.4040 0.4650 0.4950 0.5240
3.564160 0.5770 0.6170 0.6450 0.6550 0.6700
3.598000 0.6950 0.7220 0.7450 0.7520 0.7550
3.631160 0.7620 0.7630 0.7630 0.7630 0.7600
3.664000 0.7580 0.7580 0.7600 0.7670 0.7730
3.697160 0.7820 0.7900 0.8000 0.8060 0.8080
3.730000 0.8060 0.8010 0.7930 0.7920 0.7920
3.763160 0.7920 0.7920 0.7930 0.8030 0.8060
3.796000 0.8110 0.8160 0.8200 0.8200 0.8210
3.829160 0.8230 0.8230 0.8230 0.8250 0.8250
3.863000 0.8260 0.8260 0.8280 0.8300 0.8310
3.896160 0.8330 0.8330 0.8350 0.8360 0.8380
3.929000 0.8400 0.8410 0.8410 0.8430 0.8430
3.962160 0.8460 0.8500 0.8530 0.8580 0.8610
3.995000 0.8650 0.8660 0.8680 0.8700 0.8710
4.028160 0.8730 0.8730 0.8750 0.8750 0.8760
4.062000 0.8760 0.8760 0.8760 0.8760 0.8760
4.095160 0.8750 0.8730 0.8710 0.8660 0.8650
4.128000 0.8650 0.8650 0.8650 0.8630 0.8630
4.161160 0.8630 0.8630 0.8610 0.8580 0.8560
4.194000 0.8550 0.8550 0.8530 0.8530 0.8530
4.227160 0.8530 0.8550 0.8560 0.8560 0.8580
4.260000 0.8580 0.8610 0.8650 0.8730 0.8760
4.293160 0.8780 0.8780 0.8810 0.8850 0.8860
4.327000 0.8910 0.8960 0.8980 0.8980 0.9000
4.360160 0.9000 0.9000 0.9000 0.9000 0.8960
4.393000 0.8930 0.8900 0.8900 0.8880 0.8880
4.426160 0.8880 0.8880 0.8880 0.8900 0.8900
4.459000 0.8910 0.8930 0.8950 0.8950 0.8960
4.492160 0.8960 0.8960 0.8960 0.8960 0.8960
4.526000 0.8960 0.8960 0.8960 0.8980 0.9000
4.559160 0.9000 0.9000 0.9010 0.9050 0.9050
4.592000 0.9050 0.9060 0.9060 0.9060 0.9060
4.625160 0.9050 0.9050 0.9030 0.9030 0.9030
4.658000 0.9030 0.9010 0.9010 0.9030 0.9050
4.691160 0.9060 0.9080 0.9110 0.9110 0.9060
4.724000 0.9030 0.9000 0.8980 0.8980 0.9000
4.757160 0.9010 0.9010 0.9010 0.9010 0.9010
4.791000 0.9010 0.9000 0.8980 0.8980 0.9000
4.824160 0.9030 0.9030 0.9030 0.9010 0.9010
4.857000 0.8960 0.8930 0.8910 0.8910 0.8930
4.890160 0.8950 0.8950 0.8960 0.8980 0.9010
4.923000 0.9030 0.9050 0.9050 0.9030 0.8980
4.956160 0.8950 0.8930 0.8930 0.8930 0.8950
4.990000 0.8980 0.9000 0.9010 0.9010 0.9030
5.023160 0.9050 0.9050 0.9060 0.9060 0.9060
5.056000 0.9060 0.9050 0.9050 0.9030 0.9010
5.089160 0.9010 0.9000 0.8980 0.8980 0.8980
5.122000 0.8960 0.8950 0.8930 0.8910 0.8900
5.155160 0.8860 0.8760 0.8680 0.8650 0.8610
5.188000 0.8600 0.8550 0.8510 0.8460 0.8450
5.221160 0.8360 0.8310 0.8310 0.8330 0.8400
5.255000 0.8480 0.8580 0.8660 0.8680 0.8710
5.288160 0.8760 0.8830 0.8850 0.8850 0.8810
5.321000 0.8780 0.8760 0.8750 0.8730 0.8710
5.354160 0.8700 0.8680 0.8660 0.8650 0.8630
5.387000 0.8610 0.8600 0.8550 0.8550 0.8510
5.420160 0.8510 0.8510 0.8510 0.8530 0.8550
5.454000 0.8550 0.8560 0.8610 0.8610 0.8600
5.487160 0.8580 0.8560 0.8530 0.8510 0.8500
5.520000 0.8500 0.8480 0.8460 0.8460 0.8450
5.553160 0.8430 0.8430 0.8380 0.8360 0.8360
5.586000 0.8350 0.8330 0.8280 0.8250 0.8210
5.619160 0.8160 0.8130 0.8110 0.8110 0.8110
5.652000 0.8110 0.8130 0.8180 0.8200 0.8200
5.685160 0.8200 0.8200 0.8200 0.8180 0.8180
5.719000 0.8160 0.8150 0.8130 0.8050 0.8010
5.752160 0.7980 0.7970 0.7880 0.7830 0.7700
5.785000 0.7620 0.7580 0.7580 0.7580 0.7580
5.818160 0.7580 0.7580 0.7580 0.7550 0.7520
5.851000 0.7480 0.7430 0.7430 0.7420 0.7420
5.884160 0.7380 0.7330 0.7300 0.7300 0.7270
5.918000 0.7270 0.7270 0.7270 0.7250 0.7230
5.951160 0.7220 0.7200 0.7180 0.7170 0.7150
5.984000 0.7130 0.7130 0.7120 0.7120 0.7100
6.017160 0.7100 0.7100 0.7080 0.7080 0.7070
6.050000 0.7070 0.7050 0.7030 0.7020 0.7000
6.083160 0.6980 0.6930 0.6900 0.6830 0.6770
6.116000 0.6670 0.6570 0.6430 0.6280 0.6080
6.149160 0.5900 0.5650 0.5200 0.4050 0.3520
6.183000 0.2990 0.2460 0.1890 0.1440 0.1110
6.216160 0.0740 0.0710 0.0730 0.1110 0.1730
6.249000 0.2370 0.2890 0.3010 0.3060 0.3070
6.282160 0.3090 0.3110 0.3510 0.4100 0.4600
6.315000 0.4750 0.4750 0.4600 0.4050 0.3760
6.348160 0.3640 0.3570 0.3560 0.3590 0.3840
6.382000 0.4070 0.4270 0.4500 0.4750 0.4920
6.415160 0.4950 0.4990 0.5000 0.5000 0.5000
6.448000 0.4750 0.4500 0.4140 0.3640 0.3120
6.481160 0.2710 0.2160 0.1740 0.1360 0.1010
6.514000 0.0760 0.0740 0.0760 0.0840 0.0960
6.547160 0.1230 0.1760 0.2140 0.2510 0.2720
6.580000 0.2840 0.2910 0.2920 0.2890 0.2260
6.613160 0.1810 0.1240 0.0760 0.0560 0.0540
6.647000 0.0510 0.0490 0.0480 0.0480 0.0510
6.680160 0.0610 0.0730 0.0910 0.1280 0.1580
6.713000 0.1780 0.1810 0.1810 0.1810 0.1830
6.746160 0.1840 0.1840 0.1810 0.1340 0.1230
6.779000 0.0990 0.0510 0.0490 0.0490 0.0510
6.812160 0.0510 0.0510 0.0530 0.0540 0.0560
6.846000 0.0580 0.0580 0.0610 0.0630 0.0630
6.879160 0.0660 0.0660 0.0660 0.0640 0.0630
6.912000 0.0610 0.0610 0.0590 0.0580 0.0580
6.945160 0.0580 0.0580 0.0580 0.0560 0.0540
6.978000 0.0540 0.0540 0.0540 0.0560 0.0930
7.011160 0.1240 0.1560 0.1880 0.2240 0.2640
7.045000 0.3120 0.3370 0.3420 0.3420 0.3390
7.078160 0.3240 0.3060 0.2820 0.2660 0.2470
7.111000 0.2240 0.1990 0.1690 0.1490 0.1360
7.144160 0.1190 0.1040 0.0860 0.0640 0.0530
7.177000 0.0440 0.0430 0.0430 0.0430 0.0430
7.210160 0.0430 0.0430 0.0430 0.0430 0.0460
7.243000 0.0480 0.0480 0.0480 0.0480 0.0480
7.276160 0.0480 0.0480 0.0490 0.0510 0.0510
7.310000 0.0530 0.0530 0.0560 0.0610 0.0690
7.343160 0.0790 0.0890 0.0930 0.0960 0.1010
7.376000 0.1140 0.1260 0.1460 0.1690 0.1840
7.409160 0.1990 0.2140 0.2260 0.2360 0.2420
7.442000 0.2440 0.2490 0.2510 0.2510 0.2520
7.475160 0.2540 0.2540 0.2560 0.2570 0.2590
7.509000 0.2620 0.2660 0.2670 0.2690 0.2710
7.542160 0.2720 0.2740 0.2760 0.2790 0.2790
7.575000 0.2790 0.2770 0.2760 0.2690 0.2640
7.608160 0.2570 0.2570 0.2560 0.2520 0.2510
7.641000 0.2460 0.2360 0.2340 0.2310 0.2210
7.674160 0.2190 0.2170 0.2170 0.2190 0.2210
7.707000 0.2210 0.2220 0.2220 0.2260 0.2270
7.740160 0.2290 0.2310 0.2320 0.2340 0.2370
7.774000 0.2440 0.2510 0.2540 0.2570 0.2610
7.807160 0.2620 0.2620 0.2620 0.2620 0.2610
7.840000 0.2590 0.2540 0.2470 0.2420 0.2390
7.873160 0.2340 0.2310 0.2270 0.2220 0.2160
7.906000 0.2060 0.2010 0.1990 0.1910 0.1840
7.939160 0.1780 0.1730 0.1680 0.1640 0.1640
7.973000 0.1660 0.1690 0.1780 0.1880 0.2070
8.006160 0.2270 0.2370 0.2490 0.2660 0.2840
8.039000 0.2990 0.3140 0.3270 0.3420 0.3590
8.072160 0.3690 0.3770 0.3860 0.3890 0.3920
8.105000 0.3990 0.4000 0.4020 0.4040 0.4100
8.138160 0.4170 0.4240 0.4300 0.4400 0.4520
8.171000 0.4620 0.4690 0.4690 0.4700 0.4700
8.204160 0.4690 0.4670 0.4600 0.4520 0.4470
8.238000 0.4390 0.4320 0.4250 0.4200 0.4140
8.271160 0.4040 0.3970 0.3890 0.3690 0.3460
8.304000 0.3360 0.3260 0.3160 0.3020 0.2910
8.337160 0.2670 0.2510 0.2390 0.2310 0.2240
8.370000 0.2190 0.2140 0.2110 0.2040 0.2010
8.403160 0.1980 0.1910 0.1880 0.1860 0.1840
8.437000 0.1840 0.1840 0.1840 0.1860 0.1860
8.470160 0.1880 0.1910 0.1930 0.1930 0.1930
8.503000 0.1930 0.1910 0.1880 0.1880 0.1860
8.536160 0.1790 0.1640 0.1510 0.1430 0.1330
8.569000 0.1240 0.1140 0.1040 0.0980 0.0890
8.602160 0.0840 0.0810 0.0810 0.0830 0.0860
8.635000 0.0910 0.0960 0.0980 0.0980 0.1030
8.668160 0.1110 0.1240 0.1410 0.1610 0.1810
8.702000 0.2010 0.2170 0.2320 0.2410 0.2440
8.735160 0.2460 0.2470 0.2460 0.2440 0.2410
8.768000 0.2340 0.2240 0.2090 0.1980 0.1880
8.801160 0.1680 0.1510 0.1360 0.1230 0.1090
8.834000 0.0990 0.0930 0.0860 0.0840 0.0840
8.867160 0.0840 0.0860 0.0990 0.1130 0.1240
8.901000 0.1330 0.1360 0.1380 0.1390 0.1390
8.934160 0.1390 0.1430 0.1510 0.1530 0.1590
8.967000 0.1640 0.1710 0.1780 0.1830 0.1910
9.000160 0.1960 0.2040 0.2110 0.2190 0.2290
9.033000 0.2390 0.2490 0.2590 0.2690 0.2760
9.066160 0.2840 0.2960 0.3060 0.3190 0.3310
9.099000 0.3370 0.3440 0.3520 0.3670 0.3810
9.132160 0.3870 0.3890 0.3920 0.3920 0.3940
9.166000 0.3940 0.3910 0.3860 0.3820 0.3740
9.199160 0.3660 0.3570 0.3540 0.3510 0.3440
9.232000 0.3340 0.3240 0.3160 0.3060 0.2990
9.265160 0.2920 0.2870 0.2860 0.2810 0.2770
9.298000 0.2760 0.2770 0.2810 0.2920 0.3020
9.331160 0.3120 0.3170 0.3210 0.3260 0.3290
9.365000 0.3340 0.3390 0.3440 0.3490 0.3560
9.398160 0.3640 0.3820 0.3970 0.4020 0.4120
9.431000 0.4190 0.4270 0.4350 0.4470 0.4520
9.464160 0.4640 0.4740 0.4800 0.4890 0.4950
9.497000 0.5020 0.5190 0.5370 0.5550 0.5720
9.530160 0.5890 0.6020 0.6150 0.6270 0.6330
9.563000 0.6470 0.6570 0.6580 0.6620 0.6650
9.596160 0.6670 0.6670 0.6670 0.6650 0.6600
9.630000 0.6530 0.6480 0.6470 0.6450 0.6330
9.663160 0.6180 0.6020 0.5890 0.5770 0.5640
9.696000 0.5470 0.5320 0.5090 0.4770 0.4690
9.729160 0.4620 0.4570 0.4550 0.4570 0.4690
9.762000 0.4850 0.4950 0.5040 0.5240 0.5440
9.795160 0.5650 0.5870 0.6080 0.6280 0.6450
9.829000 0.6530 0.6650 0.6730 0.6820 0.6900
9.862160 0.6980 0.7050 0.7070 0.7080 0.7080
9.895000 0.7080 0.7070 0.7030 0.6980 0.6920
9.928160 0.6850 0.6780 0.6720 0.6620 0.6530
9.961000 0.6420 0.6280 0.6200 0.6120 0.6020
9.994160 0.5920 0.5820 0.5690 0.5570 0.5520
10.027000 0.5440 0.5400 0.5370 0.5340 0.5340
10.060160 0.5300 0.5300 0.5300 0.5300 0.5320
10.094000 0.5320 0.5340 0.5340 0.5320 0.5300
10.127160 0.5290 0.5290 0.5270 0.5250 0.5250
10.160000 0.5270 0.5340 0.5440 0.5490 0.5500
10.193160 0.5550 0.5590 0.5650 0.5720 0.5770
10.226000 0.5770 0.5770 0.5790 0.5840 0.5890
10.259160 0.5900 0.5900 0.5950 0.5970 0.6000
10.293000 0.6000 0.6080 0.6100 0.6120 0.6130
10.326160 0.6180 0.6220 0.6250 0.6270 0.6280
10.359000 0.6300 0.6300 0.6320 0.6350 0.6380
10.392160 0.6400 0.6430 0.6450 0.6470 0.6480
10.425000 0.6480 0.6520 0.6520 0.6530 0.6550
10.458160 0.6570 0.6580 0.6580 0.6600 0.6650
10.491000 0.6700 0.6730 0.6770 0.6800 0.6850
10.524160 0.6900 0.6920 0.6950 0.6970 0.6970
10.558000 0.7000 0.7030 0.7030 0.7050 0.7080
10.591160 0.7130 0.7130 0.7150 0.7150 0.7130
10.624000 0.7120 0.7120 0.7050 0.7000 0.6950
10.657160 0.6930 0.6900 0.6880 0.6780 0.6730
10.690000 0.6720 0.6670 0.6580 0.6520 0.6480
10.723160 0.6450 0.6430 0.6430 0.6400 0.6380
10.757000 0.6380 0.6380 0.6380 0.6370 0.6370
10.790160 0.6370 0.6370 0.6380 0.6380 0.6400
10.823000 0.6400 0.6420 0.6430 0.6450 0.6470
10.856160 0.6470 0.6470 0.6480 0.6530 0.6620
10.889000 0.6700 0.6770 0.6830 0.6850 0.6850
10.922160 0.6870 0.6880 0.6900 0.6900 0.6900
10.955000 0.6900 0.6880 0.6880 0.6870 0.6820
10.988160 0.6820 0.6780 0.6770 0.6730 0.6700
11.022000 0.6670 0.6620 0.6580 0.6520 0.6500
11.055160 0.6480 0.6480 0.6430 0.6420 0.6370
11.088000 0.6330 0.6300 0.6220 0.6150 0.6050
11.121160 0.6000 0.5970 0.5900 0.5890 0.5870
11.154000 0.5850 0.5840 0.5840 0.5820 0.5800
11.187160 0.5770 0.5740 0.5700 0.5650 0.5640
11.221000 0.5640 0.5640 0.5640 0.5640 0.5640
11.254160 0.5640 0.5640 0.5650 0.5650 0.5650
11.287000 0.5650 0.5650 0.5670 0.5690 0.5720
11.320160 0.5790 0.5870 0.5900 0.5900 0.5900
11.353000 0.5970 0.6050 0.6080 0.6080 0.6100
11.386160 0.6170 0.6230 0.6320 0.6370 0.6450
11.420000 0.6520 0.6570 0.6630 0.6700 0.6750
11.453160 0.6820 0.6870 0.6900 0.6970 0.7000
11.486000 0.7020 0.7080 0.7120 0.7170 0.7220
11.519160 0.7280 0.7370 0.7400 0.7420 0.7450
11.552000 0.7520 0.7600 0.7630 0.7670 0.7680
11.585160 0.7720 0.7730 0.7730 0.7770 0.7780
11.618000 0.7780 0.7800 0.7820 0.7820 0.7830
11.651160 0.7830 0.7830 0.7830 0.7820 0.7820
11.685000 0.7800 0.7800 0.7780 0.7770 0.7750
11.718160 0.7720 0.7720 0.7700 0.7680 0.7650
11.751000 0.7630 0.7600 0.7570 0.7550 0.7520
11.784160 0.7480 0.7470 0.7450 0.7430 0.7420
11.817000 0.7370 0.7330 0.7320 0.7300 0.7300
11.850160 0.7230 0.7220 0.7180 0.7170 0.7150
11.884000 0.7150 0.7150 0.7150 0.7150 0.7150
11.917160 0.7150 0.7150 0.7150 0.7150 0.7150
11.950000 0.7150 0.7150 0.7150 0.7150 0.7130
11.983160 0.7130 0.7130 0.7120 0.7120 0.7120
12.016000 0.7100 0.7100 0.7080 0.7070 0.7050
12.049160 0.7020 0.7000 0.6980 0.6970 0.6950
12.082000 0.6920 0.6900 0.6880 0.6880 0.6880
12.115160 0.6900 0.6920 0.6950 0.6970 0.6980
12.149000 0.7000 0.7020 0.7070 0.7120 0.7180
12.182160 0.7230 0.7270 0.7280 0.7280 0.7320
12.215000 0.7350 0.7370 0.7370 0.7400 0.7430
12.248160 0.7470 0.7470 0.7480 0.7480 0.7480
12.281000 0.7500 0.7500 0.7500 0.7500 0.7500
12.314160 0.7500 0.7520 0.7530 0.7530 0.7530
12.348000 0.7530 0.7530 0.7530 0.7530 0.7550
12.381160 0.7550 0.7550 0.7550 0.7550 0.7550
12.414000 0.7550 0.7550 0.7550 0.7550 0.7550
12.447160 0.7570 0.7580 0.7580 0.7580 0.7580
12.480000 0.7570 0.7570 0.7570 0.7570 0.7570
12.513160 0.7570 0.7580 0.7580 0.7580 0.7570
12.546000 0.7570 0.7570 0.7580 0.7580 0.7600
12.579160 0.7620 0.7620 0.7620 0.7620 0.7620
12.613000 0.7620 0.7620 0.7620 0.7620 0.7620
12.646160 0.7620 0.7620 0.7620 0.7620 0.7600
12.679000 0.7600 0.7600 0.7580 0.7580 0.7570
12.712160 0.7530 0.7520 0.7520 0.7500 0.7500
12.745000 0.7500 0.7480 0.7470 0.7450 0.7420
12.778160 0.7380 0.7370 0.7330 0.7300 0.7270
12.812000 0.7270 0.7230 0.7180 0.7150 0.7150
12.845160 0.7100 0.7020 0.6980 0.6880 0.6780
12.878000 0.6730 0.6720 0.6700 0.6620 0.6530
12.911160 0.6480 0.6350 0.6320 0.6200 0.6070
12.944000 0.5970 0.5840 0.5770 0.5650 0.5500
12.977160 0.5320 0.5190 0.5120 0.5050 0.4720
13.010000 0.4500 0.4300 0.4100 0.3990 0.3940
13.043160 0.3790 0.3620 0.3490 0.3360 0.3270
13.077000 0.3210 0.3140 0.3040 0.2970 0.2890
13.110160 0.2820 0.2790 0.2710 0.2660 0.2640
13.143000 0.2590 0.2540 0.2490 0.2410 0.2390
13.176160 0.2370 0.2370 0.2320 0.2260 0.2220
13.209000 0.2210 0.2190 0.2170 0.2160 0.2110
13.242160 0.2040 0.2010 0.1990 0.1980 0.1960
13.276000 0.1960 0.1940 0.1930 0.1910 0.1890
13.309160 0.1880 0.1860 0.1840 0.1840 0.1830
13.342000 0.1830 0.1840 0.1860 0.1880 0.1910
13.375160 0.1980 0.2040 0.2110 0.2120 0.2170
13.408000 0.2320 0.2510 0.2610 0.2690 0.2870
13.441160 0.3040 0.3160 0.3270 0.3490 0.3710
13.474000 0.3860 0.4040 0.4190 0.4340 0.4450
13.507160 0.4590 0.4690 0.4820 0.4950 0.4990
13.541000 0.5020 0.5090 0.5100 0.5190 0.5290
13.574160 0.5370 0.5390 0.5440 0.5490 0.5540
13.607000 0.5570 0.5600 0.5620 0.5640 0.5650
13.640160 0.5670 0.5670 0.5670 0.5650 0.5640
13.673000 0.5620 0.5600 0.5600 0.5570 0.5570
13.706160 0.5550 0.5520 0.5500 0.5500 0.5490
13.740000 0.5490 0.5470 0.5470 0.5470 0.5490
13.773160 0.5490 0.5500 0.5520 0.5520 0.5550
13.806000 0.5550 0.5600 0.5650 0.5670 0.5690
13.839160 0.5700 0.5700 0.5740 0.5790 0.5870
13.872000 0.5970 0.5990 0.6000 0.6020 0.6070
13.905160 0.6120 0.6180 0.6230 0.6250 0.6300
13.938000 0.6400 0.6470 0.6470 0.6500 0.6550
13.971160 0.6570 0.6570 0.6600 0.6600 0.6600
14.005000 0.6600 0.6580 0.6580 0.6570 0.6570
14.038160 0.6550 0.6530 0.6520 0.6470 0.6400
14.071000 0.6330 0.6230 0.6220 0.6200 0.6130
14.104160 0.6070 0.5990 0.5890 0.5800 0.5700
14.137000 0.5600 0.5490 0.5390 0.5270 0.5150
14.170160 0.5040 0.4750 0.4550 0.4350 0.4220
14.204000 0.4000 0.3970 0.3820 0.3740 0.3520
14.237160 0.3340 0.3220 0.3110 0.3020 0.2920
14.270000 0.2810 0.2710 0.2610 0.2510 0.2410
14.303160 0.2340 0.2260 0.2190 0.2120 0.2090
14.336000 0.2070 0.2010 0.1980 0.1910 0.1890
14.369160 0.1890 0.1880 0.1880 0.1880 0.1860
14.402000 0.1860 0.1860 0.1880 0.1880 0.1880
14.435160 0.1880 0.1910 0.1930 0.1930 0.1960
14.469000 0.1990 0.2040 0.2090 0.2110 0.2190
14.502160 0.2260 0.2290 0.2370 0.2490 0.2540
14.535000 0.2590 0.2660 0.2710 0.2790 0.2920
14.568160 0.3040 0.3170 0.3290 0.3410 0.3460
14.601000 0.3590 0.3840 0.4050 0.4200 0.4420
14.634160 0.4640 0.4770 0.4900 0.4970 0.5040
14.668000 0.5200 0.5350 0.5520 0.5670 0.5820
14.701160 0.5950 0.6030 0.6220 0.6350 0.6420
14.734000 0.6470 0.6550 0.6650 0.6680 0.6730
14.767160 0.6780 0.6800 0.6850 0.6950 0.6980
14.800000 0.7000 0.7020 0.7070 0.7100 0.7120
14.833160 0.7150 0.7170 0.7180 0.7200 0.7200
14.866000 0.7220 0.7220 0.7220 0.7230 0.7230
14.899160 0.7220 0.7220 0.7220 0.7200 0.7200
14.933000 0.7200 0.7200 0.7200 0.7200 0.7180
14.966160 0.7180 0.7180 0.7180 0.7180 0.7180
14.999000 0.7200 0.7200 0.7200 0.7200 0.7200
15.032160 0.7180 0.7130 0.7080 0.7080 0.7020
15.065000 0.7000 0.6950 0.6880 0.6800 0.6780
15.098160 0.6770 0.6680 0.6650 0.6620 0.6620
15.132000 0.6620 0.6630 0.6650 0.6670 0.6680
15.165160 0.6700 0.6720 0.6750 0.6780 0.6850
15.198000 0.6900 0.6970 0.7020 0.7030 0.7100
15.231160 0.7150 0.7180 0.7200 0.7250 0.7270
15.264000 0.7320 0.7370 0.7380 0.7400 0.7400
15.297160 0.7400 0.7420 0.7420 0.7420 0.7420
15.330000 0.7430 0.7450 0.7450 0.7470 0.7470
15.363160 0.7480 0.7480 0.7520 0.7530 0.7550
15.397000 0.7550 0.7550 0.7530 0.7530 0.7520
15.430160 0.7520 0.7520 0.7520 0.7520 0.7520
15.463000 0.7520 0.7520 0.7520 0.7520 0.7520
15.496160 0.7520 0.7520 0.7530 0.7530 0.7530
15.529000 0.7530 0.7550 0.7550 0.7580 0.7580
15.562160 0.7550 0.7550 0.7530 0.7530 0.7550
15.596000 0.7550 0.7580 0.7600 0.7580 0.7550
15.629160 0.7500 0.7480 0.7480 0.7500 0.7520
15.662000 0.7520 0.7520 0.7520 0.7500 0.7500
15.695160 0.7480 0.7480 0.7450 0.7430 0.7420
15.728000 0.7350 0.7330 0.7350 0.7350 0.7380
15.761160 0.7400 0.7380 0.7350 0.7320 0.7300
15.795000 0.7300 0.7300 0.7300 0.7280 0.7270
15.828160 0.7250 0.7250 0.7250 0.7250 0.7250
15.861000 0.7220 0.7180 0.7130 0.7120 0.7120
15.894160 0.7120 0.7120 0.7120 0.7120 0.7130
15.927000 0.7130 0.7150 0.7150 0.7170 0.7180
15.960160 0.7180 0.7180 0.7180 0.7170 0.7150
##END=
