##TITLE=2-PHENOXY-6-BENZYL PYRAZINE
##JCAMP-DX=4.24
##DATA TYPE=INFRARED SPECTRUM
##CLASS=COBLENTZ
##ORIGIN=WYANDOTTE CHEMICALS CORP., WYANDOTTE, MICHIGAN, USA
##OWNER=COBLENTZ SOCIETY
Collection (C) 2018 copyright by the U.S. Secretary of Commerce
on behalf of the United States of America. All rights reserved.
##DATE=Not specified, most likely prior to 1970
##NAMES=6-benzyl-2-pyrazinyl phenyl ether
2-benzyl-6-phenoxypyrazine
##CAS REGISTRY NO=116660-05-0
##MOLFORM=C17 H14 N2 O
##SOURCE REFERENCE=COBLENTZ NO. 2913
##$NIST SOURCE=COBLENTZ
##$NIST IMAGE=cob2913
##SPECTROMETER/DATA SYSTEM=Not specified, most likely a prism, grating, or hybrid spectrometer.
##STATE=LIQUID
##PATH LENGTH=0.0015 CM
##SAMPLING PROCEDURE=TRANSMISSION
##RESOLUTION=4
##DATA PROCESSING=DIGITIZED BY NIST FROM HARD COPY
##XUNITS=MICROMETERS
##YUNITS=TRANSMITTANCE
##XFACTOR=1.000000
##YFACTOR=1
##DELTAX=000.006641
##FIRSTX=2.033
##LASTX=15.9933
##FIRSTY=0.943
##MAXX=15.9933
##MINX=2.033
##MAXY=0.943
##MINY=0.024
##NPOINTS=2103
##XYDATA=(X++(Y..Y))
2.033000 0.9430 0.9430 0.9430 0.9410 0.9400
2.066223 0.9380 0.9360 0.9300 0.9260 0.9260
2.100000 0.9300 0.9300 0.9330 0.9350 0.9360
2.133223 0.9360 0.9360 0.9360 0.9360 0.9350
2.166000 0.9350 0.9350 0.9330 0.9330 0.9310
2.199223 0.9300 0.9250 0.9250 0.9250 0.9230
2.232000 0.9210 0.9180 0.9180 0.9180 0.9180
2.265223 0.9200 0.9210 0.9230 0.9250 0.9250
2.299000 0.9250 0.9250 0.9260 0.9260 0.9260
2.332223 0.9280 0.9280 0.9260 0.9250 0.9250
2.365000 0.9230 0.9210 0.9180 0.9130 0.9010
2.398223 0.8960 0.8910 0.8910 0.8930 0.8950
2.432000 0.9000 0.9080 0.9150 0.9230 0.9250
2.465223 0.9260 0.9310 0.9310 0.9280 0.9250
2.498000 0.9210 0.9200 0.9200 0.9210 0.9210
2.531223 0.9230 0.9230 0.9230 0.9230 0.9230
2.565000 0.9230 0.9230 0.9250 0.9260 0.9280
2.598223 0.9280 0.9300 0.9310 0.9310 0.9280
2.631000 0.9230 0.9210 0.9210 0.9230 0.9280
2.664223 0.9300 0.9300 0.9300 0.9280 0.9230
2.697000 0.9210 0.9210 0.9200 0.9130 0.9080
2.730223 0.9080 0.9100 0.9110 0.9150 0.9160
2.764000 0.9180 0.9180 0.9180 0.9180 0.9180
2.797223 0.9110 0.9100 0.9080 0.9060 0.9060
2.830000 0.9050 0.9030 0.9010 0.9000 0.8980
2.863223 0.8960 0.8910 0.8880 0.8860 0.8850
2.897000 0.8850 0.8830 0.8830 0.8810 0.8800
2.930223 0.8800 0.8750 0.8710 0.8700 0.8700
2.963000 0.8710 0.8750 0.8750 0.8730 0.8680
2.996223 0.8660 0.8660 0.8660 0.8680 0.8700
3.029000 0.8710 0.8730 0.8730 0.8730 0.8730
3.062223 0.8730 0.8730 0.8730 0.8710 0.8710
3.096000 0.8710 0.8730 0.8730 0.8730 0.8730
3.129223 0.8730 0.8730 0.8710 0.8680 0.8660
3.162000 0.8650 0.8610 0.8610 0.8600 0.8600
3.195223 0.8580 0.8510 0.8460 0.8380 0.8180
3.229000 0.7800 0.7130 0.6580 0.6070 0.5600
3.262223 0.5170 0.5000 0.4820 0.4800 0.4820
3.295000 0.5020 0.5220 0.5720 0.6200 0.6530
3.328223 0.6770 0.6920 0.7050 0.7120 0.7150
3.361000 0.7150 0.7000 0.6820 0.6780 0.6730
3.394223 0.6720 0.6650 0.6450 0.6220 0.6200
3.428000 0.6220 0.6370 0.6570 0.6950 0.7230
3.461223 0.7470 0.7620 0.7750 0.7830 0.7880
3.494000 0.7920 0.7930 0.7930 0.7920 0.7920
3.527223 0.7930 0.8050 0.8150 0.8260 0.8360
3.561000 0.8480 0.8650 0.8710 0.8750 0.8780
3.594223 0.8800 0.8800 0.8830 0.8850 0.8850
3.627000 0.8860 0.8880 0.8880 0.8850 0.8810
3.660223 0.8760 0.8750 0.8730 0.8730 0.8750
3.694000 0.8780 0.8830 0.8880 0.8900 0.8930
3.727223 0.8980 0.9000 0.9010 0.9050 0.9080
3.760000 0.9080 0.9060 0.9060 0.9030 0.9010
3.793223 0.9010 0.9000 0.9000 0.8980 0.8980
3.826000 0.8980 0.8980 0.8980 0.8980 0.8980
3.859223 0.9000 0.9010 0.9010 0.9030 0.9030
3.893000 0.9050 0.9050 0.9060 0.9060 0.9050
3.926223 0.9050 0.9030 0.9010 0.9000 0.9000
3.959000 0.9000 0.9010 0.9010 0.9030 0.9030
3.992223 0.9030 0.9010 0.9000 0.8980 0.8980
4.026000 0.9000 0.9000 0.9000 0.9010 0.9010
4.059223 0.9000 0.9000 0.8980 0.8980 0.8960
4.092000 0.8960 0.8950 0.8950 0.8950 0.8950
4.125223 0.8950 0.8930 0.8910 0.8910 0.8910
4.158000 0.8910 0.8910 0.8900 0.8900 0.8860
4.191223 0.8850 0.8850 0.8810 0.8780 0.8780
4.225000 0.8750 0.8750 0.8730 0.8730 0.8710
4.258223 0.8710 0.8710 0.8700 0.8700 0.8700
4.291000 0.8700 0.8710 0.8730 0.8730 0.8750
4.324223 0.8750 0.8750 0.8750 0.8750 0.8750
4.358000 0.8760 0.8760 0.8780 0.8800 0.8830
4.391223 0.8860 0.8910 0.8980 0.9030 0.9050
4.424000 0.9080 0.9110 0.9150 0.9150 0.9150
4.457223 0.9130 0.9130 0.9130 0.9130 0.9110
4.491000 0.9110 0.9110 0.9130 0.9150 0.9160
4.524223 0.9160 0.9180 0.9200 0.9200 0.9200
4.557000 0.9210 0.9210 0.9210 0.9200 0.9200
4.590223 0.9200 0.9210 0.9230 0.9230 0.9230
4.623000 0.9230 0.9210 0.9210 0.9200 0.9180
4.656223 0.9160 0.9150 0.9130 0.9110 0.9110
4.690000 0.9130 0.9150 0.9150 0.9160 0.9160
4.723223 0.9160 0.9180 0.9180 0.9180 0.9180
4.756000 0.9180 0.9180 0.9180 0.9180 0.9180
4.789223 0.9180 0.9180 0.9160 0.9150 0.9110
4.823000 0.9100 0.9080 0.9080 0.9080 0.9050
4.856223 0.9050 0.9050 0.9050 0.9030 0.9030
4.889000 0.9030 0.9030 0.9030 0.9030 0.9030
4.922223 0.9010 0.9000 0.8980 0.8880 0.8830
4.955000 0.8800 0.8800 0.8780 0.8780 0.8780
4.988223 0.8780 0.8780 0.8810 0.8830 0.8880
5.022000 0.8900 0.8930 0.8930 0.8930 0.8880
5.055223 0.8810 0.8780 0.8780 0.8780 0.8800
5.088000 0.8800 0.8780 0.8780 0.8780 0.8780
5.121223 0.8750 0.8750 0.8700 0.8650 0.8600
5.155000 0.8580 0.8530 0.8480 0.8360 0.8280
5.188223 0.8230 0.8210 0.8200 0.8210 0.8430
5.221000 0.8480 0.8530 0.8600 0.8700 0.8750
5.254223 0.8780 0.8780 0.8800 0.8800 0.8800
5.287000 0.8830 0.8850 0.8850 0.8810 0.8780
5.320223 0.8730 0.8700 0.8680 0.8600 0.8560
5.354000 0.8530 0.8530 0.8510 0.8510 0.8530
5.387223 0.8550 0.8580 0.8600 0.8610 0.8650
5.420000 0.8700 0.8730 0.8760 0.8780 0.8780
5.453223 0.8800 0.8850 0.8900 0.8910 0.8910
5.487000 0.8900 0.8900 0.8880 0.8830 0.8760
5.520223 0.8700 0.8650 0.8560 0.8500 0.8410
5.553000 0.8400 0.8380 0.8360 0.8360 0.8350
5.586223 0.8350 0.8350 0.8360 0.8400 0.8410
5.620000 0.8430 0.8430 0.8400 0.8380 0.8400
5.653223 0.8400 0.8450 0.8500 0.8510 0.8530
5.686000 0.8550 0.8560 0.8560 0.8560 0.8560
5.719223 0.8550 0.8550 0.8510 0.8480 0.8430
5.752000 0.8400 0.8380 0.8380 0.8380 0.8380
5.785223 0.8360 0.8360 0.8380 0.8400 0.8410
5.819000 0.8430 0.8430 0.8450 0.8450 0.8410
5.852223 0.8380 0.8380 0.8380 0.8360 0.8350
5.885000 0.8280 0.8260 0.8210 0.8100 0.8000
5.918223 0.7970 0.7930 0.7830 0.7700 0.7530
5.952000 0.7280 0.6970 0.6700 0.6500 0.6150
5.985223 0.6130 0.6150 0.6200 0.6300 0.6520
6.018000 0.6650 0.6770 0.6980 0.7150 0.7320
6.051223 0.7380 0.7420 0.7430 0.7470 0.7500
6.084000 0.7530 0.7530 0.7530 0.7520 0.7500
6.117223 0.7420 0.7330 0.7280 0.7200 0.7080
6.151000 0.6970 0.6800 0.6480 0.6020 0.5470
6.184223 0.5150 0.4840 0.3970 0.2590 0.2320
6.217000 0.2160 0.1990 0.1980 0.1990 0.2360
6.250223 0.2790 0.3260 0.3490 0.3660 0.3790
6.284000 0.3890 0.4090 0.4420 0.4670 0.4970
6.317223 0.5290 0.5400 0.5570 0.5790 0.6020
6.350000 0.6100 0.6130 0.6180 0.6220 0.6250
6.383223 0.6250 0.6120 0.6000 0.5690 0.5370
6.417000 0.5070 0.4920 0.4750 0.4390 0.4050
6.450223 0.3790 0.3410 0.3010 0.2610 0.2590
6.483000 0.2610 0.2910 0.3260 0.3520 0.3760
6.516223 0.4320 0.4740 0.5370 0.5650 0.5850
6.549000 0.5990 0.6050 0.6180 0.6220 0.6220
6.582223 0.6180 0.6180 0.6000 0.5790 0.5470
6.616000 0.5090 0.4820 0.4550 0.3840 0.2810
6.649223 0.1630 0.0410 0.0240 0.0240 0.0530
6.682000 0.0790 0.1090 0.1440 0.1830 0.2320
6.715223 0.2620 0.2960 0.3190 0.3440 0.3560
6.749000 0.3590 0.3520 0.3160 0.2740 0.2420
6.782223 0.1990 0.0980 0.0910 0.0890 0.0860
6.815000 0.0840 0.0840 0.0830 0.0810 0.0790
6.848223 0.0790 0.0830 0.0910 0.1030 0.1110
6.881000 0.1160 0.1240 0.1330 0.1410 0.1440
6.914223 0.1460 0.1510 0.1530 0.1580 0.1630
6.948000 0.1710 0.1840 0.1990 0.2110 0.2260
6.981223 0.2440 0.2590 0.2740 0.2840 0.3310
7.014000 0.3420 0.3590 0.3670 0.3770 0.3790
7.047223 0.3770 0.3660 0.3570 0.3370 0.3060
7.081000 0.2920 0.2790 0.2770 0.2790 0.2860
7.114223 0.2940 0.3010 0.3070 0.3090 0.3070
7.147000 0.2960 0.2720 0.2420 0.2070 0.1880
7.180223 0.1540 0.1210 0.0910 0.0440 0.0340
7.213000 0.0310 0.0290 0.0290 0.0280 0.0280
7.246223 0.0280 0.0280 0.0280 0.0280 0.0280
7.280000 0.0280 0.0280 0.0280 0.0280 0.0310
7.313223 0.0330 0.0380 0.0440 0.0530 0.0680
7.346000 0.0930 0.1160 0.1430 0.1730 0.1980
7.379223 0.2190 0.2320 0.2510 0.2620 0.2710
7.413000 0.2820 0.2920 0.2970 0.2970 0.2960
7.446223 0.2920 0.2920 0.2890 0.2870 0.2890
7.479000 0.2960 0.3040 0.3110 0.3120 0.3140
7.512223 0.3120 0.3010 0.2920 0.2910 0.2920
7.546000 0.2990 0.3070 0.3190 0.3220 0.3310
7.579223 0.3320 0.3320 0.3290 0.3210 0.3120
7.612000 0.2990 0.2860 0.2790 0.2720 0.2660
7.645223 0.2590 0.2540 0.2520 0.2510 0.2510
7.678000 0.2490 0.2460 0.2440 0.2370 0.2310
7.711223 0.2260 0.2210 0.2160 0.2070 0.2040
7.745000 0.2020 0.2020 0.2020 0.2010 0.1990
7.778223 0.1990 0.1990 0.1990 0.1980 0.1980
7.811000 0.1980 0.1980 0.1990 0.1990 0.1990
7.844223 0.2020 0.2020 0.2110 0.2210 0.2310
7.878000 0.2410 0.2490 0.2540 0.2640 0.2790
7.911223 0.3020 0.3260 0.3470 0.3640 0.3740
7.944000 0.3790 0.3860 0.3970 0.4170 0.4300
7.977223 0.4340 0.4400 0.4420 0.4450 0.4490
8.010000 0.4520 0.4540 0.4550 0.4550 0.4550
8.043223 0.4540 0.4520 0.4520 0.4500 0.4500
8.077000 0.4500 0.4490 0.4470 0.4420 0.4400
8.110223 0.4340 0.4320 0.4290 0.4240 0.4140
8.143000 0.4040 0.3910 0.3720 0.3520 0.3310
8.176223 0.3020 0.2720 0.2370 0.1830 0.1340
8.210000 0.0980 0.0680 0.0480 0.0340 0.0290
8.243223 0.0280 0.0280 0.0280 0.0280 0.0280
8.276000 0.0280 0.0280 0.0280 0.0280 0.0290
8.309223 0.0310 0.0310 0.0330 0.0360 0.0410
8.343000 0.0490 0.0540 0.0680 0.0780 0.0880
8.376223 0.0980 0.1040 0.1090 0.1230 0.1380
8.409000 0.1480 0.1640 0.1660 0.1660 0.1690
8.442223 0.1710 0.1730 0.1760 0.1790 0.1790
8.475000 0.1790 0.1790 0.1730 0.1630 0.1530
8.508223 0.1310 0.1060 0.0830 0.0580 0.0430
8.542000 0.0390 0.0380 0.0380 0.0380 0.0410
8.575223 0.0490 0.0580 0.0640 0.0780 0.0860
8.608000 0.0940 0.1040 0.1140 0.1240 0.1330
8.641223 0.1380 0.1410 0.1430 0.1510 0.1590
8.675000 0.1690 0.1880 0.2070 0.2290 0.2470
8.708223 0.2670 0.2820 0.2970 0.3070 0.3240
8.741000 0.3390 0.3570 0.3740 0.3910 0.4090
8.774223 0.4250 0.4400 0.4550 0.4620 0.4840
8.807000 0.5150 0.5240 0.5300 0.5370 0.5400
8.840223 0.5440 0.5450 0.5440 0.5390 0.5300
8.874000 0.5170 0.5050 0.5000 0.4950 0.4770
8.907223 0.4740 0.4720 0.4740 0.5300 0.5570
8.940000 0.5820 0.6050 0.6270 0.6470 0.6680
8.973223 0.6850 0.6930 0.6980 0.6980 0.7000
9.007000 0.7030 0.7120 0.7280 0.7330 0.7380
9.040223 0.7430 0.7500 0.7530 0.7530 0.7580
9.073000 0.7650 0.7670 0.7720 0.7770 0.7780
9.106223 0.7780 0.7780 0.7780 0.7780 0.7770
9.139000 0.7750 0.7730 0.7720 0.7720 0.7720
9.172223 0.7700 0.7680 0.7620 0.7550 0.7420
9.206000 0.7300 0.7200 0.7070 0.6900 0.6670
9.239223 0.6320 0.5990 0.5600 0.5250 0.5100
9.272000 0.4950 0.4620 0.4450 0.4250 0.4120
9.305223 0.4100 0.4100 0.4140 0.4300 0.4540
9.339000 0.4990 0.5720 0.6000 0.6250 0.6480
9.372223 0.6680 0.6870 0.7030 0.7100 0.7270
9.405000 0.7370 0.7400 0.7450 0.7500 0.7550
9.438223 0.7580 0.7580 0.7580 0.7570 0.7570
9.472000 0.7570 0.7570 0.7580 0.7580 0.7580
9.505223 0.7570 0.7530 0.7520 0.7450 0.7420
9.538000 0.7400 0.7400 0.7380 0.7330 0.7250
9.571223 0.7200 0.7130 0.7100 0.7050 0.6930
9.604000 0.6800 0.6680 0.6570 0.6430 0.6300
9.637223 0.6130 0.5950 0.5720 0.5440 0.5100
9.671000 0.4970 0.4840 0.4470 0.4150 0.3910
9.704223 0.3720 0.3570 0.3470 0.3410 0.3340
9.737000 0.3270 0.3160 0.3060 0.2990 0.2970
9.770223 0.2990 0.3140 0.3340 0.3560 0.3720
9.804000 0.4000 0.4270 0.4350 0.4420 0.4550
9.837223 0.4600 0.4690 0.4700 0.4790 0.4900
9.870000 0.4970 0.5200 0.5300 0.5390 0.5420
9.903223 0.5440 0.5420 0.5270 0.5020 0.4870
9.936000 0.4720 0.4400 0.4150 0.3890 0.3790
9.969223 0.3790 0.3820 0.4220 0.4640 0.5490
10.003000 0.5900 0.6270 0.6570 0.6800 0.6920
10.036223 0.6980 0.7000 0.7020 0.7100 0.7130
10.069000 0.7170 0.7180 0.7180 0.7200 0.7200
10.102223 0.7180 0.7120 0.7080 0.7030 0.6980
10.136000 0.6920 0.6900 0.6870 0.6850 0.6820
10.169223 0.6820 0.6820 0.6830 0.6850 0.6900
10.202000 0.6970 0.7020 0.7080 0.7120 0.7180
10.235223 0.7280 0.7380 0.7400 0.7470 0.7500
10.269000 0.7600 0.7630 0.7680 0.7680 0.7700
10.302223 0.7700 0.7720 0.7720 0.7730 0.7730
10.335000 0.7750 0.7750 0.7770 0.7770 0.7800
10.368223 0.7800 0.7820 0.7820 0.7820 0.7830
10.401000 0.7850 0.7880 0.7900 0.7930 0.7950
10.434223 0.7970 0.7980 0.8000 0.8010 0.8010
10.468000 0.8050 0.8080 0.8100 0.8150 0.8180
10.501223 0.8200 0.8210 0.8230 0.8250 0.8250
10.534000 0.8280 0.8310 0.8310 0.8330 0.8330
10.567223 0.8350 0.8350 0.8360 0.8360 0.8360
10.601000 0.8350 0.8330 0.8310 0.8300 0.8280
10.634223 0.8260 0.8230 0.8200 0.8150 0.8080
10.667000 0.8030 0.8010 0.8000 0.7980 0.7930
10.700223 0.7880 0.7870 0.7800 0.7750 0.7720
10.733000 0.7680 0.7630 0.7620 0.7600 0.7600
10.766223 0.7580 0.7550 0.7550 0.7530 0.7530
10.800000 0.7520 0.7500 0.7500 0.7480 0.7470
10.833223 0.7470 0.7470 0.7470 0.7470 0.7470
10.866000 0.7450 0.7450 0.7400 0.7380 0.7370
10.899223 0.7320 0.7300 0.7280 0.7280 0.7230
10.933000 0.7200 0.7170 0.7120 0.7100 0.7000
10.966223 0.6870 0.6750 0.6700 0.6680 0.6600
10.999000 0.6480 0.6370 0.6230 0.6100 0.6050
11.032223 0.5990 0.5890 0.5790 0.5740 0.5700
11.065000 0.5690 0.5620 0.5600 0.5590 0.5570
11.098223 0.5590 0.5600 0.5640 0.5690 0.5720
11.132000 0.5790 0.5840 0.5850 0.5850 0.5890
11.165223 0.5920 0.5940 0.5970 0.5990 0.5990
11.198000 0.5990 0.5970 0.5940 0.5920 0.5890
11.231223 0.5850 0.5850 0.5850 0.5850 0.5850
11.265000 0.5870 0.5870 0.5890 0.5890 0.5890
11.298223 0.5870 0.5870 0.5890 0.5890 0.5900
11.331000 0.5940 0.5990 0.6020 0.6050 0.6120
11.364223 0.6200 0.6230 0.6370 0.6420 0.6500
11.398000 0.6570 0.6780 0.6880 0.6930 0.6950
11.431223 0.7000 0.7100 0.7180 0.7300 0.7380
11.464000 0.7420 0.7450 0.7520 0.7600 0.7630
11.497223 0.7700 0.7780 0.7800 0.7870 0.7930
11.530000 0.8010 0.8060 0.8110 0.8130 0.8160
11.563223 0.8180 0.8180 0.8180 0.8180 0.8180
11.597000 0.8200 0.8210 0.8210 0.8230 0.8250
11.630223 0.8250 0.8250 0.8230 0.8210 0.8200
11.663000 0.8180 0.8180 0.8180 0.8160 0.8150
11.696223 0.8150 0.8130 0.8110 0.8100 0.8080
11.730000 0.8030 0.8010 0.7930 0.7870 0.7870
11.763223 0.7830 0.7800 0.7730 0.7680 0.7650
11.796000 0.7570 0.7480 0.7380 0.7300 0.7230
11.829223 0.7120 0.7030 0.6950 0.6770 0.6630
11.862000 0.6400 0.6220 0.6050 0.5870 0.5650
11.895223 0.5450 0.5120 0.5040 0.4950 0.4770
11.929000 0.4670 0.4540 0.4420 0.4370 0.4320
11.962223 0.4320 0.4340 0.4470 0.4640 0.4720
11.995000 0.4920 0.5240 0.5390 0.5520 0.5600
12.028223 0.5690 0.5740 0.5800 0.5840 0.5890
12.062000 0.5900 0.5950 0.5950 0.5970 0.5970
12.095223 0.5990 0.5990 0.5990 0.5990 0.5990
12.128000 0.5990 0.5990 0.5990 0.5990 0.5990
12.161223 0.5990 0.5990 0.6000 0.6020 0.6020
12.194000 0.6030 0.6100 0.6180 0.6230 0.6280
12.227223 0.6300 0.6350 0.6420 0.6500 0.6580
12.261000 0.6600 0.6670 0.6720 0.6750 0.6800
12.294223 0.6880 0.6920 0.6930 0.7000 0.7020
12.327000 0.7030 0.7030 0.7050 0.7070 0.7070
12.360223 0.7080 0.7120 0.7150 0.7150 0.7150
12.394000 0.7130 0.7120 0.7120 0.7100 0.7080
12.427223 0.7080 0.7080 0.7080 0.7050 0.7020
12.460000 0.6980 0.6980 0.6980 0.7000 0.7020
12.493223 0.7050 0.7070 0.7070 0.7070 0.7080
12.527000 0.7080 0.7120 0.7180 0.7200 0.7220
12.560223 0.7230 0.7250 0.7280 0.7320 0.7330
12.593000 0.7330 0.7370 0.7380 0.7380 0.7370
12.626223 0.7350 0.7330 0.7300 0.7230 0.7130
12.659000 0.7080 0.7000 0.6900 0.6800 0.6670
12.692223 0.6520 0.6370 0.6230 0.6100 0.5950
12.726000 0.5820 0.5670 0.5500 0.5320 0.5220
12.759223 0.5120 0.5020 0.5000 0.4970 0.4900
12.792000 0.4850 0.4790 0.4700 0.4620 0.4590
12.825223 0.4570 0.4550 0.4540 0.4540 0.4540
12.859000 0.4520 0.4520 0.4520 0.4540 0.4570
12.892223 0.4600 0.4620 0.4650 0.4700 0.4740
12.925000 0.4820 0.4900 0.4950 0.4990 0.5020
12.958223 0.5090 0.5150 0.5220 0.5240 0.5240
12.991000 0.5250 0.5290 0.5340 0.5390 0.5390
13.024223 0.5400 0.5400 0.5370 0.5350 0.5340
13.058000 0.5340 0.5300 0.5220 0.5150 0.5050
13.091223 0.4990 0.4920 0.4840 0.4740 0.4570
13.124000 0.4490 0.4400 0.4270 0.4100 0.3960
13.157223 0.3810 0.3660 0.3560 0.3460 0.3390
13.191000 0.3360 0.3320 0.3290 0.3240 0.3190
13.224223 0.3170 0.3160 0.3160 0.3140 0.3120
13.257000 0.3110 0.3090 0.3070 0.3040 0.3020
13.290223 0.2990 0.2960 0.2890 0.2820 0.2760
13.324000 0.2660 0.2520 0.2320 0.2210 0.2140
13.357223 0.1990 0.1830 0.1730 0.1590 0.1510
13.390000 0.1430 0.1340 0.1240 0.1190 0.1130
13.423223 0.1080 0.1060 0.1040 0.1040 0.1040
13.456000 0.1040 0.1040 0.1040 0.1030 0.1030
13.489223 0.1030 0.1030 0.1030 0.1010 0.0990
13.523000 0.0990 0.0980 0.0980 0.0980 0.0980
13.556223 0.0980 0.0980 0.0990 0.0990 0.0990
13.589000 0.1010 0.1010 0.1030 0.1060 0.1130
13.622223 0.1190 0.1240 0.1290 0.1340 0.1410
13.656000 0.1510 0.1590 0.1690 0.1810 0.1910
13.689223 0.2070 0.2260 0.2460 0.2520 0.2640
13.722000 0.2740 0.2860 0.2960 0.3060 0.3190
13.755223 0.3290 0.3410 0.3510 0.3560 0.3610
13.788000 0.3660 0.3740 0.3790 0.3840 0.3860
13.821223 0.3860 0.3890 0.3910 0.3910 0.3910
13.855000 0.3890 0.3870 0.3840 0.3820 0.3790
13.888223 0.3760 0.3720 0.3710 0.3670 0.3620
13.921000 0.3570 0.3520 0.3460 0.3390 0.3340
13.954223 0.3310 0.3290 0.3270 0.3240 0.3210
13.988000 0.3190 0.3190 0.3210 0.3240 0.3270
14.021223 0.3270 0.3290 0.3290 0.3290 0.3310
14.054000 0.3320 0.3370 0.3410 0.3420 0.3460
14.087223 0.3470 0.3490 0.3490 0.3510 0.3510
14.120000 0.3520 0.3520 0.3560 0.3590 0.3620
14.153223 0.3690 0.3710 0.3740 0.3770 0.3820
14.187000 0.3870 0.3910 0.3970 0.4020 0.4040
14.220223 0.4020 0.3960 0.3890 0.3810 0.3720
14.253000 0.3620 0.3490 0.3360 0.3210 0.3040
14.286223 0.2890 0.2740 0.2660 0.2560 0.2360
14.320000 0.2190 0.2110 0.2010 0.1960 0.1880
14.353223 0.1810 0.1740 0.1730 0.1730 0.1730
14.386000 0.1760 0.1760 0.1790 0.1810 0.1830
14.419223 0.1860 0.1890 0.1930 0.1980 0.1990
14.453000 0.2010 0.2020 0.2060 0.2070 0.2070
14.486223 0.2060 0.2040 0.2020 0.1990 0.1980
14.519000 0.1960 0.1930 0.1880 0.1860 0.1860
14.552223 0.1880 0.1880 0.1890 0.1960 0.2010
14.585000 0.2060 0.2160 0.2220 0.2390 0.2570
14.618223 0.2640 0.2760 0.2940 0.3140 0.3360
14.652000 0.3560 0.3760 0.3970 0.4240 0.4440
14.685223 0.4620 0.4840 0.5340 0.5500 0.5640
14.718000 0.5840 0.5990 0.6150 0.6280 0.6400
14.751223 0.6480 0.6570 0.6620 0.6700 0.6800
14.785000 0.6850 0.6980 0.7100 0.7150 0.7180
14.818223 0.7200 0.7220 0.7250 0.7270 0.7280
14.851000 0.7300 0.7320 0.7350 0.7350 0.7370
14.884223 0.7370 0.7400 0.7420 0.7450 0.7450
14.917000 0.7430 0.7420 0.7380 0.7380 0.7370
14.950223 0.7350 0.7350 0.7320 0.7300 0.7280
14.984000 0.7280 0.7270 0.7250 0.7230 0.7220
15.017223 0.7180 0.7170 0.7100 0.7070 0.7000
15.050000 0.6980 0.6970 0.6970 0.6950 0.6950
15.083223 0.6970 0.6970 0.6970 0.6980 0.7000
15.117000 0.7000 0.7020 0.7020 0.7030 0.7050
15.150223 0.7080 0.7080 0.7080 0.7080 0.7100
15.183000 0.7100 0.7100 0.7170 0.7200 0.7200
15.216223 0.7170 0.7170 0.7170 0.7170 0.7180
15.250000 0.7180 0.7200 0.7220 0.7220 0.7220
15.283223 0.7220 0.7220 0.7230 0.7230 0.7250
15.316000 0.7250 0.7250 0.7270 0.7270 0.7280
15.349223 0.7330 0.7370 0.7380 0.7380 0.7370
15.382000 0.7370 0.7370 0.7370 0.7380 0.7380
15.415223 0.7380 0.7380 0.7380 0.7380 0.7380
15.449000 0.7400 0.7400 0.7380 0.7380 0.7380
15.482223 0.7380 0.7370 0.7370 0.7380 0.7380
15.515000 0.7400 0.7400 0.7380 0.7370 0.7370
15.548223 0.7350 0.7320 0.7300 0.7280 0.7270
15.582000 0.7230 0.7220 0.7200 0.7200 0.7180
15.615223 0.7180 0.7180 0.7180 0.7180 0.7180
15.648000 0.7170 0.7170 0.7170 0.7170 0.7170
15.681223 0.7150 0.7150 0.7150 0.7150 0.7150
15.714000 0.7150 0.7150 0.7150 0.7170 0.7170
15.747223 0.7170 0.7170 0.7170 0.7200 0.7230
15.781000 0.7250 0.7250 0.7230 0.7230 0.7230
15.814223 0.7220 0.7220 0.7200 0.7200 0.7180
15.847000 0.7170 0.7150 0.7130 0.7130 0.7130
15.880223 0.7120 0.7120 0.7120 0.7120 0.7120
15.914000 0.7120 0.7080 0.7080 0.7070 0.7070
15.947223 0.7070 0.7070 0.7070 0.7050 0.7050
15.980000 0.7020 0.7000 0.7020
##END=
