##TITLE=2,6-DI-(5-NONYL) PYRAZINE
##JCAMP-DX=4.24
##DATA TYPE=INFRARED SPECTRUM
##CLASS=COBLENTZ
##ORIGIN=WYANDOTTE CHEMICALS CORP., WYANDOTTE, MICHIGAN, USA
##OWNER=COBLENTZ SOCIETY
Collection (C) 2018 copyright by the U.S. Secretary of Commerce
on behalf of the United States of America. All rights reserved.
##DATE=Not specified, most likely prior to 1970
##NAMES=2,6-bis(1-butylpentyl)pyrazine
##CAS REGISTRY NO=116660-06-1
##MOLFORM=C22 H40 N2
##SOURCE REFERENCE=COBLENTZ NO. 3144
##$NIST SOURCE=COBLENTZ
##$NIST IMAGE=cob3144
##SPECTROMETER/DATA SYSTEM=Not specified, most likely a prism, grating, or hybrid spectrometer.
##STATE=LIQUID
##PATH LENGTH=0.003 CM
##SAMPLING PROCEDURE=TRANSMISSION
##RESOLUTION=4
##DATA PROCESSING=DIGITIZED BY NIST FROM HARD COPY
##XUNITS=MICROMETERS
##YUNITS=TRANSMITTANCE
##XFACTOR=1.000000
##YFACTOR=1
##DELTAX=000.006813
##FIRSTX=2.027
##LASTX=15.993
##FIRSTY=0.984
##MAXX=15.993
##MINX=2.027
##MAXY=0.989
##MINY=0.029
##NPOINTS=2051
##XYDATA=(X++(Y..Y))
2.027000 0.9840 0.9890 0.9890 0.9890 0.9880
2.061080 0.9820 0.9810 0.9810 0.9810 0.9810
2.095000 0.9840 0.9820 0.9810 0.9790 0.9770
2.129080 0.9760 0.9720 0.9700 0.9690 0.9640
2.164000 0.9550 0.9480 0.9410 0.9290 0.9210
2.198080 0.9040 0.8860 0.8830 0.8830 0.8830
2.232000 0.8850 0.8860 0.8880 0.8900 0.8950
2.266080 0.8980 0.9020 0.9050 0.9040 0.9020
2.300000 0.9000 0.9000 0.9000 0.9020 0.9050
2.334080 0.9050 0.9070 0.9100 0.9140 0.9160
2.368000 0.9160 0.9140 0.9100 0.9090 0.9070
2.402080 0.9090 0.9160 0.9190 0.9210 0.9240
2.436000 0.9290 0.9310 0.9330 0.9330 0.9360
2.470080 0.9410 0.9450 0.9480 0.9500 0.9530
2.504000 0.9580 0.9620 0.9620 0.9580 0.9580
2.538080 0.9580 0.9570 0.9570 0.9570 0.9550
2.572000 0.9530 0.9550 0.9570 0.9620 0.9650
2.606080 0.9650 0.9650 0.9640 0.9600 0.9580
2.640000 0.9570 0.9550 0.9550 0.9580 0.9600
2.674080 0.9600 0.9570 0.9550 0.9550 0.9530
2.709000 0.9520 0.9520 0.9500 0.9500 0.9480
2.743080 0.9460 0.9430 0.9430 0.9410 0.9410
2.777000 0.9400 0.9400 0.9400 0.9410 0.9430
2.811080 0.9430 0.9430 0.9430 0.9400 0.9400
2.845000 0.9380 0.9360 0.9330 0.9290 0.9280
2.879080 0.9260 0.9220 0.9210 0.9190 0.9210
2.913000 0.9210 0.9220 0.9240 0.9220 0.9220
2.947080 0.9220 0.9210 0.9190 0.9210 0.9210
2.981000 0.9190 0.9170 0.9170 0.9160 0.9160
3.015080 0.9140 0.9140 0.9140 0.9120 0.9100
3.049000 0.9100 0.9040 0.9000 0.8980 0.8950
3.083080 0.8930 0.8930 0.8880 0.8850 0.8830
3.117000 0.8830 0.8810 0.8780 0.8760 0.8710
3.151080 0.8640 0.8640 0.8680 0.8710 0.8710
3.185000 0.8680 0.8680 0.8630 0.8560 0.8450
3.219080 0.8350 0.8270 0.8160 0.8040 0.7890
3.254000 0.7410 0.6810 0.6130 0.5420 0.4620
3.288080 0.4520 0.4600 0.5250 0.5250 0.5110
3.322000 0.4400 0.3750 0.2770 0.2000 0.1190
3.356080 0.0650 0.0300 0.0290 0.0300 0.0300
3.390000 0.0350 0.0370 0.0410 0.0440 0.0460
3.424080 0.0460 0.0470 0.0490 0.0490 0.0490
3.458000 0.0510 0.0530 0.0510 0.0420 0.0420
3.492080 0.0420 0.0440 0.0590 0.1140 0.2000
3.526000 0.2850 0.3900 0.4820 0.5700 0.6130
3.560080 0.6400 0.6550 0.6760 0.6950 0.7170
3.594000 0.7410 0.7580 0.7700 0.7790 0.7920
3.628080 0.7990 0.8010 0.8010 0.7990 0.7720
3.662000 0.7650 0.7650 0.7720 0.7910 0.8030
3.696080 0.8150 0.8230 0.8250 0.8250 0.8230
3.730000 0.8200 0.8160 0.8130 0.8150 0.8230
3.764080 0.8370 0.8450 0.8510 0.8520 0.8560
3.799000 0.8640 0.8690 0.8680 0.8680 0.8680
3.833080 0.8680 0.8680 0.8660 0.8640 0.8660
3.867000 0.8710 0.8730 0.8750 0.8800 0.8830
3.901080 0.8850 0.8860 0.8860 0.8880 0.8920
3.935000 0.8920 0.8950 0.8980 0.9000 0.9020
3.969080 0.9020 0.9040 0.9040 0.9050 0.9090
4.003000 0.9120 0.9140 0.9160 0.9210 0.9240
4.037080 0.9280 0.9280 0.9220 0.9170 0.9160
4.071000 0.9140 0.9120 0.9120 0.9120 0.9120
4.105080 0.9140 0.9210 0.9220 0.9240 0.9220
4.139000 0.9160 0.9140 0.9140 0.9170 0.9170
4.173080 0.9170 0.9170 0.9160 0.9210 0.9210
4.207000 0.9160 0.9120 0.9100 0.9120 0.9160
4.241080 0.9190 0.9210 0.9220 0.9240 0.9240
4.275000 0.9220 0.9210 0.9190 0.9190 0.9170
4.309080 0.9170 0.9170 0.9170 0.9170 0.9190
4.344000 0.9190 0.9190 0.9190 0.9190 0.9170
4.378080 0.9170 0.9190 0.9210 0.9240 0.9290
4.412000 0.9310 0.9330 0.9310 0.9330 0.9340
4.446080 0.9340 0.9340 0.9340 0.9340 0.9280
4.480000 0.9280 0.9360 0.9360 0.9340 0.9310
4.514080 0.9330 0.9360 0.9340 0.9340 0.9340
4.548000 0.9340 0.9340 0.9340 0.9360 0.9360
4.582080 0.9360 0.9380 0.9400 0.9400 0.9400
4.616000 0.9400 0.9360 0.9360 0.9380 0.9430
4.650080 0.9430 0.9410 0.9400 0.9380 0.9380
4.684000 0.9380 0.9380 0.9380 0.9380 0.9400
4.718080 0.9400 0.9450 0.9450 0.9380 0.9380
4.752000 0.9400 0.9400 0.9430 0.9450 0.9450
4.786080 0.9480 0.9500 0.9500 0.9430 0.9450
4.820000 0.9480 0.9500 0.9500 0.9480 0.9500
4.854080 0.9520 0.9550 0.9550 0.9500 0.9500
4.889000 0.9500 0.9480 0.9430 0.9410 0.9410
4.923080 0.9400 0.9380 0.9380 0.9380 0.9380
4.957000 0.9380 0.9380 0.9380 0.9380 0.9400
4.991080 0.9430 0.9450 0.9450 0.9460 0.9460
5.025000 0.9480 0.9500 0.9500 0.9430 0.9430
5.059080 0.9460 0.9530 0.9570 0.9580 0.9600
5.093000 0.9620 0.9640 0.9640 0.9620 0.9600
5.127080 0.9520 0.9520 0.9520 0.9530 0.9530
5.161000 0.9570 0.9570 0.9570 0.9570 0.9570
5.195080 0.9550 0.9530 0.9500 0.9480 0.9500
5.229000 0.9500 0.9500 0.9450 0.9410 0.9450
5.263080 0.9450 0.9430 0.9410 0.9400 0.9380
5.297000 0.9400 0.9410 0.9400 0.9380 0.9380
5.331080 0.9360 0.9340 0.9310 0.9280 0.9290
5.365000 0.9280 0.9260 0.9260 0.9280 0.9360
5.399080 0.9410 0.9410 0.9380 0.9400 0.9410
5.434000 0.9430 0.9410 0.9400 0.9380 0.9340
5.468080 0.9380 0.9360 0.9340 0.9290 0.9210
5.502000 0.9120 0.9090 0.9070 0.9020 0.9020
5.536080 0.9120 0.9190 0.9260 0.9330 0.9400
5.570000 0.9410 0.9380 0.9330 0.9400 0.9400
5.604080 0.9360 0.9340 0.9330 0.9340 0.9340
5.638000 0.9330 0.9290 0.9280 0.9220 0.9190
5.672080 0.9190 0.9220 0.9290 0.9400 0.9410
5.706000 0.9400 0.9290 0.9240 0.9220 0.9210
5.740080 0.9170 0.9160 0.9100 0.9020 0.9000
5.774000 0.9000 0.9000 0.9000 0.9000 0.9000
5.808080 0.9000 0.9000 0.9020 0.9020 0.9020
5.842000 0.9040 0.9090 0.9050 0.9000 0.8970
5.876080 0.9020 0.8970 0.8970 0.8950 0.8970
5.910000 0.9020 0.9020 0.9000 0.8970 0.8930
5.944080 0.8980 0.8930 0.8880 0.8880 0.8880
5.979000 0.8860 0.8850 0.8830 0.8800 0.8780
6.013080 0.8780 0.8750 0.8730 0.8730 0.8710
6.047000 0.8690 0.8680 0.8680 0.8730 0.8730
6.081080 0.8640 0.8640 0.8680 0.8750 0.8760
6.115000 0.8730 0.8750 0.8750 0.8780 0.8780
6.149080 0.8750 0.8730 0.8730 0.8730 0.8730
6.183000 0.8730 0.8710 0.8680 0.8660 0.8640
6.217080 0.8640 0.8640 0.8630 0.8610 0.8540
6.251000 0.8420 0.8200 0.8060 0.7800 0.7550
6.285080 0.7380 0.6960 0.6780 0.6780 0.7100
6.319000 0.7500 0.7680 0.7820 0.7960 0.8010
6.353080 0.8110 0.8180 0.8210 0.8210 0.8180
6.387000 0.8130 0.8090 0.8040 0.7990 0.7990
6.421080 0.7820 0.7680 0.7530 0.7240 0.6790
6.455000 0.6090 0.5290 0.4330 0.3440 0.2510
6.489080 0.1600 0.1500 0.1670 0.2310 0.2970
6.524000 0.3830 0.4910 0.6360 0.7070 0.7430
6.558080 0.7510 0.7560 0.7680 0.7800 0.7850
6.592000 0.7890 0.7890 0.7890 0.7870 0.7850
6.626080 0.7850 0.7840 0.7820 0.7790 0.7720
6.660000 0.7650 0.7600 0.7530 0.7460 0.7310
6.694080 0.7150 0.7030 0.6810 0.6600 0.6400
6.728000 0.6160 0.5890 0.5510 0.4640 0.3420
6.762080 0.2410 0.1500 0.0710 0.0580 0.0580
6.796000 0.0800 0.0920 0.0970 0.1010 0.1020
6.830080 0.1110 0.1210 0.1280 0.1360 0.1540
6.864000 0.1660 0.1900 0.2050 0.2190 0.2360
6.898080 0.2510 0.2680 0.2910 0.3210 0.3610
6.932000 0.4020 0.4220 0.4460 0.4690 0.4770
6.966080 0.4810 0.4890 0.4890 0.4670 0.4120
7.000000 0.3280 0.2610 0.2390 0.1910 0.1310
7.034080 0.1010 0.1090 0.1550 0.2080 0.2500
7.069000 0.3030 0.3540 0.3930 0.4450 0.5340
7.103080 0.5650 0.5820 0.5900 0.6060 0.6210
7.137000 0.6300 0.6430 0.6480 0.6480 0.6480
7.171080 0.6480 0.6380 0.6160 0.5850 0.5510
7.205000 0.4860 0.3950 0.3320 0.2750 0.2430
7.239080 0.2320 0.2380 0.2770 0.3590 0.4260
7.273000 0.4670 0.4860 0.4980 0.5100 0.5340
7.307080 0.5560 0.5820 0.5990 0.6060 0.6230
7.341000 0.6310 0.6420 0.6520 0.6540 0.6590
7.375080 0.6600 0.6600 0.6600 0.6590 0.6430
7.409000 0.6260 0.6180 0.6070 0.6010 0.6010
7.443080 0.6130 0.6230 0.6420 0.6550 0.6670
7.477000 0.6860 0.7030 0.7140 0.7220 0.7290
7.511080 0.7380 0.7480 0.7530 0.7580 0.7610
7.545000 0.7630 0.7610 0.7600 0.7550 0.7510
7.579080 0.7500 0.7500 0.7500 0.7480 0.7430
7.614000 0.7410 0.7380 0.7310 0.7220 0.7120
7.648080 0.7080 0.7050 0.7050 0.7030 0.7020
7.682000 0.6910 0.6830 0.6760 0.6690 0.6600
7.716080 0.6540 0.6480 0.6420 0.6380 0.6380
7.750000 0.6360 0.6310 0.6310 0.6330 0.6330
7.784080 0.6330 0.6330 0.6350 0.6400 0.6450
7.818000 0.6480 0.6500 0.6500 0.6520 0.6500
7.852080 0.6430 0.6310 0.6250 0.6160 0.6020
7.886000 0.6010 0.5990 0.6010 0.6010 0.6010
7.920080 0.6040 0.6040 0.6070 0.6070 0.6070
7.954000 0.6070 0.6070 0.6090 0.6110 0.6140
7.988080 0.6180 0.6210 0.6260 0.6330 0.6350
8.022000 0.6350 0.6260 0.6060 0.5830 0.5660
8.056080 0.5530 0.5320 0.5100 0.4980 0.4810
8.091000 0.4570 0.4310 0.4190 0.3980 0.3760
8.125080 0.3540 0.3350 0.3210 0.3130 0.3130
8.159000 0.3400 0.3750 0.4100 0.4460 0.4840
8.193080 0.5200 0.5560 0.5890 0.6060 0.6140
8.227000 0.6190 0.6210 0.6230 0.6230 0.6230
8.261080 0.6190 0.6180 0.6180 0.6190 0.6250
8.295000 0.6350 0.6500 0.6640 0.6740 0.6840
8.329080 0.6900 0.6930 0.7000 0.7000 0.7000
8.363000 0.7020 0.7030 0.7080 0.7120 0.7140
8.397080 0.7150 0.7270 0.7360 0.7410 0.7430
8.431000 0.7410 0.7380 0.7380 0.7360 0.7320
8.465080 0.7190 0.7030 0.6880 0.6710 0.6420
8.499000 0.6130 0.5890 0.5580 0.5130 0.4620
8.533080 0.4040 0.3490 0.2970 0.2650 0.2380
8.567000 0.2030 0.1790 0.1670 0.1660 0.1690
8.601080 0.1760 0.1900 0.2070 0.2270 0.2480
8.636000 0.2680 0.2970 0.3350 0.3750 0.4140
8.670080 0.4460 0.4860 0.5150 0.5460 0.5650
8.704000 0.5820 0.6060 0.6090 0.6070 0.6060
8.738080 0.5970 0.5850 0.5780 0.5730 0.5700
8.772000 0.5680 0.5650 0.5680 0.5780 0.5870
8.806080 0.6020 0.6110 0.6180 0.6230 0.6330
8.840000 0.6500 0.6590 0.6670 0.6760 0.6900
8.874080 0.7000 0.7080 0.7080 0.7030 0.7000
8.908000 0.6960 0.6880 0.6760 0.6550 0.6360
8.942080 0.6230 0.6130 0.5970 0.5830 0.5750
8.976000 0.5710 0.5650 0.5610 0.5530 0.5420
9.010080 0.5370 0.5370 0.5490 0.5510 0.5610
9.044000 0.5700 0.5700 0.5710 0.5730 0.5770
9.078080 0.5780 0.5780 0.5770 0.5710 0.5710
9.112000 0.5710 0.5730 0.5800 0.5830 0.5830
9.146080 0.5850 0.5900 0.5970 0.5990 0.5990
9.181000 0.5970 0.5990 0.6020 0.6070 0.6130
9.215080 0.6190 0.6250 0.6330 0.6420 0.6470
9.249000 0.6480 0.6540 0.6620 0.6670 0.6690
9.283080 0.6760 0.6860 0.6880 0.6880 0.6880
9.317000 0.6950 0.7000 0.7030 0.7070 0.7070
9.351080 0.7080 0.7120 0.7190 0.7220 0.7240
9.385000 0.7290 0.7340 0.7360 0.7380 0.7360
9.419080 0.7340 0.7360 0.7380 0.7390 0.7410
9.453000 0.7460 0.7480 0.7510 0.7550 0.7580
9.487080 0.7650 0.7700 0.7700 0.7720 0.7720
9.521000 0.7720 0.7700 0.7720 0.7700 0.7700
9.555080 0.7700 0.7700 0.7700 0.7700 0.7700
9.589000 0.7700 0.7700 0.7700 0.7680 0.7680
9.623080 0.7650 0.7650 0.7650 0.7630 0.7610
9.657000 0.7610 0.7610 0.7610 0.7600 0.7580
9.691080 0.7560 0.7510 0.7480 0.7480 0.7460
9.726000 0.7410 0.7380 0.7270 0.7140 0.6960
9.760080 0.6740 0.6500 0.6140 0.5660 0.5110
9.794000 0.4580 0.3710 0.2500 0.2020 0.1480
9.828080 0.1470 0.1480 0.1840 0.2190 0.2670
9.862000 0.3270 0.3970 0.4690 0.5440 0.6160
9.896080 0.6590 0.6840 0.7030 0.7170 0.7240
9.930000 0.7360 0.7480 0.7510 0.7600 0.7700
9.964080 0.7750 0.7790 0.7840 0.7910 0.7960
9.998000 0.7970 0.8010 0.8030 0.8040 0.8090
10.032080 0.8110 0.8110 0.8090 0.8080 0.8080
10.066000 0.8080 0.8080 0.8080 0.8030 0.8010
10.100080 0.8010 0.7990 0.7990 0.7960 0.7910
10.134000 0.7850 0.7800 0.7770 0.7730 0.7720
10.168080 0.7700 0.7670 0.7600 0.7550 0.7500
10.202000 0.7560 0.7550 0.7530 0.7510 0.7500
10.236080 0.7500 0.7500 0.7480 0.7430 0.7430
10.271000 0.7410 0.7440 0.7440 0.7410 0.7340
10.305080 0.7310 0.7310 0.7310 0.7290 0.7290
10.339000 0.7260 0.7220 0.7200 0.7220 0.7220
10.373080 0.7190 0.7190 0.7190 0.7190 0.7170
10.407000 0.7150 0.7150 0.7170 0.7170 0.7190
10.441080 0.7200 0.7220 0.7220 0.7260 0.7290
10.475000 0.7380 0.7410 0.7340 0.7340 0.7380
10.509080 0.7410 0.7390 0.7390 0.7360 0.7380
10.543000 0.7430 0.7390 0.7390 0.7390 0.7410
10.577080 0.7410 0.7430 0.7480 0.7500 0.7510
10.611000 0.7530 0.7550 0.7610 0.7700 0.7750
10.645080 0.7790 0.7820 0.7870 0.7910 0.7970
10.679000 0.7990 0.8010 0.8010 0.8080 0.8080
10.713080 0.8110 0.8110 0.8090 0.8110 0.8160
10.747000 0.8200 0.8230 0.8300 0.8370 0.8390
10.781080 0.8390 0.8400 0.8470 0.8490 0.8490
10.816000 0.8420 0.8400 0.8330 0.8300 0.8250
10.850080 0.8210 0.8200 0.8180 0.8110 0.8080
10.884000 0.8080 0.8040 0.8030 0.8010 0.7990
10.918080 0.7960 0.7940 0.7920 0.7920 0.7920
10.952000 0.7910 0.7910 0.7890 0.7870 0.7870
10.986080 0.7850 0.7850 0.7840 0.7820 0.7820
11.020000 0.7800 0.7800 0.7790 0.7770 0.7720
11.054080 0.7720 0.7770 0.7770 0.7730 0.7700
11.088000 0.7670 0.7610 0.7530 0.7500 0.7500
11.122080 0.7430 0.7390 0.7360 0.7320 0.7310
11.156000 0.7290 0.7290 0.7270 0.7220 0.7190
11.190080 0.7120 0.7050 0.7020 0.6950 0.6810
11.224000 0.6670 0.6540 0.6470 0.6380 0.6300
11.258080 0.6190 0.6040 0.5920 0.5750 0.5630
11.292000 0.5420 0.5180 0.4940 0.4740 0.4600
11.326080 0.4580 0.4580 0.4600 0.4700 0.4890
11.361000 0.5220 0.5510 0.5890 0.6160 0.6430
11.395080 0.6710 0.6950 0.7190 0.7390 0.7560
11.429000 0.7700 0.7790 0.7910 0.7990 0.8040
11.463080 0.8110 0.8150 0.8180 0.8230 0.8280
11.497000 0.8330 0.8390 0.8420 0.8490 0.8560
11.531080 0.8630 0.8640 0.8640 0.8680 0.8710
11.565000 0.8730 0.8780 0.8810 0.8850 0.8850
11.599080 0.8860 0.8860 0.8880 0.8880 0.8880
11.633000 0.8860 0.8880 0.8880 0.8880 0.8930
11.667080 0.8980 0.8980 0.8980 0.8980 0.8980
11.701000 0.8980 0.8980 0.8930 0.8930 0.8930
11.735080 0.8950 0.8970 0.9000 0.8980 0.8980
11.769000 0.8970 0.8970 0.8930 0.8920 0.8920
11.803080 0.8900 0.8900 0.8920 0.8920 0.8920
11.837000 0.8900 0.8810 0.8800 0.8800 0.8810
11.871080 0.8880 0.8880 0.8880 0.8810 0.8810
11.906000 0.8810 0.8860 0.8930 0.8930 0.8970
11.940080 0.9000 0.9020 0.8970 0.8970 0.8970
11.974000 0.8980 0.9040 0.9040 0.9040 0.9050
12.008080 0.9050 0.9040 0.9040 0.9040 0.9040
12.042000 0.9070 0.9070 0.9040 0.9020 0.9020
12.076080 0.9020 0.9020 0.8950 0.8950 0.9040
12.110000 0.9020 0.9000 0.8980 0.8920 0.8900
12.144080 0.8900 0.8900 0.8880 0.8900 0.8880
12.178000 0.8850 0.8830 0.8850 0.8850 0.8830
12.212080 0.8800 0.8800 0.8760 0.8760 0.8800
12.246000 0.8780 0.8750 0.8730 0.8730 0.8730
12.280080 0.8730 0.8710 0.8690 0.8690 0.8690
12.314000 0.8690 0.8690 0.8680 0.8630 0.8630
12.348080 0.8610 0.8560 0.8520 0.8510 0.8490
12.382000 0.8490 0.8470 0.8470 0.8400 0.8320
12.416080 0.8320 0.8330 0.8370 0.8370 0.8330
12.451000 0.8300 0.8270 0.8250 0.8230 0.8210
12.485080 0.8210 0.8180 0.8160 0.8180 0.8180
12.519000 0.8180 0.8130 0.8110 0.8090 0.8060
12.553080 0.8010 0.8010 0.7990 0.7920 0.7920
12.587000 0.7910 0.7910 0.7840 0.7790 0.7770
12.621080 0.7730 0.7700 0.7650 0.7610 0.7560
12.655000 0.7510 0.7500 0.7480 0.7410 0.7340
12.689080 0.7290 0.7290 0.7260 0.7240 0.7200
12.723000 0.7140 0.7120 0.7100 0.7100 0.7100
12.757080 0.7120 0.7140 0.7140 0.7140 0.7140
12.791000 0.7150 0.7150 0.7170 0.7150 0.7140
12.825080 0.7120 0.7100 0.7030 0.7020 0.6960
12.859000 0.6840 0.6740 0.6660 0.6540 0.6400
12.893080 0.6210 0.6130 0.6020 0.5900 0.5820
12.927000 0.5770 0.5750 0.5770 0.5820 0.5950
12.961080 0.6060 0.6280 0.6470 0.6620 0.6740
12.996000 0.6880 0.7000 0.7150 0.7320 0.7510
13.030080 0.7560 0.7650 0.7720 0.7750 0.7790
13.064000 0.7840 0.7850 0.7870 0.7890 0.7890
13.098080 0.7890 0.7850 0.7840 0.7790 0.7750
13.132000 0.7730 0.7720 0.7720 0.7680 0.7650
13.166080 0.7600 0.7480 0.7410 0.7390 0.7340
13.200000 0.7340 0.7310 0.7150 0.7050 0.7030
13.234080 0.6980 0.6900 0.6830 0.6790 0.6740
13.268000 0.6690 0.6640 0.6590 0.6550 0.6520
13.302080 0.6520 0.6500 0.6480 0.6430 0.6420
13.336000 0.6400 0.6400 0.6380 0.6360 0.6350
13.370080 0.6330 0.6330 0.6310 0.6310 0.6330
13.404000 0.6350 0.6330 0.6330 0.6310 0.6300
13.438080 0.6280 0.6280 0.6260 0.6280 0.6310
13.473000 0.6300 0.6260 0.6190 0.6140 0.6130
13.507080 0.6060 0.6020 0.6010 0.5970 0.5900
13.541000 0.5850 0.5820 0.5710 0.5680 0.5650
13.575080 0.5580 0.5530 0.5460 0.5370 0.5340
13.609000 0.5200 0.5050 0.5010 0.5000 0.4940
13.643080 0.4880 0.4760 0.4690 0.4550 0.4460
13.677000 0.4450 0.4450 0.4450 0.4450 0.4450
13.711080 0.4460 0.4520 0.4580 0.4620 0.4690
13.745000 0.4760 0.4890 0.5010 0.5110 0.5300
13.779080 0.5470 0.5610 0.5750 0.5850 0.6060
13.813000 0.6310 0.6400 0.6520 0.6620 0.6720
13.847080 0.6860 0.6980 0.7100 0.7220 0.7310
13.881000 0.7360 0.7360 0.7430 0.7500 0.7530
13.915080 0.7560 0.7580 0.7630 0.7700 0.7750
13.949000 0.7790 0.7800 0.7820 0.7820 0.7820
13.983080 0.7820 0.7820 0.7910 0.7940 0.7960
14.018000 0.7970 0.7970 0.7990 0.7990 0.7990
14.052080 0.7990 0.7990 0.7990 0.7990 0.7990
14.086000 0.7990 0.7990 0.7990 0.7990 0.7990
14.120080 0.7990 0.7990 0.7990 0.7970 0.7970
14.154000 0.7970 0.7970 0.7970 0.7970 0.7960
14.188080 0.7960 0.7940 0.7940 0.7910 0.7910
14.222000 0.7920 0.7960 0.7970 0.7940 0.7910
14.256080 0.7890 0.7850 0.7850 0.7840 0.7840
14.290000 0.7840 0.7820 0.7800 0.7800 0.7800
14.324080 0.7820 0.7820 0.7820 0.7820 0.7800
14.358000 0.7790 0.7770 0.7750 0.7720 0.7700
14.392080 0.7720 0.7720 0.7720 0.7700 0.7680
14.426000 0.7670 0.7650 0.7630 0.7610 0.7580
14.460080 0.7560 0.7560 0.7530 0.7560 0.7600
14.494000 0.7610 0.7600 0.7560 0.7560 0.7530
14.528080 0.7530 0.7530 0.7530 0.7560 0.7560
14.563000 0.7560 0.7560 0.7560 0.7550 0.7550
14.597080 0.7550 0.7530 0.7510 0.7510 0.7510
14.631000 0.7460 0.7430 0.7430 0.7500 0.7500
14.665080 0.7440 0.7430 0.7410 0.7410 0.7380
14.699000 0.7340 0.7380 0.7380 0.7380 0.7360
14.733080 0.7340 0.7320 0.7290 0.7260 0.7260
14.767000 0.7270 0.7270 0.7270 0.7260 0.7240
14.801080 0.7220 0.7190 0.7170 0.7170 0.7170
14.835000 0.7170 0.7150 0.7150 0.7120 0.7100
14.869080 0.7100 0.7080 0.7050 0.7030 0.7030
14.903000 0.7020 0.7000 0.6960 0.6960 0.6980
14.937080 0.6980 0.7000 0.7000 0.7020 0.7030
14.971000 0.7050 0.7050 0.7070 0.7080 0.7080
15.005080 0.7030 0.6980 0.6960 0.6900 0.6780
15.039000 0.6570 0.6470 0.6350 0.6280 0.6160
15.073080 0.6020 0.5990 0.5920 0.5900 0.5890
15.108000 0.5890 0.5900 0.5940 0.6010 0.6020
15.142080 0.6040 0.6110 0.6190 0.6210 0.6250
15.176000 0.6280 0.6350 0.6430 0.6430 0.6480
15.210080 0.6570 0.6620 0.6660 0.6690 0.6760
15.244000 0.6790 0.6720 0.6710 0.6690 0.6690
15.278080 0.6690 0.6710 0.6720 0.6740 0.6740
15.312000 0.6710 0.6710 0.6690 0.6620 0.6600
15.346080 0.6620 0.6620 0.6620 0.6620 0.6620
15.380000 0.6640 0.6660 0.6660 0.6620 0.6590
15.414080 0.6550 0.6520 0.6520 0.6540 0.6570
15.448000 0.6590 0.6590 0.6570 0.6550 0.6540
15.482080 0.6520 0.6500 0.6470 0.6450 0.6430
15.516000 0.6430 0.6430 0.6400 0.6380 0.6330
15.550080 0.6300 0.6260 0.6250 0.6250 0.6230
15.584000 0.6250 0.6330 0.6330 0.6310 0.6310
15.618080 0.6300 0.6280 0.6260 0.6230 0.6280
15.653000 0.6280 0.6260 0.6250 0.6210 0.6210
15.687080 0.6190 0.6160 0.6140 0.6130 0.6110
15.721000 0.6070 0.6060 0.6020 0.6010 0.6020
15.755080 0.6070 0.6130 0.6060 0.6010 0.6010
15.789000 0.5990 0.5970 0.5950 0.5940 0.5940
15.823080 0.5890 0.5830 0.5820 0.5820 0.5820
15.857000 0.5820 0.5820 0.5820 0.5830 0.5830
15.891080 0.5800 0.5770 0.5710 0.5660 0.5660
15.925000 0.5680 0.5680 0.5700 0.5700 0.5730
15.959080 0.5700 0.5660 0.5630 0.5590 0.5560
15.993000 0.5560
##END=
