##TITLE=2-PHENOXY-6-BENZOYL PYRAZINE PHENYLHYDRAZONE
##JCAMP-DX=4.24
##DATA TYPE=INFRARED SPECTRUM
##CLASS=COBLENTZ
##ORIGIN=WYANDOTTE CHEMICALS CORP., WYANDOTTE, MICHIGAN, USA
##OWNER=COBLENTZ SOCIETY
Collection (C) 2018 copyright by the U.S. Secretary of Commerce
on behalf of the United States of America. All rights reserved.
##DATE=Not specified, most likely prior to 1970
##NAMES=(E)-(6-phenoxy-2-pyrazinyl)(phenyl)methanone phenylhydrazone
##CAS REGISTRY NO=116660-01-6
##MOLFORM=C23 H18 N4 O
##MP=127-130.5 C
##SOURCE REFERENCE=COBLENTZ NO. 2919
##$NIST SOURCE=COBLENTZ
##$NIST IMAGE=cob2919
##SPECTROMETER/DATA SYSTEM=Not specified, most likely a prism, grating, or hybrid spectrometer.
##STATE=SOLID (MINERAL OIL MULL)
##PATH LENGTH=
$$SPECTRAL CONTAMINATION DUE TO OIL AROUND 2900 CM^-^1
##SAMPLING PROCEDURE=TRANSMISSION
##RESOLUTION=4
##DATA PROCESSING=DIGITIZED BY NIST FROM HARD COPY
##XUNITS=MICROMETERS
##YUNITS=TRANSMITTANCE
##XFACTOR=1.000000
##YFACTOR=1
##DELTAX=000.006635
##FIRSTX=2.02
##LASTX=16.0005
##FIRSTY=0.602
##MAXX=16.0005
##MINX=2.02
##MAXY=0.958
##MINY=0.044
##NPOINTS=2108
##XYDATA=(X++(Y..Y))
2.020000 0.6020 0.6050 0.6080 0.6120 0.6120
2.053191 0.6120 0.6120 0.6120 0.6120 0.6130
2.086000 0.6150 0.6200 0.6230 0.6250 0.6270
2.119191 0.6280 0.6280 0.6320 0.6320 0.6320
2.153000 0.6320 0.6300 0.6300 0.6300 0.6280
2.186191 0.6280 0.6270 0.6270 0.6280 0.6320
2.219000 0.6350 0.6370 0.6370 0.6370 0.6400
2.252191 0.6420 0.6420 0.6420 0.6420 0.6420
2.285000 0.6430 0.6450 0.6480 0.6500 0.6500
2.318191 0.6500 0.6520 0.6520 0.6520 0.6520
2.352000 0.6530 0.6530 0.6530 0.6530 0.6550
2.385191 0.6550 0.6570 0.6570 0.6600 0.6620
2.418000 0.6630 0.6680 0.6730 0.6750 0.6770
2.451191 0.6780 0.6780 0.6820 0.6850 0.6870
2.484000 0.6880 0.6880 0.6920 0.6930 0.6970
2.517191 0.6980 0.7000 0.7020 0.7020 0.7030
2.551000 0.7050 0.7050 0.7030 0.7030 0.7020
2.584191 0.7020 0.7020 0.7030 0.7050 0.7080
2.617000 0.7120 0.7150 0.7170 0.7180 0.7200
2.650191 0.7200 0.7230 0.7230 0.7230 0.7250
2.683000 0.7250 0.7270 0.7270 0.7280 0.7280
2.716191 0.7280 0.7300 0.7300 0.7300 0.7300
2.750000 0.7300 0.7300 0.7320 0.7320 0.7320
2.783191 0.7320 0.7320 0.7300 0.7270 0.7230
2.816000 0.7230 0.7230 0.7270 0.7300 0.7320
2.849191 0.7320 0.7300 0.7300 0.7300 0.7280
2.882000 0.7280 0.7300 0.7300 0.7300 0.7280
2.915191 0.7280 0.7300 0.7320 0.7350 0.7350
2.949000 0.7330 0.7300 0.7300 0.7300 0.7320
2.982191 0.7330 0.7320 0.7300 0.7280 0.7270
3.015000 0.7230 0.7200 0.7150 0.7050 0.6930
3.048191 0.6780 0.6580 0.6350 0.6070 0.5720
3.082000 0.5400 0.5020 0.5000 0.4970 0.4970
3.115191 0.5400 0.5720 0.6000 0.6170 0.6250
3.148000 0.6300 0.6350 0.6400 0.6430 0.6450
3.181191 0.6470 0.6480 0.6480 0.6350 0.6200
3.214000 0.5970 0.5770 0.5570 0.5300 0.5070
3.247191 0.4840 0.4790 0.4790 0.4870 0.5270
3.281000 0.5320 0.5320 0.5240 0.5020 0.4790
3.314191 0.4240 0.3570 0.2620 0.1830 0.1410
3.347000 0.0960 0.0630 0.0510 0.0460 0.0440
3.380191 0.0440 0.0460 0.0510 0.0630 0.0790
3.413000 0.0980 0.1160 0.1380 0.1580 0.1710
3.446191 0.1760 0.1760 0.1680 0.1560 0.1530
3.480000 0.1530 0.1630 0.2010 0.2560 0.3220
3.513191 0.4090 0.4920 0.6570 0.7030 0.7280
3.546000 0.7400 0.7420 0.7500 0.7570 0.7700
3.579191 0.7770 0.7800 0.7820 0.7830 0.7870
3.612000 0.7920 0.7920 0.7930 0.7930 0.7920
3.645191 0.7920 0.7850 0.7820 0.7800 0.7800
3.679000 0.7830 0.7880 0.7900 0.7930 0.7930
3.712191 0.7930 0.7930 0.7950 0.7950 0.7950
3.745000 0.7970 0.7980 0.8000 0.8010 0.8010
3.778191 0.8030 0.8030 0.8030 0.8030 0.8030
3.811000 0.8060 0.8060 0.8080 0.8110 0.8130
3.844191 0.8160 0.8180 0.8180 0.8200 0.8200
3.878000 0.8210 0.8230 0.8250 0.8310 0.8350
3.911191 0.8360 0.8380 0.8400 0.8410 0.8410
3.944000 0.8450 0.8460 0.8480 0.8480 0.8500
3.977191 0.8500 0.8510 0.8530 0.8530 0.8550
4.010000 0.8560 0.8580 0.8580 0.8580 0.8550
4.043191 0.8510 0.8510 0.8530 0.8630 0.8650
4.077000 0.8630 0.8610 0.8580 0.8560 0.8580
4.110191 0.8600 0.8600 0.8610 0.8610 0.8630
4.143000 0.8660 0.8700 0.8730 0.8750 0.8750
4.176191 0.8730 0.8700 0.8650 0.8630 0.8610
4.209000 0.8600 0.8530 0.8480 0.8480 0.8500
4.242191 0.8510 0.8560 0.8580 0.8600 0.8610
4.276000 0.8650 0.8680 0.8700 0.8700 0.8710
4.309191 0.8730 0.8750 0.8750 0.8760 0.8780
4.342000 0.8810 0.8850 0.8880 0.8930 0.9000
4.375191 0.9010 0.9010 0.9030 0.9030 0.9030
4.409000 0.9030 0.9010 0.9010 0.9010 0.9010
4.442191 0.9010 0.9010 0.9030 0.9060 0.9060
4.475000 0.9080 0.9110 0.9110 0.9080 0.9080
4.508191 0.9100 0.9110 0.9150 0.9160 0.9150
4.541000 0.9110 0.9080 0.9080 0.9100 0.9130
4.574191 0.9180 0.9200 0.9230 0.9250 0.9250
4.608000 0.9250 0.9230 0.9210 0.9200 0.9200
4.641191 0.9210 0.9210 0.9210 0.9210 0.9250
4.674000 0.9260 0.9300 0.9310 0.9280 0.9250
4.707191 0.9250 0.9250 0.9260 0.9280 0.9330
4.740000 0.9330 0.9350 0.9360 0.9400 0.9400
4.773191 0.9360 0.9330 0.9310 0.9310 0.9310
4.807000 0.9350 0.9360 0.9380 0.9400 0.9400
4.840191 0.9400 0.9380 0.9360 0.9350 0.9330
4.873000 0.9330 0.9360 0.9380 0.9400 0.9410
4.906191 0.9410 0.9410 0.9410 0.9410 0.9410
4.939000 0.9410 0.9400 0.9350 0.9330 0.9330
4.972191 0.9330 0.9360 0.9380 0.9400 0.9410
5.006000 0.9430 0.9430 0.9450 0.9450 0.9450
5.039191 0.9450 0.9430 0.9400 0.9380 0.9380
5.072000 0.9410 0.9430 0.9450 0.9460 0.9460
5.105191 0.9450 0.9410 0.9360 0.9310 0.9300
5.138000 0.9250 0.9230 0.9210 0.9210 0.9200
5.171191 0.9200 0.9200 0.9230 0.9230 0.9250
5.205000 0.9280 0.9310 0.9310 0.9330 0.9330
5.238191 0.9350 0.9360 0.9360 0.9380 0.9380
5.271000 0.9400 0.9400 0.9400 0.9400 0.9400
5.304191 0.9400 0.9400 0.9410 0.9410 0.9410
5.337000 0.9430 0.9460 0.9500 0.9500 0.9550
5.370191 0.9580 0.9580 0.9550 0.9550 0.9530
5.404000 0.9500 0.9480 0.9460 0.9410 0.9380
5.437191 0.9350 0.9330 0.9310 0.9310 0.9310
5.470000 0.9300 0.9300 0.9310 0.9400 0.9510
5.503191 0.9580 0.9550 0.9510 0.9460 0.9410
5.536000 0.9400 0.9410 0.9450 0.9500 0.9510
5.569191 0.9500 0.9380 0.9280 0.9260 0.9260
5.603000 0.9280 0.9280 0.9300 0.9310 0.9330
5.636191 0.9330 0.9330 0.9350 0.9350 0.9350
5.669000 0.9350 0.9360 0.9360 0.9350 0.9350
5.702191 0.9350 0.9350 0.9350 0.9350 0.9360
5.736000 0.9380 0.9400 0.9400 0.9410 0.9430
5.769191 0.9430 0.9380 0.9310 0.9310 0.9260
5.802000 0.9260 0.9310 0.9360 0.9360 0.9280
5.835191 0.9200 0.9180 0.9180 0.9180 0.9200
5.868000 0.9230 0.9280 0.9300 0.9300 0.9310
5.901191 0.9310 0.9310 0.9310 0.9330 0.9350
5.935000 0.9350 0.9330 0.9330 0.9310 0.9300
5.968191 0.9300 0.9280 0.9260 0.9250 0.9160
6.001000 0.9150 0.9130 0.9130 0.9130 0.9130
6.034191 0.9130 0.9110 0.9100 0.9030 0.9010
6.067000 0.9000 0.9000 0.9000 0.8980 0.8860
6.100191 0.8760 0.8710 0.8650 0.8550 0.8460
6.134000 0.8360 0.8110 0.7680 0.6970 0.6050
6.167191 0.5200 0.3620 0.2020 0.1430 0.1410
6.200000 0.1390 0.1430 0.3020 0.3390 0.3790
6.233191 0.3970 0.4020 0.4150 0.4240 0.4240
6.266000 0.4190 0.4050 0.3970 0.3890 0.3890
6.299191 0.3920 0.4040 0.4170 0.4300 0.4490
6.333000 0.4500 0.4500 0.4490 0.4250 0.3870
6.366191 0.3270 0.2740 0.1880 0.1710 0.1640
6.399000 0.1430 0.1380 0.1390 0.1490 0.1730
6.432191 0.1980 0.2370 0.2940 0.3670 0.4300
6.465000 0.4950 0.5520 0.5540 0.5520 0.5300
6.498191 0.5140 0.4970 0.4500 0.3810 0.2820
6.532000 0.2010 0.1710 0.1480 0.1280 0.1160
6.565191 0.1060 0.0980 0.0930 0.0910 0.0960
6.598000 0.1260 0.1510 0.1680 0.1840 0.1890
6.631191 0.1880 0.1610 0.1440 0.1310 0.1290
6.664000 0.1310 0.1380 0.1590 0.1940 0.2420
6.697191 0.2860 0.3360 0.3610 0.3920 0.4190
6.731000 0.4200 0.4190 0.4120 0.3910 0.3660
6.764191 0.3360 0.3120 0.3110 0.3110 0.3110
6.797000 0.3110 0.3090 0.3090 0.3010 0.2990
6.830191 0.3010 0.3110 0.3290 0.3320 0.3360
6.864000 0.3370 0.3370 0.3370 0.3390 0.3540
6.897191 0.3790 0.4020 0.4300 0.4620 0.4670
6.930000 0.4670 0.4500 0.4050 0.3740 0.3360
6.963191 0.3010 0.2970 0.2960 0.3010 0.3460
6.996000 0.3870 0.4190 0.4490 0.4700 0.4850
7.029191 0.4850 0.4540 0.4320 0.3820 0.3240
7.063000 0.2060 0.1790 0.1480 0.1390 0.1390
7.096191 0.1510 0.1760 0.1960 0.2110 0.2260
7.129000 0.2360 0.2470 0.2560 0.2810 0.3020
7.162191 0.3360 0.3610 0.3770 0.3960 0.3990
7.195000 0.4040 0.4100 0.4190 0.4200 0.4220
7.228191 0.4240 0.4250 0.4270 0.4290 0.4320
7.262000 0.4740 0.5400 0.5550 0.5690 0.5840
7.295191 0.5920 0.6030 0.6200 0.6380 0.6580
7.328000 0.6750 0.6930 0.7020 0.7030 0.7000
7.361191 0.6830 0.6600 0.6330 0.6180 0.6000
7.394000 0.5990 0.6000 0.6170 0.6300 0.6350
7.427191 0.6380 0.6320 0.6170 0.6000 0.5750
7.461000 0.5440 0.5000 0.4840 0.4670 0.4540
7.494191 0.4400 0.4320 0.4320 0.4390 0.4550
7.527000 0.4700 0.4900 0.5020 0.5050 0.5050
7.560191 0.5000 0.4800 0.4600 0.4250 0.3910
7.593000 0.3560 0.3540 0.3560 0.3960 0.4100
7.626191 0.4320 0.4550 0.4700 0.4890 0.5070
7.660000 0.5090 0.5000 0.4920 0.4440 0.4050
7.693191 0.3670 0.3320 0.2970 0.2890 0.2810
7.726000 0.2740 0.2720 0.2740 0.2810 0.2890
7.759191 0.2960 0.2990 0.3020 0.3020 0.2910
7.792000 0.2720 0.2490 0.2120 0.2120 0.2190
7.825191 0.2340 0.2460 0.2510 0.2520 0.2520
7.859000 0.2490 0.2460 0.2390 0.2260 0.2160
7.892191 0.2020 0.2010 0.2010 0.1960 0.1890
7.925000 0.1880 0.1810 0.1690 0.1590 0.1490
7.958191 0.1410 0.1380 0.1410 0.1510 0.1610
7.991000 0.1790 0.2010 0.2260 0.2490 0.2660
8.024191 0.2870 0.3110 0.3390 0.3660 0.3920
8.058000 0.4150 0.4340 0.4470 0.4600 0.4740
8.091191 0.4840 0.4940 0.5070 0.5120 0.5170
8.124000 0.5190 0.5220 0.5220 0.5170 0.5120
8.157191 0.5090 0.5020 0.5000 0.5020 0.5120
8.191000 0.5200 0.5320 0.5420 0.5470 0.5500
8.224191 0.5540 0.5540 0.5490 0.5140 0.4920
8.257000 0.4700 0.4340 0.3920 0.3520 0.3240
8.290191 0.2920 0.2610 0.2590 0.2610 0.2760
8.323000 0.2920 0.3090 0.3340 0.3540 0.3610
8.356191 0.3610 0.3540 0.3140 0.2790 0.2310
8.390000 0.2140 0.2040 0.1940 0.1780 0.1660
8.423191 0.1610 0.1590 0.1610 0.1780 0.1880
8.456000 0.1990 0.2090 0.2340 0.2610 0.2970
8.489191 0.3210 0.3420 0.3590 0.3710 0.3790
8.522000 0.3810 0.3790 0.3660 0.3490 0.3270
8.555191 0.2960 0.2460 0.2160 0.2120 0.2060
8.589000 0.2040 0.2040 0.2070 0.2170 0.2420
8.622191 0.2520 0.2590 0.2590 0.2560 0.2510
8.655000 0.2470 0.2470 0.2440 0.2420 0.2410
8.688191 0.2360 0.2320 0.2320 0.2320 0.2340
8.721000 0.2360 0.2390 0.2410 0.2470 0.2520
8.754191 0.2590 0.2620 0.2690 0.2810 0.2890
8.788000 0.2920 0.2960 0.3060 0.3210 0.3390
8.821191 0.3590 0.3690 0.3890 0.4070 0.4240
8.854000 0.4420 0.4600 0.4790 0.5220 0.5450
8.887191 0.5640 0.5750 0.5870 0.6030 0.6200
8.920000 0.6350 0.6450 0.6550 0.6670 0.6770
8.953191 0.6870 0.6930 0.7000 0.7050 0.7100
8.987000 0.7150 0.7200 0.7250 0.7280 0.7320
9.020191 0.7350 0.7380 0.7420 0.7500 0.7550
9.053000 0.7600 0.7650 0.7720 0.7800 0.7880
9.086191 0.7920 0.7930 0.7980 0.8010 0.8010
9.119000 0.8030 0.8030 0.8030 0.8030 0.8050
9.152191 0.8060 0.8080 0.8100 0.8110 0.8110
9.186000 0.8110 0.8110 0.8080 0.8030 0.7970
9.219191 0.7830 0.7750 0.7650 0.7470 0.7220
9.252000 0.6950 0.6650 0.6350 0.6080 0.5870
9.285191 0.5700 0.5500 0.5420 0.5390 0.5420
9.318000 0.5540 0.5740 0.5940 0.6150 0.6400
9.351191 0.6650 0.6920 0.7170 0.7370 0.7480
9.385000 0.7520 0.7580 0.7670 0.7770 0.7850
9.418191 0.7930 0.7980 0.8000 0.8010 0.8030
9.451000 0.8060 0.8110 0.8110 0.8110 0.8010
9.484191 0.8000 0.7900 0.7820 0.7620 0.7430
9.518000 0.7280 0.7130 0.6980 0.6780 0.6620
9.551191 0.6520 0.6470 0.6420 0.6370 0.6350
9.584000 0.6380 0.6670 0.6950 0.7200 0.7430
9.617191 0.7650 0.7830 0.7970 0.8030 0.8050
9.650000 0.8050 0.8010 0.7950 0.7720 0.7400
9.683191 0.7000 0.6620 0.6350 0.6070 0.5970
9.717000 0.5900 0.5870 0.5850 0.5850 0.5870
9.750191 0.5890 0.5890 0.5840 0.5750 0.5600
9.783000 0.5590 0.5600 0.5790 0.6070 0.6320
9.816191 0.6600 0.7000 0.7030 0.7030 0.7000
9.849000 0.6750 0.6500 0.6300 0.6130 0.6030
9.882191 0.5990 0.5970 0.5970 0.6000 0.6250
9.916000 0.6480 0.6570 0.6570 0.6550 0.6520
9.949191 0.6520 0.6530 0.7050 0.7320 0.7620
9.982000 0.7900 0.8000 0.8000 0.7950 0.7880
10.015191 0.7830 0.7770 0.7680 0.7620 0.7600
10.048000 0.7600 0.7620 0.7800 0.7950 0.8010
10.081191 0.8150 0.8250 0.8300 0.8330 0.8380
10.115000 0.8400 0.8400 0.8410 0.8410 0.8400
10.148191 0.8400 0.8350 0.8330 0.8330 0.8330
10.181000 0.8350 0.8350 0.8380 0.8400 0.8430
10.214191 0.8510 0.8530 0.8560 0.8560 0.8580
10.247000 0.8580 0.8580 0.8580 0.8580 0.8560
10.280191 0.8560 0.8530 0.8510 0.8500 0.8460
10.314000 0.8460 0.8460 0.8460 0.8500 0.8530
10.347191 0.8530 0.8530 0.8530 0.8530 0.8510
10.380000 0.8500 0.8480 0.8450 0.8430 0.8410
10.413191 0.8430 0.8450 0.8500 0.8530 0.8580
10.446000 0.8600 0.8630 0.8650 0.8660 0.8660
10.479191 0.8680 0.8680 0.8700 0.8700 0.8730
10.513000 0.8800 0.8830 0.8850 0.8860 0.8880
10.546191 0.8880 0.8900 0.8910 0.8930 0.8950
10.579000 0.8950 0.8960 0.8960 0.8960 0.8950
10.612191 0.8930 0.8910 0.8910 0.8900 0.8900
10.645000 0.8900 0.8900 0.8880 0.8880 0.8880
10.678191 0.8810 0.8750 0.8700 0.8680 0.8650
10.712000 0.8650 0.8630 0.8600 0.8530 0.8500
10.745191 0.8480 0.8400 0.8310 0.8150 0.8000
10.778000 0.7800 0.7680 0.7550 0.7470 0.7400
10.811191 0.7280 0.7180 0.7080 0.6950 0.6780
10.845000 0.6520 0.6220 0.6030 0.5970 0.5890
10.878191 0.5820 0.5790 0.5770 0.5750 0.5650
10.911000 0.5640 0.5640 0.5670 0.5770 0.5890
10.944191 0.6130 0.6350 0.6670 0.7050 0.7320
10.977000 0.7530 0.7670 0.7800 0.7820 0.7800
11.010191 0.7620 0.7380 0.7100 0.6980 0.6800
11.044000 0.6780 0.6800 0.6950 0.7000 0.7130
11.077191 0.7300 0.7530 0.7650 0.7850 0.8030
11.110000 0.8160 0.8300 0.8380 0.8480 0.8550
11.143191 0.8610 0.8680 0.8750 0.8780 0.8810
11.176000 0.8830 0.8830 0.8850 0.8860 0.8880
11.209191 0.8900 0.8900 0.8880 0.8880 0.8860
11.243000 0.8830 0.8800 0.8780 0.8710 0.8650
11.276191 0.8580 0.8500 0.8430 0.8350 0.8250
11.309000 0.8110 0.8050 0.7950 0.7850 0.7820
11.342191 0.7780 0.7780 0.7780 0.7780 0.7770
11.375000 0.7720 0.7680 0.7570 0.7470 0.7200
11.408191 0.6870 0.6530 0.6200 0.5920 0.5750
11.442000 0.5500 0.5420 0.5420 0.5450 0.5750
11.475191 0.6100 0.6530 0.6880 0.7200 0.7420
11.508000 0.7680 0.7870 0.8030 0.8160 0.8250
11.541191 0.8280 0.8280 0.8300 0.8300 0.8280
11.574000 0.8210 0.8150 0.8000 0.7920 0.7900
11.607191 0.7870 0.7870 0.7880 0.8050 0.8200
11.641000 0.8360 0.8530 0.8660 0.8730 0.8800
11.674191 0.8830 0.8880 0.8880 0.8900 0.8900
11.707000 0.8900 0.8900 0.8880 0.8850 0.8800
11.740191 0.8750 0.8700 0.8630 0.8600 0.8550
11.773000 0.8500 0.8450 0.8380 0.8330 0.8250
11.806191 0.8180 0.8110 0.8050 0.8030 0.7950
11.840000 0.7900 0.7900 0.7900 0.7920 0.7970
11.873191 0.8050 0.8180 0.8350 0.8550 0.8650
11.906000 0.8750 0.8810 0.8900 0.8980 0.9080
11.939191 0.9100 0.9160 0.9180 0.9200 0.9210
11.973000 0.9210 0.9210 0.9210 0.9210 0.9200
12.006191 0.9150 0.9130 0.9050 0.9030 0.9000
12.039000 0.8980 0.8880 0.8860 0.8830 0.8810
12.072191 0.8800 0.8800 0.8760 0.8750 0.8750
12.105000 0.8730 0.8710 0.8700 0.8660 0.8660
12.138191 0.8650 0.8600 0.8530 0.8500 0.8480
12.172000 0.8450 0.8400 0.8330 0.8250 0.8230
12.205191 0.8180 0.8130 0.8080 0.8050 0.8010
12.238000 0.8000 0.7980 0.7970 0.7970 0.7980
12.271191 0.8010 0.8030 0.8060 0.8060 0.8060
12.304000 0.8060 0.8060 0.8050 0.8030 0.8000
12.337191 0.8000 0.8000 0.8010 0.8100 0.8200
12.371000 0.8280 0.8380 0.8460 0.8560 0.8650
12.404191 0.8730 0.8810 0.8910 0.9010 0.9100
12.437000 0.9110 0.9130 0.9150 0.9150 0.9180
12.470191 0.9200 0.9210 0.9210 0.9280 0.9300
12.503000 0.9300 0.9280 0.9260 0.9260 0.9280
12.536191 0.9280 0.9280 0.9300 0.9310 0.9310
12.570000 0.9310 0.9280 0.9260 0.9260 0.9260
12.603191 0.9280 0.9310 0.9310 0.9310 0.9310
12.636000 0.9310 0.9300 0.9280 0.9260 0.9210
12.669191 0.9200 0.9200 0.9200 0.9180 0.9160
12.702000 0.9060 0.8980 0.8900 0.8800 0.8650
12.735191 0.8450 0.8150 0.7770 0.7250 0.6830
12.769000 0.6400 0.5950 0.5550 0.5090 0.4950
12.802191 0.4820 0.4820 0.4850 0.5420 0.5720
12.835000 0.6000 0.6250 0.6430 0.6500 0.6530
12.868191 0.6530 0.6480 0.6200 0.6020 0.5800
12.901000 0.5590 0.5340 0.5090 0.4940 0.4790
12.934191 0.4490 0.4140 0.3820 0.3520 0.3290
12.968000 0.3170 0.3170 0.3260 0.3610 0.3910
13.001191 0.4250 0.4770 0.5740 0.6100 0.6380
13.034000 0.6500 0.6650 0.6750 0.6830 0.6870
13.067191 0.6880 0.6870 0.6830 0.6770 0.6630
13.100000 0.6420 0.6220 0.6030 0.5890 0.5720
13.133191 0.5550 0.5350 0.5120 0.4990 0.4840
13.167000 0.4620 0.4400 0.4240 0.4050 0.3910
13.200191 0.3760 0.3490 0.3260 0.3190 0.3170
13.233000 0.3190 0.3260 0.3360 0.3610 0.3770
13.266191 0.3960 0.4120 0.4300 0.4500 0.4590
13.300000 0.4620 0.4620 0.4620 0.4600 0.4600
13.333191 0.4600 0.4600 0.4620 0.4720 0.4820
13.366000 0.4940 0.5150 0.5250 0.5290 0.5300
13.399191 0.5320 0.5340 0.5350 0.5370 0.5520
13.432000 0.5690 0.5900 0.6030 0.6150 0.6330
13.465191 0.6480 0.6650 0.6780 0.6920 0.7050
13.499000 0.7180 0.7320 0.7430 0.7550 0.7620
13.532191 0.7700 0.7770 0.7820 0.7880 0.7930
13.565000 0.7970 0.8000 0.8010 0.8010 0.8060
13.598191 0.8110 0.8160 0.8160 0.8200 0.8230
13.631000 0.8260 0.8260 0.8260 0.8260 0.8280
13.664191 0.8280 0.8280 0.8300 0.8300 0.8300
13.698000 0.8310 0.8310 0.8310 0.8310 0.8280
13.731191 0.8230 0.8200 0.8200 0.8180 0.8150
13.764000 0.8030 0.7980 0.7900 0.7820 0.7750
13.797191 0.7720 0.7630 0.7470 0.7300 0.7230
13.830000 0.7130 0.7030 0.6970 0.6900 0.6850
13.863191 0.6800 0.6770 0.6720 0.6700 0.6680
13.897000 0.6680 0.6720 0.6750 0.6820 0.6850
13.930191 0.6880 0.6920 0.6980 0.7080 0.7120
13.963000 0.7170 0.7200 0.7220 0.7230 0.7220
13.996191 0.7200 0.7170 0.7130 0.7120 0.7120
14.029000 0.7100 0.7100 0.7100 0.7100 0.7130
14.062191 0.7180 0.7230 0.7300 0.7380 0.7470
14.096000 0.7530 0.7600 0.7630 0.7670 0.7670
14.129191 0.7600 0.7570 0.7450 0.7330 0.7250
14.162000 0.7200 0.7080 0.6880 0.6630 0.6480
14.195191 0.6220 0.6030 0.5870 0.5690 0.5500
14.228000 0.5340 0.5150 0.5070 0.4970 0.4770
14.261191 0.4550 0.4340 0.4140 0.4000 0.3790
14.295000 0.3640 0.3490 0.3410 0.3260 0.3220
14.328191 0.3210 0.3210 0.3220 0.3270 0.3320
14.361000 0.3410 0.3490 0.3570 0.3610 0.3690
14.394191 0.3790 0.3860 0.3910 0.3920 0.3960
14.427000 0.3960 0.3910 0.3870 0.3760 0.3640
14.460191 0.3540 0.3410 0.3310 0.3220 0.3140
14.494000 0.3010 0.2960 0.2820 0.2660 0.2520
14.527191 0.2490 0.2470 0.2470 0.2490 0.2510
14.560000 0.2570 0.2620 0.2740 0.2820 0.2970
14.593191 0.3070 0.3260 0.3540 0.3890 0.4220
14.627000 0.4470 0.4550 0.4800 0.5400 0.5670
14.660191 0.5950 0.6170 0.6330 0.6480 0.6620
14.693000 0.6750 0.6880 0.7030 0.7220 0.7300
14.726191 0.7380 0.7450 0.7550 0.7620 0.7680
14.759000 0.7720 0.7770 0.7800 0.7820 0.7830
14.792191 0.7850 0.7870 0.7880 0.7930 0.7950
14.826000 0.7950 0.7970 0.7970 0.7980 0.7980
14.859191 0.8000 0.8010 0.8030 0.8050 0.8060
14.892000 0.8060 0.8110 0.8110 0.8110 0.8110
14.925191 0.8100 0.8080 0.8060 0.8060 0.8000
14.958000 0.7980 0.7950 0.7900 0.7870 0.7820
14.991191 0.7750 0.7670 0.7620 0.7470 0.7380
15.025000 0.7350 0.7300 0.7250 0.7200 0.7170
15.058191 0.7150 0.7100 0.7080 0.7070 0.7070
15.091000 0.7070 0.7070 0.7100 0.7230 0.7330
15.124191 0.7450 0.7480 0.7500 0.7520 0.7570
15.157000 0.7580 0.7600 0.7630 0.7630 0.7670
15.190191 0.7680 0.7700 0.7700 0.7700 0.7700
15.224000 0.7700 0.7680 0.7670 0.7670 0.7670
15.257191 0.7670 0.7670 0.7650 0.7600 0.7570
15.290000 0.7550 0.7530 0.7530 0.7530 0.7520
15.323191 0.7500 0.7480 0.7480 0.7480 0.7470
15.356000 0.7470 0.7430 0.7380 0.7370 0.7370
15.389191 0.7330 0.7320 0.7280 0.7250 0.7250
15.423000 0.7220 0.7200 0.7200 0.7180 0.7180
15.456191 0.7170 0.7170 0.7130 0.7100 0.7080
15.489000 0.7080 0.7070 0.6980 0.6970 0.6970
15.522191 0.6950 0.6930 0.6920 0.6900 0.6880
15.555000 0.6800 0.6770 0.6770 0.6750 0.6750
15.588191 0.6770 0.6780 0.6820 0.6820 0.6820
15.622000 0.6820 0.6800 0.6780 0.6770 0.6780
15.655191 0.6820 0.6830 0.6820 0.6800 0.6750
15.688000 0.6700 0.6670 0.6650 0.6620 0.6600
15.721191 0.6570 0.6550 0.6500 0.6480 0.6470
15.755000 0.6470 0.6450 0.6420 0.6400 0.6380
15.788191 0.6370 0.6370 0.6350 0.6300 0.6270
15.821000 0.6250 0.6180 0.6170 0.6170 0.6150
15.854191 0.6130 0.6120 0.6100 0.6100 0.6080
15.887000 0.6070 0.6070 0.6050 0.6050 0.6030
15.920191 0.6030 0.6020 0.6000 0.5990 0.5970
15.954000 0.5940 0.5920 0.5920 0.5900 0.5900
15.987191 0.5900 0.5920 0.5900
##END=
