##TITLE=BROMOTRIHEXYLSILANE
##JCAMP-DX=4.24
##DATA TYPE=INFRARED SPECTRUM
##CLASS=COBLENTZ
##ORIGIN=PENINSULAR CHEMRESEARCH, INC., GAINESVILLE, FLORIDA
##OWNER=COBLENTZ SOCIETY
Collection (C) 2018 copyright by the U.S. Secretary of Commerce
on behalf of the United States of America. All rights reserved.
##DATE=Not specified, most likely prior to 1970
##NAMES=bromo(trihexyl)silane
##CAS REGISTRY NO=116435-00-8
##MOLFORM=C18 H39 Br Si
##SOURCE REFERENCE=COBLENTZ NO. 4914
##$NIST SOURCE=COBLENTZ
##$NIST IMAGE=cob4914
##SPECTROMETER/DATA SYSTEM=BECKMAN IR-4 (HYBRID PRISM-GRATING)
##STATE=SOLID (BETWEEN SALTS)
##SAMPLING PROCEDURE=TRANSMISSION
##RESOLUTION=4
$$ MW 363.51
##DATA PROCESSING=DIGITIZED BY NIST FROM HARD COPY
##XUNITS=MICROMETERS
##YUNITS=TRANSMITTANCE
##XFACTOR=1.000000
##YFACTOR=1
##DELTAX=000.004994
##FIRSTX=2.02
##LASTX=15.009
##FIRSTY=0.904
##MAXX=15.009
##MINX=2.02
##MAXY=0.941
##MINY=0.009
##NPOINTS=2602
##XYDATA=(X++(Y..Y))
2.020000 0.9040 0.9050 0.9050 0.9050 0.9050
2.044978 0.9050 0.9050 0.9050 0.9050 0.9060
2.070000 0.9060 0.9060 0.9070 0.9070 0.9070
2.094978 0.9070 0.9070 0.9090 0.9090 0.9090
2.120000 0.9090 0.9090 0.9090 0.9090 0.9090
2.144978 0.9090 0.9070 0.9060 0.9070 0.9070
2.170000 0.9070 0.9060 0.9060 0.9050 0.9050
2.194978 0.9040 0.9020 0.9010 0.9010 0.9000
2.220000 0.8970 0.8950 0.8940 0.8910 0.8890
2.244978 0.8820 0.8750 0.8740 0.8650 0.8650
2.270000 0.8670 0.8700 0.8710 0.8740 0.8740
2.294978 0.8720 0.8710 0.8710 0.8720 0.8760
2.320000 0.8790 0.8800 0.8810 0.8820 0.8850
2.344978 0.8860 0.8860 0.8860 0.8860 0.8860
2.370000 0.8870 0.8890 0.8890 0.8890 0.8890
2.394978 0.8890 0.8890 0.8890 0.8890 0.8900
2.419000 0.8900 0.8910 0.8910 0.8940 0.8940
2.443978 0.8950 0.8960 0.8970 0.8990 0.9020
2.469000 0.9040 0.9040 0.9020 0.9010 0.9010
2.493978 0.9020 0.9020 0.9020 0.9040 0.9040
2.519000 0.9020 0.9010 0.9000 0.8970 0.8960
2.543978 0.8960 0.8960 0.8960 0.8960 0.8970
2.569000 0.9020 0.9060 0.9070 0.9070 0.9090
2.593978 0.9090 0.9090 0.9070 0.9040 0.9000
2.619000 0.8960 0.8940 0.8940 0.8950 0.9070
2.643978 0.9090 0.9090 0.9090 0.9070 0.9040
2.669000 0.9010 0.9000 0.8990 0.8990 0.8970
2.693978 0.8970 0.8950 0.8940 0.8940 0.8940
2.719000 0.8940 0.8940 0.8950 0.8960 0.8990
2.743978 0.8990 0.9000 0.9000 0.9000 0.9000
2.769000 0.8990 0.8990 0.8970 0.8950 0.8940
2.793978 0.8950 0.8960 0.8960 0.8960 0.8960
2.819000 0.8950 0.8950 0.8940 0.8920 0.8910
2.843978 0.8900 0.8890 0.8850 0.8810 0.8770
2.869000 0.8750 0.8720 0.8710 0.8700 0.8700
2.893978 0.8690 0.8670 0.8670 0.8650 0.8630
2.919000 0.8610 0.8610 0.8600 0.8590 0.8590
2.943978 0.8580 0.8580 0.8580 0.8580 0.8580
2.969000 0.8580 0.8580 0.8580 0.8580 0.8580
2.993978 0.8580 0.8590 0.8590 0.8590 0.8590
3.019000 0.8600 0.8600 0.8600 0.8600 0.8600
3.043978 0.8590 0.8590 0.8590 0.8590 0.8590
3.069000 0.8600 0.8600 0.8600 0.8600 0.8600
3.093978 0.8600 0.8610 0.8610 0.8610 0.8610
3.119000 0.8610 0.8630 0.8630 0.8630 0.8630
3.143978 0.8640 0.8640 0.8640 0.8650 0.8650
3.169000 0.8650 0.8650 0.8650 0.8640 0.8630
3.193978 0.8610 0.8610 0.8600 0.8600 0.8590
3.218000 0.8580 0.8560 0.8550 0.8540 0.8530
3.242978 0.8530 0.8510 0.8500 0.8450 0.8350
3.268000 0.8240 0.8140 0.8010 0.7870 0.7700
3.292978 0.7530 0.7340 0.7130 0.6870 0.6570
3.318000 0.6210 0.5800 0.5310 0.4740 0.4420
3.342978 0.4080 0.3330 0.2470 0.1500 0.1000
3.368000 0.0640 0.0520 0.0480 0.0460 0.0440
3.392978 0.0370 0.0270 0.0120 0.0090 0.0120
3.418000 0.0340 0.0570 0.0750 0.0990 0.1220
3.442978 0.1290 0.1410 0.1410 0.1230 0.1170
3.468000 0.1000 0.1000 0.1090 0.1480 0.1700
3.492978 0.1930 0.3300 0.4340 0.5720 0.6180
3.518000 0.6560 0.6910 0.7280 0.7400 0.7500
3.542978 0.7580 0.7650 0.7720 0.7790 0.7890
3.568000 0.8000 0.8140 0.8290 0.8390 0.8460
3.592978 0.8500 0.8530 0.8540 0.8540 0.8540
3.618000 0.8580 0.8590 0.8610 0.8650 0.8690
3.642978 0.8710 0.8740 0.8770 0.8800 0.8810
3.668000 0.8810 0.8800 0.8790 0.8770 0.8760
3.692978 0.8750 0.8750 0.8750 0.8750 0.8750
3.718000 0.8760 0.8770 0.8800 0.8810 0.8840
3.742978 0.8860 0.8870 0.8900 0.8910 0.8920
3.768000 0.8920 0.8920 0.8920 0.8920 0.8920
3.792978 0.8920 0.8940 0.8940 0.8950 0.8960
3.818000 0.8990 0.9020 0.9020 0.9040 0.9040
3.842978 0.9050 0.9060 0.9090 0.9100 0.9120
3.868000 0.9120 0.9110 0.9100 0.9100 0.9110
3.892978 0.9120 0.9140 0.9150 0.9160 0.9170
3.918000 0.9170 0.9190 0.9190 0.9190 0.9190
3.942978 0.9190 0.9190 0.9200 0.9200 0.9210
3.968000 0.9210 0.9220 0.9240 0.9250 0.9250
3.992978 0.9260 0.9270 0.9270 0.9270 0.9270
4.017000 0.9270 0.9270 0.9260 0.9250 0.9250
4.041978 0.9240 0.9250 0.9250 0.9250 0.9240
4.067000 0.9240 0.9220 0.9220 0.9220 0.9210
4.091978 0.9200 0.9200 0.9200 0.9200 0.9200
4.117000 0.9200 0.9200 0.9200 0.9200 0.9200
4.141978 0.9200 0.9190 0.9170 0.9160 0.9140
4.167000 0.9050 0.9020 0.9010 0.9010 0.9020
4.191978 0.9040 0.9060 0.9090 0.9110 0.9140
4.217000 0.9160 0.9170 0.9190 0.9190 0.9200
4.241978 0.9220 0.9260 0.9270 0.9270 0.9290
4.267000 0.9300 0.9310 0.9310 0.9310 0.9310
4.291978 0.9320 0.9320 0.9320 0.9320 0.9320
4.317000 0.9320 0.9320 0.9310 0.9300 0.9290
4.341978 0.9270 0.9250 0.9240 0.9200 0.9200
4.367000 0.9190 0.9190 0.9190 0.9190 0.9190
4.391978 0.9190 0.9190 0.9170 0.9170 0.9190
4.417000 0.9190 0.9190 0.9170 0.9170 0.9170
4.441978 0.9190 0.9200 0.9270 0.9290 0.9290
4.467000 0.9290 0.9270 0.9250 0.9250 0.9260
4.491978 0.9290 0.9290 0.9290 0.9270 0.9290
4.517000 0.9290 0.9300 0.9290 0.9300 0.9310
4.541978 0.9320 0.9310 0.9290 0.9270 0.9270
4.567000 0.9270 0.9290 0.9300 0.9310 0.9320
4.591978 0.9310 0.9320 0.9310 0.9310 0.9300
4.617000 0.9290 0.9290 0.9290 0.9290 0.9290
4.641978 0.9290 0.9290 0.9290 0.9290 0.9290
4.667000 0.9300 0.9310 0.9310 0.9320 0.9320
4.691978 0.9320 0.9320 0.9300 0.9300 0.9310
4.717000 0.9310 0.9310 0.9310 0.9310 0.9310
4.741978 0.9310 0.9310 0.9310 0.9310 0.9310
4.767000 0.9320 0.9320 0.9320 0.9320 0.9320
4.791978 0.9320 0.9320 0.9320 0.9320 0.9320
4.816000 0.9320 0.9310 0.9310 0.9310 0.9310
4.840978 0.9310 0.9310 0.9310 0.9300 0.9300
4.866000 0.9300 0.9300 0.9300 0.9300 0.9300
4.890978 0.9300 0.9310 0.9310 0.9310 0.9310
4.916000 0.9310 0.9320 0.9330 0.9330 0.9330
4.940978 0.9320 0.9320 0.9320 0.9310 0.9310
4.966000 0.9300 0.9300 0.9300 0.9310 0.9310
4.990978 0.9320 0.9320 0.9330 0.9330 0.9310
5.016000 0.9300 0.9290 0.9290 0.9300 0.9310
5.040978 0.9330 0.9350 0.9350 0.9360 0.9360
5.066000 0.9350 0.9330 0.9310 0.9300 0.9290
5.090978 0.9290 0.9300 0.9300 0.9320 0.9330
5.116000 0.9330 0.9330 0.9320 0.9320 0.9310
5.140978 0.9310 0.9300 0.9290 0.9290 0.9310
5.166000 0.9330 0.9330 0.9360 0.9360 0.9360
5.190978 0.9360 0.9360 0.9360 0.9350 0.9350
5.216000 0.9350 0.9330 0.9310 0.9300 0.9300
5.240978 0.9310 0.9320 0.9330 0.9350 0.9360
5.266000 0.9370 0.9380 0.9380 0.9380 0.9370
5.290978 0.9350 0.9320 0.9290 0.9270 0.9290
5.316000 0.9310 0.9360 0.9370 0.9400 0.9410
5.340978 0.9410 0.9400 0.9370 0.9360 0.9330
5.366000 0.9310 0.9290 0.9270 0.9270 0.9290
5.390978 0.9310 0.9350 0.9360 0.9360 0.9320
5.416000 0.9300 0.9290 0.9290 0.9300 0.9300
5.440978 0.9320 0.9360 0.9370 0.9380 0.9380
5.466000 0.9370 0.9330 0.9320 0.9310 0.9300
5.490978 0.9300 0.9290 0.9290 0.9290 0.9290
5.516000 0.9290 0.9300 0.9310 0.9300 0.9310
5.540978 0.9320 0.9350 0.9370 0.9380 0.9400
5.566000 0.9400 0.9350 0.9320 0.9300 0.9290
5.590978 0.9290 0.9290 0.9300 0.9300 0.9320
5.615000 0.9350 0.9360 0.9330 0.9320 0.9300
5.639978 0.9290 0.9300 0.9300 0.9320 0.9320
5.665000 0.9260 0.9170 0.9160 0.9120 0.9100
5.689978 0.9070 0.9070 0.9050 0.9050 0.9050
5.715000 0.9040 0.9020 0.9010 0.9010 0.9020
5.739978 0.9040 0.9060 0.9090 0.9090 0.9070
5.765000 0.9070 0.9050 0.9040 0.9010 0.8970
5.789978 0.8970 0.9070 0.9110 0.9150 0.9190
5.815000 0.9170 0.9060 0.9020 0.8990 0.8990
5.839978 0.9060 0.9090 0.9110 0.9150 0.9170
5.865000 0.9210 0.9210 0.9200 0.9190 0.9150
5.889978 0.9100 0.9100 0.9140 0.9200 0.9210
5.915000 0.9210 0.9200 0.9200 0.9190 0.9190
5.939978 0.9170 0.9160 0.9150 0.9160 0.9160
5.965000 0.9170 0.9200 0.9200 0.9190 0.9170
5.989978 0.9170 0.9160 0.9160 0.9160 0.9160
6.015000 0.9170 0.9190 0.9200 0.9240 0.9240
6.039978 0.9250 0.9250 0.9240 0.9210 0.9200
6.065000 0.9190 0.9140 0.9100 0.9140 0.9170
6.089978 0.9210 0.9240 0.9240 0.9220 0.9210
6.115000 0.9170 0.9170 0.9190 0.9260 0.9260
6.139978 0.9270 0.9290 0.9290 0.9300 0.9300
6.165000 0.9300 0.9300 0.9300 0.9300 0.9300
6.189978 0.9290 0.9270 0.9260 0.9260 0.9250
6.215000 0.9250 0.9250 0.9240 0.9220 0.9210
6.239978 0.9210 0.9220 0.9220 0.9250 0.9270
6.265000 0.9290 0.9290 0.9290 0.9270 0.9260
6.289978 0.9240 0.9200 0.9160 0.9100 0.9100
6.315000 0.9120 0.9160 0.9190 0.9210 0.9220
6.339978 0.9210 0.9200 0.9170 0.9150 0.9120
6.365000 0.9120 0.9100 0.9100 0.9100 0.9120
6.389978 0.9160 0.9200 0.9210 0.9210 0.9200
6.414000 0.9150 0.9140 0.9090 0.9070 0.9040
6.438978 0.9020 0.9020 0.9050 0.9060 0.9070
6.464000 0.9070 0.9070 0.9070 0.9070 0.9060
6.488978 0.9050 0.9040 0.9000 0.8990 0.8970
6.514000 0.8960 0.8900 0.8890 0.8890 0.8900
6.538978 0.8900 0.8910 0.8910 0.8910 0.8900
6.564000 0.8900 0.8870 0.8860 0.8840 0.8840
6.588978 0.8820 0.8840 0.8850 0.8860 0.8860
6.614000 0.8860 0.8850 0.8840 0.8810 0.8790
6.638978 0.8720 0.8710 0.8700 0.8690 0.8600
6.664000 0.8590 0.8550 0.8550 0.8590 0.8590
6.688978 0.8590 0.8580 0.8560 0.8510 0.8440
6.714000 0.8330 0.8160 0.7940 0.7630 0.7240
6.738978 0.6740 0.6170 0.5620 0.5140 0.4710
6.764000 0.4540 0.4370 0.4090 0.3860 0.3680
6.788978 0.3490 0.3480 0.3490 0.3570 0.3680
6.814000 0.3740 0.3830 0.3930 0.4120 0.4390
6.838978 0.4630 0.4650 0.4690 0.4710 0.4850
6.864000 0.4980 0.5130 0.5290 0.5460 0.5650
6.888978 0.5840 0.6010 0.6170 0.6320 0.6430
6.914000 0.6520 0.6810 0.7060 0.7270 0.7470
6.938978 0.7630 0.7770 0.7870 0.7940 0.7990
6.964000 0.8040 0.8130 0.8150 0.8150 0.8140
6.988978 0.8100 0.8030 0.7930 0.7830 0.7770
7.014000 0.7690 0.7640 0.7580 0.7500 0.7400
7.038978 0.7310 0.7160 0.6990 0.6770 0.6580
7.064000 0.6430 0.6300 0.6160 0.6150 0.6160
7.088978 0.6220 0.6300 0.6410 0.6530 0.6670
7.114000 0.6840 0.7070 0.7340 0.7690 0.7830
7.138978 0.7940 0.8010 0.8030 0.8030 0.8010
7.164000 0.8000 0.7970 0.7890 0.7830 0.7630
7.188978 0.7450 0.7440 0.7190 0.7110 0.6650
7.213000 0.6620 0.6370 0.6110 0.6110 0.6370
7.237978 0.6630 0.6890 0.7130 0.7500 0.7880
7.263000 0.7880 0.7870 0.7870 0.7850 0.7830
7.287978 0.7830 0.7850 0.7950 0.8030 0.8060
7.313000 0.8100 0.8110 0.8140 0.8110 0.8090
7.337978 0.8050 0.8050 0.8030 0.8000 0.7970
7.363000 0.7950 0.7900 0.7870 0.7840 0.7800
7.387978 0.7750 0.7690 0.7630 0.7580 0.7540
7.413000 0.7520 0.7530 0.7690 0.7850 0.7980
7.437978 0.8060 0.8140 0.8200 0.8240 0.8290
7.463000 0.8340 0.8390 0.8440 0.8490 0.8510
7.487978 0.8560 0.8610 0.8660 0.8670 0.8690
7.513000 0.8700 0.8700 0.8690 0.8670 0.8640
7.537978 0.8600 0.8580 0.8540 0.8510 0.8500
7.563000 0.8490 0.8460 0.8410 0.8390 0.8350
7.587978 0.8340 0.8310 0.8280 0.8260 0.8250
7.613000 0.8260 0.8280 0.8310 0.8310 0.8300
7.637978 0.8280 0.8240 0.8200 0.8190 0.8180
7.663000 0.8150 0.8140 0.8140 0.8130 0.8130
7.687978 0.8130 0.8140 0.8150 0.8150 0.8180
7.713000 0.8190 0.8200 0.8250 0.8290 0.8290
7.737978 0.8300 0.8300 0.8330 0.8360 0.8410
7.763000 0.8480 0.8500 0.8510 0.8540 0.8560
7.787978 0.8640 0.8670 0.8700 0.8740 0.8750
7.813000 0.8760 0.8770 0.8790 0.8800 0.8800
7.837978 0.8800 0.8790 0.8750 0.8740 0.8720
7.863000 0.8700 0.8660 0.8630 0.8600 0.8560
7.887978 0.8510 0.8480 0.8440 0.8400 0.8350
7.913000 0.8250 0.8180 0.8100 0.8030 0.7940
7.937978 0.7870 0.7800 0.7770 0.7750 0.7770
7.963000 0.7800 0.7870 0.7920 0.7980 0.8010
7.987978 0.8100 0.8190 0.8260 0.8330 0.8360
8.012000 0.8380 0.8360 0.8350 0.8310 0.8260
8.036978 0.8230 0.8190 0.8180 0.8160 0.8160
8.062000 0.8180 0.8200 0.8230 0.8250 0.8280
8.086978 0.8290 0.8300 0.8300 0.8300 0.8300
8.112000 0.8300 0.8290 0.8280 0.8260 0.8280
8.136978 0.8300 0.8340 0.8380 0.8390 0.8410
8.162000 0.8450 0.8500 0.8540 0.8590 0.8630
8.186978 0.8670 0.8720 0.8740 0.8750 0.8760
8.212000 0.8760 0.8770 0.8770 0.8770 0.8760
8.236978 0.8750 0.8750 0.8740 0.8720 0.8690
8.262000 0.8650 0.8590 0.8580 0.8560 0.8550
8.286978 0.8510 0.8450 0.8340 0.8240 0.8140
8.312000 0.8010 0.7880 0.7730 0.7580 0.7420
8.336978 0.7230 0.7040 0.6830 0.6610 0.6380
8.362000 0.6220 0.6010 0.5820 0.5670 0.5510
8.386978 0.5360 0.5190 0.5040 0.5000 0.5000
8.412000 0.5010 0.5050 0.5100 0.5200 0.5250
8.436978 0.5260 0.5400 0.5470 0.5510 0.5670
8.462000 0.5860 0.6050 0.6170 0.6250 0.6370
8.486978 0.6470 0.6530 0.6570 0.6600 0.6620
8.512000 0.6660 0.6690 0.6760 0.6770 0.6810
8.536978 0.6870 0.6940 0.7040 0.7160 0.7280
8.562000 0.7400 0.7530 0.7650 0.7770 0.7870
8.586978 0.7950 0.8000 0.8110 0.8180 0.8230
8.612000 0.8250 0.8260 0.8280 0.8290 0.8310
8.636978 0.8350 0.8400 0.8430 0.8450 0.8480
8.662000 0.8500 0.8530 0.8560 0.8590 0.8630
8.686978 0.8650 0.8660 0.8670 0.8670 0.8690
8.712000 0.8700 0.8710 0.8740 0.8750 0.8760
8.736978 0.8760 0.8760 0.8760 0.8760 0.8750
8.762000 0.8750 0.8770 0.8770 0.8770 0.8760
8.786978 0.8750 0.8750 0.8740 0.8720 0.8720
8.811000 0.8710 0.8720 0.8740 0.8740 0.8740
8.835978 0.8720 0.8700 0.8690 0.8660 0.8650
8.861000 0.8640 0.8640 0.8630 0.8610 0.8600
8.885978 0.8600 0.8600 0.8600 0.8600 0.8600
8.911000 0.8590 0.8550 0.8540 0.8500 0.8480
8.935978 0.8440 0.8390 0.8340 0.8280 0.8230
8.961000 0.8160 0.8090 0.8000 0.7900 0.7790
8.985978 0.7670 0.7500 0.7330 0.7130 0.6890
9.011000 0.6630 0.6500 0.6330 0.6180 0.6020
9.035978 0.5860 0.5690 0.5660 0.5570 0.5550
9.061000 0.5550 0.5560 0.5610 0.5720 0.5820
9.085978 0.5900 0.5970 0.6050 0.6120 0.6200
9.111000 0.6270 0.6370 0.6480 0.6610 0.6740
9.135978 0.6810 0.6860 0.6920 0.6960 0.6990
9.161000 0.7020 0.7030 0.7060 0.7070 0.7070
9.185978 0.7040 0.7020 0.6940 0.6910 0.6870
9.211000 0.6830 0.6780 0.6740 0.6690 0.6670
9.235978 0.6630 0.6600 0.6570 0.6530 0.6510
9.261000 0.6480 0.6450 0.6430 0.6420 0.6380
9.285978 0.6360 0.6350 0.6350 0.6360 0.6370
9.311000 0.6380 0.6400 0.6410 0.6430 0.6450
9.335978 0.6460 0.6460 0.6480 0.6500 0.6510
9.361000 0.6510 0.6480 0.6470 0.6460 0.6460
9.385978 0.6450 0.6450 0.6450 0.6460 0.6470
9.411000 0.6480 0.6500 0.6510 0.6560 0.6570
9.435978 0.6580 0.6610 0.6630 0.6650 0.6690
9.461000 0.6760 0.6770 0.6790 0.6820 0.6830
9.485978 0.6840 0.6860 0.6860 0.6830 0.6820
9.511000 0.6810 0.6790 0.6780 0.6770 0.6770
9.535978 0.6760 0.6760 0.6740 0.6740 0.6740
9.561000 0.6740 0.6760 0.6770 0.6790 0.6830
9.585978 0.6890 0.6940 0.7020 0.7080 0.7140
9.610000 0.7190 0.7190 0.7210 0.7230 0.7280
9.634978 0.7330 0.7390 0.7440 0.7490 0.7530
9.660000 0.7580 0.7600 0.7640 0.7670 0.7690
9.684978 0.7690 0.7700 0.7730 0.7730 0.7770
9.710000 0.7790 0.7800 0.7820 0.7830 0.7870
9.734978 0.7920 0.8010 0.8060 0.8100 0.8140
9.760000 0.8160 0.8190 0.8200 0.8210 0.8210
9.784978 0.8210 0.8240 0.8250 0.8260 0.8260
9.810000 0.8250 0.8230 0.8200 0.8200 0.8180
9.834978 0.8140 0.8090 0.8050 0.8010 0.7990
9.860000 0.7940 0.7880 0.7780 0.7730 0.7680
9.884978 0.7640 0.7580 0.7490 0.7400 0.7320
9.910000 0.7220 0.7140 0.7060 0.6990 0.6930
9.934978 0.6880 0.6830 0.6780 0.6720 0.6650
9.960000 0.6620 0.6600 0.6580 0.6560 0.6510
9.984978 0.6480 0.6470 0.6460 0.6430 0.6410
10.010000 0.6410 0.6400 0.6400 0.6380 0.6380
10.034978 0.6380 0.6380 0.6380 0.6400 0.6410
10.060000 0.6430 0.6450 0.6500 0.6530 0.6560
10.084978 0.6580 0.6620 0.6660 0.6690 0.6740
10.110000 0.6810 0.6860 0.6920 0.6980 0.7040
10.134978 0.7120 0.7180 0.7240 0.7270 0.7290
10.160000 0.7340 0.7380 0.7430 0.7480 0.7520
10.184978 0.7540 0.7550 0.7640 0.7690 0.7740
10.210000 0.7770 0.7780 0.7780 0.7750 0.7750
10.234978 0.7730 0.7690 0.7650 0.7600 0.7550
10.260000 0.7500 0.7440 0.7380 0.7310 0.7230
10.284978 0.7170 0.7080 0.7010 0.6920 0.6830
10.310000 0.6740 0.6710 0.6650 0.6530 0.6480
10.334978 0.6420 0.6370 0.6320 0.6280 0.6230
10.360000 0.6210 0.6180 0.6180 0.6170 0.6170
10.384978 0.6170 0.6170 0.6170 0.6180 0.6200
10.409000 0.6230 0.6270 0.6310 0.6350 0.6400
10.433978 0.6430 0.6470 0.6500 0.6550 0.6600
10.459000 0.6660 0.6690 0.6740 0.6760 0.6870
10.483978 0.6940 0.7010 0.7040 0.7110 0.7170
10.509000 0.7210 0.7260 0.7310 0.7370 0.7430
10.533978 0.7500 0.7570 0.7640 0.7700 0.7750
10.559000 0.7800 0.7880 0.7990 0.8080 0.8190
10.583978 0.8230 0.8290 0.8300 0.8400 0.8480
10.609000 0.8540 0.8580 0.8600 0.8650 0.8710
10.633978 0.8770 0.8840 0.8860 0.8890 0.8910
10.659000 0.8950 0.8990 0.9020 0.9020 0.9040
10.683978 0.9060 0.9060 0.9070 0.9070 0.9090
10.709000 0.9090 0.9100 0.9100 0.9110 0.9120
10.733978 0.9120 0.9140 0.9140 0.9150 0.9150
10.759000 0.9150 0.9160 0.9160 0.9160 0.9170
10.783978 0.9170 0.9170 0.9170 0.9170 0.9170
10.809000 0.9170 0.9160 0.9160 0.9150 0.9140
10.833978 0.9120 0.9100 0.9100 0.9090 0.9090
10.859000 0.9090 0.9090 0.9090 0.9090 0.9090
10.883978 0.9090 0.9090 0.9090 0.9070 0.9070
10.909000 0.9070 0.9060 0.9050 0.9040 0.9020
10.933978 0.9010 0.8990 0.8950 0.8900 0.8850
10.959000 0.8800 0.8750 0.8700 0.8650 0.8610
10.983978 0.8580 0.8560 0.8480 0.8460 0.8440
11.009000 0.8410 0.8400 0.8360 0.8350 0.8340
11.033978 0.8300 0.8290 0.8280 0.8260 0.8260
11.059000 0.8260 0.8260 0.8280 0.8280 0.8290
11.083978 0.8290 0.8300 0.8300 0.8300 0.8300
11.109000 0.8290 0.8280 0.8260 0.8240 0.8230
11.133978 0.8210 0.8180 0.8150 0.8110 0.8100
11.159000 0.8010 0.7970 0.7950 0.7920 0.7900
11.183978 0.7880 0.7870 0.7820 0.7770 0.7730
11.208000 0.7700 0.7700 0.7690 0.7690 0.7690
11.232978 0.7700 0.7740 0.7770 0.7820 0.7840
11.258000 0.7920 0.7980 0.8030 0.8080 0.8100
11.282978 0.8140 0.8160 0.8180 0.8200 0.8230
11.308000 0.8240 0.8260 0.8290 0.8290 0.8290
11.332978 0.8300 0.8300 0.8300 0.8300 0.8300
11.358000 0.8290 0.8290 0.8290 0.8280 0.8280
11.382978 0.8260 0.8260 0.8260 0.8260 0.8260
11.408000 0.8260 0.8260 0.8280 0.8280 0.8280
11.432978 0.8290 0.8300 0.8310 0.8330 0.8340
11.458000 0.8350 0.8360 0.8380 0.8390 0.8400
11.482978 0.8400 0.8410 0.8410 0.8400 0.8400
11.508000 0.8390 0.8390 0.8380 0.8360 0.8340
11.532978 0.8300 0.8280 0.8240 0.8200 0.8180
11.558000 0.8150 0.8110 0.8100 0.8040 0.8010
11.582978 0.7990 0.7980 0.7940 0.7920 0.7870
11.608000 0.7830 0.7790 0.7770 0.7750 0.7740
11.632978 0.7730 0.7700 0.7670 0.7600 0.7570
11.658000 0.7520 0.7490 0.7450 0.7420 0.7380
11.682978 0.7340 0.7290 0.7230 0.7180 0.7130
11.708000 0.7070 0.7020 0.6980 0.6930 0.6910
11.732978 0.6880 0.6860 0.6840 0.6820 0.6780
11.758000 0.6740 0.6710 0.6670 0.6660 0.6650
11.782978 0.6650 0.6650 0.6660 0.6660 0.6670
11.808000 0.6670 0.6680 0.6690 0.6710 0.6720
11.832978 0.6740 0.6740 0.6770 0.6790 0.6810
11.858000 0.6820 0.6840 0.6870 0.6880 0.6910
11.882978 0.6910 0.6920 0.6940 0.6940 0.6960
11.908000 0.6960 0.6970 0.6970 0.6980 0.6990
11.932978 0.7010 0.7020 0.7030 0.7030 0.7040
11.958000 0.7060 0.7060 0.7070 0.7080 0.7090
11.982978 0.7110 0.7120 0.7140 0.7170 0.7190
12.007000 0.7230 0.7260 0.7270 0.7280 0.7290
12.031978 0.7310 0.7320 0.7330 0.7340 0.7370
12.057000 0.7390 0.7430 0.7470 0.7500 0.7530
12.081978 0.7550 0.7580 0.7600 0.7620 0.7650
12.107000 0.7680 0.7700 0.7720 0.7740 0.7770
12.131978 0.7780 0.7790 0.7800 0.7820 0.7830
12.157000 0.7850 0.7870 0.7880 0.7890 0.7890
12.181978 0.7900 0.7920 0.7920 0.7940 0.7950
12.207000 0.7950 0.7970 0.7970 0.7980 0.7980
12.231978 0.7980 0.7990 0.8000 0.8000 0.8000
12.257000 0.8000 0.7990 0.7980 0.7980 0.7950
12.281978 0.7950 0.7940 0.7930 0.7920 0.7900
12.307000 0.7890 0.7880 0.7870 0.7830 0.7780
12.331978 0.7740 0.7690 0.7640 0.7590 0.7540
12.357000 0.7480 0.7450 0.7400 0.7370 0.7320
12.381978 0.7290 0.7270 0.7190 0.7130 0.7060
12.407000 0.6990 0.6930 0.6870 0.6810 0.6740
12.431978 0.6680 0.6630 0.6570 0.6510 0.6450
12.457000 0.6380 0.6310 0.6250 0.6200 0.6170
12.481978 0.6120 0.6070 0.6000 0.5920 0.5870
12.507000 0.5850 0.5800 0.5750 0.5670 0.5640
12.531978 0.5590 0.5550 0.5500 0.5470 0.5460
12.557000 0.5440 0.5400 0.5390 0.5360 0.5340
12.581978 0.5340 0.5310 0.5290 0.5280 0.5280
12.607000 0.5260 0.5250 0.5250 0.5240 0.5230
12.631978 0.5210 0.5210 0.5200 0.5190 0.5180
12.657000 0.5160 0.5140 0.5130 0.5110 0.5110
12.681978 0.5100 0.5090 0.5080 0.5060 0.5050
12.707000 0.5040 0.5040 0.5030 0.5010 0.5010
12.731978 0.5000 0.5000 0.4990 0.4980 0.4950
12.757000 0.4950 0.4940 0.4930 0.4900 0.4880
12.781978 0.4850 0.4830 0.4800 0.4780 0.4750
12.806000 0.4730 0.4700 0.4650 0.4640 0.4620
12.830978 0.4590 0.4570 0.4540 0.4520 0.4500
12.856000 0.4500 0.4500 0.4490 0.4480 0.4470
12.880978 0.4470 0.4440 0.4420 0.4400 0.4390
12.906000 0.4390 0.4390 0.4380 0.4380 0.4380
12.930978 0.4380 0.4380 0.4370 0.4370 0.4370
12.956000 0.4350 0.4350 0.4340 0.4340 0.4330
12.980978 0.4320 0.4320 0.4320 0.4320 0.4320
13.006000 0.4300 0.4300 0.4300 0.4320 0.4320
13.030978 0.4320 0.4330 0.4330 0.4330 0.4330
13.056000 0.4340 0.4340 0.4350 0.4350 0.4350
13.080978 0.4350 0.4370 0.4370 0.4370 0.4380
13.106000 0.4380 0.4390 0.4440 0.4470 0.4490
13.130978 0.4490 0.4520 0.4530 0.4540 0.4550
13.156000 0.4570 0.4570 0.4590 0.4590 0.4620
13.180978 0.4680 0.4690 0.4710 0.4730 0.4750
13.206000 0.4780 0.4780 0.4790 0.4790 0.4800
13.230978 0.4800 0.4810 0.4830 0.4850 0.4860
13.256000 0.4890 0.4940 0.4950 0.4980 0.4990
13.280978 0.5000 0.5000 0.5010 0.5010 0.5040
13.306000 0.5060 0.5090 0.5100 0.5110 0.5110
13.330978 0.5110 0.5130 0.5130 0.5140 0.5140
13.356000 0.5150 0.5200 0.5210 0.5240 0.5260
13.380978 0.5280 0.5290 0.5300 0.5300 0.5330
13.406000 0.5340 0.5350 0.5360 0.5370 0.5390
13.430978 0.5390 0.5390 0.5390 0.5400 0.5400
13.456000 0.5410 0.5410 0.5410 0.5420 0.5420
13.480978 0.5420 0.5440 0.5450 0.5450 0.5450
13.506000 0.5460 0.5460 0.5460 0.5450 0.5440
13.530978 0.5420 0.5410 0.5410 0.5400 0.5390
13.556000 0.5370 0.5370 0.5350 0.5340 0.5300
13.580978 0.5290 0.5260 0.5240 0.5210 0.5200
13.605000 0.5180 0.5160 0.5150 0.5140 0.5130
13.629978 0.5090 0.5060 0.5050 0.5040 0.5030
13.655000 0.5010 0.5010 0.5000 0.5000 0.4990
13.679978 0.4980 0.4940 0.4900 0.4880 0.4880
13.705000 0.4860 0.4850 0.4840 0.4830 0.4790
13.729978 0.4750 0.4710 0.4680 0.4640 0.4630
13.755000 0.4630 0.4620 0.4620 0.4600 0.4590
13.779978 0.4580 0.4570 0.4550 0.4550 0.4540
13.805000 0.4530 0.4530 0.4520 0.4520 0.4520
13.829978 0.4530 0.4530 0.4540 0.4550 0.4550
13.855000 0.4570 0.4570 0.4580 0.4580 0.4590
13.879978 0.4590 0.4590 0.4600 0.4600 0.4620
13.905000 0.4630 0.4650 0.4660 0.4680 0.4680
13.929978 0.4700 0.4730 0.4740 0.4750 0.4760
13.955000 0.4760 0.4760 0.4760 0.4750 0.4740
13.979978 0.4730 0.4730 0.4710 0.4700 0.4700
14.005000 0.4680 0.4680 0.4660 0.4660 0.4660
14.029978 0.4650 0.4630 0.4630 0.4620 0.4590
14.055000 0.4590 0.4580 0.4570 0.4570 0.4520
14.079978 0.4500 0.4500 0.4490 0.4490 0.4470
14.105000 0.4450 0.4440 0.4420 0.4390 0.4380
14.129978 0.4370 0.4370 0.4350 0.4340 0.4340
14.155000 0.4330 0.4320 0.4300 0.4290 0.4290
14.179978 0.4280 0.4270 0.4250 0.4240 0.4220
14.205000 0.4220 0.4200 0.4200 0.4190 0.4180
14.229978 0.4170 0.4150 0.4130 0.4130 0.4120
14.255000 0.4100 0.4100 0.4090 0.4080 0.4070
14.279978 0.4050 0.4020 0.4000 0.4000 0.3990
14.305000 0.3980 0.3980 0.3980 0.3970 0.3970
14.329978 0.3960 0.3960 0.3940 0.3930 0.3920
14.355000 0.3920 0.3910 0.3910 0.3910 0.3910
14.379978 0.3910 0.3910 0.3910 0.3910 0.3920
14.404000 0.3920 0.3930 0.3940 0.3960 0.3970
14.428978 0.3980 0.3990 0.4000 0.4020 0.4030
14.454000 0.4050 0.4070 0.4090 0.4100 0.4140
14.478978 0.4180 0.4200 0.4230 0.4300 0.4330
14.504000 0.4340 0.4350 0.4370 0.4390 0.4450
14.528978 0.4480 0.4530 0.4570 0.4590 0.4620
14.554000 0.4630 0.4680 0.4730 0.4780 0.4810
14.578978 0.4850 0.4890 0.4910 0.4950 0.4980
14.604000 0.4980 0.5000 0.5030 0.5050 0.5050
14.628978 0.5080 0.5110 0.5160 0.5210 0.5240
14.654000 0.5260 0.5310 0.5340 0.5350 0.5370
14.678978 0.5390 0.5400 0.5410 0.5420 0.5450
14.704000 0.5460 0.5490 0.5500 0.5520 0.5560
14.728978 0.5590 0.5600 0.5600 0.5610 0.5610
14.754000 0.5620 0.5620 0.5640 0.5640 0.5650
14.778978 0.5650 0.5660 0.5660 0.5670 0.5670
14.804000 0.5670 0.5670 0.5670 0.5660 0.5660
14.828978 0.5660 0.5650 0.5650 0.5640 0.5620
14.854000 0.5620 0.5620 0.5610 0.5600 0.5590
14.878978 0.5570 0.5550 0.5540 0.5520 0.5500
14.904000 0.5500 0.5490 0.5470 0.5470 0.5460
14.928978 0.5450 0.5450 0.5440 0.5440 0.5410
14.954000 0.5410 0.5400 0.5390 0.5360 0.5360
14.978978 0.5350 0.5350 0.5350 0.5350 0.5360
15.004000 0.5360 0.5360
##END=
