##TITLE=Spiro[benzofuran-3(2H),4'-piperidine]-2-one,1'-benzyl-5-methyl-,hydrochloride
##JCAMP-DX=4.24
##DATA TYPE=INFRARED SPECTRUM
##CLASS=COBLENTZ
##ORIGIN=ABBOTT LABORATORIES
##OWNER=Copyright (C) 1987 by the Coblentz Society
Collection (C) 2018 copyright by the U.S. Secretary of Commerce
on behalf of the United States of America. All rights reserved.
##DATE=1958/10/24
##CAS REGISTRY NO=116633-08-0
##MOLFORM=C20 H22 Cl N O2
##SOURCE REFERENCE=COBLENTZ NO. 5255
##$NIST SOURCE=COBLENTZ
##$NIST IMAGE=cob5255
##SPECTROMETER/DATA SYSTEM=PERKIN-ELMER 21 (GRATING)
$$ INACTIVE (CHCl3) AROUND 650-800 AND 1200-1250 CM^-^
##INSTRUMENT PARAMETERS=FILTER AT ABOUT 10 MICRONS
##STATE=SOLUTION 7% (CHCl3 FOR 2-15 microns)
##PATH LENGTH=0.01 CM
##RESOLUTION=2
##XUNITS=1/CM
##YUNITS=TRANSMITTANCE
##XFACTOR=1.0
##YFACTOR=1
##FIRSTX=654
##LASTX=4000
##FIRSTY=0.8586
##MAXX=4000
##MINX=654
##MAXY=0.9491
##MINY=0.1191
##NPOINTS=3347
##XYDATA=(X++(Y..Y))
654.000000 0.8586 0.7546 0.7125 0.6695 0.6195
659.000000 0.5689 0.5117 0.4999 0.5782 0.6510
664.000000 0.7235 0.7946 0.8209 0.8334 0.8369
669.000000 0.8383 0.8375 0.8361 0.8336 0.8310
674.000000 0.8285 0.8261 0.8252 0.8270 0.8233
679.000000 0.8227 0.8225 0.8223 0.8216 0.8206
684.000000 0.8174 0.8130 0.8048 0.7913 0.7719
689.000000 0.7494 0.7255 0.6963 0.6630 0.5980
694.000000 0.5332 0.4632 0.4260 0.4076 0.4247
699.000000 0.4611 0.4974 0.5337 0.5699 0.6141
704.000000 0.6563 0.6836 0.7019 0.7142 0.7236
709.000000 0.7326 0.7410 0.7473 0.7537 0.7618
714.000000 0.7698 0.7781 0.7888 0.8031 0.8165
719.000000 0.8292 0.8390 0.8429 0.8469 0.8502
724.000000 0.8520 0.8539 0.8557 0.8556 0.8576
729.000000 0.8547 0.8542 0.8533 0.8524 0.8516
734.000000 0.8507 0.8497 0.8487 0.8477 0.8468
739.000000 0.8457 0.8448 0.8442 0.8437 0.8432
744.000000 0.8427 0.8421 0.8421 0.8425 0.8411
749.000000 0.8380 0.8341 0.8300 0.8258 0.8215
754.000000 0.8176 0.8166 0.8155 0.8145 0.8131
759.000000 0.8116 0.8100 0.8085 0.8070 0.8045
764.000000 0.8011 0.7977 0.7943 0.7910 0.7883
769.000000 0.7859 0.7836 0.7813 0.7791 0.7767
774.000000 0.7744 0.7731 0.7722 0.7713 0.7704
779.000000 0.7695 0.7686 0.7676 0.7661 0.7647
784.000000 0.7633 0.7595 0.7552 0.7519 0.7509
789.000000 0.7499 0.7489 0.7479 0.7468 0.7458
794.000000 0.7448 0.7448 0.7452 0.7457 0.7452
799.000000 0.7426 0.7395 0.7361 0.7321 0.7267
804.000000 0.7169 0.7056 0.6889 0.6490 0.6020
809.000000 0.5550 0.5082 0.4522 0.4368 0.4383
814.000000 0.4422 0.4571 0.5069 0.5566 0.6062
819.000000 0.6556 0.7050 0.7542 0.8033 0.8422
824.000000 0.8539 0.8607 0.8645 0.8669 0.8693
829.000000 0.8743 0.8815 0.8911 0.8992 0.9066
834.000000 0.9134 0.9165 0.9180 0.9161 0.9148
839.000000 0.9144 0.9177 0.9224 0.9266 0.9299
844.000000 0.9329 0.9351 0.9374 0.9391 0.9404
849.000000 0.9418 0.9432 0.9443 0.9454 0.9452
854.000000 0.9474 0.9474 0.9470 0.9460 0.9448
859.000000 0.9444 0.9454 0.9472 0.9475 0.9471
864.000000 0.9461 0.9448 0.9431 0.9408 0.9384
869.000000 0.9356 0.9306 0.9241 0.9141 0.8991
874.000000 0.8848 0.8628 0.8395 0.8164 0.7932
879.000000 0.7692 0.7594 0.7575 0.7610 0.7649
884.000000 0.7648 0.7596 0.7475 0.7355 0.7234
889.000000 0.7181 0.7232 0.7326 0.7420 0.7490
894.000000 0.7469 0.7127 0.6721 0.6406 0.6387
899.000000 0.6420 0.6789 0.7172 0.7554 0.7934
904.000000 0.8314 0.8507 0.8545 0.8531 0.8483
909.000000 0.8410 0.8295 0.8137 0.7976 0.7814
914.000000 0.7654 0.7493 0.7321 0.7217 0.7217
919.000000 0.7212 0.7260 0.7396 0.7587 0.7636
924.000000 0.7656 0.7583 0.7491 0.7401 0.7305
929.000000 0.7212 0.7119 0.7039 0.6990 0.6969
934.000000 0.6960 0.6962 0.6954 0.6664 0.6355
939.000000 0.6047 0.5739 0.5434 0.5242 0.5243
944.000000 0.5254 0.6154 0.6679 0.7202 0.7725
949.000000 0.8246 0.8545 0.8669 0.8735 0.8768
954.000000 0.8779 0.8779 0.8768 0.8723 0.8654
959.000000 0.8535 0.8256 0.7936 0.7616 0.7298
964.000000 0.6979 0.6662 0.6344 0.6028 0.5713
969.000000 0.5609 0.5708 0.6060 0.6418 0.6775
974.000000 0.7131 0.7487 0.7841 0.8195 0.8537
979.000000 0.8679 0.8771 0.8851 0.8906 0.8956
984.000000 0.8975 0.8992 0.8980 0.8984 0.8971
989.000000 0.8950 0.8937 0.8931 0.8936 0.8986
994.000000 0.9050 0.9077 0.9088 0.8792 0.8526
999.000000 0.8408 0.8288 0.8221 0.8158 0.8085
1004.000000 0.7961 0.7674 0.7403 0.7380 0.7391
1009.000000 0.7631 0.7873 0.8114 0.8354 0.8594
1014.000000 0.8707 0.8722 0.8733 0.8709 0.8695
1019.000000 0.8666 0.8616 0.8555 0.8444 0.8231
1024.000000 0.8018 0.7806 0.7593 0.7381 0.7170
1029.000000 0.6959 0.6748 0.6537 0.6328 0.6119
1034.000000 0.5909 0.5746 0.5690 0.5627 0.5315
1039.000000 0.4995 0.4675 0.4356 0.4038 0.3720
1044.000000 0.3411 0.3259 0.3204 0.3207 0.3219
1049.000000 0.3233 0.3223 0.3194 0.3133 0.3045
1054.000000 0.2942 0.2798 0.2627 0.2454 0.2261
1059.000000 0.2055 0.1829 0.1566 0.1443 0.1431
1064.000000 0.1470 0.1532 0.1722 0.1880 0.2128
1069.000000 0.2401 0.2747 0.3091 0.3434 0.3778
1074.000000 0.4121 0.4448 0.4638 0.4730 0.4770
1079.000000 0.4766 0.4771 0.5006 0.5380 0.5753
1084.000000 0.6127 0.6738 0.7003 0.7301 0.7574
1089.000000 0.7820 0.8079 0.8230 0.8319 0.8397
1094.000000 0.8452 0.8493 0.8525 0.8535 0.8544
1099.000000 0.8545 0.8538 0.8530 0.8519 0.8521
1104.000000 0.8513 0.8523 0.8538 0.8554 0.8570
1109.000000 0.8586 0.8594 0.8594 0.8572 0.8511
1114.000000 0.8399 0.8197 0.7977 0.7757 0.7538
1119.000000 0.7320 0.7155 0.7179 0.7329 0.7571
1124.000000 0.7813 0.8054 0.8279 0.8332 0.8343
1129.000000 0.8310 0.8283 0.8249 0.8214 0.8178
1134.000000 0.8132 0.8078 0.8019 0.7926 0.7823
1139.000000 0.7651 0.7422 0.7170 0.6964 0.6619
1144.000000 0.6254 0.5891 0.5683 0.5715 0.5976
1149.000000 0.6235 0.6494 0.6753 0.7011 0.7269
1154.000000 0.7434 0.7437 0.7432 0.7407 0.7330
1159.000000 0.7253 0.7176 0.7098 0.7074 0.7069
1164.000000 0.7136 0.7329 0.7522 0.7714 0.7906
1169.000000 0.8020 0.8040 0.8047 0.8050 0.8056
1174.000000 0.8062 0.8080 0.8107 0.8135 0.8170
1179.000000 0.8207 0.8222 0.8226 0.8225 0.8201
1184.000000 0.8183 0.8147 0.8096 0.8021 0.7910
1189.000000 0.7781 0.7649 0.7516 0.7384 0.7252
1194.000000 0.7121 0.6989 0.6858 0.6727 0.6596
1199.000000 0.6466 0.6335 0.6206 0.6076 0.5947
1204.000000 0.5817 0.5688 0.5559 0.5430 0.5302
1209.000000 0.5173 0.5045 0.4917 0.4789 0.4662
1214.000000 0.4536 0.4408 0.4282 0.4176 0.4134
1219.000000 0.4104 0.4076 0.4051 0.4027 0.4006
1224.000000 0.3995 0.3989 0.3996 0.4016 0.4055
1229.000000 0.4125 0.4256 0.4393 0.4530 0.4667
1234.000000 0.4762 0.4812 0.4857 0.4900 0.4934
1239.000000 0.4960 0.4988 0.5018 0.5049 0.5130
1244.000000 0.5207 0.5270 0.5363 0.5525 0.5677
1249.000000 0.5783 0.5859 0.5994 0.6228 0.6336
1254.000000 0.6461 0.6644 0.6898 0.7056 0.7155
1259.000000 0.7256 0.7356 0.7559 0.7820 0.7942
1264.000000 0.8031 0.8077 0.8124 0.8155 0.8173
1269.000000 0.8203 0.8187 0.8179 0.8161 0.8122
1274.000000 0.8082 0.8041 0.7989 0.7934 0.7859
1279.000000 0.7770 0.7687 0.7609 0.7531 0.7421
1284.000000 0.7301 0.7181 0.7060 0.6940 0.6841
1289.000000 0.6820 0.6830 0.6880 0.6969 0.7059
1294.000000 0.7148 0.7158 0.7136 0.7007 0.6885
1299.000000 0.6763 0.6642 0.6563 0.6581 0.6622
1304.000000 0.6722 0.6739 0.6737 0.6613 0.6522
1309.000000 0.6431 0.6358 0.6366 0.6436 0.6602
1314.000000 0.6768 0.6933 0.7098 0.7263 0.7428
1319.000000 0.7592 0.7756 0.7920 0.8075 0.8082
1324.000000 0.8079 0.8078 0.8077 0.8069 0.8058
1329.000000 0.8047 0.8032 0.8007 0.7983 0.7948
1334.000000 0.7908 0.7869 0.7820 0.7755 0.7700
1339.000000 0.7674 0.7674 0.7674 0.7671 0.7685
1344.000000 0.7711 0.7835 0.7967 0.8100 0.8232
1349.000000 0.8362 0.8462 0.8507 0.8519 0.8529
1354.000000 0.8490 0.8449 0.8352 0.8230 0.8091
1359.000000 0.8037 0.8004 0.7993 0.7995 0.8032
1364.000000 0.8078 0.8110 0.8114 0.8108 0.8060
1369.000000 0.7988 0.7934 0.7892 0.7858 0.7832
1374.000000 0.7809 0.7796 0.7785 0.7777 0.7772
1379.000000 0.7768 0.7764 0.7746 0.7687 0.7618
1384.000000 0.7548 0.7479 0.7410 0.7341 0.7273
1389.000000 0.7204 0.7144 0.7128 0.7144 0.7140
1394.000000 0.7188 0.7257 0.7326 0.7395 0.7464
1399.000000 0.7533 0.7553 0.7551 0.7561 0.7534
1404.000000 0.7511 0.7481 0.7439 0.7334 0.7153
1409.000000 0.7019 0.6886 0.6752 0.6618 0.6485
1414.000000 0.6351 0.6219 0.6086 0.5944 0.5781
1419.000000 0.5761 0.5780 0.5784 0.5957 0.6048
1424.000000 0.6139 0.6229 0.6310 0.6337 0.6348
1429.000000 0.6355 0.6361 0.6367 0.6372 0.6374
1434.000000 0.6385 0.6372 0.6363 0.6348 0.6273
1439.000000 0.6134 0.5994 0.5855 0.5716 0.5577
1444.000000 0.5439 0.5300 0.5162 0.5023 0.4886
1449.000000 0.4749 0.4679 0.4647 0.4626 0.4620
1454.000000 0.4619 0.4630 0.4630 0.4738 0.4840
1459.000000 0.4896 0.4910 0.4922 0.4928 0.4929
1464.000000 0.4930 0.4936 0.4952 0.4999 0.5257
1469.000000 0.5316 0.5340 0.5353 0.5360 0.5351
1474.000000 0.5039 0.4776 0.4514 0.4253 0.3992
1479.000000 0.3731 0.3470 0.3210 0.2959 0.2841
1484.000000 0.2833 0.2861 0.3125 0.3518 0.3911
1489.000000 0.4303 0.4695 0.5086 0.5476 0.5866
1494.000000 0.6256 0.6644 0.7033 0.7420 0.7781
1499.000000 0.7885 0.7994 0.8130 0.8241 0.8338
1504.000000 0.8401 0.8438 0.8471 0.8505 0.8543
1509.000000 0.8581 0.8619 0.8655 0.8684 0.8712
1514.000000 0.8741 0.8770 0.8798 0.8823 0.8849
1519.000000 0.8875 0.8901 0.8927 0.8950 0.8969
1524.000000 0.8987 0.9006 0.9024 0.9042 0.9060
1529.000000 0.9077 0.9091 0.9106 0.9119 0.9123
1534.000000 0.9125 0.9128 0.9129 0.9128 0.9128
1539.000000 0.9128 0.9127 0.9127 0.9127 0.9128
1544.000000 0.9138 0.9150 0.9162 0.9173 0.9185
1549.000000 0.9196 0.9207 0.9218 0.9229 0.9235
1554.000000 0.9241 0.9247 0.9253 0.9262 0.9277
1559.000000 0.9291 0.9305 0.9319 0.9333 0.9346
1564.000000 0.9355 0.9354 0.9349 0.9343 0.9339
1569.000000 0.9326 0.9318 0.9309 0.9300 0.9291
1574.000000 0.9282 0.9272 0.9261 0.9250 0.9240
1579.000000 0.9230 0.9220 0.9203 0.9184 0.9164
1584.000000 0.9150 0.9139 0.9130 0.9124 0.9119
1589.000000 0.9114 0.9109 0.9104 0.9095 0.9084
1594.000000 0.9072 0.9057 0.9038 0.9018 0.8993
1599.000000 0.8966 0.8939 0.8906 0.8868 0.8830
1604.000000 0.8789 0.8739 0.8686 0.8618 0.8520
1609.000000 0.8421 0.8322 0.8223 0.8125 0.8027
1614.000000 0.7929 0.7831 0.7733 0.7635 0.7559
1619.000000 0.7527 0.7514 0.7508 0.7534 0.7641
1624.000000 0.7783 0.7925 0.8066 0.8207 0.8348
1629.000000 0.8489 0.8629 0.8759 0.8843 0.8910
1634.000000 0.8969 0.9010 0.9052 0.9090 0.9126
1639.000000 0.9161 0.9197 0.9233 0.9262 0.9284
1644.000000 0.9303 0.9322 0.9339 0.9348 0.9357
1649.000000 0.9364 0.9371 0.9379 0.9387 0.9392
1654.000000 0.9394 0.9395 0.9397 0.9399 0.9400
1659.000000 0.9402 0.9403 0.9405 0.9406 0.9407
1664.000000 0.9401 0.9409 0.9410 0.9411 0.9412
1669.000000 0.9413 0.9413 0.9414 0.9415 0.9415
1674.000000 0.9413 0.9412 0.9411 0.9409 0.9408
1679.000000 0.9407 0.9406 0.9403 0.9399 0.9395
1684.000000 0.9392 0.9388 0.9384 0.9380 0.9377
1689.000000 0.9372 0.9369 0.9365 0.9360 0.9356
1694.000000 0.9352 0.9348 0.9344 0.9337 0.9328
1699.000000 0.9318 0.9309 0.9300 0.9291 0.9281
1704.000000 0.9272 0.9262 0.9250 0.9237 0.9224
1709.000000 0.9210 0.9197 0.9184 0.9168 0.9152
1714.000000 0.9135 0.9118 0.9102 0.9086 0.9069
1719.000000 0.9052 0.9032 0.9009 0.8986 0.8964
1724.000000 0.8942 0.8919 0.8896 0.8874 0.8850
1729.000000 0.8823 0.8796 0.8770 0.8743 0.8716
1734.000000 0.8687 0.8653 0.8617 0.8581 0.8545
1739.000000 0.8510 0.8474 0.8438 0.8402 0.8365
1744.000000 0.8327 0.8290 0.8253 0.8216 0.8179
1749.000000 0.8141 0.8097 0.8049 0.8002 0.7955
1754.000000 0.7908 0.7853 0.7793 0.7732 0.7672
1759.000000 0.7611 0.7369 0.7033 0.6707 0.6454
1764.000000 0.5932 0.5703 0.5534 0.5266 0.4912
1769.000000 0.4558 0.4205 0.3852 0.3500 0.3147
1774.000000 0.2796 0.2444 0.2093 0.1756 0.1479
1779.000000 0.1356 0.1281 0.1236 0.1212 0.1203
1784.000000 0.1198 0.1196 0.1191 0.1201 0.1383
1789.000000 0.1625 0.1888 0.2151 0.2413 0.2676
1794.000000 0.2939 0.3200 0.3463 0.3724 0.3984
1799.000000 0.4245 0.4506 0.4766 0.5025 0.5285
1804.000000 0.5545 0.5804 0.6063 0.6321 0.6579
1809.000000 0.6837 0.7095 0.7473 0.7789 0.7942
1814.000000 0.8081 0.8229 0.8369 0.8490 0.8569
1819.000000 0.8647 0.8723 0.8791 0.8829 0.8868
1824.000000 0.8906 0.8943 0.8970 0.8994 0.9016
1829.000000 0.9038 0.9061 0.9083 0.9106 0.9128
1834.000000 0.9150 0.9173 0.9194 0.9216 0.9234
1839.000000 0.9250 0.9265 0.9280 0.9296 0.9311
1844.000000 0.9326 0.9341 0.9349 0.9355 0.9360
1849.000000 0.9364 0.9368 0.9370 0.9390 0.9367
1854.000000 0.9363 0.9358 0.9351 0.9345 0.9338
1859.000000 0.9329 0.9312 0.9293 0.9278 0.9268
1864.000000 0.9259 0.9250 0.9242 0.9239 0.9237
1869.000000 0.9236 0.9234 0.9233 0.9232 0.9231
1874.000000 0.9230 0.9230 0.9230 0.9231 0.9231
1879.000000 0.9194 0.9233 0.9234 0.9241 0.9249
1884.000000 0.9256 0.9263 0.9270 0.9277 0.9286
1889.000000 0.9295 0.9305 0.9315 0.9325 0.9334
1894.000000 0.9344 0.9353 0.9361 0.9369 0.9377
1899.000000 0.9386 0.9394 0.9401 0.9408 0.9413
1904.000000 0.9415 0.9417 0.9419 0.9421 0.9423
1909.000000 0.9424 0.9426 0.9428 0.9429 0.9430
1914.000000 0.9429 0.9427 0.9421 0.9425 0.9423
1919.000000 0.9422 0.9421 0.9419 0.9417 0.9415
1924.000000 0.9410 0.9405 0.9401 0.9397 0.9392
1929.000000 0.9388 0.9383 0.9378 0.9373 0.9369
1934.000000 0.9364 0.9359 0.9352 0.9344 0.9336
1939.000000 0.9328 0.9321 0.9313 0.9305 0.9298
1944.000000 0.9290 0.9282 0.9274 0.9265 0.9255
1949.000000 0.9245 0.9235 0.9225 0.9217 0.9210
1954.000000 0.9205 0.9201 0.9196 0.9192 0.9188
1959.000000 0.9184 0.9182 0.9180 0.9179 0.9178
1964.000000 0.9177 0.9176 0.9175 0.9173 0.9173
1969.000000 0.9172 0.9171 0.9169 0.9169 0.9169
1974.000000 0.9170 0.9171 0.9172 0.9172 0.9170
1979.000000 0.9168 0.9166 0.9164 0.9163 0.9161
1984.000000 0.9160 0.9158 0.9156 0.9154 0.9152
1989.000000 0.9150 0.9148 0.9146 0.9145 0.9143
1994.000000 0.9140 0.9135 0.9129 0.9123 0.9118
1999.000000 0.9112 0.9106 0.9100 0.9094 0.9089
2004.000000 0.9083 0.9076 0.9071 0.9065 0.9060
2009.000000 0.9053 0.9046 0.9039 0.9032 0.9026
2014.000000 0.9018 0.9011 0.9004 0.8998 0.8991
2019.000000 0.8984 0.8977 0.8970 0.8963 0.8956
2024.000000 0.8949 0.8943 0.8936 0.8929 0.8921
2029.000000 0.8914 0.8906 0.8897 0.8889 0.8880
2034.000000 0.8872 0.8864 0.8855 0.8847 0.8838
2039.000000 0.8830 0.8821 0.8813 0.8805 0.8796
2044.000000 0.8788 0.8779 0.8771 0.8761 0.8749
2049.000000 0.8737 0.8725 0.8713 0.8700 0.8688
2054.000000 0.8675 0.8663 0.8652 0.8639 0.8627
2059.000000 0.8614 0.8602 0.8591 0.8578 0.8566
2064.000000 0.8554 0.8543 0.8531 0.8519 0.8506
2069.000000 0.8495 0.8483 0.8471 0.8459 0.8447
2074.000000 0.8436 0.8424 0.8412 0.8401 0.8389
2079.000000 0.8377 0.8365 0.8353 0.8342 0.8330
2084.000000 0.8318 0.8306 0.8288 0.8270 0.8251
2089.000000 0.8232 0.8212 0.8193 0.8173 0.8154
2094.000000 0.8135 0.8115 0.8096 0.8077 0.8060
2099.000000 0.8043 0.8026 0.8010 0.7994 0.7978
2104.000000 0.7962 0.7946 0.7930 0.7914 0.7898
2109.000000 0.7883 0.7867 0.7850 0.7834 0.7819
2114.000000 0.7803 0.7787 0.7772 0.7757 0.7743
2119.000000 0.7729 0.7715 0.7700 0.7686 0.7672
2124.000000 0.7657 0.7643 0.7628 0.7615 0.7601
2129.000000 0.7586 0.7572 0.7558 0.7544 0.7530
2134.000000 0.7516 0.7501 0.7487 0.7473 0.7459
2139.000000 0.7446 0.7431 0.7417 0.7403 0.7388
2144.000000 0.7373 0.7358 0.7343 0.7328 0.7313
2149.000000 0.7298 0.7283 0.7268 0.7253 0.7238
2154.000000 0.7224 0.7209 0.7194 0.7179 0.7164
2159.000000 0.7149 0.7135 0.7120 0.7105 0.7090
2164.000000 0.7076 0.7062 0.7049 0.7037 0.7024
2169.000000 0.7011 0.6998 0.6986 0.6973 0.6961
2174.000000 0.6948 0.6936 0.6923 0.6910 0.6898
2179.000000 0.6885 0.6873 0.6861 0.6848 0.6836
2184.000000 0.6825 0.6813 0.6801 0.6789 0.6778
2189.000000 0.6766 0.6754 0.6742 0.6731 0.6719
2194.000000 0.6707 0.6695 0.6683 0.6672 0.6660
2199.000000 0.6648 0.6632 0.6614 0.6593 0.6572
2204.000000 0.6551 0.6530 0.6509 0.6489 0.6468
2209.000000 0.6447 0.6426 0.6404 0.6381 0.6359
2214.000000 0.6336 0.6314 0.6291 0.6268 0.6246
2219.000000 0.6223 0.6201 0.6178 0.6156 0.6133
2224.000000 0.6111 0.6088 0.6066 0.6045 0.6025
2229.000000 0.6006 0.5986 0.5967 0.5947 0.5928
2234.000000 0.5909 0.5890 0.5871 0.5852 0.5833
2239.000000 0.5814 0.5794 0.5775 0.5756 0.5737
2244.000000 0.5719 0.5699 0.5680 0.5663 0.5646
2249.000000 0.5629 0.5612 0.5596 0.5580 0.5563
2254.000000 0.5547 0.5531 0.5514 0.5497 0.5481
2259.000000 0.5465 0.5448 0.5432 0.5416 0.5397
2264.000000 0.5377 0.5356 0.5333 0.5310 0.5287
2269.000000 0.5264 0.5242 0.5219 0.5196 0.5173
2274.000000 0.5151 0.5128 0.5105 0.5082 0.5060
2279.000000 0.5037 0.5019 0.5000 0.4985 0.4970
2284.000000 0.4955 0.4940 0.4926 0.4911 0.4896
2289.000000 0.4881 0.4866 0.4851 0.4836 0.4821
2294.000000 0.4807 0.4793 0.4780 0.4768 0.4756
2299.000000 0.4744 0.4732 0.4721 0.4709 0.4697
2304.000000 0.4685 0.4673 0.4662 0.4654 0.4647
2309.000000 0.4642 0.4638 0.4634 0.4629 0.4625
2314.000000 0.4620 0.4616 0.4612 0.4607 0.4603
2319.000000 0.4598 0.4594 0.4590 0.4585 0.4581
2324.000000 0.4577 0.4572 0.4568 0.4564 0.4560
2329.000000 0.4556 0.4553 0.4550 0.4547 0.4544
2334.000000 0.4540 0.4537 0.4534 0.4531 0.4528
2339.000000 0.4524 0.4521 0.4518 0.4515 0.4512
2344.000000 0.4508 0.4505 0.4502 0.4499 0.4496
2349.000000 0.4492 0.4489 0.4486 0.4483 0.4479
2354.000000 0.4476 0.4472 0.4469 0.4466 0.4463
2359.000000 0.4460 0.4457 0.4453 0.4450 0.4447
2364.000000 0.4447 0.4447 0.4447 0.4447 0.4448
2369.000000 0.4448 0.4450 0.4451 0.4453 0.4459
2374.000000 0.4465 0.4470 0.4476 0.4482 0.4488
2379.000000 0.4495 0.4504 0.4512 0.4522 0.4532
2384.000000 0.4542 0.4552 0.4563 0.4573 0.4583
2389.000000 0.4592 0.4602 0.4612 0.4622 0.4632
2394.000000 0.4641 0.4651 0.4661 0.4670 0.4680
2399.000000 0.4689 0.4699 0.4708 0.4718 0.4727
2404.000000 0.4736 0.4745 0.4755 0.4764 0.4774
2409.000000 0.4784 0.4794 0.4804 0.4814 0.4825
2414.000000 0.4836 0.4847 0.4857 0.4868 0.4879
2419.000000 0.4890 0.4901 0.4912 0.4922 0.4933
2424.000000 0.4943 0.4953 0.4963 0.4973 0.4983
2429.000000 0.4993 0.5003 0.5013 0.5022 0.5033
2434.000000 0.5043 0.5053 0.5063 0.5073 0.5084
2439.000000 0.5094 0.5104 0.5114 0.5125 0.5135
2444.000000 0.5146 0.5156 0.5167 0.5177 0.5187
2449.000000 0.5196 0.5203 0.5211 0.5214 0.5217
2454.000000 0.5220 0.5223 0.5226 0.5229 0.5232
2459.000000 0.5235 0.5238 0.5242 0.5244 0.5247
2464.000000 0.5251 0.5254 0.5257 0.5260 0.5264
2469.000000 0.5267 0.5270 0.5274 0.5277 0.5283
2474.000000 0.5302 0.5320 0.5344 0.5369 0.5394
2479.000000 0.5419 0.5444 0.5470 0.5495 0.5520
2484.000000 0.5545 0.5570 0.5595 0.5620 0.5645
2489.000000 0.5670 0.5696 0.5720 0.5745 0.5770
2494.000000 0.5795 0.5820 0.5845 0.5870 0.5895
2499.000000 0.5919 0.5944 0.5968 0.5993 0.6018
2504.000000 0.6043 0.6067 0.6092 0.6117 0.6141
2509.000000 0.6166 0.6191 0.6215 0.6240 0.6264
2514.000000 0.6289 0.6313 0.6338 0.6362 0.6387
2519.000000 0.6411 0.6436 0.6460 0.6484 0.6509
2524.000000 0.6533 0.6557 0.6582 0.6606 0.6630
2529.000000 0.6654 0.6679 0.6703 0.6727 0.6751
2534.000000 0.6775 0.6800 0.6824 0.6848 0.6872
2539.000000 0.6896 0.6920 0.6944 0.6967 0.6991
2544.000000 0.7015 0.7039 0.7063 0.7087 0.7110
2549.000000 0.7134 0.7158 0.7182 0.7217 0.7252
2554.000000 0.7283 0.7309 0.7334 0.7360 0.7386
2559.000000 0.7411 0.7432 0.7453 0.7472 0.7492
2564.000000 0.7511 0.7530 0.7549 0.7568 0.7585
2569.000000 0.7601 0.7615 0.7627 0.7638 0.7650
2574.000000 0.7661 0.7672 0.7684 0.7695 0.7706
2579.000000 0.7717 0.7728 0.7736 0.7744 0.7752
2584.000000 0.7760 0.7768 0.7776 0.7784 0.7793
2589.000000 0.7799 0.7805 0.7810 0.7813 0.7816
2594.000000 0.7819 0.7822 0.7824 0.7827 0.7830
2599.000000 0.7832 0.7835 0.7838 0.7841 0.7843
2604.000000 0.7846 0.7849 0.7851 0.7854 0.7856
2609.000000 0.7857 0.7859 0.7861 0.7862 0.7864
2614.000000 0.7866 0.7867 0.7869 0.7870 0.7872
2619.000000 0.7873 0.7875 0.7876 0.7878 0.7880
2624.000000 0.7882 0.7883 0.7884 0.7886 0.7888
2629.000000 0.7890 0.7892 0.7893 0.7895 0.7897
2634.000000 0.7899 0.7900 0.7902 0.7903 0.7911
2639.000000 0.7920 0.7929 0.7952 0.7975 0.7999
2644.000000 0.8023 0.8046 0.8071 0.8095 0.8119
2649.000000 0.8143 0.8168 0.8192 0.8216 0.8240
2654.000000 0.8264 0.8278 0.8293 0.8308 0.8322
2659.000000 0.8336 0.8351 0.8365 0.8379 0.8393
2664.000000 0.8408 0.8422 0.8433 0.8442 0.8452
2669.000000 0.8460 0.8469 0.8477 0.8486 0.8495
2674.000000 0.8503 0.8512 0.8520 0.8528 0.8537
2679.000000 0.8545 0.8554 0.8562 0.8571 0.8579
2684.000000 0.8588 0.8596 0.8604 0.8612 0.8619
2689.000000 0.8627 0.8634 0.8642 0.8650 0.8657
2694.000000 0.8665 0.8672 0.8680 0.8687 0.8695
2699.000000 0.8703 0.8710 0.8718 0.8726 0.8734
2704.000000 0.8741 0.8749 0.8756 0.8764 0.8771
2709.000000 0.8779 0.8786 0.8794 0.8801 0.8808
2714.000000 0.8815 0.8822 0.8829 0.8835 0.8841
2719.000000 0.8848 0.8854 0.8861 0.8867 0.8874
2724.000000 0.8880 0.8886 0.8893 0.8899 0.8905
2729.000000 0.8912 0.8918 0.8925 0.8932 0.8938
2734.000000 0.8945 0.8951 0.8956 0.8961 0.8965
2739.000000 0.8969 0.8971 0.8974 0.8977 0.8979
2744.000000 0.8982 0.8985 0.8988 0.8991 0.8993
2749.000000 0.8996 0.8999 0.9002 0.9005 0.9008
2754.000000 0.9010 0.9012 0.9014 0.9015 0.9017
2759.000000 0.9018 0.9019 0.9020 0.9021 0.9022
2764.000000 0.9024 0.9025 0.9026 0.9027 0.9028
2769.000000 0.9043 0.9030 0.9032 0.9032 0.9032
2774.000000 0.9031 0.9030 0.9030 0.9029 0.9028
2779.000000 0.9028 0.9028 0.9027 0.9027 0.9026
2784.000000 0.9025 0.9022 0.9018 0.9015 0.9009
2789.000000 0.9004 0.8998 0.8993 0.8988 0.8982
2794.000000 0.8977 0.8971 0.8966 0.8959 0.8952
2799.000000 0.8945 0.8938 0.8930 0.8921 0.8913
2804.000000 0.8905 0.8897 0.8889 0.8881 0.8872
2809.000000 0.8863 0.8855 0.8847 0.8839 0.8831
2814.000000 0.8822 0.8814 0.8806 0.8797 0.8789
2819.000000 0.8779 0.8767 0.8755 0.8743 0.8731
2824.000000 0.8719 0.8707 0.8694 0.8682 0.8669
2829.000000 0.8655 0.8641 0.8626 0.8610 0.8592
2834.000000 0.8575 0.8557 0.8540 0.8523 0.8506
2839.000000 0.8489 0.8472 0.8455 0.8438 0.8421
2844.000000 0.8404 0.8388 0.8373 0.8357 0.8342
2849.000000 0.8326 0.8310 0.8295 0.8279 0.8263
2854.000000 0.8248 0.8232 0.8216 0.8201 0.8185
2859.000000 0.8170 0.8154 0.8135 0.8114 0.8093
2864.000000 0.8069 0.8040 0.8010 0.7981 0.7952
2869.000000 0.7922 0.7893 0.7865 0.7837 0.7809
2874.000000 0.7785 0.7767 0.7748 0.7729 0.7711
2879.000000 0.7692 0.7674 0.7655 0.7637 0.7618
2884.000000 0.7598 0.7576 0.7555 0.7531 0.7499
2889.000000 0.7466 0.7434 0.7402 0.7371 0.7339
2894.000000 0.7311 0.7288 0.7266 0.7242 0.7215
2899.000000 0.7188 0.7162 0.7115 0.7062 0.7009
2904.000000 0.6956 0.6904 0.6851 0.6798 0.6746
2909.000000 0.6693 0.6640 0.6588 0.6535 0.6483
2914.000000 0.6431 0.6378 0.6326 0.6274 0.6221
2919.000000 0.6169 0.6117 0.6065 0.6013 0.5961
2924.000000 0.5909 0.5857 0.5805 0.5753 0.5701
2929.000000 0.5650 0.5598 0.5546 0.5494 0.5442
2934.000000 0.5391 0.5339 0.5287 0.5236 0.5184
2939.000000 0.5133 0.5081 0.5030 0.4978 0.4927
2944.000000 0.4875 0.4824 0.4773 0.4722 0.4670
2949.000000 0.4619 0.4568 0.4517 0.4466 0.4415
2954.000000 0.4364 0.4313 0.4262 0.4211 0.4160
2959.000000 0.4113 0.4071 0.4029 0.3987 0.3984
2964.000000 0.3984 0.3984 0.4013 0.3984 0.3984
2969.000000 0.3984 0.3986 0.3988 0.3989 0.4022
2974.000000 0.4112 0.4203 0.4293 0.4390 0.4489
2979.000000 0.4587 0.4685 0.4784 0.4882 0.4981
2984.000000 0.5079 0.5177 0.5275 0.5372 0.5470
2989.000000 0.5568 0.5665 0.5763 0.5861 0.5959
2994.000000 0.6056 0.6154 0.6251 0.6348 0.6445
2999.000000 0.6542 0.6639 0.6736 0.6833 0.6930
3004.000000 0.7027 0.7124 0.7221 0.7317 0.7414
3009.000000 0.7510 0.7606 0.7703 0.7799 0.7856
3014.000000 0.7912 0.7968 0.8006 0.8009 0.8012
3019.000000 0.8015 0.8018 0.8021 0.8024 0.8027
3024.000000 0.8029 0.8032 0.8035 0.8038 0.8041
3029.000000 0.8044 0.8048 0.8052 0.8058 0.8064
3034.000000 0.8070 0.8075 0.8080 0.8086 0.8091
3039.000000 0.8097 0.8103 0.8108 0.8119 0.8133
3044.000000 0.8146 0.8160 0.8189 0.8220 0.8251
3049.000000 0.8280 0.8305 0.8329 0.8354 0.8375
3054.000000 0.8391 0.8407 0.8424 0.8440 0.8457
3059.000000 0.8473 0.8490 0.8503 0.8517 0.8531
3064.000000 0.8544 0.8556 0.8568 0.8581 0.8593
3069.000000 0.8605 0.8617 0.8629 0.8645 0.8662
3074.000000 0.8678 0.8695 0.8714 0.8733 0.8753
3079.000000 0.8772 0.8791 0.8810 0.8830 0.8848
3084.000000 0.8864 0.8880 0.8897 0.8909 0.8920
3089.000000 0.8930 0.8940 0.8950 0.8961 0.8971
3094.000000 0.8981 0.8991 0.9001 0.9011 0.9022
3099.000000 0.9031 0.9041 0.9051 0.9061 0.9071
3104.000000 0.9081 0.9091 0.9100 0.9109 0.9118
3109.000000 0.9127 0.9136 0.9145 0.9155 0.9164
3114.000000 0.9173 0.9182 0.9191 0.9200 0.9205
3119.000000 0.9210 0.9215 0.9220 0.9223 0.9226
3124.000000 0.9229 0.9232 0.9234 0.9237 0.9240
3129.000000 0.9243 0.9246 0.9248 0.9251 0.9254
3134.000000 0.9257 0.9260 0.9262 0.9265 0.9267
3139.000000 0.9270 0.9272 0.9274 0.9274 0.9275
3144.000000 0.9275 0.9276 0.9277 0.9277 0.9278
3149.000000 0.9279 0.9280 0.9280 0.9281 0.9282
3154.000000 0.9283 0.9283 0.9284 0.9285 0.9285
3159.000000 0.9286 0.9286 0.9287 0.9288 0.9288
3164.000000 0.9289 0.9290 0.9290 0.9291 0.9291
3169.000000 0.9331 0.9292 0.9292 0.9292 0.9292
3174.000000 0.9292 0.9292 0.9292 0.9293 0.9293
3179.000000 0.9293 0.9293 0.9293 0.9293 0.9293
3184.000000 0.9293 0.9294 0.9294 0.9294 0.9294
3189.000000 0.9294 0.9294 0.9294 0.9294 0.9295
3194.000000 0.9295 0.9295 0.9295 0.9295 0.9295
3199.000000 0.9295 0.9295 0.9295 0.9295 0.9295
3204.000000 0.9294 0.9294 0.9292 0.9290 0.9289
3209.000000 0.9287 0.9285 0.9283 0.9281 0.9279
3214.000000 0.9277 0.9276 0.9274 0.9272 0.9270
3219.000000 0.9268 0.9265 0.9263 0.9260 0.9257
3224.000000 0.9253 0.9249 0.9246 0.9242 0.9239
3229.000000 0.9235 0.9231 0.9228 0.9224 0.9221
3234.000000 0.9217 0.9213 0.9210 0.9206 0.9203
3239.000000 0.9199 0.9196 0.9192 0.9188 0.9185
3244.000000 0.9181 0.9177 0.9173 0.9170 0.9166
3249.000000 0.9163 0.9159 0.9155 0.9150 0.9144
3254.000000 0.9138 0.9133 0.9127 0.9121 0.9116
3259.000000 0.9110 0.9104 0.9098 0.9093 0.9087
3264.000000 0.9081 0.9075 0.9070 0.9064 0.9058
3269.000000 0.9053 0.9047 0.9042 0.9036 0.9030
3274.000000 0.9025 0.9019 0.9014 0.9008 0.9002
3279.000000 0.8997 0.8991 0.8986 0.8980 0.8974
3284.000000 0.8968 0.8962 0.8956 0.8950 0.8944
3289.000000 0.8938 0.8932 0.8926 0.8920 0.8914
3294.000000 0.8908 0.8902 0.8896 0.8890 0.8884
3299.000000 0.8878 0.8872 0.8867 0.8861 0.8854
3304.000000 0.8848 0.8842 0.8836 0.8830 0.8824
3309.000000 0.8818 0.8812 0.8806 0.8800 0.8794
3314.000000 0.8788 0.8782 0.8776 0.8771 0.8765
3319.000000 0.8759 0.8753 0.8747 0.8741 0.8734
3324.000000 0.8728 0.8722 0.8715 0.8708 0.8701
3329.000000 0.8694 0.8687 0.8679 0.8672 0.8665
3334.000000 0.8658 0.8651 0.8644 0.8637 0.8630
3339.000000 0.8623 0.8616 0.8609 0.8602 0.8595
3344.000000 0.8588 0.8581 0.8574 0.8568 0.8560
3349.000000 0.8553 0.8546 0.8539 0.8533 0.8526
3354.000000 0.8520 0.8514 0.8508 0.8503 0.8498
3359.000000 0.8493 0.8488 0.8482 0.8477 0.8472
3364.000000 0.8466 0.8461 0.8456 0.8451 0.8445
3369.000000 0.8440 0.8436 0.8432 0.8428 0.8425
3374.000000 0.8421 0.8420 0.8419 0.8418 0.8417
3379.000000 0.8416 0.8414 0.8413 0.8412 0.8410
3384.000000 0.8409 0.8408 0.8407 0.8406 0.8384
3389.000000 0.8404 0.8403 0.8402 0.8401 0.8400
3394.000000 0.8398 0.8397 0.8396 0.8396 0.8397
3399.000000 0.8399 0.8400 0.8402 0.8404 0.8405
3404.000000 0.8407 0.8409 0.8411 0.8412 0.8414
3409.000000 0.8416 0.8418 0.8420 0.8422 0.8424
3414.000000 0.8425 0.8427 0.8431 0.8436 0.8441
3419.000000 0.8446 0.8451 0.8458 0.8465 0.8472
3424.000000 0.8479 0.8486 0.8493 0.8500 0.8507
3429.000000 0.8514 0.8526 0.8542 0.8557 0.8572
3434.000000 0.8587 0.8605 0.8622 0.8639 0.8656
3439.000000 0.8672 0.8685 0.8698 0.8710 0.8723
3444.000000 0.8733 0.8742 0.8750 0.8758 0.8766
3449.000000 0.8774 0.8783 0.8791 0.8799 0.8807
3454.000000 0.8815 0.8824 0.8832 0.8840 0.8848
3459.000000 0.8856 0.8864 0.8872 0.8881 0.8891
3464.000000 0.8904 0.8917 0.8931 0.8944 0.8957
3469.000000 0.8971 0.8984 0.8997 0.9011 0.9029
3474.000000 0.9050 0.9070 0.9090 0.9110 0.9130
3479.000000 0.9149 0.9168 0.9187 0.9204 0.9208
3484.000000 0.9212 0.9216 0.9220 0.9223 0.9224
3489.000000 0.9224 0.9225 0.9226 0.9227 0.9228
3494.000000 0.9228 0.9229 0.9230 0.9231 0.9232
3499.000000 0.9233 0.9233 0.9234 0.9235 0.9235
3504.000000 0.9236 0.9237 0.9237 0.9238 0.9239
3509.000000 0.9239 0.9240 0.9240 0.9241 0.9242
3514.000000 0.9243 0.9244 0.9244 0.9245 0.9246
3519.000000 0.9246 0.9247 0.9247 0.9248 0.9249
3524.000000 0.9249 0.9250 0.9250 0.9251 0.9252
3529.000000 0.9252 0.9253 0.9253 0.9256 0.9259
3534.000000 0.9262 0.9265 0.9268 0.9271 0.9274
3539.000000 0.9277 0.9279 0.9282 0.9285 0.9288
3544.000000 0.9291 0.9293 0.9296 0.9299 0.9302
3549.000000 0.9305 0.9307 0.9310 0.9314 0.9319
3554.000000 0.9324 0.9328 0.9333 0.9339 0.9346
3559.000000 0.9353 0.9360 0.9367 0.9374 0.9381
3564.000000 0.9387 0.9394 0.9401 0.9409 0.9417
3569.000000 0.9424 0.9432 0.9440 0.9447 0.9453
3574.000000 0.9459 0.9465 0.9471 0.9474 0.9474
3579.000000 0.9474 0.9474 0.9474 0.9473 0.9473
3584.000000 0.9473 0.9472 0.9472 0.9491 0.9471
3589.000000 0.9471 0.9471 0.9471 0.9470 0.9470
3594.000000 0.9470 0.9469 0.9469 0.9469 0.9468
3599.000000 0.9468 0.9467 0.9467 0.9467 0.9466
3604.000000 0.9466 0.9465 0.9465 0.9465 0.9464
3609.000000 0.9463 0.9463 0.9462 0.9461 0.9460
3614.000000 0.9460 0.9459 0.9458 0.9457 0.9456
3619.000000 0.9456 0.9455 0.9454 0.9453 0.9453
3624.000000 0.9452 0.9451 0.9450 0.9450 0.9449
3629.000000 0.9448 0.9447 0.9447 0.9446 0.9445
3634.000000 0.9444 0.9444 0.9443 0.9442 0.9441
3639.000000 0.9441 0.9440 0.9439 0.9438 0.9437
3644.000000 0.9437 0.9436 0.9435 0.9434 0.9433
3649.000000 0.9432 0.9431 0.9430 0.9430 0.9429
3654.000000 0.9428 0.9427 0.9427 0.9426 0.9425
3659.000000 0.9424 0.9424 0.9423 0.9422 0.9421
3664.000000 0.9419 0.9418 0.9417 0.9416 0.9415
3669.000000 0.9414 0.9413 0.9413 0.9411 0.9410
3674.000000 0.9409 0.9408 0.9407 0.9406 0.9405
3679.000000 0.9404 0.9403 0.9401 0.9400 0.9399
3684.000000 0.9398 0.9397 0.9396 0.9395 0.9394
3689.000000 0.9393 0.9392 0.9390 0.9389 0.9388
3694.000000 0.9387 0.9386 0.9386 0.9385 0.9384
3699.000000 0.9383 0.9382 0.9381 0.9381 0.9380
3704.000000 0.9379 0.9379 0.9379 0.9378 0.9378
3709.000000 0.9378 0.9377 0.9377 0.9376 0.9376
3714.000000 0.9376 0.9375 0.9375 0.9375 0.9374
3719.000000 0.9374 0.9374 0.9373 0.9373 0.9373
3724.000000 0.9372 0.9372 0.9371 0.9371 0.9371
3729.000000 0.9370 0.9370 0.9370 0.9369 0.9369
3734.000000 0.9368 0.9368 0.9367 0.9366 0.9366
3739.000000 0.9365 0.9365 0.9364 0.9364 0.9363
3744.000000 0.9363 0.9363 0.9362 0.9362 0.9362
3749.000000 0.9361 0.9361 0.9360 0.9359 0.9359
3754.000000 0.9358 0.9358 0.9358 0.9357 0.9357
3759.000000 0.9357 0.9356 0.9356 0.9355 0.9355
3764.000000 0.9354 0.9354 0.9353 0.9352 0.9352
3769.000000 0.9351 0.9351 0.9350 0.9350 0.9350
3774.000000 0.9349 0.9349 0.9349 0.9348 0.9348
3779.000000 0.9347 0.9347 0.9346 0.9346 0.9345
3784.000000 0.9345 0.9345 0.9344 0.9344 0.9343
3789.000000 0.9343 0.9342 0.9342 0.9341 0.9341
3794.000000 0.9340 0.9340 0.9340 0.9340 0.9340
3799.000000 0.9340 0.9340 0.9340 0.9340 0.9340
3804.000000 0.9340 0.9340 0.9339 0.9339 0.9339
3809.000000 0.9339 0.9339 0.9339 0.9339 0.9339
3814.000000 0.9339 0.9339 0.9339 0.9339 0.9339
3819.000000 0.9339 0.9339 0.9339 0.9339 0.9339
3824.000000 0.9339 0.9339 0.9339 0.9339 0.9339
3829.000000 0.9339 0.9339 0.9339 0.9339 0.9339
3834.000000 0.9339 0.9339 0.9339 0.9339 0.9339
3839.000000 0.9339 0.9339 0.9339 0.9339 0.9339
3844.000000 0.9339 0.9339 0.9339 0.9338 0.9338
3849.000000 0.9338 0.9338 0.9338 0.9338 0.9338
3854.000000 0.9338 0.9338 0.9338 0.9338 0.9338
3859.000000 0.9338 0.9338 0.9338 0.9338 0.9338
3864.000000 0.9338 0.9338 0.9338 0.9338 0.9338
3869.000000 0.9338 0.9338 0.9338 0.9338 0.9338
3874.000000 0.9338 0.9338 0.9337 0.9337 0.9337
3879.000000 0.9337 0.9337 0.9337 0.9337 0.9337
3884.000000 0.9337 0.9337 0.9337 0.9337 0.9337
3889.000000 0.9337 0.9337 0.9337 0.9337 0.9337
3894.000000 0.9337 0.9337 0.9337 0.9337 0.9337
3899.000000 0.9337 0.9337 0.9336 0.9336 0.9336
3904.000000 0.9336 0.9336 0.9336 0.9336 0.9336
3909.000000 0.9336 0.9336 0.9336 0.9336 0.9336
3914.000000 0.9336 0.9336 0.9336 0.9336 0.9336
3919.000000 0.9335 0.9335 0.9335 0.9335 0.9335
3924.000000 0.9335 0.9334 0.9334 0.9334 0.9333
3929.000000 0.9333 0.9333 0.9332 0.9332 0.9331
3934.000000 0.9330 0.9330 0.9329 0.9329 0.9328
3939.000000 0.9327 0.9326 0.9325 0.9324 0.9324
3944.000000 0.9323 0.9322 0.9321 0.9320 0.9320
3949.000000 0.9319 0.9318 0.9318 0.9317 0.9316
3954.000000 0.9316 0.9315 0.9314 0.9313 0.9313
3959.000000 0.9312 0.9311 0.9310 0.9309 0.9309
3964.000000 0.9308 0.9308 0.9307 0.9306 0.9306
3969.000000 0.9305 0.9303 0.9302 0.9301 0.9299
3974.000000 0.9298 0.9297 0.9295 0.9294 0.9292
3979.000000 0.9290 0.9289 0.9287 0.9286 0.9284
3984.000000 0.9283 0.9281 0.9279 0.9278 0.9276
3989.000000 0.9275 0.9273 0.9272 0.9270 0.9268
3994.000000 0.9267 0.9265 0.9263 0.9262 0.9260
3999.000000 0.9258 0.9257
##END=
