##TITLE=1,3-DI-(1,2-DICARBETHOXYETHYL) UREA
##JCAMP-DX=4.24
##DATA TYPE=INFRARED SPECTRUM
##CLASS=COBLENTZ
##ORIGIN=EASTMAN KODAK COMPANY, RESEARCH LABORATORIES, ROCHESTER, N.Y.
##OWNER=COBLENTZ SOCIETY
Collection (C) 2018 copyright by the U.S. Secretary of Commerce
on behalf of the United States of America. All rights reserved.
##DATE=Not specified, most likely prior to 1970
##NAMES=diethyl 2-[(([3-ethoxy-1-(ethoxycarbonyl)-3-oxopropyl]amino)carbonyl)amino]succinate
##CAS REGISTRY NO=116435-07-5
##MOLFORM=C17 H28 N2 O9
$$ J. ORG. CHEM. 26, 2507(1961)
##MP=80 C
##SOURCE REFERENCE=COBLENTZ NO. 2163
##$NIST SOURCE=COBLENTZ
##$NIST IMAGE=cob2163
##SPECTROMETER/DATA SYSTEM=Not specified, most likely a prism, grating, or hybrid spectrometer.
##STATE=SOLID (KBr PRESSING)
##SAMPLING PROCEDURE=TRANSMISSION
##RESOLUTION=4
##DATA PROCESSING=DIGITIZED BY NIST FROM HARD COPY
##XUNITS=MICROMETERS
##YUNITS=TRANSMITTANCE
##XFACTOR=1.000000
##YFACTOR=1
##DELTAX=000.007027
##FIRSTX=2.164
##LASTX=15.9932
##FIRSTY=0.737
##MAXX=15.9932
##MINX=2.164
##MAXY=0.899
##MINY=0.057
##NPOINTS=1969
##XYDATA=(X++(Y..Y))
2.164000 0.7370 0.7370 0.7370 0.7370 0.7370
2.199153 0.7370 0.7390 0.7390 0.7390 0.7410
2.234000 0.7410 0.7410 0.7410 0.7410 0.7430
2.269153 0.7430 0.7440 0.7440 0.7440 0.7460
2.304000 0.7460 0.7460 0.7480 0.7480 0.7480
2.339153 0.7480 0.7500 0.7500 0.7510 0.7510
2.375000 0.7510 0.7530 0.7530 0.7530 0.7530
2.410153 0.7550 0.7550 0.7550 0.7550 0.7560
2.445000 0.7560 0.7580 0.7580 0.7600 0.7600
2.480153 0.7620 0.7620 0.7630 0.7630 0.7650
2.515000 0.7650 0.7650 0.7650 0.7670 0.7670
2.550153 0.7670 0.7670 0.7670 0.7670 0.7670
2.585000 0.7690 0.7690 0.7690 0.7690 0.7690
2.620153 0.7690 0.7690 0.7700 0.7700 0.7700
2.656000 0.7720 0.7720 0.7720 0.7740 0.7740
2.691153 0.7760 0.7760 0.7760 0.7760 0.7740
2.726000 0.7720 0.7650 0.7620 0.7560 0.7510
2.761153 0.7480 0.7430 0.7370 0.7360 0.7250
2.796000 0.7170 0.6990 0.6870 0.6780 0.6770
2.831153 0.6730 0.6710 0.6680 0.6630 0.6560
2.866000 0.6510 0.6440 0.6400 0.6330 0.6300
2.901153 0.6250 0.6230 0.6180 0.6070 0.5980
2.937000 0.5720 0.5500 0.5220 0.5100 0.4940
2.972153 0.4750 0.4560 0.4370 0.4180 0.4140
3.007000 0.4180 0.4270 0.4460 0.5000 0.5430
3.042153 0.5590 0.5980 0.6090 0.6300 0.6560
3.077000 0.6680 0.6800 0.6870 0.6970 0.7060
3.112153 0.7110 0.7130 0.7170 0.7200 0.7290
3.148000 0.7360 0.7410 0.7430 0.7460 0.7480
3.183153 0.7500 0.7500 0.7530 0.7550 0.7560
3.218000 0.7560 0.7600 0.7600 0.7600 0.7620
3.253153 0.7630 0.7650 0.7650 0.7630 0.7630
3.288000 0.7620 0.7600 0.7560 0.7480 0.7290
3.323153 0.6570 0.6280 0.5860 0.5640 0.5380
3.358000 0.5360 0.5390 0.6110 0.6180 0.6300
3.393153 0.6400 0.6420 0.6420 0.6450 0.6640
3.429000 0.6710 0.6900 0.7010 0.7180 0.7300
3.464153 0.7480 0.7510 0.7530 0.7550 0.7600
3.499000 0.7700 0.7720 0.7810 0.7810 0.7820
3.534153 0.7840 0.7880 0.7880 0.7890 0.7890
3.569000 0.7910 0.7910 0.7910 0.7910 0.7930
3.604153 0.7930 0.7950 0.7950 0.7960 0.7980
3.639000 0.7980 0.7980 0.8000 0.8000 0.8000
3.674153 0.8020 0.8020 0.8020 0.8020 0.8020
3.710000 0.8020 0.8020 0.8020 0.8020 0.8030
3.745153 0.8030 0.8070 0.8070 0.8090 0.8090
3.780000 0.8100 0.8100 0.8120 0.8120 0.8140
3.815153 0.8140 0.8140 0.8170 0.8170 0.8170
3.850000 0.8170 0.8150 0.8140 0.8120 0.8120
3.885153 0.8120 0.8120 0.8120 0.8120 0.8120
3.921000 0.8120 0.8120 0.8120 0.8150 0.8170
3.956153 0.8190 0.8190 0.8190 0.8190 0.8190
3.991000 0.8190 0.8190 0.8190 0.8190 0.8190
4.026153 0.8190 0.8190 0.8190 0.8190 0.8190
4.061000 0.8190 0.8190 0.8190 0.8210 0.8210
4.096153 0.8210 0.8210 0.8210 0.8210 0.8210
4.131000 0.8210 0.8210 0.8210 0.8210 0.8210
4.166153 0.8210 0.8210 0.8210 0.8210 0.8210
4.202000 0.8210 0.8210 0.8210 0.8210 0.8220
4.237153 0.8260 0.8280 0.8290 0.8290 0.8290
4.272000 0.8310 0.8310 0.8310 0.8290 0.8290
4.307153 0.8290 0.8290 0.8290 0.8290 0.8290
4.342000 0.8290 0.8290 0.8290 0.8310 0.8310
4.377153 0.8310 0.8310 0.8310 0.8310 0.8310
4.412000 0.8310 0.8310 0.8310 0.8310 0.8310
4.447153 0.8310 0.8310 0.8310 0.8310 0.8310
4.483000 0.8310 0.8310 0.8310 0.8310 0.8310
4.518153 0.8310 0.8310 0.8290 0.8290 0.8280
4.553000 0.8280 0.8280 0.8280 0.8280 0.8290
4.588153 0.8290 0.8290 0.8290 0.8290 0.8290
4.623000 0.8290 0.8290 0.8290 0.8290 0.8310
4.658153 0.8330 0.8330 0.8330 0.8330 0.8330
4.694000 0.8330 0.8330 0.8330 0.8380 0.8420
4.729153 0.8430 0.8430 0.8430 0.8430 0.8400
4.764000 0.8400 0.8360 0.8360 0.8350 0.8330
4.799153 0.8330 0.8310 0.8310 0.8310 0.8290
4.834000 0.8290 0.8290 0.8290 0.8290 0.8290
4.869153 0.8290 0.8290 0.8290 0.8310 0.8310
4.904000 0.8310 0.8310 0.8310 0.8310 0.8310
4.939153 0.8310 0.8330 0.8330 0.8330 0.8330
4.975000 0.8330 0.8350 0.8350 0.8350 0.8330
5.010153 0.8310 0.8310 0.8310 0.8310 0.8330
5.045000 0.8330 0.8330 0.8330 0.8330 0.8330
5.080153 0.8350 0.8350 0.8350 0.8350 0.8350
5.115000 0.8350 0.8350 0.8350 0.8350 0.8350
5.150153 0.8350 0.8350 0.8350 0.8350 0.8350
5.185000 0.8350 0.8350 0.8330 0.8330 0.8310
5.220153 0.8290 0.8290 0.8290 0.8290 0.8290
5.256000 0.8310 0.8310 0.8310 0.8310 0.8330
5.291153 0.8330 0.8330 0.8330 0.8330 0.8330
5.326000 0.8330 0.8330 0.8330 0.8330 0.8330
5.361153 0.8330 0.8330 0.8330 0.8330 0.8330
5.396000 0.8330 0.8310 0.8290 0.8290 0.8290
5.431153 0.8290 0.8280 0.8280 0.8280 0.8260
5.466000 0.8240 0.8220 0.8220 0.8220 0.8210
5.501153 0.8190 0.8190 0.8170 0.8150 0.8140
5.537000 0.8120 0.8070 0.8020 0.8000 0.8000
5.572153 0.7960 0.7930 0.7770 0.7690 0.7620
5.607000 0.7500 0.7460 0.7410 0.7340 0.7290
5.642153 0.7110 0.6700 0.6120 0.5380 0.5060
5.677000 0.3310 0.2690 0.2080 0.1310 0.1160
5.712153 0.1120 0.1110 0.1110 0.1090 0.1090
5.748000 0.1120 0.1210 0.1380 0.1510 0.1560
5.783153 0.1570 0.1610 0.2250 0.2740 0.3310
5.818000 0.3590 0.4020 0.4280 0.4700 0.5310
5.853153 0.6490 0.6990 0.7030 0.7100 0.7110
5.888000 0.7130 0.7220 0.7230 0.7250 0.7290
5.923153 0.7290 0.7290 0.7290 0.7290 0.7290
5.958000 0.7270 0.7230 0.7180 0.7130 0.7100
5.993153 0.7080 0.7060 0.7010 0.7010 0.6920
6.029000 0.6820 0.6680 0.6520 0.6490 0.6330
6.064153 0.6190 0.6000 0.5290 0.4110 0.3520
6.099000 0.2820 0.2620 0.1990 0.0600 0.0570
6.134153 0.0600 0.1020 0.1260 0.1660 0.2030
6.169000 0.2580 0.4040 0.5380 0.5690 0.6280
6.204153 0.6370 0.6450 0.6520 0.6780 0.6990
6.239000 0.7110 0.7180 0.7180 0.7200 0.7200
6.274153 0.7080 0.7010 0.6920 0.6800 0.6590
6.310000 0.6380 0.6230 0.6090 0.5780 0.5190
6.345153 0.5030 0.4200 0.3900 0.3750 0.3290
6.380000 0.2880 0.2510 0.2510 0.2500 0.2500
6.415153 0.2510 0.2530 0.2560 0.2600 0.2630
6.450000 0.2760 0.3020 0.3210 0.3310 0.3480
6.485153 0.3590 0.4060 0.4720 0.5310 0.5720
6.521000 0.6090 0.6300 0.6570 0.6640 0.6730
6.556153 0.6820 0.6840 0.6840 0.6990 0.7040
6.591000 0.7130 0.7200 0.7230 0.7230 0.7230
6.626153 0.7250 0.7250 0.7320 0.7430 0.7510
6.661000 0.7550 0.7550 0.7600 0.7600 0.7600
6.696153 0.7600 0.7550 0.7550 0.7550 0.7530
6.731000 0.7510 0.7390 0.7300 0.7030 0.6990
6.766153 0.6940 0.6900 0.6870 0.6800 0.6750
6.802000 0.6680 0.6640 0.6590 0.6560 0.6560
6.837153 0.6560 0.6590 0.6700 0.6730 0.6730
6.872000 0.6710 0.6700 0.6610 0.6590 0.6540
6.907153 0.6440 0.6440 0.6520 0.6590 0.6730
6.942000 0.6940 0.7010 0.7030 0.7100 0.7200
6.977153 0.7370 0.7370 0.7300 0.7080 0.6970
7.012000 0.6890 0.6680 0.6540 0.6250 0.6020
7.047153 0.5920 0.5810 0.5650 0.5590 0.5530
7.083000 0.5520 0.5550 0.5950 0.6230 0.6380
7.118153 0.6400 0.6400 0.6380 0.6280 0.6110
7.153000 0.6000 0.5900 0.5900 0.5850 0.5780
7.188153 0.5720 0.5710 0.5690 0.5670 0.5600
7.223000 0.5340 0.4840 0.4420 0.4390 0.4090
7.258153 0.3760 0.3450 0.3430 0.3470 0.3620
7.294000 0.3940 0.4400 0.4530 0.4700 0.5030
7.329153 0.5340 0.5600 0.5860 0.6160 0.6180
7.364000 0.6180 0.6180 0.5430 0.5380 0.5290
7.399153 0.5200 0.5170 0.5170 0.5170 0.5190
7.434000 0.5240 0.5320 0.5500 0.5600 0.5900
7.469153 0.6120 0.6400 0.6640 0.6780 0.6850
7.504000 0.6850 0.6770 0.6730 0.6700 0.6680
7.539153 0.6660 0.6680 0.6710 0.6750 0.6820
7.575000 0.6870 0.6870 0.6850 0.6730 0.6630
7.610153 0.6520 0.6300 0.6090 0.5690 0.5120
7.645000 0.4910 0.4610 0.4400 0.4090 0.3880
7.680153 0.3710 0.3680 0.3660 0.3640 0.3660
7.715000 0.3680 0.3710 0.3830 0.4020 0.4210
7.750153 0.4400 0.4580 0.4910 0.5170 0.5290
7.785000 0.5620 0.5790 0.5900 0.6050 0.6090
7.820153 0.6230 0.6330 0.6440 0.6520 0.6630
7.856000 0.6710 0.6750 0.6820 0.6850 0.6940
7.891153 0.7010 0.7030 0.7040 0.7060 0.7060
7.926000 0.7060 0.7060 0.7060 0.7060 0.7060
7.961153 0.7040 0.7010 0.6940 0.6890 0.6840
7.996000 0.6750 0.6700 0.6640 0.6610 0.6540
8.031153 0.6520 0.6450 0.6370 0.6230 0.6120
8.066000 0.6020 0.5930 0.5830 0.5710 0.5520
8.101153 0.5320 0.5220 0.5100 0.4890 0.4730
8.137000 0.4600 0.4490 0.4230 0.4180 0.3900
8.172153 0.3520 0.3090 0.2770 0.2440 0.2250
8.207000 0.2060 0.1900 0.1800 0.1710 0.1640
8.242153 0.1540 0.1510 0.1440 0.1400 0.1310
8.277000 0.1260 0.1160 0.1120 0.1090 0.1070
8.312153 0.1050 0.1050 0.1050 0.1050 0.1070
8.348000 0.1070 0.1090 0.1110 0.1140 0.1230
8.383153 0.1330 0.1440 0.1560 0.1590 0.1610
8.418000 0.1700 0.1730 0.1840 0.1920 0.2010
8.453153 0.2030 0.2100 0.2230 0.2390 0.2530
8.488000 0.2720 0.2930 0.3030 0.3190 0.3330
8.523153 0.3500 0.3610 0.3710 0.3750 0.3830
8.558000 0.3870 0.3950 0.3970 0.4200 0.4320
8.593153 0.4510 0.4700 0.4720 0.4840 0.5010
8.629000 0.5050 0.5190 0.5320 0.5500 0.5600
8.664153 0.5710 0.5850 0.6020 0.6020 0.6050
8.699000 0.6160 0.6230 0.6280 0.6300 0.6310
8.734153 0.6250 0.6190 0.6040 0.6020 0.5950
8.769000 0.5900 0.5710 0.5640 0.5530 0.5520
8.804153 0.5480 0.5480 0.5520 0.5520 0.5590
8.839000 0.5720 0.5900 0.6050 0.6190 0.6310
8.874153 0.6520 0.6700 0.6840 0.6920 0.6960
8.910000 0.7030 0.7080 0.7130 0.7130 0.7150
8.945153 0.7170 0.7180 0.7180 0.7200 0.7200
8.980000 0.7220 0.7230 0.7270 0.7270 0.7290
9.015153 0.7300 0.7300 0.7300 0.7300 0.7300
9.050000 0.7250 0.7110 0.7010 0.6870 0.6840
9.085153 0.6840 0.6820 0.6820 0.6850 0.6900
9.121000 0.6940 0.7100 0.7200 0.7320 0.7440
9.156153 0.7580 0.7650 0.7700 0.7720 0.7740
9.191000 0.7760 0.7770 0.7790 0.7810 0.7860
9.226153 0.7910 0.7930 0.7930 0.7880 0.7860
9.261000 0.7860 0.7860 0.7860 0.7860 0.7860
9.296153 0.7910 0.7880 0.7840 0.7770 0.7740
9.331000 0.7700 0.7700 0.7720 0.7720 0.7740
9.366153 0.7720 0.7670 0.7620 0.7550 0.7440
9.402000 0.7360 0.7340 0.7230 0.7110 0.6940
9.437153 0.6710 0.6440 0.6120 0.5850 0.5690
9.472000 0.5380 0.5050 0.4700 0.4460 0.4300
9.507153 0.4090 0.4010 0.3830 0.3800 0.3750
9.542000 0.3750 0.3800 0.3830 0.4020 0.4280
9.577153 0.4490 0.4680 0.5150 0.5320 0.5480
9.612000 0.5500 0.5570 0.5640 0.5710 0.5710
9.647153 0.5590 0.5530 0.5480 0.5380 0.5340
9.683000 0.5290 0.5240 0.5220 0.5220 0.5220
9.718153 0.5240 0.5310 0.5410 0.5590 0.5790
9.753000 0.6000 0.6040 0.6180 0.6300 0.6440
9.788153 0.6660 0.6700 0.6770 0.6800 0.6900
9.823000 0.7030 0.7110 0.7200 0.7230 0.7250
9.858153 0.7250 0.7290 0.7300 0.7360 0.7440
9.894000 0.7530 0.7650 0.7740 0.7760 0.7770
9.929153 0.7810 0.7810 0.7820 0.7840 0.7890
9.964000 0.8030 0.8120 0.8280 0.8310 0.8310
9.999153 0.8290 0.8240 0.8240 0.8240 0.8280
10.034000 0.8310 0.8380 0.8430 0.8450 0.8450
10.069153 0.8450 0.8430 0.8420 0.8420 0.8420
10.104000 0.8470 0.8500 0.8540 0.8540 0.8550
10.139153 0.8550 0.8520 0.8450 0.8430 0.8420
10.175000 0.8420 0.8450 0.8450 0.8470 0.8540
10.210153 0.8540 0.8540 0.8520 0.8350 0.8240
10.245000 0.8210 0.8150 0.8150 0.8210 0.8210
10.280153 0.8260 0.8290 0.8310 0.8330 0.8330
10.315000 0.8330 0.8330 0.8330 0.8330 0.8350
10.350153 0.8380 0.8420 0.8430 0.8430 0.8430
10.385000 0.8450 0.8450 0.8450 0.8450 0.8400
10.420153 0.8400 0.8450 0.8520 0.8590 0.8660
10.456000 0.8660 0.8690 0.8710 0.8710 0.8680
10.491153 0.8660 0.8640 0.8640 0.8640 0.8640
10.526000 0.8660 0.8710 0.8760 0.8800 0.8800
10.561153 0.8780 0.8780 0.8760 0.8750 0.8750
10.596000 0.8730 0.8750 0.8760 0.8810 0.8830
10.631153 0.8850 0.8830 0.8830 0.8780 0.8750
10.666000 0.8730 0.8730 0.8710 0.8730 0.8750
10.701153 0.8800 0.8850 0.8850 0.8850 0.8810
10.737000 0.8780 0.8750 0.8710 0.8690 0.8710
10.772153 0.8710 0.8750 0.8760 0.8810 0.8810
10.807000 0.8830 0.8830 0.8780 0.8760 0.8760
10.842153 0.8760 0.8760 0.8780 0.8780 0.8800
10.877000 0.8780 0.8750 0.8640 0.8550 0.8520
10.912153 0.8500 0.8500 0.8480 0.8480 0.8470
10.948000 0.8450 0.8420 0.8380 0.8350 0.8330
10.983153 0.8310 0.8290 0.8290 0.8290 0.8310
11.018000 0.8330 0.8400 0.8480 0.8520 0.8520
11.053153 0.8520 0.8520 0.8520 0.8500 0.8500
11.088000 0.8520 0.8520 0.8520 0.8550 0.8550
11.123153 0.8550 0.8550 0.8520 0.8450 0.8420
11.158000 0.8360 0.8350 0.8350 0.8360 0.8360
11.193153 0.8380 0.8380 0.8400 0.8430 0.8450
11.229000 0.8450 0.8450 0.8430 0.8420 0.8380
11.264153 0.8380 0.8380 0.8360 0.8360 0.8400
11.299000 0.8430 0.8450 0.8450 0.8450 0.8330
11.334153 0.8260 0.8220 0.8220 0.8220 0.8210
11.369000 0.8210 0.8210 0.8220 0.8220 0.8220
11.404153 0.8220 0.8220 0.8220 0.8220 0.8170
11.439000 0.8150 0.8090 0.8070 0.8050 0.8030
11.474153 0.8030 0.8030 0.7980 0.7930 0.7860
11.510000 0.7840 0.7820 0.7820 0.7820 0.7810
11.545153 0.7790 0.7790 0.7790 0.7790 0.7790
11.580000 0.7790 0.7810 0.7820 0.7840 0.7880
11.615153 0.7930 0.7960 0.8030 0.8030 0.8100
11.650000 0.8170 0.8260 0.8350 0.8380 0.8470
11.685153 0.8550 0.8570 0.8620 0.8640 0.8640
11.721000 0.8640 0.8640 0.8640 0.8640 0.8640
11.756153 0.8660 0.8680 0.8680 0.8710 0.8730
11.791000 0.8730 0.8730 0.8750 0.8750 0.8760
11.826153 0.8760 0.8750 0.8750 0.8750 0.8730
11.861000 0.8710 0.8660 0.8620 0.8570 0.8550
11.896153 0.8540 0.8540 0.8520 0.8520 0.8520
11.931000 0.8520 0.8520 0.8520 0.8520 0.8520
11.966153 0.8520 0.8520 0.8520 0.8540 0.8550
12.002000 0.8550 0.8570 0.8590 0.8620 0.8640
12.037153 0.8640 0.8640 0.8640 0.8620 0.8620
12.072000 0.8610 0.8570 0.8570 0.8570 0.8550
12.107153 0.8550 0.8540 0.8540 0.8540 0.8520
12.142000 0.8520 0.8500 0.8500 0.8500 0.8500
12.177153 0.8500 0.8500 0.8520 0.8520 0.8540
12.212000 0.8550 0.8550 0.8570 0.8620 0.8620
12.247153 0.8620 0.8620 0.8620 0.8620 0.8610
12.283000 0.8590 0.8570 0.8570 0.8570 0.8570
12.318153 0.8570 0.8610 0.8640 0.8660 0.8680
12.353000 0.8680 0.8680 0.8660 0.8620 0.8540
12.388153 0.8520 0.8520 0.8500 0.8500 0.8500
12.423000 0.8500 0.8500 0.8500 0.8520 0.8520
12.458153 0.8520 0.8520 0.8500 0.8480 0.8470
12.494000 0.8450 0.8450 0.8450 0.8450 0.8470
12.529153 0.8470 0.8480 0.8540 0.8550 0.8550
12.564000 0.8570 0.8620 0.8660 0.8660 0.8660
12.599153 0.8660 0.8640 0.8640 0.8640 0.8640
12.634000 0.8640 0.8640 0.8660 0.8680 0.8690
12.669153 0.8730 0.8750 0.8750 0.8750 0.8730
12.704000 0.8690 0.8660 0.8570 0.8540 0.8540
12.739153 0.8520 0.8540 0.8540 0.8550 0.8550
12.775000 0.8590 0.8590 0.8620 0.8620 0.8610
12.810153 0.8570 0.8540 0.8430 0.8360 0.8310
12.845000 0.8280 0.8260 0.8260 0.8260 0.8260
12.880153 0.8280 0.8350 0.8420 0.8470 0.8470
12.915000 0.8470 0.8470 0.8480 0.8520 0.8540
12.950153 0.8540 0.8550 0.8550 0.8550 0.8570
12.985000 0.8660 0.8690 0.8750 0.8760 0.8780
13.020153 0.8850 0.8850 0.8850 0.8850 0.8850
13.056000 0.8850 0.8830 0.8780 0.8750 0.8710
13.091153 0.8710 0.8710 0.8710 0.8750 0.8760
13.126000 0.8800 0.8830 0.8870 0.8870 0.8870
13.161153 0.8870 0.8870 0.8850 0.8760 0.8710
13.196000 0.8680 0.8680 0.8680 0.8690 0.8690
13.231153 0.8710 0.8730 0.8780 0.8810 0.8870
13.266000 0.8940 0.8940 0.8950 0.8940 0.8940
13.301153 0.8830 0.8780 0.8730 0.8690 0.8680
13.337000 0.8690 0.8710 0.8730 0.8750 0.8780
13.372153 0.8800 0.8830 0.8880 0.8940 0.8940
13.407000 0.8950 0.8950 0.8950 0.8940 0.8880
13.442153 0.8850 0.8810 0.8800 0.8780 0.8800
13.477000 0.8810 0.8830 0.8850 0.8850 0.8870
13.512153 0.8920 0.8950 0.8970 0.8970 0.8990
13.548000 0.8990 0.8990 0.8990 0.8970 0.8870
13.583153 0.8800 0.8760 0.8750 0.8730 0.8750
13.618000 0.8760 0.8780 0.8830 0.8850 0.8880
13.653153 0.8880 0.8950 0.8970 0.8970 0.8970
13.688000 0.8940 0.8870 0.8850 0.8810 0.8780
13.723153 0.8760 0.8760 0.8760 0.8760 0.8760
13.758000 0.8760 0.8760 0.8780 0.8780 0.8810
13.793153 0.8880 0.8950 0.8950 0.8950 0.8950
13.829000 0.8940 0.8880 0.8850 0.8800 0.8760
13.864153 0.8750 0.8710 0.8690 0.8680 0.8680
13.899000 0.8680 0.8680 0.8680 0.8680 0.8680
13.934153 0.8680 0.8690 0.8750 0.8760 0.8780
13.969000 0.8780 0.8780 0.8690 0.8660 0.8550
14.004153 0.8540 0.8470 0.8470 0.8450 0.8450
14.039000 0.8450 0.8450 0.8430 0.8450 0.8450
14.074153 0.8470 0.8500 0.8540 0.8550 0.8550
14.110000 0.8550 0.8550 0.8520 0.8480 0.8470
14.145153 0.8450 0.8380 0.8350 0.8330 0.8330
14.180000 0.8280 0.8190 0.8150 0.8150 0.8150
14.215153 0.8140 0.8140 0.8140 0.8120 0.8120
14.250000 0.8120 0.8100 0.8100 0.8100 0.8100
14.285153 0.8090 0.8070 0.8070 0.8050 0.8050
14.321000 0.8020 0.7980 0.7960 0.7930 0.7890
14.356153 0.7880 0.7880 0.7880 0.7880 0.7880
14.391000 0.7930 0.7960 0.7980 0.8020 0.8030
14.426153 0.8050 0.8090 0.8140 0.8150 0.8150
14.461000 0.8150 0.8140 0.8100 0.8050 0.8050
14.496153 0.8050 0.8030 0.8030 0.8030 0.8030
14.531000 0.8030 0.8030 0.8030 0.8030 0.8030
14.566153 0.8030 0.8030 0.8030 0.8030 0.8050
14.602000 0.8050 0.8050 0.8050 0.8050 0.8050
14.637153 0.8050 0.8050 0.8050 0.8030 0.7980
14.672000 0.7950 0.7930 0.7910 0.7910 0.7910
14.707153 0.7910 0.7910 0.7910 0.7930 0.7930
14.742000 0.7960 0.8030 0.8030 0.8030 0.8030
14.777153 0.8020 0.7980 0.7960 0.7930 0.7890
14.812000 0.7860 0.7840 0.7840 0.7840 0.7820
14.847153 0.7810 0.7810 0.7790 0.7770 0.7770
14.883000 0.7770 0.7770 0.7760 0.7760 0.7740
14.918153 0.7690 0.7670 0.7650 0.7650 0.7630
14.953000 0.7630 0.7630 0.7630 0.7630 0.7630
14.988153 0.7650 0.7670 0.7670 0.7670 0.7670
15.023000 0.7670 0.7670 0.7670 0.7670 0.7670
15.058153 0.7670 0.7670 0.7670 0.7670 0.7650
15.094000 0.7630 0.7580 0.7550 0.7510 0.7480
15.129153 0.7460 0.7460 0.7460 0.7440 0.7440
15.164000 0.7440 0.7430 0.7410 0.7390 0.7370
15.199153 0.7360 0.7340 0.7340 0.7340 0.7340
15.234000 0.7340 0.7340 0.7340 0.7340 0.7320
15.269153 0.7300 0.7300 0.7300 0.7300 0.7290
15.304000 0.7270 0.7270 0.7270 0.7250 0.7250
15.339153 0.7220 0.7200 0.7180 0.7180 0.7200
15.375000 0.7220 0.7230 0.7230 0.7230 0.7180
15.410153 0.7180 0.7170 0.7170 0.7150 0.7130
15.445000 0.7130 0.7130 0.7130 0.7130 0.7130
15.480153 0.7110 0.7110 0.7100 0.7100 0.7080
15.515000 0.7080 0.7080 0.7080 0.7080 0.7080
15.550153 0.7080 0.7080 0.7080 0.7080 0.7080
15.585000 0.7080 0.7080 0.7080 0.7080 0.7080
15.620153 0.7080 0.7060 0.7060 0.7060 0.7060
15.656000 0.7060 0.7040 0.7040 0.7030 0.6990
15.691153 0.6940 0.6890 0.6870 0.6850 0.6850
15.726000 0.6850 0.6850 0.6840 0.6840 0.6840
15.761153 0.6840 0.6840 0.6840 0.6840 0.6840
15.796000 0.6840 0.6840 0.6850 0.6850 0.6850
15.831153 0.6850 0.6850 0.6850 0.6850 0.6850
15.866000 0.6850 0.6850 0.6850 0.6850 0.6850
15.901153 0.6840 0.6840 0.6840 0.6840 0.6840
15.937000 0.6840 0.6840 0.6840 0.6840 0.6840
15.972153 0.6850 0.6840 0.6840 0.6840
##END=
