##TITLE=6-(DIMETHYLAMINOMETHYL)-2,2'-THIO-BIS-(4-CHLOROPHENOL)
##JCAMP-DX=4.24
##DATA TYPE=INFRARED SPECTRUM
##CLASS=COBLENTZ
##ORIGIN=DOW CHEMICAL COMPANY
##OWNER=COBLENTZ SOCIETY
Collection (C) 2018 copyright by the U.S. Secretary of Commerce
on behalf of the United States of America. All rights reserved.
##DATE=Not specified, most likely prior to 1970
##CAS REGISTRY NO=116435-08-6
##MOLFORM=C15 H15 Cl2 N O2 S
##SOURCE REFERENCE=COBLENTZ NO. 3949
##$NIST SOURCE=COBLENTZ
##$NIST IMAGE=cob3949
##SPECTROMETER/DATA SYSTEM=Not specified, most likely a prism, grating, or hybrid spectrometer.
##STATE=SOLUTION (10% CCl4 FOR 5000-1300, 10% CS2 FOR 1300-625 CM^-^1)
##PATH LENGTH=0.01 CM, 0.01 CM
##SAMPLING PROCEDURE=TRANSMISSION
##RESOLUTION=4
##DATA PROCESSING=DIGITIZED BY NIST FROM HARD COPY
##XUNITS=MICROMETERS
##YUNITS=TRANSMITTANCE
##XFACTOR=1.000000
##YFACTOR=1
##DELTAX=000.006783
##FIRSTX=2.027
##LASTX=16.0203
##FIRSTY=0.845
##MAXX=16.0203
##MINX=2.027
##MAXY=0.856
##MINY=0.021
##NPOINTS=2064
##XYDATA=(X++(Y..Y))
2.027000 0.8450 0.8450 0.8450 0.8450 0.8450
2.060931 0.8450 0.8450 0.8450 0.8450 0.8450
2.095000 0.8450 0.8450 0.8450 0.8450 0.8450
2.128931 0.8450 0.8450 0.8450 0.8450 0.8450
2.163000 0.8450 0.8450 0.8450 0.8450 0.8450
2.196931 0.8450 0.8450 0.8450 0.8450 0.8450
2.231000 0.8450 0.8450 0.8450 0.8450 0.8460
2.264931 0.8450 0.8450 0.8450 0.8450 0.8450
2.298000 0.8450 0.8460 0.8460 0.8460 0.8460
2.331931 0.8460 0.8460 0.8480 0.8480 0.8480
2.366000 0.8480 0.8500 0.8500 0.8500 0.8510
2.399931 0.8530 0.8550 0.8550 0.8560 0.8560
2.434000 0.8560 0.8560 0.8560 0.8560 0.8550
2.467931 0.8550 0.8530 0.8510 0.8500 0.8500
2.502000 0.8500 0.8480 0.8480 0.8460 0.8450
2.535931 0.8430 0.8430 0.8430 0.8430 0.8450
2.570000 0.8450 0.8460 0.8480 0.8480 0.8500
2.603931 0.8510 0.8510 0.8510 0.8510 0.8530
2.638000 0.8530 0.8550 0.8560 0.8560 0.8560
2.671931 0.8550 0.8550 0.8530 0.8510 0.8480
2.705000 0.8480 0.8460 0.8460 0.8450 0.8430
2.738931 0.8380 0.8360 0.8350 0.8310 0.8260
2.773000 0.8210 0.8180 0.8140 0.8090 0.8060
2.806931 0.8010 0.7960 0.7920 0.7860 0.7810
2.841000 0.7760 0.7690 0.7600 0.7540 0.7420
2.874931 0.7270 0.7080 0.6900 0.6700 0.6490
2.909000 0.6290 0.6110 0.5950 0.5820 0.5740
2.942931 0.5690 0.5670 0.5650 0.5650 0.5650
2.977000 0.5670 0.5670 0.5700 0.5720 0.5750
3.010931 0.5800 0.5890 0.5920 0.5940 0.5970
3.045000 0.6010 0.6040 0.6070 0.6090 0.6110
3.078931 0.6140 0.6160 0.6160 0.6160 0.6160
3.112000 0.6140 0.6120 0.6090 0.6070 0.6060
3.145931 0.6040 0.6020 0.5970 0.5940 0.5890
3.180000 0.5870 0.5840 0.5800 0.5770 0.5740
3.213931 0.5700 0.5670 0.5620 0.5570 0.5550
3.248000 0.5500 0.5470 0.5430 0.5420 0.5400
3.281931 0.5370 0.5350 0.5330 0.5330 0.5350
3.316000 0.5350 0.5330 0.5280 0.5210 0.5110
3.349931 0.4960 0.4880 0.4730 0.4620 0.4610
3.384000 0.4620 0.4640 0.4690 0.4730 0.4760
3.417931 0.4790 0.4790 0.4760 0.4710 0.4680
3.452000 0.4590 0.4520 0.4470 0.4420 0.4370
3.485931 0.4300 0.4240 0.4190 0.4140 0.4120
3.519000 0.4100 0.4120 0.4140 0.4190 0.4220
3.552931 0.4270 0.4290 0.4300 0.4300 0.4300
3.587000 0.4290 0.4290 0.4290 0.4300 0.4460
3.620931 0.4570 0.4680 0.4740 0.4780 0.4810
3.655000 0.4830 0.4840 0.4880 0.4880 0.4890
3.688931 0.4890 0.4910 0.4910 0.4910 0.4910
3.723000 0.4910 0.4930 0.4930 0.4930 0.4940
3.756931 0.4940 0.4980 0.5010 0.5010 0.5030
3.791000 0.5030 0.5030 0.5030 0.5050 0.5050
3.824931 0.5050 0.5060 0.5060 0.5060 0.5060
3.859000 0.5080 0.5080 0.5080 0.5080 0.5100
3.892931 0.5110 0.5110 0.5110 0.5130 0.5130
3.926000 0.5130 0.5150 0.5150 0.5150 0.5150
3.959931 0.5160 0.5160 0.5180 0.5210 0.5260
3.994000 0.5310 0.5350 0.5400 0.5450 0.5480
4.027931 0.5520 0.5550 0.5550 0.5620 0.5650
4.062000 0.5690 0.5700 0.5720 0.5740 0.5740
4.095931 0.5770 0.5790 0.5820 0.5850 0.5890
4.130000 0.5920 0.5940 0.5950 0.5990 0.6010
4.163931 0.6010 0.6020 0.6020 0.6060 0.6070
4.198000 0.6110 0.6140 0.6140 0.6160 0.6170
4.231931 0.6170 0.6170 0.6190 0.6190 0.6210
4.266000 0.6240 0.6270 0.6310 0.6310 0.6320
4.299931 0.6320 0.6360 0.6360 0.6390 0.6390
4.333000 0.6410 0.6430 0.6440 0.6460 0.6480
4.366931 0.6490 0.6530 0.6540 0.6580 0.6590
4.401000 0.6630 0.6660 0.6700 0.6700 0.6750
4.434931 0.6760 0.6780 0.6780 0.6810 0.6830
4.469000 0.6860 0.6880 0.6880 0.6880 0.6900
4.502931 0.6900 0.6900 0.6910 0.6910 0.6910
4.537000 0.6930 0.6930 0.6950 0.6980 0.6980
4.570931 0.7000 0.7000 0.7020 0.7020 0.7030
4.605000 0.7030 0.7050 0.7070 0.7070 0.7080
4.638931 0.7080 0.7100 0.7120 0.7120 0.7130
4.672000 0.7130 0.7130 0.7130 0.7150 0.7150
4.705931 0.7170 0.7170 0.7180 0.7180 0.7180
4.740000 0.7200 0.7200 0.7220 0.7230 0.7230
4.773931 0.7230 0.7270 0.7270 0.7300 0.7320
4.808000 0.7370 0.7370 0.7390 0.7400 0.7400
4.841931 0.7440 0.7450 0.7450 0.7450 0.7470
4.876000 0.7470 0.7470 0.7470 0.7440 0.7440
4.909931 0.7470 0.7490 0.7490 0.7490 0.7500
4.944000 0.7500 0.7490 0.7440 0.7440 0.7490
4.977931 0.7490 0.7500 0.7500 0.7500 0.7490
5.012000 0.7470 0.7420 0.7420 0.7470 0.7490
5.045931 0.7490 0.7500 0.7500 0.7500 0.7500
5.079000 0.7500 0.7500 0.7500 0.7500 0.7520
5.112931 0.7520 0.7520 0.7520 0.7520 0.7500
5.147000 0.7500 0.7490 0.7500 0.7500 0.7500
5.180931 0.7490 0.7490 0.7490 0.7470 0.7470
5.215000 0.7470 0.7470 0.7490 0.7490 0.7490
5.248931 0.7470 0.7450 0.7450 0.7440 0.7420
5.283000 0.7400 0.7370 0.7320 0.7280 0.7230
5.316931 0.7220 0.7200 0.7200 0.7220 0.7220
5.351000 0.7230 0.7230 0.7270 0.7280 0.7300
5.384931 0.7320 0.7350 0.7390 0.7400 0.7400
5.419000 0.7390 0.7390 0.7390 0.7390 0.7390
5.452931 0.7400 0.7400 0.7400 0.7400 0.7400
5.486000 0.7420 0.7420 0.7440 0.7440 0.7450
5.519931 0.7450 0.7450 0.7440 0.7440 0.7420
5.554000 0.7400 0.7400 0.7400 0.7390 0.7390
5.587931 0.7390 0.7390 0.7390 0.7390 0.7350
5.622000 0.7340 0.7320 0.7280 0.7220 0.7170
5.655931 0.7100 0.7070 0.7020 0.7000 0.6980
5.690000 0.6980 0.6960 0.6960 0.6980 0.6980
5.723931 0.7020 0.7050 0.7070 0.7120 0.7150
5.758000 0.7180 0.7200 0.7200 0.7220 0.7250
5.791931 0.7280 0.7300 0.7340 0.7350 0.7390
5.826000 0.7400 0.7400 0.7400 0.7420 0.7420
5.859931 0.7440 0.7450 0.7450 0.7470 0.7470
5.893000 0.7490 0.7490 0.7470 0.7490 0.7490
5.926931 0.7490 0.7500 0.7500 0.7500 0.7500
5.961000 0.7500 0.7500 0.7500 0.7500 0.7500
5.994931 0.7500 0.7500 0.7500 0.7490 0.7490
6.029000 0.7490 0.7490 0.7470 0.7450 0.7440
6.062931 0.7420 0.7420 0.7400 0.7400 0.7390
6.097000 0.7390 0.7390 0.7390 0.7350 0.7320
6.130931 0.7300 0.7250 0.7220 0.7170 0.7100
6.165000 0.7080 0.7020 0.6910 0.6780 0.6610
6.198931 0.6440 0.6220 0.6020 0.5790 0.5550
6.233000 0.5330 0.5100 0.4890 0.4680 0.4490
6.266931 0.4360 0.4240 0.4150 0.4070 0.4000
6.300000 0.3980 0.3950 0.3920 0.3850 0.3820
6.333931 0.3780 0.3750 0.3730 0.3720 0.3720
6.368000 0.3720 0.3730 0.3750 0.3770 0.3780
6.401931 0.3780 0.3780 0.3800 0.3800 0.3800
6.436000 0.3800 0.3800 0.3800 0.3820 0.3880
6.469931 0.3950 0.4050 0.4150 0.4300 0.4460
6.504000 0.4590 0.4710 0.4810 0.4890 0.4940
6.537931 0.5000 0.5050 0.5080 0.5100 0.5110
6.572000 0.5130 0.5130 0.5150 0.5160 0.5160
6.605931 0.5180 0.5180 0.5150 0.5130 0.5100
6.640000 0.5060 0.4960 0.4940 0.4840 0.4740
6.673931 0.4640 0.4490 0.4300 0.4100 0.3900
6.707000 0.3670 0.3400 0.3130 0.2820 0.2500
6.740931 0.2220 0.2000 0.1750 0.1510 0.1290
6.775000 0.1010 0.0820 0.0650 0.0300 0.0210
6.808931 0.0210 0.0310 0.0350 0.0430 0.0480
6.843000 0.0520 0.0530 0.0550 0.0550 0.0570
6.876931 0.0570 0.0580 0.0600 0.0650 0.0700
6.911000 0.0750 0.0800 0.0870 0.0920 0.0970
6.944931 0.1010 0.1020 0.1040 0.1040 0.1040
6.979000 0.1040 0.1060 0.1070 0.1110 0.1310
7.012931 0.1510 0.1710 0.1930 0.2150 0.2370
7.047000 0.2550 0.2720 0.2840 0.2920 0.2990
7.080931 0.3060 0.3090 0.3130 0.3140 0.3180
7.114000 0.3190 0.3190 0.3190 0.3190 0.3190
7.147931 0.3180 0.3180 0.3140 0.3140 0.3130
7.182000 0.3130 0.3130 0.3140 0.3140 0.3160
7.215931 0.3180 0.3210 0.3240 0.3260 0.3330
7.250000 0.3450 0.3550 0.3670 0.3750 0.3950
7.283931 0.4040 0.4150 0.4200 0.4250 0.4270
7.318000 0.4290 0.4290 0.4290 0.4190 0.4150
7.351931 0.4050 0.3880 0.3750 0.3500 0.3410
7.386000 0.3410 0.3480 0.3630 0.3780 0.4070
7.419931 0.4340 0.4460 0.4540 0.4640 0.4710
7.453000 0.4790 0.4840 0.4910 0.4940 0.4960
7.486931 0.5000 0.5000 0.5010 0.5050 0.5130
7.521000 0.5200 0.5280 0.5380 0.5450 0.5500
7.554931 0.5550 0.5620 0.5650 0.5700 0.5720
7.589000 0.5740 0.5740 0.5720 0.5700 0.5650
7.622931 0.5550 0.5520 0.5430 0.5350 0.5260
7.657000 0.5150 0.5010 0.4840 0.4640 0.4490
7.690931 0.4200 0.4000 0.3830 0.3500 0.3240
7.725000 0.2970 0.2740 0.2540 0.2400 0.2280
7.758931 0.2180 0.2130 0.2080 0.2050 0.2000
7.793000 0.1980 0.1960 0.1980 0.2070 0.2180
7.826931 0.2270 0.2400 0.2590 0.2760 0.2920
7.860000 0.3040 0.3140 0.3230 0.3280 0.3290
7.893931 0.3310 0.3310 0.3290 0.3140 0.2960
7.928000 0.2840 0.2670 0.2500 0.2370 0.2250
7.961931 0.2180 0.2130 0.2120 0.2100 0.2120
7.996000 0.2280 0.2500 0.2710 0.2920 0.3090
8.029931 0.3240 0.3350 0.3400 0.3480 0.3550
8.064000 0.3600 0.3650 0.3720 0.3780 0.3830
8.097931 0.3880 0.3900 0.3930 0.3950 0.3930
8.132000 0.3900 0.3850 0.3770 0.3670 0.3560
8.165931 0.3410 0.3260 0.3080 0.2940 0.2820
8.200000 0.2720 0.2470 0.2450 0.2490 0.2790
8.233931 0.2990 0.3210 0.3400 0.3510 0.3580
8.267000 0.3580 0.3560 0.3560 0.3480 0.3400
8.300931 0.3290 0.3280 0.3280 0.3280 0.3280
8.335000 0.3240 0.3190 0.3140 0.3090 0.3040
8.368931 0.3010 0.2990 0.2970 0.2970 0.2940
8.403000 0.2910 0.2860 0.2820 0.2760 0.2650
8.436931 0.2590 0.2520 0.2420 0.2400 0.2390
8.471000 0.2390 0.2420 0.2550 0.2710 0.2840
8.504931 0.2960 0.3080 0.3160 0.3240 0.3310
8.539000 0.3380 0.3460 0.3600 0.3700 0.3780
8.572931 0.4000 0.4200 0.4300 0.4460 0.4510
8.607000 0.4780 0.4940 0.5030 0.5110 0.5200
8.640931 0.5250 0.5280 0.5280 0.5300 0.5300
8.674000 0.5300 0.5310 0.5310 0.5330 0.5350
8.707931 0.5400 0.5430 0.5480 0.5570 0.5600
8.742000 0.5630 0.5630 0.5650 0.5650 0.5650
8.775931 0.5650 0.5650 0.5650 0.5650 0.5670
8.810000 0.5690 0.5740 0.5770 0.5820 0.5870
8.843931 0.5940 0.6010 0.6070 0.6120 0.6170
8.878000 0.6220 0.6270 0.6290 0.6310 0.6340
8.911931 0.6380 0.6390 0.6390 0.6390 0.6390
8.946000 0.6410 0.6410 0.6390 0.6390 0.6360
8.979931 0.6320 0.6270 0.6210 0.6120 0.6060
9.014000 0.5950 0.5870 0.5770 0.5690 0.5580
9.047931 0.5470 0.5370 0.5280 0.5200 0.5100
9.081000 0.5000 0.4930 0.4910 0.4890 0.4880
9.114931 0.4880 0.4890 0.4930 0.5010 0.5110
9.149000 0.5180 0.5250 0.5350 0.5450 0.5570
9.182931 0.5630 0.5700 0.5770 0.5870 0.6020
9.217000 0.6260 0.6340 0.6390 0.6460 0.6510
9.250931 0.6610 0.6640 0.6710 0.6760 0.6800
9.285000 0.6830 0.6880 0.6900 0.6900 0.6930
9.318931 0.6950 0.6950 0.6960 0.6980 0.6980
9.353000 0.6980 0.6980 0.6980 0.6960 0.6960
9.386931 0.6950 0.6900 0.6830 0.6800 0.6780
9.421000 0.6710 0.6700 0.6640 0.6610 0.6590
9.454931 0.6580 0.6580 0.6580 0.6560 0.6560
9.488000 0.6540 0.6530 0.6510 0.6510 0.6490
9.521931 0.6490 0.6460 0.6380 0.6220 0.6110
9.556000 0.5950 0.5750 0.5520 0.5350 0.5180
9.589931 0.5100 0.5100 0.5160 0.5330 0.5480
9.624000 0.5700 0.5890 0.6040 0.6160 0.6260
9.657931 0.6320 0.6390 0.6390 0.6380 0.6380
9.692000 0.6320 0.6260 0.6160 0.5970 0.5870
9.725931 0.5820 0.5700 0.5350 0.5200 0.4890
9.760000 0.4690 0.4390 0.4220 0.4050 0.4000
9.793931 0.3870 0.3830 0.3870 0.4250 0.4660
9.828000 0.4790 0.5050 0.5100 0.5520 0.5700
9.861931 0.5940 0.6020 0.6140 0.6260 0.6390
9.895000 0.6490 0.6590 0.6660 0.6730 0.6780
9.928931 0.6810 0.6880 0.6900 0.6950 0.7000
9.963000 0.7020 0.7030 0.7080 0.7080 0.7100
9.996931 0.7120 0.7130 0.7170 0.7180 0.7180
10.031000 0.7200 0.7200 0.7200 0.7220 0.7220
10.064931 0.7220 0.7230 0.7250 0.7270 0.7270
10.099000 0.7270 0.7270 0.7270 0.7230 0.7200
10.132931 0.7180 0.7130 0.7100 0.7050 0.7020
10.167000 0.6980 0.6910 0.6880 0.6810 0.6760
10.200931 0.6630 0.6460 0.6210 0.5900 0.5800
10.234000 0.5620 0.5350 0.5200 0.4960 0.4810
10.267931 0.4620 0.4610 0.4610 0.4710 0.5010
10.302000 0.5100 0.5400 0.5600 0.5800 0.5990
10.335931 0.6110 0.6240 0.6310 0.6410 0.6490
10.370000 0.6530 0.6590 0.6590 0.6630 0.6680
10.403931 0.6700 0.6710 0.6730 0.6760 0.6780
10.438000 0.6780 0.6780 0.6800 0.6800 0.6800
10.471931 0.6800 0.6810 0.6810 0.6810 0.6830
10.506000 0.6830 0.6830 0.6830 0.6830 0.6830
10.539931 0.6830 0.6830 0.6830 0.6830 0.6810
10.574000 0.6810 0.6800 0.6800 0.6800 0.6780
10.607931 0.6780 0.6780 0.6780 0.6780 0.6780
10.641000 0.6780 0.6780 0.6800 0.6800 0.6800
10.674931 0.6800 0.6810 0.6810 0.6810 0.6810
10.709000 0.6800 0.6800 0.6780 0.6760 0.6730
10.742931 0.6700 0.6640 0.6610 0.6590 0.6510
10.777000 0.6440 0.6390 0.6380 0.6240 0.6210
10.810931 0.6090 0.5900 0.5840 0.5790 0.5720
10.845000 0.5700 0.5690 0.5690 0.5700 0.5790
10.878931 0.5850 0.5900 0.6010 0.6040 0.6190
10.913000 0.6290 0.6320 0.6390 0.6440 0.6480
10.946931 0.6490 0.6530 0.6540 0.6580 0.6590
10.981000 0.6610 0.6630 0.6630 0.6630 0.6610
11.014931 0.6610 0.6610 0.6610 0.6590 0.6590
11.048000 0.6580 0.6580 0.6560 0.6530 0.6510
11.081931 0.6490 0.6490 0.6460 0.6430 0.6410
11.116000 0.6390 0.6380 0.6310 0.6290 0.6270
11.149931 0.6220 0.6190 0.6160 0.6110 0.6090
11.184000 0.6010 0.5950 0.5900 0.5820 0.5720
11.217931 0.5580 0.5500 0.5450 0.5350 0.5260
11.252000 0.5050 0.4960 0.4860 0.4740 0.4590
11.285931 0.4440 0.4250 0.4070 0.3970 0.3850
11.320000 0.3650 0.3510 0.3400 0.3240 0.3110
11.353931 0.2960 0.2840 0.2740 0.2650 0.2600
11.388000 0.2550 0.2520 0.2500 0.2500 0.2500
11.421931 0.2520 0.2520 0.2550 0.2590 0.2620
11.455000 0.2690 0.2790 0.2870 0.2910 0.3090
11.488931 0.3180 0.3290 0.3410 0.3500 0.3610
11.523000 0.3700 0.3780 0.3820 0.3850 0.3870
11.556931 0.3870 0.3870 0.3870 0.3850 0.3820
11.591000 0.3820 0.3800 0.3780 0.3780 0.3780
11.624931 0.3800 0.3800 0.3820 0.3870 0.3880
11.659000 0.3930 0.3970 0.3980 0.4000 0.4020
11.692931 0.4020 0.4070 0.4090 0.4100 0.4170
11.727000 0.4190 0.4220 0.4270 0.4270 0.4300
11.760931 0.4320 0.4370 0.4370 0.4390 0.4410
11.795000 0.4410 0.4420 0.4420 0.4390 0.4340
11.828931 0.4300 0.4290 0.4270 0.4200 0.4150
11.862000 0.4100 0.4090 0.4000 0.3970 0.3900
11.895931 0.3830 0.3750 0.3700 0.3630 0.3600
11.930000 0.3580 0.3560 0.3550 0.3550 0.3550
11.963931 0.3560 0.3580 0.3600 0.3610 0.3650
11.998000 0.3680 0.3750 0.3800 0.3850 0.3870
12.031931 0.3880 0.3900 0.3900 0.3900 0.3900
12.066000 0.3900 0.3880 0.3870 0.3800 0.3750
12.099931 0.3700 0.3610 0.3550 0.3450 0.3310
12.134000 0.3190 0.3030 0.2810 0.2650 0.2500
12.167931 0.2390 0.2170 0.2080 0.2020 0.1930
12.202000 0.1910 0.1910 0.1950 0.2180 0.2280
12.235931 0.2450 0.2670 0.2860 0.3030 0.3130
12.269000 0.3230 0.3600 0.3770 0.3950 0.4140
12.302931 0.4290 0.4370 0.4460 0.4540 0.4640
12.337000 0.4730 0.4830 0.4890 0.4960 0.5010
12.370931 0.5100 0.5150 0.5180 0.5210 0.5280
12.405000 0.5370 0.5450 0.5480 0.5530 0.5570
12.438931 0.5580 0.5630 0.5690 0.5700 0.5740
12.473000 0.5770 0.5790 0.5800 0.5800 0.5840
12.506931 0.5870 0.5890 0.5900 0.5940 0.5970
12.541000 0.5970 0.5970 0.5970 0.5990 0.5990
12.574931 0.6010 0.6020 0.6020 0.6040 0.6040
12.609000 0.6060 0.6090 0.6110 0.6110 0.6110
12.642931 0.6120 0.6120 0.6140 0.6140 0.6160
12.676000 0.6160 0.6160 0.6160 0.6160 0.6170
12.709931 0.6170 0.6170 0.6190 0.6190 0.6210
12.744000 0.6210 0.6210 0.6210 0.6240 0.6240
12.777931 0.6240 0.6260 0.6260 0.6270 0.6270
12.812000 0.6290 0.6290 0.6310 0.6310 0.6320
12.845931 0.6320 0.6320 0.6340 0.6340 0.6360
12.880000 0.6360 0.6380 0.6380 0.6380 0.6380
12.913931 0.6380 0.6380 0.6380 0.6380 0.6380
12.948000 0.6390 0.6390 0.6390 0.6390 0.6390
12.981931 0.6390 0.6390 0.6380 0.6380 0.6360
13.016000 0.6360 0.6340 0.6310 0.6310 0.6290
13.049931 0.6270 0.6270 0.6270 0.6260 0.6260
13.083000 0.6240 0.6240 0.6210 0.6190 0.6170
13.116931 0.6170 0.6170 0.6160 0.6160 0.6160
13.151000 0.6140 0.6140 0.6120 0.6110 0.6110
13.184931 0.6090 0.6090 0.6090 0.6070 0.6060
13.219000 0.6010 0.5990 0.5990 0.5970 0.5970
13.252931 0.5950 0.5940 0.5900 0.5870 0.5870
13.287000 0.5840 0.5800 0.5770 0.5720 0.5690
13.320931 0.5670 0.5620 0.5580 0.5530 0.5500
13.355000 0.5380 0.5370 0.5310 0.5260 0.5180
13.388931 0.5080 0.5030 0.4930 0.4810 0.4710
13.422000 0.4590 0.4560 0.4510 0.4470 0.4390
13.455931 0.4370 0.4290 0.4270 0.4220 0.4200
13.490000 0.4190 0.4190 0.4190 0.4170 0.4150
13.523931 0.4120 0.4090 0.4040 0.4000 0.3980
13.558000 0.3930 0.3880 0.3800 0.3770 0.3700
13.591931 0.3650 0.3600 0.3510 0.3400 0.3310
13.626000 0.3210 0.3160 0.3090 0.3010 0.2890
13.659931 0.2790 0.2690 0.2600 0.2500 0.2400
13.694000 0.2300 0.2200 0.2130 0.2030 0.1980
13.727931 0.1930 0.1860 0.1800 0.1760 0.1700
13.762000 0.1640 0.1630 0.1590 0.1560 0.1530
13.795931 0.1510 0.1480 0.1460 0.1440 0.1440
13.829000 0.1440 0.1460 0.1480 0.1510 0.1560
13.862931 0.1640 0.1730 0.1850 0.1910 0.1950
13.897000 0.2230 0.2300 0.2440 0.2540 0.2650
13.930931 0.2820 0.2940 0.2990 0.3040 0.3090
13.965000 0.3180 0.3240 0.3290 0.3350 0.3410
13.998931 0.3450 0.3500 0.3510 0.3550 0.3560
14.033000 0.3580 0.3580 0.3610 0.3670 0.3720
14.066931 0.3780 0.3800 0.3880 0.3970 0.4040
14.101000 0.4100 0.4200 0.4290 0.4340 0.4440
14.134931 0.4490 0.4570 0.4640 0.4690 0.4780
14.169000 0.4810 0.4880 0.4910 0.4960 0.5000
14.202931 0.5030 0.5060 0.5080 0.5110 0.5150
14.236000 0.5160 0.5160 0.5180 0.5180 0.5200
14.269931 0.5200 0.5210 0.5210 0.5210 0.5210
14.304000 0.5210 0.5210 0.5210 0.5200 0.5180
14.337931 0.5150 0.5110 0.5100 0.5080 0.5030
14.372000 0.5010 0.5010 0.5000 0.4980 0.4980
14.405931 0.4980 0.4960 0.4960 0.4960 0.4980
14.440000 0.4980 0.4980 0.5000 0.5010 0.5030
14.473931 0.5060 0.5080 0.5100 0.5110 0.5110
14.508000 0.5150 0.5160 0.5160 0.5160 0.5180
14.541931 0.5180 0.5200 0.5200 0.5200 0.5200
14.576000 0.5200 0.5180 0.5180 0.5180 0.5160
14.609931 0.5160 0.5150 0.5130 0.5110 0.5100
14.643000 0.5080 0.5080 0.5080 0.5060 0.5060
14.676931 0.5050 0.5050 0.5030 0.5010 0.5000
14.711000 0.4980 0.4980 0.4940 0.4940 0.4930
14.744931 0.4930 0.4910 0.4880 0.4880 0.4860
14.779000 0.4860 0.4860 0.4840 0.4830 0.4790
14.812931 0.4780 0.4780 0.4760 0.4740 0.4740
14.847000 0.4730 0.4690 0.4680 0.4680 0.4660
14.880931 0.4620 0.4610 0.4590 0.4590 0.4570
14.915000 0.4560 0.4510 0.4490 0.4470 0.4420
14.948931 0.4390 0.4390 0.4360 0.4320 0.4290
14.983000 0.4270 0.4240 0.4220 0.4170 0.4120
15.016931 0.4040 0.3930 0.3900 0.3870 0.3820
15.050000 0.3800 0.3730 0.3670 0.3630 0.3580
15.083931 0.3550 0.3500 0.3450 0.3380 0.3310
15.118000 0.3280 0.3230 0.3180 0.3140 0.3060
15.151931 0.3030 0.2990 0.2960 0.2920 0.2910
15.186000 0.2890 0.2890 0.2890 0.2870 0.2820
15.219931 0.2790 0.2770 0.2770 0.2770 0.2760
15.254000 0.2710 0.2690 0.2670 0.2670 0.2650
15.287931 0.2640 0.2590 0.2570 0.2500 0.2470
15.322000 0.2440 0.2390 0.2320 0.2280 0.2220
15.355931 0.2180 0.2130 0.2100 0.2070 0.2020
15.390000 0.1980 0.1960 0.1950 0.1930 0.1950
15.423931 0.1960 0.2000 0.2030 0.2100 0.2150
15.457000 0.2230 0.2300 0.2390 0.2440 0.2500
15.490931 0.2540 0.2590 0.2670 0.2690 0.2740
15.525000 0.2770 0.2790 0.2810 0.2820 0.2860
15.558931 0.2870 0.2870 0.2890 0.2910 0.2940
15.593000 0.2960 0.2960 0.2960 0.2960 0.2960
15.626931 0.2960 0.2970 0.2970 0.2970 0.2970
15.661000 0.2990 0.2990 0.2990 0.2990 0.2990
15.694931 0.2990 0.2970 0.2970 0.2960 0.2960
15.729000 0.2970 0.2970 0.2960 0.2960 0.2960
15.762931 0.2960 0.2940 0.2940 0.2920 0.2910
15.797000 0.2910 0.2890 0.2890 0.2870 0.2860
15.830931 0.2840 0.2840 0.2820 0.2810 0.2790
15.864000 0.2790 0.2790 0.2790 0.2810 0.2820
15.897931 0.2840 0.2840 0.2860 0.2860 0.2860
15.932000 0.2840 0.2790 0.2740 0.2640 0.2540
15.965931 0.2440 0.2370 0.2350 0.2350 0.2350
16.000000 0.2390 0.2500 0.2600 0.2650
##END=
