##TITLE=(5-NONYL)PYRAZINE
##JCAMP-DX=4.24
##DATA TYPE=INFRARED SPECTRUM
##CLASS=COBLENTZ
##ORIGIN=WYANDOTTE CHEMICALS CORP., WYANDOTTE, MICHIGAN, USA
##OWNER=COBLENTZ SOCIETY
Collection (C) 2018 copyright by the U.S. Secretary of Commerce
on behalf of the United States of America. All rights reserved.
##DATE=Not specified, most likely prior to 1970
##NAMES=2-(1-butylpentyl)pyrazine
##CAS REGISTRY NO=116660-09-4
##MOLFORM=C13 H22 N2
##SOURCE REFERENCE=COBLENTZ NO. 3107
##$NIST SOURCE=COBLENTZ
##$NIST IMAGE=cob3107
##SPECTROMETER/DATA SYSTEM=Not specified, most likely a prism, grating, or hybrid spectrometer.
##STATE=LIQUID
##PATH LENGTH=0.0015 CM
##SAMPLING PROCEDURE=TRANSMISSION
##RESOLUTION=4
##DATA PROCESSING=DIGITIZED BY NIST FROM HARD COPY
##XUNITS=MICROMETERS
##YUNITS=TRANSMITTANCE
##XFACTOR=1.000000
##YFACTOR=1
##DELTAX=000.006813
##FIRSTX=2.027
##LASTX=15.9727
##FIRSTY=0.953
##MAXX=15.9727
##MINX=2.027
##MAXY=0.965
##MINY=0.049
##NPOINTS=2048
##XYDATA=(X++(Y..Y))
2.027000 0.9530 0.9570 0.9600 0.9600 0.9580
2.061080 0.9600 0.9600 0.9620 0.9620 0.9600
2.095000 0.9580 0.9570 0.9570 0.9600 0.9620
2.129080 0.9640 0.9650 0.9650 0.9620 0.9550
2.164000 0.9460 0.9340 0.9260 0.9170 0.9140
2.198080 0.9040 0.9000 0.9000 0.9000 0.9000
2.232000 0.9020 0.9040 0.9040 0.9050 0.9050
2.266080 0.9050 0.9050 0.9050 0.9050 0.9070
2.300000 0.9070 0.9090 0.9100 0.9120 0.9120
2.334080 0.9120 0.9120 0.9120 0.9100 0.9090
2.368000 0.9070 0.9070 0.9090 0.9120 0.9170
2.402080 0.9220 0.9260 0.9280 0.9290 0.9290
2.436000 0.9310 0.9310 0.9310 0.9290 0.9330
2.470080 0.9330 0.9360 0.9400 0.9400 0.9400
2.504000 0.9400 0.9400 0.9400 0.9380 0.9360
2.538080 0.9360 0.9360 0.9380 0.9400 0.9410
2.572000 0.9430 0.9430 0.9430 0.9410 0.9400
2.606080 0.9410 0.9520 0.9530 0.9570 0.9600
2.640000 0.9580 0.9520 0.9500 0.9500 0.9500
2.674080 0.9500 0.9500 0.9460 0.9450 0.9430
2.709000 0.9430 0.9430 0.9410 0.9430 0.9430
2.743080 0.9430 0.9410 0.9400 0.9400 0.9400
2.777000 0.9400 0.9400 0.9380 0.9330 0.9340
2.811080 0.9340 0.9330 0.9310 0.9260 0.9240
2.845000 0.9240 0.9220 0.9210 0.9190 0.9170
2.879080 0.9140 0.9100 0.9090 0.9070 0.9070
2.913000 0.9070 0.9040 0.9040 0.9040 0.9040
2.947080 0.9050 0.9070 0.9070 0.9070 0.9090
2.981000 0.9070 0.9070 0.9070 0.9050 0.9020
3.015080 0.9000 0.9000 0.8980 0.8980 0.8970
3.049000 0.8950 0.8930 0.8920 0.8900 0.8900
3.083080 0.8850 0.8810 0.8760 0.8750 0.8730
3.117000 0.8690 0.8680 0.8640 0.8630 0.8630
3.151080 0.8630 0.8610 0.8610 0.8590 0.8560
3.185000 0.8540 0.8470 0.8350 0.8180 0.7940
3.219080 0.7560 0.7030 0.6300 0.5540 0.4770
3.254000 0.4720 0.4760 0.4910 0.5490 0.5630
3.288080 0.5630 0.5590 0.4910 0.4520 0.4050
3.322000 0.3540 0.2720 0.2100 0.1420 0.0900
3.356080 0.0850 0.0850 0.0870 0.0870 0.0870
3.390000 0.0850 0.0850 0.0850 0.0870 0.0950
3.424080 0.1060 0.1190 0.1250 0.1280 0.1280
3.458000 0.1210 0.0990 0.0950 0.0950 0.1010
3.492080 0.1430 0.1950 0.2650 0.3690 0.4550
3.526000 0.5390 0.5970 0.6500 0.6810 0.7000
3.560080 0.7170 0.7320 0.7430 0.7550 0.7750
3.594000 0.7820 0.7920 0.8040 0.8090 0.8110
3.628080 0.8110 0.8090 0.8090 0.8080 0.8060
3.662000 0.8060 0.8080 0.8110 0.8250 0.8330
3.696080 0.8330 0.8330 0.8300 0.8300 0.8300
3.730000 0.8320 0.8350 0.8400 0.8470 0.8510
3.764080 0.8520 0.8540 0.8540 0.8570 0.8610
3.799000 0.8640 0.8660 0.8690 0.8710 0.8730
3.833080 0.8780 0.8800 0.8810 0.8810 0.8810
3.867000 0.8830 0.8850 0.8860 0.8900 0.8920
3.901080 0.8930 0.8970 0.8980 0.9000 0.9000
3.935000 0.8980 0.8970 0.8970 0.8980 0.8980
3.969080 0.8980 0.9000 0.9020 0.9040 0.9050
4.003000 0.9070 0.9090 0.9090 0.9090 0.9090
4.037080 0.9090 0.9090 0.9090 0.9100 0.9100
4.071000 0.9100 0.9100 0.9090 0.9090 0.9090
4.105080 0.9090 0.9100 0.9090 0.9090 0.9070
4.139000 0.9050 0.9040 0.9020 0.9040 0.9050
4.173080 0.9070 0.9090 0.9100 0.9100 0.9090
4.207000 0.9050 0.9040 0.9020 0.9000 0.8980
4.241080 0.8920 0.8880 0.8880 0.8920 0.8970
4.275000 0.9000 0.9040 0.9040 0.9050 0.9070
4.309080 0.9070 0.9100 0.9140 0.9190 0.9210
4.344000 0.9220 0.9240 0.9260 0.9260 0.9260
4.378080 0.9240 0.9220 0.9240 0.9220 0.9210
4.412000 0.9190 0.9170 0.9160 0.9140 0.9500
4.446080 0.9360 0.9210 0.9160 0.9050 0.9020
4.480000 0.9090 0.9140 0.9160 0.9190 0.9190
4.514080 0.9210 0.9190 0.9170 0.9170 0.9190
4.548000 0.9210 0.9210 0.9210 0.9220 0.9240
4.582080 0.9240 0.9260 0.9290 0.9290 0.9280
4.616000 0.9280 0.9290 0.9290 0.9220 0.9220
4.650080 0.9220 0.9220 0.9220 0.9220 0.9240
4.684000 0.9290 0.9280 0.9290 0.9290 0.9290
4.718080 0.9310 0.9330 0.9330 0.9330 0.9310
4.752000 0.9290 0.9290 0.9280 0.9280 0.9280
4.786080 0.9280 0.9280 0.9280 0.9280 0.9280
4.820000 0.9280 0.9290 0.9290 0.9280 0.9280
4.854080 0.9290 0.9310 0.9310 0.9310 0.9310
4.889000 0.9310 0.9310 0.9310 0.9290 0.9290
4.923080 0.9260 0.9260 0.9260 0.9240 0.9240
4.957000 0.9220 0.9220 0.9220 0.9220 0.9210
4.991080 0.9240 0.9310 0.9330 0.9330 0.9330
5.025000 0.9330 0.9310 0.9260 0.9240 0.9260
5.059080 0.9260 0.9260 0.9260 0.9260 0.9260
5.093000 0.9260 0.9260 0.9260 0.9260 0.9240
5.127080 0.9210 0.9210 0.9210 0.9190 0.9160
5.161000 0.9120 0.9070 0.9020 0.9000 0.8980
5.195080 0.8950 0.8880 0.8830 0.8780 0.8760
5.229000 0.8780 0.8830 0.8900 0.8950 0.8950
5.263080 0.8970 0.8980 0.8980 0.8980 0.9000
5.297000 0.9020 0.9040 0.9050 0.9100 0.9120
5.331080 0.9140 0.9190 0.9190 0.9190 0.9160
5.365000 0.9120 0.9100 0.9090 0.9090 0.9050
5.399080 0.9050 0.9050 0.9070 0.9070 0.9090
5.434000 0.9100 0.9120 0.9140 0.9140 0.9140
5.468080 0.9100 0.9100 0.9100 0.9100 0.9090
5.502000 0.9090 0.9050 0.9040 0.9000 0.8980
5.536080 0.8930 0.8900 0.8880 0.8880 0.8920
5.570000 0.9000 0.9000 0.9000 0.8950 0.8900
5.604080 0.8880 0.8850 0.8830 0.8800 0.8800
5.638000 0.8830 0.8970 0.9040 0.9040 0.9020
5.672080 0.9040 0.9070 0.9090 0.9090 0.9090
5.706000 0.9090 0.9050 0.9040 0.9020 0.9000
5.740080 0.8980 0.8950 0.8930 0.8930 0.8920
5.774000 0.8900 0.8850 0.8830 0.8830 0.8780
5.808080 0.8760 0.8730 0.8690 0.8630 0.8590
5.842000 0.8540 0.8520 0.8470 0.8400 0.8280
5.876080 0.8180 0.8130 0.8040 0.7990 0.7970
5.910000 0.7990 0.8030 0.8090 0.8130 0.8180
5.944080 0.8250 0.8270 0.8300 0.8330 0.8350
5.979000 0.8370 0.8370 0.8390 0.8400 0.8400
6.013080 0.8400 0.8400 0.8400 0.8400 0.8400
6.047000 0.8390 0.8350 0.8330 0.8330 0.8390
6.081080 0.8400 0.8420 0.8440 0.8440 0.8440
6.115000 0.8440 0.8440 0.8450 0.8470 0.8520
6.149080 0.8540 0.8510 0.8510 0.8510 0.8510
6.183000 0.8510 0.8490 0.8450 0.8440 0.8440
6.217080 0.8420 0.8400 0.8350 0.8330 0.8200
6.251000 0.8040 0.7770 0.7480 0.7190 0.6810
6.285080 0.6740 0.6720 0.6830 0.7360 0.7630
6.319000 0.7920 0.8060 0.8130 0.8160 0.8210
6.353080 0.8250 0.8300 0.8300 0.8320 0.8320
6.387000 0.8320 0.8300 0.8270 0.8210 0.8160
6.421080 0.8150 0.8130 0.8110 0.8060 0.7970
6.455000 0.7770 0.7480 0.7190 0.6910 0.6450
6.489080 0.5970 0.5150 0.4290 0.3880 0.3880
6.524000 0.4170 0.4980 0.5780 0.6540 0.7150
6.558080 0.7360 0.7480 0.7550 0.7600 0.7610
6.592000 0.7630 0.7610 0.7550 0.7500 0.7460
6.626080 0.7430 0.7460 0.7440 0.7410 0.7360
6.660000 0.7290 0.7190 0.7050 0.6840 0.6600
6.694080 0.6280 0.5950 0.5560 0.5100 0.4400
6.728000 0.3710 0.2910 0.2190 0.1670 0.0800
6.762080 0.0700 0.0700 0.0770 0.0940 0.1010
6.796000 0.1180 0.1330 0.1470 0.1590 0.1720
6.830080 0.1880 0.2070 0.2270 0.2530 0.2820
6.864000 0.3090 0.3300 0.3490 0.3640 0.3800
6.898080 0.3970 0.4170 0.4410 0.4700 0.4910
6.932000 0.5130 0.5420 0.5710 0.5870 0.6010
6.966080 0.6160 0.6210 0.6230 0.6230 0.6180
7.000000 0.6060 0.5770 0.5320 0.4860 0.4240
7.034080 0.3660 0.2920 0.2360 0.1760 0.1210
7.069000 0.0800 0.0750 0.0750 0.0800 0.1160
7.103080 0.1550 0.1930 0.2360 0.3040 0.3680
7.137000 0.4290 0.4760 0.5150 0.5350 0.5510
7.171080 0.5530 0.5530 0.5510 0.5080 0.4640
7.205000 0.3980 0.3300 0.2820 0.2800 0.2800
7.239080 0.2890 0.3160 0.3510 0.3920 0.4260
7.273000 0.4500 0.4700 0.4930 0.5150 0.5350
7.307080 0.5530 0.5660 0.5780 0.5950 0.6090
7.341000 0.6210 0.6310 0.6420 0.6470 0.6520
7.375080 0.6550 0.6600 0.6660 0.6600 0.6500
7.409000 0.6420 0.6360 0.6330 0.6350 0.6400
7.443080 0.6540 0.6620 0.6720 0.6810 0.6930
7.477000 0.7020 0.7120 0.7190 0.7240 0.7290
7.511080 0.7320 0.7360 0.7360 0.7310 0.7240
7.545000 0.7170 0.7120 0.7080 0.7030 0.6960
7.579080 0.6900 0.6780 0.6600 0.6420 0.6140
7.614000 0.5970 0.5870 0.5710 0.5350 0.5270
7.648080 0.5180 0.5150 0.5130 0.5150 0.5270
7.682000 0.5420 0.5590 0.5750 0.5940 0.6110
7.716080 0.6300 0.6470 0.6540 0.6600 0.6690
7.750000 0.6790 0.6810 0.6860 0.6950 0.7030
7.784080 0.7100 0.7120 0.7190 0.7270 0.7320
7.818000 0.7360 0.7390 0.7430 0.7500 0.7530
7.852080 0.7610 0.7630 0.7630 0.7630 0.7610
7.886000 0.7560 0.7510 0.7430 0.7390 0.7390
7.920080 0.7410 0.7440 0.7500 0.7530 0.7550
7.954000 0.7580 0.7610 0.7630 0.7650 0.7650
7.988080 0.7650 0.7670 0.7650 0.7650 0.7610
8.022000 0.7610 0.7610 0.7580 0.7550 0.7510
8.056080 0.7500 0.7440 0.7380 0.7290 0.7190
8.091000 0.7020 0.6910 0.6720 0.6470 0.6160
8.125080 0.5950 0.5650 0.5370 0.5130 0.5010
8.159000 0.4980 0.4980 0.5010 0.5100 0.5220
8.193080 0.5410 0.5610 0.5870 0.6010 0.6090
8.227000 0.6130 0.6160 0.6210 0.6310 0.6420
8.261080 0.6500 0.6600 0.6690 0.6780 0.6860
8.295000 0.6930 0.6980 0.7000 0.7020 0.7020
8.329080 0.7020 0.7020 0.7020 0.7000 0.7000
8.363000 0.7000 0.7000 0.7000 0.7000 0.6980
8.397080 0.6950 0.6910 0.6860 0.6810 0.6790
8.431000 0.6740 0.6710 0.6640 0.6600 0.6600
8.465080 0.6620 0.6660 0.6670 0.6710 0.6790
8.499000 0.6810 0.6810 0.6790 0.6590 0.6420
8.533080 0.6260 0.6040 0.5750 0.5440 0.5130
8.567000 0.4810 0.4530 0.4310 0.4160 0.4020
8.601080 0.3850 0.3630 0.3420 0.3230 0.3010
8.636000 0.2790 0.2510 0.2430 0.2430 0.2430
8.670080 0.2440 0.2560 0.2700 0.2910 0.3130
8.704000 0.3470 0.3800 0.4140 0.4450 0.4790
8.738080 0.5010 0.5250 0.5300 0.5300 0.5290
8.772000 0.5110 0.4910 0.4720 0.4530 0.4260
8.806080 0.4170 0.4170 0.4210 0.4450 0.4650
8.840000 0.4980 0.5370 0.5770 0.6110 0.6310
8.874080 0.6480 0.6640 0.6780 0.6860 0.6910
8.908000 0.6930 0.6930 0.6910 0.6880 0.6830
8.942080 0.6830 0.6880 0.6910 0.6950 0.7000
8.976000 0.7000 0.7000 0.6960 0.6910 0.6830
9.010080 0.6720 0.6550 0.6480 0.6350 0.6230
9.044000 0.6160 0.6040 0.5920 0.5890 0.5890
9.078080 0.5920 0.5940 0.5990 0.6010 0.6010
9.112000 0.6040 0.6070 0.6140 0.6160 0.6190
9.146080 0.6210 0.6230 0.6250 0.6280 0.6300
9.181000 0.6300 0.6300 0.6310 0.6330 0.6400
9.215080 0.6450 0.6520 0.6590 0.6600 0.6620
9.249000 0.6640 0.6660 0.6670 0.6670 0.6660
9.283080 0.6620 0.6590 0.6540 0.6500 0.6480
9.317000 0.6430 0.6380 0.6300 0.6210 0.6110
9.351080 0.5990 0.5820 0.5630 0.5390 0.5100
9.385000 0.5010 0.4770 0.4410 0.4000 0.3540
9.419080 0.3180 0.3110 0.2920 0.2890 0.2870
9.453000 0.2910 0.3110 0.3390 0.3730 0.4070
9.487080 0.4580 0.5030 0.5410 0.5750 0.6020
9.521000 0.6250 0.6430 0.6590 0.6690 0.6780
9.555080 0.6910 0.7050 0.7120 0.7220 0.7310
9.589000 0.7340 0.7360 0.7390 0.7390 0.7410
9.623080 0.7430 0.7430 0.7430 0.7440 0.7440
9.657000 0.7460 0.7460 0.7460 0.7440 0.7430
9.691080 0.7360 0.7270 0.7190 0.7080 0.6950
9.726000 0.6780 0.6570 0.6330 0.6040 0.5680
9.760080 0.5250 0.4880 0.4260 0.3570 0.2910
9.794000 0.2340 0.1660 0.0990 0.0490 0.0510
9.828080 0.0610 0.1040 0.1420 0.1910 0.2270
9.862000 0.3180 0.3900 0.4520 0.5130 0.5530
9.896080 0.5870 0.6070 0.6260 0.6450 0.6670
9.930000 0.6830 0.6960 0.7070 0.7190 0.7310
9.964080 0.7390 0.7460 0.7510 0.7560 0.7610
9.998000 0.7670 0.7700 0.7750 0.7800 0.7850
10.032080 0.7890 0.7890 0.7920 0.7960 0.7960
10.066000 0.7970 0.7970 0.7990 0.7990 0.8010
10.100080 0.8030 0.8030 0.8010 0.8010 0.7990
10.134000 0.8010 0.7960 0.7940 0.7920 0.7910
10.168080 0.7890 0.7850 0.7890 0.8060 0.7910
10.202000 0.7610 0.7610 0.7680 0.7680 0.7680
10.236080 0.7650 0.7630 0.7610 0.7580 0.7550
10.271000 0.7550 0.7530 0.7510 0.7460 0.7410
10.305080 0.7390 0.7390 0.7360 0.7340 0.7320
10.339000 0.7320 0.7320 0.7310 0.7310 0.7240
10.373080 0.7200 0.7190 0.7190 0.7190 0.7200
10.407000 0.7200 0.7190 0.7190 0.7190 0.7150
10.441080 0.7140 0.7120 0.7080 0.7030 0.7000
10.475000 0.6980 0.6930 0.6900 0.6880 0.6840
10.509080 0.6830 0.6810 0.6780 0.6720 0.6710
10.543000 0.6710 0.6720 0.6760 0.6790 0.6810
10.577080 0.6860 0.6910 0.6950 0.6980 0.7020
10.611000 0.7070 0.7100 0.7120 0.7150 0.7200
10.645080 0.7260 0.7310 0.7380 0.7430 0.7480
10.679000 0.7500 0.7510 0.7550 0.7600 0.7630
10.713080 0.7700 0.7750 0.7820 0.7870 0.7960
10.747000 0.8010 0.8010 0.8030 0.8030 0.8060
10.781080 0.8110 0.8110 0.8130 0.8160 0.8270
10.816000 0.8320 0.8320 0.8320 0.8320 0.8300
10.850080 0.8300 0.8280 0.8280 0.8250 0.8250
10.884000 0.8210 0.8200 0.8200 0.8210 0.8230
10.918080 0.8250 0.8280 0.8280 0.8300 0.8300
10.952000 0.8300 0.8320 0.8320 0.8330 0.8330
10.986080 0.8350 0.8350 0.8370 0.8390 0.8400
11.020000 0.8390 0.8390 0.8330 0.8300 0.8300
11.054080 0.8270 0.8210 0.8180 0.8150 0.8150
11.088000 0.8130 0.8130 0.8130 0.8110 0.8110
11.122080 0.8060 0.8030 0.8010 0.7990 0.7940
11.156000 0.7910 0.7910 0.7890 0.7820 0.7770
11.190080 0.7750 0.7670 0.7610 0.7630 0.7650
11.224000 0.7680 0.7700 0.7720 0.7730 0.7750
11.258080 0.7790 0.7820 0.7850 0.7970 0.8010
11.292000 0.8030 0.8080 0.8110 0.8130 0.8200
11.326080 0.8230 0.8280 0.8280 0.8280 0.8280
11.361000 0.8270 0.8250 0.8250 0.8250 0.8270
11.395080 0.8270 0.8230 0.8210 0.8200 0.8200
11.429000 0.8210 0.8210 0.8210 0.8200 0.8200
11.463080 0.8200 0.8180 0.8180 0.8150 0.8130
11.497000 0.8150 0.8150 0.8130 0.8110 0.8060
11.531080 0.7990 0.7970 0.7920 0.7910 0.7840
11.565000 0.7790 0.7730 0.7650 0.7560 0.7460
11.599080 0.7360 0.7240 0.7120 0.7000 0.6880
11.633000 0.6760 0.6620 0.6480 0.6350 0.6210
11.667080 0.6070 0.5940 0.5800 0.5660 0.5510
11.701000 0.5340 0.5180 0.5050 0.4860 0.4600
11.735080 0.4410 0.4210 0.4020 0.3830 0.3690
11.769000 0.3540 0.3400 0.3270 0.3130 0.2960
11.803080 0.2770 0.2680 0.2600 0.2580 0.2580
11.837000 0.2610 0.2670 0.2770 0.2850 0.3030
11.871080 0.3210 0.3420 0.3660 0.3930 0.4170
11.906000 0.4550 0.4760 0.5080 0.5370 0.5630
11.940080 0.5850 0.6070 0.6260 0.6420 0.6570
11.974000 0.6690 0.6790 0.6880 0.6960 0.7080
12.008080 0.7150 0.7220 0.7260 0.7310 0.7360
12.042000 0.7390 0.7460 0.7500 0.7530 0.7530
12.076080 0.7580 0.7650 0.7680 0.7680 0.7700
12.110000 0.7750 0.7790 0.7800 0.7820 0.7840
12.144080 0.7850 0.7850 0.7870 0.7870 0.7910
12.178000 0.7920 0.7970 0.7990 0.8010 0.8010
12.212080 0.8040 0.8040 0.8060 0.8060 0.8080
12.246000 0.8080 0.8090 0.8110 0.8110 0.8130
12.280080 0.8180 0.8180 0.8180 0.8200 0.8200
12.314000 0.8200 0.8210 0.8210 0.8210 0.8230
12.348080 0.8230 0.8230 0.8270 0.8270 0.8280
12.382000 0.8300 0.8300 0.8320 0.8320 0.8320
12.416080 0.8330 0.8330 0.8330 0.8350 0.8390
12.451000 0.8390 0.8390 0.8390 0.8370 0.8350
12.485080 0.8350 0.8330 0.8320 0.8280 0.8250
12.519000 0.8230 0.8210 0.8200 0.8160 0.8110
12.553080 0.8060 0.8030 0.8030 0.7990 0.7960
12.587000 0.7870 0.7850 0.7790 0.7720 0.7650
12.621080 0.7560 0.7550 0.7530 0.7510 0.7480
12.655000 0.7440 0.7410 0.7390 0.7340 0.7320
12.689080 0.7260 0.7220 0.7150 0.7100 0.7050
12.723000 0.7020 0.6960 0.6910 0.6900 0.6810
12.757080 0.6790 0.6790 0.6790 0.6790 0.6790
12.791000 0.6810 0.6830 0.6830 0.6830 0.6830
12.825080 0.6810 0.6810 0.6810 0.6830 0.6840
12.859000 0.6840 0.6860 0.6880 0.6900 0.6900
12.893080 0.6900 0.6880 0.6740 0.6660 0.6550
12.927000 0.6470 0.6350 0.6180 0.6010 0.5870
12.961080 0.5590 0.5390 0.5200 0.5000 0.4910
12.996000 0.4880 0.4620 0.4600 0.4620 0.4820
13.030080 0.4860 0.5080 0.5220 0.5440 0.5700
13.064000 0.5940 0.6160 0.6350 0.6540 0.6710
13.098080 0.6860 0.6980 0.7120 0.7220 0.7320
13.132000 0.7410 0.7460 0.7510 0.7530 0.7560
13.166080 0.7600 0.7630 0.7670 0.7700 0.7750
13.200000 0.7770 0.7770 0.7770 0.7770 0.7770
13.234080 0.7770 0.7770 0.7700 0.7650 0.7610
13.268000 0.7580 0.7580 0.7550 0.7510 0.7480
13.302080 0.7440 0.7380 0.7340 0.7290 0.7240
13.336000 0.7220 0.7170 0.7100 0.7050 0.7000
13.370080 0.6960 0.6930 0.6900 0.6900 0.6880
13.404000 0.6860 0.6860 0.6810 0.6780 0.6760
13.438080 0.6740 0.6740 0.6720 0.6670 0.6660
13.473000 0.6640 0.6640 0.6660 0.6670 0.6710
13.507080 0.6710 0.6710 0.6690 0.6670 0.6620
13.541000 0.6600 0.6550 0.6500 0.6430 0.6350
13.575080 0.6280 0.6280 0.6250 0.6180 0.6090
13.609000 0.5970 0.5870 0.5750 0.5630 0.5530
13.643080 0.5460 0.5390 0.5340 0.5250 0.5180
13.677000 0.5130 0.5080 0.5060 0.5060 0.5060
13.711080 0.5060 0.5080 0.5100 0.5170 0.5270
13.745000 0.5410 0.5610 0.5750 0.5900 0.6090
13.779080 0.6260 0.6350 0.6430 0.6540 0.6710
13.813000 0.6930 0.7070 0.7170 0.7260 0.7360
13.847080 0.7460 0.7580 0.7720 0.7770 0.7840
13.881000 0.7870 0.7920 0.7960 0.8030 0.8080
13.915080 0.8130 0.8200 0.8250 0.8280 0.8330
13.949000 0.8390 0.8390 0.8400 0.8420 0.8450
13.983080 0.8510 0.8520 0.8540 0.8570 0.8590
14.018000 0.8590 0.8590 0.8590 0.8590 0.8590
14.052080 0.8610 0.8610 0.8610 0.8610 0.8630
14.086000 0.8640 0.8660 0.8680 0.8690 0.8690
14.120080 0.8730 0.8730 0.8730 0.8730 0.8730
14.154000 0.8730 0.8710 0.8710 0.8680 0.8690
14.188080 0.8780 0.8780 0.8800 0.8800 0.8750
14.222000 0.8710 0.8680 0.8680 0.8710 0.8780
14.256080 0.8780 0.8760 0.8750 0.8750 0.8730
14.290000 0.8730 0.8730 0.8730 0.8730 0.8730
14.324080 0.8750 0.8750 0.8760 0.8780 0.8800
14.358000 0.8800 0.8800 0.8800 0.8800 0.8800
14.392080 0.8800 0.8800 0.8780 0.8780 0.8760
14.426000 0.8760 0.8750 0.8710 0.8710 0.8710
14.460080 0.8750 0.8760 0.8780 0.8780 0.8780
14.494000 0.8800 0.8800 0.8810 0.8800 0.8780
14.528080 0.8760 0.8750 0.8710 0.8710 0.8710
14.563000 0.8760 0.8760 0.8760 0.8760 0.8780
14.597080 0.8830 0.8860 0.8860 0.8830 0.8810
14.631000 0.8760 0.8710 0.8710 0.8750 0.8780
14.665080 0.8800 0.8810 0.8800 0.8780 0.8760
14.699000 0.8760 0.8760 0.8760 0.8780 0.8800
14.733080 0.8810 0.8800 0.8800 0.8800 0.8800
14.767000 0.8760 0.8750 0.8750 0.8710 0.8710
14.801080 0.8710 0.8710 0.8780 0.8780 0.8780
14.835000 0.8780 0.8780 0.8780 0.8760 0.8730
14.869080 0.8730 0.8730 0.8730 0.8730 0.8730
14.903000 0.8730 0.8730 0.8730 0.8730 0.8750
14.937080 0.8730 0.8730 0.8710 0.8660 0.8640
14.971000 0.8590 0.8540 0.8510 0.8470 0.8400
15.005080 0.8320 0.8250 0.8200 0.8160 0.8150
15.039000 0.8150 0.8130 0.8110 0.8090 0.8110
15.073080 0.8130 0.8180 0.8210 0.8250 0.8270
15.108000 0.8350 0.8390 0.8390 0.8390 0.8400
15.142080 0.8440 0.8520 0.8570 0.8570 0.8570
15.176000 0.8540 0.8520 0.8510 0.8510 0.8490
15.210080 0.8470 0.8470 0.8470 0.8440 0.8400
15.244000 0.8400 0.8400 0.8400 0.8400 0.8400
15.278080 0.8420 0.8420 0.8400 0.8400 0.8390
15.312000 0.8400 0.8390 0.8390 0.8370 0.8330
15.346080 0.8330 0.8320 0.8300 0.8300 0.8300
15.380000 0.8280 0.8270 0.8270 0.8280 0.8280
15.414080 0.8270 0.8270 0.8270 0.8270 0.8270
15.448000 0.8250 0.8250 0.8250 0.8250 0.8250
15.482080 0.8230 0.8230 0.8210 0.8210 0.8200
15.516000 0.8180 0.8180 0.8150 0.8150 0.8160
15.550080 0.8160 0.8160 0.8160 0.8180 0.8180
15.584000 0.8180 0.8180 0.8160 0.8160 0.8160
15.618080 0.8130 0.8090 0.8080 0.8060 0.8090
15.653000 0.8350 0.8280 0.8110 0.8010 0.7990
15.687080 0.7990 0.7990 0.7990 0.7990 0.7990
15.721000 0.7990 0.8040 0.8040 0.8030 0.8030
15.755080 0.8030 0.8030 0.8010 0.7990 0.7940
15.789000 0.7890 0.7890 0.7890 0.7910 0.7910
15.823080 0.7910 0.7890 0.7870 0.7850 0.7800
15.857000 0.7790 0.7770 0.7770 0.7750 0.7750
15.891080 0.7730 0.7730 0.7730 0.7720 0.7700
15.925000 0.7700 0.7700 0.7700 0.7680 0.7680
15.959080 0.7680 0.7670 0.7600
##END=
