##TITLE=2-(N-METHYLANILINO)-3-BENZYL PYRAZINE
##JCAMP-DX=4.24
##DATA TYPE=INFRARED SPECTRUM
##CLASS=COBLENTZ
##ORIGIN=WYANDOTTE CHEMICALS CORP., WYANDOTTE, MICHIGAN, USA
##OWNER=COBLENTZ SOCIETY
Collection (C) 2018 copyright by the U.S. Secretary of Commerce
on behalf of the United States of America. All rights reserved.
##DATE=Not specified, most likely prior to 1970
##NAMES=N-(3-benzyl-2-pyrazinyl)-N-methyl-N-phenylamine
3-benzyl-N-methyl-N-phenyl-2-pyrazinamine
##CAS REGISTRY NO=116660-02-7
##MOLFORM=C18 H17 N3
##SOURCE REFERENCE=COBLENTZ NO. 2865
##$NIST SOURCE=COBLENTZ
##$NIST IMAGE=cob2865
##SPECTROMETER/DATA SYSTEM=Not specified, most likely a prism, grating, or hybrid spectrometer.
##STATE=LIQUID
##PATH LENGTH=0.0015 CM
##SAMPLING PROCEDURE=TRANSMISSION
##RESOLUTION=4
##DATA PROCESSING=DIGITIZED BY NIST FROM HARD COPY
##XUNITS=MICROMETERS
##YUNITS=TRANSMITTANCE
##XFACTOR=1.000000
##YFACTOR=1
##DELTAX=000.006635
##FIRSTX=2.04
##LASTX=15.9796
##FIRSTY=0.961
##MAXX=15.9796
##MINX=2.04
##MAXY=0.98
##MINY=0.056
##NPOINTS=2102
##XYDATA=(X++(Y..Y))
2.040000 0.9610 0.9600 0.9580 0.9560 0.9560
2.073191 0.9580 0.9580 0.9580 0.9580 0.9600
2.106000 0.9600 0.9610 0.9630 0.9650 0.9650
2.139191 0.9650 0.9630 0.9610 0.9600 0.9550
2.173000 0.9550 0.9530 0.9530 0.9510 0.9510
2.206191 0.9510 0.9500 0.9500 0.9500 0.9500
2.239000 0.9500 0.9510 0.9510 0.9510 0.9510
2.272191 0.9510 0.9530 0.9530 0.9530 0.9530
2.305000 0.9530 0.9530 0.9510 0.9500 0.9480
2.338191 0.9480 0.9480 0.9450 0.9410 0.9330
2.372000 0.9160 0.9130 0.9110 0.9110 0.9130
2.405191 0.9180 0.9230 0.9300 0.9350 0.9350
2.438000 0.9430 0.9430 0.9450 0.9450 0.9450
2.471191 0.9430 0.9410 0.9410 0.9430 0.9430
2.504000 0.9430 0.9450 0.9500 0.9510 0.9530
2.537191 0.9530 0.9530 0.9560 0.9610 0.9700
2.571000 0.9730 0.9730 0.9700 0.9530 0.9510
2.604191 0.9500 0.9500 0.9510 0.9600 0.9730
2.637000 0.9780 0.9800 0.9800 0.9780 0.9710
2.670191 0.9700 0.9700 0.9680 0.9680 0.9680
2.703000 0.9660 0.9660 0.9650 0.9630 0.9630
2.736191 0.9630 0.9630 0.9630 0.9630 0.9630
2.770000 0.9610 0.9560 0.9510 0.9460 0.9430
2.803191 0.9400 0.9350 0.9310 0.9300 0.9300
2.836000 0.9280 0.9280 0.9200 0.9150 0.9110
2.869191 0.9100 0.9030 0.9010 0.9000 0.8970
2.902000 0.8920 0.8900 0.8900 0.8880 0.8880
2.935191 0.8870 0.8870 0.8870 0.8850 0.8830
2.969000 0.8800 0.8780 0.8700 0.8700 0.8670
3.002191 0.8650 0.8650 0.8630 0.8630 0.8630
3.035000 0.8630 0.8620 0.8620 0.8620 0.8620
3.068191 0.8620 0.8600 0.8580 0.8580 0.8570
3.101000 0.8570 0.8530 0.8530 0.8530 0.8530
3.134191 0.8530 0.8530 0.8520 0.8520 0.8500
3.168000 0.8500 0.8430 0.8350 0.8300 0.8080
3.201191 0.7800 0.7400 0.6910 0.6470 0.5880
3.234000 0.5410 0.5000 0.4560 0.3750 0.3530
3.267191 0.3320 0.3300 0.3320 0.3770 0.4360
3.300000 0.4980 0.5810 0.6010 0.6060 0.6060
3.333191 0.6020 0.5880 0.5680 0.5490 0.5430
3.367000 0.5410 0.5360 0.5290 0.5190 0.5090
3.400191 0.5040 0.5000 0.4980 0.5000 0.5110
3.433000 0.5210 0.5380 0.5560 0.5810 0.6110
3.466191 0.6360 0.6570 0.6670 0.6760 0.6820
3.500000 0.6910 0.6970 0.7050 0.7170 0.7300
3.533191 0.7450 0.7550 0.7690 0.7820 0.7950
3.566000 0.8070 0.8170 0.8280 0.8400 0.8480
3.599191 0.8580 0.8670 0.8720 0.8800 0.8800
3.632000 0.8820 0.8830 0.8830 0.8850 0.8870
3.665191 0.8870 0.8880 0.8900 0.8930 0.8980
3.699000 0.9000 0.9030 0.9060 0.9060 0.9060
3.732191 0.9060 0.9050 0.9030 0.9030 0.9010
3.765000 0.9010 0.9000 0.8980 0.8950 0.8950
3.798191 0.8930 0.8930 0.8930 0.8930 0.8930
3.831000 0.8930 0.8930 0.8930 0.8950 0.8950
3.864191 0.8980 0.8980 0.8980 0.8970 0.8970
3.898000 0.8970 0.8970 0.8970 0.9000 0.9010
3.931191 0.9080 0.9080 0.9100 0.9110 0.9110
3.964000 0.9110 0.9110 0.9110 0.9110 0.9130
3.997191 0.9150 0.9160 0.9180 0.9180 0.9180
4.030000 0.9180 0.9160 0.9150 0.9150 0.9100
4.063191 0.9080 0.9080 0.9100 0.9180 0.9180
4.097000 0.9150 0.9110 0.9100 0.9100 0.9080
4.130191 0.9080 0.9060 0.9060 0.9060 0.9060
4.163000 0.9050 0.9050 0.9050 0.9030 0.9030
4.196191 0.9030 0.9010 0.9010 0.9000 0.8970
4.229000 0.8880 0.8850 0.8820 0.8800 0.8820
4.262191 0.8900 0.8970 0.9030 0.9100 0.9180
4.296000 0.9200 0.9230 0.9280 0.9280 0.9300
4.329191 0.9330 0.9360 0.9410 0.9480 0.9510
4.362000 0.9510 0.9530 0.9530 0.9510 0.9460
4.395191 0.9450 0.9430 0.9380 0.9330 0.9310
4.428000 0.9310 0.9310 0.9300 0.9300 0.9300
4.461191 0.9310 0.9310 0.9310 0.9310 0.9310
4.495000 0.9310 0.9300 0.9300 0.9310 0.9310
4.528191 0.9310 0.9310 0.9310 0.9310 0.9310
4.561000 0.9300 0.9300 0.9310 0.9330 0.9330
4.594191 0.9330 0.9350 0.9350 0.9360 0.9360
4.627000 0.9350 0.9350 0.9310 0.9300 0.9300
4.660191 0.9300 0.9310 0.9310 0.9330 0.9330
4.694000 0.9310 0.9310 0.9310 0.9330 0.9350
4.727191 0.9360 0.9380 0.9400 0.9400 0.9400
4.760000 0.9380 0.9380 0.9360 0.9350 0.9350
4.793191 0.9350 0.9350 0.9330 0.9330 0.9330
4.827000 0.9310 0.9310 0.9310 0.9310 0.9330
4.860191 0.9330 0.9330 0.9330 0.9330 0.9350
4.893000 0.9350 0.9360 0.9380 0.9380 0.9400
4.926191 0.9410 0.9410 0.9410 0.9410 0.9410
4.959000 0.9430 0.9430 0.9410 0.9400 0.9400
4.992191 0.9400 0.9380 0.9360 0.9350 0.9330
5.026000 0.9300 0.9280 0.9250 0.9210 0.9130
5.059191 0.9100 0.9100 0.9080 0.9050 0.9030
5.092000 0.9000 0.8970 0.8880 0.8830 0.8820
5.125191 0.8720 0.8650 0.8550 0.8470 0.8370
5.158000 0.8300 0.8220 0.8180 0.8170 0.8170
5.191191 0.8200 0.8270 0.8370 0.8420 0.8470
5.225000 0.8500 0.8580 0.8620 0.8630 0.8630
5.258191 0.8630 0.8630 0.8620 0.8600 0.8580
5.291000 0.8580 0.8570 0.8570 0.8550 0.8530
5.324191 0.8530 0.8520 0.8520 0.8520 0.8520
5.357000 0.8530 0.8570 0.8620 0.8650 0.8670
5.390191 0.8680 0.8680 0.8720 0.8750 0.8770
5.424000 0.8780 0.8800 0.8800 0.8800 0.8800
5.457191 0.8800 0.8770 0.8720 0.8680 0.8650
5.490000 0.8630 0.8630 0.8620 0.8570 0.8430
5.523191 0.8330 0.8320 0.8280 0.8220 0.8180
5.556000 0.8170 0.8180 0.8220 0.8270 0.8300
5.589191 0.8330 0.8350 0.8380 0.8350 0.8330
5.623000 0.8280 0.8220 0.8200 0.8220 0.8300
5.656191 0.8330 0.8350 0.8350 0.8330 0.8300
5.689000 0.8230 0.8170 0.8150 0.8130 0.8120
5.722191 0.8120 0.8120 0.8100 0.8100 0.8100
5.755000 0.8080 0.8050 0.7950 0.7800 0.7700
5.788191 0.7690 0.7690 0.7800 0.7820 0.7840
5.822000 0.7800 0.7690 0.7550 0.7500 0.7490
5.855191 0.7450 0.7450 0.7440 0.7440 0.7420
5.888000 0.7400 0.7390 0.7370 0.7370 0.7350
5.921191 0.7350 0.7340 0.7320 0.7320 0.7300
5.955000 0.7290 0.7270 0.7250 0.7250 0.7240
5.988191 0.7250 0.7200 0.7150 0.7120 0.7090
6.021000 0.7090 0.7100 0.7120 0.7120 0.7100
6.054191 0.7090 0.7000 0.6920 0.6890 0.6860
6.087000 0.6770 0.6610 0.6470 0.6370 0.6190
6.120191 0.5940 0.5640 0.5260 0.5040 0.4810
6.154000 0.4260 0.3580 0.3000 0.2320 0.1220
6.187191 0.1110 0.1090 0.1110 0.1290 0.1660
6.220000 0.1960 0.2170 0.2700 0.2720 0.2720
6.253191 0.2520 0.2500 0.2520 0.2790 0.3030
6.286000 0.3430 0.3820 0.4010 0.4160 0.4260
6.319191 0.4310 0.4330 0.4330 0.4330 0.4300
6.353000 0.4300 0.4310 0.4430 0.4510 0.4660
6.386191 0.4760 0.4900 0.5110 0.5110 0.5110
6.419000 0.5110 0.5090 0.5040 0.5000 0.4860
6.452191 0.4580 0.3950 0.3400 0.2770 0.2170
6.485000 0.1640 0.1320 0.1310 0.1310 0.1320
6.518191 0.1360 0.1420 0.1520 0.1660 0.1820
6.552000 0.1990 0.2170 0.2500 0.2520 0.2520
6.585191 0.2500 0.1860 0.1170 0.0960 0.0780
6.618000 0.0740 0.0710 0.0690 0.0680 0.0680
6.651191 0.0710 0.0880 0.1020 0.1190 0.1340
6.684000 0.1490 0.1660 0.1860 0.1910 0.1910
6.717191 0.1910 0.1860 0.1810 0.1760 0.1660
6.751000 0.1540 0.1470 0.1410 0.1390 0.1390
6.784191 0.1410 0.1410 0.1420 0.1420 0.1370
6.817000 0.1340 0.1040 0.0940 0.0930 0.0930
6.850191 0.0940 0.0940 0.0980 0.0980 0.0960
6.883000 0.0960 0.0940 0.0930 0.0910 0.0910
6.916191 0.0890 0.0830 0.0690 0.0660 0.0640
6.950000 0.0660 0.0680 0.0830 0.0980 0.1070
6.983191 0.1360 0.1520 0.1620 0.1770 0.1940
7.016000 0.2090 0.2400 0.2400 0.2200 0.2090
7.049191 0.1760 0.1420 0.1070 0.0930 0.0780
7.082000 0.0710 0.0640 0.0630 0.0590 0.0590
7.115191 0.0580 0.0580 0.0580 0.0560 0.0560
7.149000 0.0580 0.0580 0.0590 0.0590 0.0610
7.182191 0.0630 0.0680 0.0730 0.0790 0.0860
7.215000 0.0910 0.0980 0.1070 0.1170 0.1320
7.248191 0.1470 0.1520 0.1620 0.1670 0.1790
7.282000 0.1970 0.2170 0.2400 0.2620 0.2840
7.315191 0.2990 0.3120 0.3150 0.3180 0.3120
7.348000 0.3000 0.2800 0.2520 0.2300 0.2100
7.381191 0.1970 0.1860 0.1820 0.1810 0.1820
7.414000 0.2000 0.2150 0.2250 0.2350 0.2470
7.447191 0.2600 0.2640 0.2640 0.2500 0.2470
7.481000 0.2420 0.2400 0.2400 0.2420 0.2540
7.514191 0.2620 0.2750 0.2900 0.2970 0.3020
7.547000 0.3050 0.3130 0.3280 0.3400 0.3430
7.580191 0.3430 0.3400 0.3300 0.3230 0.3170
7.613000 0.3100 0.3050 0.2950 0.2870 0.2820
7.646191 0.2800 0.2800 0.2820 0.2870 0.2900
7.680000 0.2940 0.2970 0.3020 0.3070 0.3150
7.713191 0.3200 0.3230 0.3280 0.3330 0.3470
7.746000 0.3550 0.3650 0.3700 0.3750 0.3800
7.779191 0.3830 0.3880 0.3900 0.3920 0.3900
7.812000 0.3880 0.3850 0.3800 0.3780 0.3750
7.845191 0.3650 0.3580 0.3500 0.3430 0.3350
7.879000 0.3250 0.3150 0.3100 0.3020 0.3020
7.912191 0.3000 0.3000 0.3000 0.3000 0.3030
7.945000 0.3070 0.3130 0.3180 0.3230 0.3300
7.978191 0.3320 0.3330 0.3370 0.3380 0.3430
8.011000 0.3570 0.3770 0.3970 0.4110 0.4310
8.044191 0.4450 0.4600 0.4760 0.4950 0.5290
8.078000 0.5430 0.5540 0.5630 0.5660 0.5690
8.111191 0.5690 0.5690 0.5610 0.5480 0.5260
8.144000 0.5140 0.5060 0.4980 0.4760 0.4550
8.177191 0.4300 0.4060 0.3870 0.3700 0.3580
8.210000 0.3470 0.3420 0.3370 0.3300 0.3270
8.243191 0.3200 0.3170 0.3020 0.2900 0.2890
8.277000 0.2890 0.2900 0.2920 0.2950 0.2970
8.310191 0.2990 0.2990 0.2950 0.2920 0.2900
8.343000 0.2840 0.2770 0.2720 0.2700 0.2700
8.376191 0.2640 0.2590 0.2500 0.2470 0.2400
8.409000 0.2390 0.2340 0.2300 0.2300 0.2290
8.442191 0.2290 0.2250 0.2220 0.2220 0.2200
8.476000 0.2200 0.2220 0.2300 0.2420 0.2470
8.509191 0.2520 0.2570 0.2670 0.2840 0.2950
8.542000 0.3020 0.3070 0.3130 0.3180 0.3220
8.575191 0.3230 0.3250 0.3250 0.3030 0.2820
8.609000 0.2650 0.2520 0.2390 0.2220 0.2170
8.642191 0.2150 0.2140 0.2040 0.1890 0.1710
8.675000 0.1540 0.1370 0.1210 0.1090 0.1020
8.708191 0.0990 0.0940 0.0930 0.0910 0.0910
8.741000 0.0930 0.1010 0.1070 0.1140 0.1210
8.774191 0.1290 0.1340 0.1410 0.1420 0.1520
8.808000 0.1610 0.1660 0.1710 0.1810 0.1810
8.841191 0.1840 0.1840 0.1840 0.1820 0.1790
8.874000 0.1710 0.1660 0.1570 0.1510 0.1420
8.907191 0.1410 0.1410 0.1410 0.1420 0.1520
8.940000 0.1640 0.1760 0.1910 0.2050 0.2240
8.973191 0.2400 0.2600 0.2790 0.2990 0.3200
9.007000 0.3400 0.3600 0.3820 0.4000 0.4210
9.040191 0.4400 0.4610 0.4810 0.5240 0.5360
9.073000 0.5510 0.5660 0.5740 0.5810 0.5890
9.106191 0.5960 0.5980 0.6040 0.6070 0.6040
9.139000 0.5960 0.5860 0.5760 0.5630 0.5480
9.172191 0.5330 0.5190 0.5060 0.5000 0.4910
9.206000 0.4780 0.4630 0.4480 0.4360 0.4300
9.239191 0.4210 0.4130 0.4010 0.3900 0.3730
9.272000 0.3670 0.3630 0.3620 0.3630 0.3670
9.305191 0.3780 0.4010 0.4210 0.4380 0.4560
9.338000 0.4800 0.5240 0.5440 0.5580 0.5690
9.371191 0.5730 0.5780 0.5790 0.5790 0.5790
9.405000 0.5790 0.5780 0.5680 0.5630 0.5590
9.438191 0.5580 0.5530 0.5510 0.5490 0.5490
9.471000 0.5510 0.5540 0.5610 0.5660 0.5690
9.504191 0.5790 0.5910 0.6040 0.6160 0.6260
9.537000 0.6370 0.6470 0.6570 0.6660 0.6770
9.570191 0.6810 0.6870 0.6870 0.6860 0.6860
9.604000 0.6840 0.6790 0.6760 0.6610 0.6390
9.637191 0.6090 0.5740 0.5380 0.5180 0.4980
9.670000 0.4600 0.4210 0.4060 0.3970 0.3950
9.703191 0.3970 0.4260 0.4460 0.4660 0.4880
9.736000 0.5340 0.5580 0.5760 0.5990 0.6160
9.769191 0.6270 0.6340 0.6410 0.6510 0.6540
9.803000 0.6560 0.6570 0.6570 0.6570 0.6570
9.836191 0.6590 0.6620 0.6670 0.6710 0.6770
9.869000 0.6820 0.6820 0.6810 0.6790 0.6770
9.902191 0.6710 0.6670 0.6640 0.6540 0.6510
9.936000 0.6440 0.6340 0.6220 0.6020 0.5910
9.969191 0.5810 0.5780 0.5760 0.5810 0.5930
10.002000 0.6010 0.6120 0.6240 0.6320 0.6390
10.035191 0.6390 0.6410 0.6420 0.6420 0.6410
10.068000 0.6410 0.6390 0.6390 0.6360 0.6320
10.101191 0.6310 0.6290 0.6290 0.6270 0.6270
10.135000 0.6290 0.6360 0.6420 0.6510 0.6560
10.168191 0.6620 0.6710 0.6770 0.6890 0.6970
10.201000 0.7050 0.7120 0.7150 0.7200 0.7270
10.234191 0.7290 0.7340 0.7420 0.7490 0.7500
10.267000 0.7500 0.7500 0.7500 0.7500 0.7490
10.300191 0.7470 0.7450 0.7450 0.7450 0.7450
10.334000 0.7450 0.7450 0.7470 0.7470 0.7470
10.367191 0.7490 0.7490 0.7490 0.7490 0.7490
10.400000 0.7500 0.7520 0.7550 0.7590 0.7600
10.433191 0.7640 0.7670 0.7700 0.7720 0.7720
10.466000 0.7750 0.7770 0.7790 0.7790 0.7840
10.499191 0.7870 0.7900 0.7920 0.7940 0.7950
10.533000 0.7950 0.7970 0.7970 0.7990 0.7990
10.566191 0.7990 0.7970 0.7970 0.7970 0.7950
10.599000 0.7940 0.7900 0.7890 0.7840 0.7820
10.632191 0.7770 0.7700 0.7640 0.7520 0.7390
10.665000 0.7240 0.7020 0.6770 0.6570 0.6410
10.698191 0.6260 0.6040 0.5910 0.5760 0.5630
10.732000 0.5590 0.5580 0.5590 0.5610 0.5680
10.765191 0.5780 0.5940 0.5980 0.6020 0.6110
10.798000 0.6210 0.6310 0.6390 0.6470 0.6510
10.831191 0.6610 0.6670 0.6670 0.6690 0.6710
10.864000 0.6720 0.6720 0.6740 0.6720 0.6720
10.897191 0.6710 0.6690 0.6540 0.6440 0.6320
10.931000 0.6220 0.6110 0.6010 0.5860 0.5690
10.964191 0.5480 0.5280 0.5060 0.5010 0.4960
10.997000 0.4910 0.4830 0.4750 0.4710 0.4700
11.030191 0.4710 0.4760 0.4800 0.4830 0.4900
11.064000 0.4960 0.5000 0.5090 0.5130 0.5180
11.097191 0.5190 0.5260 0.5290 0.5340 0.5390
11.130000 0.5440 0.5510 0.5610 0.5690 0.5790
11.163191 0.5880 0.5930 0.6040 0.6110 0.6170
11.196000 0.6240 0.6310 0.6370 0.6420 0.6470
11.229191 0.6540 0.6610 0.6690 0.6720 0.6770
11.263000 0.6790 0.6810 0.6820 0.6870 0.6870
11.296191 0.6890 0.6910 0.6940 0.6960 0.6960
11.329000 0.6970 0.6970 0.6990 0.6990 0.7000
11.362191 0.7000 0.7000 0.7020 0.7020 0.7020
11.395000 0.7020 0.7040 0.7070 0.7120 0.7140
11.428191 0.7150 0.7150 0.7170 0.7190 0.7190
11.462000 0.7190 0.7190 0.7190 0.7170 0.7170
11.495191 0.7140 0.7090 0.7090 0.7070 0.7070
11.528000 0.7040 0.6940 0.6870 0.6810 0.6770
11.561191 0.6720 0.6690 0.6640 0.6570 0.6540
11.594000 0.6460 0.6340 0.6260 0.6170 0.6140
11.627191 0.5990 0.5880 0.5780 0.5710 0.5640
11.661000 0.5580 0.5490 0.5390 0.5380 0.5310
11.694191 0.5240 0.5180 0.5110 0.5080 0.5040
11.727000 0.5000 0.4930 0.4900 0.4900 0.4880
11.760191 0.4880 0.4880 0.4860 0.4850 0.4810
11.793000 0.4800 0.4780 0.4780 0.4800 0.4800
11.826191 0.4810 0.4830 0.4860 0.4860 0.4880
11.860000 0.4900 0.4900 0.4960 0.5000 0.5080
11.893191 0.5110 0.5130 0.5180 0.5240 0.5310
11.926000 0.5380 0.5410 0.5480 0.5490 0.5590
11.959191 0.5640 0.5660 0.5690 0.5710 0.5760
11.992000 0.5860 0.5890 0.5930 0.5940 0.6010
12.025191 0.6010 0.6020 0.6090 0.6140 0.6190
12.059000 0.6240 0.6270 0.6310 0.6360 0.6460
12.092191 0.6510 0.6520 0.6610 0.6660 0.6720
12.125000 0.6790 0.6870 0.6970 0.6990 0.7000
12.158191 0.7020 0.7050 0.7120 0.7170 0.7200
12.191000 0.7240 0.7250 0.7270 0.7300 0.7340
12.224191 0.7370 0.7370 0.7370 0.7390 0.7390
12.258000 0.7400 0.7420 0.7470 0.7490 0.7490
12.291191 0.7500 0.7540 0.7570 0.7590 0.7600
12.324000 0.7670 0.7670 0.7690 0.7690 0.7700
12.357191 0.7700 0.7720 0.7720 0.7720 0.7740
12.391000 0.7740 0.7740 0.7740 0.7740 0.7720
12.424191 0.7720 0.7720 0.7720 0.7720 0.7740
12.457000 0.7740 0.7740 0.7740 0.7740 0.7770
12.490191 0.7790 0.7800 0.7820 0.7840 0.7850
12.523000 0.7870 0.7890 0.7890 0.7890 0.7890
12.556191 0.7890 0.7890 0.7870 0.7870 0.7870
12.590000 0.7850 0.7820 0.7820 0.7800 0.7790
12.623191 0.7790 0.7740 0.7620 0.7590 0.7540
12.656000 0.7500 0.7450 0.7370 0.7290 0.7200
12.689191 0.7120 0.7040 0.6990 0.6920 0.6840
12.722000 0.6760 0.6670 0.6570 0.6460 0.6360
12.755191 0.6240 0.6140 0.6040 0.5940 0.5840
12.789000 0.5780 0.5680 0.5610 0.5560 0.5510
12.822191 0.5490 0.5480 0.5440 0.5410 0.5390
12.855000 0.5340 0.5330 0.5260 0.5140 0.5030
12.888191 0.4960 0.4900 0.4780 0.4660 0.4550
12.921000 0.4450 0.4260 0.4160 0.4050 0.3950
12.954191 0.3750 0.3550 0.3430 0.3250 0.3180
12.988000 0.3080 0.3000 0.2870 0.2740 0.2540
13.021191 0.2420 0.2320 0.2250 0.2150 0.2050
13.054000 0.1960 0.1860 0.1790 0.1710 0.1560
13.087191 0.1490 0.1440 0.1410 0.1320 0.1290
13.120000 0.1220 0.1190 0.1120 0.1090 0.1060
13.153191 0.1060 0.1020 0.1020 0.1010 0.0990
13.187000 0.0980 0.0960 0.0960 0.0960 0.0940
13.220191 0.0940 0.0940 0.0940 0.0960 0.0960
13.253000 0.0960 0.0990 0.1010 0.1010 0.1010
13.286191 0.1020 0.1060 0.1060 0.1110 0.1140
13.319000 0.1190 0.1210 0.1270 0.1310 0.1390
13.352191 0.1440 0.1510 0.1570 0.1640 0.1710
13.386000 0.1790 0.1870 0.1970 0.2070 0.2190
13.419191 0.2300 0.2350 0.2450 0.2500 0.2550
13.452000 0.2620 0.2700 0.2740 0.2790 0.2850
13.485191 0.2920 0.3000 0.3050 0.3120 0.3120
13.518000 0.3180 0.3250 0.3320 0.3380 0.3400
13.551191 0.3470 0.3480 0.3520 0.3580 0.3620
13.585000 0.3630 0.3650 0.3680 0.3750 0.3780
13.618191 0.3820 0.3850 0.3880 0.3920 0.3950
13.651000 0.3980 0.4000 0.4030 0.4150 0.4250
13.684191 0.4280 0.4310 0.4400 0.4500 0.4630
13.718000 0.4700 0.4810 0.4930 0.5140 0.5240
13.751191 0.5290 0.5390 0.5480 0.5510 0.5580
13.784000 0.5580 0.5610 0.5640 0.5680 0.5690
13.817191 0.5690 0.5690 0.5680 0.5660 0.5530
13.850000 0.5410 0.5390 0.5390 0.5390 0.5380
13.883191 0.5380 0.5380 0.5360 0.5360 0.5310
13.917000 0.5290 0.5290 0.5240 0.5180 0.5090
13.950191 0.5030 0.4960 0.4860 0.4760 0.4660
13.983000 0.4580 0.4460 0.4330 0.4180 0.4010
14.016191 0.3850 0.3700 0.3550 0.3400 0.3250
14.049000 0.3120 0.3020 0.2900 0.2750 0.2600
14.082191 0.2490 0.2390 0.2290 0.2170 0.2070
14.116000 0.1990 0.1870 0.1770 0.1660 0.1590
14.149191 0.1520 0.1470 0.1410 0.1410 0.1340
14.182000 0.1310 0.1290 0.1260 0.1210 0.1140
14.215191 0.1090 0.1040 0.1040 0.1020 0.1020
14.248000 0.1020 0.1010 0.1010 0.1010 0.0990
14.281191 0.0990 0.0990 0.0990 0.0980 0.0960
14.315000 0.0960 0.0960 0.0960 0.0960 0.0960
14.348191 0.0960 0.0960 0.0980 0.0990 0.0990
14.381000 0.1010 0.1020 0.1040 0.1040 0.1060
14.414191 0.1070 0.1070 0.1070 0.1090 0.1110
14.447000 0.1110 0.1110 0.1120 0.1190 0.1290
14.480191 0.1320 0.1340 0.1370 0.1420 0.1520
14.514000 0.1560 0.1670 0.1760 0.1940 0.2020
14.547191 0.2150 0.2290 0.2450 0.2550 0.2750
14.580000 0.2940 0.3130 0.3330 0.3530 0.3720
14.613191 0.3920 0.4100 0.4280 0.4450 0.4610
14.646000 0.4780 0.4930 0.5160 0.5340 0.5510
14.679191 0.5640 0.5760 0.5880 0.5890 0.5980
14.713000 0.6020 0.6110 0.6170 0.6260 0.6320
14.746191 0.6390 0.6420 0.6460 0.6490 0.6520
14.779000 0.6560 0.6590 0.6640 0.6670 0.6670
14.812191 0.6690 0.6690 0.6690 0.6690 0.6710
14.845000 0.6760 0.6770 0.6770 0.6770 0.6810
14.878191 0.6820 0.6840 0.6840 0.6860 0.6860
14.912000 0.6840 0.6820 0.6810 0.6810 0.6810
14.945191 0.6810 0.6790 0.6770 0.6770 0.6720
14.978000 0.6690 0.6640 0.6620 0.6590 0.6560
15.011191 0.6520 0.6510 0.6510 0.6510 0.6510
15.045000 0.6520 0.6560 0.6590 0.6610 0.6670
15.078191 0.6710 0.6760 0.6810 0.6870 0.6940
15.111000 0.7000 0.7000 0.7070 0.7090 0.7100
15.144191 0.7100 0.7120 0.7120 0.7120 0.7140
15.177000 0.7140 0.7150 0.7170 0.7170 0.7170
15.210191 0.7170 0.7170 0.7170 0.7170 0.7170
15.244000 0.7170 0.7170 0.7190 0.7190 0.7190
15.277191 0.7220 0.7240 0.7240 0.7250 0.7250
15.310000 0.7250 0.7250 0.7250 0.7270 0.7270
15.343191 0.7270 0.7270 0.7250 0.7240 0.7240
15.376000 0.7240 0.7240 0.7220 0.7220 0.7220
15.409191 0.7220 0.7220 0.7220 0.7200 0.7200
15.443000 0.7200 0.7190 0.7170 0.7170 0.7170
15.476191 0.7170 0.7150 0.7150 0.7150 0.7150
15.509000 0.7150 0.7140 0.7140 0.7140 0.7120
15.542191 0.7120 0.7120 0.7120 0.7100 0.7100
15.575000 0.7090 0.7070 0.7040 0.7020 0.7000
15.608191 0.6990 0.6960 0.6940 0.6940 0.6920
15.642000 0.6910 0.6890 0.6870 0.6860 0.6860
15.675191 0.6820 0.6770 0.6760 0.6690 0.6660
15.708000 0.6640 0.6640 0.6620 0.6620 0.6620
15.741191 0.6590 0.6590 0.6590 0.6570 0.6570
15.774000 0.6570 0.6560 0.6540 0.6510 0.6510
15.807191 0.6490 0.6470 0.6470 0.6460 0.6440
15.841000 0.6420 0.6410 0.6390 0.6390 0.6390
15.874191 0.6390 0.6410 0.6410 0.6410 0.6410
15.907000 0.6410 0.6390 0.6390 0.6370 0.6310
15.940191 0.6290 0.6270 0.6270 0.6260 0.6240
15.973000 0.6240 0.6240
##END=
