##TITLE=5-PHENYL-8-METHOXY-QUINOLINE
##JCAMP-DX=4.24
##DATA TYPE=INFRARED SPECTRUM
##CLASS=COBLENTZ
##ORIGIN=ANDERSON PHYSICAL LABORATORY
##OWNER=COBLENTZ SOCIETY
Collection (C) 2018 copyright by the U.S. Secretary of Commerce
on behalf of the United States of America. All rights reserved.
##DATE=Not specified, most likely prior to 1970
##NAMES=methyl 5-phenyl-8-quinolinyl ether
8-methoxy-5-phenylquinoline
##CAS REGISTRY NO=116633-03-5
##MOLFORM=C16 H13 N O
##SOURCE REFERENCE=COBLENTZ NO. 2589
##$NIST SOURCE=COBLENTZ
##$NIST IMAGE=cob2589
##SPECTROMETER/DATA SYSTEM=Not specified, most likely a prism, grating, or hybrid spectrometer.
##STATE=SOLID (1.0% IN KBr PELLET)
##PATH LENGTH=0.0355 CM THICK
##SAMPLING PROCEDURE=TRANSMISSION
##RESOLUTION=4
##DATA PROCESSING=DIGITIZED BY NIST FROM HARD COPY (FROM TWO SEGMENTS)
##XUNITS=1/CM
##YUNITS=TRANSMITTANCE
##XFACTOR=1.000000
##YFACTOR=1
##DELTAX=0.935164
##FIRSTX=667.394
##LASTX=3988.16
##FIRSTY=0.776
##MAXX=3988.16
##MINX=667.394
##MAXY=0.967
##MINY=0.233
##NPOINTS=3552
##XYDATA=(X++(Y..Y))
667.394000 0.7760 0.7760 0.7760 0.7750 0.7730
672.069821 0.7720 0.7700 0.7690 0.7630 0.7600
676.745643 0.7540 0.7520 0.7480 0.7400 0.7330
681.421464 0.7220 0.7101 0.6981 0.6851 0.6701
686.097286 0.6500 0.6370 0.6050 0.5780 0.5511
690.773107 0.5321 0.5270 0.5240 0.5260 0.5389
695.448928 0.5680 0.5680 0.5680 0.5301 0.5210
700.124750 0.4463 0.3504 0.3022 0.2592 0.2570
704.800571 0.2590 0.2690 0.2920 0.3250 0.3320
709.476392 0.3998 0.4668 0.5198 0.5319 0.5330
714.152214 0.5350 0.5360 0.5500 0.5750 0.6169
718.828035 0.7127 0.7728 0.8327 0.8529 0.8689
723.503857 0.8750 0.8750 0.8750 0.8750 0.8740
728.179678 0.8740 0.8740 0.8720 0.8710 0.8690
732.855499 0.8660 0.8630 0.8590 0.8570 0.8540
737.531321 0.8530 0.8510 0.8470 0.8420 0.8360
742.207142 0.8290 0.8210 0.8150 0.8050 0.8020
746.882964 0.7970 0.7900 0.7840 0.7731 0.7631
751.558785 0.7540 0.7450 0.7340 0.7220 0.7011
756.234606 0.6771 0.6561 0.6341 0.6101 0.5862
760.910428 0.5590 0.5330 0.5050 0.4631 0.4181
765.586249 0.3761 0.3491 0.3171 0.2921 0.2751
770.262070 0.2440 0.2410 0.2420 0.2480 0.3218
774.937892 0.4037 0.4847 0.5626 0.6286 0.6817
779.613713 0.7120 0.7150 0.7150 0.7070 0.7030
784.289535 0.6731 0.6501 0.5604 0.4903 0.4870
788.965356 0.4570 0.4130 0.3521 0.3400 0.3370
793.641177 0.3380 0.3998 0.4747 0.5586 0.6574
798.316999 0.7370 0.7630 0.8089 0.8479 0.8480
802.992820 0.8480 0.8470 0.8390 0.8300 0.8121
807.668641 0.7910 0.7750 0.7420 0.7001 0.6471
812.344463 0.5922 0.5322 0.4971 0.4731 0.4462
817.020284 0.4210 0.4040 0.4010 0.4010 0.4030
821.696106 0.4389 0.4549 0.4669 0.4750 0.4780
826.371927 0.4840 0.4850 0.4850 0.4870 0.4880
831.047748 0.4880 0.4900 0.4910 0.4990 0.5258
835.723570 0.7061 0.8000 0.8829 0.9080 0.9260
840.399391 0.9370 0.9400 0.9430 0.9460 0.9490
845.075213 0.9490 0.9490 0.9500 0.9520 0.9530
849.751034 0.9550 0.9550 0.9560 0.9580 0.9610
854.426855 0.9620 0.9640 0.9640 0.9650 0.9650
859.102677 0.9650 0.9650 0.9650 0.9650 0.9650
863.778498 0.9650 0.9650 0.9650 0.9650 0.9650
868.454319 0.9650 0.9670 0.9670 0.9670 0.9650
873.130141 0.9650 0.9650 0.9650 0.9650 0.9650
877.805962 0.9670 0.9650 0.9640 0.9640 0.9620
882.481784 0.9620 0.9620 0.9620 0.9620 0.9610
887.157605 0.9610 0.9620 0.9620 0.9620 0.9620
891.833426 0.9620 0.9620 0.9620 0.9620 0.9620
896.509248 0.9610 0.9590 0.9590 0.9580 0.9580
901.185069 0.9560 0.9550 0.9550 0.9520 0.9520
905.860891 0.9440 0.9410 0.9350 0.9310 0.9250
910.536712 0.9190 0.9130 0.9130 0.9080 0.9070
915.212533 0.9070 0.9070 0.9070 0.9100 0.9100
919.888355 0.9110 0.9130 0.9130 0.9130 0.9130
924.564176 0.9130 0.9140 0.9160 0.9170 0.9200
929.239997 0.9260 0.9320 0.9400 0.9440 0.9520
933.915819 0.9520 0.9530 0.9550 0.9560 0.9560
938.591640 0.9560 0.9560 0.9560 0.9560 0.9560
943.267462 0.9560 0.9560 0.9560 0.9560 0.9550
947.943283 0.9550 0.9530 0.9520 0.9500 0.9430
952.619104 0.9400 0.9350 0.9310 0.9290 0.9250
957.294926 0.9190 0.9160 0.9140 0.9140 0.9140
961.970747 0.9140 0.9140 0.9140 0.9130 0.9110
966.646569 0.9080 0.9040 0.8990 0.8900 0.8830
971.322390 0.8750 0.8720 0.8660 0.8620 0.8600
975.998211 0.8590 0.8570 0.8530 0.8500 0.8480
980.674033 0.8241 0.8200 0.8110 0.7991 0.7751
985.349854 0.7480 0.7070 0.6730 0.6460 0.6191
990.025675 0.5931 0.5631 0.5331 0.5240 0.5240
994.701497 0.5540 0.5690 0.5920 0.6230 0.6709
999.377318 0.7209 0.7698 0.8108 0.8319 0.8419
1004.053140 0.8450 0.8450 0.8470 0.8500 0.8540
1008.728961 0.8620 0.8680 0.8690 0.8680 0.8650
1013.404782 0.8540 0.8440 0.8320 0.8200 0.8060
1018.080604 0.7940 0.7781 0.7660 0.7491 0.7420
1022.756425 0.7370 0.7370 0.7420 0.7520 0.7690
1027.432246 0.7909 0.8089 0.8329 0.8360 0.8380
1032.108068 0.8380 0.8380 0.8380 0.8380 0.8390
1036.783889 0.8480 0.8540 0.8620 0.8690 0.8710
1041.459711 0.8720 0.8720 0.8720 0.8720 0.8710
1046.135532 0.8710 0.8690 0.8680 0.8650 0.8620
1050.811353 0.8600 0.8570 0.8540 0.8540 0.8530
1055.487175 0.8500 0.8420 0.8360 0.8320 0.8270
1060.162996 0.8230 0.8170 0.8110 0.8020 0.7970
1064.838818 0.7900 0.7810 0.7720 0.7581 0.7431
1069.514639 0.7280 0.7160 0.7040 0.6950 0.6880
1074.190460 0.6641 0.6620 0.6640 0.6650 0.6769
1078.866282 0.7010 0.7030 0.7040 0.7030 0.7010
1083.542103 0.6890 0.6760 0.6581 0.6381 0.6201
1088.217924 0.5950 0.5620 0.5300 0.4930 0.4271
1092.893746 0.3791 0.3341 0.3280 0.3250 0.3260
1097.569567 0.3430 0.3790 0.3820 0.3920 0.4120
1102.245389 0.4120 0.4090 0.4010 0.3881 0.3641
1106.921210 0.3400 0.3110 0.2860 0.2500 0.2420
1111.597031 0.2390 0.2390 0.2480 0.3038 0.3816
1116.272853 0.4611 0.5350 0.6340 0.7039 0.8058
1120.948674 0.8499 0.8620 0.8809 0.8949 0.9079
1125.624496 0.9110 0.9100 0.9100 0.9100 0.9080
1130.300317 0.9070 0.9040 0.9020 0.8960 0.8930
1134.976138 0.8890 0.8860 0.8840 0.8810 0.8770
1139.651960 0.8740 0.8710 0.8680 0.8650 0.8590
1144.327781 0.8530 0.8470 0.8330 0.8230 0.8110
1149.003602 0.8000 0.7791 0.7601 0.7391 0.7042
1153.679424 0.6909 0.6550 0.6530 0.6530 0.6550
1158.355245 0.6650 0.7029 0.7359 0.7639 0.7909
1163.031067 0.8020 0.8140 0.8290 0.8450 0.8590
1167.706888 0.8600 0.8590 0.8570 0.8540 0.8500
1172.382709 0.8500 0.8470 0.8450 0.8450 0.8450
1177.058531 0.8450 0.8440 0.8450 0.8450 0.8450
1181.734352 0.8450 0.8450 0.8440 0.8440 0.8410
1186.410174 0.8380 0.8350 0.8330 0.8320 0.8290
1191.085995 0.8260 0.8210 0.8120 0.8090 0.8020
1195.761816 0.7960 0.7910 0.7820 0.7671 0.7571
1200.437638 0.7480 0.7390 0.7330 0.7270 0.7100
1205.113459 0.6980 0.6860 0.6730 0.6620 0.6560
1209.789280 0.6520 0.6490 0.6380 0.6260 0.6070
1214.465102 0.5920 0.5661 0.5451 0.5111 0.4632
1219.140923 0.4120 0.3650 0.3500 0.3440 0.3440
1223.816745 0.3580 0.3829 0.4368 0.4748 0.5108
1228.492566 0.5411 0.5770 0.6020 0.6080 0.6080
1233.168387 0.6050 0.6020 0.5861 0.5621 0.5351
1237.844209 0.4849 0.4400 0.3950 0.3850 0.3820
1242.520030 0.3820 0.3890 0.4159 0.4489 0.4868
1247.195851 0.5301 0.5811 0.6280 0.6580 0.6770
1251.871673 0.6860 0.6940 0.7000 0.6950 0.6920
1256.547494 0.6890 0.6850 0.6770 0.6610 0.6500
1261.223316 0.6320 0.6130 0.5931 0.5781 0.5661
1265.899137 0.5650 0.5600 0.5600 0.5650 0.5710
1270.574958 0.5750 0.5780 0.5800 0.5800 0.5810
1275.250780 0.5830 0.5830 0.5830 0.5830 0.5810
1279.926601 0.5800 0.5690 0.5530 0.5361 0.5121
1284.602423 0.4910 0.4640 0.4420 0.4130 0.3920
1289.278244 0.3700 0.3640 0.3610 0.3610 0.3859
1293.954065 0.3970 0.4090 0.4100 0.4090 0.4000
1298.629887 0.3890 0.3711 0.3441 0.3171 0.2712
1303.305708 0.2680 0.2470 0.2450 0.2480 0.2630
1307.981529 0.2780 0.2960 0.3100 0.3130 0.3160
1312.657351 0.3170 0.3170 0.3170 0.3170 0.3290
1317.333172 0.3969 0.4788 0.5587 0.6317 0.6947
1322.008994 0.7451 0.7760 0.8080 0.8230 0.8330
1326.684815 0.8390 0.8420 0.8420 0.8420 0.8420
1331.360636 0.8410 0.8410 0.8390 0.8380 0.8380
1336.036458 0.8360 0.8350 0.8320 0.8260 0.8180
1340.712279 0.8110 0.8060 0.8020 0.7970 0.7900
1345.388101 0.7810 0.7720 0.7610 0.7481 0.7361
1350.063922 0.7210 0.7060 0.6890 0.6710 0.6520
1354.739743 0.6310 0.6080 0.5841 0.5481 0.5052
1359.415565 0.4419 0.3609 0.3050 0.2660 0.2360
1364.091386 0.2330 0.2330 0.2380 0.2470 0.2719
1368.767207 0.2981 0.3460 0.4060 0.4779 0.5090
1373.443029 0.5619 0.6248 0.6340 0.6340 0.6310
1378.118850 0.6260 0.6170 0.5990 0.5750 0.5480
1382.794672 0.5121 0.4731 0.4630 0.4550 0.4580
1387.470493 0.4631 0.4990 0.5350 0.5560 0.5720
1392.146314 0.5740 0.5720 0.5620 0.5510 0.5391
1396.822136 0.5260 0.5170 0.5030 0.4850 0.4820
1401.497957 0.4820 0.4840 0.5030 0.5239 0.5529
1406.173779 0.5901 0.6351 0.6800 0.7210 0.7540
1410.849600 0.7670 0.7750 0.7820 0.7820 0.7810
1415.525421 0.7810 0.7780 0.7750 0.7720 0.7700
1420.201243 0.7690 0.7690 0.7690 0.7690 0.7670
1424.877064 0.7660 0.7640 0.7600 0.7540 0.7510
1429.552885 0.7420 0.7330 0.7220 0.7100 0.6941
1434.228707 0.6760 0.6530 0.6320 0.6110 0.5920
1438.904528 0.5620 0.5331 0.5061 0.4901 0.4840
1443.580350 0.4820 0.4820 0.4840 0.4880 0.4880
1448.256171 0.4900 0.4900 0.4880 0.4880 0.4870
1452.931992 0.4850 0.4820 0.4790 0.4660 0.4460
1457.607814 0.4120 0.3881 0.3591 0.3441 0.3311
1462.283635 0.3230 0.3190 0.3080 0.2990 0.2830
1466.959456 0.2680 0.2510 0.2480 0.2450 0.2480
1471.635278 0.2531 0.2861 0.3190 0.3620 0.4090
1476.311099 0.4520 0.4869 0.5199 0.5419 0.5540
1480.986921 0.5690 0.5840 0.5960 0.6080 0.6160
1485.662742 0.6190 0.6200 0.6200 0.6190 0.6071
1490.338563 0.5960 0.5800 0.5690 0.5450 0.5290
1495.014385 0.5230 0.5031 0.4781 0.4491 0.4181
1499.690206 0.3999 0.3790 0.3710 0.3580 0.3550
1504.366028 0.3560 0.3790 0.4149 0.4937 0.5737
1509.041849 0.6501 0.7191 0.7730 0.7940 0.8030
1513.717670 0.8180 0.8350 0.8559 0.8769 0.8949
1518.393492 0.9130 0.9250 0.9310 0.9350 0.9380
1523.069313 0.9410 0.9430 0.9460 0.9460 0.9460
1527.745134 0.9460 0.9460 0.9440 0.9440 0.9430
1532.420956 0.9410 0.9380 0.9350 0.9340 0.9320
1537.096777 0.9280 0.9230 0.9200 0.9160 0.9130
1541.772599 0.9110 0.9100 0.9100 0.9070 0.9070
1546.448420 0.9040 0.9020 0.8980 0.8870 0.8800
1551.124241 0.8590 0.8350 0.8170 0.7971 0.7721
1555.800063 0.7419 0.7130 0.6850 0.6590 0.6380
1560.475884 0.6250 0.6190 0.6130 0.6080 0.6010
1565.151706 0.5919 0.5540 0.5110 0.4670 0.4490
1569.827527 0.4420 0.4121 0.3821 0.3501 0.3490
1574.503348 0.3500 0.3591 0.4060 0.4340 0.4630
1579.179170 0.4730 0.5199 0.5589 0.6108 0.6399
1583.854991 0.6591 0.6860 0.7100 0.7250 0.7330
1588.530812 0.7340 0.7340 0.7330 0.7190 0.7041
1593.206634 0.6889 0.6700 0.6590 0.6470 0.6410
1597.882455 0.6280 0.6250 0.6250 0.6260 0.6280
1602.558277 0.6290 0.6310 0.6350 0.6460 0.6550
1607.234098 0.6830 0.7249 0.7719 0.8169 0.8499
1611.909919 0.8740 0.8920 0.9040 0.9130 0.9160
1616.585741 0.9200 0.9230 0.9280 0.9280 0.9290
1621.261562 0.9320 0.9340 0.9350 0.9350 0.9350
1625.937384 0.9370 0.9370 0.9380 0.9380 0.9380
1630.613205 0.9380 0.9380 0.9380 0.9380 0.9380
1635.289026 0.9380 0.9380 0.9380 0.9380 0.9380
1639.964848 0.9380 0.9380 0.9380 0.9380 0.9380
1644.640669 0.9380 0.9380 0.9400 0.9400 0.9400
1649.316490 0.9400 0.9400 0.9400 0.9400 0.9400
1653.992312 0.9410 0.9430 0.9430 0.9440 0.9470
1658.668133 0.9500 0.9550 0.9590 0.9590 0.9610
1663.343955 0.9610 0.9590 0.9590 0.9590 0.9580
1668.019776 0.9550 0.9550 0.9550 0.9530 0.9520
1672.695597 0.9520 0.9500 0.9500 0.9500 0.9500
1677.371419 0.9490 0.9490 0.9470 0.9460 0.9430
1682.047240 0.9430 0.9430 0.9430 0.9410 0.9410
1686.723062 0.9400 0.9400 0.9410 0.9410 0.9410
1691.398883 0.9410 0.9410 0.9410 0.9410 0.9410
1696.074704 0.9430 0.9430 0.9410 0.9410 0.9400
1700.750526 0.9400 0.9400 0.9400 0.9400 0.9380
1705.426347 0.9380 0.9380 0.9380 0.9370 0.9370
1710.102168 0.9380 0.9380 0.9380 0.9400 0.9400
1714.777990 0.9400 0.9400 0.9410 0.9410 0.9410
1719.453811 0.9410 0.9410 0.9400 0.9400 0.9380
1724.129633 0.9380 0.9370 0.9370 0.9370 0.9370
1728.805454 0.9380 0.9380 0.9380 0.9380 0.9400
1733.481275 0.9400 0.9400 0.9400 0.9400 0.9410
1738.157097 0.9410 0.9430 0.9430 0.9430 0.9440
1742.832918 0.9440 0.9440 0.9440 0.9440 0.9440
1747.508739 0.9440 0.9440 0.9440 0.9440 0.9440
1752.184561 0.9440 0.9440 0.9440 0.9440 0.9430
1756.860382 0.9430 0.9430 0.9430 0.9410 0.9400
1761.536204 0.9350 0.9340 0.9320 0.9310 0.9290
1766.212025 0.9280 0.9280 0.9260 0.9260 0.9250
1770.887846 0.9250 0.9250 0.9260 0.9280 0.9310
1775.563668 0.9350 0.9370 0.9400 0.9430 0.9460
1780.239489 0.9500 0.9550 0.9580 0.9620 0.9650
1784.915311 0.9670 0.9670 0.9670 0.9670 0.9670
1789.591132 0.9650 0.9640 0.9640 0.9640 0.9620
1794.266953 0.9610 0.9590 0.9560 0.9550 0.9520
1798.942775 0.9500 0.9490 0.9440 0.9430 0.9410
1803.618596 0.9410 0.9400 0.9400 0.9400 0.9380
1808.294417 0.9380 0.9380 0.9380 0.9380 0.9380
1812.970239 0.9380 0.9380 0.9380 0.9370 0.9350
1817.646060 0.9350 0.9350 0.9350 0.9350 0.9350
1822.321882 0.9350 0.9350 0.9340 0.9340 0.9340
1826.997703 0.9340 0.9320 0.9310 0.9290 0.9290
1831.673524 0.9280 0.9260 0.9250 0.9220 0.9160
1836.349346 0.9130 0.9110 0.9080 0.9070 0.9050
1841.025167 0.9040 0.9020 0.9020 0.9010 0.9010
1845.700989 0.9010 0.9010 0.9020 0.9070 0.9130
1850.376810 0.9140 0.9160 0.9160 0.9170 0.9190
1855.052631 0.9190 0.9200 0.9220 0.9220 0.9220
1859.728453 0.9220 0.9220 0.9220 0.9220 0.9220
1864.404274 0.9220 0.9220 0.9220 0.9200 0.9200
1869.080095 0.9200 0.9190 0.9170 0.9170 0.9160
1873.755917 0.9140 0.9130 0.9100 0.9080 0.9070
1878.431738 0.9050 0.9020 0.9010 0.8990 0.8990
1883.107560 0.9010 0.9010 0.9010 0.9010 0.9010
1887.783381 0.9020 0.9020 0.9020 0.9020 0.9020
1892.459202 0.9020 0.9020 0.9010 0.9010 0.9010
1897.135024 0.9010 0.8990 0.8990 0.8990 0.9010
1901.810845 0.9050 0.9080 0.9140 0.9160 0.9230
1906.486667 0.9250 0.9250 0.9260 0.9260 0.9310
1911.162488 0.9380 0.9430 0.9440 0.9470 0.9490
1915.838309 0.9500 0.9520 0.9520 0.9530 0.9530
1920.514131 0.9530 0.9530 0.9550 0.9550 0.9530
1925.189952 0.9530 0.9530 0.9520 0.9520 0.9520
1929.865773 0.9500 0.9490 0.9490 0.9430 0.9410
1934.541595 0.9380 0.9380 0.9370 0.9370 0.9350
1939.217416 0.9350 0.9350 0.9350 0.9350 0.9370
1943.893238 0.9380 0.9410 0.9430 0.9470 0.9500
1948.569059 0.9550 0.9550 0.9530 0.9530 0.9530
1953.244880 0.9530 0.9500 0.9490 0.9490 0.9470
1957.920702 0.9430 0.9410 0.9410 0.9400 0.9380
1962.596523 0.9380 0.9350 0.9340 0.9320 0.9310
1967.272344 0.9280 0.9250 0.9230 0.9220 0.9220
1971.948166 0.9220 0.9220 0.9220 0.9220 0.9230
1976.623987 0.9230 0.9260 0.9260 0.9280 0.9310
1981.299809 0.9310 0.9320 0.9320 0.9340 0.9340
1985.975630 0.9320 0.9310 0.9290 0.9290 0.9260
1990.651451 0.9220 0.9080 0.9040 0.9020 0.9020
1995.327273 0.9070 0.9190 0.9230 0.9370 0.9410
2000.003094 0.9430 0.9437 0.9445 0.9452 0.9460
2004.678916 0.9467 0.9475 0.9482 0.9490 0.9490
2009.354737 0.9490 0.9490 0.9490 0.9490 0.9490
2014.030558 0.9490 0.9490 0.9490 0.9490 0.9490
2018.706380 0.9490 0.9490 0.9490 0.9490 0.9490
2023.382201 0.9490 0.9490 0.9490 0.9490 0.9490
2028.058022 0.9490 0.9490 0.9490 0.9490 0.9490
2032.733844 0.9490 0.9490 0.9480 0.9467 0.9454
2037.409665 0.9442 0.9433 0.9426 0.9419 0.9411
2042.085487 0.9408 0.9405 0.9403 0.9400 0.9394
2046.761308 0.9386 0.9379 0.9371 0.9370 0.9370
2051.437129 0.9370 0.9370 0.9366 0.9361 0.9356
2056.112951 0.9351 0.9344 0.9337 0.9329 0.9322
2060.788772 0.9312 0.9303 0.9293 0.9283 0.9269
2065.464594 0.9254 0.9239 0.9224 0.9220 0.9220
2070.140415 0.9220 0.9220 0.9216 0.9211 0.9206
2074.816236 0.9201 0.9200 0.9200 0.9200 0.9200
2079.492058 0.9200 0.9200 0.9200 0.9200 0.9198
2084.167879 0.9196 0.9193 0.9191 0.9192 0.9194
2088.843700 0.9197 0.9199 0.9203 0.9208 0.9213
2093.519522 0.9218 0.9225 0.9232 0.9240 0.9247
2098.195343 0.9252 0.9254 0.9257 0.9259 0.9260
2102.871165 0.9260 0.9260 0.9260 0.9259 0.9256
2107.546986 0.9254 0.9251 0.9247 0.9242 0.9237
2112.222807 0.9232 0.9228 0.9226 0.9223 0.9221
2116.898629 0.9220 0.9220 0.9220 0.9220 0.9217
2121.574450 0.9212 0.9207 0.9202 0.9200 0.9200
2126.250272 0.9200 0.9200 0.9200 0.9200 0.9200
2130.926093 0.9200 0.9200 0.9200 0.9200 0.9200
2135.601914 0.9200 0.9200 0.9200 0.9200 0.9200
2140.277736 0.9200 0.9200 0.9200 0.9200 0.9200
2144.953557 0.9200 0.9200 0.9200 0.9200 0.9200
2149.629378 0.9200 0.9200 0.9200 0.9200 0.9200
2154.305200 0.9200 0.9200 0.9200 0.9200 0.9200
2158.981021 0.9200 0.9200 0.9200 0.9199 0.9196
2163.656843 0.9194 0.9191 0.9190 0.9190 0.9190
2168.332664 0.9190 0.9190 0.9190 0.9190 0.9190
2173.008485 0.9188 0.9183 0.9178 0.9173 0.9170
2177.684307 0.9170 0.9170 0.9170 0.9170 0.9170
2182.360128 0.9170 0.9170 0.9170 0.9170 0.9170
2187.035949 0.9170 0.9172 0.9177 0.9182 0.9187
2191.711771 0.9188 0.9183 0.9178 0.9173 0.9170
2196.387592 0.9170 0.9170 0.9170 0.9170 0.9170
2201.063414 0.9170 0.9170 0.9169 0.9167 0.9164
2205.739235 0.9162 0.9160 0.9160 0.9160 0.9160
2210.415056 0.9162 0.9169 0.9177 0.9184 0.9192
2215.090878 0.9199 0.9207 0.9214 0.9222 0.9232
2219.766699 0.9242 0.9252 0.9261 0.9266 0.9271
2224.442521 0.9276 0.9280 0.9280 0.9280 0.9280
2229.118342 0.9279 0.9274 0.9269 0.9264 0.9258
2233.794163 0.9248 0.9238 0.9228 0.9219 0.9214
2238.469985 0.9209 0.9204 0.9200 0.9197 0.9195
2243.145806 0.9192 0.9189 0.9184 0.9179 0.9174
2247.821627 0.9169 0.9162 0.9154 0.9147 0.9139
2252.497449 0.9132 0.9124 0.9117 0.9110 0.9107
2257.173270 0.9105 0.9102 0.9100 0.9095 0.9089
2261.849092 0.9084 0.9080 0.9080 0.9080 0.9080
2266.524913 0.9080 0.9077 0.9075 0.9072 0.9070
2271.200734 0.9065 0.9060 0.9055 0.9050 0.9047
2275.876556 0.9045 0.9042 0.9040 0.9040 0.9040
2280.552377 0.9040 0.9040 0.9040 0.9040 0.9040
2285.228199 0.9040 0.9035 0.9030 0.9025 0.9020
2289.904020 0.9018 0.9015 0.9013 0.9010 0.9005
2294.579841 0.9000 0.8995 0.8990 0.8988 0.8985
2299.255663 0.8983 0.8980 0.8965 0.8950 0.8935
2303.931484 0.8920 0.8915 0.8910 0.8905 0.8900
2308.607305 0.8900 0.8900 0.8900 0.8900 0.8898
2313.283127 0.8895 0.8893 0.8890 0.8890 0.8890
2317.958948 0.8890 0.8890 0.8890 0.8890 0.8890
2322.634770 0.8890 0.8886 0.8881 0.8876 0.8871
2327.310591 0.8868 0.8865 0.8863 0.8860 0.8856
2331.986412 0.8851 0.8846 0.8841 0.8840 0.8840
2336.662234 0.8840 0.8840 0.8840 0.8840 0.8840
2341.338055 0.8840 0.8840 0.8840 0.8840 0.8840
2346.013877 0.8840 0.8840 0.8840 0.8840 0.8840
2350.689698 0.8840 0.8840 0.8840 0.8838 0.8836
2355.365519 0.8833 0.8831 0.8826 0.8821 0.8816
2360.041341 0.8811 0.8804 0.8797 0.8789 0.8782
2364.717162 0.8774 0.8767 0.8760 0.8752 0.8750
2369.392983 0.8750 0.8750 0.8750 0.8748 0.8746
2374.068805 0.8743 0.8741 0.8740 0.8740 0.8740
2378.744626 0.8740 0.8736 0.8731 0.8726 0.8721
2383.420448 0.8720 0.8720 0.8720 0.8720 0.8720
2388.096269 0.8720 0.8720 0.8720 0.8718 0.8716
2392.772090 0.8713 0.8711 0.8710 0.8710 0.8710
2397.447912 0.8710 0.8707 0.8702 0.8697 0.8692
2402.123733 0.8690 0.8690 0.8690 0.8690 0.8689
2406.799554 0.8686 0.8684 0.8681 0.8680 0.8680
2411.475376 0.8680 0.8680 0.8680 0.8680 0.8680
2416.151197 0.8680 0.8680 0.8680 0.8680 0.8680
2420.827019 0.8680 0.8680 0.8680 0.8680 0.8680
2425.502840 0.8680 0.8680 0.8680 0.8677 0.8672
2430.178661 0.8667 0.8662 0.8660 0.8660 0.8660
2434.854483 0.8660 0.8660 0.8660 0.8660 0.8660
2439.530304 0.8660 0.8660 0.8660 0.8660 0.8660
2444.206126 0.8660 0.8660 0.8660 0.8660 0.8660
2448.881947 0.8660 0.8660 0.8656 0.8649 0.8641
2453.557768 0.8634 0.8629 0.8626 0.8624 0.8621
2458.233590 0.8620 0.8620 0.8620 0.8620 0.8617
2462.909411 0.8609 0.8602 0.8594 0.8587 0.8579
2467.585232 0.8572 0.8564 0.8557 0.8550 0.8542
2472.261054 0.8535 0.8530 0.8530 0.8530 0.8530
2476.936875 0.8530 0.8530 0.8530 0.8530 0.8528
2481.612697 0.8523 0.8518 0.8513 0.8509 0.8507
2486.288518 0.8504 0.8502 0.8498 0.8493 0.8488
2490.964339 0.8483 0.8480 0.8480 0.8480 0.8480
2495.640161 0.8479 0.8477 0.8474 0.8472 0.8468
2500.315982 0.8463 0.8458 0.8453 0.8450 0.8450
2504.991804 0.8450 0.8450 0.8449 0.8447 0.8444
2509.667625 0.8442 0.8439 0.8434 0.8429 0.8424
2514.343446 0.8420 0.8420 0.8420 0.8420 0.8418
2519.019268 0.8408 0.8398 0.8388 0.8379 0.8371
2523.695089 0.8363 0.8356 0.8347 0.8334 0.8322
2528.370910 0.8310 0.8299 0.8297 0.8294 0.8292
2533.046732 0.8289 0.8284 0.8279 0.8274 0.8268
2537.722553 0.8258 0.8248 0.8238 0.8229 0.8224
2542.398375 0.8219 0.8214 0.8208 0.8193 0.8178
2547.074196 0.8163 0.8150 0.8147 0.8145 0.8142
2551.750017 0.8140 0.8140 0.8140 0.8140 0.8140
2556.425839 0.8140 0.8140 0.8140 0.8140 0.8140
2561.101660 0.8140 0.8140 0.8140 0.8140 0.8140
2565.777482 0.8140 0.8139 0.8134 0.8130 0.8125
2570.453303 0.8120 0.8120 0.8120 0.8120 0.8120
2575.129124 0.8120 0.8120 0.8120 0.8120 0.8120
2579.804946 0.8120 0.8120 0.8120 0.8117 0.8115
2584.480767 0.8112 0.8110 0.8110 0.8110 0.8110
2589.156588 0.8110 0.8105 0.8100 0.8095 0.8090
2593.832410 0.8088 0.8085 0.8083 0.8080 0.8080
2598.508231 0.8080 0.8080 0.8080 0.8075 0.8070
2603.184053 0.8065 0.8060 0.8060 0.8060 0.8060
2607.859874 0.8060 0.8058 0.8055 0.8053 0.8050
2612.535695 0.8050 0.8050 0.8050 0.8050 0.8045
2617.211517 0.8040 0.8035 0.8030 0.8030 0.8030
2621.887338 0.8030 0.8030 0.8030 0.8030 0.8030
2626.563159 0.8030 0.8030 0.8030 0.8030 0.8030
2631.238981 0.8028 0.8025 0.8023 0.8020 0.8020
2635.914802 0.8020 0.8020 0.8020 0.8020 0.8020
2640.590624 0.8020 0.8020 0.8020 0.8020 0.8020
2645.266445 0.8020 0.8020 0.8020 0.8020 0.8020
2649.942266 0.8020 0.8020 0.8020 0.8020 0.8016
2654.618088 0.8011 0.8006 0.8001 0.8000 0.8000
2659.293909 0.8000 0.8000 0.7994 0.7987 0.7979
2663.969731 0.7972 0.7968 0.7966 0.7963 0.7961
2668.645552 0.7956 0.7951 0.7946 0.7942 0.7928
2673.321373 0.7910 0.7892 0.7874 0.7866 0.7861
2677.997195 0.7856 0.7851 0.7850 0.7850 0.7850
2682.673016 0.7850 0.7848 0.7846 0.7843 0.7841
2687.348837 0.7840 0.7840 0.7840 0.7840 0.7837
2692.024659 0.7832 0.7827 0.7822 0.7818 0.7816
2696.700480 0.7813 0.7811 0.7810 0.7810 0.7810
2701.376302 0.7810 0.7807 0.7802 0.7797 0.7792
2706.052123 0.7786 0.7778 0.7771 0.7763 0.7756
2710.727944 0.7748 0.7740 0.7733 0.7725 0.7718
2715.403766 0.7710 0.7703 0.7698 0.7696 0.7694
2720.079587 0.7691 0.7687 0.7682 0.7677 0.7672
2724.755409 0.7670 0.7670 0.7670 0.7670 0.7669
2729.431230 0.7666 0.7664 0.7661 0.7656 0.7649
2734.107051 0.7641 0.7634 0.7626 0.7619 0.7611
2738.782873 0.7604 0.7594 0.7581 0.7569 0.7557
2743.458694 0.7545 0.7535 0.7525 0.7515 0.7507
2748.134515 0.7499 0.7491 0.7484 0.7480 0.7480
2752.810337 0.7480 0.7480 0.7478 0.7473 0.7468
2757.486158 0.7463 0.7452 0.7435 0.7417 0.7400
2762.161980 0.7383 0.7368 0.7354 0.7339 0.7317
2766.837801 0.7288 0.7258 0.7228 0.7201 0.7179
2771.513622 0.7156 0.7134 0.7111 0.7089 0.7067
2776.189444 0.7044 0.7023 0.7003 0.6983 0.6963
2780.865265 0.6944 0.6927 0.6909 0.6892 0.6873
2785.541087 0.6853 0.6833 0.6813 0.6792 0.6769
2790.216908 0.6747 0.6724 0.6698 0.6666 0.6634
2794.892729 0.6601 0.6578 0.6573 0.6568 0.6563
2799.568551 0.6559 0.6557 0.6554 0.6552 0.6550
2804.244372 0.6550 0.6550 0.6550 0.6552 0.6560
2808.920193 0.6567 0.6574 0.6582 0.6589 0.6597
2813.596015 0.6604 0.6614 0.6632 0.6649 0.6666
2818.271836 0.6683 0.6695 0.6708 0.6720 0.6730
2822.947658 0.6733 0.6736 0.6738 0.6740 0.6740
2827.623479 0.6740 0.6740 0.6739 0.6737 0.6734
2832.299300 0.6732 0.6728 0.6721 0.6713 0.6706
2836.975122 0.6695 0.6667 0.6640 0.6613 0.6587
2841.650943 0.6570 0.6552 0.6535 0.6518 0.6506
2846.326764 0.6493 0.6481 0.6467 0.6445 0.6422
2851.002586 0.6400 0.6377 0.6352 0.6327 0.6303
2855.678407 0.6278 0.6258 0.6238 0.6218 0.6199
2860.354229 0.6189 0.6179 0.6169 0.6158 0.6146
2865.030050 0.6134 0.6121 0.6109 0.6102 0.6094
2869.705871 0.6087 0.6080 0.6077 0.6075 0.6072
2874.381693 0.6069 0.6057 0.6044 0.6032 0.6020
2879.057514 0.6010 0.6000 0.5990 0.5980 0.5972
2883.733336 0.5965 0.5957 0.5950 0.5945 0.5940
2888.409157 0.5935 0.5930 0.5915 0.5900 0.5885
2893.084978 0.5870 0.5860 0.5850 0.5840 0.5831
2897.760800 0.5823 0.5815 0.5808 0.5800 0.5788
2902.436621 0.5775 0.5763 0.5750 0.5735 0.5720
2907.112442 0.5705 0.5691 0.5680 0.5670 0.5661
2911.788264 0.5651 0.5650 0.5650 0.5650 0.5650
2916.464085 0.5650 0.5650 0.5650 0.5650 0.5652
2921.139907 0.5655 0.5657 0.5660 0.5664 0.5669
2925.815728 0.5674 0.5679 0.5686 0.5694 0.5701
2930.491549 0.5709 0.5716 0.5724 0.5731 0.5739
2935.167371 0.5742 0.5745 0.5747 0.5750 0.5761
2939.843192 0.5773 0.5786 0.5798 0.5809 0.5819
2944.519014 0.5828 0.5838 0.5846 0.5854 0.5861
2949.194835 0.5869 0.5870 0.5870 0.5870 0.5870
2953.870656 0.5870 0.5870 0.5870 0.5870 0.5868
2958.546478 0.5866 0.5863 0.5861 0.5856 0.5851
2963.222299 0.5846 0.5841 0.5827 0.5810 0.5792
2967.898120 0.5775 0.5754 0.5732 0.5709 0.5687
2972.573942 0.5664 0.5641 0.5618 0.5596 0.5575
2977.249763 0.5555 0.5535 0.5515 0.5508 0.5506
2981.925585 0.5503 0.5501 0.5495 0.5487 0.5480
2986.601406 0.5472 0.5467 0.5462 0.5457 0.5452
2991.277227 0.5450 0.5450 0.5450 0.5450 0.5458
2995.953049 0.5471 0.5483 0.5495 0.5516 0.5541
3000.628870 0.5565 0.5590 0.5621 0.5656 0.5691
3005.304692 0.5726 0.5753 0.5776 0.5798 0.5820
3009.980513 0.5840 0.5858 0.5876 0.5893 0.5909
3014.656334 0.5924 0.5939 0.5954 0.5963 0.5968
3019.332156 0.5973 0.5978 0.5981 0.5984 0.5986
3024.007977 0.5989 0.5993 0.5998 0.6003 0.6008
3028.683798 0.6011 0.6014 0.6016 0.6019 0.6024
3033.359620 0.6031 0.6039 0.6046 0.6053 0.6058
3038.035441 0.6062 0.6067 0.6074 0.6081 0.6089
3042.711263 0.6096 0.6103 0.6111 0.6118 0.6126
3047.387084 0.6135 0.6145 0.6155 0.6165 0.6185
3052.062905 0.6215 0.6245 0.6275 0.6304 0.6334
3056.738727 0.6364 0.6394 0.6423 0.6450 0.6477
3061.414548 0.6505 0.6533 0.6563 0.6593 0.6623
3066.090369 0.6654 0.6686 0.6718 0.6751 0.6778
3070.766191 0.6798 0.6818 0.6838 0.6854 0.6864
3075.442012 0.6874 0.6884 0.6890 0.6890 0.6890
3080.117834 0.6890 0.6892 0.6897 0.6902 0.6907
3084.793655 0.6910 0.6910 0.6910 0.6910 0.6908
3089.469476 0.6903 0.6898 0.6893 0.6889 0.6887
3094.145298 0.6884 0.6882 0.6877 0.6870 0.6863
3098.821119 0.6855 0.6850 0.6850 0.6850 0.6850
3103.496941 0.6849 0.6844 0.6839 0.6834 0.6829
3108.172762 0.6827 0.6824 0.6822 0.6820 0.6820
3112.848583 0.6820 0.6820 0.6817 0.6805 0.6792
3117.524405 0.6780 0.6768 0.6761 0.6753 0.6746
3122.200226 0.6738 0.6731 0.6723 0.6716 0.6707
3126.876047 0.6698 0.6688 0.6678 0.6669 0.6664
3131.551869 0.6659 0.6654 0.6650 0.6650 0.6650
3136.227690 0.6650 0.6650 0.6647 0.6645 0.6642
3140.903512 0.6640 0.6640 0.6640 0.6640 0.6639
3145.579333 0.6634 0.6629 0.6624 0.6618 0.6603
3150.255154 0.6588 0.6573 0.6560 0.6557 0.6555
3154.930976 0.6552 0.6549 0.6542 0.6534 0.6527
3159.606797 0.6519 0.6512 0.6504 0.6497 0.6489
3164.282619 0.6482 0.6474 0.6467 0.6459 0.6446
3168.958440 0.6434 0.6421 0.6409 0.6402 0.6394
3173.634261 0.6387 0.6379 0.6372 0.6365 0.6357
3178.310083 0.6350 0.6350 0.6350 0.6350 0.6350
3182.985904 0.6347 0.6345 0.6342 0.6340 0.6335
3187.661725 0.6330 0.6325 0.6320 0.6320 0.6320
3192.337547 0.6320 0.6320 0.6318 0.6315 0.6313
3197.013368 0.6310 0.6310 0.6310 0.6310 0.6310
3201.689190 0.6305 0.6300 0.6295 0.6290 0.6290
3206.365011 0.6290 0.6290 0.6290 0.6290 0.6290
3211.040832 0.6290 0.6290 0.6283 0.6275 0.6268
3215.716654 0.6261 0.6258 0.6255 0.6253 0.6250
3220.392475 0.6245 0.6241 0.6236 0.6231 0.6228
3225.068297 0.6225 0.6223 0.6220 0.6207 0.6192
3229.744118 0.6177 0.6162 0.6154 0.6146 0.6139
3234.419939 0.6131 0.6124 0.6116 0.6109 0.6101
3239.095761 0.6096 0.6091 0.6086 0.6081 0.6080
3243.771582 0.6080 0.6080 0.6080 0.6078 0.6075
3248.447403 0.6073 0.6070 0.6060 0.6047 0.6035
3253.123225 0.6023 0.6018 0.6016 0.6013 0.6011
3257.799046 0.6006 0.6001 0.5996 0.5991 0.5990
3262.474868 0.5990 0.5990 0.5990 0.5990 0.5990
3267.150689 0.5990 0.5990 0.5990 0.5990 0.5990
3271.826510 0.5990 0.5985 0.5977 0.5969 0.5962
3276.502332 0.5960 0.5960 0.5960 0.5960 0.5958
3281.178153 0.5956 0.5953 0.5951 0.5945 0.5937
3285.853974 0.5930 0.5922 0.5915 0.5907 0.5900
3290.529796 0.5892 0.5882 0.5869 0.5857 0.5844
3295.205617 0.5835 0.5828 0.5820 0.5813 0.5808
3299.881439 0.5806 0.5803 0.5801 0.5797 0.5792
3304.557260 0.5787 0.5782 0.5779 0.5776 0.5774
3309.233081 0.5771 0.5770 0.5770 0.5770 0.5770
3313.908903 0.5767 0.5762 0.5757 0.5752 0.5748
3318.584724 0.5746 0.5744 0.5741 0.5736 0.5728
3323.260546 0.5721 0.5713 0.5697 0.5675 0.5653
3327.936367 0.5630 0.5613 0.5601 0.5588 0.5576
3332.612188 0.5566 0.5559 0.5551 0.5544 0.5536
3337.288010 0.5529 0.5521 0.5514 0.5506 0.5499
3341.963831 0.5491 0.5484 0.5479 0.5476 0.5474
3346.639652 0.5471 0.5467 0.5459 0.5451 0.5444
3351.315474 0.5434 0.5421 0.5409 0.5396 0.5385
3355.991295 0.5375 0.5365 0.5355 0.5348 0.5343
3360.667117 0.5338 0.5333 0.5330 0.5330 0.5330
3365.342938 0.5330 0.5329 0.5326 0.5324 0.5321
3370.018759 0.5318 0.5313 0.5308 0.5303 0.5299
3374.694581 0.5297 0.5294 0.5292 0.5290 0.5290
3379.370402 0.5290 0.5290 0.5290 0.5290 0.5290
3384.046224 0.5290 0.5290 0.5290 0.5290 0.5290
3388.722045 0.5288 0.5283 0.5278 0.5273 0.5270
3393.397866 0.5270 0.5270 0.5270 0.5270 0.5270
3398.073688 0.5270 0.5270 0.5270 0.5270 0.5270
3402.749509 0.5270 0.5270 0.5270 0.5270 0.5270
3407.425330 0.5271 0.5276 0.5281 0.5286 0.5290
3412.101152 0.5290 0.5290 0.5290 0.5290 0.5290
3416.776973 0.5290 0.5290 0.5290 0.5290 0.5290
3421.452795 0.5290 0.5290 0.5290 0.5290 0.5290
3426.128616 0.5291 0.5293 0.5296 0.5298 0.5300
3430.804437 0.5300 0.5300 0.5300 0.5300 0.5300
3435.480259 0.5300 0.5300 0.5300 0.5300 0.5300
3440.156080 0.5300 0.5301 0.5306 0.5311 0.5316
3444.831902 0.5320 0.5323 0.5325 0.5328 0.5331
3449.507723 0.5336 0.5341 0.5346 0.5350 0.5353
3454.183544 0.5355 0.5358 0.5361 0.5368 0.5376
3458.859366 0.5383 0.5390 0.5395 0.5401 0.5406
3463.535187 0.5410 0.5410 0.5410 0.5410 0.5410
3468.211008 0.5413 0.5415 0.5418 0.5420 0.5425
3472.886830 0.5430 0.5435 0.5440 0.5443 0.5445
3477.562651 0.5448 0.5450 0.5450 0.5450 0.5450
3482.238473 0.5450 0.5455 0.5460 0.5465 0.5470
3486.914294 0.5470 0.5470 0.5470 0.5470 0.5472
3491.590115 0.5475 0.5477 0.5480 0.5487 0.5495
3496.265937 0.5502 0.5510 0.5515 0.5520 0.5525
3500.941758 0.5530 0.5533 0.5535 0.5537 0.5540
3505.617580 0.5545 0.5550 0.5555 0.5560 0.5567
3510.293401 0.5575 0.5582 0.5590 0.5592 0.5595
3514.969222 0.5597 0.5600 0.5600 0.5600 0.5600
3519.645044 0.5600 0.5607 0.5614 0.5622 0.5629
3524.320865 0.5634 0.5639 0.5644 0.5649 0.5652
3528.996686 0.5655 0.5657 0.5660 0.5666 0.5674
3533.672508 0.5681 0.5689 0.5694 0.5699 0.5704
3538.348329 0.5709 0.5712 0.5715 0.5717 0.5720
3543.024151 0.5724 0.5729 0.5734 0.5739 0.5740
3547.699972 0.5740 0.5740 0.5740 0.5740 0.5740
3552.375793 0.5740 0.5740 0.5740 0.5740 0.5740
3557.051615 0.5740 0.5742 0.5744 0.5747 0.5749
3561.727436 0.5754 0.5759 0.5764 0.5769 0.5777
3566.403257 0.5787 0.5797 0.5807 0.5824 0.5844
3571.079079 0.5864 0.5884 0.5897 0.5907 0.5917
3575.754900 0.5928 0.5930 0.5930 0.5930 0.5930
3580.430722 0.5934 0.5939 0.5944 0.5949 0.5950
3585.106543 0.5950 0.5950 0.5950 0.5950 0.5950
3589.782364 0.5950 0.5950 0.5950 0.5950 0.5950
3594.458186 0.5950 0.5950 0.5950 0.5950 0.5950
3599.134007 0.5950 0.5950 0.5950 0.5950 0.5950
3603.809829 0.5950 0.5950 0.5950 0.5950 0.5950
3608.485650 0.5950 0.5950 0.5950 0.5950 0.5950
3613.161471 0.5950 0.5950 0.5950 0.5950 0.5950
3617.837293 0.5950 0.5950 0.5950 0.5950 0.5950
3622.513114 0.5950 0.5950 0.5950 0.5947 0.5942
3627.188935 0.5937 0.5932 0.5929 0.5926 0.5924
3631.864757 0.5921 0.5920 0.5920 0.5920 0.5920
3636.540578 0.5920 0.5920 0.5920 0.5920 0.5920
3641.216400 0.5920 0.5920 0.5920 0.5920 0.5920
3645.892221 0.5920 0.5920 0.5921 0.5924 0.5926
3650.568042 0.5929 0.5930 0.5930 0.5930 0.5930
3655.243864 0.5932 0.5937 0.5942 0.5947 0.5950
3659.919685 0.5950 0.5950 0.5950 0.5951 0.5954
3664.595507 0.5956 0.5959 0.5960 0.5960 0.5960
3669.271328 0.5960 0.5959 0.5957 0.5954 0.5952
3673.947149 0.5950 0.5950 0.5950 0.5950 0.5948
3678.622971 0.5943 0.5938 0.5933 0.5930 0.5930
3683.298792 0.5930 0.5930 0.5929 0.5927 0.5924
3687.974613 0.5922 0.5918 0.5913 0.5908 0.5903
3692.650435 0.5899 0.5897 0.5894 0.5892 0.5890
3697.326256 0.5890 0.5890 0.5890 0.5888 0.5883
3702.002078 0.5878 0.5873 0.5870 0.5870 0.5870
3706.677899 0.5870 0.5869 0.5867 0.5864 0.5862
3711.353720 0.5859 0.5854 0.5849 0.5844 0.5840
3716.029542 0.5840 0.5840 0.5840 0.5840 0.5840
3720.705363 0.5840 0.5840 0.5840 0.5840 0.5840
3725.381185 0.5840 0.5839 0.5837 0.5834 0.5832
3730.057006 0.5830 0.5830 0.5830 0.5830 0.5830
3734.732827 0.5830 0.5830 0.5830 0.5829 0.5821
3739.408649 0.5814 0.5806 0.5799 0.5794 0.5789
3744.084470 0.5784 0.5780 0.5777 0.5775 0.5772
3748.760291 0.5770 0.5770 0.5770 0.5770 0.5769
3753.436113 0.5764 0.5759 0.5755 0.5750 0.5750
3758.111934 0.5750 0.5750 0.5750 0.5750 0.5750
3762.787756 0.5750 0.5750 0.5750 0.5750 0.5750
3767.463577 0.5750 0.5747 0.5745 0.5742 0.5740
3772.139398 0.5740 0.5740 0.5740 0.5740 0.5740
3776.815220 0.5740 0.5740 0.5740 0.5732 0.5725
3781.491041 0.5717 0.5710 0.5705 0.5700 0.5695
3786.166862 0.5690 0.5687 0.5685 0.5683 0.5680
3790.842684 0.5675 0.5670 0.5665 0.5660 0.5653
3795.518505 0.5645 0.5638 0.5630 0.5630 0.5630
3800.194327 0.5630 0.5630 0.5627 0.5625 0.5623
3804.870148 0.5620 0.5620 0.5620 0.5620 0.5620
3809.545969 0.5615 0.5610 0.5605 0.5600 0.5600
3814.221791 0.5600 0.5600 0.5600 0.5600 0.5600
3818.897612 0.5600 0.5600 0.5600 0.5600 0.5600
3823.573434 0.5600 0.5600 0.5600 0.5600 0.5600
3828.249255 0.5600 0.5600 0.5600 0.5600 0.5600
3832.925076 0.5600 0.5600 0.5600 0.5600 0.5600
3837.600898 0.5600 0.5600 0.5600 0.5600 0.5600
3842.276719 0.5600 0.5600 0.5600 0.5600 0.5600
3846.952540 0.5598 0.5595 0.5593 0.5590 0.5590
3851.628362 0.5590 0.5590 0.5590 0.5586 0.5581
3856.304183 0.5576 0.5571 0.5568 0.5566 0.5563
3860.980005 0.5561 0.5556 0.5551 0.5546 0.5541
3865.655826 0.5540 0.5540 0.5540 0.5540 0.5538
3870.331647 0.5536 0.5533 0.5531 0.5530 0.5530
3875.007469 0.5530 0.5530 0.5526 0.5521 0.5516
3879.683290 0.5511 0.5510 0.5510 0.5510 0.5510
3884.359112 0.5510 0.5510 0.5510 0.5510 0.5508
3889.034933 0.5506 0.5503 0.5501 0.5500 0.5500
3893.710754 0.5500 0.5500 0.5500 0.5500 0.5500
3898.386576 0.5500 0.5497 0.5492 0.5487 0.5482
3903.062397 0.5478 0.5476 0.5474 0.5471 0.5470
3907.738218 0.5470 0.5470 0.5470 0.5470 0.5470
3912.414040 0.5470 0.5470 0.5470 0.5470 0.5470
3917.089861 0.5470 0.5470 0.5470 0.5470 0.5470
3921.765683 0.5470 0.5470 0.5470 0.5470 0.5470
3926.441504 0.5470 0.5470 0.5470 0.5470 0.5470
3931.117325 0.5470 0.5470 0.5470 0.5470 0.5470
3935.793147 0.5470 0.5470 0.5470 0.5470 0.5470
3940.468968 0.5468 0.5463 0.5458 0.5453 0.5450
3945.144790 0.5450 0.5450 0.5450 0.5449 0.5446
3949.820611 0.5444 0.5441 0.5440 0.5440 0.5440
3954.496432 0.5440 0.5438 0.5433 0.5428 0.5423
3959.172254 0.5419 0.5416 0.5414 0.5411 0.5407
3963.848075 0.5399 0.5392 0.5384 0.5378 0.5373
3968.523896 0.5368 0.5363 0.5360 0.5360 0.5360
3973.199718 0.5360 0.5359 0.5357 0.5354 0.5352
3977.875539 0.5350 0.5350 0.5350 0.5350 0.5350
3982.551361 0.5350 0.5350 0.5350 0.5350 0.5350
3987.227182 0.5350 0.5350
##END=
