##TITLE=m-(PHENYLDIMETHYLSILYL)CHLORO BENZENE
##JCAMP-DX=4.24
##DATA TYPE=INFRARED SPECTRUM
##CLASS=COBLENTZ
##ORIGIN=WYANDOTTE CHEMICALS CORP., WYANDOTTE, MICHIGAN, USA
##OWNER=COBLENTZ SOCIETY
Collection (C) 2018 copyright by the U.S. Secretary of Commerce
on behalf of the United States of America. All rights reserved.
##DATE=Not specified, most likely prior to 1970
##NAMES=(3-chlorophenyl)(dimethyl)phenylsilane
##CAS REGISTRY NO=116435-01-9
##MOLFORM=C14 H15 Cl Si
##SOURCE REFERENCE=COBLENTZ NO. 3326
##$NIST SOURCE=COBLENTZ
##$NIST IMAGE=cob3326
##SPECTROMETER/DATA SYSTEM=Not specified, most likely a prism, grating, or hybrid spectrometer.
##STATE=LIQUID
##PATH LENGTH=0.0015 CM
##SAMPLING PROCEDURE=TRANSMISSION
##RESOLUTION=4
##DATA PROCESSING=DIGITIZED BY NIST FROM HARD COPY
##XUNITS=MICROMETERS
##YUNITS=TRANSMITTANCE
##XFACTOR=1.000000
##YFACTOR=1
##DELTAX=000.006799
##FIRSTX=2.034
##LASTX=15.9866
##FIRSTY=0.969
##MAXX=15.9866
##MINX=2.034
##MAXY=0.969
##MINY=0.034
##NPOINTS=2053
##XYDATA=(X++(Y..Y))
2.034000 0.9690 0.9670 0.9650 0.9620 0.9620
2.068014 0.9600 0.9590 0.9570 0.9550 0.9570
2.102000 0.9590 0.9590 0.9590 0.9600 0.9600
2.136014 0.9620 0.9640 0.9670 0.9670 0.9690
2.170000 0.9690 0.9690 0.9690 0.9590 0.9550
2.204014 0.9550 0.9550 0.9570 0.9620 0.9640
2.238000 0.9650 0.9640 0.9640 0.9620 0.9600
2.272014 0.9590 0.9590 0.9590 0.9590 0.9590
2.306000 0.9530 0.9520 0.9500 0.9480 0.9480
2.340014 0.9470 0.9470 0.9470 0.9470 0.9470
2.374000 0.9430 0.9360 0.9300 0.9190 0.9180
2.408014 0.9180 0.9210 0.9310 0.9380 0.9470
2.442000 0.9500 0.9520 0.9530 0.9550 0.9550
2.476014 0.9590 0.9590 0.9530 0.9520 0.9520
2.510000 0.9520 0.9530 0.9550 0.9550 0.9590
2.544014 0.9590 0.9600 0.9600 0.9620 0.9620
2.578000 0.9620 0.9600 0.9530 0.9450 0.9400
2.612014 0.9380 0.9380 0.9380 0.9380 0.9360
2.646000 0.9350 0.9330 0.9310 0.9310 0.9300
2.680014 0.9300 0.9300 0.9300 0.9300 0.9300
2.714000 0.9300 0.9300 0.9300 0.9310 0.9360
2.748014 0.9410 0.9480 0.9500 0.9520 0.9530
2.782000 0.9530 0.9550 0.9590 0.9590 0.9570
2.816014 0.9550 0.9530 0.9520 0.9520 0.9500
2.850000 0.9500 0.9480 0.9470 0.9470 0.9470
2.884014 0.9450 0.9450 0.9430 0.9410 0.9400
2.918000 0.9380 0.9360 0.9330 0.9330 0.9330
2.952014 0.9330 0.9330 0.9330 0.9330 0.9310
2.986000 0.9310 0.9310 0.9300 0.9300 0.9280
3.020014 0.9240 0.9240 0.9230 0.9240 0.9240
3.054000 0.9230 0.9210 0.9210 0.9180 0.9140
3.088014 0.9160 0.9180 0.9190 0.9190 0.9190
3.122000 0.9180 0.9180 0.9110 0.9020 0.9010
3.156014 0.9010 0.8950 0.8890 0.8800 0.8750
3.190000 0.8650 0.8580 0.8510 0.8410 0.8240
3.224014 0.7900 0.7320 0.6390 0.5350 0.4190
3.258000 0.4070 0.4090 0.4280 0.5220 0.5660
3.292014 0.5660 0.5580 0.5560 0.5590 0.5970
3.326000 0.6580 0.6680 0.6620 0.5690 0.4360
3.360014 0.4010 0.4010 0.4410 0.5350 0.5710
3.394000 0.6020 0.6190 0.7620 0.7760 0.7760
3.428014 0.7670 0.7670 0.7490 0.7500 0.7730
3.462000 0.7980 0.8220 0.8480 0.8600 0.8660
3.496014 0.8720 0.8780 0.8800 0.8820 0.8850
3.530000 0.8890 0.8920 0.8920 0.8900 0.8890
3.564014 0.8890 0.8890 0.8870 0.8870 0.8920
3.598000 0.8970 0.9020 0.9090 0.9140 0.9190
3.632014 0.9230 0.9240 0.9260 0.9260 0.9260
3.666000 0.9240 0.9240 0.9240 0.9230 0.9210
3.700014 0.9190 0.9180 0.9180 0.9180 0.9210
3.734000 0.9230 0.9240 0.9260 0.9280 0.9280
3.768014 0.9280 0.9280 0.9280 0.9280 0.9310
3.802000 0.9310 0.9330 0.9330 0.9330 0.9350
3.836014 0.9360 0.9360 0.9360 0.9360 0.9360
3.870000 0.9360 0.9360 0.9350 0.9330 0.9310
3.904014 0.9330 0.9350 0.9360 0.9380 0.9380
3.938000 0.9380 0.9380 0.9380 0.9400 0.9400
3.972014 0.9400 0.9400 0.9400 0.9410 0.9410
4.006000 0.9330 0.9310 0.9300 0.9300 0.9280
4.040014 0.9260 0.9230 0.9230 0.9260 0.9300
4.074000 0.9330 0.9360 0.9380 0.9310 0.9310
4.108014 0.9310 0.9310 0.9310 0.9330 0.9350
4.142000 0.9350 0.9380 0.9380 0.9350 0.9310
4.176014 0.9310 0.9310 0.9310 0.9330 0.9330
4.210000 0.9310 0.9300 0.9280 0.9230 0.9190
4.244014 0.9160 0.9160 0.9120 0.9120 0.9160
4.278000 0.9190 0.9210 0.9210 0.9210 0.9230
4.312014 0.9240 0.9260 0.9280 0.9300 0.9310
4.346000 0.9350 0.9380 0.9380 0.9400 0.9410
4.380014 0.9480 0.9500 0.9500 0.9500 0.9480
4.414000 0.9480 0.9480 0.9450 0.9430 0.9430
4.448014 0.9450 0.9480 0.9480 0.9450 0.9430
4.482000 0.9430 0.9430 0.9430 0.9430 0.9430
4.516014 0.9430 0.9430 0.9430 0.9450 0.9450
4.550000 0.9450 0.9450 0.9410 0.9410 0.9410
4.584014 0.9410 0.9410 0.9410 0.9410 0.9410
4.618000 0.9410 0.9430 0.9430 0.9450 0.9450
4.652014 0.9450 0.9470 0.9470 0.9470 0.9470
4.686000 0.9480 0.9480 0.9480 0.9480 0.9480
4.720014 0.9480 0.9480 0.9480 0.9480 0.9480
4.754000 0.9470 0.9470 0.9470 0.9470 0.9470
4.788014 0.9450 0.9450 0.9430 0.9410 0.9410
4.822000 0.9400 0.9400 0.9400 0.9380 0.9380
4.856014 0.9380 0.9380 0.9360 0.9330 0.9330
4.890000 0.9360 0.9380 0.9400 0.9400 0.9410
4.924014 0.9400 0.9400 0.9380 0.9360 0.9350
4.958000 0.9330 0.9310 0.9300 0.9280 0.9300
4.992014 0.9310 0.9350 0.9350 0.9350 0.9330
5.026000 0.9330 0.9310 0.9310 0.9300 0.9280
5.060014 0.9240 0.9230 0.9190 0.9180 0.9140
5.094000 0.9110 0.9040 0.9010 0.8950 0.8900
5.128014 0.8830 0.8770 0.8610 0.8460 0.8320
5.162000 0.8220 0.8170 0.8170 0.8200 0.8430
5.196014 0.8560 0.8750 0.8920 0.8970 0.9020
5.230000 0.9090 0.9090 0.9110 0.9120 0.9120
5.264014 0.9120 0.9110 0.8950 0.8770 0.8610
5.298000 0.8510 0.8430 0.8310 0.8170 0.8050
5.332014 0.7930 0.7910 0.7950 0.8100 0.8270
5.366000 0.8490 0.8650 0.8780 0.8830 0.8920
5.400014 0.9010 0.9020 0.9020 0.9010 0.9020
5.434000 0.9060 0.9090 0.9090 0.9070 0.9010
5.468014 0.8950 0.8870 0.8820 0.8800 0.8730
5.502000 0.8580 0.8480 0.8310 0.8290 0.8290
5.536014 0.8370 0.8540 0.8650 0.8700 0.8720
5.570000 0.8720 0.8720 0.8730 0.8770 0.8800
5.604014 0.8830 0.8850 0.8830 0.8820 0.8730
5.638000 0.8660 0.8610 0.8600 0.8540 0.8480
5.672014 0.8440 0.8440 0.8480 0.8540 0.8630
5.706000 0.8700 0.8770 0.8870 0.8900 0.8920
5.740014 0.8940 0.8970 0.9010 0.9040 0.9070
5.774000 0.9070 0.8970 0.8970 0.9040 0.9040
5.808014 0.9040 0.9020 0.8990 0.8920 0.8830
5.842000 0.8780 0.8770 0.8750 0.8720 0.8700
5.876014 0.8650 0.8560 0.8430 0.8370 0.8370
5.910000 0.8430 0.8430 0.8480 0.8490 0.8510
5.944014 0.8530 0.8540 0.8540 0.8530 0.8510
5.978000 0.8510 0.8510 0.8490 0.8460 0.8390
6.012014 0.8340 0.8320 0.8320 0.8320 0.8320
6.046000 0.8340 0.8340 0.8360 0.8360 0.8390
6.080014 0.8440 0.8510 0.8530 0.8530 0.8510
6.114000 0.8490 0.8480 0.8440 0.8410 0.8410
6.148014 0.8390 0.8390 0.8390 0.8370 0.8370
6.182000 0.8360 0.8340 0.8310 0.8200 0.8050
6.216014 0.7790 0.7420 0.7030 0.6960 0.6910
6.250000 0.6890 0.6770 0.6650 0.6550 0.6430
6.284014 0.6500 0.6890 0.7280 0.7380 0.7380
6.318000 0.7280 0.6860 0.6600 0.6410 0.6160
6.352014 0.5760 0.5170 0.4360 0.3460 0.3430
6.386000 0.3610 0.4330 0.5000 0.5350 0.5690
6.420014 0.6020 0.6310 0.6600 0.6870 0.7110
6.454000 0.7320 0.7520 0.7690 0.7840 0.7950
6.488014 0.8020 0.8030 0.8070 0.8080 0.8100
6.522000 0.8120 0.8150 0.8200 0.8240 0.8290
6.556014 0.8310 0.8320 0.8310 0.8240 0.8200
6.590000 0.8190 0.8130 0.8020 0.7900 0.7810
6.624014 0.7740 0.7730 0.7710 0.7690 0.7620
6.658000 0.7490 0.7280 0.6890 0.6820 0.6820
6.692014 0.6890 0.7320 0.7590 0.7620 0.7620
6.726000 0.7610 0.7470 0.7130 0.6480 0.5460
6.760014 0.4330 0.3020 0.2910 0.2910 0.3610
6.794000 0.4700 0.5460 0.6020 0.6260 0.6550
6.828014 0.6870 0.7090 0.7260 0.7320 0.7330
6.862000 0.7330 0.7330 0.7330 0.7330 0.7320
6.896014 0.7260 0.7200 0.7110 0.6990 0.6800
6.930000 0.6410 0.5920 0.5220 0.4260 0.3310
6.964014 0.2210 0.2080 0.2010 0.2440 0.3820
6.998000 0.4670 0.5170 0.5470 0.5610 0.5590
7.032014 0.5290 0.4980 0.4670 0.4410 0.4190
7.066000 0.4060 0.4020 0.4010 0.3990 0.3970
7.100014 0.3990 0.4020 0.4070 0.4300 0.4350
7.134000 0.4400 0.4400 0.4120 0.3360 0.2760
7.168014 0.2180 0.1500 0.1330 0.1330 0.1700
7.202000 0.2710 0.3650 0.4410 0.5060 0.5610
7.236014 0.6050 0.6430 0.6720 0.6970 0.7200
7.270000 0.7420 0.7550 0.7740 0.7830 0.7900
7.304014 0.7960 0.8020 0.8080 0.8130 0.8200
7.338000 0.8240 0.8250 0.8270 0.8290 0.8290
7.372014 0.8310 0.8310 0.8310 0.8270 0.8250
7.406000 0.8190 0.8120 0.8020 0.7950 0.7780
7.440014 0.7610 0.7500 0.7400 0.7370 0.7380
7.474000 0.7540 0.7660 0.7740 0.7810 0.7880
7.508014 0.7900 0.7900 0.7880 0.7710 0.7550
7.542000 0.7400 0.7300 0.7210 0.7130 0.7040
7.576014 0.7010 0.6990 0.7010 0.7040 0.7090
7.610000 0.7090 0.7090 0.7080 0.6920 0.6740
7.644014 0.6580 0.6430 0.6410 0.6410 0.6460
7.678000 0.6870 0.7110 0.7320 0.7540 0.7670
7.712014 0.7780 0.7790 0.7830 0.7860 0.7860
7.746000 0.7860 0.7840 0.7830 0.7830 0.7810
7.780014 0.7760 0.7710 0.7670 0.7620 0.7590
7.814000 0.7550 0.7470 0.7370 0.7250 0.7060
7.848014 0.6870 0.6580 0.6160 0.5630 0.5110
7.881000 0.4590 0.4020 0.3480 0.2910 0.2380
7.915014 0.1890 0.1460 0.1100 0.0810 0.0710
7.949000 0.0690 0.0690 0.0690 0.0730 0.0830
7.983014 0.1050 0.1380 0.2520 0.2710 0.3220
8.017000 0.3940 0.4720 0.5460 0.5970 0.6430
8.051014 0.6740 0.6940 0.7110 0.7280 0.7450
8.085000 0.7540 0.7610 0.7670 0.7780 0.7830
8.119014 0.7900 0.7930 0.7960 0.7980 0.7980
8.153000 0.7980 0.7960 0.7930 0.7910 0.7900
8.187014 0.7900 0.7830 0.7760 0.7690 0.7640
8.221000 0.7620 0.7640 0.7690 0.7730 0.7760
8.255014 0.7780 0.7780 0.7810 0.7840 0.7860
8.289000 0.7880 0.7900 0.7900 0.7880 0.7840
8.323014 0.7780 0.7690 0.7550 0.7470 0.7330
8.357000 0.7090 0.6800 0.6510 0.6430 0.6550
8.391014 0.6600 0.6720 0.6820 0.6920 0.7040
8.425000 0.7230 0.7320 0.7370 0.7380 0.7370
8.459014 0.7370 0.7350 0.7330 0.7250 0.7080
8.493000 0.6940 0.6630 0.6390 0.6330 0.6330
8.527014 0.6410 0.6740 0.7010 0.7280 0.7470
8.561000 0.7590 0.7710 0.7730 0.7740 0.7710
8.595014 0.7670 0.7660 0.7610 0.7520 0.7500
8.629000 0.7520 0.7550 0.7620 0.7660 0.7660
8.663014 0.7660 0.7660 0.7660 0.7640 0.7570
8.697000 0.7470 0.7330 0.7150 0.6960 0.6720
8.731014 0.6450 0.6140 0.5760 0.5350 0.4860
8.765000 0.4230 0.3660 0.3200 0.2520 0.1790
8.799014 0.1310 0.0830 0.0630 0.0440 0.0400
8.833000 0.0400 0.0440 0.0490 0.0540 0.0590
8.867014 0.0630 0.0640 0.0640 0.0610 0.0590
8.901000 0.0540 0.0510 0.0510 0.0490 0.0470
8.935014 0.0490 0.0510 0.0520 0.0540 0.0590
8.969000 0.0610 0.0630 0.0710 0.0800 0.1020
9.003014 0.1340 0.1620 0.1890 0.2180 0.2520
9.037000 0.2910 0.3120 0.3360 0.3370 0.3310
9.071014 0.3030 0.2710 0.2380 0.2110 0.1920
9.105000 0.1890 0.1870 0.1920 0.2320 0.2610
9.139014 0.2960 0.3410 0.3870 0.4260 0.4670
9.173000 0.5010 0.5270 0.5400 0.5880 0.6120
9.207014 0.6120 0.6100 0.6090 0.5870 0.5560
9.241000 0.5110 0.4470 0.3830 0.3270 0.2760
9.275014 0.2320 0.2230 0.2230 0.2610 0.3070
9.309000 0.3560 0.4110 0.4480 0.4930 0.5270
9.343014 0.5560 0.5760 0.6020 0.6310 0.6510
9.377000 0.6670 0.6820 0.7030 0.7200 0.7330
9.411014 0.7450 0.7470 0.7520 0.7590 0.7640
9.445000 0.7690 0.7740 0.7740 0.7710 0.7710
9.479014 0.7690 0.7670 0.7640 0.7640 0.7620
9.513000 0.7590 0.7550 0.7520 0.7500 0.7520
9.547014 0.7550 0.7590 0.7640 0.7690 0.7710
9.581000 0.7740 0.7780 0.7840 0.7910 0.7960
9.615014 0.8000 0.8020 0.8030 0.8030 0.8050
9.649000 0.8050 0.8030 0.8020 0.7960 0.7910
9.683014 0.7880 0.7810 0.7780 0.7790 0.7880
9.717000 0.8000 0.8030 0.8120 0.8200 0.8240
9.751014 0.8270 0.8290 0.8320 0.8340 0.8360
9.785000 0.8370 0.8370 0.8390 0.8390 0.8370
9.819014 0.8360 0.8340 0.8320 0.8320 0.8320
9.853000 0.8340 0.8360 0.8370 0.8390 0.8390
9.887014 0.8390 0.8410 0.8490 0.8490 0.8460
9.921000 0.8430 0.8410 0.8360 0.8310 0.8220
9.955014 0.7980 0.7660 0.7260 0.6700 0.6390
9.989000 0.6100 0.5490 0.5460 0.5490 0.5780
10.023014 0.6160 0.6560 0.6990 0.7370 0.7660
10.057000 0.7860 0.7980 0.8070 0.8120 0.8150
10.091014 0.8190 0.8200 0.8220 0.8220 0.8220
10.125000 0.8200 0.8200 0.8200 0.8220 0.8270
10.159014 0.8310 0.8320 0.8320 0.8340 0.8340
10.193000 0.8370 0.8390 0.8370 0.8320 0.8290
10.227014 0.8250 0.8240 0.8220 0.8170 0.8150
10.261000 0.8150 0.8150 0.8170 0.8170 0.8190
10.295014 0.8190 0.8190 0.8190 0.8200 0.8240
10.329000 0.8270 0.8310 0.8340 0.8360 0.8390
10.363014 0.8410 0.8410 0.8410 0.8410 0.8430
10.397000 0.8490 0.8510 0.8510 0.8510 0.8510
10.431014 0.8510 0.8510 0.8510 0.8510 0.8510
10.465000 0.8510 0.8490 0.8480 0.8480 0.8510
10.499014 0.8510 0.8530 0.8530 0.8530 0.8530
10.533000 0.8530 0.8530 0.8530 0.8510 0.8490
10.567014 0.8480 0.8480 0.8480 0.8490 0.8510
10.601000 0.8510 0.8510 0.8510 0.8510 0.8510
10.635014 0.8510 0.8510 0.8510 0.8510 0.8510
10.669000 0.8510 0.8510 0.8510 0.8490 0.8490
10.703014 0.8490 0.8490 0.8490 0.8490 0.8440
10.737000 0.8440 0.8430 0.8440 0.8440 0.8440
10.771014 0.8440 0.8430 0.8410 0.8390 0.8360
10.805000 0.8320 0.8270 0.8250 0.8250 0.8290
10.839014 0.8290 0.8290 0.8270 0.8200 0.8130
10.873000 0.8100 0.8030 0.8000 0.7960 0.7860
10.907014 0.7790 0.7730 0.7640 0.7550 0.7450
10.941000 0.7330 0.7250 0.7150 0.7010 0.6920
10.975014 0.6870 0.6800 0.6720 0.6620 0.6510
11.009000 0.6500 0.6500 0.6510 0.6600 0.6700
11.043014 0.6770 0.6870 0.6990 0.7060 0.7180
11.077000 0.7250 0.7320 0.7400 0.7500 0.7540
11.111014 0.7570 0.7590 0.7590 0.7570 0.7540
11.145000 0.7520 0.7500 0.7490 0.7420 0.7400
11.179014 0.7370 0.7330 0.7250 0.7160 0.7090
11.213000 0.7030 0.6990 0.6920 0.6840 0.6750
11.247014 0.6670 0.6600 0.6510 0.6460 0.6390
11.281000 0.6340 0.6270 0.6220 0.6210 0.6210
11.315014 0.6220 0.6240 0.6260 0.6270 0.6290
11.349000 0.6330 0.6390 0.6410 0.6450 0.6510
11.383014 0.6560 0.6580 0.6580 0.6580 0.6580
11.417000 0.6560 0.6560 0.6560 0.6560 0.6550
11.451014 0.6550 0.6530 0.6510 0.6500 0.6450
11.485000 0.6410 0.6360 0.6290 0.6240 0.6210
11.519014 0.6190 0.6120 0.6090 0.6020 0.6000
11.553000 0.5970 0.5900 0.5880 0.5830 0.5780
11.587014 0.5730 0.5660 0.5590 0.5520 0.5470
11.621000 0.5400 0.5300 0.5220 0.5130 0.5030
11.655014 0.4960 0.4880 0.4770 0.4690 0.4570
11.689000 0.4470 0.4330 0.4180 0.4040 0.3900
11.723014 0.3750 0.3600 0.3480 0.3370 0.3270
11.757000 0.3170 0.3070 0.2930 0.2790 0.2610
11.791014 0.2490 0.2350 0.2200 0.2130 0.2030
11.825000 0.1910 0.1770 0.1630 0.1460 0.1340
11.859014 0.1260 0.1140 0.0980 0.0920 0.0850
11.893000 0.0800 0.0710 0.0640 0.0610 0.0540
11.927014 0.0490 0.0440 0.0400 0.0390 0.0370
11.961000 0.0370 0.0370 0.0370 0.0370 0.0370
11.995014 0.0370 0.0370 0.0370 0.0370 0.0370
12.029000 0.0390 0.0390 0.0390 0.0390 0.0390
12.063014 0.0400 0.0400 0.0400 0.0400 0.0400
12.097000 0.0400 0.0400 0.0400 0.0390 0.0390
12.131014 0.0390 0.0350 0.0340 0.0340 0.0340
12.165000 0.0350 0.0370 0.0390 0.0390 0.0400
12.199014 0.0400 0.0370 0.0350 0.0350 0.0350
12.233000 0.0350 0.0350 0.0350 0.0350 0.0370
12.267014 0.0390 0.0400 0.0440 0.0510 0.0540
12.301000 0.0610 0.0710 0.0810 0.0950 0.1120
12.335014 0.1270 0.1460 0.1630 0.1800 0.1970
12.369000 0.2160 0.2370 0.2500 0.2730 0.2930
12.403014 0.3120 0.3270 0.3430 0.3580 0.3720
12.437000 0.3850 0.3970 0.4120 0.4210 0.4310
12.471014 0.4480 0.4550 0.4600 0.4670 0.4720
12.505000 0.4770 0.4790 0.4880 0.4910 0.4930
12.539014 0.4930 0.4940 0.4960 0.4960 0.4940
12.573000 0.4910 0.4840 0.4820 0.4770 0.4720
12.607014 0.4650 0.4530 0.4470 0.4360 0.4240
12.641000 0.4060 0.3820 0.3580 0.3340 0.3120
12.675014 0.2900 0.2690 0.2450 0.2230 0.1970
12.709000 0.1720 0.1510 0.1360 0.1210 0.1050
12.743014 0.0970 0.0870 0.0760 0.0690 0.0630
12.777000 0.0590 0.0560 0.0540 0.0510 0.0470
12.811014 0.0420 0.0400 0.0390 0.0390 0.0420
12.845000 0.0420 0.0460 0.0460 0.0460 0.0440
12.879014 0.0440 0.0440 0.0440 0.0420 0.0420
12.913000 0.0420 0.0420 0.0440 0.0440 0.0460
12.947014 0.0460 0.0460 0.0470 0.0470 0.0490
12.981000 0.0510 0.0510 0.0540 0.0590 0.0630
13.015014 0.0630 0.0610 0.0610 0.0590 0.0580
13.049000 0.0580 0.0540 0.0540 0.0520 0.0510
13.083014 0.0490 0.0490 0.0510 0.0540 0.0540
13.117000 0.0490 0.0490 0.0510 0.0540 0.0580
13.151014 0.0590 0.0610 0.0660 0.0710 0.0800
13.185000 0.0850 0.0950 0.1020 0.1120 0.1210
13.219014 0.1240 0.1330 0.1410 0.1510 0.1600
13.253000 0.1600 0.1620 0.1620 0.1620 0.1620
13.287014 0.1620 0.1580 0.1530 0.1500 0.1430
13.321000 0.1390 0.1340 0.1330 0.1330 0.1310
13.355014 0.1310 0.1290 0.1290 0.1360 0.1460
13.389000 0.1480 0.1580 0.1700 0.1820 0.1940
13.423014 0.2030 0.2110 0.2180 0.2230 0.2250
13.457000 0.2260 0.2300 0.2300 0.2300 0.2280
13.491014 0.2210 0.2180 0.2150 0.2060 0.1920
13.525000 0.1800 0.1680 0.1580 0.1500 0.1430
13.559014 0.1360 0.1290 0.1240 0.1210 0.1170
13.593000 0.1120 0.1050 0.1040 0.1020 0.0980
13.627014 0.0930 0.0900 0.0880 0.0850 0.0830
13.661000 0.0800 0.0800 0.0780 0.0780 0.0780
13.695014 0.0800 0.0800 0.0830 0.0850 0.0880
13.729000 0.0920 0.0980 0.1050 0.1140 0.1240
13.763014 0.1360 0.1480 0.1650 0.1910 0.1960
13.797000 0.2210 0.2470 0.2690 0.2910 0.3100
13.831014 0.3310 0.3480 0.3650 0.3820 0.3970
13.865000 0.4110 0.4230 0.4360 0.4470 0.4570
13.899014 0.4640 0.4720 0.4810 0.4880 0.4960
13.933000 0.5010 0.5100 0.5110 0.5130 0.5130
13.967014 0.5110 0.5110 0.5110 0.5100 0.5100
14.001000 0.5100 0.5080 0.5050 0.5010 0.4940
14.035014 0.4880 0.4840 0.4770 0.4690 0.4600
14.069000 0.4480 0.4350 0.4230 0.4090 0.3950
14.103014 0.3770 0.3610 0.3460 0.3250 0.3070
14.137000 0.2910 0.2760 0.2640 0.2540 0.2370
14.171014 0.2250 0.2060 0.1970 0.1910 0.1750
14.205000 0.1560 0.1460 0.1360 0.1290 0.1220
14.239014 0.1190 0.1160 0.1100 0.1090 0.1040
14.273000 0.1020 0.1000 0.0980 0.0970 0.0950
14.307014 0.0970 0.0970 0.0980 0.0980 0.1000
14.341000 0.1000 0.1020 0.1020 0.1020 0.1040
14.375014 0.1070 0.1090 0.1120 0.1170 0.1220
14.409000 0.1270 0.1310 0.1380 0.1430 0.1480
14.443014 0.1510 0.1550 0.1620 0.1700 0.1770
14.477000 0.1820 0.1840 0.1890 0.1940 0.1960
14.511014 0.1970 0.1990 0.1990 0.1990 0.1990
14.545000 0.1970 0.1970 0.1960 0.1940 0.1920
14.579014 0.1920 0.1910 0.1910 0.1910 0.1940
14.613000 0.1990 0.2010 0.2030 0.2040 0.2080
14.647014 0.2160 0.2280 0.2370 0.2500 0.2590
14.681000 0.2740 0.2910 0.3050 0.3220 0.3410
14.715014 0.3610 0.3800 0.4020 0.4230 0.4410
14.749000 0.4600 0.4790 0.4940 0.5080 0.5180
14.783014 0.5270 0.5350 0.5460 0.5560 0.5640
14.817000 0.5690 0.5730 0.5750 0.5760 0.5800
14.851014 0.5810 0.5830 0.5830 0.5830 0.5810
14.885000 0.5810 0.5800 0.5780 0.5780 0.5780
14.919014 0.5710 0.5660 0.5610 0.5520 0.5490
14.953000 0.5390 0.5320 0.5230 0.5150 0.5060
14.987014 0.5050 0.4960 0.4860 0.4790 0.4700
15.021000 0.4640 0.4600 0.4520 0.4450 0.4360
15.055014 0.4260 0.4160 0.4060 0.3970 0.3850
15.089000 0.3780 0.3720 0.3700 0.3700 0.3720
15.123014 0.3770 0.3830 0.3940 0.4020 0.4190
15.157000 0.4350 0.4520 0.4690 0.4860 0.5030
15.191014 0.5180 0.5350 0.5520 0.5680 0.5830
15.225000 0.5980 0.6120 0.6240 0.6380 0.6480
15.259014 0.6580 0.6670 0.6720 0.6750 0.6800
15.293000 0.6890 0.6910 0.6960 0.6990 0.7010
15.327014 0.7030 0.7030 0.7060 0.7090 0.7090
15.361000 0.7130 0.7130 0.7150 0.7150 0.7150
15.395014 0.7150 0.7150 0.7150 0.7130 0.7110
15.429000 0.7090 0.7080 0.7030 0.7010 0.6990
15.463014 0.6970 0.6910 0.6840 0.6750 0.6680
15.497000 0.6600 0.6550 0.6500 0.6460 0.6390
15.531014 0.6310 0.6240 0.6190 0.6140 0.6090
15.565000 0.6020 0.5970 0.5900 0.5880 0.5870
15.599014 0.5830 0.5830 0.5810 0.5800 0.5780
15.633000 0.5780 0.5800 0.5870 0.5900 0.5970
15.667014 0.6000 0.6090 0.6140 0.6210 0.6240
15.701000 0.6290 0.6330 0.6360 0.6410 0.6450
15.735014 0.6500 0.6550 0.6620 0.6680 0.6740
15.769000 0.6770 0.6800 0.6840 0.6870 0.6890
15.803014 0.6920 0.6960 0.6970 0.6990 0.6990
15.837000 0.7010 0.7010 0.7010 0.7030 0.7040
15.871014 0.7080 0.7090 0.7090 0.7090 0.7110
15.905000 0.7110 0.7110 0.7110 0.7110 0.7130
15.939014 0.7150 0.7150 0.7150 0.7150 0.7130
15.973000 0.7130 0.7090 0.7060
##END=
