##TITLE=Semicarbazide, 4-cyclohexyl-1-(4-hydroxy-6-methyl-2-pyrimidinyl)-3-thio-, (KETO FORM)
##JCAMP-DX=4.24
##DATA TYPE=INFRARED SPECTRUM
##CLASS=COBLENTZ III
##ORIGIN=DOW CHEMICAL COMPANY
##OWNER=COBLENTZ SOC.
Collection (C) 2018 copyright by the U.S. Secretary of Commerce
on behalf of the United States of America. All rights reserved.
##DATE=1965/01/25
##NAMES=N-cyclohexyl-2-(4-hydroxy-6-methyl-2-pyrimidinyl)hydrazinecarbothioamide
##CAS REGISTRY NO=116435-06-4
##MOLFORM=C12 H19 N5 O S
##MP=216 C
##SOURCE REFERENCE=COBLENTZ NO. 07130
##$NIST SOURCE=COBLENTZ
##$NIST IMAGE=cob7130
##SPECTROMETER/DATA SYSTEM=DOW KBr FOREPRISM-GRATING
##INSTRUMENT PARAMETERS=BLAZED AT 3.5, 12.0, 20.0 MICRON AND CHANGED AT 5.0, 7.5, 14.9 MICRON
##STATE=SOLID (SPLIT MULL), FLUOROLUBE FOR 3800-1330 CM^-^1, NUJOL FOR 1330-450 CM^-^1
##SAMPLING PROCEDURE=TRANSMISSION
##RESOLUTION=2
##DATA PROCESSING=DIGITIZED BY COBLENTZ SOCIETY (BATCH I) FROM HARD COPY
##XUNITS=1/CM
##YUNITS=TRANSMITTANCE
##XLABEL=Wavenumbers (cm-1)
##YLABEL=% Transmission
##XFACTOR=1
##YFACTOR=1
##DELTAX=1
##FIRSTX=455
##LASTX=3800
##FIRSTY=0.6935
##MAXX=3800
##MINX=455
##MAXY=0.8743
##MINY=0.1209
##NPOINTS=3346
##XYDATA=(X++(Y..Y))
455.000000 0.6935 0.6944 0.6951 0.6958 0.6967
460.000000 0.6975 0.6980 0.6984 0.6988 0.6992
465.000000 0.6996 0.7001 0.7005 0.7010 0.7014
470.000000 0.7014 0.7014 0.7014 0.7014 0.7015
475.000000 0.7018 0.7021 0.7011 0.7028 0.7035
480.000000 0.7048 0.7061 0.7072 0.7082 0.7092
485.000000 0.7101 0.7111 0.7118 0.7122 0.7128
490.000000 0.7130 0.7130 0.7130 0.7121 0.7112
495.000000 0.7104 0.7096 0.7083 0.7057 0.7021
500.000000 0.6986 0.6944 0.6901 0.6858 0.6815
505.000000 0.6746 0.6662 0.6536 0.6448 0.6369
510.000000 0.5716 0.5385 0.5178 0.5169 0.5226
515.000000 0.5158 0.5703 0.5942 0.6181 0.6209
520.000000 0.6234 0.6057 0.5910 0.5764 0.5618
525.000000 0.5479 0.5487 0.6112 0.6422 0.6608
530.000000 0.6630 0.6635 0.6654 0.6633 0.6622
535.000000 0.6610 0.6587 0.6555 0.6521 0.6471
540.000000 0.6411 0.6346 0.6229 0.6115 0.6039
545.000000 0.5987 0.5948 0.5970 0.5979 0.5990
550.000000 0.6001 0.6016 0.6035 0.6035 0.6035
555.000000 0.6029 0.6019 0.6010 0.6001 0.5991
560.000000 0.5982 0.5972 0.5962 0.5953 0.5936
565.000000 0.5925 0.5921 0.5931 0.5912 0.6025
570.000000 0.6087 0.6146 0.6229 0.6312 0.6383
575.000000 0.6448 0.6478 0.6494 0.6507 0.6508
580.000000 0.6508 0.6506 0.6507 0.6507 0.6515
585.000000 0.6525 0.6533 0.6547 0.6564 0.6585
590.000000 0.6628 0.6678 0.6718 0.6726 0.6730
595.000000 0.6730 0.6730 0.6728 0.6661 0.6599
600.000000 0.6478 0.6368 0.6392 0.6441 0.6490
605.000000 0.6539 0.6611 0.6671 0.6731 0.6818
610.000000 0.6903 0.6984 0.7021 0.7045 0.7051
615.000000 0.7042 0.7035 0.6982 0.6937 0.6858
620.000000 0.6797 0.6735 0.6533 0.6491 0.6526
625.000000 0.6537 0.6614 0.6691 0.6755 0.6846
630.000000 0.6841 0.6853 0.6843 0.6817 0.6761
635.000000 0.6711 0.6662 0.6410 0.6293 0.6068
640.000000 0.5975 0.5894 0.5800 0.5693 0.5574
645.000000 0.5468 0.5373 0.5322 0.5320 0.5319
650.000000 0.5319 0.5334 0.5374 0.5417 0.5450
655.000000 0.5480 0.5510 0.5540 0.5572 0.5603
660.000000 0.5635 0.5665 0.5693 0.5722 0.5750
665.000000 0.5780 0.5810 0.5827 0.5838 0.5849
670.000000 0.5860 0.5859 0.5858 0.5858 0.5854
675.000000 0.5842 0.5822 0.5803 0.5784 0.5764
680.000000 0.5744 0.5724 0.5703 0.5682 0.5660
685.000000 0.5638 0.5653 0.5642 0.5657 0.5681
690.000000 0.5709 0.5775 0.5777 0.5778 0.5777
695.000000 0.5776 0.5771 0.5745 0.5720 0.5676
700.000000 0.5650 0.5762 0.5833 0.5903 0.5951
705.000000 0.5997 0.6036 0.6070 0.6021 0.6085
710.000000 0.5862 0.5798 0.5581 0.5338 0.5301
715.000000 0.5344 0.5355 0.5415 0.5468 0.5540
720.000000 0.5622 0.5673 0.5709 0.5737 0.5739
725.000000 0.5773 0.5726 0.5710 0.5695 0.5681
730.000000 0.5667 0.5656 0.5646 0.5666 0.5623
735.000000 0.5772 0.5820 0.5877 0.5938 0.5999
740.000000 0.6052 0.6101 0.6148 0.6191 0.6234
745.000000 0.6274 0.6306 0.6337 0.6356 0.6372
750.000000 0.6388 0.6401 0.6411 0.6421 0.6432
755.000000 0.6442 0.6451 0.6461 0.6472 0.6483
760.000000 0.6505 0.6537 0.6568 0.6661 0.6718
765.000000 0.6769 0.6810 0.6833 0.6840 0.6847
770.000000 0.6854 0.6860 0.6862 0.6865 0.6869
775.000000 0.6872 0.6875 0.6907 0.6878 0.6878
780.000000 0.6878 0.6836 0.6784 0.6736 0.6689
785.000000 0.6645 0.6603 0.6561 0.6521 0.6469
790.000000 0.6412 0.6355 0.6298 0.6235 0.6216
795.000000 0.6206 0.6209 0.6210 0.6203 0.6155
800.000000 0.6079 0.5954 0.5746 0.5534 0.4952
805.000000 0.4735 0.4574 0.4357 0.4156 0.4173
810.000000 0.4328 0.4610 0.4845 0.5049 0.5134
815.000000 0.5169 0.5191 0.5158 0.5150 0.5132
820.000000 0.5058 0.4857 0.4830 0.4860 0.4932
825.000000 0.5009 0.5072 0.5121 0.5170 0.5223
830.000000 0.5275 0.5321 0.5366 0.5414 0.5465
835.000000 0.5517 0.5568 0.5612 0.5653 0.5693
840.000000 0.5739 0.5791 0.5847 0.6149 0.6171
845.000000 0.6193 0.6225 0.6275 0.6347 0.6418
850.000000 0.6503 0.6608 0.6648 0.6676 0.6671
855.000000 0.6649 0.6626 0.6576 0.6518 0.6444
860.000000 0.6342 0.6122 0.5899 0.5854 0.5857
865.000000 0.5812 0.6438 0.6740 0.6892 0.7111
870.000000 0.7228 0.7281 0.7308 0.7315 0.7321
875.000000 0.7328 0.7332 0.7334 0.7334 0.7337
880.000000 0.7338 0.7325 0.7298 0.7237 0.7147
885.000000 0.7038 0.6875 0.6711 0.6705 0.6708
890.000000 0.6715 0.6758 0.6807 0.6855 0.6915
895.000000 0.6968 0.6969 0.6949 0.6967 0.6956
900.000000 0.6937 0.6914 0.6890 0.6867 0.6867
905.000000 0.6865 0.6875 0.6904 0.6940 0.7014
910.000000 0.7076 0.7134 0.7191 0.7232 0.7268
915.000000 0.7305 0.7339 0.7357 0.7372 0.7367
920.000000 0.7361 0.7356 0.7346 0.7336 0.7322
925.000000 0.7315 0.7341 0.7365 0.7386 0.7406
930.000000 0.7426 0.7451 0.7461 0.7460 0.7453
935.000000 0.7446 0.7438 0.7431 0.7421 0.7404
940.000000 0.7388 0.7358 0.7325 0.7278 0.7222
945.000000 0.7167 0.7108 0.7051 0.6994 0.6936
950.000000 0.6878 0.6811 0.6741 0.6669 0.6600
955.000000 0.6508 0.6391 0.6274 0.6180 0.6098
960.000000 0.6051 0.6012 0.5976 0.5905 0.5810
965.000000 0.5577 0.5337 0.5170 0.4742 0.4743
970.000000 0.4743 0.4874 0.5242 0.5610 0.5788
975.000000 0.5946 0.6055 0.6110 0.6093 0.6096
980.000000 0.6079 0.6030 0.5998 0.5999 0.5999
985.000000 0.6029 0.6076 0.6135 0.6228 0.6376
990.000000 0.6553 0.6668 0.6751 0.6808 0.6818
995.000000 0.6824 0.6826 0.6830 0.6815 0.6805
1000.000000 0.6776 0.6708 0.6624 0.6517 0.6330
1005.000000 0.6059 0.5942 0.5885 0.5885 0.5885
1010.000000 0.6318 0.6587 0.6699 0.6810 0.6881
1015.000000 0.6971 0.6917 0.6917 0.6884 0.6845
1020.000000 0.6812 0.6775 0.6776 0.6714 0.6721
1025.000000 0.6738 0.6754 0.6776 0.6821 0.6800
1030.000000 0.6789 0.6753 0.6695 0.6635 0.6581
1035.000000 0.6553 0.6565 0.6582 0.6598 0.6735
1040.000000 0.6814 0.6880 0.6928 0.6967 0.7006
1045.000000 0.7045 0.7058 0.7064 0.7068 0.7075
1050.000000 0.7115 0.7161 0.7190 0.7218 0.7247
1055.000000 0.7272 0.7317 0.7297 0.7299 0.7301
1060.000000 0.7301 0.7295 0.7288 0.7274 0.7251
1065.000000 0.7198 0.7121 0.7024 0.6941 0.6792
1070.000000 0.6453 0.6453 0.6453 0.6453 0.6453
1075.000000 0.6469 0.6487 0.6510 0.6550 0.6553
1080.000000 0.6560 0.6543 0.6472 0.6411 0.6359
1085.000000 0.6294 0.6228 0.6156 0.6092 0.6036
1090.000000 0.5977 0.5904 0.5896 0.5906 0.5962
1095.000000 0.6104 0.6260 0.6325 0.6381 0.6437
1100.000000 0.6482 0.6514 0.6514 0.6503 0.6511
1105.000000 0.6494 0.6475 0.6458 0.6443 0.6432
1110.000000 0.6421 0.6415 0.6418 0.6430 0.6422
1115.000000 0.6425 0.6433 0.6468 0.6511 0.6565
1120.000000 0.6625 0.6689 0.6753 0.6771 0.6775
1125.000000 0.6778 0.6758 0.6761 0.6747 0.6732
1130.000000 0.6717 0.6692 0.6660 0.6628 0.6600
1135.000000 0.6580 0.6558 0.6534 0.6508 0.6486
1140.000000 0.6471 0.6461 0.6445 0.6457 0.6472
1145.000000 0.6484 0.6491 0.6490 0.6458 0.6379
1150.000000 0.6314 0.6240 0.6112 0.6133 0.6121
1155.000000 0.6125 0.6130 0.6156 0.6202 0.6248
1160.000000 0.6301 0.6327 0.6327 0.6345 0.6258
1165.000000 0.6186 0.6105 0.5985 0.5859 0.5547
1170.000000 0.5552 0.5551 0.5795 0.5855 0.5907
1175.000000 0.5953 0.6000 0.6045 0.6090 0.6116
1180.000000 0.6141 0.6144 0.6159 0.6136 0.6130
1185.000000 0.6106 0.6081 0.6055 0.6029 0.6001
1190.000000 0.5972 0.5942 0.5881 0.5760 0.5682
1195.000000 0.5616 0.5558 0.5505 0.5452 0.5402
1200.000000 0.5352 0.5302 0.5223 0.4995 0.4821
1205.000000 0.4609 0.4562 0.4567 0.4552 0.4768
1210.000000 0.4808 0.4808 0.4839 0.4676 0.4556
1215.000000 0.4451 0.4317 0.4124 0.3982 0.3898
1220.000000 0.3841 0.3803 0.3768 0.3739 0.3720
1225.000000 0.3698 0.3686 0.3678 0.3680 0.3630
1230.000000 0.3698 0.3721 0.3757 0.3800 0.3847
1235.000000 0.3943 0.4066 0.4300 0.4898 0.5089
1240.000000 0.5173 0.5232 0.5328 0.5250 0.5200
1245.000000 0.5086 0.5003 0.4886 0.4686 0.4422
1250.000000 0.4204 0.4071 0.3924 0.3920 0.3932
1255.000000 0.3960 0.4025 0.4105 0.4203 0.4296
1260.000000 0.4389 0.4470 0.4493 0.4493 0.4429
1265.000000 0.4360 0.4291 0.4212 0.4008 0.4036
1270.000000 0.4064 0.4121 0.4202 0.4359 0.4519
1275.000000 0.4632 0.4708 0.4773 0.4828 0.4872
1280.000000 0.4903 0.4910 0.4937 0.4906 0.4900
1285.000000 0.4880 0.4858 0.4828 0.4786 0.4732
1290.000000 0.4665 0.4574 0.4467 0.4337 0.4238
1295.000000 0.4149 0.4060 0.3929 0.3816 0.3758
1300.000000 0.3700 0.3634 0.3587 0.3587 0.3587
1305.000000 0.3623 0.3653 0.3675 0.3696 0.3718
1310.000000 0.3743 0.3766 0.3778 0.3790 0.3800
1315.000000 0.3830 0.3824 0.3826 0.3814 0.3804
1320.000000 0.3786 0.3766 0.3748 0.3730 0.3718
1325.000000 0.3705 0.3692 0.3679 0.3664 0.3649
1330.000000 0.3632 0.3616 0.3599 0.3575 0.3550
1335.000000 0.3529 0.3509 0.3488 0.3458 0.3426
1340.000000 0.3393 0.3322 0.3309 0.3296 0.3297
1345.000000 0.3298 0.3305 0.3277 0.3320 0.3334
1350.000000 0.3354 0.3377 0.3403 0.3428 0.3454
1355.000000 0.3479 0.3496 0.3500 0.3504 0.3508
1360.000000 0.3518 0.3540 0.3562 0.3595 0.3629
1365.000000 0.3662 0.3734 0.3896 0.4006 0.4240
1370.000000 0.4392 0.4503 0.4573 0.4634 0.4615
1375.000000 0.4610 0.4598 0.4552 0.4504 0.4455
1380.000000 0.4407 0.4365 0.4347 0.4347 0.4347
1385.000000 0.4353 0.4384 0.4371 0.4408 0.4446
1390.000000 0.4491 0.4537 0.4581 0.4623 0.4666
1395.000000 0.4757 0.4712 0.4712 0.4712 0.4698
1400.000000 0.4680 0.4657 0.4633 0.4604 0.4562
1405.000000 0.4512 0.4449 0.4380 0.4312 0.4262
1410.000000 0.4212 0.4162 0.4114 0.4062 0.4009
1415.000000 0.3942 0.3832 0.3762 0.3692 0.3641
1420.000000 0.3654 0.3662 0.3680 0.3732 0.3791
1425.000000 0.3829 0.3866 0.3900 0.3949 0.3895
1430.000000 0.3892 0.3872 0.3853 0.3834 0.3816
1435.000000 0.3800 0.3794 0.3789 0.3789 0.3791
1440.000000 0.3732 0.3682 0.3634 0.3537 0.3471
1445.000000 0.3424 0.3424 0.3434 0.3429 0.3432
1450.000000 0.3432 0.3453 0.3503 0.3650 0.3825
1455.000000 0.3912 0.4009 0.4048 0.4055 0.4062
1460.000000 0.4068 0.4076 0.4082 0.4101 0.4118
1465.000000 0.4132 0.4146 0.4160 0.4179 0.4197
1470.000000 0.4236 0.4225 0.4200 0.4175 0.4153
1475.000000 0.4129 0.4098 0.4066 0.4054 0.4043
1480.000000 0.4032 0.4022 0.4014 0.4012 0.4009
1485.000000 0.4008 0.4006 0.4003 0.4000 0.3995
1490.000000 0.3984 0.3954 0.3926 0.3899 0.3871
1495.000000 0.3822 0.3773 0.3716 0.3658 0.3600
1500.000000 0.3527 0.3450 0.3397 0.3355 0.3332
1505.000000 0.3314 0.3297 0.3278 0.3266 0.3242
1510.000000 0.3203 0.3165 0.3127 0.3089 0.3049
1515.000000 0.2996 0.2944 0.2891 0.2844 0.2800
1520.000000 0.2756 0.2712 0.2668 0.2613 0.2552
1525.000000 0.2490 0.2444 0.2400 0.2353 0.2303
1530.000000 0.2260 0.2219 0.2219 0.2219 0.2219
1535.000000 0.2269 0.2351 0.2426 0.2510 0.2604
1540.000000 0.2730 0.2876 0.3003 0.3055 0.3103
1545.000000 0.3152 0.3182 0.3209 0.3237 0.3260
1550.000000 0.3276 0.3291 0.3306 0.3321 0.3337
1555.000000 0.3353 0.3368 0.3384 0.3412 0.3450
1560.000000 0.3491 0.3538 0.3584 0.3675 0.3690
1565.000000 0.3687 0.3684 0.3680 0.3677 0.3668
1570.000000 0.3658 0.3646 0.3632 0.3620 0.3614
1575.000000 0.3609 0.3604 0.3598 0.3593 0.3587
1580.000000 0.3580 0.3559 0.3540 0.3509 0.3476
1585.000000 0.3440 0.3403 0.3366 0.3330 0.3293
1590.000000 0.3257 0.3218 0.3174 0.3130 0.3085
1595.000000 0.3041 0.2970 0.2898 0.2827 0.2755
1600.000000 0.2693 0.2634 0.2576 0.2517 0.2458
1605.000000 0.2396 0.2328 0.2260 0.2192 0.2124
1610.000000 0.2054 0.1984 0.1914 0.1844 0.1775
1615.000000 0.1706 0.1636 0.1567 0.1492 0.1418
1620.000000 0.1365 0.1352 0.1386 0.1376 0.1390
1625.000000 0.1405 0.1420 0.1436 0.1449 0.1461
1630.000000 0.1473 0.1480 0.1484 0.1483 0.1483
1635.000000 0.1489 0.1480 0.1457 0.1422 0.1381
1640.000000 0.1328 0.1272 0.1209 0.1211 0.1218
1645.000000 0.1232 0.1246 0.1263 0.1292 0.1335
1650.000000 0.1376 0.1415 0.1446 0.1480 0.1518
1655.000000 0.1556 0.1594 0.1636 0.1684 0.1736
1660.000000 0.1790 0.1858 0.1959 0.2075 0.2205
1665.000000 0.2314 0.2423 0.2522 0.2610 0.2699
1670.000000 0.2787 0.2872 0.2955 0.3037 0.3120
1675.000000 0.3203 0.3303 0.3418 0.3537 0.3925
1680.000000 0.4016 0.4082 0.4141 0.4217 0.4293
1685.000000 0.4376 0.4488 0.4600 0.4700 0.4795
1690.000000 0.4892 0.5008 0.5065 0.5109 0.5099
1695.000000 0.5128 0.5079 0.5040 0.4962 0.4904
1700.000000 0.4836 0.4752 0.4660 0.4558 0.4447
1705.000000 0.4329 0.4178 0.4119 0.4112 0.4137
1710.000000 0.4151 0.4227 0.4314 0.4481 0.4725
1715.000000 0.4898 0.5089 0.5556 0.5828 0.6019
1720.000000 0.6897 0.7187 0.7583 0.7718 0.7847
1725.000000 0.7944 0.8024 0.8125 0.8225 0.8271
1730.000000 0.8318 0.8365 0.8389 0.8412 0.8434
1735.000000 0.8448 0.8462 0.8475 0.8490 0.8504
1740.000000 0.8518 0.8532 0.8542 0.8552 0.8562
1745.000000 0.8571 0.8582 0.8590 0.8598 0.8606
1750.000000 0.8614 0.8621 0.8630 0.8636 0.8642
1755.000000 0.8647 0.8653 0.8658 0.8663 0.8668
1760.000000 0.8674 0.8683 0.8691 0.8699 0.8707
1765.000000 0.8716 0.8724 0.8728 0.8733 0.8735
1770.000000 0.8739 0.8743 0.8741 0.8736 0.8731
1775.000000 0.8725 0.8721 0.8716 0.8711 0.8706
1780.000000 0.8698 0.8688 0.8678 0.8668 0.8658
1785.000000 0.8648 0.8638 0.8627 0.8617 0.8606
1790.000000 0.8596 0.8587 0.8578 0.8571 0.8565
1795.000000 0.8557 0.8550 0.8543 0.8535 0.8528
1800.000000 0.8533 0.8543 0.8553 0.8562 0.8570
1805.000000 0.8577 0.8584 0.8590 0.8596 0.8597
1810.000000 0.8598 0.8598 0.8591 0.8584 0.8577
1815.000000 0.8570 0.8563 0.8556 0.8541 0.8525
1820.000000 0.8518 0.8514 0.8509 0.8503 0.8493
1825.000000 0.8486 0.8478 0.8473 0.8466 0.8459
1830.000000 0.8452 0.8446 0.8439 0.8432 0.8425
1835.000000 0.8418 0.8412 0.8405 0.8398 0.8392
1840.000000 0.8385 0.8378 0.8371 0.8365 0.8359
1845.000000 0.8353 0.8348 0.8342 0.8336 0.8330
1850.000000 0.8325 0.8318 0.8313 0.8307 0.8302
1855.000000 0.8296 0.8290 0.8284 0.8278 0.8271
1860.000000 0.8266 0.8261 0.8255 0.8249 0.8243
1865.000000 0.8237 0.8231 0.8225 0.8218 0.8213
1870.000000 0.8207 0.8201 0.8195 0.8189 0.8183
1875.000000 0.8175 0.8169 0.8164 0.8158 0.8151
1880.000000 0.8146 0.8139 0.8132 0.8125 0.8118
1885.000000 0.8111 0.8105 0.8099 0.8092 0.8085
1890.000000 0.8078 0.8071 0.8065 0.8058 0.8051
1895.000000 0.8045 0.8038 0.8032 0.8025 0.8019
1900.000000 0.8014 0.8008 0.8001 0.7997 0.7991
1905.000000 0.7985 0.7978 0.7974 0.7968 0.7961
1910.000000 0.7956 0.7950 0.7945 0.7939 0.7933
1915.000000 0.7926 0.7922 0.7918 0.7914 0.7908
1920.000000 0.7905 0.7900 0.7895 0.7891 0.7886
1925.000000 0.7882 0.7876 0.7872 0.7868 0.7864
1930.000000 0.7858 0.7855 0.7850 0.7846 0.7842
1935.000000 0.7841 0.7840 0.7840 0.7839 0.7838
1940.000000 0.7837 0.7836 0.7831 0.7825 0.7821
1945.000000 0.7815 0.7811 0.7808 0.7805 0.7801
1950.000000 0.7798 0.7795 0.7792 0.7789 0.7786
1955.000000 0.7783 0.7780 0.7775 0.7771 0.7768
1960.000000 0.7762 0.7758 0.7755 0.7750 0.7746
1965.000000 0.7742 0.7737 0.7733 0.7728 0.7724
1970.000000 0.7719 0.7715 0.7711 0.7708 0.7708
1975.000000 0.7707 0.7705 0.7704 0.7703 0.7701
1980.000000 0.7701 0.7700 0.7698 0.7697 0.7695
1985.000000 0.7694 0.7693 0.7693 0.7694 0.7696
1990.000000 0.7698 0.7699 0.7701 0.7703 0.7705
1995.000000 0.7706 0.7708 0.7710 0.7711 0.7714
2000.000000 0.7715 0.7715 0.7715 0.7711 0.7708
2005.000000 0.7704 0.7701 0.7697 0.7694 0.7690
2010.000000 0.7687 0.7682 0.7676 0.7671 0.7667
2015.000000 0.7661 0.7657 0.7651 0.7647 0.7641
2020.000000 0.7636 0.7630 0.7624 0.7618 0.7612
2025.000000 0.7608 0.7603 0.7598 0.7594 0.7589
2030.000000 0.7585 0.7580 0.7575 0.7571 0.7567
2035.000000 0.7561 0.7558 0.7554 0.7550 0.7546
2040.000000 0.7543 0.7539 0.7536 0.7532 0.7528
2045.000000 0.7525 0.7521 0.7518 0.7515 0.7511
2050.000000 0.7508 0.7505 0.7501 0.7498 0.7495
2055.000000 0.7492 0.7489 0.7486 0.7484 0.7481
2060.000000 0.7478 0.7475 0.7472 0.7469 0.7467
2065.000000 0.7464 0.7461 0.7458 0.7456 0.7453
2070.000000 0.7450 0.7447 0.7445 0.7441 0.7438
2075.000000 0.7433 0.7428 0.7424 0.7418 0.7414
2080.000000 0.7410 0.7405 0.7401 0.7396 0.7392
2085.000000 0.7387 0.7382 0.7376 0.7372 0.7368
2090.000000 0.7364 0.7360 0.7356 0.7351 0.7349
2095.000000 0.7345 0.7342 0.7338 0.7334 0.7330
2100.000000 0.7326 0.7322 0.7319 0.7315 0.7312
2105.000000 0.7308 0.7306 0.7301 0.7298 0.7294
2110.000000 0.7291 0.7287 0.7284 0.7280 0.7276
2115.000000 0.7272 0.7269 0.7265 0.7262 0.7257
2120.000000 0.7251 0.7246 0.7240 0.7234 0.7228
2125.000000 0.7221 0.7215 0.7210 0.7204 0.7198
2130.000000 0.7192 0.7185 0.7178 0.7172 0.7167
2135.000000 0.7161 0.7155 0.7148 0.7142 0.7135
2140.000000 0.7128 0.7121 0.7115 0.7110 0.7104
2145.000000 0.7097 0.7091 0.7084 0.7078 0.7071
2150.000000 0.7065 0.7058 0.7053 0.7046 0.7040
2155.000000 0.7034 0.7028 0.7021 0.7015 0.7008
2160.000000 0.7001 0.6996 0.6990 0.6983 0.6976
2165.000000 0.6969 0.6964 0.6957 0.6951 0.6945
2170.000000 0.6939 0.6932 0.6925 0.6918 0.6912
2175.000000 0.6907 0.6901 0.6894 0.6888 0.6881
2180.000000 0.6875 0.6868 0.6861 0.6856 0.6850
2185.000000 0.6843 0.6837 0.6831 0.6825 0.6818
2190.000000 0.6812 0.6807 0.6801 0.6794 0.6788
2195.000000 0.6782 0.6775 0.6769 0.6764 0.6758
2200.000000 0.6751 0.6746 0.6740 0.6734 0.6728
2205.000000 0.6721 0.6715 0.6708 0.6701 0.6694
2210.000000 0.6686 0.6678 0.6669 0.6661 0.6655
2215.000000 0.6647 0.6639 0.6631 0.6622 0.6615
2220.000000 0.6607 0.6599 0.6592 0.6584 0.6575
2225.000000 0.6568 0.6560 0.6551 0.6544 0.6536
2230.000000 0.6528 0.6522 0.6518 0.6511 0.6507
2235.000000 0.6501 0.6495 0.6489 0.6484 0.6478
2240.000000 0.6472 0.6467 0.6461 0.6456 0.6450
2245.000000 0.6444 0.6439 0.6433 0.6428 0.6421
2250.000000 0.6417 0.6411 0.6405 0.6399 0.6394
2255.000000 0.6388 0.6383 0.6377 0.6372 0.6366
2260.000000 0.6360 0.6354 0.6349 0.6344 0.6339
2265.000000 0.6335 0.6331 0.6327 0.6323 0.6319
2270.000000 0.6316 0.6312 0.6308 0.6304 0.6301
2275.000000 0.6297 0.6293 0.6289 0.6286 0.6282
2280.000000 0.6278 0.6274 0.6270 0.6266 0.6262
2285.000000 0.6259 0.6255 0.6251 0.6248 0.6244
2290.000000 0.6240 0.6236 0.6233 0.6229 0.6225
2295.000000 0.6221 0.6217 0.6210 0.6206 0.6200
2300.000000 0.6194 0.6187 0.6181 0.6175 0.6169
2305.000000 0.6162 0.6157 0.6151 0.6145 0.6139
2310.000000 0.6133 0.6127 0.6122 0.6116 0.6110
2315.000000 0.6104 0.6099 0.6093 0.6087 0.6080
2320.000000 0.6073 0.6064 0.6056 0.6046 0.6037
2325.000000 0.6027 0.6017 0.6007 0.5997 0.5987
2330.000000 0.5977 0.5976 0.5975 0.5975 0.5976
2335.000000 0.5976 0.5977 0.5978 0.5979 0.5980
2340.000000 0.5981 0.5982 0.5984 0.5985 0.5986
2345.000000 0.5987 0.5989 0.5990 0.5991 0.5992
2350.000000 0.5992 0.5991 0.5990 0.5988 0.5986
2355.000000 0.5984 0.5983 0.5981 0.5979 0.5977
2360.000000 0.5976 0.5974 0.5972 0.5968 0.5964
2365.000000 0.5959 0.5954 0.5949 0.5944 0.5939
2370.000000 0.5934 0.5929 0.5925 0.5920 0.5915
2375.000000 0.5910 0.5907 0.5905 0.5903 0.5900
2380.000000 0.5898 0.5896 0.5894 0.5891 0.5889
2385.000000 0.5887 0.5885 0.5881 0.5877 0.5873
2390.000000 0.5869 0.5865 0.5862 0.5858 0.5854
2395.000000 0.5850 0.5847 0.5844 0.5841 0.5838
2400.000000 0.5835 0.5832 0.5829 0.5826 0.5824
2405.000000 0.5821 0.5818 0.5815 0.5812 0.5809
2410.000000 0.5806 0.5803 0.5801 0.5798 0.5795
2415.000000 0.5792 0.5789 0.5786 0.5783 0.5780
2420.000000 0.5777 0.5774 0.5772 0.5769 0.5766
2425.000000 0.5762 0.5760 0.5757 0.5754 0.5751
2430.000000 0.5748 0.5745 0.5743 0.5742 0.5741
2435.000000 0.5740 0.5739 0.5738 0.5738 0.5737
2440.000000 0.5736 0.5735 0.5734 0.5733 0.5733
2445.000000 0.5732 0.5731 0.5730 0.5729 0.5729
2450.000000 0.5729 0.5731 0.5733 0.5735 0.5737
2455.000000 0.5739 0.5741 0.5743 0.5745 0.5747
2460.000000 0.5750 0.5752 0.5754 0.5756 0.5758
2465.000000 0.5760 0.5762 0.5756 0.5750 0.5743
2470.000000 0.5736 0.5729 0.5722 0.5715 0.5708
2475.000000 0.5700 0.5693 0.5685 0.5678 0.5670
2480.000000 0.5662 0.5658 0.5653 0.5648 0.5643
2485.000000 0.5638 0.5634 0.5629 0.5624 0.5620
2490.000000 0.5617 0.5614 0.5612 0.5609 0.5607
2495.000000 0.5604 0.5601 0.5598 0.5596 0.5592
2500.000000 0.5589 0.5584 0.5580 0.5575 0.5571
2505.000000 0.5566 0.5562 0.5557 0.5553 0.5548
2510.000000 0.5544 0.5539 0.5534 0.5529 0.5524
2515.000000 0.5519 0.5514 0.5509 0.5504 0.5499
2520.000000 0.5494 0.5489 0.5485 0.5480 0.5476
2525.000000 0.5471 0.5467 0.5462 0.5458 0.5453
2530.000000 0.5449 0.5444 0.5440 0.5435 0.5431
2535.000000 0.5426 0.5421 0.5416 0.5410 0.5406
2540.000000 0.5401 0.5396 0.5392 0.5387 0.5382
2545.000000 0.5377 0.5372 0.5367 0.5362 0.5356
2550.000000 0.5350 0.5344 0.5338 0.5332 0.5326
2555.000000 0.5320 0.5314 0.5308 0.5302 0.5295
2560.000000 0.5289 0.5283 0.5277 0.5271 0.5265
2565.000000 0.5259 0.5253 0.5247 0.5241 0.5235
2570.000000 0.5229 0.5223 0.5217 0.5210 0.5206
2575.000000 0.5200 0.5195 0.5189 0.5183 0.5177
2580.000000 0.5172 0.5166 0.5160 0.5155 0.5150
2585.000000 0.5144 0.5138 0.5132 0.5127 0.5121
2590.000000 0.5116 0.5110 0.5105 0.5099 0.5093
2595.000000 0.5086 0.5079 0.5071 0.5062 0.5055
2600.000000 0.5047 0.5039 0.5031 0.5023 0.5015
2605.000000 0.5007 0.4999 0.4990 0.4982 0.4974
2610.000000 0.4966 0.4958 0.4950 0.4942 0.4934
2615.000000 0.4927 0.4921 0.4914 0.4908 0.4901
2620.000000 0.4895 0.4888 0.4882 0.4875 0.4869
2625.000000 0.4862 0.4856 0.4849 0.4843 0.4836
2630.000000 0.4830 0.4823 0.4817 0.4810 0.4804
2635.000000 0.4797 0.4791 0.4784 0.4778 0.4771
2640.000000 0.4765 0.4758 0.4752 0.4745 0.4739
2645.000000 0.4732 0.4726 0.4719 0.4712 0.4706
2650.000000 0.4700 0.4693 0.4687 0.4681 0.4675
2655.000000 0.4668 0.4662 0.4655 0.4649 0.4642
2660.000000 0.4636 0.4629 0.4623 0.4616 0.4610
2665.000000 0.4602 0.4595 0.4586 0.4578 0.4570
2670.000000 0.4562 0.4554 0.4546 0.4538 0.4530
2675.000000 0.4522 0.4514 0.4506 0.4498 0.4490
2680.000000 0.4482 0.4474 0.4466 0.4458 0.4450
2685.000000 0.4442 0.4434 0.4425 0.4417 0.4409
2690.000000 0.4401 0.4393 0.4385 0.4377 0.4369
2695.000000 0.4359 0.4349 0.4339 0.4329 0.4319
2700.000000 0.4309 0.4299 0.4290 0.4280 0.4270
2705.000000 0.4260 0.4250 0.4240 0.4231 0.4221
2710.000000 0.4210 0.4201 0.4191 0.4181 0.4171
2715.000000 0.4160 0.4152 0.4142 0.4132 0.4124
2720.000000 0.4117 0.4110 0.4103 0.4096 0.4090
2725.000000 0.4082 0.4077 0.4070 0.4062 0.4056
2730.000000 0.4050 0.4043 0.4037 0.4030 0.4023
2735.000000 0.4016 0.4009 0.4003 0.3997 0.3990
2740.000000 0.3982 0.3976 0.3970 0.3962 0.3957
2745.000000 0.3950 0.3943 0.3936 0.3930 0.3922
2750.000000 0.3914 0.3908 0.3900 0.3893 0.3886
2755.000000 0.3878 0.3871 0.3864 0.3857 0.3849
2760.000000 0.3842 0.3834 0.3828 0.3820 0.3812
2765.000000 0.3806 0.3799 0.3791 0.3784 0.3775
2770.000000 0.3766 0.3757 0.3748 0.3739 0.3730
2775.000000 0.3722 0.3712 0.3704 0.3695 0.3686
2780.000000 0.3678 0.3666 0.3657 0.3644 0.3632
2785.000000 0.3618 0.3607 0.3594 0.3582 0.3570
2790.000000 0.3558 0.3550 0.3542 0.3532 0.3525
2795.000000 0.3518 0.3512 0.3510 0.3509 0.3504
2800.000000 0.3498 0.3491 0.3484 0.3479 0.3473
2805.000000 0.3466 0.3459 0.3453 0.3447 0.3441
2810.000000 0.3434 0.3429 0.3424 0.3418 0.3414
2815.000000 0.3409 0.3405 0.3400 0.3395 0.3390
2820.000000 0.3386 0.3374 0.3362 0.3345 0.3328
2825.000000 0.3310 0.3294 0.3277 0.3259 0.3240
2830.000000 0.3220 0.3200 0.3181 0.3153 0.3125
2835.000000 0.3097 0.3069 0.3039 0.3010 0.2975
2840.000000 0.2941 0.2908 0.2875 0.2875 0.2876
2845.000000 0.2876 0.2877 0.2877 0.2878 0.2893
2850.000000 0.2908 0.2934 0.2961 0.3013 0.3065
2855.000000 0.3095 0.3126 0.3154 0.3182 0.3198
2860.000000 0.3214 0.3218 0.3221 0.3223 0.3222
2865.000000 0.3221 0.3216 0.3207 0.3198 0.3187
2870.000000 0.3177 0.3163 0.3149 0.3134 0.3120
2875.000000 0.3099 0.3079 0.3059 0.3039 0.3020
2880.000000 0.3001 0.2981 0.2961 0.2935 0.2912
2885.000000 0.2888 0.2864 0.2839 0.2815 0.2787
2890.000000 0.2760 0.2731 0.2703 0.2674 0.2645
2895.000000 0.2619 0.2594 0.2574 0.2555 0.2534
2900.000000 0.2515 0.2495 0.2475 0.2455 0.2435
2905.000000 0.2416 0.2396 0.2377 0.2358 0.2338
2910.000000 0.2319 0.2302 0.2284 0.2284 0.2284
2915.000000 0.2285 0.2287 0.2287 0.2288 0.2301
2920.000000 0.2314 0.2332 0.2351 0.2375 0.2399
2925.000000 0.2439 0.2480 0.2523 0.2567 0.2609
2930.000000 0.2651 0.2688 0.2726 0.2763 0.2800
2935.000000 0.2835 0.2873 0.2907 0.2942 0.2977
2940.000000 0.3012 0.3053 0.3094 0.3145 0.3196
2945.000000 0.3244 0.3293 0.3330 0.3368 0.3405
2950.000000 0.3441 0.3456 0.3471 0.3486 0.3502
2955.000000 0.3516 0.3532 0.3548 0.3564 0.3575
2960.000000 0.3587 0.3596 0.3605 0.3614 0.3624
2965.000000 0.3632 0.3642 0.3647 0.3652 0.3650
2970.000000 0.3650 0.3650 0.3650 0.3649 0.3649
2975.000000 0.3647 0.3700 0.3644 0.3642 0.3639
2980.000000 0.3637 0.3634 0.3632 0.3630 0.3628
2985.000000 0.3625 0.3623 0.3621 0.3618 0.3616
2990.000000 0.3614 0.3612 0.3610 0.3609 0.3607
2995.000000 0.3605 0.3603 0.3600 0.3600 0.3598
3000.000000 0.3596 0.3594 0.3592 0.3590 0.3588
3005.000000 0.3586 0.3584 0.3582 0.3580 0.3579
3010.000000 0.3577 0.3575 0.3574 0.3572 0.3570
3015.000000 0.3568 0.3566 0.3564 0.3564 0.3562
3020.000000 0.3562 0.3559 0.3559 0.3557 0.3556
3025.000000 0.3554 0.3553 0.3550 0.3550 0.3548
3030.000000 0.3547 0.3545 0.3544 0.3544 0.3544
3035.000000 0.3544 0.3544 0.3544 0.3544 0.3544
3040.000000 0.3544 0.3546 0.3548 0.3550 0.3553
3045.000000 0.3556 0.3559 0.3560 0.3564 0.3566
3050.000000 0.3571 0.3575 0.3579 0.3582 0.3586
3055.000000 0.3590 0.3594 0.3597 0.3600 0.3605
3060.000000 0.3609 0.3612 0.3616 0.3620 0.3624
3065.000000 0.3627 0.3630 0.3630 0.3632 0.3634
3070.000000 0.3634 0.3636 0.3637 0.3638 0.3640
3075.000000 0.3641 0.3642 0.3643 0.3644 0.3645
3080.000000 0.3646 0.3646 0.3646 0.3646 0.3647
3085.000000 0.3647 0.3648 0.3649 0.3650 0.3656
3090.000000 0.3660 0.3664 0.3670 0.3671 0.3673
3095.000000 0.3668 0.3666 0.3662 0.3659 0.3656
3100.000000 0.3653 0.3649 0.3646 0.3643 0.3640
3105.000000 0.3636 0.3632 0.3629 0.3626 0.3621
3110.000000 0.3616 0.3612 0.3607 0.3600 0.3596
3115.000000 0.3590 0.3584 0.3580 0.3575 0.3568
3120.000000 0.3564 0.3559 0.3554 0.3548 0.3543
3125.000000 0.3537 0.3532 0.3527 0.3522 0.3516
3130.000000 0.3510 0.3505 0.3500 0.3495 0.3490
3135.000000 0.3484 0.3479 0.3474 0.3468 0.3466
3140.000000 0.3462 0.3459 0.3458 0.3455 0.3453
3145.000000 0.3450 0.3448 0.3445 0.3443 0.3440
3150.000000 0.3438 0.3436 0.3436 0.3436 0.3438
3155.000000 0.3440 0.3442 0.3444 0.3446 0.3447
3160.000000 0.3449 0.3450 0.3453 0.3459 0.3466
3165.000000 0.3473 0.3480 0.3486 0.3492 0.3498
3170.000000 0.3505 0.3510 0.3516 0.3523 0.3529
3175.000000 0.3534 0.3542 0.3548 0.3554 0.3559
3180.000000 0.3618 0.3568 0.3573 0.3578 0.3582
3185.000000 0.3588 0.3593 0.3590 0.3588 0.3584
3190.000000 0.3582 0.3579 0.3577 0.3574 0.3572
3195.000000 0.3568 0.3566 0.3564 0.3562 0.3559
3200.000000 0.3557 0.3552 0.3547 0.3542 0.3537
3205.000000 0.3532 0.3527 0.3522 0.3516 0.3512
3210.000000 0.3509 0.3508 0.3508 0.3507 0.3506
3215.000000 0.3514 0.3522 0.3530 0.3539 0.3550
3220.000000 0.3562 0.3575 0.3588 0.3596 0.3605
3225.000000 0.3612 0.3622 0.3630 0.3639 0.3648
3230.000000 0.3658 0.3668 0.3680 0.3691 0.3700
3235.000000 0.3707 0.3712 0.3718 0.3724 0.3729
3240.000000 0.3734 0.3739 0.3744 0.3748 0.3753
3245.000000 0.3757 0.3762 0.3766 0.3771 0.3780
3250.000000 0.3790 0.3800 0.3809 0.3820 0.3830
3255.000000 0.3840 0.3850 0.3880 0.3909 0.3941
3260.000000 0.3972 0.4006 0.4041 0.4084 0.4127
3265.000000 0.4189 0.4252 0.4310 0.4368 0.4417
3270.000000 0.4467 0.4516 0.4565 0.4601 0.4638
3275.000000 0.4664 0.4691 0.4723 0.4755 0.4774
3280.000000 0.4793 0.4805 0.4817 0.4829 0.4841
3285.000000 0.4849 0.4857 0.4864 0.4871 0.4876
3290.000000 0.4889 0.4882 0.4882 0.4882 0.4882
3295.000000 0.4879 0.4877 0.4867 0.4858 0.4848
3300.000000 0.4839 0.4829 0.4820 0.4810 0.4801
3305.000000 0.4788 0.4775 0.4760 0.4747 0.4733
3310.000000 0.4720 0.4706 0.4692 0.4676 0.4660
3315.000000 0.4638 0.4616 0.4594 0.4572 0.4539
3320.000000 0.4506 0.4457 0.4408 0.4367 0.4327
3325.000000 0.4309 0.4292 0.4291 0.4291 0.4294
3330.000000 0.4297 0.4304 0.4310 0.4350 0.4390
3335.000000 0.4820 0.5250 0.5328 0.5406 0.5457
3340.000000 0.5508 0.5543 0.5578 0.5584 0.5590
3345.000000 0.5596 0.5603 0.5607 0.5610 0.5612
3350.000000 0.5614 0.5615 0.5617 0.5618 0.5620
3355.000000 0.5621 0.5622 0.5622 0.5623 0.5624
3360.000000 0.5625 0.5625 0.5626 0.5626 0.5627
3365.000000 0.5627 0.5627 0.5627 0.5627 0.5626
3370.000000 0.5626 0.5626 0.5626 0.5625 0.5625
3375.000000 0.5624 0.5624 0.5624 0.5624 0.5623
3380.000000 0.5623 0.5623 0.5623 0.5622 0.5622
3385.000000 0.5622 0.5622 0.5621 0.5621 0.5619
3390.000000 0.5618 0.5617 0.5616 0.5614 0.5612
3395.000000 0.5612 0.5610 0.5609 0.5608 0.5605
3400.000000 0.5602 0.5599 0.5596 0.5592 0.5589
3405.000000 0.5586 0.5583 0.5579 0.5576 0.5572
3410.000000 0.5569 0.5565 0.5562 0.5557 0.5553
3415.000000 0.5548 0.5544 0.5540 0.5536 0.5531
3420.000000 0.5527 0.5522 0.5517 0.5512 0.5508
3425.000000 0.5503 0.5499 0.5494 0.5489 0.5484
3430.000000 0.5480 0.5475 0.5471 0.5466 0.5460
3435.000000 0.5456 0.5452 0.5447 0.5443 0.5438
3440.000000 0.5433 0.5428 0.5424 0.5419 0.5415
3445.000000 0.5410 0.5405 0.5400 0.5396 0.5391
3450.000000 0.5387 0.5382 0.5377 0.5372 0.5368
3455.000000 0.5362 0.5359 0.5354 0.5349 0.5344
3460.000000 0.5340 0.5337 0.5335 0.5333 0.5331
3465.000000 0.5328 0.5326 0.5323 0.5321 0.5318
3470.000000 0.5316 0.5312 0.5310 0.5308 0.5306
3475.000000 0.5303 0.5301 0.5299 0.5297 0.5294
3480.000000 0.5292 0.5289 0.5287 0.5284 0.5282
3485.000000 0.5279 0.5277 0.5274 0.5272 0.5269
3490.000000 0.5267 0.5265 0.5262 0.5260 0.5258
3495.000000 0.5255 0.5253 0.5251 0.5250 0.5248
3500.000000 0.5247 0.5245 0.5243 0.5241 0.5240
3505.000000 0.5238 0.5237 0.5235 0.5234 0.5232
3510.000000 0.5230 0.5228 0.5227 0.5225 0.5224
3515.000000 0.5222 0.5221 0.5219 0.5217 0.5215
3520.000000 0.5214 0.5212 0.5210 0.5209 0.5208
3525.000000 0.5206 0.5204 0.5203 0.5202 0.5201
3530.000000 0.5200 0.5199 0.5199 0.5198 0.5197
3535.000000 0.5196 0.5195 0.5194 0.5193 0.5192
3540.000000 0.5192 0.5191 0.5190 0.5189 0.5188
3545.000000 0.5187 0.5186 0.5185 0.5185 0.5184
3550.000000 0.5183 0.5182 0.5181 0.5180 0.5180
3555.000000 0.5179 0.5178 0.5177 0.5176 0.5175
3560.000000 0.5174 0.5173 0.5172 0.5171 0.5170
3565.000000 0.5168 0.5167 0.5166 0.5165 0.5164
3570.000000 0.5162 0.5160 0.5160 0.5159 0.5158
3575.000000 0.5157 0.5156 0.5154 0.5153 0.5152
3580.000000 0.5151 0.5150 0.5149 0.5147 0.5146
3585.000000 0.5145 0.5144 0.5143 0.5142 0.5140
3590.000000 0.5139 0.5138 0.5137 0.5136 0.5135
3595.000000 0.5133 0.5132 0.5130 0.5129 0.5126
3600.000000 0.5124 0.5122 0.5120 0.5118 0.5116
3605.000000 0.5114 0.5112 0.5110 0.5108 0.5106
3610.000000 0.5104 0.5102 0.5100 0.5098 0.5096
3615.000000 0.5093 0.5091 0.5089 0.5087 0.5085
3620.000000 0.5083 0.5081 0.5079 0.5077 0.5075
3625.000000 0.5073 0.5071 0.5069 0.5067 0.5065
3630.000000 0.5062 0.5060 0.5058 0.5056 0.5054
3635.000000 0.5052 0.5050 0.5048 0.5046 0.5044
3640.000000 0.5042 0.5039 0.5036 0.5033 0.5030
3645.000000 0.5027 0.5024 0.5021 0.5019 0.5016
3650.000000 0.5012 0.5010 0.5007 0.5004 0.5001
3655.000000 0.4998 0.4995 0.4992 0.4989 0.4986
3660.000000 0.4983 0.4980 0.4977 0.4974 0.4972
3665.000000 0.4969 0.4966 0.4962 0.4960 0.4957
3670.000000 0.4954 0.4951 0.4949 0.4946 0.4943
3675.000000 0.4940 0.4938 0.4935 0.4932 0.4929
3680.000000 0.4927 0.4924 0.4921 0.4918 0.4916
3685.000000 0.4912 0.4910 0.4907 0.4905 0.4902
3690.000000 0.4899 0.4896 0.4894 0.4891 0.4888
3695.000000 0.4885 0.4883 0.4880 0.4877 0.4874
3700.000000 0.4872 0.4869 0.4866 0.4862 0.4859
3705.000000 0.4856 0.4853 0.4850 0.4847 0.4844
3710.000000 0.4841 0.4838 0.4835 0.4832 0.4829
3715.000000 0.4825 0.4822 0.4819 0.4816 0.4812
3720.000000 0.4810 0.4807 0.4804 0.4801 0.4798
3725.000000 0.4795 0.4792 0.4789 0.4786 0.4782
3730.000000 0.4779 0.4776 0.4773 0.4770 0.4767
3735.000000 0.4764 0.4760 0.4758 0.4755 0.4752
3740.000000 0.4749 0.4746 0.4743 0.4740 0.4737
3745.000000 0.4734 0.4731 0.4728 0.4725 0.4722
3750.000000 0.4719 0.4716 0.4712 0.4710 0.4707
3755.000000 0.4704 0.4701 0.4698 0.4695 0.4692
3760.000000 0.4690 0.4688 0.4686 0.4684 0.4682
3765.000000 0.4680 0.4678 0.4675 0.4673 0.4671
3770.000000 0.4669 0.4667 0.4665 0.4662 0.4660
3775.000000 0.4659 0.4657 0.4654 0.4652 0.4651
3780.000000 0.4650 0.4649 0.4648 0.4647 0.4646
3785.000000 0.4645 0.4644 0.4643 0.4642 0.4641
3790.000000 0.4640 0.4639 0.4638 0.4637 0.4636
3795.000000 0.4635 0.4634 0.4633 0.4632 0.4631
3800.000000 0.4631
##END=
