##TITLE=PHENOTHIAZINE-3-PROPIONIC ACID, 10-METHYL-, HYDRAZIDE
##JCAMP-DX=4.24
##DATA TYPE=INFRARED SPECTRUM
##CLASS=COBLENTZ III
##ORIGIN=SMITH KLINE & FRENCH LABS.
##OWNER=COBLENTZ SOCIETY
Collection (C) 2018 copyright by the U.S. Secretary of Commerce
on behalf of the United States of America. All rights reserved.
##DATE=1958/08/19
##NAMES=3-(10-methyl-10H-phenothiazin-3-yl)propanohydrazide
##CAS REGISTRY NO=116633-00-2
##MOLFORM=C16 H17 N3 O S
##SOURCE REFERENCE=COBLENTZ NO. 7259
##$NIST SOURCE=COBLENTZ
##$NIST IMAGE=cob7259
##SPECTROMETER/DATA SYSTEM=PERKIN-ELMER 21 (GRATING)
##INSTRUMENT PARAMETERS=NaCl PRISM
##STATE=SOLID (NUJOL MULL)
$$SPECTRAL CONTAMINATION DUE TO OIL AROUND 2900, 1465, 1375 CM^-^1
##SAMPLING PROCEDURE=TRANSMISSION
##RESOLUTION=2
##DATA PROCESSING=DIGITIZED BY NIST FROM HARD COPY
##XUNITS=MICROMETERS
##YUNITS=TRANSMITTANCE
##XFACTOR=1.000000
##YFACTOR=1
##DELTAX=000.004894
##FIRSTX=1.992
##LASTX=15.5627
##FIRSTY=0.631
##MAXX=15.5627
##MINX=1.992
##MAXY=0.998
##MINY=0.114
##NPOINTS=2774
##XYDATA=(X++(Y..Y))
1.992000 0.6310 0.6300 0.6300 0.6310 0.6300
2.016479 0.6300 0.6280 0.6300 0.6310 0.6320
2.041000 0.6320 0.6320 0.6310 0.6320 0.6330
2.065479 0.6350 0.6370 0.6370 0.6380 0.6380
2.090000 0.6420 0.6580 0.6610 0.6640 0.6650
2.114479 0.6640 0.6630 0.6590 0.6600 0.6600
2.139000 0.6610 0.6610 0.6630 0.6640 0.6650
2.163479 0.6670 0.6670 0.6700 0.6720 0.6730
2.188000 0.6750 0.6750 0.6760 0.6760 0.6780
2.212479 0.6780 0.6780 0.6810 0.6810 0.6810
2.237000 0.6820 0.6830 0.6870 0.6890 0.6890
2.261479 0.6870 0.6860 0.6840 0.6830 0.6810
2.285000 0.6800 0.6800 0.6780 0.6780 0.6770
2.309479 0.6760 0.6750 0.6750 0.6770 0.6770
2.334000 0.6770 0.6780 0.6800 0.6870 0.6880
2.358479 0.6900 0.6930 0.6940 0.6950 0.6970
2.383000 0.6990 0.6990 0.6990 0.7000 0.7000
2.407479 0.7000 0.7010 0.7030 0.7010 0.7030
2.432000 0.7060 0.7090 0.7110 0.7120 0.7120
2.456479 0.7140 0.7160 0.7160 0.7160 0.7170
2.481000 0.7180 0.7200 0.7220 0.7210 0.7210
2.505479 0.7210 0.7180 0.7180 0.7170 0.7170
2.530000 0.7170 0.7180 0.7180 0.7210 0.7220
2.554479 0.7230 0.7260 0.7270 0.7270 0.7250
2.579000 0.7220 0.7220 0.7230 0.7250 0.7280
2.603479 0.7360 0.7420 0.7450 0.7480 0.7480
2.628000 0.7460 0.7460 0.7450 0.7440 0.7450
2.652479 0.7460 0.7460 0.7490 0.7530 0.7550
2.677000 0.7560 0.7560 0.7570 0.7590 0.7570
2.701479 0.7570 0.7570 0.7560 0.7550 0.7540
2.726000 0.7530 0.7510 0.7510 0.7500 0.7500
2.750479 0.7490 0.7490 0.7480 0.7480 0.7490
2.775000 0.7490 0.7490 0.7490 0.7490 0.7490
2.799479 0.7500 0.7510 0.7490 0.7450 0.7430
2.824000 0.7420 0.7400 0.7400 0.7430 0.7430
2.848479 0.7440 0.7490 0.7480 0.7460 0.7460
2.873000 0.7450 0.7450 0.7430 0.7420 0.7400
2.897479 0.7380 0.7330 0.7280 0.7280 0.7270
2.922000 0.7280 0.7250 0.7230 0.7220 0.7180
2.946479 0.7090 0.7040 0.7000 0.6840 0.6700
2.971000 0.6550 0.6370 0.6100 0.5420 0.5090
2.995479 0.4750 0.4420 0.4090 0.3290 0.2880
3.020000 0.2540 0.2280 0.2260 0.2270 0.2280
3.044479 0.2320 0.3190 0.4070 0.4840 0.4980
3.069000 0.5270 0.5570 0.5850 0.6110 0.6220
3.093479 0.6330 0.6350 0.6370 0.6370 0.6310
3.117000 0.6200 0.6190 0.6150 0.6110 0.6110
3.141479 0.6150 0.6160 0.6210 0.6240 0.6270
3.166000 0.6540 0.6650 0.6700 0.6830 0.6880
3.190479 0.6900 0.6980 0.7030 0.7100 0.7140
3.215000 0.7210 0.7230 0.7270 0.7310 0.7320
3.239479 0.7320 0.7280 0.7120 0.7100 0.7080
3.264000 0.6990 0.6980 0.6930 0.6880 0.6810
3.288479 0.6610 0.6590 0.6590 0.6580 0.6580
3.313000 0.6580 0.6560 0.6550 0.6530 0.6490
3.337479 0.6440 0.6390 0.6270 0.6130 0.6090
3.362000 0.5490 0.5000 0.4500 0.4090 0.3390
3.386479 0.3100 0.2810 0.2540 0.2280 0.2250
3.411000 0.2200 0.2060 0.1810 0.1750 0.1670
3.435479 0.1590 0.1580 0.1600 0.1760 0.1840
3.460000 0.2010 0.2180 0.2400 0.2550 0.2700
3.484479 0.3000 0.3000 0.2940 0.2870 0.2790
3.509000 0.2760 0.2730 0.2760 0.2790 0.3810
3.533479 0.4440 0.5040 0.5970 0.6150 0.6320
3.558000 0.6390 0.6420 0.6500 0.6530 0.6650
3.582479 0.6860 0.7090 0.7230 0.7280 0.7390
3.607000 0.7490 0.7590 0.7610 0.7700 0.7790
3.631479 0.7880 0.7910 0.7930 0.7960 0.7980
3.656000 0.7990 0.7990 0.8000 0.8000 0.8010
3.680479 0.8020 0.8020 0.8040 0.8040 0.8040
3.705000 0.8050 0.8060 0.8060 0.8060 0.8070
3.729479 0.8070 0.8070 0.8090 0.8100 0.8100
3.754000 0.8100 0.8110 0.8110 0.8110 0.8120
3.778479 0.8110 0.8110 0.8100 0.8100 0.8100
3.803000 0.8100 0.8100 0.8090 0.8090 0.8070
3.827479 0.8090 0.8090 0.8090 0.8100 0.8100
3.852000 0.8110 0.8110 0.8110 0.8180 0.8180
3.876479 0.8190 0.8190 0.8190 0.8210 0.8210
3.900000 0.8210 0.8210 0.8300 0.8390 0.8410
3.924479 0.8430 0.8430 0.8430 0.8430 0.8440
3.949000 0.8440 0.8490 0.8550 0.8580 0.8580
3.973479 0.8580 0.8580 0.8580 0.8600 0.8600
3.998000 0.8600 0.8600 0.8580 0.8510 0.8490
4.022479 0.8470 0.8470 0.8470 0.8500 0.8510
4.047000 0.8550 0.8570 0.8610 0.8600 0.8600
4.071479 0.8570 0.8500 0.8500 0.8520 0.8520
4.096000 0.8520 0.8600 0.8600 0.8570 0.8570
4.120479 0.8570 0.8570 0.8550 0.8550 0.8550
4.145000 0.8540 0.8520 0.8500 0.8490 0.8500
4.169479 0.8500 0.8510 0.8510 0.8510 0.8520
4.194000 0.8520 0.8510 0.8500 0.8510 0.8500
4.218479 0.8500 0.8500 0.8490 0.8460 0.8440
4.243000 0.8440 0.8430 0.8430 0.8430 0.8430
4.267479 0.8430 0.8430 0.8450 0.8450 0.8470
4.292000 0.8490 0.8490 0.8500 0.8510 0.8510
4.316479 0.8520 0.8560 0.8600 0.8620 0.8630
4.341000 0.8630 0.8640 0.8640 0.8640 0.8640
4.365479 0.8660 0.8660 0.8660 0.8660 0.8660
4.390000 0.8660 0.8660 0.8660 0.8660 0.8660
4.414479 0.8640 0.8640 0.8640 0.8630 0.8640
4.439000 0.8630 0.8630 0.8620 0.8620 0.8630
4.463479 0.8640 0.8640 0.8660 0.8660 0.8660
4.488000 0.8660 0.8680 0.8710 0.8750 0.8780
4.512479 0.8780 0.8750 0.8730 0.8710 0.8690
4.537000 0.8680 0.8710 0.8710 0.8810 0.8840
4.561479 0.8840 0.8810 0.8810 0.8800 0.8800
4.586000 0.8770 0.8730 0.8720 0.8720 0.8730
4.610479 0.8730 0.8780 0.8780 0.8790 0.8790
4.635000 0.8790 0.8790 0.8840 0.8840 0.8800
4.659479 0.8790 0.8790 0.8780 0.8780 0.8780
4.684000 0.8780 0.8780 0.8790 0.8800 0.8840
4.708479 0.8840 0.8830 0.8830 0.8830 0.8830
4.732000 0.8810 0.8810 0.8810 0.8810 0.8810
4.756479 0.8800 0.8790 0.8780 0.8780 0.8780
4.781000 0.8780 0.8790 0.8790 0.8810 0.8830
4.805479 0.8840 0.8840 0.8840 0.8840 0.8840
4.830000 0.8830 0.8790 0.8780 0.8790 0.8800
4.854479 0.8800 0.8810 0.8810 0.8810 0.8850
4.879000 0.8860 0.8860 0.8860 0.8860 0.8860
4.903479 0.8850 0.8850 0.8840 0.8830 0.8850
4.928000 0.8860 0.8860 0.8860 0.8880 0.8890
4.952479 0.8900 0.8900 0.8900 0.8900 0.8900
4.977000 0.8900 0.8900 0.8910 0.8910 0.8890
5.001479 0.8860 0.8810 0.8800 0.8810 0.8840
5.026000 0.8890 0.8900 0.8950 0.9010 0.9060
5.050479 0.9060 0.9030 0.9020 0.9010 0.8940
5.075000 0.8920 0.8940 0.8970 0.9000 0.9000
5.099479 0.9010 0.9010 0.9010 0.9020 0.9020
5.124000 0.9010 0.9010 0.9000 0.9000 0.8940
5.148479 0.8940 0.8910 0.8910 0.8890 0.8900
5.173000 0.8910 0.8940 0.8940 0.8950 0.8940
5.197479 0.8960 0.8950 0.8990 0.9010 0.9010
5.222000 0.9010 0.9030 0.9080 0.9080 0.9060
5.246479 0.9050 0.9030 0.8990 0.8920 0.8920
5.271000 0.8910 0.8910 0.8920 0.8960 0.8990
5.295479 0.9000 0.9000 0.9010 0.9010 0.9010
5.320000 0.9010 0.9010 0.9010 0.9000 0.8970
5.344479 0.8940 0.8920 0.8910 0.8920 0.8940
5.369000 0.8940 0.8960 0.8970 0.8990 0.9000
5.393479 0.9020 0.9030 0.9070 0.9080 0.9110
5.418000 0.9110 0.9120 0.9120 0.9130 0.9130
5.442479 0.9120 0.9120 0.9070 0.9030 0.9020
5.467000 0.9020 0.9030 0.9030 0.9050 0.9050
5.491479 0.9050 0.9050 0.9030 0.9020 0.9010
5.515000 0.9010 0.9010 0.9000 0.9010 0.9010
5.539479 0.9020 0.9020 0.9030 0.9050 0.9090
5.564000 0.9090 0.9080 0.9080 0.9080 0.9060
5.588479 0.9030 0.8960 0.8950 0.8910 0.8900
5.613000 0.8900 0.8900 0.8910 0.8920 0.8960
5.637479 0.8970 0.9010 0.9010 0.9010 0.9000
5.662000 0.9000 0.9000 0.8960 0.8950 0.8920
5.686479 0.8900 0.8810 0.8790 0.8790 0.8830
5.711000 0.8840 0.8850 0.8880 0.8880 0.8880
5.735479 0.8880 0.8890 0.8910 0.8920 0.8990
5.760000 0.8990 0.9000 0.9000 0.9000 0.9000
5.784479 0.9000 0.9010 0.9000 0.9000 0.8940
5.809000 0.8920 0.8910 0.8920 0.8920 0.8900
5.833479 0.8890 0.8850 0.8840 0.8810 0.8830
5.858000 0.8850 0.8890 0.8920 0.8920 0.8890
5.882479 0.8880 0.8860 0.8850 0.8800 0.8750
5.907000 0.8720 0.8720 0.8710 0.8640 0.8570
5.931479 0.8500 0.8500 0.8460 0.8450 0.8430
5.956000 0.8410 0.8390 0.8330 0.8290 0.8220
5.980479 0.8190 0.8060 0.7820 0.7710 0.7590
6.005000 0.7490 0.7360 0.7210 0.7080 0.7010
6.029479 0.6920 0.6720 0.6270 0.5310 0.4930
6.054000 0.4620 0.4330 0.3320 0.2610 0.1610
6.078479 0.1370 0.1190 0.1140 0.1140 0.1150
6.103000 0.1150 0.1210 0.1330 0.1390 0.1480
6.127479 0.1770 0.2010 0.2250 0.3010 0.3510
6.152000 0.4200 0.4900 0.4920 0.5060 0.5410
6.176479 0.5870 0.5930 0.5980 0.6030 0.6050
6.201000 0.6050 0.5870 0.5870 0.5900 0.5960
6.225479 0.6000 0.6150 0.6520 0.6710 0.7060
6.250000 0.7230 0.7510 0.7650 0.7710 0.7810
6.274479 0.7910 0.7940 0.7980 0.8010 0.8000
6.299000 0.7890 0.7760 0.7680 0.7610 0.7590
6.323479 0.7550 0.7570 0.7620 0.7710 0.7890
6.347000 0.7930 0.7960 0.8000 0.8020 0.8060
6.371479 0.8090 0.8100 0.8110 0.8110 0.8110
6.396000 0.8110 0.8110 0.8120 0.8130 0.8150
6.420479 0.8150 0.8170 0.8190 0.8210 0.8210
6.445000 0.8170 0.8160 0.8130 0.8100 0.8050
6.469479 0.8020 0.8000 0.7760 0.7510 0.7060
6.494000 0.6610 0.6160 0.5520 0.5060 0.4650
6.518479 0.4510 0.4480 0.4440 0.4440 0.4470
6.543000 0.4720 0.5100 0.5190 0.5350 0.5660
6.567479 0.5850 0.6030 0.6210 0.6520 0.6660
6.592000 0.6780 0.6890 0.7080 0.7210 0.7310
6.616479 0.7230 0.7200 0.7030 0.6860 0.6700
6.641000 0.6520 0.6270 0.6190 0.6140 0.6140
6.665479 0.6140 0.6130 0.6130 0.6140 0.6410
6.690000 0.6490 0.6600 0.6700 0.6800 0.6890
6.714479 0.6970 0.6980 0.6980 0.6920 0.6840
6.739000 0.6770 0.6760 0.6200 0.5630 0.5340
6.763479 0.5060 0.5030 0.4620 0.4190 0.3350
6.788000 0.2930 0.2510 0.2090 0.1660 0.1550
6.812479 0.1440 0.1430 0.1450 0.1630 0.1800
6.837000 0.1920 0.2040 0.2340 0.2500 0.2570
6.861479 0.2870 0.3470 0.3920 0.4090 0.4270
6.886000 0.4360 0.4610 0.4810 0.5150 0.5180
6.910479 0.5170 0.5090 0.5000 0.4870 0.4810
6.935000 0.4800 0.4820 0.5020 0.5800 0.6260
6.959479 0.6720 0.6940 0.7030 0.7040 0.7210
6.984000 0.7340 0.7390 0.7390 0.7210 0.7220
7.008479 0.7220 0.7230 0.7280 0.7330 0.7400
7.033000 0.7480 0.7600 0.7620 0.7700 0.7740
7.057479 0.7810 0.7830 0.7890 0.7910 0.7930
7.082000 0.7950 0.7980 0.8000 0.8010 0.7900
7.106479 0.7890 0.7890 0.7890 0.7890 0.7890
7.131000 0.7890 0.7890 0.7910 0.7940 0.7950
7.155479 0.7960 0.7990 0.8010 0.8010 0.8010
7.179000 0.8010 0.8010 0.7940 0.7850 0.7760
7.203479 0.7740 0.7630 0.7460 0.7320 0.7030
7.228000 0.6870 0.6690 0.6490 0.6270 0.6050
7.252479 0.5750 0.5600 0.5580 0.5540 0.5580
7.277000 0.5690 0.5870 0.6040 0.6390 0.6520
7.301479 0.6670 0.6770 0.6820 0.6900 0.7000
7.326000 0.7010 0.7100 0.7120 0.7250 0.7400
7.350479 0.7450 0.7510 0.7550 0.7600 0.7620
7.375000 0.7700 0.7710 0.7730 0.7740 0.7760
7.399479 0.7730 0.7680 0.7600 0.7460 0.7390
7.424000 0.7360 0.7210 0.7090 0.7000 0.7000
7.448479 0.6990 0.6900 0.6890 0.6730 0.6700
7.473000 0.6630 0.6560 0.6330 0.6050 0.5520
7.497479 0.5150 0.4810 0.4470 0.4110 0.3790
7.522000 0.3790 0.3900 0.4010 0.4910 0.5550
7.546479 0.6190 0.6210 0.6360 0.6760 0.6820
7.571000 0.7010 0.7090 0.7090 0.7120 0.7400
7.595479 0.7500 0.7510 0.7550 0.7570 0.7600
7.620000 0.7630 0.7720 0.7840 0.7910 0.7940
7.644479 0.7980 0.7990 0.7990 0.8000 0.8000
7.669000 0.8000 0.8000 0.7980 0.7950 0.7940
7.693479 0.7930 0.7930 0.7930 0.7910 0.7900
7.718000 0.7760 0.7600 0.7540 0.7370 0.7200
7.742479 0.7010 0.6940 0.6870 0.6780 0.6730
7.767000 0.6720 0.6690 0.6710 0.6900 0.7100
7.791479 0.7250 0.7440 0.7540 0.7620 0.7730
7.816000 0.7810 0.7890 0.7930 0.7950 0.7960
7.840479 0.7980 0.7980 0.7980 0.7980 0.7900
7.865000 0.7790 0.7610 0.7510 0.7400 0.7270
7.889479 0.7000 0.6760 0.6610 0.6520 0.6410
7.914000 0.6210 0.6100 0.5820 0.5580 0.5400
7.938479 0.5020 0.4690 0.4370 0.4070 0.3860
7.962000 0.3850 0.3860 0.3890 0.4120 0.4340
7.986479 0.5040 0.5180 0.5310 0.5430 0.5550
8.011000 0.5680 0.5800 0.5920 0.5970 0.5990
8.035479 0.6020 0.6320 0.6560 0.6760 0.6800
8.060000 0.6810 0.6830 0.6890 0.7000 0.7040
8.084479 0.7120 0.7370 0.7540 0.7670 0.7770
8.109000 0.7900 0.7960 0.8020 0.8130 0.8190
8.133479 0.8220 0.8270 0.8300 0.8330 0.8400
8.158000 0.8410 0.8450 0.8460 0.8510 0.8520
8.182479 0.8540 0.8560 0.8600 0.8610 0.8630
8.207000 0.8640 0.8640 0.8660 0.8660 0.8670
8.231479 0.8710 0.8740 0.8750 0.8750 0.8740
8.256000 0.8750 0.8750 0.8750 0.8750 0.8750
8.280479 0.8770 0.8770 0.8770 0.8780 0.8780
8.305000 0.8790 0.8800 0.8810 0.8830 0.8840
8.329479 0.8850 0.8880 0.8900 0.8900 0.8890
8.354000 0.8900 0.8900 0.8910 0.8920 0.8920
8.378479 0.8920 0.8920 0.8920 0.8940 0.8960
8.403000 0.9000 0.9000 0.9010 0.9010 0.9010
8.427479 0.9010 0.9010 0.9010 0.9010 0.9010
8.452000 0.9010 0.9010 0.8950 0.8920 0.8910
8.476479 0.8900 0.8890 0.8890 0.8840 0.8840
8.501000 0.8830 0.8830 0.8810 0.8810 0.8800
8.525479 0.8790 0.8790 0.8740 0.8720 0.8690
8.550000 0.8620 0.8600 0.8540 0.8490 0.8320
8.574479 0.8220 0.8110 0.8050 0.8000 0.7730
8.599000 0.7730 0.7730 0.7790 0.7910 0.7980
8.623479 0.8020 0.8060 0.8090 0.8090 0.8090
8.648000 0.8100 0.8100 0.8060 0.8010 0.7930
8.672479 0.7930 0.7910 0.7900 0.7930 0.7990
8.697000 0.8040 0.8160 0.8190 0.8190 0.8190
8.721479 0.8210 0.8190 0.8180 0.8120 0.8010
8.746000 0.7790 0.7610 0.7310 0.6990 0.6670
8.770479 0.6410 0.6180 0.6160 0.6190 0.6380
8.794000 0.6810 0.7440 0.7710 0.7910 0.7990
8.818479 0.8060 0.8120 0.8230 0.8320 0.8330
8.843000 0.8350 0.8380 0.8400 0.8440 0.8500
8.867479 0.8500 0.8500 0.8500 0.8500 0.8500
8.892000 0.8500 0.8500 0.8440 0.8330 0.8300
8.916479 0.8290 0.8240 0.8240 0.8290 0.8400
8.941000 0.8430 0.8450 0.8500 0.8510 0.8520
8.965479 0.8600 0.8600 0.8600 0.8610 0.8610
8.990000 0.8360 0.8280 0.8190 0.8110 0.8020
9.014479 0.7900 0.7820 0.7810 0.7830 0.7930
9.039000 0.8020 0.8220 0.8320 0.8520 0.8560
9.063479 0.8620 0.8690 0.8730 0.8800 0.8830
9.088000 0.8910 0.8940 0.9010 0.9010 0.9020
9.112479 0.9050 0.9060 0.9090 0.9110 0.9120
9.137000 0.9190 0.9200 0.9200 0.9200 0.9200
9.161479 0.9200 0.9200 0.9220 0.9230 0.9240
9.186000 0.9250 0.9270 0.9280 0.9290 0.9300
9.210479 0.9300 0.9300 0.9310 0.9310 0.9310
9.235000 0.9310 0.9310 0.9310 0.9310 0.9310
9.259479 0.9310 0.9310 0.9300 0.9300 0.9300
9.284000 0.9300 0.9300 0.9300 0.9300 0.9300
9.308479 0.9300 0.9300 0.9300 0.9290 0.9290
9.333000 0.9290 0.9270 0.9270 0.9270 0.9250
9.357479 0.9240 0.9240 0.9230 0.9230 0.9220
9.382000 0.9220 0.9220 0.9220 0.9220 0.9200
9.406479 0.9200 0.9200 0.9200 0.9200 0.9200
9.431000 0.9200 0.9190 0.9180 0.9170 0.9160
9.455479 0.9160 0.9120 0.9110 0.9090 0.9110
9.480000 0.9110 0.9110 0.9060 0.9020 0.8940
9.504479 0.8900 0.8850 0.8540 0.8410 0.8390
9.529000 0.8270 0.8230 0.8170 0.8180 0.8180
9.553479 0.8230 0.8230 0.8240 0.8290 0.8290
9.577000 0.8210 0.8000 0.7790 0.7680 0.7590
9.601479 0.7400 0.7220 0.6990 0.6980 0.6980
9.626000 0.6990 0.7000 0.7200 0.7260 0.7340
9.650479 0.7460 0.7710 0.7910 0.8120 0.8150
9.675000 0.8210 0.8260 0.8290 0.8320 0.8400
9.699479 0.8410 0.8600 0.8610 0.8620 0.8660
9.724000 0.8690 0.8740 0.8790 0.8800 0.8810
9.748479 0.8840 0.8900 0.8910 0.8910 0.8950
9.773000 0.8950 0.8970 0.8990 0.8990 0.8990
9.797479 0.8940 0.8890 0.8830 0.8780 0.8710
9.822000 0.8710 0.8690 0.8630 0.8630 0.8610
9.846479 0.8600 0.8580 0.8610 0.8680 0.8780
9.871000 0.8810 0.8840 0.8840 0.8790 0.8750
9.895479 0.8740 0.8740 0.8740 0.8740 0.8740
9.920000 0.8730 0.8730 0.8670 0.8550 0.8500
9.944479 0.8450 0.8270 0.8060 0.8000 0.7670
9.969000 0.7500 0.7330 0.7150 0.6980 0.6700
9.993479 0.6520 0.6240 0.6030 0.5830 0.5850
10.018000 0.5850 0.5980 0.6020 0.6040 0.6070
10.042479 0.6410 0.6560 0.6820 0.7110 0.7400
10.067000 0.7530 0.7720 0.7890 0.8060 0.8210
10.091479 0.8290 0.8300 0.8400 0.8500 0.8600
10.116000 0.8830 0.8900 0.8910 0.9010 0.9070
10.140479 0.9110 0.9120 0.9130 0.9160 0.9180
10.165000 0.9200 0.9220 0.9230 0.9250 0.9300
10.189479 0.9330 0.9350 0.9400 0.9460 0.9510
10.214000 0.9510 0.9510 0.9510 0.9510 0.9470
10.238479 0.9450 0.9460 0.9470 0.9470 0.9470
10.263000 0.9510 0.9510 0.9510 0.9510 0.9480
10.287479 0.9480 0.9510 0.9510 0.9510 0.9510
10.312000 0.9510 0.9520 0.9530 0.9530 0.9540
10.336479 0.9530 0.9520 0.9480 0.9440 0.9400
10.361000 0.9350 0.9350 0.9340 0.9340 0.9340
10.385479 0.9340 0.9350 0.9360 0.9390 0.9410
10.409000 0.9440 0.9420 0.9420 0.9420 0.9420
10.433479 0.9470 0.9470 0.9410 0.9370 0.9350
10.458000 0.9340 0.9310 0.9300 0.9250 0.9240
10.482479 0.9220 0.9200 0.9200 0.9190 0.9200
10.507000 0.9200 0.9180 0.9160 0.9130 0.9110
10.531479 0.9010 0.8950 0.8920 0.8920 0.8910
10.556000 0.8910 0.8900 0.8890 0.8840 0.8840
10.580479 0.8840 0.8840 0.8840 0.8850 0.8850
10.605000 0.8850 0.8880 0.8880 0.8910 0.8960
10.629479 0.9000 0.9010 0.9010 0.9010 0.9020
10.654000 0.9030 0.9020 0.9030 0.9090 0.9110
10.678479 0.9120 0.9130 0.9140 0.9160 0.9160
10.703000 0.9140 0.9120 0.9090 0.9120 0.9130
10.727479 0.9160 0.9190 0.9200 0.9220 0.9230
10.752000 0.9240 0.9290 0.9290 0.9290 0.9220
10.776479 0.9200 0.9120 0.9050 0.9010 0.8970
10.801000 0.8950 0.8960 0.8970 0.9060 0.9290
10.825479 0.9300 0.9310 0.9310 0.9310 0.9350
10.850000 0.9390 0.9420 0.9440 0.9450 0.9470
10.874479 0.9510 0.9530 0.9540 0.9540 0.9540
10.899000 0.9540 0.9540 0.9540 0.9500 0.9500
10.923479 0.9530 0.9690 0.9690 0.9700 0.9700
10.948000 0.9630 0.9630 0.9630 0.9640 0.9650
10.972479 0.9670 0.9680 0.9650 0.9640 0.9620
10.997000 0.9580 0.9540 0.9420 0.9370 0.9310
11.021479 0.9310 0.9310 0.9300 0.9290 0.9240
11.046000 0.9230 0.9220 0.9230 0.9290 0.9300
11.070479 0.9310 0.9340 0.9360 0.9400 0.9410
11.095000 0.9420 0.9420 0.9420 0.9410 0.9420
11.119479 0.9440 0.9520 0.9530 0.9530 0.9540
11.144000 0.9540 0.9540 0.9540 0.9540 0.9540
11.168479 0.9540 0.9540 0.9540 0.9540 0.9540
11.192000 0.9540 0.9530 0.9530 0.9530 0.9530
11.216479 0.9530 0.9540 0.9540 0.9540 0.9570
11.241000 0.9590 0.9590 0.9590 0.9610 0.9610
11.265479 0.9610 0.9620 0.9620 0.9620 0.9620
11.290000 0.9620 0.9620 0.9620 0.9620 0.9620
11.314479 0.9620 0.9620 0.9620 0.9620 0.9610
11.339000 0.9610 0.9520 0.9450 0.9450 0.9440
11.363479 0.9420 0.9410 0.9400 0.9400 0.9370
11.388000 0.9350 0.9310 0.9300 0.9270 0.9220
11.412479 0.9200 0.9190 0.9110 0.9060 0.9010
11.437000 0.8910 0.8840 0.8800 0.8790 0.8790
11.461479 0.8780 0.8790 0.8880 0.9070 0.9300
11.486000 0.9410 0.9510 0.9560 0.9570 0.9610
11.510479 0.9610 0.9620 0.9680 0.9740 0.9750
11.535000 0.9780 0.9800 0.9810 0.9810 0.9820
11.559479 0.9820 0.9820 0.9820 0.9820 0.9820
11.584000 0.9820 0.9840 0.9840 0.9840 0.9840
11.608479 0.9840 0.9850 0.9850 0.9850 0.9850
11.633000 0.9840 0.9820 0.9810 0.9800 0.9800
11.657479 0.9740 0.9740 0.9730 0.9700 0.9620
11.682000 0.9530 0.9510 0.9450 0.9440 0.9410
11.706479 0.9240 0.9050 0.8910 0.8850 0.8730
11.731000 0.8640 0.8620 0.8610 0.8570 0.8510
11.755479 0.8500 0.8440 0.8430 0.8410 0.8410
11.780000 0.8400 0.8400 0.8410 0.8430 0.8570
11.804479 0.8770 0.8900 0.9000 0.9170 0.9230
11.829000 0.9300 0.9510 0.9620 0.9630 0.9640
11.853479 0.9650 0.9690 0.9690 0.9680 0.9670
11.878000 0.9670 0.9650 0.9640 0.9640 0.9670
11.902479 0.9720 0.9790 0.9800 0.9820 0.9840
11.927000 0.9840 0.9840 0.9850 0.9850 0.9870
11.951479 0.9870 0.9890 0.9890 0.9910 0.9920
11.976000 0.9960 0.9980 0.9980 0.9980 0.9980
12.000479 0.9980 0.9980 0.9970 0.9960 0.9950
12.024000 0.9930 0.9910 0.9910 0.9910 0.9900
12.048479 0.9900 0.9910 0.9920 0.9930 0.9930
12.073000 0.9920 0.9910 0.9900 0.9840 0.9810
12.097479 0.9800 0.9790 0.9790 0.9790 0.9750
12.122000 0.9700 0.9620 0.9610 0.9510 0.9440
12.146479 0.9330 0.9240 0.9110 0.9020 0.8970
12.171000 0.8860 0.8780 0.8640 0.8500 0.8320
12.195479 0.8150 0.7840 0.7740 0.7680 0.7560
12.220000 0.7500 0.7400 0.7270 0.7100 0.6900
12.244479 0.6800 0.6630 0.6430 0.6240 0.6030
12.269000 0.5570 0.5260 0.5120 0.5100 0.5100
12.293479 0.5120 0.5130 0.5290 0.5630 0.5960
12.318000 0.6110 0.6260 0.6520 0.6900 0.7210
12.342479 0.7400 0.7570 0.7870 0.7990 0.8110
12.367000 0.8190 0.8330 0.8570 0.8630 0.8710
12.391479 0.8780 0.8850 0.9090 0.9140 0.9160
12.416000 0.9250 0.9310 0.9350 0.9400 0.9480
12.440479 0.9670 0.9700 0.9700 0.9700 0.9700
12.465000 0.9700 0.9700 0.9700 0.9720 0.9730
12.489479 0.9740 0.9750 0.9760 0.9760 0.9760
12.514000 0.9780 0.9790 0.9790 0.9800 0.9810
12.538479 0.9810 0.9820 0.9820 0.9840 0.9840
12.563000 0.9850 0.9860 0.9850 0.9850 0.9850
12.587479 0.9850 0.9850 0.9850 0.9850 0.9850
12.612000 0.9850 0.9850 0.9850 0.9850 0.9840
12.636479 0.9820 0.9810 0.9790 0.9760 0.9750
12.661000 0.9720 0.9650 0.9640 0.9630 0.9630
12.685479 0.9650 0.9730 0.9730 0.9740 0.9740
12.710000 0.9740 0.9740 0.9740 0.9730 0.9730
12.734479 0.9720 0.9700 0.9700 0.9690 0.9680
12.759000 0.9670 0.9650 0.9650 0.9640 0.9630
12.783479 0.9620 0.9610 0.9610 0.9590 0.9580
12.808000 0.9570 0.9580 0.9580 0.9590 0.9590
12.832479 0.9590 0.9590 0.9590 0.9590 0.9590
12.856000 0.9590 0.9610 0.9610 0.9610 0.9590
12.880479 0.9590 0.9590 0.9610 0.9610 0.9610
12.905000 0.9610 0.9610 0.9610 0.9610 0.9610
12.929479 0.9610 0.9610 0.9610 0.9590 0.9580
12.954000 0.9560 0.9570 0.9560 0.9560 0.9560
12.978479 0.9540 0.9540 0.9530 0.9520 0.9510
13.003000 0.9510 0.9510 0.9510 0.9500 0.9500
13.027479 0.9500 0.9460 0.9440 0.9440 0.9420
13.052000 0.9420 0.9420 0.9410 0.9400 0.9390
13.076479 0.9390 0.9370 0.9360 0.9350 0.9340
13.101000 0.9350 0.9350 0.9350 0.9350 0.9350
13.125479 0.9350 0.9350 0.9350 0.9350 0.9350
13.150000 0.9350 0.9350 0.9350 0.9340 0.9340
13.174479 0.9340 0.9340 0.9340 0.9340 0.9340
13.199000 0.9330 0.9310 0.9290 0.9270 0.9200
13.223479 0.9190 0.9130 0.9090 0.8970 0.8860
13.248000 0.8720 0.8560 0.8390 0.8170 0.8010
13.272479 0.7660 0.7380 0.7160 0.6870 0.6650
13.297000 0.6370 0.6130 0.5650 0.5480 0.5420
13.321479 0.5410 0.5420 0.5420 0.5490 0.5550
13.346000 0.5660 0.5800 0.5820 0.5820 0.5830
13.370479 0.5820 0.5710 0.5470 0.5130 0.4800
13.395000 0.4500 0.4290 0.4270 0.4240 0.4180
13.419479 0.4200 0.4400 0.4820 0.5240 0.5410
13.444000 0.5630 0.5860 0.6040 0.6220 0.6410
13.468479 0.6490 0.6670 0.6870 0.6900 0.6930
13.493000 0.6930 0.6940 0.6940 0.6950 0.6950
13.517479 0.6950 0.6970 0.6970 0.6990 0.7000
13.542000 0.7010 0.7030 0.7040 0.7050 0.7050
13.566479 0.7050 0.7050 0.7000 0.6920 0.6800
13.591000 0.6760 0.6590 0.6500 0.6410 0.6270
13.615479 0.6100 0.6020 0.6000 0.5920 0.5920
13.639000 0.5910 0.5910 0.5920 0.5980 0.6030
13.663479 0.6070 0.6240 0.6370 0.6440 0.6520
13.688000 0.6640 0.6870 0.7010 0.7140 0.7270
13.712479 0.7330 0.7430 0.7610 0.7940 0.8020
13.737000 0.8100 0.8150 0.8170 0.8170 0.8130
13.761479 0.8120 0.8110 0.8110 0.8110 0.8110
13.786000 0.8120 0.8160 0.8210 0.8220 0.8240
13.810479 0.8270 0.8280 0.8280 0.8290 0.8290
13.835000 0.8290 0.8290 0.8300 0.8300 0.8300
13.859479 0.8290 0.8290 0.8300 0.8320 0.8320
13.884000 0.8320 0.8320 0.8330 0.8330 0.8340
13.908479 0.8340 0.8350 0.8350 0.8350 0.8380
13.933000 0.8380 0.8390 0.8390 0.8390 0.8380
13.957479 0.8380 0.8360 0.8340 0.8330 0.8300
13.982000 0.8290 0.8270 0.8240 0.8230 0.8150
14.006479 0.8110 0.8060 0.7870 0.7790 0.7780
14.031000 0.7730 0.7710 0.7700 0.7680 0.7610
14.055479 0.7590 0.7590 0.7570 0.7590 0.7590
14.080000 0.7620 0.7650 0.7700 0.7730 0.7790
14.104479 0.7840 0.7890 0.7910 0.7930 0.7930
14.129000 0.7990 0.8000 0.8000 0.8000 0.8010
14.153479 0.8010 0.8010 0.8020 0.8040 0.8050
14.178000 0.8050 0.8050 0.8050 0.8050 0.8050
14.202479 0.8050 0.8050 0.8050 0.8040 0.8040
14.227000 0.8020 0.8020 0.8020 0.8010 0.8010
14.251479 0.8010 0.8000 0.8000 0.7890 0.7890
14.276000 0.7890 0.7890 0.7890 0.7880 0.7890
14.300479 0.7880 0.7880 0.7880 0.7880 0.7880
14.325000 0.7870 0.7870 0.7870 0.7870 0.7840
14.349479 0.7830 0.7830 0.7830 0.7830 0.7830
14.374000 0.7830 0.7830 0.7820 0.7820 0.7820
14.398479 0.7820 0.7820 0.7830 0.7830 0.7830
14.423000 0.7830 0.7830 0.7830 0.7840 0.7840
14.447479 0.7830 0.7830 0.7850 0.7850 0.7900
14.471000 0.7910 0.7940 0.7950 0.7960 0.7980
14.495479 0.7980 0.7990 0.8000 0.8000 0.8000
14.520000 0.8000 0.7990 0.7990 0.7980 0.7980
14.544479 0.7960 0.7950 0.7930 0.7910 0.7910
14.569000 0.7910 0.7910 0.7910 0.7910 0.7910
14.593479 0.7910 0.7900 0.7900 0.7900 0.7890
14.618000 0.7900 0.7900 0.7910 0.7910 0.7910
14.642479 0.7910 0.7910 0.7930 0.7930 0.7930
14.667000 0.7930 0.7940 0.7950 0.7980 0.7990
14.691479 0.8000 0.7990 0.8000 0.8000 0.8010
14.716000 0.8040 0.8040 0.8060 0.8100 0.8090
14.740479 0.8100 0.8100 0.8100 0.8110 0.8110
14.765000 0.8120 0.8190 0.8190 0.8220 0.8230
14.789479 0.8230 0.8230 0.8230 0.8240 0.8260
14.814000 0.8280 0.8290 0.8290 0.8290 0.8300
14.838479 0.8320 0.8330 0.8330 0.8340 0.8340
14.863000 0.8340 0.8340 0.8340 0.8350 0.8380
14.887479 0.8380 0.8380 0.8380 0.8380 0.8360
14.912000 0.8350 0.8340 0.8340 0.8340 0.8330
14.936479 0.8290 0.8260 0.8230 0.8210 0.8170
14.961000 0.8160 0.8160 0.8130 0.8130 0.8120
14.985479 0.8120 0.8110 0.8110 0.8110 0.8100
15.010000 0.8100 0.8090 0.8070 0.8070 0.8060
15.034479 0.8060 0.8050 0.8050 0.8050 0.8040
15.059000 0.8040 0.8040 0.8040 0.8040 0.8040
15.083479 0.8040 0.8040 0.8040 0.8040 0.8040
15.108000 0.8040 0.8040 0.8040 0.8040 0.8040
15.132479 0.8040 0.8040 0.8040 0.8040 0.8040
15.157000 0.8040 0.8040 0.8040 0.8040 0.8040
15.181479 0.8040 0.8040 0.8040 0.8040 0.8040
15.206000 0.8040 0.8040 0.8040 0.8040 0.8040
15.230479 0.8040 0.8040 0.8040 0.8040 0.8040
15.254000 0.8040 0.8040 0.8040 0.8040 0.8040
15.278479 0.8040 0.8040 0.8040 0.8040 0.8040
15.303000 0.8040 0.8040 0.8040 0.8040 0.8040
15.327479 0.8040 0.8040 0.8040 0.8040 0.8040
15.352000 0.8040 0.8040 0.8040 0.8040 0.8040
15.376479 0.8040 0.8040 0.8040 0.8040 0.8040
15.401000 0.8040 0.8040 0.8040 0.8040 0.8040
15.425479 0.8040 0.8040 0.8040 0.8040 0.8040
15.450000 0.8040 0.8040 0.8040 0.8040 0.8040
15.474479 0.8040 0.8040 0.8040 0.8040 0.8040
15.499000 0.8040 0.8040 0.8040 0.8040 0.8040
15.523479 0.8040 0.8040 0.8040 0.8040 0.8040
15.548000 0.8040 0.8040 0.8040 0.8040
##END=
