##TITLE=2-PHENYL MERCAPTO-3-BENZYL PYRAZINE
##JCAMP-DX=4.24
##DATA TYPE=INFRARED SPECTRUM
##CLASS=COBLENTZ
##ORIGIN=WYANDOTTE CHEMICALS CORP., WYANDOTTE, MICHIGAN, USA
##OWNER=COBLENTZ SOCIETY
Collection (C) 2018 copyright by the U.S. Secretary of Commerce
on behalf of the United States of America. All rights reserved.
##DATE=Not specified, most likely prior to 1970
##NAMES=3-benzyl-2-pyrazinyl phenyl sulfide
2-benzyl-3-(phenylsulfanyl)pyrazine
##CAS REGISTRY NO=116660-04-9
##MOLFORM=C17 H14 N2 S
##MP=75-76 C
##SOURCE REFERENCE=COBLENTZ NO. 2789
##$NIST SOURCE=COBLENTZ
##$NIST IMAGE=cob2789
##SPECTROMETER/DATA SYSTEM=Not specified, most likely a prism, grating, or hybrid spectrometer.
##STATE=SOLID (MINERAL OIL MULL)
##PATH LENGTH=
$$SPECTRAL CONTAMINATION DUE TO OIL AROUND 2900 CM^-^1
##SAMPLING PROCEDURE=TRANSMISSION
##RESOLUTION=4
##DATA PROCESSING=DIGITIZED BY NIST FROM HARD COPY
##XUNITS=MICROMETERS
##YUNITS=TRANSMITTANCE
##XFACTOR=1.000000
##YFACTOR=1
##DELTAX=000.006635
##FIRSTX=2.04
##LASTX=15.9995
##FIRSTY=0.188
##MAXX=15.9995
##MINX=2.04
##MAXY=0.995
##MINY=0.019
##NPOINTS=2105
##XYDATA=(X++(Y..Y))
2.040000 0.1880 0.1880 0.1880 0.1880 0.1900
2.073191 0.1920 0.1930 0.1950 0.1970 0.1980
2.106000 0.2000 0.2000 0.2010 0.2010 0.2010
2.139191 0.2010 0.2010 0.2010 0.2010 0.2010
2.173000 0.2010 0.2010 0.2010 0.2010 0.2010
2.206191 0.2010 0.2010 0.2010 0.2010 0.2010
2.239000 0.2010 0.2010 0.2010 0.2030 0.2030
2.272191 0.2050 0.2050 0.2080 0.2080 0.2080
2.305000 0.2080 0.2080 0.2080 0.2080 0.2100
2.338191 0.2130 0.2150 0.2160 0.2160 0.2160
2.372000 0.2180 0.2180 0.2180 0.2180 0.2180
2.405191 0.2180 0.2200 0.2200 0.2210 0.2250
2.438000 0.2280 0.2300 0.2300 0.2310 0.2310
2.471191 0.2300 0.2300 0.2310 0.2310 0.2310
2.504000 0.2330 0.2330 0.2330 0.2330 0.2350
2.537191 0.2360 0.2410 0.2410 0.2430 0.2450
2.571000 0.2450 0.2460 0.2460 0.2480 0.2480
2.604191 0.2480 0.2460 0.2460 0.2460 0.2480
2.637000 0.2510 0.2560 0.2590 0.2590 0.2610
2.670191 0.2610 0.2610 0.2610 0.2610 0.2610
2.703000 0.2610 0.2610 0.2610 0.2610 0.2610
2.736191 0.2610 0.2610 0.2610 0.2610 0.2610
2.770000 0.2630 0.2660 0.2690 0.2740 0.2740
2.803191 0.2760 0.2760 0.2780 0.2780 0.2780
2.836000 0.2780 0.2780 0.2780 0.2780 0.2780
2.869191 0.2780 0.2780 0.2780 0.2780 0.2760
2.902000 0.2760 0.2760 0.2760 0.2760 0.2760
2.935191 0.2760 0.2760 0.2760 0.2760 0.2760
2.969000 0.2760 0.2760 0.2760 0.2760 0.2780
3.002191 0.2790 0.2810 0.2810 0.2830 0.2830
3.035000 0.2840 0.2840 0.2860 0.2880 0.2880
3.068191 0.2890 0.2890 0.2890 0.2890 0.2880
3.101000 0.2880 0.2860 0.2860 0.2840 0.2840
3.134191 0.2830 0.2830 0.2810 0.2810 0.2810
3.168000 0.2790 0.2790 0.2790 0.2780 0.2780
3.201191 0.2740 0.2740 0.2730 0.2710 0.2660
3.234000 0.2560 0.2430 0.2250 0.2060 0.1900
3.267191 0.1750 0.1680 0.1680 0.1630 0.1550
3.300000 0.1470 0.1350 0.1250 0.1150 0.1000
3.333191 0.0840 0.0510 0.0210 0.0190 0.0190
3.367000 0.0190 0.0190 0.0190 0.0190 0.0190
3.400191 0.0190 0.0210 0.0210 0.0210 0.0210
3.433000 0.0230 0.0240 0.0260 0.0260 0.0260
3.466191 0.0260 0.0260 0.0260 0.0280 0.0280
3.500000 0.0290 0.0380 0.0510 0.0720 0.0990
3.533191 0.1350 0.1770 0.2380 0.2790 0.3120
3.566000 0.3590 0.3750 0.3900 0.4050 0.4220
3.599191 0.4320 0.4350 0.4420 0.4430 0.4470
3.632000 0.4500 0.4510 0.4500 0.4480 0.4470
3.665191 0.4400 0.4380 0.4380 0.4370 0.4370
3.699000 0.4380 0.4420 0.4420 0.4400 0.4370
3.732191 0.4350 0.4350 0.4350 0.4370 0.4380
3.765000 0.4380 0.4380 0.4400 0.4450 0.4470
3.798191 0.4500 0.4530 0.4550 0.4550 0.4560
3.831000 0.4560 0.4560 0.4560 0.4580 0.4610
3.864191 0.4650 0.4660 0.4700 0.4750 0.4760
3.898000 0.4780 0.4800 0.4810 0.4860 0.4950
3.931191 0.4960 0.4980 0.5000 0.5000 0.5010
3.964000 0.5010 0.5030 0.5040 0.5040 0.5060
3.997191 0.5060 0.5080 0.5090 0.5090 0.5110
4.030000 0.5110 0.5130 0.5130 0.5140 0.5160
4.063191 0.5160 0.5180 0.5180 0.5180 0.5180
4.097000 0.5180 0.5190 0.5190 0.5190 0.5190
4.130191 0.5210 0.5210 0.5210 0.5210 0.5230
4.163000 0.5230 0.5230 0.5230 0.5240 0.5240
4.196191 0.5240 0.5240 0.5240 0.5230 0.5190
4.229000 0.5180 0.5130 0.5030 0.5000 0.4960
4.262191 0.4950 0.4950 0.4960 0.4980 0.5010
4.296000 0.5060 0.5110 0.5180 0.5210 0.5240
4.329191 0.5260 0.5280 0.5310 0.5380 0.5480
4.362000 0.5540 0.5590 0.5620 0.5640 0.5690
4.395191 0.5690 0.5670 0.5670 0.5660 0.5640
4.428000 0.5610 0.5590 0.5560 0.5540 0.5540
4.461191 0.5560 0.5620 0.5670 0.5670 0.5690
4.495000 0.5690 0.5710 0.5710 0.5740 0.5760
4.528191 0.5770 0.5790 0.5810 0.5810 0.5810
4.561000 0.5820 0.5820 0.5840 0.5840 0.5840
4.594191 0.5860 0.5860 0.5860 0.5890 0.5890
4.627000 0.5910 0.5920 0.5940 0.5960 0.5960
4.660191 0.5960 0.5960 0.5960 0.5960 0.5970
4.694000 0.5970 0.5990 0.6000 0.6040 0.6050
4.727191 0.6090 0.6120 0.6170 0.6200 0.6220
4.760000 0.6220 0.6240 0.6250 0.6250 0.6250
4.793191 0.6250 0.6250 0.6250 0.6250 0.6250
4.827000 0.6270 0.6270 0.6290 0.6290 0.6300
4.860191 0.6300 0.6290 0.6240 0.6240 0.6250
4.893000 0.6250 0.6270 0.6290 0.6320 0.6350
4.926191 0.6370 0.6370 0.6390 0.6390 0.6390
4.959000 0.6400 0.6420 0.6450 0.6470 0.6470
4.992191 0.6470 0.6490 0.6500 0.6520 0.6520
5.026000 0.6520 0.6520 0.6520 0.6520 0.6500
5.059191 0.6500 0.6500 0.6500 0.6500 0.6500
5.092000 0.6500 0.6470 0.6450 0.6450 0.6420
5.125191 0.6400 0.6390 0.6350 0.6320 0.6320
5.158000 0.6290 0.6270 0.6270 0.6290 0.6300
5.191191 0.6320 0.6340 0.6350 0.6370 0.6400
5.225000 0.6420 0.6420 0.6420 0.6420 0.6450
5.258191 0.6520 0.6570 0.6570 0.6570 0.6550
5.291000 0.6520 0.6450 0.6420 0.6420 0.6420
5.324191 0.6440 0.6450 0.6450 0.6470 0.6500
5.357000 0.6520 0.6550 0.6580 0.6650 0.6800
5.390191 0.6870 0.6880 0.6880 0.6880 0.6870
5.424000 0.6870 0.6850 0.6850 0.6850 0.6850
5.457191 0.6850 0.6850 0.6830 0.6830 0.6830
5.490000 0.6820 0.6820 0.6800 0.6750 0.6750
5.523191 0.6730 0.6720 0.6700 0.6680 0.6670
5.556000 0.6670 0.6700 0.6770 0.6830 0.6900
5.589191 0.6970 0.6980 0.7080 0.7100 0.7100
5.623000 0.7060 0.7000 0.6970 0.6970 0.6970
5.656191 0.6970 0.6970 0.6930 0.6920 0.6870
5.689000 0.6850 0.6850 0.6850 0.6870 0.6950
5.722191 0.6970 0.6970 0.6980 0.7000 0.7100
5.755000 0.7200 0.7300 0.7300 0.7210 0.7050
5.788191 0.7050 0.7050 0.7130 0.7280 0.7280
5.822000 0.7260 0.7080 0.6980 0.6980 0.6980
5.855191 0.6980 0.7050 0.7250 0.7300 0.7300
5.888000 0.7260 0.7080 0.7080 0.7080 0.7130
5.921191 0.7210 0.7210 0.7200 0.7150 0.7110
5.955000 0.7110 0.7130 0.7200 0.7210 0.7230
5.988191 0.7210 0.7110 0.7050 0.7010 0.7030
6.021000 0.7130 0.7260 0.7380 0.7400 0.7380
6.054191 0.7380 0.7310 0.7260 0.7280 0.7460
6.087000 0.7460 0.7460 0.7400 0.7350 0.7350
6.120191 0.7360 0.7400 0.7460 0.7460 0.7460
6.154000 0.7380 0.7310 0.7110 0.6930 0.6680
6.187191 0.6670 0.6720 0.6980 0.7100 0.7200
6.220000 0.7310 0.7360 0.7360 0.7360 0.7210
6.253191 0.7060 0.7030 0.7030 0.7050 0.7110
6.286000 0.7210 0.7330 0.7380 0.7460 0.7530
6.319191 0.7610 0.7640 0.7640 0.7530 0.7500
6.353000 0.7500 0.7530 0.7610 0.7660 0.7660
6.386191 0.7640 0.7500 0.7330 0.7180 0.7030
6.419000 0.6970 0.6970 0.7030 0.7110 0.7180
6.452191 0.7300 0.7510 0.7580 0.7610 0.7660
6.485000 0.7660 0.7660 0.7580 0.7310 0.6980
6.518191 0.6620 0.6250 0.5560 0.5140 0.4560
6.552000 0.3970 0.3360 0.3340 0.3370 0.4080
6.585191 0.4660 0.5190 0.5860 0.6220 0.6290
6.618000 0.6200 0.5760 0.4650 0.3650 0.3620
6.651191 0.3640 0.3920 0.4280 0.4630 0.5040
6.684000 0.5390 0.5410 0.5380 0.4810 0.4280
6.717191 0.3790 0.3470 0.3140 0.2180 0.1520
6.751000 0.1270 0.1090 0.0940 0.0910 0.0910
6.784191 0.0910 0.0910 0.0920 0.0940 0.0940
6.817000 0.0940 0.0960 0.0990 0.1070 0.1150
6.850191 0.1270 0.1390 0.1490 0.1580 0.1600
6.883000 0.1580 0.1530 0.1400 0.1370 0.1390
6.916191 0.1700 0.2110 0.2680 0.3240 0.4080
6.950000 0.4610 0.5030 0.5330 0.5560 0.5720
6.983191 0.5860 0.5940 0.6040 0.6120 0.6220
7.016000 0.6320 0.6440 0.6520 0.6620 0.6730
7.049191 0.6850 0.6870 0.6870 0.6830 0.6820
7.082000 0.6820 0.6800 0.6800 0.6800 0.6730
7.115191 0.6700 0.6650 0.6520 0.6470 0.6420
7.149000 0.6340 0.6220 0.6050 0.5870 0.5620
7.182191 0.5160 0.4550 0.3850 0.3570 0.3290
7.215000 0.2830 0.2430 0.2080 0.1580 0.1140
7.248191 0.0920 0.0790 0.0620 0.0490 0.0480
7.282000 0.0490 0.0690 0.0910 0.1240 0.1520
7.315191 0.1880 0.2230 0.2560 0.2880 0.3170
7.348000 0.3720 0.3970 0.4170 0.4350 0.4500
7.381191 0.4610 0.4680 0.4800 0.4930 0.5080
7.414000 0.5330 0.5380 0.5460 0.5510 0.5570
7.447191 0.5640 0.5720 0.5840 0.5990 0.6020
7.481000 0.6020 0.5990 0.5940 0.5920 0.5910
7.514191 0.5920 0.6000 0.6070 0.6170 0.6250
7.547000 0.6320 0.6390 0.6440 0.6570 0.6650
7.580191 0.6650 0.6620 0.6580 0.6520 0.6450
7.613000 0.6370 0.6300 0.6240 0.6190 0.6120
7.646191 0.5990 0.5770 0.5510 0.5180 0.4500
7.680000 0.3850 0.3770 0.3620 0.3600 0.3600
7.713191 0.3640 0.3940 0.4130 0.4430 0.4880
7.746000 0.5230 0.5540 0.5770 0.5920 0.6040
7.779191 0.6120 0.6170 0.6240 0.6320 0.6420
7.812000 0.6500 0.6570 0.6620 0.6650 0.6720
7.845191 0.6770 0.6780 0.6780 0.6800 0.6800
7.879000 0.6820 0.6820 0.6820 0.6850 0.6880
7.912191 0.6900 0.6950 0.6970 0.7000 0.7080
7.945000 0.7100 0.7150 0.7180 0.7200 0.7210
7.978191 0.7230 0.7260 0.7300 0.7330 0.7360
8.011000 0.7380 0.7410 0.7450 0.7500 0.7530
8.044191 0.7540 0.7560 0.7590 0.7610 0.7640
8.078000 0.7660 0.7680 0.7690 0.7710 0.7730
8.111191 0.7740 0.7790 0.7860 0.7880 0.7880
8.144000 0.7880 0.7880 0.7860 0.7840 0.7780
8.177191 0.7690 0.7330 0.7030 0.6800 0.6670
8.210000 0.6530 0.6190 0.6170 0.6170 0.6240
8.243191 0.6470 0.6930 0.7130 0.7260 0.7300
8.277000 0.7330 0.7330 0.7300 0.6930 0.6780
8.310191 0.6620 0.6340 0.6170 0.6150 0.6170
8.343000 0.6300 0.6470 0.6630 0.6980 0.7050
8.376191 0.7050 0.6950 0.6900 0.6850 0.6780
8.409000 0.6700 0.6680 0.6700 0.6770 0.6870
8.442191 0.6950 0.7010 0.7100 0.7230 0.7300
8.476000 0.7350 0.7360 0.7360 0.7380 0.7400
8.509191 0.7410 0.7430 0.7450 0.7450 0.7460
8.542000 0.7480 0.7480 0.7480 0.7480 0.7480
8.575191 0.7460 0.7400 0.7300 0.7210 0.7110
8.609000 0.7010 0.6980 0.6970 0.6970 0.6970
8.642191 0.6930 0.6870 0.6820 0.6780 0.6720
8.675000 0.6670 0.6600 0.6440 0.6150 0.5760
8.708191 0.5210 0.4330 0.3650 0.3290 0.2910
8.741000 0.2330 0.1580 0.1150 0.0890 0.0760
8.774191 0.0670 0.0660 0.0670 0.0840 0.1050
8.808000 0.1290 0.1530 0.1820 0.2100 0.2410
8.841191 0.2730 0.3060 0.3640 0.3840 0.4020
8.874000 0.4180 0.4350 0.4510 0.4700 0.4830
8.907191 0.4930 0.5010 0.5110 0.5160 0.5190
8.940000 0.5240 0.5360 0.5390 0.5440 0.5490
8.973191 0.5510 0.5520 0.5540 0.5570 0.5610
9.007000 0.5620 0.5640 0.5670 0.5690 0.5690
9.040191 0.5690 0.5690 0.5690 0.5690 0.5670
9.073000 0.5660 0.5620 0.5570 0.5510 0.5430
9.106191 0.5310 0.5280 0.5280 0.5280 0.5330
9.139000 0.5460 0.5590 0.5670 0.5710 0.5710
9.172191 0.5660 0.5430 0.5000 0.4470 0.3800
9.206000 0.3470 0.3120 0.2400 0.1300 0.0990
9.239191 0.0970 0.0990 0.1270 0.1500 0.1770
9.272000 0.2010 0.2300 0.2590 0.2890 0.3190
9.305191 0.3790 0.3950 0.4070 0.4100 0.4150
9.338000 0.4170 0.4230 0.4320 0.4470 0.4480
9.371191 0.4480 0.4470 0.3990 0.3520 0.3270
9.405000 0.3010 0.2530 0.1980 0.1970 0.1980
9.438191 0.2180 0.2460 0.2830 0.3270 0.4200
9.471000 0.4580 0.4900 0.5160 0.5380 0.5540
9.504191 0.5690 0.5820 0.5940 0.6050 0.6190
9.537000 0.6290 0.6370 0.6450 0.6520 0.6600
9.570191 0.6650 0.6720 0.6730 0.6800 0.6870
9.604000 0.6880 0.6920 0.6930 0.6950 0.6980
9.637191 0.7000 0.6980 0.6820 0.6680 0.6530
9.670000 0.6250 0.6020 0.5940 0.5920 0.5940
9.703191 0.6150 0.6170 0.6190 0.6100 0.5610
9.736000 0.4930 0.4300 0.3670 0.3650 0.3670
9.769191 0.4070 0.4550 0.4910 0.5290 0.5710
9.803000 0.6070 0.6400 0.6650 0.6920 0.6970
9.836191 0.7060 0.7110 0.7160 0.7210 0.7280
9.869000 0.7360 0.7450 0.7510 0.7580 0.7610
9.902191 0.7640 0.7660 0.7660 0.7640 0.7530
9.936000 0.7360 0.7130 0.6780 0.6600 0.6400
9.969191 0.6120 0.5820 0.5770 0.5770 0.6270
10.002000 0.7000 0.7160 0.7360 0.7510 0.7590
10.035191 0.7660 0.7690 0.7690 0.7710 0.7710
10.068000 0.7690 0.7680 0.7660 0.7660 0.7640
10.101191 0.7640 0.7630 0.7630 0.7660 0.7680
10.135000 0.7740 0.7760 0.7780 0.7780 0.7790
10.168191 0.7810 0.7840 0.7840 0.7860 0.7880
10.201000 0.7880 0.7860 0.7860 0.7780 0.7730
10.234191 0.7680 0.7630 0.7610 0.7610 0.7590
10.267000 0.7590 0.7580 0.7580 0.7560 0.7560
10.300191 0.7540 0.7540 0.7540 0.7530 0.7530
10.334000 0.7530 0.7530 0.7540 0.7560 0.7560
10.367191 0.7580 0.7590 0.7630 0.7680 0.7740
10.400000 0.7830 0.7910 0.7960 0.7980 0.8010
10.433191 0.8010 0.8040 0.8060 0.8070 0.8090
10.466000 0.8110 0.8120 0.8140 0.8160 0.8170
10.499191 0.8170 0.8210 0.8220 0.8220 0.8240
10.533000 0.8260 0.8270 0.8290 0.8320 0.8340
10.566191 0.8360 0.8370 0.8390 0.8390 0.8410
10.599000 0.8420 0.8420 0.8440 0.8440 0.8440
10.632191 0.8460 0.8460 0.8470 0.8490 0.8490
10.665000 0.8490 0.8490 0.8490 0.8490 0.8490
10.698191 0.8490 0.8490 0.8490 0.8490 0.8500
10.732000 0.8500 0.8500 0.8500 0.8520 0.8520
10.765191 0.8520 0.8520 0.8440 0.8360 0.8310
10.798000 0.8270 0.8160 0.8020 0.7940 0.7840
10.831191 0.7760 0.7660 0.7560 0.7500 0.7410
10.864000 0.7330 0.7160 0.7150 0.7150 0.7180
10.897191 0.7330 0.7400 0.7450 0.7480 0.7530
10.931000 0.7580 0.7610 0.7630 0.7630 0.7630
10.964191 0.7640 0.7640 0.7640 0.7660 0.7710
10.997000 0.7780 0.7830 0.7910 0.7980 0.8070
11.030191 0.8160 0.8260 0.8340 0.8390 0.8490
11.064000 0.8600 0.8720 0.8820 0.8850 0.8870
11.097191 0.8890 0.8920 0.8970 0.8990 0.9000
11.130000 0.9050 0.9070 0.9080 0.9100 0.9100
11.163191 0.9080 0.9080 0.9080 0.9070 0.9070
11.196000 0.9070 0.9070 0.9070 0.9070 0.9050
11.229191 0.9050 0.9050 0.9070 0.9080 0.9100
11.263000 0.9120 0.9150 0.9180 0.9200 0.9200
11.296191 0.9220 0.9250 0.9270 0.9280 0.9300
11.329000 0.9320 0.9330 0.9370 0.9370 0.9370
11.362191 0.9370 0.9370 0.9370 0.9370 0.9380
11.395000 0.9400 0.9430 0.9450 0.9470 0.9480
11.428191 0.9500 0.9510 0.9510 0.9510 0.9510
11.462000 0.9510 0.9530 0.9530 0.9530 0.9530
11.495191 0.9550 0.9550 0.9550 0.9560 0.9610
11.528000 0.9610 0.9610 0.9600 0.9580 0.9560
11.561191 0.9560 0.9550 0.9510 0.9480 0.9450
11.594000 0.9400 0.9300 0.9180 0.9050 0.8900
11.627191 0.8720 0.8520 0.8290 0.8040 0.7730
11.661000 0.7380 0.6970 0.6770 0.6570 0.6150
11.694191 0.5840 0.5620 0.5440 0.5340 0.5290
11.727000 0.5210 0.5160 0.5140 0.5130 0.5110
11.760191 0.5090 0.5080 0.5030 0.5010 0.5010
11.793000 0.5010 0.5030 0.5130 0.5330 0.5510
11.826191 0.5690 0.5910 0.6100 0.6320 0.6550
11.860000 0.6980 0.7180 0.7360 0.7540 0.7690
11.893191 0.7840 0.7940 0.8010 0.8140 0.8260
11.926000 0.8340 0.8420 0.8490 0.8550 0.8640
11.959191 0.8700 0.8790 0.8800 0.8840 0.8890
11.992000 0.8920 0.8950 0.8950 0.8950 0.8920
12.025191 0.8900 0.8850 0.8750 0.8640 0.8490
12.059000 0.8340 0.8190 0.8040 0.7890 0.7780
12.092191 0.7710 0.7690 0.7680 0.7680 0.7730
12.125000 0.7860 0.7960 0.8020 0.8090 0.8170
12.158191 0.8290 0.8420 0.8490 0.8520 0.8550
12.191000 0.8590 0.8650 0.8740 0.8770 0.8820
12.224191 0.8850 0.8890 0.8940 0.8990 0.9020
12.258000 0.9050 0.9100 0.9130 0.9150 0.9170
12.291191 0.9180 0.9200 0.9250 0.9270 0.9280
12.324000 0.9280 0.9300 0.9350 0.9330 0.9350
12.357191 0.9370 0.9400 0.9450 0.9470 0.9480
12.391000 0.9510 0.9530 0.9530 0.9550 0.9550
12.424191 0.9560 0.9580 0.9600 0.9610 0.9630
12.457000 0.9650 0.9660 0.9660 0.9700 0.9730
12.490191 0.9760 0.9800 0.9810 0.9810 0.9850
12.523000 0.9860 0.9860 0.9860 0.9850 0.9850
12.556191 0.9830 0.9830 0.9830 0.9830 0.9810
12.590000 0.9810 0.9810 0.9810 0.9830 0.9850
12.623191 0.9850 0.9860 0.9880 0.9900 0.9900
12.656000 0.9900 0.9900 0.9910 0.9910 0.9910
12.689191 0.9930 0.9930 0.9950 0.9950 0.9950
12.722000 0.9950 0.9950 0.9950 0.9930 0.9930
12.755191 0.9930 0.9910 0.9910 0.9900 0.9900
12.789000 0.9900 0.9900 0.9880 0.9850 0.9850
12.822191 0.9830 0.9810 0.9760 0.9680 0.9650
12.855000 0.9580 0.9530 0.9480 0.9420 0.9320
12.888191 0.9270 0.9150 0.9030 0.8950 0.8850
12.921000 0.8770 0.8670 0.8550 0.8440 0.8290
12.954191 0.8120 0.7930 0.7630 0.7360 0.7110
12.988000 0.6820 0.6630 0.6450 0.5940 0.5570
13.021191 0.5210 0.4860 0.4500 0.4130 0.3720
13.054000 0.3500 0.3410 0.3310 0.3110 0.2990
13.087191 0.2880 0.2840 0.2840 0.2880 0.3040
13.120000 0.3270 0.3790 0.4080 0.4420 0.4660
13.153191 0.4900 0.5040 0.5190 0.5310 0.5340
13.187000 0.5340 0.5180 0.4880 0.4580 0.4370
13.220191 0.4120 0.3850 0.3600 0.3370 0.3260
13.253000 0.3140 0.2960 0.2830 0.2730 0.2590
13.286191 0.2480 0.2400 0.2280 0.2160 0.2030
13.319000 0.1980 0.1950 0.1930 0.1950 0.1970
13.352191 0.2010 0.2130 0.2310 0.2430 0.2580
13.386000 0.2730 0.2890 0.3060 0.3260 0.3640
13.419191 0.3840 0.4030 0.4250 0.4450 0.4650
13.452000 0.4850 0.5030 0.5210 0.5480 0.5710
13.485191 0.5920 0.6140 0.6340 0.6520 0.6820
13.518000 0.6950 0.7100 0.7210 0.7300 0.7380
13.551191 0.7460 0.7510 0.7580 0.7630 0.7680
13.585000 0.7710 0.7760 0.7840 0.7910 0.7960
13.618191 0.7960 0.7980 0.7990 0.7990 0.8010
13.651000 0.8020 0.8040 0.8060 0.8070 0.8070
13.684191 0.8090 0.8090 0.8090 0.8090 0.8090
13.718000 0.8070 0.8060 0.8040 0.7990 0.7990
13.751191 0.7960 0.7930 0.7860 0.7790 0.7780
13.784000 0.7710 0.7680 0.7610 0.7530 0.7450
13.817191 0.7400 0.7350 0.7300 0.7260 0.7230
13.850000 0.7180 0.7150 0.7130 0.7110 0.7080
13.883191 0.7080 0.7080 0.7080 0.7100 0.7110
13.917000 0.7160 0.7250 0.7350 0.7450 0.7510
13.950191 0.7610 0.7640 0.7660 0.7680 0.7680
13.983000 0.7680 0.7530 0.7460 0.7260 0.7060
14.016191 0.6830 0.6700 0.6570 0.6270 0.5960
14.049000 0.5640 0.5310 0.4960 0.4630 0.4320
14.082191 0.4000 0.3700 0.3440 0.3320 0.3210
14.116000 0.3010 0.2930 0.2840 0.2780 0.2680
14.149191 0.2590 0.2510 0.2460 0.2380 0.2260
14.182000 0.2130 0.2010 0.1970 0.1920 0.1870
14.215191 0.1830 0.1800 0.1800 0.1820 0.1820
14.248000 0.1870 0.1950 0.2000 0.2100 0.2150
14.281191 0.2210 0.2310 0.2450 0.2580 0.2730
14.315000 0.2830 0.2990 0.3160 0.3320 0.3700
14.348191 0.3890 0.4050 0.4220 0.4370 0.4510
14.381000 0.4630 0.4750 0.4830 0.4930 0.5060
14.414191 0.5080 0.5090 0.5130 0.5140 0.5110
14.447000 0.5060 0.4960 0.4880 0.4780 0.4730
14.480191 0.4660 0.4550 0.4450 0.4370 0.4280
14.514000 0.4180 0.4080 0.3990 0.3920 0.3800
14.547191 0.3770 0.3750 0.3690 0.3670 0.3670
14.580000 0.3650 0.3650 0.3670 0.3750 0.3920
14.613191 0.4080 0.4270 0.4470 0.4660 0.4900
14.646000 0.5110 0.5340 0.5560 0.5770 0.6000
14.679191 0.6200 0.6400 0.6580 0.6920 0.7010
14.713000 0.7150 0.7280 0.7410 0.7500 0.7560
14.746191 0.7630 0.7710 0.7780 0.7840 0.7880
14.779000 0.7930 0.7960 0.7990 0.8010 0.8090
14.812191 0.8120 0.8160 0.8170 0.8210 0.8240
14.845000 0.8270 0.8310 0.8360 0.8390 0.8410
14.878191 0.8460 0.8460 0.8460 0.8460 0.8470
14.912000 0.8470 0.8500 0.8550 0.8550 0.8540
14.945191 0.8520 0.8460 0.8420 0.8370 0.8360
14.978000 0.8320 0.8290 0.8240 0.8190 0.8120
15.011191 0.8040 0.7990 0.7960 0.7930 0.7840
15.045000 0.7790 0.7760 0.7740 0.7740 0.7780
15.078191 0.7830 0.7860 0.7930 0.8010 0.8120
15.111000 0.8190 0.8270 0.8340 0.8410 0.8420
15.144191 0.8460 0.8460 0.8470 0.8470 0.8490
15.177000 0.8500 0.8500 0.8500 0.8500 0.8490
15.210191 0.8490 0.8490 0.8470 0.8460 0.8440
15.244000 0.8410 0.8410 0.8390 0.8370 0.8340
15.277191 0.8290 0.8270 0.8240 0.8240 0.8220
15.310000 0.8220 0.8220 0.8220 0.8220 0.8190
15.343191 0.8160 0.8140 0.8140 0.8140 0.8140
15.376000 0.8120 0.8110 0.8110 0.8090 0.8070
15.409191 0.8070 0.8060 0.8040 0.8010 0.7980
15.443000 0.7980 0.7960 0.7960 0.7940 0.7940
15.476191 0.7940 0.7930 0.7910 0.7890 0.7840
15.509000 0.7810 0.7790 0.7760 0.7760 0.7740
15.542191 0.7740 0.7740 0.7740 0.7730 0.7660
15.575000 0.7660 0.7660 0.7660 0.7660 0.7680
15.608191 0.7680 0.7660 0.7640 0.7640 0.7630
15.642000 0.7580 0.7540 0.7510 0.7500 0.7500
15.675191 0.7480 0.7460 0.7450 0.7410 0.7400
15.708000 0.7380 0.7330 0.7300 0.7280 0.7280
15.741191 0.7260 0.7250 0.7200 0.7160 0.7150
15.774000 0.7130 0.7110 0.7100 0.7080 0.7050
15.807191 0.7000 0.6970 0.6930 0.6900 0.6880
15.841000 0.6880 0.6870 0.6830 0.6800 0.6770
15.874191 0.6730 0.6670 0.6650 0.6620 0.6580
15.907000 0.6580 0.6570 0.6500 0.6470 0.6450
15.940191 0.6450 0.6420 0.6350 0.6300 0.6240
15.973000 0.6150 0.6140 0.6100 0.6040 0.6100
##END=
