##TITLE=Spiro[benzofuran-3(2H),4'-piperidine]-2-one, 5-methyl-,
##JCAMP-DX=4.24
##DATA TYPE=INFRARED SPECTRUM
##CLASS=COBLENTZ III
##ORIGIN=ABBOTT LABORATORIES
##OWNER=Copyright (C) 1987 by the Coblentz Society
Collection (C) 2018 copyright by the U.S. Secretary of Commerce
on behalf of the United States of America. All rights reserved.
##DATE=1959/04/10
##CAS REGISTRY NO=116633-09-1
##MOLFORM=C13 H15 N O2
##SOURCE REFERENCE=COBLENTZ NO. 5321
##$NIST SOURCE=COBLENTZ
##$NIST IMAGE=cob5321
##SPECTROMETER/DATA SYSTEM=PERKIN-ELMER 21 (GRATING)
$$SPECTRAL CONTAMINATION DUE TO OIL AROUND 1455 AND 2900 CM^-^1
##INSTRUMENT PARAMETERS=FILTER AT ABOUT 10 MICRONS
$$ SPECTRAL FEATURE AT 1069 CM^-^1 IS PROBABLY AN ARTIFACT CAUSED BY FILTER CHANGE
##STATE=SOLID (NUJOL MULL)
##RESOLUTION=2
##XUNITS=1/CM
##YUNITS=TRANSMITTANCE
##XFACTOR=1.0
##YFACTOR=1
##FIRSTX=649
##LASTX=4000
##FIRSTY=0.6081
##MAXX=4000
##MINX=649
##MAXY=0.7944
##MINY=0.0032
##NPOINTS=3352
##XYDATA=(X++(Y..Y))
649.000000 0.6081 0.6052 0.6007 0.5862 0.5628
654.000000 0.5395 0.5213 0.5198 0.5209 0.5381
659.000000 0.5565 0.5797 0.6040 0.6246 0.6436
664.000000 0.6508 0.6567 0.6881 0.7179 0.7177
669.000000 0.7138 0.7130 0.7141 0.7171 0.7205
674.000000 0.7238 0.7268 0.7292 0.7314 0.7337
679.000000 0.7360 0.7387 0.7416 0.7445 0.7474
684.000000 0.7502 0.7527 0.7553 0.7572 0.7587
689.000000 0.7601 0.7607 0.7621 0.7615 0.7608
694.000000 0.7602 0.7595 0.7588 0.7581 0.7575
699.000000 0.7569 0.7559 0.7548 0.7537 0.7517
704.000000 0.7485 0.7447 0.7394 0.7323 0.7250
709.000000 0.7115 0.6976 0.6837 0.6739 0.6687
714.000000 0.6662 0.6750 0.6761 0.6762 0.6755
719.000000 0.6750 0.6747 0.6748 0.6775 0.6851
724.000000 0.6904 0.6922 0.6925 0.6923 0.6921
729.000000 0.6915 0.6917 0.6912 0.6907 0.6901
734.000000 0.6895 0.6890 0.6885 0.6871 0.6831
739.000000 0.6778 0.6695 0.6597 0.6494 0.6384
744.000000 0.6275 0.6165 0.6135 0.6109 0.6189
749.000000 0.6266 0.6409 0.6517 0.6693 0.6848
754.000000 0.6852 0.6863 0.6804 0.6795 0.6724
759.000000 0.6559 0.6355 0.6142 0.6047 0.5662
764.000000 0.5125 0.4795 0.4615 0.4551 0.4547
769.000000 0.5023 0.5491 0.5957 0.6496 0.6772
774.000000 0.6927 0.7036 0.7090 0.7141 0.7191
779.000000 0.7219 0.7247 0.7273 0.7294 0.7315
784.000000 0.7360 0.7303 0.7272 0.7238 0.7209
789.000000 0.7180 0.7152 0.7121 0.7084 0.7038
794.000000 0.6985 0.6885 0.6780 0.6645 0.6421
799.000000 0.6200 0.5979 0.5812 0.5652 0.5502
804.000000 0.5415 0.5326 0.5172 0.4610 0.4012
809.000000 0.3416 0.2821 0.2246 0.1876 0.1873
814.000000 0.1887 0.2256 0.2299 0.2503 0.3110
819.000000 0.3714 0.4317 0.4920 0.5520 0.5944
824.000000 0.6687 0.6981 0.7145 0.7262 0.7319
829.000000 0.7377 0.7439 0.7537 0.7578 0.7584
834.000000 0.7581 0.7579 0.7568 0.7575 0.7573
839.000000 0.7562 0.7544 0.7527 0.7508 0.7481
844.000000 0.7453 0.7426 0.7389 0.7351 0.7313
849.000000 0.7275 0.7228 0.7171 0.7115 0.7058
854.000000 0.6999 0.6941 0.6856 0.6755 0.6651
859.000000 0.6596 0.6564 0.6522 0.6392 0.6263
864.000000 0.6092 0.5980 0.5870 0.5760 0.5641
869.000000 0.5511 0.5356 0.5224 0.5039 0.4793
874.000000 0.4549 0.4350 0.3948 0.3698 0.3728
879.000000 0.3908 0.4104 0.4154 0.4170 0.3848
884.000000 0.3645 0.3452 0.3357 0.3344 0.3401
889.000000 0.3501 0.3614 0.3717 0.3963 0.4247
894.000000 0.4530 0.4813 0.5094 0.5375 0.5656
899.000000 0.5936 0.6216 0.6494 0.6716 0.6861
904.000000 0.6954 0.6982 0.7002 0.6970 0.6917
909.000000 0.6821 0.6727 0.6651 0.6576 0.6501
914.000000 0.6460 0.6422 0.6387 0.6366 0.6347
919.000000 0.6326 0.6304 0.6282 0.6259 0.6210
924.000000 0.6133 0.6015 0.5886 0.5736 0.5560
929.000000 0.5385 0.5210 0.5036 0.4862 0.4665
934.000000 0.4550 0.4537 0.4581 0.4822 0.5076
939.000000 0.5328 0.5581 0.5793 0.5879 0.5928
944.000000 0.5955 0.5951 0.5945 0.5956 0.5872
949.000000 0.5763 0.5618 0.5447 0.5166 0.5089
954.000000 0.5059 0.5106 0.5225 0.5415 0.5612
959.000000 0.5808 0.6004 0.6199 0.6393 0.6470
964.000000 0.6472 0.6485 0.6469 0.6463 0.6450
969.000000 0.6431 0.6413 0.6395 0.6379 0.6377
974.000000 0.6380 0.6370 0.6321 0.6246 0.6149
979.000000 0.6055 0.5976 0.5897 0.5818 0.5730
984.000000 0.5611 0.5493 0.5368 0.5232 0.5095
989.000000 0.4957 0.4857 0.4857 0.4862 0.4928
994.000000 0.5076 0.5232 0.5355 0.5438 0.5517
999.000000 0.5611 0.5697 0.5714 0.5716 0.5737
1004.000000 0.5699 0.5685 0.5659 0.5600 0.5529
1009.000000 0.5429 0.5290 0.5142 0.4874 0.4627
1014.000000 0.4343 0.4042 0.3742 0.3442 0.3142
1019.000000 0.2843 0.2545 0.2247 0.2079 0.2045
1024.000000 0.2020 0.1994 0.1953 0.1911 0.1866
1029.000000 0.1819 0.1772 0.1724 0.1675 0.1626
1034.000000 0.1584 0.1545 0.1507 0.1472 0.1466
1039.000000 0.1462 0.1470 0.1460 0.1464 0.1490
1044.000000 0.1518 0.1546 0.1704 0.1919 0.2088
1049.000000 0.2239 0.2360 0.2442 0.2514 0.2793
1054.000000 0.3194 0.3595 0.3994 0.4393 0.4791
1059.000000 0.5188 0.5583 0.5979 0.6234 0.6325
1064.000000 0.6381 0.6386 0.6268 0.6138 0.6007
1069.000000 0.5915 0.6635 0.6714 0.6762 0.6801
1074.000000 0.6839 0.6879 0.6920 0.6950 0.6976
1079.000000 0.7003 0.7029 0.7048 0.7051 0.7055
1084.000000 0.7059 0.7088 0.7023 0.6963 0.6897
1089.000000 0.6827 0.6756 0.6698 0.6647 0.6625
1094.000000 0.6631 0.6637 0.6666 0.6698 0.6732
1099.000000 0.6765 0.6798 0.6827 0.6855 0.6881
1104.000000 0.6908 0.6934 0.6948 0.6969 0.6948
1109.000000 0.6929 0.6875 0.6785 0.6690 0.6591
1114.000000 0.6492 0.6393 0.6274 0.6107 0.6004
1119.000000 0.5995 0.5986 0.5976 0.5964 0.5950
1124.000000 0.5925 0.5798 0.5511 0.5224 0.4938
1129.000000 0.4652 0.4367 0.4082 0.3979 0.3994
1134.000000 0.4005 0.4015 0.4017 0.3898 0.3731
1139.000000 0.3566 0.3400 0.3236 0.3219 0.3213
1144.000000 0.3682 0.4334 0.4962 0.5122 0.5103
1149.000000 0.5013 0.4885 0.4757 0.4629 0.4502
1154.000000 0.4392 0.4367 0.4356 0.4347 0.4339
1159.000000 0.4296 0.4246 0.4214 0.4206 0.4205
1164.000000 0.4164 0.4228 0.4255 0.4346 0.4644
1169.000000 0.4961 0.5277 0.5540 0.5664 0.5788
1174.000000 0.5876 0.5959 0.6040 0.6103 0.6162
1179.000000 0.6232 0.6337 0.6546 0.6643 0.6698
1184.000000 0.6750 0.6770 0.6782 0.6789 0.6828
1189.000000 0.6787 0.6780 0.6773 0.6761 0.6749
1194.000000 0.6741 0.6733 0.6725 0.6680 0.6606
1199.000000 0.6529 0.6434 0.6291 0.6171 0.6102
1204.000000 0.6033 0.5998 0.5989 0.5982 0.5968
1209.000000 0.5949 0.5925 0.5860 0.5745 0.5591
1214.000000 0.5402 0.5153 0.4939 0.4624 0.4309
1219.000000 0.3996 0.3682 0.3369 0.3237 0.3218
1224.000000 0.3190 0.3258 0.3566 0.3915 0.4262
1229.000000 0.4610 0.4957 0.5085 0.5083 0.5086
1234.000000 0.4834 0.4661 0.4489 0.4316 0.4219
1239.000000 0.4223 0.4301 0.4551 0.4811 0.5072
1244.000000 0.5332 0.5592 0.5851 0.6110 0.6350
1249.000000 0.6469 0.6507 0.6536 0.6550 0.6563
1254.000000 0.6572 0.6574 0.6567 0.6564 0.6557
1259.000000 0.6543 0.6531 0.6486 0.6420 0.6341
1264.000000 0.6203 0.6168 0.6164 0.6164 0.6172
1269.000000 0.6333 0.6420 0.6441 0.6433 0.6416
1274.000000 0.6453 0.6367 0.6326 0.6269 0.6178
1279.000000 0.6072 0.5967 0.5862 0.5758 0.5653
1284.000000 0.5548 0.5444 0.5339 0.5235 0.5131
1289.000000 0.5028 0.4924 0.4821 0.4717 0.4614
1294.000000 0.4511 0.4409 0.4350 0.4360 0.4370
1299.000000 0.4427 0.4508 0.4569 0.4609 0.4660
1304.000000 0.4797 0.4957 0.5115 0.5275 0.5432
1309.000000 0.5492 0.5507 0.5528 0.5558 0.5596
1314.000000 0.5646 0.5719 0.5764 0.5750 0.5559
1319.000000 0.5330 0.5101 0.4933 0.4919 0.4898
1324.000000 0.5070 0.5392 0.5728 0.5954 0.5953
1329.000000 0.5952 0.5966 0.5916 0.5862 0.5802
1334.000000 0.5739 0.5677 0.5631 0.5603 0.5603
1339.000000 0.5620 0.5572 0.5730 0.5787 0.5816
1344.000000 0.5827 0.5828 0.5822 0.5817 0.5676
1349.000000 0.5512 0.5348 0.5185 0.5022 0.4859
1354.000000 0.4697 0.4535 0.4373 0.4211 0.4054
1359.000000 0.4010 0.4001 0.3989 0.3970 0.3938
1364.000000 0.3769 0.3579 0.3389 0.3200 0.3011
1369.000000 0.2890 0.2913 0.2881 0.2896 0.3137
1374.000000 0.3471 0.3804 0.4136 0.4468 0.4799
1379.000000 0.5113 0.5187 0.5214 0.5240 0.5268
1384.000000 0.5298 0.5426 0.5629 0.5936 0.6072
1389.000000 0.6175 0.6268 0.6359 0.6419 0.6472
1394.000000 0.6509 0.6523 0.6538 0.6546 0.6542
1399.000000 0.6536 0.6509 0.6480 0.6445 0.6408
1404.000000 0.6369 0.6319 0.6263 0.6203 0.6097
1409.000000 0.5945 0.5794 0.5643 0.5492 0.5342
1414.000000 0.5192 0.5042 0.4918 0.4845 0.4782
1419.000000 0.4733 0.4710 0.4687 0.4675 0.4669
1424.000000 0.4623 0.4457 0.4255 0.4055 0.3853
1429.000000 0.3652 0.3452 0.3251 0.3052 0.2848
1434.000000 0.2654 0.2498 0.2351 0.2205 0.2059
1439.000000 0.1913 0.1768 0.1622 0.1495 0.1433
1444.000000 0.1379 0.1325 0.1274 0.1222 0.1170
1449.000000 0.1113 0.1054 0.1000 0.0951 0.0927
1454.000000 0.0918 0.0908 0.0900 0.0901 0.0903
1459.000000 0.0910 0.0931 0.0954 0.0994 0.1116
1464.000000 0.1307 0.1498 0.1687 0.1877 0.2064
1469.000000 0.2084 0.2101 0.2107 0.2108 0.2085
1474.000000 0.2051 0.2019 0.1986 0.1952 0.1920
1479.000000 0.1887 0.1860 0.1858 0.1863 0.1876
1484.000000 0.1931 0.2126 0.2391 0.2655 0.2919
1489.000000 0.3183 0.3446 0.3709 0.3972 0.4234
1494.000000 0.4496 0.4757 0.5019 0.5280 0.5540
1499.000000 0.5800 0.6060 0.6319 0.6579 0.6834
1504.000000 0.7024 0.7174 0.7258 0.7312 0.7362
1509.000000 0.7385 0.7395 0.7406 0.7416 0.7422
1514.000000 0.7424 0.7423 0.7423 0.7422 0.7422
1519.000000 0.7421 0.7415 0.7404 0.7403 0.7397
1524.000000 0.7392 0.7386 0.7379 0.7373 0.7367
1529.000000 0.7360 0.7350 0.7340 0.7330 0.7320
1534.000000 0.7310 0.7300 0.7291 0.7283 0.7274
1539.000000 0.7265 0.7257 0.7247 0.7239 0.7229
1544.000000 0.7221 0.7212 0.7202 0.7194 0.7184
1549.000000 0.7175 0.7166 0.7157 0.7147 0.7135
1554.000000 0.7124 0.7112 0.7101 0.7091 0.7080
1559.000000 0.7070 0.7061 0.7051 0.7042 0.7033
1564.000000 0.7028 0.7027 0.7026 0.7024 0.7023
1569.000000 0.7022 0.7022 0.7022 0.7022 0.7023
1574.000000 0.7023 0.7023 0.7021 0.7018 0.7016
1579.000000 0.7013 0.7011 0.7008 0.7006 0.7003
1584.000000 0.7001 0.6998 0.6992 0.6982 0.6973
1589.000000 0.6964 0.6955 0.6946 0.6934 0.6916
1594.000000 0.6896 0.6873 0.6827 0.6766 0.6705
1599.000000 0.6644 0.6583 0.6522 0.6461 0.6400
1604.000000 0.6340 0.6279 0.6219 0.6158 0.6098
1609.000000 0.6038 0.5978 0.5923 0.5900 0.5889
1614.000000 0.5915 0.5971 0.6052 0.6133 0.6215
1619.000000 0.6296 0.6377 0.6449 0.6477 0.6488
1624.000000 0.6499 0.6511 0.6525 0.6541 0.6567
1629.000000 0.6614 0.6667 0.6721 0.6774 0.6828
1634.000000 0.6882 0.6955 0.7032 0.7073 0.7098
1639.000000 0.7121 0.7143 0.7164 0.7178 0.7185
1644.000000 0.7192 0.7198 0.7205 0.7211 0.7217
1649.000000 0.7215 0.7193 0.7209 0.7206 0.7202
1654.000000 0.7196 0.7190 0.7183 0.7177 0.7170
1659.000000 0.7161 0.7149 0.7137 0.7125 0.7113
1664.000000 0.7102 0.7090 0.7075 0.7060 0.7045
1669.000000 0.7031 0.7016 0.7001 0.6986 0.6972
1674.000000 0.6957 0.6943 0.6929 0.6916 0.6901
1679.000000 0.6887 0.6873 0.6859 0.6841 0.6823
1684.000000 0.6804 0.6786 0.6765 0.6735 0.6700
1689.000000 0.6673 0.6651 0.6628 0.6606 0.6587
1694.000000 0.6575 0.6567 0.6558 0.6549 0.6541
1699.000000 0.6533 0.6524 0.6514 0.6505 0.6495
1704.000000 0.6486 0.6477 0.6467 0.6457 0.6447
1709.000000 0.6438 0.6428 0.6419 0.6409 0.6399
1714.000000 0.6389 0.6379 0.6369 0.6356 0.6336
1719.000000 0.6315 0.6287 0.6254 0.6221 0.6187
1724.000000 0.6149 0.6102 0.6054 0.6006 0.5958
1729.000000 0.5908 0.5843 0.5774 0.5705 0.5635
1734.000000 0.5565 0.5490 0.5413 0.5335 0.5259
1739.000000 0.5192 0.5136 0.5079 0.5023 0.4933
1744.000000 0.4822 0.4703 0.4584 0.4464 0.4345
1749.000000 0.4226 0.4107 0.3988 0.3869 0.3750
1754.000000 0.3631 0.3513 0.3395 0.3277 0.3159
1759.000000 0.3041 0.2923 0.2805 0.2688 0.2571
1764.000000 0.2454 0.2336 0.2219 0.2102 0.1985
1769.000000 0.1869 0.1753 0.1637 0.1520 0.1404
1774.000000 0.1288 0.1205 0.1166 0.1168 0.1168
1779.000000 0.1177 0.1409 0.1595 0.1782 0.1968
1784.000000 0.2035 0.2056 0.2066 0.2063 0.2019
1789.000000 0.1946 0.1862 0.1778 0.1695 0.1611
1794.000000 0.1528 0.1451 0.1390 0.1390 0.1391
1799.000000 0.1393 0.1369 0.1490 0.1752 0.2046
1804.000000 0.2341 0.2635 0.2928 0.3222 0.3515
1809.000000 0.3807 0.4099 0.4391 0.4683 0.4974
1814.000000 0.5265 0.5556 0.5846 0.6136 0.6426
1819.000000 0.6656 0.6913 0.7177 0.7274 0.7335
1824.000000 0.7388 0.7441 0.7494 0.7534 0.7567
1829.000000 0.7598 0.7628 0.7658 0.7687 0.7716
1834.000000 0.7740 0.7758 0.7774 0.7789 0.7805
1839.000000 0.7821 0.7837 0.7852 0.7868 0.7876
1844.000000 0.7881 0.7886 0.7892 0.7897 0.7902
1849.000000 0.7907 0.7911 0.7913 0.7924 0.7912
1854.000000 0.7912 0.7912 0.7911 0.7911 0.7911
1859.000000 0.7910 0.7910 0.7909 0.7908 0.7906
1864.000000 0.7904 0.7902 0.7901 0.7899 0.7897
1869.000000 0.7891 0.7882 0.7871 0.7858 0.7843
1874.000000 0.7826 0.7817 0.7810 0.7805 0.7803
1879.000000 0.7803 0.7803 0.7803 0.7803 0.7803
1884.000000 0.7805 0.7807 0.7810 0.7813 0.7817
1889.000000 0.7827 0.7839 0.7849 0.7857 0.7866
1894.000000 0.7874 0.7882 0.7890 0.7898 0.7906
1899.000000 0.7913 0.7921 0.7928 0.7934 0.7938
1904.000000 0.7938 0.7939 0.7940 0.7941 0.7941
1909.000000 0.7942 0.7943 0.7943 0.7944 0.7944
1914.000000 0.7942 0.7940 0.7939 0.7938 0.7936
1919.000000 0.7935 0.7933 0.7931 0.7930 0.7929
1924.000000 0.7927 0.7925 0.7924 0.7922 0.7921
1929.000000 0.7920 0.7918 0.7916 0.7914 0.7913
1934.000000 0.7911 0.7909 0.7908 0.7906 0.7904
1939.000000 0.7903 0.7901 0.7899 0.7898 0.7897
1944.000000 0.7895 0.7893 0.7891 0.7890 0.7888
1949.000000 0.7886 0.7885 0.7883 0.7880 0.7875
1954.000000 0.7871 0.7867 0.7862 0.7858 0.7853
1959.000000 0.7849 0.7845 0.7841 0.7836 0.7831
1964.000000 0.7827 0.7823 0.7819 0.7814 0.7809
1969.000000 0.7804 0.7799 0.7794 0.7788 0.7782
1974.000000 0.7777 0.7772 0.7767 0.7761 0.7756
1979.000000 0.7751 0.7748 0.7747 0.7747 0.7747
1984.000000 0.7747 0.7747 0.7747 0.7747 0.7747
1989.000000 0.7747 0.7747 0.7747 0.7747 0.7747
1994.000000 0.7747 0.7747 0.7746 0.7744 0.7744
1999.000000 0.7743 0.7742 0.7741 0.7740 0.7739
2004.000000 0.7738 0.7737 0.7736 0.7735 0.7735
2009.000000 0.7732 0.7729 0.7725 0.7720 0.7715
2014.000000 0.7711 0.7706 0.7701 0.7696 0.7691
2019.000000 0.7687 0.7682 0.7678 0.7673 0.7669
2024.000000 0.7664 0.7659 0.7654 0.7649 0.7643
2029.000000 0.7638 0.7632 0.7627 0.7622 0.7617
2034.000000 0.7611 0.7606 0.7601 0.7595 0.7590
2039.000000 0.7584 0.7579 0.7574 0.7569 0.7564
2044.000000 0.7560 0.7557 0.7555 0.7553 0.7550
2049.000000 0.7548 0.7546 0.7543 0.7541 0.7539
2054.000000 0.7537 0.7535 0.7532 0.7530 0.7528
2059.000000 0.7525 0.7523 0.7522 0.7521 0.7520
2064.000000 0.7520 0.7519 0.7518 0.7517 0.7516
2069.000000 0.7515 0.7514 0.7514 0.7513 0.7512
2074.000000 0.7511 0.7510 0.7510 0.7509 0.7508
2079.000000 0.7507 0.7506 0.7506 0.7505 0.7504
2084.000000 0.7503 0.7503 0.7501 0.7500 0.7500
2089.000000 0.7499 0.7499 0.7498 0.7497 0.7496
2094.000000 0.7495 0.7494 0.7493 0.7493 0.7492
2099.000000 0.7491 0.7490 0.7490 0.7490 0.7490
2104.000000 0.7491 0.7492 0.7492 0.7493 0.7495
2109.000000 0.7496 0.7497 0.7498 0.7499 0.7499
2114.000000 0.7500 0.7501 0.7503 0.7504 0.7505
2119.000000 0.7506 0.7506 0.7507 0.7507 0.7508
2124.000000 0.7508 0.7509 0.7509 0.7509 0.7510
2129.000000 0.7510 0.7510 0.7510 0.7511 0.7511
2134.000000 0.7511 0.7511 0.7510 0.7508 0.7505
2139.000000 0.7502 0.7500 0.7497 0.7493 0.7490
2144.000000 0.7488 0.7485 0.7482 0.7480 0.7477
2149.000000 0.7474 0.7471 0.7468 0.7465 0.7462
2154.000000 0.7460 0.7457 0.7454 0.7452 0.7449
2159.000000 0.7446 0.7444 0.7441 0.7438 0.7436
2164.000000 0.7433 0.7430 0.7428 0.7425 0.7422
2169.000000 0.7420 0.7417 0.7414 0.7411 0.7408
2174.000000 0.7405 0.7403 0.7400 0.7397 0.7395
2179.000000 0.7392 0.7389 0.7387 0.7384 0.7382
2184.000000 0.7379 0.7376 0.7374 0.7371 0.7368
2189.000000 0.7366 0.7363 0.7361 0.7358 0.7355
2194.000000 0.7353 0.7350 0.7349 0.7349 0.7349
2199.000000 0.7350 0.7350 0.7350 0.7350 0.7350
2204.000000 0.7350 0.7351 0.7351 0.7351 0.7351
2209.000000 0.7351 0.7351 0.7352 0.7352 0.7352
2214.000000 0.7352 0.7352 0.7352 0.7353 0.7353
2219.000000 0.7353 0.7353 0.7352 0.7352 0.7349
2224.000000 0.7346 0.7343 0.7340 0.7337 0.7334
2229.000000 0.7331 0.7328 0.7325 0.7322 0.7319
2234.000000 0.7316 0.7313 0.7310 0.7306 0.7301
2239.000000 0.7297 0.7292 0.7287 0.7282 0.7277
2244.000000 0.7272 0.7267 0.7262 0.7257 0.7252
2249.000000 0.7251 0.7250 0.7250 0.7250 0.7250
2254.000000 0.7250 0.7250 0.7251 0.7252 0.7253
2259.000000 0.7254 0.7255 0.7256 0.7257 0.7258
2264.000000 0.7259 0.7260 0.7261 0.7262 0.7263
2269.000000 0.7264 0.7265 0.7266 0.7267 0.7267
2274.000000 0.7266 0.7265 0.7262 0.7259 0.7256
2279.000000 0.7253 0.7250 0.7248 0.7245 0.7242
2284.000000 0.7238 0.7235 0.7231 0.7228 0.7224
2289.000000 0.7220 0.7216 0.7213 0.7210 0.7206
2294.000000 0.7202 0.7198 0.7194 0.7191 0.7187
2299.000000 0.7184 0.7180 0.7176 0.7173 0.7170
2304.000000 0.7168 0.7165 0.7162 0.7160 0.7157
2309.000000 0.7155 0.7153 0.7150 0.7148 0.7146
2314.000000 0.7143 0.7141 0.7138 0.7135 0.7133
2319.000000 0.7131 0.7128 0.7126 0.7124 0.7121
2324.000000 0.7119 0.7116 0.7114 0.7111 0.7109
2329.000000 0.7107 0.7104 0.7102 0.7100 0.7097
2334.000000 0.7095 0.7093 0.7091 0.7090 0.7089
2339.000000 0.7088 0.7087 0.7086 0.7085 0.7085
2344.000000 0.7084 0.7083 0.7082 0.7081 0.7080
2349.000000 0.7080 0.7079 0.7078 0.7077 0.7076
2354.000000 0.7076 0.7075 0.7074 0.7073 0.7072
2359.000000 0.7071 0.7070 0.7069 0.7069 0.7068
2364.000000 0.7068 0.7067 0.7066 0.7065 0.7064
2369.000000 0.7063 0.7062 0.7061 0.7060 0.7060
2374.000000 0.7059 0.7057 0.7055 0.7053 0.7052
2379.000000 0.7050 0.7048 0.7046 0.7045 0.7043
2384.000000 0.7041 0.7039 0.7038 0.7036 0.7034
2389.000000 0.7032 0.7031 0.7029 0.7027 0.7025
2394.000000 0.7024 0.7022 0.7020 0.7018 0.7017
2399.000000 0.7016 0.7014 0.7012 0.7011 0.7010
2404.000000 0.7008 0.7007 0.7005 0.7003 0.7002
2409.000000 0.7001 0.6999 0.6997 0.6995 0.6994
2414.000000 0.6992 0.6991 0.6990 0.6988 0.6986
2419.000000 0.6985 0.6984 0.6982 0.6980 0.6979
2424.000000 0.6978 0.6976 0.6975 0.6973 0.6971
2429.000000 0.6970 0.6969 0.6967 0.6965 0.6964
2434.000000 0.6962 0.6961 0.6959 0.6958 0.6956
2439.000000 0.6955 0.6953 0.6952 0.6951 0.6949
2444.000000 0.6947 0.6946 0.6945 0.6943 0.6941
2449.000000 0.6940 0.6939 0.6937 0.6936 0.6934
2454.000000 0.6932 0.6931 0.6929 0.6928 0.6927
2459.000000 0.6925 0.6924 0.6922 0.6921 0.6920
2464.000000 0.6918 0.6916 0.6915 0.6913 0.6911
2469.000000 0.6910 0.6909 0.6907 0.6906 0.6904
2474.000000 0.6903 0.6902 0.6900 0.6899 0.6897
2479.000000 0.6895 0.6894 0.6892 0.6891 0.6890
2484.000000 0.6888 0.6887 0.6885 0.6883 0.6882
2489.000000 0.6881 0.6880 0.6878 0.6876 0.6875
2494.000000 0.6874 0.6873 0.6871 0.6869 0.6868
2499.000000 0.6866 0.6865 0.6863 0.6862 0.6861
2504.000000 0.6859 0.6858 0.6856 0.6855 0.6854
2509.000000 0.6852 0.6851 0.6849 0.6847 0.6846
2514.000000 0.6845 0.6844 0.6842 0.6840 0.6839
2519.000000 0.6838 0.6837 0.6835 0.6834 0.6832
2524.000000 0.6830 0.6829 0.6827 0.6826 0.6824
2529.000000 0.6822 0.6819 0.6817 0.6815 0.6813
2534.000000 0.6808 0.6802 0.6796 0.6790 0.6784
2539.000000 0.6778 0.6772 0.6766 0.6761 0.6755
2544.000000 0.6749 0.6743 0.6737 0.6732 0.6726
2549.000000 0.6720 0.6714 0.6709 0.6702 0.6696
2554.000000 0.6690 0.6685 0.6679 0.6673 0.6667
2559.000000 0.6662 0.6656 0.6650 0.6645 0.6639
2564.000000 0.6633 0.6627 0.6622 0.6616 0.6610
2569.000000 0.6604 0.6597 0.6589 0.6582 0.6574
2574.000000 0.6566 0.6558 0.6550 0.6542 0.6534
2579.000000 0.6526 0.6518 0.6511 0.6503 0.6496
2584.000000 0.6488 0.6480 0.6472 0.6464 0.6456
2589.000000 0.6449 0.6441 0.6433 0.6425 0.6417
2594.000000 0.6410 0.6402 0.6394 0.6386 0.6378
2599.000000 0.6371 0.6363 0.6355 0.6347 0.6340
2604.000000 0.6332 0.6324 0.6316 0.6308 0.6300
2609.000000 0.6292 0.6284 0.6277 0.6269 0.6261
2614.000000 0.6254 0.6246 0.6238 0.6231 0.6223
2619.000000 0.6215 0.6208 0.6201 0.6197 0.6192
2624.000000 0.6188 0.6184 0.6180 0.6176 0.6172
2629.000000 0.6168 0.6164 0.6160 0.6156 0.6152
2634.000000 0.6148 0.6144 0.6140 0.6136 0.6132
2639.000000 0.6128 0.6124 0.6120 0.6116 0.6112
2644.000000 0.6108 0.6104 0.6101 0.6097 0.6093
2649.000000 0.6089 0.6085 0.6082 0.6078 0.6074
2654.000000 0.6070 0.6066 0.6062 0.6059 0.6055
2659.000000 0.6051 0.6047 0.6043 0.6039 0.6035
2664.000000 0.6032 0.6028 0.6025 0.6023 0.6020
2669.000000 0.6017 0.6014 0.6011 0.6009 0.6006
2674.000000 0.6003 0.6000 0.5997 0.5995 0.5992
2679.000000 0.5989 0.5986 0.5983 0.5981 0.5978
2684.000000 0.5975 0.5972 0.5970 0.5967 0.5964
2689.000000 0.5961 0.5958 0.5956 0.5953 0.5950
2694.000000 0.5947 0.5944 0.5941 0.5938 0.5936
2699.000000 0.5933 0.5931 0.5930 0.5928 0.5927
2704.000000 0.5926 0.5924 0.5923 0.5922 0.5920
2709.000000 0.5919 0.5918 0.5916 0.5915 0.5914
2714.000000 0.5913 0.5912 0.5910 0.5909 0.5908
2719.000000 0.5906 0.5905 0.5904 0.5902 0.5901
2724.000000 0.5900 0.5898 0.5897 0.5896 0.5894
2729.000000 0.5893 0.5892 0.5891 0.5891 0.5891
2734.000000 0.5892 0.5893 0.5894 0.5895 0.5896
2739.000000 0.5897 0.5898 0.5899 0.5900 0.5901
2744.000000 0.5902 0.5903 0.5904 0.5905 0.5906
2749.000000 0.5907 0.5908 0.5909 0.5910 0.5911
2754.000000 0.5912 0.5913 0.5914 0.5915 0.5916
2759.000000 0.5917 0.5919 0.5920 0.5922 0.5924
2764.000000 0.5927 0.5929 0.5928 0.5925 0.5921
2769.000000 0.5915 0.5907 0.5899 0.5892 0.5884
2774.000000 0.5877 0.5868 0.5856 0.5844 0.5831
2779.000000 0.5818 0.5804 0.5791 0.5777 0.5764
2784.000000 0.5749 0.5717 0.5686 0.5654 0.5616
2789.000000 0.5577 0.5538 0.5499 0.5459 0.5419
2794.000000 0.5377 0.5333 0.5289 0.5231 0.5163
2799.000000 0.5094 0.4990 0.4841 0.4692 0.4543
2804.000000 0.4394 0.4244 0.4095 0.3946 0.3797
2809.000000 0.3648 0.3499 0.3350 0.3201 0.3052
2814.000000 0.2904 0.2755 0.2607 0.2459 0.2311
2819.000000 0.2163 0.2015 0.1867 0.1719 0.1571
2824.000000 0.1424 0.1289 0.1231 0.1173 0.1115
2829.000000 0.0984 0.0848 0.0713 0.0640 0.0588
2834.000000 0.0536 0.0487 0.0442 0.0397 0.0357
2839.000000 0.0329 0.0301 0.0273 0.0245 0.0217
2844.000000 0.0189 0.0178 0.0168 0.0159 0.0150
2849.000000 0.0142 0.0133 0.0124 0.0116 0.0108
2854.000000 0.0099 0.0091 0.0082 0.0074 0.0070
2859.000000 0.0067 0.0065 0.0062 0.0060 0.0057
2864.000000 0.0055 0.0053 0.0051 0.0048 0.0046
2869.000000 0.0044 0.0041 0.0039 0.0037 0.0036
2874.000000 0.0034 0.0034 0.0034 0.0033 0.0033
2879.000000 0.0033 0.0033 0.0032 0.0032 0.0032
2884.000000 0.0032 0.0032 0.0032 0.0032 0.0032
2889.000000 0.0032 0.0032 0.0032 0.0032 0.0032
2894.000000 0.0032 0.0032 0.0032 0.0033 0.0033
2899.000000 0.0033 0.0033 0.0033 0.0033 0.0033
2904.000000 0.0034 0.0034 0.0034 0.0034 0.0034
2909.000000 0.0034 0.0034 0.0035 0.0035 0.0035
2914.000000 0.0035 0.0035 0.0035 0.0035 0.0035
2919.000000 0.0036 0.0036 0.0037 0.0038 0.0039
2924.000000 0.0040 0.0040 0.0041 0.0042 0.0043
2929.000000 0.0044 0.0045 0.0046 0.0047 0.0047
2934.000000 0.0048 0.0049 0.0050 0.0051 0.0056
2939.000000 0.0073 0.0089 0.0106 0.0160 0.0222
2944.000000 0.0284 0.0346 0.0407 0.0469 0.0531
2949.000000 0.0592 0.0654 0.0715 0.0776 0.0838
2954.000000 0.0899 0.0960 0.1022 0.1083 0.1144
2959.000000 0.1205 0.1266 0.1327 0.1388 0.1449
2964.000000 0.1511 0.1572 0.1633 0.1694 0.1754
2969.000000 0.1815 0.1876 0.1936 0.1997 0.2058
2974.000000 0.2118 0.2179 0.2239 0.2299 0.2360
2979.000000 0.2420 0.2480 0.2541 0.2601 0.2662
2984.000000 0.2722 0.2782 0.2842 0.2902 0.2962
2989.000000 0.3022 0.3082 0.3142 0.3201 0.3261
2994.000000 0.3321 0.3380 0.3440 0.3500 0.3554
2999.000000 0.3602 0.3649 0.3696 0.3721 0.3739
3004.000000 0.3758 0.3778 0.3801 0.3823 0.3846
3009.000000 0.3878 0.3916 0.3955 0.3994 0.4021
3014.000000 0.4048 0.4075 0.4099 0.4117 0.4134
3019.000000 0.4152 0.4170 0.4187 0.4205 0.4223
3024.000000 0.4240 0.4258 0.4275 0.4314 0.4390
3029.000000 0.4465 0.4541 0.4594 0.4639 0.4683
3034.000000 0.4727 0.4763 0.4799 0.4835 0.4864
3039.000000 0.4882 0.4900 0.4918 0.4934 0.4950
3044.000000 0.4965 0.4980 0.4996 0.5011 0.5027
3049.000000 0.5041 0.5052 0.5064 0.5075 0.5083
3054.000000 0.5088 0.5093 0.5098 0.5104 0.5109
3059.000000 0.5114 0.5120 0.5125 0.5130 0.5135
3064.000000 0.5140 0.5145 0.5151 0.5156 0.5160
3069.000000 0.5163 0.5166 0.5169 0.5171 0.5174
3074.000000 0.5177 0.5179 0.5182 0.5184 0.5187
3079.000000 0.5189 0.5191 0.5194 0.5196 0.5198
3084.000000 0.5200 0.5201 0.5203 0.5204 0.5204
3089.000000 0.5205 0.5205 0.5206 0.5206 0.5206
3094.000000 0.5206 0.5207 0.5208 0.5208 0.5209
3099.000000 0.5209 0.5210 0.5210 0.5211 0.5211
3104.000000 0.5211 0.5211 0.5212 0.5212 0.5213
3109.000000 0.5213 0.5204 0.5213 0.5212 0.5212
3114.000000 0.5211 0.5210 0.5209 0.5208 0.5207
3119.000000 0.5206 0.5205 0.5204 0.5203 0.5202
3124.000000 0.5201 0.5200 0.5198 0.5197 0.5196
3129.000000 0.5195 0.5194 0.5193 0.5192 0.5191
3134.000000 0.5190 0.5188 0.5187 0.5185 0.5183
3139.000000 0.5180 0.5178 0.5176 0.5174 0.5171
3144.000000 0.5169 0.5167 0.5164 0.5162 0.5160
3149.000000 0.5158 0.5155 0.5153 0.5151 0.5149
3154.000000 0.5146 0.5144 0.5142 0.5138 0.5134
3159.000000 0.5129 0.5124 0.5119 0.5114 0.5109
3164.000000 0.5104 0.5099 0.5095 0.5090 0.5085
3169.000000 0.5080 0.5075 0.5070 0.5065 0.5060
3174.000000 0.5054 0.5048 0.5041 0.5034 0.5027
3179.000000 0.5019 0.5011 0.5003 0.4995 0.4988
3184.000000 0.4980 0.4971 0.4958 0.4946 0.4933
3189.000000 0.4920 0.4904 0.4887 0.4871 0.4855
3194.000000 0.4839 0.4822 0.4806 0.4789 0.4773
3199.000000 0.4757 0.4741 0.4725 0.4709 0.4692
3204.000000 0.4676 0.4660 0.4644 0.4627 0.4611
3209.000000 0.4595 0.4579 0.4563 0.4547 0.4530
3214.000000 0.4514 0.4498 0.4482 0.4466 0.4450
3219.000000 0.4434 0.4418 0.4402 0.4386 0.4370
3224.000000 0.4354 0.4337 0.4323 0.4318 0.4313
3229.000000 0.4308 0.4325 0.4303 0.4303 0.4304
3234.000000 0.4304 0.4310 0.4316 0.4321 0.4327
3239.000000 0.4354 0.4392 0.4430 0.4468 0.4506
3244.000000 0.4544 0.4581 0.4619 0.4657 0.4694
3249.000000 0.4732 0.4770 0.4807 0.4845 0.4883
3254.000000 0.4920 0.4958 0.4995 0.5033 0.5071
3259.000000 0.5108 0.5146 0.5183 0.5221 0.5258
3264.000000 0.5295 0.5333 0.5370 0.5407 0.5444
3269.000000 0.5445 0.5446 0.5448 0.5449 0.5449
3274.000000 0.5449 0.5449 0.5449 0.5480 0.5447
3279.000000 0.5446 0.5444 0.5443 0.5442 0.5440
3284.000000 0.5438 0.5437 0.5434 0.5432 0.5429
3289.000000 0.5427 0.5424 0.5422 0.5419 0.5417
3294.000000 0.5414 0.5409 0.5404 0.5400 0.5395
3299.000000 0.5388 0.5381 0.5374 0.5366 0.5359
3304.000000 0.5352 0.5344 0.5337 0.5329 0.5318
3309.000000 0.5308 0.5297 0.5286 0.5275 0.5264
3314.000000 0.5253 0.5242 0.5231 0.5221 0.5210
3319.000000 0.5200 0.5190 0.5180 0.5171 0.5161
3324.000000 0.5152 0.5143 0.5135 0.5126 0.5118
3329.000000 0.5110 0.5107 0.5104 0.5101 0.5098
3334.000000 0.5096 0.5095 0.5094 0.5093 0.5082
3339.000000 0.5094 0.5094 0.5095 0.5096 0.5104
3344.000000 0.5115 0.5125 0.5136 0.5150 0.5172
3349.000000 0.5195 0.5217 0.5240 0.5262 0.5285
3354.000000 0.5307 0.5330 0.5351 0.5368 0.5385
3359.000000 0.5402 0.5420 0.5426 0.5429 0.5432
3364.000000 0.5434 0.5437 0.5437 0.5438 0.5439
3369.000000 0.5439 0.5440 0.5441 0.5441 0.5442
3374.000000 0.5443 0.5443 0.5444 0.5445 0.5445
3379.000000 0.5445 0.5444 0.5443 0.5442 0.5441
3384.000000 0.5440 0.5439 0.5438 0.5437 0.5449
3389.000000 0.5435 0.5434 0.5433 0.5433 0.5432
3394.000000 0.5431 0.5430 0.5429 0.5428 0.5427
3399.000000 0.5426 0.5424 0.5423 0.5421 0.5419
3404.000000 0.5417 0.5415 0.5413 0.5412 0.5410
3409.000000 0.5408 0.5407 0.5405 0.5403 0.5401
3414.000000 0.5400 0.5398 0.5396 0.5395 0.5393
3419.000000 0.5391 0.5389 0.5388 0.5386 0.5384
3424.000000 0.5382 0.5380 0.5378 0.5377 0.5375
3429.000000 0.5373 0.5371 0.5370 0.5368 0.5366
3434.000000 0.5365 0.5363 0.5361 0.5360 0.5358
3439.000000 0.5356 0.5354 0.5353 0.5351 0.5349
3444.000000 0.5348 0.5346 0.5344 0.5343 0.5341
3449.000000 0.5339 0.5338 0.5336 0.5334 0.5333
3454.000000 0.5331 0.5330 0.5328 0.5327 0.5325
3459.000000 0.5324 0.5322 0.5320 0.5319 0.5317
3464.000000 0.5315 0.5314 0.5312 0.5310 0.5309
3469.000000 0.5309 0.5308 0.5308 0.5308 0.5307
3474.000000 0.5307 0.5306 0.5306 0.5306 0.5305
3479.000000 0.5305 0.5304 0.5304 0.5303 0.5303
3484.000000 0.5303 0.5303 0.5303 0.5303 0.5303
3489.000000 0.5303 0.5303 0.5303 0.5303 0.5303
3494.000000 0.5303 0.5303 0.5303 0.5303 0.5303
3499.000000 0.5303 0.5303 0.5303 0.5304 0.5304
3504.000000 0.5304 0.5304 0.5304 0.5304 0.5304
3509.000000 0.5304 0.5304 0.5304 0.5304 0.5304
3514.000000 0.5304 0.5304 0.5304 0.5304 0.5304
3519.000000 0.5304 0.5304 0.5304 0.5304 0.5304
3524.000000 0.5304 0.5304 0.5304 0.5304 0.5305
3529.000000 0.5305 0.5306 0.5306 0.5307 0.5307
3534.000000 0.5308 0.5308 0.5308 0.5309 0.5310
3539.000000 0.5310 0.5311 0.5311 0.5312 0.5313
3544.000000 0.5313 0.5314 0.5314 0.5315 0.5315
3549.000000 0.5316 0.5316 0.5316 0.5317 0.5318
3554.000000 0.5318 0.5319 0.5319 0.5320 0.5321
3559.000000 0.5321 0.5322 0.5322 0.5323 0.5323
3564.000000 0.5324 0.5324 0.5324 0.5325 0.5325
3569.000000 0.5326 0.5326 0.5326 0.5327 0.5327
3574.000000 0.5327 0.5327 0.5327 0.5328 0.5328
3579.000000 0.5328 0.5329 0.5329 0.5330 0.5330
3584.000000 0.5330 0.5330 0.5330 0.5331 0.5331
3589.000000 0.5331 0.5331 0.5331 0.5332 0.5332
3594.000000 0.5332 0.5333 0.5333 0.5333 0.5334
3599.000000 0.5334 0.5334 0.5334 0.5334 0.5335
3604.000000 0.5335 0.5335 0.5335 0.5335 0.5336
3609.000000 0.5336 0.5336 0.5336 0.5336 0.5336
3614.000000 0.5336 0.5336 0.5335 0.5335 0.5334
3619.000000 0.5334 0.5333 0.5333 0.5332 0.5332
3624.000000 0.5331 0.5330 0.5330 0.5329 0.5329
3629.000000 0.5328 0.5328 0.5328 0.5327 0.5327
3634.000000 0.5326 0.5326 0.5325 0.5325 0.5324
3639.000000 0.5324 0.5322 0.5321 0.5320 0.5318
3644.000000 0.5317 0.5315 0.5313 0.5311 0.5309
3649.000000 0.5307 0.5305 0.5303 0.5301 0.5299
3654.000000 0.5297 0.5295 0.5293 0.5291 0.5289
3659.000000 0.5287 0.5285 0.5283 0.5281 0.5280
3664.000000 0.5278 0.5276 0.5274 0.5272 0.5269
3669.000000 0.5267 0.5265 0.5263 0.5260 0.5257
3674.000000 0.5254 0.5252 0.5249 0.5246 0.5243
3679.000000 0.5240 0.5238 0.5235 0.5232 0.5230
3684.000000 0.5227 0.5224 0.5222 0.5219 0.5217
3689.000000 0.5214 0.5211 0.5208 0.5206 0.5203
3694.000000 0.5200 0.5197 0.5195 0.5192 0.5189
3699.000000 0.5186 0.5184 0.5181 0.5178 0.5175
3704.000000 0.5173 0.5170 0.5168 0.5165 0.5163
3709.000000 0.5160 0.5158 0.5155 0.5153 0.5151
3714.000000 0.5148 0.5146 0.5144 0.5142 0.5139
3719.000000 0.5137 0.5135 0.5133 0.5130 0.5128
3724.000000 0.5126 0.5123 0.5121 0.5119 0.5117
3729.000000 0.5115 0.5112 0.5110 0.5108 0.5106
3734.000000 0.5103 0.5101 0.5099 0.5096 0.5094
3739.000000 0.5092 0.5090 0.5088 0.5086 0.5083
3744.000000 0.5081 0.5079 0.5076 0.5074 0.5072
3749.000000 0.5070 0.5068 0.5065 0.5063 0.5061
3754.000000 0.5059 0.5057 0.5054 0.5052 0.5050
3759.000000 0.5047 0.5045 0.5043 0.5041 0.5039
3764.000000 0.5037 0.5035 0.5033 0.5030 0.5028
3769.000000 0.5026 0.5024 0.5022 0.5020 0.5018
3774.000000 0.5016 0.5014 0.5012 0.5010 0.5008
3779.000000 0.5007 0.5005 0.5003 0.5001 0.4999
3784.000000 0.4997 0.4995 0.4992 0.4990 0.4988
3789.000000 0.4986 0.4984 0.4983 0.4981 0.4979
3794.000000 0.4977 0.4975 0.4973 0.4971 0.4969
3799.000000 0.4967 0.4965 0.4963 0.4962 0.4960
3804.000000 0.4958 0.4956 0.4954 0.4952 0.4950
3809.000000 0.4948 0.4946 0.4944 0.4942 0.4940
3814.000000 0.4938 0.4936 0.4934 0.4932 0.4930
3819.000000 0.4928 0.4926 0.4925 0.4923 0.4921
3824.000000 0.4919 0.4917 0.4915 0.4913 0.4911
3829.000000 0.4910 0.4908 0.4906 0.4904 0.4902
3834.000000 0.4900 0.4898 0.4896 0.4895 0.4893
3839.000000 0.4891 0.4889 0.4887 0.4886 0.4884
3844.000000 0.4882 0.4880 0.4879 0.4877 0.4875
3849.000000 0.4874 0.4872 0.4870 0.4869 0.4867
3854.000000 0.4866 0.4864 0.4863 0.4861 0.4860
3859.000000 0.4858 0.4856 0.4855 0.4853 0.4851
3864.000000 0.4849 0.4848 0.4846 0.4845 0.4843
3869.000000 0.4842 0.4840 0.4839 0.4837 0.4835
3874.000000 0.4834 0.4832 0.4830 0.4829 0.4827
3879.000000 0.4825 0.4824 0.4822 0.4820 0.4819
3884.000000 0.4817 0.4816 0.4815 0.4813 0.4812
3889.000000 0.4810 0.4808 0.4807 0.4805 0.4803
3894.000000 0.4802 0.4800 0.4799 0.4797 0.4796
3899.000000 0.4794 0.4793 0.4791 0.4789 0.4788
3904.000000 0.4786 0.4785 0.4783 0.4781 0.4780
3909.000000 0.4778 0.4777 0.4776 0.4774 0.4772
3914.000000 0.4771 0.4769 0.4768 0.4766 0.4764
3919.000000 0.4763 0.4761 0.4759 0.4758 0.4756
3924.000000 0.4755 0.4753 0.4752 0.4750 0.4749
3929.000000 0.4747 0.4746 0.4744 0.4743 0.4741
3934.000000 0.4739 0.4738 0.4736 0.4735 0.4733
3939.000000 0.4731 0.4730 0.4728 0.4726 0.4725
3944.000000 0.4723 0.4721 0.4720 0.4718 0.4716
3949.000000 0.4714 0.4713 0.4711 0.4709 0.4708
3954.000000 0.4706 0.4705 0.4703 0.4701 0.4699
3959.000000 0.4698 0.4696 0.4694 0.4692 0.4691
3964.000000 0.4689 0.4688 0.4686 0.4684 0.4683
3969.000000 0.4681 0.4679 0.4678 0.4676 0.4674
3974.000000 0.4672 0.4671 0.4669 0.4668 0.4666
3979.000000 0.4664 0.4663 0.4661 0.4660 0.4658
3984.000000 0.4656 0.4654 0.4653 0.4651 0.4649
3989.000000 0.4648 0.4646 0.4645 0.4643 0.4641
3994.000000 0.4640 0.4638 0.4637 0.4635 0.4634
3999.000000 0.4632 0.4631
##END=
