##TITLE=2-(p-NONYLPHENOXY)-3-BENZYL PYRAZINE
##JCAMP-DX=4.24
##DATA TYPE=INFRARED SPECTRUM
##CLASS=COBLENTZ
##ORIGIN=WYANDOTTE CHEMICALS CORP., WYANDOTTE, MICHIGAN, USA
##OWNER=COBLENTZ SOCIETY
Collection (C) 2018 copyright by the U.S. Secretary of Commerce
on behalf of the United States of America. All rights reserved.
##DATE=Not specified, most likely prior to 1970
##NAMES=3-benzyl-2-pyrazinyl 4-nonylphenyl ether
2-benzyl-3-(4-nonylphenoxy)pyrazine
##CAS REGISTRY NO=116660-03-8
##MOLFORM=C26 H32 N2 O
##SOURCE REFERENCE=COBLENTZ NO. 3129
##$NIST SOURCE=COBLENTZ
##$NIST IMAGE=cob3129
##SPECTROMETER/DATA SYSTEM=Not specified, most likely a prism, grating, or hybrid spectrometer.
##STATE=LIQUID
##PATH LENGTH=CAPILLARY
##SAMPLING PROCEDURE=TRANSMISSION
##RESOLUTION=4
##DATA PROCESSING=DIGITIZED BY NIST FROM HARD COPY
##XUNITS=MICROMETERS
##YUNITS=TRANSMITTANCE
##XFACTOR=1.000000
##YFACTOR=1
##DELTAX=000.006793
##FIRSTX=2.048
##LASTX=15.9866
##FIRSTY=0.972
##MAXX=15.9866
##MINX=2.048
##MAXY=0.969
##MINY=0.03
##NPOINTS=2053
##XYDATA=(X++(Y..Y))
2.048000 0.9720 0.9700 0.9690 0.9690 0.9670
2.081981 0.9640 0.9640 0.9620 0.9620 0.9620
2.115000 0.9620 0.9640 0.9620 0.9620 0.9620
2.148981 0.9620 0.9620 0.9640 0.9640 0.9620
2.183000 0.9600 0.9590 0.9570 0.9530 0.9480
2.216981 0.9450 0.9410 0.9400 0.9400 0.9400
2.251000 0.9400 0.9400 0.9400 0.9410 0.9410
2.284981 0.9410 0.9410 0.9400 0.9410 0.9430
2.319000 0.9480 0.9480 0.9430 0.9430 0.9430
2.352981 0.9480 0.9480 0.9480 0.9430 0.9410
2.387000 0.9380 0.9380 0.9350 0.9300 0.9280
2.420981 0.9280 0.9310 0.9380 0.9400 0.9410
2.455000 0.9430 0.9470 0.9470 0.9470 0.9480
2.488981 0.9480 0.9500 0.9480 0.9480 0.9480
2.523000 0.9480 0.9480 0.9500 0.9500 0.9520
2.556981 0.9530 0.9530 0.9530 0.9530 0.9530
2.591000 0.9530 0.9530 0.9550 0.9530 0.9530
2.624981 0.9530 0.9530 0.9530 0.9530 0.9530
2.659000 0.9530 0.9530 0.9530 0.9530 0.9550
2.692981 0.9550 0.9530 0.9530 0.9520 0.9500
2.727000 0.9500 0.9520 0.9530 0.9550 0.9550
2.760981 0.9550 0.9550 0.9550 0.9550 0.9550
2.795000 0.9550 0.9550 0.9530 0.9520 0.9500
2.828981 0.9480 0.9470 0.9480 0.9480 0.9480
2.863000 0.9470 0.9450 0.9450 0.9450 0.9430
2.896981 0.9430 0.9410 0.9400 0.9380 0.9360
2.931000 0.9330 0.9310 0.9300 0.9300 0.9280
2.964981 0.9260 0.9260 0.9240 0.9210 0.9190
2.999000 0.9180 0.9160 0.9140 0.9120 0.9110
3.032981 0.9090 0.9070 0.9060 0.9070 0.9070
3.066000 0.9070 0.9060 0.9020 0.9010 0.8990
3.099981 0.8990 0.8950 0.8940 0.8940 0.8920
3.134000 0.8900 0.8870 0.8850 0.8850 0.8830
3.167981 0.8830 0.8820 0.8800 0.8780 0.8770
3.202000 0.8750 0.8660 0.8540 0.8360 0.8130
3.235981 0.7900 0.7610 0.7320 0.6990 0.6460
3.270000 0.5970 0.5880 0.5900 0.6170 0.6430
3.303981 0.6790 0.6910 0.6920 0.6260 0.5760
3.338000 0.5630 0.3540 0.3170 0.1600 0.1020
3.371981 0.1000 0.1040 0.1330 0.1500 0.1600
3.406000 0.1740 0.1820 0.1940 0.2110 0.2350
3.439981 0.2620 0.2950 0.3270 0.3490 0.3630
3.474000 0.3650 0.3630 0.3630 0.3490 0.3510
3.507981 0.3970 0.4550 0.5230 0.5970 0.6700
3.542000 0.7250 0.7690 0.7960 0.8130 0.8270
3.575981 0.8390 0.8480 0.8560 0.8630 0.8680
3.610000 0.8720 0.8750 0.8780 0.8800 0.8800
3.643981 0.8800 0.8800 0.8780 0.8780 0.8770
3.678000 0.8750 0.8720 0.8730 0.8770 0.8820
3.711981 0.8870 0.8900 0.8920 0.8970 0.8970
3.746000 0.8970 0.8970 0.8970 0.8970 0.8990
3.779981 0.8990 0.8990 0.9010 0.9020 0.9040
3.814000 0.9040 0.9040 0.9040 0.9040 0.9040
3.847981 0.9040 0.9040 0.9040 0.9040 0.9040
3.882000 0.9040 0.9060 0.9060 0.9070 0.9110
3.915981 0.9110 0.9110 0.9110 0.9110 0.9090
3.950000 0.9070 0.9060 0.9060 0.9070 0.9090
3.983981 0.9110 0.9160 0.9180 0.9160 0.9140
4.017000 0.9120 0.9120 0.9110 0.9070 0.9060
4.050981 0.9060 0.9070 0.9070 0.9090 0.9070
4.085000 0.9040 0.9020 0.9010 0.8990 0.8970
4.118981 0.8970 0.8970 0.8950 0.8950 0.8950
4.153000 0.8950 0.8970 0.8990 0.8990 0.8990
4.186981 0.8990 0.9010 0.9010 0.9020 0.9020
4.221000 0.9020 0.9020 0.9010 0.8990 0.8950
4.254981 0.8920 0.8900 0.8920 0.8990 0.9010
4.289000 0.9020 0.9070 0.9120 0.9180 0.9190
4.322981 0.9210 0.9230 0.9230 0.9230 0.9230
4.357000 0.9230 0.9230 0.9230 0.9230 0.9230
4.390981 0.9230 0.9240 0.9230 0.9230 0.9230
4.425000 0.9210 0.9210 0.9210 0.9210 0.9190
4.458981 0.9180 0.9180 0.9190 0.9230 0.9230
4.493000 0.9210 0.9210 0.9190 0.9190 0.9190
4.526981 0.9210 0.9230 0.9230 0.9230 0.9230
4.561000 0.9240 0.9240 0.9240 0.9240 0.9240
4.594981 0.9260 0.9240 0.9230 0.9210 0.9210
4.629000 0.9210 0.9210 0.9190 0.9190 0.9190
4.662981 0.9180 0.9180 0.9180 0.9180 0.9190
4.697000 0.9190 0.9190 0.9210 0.9210 0.9230
4.730981 0.9210 0.9230 0.9230 0.9230 0.9230
4.765000 0.9230 0.9230 0.9230 0.9230 0.9240
4.798981 0.9240 0.9240 0.9230 0.9230 0.9230
4.833000 0.9230 0.9210 0.9190 0.9160 0.9160
4.866981 0.9180 0.9190 0.9190 0.9160 0.9120
4.901000 0.9110 0.9110 0.9110 0.9090 0.9110
4.934981 0.9110 0.9110 0.9110 0.9120 0.9120
4.968000 0.9140 0.9140 0.9140 0.9140 0.9140
5.001981 0.9140 0.9140 0.9140 0.9140 0.9140
5.036000 0.9140 0.9140 0.9120 0.9110 0.9070
5.069981 0.9070 0.9070 0.9070 0.9060 0.9060
5.104000 0.9060 0.9040 0.9040 0.9020 0.9010
5.137981 0.8990 0.8990 0.8970 0.8940 0.8900
5.172000 0.8890 0.8890 0.8900 0.8940 0.8950
5.205981 0.8950 0.8970 0.8970 0.8990 0.8990
5.240000 0.8990 0.8990 0.8970 0.8950 0.8920
5.273981 0.8890 0.8830 0.8820 0.8750 0.8660
5.308000 0.8600 0.8510 0.8490 0.8510 0.8580
5.341981 0.8650 0.8720 0.8780 0.8850 0.8900
5.376000 0.8940 0.8950 0.8970 0.8990 0.8990
5.409981 0.9010 0.9020 0.9020 0.9020 0.9020
5.444000 0.9020 0.9040 0.9060 0.9040 0.9040
5.477981 0.9020 0.9020 0.9020 0.9020 0.9010
5.512000 0.8990 0.8970 0.8920 0.8900 0.8890
5.545981 0.8830 0.8820 0.8800 0.8770 0.8730
5.580000 0.8730 0.8770 0.8800 0.8820 0.8820
5.613981 0.8820 0.8820 0.8800 0.8770 0.8730
5.648000 0.8720 0.8700 0.8700 0.8680 0.8660
5.681981 0.8680 0.8720 0.8750 0.8770 0.8770
5.716000 0.8770 0.8770 0.8770 0.8770 0.8770
5.749981 0.8770 0.8770 0.8750 0.8750 0.8730
5.784000 0.8720 0.8720 0.8700 0.8680 0.8650
5.817981 0.8630 0.8580 0.8530 0.8490 0.8440
5.852000 0.8430 0.8430 0.8430 0.8430 0.8430
5.885981 0.8430 0.8410 0.8390 0.8360 0.8360
5.919000 0.8340 0.8320 0.8290 0.8270 0.8250
5.952981 0.8220 0.8150 0.8120 0.8100 0.8080
5.987000 0.8070 0.8030 0.8020 0.7980 0.7960
6.020981 0.7960 0.8020 0.8020 0.8030 0.8030
6.055000 0.8030 0.8050 0.8050 0.8050 0.8050
6.088981 0.8030 0.8020 0.8020 0.7980 0.7960
6.123000 0.7900 0.7830 0.7730 0.7570 0.7420
6.156981 0.7210 0.6990 0.6620 0.6140 0.6000
6.191000 0.6000 0.6100 0.6530 0.6800 0.6990
6.224981 0.7030 0.7030 0.6990 0.6920 0.6910
6.259000 0.6920 0.6970 0.7030 0.7030 0.6990
6.292981 0.6890 0.6890 0.6920 0.7060 0.7180
6.327000 0.7320 0.7420 0.7490 0.7500 0.7500
6.360981 0.7500 0.7490 0.7470 0.7380 0.7320
6.395000 0.7160 0.6820 0.6530 0.6380 0.6190
6.428981 0.5970 0.5800 0.5470 0.5100 0.4090
6.463000 0.3920 0.3920 0.4010 0.4470 0.4740
6.496981 0.5150 0.5460 0.5830 0.5900 0.5900
6.531000 0.5830 0.5630 0.5400 0.5100 0.4520
6.564981 0.3540 0.2590 0.1960 0.1100 0.0900
6.599000 0.0900 0.0970 0.1210 0.1630 0.1960
6.632981 0.2210 0.2470 0.2730 0.3000 0.3360
6.667000 0.3820 0.4380 0.5340 0.5730 0.5750
6.700981 0.5750 0.5730 0.5580 0.5420 0.5230
6.735000 0.5050 0.4810 0.4470 0.4070 0.3720
6.768981 0.3560 0.3370 0.3200 0.2950 0.2780
6.803000 0.2660 0.2550 0.2500 0.2490 0.2490
6.836981 0.2490 0.2590 0.2900 0.3050 0.3200
6.870000 0.3310 0.3340 0.3340 0.3340 0.3360
6.903981 0.3370 0.3440 0.3560 0.3730 0.3870
6.938000 0.3990 0.4110 0.4260 0.4360 0.4430
6.971981 0.4520 0.4550 0.4550 0.4520 0.4360
7.006000 0.4190 0.3900 0.3480 0.3020 0.2570
7.039981 0.2150 0.1790 0.1510 0.0900 0.0520
7.074000 0.0350 0.0320 0.0300 0.0300 0.0300
7.107981 0.0300 0.0320 0.0390 0.0460 0.0510
7.142000 0.0580 0.0690 0.0830 0.1020 0.1210
7.175981 0.1450 0.1500 0.1670 0.1800 0.1820
7.210000 0.1820 0.1800 0.1750 0.1700 0.1650
7.243981 0.1620 0.1620 0.1620 0.1650 0.1720
7.278000 0.1800 0.1940 0.2090 0.2280 0.2520
7.311981 0.2780 0.3070 0.3390 0.3820 0.4110
7.346000 0.4550 0.4930 0.5200 0.5350 0.5460
7.379981 0.5490 0.5510 0.5520 0.5510 0.5350
7.414000 0.5230 0.5130 0.5050 0.4980 0.4890
7.447981 0.4790 0.4600 0.4530 0.4520 0.4500
7.482000 0.4500 0.4430 0.4380 0.4310 0.4230
7.515981 0.4160 0.4120 0.4040 0.3970 0.3850
7.550000 0.3720 0.3630 0.3540 0.3510 0.3460
7.583981 0.3440 0.3430 0.3390 0.3370 0.3360
7.618000 0.3360 0.3360 0.3340 0.3340 0.3310
7.651981 0.3290 0.3240 0.3170 0.3070 0.3020
7.686000 0.2910 0.2760 0.2610 0.2470 0.2370
7.719981 0.2300 0.2260 0.2200 0.2130 0.2060
7.754000 0.2030 0.1990 0.1960 0.1920 0.1910
7.787981 0.1910 0.2010 0.2300 0.2500 0.2620
7.821000 0.2790 0.3020 0.3250 0.3530 0.3800
7.854981 0.4060 0.4310 0.4520 0.4720 0.4930
7.889000 0.5060 0.5230 0.5320 0.5370 0.5420
7.922981 0.5470 0.5490 0.5540 0.5540 0.5510
7.957000 0.5420 0.5290 0.5100 0.4940 0.4860
7.990981 0.4810 0.4700 0.4690 0.4690 0.4720
8.025000 0.4840 0.4940 0.5000 0.5000 0.5000
8.058981 0.4890 0.4720 0.4520 0.4330 0.4120
8.093000 0.3920 0.3720 0.3490 0.3290 0.3080
8.126981 0.2910 0.2620 0.2380 0.2080 0.1750
8.161000 0.1380 0.1070 0.0800 0.0610 0.0540
8.194981 0.0540 0.0580 0.0630 0.0760 0.0930
8.229000 0.1120 0.1330 0.1530 0.1740 0.1940
8.262981 0.2110 0.2250 0.2350 0.2470 0.2620
8.297000 0.2830 0.3020 0.3190 0.3360 0.3540
8.330981 0.3680 0.3780 0.3820 0.3820 0.3800
8.365000 0.3800 0.3800 0.3820 0.3850 0.3890
8.398981 0.3870 0.3700 0.3540 0.3270 0.2880
8.433000 0.2470 0.2080 0.1770 0.1460 0.1140
8.466981 0.0920 0.0780 0.0730 0.0710 0.0730
8.501000 0.0800 0.0920 0.1100 0.1330 0.1560
8.534981 0.1890 0.2200 0.2470 0.2690 0.2900
8.569000 0.3080 0.3220 0.3320 0.3370 0.3480
8.602981 0.3600 0.3720 0.3780 0.3870 0.3950
8.637000 0.4090 0.4240 0.4410 0.4640 0.4910
8.670981 0.5200 0.5420 0.5630 0.5810 0.6000
8.705000 0.6170 0.6310 0.6450 0.6560 0.6650
8.738981 0.6840 0.6960 0.7040 0.7110 0.7150
8.772000 0.7160 0.7200 0.7210 0.7230 0.7230
8.805981 0.7200 0.7200 0.7160 0.7130 0.7090
8.840000 0.7060 0.7010 0.6920 0.6750 0.6670
8.873981 0.6560 0.6410 0.6220 0.6000 0.5780
8.908000 0.5540 0.5320 0.5100 0.4930 0.4790
8.941981 0.4700 0.4670 0.4690 0.4910 0.5180
8.976000 0.5420 0.5640 0.5850 0.6050 0.6220
9.009981 0.6380 0.6510 0.6650 0.6770 0.6870
9.044000 0.6960 0.7040 0.7110 0.7200 0.7250
9.077981 0.7280 0.7280 0.7260 0.7250 0.7230
9.112000 0.7230 0.7210 0.7200 0.7210 0.7250
9.145981 0.7280 0.7320 0.7330 0.7350 0.7370
9.180000 0.7380 0.7400 0.7420 0.7440 0.7420
9.213981 0.7400 0.7350 0.7260 0.7150 0.7080
9.248000 0.7040 0.7040 0.7040 0.7040 0.7040
9.281981 0.7040 0.7040 0.7060 0.7060 0.7080
9.316000 0.7090 0.7110 0.7130 0.7210 0.7330
9.349981 0.7450 0.7550 0.7660 0.7760 0.7840
9.384000 0.7930 0.8000 0.8070 0.8100 0.8120
9.417981 0.8120 0.8130 0.8150 0.8150 0.8150
9.452000 0.8150 0.8170 0.8190 0.8190 0.8170
9.485981 0.8170 0.8190 0.8240 0.8220 0.8200
9.520000 0.8130 0.8120 0.8120 0.8120 0.8120
9.553981 0.8120 0.8120 0.8120 0.8120 0.8100
9.588000 0.8100 0.8100 0.8050 0.8030 0.8020
9.621981 0.7960 0.7900 0.7840 0.7760 0.7660
9.656000 0.7470 0.7250 0.7060 0.6870 0.6740
9.689981 0.6720 0.6740 0.6920 0.7060 0.7260
9.723000 0.7370 0.7490 0.7500 0.7500 0.7500
9.756981 0.7440 0.7320 0.7090 0.6820 0.6460
9.791000 0.5980 0.5400 0.4840 0.4310 0.4020
9.824981 0.3800 0.3780 0.3830 0.4210 0.4620
9.859000 0.5030 0.5400 0.5640 0.5830 0.5980
9.892981 0.6120 0.6310 0.6460 0.6630 0.6770
9.927000 0.6920 0.7080 0.7150 0.7180 0.7210
9.960981 0.7250 0.7300 0.7350 0.7420 0.7490
9.995000 0.7550 0.7640 0.7710 0.7760 0.7780
10.028981 0.7790 0.7790 0.7830 0.7840 0.7860
10.063000 0.7880 0.7900 0.7900 0.7900 0.7880
10.096981 0.7840 0.7810 0.7780 0.7710 0.7670
10.131000 0.7640 0.7610 0.7570 0.7570 0.7540
10.164981 0.7540 0.7520 0.7540 0.7570 0.7620
10.199000 0.7710 0.7740 0.7810 0.7830 0.7860
10.232981 0.7910 0.7960 0.8020 0.8020 0.8030
10.267000 0.8050 0.8050 0.8050 0.8050 0.8050
10.300981 0.8050 0.8030 0.8030 0.8020 0.8000
10.335000 0.8000 0.8000 0.7980 0.7960 0.7960
10.368981 0.7960 0.7980 0.8020 0.8020 0.8030
10.403000 0.8050 0.8080 0.8080 0.8080 0.8100
10.436981 0.8120 0.8120 0.8130 0.8150 0.8150
10.471000 0.8170 0.8170 0.8170 0.8170 0.8190
10.504981 0.8190 0.8200 0.8220 0.8240 0.8240
10.539000 0.8240 0.8240 0.8240 0.8240 0.8240
10.572981 0.8220 0.8200 0.8190 0.8130 0.8050
10.607000 0.8000 0.7960 0.7910 0.7860 0.7780
10.640981 0.7710 0.7690 0.7640 0.7590 0.7540
10.674000 0.7490 0.7420 0.7350 0.7300 0.7230
10.707981 0.7200 0.7180 0.7150 0.7130 0.7110
10.742000 0.7090 0.7110 0.7110 0.7150 0.7200
10.775981 0.7200 0.7210 0.7230 0.7230 0.7230
10.810000 0.7230 0.7210 0.7210 0.7210 0.7230
10.843981 0.7260 0.7300 0.7300 0.7330 0.7330
10.878000 0.7350 0.7350 0.7350 0.7370 0.7370
10.911981 0.7370 0.7370 0.7350 0.7330 0.7320
10.946000 0.7250 0.7180 0.7110 0.7040 0.7010
10.979981 0.6960 0.6920 0.6860 0.6770 0.6720
11.014000 0.6700 0.6680 0.6680 0.6680 0.6680
11.047981 0.6680 0.6680 0.6700 0.6720 0.6740
11.082000 0.6750 0.6770 0.6790 0.6870 0.6990
11.115981 0.7010 0.7060 0.7130 0.7210 0.7300
11.150000 0.7370 0.7440 0.7470 0.7500 0.7520
11.183981 0.7540 0.7540 0.7550 0.7570 0.7590
11.218000 0.7590 0.7610 0.7620 0.7640 0.7640
11.251981 0.7660 0.7670 0.7670 0.7670 0.7690
11.286000 0.7690 0.7710 0.7740 0.7760 0.7780
11.319981 0.7780 0.7790 0.7790 0.7790 0.7790
11.354000 0.7830 0.7840 0.7900 0.7910 0.7930
11.387981 0.7930 0.7930 0.7910 0.7860 0.7810
11.422000 0.7780 0.7740 0.7740 0.7730 0.7730
11.455981 0.7710 0.7690 0.7690 0.7640 0.7550
11.490000 0.7520 0.7500 0.7490 0.7440 0.7400
11.523981 0.7320 0.7260 0.7230 0.7210 0.7180
11.557000 0.7130 0.7090 0.7040 0.7010 0.6960
11.590981 0.6910 0.6820 0.6700 0.6510 0.6480
11.625000 0.6380 0.6270 0.6170 0.6070 0.5950
11.658981 0.5850 0.5710 0.5590 0.5440 0.5270
11.693000 0.5060 0.4930 0.4740 0.4590 0.4430
11.726981 0.4260 0.4070 0.3950 0.3830 0.3750
11.761000 0.3700 0.3580 0.3530 0.3480 0.3440
11.794981 0.3370 0.3360 0.3360 0.3360 0.3370
11.829000 0.3370 0.3390 0.3390 0.3410 0.3430
11.862981 0.3460 0.3490 0.3530 0.3600 0.3650
11.897000 0.3700 0.3750 0.3820 0.3870 0.3900
11.930981 0.3940 0.3970 0.4020 0.4060 0.4120
11.965000 0.4190 0.4280 0.4360 0.4400 0.4450
11.998981 0.4520 0.4600 0.4670 0.4740 0.4770
12.033000 0.4840 0.4890 0.4960 0.5010 0.5100
12.066981 0.5170 0.5250 0.5340 0.5400 0.5470
12.101000 0.5560 0.5640 0.5730 0.5830 0.5880
12.134981 0.5970 0.6050 0.6160 0.6220 0.6290
12.169000 0.6330 0.6380 0.6430 0.6480 0.6550
12.202981 0.6650 0.6740 0.6770 0.6820 0.6860
12.237000 0.6920 0.6970 0.7010 0.7030 0.7040
12.270981 0.7130 0.7150 0.7200 0.7260 0.7320
12.305000 0.7350 0.7380 0.7380 0.7400 0.7450
12.338981 0.7490 0.7540 0.7570 0.7620 0.7640
12.373000 0.7670 0.7710 0.7730 0.7760 0.7780
12.406981 0.7780 0.7780 0.7790 0.7790 0.7810
12.441000 0.7830 0.7840 0.7860 0.7860 0.7880
12.474981 0.7880 0.7900 0.7880 0.7880 0.7900
12.508000 0.7900 0.7900 0.7910 0.7910 0.7900
12.541981 0.7900 0.7880 0.7860 0.7840 0.7810
12.576000 0.7790 0.7740 0.7730 0.7710 0.7690
12.609981 0.7670 0.7620 0.7590 0.7540 0.7520
12.644000 0.7520 0.7500 0.7490 0.7490 0.7470
12.677981 0.7470 0.7490 0.7490 0.7500 0.7500
12.712000 0.7500 0.7520 0.7520 0.7540 0.7550
12.745981 0.7550 0.7550 0.7540 0.7540 0.7520
12.780000 0.7500 0.7470 0.7400 0.7330 0.7280
12.813981 0.7250 0.7200 0.7130 0.7060 0.6970
12.848000 0.6860 0.6750 0.6650 0.6560 0.6500
12.881981 0.6430 0.6390 0.6360 0.6340 0.6330
12.916000 0.6360 0.6510 0.6630 0.6740 0.6820
12.949981 0.6910 0.6990 0.7090 0.7180 0.7260
12.984000 0.7300 0.7330 0.7400 0.7440 0.7450
13.017981 0.7490 0.7490 0.7500 0.7490 0.7520
13.052000 0.7550 0.7550 0.7520 0.7500 0.7500
13.085981 0.7490 0.7470 0.7440 0.7370 0.7320
13.120000 0.7300 0.7280 0.7250 0.7180 0.7130
13.153981 0.7040 0.6970 0.6910 0.6820 0.6750
13.188000 0.6670 0.6560 0.6480 0.6360 0.6240
13.221981 0.6120 0.6070 0.5980 0.5900 0.5830
13.256000 0.5780 0.5730 0.5690 0.5630 0.5560
13.289981 0.5510 0.5460 0.5420 0.5390 0.5340
13.324000 0.5250 0.5180 0.5060 0.5010 0.4960
13.357981 0.4930 0.4890 0.4860 0.4820 0.4810
13.392000 0.4820 0.4840 0.4880 0.4910 0.4940
13.425981 0.4980 0.5010 0.5060 0.5110 0.5170
13.459000 0.5220 0.5270 0.5340 0.5390 0.5460
13.492981 0.5520 0.5590 0.5660 0.5710 0.5780
13.527000 0.5830 0.5880 0.5950 0.6000 0.6040
13.560981 0.6090 0.6140 0.6190 0.6210 0.6220
13.595000 0.6260 0.6290 0.6330 0.6340 0.6340
13.628981 0.6340 0.6390 0.6390 0.6390 0.6390
13.663000 0.6390 0.6390 0.6360 0.6310 0.6220
13.696981 0.6170 0.6100 0.6050 0.5970 0.5880
13.731000 0.5760 0.5640 0.5510 0.5370 0.5220
13.764981 0.5050 0.4940 0.4820 0.4720 0.4640
13.799000 0.4570 0.4500 0.4470 0.4430 0.4410
13.832981 0.4430 0.4550 0.4640 0.4740 0.4840
13.867000 0.4980 0.5110 0.5270 0.5400 0.5520
13.900981 0.5630 0.5780 0.5930 0.6070 0.6210
13.935000 0.6330 0.6450 0.6550 0.6600 0.6700
13.968981 0.6840 0.6960 0.6990 0.7040 0.7090
14.003000 0.7150 0.7200 0.7260 0.7330 0.7420
14.036981 0.7440 0.7450 0.7500 0.7540 0.7550
14.071000 0.7590 0.7610 0.7610 0.7620 0.7640
14.104981 0.7640 0.7610 0.7570 0.7570 0.7540
14.139000 0.7540 0.7520 0.7490 0.7450 0.7370
14.172981 0.7320 0.7250 0.7160 0.7060 0.6990
14.207000 0.6840 0.6700 0.6580 0.6460 0.6340
14.240981 0.6220 0.6070 0.5900 0.5690 0.5420
14.275000 0.5200 0.5010 0.4770 0.4570 0.4350
14.308981 0.4070 0.3820 0.3630 0.3460 0.3320
14.343000 0.3220 0.3130 0.3070 0.3000 0.2930
14.376981 0.2900 0.2860 0.2860 0.2900 0.2930
14.410000 0.2980 0.3050 0.3150 0.3250 0.3360
14.443981 0.3490 0.3630 0.3750 0.3900 0.4040
14.478000 0.4190 0.4350 0.4500 0.4650 0.4810
14.511981 0.4960 0.5130 0.5290 0.5440 0.5590
14.546000 0.5750 0.5900 0.6040 0.6170 0.6330
14.579981 0.6450 0.6580 0.6700 0.6800 0.6920
14.614000 0.7010 0.7090 0.7150 0.7230 0.7320
14.647981 0.7370 0.7500 0.7420 0.7500 0.7550
14.682000 0.7610 0.7640 0.7670 0.7690 0.7730
14.715981 0.7760 0.7780 0.7810 0.7830 0.7840
14.750000 0.7860 0.7880 0.7900 0.7900 0.7910
14.783981 0.7930 0.7950 0.7960 0.7980 0.8000
14.818000 0.8020 0.8020 0.8030 0.8030 0.8050
14.851981 0.8050 0.8050 0.8070 0.8070 0.8070
14.886000 0.8070 0.8070 0.8070 0.8070 0.8050
14.919981 0.8050 0.8030 0.8030 0.8030 0.8030
14.954000 0.8020 0.8020 0.8020 0.8020 0.8000
14.987981 0.7960 0.7960 0.7930 0.7860 0.7830
15.022000 0.7810 0.7790 0.7760 0.7730 0.7710
15.055981 0.7670 0.7670 0.7690 0.7710 0.7760
15.090000 0.7810 0.7840 0.7900 0.7930 0.7980
15.123981 0.8020 0.8050 0.8080 0.8100 0.8120
15.158000 0.8120 0.8130 0.8130 0.8130 0.8130
15.191981 0.8120 0.8100 0.8120 0.8120 0.8120
15.226000 0.8100 0.8080 0.8080 0.8080 0.8050
15.259981 0.8050 0.8030 0.8030 0.8030 0.8020
15.294000 0.8020 0.8000 0.8020 0.8000 0.7980
15.327981 0.7980 0.7960 0.7960 0.7950 0.7910
15.361000 0.7910 0.7900 0.7900 0.7900 0.7880
15.394981 0.7860 0.7840 0.7830 0.7810 0.7810
15.429000 0.7790 0.7780 0.7760 0.7760 0.7760
15.462981 0.7760 0.7760 0.7760 0.7740 0.7740
15.497000 0.7740 0.7730 0.7730 0.7710 0.7710
15.530981 0.7710 0.7710 0.7690 0.7670 0.7670
15.565000 0.7670 0.7640 0.7620 0.7620 0.7620
15.598981 0.7620 0.7620 0.7640 0.7640 0.7640
15.633000 0.7640 0.7640 0.7640 0.7620 0.7620
15.666981 0.7610 0.7610 0.7610 0.7610 0.7610
15.701000 0.7590 0.7570 0.7570 0.7570 0.7570
15.734981 0.7550 0.7550 0.7520 0.7520 0.7500
15.769000 0.7490 0.7490 0.7490 0.7490 0.7490
15.802981 0.7470 0.7470 0.7440 0.7420 0.7380
15.837000 0.7380 0.7370 0.7350 0.7300 0.7300
15.870981 0.7260 0.7260 0.7250 0.7230 0.7210
15.905000 0.7180 0.7160 0.7150 0.7130 0.7130
15.938981 0.7130 0.7130 0.7130 0.7130 0.7130
15.973000 0.7130 0.7130 0.7110
##END=
