##TITLE=Phthalic acid, di-2-ethylhexyl ester
##JCAMP-DX=4.24
$$ By DXEDIT 1.05 (RS McDonald)
##DATA TYPE=INFRARED SPECTRUM
##CLASS=COBLENTZ III
##ORIGIN=DOW CHEMICAL COMPANY
##OWNER=COPYRIGHT (C) 1988 by COBLENTZ SOCIETY INC.
Collection (C) 2018 copyright by the U.S. Secretary of Commerce
on behalf of the United States of America. All rights reserved.
##DATE=1970/01/13
##NAMES=bis(2-ethylhexyl) phthalate
Di(2-ethylhexyl) phthalate
##CAS REGISTRY NO=117-81-7
##MOLFORM=C24 H38 O4
##SOURCE REFERENCE=COBLENTZ NO. 09578
##$NIST SOURCE=COBLENTZ
##$NIST IMAGE=cob9578
##SPECTROMETER/DATA SYSTEM=DOW KBr FOREPRISM-GRATING
##INSTRUMENT PARAMETERS=BLAZED AT 3.5, 12.0, 20.0 MICRON AND CHANGED AT 5.0, 7.5, 14.9 MICRON
##STATE=SOLUTION (10% CCl4 FOR 2.7-7.5, 10% CS2 FOR 7.5-26 MICRON) VS SOLVENT
$$ SEE SPECTRUM NO. 2526 FOR "NEAT" RUN
##PATH LENGTH=0.011 CM, 0.011 CM
##SAMPLING PROCEDURE=TRANSMISSION
##RESOLUTION=2
##DATA PROCESSING=DIGITIZED BY COBLENTZ SOCIETY (BATCH I) FROM HARD COPY
##XUNITS=1/CM
##YUNITS=TRANSMITTANCE
##XFACTOR=1
##YFACTOR=1
##DELTAX=1
##FIRSTX=3792
##LASTX=395
##FIRSTY=0.8554
##MAXX=3792
##MINX=395
##MAXY=0.8928
##MINY=0.0051
##NPOINTS=3398
##XYDATA=(X++(Y..Y))
3792.000000 0.8554 0.8554 0.8554 0.8554 0.8555
3787.000000 0.8555 0.8556 0.8556 0.8556 0.8556
3782.000000 0.8557 0.8557 0.8557 0.8557 0.8558
3777.000000 0.8558 0.8558 0.8558 0.8559 0.8559
3772.000000 0.8560 0.8560 0.8560 0.8560 0.8561
3767.000000 0.8561 0.8561 0.8561 0.8562 0.8562
3762.000000 0.8562 0.8562 0.8562 0.8562 0.8563
3757.000000 0.8563 0.8563 0.8563 0.8563 0.8563
3752.000000 0.8564 0.8564 0.8564 0.8564 0.8564
3747.000000 0.8564 0.8564 0.8564 0.8565 0.8565
3742.000000 0.8565 0.8565 0.8565 0.8565 0.8566
3737.000000 0.8567 0.8568 0.8568 0.8568 0.8570
3732.000000 0.8571 0.8571 0.8571 0.8571 0.8573
3727.000000 0.8574 0.8575 0.8575 0.8575 0.8575
3722.000000 0.8577 0.8578 0.8578 0.8578 0.8580
3717.000000 0.8580 0.8581 0.8582 0.8583 0.8583
3712.000000 0.8584 0.8584 0.8584 0.8584 0.8585
3707.000000 0.8585 0.8586 0.8586 0.8586 0.8586
3702.000000 0.8587 0.8587 0.8588 0.8588 0.8588
3697.000000 0.8588 0.8589 0.8589 0.8590 0.8590
3692.000000 0.8590 0.8590 0.8590 0.8590 0.8590
3687.000000 0.8589 0.8589 0.8588 0.8588 0.8587
3682.000000 0.8587 0.8586 0.8586 0.8586 0.8586
3677.000000 0.8585 0.8585 0.8584 0.8584 0.8583
3672.000000 0.8583 0.8583 0.8583 0.8582 0.8582
3667.000000 0.8581 0.8581 0.8581 0.8581 0.8580
3662.000000 0.8580 0.8578 0.8578 0.8578 0.8578
3657.000000 0.8578 0.8578 0.8577 0.8577 0.8577
3652.000000 0.8577 0.8577 0.8577 0.8577 0.8578
3647.000000 0.8578 0.8578 0.8578 0.8578 0.8578
3642.000000 0.8578 0.8578 0.8580 0.8580 0.8580
3637.000000 0.8580 0.8580 0.8580 0.8581 0.8581
3632.000000 0.8581 0.8580 0.8578 0.8575 0.8571
3627.000000 0.8568 0.8565 0.8562 0.8559 0.8557
3622.000000 0.8556 0.8556 0.8556 0.8558 0.8561
3617.000000 0.8563 0.8566 0.8568 0.8571 0.8573
3612.000000 0.8575 0.8578 0.8581 0.8583 0.8586
3607.000000 0.8588 0.8591 0.8593 0.8596 0.8598
3602.000000 0.8601 0.8603 0.8606 0.8608 0.8611
3597.000000 0.8613 0.8616 0.8618 0.8621 0.8624
3592.000000 0.8627 0.8628 0.8632 0.8637 0.8642
3587.000000 0.8647 0.8653 0.8658 0.8663 0.8668
3582.000000 0.8673 0.8678 0.8683 0.8688 0.8694
3577.000000 0.8700 0.8706 0.8711 0.8717 0.8723
3572.000000 0.8728 0.8735 0.8741 0.8744 0.8747
3567.000000 0.8748 0.8749 0.8750 0.8752 0.8753
3562.000000 0.8753 0.8753 0.8753 0.8751 0.8749
3557.000000 0.8747 0.8745 0.8742 0.8740 0.8737
3552.000000 0.8735 0.8731 0.8727 0.8723 0.8718
3547.000000 0.8715 0.8711 0.8707 0.8703 0.8703
3542.000000 0.8703 0.8703 0.8705 0.8706 0.8708
3537.000000 0.8710 0.8712 0.8714 0.8716 0.8718
3532.000000 0.8720 0.8721 0.8724 0.8725 0.8727
3527.000000 0.8728 0.8731 0.8733 0.8735 0.8737
3522.000000 0.8740 0.8742 0.8745 0.8747 0.8750
3517.000000 0.8752 0.8755 0.8757 0.8760 0.8762
3512.000000 0.8765 0.8767 0.8770 0.8771 0.8775
3507.000000 0.8777 0.8780 0.8782 0.8785 0.8787
3502.000000 0.8789 0.8791 0.8793 0.8794 0.8796
3497.000000 0.8797 0.8798 0.8799 0.8800 0.8801
3492.000000 0.8803 0.8804 0.8805 0.8806 0.8807
3487.000000 0.8808 0.8809 0.8810 0.8811 0.8811
3482.000000 0.8812 0.8813 0.8814 0.8814 0.8815
3477.000000 0.8816 0.8817 0.8818 0.8818 0.8818
3472.000000 0.8818 0.8818 0.8818 0.8816 0.8815
3467.000000 0.8814 0.8813 0.8811 0.8810 0.8808
3462.000000 0.8807 0.8803 0.8799 0.8794 0.8789
3457.000000 0.8784 0.8780 0.8775 0.8770 0.8765
3452.000000 0.8760 0.8753 0.8747 0.8738 0.8730
3447.000000 0.8721 0.8712 0.8704 0.8697 0.8691
3442.000000 0.8685 0.8678 0.8673 0.8667 0.8661
3437.000000 0.8655 0.8649 0.8644 0.8640 0.8635
3432.000000 0.8631 0.8625 0.8621 0.8618 0.8616
3427.000000 0.8614 0.8613 0.8611 0.8611 0.8607
3422.000000 0.8606 0.8604 0.8602 0.8600 0.8598
3417.000000 0.8603 0.8608 0.8617 0.8625 0.8635
3412.000000 0.8645 0.8654 0.8664 0.8673 0.8683
3407.000000 0.8692 0.8701 0.8710 0.8718 0.8727
3402.000000 0.8735 0.8743 0.8751 0.8758 0.8766
3397.000000 0.8773 0.8780 0.8786 0.8793 0.8799
3392.000000 0.8806 0.8812 0.8818 0.8825 0.8832
3387.000000 0.8836 0.8841 0.8845 0.8850 0.8854
3382.000000 0.8858 0.8860 0.8863 0.8865 0.8868
3377.000000 0.8870 0.8873 0.8875 0.8877 0.8878
3372.000000 0.8881 0.8883 0.8885 0.8886 0.8888
3367.000000 0.8890 0.8892 0.8893 0.8895 0.8897
3362.000000 0.8899 0.8900 0.8902 0.8904 0.8906
3357.000000 0.8908 0.8910 0.8911 0.8913 0.8915
3352.000000 0.8917 0.8918 0.8921 0.8921 0.8923
3347.000000 0.8924 0.8925 0.8925 0.8928 0.8928
3342.000000 0.8928 0.8925 0.8925 0.8924 0.8923
3337.000000 0.8921 0.8921 0.8921 0.8921 0.8921
3332.000000 0.8923 0.8923 0.8923 0.8923 0.8923
3327.000000 0.8923 0.8924 0.8924 0.8924 0.8924
3322.000000 0.8924 0.8924 0.8925 0.8925 0.8925
3317.000000 0.8925 0.8925 0.8924 0.8924 0.8923
3312.000000 0.8923 0.8923 0.8923 0.8921 0.8921
3307.000000 0.8921 0.8921 0.8920 0.8920 0.8920
3302.000000 0.8920 0.8918 0.8918 0.8918 0.8918
3297.000000 0.8917 0.8917 0.8917 0.8917 0.8916
3292.000000 0.8916 0.8915 0.8915 0.8914 0.8914
3287.000000 0.8913 0.8913 0.8913 0.8913 0.8912
3282.000000 0.8912 0.8911 0.8911 0.8910 0.8910
3277.000000 0.8909 0.8909 0.8908 0.8908 0.8907
3272.000000 0.8907 0.8907 0.8907 0.8906 0.8906
3267.000000 0.8905 0.8905 0.8903 0.8902 0.8900
3262.000000 0.8899 0.8897 0.8896 0.8894 0.8893
3257.000000 0.8891 0.8889 0.8887 0.8886 0.8884
3252.000000 0.8883 0.8881 0.8880 0.8877 0.8875
3247.000000 0.8871 0.8868 0.8866 0.8864 0.8861
3242.000000 0.8858 0.8855 0.8853 0.8850 0.8848
3237.000000 0.8845 0.8842 0.8839 0.8837 0.8834
3232.000000 0.8832 0.8828 0.8825 0.8821 0.8818
3227.000000 0.8815 0.8812 0.8808 0.8805 0.8802
3222.000000 0.8799 0.8795 0.8792 0.8788 0.8785
3217.000000 0.8782 0.8780 0.8777 0.8775 0.8771
3212.000000 0.8770 0.8768 0.8766 0.8763 0.8761
3207.000000 0.8758 0.8756 0.8753 0.8751 0.8748
3202.000000 0.8746 0.8743 0.8741 0.8740 0.8739
3197.000000 0.8737 0.8736 0.8735 0.8734 0.8732
3192.000000 0.8731 0.8730 0.8728 0.8727 0.8725
3187.000000 0.8725 0.8724 0.8721 0.8721 0.8721
3182.000000 0.8721 0.8721 0.8721 0.8721 0.8721
3177.000000 0.8721 0.8723 0.8723 0.8724 0.8724
3172.000000 0.8724 0.8724 0.8725 0.8725 0.8725
3167.000000 0.8725 0.8725 0.8725 0.8727 0.8727
3162.000000 0.8728 0.8728 0.8728 0.8728 0.8728
3157.000000 0.8728 0.8728 0.8728 0.8728 0.8728
3152.000000 0.8728 0.8728 0.8728 0.8728 0.8728
3147.000000 0.8728 0.8728 0.8725 0.8725 0.8723
3142.000000 0.8721 0.8720 0.8718 0.8717 0.8716
3137.000000 0.8714 0.8712 0.8710 0.8709 0.8707
3132.000000 0.8706 0.8702 0.8699 0.8696 0.8693
3127.000000 0.8690 0.8687 0.8683 0.8680 0.8677
3122.000000 0.8674 0.8668 0.8665 0.8660 0.8655
3117.000000 0.8649 0.8644 0.8638 0.8633 0.8627
3112.000000 0.8621 0.8614 0.8607 0.8599 0.8592
3107.000000 0.8584 0.8575 0.8568 0.8561 0.8552
3102.000000 0.8544 0.8535 0.8525 0.8517 0.8509
3097.000000 0.8500 0.8492 0.8483 0.8475 0.8467
3092.000000 0.8459 0.8451 0.8443 0.8430 0.8417
3087.000000 0.8400 0.8384 0.8362 0.8340 0.8316
3082.000000 0.8293 0.8271 0.8250 0.8128 0.8007
3077.000000 0.7908 0.7811 0.7758 0.7706 0.7698
3072.000000 0.7690 0.7681 0.7672 0.7667 0.7661
3067.000000 0.7661 0.7660 0.7661 0.7667 0.7676
3062.000000 0.7687 0.7701 0.7715 0.7730 0.7745
3057.000000 0.7760 0.7775 0.7798 0.7821 0.7844
3052.000000 0.7867 0.7890 0.7914 0.7938 0.7961
3047.000000 0.7978 0.7995 0.8004 0.8014 0.8017
3042.000000 0.8021 0.8025 0.8025 0.8025 0.8021
3037.000000 0.8015 0.8008 0.8001 0.7995 0.7978
3032.000000 0.7962 0.7940 0.7917 0.7904 0.7891
3027.000000 0.7876 0.7864 0.7850 0.7836 0.7817
3022.000000 0.7799 0.7780 0.7761 0.7740 0.7718
3017.000000 0.7696 0.7674 0.7641 0.7608 0.7581
3012.000000 0.7555 0.7501 0.7450 0.7411 0.7372
3007.000000 0.7335 0.7297 0.7204 0.7111 0.7004
3002.000000 0.6896 0.6851 0.6808 0.6761 0.6715
2997.000000 0.6651 0.6587 0.6468 0.6350 0.6046
2992.000000 0.5743 0.5439 0.5136 0.4832 0.4528
2987.000000 0.4224 0.3921 0.3616 0.3312 0.3009
2982.000000 0.2706 0.2402 0.2099 0.1794 0.1491
2977.000000 0.1217 0.0943 0.0901 0.0859 0.0806
2972.000000 0.0754 0.0610 0.0466 0.0408 0.0351
2967.000000 0.0338 0.0300 0.0316 0.0308 0.0304
2962.000000 0.0300 0.0300 0.0300 0.0346 0.0392
2957.000000 0.0448 0.0505 0.0561 0.0618 0.0674
2952.000000 0.0731 0.0787 0.0843 0.0900 0.0957
2947.000000 0.1013 0.1070 0.1085 0.1104 0.1100
2942.000000 0.1100 0.1002 0.0905 0.0799 0.0694
2937.000000 0.0592 0.0491 0.0477 0.0466 0.0459
2932.000000 0.0452 0.0448 0.0449 0.0443 0.0442
2927.000000 0.0447 0.0453 0.0465 0.0477 0.0506
2922.000000 0.0535 0.0624 0.0713 0.0824 0.0936
2917.000000 0.1049 0.1162 0.1275 0.1388 0.1501
2912.000000 0.1615 0.1728 0.1841 0.1954 0.2067
2907.000000 0.2133 0.2200 0.2234 0.2270 0.2332
2902.000000 0.2395 0.2457 0.2519 0.2581 0.2644
2897.000000 0.2706 0.2769 0.2831 0.2894 0.2956
2892.000000 0.3019 0.3081 0.3143 0.3194 0.3245
2887.000000 0.3250 0.3257 0.3257 0.3257 0.2922
2882.000000 0.2590 0.2214 0.1839 0.1607 0.1396
2877.000000 0.1422 0.1470 0.1616 0.1762 0.1890
2872.000000 0.2026 0.1989 0.1960 0.1892 0.1824
2867.000000 0.1756 0.1687 0.1620 0.1552 0.1529
2862.000000 0.1510 0.1603 0.1700 0.1941 0.2183
2857.000000 0.2424 0.2666 0.2908 0.3150 0.3391
2852.000000 0.3632 0.3875 0.4117 0.4358 0.4600
2847.000000 0.4842 0.5084 0.5315 0.5547 0.5644
2842.000000 0.5741 0.5810 0.5879 0.5945 0.6010
2837.000000 0.6077 0.6143 0.6257 0.6371 0.6461
2832.000000 0.6554 0.6638 0.6721 0.6799 0.6876
2827.000000 0.6934 0.6992 0.7047 0.7103 0.7150
2822.000000 0.7198 0.7246 0.7294 0.7326 0.7361
2817.000000 0.7394 0.7426 0.7460 0.7493 0.7517
2812.000000 0.7542 0.7565 0.7589 0.7611 0.7636
2807.000000 0.7658 0.7682 0.7703 0.7724 0.7742
2802.000000 0.7761 0.7778 0.7798 0.7815 0.7833
2797.000000 0.7849 0.7865 0.7882 0.7899 0.7915
2792.000000 0.7931 0.7944 0.7957 0.7969 0.7983
2787.000000 0.7995 0.8008 0.8018 0.8028 0.8039
2782.000000 0.8049 0.8058 0.8068 0.8078 0.8088
2777.000000 0.8095 0.8101 0.8108 0.8117 0.8124
2772.000000 0.8132 0.8139 0.8146 0.8151 0.8157
2767.000000 0.8161 0.8167 0.8171 0.8175 0.8178
2762.000000 0.8182 0.8183 0.8185 0.8187 0.8189
2757.000000 0.8190 0.8191 0.8191 0.8191 0.8191
2752.000000 0.8191 0.8191 0.8191 0.8188 0.8186
2747.000000 0.8182 0.8178 0.8174 0.8169 0.8165
2742.000000 0.8161 0.8156 0.8151 0.8145 0.8140
2737.000000 0.8136 0.8132 0.8128 0.8124 0.8119
2732.000000 0.8115 0.8114 0.8111 0.8111 0.8111
2727.000000 0.8110 0.8110 0.8115 0.8121 0.8125
2722.000000 0.8132 0.8138 0.8144 0.8150 0.8157
2717.000000 0.8162 0.8169 0.8175 0.8183 0.8188
2712.000000 0.8194 0.8199 0.8204 0.8209 0.8214
2707.000000 0.8218 0.8225 0.8230 0.8235 0.8240
2702.000000 0.8246 0.8250 0.8255 0.8259 0.8263
2697.000000 0.8267 0.8271 0.8275 0.8281 0.8285
2692.000000 0.8289 0.8293 0.8297 0.8300 0.8303
2687.000000 0.8306 0.8310 0.8311 0.8311 0.8311
2682.000000 0.8311 0.8310 0.8310 0.8308 0.8307
2677.000000 0.8305 0.8303 0.8301 0.8300 0.8298
2672.000000 0.8296 0.8294 0.8292 0.8292 0.8293
2667.000000 0.8294 0.8296 0.8297 0.8299 0.8303
2662.000000 0.8307 0.8311 0.8316 0.8320 0.8324
2657.000000 0.8328 0.8333 0.8337 0.8341 0.8345
2652.000000 0.8349 0.8352 0.8355 0.8358 0.8362
2647.000000 0.8365 0.8368 0.8371 0.8374 0.8377
2642.000000 0.8380 0.8382 0.8384 0.8386 0.8388
2637.000000 0.8390 0.8392 0.8394 0.8396 0.8397
2632.000000 0.8398 0.8398 0.8398 0.8398 0.8398
2627.000000 0.8398 0.8398 0.8398 0.8398 0.8398
2622.000000 0.8398 0.8395 0.8392 0.8389 0.8386
2617.000000 0.8383 0.8380 0.8378 0.8375 0.8375
2612.000000 0.8374 0.8373 0.8373 0.8371 0.8371
2607.000000 0.8370 0.8368 0.8368 0.8368 0.8366
2602.000000 0.8365 0.8364 0.8363 0.8362 0.8361
2597.000000 0.8359 0.8358 0.8357 0.8356 0.8355
2592.000000 0.8354 0.8354 0.8354 0.8354 0.8355
2587.000000 0.8356 0.8357 0.8358 0.8359 0.8360
2582.000000 0.8361 0.8361 0.8362 0.8363 0.8365
2577.000000 0.8367 0.8370 0.8371 0.8374 0.8375
2572.000000 0.8378 0.8380 0.8383 0.8385 0.8387
2567.000000 0.8389 0.8392 0.8394 0.8396 0.8398
2562.000000 0.8401 0.8403 0.8405 0.8407 0.8409
2557.000000 0.8411 0.8414 0.8416 0.8418 0.8420
2552.000000 0.8421 0.8424 0.8427 0.8428 0.8431
2547.000000 0.8433 0.8435 0.8437 0.8440 0.8442
2542.000000 0.8444 0.8446 0.8448 0.8450 0.8452
2537.000000 0.8454 0.8457 0.8460 0.8463 0.8465
2532.000000 0.8468 0.8471 0.8474 0.8475 0.8478
2527.000000 0.8482 0.8485 0.8487 0.8490 0.8493
2522.000000 0.8496 0.8499 0.8502 0.8505 0.8509
2517.000000 0.8512 0.8516 0.8518 0.8521 0.8525
2512.000000 0.8528 0.8532 0.8536 0.8539 0.8543
2507.000000 0.8546 0.8549 0.8552 0.8556 0.8559
2502.000000 0.8563 0.8565 0.8568 0.8570 0.8573
2497.000000 0.8575 0.8577 0.8578 0.8582 0.8584
2492.000000 0.8587 0.8589 0.8592 0.8594 0.8597
2487.000000 0.8598 0.8600 0.8601 0.8603 0.8604
2482.000000 0.8605 0.8606 0.8608 0.8609 0.8610
2477.000000 0.8611 0.8612 0.8613 0.8615 0.8616
2472.000000 0.8617 0.8617 0.8617 0.8617 0.8617
2467.000000 0.8617 0.8617 0.8617 0.8617 0.8617
2462.000000 0.8617 0.8617 0.8617 0.8617 0.8618
2457.000000 0.8618 0.8618 0.8618 0.8618 0.8618
2452.000000 0.8618 0.8618 0.8620 0.8620 0.8620
2447.000000 0.8620 0.8621 0.8617 0.8613 0.8609
2442.000000 0.8606 0.8602 0.8598 0.8594 0.8590
2437.000000 0.8586 0.8582 0.8577 0.8573 0.8568
2432.000000 0.8565 0.8561 0.8558 0.8555 0.8553
2427.000000 0.8550 0.8548 0.8546 0.8544 0.8541
2422.000000 0.8539 0.8535 0.8532 0.8527 0.8523
2417.000000 0.8518 0.8514 0.8512 0.8511 0.8509
2412.000000 0.8507 0.8505 0.8503 0.8501 0.8500
2407.000000 0.8498 0.8496 0.8494 0.8493 0.8491
2402.000000 0.8490 0.8489 0.8488 0.8487 0.8486
2397.000000 0.8484 0.8483 0.8483 0.8483 0.8483
2392.000000 0.8484 0.8484 0.8484 0.8484 0.8485
2387.000000 0.8485 0.8485 0.8485 0.8486 0.8486
2382.000000 0.8486 0.8485 0.8484 0.8483 0.8482
2377.000000 0.8480 0.8478 0.8478 0.8477 0.8475
2372.000000 0.8475 0.8474 0.8473 0.8471 0.8471
2367.000000 0.8470 0.8468 0.8468 0.8468 0.8468
2362.000000 0.8470 0.8470 0.8470 0.8470 0.8471
2357.000000 0.8471 0.8471 0.8471 0.8471 0.8471
2352.000000 0.8471 0.8471 0.8473 0.8473 0.8474
2347.000000 0.8474 0.8474 0.8474 0.8475 0.8475
2342.000000 0.8475 0.8475 0.8475 0.8475 0.8475
2337.000000 0.8475 0.8475 0.8475 0.8475 0.8475
2332.000000 0.8475 0.8475 0.8475 0.8475 0.8475
2327.000000 0.8475 0.8475 0.8475 0.8475 0.8475
2322.000000 0.8475 0.8475 0.8475 0.8475 0.8475
2317.000000 0.8475 0.8475 0.8475 0.8475 0.8475
2312.000000 0.8475 0.8475 0.8475 0.8475 0.8475
2307.000000 0.8475 0.8475 0.8475 0.8475 0.8475
2302.000000 0.8475 0.8475 0.8475 0.8474 0.8474
2297.000000 0.8474 0.8474 0.8474 0.8474 0.8473
2292.000000 0.8473 0.8473 0.8473 0.8474 0.8475
2287.000000 0.8475 0.8475 0.8477 0.8478 0.8478
2282.000000 0.8480 0.8480 0.8481 0.8482 0.8483
2277.000000 0.8484 0.8485 0.8485 0.8486 0.8487
2272.000000 0.8488 0.8488 0.8489 0.8489 0.8490
2267.000000 0.8490 0.8491 0.8491 0.8492 0.8493
2262.000000 0.8494 0.8494 0.8495 0.8495 0.8496
2257.000000 0.8496 0.8497 0.8497 0.8498 0.8499
2252.000000 0.8500 0.8501 0.8502 0.8503 0.8504
2247.000000 0.8505 0.8506 0.8507 0.8508 0.8509
2242.000000 0.8510 0.8511 0.8513 0.8514 0.8515
2237.000000 0.8516 0.8517 0.8518 0.8520 0.8521
2232.000000 0.8523 0.8524 0.8525 0.8528 0.8530
2227.000000 0.8531 0.8533 0.8534 0.8536 0.8537
2222.000000 0.8539 0.8540 0.8542 0.8544 0.8546
2217.000000 0.8548 0.8550 0.8552 0.8554 0.8556
2212.000000 0.8558 0.8559 0.8561 0.8563 0.8566
2207.000000 0.8568 0.8570 0.8571 0.8575 0.8577
2202.000000 0.8580 0.8582 0.8584 0.8586 0.8589
2197.000000 0.8590 0.8592 0.8592 0.8593 0.8594
2192.000000 0.8595 0.8598 0.8602 0.8607 0.8612
2187.000000 0.8627 0.8642 0.8656 0.8671 0.8684
2182.000000 0.8698 0.8697 0.8696 0.8695 0.8695
2177.000000 0.8680 0.8665 0.8653 0.8642 0.8632
2172.000000 0.8621 0.8613 0.8604 0.8597 0.8590
2167.000000 0.8587 0.8584 0.8583 0.8583 0.8582
2162.000000 0.8582 0.8581 0.8581 0.8581 0.8581
2157.000000 0.8581 0.8581 0.8581 0.8581 0.8581
2152.000000 0.8581 0.8581 0.8581 0.8581 0.8581
2147.000000 0.8581 0.8581 0.8581 0.8581 0.8581
2142.000000 0.8581 0.8581 0.8581 0.8581 0.8581
2137.000000 0.8581 0.8581 0.8581 0.8581 0.8581
2132.000000 0.8581 0.8581 0.8581 0.8581 0.8581
2127.000000 0.8581 0.8581 0.8581 0.8582 0.8582
2122.000000 0.8583 0.8583 0.8584 0.8584 0.8584
2117.000000 0.8584 0.8585 0.8585 0.8586 0.8586
2112.000000 0.8587 0.8587 0.8588 0.8588 0.8588
2107.000000 0.8588 0.8588 0.8587 0.8587 0.8586
2102.000000 0.8585 0.8584 0.8584 0.8583 0.8583
2097.000000 0.8582 0.8582 0.8581 0.8581 0.8580
2092.000000 0.8580 0.8578 0.8578 0.8578 0.8578
2087.000000 0.8577 0.8577 0.8577 0.8577 0.8575
2082.000000 0.8575 0.8575 0.8575 0.8575 0.8575
2077.000000 0.8574 0.8574 0.8573 0.8573 0.8571
2072.000000 0.8571 0.8571 0.8571 0.8571 0.8571
2067.000000 0.8570 0.8570 0.8568 0.8568 0.8568
2062.000000 0.8568 0.8568 0.8568 0.8566 0.8564
2057.000000 0.8562 0.8560 0.8558 0.8556 0.8554
2052.000000 0.8552 0.8550 0.8548 0.8546 0.8544
2047.000000 0.8541 0.8539 0.8537 0.8535 0.8532
2042.000000 0.8530 0.8528 0.8525 0.8525 0.8525
2037.000000 0.8525 0.8527 0.8527 0.8528 0.8528
2032.000000 0.8528 0.8528 0.8530 0.8531 0.8532
2027.000000 0.8533 0.8534 0.8537 0.8540 0.8547
2022.000000 0.8554 0.8566 0.8578 0.8591 0.8603
2017.000000 0.8615 0.8628 0.8640 0.8652 0.8664
2012.000000 0.8677 0.8689 0.8702 0.8714 0.8725
2007.000000 0.8738 0.8751 0.8763 0.8775 0.8788
2002.000000 0.8800 0.8811 0.8823 0.8825 0.8825
1997.000000 0.8828 0.8828 0.8831 0.8832 0.8832
1992.000000 0.8832 0.8832 0.8832 0.8832 0.8832
1987.000000 0.8832 0.8832 0.8832 0.8833 0.8834
1982.000000 0.8836 0.8837 0.8838 0.8840 0.8841
1977.000000 0.8842 0.8842 0.8841 0.8840 0.8838
1972.000000 0.8832 0.8825 0.8807 0.8786 0.8763
1967.000000 0.8739 0.8717 0.8709 0.8710 0.8710
1962.000000 0.8718 0.8725 0.8733 0.8740 0.8747
1957.000000 0.8754 0.8759 0.8765 0.8771 0.8775
1952.000000 0.8778 0.8782 0.8785 0.8785 0.8781
1947.000000 0.8777 0.8760 0.8740 0.8713 0.8684
1942.000000 0.8655 0.8628 0.8609 0.8598 0.8592
1937.000000 0.8586 0.8582 0.8584 0.8589 0.8598
1932.000000 0.8609 0.8621 0.8632 0.8646 0.8662
1927.000000 0.8678 0.8694 0.8710 0.8725 0.8742
1922.000000 0.8755 0.8768 0.8777 0.8778 0.8778
1917.000000 0.8778 0.8775 0.8774 0.8771 0.8768
1912.000000 0.8765 0.8762 0.8761 0.8760 0.8759
1907.000000 0.8758 0.8757 0.8756 0.8755 0.8753
1902.000000 0.8753 0.8753 0.8754 0.8755 0.8756
1897.000000 0.8757 0.8759 0.8760 0.8761 0.8762
1892.000000 0.8763 0.8765 0.8766 0.8767 0.8768
1887.000000 0.8768 0.8768 0.8770 0.8771 0.8771
1882.000000 0.8773 0.8774 0.8774 0.8775 0.8775
1877.000000 0.8775 0.8775 0.8777 0.8777 0.8774
1872.000000 0.8771 0.8767 0.8763 0.8758 0.8753
1867.000000 0.8747 0.8737 0.8727 0.8725 0.8725
1862.000000 0.8724 0.8723 0.8721 0.8721 0.8721
1857.000000 0.8721 0.8721 0.8721 0.8721 0.8721
1852.000000 0.8725 0.8728 0.8731 0.8732 0.8733
1847.000000 0.8733 0.8733 0.8733 0.8733 0.8725
1842.000000 0.8717 0.8690 0.8664 0.8645 0.8625
1837.000000 0.8607 0.8588 0.8568 0.8550 0.8541
1832.000000 0.8532 0.8521 0.8515 0.8518 0.8521
1827.000000 0.8524 0.8527 0.8531 0.8536 0.8541
1822.000000 0.8546 0.8551 0.8556 0.8561 0.8559
1817.000000 0.8557 0.8554 0.8552 0.8550 0.8547
1812.000000 0.8545 0.8542 0.8538 0.8534 0.8530
1807.000000 0.8525 0.8521 0.8517 0.8512 0.8505
1802.000000 0.8499 0.8492 0.8485 0.8478 0.8471
1797.000000 0.8460 0.8444 0.8428 0.8411 0.8395
1792.000000 0.8375 0.8358 0.8339 0.8320 0.8301
1787.000000 0.8280 0.8259 0.8238 0.8217 0.8196
1782.000000 0.8169 0.8141 0.8112 0.8084 0.8055
1777.000000 0.8021 0.7986 0.7951 0.7917 0.7857
1772.000000 0.7795 0.7733 0.7675 0.7624 0.7571
1767.000000 0.7519 0.7465 0.7392 0.7318 0.7245
1762.000000 0.7147 0.7048 0.6949 0.6812 0.6674
1757.000000 0.6525 0.6370 0.6065 0.5867 0.5752
1752.000000 0.5589 0.5226 0.4790 0.4354 0.3918
1747.000000 0.3482 0.3046 0.2610 0.2173 0.1736
1742.000000 0.1301 0.0865 0.0677 0.0549 0.0430
1737.000000 0.0330 0.0233 0.0174 0.0137 0.0114
1732.000000 0.0104 0.0094 0.0084 0.0078 0.0072
1727.000000 0.0066 0.0063 0.0060 0.0057 0.0055
1722.000000 0.0054 0.0052 0.0052 0.0051 0.0077
1717.000000 0.0127 0.0189 0.0305 0.0461 0.0709
1712.000000 0.1119 0.1371 0.1951 0.2398 0.2845
1707.000000 0.3292 0.3738 0.4185 0.5132 0.5345
1702.000000 0.5479 0.5594 0.5698 0.5772 0.5845
1697.000000 0.5919 0.6004 0.6090 0.6176 0.6254
1692.000000 0.6321 0.6388 0.6454 0.6521 0.6580
1687.000000 0.6639 0.6699 0.6755 0.6810 0.6886
1682.000000 0.6971 0.7048 0.7112 0.7178 0.7242
1677.000000 0.7303 0.7353 0.7404 0.7455 0.7506
1672.000000 0.7558 0.7612 0.7668 0.7722 0.7771
1667.000000 0.7811 0.7851 0.7891 0.7931 0.7967
1662.000000 0.7993 0.8018 0.8045 0.8071 0.8097
1657.000000 0.8121 0.8138 0.8155 0.8171 0.8188
1652.000000 0.8204 0.8221 0.8237 0.8254 0.8266
1647.000000 0.8277 0.8289 0.8300 0.8312 0.8323
1642.000000 0.8330 0.8337 0.8344 0.8351 0.8359
1637.000000 0.8368 0.8377 0.8383 0.8382 0.8380
1632.000000 0.8378 0.8378 0.8377 0.8375 0.8368
1627.000000 0.8371 0.8371 0.8368 0.8368 0.8366
1622.000000 0.8365 0.8364 0.8362 0.8359 0.8357
1617.000000 0.8354 0.8351 0.8346 0.8340 0.8334
1612.000000 0.8320 0.8306 0.8275 0.8237 0.8184
1607.000000 0.8101 0.8024 0.7904 0.7721 0.7115
1602.000000 0.6292 0.6281 0.6375 0.6575 0.6775
1597.000000 0.6975 0.7175 0.7375 0.7576 0.7776
1592.000000 0.7838 0.7874 0.7883 0.7871 0.7845
1587.000000 0.7768 0.7637 0.7540 0.7321 0.6633
1582.000000 0.5945 0.5901 0.6064 0.6312 0.6562
1577.000000 0.6811 0.7061 0.7310 0.7453 0.7591
1572.000000 0.7751 0.7808 0.7865 0.7921 0.7975
1567.000000 0.8030 0.8084 0.8136 0.8186 0.8236
1562.000000 0.8263 0.8288 0.8313 0.8338 0.8358
1557.000000 0.8373 0.8388 0.8403 0.8412 0.8421
1552.000000 0.8431 0.8440 0.8449 0.8456 0.8462
1547.000000 0.8467 0.8471 0.8499 0.8481 0.8484
1542.000000 0.8487 0.8489 0.8490 0.8490 0.8490
1537.000000 0.8489 0.8477 0.8466 0.8454 0.8443
1532.000000 0.8427 0.8409 0.8391 0.8371 0.8358
1527.000000 0.8347 0.8336 0.8325 0.8318 0.8312
1522.000000 0.8306 0.8300 0.8294 0.8287 0.8278
1517.000000 0.8268 0.8259 0.8249 0.8237 0.8221
1512.000000 0.8207 0.8192 0.8175 0.8157 0.8130
1507.000000 0.8101 0.8075 0.8048 0.8008 0.7965
1502.000000 0.7925 0.7878 0.7830 0.7783 0.7708
1497.000000 0.7633 0.7558 0.7399 0.7285 0.7139
1492.000000 0.6795 0.6283 0.6299 0.6368 0.6437
1487.000000 0.6506 0.6575 0.6644 0.6712 0.6746
1482.000000 0.6771 0.6487 0.6097 0.5706 0.5316
1477.000000 0.4925 0.4535 0.4144 0.3753 0.3362
1472.000000 0.2972 0.2582 0.2322 0.2292 0.2256
1467.000000 0.2280 0.2279 0.2277 0.2291 0.2305
1462.000000 0.2355 0.2414 0.2482 0.2575 0.2779
1457.000000 0.3161 0.3542 0.3923 0.4305 0.4441
1452.000000 0.4408 0.4292 0.4175 0.4084 0.4059
1447.000000 0.4517 0.5116 0.5716 0.6315 0.6580
1442.000000 0.6671 0.6815 0.6980 0.7118 0.7185
1437.000000 0.7251 0.7318 0.7384 0.7440 0.7496
1432.000000 0.7541 0.7581 0.7621 0.7654 0.7671
1427.000000 0.7686 0.7701 0.7711 0.7721 0.7730
1422.000000 0.7734 0.7738 0.7751 0.7745 0.7746
1417.000000 0.7746 0.7745 0.7744 0.7738 0.7732
1412.000000 0.7725 0.7708 0.7691 0.7671 0.7647
1407.000000 0.7622 0.7591 0.7551 0.7512 0.7442
1402.000000 0.7355 0.7243 0.7144 0.7054 0.6961
1397.000000 0.6414 0.5870 0.5371 0.5245 0.5155
1392.000000 0.5088 0.5021 0.4843 0.4647 0.4451
1387.000000 0.4255 0.4059 0.3862 0.3674 0.3649
1382.000000 0.3648 0.3648 0.3679 0.4036 0.4700
1377.000000 0.5365 0.5734 0.5850 0.5949 0.6043
1372.000000 0.6124 0.6204 0.6265 0.6325 0.6384
1367.000000 0.6440 0.6490 0.6535 0.6558 0.6564
1362.000000 0.6565 0.6565 0.6565 0.6564 0.6568
1357.000000 0.6574 0.6584 0.6601 0.6624 0.6654
1352.000000 0.6674 0.6695 0.6711 0.6719 0.6724
1347.000000 0.6711 0.6675 0.6599 0.6421 0.6347
1342.000000 0.6273 0.6199 0.6125 0.6051 0.5982
1337.000000 0.5965 0.5948 0.5930 0.5915 0.5907
1332.000000 0.5906 0.5906 0.5919 0.5935 0.5946
1327.000000 0.5954 0.5954 0.5955 0.5944 0.5893
1322.000000 0.5791 0.5635 0.5383 0.5190 0.4996
1317.000000 0.4803 0.4609 0.4415 0.4222 0.4028
1312.000000 0.3834 0.3450 0.3299 0.3146 0.2993
1307.000000 0.2840 0.2688 0.2534 0.2382 0.2230
1302.000000 0.2077 0.1924 0.1772 0.1619 0.1466
1297.000000 0.1313 0.1161 0.1008 0.0855 0.0703
1292.000000 0.0596 0.0519 0.0439 0.0352 0.0264
1287.000000 0.0192 0.0157 0.0137 0.0122 0.0116
1282.000000 0.0110 0.0105 0.0105 0.0105 0.0105
1277.000000 0.0105 0.0105 0.0104 0.0104 0.0102
1272.000000 0.0101 0.0099 0.0097 0.0095 0.0094
1267.000000 0.0094 0.0097 0.0099 0.0102 0.0104
1262.000000 0.0111 0.0129 0.0147 0.0166 0.0188
1257.000000 0.0209 0.0232 0.0283 0.0343 0.0413
1252.000000 0.0499 0.0589 0.0822 0.1137 0.1321
1247.000000 0.1476 0.1640 0.1815 0.2072 0.2294
1242.000000 0.2414 0.2594 0.2839 0.3084 0.3329
1237.000000 0.3575 0.3820 0.4064 0.4310 0.4556
1232.000000 0.4801 0.5046 0.5291 0.5444 0.5575
1227.000000 0.5685 0.5794 0.5901 0.6007 0.6108
1222.000000 0.6201 0.6293 0.6372 0.6449 0.6524
1217.000000 0.6578 0.6632 0.6686 0.6739 0.6787
1212.000000 0.6834 0.6882 0.6930 0.6978 0.7025
1207.000000 0.7072 0.7121 0.7158 0.7192 0.7225
1202.000000 0.7260 0.7295 0.7328 0.7364 0.7398
1197.000000 0.7430 0.7458 0.7488 0.7517 0.7547
1192.000000 0.7578 0.7594 0.7608 0.7621 0.7632
1187.000000 0.7644 0.7653 0.7661 0.7669 0.7674
1182.000000 0.7675 0.7675 0.7675 0.7669 0.7660
1177.000000 0.7648 0.7634 0.7611 0.7586 0.7539
1172.000000 0.7471 0.7380 0.7265 0.7140 0.7012
1167.000000 0.6889 0.6764 0.6547 0.5703 0.5367
1162.000000 0.5267 0.5289 0.5345 0.5402 0.5436
1157.000000 0.5424 0.5398 0.5276 0.5154 0.5031
1152.000000 0.4909 0.4787 0.4664 0.4542 0.4419
1147.000000 0.4297 0.4175 0.4052 0.3930 0.3808
1142.000000 0.3503 0.3127 0.2744 0.2361 0.1978
1137.000000 0.1535 0.1438 0.1363 0.1324 0.1299
1132.000000 0.1277 0.1254 0.1221 0.1174 0.1114
1127.000000 0.1025 0.0951 0.0891 0.0831 0.0781
1122.000000 0.0745 0.0720 0.0700 0.0650 0.0677
1117.000000 0.0680 0.0690 0.0718 0.0795 0.0896
1112.000000 0.1008 0.1207 0.1651 0.2111 0.2571
1107.000000 0.3030 0.3490 0.3950 0.4410 0.4870
1102.000000 0.5330 0.5790 0.6062 0.6160 0.6249
1097.000000 0.6321 0.6384 0.6439 0.6495 0.6537
1092.000000 0.6564 0.6594 0.6582 0.6575 0.6543
1087.000000 0.6280 0.5879 0.5477 0.5076 0.4674
1082.000000 0.4273 0.3871 0.3470 0.3068 0.2667
1077.000000 0.2265 0.1887 0.1592 0.1324 0.1222
1072.000000 0.1117 0.1030 0.0908 0.0943 0.1015
1067.000000 0.1282 0.1550 0.1820 0.1975 0.2105
1062.000000 0.2677 0.3300 0.3923 0.4546 0.5169
1057.000000 0.5791 0.5954 0.6066 0.6179 0.6292
1052.000000 0.6405 0.6517 0.6630 0.6743 0.6772
1047.000000 0.6818 0.6788 0.6790 0.6306 0.5670
1042.000000 0.5033 0.4397 0.4150 0.4148 0.4176
1037.000000 0.4578 0.4980 0.5382 0.5784 0.6196
1032.000000 0.6385 0.6665 0.6846 0.6968 0.7051
1027.000000 0.7131 0.7193 0.7254 0.7308 0.7361
1022.000000 0.7412 0.7451 0.7491 0.7530 0.7561
1017.000000 0.7590 0.7615 0.7633 0.7649 0.7654
1012.000000 0.7681 0.7656 0.7651 0.7641 0.7628
1007.000000 0.7611 0.7589 0.7567 0.7544 0.7514
1002.000000 0.7481 0.7449 0.7417 0.7375 0.7335
997.000000 0.7294 0.7249 0.7200 0.7151 0.7105
992.000000 0.7057 0.7005 0.6961 0.6939 0.6921
987.000000 0.6922 0.6922 0.6922 0.6921 0.6910
982.000000 0.6874 0.6832 0.6778 0.6721 0.6669
977.000000 0.6637 0.6621 0.6610 0.6589 0.6607
972.000000 0.6683 0.6767 0.6851 0.6893 0.6915
967.000000 0.6901 0.6775 0.6519 0.6264 0.6008
962.000000 0.5753 0.5497 0.5365 0.5357 0.5384
957.000000 0.5412 0.5471 0.5526 0.5579 0.5631
952.000000 0.5686 0.5750 0.5814 0.5877 0.5954
947.000000 0.6038 0.6121 0.6194 0.6268 0.6324
942.000000 0.6377 0.6432 0.6490 0.6549 0.6607
937.000000 0.6668 0.6731 0.6793 0.6861 0.6928
932.000000 0.6995 0.7060 0.7118 0.7175 0.7232
927.000000 0.7278 0.7297 0.7301 0.7301 0.7304
922.000000 0.7308 0.7311 0.7324 0.7354 0.7398
917.000000 0.7444 0.7492 0.7554 0.7617 0.7674
912.000000 0.7701 0.7703 0.7696 0.7686 0.7638
907.000000 0.7578 0.7535 0.7512 0.7512 0.7514
902.000000 0.7536 0.7571 0.7608 0.7657 0.7706
897.000000 0.7751 0.7793 0.7834 0.7872 0.7896
892.000000 0.7921 0.7971 0.8040 0.8114 0.8154
887.000000 0.8171 0.8188 0.8191 0.8171 0.8144
882.000000 0.8111 0.8076 0.8044 0.8021 0.8001
877.000000 0.7992 0.7990 0.7988 0.7987 0.7985
872.000000 0.7983 0.7983 0.7984 0.7985 0.7986
867.000000 0.7987 0.7988 0.7988 0.7989 0.7988
862.000000 0.7986 0.7985 0.7983 0.7989 0.7997
857.000000 0.8004 0.8011 0.8018 0.8045 0.8078
852.000000 0.8110 0.8133 0.8155 0.8178 0.8200
847.000000 0.8223 0.8241 0.8258 0.8275 0.8293
842.000000 0.8303 0.8302 0.8275 0.8299 0.8278
837.000000 0.8260 0.8240 0.8207 0.8174 0.8143
832.000000 0.8114 0.8085 0.8069 0.8058 0.8047
827.000000 0.8047 0.8046 0.8046 0.8045 0.8045
822.000000 0.8045 0.8044 0.8040 0.8034 0.8026
817.000000 0.8019 0.8014 0.8007 0.7999 0.7991
812.000000 0.7982 0.7972 0.7965 0.7951 0.7938
807.000000 0.7924 0.7910 0.7895 0.7880 0.7860
802.000000 0.7835 0.7784 0.7733 0.7248 0.7006
797.000000 0.6978 0.6951 0.6922 0.6892 0.6861
792.000000 0.6798 0.6671 0.6528 0.6421 0.6344
787.000000 0.6288 0.6241 0.6202 0.6185 0.6172
782.000000 0.6159 0.6146 0.6133 0.6110 0.6081
777.000000 0.6055 0.6029 0.6005 0.5982 0.5960
772.000000 0.5940 0.5920 0.5903 0.5897 0.5860
767.000000 0.5892 0.5903 0.5931 0.5978 0.6052
762.000000 0.6110 0.6166 0.6199 0.6215 0.6255
757.000000 0.6223 0.6201 0.6170 0.6068 0.5947
752.000000 0.5708 0.5417 0.5125 0.4834 0.4543
747.000000 0.4251 0.3959 0.3668 0.3377 0.3085
742.000000 0.2795 0.2621 0.2576 0.2595 0.2598
737.000000 0.2639 0.4409 0.4622 0.4735 0.5190
732.000000 0.5345 0.5462 0.5562 0.5628 0.5693
727.000000 0.5769 0.5865 0.6023 0.6205 0.6387
722.000000 0.6568 0.6751 0.6934 0.7115 0.7298
717.000000 0.7369 0.7410 0.7445 0.7465 0.7464
712.000000 0.7464 0.7457 0.7258 0.6944 0.6631
707.000000 0.6318 0.6004 0.5691 0.5377 0.5064
702.000000 0.5054 0.5045 0.5272 0.5638 0.6005
697.000000 0.6270 0.6367 0.6435 0.6501 0.6562
692.000000 0.6622 0.6682 0.6741 0.6799 0.6893
687.000000 0.7011 0.7085 0.7244 0.7441 0.7639
682.000000 0.7836 0.8121 0.8217 0.8285 0.8350
677.000000 0.8386 0.8410 0.8431 0.8452 0.8470
672.000000 0.8484 0.8501 0.8530 0.8560 0.8589
667.000000 0.8618 0.8649 0.8678 0.8709 0.8728
662.000000 0.8748 0.8762 0.8759 0.8759 0.8738
657.000000 0.8695 0.8598 0.8435 0.8265 0.8094
652.000000 0.7924 0.7753 0.7591 0.7585 0.7574
647.000000 0.7596 0.7637 0.7721 0.7818 0.7921
642.000000 0.8025 0.8115 0.8206 0.8282 0.8333
637.000000 0.8384 0.8435 0.8471 0.8495 0.8518
632.000000 0.8541 0.8560 0.8563 0.8566 0.8568
627.000000 0.8571 0.8574 0.8575 0.8575 0.8574
622.000000 0.8571 0.8568 0.8567 0.8564 0.8562
617.000000 0.8560 0.8557 0.8553 0.8547 0.8541
612.000000 0.8536 0.8530 0.8525 0.8518 0.8513
607.000000 0.8508 0.8503 0.8499 0.8495 0.8492
602.000000 0.8488 0.8485 0.8481 0.8477 0.8474
597.000000 0.8470 0.8465 0.8459 0.8453 0.8447
592.000000 0.8440 0.8428 0.8410 0.8390 0.8370
587.000000 0.8346 0.8320 0.8294 0.8268 0.8243
582.000000 0.8220 0.8197 0.8174 0.8151 0.8135
577.000000 0.8118 0.8099 0.8099 0.8091 0.8096
572.000000 0.8110 0.8124 0.8141 0.8158 0.8175
567.000000 0.8192 0.8209 0.8225 0.8242 0.8249
562.000000 0.8255 0.8260 0.8266 0.8271 0.8277
557.000000 0.8282 0.8288 0.8293 0.8298 0.8299
552.000000 0.8299 0.8300 0.8300 0.8301 0.8301
547.000000 0.8302 0.8302 0.8299 0.8296 0.8293
542.000000 0.8291 0.8288 0.8285 0.8282 0.8275
537.000000 0.8261 0.8247 0.8233 0.8218 0.8205
532.000000 0.8205 0.8205 0.8206 0.8208 0.8208
527.000000 0.8209 0.8209 0.8208 0.8208 0.8207
522.000000 0.8207 0.8206 0.8206 0.8205 0.8204
517.000000 0.8204 0.8203 0.8203 0.8203 0.8202
512.000000 0.8202 0.8202 0.8201 0.8201 0.8201
507.000000 0.8200 0.8200 0.8200 0.8199 0.8197
502.000000 0.8194 0.8192 0.8189 0.8187 0.8184
497.000000 0.8182 0.8178 0.8176 0.8174 0.8171
492.000000 0.8168 0.8165 0.8164 0.8161 0.8158
487.000000 0.8157 0.8154 0.8151 0.8150 0.8150
482.000000 0.8150 0.8154 0.8158 0.8161 0.8165
477.000000 0.8169 0.8174 0.8176 0.8181 0.8185
472.000000 0.8189 0.8193 0.8197 0.8201 0.8205
467.000000 0.8208 0.8210 0.8213 0.8216 0.8218
462.000000 0.8221 0.8224 0.8227 0.8230 0.8233
457.000000 0.8234 0.8235 0.8235 0.8234 0.8233
452.000000 0.8232 0.8231 0.8231 0.8230 0.8228
447.000000 0.8228 0.8227 0.8227 0.8225 0.8225
442.000000 0.8224 0.8223 0.8223 0.8221 0.8221
437.000000 0.8221 0.8221 0.8221 0.8220 0.8220
432.000000 0.8218 0.8218 0.8218 0.8218 0.8218
427.000000 0.8218 0.8217 0.8217 0.8217 0.8216
422.000000 0.8216 0.8216 0.8216 0.8216 0.8216
417.000000 0.8216 0.8217 0.8217 0.8217 0.8217
412.000000 0.8217 0.8218 0.8218 0.8218 0.8218
407.000000 0.8218 0.8218 0.8218 0.8218 0.8220
402.000000 0.8221 0.8224 0.8225 0.8228 0.8230
397.000000 0.8230 0.8230 0.8230
##END=
