##TITLE=FENCHONE
##JCAMP-DX=4.24
$$ By DXEDIT 1.05 (RS McDonald)
##DATA TYPE=INFRARED SPECTRUM
##CLASS=COBLENTZ III
##ORIGIN=WESTERN REGIONAL RES. USDA
##OWNER=COBLENTZ SOC.
Collection (C) 2018 copyright by the U.S. Secretary of Commerce
on behalf of the United States of America. All rights reserved.
##DATE=1967/05/23
##NAMES=1,3,3-trimethylbicyclo[2.2.1]heptan-2-one
##CAS REGISTRY NO=1195-79-5
##MOLFORM=C10 H16 O
##BP=194 C
##SOURCE REFERENCE=COBLENTZ NO. 06197
##$NIST SOURCE=COBLENTZ
##$NIST IMAGE=cob6197
##SPECTROMETER/DATA SYSTEM=CARY 90 (GRATING)
##INSTRUMENT PARAMETERS=ORDER CHANGES: 3000, 2000, 1200 CM^-^1
##STATE=SOLUTION (10% CCl4 FOR 3660-1330, 10% CS2 FOR 1330-490 CM^-^1) VS SOLVENT
##PATH LENGTH=0.010 CM, 0.010 CM
##SAMPLING PROCEDURE=TRANSMISSION
##RESOLUTION=2
##DATA PROCESSING=DIGITIZED BY COBLENTZ SOCIETY (BATCH I) FROM HARD COPY
##XUNITS=1/CM
##YUNITS=TRANSMITTANCE
##XLABEL=Wavenumbers (cm-1)
##YLABEL=Transmittance
##XFACTOR=1
##YFACTOR=1
##DELTAX=1
##FIRSTX=3740
##LASTX=496
##FIRSTY=0.9575
##MAXX=3740
##MINX=496
##MAXY=0.9575
##MINY=0.024
##NPOINTS=3245
##XYDATA=(X++(Y..Y))
3740.000000 0.9575 0.9575 0.9575 0.9575 0.9574
3735.000000 0.9573 0.9571 0.9571 0.9571 0.9570
3730.000000 0.9568 0.9568 0.9567 0.9566 0.9565
3725.000000 0.9564 0.9563 0.9562 0.9562 0.9561
3720.000000 0.9560 0.9559 0.9558 0.9557 0.9556
3715.000000 0.9555 0.9554 0.9553 0.9553 0.9552
3710.000000 0.9551 0.9550 0.9549 0.9548 0.9547
3705.000000 0.9546 0.9545 0.9544 0.9544 0.9543
3700.000000 0.9542 0.9541 0.9540 0.9539 0.9538
3695.000000 0.9538 0.9538 0.9537 0.9537 0.9537
3690.000000 0.9537 0.9536 0.9536 0.9536 0.9536
3685.000000 0.9535 0.9535 0.9534 0.9534 0.9534
3680.000000 0.9534 0.9533 0.9533 0.9533 0.9533
3675.000000 0.9533 0.9533 0.9532 0.9532 0.9532
3670.000000 0.9532 0.9532 0.9532 0.9532 0.9532
3665.000000 0.9532 0.9532 0.9531 0.9531 0.9531
3660.000000 0.9531 0.9531 0.9531 0.9531 0.9531
3655.000000 0.9530 0.9530 0.9528 0.9527 0.9525
3650.000000 0.9524 0.9523 0.9521 0.9520 0.9518
3645.000000 0.9517 0.9516 0.9515 0.9514 0.9512
3640.000000 0.9511 0.9509 0.9508 0.9507 0.9506
3635.000000 0.9504 0.9503 0.9501 0.9500 0.9499
3630.000000 0.9498 0.9496 0.9495 0.9493 0.9492
3625.000000 0.9491 0.9490 0.9489 0.9489 0.9488
3620.000000 0.9487 0.9486 0.9486 0.9485 0.9484
3615.000000 0.9483 0.9483 0.9482 0.9482 0.9481
3610.000000 0.9480 0.9478 0.9478 0.9478 0.9477
3605.000000 0.9475 0.9475 0.9475 0.9474 0.9473
3600.000000 0.9473 0.9471 0.9471 0.9471 0.9470
3595.000000 0.9468 0.9468 0.9468 0.9468 0.9468
3590.000000 0.9468 0.9470 0.9471 0.9471 0.9471
3585.000000 0.9473 0.9474 0.9475 0.9475 0.9477
3580.000000 0.9478 0.9478 0.9480 0.9480 0.9481
3575.000000 0.9482 0.9483 0.9484 0.9485 0.9486
3570.000000 0.9487 0.9488 0.9489 0.9489 0.9490
3565.000000 0.9491 0.9492 0.9493 0.9494 0.9494
3560.000000 0.9495 0.9495 0.9496 0.9497 0.9498
3555.000000 0.9498 0.9499 0.9499 0.9500 0.9500
3550.000000 0.9501 0.9502 0.9503 0.9503 0.9504
3545.000000 0.9504 0.9505 0.9505 0.9506 0.9506
3540.000000 0.9506 0.9506 0.9505 0.9503 0.9502
3535.000000 0.9500 0.9499 0.9497 0.9496 0.9495
3530.000000 0.9494 0.9492 0.9491 0.9489 0.9488
3525.000000 0.9486 0.9485 0.9483 0.9481 0.9478
3520.000000 0.9475 0.9471 0.9468 0.9464 0.9461
3515.000000 0.9458 0.9455 0.9451 0.9448 0.9444
3510.000000 0.9441 0.9437 0.9434 0.9431 0.9428
3505.000000 0.9424 0.9421 0.9417 0.9414 0.9410
3500.000000 0.9407 0.9404 0.9401 0.9397 0.9394
3495.000000 0.9392 0.9390 0.9389 0.9389 0.9389
3490.000000 0.9389 0.9388 0.9388 0.9388 0.9388
3485.000000 0.9387 0.9387 0.9387 0.9387 0.9386
3480.000000 0.9386 0.9386 0.9386 0.9385 0.9385
3475.000000 0.9385 0.9385 0.9384 0.9384 0.9385
3470.000000 0.9387 0.9390 0.9394 0.9397 0.9401
3465.000000 0.9404 0.9407 0.9410 0.9414 0.9417
3460.000000 0.9421 0.9424 0.9428 0.9431 0.9434
3455.000000 0.9437 0.9441 0.9444 0.9448 0.9451
3450.000000 0.9455 0.9458 0.9461 0.9464 0.9468
3445.000000 0.9471 0.9475 0.9478 0.9482 0.9485
3440.000000 0.9488 0.9489 0.9491 0.9491 0.9492
3435.000000 0.9493 0.9494 0.9494 0.9495 0.9496
3430.000000 0.9497 0.9497 0.9498 0.9499 0.9500
3425.000000 0.9500 0.9501 0.9501 0.9502 0.9503
3420.000000 0.9504 0.9504 0.9505 0.9506 0.9507
3415.000000 0.9507 0.9508 0.9509 0.9510 0.9510
3410.000000 0.9511 0.9512 0.9513 0.9513 0.9514
3405.000000 0.9514 0.9515 0.9515 0.9516 0.9516
3400.000000 0.9516 0.9516 0.9517 0.9517 0.9517
3395.000000 0.9517 0.9517 0.9517 0.9518 0.9518
3390.000000 0.9518 0.9518 0.9518 0.9518 0.9518
3385.000000 0.9518 0.9518 0.9518 0.9520 0.9520
3380.000000 0.9520 0.9520 0.9521 0.9521 0.9521
3375.000000 0.9521 0.9521 0.9521 0.9521 0.9521
3370.000000 0.9521 0.9521 0.9521 0.9521 0.9523
3365.000000 0.9523 0.9523 0.9523 0.9524 0.9524
3360.000000 0.9524 0.9524 0.9524 0.9524 0.9525
3355.000000 0.9525 0.9525 0.9525 0.9525 0.9525
3350.000000 0.9525 0.9525 0.9525 0.9524 0.9524
3345.000000 0.9523 0.9523 0.9521 0.9521 0.9521
3340.000000 0.9521 0.9520 0.9520 0.9518 0.9518
3335.000000 0.9518 0.9518 0.9517 0.9517 0.9516
3330.000000 0.9516 0.9515 0.9515 0.9514 0.9514
3325.000000 0.9513 0.9513 0.9512 0.9512 0.9511
3320.000000 0.9511 0.9510 0.9510 0.9509 0.9509
3315.000000 0.9508 0.9508 0.9507 0.9507 0.9506
3310.000000 0.9506 0.9506 0.9506 0.9505 0.9505
3305.000000 0.9504 0.9504 0.9503 0.9503 0.9502
3300.000000 0.9502 0.9501 0.9501 0.9500 0.9500
3295.000000 0.9499 0.9499 0.9498 0.9498 0.9497
3290.000000 0.9497 0.9496 0.9496 0.9495 0.9495
3285.000000 0.9494 0.9494 0.9494 0.9494 0.9493
3280.000000 0.9493 0.9492 0.9492 0.9491 0.9491
3275.000000 0.9491 0.9491 0.9490 0.9490 0.9489
3270.000000 0.9489 0.9489 0.9489 0.9488 0.9488
3265.000000 0.9487 0.9487 0.9486 0.9486 0.9486
3260.000000 0.9486 0.9485 0.9485 0.9484 0.9484
3255.000000 0.9484 0.9484 0.9483 0.9483 0.9482
3250.000000 0.9482 0.9481 0.9481 0.9480 0.9480
3245.000000 0.9478 0.9478 0.9478 0.9478 0.9477
3240.000000 0.9475 0.9475 0.9475 0.9474 0.9474
3235.000000 0.9473 0.9473 0.9471 0.9471 0.9471
3230.000000 0.9471 0.9470 0.9468 0.9468 0.9468
3225.000000 0.9467 0.9467 0.9466 0.9466 0.9465
3220.000000 0.9465 0.9464 0.9463 0.9462 0.9462
3215.000000 0.9461 0.9461 0.9460 0.9460 0.9459
3210.000000 0.9459 0.9458 0.9457 0.9456 0.9456
3205.000000 0.9455 0.9454 0.9453 0.9452 0.9451
3200.000000 0.9451 0.9450 0.9449 0.9448 0.9447
3195.000000 0.9446 0.9446 0.9445 0.9444 0.9443
3190.000000 0.9442 0.9441 0.9441 0.9440 0.9439
3185.000000 0.9438 0.9438 0.9437 0.9437 0.9436
3180.000000 0.9436 0.9435 0.9435 0.9435 0.9435
3175.000000 0.9434 0.9434 0.9433 0.9433 0.9432
3170.000000 0.9432 0.9432 0.9432 0.9431 0.9431
3165.000000 0.9430 0.9430 0.9428 0.9428 0.9428
3160.000000 0.9428 0.9428 0.9428 0.9427 0.9427
3155.000000 0.9425 0.9425 0.9425 0.9425 0.9425
3150.000000 0.9425 0.9424 0.9424 0.9423 0.9423
3145.000000 0.9421 0.9421 0.9421 0.9421 0.9421
3140.000000 0.9421 0.9420 0.9420 0.9418 0.9418
3135.000000 0.9418 0.9418 0.9418 0.9418 0.9417
3130.000000 0.9417 0.9416 0.9416 0.9415 0.9415
3125.000000 0.9415 0.9415 0.9415 0.9416 0.9416
3120.000000 0.9417 0.9417 0.9418 0.9418 0.9418
3115.000000 0.9418 0.9420 0.9420 0.9421 0.9421
3110.000000 0.9421 0.9421 0.9421 0.9421 0.9423
3105.000000 0.9423 0.9424 0.9424 0.9424 0.9424
3100.000000 0.9425 0.9425 0.9425 0.9425 0.9425
3095.000000 0.9425 0.9425 0.9425 0.9427 0.9427
3090.000000 0.9427 0.9427 0.9427 0.9427 0.9427
3085.000000 0.9425 0.9425 0.9424 0.9424 0.9423
3080.000000 0.9421 0.9421 0.9420 0.9418 0.9418
3075.000000 0.9418 0.9417 0.9416 0.9415 0.9414
3070.000000 0.9414 0.9413 0.9412 0.9409 0.9407
3065.000000 0.9404 0.9401 0.9398 0.9395 0.9391
3060.000000 0.9388 0.9385 0.9382 0.9378 0.9375
3055.000000 0.9371 0.9368 0.9364 0.9359 0.9353
3050.000000 0.9348 0.9342 0.9337 0.9332 0.9327
3045.000000 0.9321 0.9316 0.9308 0.9301 0.9288
3040.000000 0.9275 0.9264 0.9252 0.9239 0.9227
3035.000000 0.9215 0.9203 0.9186 0.9168 0.9150
3030.000000 0.9131 0.9112 0.9094 0.9075 0.9057
3025.000000 0.9039 0.9021 0.9004 0.8986 0.8963
3020.000000 0.8940 0.8917 0.8894 0.8871 0.8848
3015.000000 0.8818 0.8791 0.8754 0.8718 0.8675
3010.000000 0.8635 0.8575 0.8518 0.8388 0.8259
3005.000000 0.8119 0.7981 0.7698 0.7415 0.7131
3000.000000 0.6848 0.6565 0.6282 0.5999 0.5716
2995.000000 0.5433 0.5150 0.4866 0.4583 0.4300
2990.000000 0.4016 0.3734 0.3450 0.3168 0.2884
2985.000000 0.2644 0.2404 0.2377 0.2350 0.2333
2980.000000 0.2316 0.2311 0.2307 0.2308 0.2224
2975.000000 0.2316 0.2322 0.2331 0.2341 0.2471
2970.000000 0.2601 0.2794 0.2987 0.3169 0.3352
2965.000000 0.3384 0.3416 0.3472 0.3528 0.3638
2960.000000 0.3749 0.3859 0.3968 0.4079 0.4189
2955.000000 0.4299 0.4409 0.4519 0.4629 0.4738
2950.000000 0.4825 0.4845 0.4842 0.4746 0.4650
2945.000000 0.4548 0.4446 0.4344 0.4242 0.4140
2940.000000 0.3838 0.3936 0.3834 0.3836 0.3839
2935.000000 0.3994 0.4149 0.4383 0.4618 0.4853
2930.000000 0.5088 0.5322 0.5557 0.5791 0.6026
2925.000000 0.6260 0.6495 0.6565 0.6636 0.6656
2920.000000 0.6675 0.6706 0.6736 0.6741 0.6746
2915.000000 0.6746 0.6767 0.6740 0.6734 0.6726
2910.000000 0.6721 0.6701 0.6684 0.6658 0.6632
2905.000000 0.6601 0.6571 0.6539 0.6507 0.6472
2900.000000 0.6439 0.6391 0.6344 0.6287 0.6230
2895.000000 0.6193 0.6157 0.6132 0.6108 0.6038
2890.000000 0.5968 0.5859 0.5751 0.5642 0.5534
2885.000000 0.5426 0.5318 0.5209 0.5101 0.4992
2880.000000 0.4884 0.4880 0.4862 0.4901 0.4926
2875.000000 0.5148 0.5370 0.5592 0.5815 0.6037
2870.000000 0.6259 0.6481 0.6703 0.6925 0.7147
2865.000000 0.7368 0.7591 0.7812 0.8036 0.8258
2860.000000 0.8480 0.8580 0.8680 0.8743 0.8807
2855.000000 0.8871 0.8936 0.8978 0.9021 0.9041
2850.000000 0.9061 0.9080 0.9100 0.9109 0.9118
2845.000000 0.9125 0.9135 0.9143 0.9152 0.9160
2840.000000 0.9168 0.9178 0.9187 0.9194 0.9202
2835.000000 0.9206 0.9211 0.9215 0.9220 0.9224
2830.000000 0.9228 0.9232 0.9237 0.9239 0.9242
2825.000000 0.9245 0.9248 0.9250 0.9253 0.9256
2820.000000 0.9259 0.9261 0.9264 0.9267 0.9270
2815.000000 0.9271 0.9275 0.9278 0.9281 0.9282
2810.000000 0.9284 0.9285 0.9287 0.9288 0.9290
2805.000000 0.9291 0.9293 0.9294 0.9296 0.9298
2800.000000 0.9300 0.9301 0.9303 0.9304 0.9306
2795.000000 0.9307 0.9307 0.9307 0.9307 0.9306
2790.000000 0.9306 0.9305 0.9305 0.9304 0.9304
2785.000000 0.9303 0.9303 0.9302 0.9302 0.9301
2780.000000 0.9301 0.9300 0.9300 0.9299 0.9299
2775.000000 0.9298 0.9298 0.9297 0.9297 0.9296
2770.000000 0.9296 0.9295 0.9294 0.9293 0.9293
2765.000000 0.9292 0.9292 0.9291 0.9291 0.9290
2760.000000 0.9290 0.9289 0.9289 0.9288 0.9288
2755.000000 0.9287 0.9287 0.9286 0.9286 0.9285
2750.000000 0.9284 0.9283 0.9283 0.9282 0.9282
2745.000000 0.9281 0.9281 0.9280 0.9280 0.9280
2740.000000 0.9280 0.9280 0.9281 0.9281 0.9282
2735.000000 0.9283 0.9284 0.9284 0.9285 0.9286
2730.000000 0.9287 0.9287 0.9288 0.9289 0.9290
2725.000000 0.9290 0.9291 0.9292 0.9293 0.9293
2720.000000 0.9294 0.9294 0.9295 0.9296 0.9297
2715.000000 0.9297 0.9298 0.9299 0.9300 0.9300
2710.000000 0.9301 0.9302 0.9303 0.9303 0.9304
2705.000000 0.9305 0.9306 0.9307 0.9308 0.9309
2700.000000 0.9310 0.9311 0.9313 0.9314 0.9315
2695.000000 0.9316 0.9317 0.9318 0.9320 0.9321
2690.000000 0.9321 0.9323 0.9324 0.9325 0.9327
2685.000000 0.9328 0.9328 0.9330 0.9331 0.9332
2680.000000 0.9334 0.9335 0.9336 0.9337 0.9338
2675.000000 0.9339 0.9341 0.9342 0.9343 0.9344
2670.000000 0.9345 0.9346 0.9348 0.9349 0.9350
2665.000000 0.9351 0.9352 0.9353 0.9355 0.9356
2660.000000 0.9357 0.9358 0.9359 0.9359 0.9360
2655.000000 0.9360 0.9361 0.9361 0.9362 0.9362
2650.000000 0.9363 0.9363 0.9364 0.9364 0.9365
2645.000000 0.9365 0.9366 0.9366 0.9367 0.9367
2640.000000 0.9368 0.9368 0.9368 0.9368 0.9370
2635.000000 0.9370 0.9371 0.9371 0.9371 0.9373
2630.000000 0.9374 0.9374 0.9375 0.9375 0.9375
2625.000000 0.9375 0.9377 0.9377 0.9378 0.9378
2620.000000 0.9378 0.9378 0.9380 0.9380 0.9381
2615.000000 0.9381 0.9382 0.9382 0.9382 0.9382
2610.000000 0.9383 0.9383 0.9384 0.9384 0.9385
2605.000000 0.9385 0.9385 0.9385 0.9386 0.9386
2600.000000 0.9387 0.9387 0.9388 0.9388 0.9389
2595.000000 0.9389 0.9389 0.9389 0.9390 0.9390
2590.000000 0.9391 0.9391 0.9392 0.9392 0.9392
2585.000000 0.9392 0.9393 0.9393 0.9394 0.9394
2580.000000 0.9395 0.9395 0.9396 0.9396 0.9396
2575.000000 0.9396 0.9397 0.9397 0.9398 0.9398
2570.000000 0.9399 0.9399 0.9399 0.9399 0.9399
2565.000000 0.9399 0.9399 0.9399 0.9399 0.9399
2560.000000 0.9399 0.9399 0.9399 0.9399 0.9399
2555.000000 0.9399 0.9399 0.9399 0.9399 0.9398
2550.000000 0.9398 0.9398 0.9398 0.9398 0.9398
2545.000000 0.9398 0.9398 0.9398 0.9398 0.9398
2540.000000 0.9398 0.9398 0.9398 0.9398 0.9398
2535.000000 0.9398 0.9398 0.9398 0.9398 0.9398
2530.000000 0.9398 0.9397 0.9397 0.9396 0.9396
2525.000000 0.9395 0.9395 0.9394 0.9394 0.9393
2520.000000 0.9393 0.9392 0.9391 0.9390 0.9390
2515.000000 0.9389 0.9389 0.9388 0.9388 0.9387
2510.000000 0.9387 0.9386 0.9386 0.9385 0.9385
2505.000000 0.9384 0.9384 0.9383 0.9383 0.9382
2500.000000 0.9382 0.9381 0.9381 0.9380 0.9380
2495.000000 0.9378 0.9378 0.9378 0.9378 0.9378
2490.000000 0.9378 0.9377 0.9377 0.9377 0.9377
2485.000000 0.9375 0.9375 0.9375 0.9375 0.9375
2480.000000 0.9375 0.9374 0.9374 0.9373 0.9373
2475.000000 0.9373 0.9373 0.9371 0.9371 0.9371
2470.000000 0.9371 0.9371 0.9371 0.9370 0.9370
2465.000000 0.9368 0.9368 0.9368 0.9368 0.9367
2460.000000 0.9367 0.9366 0.9366 0.9365 0.9365
2455.000000 0.9364 0.9364 0.9363 0.9363 0.9362
2450.000000 0.9362 0.9361 0.9361 0.9361 0.9361
2445.000000 0.9360 0.9360 0.9359 0.9359 0.9358
2440.000000 0.9358 0.9357 0.9356 0.9355 0.9354
2435.000000 0.9353 0.9352 0.9351 0.9351 0.9350
2430.000000 0.9349 0.9348 0.9347 0.9346 0.9346
2425.000000 0.9345 0.9344 0.9343 0.9342 0.9341
2420.000000 0.9341 0.9340 0.9339 0.9338 0.9337
2415.000000 0.9336 0.9336 0.9335 0.9334 0.9333
2410.000000 0.9333 0.9333 0.9333 0.9332 0.9332
2405.000000 0.9331 0.9331 0.9330 0.9330 0.9328
2400.000000 0.9328 0.9328 0.9328 0.9327 0.9327
2395.000000 0.9327 0.9327 0.9328 0.9328 0.9328
2390.000000 0.9330 0.9330 0.9331 0.9332 0.9333
2385.000000 0.9333 0.9334 0.9334 0.9335 0.9335
2380.000000 0.9336 0.9337 0.9338 0.9338 0.9338
2375.000000 0.9337 0.9337 0.9337 0.9337 0.9337
2370.000000 0.9337 0.9337 0.9337 0.9337 0.9337
2365.000000 0.9336 0.9336 0.9336 0.9336 0.9336
2360.000000 0.9336 0.9336 0.9336 0.9335 0.9335
2355.000000 0.9335 0.9335 0.9334 0.9334 0.9334
2350.000000 0.9334 0.9333 0.9333 0.9333 0.9333
2345.000000 0.9332 0.9332 0.9332 0.9332 0.9332
2340.000000 0.9332 0.9331 0.9331 0.9331 0.9331
2335.000000 0.9330 0.9330 0.9330 0.9330 0.9328
2330.000000 0.9328 0.9328 0.9328 0.9328 0.9328
2325.000000 0.9328 0.9328 0.9328 0.9328 0.9328
2320.000000 0.9328 0.9328 0.9328 0.9328 0.9328
2315.000000 0.9327 0.9327 0.9327 0.9327 0.9327
2310.000000 0.9327 0.9325 0.9325 0.9325 0.9324
2305.000000 0.9323 0.9323 0.9321 0.9321 0.9321
2300.000000 0.9321 0.9320 0.9320 0.9318 0.9318
2295.000000 0.9318 0.9318 0.9317 0.9316 0.9315
2290.000000 0.9315 0.9314 0.9314 0.9313 0.9313
2285.000000 0.9312 0.9312 0.9311 0.9311 0.9310
2280.000000 0.9310 0.9309 0.9309 0.9308 0.9307
2275.000000 0.9306 0.9306 0.9306 0.9306 0.9306
2270.000000 0.9306 0.9306 0.9306 0.9305 0.9305
2265.000000 0.9305 0.9305 0.9305 0.9305 0.9305
2260.000000 0.9305 0.9305 0.9305 0.9304 0.9304
2255.000000 0.9304 0.9304 0.9304 0.9304 0.9304
2250.000000 0.9304 0.9303 0.9303 0.9303 0.9303
2245.000000 0.9303 0.9303 0.9303 0.9303 0.9302
2240.000000 0.9302 0.9301 0.9301 0.9301 0.9301
2235.000000 0.9300 0.9300 0.9300 0.9300 0.9299
2230.000000 0.9299 0.9299 0.9299 0.9298 0.9298
2225.000000 0.9297 0.9297 0.9297 0.9297 0.9297
2220.000000 0.9297 0.9297 0.9297 0.9296 0.9296
2215.000000 0.9296 0.9296 0.9296 0.9296 0.9296
2210.000000 0.9296 0.9296 0.9296 0.9295 0.9295
2205.000000 0.9295 0.9295 0.9295 0.9295 0.9295
2200.000000 0.9295 0.9294 0.9294 0.9294 0.9294
2195.000000 0.9294 0.9294 0.9294 0.9294 0.9294
2190.000000 0.9294 0.9293 0.9293 0.9293 0.9293
2185.000000 0.9293 0.9293 0.9293 0.9293 0.9292
2180.000000 0.9292 0.9292 0.9292 0.9292 0.9292
2175.000000 0.9292 0.9292 0.9292 0.9292 0.9292
2170.000000 0.9293 0.9293 0.9294 0.9294 0.9295
2165.000000 0.9295 0.9296 0.9296 0.9297 0.9297
2160.000000 0.9298 0.9298 0.9299 0.9299 0.9299
2155.000000 0.9299 0.9299 0.9298 0.9298 0.9298
2150.000000 0.9298 0.9297 0.9297 0.9296 0.9296
2145.000000 0.9296 0.9296 0.9295 0.9295 0.9294
2140.000000 0.9294 0.9293 0.9293 0.9293 0.9293
2135.000000 0.9292 0.9292 0.9291 0.9291 0.9291
2130.000000 0.9291 0.9290 0.9290 0.9289 0.9288
2125.000000 0.9286 0.9285 0.9284 0.9283 0.9282
2120.000000 0.9281 0.9278 0.9278 0.9277 0.9275
2115.000000 0.9275 0.9274 0.9271 0.9271 0.9270
2110.000000 0.9268 0.9268 0.9267 0.9266 0.9266
2105.000000 0.9265 0.9265 0.9264 0.9263 0.9262
2100.000000 0.9262 0.9261 0.9261 0.9260 0.9259
2095.000000 0.9258 0.9258 0.9257 0.9257 0.9256
2090.000000 0.9256 0.9255 0.9254 0.9253 0.9253
2085.000000 0.9252 0.9252 0.9251 0.9250 0.9249
2080.000000 0.9249 0.9248 0.9248 0.9247 0.9246
2075.000000 0.9245 0.9244 0.9243 0.9242 0.9241
2070.000000 0.9241 0.9239 0.9237 0.9235 0.9234
2065.000000 0.9232 0.9230 0.9228 0.9227 0.9225
2060.000000 0.9223 0.9221 0.9220 0.9218 0.9216
2055.000000 0.9214 0.9213 0.9211 0.9209 0.9206
2050.000000 0.9203 0.9200 0.9198 0.9195 0.9192
2045.000000 0.9189 0.9186 0.9183 0.9180 0.9177
2040.000000 0.9174 0.9171 0.9168 0.9165 0.9162
2035.000000 0.9160 0.9158 0.9156 0.9154 0.9152
2030.000000 0.9150 0.9149 0.9148 0.9147 0.9146
2025.000000 0.9145 0.9144 0.9143 0.9142 0.9141
2020.000000 0.9141 0.9140 0.9139 0.9138 0.9137
2015.000000 0.9136 0.9135 0.9134 0.9133 0.9132
2010.000000 0.9131 0.9130 0.9128 0.9128 0.9127
2005.000000 0.9125 0.9125 0.9125 0.9124 0.9121
2000.000000 0.9120 0.9118 0.9116 0.9115 0.9113
1995.000000 0.9112 0.9111 0.9109 0.9108 0.9106
1990.000000 0.9105 0.9104 0.9102 0.9101 0.9099
1985.000000 0.9098 0.9097 0.9095 0.9094 0.9092
1980.000000 0.9091 0.9090 0.9089 0.9088 0.9087
1975.000000 0.9086 0.9085 0.9084 0.9083 0.9082
1970.000000 0.9082 0.9081 0.9080 0.9078 0.9078
1965.000000 0.9077 0.9075 0.9075 0.9075 0.9075
1960.000000 0.9075 0.9074 0.9074 0.9074 0.9074
1955.000000 0.9073 0.9073 0.9073 0.9073 0.9073
1950.000000 0.9071 0.9071 0.9071 0.9071 0.9071
1945.000000 0.9071 0.9071 0.9071 0.9070 0.9070
1940.000000 0.9070 0.9068 0.9068 0.9068 0.9068
1935.000000 0.9068 0.9067 0.9067 0.9066 0.9066
1930.000000 0.9066 0.9065 0.9065 0.9064 0.9064
1925.000000 0.9064 0.9063 0.9063 0.9062 0.9060
1920.000000 0.9059 0.9058 0.9057 0.9056 0.9055
1915.000000 0.9054 0.9053 0.9052 0.9051 0.9050
1910.000000 0.9049 0.9047 0.9046 0.9044 0.9043
1905.000000 0.9042 0.9040 0.9039 0.9037 0.9036
1900.000000 0.9034 0.9033 0.9031 0.9031 0.9030
1895.000000 0.9030 0.9030 0.9030 0.9030 0.9028
1890.000000 0.9028 0.9028 0.9028 0.9028 0.9028
1885.000000 0.9028 0.9027 0.9027 0.9025 0.9025
1880.000000 0.9025 0.9025 0.9024 0.9024 0.9023
1875.000000 0.9023 0.9023 0.9021 0.9020 0.9016
1870.000000 0.9012 0.9008 0.9004 0.9000 0.8994
1865.000000 0.8988 0.8982 0.8975 0.8968 0.8962
1860.000000 0.8956 0.8949 0.8945 0.8943 0.8941
1855.000000 0.8939 0.8938 0.8936 0.8934 0.8932
1850.000000 0.8930 0.8928 0.8928 0.8928 0.8931
1845.000000 0.8932 0.8934 0.8936 0.8937 0.8939
1840.000000 0.8941 0.8941 0.8939 0.8938 0.8937
1835.000000 0.8934 0.8933 0.8931 0.8930 0.8928
1830.000000 0.8927 0.8924 0.8920 0.8916 0.8913
1825.000000 0.8909 0.8906 0.8902 0.8898 0.8895
1820.000000 0.8893 0.8892 0.8891 0.8890 0.8889
1815.000000 0.8888 0.8887 0.8886 0.8886 0.8887
1810.000000 0.8887 0.8887 0.8887 0.8886 0.8886
1805.000000 0.8884 0.8882 0.8880 0.8878 0.8875
1800.000000 0.8874 0.8871 0.8871 0.8871 0.8870
1795.000000 0.8868 0.8860 0.8851 0.8843 0.8834
1790.000000 0.8825 0.8818 0.8789 0.8765 0.8742
1785.000000 0.8715 0.8683 0.8651 0.8618 0.8585
1780.000000 0.8552 0.8518 0.8477 0.8428 0.8380
1775.000000 0.8328 0.8275 0.8223 0.8161 0.8097
1770.000000 0.8024 0.7887 0.7743 0.7603 0.7468
1765.000000 0.7161 0.6780 0.6633 0.6498 0.6359
1760.000000 0.6231 0.6142 0.6072 0.6016 0.5950
1755.000000 0.5873 0.5791 0.5709 0.5371 0.5107
1750.000000 0.4527 0.3934 0.3344 0.2752 0.2160
1745.000000 0.1569 0.0976 0.0385 0.0241 0.0240
1740.000000 0.0272 0.0251 0.0482 0.0954 0.1426
1735.000000 0.1898 0.2371 0.2843 0.3314 0.3787
1730.000000 0.4260 0.4732 0.5204 0.6136 0.6467
1725.000000 0.6633 0.6793 0.6924 0.7054 0.7214
1720.000000 0.7378 0.7539 0.7692 0.7793 0.7868
1715.000000 0.7945 0.8025 0.8107 0.8164 0.8218
1710.000000 0.8244 0.8270 0.8288 0.8307 0.8325
1705.000000 0.8336 0.8342 0.8348 0.8355 0.8363
1700.000000 0.8371 0.8384 0.8402 0.8425 0.8466
1695.000000 0.8508 0.8549 0.8591 0.8636 0.8681
1690.000000 0.8724 0.8749 0.8773 0.8798 0.8821
1685.000000 0.8838 0.8855 0.8871 0.8887 0.8897
1680.000000 0.8907 0.8918 0.8924 0.8927 0.8928
1675.000000 0.8932 0.8931 0.8931 0.8928 0.8925
1670.000000 0.8918 0.8910 0.8902 0.8894 0.8886
1665.000000 0.8875 0.8865 0.8854 0.8844 0.8841
1660.000000 0.8840 0.8840 0.8839 0.8838 0.8842
1655.000000 0.8847 0.8851 0.8856 0.8860 0.8864
1650.000000 0.8870 0.8875 0.8883 0.8889 0.8895
1645.000000 0.8901 0.8908 0.8914 0.8920 0.8924
1640.000000 0.8927 0.8931 0.8934 0.8938 0.8938
1635.000000 0.8936 0.8934 0.8932 0.8930 0.8928
1630.000000 0.8927 0.8925 0.8923 0.8920 0.8918
1625.000000 0.8915 0.8913 0.8910 0.8907 0.8903
1620.000000 0.8899 0.8895 0.8891 0.8887 0.8884
1615.000000 0.8880 0.8875 0.8871 0.8868 0.8864
1610.000000 0.8860 0.8856 0.8852 0.8848 0.8844
1605.000000 0.8840 0.8836 0.8835 0.8835 0.8834
1600.000000 0.8834 0.8833 0.8832 0.8832 0.8831
1595.000000 0.8831 0.8831 0.8831 0.8831 0.8832
1590.000000 0.8832 0.8832 0.8833 0.8834 0.8835
1585.000000 0.8837 0.8838 0.8839 0.8840 0.8842
1580.000000 0.8843 0.8844 0.8845 0.8846 0.8847
1575.000000 0.8848 0.8849 0.8850 0.8850 0.8851
1570.000000 0.8852 0.8853 0.8854 0.8854 0.8855
1565.000000 0.8855 0.8855 0.8856 0.8856 0.8852
1560.000000 0.8847 0.8841 0.8836 0.8825 0.8816
1555.000000 0.8807 0.8792 0.8777 0.8768 0.8747
1550.000000 0.8725 0.8703 0.8680 0.8667 0.8655
1545.000000 0.8650 0.8657 0.8664 0.8671 0.8681
1540.000000 0.8691 0.8700 0.8709 0.8718 0.8723
1535.000000 0.8728 0.8733 0.8737 0.8742 0.8746
1530.000000 0.8751 0.8755 0.8759 0.8763 0.8768
1525.000000 0.8768 0.8767 0.8766 0.8765 0.8764
1520.000000 0.8761 0.8759 0.8756 0.8756 0.8756
1515.000000 0.8758 0.8760 0.8761 0.8763 0.8765
1510.000000 0.8767 0.8768 0.8770 0.8770 0.8768
1505.000000 0.8766 0.8764 0.8758 0.8748 0.8738
1500.000000 0.8728 0.8717 0.8699 0.8681 0.8657
1495.000000 0.8625 0.8596 0.8566 0.8533 0.8498
1490.000000 0.8462 0.8425 0.8391 0.8353 0.8300
1485.000000 0.8209 0.8136 0.7164 0.7218 0.7336
1480.000000 0.7454 0.7571 0.7689 0.7807 0.7912
1475.000000 0.7926 0.7925 0.7760 0.7568 0.7375
1470.000000 0.7183 0.6991 0.6799 0.6606 0.6414
1465.000000 0.6222 0.6029 0.5837 0.5645 0.5518
1460.000000 0.5507 0.5538 0.5575 0.5649 0.5686
1455.000000 0.5704 0.5717 0.5730 0.5746 0.5868
1450.000000 0.5995 0.6123 0.6250 0.6378 0.6505
1445.000000 0.6633 0.6760 0.6888 0.7015 0.7143
1440.000000 0.7271 0.7398 0.7525 0.7653 0.7808
1435.000000 0.7884 0.7958 0.8033 0.8104 0.8169
1430.000000 0.8235 0.8298 0.8362 0.8421 0.8480
1425.000000 0.8537 0.8571 0.8604 0.8632 0.8656
1420.000000 0.8678 0.8703 0.8720 0.8735 0.8749
1415.000000 0.8764 0.8778 0.8789 0.8800 0.8811
1410.000000 0.8821 0.8833 0.8843 0.8849 0.8854
1405.000000 0.8860 0.8866 0.8867 0.8868 0.8868
1400.000000 0.8868 0.8868 0.8868 0.8867 0.8865
1395.000000 0.8862 0.8859 0.8857 0.8854 0.8851
1390.000000 0.8839 0.8824 0.8809 0.8793 0.8773
1385.000000 0.8754 0.8707 0.8649 0.7968 0.7018
1380.000000 0.6070 0.5522 0.5612 0.5942 0.6273
1375.000000 0.6604 0.6934 0.7265 0.7595 0.7925
1370.000000 0.8257 0.8582 0.8620 0.8625 0.8631
1365.000000 0.8603 0.8639 0.8489 0.8231 0.7974
1360.000000 0.7717 0.7460 0.7201 0.7151 0.7291
1355.000000 0.7621 0.7951 0.8282 0.8430 0.8524
1350.000000 0.8594 0.8645 0.8673 0.8700 0.8716
1345.000000 0.8727 0.8737 0.8742 0.8747 0.8751
1340.000000 0.8757 0.8749 0.8738 0.8721 0.8698
1335.000000 0.8621 0.8545 0.8468 0.8392 0.8316
1330.000000 0.8199 0.8198 0.8247 0.8358 0.8468
1325.000000 0.8578 0.8688 0.8718 0.8730 0.8735
1320.000000 0.8741 0.8752 0.8745 0.8743 0.8699
1315.000000 0.8639 0.8580 0.8521 0.8462 0.8403
1310.000000 0.8343 0.8284 0.8243 0.8245 0.8273
1305.000000 0.8397 0.8521 0.8623 0.8667 0.8702
1300.000000 0.8718 0.8730 0.8735 0.8737 0.8728
1295.000000 0.8721 0.8716 0.8691 0.8667 0.8620
1290.000000 0.8549 0.8478 0.8297 0.8188 0.8108
1285.000000 0.5647 0.5643 0.5793 0.6284 0.6774
1280.000000 0.7265 0.7756 0.8212 0.8298 0.8344
1275.000000 0.8389 0.8437 0.8465 0.8491 0.8509
1270.000000 0.8525 0.8525 0.8524 0.8499 0.8447
1265.000000 0.8304 0.8062 0.7821 0.7580 0.7361
1260.000000 0.7354 0.7358 0.7691 0.8049 0.8228
1255.000000 0.8288 0.8334 0.8358 0.8371 0.8380
1250.000000 0.8386 0.8386 0.8387 0.8367 0.8346
1245.000000 0.8313 0.8266 0.8174 0.8086 0.8035
1240.000000 0.8006 0.7989 0.7971 0.7954 0.7934
1235.000000 0.7896 0.7828 0.7708 0.7492 0.7491
1230.000000 0.7490 0.7508 0.7798 0.8088 0.8291
1225.000000 0.8317 0.8302 0.8296 0.8268 0.8205
1220.000000 0.8090 0.8030 0.8011 0.8025 0.8072
1215.000000 0.8140 0.8198 0.8223 0.8235 0.8240
1210.000000 0.8240 0.8241 0.8224 0.8178 0.7535
1205.000000 0.7535 0.7558 0.7705 0.7851 0.7996
1200.000000 0.8142 0.8283 0.8432 0.8492 0.8491
1195.000000 0.8471 0.8435 0.8381 0.8338 0.8330
1190.000000 0.8342 0.8354 0.8391 0.8450 0.8492
1185.000000 0.8531 0.8554 0.8575 0.8594 0.8607
1180.000000 0.8620 0.8628 0.8628 0.8651 0.8625
1175.000000 0.8618 0.8612 0.8605 0.8599 0.8590
1170.000000 0.8566 0.8541 0.8425 0.8310 0.8194
1165.000000 0.8078 0.7992 0.7989 0.7990 0.7990
1160.000000 0.8064 0.8139 0.8213 0.8287 0.8321
1155.000000 0.8345 0.8312 0.8294 0.8246 0.8154
1150.000000 0.8040 0.7983 0.7862 0.7987 0.8054
1145.000000 0.8167 0.8233 0.8298 0.8356 0.8410
1140.000000 0.8456 0.8488 0.8518 0.8550 0.8571
1135.000000 0.8590 0.8608 0.8613 0.8618 0.8623
1130.000000 0.8621 0.8621 0.8678 0.8611 0.8606
1125.000000 0.8584 0.8561 0.8533 0.8505 0.8474
1120.000000 0.8441 0.8408 0.8368 0.8328 0.8241
1115.000000 0.8180 0.8110 0.8021 0.7933 0.7845
1110.000000 0.7757 0.7726 0.7728 0.7760 0.7824
1105.000000 0.7872 0.7888 0.7901 0.7821 0.7356
1100.000000 0.6890 0.6424 0.5959 0.5529 0.5536
1095.000000 0.5518 0.5903 0.6288 0.6672 0.7057
1090.000000 0.7442 0.7826 0.8035 0.8184 0.8284
1085.000000 0.8344 0.8385 0.8407 0.8423 0.8434
1080.000000 0.8445 0.8454 0.8460 0.8465 0.8521
1075.000000 0.8471 0.8471 0.8468 0.8465 0.8458
1070.000000 0.8451 0.8436 0.8416 0.8388 0.8261
1065.000000 0.8100 0.7939 0.7778 0.7606 0.7628
1060.000000 0.7640 0.7743 0.7911 0.8081 0.8250
1055.000000 0.8373 0.8394 0.8405 0.8406 0.8407
1050.000000 0.8407 0.8406 0.8384 0.8390 0.8380
1045.000000 0.8365 0.8350 0.8335 0.8312 0.8288
1040.000000 0.8263 0.8232 0.8198 0.8153 0.8108
1035.000000 0.8055 0.7998 0.7911 0.7788 0.7690
1030.000000 0.7607 0.7521 0.7408 0.7297 0.7184
1025.000000 0.7014 0.5755 0.5026 0.4298 0.3570
1020.000000 0.2841 0.2113 0.1828 0.1850 0.2179
1015.000000 0.2509 0.2839 0.3169 0.3298 0.3360
1010.000000 0.3398 0.3429 0.3475 0.3970 0.4488
1005.000000 0.5006 0.5524 0.6042 0.6443 0.6793
1000.000000 0.7144 0.7403 0.7403 0.7444 0.7456
995.000000 0.7128 0.6687 0.6246 0.5806 0.5799
990.000000 0.6179 0.6485 0.6706 0.6699 0.6374
985.000000 0.6016 0.5705 0.5722 0.5908 0.6286
980.000000 0.6664 0.7042 0.7419 0.8112 0.8215
975.000000 0.8288 0.8354 0.8380 0.8404 0.8421
970.000000 0.8441 0.8453 0.8464 0.8471 0.8478
965.000000 0.8485 0.8487 0.8494 0.8480 0.8466
960.000000 0.8436 0.8392 0.8342 0.8268 0.8158
955.000000 0.8065 0.7804 0.7407 0.7011 0.6614
950.000000 0.6218 0.5882 0.5889 0.6228 0.6651
945.000000 0.7076 0.7501 0.7668 0.7682 0.7683
940.000000 0.7697 0.6834 0.6226 0.5617 0.5483
935.000000 0.5664 0.5991 0.6317 0.6644 0.6971
930.000000 0.7128 0.7133 0.6515 0.5569 0.4623
925.000000 0.4580 0.4593 0.5123 0.5618 0.6112
920.000000 0.6608 0.7103 0.7842 0.7991 0.8130
915.000000 0.8233 0.8311 0.8377 0.8431 0.8468
910.000000 0.8507 0.8534 0.8561 0.8585 0.8608
905.000000 0.8623 0.8636 0.8645 0.8651 0.8658
900.000000 0.8662 0.8662 0.8661 0.8661 0.8661
895.000000 0.8657 0.8653 0.8647 0.8636 0.8618
890.000000 0.8594 0.8566 0.8528 0.8471 0.8403
885.000000 0.8316 0.8224 0.8101 0.8065 0.8098
880.000000 0.8121 0.8191 0.8253 0.8321 0.8401
875.000000 0.8459 0.8498 0.8512 0.8518 0.8518
870.000000 0.8520 0.8518 0.8515 0.8513 0.8511
865.000000 0.8509 0.8505 0.8501 0.8498 0.8494
860.000000 0.8490 0.8490 0.8490 0.8491 0.8495
855.000000 0.8499 0.8503 0.8507 0.8511 0.8518
850.000000 0.8524 0.8531 0.8538 0.8544 0.8563
845.000000 0.8557 0.8560 0.8561 0.8562 0.8555
840.000000 0.8548 0.8537 0.8518 0.8500 0.8449
835.000000 0.8360 0.8267 0.8171 0.7967 0.7562
830.000000 0.7158 0.6754 0.6350 0.6024 0.6044
825.000000 0.6153 0.6572 0.6993 0.7414 0.7443
820.000000 0.7407 0.7291 0.7175 0.7058 0.7018
815.000000 0.7162 0.7401 0.7641 0.7808 0.7901
810.000000 0.7992 0.8068 0.8145 0.8206 0.8267
805.000000 0.8318 0.8363 0.8406 0.8433 0.8458
800.000000 0.8482 0.8500 0.8517 0.8534 0.8547
795.000000 0.8556 0.8566 0.8575 0.8584 0.8585
790.000000 0.8587 0.8588 0.8589 0.8590 0.8587
785.000000 0.8584 0.8582 0.8578 0.8577 0.8574
780.000000 0.8571 0.8568 0.8556 0.8542 0.8525
775.000000 0.8502 0.8462 0.8436 0.8412 0.8412
770.000000 0.8413 0.8413 0.8453 0.8509 0.8562
765.000000 0.8597 0.8601 0.8604 0.8607 0.8609
760.000000 0.8612 0.8653 0.8616 0.8616 0.8616
755.000000 0.8616 0.8616 0.8615 0.8615 0.8615
750.000000 0.8615 0.8614 0.8614 0.8613 0.8610
745.000000 0.8608 0.8605 0.8603 0.8601 0.8598
740.000000 0.8595 0.8589 0.8582 0.8575 0.8568
735.000000 0.8563 0.8556 0.8550 0.8543 0.8533
730.000000 0.8524 0.8515 0.8505 0.8496 0.8486
725.000000 0.8475 0.8461 0.8446 0.8432 0.8416
720.000000 0.8393 0.8370 0.8334 0.8294 0.8252
715.000000 0.8209 0.8165 0.8128 0.8097 0.8106
710.000000 0.8069 0.8071 0.8091 0.8125 0.8164
705.000000 0.8203 0.8228 0.8252 0.8274 0.8278
700.000000 0.8285 0.8290 0.8296 0.8299 0.8299
695.000000 0.8300 0.8300 0.8300 0.8300 0.8298
690.000000 0.8296 0.8295 0.8293 0.8290 0.8287
685.000000 0.8283 0.8278 0.8274 0.8268 0.8265
680.000000 0.8301 0.8255 0.8250 0.8244 0.8238
675.000000 0.8230 0.8221 0.8215 0.8207 0.8199
670.000000 0.8191 0.8183 0.8175 0.8162 0.8151
665.000000 0.8141 0.8131 0.8112 0.8024 0.7935
660.000000 0.7846 0.7757 0.7668 0.7578 0.7490
655.000000 0.7401 0.7389 0.7435 0.7450 0.7530
650.000000 0.7610 0.7690 0.7769 0.7850 0.7908
645.000000 0.7921 0.7934 0.7947 0.7960 0.7972
640.000000 0.7981 0.7988 0.7996 0.8003 0.8010
635.000000 0.8017 0.8025 0.8031 0.8035 0.8039
630.000000 0.8043 0.8047 0.8051 0.8055 0.8058
625.000000 0.8062 0.8067 0.8069 0.8071 0.8071
620.000000 0.8071 0.8071 0.8072 0.8072 0.8074
615.000000 0.8075 0.8075 0.8075 0.8075 0.8076
610.000000 0.8078 0.8078 0.8078 0.8078 0.8078
605.000000 0.8075 0.8072 0.8071 0.8068 0.8067
600.000000 0.8064 0.8056 0.8049 0.8042 0.8035
595.000000 0.8031 0.8031 0.8032 0.8032 0.8033
590.000000 0.8038 0.8044 0.8049 0.8055 0.8061
585.000000 0.8065 0.8071 0.8078 0.8084 0.8091
580.000000 0.8097 0.8103 0.8110 0.8115 0.8121
575.000000 0.8128 0.8132 0.8136 0.8139 0.8143
570.000000 0.8146 0.8150 0.8153 0.8157 0.8161
565.000000 0.8161 0.8161 0.8161 0.8161 0.8160
560.000000 0.8158 0.8158 0.8154 0.8150 0.8145
555.000000 0.8141 0.8137 0.8132 0.8128 0.8122
550.000000 0.8118 0.8112 0.8107 0.8101 0.8097
545.000000 0.8091 0.8083 0.8075 0.8067 0.8058
540.000000 0.8050 0.8041 0.8031 0.8019 0.8010
535.000000 0.8000 0.7989 0.7972 0.7956 0.7938
530.000000 0.7906 0.7872 0.7825 0.7762 0.7674
525.000000 0.7553 0.7433 0.7311 0.7192 0.7071
520.000000 0.6951 0.6849 0.6853 0.6845 0.7064
515.000000 0.7199 0.7334 0.7468 0.7489 0.7525
510.000000 0.7275 0.6921 0.6565 0.6548 0.6525
505.000000 0.6651 0.6771 0.6890 0.7008 0.7128
500.000000 0.7247 0.7365 0.7486 0.7565 0.7418
##END=
