##TITLE=CYCLOPENTANE, 1,2-DIMETHYL-CIS
##JCAMP-DX=4.24
##DATA TYPE=INFRARED SPECTRUM
##CLASS=COBLENTZ III
##ORIGIN=DOW CHEMICAL COMPANY
##OWNER=COBLENTZ SOCIETY
Collection (C) 2018 copyright by the U.S. Secretary of Commerce
on behalf of the United States of America. All rights reserved.
##DATE=1963/11/21
##NAMES=1,2-dimethylcyclopentane
##CAS REGISTRY NO=1192-18-3
##MOLFORM=C7 H14
##SOURCE REFERENCE=COBLENTZ NO. 10327
##$NIST SOURCE=COBLENTZ
##$NIST IMAGE=cob10327
##SPECTROMETER/DATA SYSTEM=BECKMAN IR-9 (GRATING)
##INSTRUMENT PARAMETERS=ORDER CHANGES AT 670, 1200, 2000 CM^-^1
##STATE=SOLUTION (10% IN CCl4 FOR 3800-1330, 10% IN CS2 FOR 1330-400 CM^-^1)
##PATH LENGTH=0.011, 0.011 CM
$$SPECTRAL CONTAMINATION DUE TO CS2 AROUND 865 CM^-^1
$$SPECTRAL CONTAMINATION DUE TO CCLS AROUND 1550 CM^-^1 HAS BEEN REMOVED
##SAMPLING PROCEDURE=TRANSMISSION
##RESOLUTION=4
##DATA PROCESSING=DIGITIZED BY NIST FROM HARD COPY (FROM TWO SEGMENTS)
##XUNITS=1/CM
##YUNITS=TRANSMITTANCE
##XFACTOR=1.000000
##YFACTOR=1
##DELTAX=0.875147
##FIRSTX=404.609
##LASTX=3798.43
##FIRSTY=0.312
##MAXX=3798.43
##MINX=404.609
##MAXY=1.045
##MINY=0.001
##NPOINTS=3879
##XYDATA=(X++(Y..Y))
404.609000 0.3120 0.3120 0.3130 0.3130 0.3150
408.984735 0.3150 0.3150 0.3160 0.3170 0.3170
413.360469 0.3230 0.3270 0.3300 0.3360 0.3460
417.736204 0.3540 0.3640 0.4317 0.4907 0.4940
422.111939 0.4980 0.5020 0.5090 0.5160 0.5260
426.487674 0.5360 0.5430 0.5540 0.5679 0.6038
430.863408 0.6680 0.6690 0.6760 0.6820 0.6890
435.239143 0.6940 0.7010 0.7060 0.7130 0.7190
439.614878 0.7260 0.7310 0.7420 0.7430 0.7520
443.990612 0.7580 0.7670 0.7760 0.7790 0.7860
448.366347 0.7870 0.7980 0.8080 0.8160 0.8190
452.742082 0.8240 0.8320 0.8380 0.8420 0.8460
457.117817 0.8530 0.8560 0.8610 0.8640 0.8690
461.493551 0.8730 0.8750 0.8790 0.8830 0.8929
465.869286 0.8950 0.8980 0.9040 0.9060 0.9090
470.245021 0.9150 0.9200 0.9200 0.9240 0.9280
474.620756 0.9300 0.9340 0.9360 0.9390 0.9410
478.996490 0.9420 0.9430 0.9460 0.9470 0.9490
483.372225 0.9520 0.9560 0.9570 0.9600 0.9600
487.747960 0.9610 0.9630 0.9630 0.9630 0.9640
492.123694 0.9650 0.9650 0.9650 0.9650 0.9650
496.499429 0.9670 0.9680 0.9710 0.9730 0.9790
500.875164 0.9820 0.9860 0.9870 0.9890 0.9930
505.250899 0.9940 0.9970 1.0000 1.0010 1.0020
509.626633 1.0050 1.0060 1.0080 1.0090 1.0100
514.002368 1.0120 1.0130 1.0130 1.0150 1.0150
518.378103 1.0160 1.0160 1.0160 1.0170 1.0170
522.753837 1.0190 1.0190 1.0200 1.0200 1.0210
527.129572 1.0210 1.0210 1.0210 1.0210 1.0230
531.505307 1.0230 1.0230 1.0230 1.0230 1.0230
535.881042 1.0230 1.0230 1.0230 1.0230 1.0230
540.256776 1.0230 1.0230 1.0230 1.0230 1.0230
544.632511 1.0230 1.0230 1.0230 1.0230 1.0210
549.008246 1.0210 1.0200 1.0200 1.0200 1.0190
553.383980 1.0190 1.0190 1.0170 1.0170 1.0170
557.759715 1.0170 1.0170 1.0170 1.0160 1.0160
562.135450 1.0160 1.0160 1.0160 1.0160 1.0160
566.511185 1.0150 1.0150 1.0150 1.0150 1.0150
570.886919 1.0150 1.0150 1.0130 1.0130 1.0130
575.262654 1.0130 1.0130 1.0130 1.0130 1.0130
579.638389 1.0130 1.0130 1.0130 1.0130 1.0130
584.014123 1.0130 1.0130 1.0130 1.0130 1.0130
588.389858 1.0130 1.0130 1.0150 1.0150 1.0150
592.765593 1.0160 1.0160 1.0170 1.0170 1.0170
597.141328 1.0170 1.0170 1.0190 1.0200 1.0200
601.517062 1.0200 1.0200 1.0200 1.0210 1.0230
605.892797 1.0230 1.0230 1.0230 1.0230 1.0230
610.268532 1.0230 1.0230 1.0230 1.0230 1.0230
614.644267 1.0230 1.0230 1.0230 1.0230 1.0230
619.020001 1.0210 1.0210 1.0210 1.0210 1.0200
623.395736 1.0200 1.0200 1.0190 1.0170 1.0160
627.771471 1.0160 1.0150 1.0130 1.0120 1.0100
632.147205 1.0090 1.0080 1.0060 1.0050 1.0040
636.522940 1.0020 1.0010 1.0000 0.9970 0.9950
640.898675 0.9940 0.9910 0.9890 0.9870 0.9860
645.274410 0.9840 0.9820 0.9790 0.9780 0.9760
649.650144 0.9750 0.9730 0.9720 0.9720 0.9720
654.025879 0.9720 0.9730 0.9730 0.9750 0.9760
658.401614 0.9790 0.9800 0.9860 0.9900 0.9900
662.777348 0.9930 0.9970 1.0000 1.0010 1.0010
667.153083 1.0040 1.0060 1.0090 1.0090 1.0100
671.528818 1.0130 1.0150 1.0160 1.0170 1.0190
675.904553 1.0200 1.0230 1.0240 1.0260 1.0270
680.280287 1.0300 1.0300 1.0310 1.0310 1.0320
684.656022 1.0340 1.0350 1.0350 1.0360 1.0380
689.031757 1.0390 1.0410 1.0410 1.0410 1.0420
693.407491 1.0420 1.0430 1.0430 1.0430 1.0430
697.783226 1.0450 1.0450 1.0450 1.0450 1.0450
702.158961 1.0430 1.0430 1.0420 1.0420 1.0410
706.534696 1.0410 1.0410 1.0410 1.0390 1.0390
710.910430 1.0390 1.0390 1.0410 1.0410 1.0420
715.286165 1.0420 1.0420 1.0410 1.0410 1.0410
719.661900 1.0410 1.0410 1.0410 1.0420 1.0420
724.037634 1.0420 1.0420 1.0420 1.0420 1.0420
728.413369 1.0420 1.0430 1.0430 1.0420 1.0420
732.789104 1.0420 1.0420 1.0430 1.0430 1.0420
737.164839 1.0420 1.0420 1.0420 1.0420 1.0420
741.540573 1.0410 1.0410 1.0410 1.0410 1.0420
745.916308 1.0430 1.0430 1.0420 1.0420 1.0390
750.292043 1.0380 1.0360 1.0350 1.0340 1.0340
754.667778 1.0340 1.0340 1.0320 1.0310 1.0270
759.043512 1.0240 1.0210 1.0200 1.0170 1.0150
763.419247 1.0130 1.0130 1.0120 1.0100 1.0100
767.794982 1.0100 1.0100 1.0100 1.0120 1.0120
772.170716 1.0130 1.0130 1.0130 1.0150 1.0160
776.546451 1.0160 1.0170 1.0170 1.0170 1.0170
780.922186 1.0160 1.0150 1.0130 1.0120 1.0100
785.297921 1.0090 1.0080 1.0060 1.0050 1.0040
789.673655 1.0040 1.0040 1.0050 1.0050 1.0060
794.049390 1.0080 1.0090 1.0120 1.0130 1.0130
798.425125 1.0150 1.0190 1.0190 1.0200 1.0210
802.800859 1.0210 1.0230 1.0230 1.0230 1.0230
807.176594 1.0230 1.0230 1.0230 1.0230 1.0230
811.552329 1.0230 1.0230 1.0230 1.0230 1.0230
815.928064 1.0240 1.0240 1.0260 1.0260 1.0260
820.303798 1.0260 1.0240 1.0240 1.0240 1.0240
824.679533 1.0240 1.0230 1.0210 1.0210 1.0200
829.055268 1.0200 1.0190 1.0170 1.0170 1.0160
833.431002 1.0130 1.0120 1.0090 1.0060 1.0040
837.806737 1.0010 0.9980 0.9950 0.9930 0.9910
842.182472 0.9890 0.9870 0.9840 0.9800 0.9780
846.558207 0.9750 0.9720 0.9710 0.9690 0.9680
850.933941 0.9650 0.9630 0.9600 0.9560 0.9500
855.309676 0.9460 0.9420 0.9380 0.9320 0.9300
859.685411 0.9260 0.9210 0.9190 0.9160 0.9150
864.061145 0.9150 0.9150 0.9160 0.9170 0.9170
868.436880 0.9200 0.9230 0.9240 0.9260 0.9270
872.812615 0.9310 0.9320 0.9340 0.9380 0.9410
877.188350 0.9430 0.9460 0.9490 0.9520 0.9540
881.564084 0.9580 0.9610 0.9650 0.9690 0.9730
885.939819 0.9760 0.9780 0.9790 0.9820 0.9840
890.315554 0.9860 0.9890 0.9910 0.9930 0.9950
894.691289 0.9970 0.9980 0.9980 1.0010 1.0020
899.067023 1.0040 1.0050 1.0050 1.0080 1.0090
903.442758 1.0120 1.0120 1.0130 1.0130 1.0150
907.818493 1.0160 1.0170 1.0170 1.0170 1.0170
912.194227 1.0190 1.0190 1.0200 1.0200 1.0200
916.569962 1.0210 1.0210 1.0230 1.0230 1.0240
920.945697 1.0240 1.0240 1.0240 1.0260 1.0260
925.321432 1.0260 1.0260 1.0260 1.0260 1.0260
929.697166 1.0240 1.0240 1.0240 1.0200 1.0170
934.072901 1.0160 1.0130 1.0080 1.0040 1.0020
938.448636 0.9950 0.9870 0.9760 0.9610 0.9560
942.824370 0.9390 0.9280 0.9121 0.9020 0.8950
947.200105 0.8940 0.8930 0.8930 0.8910 0.8900
951.575840 0.8890 0.8860 0.8840 0.8840 0.8860
955.951575 0.8930 0.9020 0.9120 0.9270 0.9380
960.327309 0.9490 0.9580 0.9630 0.9650 0.9680
964.703044 0.9780 0.9790 0.9820 0.9830 0.9890
969.078779 0.9900 0.9930 0.9950 0.9950 0.9970
973.454513 0.9970 0.9970 0.9950 0.9950 0.9940
977.830248 0.9940 0.9940 0.9930 0.9910 0.9910
982.205983 0.9910 0.9910 0.9910 0.9910 0.9910
986.581718 0.9930 0.9930 0.9930 0.9940 0.9980
990.957452 1.0000 1.0000 1.0000 0.9980 0.9980
995.333187 0.9980 0.9980 0.9970 0.9950 0.9950
999.708922 0.9940 0.9930 0.9910 0.9870 0.9860
1004.084657 0.9830 0.9790 0.9780 0.9710 0.9650
1008.460391 0.9600 0.9540 0.9390 0.9320 0.9260
1012.836126 0.9150 0.9060 0.9000 0.8950 0.8940
1017.211861 0.8940 0.8950 0.8980 0.9000 0.9010
1021.587595 0.9040 0.9050 0.9080 0.9130 0.9150
1025.963330 0.9160 0.9190 0.9200 0.9200 0.9200
1030.339065 0.9200 0.9190 0.9170 0.9130 0.9100
1034.714800 0.9050 0.8980 0.8940 0.8910 0.8870
1039.090534 0.8860 0.8840 0.8860 0.8910 0.8940
1043.466269 0.9000 0.9100 0.9160 0.9310 0.9340
1047.842004 0.9360 0.9420 0.9460 0.9520 0.9560
1052.217738 0.9570 0.9600 0.9640 0.9650 0.9670
1056.593473 0.9670 0.9680 0.9680 0.9680 0.9690
1060.969208 0.9690 0.9690 0.9690 0.9690 0.9690
1065.344943 0.9680 0.9670 0.9650 0.9650 0.9630
1069.720677 0.9580 0.9540 0.9490 0.9430 0.9380
1074.096412 0.9340 0.9270 0.9160 0.9050 0.9000
1078.472147 0.8940 0.8840 0.8830 0.8840 0.8890
1082.847881 0.8910 0.8980 0.9060 0.9170 0.9309
1087.223616 0.9350 0.9420 0.9450 0.9530 0.9560
1091.599351 0.9570 0.9600 0.9630 0.9640 0.9650
1095.975086 0.9670 0.9670 0.9670 0.9670 0.9670
1100.350820 0.9650 0.9640 0.9630 0.9610 0.9580
1104.726555 0.9560 0.9560 0.9540 0.9540 0.9540
1109.102290 0.9560 0.9570 0.9580 0.9630 0.9650
1113.478024 0.9680 0.9710 0.9760 0.9780 0.9790
1117.853759 0.9800 0.9830 0.9840 0.9870 0.9910
1122.229494 0.9930 0.9940 0.9950 0.9970 0.9970
1126.605229 0.9980 0.9980 1.0000 1.0000 1.0010
1130.980963 1.0010 1.0010 1.0010 1.0020 1.0020
1135.356698 1.0040 1.0040 1.0040 1.0040 1.0040
1139.732433 1.0050 1.0050 1.0050 1.0050 1.0050
1144.108168 1.0040 1.0040 1.0040 1.0020 1.0010
1148.483902 0.9980 0.9970 0.9940 0.9930 0.9900
1152.859637 0.9870 0.9840 0.9800 0.9780 0.9670
1157.235372 0.9630 0.9580 0.9560 0.9540 0.9530
1161.611106 0.9530 0.9540 0.9540 0.9560 0.9580
1165.986841 0.9630 0.9650 0.9680 0.9690 0.9710
1170.362576 0.9730 0.9750 0.9760 0.9760 0.9760
1174.738311 0.9760 0.9750 0.9730 0.9730 0.9720
1179.114045 0.9690 0.9670 0.9640 0.9630 0.9580
1183.489780 0.9560 0.9540 0.9520 0.9490 0.9460
1187.865515 0.9450 0.9420 0.9390 0.9350 0.9340
1192.241249 0.9310 0.9310 0.9300 0.9300 0.9300
1196.616984 0.9310 0.9340 0.9380 0.9410 0.9420
1200.992719 0.9430 0.9450 0.9460 0.9460 0.9470
1205.368454 0.9490 0.9490 0.9490 0.9500 0.9520
1209.744188 0.9530 0.9540 0.9540 0.9540 0.9530
1214.119923 0.9520 0.9520 0.9500 0.9490 0.9470
1218.495658 0.9470 0.9460 0.9460 0.9460 0.9460
1222.871392 0.9460 0.9460 0.9460 0.9470 0.9470
1227.247127 0.9490 0.9490 0.9500 0.9540 0.9560
1231.622862 0.9560 0.9580 0.9600 0.9610 0.9610
1235.998597 0.9630 0.9630 0.9640 0.9650 0.9650
1240.374331 0.9650 0.9670 0.9670 0.9670 0.9670
1244.750066 0.9670 0.9670 0.9670 0.9670 0.9670
1249.125801 0.9650 0.9650 0.9640 0.9640 0.9630
1253.501535 0.9610 0.9600 0.9580 0.9560 0.9540
1257.877270 0.9530 0.9520 0.9470 0.9470 0.9460
1262.253005 0.9450 0.9450 0.9420 0.9420 0.9420
1266.628740 0.9410 0.9410 0.9410 0.9410 0.9410
1271.004474 0.9420 0.9420 0.9420 0.9420 0.9420
1275.380209 0.9420 0.9420 0.9420 0.9410 0.9410
1279.755944 0.9410 0.9410 0.9410 0.9390 0.9380
1284.131679 0.9380 0.9360 0.9340 0.9340 0.9320
1288.507413 0.9310 0.9280 0.9260 0.9230 0.9210
1292.883148 0.9200 0.9190 0.9170 0.9160 0.9130
1297.258883 0.9130 0.9130 0.9100 0.9100 0.9090
1301.634617 0.9090 0.9080 0.9080 0.9060 0.9040
1306.010352 0.9020 0.9000 0.8980 0.8970 0.8950
1310.386087 0.8950 0.8970 0.8980 0.9010 0.9010
1314.761822 0.9040 0.9040 0.9060 0.9080 0.9100
1319.137556 0.9120 0.9150 0.9150 0.9160 0.9160
1323.513291 0.9160 0.9150 0.9130 0.9120 0.9100
1327.889026 0.9080 0.9050 0.9040 0.9010 0.8970
1332.264760 0.8940 0.8910 0.8860 0.8800 0.8730
1336.640495 0.8580 0.8420 0.8270 0.8061 0.7940
1341.016230 0.7680 0.7460 0.7380 0.7320 0.7340
1345.391965 0.7430 0.7580 0.7760 0.7790 0.7840
1349.767699 0.8240 0.8350 0.8470 0.8520 0.8570
1354.143434 0.8610 0.8640 0.8710 0.8710 0.8720
1358.519169 0.8730 0.8730 0.8720 0.8690 0.8670
1362.894903 0.8610 0.8520 0.8420 0.8310 0.8151
1367.270638 0.7950 0.7720 0.7470 0.7200 0.6042
1371.646373 0.5651 0.5012 0.4262 0.3582 0.3192
1376.022108 0.2750 0.2470 0.2470 0.2820 0.3160
1380.397842 0.3450 0.5685 0.6308 0.6779 0.7099
1384.773577 0.7450 0.7690 0.7860 0.8000 0.8100
1389.149312 0.8300 0.8350 0.8470 0.8490 0.8530
1393.525046 0.8540 0.8580 0.8610 0.8640 0.8680
1397.900781 0.8690 0.8710 0.8720 0.8750 0.8780
1402.276516 0.8780 0.8790 0.8800 0.8800 0.8800
1406.652251 0.8800 0.8800 0.8800 0.8800 0.8790
1411.027985 0.8790 0.8790 0.8780 0.8780 0.8760
1415.403720 0.8750 0.8750 0.8720 0.8690 0.8670
1419.779455 0.8650 0.8610 0.8600 0.8570 0.8530
1424.155190 0.8500 0.8470 0.8420 0.8380 0.8320
1428.530924 0.8280 0.8240 0.8170 0.8090 0.7980
1432.906659 0.7940 0.7800 0.7690 0.7580 0.7450
1437.282394 0.7210 0.7160 0.6890 0.6730 0.6300
1441.658128 0.6100 0.5801 0.5610 0.5311 0.5061
1446.033863 0.4750 0.4420 0.4100 0.3790 0.3490
1450.409598 0.3201 0.3060 0.2980 0.2860 0.2830
1454.785333 0.2820 0.2820 0.2830 0.2870 0.3000
1459.161067 0.3010 0.3000 0.2870 0.2760 0.2630
1463.536802 0.2470 0.2470 0.2910 0.3080 0.3230
1467.912537 0.3519 0.3799 0.3969 0.4080 0.4120
1472.288271 0.4150 0.4160 0.4210 0.4470 0.5010
1476.664006 0.5310 0.5779 0.6009 0.6389 0.6679
1481.039741 0.6900 0.7090 0.7190 0.7280 0.7430
1485.415476 0.7540 0.7570 0.7610 0.7650 0.7720
1489.791210 0.7750 0.7800 0.7830 0.7860 0.7890
1494.166945 0.7900 0.7930 0.7950 0.8000 0.8040
1498.542680 0.8090 0.8170 0.8200 0.8200 0.8230
1502.918414 0.8260 0.8280 0.8310 0.8340 0.8350
1507.294149 0.8380 0.8410 0.8420 0.8450 0.8460
1511.669884 0.8490 0.8500 0.8520 0.8540 0.8560
1516.045619 0.8570 0.8580 0.8600 0.8610 0.8630
1520.421353 0.8640 0.8650 0.8670 0.8680 0.8680
1524.797088 0.8690 0.8710 0.8720 0.8730 0.8750
1529.172823 0.8750 0.8760 0.8780 0.8790 0.8800
1533.548557 0.8800 0.8820 0.8830 0.8840 0.8860
1537.924292 0.8860 0.8870 0.8890 0.8890 0.8900
1542.300027 0.8900 0.8910 0.8930 0.8930 0.8940
1546.675762 0.8940 0.8950 0.8970 0.8970 0.8970
1551.051496 0.8970 0.8980 0.9000 0.9000 0.9010
1555.427231 0.9010 0.9020 0.9040 0.9040 0.9050
1559.802966 0.9050 0.9060 0.9080 0.9080 0.9090
1564.178701 0.9100 0.9100 0.9120 0.9120 0.9130
1568.554435 0.9130 0.9130 0.9150 0.9150 0.9150
1572.930170 0.9160 0.9160 0.9160 0.9160 0.9170
1577.305905 0.9170 0.9170 0.9190 0.9190 0.9190
1581.681639 0.9190 0.9200 0.9200 0.9210 0.9210
1586.057374 0.9210 0.9230 0.9230 0.9230 0.9240
1590.433109 0.9240 0.9240 0.9260 0.9260 0.9260
1594.808844 0.9270 0.9270 0.9280 0.9280 0.9280
1599.184578 0.9280 0.9300 0.9300 0.9300 0.9300
1603.560313 0.9310 0.9310 0.9310 0.9310 0.9320
1607.936048 0.9320 0.9320 0.9320 0.9320 0.9340
1612.311782 0.9340 0.9340 0.9340 0.9350 0.9350
1616.687517 0.9350 0.9350 0.9360 0.9360 0.9360
1621.063252 0.9360 0.9360 0.9380 0.9380 0.9380
1625.438987 0.9380 0.9390 0.9390 0.9390 0.9390
1629.814721 0.9390 0.9410 0.9410 0.9410 0.9410
1634.190456 0.9420 0.9420 0.9420 0.9420 0.9420
1638.566191 0.9420 0.9420 0.9430 0.9430 0.9430
1642.941925 0.9430 0.9430 0.9430 0.9430 0.9430
1647.317660 0.9450 0.9460 0.9450 0.9450 0.9450
1651.693395 0.9450 0.9450 0.9460 0.9460 0.9460
1656.069130 0.9460 0.9470 0.9470 0.9490 0.9490
1660.444864 0.9490 0.9490 0.9490 0.9490 0.9490
1664.820599 0.9490 0.9490 0.9490 0.9490 0.9490
1669.196334 0.9490 0.9490 0.9470 0.9470 0.9470
1673.572069 0.9470 0.9470 0.9470 0.9470 0.9470
1677.947803 0.9470 0.9490 0.9490 0.9490 0.9490
1682.323538 0.9470 0.9470 0.9470 0.9470 0.9490
1686.699273 0.9490 0.9490 0.9500 0.9500 0.9520
1691.075007 0.9520 0.9520 0.9520 0.9530 0.9530
1695.450742 0.9530 0.9530 0.9530 0.9530 0.9530
1699.826477 0.9530 0.9530 0.9530 0.9530 0.9530
1704.202212 0.9530 0.9530 0.9530 0.9540 0.9540
1708.577946 0.9560 0.9560 0.9580 0.9580 0.9580
1712.953681 0.9580 0.9580 0.9580 0.9580 0.9580
1717.329416 0.9580 0.9600 0.9600 0.9600 0.9600
1721.705150 0.9600 0.9610 0.9610 0.9610 0.9610
1726.080885 0.9630 0.9630 0.9630 0.9630 0.9640
1730.456620 0.9640 0.9630 0.9630 0.9630 0.9630
1734.832355 0.9630 0.9630 0.9630 0.9630 0.9640
1739.208089 0.9630 0.9630 0.9640 0.9630 0.9630
1743.583824 0.9630 0.9630 0.9630 0.9630 0.9630
1747.959559 0.9630 0.9610 0.9610 0.9630 0.9630
1752.335293 0.9630 0.9630 0.9630 0.9630 0.9630
1756.711028 0.9630 0.9630 0.9630 0.9630 0.9630
1761.086763 0.9630 0.9630 0.9630 0.9630 0.9630
1765.462498 0.9630 0.9630 0.9630 0.9630 0.9610
1769.838232 0.9610 0.9610 0.9610 0.9610 0.9610
1774.213967 0.9610 0.9610 0.9610 0.9610 0.9630
1778.589702 0.9630 0.9630 0.9630 0.9630 0.9630
1782.965436 0.9630 0.9630 0.9630 0.9630 0.9630
1787.341171 0.9630 0.9630 0.9610 0.9610 0.9610
1791.716906 0.9600 0.9600 0.9600 0.9600 0.9600
1796.092641 0.9580 0.9580 0.9580 0.9580 0.9580
1800.468375 0.9580 0.9580 0.9580 0.9580 0.9580
1804.844110 0.9580 0.9580 0.9580 0.9580 0.9580
1809.219845 0.9580 0.9580 0.9580 0.9580 0.9580
1813.595580 0.9580 0.9580 0.9580 0.9580 0.9570
1817.971314 0.9570 0.9570 0.9570 0.9570 0.9570
1822.347049 0.9560 0.9560 0.9560 0.9560 0.9560
1826.722784 0.9560 0.9540 0.9540 0.9540 0.9530
1831.098518 0.9530 0.9540 0.9540 0.9530 0.9530
1835.474253 0.9530 0.9530 0.9530 0.9520 0.9520
1839.849988 0.9520 0.9530 0.9530 0.9530 0.9530
1844.225723 0.9520 0.9520 0.9520 0.9520 0.9520
1848.601457 0.9520 0.9520 0.9520 0.9520 0.9520
1852.977192 0.9520 0.9520 0.9530 0.9520 0.9520
1857.352927 0.9520 0.9500 0.9500 0.9500 0.9500
1861.728661 0.9500 0.9500 0.9500 0.9500 0.9500
1866.104396 0.9500 0.9500 0.9500 0.9500 0.9500
1870.480131 0.9520 0.9520 0.9520 0.9520 0.9520
1874.855866 0.9540 0.9540 0.9530 0.9540 0.9540
1879.231600 0.9540 0.9560 0.9560 0.9560 0.9560
1883.607335 0.9570 0.9570 0.9570 0.9570 0.9570
1887.983070 0.9570 0.9570 0.9570 0.9570 0.9570
1892.358804 0.9570 0.9570 0.9580 0.9580 0.9580
1896.734539 0.9580 0.9580 0.9580 0.9600 0.9600
1901.110274 0.9600 0.9600 0.9600 0.9600 0.9610
1905.486009 0.9610 0.9610 0.9610 0.9610 0.9610
1909.861743 0.9610 0.9610 0.9610 0.9610 0.9610
1914.237478 0.9610 0.9610 0.9610 0.9610 0.9610
1918.613213 0.9610 0.9610 0.9600 0.9600 0.9600
1922.988947 0.9600 0.9600 0.9600 0.9600 0.9600
1927.364682 0.9600 0.9600 0.9600 0.9600 0.9580
1931.740417 0.9580 0.9580 0.9580 0.9580 0.9580
1936.116152 0.9580 0.9580 0.9580 0.9580 0.9580
1940.491886 0.9580 0.9580 0.9580 0.9580 0.9580
1944.867621 0.9580 0.9580 0.9580 0.9580 0.9580
1949.243356 0.9600 0.9580 0.9580 0.9580 0.9570
1953.619091 0.9570 0.9570 0.9570 0.9570 0.9570
1957.994825 0.9570 0.9570 0.9560 0.9560 0.9570
1962.370560 0.9570 0.9570 0.9570 0.9570 0.9570
1966.746295 0.9570 0.9570 0.9570 0.9570 0.9560
1971.122029 0.9560 0.9570 0.9570 0.9560 0.9560
1975.497764 0.9560 0.9560 0.9540 0.9540 0.9560
1979.873499 0.9560 0.9540 0.9540 0.9530 0.9530
1984.249234 0.9530 0.9530 0.9530 0.9530 0.9530
1988.624968 0.9530 0.9530 0.9520 0.9520 0.9520
1993.000703 0.9500 0.9450 0.9420 0.9420 0.9450
1997.376438 0.9460 0.9470 0.9470 0.9470 0.9470
2001.752172 0.9470 0.9480 0.9490 0.9490 0.9490
2006.127907 0.9490 0.9490 0.9490 0.9490 0.9490
2010.503642 0.9490 0.9490 0.9490 0.9490 0.9490
2014.879377 0.9490 0.9490 0.9490 0.9490 0.9480
2019.255111 0.9470 0.9480 0.9490 0.9490 0.9490
2023.630846 0.9490 0.9490 0.9490 0.9490 0.9490
2028.006581 0.9490 0.9495 0.9500 0.9500 0.9500
2032.382315 0.9500 0.9500 0.9500 0.9500 0.9500
2036.758050 0.9500 0.9500 0.9500 0.9500 0.9500
2041.133785 0.9500 0.9500 0.9500 0.9500 0.9500
2045.509520 0.9500 0.9500 0.9500 0.9500 0.9500
2049.885254 0.9500 0.9500 0.9500 0.9500 0.9500
2054.260989 0.9500 0.9500 0.9500 0.9500 0.9500
2058.636724 0.9500 0.9500 0.9500 0.9500 0.9500
2063.012458 0.9500 0.9500 0.9500 0.9500 0.9500
2067.388193 0.9509 0.9519 0.9520 0.9520 0.9520
2071.763928 0.9520 0.9520 0.9520 0.9525 0.9530
2076.139663 0.9530 0.9530 0.9530 0.9530 0.9530
2080.515397 0.9530 0.9535 0.9540 0.9540 0.9540
2084.891132 0.9540 0.9540 0.9540 0.9540 0.9540
2089.266867 0.9540 0.9540 0.9540 0.9540 0.9540
2093.642602 0.9540 0.9540 0.9540 0.9540 0.9540
2098.018336 0.9540 0.9540 0.9540 0.9540 0.9540
2102.394071 0.9536 0.9531 0.9530 0.9530 0.9530
2106.769806 0.9530 0.9526 0.9521 0.9520 0.9520
2111.145540 0.9520 0.9520 0.9520 0.9520 0.9520
2115.521275 0.9520 0.9520 0.9520 0.9520 0.9520
2119.897010 0.9520 0.9520 0.9511 0.9501 0.9500
2124.272745 0.9500 0.9500 0.9500 0.9500 0.9500
2128.648479 0.9500 0.9500 0.9500 0.9500 0.9500
2133.024214 0.9500 0.9496 0.9491 0.9490 0.9490
2137.399949 0.9490 0.9490 0.9490 0.9490 0.9490
2141.775683 0.9490 0.9490 0.9490 0.9490 0.9490
2146.151418 0.9490 0.9490 0.9490 0.9490 0.9482
2150.527153 0.9472 0.9470 0.9470 0.9470 0.9470
2154.902888 0.9470 0.9470 0.9470 0.9470 0.9470
2159.278622 0.9470 0.9470 0.9470 0.9470 0.9470
2163.654357 0.9466 0.9461 0.9460 0.9460 0.9460
2168.030092 0.9460 0.9456 0.9451 0.9450 0.9450
2172.405826 0.9450 0.9450 0.9450 0.9450 0.9450
2176.781561 0.9450 0.9450 0.9450 0.9450 0.9450
2181.157296 0.9450 0.9450 0.9450 0.9450 0.9450
2185.533031 0.9450 0.9450 0.9450 0.9450 0.9450
2189.908765 0.9450 0.9450 0.9450 0.9450 0.9450
2194.284500 0.9450 0.9450 0.9450 0.9450 0.9450
2198.660235 0.9450 0.9450 0.9450 0.9450 0.9450
2203.035970 0.9450 0.9450 0.9450 0.9450 0.9450
2207.411704 0.9450 0.9450 0.9450 0.9450 0.9450
2211.787439 0.9450 0.9450 0.9450 0.9450 0.9450
2216.163174 0.9450 0.9450 0.9454 0.9459 0.9460
2220.538908 0.9460 0.9456 0.9451 0.9450 0.9450
2224.914643 0.9450 0.9450 0.9450 0.9450 0.9450
2229.290378 0.9450 0.9442 0.9432 0.9430 0.9430
2233.666113 0.9430 0.9430 0.9430 0.9430 0.9430
2238.041847 0.9430 0.9430 0.9430 0.9430 0.9430
2242.417582 0.9437 0.9447 0.9443 0.9432 0.9430
2246.793317 0.9430 0.9430 0.9430 0.9430 0.9430
2251.169051 0.9430 0.9430 0.9430 0.9430 0.9426
2255.544786 0.9421 0.9420 0.9420 0.9420 0.9420
2259.920521 0.9416 0.9411 0.9410 0.9410 0.9410
2264.296256 0.9410 0.9403 0.9393 0.9390 0.9390
2268.671990 0.9386 0.9381 0.9369 0.9354 0.9350
2273.047725 0.9350 0.9346 0.9341 0.9340 0.9340
2277.423460 0.9340 0.9340 0.9333 0.9323 0.9316
2281.799194 0.9311 0.9310 0.9310 0.9306 0.9301
2286.174929 0.9289 0.9274 0.9266 0.9261 0.9253
2290.550664 0.9243 0.9237 0.9232 0.9230 0.9230
2294.926399 0.9230 0.9230 0.9230 0.9230 0.9230
2299.302133 0.9230 0.9230 0.9230 0.9230 0.9230
2303.677868 0.9230 0.9230 0.9230 0.9230 0.9230
2308.053603 0.9230 0.9233 0.9238 0.9240 0.9240
2312.429337 0.9240 0.9240 0.9240 0.9240 0.9240
2316.805072 0.9240 0.9240 0.9240 0.9237 0.9232
2321.180807 0.9223 0.9213 0.9210 0.9210 0.9210
2325.556542 0.9210 0.9210 0.9210 0.9210 0.9210
2329.932276 0.9207 0.9202 0.9197 0.9192 0.9190
2334.308011 0.9190 0.9190 0.9190 0.9190 0.9190
2338.683746 0.9193 0.9198 0.9200 0.9200 0.9203
2343.059481 0.9208 0.9210 0.9210 0.9216 0.9226
2347.435215 0.9230 0.9230 0.9233 0.9238 0.9240
2351.810950 0.9240 0.9240 0.9240 0.9246 0.9256
2356.186685 0.9260 0.9260 0.9263 0.9268 0.9270
2360.562419 0.9270 0.9270 0.9270 0.9270 0.9270
2364.938154 0.9270 0.9270 0.9273 0.9278 0.9286
2369.313889 0.9296 0.9306 0.9316 0.9320 0.9320
2373.689624 0.9320 0.9320 0.9326 0.9336 0.9340
2378.065358 0.9340 0.9343 0.9348 0.9350 0.9350
2382.441093 0.9359 0.9374 0.9383 0.9388 0.9390
2386.816828 0.9390 0.9396 0.9406 0.9410 0.9410
2391.192562 0.9404 0.9394 0.9390 0.9390 0.9390
2395.568297 0.9390 0.9387 0.9382 0.9380 0.9380
2399.944032 0.9380 0.9380 0.9383 0.9388 0.9387
2404.319767 0.9382 0.9380 0.9380 0.9380 0.9380
2408.695501 0.9380 0.9380 0.9380 0.9380 0.9374
2413.071236 0.9364 0.9360 0.9360 0.9360 0.9360
2417.446971 0.9357 0.9352 0.9350 0.9350 0.9350
2421.822705 0.9350 0.9350 0.9350 0.9350 0.9350
2426.198440 0.9353 0.9358 0.9360 0.9360 0.9366
2430.574175 0.9376 0.9380 0.9380 0.9383 0.9388
2434.949910 0.9390 0.9390 0.9390 0.9390 0.9396
2439.325644 0.9406 0.9413 0.9418 0.9420 0.9420
2443.701379 0.9420 0.9420 0.9423 0.9428 0.9430
2448.077114 0.9430 0.9430 0.9430 0.9430 0.9430
2452.452848 0.9427 0.9422 0.9420 0.9420 0.9420
2456.828583 0.9420 0.9420 0.9420 0.9420 0.9420
2461.204318 0.9420 0.9420 0.9420 0.9420 0.9420
2465.580053 0.9420 0.9420 0.9420 0.9420 0.9420
2469.955787 0.9417 0.9412 0.9410 0.9410 0.9410
2474.331522 0.9410 0.9410 0.9410 0.9410 0.9410
2478.707257 0.9410 0.9410 0.9405 0.9395 0.9390
2483.082992 0.9390 0.9390 0.9390 0.9390 0.9390
2487.458726 0.9390 0.9390 0.9390 0.9390 0.9390
2491.834461 0.9390 0.9390 0.9390 0.9390 0.9390
2496.210196 0.9390 0.9390 0.9388 0.9383 0.9380
2500.585930 0.9380 0.9380 0.9380 0.9380 0.9380
2504.961665 0.9380 0.9380 0.9380 0.9380 0.9380
2509.337400 0.9380 0.9382 0.9387 0.9390 0.9390
2513.713135 0.9388 0.9383 0.9380 0.9380 0.9380
2518.088869 0.9380 0.9380 0.9380 0.9380 0.9380
2522.464604 0.9380 0.9380 0.9380 0.9380 0.9380
2526.840339 0.9380 0.9375 0.9365 0.9360 0.9360
2531.216073 0.9360 0.9360 0.9360 0.9360 0.9360
2535.591808 0.9360 0.9360 0.9360 0.9360 0.9360
2539.967543 0.9360 0.9360 0.9360 0.9360 0.9360
2544.343278 0.9360 0.9360 0.9360 0.9360 0.9360
2548.719012 0.9358 0.9353 0.9350 0.9350 0.9350
2553.094747 0.9350 0.9348 0.9343 0.9340 0.9340
2557.470482 0.9336 0.9326 0.9311 0.9291 0.9278
2561.846216 0.9273 0.9263 0.9248 0.9240 0.9240
2566.221951 0.9240 0.9240 0.9238 0.9233 0.9230
2570.597686 0.9230 0.9226 0.9216 0.9210 0.9210
2574.973421 0.9210 0.9210 0.9208 0.9203 0.9200
2579.349155 0.9200 0.9198 0.9193 0.9182 0.9162
2583.724890 0.9150 0.9150 0.9146 0.9136 0.9128
2588.100625 0.9123 0.9116 0.9106 0.9096 0.9086
2592.476359 0.9080 0.9080 0.9076 0.9066 0.9060
2596.852094 0.9060 0.9060 0.9060 0.9058 0.9053
2601.227829 0.9048 0.9043 0.9040 0.9040 0.9040
2605.603564 0.9040 0.9040 0.9040 0.9040 0.9040
2609.979298 0.9036 0.9026 0.9020 0.9020 0.9018
2614.355033 0.9013 0.9008 0.9003 0.9000 0.9000
2618.730768 0.9000 0.9000 0.9000 0.9000 0.9000
2623.106503 0.9000 0.9000 0.9000 0.9000 0.9000
2627.482237 0.9000 0.9000 0.9002 0.9007 0.9010
2631.857972 0.9010 0.9010 0.9010 0.9010 0.9010
2636.233707 0.9010 0.9010 0.9008 0.9003 0.9000
2640.609441 0.9000 0.9000 0.9000 0.9000 0.9000
2644.985176 0.9000 0.9000 0.8997 0.8986 0.8980
2649.360911 0.8980 0.8980 0.8980 0.8980 0.8980
2653.736646 0.8978 0.8973 0.8970 0.8970 0.8970
2658.112380 0.8970 0.8972 0.8977 0.8980 0.8980
2662.488115 0.8978 0.8973 0.8970 0.8970 0.8965
2666.863850 0.8950 0.8933 0.8913 0.8893 0.8873
2671.239584 0.8857 0.8847 0.8834 0.8814 0.8792
2675.615319 0.8767 0.8747 0.8737 0.8724 0.8704
2679.991054 0.8684 0.8664 0.8648 0.8643 0.8640
2684.366789 0.8640 0.8642 0.8647 0.8653 0.8663
2688.742523 0.8676 0.8696 0.8716 0.8736 0.8761
2693.118258 0.8795 0.8823 0.8833 0.8847 0.8872
2697.493993 0.8891 0.8896 0.8904 0.8919 0.8932
2701.869727 0.8936 0.8941 0.8946 0.8950 0.8950
2706.245462 0.8950 0.8950 0.8949 0.8944 0.8933
2710.621197 0.8908 0.8876 0.8826 0.8782 0.8752
2714.996932 0.8727 0.8717 0.8707 0.8697 0.8689
2719.372666 0.8684 0.8680 0.8680 0.8681 0.8686
2723.748401 0.8693 0.8703 0.8711 0.8716 0.8720
2728.124136 0.8720 0.8719 0.8714 0.8710 0.8710
2732.499870 0.8706 0.8691 0.8676 0.8661 0.8650
2736.875605 0.8650 0.8654 0.8669 0.8685 0.8705
2741.251340 0.8725 0.8745 0.8765 0.8785 0.8800
2745.627075 0.8800 0.8802 0.8812 0.8821 0.8826
2750.002809 0.8830 0.8830 0.8830 0.8830 0.8829
2754.378544 0.8824 0.8820 0.8820 0.8820 0.8820
2758.754279 0.8820 0.8820 0.8820 0.8820 0.8820
2763.130014 0.8820 0.8818 0.8808 0.8800 0.8800
2767.505748 0.8799 0.8794 0.8789 0.8784 0.8778
2771.881483 0.8768 0.8757 0.8742 0.8730 0.8730
2776.257218 0.8729 0.8724 0.8719 0.8714 0.8707
2780.632952 0.8692 0.8677 0.8662 0.8649 0.8644
2785.008687 0.8639 0.8634 0.8630 0.8630 0.8628
2789.384422 0.8618 0.8607 0.8592 0.8576 0.8556
2793.760157 0.8538 0.8528 0.8518 0.8508 0.8495
2798.135891 0.8470 0.8444 0.8414 0.8385 0.8360
2802.511626 0.8338 0.8328 0.8318 0.8308 0.8298
2806.887361 0.8288 0.8271 0.8226 0.8183 0.8148
2811.263095 0.8113 0.8073 0.8034 0.7999 0.7965
2815.638830 0.7935 0.7902 0.7857 0.7809 0.7744
2820.014565 0.7674 0.7579 0.7493 0.7447 0.7397
2824.390300 0.7328 0.7267 0.7252 0.7232 0.7187
2828.766034 0.7142 0.7098 0.7030 0.6845 0.6678
2833.141769 0.6603 0.6530 0.6465 0.6399 0.6324
2837.517504 0.6250 0.6180 0.6107 0.6022 0.5886
2841.893238 0.5492 0.5157 0.5137 0.5114 0.5074
2846.268973 0.4994 0.4690 0.4408 0.4258 0.4065
2850.644708 0.3616 0.3197 0.2963 0.2727 0.2482
2855.020443 0.2259 0.2174 0.2068 0.1821 0.1577
2859.396177 0.1347 0.1114 0.0859 0.0627 0.0532
2863.771912 0.0441 0.0376 0.0315 0.0275 0.0237
2868.147647 0.0212 0.0186 0.0151 0.0118 0.0103
2872.523382 0.0089 0.0084 0.0081 0.0086 0.0093
2876.899116 0.0113 0.0134 0.0169 0.0216 0.0345
2881.274851 0.0479 0.0644 0.0794 0.0829 0.0868
2885.650586 0.0943 0.1014 0.1049 0.1081 0.1085
2890.026320 0.1090 0.1085 0.1072 0.0986 0.0907
2894.402055 0.0882 0.0855 0.0805 0.0756 0.0716
2898.777790 0.0675 0.0625 0.0576 0.0536 0.0496
2903.153525 0.0451 0.0409 0.0394 0.0379 0.0364
2907.529259 0.0349 0.0334 0.0320 0.0315 0.0310
2911.904994 0.0310 0.0310 0.0305 0.0300 0.0300
2916.280729 0.0300 0.0300 0.0300 0.0300 0.0300
2920.656463 0.0300 0.0299 0.0289 0.0280 0.0280
2925.032198 0.0280 0.0275 0.0269 0.0254 0.0238
2929.407933 0.0213 0.0189 0.0174 0.0159 0.0144
2933.783668 0.0130 0.0125 0.0120 0.0120 0.0119
2938.159402 0.0109 0.0100 0.0100 0.0100 0.0095
2942.535137 0.0090 0.0090 0.0089 0.0074 0.0060
2946.910872 0.0055 0.0050 0.0050 0.0050 0.0045
2951.286606 0.0040 0.0040 0.0040 0.0030 0.0020
2955.662341 0.0020 0.0020 0.0020 0.0020 0.0015
2960.038076 0.0010 0.0010 0.0010 0.0010 0.0010
2964.413811 0.0010 0.0010 0.0010 0.0010 0.0010
2968.789545 0.0010 0.0015 0.0020 0.0035 0.0052
2973.165280 0.0162 0.0272 0.0397 0.0523 0.0773
2977.541015 0.1022 0.1207 0.1392 0.1781 0.2167
2981.916749 0.2502 0.2833 0.2993 0.3153 0.3327
2986.292484 0.3502 0.3682 0.3862 0.4106 0.4351
2990.668219 0.4535 0.4720 0.4925 0.5129 0.5205
2995.043954 0.5279 0.5384 0.5489 0.5605 0.5721
2999.419688 0.5901 0.6080 0.6235 0.6390 0.6455
3003.795423 0.6520 0.6619 0.6719 0.6804 0.6889
3008.171158 0.6969 0.7049 0.7124 0.7198 0.7268
3012.546893 0.7338 0.7394 0.7448 0.7484 0.7520
3016.922627 0.7550 0.7580 0.7668 0.7758 0.7794
3021.298362 0.7829 0.7869 0.7909 0.7959 0.8008
3025.674097 0.8063 0.8118 0.8120 0.8120 0.8163
3030.049831 0.8208 0.8263 0.8318 0.8334 0.8350
3034.425566 0.8365 0.8379 0.8404 0.8429 0.8459
3038.801301 0.8489 0.8509 0.8529 0.8549 0.8569
3043.177036 0.8589 0.8609 0.8619 0.8629 0.8649
3047.552770 0.8669 0.8693 0.8718 0.8734 0.8749
3051.928505 0.8769 0.8789 0.8809 0.8829 0.8830
3056.304240 0.8830 0.8858 0.8888 0.8895 0.8900
3060.679974 0.8914 0.8929 0.8930 0.8930 0.8935
3065.055709 0.8940 0.8945 0.8950 0.8950 0.8950
3069.431444 0.8964 0.8979 0.8994 0.9009 0.9024
3073.807179 0.9039 0.9040 0.9040 0.9045 0.9050
3078.182913 0.9055 0.9060 0.9069 0.9079 0.9085
3082.558648 0.9090 0.9104 0.9119 0.9120 0.9120
3086.934383 0.9125 0.9130 0.9130 0.9130 0.9144
3091.310117 0.9159 0.9160 0.9160 0.9160 0.9160
3095.685852 0.9160 0.9160 0.9164 0.9169 0.9179
3100.061587 0.9189 0.9190 0.9190 0.9199 0.9209
3104.437322 0.9210 0.9210 0.9219 0.9229 0.9230
3108.813056 0.9230 0.9234 0.9239 0.9240 0.9240
3113.188791 0.9236 0.9231 0.9230 0.9230 0.9230
3117.564526 0.9230 0.9230 0.9230 0.9234 0.9239
3121.940260 0.9240 0.9240 0.9240 0.9240 0.9249
3126.315995 0.9259 0.9260 0.9260 0.9260 0.9260
3130.691730 0.9260 0.9260 0.9260 0.9260 0.9251
3135.067465 0.9241 0.9240 0.9240 0.9240 0.9240
3139.443199 0.9240 0.9240 0.9240 0.9240 0.9236
3143.818934 0.9231 0.9230 0.9230 0.9230 0.9230
3148.194669 0.9230 0.9230 0.9222 0.9212 0.9206
3152.570404 0.9201 0.9200 0.9200 0.9196 0.9191
3156.946138 0.9182 0.9172 0.9166 0.9161 0.9156
3161.321873 0.9151 0.9142 0.9132 0.9130 0.9130
3165.697608 0.9126 0.9121 0.9120 0.9120 0.9112
3170.073342 0.9102 0.9100 0.9100 0.9096 0.9091
3174.449077 0.9090 0.9090 0.9090 0.9090 0.9090
3178.824812 0.9090 0.9090 0.9090 0.9086 0.9081
3183.200547 0.9080 0.9080 0.9080 0.9080 0.9080
3187.576281 0.9080 0.9080 0.9080 0.9084 0.9089
3191.952016 0.9090 0.9090 0.9090 0.9090 0.9090
3196.327751 0.9090 0.9090 0.9090 0.9090 0.9090
3200.703485 0.9090 0.9090 0.9094 0.9099 0.9108
3205.079220 0.9118 0.9120 0.9120 0.9124 0.9129
3209.454955 0.9138 0.9148 0.9158 0.9168 0.9178
3213.830690 0.9188 0.9194 0.9199 0.9200 0.9200
3218.206424 0.9204 0.9209 0.9218 0.9228 0.9242
3222.582159 0.9256 0.9264 0.9269 0.9274 0.9279
3226.957894 0.9280 0.9280 0.9280 0.9280 0.9288
3231.333628 0.9298 0.9300 0.9300 0.9304 0.9309
3235.709363 0.9310 0.9310 0.9310 0.9310 0.9310
3240.085098 0.9310 0.9310 0.9310 0.9310 0.9310
3244.460833 0.9310 0.9310 0.9314 0.9319 0.9320
3248.836567 0.9320 0.9320 0.9320 0.9320 0.9320
3253.212302 0.9320 0.9320 0.9320 0.9320 0.9320
3257.588037 0.9320 0.9320 0.9320 0.9327 0.9337
3261.963771 0.9344 0.9349 0.9350 0.9350 0.9350
3266.339506 0.9350 0.9350 0.9350 0.9354 0.9359
3270.715241 0.9360 0.9360 0.9360 0.9360 0.9360
3275.090976 0.9360 0.9360 0.9360 0.9360 0.9360
3279.466710 0.9356 0.9351 0.9350 0.9350 0.9350
3283.842445 0.9350 0.9350 0.9350 0.9350 0.9350
3288.218180 0.9350 0.9350 0.9350 0.9350 0.9350
3292.593915 0.9350 0.9350 0.9350 0.9350 0.9350
3296.969649 0.9350 0.9350 0.9350 0.9350 0.9350
3301.345384 0.9350 0.9353 0.9358 0.9360 0.9360
3305.721119 0.9360 0.9360 0.9360 0.9360 0.9360
3310.096853 0.9360 0.9360 0.9360 0.9360 0.9360
3314.472588 0.9360 0.9360 0.9360 0.9360 0.9360
3318.848323 0.9360 0.9360 0.9360 0.9360 0.9360
3323.224058 0.9360 0.9360 0.9360 0.9360 0.9360
3327.599792 0.9360 0.9360 0.9360 0.9360 0.9360
3331.975527 0.9360 0.9360 0.9360 0.9360 0.9360
3336.351262 0.9360 0.9367 0.9377 0.9380 0.9380
3340.726996 0.9380 0.9380 0.9380 0.9380 0.9380
3345.102731 0.9380 0.9380 0.9380 0.9380 0.9380
3349.478466 0.9383 0.9388 0.9390 0.9390 0.9390
3353.854201 0.9390 0.9390 0.9390 0.9390 0.9390
3358.229935 0.9390 0.9390 0.9390 0.9390 0.9396
3362.605670 0.9406 0.9410 0.9410 0.9410 0.9410
3366.981405 0.9410 0.9410 0.9410 0.9410 0.9413
3371.357139 0.9418 0.9417 0.9412 0.9410 0.9410
3375.732874 0.9410 0.9410 0.9410 0.9410 0.9413
3380.108609 0.9418 0.9420 0.9420 0.9417 0.9412
3384.484344 0.9413 0.9418 0.9420 0.9420 0.9420
3388.860078 0.9420 0.9420 0.9420 0.9420 0.9420
3393.235813 0.9420 0.9420 0.9417 0.9412 0.9410
3397.611548 0.9410 0.9410 0.9410 0.9410 0.9410
3401.987283 0.9410 0.9410 0.9410 0.9410 0.9410
3406.363017 0.9410 0.9413 0.9418 0.9417 0.9412
3410.738752 0.9410 0.9410 0.9410 0.9410 0.9410
3415.114487 0.9410 0.9410 0.9410 0.9410 0.9410
3419.490221 0.9404 0.9394 0.9390 0.9390 0.9396
3423.865956 0.9406 0.9410 0.9410 0.9410 0.9410
3428.241691 0.9410 0.9410 0.9413 0.9418 0.9420
3432.617426 0.9420 0.9417 0.9412 0.9410 0.9410
3436.993160 0.9410 0.9410 0.9410 0.9410 0.9404
3441.368895 0.9394 0.9390 0.9390 0.9390 0.9390
3445.744630 0.9390 0.9390 0.9390 0.9390 0.9387
3450.120364 0.9382 0.9380 0.9380 0.9380 0.9380
3454.496099 0.9380 0.9380 0.9380 0.9380 0.9380
3458.871834 0.9380 0.9380 0.9380 0.9380 0.9380
3463.247569 0.9380 0.9380 0.9380 0.9380 0.9380
3467.623303 0.9380 0.9383 0.9388 0.9390 0.9390
3471.999038 0.9390 0.9390 0.9390 0.9390 0.9390
3476.374773 0.9390 0.9390 0.9390 0.9390 0.9390
3480.750507 0.9390 0.9390 0.9390 0.9390 0.9390
3485.126242 0.9390 0.9390 0.9390 0.9390 0.9390
3489.501977 0.9390 0.9390 0.9390 0.9390 0.9390
3493.877712 0.9390 0.9390 0.9390 0.9390 0.9390
3498.253446 0.9390 0.9390 0.9390 0.9390 0.9390
3502.629181 0.9390 0.9390 0.9390 0.9390 0.9390
3507.004916 0.9390 0.9390 0.9390 0.9390 0.9390
3511.380650 0.9390 0.9390 0.9390 0.9390 0.9390
3515.756385 0.9390 0.9390 0.9390 0.9390 0.9388
3520.132120 0.9383 0.9380 0.9380 0.9380 0.9380
3524.507855 0.9380 0.9380 0.9380 0.9380 0.9380
3528.883589 0.9380 0.9380 0.9380 0.9380 0.9380
3533.259324 0.9380 0.9380 0.9380 0.9380 0.9382
3537.635059 0.9387 0.9390 0.9390 0.9390 0.9390
3542.010794 0.9390 0.9390 0.9390 0.9390 0.9390
3546.386528 0.9390 0.9390 0.9390 0.9390 0.9390
3550.762263 0.9390 0.9390 0.9390 0.9390 0.9390
3555.137998 0.9390 0.9390 0.9390 0.9390 0.9390
3559.513732 0.9390 0.9390 0.9390 0.9390 0.9390
3563.889467 0.9390 0.9388 0.9383 0.9380 0.9380
3568.265202 0.9380 0.9380 0.9382 0.9387 0.9390
3572.640937 0.9390 0.9390 0.9390 0.9388 0.9383
3577.016671 0.9380 0.9380 0.9374 0.9359 0.9344
3581.392406 0.9329 0.9318 0.9313 0.9308 0.9303
3585.768141 0.9300 0.9300 0.9300 0.9300 0.9304
3590.143875 0.9314 0.9320 0.9320 0.9326 0.9341
3594.519610 0.9352 0.9357 0.9364 0.9374 0.9380
3598.895345 0.9380 0.9380 0.9380 0.9376 0.9366
3603.271080 0.9358 0.9353 0.9348 0.9343 0.9336
3607.646814 0.9326 0.9320 0.9320 0.9320 0.9320
3612.022549 0.9320 0.9320 0.9324 0.9334 0.9342
3616.398284 0.9347 0.9352 0.9357 0.9360 0.9360
3620.774018 0.9360 0.9360 0.9360 0.9360 0.9364
3625.149753 0.9374 0.9380 0.9380 0.9380 0.9380
3629.525488 0.9380 0.9380 0.9380 0.9380 0.9380
3633.901223 0.9380 0.9380 0.9380 0.9376 0.9366
3638.276957 0.9360 0.9360 0.9360 0.9360 0.9360
3642.652692 0.9360 0.9360 0.9360 0.9363 0.9374
3647.028427 0.9380 0.9380 0.9380 0.9380 0.9376
3651.404161 0.9367 0.9360 0.9360 0.9360 0.9360
3655.779896 0.9360 0.9360 0.9358 0.9353 0.9348
3660.155631 0.9343 0.9340 0.9340 0.9340 0.9340
3664.531366 0.9340 0.9340 0.9340 0.9340 0.9340
3668.907100 0.9340 0.9340 0.9340 0.9342 0.9347
3673.282835 0.9352 0.9357 0.9360 0.9360 0.9360
3677.658570 0.9360 0.9358 0.9353 0.9350 0.9350
3682.034305 0.9350 0.9350 0.9348 0.9343 0.9340
3686.410039 0.9340 0.9340 0.9340 0.9340 0.9340
3690.785774 0.9340 0.9340 0.9340 0.9340 0.9340
3695.161509 0.9340 0.9340 0.9340 0.9340 0.9340
3699.537243 0.9337 0.9327 0.9320 0.9320 0.9320
3703.912978 0.9320 0.9320 0.9320 0.9320 0.9320
3708.288713 0.9319 0.9314 0.9310 0.9310 0.9310
3712.664448 0.9310 0.9310 0.9310 0.9310 0.9310
3717.040182 0.9309 0.9304 0.9300 0.9300 0.9300
3721.415917 0.9300 0.9300 0.9300 0.9300 0.9300
3725.791652 0.9297 0.9287 0.9280 0.9280 0.9280
3730.167386 0.9280 0.9280 0.9280 0.9280 0.9280
3734.543121 0.9280 0.9280 0.9280 0.9280 0.9280
3738.918856 0.9280 0.9280 0.9280 0.9280 0.9280
3743.294591 0.9283 0.9292 0.9300 0.9300 0.9300
3747.670325 0.9300 0.9300 0.9300 0.9301 0.9306
3752.046060 0.9310 0.9310 0.9310 0.9310 0.9310
3756.421795 0.9310 0.9310 0.9310 0.9310 0.9310
3760.797529 0.9311 0.9316 0.9320 0.9320 0.9320
3765.173264 0.9320 0.9320 0.9320 0.9320 0.9320
3769.548999 0.9322 0.9332 0.9340 0.9340 0.9340
3773.924734 0.9340 0.9340 0.9340 0.9340 0.9340
3778.300468 0.9340 0.9340 0.9340 0.9340 0.9340
3782.676203 0.9340 0.9340 0.9340 0.9340 0.9340
3787.051938 0.9340 0.9340 0.9340 0.9340 0.9340
3791.427672 0.9340 0.9338 0.9328 0.9320 0.9320
3795.803407 0.9320 0.9320 0.9320 0.9320
##END=
