##TITLE=NAPHTHALENE, 1,2,3,4-TETRAHYDRO-
##JCAMP-DX=4.24
##DATA TYPE=INFRARED SPECTRUM
##CLASS=COBLENTZ III
##ORIGIN=STANDARD OIL OF OHIO
##OWNER=COBLENTZ SOCIETY
Collection (C) 2018 copyright by the U.S. Secretary of Commerce
on behalf of the United States of America. All rights reserved.
##DATE=Not specified, most likely prior to 1970
##NAMES=1,2,3,4-tetrahydronaphthalene
TETRALIN
##CAS REGISTRY NO=119-64-2
##MOLFORM=C10 H12
##SOURCE REFERENCE=COBLENTZ NO. 4361
##$NIST SOURCE=COBLENTZ
##$NIST IMAGE=cob4361
##SPECTROMETER/DATA SYSTEM=PERKIN-ELMER 521 (GRATING)
##STATE=LIQUID (NEAT)
##PATH LENGTH=0.0025 CM
##SAMPLING PROCEDURE=TRANSMISSION
##RESOLUTION=4
##DATA PROCESSING=DIGITIZED BY NIST FROM HARD COPY
##XUNITS=1/CM
##YUNITS=TRANSMITTANCE
##XFACTOR=1.000000
##YFACTOR=1
##DELTAX=001.686747
##FIRSTX=597.831
##LASTX=3946.03
##FIRSTY=0.737
##MAXX=3946.03
##MINX=597.831
##MAXY=0.986
##MINY=0.035
##NPOINTS=1986
##XYDATA=(X++(Y..Y))
597.831000 0.7370 0.7370 0.7380 0.7380 0.7400
606.268985 0.7420 0.7420 0.7420 0.7440 0.7450
614.699000 0.7450 0.7490 0.7520 0.7570 0.7610
623.136985 0.7620 0.7660 0.7660 0.7670 0.7760
631.566000 0.7810 0.7830 0.7840 0.7860 0.7910
640.003985 0.7940 0.8010 0.8050 0.8110 0.8160
648.434000 0.8200 0.8230 0.8270 0.8300 0.8320
656.871985 0.8350 0.8400 0.8440 0.8490 0.8500
665.301000 0.8540 0.8550 0.8570 0.8570 0.8570
673.738985 0.8550 0.8540 0.8520 0.8500 0.8500
682.169000 0.8490 0.8490 0.8470 0.8450 0.8420
690.606985 0.8420 0.8400 0.8400 0.8380 0.8370
699.036000 0.8330 0.8280 0.8200 0.8110 0.8010
707.473985 0.7940 0.7790 0.7350 0.6940 0.6620
715.904000 0.6380 0.6130 0.5270 0.4380 0.3550
724.341985 0.2860 0.2150 0.0860 0.0450 0.0440
732.771000 0.0440 0.0440 0.0400 0.0350 0.0350
741.208985 0.0570 0.1610 0.2620 0.3440 0.4540
749.639000 0.5520 0.5770 0.5980 0.6770 0.7080
758.076985 0.7350 0.7590 0.7690 0.7960 0.8160
766.506000 0.8270 0.8320 0.8440 0.8440 0.8370
774.943985 0.8330 0.8320 0.8330 0.8570 0.8840
783.373000 0.8840 0.8830 0.8660 0.8540 0.7490
791.810985 0.6440 0.5610 0.4550 0.4350 0.4350
800.241000 0.5380 0.8130 0.8150 0.7380 0.6980
808.678985 0.6590 0.6590 0.7300 0.7980 0.8130
817.108000 0.8370 0.8690 0.8710 0.8810 0.8860
825.545985 0.8940 0.8980 0.9010 0.9030 0.9050
833.976000 0.9050 0.9050 0.9030 0.9030 0.8980
842.413985 0.8980 0.8880 0.8840 0.8790 0.8590
850.843000 0.8380 0.8050 0.7760 0.7540 0.7420
859.280985 0.7230 0.7230 0.7660 0.8520 0.8720
867.711000 0.8880 0.8930 0.8980 0.9010 0.9030
876.148985 0.9010 0.9000 0.8960 0.8910 0.8880
884.578000 0.8770 0.8640 0.8380 0.7930 0.7320
893.015985 0.7320 0.7770 0.8270 0.8520 0.8740
901.446000 0.8890 0.9030 0.9050 0.9060 0.9060
909.883985 0.9050 0.9050 0.9030 0.9000 0.8940
918.313000 0.8910 0.8830 0.8760 0.8690 0.8520
926.750985 0.8160 0.7940 0.7440 0.7280 0.6940
935.181000 0.6200 0.5470 0.5000 0.5000 0.6540
943.618985 0.7330 0.8000 0.8350 0.8660 0.8830
952.048000 0.8860 0.8890 0.8890 0.8890 0.8880
960.485985 0.8880 0.8880 0.8860 0.8830 0.8810
968.916000 0.8790 0.8720 0.8590 0.8500 0.8250
977.353985 0.7880 0.7570 0.6720 0.6720 0.8540
985.783000 0.8720 0.8910 0.8930 0.8910 0.8910
994.220985 0.8860 0.8790 0.8790 0.8860 0.8930
1002.651000 0.9010 0.9200 0.9200 0.9200 0.9180
1011.088985 0.9180 0.9180 0.9160 0.9100 0.9060
1019.518000 0.9030 0.9010 0.8980 0.8620 0.8060
1027.955985 0.7400 0.6610 0.6610 0.8030 0.8400
1036.385000 0.8660 0.8910 0.9100 0.9110 0.9110
1044.822985 0.9100 0.9100 0.9080 0.8980 0.8910
1053.253000 0.8830 0.8660 0.8270 0.7720 0.7030
1061.690985 0.7030 0.8060 0.8350 0.8620 0.8660
1070.120000 0.8640 0.8640 0.8670 0.8810 0.8940
1078.557985 0.8960 0.9010 0.9030 0.9030 0.9030
1086.988000 0.9010 0.9010 0.8980 0.8930 0.8860
1095.425985 0.8790 0.8150 0.7540 0.6880 0.6830
1103.855000 0.6130 0.6130 0.7250 0.7770 0.8330
1112.292985 0.8520 0.8710 0.8710 0.8690 0.8550
1120.723000 0.8540 0.8230 0.7910 0.7770 0.7770
1129.160985 0.7880 0.8250 0.8550 0.8610 0.8670
1137.590000 0.8670 0.8640 0.8540 0.8470 0.8330
1146.027985 0.8230 0.8230 0.8270 0.8370 0.8370
1154.458000 0.8400 0.8450 0.8540 0.8640 0.8710
1162.895985 0.8760 0.8770 0.8790 0.8830 0.8840
1171.325000 0.8860 0.8880 0.8880 0.8880 0.8840
1179.762985 0.8720 0.8660 0.8720 0.8770 0.8840
1188.193000 0.8910 0.8910 0.8890 0.8910 0.8910
1196.630985 0.8910 0.8940 0.8940 0.8890 0.8860
1205.060000 0.8880 0.8890 0.8930 0.9010 0.9030
1213.497985 0.9030 0.8980 0.8910 0.8910 0.8740
1221.928000 0.8610 0.8330 0.8010 0.7710 0.7590
1230.365985 0.7590 0.7660 0.7640 0.7570 0.7420
1238.795000 0.6980 0.6930 0.6960 0.7080 0.7400
1247.232985 0.7710 0.8330 0.8570 0.8690 0.8760
1255.663000 0.8760 0.8740 0.8720 0.8670 0.8640
1264.100985 0.8590 0.8570 0.8150 0.7720 0.7300
1272.530000 0.7100 0.6380 0.5610 0.5610 0.6380
1280.967985 0.6880 0.6880 0.6810 0.6810 0.6830
1289.398000 0.6890 0.7010 0.7490 0.7620 0.7890
1297.835985 0.8150 0.8400 0.8660 0.8690 0.8710
1306.265000 0.8720 0.8720 0.8720 0.8710 0.8670
1314.702985 0.8620 0.8550 0.8500 0.8440 0.8230
1323.133000 0.7930 0.7660 0.7620 0.7610 0.7620
1331.570985 0.7640 0.7660 0.7720 0.7760 0.8060
1340.000000 0.8060 0.6930 0.6330 0.6380 0.7000
1348.437985 0.7250 0.7670 0.8420 0.8470 0.8500
1356.867000 0.8520 0.8520 0.8540 0.8570 0.8660
1365.304985 0.8720 0.8770 0.8840 0.8860 0.8880
1373.735000 0.8890 0.8890 0.8890 0.8880 0.8860
1382.172985 0.8830 0.8810 0.8770 0.8740 0.8710
1390.602000 0.8670 0.8620 0.8550 0.8520 0.8500
1399.039985 0.8490 0.8490 0.8470 0.8440 0.8420
1407.470000 0.8300 0.8150 0.8050 0.8000 0.7610
1415.907985 0.5890 0.5130 0.5010 0.4570 0.3330
1424.337000 0.3000 0.2670 0.2370 0.2370 0.2660
1432.774985 0.2910 0.3860 0.3840 0.3110 0.2330
1441.205000 0.1740 0.1280 0.1280 0.1840 0.2640
1449.642985 0.3610 0.3620 0.4440 0.5250 0.6130
1458.072000 0.6150 0.6380 0.6640 0.6660 0.6660
1466.509985 0.6610 0.6230 0.6230 0.6640 0.6640
1474.940000 0.6450 0.5910 0.5370 0.4590 0.3620
1483.377985 0.3110 0.2520 0.2520 0.3500 0.5130
1491.807000 0.6610 0.7300 0.7320 0.7670 0.8030
1500.244985 0.8690 0.8740 0.8790 0.8890 0.8910
1508.675000 0.8940 0.9010 0.9130 0.9220 0.9220
1517.112985 0.9110 0.9080 0.9060 0.9050 0.9050
1525.542000 0.9060 0.9110 0.9150 0.9160 0.9180
1533.979985 0.9200 0.9200 0.9180 0.9160 0.9160
1542.410000 0.9150 0.9150 0.9150 0.9130 0.9100
1550.847985 0.9010 0.9000 0.8960 0.8940 0.8910
1559.277000 0.8790 0.8760 0.8710 0.8660 0.8320
1567.714985 0.7960 0.6640 0.6550 0.6220 0.6220
1576.145000 0.7060 0.7760 0.8220 0.8470 0.8550
1584.582985 0.8550 0.8490 0.8440 0.8320 0.7980
1593.012000 0.7590 0.6890 0.6890 0.7490 0.7980
1601.449985 0.8150 0.8230 0.8270 0.8450 0.8550
1609.880000 0.8760 0.8840 0.8910 0.8980 0.9100
1618.317985 0.9130 0.9160 0.9180 0.9220 0.9220
1626.747000 0.9220 0.9200 0.9180 0.9180 0.9180
1635.184985 0.9200 0.9200 0.9220 0.9230 0.9250
1643.614000 0.9270 0.9280 0.9300 0.9320 0.9320
1652.051985 0.9330 0.9330 0.9320 0.9300 0.9300
1660.482000 0.9280 0.9280 0.9250 0.9250 0.9220
1668.919985 0.9200 0.9150 0.9100 0.8980 0.8860
1677.349000 0.8740 0.8690 0.8740 0.8790 0.8810
1685.786985 0.8880 0.8940 0.9010 0.9080 0.9200
1694.217000 0.9250 0.9300 0.9330 0.9330 0.9330
1702.654985 0.9350 0.9350 0.9370 0.9370 0.9370
1711.084000 0.9350 0.9350 0.9330 0.9320 0.9300
1719.521985 0.9300 0.9280 0.9270 0.9250 0.9250
1727.952000 0.9270 0.9270 0.9300 0.9330 0.9350
1736.389985 0.9370 0.9380 0.9380 0.9370 0.9350
1744.819000 0.9350 0.9330 0.9320 0.9280 0.9250
1753.256985 0.9200 0.9160 0.9150 0.9160 0.9200
1761.687000 0.9250 0.9380 0.9380 0.9330 0.9300
1770.124985 0.9280 0.9270 0.9270 0.9250 0.9250
1778.554000 0.9230 0.9220 0.9220 0.9220 0.9220
1786.991985 0.9220 0.9200 0.9130 0.9050 0.8960
1795.422000 0.8910 0.8740 0.8490 0.8230 0.8200
1803.859985 0.8230 0.8370 0.8520 0.8610 0.8760
1812.289000 0.8960 0.9060 0.9100 0.9180 0.9180
1820.726985 0.9080 0.9050 0.8930 0.8910 0.8790
1829.157000 0.8790 0.8830 0.8840 0.8880 0.8980
1837.594985 0.9100 0.9160 0.9200 0.9270 0.9300
1846.024000 0.9330 0.9330 0.9350 0.9350 0.9350
1854.461985 0.9350 0.9350 0.9330 0.9320 0.9300
1862.891000 0.9300 0.9280 0.9280 0.9270 0.9270
1871.328985 0.9250 0.9250 0.9230 0.9230 0.9200
1879.759000 0.9180 0.9160 0.9160 0.9160 0.9160
1888.196985 0.9180 0.9180 0.9270 0.9270 0.9230
1896.626000 0.9230 0.9080 0.8840 0.8710 0.8570
1905.063985 0.8440 0.8350 0.8220 0.8180 0.8200
1913.494000 0.8270 0.8490 0.8640 0.8790 0.8930
1921.931985 0.9030 0.9010 0.8980 0.8930 0.8910
1930.361000 0.8760 0.8710 0.8690 0.8670 0.8640
1938.798985 0.8660 0.8740 0.8840 0.8940 0.9000
1947.229000 0.9030 0.9160 0.9230 0.9300 0.9350
1955.666985 0.9380 0.9440 0.9450 0.9490 0.9470
1964.096000 0.9450 0.9450 0.9450 0.9450 0.9490
1972.533985 0.9490 0.9490 0.9500 0.9520 0.9540
1980.964000 0.9570 0.9570 0.9570 0.9550 0.9500
1989.401985 0.9450 0.9450 0.9490 0.9500 0.9520
1997.831000 0.9520 0.9540 0.9540 0.9540 0.9520
2006.268985 0.9520 0.9520 0.9520 0.9540 0.9550
2014.699000 0.9570 0.9570 0.9590 0.9570 0.9570
2023.136985 0.9550 0.9550 0.9550 0.9570 0.9550
2031.566000 0.9550 0.9550 0.9550 0.9540 0.9540
2040.003985 0.9520 0.9520 0.9520 0.9520 0.9520
2048.434000 0.9540 0.9550 0.9550 0.9550 0.9540
2056.871985 0.9540 0.9540 0.9540 0.9570 0.9570
2065.301000 0.9590 0.9590 0.9590 0.9590 0.9590
2073.738985 0.9610 0.9610 0.9610 0.9610 0.9610
2082.169000 0.9620 0.9620 0.9640 0.9640 0.9620
2090.606985 0.9610 0.9610 0.9570 0.9550 0.9550
2099.036000 0.9570 0.9570 0.9590 0.9590 0.9590
2107.473985 0.9610 0.9620 0.9620 0.9640 0.9620
2115.904000 0.9620 0.9620 0.9620 0.9610 0.9610
2124.341985 0.9590 0.9590 0.9590 0.9570 0.9550
2132.771000 0.9550 0.9540 0.9540 0.9540 0.9540
2141.208985 0.9550 0.9550 0.9550 0.9550 0.9540
2149.638000 0.9520 0.9520 0.9500 0.9500 0.9520
2158.075985 0.9550 0.9550 0.9550 0.9570 0.9550
2166.506000 0.9550 0.9550 0.9550 0.9550 0.9550
2174.943985 0.9550 0.9550 0.9550 0.9550 0.9570
2183.374000 0.9610 0.9610 0.9570 0.9550 0.9540
2191.811985 0.9520 0.9500 0.9500 0.9500 0.9520
2200.241000 0.9520 0.9540 0.9540 0.9550 0.9550
2208.678985 0.9550 0.9540 0.9520 0.9500 0.9500
2217.108000 0.9520 0.9520 0.9520 0.9500 0.9490
2225.545985 0.9490 0.9490 0.9490 0.9470 0.9470
2233.976000 0.9450 0.9450 0.9490 0.9500 0.9500
2242.413985 0.9520 0.9500 0.9500 0.9500 0.9500
2250.843000 0.9500 0.9500 0.9500 0.9500 0.9450
2259.280985 0.9440 0.9440 0.9450 0.9450 0.9450
2267.711000 0.9450 0.9490 0.9500 0.9500 0.9500
2276.148985 0.9540 0.9550 0.9550 0.9550 0.9540
2284.578000 0.9540 0.9540 0.9540 0.9540 0.9540
2293.015985 0.9520 0.9520 0.9520 0.9520 0.9520
2301.446000 0.9500 0.9500 0.9450 0.9420 0.9380
2309.883985 0.9330 0.9280 0.9270 0.9270 0.9270
2318.313000 0.9280 0.9300 0.9320 0.9350 0.9380
2326.750985 0.9450 0.9490 0.9490 0.9490 0.9500
2335.181000 0.9500 0.9520 0.9540 0.9540 0.9550
2343.618985 0.9550 0.9550 0.9550 0.9550 0.9550
2352.048000 0.9550 0.9550 0.9550 0.9550 0.9550
2360.485985 0.9550 0.9550 0.9550 0.9550 0.9550
2368.916000 0.9540 0.9520 0.9520 0.9520 0.9500
2377.353985 0.9500 0.9500 0.9500 0.9500 0.9500
2385.783000 0.9500 0.9500 0.9490 0.9490 0.9470
2394.220985 0.9470 0.9470 0.9450 0.9450 0.9450
2402.651000 0.9450 0.9450 0.9490 0.9500 0.9520
2411.088985 0.9520 0.9520 0.9520 0.9520 0.9540
2419.518000 0.9540 0.9540 0.9540 0.9520 0.9500
2427.955985 0.9490 0.9500 0.9520 0.9540 0.9540
2436.385000 0.9520 0.9520 0.9520 0.9520 0.9500
2444.822985 0.9490 0.9450 0.9440 0.9450 0.9500
2453.253000 0.9520 0.9520 0.9520 0.9520 0.9520
2461.690985 0.9520 0.9520 0.9520 0.9500 0.9500
2470.120000 0.9500 0.9520 0.9540 0.9540 0.9540
2478.557985 0.9540 0.9540 0.9550 0.9550 0.9540
2486.988000 0.9520 0.9520 0.9500 0.9490 0.9490
2495.425985 0.9490 0.9490 0.9490 0.9490 0.9490
2503.855000 0.9490 0.9500 0.9500 0.9500 0.9490
2512.292985 0.9400 0.9400 0.9450 0.9490 0.9500
2520.723000 0.9520 0.9520 0.9500 0.9500 0.9500
2529.160985 0.9500 0.9500 0.9500 0.9520 0.9550
2537.590000 0.9570 0.9570 0.9550 0.9550 0.9570
2546.027985 0.9570 0.9570 0.9570 0.9540 0.9520
2554.458000 0.9500 0.9470 0.9450 0.9440 0.9420
2562.895985 0.9420 0.9400 0.9420 0.9420 0.9420
2571.325000 0.9440 0.9440 0.9370 0.9320 0.9280
2579.762985 0.9220 0.9200 0.9200 0.9200 0.9220
2588.193000 0.9230 0.9320 0.9380 0.9420 0.9420
2596.630985 0.9400 0.9400 0.9400 0.9420 0.9420
2605.060000 0.9420 0.9420 0.9400 0.9380 0.9370
2613.497985 0.9350 0.9330 0.9330 0.9320 0.9300
2621.928000 0.9280 0.9280 0.9280 0.9270 0.9230
2630.365985 0.9220 0.9220 0.9230 0.9270 0.9330
2638.795000 0.9330 0.9320 0.9280 0.9200 0.9150
2647.232985 0.9100 0.8940 0.8770 0.8620 0.8520
2655.663000 0.8450 0.8440 0.8440 0.8440 0.8450
2664.100985 0.8470 0.8490 0.8500 0.8570 0.8620
2672.530000 0.8660 0.8740 0.8770 0.8810 0.8840
2680.967985 0.8910 0.8960 0.9030 0.9080 0.9100
2689.397000 0.9110 0.9130 0.9230 0.9280 0.9300
2697.834985 0.9300 0.9320 0.9330 0.9350 0.9370
2706.265000 0.9380 0.9380 0.9400 0.9440 0.9440
2714.702985 0.9450 0.9450 0.9450 0.9450 0.9440
2723.133000 0.9440 0.9420 0.9420 0.9400 0.9380
2731.570985 0.9380 0.9370 0.9330 0.9330 0.9330
2740.000000 0.9320 0.9320 0.9300 0.9300 0.9300
2748.437985 0.9300 0.9270 0.9250 0.9220 0.9180
2756.867000 0.9130 0.9060 0.8980 0.8940 0.8910
2765.304985 0.8860 0.8830 0.8790 0.8710 0.8660
2773.735000 0.8620 0.8590 0.8550 0.8520 0.8490
2782.172985 0.8440 0.8370 0.8250 0.8110 0.8030
2790.602000 0.7980 0.7960 0.7940 0.7930 0.7840
2799.039985 0.7720 0.7500 0.7370 0.7270 0.7270
2807.470000 0.7300 0.7350 0.7380 0.7400 0.7400
2815.907985 0.7300 0.7110 0.7000 0.6500 0.6100
2824.337000 0.5550 0.5030 0.4250 0.3830 0.3230
2832.774985 0.2550 0.1830 0.1570 0.1320 0.1060
2841.205000 0.1060 0.1490 0.1710 0.2280 0.2270
2849.642985 0.2030 0.1790 0.1200 0.0910 0.0790
2858.072000 0.0770 0.0790 0.0980 0.1060 0.1130
2866.509985 0.2110 0.2200 0.2270 0.2230 0.2200
2874.940000 0.2150 0.2000 0.1790 0.1590 0.1380
2883.377985 0.1380 0.1440 0.1570 0.1640 0.1720
2891.807000 0.1760 0.1760 0.1660 0.1590 0.1500
2900.244985 0.1420 0.1320 0.1270 0.1150 0.0790
2908.675000 0.0690 0.0520 0.0490 0.0440 0.0420
2917.112985 0.0420 0.0420 0.0420 0.0400 0.0400
2925.542000 0.0400 0.0400 0.0400 0.0400 0.0400
2933.979985 0.0420 0.0420 0.0440 0.0440 0.0450
2942.410000 0.0470 0.0490 0.0520 0.0710 0.1000
2950.847985 0.1270 0.1540 0.2080 0.2370 0.2670
2959.277000 0.3160 0.3790 0.4300 0.4670 0.5030
2967.714985 0.5440 0.5740 0.6100 0.6440 0.6520
2976.145000 0.6790 0.6830 0.6890 0.6910 0.6940
2984.582985 0.6940 0.6910 0.6860 0.6670 0.6490
2993.012000 0.6230 0.5940 0.5640 0.5330 0.5110
3001.449985 0.4980 0.4940 0.4840 0.4720 0.4370
3009.879000 0.4080 0.3450 0.2880 0.2380 0.2000
3018.316985 0.2000 0.3110 0.3220 0.3370 0.3540
3026.747000 0.3810 0.4270 0.4660 0.4830 0.5080
3035.184985 0.5080 0.5010 0.4810 0.4690 0.4690
3043.615000 0.5030 0.5350 0.5620 0.5620 0.5320
3052.052985 0.4880 0.4660 0.4280 0.3880 0.3500
3060.482000 0.3500 0.3610 0.4160 0.4690 0.5030
3068.919985 0.5220 0.5220 0.5130 0.5030 0.5030
3077.349000 0.5110 0.5940 0.6760 0.7420 0.7660
3085.786985 0.7940 0.8100 0.8220 0.8300 0.8300
3094.217000 0.8150 0.7910 0.7770 0.7770 0.8060
3102.654985 0.8180 0.8470 0.8910 0.9080 0.9130
3111.084000 0.9200 0.9230 0.9270 0.9300 0.9320
3119.521985 0.9350 0.9350 0.9350 0.9370 0.9380
3127.952000 0.9420 0.9440 0.9470 0.9470 0.9470
3136.389985 0.9470 0.9470 0.9470 0.9450 0.9440
3144.819000 0.9440 0.9420 0.9380 0.9350 0.9330
3153.256985 0.9330 0.9350 0.9370 0.9400 0.9450
3161.687000 0.9470 0.9500 0.9520 0.9540 0.9550
3170.124985 0.9570 0.9570 0.9570 0.9590 0.9590
3178.554000 0.9590 0.9590 0.9610 0.9610 0.9610
3186.991985 0.9610 0.9610 0.9590 0.9570 0.9570
3195.422000 0.9570 0.9570 0.9570 0.9570 0.9590
3203.859985 0.9590 0.9590 0.9610 0.9610 0.9610
3212.289000 0.9590 0.9590 0.9610 0.9610 0.9610
3220.726985 0.9610 0.9610 0.9610 0.9610 0.9610
3229.156000 0.9610 0.9610 0.9620 0.9620 0.9620
3237.593985 0.9610 0.9610 0.9620 0.9640 0.9640
3246.024000 0.9640 0.9640 0.9640 0.9640 0.9640
3254.461985 0.9640 0.9640 0.9640 0.9640 0.9660
3262.892000 0.9670 0.9670 0.9670 0.9670 0.9690
3271.329985 0.9690 0.9690 0.9690 0.9670 0.9670
3279.759000 0.9670 0.9690 0.9690 0.9690 0.9690
3288.196985 0.9690 0.9690 0.9710 0.9710 0.9710
3296.626000 0.9710 0.9710 0.9690 0.9690 0.9670
3305.063985 0.9670 0.9670 0.9660 0.9660 0.9660
3313.494000 0.9660 0.9640 0.9640 0.9640 0.9640
3321.931985 0.9670 0.9670 0.9670 0.9670 0.9670
3330.361000 0.9670 0.9670 0.9660 0.9660 0.9660
3338.798985 0.9660 0.9660 0.9660 0.9640 0.9640
3347.229000 0.9640 0.9640 0.9620 0.9620 0.9620
3355.666985 0.9610 0.9610 0.9610 0.9610 0.9610
3364.096000 0.9610 0.9620 0.9620 0.9640 0.9640
3372.533985 0.9640 0.9640 0.9640 0.9640 0.9640
3380.964000 0.9640 0.9640 0.9620 0.9620 0.9620
3389.401985 0.9620 0.9640 0.9660 0.9660 0.9660
3397.831000 0.9660 0.9670 0.9670 0.9670 0.9690
3406.268985 0.9690 0.9690 0.9690 0.9690 0.9690
3414.699000 0.9690 0.9690 0.9670 0.9660 0.9660
3423.136985 0.9660 0.9670 0.9670 0.9670 0.9670
3431.566000 0.9670 0.9670 0.9670 0.9670 0.9660
3440.003985 0.9660 0.9660 0.9660 0.9660 0.9640
3448.434000 0.9620 0.9620 0.9610 0.9590 0.9590
3456.871985 0.9590 0.9590 0.9550 0.9550 0.9520
3465.301000 0.9500 0.9490 0.9490 0.9470 0.9470
3473.738985 0.9450 0.9450 0.9440 0.9440 0.9420
3482.169000 0.9420 0.9400 0.9400 0.9380 0.9380
3490.606985 0.9380 0.9380 0.9400 0.9420 0.9440
3499.036000 0.9450 0.9490 0.9520 0.9540 0.9540
3507.473985 0.9550 0.9550 0.9590 0.9610 0.9620
3515.904000 0.9640 0.9640 0.9640 0.9640 0.9660
3524.341985 0.9670 0.9690 0.9710 0.9710 0.9710
3532.771000 0.9710 0.9710 0.9710 0.9710 0.9710
3541.208985 0.9710 0.9710 0.9720 0.9740 0.9740
3549.638000 0.9760 0.9770 0.9770 0.9770 0.9770
3558.075985 0.9770 0.9770 0.9770 0.9770 0.9770
3566.506000 0.9770 0.9790 0.9790 0.9790 0.9790
3574.943985 0.9790 0.9810 0.9810 0.9810 0.9810
3583.374000 0.9790 0.9790 0.9770 0.9760 0.9760
3591.811985 0.9760 0.9760 0.9760 0.9740 0.9740
3600.241000 0.9740 0.9740 0.9760 0.9770 0.9770
3608.678985 0.9770 0.9770 0.9810 0.9810 0.9830
3617.108000 0.9830 0.9840 0.9810 0.9810 0.9810
3625.545985 0.9810 0.9830 0.9830 0.9830 0.9810
3633.976000 0.9790 0.9770 0.9770 0.9760 0.9760
3642.413985 0.9760 0.9770 0.9770 0.9790 0.9810
3650.843000 0.9810 0.9810 0.9810 0.9810 0.9830
3659.280985 0.9840 0.9840 0.9840 0.9840 0.9840
3667.711000 0.9840 0.9840 0.9840 0.9840 0.9830
3676.148985 0.9830 0.9830 0.9840 0.9860 0.9830
3684.578000 0.9830 0.9830 0.9840 0.9840 0.9840
3693.015985 0.9840 0.9840 0.9840 0.9830 0.9790
3701.446000 0.9770 0.9760 0.9760 0.9760 0.9760
3709.883985 0.9720 0.9720 0.9720 0.9720 0.9720
3718.313000 0.9720 0.9720 0.9720 0.9720 0.9720
3726.750985 0.9720 0.9720 0.9720 0.9720 0.9720
3735.181000 0.9720 0.9720 0.9720 0.9720 0.9740
3743.618985 0.9740 0.9740 0.9740 0.9740 0.9770
3752.048000 0.9770 0.9770 0.9760 0.9760 0.9760
3760.485985 0.9740 0.9740 0.9740 0.9740 0.9720
3768.916000 0.9720 0.9690 0.9690 0.9690 0.9690
3777.353985 0.9670 0.9670 0.9670 0.9670 0.9670
3785.783000 0.9670 0.9660 0.9660 0.9640 0.9640
3794.220985 0.9640 0.9620 0.9610 0.9610 0.9610
3802.651000 0.9610 0.9610 0.9620 0.9620 0.9620
3811.088985 0.9620 0.9620 0.9640 0.9640 0.9640
3819.518000 0.9640 0.9640 0.9620 0.9620 0.9610
3827.955985 0.9610 0.9640 0.9690 0.9710 0.9710
3836.385000 0.9690 0.9670 0.9640 0.9620 0.9590
3844.822985 0.9620 0.9660 0.9660 0.9590 0.9550
3853.253000 0.9540 0.9520 0.9520 0.9520 0.9520
3861.690985 0.9540 0.9540 0.9550 0.9570 0.9590
3870.120000 0.9620 0.9640 0.9660 0.9660 0.9670
3878.557985 0.9710 0.9720 0.9760 0.9770 0.9770
3886.988000 0.9770 0.9770 0.9770 0.9770 0.9760
3895.425985 0.9760 0.9760 0.9760 0.9740 0.9720
3903.855000 0.9720 0.9720 0.9710 0.9710 0.9710
3912.292985 0.9690 0.9690 0.9690 0.9690 0.9690
3920.723000 0.9690 0.9690 0.9710 0.9710 0.9710
3929.160985 0.9710 0.9710 0.9690 0.9710 0.9710
3937.590000 0.9710 0.9710 0.9710 0.9710 0.9710
3946.027985 0.9710
##END=
