##TITLE=TETRAHYDRONAPHTHALENE
##JCAMP-DX=4.24
##DATA TYPE=INFRARED SPECTRUM
##CLASS=COBLENTZ
##ORIGIN=DOW CORNING CORP.
##OWNER=COBLENTZ SOCIETY
Collection (C) 2018 copyright by the U.S. Secretary of Commerce
on behalf of the United States of America. All rights reserved.
##DATE=Not specified, most likely prior to 1970
##NAMES=1,2,3,4-tetrahydronaphthalene
##CAS REGISTRY NO=119-64-2
##MOLFORM=C10 H12
##SOURCE REFERENCE=COBLENTZ NO. 4776
##$NIST SOURCE=COBLENTZ
##$NIST IMAGE=cob4776
##SPECTROMETER/DATA SYSTEM=Not specified, most likely a grating or hybrid spectrometer.
##STATE=SOLUTION (10% IN CCl4 FOR 3800-1300, 10% IN CS2 FOR 1300-650, AND 10% CCl4 FOR 650-240 CM^-^1) VERSUS SOLVENT
##PATH LENGTH=0.011, 0.010, AND 0.010 CM (CsBr CELL)
$$ 95% PURE
##SAMPLING PROCEDURE=TRANSMISSION
##RESOLUTION=4
##DATA PROCESSING=DIGITIZED BY NIST FROM HARD COPY (FROM TWO SEGMENTS)
##XUNITS=1/CM
##YUNITS=TRANSMITTANCE
##XFACTOR=1.000000
##YFACTOR=1
##DELTAX=1.277503
##FIRSTX=235.77
##LASTX=3794.89
##FIRSTY=0.816
##MAXX=3794.89
##MINX=235.77
##MAXY=0.982
##MINY=0.022
##NPOINTS=2787
##XYDATA=(X++(Y..Y))
235.770000 0.8160 0.8160 0.8160 0.8160 0.8160
242.157514 0.8160 0.8160 0.8140 0.8140 0.8140
248.545028 0.8140 0.8140 0.8140 0.8140 0.8140
254.932543 0.8140 0.8140 0.8140 0.8160 0.8160
261.320057 0.8160 0.8180 0.8180 0.8190 0.8190
267.707571 0.8210 0.8210 0.8240 0.8260 0.8300
274.095085 0.8310 0.8310 0.8310 0.8310 0.8330
280.482600 0.8330 0.8350 0.8350 0.8370 0.8370
286.870114 0.8370 0.8370 0.8380 0.8380 0.8380
293.257628 0.8380 0.8380 0.8380 0.8380 0.8400
299.645142 0.8400 0.8400 0.8400 0.8400 0.8420
306.032656 0.8420 0.8440 0.8450 0.8470 0.8490
312.420171 0.8500 0.8520 0.8540 0.8560 0.8560
318.807685 0.8570 0.8590 0.8630 0.8630 0.8640
325.195199 0.8640 0.8660 0.8660 0.8700 0.8700
331.582713 0.8710 0.8710 0.8730 0.8750 0.8750
337.970228 0.8760 0.8760 0.8760 0.8760 0.8760
344.357742 0.8760 0.8780 0.8800 0.8820 0.8820
350.745256 0.8820 0.8820 0.8830 0.8830 0.8850
357.132770 0.8850 0.8870 0.8870 0.8870 0.8870
363.520284 0.8870 0.8870 0.8890 0.8890 0.8900
369.907799 0.8900 0.8900 0.8900 0.8920 0.8920
376.295313 0.8920 0.8920 0.8940 0.8940 0.8960
382.682827 0.8960 0.8970 0.8970 0.8970 0.9010
389.070341 0.9020 0.9040 0.9060 0.9060 0.9080
395.457855 0.9090 0.9110 0.9110 0.9110 0.9110
401.845370 0.9080 0.9060 0.9020 0.9010 0.8970
408.232884 0.8940 0.8920 0.8900 0.8900 0.8900
414.620398 0.8890 0.8870 0.8830 0.8830 0.8800
421.007912 0.8780 0.8750 0.8700 0.8660 0.8541
427.395427 0.8500 0.8350 0.8190 0.7980 0.7790
433.782941 0.7591 0.7291 0.7081 0.6911 0.6910
440.170455 0.6960 0.7140 0.7400 0.7600 0.7949
446.557969 0.8229 0.8350 0.8559 0.8709 0.8819
452.945483 0.8890 0.8900 0.8920 0.8960 0.8970
459.332998 0.9010 0.9040 0.9110 0.9110 0.9130
465.720512 0.9150 0.9160 0.9180 0.9180 0.9200
472.108026 0.9180 0.9150 0.9080 0.9020 0.8990
478.495540 0.8940 0.8990 0.9020 0.9060 0.9080
484.883055 0.9110 0.9180 0.9200 0.9230 0.9270
491.270569 0.9340 0.9340 0.9350 0.9370 0.9390
497.658083 0.9390 0.9390 0.9370 0.9350 0.9350
504.045597 0.9340 0.9340 0.9320 0.9320 0.9340
510.433111 0.9340 0.9320 0.9320 0.9320 0.9280
516.820626 0.9270 0.9270 0.9270 0.9270 0.9280
523.208140 0.9280 0.9280 0.9320 0.9300 0.9320
529.595654 0.9340 0.9320 0.9280 0.9250 0.9230
535.983168 0.9230 0.9230 0.9230 0.9230 0.9220
542.370683 0.9200 0.9150 0.9130 0.9110 0.9110
548.758197 0.9080 0.9040 0.8990 0.8970 0.8940
555.145711 0.8940 0.8960 0.9010 0.9040 0.9110
561.533225 0.9150 0.9180 0.9180 0.9180 0.9200
567.920739 0.9200 0.9180 0.9180 0.9180 0.9180
574.308254 0.9180 0.9180 0.9160 0.9160 0.9150
580.695768 0.9150 0.9130 0.9110 0.9110 0.9090
587.083282 0.9080 0.9090 0.9110 0.9150 0.9220
593.470796 0.9220 0.9250 0.9270 0.9320 0.9340
599.858311 0.9350 0.9370 0.9370 0.9390 0.9370
606.245825 0.9350 0.9350 0.9320 0.9300 0.9300
612.633339 0.9320 0.9320 0.9340 0.9350 0.9350
619.020853 0.9370 0.9390 0.9560 0.9610 0.9670
625.408367 0.9680 0.9680 0.9700 0.9700 0.9700
631.795882 0.9700 0.9700 0.9700 0.9700 0.9700
638.183396 0.9700 0.9680 0.9680 0.9670 0.9670
644.570910 0.9670 0.9670 0.9670 0.9650 0.9600
650.958424 0.9530 0.9490 0.9480 0.9480 0.9480
657.345939 0.9490 0.9510 0.9540 0.9630 0.9700
663.733453 0.9720 0.9720 0.9750 0.9770 0.9820
670.120967 0.9820 0.9820 0.9820 0.9820 0.9820
676.508481 0.9820 0.9820 0.9820 0.9800 0.9790
682.895995 0.9790 0.9790 0.9800 0.9800 0.9800
689.283510 0.9800 0.9800 0.9790 0.9790 0.9790
695.671024 0.9770 0.9750 0.9740 0.9740 0.9740
702.058538 0.9770 0.9770 0.9790 0.9790 0.9800
708.446052 0.9800 0.9800 0.9790 0.9770 0.9770
714.833566 0.9680 0.9650 0.9630 0.9610 0.9511
721.221081 0.9440 0.9280 0.9160 0.9060 0.8920
727.608595 0.8731 0.8630 0.8521 0.8351 0.8092
733.996109 0.7780 0.7400 0.6911 0.6321 0.5582
740.383623 0.4813 0.4223 0.3573 0.2098 0.1245
746.771138 0.0390 0.0220 0.0220 0.0390 0.1048
753.158652 0.1917 0.3025 0.4214 0.5552 0.6265
759.546166 0.6860 0.6940 0.6910 0.6511 0.6321
765.933680 0.6320 0.6718 0.6820 0.7357 0.8016
772.321194 0.8190 0.8420 0.8520 0.8560 0.8610
778.708709 0.8819 0.9159 0.9200 0.9180 0.9130
785.096223 0.8540 0.8540 0.9129 0.9280 0.9420
791.483737 0.9540 0.9669 0.9650 0.9630 0.9610
797.871251 0.9600 0.9510 0.9390 0.9270 0.9130
804.258766 0.8921 0.8681 0.8192 0.7345 0.6018
810.646280 0.6010 0.8299 0.9039 0.9080 0.9110
817.033794 0.9110 0.8871 0.8591 0.8560 0.8729
823.421308 0.9160 0.9320 0.9370 0.9460 0.9480
829.808822 0.9480 0.9490 0.9490 0.9480 0.9460
836.196337 0.9440 0.9420 0.9440 0.9460 0.9480
842.583851 0.9480 0.9490 0.9490 0.9510 0.9510
848.971365 0.9490 0.9460 0.9440 0.9410 0.9410
855.358879 0.9390 0.9350 0.9250 0.9180 0.9130
861.746394 0.9020 0.8920 0.8830 0.8750 0.8730
868.133908 0.8750 0.8850 0.8959 0.9149 0.9349
874.521422 0.9420 0.9490 0.9530 0.9540 0.9540
880.908936 0.9540 0.9540 0.9540 0.9540 0.9540
887.296450 0.9510 0.9480 0.9480 0.9460 0.9440
893.683965 0.9410 0.9350 0.9250 0.9160 0.9150
900.071479 0.9010 0.8820 0.8820 0.9129 0.9180
906.458993 0.9220 0.9230 0.9270 0.9340 0.9370
912.846507 0.9390 0.9390 0.9410 0.9440 0.9460
919.234022 0.9490 0.9510 0.9510 0.9510 0.9510
925.621536 0.9510 0.9490 0.9490 0.9460 0.9420
932.009050 0.9370 0.9320 0.9220 0.9130 0.9060
938.396564 0.8960 0.8730 0.8540 0.8500 0.8500
944.784078 0.8311 0.7922 0.7084 0.6185 0.6180
951.171593 0.8110 0.8540 0.8870 0.8900 0.8900
957.559107 0.8890 0.8850 0.8830 0.8830 0.8850
963.946621 0.8890 0.8960 0.9010 0.9060 0.9110
970.334135 0.9230 0.9270 0.9300 0.9300 0.9320
976.721649 0.9320 0.9300 0.9300 0.9280 0.9270
983.109164 0.9220 0.9150 0.8921 0.8562 0.8560
989.496678 0.8850 0.8870 0.9160 0.9160 0.9150
995.884192 0.9130 0.9080 0.9060 0.9040 0.9040
1002.271706 0.9080 0.9090 0.9090 0.9090 0.9090
1008.659221 0.9110 0.9130 0.9249 0.9409 0.9440
1015.046735 0.9480 0.9490 0.9490 0.9480 0.9440
1021.434249 0.9390 0.9270 0.9250 0.9180 0.9110
1027.821763 0.9040 0.9010 0.8960 0.8920 0.8850
1034.209277 0.8760 0.8630 0.8471 0.7933 0.7642
1040.596792 0.7640 0.8310 0.9089 0.9250 0.9300
1046.984306 0.9440 0.9460 0.9460 0.9460 0.9410
1053.371820 0.9390 0.9370 0.9350 0.9270 0.9180
1059.759334 0.9150 0.9080 0.8990 0.8900 0.8711
1066.146849 0.8520 0.8260 0.7780 0.7780 0.7920
1072.534363 0.8369 0.8629 0.8749 0.8919 0.9019
1078.921877 0.9110 0.9280 0.9340 0.9420 0.9420
1085.309391 0.9460 0.9510 0.9540 0.9560 0.9560
1091.696905 0.9580 0.9600 0.9600 0.9610 0.9610
1098.084420 0.9610 0.9600 0.9580 0.9560 0.9530
1104.471934 0.9460 0.9370 0.9220 0.9130 0.8871
1110.859448 0.8491 0.8191 0.8190 0.8299 0.8559
1117.246962 0.8750 0.8970 0.9160 0.9350 0.9390
1123.634477 0.9410 0.9420 0.9420 0.9370 0.9340
1130.021991 0.9230 0.9110 0.9040 0.9020 0.9010
1136.409505 0.9020 0.9130 0.9249 0.9320 0.9320
1142.797019 0.9320 0.9270 0.9250 0.9220 0.9200
1149.184533 0.9110 0.9020 0.8940 0.8870 0.8820
1155.572048 0.8800 0.8820 0.8850 0.8960 0.9060
1161.959562 0.9090 0.9130 0.9130 0.9150 0.9180
1168.347076 0.9220 0.9230 0.9250 0.9250 0.9250
1174.734590 0.9250 0.9250 0.9250 0.9230 0.9220
1181.122105 0.9220 0.9200 0.9200 0.9180 0.9180
1187.509619 0.9180 0.9160 0.9160 0.9160 0.9160
1193.897133 0.9160 0.9160 0.9160 0.9160 0.9160
1200.284647 0.9160 0.9180 0.9180 0.9180 0.9180
1206.672161 0.9180 0.9200 0.9230 0.9230 0.9280
1213.059676 0.9300 0.9320 0.9300 0.9280 0.9250
1219.447190 0.9230 0.9200 0.9130 0.9020 0.8960
1225.834704 0.8920 0.8900 0.8870 0.8820 0.8760
1232.222218 0.8640 0.8610 0.8570 0.8560 0.8540
1238.609733 0.8520 0.8520 0.8500 0.8470 0.8440
1244.997247 0.8330 0.8240 0.8210 0.8240 0.8350
1251.384761 0.8490 0.8610 0.8640 0.8968 0.9040
1257.772275 0.9080 0.9090 0.9130 0.9130 0.9110
1264.159789 0.9090 0.9020 0.8970 0.8920 0.8890
1270.547304 0.8800 0.8780 0.8700 0.8590 0.8540
1276.934818 0.8520 0.8440 0.8370 0.8042 0.7603
1283.322332 0.6940 0.6940 0.7240 0.7260 0.7569
1289.709846 0.7620 0.7640 0.7660 0.7670 0.7670
1296.097360 0.7670 0.7660 0.7660 0.7640 0.7460
1302.484875 0.7271 0.7270 0.7379 0.7450 0.7589
1308.872389 0.7620 0.7690 0.7760 0.7760 0.7760
1315.259903 0.7760 0.7740 0.7710 0.7670 0.7640
1321.647417 0.7590 0.7570 0.7460 0.7430 0.7410
1328.034932 0.7430 0.7500 0.7530 0.7550 0.7570
1334.422446 0.7590 0.7530 0.7590 0.7620 0.7640
1340.809960 0.7550 0.7500 0.7520 0.7590 0.7660
1347.197474 0.7670 0.7670 0.7640 0.7530 0.7400
1353.584988 0.7340 0.7081 0.6702 0.6700 0.7217
1359.972503 0.7860 0.8140 0.8160 0.8160 0.8160
1366.360017 0.8180 0.8190 0.8210 0.8230 0.8240
1372.747531 0.8260 0.8260 0.8280 0.8280 0.8310
1379.135045 0.8330 0.8350 0.8370 0.8380 0.8380
1385.522560 0.8400 0.8420 0.8420 0.8420 0.8420
1391.910074 0.8440 0.8440 0.8440 0.8440 0.8440
1398.297588 0.8420 0.8420 0.8400 0.8380 0.8380
1404.685102 0.8370 0.8350 0.8310 0.8310 0.8300
1411.072616 0.8300 0.8280 0.8260 0.8260 0.8240
1417.460131 0.8240 0.8230 0.8210 0.8190 0.8160
1423.847645 0.8140 0.8120 0.7980 0.7860 0.7760
1430.235159 0.7531 0.7271 0.6942 0.6701 0.6461
1436.622673 0.5490 0.4570 0.4290 0.3961 0.3391
1443.010188 0.3390 0.4446 0.5465 0.5470 0.5400
1449.397702 0.5060 0.4290 0.3631 0.3410 0.3181
1455.785216 0.2981 0.2751 0.2531 0.2530 0.3196
1462.172730 0.3890 0.4670 0.5939 0.6819 0.7259
1468.560244 0.7429 0.7460 0.7430 0.7380 0.7241
1474.947759 0.7190 0.7190 0.7240 0.7290 0.7410
1481.335273 0.7450 0.7430 0.7410 0.7311 0.7121
1487.722787 0.7000 0.6860 0.6360 0.5821 0.5371
1494.110301 0.4881 0.4173 0.1034 0.1020 0.3674
1500.497816 0.5781 0.6880 0.7549 0.8189 0.8330
1506.885330 0.8420 0.8540 0.8570 0.8610 0.8680
1513.272844 0.8730 0.8730 0.8800 0.8820 0.8820
1519.660358 0.8820 0.8820 0.8830 0.8830 0.8830
1526.047872 0.8830 0.8850 0.8850 0.8870 0.8870
1532.435387 0.8890 0.8890 0.8900 0.8900 0.8900
1538.822901 0.8920 0.8920 0.8920 0.8920 0.8920
1545.210415 0.8920 0.8920 0.8920 0.8920 0.8900
1551.597929 0.8900 0.8900 0.8890 0.8890 0.8870
1557.985443 0.8870 0.8850 0.8830 0.8830 0.8830
1564.372958 0.8820 0.8780 0.8730 0.8710 0.8680
1570.760472 0.8640 0.8590 0.8500 0.8400 0.8311
1577.147986 0.8160 0.7980 0.7860 0.7660 0.7411
1583.535500 0.7430 0.7709 0.7879 0.8308 0.8350
1589.923015 0.8350 0.8310 0.8300 0.8230 0.8160
1596.310529 0.8110 0.8040 0.7921 0.7781 0.7641
1602.698043 0.7460 0.7310 0.7330 0.7520 0.7640
1609.085557 0.7760 0.7919 0.7970 0.8139 0.8229
1615.473071 0.8330 0.8440 0.8540 0.8590 0.8630
1621.860586 0.8660 0.8700 0.8700 0.8710 0.8730
1628.248100 0.8730 0.8750 0.8750 0.8750 0.8750
1634.635614 0.8750 0.8750 0.8730 0.8730 0.8730
1641.023128 0.8750 0.8750 0.8750 0.8750 0.8750
1647.410643 0.8750 0.8750 0.8760 0.8760 0.8750
1653.798157 0.8750 0.8730 0.8730 0.8710 0.8710
1660.185671 0.8700 0.8680 0.8660 0.8640 0.8630
1666.573185 0.8610 0.8590 0.8560 0.8520 0.8420
1672.960699 0.8330 0.8310 0.8190 0.8120 0.8090
1679.348214 0.8000 0.7930 0.7740 0.7550 0.7430
1685.735728 0.7260 0.7031 0.6721 0.6700 0.6720
1692.123242 0.6840 0.6890 0.6930 0.7070 0.7120
1698.510756 0.7240 0.7569 0.7809 0.8039 0.8159
1704.898271 0.8350 0.8440 0.8540 0.8560 0.8590
1711.285785 0.8610 0.8630 0.8630 0.8630 0.8640
1717.673299 0.8640 0.8660 0.8680 0.8680 0.8680
1724.060813 0.8700 0.8700 0.8700 0.8700 0.8700
1730.448327 0.8700 0.8710 0.8710 0.8710 0.8710
1736.835842 0.8730 0.8750 0.8760 0.8760 0.8760
1743.223356 0.8780 0.8780 0.8800 0.8800 0.8800
1749.610870 0.8800 0.8820 0.8800 0.8800 0.8800
1755.998384 0.8800 0.8800 0.8800 0.8800 0.8780
1762.385899 0.8780 0.8780 0.8780 0.8780 0.8780
1768.773413 0.8780 0.8780 0.8800 0.8800 0.8800
1775.160927 0.8800 0.8800 0.8800 0.8800 0.8800
1781.548441 0.8780 0.8780 0.8800 0.8780 0.8780
1787.935955 0.8780 0.8780 0.8780 0.8760 0.8760
1794.323470 0.8760 0.8760 0.8760 0.8750 0.8730
1800.710984 0.8730 0.8700 0.8660 0.8630 0.8540
1807.098498 0.8450 0.8440 0.8370 0.8300 0.8260
1813.486012 0.8260 0.8330 0.8559 0.8610 0.8640
1819.873527 0.8700 0.8710 0.8730 0.8750 0.8750
1826.261041 0.8760 0.8760 0.8760 0.8750 0.8750
1832.648555 0.8700 0.8700 0.8610 0.8590 0.8590
1839.036069 0.8590 0.8610 0.8660 0.8700 0.8710
1845.423583 0.8710 0.8730 0.8750 0.8760 0.8800
1851.811098 0.8830 0.8850 0.8850 0.8870 0.8870
1858.198612 0.8850 0.8850 0.8850 0.8830 0.8830
1864.586126 0.8820 0.8820 0.8800 0.8800 0.8780
1870.973640 0.8750 0.8750 0.8730 0.8730 0.8730
1877.361154 0.8750 0.8760 0.8760 0.8780 0.8800
1883.748669 0.8800 0.8800 0.8800 0.8800 0.8780
1890.136183 0.8780 0.8760 0.8760 0.8760 0.8780
1896.523697 0.8780 0.8800 0.8800 0.8800 0.8820
1902.911211 0.8830 0.8830 0.8820 0.8820 0.8800
1909.298726 0.8760 0.8710 0.8660 0.8570 0.8490
1915.686240 0.8330 0.8300 0.8190 0.8180 0.8190
1922.073754 0.8300 0.8450 0.8540 0.8610 0.8660
1928.461268 0.8700 0.8710 0.8730 0.8750 0.8750
1934.848782 0.8730 0.8730 0.8710 0.8660 0.8610
1941.236297 0.8560 0.8540 0.8500 0.8490 0.8490
1947.623811 0.8500 0.8520 0.8570 0.8630 0.8680
1954.011325 0.8710 0.8750 0.8760 0.8780 0.8800
1960.398839 0.8820 0.8850 0.8890 0.8920 0.8920
1966.786354 0.8920 0.8940 0.8940 0.8960 0.8960
1973.173868 0.8960 0.8960 0.8960 0.8960 0.8920
1979.561382 0.8920 0.8920 0.8940 0.8940 0.8940
1985.948896 0.8970 0.8970 0.8990 0.8990 0.8990
1992.336410 0.9010 0.9010 0.9010 0.9010 0.9020
1998.723925 0.9020 0.9020 0.9020 0.9020 0.9015
2005.111439 0.9010 0.9010 0.9010 0.9010 0.9010
2011.498953 0.9000 0.8990 0.8990 0.8990 0.8980
2017.886467 0.8970 0.8970 0.8970 0.8970 0.8970
2024.273982 0.8965 0.8960 0.8960 0.8960 0.8960
2030.661496 0.8960 0.8960 0.8960 0.8960 0.8960
2037.049010 0.8960 0.8960 0.8950 0.8940 0.8940
2043.436524 0.8940 0.8940 0.8940 0.8940 0.8940
2049.824038 0.8940 0.8940 0.8950 0.8960 0.8960
2056.211553 0.8960 0.8960 0.8960 0.8960 0.8960
2062.599067 0.8960 0.8960 0.8960 0.8960 0.8960
2068.986581 0.8960 0.8960 0.8960 0.8960 0.8960
2075.374095 0.8960 0.8960 0.8960 0.8960 0.8960
2081.761610 0.8960 0.8960 0.8960 0.8960 0.8960
2088.149124 0.8960 0.8960 0.8960 0.8960 0.8951
2094.536638 0.8941 0.8940 0.8940 0.8940 0.8940
2100.924152 0.8940 0.8940 0.8940 0.8940 0.8940
2107.311666 0.8940 0.8940 0.8940 0.8940 0.8940
2113.699181 0.8940 0.8940 0.8940 0.8940 0.8940
2120.086695 0.8940 0.8940 0.8940 0.8940 0.8940
2126.474209 0.8940 0.8940 0.8940 0.8940 0.8940
2132.861723 0.8940 0.8940 0.8940 0.8940 0.8940
2139.249237 0.8940 0.8940 0.8940 0.8940 0.8940
2145.636752 0.8940 0.8940 0.8940 0.8940 0.8940
2152.024266 0.8931 0.8921 0.8920 0.8920 0.8920
2158.411780 0.8920 0.8920 0.8920 0.8920 0.8920
2164.799294 0.8920 0.8920 0.8920 0.8920 0.8911
2171.186809 0.8901 0.8900 0.8900 0.8900 0.8900
2177.574323 0.8900 0.8900 0.8900 0.8900 0.8900
2183.961837 0.8900 0.8900 0.8900 0.8900 0.8900
2190.349351 0.8900 0.8900 0.8896 0.8891 0.8890
2196.736865 0.8890 0.8890 0.8890 0.8890 0.8890
2203.124380 0.8890 0.8890 0.8890 0.8890 0.8890
2209.511894 0.8890 0.8881 0.8871 0.8870 0.8870
2215.899408 0.8870 0.8870 0.8870 0.8870 0.8870
2222.286922 0.8870 0.8861 0.8851 0.8850 0.8850
2228.674437 0.8850 0.8850 0.8850 0.8850 0.8850
2235.061951 0.8850 0.8841 0.8831 0.8830 0.8830
2241.449465 0.8847 0.8867 0.8861 0.8852 0.8850
2247.836979 0.8850 0.8850 0.8850 0.8850 0.8850
2254.224493 0.8850 0.8850 0.8859 0.8869 0.8870
2260.612008 0.8870 0.8862 0.8852 0.8850 0.8850
2266.999522 0.8850 0.8850 0.8850 0.8850 0.8850
2273.387036 0.8850 0.8858 0.8868 0.8870 0.8870
2279.774550 0.8878 0.8888 0.8894 0.8899 0.8900
2286.162065 0.8900 0.8900 0.8900 0.8900 0.8900
2292.549579 0.8896 0.8891 0.8890 0.8890 0.8882
2298.937093 0.8872 0.8870 0.8870 0.8870 0.8870
2305.324607 0.8870 0.8870 0.8870 0.8870 0.8870
2311.712121 0.8870 0.8862 0.8852 0.8850 0.8850
2318.099636 0.8858 0.8868 0.8870 0.8870 0.8870
2324.487150 0.8870 0.8870 0.8870 0.8878 0.8888
2330.874664 0.8890 0.8890 0.8890 0.8890 0.8894
2337.262178 0.8899 0.8900 0.8900 0.8908 0.8918
2343.649693 0.8912 0.8902 0.8900 0.8900 0.8900
2350.037207 0.8900 0.8900 0.8900 0.8900 0.8900
2356.424721 0.8900 0.8900 0.8896 0.8891 0.8890
2362.812235 0.8890 0.8890 0.8890 0.8890 0.8890
2369.199749 0.8882 0.8872 0.8870 0.8870 0.8870
2375.587264 0.8870 0.8862 0.8852 0.8850 0.8850
2381.974778 0.8850 0.8850 0.8850 0.8850 0.8850
2388.362292 0.8850 0.8850 0.8850 0.8850 0.8850
2394.749806 0.8850 0.8850 0.8842 0.8832 0.8830
2401.137321 0.8830 0.8830 0.8830 0.8830 0.8830
2407.524835 0.8830 0.8830 0.8830 0.8830 0.8838
2413.912349 0.8848 0.8850 0.8850 0.8850 0.8850
2420.299863 0.8850 0.8850 0.8850 0.8850 0.8857
2426.687377 0.8867 0.8870 0.8870 0.8870 0.8870
2433.074892 0.8870 0.8870 0.8870 0.8870 0.8870
2439.462406 0.8870 0.8870 0.8870 0.8870 0.8870
2445.849920 0.8870 0.8870 0.8870 0.8870 0.8870
2452.237434 0.8870 0.8863 0.8853 0.8850 0.8850
2458.624948 0.8843 0.8833 0.8830 0.8830 0.8837
2465.012463 0.8847 0.8850 0.8850 0.8850 0.8850
2471.399977 0.8843 0.8833 0.8830 0.8830 0.8830
2477.787491 0.8830 0.8830 0.8830 0.8830 0.8830
2484.175005 0.8830 0.8830 0.8830 0.8830 0.8830
2490.562520 0.8830 0.8830 0.8830 0.8830 0.8830
2496.950034 0.8830 0.8830 0.8830 0.8830 0.8830
2503.337548 0.8830 0.8830 0.8830 0.8830 0.8830
2509.725062 0.8830 0.8830 0.8830 0.8830 0.8830
2516.112576 0.8830 0.8837 0.8847 0.8850 0.8850
2522.500091 0.8850 0.8850 0.8850 0.8850 0.8850
2528.887605 0.8850 0.8850 0.8850 0.8850 0.8850
2535.275119 0.8850 0.8850 0.8857 0.8867 0.8870
2541.662633 0.8870 0.8863 0.8853 0.8850 0.8850
2548.050148 0.8850 0.8850 0.8850 0.8850 0.8843
2554.437662 0.8833 0.8830 0.8830 0.8827 0.8822
2560.825176 0.8813 0.8803 0.8800 0.8800 0.8800
2567.212690 0.8800 0.8793 0.8783 0.8780 0.8780
2573.600204 0.8780 0.8780 0.8780 0.8780 0.8773
2579.987719 0.8763 0.8760 0.8760 0.8760 0.8760
2586.375233 0.8757 0.8752 0.8750 0.8750 0.8753
2592.762747 0.8758 0.8760 0.8760 0.8767 0.8777
2599.150261 0.8780 0.8780 0.8780 0.8780 0.8780
2605.537776 0.8780 0.8780 0.8780 0.8780 0.8780
2611.925290 0.8780 0.8780 0.8773 0.8763 0.8760
2618.312804 0.8760 0.8760 0.8760 0.8760 0.8760
2624.700318 0.8760 0.8760 0.8757 0.8752 0.8750
2631.087832 0.8750 0.8750 0.8750 0.8750 0.8750
2637.475347 0.8750 0.8750 0.8744 0.8734 0.8724
2643.862861 0.8714 0.8707 0.8702 0.8700 0.8700
2650.250375 0.8681 0.8651 0.8631 0.8616 0.8582
2656.637889 0.8537 0.8489 0.8439 0.8414 0.8404
2663.025404 0.8406 0.8416 0.8420 0.8420 0.8429
2669.412918 0.8444 0.8466 0.8490 0.8500 0.8500
2675.800432 0.8512 0.8532 0.8549 0.8564 0.8588
2682.187946 0.8618 0.8639 0.8654 0.8672 0.8692
2688.575460 0.8703 0.8708 0.8716 0.8726 0.8739
2694.962975 0.8754 0.8766 0.8776 0.8786 0.8796
2701.350489 0.8800 0.8800 0.8806 0.8816 0.8820
2707.738003 0.8820 0.8820 0.8820 0.8820 0.8820
2714.125517 0.8820 0.8820 0.8820 0.8820 0.8820
2720.513031 0.8820 0.8820 0.8820 0.8820 0.8820
2726.900546 0.8814 0.8804 0.8800 0.8800 0.8800
2733.288060 0.8800 0.8800 0.8800 0.8794 0.8784
2739.675574 0.8780 0.8780 0.8780 0.8780 0.8774
2746.063088 0.8764 0.8760 0.8760 0.8760 0.8760
2752.450603 0.8757 0.8752 0.8744 0.8734 0.8724
2758.838117 0.8714 0.8707 0.8702 0.8700 0.8700
2765.225631 0.8683 0.8653 0.8626 0.8601 0.8576
2771.613145 0.8551 0.8529 0.8509 0.8492 0.8477
2778.000659 0.8456 0.8431 0.8406 0.8381 0.8365
2784.388174 0.8355 0.8345 0.8335 0.8322 0.8307
2790.775688 0.8276 0.8230 0.8202 0.8187 0.8161
2797.163202 0.8126 0.8085 0.8040 0.8009 0.7989
2803.550716 0.7964 0.7934 0.7909 0.7889 0.7880
2809.938231 0.7880 0.7875 0.7865 0.7860 0.7860
2816.325745 0.7852 0.7837 0.7819 0.7799 0.7749
2822.713259 0.7675 0.7592 0.7502 0.7388 0.7253
2829.100773 0.7060 0.6816 0.6527 0.6198 0.5868
2835.488287 0.5539 0.5202 0.4858 0.4337 0.3648
2841.875802 0.3148 0.2829 0.2680 0.2680 0.2878
2848.263316 0.3252 0.3480 0.3575 0.3791 0.4121
2854.650830 0.4280 0.4280 0.4150 0.3895 0.3451
2861.038344 0.2822 0.2427 0.2263 0.2180 0.2180
2867.425859 0.2335 0.2649 0.2878 0.3027 0.3375
2873.813373 0.3909 0.4170 0.4170 0.4061 0.3847
2880.200887 0.3680 0.3560 0.3448 0.3343 0.3233
2886.588401 0.3119 0.3060 0.3060 0.3149 0.3334
2892.975915 0.3430 0.3430 0.3412 0.3377 0.3338
2899.363430 0.3293 0.3265 0.3255 0.3221 0.3161
2905.750944 0.3076 0.2967 0.2838 0.2688 0.2581
2912.138458 0.2521 0.2450 0.2365 0.2170 0.1850
2918.525972 0.1498 0.1109 0.0839 0.0694 0.0569
2924.913487 0.0464 0.0388 0.0343 0.0313 0.0298
2931.301001 0.0285 0.0275 0.0275 0.0285 0.0297
2937.688515 0.0312 0.0341 0.0386 0.0433 0.0483
2944.076029 0.0551 0.0642 0.0709 0.0749 0.0829
2950.463543 0.0954 0.1109 0.1298 0.1532 0.1816
2956.851058 0.2137 0.2501 0.2909 0.3368 0.3860
2963.238572 0.4394 0.4795 0.5029 0.5281 0.5556
2969.626086 0.5841 0.6139 0.6365 0.6504 0.6651
2976.013600 0.6805 0.6947 0.7071 0.7174 0.7248
2982.401115 0.7328 0.7413 0.7464 0.7474 0.7473
2988.788629 0.7459 0.7441 0.7421 0.7410 0.7410
2995.176143 0.7359 0.7237 0.7116 0.6997 0.6875
3001.563657 0.6750 0.6652 0.6587 0.6537 0.6507
3007.951171 0.6458 0.6383 0.6270 0.6105 0.5919
3014.338686 0.5705 0.5326 0.4717 0.4300 0.4155
3020.726200 0.4070 0.4070 0.4250 0.4664 0.4975
3027.113714 0.5150 0.5352 0.5591 0.5774 0.5879
3033.501228 0.6000 0.6145 0.6257 0.6322 0.6362
3039.888742 0.6367 0.6378 0.6398 0.6420 0.6445
3046.276257 0.6470 0.6495 0.6544 0.6623 0.6670
3052.663771 0.6670 0.6617 0.6487 0.6339 0.6164
3059.051285 0.5966 0.5731 0.5536 0.5402 0.5320
3065.438799 0.5320 0.5431 0.5715 0.5936 0.6056
3071.826314 0.6134 0.6144 0.6152 0.6157 0.6178
3078.213828 0.6223 0.6319 0.6494 0.6715 0.7010
3084.601342 0.7300 0.7585 0.7802 0.7912 0.7993
3090.988856 0.8028 0.8054 0.8064 0.8064 0.8049
3097.376370 0.8040 0.8040 0.8042 0.8047 0.8104
3103.763885 0.8244 0.8366 0.8461 0.8554 0.8644
3110.151399 0.8711 0.8741 0.8760 0.8760 0.8776
3116.538913 0.8821 0.8857 0.8877 0.8892 0.8897
3122.926427 0.8900 0.8900 0.8900 0.8900 0.8904
3129.313942 0.8914 0.8920 0.8920 0.8920 0.8920
3135.701456 0.8924 0.8934 0.8940 0.8940 0.8933
3142.088970 0.8913 0.8895 0.8880 0.8867 0.8857
3148.476484 0.8850 0.8850 0.8846 0.8836 0.8830
3154.863998 0.8830 0.8837 0.8857 0.8879 0.8904
3161.251513 0.8923 0.8933 0.8940 0.8940 0.8940
3167.639027 0.8940 0.8943 0.8953 0.8960 0.8960
3174.026541 0.8960 0.8960 0.8960 0.8960 0.8960
3180.414055 0.8960 0.8960 0.8960 0.8960 0.8960
3186.801570 0.8957 0.8947 0.8940 0.8940 0.8940
3193.189084 0.8940 0.8943 0.8953 0.8960 0.8960
3199.576598 0.8960 0.8960 0.8960 0.8960 0.8957
3205.964112 0.8947 0.8940 0.8940 0.8940 0.8940
3212.351626 0.8937 0.8927 0.8920 0.8920 0.8920
3218.739141 0.8920 0.8920 0.8920 0.8920 0.8920
3225.126655 0.8920 0.8920 0.8917 0.8907 0.8900
3231.514169 0.8900 0.8900 0.8900 0.8898 0.8893
3237.901683 0.8890 0.8890 0.8890 0.8890 0.8890
3244.289198 0.8890 0.8887 0.8877 0.8867 0.8857
3250.676712 0.8850 0.8850 0.8850 0.8850 0.8850
3257.064226 0.8850 0.8847 0.8837 0.8830 0.8830
3263.451740 0.8829 0.8824 0.8820 0.8820 0.8817
3269.839254 0.8807 0.8800 0.8800 0.8797 0.8787
3276.226769 0.8777 0.8767 0.8759 0.8754 0.8750
3282.614283 0.8750 0.8750 0.8750 0.8750 0.8750
3289.001797 0.8747 0.8737 0.8730 0.8730 0.8730
3295.389311 0.8730 0.8727 0.8717 0.8709 0.8704
3301.776825 0.8697 0.8687 0.8677 0.8667 0.8660
3308.164340 0.8660 0.8657 0.8647 0.8640 0.8640
3314.551854 0.8639 0.8634 0.8627 0.8617 0.8607
3320.939368 0.8598 0.8590 0.8590 0.8590 0.8590
3327.326882 0.8588 0.8577 0.8570 0.8570 0.8570
3333.714397 0.8570 0.8570 0.8570 0.8569 0.8564
3340.101911 0.8560 0.8560 0.8560 0.8560 0.8558
3346.489425 0.8548 0.8540 0.8540 0.8540 0.8540
3352.876939 0.8540 0.8540 0.8540 0.8540 0.8540
3359.264453 0.8540 0.8540 0.8540 0.8540 0.8540
3365.651968 0.8540 0.8540 0.8542 0.8552 0.8560
3372.039482 0.8560 0.8560 0.8560 0.8560 0.8560
3378.426996 0.8560 0.8560 0.8558 0.8548 0.8540
3384.814510 0.8540 0.8540 0.8540 0.8540 0.8540
3391.202025 0.8540 0.8540 0.8542 0.8552 0.8560
3397.589539 0.8560 0.8560 0.8560 0.8560 0.8560
3403.977053 0.8560 0.8560 0.8561 0.8566 0.8570
3410.364567 0.8570 0.8572 0.8582 0.8592 0.8602
3416.752081 0.8610 0.8610 0.8610 0.8610 0.8610
3423.139596 0.8610 0.8610 0.8610 0.8610 0.8610
3429.527110 0.8610 0.8610 0.8610 0.8610 0.8610
3435.914624 0.8610 0.8610 0.8610 0.8610 0.8610
3442.302138 0.8610 0.8610 0.8610 0.8610 0.8610
3448.689653 0.8610 0.8610 0.8610 0.8610 0.8610
3455.077167 0.8610 0.8610 0.8608 0.8598 0.8590
3461.464681 0.8590 0.8590 0.8590 0.8588 0.8578
3467.852195 0.8570 0.8570 0.8570 0.8570 0.8570
3474.239709 0.8570 0.8569 0.8564 0.8560 0.8560
3480.627224 0.8560 0.8560 0.8561 0.8566 0.8572
3487.014738 0.8582 0.8590 0.8590 0.8590 0.8590
3493.402252 0.8590 0.8590 0.8592 0.8602 0.8610
3499.789766 0.8610 0.8609 0.8599 0.8589 0.8579
3506.177281 0.8569 0.8564 0.8558 0.8548 0.8540
3512.564795 0.8540 0.8540 0.8540 0.8537 0.8517
3518.952309 0.8500 0.8500 0.8499 0.8494 0.8489
3525.339823 0.8479 0.8469 0.8459 0.8448 0.8433
3531.727337 0.8417 0.8397 0.8378 0.8363 0.8349
3538.114852 0.8339 0.8328 0.8313 0.8299 0.8289
3544.502366 0.8281 0.8291 0.8302 0.8317 0.8333
3550.889880 0.8358 0.8387 0.8441 0.8496 0.8546
3557.277394 0.8595 0.8641 0.8685 0.8725 0.8764
3563.664908 0.8794 0.8821 0.8826 0.8831 0.8841
3570.052423 0.8850 0.8850 0.8850 0.8850 0.8850
3576.439937 0.8850 0.8849 0.8839 0.8829 0.8825
3582.827451 0.8819 0.8809 0.8799 0.8789 0.8780
3589.214965 0.8780 0.8779 0.8769 0.8760 0.8760
3595.602480 0.8759 0.8754 0.8750 0.8750 0.8749
3601.989994 0.8739 0.8731 0.8741 0.8750 0.8750
3608.377508 0.8751 0.8766 0.8782 0.8802 0.8823
3614.765022 0.8848 0.8874 0.8919 0.8964 0.9004
3621.152536 0.9041 0.9051 0.9060 0.9060 0.9060
3627.540051 0.9060 0.9061 0.9076 0.9090 0.9090
3633.927565 0.9091 0.9101 0.9110 0.9110 0.9111
3640.315079 0.9121 0.9129 0.9119 0.9110 0.9110
3646.702593 0.9109 0.9099 0.9090 0.9090 0.9090
3653.090108 0.9090 0.9091 0.9111 0.9130 0.9130
3659.477622 0.9129 0.9119 0.9110 0.9110 0.9110
3665.865136 0.9110 0.9111 0.9121 0.9130 0.9130
3672.252650 0.9130 0.9130 0.9130 0.9130 0.9131
3678.640164 0.9141 0.9150 0.9150 0.9150 0.9150
3685.027679 0.9150 0.9150 0.9150 0.9150 0.9150
3691.415193 0.9150 0.9150 0.9155 0.9160 0.9160
3697.802707 0.9160 0.9160 0.9160 0.9160 0.9160
3704.190221 0.9160 0.9160 0.9160 0.9160 0.9160
3710.577736 0.9160 0.9160 0.9161 0.9170 0.9180
3716.965250 0.9180 0.9180 0.9180 0.9180 0.9190
3723.352764 0.9200 0.9210 0.9220 0.9225 0.9230
3729.740278 0.9230 0.9230 0.9230 0.9230 0.9230
3736.127792 0.9230 0.9225 0.9220 0.9210 0.9199
3742.515307 0.9179 0.9160 0.9155 0.9150 0.9150
3748.902821 0.9150 0.9150 0.9150 0.9150 0.9150
3755.290335 0.9155 0.9160 0.9160 0.9160 0.9155
3761.677849 0.9150 0.9150 0.9150 0.9150 0.9150
3768.065364 0.9150 0.9150 0.9150 0.9150 0.9150
3774.452878 0.9150 0.9150 0.9150 0.9150 0.9150
3780.840392 0.9140 0.9130 0.9130 0.9130 0.9130
3787.227906 0.9130 0.9130 0.9130 0.9130 0.9130
3793.615420 0.9130 0.9130
##END=
