##TITLE=BENZALDEHYDE, 3,4-DIMETHOXY-
##JCAMP-DX=4.24
##DATA TYPE=INFRARED SPECTRUM
##CLASS=COBLENTZ III
##ORIGIN=DOW CHEMICAL COMPANY
##OWNER=COBLENTZ SOC.
Collection (C) 2018 copyright by the U.S. Secretary of Commerce
on behalf of the United States of America. All rights reserved.
##DATE=1963/05/16
##NAMES=3,4-dimethoxybenzaldehyde
VERATRALDEHYDE
##CAS REGISTRY NO=120-14-9
##MOLFORM=C9 H10 O3
##SOURCE REFERENCE=COBLENTZ NO. 06480
##$NIST SOURCE=COBLENTZ
##$NIST IMAGE=cob6480
##SPECTROMETER/DATA SYSTEM=DOW KBr FOREPRISM-GRATING
##INSTRUMENT PARAMETERS=BLAZED AT 3.5, 12.0, 20.0 MICRON AND CHANGED AT 5.0, 7.5, 14.9 MICRON
##STATE=SOLUTION (5% CCl4 FOR 3800-1335, 5% CS2 FOR 1335-400 CM^-^1)
##PATH LENGTH=0.011 CM, 0.010 CM
$$SPECTRAL CONTAMINATION DUE TO CCl4 AROUND 1555, AND AN UNKNOWN AROUND 400 CM^-^1
$$ SPECTRAL FEATURE AT 2000 CM^-^1 IS AN ARTIFACT CAUSED BY GRATING CHANGE
##SAMPLING PROCEDURE=TRANSMISSION
##RESOLUTION=2
##DATA PROCESSING=DIGITIZED BY COBLENTZ SOCIETY (BATCH I) FROM HARD COPY
##XUNITS=1/CM
##YUNITS=TRANSMITTANCE
##XLABEL=Wavenumbers (cm-1)
##YLABEL=% Transmission
##XFACTOR=1
##YFACTOR=1
##DELTAX=1
##FIRSTX=382
##LASTX=3790
##FIRSTY=0.1744
##MAXX=3790
##MINX=382
##MAXY=1.0128
##MINY=0.0085
##NPOINTS=3409
##XYDATA=(X++(Y..Y))
382.000000 0.1744 0.1746 0.1751 0.1756 0.1765
387.000000 0.1782 0.1799 0.1823 0.1848 0.1873
392.000000 0.1898 0.1923 0.1954 0.1991 0.2027
397.000000 0.2076 0.2126 0.2177 0.2516 0.2856
402.000000 0.3196 0.3534 0.3875 0.4215 0.4555
407.000000 0.4894 0.5234 0.5574 0.5935 0.6012
412.000000 0.6090 0.6173 0.6256 0.6349 0.6450
417.000000 0.6491 0.6508 0.6508 0.6508 0.6508
422.000000 0.6508 0.6555 0.6642 0.6757 0.6907
427.000000 0.7062 0.7133 0.7203 0.7272 0.7336
432.000000 0.7383 0.7428 0.7471 0.7505 0.7540
437.000000 0.7574 0.7608 0.7643 0.7660 0.7675
442.000000 0.7692 0.7708 0.7725 0.7731 0.7734
447.000000 0.7736 0.7738 0.7741 0.7742 0.7742
452.000000 0.7737 0.7731 0.7725 0.7719 0.7712
457.000000 0.7693 0.7672 0.7653 0.7637 0.7625
462.000000 0.7611 0.7599 0.7597 0.7597 0.7597
467.000000 0.7607 0.7615 0.7625 0.7640 0.7653
472.000000 0.7665 0.7678 0.7692 0.7704 0.7715
477.000000 0.7728 0.7741 0.7754 0.7765 0.7775
482.000000 0.7787 0.7797 0.7808 0.7818 0.7828
487.000000 0.7840 0.7851 0.7861 0.7871 0.7883
492.000000 0.7893 0.7903 0.7914 0.7924 0.7934
497.000000 0.7944 0.7955 0.7965 0.7975 0.7982
502.000000 0.7988 0.7994 0.8000 0.8006 0.8012
507.000000 0.8018 0.8025 0.8031 0.8036 0.8036
512.000000 0.8036 0.8036 0.8036 0.8036 0.8036
517.000000 0.8036 0.8034 0.8031 0.8031 0.8040
522.000000 0.8055 0.8072 0.8092 0.8111 0.8135
527.000000 0.8158 0.8182 0.8206 0.8228 0.8250
532.000000 0.8271 0.8282 0.8293 0.8296 0.8296
537.000000 0.8296 0.8296 0.8325 0.8286 0.8282
542.000000 0.8277 0.8270 0.8263 0.8256 0.8247
547.000000 0.8234 0.8221 0.8209 0.8197 0.8185
552.000000 0.8172 0.8161 0.8150 0.8139 0.8125
557.000000 0.8107 0.8088 0.8068 0.8047 0.8004
562.000000 0.7961 0.7918 0.7876 0.7834 0.7785
567.000000 0.7728 0.7669 0.7307 0.6976 0.6760
572.000000 0.6756 0.6782 0.6765 0.6893 0.6949
577.000000 0.7005 0.7061 0.7115 0.7108 0.7111
582.000000 0.7049 0.6972 0.6878 0.6780 0.6643
587.000000 0.6506 0.6368 0.6302 0.6401 0.6309
592.000000 0.7311 0.7440 0.7591 0.7698 0.7797
597.000000 0.7892 0.7972 0.8045 0.8090 0.8112
602.000000 0.8133 0.8149 0.8164 0.8183 0.8212
607.000000 0.8240 0.8251 0.8249 0.8190 0.8157
612.000000 0.8141 0.8135 0.8130 0.8125 0.8110
617.000000 0.8090 0.8068 0.8047 0.8047 0.8057
622.000000 0.8071 0.8071 0.8064 0.8043 0.8011
627.000000 0.7953 0.7882 0.7771 0.7651 0.7530
632.000000 0.7398 0.7241 0.7161 0.7115 0.6901
637.000000 0.6711 0.6119 0.5269 0.4419 0.4080
642.000000 0.4084 0.4595 0.5653 0.6711 0.7321
647.000000 0.7503 0.7714 0.7801 0.7812 0.7811
652.000000 0.7811 0.7807 0.7807 0.7806 0.7885
657.000000 0.7943 0.8008 0.8087 0.8178 0.8268
662.000000 0.8364 0.8430 0.8459 0.8482 0.8494
667.000000 0.8505 0.8514 0.8523 0.8532 0.8540
672.000000 0.8547 0.8555 0.8560 0.8565 0.8570
677.000000 0.8575 0.8581 0.8590 0.8599 0.8609
682.000000 0.8618 0.8627 0.8636 0.8645 0.8654
687.000000 0.8660 0.8667 0.8674 0.8680 0.8687
692.000000 0.8693 0.8699 0.8705 0.8704 0.8705
697.000000 0.8704 0.8704 0.8703 0.8702 0.8699
702.000000 0.8695 0.8691 0.8687 0.8683 0.8677
707.000000 0.8668 0.8659 0.8650 0.8639 0.8623
712.000000 0.8608 0.8592 0.8575 0.8556 0.8537
717.000000 0.8518 0.8485 0.8448 0.8398 0.8330
722.000000 0.8250 0.8158 0.8061 0.7958 0.7672
727.000000 0.7321 0.6953 0.6532 0.6037 0.5262
732.000000 0.4488 0.3714 0.2940 0.2516 0.2516
737.000000 0.2516 0.4034 0.5900 0.7098 0.7398
742.000000 0.7569 0.7715 0.7833 0.7938 0.8068
747.000000 0.8217 0.8281 0.8344 0.8390 0.8425
752.000000 0.8461 0.8480 0.8499 0.8507 0.8509
757.000000 0.8517 0.8513 0.8493 0.8463 0.8424
762.000000 0.8378 0.8297 0.8169 0.8042 0.7946
767.000000 0.7965 0.8045 0.8195 0.8346 0.8382
772.000000 0.8388 0.8296 0.8165 0.8035 0.7904
777.000000 0.7785 0.7693 0.7608 0.7525 0.7257
782.000000 0.6755 0.6252 0.5750 0.5714 0.5745
787.000000 0.6135 0.6524 0.6914 0.7304 0.7694
792.000000 0.8084 0.8339 0.8354 0.8325 0.8311
797.000000 0.8270 0.8195 0.7699 0.7072 0.6446
802.000000 0.5820 0.5194 0.4568 0.3941 0.3314
807.000000 0.2689 0.2241 0.2264 0.2527 0.3745
812.000000 0.4962 0.5429 0.5429 0.5428 0.5426
817.000000 0.6062 0.6750 0.7437 0.7797 0.8154
822.000000 0.8294 0.8346 0.8399 0.8432 0.8464
827.000000 0.8493 0.8515 0.8537 0.8570 0.8615
832.000000 0.8671 0.8709 0.8728 0.8725 0.8725
837.000000 0.8721 0.8718 0.8706 0.8692 0.8668
842.000000 0.8639 0.8608 0.8555 0.8490 0.8410
847.000000 0.8257 0.8111 0.7944 0.7457 0.6971
852.000000 0.6484 0.6418 0.6406 0.6401 0.6525
857.000000 0.6655 0.6786 0.6917 0.7047 0.7087
862.000000 0.6983 0.6912 0.6797 0.6615 0.6026
867.000000 0.5438 0.4851 0.4264 0.3896 0.3921
872.000000 0.3991 0.6014 0.7178 0.7296 0.7405
877.000000 0.7558 0.7803 0.7948 0.8115 0.8225
882.000000 0.8334 0.8441 0.8511 0.8565 0.8620
887.000000 0.8661 0.8700 0.8739 0.8778 0.8816
892.000000 0.8851 0.8886 0.8920 0.8954 0.8985
897.000000 0.9015 0.9044 0.9060 0.9075 0.9092
902.000000 0.9107 0.9118 0.9128 0.9132 0.9134
907.000000 0.9136 0.9137 0.9139 0.9165 0.9118
912.000000 0.9107 0.9094 0.9080 0.9066 0.9052
917.000000 0.9013 0.8971 0.8933 0.8932 0.8931
922.000000 0.8936 0.8957 0.8985 0.9002 0.9005
927.000000 0.9025 0.9001 0.8997 0.8989 0.8981
932.000000 0.8971 0.8960 0.8946 0.8932 0.8918
937.000000 0.8906 0.8893 0.8850 0.8897 0.8909
942.000000 0.8920 0.8930 0.8941 0.8952 0.8968
947.000000 0.8985 0.9002 0.9020 0.9037 0.9049
952.000000 0.9061 0.9060 0.9058 0.9057 0.9071
957.000000 0.9037 0.9017 0.8977 0.8871 0.8745
962.000000 0.8618 0.8598 0.8564 0.8631 0.8720
967.000000 0.8808 0.8897 0.8941 0.8967 0.8991
972.000000 0.9007 0.9009 0.9010 0.9010 0.9007
977.000000 0.9006 0.9002 0.8998 0.8994 0.8990
982.000000 0.8983 0.8968 0.8951 0.8932 0.8913
987.000000 0.8889 0.8864 0.8838 0.8812 0.8763
992.000000 0.8707 0.8647 0.8575 0.8504 0.8443
997.000000 0.8385 0.8325 0.8266 0.8240 0.8220
1002.000000 0.8200 0.8140 0.8087 0.8038 0.7988
1007.000000 0.7943 0.7900 0.7857 0.7801 0.7745
1012.000000 0.7690 0.7635 0.7506 0.7431 0.7356
1017.000000 0.7060 0.6958 0.6847 0.6675 0.6481
1022.000000 0.4877 0.4167 0.3479 0.2791 0.2104
1027.000000 0.1416 0.0728 0.0627 0.0579 0.1284
1032.000000 0.2251 0.3218 0.4185 0.5153 0.5592
1037.000000 0.5605 0.5618 0.5636 0.5682 0.5795
1042.000000 0.5916 0.6042 0.6149 0.6290 0.6790
1047.000000 0.7318 0.7593 0.7736 0.7839 0.7931
1052.000000 0.7974 0.8017 0.8058 0.8094 0.8124
1057.000000 0.8155 0.8185 0.8214 0.8243 0.8271
1062.000000 0.8301 0.8320 0.8337 0.8354 0.8371
1067.000000 0.8388 0.8399 0.8409 0.8418 0.8428
1072.000000 0.8438 0.8445 0.8450 0.8455 0.8460
1077.000000 0.8465 0.8470 0.8471 0.8471 0.8471
1082.000000 0.8471 0.8471 0.8471 0.8468 0.8460
1087.000000 0.8451 0.8442 0.8432 0.8423 0.8411
1092.000000 0.8399 0.8387 0.8371 0.8351 0.8331
1097.000000 0.8311 0.8291 0.8268 0.8242 0.8214
1102.000000 0.8186 0.8153 0.8118 0.8083 0.8026
1107.000000 0.7965 0.7891 0.7810 0.7730 0.7650
1112.000000 0.7564 0.7472 0.7397 0.7326 0.7258
1117.000000 0.7087 0.6824 0.6569 0.6285 0.6010
1122.000000 0.5844 0.4854 0.4666 0.4009 0.3332
1127.000000 0.2654 0.1976 0.1854 0.2110 0.1834
1132.000000 0.3286 0.3282 0.3268 0.2377 0.1782
1137.000000 0.1186 0.0590 0.0119 0.0085 0.0911
1142.000000 0.1803 0.2695 0.3588 0.4480 0.4987
1147.000000 0.4983 0.4983 0.4464 0.3978 0.3493
1152.000000 0.3008 0.2522 0.2036 0.1552 0.1066
1157.000000 0.0982 0.0982 0.0981 0.0979 0.3072
1162.000000 0.3097 0.3122 0.3156 0.3314 0.4231
1167.000000 0.5679 0.6688 0.6821 0.6953 0.7065
1172.000000 0.7160 0.7254 0.7347 0.7430 0.7485
1177.000000 0.7525 0.7544 0.7561 0.7562 0.7555
1182.000000 0.7539 0.7448 0.7321 0.7183 0.7086
1187.000000 0.7086 0.7083 0.7083 0.7210 0.7276
1192.000000 0.7317 0.7294 0.7308 0.6910 0.6692
1197.000000 0.6474 0.6256 0.6168 0.6173 0.6144
1202.000000 0.6597 0.6808 0.7012 0.7111 0.7205
1207.000000 0.7278 0.7349 0.7408 0.7464 0.7517
1212.000000 0.7558 0.7578 0.7583 0.7580 0.7571
1217.000000 0.7558 0.7545 0.7526 0.7508 0.7483
1222.000000 0.7451 0.7408 0.7364 0.7311 0.7240
1227.000000 0.7105 0.6953 0.6687 0.6392 0.6097
1232.000000 0.5801 0.5595 0.5362 0.5262 0.5145
1237.000000 0.4994 0.4836 0.4564 0.3814 0.2918
1242.000000 0.2022 0.1126 0.0899 0.0843 0.0888
1247.000000 0.0896 0.0949 0.1388 0.1826 0.2265
1252.000000 0.2703 0.2931 0.2927 0.2924 0.2867
1257.000000 0.2800 0.2733 0.2666 0.2599 0.2532
1262.000000 0.2450 0.2185 0.1949 0.1711 0.1473
1267.000000 0.1235 0.0996 0.0759 0.0521 0.0284
1272.000000 0.0119 0.0118 0.0118 0.0124 0.0121
1277.000000 0.0128 0.0240 0.0447 0.0653 0.0860
1282.000000 0.1067 0.1653 0.1798 0.1926 0.2058
1287.000000 0.2378 0.2520 0.2803 0.3085 0.3368
1292.000000 0.4044 0.4165 0.4286 0.4549 0.5229
1297.000000 0.5485 0.5708 0.6023 0.6150 0.6276
1302.000000 0.6347 0.6403 0.6458 0.6515 0.6572
1307.000000 0.6632 0.6691 0.6750 0.6821 0.6905
1312.000000 0.6935 0.6945 0.6947 0.6949 0.6949
1317.000000 0.6949 0.6946 0.6943 0.6953 0.6996
1322.000000 0.7042 0.7101 0.7147 0.7186 0.7222
1327.000000 0.7239 0.7237 0.7236 0.7236 0.7222
1332.000000 0.7178 0.7128 0.7078 0.7019 0.6768
1337.000000 0.6515 0.6262 0.6010 0.5759 0.5645
1342.000000 0.5645 0.5619 0.5649 0.5779 0.5930
1347.000000 0.6081 0.6232 0.6383 0.6534 0.6686
1352.000000 0.6837 0.6988 0.7139 0.7290 0.7736
1357.000000 0.7908 0.7985 0.8055 0.8111 0.8160
1362.000000 0.8209 0.8255 0.8300 0.8340 0.8361
1367.000000 0.8382 0.8402 0.8423 0.8428 0.8428
1372.000000 0.8410 0.8378 0.8336 0.8290 0.8246
1377.000000 0.8203 0.8158 0.8106 0.8006 0.7734
1382.000000 0.7095 0.6968 0.6857 0.6743 0.6578
1387.000000 0.6511 0.6445 0.6365 0.6118 0.5816
1392.000000 0.5514 0.5212 0.4910 0.4608 0.4307
1397.000000 0.4032 0.4004 0.3979 0.3932 0.4288
1402.000000 0.4640 0.4992 0.5344 0.5697 0.6049
1407.000000 0.6401 0.6753 0.7106 0.7458 0.7654
1412.000000 0.7610 0.7607 0.7530 0.7337 0.7145
1417.000000 0.6961 0.6839 0.6545 0.5899 0.5181
1422.000000 0.4462 0.3744 0.3026 0.2308 0.1590
1427.000000 0.0882 0.0882 0.0901 0.1711 0.2641
1432.000000 0.3572 0.4502 0.5432 0.6362 0.7006
1437.000000 0.7003 0.7001 0.7008 0.6194 0.5483
1442.000000 0.4772 0.4059 0.3349 0.2789 0.2777
1447.000000 0.3502 0.4691 0.5879 0.6333 0.6334
1452.000000 0.6301 0.5038 0.4006 0.3364 0.3344
1457.000000 0.3316 0.3287 0.3250 0.3216 0.3185
1462.000000 0.3154 0.3120 0.3078 0.2846 0.2075
1467.000000 0.1305 0.1106 0.1128 0.1386 0.2144
1472.000000 0.2901 0.3659 0.4416 0.5174 0.5931
1477.000000 0.6393 0.6753 0.7146 0.7262 0.7360
1482.000000 0.7415 0.7460 0.7484 0.7505 0.7505
1487.000000 0.7505 0.7496 0.7484 0.7405 0.7284
1492.000000 0.7165 0.7083 0.7006 0.6937 0.6868
1497.000000 0.6769 0.6675 0.6519 0.5973 0.5425
1502.000000 0.4878 0.4330 0.3782 0.3234 0.2688
1507.000000 0.2141 0.1490 0.1133 0.0971 0.0838
1512.000000 0.0717 0.0640 0.0576 0.0512 0.0429
1517.000000 0.0354 0.0333 0.0325 0.0310 0.0687
1522.000000 0.1177 0.1667 0.2156 0.2646 0.3135
1527.000000 0.4209 0.4409 0.4539 0.4636 0.4766
1532.000000 0.4871 0.4910 0.4912 0.4912 0.4905
1537.000000 0.4892 0.4869 0.4816 0.4774 0.4729
1542.000000 0.4677 0.4641 0.4605 0.4569 0.4520
1547.000000 0.4460 0.4410 0.4360 0.4331 0.4301
1552.000000 0.4284 0.4271 0.4262 0.4260 0.4262
1557.000000 0.4262 0.4266 0.4297 0.4332 0.4366
1562.000000 0.4423 0.4490 0.4597 0.4705 0.4768
1567.000000 0.4831 0.4878 0.4919 0.4953 0.4953
1572.000000 0.4952 0.4949 0.4938 0.4912 0.4875
1577.000000 0.4824 0.4771 0.4689 0.4272 0.3890
1582.000000 0.3508 0.3127 0.2745 0.2363 0.1981
1587.000000 0.1600 0.1218 0.0836 0.0455 0.0299
1592.000000 0.0296 0.0304 0.0714 0.1146 0.1195
1597.000000 0.1203 0.1138 0.1004 0.0871 0.0802
1602.000000 0.0802 0.0862 0.1405 0.1949 0.2492
1607.000000 0.3035 0.3580 0.4123 0.4455 0.4816
1612.000000 0.5165 0.5946 0.6174 0.6309 0.6651
1617.000000 0.6858 0.7042 0.7215 0.7380 0.7525
1622.000000 0.7598 0.7658 0.7718 0.7778 0.7835
1627.000000 0.7893 0.7950 0.8001 0.8051 0.8100
1632.000000 0.8149 0.8195 0.8239 0.8283 0.8324
1637.000000 0.8350 0.8375 0.8401 0.8427 0.8439
1642.000000 0.8450 0.8459 0.8460 0.8461 0.8462
1647.000000 0.8462 0.8450 0.8427 0.8388 0.8347
1652.000000 0.8281 0.8209 0.8128 0.8056 0.7999
1657.000000 0.7961 0.7953 0.7948 0.7956 0.7962
1662.000000 0.7968 0.7968 0.7968 0.7953 0.7932
1667.000000 0.7901 0.7865 0.7812 0.7715 0.7587
1672.000000 0.7453 0.7039 0.6850 0.6728 0.6606
1677.000000 0.6450 0.6241 0.6028 0.5807 0.4018
1682.000000 0.2319 0.1727 0.1134 0.0523 0.0435
1687.000000 0.0379 0.0329 0.0329 0.0335 0.0336
1692.000000 0.0526 0.0619 0.0693 0.0768 0.0825
1697.000000 0.0858 0.0874 0.0889 0.0859 0.0784
1702.000000 0.0710 0.0635 0.0586 0.0593 0.0595
1707.000000 0.0655 0.0710 0.0773 0.2061 0.4752
1712.000000 0.5212 0.5505 0.5720 0.5843 0.6010
1717.000000 0.6225 0.6394 0.6574 0.6782 0.7071
1722.000000 0.7285 0.7360 0.7435 0.7510 0.7575
1727.000000 0.7635 0.7696 0.7765 0.7840 0.7868
1732.000000 0.7896 0.7922 0.7950 0.7978 0.8008
1737.000000 0.8030 0.8044 0.8093 0.8154 0.8225
1742.000000 0.8316 0.8439 0.8513 0.8551 0.8577
1747.000000 0.8602 0.8627 0.8648 0.8664 0.8680
1752.000000 0.8696 0.8708 0.8714 0.8720 0.8725
1757.000000 0.8733 0.8740 0.8746 0.8753 0.8760
1762.000000 0.8767 0.8774 0.8781 0.8787 0.8794
1767.000000 0.8801 0.8808 0.8814 0.8821 0.8830
1772.000000 0.8839 0.8847 0.8856 0.8865 0.8874
1777.000000 0.8884 0.8893 0.8899 0.8900 0.8900
1782.000000 0.8901 0.8902 0.8901 0.8901 0.8898
1787.000000 0.8895 0.8893 0.8890 0.8887 0.8887
1792.000000 0.8887 0.8890 0.8892 0.8894 0.8897
1797.000000 0.8899 0.8904 0.8905 0.8909 0.8912
1802.000000 0.8916 0.8918 0.8923 0.8925 0.8930
1807.000000 0.8931 0.8933 0.8934 0.8935 0.8936
1812.000000 0.8937 0.8939 0.8940 0.8941 0.8942
1817.000000 0.8944 0.8945 0.8946 0.8947 0.8947
1822.000000 0.8948 0.8949 0.8949 0.8950 0.8937
1827.000000 0.8924 0.8912 0.8899 0.8887 0.8875
1832.000000 0.8863 0.8849 0.8834 0.8818 0.8802
1837.000000 0.8786 0.8770 0.8765 0.8763 0.8761
1842.000000 0.8760 0.8768 0.8778 0.8787 0.8797
1847.000000 0.8809 0.8821 0.8833 0.8844 0.8855
1852.000000 0.8867 0.8878 0.8889 0.8889 0.8889
1857.000000 0.8888 0.8887 0.8887 0.8886 0.8883
1862.000000 0.8878 0.8875 0.8873 0.8870 0.8866
1867.000000 0.8863 0.8860 0.8855 0.8848 0.8841
1872.000000 0.8833 0.8827 0.8825 0.8824 0.8833
1877.000000 0.8844 0.8854 0.8868 0.8882 0.8885
1882.000000 0.8887 0.8889 0.8891 0.8895 0.8899
1887.000000 0.8904 0.8908 0.8912 0.8921 0.8932
1892.000000 0.8943 0.8954 0.8965 0.8971 0.8977
1897.000000 0.8983 0.8989 0.8995 0.9001 0.9007
1902.000000 0.9007 0.9007 0.9002 0.8998 0.8994
1907.000000 0.8989 0.8985 0.8980 0.8975 0.8971
1912.000000 0.8967 0.8962 0.8958 0.8953 0.8948
1917.000000 0.8943 0.8934 0.8925 0.8917 0.8908
1922.000000 0.8901 0.8894 0.8898 0.8903 0.8908
1927.000000 0.8914 0.8923 0.8928 0.8940 0.8955
1932.000000 0.8971 0.8980 0.8987 0.8993 0.9000
1937.000000 0.9007 0.9021 0.9038 0.9053 0.9062
1942.000000 0.9071 0.9080 0.9089 0.9091 0.9091
1947.000000 0.9091 0.9097 0.9136 0.9228 0.9264
1952.000000 0.9268 0.9227 0.9175 0.9130 0.9091
1957.000000 0.9078 0.9134 0.9581 1.0027 1.0106
1962.000000 1.0117 1.0128 0.9942 0.9509 0.9075
1967.000000 0.9060 0.9052 0.9038 0.9021 0.9006
1972.000000 0.8992 0.8978 0.8966 0.8953 0.8952
1977.000000 0.8951 0.8950 0.8949 0.8948 0.8947
1982.000000 0.8945 0.8939 0.8932 0.8925 0.8918
1987.000000 0.8913 0.8907 0.8899 0.8889 0.8878
1992.000000 0.8868 0.8858 0.8847 0.8837 0.8751
1997.000000 0.8655 0.8559 0.8463 0.8367 0.8333
2002.000000 0.8299 0.8304 0.8309 0.8313 0.8318
2007.000000 0.8321 0.8327 0.8330 0.8334 0.8337
2012.000000 0.8340 0.8342 0.8345 0.8348 0.8351
2017.000000 0.8353 0.8356 0.8385 0.8415 0.8456
2022.000000 0.8498 0.8539 0.8581 0.8621 0.8664
2027.000000 0.8694 0.8724 0.8731 0.8738 0.8658
2032.000000 0.8578 0.8497 0.8417 0.8388 0.8359
2037.000000 0.8345 0.8331 0.8312 0.8293 0.8278
2042.000000 0.8265 0.8237 0.8209 0.8195 0.8181
2047.000000 0.8180 0.8180 0.8178 0.8178 0.8200
2052.000000 0.8164 0.8245 0.8270 0.8294 0.8318
2057.000000 0.8328 0.8338 0.8341 0.8344 0.8338
2062.000000 0.8333 0.8325 0.8318 0.8315 0.8311
2067.000000 0.8310 0.8309 0.8315 0.8321 0.8367
2072.000000 0.8414 0.8450 0.8486 0.8507 0.8528
2077.000000 0.8532 0.8536 0.8540 0.8544 0.8548
2082.000000 0.8552 0.8553 0.8555 0.8556 0.8558
2087.000000 0.8558 0.8559 0.8559 0.8559 0.8559
2092.000000 0.8559 0.8558 0.8557 0.8553 0.8549
2097.000000 0.8545 0.8541 0.8537 0.8536 0.8536
2102.000000 0.8539 0.8541 0.8543 0.8545 0.8547
2107.000000 0.8548 0.8549 0.8549 0.8549 0.8549
2112.000000 0.8549 0.8549 0.8549 0.8550 0.8551
2117.000000 0.8552 0.8553 0.8554 0.8555 0.8556
2122.000000 0.8558 0.8567 0.8575 0.8585 0.8594
2127.000000 0.8603 0.8612 0.8621 0.8633 0.8645
2132.000000 0.8657 0.8660 0.8664 0.8666 0.8668
2137.000000 0.8670 0.8671 0.8673 0.8675 0.8675
2142.000000 0.8675 0.8675 0.8677 0.8677 0.8677
2147.000000 0.8677 0.8677 0.8671 0.8668 0.8660
2152.000000 0.8652 0.8642 0.8633 0.8628 0.8623
2157.000000 0.8618 0.8616 0.8614 0.8613 0.8612
2162.000000 0.8612 0.8611 0.8611 0.8610 0.8610
2167.000000 0.8610 0.8610 0.8610 0.8611 0.8611
2172.000000 0.8612 0.8612 0.8613 0.8614 0.8615
2177.000000 0.8615 0.8616 0.8617 0.8618 0.8618
2182.000000 0.8618 0.8620 0.8621 0.8621 0.8621
2187.000000 0.8623 0.8624 0.8624 0.8625 0.8625
2192.000000 0.8627 0.8627 0.8628 0.8628 0.8631
2197.000000 0.8633 0.8635 0.8637 0.8639 0.8641
2202.000000 0.8644 0.8646 0.8648 0.8648 0.8649
2207.000000 0.8650 0.8651 0.8651 0.8652 0.8652
2212.000000 0.8653 0.8654 0.8655 0.8655 0.8655
2217.000000 0.8655 0.8654 0.8651 0.8649 0.8646
2222.000000 0.8643 0.8640 0.8638 0.8635 0.8632
2227.000000 0.8625 0.8618 0.8611 0.8604 0.8601
2232.000000 0.8598 0.8595 0.8592 0.8589 0.8586
2237.000000 0.8586 0.8587 0.8588 0.8589 0.8589
2242.000000 0.8590 0.8590 0.8590 0.8589 0.8589
2247.000000 0.8588 0.8588 0.8587 0.8587 0.8588
2252.000000 0.8590 0.8592 0.8594 0.8595 0.8597
2257.000000 0.8598 0.8600 0.8600 0.8600 0.8594
2262.000000 0.8589 0.8578 0.8568 0.8556 0.8543
2267.000000 0.8528 0.8515 0.8500 0.8486 0.8465
2272.000000 0.8445 0.8421 0.8399 0.8375 0.8354
2277.000000 0.8332 0.8311 0.8294 0.8277 0.8268
2282.000000 0.8261 0.8258 0.8308 0.8256 0.8256
2287.000000 0.8263 0.8270 0.8278 0.8286 0.8294
2292.000000 0.8302 0.8312 0.8323 0.8334 0.8346
2297.000000 0.8357 0.8368 0.8384 0.8399 0.8410
2302.000000 0.8421 0.8421 0.8420 0.8420 0.8420
2307.000000 0.8421 0.8423 0.8424 0.8425 0.8425
2312.000000 0.8428 0.8428 0.8431 0.8433 0.8435
2317.000000 0.8436 0.8438 0.8440 0.8442 0.8443
2322.000000 0.8445 0.8447 0.8449 0.8450 0.8452
2327.000000 0.8455 0.8458 0.8461 0.8464 0.8467
2332.000000 0.8471 0.8474 0.8478 0.8481 0.8484
2337.000000 0.8487 0.8491 0.8494 0.8497 0.8500
2342.000000 0.8504 0.8506 0.8509 0.8512 0.8515
2347.000000 0.8518 0.8521 0.8523 0.8525 0.8528
2352.000000 0.8532 0.8535 0.8538 0.8541 0.8544
2357.000000 0.8547 0.8551 0.8554 0.8557 0.8561
2362.000000 0.8565 0.8570 0.8575 0.8580 0.8585
2367.000000 0.8590 0.8595 0.8600 0.8605 0.8608
2372.000000 0.8611 0.8614 0.8617 0.8620 0.8623
2377.000000 0.8625 0.8628 0.8632 0.8635 0.8638
2382.000000 0.8641 0.8644 0.8647 0.8648 0.8650
2387.000000 0.8652 0.8654 0.8655 0.8657 0.8659
2392.000000 0.8661 0.8663 0.8665 0.8666 0.8668
2397.000000 0.8670 0.8671 0.8673 0.8674 0.8675
2402.000000 0.8675 0.8677 0.8678 0.8678 0.8680
2407.000000 0.8681 0.8682 0.8682 0.8683 0.8684
2412.000000 0.8685 0.8686 0.8687 0.8688 0.8689
2417.000000 0.8690 0.8691 0.8692 0.8693 0.8694
2422.000000 0.8695 0.8696 0.8697 0.8698 0.8699
2427.000000 0.8700 0.8701 0.8702 0.8703 0.8704
2432.000000 0.8705 0.8706 0.8707 0.8707 0.8708
2437.000000 0.8709 0.8710 0.8710 0.8711 0.8711
2442.000000 0.8711 0.8710 0.8710 0.8710 0.8710
2447.000000 0.8710 0.8710 0.8709 0.8709 0.8709
2452.000000 0.8709 0.8709 0.8709 0.8709 0.8709
2457.000000 0.8708 0.8708 0.8708 0.8708 0.8707
2462.000000 0.8707 0.8706 0.8706 0.8705 0.8705
2467.000000 0.8704 0.8704 0.8703 0.8703 0.8702
2472.000000 0.8702 0.8701 0.8700 0.8699 0.8699
2477.000000 0.8698 0.8698 0.8698 0.8698 0.8698
2482.000000 0.8699 0.8699 0.8699 0.8699 0.8700
2487.000000 0.8700 0.8701 0.8701 0.8701 0.8700
2492.000000 0.8700 0.8698 0.8696 0.8693 0.8691
2497.000000 0.8689 0.8687 0.8684 0.8682 0.8680
2502.000000 0.8678 0.8675 0.8674 0.8671 0.8670
2507.000000 0.8668 0.8667 0.8665 0.8663 0.8661
2512.000000 0.8659 0.8656 0.8653 0.8649 0.8645
2517.000000 0.8641 0.8638 0.8634 0.8631 0.8627
2522.000000 0.8623 0.8618 0.8616 0.8612 0.8609
2527.000000 0.8605 0.8601 0.8594 0.8587 0.8578
2532.000000 0.8571 0.8563 0.8556 0.8548 0.8541
2537.000000 0.8537 0.8534 0.8530 0.8527 0.8527
2542.000000 0.8527 0.8527 0.8527 0.8527 0.8527
2547.000000 0.8527 0.8527 0.8527 0.8527 0.8528
2552.000000 0.8528 0.8531 0.8534 0.8536 0.8539
2557.000000 0.8542 0.8545 0.8547 0.8550 0.8552
2562.000000 0.8555 0.8557 0.8560 0.8562 0.8565
2567.000000 0.8567 0.8570 0.8571 0.8574 0.8575
2572.000000 0.8575 0.8577 0.8578 0.8571 0.8564
2577.000000 0.8555 0.8546 0.8537 0.8528 0.8520
2582.000000 0.8512 0.8504 0.8496 0.8488 0.8480
2587.000000 0.8471 0.8464 0.8456 0.8448 0.8440
2592.000000 0.8433 0.8424 0.8415 0.8404 0.8394
2597.000000 0.8383 0.8373 0.8362 0.8351 0.8340
2602.000000 0.8330 0.8321 0.8312 0.8303 0.8295
2607.000000 0.8286 0.8277 0.8268 0.8260 0.8251
2612.000000 0.8242 0.8218 0.8195 0.8178 0.8150
2617.000000 0.8161 0.8161 0.8168 0.8175 0.8186
2622.000000 0.8197 0.8223 0.8249 0.8293 0.8337
2627.000000 0.8371 0.8406 0.8418 0.8433 0.8444
2632.000000 0.8455 0.8463 0.8471 0.8468 0.8465
2637.000000 0.8464 0.8463 0.8447 0.8441 0.8435
2642.000000 0.8428 0.8423 0.8418 0.8412 0.8406
2647.000000 0.8400 0.8395 0.8389 0.8384 0.8378
2652.000000 0.8371 0.8366 0.8361 0.8360 0.8360
2657.000000 0.8360 0.8361 0.8362 0.8363 0.8368
2662.000000 0.8374 0.8387 0.8400 0.8411 0.8421
2667.000000 0.8423 0.8424 0.8418 0.8412 0.8404
2672.000000 0.8396 0.8385 0.8374 0.8358 0.8343
2677.000000 0.8315 0.8287 0.8256 0.8225 0.8195
2682.000000 0.8165 0.8128 0.8093 0.8056 0.8019
2687.000000 0.7989 0.7958 0.7928 0.7898 0.7869
2692.000000 0.7843 0.7821 0.7801 0.7778 0.7758
2697.000000 0.7733 0.7708 0.7676 0.7646 0.7605
2702.000000 0.7564 0.7542 0.7519 0.7496 0.7472
2707.000000 0.7449 0.7425 0.7392 0.7358 0.7319
2712.000000 0.7283 0.7107 0.6931 0.6801 0.6672
2717.000000 0.6651 0.6631 0.6631 0.6631 0.6644
2722.000000 0.6626 0.6718 0.6778 0.6864 0.6949
2727.000000 0.7012 0.7078 0.7128 0.7181 0.7225
2732.000000 0.7268 0.7291 0.7314 0.7317 0.7321
2737.000000 0.7322 0.7325 0.7326 0.7325 0.7325
2742.000000 0.7343 0.7303 0.7282 0.7238 0.7194
2747.000000 0.7147 0.7101 0.7061 0.7024 0.7019
2752.000000 0.7017 0.7015 0.6990 0.7025 0.7036
2757.000000 0.7121 0.7208 0.7295 0.7382 0.7468
2762.000000 0.7555 0.7628 0.7701 0.7700 0.7700
2767.000000 0.7696 0.7693 0.7690 0.7688 0.7685
2772.000000 0.7705 0.7680 0.7678 0.7674 0.7671
2777.000000 0.7667 0.7662 0.7658 0.7654 0.7649
2782.000000 0.7644 0.7639 0.7634 0.7628 0.7625
2787.000000 0.7618 0.7612 0.7605 0.7598 0.7589
2792.000000 0.7580 0.7560 0.7540 0.7505 0.7469
2797.000000 0.7428 0.7386 0.7336 0.7287 0.7221
2802.000000 0.7157 0.7074 0.6992 0.6818 0.6644
2807.000000 0.6504 0.6364 0.6331 0.6298 0.6288
2812.000000 0.6278 0.6272 0.6267 0.6268 0.6269
2817.000000 0.6265 0.6262 0.6251 0.6240 0.6208
2822.000000 0.6176 0.6123 0.6070 0.6017 0.5965
2827.000000 0.5895 0.5826 0.5653 0.5480 0.5341
2832.000000 0.5203 0.5089 0.4976 0.4936 0.4897
2837.000000 0.4890 0.4883 0.4883 0.4903 0.5055
2842.000000 0.5227 0.5398 0.5570 0.5741 0.5912
2847.000000 0.6085 0.6257 0.6428 0.6600 0.6771
2852.000000 0.6943 0.7115 0.7287 0.7341 0.7395
2857.000000 0.7436 0.7476 0.7528 0.7578 0.7671
2862.000000 0.7764 0.7826 0.7890 0.7901 0.7911
2867.000000 0.7915 0.8003 0.7918 0.7918 0.7918
2872.000000 0.7917 0.7910 0.7903 0.7891 0.7878
2877.000000 0.7865 0.7853 0.7838 0.7824 0.7808
2882.000000 0.7793 0.7778 0.7762 0.7749 0.7735
2887.000000 0.7721 0.7707 0.7691 0.7675 0.7658
2892.000000 0.7641 0.7622 0.7606 0.7546 0.7487
2897.000000 0.7376 0.7267 0.7157 0.7047 0.6937
2902.000000 0.6826 0.6734 0.6567 0.6628 0.6615
2907.000000 0.6608 0.6604 0.6614 0.6624 0.6647
2912.000000 0.6671 0.6693 0.6715 0.6739 0.6762
2917.000000 0.6799 0.6836 0.6875 0.6914 0.6924
2922.000000 0.6935 0.6934 0.6933 0.6872 0.6828
2927.000000 0.6645 0.6461 0.6278 0.6095 0.5910
2932.000000 0.5728 0.5544 0.5323 0.5324 0.5324
2937.000000 0.5317 0.5310 0.5387 0.5465 0.5603
2942.000000 0.5741 0.5878 0.6016 0.6124 0.6233
2947.000000 0.6233 0.6219 0.6222 0.6212 0.6108
2952.000000 0.6005 0.5902 0.5799 0.5695 0.5592
2957.000000 0.5488 0.5385 0.5281 0.5178 0.5147
2962.000000 0.5117 0.5118 0.5119 0.5252 0.5143
2967.000000 0.5607 0.5829 0.6050 0.6272 0.6494
2972.000000 0.6715 0.6899 0.7082 0.7150 0.7218
2977.000000 0.7286 0.7354 0.7421 0.7490 0.7558
2982.000000 0.7625 0.7668 0.7711 0.7725 0.7764
2987.000000 0.7749 0.7757 0.7760 0.7764 0.7762
2992.000000 0.7761 0.7756 0.7750 0.7738 0.7725
2997.000000 0.7619 0.7515 0.7397 0.7280 0.7161
3002.000000 0.7044 0.6925 0.6808 0.6691 0.6572
3007.000000 0.6455 0.6338 0.6220 0.6102 0.6069
3012.000000 0.6051 0.6038 0.6040 0.6511 0.6984
3017.000000 0.7089 0.7195 0.7287 0.7380 0.7464
3022.000000 0.7549 0.7717 0.7886 0.7961 0.8036
3027.000000 0.8101 0.8168 0.8209 0.8251 0.8281
3032.000000 0.8312 0.8332 0.8352 0.8368 0.8384
3037.000000 0.8393 0.8403 0.8408 0.8413 0.8417
3042.000000 0.8421 0.8421 0.8421 0.8421 0.8418
3047.000000 0.8415 0.8412 0.8408 0.8404 0.8396
3052.000000 0.8389 0.8381 0.8374 0.8363 0.8353
3057.000000 0.8336 0.8320 0.8308 0.8297 0.8285
3062.000000 0.8274 0.8262 0.8251 0.8239 0.8228
3067.000000 0.8209 0.8190 0.8171 0.8153 0.8134
3072.000000 0.8115 0.8097 0.8078 0.8060 0.8042
3077.000000 0.8022 0.8004 0.7985 0.7967 0.7962
3082.000000 0.7958 0.7958 0.7955 0.8025 0.8095
3087.000000 0.8248 0.8402 0.8435 0.8468 0.8492
3092.000000 0.8517 0.8535 0.8554 0.8571 0.8588
3097.000000 0.8603 0.8618 0.8633 0.8648 0.8656
3102.000000 0.8665 0.8673 0.8682 0.8688 0.8695
3107.000000 0.8698 0.8702 0.8705 0.8708 0.8711
3112.000000 0.8714 0.8717 0.8721 0.8724 0.8727
3117.000000 0.8728 0.8731 0.8733 0.8735 0.8736
3122.000000 0.8738 0.8740 0.8742 0.8744 0.8746
3127.000000 0.8748 0.8751 0.8753 0.8756 0.8759
3132.000000 0.8762 0.8764 0.8767 0.8770 0.8773
3137.000000 0.8775 0.8778 0.8781 0.8784 0.8786
3142.000000 0.8789 0.8791 0.8794 0.8796 0.8799
3147.000000 0.8801 0.8804 0.8804 0.8804 0.8803
3152.000000 0.8802 0.8801 0.8800 0.8799 0.8798
3157.000000 0.8797 0.8796 0.8795 0.8795 0.8791
3162.000000 0.8788 0.8784 0.8780 0.8775 0.8771
3167.000000 0.8766 0.8762 0.8757 0.8752 0.8747
3172.000000 0.8742 0.8737 0.8732 0.8728 0.8725
3177.000000 0.8724 0.8723 0.8721 0.8718 0.8717
3182.000000 0.8715 0.8714 0.8714 0.8714 0.8714
3187.000000 0.8714 0.8714 0.8714 0.8714 0.8714
3192.000000 0.8715 0.8716 0.8717 0.8718 0.8720
3197.000000 0.8721 0.8721 0.8733 0.8744 0.8751
3202.000000 0.8759 0.8764 0.8770 0.8775 0.8781
3207.000000 0.8782 0.8784 0.8785 0.8787 0.8788
3212.000000 0.8790 0.8792 0.8794 0.8796 0.8798
3217.000000 0.8799 0.8801 0.8802 0.8803 0.8804
3222.000000 0.8806 0.8807 0.8808 0.8809 0.8810
3227.000000 0.8811 0.8812 0.8812 0.8812 0.8812
3232.000000 0.8813 0.8813 0.8814 0.8814 0.8814
3237.000000 0.8814 0.8815 0.8815 0.8815 0.8815
3242.000000 0.8816 0.8816 0.8816 0.8816 0.8817
3247.000000 0.8817 0.8817 0.8817 0.8818 0.8818
3252.000000 0.8818 0.8818 0.8818 0.8818 0.8818
3257.000000 0.8818 0.8818 0.8818 0.8818 0.8818
3262.000000 0.8818 0.8818 0.8818 0.8818 0.8818
3267.000000 0.8817 0.8817 0.8817 0.8817 0.8815
3272.000000 0.8814 0.8812 0.8810 0.8808 0.8806
3277.000000 0.8804 0.8803 0.8801 0.8799 0.8798
3282.000000 0.8798 0.8798 0.8798 0.8798 0.8798
3287.000000 0.8798 0.8798 0.8798 0.8798 0.8797
3292.000000 0.8797 0.8796 0.8796 0.8795 0.8795
3297.000000 0.8795 0.8795 0.8795 0.8795 0.8795
3302.000000 0.8795 0.8795 0.8795 0.8795 0.8796
3307.000000 0.8796 0.8796 0.8796 0.8796 0.8796
3312.000000 0.8796 0.8796 0.8796 0.8796 0.8796
3317.000000 0.8796 0.8796 0.8796 0.8796 0.8795
3322.000000 0.8795 0.8794 0.8794 0.8794 0.8794
3327.000000 0.8793 0.8793 0.8790 0.8788 0.8784
3332.000000 0.8781 0.8777 0.8774 0.8770 0.8766
3337.000000 0.8762 0.8759 0.8755 0.8752 0.8745
3342.000000 0.8739 0.8732 0.8725 0.8718 0.8713
3347.000000 0.8706 0.8700 0.8693 0.8686 0.8678
3352.000000 0.8671 0.8665 0.8658 0.8649 0.8640
3357.000000 0.8627 0.8615 0.8596 0.8577 0.8565
3362.000000 0.8554 0.8546 0.8547 0.8537 0.8537
3367.000000 0.8538 0.8541 0.8544 0.8547 0.8551
3372.000000 0.8555 0.8560 0.8566 0.8571 0.8578
3377.000000 0.8585 0.8593 0.8600 0.8608 0.8615
3382.000000 0.8623 0.8630 0.8638 0.8646 0.8654
3387.000000 0.8662 0.8670 0.8678 0.8687 0.8695
3392.000000 0.8704 0.8713 0.8721 0.8730 0.8739
3397.000000 0.8745 0.8751 0.8754 0.8757 0.8760
3402.000000 0.8763 0.8766 0.8768 0.8771 0.8774
3407.000000 0.8775 0.8775 0.8777 0.8778 0.8780
3412.000000 0.8781 0.8782 0.8783 0.8783 0.8784
3417.000000 0.8784 0.8784 0.8784 0.8784 0.8784
3422.000000 0.8785 0.8785 0.8785 0.8785 0.8785
3427.000000 0.8784 0.8784 0.8783 0.8783 0.8782
3432.000000 0.8782 0.8781 0.8781 0.8780 0.8780
3437.000000 0.8778 0.8778 0.8778 0.8778 0.8777
3442.000000 0.8777 0.8775 0.8775 0.8775 0.8775
3447.000000 0.8774 0.8774 0.8773 0.8773 0.8771
3452.000000 0.8771 0.8771 0.8771 0.8770 0.8770
3457.000000 0.8768 0.8768 0.8768 0.8768 0.8767
3462.000000 0.8767 0.8766 0.8766 0.8765 0.8765
3467.000000 0.8764 0.8764 0.8763 0.8763 0.8762
3472.000000 0.8762 0.8761 0.8761 0.8761 0.8761
3477.000000 0.8760 0.8760 0.8759 0.8759 0.8758
3482.000000 0.8758 0.8757 0.8757 0.8757 0.8757
3487.000000 0.8756 0.8756 0.8755 0.8755 0.8754
3492.000000 0.8754 0.8754 0.8754 0.8753 0.8753
3497.000000 0.8753 0.8753 0.8752 0.8752 0.8751
3502.000000 0.8751 0.8751 0.8751 0.8750 0.8750
3507.000000 0.8750 0.8750 0.8749 0.8749 0.8749
3512.000000 0.8749 0.8748 0.8748 0.8747 0.8747
3517.000000 0.8747 0.8747 0.8746 0.8746 0.8745
3522.000000 0.8745 0.8744 0.8744 0.8743 0.8743
3527.000000 0.8742 0.8742 0.8741 0.8741 0.8740
3532.000000 0.8740 0.8739 0.8739 0.8738 0.8738
3537.000000 0.8737 0.8737 0.8736 0.8736 0.8735
3542.000000 0.8735 0.8734 0.8734 0.8733 0.8733
3547.000000 0.8732 0.8732 0.8731 0.8730 0.8730
3552.000000 0.8731 0.8732 0.8734 0.8735 0.8737
3557.000000 0.8738 0.8739 0.8740 0.8742 0.8743
3562.000000 0.8744 0.8745 0.8746 0.8747 0.8748
3567.000000 0.8748 0.8749 0.8750 0.8751 0.8751
3572.000000 0.8752 0.8752 0.8753 0.8754 0.8755
3577.000000 0.8755 0.8756 0.8757 0.8758 0.8758
3582.000000 0.8759 0.8760 0.8761 0.8761 0.8762
3587.000000 0.8762 0.8763 0.8763 0.8764 0.8764
3592.000000 0.8765 0.8766 0.8767 0.8767 0.8768
3597.000000 0.8768 0.8768 0.8768 0.8770 0.8771
3602.000000 0.8771 0.8771 0.8771 0.8771 0.8771
3607.000000 0.8771 0.8773 0.8773 0.8773 0.8773
3612.000000 0.8773 0.8773 0.8773 0.8773 0.8773
3617.000000 0.8773 0.8773 0.8773 0.8773 0.8773
3622.000000 0.8773 0.8773 0.8773 0.8771 0.8771
3627.000000 0.8771 0.8771 0.8771 0.8771 0.8770
3632.000000 0.8770 0.8768 0.8768 0.8768 0.8768
3637.000000 0.8768 0.8768 0.8767 0.8767 0.8766
3642.000000 0.8766 0.8766 0.8766 0.8765 0.8765
3647.000000 0.8764 0.8764 0.8763 0.8763 0.8763
3652.000000 0.8763 0.8763 0.8764 0.8764 0.8764
3657.000000 0.8764 0.8765 0.8765 0.8765 0.8765
3662.000000 0.8766 0.8766 0.8767 0.8767 0.8767
3667.000000 0.8767 0.8768 0.8768 0.8768 0.8768
3672.000000 0.8768 0.8768 0.8770 0.8770 0.8770
3677.000000 0.8770 0.8771 0.8771 0.8771 0.8771
3682.000000 0.8771 0.8771 0.8773 0.8773 0.8774
3687.000000 0.8774 0.8774 0.8774 0.8775 0.8775
3692.000000 0.8775 0.8775 0.8775 0.8775 0.8775
3697.000000 0.8775 0.8775 0.8774 0.8774 0.8774
3702.000000 0.8774 0.8774 0.8774 0.8774 0.8774
3707.000000 0.8774 0.8774 0.8773 0.8773 0.8773
3712.000000 0.8773 0.8773 0.8773 0.8773 0.8773
3717.000000 0.8771 0.8771 0.8771 0.8771 0.8771
3722.000000 0.8771 0.8771 0.8771 0.8771 0.8771
3727.000000 0.8770 0.8770 0.8770 0.8770 0.8768
3732.000000 0.8768 0.8768 0.8768 0.8768 0.8768
3737.000000 0.8768 0.8768 0.8767 0.8767 0.8767
3742.000000 0.8767 0.8767 0.8767 0.8766 0.8766
3747.000000 0.8766 0.8766 0.8766 0.8767 0.8767
3752.000000 0.8767 0.8767 0.8768 0.8768 0.8768
3757.000000 0.8768 0.8768 0.8768 0.8768 0.8768
3762.000000 0.8768 0.8768 0.8770 0.8770 0.8770
3767.000000 0.8770 0.8770 0.8770 0.8771 0.8771
3772.000000 0.8771 0.8771 0.8771 0.8771 0.8771
3777.000000 0.8771 0.8771 0.8771 0.8773 0.8773
3782.000000 0.8773 0.8773 0.8774 0.8774 0.8774
3787.000000 0.8774 0.8775 0.8775 0.8775
##END=
