##TITLE=DIMETHYL TEREPHTHALATE
$$ E.K. (W.L.)
##JCAMP-DX=4.24
##DATA TYPE=INFRARED SPECTRUM
##CLASS=COBLENTZ
##ORIGIN=WYANDOTTE CHEMICALS CORP., WYANDOTTE, MICHIGAN, USA
##OWNER=COBLENTZ SOCIETY
Collection (C) 2018 copyright by the U.S. Secretary of Commerce
on behalf of the United States of America. All rights reserved.
##DATE=Not specified, most likely prior to 1970
##CAS REGISTRY NO=120-61-6
##MOLFORM=C10 H10 O4
##MP=140 C
##SOURCE REFERENCE=COBLENTZ NO. 336
##$NIST SOURCE=COBLENTZ
##$NIST IMAGE=cob336
##SPECTROMETER/DATA SYSTEM=Not specified, most likely a prism, grating, or hybrid spectrometer.
##STATE=SOLID (MULL)
##SAMPLING PROCEDURE=TRANSMISSION
##RESOLUTION=4
##DATA PROCESSING=DIGITIZED BY NIST FROM HARD COPY
##XUNITS=MICROMETERS
##YUNITS=TRANSMITTANCE
##XFACTOR=1.000000
##YFACTOR=1
##DELTAX=000.006636
##FIRSTX=2.025
##LASTX=15.893
##FIRSTY=0.593
##MAXX=15.893
##MINX=2.025
##MAXY=0.966
##MINY=0.029
##NPOINTS=2091
##XYDATA=(X++(Y..Y))
2.025000 0.5930 0.5930 0.5980 0.6020 0.6040
2.058194 0.6090 0.6110 0.6110 0.6140 0.6120
2.091000 0.6120 0.6120 0.6120 0.6120 0.6120
2.124194 0.6140 0.6140 0.6160 0.6170 0.6170
2.157000 0.6170 0.6140 0.6160 0.6160 0.6170
2.190194 0.6170 0.6170 0.6170 0.6170 0.6190
2.224000 0.6210 0.6220 0.6220 0.6260 0.6260
2.257194 0.6190 0.6170 0.6160 0.6170 0.6240
2.290000 0.6270 0.6290 0.6320 0.6320 0.6320
2.323194 0.6340 0.6340 0.6390 0.6490 0.6490
2.356000 0.6460 0.6460 0.6420 0.6460 0.6490
2.389194 0.6510 0.6540 0.6540 0.6560 0.6590
2.423000 0.6590 0.6590 0.6590 0.6590 0.6590
2.456194 0.6590 0.6610 0.6620 0.6640 0.6660
2.489000 0.6660 0.6660 0.6670 0.6670 0.6670
2.522194 0.6710 0.6720 0.6740 0.6770 0.6760
2.555000 0.6760 0.6790 0.6790 0.6760 0.6740
2.588194 0.6720 0.6760 0.6790 0.6820 0.6910
2.622000 0.6990 0.6960 0.6990 0.6990 0.6990
2.655194 0.7000 0.7000 0.6990 0.6970 0.6970
2.688000 0.6990 0.7000 0.7000 0.6990 0.6960
2.721194 0.6960 0.6990 0.7000 0.7000 0.7020
2.754000 0.7020 0.7000 0.7000 0.7000 0.7000
2.787194 0.7000 0.7000 0.7000 0.7020 0.7100
2.821000 0.7100 0.7050 0.7020 0.7020 0.7020
2.854194 0.7020 0.7020 0.7020 0.7020 0.7000
2.887000 0.6960 0.6960 0.7000 0.7000 0.7000
2.920194 0.6910 0.6820 0.6790 0.6770 0.6770
2.954000 0.6890 0.6920 0.6960 0.6970 0.7000
2.987194 0.7020 0.7020 0.7020 0.7000 0.7000
3.020000 0.6970 0.6970 0.6990 0.7000 0.7000
3.053194 0.7020 0.7020 0.7020 0.7000 0.7000
3.086000 0.6990 0.6990 0.6990 0.6960 0.6940
3.119194 0.6820 0.6820 0.6860 0.6870 0.6870
3.153000 0.6890 0.6890 0.6890 0.6910 0.6940
3.186194 0.6940 0.6920 0.6910 0.6910 0.6890
3.219000 0.6890 0.6870 0.6860 0.6820 0.6770
3.252194 0.6720 0.6620 0.6510 0.6340 0.6270
3.285000 0.6060 0.5930 0.5740 0.5510 0.5340
3.318194 0.5190 0.5060 0.4260 0.3550 0.2770
3.352000 0.1870 0.1170 0.0780 0.0640 0.0510
3.385194 0.0480 0.0430 0.0430 0.0460 0.0530
3.418000 0.0580 0.0660 0.0780 0.0990 0.1320
3.451194 0.1610 0.1710 0.1710 0.1640 0.1570
3.484000 0.1510 0.1510 0.1520 0.1770 0.2390
3.517194 0.3270 0.4410 0.4830 0.5240 0.5940
3.551000 0.6470 0.6890 0.7020 0.7220 0.7300
3.584194 0.7420 0.7450 0.7520 0.7590 0.7640
3.617000 0.7700 0.7790 0.7820 0.7820 0.7820
3.650194 0.7820 0.7790 0.7750 0.7740 0.7740
3.683000 0.7740 0.7720 0.7750 0.7820 0.7870
3.716194 0.7900 0.7890 0.7900 0.7900 0.7900
3.750000 0.7920 0.7940 0.8000 0.8000 0.8000
3.783194 0.8000 0.8000 0.7990 0.8020 0.8020
3.816000 0.8020 0.8020 0.8020 0.8020 0.8020
3.849194 0.8030 0.8030 0.8050 0.8080 0.8100
3.883000 0.8150 0.8150 0.8080 0.8050 0.8080
3.916194 0.8080 0.8130 0.8170 0.8150 0.8170
3.949000 0.8200 0.8250 0.8280 0.8300 0.8300
3.982194 0.8320 0.8330 0.8350 0.8370 0.8370
4.015000 0.8370 0.8380 0.8400 0.8420 0.8420
4.048194 0.8420 0.8400 0.8420 0.8430 0.8450
4.082000 0.8450 0.8450 0.8450 0.8450 0.8500
4.115194 0.8500 0.8520 0.8520 0.8550 0.8550
4.148000 0.8470 0.8470 0.8480 0.8500 0.8520
4.181194 0.8500 0.8500 0.8500 0.8500 0.8470
4.214000 0.8470 0.8450 0.8400 0.8350 0.8280
4.247194 0.8280 0.8280 0.8270 0.8280 0.8330
4.281000 0.8380 0.8420 0.8430 0.8500 0.8520
4.314194 0.8550 0.8580 0.8620 0.8650 0.8650
4.347000 0.8670 0.8700 0.8730 0.8770 0.8780
4.380194 0.8800 0.8780 0.8770 0.8700 0.8680
4.413000 0.8680 0.8680 0.8680 0.8680 0.8680
4.446194 0.8680 0.8680 0.8680 0.8680 0.8680
4.480000 0.8700 0.8720 0.8750 0.8780 0.8800
4.513194 0.8820 0.8820 0.8800 0.8820 0.8820
4.546000 0.8830 0.8830 0.8850 0.8870 0.8880
4.579194 0.8880 0.8880 0.8880 0.8880 0.8950
4.612000 0.9000 0.9000 0.8950 0.8950 0.8930
4.645194 0.8920 0.8950 0.9000 0.9050 0.9060
4.679000 0.9010 0.9010 0.9010 0.9010 0.9060
4.712194 0.9060 0.9080 0.9080 0.9060 0.9060
4.745000 0.9080 0.9080 0.9060 0.9050 0.9030
4.778194 0.8980 0.8920 0.8880 0.8880 0.8880
4.812000 0.8900 0.8970 0.9000 0.9030 0.9060
4.845194 0.9080 0.9100 0.9100 0.9000 0.8920
4.878000 0.8880 0.8920 0.8930 0.8980 0.9030
4.911194 0.9050 0.9060 0.9080 0.9080 0.9110
4.944000 0.9130 0.9130 0.9130 0.9130 0.9130
4.977194 0.9130 0.9150 0.9150 0.9160 0.9180
5.011000 0.9200 0.9200 0.9200 0.9210 0.9210
5.044194 0.9210 0.9210 0.9230 0.9250 0.9300
5.077000 0.9330 0.9330 0.9330 0.9330 0.9310
5.110194 0.9300 0.9260 0.9250 0.9210 0.9080
5.143000 0.8880 0.8750 0.8750 0.8880 0.9150
5.176194 0.9200 0.9230 0.9260 0.9280 0.9300
5.210000 0.9310 0.9330 0.9330 0.9300 0.9260
5.243194 0.9210 0.9230 0.9230 0.9230 0.9250
5.276000 0.9280 0.9260 0.9230 0.9230 0.9280
5.309194 0.9330 0.9380 0.9450 0.9480 0.9510
5.342000 0.9550 0.9560 0.9560 0.9550 0.9560
5.375194 0.9610 0.9660 0.9660 0.9530 0.9510
5.409000 0.9530 0.9630 0.9630 0.9560 0.9500
5.442194 0.9530 0.9580 0.9580 0.9530 0.9480
5.475000 0.9450 0.9450 0.9480 0.9510 0.9580
5.508194 0.9600 0.9600 0.9460 0.9460 0.9500
5.541000 0.9550 0.9550 0.9500 0.9430 0.9360
5.574194 0.9210 0.9130 0.9110 0.9100 0.9050
5.608000 0.8980 0.8950 0.8930 0.8900 0.8870
5.641194 0.8830 0.8820 0.8820 0.8820 0.8730
5.674000 0.8680 0.8570 0.8520 0.8470 0.8370
5.707194 0.8220 0.8020 0.7650 0.7320 0.6790
5.741000 0.6210 0.5640 0.4210 0.3800 0.3200
5.774194 0.2320 0.1460 0.0310 0.0290 0.0330
5.807000 0.0440 0.0530 0.0580 0.0680 0.0830
5.840194 0.1070 0.1460 0.2020 0.2790 0.3250
5.873000 0.3770 0.4300 0.4750 0.4930 0.5110
5.906194 0.5280 0.5380 0.5530 0.5610 0.5590
5.940000 0.5480 0.5410 0.5410 0.5510 0.5790
5.973194 0.6090 0.6260 0.6540 0.6690 0.6840
6.006000 0.6990 0.7040 0.7090 0.7140 0.7190
6.039194 0.7300 0.7370 0.7520 0.7620 0.7750
6.072000 0.7840 0.7870 0.7970 0.8020 0.8070
6.105194 0.8080 0.8120 0.8120 0.8100 0.8100
6.139000 0.8120 0.8150 0.8180 0.8200 0.8200
6.172194 0.8200 0.8170 0.8220 0.8270 0.8320
6.205000 0.8370 0.8420 0.8470 0.8500 0.8520
6.238194 0.8600 0.8650 0.8650 0.8650 0.8650
6.271000 0.8670 0.8680 0.8700 0.8720 0.8730
6.304194 0.8770 0.8780 0.8800 0.8780 0.8780
6.338000 0.8770 0.8670 0.8650 0.8630 0.8630
6.371194 0.8670 0.8680 0.8700 0.8720 0.8720
6.404000 0.8680 0.8580 0.8550 0.8520 0.8500
6.437194 0.8470 0.8420 0.8380 0.8370 0.8330
6.470000 0.8280 0.8200 0.8200 0.8270 0.8300
6.503194 0.8320 0.8350 0.8400 0.8430 0.8470
6.537000 0.8480 0.8520 0.8570 0.8620 0.8670
6.570194 0.8670 0.8650 0.8600 0.8580 0.8320
6.603000 0.7500 0.6640 0.5740 0.5540 0.5540
6.636194 0.6310 0.7390 0.7920 0.8430 0.8470
6.670000 0.8470 0.8430 0.8400 0.8400 0.8380
6.703194 0.8350 0.8280 0.8070 0.7920 0.7790
6.736000 0.7690 0.7540 0.7340 0.7020 0.6570
6.769194 0.5980 0.5440 0.4700 0.4400 0.4080
6.802000 0.3970 0.3850 0.3730 0.3720 0.3620
6.835194 0.3420 0.3280 0.3130 0.2920 0.2790
6.869000 0.2700 0.2590 0.2550 0.2590 0.2790
6.902194 0.2850 0.2940 0.3000 0.2920 0.2720
6.935000 0.2450 0.1960 0.1670 0.1670 0.1710
6.968194 0.2670 0.3600 0.4130 0.4580 0.5030
7.001000 0.5910 0.6590 0.6620 0.6620 0.6520
7.034194 0.6370 0.6160 0.5930 0.5640 0.5260
7.068000 0.4250 0.3600 0.3280 0.3280 0.3480
7.101194 0.4300 0.4730 0.5160 0.5840 0.6120
7.134000 0.6320 0.6540 0.6810 0.6870 0.6910
7.167194 0.6740 0.6520 0.6320 0.6070 0.5830
7.200000 0.5510 0.5140 0.4760 0.4730 0.4710
7.233194 0.4710 0.4710 0.4700 0.4710 0.4860
7.267000 0.5140 0.5430 0.5760 0.6070 0.6270
7.300194 0.6420 0.6570 0.6660 0.6720 0.6910
7.333000 0.7170 0.7500 0.7550 0.7520 0.7470
7.366194 0.7470 0.7470 0.7470 0.7350 0.7240
7.399000 0.7170 0.7000 0.6790 0.6620 0.6460
7.432194 0.6140 0.6020 0.6020 0.6140 0.6290
7.466000 0.6470 0.6610 0.6660 0.6660 0.6620
7.499194 0.6540 0.6390 0.6320 0.6210 0.6090
7.532000 0.5990 0.5880 0.5780 0.5610 0.5390
7.565194 0.5230 0.5060 0.4850 0.4700 0.4500
7.599000 0.4280 0.4050 0.3800 0.3550 0.3300
7.632194 0.3220 0.3070 0.3000 0.2940 0.2900
7.665000 0.2900 0.2890 0.2850 0.2750 0.2620
7.698194 0.2470 0.2340 0.2220 0.2020 0.1690
7.731000 0.1510 0.1410 0.1270 0.1120 0.0990
7.764194 0.0960 0.0860 0.0740 0.0630 0.0590
7.798000 0.0560 0.0490 0.0460 0.0440 0.0480
7.831194 0.0480 0.0530 0.0560 0.0590 0.0580
7.864000 0.0610 0.0690 0.0730 0.0780 0.0790
7.897194 0.0740 0.0630 0.0530 0.0510 0.0510
7.930000 0.0660 0.0890 0.1020 0.1240 0.1520
7.963194 0.1720 0.1890 0.2020 0.2190 0.2370
7.997000 0.2620 0.3300 0.3530 0.3650 0.3950
8.030194 0.4080 0.4250 0.4360 0.4550 0.4660
8.063000 0.4780 0.4850 0.4980 0.5010 0.5030
8.096194 0.5080 0.5130 0.5240 0.5410 0.5460
8.129000 0.5580 0.5710 0.5830 0.5880 0.5910
8.162194 0.6020 0.6190 0.6240 0.6320 0.6360
8.196000 0.6390 0.6460 0.6510 0.6570 0.6620
8.229194 0.6640 0.6690 0.6710 0.6740 0.6770
8.262000 0.6770 0.6690 0.6490 0.6470 0.6440
8.295194 0.6340 0.6290 0.6260 0.6220 0.6190
8.328000 0.6090 0.5940 0.5510 0.5060 0.4110
8.361194 0.3770 0.3470 0.3000 0.2970 0.3300
8.395000 0.3720 0.4230 0.4650 0.5000 0.5160
8.428194 0.5310 0.5560 0.5790 0.6020 0.6220
8.461000 0.6440 0.6520 0.6620 0.6720 0.6810
8.494194 0.6820 0.6870 0.6910 0.6920 0.6960
8.528000 0.6960 0.6960 0.6940 0.6940 0.6940
8.561194 0.6890 0.6890 0.6970 0.7070 0.7120
8.594000 0.7200 0.7320 0.7400 0.7490 0.7520
8.627194 0.7540 0.7570 0.7540 0.7600 0.7650
8.660000 0.7690 0.7700 0.7740 0.7800 0.7820
8.693194 0.7820 0.7840 0.7850 0.7870 0.7900
8.727000 0.7950 0.8000 0.8020 0.8030 0.8030
8.760194 0.8070 0.8100 0.8150 0.8250 0.8250
8.793000 0.8220 0.8170 0.8120 0.8020 0.7950
8.826194 0.7900 0.7800 0.7670 0.7470 0.7250
8.859000 0.6970 0.6820 0.6610 0.6340 0.5940
8.892194 0.5480 0.4230 0.3780 0.3250 0.2690
8.926000 0.2350 0.1860 0.1420 0.1160 0.0960
8.959194 0.0830 0.0730 0.0690 0.0730 0.0990
8.992000 0.0990 0.0940 0.0910 0.0840 0.0830
9.025194 0.0840 0.0990 0.1190 0.1460 0.1820
9.058000 0.2190 0.2440 0.2720 0.3020 0.3180
9.091194 0.3300 0.3420 0.3570 0.3620 0.3630
9.125000 0.3720 0.3730 0.3750 0.3750 0.3770
9.158194 0.3770 0.3780 0.3920 0.4010 0.4200
9.191000 0.4450 0.4680 0.4900 0.4960 0.5010
9.224194 0.5190 0.5330 0.5430 0.5530 0.5590
9.257000 0.5660 0.5730 0.5810 0.5910 0.5990
9.290194 0.6060 0.6140 0.6170 0.6210 0.6240
9.324000 0.6310 0.6370 0.6410 0.6390 0.6410
9.357194 0.6420 0.6460 0.6490 0.6520 0.6570
9.390000 0.6590 0.6610 0.6690 0.6720 0.6740
9.423194 0.6740 0.6810 0.6860 0.6860 0.6820
9.457000 0.6840 0.6870 0.6920 0.6920 0.6920
9.490194 0.6940 0.6960 0.6990 0.7020 0.7040
9.523000 0.7040 0.7050 0.7100 0.7100 0.7120
9.556194 0.7120 0.7100 0.7100 0.7100 0.7100
9.589000 0.7100 0.7100 0.7140 0.7140 0.7190
9.622194 0.7240 0.7270 0.7290 0.7300 0.7300
9.656000 0.7340 0.7390 0.7390 0.7370 0.7350
9.689194 0.7350 0.7390 0.7400 0.7390 0.7390
9.722000 0.7370 0.7370 0.7340 0.7300 0.7250
9.755194 0.7240 0.7190 0.7140 0.6890 0.6520
9.788000 0.6270 0.5630 0.4260 0.3520 0.2820
9.821194 0.2790 0.2790 0.3130 0.4410 0.4760
9.855000 0.5110 0.5590 0.5810 0.6010 0.6240
9.888194 0.6370 0.6570 0.6740 0.6920 0.7000
9.921000 0.7140 0.7220 0.7270 0.7340 0.7370
9.954194 0.7420 0.7470 0.7520 0.7540 0.7550
9.987000 0.7550 0.7570 0.7570 0.7590 0.7600
10.020194 0.7640 0.7740 0.7750 0.7770 0.7770
10.054000 0.7770 0.7750 0.7750 0.7770 0.7770
10.087194 0.7770 0.7750 0.7770 0.7820 0.7840
10.120000 0.7840 0.7820 0.7820 0.7800 0.7820
10.153194 0.7800 0.7770 0.7750 0.7740 0.7720
10.186000 0.7750 0.7750 0.7790 0.7840 0.7840
10.219194 0.7850 0.7850 0.7870 0.7900 0.7920
10.253000 0.7940 0.7940 0.7940 0.7920 0.7900
10.286194 0.7900 0.7890 0.7850 0.7820 0.7800
10.319000 0.7800 0.7840 0.7840 0.7800 0.7790
10.352194 0.7750 0.7740 0.7670 0.7550 0.7500
10.386000 0.7470 0.7370 0.7220 0.7150 0.6970
10.419194 0.6820 0.6620 0.6390 0.6120 0.5860
10.452000 0.5580 0.5340 0.5130 0.4510 0.4300
10.485194 0.4080 0.3850 0.3830 0.3820 0.3850
10.518000 0.4060 0.4300 0.4560 0.4830 0.4980
10.551194 0.5130 0.5390 0.5660 0.5910 0.6120
10.585000 0.6270 0.6470 0.6620 0.6740 0.6820
10.618194 0.6870 0.6920 0.6990 0.7040 0.7140
10.651000 0.7240 0.7290 0.7300 0.7390 0.7420
10.684194 0.7450 0.7490 0.7500 0.7490 0.7540
10.717000 0.7590 0.7640 0.7650 0.7690 0.7700
10.750194 0.7700 0.7720 0.7720 0.7740 0.7750
10.784000 0.7770 0.7790 0.7800 0.7850 0.7870
10.817194 0.7890 0.7900 0.7940 0.7950 0.8000
10.850000 0.8000 0.8020 0.8020 0.8020 0.8020
10.883194 0.8020 0.8020 0.8030 0.8020 0.8030
10.916000 0.8030 0.8030 0.8030 0.8030 0.8050
10.949194 0.8050 0.8080 0.8120 0.8200 0.8200
10.983000 0.8200 0.8220 0.8230 0.8250 0.8250
11.016194 0.8230 0.8220 0.8220 0.8230 0.8230
11.049000 0.8250 0.8270 0.8280 0.8300 0.8280
11.082194 0.8270 0.8270 0.8270 0.8280 0.8270
11.115000 0.8270 0.8270 0.8270 0.8270 0.8230
11.148194 0.8180 0.8180 0.8230 0.8250 0.8270
11.182000 0.8280 0.8270 0.8250 0.8220 0.8180
11.215194 0.8170 0.8170 0.8150 0.8130 0.8130
11.248000 0.8130 0.8120 0.8050 0.8030 0.8020
11.281194 0.7950 0.7920 0.7870 0.7840 0.7790
11.315000 0.7770 0.7720 0.7650 0.7520 0.7390
11.348194 0.7240 0.7040 0.6770 0.6510 0.6270
11.381000 0.6060 0.5930 0.5640 0.5580 0.5510
11.414194 0.5490 0.5530 0.5710 0.5880 0.6040
11.447000 0.6120 0.6120 0.6020 0.6020 0.6020
11.480194 0.6020 0.6160 0.6390 0.6590 0.6820
11.514000 0.7140 0.7420 0.7690 0.7870 0.7920
11.547194 0.8020 0.8080 0.8180 0.8270 0.8320
11.580000 0.8350 0.8380 0.8400 0.8450 0.8480
11.613194 0.8520 0.8520 0.8520 0.8520 0.8520
11.646000 0.8500 0.8530 0.8530 0.8570 0.8570
11.679194 0.8550 0.8550 0.8550 0.8530 0.8530
11.713000 0.8520 0.8520 0.8520 0.8520 0.8520
11.746194 0.8530 0.8530 0.8530 0.8550 0.8550
11.779000 0.8570 0.8580 0.8600 0.8570 0.8600
11.812194 0.8600 0.8600 0.8620 0.8670 0.8670
11.845000 0.8650 0.8620 0.8650 0.8680 0.8680
11.878194 0.8670 0.8630 0.8600 0.8620 0.8680
11.912000 0.8700 0.8730 0.8730 0.8720 0.8680
11.945194 0.8670 0.8630 0.8630 0.8670 0.8680
11.978000 0.8680 0.8620 0.8670 0.8700 0.8720
12.011194 0.8730 0.8730 0.8720 0.8730 0.8730
12.044000 0.8730 0.8750 0.8750 0.8730 0.8700
12.077194 0.8680 0.8680 0.8730 0.8730 0.8730
12.111000 0.8730 0.8730 0.8730 0.8730 0.8770
12.144194 0.8770 0.8680 0.8650 0.8650 0.8650
12.177000 0.8650 0.8650 0.8630 0.8580 0.8520
12.210194 0.8450 0.8420 0.8280 0.8180 0.8020
12.244000 0.7770 0.7450 0.7100 0.6690 0.6240
12.277194 0.5740 0.5240 0.4350 0.4000 0.3920
12.310000 0.3970 0.4450 0.4730 0.5010 0.5790
12.343194 0.6190 0.6660 0.6970 0.7200 0.7390
12.376000 0.7600 0.7850 0.7970 0.7990 0.8020
12.409194 0.8050 0.8100 0.8170 0.8180 0.8200
12.443000 0.8250 0.8300 0.8320 0.8330 0.8350
12.476194 0.8370 0.8380 0.8420 0.8430 0.8470
12.509000 0.8500 0.8500 0.8520 0.8500 0.8500
12.542194 0.8500 0.8500 0.8500 0.8500 0.8520
12.575000 0.8520 0.8520 0.8530 0.8570 0.8600
12.608194 0.8620 0.8620 0.8630 0.8630 0.8620
12.642000 0.8600 0.8570 0.8530 0.8530 0.8530
12.675194 0.8520 0.8530 0.8530 0.8530 0.8530
12.708000 0.8550 0.8580 0.8600 0.8620 0.8630
12.741194 0.8630 0.8630 0.8620 0.8620 0.8620
12.774000 0.8630 0.8650 0.8650 0.8630 0.8620
12.807194 0.8600 0.8530 0.8520 0.8520 0.8570
12.841000 0.8580 0.8600 0.8600 0.8580 0.8600
12.874194 0.8580 0.8580 0.8580 0.8580 0.8570
12.907000 0.8570 0.8550 0.8530 0.8530 0.8570
12.940194 0.8550 0.8530 0.8520 0.8480 0.8470
12.973000 0.8450 0.8430 0.8430 0.8430 0.8430
13.006194 0.8420 0.8420 0.8400 0.8380 0.8330
13.040000 0.8330 0.8400 0.8400 0.8380 0.8380
13.073194 0.8370 0.8350 0.8300 0.8280 0.8280
13.106000 0.8280 0.8350 0.8350 0.8330 0.8330
13.139194 0.8330 0.8350 0.8330 0.8320 0.8270
13.173000 0.8220 0.8220 0.8230 0.8250 0.8250
13.206194 0.8270 0.8270 0.8270 0.8250 0.8230
13.239000 0.8200 0.8180 0.8170 0.8170 0.8180
13.272194 0.8180 0.8170 0.8130 0.8100 0.8080
13.305000 0.8070 0.8030 0.8030 0.8020 0.8000
13.338194 0.7970 0.7900 0.7890 0.7870 0.7850
13.372000 0.7770 0.7750 0.7720 0.7700 0.7650
13.405194 0.7550 0.7520 0.7490 0.7420 0.7390
13.438000 0.7370 0.7320 0.7250 0.7170 0.7050
13.471194 0.7000 0.6960 0.6820 0.6670 0.6510
13.504000 0.6340 0.6160 0.5960 0.5760 0.5530
13.537194 0.5260 0.4630 0.4210 0.3770 0.3400
13.571000 0.2990 0.2670 0.2500 0.2040 0.1660
13.604194 0.1610 0.1520 0.1410 0.1240 0.1210
13.637000 0.1140 0.1110 0.1090 0.1090 0.1090
13.670194 0.1090 0.1110 0.1120 0.1160 0.1170
13.703000 0.1210 0.1260 0.1360 0.1470 0.1560
13.736194 0.1660 0.1740 0.1860 0.1960 0.2090
13.770000 0.2220 0.2370 0.2520 0.2700 0.2890
13.803194 0.3080 0.3300 0.3530 0.3780 0.4050
13.836000 0.4330 0.4650 0.4960 0.5010 0.5060
13.869194 0.5190 0.5330 0.5490 0.5660 0.5840
13.902000 0.6010 0.6210 0.6370 0.6510 0.6610
13.935194 0.6710 0.6810 0.6890 0.6960 0.7050
13.969000 0.7150 0.7270 0.7400 0.7450 0.7520
14.002194 0.7620 0.7670 0.7720 0.7750 0.7820
14.035000 0.7890 0.7990 0.8020 0.8050 0.8100
14.068194 0.8130 0.8200 0.8220 0.8230 0.8230
14.102000 0.8230 0.8230 0.8270 0.8320 0.8330
14.135194 0.8370 0.8380 0.8400 0.8430 0.8470
14.168000 0.8480 0.8500 0.8520 0.8520 0.8530
14.201194 0.8530 0.8550 0.8550 0.8580 0.8600
14.234000 0.8630 0.8630 0.8620 0.8600 0.8600
14.267194 0.8620 0.8630 0.8630 0.8650 0.8670
14.301000 0.8670 0.8680 0.8700 0.8720 0.8720
14.334194 0.8720 0.8720 0.8750 0.8750 0.8750
14.367000 0.8750 0.8750 0.8750 0.8730 0.8720
14.400194 0.8700 0.8700 0.8700 0.8720 0.8730
14.433000 0.8730 0.8720 0.8670 0.8680 0.8720
14.466194 0.8730 0.8770 0.8730 0.8730 0.8730
14.500000 0.8730 0.8730 0.8730 0.8730 0.8730
14.533194 0.8750 0.8750 0.8720 0.8700 0.8700
14.566000 0.8680 0.8680 0.8680 0.8680 0.8670
14.599194 0.8620 0.8670 0.8670 0.8670 0.8650
14.632000 0.8630 0.8620 0.8620 0.8620 0.8620
14.665194 0.8620 0.8620 0.8650 0.8600 0.8530
14.699000 0.8530 0.8580 0.8600 0.8620 0.8630
14.732194 0.8630 0.8630 0.8620 0.8600 0.8550
14.765000 0.8530 0.8520 0.8500 0.8520 0.8520
14.798194 0.8530 0.8570 0.8580 0.8530 0.8520
14.831000 0.8480 0.8450 0.8470 0.8480 0.8520
14.864194 0.8550 0.8550 0.8520 0.8470 0.8470
14.898000 0.8470 0.8470 0.8480 0.8500 0.8480
14.931194 0.8480 0.8470 0.8420 0.8430 0.8450
14.964000 0.8470 0.8470 0.8430 0.8420 0.8370
14.997194 0.8300 0.8230 0.8170 0.8100 0.8050
15.031000 0.8030 0.8020 0.7940 0.7870 0.7820
15.064194 0.7790 0.7740 0.7720 0.7720 0.7740
15.097000 0.7770 0.7800 0.7840 0.7870 0.7920
15.130194 0.7970 0.8030 0.8100 0.8150 0.8200
15.163000 0.8230 0.8230 0.8230 0.8250 0.8270
15.196194 0.8300 0.8320 0.8300 0.8250 0.8200
15.230000 0.8130 0.8080 0.8020 0.8020 0.8030
15.263194 0.8080 0.8080 0.8120 0.8120 0.8130
15.296000 0.8150 0.8130 0.8100 0.8050 0.8020
15.329194 0.8030 0.8020 0.8020 0.8000 0.7950
15.362000 0.7940 0.7900 0.7870 0.7850 0.7840
15.395194 0.7840 0.7820 0.7800 0.7770 0.7750
15.429000 0.7740 0.7740 0.7750 0.7750 0.7770
15.462194 0.7770 0.7750 0.7700 0.7640 0.7600
15.495000 0.7550 0.7540 0.7520 0.7550 0.7570
15.528194 0.7590 0.7570 0.7550 0.7520 0.7520
15.561000 0.7520 0.7500 0.7490 0.7440 0.7400
15.594194 0.7400 0.7400 0.7370 0.7320 0.7350
15.628000 0.7340 0.7340 0.7370 0.7400 0.7390
15.661194 0.7370 0.7350 0.7350 0.7320 0.7240
15.694000 0.7170 0.7170 0.7220 0.7270 0.7290
15.727194 0.7290 0.7290 0.7270 0.7240 0.7200
15.760000 0.7220 0.7200 0.7190 0.7170 0.7150
15.793194 0.7120 0.7050 0.7040 0.7020 0.7000
15.827000 0.6990 0.7000 0.7000 0.6990 0.6970
15.860194 0.6960 0.6920 0.6910 0.6910 0.6890
15.893000 0.6890
##END=
