##TITLE=2,4-DICHLOROPHENOL
$$ E.K. (W.L.)
##JCAMP-DX=4.24
##DATA TYPE=INFRARED SPECTRUM
##CLASS=COBLENTZ
##ORIGIN=WYANDOTTE CHEMICALS CORP., WYANDOTTE, MICHIGAN, USA
##OWNER=COBLENTZ SOCIETY
Collection (C) 2018 copyright by the U.S. Secretary of Commerce
on behalf of the United States of America. All rights reserved.
##DATE=Not specified, most likely prior to 1970
##CAS REGISTRY NO=120-83-2
##MOLFORM=C6 H4 Cl2 O
##MP=41 C
##SOURCE REFERENCE=COBLENTZ NO. 1320
##$NIST SOURCE=COBLENTZ
##$NIST IMAGE=cob1320
##SPECTROMETER/DATA SYSTEM=Not specified, most likely a prism, grating, or hybrid spectrometer.
##STATE=SOLID (MINERAL OIL MULL)
##SAMPLING PROCEDURE=TRANSMISSION
##RESOLUTION=4
##DATA PROCESSING=DIGITIZED BY NIST FROM HARD COPY
##XUNITS=MICROMETERS
##YUNITS=TRANSMITTANCE
##XFACTOR=1.000000
##YFACTOR=1
##DELTAX=000.006809
##FIRSTX=2.027
##LASTX=15.9928
##FIRSTY=0.551
##MAXX=15.9928
##MINX=2.027
##MAXY=0.959
##MINY=0.037
##NPOINTS=2052
##XYDATA=(X++(Y..Y))
2.027000 0.5510 0.5510 0.5510 0.5530 0.5550
2.061063 0.5550 0.5550 0.5560 0.5560 0.5560
2.095000 0.5580 0.5600 0.5600 0.5610 0.5610
2.129063 0.5630 0.5630 0.5630 0.5630 0.5630
2.163000 0.5630 0.5630 0.5630 0.5630 0.5630
2.197063 0.5630 0.5650 0.5670 0.5680 0.5700
2.232000 0.5730 0.5730 0.5730 0.5730 0.5730
2.266063 0.5750 0.5750 0.5730 0.5720 0.5720
2.300000 0.5720 0.5730 0.5730 0.5720 0.5720
2.334063 0.5750 0.5780 0.5800 0.5820 0.5840
2.368000 0.5870 0.5890 0.5900 0.5940 0.5990
2.402063 0.5990 0.5990 0.5990 0.5920 0.5850
2.436000 0.5820 0.5820 0.5780 0.5800 0.5750
2.470063 0.5730 0.5700 0.5670 0.5670 0.5720
2.504000 0.5820 0.5890 0.5920 0.5950 0.5990
2.538063 0.6040 0.6090 0.6140 0.6140 0.6120
2.572000 0.6110 0.6070 0.6040 0.6010 0.6010
2.606063 0.6020 0.6110 0.6210 0.6310 0.6360
2.640000 0.6400 0.6410 0.6430 0.6480 0.6480
2.674063 0.6480 0.6480 0.6480 0.6480 0.6460
2.708000 0.6460 0.6450 0.6430 0.6410 0.6380
2.742063 0.6380 0.6170 0.6070 0.6020 0.5920
2.776000 0.5670 0.5410 0.5340 0.5210 0.4870
2.810063 0.4830 0.4780 0.4770 0.4660 0.4550
2.844000 0.4430 0.3970 0.3560 0.3390 0.3070
2.878063 0.2850 0.2490 0.2150 0.2020 0.1730
2.912000 0.1640 0.1460 0.1220 0.1030 0.0980
2.946063 0.0930 0.0860 0.0810 0.0790 0.0790
2.981000 0.0860 0.0910 0.1000 0.1230 0.1590
3.015063 0.1960 0.2320 0.2540 0.2930 0.3220
3.049000 0.3490 0.3650 0.3870 0.3930 0.4120
3.083063 0.4270 0.4390 0.4480 0.4630 0.4660
3.117000 0.4680 0.4700 0.4710 0.4730 0.4750
3.151063 0.4750 0.4750 0.4750 0.4750 0.4750
3.185000 0.4750 0.4730 0.4730 0.4650 0.4610
3.219063 0.4560 0.4410 0.4340 0.4290 0.4240
3.253000 0.4240 0.4310 0.4430 0.4490 0.4440
3.287063 0.4430 0.4270 0.4120 0.3950 0.3540
3.321000 0.3080 0.2610 0.2100 0.1620 0.1170
3.355063 0.0910 0.0760 0.0710 0.0640 0.0610
3.389000 0.0590 0.0590 0.0610 0.0670 0.0730
3.423063 0.0810 0.0860 0.0960 0.1060 0.1180
3.457000 0.1200 0.1200 0.1200 0.1170 0.1120
3.491063 0.1060 0.1060 0.1170 0.1780 0.2510
3.525000 0.2970 0.4100 0.4610 0.5440 0.5550
3.559063 0.5890 0.5970 0.6120 0.6190 0.6260
3.593000 0.6330 0.6410 0.6480 0.6550 0.6580
3.627063 0.6600 0.6620 0.6620 0.6580 0.6480
3.661000 0.6430 0.6410 0.6410 0.6460 0.6550
3.695063 0.6600 0.6600 0.6630 0.6650 0.6600
3.730000 0.6570 0.6530 0.6510 0.6510 0.6530
3.764063 0.6570 0.6600 0.6650 0.6670 0.6680
3.798000 0.6700 0.6740 0.6770 0.6800 0.6840
3.832063 0.6870 0.6890 0.6920 0.6920 0.6940
3.866000 0.6960 0.6960 0.6970 0.6970 0.6990
3.900063 0.6970 0.6970 0.6990 0.6990 0.6990
3.934000 0.6990 0.6990 0.6990 0.6990 0.6990
3.968063 0.7010 0.7010 0.7010 0.7010 0.7020
4.002000 0.7020 0.7060 0.7090 0.7090 0.7110
4.036063 0.7110 0.7110 0.7130 0.7110 0.7110
4.070000 0.7090 0.7070 0.7060 0.7040 0.7070
4.104063 0.7130 0.7140 0.7140 0.7160 0.7180
4.138000 0.7190 0.7210 0.7240 0.7310 0.7350
4.172063 0.7350 0.7360 0.7380 0.7380 0.7400
4.206000 0.7380 0.7380 0.7380 0.7350 0.7310
4.240063 0.7210 0.7070 0.7010 0.6990 0.7010
4.274000 0.7020 0.7090 0.7190 0.7360 0.7430
4.308063 0.7470 0.7530 0.7570 0.7600 0.7640
4.342000 0.7670 0.7740 0.7800 0.7910 0.7970
4.376063 0.7990 0.7990 0.7960 0.7910 0.7860
4.411000 0.7740 0.7690 0.7620 0.7620 0.7700
4.445063 0.7740 0.7740 0.7750 0.7770 0.7790
4.479000 0.7840 0.7870 0.7870 0.7870 0.7820
4.513063 0.7820 0.7860 0.7870 0.7870 0.7890
4.547000 0.7890 0.7890 0.7910 0.7960 0.7990
4.581063 0.8040 0.8080 0.8090 0.8110 0.7970
4.615000 0.7970 0.7970 0.7970 0.7970 0.7990
4.649063 0.8030 0.8080 0.8140 0.8180 0.8180
4.683000 0.8210 0.8250 0.8250 0.8200 0.8210
4.717063 0.8210 0.8210 0.8200 0.8130 0.8130
4.751000 0.8210 0.8260 0.8280 0.8300 0.8330
4.785063 0.8330 0.8330 0.8330 0.8330 0.8350
4.819000 0.8350 0.8350 0.8350 0.8310 0.8310
4.853063 0.8370 0.8370 0.8370 0.8370 0.8370
4.887000 0.8370 0.8370 0.8400 0.8450 0.8480
4.921063 0.8480 0.8480 0.8480 0.8480 0.8500
4.955000 0.8500 0.8470 0.8470 0.8470 0.8480
4.989063 0.8520 0.8520 0.8520 0.8520 0.8500
5.023000 0.8420 0.8420 0.8420 0.8400 0.8370
5.057063 0.8310 0.8310 0.8370 0.8500 0.8590
5.091000 0.8600 0.8640 0.8670 0.8690 0.8720
5.125063 0.8720 0.8740 0.8740 0.8740 0.8740
5.160000 0.8740 0.8740 0.8740 0.8770 0.8810
5.194063 0.8870 0.8860 0.8840 0.8810 0.8770
5.228000 0.8740 0.8720 0.8720 0.8720 0.8790
5.262063 0.8840 0.8870 0.8870 0.8890 0.8870
5.296000 0.8550 0.8300 0.8200 0.8200 0.8250
5.330063 0.8310 0.8370 0.8350 0.8200 0.8110
5.364000 0.8110 0.8130 0.8200 0.8310 0.8370
5.398063 0.8530 0.8640 0.8700 0.8760 0.8810
5.432000 0.8840 0.8860 0.8870 0.8940 0.8990
5.466063 0.9010 0.8990 0.8890 0.8890 0.8910
5.500000 0.9110 0.9180 0.9180 0.9180 0.9180
5.534063 0.9130 0.9130 0.9130 0.9130 0.9100
5.568000 0.9010 0.8990 0.8980 0.8980 0.9080
5.602063 0.9100 0.9200 0.9250 0.9200 0.9180
5.636000 0.9160 0.9160 0.9160 0.9150 0.9130
5.670063 0.9110 0.9100 0.8980 0.8890 0.8810
5.704000 0.8690 0.8550 0.8520 0.8550 0.8550
5.738063 0.8590 0.8640 0.8700 0.8790 0.8810
5.772000 0.8810 0.7620 0.7400 0.7180 0.7140
5.806063 0.7180 0.7600 0.8160 0.8670 0.8690
5.840000 0.8690 0.8520 0.8520 0.8600 0.8700
5.874063 0.8860 0.9300 0.9380 0.9380 0.9130
5.909000 0.9110 0.8980 0.8980 0.9080 0.9230
5.943063 0.9260 0.9280 0.9100 0.9100 0.9110
5.977000 0.9320 0.9330 0.9300 0.9280 0.9160
6.011063 0.9080 0.8930 0.8840 0.8860 0.8870
6.045000 0.8860 0.8860 0.8810 0.8600 0.8550
6.079063 0.8550 0.8810 0.8810 0.8770 0.8520
6.113000 0.8520 0.8600 0.8870 0.8990 0.9060
6.147063 0.9200 0.9280 0.9300 0.9210 0.9040
6.181000 0.8980 0.8820 0.8350 0.7700 0.6890
6.215063 0.6060 0.5500 0.5460 0.5220 0.4580
6.249000 0.3800 0.3680 0.3710 0.4260 0.4610
6.283063 0.5050 0.5240 0.5360 0.5600 0.5940
6.317000 0.6230 0.6480 0.7090 0.7240 0.7400
6.351063 0.7600 0.7820 0.8260 0.8760 0.9150
6.385000 0.9400 0.9420 0.9400 0.9370 0.9370
6.419063 0.9280 0.9280 0.9280 0.9320 0.9370
6.453000 0.9470 0.9570 0.9590 0.9570 0.9400
6.487063 0.9350 0.9250 0.9100 0.9030 0.8990
6.521000 0.8870 0.8820 0.8820 0.8760 0.8690
6.555063 0.8350 0.7640 0.7020 0.6620 0.6110
6.589000 0.5360 0.4700 0.4600 0.4530 0.4430
6.623063 0.4210 0.3510 0.2920 0.1900 0.1470
6.658000 0.1290 0.1120 0.0880 0.0640 0.0490
6.692063 0.0400 0.0390 0.0390 0.0400 0.0420
6.726000 0.0420 0.0450 0.0490 0.0540 0.0590
6.760063 0.0670 0.0780 0.0880 0.1030 0.1150
6.794000 0.1170 0.1200 0.1290 0.1420 0.1470
6.828063 0.1540 0.1590 0.1690 0.1860 0.2070
6.862000 0.2300 0.2540 0.2780 0.3140 0.3440
6.896063 0.3590 0.3780 0.4040 0.4320 0.4710
6.930000 0.5160 0.5410 0.5610 0.5730 0.5940
6.964063 0.6190 0.6240 0.6240 0.6230 0.6070
6.998000 0.6060 0.5940 0.5780 0.5610 0.5510
7.032063 0.5500 0.5310 0.4820 0.4440 0.3220
7.066000 0.2680 0.2520 0.2520 0.2660 0.3150
7.100063 0.3440 0.3880 0.4260 0.4580 0.4880
7.134000 0.5110 0.5310 0.5500 0.5510 0.5500
7.168063 0.5380 0.5280 0.5210 0.5160 0.5000
7.202000 0.4880 0.4550 0.4220 0.4020 0.3830
7.236063 0.3820 0.3820 0.3900 0.4360 0.4630
7.270000 0.4900 0.4940 0.5070 0.5260 0.5510
7.304063 0.5800 0.6120 0.6410 0.6700 0.6940
7.339000 0.7040 0.7090 0.7110 0.7110 0.7010
7.373063 0.6910 0.6840 0.6770 0.6600 0.6410
7.407000 0.6090 0.5770 0.5610 0.5220 0.4800
7.441063 0.4140 0.3420 0.3050 0.2370 0.2050
7.475000 0.1960 0.1810 0.1780 0.1780 0.1810
7.509063 0.1950 0.2020 0.2150 0.2370 0.2680
7.543000 0.3050 0.3480 0.3970 0.4490 0.5050
7.577063 0.5360 0.5610 0.5890 0.6120 0.6380
7.611000 0.6630 0.6740 0.6840 0.6920 0.7020
7.645063 0.7140 0.7240 0.7380 0.7520 0.7670
7.679000 0.7770 0.7910 0.7920 0.7910 0.7650
7.713063 0.7130 0.6750 0.5920 0.5050 0.4780
7.747000 0.4710 0.4560 0.4220 0.3220 0.2420
7.781063 0.1710 0.0910 0.0730 0.0740 0.0780
7.815000 0.1100 0.1520 0.1930 0.2420 0.2750
7.849063 0.3310 0.3480 0.4090 0.4380 0.4660
7.883000 0.4870 0.4990 0.5110 0.5120 0.5110
7.917063 0.4870 0.4580 0.4220 0.3870 0.3560
7.951000 0.3020 0.2920 0.2920 0.2920 0.2930
7.985063 0.3410 0.3660 0.3800 0.4290 0.4410
8.019000 0.4410 0.3590 0.3030 0.2710 0.2340
8.053063 0.2320 0.2350 0.2930 0.3490 0.4150
8.088000 0.4660 0.5140 0.5630 0.6070 0.6280
8.122063 0.6530 0.6580 0.6600 0.6600 0.6580
8.156000 0.6460 0.6260 0.6020 0.5770 0.5560
8.190063 0.5440 0.5380 0.5090 0.4870 0.4650
8.224000 0.4510 0.4320 0.3930 0.3660 0.3340
8.258063 0.3020 0.2750 0.2510 0.2320 0.2190
8.292000 0.1930 0.1740 0.1590 0.1420 0.1220
8.326063 0.1080 0.0980 0.0840 0.0790 0.0730
8.360000 0.0670 0.0610 0.0590 0.0540 0.0470
8.394063 0.0420 0.0390 0.0370 0.0370 0.0370
8.428000 0.0370 0.0390 0.0390 0.0400 0.0440
8.462063 0.0470 0.0500 0.0500 0.0520 0.0590
8.496000 0.0640 0.0670 0.0710 0.0740 0.0790
8.530063 0.0840 0.0890 0.0960 0.1010 0.1120
8.564000 0.1130 0.1180 0.1270 0.1390 0.1510
8.598063 0.1640 0.1740 0.1850 0.1900 0.2030
8.632000 0.2150 0.2300 0.2510 0.2560 0.2630
8.666063 0.2750 0.2830 0.2920 0.2930 0.2810
8.700000 0.2590 0.2320 0.1860 0.1520 0.1520
8.734063 0.1610 0.1710 0.1780 0.1780 0.1810
8.768000 0.1830 0.1960 0.2240 0.2460 0.2680
8.802063 0.2860 0.3070 0.3290 0.3390 0.3480
8.837000 0.3580 0.3660 0.3760 0.3830 0.3870
8.871063 0.3880 0.3900 0.3980 0.4070 0.4170
8.905000 0.4220 0.4270 0.4290 0.4320 0.4320
8.939063 0.4340 0.4340 0.4290 0.4220 0.4170
8.973000 0.4150 0.4140 0.4140 0.4120 0.4090
9.007063 0.4020 0.3970 0.3950 0.3870 0.3800
9.041000 0.3800 0.3710 0.3580 0.3410 0.3250
9.075063 0.3100 0.2920 0.2760 0.2750 0.2760
9.109000 0.2980 0.3220 0.3460 0.3700 0.3950
9.143063 0.4190 0.4410 0.4610 0.4800 0.4920
9.177000 0.4970 0.5070 0.5190 0.5310 0.5380
9.211063 0.5430 0.5440 0.5500 0.5460 0.5500
9.245000 0.5510 0.5550 0.5610 0.5700 0.5780
9.279063 0.5840 0.5850 0.5870 0.5890 0.5900
9.313000 0.5920 0.5990 0.6010 0.6010 0.6020
9.347063 0.6020 0.6020 0.6020 0.6020 0.6010
9.381000 0.5990 0.5900 0.5770 0.5560 0.5310
9.415063 0.4880 0.4340 0.3150 0.2320 0.1860
9.449000 0.1390 0.1270 0.1270 0.1320 0.1730
9.483063 0.2130 0.2730 0.3200 0.3630 0.4000
9.518000 0.4320 0.4610 0.4870 0.5050 0.5210
9.552063 0.5330 0.5410 0.5440 0.5430 0.5460
9.586000 0.5500 0.5550 0.5630 0.5730 0.5800
9.620063 0.5840 0.5850 0.5900 0.5920 0.5940
9.654000 0.5970 0.5990 0.6020 0.6060 0.6120
9.688063 0.6160 0.6210 0.6240 0.6260 0.6280
9.722000 0.6290 0.6290 0.6310 0.6330 0.6340
9.756063 0.6450 0.6460 0.6460 0.6480 0.6510
9.790000 0.6550 0.6570 0.6580 0.6600 0.6600
9.824063 0.6600 0.6620 0.6620 0.6630 0.6630
9.858000 0.6670 0.6680 0.6720 0.6720 0.6720
9.892063 0.6740 0.6740 0.6750 0.6750 0.6770
9.926000 0.6800 0.6820 0.6840 0.6850 0.6890
9.960063 0.6890 0.6910 0.6910 0.6940 0.6940
9.994000 0.6960 0.6940 0.6970 0.6990 0.6990
10.028063 0.7010 0.7020 0.7060 0.7090 0.7110
10.062000 0.7130 0.7180 0.7190 0.7190 0.7210
10.096063 0.7210 0.7230 0.7230 0.7230 0.7230
10.130000 0.7260 0.7380 0.7380 0.7310 0.7310
10.164063 0.7310 0.7310 0.7310 0.7310 0.7330
10.198000 0.7330 0.7330 0.7330 0.7350 0.7350
10.232063 0.7380 0.7380 0.7400 0.7330 0.7330
10.267000 0.7330 0.7330 0.7360 0.7360 0.7380
10.301063 0.7400 0.7410 0.7400 0.7400 0.7380
10.335000 0.7400 0.7400 0.7410 0.7410 0.7410
10.369063 0.7430 0.7410 0.7430 0.7430 0.7450
10.403000 0.7470 0.7480 0.7480 0.7500 0.7480
10.437063 0.7480 0.7480 0.7480 0.7500 0.7480
10.471000 0.7410 0.7410 0.7380 0.7400 0.7400
10.505063 0.7430 0.7430 0.7400 0.7380 0.7360
10.539000 0.7380 0.7350 0.7300 0.7210 0.7070
10.573063 0.7020 0.7070 0.7090 0.7210 0.7300
10.607000 0.7380 0.7380 0.7330 0.7260 0.7140
10.641063 0.6840 0.6580 0.6550 0.6550 0.6670
10.675000 0.6940 0.7140 0.7160 0.7130 0.7110
10.709063 0.7070 0.7070 0.7110 0.7210 0.7280
10.743000 0.7380 0.7400 0.7400 0.7400 0.7400
10.777063 0.7410 0.7430 0.7480 0.7500 0.7570
10.811000 0.7620 0.7620 0.7620 0.7580 0.7580
10.845063 0.7520 0.7500 0.7520 0.7600 0.7620
10.879000 0.7620 0.7600 0.7570 0.7570 0.7580
10.913063 0.7600 0.7600 0.7600 0.7580 0.7580
10.947000 0.7580 0.7600 0.7600 0.7620 0.7600
10.981063 0.7620 0.7620 0.7640 0.7640 0.7640
11.016000 0.7640 0.7640 0.7620 0.7600 0.7580
11.050063 0.7570 0.7550 0.7550 0.7520 0.7430
11.084000 0.7410 0.7350 0.7310 0.7300 0.7360
11.118063 0.7360 0.7360 0.7350 0.7310 0.7260
11.152000 0.7230 0.7230 0.7240 0.7280 0.7280
11.186063 0.7280 0.7300 0.7300 0.7280 0.7230
11.220000 0.7240 0.7240 0.7300 0.7300 0.7300
11.254063 0.7180 0.7190 0.7210 0.7300 0.7330
11.288000 0.7280 0.7260 0.7230 0.7230 0.7230
11.322063 0.7190 0.7190 0.7160 0.7140 0.7130
11.356000 0.7130 0.7110 0.7070 0.7020 0.7010
11.390063 0.6970 0.6960 0.6940 0.6910 0.6850
11.424000 0.6790 0.6750 0.6680 0.6630 0.6570
11.458063 0.6500 0.6380 0.6260 0.6140 0.6120
11.492000 0.6020 0.5330 0.5070 0.4680 0.3970
11.526063 0.3700 0.2980 0.2590 0.2460 0.2300
11.560000 0.2270 0.2170 0.2080 0.1930 0.1880
11.594063 0.1610 0.1560 0.1150 0.1010 0.0760
11.628000 0.0760 0.0660 0.0620 0.0560 0.0540
11.662063 0.0560 0.0620 0.0670 0.0710 0.0640
11.696000 0.0610 0.0590 0.0610 0.0620 0.0670
11.730063 0.0840 0.1250 0.1560 0.2050 0.2420
11.765000 0.3290 0.3360 0.4320 0.4460 0.4530
11.799063 0.5020 0.5560 0.6010 0.6140 0.6160
11.833000 0.6360 0.6450 0.6600 0.6800 0.6940
11.867063 0.6990 0.7010 0.7020 0.7020 0.7130
11.901000 0.7180 0.7190 0.7210 0.7230 0.7210
11.935063 0.7180 0.7130 0.7110 0.7090 0.7060
11.969000 0.7040 0.6990 0.6910 0.6870 0.6820
12.003063 0.6820 0.6770 0.6630 0.6600 0.6550
12.037000 0.6450 0.6230 0.6090 0.5950 0.5850
12.071063 0.5700 0.5600 0.5190 0.4900 0.4630
12.105000 0.4340 0.4000 0.3510 0.3220 0.3100
12.139063 0.2270 0.2080 0.1860 0.1470 0.1270
12.173000 0.1100 0.1000 0.0960 0.0980 0.1180
12.207063 0.1300 0.1560 0.1730 0.1740 0.1640
12.241000 0.1540 0.1460 0.1300 0.1130 0.0710
12.275063 0.0540 0.0540 0.0570 0.0890 0.1180
12.309000 0.1200 0.1230 0.1300 0.1300 0.1250
12.343063 0.1060 0.0840 0.0830 0.0830 0.0860
12.377000 0.1050 0.1130 0.1230 0.1340 0.1440
12.411063 0.3510 0.3850 0.4040 0.4780 0.5210
12.446000 0.5500 0.5750 0.6020 0.6170 0.6340
12.480063 0.6510 0.6720 0.6870 0.6990 0.7020
12.514000 0.7090 0.7190 0.7300 0.7380 0.7410
12.548063 0.7450 0.7480 0.7500 0.7530 0.7550
12.582000 0.7550 0.7550 0.7550 0.7570 0.7570
12.616063 0.7600 0.7620 0.7640 0.7650 0.7720
12.650000 0.7740 0.7790 0.7890 0.7910 0.7920
12.684063 0.7940 0.7960 0.7970 0.7990 0.8010
12.718000 0.8010 0.8030 0.8040 0.8040 0.8060
12.752063 0.8060 0.8080 0.8090 0.8090 0.8090
12.786000 0.8110 0.8130 0.8130 0.8160 0.8160
12.820063 0.8180 0.8180 0.8180 0.8200 0.8200
12.854000 0.8210 0.8210 0.8230 0.8210 0.8200
12.888063 0.8200 0.8180 0.8180 0.8160 0.8160
12.922000 0.8140 0.8140 0.8140 0.8140 0.8160
12.956063 0.8160 0.8160 0.8140 0.8130 0.8110
12.990000 0.8090 0.8060 0.8010 0.7990 0.7960
13.024063 0.7920 0.7860 0.7790 0.7670 0.7600
13.058000 0.7520 0.7470 0.7360 0.7350 0.7380
13.092063 0.7450 0.7500 0.7550 0.7620 0.7690
13.126000 0.7790 0.7970 0.8110 0.8180 0.8280
13.160063 0.8310 0.8350 0.8380 0.8380 0.8400
13.195000 0.8420 0.8470 0.8520 0.8530 0.8530
13.229063 0.8550 0.8530 0.8520 0.8500 0.8470
13.263000 0.8450 0.8400 0.8380 0.8370 0.8330
13.297063 0.8330 0.8280 0.8260 0.8230 0.8210
13.331000 0.8200 0.8180 0.8180 0.8160 0.8130
13.365063 0.8030 0.7990 0.7990 0.7990 0.7970
13.399000 0.7920 0.7910 0.7910 0.7890 0.7890
13.433063 0.7890 0.7890 0.7890 0.7890 0.7890
13.467000 0.7870 0.7870 0.7870 0.7860 0.7860
13.501063 0.7860 0.7860 0.7840 0.7820 0.7820
13.535000 0.7800 0.7700 0.7700 0.7690 0.7640
13.569063 0.7530 0.7450 0.7310 0.7210 0.7140
13.603000 0.7090 0.6680 0.6210 0.6090 0.5680
13.637063 0.5330 0.5000 0.4510 0.4000 0.3510
13.671000 0.3100 0.2680 0.2080 0.1950 0.1760
13.705063 0.1570 0.1350 0.1230 0.1130 0.1100
13.739000 0.1080 0.1080 0.1080 0.1100 0.1120
13.773063 0.1130 0.1100 0.1100 0.1080 0.1030
13.807000 0.1000 0.1000 0.1010 0.1100 0.1130
13.841063 0.1200 0.1370 0.1590 0.1880 0.2190
13.875000 0.2300 0.2440 0.2690 0.2930 0.3340
13.909063 0.3490 0.3710 0.3900 0.3980 0.4210
13.944000 0.4380 0.4530 0.4630 0.4710 0.4730
13.978063 0.4870 0.4990 0.5020 0.5070 0.5160
14.012000 0.5220 0.5310 0.5380 0.5410 0.5500
14.046063 0.5550 0.5560 0.5730 0.5850 0.5990
14.080000 0.6040 0.6120 0.6170 0.6280 0.6400
14.114063 0.6460 0.6530 0.6600 0.6670 0.6720
14.148000 0.6770 0.6840 0.6870 0.6910 0.6940
14.182063 0.6990 0.7020 0.7060 0.7060 0.7110
14.216000 0.7140 0.7160 0.7180 0.7190 0.7190
14.250063 0.7210 0.7210 0.7210 0.7210 0.7210
14.284000 0.7210 0.7210 0.7190 0.7180 0.7140
14.318063 0.7090 0.7060 0.7020 0.6990 0.6970
14.352000 0.6960 0.6920 0.6890 0.6850 0.6800
14.386063 0.6770 0.6740 0.6720 0.6670 0.6650
14.420000 0.6620 0.6570 0.6530 0.6510 0.6530
14.454063 0.6600 0.6650 0.6720 0.6740 0.6790
14.488000 0.6890 0.6990 0.7060 0.7160 0.7260
14.522063 0.7330 0.7380 0.7410 0.7470 0.7480
14.556000 0.7480 0.7520 0.7530 0.7520 0.7520
14.590063 0.7520 0.7520 0.7520 0.7520 0.7500
14.625000 0.7500 0.7500 0.7500 0.7520 0.7520
14.659063 0.7520 0.7520 0.7520 0.7520 0.7520
14.693000 0.7520 0.7520 0.7520 0.7520 0.7530
14.727063 0.7520 0.7520 0.7520 0.7520 0.7520
14.761000 0.7520 0.7500 0.7480 0.7480 0.7470
14.795063 0.7470 0.7450 0.7450 0.7410 0.7400
14.829000 0.7400 0.7380 0.7380 0.7360 0.7360
14.863063 0.7360 0.7350 0.7350 0.7350 0.7330
14.897000 0.7330 0.7310 0.7330 0.7310 0.7310
14.931063 0.7300 0.7300 0.7260 0.7210 0.7160
14.965000 0.7130 0.7070 0.7040 0.7020 0.6960
14.999063 0.6910 0.6700 0.6480 0.6380 0.6240
15.033000 0.6120 0.5970 0.5850 0.5720 0.5680
15.067063 0.5630 0.5600 0.5560 0.5530 0.5510
15.101000 0.5530 0.5610 0.5680 0.5730 0.5770
15.135063 0.5890 0.6010 0.6070 0.6190 0.6240
15.169000 0.6280 0.6310 0.6360 0.6380 0.6500
15.203063 0.6600 0.6650 0.6680 0.6680 0.6650
15.237000 0.6550 0.6480 0.6360 0.6340 0.6240
15.271063 0.6090 0.5920 0.5770 0.5530 0.5480
15.305000 0.5310 0.5160 0.4950 0.4800 0.4560
15.339063 0.4410 0.4240 0.4140 0.4040 0.3980
15.374000 0.3920 0.3880 0.3850 0.3830 0.3850
15.408063 0.3870 0.3880 0.3900 0.3950 0.4040
15.442000 0.4150 0.4310 0.4490 0.4610 0.4660
15.476063 0.4750 0.4830 0.4900 0.5000 0.5090
15.510000 0.5170 0.5280 0.5380 0.5480 0.5530
15.544063 0.5560 0.5630 0.5670 0.5720 0.5780
15.578000 0.5800 0.5850 0.5890 0.5900 0.5900
15.612063 0.5920 0.5920 0.5920 0.5920 0.5920
15.646000 0.5920 0.5920 0.5940 0.5920 0.5920
15.680063 0.5920 0.5920 0.5920 0.5940 0.5940
15.714000 0.5920 0.5920 0.5900 0.5890 0.5870
15.748063 0.5850 0.5840 0.5840 0.5840 0.5840
15.782000 0.5840 0.5840 0.5820 0.5820 0.5820
15.816063 0.5820 0.5800 0.5800 0.5780 0.5770
15.850000 0.5730 0.5720 0.5700 0.5650 0.5650
15.884063 0.5610 0.5610 0.5610 0.5610 0.5630
15.918000 0.5670 0.5720 0.6110 0.6110 0.6070
15.952063 0.5870 0.5720 0.5560 0.5550 0.5550
15.986000 0.5550 0.5550
##END=
