##TITLE=4-Chloro-2-benzylphenol
##JCAMP-DX=4.24
$$ By DXEDIT 1.05 (RS McDonald)
##DATA TYPE=INFRARED SPECTRUM
##CLASS=COBLENTZ II
##ORIGIN=DOW CHEMICAL COMPANY
##OWNER=COPYRIGHT (C) 1988 by COBLENTZ SOCIETY INC.
Collection (C) 2018 copyright by the U.S. Secretary of Commerce
on behalf of the United States of America. All rights reserved.
##DATE=1969/05/07
##NAMES=2-benzyl-4-chlorophenol
##CAS REGISTRY NO=120-32-1
##MOLFORM=C13 H11 Cl O
##SOURCE REFERENCE=COBLENTZ NO. 06003
##$NIST SOURCE=COBLENTZ
##$NIST IMAGE=cob6003
##SPECTROMETER/DATA SYSTEM=DOW KBr FOREPRISM-GRATING
##INSTRUMENT PARAMETERS=BLAZED AT 3.5, 12.0, 20.0 MICRON AND CHANGED AT 5.0, 7.5, 14.9 MICRON
##STATE=SOLID (SPLIT MULL)
$$ DOW: 99.99% PURE FROM FREEZING POINT OF 49.187
##PATH LENGTH=
$$ SEE SPECTRUM NO. 6001 FOR SOLUTION STATE
##SAMPLING PROCEDURE=TRANSMISSION
##RESOLUTION=2
##DATA PROCESSING=DIGITIZED BY COBLENTZ SOCIETY (BATCH I) FROM HARD COPY
##XUNITS=1/CM
##YUNITS=TRANSMITTANCE
##XFACTOR=1
##YFACTOR=1
##DELTAX=1
##FIRSTX=3800
##LASTX=388
##FIRSTY=0.6599
##MAXX=3800
##MINX=388
##MAXY=0.8962
##MINY=0.08
##NPOINTS=3413
##XYDATA=(X++(Y..Y))
3800.000000 0.6599 0.6599 0.6599 0.6599 0.6599
3795.000000 0.6598 0.6598 0.6598 0.6598 0.6597
3790.000000 0.6597 0.6597 0.6597 0.6597 0.6597
3785.000000 0.6596 0.6596 0.6596 0.6596 0.6595
3780.000000 0.6595 0.6595 0.6595 0.6596 0.6597
3775.000000 0.6598 0.6599 0.6600 0.6601 0.6601
3770.000000 0.6603 0.6603 0.6604 0.6605 0.6606
3765.000000 0.6607 0.6608 0.6610 0.6612 0.6615
3760.000000 0.6619 0.6624 0.6628 0.6631 0.6635
3755.000000 0.6639 0.6643 0.6646 0.6650 0.6653
3750.000000 0.6657 0.6660 0.6664 0.6667 0.6669
3745.000000 0.6672 0.6676 0.6680 0.6683 0.6686
3740.000000 0.6689 0.6692 0.6696 0.6698 0.6701
3735.000000 0.6703 0.6705 0.6707 0.6708 0.6711
3730.000000 0.6712 0.6715 0.6717 0.6718 0.6719
3725.000000 0.6721 0.6724 0.6725 0.6728 0.6730
3720.000000 0.6732 0.6734 0.6736 0.6738 0.6740
3715.000000 0.6741 0.6743 0.6745 0.6747 0.6749
3710.000000 0.6751 0.6754 0.6757 0.6758 0.6761
3705.000000 0.6764 0.6767 0.6768 0.6771 0.6775
3700.000000 0.6778 0.6780 0.6783 0.6785 0.6788
3695.000000 0.6791 0.6794 0.6796 0.6799 0.6801
3690.000000 0.6804 0.6806 0.6808 0.6811 0.6815
3685.000000 0.6817 0.6819 0.6821 0.6825 0.6825
3680.000000 0.6828 0.6830 0.6832 0.6834 0.6836
3675.000000 0.6838 0.6840 0.6841 0.6843 0.6845
3670.000000 0.6847 0.6849 0.6851 0.6853 0.6855
3665.000000 0.6856 0.6858 0.6860 0.6861 0.6864
3660.000000 0.6865 0.6865 0.6867 0.6867 0.6868
3655.000000 0.6868 0.6868 0.6868 0.6869 0.6869
3650.000000 0.6871 0.6871 0.6871 0.6871 0.6872
3645.000000 0.6872 0.6874 0.6874 0.6875 0.6875
3640.000000 0.6875 0.6875 0.6876 0.6876 0.6878
3635.000000 0.6878 0.6878 0.6878 0.6880 0.6880
3630.000000 0.6881 0.6881 0.6882 0.6882 0.6883
3625.000000 0.6884 0.6885 0.6885 0.6886 0.6886
3620.000000 0.6887 0.6887 0.6888 0.6888 0.6889
3615.000000 0.6889 0.6890 0.6892 0.6894 0.6896
3610.000000 0.6899 0.6901 0.6903 0.6905 0.6907
3605.000000 0.6908 0.6911 0.6912 0.6915 0.6918
3600.000000 0.6921 0.6928 0.6937 0.6945 0.6954
3595.000000 0.6958 0.6965 0.6965 0.6968 0.6968
3590.000000 0.6971 0.6971 0.6971 0.6971 0.6971
3585.000000 0.6968 0.6967 0.6965 0.6964 0.6961
3580.000000 0.6960 0.6958 0.6957 0.6954 0.6951
3575.000000 0.6949 0.6948 0.6948 0.6950 0.6954
3570.000000 0.6958 0.6961 0.6965 0.6968 0.6971
3565.000000 0.6972 0.6975 0.6978 0.6982 0.6984
3560.000000 0.6986 0.6987 0.6989 0.6990 0.6992
3555.000000 0.6993 0.6995 0.6995 0.6995 0.6995
3550.000000 0.6996 0.6996 0.6996 0.6996 0.6997
3545.000000 0.6997 0.6997 0.6997 0.6997 0.6997
3540.000000 0.6998 0.6998 0.6998 0.6997 0.6996
3535.000000 0.6995 0.6994 0.6993 0.6992 0.6991
3530.000000 0.6990 0.6988 0.6987 0.6986 0.6985
3525.000000 0.6984 0.6983 0.6982 0.6981 0.6980
3520.000000 0.6978 0.6975 0.6971 0.6968 0.6965
3515.000000 0.6961 0.6958 0.6955 0.6951 0.6948
3510.000000 0.6945 0.6942 0.6939 0.6935 0.6932
3505.000000 0.6928 0.6925 0.6921 0.6918 0.6912
3500.000000 0.6908 0.6901 0.6896 0.6890 0.6884
3495.000000 0.6878 0.6871 0.6865 0.6860 0.6854
3490.000000 0.6848 0.6842 0.6836 0.6828 0.6822
3485.000000 0.6812 0.6804 0.6794 0.6785 0.6775
3480.000000 0.6765 0.6755 0.6746 0.6735 0.6724
3475.000000 0.6698 0.6671 0.6645 0.6618 0.6593
3470.000000 0.6567 0.6540 0.6514 0.6489 0.6464
3465.000000 0.6439 0.6414 0.6389 0.6365 0.6340
3460.000000 0.6315 0.6290 0.6265 0.6240 0.6216
3455.000000 0.6191 0.6167 0.6142 0.6118 0.6093
3450.000000 0.6069 0.6045 0.6021 0.5996 0.5972
3445.000000 0.5940 0.5909 0.5876 0.5844 0.5810
3440.000000 0.5778 0.5745 0.5712 0.5680 0.5647
3435.000000 0.5612 0.5578 0.5543 0.5508 0.5473
3430.000000 0.5438 0.5401 0.5364 0.5321 0.5279
3425.000000 0.5237 0.5195 0.5153 0.5110 0.5069
3420.000000 0.5027 0.4986 0.4946 0.4905 0.4864
3415.000000 0.4823 0.4782 0.4743 0.4705 0.4670
3410.000000 0.4635 0.4600 0.4566 0.4531 0.4496
3405.000000 0.4457 0.4418 0.4369 0.4320 0.4271
3400.000000 0.4222 0.4176 0.4130 0.4093 0.4056
3395.000000 0.4018 0.3982 0.3945 0.3908 0.3871
3390.000000 0.3834 0.3796 0.3759 0.3728 0.3697
3385.000000 0.3670 0.3643 0.3614 0.3588 0.3560
3380.000000 0.3534 0.3510 0.3489 0.3472 0.3456
3375.000000 0.3432 0.3408 0.3373 0.3338 0.3303
3370.000000 0.3268 0.3234 0.3200 0.3165 0.3130
3365.000000 0.3095 0.3061 0.3026 0.2991 0.2956
3360.000000 0.2922 0.2887 0.2852 0.2817 0.2783
3355.000000 0.2733 0.2683 0.2624 0.2565 0.2505
3350.000000 0.2445 0.2409 0.2374 0.2342 0.2311
3345.000000 0.2288 0.2266 0.2245 0.2224 0.2203
3340.000000 0.2182 0.2161 0.2141 0.2122 0.2104
3335.000000 0.2084 0.2066 0.2046 0.2028 0.2008
3330.000000 0.1989 0.1969 0.1950 0.1931 0.1913
3325.000000 0.1898 0.1883 0.1870 0.1857 0.1851
3320.000000 0.1844 0.1844 0.1843 0.1843 0.1843
3315.000000 0.1843 0.1844 0.1844 0.1844 0.1845
3310.000000 0.1848 0.1851 0.1854 0.1859 0.1864
3305.000000 0.1872 0.1881 0.1889 0.1898 0.1906
3300.000000 0.1915 0.1923 0.1932 0.1941 0.1950
3295.000000 0.1959 0.1968 0.1976 0.1984 0.1994
3290.000000 0.2003 0.2011 0.2020 0.2029 0.2037
3285.000000 0.2046 0.2056 0.2065 0.2074 0.2083
3280.000000 0.2092 0.2101 0.2111 0.2120 0.2130
3275.000000 0.2139 0.2149 0.2158 0.2168 0.2177
3270.000000 0.2187 0.2196 0.2206 0.2215 0.2225
3265.000000 0.2234 0.2244 0.2254 0.2264 0.2273
3260.000000 0.2283 0.2293 0.2303 0.2313 0.2323
3255.000000 0.2333 0.2343 0.2353 0.2363 0.2377
3250.000000 0.2392 0.2408 0.2425 0.2441 0.2458
3245.000000 0.2474 0.2491 0.2513 0.2535 0.2560
3240.000000 0.2584 0.2610 0.2634 0.2660 0.2684
3235.000000 0.2711 0.2737 0.2765 0.2794 0.2822
3230.000000 0.2851 0.2879 0.2908 0.2935 0.2965
3225.000000 0.2990 0.3015 0.3039 0.3064 0.3088
3220.000000 0.3113 0.3137 0.3162 0.3185 0.3210
3215.000000 0.3236 0.3260 0.3287 0.3312 0.3339
3210.000000 0.3366 0.3390 0.3414 0.3434 0.3455
3205.000000 0.3475 0.3496 0.3516 0.3536 0.3556
3200.000000 0.3576 0.3597 0.3618 0.3642 0.3664
3195.000000 0.3688 0.3710 0.3734 0.3757 0.3779
3190.000000 0.3802 0.3825 0.3848 0.3875 0.3903
3185.000000 0.3930 0.3959 0.3988 0.4016 0.4045
3180.000000 0.4074 0.4102 0.4131 0.4159 0.4188
3175.000000 0.4216 0.4245 0.4274 0.4303 0.4331
3170.000000 0.4360 0.4392 0.4424 0.4457 0.4491
3165.000000 0.4524 0.4558 0.4591 0.4625 0.4658
3160.000000 0.4691 0.4723 0.4756 0.4787 0.4819
3155.000000 0.4845 0.4872 0.4898 0.4925 0.4951
3150.000000 0.4978 0.5004 0.5030 0.5055 0.5080
3145.000000 0.5105 0.5130 0.5155 0.5180 0.5204
3140.000000 0.5229 0.5250 0.5271 0.5290 0.5309
3135.000000 0.5328 0.5348 0.5367 0.5386 0.5405
3130.000000 0.5425 0.5450 0.5476 0.5500 0.5525
3125.000000 0.5547 0.5569 0.5585 0.5602 0.5619
3120.000000 0.5636 0.5654 0.5673 0.5692 0.5712
3115.000000 0.5719 0.5726 0.5730 0.5731 0.5732
3110.000000 0.5731 0.5724 0.5726 0.5714 0.5710
3105.000000 0.5708 0.5708 0.5708 0.5710 0.5715
3100.000000 0.5720 0.5721 0.5721 0.5721 0.5721
3095.000000 0.5700 0.5679 0.5551 0.5424 0.5296
3090.000000 0.5169 0.5041 0.4914 0.4882 0.4882
3085.000000 0.4881 0.4912 0.5080 0.5249 0.5417
3080.000000 0.5586 0.5670 0.5754 0.5753 0.5769
3075.000000 0.5675 0.5599 0.5399 0.5001 0.5108
3070.000000 0.5016 0.5100 0.5184 0.5351 0.5518
3065.000000 0.5684 0.5851 0.5934 0.6017 0.6044
3060.000000 0.6072 0.6100 0.6128 0.6156 0.6185
3055.000000 0.6216 0.6247 0.6272 0.6297 0.6312
3050.000000 0.6330 0.6340 0.6350 0.6355 0.6360
3045.000000 0.6362 0.6367 0.6365 0.6389 0.6362
3040.000000 0.6360 0.6347 0.6334 0.6301 0.6269
3035.000000 0.5976 0.5684 0.4891 0.4099 0.3766
3030.000000 0.3412 0.3430 0.3429 0.3702 0.3975
3025.000000 0.4338 0.4702 0.5065 0.5429 0.5682
3020.000000 0.5935 0.5986 0.6037 0.6074 0.6110
3015.000000 0.6185 0.6259 0.6301 0.6344 0.6350
3010.000000 0.6356 0.6356 0.6356 0.6356 0.6355
3005.000000 0.6355 0.6355 0.6367 0.6379 0.6448
3000.000000 0.6518 0.6558 0.6600 0.6628 0.6656
2995.000000 0.6668 0.6680 0.6692 0.6705 0.6717
2990.000000 0.6730 0.6742 0.6755 0.6767 0.6778
2985.000000 0.6791 0.6804 0.6815 0.6828 0.6836
2980.000000 0.6845 0.6851 0.6858 0.6865 0.6871
2975.000000 0.6875 0.6881 0.6885 0.6889 0.6891
2970.000000 0.6911 0.6895 0.6896 0.6896 0.6896
2965.000000 0.6896 0.6896 0.6895 0.6894 0.6885
2960.000000 0.6875 0.6858 0.6842 0.6804 0.5570
2955.000000 0.6162 0.5559 0.5605 0.5652 0.5769
2950.000000 0.5887 0.6004 0.6122 0.6239 0.6357
2945.000000 0.6474 0.6592 0.6632 0.6672 0.6681
2940.000000 0.6705 0.6693 0.6697 0.6698 0.6699
2935.000000 0.6691 0.6683 0.6672 0.6664 0.6498
2930.000000 0.6332 0.6116 0.5353 0.5685 0.5470
2925.000000 0.5423 0.5376 0.5560 0.5746 0.5994
2920.000000 0.6243 0.6357 0.6471 0.6539 0.6607
2915.000000 0.6646 0.6686 0.6725 0.6765 0.6794
2910.000000 0.6821 0.6844 0.6867 0.6890 0.6912
2905.000000 0.6934 0.6955 0.6974 0.6993 0.7011
2900.000000 0.7031 0.7050 0.7068 0.7088 0.7107
2895.000000 0.7125 0.7145 0.7151 0.7158 0.7165
2890.000000 0.7171 0.7176 0.7184 0.7190 0.7196
2885.000000 0.7201 0.7208 0.7208 0.7208 0.7208
2880.000000 0.7208 0.7208 0.7208 0.7207 0.7207
2875.000000 0.7201 0.7196 0.7191 0.7186 0.7180
2870.000000 0.7175 0.7165 0.7158 0.7147 0.7136
2865.000000 0.7125 0.7114 0.7103 0.7093 0.7082
2860.000000 0.7071 0.7060 0.7049 0.7035 0.7021
2855.000000 0.7006 0.6992 0.6976 0.6961 0.6956
2850.000000 0.6950 0.6948 0.6946 0.6944 0.6943
2845.000000 0.6941 0.6939 0.6939 0.6938 0.6939
2840.000000 0.6940 0.6949 0.6958 0.6974 0.6990
2835.000000 0.7005 0.7019 0.7036 0.7051 0.7068
2830.000000 0.7085 0.7101 0.7118 0.7134 0.7151
2825.000000 0.7164 0.7178 0.7191 0.7204 0.7215
2820.000000 0.7228 0.7241 0.7254 0.7265 0.7278
2815.000000 0.7290 0.7301 0.7306 0.7311 0.7315
2810.000000 0.7318 0.7322 0.7326 0.7331 0.7336
2805.000000 0.7340 0.7344 0.7346 0.7349 0.7350
2800.000000 0.7351 0.7353 0.7355 0.7356 0.7358
2795.000000 0.7358 0.7361 0.7361 0.7364 0.7364
2790.000000 0.7364 0.7364 0.7362 0.7361 0.7361
2785.000000 0.7360 0.7360 0.7358 0.7358 0.7355
2780.000000 0.7351 0.7348 0.7344 0.7340 0.7337
2775.000000 0.7334 0.7332 0.7330 0.7328 0.7325
2770.000000 0.7322 0.7322 0.7324 0.7326 0.7330
2765.000000 0.7333 0.7337 0.7340 0.7343 0.7346
2760.000000 0.7350 0.7357 0.7365 0.7372 0.7381
2755.000000 0.7389 0.7397 0.7404 0.7411 0.7419
2750.000000 0.7428 0.7434 0.7441 0.7442 0.7444
2745.000000 0.7445 0.7447 0.7448 0.7449 0.7450
2740.000000 0.7450 0.7451 0.7450 0.7448 0.7447
2735.000000 0.7446 0.7445 0.7443 0.7442 0.7441
2730.000000 0.7440 0.7438 0.7438 0.7438 0.7439
2725.000000 0.7441 0.7444 0.7446 0.7448 0.7450
2720.000000 0.7451 0.7454 0.7456 0.7458 0.7461
2715.000000 0.7462 0.7465 0.7468 0.7471 0.7475
2710.000000 0.7481 0.7485 0.7489 0.7493 0.7498
2705.000000 0.7501 0.7506 0.7510 0.7514 0.7518
2700.000000 0.7522 0.7526 0.7531 0.7535 0.7539
2695.000000 0.7539 0.7540 0.7541 0.7542 0.7542
2690.000000 0.7543 0.7544 0.7545 0.7546 0.7547
2685.000000 0.7547 0.7548 0.7549 0.7550 0.7550
2680.000000 0.7551 0.7551 0.7551 0.7553 0.7554
2675.000000 0.7554 0.7555 0.7556 0.7558 0.7561
2670.000000 0.7565 0.7568 0.7571 0.7575 0.7578
2665.000000 0.7582 0.7586 0.7589 0.7593 0.7596
2660.000000 0.7600 0.7604 0.7608 0.7611 0.7615
2655.000000 0.7622 0.7631 0.7638 0.7646 0.7654
2650.000000 0.7661 0.7668 0.7676 0.7687 0.7697
2645.000000 0.7708 0.7718 0.7730 0.7742 0.7748
2640.000000 0.7755 0.7758 0.7762 0.7767 0.7771
2635.000000 0.7775 0.7780 0.7782 0.7785 0.7787
2630.000000 0.7789 0.7791 0.7793 0.7795 0.7797
2625.000000 0.7797 0.7798 0.7798 0.7799 0.7799
2620.000000 0.7800 0.7796 0.7792 0.7780 0.7768
2615.000000 0.7756 0.7744 0.7733 0.7721 0.7711
2610.000000 0.7701 0.7696 0.7692 0.7691 0.7690
2605.000000 0.7688 0.7687 0.7685 0.7684 0.7682
2600.000000 0.7681 0.7680 0.7680 0.7678 0.7678
2595.000000 0.7680 0.7682 0.7683 0.7685 0.7686
2590.000000 0.7688 0.7689 0.7691 0.7692 0.7694
2585.000000 0.7698 0.7703 0.7715 0.7726 0.7738
2580.000000 0.7750 0.7761 0.7774 0.7787 0.7800
2575.000000 0.7814 0.7828 0.7843 0.7858 0.7872
2570.000000 0.7888 0.7901 0.7917 0.7921 0.7925
2565.000000 0.7930 0.7935 0.7939 0.7943 0.7947
2560.000000 0.7951 0.7956 0.7960 0.7964 0.7968
2555.000000 0.7972 0.7976 0.7978 0.7978 0.7978
2550.000000 0.7980 0.7980 0.7981 0.7981 0.7981
2545.000000 0.7981 0.7980 0.7978 0.7978 0.7978
2540.000000 0.7976 0.7975 0.7975 0.7974 0.7974
2535.000000 0.7974 0.7974 0.7974 0.7975 0.7975
2530.000000 0.7975 0.7975 0.7975 0.7975 0.7976
2525.000000 0.7978 0.7978 0.7978 0.7980 0.7981
2520.000000 0.7982 0.7982 0.7983 0.7985 0.7987
2515.000000 0.7990 0.7993 0.7996 0.8000 0.8007
2510.000000 0.8014 0.8021 0.8028 0.8034 0.8041
2505.000000 0.8047 0.8054 0.8060 0.8067 0.8072
2500.000000 0.8080 0.8082 0.8082 0.8082 0.8078
2495.000000 0.8071 0.8062 0.8057 0.8051 0.8046
2490.000000 0.8041 0.8036 0.8031 0.8025 0.8019
2485.000000 0.8021 0.8022 0.8034 0.8046 0.8057
2480.000000 0.8068 0.8071 0.8076 0.8081 0.8086
2475.000000 0.8090 0.8095 0.8099 0.8104 0.8108
2470.000000 0.8112 0.8117 0.8121 0.8125 0.8131
2465.000000 0.8135 0.8140 0.8144 0.8148 0.8151
2460.000000 0.8156 0.8160 0.8164 0.8168 0.8171
2455.000000 0.8175 0.8180 0.8184 0.8188 0.8191
2450.000000 0.8194 0.8196 0.8199 0.8202 0.8205
2445.000000 0.8208 0.8211 0.8211 0.8211 0.8209
2440.000000 0.8207 0.8205 0.8203 0.8201 0.8199
2435.000000 0.8197 0.8195 0.8193 0.8191 0.8189
2430.000000 0.8187 0.8186 0.8186 0.8185 0.8184
2425.000000 0.8183 0.8183 0.8184 0.8185 0.8186
2420.000000 0.8187 0.8188 0.8189 0.8191 0.8193
2415.000000 0.8197 0.8201 0.8205 0.8209 0.8213
2410.000000 0.8217 0.8221 0.8225 0.8228 0.8233
2405.000000 0.8236 0.8240 0.8243 0.8247 0.8250
2400.000000 0.8254 0.8257 0.8261 0.8264 0.8267
2395.000000 0.8270 0.8274 0.8277 0.8277 0.8278
2390.000000 0.8275 0.8274 0.8292 0.8268 0.8267
2385.000000 0.8260 0.8253 0.8245 0.8237 0.8228
2380.000000 0.8221 0.8213 0.8205 0.8197 0.8189
2375.000000 0.8181 0.8172 0.8160 0.8148 0.8132
2370.000000 0.8117 0.8101 0.8085 0.8068 0.8054
2365.000000 0.8040 0.8025 0.8011 0.7999 0.7990
2360.000000 0.7981 0.7971 0.7964 0.7955 0.7946
2355.000000 0.7937 0.7928 0.7919 0.7912 0.7905
2350.000000 0.7898 0.7890 0.7882 0.7875 0.7868
2345.000000 0.7861 0.7854 0.7847 0.7840 0.7833
2340.000000 0.7825 0.7821 0.7818 0.7814 0.7811
2335.000000 0.7807 0.7803 0.7801 0.7801 0.7801
2330.000000 0.7804 0.7806 0.7808 0.7811 0.7815
2325.000000 0.7828 0.7841 0.7864 0.7887 0.7910
2320.000000 0.7934 0.7957 0.7981 0.8004 0.8026
2315.000000 0.8047 0.8068 0.8088 0.8108 0.8128
2310.000000 0.8150 0.8168 0.8186 0.8199 0.8212
2305.000000 0.8221 0.8232 0.8240 0.8248 0.8252
2300.000000 0.8256 0.8256 0.8257 0.8257 0.8257
2295.000000 0.8257 0.8258 0.8258 0.8258 0.8258
2290.000000 0.8259 0.8259 0.8259 0.8260 0.8262
2285.000000 0.8264 0.8266 0.8267 0.8268 0.8271
2280.000000 0.8292 0.8274 0.8275 0.8277 0.8278
2275.000000 0.8278 0.8280 0.8281 0.8282 0.8283
2270.000000 0.8284 0.8285 0.8286 0.8287 0.8288
2265.000000 0.8290 0.8292 0.8295 0.8299 0.8302
2260.000000 0.8306 0.8309 0.8312 0.8315 0.8318
2255.000000 0.8321 0.8325 0.8328 0.8333 0.8336
2250.000000 0.8340 0.8343 0.8346 0.8349 0.8353
2245.000000 0.8356 0.8360 0.8363 0.8367 0.8370
2240.000000 0.8374 0.8377 0.8380 0.8383 0.8387
2235.000000 0.8390 0.8394 0.8397 0.8401 0.8404
2230.000000 0.8408 0.8411 0.8414 0.8417 0.8421
2225.000000 0.8424 0.8428 0.8430 0.8433 0.8435
2220.000000 0.8437 0.8439 0.8441 0.8442 0.8444
2215.000000 0.8446 0.8448 0.8450 0.8452 0.8454
2210.000000 0.8456 0.8458 0.8461 0.8463 0.8466
2205.000000 0.8468 0.8471 0.8473 0.8475 0.8478
2200.000000 0.8481 0.8484 0.8487 0.8489 0.8492
2195.000000 0.8494 0.8497 0.8499 0.8502 0.8504
2190.000000 0.8507 0.8509 0.8512 0.8515 0.8518
2185.000000 0.8521 0.8525 0.8528 0.8531 0.8537
2180.000000 0.8544 0.8568 0.8595 0.8621 0.8647
2175.000000 0.8651 0.8655 0.8643 0.8631 0.8617
2170.000000 0.8603 0.8593 0.8584 0.8586 0.8588
2165.000000 0.8590 0.8592 0.8594 0.8597 0.8599
2160.000000 0.8601 0.8603 0.8606 0.8608 0.8610
2155.000000 0.8612 0.8615 0.8617 0.8620 0.8623
2150.000000 0.8625 0.8628 0.8632 0.8635 0.8638
2145.000000 0.8641 0.8644 0.8647 0.8650 0.8653
2140.000000 0.8656 0.8658 0.8661 0.8663 0.8666
2135.000000 0.8668 0.8671 0.8673 0.8675 0.8678
2130.000000 0.8681 0.8684 0.8687 0.8689 0.8692
2125.000000 0.8694 0.8697 0.8699 0.8702 0.8705
2120.000000 0.8708 0.8711 0.8715 0.8718 0.8723
2115.000000 0.8725 0.8730 0.8734 0.8738 0.8741
2110.000000 0.8745 0.8749 0.8753 0.8756 0.8760
2105.000000 0.8763 0.8766 0.8768 0.8771 0.8775
2100.000000 0.8778 0.8782 0.8785 0.8788 0.8791
2095.000000 0.8794 0.8798 0.8801 0.8804 0.8807
2090.000000 0.8811 0.8814 0.8817 0.8820 0.8823
2085.000000 0.8825 0.8828 0.8831 0.8834 0.8837
2080.000000 0.8840 0.8842 0.8844 0.8845 0.8846
2075.000000 0.8846 0.8847 0.8848 0.8849 0.8850
2070.000000 0.8851 0.8852 0.8853 0.8853 0.8854
2065.000000 0.8855 0.8856 0.8857 0.8858 0.8858
2060.000000 0.8859 0.8859 0.8860 0.8860 0.8861
2055.000000 0.8861 0.8862 0.8863 0.8864 0.8864
2050.000000 0.8865 0.8865 0.8866 0.8866 0.8867
2045.000000 0.8867 0.8867 0.8864 0.8862 0.8859
2040.000000 0.8857 0.8855 0.8853 0.8851 0.8849
2035.000000 0.8847 0.8845 0.8844 0.8844 0.8843
2030.000000 0.8842 0.8841 0.8841 0.8840 0.8839
2025.000000 0.8838 0.8838 0.8836 0.8835 0.8834
2020.000000 0.8833 0.8832 0.8831 0.8828 0.8828
2015.000000 0.8827 0.8825 0.8825 0.8824 0.8824
2010.000000 0.8824 0.8824 0.8825 0.8825 0.8825
2005.000000 0.8825 0.8825 0.8824 0.8824 0.8824
2000.000000 0.8824 0.8825 0.8827 0.8828 0.8828
1995.000000 0.8828 0.8828 0.8787 0.8749 0.8725
1990.000000 0.8715 0.8720 0.8737 0.8753 0.8763
1985.000000 0.8773 0.8782 0.8785 0.8789 0.8792
1980.000000 0.8796 0.8800 0.8803 0.8804 0.8806
1975.000000 0.8808 0.8809 0.8810 0.8811 0.8812
1970.000000 0.8812 0.8813 0.8814 0.8815 0.8816
1965.000000 0.8811 0.8801 0.8791 0.8781 0.8721
1960.000000 0.8687 0.8675 0.8666 0.8666 0.8666
1955.000000 0.8685 0.8711 0.8737 0.8775 0.8799
1950.000000 0.8815 0.8815 0.8796 0.8775 0.8755
1945.000000 0.8740 0.8734 0.8730 0.8728 0.8720
1940.000000 0.8702 0.8681 0.8659 0.8640 0.8623
1935.000000 0.8610 0.8606 0.8631 0.8677 0.8728
1930.000000 0.8773 0.8809 0.8837 0.8843 0.8844
1925.000000 0.8845 0.8845 0.8846 0.8847 0.8851
1920.000000 0.8856 0.8860 0.8864 0.8868 0.8868
1915.000000 0.8868 0.8864 0.8859 0.8853 0.8847
1910.000000 0.8839 0.8831 0.8823 0.8815 0.8812
1905.000000 0.8808 0.8807 0.8807 0.8809 0.8811
1900.000000 0.8816 0.8823 0.8828 0.8836 0.8837
1895.000000 0.8837 0.8837 0.8823 0.8848 0.8794
1890.000000 0.8778 0.8763 0.8755 0.8746 0.8737
1885.000000 0.8725 0.8714 0.8701 0.8678 0.8654
1880.000000 0.8608 0.8558 0.8428 0.8097 0.7901
1875.000000 0.7888 0.8021 0.8158 0.8298 0.8437
1870.000000 0.8534 0.8568 0.8605 0.8632 0.8656
1865.000000 0.8680 0.8703 0.8721 0.8738 0.8756
1860.000000 0.8771 0.8775 0.8780 0.8783 0.8784
1855.000000 0.8785 0.8785 0.8784 0.8783 0.8778
1850.000000 0.8773 0.8768 0.8763 0.8756 0.8750
1845.000000 0.8740 0.8730 0.8725 0.8727 0.8728
1840.000000 0.8740 0.8752 0.8770 0.8789 0.8807
1835.000000 0.8838 0.8850 0.8854 0.8857 0.8857
1830.000000 0.8858 0.8850 0.8841 0.8833 0.8825
1825.000000 0.8818 0.8811 0.8804 0.8796 0.8795
1820.000000 0.8795 0.8783 0.8789 0.8794 0.8800
1815.000000 0.8804 0.8807 0.8810 0.8814 0.8813
1810.000000 0.8812 0.8809 0.8805 0.8801 0.8797
1805.000000 0.8793 0.8788 0.8778 0.8768 0.8759
1800.000000 0.8747 0.8736 0.8724 0.8712 0.8700
1795.000000 0.8691 0.8689 0.8694 0.8705 0.8744
1790.000000 0.8773 0.8783 0.8780 0.8768 0.8758
1785.000000 0.8749 0.8740 0.8735 0.8752 0.8777
1780.000000 0.8800 0.8821 0.8844 0.8860 0.8874
1775.000000 0.8888 0.8886 0.8885 0.8878 0.8867
1770.000000 0.8856 0.8840 0.8814 0.8786 0.8757
1765.000000 0.8727 0.8689 0.8645 0.8599 0.8568
1760.000000 0.8571 0.8608 0.8665 0.8716 0.8753
1755.000000 0.8793 0.8823 0.8820 0.8812 0.8803
1750.000000 0.8794 0.8786 0.8777 0.8768 0.8760
1745.000000 0.8751 0.8752 0.8753 0.8773 0.8794
1740.000000 0.8815 0.8841 0.8868 0.8884 0.8899
1735.000000 0.8914 0.8921 0.8927 0.8932 0.8937
1730.000000 0.8940 0.8941 0.8942 0.8942 0.8943
1725.000000 0.8944 0.8945 0.8945 0.8946 0.8948
1720.000000 0.8950 0.8953 0.8955 0.8957 0.8959
1715.000000 0.8961 0.8961 0.8962 0.8959 0.8955
1710.000000 0.8952 0.8949 0.8946 0.8945 0.8944
1705.000000 0.8944 0.8943 0.8943 0.8942 0.8942
1700.000000 0.8943 0.8943 0.8943 0.8943 0.8940
1695.000000 0.8937 0.8934 0.8931 0.8928 0.8928
1690.000000 0.8925 0.8925 0.8924 0.8923 0.8921
1685.000000 0.8918 0.8915 0.8912 0.8909 0.8906
1680.000000 0.8903 0.8900 0.8899 0.8898 0.8897
1675.000000 0.8896 0.8895 0.8894 0.8893 0.8892
1670.000000 0.8890 0.8888 0.8886 0.8884 0.8870
1665.000000 0.8850 0.8836 0.8823 0.8816 0.8817
1660.000000 0.8818 0.8821 0.8824 0.8830 0.8837
1655.000000 0.8845 0.8852 0.8860 0.8867 0.8862
1650.000000 0.8856 0.8850 0.8844 0.8837 0.8828
1645.000000 0.8820 0.8812 0.8801 0.8782 0.8764
1640.000000 0.8738 0.8709 0.8678 0.8651 0.8624
1635.000000 0.8608 0.8605 0.8602 0.8625 0.8658
1630.000000 0.8689 0.8711 0.8730 0.8741 0.8751
1625.000000 0.8761 0.8771 0.8777 0.8780 0.8783
1620.000000 0.8786 0.8789 0.8789 0.8796 0.8774
1615.000000 0.8758 0.8733 0.8701 0.8642 0.8575
1610.000000 0.8390 0.7065 0.6939 0.6968 0.6958
1605.000000 0.6992 0.7067 0.7142 0.7217 0.7274
1600.000000 0.7348 0.7422 0.7647 0.7872 0.8100
1595.000000 0.8268 0.8283 0.8287 0.8287 0.8288
1590.000000 0.8158 0.7922 0.7686 0.7449 0.7243
1585.000000 0.7143 0.7076 0.7114 0.7395 0.7922
1580.000000 0.8327 0.8361 0.8394 0.8427 0.8447
1575.000000 0.8467 0.8487 0.8507 0.8527 0.8546
1570.000000 0.8566 0.8589 0.8612 0.8634 0.8657
1565.000000 0.8678 0.8700 0.8721 0.8741 0.8760
1560.000000 0.8767 0.8775 0.8782 0.8785 0.8786
1555.000000 0.8787 0.8773 0.8748 0.8723 0.8717
1550.000000 0.8711 0.8707 0.8707 0.8708 0.8709
1545.000000 0.8711 0.8718 0.8725 0.8731 0.8742
1540.000000 0.8757 0.8771 0.8787 0.8800 0.8813
1535.000000 0.8825 0.8839 0.8852 0.8864 0.8868
1530.000000 0.8871 0.8875 0.8881 0.8885 0.8878
1525.000000 0.8874 0.8864 0.8852 0.8841 0.8828
1520.000000 0.8816 0.8790 0.8764 0.8738 0.8705
1515.000000 0.8668 0.8632 0.8595 0.8543 0.8491
1510.000000 0.8423 0.8354 0.8274 0.8187 0.7248
1505.000000 0.6845 0.6248 0.5651 0.5054 0.4457
1500.000000 0.3859 0.3262 0.2667 0.2070 0.1662
1495.000000 0.1654 0.1924 0.2461 0.2998 0.3534
1490.000000 0.4073 0.4610 0.5147 0.5625 0.6087
1485.000000 0.6310 0.6415 0.6535 0.6551 0.6558
1480.000000 0.6565 0.6569 0.6575 0.6581 0.6634
1475.000000 0.6735 0.6803 0.6861 0.6919 0.6971
1470.000000 0.7022 0.7049 0.7064 0.7074 0.7095
1465.000000 0.7078 0.7080 0.7065 0.7050 0.7034
1460.000000 0.7018 0.6907 0.6685 0.6528 0.6408
1455.000000 0.2199 0.2617 0.3327 0.4037 0.4477
1450.000000 0.4471 0.4456 0.4166 0.3875 0.3584
1445.000000 0.3293 0.3002 0.2711 0.2420 0.2129
1440.000000 0.1837 0.1546 0.1313 0.1324 0.1326
1435.000000 0.1346 0.1665 0.1839 0.2087 0.2334
1430.000000 0.2583 0.2831 0.3079 0.3327 0.3575
1425.000000 0.3823 0.4071 0.4319 0.4567 0.4815
1420.000000 0.5062 0.5710 0.5852 0.5968 0.6066
1415.000000 0.6139 0.6194 0.6259 0.6305 0.6565
1410.000000 0.7403 0.7484 0.7522 0.7562 0.7625
1405.000000 0.7700 0.7761 0.7794 0.7808 0.7808
1400.000000 0.7808 0.7788 0.7743 0.7684 0.7625
1395.000000 0.7564 0.7557 0.7575 0.7603 0.7618
1390.000000 0.7625 0.7622 0.7608 0.7542 0.7468
1385.000000 0.7314 0.7286 0.7267 0.7258 0.7261
1380.000000 0.7278 0.7296 0.7315 0.7408 0.7475
1375.000000 0.7541 0.7593 0.7633 0.7671 0.7710
1370.000000 0.7741 0.7771 0.7801 0.7830 0.7851
1365.000000 0.7874 0.7896 0.7918 0.7928 0.7935
1360.000000 0.7943 0.7948 0.7955 0.7954 0.7954
1355.000000 0.7947 0.7937 0.7925 0.7915 0.7897
1350.000000 0.7869 0.7843 0.7803 0.7755 0.7684
1345.000000 0.7603 0.7550 0.7531 0.7542 0.7550
1340.000000 0.7558 0.7568 0.7587 0.7595 0.7611
1335.000000 0.7553 0.7510 0.7462 0.7446 0.7401
1330.000000 0.7443 0.7500 0.7753 0.7844 0.8032
1325.000000 0.8155 0.8195 0.8233 0.8224 0.8214
1320.000000 0.8205 0.8196 0.8186 0.8171 0.8158
1315.000000 0.8154 0.8132 0.8165 0.8176 0.8189
1310.000000 0.8213 0.8246 0.8271 0.8287 0.8307
1305.000000 0.8307 0.8307 0.8283 0.8194 0.8076
1300.000000 0.7828 0.7856 0.7851 0.7854 0.7855
1295.000000 0.7908 0.8165 0.8273 0.8402 0.8527
1290.000000 0.8501 0.8500 0.8499 0.8495 0.8482
1285.000000 0.8462 0.8441 0.8421 0.8401 0.8364
1280.000000 0.8324 0.8289 0.8265 0.8241 0.8178
1275.000000 0.8128 0.8039 0.7651 0.7515 0.7448
1270.000000 0.7426 0.7426 0.7430 0.7432 0.7434
1265.000000 0.7434 0.7434 0.7434 0.7471 0.7511
1260.000000 0.7540 0.7540 0.7541 0.7528 0.7474
1255.000000 0.6846 0.6352 0.6352 0.6352 0.6352
1250.000000 0.5970 0.5458 0.4947 0.4435 0.3923
1245.000000 0.3410 0.2899 0.2388 0.1777 0.1783
1240.000000 0.1781 0.1800 0.2114 0.2520 0.2925
1235.000000 0.3330 0.3736 0.4141 0.4547 0.4952
1230.000000 0.5358 0.5812 0.5958 0.6073 0.6218
1225.000000 0.6362 0.6508 0.6653 0.6798 0.6943
1220.000000 0.7088 0.7234 0.7358 0.7411 0.7451
1215.000000 0.7478 0.7500 0.7514 0.7528 0.7542
1210.000000 0.7558 0.7576 0.7594 0.7611 0.7630
1205.000000 0.7647 0.7667 0.7692 0.7726 0.7695
1200.000000 0.7433 0.5816 0.5946 0.6294 0.6642
1195.000000 0.6989 0.7304 0.7301 0.7300 0.6788
1190.000000 0.6093 0.5398 0.4703 0.3790 0.3808
1185.000000 0.3956 0.4103 0.4250 0.4398 0.4545
1180.000000 0.4646 0.4657 0.4226 0.3892 0.3558
1175.000000 0.3224 0.2834 0.2844 0.2850 0.3067
1170.000000 0.4094 0.4965 0.5009 0.4551 0.4244
1165.000000 0.3937 0.3895 0.4873 0.6254 0.6379
1160.000000 0.6505 0.6654 0.6884 0.6964 0.7024
1155.000000 0.7057 0.7085 0.7103 0.7121 0.7289
1150.000000 0.7457 0.7521 0.7556 0.7589 0.7622
1145.000000 0.7656 0.7689 0.7721 0.7754 0.7786
1140.000000 0.7812 0.7840 0.7865 0.7893 0.7924
1135.000000 0.7958 0.7985 0.8008 0.8031 0.8039
1130.000000 0.8044 0.8053 0.8030 0.8006 0.7981
1125.000000 0.7708 0.6968 0.6031 0.5094 0.4156
1120.000000 0.3218 0.2827 0.2861 0.3016 0.3572
1115.000000 0.4128 0.4684 0.5240 0.5500 0.5614
1110.000000 0.5817 0.6265 0.6390 0.6515 0.6621
1105.000000 0.6726 0.6861 0.7057 0.7192 0.7271
1100.000000 0.7331 0.7389 0.7439 0.7498 0.7521
1095.000000 0.7543 0.7551 0.7558 0.7561 0.7561
1090.000000 0.7569 0.7585 0.7600 0.7628 0.7654
1085.000000 0.7674 0.7688 0.7700 0.7706 0.7715
1080.000000 0.7675 0.7646 0.7585 0.7455 0.6399
1075.000000 0.4955 0.4964 0.4962 0.4974 0.5016
1070.000000 0.5755 0.6508 0.6971 0.7118 0.7226
1065.000000 0.7326 0.7425 0.7508 0.7586 0.7664
1060.000000 0.7732 0.7791 0.7851 0.7896 0.7930
1055.000000 0.7965 0.8000 0.8035 0.8068 0.8092
1050.000000 0.8115 0.8132 0.8145 0.8157 0.8169
1045.000000 0.8182 0.8194 0.8203 0.8212 0.8221
1040.000000 0.8228 0.8230 0.8233 0.8236 0.8223
1035.000000 0.8241 0.8239 0.8237 0.8230 0.7328
1030.000000 0.6381 0.6190 0.6610 0.7039 0.7468
1025.000000 0.7897 0.8110 0.8175 0.8220 0.8263
1020.000000 0.8304 0.8325 0.8347 0.8368 0.8388
1015.000000 0.8402 0.8416 0.8430 0.8443 0.8457
1010.000000 0.8465 0.8471 0.8477 0.8484 0.8490
1005.000000 0.8496 0.8494 0.8492 0.8458 0.8424
1000.000000 0.8394 0.8397 0.8418 0.8440 0.8462
995.000000 0.8486 0.8510 0.8533 0.8543 0.8552
990.000000 0.8560 0.8566 0.8568 0.8571 0.8575
985.000000 0.8578 0.8581 0.8584 0.8587 0.8590
980.000000 0.8592 0.8615 0.8596 0.8598 0.8600
975.000000 0.8602 0.8604 0.8604 0.8604 0.8604
970.000000 0.8604 0.8601 0.8598 0.8595 0.8591
965.000000 0.8589 0.8589 0.8494 0.8394 0.8294
960.000000 0.8147 0.8157 0.8161 0.8310 0.8498
955.000000 0.8687 0.8698 0.8702 0.8706 0.8710
950.000000 0.8713 0.8716 0.8718 0.8724 0.8732
945.000000 0.8733 0.8734 0.8731 0.8700 0.8646
940.000000 0.8592 0.8539 0.8485 0.8432 0.8374
935.000000 0.8382 0.8402 0.8487 0.8573 0.8583
930.000000 0.8616 0.6085 0.4945 0.5168 0.5782
925.000000 0.6395 0.7008 0.7621 0.8175 0.8386
920.000000 0.8456 0.8518 0.8575 0.8609 0.8630
915.000000 0.8641 0.8647 0.8644 0.8644 0.8628
910.000000 0.8610 0.8583 0.8524 0.8277 0.7614
905.000000 0.6951 0.5865 0.5868 0.6239 0.6895
900.000000 0.7550 0.8206 0.8375 0.8371 0.7960
895.000000 0.6621 0.6725 0.6646 0.6960 0.7537
890.000000 0.7999 0.8000 0.8000 0.7038 0.5912
885.000000 0.4786 0.4390 0.5003 0.5693 0.6383
880.000000 0.7072 0.7453 0.7874 0.8232 0.8375
875.000000 0.8447 0.8503 0.8557 0.8609 0.8650
870.000000 0.8683 0.8707 0.8732 0.8755 0.8766
865.000000 0.8775 0.8787 0.8798 0.8804 0.8808
860.000000 0.8811 0.8787 0.8818 0.8818 0.8814
855.000000 0.8809 0.8805 0.8801 0.8796 0.8775
850.000000 0.8752 0.8728 0.8692 0.8648 0.8568
845.000000 0.7346 0.7331 0.7681 0.8078 0.8475
840.000000 0.8621 0.8638 0.8661 0.8648 0.8632
835.000000 0.8562 0.8495 0.8430 0.8224 0.7612
830.000000 0.5495 0.3339 0.3343 0.3434 0.3532
825.000000 0.3630 0.3729 0.3827 0.3925 0.4023
820.000000 0.4120 0.4177 0.5342 0.6223 0.6244
815.000000 0.6266 0.6294 0.6403 0.6498 0.7149
810.000000 0.7937 0.8199 0.8325 0.8439 0.8510
805.000000 0.8530 0.8550 0.8568 0.8589 0.8612
800.000000 0.8634 0.8657 0.8678 0.8693 0.8708
795.000000 0.8721 0.8737 0.8750 0.8762 0.8763
790.000000 0.8742 0.8742 0.8741 0.8715 0.8688
785.000000 0.8651 0.8570 0.7821 0.6346 0.5960
780.000000 0.6110 0.6318 0.6525 0.6642 0.6851
775.000000 0.7448 0.8045 0.8374 0.8442 0.8497
770.000000 0.8555 0.8587 0.8612 0.8636 0.8651
765.000000 0.8666 0.8675 0.8680 0.8696 0.8686
760.000000 0.8683 0.8678 0.8675 0.8663 0.8646
755.000000 0.8628 0.8611 0.8594 0.8577 0.8553
750.000000 0.8525 0.8496 0.8468 0.8440 0.8395
745.000000 0.8341 0.8288 0.8190 0.8046 0.7530
740.000000 0.7075 0.6824 0.5424 0.2870 0.2850
735.000000 0.3126 0.3678 0.4231 0.4784 0.5337
730.000000 0.5409 0.4801 0.3034 0.1266 0.0800
725.000000 0.0808 0.1475 0.2211 0.2946 0.3682
720.000000 0.4418 0.5153 0.5889 0.6625 0.7360
715.000000 0.7697 0.7794 0.7858 0.7905 0.7937
710.000000 0.7961 0.7975 0.7990 0.7978 0.7961
705.000000 0.7901 0.7797 0.7669 0.7522 0.5940
700.000000 0.0942 0.0936 0.0979 0.2232 0.3486
695.000000 0.4581 0.4724 0.4924 0.5491 0.6057
690.000000 0.6624 0.7191 0.7428 0.7497 0.7540
685.000000 0.7583 0.7614 0.7645 0.7672 0.7696
680.000000 0.7717 0.7724 0.7731 0.7739 0.7746
675.000000 0.7753 0.7760 0.7742 0.7769 0.7769
670.000000 0.7769 0.7764 0.7758 0.7753 0.7718
665.000000 0.7667 0.7593 0.7517 0.7436 0.7355
660.000000 0.7194 0.1944 0.1916 0.2018 0.2583
655.000000 0.3147 0.3710 0.4276 0.4840 0.5404
650.000000 0.5970 0.6198 0.6364 0.6501 0.6614
645.000000 0.6704 0.6784 0.6849 0.6906 0.6941
640.000000 0.6957 0.6962 0.6962 0.6962 0.6956
635.000000 0.6930 0.6895 0.6841 0.5446 0.5596
630.000000 0.5452 0.5480 0.5718 0.6143 0.6568
625.000000 0.6994 0.7418 0.7485 0.7474 0.7499
620.000000 0.7319 0.6715 0.6737 0.6748 0.6767
615.000000 0.6797 0.6825 0.6856 0.6885 0.6912
610.000000 0.6942 0.6971 0.6999 0.7028 0.7056
605.000000 0.7087 0.7119 0.7153 0.7186 0.7218
600.000000 0.7251 0.7281 0.7305 0.7328 0.7354
595.000000 0.7378 0.7401 0.7425 0.7450 0.7474
590.000000 0.7494 0.7511 0.7531 0.7550 0.7568
585.000000 0.7583 0.7597 0.7611 0.7625 0.7634
580.000000 0.7637 0.7658 0.7617 0.7596 0.7587
575.000000 0.7575 0.7561 0.7534 0.7481 0.7421
570.000000 0.7355 0.7297 0.7271 0.7278 0.7278
565.000000 0.7294 0.7314 0.7335 0.7356 0.7367
560.000000 0.7378 0.7388 0.7410 0.7365 0.7348
555.000000 0.7328 0.7308 0.7288 0.7262 0.7193
550.000000 0.7124 0.7062 0.7001 0.6914 0.6828
545.000000 0.6515 0.5905 0.5295 0.4686 0.4076
540.000000 0.3884 0.4095 0.4662 0.5230 0.5798
535.000000 0.6366 0.6775 0.6938 0.7031 0.7122
530.000000 0.7201 0.7247 0.7293 0.7339 0.7380
525.000000 0.7410 0.7440 0.7467 0.7487 0.7508
520.000000 0.7528 0.7549 0.7568 0.7586 0.7605
515.000000 0.7622 0.7641 0.7658 0.7675 0.7692
510.000000 0.7697 0.7685 0.7672 0.7661 0.7661
505.000000 0.7665 0.7672 0.7681 0.7689 0.7697
500.000000 0.7706 0.7714 0.7721 0.7731 0.7740
495.000000 0.7751 0.7761 0.7775 0.7797 0.7818
490.000000 0.7841 0.7862 0.7888 0.7914 0.7937
485.000000 0.7958 0.7978 0.8000 0.8019 0.8028
480.000000 0.8035 0.8043 0.8049 0.8051 0.8053
475.000000 0.8055 0.8055 0.8055 0.8055 0.8053
470.000000 0.8050 0.8047 0.8044 0.8037 0.8025
465.000000 0.8015 0.8004 0.7991 0.7968 0.7946
460.000000 0.7907 0.7853 0.7744 0.7360 0.6595
455.000000 0.6596 0.6597 0.6604 0.6610 0.6628
450.000000 0.6656 0.6688 0.6725 0.6764 0.6812
445.000000 0.6899 0.6912 0.6915 0.6917 0.6917
440.000000 0.6928 0.6956 0.6984 0.7011 0.7039
435.000000 0.7065 0.7092 0.7118 0.7145 0.7171
430.000000 0.7197 0.7218 0.7235 0.7251 0.7267
425.000000 0.7283 0.7299 0.7315 0.7326 0.7338
420.000000 0.7349 0.7361 0.7371 0.7383 0.7395
415.000000 0.7403 0.7407 0.7411 0.7415 0.7421
410.000000 0.7425 0.7430 0.7435 0.7448 0.7442
405.000000 0.7445 0.7448 0.7451 0.7455 0.7458
400.000000 0.7460 0.7461 0.7464 0.7465 0.7467
395.000000 0.7469 0.7472 0.7475 0.7478 0.7482
390.000000 0.7483 0.7483 0.7483
##END=
