##TITLE=VANILLIN
##JCAMP-DX=4.24
##DATA TYPE=INFRARED SPECTRUM
##CLASS=COBLENTZ
##ORIGIN=PHILIP MORRIS, M. BALES
##OWNER=COBLENTZ SOCIETY
Collection (C) 2018 copyright by the U.S. Secretary of Commerce
on behalf of the United States of America. All rights reserved.
##DATE=Not specified, most likely prior to 1970
##NAMES=4-hydroxy-3-methoxybenzaldehyde
##CAS REGISTRY NO=121-33-5
##MOLFORM=C8 H8 O3
##SOURCE REFERENCE=COBLENTZ NO. 2530
##$NIST SOURCE=COBLENTZ
##$NIST IMAGE=cob2530
##SPECTROMETER/DATA SYSTEM=PERKIN-ELMER
##STATE=SOLID (KBr PELLET)
##SAMPLING PROCEDURE=TRANSMISSION
##RESOLUTION=4
##DATA PROCESSING=DIGITIZED BY NIST FROM HARD COPY
##XUNITS=MICROMETERS
##YUNITS=TRANSMITTANCE
##XFACTOR=1.000000
##YFACTOR=1
##DELTAX=000.006729
##FIRSTX=2.027
##LASTX=15.2965
##FIRSTY=0.512
##MAXX=15.2965
##MINX=2.027
##MAXY=0.722
##MINY=0.03
##NPOINTS=1973
##XYDATA=(X++(Y..Y))
2.027000 0.5120 0.5120 0.5120 0.5140 0.5160
2.060661 0.5170 0.5170 0.5190 0.5190 0.5220
2.094000 0.5220 0.5220 0.5220 0.5240 0.5240
2.127661 0.5260 0.5260 0.5260 0.5260 0.5260
2.161000 0.5260 0.5270 0.5270 0.5290 0.5290
2.194661 0.5310 0.5320 0.5340 0.5340 0.5360
2.229000 0.5380 0.5380 0.5380 0.5380 0.5380
2.262661 0.5390 0.5390 0.5390 0.5410 0.5430
2.296000 0.5440 0.5460 0.5460 0.5480 0.5480
2.329661 0.5490 0.5510 0.5510 0.5540 0.5540
2.363000 0.5560 0.5560 0.5580 0.5600 0.5600
2.396661 0.5610 0.5610 0.5610 0.5610 0.5610
2.431000 0.5630 0.5630 0.5630 0.5650 0.5650
2.464661 0.5680 0.5700 0.5700 0.5700 0.5700
2.498000 0.5700 0.5700 0.5710 0.5710 0.5710
2.531661 0.5710 0.5730 0.5730 0.5750 0.5750
2.565000 0.5760 0.5760 0.5760 0.5780 0.5780
2.598661 0.5800 0.5820 0.5820 0.5820 0.5820
2.633000 0.5820 0.5820 0.5820 0.5830 0.5850
2.666661 0.5870 0.5870 0.5880 0.5900 0.5900
2.700000 0.5900 0.5900 0.5900 0.5900 0.5900
2.733661 0.5880 0.5850 0.5820 0.5800 0.5760
2.767000 0.5730 0.5650 0.5610 0.5460 0.5290
2.800661 0.5120 0.4900 0.4700 0.4460 0.4340
2.834000 0.4210 0.3870 0.3550 0.3450 0.3290
2.867661 0.3160 0.3020 0.2940 0.2840 0.2670
2.902000 0.2620 0.2520 0.2400 0.2300 0.2230
2.935661 0.2140 0.2110 0.2080 0.2030 0.1990
2.969000 0.1970 0.1970 0.1970 0.1990 0.2010
3.002661 0.2030 0.2090 0.2130 0.2190 0.2260
3.036000 0.2260 0.2330 0.2350 0.2360 0.2380
3.069661 0.2400 0.2410 0.2430 0.2430 0.2470
3.104000 0.2470 0.2480 0.2480 0.2500 0.2520
3.137661 0.2530 0.2550 0.2580 0.2600 0.2600
3.171000 0.2620 0.2630 0.2650 0.2740 0.2850
3.204661 0.2920 0.2970 0.2990 0.3010 0.3040
3.238000 0.3130 0.3180 0.3290 0.3380 0.3380
3.271661 0.3450 0.3510 0.3530 0.3620 0.3720
3.305000 0.3840 0.3870 0.3970 0.4040 0.4060
3.338661 0.4070 0.4110 0.4140 0.4240 0.4260
3.373000 0.4340 0.4340 0.4310 0.4280 0.4140
3.406661 0.4060 0.4040 0.4040 0.4040 0.4060
3.440000 0.4060 0.4090 0.4090 0.4120 0.4290
3.473661 0.4500 0.4670 0.4770 0.4870 0.4920
3.507000 0.4920 0.4920 0.4870 0.4770 0.4670
3.540661 0.4600 0.4500 0.4480 0.4500 0.4530
3.575000 0.4680 0.4830 0.4970 0.5090 0.5220
3.608661 0.5290 0.5360 0.5430 0.5480 0.5490
3.642000 0.5530 0.5540 0.5540 0.5540 0.5530
3.675661 0.5490 0.5480 0.5480 0.5480 0.5490
3.709000 0.5560 0.5630 0.5730 0.5800 0.5880
3.742661 0.5930 0.6000 0.6040 0.6070 0.6090
3.776000 0.6100 0.6120 0.6120 0.6120 0.6140
3.809661 0.6150 0.6150 0.6170 0.6190 0.6240
3.844000 0.6240 0.6260 0.6260 0.6290 0.6290
3.877661 0.6290 0.6290 0.6290 0.6270 0.6270
3.911000 0.6290 0.6290 0.6290 0.6310 0.6310
3.944661 0.6310 0.6310 0.6310 0.6310 0.6310
3.978000 0.6320 0.6340 0.6360 0.6370 0.6390
4.011661 0.6410 0.6420 0.6440 0.6440 0.6460
4.046000 0.6480 0.6490 0.6510 0.6510 0.6530
4.079661 0.6530 0.6540 0.6540 0.6540 0.6590
4.113000 0.6610 0.6610 0.6610 0.6610 0.6630
4.146661 0.6640 0.6660 0.6660 0.6680 0.6680
4.180000 0.6680 0.6680 0.6680 0.6700 0.6700
4.213661 0.6700 0.6730 0.6760 0.6810 0.6860
4.247000 0.6900 0.6900 0.6900 0.6900 0.6850
4.280661 0.6780 0.6760 0.6760 0.6760 0.6760
4.315000 0.6750 0.6730 0.6680 0.6640 0.6640
4.348661 0.6640 0.6640 0.6640 0.6640 0.6660
4.382000 0.6680 0.6710 0.6750 0.6780 0.6810
4.415661 0.6850 0.6850 0.6860 0.6900 0.6900
4.449000 0.6900 0.6900 0.6900 0.6900 0.6900
4.482661 0.6900 0.6900 0.6900 0.6900 0.6900
4.517000 0.6920 0.6920 0.6920 0.6920 0.6920
4.550661 0.6920 0.6930 0.6920 0.6920 0.6920
4.584000 0.6920 0.6920 0.6930 0.6930 0.6930
4.617661 0.6930 0.6930 0.6930 0.6930 0.6950
4.651000 0.6950 0.6970 0.6970 0.6970 0.6950
4.684661 0.6950 0.6930 0.6930 0.6930 0.6930
4.718000 0.6930 0.6930 0.6930 0.6920 0.6920
4.751661 0.6880 0.6880 0.6880 0.6880 0.6880
4.786000 0.6880 0.6880 0.6880 0.6880 0.6880
4.819661 0.6860 0.6860 0.6860 0.6880 0.6880
4.853000 0.6880 0.6900 0.6900 0.6880 0.6880
4.886661 0.6880 0.6880 0.6880 0.6880 0.6880
4.920000 0.6900 0.6900 0.6900 0.6900 0.6900
4.953661 0.6900 0.6900 0.6900 0.6920 0.6920
4.988000 0.6930 0.6930 0.6950 0.6950 0.6950
5.021661 0.6930 0.6930 0.6930 0.6930 0.6930
5.055000 0.6920 0.6920 0.6920 0.6930 0.6930
5.088661 0.6950 0.6970 0.6980 0.7000 0.7000
5.122000 0.7000 0.7020 0.7020 0.7020 0.7050
5.155661 0.7050 0.7050 0.7030 0.7030 0.7030
5.189000 0.7030 0.7050 0.7070 0.7080 0.7080
5.222661 0.7070 0.7070 0.7070 0.7070 0.7070
5.257000 0.7070 0.7080 0.7080 0.7070 0.7070
5.290661 0.7050 0.7030 0.7020 0.7000 0.7000
5.324000 0.7000 0.7000 0.7020 0.7050 0.7070
5.357661 0.7070 0.7070 0.7050 0.7050 0.7070
5.391000 0.7070 0.7080 0.7140 0.7140 0.7140
5.424661 0.7140 0.7140 0.7140 0.7150 0.7190
5.459000 0.7220 0.7220 0.7200 0.7190 0.7190
5.492661 0.7190 0.7190 0.7170 0.7170 0.7170
5.526000 0.7170 0.7170 0.7150 0.7150 0.7150
5.559661 0.7150 0.7150 0.7140 0.7100 0.7100
5.593000 0.7080 0.7080 0.7080 0.7080 0.7080
5.626661 0.7080 0.7080 0.7070 0.7030 0.6970
5.660000 0.6930 0.6930 0.6930 0.6930 0.6930
5.693661 0.6930 0.6930 0.6930 0.6900 0.6830
5.728000 0.6780 0.6760 0.6730 0.6730 0.6680
5.761661 0.6630 0.6510 0.6360 0.6320 0.6320
5.795000 0.6270 0.6220 0.6190 0.6150 0.5880
5.828661 0.5530 0.5380 0.5210 0.5020 0.4750
5.862000 0.4360 0.4090 0.3530 0.3060 0.2520
5.895661 0.1890 0.1450 0.1380 0.1310 0.1250
5.930000 0.1250 0.1110 0.0980 0.0820 0.0770
5.963661 0.0770 0.0760 0.0760 0.0740 0.0740
5.997000 0.0790 0.0980 0.1260 0.1500 0.1750
6.030661 0.2080 0.2330 0.2790 0.3160 0.3480
6.064000 0.3790 0.3900 0.4160 0.4360 0.4510
6.097661 0.4600 0.4680 0.4730 0.4730 0.4770
6.131000 0.4800 0.4830 0.4830 0.4830 0.4830
6.164661 0.4800 0.4770 0.4670 0.4460 0.4090
6.199000 0.3700 0.3180 0.2530 0.1990 0.1590
6.232661 0.1420 0.1080 0.0910 0.0720 0.0550
6.266000 0.0400 0.0330 0.0320 0.0320 0.0330
6.299661 0.0380 0.0550 0.0790 0.0930 0.1570
6.333000 0.1970 0.2250 0.2940 0.3580 0.3790
6.366661 0.4060 0.4480 0.4830 0.5100 0.5380
6.401000 0.5530 0.5610 0.5630 0.5630 0.5680
6.434661 0.5780 0.5850 0.5900 0.5950 0.5980
6.468000 0.5980 0.5980 0.5900 0.5750 0.5540
6.501661 0.5410 0.5310 0.5120 0.4890 0.4670
6.535000 0.4450 0.4020 0.3600 0.3040 0.2500
6.568661 0.1890 0.1480 0.1160 0.1080 0.0980
6.602000 0.0790 0.0790 0.0790 0.0810 0.0980
6.635661 0.1840 0.2650 0.3280 0.3720 0.4140
6.670000 0.4380 0.4680 0.5100 0.5290 0.5480
6.703661 0.5610 0.5610 0.5630 0.5660 0.5660
6.737000 0.5660 0.5660 0.5480 0.5320 0.5100
6.770661 0.4800 0.4340 0.3870 0.3550 0.2750
6.804000 0.2500 0.2400 0.2380 0.2380 0.2380
6.837661 0.2500 0.2600 0.2670 0.2720 0.2740
6.872000 0.2740 0.2770 0.3010 0.3130 0.3430
6.905661 0.3620 0.3700 0.3770 0.3790 0.3680
6.939000 0.3360 0.3020 0.2630 0.2260 0.1870
6.972661 0.1870 0.1890 0.1920 0.2260 0.2630
7.006000 0.2910 0.3160 0.3380 0.3720 0.3920
7.039661 0.4060 0.4160 0.4190 0.4230 0.4240
7.073000 0.4240 0.4230 0.4140 0.4040 0.3950
7.106661 0.3790 0.3650 0.3570 0.3360 0.3330
7.141000 0.3310 0.3290 0.3290 0.3310 0.3360
7.174661 0.3380 0.3510 0.3570 0.3600 0.3600
7.208000 0.3580 0.3530 0.3450 0.3450 0.3450
7.241661 0.3460 0.3460 0.3500 0.3530 0.3600
7.275000 0.3620 0.3730 0.3800 0.3890 0.4040
7.308661 0.4190 0.4340 0.4560 0.4770 0.4950
7.343000 0.5050 0.5320 0.5430 0.5490 0.5540
7.376661 0.5630 0.5680 0.5760 0.5820 0.5900
7.410000 0.5970 0.6000 0.6020 0.6050 0.6090
7.443661 0.6100 0.6140 0.6150 0.6170 0.6170
7.477000 0.6150 0.6150 0.6100 0.6050 0.6000
7.510661 0.5980 0.5880 0.5870 0.5780 0.5730
7.545000 0.5610 0.5490 0.5360 0.5290 0.5160
7.578661 0.5000 0.4890 0.4670 0.4450 0.4140
7.612000 0.3900 0.3530 0.3210 0.2910 0.2670
7.645661 0.2310 0.1940 0.1720 0.1420 0.1250
7.679000 0.1080 0.0940 0.0790 0.0640 0.0490
7.712661 0.0380 0.0350 0.0320 0.0320 0.0300
7.746000 0.0300 0.0320 0.0330 0.0350 0.0370
7.779661 0.0370 0.0420 0.0490 0.0620 0.0810
7.814000 0.0960 0.0980 0.0990 0.0990 0.0990
7.847661 0.0980 0.0930 0.0870 0.0840 0.0790
7.881000 0.0770 0.0760 0.0760 0.0740 0.0740
7.914661 0.0740 0.0760 0.0790 0.0790 0.0820
7.948000 0.0840 0.0870 0.0990 0.1250 0.1430
7.981661 0.1640 0.1790 0.1910 0.2190 0.2410
8.016000 0.2570 0.2670 0.2800 0.3010 0.3060
8.049661 0.3240 0.3480 0.3700 0.3730 0.3970
8.083000 0.4090 0.4170 0.4340 0.4390 0.4480
8.116661 0.4510 0.4530 0.4550 0.4550 0.4500
8.150000 0.4450 0.4340 0.4190 0.4060 0.3970
8.183661 0.3920 0.3680 0.3460 0.3290 0.3060
8.217000 0.2990 0.2850 0.2740 0.2630 0.2530
8.250661 0.2410 0.2310 0.2280 0.2210 0.2190
8.285000 0.2190 0.2190 0.2190 0.2230 0.2260
8.318661 0.2280 0.2380 0.2410 0.2520 0.2600
8.352000 0.2690 0.2750 0.2750 0.2770 0.2800
8.385661 0.2800 0.2770 0.2740 0.2700 0.2600
8.419000 0.2550 0.2500 0.2480 0.2380 0.2280
8.452661 0.2160 0.2080 0.2010 0.1970 0.1940
8.487000 0.1890 0.1790 0.1740 0.1720 0.1700
8.520661 0.1670 0.1670 0.1670 0.1650 0.1650
8.554000 0.1650 0.1650 0.1650 0.1650 0.1650
8.587661 0.1620 0.1590 0.1550 0.1480 0.1420
8.621000 0.1350 0.1300 0.1250 0.1150 0.1060
8.654661 0.0980 0.0870 0.0870 0.0890 0.0940
8.688000 0.0980 0.1370 0.1600 0.1890 0.2090
8.721661 0.2410 0.2740 0.3010 0.3350 0.3510
8.756000 0.3650 0.3790 0.3870 0.3970 0.3990
8.789661 0.4010 0.4010 0.3970 0.3890 0.3620
8.823000 0.3400 0.3290 0.3010 0.2630 0.2430
8.856661 0.2250 0.1990 0.1890 0.1860 0.1820
8.890000 0.1670 0.1620 0.1570 0.1570 0.1640
8.923661 0.1720 0.1770 0.1890 0.2030 0.2090
8.958000 0.2160 0.2160 0.2180 0.2190 0.2260
8.991661 0.2360 0.2470 0.2600 0.2690 0.2870
9.025000 0.3010 0.3190 0.3350 0.3530 0.3730
9.058661 0.3790 0.3820 0.3970 0.3970 0.4070
9.092000 0.4140 0.4190 0.4280 0.4310 0.4340
9.125661 0.4360 0.4390 0.4450 0.4500 0.4530
9.159000 0.4560 0.4580 0.4610 0.4670 0.4700
9.192661 0.4730 0.4770 0.4800 0.4830 0.4870
9.227000 0.4890 0.4940 0.4990 0.5020 0.5020
9.260661 0.5040 0.5040 0.5070 0.5090 0.5120
9.294000 0.5120 0.5160 0.5190 0.5190 0.5220
9.327661 0.5240 0.5260 0.5260 0.5270 0.5290
9.361000 0.5320 0.5320 0.5340 0.5360 0.5360
9.394661 0.5380 0.5380 0.5380 0.5380 0.5380
9.429000 0.5390 0.5390 0.5390 0.5390 0.5380
9.462661 0.5360 0.5360 0.5360 0.5360 0.5310
9.496000 0.5270 0.5240 0.5240 0.5210 0.5190
9.529661 0.5160 0.5140 0.5100 0.5070 0.5000
9.563000 0.4940 0.4890 0.4820 0.4770 0.4680
9.596661 0.4560 0.4380 0.4280 0.4160 0.3990
9.630000 0.3800 0.3750 0.3350 0.3210 0.3020
9.663661 0.2850 0.2670 0.2650 0.2280 0.2180
9.698000 0.2080 0.1990 0.1920 0.1920 0.1920
9.731661 0.1920 0.1920 0.1990 0.2080 0.2210
9.765000 0.2380 0.2520 0.2550 0.2740 0.2820
9.798661 0.2890 0.3090 0.3230 0.3290 0.3380
9.832000 0.3530 0.3580 0.3630 0.3890 0.4110
9.865661 0.4120 0.4170 0.4310 0.4380 0.4450
9.900000 0.4530 0.4670 0.4780 0.4820 0.4900
9.933661 0.5000 0.5120 0.5240 0.5380 0.5490
9.967000 0.5510 0.5580 0.5630 0.5660 0.5760
10.000661 0.5850 0.5930 0.6000 0.6020 0.6070
10.034000 0.6150 0.6220 0.6310 0.6340 0.6410
10.067661 0.6440 0.6440 0.6460 0.6490 0.6510
10.101000 0.6560 0.6610 0.6630 0.6640 0.6680
10.134661 0.6700 0.6750 0.6760 0.6760 0.6780
10.169000 0.6780 0.6780 0.6810 0.6830 0.6860
10.202661 0.6880 0.6900 0.6900 0.6920 0.6930
10.236000 0.6930 0.6930 0.6930 0.6930 0.6930
10.269661 0.6930 0.6930 0.6930 0.6930 0.6950
10.303000 0.6950 0.6930 0.6930 0.6930 0.6930
10.336661 0.6920 0.6920 0.6900 0.6900 0.6900
10.371000 0.6860 0.6830 0.6800 0.6780 0.6750
10.404661 0.6710 0.6710 0.6700 0.6700 0.6680
10.438000 0.6680 0.6680 0.6680 0.6680 0.6680
10.471661 0.6680 0.6700 0.6710 0.6750 0.6760
10.505000 0.6780 0.6780 0.6810 0.6810 0.6810
10.538661 0.6810 0.6830 0.6850 0.6860 0.6880
10.572000 0.6900 0.6920 0.6920 0.6920 0.6920
10.605661 0.6920 0.6920 0.6920 0.6920 0.6920
10.640000 0.6920 0.6920 0.6920 0.6900 0.6880
10.673661 0.6880 0.6860 0.6850 0.6850 0.6850
10.707000 0.6850 0.6850 0.6850 0.6850 0.6880
10.740661 0.6880 0.6900 0.6920 0.6920 0.6920
10.774000 0.6950 0.6980 0.7020 0.7020 0.7030
10.807661 0.7050 0.7050 0.7050 0.7070 0.7070
10.842000 0.7070 0.7070 0.7080 0.7120 0.7140
10.875661 0.7140 0.7150 0.7170 0.7170 0.7170
10.909000 0.7190 0.7190 0.7170 0.7170 0.7170
10.942661 0.7170 0.7220 0.7220 0.7220 0.7220
10.976000 0.7220 0.7220 0.7220 0.7200 0.7190
11.009661 0.7170 0.7170 0.7170 0.7170 0.7170
11.043000 0.7170 0.7170 0.7150 0.7150 0.7140
11.076661 0.7140 0.7140 0.7140 0.7140 0.7140
11.111000 0.7120 0.7120 0.7080 0.7080 0.7080
11.144661 0.7080 0.7070 0.7050 0.7050 0.7050
11.178000 0.7050 0.7030 0.7020 0.6980 0.6970
11.211661 0.6970 0.6970 0.6930 0.6920 0.6900
11.245000 0.6860 0.6830 0.6810 0.6780 0.6760
11.278661 0.6760 0.6760 0.6730 0.6680 0.6660
11.313000 0.6610 0.6590 0.6580 0.6580 0.6510
11.346661 0.6420 0.6390 0.6320 0.6310 0.6290
11.380000 0.6190 0.6170 0.6120 0.6070 0.6000
11.413661 0.5930 0.5880 0.5870 0.5760 0.5700
11.447000 0.5610 0.5540 0.5510 0.5490 0.5430
11.480661 0.5380 0.5340 0.5290 0.5260 0.5240
11.514000 0.5220 0.5190 0.5170 0.5170 0.5170
11.547661 0.5190 0.5210 0.5220 0.5220 0.5240
11.582000 0.5240 0.5240 0.5220 0.5220 0.5220
11.615661 0.5160 0.5090 0.5050 0.5050 0.5050
11.649000 0.5070 0.5190 0.5270 0.5380 0.5490
11.682661 0.5610 0.5710 0.5730 0.5800 0.5870
11.716000 0.5920 0.6000 0.6020 0.6070 0.6120
11.749661 0.6170 0.6200 0.6220 0.6260 0.6290
11.784000 0.6290 0.6290 0.6290 0.6310 0.6310
11.817661 0.6310 0.6310 0.6320 0.6320 0.6320
11.851000 0.6310 0.6310 0.6290 0.6240 0.6190
11.884661 0.6150 0.6100 0.6050 0.6000 0.5950
11.918000 0.5900 0.5870 0.5760 0.5710 0.5650
11.951661 0.5610 0.5530 0.5480 0.5360 0.5290
11.986000 0.5220 0.5140 0.5040 0.4950 0.4870
12.019661 0.4770 0.4770 0.4670 0.4580 0.4480
12.053000 0.4380 0.4340 0.4240 0.4160 0.4090
12.086661 0.4060 0.4010 0.3970 0.3870 0.3790
12.120000 0.3790 0.3720 0.3700 0.3670 0.3620
12.153661 0.3570 0.3550 0.3550 0.3550 0.3550
12.187000 0.3550 0.3550 0.3550 0.3550 0.3550
12.220661 0.3550 0.3550 0.3550 0.3600 0.3620
12.255000 0.3680 0.3730 0.3750 0.3770 0.3790
12.288661 0.3800 0.3870 0.3890 0.3970 0.4020
12.322000 0.4060 0.4090 0.4140 0.4170 0.4240
12.355661 0.4290 0.4340 0.4340 0.4360 0.4390
12.389000 0.4460 0.4480 0.4550 0.4580 0.4580
12.422661 0.4650 0.4670 0.4670 0.4680 0.4720
12.457000 0.4750 0.4770 0.4780 0.4780 0.4800
12.490661 0.4820 0.4820 0.4830 0.4850 0.4870
12.524000 0.4870 0.4890 0.4900 0.4900 0.4900
12.557661 0.4920 0.4920 0.4950 0.4970 0.4970
12.591000 0.4990 0.4990 0.5000 0.5000 0.5000
12.624661 0.5020 0.5020 0.5020 0.5040 0.5070
12.658000 0.5090 0.5100 0.5100 0.5100 0.5090
12.691661 0.5070 0.5020 0.4940 0.4890 0.4890
12.726000 0.4780 0.4730 0.4610 0.4500 0.4380
12.759661 0.4310 0.4230 0.4190 0.4160 0.4120
12.793000 0.4090 0.4090 0.4090 0.4110 0.4120
12.826661 0.4160 0.4240 0.4360 0.4480 0.4680
12.860000 0.4830 0.4900 0.5050 0.5140 0.5310
12.893661 0.5410 0.5530 0.5580 0.5630 0.5730
12.928000 0.5760 0.5870 0.5880 0.5950 0.5980
12.961661 0.6020 0.6050 0.6090 0.6100 0.6100
12.995000 0.6150 0.6170 0.6170 0.6190 0.6190
13.028661 0.6190 0.6200 0.6200 0.6200 0.6200
13.062000 0.6200 0.6200 0.6200 0.6190 0.6190
13.095661 0.6190 0.6170 0.6170 0.6170 0.6170
13.129000 0.6170 0.6170 0.6170 0.6170 0.6190
13.162661 0.6190 0.6170 0.6170 0.6170 0.6170
13.197000 0.6150 0.6150 0.6120 0.6120 0.6120
13.230661 0.6100 0.6100 0.6100 0.6090 0.6090
13.264000 0.6090 0.6070 0.6050 0.6040 0.6040
13.297661 0.6040 0.6040 0.6040 0.6020 0.6000
13.331000 0.6000 0.6000 0.5980 0.5950 0.5950
13.364661 0.5950 0.5920 0.5920 0.5900 0.5900
13.399000 0.5880 0.5870 0.5850 0.5800 0.5750
13.432661 0.5710 0.5700 0.5680 0.5650 0.5610
13.466000 0.5560 0.5530 0.5490 0.5490 0.5430
13.499661 0.5340 0.5260 0.5220 0.5160 0.5040
13.533000 0.4920 0.4900 0.4770 0.4610 0.4480
13.566661 0.4360 0.4290 0.4160 0.4120 0.3940
13.600000 0.3770 0.3530 0.3400 0.3230 0.3090
13.633661 0.3010 0.2910 0.2840 0.2740 0.2650
13.668000 0.2620 0.2620 0.2600 0.2580 0.2580
13.701661 0.2580 0.2620 0.2620 0.2670 0.2740
13.735000 0.2770 0.2870 0.2960 0.3060 0.3180
13.768661 0.3350 0.3380 0.3480 0.3600 0.3800
13.802000 0.3990 0.4140 0.4310 0.4360 0.4480
13.835661 0.4600 0.4670 0.4780 0.4870 0.4920
13.870000 0.4990 0.5020 0.5040 0.5120 0.5140
13.903661 0.5210 0.5270 0.5290 0.5310 0.5360
13.937000 0.5410 0.5430 0.5440 0.5460 0.5480
13.970661 0.5480 0.5480 0.5490 0.5490 0.5490
14.004000 0.5510 0.5510 0.5510 0.5510 0.5510
14.037661 0.5510 0.5510 0.5510 0.5510 0.5510
14.071000 0.5510 0.5530 0.5530 0.5530 0.5510
14.104661 0.5510 0.5490 0.5490 0.5480 0.5480
14.139000 0.5480 0.5480 0.5480 0.5480 0.5460
14.172661 0.5440 0.5430 0.5430 0.5430 0.5440
14.206000 0.5460 0.5460 0.5460 0.5440 0.5430
14.239661 0.5410 0.5410 0.5380 0.5360 0.5340
14.273000 0.5340 0.5360 0.5360 0.5360 0.5340
14.306661 0.5340 0.5340 0.5340 0.5320 0.5320
14.341000 0.5320 0.5320 0.5320 0.5320 0.5310
14.374661 0.5310 0.5310 0.5290 0.5290 0.5270
14.408000 0.5270 0.5270 0.5270 0.5270 0.5270
14.441661 0.5270 0.5270 0.5260 0.5260 0.5260
14.475000 0.5260 0.5260 0.5260 0.5240 0.5240
14.508661 0.5240 0.5210 0.5210 0.5190 0.5170
14.542000 0.5170 0.5160 0.5160 0.5160 0.5160
14.575661 0.5160 0.5160 0.5160 0.5160 0.5160
14.610000 0.5160 0.5160 0.5160 0.5140 0.5140
14.643661 0.5140 0.5140 0.5140 0.5120 0.5120
14.677000 0.5120 0.5100 0.5090 0.5090 0.5070
14.710661 0.5070 0.5050 0.5050 0.5050 0.5050
14.744000 0.5050 0.5040 0.5020 0.5020 0.5020
14.777661 0.5020 0.5020 0.5020 0.5020 0.5000
14.812000 0.5000 0.4990 0.4990 0.4970 0.4950
14.845661 0.4940 0.4920 0.4920 0.4920 0.4900
14.879000 0.4900 0.4900 0.4890 0.4870 0.4830
14.912661 0.4830 0.4830 0.4830 0.4820 0.4820
14.946000 0.4830 0.4830 0.4870 0.4890 0.4900
14.979661 0.4900 0.4900 0.4890 0.4830 0.4780
15.013000 0.4670 0.4560 0.4560 0.4560 0.4560
15.046661 0.4560 0.4580 0.4580 0.4580 0.4600
15.081000 0.4610 0.4610 0.4610 0.4610 0.4610
15.114661 0.4610 0.4610 0.4600 0.4600 0.4600
15.148000 0.4580 0.4560 0.4560 0.4550 0.4550
15.181661 0.4550 0.4550 0.4530 0.4530 0.4510
15.215000 0.4510 0.4500 0.4500 0.4480 0.4480
15.248661 0.4460 0.4460 0.4450 0.4450 0.4430
15.283000 0.4430 0.4410 0.4390
##END=
