##TITLE=BICYCLO[2.2.1]HEPTA-2,5-DIENE
##JCAMP-DX=4.24
##DATA TYPE=INFRARED SPECTRUM
##CLASS=COBLENTZ III
##ORIGIN=WESTERN REGIONAL RES. USDA
##OWNER=COBLENTZ SOCIETY
Collection (C) 2018 copyright by the U.S. Secretary of Commerce
on behalf of the United States of America. All rights reserved.
##DATE=1966/02/04
##CAS REGISTRY NO=121-46-0
##MOLFORM=C7 H8
##SOURCE REFERENCE=COBLENTZ NO. 5883
##$NIST SOURCE=COBLENTZ
##$NIST IMAGE=cob5883
##SPECTROMETER/DATA SYSTEM=CARY 90 (GRATING)
##INSTRUMENT PARAMETERS=GRATING CHANGES AT 3000, 2000, 1200 CM^-^1
##STATE=SOLUTION (10% IN CCl4 FOR 4000-1250 CM^-^1, 10% IN CS2 FOR 1250-450 CM^-^1) VS. SOLVENT
##PATH LENGTH=0.011 CM, 0.01 CM
##SAMPLING PROCEDURE=TRANSMISSION
##RESOLUTION=4
##DATA PROCESSING=DIGITIZED BY NIST FROM HARD COPY (FROM TWO SEGMENTS)
##XUNITS=1/CM
##YUNITS=TRANSMITTANCE
##XFACTOR=1.000000
##YFACTOR=1
##DELTAX=0.893389
##FIRSTX=470.518
##LASTX=4019.06
##FIRSTY=0.8
##MAXX=4019.06
##MINX=470.518
##MAXY=0.923
##MINY=0
##NPOINTS=3973
##XYDATA=(X++(Y..Y))
470.518000 0.8000 0.8000 0.8000 0.8000 0.7990
474.984947 0.7990 0.7990 0.7970 0.7950 0.7930
479.451895 0.7910 0.7900 0.7880 0.7870 0.7860
483.918842 0.7830 0.7800 0.7760 0.7690 0.7620
488.385790 0.7620 0.7510 0.7330 0.7230 0.7130
492.852737 0.6941 0.6810 0.6750 0.6392 0.5525
497.319685 0.4640 0.4260 0.3881 0.3142 0.2761
501.786632 0.2381 0.3217 0.4056 0.4747 0.6510
506.253580 0.7160 0.7430 0.7580 0.7600 0.7650
510.720527 0.7710 0.7770 0.7820 0.7880 0.7920
515.187475 0.7970 0.8000 0.8050 0.8080 0.8110
519.654422 0.8140 0.8170 0.8190 0.8210 0.8240
524.121370 0.8260 0.8270 0.8260 0.8260 0.8240
528.588317 0.8200 0.8180 0.8170 0.8140 0.8080
533.055265 0.7980 0.7830 0.7620 0.7320 0.7190
537.522212 0.7040 0.6741 0.6740 0.6850 0.7318
541.989160 0.7590 0.7780 0.7920 0.8040 0.8110
546.456107 0.8170 0.8220 0.8280 0.8350 0.8370
550.923055 0.8440 0.8450 0.8460 0.8480 0.8490
555.390002 0.8500 0.8510 0.8570 0.8590 0.8610
559.856950 0.8630 0.8640 0.8640 0.8640 0.8650
564.323897 0.8650 0.8660 0.8670 0.8690 0.8700
568.790845 0.8710 0.8730 0.8740 0.8750 0.8750
573.257792 0.8750 0.8760 0.8760 0.8760 0.8770
577.724740 0.8770 0.8770 0.8780 0.8780 0.8780
582.191687 0.8780 0.8780 0.8780 0.8780 0.8780
586.658635 0.8780 0.8780 0.8780 0.8780 0.8790
591.125582 0.8790 0.8790 0.8790 0.8800 0.8800
595.592530 0.8800 0.8800 0.8790 0.8790 0.8770
600.059477 0.8760 0.8750 0.8750 0.8740 0.8730
604.526425 0.8710 0.8710 0.8700 0.8690 0.8680
608.993372 0.8670 0.8660 0.8650 0.8610 0.8600
613.460320 0.8590 0.8580 0.8580 0.8570 0.8570
617.927267 0.8570 0.8560 0.8540 0.8510 0.8480
622.394215 0.8460 0.8440 0.8420 0.8360 0.8300
626.861162 0.8260 0.8210 0.8180 0.8140 0.8100
631.328110 0.8050 0.7990 0.7920 0.7830 0.7720
635.795057 0.7590 0.7431 0.7241 0.7130 0.7011
640.262005 0.6990 0.6880 0.6710 0.6331 0.6140
644.728952 0.5831 0.5521 0.4962 0.4164 0.3354
649.195900 0.2910 0.2470 0.1781 0.1520 0.1251
653.662847 0.1081 0.0821 0.0551 0.0301 0.0041
658.129795 0.0040 0.0440 0.1459 0.2857 0.3399
662.596742 0.4347 0.4788 0.5218 0.6096 0.6428
667.063690 0.6720 0.6920 0.7160 0.7210 0.7220
671.530637 0.7310 0.7370 0.7480 0.7580 0.7689
675.997585 0.7780 0.7870 0.7920 0.7980 0.8020
680.464532 0.8050 0.8070 0.8070 0.8080 0.8080
684.931480 0.8080 0.8070 0.8060 0.8050 0.8040
689.398427 0.8020 0.8020 0.8010 0.8010 0.8010
693.865375 0.8000 0.7970 0.7910 0.7780 0.7670
698.332322 0.7560 0.7440 0.7360 0.7260 0.7141
702.799270 0.7090 0.7030 0.6910 0.6780 0.6620
707.266217 0.6431 0.6310 0.6141 0.6110 0.5821
711.733165 0.5640 0.5450 0.5020 0.4531 0.4251
716.200112 0.3971 0.3352 0.3011 0.2681 0.1944
720.667060 0.1540 0.1140 0.0910 0.0690 0.0451
725.134007 0.0231 0.0001 0.0000 0.0000 0.0169
729.600955 0.0340 0.0520 0.0690 0.0830 0.1778
734.067902 0.3266 0.3569 0.4327 0.4748 0.5158
738.534850 0.5870 0.6120 0.6260 0.6510 0.6690
743.001797 0.6830 0.6930 0.7030 0.7229 0.7379
747.468745 0.7550 0.7580 0.7610 0.7660 0.7710
751.935692 0.7760 0.7810 0.7860 0.7910 0.7960
756.402640 0.8000 0.8040 0.8070 0.8090 0.8100
760.869587 0.8120 0.8120 0.8140 0.8140 0.8110
765.336535 0.8100 0.8080 0.8050 0.8010 0.8000
769.803482 0.7990 0.7890 0.7860 0.7900 0.8000
774.270430 0.8060 0.8120 0.8160 0.8170 0.8170
778.737377 0.8170 0.8180 0.8160 0.8140 0.8090
783.204325 0.8070 0.8010 0.7960 0.7810 0.7551
787.671272 0.7331 0.7210 0.7090 0.6313 0.5743
792.138220 0.5450 0.5150 0.4591 0.4261 0.3911
796.605167 0.3202 0.2861 0.2501 0.3306 0.5708
801.072115 0.6350 0.6800 0.7409 0.7759 0.7910
805.539062 0.8109 0.8220 0.8310 0.8370 0.8420
810.006010 0.8460 0.8500 0.8570 0.8600 0.8630
814.472957 0.8660 0.8660 0.8660 0.8670 0.8680
818.939905 0.8680 0.8690 0.8700 0.8700 0.8710
823.406852 0.8730 0.8740 0.8750 0.8760 0.8780
827.873800 0.8780 0.8790 0.8800 0.8800 0.8800
832.340747 0.8810 0.8830 0.8830 0.8830 0.8840
836.807695 0.8840 0.8830 0.8830 0.8810 0.8810
841.274642 0.8810 0.8790 0.8760 0.8730 0.8680
845.741590 0.8640 0.8580 0.8560 0.8530 0.8470
850.208537 0.8410 0.8350 0.8280 0.8200 0.8120
854.675485 0.8010 0.7910 0.7800 0.7690 0.7560
859.142432 0.7390 0.7171 0.7030 0.6901 0.6572
863.609380 0.6040 0.5720 0.5550 0.5370 0.5031
868.076327 0.4681 0.3863 0.3043 0.3000 0.2771
872.543275 0.2530 0.2390 0.2090 0.2090 0.3148
877.010222 0.4706 0.5258 0.6007 0.6219 0.6339
881.477170 0.6500 0.6610 0.6620 0.6610 0.6600
885.944117 0.6510 0.6331 0.6131 0.5871 0.5850
890.411064 0.5860 0.6160 0.6360 0.6570 0.6780
894.878012 0.7368 0.7460 0.7589 0.7600 0.7600
899.344959 0.7590 0.7590 0.7520 0.7460 0.7390
903.811907 0.7270 0.7190 0.7100 0.6851 0.6651
908.278854 0.6640 0.6650 0.7139 0.7390 0.7599
912.745802 0.7769 0.7900 0.7990 0.8000 0.8000
917.212749 0.8000 0.7980 0.7970 0.7910 0.7860
921.679697 0.7820 0.7780 0.7750 0.7680 0.7610
926.146644 0.7510 0.7140 0.6771 0.6451 0.6121
930.613592 0.5771 0.5611 0.5441 0.5420 0.5102
935.080539 0.5101 0.6330 0.7299 0.7650 0.7750
939.547487 0.7830 0.7910 0.7980 0.8050 0.8100
944.014434 0.8160 0.8200 0.8250 0.8290 0.8320
948.481382 0.8360 0.8380 0.8410 0.8440 0.8460
952.948329 0.8490 0.8510 0.8540 0.8580 0.8600
957.415277 0.8610 0.8610 0.8630 0.8640 0.8650
961.882224 0.8680 0.8690 0.8700 0.8710 0.8730
966.349172 0.8740 0.8740 0.8740 0.8750 0.8760
970.816119 0.8770 0.8770 0.8770 0.8770 0.8770
975.283067 0.8760 0.8760 0.8760 0.8750 0.8750
979.750014 0.8750 0.8750 0.8750 0.8750 0.8750
984.216962 0.8750 0.8750 0.8760 0.8760 0.8760
988.683909 0.8760 0.8760 0.8750 0.8740 0.8740
993.150857 0.8730 0.8730 0.8710 0.8700 0.8690
997.617804 0.8670 0.8660 0.8650 0.8640 0.8610
1002.084752 0.8600 0.8590 0.8580 0.8570 0.8560
1006.551699 0.8490 0.8470 0.8450 0.8350 0.8250
1011.018647 0.8140 0.7891 0.7631 0.7610 0.7620
1015.485594 0.7810 0.8120 0.8220 0.8290 0.8360
1019.952542 0.8410 0.8480 0.8590 0.8600 0.8610
1024.419489 0.8640 0.8650 0.8650 0.8650 0.8660
1028.886437 0.8670 0.8670 0.8680 0.8680 0.8680
1033.353384 0.8680 0.8670 0.8670 0.8670 0.8660
1037.820332 0.8650 0.8650 0.8640 0.8630 0.8630
1042.287279 0.8600 0.8590 0.8570 0.8550 0.8540
1046.754227 0.8510 0.8510 0.8490 0.8480 0.8450
1051.221174 0.8410 0.8350 0.8270 0.8160 0.8020
1055.688122 0.7850 0.7631 0.7431 0.7430 0.7579
1060.155069 0.7720 0.7860 0.8000 0.8080 0.8150
1064.622017 0.8210 0.8240 0.8250 0.8290 0.8340
1069.088964 0.8360 0.8370 0.8370 0.8370 0.8360
1073.555912 0.8350 0.8340 0.8310 0.8300 0.8280
1078.022859 0.8270 0.8250 0.8220 0.8200 0.8200
1082.489807 0.8190 0.8180 0.8180 0.8180 0.8170
1086.956754 0.8160 0.8150 0.8150 0.8120 0.8100
1091.423702 0.8080 0.8050 0.7990 0.7970 0.7920
1095.890649 0.7880 0.7830 0.7750 0.7610 0.7480
1100.357597 0.7360 0.7240 0.7240 0.7330 0.7410
1104.824544 0.7490 0.7570 0.7650 0.7710 0.7780
1109.291492 0.7870 0.7910 0.7960 0.7990 0.8020
1113.758439 0.8070 0.8100 0.8120 0.8160 0.8190
1118.225387 0.8210 0.8240 0.8260 0.8280 0.8300
1122.692334 0.8310 0.8340 0.8350 0.8360 0.8360
1127.159282 0.8360 0.8370 0.8370 0.8380 0.8380
1131.626229 0.8370 0.8370 0.8360 0.8350 0.8270
1136.093177 0.8120 0.8010 0.7880 0.7691 0.7491
1140.560124 0.7290 0.7200 0.7100 0.6900 0.6611
1145.027072 0.6480 0.6480 0.7227 0.7519 0.7729
1149.494019 0.7920 0.8100 0.8190 0.8260 0.8310
1153.960967 0.8360 0.8390 0.8420 0.8460 0.8480
1158.427914 0.8570 0.8610 0.8650 0.8660 0.8670
1162.894862 0.8670 0.8680 0.8680 0.8680 0.8690
1167.361809 0.8700 0.8700 0.8710 0.8730 0.8730
1171.828757 0.8730 0.8710 0.8700 0.8690 0.8690
1176.295704 0.8680 0.8670 0.8660 0.8660 0.8650
1180.762652 0.8640 0.8630 0.8600 0.8590 0.8580
1185.229599 0.8560 0.8490 0.8470 0.8420 0.8380
1189.696547 0.8320 0.8280 0.8240 0.8190 0.7971
1194.163494 0.7770 0.7590 0.7400 0.6990 0.6581
1198.630442 0.5892 0.5551 0.5211 0.4523 0.4520
1203.097389 0.5100 0.5370 0.5940 0.6220 0.6430
1207.564337 0.6600 0.7238 0.7429 0.7569 0.7620
1212.031284 0.7670 0.7680 0.7660 0.7620 0.7510
1216.498232 0.7211 0.7100 0.6990 0.6791 0.6581
1220.965179 0.6380 0.5930 0.5690 0.5440 0.4961
1225.432127 0.4481 0.4251 0.4021 0.4667 0.5764
1229.899074 0.6450 0.7360 0.7630 0.7800 0.7910
1234.366022 0.7970 0.7990 0.8000 0.8020 0.8070
1238.832969 0.8080 0.8080 0.8080 0.8070 0.8060
1243.299917 0.8050 0.8010 0.7990 0.8000 0.8040
1247.766864 0.8060 0.8080 0.8100 0.8180 0.8210
1252.233812 0.8240 0.8250 0.8250 0.8260 0.8260
1256.700759 0.8270 0.8260 0.8240 0.8190 0.8110
1261.167707 0.8010 0.7960 0.7870 0.7780 0.7690
1265.634654 0.7690 0.7720 0.7820 0.7950 0.7980
1270.101602 0.8040 0.8150 0.8210 0.8260 0.8290
1274.568549 0.8310 0.8350 0.8390 0.8410 0.8420
1279.035497 0.8440 0.8420 0.8410 0.8400 0.8360
1283.502444 0.8340 0.8310 0.8310 0.8270 0.8210
1287.969392 0.8200 0.8160 0.8110 0.8070 0.8020
1292.436339 0.7960 0.7870 0.7780 0.7680 0.7580
1296.903286 0.7480 0.7211 0.7071 0.6911 0.6263
1301.370234 0.5610 0.4950 0.4540 0.4280 0.4021
1305.837181 0.3222 0.2423 0.1892 0.1611 0.1321
1310.304129 0.0750 0.0180 0.0180 0.0659 0.0909
1314.771076 0.1139 0.1628 0.1849 0.2875 0.3576
1319.238024 0.5900 0.6260 0.6410 0.6480 0.6600
1323.704971 0.6889 0.6900 0.7000 0.7010 0.7010
1328.171919 0.6940 0.6890 0.6820 0.6770 0.6710
1332.638866 0.6640 0.6630 0.6620 0.6720 0.6810
1337.105814 0.7170 0.7490 0.7720 0.7910 0.8050
1341.572761 0.8150 0.8220 0.8280 0.8310 0.8370
1346.039709 0.8420 0.8600 0.8650 0.8680 0.8700
1350.506656 0.8710 0.8730 0.8740 0.8750 0.8750
1354.973604 0.8750 0.8750 0.8760 0.8760 0.8760
1359.440551 0.8770 0.8770 0.8770 0.8780 0.8780
1363.907499 0.8780 0.8790 0.8790 0.8790 0.8790
1368.374446 0.8790 0.8790 0.8790 0.8780 0.8780
1372.841394 0.8780 0.8780 0.8770 0.8750 0.8740
1377.308341 0.8690 0.8650 0.8590 0.8560 0.8530
1381.775289 0.8470 0.8420 0.8380 0.8360 0.8360
1386.242236 0.8360 0.8370 0.8420 0.8460 0.8500
1390.709184 0.8580 0.8610 0.8670 0.8700 0.8730
1395.176131 0.8740 0.8750 0.8750 0.8750 0.8760
1399.643079 0.8770 0.8780 0.8780 0.8790 0.8800
1404.110026 0.8800 0.8800 0.8830 0.8830 0.8830
1408.576974 0.8830 0.8840 0.8840 0.8840 0.8850
1413.043921 0.8850 0.8850 0.8850 0.8850 0.8850
1417.510869 0.8850 0.8840 0.8840 0.8840 0.8830
1421.977816 0.8830 0.8830 0.8810 0.8810 0.8810
1426.444764 0.8800 0.8770 0.8740 0.8730 0.8710
1430.911711 0.8710 0.8700 0.8700 0.8690 0.8680
1435.378659 0.8650 0.8570 0.8560 0.8550 0.8540
1439.845606 0.8480 0.8370 0.8280 0.8111 0.7801
1444.312554 0.7360 0.6900 0.6590 0.6590 0.7618
1448.779501 0.7770 0.8019 0.8259 0.8370 0.8460
1453.246449 0.8600 0.8660 0.8700 0.8750 0.8770
1457.713396 0.8790 0.8810 0.8830 0.8840 0.8850
1462.180344 0.8850 0.8860 0.8860 0.8870 0.8870
1466.647291 0.8880 0.8880 0.8890 0.8890 0.8900
1471.114239 0.8900 0.8900 0.8890 0.8890 0.8890
1475.581186 0.8880 0.8870 0.8850 0.8840 0.8830
1480.048134 0.8810 0.8810 0.8810 0.8830 0.8830
1484.515081 0.8840 0.8860 0.8870 0.8880 0.8890
1488.982029 0.8900 0.8910 0.8900 0.8930 0.8910
1493.448976 0.8900 0.8890 0.8870 0.8850 0.8810
1497.915924 0.8780 0.8740 0.8700 0.8660 0.8650
1502.382871 0.8650 0.8650 0.8650 0.8660 0.8670
1506.849819 0.8690 0.8700 0.8730 0.8740 0.8750
1511.316766 0.8740 0.8730 0.8710 0.8680 0.8680
1515.783714 0.8610 0.8560 0.8490 0.8370 0.8250
1520.250661 0.8180 0.8180 0.8120 0.8060 0.8040
1524.717609 0.8010 0.7990 0.7970 0.7950 0.7920
1529.184556 0.7890 0.7810 0.7670 0.7471 0.7241
1533.651504 0.7020 0.6900 0.5711 0.4521 0.4161
1538.118451 0.3801 0.3092 0.2731 0.2381 0.1673
1542.585399 0.1671 0.3080 0.4349 0.4809 0.5968
1547.052346 0.6429 0.6609 0.6879 0.6890 0.7218
1551.519294 0.7300 0.7370 0.7380 0.7430 0.7470
1555.986241 0.7490 0.7510 0.7530 0.7570 0.7610
1560.453189 0.7680 0.7760 0.7870 0.7960 0.8020
1564.920136 0.8080 0.8120 0.8150 0.8170 0.8180
1569.387084 0.8190 0.8200 0.8210 0.8210 0.8220
1573.854031 0.8250 0.8300 0.8340 0.8360 0.8380
1578.320979 0.8400 0.8420 0.8460 0.8490 0.8630
1582.787926 0.8670 0.8680 0.8680 0.8640 0.8610
1587.254874 0.8580 0.8570 0.8560 0.8510 0.8470
1591.721821 0.8420 0.8380 0.8340 0.8300 0.8290
1596.188769 0.8300 0.8380 0.8400 0.8440 0.8470
1600.655716 0.8570 0.8610 0.8660 0.8700 0.8710
1605.122664 0.8730 0.8730 0.8740 0.8750 0.8760
1609.589611 0.8770 0.8770 0.8780 0.8790 0.8790
1614.056559 0.8790 0.8790 0.8780 0.8780 0.8770
1618.523506 0.8770 0.8760 0.8760 0.8750 0.8710
1622.990454 0.8690 0.8670 0.8650 0.8630 0.8600
1627.457401 0.8590 0.8560 0.8530 0.8460 0.8440
1631.924349 0.8420 0.8350 0.8180 0.8020 0.7860
1636.391296 0.7730 0.7660 0.7580 0.7570 0.7590
1640.858244 0.7710 0.7950 0.8110 0.8250 0.8350
1645.325191 0.8420 0.8490 0.8629 0.8680 0.8730
1649.792139 0.8770 0.8790 0.8830 0.8850 0.8860
1654.259086 0.8870 0.8890 0.8900 0.8910 0.8910
1658.726034 0.8910 0.8900 0.8900 0.8890 0.8880
1663.192981 0.8870 0.8860 0.8850 0.8840 0.8830
1667.659929 0.8830 0.8830 0.8810 0.8810 0.8800
1672.126876 0.8800 0.8790 0.8790 0.8780 0.8780
1676.593824 0.8780 0.8780 0.8790 0.8790 0.8790
1681.060771 0.8800 0.8810 0.8810 0.8830 0.8840
1685.527719 0.8850 0.8860 0.8860 0.8870 0.8880
1689.994666 0.8880 0.8890 0.8890 0.8900 0.8900
1694.461614 0.8910 0.8910 0.8910 0.8910 0.8900
1698.928561 0.8900 0.8890 0.8880 0.8880 0.8870
1703.395509 0.8860 0.8850 0.8850 0.8850 0.8850
1707.862456 0.8850 0.8850 0.8860 0.8860 0.8860
1712.329403 0.8860 0.8860 0.8860 0.8850 0.8850
1716.796351 0.8840 0.8830 0.8830 0.8810 0.8810
1721.263298 0.8800 0.8800 0.8790 0.8780 0.8780
1725.730246 0.8770 0.8770 0.8760 0.8750 0.8750
1730.197193 0.8740 0.8740 0.8730 0.8710 0.8710
1734.664141 0.8690 0.8690 0.8680 0.8680 0.8670
1739.131088 0.8670 0.8660 0.8660 0.8650 0.8650
1743.598036 0.8640 0.8640 0.8630 0.8630 0.8610
1748.064983 0.8610 0.8590 0.8590 0.8580 0.8580
1752.531931 0.8570 0.8570 0.8570 0.8560 0.8550
1756.998878 0.8550 0.8550 0.8540 0.8530 0.8530
1761.465826 0.8530 0.8530 0.8540 0.8540 0.8540
1765.932773 0.8550 0.8550 0.8550 0.8560 0.8560
1770.399721 0.8570 0.8570 0.8580 0.8580 0.8580
1774.866668 0.8590 0.8590 0.8590 0.8600 0.8600
1779.333616 0.8610 0.8610 0.8630 0.8630 0.8640
1783.800563 0.8640 0.8650 0.8650 0.8660 0.8660
1788.267511 0.8670 0.8670 0.8680 0.8680 0.8690
1792.734458 0.8690 0.8700 0.8700 0.8710 0.8710
1797.201406 0.8730 0.8730 0.8740 0.8740 0.8750
1801.668353 0.8750 0.8760 0.8760 0.8770 0.8770
1806.135301 0.8780 0.8790 0.8790 0.8800 0.8810
1810.602248 0.8830 0.8830 0.8840 0.8850 0.8850
1815.069196 0.8860 0.8870 0.8870 0.8880 0.8880
1819.536143 0.8890 0.8890 0.8900 0.8900 0.8910
1824.003091 0.8910 0.8930 0.8930 0.8940 0.8940
1828.470038 0.8940 0.8940 0.8940 0.8940 0.8940
1832.936986 0.8940 0.8940 0.8940 0.8940 0.8950
1837.403933 0.8950 0.8950 0.8960 0.8960 0.8960
1841.870881 0.8970 0.8980 0.8980 0.8980 0.8980
1846.337828 0.8990 0.8990 0.8990 0.8990 0.8990
1850.804776 0.9000 0.9000 0.9000 0.9000 0.9000
1855.271723 0.9000 0.9000 0.9000 0.9000 0.8990
1859.738671 0.8990 0.8990 0.8990 0.8990 0.8980
1864.205618 0.8980 0.8980 0.8980 0.8980 0.8970
1868.672566 0.8970 0.8970 0.8970 0.8960 0.8950
1873.139513 0.8950 0.8950 0.8950 0.8960 0.8960
1877.606461 0.8960 0.8970 0.8970 0.8980 0.8980
1882.073408 0.8990 0.8990 0.9000 0.9000 0.9000
1886.540356 0.9020 0.9030 0.9030 0.9040 0.9050
1891.007303 0.9050 0.9050 0.9060 0.9060 0.9060
1895.474251 0.9060 0.9060 0.9060 0.9060 0.9060
1899.941198 0.9060 0.9060 0.9060 0.9060 0.9060
1904.408146 0.9060 0.9050 0.9050 0.9040 0.9050
1908.875093 0.9050 0.9050 0.9050 0.9040 0.9040
1913.342041 0.9040 0.9040 0.9030 0.9030 0.9030
1917.808988 0.9030 0.9020 0.9020 0.9020 0.9000
1922.275936 0.9000 0.9000 0.9020 0.9020 0.9020
1926.742883 0.9020 0.9030 0.9030 0.9030 0.9030
1931.209831 0.9030 0.9030 0.9030 0.9030 0.9030
1935.676778 0.9030 0.9020 0.9020 0.9020 0.9020
1940.143726 0.9000 0.9000 0.8990 0.8990 0.8990
1944.610673 0.8990 0.8990 0.8980 0.8980 0.8980
1949.077621 0.8980 0.8970 0.8970 0.8970 0.8960
1953.544568 0.8960 0.8950 0.8940 0.8940 0.8930
1958.011516 0.8930 0.8930 0.8930 0.8930 0.8930
1962.478463 0.8930 0.8930 0.8930 0.8930 0.8930
1966.945411 0.8930 0.8930 0.8940 0.8940 0.8940
1971.412358 0.8940 0.8940 0.8950 0.8950 0.8950
1975.879306 0.8950 0.8950 0.8960 0.8960 0.8960
1980.346253 0.8960 0.8960 0.8960 0.8960 0.8960
1984.813201 0.8960 0.8970 0.8970 0.8970 0.8970
1989.280148 0.8980 0.8980 0.8980 0.8990 0.8990
1993.747096 0.8990 0.8990 0.8990 0.9000 0.9000
1998.214043 0.9000 0.9000 0.9020 0.9020 0.9020
2002.680991 0.9020 0.9020 0.9020 0.9020 0.9020
2007.147938 0.9020 0.9020 0.9020 0.9020 0.9020
2011.614886 0.9020 0.9020 0.9020 0.9020 0.9020
2016.081833 0.9020 0.9020 0.9020 0.9020 0.9020
2020.548781 0.9020 0.9020 0.9020 0.9020 0.9024
2025.015728 0.9029 0.9030 0.9030 0.9030 0.9030
2029.482676 0.9030 0.9030 0.9034 0.9039 0.9040
2033.949623 0.9040 0.9040 0.9040 0.9040 0.9040
2038.416571 0.9043 0.9048 0.9050 0.9050 0.9050
2042.883518 0.9050 0.9050 0.9050 0.9050 0.9050
2047.350466 0.9053 0.9058 0.9060 0.9060 0.9060
2051.817413 0.9060 0.9063 0.9068 0.9070 0.9070
2056.284361 0.9070 0.9070 0.9073 0.9078 0.9080
2060.751308 0.9080 0.9080 0.9080 0.9082 0.9087
2065.218256 0.9090 0.9090 0.9090 0.9090 0.9090
2069.685203 0.9090 0.9090 0.9090 0.9090 0.9090
2074.152151 0.9090 0.9090 0.9088 0.9083 0.9080
2078.619098 0.9080 0.9080 0.9080 0.9080 0.9080
2083.086046 0.9080 0.9080 0.9078 0.9074 0.9070
2087.552993 0.9070 0.9070 0.9070 0.9070 0.9070
2092.019941 0.9069 0.9064 0.9060 0.9060 0.9060
2096.486888 0.9060 0.9060 0.9060 0.9060 0.9060
2100.953836 0.9059 0.9054 0.9050 0.9050 0.9050
2105.420783 0.9050 0.9050 0.9050 0.9049 0.9044
2109.887731 0.9039 0.9034 0.9030 0.9030 0.9030
2114.354678 0.9030 0.9030 0.9025 0.9020 0.9020
2118.821625 0.9020 0.9020 0.9020 0.9020 0.9020
2123.288573 0.9020 0.9020 0.9020 0.9020 0.9010
2127.755520 0.9000 0.9000 0.9000 0.9000 0.9000
2132.222468 0.9009 0.9019 0.9020 0.9020 0.9020
2136.689415 0.9020 0.9020 0.9020 0.9024 0.9029
2141.156363 0.9030 0.9030 0.9030 0.9030 0.9030
2145.623310 0.9030 0.9034 0.9039 0.9040 0.9040
2150.090258 0.9040 0.9040 0.9040 0.9040 0.9044
2154.557205 0.9049 0.9050 0.9050 0.9050 0.9050
2159.024153 0.9050 0.9050 0.9053 0.9058 0.9060
2163.491100 0.9060 0.9060 0.9060 0.9060 0.9060
2167.958048 0.9063 0.9068 0.9070 0.9070 0.9070
2172.424995 0.9070 0.9070 0.9070 0.9070 0.9070
2176.891943 0.9073 0.9078 0.9080 0.9080 0.9083
2181.358890 0.9088 0.9090 0.9090 0.9093 0.9098
2185.825838 0.9100 0.9100 0.9105 0.9115 0.9120
2190.292785 0.9120 0.9122 0.9127 0.9130 0.9130
2194.759733 0.9130 0.9130 0.9130 0.9130 0.9130
2199.226680 0.9130 0.9132 0.9137 0.9140 0.9140
2203.693628 0.9140 0.9140 0.9140 0.9140 0.9140
2208.160575 0.9140 0.9142 0.9146 0.9150 0.9150
2212.627523 0.9150 0.9150 0.9150 0.9150 0.9150
2217.094470 0.9150 0.9150 0.9150 0.9150 0.9150
2221.561418 0.9150 0.9150 0.9150 0.9150 0.9150
2226.028365 0.9150 0.9150 0.9150 0.9150 0.9150
2230.495313 0.9150 0.9150 0.9150 0.9150 0.9150
2234.962260 0.9150 0.9150 0.9150 0.9150 0.9150
2239.429208 0.9150 0.9150 0.9150 0.9150 0.9150
2243.896155 0.9150 0.9150 0.9150 0.9150 0.9150
2248.363103 0.9150 0.9150 0.9150 0.9150 0.9150
2252.830050 0.9150 0.9150 0.9150 0.9150 0.9150
2257.296998 0.9150 0.9150 0.9150 0.9150 0.9150
2261.763945 0.9150 0.9150 0.9150 0.9150 0.9150
2266.230893 0.9150 0.9150 0.9150 0.9150 0.9150
2270.697840 0.9150 0.9150 0.9150 0.9150 0.9150
2275.164788 0.9150 0.9150 0.9150 0.9146 0.9141
2279.631735 0.9140 0.9140 0.9140 0.9140 0.9140
2284.098683 0.9140 0.9140 0.9140 0.9140 0.9140
2288.565630 0.9140 0.9140 0.9140 0.9140 0.9140
2293.032578 0.9140 0.9140 0.9140 0.9140 0.9140
2297.499525 0.9140 0.9140 0.9140 0.9140 0.9140
2301.966473 0.9140 0.9140 0.9140 0.9140 0.9140
2306.433420 0.9140 0.9140 0.9140 0.9140 0.9140
2310.900368 0.9140 0.9140 0.9140 0.9140 0.9140
2315.367315 0.9140 0.9140 0.9138 0.9133 0.9130
2319.834263 0.9130 0.9130 0.9130 0.9128 0.9123
2324.301210 0.9120 0.9120 0.9116 0.9106 0.9100
2328.768158 0.9100 0.9100 0.9100 0.9100 0.9100
2333.235105 0.9100 0.9100 0.9100 0.9100 0.9103
2337.702053 0.9113 0.9120 0.9120 0.9121 0.9126
2342.169000 0.9130 0.9130 0.9130 0.9130 0.9131
2346.635948 0.9136 0.9140 0.9140 0.9141 0.9146
2351.102895 0.9150 0.9150 0.9150 0.9150 0.9151
2355.569843 0.9156 0.9160 0.9160 0.9160 0.9165
2360.036790 0.9170 0.9170 0.9170 0.9170 0.9170
2364.503738 0.9170 0.9170 0.9170 0.9170 0.9170
2368.970685 0.9170 0.9170 0.9170 0.9170 0.9170
2373.437633 0.9170 0.9170 0.9170 0.9170 0.9170
2377.904580 0.9170 0.9170 0.9170 0.9170 0.9170
2382.371528 0.9170 0.9170 0.9166 0.9161 0.9160
2386.838475 0.9160 0.9160 0.9160 0.9160 0.9160
2391.305423 0.9156 0.9151 0.9150 0.9150 0.9150
2395.772370 0.9150 0.9150 0.9150 0.9150 0.9150
2400.239318 0.9146 0.9141 0.9140 0.9140 0.9140
2404.706265 0.9140 0.9140 0.9140 0.9137 0.9132
2409.173213 0.9130 0.9130 0.9130 0.9130 0.9130
2413.640160 0.9130 0.9127 0.9122 0.9120 0.9120
2418.107108 0.9120 0.9120 0.9120 0.9120 0.9120
2422.574055 0.9120 0.9120 0.9120 0.9114 0.9105
2427.041003 0.9100 0.9100 0.9100 0.9100 0.9100
2431.507950 0.9100 0.9100 0.9100 0.9100 0.9100
2435.974898 0.9100 0.9100 0.9100 0.9100 0.9100
2440.441845 0.9100 0.9104 0.9114 0.9120 0.9120
2444.908793 0.9120 0.9120 0.9122 0.9127 0.9130
2449.375740 0.9130 0.9130 0.9130 0.9132 0.9137
2453.842688 0.9140 0.9140 0.9140 0.9140 0.9141
2458.309635 0.9146 0.9150 0.9150 0.9151 0.9156
2462.776583 0.9160 0.9160 0.9160 0.9160 0.9160
2467.243530 0.9160 0.9161 0.9166 0.9170 0.9170
2471.710478 0.9170 0.9170 0.9171 0.9176 0.9180
2476.177425 0.9180 0.9180 0.9180 0.9180 0.9180
2480.644373 0.9181 0.9185 0.9190 0.9190 0.9190
2485.111320 0.9190 0.9190 0.9195 0.9200 0.9200
2489.578268 0.9200 0.9200 0.9200 0.9200 0.9200
2494.045215 0.9210 0.9220 0.9220 0.9220 0.9220
2498.512163 0.9220 0.9225 0.9230 0.9230 0.9230
2502.979110 0.9230 0.9230 0.9230 0.9230 0.9230
2507.446058 0.9230 0.9226 0.9221 0.9220 0.9220
2511.913005 0.9220 0.9220 0.9220 0.9220 0.9212
2516.379953 0.9202 0.9200 0.9200 0.9200 0.9200
2520.846900 0.9200 0.9200 0.9200 0.9200 0.9200
2525.313848 0.9200 0.9196 0.9191 0.9190 0.9190
2529.780795 0.9190 0.9190 0.9190 0.9190 0.9190
2534.247742 0.9190 0.9190 0.9190 0.9187 0.9182
2538.714690 0.9180 0.9180 0.9180 0.9180 0.9180
2543.181637 0.9180 0.9180 0.9180 0.9180 0.9180
2547.648585 0.9180 0.9180 0.9180 0.9180 0.9180
2552.115532 0.9180 0.9180 0.9180 0.9180 0.9180
2556.582480 0.9180 0.9180 0.9180 0.9180 0.9180
2561.049427 0.9180 0.9180 0.9180 0.9180 0.9180
2565.516375 0.9180 0.9180 0.9180 0.9180 0.9180
2569.983322 0.9180 0.9180 0.9180 0.9180 0.9180
2574.450270 0.9180 0.9180 0.9180 0.9180 0.9180
2578.917217 0.9180 0.9182 0.9187 0.9190 0.9190
2583.384165 0.9190 0.9190 0.9190 0.9190 0.9190
2587.851112 0.9190 0.9190 0.9190 0.9190 0.9190
2592.318060 0.9190 0.9190 0.9190 0.9190 0.9189
2596.785007 0.9184 0.9180 0.9180 0.9180 0.9180
2601.251955 0.9180 0.9180 0.9180 0.9180 0.9180
2605.718902 0.9180 0.9180 0.9180 0.9180 0.9180
2610.185850 0.9180 0.9175 0.9170 0.9170 0.9170
2614.652797 0.9170 0.9170 0.9170 0.9170 0.9170
2619.119745 0.9170 0.9170 0.9170 0.9170 0.9170
2623.586692 0.9170 0.9170 0.9170 0.9170 0.9170
2628.053640 0.9170 0.9170 0.9170 0.9170 0.9170
2632.520587 0.9170 0.9170 0.9170 0.9170 0.9170
2636.987535 0.9170 0.9170 0.9170 0.9170 0.9170
2641.454482 0.9170 0.9170 0.9170 0.9170 0.9170
2645.921430 0.9170 0.9170 0.9170 0.9170 0.9170
2650.388377 0.9174 0.9179 0.9180 0.9180 0.9180
2654.855325 0.9180 0.9180 0.9180 0.9180 0.9180
2659.322272 0.9180 0.9180 0.9180 0.9180 0.9180
2663.789220 0.9180 0.9180 0.9180 0.9180 0.9180
2668.256167 0.9183 0.9188 0.9190 0.9190 0.9190
2672.723115 0.9190 0.9190 0.9190 0.9190 0.9190
2677.190062 0.9190 0.9190 0.9190 0.9190 0.9190
2681.657010 0.9190 0.9190 0.9190 0.9190 0.9190
2686.123957 0.9192 0.9197 0.9200 0.9200 0.9200
2690.590905 0.9200 0.9200 0.9200 0.9200 0.9200
2695.057852 0.9200 0.9200 0.9200 0.9200 0.9198
2699.524800 0.9193 0.9188 0.9183 0.9180 0.9180
2703.991747 0.9180 0.9180 0.9180 0.9180 0.9180
2708.458695 0.9180 0.9180 0.9180 0.9180 0.9180
2712.925642 0.9180 0.9180 0.9180 0.9180 0.9180
2717.392590 0.9180 0.9180 0.9180 0.9180 0.9180
2721.859537 0.9180 0.9180 0.9180 0.9180 0.9180
2726.326485 0.9180 0.9180 0.9180 0.9180 0.9180
2730.793432 0.9180 0.9180 0.9180 0.9180 0.9180
2735.260380 0.9180 0.9180 0.9180 0.9180 0.9175
2739.727327 0.9170 0.9170 0.9170 0.9170 0.9170
2744.194275 0.9165 0.9160 0.9160 0.9160 0.9160
2748.661222 0.9160 0.9155 0.9150 0.9150 0.9150
2753.128170 0.9150 0.9150 0.9150 0.9150 0.9150
2757.595117 0.9150 0.9150 0.9150 0.9150 0.9150
2762.062065 0.9150 0.9150 0.9150 0.9150 0.9150
2766.529012 0.9150 0.9150 0.9150 0.9150 0.9150
2770.995960 0.9146 0.9141 0.9140 0.9140 0.9136
2775.462907 0.9131 0.9130 0.9130 0.9126 0.9122
2779.929855 0.9120 0.9120 0.9120 0.9120 0.9113
2784.396802 0.9103 0.9100 0.9100 0.9097 0.9092
2788.863750 0.9090 0.9090 0.9090 0.9090 0.9087
2793.330697 0.9082 0.9080 0.9080 0.9077 0.9072
2797.797645 0.9070 0.9070 0.9070 0.9070 0.9067
2802.264592 0.9062 0.9060 0.9060 0.9060 0.9060
2806.731540 0.9058 0.9053 0.9048 0.9043 0.9040
2811.198487 0.9040 0.9038 0.9033 0.9028 0.9023
2815.665435 0.9020 0.9020 0.9016 0.9006 0.8998
2820.132382 0.8993 0.8988 0.8983 0.8980 0.8980
2824.599330 0.8975 0.8960 0.8947 0.8937 0.8925
2829.066277 0.8911 0.8897 0.8887 0.8879 0.8874
2833.533225 0.8869 0.8864 0.8858 0.8848 0.8837
2838.000172 0.8822 0.8807 0.8792 0.8776 0.8756
2842.467120 0.8735 0.8705 0.8673 0.8633 0.8597
2846.934067 0.8577 0.8556 0.8532 0.8503 0.8448
2851.401015 0.8393 0.8328 0.8262 0.8177 0.8084
2855.867962 0.7885 0.7663 0.7108 0.6552 0.5986
2860.334910 0.5421 0.4856 0.4297 0.4137 0.3977
2864.801857 0.3813 0.3649 0.3322 0.2995 0.2834
2869.268805 0.2675 0.2507 0.2338 0.2699 0.3086
2873.735752 0.3751 0.4436 0.4659 0.4842 0.5990
2878.202700 0.7240 0.7578 0.7801 0.7908 0.7999
2882.669647 0.8084 0.8168 0.8248 0.8327 0.8344
2887.136595 0.8349 0.8362 0.8377 0.8392 0.8407
2891.603542 0.8426 0.8446 0.8458 0.8468 0.8466
2896.070490 0.8461 0.8442 0.8417 0.8363 0.8298
2900.537437 0.8244 0.8194 0.8155 0.8121 0.8096
2905.004385 0.8076 0.8050 0.8020 0.7997 0.7977
2909.471332 0.7944 0.7905 0.7859 0.7809 0.7747
2913.938280 0.7678 0.7585 0.7476 0.7375 0.7280
2918.405227 0.7049 0.6722 0.6392 0.6060 0.5706
2922.872175 0.5334 0.4964 0.4597 0.4338 0.4179
2927.339122 0.4021 0.3862 0.3621 0.3294 0.3046
2931.806070 0.2887 0.2726 0.2562 0.2326 0.1996
2936.273017 0.1741 0.1582 0.1421 0.1258 0.1258
2940.739964 0.1501 0.1742 0.1980 0.2264 0.2626
2945.206912 0.2930 0.3129 0.3349 0.3612 0.3876
2949.673859 0.4144 0.4336 0.4356 0.4367 0.4357
2954.140807 0.4320 0.4216 0.4109 0.3995 0.3863
2958.607754 0.3679 0.3470 0.3183 0.2894 0.2601
2963.074702 0.2299 0.1962 0.1674 0.1589 0.1505
2967.541649 0.1421 0.1317 0.1114 0.0939 0.0934
2972.008597 0.0930 0.0930 0.0931 0.0936 0.0940
2976.475544 0.0940 0.0939 0.0929 0.0916 0.0872
2980.942492 0.0827 0.0782 0.0739 0.0714 0.0689
2985.409439 0.0654 0.0619 0.0570 0.0520 0.0485
2989.876387 0.0450 0.0440 0.0430 0.0435 0.0440
2994.343334 0.0512 0.0586 0.0675 0.0764 0.0858
2998.810282 0.0952 0.1329 0.1731 0.1819 0.1874
3003.277229 0.2355 0.2890 0.3046 0.3145 0.3305
3007.744177 0.3475 0.3852 0.4263 0.4467 0.4631
3012.211124 0.4786 0.4940 0.5090 0.5239 0.5481
3016.678072 0.5749 0.5898 0.6012 0.6123 0.6232
3021.145019 0.6333 0.6433 0.6525 0.6614 0.6700
3025.611967 0.6785 0.6859 0.6929 0.7039 0.7168
3030.078914 0.7244 0.7293 0.7339 0.7384 0.7426
3034.545862 0.7465 0.7496 0.7520 0.7560 0.7610
3039.012809 0.7630 0.7630 0.7621 0.7607 0.7586
3043.479757 0.7561 0.7519 0.7465 0.7418 0.7379
3047.946704 0.7326 0.7261 0.7189 0.7110 0.7028
3052.413652 0.6944 0.6826 0.6672 0.6500 0.6306
3056.880599 0.6015 0.5603 0.5192 0.4780 0.4396
3061.347547 0.4051 0.3705 0.3358 0.3102 0.2983
3065.814494 0.2866 0.2752 0.2724 0.2843 0.2960
3070.281442 0.3074 0.3188 0.3302 0.3415 0.3524
3074.748389 0.3635 0.3749 0.3928 0.4271 0.4591
3079.215337 0.4851 0.5164 0.5621 0.5996 0.6134
3083.682284 0.6282 0.6455 0.6617 0.6736 0.6866
3088.149232 0.7040 0.7180 0.7180 0.7173 0.7133
3092.616179 0.7093 0.7048 0.6997 0.6908 0.6818
3097.083127 0.6723 0.6626 0.6517 0.6412 0.6343
3101.550074 0.6280 0.6280 0.6335 0.7039 0.7706
3106.017022 0.7800 0.7890 0.7885 0.7879 0.7849
3110.483969 0.7818 0.7659 0.7501 0.7342 0.7183
3114.950917 0.7102 0.7021 0.6947 0.6873 0.6712
3119.417864 0.6548 0.6394 0.6240 0.6230 0.6230
3123.884812 0.6439 0.6667 0.7074 0.7500 0.7699
3128.351759 0.7868 0.7972 0.8066 0.8135 0.8199
3132.818707 0.8264 0.8329 0.8361 0.8386 0.8475
3137.285654 0.8580 0.8612 0.8627 0.8634 0.8639
3141.752602 0.8648 0.8658 0.8667 0.8677 0.8691
3146.219549 0.8706 0.8724 0.8744 0.8764 0.8784
3150.686497 0.8807 0.8832 0.8847 0.8857 0.8870
3155.153444 0.8885 0.8893 0.8898 0.8913 0.8933
3159.620392 0.8946 0.8956 0.8972 0.8992 0.9012
3164.087339 0.9032 0.9046 0.9056 0.9066 0.9075
3168.554287 0.9085 0.9095 0.9100 0.9100 0.9105
3173.021234 0.9115 0.9120 0.9120 0.9120 0.9120
3177.488182 0.9122 0.9127 0.9130 0.9130 0.9132
3181.955129 0.9137 0.9140 0.9140 0.9142 0.9147
3186.422077 0.9150 0.9150 0.9150 0.9150 0.9150
3190.889024 0.9150 0.9150 0.9150 0.9150 0.9150
3195.355972 0.9150 0.9150 0.9150 0.9150 0.9150
3199.822919 0.9150 0.9150 0.9150 0.9150 0.9150
3204.289867 0.9150 0.9150 0.9150 0.9150 0.9150
3208.756814 0.9150 0.9150 0.9150 0.9151 0.9156
3213.223762 0.9160 0.9160 0.9160 0.9160 0.9160
3217.690709 0.9160 0.9160 0.9160 0.9160 0.9160
3222.157657 0.9160 0.9160 0.9160 0.9160 0.9160
3226.624604 0.9160 0.9160 0.9160 0.9160 0.9160
3231.091552 0.9160 0.9160 0.9160 0.9160 0.9160
3235.558499 0.9160 0.9160 0.9160 0.9160 0.9160
3240.025447 0.9160 0.9160 0.9160 0.9160 0.9160
3244.492394 0.9165 0.9170 0.9170 0.9170 0.9170
3248.959342 0.9170 0.9170 0.9170 0.9170 0.9170
3253.426289 0.9170 0.9170 0.9170 0.9170 0.9174
3257.893237 0.9179 0.9180 0.9180 0.9180 0.9180
3262.360184 0.9180 0.9180 0.9180 0.9180 0.9180
3266.827132 0.9180 0.9180 0.9180 0.9180 0.9180
3271.294079 0.9180 0.9180 0.9180 0.9180 0.9180
3275.761027 0.9180 0.9180 0.9180 0.9180 0.9180
3280.227974 0.9180 0.9180 0.9180 0.9180 0.9180
3284.694922 0.9180 0.9180 0.9180 0.9180 0.9180
3289.161869 0.9180 0.9180 0.9180 0.9180 0.9180
3293.628817 0.9180 0.9180 0.9180 0.9180 0.9180
3298.095764 0.9180 0.9180 0.9180 0.9180 0.9180
3302.562712 0.9180 0.9180 0.9180 0.9180 0.9180
3307.029659 0.9180 0.9180 0.9180 0.9180 0.9180
3311.496607 0.9180 0.9180 0.9180 0.9180 0.9180
3315.963554 0.9180 0.9180 0.9180 0.9180 0.9180
3320.430502 0.9180 0.9180 0.9180 0.9180 0.9180
3324.897449 0.9180 0.9180 0.9180 0.9180 0.9180
3329.364397 0.9180 0.9180 0.9180 0.9180 0.9180
3333.831344 0.9180 0.9180 0.9179 0.9174 0.9170
3338.298292 0.9170 0.9170 0.9170 0.9170 0.9170
3342.765239 0.9170 0.9170 0.9170 0.9170 0.9169
3347.232187 0.9165 0.9160 0.9160 0.9160 0.9160
3351.699134 0.9160 0.9160 0.9160 0.9160 0.9160
3356.166081 0.9160 0.9160 0.9155 0.9150 0.9150
3360.633029 0.9150 0.9150 0.9150 0.9150 0.9150
3365.099976 0.9150 0.9150 0.9150 0.9150 0.9145
3369.566924 0.9140 0.9140 0.9140 0.9140 0.9140
3374.033871 0.9140 0.9140 0.9140 0.9140 0.9136
3378.500819 0.9131 0.9130 0.9130 0.9130 0.9130
3382.967766 0.9130 0.9130 0.9130 0.9130 0.9130
3387.434714 0.9130 0.9130 0.9130 0.9130 0.9130
3391.901661 0.9126 0.9121 0.9120 0.9120 0.9120
3396.368609 0.9120 0.9113 0.9103 0.9100 0.9100
3400.835556 0.9100 0.9100 0.9100 0.9100 0.9097
3405.302504 0.9092 0.9090 0.9090 0.9090 0.9090
3409.769451 0.9090 0.9090 0.9087 0.9082 0.9080
3414.236399 0.9080 0.9080 0.9080 0.9077 0.9072
3418.703346 0.9070 0.9070 0.9070 0.9070 0.9070
3423.170294 0.9070 0.9070 0.9070 0.9070 0.9070
3427.637241 0.9070 0.9070 0.9070 0.9070 0.9068
3432.104189 0.9063 0.9060 0.9060 0.9060 0.9060
3436.571136 0.9058 0.9053 0.9050 0.9050 0.9050
3441.038084 0.9050 0.9048 0.9043 0.9040 0.9040
3445.505031 0.9038 0.9033 0.9029 0.9024 0.9017
3449.971979 0.9007 0.9000 0.9000 0.8999 0.8994
3454.438926 0.8989 0.8984 0.8979 0.8974 0.8969
3458.905874 0.8964 0.8960 0.8960 0.8960 0.8960
3463.372821 0.8960 0.8960 0.8959 0.8954 0.8950
3467.839769 0.8950 0.8950 0.8950 0.8950 0.8950
3472.306716 0.8950 0.8950 0.8950 0.8950 0.8950
3476.773664 0.8955 0.8960 0.8960 0.8960 0.8960
3481.240611 0.8960 0.8960 0.8960 0.8965 0.8970
3485.707559 0.8970 0.8970 0.8975 0.8980 0.8980
3490.174506 0.8980 0.8985 0.8990 0.8990 0.8990
3494.641454 0.8995 0.9000 0.9000 0.9000 0.9000
3499.108401 0.9000 0.9000 0.9000 0.9000 0.9000
3503.575349 0.9000 0.9000 0.9000 0.9000 0.9000
3508.042296 0.9000 0.9000 0.9000 0.9000 0.9000
3512.509244 0.9000 0.9000 0.9000 0.9000 0.9000
3516.976191 0.9000 0.9000 0.9000 0.9000 0.9000
3521.443139 0.9000 0.9000 0.9000 0.9000 0.8997
3525.910086 0.8992 0.8990 0.8990 0.8990 0.8990
3530.377034 0.8990 0.8990 0.8990 0.8990 0.8990
3534.843981 0.8990 0.8990 0.8990 0.8990 0.8990
3539.310929 0.8990 0.8990 0.8990 0.8990 0.8990
3543.777876 0.8990 0.8990 0.8990 0.8990 0.8990
3548.244824 0.8990 0.8990 0.8990 0.8990 0.8990
3552.711771 0.8990 0.8990 0.8990 0.8990 0.8990
3557.178719 0.8990 0.8990 0.8990 0.8990 0.8990
3561.645666 0.8990 0.8990 0.8990 0.8990 0.8990
3566.112614 0.8990 0.8990 0.8990 0.8990 0.8990
3570.579561 0.8990 0.8990 0.8990 0.8990 0.8990
3575.046509 0.8990 0.8990 0.8990 0.8990 0.8990
3579.513456 0.8990 0.8990 0.8990 0.8990 0.8990
3583.980404 0.8990 0.8990 0.8990 0.8990 0.8990
3588.447351 0.8990 0.8991 0.8996 0.9000 0.9000
3592.914299 0.9000 0.9000 0.9000 0.9000 0.9000
3597.381246 0.9000 0.9001 0.9011 0.9020 0.9020
3601.848194 0.9020 0.9020 0.9020 0.9020 0.9020
3606.315141 0.9020 0.9020 0.9020 0.9020 0.9020
3610.782089 0.9020 0.9025 0.9030 0.9030 0.9030
3615.249036 0.9030 0.9030 0.9030 0.9030 0.9030
3619.715984 0.9030 0.9030 0.9030 0.9030 0.9030
3624.182931 0.9034 0.9039 0.9040 0.9040 0.9040
3628.649879 0.9040 0.9044 0.9049 0.9050 0.9050
3633.116826 0.9050 0.9050 0.9054 0.9059 0.9060
3637.583774 0.9060 0.9060 0.9060 0.9064 0.9069
3642.050721 0.9070 0.9070 0.9070 0.9070 0.9073
3646.517669 0.9078 0.9080 0.9080 0.9080 0.9080
3650.984616 0.9083 0.9088 0.9090 0.9090 0.9090
3655.451564 0.9090 0.9093 0.9098 0.9100 0.9100
3659.918511 0.9100 0.9100 0.9106 0.9116 0.9120
3664.385459 0.9120 0.9120 0.9120 0.9120 0.9120
3668.852406 0.9120 0.9120 0.9120 0.9120 0.9120
3673.319354 0.9120 0.9120 0.9120 0.9122 0.9127
3677.786301 0.9130 0.9130 0.9130 0.9130 0.9130
3682.253249 0.9130 0.9130 0.9130 0.9130 0.9130
3686.720196 0.9130 0.9130 0.9130 0.9130 0.9130
3691.187144 0.9130 0.9130 0.9130 0.9130 0.9130
3695.654091 0.9130 0.9130 0.9130 0.9130 0.9130
3700.121039 0.9130 0.9130 0.9130 0.9130 0.9130
3704.587986 0.9130 0.9130 0.9130 0.9130 0.9130
3709.054934 0.9130 0.9130 0.9130 0.9130 0.9130
3713.521881 0.9129 0.9124 0.9120 0.9120 0.9120
3717.988829 0.9120 0.9120 0.9120 0.9119 0.9109
3722.455776 0.9100 0.9100 0.9100 0.9100 0.9100
3726.922724 0.9100 0.9100 0.9095 0.9090 0.9090
3731.389671 0.9090 0.9090 0.9090 0.9085 0.9080
3735.856619 0.9075 0.9070 0.9070 0.9070 0.9065
3740.323566 0.9060 0.9060 0.9060 0.9056 0.9051
3744.790514 0.9046 0.9041 0.9040 0.9040 0.9036
3749.257461 0.9031 0.9030 0.9030 0.9026 0.9021
3753.724409 0.9012 0.9002 0.8996 0.8991 0.8986
3758.191356 0.8981 0.8976 0.8971 0.8966 0.8961
3762.658303 0.8956 0.8951 0.8950 0.8950 0.8946
3767.125251 0.8941 0.8936 0.8932 0.8923 0.8913
3771.592198 0.8907 0.8902 0.8897 0.8892 0.8887
3776.059146 0.8882 0.8877 0.8872 0.8867 0.8862
3780.526093 0.8857 0.8852 0.8847 0.8842 0.8840
3784.993041 0.8840 0.8840 0.8840 0.8840 0.8840
3789.459988 0.8843 0.8848 0.8853 0.8858 0.8865
3793.926936 0.8875 0.8885 0.8895 0.8907 0.8922
3798.393883 0.8935 0.8945 0.8955 0.8964 0.8974
3802.860831 0.8984 0.8990 0.8990 0.9002 0.9032
3807.327778 0.9052 0.9057 0.9062 0.9067 0.9072
3811.794726 0.9077 0.9082 0.9087 0.9092 0.9097
3816.261673 0.9100 0.9100 0.9100 0.9100 0.9099
3820.728621 0.9094 0.9090 0.9090 0.9090 0.9090
3825.195568 0.9089 0.9084 0.9080 0.9080 0.9079
3829.662516 0.9074 0.9070 0.9070 0.9069 0.9064
3834.129463 0.9060 0.9060 0.9059 0.9054 0.9050
3838.596411 0.9050 0.9049 0.9044 0.9039 0.9034
3843.063358 0.9030 0.9025 0.9020 0.9020 0.9019
3847.530306 0.9009 0.9000 0.8995 0.8990 0.8985
3851.997253 0.8980 0.8980 0.8980 0.8975 0.8970
3856.464201 0.8965 0.8960 0.8955 0.8950 0.8950
3860.931148 0.8950 0.8945 0.8940 0.8935 0.8930
3865.398096 0.8921 0.8911 0.8910 0.8910 0.8910
3869.865043 0.8910 0.8906 0.8901 0.8896 0.8891
3874.331991 0.8890 0.8890 0.8890 0.8890 0.8890
3878.798938 0.8890 0.8890 0.8890 0.8894 0.8899
3883.265886 0.8900 0.8900 0.8900 0.8900 0.8900
3887.732833 0.8900 0.8904 0.8909 0.8910 0.8910
3892.199781 0.8910 0.8910 0.8910 0.8910 0.8917
3896.666728 0.8927 0.8930 0.8930 0.8930 0.8930
3901.133676 0.8933 0.8938 0.8940 0.8940 0.8940
3905.600623 0.8940 0.8943 0.8948 0.8950 0.8950
3910.067571 0.8950 0.8950 0.8950 0.8950 0.8950
3914.534518 0.8950 0.8950 0.8950 0.8950 0.8950
3919.001466 0.8950 0.8950 0.8950 0.8950 0.8950
3923.468413 0.8950 0.8950 0.8950 0.8950 0.8950
3927.935361 0.8950 0.8950 0.8950 0.8950 0.8950
3932.402308 0.8950 0.8950 0.8950 0.8950 0.8950
3936.869256 0.8952 0.8957 0.8960 0.8960 0.8960
3941.336203 0.8960 0.8960 0.8960 0.8960 0.8960
3945.803151 0.8960 0.8960 0.8960 0.8960 0.8960
3950.270098 0.8960 0.8960 0.8960 0.8960 0.8960
3954.737046 0.8961 0.8966 0.8970 0.8970 0.8970
3959.203993 0.8970 0.8970 0.8970 0.8970 0.8970
3963.670941 0.8970 0.8970 0.8970 0.8970 0.8970
3968.137888 0.8970 0.8970 0.8970 0.8970 0.8970
3972.604836 0.8970 0.8970 0.8970 0.8975 0.8980
3977.071783 0.8980 0.8980 0.8980 0.8980 0.8980
3981.538731 0.8980 0.8980 0.8980 0.8980 0.8980
3986.005678 0.8980 0.8980 0.8980 0.8980 0.8980
3990.472626 0.8980 0.8980 0.8980 0.8980 0.8980
3994.939573 0.8980 0.8980 0.8980 0.8980 0.8980
3999.406521 0.8980 0.8980 0.8980 0.8984 0.8989
4003.873468 0.8990 0.8990 0.8990 0.8990 0.8990
4008.340416 0.8990 0.8986 0.8981 0.8980 0.8980
4012.807363 0.8984 0.8989 0.8990 0.8990 0.8990
4017.274311 0.8990 0.8990 0.8990
##END=
