##TITLE=Benzene, 1-chloro-3-nitro-
##JCAMP-DX=4.24
$$ By DXEDIT 1.05 (RS McDonald)
##DATA TYPE=INFRARED SPECTRUM
##CLASS=COBLENTZ III
##ORIGIN=DOW CHEMICAL COMPANY
##OWNER=COPYRIGHT (C) 1988 by COBLENTZ SOCIETY INC.
Collection (C) 2018 copyright by the U.S. Secretary of Commerce
on behalf of the United States of America. All rights reserved.
##DATE=1964/04/14
##NAMES=1-chloro-3-nitrobenzene
##CAS REGISTRY NO=121-73-3
##MOLFORM=C6 H4 Cl N O2
##SOURCE REFERENCE=COBLENTZ NO. 6360
##$NIST SOURCE=COBLENTZ
##$NIST IMAGE=cob6360
##SPECTROMETER/DATA SYSTEM=BECKMAN IR-9 (GRATING)
##INSTRUMENT PARAMETERS=ORDER CHANGES: 670, 1200, 2000 CM^-^1
##STATE=SOLUTION (2% CCl4 FOR 3800-1330, 2% CS2 FOR 1330-400)
##PATH LENGTH=0.010 CM, 0.011 CM
$$SPECTRAL CONTAMINATIONS DUE TO CS2 AROUND 400, 850 CM^-^1 HAVE BEEN SUBTRACTED
##SAMPLING PROCEDURE=TRANSMISSION
##RESOLUTION=2
##DATA PROCESSING=DIGITIZED BY COBLENTZ SOCIETY (BATCH I) FROM HARD COPY
##XUNITS=1/CM
##YUNITS=TRANSMITTANCE
##XFACTOR=1
##YFACTOR=1
##DELTAX=1
##FIRSTX=3812
##LASTX=401
##FIRSTY=0.9202
##MAXX=3812
##MINX=401
##MAXY=0.9349
##MINY=0.0378
##NPOINTS=3412
##XYDATA=(X++(Y..Y))
3812.000000 0.9202 0.9210 0.9215 0.9205 0.9202
3807.000000 0.9212 0.9215 0.9215 0.9216 0.9216
3802.000000 0.9203 0.9203 0.9203 0.9203 0.9203
3797.000000 0.9205 0.9214 0.9206 0.9217 0.9216
3792.000000 0.9218 0.9218 0.9219 0.9219 0.9219
3787.000000 0.9219 0.9220 0.9220 0.9212 0.9208
3782.000000 0.9209 0.9218 0.9222 0.9211 0.9221
3777.000000 0.9223 0.9224 0.9211 0.9224 0.9224
3772.000000 0.9224 0.9224 0.9224 0.9223 0.9223
3767.000000 0.9223 0.9223 0.9222 0.9222 0.9222
3762.000000 0.9222 0.9221 0.9228 0.9227 0.9221
3757.000000 0.9220 0.9220 0.9220 0.9220 0.9220
3752.000000 0.9220 0.9219 0.9219 0.9219 0.9219
3747.000000 0.9218 0.9218 0.9218 0.9218 0.9217
3742.000000 0.9217 0.9217 0.9217 0.9221 0.9230
3737.000000 0.9229 0.9229 0.9229 0.9223 0.9215
3732.000000 0.9222 0.9228 0.9228 0.9228 0.9228
3727.000000 0.9228 0.9228 0.9228 0.9228 0.9228
3722.000000 0.9228 0.9228 0.9228 0.9214 0.9214
3717.000000 0.9226 0.9226 0.9226 0.9226 0.9226
3712.000000 0.9230 0.9235 0.9231 0.9239 0.9239
3707.000000 0.9239 0.9239 0.9239 0.9239 0.9239
3702.000000 0.9239 0.9239 0.9239 0.9239 0.9239
3697.000000 0.9239 0.9228 0.9226 0.9226 0.9226
3692.000000 0.9226 0.9226 0.9226 0.9226 0.9226
3687.000000 0.9223 0.9213 0.9213 0.9213 0.9213
3682.000000 0.9213 0.9213 0.9213 0.9213 0.9213
3677.000000 0.9213 0.9213 0.9213 0.9213 0.9213
3672.000000 0.9214 0.9214 0.9225 0.9216 0.9214
3667.000000 0.9214 0.9214 0.9214 0.9214 0.9214
3662.000000 0.9214 0.9214 0.9214 0.9214 0.9214
3657.000000 0.9214 0.9214 0.9214 0.9214 0.9214
3652.000000 0.9215 0.9215 0.9215 0.9215 0.9215
3647.000000 0.9214 0.9214 0.9214 0.9214 0.9214
3642.000000 0.9214 0.9214 0.9214 0.9213 0.9213
3637.000000 0.9213 0.9212 0.9212 0.9212 0.9215
3632.000000 0.9225 0.9224 0.9220 0.9211 0.9216
3627.000000 0.9224 0.9224 0.9223 0.9223 0.9223
3622.000000 0.9223 0.9223 0.9223 0.9223 0.9223
3617.000000 0.9222 0.9222 0.9222 0.9222 0.9222
3612.000000 0.9222 0.9222 0.9222 0.9220 0.9209
3607.000000 0.9221 0.9221 0.9221 0.9221 0.9217
3602.000000 0.9212 0.9221 0.9216 0.9208 0.9214
3597.000000 0.9221 0.9221 0.9221 0.9221 0.9221
3592.000000 0.9221 0.9221 0.9221 0.9221 0.9221
3587.000000 0.9221 0.9221 0.9221 0.9221 0.9221
3582.000000 0.9221 0.9221 0.9221 0.9221 0.9221
3577.000000 0.9221 0.9217 0.9212 0.9221 0.9221
3572.000000 0.9215 0.9208 0.9208 0.9206 0.9206
3567.000000 0.9206 0.9206 0.9206 0.9206 0.9205
3562.000000 0.9205 0.9205 0.9205 0.9204 0.9204
3557.000000 0.9204 0.9205 0.9215 0.9203 0.9205
3552.000000 0.9216 0.9216 0.9213 0.9206 0.9215
3547.000000 0.9215 0.9215 0.9208 0.9207 0.9213
3542.000000 0.9213 0.9212 0.9204 0.9206 0.9202
3537.000000 0.9206 0.9210 0.9209 0.9209 0.9208
3532.000000 0.9208 0.9206 0.9206 0.9191 0.9191
3527.000000 0.9191 0.9191 0.9190 0.9190 0.9188
3522.000000 0.9188 0.9188 0.9188 0.9187 0.9187
3517.000000 0.9187 0.9187 0.9186 0.9186 0.9184
3512.000000 0.9184 0.9184 0.9184 0.9183 0.9183
3507.000000 0.9181 0.9181 0.9181 0.9181 0.9180
3502.000000 0.9180 0.9179 0.9179 0.9177 0.9177
3497.000000 0.9176 0.9176 0.9175 0.9175 0.9174
3492.000000 0.9174 0.9173 0.9173 0.9172 0.9172
3487.000000 0.9172 0.9172 0.9171 0.9171 0.9170
3482.000000 0.9170 0.9169 0.9169 0.9168 0.9168
3477.000000 0.9167 0.9167 0.9166 0.9166 0.9165
3472.000000 0.9165 0.9164 0.9164 0.9163 0.9163
3467.000000 0.9161 0.9161 0.9160 0.9160 0.9159
3462.000000 0.9159 0.9158 0.9158 0.9158 0.9158
3457.000000 0.9157 0.9157 0.9156 0.9156 0.9155
3452.000000 0.9155 0.9154 0.9154 0.9153 0.9153
3447.000000 0.9153 0.9153 0.9153 0.9153 0.9153
3442.000000 0.9153 0.9153 0.9153 0.9153 0.9153
3437.000000 0.9153 0.9153 0.9153 0.9153 0.9152
3432.000000 0.9152 0.9152 0.9152 0.9152 0.9152
3427.000000 0.9152 0.9152 0.9141 0.9150 0.9152
3422.000000 0.9152 0.9152 0.9152 0.9152 0.9152
3417.000000 0.9152 0.9151 0.9151 0.9151 0.9150
3412.000000 0.9150 0.9150 0.9150 0.9150 0.9150
3407.000000 0.9157 0.9156 0.9150 0.9150 0.9150
3402.000000 0.9151 0.9151 0.9152 0.9152 0.9152
3397.000000 0.9152 0.9153 0.9153 0.9154 0.9154
3392.000000 0.9154 0.9154 0.9155 0.9155 0.9156
3387.000000 0.9156 0.9157 0.9157 0.9157 0.9157
3382.000000 0.9158 0.9158 0.9159 0.9159 0.9159
3377.000000 0.9159 0.9160 0.9160 0.9161 0.9161
3372.000000 0.9161 0.9161 0.9174 0.9163 0.9163
3367.000000 0.9163 0.9164 0.9164 0.9164 0.9164
3362.000000 0.9165 0.9165 0.9166 0.9166 0.9167
3357.000000 0.9167 0.9167 0.9167 0.9168 0.9168
3352.000000 0.9169 0.9169 0.9170 0.9170 0.9171
3347.000000 0.9171 0.9173 0.9183 0.9185 0.9174
3342.000000 0.9185 0.9174 0.9175 0.9175 0.9188
3337.000000 0.9188 0.9188 0.9177 0.9178 0.9178
3332.000000 0.9178 0.9178 0.9179 0.9179 0.9179
3327.000000 0.9179 0.9181 0.9181 0.9182 0.9182
3322.000000 0.9182 0.9182 0.9184 0.9184 0.9185
3317.000000 0.9185 0.9186 0.9186 0.9186 0.9188
3312.000000 0.9202 0.9202 0.9202 0.9202 0.9202
3307.000000 0.9193 0.9205 0.9206 0.9203 0.9194
3302.000000 0.9195 0.9195 0.9196 0.9197 0.9198
3297.000000 0.9198 0.9199 0.9199 0.9200 0.9200
3292.000000 0.9201 0.9201 0.9202 0.9202 0.9203
3287.000000 0.9203 0.9203 0.9203 0.9205 0.9217
3282.000000 0.9216 0.9205 0.9208 0.9218 0.9216
3277.000000 0.9206 0.9210 0.9219 0.9220 0.9220
3272.000000 0.9220 0.9220 0.9221 0.9221 0.9222
3267.000000 0.9222 0.9222 0.9222 0.9223 0.9223
3262.000000 0.9223 0.9223 0.9223 0.9223 0.9223
3257.000000 0.9221 0.9210 0.9222 0.9222 0.9221
3252.000000 0.9220 0.9219 0.9218 0.9217 0.9216
3247.000000 0.9214 0.9213 0.9206 0.9205 0.9210
3242.000000 0.9209 0.9208 0.9207 0.9205 0.9204
3237.000000 0.9203 0.9201 0.9200 0.9198 0.9197
3232.000000 0.9193 0.9190 0.9189 0.9186 0.9184
3227.000000 0.9179 0.9165 0.9166 0.9175 0.9172
3222.000000 0.9170 0.9168 0.9167 0.9165 0.9163
3217.000000 0.9161 0.9160 0.9159 0.9158 0.9157
3212.000000 0.9156 0.9155 0.9154 0.9151 0.9139
3207.000000 0.9135 0.9135 0.9135 0.9134 0.9132
3202.000000 0.9132 0.9131 0.9132 0.9139 0.9131
3197.000000 0.9138 0.9131 0.9138 0.9138 0.9137
3192.000000 0.9136 0.9135 0.9127 0.9127 0.9132
3187.000000 0.9131 0.9145 0.9116 0.9115 0.9114
3182.000000 0.9113 0.9112 0.9112 0.9111 0.9111
3177.000000 0.9110 0.9110 0.9109 0.9109 0.9108
3172.000000 0.9108 0.9107 0.9106 0.9105 0.9105
3167.000000 0.9104 0.9104 0.9103 0.9109 0.9114
3162.000000 0.9106 0.9107 0.9111 0.9110 0.9100
3157.000000 0.9105 0.9097 0.9092 0.9102 0.9103
3152.000000 0.9102 0.9101 0.9100 0.9098 0.9085
3147.000000 0.9083 0.9080 0.9077 0.9075 0.9072
3142.000000 0.9070 0.9072 0.9079 0.9076 0.9073
3137.000000 0.9069 0.9066 0.9061 0.9056 0.9050
3132.000000 0.9046 0.9035 0.9024 0.9009 0.8993
3127.000000 0.8972 0.8952 0.8932 0.8911 0.8892
3122.000000 0.8873 0.8854 0.8835 0.8815 0.8795
3117.000000 0.8774 0.8753 0.8730 0.8707 0.8683
3112.000000 0.8659 0.8639 0.8588 0.8599 0.8581
3107.000000 0.8588 0.8594 0.8599 0.8603 0.8611
3102.000000 0.8619 0.8628 0.8645 0.8659 0.8670
3097.000000 0.8693 0.8718 0.8745 0.8758 0.8774
3092.000000 0.8789 0.8779 0.8779 0.8761 0.8747
3087.000000 0.8748 0.8748 0.8762 0.8780 0.8812
3082.000000 0.8846 0.8865 0.8885 0.8904 0.8932
3077.000000 0.8965 0.8989 0.9010 0.9041 0.9064
3072.000000 0.9074 0.9088 0.9104 0.9102 0.9126
3067.000000 0.9124 0.9136 0.9144 0.9152 0.9143
3062.000000 0.9146 0.9147 0.9152 0.9161 0.9162
3057.000000 0.9157 0.9151 0.9158 0.9158 0.9152
3052.000000 0.9154 0.9163 0.9169 0.9169 0.9169
3047.000000 0.9169 0.9182 0.9184 0.9196 0.9209
3042.000000 0.9224 0.9237 0.9250 0.9250 0.9250
3037.000000 0.9248 0.9237 0.9226 0.9223 0.9210
3032.000000 0.9202 0.9202 0.9198 0.9190 0.9191
3027.000000 0.9185 0.9179 0.9179 0.9180 0.9180
3022.000000 0.9181 0.9182 0.9183 0.9194 0.9197
3017.000000 0.9197 0.9186 0.9185 0.9186 0.9186
3012.000000 0.9187 0.9187 0.9188 0.9189 0.9188
3007.000000 0.9178 0.9181 0.9190 0.9192 0.9186
3002.000000 0.9180 0.9180 0.9187 0.9186 0.9182
2997.000000 0.9182 0.9183 0.9183 0.9183 0.9193
2992.000000 0.9197 0.9197 0.9198 0.9199 0.9200
2987.000000 0.9200 0.9201 0.9201 0.9202 0.9202
2982.000000 0.9203 0.9203 0.9207 0.9218 0.9215
2977.000000 0.9210 0.9220 0.9220 0.9221 0.9221
2972.000000 0.9222 0.9222 0.9223 0.9232 0.9238
2967.000000 0.9238 0.9239 0.9239 0.9241 0.9241
2962.000000 0.9242 0.9242 0.9242 0.9257 0.9258
2957.000000 0.9245 0.9246 0.9246 0.9249 0.9259
2952.000000 0.9261 0.9261 0.9262 0.9262 0.9262
2947.000000 0.9256 0.9249 0.9246 0.9252 0.9247
2942.000000 0.9249 0.9241 0.9243 0.9242 0.9239
2937.000000 0.9237 0.9235 0.9223 0.9222 0.9225
2932.000000 0.9228 0.9231 0.9234 0.9237 0.9241
2927.000000 0.9244 0.9248 0.9249 0.9251 0.9252
2922.000000 0.9248 0.9241 0.9242 0.9243 0.9243
2917.000000 0.9243 0.9243 0.9239 0.9235 0.9228
2912.000000 0.9225 0.9215 0.9204 0.9194 0.9195
2907.000000 0.9186 0.9165 0.9154 0.9144 0.9134
2902.000000 0.9126 0.9116 0.9107 0.9098 0.9089
2897.000000 0.9081 0.9071 0.9064 0.9057 0.9050
2892.000000 0.9044 0.9039 0.9035 0.9030 0.9003
2887.000000 0.9022 0.9019 0.9016 0.9016 0.9018
2882.000000 0.9022 0.9026 0.9030 0.9035 0.9039
2877.000000 0.9030 0.9046 0.9049 0.9053 0.9056
2872.000000 0.9061 0.9064 0.9068 0.9071 0.9075
2867.000000 0.9078 0.9084 0.9085 0.9087 0.9092
2862.000000 0.9098 0.9104 0.9111 0.9117 0.9123
2857.000000 0.9130 0.9137 0.9143 0.9138 0.9143
2852.000000 0.9149 0.9154 0.9159 0.9166 0.9172
2847.000000 0.9178 0.9194 0.9196 0.9196 0.9192
2842.000000 0.9205 0.9207 0.9205 0.9205 0.9215
2837.000000 0.9217 0.9210 0.9205 0.9204 0.9203
2832.000000 0.9202 0.9201 0.9201 0.9210 0.9201
2827.000000 0.9209 0.9211 0.9197 0.9197 0.9208
2822.000000 0.9196 0.9207 0.9207 0.9204 0.9193
2817.000000 0.9192 0.9192 0.9191 0.9190 0.9190
2812.000000 0.9190 0.9189 0.9189 0.9189 0.9197
2807.000000 0.9201 0.9201 0.9201 0.9201 0.9200
2802.000000 0.9200 0.9200 0.9200 0.9200 0.9200
2797.000000 0.9199 0.9199 0.9199 0.9199 0.9198
2792.000000 0.9195 0.9187 0.9195 0.9184 0.9184
2787.000000 0.9184 0.9184 0.9189 0.9197 0.9189
2782.000000 0.9183 0.9190 0.9195 0.9194 0.9194
2777.000000 0.9194 0.9194 0.9193 0.9193 0.9193
2772.000000 0.9193 0.9193 0.9193 0.9192 0.9192
2767.000000 0.9192 0.9192 0.9191 0.9191 0.9191
2762.000000 0.9191 0.9191 0.9191 0.9190 0.9190
2757.000000 0.9190 0.9190 0.9189 0.9189 0.9189
2752.000000 0.9189 0.9188 0.9188 0.9188 0.9188
2747.000000 0.9188 0.9188 0.9187 0.9187 0.9187
2742.000000 0.9187 0.9186 0.9186 0.9186 0.9186
2737.000000 0.9185 0.9185 0.9184 0.9184 0.9184
2732.000000 0.9184 0.9184 0.9184 0.9184 0.9184
2727.000000 0.9184 0.9184 0.9184 0.9184 0.9184
2722.000000 0.9185 0.9185 0.9185 0.9185 0.9185
2717.000000 0.9185 0.9185 0.9185 0.9185 0.9185
2712.000000 0.9185 0.9185 0.9185 0.9185 0.9185
2707.000000 0.9185 0.9186 0.9186 0.9186 0.9186
2702.000000 0.9187 0.9187 0.9187 0.9187 0.9188
2697.000000 0.9188 0.9189 0.9189 0.9189 0.9189
2692.000000 0.9190 0.9190 0.9190 0.9190 0.9191
2687.000000 0.9191 0.9192 0.9192 0.9193 0.9193
2682.000000 0.9194 0.9194 0.9195 0.9195 0.9196
2677.000000 0.9196 0.9197 0.9197 0.9198 0.9198
2672.000000 0.9199 0.9200 0.9201 0.9202 0.9205
2667.000000 0.9206 0.9208 0.9209 0.9211 0.9213
2662.000000 0.9215 0.9216 0.9218 0.9219 0.9222
2657.000000 0.9235 0.9237 0.9238 0.9240 0.9241
2652.000000 0.9242 0.9240 0.9233 0.9235 0.9243
2647.000000 0.9251 0.9251 0.9243 0.9238 0.9237
2642.000000 0.9246 0.9239 0.9236 0.9234 0.9234
2637.000000 0.9232 0.9232 0.9232 0.9245 0.9244
2632.000000 0.9243 0.9229 0.9231 0.9242 0.9242
2627.000000 0.9241 0.9241 0.9240 0.9240 0.9238
2622.000000 0.9238 0.9238 0.9238 0.9238 0.9238
2617.000000 0.9237 0.9237 0.9237 0.9237 0.9237
2612.000000 0.9237 0.9235 0.9235 0.9235 0.9235
2607.000000 0.9235 0.9235 0.9235 0.9235 0.9234
2602.000000 0.9234 0.9233 0.9233 0.9233 0.9233
2597.000000 0.9232 0.9232 0.9232 0.9232 0.9231
2592.000000 0.9231 0.9231 0.9231 0.9231 0.9231
2587.000000 0.9230 0.9230 0.9230 0.9230 0.9229
2582.000000 0.9229 0.9229 0.9229 0.9228 0.9227
2577.000000 0.9227 0.9227 0.9227 0.9227 0.9226
2572.000000 0.9226 0.9226 0.9226 0.9225 0.9225
2567.000000 0.9225 0.9225 0.9224 0.9224 0.9224
2562.000000 0.9224 0.9222 0.9222 0.9222 0.9222
2557.000000 0.9221 0.9221 0.9221 0.9221 0.9220
2552.000000 0.9220 0.9220 0.9220 0.9219 0.9219
2547.000000 0.9219 0.9219 0.9218 0.9218 0.9217
2542.000000 0.9217 0.9217 0.9217 0.9216 0.9216
2537.000000 0.9216 0.9216 0.9215 0.9215 0.9215
2532.000000 0.9215 0.9214 0.9214 0.9214 0.9214
2527.000000 0.9213 0.9213 0.9213 0.9213 0.9212
2522.000000 0.9211 0.9211 0.9211 0.9210 0.9210
2517.000000 0.9209 0.9209 0.9209 0.9209 0.9208
2512.000000 0.9208 0.9207 0.9207 0.9207 0.9207
2507.000000 0.9206 0.9206 0.9206 0.9206 0.9205
2502.000000 0.9205 0.9204 0.9204 0.9204 0.9204
2497.000000 0.9203 0.9203 0.9203 0.9203 0.9202
2492.000000 0.9202 0.9201 0.9201 0.9201 0.9201
2487.000000 0.9200 0.9200 0.9200 0.9200 0.9199
2482.000000 0.9201 0.9209 0.9215 0.9215 0.9215
2477.000000 0.9215 0.9216 0.9216 0.9216 0.9215
2472.000000 0.9217 0.9217 0.9218 0.9218 0.9218
2467.000000 0.9218 0.9219 0.9219 0.9220 0.9220
2462.000000 0.9220 0.9220 0.9221 0.9221 0.9215
2457.000000 0.9215 0.9215 0.9209 0.9209 0.9217
2452.000000 0.9223 0.9223 0.9213 0.9220 0.9223
2447.000000 0.9223 0.9224 0.9224 0.9224 0.9224
2442.000000 0.9223 0.9223 0.9225 0.9225 0.9224
2437.000000 0.9224 0.9226 0.9226 0.9225 0.9225
2432.000000 0.9225 0.9225 0.9225 0.9225 0.9225
2427.000000 0.9225 0.9226 0.9226 0.9226 0.9226
2422.000000 0.9226 0.9226 0.9226 0.9226 0.9226
2417.000000 0.9226 0.9226 0.9226 0.9226 0.9226
2412.000000 0.9226 0.9226 0.9226 0.9230 0.9235
2407.000000 0.9231 0.9239 0.9239 0.9239 0.9239
2402.000000 0.9239 0.9239 0.9239 0.9239 0.9239
2397.000000 0.9238 0.9238 0.9238 0.9238 0.9237
2392.000000 0.9237 0.9237 0.9237 0.9250 0.9250
2387.000000 0.9249 0.9249 0.9250 0.9260 0.9257
2382.000000 0.9258 0.9264 0.9262 0.9262 0.9265
2377.000000 0.9265 0.9268 0.9263 0.9265 0.9266
2372.000000 0.9261 0.9256 0.9252 0.9237 0.9228
2367.000000 0.9223 0.9217 0.9213 0.9208 0.9204
2362.000000 0.9199 0.9196 0.9205 0.9202 0.9210
2357.000000 0.9208 0.9217 0.9224 0.9220 0.9215
2352.000000 0.9212 0.9203 0.9192 0.9189 0.9193
2347.000000 0.9203 0.9207 0.9205 0.9194 0.9187
2342.000000 0.9184 0.9181 0.9179 0.9165 0.9172
2337.000000 0.9171 0.9157 0.9153 0.9166 0.9163
2332.000000 0.9163 0.9163 0.9173 0.9171 0.9170
2327.000000 0.9171 0.9179 0.9182 0.9189 0.9187
2322.000000 0.9186 0.9185 0.9184 0.9183 0.9182
2317.000000 0.9181 0.9179 0.9178 0.9177 0.9176
2312.000000 0.9175 0.9173 0.9172 0.9171 0.9170
2307.000000 0.9169 0.9168 0.9167 0.9202 0.9164
2302.000000 0.9163 0.9161 0.9159 0.9163 0.9171
2297.000000 0.9169 0.9169 0.9167 0.9164 0.9164
2292.000000 0.9163 0.9163 0.9164 0.9164 0.9157
2287.000000 0.9153 0.9155 0.9155 0.9156 0.9146
2282.000000 0.9146 0.9149 0.9152 0.9153 0.9143
2277.000000 0.9147 0.9149 0.9142 0.9146 0.9151
2272.000000 0.9151 0.9147 0.9152 0.9154 0.9153
2267.000000 0.9159 0.9165 0.9163 0.9164 0.9170
2262.000000 0.9176 0.9173 0.9176 0.9182 0.9178
2257.000000 0.9181 0.9187 0.9194 0.9187 0.9190
2252.000000 0.9196 0.9199 0.9193 0.9197 0.9202
2247.000000 0.9206 0.9212 0.9212 0.9208 0.9212
2242.000000 0.9217 0.9222 0.9227 0.9230 0.9234
2237.000000 0.9236 0.9239 0.9232 0.9231 0.9232
2232.000000 0.9234 0.9234 0.9235 0.9235 0.9235
2227.000000 0.9235 0.9236 0.9236 0.9237 0.9237
2222.000000 0.9236 0.9225 0.9225 0.9225 0.9226
2217.000000 0.9226 0.9227 0.9227 0.9227 0.9227
2212.000000 0.9228 0.9229 0.9230 0.9230 0.9231
2207.000000 0.9232 0.9233 0.9233 0.9234 0.9235
2202.000000 0.9236 0.9236 0.9237 0.9237 0.9238
2197.000000 0.9239 0.9239 0.9229 0.9241 0.9239
2192.000000 0.9229 0.9229 0.9231 0.9231 0.9232
2187.000000 0.9232 0.9232 0.9232 0.9240 0.9238
2182.000000 0.9235 0.9234 0.9234 0.9234 0.9246
2177.000000 0.9249 0.9248 0.9248 0.9250 0.9250
2172.000000 0.9249 0.9249 0.9249 0.9248 0.9239
2167.000000 0.9239 0.9240 0.9240 0.9240 0.9240
2162.000000 0.9239 0.9239 0.9239 0.9239 0.9242
2157.000000 0.9242 0.9243 0.9243 0.9243 0.9243
2152.000000 0.9243 0.9242 0.9242 0.9242 0.9242
2147.000000 0.9242 0.9242 0.9242 0.9242 0.9242
2142.000000 0.9242 0.9242 0.9242 0.9242 0.9242
2137.000000 0.9242 0.9242 0.9242 0.9243 0.9243
2132.000000 0.9243 0.9243 0.9243 0.9243 0.9243
2127.000000 0.9243 0.9243 0.9242 0.9242 0.9241
2122.000000 0.9230 0.9240 0.9241 0.9239 0.9239
2117.000000 0.9239 0.9239 0.9239 0.9239 0.9238
2112.000000 0.9238 0.9236 0.9236 0.9236 0.9236
2107.000000 0.9236 0.9236 0.9235 0.9235 0.9235
2102.000000 0.9235 0.9233 0.9233 0.9233 0.9224
2097.000000 0.9218 0.9229 0.9231 0.9220 0.9230
2092.000000 0.9231 0.9230 0.9230 0.9228 0.9228
2087.000000 0.9228 0.9228 0.9228 0.9228 0.9227
2082.000000 0.9227 0.9226 0.9226 0.9226 0.9226
2077.000000 0.9225 0.9225 0.9224 0.9224 0.9224
2072.000000 0.9224 0.9223 0.9223 0.9222 0.9222
2067.000000 0.9221 0.9221 0.9219 0.9219 0.9218
2062.000000 0.9218 0.9217 0.9217 0.9216 0.9216
2057.000000 0.9218 0.9228 0.9227 0.9227 0.9226
2052.000000 0.9220 0.9218 0.9225 0.9217 0.9211
2047.000000 0.9210 0.9210 0.9209 0.9208 0.9206
2042.000000 0.9205 0.9203 0.9202 0.9201 0.9200
2037.000000 0.9199 0.9198 0.9197 0.9196 0.9194
2032.000000 0.9193 0.9192 0.9191 0.9189 0.9192
2027.000000 0.9194 0.9182 0.9187 0.9191 0.9190
2022.000000 0.9188 0.9186 0.9184 0.9182 0.9181
2017.000000 0.9178 0.9176 0.9173 0.9171 0.9168
2012.000000 0.9165 0.9162 0.9158 0.9155 0.9152
2007.000000 0.9149 0.9146 0.9145 0.9143 0.9138
2002.000000 0.9137 0.9131 0.9126 0.9118 0.9106
1997.000000 0.9093 0.9095 0.9099 0.9105 0.9114
1992.000000 0.9122 0.9132 0.9137 0.9143 0.9145
1987.000000 0.9146 0.9136 0.9135 0.9137 0.9138
1982.000000 0.9139 0.9140 0.9141 0.9139 0.9128
1977.000000 0.9129 0.9129 0.9129 0.9129 0.9129
1972.000000 0.9129 0.9129 0.9129 0.9128 0.9126
1967.000000 0.9125 0.9128 0.9119 0.9107 0.9108
1962.000000 0.9102 0.9090 0.9082 0.9072 0.9064
1957.000000 0.9057 0.9050 0.9043 0.9031 0.9035
1952.000000 0.9038 0.9049 0.9060 0.9065 0.9077
1947.000000 0.9089 0.9100 0.9112 0.9122 0.9129
1942.000000 0.9135 0.9143 0.9150 0.9157 0.9163
1937.000000 0.9168 0.9167 0.9164 0.9163 0.9160
1932.000000 0.9157 0.9154 0.9151 0.9146 0.9142
1927.000000 0.9140 0.9137 0.9135 0.9135 0.9135
1922.000000 0.9134 0.9133 0.9133 0.9132 0.9131
1917.000000 0.9131 0.9130 0.9129 0.9128 0.9127
1912.000000 0.9126 0.9124 0.9121 0.9119 0.9117
1907.000000 0.9124 0.9125 0.9123 0.9119 0.9114
1902.000000 0.9110 0.9103 0.9094 0.9081 0.9065
1897.000000 0.9043 0.9017 0.8989 0.8979 0.8968
1892.000000 0.8974 0.8981 0.8985 0.8997 0.9013
1887.000000 0.9029 0.9041 0.9043 0.9054 0.9059
1882.000000 0.9058 0.9056 0.9054 0.9050 0.9049
1877.000000 0.9046 0.9045 0.9057 0.9056 0.9056
1872.000000 0.9056 0.9055 0.9054 0.9054 0.9053
1867.000000 0.9052 0.9051 0.9050 0.9049 0.9049
1862.000000 0.9048 0.9047 0.9047 0.9047 0.9047
1857.000000 0.9056 0.9053 0.9048 0.9048 0.9048
1852.000000 0.9048 0.9048 0.9048 0.9048 0.9048
1847.000000 0.9049 0.9049 0.9049 0.9049 0.9050
1842.000000 0.9050 0.9050 0.9050 0.9051 0.9051
1837.000000 0.9051 0.9046 0.9039 0.9039 0.9039
1832.000000 0.9040 0.9040 0.9040 0.9040 0.9041
1827.000000 0.9041 0.9041 0.9041 0.9040 0.9040
1822.000000 0.9039 0.9039 0.9039 0.9052 0.9052
1817.000000 0.9052 0.9052 0.9052 0.9052 0.9048
1812.000000 0.9044 0.9038 0.9037 0.9031 0.9032
1807.000000 0.9040 0.9048 0.9057 0.9058 0.9063
1802.000000 0.9073 0.9084 0.9084 0.9084 0.9080
1797.000000 0.9077 0.9074 0.9070 0.9065 0.9061
1792.000000 0.9055 0.9051 0.9046 0.9042 0.9037
1787.000000 0.9035 0.9031 0.9028 0.9025 0.9022
1782.000000 0.9020 0.9018 0.9016 0.9015 0.9018
1777.000000 0.9024 0.9024 0.9024 0.9031 0.9038
1772.000000 0.9048 0.9059 0.9071 0.9082 0.9092
1767.000000 0.9101 0.9108 0.9116 0.9123 0.9131
1762.000000 0.9138 0.9140 0.9140 0.9143 0.9153
1757.000000 0.9154 0.9154 0.9153 0.9152 0.9151
1752.000000 0.9150 0.9149 0.9148 0.9147 0.9145
1747.000000 0.9143 0.9142 0.9140 0.9141 0.9140
1742.000000 0.9137 0.9138 0.9137 0.9135 0.9135
1737.000000 0.9133 0.9126 0.9117 0.9108 0.9100
1732.000000 0.9091 0.9082 0.9072 0.9064 0.9058
1727.000000 0.9052 0.9045 0.9039 0.9034 0.9033
1722.000000 0.9031 0.9032 0.9036 0.9041 0.9045
1717.000000 0.9049 0.9054 0.9058 0.9062 0.9066
1712.000000 0.9070 0.9074 0.9077 0.9082 0.9083
1707.000000 0.9083 0.9084 0.9083 0.9082 0.9082
1702.000000 0.9081 0.9079 0.9078 0.9078 0.9077
1697.000000 0.9076 0.9075 0.9074 0.9073 0.9072
1692.000000 0.9072 0.9070 0.9069 0.9069 0.9068
1687.000000 0.9067 0.9065 0.9065 0.9065 0.9065
1682.000000 0.9066 0.9066 0.9066 0.9067 0.9066
1677.000000 0.9064 0.9063 0.9060 0.9060 0.9063
1672.000000 0.9069 0.9067 0.9067 0.9065 0.9063
1667.000000 0.9062 0.9061 0.9056 0.9051 0.9046
1662.000000 0.9041 0.9036 0.9042 0.9025 0.9018
1657.000000 0.9023 0.9015 0.9007 0.8999 0.8994
1652.000000 0.8981 0.8989 0.8985 0.8982 0.8980
1647.000000 0.8977 0.8979 0.8986 0.8983 0.8976
1642.000000 0.8974 0.8973 0.8965 0.8958 0.8959
1637.000000 0.8955 0.8955 0.8949 0.8940 0.8942
1632.000000 0.8934 0.8933 0.8921 0.8920 0.8909
1627.000000 0.8908 0.8894 0.8877 0.8883 0.8869
1622.000000 0.8873 0.8864 0.8848 0.8838 0.8829
1617.000000 0.8823 0.8822 0.8821 0.8817 0.8810
1612.000000 0.8807 0.8801 0.8776 0.8763 0.8731
1607.000000 0.8691 0.8657 0.8600 0.8592 0.8567
1602.000000 0.8557 0.8512 0.8511 0.8482 0.8464
1597.000000 0.8439 0.8400 0.8344 0.8290 0.8241
1592.000000 0.8209 0.8175 0.8107 0.8067 0.8033
1587.000000 0.7978 0.7923 0.7822 0.7728 0.7456
1582.000000 0.7353 0.7250 0.7230 0.7238 0.7240
1577.000000 0.7313 0.7359 0.7426 0.7485 0.7514
1572.000000 0.7528 0.7556 0.7525 0.7496 0.7350
1567.000000 0.7204 0.7064 0.6917 0.6769 0.6669
1562.000000 0.6621 0.6589 0.6597 0.6595 0.6553
1557.000000 0.6494 0.6480 0.6484 0.6464 0.6283
1552.000000 0.6114 0.6008 0.5816 0.5553 0.5255
1547.000000 0.4490 0.3636 0.2779 0.1940 0.1108
1542.000000 0.0382 0.0392 0.0378 0.0618 0.1028
1537.000000 0.1420 0.1806 0.2191 0.2560 0.2918
1532.000000 0.3270 0.3615 0.3796 0.3771 0.3640
1527.000000 0.3329 0.3025 0.2853 0.2847 0.2805
1522.000000 0.2835 0.2959 0.3326 0.3953 0.4568
1517.000000 0.5182 0.5790 0.6236 0.6463 0.7040
1512.000000 0.7262 0.7430 0.7546 0.7627 0.7701
1507.000000 0.7793 0.7884 0.7984 0.8068 0.8112
1502.000000 0.8148 0.8189 0.8230 0.8270 0.8297
1497.000000 0.8335 0.8356 0.8382 0.8398 0.8427
1492.000000 0.8458 0.8491 0.8522 0.8551 0.8581
1487.000000 0.8604 0.8636 0.8666 0.8672 0.8687
1482.000000 0.8703 0.8711 0.8699 0.8662 0.8609
1477.000000 0.8553 0.8510 0.8471 0.8418 0.8373
1472.000000 0.8306 0.8226 0.8146 0.8046 0.7913
1467.000000 0.7814 0.7812 0.7810 0.7825 0.7867
1462.000000 0.7912 0.7971 0.8051 0.8113 0.8167
1457.000000 0.8252 0.8360 0.8458 0.8547 0.8614
1452.000000 0.8681 0.8730 0.8767 0.8807 0.8840
1447.000000 0.8858 0.8883 0.8906 0.8929 0.8952
1442.000000 0.8974 0.8998 0.9008 0.9024 0.9033
1437.000000 0.9042 0.9050 0.9054 0.9056 0.9052
1432.000000 0.9051 0.9046 0.9028 0.9005 0.8971
1427.000000 0.8956 0.8966 0.8974 0.8973 0.8975
1422.000000 0.8983 0.8993 0.9002 0.9011 0.9019
1417.000000 0.9026 0.9020 0.9024 0.9029 0.9032
1412.000000 0.9046 0.9037 0.9038 0.9039 0.9040
1407.000000 0.9035 0.9030 0.9025 0.9016 0.9004
1402.000000 0.8991 0.8979 0.8965 0.8949 0.8943
1397.000000 0.8938 0.8929 0.8925 0.8925 0.8938
1392.000000 0.8951 0.8964 0.8986 0.9013 0.9027
1387.000000 0.9064 0.9096 0.9126 0.9127 0.9099
1382.000000 0.9066 0.9035 0.9011 0.8985 0.8969
1377.000000 0.8955 0.8934 0.8905 0.8887 0.8869
1372.000000 0.8849 0.8830 0.8809 0.8771 0.8732
1367.000000 0.8650 0.8389 0.8028 0.7872 0.7654
1362.000000 0.7531 0.7385 0.7156 0.6985 0.6843
1357.000000 0.6677 0.6404 0.5992 0.5715 0.5039
1352.000000 0.3414 0.1787 0.0778 0.0773 0.0776
1347.000000 0.1224 0.1803 0.2382 0.2961 0.3538
1342.000000 0.4111 0.4687 0.5261 0.5711 0.5903
1337.000000 0.6740 0.7542 0.8000 0.8183 0.8295
1332.000000 0.8373 0.8443 0.8499 0.8544 0.8604
1327.000000 0.8663 0.8721 0.8773 0.8834 0.8882
1322.000000 0.8900 0.8922 0.8934 0.8942 0.8949
1317.000000 0.8970 0.8976 0.8976 0.8976 0.8974
1312.000000 0.8968 0.8937 0.8901 0.8859 0.8816
1307.000000 0.8776 0.8736 0.8692 0.8637 0.8592
1302.000000 0.8531 0.8531 0.8528 0.8529 0.8541
1297.000000 0.8615 0.8688 0.8766 0.8823 0.8859
1292.000000 0.8892 0.8918 0.8929 0.8948 0.8967
1287.000000 0.8985 0.9003 0.9020 0.9038 0.9058
1282.000000 0.9078 0.9098 0.9116 0.9124 0.9133
1277.000000 0.9138 0.9156 0.9156 0.9156 0.9153
1272.000000 0.9133 0.9108 0.9078 0.9005 0.8787
1267.000000 0.8492 0.8499 0.8498 0.8540 0.8726
1262.000000 0.8904 0.9081 0.9136 0.9168 0.9187
1257.000000 0.9205 0.9222 0.9240 0.9257 0.9261
1252.000000 0.9276 0.9292 0.9305 0.9313 0.9321
1247.000000 0.9332 0.9340 0.9346 0.9337 0.9339
1242.000000 0.9339 0.9339 0.9337 0.9339 0.9346
1237.000000 0.9343 0.9341 0.9338 0.9335 0.9340
1232.000000 0.9342 0.9339 0.9336 0.9333 0.9329
1227.000000 0.9325 0.9320 0.9316 0.9310 0.9305
1222.000000 0.9300 0.9296 0.9292 0.9290 0.9289
1217.000000 0.9287 0.9284 0.9284 0.9289 0.9297
1212.000000 0.9310 0.9314 0.9318 0.9322 0.9325
1207.000000 0.9329 0.9333 0.9336 0.9340 0.9344
1202.000000 0.9346 0.9348 0.9349 0.9349 0.9337
1197.000000 0.9337 0.9337 0.9337 0.9337 0.9348
1192.000000 0.9348 0.9348 0.9348 0.9348 0.9347
1187.000000 0.9347 0.9344 0.9340 0.9337 0.9328
1182.000000 0.9311 0.9299 0.9297 0.9296 0.9290
1177.000000 0.9274 0.9251 0.9226 0.9199 0.9174
1172.000000 0.9149 0.9126 0.9107 0.9087 0.9067
1167.000000 0.9069 0.9057 0.9046 0.9038 0.9031
1162.000000 0.9022 0.9020 0.9025 0.9030 0.9052
1157.000000 0.9074 0.9087 0.9089 0.9089 0.9086
1152.000000 0.9078 0.9059 0.9062 0.9067 0.9059
1147.000000 0.9057 0.9060 0.9063 0.9067 0.9055
1142.000000 0.9065 0.9060 0.9050 0.9040 0.9014
1137.000000 0.8981 0.8925 0.8873 0.8799 0.8721
1132.000000 0.8662 0.8597 0.8076 0.6359 0.6349
1127.000000 0.6349 0.6513 0.6811 0.7108 0.7407
1122.000000 0.7713 0.8015 0.8312 0.8610 0.8694
1117.000000 0.8777 0.8883 0.8981 0.9063 0.9130
1112.000000 0.9191 0.9222 0.9236 0.9251 0.9255
1107.000000 0.9269 0.9260 0.9261 0.9257 0.9253
1102.000000 0.9248 0.9234 0.9220 0.9191 0.9152
1097.000000 0.9110 0.9057 0.9008 0.8991 0.8976
1092.000000 0.8975 0.9022 0.9080 0.9123 0.9156
1087.000000 0.9180 0.9194 0.9200 0.9196 0.9187
1082.000000 0.9177 0.9159 0.9151 0.9137 0.9116
1077.000000 0.9100 0.9080 0.9066 0.9053 0.9046
1072.000000 0.9039 0.9026 0.9013 0.8999 0.8912
1067.000000 0.8493 0.7935 0.7935 0.7936 0.7988
1062.000000 0.8089 0.8196 0.8292 0.8408 0.8621
1057.000000 0.8816 0.9000 0.9060 0.9102 0.9127
1052.000000 0.9143 0.9162 0.9186 0.9202 0.9217
1047.000000 0.9225 0.9232 0.9239 0.9247 0.9254
1042.000000 0.9261 0.9267 0.9274 0.9279 0.9285
1037.000000 0.9291 0.9298 0.9303 0.9308 0.9310
1032.000000 0.9313 0.9315 0.9304 0.9307 0.9309
1027.000000 0.9310 0.9307 0.9295 0.9295 0.9294
1022.000000 0.9293 0.9289 0.9284 0.9280 0.9275
1017.000000 0.9272 0.9265 0.9259 0.9253 0.9245
1012.000000 0.9238 0.9227 0.9216 0.9201 0.9174
1007.000000 0.9156 0.9146 0.9138 0.9119 0.9115
1002.000000 0.9112 0.9112 0.9139 0.9168 0.9187
997.000000 0.9200 0.9218 0.9229 0.9241 0.9247
992.000000 0.9257 0.9270 0.9269 0.9269 0.9264
987.000000 0.9260 0.9254 0.9246 0.9242 0.9236
982.000000 0.9229 0.9226 0.9223 0.9223 0.9223
977.000000 0.9226 0.9229 0.9233 0.9239 0.9242
972.000000 0.9240 0.9256 0.9262 0.9268 0.9273
967.000000 0.9276 0.9278 0.9280 0.9284 0.9286
962.000000 0.9288 0.9291 0.9293 0.9295 0.9296
957.000000 0.9297 0.9299 0.9300 0.9300 0.9302
952.000000 0.9303 0.9304 0.9304 0.9304 0.9303
947.000000 0.9302 0.9301 0.9299 0.9299 0.9296
942.000000 0.9293 0.9289 0.9286 0.9283 0.9280
937.000000 0.9277 0.9274 0.9270 0.9265 0.9261
932.000000 0.9257 0.9250 0.9242 0.9232 0.9222
927.000000 0.9210 0.9194 0.9179 0.9163 0.9141
922.000000 0.9118 0.9076 0.9010 0.8873 0.8816
917.000000 0.8808 0.8818 0.8825 0.8929 0.9021
912.000000 0.9085 0.9109 0.9125 0.9142 0.9161
907.000000 0.9161 0.9156 0.9150 0.9138 0.9124
902.000000 0.9098 0.9056 0.9023 0.8997 0.8980
897.000000 0.8965 0.8947 0.8908 0.8873 0.8801
892.000000 0.8729 0.8649 0.8492 0.6469 0.6496
887.000000 0.6660 0.7045 0.7433 0.7831 0.8373
882.000000 0.8382 0.8398 0.8164 0.7488 0.6561
877.000000 0.6589 0.6614 0.6658 0.7102 0.7550
872.000000 0.7999 0.8451 0.8650 0.8661 0.8686
867.000000 0.8724 0.8735 0.8728 0.8735 0.8738
862.000000 0.8724 0.8714 0.8708 0.8701 0.8686
857.000000 0.8669 0.8667 0.8672 0.8669 0.8663
852.000000 0.8689 0.8730 0.8773 0.8812 0.8859
847.000000 0.8899 0.8934 0.8965 0.8987 0.9010
842.000000 0.9030 0.9046 0.9059 0.9082 0.9097
837.000000 0.9124 0.9139 0.9163 0.9174 0.9180
832.000000 0.9195 0.9205 0.9215 0.9225 0.9222
827.000000 0.9227 0.9229 0.9231 0.9232 0.9232
822.000000 0.9233 0.9223 0.9220 0.9218 0.9216
817.000000 0.9209 0.9214 0.9207 0.9194 0.9181
812.000000 0.9176 0.9164 0.9143 0.9131 0.9098
807.000000 0.9056 0.9025 0.8991 0.8943 0.8868
802.000000 0.8797 0.8721 0.8647 0.8576 0.8507
797.000000 0.8435 0.6304 0.6298 0.6992 0.8224
792.000000 0.8616 0.8719 0.8802 0.8882 0.8962
787.000000 0.9023 0.9072 0.9113 0.9132 0.9139
782.000000 0.9147 0.9151 0.9146 0.9151 0.9152
777.000000 0.9162 0.9150 0.9153 0.9155 0.9152
772.000000 0.9147 0.9149 0.9151 0.9138 0.9125
767.000000 0.9116 0.9101 0.9069 0.9046 0.9019
762.000000 0.8985 0.8953 0.8896 0.8838 0.8734
757.000000 0.8587 0.8379 0.8164 0.7985 0.7870
752.000000 0.6225 0.3935 0.3910 0.3903 0.4469
747.000000 0.5103 0.5737 0.6370 0.7004 0.7637
742.000000 0.8271 0.8326 0.8345 0.8341 0.8274
737.000000 0.8092 0.7911 0.7730 0.7548 0.6342
732.000000 0.3783 0.3240 0.3204 0.3775 0.5017
727.000000 0.6258 0.7503 0.8463 0.8667 0.8745
722.000000 0.8816 0.8886 0.8924 0.8953 0.8973
717.000000 0.8995 0.9011 0.9024 0.9051 0.9065
712.000000 0.9074 0.9083 0.9094 0.9102 0.9110
707.000000 0.9118 0.9126 0.9132 0.9139 0.9158
702.000000 0.9163 0.9172 0.9185 0.9190 0.9193
697.000000 0.9197 0.9199 0.9206 0.9215 0.9216
692.000000 0.9217 0.9217 0.9217 0.9217 0.9224
687.000000 0.9226 0.9214 0.9194 0.9174 0.9156
682.000000 0.9127 0.9095 0.9076 0.9045 0.9042
677.000000 0.9026 0.9024 0.9007 0.8970 0.8935
672.000000 0.8891 0.8858 0.8755 0.8448 0.8110
667.000000 0.7645 0.7198 0.6890 0.6912 0.6896
662.000000 0.6902 0.7168 0.7552 0.7936 0.8313
657.000000 0.8458 0.8522 0.8580 0.8640 0.8700
652.000000 0.8745 0.8795 0.8833 0.8870 0.8898
647.000000 0.8920 0.8934 0.8958 0.8978 0.8989
642.000000 0.9007 0.9021 0.9033 0.9049 0.9060
637.000000 0.9069 0.9093 0.9114 0.9114 0.9125
632.000000 0.9137 0.9139 0.9151 0.9168 0.9172
627.000000 0.9186 0.9185 0.9194 0.9204 0.9199
622.000000 0.9208 0.9212 0.9217 0.9224 0.9239
617.000000 0.9238 0.9233 0.9237 0.9236 0.9231
612.000000 0.9234 0.9236 0.9238 0.9241 0.9243
607.000000 0.9237 0.9235 0.9238 0.9240 0.9242
602.000000 0.9245 0.9247 0.9249 0.9250 0.9253
597.000000 0.9255 0.9257 0.9258 0.9260 0.9261
592.000000 0.9263 0.9265 0.9266 0.9268 0.9269
587.000000 0.9264 0.9262 0.9264 0.9257 0.9258
582.000000 0.9258 0.9257 0.9258 0.9258 0.9258
577.000000 0.9249 0.9246 0.9245 0.9256 0.9257
572.000000 0.9255 0.9255 0.9254 0.9251 0.9249
567.000000 0.9233 0.9228 0.9234 0.9224 0.9207
562.000000 0.9201 0.9194 0.9188 0.9182 0.9174
557.000000 0.9165 0.9157 0.9141 0.9127 0.9117
552.000000 0.9100 0.9096 0.9089 0.9077 0.9064
547.000000 0.9051 0.9039 0.9028 0.9017 0.9007
542.000000 0.8996 0.8993 0.8992 0.8992 0.9002
537.000000 0.9004 0.9012 0.9006 0.8998 0.9003
532.000000 0.9000 0.8997 0.8993 0.8991 0.8988
527.000000 0.8984 0.8987 0.8985 0.8979 0.8973
522.000000 0.8968 0.8961 0.8955 0.8950 0.8940
517.000000 0.8931 0.8923 0.8906 0.8887 0.8868
512.000000 0.8850 0.8831 0.8812 0.8793 0.8775
507.000000 0.8756 0.8733 0.8711 0.8688 0.8664
502.000000 0.8642 0.8619 0.8598 0.8578 0.8559
497.000000 0.8541 0.8524 0.8505 0.8488 0.8469
492.000000 0.8453 0.8440 0.8428 0.8414 0.8403
487.000000 0.8391 0.8380 0.8368 0.8356 0.8344
482.000000 0.8334 0.8323 0.8310 0.8297 0.8284
477.000000 0.8266 0.8247 0.8226 0.8204 0.8184
472.000000 0.8163 0.8142 0.8121 0.8094 0.8068
467.000000 0.8039 0.8003 0.7965 0.7928 0.7889
462.000000 0.7853 0.7815 0.7779 0.7742 0.7705
457.000000 0.7667 0.7619 0.7572 0.7526 0.7477
452.000000 0.7431 0.7388 0.7347 0.7304 0.7262
447.000000 0.7222 0.7179 0.7136 0.7090 0.7046
442.000000 0.6999 0.6953 0.6893 0.6800 0.6706
437.000000 0.6612 0.6489 0.6331 0.6174 0.5950
432.000000 0.5767 0.5661 0.5557 0.5456 0.5356
427.000000 0.5253 0.5150 0.5047 0.4944 0.4540
422.000000 0.4379 0.4233 0.4068 0.3883 0.3552
417.000000 0.3315 0.3207 0.3088 0.2973 0.2897
412.000000 0.2851 0.2838 0.2831 0.2824 0.2821
407.000000 0.2821 0.2830 0.2895 0.2952 0.3007
402.000000 0.3059 0.3098
##END=
