##TITLE=p-Methylacetophenone
##JCAMP-DX=4.24
$$ By DXEDIT 1.05 (RS McDonald)
##DATA TYPE=INFRARED SPECTRUM
##CLASS=COBLENTZ III
##ORIGIN=DOW CHEMICAL COMPANY
##OWNER=COPYRIGHT (C) 1988 by COBLENTZ SOCIETY INC.
Collection (C) 2018 copyright by the U.S. Secretary of Commerce
on behalf of the United States of America. All rights reserved.
##DATE=1963/06/26
##NAMES=1-(4-methylphenyl)ethanone
##CAS REGISTRY NO=122-00-9
##MOLFORM=C9 H10 O
##SOURCE REFERENCE=COBLENTZ NO. 6772
##$NIST SOURCE=COBLENTZ
##$NIST IMAGE=cob6772
##SPECTROMETER/DATA SYSTEM=BECKMAN IR-9 (GRATING)
##INSTRUMENT PARAMETERS=ORDER CHANGES: 670, 1200, 2000 CM^-^1
##STATE=SOLUTION (10% CCl4 FOR 3800-1350, 10% CS2 FOR 1350-400 CM^-^1))
##PATH LENGTH=0.010 CM, 0.010 CM
$$SPECTRAL CONTAMINATION DUE TO CS2 AROUND 850, AND CCl4 AROUND 1550 CM^-^1 HAVE BEEN SUBTRACTED
$$ SPECTRAL FEATURE AT 1997 CM^-^1 IS AN ARTIFACT CAUSED BY GRATING CHANGE
$$ SEE SPECTRUM NO. 6406 FOR "PRISM" SPECTRM
##SAMPLING PROCEDURE=TRANSMISSION
##RESOLUTION=2
##DATA PROCESSING=DIGITIZED BY COBLENTZ SOCIETY (BATCH I) FROM HARD COPY
##XUNITS=1/CM
##YUNITS=TRANSMITTANCE
##XFACTOR=1
##YFACTOR=1
##DELTAX=1
##FIRSTX=3800
##LASTX=401
##FIRSTY=0.9731
##MAXX=3800
##MINX=401
##MAXY=1.0331
##MINY=-0.0072
##NPOINTS=3400
##XYDATA=(X++(Y..Y))
3800.000000 0.9731 0.9731 0.9731 0.9731 0.9735
3795.000000 0.9732 0.9736 0.9736 0.9738 0.9738
3790.000000 0.9738 0.9738 0.9739 0.9739 0.9739
3785.000000 0.9739 0.9736 0.9734 0.9734 0.9738
3780.000000 0.9741 0.9738 0.9742 0.9744 0.9745
3775.000000 0.9741 0.9747 0.9747 0.9748 0.9748
3770.000000 0.9748 0.9747 0.9747 0.9747 0.9747
3765.000000 0.9747 0.9747 0.9746 0.9746 0.9745
3760.000000 0.9748 0.9747 0.9743 0.9742 0.9742
3755.000000 0.9741 0.9739 0.9739 0.9739 0.9738
3750.000000 0.9736 0.9736 0.9736 0.9735 0.9735
3745.000000 0.9734 0.9732 0.9732 0.9732 0.9731
3740.000000 0.9729 0.9729 0.9732 0.9730 0.9729
3735.000000 0.9727 0.9723 0.9718 0.9719 0.9719
3730.000000 0.9717 0.9714 0.9711 0.9708 0.9705
3725.000000 0.9702 0.9699 0.9694 0.9691 0.9687
3720.000000 0.9683 0.9672 0.9668 0.9668 0.9663
3715.000000 0.9655 0.9647 0.9639 0.9632 0.9626
3710.000000 0.9616 0.9610 0.9601 0.9590 0.9581
3705.000000 0.9571 0.9562 0.9552 0.9542 0.9526
3700.000000 0.9512 0.9501 0.9489 0.9480 0.9466
3695.000000 0.9458 0.9451 0.9446 0.9442 0.9440
3690.000000 0.9440 0.9440 0.9439 0.9441 0.9441
3685.000000 0.9445 0.9449 0.9452 0.9456 0.9461
3680.000000 0.9467 0.9473 0.9480 0.9485 0.9493
3675.000000 0.9499 0.9506 0.9512 0.9519 0.9525
3670.000000 0.9537 0.9540 0.9547 0.9554 0.9561
3665.000000 0.9567 0.9573 0.9579 0.9585 0.9590
3660.000000 0.9596 0.9600 0.9606 0.9609 0.9612
3655.000000 0.9614 0.9617 0.9619 0.9622 0.9623
3650.000000 0.9625 0.9625 0.9626 0.9626 0.9627
3645.000000 0.9627 0.9627 0.9626 0.9626 0.9625
3640.000000 0.9624 0.9623 0.9623 0.9622 0.9656
3635.000000 0.9619 0.9618 0.9617 0.9620 0.9618
3630.000000 0.9615 0.9610 0.9612 0.9615 0.9615
3625.000000 0.9615 0.9615 0.9615 0.9615 0.9615
3620.000000 0.9615 0.9615 0.9615 0.9615 0.9616
3615.000000 0.9616 0.9617 0.9617 0.9617 0.9617
3610.000000 0.9617 0.9617 0.9611 0.9615 0.9615
3605.000000 0.9614 0.9613 0.9610 0.9608 0.9611
3600.000000 0.9608 0.9602 0.9604 0.9604 0.9601
3595.000000 0.9598 0.9595 0.9591 0.9588 0.9586
3590.000000 0.9583 0.9580 0.9577 0.9574 0.9571
3585.000000 0.9568 0.9566 0.9563 0.9561 0.9558
3580.000000 0.9555 0.9552 0.9550 0.9547 0.9543
3575.000000 0.9537 0.9537 0.9536 0.9531 0.9527
3570.000000 0.9525 0.9523 0.9521 0.9519 0.9517
3565.000000 0.9515 0.9513 0.9511 0.9509 0.9507
3560.000000 0.9504 0.9502 0.9501 0.9500 0.9500
3555.000000 0.9503 0.9497 0.9496 0.9500 0.9499
3550.000000 0.9496 0.9493 0.9496 0.9494 0.9493
3545.000000 0.9489 0.9487 0.9490 0.9489 0.9487
3540.000000 0.9483 0.9483 0.9479 0.9481 0.9481
3535.000000 0.9479 0.9479 0.9478 0.9477 0.9475
3530.000000 0.9474 0.9468 0.9467 0.9466 0.9465
3525.000000 0.9464 0.9464 0.9463 0.9462 0.9461
3520.000000 0.9460 0.9459 0.9458 0.9457 0.9456
3515.000000 0.9454 0.9453 0.9452 0.9451 0.9450
3510.000000 0.9450 0.9449 0.9449 0.9448 0.9448
3505.000000 0.9447 0.9447 0.9446 0.9446 0.9445
3500.000000 0.9445 0.9444 0.9444 0.9443 0.9443
3495.000000 0.9442 0.9441 0.9440 0.9440 0.9439
3490.000000 0.9439 0.9438 0.9438 0.9437 0.9437
3485.000000 0.9437 0.9437 0.9437 0.9437 0.9437
3480.000000 0.9437 0.9437 0.9437 0.9437 0.9437
3475.000000 0.9437 0.9437 0.9437 0.9437 0.9437
3470.000000 0.9437 0.9437 0.9437 0.9437 0.9437
3465.000000 0.9437 0.9437 0.9437 0.9437 0.9437
3460.000000 0.9438 0.9438 0.9438 0.9438 0.9438
3455.000000 0.9438 0.9439 0.9439 0.9439 0.9439
3450.000000 0.9439 0.9439 0.9439 0.9439 0.9439
3445.000000 0.9439 0.9439 0.9439 0.9439 0.9439
3440.000000 0.9439 0.9439 0.9439 0.9439 0.9439
3435.000000 0.9439 0.9439 0.9439 0.9439 0.9438
3430.000000 0.9438 0.9437 0.9437 0.9437 0.9437
3425.000000 0.9431 0.9435 0.9435 0.9435 0.9435
3420.000000 0.9435 0.9433 0.9433 0.9433 0.9433
3415.000000 0.9433 0.9433 0.9432 0.9432 0.9430
3410.000000 0.9430 0.9430 0.9430 0.9432 0.9432
3405.000000 0.9429 0.9429 0.9429 0.9429 0.9427
3400.000000 0.9427 0.9425 0.9425 0.9425 0.9425
3395.000000 0.9424 0.9424 0.9422 0.9422 0.9421
3390.000000 0.9421 0.9420 0.9420 0.9419 0.9419
3385.000000 0.9417 0.9415 0.9410 0.9406 0.9402
3380.000000 0.9398 0.9390 0.9382 0.9372 0.9362
3375.000000 0.9346 0.9330 0.9305 0.9280 0.9240
3370.000000 0.9205 0.9160 0.9118 0.9082 0.9045
3365.000000 0.9001 0.8957 0.8921 0.8884 0.8850
3360.000000 0.8816 0.8776 0.8737 0.8706 0.8676
3355.000000 0.8647 0.8537 0.8596 0.8571 0.8562
3350.000000 0.8556 0.8575 0.8595 0.8645 0.8697
3345.000000 0.8754 0.8808 0.8845 0.8892 0.8922
3340.000000 0.8958 0.8992 0.9031 0.9062 0.9093
3335.000000 0.9117 0.9150 0.9175 0.9203 0.9228
3330.000000 0.9254 0.9273 0.9294 0.9314 0.9335
3325.000000 0.9348 0.9362 0.9373 0.9384 0.9395
3320.000000 0.9406 0.9415 0.9425 0.9428 0.9432
3315.000000 0.9435 0.9439 0.9443 0.9453 0.9456
3310.000000 0.9460 0.9463 0.9466 0.9465 0.9472
3305.000000 0.9473 0.9473 0.9471 0.9473 0.9473
3300.000000 0.9476 0.9478 0.9480 0.9480 0.9483
3295.000000 0.9483 0.9486 0.9487 0.9488 0.9489
3290.000000 0.9490 0.9491 0.9493 0.9494 0.9495
3285.000000 0.9496 0.9498 0.9504 0.9505 0.9501
3280.000000 0.9504 0.9510 0.9509 0.9506 0.9509
3275.000000 0.9514 0.9516 0.9517 0.9519 0.9520
3270.000000 0.9522 0.9523 0.9524 0.9525 0.9527
3265.000000 0.9528 0.9529 0.9531 0.9532 0.9534
3260.000000 0.9535 0.9536 0.9538 0.9539 0.9536
3255.000000 0.9542 0.9544 0.9545 0.9547 0.9547
3250.000000 0.9548 0.9548 0.9549 0.9550 0.9551
3245.000000 0.9548 0.9549 0.9553 0.9554 0.9554
3240.000000 0.9554 0.9554 0.9554 0.9554 0.9554
3235.000000 0.9554 0.9554 0.9553 0.9574 0.9550
3230.000000 0.9549 0.9547 0.9546 0.9542 0.9533
3225.000000 0.9531 0.9532 0.9529 0.9527 0.9522
3220.000000 0.9519 0.9516 0.9514 0.9513 0.9512
3215.000000 0.9511 0.9510 0.9509 0.9509 0.9508
3210.000000 0.9507 0.9506 0.9500 0.9500 0.9500
3205.000000 0.9499 0.9499 0.9498 0.9498 0.9497
3200.000000 0.9497 0.9500 0.9497 0.9499 0.9496
3195.000000 0.9499 0.9499 0.9499 0.9499 0.9498
3190.000000 0.9495 0.9494 0.9497 0.9496 0.9492
3185.000000 0.9490 0.9490 0.9490 0.9490 0.9490
3180.000000 0.9490 0.9490 0.9490 0.9489 0.9489
3175.000000 0.9488 0.9488 0.9487 0.9487 0.9486
3170.000000 0.9486 0.9485 0.9485 0.9484 0.9482
3165.000000 0.9482 0.9484 0.9485 0.9480 0.9477
3160.000000 0.9477 0.9474 0.9469 0.9467 0.9461
3155.000000 0.9456 0.9456 0.9452 0.9447 0.9440
3150.000000 0.9433 0.9425 0.9413 0.9405 0.9398
3145.000000 0.9391 0.9384 0.9375 0.9368 0.9361
3140.000000 0.9356 0.9345 0.9335 0.9321 0.9308
3135.000000 0.9293 0.9279 0.9264 0.9249 0.9232
3130.000000 0.9216 0.9188 0.9159 0.9131 0.9103
3125.000000 0.9078 0.9056 0.9037 0.9019 0.9007
3120.000000 0.8995 0.8992 0.8990 0.8990 0.8990
3115.000000 0.8989 0.8989 0.8989 0.8989 0.8989
3110.000000 0.8989 0.8984 0.8981 0.8979 0.8976
3105.000000 0.8971 0.8966 0.8954 0.8942 0.8894
3100.000000 0.8851 0.8699 0.8546 0.8397 0.8250
3095.000000 0.8127 0.8001 0.7984 0.7969 0.7962
3090.000000 0.7960 0.7955 0.7954 0.7970 0.7986
3085.000000 0.8018 0.8052 0.8105 0.8158 0.8183
3080.000000 0.8208 0.8222 0.8241 0.8256 0.8267
3075.000000 0.8265 0.8268 0.8260 0.8247 0.8187
3070.000000 0.8129 0.7915 0.7710 0.7627 0.7549
3065.000000 0.7471 0.7392 0.7361 0.7333 0.7309
3060.000000 0.7288 0.7286 0.7282 0.7274 0.7267
3055.000000 0.7269 0.7269 0.7268 0.7269 0.7275
3050.000000 0.7282 0.7217 0.7152 0.6938 0.6731
3045.000000 0.6611 0.6494 0.6462 0.6432 0.6404
3040.000000 0.6376 0.6306 0.6237 0.6187 0.6135
3035.000000 0.6125 0.6121 0.6125 0.6132 0.6231
3030.000000 0.6329 0.6425 0.6524 0.6621 0.6718
3025.000000 0.6816 0.7085 0.6977 0.7037 0.7040
3020.000000 0.7041 0.6989 0.6934 0.6845 0.6754
3015.000000 0.6667 0.6579 0.6491 0.6403 0.6304
3010.000000 0.6207 0.6189 0.6172 0.6167 0.6165
3005.000000 0.6175 0.6183 0.6209 0.6233 0.6311
3000.000000 0.6391 0.6466 0.6539 0.6612 0.6684
2995.000000 0.6765 0.6847 0.6913 0.6977 0.6999
2990.000000 0.7024 0.7035 0.7046 0.7047 0.7050
2985.000000 0.7051 0.7053 0.7044 0.7036 0.7027
2980.000000 0.7018 0.6994 0.6968 0.6935 0.6906
2975.000000 0.6888 0.6871 0.6862 0.6852 0.6858
2970.000000 0.6864 0.6886 0.6907 0.6933 0.6957
2965.000000 0.6986 0.7012 0.7047 0.7081 0.7106
2960.000000 0.7135 0.7161 0.7185 0.7204 0.7226
2955.000000 0.7248 0.7270 0.7294 0.7314 0.7330
2950.000000 0.7348 0.7358 0.7368 0.7371 0.7377
2945.000000 0.7378 0.7381 0.7380 0.7397 0.7366
2940.000000 0.7361 0.7273 0.7185 0.7093 0.7004
2935.000000 0.6910 0.6820 0.6729 0.6640 0.6549
2930.000000 0.6460 0.6369 0.6279 0.6189 0.6017
2925.000000 0.6062 0.6027 0.6030 0.6035 0.6183
2920.000000 0.6335 0.6484 0.6636 0.6786 0.6938
2915.000000 0.7088 0.7240 0.7390 0.7542 0.7693
2910.000000 0.7844 0.7895 0.7951 0.7991 0.8027
2905.000000 0.8064 0.8103 0.8151 0.8199 0.8227
2900.000000 0.8255 0.8275 0.8294 0.8305 0.8337
2895.000000 0.8321 0.8328 0.8333 0.8339 0.8337
2890.000000 0.8336 0.8329 0.8321 0.8309 0.8298
2885.000000 0.8284 0.8271 0.8245 0.8220 0.8192
2880.000000 0.8166 0.8135 0.8106 0.8033 0.7969
2875.000000 0.7951 0.7933 0.7926 0.7918 0.7921
2870.000000 0.7911 0.7944 0.7966 0.8008 0.8051
2865.000000 0.8106 0.8162 0.8231 0.8300 0.8373
2860.000000 0.8447 0.8514 0.8580 0.8623 0.8668
2855.000000 0.8707 0.8741 0.8780 0.8820 0.8862
2850.000000 0.8906 0.8948 0.8989 0.9025 0.9065
2845.000000 0.9100 0.9134 0.9164 0.9200 0.9219
2840.000000 0.9235 0.9252 0.9273 0.9292 0.9307
2835.000000 0.9323 0.9341 0.9360 0.9379 0.9398
2830.000000 0.9418 0.9439 0.9453 0.9467 0.9479
2825.000000 0.9484 0.9494 0.9509 0.9514 0.9528
2820.000000 0.9536 0.9542 0.9545 0.9551 0.9557
2815.000000 0.9557 0.9558 0.9558 0.9559 0.9559
2810.000000 0.9559 0.9559 0.9561 0.9561 0.9560
2805.000000 0.9558 0.9557 0.9555 0.9553 0.9550
2800.000000 0.9549 0.9545 0.9541 0.9537 0.9533
2795.000000 0.9529 0.9525 0.9522 0.9518 0.9511
2790.000000 0.9512 0.9505 0.9503 0.9500 0.9497
2785.000000 0.9496 0.9498 0.9495 0.9494 0.9497
2780.000000 0.9502 0.9502 0.9504 0.9508 0.9512
2775.000000 0.9518 0.9524 0.9531 0.9538 0.9543
2770.000000 0.9550 0.9557 0.9565 0.9573 0.9582
2765.000000 0.9591 0.9600 0.9606 0.9612 0.9616
2760.000000 0.9621 0.9619 0.9617 0.9614 0.9612
2755.000000 0.9608 0.9604 0.9596 0.9587 0.9578
2750.000000 0.9570 0.9561 0.9553 0.9543 0.9532
2745.000000 0.9522 0.9512 0.9502 0.9492 0.9487
2740.000000 0.9482 0.9475 0.9470 0.9466 0.9462
2735.000000 0.9459 0.9459 0.9460 0.9464 0.9469
2730.000000 0.9475 0.9487 0.9498 0.9510 0.9522
2725.000000 0.9538 0.9555 0.9570 0.9585 0.9590
2720.000000 0.9596 0.9600 0.9608 0.9613 0.9618
2715.000000 0.9623 0.9629 0.9632 0.9636 0.9637
2710.000000 0.9638 0.9639 0.9640 0.9641 0.9642
2705.000000 0.9643 0.9644 0.9644 0.9644 0.9646
2700.000000 0.9647 0.9647 0.9649 0.9649 0.9650
2695.000000 0.9650 0.9651 0.9651 0.9651 0.9653
2690.000000 0.9654 0.9654 0.9672 0.9656 0.9657
2685.000000 0.9658 0.9660 0.9661 0.9662 0.9663
2680.000000 0.9664 0.9665 0.9666 0.9667 0.9668
2675.000000 0.9669 0.9670 0.9671 0.9672 0.9673
2670.000000 0.9674 0.9675 0.9676 0.9678 0.9679
2665.000000 0.9680 0.9681 0.9682 0.9683 0.9683
2660.000000 0.9683 0.9683 0.9683 0.9688 0.9688
2655.000000 0.9688 0.9688 0.9688 0.9688 0.9685
2650.000000 0.9680 0.9675 0.9673 0.9671 0.9667
2645.000000 0.9658 0.9651 0.9646 0.9645 0.9636
2640.000000 0.9630 0.9623 0.9618 0.9611 0.9605
2635.000000 0.9598 0.9597 0.9591 0.9585 0.9573
2630.000000 0.9566 0.9564 0.9557 0.9554 0.9551
2625.000000 0.9551 0.9550 0.9547 0.9547 0.9547
2620.000000 0.9547 0.9551 0.9555 0.9555 0.9555
2615.000000 0.9555 0.9555 0.9553 0.9550 0.9546
2610.000000 0.9543 0.9540 0.9537 0.9533 0.9530
2605.000000 0.9527 0.9524 0.9520 0.9516 0.9510
2600.000000 0.9504 0.9500 0.9494 0.9490 0.9486
2595.000000 0.9482 0.9478 0.9474 0.9470 0.9466
2590.000000 0.9462 0.9458 0.9453 0.9453 0.9453
2585.000000 0.9455 0.9458 0.9464 0.9471 0.9478
2580.000000 0.9485 0.9491 0.9498 0.9503 0.9512
2575.000000 0.9518 0.9525 0.9531 0.9538 0.9544
2570.000000 0.9550 0.9554 0.9561 0.9567 0.9572
2565.000000 0.9577 0.9582 0.9587 0.9592 0.9597
2560.000000 0.9603 0.9607 0.9611 0.9614 0.9618
2555.000000 0.9622 0.9627 0.9630 0.9634 0.9637
2550.000000 0.9641 0.9645 0.9649 0.9651 0.9652
2545.000000 0.9654 0.9655 0.9656 0.9656 0.9656
2540.000000 0.9656 0.9656 0.9652 0.9646 0.9640
2535.000000 0.9633 0.9626 0.9619 0.9612 0.9605
2530.000000 0.9598 0.9592 0.9586 0.9586 0.9585
2525.000000 0.9586 0.9589 0.9592 0.9595 0.9598
2520.000000 0.9601 0.9605 0.9610 0.9614 0.9618
2515.000000 0.9622 0.9626 0.9630 0.9635 0.9640
2510.000000 0.9644 0.9648 0.9652 0.9654 0.9656
2505.000000 0.9658 0.9661 0.9663 0.9666 0.9668
2500.000000 0.9671 0.9673 0.9676 0.9678 0.9681
2495.000000 0.9683 0.9686 0.9687 0.9688 0.9689
2490.000000 0.9690 0.9691 0.9692 0.9693 0.9694
2485.000000 0.9695 0.9696 0.9697 0.9698 0.9702
2480.000000 0.9704 0.9703 0.9703 0.9703 0.9703
2475.000000 0.9702 0.9702 0.9702 0.9702 0.9701
2470.000000 0.9701 0.9701 0.9701 0.9700 0.9700
2465.000000 0.9700 0.9700 0.9700 0.9700 0.9699
2460.000000 0.9699 0.9698 0.9694 0.9692 0.9691
2455.000000 0.9686 0.9685 0.9687 0.9688 0.9686
2450.000000 0.9679 0.9680 0.9680 0.9678 0.9677
2445.000000 0.9675 0.9674 0.9672 0.9670 0.9667
2440.000000 0.9664 0.9661 0.9657 0.9654 0.9652
2435.000000 0.9648 0.9645 0.9641 0.9637 0.9631
2430.000000 0.9626 0.9621 0.9616 0.9610 0.9606
2425.000000 0.9603 0.9600 0.9600 0.9600 0.9600
2420.000000 0.9600 0.9601 0.9603 0.9606 0.9609
2415.000000 0.9612 0.9615 0.9618 0.9621 0.9624
2410.000000 0.9627 0.9631 0.9636 0.9637 0.9644
2405.000000 0.9646 0.9649 0.9651 0.9654 0.9656
2400.000000 0.9659 0.9659 0.9659 0.9659 0.9661
2395.000000 0.9661 0.9661 0.9658 0.9655 0.9652
2390.000000 0.9650 0.9653 0.9651 0.9647 0.9644
2385.000000 0.9642 0.9645 0.9643 0.9642 0.9644
2380.000000 0.9642 0.9642 0.9644 0.9643 0.9645
2375.000000 0.9643 0.9646 0.9651 0.9652 0.9655
2370.000000 0.9657 0.9654 0.9654 0.9656 0.9660
2365.000000 0.9662 0.9665 0.9666 0.9668 0.9668
2360.000000 0.9674 0.9675 0.9681 0.9682 0.9689
2355.000000 0.9693 0.9693 0.9692 0.9692 0.9688
2350.000000 0.9683 0.9680 0.9680 0.9682 0.9681
2345.000000 0.9674 0.9663 0.9651 0.9641 0.9629
2340.000000 0.9616 0.9592 0.9577 0.9561 0.9539
2335.000000 0.9537 0.9541 0.9538 0.9536 0.9535
2330.000000 0.9538 0.9536 0.9534 0.9533 0.9535
2325.000000 0.9535 0.9537 0.9528 0.9523 0.9516
2320.000000 0.9509 0.9501 0.9493 0.9479 0.9467
2315.000000 0.9454 0.9441 0.9431 0.9421 0.9410
2310.000000 0.9400 0.9390 0.9336 0.9373 0.9365
2305.000000 0.9365 0.9366 0.9366 0.9367 0.9367
2300.000000 0.9367 0.9374 0.9382 0.9390 0.9399
2295.000000 0.9408 0.9416 0.9424 0.9433 0.9441
2290.000000 0.9450 0.9459 0.9464 0.9472 0.9480
2285.000000 0.9490 0.9500 0.9504 0.9512 0.9521
2280.000000 0.9530 0.9538 0.9541 0.9549 0.9556
2275.000000 0.9559 0.9569 0.9577 0.9583 0.9588
2270.000000 0.9596 0.9602 0.9606 0.9613 0.9619
2265.000000 0.9620 0.9623 0.9627 0.9632 0.9632
2260.000000 0.9634 0.9639 0.9638 0.9642 0.9647
2255.000000 0.9651 0.9651 0.9655 0.9660 0.9664
2250.000000 0.9664 0.9666 0.9669 0.9670 0.9673
2245.000000 0.9674 0.9673 0.9674 0.9677 0.9679
2240.000000 0.9682 0.9684 0.9687 0.9689 0.9691
2235.000000 0.9690 0.9691 0.9693 0.9696 0.9698
2230.000000 0.9700 0.9701 0.9702 0.9703 0.9705
2225.000000 0.9706 0.9708 0.9709 0.9710 0.9707
2220.000000 0.9709 0.9710 0.9711 0.9711 0.9714
2215.000000 0.9714 0.9716 0.9717 0.9719 0.9720
2210.000000 0.9721 0.9722 0.9724 0.9725 0.9726
2205.000000 0.9727 0.9728 0.9728 0.9728 0.9727
2200.000000 0.9726 0.9725 0.9724 0.9723 0.9721
2195.000000 0.9715 0.9719 0.9716 0.9711 0.9708
2190.000000 0.9708 0.9705 0.9705 0.9703 0.9701
2185.000000 0.9698 0.9701 0.9698 0.9694 0.9692
2180.000000 0.9691 0.9691 0.9695 0.9698 0.9700
2175.000000 0.9702 0.9703 0.9706 0.9708 0.9710
2170.000000 0.9713 0.9713 0.9711 0.9712 0.9714
2165.000000 0.9716 0.9718 0.9720 0.9722 0.9724
2160.000000 0.9726 0.9727 0.9729 0.9731 0.9733
2155.000000 0.9735 0.9737 0.9738 0.9740 0.9742
2150.000000 0.9744 0.9745 0.9747 0.9749 0.9752
2145.000000 0.9754 0.9756 0.9756 0.9759 0.9759
2140.000000 0.9761 0.9762 0.9763 0.9764 0.9766
2135.000000 0.9767 0.9768 0.9769 0.9770 0.9771
2130.000000 0.9772 0.9773 0.9775 0.9776 0.9777
2125.000000 0.9777 0.9778 0.9778 0.9774 0.9778
2120.000000 0.9779 0.9779 0.9780 0.9780 0.9780
2115.000000 0.9780 0.9780 0.9780 0.9781 0.9781
2110.000000 0.9781 0.9781 0.9781 0.9780 0.9779
2105.000000 0.9778 0.9778 0.9777 0.9776 0.9775
2100.000000 0.9775 0.9774 0.9770 0.9767 0.9771
2095.000000 0.9771 0.9766 0.9769 0.9769 0.9768
2090.000000 0.9768 0.9765 0.9764 0.9762 0.9761
2085.000000 0.9758 0.9758 0.9755 0.9755 0.9753
2080.000000 0.9751 0.9750 0.9748 0.9746 0.9744
2075.000000 0.9741 0.9739 0.9736 0.9734 0.9732
2070.000000 0.9730 0.9727 0.9725 0.9722 0.9720
2065.000000 0.9717 0.9713 0.9710 0.9707 0.9704
2060.000000 0.9702 0.9700 0.9699 0.9698 0.9703
2055.000000 0.9701 0.9700 0.9695 0.9688 0.9682
2050.000000 0.9680 0.9672 0.9666 0.9660 0.9655
2045.000000 0.9646 0.9637 0.9627 0.9618 0.9609
2040.000000 0.9598 0.9588 0.9577 0.9566 0.9555
2035.000000 0.9543 0.9533 0.9525 0.9517 0.9511
2030.000000 0.9506 0.9508 0.9512 0.9519 0.9522
2025.000000 0.9530 0.9540 0.9545 0.9550 0.9557
2020.000000 0.9563 0.9569 0.9576 0.9582 0.9590
2015.000000 0.9595 0.9601 0.9601 0.9604 0.9604
2010.000000 0.9606 0.9607 0.9608 0.9610 0.9611
2005.000000 0.9611 0.9611 0.9611 0.9610 0.9593
2000.000000 0.9576 0.9522 0.9391 0.9375 0.9377
1995.000000 0.9422 0.9457 0.9488 0.9507 0.9525
1990.000000 0.9539 0.9543 0.9547 0.9551 0.9550
1985.000000 0.9554 0.9557 0.9557 0.9557 0.9557
1980.000000 0.9557 0.9556 0.9551 0.9550 0.9548
1975.000000 0.9546 0.9545 0.9543 0.9542 0.9538
1970.000000 0.9535 0.9532 0.9529 0.9525 0.9525
1965.000000 0.9520 0.9514 0.9512 0.9507 0.9500
1960.000000 0.9493 0.9485 0.9476 0.9463 0.9450
1955.000000 0.9433 0.9399 0.9370 0.9326 0.9281
1950.000000 0.9237 0.9184 0.9135 0.9101 0.9072
1945.000000 0.9070 0.9064 0.9067 0.9077 0.9089
1940.000000 0.9099 0.9109 0.9121 0.9139 0.9156
1935.000000 0.9172 0.9185 0.9193 0.9209 0.9200
1930.000000 0.9172 0.9135 0.9094 0.9041 0.8983
1925.000000 0.8930 0.8877 0.8823 0.8781 0.8785
1920.000000 0.8792 0.8800 0.8840 0.8884 0.8944
1915.000000 0.9003 0.9065 0.9128 0.9191 0.9233
1910.000000 0.9264 0.9286 0.9288 0.9299 0.9301
1905.000000 0.9302 0.9303 0.9288 0.9262 0.9233
1900.000000 0.9202 0.9177 0.9158 0.9138 0.9129
1895.000000 0.9128 0.9126 0.9138 0.9168 0.9194
1890.000000 0.9220 0.9251 0.9280 0.9313 0.9344
1885.000000 0.9374 0.9397 0.9420 0.9437 0.9446
1880.000000 0.9454 0.9463 0.9473 0.9475 0.9477
1875.000000 0.9485 0.9485 0.9485 0.9484 0.9484
1870.000000 0.9483 0.9483 0.9482 0.9482 0.9481
1865.000000 0.9481 0.9481 0.9481 0.9481 0.9482
1860.000000 0.9482 0.9482 0.9483 0.9486 0.9485
1855.000000 0.9484 0.9485 0.9486 0.9487 0.9487
1850.000000 0.9489 0.9490 0.9490 0.9499 0.9494
1845.000000 0.9494 0.9494 0.9494 0.9494 0.9493
1840.000000 0.9493 0.9492 0.9492 0.9490 0.9488
1835.000000 0.9485 0.9484 0.9480 0.9476 0.9473
1830.000000 0.9470 0.9466 0.9463 0.9453 0.9443
1825.000000 0.9423 0.9394 0.9352 0.9292 0.9225
1820.000000 0.9154 0.9114 0.9072 0.9036 0.9008
1815.000000 0.8980 0.8959 0.8879 0.8927 0.8933
1810.000000 0.8950 0.9005 0.9058 0.9104 0.9151
1805.000000 0.9195 0.9234 0.9273 0.9302 0.9331
1800.000000 0.9354 0.9371 0.9388 0.9392 0.9393
1795.000000 0.9394 0.9403 0.9389 0.9384 0.9379
1790.000000 0.9374 0.9369 0.9363 0.9357 0.9351
1785.000000 0.9345 0.9337 0.9326 0.9318 0.9307
1780.000000 0.9294 0.9280 0.9257 0.9232 0.9197
1775.000000 0.9160 0.9124 0.9087 0.9049 0.9012
1770.000000 0.8975 0.8926 0.8875 0.8835 0.8810
1765.000000 0.8790 0.8782 0.8775 0.8767 0.8760
1760.000000 0.8752 0.8750 0.8751 0.8748 0.8745
1755.000000 0.8742 0.8739 0.8734 0.8729 0.8724
1750.000000 0.8717 0.8711 0.8703 0.8695 0.8687
1745.000000 0.8678 0.8666 0.8656 0.8646 0.8635
1740.000000 0.8625 0.8613 0.8599 0.8580 0.8561
1735.000000 0.8522 0.8486 0.8442 0.8395 0.8347
1730.000000 0.8295 0.8232 0.8167 0.8107 0.8047
1725.000000 0.7988 0.7944 0.7900 0.7855 0.7812
1720.000000 0.7767 0.7716 0.7654 0.7574 0.7462
1715.000000 0.7353 0.7244 0.7066 0.6872 0.6653
1710.000000 0.6439 0.6191 0.6025 0.5846 0.5591
1705.000000 0.5083 0.4798 0.4644 0.4512 0.4212
1700.000000 0.2549 0.2399 0.1327 -0.0072 -0.0072
1695.000000 -0.0072 -0.0072 -0.0072 -0.0072 -0.0072
1690.000000 -0.0072 -0.0072 -0.0072 -0.0072 -0.0072
1685.000000 -0.0072 -0.0072 -0.0072 -0.0072 -0.0072
1680.000000 -0.0072 0.0605 0.0931 0.1476 0.2021
1675.000000 0.2564 0.3110 0.3655 0.4202 0.4790
1670.000000 0.5226 0.5776 0.5976 0.6169 0.6331
1665.000000 0.6487 0.6592 0.6699 0.6797 0.6823
1660.000000 0.6841 0.6849 0.6855 0.6855 0.6835
1655.000000 0.6794 0.6754 0.6732 0.6714 0.6714
1650.000000 0.6775 0.6883 0.6995 0.7079 0.7137
1645.000000 0.7196 0.7242 0.7281 0.7312 0.7328
1640.000000 0.7328 0.7328 0.7312 0.7268 0.7202
1635.000000 0.7127 0.6988 0.6864 0.6759 0.6652
1630.000000 0.6528 0.6404 0.6158 0.5904 0.5697
1625.000000 0.5559 0.5381 0.5148 0.4804 0.4158
1620.000000 0.3628 0.3163 0.2891 0.2544 0.2197
1615.000000 0.1848 0.1500 0.1148 0.0797 0.0446
1610.000000 0.0124 0.0123 0.0111 0.0144 0.0188
1605.000000 0.0252 0.0319 0.0505 0.1322 0.1823
1600.000000 0.2332 0.2842 0.3358 0.3877 0.4397
1595.000000 0.4916 0.5436 0.5511 0.5573 0.5638
1590.000000 0.5699 0.5765 0.5818 0.5854 0.5883
1585.000000 0.5907 0.5956 0.5951 0.5958 0.5806
1580.000000 0.5470 0.5135 0.4796 0.4460 0.4121
1575.000000 0.3853 0.3889 0.3933 0.4129 0.4675
1570.000000 0.5218 0.5474 0.5489 0.5508 0.5527
1565.000000 0.5545 0.5566 0.5564 0.5553 0.5541
1560.000000 0.5539 0.5541 0.5544 0.5539 0.5540
1555.000000 0.5546 0.5550 0.5563 0.5589 0.5626
1550.000000 0.5652 0.5785 0.5988 0.6249 0.6426
1545.000000 0.6582 0.6736 0.6752 0.6740 0.6724
1540.000000 0.6706 0.6699 0.6698 0.6703 0.6754
1535.000000 0.6813 0.6862 0.6911 0.6966 0.7041
1530.000000 0.7115 0.7162 0.7201 0.7215 0.7233
1525.000000 0.7252 0.7273 0.7285 0.7303 0.7315
1520.000000 0.7330 0.7340 0.7348 0.7358 0.7369
1515.000000 0.7394 0.7428 0.7460 0.7492 0.7525
1510.000000 0.7559 0.7592 0.7625 0.7656 0.7688
1505.000000 0.7721 0.7750 0.7774 0.7795 0.7820
1500.000000 0.7831 0.7841 0.7843 0.7866 0.7843
1495.000000 0.7845 0.7837 0.7827 0.7803 0.7767
1490.000000 0.7729 0.7696 0.7674 0.7666 0.7671
1485.000000 0.7683 0.7695 0.7714 0.7734 0.7782
1480.000000 0.7753 0.7743 0.7729 0.7708 0.7692
1475.000000 0.7679 0.7641 0.7604 0.7566 0.7452
1470.000000 0.7307 0.7140 0.7014 0.6879 0.6742
1465.000000 0.6620 0.6543 0.6469 0.6407 0.6355
1460.000000 0.6302 0.6249 0.6146 0.6036 0.5979
1455.000000 0.5940 0.5900 0.5863 0.5826 0.5788
1450.000000 0.5743 0.5699 0.5655 0.5603 0.5547
1445.000000 0.5443 0.5283 0.5160 0.5064 0.4927
1440.000000 0.4717 0.4511 0.4323 0.4130 0.3845
1435.000000 0.3823 0.3829 0.3818 0.3824 0.3850
1430.000000 0.3957 0.4092 0.4212 0.4355 0.4553
1425.000000 0.4673 0.4804 0.4880 0.4990 0.4967
1420.000000 0.4976 0.4970 0.4952 0.4930 0.4860
1415.000000 0.4751 0.4529 0.4305 0.4105 0.3951
1410.000000 0.3869 0.3844 0.3845 0.3845 0.3858
1405.000000 0.3874 0.3910 0.4022 0.4293 0.4697
1400.000000 0.5101 0.5504 0.5911 0.6316 0.6719
1395.000000 0.7125 0.7377 0.7443 0.7524 0.7596
1390.000000 0.7715 0.7698 0.7697 0.7688 0.7663
1385.000000 0.7622 0.7541 0.7432 0.7278 0.6943
1380.000000 0.6748 0.6698 0.6693 0.6688 0.6673
1375.000000 0.6601 0.6410 0.6021 0.5774 0.5596
1370.000000 0.5452 0.5203 0.4486 0.3861 0.3638
1365.000000 0.3476 0.3130 0.2354 0.1578 0.0802
1360.000000 0.0025 -0.0064 -0.0066 -0.0040 0.0042
1355.000000 0.0244 0.0422 0.0921 0.1584 0.2248
1350.000000 0.2912 0.3576 0.4533 0.5190 0.5726
1345.000000 0.5939 0.6161 0.6401 0.6596 0.6766
1340.000000 0.6920 0.7044 0.7174 0.7319 0.7483
1335.000000 0.7648 0.7798 0.7928 0.8071 0.8203
1330.000000 0.8303 0.8332 0.8353 0.8365 0.8372
1325.000000 0.8340 0.8380 0.8374 0.8363 0.8345
1320.000000 0.8310 0.8261 0.8185 0.8086 0.7970
1315.000000 0.7849 0.7701 0.7514 0.7339 0.6894
1310.000000 0.5885 0.5942 0.6146 0.6352 0.6556
1305.000000 0.6761 0.6862 0.6843 0.6809 0.6724
1300.000000 0.6535 0.6440 0.6366 0.6279 0.6182
1295.000000 0.6095 0.6005 0.5916 0.5841 0.5776
1290.000000 0.5743 0.5726 0.5708 0.5692 0.5675
1285.000000 0.5660 0.5633 0.5586 0.5517 0.5371
1280.000000 0.5180 0.4589 0.4186 0.3783 0.3381
1275.000000 0.2980 0.2576 0.2173 0.1326 0.0658
1270.000000 -0.0011 -0.0072 -0.0072 -0.0072 -0.0072
1265.000000 -0.0072 -0.0072 -0.0072 -0.0072 0.0478
1260.000000 0.0706 0.1283 0.1897 0.2513 0.3127
1255.000000 0.3759 0.3916 0.3975 0.4010 0.4042
1250.000000 0.4076 0.4109 0.4146 0.4183 0.4220
1245.000000 0.4261 0.4301 0.4350 0.4402 0.4462
1240.000000 0.4533 0.4616 0.4732 0.4862 0.5024
1235.000000 0.5169 0.5309 0.5787 0.6182 0.6573
1230.000000 0.6964 0.7355 0.7745 0.7951 0.8096
1225.000000 0.8190 0.8295 0.8333 0.8357 0.8381
1220.000000 0.8395 0.8404 0.8400 0.8370 0.8025
1215.000000 0.7493 0.6962 0.6432 0.6206 0.6392
1210.000000 0.6780 0.7166 0.7552 0.7939 0.8315
1205.000000 0.8419 0.8470 0.8504 0.8527 0.8514
1200.000000 0.8521 0.8505 0.8467 0.8417 0.8100
1195.000000 0.8007 0.7972 0.7947 0.7921 0.7897
1190.000000 0.7804 0.7654 0.7438 0.6967 0.5832
1185.000000 0.4699 0.3566 0.2432 0.1297 0.0774
1180.000000 0.0784 0.1785 0.2823 0.3862 0.4900
1175.000000 0.5938 0.6977 0.7799 0.8005 0.8164
1170.000000 0.8295 0.8422 0.8534 0.8610 0.8677
1165.000000 0.8731 0.8779 0.8825 0.8867 0.8909
1160.000000 0.8939 0.8967 0.8995 0.9024 0.9047
1155.000000 0.9063 0.9077 0.9092 0.9107 0.9116
1150.000000 0.9126 0.9136 0.9139 0.9087 0.9141
1145.000000 0.9141 0.9141 0.9134 0.9132 0.9126
1140.000000 0.9121 0.9121 0.9116 0.9110 0.9099
1135.000000 0.9093 0.9072 0.9045 0.9022 0.8990
1130.000000 0.8960 0.8916 0.8862 0.8726 0.8511
1125.000000 0.8023 0.7551 0.7526 0.7753 0.7913
1120.000000 0.7974 0.7975 0.7976 0.7941 0.7839
1115.000000 0.7732 0.7626 0.7601 0.7566 0.7633
1110.000000 0.7820 0.8006 0.8190 0.8374 0.8491
1105.000000 0.8614 0.8720 0.8814 0.8894 0.8939
1100.000000 0.8976 0.8999 0.9019 0.9041 0.9054
1095.000000 0.9055 0.9062 0.9069 0.9054 0.9033
1090.000000 0.9014 0.8977 0.8933 0.8888 0.8811
1085.000000 0.8716 0.8596 0.8408 0.8235 0.8059
1080.000000 0.7913 0.7766 0.7615 0.7468 0.7320
1075.000000 0.7258 0.7273 0.7379 0.7456 0.7560
1070.000000 0.7668 0.7955 0.8264 0.8456 0.8558
1065.000000 0.8657 0.8750 0.8803 0.8837 0.8814
1060.000000 0.8811 0.8778 0.8757 0.8701 0.8635
1055.000000 0.8575 0.8497 0.8371 0.8208 0.8056
1050.000000 0.7944 0.7877 0.7818 0.7775 0.7739
1045.000000 0.7709 0.7682 0.7662 0.7648 0.7639
1040.000000 0.7655 0.7616 0.7741 0.7787 0.7833
1035.000000 0.7877 0.7924 0.7972 0.8006 0.8033
1030.000000 0.8043 0.8079 0.8032 0.8003 0.7926
1025.000000 0.7731 0.7545 0.7005 0.5947 0.4888
1020.000000 0.4335 0.4300 0.4699 0.5736 0.6772
1015.000000 0.7795 0.7962 0.8157 0.8318 0.8484
1010.000000 0.8662 0.8776 0.8805 0.8819 0.8821
1005.000000 0.8817 0.8806 0.8796 0.8776 0.8760
1000.000000 0.8739 0.8715 0.8689 0.8662 0.8639
995.000000 0.8617 0.8598 0.8602 0.8608 0.8615
990.000000 0.8616 0.8618 0.8621 0.8623 0.8623
985.000000 0.8623 0.8603 0.8581 0.8546 0.8505
980.000000 0.8461 0.8402 0.8335 0.8250 0.8127
975.000000 0.7976 0.7924 0.7908 0.7899 0.7911
970.000000 0.7933 0.7953 0.7965 0.7925 0.7853
965.000000 0.7762 0.7643 0.7487 0.7026 0.6185
960.000000 0.5993 0.5835 0.5462 0.5004 0.4545
955.000000 0.4088 0.3628 0.3235 0.3209 0.3218
950.000000 0.3493 0.3963 0.4432 0.4902 0.5372
945.000000 0.5841 0.6311 0.6780 0.7250 0.7720
940.000000 0.7996 0.8129 0.8268 0.8414 0.8588
935.000000 0.8732 0.8857 0.8961 0.9051 0.9137
930.000000 0.9206 0.9260 0.9290 0.9299 0.9308
925.000000 0.9316 0.9325 0.9332 0.9336 0.9342
920.000000 0.9347 0.9357 0.9369 0.9376 0.9391
915.000000 0.9401 0.9411 0.9421 0.9435 0.9444
910.000000 0.9448 0.9454 0.9459 0.9458 0.9471
905.000000 0.9454 0.9452 0.9445 0.9441 0.9435
900.000000 0.9432 0.9425 0.9414 0.9406 0.9395
895.000000 0.9380 0.9362 0.9341 0.9324 0.9308
890.000000 0.9284 0.9255 0.9227 0.9194 0.9153
885.000000 0.9109 0.9074 0.9041 0.9006 0.8974
880.000000 0.8940 0.8905 0.8869 0.8832 0.8797
875.000000 0.8760 0.8725 0.8689 0.8653 0.8617
870.000000 0.8580 0.8544 0.8508 0.8477 0.8440
865.000000 0.8404 0.8372 0.8340 0.8303 0.8267
860.000000 0.8233 0.8196 0.8179 0.8184 0.8187
855.000000 0.8199 0.8219 0.8234 0.8250 0.8244
850.000000 0.8230 0.8217 0.8166 0.8116 0.8057
845.000000 0.7987 0.7887 0.7614 0.7277 0.6942
840.000000 0.6738 0.6717 0.6970 0.7201 0.7428
835.000000 0.7659 0.7893 0.8039 0.8154 0.8161
830.000000 0.8170 0.8163 0.8151 0.8120 0.8085
825.000000 0.7989 0.7762 0.7002 0.6328 0.5650
820.000000 0.4974 0.4298 0.3624 0.2948 0.2276
815.000000 0.1601 0.0926 0.0250 -0.0072 -0.0072
810.000000 -0.0072 0.0290 0.1129 0.1966 0.2806
805.000000 0.3646 0.4486 0.5325 0.6164 0.7003
800.000000 0.7844 0.8682 0.8808 0.8808 0.8792
795.000000 0.8765 0.8736 0.8708 0.8682 0.8684
790.000000 0.8725 0.8794 0.8885 0.8942 0.8969
785.000000 0.8983 0.8996 0.8949 0.8891 0.8877
780.000000 0.8901 0.9097 0.9207 0.9331 0.9434
775.000000 0.9519 0.9566 0.9588 0.9594 0.9596
770.000000 0.9597 0.9590 0.9570 0.9545 0.9512
765.000000 0.9474 0.9437 0.9197 0.8882 0.8566
760.000000 0.8265 0.8257 0.8240 0.8288 0.8461
755.000000 0.8637 0.8813 0.8991 0.9166 0.9341
750.000000 0.9515 0.9584 0.9630 0.9674 0.9701
745.000000 0.9716 0.9719 0.9697 0.9724 0.9724
740.000000 0.9723 0.9717 0.9712 0.9705 0.9691
735.000000 0.9677 0.9663 0.9647 0.9631 0.9610
730.000000 0.9593 0.9570 0.9533 0.9494 0.9441
725.000000 0.9375 0.9286 0.9194 0.9084 0.8916
720.000000 0.8875 0.8856 0.8833 0.8688 0.8328
715.000000 0.7967 0.7611 0.7332 0.7321 0.7409
710.000000 0.8062 0.8715 0.9065 0.9178 0.9271
705.000000 0.9342 0.9380 0.9394 0.9370 0.9403
700.000000 0.9402 0.9374 0.9325 0.9238 0.8976
695.000000 0.8716 0.8572 0.8527 0.8543 0.8688
690.000000 0.8918 0.9055 0.9058 0.9061 0.9056
685.000000 0.9026 0.8974 0.8907 0.8821 0.8694
680.000000 0.8353 0.7929 0.7514 0.7094 0.6678
675.000000 0.6256 0.6076 0.6029 0.6024 0.6087
670.000000 0.7248 0.8309 0.8537 0.8619 0.8693
665.000000 0.8787 0.8878 0.8914 0.8927 0.8936
660.000000 0.8948 0.8936 0.8895 0.8820 0.8803
655.000000 0.8847 0.8894 0.8947 0.8994 0.9027
650.000000 0.9053 0.9079 0.9103 0.9126 0.9141
645.000000 0.9152 0.9161 0.9164 0.9139 0.9084
640.000000 0.8987 0.8942 0.8952 0.9192 0.9284
635.000000 0.9355 0.9392 0.9430 0.9454 0.9458
630.000000 0.9466 0.9473 0.9471 0.9470 0.9465
625.000000 0.9464 0.9463 0.9452 0.9446 0.9431
620.000000 0.9415 0.9400 0.9380 0.9355 0.9324
615.000000 0.9296 0.9264 0.9232 0.9184 0.9131
610.000000 0.9077 0.8998 0.8881 0.8709 0.8358
605.000000 0.8146 0.8012 0.7883 0.7769 0.7655
600.000000 0.7547 0.7422 0.7276 0.6806 0.6062
595.000000 0.5317 0.4573 0.3829 0.3084 0.2574
590.000000 0.2596 0.3164 0.3915 0.4664 0.5414
585.000000 0.6164 0.6912 0.7662 0.8052 0.8094
580.000000 0.8129 0.8118 0.8106 0.8059 0.8004
575.000000 0.7854 0.7146 0.6328 0.5511 0.4694
570.000000 0.3876 0.2873 0.2871 0.3284 0.4131
565.000000 0.4982 0.5828 0.6671 0.7626 0.8131
560.000000 0.8226 0.8319 0.8410 0.8504 0.8599
555.000000 0.8690 0.8756 0.8821 0.8884 0.8950
550.000000 0.9006 0.9059 0.9100 0.9124 0.9148
545.000000 0.9172 0.9196 0.9214 0.9223 0.9232
540.000000 0.9242 0.9252 0.9266 0.9277 0.9290
535.000000 0.9292 0.9292 0.9341 0.9299 0.9301
530.000000 0.9303 0.9305 0.9305 0.9305 0.9307
525.000000 0.9308 0.9307 0.9306 0.9305 0.9303
520.000000 0.9302 0.9298 0.9290 0.9282 0.9273
515.000000 0.9266 0.9258 0.9250 0.9242 0.9234
510.000000 0.9225 0.9218 0.9205 0.9186 0.9168
505.000000 0.9149 0.9129 0.9110 0.9091 0.9066
500.000000 0.9039 0.9010 0.8982 0.8953 0.8924
495.000000 0.8895 0.8856 0.8818 0.8781 0.8742
490.000000 0.8703 0.8637 0.8572 0.8506 0.8439
485.000000 0.8371 0.8303 0.8235 0.8167 0.8085
480.000000 0.7994 0.7901 0.7810 0.7697 0.7579
475.000000 0.7459 0.7328 0.7197 0.7107 0.7027
470.000000 0.6944 0.6865 0.6784 0.6699 0.6612
465.000000 0.6523 0.6320 0.6352 0.6366 0.6402
460.000000 0.6447 0.6494 0.6548 0.6602 0.6659
455.000000 0.6720 0.6794 0.6871 0.6939 0.7005
450.000000 0.7059 0.7106 0.7140 0.7167 0.7209
445.000000 0.7194 0.7197 0.7197 0.7197 0.7173
440.000000 0.7138 0.7104 0.7042 0.6962 0.6881
435.000000 0.6767 0.6640 0.6542 0.6452 0.6381
430.000000 0.6333 0.6283 0.6237 0.6192 0.6151
425.000000 0.6121 0.6089 0.6063 0.6041 0.5978
420.000000 0.5791 0.5428 0.5091 0.5023 0.4980
415.000000 0.4943 0.4925 0.4915 0.4911 0.4937
410.000000 0.4994 0.5086 0.5176 0.5437 0.6255
405.000000 0.7073 0.7891 0.8710 0.9524 1.0331
##END=
