##TITLE=NONANEDIOIC ACID
##JCAMP-DX=4.24
##DATA TYPE=INFRARED SPECTRUM
##CLASS=COBLENTZ III
##ORIGIN=DOW CHEMICAL COMPANY
##OWNER=COBLENTZ SOCIETY
Collection (C) 2018 copyright by the U.S. Secretary of Commerce
on behalf of the United States of America. All rights reserved.
##DATE=1972/10/10
##NAMES=azelaic acid
AZELAIC ACID
##CAS REGISTRY NO=123-99-9
##MOLFORM=C9 H16 O4
##SOURCE REFERENCE=COBLENTZ NO. 10167
##$NIST SOURCE=COBLENTZ
##$NIST IMAGE=cob10167
##SPECTROMETER/DATA SYSTEM=BECKMAN IR-9 (GRATING)
##INSTRUMENT PARAMETERS=ORDER CHANGES AT 670, 1200, 2000 CM^-^1
##STATE=SOLID (SPLIT MULL, FLUOROLUBE FOR 3800-1330 AND NUJOL FOR 1330-400 CM ^-^1)
##SAMPLING PROCEDURE=TRANSMISSION
##RESOLUTION=4
##DATA PROCESSING=DIGITIZED BY NIST FROM HARD COPY (FROM TWO SEGMENTS)
##XUNITS=1/CM
##YUNITS=TRANSMITTANCE
##XFACTOR=1.000000
##YFACTOR=1
##DELTAX=0.852758
##FIRSTX=401.933
##LASTX=3798.47
##FIRSTY=0.675
##MAXX=3798.47
##MINX=401.933
##MAXY=1.008
##MINY=0.044
##NPOINTS=3984
##XYDATA=(X++(Y..Y))
401.933000 0.6750 0.6730 0.6690 0.6650 0.6630
406.196791 0.6610 0.6590 0.6550 0.6440 0.6331
410.460582 0.6310 0.6280 0.6280 0.6280 0.6280
414.724373 0.6290 0.6310 0.6330 0.6350 0.6370
418.988164 0.6470 0.6590 0.6640 0.6730 0.6760
423.251955 0.6840 0.6910 0.7000 0.7070 0.7130
427.515746 0.7210 0.7250 0.7370 0.7430 0.7510
431.779537 0.7550 0.7580 0.7600 0.7640 0.7670
436.043328 0.7720 0.7740 0.7750 0.7750 0.7780
440.307119 0.7780 0.7750 0.7680 0.7640 0.7620
444.570910 0.7590 0.7550 0.7540 0.7540 0.7550
448.834701 0.7580 0.7749 0.7909 0.8029 0.8159
453.098491 0.8270 0.8340 0.8420 0.8500 0.8550
457.362282 0.8620 0.8640 0.8700 0.8720 0.8780
461.626073 0.8810 0.8830 0.8890 0.8900 0.8930
465.889864 0.8930 0.8970 0.8980 0.9010 0.9020
470.153655 0.9060 0.9100 0.9110 0.9130 0.9150
474.417446 0.9180 0.9190 0.9220 0.9230 0.9250
478.681237 0.9270 0.9310 0.9310 0.9330 0.9340
482.945028 0.9340 0.9370 0.9380 0.9410 0.9420
487.208819 0.9430 0.9450 0.9450 0.9460 0.9470
491.472610 0.9470 0.9470 0.9490 0.9490 0.9500
495.736401 0.9500 0.9530 0.9530 0.9510 0.9510
500.000192 0.9500 0.9470 0.9460 0.9420 0.9350
504.263983 0.9310 0.9250 0.9140 0.9110 0.9020
508.527774 0.8940 0.8910 0.8890 0.8890 0.8900
512.791565 0.8910 0.8940 0.8950 0.9020 0.9070
517.055356 0.9130 0.9150 0.9210 0.9300 0.9340
521.319147 0.9340 0.9350 0.9370 0.9380 0.9380
525.582938 0.9390 0.9410 0.9410 0.9410 0.9410
529.846729 0.9410 0.9420 0.9420 0.9430 0.9430
534.110520 0.9450 0.9450 0.9430 0.9420 0.9410
538.374311 0.9390 0.9390 0.9380 0.9380 0.9390
542.638102 0.9450 0.9490 0.9540 0.9580 0.9650
546.901892 0.9700 0.9750 0.9770 0.9810 0.9850
551.165683 0.9870 0.9890 0.9900 0.9910 0.9930
555.429474 0.9940 0.9950 0.9970 0.9980 0.9980
559.693265 1.0010 1.0010 1.0010 1.0010 1.0020
563.957056 1.0020 1.0020 1.0020 1.0040 1.0040
568.220847 1.0040 1.0050 1.0050 1.0050 1.0050
572.484638 1.0050 1.0050 1.0050 1.0060 1.0060
576.748429 1.0080 1.0080 1.0080 1.0080 1.0080
581.012220 1.0080 1.0080 1.0080 1.0080 1.0080
585.276011 1.0080 1.0080 1.0080 1.0080 1.0080
589.539802 1.0080 1.0080 1.0080 1.0060 1.0060
593.803593 1.0060 1.0060 1.0060 1.0060 1.0060
598.067384 1.0050 1.0040 1.0040 1.0020 1.0010
602.331175 1.0010 1.0010 1.0000 0.9950 0.9940
606.594966 0.9930 0.9900 0.9890 0.9850 0.9820
610.858757 0.9780 0.9770 0.9740 0.9700 0.9670
615.122548 0.9650 0.9650 0.9630 0.9630 0.9630
619.386339 0.9650 0.9660 0.9670 0.9700 0.9740
623.650130 0.9770 0.9780 0.9790 0.9810 0.9820
627.913921 0.9850 0.9860 0.9870 0.9890 0.9900
632.177712 0.9900 0.9900 0.9910 0.9910 0.9930
636.441503 0.9940 0.9940 0.9940 0.9940 0.9950
640.705294 0.9950 0.9950 0.9950 0.9950 0.9950
644.969084 0.9950 0.9950 0.9950 0.9950 0.9950
649.232875 0.9950 0.9940 0.9940 0.9930 0.9930
653.496666 0.9910 0.9910 0.9910 0.9900 0.9900
657.760457 0.9900 0.9890 0.9870 0.9850 0.9830
662.024248 0.9810 0.9790 0.9780 0.9770 0.9740
666.288039 0.9690 0.9660 0.9630 0.9580 0.9550
670.551830 0.9540 0.9540 0.9510 0.9381 0.9211
674.815621 0.9070 0.8950 0.8850 0.8710 0.8620
679.079412 0.8520 0.8390 0.8320 0.8300 0.8280
683.343203 0.8280 0.8310 0.8340 0.8380 0.8480
687.606994 0.8520 0.8550 0.8670 0.8740 0.8790
691.870785 0.8830 0.8890 0.8930 0.8940 0.8990
696.134576 0.9020 0.9050 0.9100 0.9110 0.9180
700.398367 0.9230 0.9270 0.9330 0.9350 0.9410
704.662158 0.9450 0.9490 0.9550 0.9550 0.9580
708.925949 0.9590 0.9650 0.9670 0.9670 0.9670
713.189740 0.9670 0.9670 0.9670 0.9660 0.9630
717.453531 0.9620 0.9590 0.9550 0.9460 0.9330
721.717322 0.9300 0.9140 0.8941 0.8581 0.8142
725.981113 0.7760 0.7240 0.7030 0.7030 0.7240
730.244904 0.7978 0.8419 0.8550 0.8739 0.8909
734.508695 0.9030 0.9140 0.9210 0.9330 0.9350
738.772485 0.9420 0.9470 0.9530 0.9580 0.9610
743.036276 0.9630 0.9700 0.9730 0.9770 0.9780
747.300067 0.9810 0.9830 0.9850 0.9870 0.9890
751.563858 0.9900 0.9900 0.9910 0.9910 0.9930
755.827649 0.9930 0.9940 0.9950 0.9980 0.9980
760.091440 1.0010 1.0010 1.0010 1.0020 1.0020
764.355231 1.0020 1.0020 1.0020 1.0010 1.0010
768.619022 1.0010 1.0000 0.9950 0.9910 0.9850
772.882813 0.9780 0.9630 0.9530 0.9371 0.9310
777.146604 0.9300 0.9340 0.9460 0.9570 0.9670
781.410395 0.9750 0.9790 0.9810 0.9850 0.9860
785.674186 0.9870 0.9890 0.9900 0.9910 0.9910
789.937977 0.9930 0.9940 0.9940 0.9950 0.9950
794.201768 0.9950 0.9950 0.9940 0.9940 0.9940
798.465559 0.9940 0.9940 0.9930 0.9930 0.9910
802.729350 0.9910 0.9910 0.9900 0.9900 0.9900
806.993141 0.9900 0.9900 0.9890 0.9890 0.9870
811.256932 0.9860 0.9850 0.9850 0.9850 0.9850
815.520723 0.9850 0.9850 0.9830 0.9830 0.9810
819.784514 0.9810 0.9790 0.9780 0.9780 0.9770
824.048305 0.9770 0.9740 0.9710 0.9700 0.9670
828.312096 0.9660 0.9660 0.9690 0.9690 0.9690
832.575887 0.9670 0.9670 0.9670 0.9660 0.9650
836.839677 0.9650 0.9650 0.9650 0.9630 0.9620
841.103468 0.9620 0.9610 0.9590 0.9580 0.9570
845.367259 0.9550 0.9540 0.9510 0.9510 0.9500
849.631050 0.9490 0.9460 0.9450 0.9450 0.9430
853.894841 0.9420 0.9390 0.9380 0.9380 0.9370
858.158632 0.9370 0.9340 0.9330 0.9330 0.9310
862.422423 0.9270 0.9260 0.9250 0.9230 0.9220
866.686214 0.9190 0.9180 0.9150 0.9140 0.9100
870.950005 0.9050 0.9020 0.8990 0.8970 0.8930
875.213796 0.8900 0.8830 0.8810 0.8780 0.8750
879.477587 0.8700 0.8630 0.8550 0.8540 0.8510
883.741378 0.8500 0.8500 0.8440 0.8400 0.8380
888.005169 0.8340 0.8300 0.8240 0.8200 0.8140
892.268960 0.8120 0.8060 0.8020 0.7950 0.7940
896.532751 0.7840 0.7820 0.7800 0.7780 0.7750
900.796542 0.7700 0.7620 0.7580 0.7520 0.7470
905.060333 0.7390 0.7270 0.7240 0.7150 0.7090
909.324124 0.6960 0.6920 0.6850 0.6810 0.6760
913.587915 0.6710 0.6670 0.6610 0.6590 0.6520
917.851706 0.6450 0.6390 0.6320 0.6240 0.6140
922.115497 0.6080 0.6020 0.5960 0.5890 0.5810
926.379288 0.5740 0.5730 0.5680 0.5640 0.5580
930.643078 0.5540 0.5520 0.5500 0.5500 0.5490
934.906869 0.5490 0.5500 0.5540 0.5620 0.5680
939.170660 0.5770 0.5880 0.6010 0.6080 0.6180
943.434451 0.6310 0.6390 0.6470 0.6600 0.6710
947.698242 0.6790 0.6910 0.7050 0.7130 0.7240
951.962033 0.7270 0.7330 0.7410 0.7500 0.7600
956.225824 0.7660 0.7710 0.7760 0.7780 0.7840
960.489615 0.7900 0.7950 0.7950 0.8000 0.8030
964.753406 0.8040 0.8070 0.8120 0.8140 0.8150
969.017197 0.8180 0.8200 0.8220 0.8230 0.8240
973.280988 0.8240 0.8270 0.8310 0.8320 0.8340
977.544779 0.8350 0.8350 0.8360 0.8420 0.8460
981.808570 0.8460 0.8480 0.8500 0.8500 0.8510
986.072361 0.8500 0.8480 0.8470 0.8470 0.8480
990.336152 0.8500 0.8520 0.8540 0.8590 0.8630
994.599943 0.8700 0.8710 0.8720 0.8740 0.8740
998.863734 0.8770 0.8780 0.8780 0.8780 0.8780
1003.127525 0.8780 0.8770 0.8740 0.8710 0.8660
1007.391316 0.8580 0.8510 0.8440 0.8400 0.8390
1011.655107 0.8390 0.8400 0.8500 0.8540 0.8590
1015.918898 0.8640 0.8710 0.8740 0.8770 0.8810
1020.182689 0.8830 0.8890 0.8900 0.8900 0.8900
1024.446480 0.8900 0.8910 0.8910 0.8910 0.8910
1028.710270 0.8910 0.8930 0.8930 0.8930 0.8930
1032.974061 0.8930 0.8930 0.8930 0.8930 0.8930
1037.237852 0.8930 0.8930 0.8930 0.8930 0.8930
1041.501643 0.8930 0.8930 0.8930 0.8930 0.8930
1045.765434 0.8910 0.8910 0.8910 0.8900 0.8860
1050.029225 0.8790 0.8750 0.8720 0.8710 0.8700
1054.293016 0.8700 0.8680 0.8680 0.8680 0.8680
1058.556807 0.8680 0.8680 0.8680 0.8700 0.8710
1062.820598 0.8740 0.8750 0.8770 0.8770 0.8780
1067.084389 0.8780 0.8790 0.8790 0.8830 0.8860
1071.348180 0.8890 0.8890 0.8900 0.8900 0.8900
1075.611971 0.8900 0.8900 0.8900 0.8890 0.8890
1079.875762 0.8860 0.8850 0.8830 0.8830 0.8830
1084.139553 0.8820 0.8820 0.8810 0.8780 0.8750
1088.403344 0.8720 0.8710 0.8700 0.8630 0.8540
1092.667135 0.8500 0.8400 0.8320 0.8190 0.8040
1096.930926 0.7860 0.7561 0.7400 0.7400 0.7579
1101.194717 0.7660 0.7940 0.7960 0.8040 0.8150
1105.458508 0.8190 0.8200 0.8200 0.8200 0.8200
1109.722299 0.8240 0.8340 0.8380 0.8380 0.8390
1113.986090 0.8400 0.8500 0.8520 0.8600 0.8660
1118.249881 0.8720 0.8740 0.8770 0.8790 0.8790
1122.513671 0.8790 0.8790 0.8790 0.8780 0.8740
1126.777462 0.8700 0.8590 0.8520 0.8280 0.8160
1131.041253 0.8000 0.7980 0.7980 0.7990 0.8030
1135.305044 0.8150 0.8340 0.8420 0.8540 0.8620
1139.568835 0.8700 0.8770 0.8810 0.8810 0.8850
1143.832626 0.8900 0.8900 0.8900 0.8910 0.8910
1148.096417 0.8910 0.8910 0.8930 0.8930 0.8910
1152.360208 0.8910 0.8910 0.8870 0.8860 0.8850
1156.623999 0.8830 0.8810 0.8790 0.8780 0.8750
1160.887790 0.8740 0.8720 0.8710 0.8700 0.8680
1165.151581 0.8660 0.8640 0.8630 0.8620 0.8600
1169.415372 0.8590 0.8580 0.8560 0.8540 0.8520
1173.679163 0.8520 0.8520 0.8520 0.8510 0.8510
1177.942954 0.8510 0.8510 0.8510 0.8500 0.8500
1182.206745 0.8470 0.8440 0.8420 0.8390 0.8360
1186.470536 0.8320 0.8310 0.8240 0.8230 0.8120
1190.734327 0.7671 0.7510 0.7321 0.7111 0.6841
1194.998118 0.6519 0.6090 0.5610 0.5580 0.5400
1199.261909 0.5210 0.5929 0.6588 0.6919 0.7089
1203.525700 0.7330 0.7520 0.7590 0.7590 0.7500
1207.789491 0.7290 0.7160 0.6911 0.6830 0.6830
1212.053282 0.6920 0.7240 0.7580 0.7750 0.7920
1216.317073 0.7980 0.8060 0.8070 0.8080 0.8120
1220.580863 0.8120 0.8030 0.7950 0.7920 0.7790
1224.844654 0.7630 0.7540 0.7291 0.6951 0.6761
1229.108445 0.6399 0.5940 0.5760 0.5620 0.5620
1233.372236 0.5840 0.6160 0.6350 0.6649 0.6919
1237.636027 0.7040 0.7120 0.7160 0.7170 0.7150
1241.899818 0.7050 0.6950 0.6760 0.6182 0.6011
1246.163609 0.5820 0.5600 0.5320 0.5040 0.4591
1250.427400 0.4261 0.4021 0.3860 0.3740 0.3660
1254.691191 0.3460 0.3440 0.3460 0.3620 0.3940
1258.954982 0.4260 0.5578 0.5939 0.6169 0.6389
1263.218773 0.6480 0.6530 0.6530 0.6440 0.5961
1267.482564 0.5680 0.5401 0.4951 0.4711 0.4670
1271.746355 0.4951 0.5560 0.5720 0.5860 0.6080
1276.010146 0.6140 0.6140 0.6050 0.5970 0.5741
1280.273937 0.5680 0.5650 0.5620 0.5620 0.5640
1284.537728 0.5660 0.5730 0.5810 0.5890 0.6000
1288.801519 0.6080 0.6140 0.6140 0.6010 0.5760
1293.065310 0.5640 0.5560 0.5500 0.5450 0.5330
1297.329101 0.5250 0.5160 0.5140 0.5050 0.4940
1301.592892 0.4770 0.4670 0.4670 0.4700 0.4730
1305.856683 0.4740 0.4780 0.4790 0.4790 0.4780
1310.120474 0.4780 0.4780 0.4770 0.4770 0.4780
1314.384264 0.4780 0.4820 0.4900 0.4950 0.5020
1318.648055 0.5140 0.5170 0.5180 0.5180 0.5220
1322.911846 0.5250 0.5560 0.5760 0.6220 0.6590
1327.175637 0.6650 0.6850 0.6930 0.7269 0.7429
1331.439428 0.7670 0.7720 0.7780 0.7940 0.8030
1335.703219 0.8110 0.8150 0.8200 0.8260 0.8300
1339.967010 0.8340 0.8360 0.8380 0.8340 0.8320
1344.230801 0.8310 0.8310 0.8270 0.8260 0.8260
1348.494592 0.8260 0.8270 0.8310 0.8350 0.8390
1352.758383 0.8400 0.8430 0.8440 0.8460 0.8460
1357.022174 0.8440 0.8400 0.8390 0.8360 0.8340
1361.285965 0.8340 0.8360 0.8360 0.8390 0.8430
1365.549756 0.8500 0.8500 0.8520 0.8560 0.8590
1369.813547 0.8620 0.8660 0.8700 0.8710 0.8720
1374.077338 0.8720 0.8740 0.8740 0.8750 0.8750
1378.341129 0.8750 0.8750 0.8750 0.8750 0.8770
1382.604920 0.8770 0.8770 0.8780 0.8780 0.8790
1386.868711 0.8790 0.8790 0.8780 0.8780 0.8770
1391.132502 0.8740 0.8720 0.8700 0.8660 0.8620
1395.396293 0.8560 0.8520 0.8500 0.8390 0.8340
1399.660084 0.8240 0.8020 0.7880 0.7820 0.7790
1403.923875 0.7151 0.6950 0.6601 0.6161 0.5781
1408.187666 0.5600 0.5400 0.5080 0.4580 0.4410
1412.451456 0.4410 0.4550 0.4819 0.5009 0.5598
1416.715247 0.5730 0.5820 0.5890 0.6020 0.6080
1420.979038 0.6120 0.6200 0.6270 0.6290 0.6310
1425.242829 0.6310 0.6330 0.6320 0.6250 0.6170
1429.506620 0.5900 0.5740 0.5620 0.5560 0.5480
1433.770411 0.5360 0.5340 0.5290 0.5260 0.5260
1438.034202 0.5250 0.5250 0.5250 0.5260 0.5280
1442.297993 0.5360 0.5680 0.5890 0.6140 0.6410
1446.561784 0.6690 0.6949 0.7169 0.7349 0.7539
1450.825575 0.7700 0.7710 0.7760 0.7790 0.7860
1455.089366 0.7940 0.7950 0.7990 0.7990 0.8000
1459.353157 0.7990 0.7940 0.7840 0.7670 0.7600
1463.616948 0.7560 0.7500 0.7320 0.5984 0.5641
1467.880739 0.5560 0.5250 0.4940 0.5899 0.6599
1472.144530 0.7269 0.7599 0.7979 0.8149 0.8379
1476.408321 0.8580 0.8720 0.8890 0.8910 0.8990
1480.672112 0.9060 0.9140 0.9220 0.9270 0.9330
1484.935903 0.9350 0.9370 0.9390 0.9430 0.9460
1489.199694 0.9510 0.9550 0.9550 0.9580 0.9590
1493.463485 0.9610 0.9620 0.9630 0.9660 0.9670
1497.727276 0.9690 0.9700 0.9710 0.9730 0.9740
1501.991067 0.9740 0.9740 0.9740 0.9750 0.9750
1506.254857 0.9750 0.9750 0.9750 0.9750 0.9770
1510.518648 0.9770 0.9770 0.9770 0.9770 0.9780
1514.782439 0.9780 0.9780 0.9790 0.9790 0.9810
1519.046230 0.9810 0.9820 0.9830 0.9850 0.9850
1523.310021 0.9850 0.9860 0.9860 0.9870 0.9870
1527.573812 0.9890 0.9890 0.9890 0.9890 0.9900
1531.837603 0.9900 0.9900 0.9900 0.9900 0.9900
1536.101394 0.9910 0.9910 0.9910 0.9910 0.9910
1540.365185 0.9910 0.9900 0.9900 0.9910 0.9910
1544.628976 0.9910 0.9910 0.9910 0.9910 0.9910
1548.892767 0.9910 0.9930 0.9930 0.9930 0.9930
1553.156558 0.9930 0.9930 0.9930 0.9930 0.9930
1557.420349 0.9930 0.9930 0.9930 0.9930 0.9930
1561.684140 0.9930 0.9930 0.9930 0.9930 0.9930
1565.947931 0.9930 0.9930 0.9930 0.9930 0.9930
1570.211722 0.9930 0.9910 0.9910 0.9910 0.9910
1574.475513 0.9910 0.9910 0.9910 0.9910 0.9910
1578.739304 0.9910 0.9910 0.9910 0.9910 0.9910
1583.003095 0.9910 0.9900 0.9900 0.9900 0.9900
1587.266886 0.9900 0.9900 0.9890 0.9890 0.9890
1591.530677 0.9870 0.9870 0.9870 0.9870 0.9870
1595.794468 0.9870 0.9860 0.9860 0.9850 0.9830
1600.058259 0.9830 0.9830 0.9830 0.9820 0.9810
1604.322049 0.9790 0.9780 0.9780 0.9780 0.9770
1608.585840 0.9770 0.9770 0.9770 0.9770 0.9750
1612.849631 0.9740 0.9740 0.9730 0.9730 0.9710
1617.113422 0.9700 0.9690 0.9670 0.9660 0.9630
1621.377213 0.9620 0.9610 0.9590 0.9570 0.9540
1625.641004 0.9540 0.9510 0.9490 0.9470 0.9460
1629.904795 0.9430 0.9410 0.9380 0.9370 0.9350
1634.168586 0.9340 0.9330 0.9310 0.9290 0.9270
1638.432377 0.9250 0.9250 0.9220 0.9170 0.9130
1642.696168 0.9110 0.9100 0.9060 0.9050 0.9010
1646.959959 0.8990 0.8980 0.8950 0.8940 0.8910
1651.223750 0.8890 0.8830 0.8790 0.8770 0.8750
1655.487541 0.8710 0.8700 0.8630 0.8560 0.8520
1659.751332 0.8480 0.8430 0.8380 0.8320 0.8300
1664.015123 0.8240 0.8180 0.8120 0.8070 0.7950
1668.278914 0.7910 0.7830 0.7670 0.7580 0.7411
1672.542705 0.7310 0.7190 0.6950 0.6760 0.6610
1676.806496 0.6440 0.6170 0.6010 0.5840 0.5501
1681.070287 0.5320 0.5120 0.4710 0.4420 0.4260
1685.334078 0.3980 0.3661 0.3151 0.2801 0.2501
1689.597869 0.2239 0.1969 0.1610 0.1510 0.1350
1693.861660 0.1100 0.1000 0.0880 0.0720 0.0620
1698.125450 0.0610 0.0580 0.0530 0.0490 0.0460
1702.389241 0.0450 0.0450 0.0440 0.0440 0.0440
1706.653032 0.0440 0.0440 0.0450 0.0450 0.0490
1710.916823 0.0520 0.0600 0.0640 0.0700 0.0770
1715.180614 0.0980 0.1060 0.1250 0.1370 0.1510
1719.444405 0.1570 0.1690 0.1890 0.2229 0.2499
1723.708196 0.2720 0.2950 0.3300 0.3790 0.3980
1727.971987 0.4210 0.4460 0.4939 0.5638 0.5889
1732.235778 0.6080 0.6220 0.6350 0.6440 0.6520
1736.499569 0.6640 0.6750 0.6850 0.6920 0.7040
1740.763360 0.7110 0.7230 0.7270 0.7350 0.7430
1745.027151 0.7520 0.7590 0.7660 0.7750 0.7820
1749.290942 0.7910 0.7990 0.8080 0.8110 0.8160
1753.554733 0.8200 0.8240 0.8320 0.8340 0.8360
1757.818524 0.8400 0.8440 0.8480 0.8500 0.8520
1762.082315 0.8560 0.8580 0.8600 0.8630 0.8640
1766.346106 0.8700 0.8710 0.8720 0.8750 0.8750
1770.609897 0.8780 0.8810 0.8810 0.8820 0.8830
1774.873688 0.8850 0.8870 0.8890 0.8900 0.8900
1779.137479 0.8910 0.8930 0.8930 0.8930 0.8940
1783.401270 0.8940 0.8950 0.8950 0.8970 0.8970
1787.665061 0.8970 0.8970 0.8970 0.8970 0.8980
1791.928852 0.8980 0.8990 0.8990 0.8990 0.8990
1796.192642 0.8990 0.9010 0.9010 0.9010 0.9020
1800.456433 0.9030 0.9050 0.9060 0.9060 0.9070
1804.720224 0.9090 0.9100 0.9100 0.9110 0.9110
1808.984015 0.9130 0.9130 0.9140 0.9180 0.9180
1813.247806 0.9190 0.9190 0.9210 0.9220 0.9230
1817.511597 0.9260 0.9270 0.9290 0.9310 0.9310
1821.775388 0.9330 0.9330 0.9340 0.9370 0.9370
1826.039179 0.9380 0.9390 0.9410 0.9420 0.9430
1830.302970 0.9450 0.9460 0.9460 0.9470 0.9470
1834.566761 0.9500 0.9510 0.9530 0.9540 0.9540
1838.830552 0.9540 0.9550 0.9570 0.9580 0.9590
1843.094343 0.9590 0.9590 0.9610 0.9610 0.9610
1847.358134 0.9610 0.9620 0.9620 0.9620 0.9630
1851.621925 0.9650 0.9660 0.9660 0.9670 0.9670
1855.885716 0.9670 0.9670 0.9690 0.9700 0.9700
1860.149507 0.9700 0.9700 0.9710 0.9710 0.9710
1864.413298 0.9710 0.9710 0.9730 0.9730 0.9730
1868.677089 0.9730 0.9730 0.9740 0.9750 0.9750
1872.940880 0.9750 0.9750 0.9770 0.9750 0.9750
1877.204671 0.9770 0.9750 0.9750 0.9750 0.9750
1881.468462 0.9750 0.9750 0.9750 0.9750 0.9750
1885.732253 0.9750 0.9750 0.9770 0.9770 0.9770
1889.996043 0.9770 0.9770 0.9770 0.9770 0.9770
1894.259834 0.9770 0.9770 0.9770 0.9770 0.9770
1898.523625 0.9770 0.9770 0.9770 0.9780 0.9780
1902.787416 0.9780 0.9780 0.9780 0.9780 0.9780
1907.051207 0.9780 0.9790 0.9790 0.9790 0.9810
1911.314998 0.9810 0.9790 0.9790 0.9790 0.9790
1915.578789 0.9790 0.9790 0.9810 0.9820 0.9820
1919.842580 0.9820 0.9820 0.9830 0.9830 0.9830
1924.106371 0.9830 0.9830 0.9850 0.9850 0.9850
1928.370162 0.9860 0.9860 0.9860 0.9860 0.9860
1932.633953 0.9870 0.9870 0.9870 0.9870 0.9870
1936.897744 0.9870 0.9890 0.9890 0.9890 0.9890
1941.161535 0.9890 0.9890 0.9890 0.9890 0.9890
1945.425326 0.9890 0.9900 0.9900 0.9900 0.9900
1949.689117 0.9900 0.9890 0.9890 0.9890 0.9900
1953.952908 0.9900 0.9900 0.9900 0.9900 0.9900
1958.216699 0.9900 0.9900 0.9900 0.9900 0.9900
1962.480490 0.9900 0.9900 0.9910 0.9910 0.9910
1966.744281 0.9910 0.9910 0.9910 0.9910 0.9910
1971.008072 0.9930 0.9930 0.9910 0.9910 0.9910
1975.271863 0.9910 0.9910 0.9910 0.9930 0.9930
1979.535654 0.9930 0.9930 0.9910 0.9910 0.9910
1983.799445 0.9910 0.9930 0.9930 0.9930 0.9930
1988.063235 0.9930 0.9930 0.9930 0.9930 0.9930
1992.327026 0.9930 0.9930 0.9930 0.9930 0.9930
1996.590817 0.9930 0.9910 0.9910 0.9910 0.9910
2000.854608 0.9920 0.9930 0.9930 0.9930 0.9930
2005.118399 0.9930 0.9930 0.9930 0.9935 0.9940
2009.382190 0.9940 0.9940 0.9955 0.9970 0.9975
2013.645981 0.9980 0.9980 0.9980 0.9990 1.0000
2017.909772 1.0000 1.0000 1.0000 1.0000 1.0005
2022.173563 1.0010 1.0010 1.0010 1.0010 1.0010
2026.437354 1.0010 1.0010 1.0005 1.0000 1.0000
2030.701145 1.0000 0.9990 0.9980 0.9980 0.9980
2034.964936 0.9980 0.9980 0.9980 0.9980 0.9980
2039.228727 0.9980 0.9990 1.0000 1.0000 1.0000
2043.492518 1.0000 1.0000 1.0000 1.0000 0.9991
2047.756309 0.9981 0.9980 0.9980 0.9975 0.9970
2052.020100 0.9961 0.9951 0.9950 0.9950 0.9950
2056.283891 0.9950 0.9950 0.9950 0.9945 0.9940
2060.547682 0.9940 0.9940 0.9940 0.9940 0.9940
2064.811473 0.9940 0.9940 0.9940 0.9940 0.9940
2069.075264 0.9945 0.9950 0.9950 0.9950 0.9950
2073.339055 0.9950 0.9945 0.9940 0.9940 0.9940
2077.602846 0.9940 0.9940 0.9940 0.9940 0.9935
2081.866636 0.9930 0.9930 0.9930 0.9930 0.9930
2086.130427 0.9930 0.9930 0.9921 0.9911 0.9910
2090.394218 0.9910 0.9905 0.9900 0.9900 0.9900
2094.658009 0.9900 0.9900 0.9896 0.9891 0.9890
2098.921800 0.9890 0.9890 0.9890 0.9890 0.9890
2103.185591 0.9890 0.9890 0.9881 0.9871 0.9870
2107.449382 0.9870 0.9870 0.9870 0.9870 0.9870
2111.713173 0.9870 0.9870 0.9870 0.9870 0.9866
2115.976964 0.9861 0.9860 0.9860 0.9860 0.9860
2120.240755 0.9856 0.9851 0.9841 0.9831 0.9830
2124.504546 0.9830 0.9830 0.9830 0.9830 0.9830
2128.768337 0.9830 0.9830 0.9830 0.9830 0.9826
2133.032128 0.9821 0.9820 0.9820 0.9820 0.9820
2137.295919 0.9816 0.9811 0.9810 0.9810 0.9801
2141.559710 0.9791 0.9790 0.9790 0.9786 0.9781
2145.823501 0.9780 0.9780 0.9780 0.9780 0.9780
2150.087292 0.9780 0.9776 0.9771 0.9770 0.9770
2154.351083 0.9770 0.9770 0.9770 0.9770 0.9770
2158.614874 0.9770 0.9770 0.9770 0.9770 0.9770
2162.878665 0.9762 0.9752 0.9750 0.9750 0.9750
2167.142456 0.9750 0.9750 0.9750 0.9746 0.9741
2171.406247 0.9740 0.9740 0.9740 0.9740 0.9736
2175.670038 0.9731 0.9730 0.9730 0.9730 0.9730
2179.933828 0.9730 0.9730 0.9722 0.9712 0.9710
2184.197619 0.9710 0.9706 0.9701 0.9700 0.9700
2188.461410 0.9700 0.9700 0.9700 0.9700 0.9700
2192.725201 0.9700 0.9700 0.9700 0.9700 0.9700
2196.988992 0.9700 0.9700 0.9700 0.9700 0.9700
2201.252783 0.9700 0.9700 0.9700 0.9700 0.9700
2205.516574 0.9700 0.9700 0.9700 0.9700 0.9700
2209.780365 0.9700 0.9700 0.9700 0.9700 0.9700
2214.044156 0.9700 0.9700 0.9696 0.9691 0.9690
2218.307947 0.9690 0.9690 0.9690 0.9682 0.9672
2222.571738 0.9670 0.9670 0.9666 0.9661 0.9656
2226.835529 0.9651 0.9650 0.9650 0.9650 0.9650
2231.099320 0.9639 0.9624 0.9620 0.9620 0.9620
2235.363111 0.9620 0.9620 0.9620 0.9620 0.9620
2239.626902 0.9616 0.9611 0.9595 0.9575 0.9570
2243.890693 0.9570 0.9562 0.9553 0.9546 0.9541
2248.154484 0.9540 0.9540 0.9529 0.9514 0.9503
2252.418275 0.9493 0.9483 0.9473 0.9466 0.9461
2256.682066 0.9456 0.9451 0.9450 0.9450 0.9443
2260.945857 0.9433 0.9426 0.9421 0.9416 0.9411
2265.209648 0.9403 0.9393 0.9390 0.9390 0.9386
2269.473439 0.9381 0.9380 0.9380 0.9380 0.9380
2273.737229 0.9376 0.9371 0.9370 0.9370 0.9370
2278.001020 0.9370 0.9370 0.9370 0.9370 0.9370
2282.264811 0.9363 0.9353 0.9350 0.9350 0.9350
2286.528602 0.9350 0.9350 0.9350 0.9346 0.9341
2290.792393 0.9340 0.9340 0.9340 0.9340 0.9340
2295.056184 0.9340 0.9340 0.9340 0.9340 0.9340
2299.319975 0.9340 0.9340 0.9340 0.9340 0.9340
2303.583766 0.9340 0.9340 0.9340 0.9340 0.9340
2307.847557 0.9340 0.9340 0.9340 0.9340 0.9340
2312.111348 0.9340 0.9340 0.9340 0.9343 0.9348
2316.375139 0.9347 0.9342 0.9337 0.9332 0.9330
2320.638930 0.9330 0.9330 0.9330 0.9330 0.9330
2324.902721 0.9330 0.9330 0.9330 0.9330 0.9330
2329.166512 0.9330 0.9330 0.9330 0.9323 0.9313
2333.430303 0.9310 0.9310 0.9310 0.9310 0.9310
2337.694094 0.9310 0.9310 0.9310 0.9317 0.9327
2341.957885 0.9323 0.9313 0.9310 0.9310 0.9310
2346.221676 0.9310 0.9310 0.9310 0.9310 0.9310
2350.485467 0.9310 0.9310 0.9310 0.9310 0.9307
2354.749258 0.9302 0.9300 0.9300 0.9300 0.9300
2359.013049 0.9300 0.9300 0.9300 0.9300 0.9300
2363.276840 0.9300 0.9300 0.9300 0.9300 0.9300
2367.540631 0.9303 0.9308 0.9310 0.9310 0.9307
2371.804421 0.9302 0.9300 0.9300 0.9300 0.9300
2376.068212 0.9300 0.9300 0.9297 0.9292 0.9284
2380.332003 0.9274 0.9267 0.9262 0.9257 0.9252
2384.595794 0.9238 0.9218 0.9198 0.9178 0.9164
2388.859585 0.9154 0.9147 0.9142 0.9137 0.9132
2393.123376 0.9130 0.9130 0.9130 0.9130 0.9124
2397.387167 0.9114 0.9110 0.9110 0.9110 0.9110
2401.650958 0.9107 0.9102 0.9091 0.9076 0.9070
2405.914749 0.9070 0.9067 0.9062 0.9060 0.9060
2410.178540 0.9057 0.9052 0.9044 0.9034 0.9030
2414.442331 0.9030 0.9027 0.9022 0.9017 0.9012
2418.706122 0.9004 0.8994 0.8987 0.8982 0.8977
2422.969913 0.8972 0.8964 0.8954 0.8950 0.8950
2427.233704 0.8947 0.8942 0.8937 0.8932 0.8930
2431.497495 0.8930 0.8930 0.8930 0.8930 0.8930
2435.761286 0.8924 0.8914 0.8907 0.8902 0.8900
2440.025077 0.8900 0.8897 0.8892 0.8890 0.8890
2444.288868 0.8884 0.8874 0.8864 0.8854 0.8850
2448.552659 0.8850 0.8845 0.8835 0.8819 0.8799
2452.816450 0.8787 0.8782 0.8777 0.8772 0.8762
2457.080241 0.8747 0.8735 0.8725 0.8717 0.8712
2461.344032 0.8710 0.8710 0.8707 0.8702 0.8700
2465.607822 0.8700 0.8695 0.8685 0.8680 0.8680
2469.871613 0.8677 0.8672 0.8662 0.8647 0.8635
2474.135404 0.8625 0.8612 0.8597 0.8587 0.8582
2478.399195 0.8575 0.8565 0.8557 0.8552 0.8542
2482.662986 0.8527 0.8515 0.8505 0.8495 0.8485
2486.926777 0.8480 0.8480 0.8475 0.8465 0.8453
2491.190568 0.8438 0.8423 0.8408 0.8398 0.8392
2495.454359 0.8387 0.8382 0.8380 0.8380 0.8373
2499.718150 0.8358 0.8343 0.8328 0.8318 0.8313
2503.981941 0.8303 0.8288 0.8275 0.8265 0.8255
2508.245732 0.8245 0.8238 0.8233 0.8223 0.8208
2512.509523 0.8195 0.8185 0.8173 0.8158 0.8143
2516.773314 0.8128 0.8118 0.8113 0.8100 0.8081
2521.037105 0.8061 0.8041 0.8018 0.7993 0.7973
2525.300896 0.7958 0.7948 0.7943 0.7933 0.7918
2529.564687 0.7901 0.7881 0.7858 0.7833 0.7813
2533.828478 0.7798 0.7783 0.7768 0.7758 0.7753
2538.092269 0.7750 0.7750 0.7748 0.7743 0.7731
2542.356060 0.7711 0.7696 0.7686 0.7678 0.7673
2546.619851 0.7668 0.7663 0.7646 0.7616 0.7596
2550.883642 0.7586 0.7576 0.7566 0.7551 0.7531
2555.147433 0.7516 0.7506 0.7493 0.7479 0.7470
2559.411224 0.7470 0.7457 0.7427 0.7406 0.7396
2563.675014 0.7390 0.7390 0.7386 0.7376 0.7370
2567.938805 0.7370 0.7370 0.7370 0.7368 0.7363
2572.202596 0.7360 0.7360 0.7358 0.7353 0.7350
2576.466387 0.7350 0.7350 0.7350 0.7350 0.7350
2580.730178 0.7350 0.7350 0.7346 0.7336 0.7330
2584.993969 0.7330 0.7328 0.7323 0.7320 0.7320
2589.257760 0.7318 0.7313 0.7306 0.7296 0.7288
2593.521551 0.7283 0.7280 0.7280 0.7278 0.7273
2597.785342 0.7266 0.7256 0.7248 0.7243 0.7238
2602.049133 0.7233 0.7224 0.7209 0.7198 0.7193
2606.312924 0.7190 0.7190 0.7184 0.7169 0.7154
2610.576715 0.7139 0.7126 0.7116 0.7104 0.7089
2614.840506 0.7074 0.7059 0.7046 0.7036 0.7024
2619.104297 0.7009 0.6992 0.6972 0.6958 0.6953
2623.368088 0.6946 0.6936 0.6930 0.6930 0.6930
2627.631879 0.6930 0.6928 0.6923 0.6920 0.6920
2631.895670 0.6918 0.6913 0.6910 0.6910 0.6910
2636.159461 0.6910 0.6906 0.6896 0.6888 0.6883
2640.423252 0.6878 0.6873 0.6867 0.6857 0.6848
2644.687043 0.6843 0.6838 0.6833 0.6830 0.6830
2648.950834 0.6825 0.6810 0.6795 0.6780 0.6768
2653.214625 0.6763 0.6758 0.6753 0.6747 0.6737
2657.478415 0.6730 0.6730 0.6728 0.6723 0.6718
2661.742206 0.6713 0.6710 0.6710 0.6710 0.6710
2666.005997 0.6710 0.6710 0.6710 0.6710 0.6712
2670.269788 0.6717 0.6720 0.6720 0.6718 0.6713
2674.533579 0.6710 0.6710 0.6710 0.6710 0.6710
2678.797370 0.6710 0.6707 0.6697 0.6688 0.6683
2683.061161 0.6678 0.6673 0.6667 0.6657 0.6650
2687.324952 0.6650 0.6648 0.6643 0.6635 0.6620
2691.588743 0.6610 0.6610 0.6609 0.6604 0.6599
2695.852534 0.6594 0.6590 0.6590 0.6590 0.6590
2700.116325 0.6590 0.6590 0.6590 0.6590 0.6590
2704.380116 0.6590 0.6591 0.6596 0.6600 0.6600
2708.643907 0.6604 0.6619 0.6636 0.6656 0.6676
2712.907698 0.6696 0.6711 0.6716 0.6721 0.6726
2717.171489 0.6733 0.6743 0.6751 0.6756 0.6761
2721.435280 0.6766 0.6774 0.6789 0.6800 0.6800
2725.699071 0.6800 0.6800 0.6801 0.6806 0.6810
2729.962862 0.6810 0.6810 0.6810 0.6810 0.6810
2734.226653 0.6813 0.6823 0.6830 0.6830 0.6830
2738.490444 0.6830 0.6831 0.6836 0.6840 0.6840
2742.754235 0.6839 0.6834 0.6830 0.6830 0.6828
2747.018026 0.6818 0.6810 0.6810 0.6809 0.6804
2751.281817 0.6796 0.6781 0.6770 0.6770 0.6769
2755.545607 0.6764 0.6759 0.6754 0.6746 0.6731
2759.809398 0.6720 0.6720 0.6719 0.6714 0.6710
2764.073189 0.6710 0.6710 0.6710 0.6708 0.6698
2768.336980 0.6689 0.6684 0.6679 0.6674 0.6668
2772.600771 0.6658 0.6649 0.6644 0.6639 0.6634
2776.864562 0.6630 0.6630 0.6628 0.6618 0.6610
2781.128353 0.6610 0.6610 0.6610 0.6610 0.6610
2785.392144 0.6610 0.6610 0.6612 0.6622 0.6630
2789.655935 0.6630 0.6630 0.6630 0.6630 0.6630
2793.919726 0.6628 0.6618 0.6610 0.6610 0.6610
2798.183517 0.6610 0.6609 0.6604 0.6599 0.6594
2802.447308 0.6588 0.6578 0.6570 0.6570 0.6569
2806.711099 0.6564 0.6556 0.6536 0.6515 0.6490
2810.974890 0.6467 0.6452 0.6439 0.6434 0.6430
2815.238681 0.6430 0.6428 0.6418 0.6407 0.6386
2819.502472 0.6365 0.6340 0.6319 0.6314 0.6307
2823.766263 0.6292 0.6277 0.6257 0.6237 0.6222
2828.030054 0.6208 0.6193 0.6178 0.6168 0.6157
2832.293845 0.6137 0.6112 0.6062 0.6018 0.6008
2836.557636 0.5991 0.5936 0.5878 0.5803 0.5726
2840.821427 0.5642 0.5536 0.5316 0.5095 0.4865
2845.085218 0.4654 0.4550 0.4453 0.4409 0.4352
2849.349008 0.4222 0.4100 0.4030 0.3968 0.3953
2853.612799 0.3941 0.3946 0.3955 0.3990 0.4023
2857.876590 0.4043 0.4074 0.4174 0.4267 0.4322
2862.140381 0.4370 0.4370 0.4376 0.4421 0.4460
2866.404172 0.4460 0.4459 0.4454 0.4446 0.4416
2870.667963 0.4389 0.4379 0.4368 0.4353 0.4340
2874.931754 0.4340 0.4341 0.4346 0.4352 0.4372
2879.195545 0.4390 0.4390 0.4392 0.4407 0.4422
2883.459336 0.4437 0.4449 0.4439 0.4429 0.4419
2887.723127 0.4408 0.4388 0.4370 0.4370 0.4371
2891.986918 0.4376 0.4383 0.4408 0.4434 0.4468
2896.250709 0.4500 0.4500 0.4500 0.4505 0.4510
2900.514500 0.4510 0.4508 0.4488 0.4465 0.4405
2904.778291 0.4348 0.4323 0.4297 0.4262 0.4226
2909.042082 0.4186 0.4142 0.4052 0.3957 0.3802
2913.305873 0.3657 0.3617 0.3573 0.3483 0.3395
2917.569664 0.3325 0.3255 0.3180 0.3106 0.3051
2921.833455 0.3000 0.2995 0.2990 0.2995 0.3001
2926.097246 0.3011 0.3020 0.3020 0.3017 0.2967
2930.361037 0.2910 0.2745 0.2587 0.2532 0.2477
2934.624828 0.2417 0.2359 0.2334 0.2310 0.2310
2938.888619 0.2314 0.2379 0.2441 0.2456 0.2473
2943.152410 0.2518 0.2563 0.2618 0.2672 0.2712
2947.416200 0.2755 0.2870 0.2984 0.3084 0.3184
2951.679991 0.3294 0.3403 0.3483 0.3563 0.3643
2955.943782 0.3724 0.3798 0.3872 0.3927 0.3983
2960.207573 0.4063 0.4142 0.4207 0.4272 0.4322
2964.471364 0.4370 0.4375 0.4380 0.4385 0.4390
2968.735155 0.4410 0.4430 0.4450 0.4470 0.4480
2972.998946 0.4490 0.4500 0.4510 0.4525 0.4540
2977.262737 0.4545 0.4550 0.4565 0.4581 0.4621
2981.526528 0.4660 0.4675 0.4690 0.4735 0.4780
2985.790319 0.4785 0.4790 0.4805 0.4820 0.4840
2990.054110 0.4860 0.4875 0.4890 0.4910 0.4930
2994.317901 0.4940 0.4950 0.4960 0.4970 0.4975
2998.581692 0.4980 0.4995 0.5010 0.5025 0.5040
3002.845483 0.5045 0.5050 0.5055 0.5060 0.5060
3007.109274 0.5060 0.5060 0.5060 0.5060 0.5060
3011.373065 0.5060 0.5060 0.5060 0.5060 0.5055
3015.636856 0.5050 0.5050 0.5050 0.5035 0.5020
3019.900647 0.5020 0.5020 0.5015 0.5010 0.5005
3024.164438 0.5000 0.4985 0.4970 0.4955 0.4940
3028.428229 0.4935 0.4930 0.4916 0.4901 0.4895
3032.692020 0.4890 0.4880 0.4870 0.4870 0.4870
3036.955811 0.4865 0.4860 0.4860 0.4860 0.4855
3041.219601 0.4850 0.4850 0.4850 0.4850 0.4850
3045.483392 0.4850 0.4850 0.4850 0.4850 0.4855
3049.747183 0.4860 0.4865 0.4870 0.4870 0.4870
3054.010974 0.4879 0.4889 0.4899 0.4909 0.4910
3058.274765 0.4910 0.4924 0.4939 0.4954 0.4969
3062.538556 0.4989 0.5009 0.5024 0.5039 0.5063
3066.802347 0.5088 0.5095 0.5100 0.5109 0.5119
3071.066138 0.5138 0.5158 0.5169 0.5179 0.5198
3075.329929 0.5219 0.5234 0.5249 0.5255 0.5260
3079.593720 0.5274 0.5289 0.5295 0.5300 0.5309
3083.857511 0.5319 0.5329 0.5339 0.5340 0.5340
3088.121302 0.5349 0.5359 0.5364 0.5369 0.5375
3092.385093 0.5380 0.5380 0.5380 0.5380 0.5380
3096.648884 0.5389 0.5399 0.5400 0.5400 0.5404
3100.912675 0.5409 0.5414 0.5419 0.5429 0.5439
3105.176466 0.5444 0.5449 0.5454 0.5459 0.5469
3109.440257 0.5479 0.5498 0.5518 0.5542 0.5567
3113.704048 0.5588 0.5608 0.5614 0.5619 0.5629
3117.967839 0.5639 0.5666 0.5696 0.5713 0.5728
3122.231630 0.5743 0.5758 0.5760 0.5760 0.5782
3126.495421 0.5807 0.5828 0.5847 0.5854 0.5859
3130.759212 0.5873 0.5888 0.5912 0.5937 0.5966
3135.023003 0.5996 0.6009 0.6019 0.6033 0.6048
3139.286793 0.6063 0.6078 0.6088 0.6098 0.6126
3143.550584 0.6156 0.6169 0.6179 0.6193 0.6208
3147.814375 0.6214 0.6219 0.6241 0.6266 0.6287
3152.078166 0.6307 0.6318 0.6328 0.6343 0.6358
3156.341957 0.6372 0.6387 0.6398 0.6408 0.6423
3160.605748 0.6438 0.6457 0.6477 0.6493 0.6508
3164.869539 0.6514 0.6519 0.6532 0.6547 0.6558
3169.133330 0.6568 0.6578 0.6588 0.6598 0.6608
3173.397121 0.6618 0.6628 0.6646 0.6666 0.6674
3177.660912 0.6679 0.6684 0.6689 0.6706 0.6726
3181.924703 0.6742 0.6757 0.6764 0.6769 0.6782
3186.188494 0.6797 0.6812 0.6827 0.6834 0.6839
3190.452285 0.6860 0.6885 0.6898 0.6908 0.6910
3194.716076 0.6910 0.6914 0.6919 0.6932 0.6947
3198.979867 0.6958 0.6968 0.6994 0.7024 0.7038
3203.243658 0.7048 0.7062 0.7077 0.7084 0.7089
3207.507449 0.7090 0.7090 0.7106 0.7126 0.7146
3211.771240 0.7166 0.7186 0.7206 0.7222 0.7237
3216.035031 0.7244 0.7249 0.7262 0.7277 0.7292
3220.298822 0.7307 0.7318 0.7328 0.7342 0.7357
3224.562613 0.7371 0.7386 0.7398 0.7408 0.7418
3228.826404 0.7428 0.7449 0.7474 0.7492 0.7507
3233.090194 0.7521 0.7536 0.7555 0.7575 0.7584
3237.353985 0.7589 0.7594 0.7599 0.7611 0.7626
3241.617776 0.7641 0.7656 0.7664 0.7669 0.7670
3245.881567 0.7670 0.7674 0.7679 0.7688 0.7698
3250.145358 0.7719 0.7744 0.7761 0.7776 0.7784
3254.409149 0.7789 0.7790 0.7790 0.7794 0.7799
3258.672940 0.7815 0.7835 0.7851 0.7866 0.7885
3262.936731 0.7905 0.7914 0.7919 0.7927 0.7937
3267.200522 0.7940 0.7940 0.7944 0.7949 0.7954
3271.464313 0.7959 0.7974 0.7994 0.8011 0.8026
3275.728104 0.8030 0.8030 0.8041 0.8056 0.8064
3279.991895 0.8069 0.8074 0.8079 0.8091 0.8106
3284.255686 0.8114 0.8119 0.8120 0.8120 0.8127
3288.519477 0.8137 0.8147 0.8157 0.8170 0.8185
3292.783268 0.8193 0.8198 0.8207 0.8217 0.8220
3297.047059 0.8220 0.8224 0.8229 0.8234 0.8239
3301.310850 0.8250 0.8265 0.8280 0.8295 0.8300
3305.574641 0.8300 0.8303 0.8308 0.8310 0.8310
3309.838432 0.8310 0.8310 0.8313 0.8318 0.8327
3314.102223 0.8337 0.8340 0.8340 0.8343 0.8348
3318.366014 0.8350 0.8350 0.8350 0.8350 0.8353
3322.629805 0.8358 0.8360 0.8360 0.8367 0.8377
3326.893596 0.8380 0.8380 0.8383 0.8388 0.8393
3331.157386 0.8398 0.8407 0.8417 0.8423 0.8428
3335.421177 0.8430 0.8430 0.8430 0.8430 0.8430
3339.684968 0.8430 0.8433 0.8438 0.8446 0.8456
3343.948759 0.8463 0.8468 0.8470 0.8470 0.8470
3348.212550 0.8470 0.8473 0.8478 0.8487 0.8496
3352.476341 0.8503 0.8508 0.8513 0.8518 0.8526
3356.740132 0.8536 0.8543 0.8548 0.8553 0.8558
3361.003923 0.8569 0.8584 0.8599 0.8614 0.8623
3365.267714 0.8628 0.8630 0.8630 0.8633 0.8638
3369.531505 0.8646 0.8656 0.8666 0.8676 0.8686
3373.795296 0.8696 0.8703 0.8708 0.8710 0.8710
3378.059087 0.8713 0.8718 0.8720 0.8720 0.8729
3382.322878 0.8744 0.8756 0.8766 0.8770 0.8770
3386.586669 0.8770 0.8770 0.8773 0.8778 0.8780
3390.850460 0.8780 0.8783 0.8788 0.8790 0.8790
3395.114251 0.8790 0.8790 0.8796 0.8806 0.8813
3399.378042 0.8818 0.8820 0.8820 0.8823 0.8828
3403.641833 0.8836 0.8846 0.8850 0.8850 0.8853
3407.905624 0.8858 0.8860 0.8860 0.8863 0.8868
3412.169415 0.8870 0.8870 0.8870 0.8870 0.8870
3416.433206 0.8870 0.8876 0.8886 0.8890 0.8890
3420.696997 0.8890 0.8890 0.8893 0.8898 0.8900
3424.960787 0.8900 0.8900 0.8900 0.8900 0.8900
3429.224578 0.8903 0.8908 0.8910 0.8910 0.8910
3433.488369 0.8910 0.8910 0.8910 0.8910 0.8910
3437.752160 0.8910 0.8910 0.8910 0.8910 0.8910
3442.015951 0.8910 0.8910 0.8910 0.8910 0.8910
3446.279742 0.8915 0.8925 0.8930 0.8930 0.8933
3450.543533 0.8938 0.8940 0.8940 0.8940 0.8940
3454.807324 0.8943 0.8948 0.8950 0.8950 0.8950
3459.071115 0.8950 0.8955 0.8965 0.8973 0.8978
3463.334906 0.8980 0.8980 0.8983 0.8988 0.8990
3467.598697 0.8990 0.8995 0.9005 0.9010 0.9010
3471.862488 0.9013 0.9018 0.9023 0.9028 0.9035
3476.126279 0.9045 0.9050 0.9050 0.9053 0.9058
3480.390070 0.9063 0.9068 0.9075 0.9085 0.9090
3484.653861 0.9090 0.9093 0.9098 0.9100 0.9100
3488.917652 0.9100 0.9100 0.9103 0.9108 0.9110
3493.181443 0.9110 0.9118 0.9132 0.9140 0.9140
3497.445234 0.9142 0.9147 0.9150 0.9150 0.9155
3501.709025 0.9165 0.9173 0.9177 0.9180 0.9180
3505.972816 0.9180 0.9180 0.9180 0.9180 0.9182
3510.236607 0.9187 0.9190 0.9190 0.9195 0.9205
3514.500398 0.9210 0.9210 0.9212 0.9217 0.9222
3518.764189 0.9227 0.9230 0.9230 0.9235 0.9245
3523.027979 0.9250 0.9250 0.9252 0.9257 0.9260
3527.291770 0.9260 0.9260 0.9260 0.9262 0.9267
3531.555561 0.9270 0.9270 0.9270 0.9270 0.9270
3535.819352 0.9270 0.9270 0.9270 0.9275 0.9285
3540.083143 0.9290 0.9290 0.9292 0.9297 0.9302
3544.346934 0.9307 0.9310 0.9310 0.9310 0.9310
3548.610725 0.9310 0.9310 0.9314 0.9324 0.9330
3552.874516 0.9330 0.9330 0.9330 0.9330 0.9330
3557.138307 0.9330 0.9330 0.9330 0.9330 0.9330
3561.402098 0.9330 0.9332 0.9337 0.9340 0.9340
3565.665889 0.9340 0.9340 0.9340 0.9340 0.9342
3569.929680 0.9347 0.9350 0.9350 0.9350 0.9350
3574.193471 0.9350 0.9350 0.9350 0.9350 0.9350
3578.457262 0.9350 0.9354 0.9364 0.9370 0.9370
3582.721053 0.9370 0.9370 0.9370 0.9370 0.9370
3586.984844 0.9370 0.9366 0.9356 0.9350 0.9350
3591.248635 0.9350 0.9350 0.9354 0.9364 0.9372
3595.512426 0.9377 0.9380 0.9380 0.9382 0.9387
3599.776217 0.9390 0.9390 0.9394 0.9404 0.9412
3604.040008 0.9417 0.9420 0.9420 0.9420 0.9420
3608.303799 0.9420 0.9420 0.9420 0.9420 0.9422
3612.567590 0.9427 0.9430 0.9430 0.9430 0.9430
3616.831380 0.9430 0.9430 0.9430 0.9430 0.9430
3621.095171 0.9430 0.9430 0.9430 0.9434 0.9444
3625.358962 0.9450 0.9450 0.9450 0.9450 0.9450
3629.622753 0.9450 0.9450 0.9450 0.9450 0.9450
3633.886544 0.9450 0.9450 0.9450 0.9450 0.9452
3638.150335 0.9457 0.9460 0.9460 0.9460 0.9460
3642.414126 0.9460 0.9460 0.9460 0.9460 0.9462
3646.677917 0.9467 0.9470 0.9470 0.9470 0.9470
3650.941708 0.9470 0.9470 0.9470 0.9470 0.9473
3655.205499 0.9483 0.9490 0.9490 0.9490 0.9490
3659.469290 0.9490 0.9490 0.9490 0.9490 0.9490
3663.733081 0.9490 0.9492 0.9497 0.9500 0.9500
3667.996872 0.9500 0.9500 0.9500 0.9500 0.9500
3672.260663 0.9500 0.9500 0.9500 0.9500 0.9500
3676.524454 0.9500 0.9500 0.9500 0.9500 0.9500
3680.788245 0.9500 0.9500 0.9500 0.9500 0.9500
3685.052036 0.9500 0.9500 0.9500 0.9500 0.9500
3689.315827 0.9500 0.9500 0.9500 0.9500 0.9500
3693.579618 0.9500 0.9500 0.9500 0.9500 0.9500
3697.843409 0.9500 0.9500 0.9500 0.9500 0.9500
3702.107200 0.9500 0.9500 0.9500 0.9500 0.9500
3706.370991 0.9500 0.9500 0.9500 0.9500 0.9500
3710.634782 0.9500 0.9500 0.9500 0.9500 0.9500
3714.898572 0.9500 0.9501 0.9506 0.9510 0.9510
3719.162363 0.9510 0.9510 0.9510 0.9510 0.9510
3723.426154 0.9510 0.9510 0.9510 0.9510 0.9510
3727.689945 0.9510 0.9510 0.9510 0.9510 0.9510
3731.953736 0.9510 0.9510 0.9510 0.9510 0.9510
3736.217527 0.9510 0.9510 0.9510 0.9510 0.9510
3740.481318 0.9510 0.9513 0.9523 0.9530 0.9530
3744.745109 0.9530 0.9530 0.9530 0.9530 0.9530
3749.008900 0.9530 0.9530 0.9530 0.9530 0.9530
3753.272691 0.9530 0.9530 0.9530 0.9530 0.9530
3757.536482 0.9530 0.9530 0.9530 0.9530 0.9530
3761.800273 0.9530 0.9530 0.9530 0.9530 0.9530
3766.064064 0.9530 0.9530 0.9530 0.9530 0.9530
3770.327855 0.9530 0.9530 0.9530 0.9530 0.9528
3774.591646 0.9518 0.9510 0.9510 0.9510 0.9510
3778.855437 0.9510 0.9510 0.9510 0.9510 0.9510
3783.119228 0.9510 0.9510 0.9510 0.9510 0.9510
3787.383019 0.9510 0.9510 0.9510 0.9510 0.9510
3791.646810 0.9510 0.9510 0.9510 0.9509 0.9504
3795.910601 0.9500 0.9500 0.9500 0.9500
##END=
