##TITLE=1-Monostearin
##JCAMP-DX=4.24
$$ By DXEDIT 1.05 (RS McDonald)
##DATA TYPE=INFRARED SPECTRUM
##CLASS=COBLENTZ III
##ORIGIN=DOW CHEMICAL COMPANY
##OWNER=COPYRIGHT (C) 1988 by COBLENTZ SOCIETY INC.
Collection (C) 2018 copyright by the U.S. Secretary of Commerce
on behalf of the United States of America. All rights reserved.
##DATE=1970/01/13
##CAS NAME=Glycerol monostearate
##NAMES=2,3-dihydroxypropyl stearate
##CAS REGISTRY NO=123-94-4
##MOLFORM=C21 H42 O4
##SOURCE REFERENCE=COBLENTZ NO. 09640
##$NIST SOURCE=COBLENTZ
##$NIST IMAGE=cob9640
##SPECTROMETER/DATA SYSTEM=DOW KBr FOREPRISM-GRATING
##INSTRUMENT PARAMETERS=BLAZED AT 3.5, 12.0, 20.0 MICRON AND CHANGED AT 5.0, 7.5, 14.9 MICRON
##STATE=SOLID (NEAT)
##PATH LENGTH=SMEAR ON KBr PLATE
$$ SEE SPECTRUM NO. 6404 FOR "NUJOL MULL" RUN, AND SPECTRUM NO. 6405 FOR "SOLUTION" RUN.
##SAMPLING PROCEDURE=TRANSMISSION
##RESOLUTION=2
##DATA PROCESSING=DIGITIZED BY COBLENTZ SOCIETY (BATCH I) FROM HARD COPY
##XUNITS=1/CM
##YUNITS=TRANSMITTANCE
##XFACTOR=1
##YFACTOR=1
##DELTAX=1
##FIRSTX=3798
##LASTX=394
##FIRSTY=0.7521
##MAXX=3798
##MINX=394
##MAXY=0.8517
##MINY=0.0503
##NPOINTS=3405
##XYDATA=(X++(Y..Y))
3798.000000 0.7521 0.7522 0.7524 0.7525 0.7528
3793.000000 0.7530 0.7533 0.7535 0.7537 0.7539
3788.000000 0.7541 0.7543 0.7545 0.7547 0.7550
3783.000000 0.7551 0.7554 0.7556 0.7558 0.7558
3778.000000 0.7561 0.7561 0.7562 0.7564 0.7565
3773.000000 0.7565 0.7567 0.7568 0.7568 0.7569
3768.000000 0.7571 0.7571 0.7572 0.7572 0.7574
3763.000000 0.7575 0.7575 0.7576 0.7578 0.7578
3758.000000 0.7580 0.7581 0.7582 0.7583 0.7584
3753.000000 0.7584 0.7585 0.7585 0.7586 0.7587
3748.000000 0.7588 0.7588 0.7589 0.7589 0.7589
3743.000000 0.7590 0.7591 0.7592 0.7593 0.7593
3738.000000 0.7594 0.7594 0.7595 0.7596 0.7597
3733.000000 0.7597 0.7598 0.7598 0.7598 0.7598
3728.000000 0.7598 0.7597 0.7597 0.7597 0.7597
3723.000000 0.7596 0.7596 0.7596 0.7596 0.7596
3718.000000 0.7596 0.7595 0.7595 0.7595 0.7595
3713.000000 0.7594 0.7594 0.7594 0.7594 0.7594
3708.000000 0.7594 0.7593 0.7593 0.7593 0.7593
3703.000000 0.7592 0.7592 0.7591 0.7591 0.7590
3698.000000 0.7589 0.7588 0.7587 0.7586 0.7585
3693.000000 0.7583 0.7582 0.7581 0.7580 0.7578
3688.000000 0.7578 0.7576 0.7575 0.7575 0.7574
3683.000000 0.7572 0.7571 0.7571 0.7569 0.7568
3678.000000 0.7568 0.7565 0.7565 0.7564 0.7562
3673.000000 0.7561 0.7561 0.7560 0.7558 0.7558
3668.000000 0.7557 0.7556 0.7555 0.7554 0.7553
3663.000000 0.7551 0.7551 0.7550 0.7550 0.7550
3658.000000 0.7550 0.7550 0.7550 0.7549 0.7549
3653.000000 0.7549 0.7549 0.7549 0.7549 0.7549
3648.000000 0.7549 0.7549 0.7549 0.7549 0.7549
3643.000000 0.7548 0.7548 0.7548 0.7548 0.7548
3638.000000 0.7548 0.7548 0.7548 0.7548 0.7548
3633.000000 0.7548 0.7548 0.7548 0.7548 0.7548
3628.000000 0.7548 0.7548 0.7549 0.7549 0.7549
3623.000000 0.7549 0.7549 0.7549 0.7549 0.7549
3618.000000 0.7549 0.7548 0.7547 0.7546 0.7545
3613.000000 0.7544 0.7543 0.7542 0.7541 0.7540
3608.000000 0.7540 0.7533 0.7525 0.7512 0.7501
3603.000000 0.7487 0.7472 0.7455 0.7437 0.7421
3598.000000 0.7406 0.7398 0.7391 0.7383 0.7375
3593.000000 0.7368 0.7361 0.7354 0.7348 0.7346
3588.000000 0.7344 0.7342 0.7340 0.7338 0.7336
3583.000000 0.7334 0.7332 0.7330 0.7328 0.7325
3578.000000 0.7322 0.7318 0.7315 0.7311 0.7308
3573.000000 0.7305 0.7301 0.7298 0.7295 0.7291
3568.000000 0.7287 0.7278 0.7269 0.7261 0.7254
3563.000000 0.7244 0.7234 0.7214 0.7194 0.7174
3558.000000 0.7154 0.7134 0.7114 0.7094 0.7074
3553.000000 0.7049 0.7025 0.6998 0.6971 0.6944
3548.000000 0.6918 0.6891 0.6864 0.6830 0.6796
3543.000000 0.6760 0.6724 0.6687 0.6651 0.6615
3538.000000 0.6581 0.6554 0.6528 0.6501 0.6474
3533.000000 0.6447 0.6421 0.6394 0.6368 0.6339
3528.000000 0.6310 0.6282 0.6253 0.6223 0.6194
3523.000000 0.6166 0.6138 0.6112 0.6086 0.6060
3518.000000 0.6035 0.6009 0.5983 0.5957 0.5932
3513.000000 0.5907 0.5883 0.5859 0.5835 0.5810
3508.000000 0.5787 0.5762 0.5739 0.5717 0.5696
3503.000000 0.5674 0.5652 0.5630 0.5609 0.5587
3498.000000 0.5566 0.5545 0.5524 0.5505 0.5486
3493.000000 0.5467 0.5449 0.5432 0.5415 0.5398
3488.000000 0.5381 0.5364 0.5348 0.5331 0.5314
3483.000000 0.5301 0.5289 0.5276 0.5264 0.5259
3478.000000 0.5255 0.5251 0.5248 0.5244 0.5240
3473.000000 0.5236 0.5233 0.5229 0.5225 0.5223
3468.000000 0.5221 0.5220 0.5219 0.5218 0.5217
3463.000000 0.5216 0.5215 0.5214 0.5212 0.5212
3458.000000 0.5210 0.5210 0.5212 0.5212 0.5214
3453.000000 0.5214 0.5214 0.5215 0.5216 0.5217
3448.000000 0.5218 0.5218 0.5219 0.5219 0.5220
3443.000000 0.5221 0.5223 0.5224 0.5226 0.5227
3438.000000 0.5228 0.5229 0.5231 0.5232 0.5234
3433.000000 0.5235 0.5237 0.5238 0.5239 0.5240
3428.000000 0.5242 0.5243 0.5245 0.5246 0.5248
3423.000000 0.5249 0.5251 0.5252 0.5254 0.5255
3418.000000 0.5257 0.5258 0.5259 0.5260 0.5262
3413.000000 0.5262 0.5264 0.5265 0.5267 0.5268
3408.000000 0.5269 0.5270 0.5272 0.5273 0.5275
3403.000000 0.5277 0.5279 0.5280 0.5282 0.5284
3398.000000 0.5286 0.5288 0.5290 0.5292 0.5294
3393.000000 0.5296 0.5298 0.5301 0.5305 0.5308
3388.000000 0.5310 0.5314 0.5318 0.5321 0.5325
3383.000000 0.5328 0.5332 0.5335 0.5338 0.5344
3378.000000 0.5351 0.5358 0.5366 0.5373 0.5380
3373.000000 0.5387 0.5394 0.5400 0.5406 0.5410
3368.000000 0.5417 0.5423 0.5429 0.5434 0.5440
3363.000000 0.5446 0.5452 0.5454 0.5457 0.5459
3358.000000 0.5462 0.5464 0.5467 0.5468 0.5469
3353.000000 0.5469 0.5469 0.5469 0.5469 0.5469
3348.000000 0.5469 0.5469 0.5469 0.5469 0.5469
3343.000000 0.5469 0.5469 0.5469 0.5470 0.5470
3338.000000 0.5470 0.5470 0.5470 0.5470 0.5469
3333.000000 0.5467 0.5466 0.5464 0.5462 0.5460
3328.000000 0.5458 0.5454 0.5450 0.5446 0.5443
3323.000000 0.5439 0.5435 0.5432 0.5430 0.5428
3318.000000 0.5426 0.5424 0.5423 0.5421 0.5420
3313.000000 0.5418 0.5417 0.5417 0.5418 0.5419
3308.000000 0.5420 0.5421 0.5423 0.5424 0.5426
3303.000000 0.5427 0.5429 0.5430 0.5432 0.5433
3298.000000 0.5434 0.5435 0.5437 0.5438 0.5440
3293.000000 0.5441 0.5443 0.5444 0.5446 0.5447
3288.000000 0.5449 0.5451 0.5453 0.5454 0.5456
3283.000000 0.5458 0.5460 0.5460 0.5462 0.5465
3278.000000 0.5467 0.5469 0.5471 0.5472 0.5474
3273.000000 0.5476 0.5478 0.5480 0.5482 0.5484
3268.000000 0.5486 0.5488 0.5490 0.5492 0.5494
3263.000000 0.5496 0.5498 0.5500 0.5502 0.5504
3258.000000 0.5506 0.5508 0.5510 0.5512 0.5515
3253.000000 0.5517 0.5520 0.5522 0.5524 0.5526
3248.000000 0.5574 0.5531 0.5533 0.5536 0.5540
3243.000000 0.5543 0.5547 0.5550 0.5554 0.5558
3238.000000 0.5562 0.5565 0.5569 0.5572 0.5576
3233.000000 0.5581 0.5586 0.5593 0.5600 0.5606
3228.000000 0.5612 0.5620 0.5627 0.5633 0.5640
3223.000000 0.5647 0.5654 0.5660 0.5669 0.5680
3218.000000 0.5691 0.5701 0.5712 0.5723 0.5734
3213.000000 0.5745 0.5756 0.5767 0.5778 0.5789
3208.000000 0.5800 0.5810 0.5821 0.5832 0.5843
3203.000000 0.5854 0.5865 0.5876 0.5887 0.5897
3198.000000 0.5908 0.5922 0.5936 0.5950 0.5965
3193.000000 0.5980 0.5995 0.6009 0.6024 0.6039
3188.000000 0.6054 0.6069 0.6084 0.6098 0.6112
3183.000000 0.6128 0.6143 0.6159 0.6176 0.6193
3178.000000 0.6210 0.6228 0.6245 0.6262 0.6279
3173.000000 0.6296 0.6314 0.6331 0.6348 0.6365
3168.000000 0.6383 0.6399 0.6415 0.6428 0.6443
3163.000000 0.6457 0.6471 0.6486 0.6501 0.6515
3158.000000 0.6528 0.6543 0.6558 0.6571 0.6586
3153.000000 0.6600 0.6615 0.6628 0.6643 0.6656
3148.000000 0.6668 0.6681 0.6693 0.6705 0.6717
3143.000000 0.6728 0.6742 0.6754 0.6765 0.6778
3138.000000 0.6790 0.6801 0.6814 0.6825 0.6839
3133.000000 0.6849 0.6858 0.6868 0.6878 0.6887
3128.000000 0.6897 0.6907 0.6917 0.6925 0.6936
3123.000000 0.6946 0.6956 0.6965 0.6975 0.6984
3118.000000 0.6994 0.7001 0.7010 0.7017 0.7025
3113.000000 0.7032 0.7040 0.7047 0.7055 0.7057
3108.000000 0.7058 0.7061 0.7062 0.7065 0.7068
3103.000000 0.7069 0.7071 0.7074 0.7076 0.7076
3098.000000 0.7076 0.7076 0.7076 0.7075 0.7075
3093.000000 0.7075 0.7075 0.7075 0.7075 0.7074
3088.000000 0.7074 0.7072 0.7071 0.7069 0.7068
3083.000000 0.7065 0.7062 0.7061 0.7058 0.7056
3078.000000 0.7054 0.7051 0.7050 0.7047 0.7045
3073.000000 0.7043 0.7041 0.7038 0.7036 0.7032
3068.000000 0.7028 0.7024 0.7019 0.7015 0.7011
3063.000000 0.7008 0.7004 0.7000 0.6997 0.6993
3058.000000 0.6989 0.6985 0.6981 0.6975 0.6971
3053.000000 0.6965 0.6958 0.6951 0.6945 0.6938
3048.000000 0.6931 0.6924 0.6918 0.6911 0.6904
3043.000000 0.6897 0.6890 0.6878 0.6867 0.6856
3038.000000 0.6845 0.6834 0.6822 0.6811 0.6801
3033.000000 0.6789 0.6778 0.6764 0.6751 0.6731
3028.000000 0.6711 0.6692 0.6672 0.6653 0.6634
3023.000000 0.6614 0.6595 0.6574 0.6554 0.6524
3018.000000 0.6495 0.6465 0.6436 0.6406 0.6376
3013.000000 0.6347 0.6318 0.6291 0.6265 0.6239
3008.000000 0.6212 0.6186 0.6160 0.6133 0.6107
3003.000000 0.6045 0.5983 0.5922 0.5860 0.5807
2998.000000 0.5753 0.5699 0.5646 0.5574 0.5502
2993.000000 0.5414 0.5327 0.5253 0.5179 0.5109
2988.000000 0.5040 0.4951 0.4862 0.4727 0.4591
2983.000000 0.4501 0.4412 0.4348 0.4285 0.4219
2978.000000 0.4153 0.4095 0.4038 0.4002 0.3966
2973.000000 0.3927 0.3887 0.3786 0.3686 0.3554
2968.000000 0.3422 0.3290 0.3158 0.3026 0.2894
2963.000000 0.2762 0.2630 0.2498 0.2366 0.2234
2958.000000 0.2102 0.2035 0.1971 0.1971 0.1972
2953.000000 0.2008 0.2044 0.2082 0.2121 0.2159
2948.000000 0.2198 0.2220 0.2243 0.2239 0.2235
2943.000000 0.2155 0.2075 0.1941 0.1807 0.1684
2938.000000 0.1563 0.1470 0.1378 0.1288 0.1199
2933.000000 0.1135 0.1072 0.1028 0.0984 0.0945
2928.000000 0.0906 0.0866 0.0826 0.0791 0.0756
2923.000000 0.0725 0.0695 0.0667 0.0639 0.0591
2918.000000 0.0544 0.0528 0.0507 0.0507 0.0503
2913.000000 0.0557 0.0612 0.0701 0.0790 0.0879
2908.000000 0.0969 0.1058 0.1146 0.1236 0.1326
2903.000000 0.1415 0.1504 0.1592 0.1683 0.1751
2898.000000 0.1820 0.1858 0.1895 0.1936 0.1978
2893.000000 0.2028 0.2079 0.2129 0.2180 0.2230
2888.000000 0.2281 0.2331 0.2382 0.2432 0.2483
2883.000000 0.2533 0.2584 0.2634 0.2684 0.2733
2878.000000 0.2781 0.2785 0.2785 0.2787 0.2812
2873.000000 0.2774 0.2765 0.2755 0.2745 0.2726
2868.000000 0.2707 0.2673 0.2639 0.2478 0.2317
2863.000000 0.2155 0.1994 0.1833 0.1672 0.1510
2858.000000 0.1349 0.1188 0.1027 0.0866 0.0705
2853.000000 0.0655 0.0606 0.0607 0.0626 0.0733
2848.000000 0.0859 0.1146 0.1436 0.1724 0.2012
2843.000000 0.2300 0.2589 0.2877 0.3165 0.3402
2838.000000 0.3639 0.3758 0.3877 0.3977 0.4077
2833.000000 0.4178 0.4279 0.4384 0.4489 0.4601
2828.000000 0.4714 0.4844 0.4974 0.5054 0.5134
2823.000000 0.5196 0.5258 0.5320 0.5382 0.5432
2818.000000 0.5482 0.5524 0.5567 0.5609 0.5651
2813.000000 0.5689 0.5727 0.5764 0.5802 0.5839
2808.000000 0.5877 0.5914 0.5951 0.5985 0.6020
2803.000000 0.6051 0.6083 0.6114 0.6146 0.6177
2798.000000 0.6209 0.6239 0.6269 0.6296 0.6324
2793.000000 0.6352 0.6380 0.6407 0.6435 0.6462
2788.000000 0.6491 0.6515 0.6541 0.6562 0.6586
2783.000000 0.6608 0.6631 0.6653 0.6675 0.6698
2778.000000 0.6721 0.6746 0.6771 0.6798 0.6825
2773.000000 0.6851 0.6878 0.6904 0.6931 0.6951
2768.000000 0.6971 0.6990 0.7008 0.7025 0.7045
2763.000000 0.7062 0.7081 0.7098 0.7115 0.7132
2758.000000 0.7150 0.7160 0.7171 0.7180 0.7190
2753.000000 0.7197 0.7205 0.7208 0.7214 0.7218
2748.000000 0.7221 0.7222 0.7225 0.7225 0.7225
2743.000000 0.7225 0.7226 0.7226 0.7228 0.7228
2738.000000 0.7228 0.7228 0.7230 0.7231 0.7233
2733.000000 0.7235 0.7238 0.7240 0.7243 0.7247
2728.000000 0.7251 0.7258 0.7268 0.7275 0.7285
2723.000000 0.7294 0.7303 0.7311 0.7319 0.7328
2718.000000 0.7337 0.7345 0.7354 0.7361 0.7369
2713.000000 0.7378 0.7387 0.7395 0.7403 0.7408
2708.000000 0.7415 0.7421 0.7426 0.7431 0.7436
2703.000000 0.7440 0.7444 0.7446 0.7449 0.7450
2698.000000 0.7451 0.7453 0.7454 0.7455 0.7457
2693.000000 0.7458 0.7460 0.7460 0.7460 0.7460
2688.000000 0.7460 0.7458 0.7458 0.7458 0.7458
2683.000000 0.7457 0.7457 0.7456 0.7456 0.7455
2678.000000 0.7455 0.7454 0.7454 0.7453 0.7453
2673.000000 0.7451 0.7451 0.7451 0.7451 0.7450
2668.000000 0.7450 0.7449 0.7449 0.7448 0.7448
2663.000000 0.7447 0.7447 0.7446 0.7446 0.7445
2658.000000 0.7445 0.7446 0.7447 0.7448 0.7450
2653.000000 0.7451 0.7451 0.7453 0.7455 0.7456
2648.000000 0.7457 0.7458 0.7458 0.7460 0.7461
2643.000000 0.7461 0.7461 0.7462 0.7464 0.7465
2638.000000 0.7465 0.7465 0.7467 0.7468 0.7471
2633.000000 0.7474 0.7476 0.7480 0.7483 0.7485
2628.000000 0.7488 0.7490 0.7493 0.7496 0.7499
2623.000000 0.7501 0.7506 0.7511 0.7517 0.7521
2618.000000 0.7528 0.7533 0.7539 0.7544 0.7550
2613.000000 0.7555 0.7561 0.7565 0.7571 0.7576
2608.000000 0.7583 0.7588 0.7594 0.7599 0.7605
2603.000000 0.7610 0.7615 0.7619 0.7625 0.7628
2598.000000 0.7634 0.7638 0.7642 0.7646 0.7650
2593.000000 0.7654 0.7658 0.7662 0.7667 0.7671
2588.000000 0.7675 0.7678 0.7684 0.7688 0.7692
2583.000000 0.7696 0.7700 0.7704 0.7708 0.7712
2578.000000 0.7718 0.7721 0.7726 0.7731 0.7736
2573.000000 0.7741 0.7746 0.7750 0.7755 0.7760
2568.000000 0.7765 0.7768 0.7774 0.7778 0.7783
2563.000000 0.7788 0.7793 0.7797 0.7801 0.7806
2558.000000 0.7811 0.7815 0.7818 0.7822 0.7826
2553.000000 0.7831 0.7835 0.7838 0.7842 0.7846
2548.000000 0.7850 0.7854 0.7858 0.7861 0.7865
2543.000000 0.7869 0.7874 0.7878 0.7882 0.7886
2538.000000 0.7890 0.7894 0.7898 0.7901 0.7906
2533.000000 0.7910 0.7914 0.7918 0.7921 0.7925
2528.000000 0.7928 0.7932 0.7935 0.7938 0.7942
2523.000000 0.7945 0.7948 0.7951 0.7955 0.7958
2518.000000 0.7961 0.7964 0.7968 0.7971 0.7974
2513.000000 0.7976 0.7981 0.7984 0.7988 0.7991
2508.000000 0.7994 0.7996 0.7999 0.8001 0.8004
2503.000000 0.8006 0.8008 0.8010 0.8012 0.8015
2498.000000 0.8018 0.8019 0.8021 0.8024 0.8026
2493.000000 0.8028 0.8032 0.8034 0.8036 0.8038
2488.000000 0.8040 0.8041 0.8042 0.8043 0.8044
2483.000000 0.8044 0.8045 0.8046 0.8047 0.8048
2478.000000 0.8049 0.8050 0.8051 0.8051 0.8053
2473.000000 0.8054 0.8055 0.8056 0.8058 0.8060
2468.000000 0.8062 0.8065 0.8068 0.8071 0.8074
2463.000000 0.8076 0.8080 0.8082 0.8085 0.8088
2458.000000 0.8091 0.8094 0.8097 0.8099 0.8101
2453.000000 0.8103 0.8105 0.8106 0.8108 0.8108
2448.000000 0.8110 0.8111 0.8111 0.8112 0.8114
2443.000000 0.8115 0.8115 0.8117 0.8118 0.8119
2438.000000 0.8121 0.8121 0.8122 0.8124 0.8125
2433.000000 0.8125 0.8126 0.8126 0.8126 0.8126
2428.000000 0.8126 0.8126 0.8126 0.8126 0.8126
2423.000000 0.8125 0.8125 0.8125 0.8125 0.8125
2418.000000 0.8125 0.8125 0.8125 0.8125 0.8125
2413.000000 0.8125 0.8125 0.8125 0.8125 0.8125
2408.000000 0.8125 0.8124 0.8124 0.8124 0.8124
2403.000000 0.8124 0.8124 0.8122 0.8122 0.8122
2398.000000 0.8122 0.8121 0.8121 0.8121 0.8121
2393.000000 0.8121 0.8121 0.8121 0.8121 0.8121
2388.000000 0.8121 0.8119 0.8119 0.8119 0.8119
2383.000000 0.8119 0.8119 0.8119 0.8119 0.8119
2378.000000 0.8119 0.8119 0.8119 0.8119 0.8119
2373.000000 0.8119 0.8121 0.8121 0.8121 0.8121
2368.000000 0.8121 0.8121 0.8121 0.8121 0.8121
2363.000000 0.8121 0.8121 0.8121 0.8121 0.8121
2358.000000 0.8121 0.8121 0.8121 0.8119 0.8119
2353.000000 0.8119 0.8119 0.8118 0.8118 0.8118
2348.000000 0.8118 0.8118 0.8118 0.8118 0.8118
2343.000000 0.8117 0.8117 0.8117 0.8117 0.8115
2338.000000 0.8115 0.8115 0.8115 0.8115 0.8115
2333.000000 0.8115 0.8115 0.8114 0.8114 0.8114
2328.000000 0.8114 0.8112 0.8112 0.8112 0.8112
2323.000000 0.8111 0.8111 0.8111 0.8111 0.8111
2318.000000 0.8111 0.8111 0.8111 0.8111 0.8111
2313.000000 0.8111 0.8111 0.8110 0.8110 0.8110
2308.000000 0.8110 0.8110 0.8110 0.8110 0.8110
2303.000000 0.8110 0.8110 0.8110 0.8111 0.8111
2298.000000 0.8114 0.8115 0.8117 0.8118 0.8119
2293.000000 0.8121 0.8122 0.8124 0.8125 0.8126
2288.000000 0.8128 0.8130 0.8132 0.8133 0.8134
2283.000000 0.8135 0.8137 0.8138 0.8140 0.8142
2278.000000 0.8144 0.8146 0.8149 0.8151 0.8153
2273.000000 0.8155 0.8157 0.8158 0.8161 0.8162
2268.000000 0.8165 0.8167 0.8169 0.8171 0.8174
2263.000000 0.8175 0.8178 0.8180 0.8183 0.8186
2258.000000 0.8189 0.8191 0.8194 0.8196 0.8199
2253.000000 0.8202 0.8205 0.8207 0.8210 0.8213
2248.000000 0.8216 0.8218 0.8223 0.8225 0.8228
2243.000000 0.8232 0.8235 0.8238 0.8242 0.8245
2238.000000 0.8249 0.8254 0.8260 0.8265 0.8271
2233.000000 0.8277 0.8283 0.8288 0.8294 0.8299
2228.000000 0.8305 0.8310 0.8316 0.8320 0.8325
2223.000000 0.8328 0.8334 0.8338 0.8343 0.8347
2218.000000 0.8352 0.8357 0.8362 0.8366 0.8371
2213.000000 0.8375 0.8381 0.8382 0.8383 0.8383
2208.000000 0.8383 0.8383 0.8383 0.8383 0.8383
2203.000000 0.8382 0.8382 0.8378 0.8377 0.8375
2198.000000 0.8373 0.8371 0.8371 0.8371 0.8371
2193.000000 0.8371 0.8371 0.8373 0.8375 0.8377
2188.000000 0.8378 0.8381 0.8383 0.8388 0.8394
2183.000000 0.8400 0.8407 0.8413 0.8418 0.8421
2178.000000 0.8425 0.8425 0.8424 0.8421 0.8420
2173.000000 0.8416 0.8413 0.8406 0.8400 0.8393
2168.000000 0.8387 0.8382 0.8377 0.8374 0.8371
2163.000000 0.8370 0.8370 0.8370 0.8371 0.8371
2158.000000 0.8371 0.8371 0.8373 0.8374 0.8375
2153.000000 0.8375 0.8378 0.8378 0.8381 0.8382
2148.000000 0.8383 0.8384 0.8385 0.8386 0.8387
2143.000000 0.8388 0.8389 0.8389 0.8390 0.8391
2138.000000 0.8392 0.8393 0.8394 0.8394 0.8394
2133.000000 0.8394 0.8394 0.8393 0.8393 0.8392
2128.000000 0.8392 0.8391 0.8391 0.8390 0.8390
2123.000000 0.8389 0.8389 0.8388 0.8387 0.8386
2118.000000 0.8385 0.8384 0.8383 0.8382 0.8381
2113.000000 0.8380 0.8378 0.8378 0.8377 0.8375
2108.000000 0.8375 0.8374 0.8373 0.8371 0.8371
2103.000000 0.8370 0.8368 0.8368 0.8367 0.8366
2098.000000 0.8366 0.8365 0.8364 0.8363 0.8363
2093.000000 0.8362 0.8361 0.8360 0.8360 0.8361
2088.000000 0.8362 0.8363 0.8365 0.8366 0.8368
2083.000000 0.8368 0.8371 0.8373 0.8375 0.8375
2078.000000 0.8378 0.8378 0.8380 0.8381 0.8383
2073.000000 0.8384 0.8385 0.8386 0.8388 0.8389
2068.000000 0.8391 0.8392 0.8393 0.8393 0.8394
2063.000000 0.8394 0.8395 0.8395 0.8396 0.8396
2058.000000 0.8397 0.8397 0.8398 0.8398 0.8398
2053.000000 0.8398 0.8399 0.8399 0.8400 0.8400
2048.000000 0.8401 0.8401 0.8401 0.8401 0.8401
2043.000000 0.8401 0.8401 0.8400 0.8400 0.8399
2038.000000 0.8399 0.8398 0.8398 0.8397 0.8397
2033.000000 0.8396 0.8396 0.8396 0.8396 0.8395
2028.000000 0.8395 0.8394 0.8394 0.8394 0.8394
2023.000000 0.8394 0.8394 0.8394 0.8395 0.8395
2018.000000 0.8396 0.8396 0.8396 0.8396 0.8397
2013.000000 0.8397 0.8397 0.8397 0.8398 0.8398
2008.000000 0.8398 0.8398 0.8399 0.8399 0.8400
2003.000000 0.8400 0.8400 0.8400 0.8401 0.8402
1998.000000 0.8402 0.8401 0.8401 0.8401 0.8401
1993.000000 0.8401 0.8401 0.8400 0.8400 0.8400
1988.000000 0.8400 0.8400 0.8400 0.8400 0.8401
1983.000000 0.8401 0.8402 0.8403 0.8404 0.8404
1978.000000 0.8405 0.8406 0.8407 0.8407 0.8408
1973.000000 0.8409 0.8409 0.8410 0.8411 0.8412
1968.000000 0.8412 0.8413 0.8414 0.8414 0.8414
1963.000000 0.8414 0.8414 0.8413 0.8413 0.8413
1958.000000 0.8413 0.8413 0.8413 0.8412 0.8412
1953.000000 0.8412 0.8412 0.8412 0.8412 0.8412
1948.000000 0.8413 0.8413 0.8414 0.8415 0.8415
1943.000000 0.8416 0.8416 0.8417 0.8418 0.8418
1938.000000 0.8418 0.8418 0.8420 0.8420 0.8421
1933.000000 0.8421 0.8421 0.8423 0.8423 0.8424
1928.000000 0.8424 0.8425 0.8425 0.8425 0.8427
1923.000000 0.8427 0.8428 0.8428 0.8428 0.8430
1918.000000 0.8430 0.8431 0.8431 0.8430 0.8430
1913.000000 0.8428 0.8428 0.8428 0.8427 0.8427
1908.000000 0.8425 0.8425 0.8425 0.8425 0.8424
1903.000000 0.8423 0.8423 0.8421 0.8421 0.8421
1898.000000 0.8421 0.8421 0.8421 0.8423 0.8425
1893.000000 0.8427 0.8428 0.8431 0.8433 0.8434
1888.000000 0.8436 0.8438 0.8440 0.8442 0.8443
1883.000000 0.8444 0.8444 0.8445 0.8445 0.8446
1878.000000 0.8446 0.8447 0.8447 0.8447 0.8448
1873.000000 0.8448 0.8449 0.8449 0.8449 0.8448
1868.000000 0.8448 0.8448 0.8448 0.8448 0.8448
1863.000000 0.8447 0.8447 0.8447 0.8447 0.8447
1858.000000 0.8447 0.8446 0.8446 0.8446 0.8446
1853.000000 0.8446 0.8446 0.8446 0.8445 0.8443
1848.000000 0.8441 0.8439 0.8436 0.8434 0.8432
1843.000000 0.8428 0.8427 0.8425 0.8421 0.8420
1838.000000 0.8417 0.8414 0.8410 0.8406 0.8403
1833.000000 0.8399 0.8395 0.8392 0.8388 0.8384
1828.000000 0.8381 0.8377 0.8371 0.8367 0.8361
1823.000000 0.8356 0.8351 0.8346 0.8340 0.8335
1818.000000 0.8325 0.8316 0.8306 0.8297 0.8289
1813.000000 0.8281 0.8273 0.8265 0.8255 0.8243
1808.000000 0.8234 0.8224 0.8215 0.8206 0.8197
1803.000000 0.8188 0.8178 0.8168 0.8160 0.8150
1798.000000 0.8139 0.8128 0.8118 0.8107 0.8097
1793.000000 0.8086 0.8075 0.8065 0.8051 0.8036
1788.000000 0.8019 0.8005 0.7989 0.7972 0.7957
1783.000000 0.7941 0.7924 0.7907 0.7890 0.7871
1778.000000 0.7855 0.7838 0.7821 0.7804 0.7778
1773.000000 0.7754 0.7728 0.7703 0.7678 0.7647
1768.000000 0.7608 0.7571 0.7534 0.7497 0.7448
1763.000000 0.7399 0.7349 0.7300 0.7205 0.7097
1758.000000 0.6972 0.6846 0.6584 0.6373 0.6166
1753.000000 0.5935 0.5574 0.4975 0.4446 0.4225
1748.000000 0.4005 0.3784 0.3564 0.3344 0.3124
1743.000000 0.2903 0.2683 0.2462 0.2242 0.2022
1738.000000 0.1812 0.1757 0.1732 0.1716 0.1707
1733.000000 0.1703 0.1702 0.1701 0.1708 0.1717
1728.000000 0.1728 0.1745 0.1777 0.1881 0.1976
1723.000000 0.2064 0.2191 0.2426 0.2520 0.2616
1718.000000 0.2716 0.2764 0.2804 0.2837 0.2870
1713.000000 0.2903 0.2940 0.2980 0.3020 0.3063
1708.000000 0.3126 0.3189 0.3252 0.3314 0.3408
1703.000000 0.3528 0.3649 0.3939 0.4160 0.4383
1698.000000 0.4606 0.4828 0.5050 0.5272 0.5494
1693.000000 0.5712 0.5840 0.5969 0.6105 0.6242
1688.000000 0.6421 0.6603 0.6717 0.6832 0.6919
1683.000000 0.6992 0.7065 0.7136 0.7206 0.7275
1678.000000 0.7322 0.7367 0.7411 0.7456 0.7496
1673.000000 0.7526 0.7558 0.7585 0.7611 0.7636
1668.000000 0.7661 0.7688 0.7714 0.7735 0.7757
1663.000000 0.7778 0.7799 0.7821 0.7838 0.7855
1658.000000 0.7871 0.7890 0.7907 0.7922 0.7938
1653.000000 0.7953 0.7967 0.7982 0.7996 0.8011
1648.000000 0.8021 0.8032 0.8042 0.8051 0.8061
1643.000000 0.8071 0.8076 0.8081 0.8084 0.8088
1638.000000 0.8091 0.8095 0.8099 0.8101 0.8106
1633.000000 0.8108 0.8110 0.8111 0.8112 0.8114
1628.000000 0.8115 0.8117 0.8118 0.8119 0.8121
1623.000000 0.8122 0.8124 0.8125 0.8126 0.8128
1618.000000 0.8130 0.8131 0.8131 0.8132 0.8133
1613.000000 0.8133 0.8134 0.8134 0.8135 0.8135
1608.000000 0.8136 0.8136 0.8137 0.8138 0.8138
1603.000000 0.8139 0.8139 0.8140 0.8140 0.8141
1598.000000 0.8141 0.8142 0.8143 0.8143 0.8144
1593.000000 0.8144 0.8145 0.8145 0.8146 0.8146
1588.000000 0.8147 0.8148 0.8148 0.8149 0.8150
1583.000000 0.8150 0.8151 0.8151 0.8153 0.8153
1578.000000 0.8154 0.8155 0.8155 0.8156 0.8157
1573.000000 0.8158 0.8158 0.8158 0.8160 0.8160
1568.000000 0.8161 0.8161 0.8161 0.8161 0.8161
1563.000000 0.8161 0.8161 0.8162 0.8162 0.8162
1558.000000 0.8162 0.8162 0.8162 0.8162 0.8161
1553.000000 0.8161 0.8160 0.8158 0.8158 0.8157
1548.000000 0.8156 0.8155 0.8154 0.8153 0.8151
1543.000000 0.8151 0.8149 0.8147 0.8146 0.8144
1538.000000 0.8142 0.8140 0.8138 0.8137 0.8135
1533.000000 0.8133 0.8131 0.8128 0.8125 0.8121
1528.000000 0.8118 0.8115 0.8112 0.8110 0.8105
1523.000000 0.8100 0.8095 0.8090 0.8085 0.8080
1518.000000 0.8075 0.8069 0.8061 0.8051 0.8042
1513.000000 0.8033 0.8022 0.8014 0.8001 0.7987
1508.000000 0.7972 0.7958 0.7945 0.7931 0.7915
1503.000000 0.7900 0.7878 0.7855 0.7833 0.7804
1498.000000 0.7772 0.7741 0.7710 0.7678 0.7641
1493.000000 0.7597 0.7553 0.7508 0.7458 0.7406
1488.000000 0.7354 0.7274 0.7187 0.7076 0.6630
1483.000000 0.6436 0.6295 0.6093 0.5620 0.5053
1478.000000 0.4486 0.3918 0.3350 0.2783 0.2447
1473.000000 0.2441 0.2432 0.2437 0.2464 0.2715
1468.000000 0.3081 0.3448 0.3814 0.4181 0.4344
1463.000000 0.4422 0.4498 0.4558 0.4606 0.4653
1458.000000 0.4731 0.4821 0.4909 0.4997 0.5068
1453.000000 0.5153 0.5238 0.5323 0.5408 0.5493
1448.000000 0.5578 0.5662 0.5748 0.5832 0.5909
1443.000000 0.5938 0.5960 0.5976 0.5990 0.6007
1438.000000 0.6002 0.5999 0.5995 0.5978 0.5960
1433.000000 0.5936 0.5888 0.5838 0.5750 0.5637
1428.000000 0.5488 0.5323 0.5159 0.4994 0.4873
1423.000000 0.4827 0.4802 0.4766 0.4788 0.4790
1418.000000 0.4891 0.5010 0.5130 0.5249 0.5368
1413.000000 0.5488 0.5607 0.5726 0.5846 0.5899
1408.000000 0.5922 0.5966 0.5942 0.5945 0.5947
1403.000000 0.5942 0.5919 0.5819 0.5669 0.5477
1398.000000 0.5395 0.5328 0.5272 0.5247 0.5231
1393.000000 0.5224 0.5223 0.5221 0.5220 0.5228
1388.000000 0.5240 0.5255 0.5270 0.5279 0.5280
1383.000000 0.5272 0.5260 0.5256 0.5253 0.5251
1378.000000 0.5260 0.5298 0.5345 0.5407 0.5480
1373.000000 0.5539 0.5592 0.5643 0.5667 0.5691
1368.000000 0.5714 0.5734 0.5754 0.5774 0.5794
1363.000000 0.5814 0.5837 0.5860 0.5886 0.5910
1358.000000 0.5933 0.5956 0.5978 0.5995 0.6010
1353.000000 0.6027 0.6050 0.6059 0.6060 0.6042
1348.000000 0.6022 0.6005 0.5990 0.5983 0.5966
1343.000000 0.5986 0.5991 0.6000 0.6010 0.6030
1338.000000 0.6050 0.6069 0.6089 0.6108 0.6160
1333.000000 0.6131 0.6081 0.6034 0.5988 0.5956
1328.000000 0.5928 0.5928 0.5928 0.5928 0.5938
1323.000000 0.5949 0.5958 0.5965 0.5969 0.5957
1318.000000 0.5924 0.5844 0.5751 0.5651 0.5586
1313.000000 0.5540 0.5504 0.5475 0.5462 0.5462
1308.000000 0.5462 0.5462 0.5460 0.5472 0.5502
1303.000000 0.5534 0.5574 0.5614 0.5653 0.5691
1298.000000 0.5718 0.5738 0.5753 0.5762 0.5762
1293.000000 0.5762 0.5755 0.5737 0.5700 0.5660
1288.000000 0.5631 0.5606 0.5541 0.5562 0.5549
1283.000000 0.5553 0.5585 0.5635 0.5675 0.5710
1278.000000 0.5741 0.5764 0.5762 0.5759 0.5738
1273.000000 0.5695 0.5638 0.5559 0.5466 0.5383
1268.000000 0.5292 0.5229 0.5193 0.5185 0.5182
1263.000000 0.5179 0.5205 0.5262 0.5315 0.5392
1258.000000 0.5454 0.5490 0.5490 0.5489 0.5473
1253.000000 0.5462 0.5457 0.5458 0.5458 0.5459
1248.000000 0.5454 0.5409 0.5355 0.5276 0.5212
1243.000000 0.5160 0.5180 0.5179 0.5192 0.5262
1238.000000 0.5309 0.5333 0.5352 0.5365 0.5412
1233.000000 0.5460 0.5491 0.5521 0.5541 0.5548
1228.000000 0.5599 0.5448 0.5298 0.5147 0.4997
1223.000000 0.4847 0.4697 0.4499 0.4524 0.4597
1218.000000 0.4685 0.4773 0.4860 0.4948 0.5036
1213.000000 0.5124 0.5212 0.5300 0.5388 0.5578
1208.000000 0.5562 0.5574 0.5427 0.5188 0.4950
1203.000000 0.4712 0.4474 0.3994 0.3994 0.3994
1198.000000 0.4018 0.4139 0.4260 0.4381 0.4502
1193.000000 0.4623 0.4744 0.4826 0.4835 0.4707
1188.000000 0.4480 0.4254 0.4027 0.3800 0.3575
1183.000000 0.3552 0.3539 0.3580 0.3662 0.3744
1178.000000 0.3826 0.3908 0.3991 0.4073 0.4155
1173.000000 0.4237 0.4320 0.4402 0.4484 0.4566
1168.000000 0.4648 0.4731 0.4812 0.4895 0.4977
1163.000000 0.5059 0.5142 0.5225 0.5310 0.5395
1158.000000 0.5475 0.5534 0.5592 0.5640 0.5686
1153.000000 0.5734 0.5780 0.5818 0.5845 0.5875
1148.000000 0.5860 0.5868 0.5871 0.5870 0.5852
1143.000000 0.5830 0.5795 0.5760 0.5703 0.5646
1138.000000 0.5580 0.5521 0.5474 0.5475 0.5467
1133.000000 0.5470 0.5481 0.5494 0.5510 0.5535
1128.000000 0.5560 0.5585 0.5612 0.5645 0.5677
1123.000000 0.5709 0.5740 0.5769 0.5799 0.5824
1118.000000 0.5843 0.5862 0.5871 0.5878 0.5885
1113.000000 0.5890 0.5901 0.5900 0.5899 0.5900
1108.000000 0.5891 0.5872 0.5844 0.5794 0.5736
1103.000000 0.5712 0.5703 0.5696 0.5675 0.5710
1098.000000 0.5734 0.5756 0.5790 0.5826 0.5877
1093.000000 0.5953 0.6079 0.6214 0.6354 0.6494
1088.000000 0.6634 0.6772 0.6871 0.6912 0.6937
1083.000000 0.6961 0.6975 0.7006 0.6991 0.6994
1078.000000 0.6986 0.6975 0.6964 0.6944 0.6924
1073.000000 0.6904 0.6881 0.6858 0.6835 0.6797
1068.000000 0.6754 0.6710 0.6668 0.6634 0.6592
1063.000000 0.6539 0.6408 0.6134 0.6178 0.6127
1058.000000 0.6145 0.6210 0.6277 0.6343 0.6408
1053.000000 0.6460 0.6514 0.6489 0.6415 0.6319
1048.000000 0.6223 0.6126 0.6029 0.6020 0.6022
1043.000000 0.6043 0.6112 0.6204 0.6307 0.6415
1038.000000 0.6522 0.6630 0.6738 0.6846 0.6933
1033.000000 0.6958 0.6982 0.7007 0.7032 0.7057
1028.000000 0.7081 0.7106 0.7130 0.7151 0.7172
1023.000000 0.7195 0.7217 0.7236 0.7254 0.7271
1018.000000 0.7284 0.7290 0.7293 0.7288 0.7283
1013.000000 0.7280 0.7278 0.7275 0.7272 0.7271
1008.000000 0.7271 0.7271 0.7271 0.7271 0.7271
1003.000000 0.7276 0.7281 0.7286 0.7290 0.7295
998.000000 0.7299 0.7303 0.7306 0.7307 0.7307
993.000000 0.7298 0.7288 0.7269 0.7244 0.7208
988.000000 0.7171 0.7150 0.7149 0.7149 0.7158
983.000000 0.7181 0.7205 0.7235 0.7265 0.7291
978.000000 0.7317 0.7342 0.7368 0.7395 0.7408
973.000000 0.7421 0.7430 0.7433 0.7433 0.7425
968.000000 0.7410 0.7387 0.7349 0.7306 0.7267
963.000000 0.7234 0.7204 0.7154 0.7186 0.7217
958.000000 0.7297 0.7401 0.7475 0.7491 0.7495
953.000000 0.7501 0.7497 0.7490 0.7481 0.7424
948.000000 0.7358 0.7247 0.7125 0.7005 0.6884
943.000000 0.6761 0.6641 0.6519 0.6448 0.6421
938.000000 0.6440 0.6439 0.6451 0.6471 0.6500
933.000000 0.6537 0.6584 0.6631 0.6688 0.6758
928.000000 0.6842 0.6942 0.7041 0.7141 0.7240
923.000000 0.7340 0.7439 0.7536 0.7564 0.7593
918.000000 0.7621 0.7653 0.7664 0.7672 0.7675
913.000000 0.7675 0.7675 0.7687 0.7703 0.7719
908.000000 0.7746 0.7771 0.7799 0.7825 0.7851
903.000000 0.7880 0.7910 0.7939 0.7964 0.7990
898.000000 0.8008 0.8024 0.8031 0.8037 0.8050
893.000000 0.8044 0.8046 0.8041 0.8036 0.8014
888.000000 0.7985 0.7946 0.7910 0.7878 0.7853
883.000000 0.7841 0.7826 0.7808 0.7774 0.7734
878.000000 0.7675 0.7608 0.7525 0.7457 0.7418
873.000000 0.7364 0.7387 0.7375 0.7371 0.7404
868.000000 0.7458 0.7558 0.7614 0.7669 0.7726
863.000000 0.7783 0.7839 0.7896 0.7951 0.8008
858.000000 0.8050 0.8075 0.8086 0.8094 0.8099
853.000000 0.8105 0.8108 0.8111 0.8101 0.8072
848.000000 0.8046 0.8028 0.8025 0.8032 0.8069
843.000000 0.8110 0.8149 0.8183 0.8217 0.8251
838.000000 0.8284 0.8317 0.8350 0.8391 0.8413
833.000000 0.8435 0.8435 0.8435 0.8437 0.8441
828.000000 0.8445 0.8449 0.8455 0.8465 0.8475
823.000000 0.8485 0.8495 0.8504 0.8508 0.8508
818.000000 0.8505 0.8497 0.8485 0.8514 0.8454
813.000000 0.8436 0.8416 0.8389 0.8365 0.8349
808.000000 0.8351 0.8354 0.8364 0.8386 0.8408
803.000000 0.8425 0.8440 0.8453 0.8467 0.8480
798.000000 0.8492 0.8501 0.8511 0.8513 0.8507
793.000000 0.8517 0.8515 0.8512 0.8510 0.8503
788.000000 0.8495 0.8473 0.8444 0.8414 0.8342
783.000000 0.8249 0.8156 0.8062 0.7969 0.7968
778.000000 0.8003 0.8053 0.8104 0.8155 0.8206
773.000000 0.8257 0.8308 0.8352 0.8363 0.8364
768.000000 0.8361 0.8330 0.8301 0.8273 0.8241
763.000000 0.8202 0.8164 0.8128 0.8091 0.8044
758.000000 0.8018 0.8012 0.8011 0.8011 0.8018
753.000000 0.8021 0.8026 0.8031 0.8034 0.8036
748.000000 0.8037 0.8025 0.8007 0.7983 0.7960
743.000000 0.7930 0.7898 0.7851 0.7790 0.7732
738.000000 0.7607 0.7485 0.7481 0.7472 0.7462
733.000000 0.7445 0.7424 0.7401 0.7358 0.7285
728.000000 0.7210 0.7082 0.6860 0.6471 0.6084
723.000000 0.5696 0.5308 0.4920 0.4532 0.4305
718.000000 0.4278 0.4295 0.4698 0.5195 0.5692
713.000000 0.6190 0.6528 0.6639 0.6771 0.6892
708.000000 0.7025 0.7154 0.7235 0.7311 0.7378
703.000000 0.7441 0.7476 0.7511 0.7549 0.7587
698.000000 0.7622 0.7653 0.7682 0.7711 0.7741
693.000000 0.7769 0.7796 0.7812 0.7830 0.7848
688.000000 0.7865 0.7886 0.7906 0.7911 0.7911
683.000000 0.7912 0.7914 0.7914 0.7914 0.7915
678.000000 0.7915 0.7915 0.7917 0.7918 0.7919
673.000000 0.7921 0.7921 0.7921 0.7921 0.7921
668.000000 0.7921 0.7921 0.7922 0.7924 0.7936
663.000000 0.7957 0.7976 0.7996 0.8015 0.8028
658.000000 0.8041 0.8053 0.8061 0.8068 0.8076
653.000000 0.8085 0.8093 0.8101 0.8108 0.8085
648.000000 0.8111 0.8110 0.8108 0.8107 0.8104
643.000000 0.8100 0.8096 0.8091 0.8087 0.8082
638.000000 0.8075 0.8067 0.8058 0.8051 0.8043
633.000000 0.8036 0.8028 0.8018 0.8008 0.7997
628.000000 0.7985 0.7974 0.7962 0.7951 0.7940
623.000000 0.7928 0.7915 0.7903 0.7890 0.7878
618.000000 0.7865 0.7851 0.7837 0.7821 0.7807
613.000000 0.7792 0.7776 0.7761 0.7747 0.7732
608.000000 0.7718 0.7703 0.7688 0.7672 0.7658
603.000000 0.7643 0.7628 0.7611 0.7595 0.7578
598.000000 0.7561 0.7546 0.7528 0.7508 0.7488
593.000000 0.7467 0.7447 0.7425 0.7406 0.7386
588.000000 0.7367 0.7348 0.7328 0.7311 0.7292
583.000000 0.7274 0.7258 0.7245 0.7240 0.7236
578.000000 0.7235 0.7234 0.7234 0.7234 0.7234
573.000000 0.7235 0.7235 0.7236 0.7236 0.7237
568.000000 0.7239 0.7240 0.7241 0.7242 0.7242
563.000000 0.7239 0.7236 0.7228 0.7221 0.7212
558.000000 0.7205 0.7197 0.7189 0.7181 0.7175
553.000000 0.7168 0.7161 0.7157 0.7153 0.7148
548.000000 0.7145 0.7141 0.7139 0.7135 0.7133
543.000000 0.7131 0.7130 0.7134 0.7148 0.7171
538.000000 0.7200 0.7212 0.7228 0.7239 0.7250
533.000000 0.7260 0.7271 0.7281 0.7292 0.7301
528.000000 0.7312 0.7322 0.7334 0.7344 0.7355
523.000000 0.7365 0.7375 0.7386 0.7397 0.7407
518.000000 0.7418 0.7428 0.7437 0.7446 0.7454
513.000000 0.7461 0.7471 0.7478 0.7488 0.7496
508.000000 0.7504 0.7511 0.7519 0.7528 0.7536
503.000000 0.7544 0.7551 0.7560 0.7568 0.7571
498.000000 0.7571 0.7574 0.7575 0.7575 0.7576
493.000000 0.7578 0.7578 0.7578 0.7576 0.7575
488.000000 0.7572 0.7571 0.7568 0.7567 0.7565
483.000000 0.7562 0.7561 0.7560 0.7558 0.7557
478.000000 0.7556 0.7555 0.7554 0.7554 0.7554
473.000000 0.7560 0.7565 0.7571 0.7576 0.7583
468.000000 0.7588 0.7594 0.7600 0.7606 0.7611
463.000000 0.7618 0.7624 0.7631 0.7637 0.7643
458.000000 0.7649 0.7656 0.7661 0.7668 0.7675
453.000000 0.7683 0.7691 0.7699 0.7706 0.7714
448.000000 0.7721 0.7728 0.7737 0.7745 0.7753
443.000000 0.7760 0.7768 0.7775 0.7784 0.7792
438.000000 0.7800 0.7807 0.7815 0.7822 0.7830
433.000000 0.7836 0.7842 0.7847 0.7853 0.7858
428.000000 0.7865 0.7871 0.7875 0.7882 0.7887
423.000000 0.7892 0.7897 0.7903 0.7907 0.7911
418.000000 0.7917 0.7921 0.7925 0.7931 0.7934
413.000000 0.7936 0.7939 0.7941 0.7944 0.7947
408.000000 0.7949 0.7951 0.7954 0.7955 0.7956
403.000000 0.7957 0.7958 0.7958 0.7958 0.7960
398.000000 0.7960 0.7960 0.7960 0.7961 0.7964
##END=
