##TITLE=Acetic acid, Isoamyl ester
##JCAMP-DX=4.24
##DATA TYPE=INFRARED SPECTRUM
##CLASS=COBLENTZ III
##ORIGIN=DOW CHEMICAL COMPANY
##OWNER=Copyright (C) 1987 by the Coblentz Society
Collection (C) 2018 copyright by the U.S. Secretary of Commerce
on behalf of the United States of America. All rights reserved.
##DATE=1958/10/23
##NAMES=isopentyl acetate
Acetic acid, Isopentyl ester
##CAS REGISTRY NO=123-92-2
##MOLFORM=C7 H14 O2
##SOURCE REFERENCE=COBLENTZ NO. 8190
##$NIST SOURCE=COBLENTZ
##$NIST IMAGE=cob8190
##SPECTROMETER/DATA SYSTEM=DOW KBr FOREPRISM-GRATING
##INSTRUMENT PARAMETERS=BLAZED AT 3.5, 12.0, 20.0 MICRON AND CHANGED AT 5.0, 7.5, 14.9 MICRON
##STATE=SOLUTION (10% CCl4 FOR 3800-1330, 10% CS2 FOR 1330-400 CM^-^1)
##PATH LENGTH=0.011 CM, 0.011 CM
$$SPECTRAL CONTAMINATION DUE TO CS2 AROUND 855 AND CCl4 AROUND 1550 CM^-^1
$$ SPECTRAL FEATURE AT 1995 CM^-^1 IS PROBABLY AN ARTIFACT CAUSED BY GRATING CHANGE
##SAMPLING PROCEDURE=TRANSMISSION
##RESOLUTION=2
##DATA PROCESSING=DIGITIZED BY COBLENTZ SOCIETY (BATCH II) FROM HARD COPY
##XUNITS=1/CM
##YUNITS=TRANSMITTANCE
##XFACTOR=1.0
##YFACTOR=1
##FIRSTX=454
##LASTX=3756
##FIRSTY=0.8587
##MAXX=3756
##MINX=454
##MAXY=0.9512
##MINY=0.005
##NPOINTS=3303
##XYDATA=(X++(Y..Y))
454.000000 0.8587 0.8598 0.8608 0.8620 0.8633
459.000000 0.8646 0.8660 0.8672 0.8680 0.8682
464.000000 0.8682 0.8678 0.8674 0.8670 0.8665
469.000000 0.8659 0.8653 0.8643 0.8633 0.8623
474.000000 0.8610 0.8596 0.8581 0.8567 0.8554
479.000000 0.8541 0.8530 0.8523 0.8519 0.8527
484.000000 0.8547 0.8579 0.8619 0.8672 0.8729
489.000000 0.8792 0.8864 0.8920 0.8972 0.9006
494.000000 0.9012 0.9019 0.9025 0.9024 0.9022
499.000000 0.9021 0.9018 0.9010 0.9003 0.8995
504.000000 0.8982 0.8965 0.8949 0.8931 0.8908
509.000000 0.8885 0.8861 0.8835 0.8806 0.8782
514.000000 0.8781 0.8780 0.8786 0.8797 0.8816
519.000000 0.8836 0.8876 0.8940 0.8997 0.9032
524.000000 0.9067 0.9094 0.9115 0.9135 0.9146
529.000000 0.9156 0.9163 0.9169 0.9176 0.9179
534.000000 0.9182 0.9185 0.9189 0.9175 0.9170
539.000000 0.9165 0.9161 0.9156 0.9152 0.9148
544.000000 0.9144 0.9140 0.9138 0.9144 0.9154
549.000000 0.9164 0.9175 0.9186 0.9197 0.9209
554.000000 0.9220 0.9220 0.9220 0.9219 0.9217
559.000000 0.9216 0.9214 0.9211 0.9208 0.9205
564.000000 0.9202 0.9197 0.9192 0.9186 0.9181
569.000000 0.9175 0.9170 0.9165 0.9158 0.9152
574.000000 0.9146 0.9140 0.9134 0.9119 0.9103
579.000000 0.9088 0.9073 0.9047 0.9006 0.8958
584.000000 0.8944 0.8931 0.8920 0.8910 0.8897
589.000000 0.8832 0.8746 0.8654 0.8553 0.8415
594.000000 0.8312 0.8211 0.8122 0.7797 0.6564
599.000000 0.5756 0.5759 0.5734 0.5944 0.6331
604.000000 0.6718 0.7106 0.7493 0.7762 0.7912
609.000000 0.8078 0.8209 0.8328 0.8479 0.8571
614.000000 0.8607 0.8617 0.8617 0.8646 0.8613
619.000000 0.8604 0.8594 0.8576 0.8558 0.8519
624.000000 0.8471 0.8421 0.8352 0.8229 0.8082
629.000000 0.7937 0.7604 0.7587 0.7632 0.7698
634.000000 0.7698 0.7730 0.7686 0.7677 0.7668
639.000000 0.7659 0.7677 0.7736 0.7802 0.7857
644.000000 0.7918 0.7981 0.8029 0.8074 0.8103
649.000000 0.8126 0.8142 0.8157 0.8171 0.8379
654.000000 0.8423 0.8461 0.8501 0.8542 0.8570
659.000000 0.8593 0.8617 0.8653 0.8690 0.8773
664.000000 0.8823 0.8841 0.8852 0.8862 0.8868
669.000000 0.8873 0.8879 0.8885 0.8891 0.8898
674.000000 0.8904 0.8911 0.8918 0.8925 0.8932
679.000000 0.8938 0.8944 0.8944 0.8944 0.8943
684.000000 0.8943 0.8943 0.8943 0.8943 0.8942
689.000000 0.8942 0.8942 0.8942 0.8941 0.8941
694.000000 0.8941 0.8941 0.8947 0.8940 0.8940
699.000000 0.8940 0.8940 0.8939 0.8939 0.8939
704.000000 0.8939 0.8938 0.8938 0.8938 0.8938
709.000000 0.8938 0.8937 0.8937 0.8937 0.8937
714.000000 0.8936 0.8936 0.8936 0.8936 0.8936
719.000000 0.8935 0.8935 0.8935 0.8935 0.8934
724.000000 0.8934 0.8934 0.8934 0.8934 0.8933
729.000000 0.8933 0.8933 0.8933 0.8932 0.8932
734.000000 0.8932 0.8932 0.8931 0.8927 0.8923
739.000000 0.8919 0.8914 0.8910 0.8905 0.8900
744.000000 0.8891 0.8874 0.8852 0.8826 0.8800
749.000000 0.8768 0.8740 0.8713 0.8687 0.8663
754.000000 0.8643 0.8624 0.8609 0.8596 0.8581
759.000000 0.8552 0.8510 0.8465 0.8429 0.8417
764.000000 0.8405 0.8402 0.8395 0.8409 0.8420
769.000000 0.8430 0.8441 0.8464 0.8487 0.8513
774.000000 0.8540 0.8569 0.8602 0.8629 0.8648
779.000000 0.8664 0.8673 0.8682 0.8691 0.8694
784.000000 0.8690 0.8696 0.8689 0.8683 0.8675
789.000000 0.8666 0.8657 0.8636 0.8613 0.8590
794.000000 0.8567 0.8544 0.8518 0.8492 0.8466
799.000000 0.8437 0.8399 0.8361 0.8319 0.8270
804.000000 0.8221 0.8158 0.8031 0.7907 0.7801
809.000000 0.7727 0.7652 0.7575 0.7491 0.7405
814.000000 0.7362 0.7355 0.7374 0.7387 0.7489
819.000000 0.7632 0.7775 0.7918 0.8061 0.8206
824.000000 0.8283 0.8307 0.8322 0.8333 0.8334
829.000000 0.8312 0.8324 0.8313 0.8295 0.8277
834.000000 0.8249 0.8220 0.8183 0.8144 0.8098
839.000000 0.8051 0.7994 0.7927 0.7843 0.7749
844.000000 0.7656 0.7564 0.7485 0.7406 0.7312
849.000000 0.7206 0.7080 0.6907 0.6760 0.6757
854.000000 0.6759 0.6772 0.6803 0.6860 0.6928
859.000000 0.6992 0.7056 0.7139 0.7219 0.7296
864.000000 0.7360 0.7420 0.7466 0.7485 0.7503
869.000000 0.7511 0.7518 0.7526 0.7532 0.7539
874.000000 0.7548 0.7563 0.7577 0.7616 0.7659
879.000000 0.7701 0.7743 0.7786 0.7829 0.7853
884.000000 0.7867 0.7871 0.7874 0.7874 0.7867
889.000000 0.7856 0.7835 0.7792 0.7732 0.7681
894.000000 0.7616 0.7606 0.7606 0.7610 0.7624
899.000000 0.7642 0.7698 0.7764 0.7824 0.7850
904.000000 0.7867 0.7872 0.7875 0.7872 0.7869
909.000000 0.7866 0.7853 0.7838 0.7818 0.7785
914.000000 0.7707 0.7619 0.7541 0.7393 0.7383
919.000000 0.7404 0.7435 0.7479 0.7510 0.7531
924.000000 0.7551 0.7565 0.7579 0.7597 0.7614
929.000000 0.7675 0.7779 0.7861 0.7913 0.7934
934.000000 0.7935 0.7932 0.7955 0.7918 0.7909
939.000000 0.7887 0.7854 0.7807 0.7735 0.7659
944.000000 0.7583 0.7507 0.7430 0.7349 0.7200
949.000000 0.6967 0.6721 0.6490 0.6488 0.6336
954.000000 0.6143 0.5950 0.5757 0.5608 0.5598
959.000000 0.5612 0.5795 0.5992 0.6190 0.6259
964.000000 0.6261 0.6209 0.6122 0.6035 0.5977
969.000000 0.5977 0.6088 0.6293 0.6413 0.6636
974.000000 0.6749 0.6833 0.6913 0.6980 0.7043
979.000000 0.7105 0.7158 0.7187 0.7191 0.7193
984.000000 0.7186 0.7185 0.7174 0.7151 0.7115
989.000000 0.7074 0.7027 0.6968 0.6888 0.6812
994.000000 0.6740 0.6673 0.6620 0.6567 0.6514
999.000000 0.6396 0.6211 0.6025 0.5840 0.5655
1004.000000 0.4750 0.4562 0.4407 0.4286 0.4165
1009.000000 0.4029 0.3892 0.3756 0.3619 0.3546
1014.000000 0.3477 0.3392 0.3201 0.2843 0.2692
1019.000000 0.2595 0.2513 0.2431 0.2332 0.2246
1024.000000 0.2180 0.2142 0.2122 0.2114 0.2111
1029.000000 0.2107 0.2104 0.2100 0.2097 0.2094
1034.000000 0.2092 0.2090 0.2088 0.2083 0.2076
1039.000000 0.2055 0.2003 0.1939 0.1855 0.1787
1044.000000 0.1672 0.1539 0.1427 0.1316 0.1204
1049.000000 0.1064 0.0910 0.0876 0.0880 0.0894
1054.000000 0.0955 0.1171 0.1433 0.1695 0.1957
1059.000000 0.2219 0.2571 0.3092 0.3365 0.3639
1064.000000 0.3912 0.4186 0.4356 0.4448 0.4641
1069.000000 0.4753 0.4928 0.5786 0.6132 0.6283
1074.000000 0.6415 0.6532 0.6640 0.6735 0.6823
1079.000000 0.6890 0.6957 0.7024 0.7086 0.7148
1084.000000 0.7210 0.7260 0.7305 0.7351 0.7399
1089.000000 0.7439 0.7475 0.7511 0.7542 0.7571
1094.000000 0.7599 0.7613 0.7623 0.7632 0.7642
1099.000000 0.7641 0.7639 0.7653 0.7622 0.7590
1104.000000 0.7543 0.7499 0.7463 0.7427 0.7384
1109.000000 0.7324 0.7282 0.7258 0.7253 0.7248
1114.000000 0.7246 0.7246 0.7253 0.7260 0.7310
1119.000000 0.7348 0.7359 0.7361 0.7354 0.7339
1124.000000 0.7310 0.7261 0.7186 0.7100 0.6997
1129.000000 0.6913 0.6864 0.6843 0.6839 0.6847
1134.000000 0.6874 0.6932 0.7003 0.7024 0.7034
1139.000000 0.7042 0.7053 0.7066 0.7082 0.7104
1144.000000 0.7127 0.7145 0.7162 0.7173 0.7174
1149.000000 0.7171 0.7187 0.7154 0.7142 0.7112
1154.000000 0.7082 0.7044 0.7007 0.6957 0.6906
1159.000000 0.6825 0.6733 0.6631 0.6247 0.5954
1164.000000 0.5661 0.5368 0.5074 0.5043 0.5041
1169.000000 0.5755 0.6510 0.6649 0.6773 0.6938
1174.000000 0.7015 0.7068 0.7103 0.7110 0.7117
1179.000000 0.7120 0.7117 0.7112 0.7097 0.7069
1184.000000 0.7033 0.6983 0.6932 0.6883 0.6834
1189.000000 0.6773 0.6700 0.6606 0.6424 0.6269
1194.000000 0.6127 0.5986 0.5845 0.5703 0.5451
1199.000000 0.5320 0.4882 0.4674 0.4420 0.3708
1204.000000 0.3482 0.2939 0.2655 0.2508 0.2354
1209.000000 0.2128 0.1835 0.1502 0.1156 0.0856
1214.000000 0.0632 0.0475 0.0342 0.0217 0.0158
1219.000000 0.0106 0.0069 0.0052 0.0055 0.0055
1224.000000 0.0055 0.0056 0.0056 0.0056 0.0058
1229.000000 0.0059 0.0060 0.0062 0.0064 0.0066
1234.000000 0.0050 0.0070 0.0072 0.0075 0.0077
1239.000000 0.0079 0.0083 0.0087 0.0092 0.0096
1244.000000 0.0102 0.0109 0.0116 0.0124 0.0139
1249.000000 0.0181 0.0255 0.0350 0.0450 0.0588
1254.000000 0.0709 0.0871 0.0980 0.1114 0.1341
1259.000000 0.1464 0.1561 0.1635 0.1700 0.1759
1264.000000 0.1805 0.1843 0.1882 0.1919 0.1955
1269.000000 0.2018 0.2173 0.2259 0.2389 0.2703
1274.000000 0.3074 0.3151 0.3353 0.3562 0.3771
1279.000000 0.3981 0.4190 0.4399 0.4608 0.4817
1284.000000 0.5027 0.5236 0.5445 0.5639 0.5728
1289.000000 0.5835 0.5993 0.6039 0.6086 0.6112
1294.000000 0.6124 0.6124 0.6122 0.6114 0.6091
1299.000000 0.6062 0.6046 0.6041 0.6050 0.6066
1304.000000 0.6093 0.6159 0.6246 0.6329 0.6411
1309.000000 0.6526 0.6667 0.6814 0.6974 0.7088
1314.000000 0.7118 0.7143 0.7148 0.7153 0.7154
1319.000000 0.7150 0.7146 0.7135 0.7117 0.7097
1324.000000 0.7076 0.7053 0.7033 0.7024 0.7017
1329.000000 0.7022 0.7027 0.7032 0.7036 0.7041
1334.000000 0.7042 0.7038 0.7013 0.6989 0.6962
1339.000000 0.6933 0.6903 0.6868 0.6832 0.6812
1344.000000 0.6796 0.6781 0.6769 0.6714 0.6628
1349.000000 0.6555 0.6352 0.6217 0.5397 0.4994
1354.000000 0.4797 0.4651 0.4512 0.4394 0.3881
1359.000000 0.3026 0.2170 0.0606 0.0486 0.0455
1364.000000 0.0455 0.0455 0.0464 0.0499 0.0584
1369.000000 0.1311 0.2447 0.3091 0.3305 0.3796
1374.000000 0.3908 0.3958 0.3965 0.3983 0.3960
1379.000000 0.3822 0.3577 0.3331 0.3086 0.2797
1384.000000 0.2665 0.2665 0.2638 0.2733 0.2779
1389.000000 0.3077 0.3414 0.3751 0.4087 0.4424
1394.000000 0.4761 0.4942 0.5155 0.5577 0.5822
1399.000000 0.5983 0.6130 0.6291 0.6464 0.6523
1404.000000 0.6556 0.6568 0.6576 0.6576 0.6580
1409.000000 0.6563 0.6553 0.6534 0.6497 0.6452
1414.000000 0.6406 0.6360 0.6311 0.6256 0.6201
1419.000000 0.6144 0.6087 0.6021 0.5947 0.5826
1424.000000 0.5698 0.5570 0.5443 0.5315 0.5212
1429.000000 0.5190 0.5189 0.5198 0.5300 0.5388
1434.000000 0.5475 0.5541 0.5539 0.5536 0.5548
1439.000000 0.5519 0.5492 0.5455 0.5398 0.5337
1444.000000 0.5264 0.5185 0.5079 0.4961 0.4765
1449.000000 0.4543 0.4320 0.4098 0.3875 0.3653
1454.000000 0.3503 0.3386 0.3290 0.3157 0.3056
1459.000000 0.2908 0.2418 0.2322 0.2275 0.2280
1464.000000 0.2276 0.2294 0.2316 0.2341 0.2402
1469.000000 0.2924 0.3522 0.3668 0.3914 0.4033
1474.000000 0.4298 0.4440 0.4579 0.4886 0.5158
1479.000000 0.5443 0.5728 0.5959 0.6098 0.6366
1484.000000 0.6587 0.6707 0.6805 0.6874 0.6910
1489.000000 0.6926 0.6940 0.6960 0.6945 0.6943
1494.000000 0.6938 0.6931 0.6922 0.6907 0.6892
1499.000000 0.6871 0.6842 0.6813 0.6782 0.6751
1504.000000 0.6721 0.6692 0.6665 0.6638 0.6611
1509.000000 0.6580 0.6544 0.6508 0.6472 0.6437
1514.000000 0.6402 0.6368 0.6333 0.6300 0.6271
1519.000000 0.6242 0.6213 0.6184 0.6156 0.6114
1524.000000 0.6061 0.5996 0.5931 0.5871 0.5813
1529.000000 0.5754 0.5692 0.5618 0.5530 0.5443
1534.000000 0.5357 0.5284 0.5219 0.5153 0.5087
1539.000000 0.4970 0.4866 0.4781 0.4721 0.4688
1544.000000 0.4661 0.4642 0.4631 0.4630 0.4632
1549.000000 0.4638 0.4658 0.4681 0.4727 0.4790
1554.000000 0.4870 0.4944 0.5004 0.5136 0.5345
1559.000000 0.5349 0.5352 0.5356 0.5408 0.5517
1564.000000 0.5614 0.5706 0.5870 0.5963 0.6049
1569.000000 0.6106 0.6141 0.6170 0.6200 0.6231
1574.000000 0.6240 0.6248 0.6256 0.6264 0.6270
1579.000000 0.6276 0.6282 0.6293 0.6321 0.6376
1584.000000 0.6428 0.6478 0.6526 0.6578 0.6650
1589.000000 0.6717 0.6767 0.6817 0.6867 0.6917
1594.000000 0.6986 0.7061 0.7135 0.7206 0.7275
1599.000000 0.7345 0.7409 0.7460 0.7511 0.7562
1604.000000 0.7607 0.7650 0.7693 0.7738 0.7784
1609.000000 0.7830 0.7862 0.7900 0.7960 0.8010
1614.000000 0.8032 0.8049 0.8065 0.8078 0.8089
1619.000000 0.8096 0.8104 0.8114 0.8125 0.8142
1624.000000 0.8175 0.8212 0.8248 0.8269 0.8283
1629.000000 0.8289 0.8292 0.8290 0.8288 0.8279
1634.000000 0.8280 0.8274 0.8265 0.8254 0.8236
1639.000000 0.8213 0.8190 0.8166 0.8143 0.8119
1644.000000 0.8080 0.8040 0.8002 0.7968 0.7935
1649.000000 0.7906 0.7883 0.7860 0.7837 0.7829
1654.000000 0.7821 0.7819 0.7819 0.7820 0.7822
1659.000000 0.7822 0.7820 0.7818 0.7812 0.7802
1664.000000 0.7793 0.7777 0.7761 0.7744 0.7725
1669.000000 0.7706 0.7677 0.7639 0.7600 0.7554
1674.000000 0.7507 0.7460 0.7414 0.7369 0.7325
1679.000000 0.7280 0.7234 0.7184 0.7134 0.7085
1684.000000 0.7035 0.6985 0.6925 0.6865 0.6806
1689.000000 0.6742 0.6675 0.6609 0.6542 0.6473
1694.000000 0.6402 0.6331 0.6257 0.6175 0.6094
1699.000000 0.6016 0.5942 0.5869 0.5789 0.5706
1704.000000 0.5622 0.5539 0.5457 0.5374 0.5292
1709.000000 0.5138 0.4859 0.4544 0.4230 0.3915
1714.000000 0.3601 0.3129 0.2853 0.2617 0.2422
1719.000000 0.2271 0.2130 0.1998 0.1744 0.1517
1724.000000 0.1331 0.1021 0.0804 0.0682 0.0587
1729.000000 0.0456 0.0388 0.0349 0.0321 0.0305
1734.000000 0.0297 0.0292 0.0289 0.0286 0.0287
1739.000000 0.0275 0.0290 0.0292 0.0295 0.0298
1744.000000 0.0303 0.0307 0.0317 0.0329 0.0348
1749.000000 0.0374 0.0420 0.0522 0.0857 0.1185
1754.000000 0.1514 0.1843 0.2172 0.2501 0.2781
1759.000000 0.3176 0.3354 0.3565 0.3835 0.4223
1764.000000 0.4437 0.4563 0.4728 0.4887 0.5235
1769.000000 0.5361 0.5504 0.5667 0.5884 0.6069
1774.000000 0.6221 0.6345 0.6429 0.6504 0.6577
1779.000000 0.6639 0.6700 0.6761 0.6828 0.6895
1784.000000 0.6962 0.7024 0.7087 0.7141 0.7182
1789.000000 0.7223 0.7264 0.7305 0.7346 0.7386
1794.000000 0.7427 0.7468 0.7509 0.7550 0.7591
1799.000000 0.7632 0.7673 0.7714 0.7750 0.7774
1804.000000 0.7808 0.7844 0.7867 0.7887 0.7907
1809.000000 0.7927 0.7947 0.7967 0.7987 0.8007
1814.000000 0.8017 0.8024 0.8030 0.8037 0.8044
1819.000000 0.8051 0.8053 0.8054 0.8056 0.8062
1824.000000 0.8099 0.8136 0.8164 0.8179 0.8190
1829.000000 0.8194 0.8199 0.8203 0.8209 0.8215
1834.000000 0.8221 0.8227 0.8233 0.8239 0.8251
1839.000000 0.8262 0.8274 0.8286 0.8297 0.8307
1844.000000 0.8317 0.8326 0.8336 0.8343 0.8348
1849.000000 0.8353 0.8359 0.8363 0.8363 0.8363
1854.000000 0.8363 0.8363 0.8363 0.8358 0.8354
1859.000000 0.8349 0.8344 0.8339 0.8339 0.8338
1864.000000 0.8337 0.8337 0.8338 0.8341 0.8344
1869.000000 0.8347 0.8351 0.8355 0.8360 0.8365
1874.000000 0.8373 0.8384 0.8394 0.8404 0.8416
1879.000000 0.8431 0.8447 0.8463 0.8478 0.8494
1884.000000 0.8508 0.8522 0.8537 0.8551 0.8561
1889.000000 0.8572 0.8583 0.8593 0.8599 0.8604
1894.000000 0.8605 0.8606 0.8607 0.8608 0.8609
1899.000000 0.8608 0.8607 0.8607 0.8606 0.8604
1904.000000 0.8601 0.8598 0.8595 0.8591 0.8588
1909.000000 0.8585 0.8584 0.8582 0.8581 0.8580
1914.000000 0.8578 0.8577 0.8577 0.8581 0.8585
1919.000000 0.8588 0.8592 0.8597 0.8601 0.8605
1924.000000 0.8609 0.8613 0.8617 0.8619 0.8621
1929.000000 0.8623 0.8626 0.8628 0.8634 0.8640
1934.000000 0.8646 0.8652 0.8659 0.8665 0.8671
1939.000000 0.8677 0.8683 0.8689 0.8695 0.8701
1944.000000 0.8700 0.8699 0.8697 0.8696 0.8688
1949.000000 0.8666 0.8644 0.8622 0.8602 0.8598
1954.000000 0.8662 0.9246 0.9512 0.9379 0.9206
1959.000000 0.9032 0.8859 0.8686 0.8682 0.8677
1964.000000 0.8674 0.8673 0.8675 0.8676 0.8678
1969.000000 0.8680 0.8680 0.8681 0.8681 0.8681
1974.000000 0.8681 0.8681 0.8679 0.8678 0.8677
1979.000000 0.8675 0.8674 0.8673 0.8670 0.8664
1984.000000 0.8658 0.8652 0.8646 0.8641 0.8638
1989.000000 0.8639 0.8641 0.8518 0.8367 0.8216
1994.000000 0.8111 0.8157 0.8310 0.8463 0.8598
1999.000000 0.8602 0.8600 0.8595 0.8590 0.8623
2004.000000 0.8657 0.8703 0.8749 0.8763 0.8778
2009.000000 0.8781 0.8785 0.8736 0.8687 0.8687
2014.000000 0.8688 0.8692 0.8696 0.8740 0.8785
2019.000000 0.8786 0.8787 0.8771 0.8756 0.8738
2024.000000 0.8720 0.8717 0.8714 0.8712 0.8711
2029.000000 0.8708 0.8705 0.8703 0.8702 0.8700
2034.000000 0.8699 0.8697 0.8695 0.8693 0.8692
2039.000000 0.8690 0.8688 0.8686 0.8685 0.8683
2044.000000 0.8681 0.8679 0.8677 0.8675 0.8674
2049.000000 0.8672 0.8670 0.8668 0.8667 0.8663
2054.000000 0.8659 0.8648 0.8637 0.8626 0.8615
2059.000000 0.8607 0.8599 0.8597 0.8595 0.8607
2064.000000 0.8619 0.8633 0.8647 0.8658 0.8669
2069.000000 0.8678 0.8687 0.8693 0.8699 0.8703
2074.000000 0.8707 0.8710 0.8714 0.8717 0.8721
2079.000000 0.8723 0.8725 0.8726 0.8728 0.8729
2084.000000 0.8730 0.8730 0.8731 0.8731 0.8731
2089.000000 0.8731 0.8732 0.8732 0.8732 0.8731
2094.000000 0.8731 0.8730 0.8730 0.8729 0.8729
2099.000000 0.8729 0.8729 0.8728 0.8728 0.8728
2104.000000 0.8728 0.8728 0.8728 0.8727 0.8727
2109.000000 0.8727 0.8727 0.8726 0.8726 0.8725
2114.000000 0.8725 0.8724 0.8724 0.8723 0.8723
2119.000000 0.8722 0.8722 0.8721 0.8721 0.8720
2124.000000 0.8719 0.8718 0.8718 0.8717 0.8717
2129.000000 0.8715 0.8714 0.8711 0.8709 0.8707
2134.000000 0.8705 0.8702 0.8700 0.8698 0.8696
2139.000000 0.8694 0.8693 0.8693 0.8694 0.8694
2144.000000 0.8694 0.8694 0.8695 0.8695 0.8696
2149.000000 0.8696 0.8696 0.8696 0.8697 0.8697
2154.000000 0.8698 0.8701 0.8704 0.8707 0.8710
2159.000000 0.8712 0.8715 0.8718 0.8721 0.8724
2164.000000 0.8727 0.8729 0.8732 0.8735 0.8738
2169.000000 0.8742 0.8746 0.8750 0.8754 0.8758
2174.000000 0.8762 0.8766 0.8760 0.8772 0.8775
2179.000000 0.8776 0.8777 0.8777 0.8778 0.8778
2184.000000 0.8778 0.8778 0.8778 0.8779 0.8780
2189.000000 0.8781 0.8782 0.8783 0.8785 0.8787
2194.000000 0.8790 0.8793 0.8797 0.8801 0.8806
2199.000000 0.8806 0.8807 0.8806 0.8806 0.8805
2204.000000 0.8805 0.8805 0.8805 0.8804 0.8804
2209.000000 0.8803 0.8803 0.8802 0.8802 0.8799
2214.000000 0.8797 0.8793 0.8790 0.8786 0.8783
2219.000000 0.8778 0.8774 0.8768 0.8763 0.8757
2224.000000 0.8751 0.8745 0.8739 0.8734 0.8729
2229.000000 0.8724 0.8720 0.8715 0.8711 0.8707
2234.000000 0.8703 0.8698 0.8694 0.8690 0.8687
2239.000000 0.8683 0.8680 0.8676 0.8673 0.8670
2244.000000 0.8667 0.8663 0.8660 0.8657 0.8654
2249.000000 0.8650 0.8647 0.8644 0.8641 0.8638
2254.000000 0.8635 0.8632 0.8629 0.8626 0.8623
2259.000000 0.8620 0.8617 0.8614 0.8611 0.8608
2264.000000 0.8605 0.8603 0.8602 0.8600 0.8599
2269.000000 0.8598 0.8597 0.8596 0.8595 0.8594
2274.000000 0.8593 0.8592 0.8591 0.8590 0.8589
2279.000000 0.8588 0.8587 0.8585 0.8584 0.8584
2284.000000 0.8584 0.8585 0.8587 0.8590 0.8593
2289.000000 0.8596 0.8599 0.8602 0.8605 0.8608
2294.000000 0.8612 0.8616 0.8621 0.8626 0.8631
2299.000000 0.8635 0.8640 0.8644 0.8649 0.8652
2304.000000 0.8656 0.8656 0.8656 0.8656 0.8656
2309.000000 0.8656 0.8656 0.8657 0.8659 0.8660
2314.000000 0.8662 0.8663 0.8665 0.8668 0.8672
2319.000000 0.8679 0.8686 0.8695 0.8704 0.8714
2324.000000 0.8724 0.8732 0.8741 0.8749 0.8757
2329.000000 0.8764 0.8772 0.8776 0.8780 0.8783
2334.000000 0.8787 0.8791 0.8795 0.8796 0.8798
2339.000000 0.8799 0.8800 0.8801 0.8802 0.8802
2344.000000 0.8803 0.8804 0.8805 0.8803 0.8802
2349.000000 0.8799 0.8797 0.8794 0.8791 0.8788
2354.000000 0.8786 0.8783 0.8780 0.8777 0.8775
2359.000000 0.8772 0.8769 0.8766 0.8764 0.8761
2364.000000 0.8758 0.8755 0.8753 0.8747 0.8742
2369.000000 0.8739 0.8736 0.8732 0.8729 0.8727
2374.000000 0.8726 0.8724 0.8722 0.8721 0.8721
2379.000000 0.8720 0.8719 0.8718 0.8718 0.8717
2384.000000 0.8717 0.8717 0.8717 0.8716 0.8716
2389.000000 0.8717 0.8719 0.8720 0.8721 0.8722
2394.000000 0.8724 0.8725 0.8727 0.8728 0.8730
2399.000000 0.8732 0.8734 0.8734 0.8735 0.8736
2404.000000 0.8737 0.8737 0.8738 0.8738 0.8739
2409.000000 0.8739 0.8739 0.8739 0.8739 0.8739
2414.000000 0.8739 0.8738 0.8737 0.8736 0.8735
2419.000000 0.8734 0.8734 0.8733 0.8732 0.8731
2424.000000 0.8730 0.8729 0.8728 0.8726 0.8725
2429.000000 0.8723 0.8722 0.8720 0.8719 0.8717
2434.000000 0.8716 0.8714 0.8712 0.8710 0.8709
2439.000000 0.8707 0.8706 0.8703 0.8701 0.8699
2444.000000 0.8697 0.8694 0.8692 0.8689 0.8687
2449.000000 0.8684 0.8682 0.8680 0.8678 0.8674
2454.000000 0.8671 0.8667 0.8664 0.8660 0.8657
2459.000000 0.8654 0.8651 0.8647 0.8644 0.8641
2464.000000 0.8638 0.8636 0.8635 0.8633 0.8631
2469.000000 0.8629 0.8627 0.8625 0.8624 0.8622
2474.000000 0.8620 0.8624 0.8629 0.8635 0.8641
2479.000000 0.8647 0.8654 0.8660 0.8666 0.8672
2484.000000 0.8678 0.8684 0.8690 0.8696 0.8702
2489.000000 0.8707 0.8712 0.8716 0.8721 0.8725
2494.000000 0.8730 0.8732 0.8735 0.8737 0.8740
2499.000000 0.8742 0.8745 0.8747 0.8749 0.8750
2504.000000 0.8751 0.8751 0.8752 0.8753 0.8754
2509.000000 0.8754 0.8755 0.8756 0.8757 0.8757
2514.000000 0.8758 0.8758 0.8759 0.8759 0.8760
2519.000000 0.8760 0.8761 0.8762 0.8763 0.8763
2524.000000 0.8764 0.8764 0.8765 0.8765 0.8766
2529.000000 0.8765 0.8764 0.8763 0.8762 0.8761
2534.000000 0.8760 0.8759 0.8758 0.8757 0.8756
2539.000000 0.8754 0.8752 0.8750 0.8748 0.8746
2544.000000 0.8744 0.8742 0.8740 0.8738 0.8736
2549.000000 0.8734 0.8732 0.8729 0.8726 0.8723
2554.000000 0.8720 0.8717 0.8714 0.8711 0.8708
2559.000000 0.8705 0.8702 0.8699 0.8696 0.8694
2564.000000 0.8692 0.8690 0.8688 0.8686 0.8684
2569.000000 0.8682 0.8680 0.8678 0.8677 0.8674
2574.000000 0.8672 0.8669 0.8666 0.8663 0.8660
2579.000000 0.8657 0.8655 0.8651 0.8648 0.8642
2584.000000 0.8636 0.8630 0.8625 0.8619 0.8613
2589.000000 0.8609 0.8605 0.8603 0.8602 0.8600
2594.000000 0.8598 0.8596 0.8594 0.8592 0.8591
2599.000000 0.8589 0.8587 0.8585 0.8584 0.8583
2604.000000 0.8583 0.8583 0.8583 0.8583 0.8584
2609.000000 0.8584 0.8584 0.8584 0.8584 0.8585
2614.000000 0.8586 0.8587 0.8589 0.8591 0.8593
2619.000000 0.8595 0.8597 0.8598 0.8600 0.8601
2624.000000 0.8602 0.8601 0.8600 0.8599 0.8598
2629.000000 0.8597 0.8596 0.8594 0.8593 0.8591
2634.000000 0.8590 0.8588 0.8586 0.8584 0.8583
2639.000000 0.8581 0.8580 0.8578 0.8577 0.8577
2644.000000 0.8578 0.8580 0.8583 0.8585 0.8587
2649.000000 0.8590 0.8593 0.8597 0.8601 0.8605
2654.000000 0.8609 0.8616 0.8623 0.8626 0.8629
2659.000000 0.8629 0.8630 0.8630 0.8631 0.8631
2664.000000 0.8631 0.8631 0.8631 0.8629 0.8628
2669.000000 0.8625 0.8623 0.8620 0.8618 0.8615
2674.000000 0.8613 0.8610 0.8608 0.8606 0.8604
2679.000000 0.8601 0.8598 0.8593 0.8588 0.8583
2684.000000 0.8579 0.8571 0.8564 0.8556 0.8548
2689.000000 0.8539 0.8531 0.8522 0.8514 0.8505
2694.000000 0.8496 0.8486 0.8476 0.8466 0.8456
2699.000000 0.8445 0.8435 0.8425 0.8415 0.8403
2704.000000 0.8391 0.8378 0.8365 0.8352 0.8339
2709.000000 0.8326 0.8313 0.8301 0.8289 0.8277
2714.000000 0.8266 0.8254 0.8243 0.8244 0.8245
2719.000000 0.8248 0.8251 0.8267 0.8283 0.8301
2724.000000 0.8319 0.8326 0.8333 0.8336 0.8339
2729.000000 0.8349 0.8360 0.8373 0.8386 0.8397
2734.000000 0.8409 0.8420 0.8432 0.8442 0.8453
2739.000000 0.8461 0.8470 0.8475 0.8481 0.8482
2744.000000 0.8483 0.8482 0.8481 0.8478 0.8475
2749.000000 0.8470 0.8465 0.8457 0.8450 0.8442
2754.000000 0.8435 0.8431 0.8428 0.8428 0.8428
2759.000000 0.8428 0.8428 0.8428 0.8429 0.8430
2764.000000 0.8432 0.8433 0.8435 0.8435 0.8436
2769.000000 0.8435 0.8435 0.8431 0.8428 0.8424
2774.000000 0.8421 0.8417 0.8414 0.8406 0.8399
2779.000000 0.8390 0.8382 0.8373 0.8364 0.8355
2784.000000 0.8347 0.8336 0.8325 0.8313 0.8302
2789.000000 0.8290 0.8279 0.8267 0.8256 0.8244
2794.000000 0.8232 0.8219 0.8207 0.8195 0.8183
2799.000000 0.8170 0.8158 0.8144 0.8130 0.8111
2804.000000 0.8093 0.8074 0.8056 0.8037 0.8019
2809.000000 0.8000 0.7982 0.7957 0.7932 0.7908
2814.000000 0.7885 0.7869 0.7853 0.7842 0.7832
2819.000000 0.7822 0.7812 0.7803 0.7795 0.7784
2824.000000 0.7774 0.7758 0.7742 0.7709 0.7676
2829.000000 0.7645 0.7615 0.7579 0.7544 0.7488
2834.000000 0.7433 0.7329 0.7225 0.7126 0.7028
2839.000000 0.6776 0.6525 0.6507 0.6490 0.6485
2844.000000 0.6481 0.6476 0.6472 0.6467 0.6462
2849.000000 0.6452 0.6443 0.6376 0.6310 0.6013
2854.000000 0.5717 0.5564 0.5411 0.5314 0.5218
2859.000000 0.5148 0.5078 0.4748 0.4418 0.3464
2864.000000 0.2511 0.2337 0.2164 0.2159 0.2108
2869.000000 0.2227 0.2301 0.2399 0.2497 0.2595
2874.000000 0.2693 0.2791 0.2890 0.2988 0.3086
2879.000000 0.3184 0.3282 0.3380 0.3478 0.3550
2884.000000 0.3623 0.3623 0.3630 0.3606 0.3589
2889.000000 0.3505 0.3421 0.3336 0.3252 0.3167
2894.000000 0.3083 0.2999 0.2915 0.2830 0.2746
2899.000000 0.2662 0.2578 0.2493 0.2409 0.2324
2904.000000 0.2240 0.2206 0.2173 0.2170 0.2168
2909.000000 0.2163 0.2158 0.2152 0.2146 0.2139
2914.000000 0.2133 0.2112 0.2092 0.2016 0.1940
2919.000000 0.1808 0.1676 0.1543 0.1411 0.1293
2924.000000 0.1176 0.1176 0.1180 0.1190 0.1204
2929.000000 0.1228 0.1252 0.1275 0.1299 0.1323
2934.000000 0.1347 0.1367 0.1387 0.1386 0.1386
2939.000000 0.1346 0.1402 0.1197 0.1088 0.0978
2944.000000 0.0869 0.0759 0.0649 0.0555 0.0462
2949.000000 0.0403 0.0344 0.0304 0.0265 0.0253
2954.000000 0.0241 0.0238 0.0235 0.0237 0.0228
2959.000000 0.0244 0.0249 0.0259 0.0269 0.0279
2964.000000 0.0290 0.0299 0.0309 0.0323 0.0338
2969.000000 0.0535 0.0733 0.0994 0.1255 0.1516
2974.000000 0.1777 0.2038 0.2299 0.2560 0.2821
2979.000000 0.3082 0.3343 0.3604 0.3865 0.4126
2984.000000 0.4387 0.4648 0.4909 0.5005 0.5101
2989.000000 0.5253 0.5406 0.5472 0.5538 0.5640
2994.000000 0.5742 0.5841 0.5941 0.6031 0.6121
2999.000000 0.6396 0.6671 0.6772 0.6874 0.6948
3004.000000 0.7022 0.7072 0.7123 0.7173 0.7224
3009.000000 0.7269 0.7314 0.7358 0.7403 0.7440
3014.000000 0.7478 0.7514 0.7551 0.7581 0.7612
3019.000000 0.7635 0.7659 0.7682 0.7705 0.7729
3024.000000 0.7753 0.7778 0.7803 0.7828 0.7853
3029.000000 0.7878 0.7903 0.7925 0.7948 0.7969
3034.000000 0.7990 0.8010 0.8031 0.8052 0.8073
3039.000000 0.8094 0.8115 0.8134 0.8153 0.8171
3044.000000 0.8189 0.8207 0.8226 0.8244 0.8263
3049.000000 0.8278 0.8294 0.8305 0.8316 0.8326
3054.000000 0.8337 0.8347 0.8358 0.8368 0.8379
3059.000000 0.8389 0.8400 0.8410 0.8421 0.8429
3064.000000 0.8437 0.8445 0.8453 0.8460 0.8468
3069.000000 0.8476 0.8484 0.8492 0.8500 0.8508
3074.000000 0.8516 0.8523 0.8531 0.8537 0.8544
3079.000000 0.8550 0.8557 0.8563 0.8569 0.8575
3084.000000 0.8582 0.8588 0.8594 0.8597 0.8600
3089.000000 0.8603 0.8606 0.8609 0.8613 0.8616
3094.000000 0.8619 0.8622 0.8625 0.8628 0.8631
3099.000000 0.8634 0.8637 0.8639 0.8642 0.8645
3104.000000 0.8648 0.8650 0.8653 0.8656 0.8659
3109.000000 0.8661 0.8664 0.8665 0.8667 0.8668
3114.000000 0.8670 0.8671 0.8672 0.8673 0.8674
3119.000000 0.8675 0.8676 0.8677 0.8678 0.8679
3124.000000 0.8680 0.8681 0.8682 0.8683 0.8685
3129.000000 0.8685 0.8686 0.8687 0.8688 0.8688
3134.000000 0.8689 0.8690 0.8691 0.8692 0.8693
3139.000000 0.8693 0.8694 0.8695 0.8696 0.8696
3144.000000 0.8697 0.8698 0.8699 0.8700 0.8701
3149.000000 0.8701 0.8702 0.8702 0.8702 0.8702
3154.000000 0.8703 0.8703 0.8704 0.8704 0.8705
3159.000000 0.8705 0.8706 0.8706 0.8706 0.8706
3164.000000 0.8707 0.8707 0.8708 0.8708 0.8709
3169.000000 0.8709 0.8710 0.8710 0.8711 0.8711
3174.000000 0.8712 0.8712 0.8713 0.8714 0.8715
3179.000000 0.8715 0.8716 0.8716 0.8717 0.8719
3184.000000 0.8721 0.8724 0.8728 0.8731 0.8735
3189.000000 0.8738 0.8742 0.8745 0.8749 0.8752
3194.000000 0.8756 0.8759 0.8763 0.8766 0.8770
3199.000000 0.8773 0.8777 0.8780 0.8784 0.8787
3204.000000 0.8791 0.8795 0.8799 0.8802 0.8806
3209.000000 0.8810 0.8814 0.8817 0.8821 0.8824
3214.000000 0.8827 0.8830 0.8834 0.8837 0.8840
3219.000000 0.8843 0.8846 0.8849 0.8853 0.8856
3224.000000 0.8859 0.8862 0.8865 0.8868 0.8872
3229.000000 0.8875 0.8878 0.8881 0.8884 0.8888
3234.000000 0.8892 0.8895 0.8899 0.8903 0.8907
3239.000000 0.8911 0.8915 0.8919 0.8923 0.8927
3244.000000 0.8932 0.8935 0.8939 0.8942 0.8945
3249.000000 0.8947 0.8949 0.8950 0.8951 0.8952
3254.000000 0.8953 0.8954 0.8956 0.8957 0.8958
3259.000000 0.8958 0.8959 0.8959 0.8959 0.8959
3264.000000 0.8959 0.8959 0.8959 0.8959 0.8960
3269.000000 0.8960 0.8960 0.8961 0.8962 0.8964
3274.000000 0.8967 0.8970 0.8973 0.8976 0.8979
3279.000000 0.8982 0.8985 0.8987 0.8989 0.8989
3284.000000 0.8990 0.8990 0.8991 0.8991 0.8992
3289.000000 0.8992 0.8993 0.8993 0.8993 0.8993
3294.000000 0.8993 0.8993 0.8993 0.8993 0.8993
3299.000000 0.8992 0.8992 0.8992 0.8992 0.8992
3304.000000 0.8992 0.8992 0.8992 0.8992 0.8992
3309.000000 0.8991 0.8991 0.8991 0.8992 0.8992
3314.000000 0.8992 0.8992 0.8992 0.8992 0.8992
3319.000000 0.8992 0.8992 0.8992 0.8992 0.8992
3324.000000 0.8992 0.8992 0.8993 0.8993 0.8993
3329.000000 0.8993 0.8993 0.8992 0.8992 0.8992
3334.000000 0.8992 0.8992 0.8992 0.8992 0.8992
3339.000000 0.8992 0.8992 0.8992 0.8992 0.8991
3344.000000 0.8991 0.8991 0.8991 0.8991 0.8991
3349.000000 0.8991 0.8991 0.8990 0.8990 0.8989
3354.000000 0.8989 0.8988 0.8987 0.8986 0.8986
3359.000000 0.8985 0.8985 0.8984 0.8983 0.8982
3364.000000 0.8982 0.8984 0.8987 0.8992 0.8997
3369.000000 0.9001 0.9006 0.9010 0.9015 0.9019
3374.000000 0.9024 0.9028 0.9033 0.9037 0.9041
3379.000000 0.9044 0.9048 0.9051 0.9065 0.9056
3384.000000 0.9058 0.9059 0.9060 0.9061 0.9062
3389.000000 0.9061 0.9061 0.9060 0.9060 0.9059
3394.000000 0.9059 0.9059 0.9059 0.9059 0.9059
3399.000000 0.9057 0.9056 0.9051 0.9047 0.9042
3404.000000 0.9038 0.9033 0.9029 0.9024 0.9019
3409.000000 0.9013 0.9007 0.9001 0.8996 0.8990
3414.000000 0.8985 0.8979 0.8973 0.8966 0.8959
3419.000000 0.8951 0.8943 0.8935 0.8927 0.8918
3424.000000 0.8909 0.8900 0.8891 0.8881 0.8872
3429.000000 0.8862 0.8853 0.8844 0.8835 0.8825
3434.000000 0.8816 0.8802 0.8788 0.8773 0.8759
3439.000000 0.8745 0.8731 0.8716 0.8702 0.8686
3444.000000 0.8671 0.8651 0.8631 0.8611 0.8592
3449.000000 0.8572 0.8553 0.8533 0.8513 0.8493
3454.000000 0.8473 0.8461 0.8449 0.8446 0.8443
3459.000000 0.8441 0.8439 0.8438 0.8437 0.8436
3464.000000 0.8437 0.8435 0.8435 0.8435 0.8436
3469.000000 0.8437 0.8438 0.8451 0.8465 0.8477
3474.000000 0.8489 0.8505 0.8522 0.8537 0.8553
3479.000000 0.8567 0.8582 0.8596 0.8611 0.8621
3484.000000 0.8631 0.8640 0.8649 0.8652 0.8656
3489.000000 0.8658 0.8660 0.8661 0.8662 0.8662
3494.000000 0.8663 0.8663 0.8663 0.8662 0.8661
3499.000000 0.8659 0.8658 0.8655 0.8653 0.8649
3504.000000 0.8646 0.8643 0.8640 0.8636 0.8633
3509.000000 0.8629 0.8626 0.8622 0.8618 0.8613
3514.000000 0.8609 0.8604 0.8599 0.8594 0.8589
3519.000000 0.8584 0.8580 0.8575 0.8570 0.8565
3524.000000 0.8561 0.8557 0.8554 0.8550 0.8547
3529.000000 0.8543 0.8539 0.8535 0.8532 0.8528
3534.000000 0.8525 0.8521 0.8518 0.8514 0.8510
3539.000000 0.8508 0.8506 0.8505 0.8504 0.8503
3544.000000 0.8502 0.8501 0.8500 0.8499 0.8498
3549.000000 0.8499 0.8501 0.8504 0.8508 0.8511
3554.000000 0.8515 0.8518 0.8522 0.8525 0.8529
3559.000000 0.8532 0.8536 0.8540 0.8544 0.8547
3564.000000 0.8551 0.8554 0.8558 0.8561 0.8565
3569.000000 0.8568 0.8572 0.8575 0.8579 0.8583
3574.000000 0.8587 0.8591 0.8595 0.8599 0.8603
3579.000000 0.8607 0.8611 0.8614 0.8618 0.8624
3584.000000 0.8630 0.8636 0.8642 0.8648 0.8655
3589.000000 0.8661 0.8668 0.8674 0.8681 0.8687
3594.000000 0.8694 0.8699 0.8705 0.8710 0.8716
3599.000000 0.8722 0.8711 0.8732 0.8737 0.8740
3604.000000 0.8744 0.8747 0.8751 0.8754 0.8758
3609.000000 0.8758 0.8758 0.8754 0.8750 0.8746
3614.000000 0.8742 0.8738 0.8734 0.8726 0.8719
3619.000000 0.8710 0.8701 0.8691 0.8682 0.8673
3624.000000 0.8664 0.8654 0.8644 0.8636 0.8628
3629.000000 0.8626 0.8625 0.8624 0.8623 0.8623
3634.000000 0.8623 0.8625 0.8627 0.8629 0.8631
3639.000000 0.8633 0.8635 0.8638 0.8642 0.8645
3644.000000 0.8649 0.8655 0.8661 0.8674 0.8688
3649.000000 0.8702 0.8716 0.8733 0.8750 0.8757
3654.000000 0.8765 0.8770 0.8775 0.8779 0.8784
3659.000000 0.8785 0.8787 0.8787 0.8788 0.8788
3664.000000 0.8788 0.8788 0.8788 0.8786 0.8785
3669.000000 0.8783 0.8782 0.8780 0.8778 0.8776
3674.000000 0.8775 0.8773 0.8772 0.8766 0.8761
3679.000000 0.8754 0.8747 0.8740 0.8734 0.8727
3684.000000 0.8720 0.8713 0.8707 0.8705 0.8703
3689.000000 0.8703 0.8703 0.8707 0.8712 0.8718
3694.000000 0.8725 0.8731 0.8738 0.8744 0.8751
3699.000000 0.8760 0.8769 0.8778 0.8788 0.8797
3704.000000 0.8807 0.8816 0.8826 0.8835 0.8845
3709.000000 0.8851 0.8858 0.8861 0.8865 0.8868
3714.000000 0.8871 0.8873 0.8875 0.8876 0.8877
3719.000000 0.8876 0.8876 0.8875 0.8875 0.8874
3724.000000 0.8873 0.8872 0.8872 0.8871 0.8871
3729.000000 0.8872 0.8873 0.8873 0.8874 0.8874
3734.000000 0.8875 0.8880 0.8886 0.8894 0.8903
3739.000000 0.8915 0.8928 0.8936 0.8945 0.8946
3744.000000 0.8948 0.8949 0.8950 0.8943 0.8937
3749.000000 0.8929 0.8921 0.8913 0.8905 0.8897
3754.000000 0.8889 0.8884 0.8880
##END=
