##TITLE=HYDROQUINONE
##JCAMP-DX=4.24
##DATA TYPE=INFRARED SPECTRUM
##CLASS=COBLENTZ III
##ORIGIN=WESTERN REGIONAL RES. USDA
##OWNER=COBLENTZ SOCIETY
Collection (C) 2018 copyright by the U.S. Secretary of Commerce
on behalf of the United States of America. All rights reserved.
##DATE=1964/04/02
##CAS REGISTRY NO=123-31-9
##MOLFORM=C6 H6 O2
##SOURCE REFERENCE=COBLENTZ NO. 6178
##$NIST SOURCE=COBLENTZ
##$NIST IMAGE=cob6178
##SPECTROMETER/DATA SYSTEM=BECKMAN IR-7 (GRATING)
##INSTRUMENT PARAMETERS=GRATING CHANGES AT 3000, 2200, 1150 CM^-^1
##STATE=SOLID (0.5% IN KBr PELLET)
##SAMPLING PROCEDURE=TRANSMISSION
##RESOLUTION=4
##DATA PROCESSING=DIGITIZED BY NIST FROM HARD COPY (FROM TWO SEGMENTS)
##XUNITS=1/CM
##YUNITS=TRANSMITTANCE
##XFACTOR=1.000000
##YFACTOR=1
##DELTAX=0.649653
##FIRSTX=600
##LASTX=3985.99
##FIRSTY=0.646
##MAXX=3985.99
##MINX=600
##MAXY=0.888
##MINY=0.054
##NPOINTS=5213
##XYDATA=(X++(Y..Y))
600.000000 0.6460 0.6460 0.6460 0.6460 0.6460
603.248264 0.6460 0.6450 0.6430 0.6410 0.6390
606.496528 0.6370 0.6360 0.6360 0.6280 0.6270
609.744792 0.6250 0.6220 0.6180 0.6150 0.5981
612.993056 0.5810 0.5790 0.5760 0.5690 0.5660
616.241320 0.5590 0.5560 0.5530 0.5490 0.5470
619.489584 0.5440 0.5410 0.5400 0.5390 0.5380
622.737848 0.5380 0.5390 0.5400 0.5420 0.5440
625.986112 0.5470 0.5480 0.5490 0.5510 0.5530
629.234376 0.5550 0.5570 0.5600 0.5640 0.5710
632.482640 0.5740 0.5790 0.5820 0.5850 0.5870
635.730904 0.5900 0.5930 0.5950 0.5980 0.6000
638.979168 0.6010 0.6020 0.6040 0.6050 0.6050
642.227432 0.6060 0.6060 0.6070 0.6070 0.6060
645.475695 0.6060 0.6050 0.6050 0.6050 0.6050
648.723959 0.6050 0.6060 0.6070 0.6080 0.6080
651.972223 0.6100 0.6150 0.6190 0.6240 0.6270
655.220487 0.6270 0.6280 0.6280 0.6280 0.6270
658.468751 0.6270 0.6250 0.6240 0.6210 0.6190
661.717015 0.6170 0.6160 0.6140 0.6130 0.6100
664.965279 0.6070 0.6050 0.5990 0.5960 0.5900
668.213543 0.5870 0.5850 0.5830 0.5810 0.5800
671.461807 0.5780 0.5750 0.5690 0.5610 0.5570
674.710071 0.5530 0.5480 0.5450 0.5400 0.5360
677.958335 0.5350 0.5290 0.5260 0.5250 0.5240
681.206599 0.5180 0.5140 0.5090 0.5040 0.5030
684.454863 0.5010 0.5000 0.4990 0.4970 0.4960
687.703127 0.4950 0.4910 0.4900 0.4890 0.4890
690.951391 0.4880 0.4880 0.4860 0.4850 0.4840
694.199655 0.4840 0.4830 0.4820 0.4820 0.4820
697.447919 0.4820 0.4810 0.4810 0.4810 0.4790
700.696183 0.4790 0.4770 0.4640 0.4540 0.4430
703.944447 0.4420 0.4430 0.4500 0.4610 0.4700
707.192711 0.4730 0.4930 0.5000 0.5160 0.5170
710.440975 0.5180 0.5190 0.5220 0.5230 0.5240
713.689239 0.5250 0.5260 0.5260 0.5260 0.5270
716.937503 0.5290 0.5290 0.5290 0.5290 0.5290
720.185767 0.5300 0.5300 0.5290 0.5290 0.5290
723.434031 0.5270 0.5270 0.5260 0.5240 0.5220
726.682295 0.5190 0.5180 0.5170 0.5150 0.5130
729.930559 0.5110 0.5080 0.5050 0.5000 0.4990
733.178822 0.4970 0.4950 0.4930 0.4900 0.4880
736.427086 0.4860 0.4840 0.4820 0.4780 0.4750
739.675350 0.4740 0.4720 0.4700 0.4660 0.4640
742.923614 0.4630 0.4620 0.4610 0.4590 0.4570
746.171878 0.4560 0.4540 0.4520 0.4500 0.4460
749.420142 0.4440 0.4410 0.4370 0.4290 0.4160
752.668406 0.3970 0.3771 0.3581 0.3391 0.2932
755.916670 0.2620 0.2250 0.1860 0.1340 0.1060
759.164934 0.0990 0.0990 0.0990 0.1040 0.1140
762.413198 0.1250 0.1380 0.1470 0.1540 0.1610
765.661462 0.1670 0.1760 0.1850 0.1930 0.2010
768.909726 0.2080 0.2180 0.2290 0.2460 0.2670
772.157990 0.2940 0.3110 0.3290 0.3310 0.3360
775.406254 0.3470 0.3540 0.3670 0.3770 0.3850
778.654518 0.3930 0.4000 0.4080 0.4160 0.4250
781.902782 0.4350 0.4430 0.4500 0.4540 0.4570
785.151046 0.4600 0.4650 0.4700 0.4780 0.4860
788.399310 0.4890 0.4940 0.4960 0.5000 0.5030
791.647574 0.5150 0.5220 0.5260 0.5290 0.5310
794.895838 0.5350 0.5380 0.5410 0.5440 0.5450
798.144102 0.5460 0.5500 0.5550 0.5570 0.5580
801.392366 0.5590 0.5620 0.5640 0.5630 0.5620
804.640630 0.5590 0.5550 0.5500 0.5440 0.5360
807.888894 0.5280 0.5170 0.5070 0.4830 0.4790
811.137158 0.4790 0.4880 0.5029 0.5219 0.5260
814.385422 0.5270 0.5280 0.5290 0.5290 0.5290
817.633685 0.5280 0.5250 0.5190 0.5140 0.5090
820.881949 0.4910 0.4710 0.4540 0.4061 0.3421
824.130213 0.2911 0.2611 0.2311 0.2101 0.1532
827.378477 0.1530 0.1520 0.1520 0.1530 0.1580
830.626741 0.1640 0.1700 0.1760 0.1810 0.1870
833.875005 0.2010 0.2190 0.2450 0.2780 0.2990
837.123269 0.3080 0.3170 0.3310 0.3459 0.3669
840.371533 0.4000 0.4470 0.4650 0.5120 0.5600
843.619797 0.5959 0.6100 0.6240 0.6449 0.6619
846.868061 0.6760 0.6900 0.7080 0.7190 0.7260
850.116325 0.7390 0.7530 0.7630 0.7670 0.7720
853.364589 0.7770 0.7780 0.7780 0.7780 0.7800
856.612853 0.7810 0.7830 0.7910 0.7950 0.7980
859.861117 0.7990 0.8010 0.8050 0.8100 0.8160
863.109381 0.8230 0.8270 0.8300 0.8300 0.8330
866.357645 0.8340 0.8360 0.8380 0.8380 0.8390
869.605909 0.8390 0.8390 0.8410 0.8410 0.8430
872.854173 0.8450 0.8450 0.8460 0.8460 0.8470
876.102437 0.8470 0.8480 0.8480 0.8480 0.8480
879.350701 0.8480 0.8480 0.8480 0.8470 0.8470
882.598965 0.8450 0.8440 0.8420 0.8420 0.8410
885.847229 0.8410 0.8390 0.8370 0.8350 0.8320
889.095493 0.8300 0.8290 0.8280 0.8270 0.8230
892.343757 0.8210 0.8210 0.8210 0.8210 0.8210
895.592021 0.8210 0.8220 0.8220 0.8230 0.8230
898.840285 0.8250 0.8270 0.8280 0.8300 0.8320
902.088549 0.8360 0.8370 0.8390 0.8390 0.8400
905.336812 0.8410 0.8410 0.8420 0.8430 0.8430
908.585076 0.8440 0.8460 0.8470 0.8490 0.8510
911.833340 0.8520 0.8520 0.8520 0.8520 0.8520
915.081604 0.8500 0.8500 0.8500 0.8490 0.8480
918.329868 0.8480 0.8470 0.8460 0.8420 0.8390
921.578132 0.8320 0.8220 0.8210 0.8220 0.8230
924.826396 0.8250 0.8280 0.8320 0.8350 0.8370
928.074660 0.8390 0.8400 0.8410 0.8420 0.8450
931.322924 0.8450 0.8450 0.8450 0.8450 0.8450
934.571188 0.8440 0.8430 0.8420 0.8420 0.8410
937.819452 0.8410 0.8400 0.8390 0.8360 0.8340
941.067716 0.8280 0.8240 0.8150 0.8130 0.8130
944.315980 0.8140 0.8250 0.8300 0.8380 0.8420
947.564244 0.8440 0.8440 0.8450 0.8450 0.8460
950.812508 0.8460 0.8460 0.8460 0.8470 0.8470
954.060772 0.8470 0.8470 0.8470 0.8470 0.8470
957.309036 0.8470 0.8470 0.8470 0.8460 0.8460
960.557300 0.8460 0.8460 0.8460 0.8460 0.8460
963.805564 0.8450 0.8450 0.8450 0.8450 0.8430
967.053828 0.8430 0.8410 0.8400 0.8390 0.8390
970.302092 0.8390 0.8380 0.8380 0.8370 0.8370
973.550356 0.8370 0.8360 0.8350 0.8340 0.8340
976.798620 0.8330 0.8330 0.8320 0.8320 0.8320
980.046884 0.8320 0.8300 0.8290 0.8280 0.8270
983.295148 0.8270 0.8260 0.8250 0.8250 0.8250
986.543412 0.8240 0.8230 0.8230 0.8220 0.8210
989.791676 0.8190 0.8180 0.8150 0.8140 0.8130
993.039939 0.8120 0.8120 0.8120 0.8120 0.8120
996.288203 0.8120 0.8120 0.8120 0.8110 0.8100
999.536467 0.8090 0.8090 0.8080 0.8060 0.8030
1002.784731 0.8010 0.7970 0.7950 0.7920 0.7860
1006.032995 0.7840 0.7820 0.7740 0.7710 0.7531
1009.281259 0.7400 0.7170 0.6920 0.6440 0.6430
1012.529523 0.6440 0.6809 0.7169 0.7240 0.7489
1015.777787 0.7620 0.7810 0.7890 0.7890 0.7890
1019.026051 0.7900 0.7900 0.7900 0.7900 0.7870
1022.274315 0.7860 0.7830 0.7790 0.7780 0.7760
1025.522579 0.7720 0.7710 0.7700 0.7690 0.7680
1028.770843 0.7680 0.7670 0.7670 0.7650 0.7640
1032.019107 0.7620 0.7610 0.7600 0.7580 0.7570
1035.267371 0.7560 0.7550 0.7540 0.7540 0.7530
1038.515635 0.7510 0.7510 0.7490 0.7460 0.7450
1041.763899 0.7440 0.7440 0.7430 0.7430 0.7420
1045.012163 0.7420 0.7420 0.7400 0.7390 0.7380
1048.260427 0.7380 0.7370 0.7360 0.7360 0.7360
1051.508691 0.7360 0.7350 0.7350 0.7340 0.7340
1054.756955 0.7340 0.7330 0.7330 0.7320 0.7310
1058.005219 0.7310 0.7300 0.7290 0.7290 0.7280
1061.253483 0.7270 0.7260 0.7250 0.7240 0.7230
1064.501747 0.7220 0.7200 0.7190 0.7180 0.7170
1067.750011 0.7150 0.7140 0.7130 0.7110 0.7090
1070.998275 0.7080 0.7060 0.7040 0.7020 0.7000
1074.246539 0.6980 0.6950 0.6930 0.6900 0.6880
1077.494802 0.6860 0.6860 0.6850 0.6830 0.6820
1080.743066 0.6790 0.6760 0.6730 0.6690 0.6660
1083.991330 0.6630 0.6610 0.6590 0.6560 0.6520
1087.239594 0.6480 0.6410 0.6340 0.6290 0.6240
1090.487858 0.6160 0.5811 0.5471 0.5171 0.4612
1093.736122 0.4490 0.4250 0.3890 0.3540 0.2850
1096.984386 0.2840 0.2850 0.3050 0.3250 0.3639
1100.232650 0.4040 0.4120 0.4370 0.4600 0.4810
1103.480914 0.5010 0.5180 0.5350 0.5470 0.5620
1106.729178 0.5740 0.5840 0.5930 0.5970 0.6000
1109.977442 0.6050 0.6070 0.6090 0.6090 0.6090
1113.225706 0.6070 0.6050 0.5980 0.5920 0.5880
1116.473970 0.5830 0.5790 0.5780 0.5750 0.5720
1119.722234 0.5710 0.5690 0.5700 0.5740 0.5770
1122.970498 0.5800 0.5820 0.5860 0.5900 0.5920
1126.218762 0.5940 0.5940 0.5930 0.5920 0.5920
1129.467026 0.5910 0.5900 0.5900 0.5880 0.5830
1132.715290 0.5790 0.5740 0.5690 0.5660 0.5640
1135.963554 0.5630 0.5590 0.5540 0.5490 0.5450
1139.211818 0.5400 0.5360 0.5320 0.5280 0.5250
1142.460082 0.5210 0.5180 0.5150 0.5110 0.5080
1145.708346 0.5060 0.5020 0.5000 0.4970 0.4950
1148.956610 0.4870 0.4850 0.4611 0.4381 0.4340
1152.204874 0.4290 0.4250 0.4200 0.4150 0.4100
1155.453138 0.4050 0.4010 0.3950 0.3900 0.3840
1158.701402 0.3780 0.3720 0.3660 0.3600 0.3530
1161.949666 0.3450 0.3400 0.3350 0.3310 0.3270
1165.197929 0.3220 0.3200 0.3210 0.3220 0.3260
1168.446193 0.3310 0.3310 0.3290 0.3260 0.3190
1171.694457 0.3110 0.2960 0.2910 0.2860 0.2810
1174.942721 0.2750 0.2670 0.2590 0.2490 0.2390
1178.190985 0.2280 0.2180 0.2070 0.1950 0.1830
1181.439249 0.1720 0.1600 0.1490 0.1380 0.1270
1184.687513 0.1170 0.1080 0.1000 0.0920 0.0860
1187.935777 0.0800 0.0750 0.0730 0.0710 0.0700
1191.184041 0.0700 0.0700 0.0720 0.0740 0.0780
1194.432305 0.0810 0.0850 0.0880 0.0910 0.0930
1197.680569 0.0930 0.0940 0.0930 0.0920 0.0910
1200.928833 0.0880 0.0860 0.0820 0.0790 0.0750
1204.177097 0.0710 0.0670 0.0630 0.0590 0.0560
1207.425361 0.0550 0.0540 0.0540 0.0550 0.0550
1210.673625 0.0590 0.0640 0.0700 0.0740 0.0770
1213.921889 0.0790 0.0790 0.0810 0.0820 0.0830
1217.170153 0.0830 0.0840 0.0850 0.0860 0.0860
1220.418417 0.0870 0.0880 0.0910 0.0940 0.0980
1223.666681 0.1020 0.1080 0.1130 0.1180 0.1240
1226.914945 0.1290 0.1350 0.1410 0.1470 0.1510
1230.163209 0.1560 0.1600 0.1630 0.1660 0.1670
1233.411473 0.1670 0.1670 0.1670 0.1650 0.1650
1236.659737 0.1640 0.1610 0.1590 0.1550 0.1510
1239.908001 0.1460 0.1410 0.1350 0.1310 0.1310
1243.156265 0.1310 0.1310 0.1320 0.1390 0.1470
1246.404529 0.1560 0.1690 0.1830 0.2030 0.2269
1249.652793 0.2480 0.2630 0.2740 0.2840 0.2970
1252.901056 0.2970 0.2970 0.2960 0.2960 0.2920
1256.149320 0.2789 0.2520 0.2380 0.2300 0.2220
1259.397584 0.2180 0.2180 0.2190 0.2230 0.2460
1262.645848 0.2930 0.3110 0.3290 0.3580 0.3800
1265.894112 0.3960 0.4100 0.4230 0.4350 0.4480
1269.142376 0.4660 0.4880 0.5160 0.5520 0.5640
1272.390640 0.5760 0.5820 0.5830 0.5930 0.6020
1275.638904 0.6200 0.6360 0.6380 0.6400 0.6550
1278.887168 0.6690 0.6770 0.6820 0.6860 0.6880
1282.135432 0.6940 0.7000 0.7070 0.7150 0.7190
1285.383696 0.7200 0.7200 0.7230 0.7240 0.7240
1288.631960 0.7250 0.7260 0.7260 0.7260 0.7260
1291.880224 0.7260 0.7250 0.7250 0.7240 0.7240
1295.128488 0.7230 0.7240 0.7240 0.7260 0.7260
1298.376752 0.7270 0.7280 0.7290 0.7280 0.7270
1301.625016 0.7270 0.7260 0.7240 0.7220 0.7180
1304.873280 0.7150 0.7100 0.7040 0.6990 0.6930
1308.121544 0.6860 0.6790 0.6720 0.6640 0.6560
1311.369808 0.6480 0.6400 0.6320 0.6230 0.6150
1314.618072 0.5980 0.5900 0.5820 0.5790 0.5760
1317.866336 0.5720 0.5700 0.5670 0.5630 0.5610
1321.114600 0.5580 0.5540 0.5520 0.5490 0.5450
1324.362864 0.5420 0.5380 0.5340 0.5300 0.5260
1327.611128 0.5210 0.5160 0.5110 0.5060 0.4990
1330.859392 0.4930 0.4860 0.4790 0.4730 0.4730
1334.107656 0.4720 0.4730 0.4750 0.4770 0.4810
1337.355920 0.4840 0.4850 0.4850 0.4860 0.4850
1340.604183 0.4820 0.4770 0.4670 0.4570 0.4490
1343.852447 0.4410 0.4330 0.4250 0.4160 0.4060
1347.100711 0.3950 0.3810 0.3650 0.3470 0.3200
1350.348975 0.3190 0.3150 0.3080 0.2960 0.2950
1353.597239 0.2950 0.2950 0.2950 0.2960 0.2990
1356.845503 0.3020 0.3040 0.3120 0.3200 0.3290
1360.093767 0.3330 0.3350 0.3580 0.3690 0.3800
1363.342031 0.3900 0.4000 0.4100 0.4200 0.4300
1366.590295 0.4390 0.4480 0.4570 0.4650 0.4730
1369.838559 0.4810 0.4890 0.4970 0.5040 0.5100
1373.086823 0.5170 0.5240 0.5290 0.5360 0.5410
1376.335087 0.5470 0.5520 0.5560 0.5610 0.5650
1379.583351 0.5690 0.5730 0.5770 0.5800 0.5830
1382.831615 0.5830 0.5840 0.5850 0.5850 0.5840
1386.079879 0.5840 0.5830 0.5820 0.5810 0.5810
1389.328143 0.5810 0.5810 0.5810 0.5810 0.5820
1392.576407 0.5830 0.5830 0.5850 0.5860 0.5870
1395.824671 0.5890 0.5900 0.5930 0.5940 0.5950
1399.072935 0.5980 0.6010 0.6040 0.6160 0.6250
1402.321199 0.6320 0.6370 0.6420 0.6450 0.6480
1405.569463 0.6500 0.6520 0.6540 0.6570 0.6600
1408.817727 0.6640 0.6680 0.6700 0.6700 0.6700
1412.065991 0.6710 0.6710 0.6710 0.6700 0.6700
1415.314255 0.6700 0.6690 0.6680 0.6660 0.6640
1418.562519 0.6630 0.6600 0.6580 0.6550 0.6520
1421.810783 0.6480 0.6450 0.6410 0.6370 0.6320
1425.059046 0.6280 0.6230 0.6180 0.6120 0.6070
1428.307310 0.5950 0.5890 0.5710 0.5550 0.5410
1431.555574 0.5290 0.5190 0.5100 0.5020 0.4950
1434.803838 0.4900 0.4840 0.4800 0.4750 0.4710
1438.052102 0.4670 0.4620 0.4570 0.4520 0.4450
1441.300366 0.4370 0.4280 0.4180 0.4130 0.4060
1444.548630 0.3980 0.3890 0.3790 0.3680 0.3560
1447.796894 0.3440 0.3310 0.3180 0.2910 0.2780
1451.045158 0.2640 0.2520 0.2390 0.2270 0.2160
1454.293422 0.2050 0.1950 0.1860 0.1780 0.1700
1457.541686 0.1600 0.1470 0.1350 0.1220 0.1110
1460.789950 0.1010 0.0940 0.0900 0.0900 0.0820
1464.038214 0.0780 0.0750 0.0730 0.0720 0.0690
1467.286478 0.0680 0.0660 0.0660 0.0640 0.0640
1470.534742 0.0630 0.0630 0.0620 0.0620 0.0610
1473.783006 0.0610 0.0610 0.0610 0.0610 0.0620
1477.031270 0.0630 0.0630 0.0660 0.0700 0.0930
1480.279534 0.1180 0.1440 0.1710 0.1850 0.1980
1483.527798 0.2110 0.2250 0.2380 0.2510 0.2640
1486.776062 0.2770 0.2900 0.2970 0.3030 0.3160
1490.024326 0.3280 0.3410 0.3530 0.3650 0.3760
1493.272590 0.3870 0.3890 0.3890 0.3900 0.3900
1496.520854 0.3900 0.3900 0.3900 0.3890 0.3870
1499.769118 0.3780 0.3620 0.3470 0.3340 0.3220
1503.017382 0.2990 0.2880 0.2750 0.2620 0.2480
1506.265646 0.2300 0.2100 0.1860 0.1590 0.1271
1509.513910 0.1160 0.1120 0.0910 0.0700 0.0660
1512.762173 0.0630 0.0590 0.0570 0.0560 0.0550
1516.010437 0.0550 0.0550 0.0560 0.0610 0.0690
1519.258701 0.0810 0.0990 0.1200 0.1420 0.1670
1522.506965 0.1910 0.2150 0.2350 0.2570 0.2870
1525.755229 0.2950 0.3020 0.3240 0.3360 0.3450
1529.003493 0.3530 0.3660 0.3890 0.3970 0.4060
1532.251757 0.4170 0.4290 0.4420 0.4560 0.4710
1535.500021 0.4860 0.5020 0.5180 0.5340 0.5500
1538.748285 0.5650 0.5800 0.5940 0.6010 0.6070
1541.996549 0.6190 0.6300 0.6400 0.6480 0.6560
1545.244813 0.6630 0.6700 0.6750 0.6810 0.6860
1548.493077 0.6910 0.6950 0.7000 0.7060 0.7110
1551.741341 0.7170 0.7220 0.7260 0.7310 0.7340
1554.989605 0.7380 0.7420 0.7450 0.7470 0.7510
1558.237869 0.7540 0.7560 0.7590 0.7610 0.7620
1561.486133 0.7620 0.7630 0.7630 0.7640 0.7670
1564.734397 0.7690 0.7740 0.7770 0.7800 0.7810
1567.982661 0.7830 0.7840 0.7860 0.7870 0.7880
1571.230925 0.7890 0.7900 0.7920 0.7940 0.7960
1574.479189 0.7980 0.8000 0.8010 0.8020 0.8020
1577.727453 0.8030 0.8030 0.8030 0.8030 0.8010
1580.975717 0.8010 0.8000 0.7990 0.7980 0.7970
1584.223981 0.7960 0.7950 0.7940 0.7940 0.7930
1587.472245 0.7930 0.7920 0.7920 0.7920 0.7910
1590.720509 0.7900 0.7900 0.7890 0.7890 0.7890
1593.968773 0.7880 0.7870 0.7870 0.7860 0.7850
1597.217037 0.7850 0.7850 0.7840 0.7840 0.7830
1600.465300 0.7830 0.7820 0.7800 0.7740 0.7680
1603.713564 0.7630 0.7580 0.7540 0.7510 0.7460
1606.961828 0.7420 0.7370 0.7310 0.7260 0.7180
1610.210092 0.7120 0.7090 0.7070 0.7060 0.7050
1613.458356 0.7050 0.7050 0.7060 0.7070 0.7080
1616.706620 0.7080 0.7090 0.7090 0.7100 0.7110
1619.954884 0.7110 0.7120 0.7130 0.7130 0.7130
1623.203148 0.7140 0.7140 0.7150 0.7150 0.7150
1626.451412 0.7150 0.7160 0.7170 0.7180 0.7190
1629.699676 0.7200 0.7220 0.7220 0.7230 0.7230
1632.947940 0.7240 0.7240 0.7240 0.7260 0.7270
1636.196204 0.7270 0.7280 0.7290 0.7300 0.7310
1639.444468 0.7320 0.7330 0.7340 0.7350 0.7360
1642.692732 0.7360 0.7360 0.7370 0.7370 0.7370
1645.940996 0.7370 0.7370 0.7370 0.7370 0.7370
1649.189260 0.7370 0.7380 0.7380 0.7400 0.7430
1652.437524 0.7460 0.7470 0.7490 0.7510 0.7520
1655.685788 0.7520 0.7530 0.7530 0.7530 0.7540
1658.934052 0.7540 0.7550 0.7580 0.7610 0.7630
1662.182316 0.7650 0.7680 0.7700 0.7720 0.7730
1665.430580 0.7750 0.7770 0.7790 0.7800 0.7810
1668.678844 0.7830 0.7840 0.7850 0.7870 0.7870
1671.927108 0.7880 0.7880 0.7900 0.7920 0.7940
1675.175372 0.7960 0.7970 0.7990 0.8000 0.8010
1678.423636 0.8020 0.8030 0.8040 0.8050 0.8060
1681.671900 0.8070 0.8090 0.8100 0.8110 0.8120
1684.920164 0.8140 0.8160 0.8180 0.8190 0.8190
1688.168427 0.8200 0.8210 0.8210 0.8230 0.8230
1691.416691 0.8240 0.8260 0.8270 0.8280 0.8300
1694.664955 0.8310 0.8320 0.8330 0.8340 0.8340
1697.913219 0.8350 0.8350 0.8350 0.8360 0.8360
1701.161483 0.8390 0.8430 0.8460 0.8490 0.8520
1704.409747 0.8540 0.8550 0.8570 0.8580 0.8580
1707.658011 0.8600 0.8610 0.8610 0.8620 0.8630
1710.906275 0.8640 0.8640 0.8660 0.8680 0.8680
1714.154539 0.8680 0.8690 0.8690 0.8700 0.8700
1717.402803 0.8700 0.8710 0.8710 0.8720 0.8720
1720.651067 0.8720 0.8730 0.8730 0.8740 0.8760
1723.899331 0.8770 0.8790 0.8790 0.8800 0.8810
1727.147595 0.8810 0.8820 0.8820 0.8830 0.8830
1730.395859 0.8840 0.8840 0.8840 0.8840 0.8840
1733.644123 0.8840 0.8830 0.8820 0.8810 0.8800
1736.892387 0.8790 0.8780 0.8760 0.8750 0.8740
1740.140651 0.8730 0.8730 0.8730 0.8720 0.8720
1743.388915 0.8710 0.8710 0.8710 0.8700 0.8700
1746.637179 0.8700 0.8700 0.8700 0.8700 0.8700
1749.885443 0.8700 0.8700 0.8700 0.8710 0.8720
1753.133707 0.8720 0.8730 0.8730 0.8740 0.8740
1756.381971 0.8740 0.8750 0.8750 0.8750 0.8750
1759.630235 0.8750 0.8750 0.8750 0.8760 0.8770
1762.878499 0.8790 0.8790 0.8790 0.8790 0.8800
1766.126763 0.8800 0.8820 0.8820 0.8840 0.8840
1769.375027 0.8840 0.8840 0.8850 0.8860 0.8860
1772.623290 0.8860 0.8860 0.8860 0.8860 0.8870
1775.871554 0.8870 0.8870 0.8860 0.8860 0.8860
1779.119818 0.8860 0.8860 0.8860 0.8860 0.8860
1782.368082 0.8860 0.8860 0.8860 0.8860 0.8870
1785.616346 0.8870 0.8860 0.8860 0.8860 0.8850
1788.864610 0.8850 0.8840 0.8840 0.8840 0.8830
1792.112874 0.8830 0.8820 0.8820 0.8820 0.8810
1795.361138 0.8810 0.8800 0.8790 0.8780 0.8780
1798.609402 0.8770 0.8770 0.8770 0.8780 0.8790
1801.857666 0.8790 0.8800 0.8800 0.8810 0.8810
1805.105930 0.8810 0.8810 0.8810 0.8800 0.8800
1808.354194 0.8790 0.8790 0.8790 0.8780 0.8780
1811.602458 0.8780 0.8770 0.8770 0.8770 0.8760
1814.850722 0.8760 0.8760 0.8760 0.8760 0.8760
1818.098986 0.8750 0.8750 0.8750 0.8750 0.8750
1821.347250 0.8750 0.8750 0.8750 0.8750 0.8750
1824.595514 0.8750 0.8750 0.8750 0.8750 0.8750
1827.843778 0.8740 0.8740 0.8740 0.8730 0.8730
1831.092042 0.8730 0.8730 0.8720 0.8720 0.8720
1834.340306 0.8710 0.8710 0.8700 0.8670 0.8660
1837.588570 0.8640 0.8620 0.8600 0.8580 0.8560
1840.836834 0.8550 0.8540 0.8530 0.8510 0.8500
1844.085098 0.8500 0.8500 0.8490 0.8490 0.8480
1847.333362 0.8480 0.8480 0.8480 0.8480 0.8480
1850.581626 0.8480 0.8480 0.8450 0.8440 0.8400
1853.829890 0.8330 0.8250 0.8150 0.8050 0.7940
1857.078154 0.7850 0.7760 0.7620 0.7610 0.7600
1860.326417 0.7600 0.7620 0.7650 0.7670 0.7720
1863.574681 0.7770 0.7810 0.7880 0.7920 0.7950
1866.822945 0.7970 0.7980 0.7990 0.8010 0.8020
1870.071209 0.8030 0.8040 0.8050 0.8050 0.8050
1873.319473 0.8060 0.8070 0.8090 0.8100 0.8120
1876.567737 0.8160 0.8200 0.8240 0.8290 0.8340
1879.816001 0.8390 0.8430 0.8480 0.8520 0.8550
1883.064265 0.8570 0.8610 0.8660 0.8670 0.8670
1886.312529 0.8680 0.8680 0.8680 0.8690 0.8690
1889.560793 0.8700 0.8700 0.8710 0.8710 0.8710
1892.809057 0.8720 0.8720 0.8720 0.8720 0.8730
1896.057321 0.8730 0.8730 0.8730 0.8740 0.8740
1899.305585 0.8740 0.8740 0.8740 0.8730 0.8730
1902.553849 0.8730 0.8730 0.8720 0.8720 0.8720
1905.802113 0.8720 0.8710 0.8710 0.8700 0.8700
1909.050377 0.8700 0.8700 0.8700 0.8700 0.8700
1912.298641 0.8700 0.8700 0.8700 0.8690 0.8680
1915.546905 0.8680 0.8670 0.8670 0.8660 0.8660
1918.795169 0.8660 0.8650 0.8650 0.8650 0.8640
1922.043433 0.8630 0.8630 0.8610 0.8600 0.8590
1925.291697 0.8570 0.8570 0.8560 0.8560 0.8550
1928.539961 0.8550 0.8550 0.8540 0.8540 0.8540
1931.788225 0.8530 0.8530 0.8520 0.8520 0.8520
1935.036489 0.8520 0.8520 0.8510 0.8510 0.8510
1938.284753 0.8510 0.8510 0.8500 0.8500 0.8500
1941.533017 0.8500 0.8500 0.8500 0.8500 0.8500
1944.781281 0.8500 0.8500 0.8500 0.8500 0.8490
1948.029544 0.8490 0.8490 0.8490 0.8490 0.8490
1951.277808 0.8490 0.8490 0.8490 0.8490 0.8490
1954.526072 0.8480 0.8480 0.8480 0.8480 0.8480
1957.774336 0.8480 0.8480 0.8480 0.8480 0.8480
1961.022600 0.8480 0.8480 0.8480 0.8480 0.8480
1964.270864 0.8480 0.8480 0.8480 0.8480 0.8480
1967.519128 0.8480 0.8480 0.8480 0.8480 0.8480
1970.767392 0.8470 0.8470 0.8460 0.8460 0.8450
1974.015656 0.8450 0.8450 0.8440 0.8430 0.8430
1977.263920 0.8430 0.8430 0.8420 0.8420 0.8410
1980.512184 0.8410 0.8410 0.8410 0.8400 0.8400
1983.760448 0.8390 0.8390 0.8380 0.8370 0.8370
1987.008712 0.8360 0.8360 0.8360 0.8360 0.8350
1990.256976 0.8350 0.8340 0.8340 0.8340 0.8330
1993.505240 0.8320 0.8320 0.8310 0.8310 0.8300
1996.753504 0.8300 0.8300 0.8300 0.8300 0.8290
2000.001768 0.8290 0.8287 0.8285 0.8282 0.8280
2003.250032 0.8280 0.8280 0.8280 0.8280 0.8280
2006.498296 0.8280 0.8280 0.8280 0.8280 0.8280
2009.746560 0.8280 0.8280 0.8280 0.8280 0.8280
2012.994824 0.8280 0.8280 0.8280 0.8280 0.8279
2016.243088 0.8276 0.8274 0.8271 0.8270 0.8270
2019.491352 0.8270 0.8270 0.8270 0.8270 0.8270
2022.739616 0.8270 0.8268 0.8265 0.8263 0.8260
2025.987880 0.8260 0.8260 0.8260 0.8260 0.8257
2029.236144 0.8255 0.8252 0.8250 0.8250 0.8250
2032.484407 0.8250 0.8249 0.8244 0.8239 0.8234
2035.732671 0.8229 0.8227 0.8224 0.8222 0.8219
2038.980935 0.8217 0.8214 0.8211 0.8208 0.8203
2042.229199 0.8198 0.8193 0.8189 0.8186 0.8184
2045.477463 0.8181 0.8178 0.8176 0.8173 0.8171
2048.725727 0.8168 0.8166 0.8163 0.8160 0.8160
2051.973991 0.8160 0.8160 0.8160 0.8160 0.8160
2055.222255 0.8160 0.8160 0.8160 0.8160 0.8160
2058.470519 0.8160 0.8160 0.8160 0.8160 0.8160
2061.718783 0.8163 0.8166 0.8168 0.8171 0.8173
2064.967047 0.8176 0.8178 0.8180 0.8180 0.8180
2068.215311 0.8180 0.8180 0.8180 0.8180 0.8180
2071.463575 0.8181 0.8184 0.8186 0.8189 0.8190
2074.711839 0.8190 0.8190 0.8190 0.8190 0.8190
2077.960103 0.8190 0.8190 0.8192 0.8195 0.8197
2081.208367 0.8200 0.8202 0.8205 0.8207 0.8210
2084.456631 0.8213 0.8215 0.8218 0.8220 0.8223
2087.704895 0.8225 0.8228 0.8230 0.8233 0.8236
2090.953159 0.8238 0.8241 0.8243 0.8246 0.8248
2094.201423 0.8250 0.8250 0.8250 0.8250 0.8250
2097.449687 0.8250 0.8250 0.8250 0.8250 0.8250
2100.697951 0.8250 0.8250 0.8252 0.8254 0.8257
2103.946215 0.8259 0.8260 0.8260 0.8260 0.8260
2107.194479 0.8262 0.8265 0.8267 0.8270 0.8270
2110.442743 0.8270 0.8270 0.8270 0.8272 0.8275
2113.691007 0.8278 0.8280 0.8280 0.8280 0.8280
2116.939271 0.8280 0.8283 0.8285 0.8288 0.8290
2120.187534 0.8290 0.8290 0.8290 0.8291 0.8293
2123.435798 0.8296 0.8298 0.8300 0.8300 0.8300
2126.684062 0.8300 0.8300 0.8300 0.8300 0.8300
2129.932326 0.8300 0.8300 0.8300 0.8300 0.8300
2133.180590 0.8300 0.8300 0.8300 0.8300 0.8300
2136.428854 0.8300 0.8300 0.8302 0.8305 0.8307
2139.677118 0.8310 0.8310 0.8310 0.8310 0.8310
2142.925382 0.8310 0.8310 0.8310 0.8310 0.8310
2146.173646 0.8310 0.8310 0.8310 0.8310 0.8310
2149.421910 0.8310 0.8310 0.8310 0.8310 0.8310
2152.670174 0.8310 0.8310 0.8310 0.8310 0.8310
2155.918438 0.8310 0.8310 0.8310 0.8310 0.8310
2159.166702 0.8310 0.8310 0.8308 0.8306 0.8303
2162.414966 0.8301 0.8300 0.8300 0.8300 0.8300
2165.663230 0.8298 0.8295 0.8293 0.8290 0.8290
2168.911494 0.8290 0.8290 0.8290 0.8287 0.8285
2172.159758 0.8282 0.8280 0.8280 0.8280 0.8280
2175.408022 0.8280 0.8280 0.8280 0.8280 0.8279
2178.656286 0.8277 0.8274 0.8271 0.8269 0.8266
2181.904550 0.8264 0.8261 0.8259 0.8256 0.8254
2185.152814 0.8251 0.8248 0.8246 0.8243 0.8241
2188.401078 0.8238 0.8236 0.8233 0.8231 0.8228
2191.649342 0.8225 0.8223 0.8220 0.8218 0.8215
2194.897606 0.8213 0.8210 0.8208 0.8205 0.8202
2198.145870 0.8200 0.8197 0.8195 0.8192 0.8190
2201.394134 0.8187 0.8185 0.8182 0.8180 0.8180
2204.642398 0.8180 0.8180 0.8178 0.8173 0.8168
2207.890661 0.8163 0.8158 0.8153 0.8148 0.8142
2211.138925 0.8137 0.8132 0.8127 0.8122 0.8118
2214.387189 0.8116 0.8113 0.8111 0.8108 0.8106
2217.635453 0.8103 0.8101 0.8098 0.8095 0.8093
2220.883717 0.8090 0.8086 0.8080 0.8075 0.8070
2224.131981 0.8068 0.8065 0.8062 0.8060 0.8057
2227.380245 0.8055 0.8052 0.8049 0.8044 0.8039
2230.628509 0.8034 0.8029 0.8027 0.8024 0.8022
2233.876773 0.8019 0.8017 0.8014 0.8011 0.8009
2237.125037 0.8006 0.8004 0.8001 0.7997 0.7992
2240.373301 0.7987 0.7982 0.7977 0.7972 0.7967
2243.621565 0.7962 0.7958 0.7956 0.7953 0.7951
2246.869829 0.7948 0.7945 0.7943 0.7940 0.7936
2250.118093 0.7931 0.7925 0.7920 0.7913 0.7905
2253.366357 0.7897 0.7890 0.7890 0.7890 0.7890
2256.614621 0.7890 0.7887 0.7884 0.7882 0.7879
2259.862885 0.7877 0.7874 0.7872 0.7870 0.7870
2263.111149 0.7870 0.7870 0.7870 0.7870 0.7870
2266.359413 0.7870 0.7869 0.7866 0.7864 0.7861
2269.607677 0.7859 0.7856 0.7853 0.7851 0.7850
2272.855941 0.7850 0.7850 0.7850 0.7848 0.7845
2276.104205 0.7843 0.7840 0.7838 0.7835 0.7833
2279.352469 0.7830 0.7830 0.7830 0.7830 0.7830
2282.600733 0.7830 0.7830 0.7830 0.7830 0.7830
2285.848997 0.7830 0.7830 0.7829 0.7827 0.7824
2289.097261 0.7822 0.7819 0.7817 0.7814 0.7812
2292.345525 0.7809 0.7806 0.7804 0.7801 0.7800
2295.593788 0.7800 0.7800 0.7800 0.7799 0.7796
2298.842052 0.7793 0.7791 0.7790 0.7790 0.7790
2302.090316 0.7790 0.7788 0.7785 0.7783 0.7780
2305.338580 0.7780 0.7780 0.7780 0.7780 0.7778
2308.586844 0.7775 0.7772 0.7770 0.7767 0.7765
2311.835108 0.7762 0.7759 0.7754 0.7749 0.7744
2315.083372 0.7740 0.7740 0.7740 0.7740 0.7738
2318.331636 0.7733 0.7728 0.7723 0.7719 0.7716
2321.579900 0.7714 0.7711 0.7710 0.7710 0.7710
2324.828164 0.7710 0.7710 0.7710 0.7710 0.7710
2328.076428 0.7708 0.7706 0.7703 0.7701 0.7698
2331.324692 0.7695 0.7693 0.7690 0.7690 0.7690
2334.572956 0.7690 0.7690 0.7690 0.7690 0.7690
2337.821220 0.7690 0.7690 0.7690 0.7690 0.7690
2341.069484 0.7687 0.7685 0.7682 0.7679 0.7677
2344.317748 0.7674 0.7672 0.7670 0.7670 0.7670
2347.566012 0.7670 0.7669 0.7666 0.7664 0.7661
2350.814276 0.7659 0.7656 0.7654 0.7651 0.7650
2354.062540 0.7650 0.7650 0.7650 0.7650 0.7650
2357.310804 0.7650 0.7650 0.7648 0.7645 0.7643
2360.559068 0.7640 0.7638 0.7635 0.7633 0.7630
2363.807332 0.7630 0.7630 0.7630 0.7630 0.7627
2367.055596 0.7625 0.7622 0.7619 0.7614 0.7609
2370.303860 0.7604 0.7600 0.7600 0.7600 0.7600
2373.552124 0.7598 0.7593 0.7588 0.7583 0.7579
2376.800388 0.7576 0.7574 0.7571 0.7569 0.7566
2380.048651 0.7564 0.7561 0.7558 0.7556 0.7553
2383.296915 0.7551 0.7548 0.7546 0.7543 0.7541
2386.545179 0.7538 0.7535 0.7533 0.7530 0.7528
2389.793443 0.7525 0.7523 0.7520 0.7518 0.7515
2393.041707 0.7512 0.7510 0.7507 0.7505 0.7502
2396.289971 0.7500 0.7497 0.7495 0.7492 0.7488
2399.538235 0.7478 0.7467 0.7457 0.7448 0.7440
2402.786499 0.7432 0.7425 0.7413 0.7395 0.7377
2406.034763 0.7359 0.7342 0.7327 0.7311 0.7296
2409.283027 0.7285 0.7278 0.7270 0.7262 0.7255
2412.531291 0.7247 0.7239 0.7232 0.7224 0.7216
2415.779555 0.7209 0.7201 0.7193 0.7186 0.7178
2419.027819 0.7170 0.7165 0.7160 0.7155 0.7150
2422.276083 0.7139 0.7129 0.7119 0.7109 0.7101
2425.524347 0.7094 0.7086 0.7079 0.7074 0.7069
2428.772611 0.7064 0.7057 0.7047 0.7036 0.7026
2432.020875 0.7018 0.7013 0.7008 0.7003 0.6996
2435.269139 0.6988 0.6981 0.6973 0.6964 0.6954
2438.517403 0.6943 0.6933 0.6925 0.6917 0.6909
2441.765667 0.6902 0.6896 0.6891 0.6886 0.6881
2445.013931 0.6871 0.6861 0.6851 0.6841 0.6833
2448.262195 0.6825 0.6817 0.6810 0.6800 0.6789
2451.510459 0.6779 0.6769 0.6762 0.6754 0.6746
2454.758723 0.6738 0.6728 0.6717 0.6707 0.6699
2458.006987 0.6697 0.6694 0.6691 0.6689 0.6686
2461.255251 0.6684 0.6681 0.6680 0.6680 0.6680
2464.503515 0.6680 0.6680 0.6680 0.6680 0.6680
2467.751778 0.6682 0.6684 0.6687 0.6689 0.6692
2471.000042 0.6694 0.6697 0.6700 0.6704 0.6709
2474.248306 0.6715 0.6720 0.6722 0.6725 0.6727
2477.496570 0.6730 0.6735 0.6740 0.6745 0.6751
2480.744834 0.6756 0.6761 0.6766 0.6771 0.6773
2483.993098 0.6776 0.6778 0.6781 0.6783 0.6786
2487.241362 0.6788 0.6791 0.6794 0.6796 0.6799
2490.489626 0.6801 0.6804 0.6806 0.6809 0.6811
2493.737890 0.6814 0.6817 0.6819 0.6823 0.6829
2496.986154 0.6834 0.6839 0.6842 0.6844 0.6847
2500.234418 0.6850 0.6852 0.6855 0.6857 0.6860
2503.482682 0.6865 0.6870 0.6875 0.6880 0.6880
2506.730946 0.6880 0.6880 0.6880 0.6883 0.6885
2509.979210 0.6888 0.6891 0.6893 0.6896 0.6898
2513.227474 0.6900 0.6900 0.6900 0.6900 0.6901
2516.475738 0.6904 0.6906 0.6909 0.6906 0.6899
2519.724002 0.6891 0.6883 0.6879 0.6876 0.6873
2522.972266 0.6871 0.6867 0.6862 0.6856 0.6851
2526.220530 0.6844 0.6837 0.6829 0.6821 0.6818
2529.468794 0.6815 0.6813 0.6810 0.6803 0.6795
2532.717058 0.6787 0.6779 0.6767 0.6754 0.6741
2535.965322 0.6729 0.6721 0.6714 0.6706 0.6698
2539.213586 0.6691 0.6683 0.6675 0.6665 0.6650
2542.461850 0.6635 0.6619 0.6603 0.6585 0.6567
2545.710114 0.6549 0.6530 0.6510 0.6489 0.6469
2548.958378 0.6450 0.6432 0.6414 0.6396 0.6382
2552.206642 0.6369 0.6356 0.6343 0.6331 0.6318
2555.454905 0.6305 0.6292 0.6284 0.6276 0.6268
2558.703169 0.6260 0.6255 0.6250 0.6245 0.6240
2561.951433 0.6237 0.6235 0.6232 0.6230 0.6230
2565.199697 0.6230 0.6230 0.6230 0.6230 0.6230
2568.447961 0.6230 0.6229 0.6227 0.6224 0.6222
2571.696225 0.6220 0.6220 0.6220 0.6220 0.6220
2574.944489 0.6220 0.6220 0.6220 0.6219 0.6216
2578.192753 0.6213 0.6211 0.6210 0.6210 0.6210
2581.441017 0.6210 0.6208 0.6206 0.6203 0.6200
2584.689281 0.6198 0.6195 0.6193 0.6190 0.6188
2587.937545 0.6185 0.6182 0.6180 0.6180 0.6180
2591.185809 0.6180 0.6180 0.6180 0.6180 0.6180
2594.434073 0.6179 0.6177 0.6174 0.6172 0.6171
2597.682337 0.6173 0.6176 0.6178 0.6181 0.6184
2600.930601 0.6186 0.6189 0.6194 0.6201 0.6209
2604.178865 0.6217 0.6224 0.6232 0.6240 0.6247
2607.427129 0.6253 0.6258 0.6264 0.6269 0.6272
2610.675393 0.6275 0.6277 0.6280 0.6282 0.6285
2613.923657 0.6287 0.6290 0.6292 0.6295 0.6298
2617.171921 0.6300 0.6305 0.6310 0.6315 0.6320
2620.420185 0.6323 0.6325 0.6328 0.6331 0.6336
2623.668449 0.6341 0.6346 0.6351 0.6357 0.6362
2626.916713 0.6367 0.6371 0.6374 0.6376 0.6379
2630.164977 0.6381 0.6384 0.6386 0.6389 0.6394
2633.413241 0.6402 0.6410 0.6418 0.6425 0.6433
2636.661505 0.6441 0.6448 0.6452 0.6455 0.6457
2639.909769 0.6460 0.6462 0.6465 0.6467 0.6470
2643.158032 0.6470 0.6470 0.6470 0.6470 0.6473
2646.406296 0.6475 0.6478 0.6480 0.6480 0.6480
2649.654560 0.6480 0.6480 0.6477 0.6474 0.6472
2652.902824 0.6469 0.6467 0.6464 0.6462 0.6459
2656.151088 0.6457 0.6454 0.6451 0.6448 0.6442
2659.399352 0.6437 0.6432 0.6427 0.6422 0.6417
2662.647616 0.6412 0.6407 0.6401 0.6396 0.6391
2665.895880 0.6380 0.6368 0.6355 0.6342 0.6331
2669.144144 0.6321 0.6311 0.6301 0.6293 0.6285
2672.392408 0.6278 0.6270 0.6257 0.6244 0.6231
2675.640672 0.6218 0.6197 0.6177 0.6157 0.6132
2678.888936 0.6091 0.6051 0.6010 0.5974 0.5951
2682.137200 0.5928 0.5905 0.5886 0.5876 0.5866
2685.385464 0.5855 0.5841 0.5823 0.5805 0.5788
2688.633728 0.5771 0.5756 0.5740 0.5725 0.5715
2691.881992 0.5707 0.5700 0.5692 0.5686 0.5681
2695.130256 0.5676 0.5671 0.5666 0.5661 0.5656
2698.378520 0.5650 0.5643 0.5635 0.5628 0.5620
2701.626784 0.5615 0.5610 0.5605 0.5600 0.5600
2704.875048 0.5600 0.5600 0.5600 0.5597 0.5594
2708.123312 0.5592 0.5590 0.5590 0.5590 0.5590
2711.371576 0.5589 0.5586 0.5584 0.5581 0.5580
2714.619840 0.5580 0.5580 0.5580 0.5580 0.5580
2717.868104 0.5580 0.5580 0.5582 0.5584 0.5587
2721.116368 0.5589 0.5592 0.5594 0.5597 0.5600
2724.364632 0.5600 0.5600 0.5600 0.5600 0.5605
2727.612895 0.5610 0.5615 0.5620 0.5628 0.5635
2730.861159 0.5643 0.5651 0.5658 0.5666 0.5674
2734.109423 0.5680 0.5683 0.5686 0.5688 0.5692
2737.357687 0.5697 0.5702 0.5707 0.5711 0.5714
2740.605951 0.5716 0.5719 0.5722 0.5728 0.5733
2743.854215 0.5738 0.5744 0.5752 0.5760 0.5767
2747.102479 0.5773 0.5778 0.5784 0.5789 0.5805
2750.350743 0.5825 0.5846 0.5866 0.5885 0.5903
2753.599007 0.5920 0.5938 0.5952 0.5964 0.5977
2756.847271 0.5990 0.5993 0.5995 0.5998 0.6000
2760.095535 0.6003 0.6005 0.6008 0.6011 0.6016
2763.343799 0.6021 0.6026 0.6031 0.6033 0.6036
2766.592063 0.6038 0.6041 0.6044 0.6046 0.6049
2769.840327 0.6050 0.6050 0.6050 0.6050 0.6050
2773.088591 0.6050 0.6050 0.6050 0.6050 0.6050
2776.336855 0.6050 0.6050 0.6048 0.6046 0.6043
2779.585119 0.6040 0.6038 0.6035 0.6033 0.6030
2782.833383 0.6030 0.6030 0.6030 0.6030 0.6022
2786.081647 0.6015 0.6007 0.5999 0.5994 0.5989
2789.329911 0.5984 0.5979 0.5977 0.5974 0.5972
2792.578175 0.5967 0.5957 0.5947 0.5936 0.5929
2795.826439 0.5926 0.5924 0.5921 0.5916 0.5909
2799.074703 0.5901 0.5893 0.5882 0.5866 0.5851
2802.322967 0.5836 0.5817 0.5797 0.5776 0.5756
2805.571231 0.5735 0.5715 0.5694 0.5674 0.5656
2808.819495 0.5638 0.5620 0.5602 0.5582 0.5561
2812.067759 0.5540 0.5519 0.5502 0.5484 0.5466
2815.316022 0.5448 0.5430 0.5412 0.5394 0.5377
2818.564286 0.5365 0.5352 0.5339 0.5326 0.5310
2821.812550 0.5295 0.5280 0.5265 0.5252 0.5240
2825.060814 0.5227 0.5215 0.5205 0.5195 0.5185
2828.309078 0.5174 0.5164 0.5154 0.5144 0.5135
2831.557342 0.5128 0.5120 0.5112 0.5106 0.5101
2834.805606 0.5096 0.5091 0.5090 0.5090 0.5090
2838.053870 0.5090 0.5088 0.5085 0.5082 0.5080
2841.302134 0.5080 0.5080 0.5080 0.5080 0.5077
2844.550398 0.5075 0.5072 0.5070 0.5067 0.5064
2847.798662 0.5062 0.5059 0.5057 0.5054 0.5052
2851.046926 0.5049 0.5047 0.5044 0.5041 0.5039
2854.295190 0.5036 0.5034 0.5031 0.5029 0.5026
2857.543454 0.5024 0.5021 0.5020 0.5020 0.5020
2860.791718 0.5020 0.5018 0.5016 0.5013 0.5010
2864.039982 0.5010 0.5010 0.5010 0.5010 0.5012
2867.288246 0.5015 0.5017 0.5020 0.5020 0.5020
2870.536510 0.5020 0.5021 0.5026 0.5031 0.5036
2873.784774 0.5041 0.5046 0.5051 0.5056 0.5060
2877.033038 0.5060 0.5060 0.5060 0.5060 0.5060
2880.281302 0.5060 0.5060 0.5060 0.5060 0.5060
2883.529566 0.5060 0.5060 0.5060 0.5060 0.5060
2886.777830 0.5058 0.5056 0.5053 0.5051 0.5048
2890.026094 0.5046 0.5043 0.5040 0.5038 0.5035
2893.274358 0.5033 0.5030 0.5025 0.5020 0.5015
2896.522622 0.5010 0.5007 0.5005 0.5002 0.5000
2899.770886 0.4997 0.4995 0.4992 0.4988 0.4978
2903.019149 0.4968 0.4958 0.4947 0.4937 0.4927
2906.267413 0.4917 0.4909 0.4907 0.4904 0.4901
2909.515677 0.4898 0.4893 0.4888 0.4882 0.4876
2912.763941 0.4868 0.4860 0.4853 0.4845 0.4837
2916.012205 0.4830 0.4822 0.4814 0.4807 0.4799
2919.260469 0.4791 0.4784 0.4776 0.4768 0.4761
2922.508733 0.4753 0.4745 0.4738 0.4730 0.4722
2925.756997 0.4715 0.4707 0.4699 0.4689 0.4679
2929.005261 0.4668 0.4658 0.4645 0.4632 0.4619
2932.253525 0.4609 0.4607 0.4604 0.4602 0.4599
2935.501789 0.4597 0.4594 0.4591 0.4588 0.4583
2938.750053 0.4577 0.4572 0.4563 0.4550 0.4537
2941.998317 0.4524 0.4517 0.4512 0.4506 0.4501
2945.246581 0.4496 0.4491 0.4486 0.4481 0.4476
2948.494845 0.4471 0.4466 0.4460 0.4453 0.4445
2951.743109 0.4438 0.4430 0.4422 0.4415 0.4407
2954.991373 0.4399 0.4386 0.4373 0.4361 0.4348
2958.239637 0.4335 0.4322 0.4310 0.4297 0.4287
2961.487901 0.4277 0.4267 0.4257 0.4246 0.4236
2964.736165 0.4225 0.4216 0.4209 0.4201 0.4193
2967.984429 0.4186 0.4178 0.4170 0.4163 0.4155
2971.232693 0.4147 0.4140 0.4132 0.4124 0.4117
2974.480957 0.4109 0.4101 0.4096 0.4091 0.4086
2977.729221 0.4081 0.4075 0.4070 0.4065 0.4060
2980.977485 0.4052 0.4045 0.4037 0.4030 0.4025
2984.225749 0.4019 0.4014 0.4009 0.4004 0.3999
2987.474012 0.3994 0.3988 0.3980 0.3973 0.3965
2990.722276 0.3958 0.3953 0.3948 0.3943 0.3935
2993.970540 0.3925 0.3915 0.3905 0.3886 0.3860
2997.218804 0.3835 0.3809 0.3789 0.3771 0.3753
3000.467068 0.3735 0.3721 0.3708 0.3695 0.3682
3003.715332 0.3672 0.3662 0.3651 0.3641 0.3635
3006.963596 0.3630 0.3625 0.3620 0.3613 0.3605
3010.211860 0.3597 0.3589 0.3582 0.3574 0.3567
3013.460124 0.3559 0.3551 0.3543 0.3536 0.3526
3016.708388 0.3514 0.3501 0.3488 0.3473 0.3455
3019.956652 0.3438 0.3420 0.3394 0.3358 0.3322
3023.204916 0.3286 0.3227 0.3148 0.3069 0.2989
3026.453180 0.2925 0.2868 0.2812 0.2756 0.2722
3029.701444 0.2696 0.2671 0.2645 0.2638 0.2635
3032.949708 0.2633 0.2630 0.2632 0.2635 0.2637
3036.197972 0.2640 0.2672 0.2705 0.2739 0.2772
3039.446236 0.2806 0.2839 0.2873 0.2900 0.2903
3042.694500 0.2906 0.2908 0.2909 0.2907 0.2904
3045.942764 0.2902 0.2900 0.2900 0.2900 0.2900
3049.191028 0.2898 0.2893 0.2887 0.2882 0.2876
3052.439292 0.2868 0.2861 0.2853 0.2845 0.2838
3055.687556 0.2830 0.2822 0.2815 0.2807 0.2799
3058.935820 0.2792 0.2782 0.2772 0.2761 0.2751
3062.184084 0.2734 0.2716 0.2699 0.2681 0.2663
3065.432348 0.2644 0.2626 0.2609 0.2596 0.2583
3068.680612 0.2570 0.2558 0.2548 0.2538 0.2527
3071.928876 0.2518 0.2510 0.2503 0.2495 0.2486
3075.177139 0.2476 0.2466 0.2456 0.2445 0.2435
3078.425403 0.2425 0.2415 0.2405 0.2394 0.2384
3081.673667 0.2374 0.2359 0.2341 0.2323 0.2305
3084.921931 0.2291 0.2278 0.2266 0.2253 0.2242
3088.170195 0.2232 0.2222 0.2211 0.2208 0.2205
3091.418459 0.2203 0.2200 0.2195 0.2190 0.2185
3094.666723 0.2179 0.2169 0.2159 0.2148 0.2138
3097.914987 0.2128 0.2118 0.2108 0.2098 0.2090
3101.163251 0.2083 0.2075 0.2067 0.2060 0.2052
3104.411515 0.2044 0.2036 0.2025 0.2015 0.2005
3107.659779 0.1997 0.1992 0.1987 0.1982 0.1978
3110.908043 0.1976 0.1973 0.1971 0.1959 0.1944
3114.156307 0.1929 0.1913 0.1904 0.1896 0.1888
3117.404571 0.1881 0.1861 0.1841 0.1820 0.1800
3120.652835 0.1777 0.1754 0.1731 0.1709 0.1693
3123.901099 0.1678 0.1663 0.1648 0.1635 0.1622
3127.149363 0.1609 0.1596 0.1581 0.1565 0.1550
3130.397627 0.1536 0.1526 0.1516 0.1506 0.1499
3133.645891 0.1496 0.1494 0.1491 0.1485 0.1475
3136.894155 0.1464 0.1454 0.1447 0.1442 0.1437
3140.142419 0.1432 0.1425 0.1417 0.1409 0.1401
3143.390683 0.1392 0.1381 0.1371 0.1361 0.1358
3146.638947 0.1355 0.1353 0.1350 0.1345 0.1340
3149.887211 0.1335 0.1330 0.1324 0.1319 0.1314
3153.135475 0.1309 0.1304 0.1299 0.1294 0.1289
3156.383739 0.1284 0.1278 0.1273 0.1266 0.1253
3159.632003 0.1240 0.1227 0.1217 0.1209 0.1201
3162.880266 0.1194 0.1187 0.1182 0.1177 0.1172
3166.128530 0.1162 0.1149 0.1136 0.1124 0.1120
3169.376794 0.1120 0.1120 0.1120 0.1116 0.1111
3172.625058 0.1106 0.1101 0.1098 0.1095 0.1093
3175.873322 0.1090 0.1087 0.1085 0.1082 0.1080
3179.121586 0.1077 0.1075 0.1072 0.1070 0.1067
3182.369850 0.1064 0.1062 0.1059 0.1054 0.1049
3185.618114 0.1043 0.1038 0.1033 0.1028 0.1023
3188.866378 0.1019 0.1016 0.1014 0.1011 0.1009
3192.114642 0.1006 0.1004 0.1001 0.0998 0.0996
3195.362906 0.0993 0.0991 0.0984 0.0977 0.0969
3198.611170 0.0961 0.0956 0.0951 0.0946 0.0941
3201.859434 0.0931 0.0921 0.0910 0.0900 0.0900
3205.107698 0.0900 0.0900 0.0900 0.0897 0.0895
3208.355962 0.0892 0.0890 0.0887 0.0885 0.0882
3211.604226 0.0880 0.0880 0.0880 0.0880 0.0880
3214.852490 0.0880 0.0880 0.0880 0.0880 0.0880
3218.100754 0.0880 0.0880 0.0879 0.0876 0.0874
3221.349018 0.0871 0.0868 0.0866 0.0863 0.0861
3224.597282 0.0860 0.0860 0.0860 0.0860 0.0858
3227.845546 0.0855 0.0853 0.0850 0.0848 0.0845
3231.093810 0.0843 0.0840 0.0840 0.0840 0.0840
3234.342074 0.0840 0.0835 0.0829 0.0824 0.0820
3237.590338 0.0820 0.0820 0.0820 0.0819 0.0817
3240.838602 0.0814 0.0812 0.0809 0.0807 0.0804
3244.086866 0.0801 0.0799 0.0796 0.0794 0.0791
3247.335130 0.0787 0.0782 0.0777 0.0772 0.0768
3250.583393 0.0766 0.0763 0.0761 0.0758 0.0756
3253.831657 0.0753 0.0751 0.0750 0.0750 0.0750
3257.079921 0.0750 0.0750 0.0750 0.0750 0.0750
3260.328185 0.0752 0.0755 0.0758 0.0760 0.0763
3263.576449 0.0765 0.0768 0.0770 0.0773 0.0775
3266.824713 0.0778 0.0781 0.0783 0.0786 0.0788
3270.072977 0.0791 0.0793 0.0796 0.0799 0.0801
3273.321241 0.0804 0.0806 0.0809 0.0811 0.0814
3276.569505 0.0816 0.0819 0.0822 0.0824 0.0827
3279.817769 0.0829 0.0839 0.0852 0.0864 0.0877
3283.066033 0.0884 0.0889 0.0894 0.0899 0.0902
3286.314297 0.0905 0.0907 0.0910 0.0912 0.0915
3289.562561 0.0918 0.0921 0.0933 0.0946 0.0959
3292.810825 0.0971 0.0976 0.0981 0.0986 0.0991
3296.059089 0.0993 0.0996 0.0998 0.1002 0.1007
3299.307353 0.1012 0.1017 0.1023 0.1031 0.1039
3302.555617 0.1046 0.1054 0.1062 0.1069 0.1077
3305.803881 0.1082 0.1084 0.1087 0.1089 0.1090
3309.052145 0.1090 0.1090 0.1090 0.1094 0.1099
3312.300409 0.1104 0.1109 0.1112 0.1115 0.1117
3315.548673 0.1120 0.1135 0.1150 0.1165 0.1180
3318.796937 0.1191 0.1201 0.1211 0.1223 0.1244
3322.045201 0.1264 0.1285 0.1305 0.1322 0.1340
3325.293465 0.1358 0.1372 0.1377 0.1382 0.1387
3328.541729 0.1393 0.1401 0.1409 0.1416 0.1429
3331.789993 0.1447 0.1465 0.1483 0.1499 0.1515
3335.038256 0.1530 0.1545 0.1561 0.1576 0.1591
3338.286520 0.1606 0.1626 0.1646 0.1667 0.1687
3341.534784 0.1703 0.1718 0.1734 0.1749 0.1762
3344.783048 0.1775 0.1788 0.1802 0.1822 0.1842
3348.031312 0.1863 0.1881 0.1889 0.1897 0.1904
3351.279576 0.1914 0.1932 0.1950 0.1968 0.1983
3354.527840 0.1990 0.1998 0.2006 0.2025 0.2061
3357.776104 0.2097 0.2132 0.2163 0.2188 0.2214
3361.024368 0.2240 0.2264 0.2287 0.2310 0.2333
3364.272632 0.2349 0.2361 0.2374 0.2387 0.2398
3367.520896 0.2408 0.2418 0.2428 0.2445 0.2463
3370.769160 0.2482 0.2500 0.2513 0.2525 0.2538
3374.017424 0.2551 0.2566 0.2582 0.2597 0.2613
3377.265688 0.2631 0.2649 0.2666 0.2682 0.2693
3380.513952 0.2703 0.2713 0.2727 0.2747 0.2768
3383.762216 0.2788 0.2804 0.2814 0.2825 0.2835
3387.010480 0.2848 0.2863 0.2878 0.2894 0.2909
3390.258744 0.2924 0.2940 0.2955 0.2965 0.2973
3393.507008 0.2980 0.2988 0.2996 0.3004 0.3011
3396.755272 0.3019 0.3041 0.3064 0.3087 0.3110
3400.003536 0.3135 0.3161 0.3186 0.3212 0.3240
3403.251800 0.3268 0.3296 0.3323 0.3344 0.3364
3406.500064 0.3384 0.3407 0.3435 0.3463 0.3491
3409.748328 0.3512 0.3520 0.3528 0.3535 0.3550
3412.996592 0.3576 0.3601 0.3627 0.3649 0.3667
3416.244856 0.3685 0.3702 0.3723 0.3746 0.3769
3419.493120 0.3792 0.3815 0.3839 0.3862 0.3885
3422.741383 0.3912 0.3941 0.3969 0.3997 0.4020
3425.989647 0.4043 0.4066 0.4089 0.4115 0.4140
3429.237911 0.4166 0.4191 0.4206 0.4222 0.4237
3432.486175 0.4254 0.4282 0.4310 0.4338 0.4369
3435.734439 0.4410 0.4451 0.4492 0.4529 0.4557
3438.982703 0.4585 0.4613 0.4647 0.4691 0.4734
3442.230967 0.4778 0.4814 0.4842 0.4870 0.4898
3445.479231 0.4922 0.4943 0.4963 0.4984 0.5008
3448.727495 0.5034 0.5059 0.5085 0.5110 0.5136
3451.975759 0.5161 0.5187 0.5212 0.5238 0.5264
3455.224023 0.5289 0.5312 0.5335 0.5358 0.5381
3458.472287 0.5396 0.5411 0.5427 0.5445 0.5483
3461.720551 0.5522 0.5560 0.5592 0.5602 0.5613
3464.968815 0.5623 0.5643 0.5683 0.5724 0.5765
3468.217079 0.5801 0.5829 0.5857 0.5885 0.5915
3471.465343 0.5946 0.5977 0.6008 0.6031 0.6049
3474.713607 0.6067 0.6085 0.6097 0.6107 0.6118
3477.961871 0.6128 0.6154 0.6185 0.6215 0.6246
3481.210135 0.6286 0.6326 0.6367 0.6408 0.6430
3484.458399 0.6450 0.6470 0.6490 0.6501 0.6511
3487.706663 0.6521 0.6535 0.6573 0.6612 0.6650
3490.954927 0.6680 0.6680 0.6680 0.6680 0.6687
3494.203191 0.6710 0.6733 0.6756 0.6782 0.6813
3497.451455 0.6844 0.6875 0.6895 0.6906 0.6916
3500.699719 0.6926 0.6941 0.6959 0.6977 0.6994
3503.947983 0.7009 0.7022 0.7034 0.7047 0.7062
3507.196247 0.7077 0.7093 0.7108 0.7121 0.7134
3510.444510 0.7147 0.7159 0.7191 0.7225 0.7258
3513.692774 0.7290 0.7295 0.7300 0.7305 0.7312
3516.941038 0.7333 0.7353 0.7374 0.7395 0.7421
3520.189302 0.7446 0.7472 0.7497 0.7520 0.7543
3523.437566 0.7567 0.7582 0.7587 0.7592 0.7598
3526.685830 0.7613 0.7639 0.7664 0.7690 0.7702
3529.934094 0.7704 0.7707 0.7709 0.7715 0.7723
3533.182358 0.7731 0.7738 0.7754 0.7772 0.7790
3536.430622 0.7807 0.7814 0.7819 0.7825 0.7830
3539.678886 0.7847 0.7865 0.7883 0.7900 0.7910
3542.927150 0.7921 0.7931 0.7942 0.7957 0.7972
3546.175414 0.7988 0.8001 0.8003 0.8006 0.8008
3549.423678 0.8017 0.8037 0.8058 0.8078 0.8095
3552.671942 0.8108 0.8121 0.8134 0.8146 0.8159
3555.920206 0.8172 0.8185 0.8190 0.8190 0.8190
3559.168470 0.8190 0.8206 0.8229 0.8252 0.8275
3562.416734 0.8284 0.8289 0.8294 0.8299 0.8300
3565.664998 0.8300 0.8300 0.8300 0.8310 0.8320
3568.913262 0.8330 0.8340 0.8345 0.8350 0.8355
3572.161526 0.8361 0.8374 0.8387 0.8400 0.8412
3575.409790 0.8423 0.8433 0.8443 0.8454 0.8467
3578.658054 0.8480 0.8493 0.8500 0.8500 0.8500
3581.906318 0.8500 0.8503 0.8508 0.8513 0.8518
3585.154582 0.8520 0.8520 0.8520 0.8520 0.8523
3588.402846 0.8529 0.8534 0.8539 0.8542 0.8544
3591.651110 0.8547 0.8550 0.8552 0.8555 0.8557
3594.899374 0.8560 0.8567 0.8575 0.8582 0.8590
3598.147637 0.8595 0.8600 0.8606 0.8611 0.8619
3601.395901 0.8626 0.8634 0.8641 0.8646 0.8651
3604.644165 0.8657 0.8662 0.8667 0.8672 0.8677
3607.892429 0.8682 0.8687 0.8692 0.8697 0.8701
3611.140693 0.8704 0.8706 0.8709 0.8711 0.8714
3614.388957 0.8717 0.8719 0.8722 0.8724 0.8727
3617.637221 0.8729 0.8732 0.8734 0.8737 0.8740
3620.885485 0.8742 0.8745 0.8747 0.8750 0.8750
3624.133749 0.8750 0.8750 0.8750 0.8753 0.8755
3627.382013 0.8758 0.8760 0.8760 0.8760 0.8760
3630.630277 0.8761 0.8763 0.8766 0.8768 0.8771
3633.878541 0.8773 0.8776 0.8778 0.8781 0.8784
3637.126805 0.8786 0.8789 0.8792 0.8798 0.8803
3640.375069 0.8808 0.8811 0.8814 0.8817 0.8819
3643.623333 0.8823 0.8828 0.8834 0.8839 0.8842
3646.871597 0.8844 0.8847 0.8850 0.8852 0.8855
3650.119861 0.8857 0.8860 0.8860 0.8860 0.8860
3653.368125 0.8860 0.8863 0.8865 0.8868 0.8870
3656.616389 0.8870 0.8870 0.8870 0.8871 0.8873
3659.864653 0.8876 0.8878 0.8880 0.8880 0.8880
3663.112917 0.8880 0.8879 0.8876 0.8874 0.8871
3666.361181 0.8870 0.8870 0.8870 0.8870 0.8869
3669.609445 0.8866 0.8863 0.8861 0.8857 0.8852
3672.857709 0.8846 0.8841 0.8836 0.8831 0.8826
3676.105973 0.8821 0.8816 0.8810 0.8805 0.8800
3679.354237 0.8800 0.8800 0.8800 0.8800 0.8797
3682.602500 0.8795 0.8792 0.8790 0.8790 0.8790
3685.850764 0.8790 0.8790 0.8790 0.8790 0.8790
3689.099028 0.8790 0.8790 0.8790 0.8790 0.8790
3692.347292 0.8790 0.8790 0.8790 0.8790 0.8790
3695.595556 0.8790 0.8790 0.8790 0.8790 0.8790
3698.843820 0.8790 0.8790 0.8790 0.8790 0.8790
3702.092084 0.8790 0.8790 0.8790 0.8790 0.8790
3705.340348 0.8790 0.8790 0.8790 0.8792 0.8795
3708.588612 0.8798 0.8800 0.8800 0.8800 0.8800
3711.836876 0.8800 0.8800 0.8800 0.8800 0.8800
3715.085140 0.8800 0.8800 0.8800 0.8799 0.8797
3718.333404 0.8794 0.8792 0.8790 0.8790 0.8790
3721.581668 0.8790 0.8790 0.8790 0.8790 0.8790
3724.829932 0.8787 0.8782 0.8777 0.8772 0.8770
3728.078196 0.8770 0.8770 0.8770 0.8770 0.8770
3731.326460 0.8770 0.8770 0.8768 0.8765 0.8763
3734.574724 0.8760 0.8760 0.8760 0.8760 0.8760
3737.822988 0.8757 0.8755 0.8752 0.8750 0.8750
3741.071252 0.8750 0.8750 0.8750 0.8750 0.8750
3744.319516 0.8750 0.8750 0.8750 0.8750 0.8750
3747.567780 0.8750 0.8750 0.8750 0.8750 0.8749
3750.816044 0.8746 0.8744 0.8741 0.8740 0.8740
3754.064308 0.8740 0.8740 0.8738 0.8736 0.8733
3757.312572 0.8731 0.8730 0.8730 0.8730 0.8730
3760.560836 0.8728 0.8725 0.8723 0.8720 0.8718
3763.809100 0.8715 0.8712 0.8710 0.8707 0.8705
3767.057364 0.8702 0.8699 0.8694 0.8689 0.8684
3770.305627 0.8679 0.8674 0.8669 0.8664 0.8660
3773.553891 0.8660 0.8660 0.8660 0.8660 0.8660
3776.802155 0.8660 0.8660 0.8660 0.8660 0.8660
3780.050419 0.8660 0.8660 0.8660 0.8660 0.8660
3783.298683 0.8658 0.8656 0.8653 0.8651 0.8648
3786.546947 0.8646 0.8643 0.8640 0.8640 0.8640
3789.795211 0.8640 0.8640 0.8640 0.8640 0.8640
3793.043475 0.8640 0.8640 0.8640 0.8640 0.8640
3796.291739 0.8637 0.8635 0.8632 0.8630 0.8627
3799.540003 0.8624 0.8622 0.8619 0.8617 0.8614
3802.788267 0.8612 0.8610 0.8610 0.8610 0.8610
3806.036531 0.8609 0.8606 0.8604 0.8601 0.8600
3809.284795 0.8600 0.8600 0.8600 0.8598 0.8596
3812.533059 0.8593 0.8591 0.8588 0.8586 0.8583
3815.781323 0.8580 0.8576 0.8571 0.8566 0.8560
3819.029587 0.8558 0.8555 0.8553 0.8550 0.8550
3822.277851 0.8550 0.8550 0.8550 0.8550 0.8550
3825.526115 0.8550 0.8550 0.8547 0.8544 0.8542
3828.774379 0.8540 0.8540 0.8540 0.8540 0.8540
3832.022643 0.8540 0.8540 0.8540 0.8539 0.8536
3835.270907 0.8534 0.8531 0.8530 0.8530 0.8530
3838.519171 0.8530 0.8528 0.8526 0.8523 0.8521
3841.767435 0.8520 0.8520 0.8520 0.8520 0.8520
3845.015699 0.8520 0.8520 0.8520 0.8515 0.8510
3848.263963 0.8505 0.8500 0.8495 0.8490 0.8485
3851.512227 0.8480 0.8474 0.8469 0.8464 0.8459
3854.760491 0.8457 0.8454 0.8452 0.8448 0.8443
3858.008754 0.8438 0.8433 0.8429 0.8426 0.8424
3861.257018 0.8421 0.8420 0.8420 0.8420 0.8420
3864.505282 0.8419 0.8416 0.8413 0.8411 0.8410
3867.753546 0.8410 0.8410 0.8410 0.8410 0.8410
3871.001810 0.8410 0.8410 0.8410 0.8410 0.8410
3874.250074 0.8410 0.8408 0.8405 0.8403 0.8400
3877.498338 0.8400 0.8400 0.8400 0.8400 0.8397
3880.746602 0.8395 0.8392 0.8389 0.8387 0.8384
3883.994866 0.8382 0.8380 0.8380 0.8380 0.8380
3887.243130 0.8379 0.8376 0.8374 0.8371 0.8370
3890.491394 0.8370 0.8370 0.8370 0.8369 0.8366
3893.739658 0.8363 0.8361 0.8360 0.8360 0.8360
3896.987922 0.8360 0.8360 0.8360 0.8360 0.8360
3900.236186 0.8360 0.8360 0.8360 0.8360 0.8358
3903.484450 0.8355 0.8353 0.8350 0.8350 0.8350
3906.732714 0.8350 0.8350 0.8347 0.8345 0.8342
3909.980978 0.8340 0.8340 0.8340 0.8340 0.8340
3913.229242 0.8340 0.8340 0.8340 0.8339 0.8336
3916.477506 0.8334 0.8331 0.8329 0.8326 0.8324
3919.725770 0.8321 0.8320 0.8320 0.8320 0.8320
3922.974034 0.8318 0.8316 0.8313 0.8311 0.8308
3926.222298 0.8306 0.8303 0.8300 0.8300 0.8300
3929.470562 0.8300 0.8300 0.8300 0.8300 0.8300
3932.718826 0.8300 0.8295 0.8290 0.8285 0.8280
3935.967090 0.8277 0.8275 0.8272 0.8269 0.8264
3939.215354 0.8259 0.8254 0.8250 0.8250 0.8250
3942.463617 0.8250 0.8249 0.8246 0.8244 0.8241
3945.711881 0.8239 0.8236 0.8234 0.8231 0.8230
3948.960145 0.8230 0.8230 0.8230 0.8230 0.8230
3952.208409 0.8230 0.8230 0.8230 0.8230 0.8230
3955.456673 0.8230 0.8228 0.8225 0.8223 0.8220
3958.704937 0.8218 0.8215 0.8213 0.8210 0.8210
3961.953201 0.8210 0.8210 0.8210 0.8210 0.8210
3965.201465 0.8210 0.8210 0.8210 0.8210 0.8210
3968.449729 0.8209 0.8207 0.8204 0.8202 0.8199
3971.697993 0.8197 0.8194 0.8191 0.8190 0.8190
3974.946257 0.8190 0.8190 0.8189 0.8186 0.8184
3978.194521 0.8181 0.8180 0.8180 0.8180 0.8180
3981.442785 0.8180 0.8180 0.8180 0.8180 0.8180
3984.691049 0.8180 0.8180 0.8180
##END=
