##TITLE=BENZALDEHYDE, 4-HYDROXY-
##JCAMP-DX=4.24
##DATA TYPE=INFRARED SPECTRUM
##CLASS=COBLENTZ III
##ORIGIN=DOW CORNING CORP.
##OWNER=COBLENTZ SOCIETY
Collection (C) 2018 copyright by the U.S. Secretary of Commerce
on behalf of the United States of America. All rights reserved.
##DATE=1965/09/23
##NAMES=4-hydroxybenzaldehyde
##CAS REGISTRY NO=123-08-0
##MOLFORM=C7 H6 O2
##SOURCE REFERENCE=COBLENTZ NO. 4315
##$NIST SOURCE=COBLENTZ
##$NIST IMAGE=cob4315
##SPECTROMETER/DATA SYSTEM=PERKIN-ELMER 521 (GRATING)
##INSTRUMENT PARAMETERS=FILTERS AT 3150, 2500, 2000, 1150, 700, 410; GRATING CHANGES AT 2000, 630 CM^-^1
##STATE=SOLID (SPLIT MULL, FLUOROLUBE FOR 3800-1300 AND NUJOL FOR 1300-250 CM ^-^1)
##SAMPLING PROCEDURE=TRANSMISSION
##RESOLUTION=4
##DATA PROCESSING=DIGITIZED BY NIST FROM HARD COPY (FROM TWO SEGMENTS)
##XUNITS=1/CM
##YUNITS=TRANSMITTANCE
##XFACTOR=1.000000
##YFACTOR=1
##DELTAX=1.277958
##FIRSTX=245.367
##LASTX=3794.26
##FIRSTY=0.713
##MAXX=3794.26
##MINX=245.367
##MAXY=1.026
##MINY=0.078
##NPOINTS=2778
##XYDATA=(X++(Y..Y))
245.367000 0.7130 0.7130 0.7190 0.7220 0.7260
251.756788 0.7310 0.7340 0.7380 0.7430 0.7460
258.146575 0.7590 0.7640 0.7670 0.7780 0.7939
264.536363 0.8020 0.8090 0.8180 0.8250 0.8300
270.926150 0.8350 0.8510 0.8560 0.8600 0.8620
277.315938 0.8700 0.8809 0.8860 0.8910 0.8930
283.705725 0.8930 0.9020 0.9070 0.9120 0.9160
290.095513 0.9160 0.9170 0.9210 0.9240 0.9240
296.485300 0.9330 0.9370 0.9470 0.9520 0.9580
302.875088 0.9610 0.9650 0.9680 0.9700 0.9720
309.264875 0.9730 0.9730 0.9750 0.9750 0.9750
315.654663 0.9750 0.9730 0.9720 0.9700 0.9630
322.044451 0.9590 0.9560 0.9370 0.9041 0.8741
328.434238 0.8740 0.9039 0.9090 0.9507 0.9798
334.824026 0.9840 0.9860 0.9870 0.9980 1.0000
341.213813 1.0010 1.0050 1.0060 1.0060 1.0100
347.603601 1.0100 1.0080 1.0060 1.0080 1.0100
353.993388 1.0120 1.0130 1.0150 1.0150 1.0150
360.383176 1.0150 1.0150 1.0130 1.0130 1.0130
366.772963 1.0150 1.0150 1.0150 1.0170 1.0190
373.162751 1.0200 1.0200 1.0220 1.0240 1.0260
379.552538 1.0260 1.0260 1.0260 1.0260 1.0240
385.942326 1.0240 1.0220 1.0190 1.0190 1.0170
392.332114 1.0150 1.0130 1.0130 1.0130 1.0130
398.721901 1.0130 1.0130 1.0120 1.0120 1.0120
405.111689 1.0100 1.0100 1.0100 1.0100 1.0080
411.501476 1.0080 1.0080 1.0050 1.0050 1.0030
417.891264 1.0010 1.0010 1.0060 1.0130 1.0170
424.281051 1.0170 1.0170 1.0170 1.0170 1.0170
430.670839 1.0170 1.0150 1.0150 1.0130 1.0130
437.060626 1.0130 1.0120 1.0100 1.0060 1.0050
443.450414 1.0000 0.9910 0.9860 0.9820 0.9582
449.840201 0.9490 0.9440 0.9100 0.8791 0.8790
456.229989 0.9189 0.9280 0.9350 0.9539 0.9560
462.619777 0.9590 0.9650 0.9680 0.9720 0.9730
469.009564 0.9770 0.9770 0.9750 0.9680 0.9541
475.399352 0.9470 0.9470 0.9510 0.9650 0.9660
481.789139 0.9790 0.9820 0.9840 0.9840 0.9860
488.178927 0.9860 0.9860 0.9840 0.9840 0.9820
494.568714 0.9790 0.9730 0.9700 0.9680 0.9561
500.958502 0.9440 0.9260 0.8601 0.8301 0.7871
507.348289 0.7870 0.8507 0.9038 0.9418 0.9539
513.738077 0.9560 0.9610 0.9630 0.9650 0.9650
520.127864 0.9660 0.9660 0.9680 0.9680 0.9680
526.517652 0.9680 0.9680 0.9680 0.9700 0.9700
532.907440 0.9700 0.9700 0.9700 0.9700 0.9700
539.297227 0.9700 0.9700 0.9700 0.9700 0.9700
545.687015 0.9720 0.9720 0.9720 0.9720 0.9700
552.076802 0.9700 0.9680 0.9680 0.9680 0.9680
558.466590 0.9680 0.9680 0.9680 0.9680 0.9680
564.856377 0.9680 0.9680 0.9660 0.9660 0.9650
571.246165 0.9650 0.9650 0.9650 0.9630 0.9610
577.635952 0.9590 0.9590 0.9580 0.9560 0.9560
584.025740 0.9540 0.9510 0.9490 0.9490 0.9381
590.415527 0.9160 0.9070 0.8770 0.7812 0.7261
596.805315 0.6473 0.5912 0.5004 0.5000 0.6898
603.195103 0.8130 0.8480 0.8830 0.9209 0.9399
609.584890 0.9450 0.9490 0.9510 0.9540 0.9540
615.974678 0.9520 0.9470 0.9440 0.9400 0.9350
622.364465 0.9310 0.9300 0.9280 0.9210 0.9190
628.754253 0.9170 0.9100 0.9070 0.8980 0.8910
635.144040 0.8761 0.8720 0.8561 0.8093 0.8040
641.533828 0.7780 0.7710 0.7710 0.8718 0.8979
647.923615 0.9000 0.9070 0.9140 0.9160 0.9160
654.313403 0.9160 0.9140 0.9100 0.9100 0.9090
660.703190 0.9050 0.9040 0.9000 0.8980 0.8970
667.092978 0.8970 0.8970 0.8970 0.8970 0.8950
673.482766 0.8950 0.8910 0.8910 0.8880 0.8860
679.872553 0.8840 0.8830 0.8790 0.8740 0.8700
686.262341 0.8670 0.8630 0.8620 0.8580 0.8481
692.652128 0.8420 0.8370 0.8350 0.8300 0.8230
699.041916 0.8150 0.8090 0.8010 0.7950 0.7851
705.431703 0.7780 0.7740 0.7730 0.7640 0.7600
711.821491 0.7600 0.7620 0.7660 0.7690 0.7690
718.211278 0.7640 0.7620 0.7600 0.7600 0.7620
724.601066 0.7640 0.7690 0.7829 0.7870 0.7989
730.990854 0.8130 0.8280 0.8320 0.8340 0.8410
737.380641 0.8420 0.8530 0.8550 0.8580 0.8630
743.770429 0.8670 0.8700 0.8720 0.8830 0.8860
750.160216 0.8910 0.8930 0.9000 0.9040 0.9090
756.550004 0.9100 0.9140 0.9160 0.9170 0.9210
762.939791 0.9240 0.9280 0.9300 0.9310 0.9310
769.329579 0.9310 0.9330 0.9330 0.9330 0.9300
775.719366 0.9260 0.9260 0.9190 0.9091 0.8951
782.109154 0.8770 0.8420 0.8060 0.7621 0.7620
788.498941 0.7869 0.8039 0.8279 0.8857 0.8999
794.888729 0.9280 0.9330 0.9370 0.9370 0.9380
801.278517 0.9400 0.9400 0.9400 0.9400 0.9420
807.668304 0.9420 0.9400 0.9400 0.9380 0.9370
814.058092 0.9260 0.9140 0.8951 0.8582 0.8252
820.447879 0.7870 0.7800 0.7780 0.7760 0.7660
826.837667 0.7481 0.7321 0.6713 0.6073 0.5324
833.227454 0.5000 0.4580 0.4580 0.5159 0.6536
839.617242 0.7985 0.8349 0.8698 0.8839 0.8860
846.007029 0.8860 0.8830 0.8740 0.8620 0.8510
852.396817 0.8340 0.7882 0.7412 0.7380 0.6923
858.786604 0.6920 0.7740 0.7950 0.8599 0.8859
865.176392 0.9049 0.9259 0.9350 0.9400 0.9420
871.566180 0.9440 0.9440 0.9440 0.9420 0.9420
877.955967 0.9400 0.9380 0.9380 0.9380 0.9370
884.345755 0.9370 0.9350 0.9330 0.9330 0.9310
890.735542 0.9310 0.9330 0.9350 0.9370 0.9370
897.125330 0.9380 0.9400 0.9400 0.9400 0.9380
903.515117 0.9380 0.9380 0.9380 0.9370 0.9370
909.904905 0.9370 0.9370 0.9370 0.9370 0.9350
916.294692 0.9350 0.9350 0.9350 0.9350 0.9370
922.684480 0.9370 0.9370 0.9370 0.9370 0.9370
929.074267 0.9350 0.9330 0.9330 0.9300 0.9300
935.464055 0.9280 0.9260 0.9210 0.9170 0.9160
941.853843 0.9160 0.9160 0.9190 0.9210 0.9230
948.243630 0.9230 0.9230 0.9230 0.9210 0.9210
954.633418 0.9190 0.9170 0.9160 0.9160 0.9160
961.023205 0.9160 0.9160 0.9160 0.9160 0.9160
967.412993 0.9140 0.9140 0.9120 0.9120 0.9120
973.802780 0.9140 0.9140 0.9170 0.9170 0.9170
980.192568 0.9190 0.9190 0.9190 0.9190 0.9190
986.582355 0.9190 0.9170 0.9170 0.9170 0.9160
992.972143 0.9160 0.9160 0.9140 0.9120 0.9120
999.361930 0.9100 0.9090 0.9050 0.9040 0.9020
1005.751718 0.9040 0.9040 0.9050 0.9050 0.9040
1012.141506 0.9040 0.9050 0.9050 0.9050 0.9050
1018.531293 0.9040 0.9040 0.9040 0.9040 0.9040
1024.921081 0.9040 0.9040 0.9040 0.9040 0.9040
1031.310868 0.9040 0.9040 0.9050 0.9050 0.9050
1037.700656 0.9050 0.9050 0.9000 0.8980 0.8980
1044.090443 0.8980 0.8980 0.8970 0.8970 0.8970
1050.480231 0.8950 0.8950 0.8930 0.8910 0.8910
1056.870018 0.8910 0.8910 0.8910 0.8910 0.8910
1063.259806 0.8910 0.8930 0.8930 0.8950 0.8950
1069.649593 0.8930 0.8860 0.8840 0.8840 0.8840
1076.039381 0.8840 0.8840 0.8840 0.8840 0.8830
1082.429169 0.8810 0.8790 0.8770 0.8760 0.8760
1088.818956 0.8740 0.8740 0.8740 0.8720 0.8700
1095.208744 0.8700 0.8700 0.8700 0.8690 0.8650
1101.598531 0.8630 0.8600 0.8530 0.8370 0.8250
1107.988319 0.8130 0.7921 0.7462 0.7460 0.7987
1114.378106 0.8530 0.8530 0.8510 0.8490 0.8440
1120.767894 0.8390 0.8370 0.8340 0.8340 0.8320
1127.157681 0.8300 0.8280 0.8270 0.8250 0.8180
1133.547469 0.8130 0.8040 0.8010 0.7970 0.7950
1139.937256 0.7800 0.7760 0.7590 0.7360 0.7270
1146.327044 0.7011 0.6771 0.6611 0.5774 0.5273
1152.716832 0.4079 0.3310 0.3150 0.2651 0.2161
1159.106619 0.1691 0.1690 0.2118 0.2528 0.2928
1165.496407 0.3991 0.5070 0.6350 0.7059 0.7599
1171.886194 0.8019 0.8528 0.8630 0.8630 0.8620
1178.275982 0.8620 0.8600 0.8580 0.8560 0.8550
1184.665769 0.8510 0.8480 0.8410 0.8370 0.8340
1191.055557 0.8270 0.8150 0.8040 0.7950 0.7880
1197.445344 0.7780 0.7640 0.7501 0.7361 0.7241
1203.835132 0.7100 0.6940 0.6710 0.6610 0.6400
1210.224919 0.5752 0.5062 0.4243 0.3384 0.2515
1216.614707 0.2300 0.2301 0.3120 0.3849 0.4918
1223.004495 0.5958 0.6169 0.6379 0.6470 0.6470
1229.394282 0.6430 0.6360 0.6210 0.6090 0.5930
1235.784070 0.5770 0.5770 0.5611 0.5610 0.5769
1242.173857 0.6160 0.6380 0.6490 0.6770 0.7080
1248.563645 0.7130 0.7529 0.7669 0.7869 0.7870
1254.953432 0.7810 0.7620 0.7410 0.7360 0.6921
1261.343220 0.6850 0.6850 0.6920 0.7029 0.7030
1267.733007 0.6960 0.6940 0.6820 0.6640 0.6450
1274.122795 0.6171 0.5771 0.5282 0.4852 0.4641
1280.512582 0.3209 0.2350 0.2020 0.1690 0.1361
1286.902370 0.1360 0.1639 0.1909 0.2189 0.2439
1293.292158 0.5600 0.5980 0.7049 0.7060 0.7868
1299.681945 0.7990 0.8080 0.8080 0.7483 0.7013
1306.071733 0.6569 0.6120 0.5440 0.4101 0.2862
1312.461520 0.2730 0.1843 0.1840 0.2816 0.4730
1318.851308 0.6191 0.6990 0.7050 0.7060 0.7080
1325.241095 0.7060 0.6990 0.6890 0.6890 0.6940
1331.630883 0.6960 0.6990 0.7010 0.7010 0.6990
1338.020670 0.6960 0.6940 0.6890 0.6800 0.6681
1344.410458 0.6420 0.6380 0.6360 0.6350 0.6350
1350.800245 0.6350 0.6330 0.6330 0.6330 0.6330
1357.190033 0.6310 0.6190 0.6090 0.6020 0.5960
1363.579821 0.5890 0.5840 0.5681 0.5650 0.5531
1369.969608 0.5250 0.5040 0.4880 0.4670 0.4291
1376.359396 0.4081 0.3781 0.3083 0.2841 0.2601
1382.749183 0.2370 0.2350 0.2370 0.2530 0.2670
1389.138971 0.2750 0.2820 0.2979 0.3070 0.3140
1395.528758 0.3150 0.3150 0.3100 0.3050 0.2980
1401.918546 0.2731 0.2580 0.2441 0.2281 0.2091
1408.308333 0.1900 0.1740 0.1580 0.1550 0.1530
1414.698121 0.1510 0.1530 0.1620 0.1650 0.1740
1421.087908 0.1811 0.2370 0.2610 0.2840 0.2930
1427.477696 0.2930 0.2940 0.2940 0.2930 0.2890
1433.867484 0.2860 0.2800 0.2730 0.2670 0.2560
1440.257271 0.2111 0.1881 0.1790 0.1621 0.1461
1446.647059 0.1360 0.1320 0.1200 0.1180 0.1200
1453.036846 0.1270 0.1360 0.1410 0.1440 0.1549
1459.426634 0.1600 0.1810 0.2120 0.2300 0.2390
1465.816421 0.2560 0.2819 0.2930 0.3069 0.3150
1472.206209 0.3210 0.3240 0.3290 0.3360 0.3540
1478.595996 0.3730 0.4059 0.4269 0.4688 0.4989
1484.985784 0.5000 0.5090 0.5160 0.5230 0.5320
1491.375571 0.5340 0.5340 0.5320 0.5270 0.5200
1497.765359 0.5070 0.4930 0.4880 0.4830 0.4740
1504.155147 0.4720 0.4690 0.4620 0.4570 0.4381
1510.544934 0.4220 0.4130 0.4030 0.3780 0.3151
1516.934722 0.3100 0.2721 0.2720 0.3377 0.5937
1523.324509 0.6000 0.6020 0.6030 0.6030 0.6020
1529.714297 0.5980 0.5821 0.5681 0.5600 0.5461
1536.104084 0.5370 0.5250 0.5160 0.5070 0.5020
1542.493872 0.4920 0.4780 0.4690 0.4580 0.4570
1548.883659 0.4390 0.4200 0.4060 0.3900 0.3800
1555.273447 0.3660 0.3560 0.3430 0.3241 0.3001
1561.663235 0.2910 0.2840 0.2800 0.2680 0.2530
1568.053022 0.2510 0.2470 0.2281 0.2180 0.2120
1574.442810 0.2070 0.1910 0.1810 0.1790 0.1650
1580.832597 0.1570 0.1410 0.1300 0.1270 0.1200
1587.222385 0.1160 0.1110 0.1080 0.0990 0.0940
1593.612172 0.0920 0.0900 0.0900 0.0920 0.0970
1600.001960 0.1020 0.1060 0.1110 0.1250 0.1290
1606.391747 0.1370 0.1549 0.1580 0.1899 0.2318
1612.781535 0.2530 0.2730 0.3310 0.3820 0.4289
1619.171322 0.5018 0.5489 0.6028 0.6050 0.6358
1625.561110 0.6450 0.6490 0.6490 0.6490 0.6420
1631.950898 0.6300 0.6091 0.5891 0.5532 0.5301
1638.340685 0.5089 0.4200 0.3830 0.3420 0.3001
1644.730473 0.2561 0.2530 0.2560 0.2719 0.2929
1651.120260 0.2960 0.2930 0.2870 0.2680 0.2211
1657.510048 0.2000 0.1581 0.1181 0.0951 0.0940
1663.899835 0.0970 0.1040 0.1110 0.1160 0.1300
1670.289623 0.1370 0.1440 0.1530 0.1570 0.1620
1676.679410 0.1720 0.1780 0.2000 0.2560 0.3729
1683.069198 0.4010 0.4549 0.5038 0.5488 0.5809
1689.458985 0.6211 0.6630 0.6630 0.6630 0.6630
1695.848773 0.6630 0.6640 0.6770 0.6909 0.7427
1702.238561 0.7481 0.7760 0.7940 0.8040 0.8160
1708.628348 0.8230 0.8280 0.8300 0.8300 0.8320
1715.018136 0.8340 0.8340 0.8340 0.8300 0.8340
1721.407923 0.8350 0.8420 0.8510 0.8580 0.8650
1727.797711 0.8670 0.8700 0.8790 0.8840 0.8900
1734.187498 0.8910 0.8930 0.8970 0.8980 0.9020
1740.577286 0.9040 0.9050 0.9070 0.9090 0.9090
1746.967073 0.9100 0.9100 0.9100 0.9120 0.9120
1753.356861 0.9120 0.9120 0.9100 0.9100 0.9090
1759.746648 0.9070 0.9040 0.9020 0.9000 0.8980
1766.136436 0.8950 0.8900 0.8900 0.8840 0.8790
1772.526224 0.8720 0.8690 0.8670 0.8670 0.8670
1778.916011 0.8670 0.8690 0.8690 0.8700 0.8740
1785.305799 0.8810 0.8830 0.8860 0.8860 0.8900
1791.695586 0.8900 0.8900 0.8900 0.8900 0.8900
1798.085374 0.8900 0.8930 0.8970 0.8980 0.9000
1804.475161 0.9020 0.9020 0.9020 0.9020 0.9000
1810.864949 0.9000 0.9000 0.9000 0.9000 0.8980
1817.254736 0.8980 0.8980 0.8980 0.8980 0.8980
1823.644524 0.8980 0.8980 0.8980 0.8970 0.8950
1830.034311 0.8910 0.8900 0.8880 0.8900 0.8900
1836.424099 0.8900 0.8880 0.8880 0.8860 0.8860
1842.813887 0.8880 0.8900 0.8900 0.8900 0.8900
1849.203674 0.8910 0.8910 0.8880 0.8840 0.8840
1855.593462 0.8840 0.8860 0.8860 0.8840 0.8840
1861.983249 0.8830 0.8830 0.8840 0.8840 0.8840
1868.373037 0.8840 0.8840 0.8840 0.8830 0.8790
1874.762824 0.8790 0.8760 0.8740 0.8740 0.8700
1881.152612 0.8690 0.8650 0.8630 0.8620 0.8580
1887.542399 0.8550 0.8550 0.8550 0.8550 0.8510
1893.932187 0.8490 0.8460 0.8410 0.8410 0.8230
1900.321974 0.8060 0.7851 0.7431 0.7191 0.7190
1906.711762 0.7411 0.7740 0.8020 0.8200 0.8510
1913.101550 0.8510 0.8550 0.8580 0.8600 0.8620
1919.491337 0.8620 0.8630 0.8630 0.8630 0.8650
1925.881125 0.8650 0.8650 0.8690 0.8690 0.8690
1932.270912 0.8670 0.8670 0.8670 0.8670 0.8650
1938.660700 0.8650 0.8630 0.8630 0.8620 0.8620
1945.050487 0.8620 0.8600 0.8580 0.8560 0.8550
1951.440275 0.8530 0.8530 0.8510 0.8510 0.8490
1957.830062 0.8490 0.8490 0.8480 0.8480 0.8460
1964.219850 0.8460 0.8440 0.8440 0.8420 0.8390
1970.609637 0.8350 0.8350 0.8340 0.8340 0.8340
1976.999425 0.8320 0.8320 0.8320 0.8340 0.8340
1983.389213 0.8320 0.8320 0.8300 0.8280 0.8270
1989.779000 0.8250 0.8250 0.8230 0.8230 0.8250
1996.168788 0.8270 0.8300 0.8300 0.8150 0.8085
2002.558575 0.8020 0.7980 0.7940 0.7940 0.7940
2008.948363 0.7886 0.7831 0.7806 0.7781 0.7727
2015.338150 0.7672 0.7622 0.7572 0.7627 0.7687
2021.727938 0.7766 0.7846 0.7898 0.7948 0.7969
2028.117725 0.7989 0.8000 0.8010 0.8034 0.8059
2034.507513 0.8069 0.8079 0.8080 0.8080 0.8052
2040.897300 0.8022 0.8020 0.8020 0.8015 0.8010
2047.287088 0.8010 0.8010 0.8001 0.7991 0.7990
2053.676876 0.7990 0.7981 0.7971 0.7961 0.7951
2060.066663 0.7945 0.7940 0.7940 0.7940 0.7922
2066.456451 0.7902 0.7878 0.7853 0.7828 0.7803
2072.846238 0.7782 0.7762 0.7751 0.7741 0.7767
2079.236026 0.7797 0.7813 0.7828 0.7848 0.7868
2085.625813 0.7905 0.7945 0.7950 0.7950 0.7946
2092.015601 0.7941 0.7914 0.7884 0.7876 0.7871
2098.405388 0.7861 0.7851 0.7850 0.7850 0.7841
2104.795176 0.7831 0.7830 0.7830 0.7821 0.7811
2111.184963 0.7810 0.7810 0.7806 0.7801 0.7800
2117.574751 0.7800 0.7800 0.7800 0.7792 0.7782
2123.964539 0.7780 0.7780 0.7780 0.7780 0.7772
2130.354326 0.7762 0.7752 0.7742 0.7740 0.7740
2136.744114 0.7728 0.7713 0.7702 0.7692 0.7682
2143.133901 0.7672 0.7666 0.7661 0.7660 0.7660
2149.523689 0.7692 0.7732 0.7764 0.7794 0.7800
2155.913476 0.7800 0.7784 0.7764 0.7752 0.7742
2162.303264 0.7740 0.7740 0.7736 0.7731 0.7722
2168.693051 0.7712 0.7710 0.7710 0.7702 0.7692
2175.082839 0.7682 0.7672 0.7678 0.7688 0.7690
2181.472626 0.7690 0.7682 0.7672 0.7670 0.7670
2187.862414 0.7666 0.7661 0.7660 0.7660 0.7653
2194.252202 0.7643 0.7640 0.7640 0.7640 0.7640
2200.641989 0.7633 0.7623 0.7613 0.7603 0.7600
2207.031777 0.7600 0.7600 0.7600 0.7600 0.7600
2213.421564 0.7600 0.7600 0.7596 0.7591 0.7583
2219.811352 0.7573 0.7552 0.7527 0.7513 0.7503
2226.201139 0.7493 0.7483 0.7480 0.7480 0.7473
2232.590927 0.7463 0.7456 0.7451 0.7450 0.7450
2238.980714 0.7443 0.7433 0.7423 0.7413 0.7410
2245.370502 0.7410 0.7410 0.7410 0.7410 0.7410
2251.760289 0.7417 0.7427 0.7430 0.7430 0.7423
2258.150077 0.7413 0.7393 0.7368 0.7360 0.7360
2264.539865 0.7353 0.7343 0.7330 0.7315 0.7297
2270.929652 0.7277 0.7260 0.7245 0.7240 0.7240
2277.319440 0.7234 0.7224 0.7220 0.7220 0.7220
2283.709227 0.7220 0.7220 0.7220 0.7220 0.7220
2290.099015 0.7211 0.7196 0.7190 0.7190 0.7178
2296.488802 0.7158 0.7141 0.7126 0.7108 0.7088
2302.878590 0.7071 0.7056 0.7050 0.7050 0.7044
2309.268377 0.7034 0.7030 0.7030 0.7030 0.7030
2315.658165 0.7036 0.7046 0.7053 0.7058 0.7072
2322.047952 0.7092 0.7106 0.7116 0.7120 0.7120
2328.437740 0.7114 0.7104 0.7094 0.7084 0.7080
2334.827528 0.7080 0.7074 0.7064 0.7060 0.7060
2341.217315 0.7057 0.7052 0.7050 0.7050 0.7050
2347.607103 0.7050 0.7050 0.7050 0.7050 0.7050
2353.996890 0.7050 0.7050 0.7045 0.7035 0.7024
2360.386678 0.7015 0.7002 0.6987 0.6964 0.6934
2366.776465 0.6907 0.6882 0.6865 0.6855 0.6850
2373.166253 0.6850 0.6850 0.6850 0.6850 0.6850
2379.556040 0.6847 0.6842 0.6840 0.6840 0.6835
2385.945828 0.6825 0.6820 0.6820 0.6815 0.6805
2392.335616 0.6800 0.6800 0.6800 0.6800 0.6795
2398.725403 0.6785 0.6778 0.6773 0.6765 0.6755
2405.115191 0.6745 0.6735 0.6730 0.6730 0.6723
2411.504978 0.6708 0.6700 0.6700 0.6695 0.6685
2417.894766 0.6668 0.6643 0.6609 0.6564 0.6531
2424.284553 0.6511 0.6493 0.6478 0.6470 0.6470
2430.674341 0.6461 0.6441 0.6412 0.6372 0.6345
2437.064128 0.6335 0.6323 0.6308 0.6280 0.6235
2443.453916 0.6206 0.6196 0.6168 0.6118 0.6075
2449.843703 0.6040 0.6012 0.5992 0.5980 0.5980
2456.233491 0.5980 0.5980 0.5976 0.5966 0.5960
2462.623279 0.5960 0.5960 0.5960 0.5960 0.5960
2469.013066 0.5960 0.5960 0.5958 0.5953 0.5950
2475.402854 0.5950 0.5950 0.5950 0.5950 0.5950
2481.792641 0.5950 0.5950 0.5946 0.5936 0.5926
2488.182429 0.5916 0.5910 0.5910 0.5906 0.5896
2494.572216 0.5890 0.5890 0.5888 0.5883 0.5876
2500.962004 0.5866 0.5865 0.5880 0.5901 0.5930
2507.351791 0.5952 0.5957 0.5967 0.5987 0.5993
2513.741579 0.5973 0.5960 0.5960 0.5946 0.5906
2520.131366 0.5873 0.5853 0.5825 0.5780 0.5745
2526.521154 0.5730 0.5720 0.5720 0.5725 0.5740
2532.910942 0.5761 0.5796 0.5829 0.5860 0.5892
2539.300729 0.5926 0.5947 0.5937 0.5927 0.5917
2545.690517 0.5905 0.5890 0.5877 0.5867 0.5857
2552.080304 0.5847 0.5837 0.5827 0.5809 0.5769
2558.470092 0.5727 0.5682 0.5640 0.5605 0.5577
2564.859879 0.5567 0.5563 0.5573 0.5584 0.5599
2571.249667 0.5632 0.5712 0.5782 0.5827 0.5863
2577.639454 0.5873 0.5880 0.5880 0.5886 0.5911
2584.029242 0.5930 0.5930 0.5924 0.5899 0.5871
2590.419029 0.5836 0.5802 0.5772 0.5740 0.5700
2596.808817 0.5663 0.5633 0.5604 0.5579 0.5556
2603.198605 0.5542 0.5525 0.5505 0.5482 0.5447
2609.588392 0.5412 0.5377 0.5349 0.5344 0.5333
2615.978180 0.5303 0.5274 0.5249 0.5227 0.5212
2622.367967 0.5200 0.5200 0.5203 0.5218 0.5234
2628.757755 0.5254 0.5284 0.5354 0.5413 0.5428
2635.147542 0.5442 0.5452 0.5463 0.5478 0.5490
2641.537330 0.5490 0.5488 0.5478 0.5470 0.5470
2647.927117 0.5469 0.5464 0.5460 0.5460 0.5460
2654.316905 0.5460 0.5460 0.5460 0.5460 0.5460
2660.706692 0.5460 0.5460 0.5459 0.5448 0.5438
2667.096480 0.5428 0.5419 0.5414 0.5405 0.5375
2673.486268 0.5350 0.5350 0.5341 0.5281 0.5224
2679.876055 0.5179 0.5138 0.5123 0.5106 0.5071
2686.265843 0.5033 0.4973 0.4915 0.4869 0.4829
2692.655630 0.4819 0.4810 0.4810 0.4810 0.4810
2699.045418 0.4811 0.4821 0.4830 0.4830 0.4830
2705.435205 0.4830 0.4830 0.4830 0.4831 0.4841
2711.824993 0.4850 0.4850 0.4849 0.4839 0.4829
2718.214780 0.4819 0.4809 0.4799 0.4790 0.4785
2724.604568 0.4779 0.4769 0.4759 0.4749 0.4738
2730.994355 0.4713 0.4689 0.4669 0.4646 0.4586
2737.384143 0.4529 0.4514 0.4499 0.4489 0.4479
2743.773931 0.4464 0.4448 0.4413 0.4378 0.4348
2750.163718 0.4319 0.4304 0.4289 0.4264 0.4240
2756.553506 0.4230 0.4220 0.4210 0.4200 0.4200
2762.943293 0.4201 0.4220 0.4241 0.4266 0.4291
2769.333081 0.4316 0.4342 0.4397 0.4450 0.4450
2775.722868 0.4449 0.4404 0.4360 0.4350 0.4339
2782.112656 0.4295 0.4250 0.4190 0.4130 0.4035
2788.502443 0.3941 0.3940 0.3940 0.4020 0.4100
2794.892231 0.4100 0.4100 0.4070 0.4040 0.4005
2801.282018 0.3970 0.3955 0.3940 0.3881 0.3821
2807.671806 0.3800 0.3781 0.3756 0.3731 0.3706
2814.061594 0.3681 0.3627 0.3572 0.3497 0.3422
2820.451381 0.3352 0.3282 0.3261 0.3241 0.3259
2826.841169 0.3279 0.3318 0.3358 0.3389 0.3418
2833.230956 0.3444 0.3469 0.3517 0.3567 0.3603
2839.620744 0.3638 0.3682 0.3727 0.3786 0.3847
2846.010531 0.3859 0.3869 0.3870 0.3870 0.3879
2852.400319 0.3889 0.3890 0.3890 0.3890 0.3890
2858.790106 0.3890 0.3890 0.3881 0.3871 0.3870
2865.179894 0.3870 0.3839 0.3804 0.3750 0.3695
2871.569681 0.3644 0.3595 0.3558 0.3523 0.3403
2877.959469 0.3273 0.3260 0.3260 0.3282 0.3307
2884.349257 0.3363 0.3423 0.3478 0.3533 0.3570
2890.739044 0.3605 0.3640 0.3675 0.3702 0.3727
2897.128832 0.3743 0.3758 0.3747 0.3732 0.3730
2903.518619 0.3730 0.3721 0.3711 0.3701 0.3691
2909.908407 0.3686 0.3681 0.3672 0.3662 0.3647
2916.298194 0.3632 0.3613 0.3593 0.3577 0.3562
2922.687982 0.3552 0.3542 0.3532 0.3522 0.3491
2929.077769 0.3456 0.3442 0.3432 0.3418 0.3403
2935.467557 0.3392 0.3382 0.3343 0.3299 0.3258
2941.857344 0.3218 0.3186 0.3156 0.3110 0.3059
2948.247132 0.2993 0.2923 0.2910 0.2910 0.2882
2954.636920 0.2847 0.2832 0.2822 0.2761 0.2686
2961.026707 0.2642 0.2608 0.2573 0.2538 0.2507
2967.416495 0.2477 0.2458 0.2444 0.2440 0.2440
2973.806282 0.2452 0.2467 0.2478 0.2488 0.2505
2980.196070 0.2525 0.2530 0.2530 0.2522 0.2512
2986.585857 0.2495 0.2475 0.2459 0.2444 0.2425
2992.975645 0.2405 0.2382 0.2357 0.2331 0.2306
2999.365432 0.2255 0.2195 0.2146 0.2102 0.2057
3005.755220 0.2012 0.1989 0.1974 0.1937 0.1892
3012.145007 0.1855 0.1820 0.1799 0.1784 0.1730
3018.534795 0.1660 0.1615 0.1580 0.1556 0.1536
3024.924583 0.1519 0.1504 0.1493 0.1483 0.1466
3031.314370 0.1446 0.1436 0.1432 0.1423 0.1413
3037.704158 0.1403 0.1393 0.1383 0.1373 0.1367
3044.093945 0.1362 0.1360 0.1360 0.1363 0.1368
3050.483733 0.1391 0.1421 0.1495 0.1590 0.1654
3056.873520 0.1704 0.1750 0.1795 0.1827 0.1852
3063.263308 0.1860 0.1860 0.1850 0.1835 0.1824
3069.653095 0.1814 0.1810 0.1810 0.1804 0.1793
3076.042883 0.1787 0.1782 0.1728 0.1648 0.1597
3082.432670 0.1563 0.1544 0.1534 0.1498 0.1448
3088.822458 0.1424 0.1414 0.1404 0.1394 0.1384
3095.212246 0.1374 0.1367 0.1362 0.1339 0.1303
3101.602033 0.1277 0.1258 0.1213 0.1153 0.1124
3107.991821 0.1114 0.1110 0.1110 0.1095 0.1070
3114.381608 0.1033 0.0988 0.0970 0.0970 0.0961
3120.771396 0.0946 0.0940 0.0940 0.0934 0.0924
3127.161183 0.0914 0.0904 0.0885 0.0860 0.0844
3133.550971 0.0834 0.0827 0.0822 0.0814 0.0804
3139.940758 0.0800 0.0800 0.0800 0.0800 0.0794
3146.330546 0.0785 0.0780 0.0780 0.0780 0.0780
3152.720333 0.0780 0.0780 0.0780 0.0780 0.0780
3159.110121 0.0780 0.0785 0.0795 0.0800 0.0800
3165.499909 0.0805 0.0815 0.0820 0.0820 0.0823
3171.889696 0.0828 0.0830 0.0830 0.0840 0.0861
3178.279484 0.0870 0.0870 0.0878 0.0893 0.0905
3184.669271 0.0915 0.0925 0.0935 0.0940 0.0940
3191.059059 0.0942 0.0947 0.0950 0.0950 0.0960
3197.448846 0.0980 0.0990 0.0990 0.0995 0.1005
3203.838634 0.1010 0.1010 0.1010 0.1010 0.1017
3210.228421 0.1032 0.1050 0.1070 0.1087 0.1102
3216.618209 0.1122 0.1147 0.1160 0.1160 0.1169
3223.007996 0.1189 0.1211 0.1236 0.1259 0.1279
3229.397784 0.1297 0.1312 0.1325 0.1335 0.1351
3235.787572 0.1376 0.1401 0.1426 0.1449 0.1469
3242.177359 0.1500 0.1544 0.1570 0.1570 0.1581
3248.567147 0.1606 0.1630 0.1655 0.1678 0.1699
3254.956934 0.1712 0.1717 0.1724 0.1734 0.1770
3261.346722 0.1839 0.1890 0.1915 0.1938 0.1958
3267.736509 0.1972 0.1977 0.1988 0.2008 0.2026
3274.126297 0.2041 0.2062 0.2091 0.2124 0.2159
3280.516084 0.2186 0.2201 0.2228 0.2273 0.2304
3286.905872 0.2314 0.2335 0.2375 0.2408 0.2428
3293.295660 0.2446 0.2461 0.2477 0.2497 0.2535
3299.685447 0.2605 0.2664 0.2704 0.2737 0.2757
3306.075235 0.2783 0.2818 0.2840 0.2840 0.2865
3312.465022 0.2935 0.2984 0.2994 0.3012 0.3047
3318.854810 0.3084 0.3124 0.3168 0.3223 0.3268
3325.244597 0.3293 0.3318 0.3343 0.3374 0.3420
3331.634385 0.3453 0.3463 0.3487 0.3536 0.3590
3338.024172 0.3649 0.3704 0.3749 0.3794 0.3839
3344.413960 0.3884 0.3929 0.3960 0.3960 0.3972
3350.803747 0.4012 0.4056 0.4111 0.4153 0.4163
3357.193535 0.4182 0.4222 0.4259 0.4289 0.4331
3363.583323 0.4400 0.4451 0.4456 0.4466 0.4486
3369.973110 0.4517 0.4576 0.4624 0.4639 0.4658
3376.362898 0.4688 0.4716 0.4741 0.4775 0.4836
3382.752685 0.4886 0.4905 0.4931 0.4971 0.5000
3389.142473 0.5000 0.5009 0.5044 0.5075 0.5095
3395.532260 0.5119 0.5153 0.5188 0.5223 0.5258
3401.922048 0.5293 0.5320 0.5320 0.5323 0.5339
3408.311835 0.5355 0.5375 0.5398 0.5433 0.5461
3414.701623 0.5466 0.5472 0.5482 0.5494 0.5514
3421.091410 0.5533 0.5548 0.5564 0.5584 0.5603
3427.481198 0.5618 0.5634 0.5654 0.5671 0.5676
3433.870986 0.5682 0.5692 0.5702 0.5712 0.5722
3440.260773 0.5732 0.5741 0.5746 0.5752 0.5762
3446.650561 0.5772 0.5782 0.5790 0.5790 0.5793
3453.040348 0.5807 0.5820 0.5820 0.5822 0.5832
3459.430136 0.5842 0.5852 0.5860 0.5860 0.5862
3465.819923 0.5872 0.5880 0.5880 0.5880 0.5880
3472.209711 0.5881 0.5886 0.5891 0.5901 0.5910
3478.599498 0.5910 0.5909 0.5899 0.5889 0.5884
3484.989286 0.5880 0.5880 0.5880 0.5880 0.5880
3491.379073 0.5880 0.5880 0.5880 0.5881 0.5886
3497.768861 0.5890 0.5890 0.5889 0.5884 0.5880
3504.158649 0.5880 0.5879 0.5869 0.5860 0.5860
3510.548436 0.5859 0.5849 0.5840 0.5840 0.5840
3516.938224 0.5840 0.5840 0.5840 0.5839 0.5829
3523.328011 0.5820 0.5815 0.5810 0.5810 0.5810
3529.717799 0.5810 0.5809 0.5799 0.5790 0.5790
3536.107586 0.5789 0.5779 0.5771 0.5781 0.5789
3542.497374 0.5779 0.5769 0.5759 0.5750 0.5750
3548.887161 0.5750 0.5745 0.5740 0.5740 0.5740
3555.276949 0.5740 0.5740 0.5740 0.5740 0.5730
3561.666736 0.5720 0.5720 0.5720 0.5720 0.5720
3568.056524 0.5710 0.5700 0.5700 0.5700 0.5690
3574.446312 0.5680 0.5675 0.5670 0.5670 0.5670
3580.836099 0.5670 0.5670 0.5660 0.5650 0.5650
3587.225887 0.5650 0.5650 0.5650 0.5640 0.5630
3593.615674 0.5640 0.5650 0.5650 0.5650 0.5650
3600.005462 0.5650 0.5640 0.5630 0.5620 0.5610
3606.395249 0.5605 0.5600 0.5600 0.5600 0.5590
3612.785037 0.5580 0.5590 0.5600 0.5590 0.5580
3619.174824 0.5561 0.5541 0.5535 0.5530 0.5530
3625.564612 0.5530 0.5520 0.5510 0.5519 0.5529
3631.954399 0.5530 0.5530 0.5521 0.5511 0.5501
3638.344187 0.5490 0.5480 0.5470 0.5470 0.5470
3644.733975 0.5470 0.5470 0.5470 0.5470 0.5479
3651.123762 0.5489 0.5481 0.5471 0.5470 0.5470
3657.513550 0.5456 0.5441 0.5431 0.5421 0.5420
3663.903337 0.5420 0.5415 0.5410 0.5401 0.5391
3670.293125 0.5390 0.5390 0.5390 0.5390 0.5399
3676.682912 0.5409 0.5410 0.5410 0.5401 0.5391
3683.072700 0.5390 0.5390 0.5381 0.5371 0.5370
3689.462487 0.5370 0.5370 0.5370 0.5370 0.5370
3695.852275 0.5370 0.5370 0.5370 0.5370 0.5361
3702.242062 0.5351 0.5350 0.5350 0.5346 0.5341
3708.631850 0.5340 0.5340 0.5332 0.5322 0.5312
3715.021638 0.5301 0.5291 0.5281 0.5276 0.5271
3721.411425 0.5270 0.5270 0.5262 0.5252 0.5242
3727.801213 0.5232 0.5230 0.5230 0.5222 0.5212
3734.191000 0.5218 0.5228 0.5230 0.5230 0.5230
3740.580788 0.5230 0.5230 0.5230 0.5230 0.5230
3746.970575 0.5230 0.5230 0.5222 0.5212 0.5206
3753.360363 0.5201 0.5200 0.5200 0.5200 0.5200
3759.750150 0.5200 0.5200 0.5192 0.5182 0.5180
3766.139938 0.5180 0.5180 0.5180 0.5172 0.5162
3772.529725 0.5160 0.5160 0.5160 0.5160 0.5160
3778.919513 0.5160 0.5152 0.5142 0.5140 0.5140
3785.309301 0.5136 0.5131 0.5130 0.5130 0.5130
3791.699088 0.5130 0.5130 0.5130
##END=
