##TITLE=N-DODECYL AMINE
##JCAMP-DX=4.24
##DATA TYPE=INFRARED SPECTRUM
##CLASS=COBLENTZ
##ORIGIN=SUN CHEMICAL CORP., R.W. BASSEMIR
##OWNER=COBLENTZ SOCIETY
Collection (C) 2018 copyright by the U.S. Secretary of Commerce
on behalf of the United States of America. All rights reserved.
##DATE=Not specified, most likely prior to 1970
##NAMES=dodecylamine
1-dodecanamine
##CAS REGISTRY NO=124-22-1
##MOLFORM=C12 H27 N
##SOURCE REFERENCE=COBLENTZ NO. 2532
##$NIST SOURCE=COBLENTZ
##$NIST IMAGE=cob2532
##SPECTROMETER/DATA SYSTEM=PERKIN-ELMER
##STATE=LIQUID (MELT)
$$ PURITY MORE THAN 98% BY G.C.
SEE SPECTRUM NO. 2531 FOR SOLID
##PATH LENGTH=CAPILLARY, HEATED DURING RUN TO KEEP SAMPLE MELTED
##SAMPLING PROCEDURE=TRANSMISSION
##RESOLUTION=4
##DATA PROCESSING=DIGITIZED BY NIST FROM HARD COPY
##XUNITS=MICROMETERS
##YUNITS=TRANSMITTANCE
##XFACTOR=1.000000
##YFACTOR=1
##DELTAX=000.006722
##FIRSTX=2.047
##LASTX=14.9732
##FIRSTY=0.758
##MAXX=14.9732
##MINX=2.047
##MAXY=0.791
##MINY=0.025
##NPOINTS=1924
##XYDATA=(X++(Y..Y))
2.047000 0.7580 0.7580 0.7580 0.7590 0.7590
2.080627 0.7590 0.7610 0.7610 0.7610 0.7590
2.114000 0.7590 0.7590 0.7610 0.7610 0.7610
2.147627 0.7610 0.7610 0.7610 0.7610 0.7610
2.181000 0.7610 0.7610 0.7610 0.7610 0.7610
2.214627 0.7610 0.7610 0.7590 0.7590 0.7590
2.249000 0.7580 0.7560 0.7560 0.7510 0.7490
2.282627 0.7470 0.7390 0.7290 0.7200 0.7190
2.316000 0.7200 0.7250 0.7250 0.7240 0.7220
2.349627 0.7220 0.7220 0.7240 0.7240 0.7250
2.383000 0.7250 0.7250 0.7270 0.7290 0.7300
2.416627 0.7320 0.7320 0.7360 0.7370 0.7370
2.450000 0.7390 0.7390 0.7390 0.7410 0.7420
2.483627 0.7470 0.7470 0.7490 0.7490 0.7510
2.518000 0.7510 0.7510 0.7510 0.7510 0.7510
2.551627 0.7520 0.7520 0.7520 0.7540 0.7540
2.585000 0.7540 0.7560 0.7560 0.7580 0.7580
2.618627 0.7560 0.7560 0.7560 0.7560 0.7580
2.652000 0.7590 0.7590 0.7590 0.7590 0.7590
2.685627 0.7590 0.7590 0.7590 0.7590 0.7590
2.719000 0.7560 0.7560 0.7560 0.7560 0.7560
2.752627 0.7560 0.7560 0.7560 0.7560 0.7580
2.786000 0.7580 0.7580 0.7590 0.7580 0.7580
2.819627 0.7590 0.7590 0.7590 0.7590 0.7590
2.854000 0.7590 0.7590 0.7580 0.7580 0.7560
2.887627 0.7540 0.7540 0.7540 0.7520 0.7510
2.921000 0.7510 0.7490 0.7420 0.7290 0.7220
2.954627 0.6970 0.6900 0.6900 0.6920 0.6920
2.988000 0.6980 0.7050 0.7100 0.7100 0.7030
3.021627 0.6980 0.6970 0.6970 0.6970 0.6970
3.055000 0.6980 0.7000 0.7020 0.7050 0.7100
3.088627 0.7140 0.7190 0.7200 0.7200 0.7200
3.123000 0.7200 0.7220 0.7220 0.7220 0.7220
3.156627 0.7200 0.7200 0.7200 0.7220 0.7220
3.190000 0.7240 0.7240 0.7240 0.7250 0.7250
3.223627 0.7240 0.7220 0.7220 0.7220 0.7200
3.257000 0.7170 0.7100 0.7070 0.7000 0.6970
3.290627 0.6850 0.6810 0.6750 0.6610 0.6460
3.324000 0.6190 0.5980 0.5630 0.5070 0.4680
3.357627 0.4290 0.2800 0.2280 0.1740 0.1260
3.391000 0.0930 0.0600 0.0330 0.0270 0.0250
3.424627 0.0250 0.0250 0.0250 0.0330 0.0500
3.459000 0.0650 0.0840 0.0890 0.0860 0.0740
3.492627 0.0600 0.0470 0.0470 0.0740 0.1260
3.526000 0.1810 0.2410 0.3600 0.4060 0.4600
3.559627 0.4990 0.5480 0.5660 0.5850 0.5980
3.593000 0.6100 0.6170 0.6240 0.6310 0.6320
3.626627 0.6340 0.6360 0.6370 0.6390 0.6410
3.660000 0.6530 0.6580 0.6630 0.6680 0.6710
3.693627 0.6780 0.6800 0.6800 0.6780 0.6780
3.728000 0.6780 0.6780 0.6810 0.6830 0.6850
3.761627 0.6900 0.6930 0.6950 0.6970 0.6980
3.795000 0.7000 0.7050 0.7100 0.7100 0.7140
3.828627 0.7150 0.7170 0.7190 0.7200 0.7220
3.862000 0.7240 0.7240 0.7250 0.7270 0.7300
3.895627 0.7340 0.7360 0.7410 0.7420 0.7460
3.929000 0.7460 0.7490 0.7490 0.7490 0.7510
3.962627 0.7520 0.7520 0.7540 0.7560 0.7580
3.996000 0.7590 0.7610 0.7610 0.7630 0.7640
4.029627 0.7640 0.7680 0.7680 0.7680 0.7680
4.064000 0.7680 0.7690 0.7710 0.7730 0.7740
4.097627 0.7740 0.7730 0.7730 0.7730 0.7730
4.131000 0.7710 0.7710 0.7730 0.7740 0.7740
4.164627 0.7730 0.7730 0.7730 0.7730 0.7740
4.198000 0.7740 0.7740 0.7760 0.7780 0.7780
4.231627 0.7780 0.7780 0.7780 0.7780 0.7780
4.265000 0.7780 0.7780 0.7760 0.7780 0.7780
4.298627 0.7800 0.7800 0.7780 0.7780 0.7780
4.332000 0.7780 0.7780 0.7780 0.7800 0.7810
4.365627 0.7810 0.7810 0.7810 0.7810 0.7810
4.400000 0.7800 0.7800 0.7800 0.7780 0.7780
4.433627 0.7780 0.7760 0.7780 0.7780 0.7780
4.467000 0.7780 0.7780 0.7780 0.7780 0.7780
4.500627 0.7800 0.7800 0.7800 0.7800 0.7800
4.534000 0.7800 0.7800 0.7800 0.7800 0.7810
4.567627 0.7810 0.7800 0.7800 0.7800 0.7800
4.601000 0.7800 0.7800 0.7800 0.7800 0.7800
4.634627 0.7800 0.7800 0.7800 0.7800 0.7800
4.669000 0.7800 0.7800 0.7800 0.7800 0.7810
4.702627 0.7810 0.7830 0.7830 0.7830 0.7810
4.736000 0.7810 0.7810 0.7810 0.7810 0.7810
4.769627 0.7830 0.7830 0.7830 0.7830 0.7830
4.803000 0.7830 0.7830 0.7810 0.7810 0.7810
4.836627 0.7810 0.7810 0.7810 0.7810 0.7810
4.870000 0.7810 0.7800 0.7800 0.7800 0.7800
4.903627 0.7800 0.7800 0.7800 0.7810 0.7810
4.937000 0.7810 0.7810 0.7810 0.7810 0.7810
4.970627 0.7810 0.7810 0.7810 0.7810 0.7810
5.005000 0.7810 0.7830 0.7830 0.7830 0.7830
5.038627 0.7850 0.7850 0.7850 0.7860 0.7860
5.072000 0.7860 0.7860 0.7860 0.7860 0.7860
5.105627 0.7860 0.7860 0.7860 0.7850 0.7850
5.139000 0.7850 0.7860 0.7860 0.7860 0.7860
5.172627 0.7860 0.7860 0.7860 0.7880 0.7900
5.206000 0.7900 0.7880 0.7880 0.7900 0.7900
5.239627 0.7900 0.7900 0.7910 0.7900 0.7900
5.274000 0.7900 0.7900 0.7900 0.7900 0.7880
5.307627 0.7880 0.7880 0.7880 0.7880 0.7900
5.341000 0.7900 0.7880 0.7880 0.7860 0.7860
5.374627 0.7860 0.7860 0.7860 0.7880 0.7880
5.408000 0.7880 0.7880 0.7880 0.7880 0.7880
5.441627 0.7880 0.7900 0.7900 0.7900 0.7900
5.475000 0.7900 0.7900 0.7900 0.7900 0.7900
5.508627 0.7900 0.7900 0.7900 0.7900 0.7910
5.542000 0.7900 0.7900 0.7900 0.7900 0.7900
5.575627 0.7900 0.7900 0.7900 0.7900 0.7900
5.610000 0.7900 0.7900 0.7910 0.7910 0.7900
5.643627 0.7900 0.7880 0.7880 0.7880 0.7880
5.677000 0.7880 0.7880 0.7880 0.7860 0.7850
5.710627 0.7850 0.7850 0.7850 0.7830 0.7830
5.744000 0.7810 0.7810 0.7810 0.7810 0.7830
5.777627 0.7850 0.7850 0.7850 0.7830 0.7830
5.811000 0.7810 0.7800 0.7800 0.7800 0.7800
5.844627 0.7800 0.7800 0.7800 0.7810 0.7810
5.878000 0.7810 0.7800 0.7760 0.7760 0.7760
5.911627 0.7760 0.7740 0.7740 0.7730 0.7730
5.946000 0.7710 0.7680 0.7660 0.7630 0.7630
5.979627 0.7610 0.7590 0.7560 0.7540 0.7510
6.013000 0.7510 0.7510 0.7510 0.7490 0.7470
6.046627 0.7420 0.7360 0.7250 0.7240 0.7200
6.080000 0.7100 0.7030 0.7000 0.6980 0.6880
6.113627 0.6850 0.6680 0.6540 0.6480 0.6370
6.147000 0.6310 0.6270 0.6050 0.6020 0.6000
6.180627 0.6000 0.6040 0.6070 0.6140 0.6190
6.215000 0.6240 0.6270 0.6310 0.6360 0.6410
6.248627 0.6480 0.6480 0.6580 0.6610 0.6630
6.282000 0.6660 0.6660 0.6680 0.6700 0.6700
6.315627 0.6730 0.6760 0.6800 0.6850 0.6850
6.349000 0.6860 0.6880 0.6880 0.6900 0.6970
6.382627 0.6970 0.6980 0.7030 0.7070 0.7080
6.416000 0.7100 0.7100 0.7120 0.7120 0.7120
6.449627 0.7140 0.7140 0.7170 0.7200 0.7200
6.483000 0.7200 0.7200 0.7200 0.7220 0.7220
6.516627 0.7220 0.7220 0.7220 0.7240 0.7240
6.551000 0.7240 0.7250 0.7240 0.7240 0.7250
6.584627 0.7250 0.7250 0.7250 0.7240 0.7240
6.618000 0.7240 0.7220 0.7200 0.7190 0.7190
6.651627 0.7170 0.7150 0.7120 0.7070 0.7000
6.685000 0.7000 0.6980 0.6920 0.6830 0.6710
6.718627 0.6610 0.6530 0.6360 0.6170 0.5980
6.752000 0.5730 0.5440 0.5190 0.4940 0.4550
6.785627 0.3820 0.2850 0.2550 0.2530 0.2530
6.820000 0.2550 0.2570 0.2620 0.2690 0.2920
6.853627 0.3090 0.3310 0.3530 0.3750 0.3920
6.887000 0.4110 0.4330 0.4500 0.4600 0.4720
6.920627 0.4820 0.4920 0.5120 0.5210 0.5320
6.954000 0.5600 0.5750 0.5880 0.6020 0.6120
6.987627 0.6310 0.6420 0.6540 0.6640 0.6660
7.021000 0.6710 0.6760 0.6830 0.6860 0.6900
7.054627 0.6980 0.7000 0.7030 0.7030 0.7030
7.088000 0.7050 0.7070 0.7070 0.7050 0.7030
7.121627 0.7000 0.6980 0.6970 0.6860 0.6800
7.156000 0.6660 0.6630 0.6510 0.6420 0.6340
7.189627 0.6260 0.6150 0.6040 0.5980 0.5820
7.223000 0.5610 0.5340 0.5320 0.5340 0.5440
7.256627 0.5600 0.5780 0.5830 0.5930 0.6000
7.290000 0.6020 0.6040 0.6070 0.6100 0.6120
7.323627 0.6170 0.6240 0.6340 0.6360 0.6370
7.357000 0.6370 0.6370 0.6370 0.6390 0.6410
7.390627 0.6420 0.6490 0.6490 0.6530 0.6630
7.425000 0.6700 0.6730 0.6750 0.6750 0.6750
7.458627 0.6760 0.6850 0.6970 0.6980 0.7030
7.492000 0.7070 0.7100 0.7120 0.7120 0.7120
7.525627 0.7120 0.7120 0.7120 0.7120 0.7100
7.559000 0.7050 0.7030 0.7000 0.6980 0.6970
7.592627 0.6950 0.6920 0.6900 0.6860 0.6860
7.626000 0.6850 0.6830 0.6830 0.6830 0.6830
7.659627 0.6810 0.6810 0.6810 0.6830 0.6830
7.693000 0.6850 0.6860 0.6860 0.6880 0.6930
7.726627 0.6970 0.6980 0.7000 0.7020 0.7050
7.761000 0.7070 0.7080 0.7080 0.7100 0.7120
7.794627 0.7140 0.7150 0.7170 0.7170 0.7170
7.828000 0.7200 0.7220 0.7220 0.7220 0.7220
7.861627 0.7240 0.7250 0.7250 0.7250 0.7270
7.895000 0.7290 0.7300 0.7320 0.7320 0.7360
7.928627 0.7360 0.7370 0.7390 0.7410 0.7410
7.962000 0.7410 0.7410 0.7410 0.7420 0.7420
7.995627 0.7420 0.7440 0.7460 0.7460 0.7470
8.029000 0.7470 0.7470 0.7490 0.7490 0.7490
8.062627 0.7510 0.7510 0.7520 0.7520 0.7560
8.097000 0.7560 0.7560 0.7560 0.7580 0.7580
8.130627 0.7580 0.7580 0.7580 0.7580 0.7580
8.164000 0.7580 0.7580 0.7580 0.7590 0.7590
8.197627 0.7590 0.7590 0.7580 0.7580 0.7580
8.231000 0.7580 0.7590 0.7590 0.7590 0.7610
8.264627 0.7610 0.7610 0.7610 0.7610 0.7610
8.298000 0.7610 0.7630 0.7630 0.7630 0.7630
8.331627 0.7630 0.7630 0.7640 0.7640 0.7660
8.366000 0.7680 0.7680 0.7680 0.7680 0.7680
8.399627 0.7680 0.7680 0.7680 0.7680 0.7660
8.433000 0.7660 0.7660 0.7660 0.7660 0.7640
8.466627 0.7640 0.7630 0.7640 0.7640 0.7640
8.500000 0.7640 0.7630 0.7640 0.7640 0.7640
8.533627 0.7640 0.7640 0.7640 0.7640 0.7640
8.567000 0.7660 0.7660 0.7660 0.7640 0.7640
8.600627 0.7640 0.7640 0.7640 0.7640 0.7610
8.634000 0.7610 0.7610 0.7610 0.7610 0.7610
8.667627 0.7610 0.7630 0.7630 0.7630 0.7610
8.702000 0.7590 0.7590 0.7590 0.7580 0.7580
8.735627 0.7580 0.7560 0.7560 0.7560 0.7540
8.769000 0.7520 0.7510 0.7510 0.7510 0.7490
8.802627 0.7490 0.7470 0.7460 0.7440 0.7420
8.836000 0.7410 0.7390 0.7390 0.7360 0.7340
8.869627 0.7320 0.7320 0.7320 0.7320 0.7320
8.903000 0.7300 0.7300 0.7300 0.7300 0.7300
8.936627 0.7300 0.7320 0.7320 0.7320 0.7320
8.971000 0.7320 0.7320 0.7320 0.7300 0.7300
9.004627 0.7290 0.7290 0.7270 0.7250 0.7240
9.038000 0.7220 0.7190 0.7150 0.7140 0.7120
9.071627 0.7080 0.7030 0.7000 0.6980 0.6900
9.105000 0.6860 0.6850 0.6810 0.6750 0.6680
9.138627 0.6660 0.6630 0.6610 0.6580 0.6540
9.172000 0.6540 0.6530 0.6530 0.6530 0.6530
9.205627 0.6510 0.6510 0.6510 0.6480 0.6460
9.239000 0.6460 0.6440 0.6420 0.6390 0.6360
9.272627 0.6360 0.6320 0.6310 0.6260 0.6220
9.307000 0.6220 0.6220 0.6220 0.6220 0.6220
9.340627 0.6220 0.6220 0.6240 0.6270 0.6290
9.374000 0.6360 0.6460 0.6490 0.6510 0.6530
9.407627 0.6540 0.6590 0.6610 0.6630 0.6680
9.441000 0.6700 0.6710 0.6710 0.6710 0.6730
9.474627 0.6760 0.6800 0.6810 0.6830 0.6860
9.508000 0.6880 0.6900 0.6900 0.6920 0.6970
9.541627 0.6980 0.6980 0.6980 0.6980 0.7000
9.575000 0.7000 0.7020 0.7020 0.7030 0.7030
9.608627 0.7030 0.7070 0.7080 0.7100 0.7100
9.643000 0.7100 0.7120 0.7120 0.7120 0.7120
9.676627 0.7120 0.7120 0.7120 0.7120 0.7120
9.710000 0.7120 0.7120 0.7120 0.7120 0.7120
9.743627 0.7120 0.7120 0.7120 0.7120 0.7120
9.777000 0.7120 0.7120 0.7120 0.7120 0.7120
9.810627 0.7140 0.7150 0.7150 0.7150 0.7150
9.844000 0.7150 0.7170 0.7170 0.7170 0.7170
9.877627 0.7170 0.7170 0.7170 0.7200 0.7200
9.912000 0.7220 0.7250 0.7250 0.7250 0.7250
9.945627 0.7250 0.7250 0.7250 0.7250 0.7270
9.979000 0.7270 0.7270 0.7270 0.7270 0.7270
10.012627 0.7270 0.7290 0.7290 0.7300 0.7300
10.046000 0.7300 0.7320 0.7320 0.7300 0.7300
10.079627 0.7300 0.7300 0.7300 0.7320 0.7340
10.113000 0.7340 0.7340 0.7340 0.7340 0.7360
10.146627 0.7360 0.7360 0.7360 0.7360 0.7360
10.180000 0.7360 0.7360 0.7360 0.7360 0.7360
10.213627 0.7360 0.7360 0.7360 0.7360 0.7360
10.248000 0.7360 0.7360 0.7360 0.7340 0.7340
10.281627 0.7320 0.7320 0.7300 0.7300 0.7300
10.315000 0.7290 0.7290 0.7270 0.7250 0.7250
10.348627 0.7250 0.7250 0.7250 0.7250 0.7250
10.382000 0.7240 0.7220 0.7220 0.7220 0.7220
10.415627 0.7200 0.7190 0.7190 0.7190 0.7190
10.449000 0.7200 0.7200 0.7190 0.7170 0.7170
10.482627 0.7190 0.7190 0.7200 0.7200 0.7190
10.517000 0.7170 0.7170 0.7190 0.7190 0.7190
10.550627 0.7190 0.7190 0.7200 0.7200 0.7190
10.584000 0.7190 0.7200 0.7200 0.7200 0.7200
10.617627 0.7200 0.7200 0.7200 0.7200 0.7200
10.651000 0.7200 0.7190 0.7190 0.7200 0.7200
10.684627 0.7200 0.7200 0.7200 0.7190 0.7190
10.718000 0.7170 0.7150 0.7140 0.7120 0.7100
10.751627 0.7100 0.7100 0.7100 0.7100 0.7100
10.785000 0.7100 0.7080 0.7050 0.7050 0.7050
10.818627 0.7050 0.7050 0.7030 0.7020 0.7000
10.853000 0.7000 0.6980 0.6980 0.6980 0.6950
10.886627 0.6930 0.6930 0.6920 0.6900 0.6880
10.920000 0.6880 0.6860 0.6850 0.6850 0.6850
10.953627 0.6830 0.6800 0.6780 0.6780 0.6780
10.987000 0.6780 0.6760 0.6750 0.6750 0.6730
11.020627 0.6680 0.6660 0.6660 0.6660 0.6660
11.054000 0.6660 0.6660 0.6640 0.6640 0.6630
11.087627 0.6630 0.6610 0.6580 0.6530 0.6510
11.122000 0.6490 0.6490 0.6480 0.6480 0.6420
11.155627 0.6420 0.6420 0.6420 0.6420 0.6410
11.189000 0.6410 0.6390 0.6370 0.6360 0.6360
11.222627 0.6340 0.6320 0.6310 0.6290 0.6260
11.256000 0.6240 0.6220 0.6200 0.6200 0.6200
11.289627 0.6200 0.6200 0.6190 0.6170 0.6170
11.323000 0.6170 0.6170 0.6150 0.6150 0.6140
11.356627 0.6120 0.6100 0.6090 0.6070 0.6040
11.390000 0.6020 0.6000 0.6000 0.5980 0.5980
11.423627 0.5970 0.5950 0.5880 0.5850 0.5850
11.458000 0.5850 0.5830 0.5820 0.5820 0.5820
11.491627 0.5800 0.5800 0.5780 0.5760 0.5750
11.525000 0.5750 0.5750 0.5710 0.5700 0.5680
11.558627 0.5660 0.5660 0.5610 0.5560 0.5530
11.592000 0.5510 0.5490 0.5490 0.5480 0.5460
11.625627 0.5460 0.5440 0.5440 0.5430 0.5430
11.659000 0.5410 0.5380 0.5360 0.5320 0.5290
11.692627 0.5270 0.5260 0.5240 0.5240 0.5210
11.726000 0.5190 0.5210 0.5190 0.5170 0.5160
11.759627 0.5140 0.5140 0.5120 0.5090 0.5050
11.794000 0.5040 0.5020 0.5000 0.5000 0.5000
11.827627 0.4990 0.4990 0.4990 0.4970 0.4920
11.861000 0.4890 0.4850 0.4830 0.4830 0.4800
11.894627 0.4800 0.4800 0.4780 0.4780 0.4770
11.928000 0.4750 0.4720 0.4700 0.4700 0.4680
11.961627 0.4670 0.4670 0.4650 0.4630 0.4610
11.995000 0.4580 0.4550 0.4510 0.4500 0.4480
12.028627 0.4480 0.4480 0.4410 0.4390 0.4380
12.063000 0.4360 0.4340 0.4330 0.4290 0.4280
12.096627 0.4260 0.4240 0.4230 0.4190 0.4160
12.130000 0.4140 0.4140 0.4110 0.4090 0.4070
12.163627 0.4060 0.4060 0.4020 0.4020 0.4010
12.197000 0.3990 0.3970 0.3950 0.3920 0.3900
12.230627 0.3850 0.3850 0.3840 0.3820 0.3800
12.264000 0.3790 0.3770 0.3750 0.3750 0.3730
12.297627 0.3720 0.3700 0.3680 0.3670 0.3650
12.331000 0.3650 0.3650 0.3630 0.3630 0.3630
12.364627 0.3620 0.3620 0.3600 0.3580 0.3570
12.399000 0.3550 0.3530 0.3510 0.3510 0.3500
12.432627 0.3500 0.3480 0.3480 0.3460 0.3460
12.466000 0.3430 0.3400 0.3380 0.3380 0.3330
12.499627 0.3310 0.3310 0.3310 0.3290 0.3290
12.533000 0.3290 0.3290 0.3290 0.3280 0.3280
12.566627 0.3280 0.3280 0.3280 0.3280 0.3260
12.600000 0.3240 0.3240 0.3240 0.3240 0.3230
12.633627 0.3230 0.3230 0.3230 0.3230 0.3240
12.668000 0.3240 0.3240 0.3260 0.3280 0.3290
12.701627 0.3290 0.3290 0.3310 0.3310 0.3310
12.735000 0.3310 0.3310 0.3330 0.3350 0.3400
12.768627 0.3410 0.3430 0.3480 0.3480 0.3500
12.802000 0.3500 0.3500 0.3500 0.3500 0.3510
12.835627 0.3530 0.3570 0.3600 0.3630 0.3670
12.869000 0.3680 0.3680 0.3700 0.3730 0.3750
12.902627 0.3770 0.3790 0.3790 0.3790 0.3800
12.936000 0.3840 0.3850 0.3890 0.3900 0.3920
12.969627 0.3920 0.3920 0.3940 0.3950 0.3970
13.004000 0.3990 0.3990 0.4010 0.4040 0.4060
13.037627 0.4090 0.4110 0.4120 0.4140 0.4210
13.071000 0.4280 0.4290 0.4310 0.4330 0.4360
13.104627 0.4380 0.4390 0.4410 0.4430 0.4450
13.138000 0.4480 0.4510 0.4600 0.4630 0.4670
13.171627 0.4670 0.4670 0.4670 0.4680 0.4700
13.205000 0.4700 0.4720 0.4720 0.4730 0.4770
13.238627 0.4780 0.4820 0.4850 0.4870 0.4870
13.272000 0.4890 0.4890 0.4900 0.4950 0.4990
13.305627 0.4990 0.4990 0.5000 0.5000 0.5020
13.340000 0.5050 0.5070 0.5090 0.5120 0.5120
13.373627 0.5140 0.5140 0.5140 0.5140 0.5140
13.407000 0.5140 0.5160 0.5170 0.5190 0.5190
13.440627 0.5210 0.5210 0.5210 0.5220 0.5220
13.474000 0.5210 0.5210 0.5210 0.5210 0.5210
13.507627 0.5220 0.5220 0.5240 0.5240 0.5220
13.541000 0.5220 0.5220 0.5240 0.5240 0.5240
13.574627 0.5240 0.5240 0.5220 0.5210 0.5210
13.609000 0.5190 0.5190 0.5190 0.5190 0.5190
13.642627 0.5190 0.5190 0.5170 0.5170 0.5170
13.676000 0.5160 0.5160 0.5120 0.5100 0.5090
13.709627 0.5070 0.5050 0.5050 0.5040 0.5020
13.743000 0.5000 0.4990 0.4990 0.4970 0.4950
13.776627 0.4940 0.4890 0.4830 0.4800 0.4770
13.810000 0.4700 0.4680 0.4650 0.4630 0.4600
13.843627 0.4580 0.4550 0.4530 0.4500 0.4480
13.877000 0.4460 0.4430 0.4410 0.4410 0.4390
13.910627 0.4390 0.4390 0.4410 0.4410 0.4430
13.945000 0.4450 0.4480 0.4480 0.4500 0.4530
13.978627 0.4560 0.4610 0.4720 0.4730 0.4770
14.012000 0.4770 0.4800 0.4830 0.4940 0.4970
14.045627 0.4970 0.4990 0.5040 0.5050 0.5070
14.079000 0.5120 0.5140 0.5170 0.5210 0.5220
14.112627 0.5220 0.5270 0.5310 0.5320 0.5340
14.146000 0.5340 0.5360 0.5380 0.5380 0.5380
14.179627 0.5390 0.5430 0.5440 0.5460 0.5460
14.214000 0.5460 0.5480 0.5490 0.5510 0.5530
14.247627 0.5530 0.5540 0.5560 0.5580 0.5580
14.281000 0.5580 0.5600 0.5600 0.5610 0.5630
14.314627 0.5650 0.5650 0.5650 0.5650 0.5660
14.348000 0.5660 0.5660 0.5660 0.5660 0.5680
14.381627 0.5680 0.5680 0.5680 0.5680 0.5680
14.415000 0.5680 0.5680 0.5660 0.5660 0.5650
14.448627 0.5650 0.5650 0.5650 0.5650 0.5630
14.482000 0.5630 0.5630 0.5630 0.5630 0.5630
14.515627 0.5630 0.5630 0.5630 0.5630 0.5630
14.550000 0.5630 0.5630 0.5630 0.5630 0.5610
14.583627 0.5610 0.5610 0.5610 0.5600 0.5600
14.617000 0.5600 0.5580 0.5580 0.5580 0.5580
14.650627 0.5560 0.5540 0.5540 0.5540 0.5530
14.684000 0.5530 0.5510 0.5510 0.5490 0.5480
14.717627 0.5460 0.5460 0.5460 0.5440 0.5440
14.751000 0.5440 0.5430 0.5430 0.5430 0.5430
14.784627 0.5410 0.5410 0.5390 0.5380 0.5380
14.819000 0.5360 0.5360 0.5340 0.5340 0.5320
14.852627 0.5320 0.5320 0.5320 0.5320 0.5320
14.886000 0.5310 0.5310 0.5310 0.5310 0.5310
14.919627 0.5310 0.5310 0.5320 0.5320 0.5320
14.953000 0.5320 0.5360 0.5320 0.5320
##END=
