##TITLE=ISO-BORNEOL
##JCAMP-DX=4.24
##DATA TYPE=INFRARED SPECTRUM
##CLASS=COBLENTZ
##ORIGIN=INFRACORD
##OWNER=COBLENTZ SOCIETY
Collection (C) 2018 copyright by the U.S. Secretary of Commerce
on behalf of the United States of America. All rights reserved.
##DATE=Not specified, most likely prior to 1970
##NAMES=1,7,7-trimethylbicyclo[2.2.1]heptan-2-ol
##CAS REGISTRY NO=124-76-5
##MOLFORM=C10 H18 O
##SOURCE REFERENCE=COBLENTZ NO. 3709
##$NIST SOURCE=COBLENTZ
##$NIST IMAGE=cob3709
##SPECTROMETER/DATA SYSTEM=Not specified, most likely a prism, grating, or hybrid spectrometer.
##STATE=SOLID (MINERAL OIL MULL)
$$ 99% PURE
##SAMPLING PROCEDURE=TRANSMISSION
##RESOLUTION=4
##DATA PROCESSING=DIGITIZED BY NIST FROM HARD COPY
##XUNITS=MICROMETERS
##YUNITS=TRANSMITTANCE
##XFACTOR=1.000000
##YFACTOR=1
##DELTAX=000.006004
##FIRSTX=2.518
##LASTX=15.006
##FIRSTY=0.919
##MAXX=15.006
##MINX=2.518
##MAXY=0.955
##MINY=0.049
##NPOINTS=2081
##XYDATA=(X++(Y..Y))
2.518000 0.9190 0.9180 0.9180 0.9170 0.9170
2.548034 0.9170 0.9160 0.9160 0.9160 0.9140
2.578000 0.9140 0.9130 0.9130 0.9130 0.9120
2.608034 0.9100 0.9100 0.9090 0.9080 0.9080
2.638000 0.9070 0.9070 0.9080 0.9090 0.9100
2.668034 0.9110 0.9110 0.9120 0.9120 0.9130
2.698000 0.9130 0.9140 0.9140 0.9140 0.9160
2.728034 0.9140 0.9140 0.9140 0.9100 0.8980
2.758000 0.8880 0.8680 0.8510 0.8390 0.8090
2.788034 0.7900 0.7770 0.7680 0.7510 0.7440
2.818000 0.7330 0.7120 0.6870 0.6610 0.6320
2.848034 0.6020 0.5710 0.5380 0.5060 0.4730
2.878000 0.4470 0.3940 0.3590 0.3350 0.3050
2.908034 0.2750 0.2590 0.2490 0.2270 0.2180
2.938000 0.2100 0.1930 0.1840 0.1760 0.1660
2.968034 0.1610 0.1600 0.1590 0.1600 0.1610
2.998000 0.1650 0.1740 0.1810 0.1870 0.1910
3.028034 0.1970 0.2030 0.2110 0.2210 0.2350
3.058000 0.2510 0.2730 0.2970 0.3090 0.3300
3.088034 0.3610 0.3900 0.4180 0.4560 0.4710
3.118000 0.4960 0.5150 0.5450 0.5670 0.5860
3.148034 0.6030 0.6210 0.6390 0.6520 0.6600
3.178000 0.6650 0.6930 0.7010 0.7130 0.7230
3.208034 0.7320 0.7370 0.7450 0.7580 0.7610
3.238000 0.7690 0.7730 0.7780 0.7830 0.7860
3.268034 0.7880 0.7900 0.7910 0.7920 0.7920
3.299000 0.7900 0.7770 0.7680 0.7530 0.7310
3.329034 0.6940 0.6510 0.6140 0.5810 0.5260
3.359000 0.4700 0.4300 0.3870 0.3560 0.2960
3.389034 0.2110 0.1260 0.1140 0.1040 0.0950
3.419000 0.0870 0.0750 0.0660 0.0640 0.0640
3.449034 0.0660 0.0660 0.0670 0.0670 0.0680
3.479000 0.0680 0.0690 0.0690 0.0700 0.0710
3.509034 0.0710 0.0730 0.0760 0.0850 0.0950
3.539000 0.1050 0.1240 0.1830 0.2490 0.3290
3.569034 0.3870 0.4340 0.5300 0.5900 0.6240
3.599000 0.6570 0.6900 0.7010 0.7110 0.7200
3.629034 0.7230 0.7240 0.7250 0.7270 0.7290
3.659000 0.7300 0.7300 0.7300 0.7310 0.7310
3.689034 0.7310 0.7300 0.7300 0.7300 0.7300
3.719000 0.7300 0.7320 0.7430 0.7540 0.7630
3.749034 0.7700 0.7740 0.7790 0.7840 0.7870
3.779000 0.7900 0.8000 0.8020 0.8060 0.8190
3.809034 0.8240 0.8240 0.8250 0.8250 0.8260
3.839000 0.8280 0.8290 0.8320 0.8330 0.8350
3.869034 0.8380 0.8390 0.8390 0.8420 0.8430
3.899000 0.8470 0.8480 0.8480 0.8490 0.8520
3.929034 0.8520 0.8540 0.8580 0.8650 0.8710
3.959000 0.8710 0.8750 0.8760 0.8790 0.8790
3.989034 0.8800 0.8810 0.8810 0.8820 0.8820
4.019000 0.8830 0.8830 0.8830 0.8840 0.8850
4.049034 0.8850 0.8860 0.8880 0.8880 0.8880
4.079000 0.8890 0.8890 0.8910 0.8930 0.8930
4.109034 0.8930 0.8940 0.8940 0.8940 0.8940
4.139000 0.8950 0.8950 0.8980 0.8990 0.8990
4.169034 0.9000 0.9000 0.9010 0.9010 0.9020
4.199000 0.9020 0.9030 0.9040 0.9050 0.9090
4.229034 0.9110 0.9120 0.9140 0.9140 0.9130
4.259000 0.9130 0.9130 0.9130 0.9130 0.9130
4.289034 0.9120 0.9120 0.9120 0.9120 0.9120
4.319000 0.9120 0.9120 0.9120 0.9120 0.9120
4.349034 0.9120 0.9120 0.9120 0.9120 0.9120
4.379000 0.9120 0.9120 0.9120 0.9120 0.9120
4.409034 0.9120 0.9120 0.9130 0.9140 0.9170
4.439000 0.9170 0.9190 0.9210 0.9220 0.9260
4.469034 0.9260 0.9270 0.9280 0.9280 0.9280
4.499000 0.9290 0.9290 0.9290 0.9290 0.9290
4.529034 0.9290 0.9290 0.9300 0.9300 0.9310
4.559000 0.9310 0.9310 0.9320 0.9320 0.9320
4.589034 0.9330 0.9330 0.9350 0.9350 0.9350
4.619000 0.9350 0.9350 0.9350 0.9350 0.9350
4.649034 0.9350 0.9350 0.9350 0.9350 0.9350
4.679000 0.9350 0.9350 0.9350 0.9350 0.9350
4.709034 0.9350 0.9350 0.9350 0.9350 0.9330
4.739000 0.9330 0.9330 0.9330 0.9330 0.9330
4.769034 0.9330 0.9330 0.9330 0.9330 0.9330
4.799000 0.9330 0.9330 0.9330 0.9330 0.9350
4.829034 0.9350 0.9350 0.9350 0.9350 0.9350
4.860000 0.9360 0.9360 0.9360 0.9360 0.9370
4.890034 0.9380 0.9390 0.9400 0.9410 0.9420
4.920000 0.9420 0.9420 0.9440 0.9440 0.9440
4.950034 0.9440 0.9420 0.9420 0.9420 0.9420
4.980000 0.9420 0.9420 0.9420 0.9420 0.9440
5.010034 0.9440 0.9440 0.9450 0.9460 0.9470
5.040000 0.9480 0.9480 0.9480 0.9480 0.9480
5.070034 0.9480 0.9480 0.9480 0.9480 0.9480
5.100000 0.9480 0.9480 0.9480 0.9480 0.9480
5.130034 0.9480 0.9480 0.9480 0.9480 0.9480
5.160000 0.9480 0.9480 0.9480 0.9480 0.9470
5.190034 0.9470 0.9470 0.9470 0.9480 0.9480
5.220000 0.9470 0.9470 0.9470 0.9480 0.9480
5.250034 0.9480 0.9480 0.9480 0.9480 0.9480
5.280000 0.9480 0.9480 0.9490 0.9490 0.9490
5.310034 0.9490 0.9490 0.9500 0.9500 0.9500
5.340000 0.9500 0.9500 0.9510 0.9520 0.9520
5.370034 0.9520 0.9520 0.9520 0.9540 0.9540
5.400000 0.9540 0.9520 0.9520 0.9520 0.9520
5.430034 0.9520 0.9520 0.9520 0.9520 0.9520
5.460000 0.9520 0.9520 0.9540 0.9540 0.9540
5.490034 0.9550 0.9540 0.9550 0.9550 0.9550
5.520000 0.9550 0.9550 0.9550 0.9550 0.9550
5.550034 0.9550 0.9550 0.9550 0.9550 0.9550
5.580000 0.9550 0.9550 0.9550 0.9550 0.9550
5.610034 0.9550 0.9550 0.9550 0.9540 0.9540
5.640000 0.9540 0.9540 0.9540 0.9540 0.9540
5.670034 0.9540 0.9540 0.9550 0.9550 0.9540
5.700000 0.9540 0.9540 0.9540 0.9550 0.9550
5.730034 0.9550 0.9550 0.9550 0.9550 0.9550
5.760000 0.9550 0.9550 0.9550 0.9550 0.9550
5.790034 0.9550 0.9550 0.9550 0.9550 0.9550
5.820000 0.9550 0.9550 0.9550 0.9550 0.9550
5.850034 0.9540 0.9540 0.9540 0.9540 0.9540
5.880000 0.9540 0.9540 0.9540 0.9540 0.9540
5.910034 0.9540 0.9540 0.9520 0.9520 0.9520
5.940000 0.9510 0.9490 0.9490 0.9490 0.9490
5.970034 0.9490 0.9480 0.9470 0.9460 0.9450
6.000000 0.9450 0.9440 0.9420 0.9420 0.9410
6.030034 0.9410 0.9400 0.9390 0.9370 0.9360
6.060000 0.9360 0.9360 0.9350 0.9350 0.9350
6.090034 0.9350 0.9330 0.9330 0.9320 0.9290
6.120000 0.9260 0.9260 0.9240 0.9240 0.9240
6.150034 0.9240 0.9240 0.9240 0.9240 0.9240
6.180000 0.9240 0.9240 0.9240 0.9240 0.9240
6.210034 0.9240 0.9240 0.9240 0.9240 0.9240
6.240000 0.9240 0.9240 0.9240 0.9240 0.9240
6.270034 0.9240 0.9240 0.9240 0.9230 0.9240
6.300000 0.9230 0.9230 0.9230 0.9230 0.9230
6.330034 0.9230 0.9230 0.9230 0.9230 0.9230
6.360000 0.9220 0.9220 0.9230 0.9230 0.9230
6.390034 0.9220 0.9220 0.9230 0.9230 0.9230
6.421000 0.9230 0.9230 0.9240 0.9260 0.9260
6.451034 0.9260 0.9260 0.9260 0.9260 0.9240
6.481000 0.9240 0.9260 0.9270 0.9270 0.9260
6.511034 0.9260 0.9260 0.9240 0.9240 0.9240
6.541000 0.9240 0.9240 0.9240 0.9240 0.9230
6.571034 0.9230 0.9230 0.9230 0.9230 0.9220
6.601000 0.9210 0.9190 0.9170 0.9160 0.9050
6.631034 0.8980 0.8930 0.8830 0.8810 0.8800
6.661000 0.8770 0.8680 0.8570 0.8420 0.8330
6.691034 0.8250 0.8240 0.8150 0.7870 0.7840
6.721000 0.7790 0.7670 0.7550 0.7370 0.7120
6.751034 0.6870 0.6490 0.5970 0.5480 0.5210
6.781000 0.4730 0.4360 0.4250 0.4040 0.3580
6.811034 0.3190 0.2930 0.2910 0.2900 0.2870
6.841000 0.2870 0.2860 0.2860 0.2830 0.2770
6.871034 0.2720 0.2600 0.2250 0.2100 0.1950
6.901000 0.1840 0.1760 0.1660 0.1480 0.1280
6.931034 0.1270 0.1280 0.1330 0.1470 0.1820
6.961000 0.2100 0.2410 0.2580 0.2720 0.2860
6.991034 0.3030 0.3250 0.3560 0.4090 0.4620
7.021000 0.5090 0.5220 0.5430 0.5570 0.5680
7.051034 0.5760 0.5840 0.5930 0.5970 0.5970
7.081000 0.6000 0.6010 0.6020 0.6020 0.6020
7.111034 0.6020 0.6020 0.6020 0.6030 0.6040
7.141000 0.6060 0.6060 0.6080 0.6100 0.6110
7.171034 0.6110 0.6120 0.6120 0.6120 0.6120
7.201000 0.5920 0.5620 0.4980 0.4580 0.4060
7.231034 0.3680 0.3130 0.3130 0.2720 0.2720
7.261000 0.3240 0.3860 0.4170 0.4270 0.4310
7.291034 0.4320 0.4320 0.4060 0.3520 0.3330
7.321000 0.3050 0.2700 0.2480 0.2430 0.2390
7.351034 0.2390 0.2660 0.2910 0.3150 0.3490
7.381000 0.3810 0.4160 0.4540 0.4540 0.4530
7.411034 0.4520 0.4490 0.4440 0.4400 0.4340
7.441000 0.4220 0.4160 0.4120 0.4000 0.3970
7.471034 0.3910 0.3870 0.3820 0.3790 0.3770
7.501000 0.3760 0.3740 0.3720 0.3740 0.3750
7.531034 0.3840 0.3980 0.4230 0.4450 0.4660
7.561000 0.4890 0.5090 0.5290 0.5450 0.5710
7.591034 0.5850 0.5950 0.6040 0.6080 0.6090
7.621000 0.6090 0.6080 0.5990 0.5560 0.5370
7.651034 0.5050 0.5000 0.4790 0.4580 0.4360
7.681000 0.4210 0.4150 0.4120 0.4100 0.4120
7.711034 0.4130 0.4170 0.4220 0.4220 0.4230
7.741000 0.4230 0.4230 0.4230 0.4230 0.4230
7.771034 0.4220 0.4210 0.4210 0.4190 0.4190
7.801000 0.4190 0.4190 0.4210 0.4230 0.4310
7.831034 0.4450 0.4600 0.4690 0.4860 0.4990
7.861000 0.5070 0.5170 0.5210 0.5270 0.5310
7.891034 0.5330 0.5330 0.5330 0.5350 0.5390
7.921000 0.5460 0.5490 0.5490 0.5500 0.5490
7.951034 0.5460 0.5400 0.5380 0.5310 0.5270
7.982000 0.5220 0.5170 0.5110 0.5060 0.5020
8.012034 0.5010 0.5000 0.5000 0.5000 0.5000
8.042000 0.5010 0.5010 0.5010 0.4990 0.4930
8.072034 0.4900 0.4860 0.4790 0.4780 0.4800
8.102000 0.4870 0.4910 0.4990 0.5050 0.5080
8.132034 0.5090 0.5100 0.5110 0.5120 0.5130
8.162000 0.5130 0.5150 0.5180 0.5260 0.5340
8.192034 0.5490 0.5550 0.5750 0.5850 0.5990
8.222000 0.6000 0.6010 0.6010 0.5890 0.5740
8.252034 0.5620 0.5460 0.5260 0.5170 0.5070
8.282000 0.5060 0.5070 0.5160 0.5270 0.5460
8.312034 0.5610 0.5760 0.5920 0.6010 0.6050
8.342000 0.6080 0.6090 0.6090 0.6090 0.6090
8.372034 0.6080 0.6060 0.5990 0.5940 0.5860
8.402000 0.5680 0.5470 0.5120 0.4980 0.4620
8.432034 0.4540 0.4450 0.4470 0.4620 0.4990
8.462000 0.5350 0.5550 0.5830 0.5930 0.6180
8.492034 0.6840 0.6950 0.7030 0.7130 0.7130
8.522000 0.7130 0.7110 0.7110 0.7090 0.7080
8.552034 0.7030 0.7010 0.6970 0.6970 0.6970
8.582000 0.6970 0.6960 0.6960 0.6970 0.6990
8.612034 0.7020 0.7050 0.7090 0.7120 0.7140
8.642000 0.7160 0.7180 0.7210 0.7240 0.7270
8.672034 0.7320 0.7330 0.7350 0.7390 0.7430
8.702000 0.7460 0.7500 0.7520 0.7530 0.7550
8.732034 0.7550 0.7560 0.7600 0.7590 0.7600
8.762000 0.7610 0.7630 0.7650 0.7680 0.7700
8.792034 0.7700 0.7710 0.7710 0.7710 0.7720
8.822000 0.7720 0.7700 0.7690 0.7670 0.7640
8.852034 0.7610 0.7610 0.7610 0.7610 0.7600
8.882000 0.7600 0.7600 0.7600 0.7600 0.7610
8.912034 0.7610 0.7610 0.7600 0.7560 0.7490
8.942000 0.7400 0.7290 0.7230 0.7220 0.7210
8.972034 0.7200 0.7060 0.6890 0.6570 0.6250
9.002000 0.5670 0.5090 0.4880 0.4450 0.4160
9.032034 0.3590 0.3520 0.3160 0.2760 0.2550
9.062000 0.2380 0.2360 0.2350 0.2350 0.2370
9.092034 0.2700 0.3100 0.3440 0.3750 0.3900
9.122000 0.4190 0.4500 0.4820 0.5620 0.5620
9.152034 0.5710 0.5840 0.5870 0.5900 0.5920
9.182000 0.5940 0.5940 0.5850 0.5720 0.5570
9.212034 0.5360 0.5180 0.5020 0.4680 0.4410
9.242000 0.4230 0.3720 0.3310 0.3030 0.2900
9.272034 0.2790 0.2720 0.2680 0.2350 0.2120
9.302000 0.2060 0.1990 0.1710 0.1570 0.1310
9.332034 0.1090 0.0890 0.0810 0.0680 0.0640
9.362000 0.0540 0.0510 0.0500 0.0490 0.0490
9.392034 0.0500 0.0590 0.0770 0.0980 0.1280
9.422000 0.1520 0.1760 0.1900 0.2320 0.2840
9.452034 0.2960 0.3090 0.3680 0.4310 0.4400
9.482000 0.4580 0.4750 0.4930 0.5110 0.5360
9.512034 0.5580 0.5780 0.5840 0.6030 0.6220
9.543000 0.6300 0.6380 0.6480 0.6550 0.6640
9.573034 0.6680 0.6730 0.6780 0.6890 0.6930
9.603000 0.6960 0.7030 0.7070 0.7080 0.7090
9.633034 0.7090 0.7130 0.7120 0.7130 0.7140
9.663000 0.7150 0.7150 0.7160 0.7160 0.7160
9.693034 0.7160 0.7150 0.7150 0.7150 0.7160
9.723000 0.7160 0.7160 0.7150 0.7150 0.7140
9.753034 0.7110 0.7070 0.6970 0.6900 0.6800
9.783000 0.6610 0.6460 0.6330 0.6140 0.5930
9.813034 0.5630 0.5580 0.5270 0.5190 0.5100
9.843000 0.4980 0.4800 0.4700 0.4590 0.4400
9.873034 0.4250 0.4180 0.4140 0.3470 0.3140
9.903000 0.2670 0.2390 0.2100 0.1840 0.1700
9.933034 0.1570 0.1310 0.1090 0.1090 0.1040
9.963000 0.1030 0.1000 0.0980 0.0970 0.0960
9.993034 0.0960 0.0970 0.1180 0.1230 0.1430
10.023000 0.1570 0.1920 0.2780 0.2960 0.3310
10.053034 0.3460 0.3600 0.3760 0.3910 0.4070
10.083000 0.4240 0.4420 0.4430 0.4430 0.4430
10.113034 0.4420 0.4420 0.4420 0.4420 0.4420
10.143000 0.4430 0.4830 0.4870 0.5250 0.5560
10.173034 0.5800 0.5900 0.6120 0.6240 0.6340
10.203000 0.6480 0.6520 0.6580 0.6580 0.6590
10.233034 0.6600 0.6610 0.6590 0.6580 0.6510
10.263000 0.6380 0.6270 0.6180 0.6080 0.5560
10.293034 0.5530 0.5330 0.5120 0.4910 0.4780
10.323000 0.4550 0.4440 0.4360 0.4350 0.4360
10.353034 0.4380 0.4660 0.4890 0.5020 0.5160
10.383000 0.5290 0.5530 0.5760 0.6010 0.6240
10.413034 0.6430 0.6430 0.6640 0.6680 0.6710
10.443000 0.6730 0.6740 0.6750 0.6740 0.6710
10.473034 0.6660 0.6520 0.6360 0.6180 0.5970
10.503000 0.5780 0.5590 0.5440 0.5260 0.5150
10.533034 0.5060 0.5010 0.4990 0.4990 0.5000
10.563000 0.5020 0.5080 0.5110 0.5150 0.5240
10.593034 0.5300 0.5300 0.5290 0.5280 0.5270
10.623000 0.5240 0.5180 0.5170 0.5170 0.5180
10.653034 0.5310 0.5440 0.5620 0.5770 0.5800
10.683000 0.5990 0.6180 0.6600 0.6730 0.6750
10.713034 0.6930 0.6980 0.7020 0.7040 0.7050
10.743000 0.7040 0.7030 0.7010 0.6890 0.6840
10.773034 0.6700 0.6600 0.6460 0.6380 0.6340
10.803000 0.6320 0.6320 0.6330 0.6390 0.6450
10.833034 0.6590 0.6730 0.6850 0.6890 0.7020
10.863000 0.7050 0.7070 0.7140 0.7150 0.7160
10.893034 0.7170 0.7170 0.7180 0.7170 0.7150
10.923000 0.7030 0.6920 0.6760 0.6510 0.6200
10.953034 0.6000 0.5730 0.5640 0.5550 0.5500
10.983000 0.5180 0.5090 0.4880 0.4490 0.4090
11.013034 0.3940 0.3910 0.3930 0.4170 0.4410
11.043000 0.4610 0.4800 0.5210 0.5830 0.6280
11.073034 0.6570 0.6760 0.6860 0.7080 0.7210
11.104000 0.7330 0.7480 0.7520 0.7630 0.7670
11.134034 0.7680 0.7770 0.7840 0.7870 0.7900
11.164000 0.7930 0.7990 0.8000 0.8020 0.8060
11.194034 0.8070 0.8080 0.8080 0.8110 0.8110
11.224000 0.8120 0.8140 0.8140 0.8160 0.8160
11.254034 0.8170 0.8180 0.8190 0.8200 0.8200
11.284000 0.8210 0.8240 0.8260 0.8270 0.8280
11.314034 0.8280 0.8280 0.8280 0.8300 0.8300
11.344000 0.8300 0.8300 0.8300 0.8300 0.8300
11.374034 0.8300 0.8300 0.8300 0.8300 0.8290
11.404000 0.8270 0.8250 0.8210 0.8200 0.8170
11.434034 0.8070 0.8050 0.8000 0.7960 0.7870
11.464000 0.7770 0.7650 0.7600 0.7540 0.7370
11.494034 0.7200 0.7040 0.6930 0.6870 0.6810
11.524000 0.6750 0.6710 0.6700 0.6700 0.6710
11.554034 0.6740 0.6760 0.6810 0.6870 0.6900
11.584000 0.6920 0.6930 0.6940 0.6920 0.6850
11.614034 0.6650 0.6520 0.6420 0.6240 0.6090
11.644000 0.5930 0.5770 0.5740 0.5730 0.5720
11.674034 0.5730 0.5800 0.5970 0.6240 0.6500
11.704000 0.6690 0.6860 0.7070 0.7140 0.7170
11.734034 0.7240 0.7290 0.7320 0.7330 0.7340
11.764000 0.7340 0.7330 0.7310 0.7290 0.7220
11.794034 0.7030 0.6920 0.6770 0.6590 0.6330
11.824000 0.6190 0.6100 0.5870 0.5720 0.5590
11.854034 0.5470 0.5280 0.5190 0.5120 0.5070
11.884000 0.5060 0.5050 0.5070 0.5090 0.5220
11.914034 0.5400 0.5540 0.5810 0.5920 0.6150
11.944000 0.6360 0.6650 0.6780 0.6890 0.6990
11.974034 0.7090 0.7200 0.7310 0.7410 0.7520
12.004000 0.7610 0.7700 0.7770 0.7820 0.7860
12.034034 0.7880 0.7960 0.7970 0.7990 0.8000
12.064000 0.8010 0.8020 0.8040 0.8060 0.8070
12.094034 0.8080 0.8070 0.8080 0.8080 0.8090
12.124000 0.8090 0.8110 0.8110 0.8110 0.8120
12.154034 0.8120 0.8120 0.8140 0.8140 0.8150
12.184000 0.8150 0.8150 0.8150 0.8160 0.8160
12.214034 0.8160 0.8160 0.8160 0.8160 0.8160
12.244000 0.8160 0.8160 0.8160 0.8160 0.8170
12.274034 0.8170 0.8170 0.8170 0.8170 0.8170
12.304000 0.8170 0.8170 0.8170 0.8160 0.8160
12.334034 0.8160 0.8160 0.8160 0.8150 0.8150
12.364000 0.8150 0.8150 0.8150 0.8140 0.8120
12.394034 0.8110 0.8100 0.8100 0.8040 0.7990
12.424000 0.7970 0.7970 0.7980 0.7980 0.7980
12.454034 0.7980 0.7980 0.7970 0.7970 0.7970
12.484000 0.7970 0.7960 0.7950 0.7920 0.7900
12.514034 0.7880 0.7860 0.7840 0.7820 0.7780
12.544000 0.7720 0.7620 0.7590 0.7580 0.7560
12.574034 0.7500 0.7480 0.7450 0.7350 0.7310
12.604000 0.7270 0.7180 0.7090 0.7060 0.6980
12.634034 0.6940 0.6810 0.6750 0.6620 0.6550
12.665000 0.6470 0.6400 0.6360 0.6320 0.6290
12.695034 0.6250 0.6200 0.6190 0.6180 0.6180
12.725000 0.6190 0.6200 0.6220 0.6330 0.6380
12.755034 0.6430 0.6470 0.6560 0.6620 0.6730
12.785000 0.6750 0.6770 0.6930 0.6970 0.7030
12.815034 0.7080 0.7130 0.7160 0.7180 0.7200
12.845000 0.7210 0.7230 0.7250 0.7260 0.7260
12.875034 0.7260 0.7270 0.7270 0.7290 0.7300
12.905000 0.7310 0.7320 0.7330 0.7330 0.7330
12.935034 0.7330 0.7330 0.7330 0.7340 0.7340
12.965000 0.7340 0.7340 0.7340 0.7340 0.7340
12.995034 0.7340 0.7340 0.7340 0.7330 0.7330
13.025000 0.7330 0.7330 0.7340 0.7340 0.7340
13.055034 0.7330 0.7330 0.7330 0.7330 0.7320
13.085000 0.7320 0.7320 0.7310 0.7300 0.7300
13.115034 0.7300 0.7300 0.7300 0.7300 0.7300
13.145000 0.7300 0.7300 0.7270 0.7270 0.7260
13.175034 0.7260 0.7260 0.7250 0.7240 0.7220
13.205000 0.7210 0.7200 0.7170 0.7160 0.7150
13.235034 0.7140 0.7120 0.7090 0.7080 0.7080
13.265000 0.7080 0.7080 0.7070 0.7070 0.7070
13.295034 0.7060 0.7060 0.7050 0.7050 0.7040
13.325000 0.7050 0.7040 0.7040 0.7040 0.7030
13.355034 0.7020 0.6990 0.6990 0.6980 0.6970
13.385000 0.6970 0.6940 0.6930 0.6900 0.6890
13.415034 0.6880 0.6880 0.6870 0.6860 0.6840
13.445000 0.6810 0.6800 0.6790 0.6780 0.6770
13.475034 0.6750 0.6740 0.6730 0.6710 0.6710
13.505000 0.6700 0.6690 0.6680 0.6670 0.6660
13.535034 0.6650 0.6640 0.6620 0.6610 0.6600
13.565000 0.6590 0.6580 0.6560 0.6550 0.6520
13.595034 0.6510 0.6500 0.6470 0.6450 0.6430
13.625000 0.6420 0.6390 0.6380 0.6360 0.6320
13.655034 0.6310 0.6290 0.6280 0.6240 0.6220
13.685000 0.6170 0.6120 0.6090 0.6050 0.6030
13.715034 0.6020 0.6000 0.5960 0.5950 0.5930
13.745000 0.5900 0.5850 0.5810 0.5770 0.5760
13.775034 0.5750 0.5750 0.5750 0.5740 0.5740
13.805000 0.5730 0.5730 0.5720 0.5720 0.5720
13.835034 0.5720 0.5720 0.5720 0.5720 0.5730
13.865000 0.5730 0.5730 0.5740 0.5750 0.5750
13.895034 0.5760 0.5770 0.5800 0.5800 0.5820
13.925000 0.5820 0.5850 0.5860 0.5860 0.5870
13.955034 0.5890 0.5910 0.5920 0.5930 0.5930
13.985000 0.5940 0.5950 0.5960 0.5960 0.5970
14.015034 0.5990 0.5990 0.5990 0.5990 0.6000
14.045000 0.6000 0.6000 0.6010 0.6010 0.6010
14.075034 0.6010 0.6010 0.6010 0.6010 0.6010
14.105000 0.6010 0.6000 0.6000 0.6000 0.6000
14.135034 0.6000 0.6000 0.6000 0.6000 0.6000
14.165000 0.6000 0.6000 0.6000 0.6000 0.6000
14.195034 0.6000 0.6000 0.6000 0.6000 0.6000
14.226000 0.6000 0.6000 0.5990 0.5990 0.5970
14.256034 0.5970 0.5950 0.5950 0.5940 0.5930
14.286000 0.5920 0.5910 0.5900 0.5870 0.5860
14.316034 0.5830 0.5830 0.5830 0.5800 0.5800
14.346000 0.5780 0.5780 0.5770 0.5760 0.5750
14.376034 0.5750 0.5740 0.5740 0.5740 0.5740
14.406000 0.5730 0.5730 0.5720 0.5710 0.5690
14.436034 0.5690 0.5680 0.5680 0.5670 0.5670
14.466000 0.5660 0.5660 0.5650 0.5650 0.5650
14.496034 0.5640 0.5620 0.5620 0.5610 0.5590
14.526000 0.5590 0.5590 0.5590 0.5580 0.5560
14.556034 0.5550 0.5520 0.5500 0.5500 0.5500
14.586000 0.5500 0.5490 0.5490 0.5480 0.5470
14.616034 0.5470 0.5470 0.5460 0.5450 0.5440
14.646000 0.5430 0.5400 0.5400 0.5390 0.5380
14.676034 0.5370 0.5360 0.5360 0.5360 0.5360
14.706000 0.5350 0.5350 0.5350 0.5340 0.5330
14.736034 0.5330 0.5310 0.5310 0.5300 0.5300
14.766000 0.5290 0.5250 0.5210 0.5210 0.5210
14.796034 0.5210 0.5200 0.5200 0.5190 0.5180
14.826000 0.5170 0.5150 0.5100 0.5020 0.4840
14.856034 0.4490 0.4650 0.4660 0.4700 0.4720
14.886000 0.4730 0.4780 0.4790 0.4800 0.4810
14.916034 0.4810 0.4820 0.4820 0.4820 0.4830
14.946000 0.4830 0.4840 0.4840 0.4860 0.4840
14.976034 0.4840 0.4840 0.4840 0.4840 0.4830
15.006000 0.4830
##END=
