##TITLE=METHANAMINE, N-METHYL-
##JCAMP-DX=4.24
##DATA TYPE=INFRARED SPECTRUM
##CLASS=COBLENTZ
##ORIGIN=DOW CHEMICAL COMPANY
##OWNER=COBLENTZ SOCIETY
Collection (C) 2018 copyright by the U.S. Secretary of Commerce
on behalf of the United States of America. All rights reserved.
##DATE=1978/04/11
##NAMES=N-methylmethanamine
N,N-dimethylamine
DIMETHYL AMINE
##CAS REGISTRY NO=124-40-3
##MOLFORM=C2 H7 N
##SOURCE REFERENCE=COBLENTZ NO. 10486
##$NIST SOURCE=COBLENTZ
##$NIST IMAGE=cob-r10486
##SPECTROMETER/DATA SYSTEM=BECKMAN IR-9 (GRATING)
##INSTRUMENT PARAMETERS=ORDER CHANGES: 670, 1200, 2000 CM^-^1
##STATE=GAS (16 mmHg, N2 ADDED, TOTAL PRESSURE 600 mmHg)
##PATH LENGTH=10 CM CELL
##SAMPLING PROCEDURE=TRANSMISSION
##RESOLUTION=2
##DATA PROCESSING=DIGITIZED BY NIST FROM HARD COPY (FROM TWO SEGMENTS)
##XUNITS=1/CM
##YUNITS=TRANSMITTANCE
##XFACTOR=1.000000
##YFACTOR=1
##DELTAX=1.411514
##FIRSTX=200.326
##LASTX=3994.48
##FIRSTY=0.011
##MAXX=3994.48
##MINX=200.326
##MAXY=0.969
##MINY=0.009
##NPOINTS=2689
##XYDATA=(X++(Y..Y))
200.326000 0.0110 0.0110 0.0110 0.0110 0.0110
207.383569 0.0110 0.0110 0.0110 0.0110 0.0110
214.441138 0.0110 0.0110 0.0110 0.0110 0.0110
221.498707 0.0110 0.0110 0.0110 0.0110 0.0110
228.556276 0.0110 0.0110 0.0110 0.0110 0.0110
235.613845 0.0110 0.0110 0.0110 0.0110 0.0110
242.671414 0.0110 0.0110 0.0110 0.0090 0.0090
249.728983 0.0090 0.0110 0.0110 0.0110 0.0110
256.786552 0.0110 0.0110 0.0110 0.0110 0.0110
263.844121 0.0110 0.0110 0.0110 0.0110 0.0110
270.901690 0.0110 0.0110 0.0110 0.0110 0.0110
277.959259 0.0130 0.0160 0.0160 0.0180 0.0180
285.016828 0.0200 0.0160 0.0110 0.0110 0.0110
292.074397 0.0130 0.0130 0.0130 0.0130 0.0150
299.131966 0.0160 0.0160 0.0180 0.0180 0.0200
306.189534 0.0200 0.0220 0.0280 0.0300 0.0310
313.247103 0.0330 0.0350 0.0350 0.0370 0.0390
320.304672 0.0410 0.0430 0.0460 0.0480 0.0480
327.362241 0.0500 0.0580 0.0650 0.0670 0.0710
334.419810 0.0750 0.0780 0.0879 0.0969 0.1049
341.477379 0.1070 0.1160 0.1240 0.1350 0.1420
348.534948 0.1460 0.1649 0.1710 0.1780 0.1869
355.592517 0.1990 0.2060 0.2120 0.2270 0.2380
362.650086 0.2480 0.2530 0.2610 0.2660 0.2799
369.707655 0.2960 0.2980 0.3000 0.3100 0.3190
376.765224 0.3300 0.3380 0.3489 0.3599 0.3679
383.822793 0.3740 0.3850 0.3940 0.4000 0.4130
390.880362 0.4280 0.4370 0.4450 0.4490 0.4560
397.937931 0.4620 0.4790 0.4940 0.5050 0.5110
404.995500 0.5180 0.5280 0.5389 0.5499 0.5629
412.053069 0.5710 0.5800 0.5900 0.6030 0.6090
419.110638 0.6240 0.6419 0.6500 0.6570 0.6610
426.168207 0.6690 0.6760 0.6870 0.6990 0.7010
433.225776 0.7080 0.7180 0.7210 0.7290 0.7379
440.283345 0.7500 0.7510 0.7570 0.7610 0.7660
447.340914 0.7720 0.7760 0.7870 0.7890 0.7930
454.398483 0.7980 0.8000 0.8060 0.8100 0.8170
461.456052 0.8170 0.8210 0.8250 0.8280 0.8320
468.513621 0.8360 0.8420 0.8470 0.8470 0.8510
475.571190 0.8510 0.8530 0.8550 0.8590 0.8620
482.628759 0.8640 0.8680 0.8700 0.8720 0.8740
489.686328 0.8770 0.8770 0.8750 0.8740 0.8740
496.743897 0.8740 0.8740 0.8750 0.8770 0.8790
503.801465 0.8830 0.8870 0.8900 0.8999 0.9000
510.859034 0.9070 0.9110 0.9130 0.9170 0.9210
517.916603 0.9210 0.9210 0.9210 0.9210 0.9190
524.974172 0.9150 0.9130 0.9110 0.9090 0.9090
532.031741 0.9090 0.9090 0.9090 0.9090 0.9110
539.089310 0.9110 0.9130 0.9150 0.9170 0.9190
546.146879 0.9220 0.9240 0.9300 0.9300 0.9320
553.204448 0.9320 0.9320 0.9320 0.9300 0.9280
560.262017 0.9280 0.9260 0.9240 0.9220 0.9210
567.319586 0.9190 0.9150 0.9130 0.9130 0.9130
574.377155 0.9130 0.9130 0.9130 0.9130 0.9130
581.434724 0.9150 0.9170 0.9170 0.9190 0.9190
588.492293 0.9210 0.9210 0.9210 0.9210 0.9210
595.549862 0.9210 0.9210 0.9190 0.9170 0.9150
602.607431 0.9130 0.9130 0.9130 0.9110 0.9070
609.665000 0.9040 0.9020 0.9020 0.9020 0.9000
616.722569 0.8980 0.8960 0.8940 0.8920 0.8900
623.780138 0.8890 0.8890 0.8870 0.8870 0.8870
630.837707 0.8870 0.8850 0.8850 0.8830 0.8830
637.895276 0.8830 0.8810 0.8810 0.8790 0.8790
644.952845 0.8750 0.8740 0.8720 0.8700 0.8680
652.010414 0.8660 0.8640 0.8640 0.8680 0.8600
659.067983 0.8510 0.8490 0.8400 0.8320 0.8231
666.125552 0.8190 0.8130 0.8020 0.7890 0.7740
673.183121 0.7680 0.7610 0.7530 0.7421 0.7360
680.240690 0.7140 0.7010 0.6820 0.6710 0.6570
687.298259 0.6400 0.6330 0.6101 0.5921 0.5751
694.355828 0.5600 0.5410 0.5370 0.5130 0.4920
701.413396 0.4711 0.4531 0.4361 0.4241 0.4001
708.470965 0.3940 0.3810 0.3620 0.3490 0.3360
715.528534 0.3230 0.3150 0.3080 0.2891 0.2801
722.586103 0.2740 0.2660 0.2610 0.2610 0.2610
729.643672 0.2610 0.2630 0.2650 0.2660 0.2660
736.701241 0.2680 0.2680 0.2700 0.2960 0.2960
743.758810 0.2870 0.2800 0.2740 0.2740 0.2830
750.816379 0.2950 0.3040 0.3120 0.3230 0.3320
757.873948 0.3450 0.3590 0.3700 0.3939 0.4129
764.931517 0.4340 0.4530 0.4690 0.4900 0.5090
771.989086 0.5300 0.5499 0.5769 0.5969 0.6030
779.046655 0.6200 0.6350 0.6520 0.6670 0.6890
786.104224 0.7010 0.7249 0.7399 0.7510 0.7699
793.161793 0.7800 0.8000 0.8100 0.8190 0.8270
800.219362 0.8400 0.8549 0.8749 0.8790 0.8899
807.276931 0.8920 0.9000 0.9040 0.9110 0.9210
814.334500 0.9240 0.9280 0.9320 0.9340 0.9390
821.392069 0.9410 0.9490 0.9510 0.9530 0.9530
828.449638 0.9530 0.9560 0.9560 0.9580 0.9620
835.507207 0.9640 0.9660 0.9660 0.9680 0.9680
842.564776 0.9690 0.9690 0.9690 0.9690 0.9680
849.622345 0.9680 0.9680 0.9660 0.9660 0.9660
856.679914 0.9660 0.9640 0.9640 0.9640 0.9620
863.737483 0.9620 0.9620 0.9600 0.9580 0.9540
870.795052 0.9540 0.9530 0.9530 0.9530 0.9530
877.852621 0.9530 0.9530 0.9510 0.9490 0.9490
884.910190 0.9450 0.9430 0.9430 0.9390 0.9370
891.967759 0.9340 0.9320 0.9300 0.9280 0.9260
899.025327 0.9240 0.9240 0.9190 0.9130 0.9110
906.082896 0.9090 0.9060 0.9020 0.9000 0.9000
913.140465 0.8920 0.8900 0.8890 0.8850 0.8830
920.198034 0.8830 0.8830 0.8830 0.8850 0.8890
927.255603 0.8920 0.8940 0.8980 0.9000 0.9000
934.313172 0.8870 0.8810 0.8790 0.8770 0.8770
941.370741 0.8790 0.8810 0.8830 0.8870 0.8900
948.428310 0.8940 0.8980 0.9000 0.9000 0.9110
955.485879 0.9110 0.9150 0.9210 0.9220 0.9240
962.543448 0.9260 0.9260 0.9240 0.9240 0.9240
969.601017 0.9240 0.9240 0.9280 0.9409 0.9490
976.658586 0.9490 0.9510 0.9530 0.9530 0.9540
983.716155 0.9540 0.9540 0.9530 0.9530 0.9510
990.773724 0.9490 0.9390 0.9340 0.9280 0.9220
997.831293 0.9210 0.9060 0.8960 0.8900 0.8721
1004.888862 0.8570 0.8510 0.8400 0.8230 0.8080
1011.946431 0.8020 0.8000 0.8020 0.8020 0.8060
1019.004000 0.8080 0.8060 0.8000 0.7800 0.7650
1026.061569 0.7650 0.7780 0.7979 0.8100 0.8170
1033.119138 0.8170 0.8080 0.8000 0.7890 0.7850
1040.176707 0.7810 0.7810 0.7830 0.7870 0.7890
1047.234276 0.8000 0.8060 0.8210 0.8400 0.8620
1054.291845 0.8720 0.8790 0.8900 0.9000 0.9090
1061.349414 0.9190 0.9240 0.9260 0.9300 0.9300
1068.406983 0.9300 0.9280 0.9280 0.9280 0.9260
1075.464552 0.9220 0.9220 0.9210 0.9190 0.9190
1082.522121 0.9190 0.9210 0.9210 0.9220 0.9240
1089.579690 0.9280 0.9300 0.9320 0.9320 0.9320
1096.637258 0.9300 0.9280 0.9260 0.9240 0.9210
1103.694827 0.9170 0.9150 0.9110 0.9110 0.9070
1110.752396 0.9020 0.8960 0.8900 0.8810 0.8720
1117.809965 0.8660 0.8590 0.8420 0.8270 0.8080
1124.867534 0.8000 0.7830 0.7651 0.7511 0.7231
1131.925103 0.6969 0.6740 0.6480 0.6220 0.6010
1138.982672 0.5920 0.5671 0.5411 0.5032 0.4901
1146.040241 0.4709 0.4320 0.4320 0.4680 0.4710
1153.097810 0.4710 0.4600 0.4450 0.4261 0.4071
1160.155379 0.3810 0.3891 0.4640 0.4920 0.4920
1167.212948 0.4710 0.4391 0.4191 0.4190 0.4220
1174.270517 0.4321 0.4560 0.4840 0.5110 0.5460
1181.328086 0.6069 0.6649 0.7029 0.7419 0.7739
1188.385655 0.8121 0.8430 0.8660 0.8890 0.8940
1195.443224 0.9000 0.9020 0.9070 0.9090 0.9150
1202.500793 0.9190 0.9220 0.9220 0.9240 0.9280
1209.558362 0.9300 0.9320 0.9340 0.9340 0.9340
1216.615931 0.9340 0.9340 0.9360 0.9390 0.9390
1223.673500 0.9410 0.9430 0.9430 0.9430 0.9450
1230.731069 0.9490 0.9490 0.9490 0.9510 0.9510
1237.788638 0.9510 0.9530 0.9530 0.9530 0.9530
1244.846207 0.9530 0.9530 0.9530 0.9540 0.9560
1251.903776 0.9580 0.9580 0.9580 0.9580 0.9580
1258.961345 0.9580 0.9580 0.9580 0.9580 0.9580
1266.018914 0.9580 0.9580 0.9580 0.9580 0.9580
1273.076483 0.9580 0.9580 0.9580 0.9580 0.9580
1280.134052 0.9580 0.9580 0.9580 0.9580 0.9580
1287.191621 0.9580 0.9580 0.9580 0.9580 0.9580
1294.249189 0.9580 0.9580 0.9580 0.9580 0.9580
1301.306758 0.9580 0.9540 0.9530 0.9530 0.9530
1308.364327 0.9530 0.9530 0.9540 0.9540 0.9540
1315.421896 0.9540 0.9530 0.9530 0.9530 0.9530
1322.479465 0.9530 0.9530 0.9530 0.9530 0.9510
1329.537034 0.9510 0.9510 0.9510 0.9510 0.9490
1336.594603 0.9490 0.9490 0.9490 0.9490 0.9470
1343.652172 0.9430 0.9430 0.9430 0.9410 0.9390
1350.709741 0.9360 0.9320 0.9320 0.9300 0.9300
1357.767310 0.9240 0.9220 0.9210 0.9190 0.9190
1364.824879 0.9170 0.9150 0.9150 0.9130 0.9130
1371.882448 0.9130 0.9130 0.9130 0.9110 0.9090
1378.940017 0.9090 0.9060 0.9020 0.8980 0.8920
1385.997586 0.8900 0.8850 0.8850 0.8830 0.8830
1393.055155 0.8830 0.8830 0.8830 0.8810 0.8810
1400.112724 0.8810 0.8810 0.8790 0.8770 0.8750
1407.170293 0.8750 0.8740 0.8720 0.8700 0.8680
1414.227862 0.8620 0.8600 0.8530 0.8510 0.8490
1421.285431 0.8420 0.8340 0.8230 0.8120 0.8020
1428.343000 0.7930 0.7850 0.7740 0.7700 0.7610
1435.400569 0.7570 0.7530 0.7510 0.7510 0.7440
1442.458138 0.7309 0.7059 0.6820 0.6610 0.6570
1449.515707 0.6570 0.6690 0.6690 0.6331 0.6101
1456.573276 0.5920 0.5800 0.5780 0.5780 0.5750
1463.630845 0.5710 0.5620 0.5391 0.5031 0.4791
1470.688414 0.4791 0.4980 0.5070 0.5350 0.5600
1477.745983 0.5730 0.5880 0.5970 0.6100 0.6220
1484.803552 0.6290 0.6290 0.6250 0.6240 0.6250
1491.861120 0.6440 0.6630 0.6780 0.6820 0.6870
1498.918689 0.6910 0.6970 0.7010 0.7100 0.7250
1505.976258 0.7310 0.7400 0.7550 0.7700 0.7830
1513.033827 0.8060 0.8150 0.8250 0.8300 0.8470
1520.091396 0.8570 0.8700 0.8830 0.8870 0.8900
1527.148965 0.8940 0.9000 0.9020 0.9060 0.9130
1534.206534 0.9150 0.9210 0.9220 0.9260 0.9280
1541.264103 0.9280 0.9280 0.9300 0.9300 0.9300
1548.321672 0.9300 0.9300 0.9320 0.9340 0.9340
1555.379241 0.9360 0.9390 0.9390 0.9410 0.9430
1562.436810 0.9430 0.9410 0.9410 0.9430 0.9430
1569.494379 0.9430 0.9470 0.9470 0.9470 0.9450
1576.551948 0.9450 0.9450 0.9430 0.9410 0.9410
1583.609517 0.9410 0.9410 0.9410 0.9410 0.9410
1590.667086 0.9410 0.9410 0.9410 0.9410 0.9410
1597.724655 0.9410 0.9410 0.9410 0.9410 0.9410
1604.782224 0.9410 0.9410 0.9390 0.9390 0.9390
1611.839793 0.9370 0.9370 0.9370 0.9370 0.9360
1618.897362 0.9340 0.9340 0.9320 0.9320 0.9320
1625.954931 0.9320 0.9320 0.9320 0.9320 0.9320
1633.012500 0.9340 0.9340 0.9340 0.9340 0.9340
1640.070069 0.9320 0.9300 0.9280 0.9300 0.9300
1647.127638 0.9320 0.9320 0.9320 0.9340 0.9390
1654.185207 0.9390 0.9410 0.9430 0.9430 0.9340
1661.242776 0.9320 0.9320 0.9320 0.9340 0.9340
1668.300345 0.9340 0.9340 0.9340 0.9390 0.9390
1675.357914 0.9390 0.9390 0.9390 0.9390 0.9410
1682.415483 0.9410 0.9430 0.9450 0.9450 0.9450
1689.473051 0.9430 0.9430 0.9450 0.9450 0.9450
1696.530620 0.9510 0.9530 0.9530 0.9530 0.9530
1703.588189 0.9510 0.9510 0.9490 0.9490 0.9510
1710.645758 0.9510 0.9510 0.9530 0.9530 0.9530
1717.703327 0.9510 0.9510 0.9510 0.9510 0.9510
1724.760896 0.9510 0.9510 0.9510 0.9540 0.9560
1731.818465 0.9580 0.9600 0.9600 0.9580 0.9560
1738.876034 0.9540 0.9530 0.9540 0.9560 0.9580
1745.933603 0.9600 0.9600 0.9600 0.9620 0.9640
1752.991172 0.9640 0.9640 0.9640 0.9620 0.9620
1760.048741 0.9620 0.9620 0.9620 0.9620 0.9600
1767.106310 0.9600 0.9640 0.9640 0.9620 0.9620
1774.163879 0.9620 0.9600 0.9600 0.9580 0.9580
1781.221448 0.9580 0.9580 0.9580 0.9580 0.9600
1788.279017 0.9600 0.9600 0.9600 0.9580 0.9580
1795.336586 0.9560 0.9540 0.9540 0.9540 0.9540
1802.394155 0.9540 0.9540 0.9530 0.9530 0.9530
1809.451724 0.9530 0.9530 0.9530 0.9530 0.9530
1816.509293 0.9530 0.9530 0.9540 0.9540 0.9560
1823.566862 0.9560 0.9560 0.9560 0.9560 0.9560
1830.624431 0.9540 0.9530 0.9530 0.9530 0.9530
1837.682000 0.9530 0.9530 0.9530 0.9530 0.9530
1844.739569 0.9540 0.9540 0.9530 0.9530 0.9510
1851.797138 0.9510 0.9510 0.9510 0.9490 0.9490
1858.854707 0.9490 0.9490 0.9490 0.9490 0.9490
1865.912276 0.9470 0.9470 0.9450 0.9430 0.9430
1872.969845 0.9410 0.9390 0.9390 0.9370 0.9370
1880.027414 0.9360 0.9340 0.9340 0.9340 0.9340
1887.084982 0.9340 0.9360 0.9360 0.9360 0.9360
1894.142551 0.9370 0.9390 0.9390 0.9390 0.9390
1901.200120 0.9390 0.9390 0.9390 0.9390 0.9390
1908.257689 0.9390 0.9410 0.9410 0.9410 0.9430
1915.315258 0.9450 0.9470 0.9490 0.9510 0.9530
1922.372827 0.9530 0.9530 0.9530 0.9540 0.9540
1929.430396 0.9540 0.9540 0.9560 0.9560 0.9560
1936.487965 0.9580 0.9580 0.9580 0.9580 0.9580
1943.545534 0.9580 0.9580 0.9580 0.9580 0.9560
1950.603103 0.9560 0.9540 0.9540 0.9540 0.9540
1957.660672 0.9540 0.9540 0.9540 0.9560 0.9560
1964.718241 0.9560 0.9560 0.9540 0.9540 0.9530
1971.775810 0.9530 0.9530 0.9530 0.9530 0.9530
1978.833379 0.9530 0.9510 0.9510 0.9510 0.9510
1985.890948 0.9510 0.9510 0.9490 0.9490 0.9470
1992.948517 0.9430 0.9430 0.9430 0.9430 0.9450
2000.006086 0.9490 0.9515 0.9540 0.9550 0.9560
2007.063655 0.9571 0.9581 0.9602 0.9620 0.9620
2014.121224 0.9620 0.9620 0.9620 0.9620 0.9619
2021.178793 0.9608 0.9598 0.9588 0.9580 0.9580
2028.236362 0.9580 0.9580 0.9580 0.9580 0.9580
2035.293931 0.9580 0.9577 0.9567 0.9557 0.9547
2042.351500 0.9535 0.9520 0.9510 0.9510 0.9506
2049.409069 0.9496 0.9490 0.9490 0.9482 0.9461
2056.466638 0.9445 0.9435 0.9425 0.9415 0.9405
2063.524207 0.9395 0.9390 0.9390 0.9376 0.9351
2070.581776 0.9334 0.9324 0.9314 0.9304 0.9300
2077.639345 0.9300 0.9294 0.9284 0.9280 0.9280
2084.696913 0.9287 0.9297 0.9300 0.9300 0.9315
2091.754482 0.9335 0.9348 0.9358 0.9364 0.9369
2098.812051 0.9378 0.9388 0.9390 0.9390 0.9415
2105.869620 0.9446 0.9459 0.9469 0.9479 0.9489
2112.927189 0.9499 0.9509 0.9520 0.9530 0.9530
2119.984758 0.9530 0.9535 0.9540 0.9550 0.9560
2127.042327 0.9560 0.9560 0.9560 0.9560 0.9560
2134.099896 0.9560 0.9560 0.9560 0.9560 0.9560
2141.157465 0.9560 0.9560 0.9560 0.9560 0.9560
2148.215034 0.9560 0.9560 0.9560 0.9560 0.9560
2155.272603 0.9560 0.9560 0.9560 0.9557 0.9547
2162.330172 0.9540 0.9540 0.9540 0.9540 0.9540
2169.387741 0.9540 0.9540 0.9540 0.9540 0.9540
2176.445310 0.9540 0.9540 0.9540 0.9540 0.9540
2183.502879 0.9540 0.9540 0.9540 0.9540 0.9540
2190.560448 0.9540 0.9540 0.9540 0.9540 0.9540
2197.618017 0.9540 0.9540 0.9540 0.9540 0.9540
2204.675586 0.9540 0.9540 0.9540 0.9540 0.9540
2211.733155 0.9540 0.9540 0.9540 0.9540 0.9540
2218.790724 0.9540 0.9540 0.9540 0.9540 0.9540
2225.848293 0.9540 0.9540 0.9540 0.9540 0.9540
2232.905862 0.9540 0.9540 0.9540 0.9540 0.9540
2239.963431 0.9540 0.9540 0.9540 0.9540 0.9540
2247.021000 0.9540 0.9540 0.9540 0.9540 0.9540
2254.078569 0.9540 0.9540 0.9540 0.9540 0.9540
2261.136138 0.9540 0.9539 0.9534 0.9530 0.9530
2268.193707 0.9530 0.9530 0.9530 0.9530 0.9530
2275.251276 0.9530 0.9530 0.9530 0.9530 0.9530
2282.308844 0.9530 0.9530 0.9530 0.9530 0.9530
2289.366413 0.9530 0.9530 0.9530 0.9530 0.9530
2296.423982 0.9530 0.9530 0.9530 0.9530 0.9532
2303.481551 0.9537 0.9540 0.9540 0.9540 0.9540
2310.539120 0.9540 0.9540 0.9546 0.9556 0.9560
2317.596689 0.9560 0.9572 0.9592 0.9600 0.9600
2324.654258 0.9600 0.9600 0.9607 0.9617 0.9620
2331.711827 0.9620 0.9620 0.9620 0.9620 0.9620
2338.769396 0.9620 0.9620 0.9620 0.9620 0.9620
2345.826965 0.9620 0.9620 0.9620 0.9620 0.9620
2352.884534 0.9620 0.9620 0.9620 0.9620 0.9611
2359.942103 0.9601 0.9590 0.9580 0.9580 0.9580
2366.999672 0.9560 0.9540 0.9540 0.9540 0.9535
2374.057241 0.9529 0.9519 0.9510 0.9510 0.9509
2381.114810 0.9499 0.9490 0.9490 0.9484 0.9444
2388.172379 0.9408 0.9398 0.9390 0.9390 0.9390
2395.229948 0.9390 0.9390 0.9390 0.9390 0.9390
2402.287517 0.9390 0.9390 0.9390 0.9390 0.9390
2409.345086 0.9390 0.9394 0.9404 0.9410 0.9410
2416.402655 0.9410 0.9410 0.9410 0.9410 0.9410
2423.460224 0.9410 0.9410 0.9410 0.9410 0.9410
2430.517793 0.9410 0.9410 0.9410 0.9410 0.9410
2437.575362 0.9410 0.9416 0.9426 0.9430 0.9430
2444.632931 0.9436 0.9447 0.9457 0.9467 0.9470
2451.690500 0.9470 0.9470 0.9470 0.9470 0.9470
2458.748069 0.9470 0.9470 0.9462 0.9452 0.9442
2465.805638 0.9432 0.9422 0.9412 0.9410 0.9410
2472.863207 0.9401 0.9391 0.9390 0.9390 0.9381
2479.920775 0.9371 0.9365 0.9360 0.9350 0.9340
2486.978344 0.9340 0.9340 0.9330 0.9320 0.9320
2494.035913 0.9320 0.9320 0.9320 0.9320 0.9321
2501.093482 0.9331 0.9340 0.9340 0.9339 0.9328
2508.151051 0.9320 0.9320 0.9318 0.9308 0.9298
2515.208620 0.9288 0.9280 0.9280 0.9280 0.9280
2522.266189 0.9283 0.9293 0.9300 0.9300 0.9303
2529.323758 0.9313 0.9320 0.9320 0.9324 0.9334
2536.381327 0.9344 0.9354 0.9360 0.9360 0.9351
2543.438896 0.9331 0.9320 0.9320 0.9320 0.9320
2550.496465 0.9320 0.9320 0.9320 0.9320 0.9314
2557.554034 0.9304 0.9300 0.9300 0.9300 0.9300
2564.611603 0.9300 0.9300 0.9293 0.9283 0.9280
2571.669172 0.9280 0.9273 0.9263 0.9253 0.9243
2578.726741 0.9240 0.9240 0.9240 0.9240 0.9232
2585.784310 0.9222 0.9220 0.9220 0.9220 0.9220
2592.841879 0.9220 0.9220 0.9220 0.9220 0.9220
2599.899448 0.9220 0.9215 0.9210 0.9210 0.9210
2606.957017 0.9200 0.9190 0.9190 0.9190 0.9190
2614.014586 0.9190 0.9190 0.9190 0.9190 0.9190
2621.072155 0.9190 0.9191 0.9201 0.9210 0.9210
2628.129724 0.9211 0.9216 0.9220 0.9220 0.9219
2635.187293 0.9214 0.9210 0.9210 0.9208 0.9197
2642.244862 0.9190 0.9190 0.9190 0.9190 0.9187
2649.302431 0.9177 0.9163 0.9143 0.9126 0.9116
2656.360000 0.9110 0.9110 0.9096 0.9061 0.9032
2663.417569 0.9011 0.9000 0.9000 0.8991 0.8970
2670.475138 0.8955 0.8945 0.8940 0.8940 0.8935
2677.532706 0.8924 0.8914 0.8904 0.8891 0.8876
2684.590275 0.8858 0.8838 0.8824 0.8814 0.8810
2691.647844 0.8810 0.8803 0.8793 0.8790 0.8790
2698.705413 0.8790 0.8790 0.8782 0.8772 0.8762
2705.762982 0.8752 0.8746 0.8741 0.8732 0.8722
2712.820551 0.8712 0.8701 0.8691 0.8681 0.8662
2719.878120 0.8642 0.8617 0.8592 0.8562 0.8531
2726.935689 0.8511 0.8490 0.8455 0.8420 0.8380
2733.993258 0.8339 0.8309 0.8279 0.8264 0.8243
2741.050827 0.8127 0.8011 0.7900 0.7792 0.7717
2748.108396 0.7638 0.7542 0.7445 0.7337 0.7227
2755.165965 0.7106 0.6997 0.6937 0.6832 0.6580
2762.223534 0.6328 0.6081 0.5798 0.5419 0.5092
2769.281103 0.4889 0.4680 0.4452 0.4200 0.3897
2776.338672 0.3557 0.3148 0.2772 0.2455 0.2253
2783.396241 0.2213 0.2188 0.2183 0.2166 0.2136
2790.453810 0.2060 0.1933 0.1847 0.1802 0.1764
2797.511379 0.1734 0.1701 0.1666 0.1585 0.1469
2804.568948 0.1405 0.1380 0.1370 0.1370 0.1393
2811.626517 0.1428 0.1504 0.1600 0.1682 0.1758
2818.684086 0.1923 0.2125 0.2323 0.2520 0.2570
2825.741655 0.2570 0.2496 0.2400 0.2372 0.2362
2832.799224 0.2360 0.2360 0.2368 0.2379 0.2415
2839.856793 0.2456 0.2519 0.2584 0.2692 0.2803
2846.914362 0.2810 0.2810 0.2660 0.2504 0.2470
2853.971931 0.2440 0.2440 0.2440 0.2461 0.2484
2861.029500 0.2595 0.2706 0.2803 0.2894 0.2929
2868.087069 0.2965 0.3005 0.3054 0.3150 0.3233
2875.144637 0.3254 0.3266 0.3246 0.3224 0.3193
2882.202206 0.3189 0.3275 0.3347 0.3378 0.3397
2889.259775 0.3387 0.3377 0.3367 0.3360 0.3360
2896.317344 0.3346 0.3305 0.3263 0.3218 0.3142
2903.374913 0.3021 0.2929 0.2879 0.2850 0.2850
2910.432482 0.2859 0.2879 0.2912 0.2957 0.3005
2917.490051 0.3056 0.3104 0.3150 0.3235 0.3352
2924.547620 0.3394 0.3384 0.3356 0.3315 0.3259
2931.605189 0.3193 0.3092 0.2971 0.2880 0.2804
2938.662758 0.2676 0.2525 0.2412 0.2316 0.2268
2945.720327 0.2238 0.2196 0.2150 0.2096 0.2040
2952.777896 0.1989 0.1938 0.1922 0.1911 0.1854
2959.835465 0.1788 0.1687 0.1581 0.1489 0.1398
2966.893034 0.1395 0.1400 0.1490 0.1585 0.1691
2973.950603 0.1797 0.1960 0.2122 0.2197 0.2276
2981.008172 0.2417 0.2558 0.2684 0.2805 0.2871
2988.065741 0.2933 0.2958 0.2986 0.3037 0.3086
2995.123310 0.3132 0.3238 0.3657 0.4055 0.4358
3002.180879 0.4651 0.4902 0.5142 0.5349 0.5561
3009.238448 0.5789 0.6031 0.6308 0.6571 0.6798
3016.296017 0.7013 0.7205 0.7388 0.7555 0.7711
3023.353586 0.7847 0.7969 0.8071 0.8169 0.8265
3030.411155 0.8349 0.8415 0.8474 0.8525 0.8568
3037.468724 0.8603 0.8651 0.8712 0.8759 0.8794
3044.526293 0.8833 0.8873 0.8893 0.8898 0.8912
3051.583862 0.8932 0.8946 0.8956 0.8966 0.8977
3058.641431 0.8980 0.8980 0.8994 0.9015 0.9020
3065.699000 0.9020 0.9028 0.9038 0.9040 0.9040
3072.756568 0.9048 0.9058 0.9060 0.9060 0.9052
3079.814137 0.9042 0.9031 0.9021 0.9020 0.9020
3086.871706 0.9020 0.9020 0.9020 0.9020 0.9020
3093.929275 0.9020 0.9020 0.9020 0.9020 0.9020
3100.986844 0.9020 0.9020 0.9010 0.9000 0.9000
3108.044413 0.9000 0.9000 0.8999 0.8989 0.8979
3115.101982 0.8969 0.8960 0.8960 0.8962 0.8972
3122.159551 0.8980 0.8980 0.8982 0.8992 0.9002
3129.217120 0.9013 0.9020 0.9020 0.9017 0.9007
3136.274689 0.9000 0.9000 0.9000 0.9000 0.9000
3143.332258 0.9000 0.9000 0.9000 0.9000 0.9000
3150.389827 0.9000 0.9000 0.8995 0.8985 0.8980
3157.447396 0.8980 0.8975 0.8965 0.8955 0.8945
3164.504965 0.8935 0.8924 0.8920 0.8920 0.8920
3171.562534 0.8920 0.8920 0.8920 0.8920 0.8920
3178.620103 0.8920 0.8920 0.8920 0.8920 0.8927
3185.677672 0.8937 0.8940 0.8940 0.8940 0.8940
3192.735241 0.8940 0.8940 0.8940 0.8940 0.8948
3199.792810 0.8959 0.8960 0.8960 0.8960 0.8960
3206.850379 0.8960 0.8960 0.8960 0.8960 0.8969
3213.907948 0.8980 0.8990 0.9000 0.9000 0.9000
3220.965517 0.9000 0.9000 0.9010 0.9020 0.9031
3228.023086 0.9041 0.9056 0.9071 0.9081 0.9090
3235.080655 0.9090 0.9090 0.9090 0.9092 0.9102
3242.138224 0.9110 0.9110 0.9110 0.9110 0.9110
3249.195793 0.9110 0.9110 0.9110 0.9110 0.9110
3256.253362 0.9113 0.9123 0.9133 0.9143 0.9154
3263.310931 0.9164 0.9170 0.9170 0.9170 0.9170
3270.368499 0.9170 0.9170 0.9170 0.9170 0.9170
3277.426068 0.9170 0.9170 0.9170 0.9170 0.9170
3284.483637 0.9170 0.9170 0.9170 0.9170 0.9170
3291.541206 0.9170 0.9170 0.9170 0.9176 0.9186
3298.598775 0.9190 0.9190 0.9197 0.9207 0.9210
3305.656344 0.9210 0.9210 0.9210 0.9210 0.9210
3312.713913 0.9210 0.9210 0.9202 0.9192 0.9190
3319.771482 0.9190 0.9182 0.9172 0.9161 0.9151
3326.829051 0.9150 0.9150 0.9150 0.9150 0.9150
3333.886620 0.9150 0.9141 0.9131 0.9130 0.9130
3340.944189 0.9120 0.9110 0.9110 0.9110 0.9110
3348.001758 0.9110 0.9110 0.9110 0.9110 0.9109
3355.059327 0.9099 0.9090 0.9090 0.9089 0.9078
3362.116896 0.9070 0.9070 0.9070 0.9070 0.9070
3369.174465 0.9070 0.9070 0.9070 0.9070 0.9070
3376.232034 0.9070 0.9070 0.9070 0.9070 0.9070
3383.289603 0.9070 0.9070 0.9070 0.9074 0.9084
3390.347172 0.9090 0.9090 0.9090 0.9090 0.9090
3397.404741 0.9090 0.9090 0.9090 0.9090 0.9090
3404.462310 0.9090 0.9090 0.9090 0.9090 0.9096
3411.519879 0.9106 0.9110 0.9110 0.9110 0.9110
3418.577448 0.9110 0.9110 0.9110 0.9110 0.9110
3425.635017 0.9110 0.9110 0.9110 0.9110 0.9110
3432.692586 0.9110 0.9110 0.9110 0.9110 0.9110
3439.750155 0.9110 0.9118 0.9128 0.9130 0.9130
3446.807724 0.9139 0.9149 0.9150 0.9150 0.9150
3453.865293 0.9150 0.9159 0.9170 0.9170 0.9170
3460.922862 0.9170 0.9170 0.9180 0.9190 0.9190
3467.980430 0.9190 0.9190 0.9190 0.9190 0.9190
3475.037999 0.9190 0.9190 0.9190 0.9190 0.9190
3482.095568 0.9190 0.9190 0.9190 0.9190 0.9188
3489.153137 0.9178 0.9170 0.9170 0.9170 0.9170
3496.210706 0.9170 0.9170 0.9170 0.9170 0.9170
3503.268275 0.9170 0.9170 0.9170 0.9174 0.9184
3510.325844 0.9190 0.9190 0.9190 0.9190 0.9186
3517.383413 0.9176 0.9170 0.9170 0.9170 0.9170
3524.440982 0.9165 0.9155 0.9150 0.9150 0.9150
3531.498551 0.9150 0.9150 0.9150 0.9150 0.9150
3538.556120 0.9156 0.9166 0.9170 0.9170 0.9177
3545.613689 0.9187 0.9197 0.9207 0.9210 0.9210
3552.671258 0.9214 0.9219 0.9220 0.9220 0.9220
3559.728827 0.9220 0.9216 0.9211 0.9210 0.9210
3566.786396 0.9201 0.9191 0.9190 0.9190 0.9190
3573.843965 0.9190 0.9190 0.9190 0.9190 0.9190
3580.901534 0.9190 0.9190 0.9200 0.9210 0.9210
3587.959103 0.9210 0.9210 0.9210 0.9215 0.9220
3595.016672 0.9220 0.9220 0.9220 0.9220 0.9220
3602.074241 0.9220 0.9220 0.9220 0.9220 0.9220
3609.131810 0.9220 0.9220 0.9220 0.9222 0.9232
3616.189379 0.9240 0.9240 0.9240 0.9240 0.9240
3623.246948 0.9240 0.9243 0.9253 0.9260 0.9260
3630.304517 0.9260 0.9260 0.9260 0.9260 0.9260
3637.362086 0.9260 0.9260 0.9260 0.9265 0.9275
3644.419655 0.9285 0.9295 0.9300 0.9300 0.9300
3651.477224 0.9300 0.9300 0.9300 0.9300 0.9300
3658.534793 0.9294 0.9284 0.9274 0.9264 0.9247
3665.592361 0.9227 0.9220 0.9220 0.9227 0.9237
3672.649930 0.9240 0.9240 0.9248 0.9258 0.9283
3679.707499 0.9314 0.9320 0.9320 0.9304 0.9283
3686.765068 0.9272 0.9262 0.9260 0.9260 0.9260
3693.822637 0.9260 0.9260 0.9260 0.9260 0.9260
3700.880206 0.9260 0.9260 0.9260 0.9260 0.9260
3707.937775 0.9260 0.9260 0.9260 0.9260 0.9260
3714.995344 0.9260 0.9260 0.9260 0.9260 0.9260
3722.052913 0.9260 0.9260 0.9260 0.9260 0.9260
3729.110482 0.9260 0.9260 0.9260 0.9262 0.9272
3736.168051 0.9280 0.9280 0.9280 0.9280 0.9277
3743.225620 0.9267 0.9260 0.9260 0.9263 0.9273
3750.283189 0.9280 0.9280 0.9280 0.9280 0.9280
3757.340758 0.9280 0.9276 0.9266 0.9255 0.9245
3764.398327 0.9240 0.9240 0.9235 0.9225 0.9220
3771.455896 0.9220 0.9220 0.9220 0.9226 0.9236
3778.513465 0.9240 0.9240 0.9246 0.9256 0.9260
3785.571034 0.9260 0.9253 0.9243 0.9240 0.9240
3792.628603 0.9240 0.9240 0.9233 0.9223 0.9220
3799.686172 0.9220 0.9220 0.9220 0.9236 0.9256
3806.743741 0.9260 0.9260 0.9252 0.9242 0.9240
3813.801310 0.9240 0.9240 0.9240 0.9240 0.9240
3820.858879 0.9231 0.9220 0.9220 0.9220 0.9215
3827.916448 0.9210 0.9210 0.9210 0.9210 0.9210
3834.974017 0.9210 0.9210 0.9210 0.9210 0.9215
3842.031586 0.9222 0.9243 0.9260 0.9260 0.9258
3849.089155 0.9248 0.9238 0.9228 0.9220 0.9220
3856.146724 0.9219 0.9214 0.9210 0.9210 0.9207
3863.204292 0.9197 0.9190 0.9190 0.9193 0.9203
3870.261861 0.9210 0.9210 0.9210 0.9210 0.9212
3877.319430 0.9217 0.9220 0.9220 0.9220 0.9220
3884.376999 0.9218 0.9213 0.9210 0.9210 0.9210
3891.434568 0.9210 0.9205 0.9195 0.9190 0.9190
3898.492137 0.9190 0.9190 0.9184 0.9174 0.9170
3905.549706 0.9170 0.9170 0.9170 0.9170 0.9170
3912.607275 0.9170 0.9170 0.9163 0.9153 0.9143
3919.664844 0.9133 0.9130 0.9130 0.9130 0.9130
3926.722413 0.9122 0.9112 0.9110 0.9110 0.9110
3933.779982 0.9110 0.9101 0.9091 0.9090 0.9090
3940.837551 0.9081 0.9071 0.9065 0.9060 0.9060
3947.895120 0.9060 0.9060 0.9060 0.9060 0.9060
3954.952689 0.9050 0.9039 0.9029 0.9020 0.9020
3962.010258 0.9021 0.9031 0.9041 0.9051 0.9060
3969.067827 0.9060 0.9060 0.9060 0.9060 0.9060
3976.125396 0.9061 0.9066 0.9070 0.9070 0.9070
3983.182965 0.9070 0.9070 0.9070 0.9068 0.9063
3990.240534 0.9057 0.9047 0.9040 0.9040
##END=
