##TITLE=Octanoic acid
##JCAMP-DX=4.24
$$ By DXEDIT 1.05 (RS McDonald)
##DATA TYPE=INFRARED SPECTRUM
##CLASS=COBLENTZ III
##ORIGIN=DOW CHEMICAL COMPANY
##OWNER=COPYRIGHT (C) 1988 by COBLENTZ SOCIETY INC.
Collection (C) 2018 copyright by the U.S. Secretary of Commerce
on behalf of the United States of America. All rights reserved.
##DATE=1964/01/09
##NAMES=Caprylic acid
##CAS REGISTRY NO=124-07-2
##MOLFORM=C8 H16 O2
##SOURCE REFERENCE=COBLENTZ NO. 6290
##$NIST SOURCE=COBLENTZ
##$NIST IMAGE=cob6290
##SPECTROMETER/DATA SYSTEM=BECKMAN IR-9 (GRATING)
##INSTRUMENT PARAMETERS=ORDER CHANGES: 670, 1200, 2000 CM^-^1
##STATE=SOLUTION (10% CCl4 FOR 3800-1330, 10% CS2 FOR 1330-400)
##PATH LENGTH=0.010 CM, 0.011 CM
$$SPECTRAL CONTAMINATIONS DUE TO CS2 AROUND 400, 850 AND CCl4 AROUND 1550 CM^-^1 HAVE BEEN SUBTRACTED
##SAMPLING PROCEDURE=TRANSMISSION
##RESOLUTION=2
##DATA PROCESSING=DIGITIZED BY COBLENTZ SOCIETY (BATCH I) FROM HARD COPY
##XUNITS=1/CM
##YUNITS=TRANSMITTANCE
##XFACTOR=1
##YFACTOR=1
##DELTAX=1
##FIRSTX=3816
##LASTX=403
##FIRSTY=0.943
##MAXX=3816
##MINX=403
##MAXY=0.9425
##MINY=0.0002
##NPOINTS=3414
##XYDATA=(X++(Y..Y))
3816.000000 0.9430 0.9429 0.9423 0.9417 0.9416
3811.000000 0.9422 0.9425 0.9416 0.9413 0.9420
3806.000000 0.9422 0.9421 0.9420 0.9419 0.9407
3801.000000 0.9405 0.9404 0.9403 0.9402 0.9403
3796.000000 0.9409 0.9402 0.9409 0.9408 0.9407
3791.000000 0.9406 0.9405 0.9404 0.9403 0.9402
3786.000000 0.9401 0.9400 0.9392 0.9387 0.9384
3781.000000 0.9393 0.9395 0.9383 0.9391 0.9392
3776.000000 0.9390 0.9378 0.9388 0.9387 0.9385
3771.000000 0.9385 0.9384 0.9383 0.9382 0.9381
3766.000000 0.9380 0.9379 0.9378 0.9377 0.9377
3761.000000 0.9376 0.9381 0.9379 0.9374 0.9373
3756.000000 0.9373 0.9372 0.9371 0.9370 0.9370
3751.000000 0.9368 0.9367 0.9366 0.9366 0.9365
3746.000000 0.9365 0.9364 0.9363 0.9362 0.9362
3741.000000 0.9361 0.9360 0.9362 0.9369 0.9368
3736.000000 0.9367 0.9366 0.9361 0.9354 0.9359
3731.000000 0.9363 0.9362 0.9361 0.9360 0.9359
3726.000000 0.9359 0.9358 0.9357 0.9353 0.9351
3721.000000 0.9347 0.9346 0.9332 0.9331 0.9338
3716.000000 0.9336 0.9333 0.9331 0.9327 0.9329
3711.000000 0.9330 0.9324 0.9328 0.9325 0.9322
3706.000000 0.9320 0.9317 0.9314 0.9310 0.9308
3701.000000 0.9305 0.9302 0.9299 0.9297 0.9296
3696.000000 0.9286 0.9285 0.9286 0.9286 0.9287
3691.000000 0.9288 0.9289 0.9290 0.9291 0.9289
3686.000000 0.9281 0.9281 0.9283 0.9283 0.9284
3681.000000 0.9284 0.9286 0.9286 0.9287 0.9287
3676.000000 0.9288 0.9288 0.9290 0.9290 0.9291
3671.000000 0.9291 0.9300 0.9292 0.9293 0.9293
3666.000000 0.9294 0.9294 0.9294 0.9295 0.9296
3661.000000 0.9296 0.9296 0.9296 0.9296 0.9295
3656.000000 0.9294 0.9293 0.9293 0.9291 0.9290
3651.000000 0.9288 0.9287 0.9286 0.9284 0.9283
3646.000000 0.9280 0.9279 0.9278 0.9277 0.9276
3641.000000 0.9274 0.9273 0.9271 0.9270 0.9269
3636.000000 0.9268 0.9266 0.9265 0.9267 0.9276
3631.000000 0.9275 0.9271 0.9264 0.9268 0.9275
3626.000000 0.9275 0.9275 0.9275 0.9275 0.9275
3621.000000 0.9274 0.9274 0.9274 0.9274 0.9274
3616.000000 0.9274 0.9274 0.9274 0.9273 0.9271
3611.000000 0.9270 0.9270 0.9269 0.9260 0.9268
3606.000000 0.9267 0.9266 0.9266 0.9262 0.9257
3601.000000 0.9263 0.9258 0.9249 0.9253 0.9258
3596.000000 0.9257 0.9255 0.9254 0.9252 0.9250
3591.000000 0.9245 0.9242 0.9238 0.9235 0.9229
3586.000000 0.9223 0.9215 0.9209 0.9202 0.9194
3581.000000 0.9183 0.9171 0.9156 0.9143 0.9128
3576.000000 0.9110 0.9079 0.9063 0.9037 0.9006
3571.000000 0.8972 0.8947 0.8903 0.8860 0.8828
3566.000000 0.8797 0.8773 0.8751 0.8736 0.8723
3561.000000 0.8714 0.8706 0.8703 0.8700 0.8700
3556.000000 0.8682 0.8713 0.8707 0.8715 0.8731
3551.000000 0.8739 0.8745 0.8748 0.8765 0.8775
3546.000000 0.8783 0.8791 0.8802 0.8821 0.8835
3541.000000 0.8846 0.8852 0.8865 0.8872 0.8883
3536.000000 0.8895 0.8896 0.8897 0.8898 0.8899
3531.000000 0.8899 0.8898 0.8885 0.8884 0.8882
3526.000000 0.8881 0.8879 0.8876 0.8875 0.8873
3521.000000 0.8868 0.8896 0.8862 0.8859 0.8856
3516.000000 0.8853 0.8849 0.8846 0.8840 0.8835
3511.000000 0.8829 0.8824 0.8817 0.8812 0.8807
3506.000000 0.8802 0.8797 0.8792 0.8786 0.8781
3501.000000 0.8776 0.8771 0.8765 0.8761 0.8755
3496.000000 0.8751 0.8746 0.8741 0.8736 0.8730
3491.000000 0.8725 0.8720 0.8715 0.8710 0.8704
3486.000000 0.8698 0.8692 0.8687 0.8681 0.8674
3481.000000 0.8668 0.8661 0.8656 0.8650 0.8642
3476.000000 0.8636 0.8630 0.8624 0.8616 0.8611
3471.000000 0.8604 0.8598 0.8592 0.8585 0.8578
3466.000000 0.8572 0.8562 0.8554 0.8545 0.8536
3461.000000 0.8526 0.8518 0.8503 0.8487 0.8474
3456.000000 0.8461 0.8450 0.8438 0.8427 0.8416
3451.000000 0.8406 0.8396 0.8388 0.8378 0.8368
3446.000000 0.8358 0.8348 0.8340 0.8330 0.8321
3441.000000 0.8312 0.8303 0.8292 0.8284 0.8273
3436.000000 0.8261 0.8248 0.8236 0.8225 0.8214
3431.000000 0.8200 0.8189 0.8177 0.8166 0.8154
3426.000000 0.8140 0.8120 0.8116 0.8105 0.8092
3421.000000 0.8081 0.8070 0.8057 0.8044 0.8032
3416.000000 0.8019 0.8007 0.7993 0.7981 0.7967
3411.000000 0.7956 0.7943 0.7930 0.7917 0.7907
3406.000000 0.7892 0.7869 0.7851 0.7833 0.7816
3401.000000 0.7797 0.7779 0.7762 0.7745 0.7726
3396.000000 0.7708 0.7691 0.7673 0.7656 0.7638
3391.000000 0.7621 0.7605 0.7588 0.7571 0.7555
3386.000000 0.7539 0.7522 0.7507 0.7486 0.7466
3381.000000 0.7446 0.7426 0.7405 0.7385 0.7364
3376.000000 0.7345 0.7324 0.7305 0.7285 0.7266
3371.000000 0.7247 0.7236 0.7209 0.7191 0.7171
3366.000000 0.7153 0.7133 0.7113 0.7095 0.7077
3361.000000 0.7056 0.7036 0.7016 0.6994 0.6975
3356.000000 0.6953 0.6932 0.6913 0.6891 0.6871
3351.000000 0.6849 0.6831 0.6813 0.6795 0.6777
3346.000000 0.6759 0.6746 0.6731 0.6706 0.6694
3341.000000 0.6670 0.6652 0.6632 0.6623 0.6605
3336.000000 0.6586 0.6561 0.6543 0.6524 0.6507
3331.000000 0.6487 0.6469 0.6449 0.6429 0.6410
3326.000000 0.6391 0.6371 0.6352 0.6332 0.6312
3321.000000 0.6286 0.6262 0.6236 0.6211 0.6185
3316.000000 0.6160 0.6134 0.6109 0.6084 0.6066
3311.000000 0.6041 0.6017 0.5993 0.5968 0.5940
3306.000000 0.5923 0.5899 0.5873 0.5845 0.5822
3301.000000 0.5800 0.5778 0.5756 0.5734 0.5712
3296.000000 0.5690 0.5669 0.5647 0.5625 0.5603
3291.000000 0.5581 0.5558 0.5535 0.5512 0.5490
3286.000000 0.5467 0.5443 0.5421 0.5404 0.5380
3281.000000 0.5351 0.5329 0.5310 0.5283 0.5254
3276.000000 0.5232 0.5211 0.5186 0.5162 0.5137
3271.000000 0.5112 0.5087 0.5062 0.5037 0.5015
3266.000000 0.4993 0.4971 0.4949 0.4926 0.4905
3261.000000 0.4883 0.4861 0.4839 0.4818 0.4795
3256.000000 0.4768 0.4751 0.4730 0.4707 0.4685
3251.000000 0.4663 0.4642 0.4621 0.4600 0.4578
3246.000000 0.4558 0.4533 0.4513 0.4493 0.4473
3241.000000 0.4451 0.4430 0.4410 0.4389 0.4367
3236.000000 0.4346 0.4325 0.4304 0.4282 0.4261
3231.000000 0.4240 0.4219 0.4197 0.4175 0.4152
3226.000000 0.4127 0.4105 0.4088 0.4066 0.4044
3221.000000 0.4022 0.3999 0.3978 0.3956 0.3934
3216.000000 0.3913 0.3896 0.3879 0.3862 0.3844
3211.000000 0.3827 0.3811 0.3792 0.3773 0.3755
3206.000000 0.3738 0.3720 0.3703 0.3686 0.3670
3201.000000 0.3651 0.3635 0.3622 0.3602 0.3586
3196.000000 0.3569 0.3554 0.3537 0.3520 0.3502
3191.000000 0.3484 0.3465 0.3446 0.3432 0.3414
3186.000000 0.3394 0.3374 0.3357 0.3340 0.3322
3181.000000 0.3305 0.3287 0.3265 0.3243 0.3221
3176.000000 0.3199 0.3176 0.3155 0.3132 0.3110
3171.000000 0.3089 0.3069 0.3049 0.3029 0.3009
3166.000000 0.2989 0.2969 0.2951 0.2934 0.2912
3161.000000 0.2892 0.2874 0.2854 0.2833 0.2817
3156.000000 0.2797 0.2779 0.2764 0.2747 0.2729
3151.000000 0.2712 0.2694 0.2676 0.2656 0.2638
3146.000000 0.2621 0.2605 0.2590 0.2574 0.2559
3141.000000 0.2544 0.2531 0.2506 0.2482 0.2457
3136.000000 0.2433 0.2409 0.2385 0.2365 0.2348
3131.000000 0.2334 0.2319 0.2305 0.2291 0.2277
3126.000000 0.2261 0.2248 0.2235 0.2220 0.2206
3121.000000 0.2192 0.2179 0.2164 0.2151 0.2139
3116.000000 0.2128 0.2116 0.2105 0.2094 0.2082
3111.000000 0.2075 0.2070 0.2065 0.2061 0.2056
3106.000000 0.2054 0.2050 0.2045 0.2042 0.2039
3101.000000 0.2035 0.2034 0.2031 0.2028 0.2027
3096.000000 0.2027 0.2025 0.2024 0.2021 0.2017
3091.000000 0.2011 0.2006 0.1997 0.1989 0.1982
3086.000000 0.1977 0.1965 0.1955 0.1947 0.1939
3081.000000 0.1929 0.1920 0.1906 0.1895 0.1884
3076.000000 0.1872 0.1860 0.1849 0.1841 0.1831
3071.000000 0.1823 0.1814 0.1805 0.1800 0.1790
3066.000000 0.1783 0.1777 0.1771 0.1766 0.1766
3061.000000 0.1764 0.1764 0.1764 0.1763 0.1759
3056.000000 0.1757 0.1757 0.1756 0.1754 0.1753
3051.000000 0.1752 0.1751 0.1749 0.1748 0.1748
3046.000000 0.1748 0.1749 0.1751 0.1752 0.1754
3041.000000 0.1755 0.1757 0.1755 0.1755 0.1755
3036.000000 0.1753 0.1751 0.1750 0.1748 0.1747
3031.000000 0.1746 0.1745 0.1744 0.1744 0.1742
3026.000000 0.1741 0.1741 0.1741 0.1740 0.1739
3021.000000 0.1733 0.1727 0.1722 0.1717 0.1709
3016.000000 0.1702 0.1695 0.1689 0.1682 0.1676
3011.000000 0.1665 0.1654 0.1641 0.1628 0.1614
3006.000000 0.1602 0.1582 0.1561 0.1530 0.1499
3001.000000 0.1468 0.1438 0.1406 0.1376 0.1343
2996.000000 0.1311 0.1263 0.1215 0.1144 0.1074
2991.000000 0.1000 0.0926 0.0868 0.0808 0.0742
2986.000000 0.0676 0.0603 0.0530 0.0461 0.0391
2981.000000 0.0344 0.0296 0.0242 0.0188 0.0157
2976.000000 0.0126 0.0115 0.0105 0.0099 0.0094
2971.000000 0.0090 0.0087 0.0085 0.0083 0.0081
2966.000000 0.0079 0.0077 0.0075 0.0073 0.0071
2961.000000 0.0070 0.0069 0.0068 0.0067 0.0066
2956.000000 0.0066 0.0064 0.0063 0.0062 0.0062
2951.000000 0.0061 0.0061 0.0061 0.0061 0.0061
2946.000000 0.0061 0.0062 0.0065 0.0066 0.0068
2941.000000 0.0069 0.0071 0.0072 0.0074 0.0078
2936.000000 0.0083 0.0091 0.0098 0.0112 0.0128
2931.000000 0.0145 0.0162 0.0177 0.0191 0.0208
2926.000000 0.0223 0.0242 0.0263 0.0282 0.0302
2921.000000 0.0321 0.0341 0.0366 0.0392 0.0418
2916.000000 0.0444 0.0489 0.0538 0.0578 0.0618
2911.000000 0.0652 0.0687 0.0710 0.0733 0.0753
2906.000000 0.0772 0.0795 0.0819 0.0843 0.0867
2901.000000 0.0879 0.0931 0.0895 0.0899 0.0900
2896.000000 0.0902 0.0893 0.0886 0.0878 0.0870
2891.000000 0.0854 0.0839 0.0816 0.0793 0.0662
2886.000000 0.0531 0.0515 0.0501 0.0496 0.0489
2881.000000 0.0485 0.0483 0.0479 0.0475 0.0457
2876.000000 0.0439 0.0405 0.0372 0.0357 0.0344
2871.000000 0.0340 0.0328 0.0335 0.0332 0.0349
2866.000000 0.0367 0.0404 0.0442 0.0474 0.0506
2861.000000 0.0551 0.0596 0.0665 0.0733 0.1075
2856.000000 0.1417 0.1535 0.1652 0.1745 0.1838
2851.000000 0.1928 0.2017 0.2121 0.2225 0.2316
2846.000000 0.2411 0.2475 0.2538 0.2589 0.2644
2841.000000 0.2695 0.2744 0.2782 0.2824 0.2861
2836.000000 0.2896 0.2929 0.2964 0.2992 0.3024
2831.000000 0.3053 0.3082 0.3112 0.3136 0.3161
2826.000000 0.3184 0.3201 0.3225 0.3250 0.3270
2821.000000 0.3295 0.3318 0.3340 0.3363 0.3387
2816.000000 0.3412 0.3436 0.3461 0.3483 0.3505
2811.000000 0.3523 0.3540 0.3559 0.3581 0.3600
2806.000000 0.3619 0.3639 0.3658 0.3676 0.3695
2801.000000 0.3714 0.3732 0.3752 0.3773 0.3794
2796.000000 0.3814 0.3835 0.3856 0.3875 0.3894
2791.000000 0.3904 0.3923 0.3933 0.3948 0.3963
2786.000000 0.3978 0.3990 0.4003 0.4009 0.4016
2781.000000 0.4023 0.4030 0.4030 0.4032 0.4032
2776.000000 0.4035 0.4035 0.4037 0.4038 0.4039
2771.000000 0.4040 0.4041 0.4043 0.4045 0.4047
2766.000000 0.4050 0.4051 0.4055 0.4057 0.4059
2761.000000 0.4060 0.4064 0.4068 0.4073 0.4077
2756.000000 0.4081 0.4084 0.4091 0.4095 0.4100
2751.000000 0.4103 0.4109 0.4112 0.4118 0.4122
2746.000000 0.4127 0.4132 0.4136 0.4138 0.4138
2741.000000 0.4138 0.4140 0.4140 0.4141 0.4141
2736.000000 0.4142 0.4142 0.4142 0.4142 0.4143
2731.000000 0.4143 0.4143 0.4140 0.4136 0.4133
2726.000000 0.4130 0.4127 0.4124 0.4117 0.4113
2721.000000 0.4109 0.4103 0.4099 0.4094 0.4086
2716.000000 0.4080 0.4070 0.4059 0.4047 0.4034
2711.000000 0.4022 0.4008 0.3994 0.3980 0.3959
2706.000000 0.3939 0.3918 0.3897 0.3878 0.3862
2701.000000 0.3847 0.3832 0.3817 0.3804 0.3794
2696.000000 0.3785 0.3779 0.3772 0.3768 0.3763
2691.000000 0.3756 0.3752 0.3749 0.3745 0.3745
2686.000000 0.3745 0.3746 0.3747 0.3747 0.3749
2681.000000 0.3750 0.3754 0.3756 0.3758 0.3766
2676.000000 0.3774 0.3786 0.3797 0.3808 0.3820
2671.000000 0.3833 0.3846 0.3858 0.3871 0.3883
2666.000000 0.3897 0.3909 0.3922 0.3934 0.3947
2661.000000 0.3959 0.3972 0.3984 0.3997 0.4013
2656.000000 0.4026 0.4039 0.4051 0.4064 0.4076
2651.000000 0.4087 0.4096 0.4108 0.4121 0.4137
2646.000000 0.4149 0.4159 0.4169 0.4180 0.4196
2641.000000 0.4206 0.4216 0.4229 0.4242 0.4253
2636.000000 0.4266 0.4275 0.4290 0.4301 0.4311
2631.000000 0.4315 0.4326 0.4341 0.4352 0.4361
2626.000000 0.4371 0.4382 0.4392 0.4402 0.4412
2621.000000 0.4422 0.4432 0.4440 0.4447 0.4454
2616.000000 0.4461 0.4468 0.4475 0.4482 0.4489
2611.000000 0.4496 0.4503 0.4510 0.4517 0.4523
2606.000000 0.4530 0.4536 0.4543 0.4548 0.4553
2601.000000 0.4558 0.4564 0.4569 0.4574 0.4579
2596.000000 0.4584 0.4590 0.4595 0.4600 0.4605
2591.000000 0.4609 0.4615 0.4619 0.4624 0.4628
2586.000000 0.4633 0.4637 0.4644 0.4650 0.4656
2581.000000 0.4665 0.4676 0.4685 0.4696 0.4706
2576.000000 0.4717 0.4734 0.4751 0.4767 0.4784
2571.000000 0.4801 0.4817 0.4834 0.4850 0.4873
2566.000000 0.4897 0.4924 0.4951 0.4979 0.5007
2561.000000 0.5034 0.5063 0.5089 0.5115 0.5136
2556.000000 0.5157 0.5180 0.5202 0.5224 0.5245
2551.000000 0.5266 0.5288 0.5310 0.5332 0.5354
2546.000000 0.5375 0.5397 0.5419 0.5440 0.5462
2541.000000 0.5484 0.5505 0.5527 0.5549 0.5571
2536.000000 0.5593 0.5614 0.5636 0.5658 0.5679
2531.000000 0.5702 0.5724 0.5745 0.5767 0.5789
2526.000000 0.5811 0.5833 0.5855 0.5876 0.5898
2521.000000 0.5924 0.5950 0.5976 0.6003 0.6030
2516.000000 0.6057 0.6083 0.6110 0.6137 0.6164
2511.000000 0.6181 0.6199 0.6215 0.6233 0.6249
2506.000000 0.6266 0.6283 0.6299 0.6316 0.6333
2501.000000 0.6349 0.6366 0.6384 0.6402 0.6421
2496.000000 0.6441 0.6461 0.6480 0.6500 0.6521
2491.000000 0.6544 0.6568 0.6591 0.6614 0.6638
2486.000000 0.6662 0.6681 0.6702 0.6717 0.6732
2481.000000 0.6753 0.6772 0.6788 0.6803 0.6819
2476.000000 0.6833 0.6850 0.6866 0.6881 0.6896
2471.000000 0.6914 0.6930 0.6948 0.6967 0.6984
2466.000000 0.7001 0.7019 0.7036 0.7053 0.7072
2461.000000 0.7089 0.7107 0.7124 0.7137 0.7155
2456.000000 0.7172 0.7181 0.7193 0.7213 0.7230
2451.000000 0.7242 0.7249 0.7268 0.7283 0.7296
2446.000000 0.7309 0.7323 0.7337 0.7349 0.7361
2441.000000 0.7373 0.7386 0.7397 0.7409 0.7421
2436.000000 0.7433 0.7443 0.7457 0.7468 0.7481
2431.000000 0.7491 0.7501 0.7509 0.7516 0.7523
2426.000000 0.7531 0.7539 0.7546 0.7553 0.7561
2421.000000 0.7566 0.7572 0.7579 0.7586 0.7592
2416.000000 0.7598 0.7604 0.7609 0.7617 0.7623
2411.000000 0.7627 0.7634 0.7644 0.7655 0.7660
2406.000000 0.7675 0.7685 0.7694 0.7703 0.7712
2401.000000 0.7722 0.7730 0.7738 0.7749 0.7757
2396.000000 0.7766 0.7775 0.7785 0.7794 0.7805
2391.000000 0.7814 0.7824 0.7843 0.7854 0.7863
2386.000000 0.7874 0.7885 0.7904 0.7912 0.7926
2381.000000 0.7941 0.7951 0.7960 0.7973 0.7984
2376.000000 0.7996 0.8001 0.8012 0.8018 0.8021
2371.000000 0.8023 0.8026 0.8020 0.8020 0.8023
2366.000000 0.8025 0.8027 0.8030 0.8031 0.8034
2361.000000 0.8035 0.8047 0.8050 0.8060 0.8065
2356.000000 0.8076 0.8087 0.8089 0.8091 0.8094
2351.000000 0.8092 0.8089 0.8091 0.8098 0.8110
2346.000000 0.8117 0.8119 0.8114 0.8113 0.8115
2341.000000 0.8117 0.8120 0.8114 0.8125 0.8129
2336.000000 0.8123 0.8125 0.8137 0.8139 0.8144
2331.000000 0.8148 0.8160 0.8162 0.8165 0.8171
2326.000000 0.8181 0.8187 0.8196 0.8199 0.8202
2321.000000 0.8203 0.8208 0.8210 0.8212 0.8214
2316.000000 0.8218 0.8219 0.8223 0.8226 0.8228
2311.000000 0.8230 0.8233 0.8235 0.8238 0.8240
2306.000000 0.8242 0.8246 0.8249 0.8251 0.8253
2301.000000 0.8256 0.8259 0.8264 0.8273 0.8277
2296.000000 0.8280 0.8281 0.8284 0.8289 0.8293
2291.000000 0.8298 0.8302 0.8305 0.8301 0.8304
2286.000000 0.8308 0.8312 0.8316 0.8310 0.8314
2281.000000 0.8317 0.8322 0.8326 0.8322 0.8326
2276.000000 0.8328 0.8324 0.8328 0.8333 0.8335
2271.000000 0.8332 0.8336 0.8337 0.8336 0.8340
2266.000000 0.8344 0.8343 0.8344 0.8348 0.8351
2261.000000 0.8350 0.8351 0.8356 0.8353 0.8356
2256.000000 0.8361 0.8366 0.8362 0.8366 0.8371
2251.000000 0.8375 0.8370 0.8375 0.8381 0.8384
2246.000000 0.8390 0.8390 0.8388 0.8391 0.8394
2241.000000 0.8397 0.8401 0.8404 0.8408 0.8411
2236.000000 0.8415 0.8410 0.8412 0.8414 0.8419
2231.000000 0.8422 0.8425 0.8428 0.8433 0.8436
2226.000000 0.8440 0.8443 0.8446 0.8449 0.8452
2221.000000 0.8444 0.8447 0.8451 0.8454 0.8455
2216.000000 0.8458 0.8461 0.8464 0.8467 0.8470
2211.000000 0.8472 0.8475 0.8478 0.8481 0.8482
2206.000000 0.8486 0.8488 0.8491 0.8492 0.8496
2201.000000 0.8498 0.8500 0.8502 0.8506 0.8507
2196.000000 0.8508 0.8503 0.8514 0.8514 0.8508
2191.000000 0.8510 0.8512 0.8514 0.8516 0.8517
2186.000000 0.8519 0.8520 0.8527 0.8526 0.8523
2181.000000 0.8524 0.8526 0.8527 0.8536 0.8540
2176.000000 0.8541 0.8542 0.8543 0.8543 0.8544
2171.000000 0.8544 0.8544 0.8543 0.8534 0.8534
2166.000000 0.8534 0.8533 0.8532 0.8531 0.8530
2161.000000 0.8529 0.8528 0.8526 0.8525 0.8524
2156.000000 0.8523 0.8522 0.8521 0.8520 0.8519
2151.000000 0.8518 0.8517 0.8517 0.8517 0.8516
2146.000000 0.8516 0.8516 0.8516 0.8517 0.8518
2141.000000 0.8521 0.8525 0.8528 0.8531 0.8534
2136.000000 0.8537 0.8541 0.8544 0.8548 0.8551
2131.000000 0.8554 0.8558 0.8560 0.8562 0.8563
2126.000000 0.8565 0.8567 0.8570 0.8572 0.8565
2121.000000 0.8573 0.8577 0.8579 0.8581 0.8582
2116.000000 0.8584 0.8586 0.8588 0.8589 0.8591
2111.000000 0.8592 0.8594 0.8595 0.8595 0.8597
2106.000000 0.8599 0.8599 0.8603 0.8603 0.8606
2101.000000 0.8607 0.8609 0.8609 0.8602 0.8600
2096.000000 0.8627 0.8608 0.8598 0.8604 0.8602
2091.000000 0.8601 0.8599 0.8598 0.8595 0.8594
2086.000000 0.8592 0.8591 0.8590 0.8588 0.8587
2081.000000 0.8585 0.8583 0.8581 0.8578 0.8576
2076.000000 0.8574 0.8572 0.8571 0.8569 0.8567
2071.000000 0.8565 0.8563 0.8561 0.8559 0.8556
2066.000000 0.8554 0.8552 0.8550 0.8547 0.8546
2061.000000 0.8543 0.8542 0.8540 0.8538 0.8538
2056.000000 0.8544 0.8541 0.8538 0.8535 0.8529
2051.000000 0.8525 0.8528 0.8519 0.8513 0.8510
2046.000000 0.8507 0.8504 0.8502 0.8498 0.8496
2041.000000 0.8494 0.8491 0.8488 0.8487 0.8483
2036.000000 0.8480 0.8477 0.8476 0.8473 0.8470
2031.000000 0.8467 0.8464 0.8461 0.8460 0.8460
2026.000000 0.8450 0.8450 0.8453 0.8449 0.8447
2021.000000 0.8445 0.8442 0.8438 0.8437 0.8434
2016.000000 0.8431 0.8428 0.8426 0.8422 0.8417
2011.000000 0.8415 0.8413 0.8411 0.8409 0.8404
2006.000000 0.8401 0.8398 0.8394 0.8393 0.8393
2001.000000 0.8404 0.8413 0.8421 0.8427 0.8429
1996.000000 0.8438 0.8449 0.8457 0.8454 0.8452
1991.000000 0.8450 0.8446 0.8444 0.8442 0.8438
1986.000000 0.8428 0.8425 0.8422 0.8419 0.8418
1981.000000 0.8418 0.8417 0.8414 0.8405 0.8405
1976.000000 0.8405 0.8404 0.8403 0.8400 0.8397
1971.000000 0.8396 0.8394 0.8391 0.8389 0.8387
1966.000000 0.8391 0.8387 0.8381 0.8385 0.8383
1961.000000 0.8380 0.8377 0.8374 0.8372 0.8369
1956.000000 0.8366 0.8363 0.8350 0.8345 0.8342
1951.000000 0.8339 0.8334 0.8323 0.8319 0.8316
1946.000000 0.8312 0.8308 0.8304 0.8301 0.8298
1941.000000 0.8294 0.8291 0.8288 0.8284 0.8280
1936.000000 0.8276 0.8273 0.8270 0.8266 0.8263
1931.000000 0.8260 0.8257 0.8252 0.8249 0.8246
1926.000000 0.8242 0.8239 0.8237 0.8234 0.8231
1921.000000 0.8227 0.8224 0.8220 0.8216 0.8212
1916.000000 0.8208 0.8204 0.8198 0.8194 0.8190
1911.000000 0.8187 0.8183 0.8179 0.8174 0.8177
1906.000000 0.8175 0.8171 0.8166 0.8158 0.8154
1901.000000 0.8148 0.8144 0.8138 0.8132 0.8127
1896.000000 0.8122 0.8116 0.8111 0.8104 0.8100
1891.000000 0.8090 0.8079 0.8074 0.8069 0.8063
1886.000000 0.8057 0.8052 0.8049 0.8044 0.8037
1881.000000 0.8029 0.8020 0.8012 0.8003 0.7993
1876.000000 0.7986 0.7987 0.7978 0.7970 0.7960
1871.000000 0.7950 0.7943 0.7933 0.7924 0.7916
1866.000000 0.7905 0.7898 0.7887 0.7879 0.7871
1861.000000 0.7860 0.7852 0.7843 0.7833 0.7829
1856.000000 0.7817 0.7804 0.7794 0.7784 0.7775
1851.000000 0.7766 0.7757 0.7746 0.7737 0.7728
1846.000000 0.7717 0.7708 0.7697 0.7687 0.7678
1841.000000 0.7667 0.7658 0.7647 0.7638 0.7628
1836.000000 0.7615 0.7599 0.7589 0.7580 0.7570
1831.000000 0.7561 0.7551 0.7541 0.7532 0.7522
1826.000000 0.7513 0.7504 0.7493 0.7484 0.7474
1821.000000 0.7463 0.7451 0.7446 0.7435 0.7420
1816.000000 0.7409 0.7394 0.7382 0.7368 0.7355
1811.000000 0.7341 0.7328 0.7312 0.7293 0.7281
1806.000000 0.7270 0.7262 0.7247 0.7234 0.7223
1801.000000 0.7213 0.7206 0.7198 0.7190 0.7183
1796.000000 0.7176 0.7168 0.7161 0.7153 0.7146
1791.000000 0.7137 0.7128 0.7113 0.7092 0.7071
1786.000000 0.7050 0.7029 0.7006 0.6985 0.6947
1781.000000 0.6906 0.6861 0.6817 0.6774 0.6729
1776.000000 0.6680 0.6627 0.6576 0.6524 0.6472
1771.000000 0.6408 0.6340 0.6271 0.6198 0.6119
1766.000000 0.6038 0.5957 0.5878 0.5814 0.5755
1761.000000 0.5696 0.5636 0.5578 0.5524 0.5450
1756.000000 0.5366 0.5282 0.5198 0.5103 0.5006
1751.000000 0.4908 0.4826 0.4749 0.4670 0.4594
1746.000000 0.4515 0.4423 0.4330 0.4237 0.4108
1741.000000 0.3939 0.3764 0.3396 0.3273 0.3180
1736.000000 0.3076 0.2948 0.2819 0.2690 0.2299
1731.000000 0.2066 0.1907 0.1739 0.1483 0.1036
1726.000000 0.0879 0.0773 0.0722 0.0589 0.0457
1721.000000 0.0323 0.0190 0.0057 0.0005 0.0002
1716.000000 0.0002 0.0002 0.0004 0.0004 0.0004
1711.000000 0.0012 0.0015 0.0018 0.0020 0.0023
1706.000000 0.0025 0.0028 0.0030 0.0053 0.0078
1701.000000 0.0130 0.0203 0.0286 0.0366 0.0445
1696.000000 0.0524 0.0615 0.0722 0.0891 0.1227
1691.000000 0.1705 0.1831 0.1984 0.2345 0.2534
1686.000000 0.2707 0.2882 0.3836 0.3950 0.4002
1681.000000 0.4057 0.4116 0.4366 0.4552 0.4705
1676.000000 0.4857 0.4996 0.5133 0.5274 0.5390
1671.000000 0.5478 0.5567 0.5649 0.5721 0.5793
1666.000000 0.5864 0.5934 0.6005 0.6075 0.6154
1661.000000 0.6220 0.6285 0.6346 0.6426 0.6510
1656.000000 0.6579 0.6645 0.6695 0.6733 0.6753
1651.000000 0.6787 0.6835 0.6905 0.6969 0.7021
1646.000000 0.7078 0.7121 0.7150 0.7180 0.7214
1641.000000 0.7252 0.7286 0.7319 0.7359 0.7398
1636.000000 0.7440 0.7473 0.7502 0.7541 0.7564
1631.000000 0.7598 0.7622 0.7650 0.7668 0.7689
1626.000000 0.7702 0.7712 0.7732 0.7744 0.7765
1621.000000 0.7774 0.7779 0.7790 0.7802 0.7812
1616.000000 0.7826 0.7840 0.7855 0.7867 0.7876
1611.000000 0.7889 0.7888 0.7886 0.7883 0.7871
1606.000000 0.7877 0.7837 0.7834 0.7811 0.7802
1601.000000 0.7767 0.7768 0.7760 0.7758 0.7741
1596.000000 0.7717 0.7680 0.7625 0.7576 0.7557
1591.000000 0.7552 0.7523 0.7505 0.7464 0.7349
1586.000000 0.7222 0.7195 0.7222 0.7250 0.7251
1581.000000 0.7258 0.7259 0.7261 0.7251 0.7246
1576.000000 0.7232 0.7223 0.7219 0.7197 0.7168
1571.000000 0.7158 0.7111 0.7071 0.7027 0.6990
1566.000000 0.6953 0.6927 0.6911 0.6886 0.6834
1561.000000 0.6791 0.6762 0.6677 0.6640 0.6622
1556.000000 0.6653 0.6727 0.6790 0.6847 0.6910
1551.000000 0.6953 0.7006 0.7176 0.7306 0.7422
1546.000000 0.7534 0.7606 0.7659 0.7705 0.7739
1541.000000 0.7746 0.7751 0.7743 0.7733 0.7700
1536.000000 0.7699 0.7721 0.7713 0.7705 0.7702
1531.000000 0.7696 0.7694 0.7701 0.7714 0.7712
1526.000000 0.7710 0.7712 0.7723 0.7725 0.7736
1521.000000 0.7737 0.7749 0.7760 0.7762 0.7775
1516.000000 0.7784 0.7787 0.7796 0.7798 0.7803
1511.000000 0.7802 0.7804 0.7808 0.7798 0.7788
1506.000000 0.7777 0.7766 0.7761 0.7753 0.7735
1501.000000 0.7720 0.7704 0.7681 0.7656 0.7625
1496.000000 0.7596 0.7576 0.7533 0.7483 0.7433
1491.000000 0.7363 0.7302 0.7257 0.7222 0.7205
1486.000000 0.7192 0.7180 0.7170 0.7163 0.7144
1481.000000 0.7110 0.7053 0.6980 0.6867 0.6756
1476.000000 0.6465 0.6261 0.6041 0.5810 0.5579
1471.000000 0.5034 0.4268 0.3502 0.2591 0.2579
1466.000000 0.2584 0.2639 0.2667 0.2684 0.2681
1461.000000 0.2682 0.2686 0.2696 0.2749 0.2809
1456.000000 0.2873 0.2947 0.3020 0.3095 0.3193
1451.000000 0.3298 0.3476 0.3500 0.3525 0.3521
1446.000000 0.3509 0.3487 0.3443 0.3391 0.3334
1441.000000 0.3277 0.3204 0.3135 0.3075 0.3032
1436.000000 0.2989 0.2948 0.2908 0.2875 0.2844
1431.000000 0.2825 0.2804 0.2785 0.2762 0.2722
1426.000000 0.2683 0.2642 0.2588 0.2536 0.2456
1421.000000 0.2350 0.2198 0.2002 0.1903 0.1808
1416.000000 0.1730 0.1654 0.1579 0.1589 0.1552
1411.000000 0.1554 0.1568 0.1626 0.1766 0.1917
1406.000000 0.2152 0.2325 0.2640 0.3082 0.3524
1401.000000 0.3966 0.4407 0.4822 0.5023 0.5940
1396.000000 0.6053 0.6132 0.6206 0.6265 0.6311
1391.000000 0.6358 0.6416 0.6468 0.6483 0.6518
1386.000000 0.6525 0.6530 0.6512 0.6468 0.6395
1381.000000 0.6135 0.5703 0.5280 0.5266 0.5265
1376.000000 0.5454 0.5731 0.6013 0.6293 0.6575
1371.000000 0.6671 0.6717 0.6743 0.6764 0.6765
1366.000000 0.6766 0.6766 0.6747 0.6727 0.6697
1361.000000 0.6664 0.6632 0.6595 0.6555 0.6516
1356.000000 0.6460 0.6406 0.6352 0.6299 0.6247
1351.000000 0.6198 0.6151 0.6101 0.6049 0.5993
1346.000000 0.5915 0.5829 0.5747 0.5666 0.5581
1341.000000 0.5507 0.5421 0.5337 0.5255 0.5173
1336.000000 0.5091 0.5009 0.4928 0.4846 0.4764
1331.000000 0.4682 0.4600 0.4513 0.4431 0.4350
1326.000000 0.4267 0.4181 0.4099 0.4017 0.3932
1321.000000 0.3850 0.3768 0.3687 0.3605 0.3526
1316.000000 0.3446 0.3365 0.3283 0.3201 0.3120
1311.000000 0.3038 0.2956 0.2874 0.2793 0.2711
1306.000000 0.2458 0.2357 0.2277 0.2207 0.2165
1301.000000 0.2122 0.2082 0.2046 0.2009 0.1976
1296.000000 0.1943 0.1910 0.1878 0.1848 0.1817
1291.000000 0.1796 0.1775 0.1762 0.1753 0.1743
1286.000000 0.1743 0.1744 0.1746 0.1749 0.1753
1281.000000 0.1763 0.1770 0.1777 0.1785 0.1802
1276.000000 0.1827 0.1868 0.1917 0.1965 0.2048
1271.000000 0.2145 0.2241 0.2339 0.2435 0.2534
1266.000000 0.2632 0.2730 0.2828 0.2927 0.3024
1261.000000 0.3122 0.3214 0.3257 0.3296 0.3318
1256.000000 0.3307 0.3299 0.3262 0.3219 0.3154
1251.000000 0.3056 0.2944 0.2833 0.2721 0.2610
1246.000000 0.2498 0.2416 0.2383 0.2358 0.2341
1241.000000 0.2323 0.2310 0.2304 0.2301 0.2298
1236.000000 0.2298 0.2297 0.2310 0.2326 0.2363
1231.000000 0.2404 0.2486 0.2589 0.2682 0.2789
1226.000000 0.2964 0.3259 0.3384 0.3508 0.3633
1221.000000 0.3757 0.3882 0.4007 0.4131 0.4256
1216.000000 0.4353 0.4394 0.4393 0.4413 0.4392
1211.000000 0.4338 0.4241 0.4144 0.4047 0.3994
1206.000000 0.3972 0.3977 0.3988 0.4003 0.4121
1201.000000 0.4240 0.4318 0.4394 0.4506 0.4648
1196.000000 0.4791 0.4934 0.5078 0.5226 0.5370
1191.000000 0.5513 0.5608 0.5651 0.5678 0.5694
1186.000000 0.5700 0.5703 0.5706 0.5703 0.5696
1181.000000 0.5689 0.5694 0.5697 0.5706 0.5713
1176.000000 0.5727 0.5745 0.5763 0.5800 0.5836
1171.000000 0.5895 0.5959 0.6029 0.6104 0.6196
1166.000000 0.6278 0.6359 0.6440 0.6522 0.6604
1161.000000 0.6686 0.6766 0.6848 0.6929 0.7011
1156.000000 0.7093 0.7175 0.7255 0.7337 0.7418
1151.000000 0.7474 0.7501 0.7530 0.7550 0.7572
1146.000000 0.7593 0.7607 0.7625 0.7631 0.7646
1141.000000 0.7654 0.7661 0.7678 0.7688 0.7694
1136.000000 0.7695 0.7700 0.7696 0.7677 0.7667
1131.000000 0.7655 0.7638 0.7598 0.7556 0.7497
1126.000000 0.7383 0.7319 0.7253 0.7070 0.6888
1121.000000 0.6702 0.6514 0.6325 0.6136 0.5948
1116.000000 0.5815 0.5776 0.5744 0.5724 0.5715
1111.000000 0.5709 0.5692 0.5701 0.5703 0.5729
1106.000000 0.5745 0.5797 0.5857 0.5963 0.6126
1101.000000 0.6356 0.6586 0.6816 0.7045 0.7212
1096.000000 0.7275 0.7340 0.7396 0.7451 0.7501
1091.000000 0.7528 0.7555 0.7581 0.7609 0.7629
1086.000000 0.7645 0.7662 0.7678 0.7694 0.7709
1081.000000 0.7707 0.7711 0.7713 0.7706 0.7702
1076.000000 0.7684 0.7673 0.7663 0.7653 0.7647
1071.000000 0.7635 0.7623 0.7615 0.7612 0.7609
1066.000000 0.7608 0.7605 0.7612 0.7619 0.7634
1061.000000 0.7641 0.7649 0.7649 0.7667 0.7676
1056.000000 0.7676 0.7685 0.7693 0.7694 0.7694
1051.000000 0.7694 0.7699 0.7685 0.7672 0.7658
1046.000000 0.7645 0.7631 0.7616 0.7603 0.7591
1041.000000 0.7579 0.7565 0.7555 0.7542 0.7530
1036.000000 0.7516 0.7512 0.7506 0.7501 0.7497
1031.000000 0.7497 0.7487 0.7488 0.7494 0.7503
1026.000000 0.7512 0.7511 0.7515 0.7519 0.7522
1021.000000 0.7526 0.7530 0.7530 0.7526 0.7521
1016.000000 0.7517 0.7513 0.7507 0.7500 0.7494
1011.000000 0.7486 0.7479 0.7469 0.7447 0.7433
1006.000000 0.7420 0.7407 0.7383 0.7368 0.7355
1001.000000 0.7341 0.7326 0.7312 0.7294 0.7269
996.000000 0.7252 0.7236 0.7217 0.7202 0.7187
991.000000 0.7161 0.7131 0.7101 0.7069 0.7030
986.000000 0.6984 0.6940 0.6894 0.6849 0.6798
981.000000 0.6726 0.6652 0.6580 0.6495 0.6400
976.000000 0.6306 0.6210 0.6119 0.6035 0.5947
971.000000 0.5870 0.5783 0.5696 0.5610 0.5494
966.000000 0.5337 0.5198 0.5083 0.4965 0.4847
961.000000 0.4729 0.4610 0.4492 0.4374 0.4257
956.000000 0.4139 0.4021 0.3903 0.3785 0.3667
951.000000 0.3549 0.3430 0.3312 0.3194 0.3076
946.000000 0.2958 0.2840 0.2736 0.2656 0.2612
941.000000 0.2589 0.2583 0.2581 0.2581 0.2588
936.000000 0.2611 0.2634 0.2656 0.2680 0.2717
931.000000 0.2753 0.2788 0.2824 0.2877 0.2933
926.000000 0.2988 0.3049 0.3122 0.3195 0.3269
921.000000 0.3343 0.3416 0.3492 0.3568 0.3635
916.000000 0.3704 0.3768 0.3833 0.3897 0.3975
911.000000 0.4059 0.4141 0.4237 0.4370 0.4501
906.000000 0.4614 0.4707 0.4797 0.4876 0.4934
901.000000 0.4987 0.5045 0.5100 0.5159 0.5210
896.000000 0.5258 0.5306 0.5363 0.5413 0.5455
891.000000 0.5497 0.5539 0.5583 0.5630 0.5674
886.000000 0.5722 0.5767 0.5817 0.5865 0.5908
881.000000 0.5947 0.5983 0.6016 0.6048 0.6081
876.000000 0.6115 0.6149 0.6181 0.6217 0.6252
871.000000 0.6276 0.6299 0.6321 0.6344 0.6380
866.000000 0.6408 0.6437 0.6474 0.6522 0.6570
861.000000 0.6621 0.6674 0.6722 0.6789 0.6861
856.000000 0.6930 0.6988 0.7034 0.7071 0.7101
851.000000 0.7115 0.7126 0.7132 0.7188 0.7235
846.000000 0.7279 0.7330 0.7377 0.7394 0.7411
841.000000 0.7427 0.7452 0.7476 0.7492 0.7521
836.000000 0.7565 0.7612 0.7656 0.7693 0.7725
831.000000 0.7759 0.7795 0.7829 0.7852 0.7880
826.000000 0.7898 0.7915 0.7937 0.7953 0.7966
821.000000 0.7970 0.7978 0.7986 0.7992 0.7999
816.000000 0.8005 0.7988 0.7971 0.7953 0.7943
811.000000 0.7934 0.7917 0.7899 0.7870 0.7836
806.000000 0.7822 0.7812 0.7794 0.7777 0.7760
801.000000 0.7745 0.7740 0.7703 0.7731 0.7733
796.000000 0.7734 0.7738 0.7733 0.7746 0.7761
791.000000 0.7785 0.7792 0.7826 0.7865 0.7905
786.000000 0.7940 0.7972 0.8001 0.8011 0.8017
781.000000 0.8026 0.8033 0.8046 0.8055 0.8061
776.000000 0.8075 0.8086 0.8098 0.8104 0.8109
771.000000 0.8120 0.8130 0.8130 0.8133 0.8154
766.000000 0.8144 0.8140 0.8131 0.8123 0.8115
761.000000 0.8097 0.8072 0.8048 0.8020 0.7989
756.000000 0.7966 0.7953 0.7943 0.7937 0.7929
751.000000 0.7932 0.7936 0.7939 0.7944 0.7956
746.000000 0.7966 0.7968 0.7963 0.7956 0.7943
741.000000 0.7925 0.7909 0.7885 0.7860 0.7826
736.000000 0.7787 0.7749 0.7705 0.7604 0.7380
731.000000 0.7156 0.6940 0.6715 0.6492 0.6465
726.000000 0.6463 0.6469 0.6480 0.6617 0.6815
721.000000 0.7012 0.7206 0.7396 0.7584 0.7779
716.000000 0.7957 0.8017 0.8072 0.8120 0.8168
711.000000 0.8215 0.8261 0.8281 0.8313 0.8306
706.000000 0.8306 0.8293 0.8282 0.8279 0.8265
701.000000 0.8249 0.8240 0.8222 0.8204 0.8185
696.000000 0.8167 0.8153 0.8145 0.8133 0.8122
691.000000 0.8110 0.8100 0.8090 0.8086 0.8064
686.000000 0.8028 0.7991 0.7952 0.7919 0.7874
681.000000 0.7838 0.7822 0.7793 0.7788 0.7796
676.000000 0.7810 0.7825 0.7835 0.7867 0.7881
671.000000 0.7891 0.7917 0.7989 0.8037 0.7981
666.000000 0.7919 0.7903 0.7896 0.7874 0.7856
661.000000 0.7856 0.7858 0.7862 0.7866 0.7870
656.000000 0.7908 0.7929 0.7949 0.7967 0.7979
651.000000 0.7998 0.8007 0.8015 0.8022 0.8028
646.000000 0.8011 0.8000 0.7987 0.7970 0.7954
641.000000 0.7934 0.7912 0.7895 0.7873 0.7851
636.000000 0.7840 0.7826 0.7804 0.7813 0.7820
631.000000 0.7829 0.7853 0.7878 0.7896 0.7935
626.000000 0.7966 0.8005 0.8045 0.8074 0.8113
621.000000 0.8151 0.8190 0.8197 0.8207 0.8206
616.000000 0.8202 0.8189 0.8168 0.8146 0.8129
611.000000 0.8116 0.8105 0.8122 0.8138 0.8148
606.000000 0.8167 0.8204 0.8241 0.8278 0.8315
601.000000 0.8354 0.8393 0.8433 0.8473 0.8511
596.000000 0.8551 0.8582 0.8612 0.8641 0.8669
591.000000 0.8699 0.8726 0.8747 0.8769 0.8787
586.000000 0.8805 0.8829 0.8844 0.8860 0.8875
581.000000 0.8890 0.8906 0.8921 0.8935 0.8940
576.000000 0.8950 0.8963 0.8985 0.8999 0.9003
571.000000 0.9006 0.9009 0.9009 0.9009 0.8995
566.000000 0.8983 0.8978 0.8962 0.8939 0.8922
561.000000 0.8902 0.8884 0.8863 0.8845 0.8825
556.000000 0.8805 0.8781 0.8758 0.8740 0.8718
551.000000 0.8704 0.8690 0.8674 0.8656 0.8639
546.000000 0.8623 0.8605 0.8587 0.8571 0.8551
541.000000 0.8530 0.8510 0.8491 0.8479 0.8461
536.000000 0.8448 0.8424 0.8402 0.8389 0.8371
531.000000 0.8351 0.8333 0.8315 0.8295 0.8277
526.000000 0.8264 0.8249 0.8232 0.8216 0.8198
521.000000 0.8181 0.8165 0.8148 0.8131 0.8116
516.000000 0.8103 0.8089 0.8075 0.8059 0.8044
511.000000 0.8028 0.8013 0.7977 0.7934 0.7894
506.000000 0.7854 0.7815 0.7775 0.7734 0.7695
501.000000 0.7656 0.7611 0.7567 0.7522 0.7479
496.000000 0.7434 0.7391 0.7348 0.7306 0.7264
491.000000 0.7213 0.7160 0.7105 0.7023 0.6923
486.000000 0.6865 0.6817 0.6803 0.6802 0.6802
481.000000 0.6807 0.6815 0.6821 0.6827 0.6837
476.000000 0.6846 0.6856 0.6866 0.6876 0.6884
471.000000 0.6895 0.6901 0.6908 0.6915 0.6922
466.000000 0.6929 0.6934 0.6935 0.6935 0.6935
461.000000 0.6935 0.6924 0.6912 0.6901 0.6890
456.000000 0.6865 0.6814 0.6764 0.6715 0.6665
451.000000 0.6612 0.6554 0.6496 0.6439 0.6381
446.000000 0.6324 0.6270 0.6214 0.6158 0.6102
441.000000 0.6047 0.5993 0.5938 0.5883 0.5829
436.000000 0.5779 0.5730 0.5682 0.5634 0.5587
431.000000 0.5533 0.5352 0.5159 0.4965 0.4772
426.000000 0.4578 0.4384 0.4190 0.3995 0.3803
421.000000 0.3609 0.3416 0.3222 0.3029 0.2834
416.000000 0.2641 0.2447 0.2253 0.2163 0.2130
411.000000 0.2120 0.2118 0.2117 0.2120 0.2129
406.000000 0.2142 0.2154 0.2165 0.2179
##END=
