##TITLE=BORNEOL, EXO-
##JCAMP-DX=4.24
##DATA TYPE=INFRARED SPECTRUM
##CLASS=COBLENTZ III
##ORIGIN=WESTERN REGIONAL RES. USDA
##OWNER=COBLENTZ SOCIETY
Collection (C) 2018 copyright by the U.S. Secretary of Commerce
on behalf of the United States of America. All rights reserved.
##DATE=1966/11/02
##NAMES=1,7,7-trimethylbicyclo[2.2.1]heptan-2-ol
##CAS REGISTRY NO=124-76-5
##MOLFORM=C10 H18 O
##SOURCE REFERENCE=COBLENTZ NO. 10426
##$NIST SOURCE=COBLENTZ
##$NIST IMAGE=cob10426
##SPECTROMETER/DATA SYSTEM=CARY 90 (GRATING)
##INSTRUMENT PARAMETERS=GRATING CHANGES AT 3000, 2000, 1200 CM^-^1
##STATE=SOLUTION (10% IN CCl4 FOR 4000-1320, 10% IN CS2 FOR 1320-450 CM^-^1) VS. SOLVENT
##PATH LENGTH=0.010, 0.010 CM
##SAMPLING PROCEDURE=TRANSMISSION
##RESOLUTION=4
##DATA PROCESSING=DIGITIZED BY NIST FROM HARD COPY (FROM TWO SEGMENTS)
##XUNITS=1/CM
##YUNITS=TRANSMITTANCE
##XFACTOR=1.000000
##YFACTOR=1
##DELTAX=0.912724
##FIRSTX=468.454
##LASTX=3970.57
##FIRSTY=0.709
##MAXX=3970.57
##MINX=468.454
##MAXY=0.934
##MINY=0.009
##NPOINTS=3838
##XYDATA=(X++(Y..Y))
468.454000 0.7090 0.7090 0.7100 0.7100 0.7090
473.017618 0.7090 0.7100 0.7100 0.7120 0.7120
477.581236 0.7150 0.7170 0.7180 0.7180 0.7170
482.144853 0.7170 0.7170 0.7160 0.7150 0.7130
486.708471 0.7110 0.7080 0.7030 0.6960 0.6790
491.272089 0.6491 0.6201 0.6200 0.6319 0.6370
495.835707 0.6560 0.6830 0.7130 0.7180 0.7260
500.399324 0.7280 0.7290 0.7320 0.7330 0.7350
504.962942 0.7360 0.7380 0.7410 0.7420 0.7430
509.526560 0.7440 0.7450 0.7480 0.7490 0.7500
514.090178 0.7510 0.7520 0.7530 0.7540 0.7550
518.653795 0.7570 0.7580 0.7590 0.7600 0.7610
523.217413 0.7620 0.7630 0.7630 0.7650 0.7660
527.781031 0.7670 0.7680 0.7690 0.7690 0.7700
532.344649 0.7700 0.7700 0.7690 0.7660 0.7580
536.908267 0.7520 0.7440 0.7400 0.7231 0.7230
541.471884 0.7420 0.7520 0.7540 0.7670 0.7720
546.035502 0.7750 0.7770 0.7830 0.7850 0.7860
550.599120 0.7870 0.7900 0.7910 0.7920 0.7940
555.162738 0.7960 0.7970 0.7990 0.7990 0.8000
559.726355 0.8010 0.8010 0.8020 0.8020 0.8030
564.289973 0.8030 0.8040 0.8050 0.8070 0.8070
568.853591 0.8070 0.8080 0.8080 0.8080 0.8080
573.417209 0.8090 0.8090 0.8100 0.8100 0.8100
577.980826 0.8120 0.8120 0.8130 0.8130 0.8130
582.544444 0.8120 0.8110 0.8080 0.8050 0.8030
587.108062 0.8000 0.7990 0.7970 0.7960 0.7960
591.671680 0.7970 0.7990 0.8000 0.8010 0.8010
596.235297 0.8030 0.8040 0.8070 0.8080 0.8110
600.798915 0.8170 0.8210 0.8240 0.8260 0.8270
605.362533 0.8280 0.8300 0.8330 0.8330 0.8340
609.926151 0.8340 0.8340 0.8340 0.8340 0.8340
614.489769 0.8340 0.8340 0.8340 0.8330 0.8320
619.053386 0.8290 0.8220 0.8200 0.8190 0.8180
623.617004 0.8160 0.8140 0.8100 0.8050 0.7970
628.180622 0.7920 0.7830 0.7691 0.7670 0.7680
632.744240 0.7720 0.7750 0.7930 0.8000 0.8050
637.307857 0.8130 0.8190 0.8210 0.8220 0.8240
641.871475 0.8240 0.8250 0.8360 0.8380 0.8380
646.435093 0.8380 0.8370 0.8360 0.8280 0.8220
650.998711 0.8180 0.8140 0.8110 0.8090 0.7990
655.562328 0.7870 0.7691 0.7670 0.7690 0.7829
660.125946 0.7880 0.7930 0.8010 0.8080 0.8090
664.689564 0.8170 0.8210 0.8220 0.8240 0.8240
669.253182 0.8200 0.8170 0.8130 0.8110 0.8070
673.816800 0.8190 0.8300 0.8330 0.8350 0.8370
678.380417 0.8390 0.8420 0.8430 0.8440 0.8450
682.944035 0.8460 0.8470 0.8470 0.8490 0.8490
687.507653 0.8500 0.8500 0.8510 0.8510 0.8510
692.071271 0.8520 0.8520 0.8520 0.8530 0.8530
696.634888 0.8530 0.8540 0.8540 0.8540 0.8540
701.198506 0.8540 0.8540 0.8550 0.8550 0.8560
705.762124 0.8580 0.8590 0.8600 0.8600 0.8610
710.325742 0.8620 0.8620 0.8630 0.8630 0.8640
714.889359 0.8660 0.8660 0.8660 0.8660 0.8660
719.452977 0.8660 0.8640 0.8640 0.8620 0.8610
724.016595 0.8600 0.8550 0.8540 0.8500 0.8450
728.580213 0.8430 0.8410 0.8380 0.8410 0.8450
733.143830 0.8500 0.8550 0.8600 0.8630 0.8670
737.707448 0.8700 0.8740 0.8760 0.8780 0.8800
742.271066 0.8830 0.8840 0.8840 0.8860 0.8870
746.834684 0.8870 0.8880 0.8890 0.8890 0.8890
751.398302 0.8910 0.8910 0.8910 0.8920 0.8930
755.961919 0.8940 0.8960 0.8970 0.8970 0.8970
760.525537 0.8980 0.8980 0.8980 0.8980 0.8980
765.089155 0.8980 0.8970 0.8970 0.8970 0.8960
769.652773 0.8960 0.8940 0.8930 0.8920 0.8910
774.216390 0.8890 0.8890 0.8880 0.8880 0.8870
778.780008 0.8860 0.8850 0.8840 0.8810 0.8780
783.343626 0.8750 0.8690 0.8610 0.8530 0.8440
787.907244 0.8350 0.8250 0.7870 0.7860 0.7870
792.470861 0.8000 0.8050 0.8100 0.8210 0.8409
797.034479 0.8590 0.8660 0.8720 0.8800 0.8830
801.598097 0.8860 0.8880 0.8910 0.8930 0.8940
806.161715 0.8950 0.8950 0.8950 0.8960 0.8970
810.725333 0.8980 0.9000 0.9000 0.9010 0.9020
815.288950 0.9020 0.9030 0.9040 0.9040 0.9040
819.852568 0.9050 0.9050 0.9050 0.9050 0.9050
824.416186 0.9050 0.9040 0.9000 0.8970 0.8930
828.979804 0.8890 0.8870 0.8870 0.8830 0.8790
833.543421 0.8760 0.8710 0.8680 0.8630 0.8580
838.107039 0.8510 0.8430 0.8330 0.7772 0.7551
842.670657 0.7320 0.7080 0.6840 0.6840 0.7159
847.234275 0.7439 0.7500 0.7669 0.7859 0.8049
851.797892 0.8250 0.8340 0.8470 0.8490 0.8490
856.361510 0.8440 0.8250 0.7881 0.7462 0.7321
860.925128 0.7320 0.7450 0.7590 0.7820 0.7960
865.488746 0.8010 0.8050 0.8070 0.7901 0.7820
870.052363 0.7790 0.7800 0.7920 0.7990 0.8040
874.615981 0.8140 0.8240 0.8360 0.8519 0.8560
879.179599 0.8620 0.8670 0.8700 0.8740 0.8760
883.743217 0.8780 0.8800 0.8810 0.8830 0.8840
888.306835 0.8850 0.8860 0.8860 0.8870 0.8870
892.870452 0.8860 0.8860 0.8850 0.8840 0.8810
897.434070 0.8790 0.8770 0.8740 0.8720 0.8690
901.997688 0.8620 0.8530 0.8380 0.7872 0.7492
906.561306 0.7199 0.6709 0.5470 0.5330 0.5330
911.124923 0.5640 0.5860 0.6089 0.6230 0.6848
915.688541 0.7460 0.7680 0.7880 0.7960 0.8030
920.252159 0.8190 0.8270 0.8270 0.8240 0.8210
924.815777 0.8140 0.7940 0.7840 0.7590 0.7530
929.379394 0.7530 0.7600 0.7799 0.7910 0.8010
933.943012 0.8020 0.8070 0.8070 0.7900 0.7790
938.506630 0.7690 0.7500 0.7281 0.7021 0.6582
943.070248 0.6460 0.6460 0.6690 0.6700 0.6690
947.633866 0.6560 0.6420 0.6280 0.6150 0.6120
952.197483 0.6150 0.6420 0.6700 0.6920 0.7200
956.761101 0.7450 0.7610 0.7740 0.7820 0.7880
961.324719 0.7880 0.7820 0.7690 0.7540 0.7340
965.888337 0.7130 0.6930 0.6651 0.6351 0.6320
970.451954 0.6340 0.6390 0.6650 0.6900 0.7110
975.015572 0.7300 0.7420 0.7500 0.7590 0.7610
979.579190 0.7600 0.7570 0.7490 0.7420 0.7360
984.142808 0.7240 0.7060 0.6871 0.6571 0.5813
988.706425 0.5400 0.5280 0.5280 0.5400 0.5400
993.270043 0.5360 0.5001 0.3763 0.3351 0.2952
997.833661 0.2539 0.2090 0.2070 0.2070 0.2130
1002.397279 0.2230 0.2360 0.2530 0.2650 0.2869
1006.960896 0.3081 0.3380 0.3700 0.3990 0.4180
1011.524514 0.4370 0.4829 0.5079 0.5299 0.5649
1016.088132 0.5830 0.5990 0.6090 0.6190 0.6270
1020.651750 0.6390 0.6420 0.6590 0.6849 0.7099
1025.215368 0.7320 0.7400 0.7440 0.7520 0.7620
1029.778985 0.7630 0.7660 0.7680 0.7700 0.7740
1034.342603 0.7780 0.7820 0.7840 0.7870 0.7900
1038.906221 0.7920 0.7920 0.7940 0.7940 0.7930
1043.469839 0.7930 0.7920 0.7910 0.7900 0.7870
1048.033456 0.7780 0.7690 0.7580 0.7460 0.7370
1052.597074 0.7200 0.6960 0.6700 0.6420 0.5901
1057.160692 0.5690 0.5560 0.5391 0.5101 0.4921
1061.724310 0.3177 0.1180 0.0640 0.0320 0.0280
1066.287927 0.0280 0.0350 0.0679 0.1099 0.1359
1070.851545 0.1700 0.1890 0.2080 0.2510 0.2950
1075.415163 0.3349 0.3709 0.3850 0.4000 0.4179
1079.978781 0.4250 0.4260 0.4300 0.4670 0.4890
1084.542399 0.5070 0.5340 0.5649 0.5830 0.5999
1089.106016 0.6250 0.6440 0.6610 0.6710 0.6780
1093.669634 0.6780 0.6730 0.6690 0.6540 0.6460
1098.233252 0.6339 0.5860 0.5590 0.5250 0.4990
1102.796870 0.4671 0.4371 0.3981 0.3990 0.4050
1107.360487 0.4090 0.4310 0.4600 0.4930 0.5300
1111.924105 0.5650 0.5830 0.6010 0.6349 0.6649
1116.487723 0.6910 0.7100 0.7200 0.7370 0.7510
1121.051341 0.7610 0.7680 0.7740 0.7780 0.7800
1125.614958 0.7820 0.7830 0.7840 0.7850 0.7860
1130.178576 0.7870 0.7870 0.7870 0.7880 0.7880
1134.742194 0.7880 0.7880 0.7900 0.7910 0.7910
1139.305812 0.7940 0.7960 0.7990 0.8000 0.8000
1143.869429 0.8010 0.8010 0.8010 0.8010 0.8020
1148.433047 0.8030 0.8030 0.8030 0.8020 0.8010
1152.996665 0.8000 0.7990 0.7970 0.7950 0.7930
1157.560283 0.7910 0.7880 0.7860 0.7840 0.7820
1162.123901 0.7790 0.7780 0.7770 0.7760 0.7760
1166.687518 0.7750 0.7740 0.7710 0.7690 0.7660
1171.251136 0.7630 0.7610 0.7590 0.7570 0.7550
1175.814754 0.7570 0.7590 0.7600 0.7680 0.7720
1180.378372 0.7790 0.7800 0.7780 0.7740 0.7610
1184.941989 0.7500 0.7410 0.7280 0.7120 0.6881
1189.505607 0.6599 0.5810 0.5640 0.5640 0.5840
1194.069225 0.6030 0.6240 0.6270 0.6290 0.6290
1198.632843 0.6270 0.6230 0.6230 0.6280 0.6370
1203.196460 0.6530 0.6840 0.6850 0.6830 0.6730
1207.760078 0.6620 0.6540 0.6310 0.5980 0.5820
1212.323696 0.5700 0.5550 0.5450 0.5450 0.5679
1216.887314 0.5740 0.5870 0.6010 0.6320 0.6570
1221.450932 0.6760 0.6770 0.6770 0.6740 0.6511
1226.014549 0.6400 0.6260 0.6160 0.5890 0.5860
1230.578167 0.5870 0.5970 0.6000 0.6020 0.6100
1235.141785 0.6170 0.6230 0.6330 0.6390 0.6480
1239.705403 0.6500 0.6510 0.6460 0.6430 0.6370
1244.269020 0.6310 0.6180 0.6150 0.5980 0.5890
1248.832638 0.5820 0.5780 0.5660 0.5520 0.5400
1253.396256 0.5400 0.5470 0.5550 0.5620 0.5680
1257.959874 0.5830 0.5970 0.6040 0.6110 0.6230
1262.523491 0.6330 0.6420 0.6520 0.6610 0.6650
1267.087109 0.6690 0.6740 0.6820 0.6830 0.6810
1271.650727 0.6780 0.6690 0.6450 0.6310 0.6230
1276.214345 0.6200 0.6190 0.6190 0.6180 0.6120
1280.777962 0.5990 0.5940 0.5940 0.6020 0.6090
1285.341580 0.6180 0.6290 0.6390 0.6440 0.6500
1289.905198 0.6560 0.6600 0.6640 0.6660 0.6670
1294.468816 0.6680 0.6710 0.6710 0.6740 0.6770
1299.032434 0.6810 0.6840 0.6910 0.6930 0.6940
1303.596051 0.6950 0.6940 0.6910 0.6611 0.6490
1308.159669 0.6360 0.6250 0.6120 0.6120 0.6170
1312.723287 0.6420 0.6760 0.7060 0.7240 0.7370
1317.286905 0.7520 0.7610 0.7680 0.7690 0.7690
1321.850522 0.7690 0.7680 0.7600 0.7440 0.7290
1326.414140 0.7170 0.7070 0.6960 0.6850 0.6750
1330.977758 0.6640 0.6500 0.6390 0.6310 0.6290
1335.541376 0.6310 0.6370 0.6440 0.6480 0.6520
1340.104993 0.6570 0.6650 0.6750 0.6830 0.6940
1344.668611 0.7040 0.7120 0.7190 0.7250 0.7320
1349.232229 0.7360 0.7420 0.7460 0.7520 0.7590
1353.795847 0.7660 0.7720 0.7760 0.7770 0.7780
1358.359465 0.7780 0.7790 0.7790 0.7790 0.7780
1362.923082 0.7650 0.7490 0.7330 0.7100 0.6860
1367.486700 0.5551 0.3722 0.3720 0.3900 0.3990
1372.050318 0.4080 0.4262 0.5411 0.5810 0.6000
1376.613936 0.6190 0.6590 0.6919 0.7149 0.7399
1381.177553 0.7590 0.7630 0.7630 0.7600 0.7430
1385.741171 0.7200 0.5821 0.4642 0.3901 0.3900
1390.304789 0.4010 0.4130 0.4251 0.4911 0.5640
1394.868407 0.5890 0.6120 0.6520 0.6839 0.7079
1399.432024 0.7270 0.7410 0.7520 0.7600 0.7680
1403.995642 0.7760 0.7850 0.7950 0.7960 0.7970
1408.559260 0.7960 0.7950 0.7950 0.7950 0.7960
1413.122878 0.7990 0.8000 0.8010 0.8010 0.8020
1417.686495 0.8040 0.8040 0.8050 0.8070 0.8090
1422.250113 0.8100 0.8110 0.8110 0.8120 0.8120
1426.813731 0.8120 0.8120 0.8120 0.8110 0.8080
1431.377349 0.8050 0.8000 0.7960 0.7940 0.7830
1435.940967 0.7780 0.7720 0.7660 0.7580 0.7510
1440.504584 0.7410 0.7320 0.7180 0.7010 0.6810
1445.068202 0.6600 0.6410 0.6230 0.5970 0.5890
1449.631820 0.5800 0.5620 0.5450 0.3904 0.3541
1454.195438 0.2789 0.2400 0.2400 0.2500 0.2660
1458.759055 0.2920 0.3430 0.3700 0.3910 0.4219
1463.322673 0.4521 0.5031 0.5300 0.5550 0.5750
1467.886291 0.5840 0.5900 0.5950 0.5970 0.5970
1472.449909 0.5940 0.5870 0.5749 0.5320 0.5130
1477.013526 0.4900 0.4680 0.4460 0.4460 0.4610
1481.577144 0.4790 0.4891 0.5281 0.5700 0.5940
1486.140762 0.6110 0.6270 0.6560 0.6820 0.7040
1490.704380 0.7250 0.7430 0.7600 0.7750 0.7940
1495.267998 0.8010 0.8070 0.8140 0.8240 0.8320
1499.831615 0.8370 0.8440 0.8490 0.8540 0.8580
1504.395233 0.8610 0.8640 0.8680 0.8700 0.8720
1508.958851 0.8760 0.8780 0.8800 0.8830 0.8850
1513.522469 0.8870 0.8880 0.8890 0.8920 0.8930
1518.086086 0.8940 0.8950 0.8960 0.8970 0.8980
1522.649704 0.9000 0.9010 0.9010 0.9020 0.9030
1527.213322 0.9040 0.9050 0.9060 0.9080 0.9090
1531.776940 0.9100 0.9110 0.9120 0.9120 0.9130
1536.340557 0.9130 0.9130 0.9140 0.9140 0.9160
1540.904175 0.9160 0.9160 0.9170 0.9170 0.9180
1545.467793 0.9180 0.9180 0.9190 0.9190 0.9190
1550.031411 0.9190 0.9200 0.9200 0.9200 0.9200
1554.595028 0.9210 0.9210 0.9210 0.9210 0.9220
1559.158646 0.9220 0.9230 0.9230 0.9250 0.9250
1563.722264 0.9250 0.9260 0.9260 0.9260 0.9260
1568.285882 0.9250 0.9250 0.9230 0.9230 0.9220
1572.849500 0.9210 0.9210 0.9200 0.9200 0.9200
1577.413117 0.9200 0.9200 0.9200 0.9200 0.9200
1581.976735 0.9200 0.9200 0.9200 0.9210 0.9210
1586.540353 0.9210 0.9210 0.9220 0.9220 0.9220
1591.103971 0.9220 0.9220 0.9230 0.9250 0.9250
1595.667588 0.9250 0.9250 0.9250 0.9260 0.9260
1600.231206 0.9260 0.9260 0.9260 0.9260 0.9260
1604.794824 0.9260 0.9260 0.9260 0.9260 0.9250
1609.358442 0.9250 0.9250 0.9230 0.9230 0.9230
1613.922059 0.9220 0.9220 0.9220 0.9210 0.9200
1618.485677 0.9200 0.9190 0.9190 0.9190 0.9180
1623.049295 0.9180 0.9180 0.9170 0.9170 0.9170
1627.612913 0.9160 0.9160 0.9160 0.9160 0.9160
1632.176531 0.9160 0.9170 0.9170 0.9170 0.9180
1636.740148 0.9180 0.9180 0.9180 0.9190 0.9190
1641.303766 0.9190 0.9200 0.9200 0.9200 0.9200
1645.867384 0.9210 0.9210 0.9210 0.9210 0.9210
1650.431002 0.9220 0.9220 0.9220 0.9220 0.9220
1654.994619 0.9220 0.9230 0.9230 0.9230 0.9230
1659.558237 0.9230 0.9230 0.9230 0.9250 0.9250
1664.121855 0.9250 0.9250 0.9250 0.9250 0.9260
1668.685473 0.9260 0.9260 0.9260 0.9260 0.9260
1673.249090 0.9260 0.9260 0.9260 0.9260 0.9260
1677.812708 0.9260 0.9260 0.9260 0.9260 0.9260
1682.376326 0.9260 0.9260 0.9260 0.9270 0.9270
1686.939944 0.9270 0.9280 0.9280 0.9280 0.9280
1691.503561 0.9280 0.9280 0.9280 0.9280 0.9280
1696.067179 0.9280 0.9280 0.9280 0.9280 0.9280
1700.630797 0.9280 0.9280 0.9280 0.9280 0.9280
1705.194415 0.9280 0.9280 0.9280 0.9280 0.9280
1709.758033 0.9290 0.9290 0.9290 0.9290 0.9290
1714.321650 0.9290 0.9290 0.9290 0.9300 0.9300
1718.885268 0.9300 0.9300 0.9310 0.9310 0.9310
1723.448886 0.9310 0.9310 0.9310 0.9310 0.9310
1728.012504 0.9310 0.9310 0.9310 0.9310 0.9310
1732.576121 0.9310 0.9310 0.9310 0.9310 0.9310
1737.139739 0.9310 0.9300 0.9300 0.9300 0.9300
1741.703357 0.9300 0.9300 0.9300 0.9300 0.9300
1746.266975 0.9300 0.9300 0.9310 0.9310 0.9310
1750.830592 0.9310 0.9310 0.9330 0.9330 0.9330
1755.394210 0.9330 0.9330 0.9330 0.9330 0.9340
1759.957828 0.9340 0.9340 0.9340 0.9340 0.9340
1764.521446 0.9340 0.9340 0.9340 0.9340 0.9340
1769.085064 0.9330 0.9330 0.9330 0.9330 0.9330
1773.648681 0.9330 0.9310 0.9310 0.9310 0.9310
1778.212299 0.9310 0.9310 0.9310 0.9310 0.9310
1782.775917 0.9310 0.9310 0.9310 0.9310 0.9310
1787.339535 0.9310 0.9310 0.9310 0.9310 0.9310
1791.903152 0.9310 0.9330 0.9330 0.9330 0.9330
1796.466770 0.9330 0.9330 0.9330 0.9330 0.9330
1801.030388 0.9330 0.9330 0.9330 0.9330 0.9330
1805.594006 0.9330 0.9330 0.9330 0.9330 0.9330
1810.157623 0.9330 0.9330 0.9330 0.9330 0.9330
1814.721241 0.9330 0.9310 0.9310 0.9310 0.9310
1819.284859 0.9310 0.9310 0.9310 0.9310 0.9310
1823.848477 0.9310 0.9310 0.9300 0.9300 0.9300
1828.412094 0.9300 0.9290 0.9290 0.9290 0.9280
1832.975712 0.9280 0.9280 0.9280 0.9270 0.9270
1837.539330 0.9270 0.9260 0.9260 0.9260 0.9260
1842.102948 0.9250 0.9250 0.9250 0.9250 0.9250
1846.666566 0.9250 0.9250 0.9260 0.9260 0.9260
1851.230183 0.9260 0.9270 0.9270 0.9270 0.9270
1855.793801 0.9280 0.9280 0.9280 0.9280 0.9290
1860.357419 0.9290 0.9290 0.9290 0.9300 0.9300
1864.921037 0.9300 0.9300 0.9300 0.9300 0.9300
1869.484654 0.9300 0.9300 0.9300 0.9300 0.9290
1874.048272 0.9300 0.9300 0.9300 0.9300 0.9300
1878.611890 0.9300 0.9300 0.9300 0.9300 0.9300
1883.175508 0.9300 0.9300 0.9300 0.9290 0.9290
1887.739125 0.9290 0.9290 0.9290 0.9290 0.9290
1892.302743 0.9290 0.9290 0.9290 0.9290 0.9290
1896.866361 0.9280 0.9280 0.9280 0.9280 0.9280
1901.429979 0.9280 0.9280 0.9280 0.9280 0.9280
1905.993597 0.9280 0.9280 0.9280 0.9280 0.9280
1910.557214 0.9280 0.9280 0.9280 0.9280 0.9280
1915.120832 0.9280 0.9280 0.9280 0.9280 0.9280
1919.684450 0.9280 0.9280 0.9280 0.9280 0.9280
1924.248068 0.9270 0.9270 0.9270 0.9270 0.9270
1928.811685 0.9270 0.9270 0.9270 0.9270 0.9270
1933.375303 0.9270 0.9270 0.9270 0.9270 0.9270
1937.938921 0.9270 0.9270 0.9270 0.9270 0.9270
1942.502539 0.9270 0.9270 0.9270 0.9270 0.9270
1947.066156 0.9260 0.9260 0.9260 0.9260 0.9260
1951.629774 0.9260 0.9260 0.9260 0.9260 0.9260
1956.193392 0.9260 0.9260 0.9260 0.9260 0.9260
1960.757010 0.9260 0.9260 0.9260 0.9260 0.9260
1965.320627 0.9260 0.9260 0.9260 0.9260 0.9260
1969.884245 0.9260 0.9260 0.9260 0.9250 0.9250
1974.447863 0.9250 0.9250 0.9250 0.9250 0.9250
1979.011481 0.9250 0.9250 0.9250 0.9250 0.9250
1983.575099 0.9250 0.9250 0.9250 0.9250 0.9250
1988.138716 0.9250 0.9250 0.9250 0.9250 0.9250
1992.702334 0.9250 0.9250 0.9250 0.9250 0.9250
1997.265952 0.9250 0.9250 0.9250 0.9250 0.9250
2001.829570 0.9250 0.9250 0.9250 0.9250 0.9250
2006.393187 0.9250 0.9250 0.9250 0.9250 0.9250
2010.956805 0.9250 0.9250 0.9250 0.9250 0.9250
2015.520423 0.9250 0.9250 0.9250 0.9250 0.9250
2020.084041 0.9250 0.9250 0.9250 0.9250 0.9250
2024.647658 0.9250 0.9250 0.9250 0.9250 0.9250
2029.211276 0.9250 0.9250 0.9252 0.9257 0.9260
2033.774894 0.9260 0.9260 0.9260 0.9260 0.9260
2038.338512 0.9260 0.9260 0.9260 0.9260 0.9260
2042.902130 0.9260 0.9260 0.9260 0.9262 0.9267
2047.465747 0.9270 0.9270 0.9273 0.9278 0.9280
2052.029365 0.9280 0.9280 0.9280 0.9280 0.9280
2056.592983 0.9280 0.9280 0.9283 0.9288 0.9290
2061.156601 0.9290 0.9290 0.9290 0.9290 0.9290
2065.720218 0.9290 0.9290 0.9290 0.9290 0.9290
2070.283836 0.9290 0.9286 0.9281 0.9280 0.9280
2074.847454 0.9280 0.9280 0.9276 0.9271 0.9270
2079.411072 0.9270 0.9274 0.9279 0.9280 0.9280
2083.974689 0.9280 0.9280 0.9280 0.9280 0.9280
2088.538307 0.9280 0.9280 0.9280 0.9280 0.9280
2093.101925 0.9280 0.9280 0.9285 0.9290 0.9290
2097.665543 0.9290 0.9295 0.9300 0.9300 0.9300
2102.229160 0.9305 0.9310 0.9310 0.9310 0.9310
2106.792778 0.9310 0.9310 0.9309 0.9304 0.9300
2111.356396 0.9300 0.9299 0.9294 0.9289 0.9284
2115.920014 0.9279 0.9274 0.9269 0.9264 0.9260
2120.483632 0.9260 0.9260 0.9260 0.9261 0.9266
2125.047249 0.9270 0.9270 0.9270 0.9270 0.9272
2129.610867 0.9277 0.9280 0.9280 0.9280 0.9280
2134.174485 0.9282 0.9287 0.9290 0.9290 0.9290
2138.738103 0.9290 0.9290 0.9290 0.9290 0.9290
2143.301720 0.9290 0.9290 0.9287 0.9282 0.9280
2147.865338 0.9280 0.9280 0.9280 0.9277 0.9272
2152.428956 0.9270 0.9270 0.9270 0.9270 0.9270
2156.992574 0.9270 0.9270 0.9270 0.9273 0.9278
2161.556191 0.9280 0.9280 0.9284 0.9289 0.9290
2166.119809 0.9290 0.9294 0.9299 0.9300 0.9300
2170.683427 0.9300 0.9300 0.9304 0.9309 0.9310
2175.247045 0.9310 0.9310 0.9310 0.9310 0.9310
2179.810663 0.9310 0.9310 0.9310 0.9310 0.9310
2184.374280 0.9310 0.9310 0.9310 0.9310 0.9310
2188.937898 0.9310 0.9310 0.9320 0.9330 0.9330
2193.501516 0.9330 0.9330 0.9330 0.9330 0.9330
2198.065134 0.9330 0.9330 0.9330 0.9330 0.9330
2202.628751 0.9330 0.9330 0.9330 0.9330 0.9330
2207.192369 0.9330 0.9330 0.9330 0.9330 0.9330
2211.755987 0.9330 0.9330 0.9330 0.9330 0.9330
2216.319605 0.9330 0.9330 0.9330 0.9330 0.9330
2220.883222 0.9330 0.9330 0.9330 0.9330 0.9330
2225.446840 0.9330 0.9330 0.9330 0.9330 0.9330
2230.010458 0.9330 0.9330 0.9330 0.9330 0.9330
2234.574076 0.9330 0.9330 0.9330 0.9330 0.9330
2239.137693 0.9330 0.9330 0.9330 0.9330 0.9330
2243.701311 0.9330 0.9330 0.9330 0.9330 0.9330
2248.264929 0.9330 0.9330 0.9324 0.9314 0.9310
2252.828547 0.9310 0.9310 0.9310 0.9310 0.9310
2257.392165 0.9310 0.9310 0.9310 0.9310 0.9310
2261.955782 0.9310 0.9310 0.9310 0.9310 0.9310
2266.519400 0.9302 0.9292 0.9290 0.9290 0.9290
2271.083018 0.9290 0.9290 0.9290 0.9290 0.9290
2275.646636 0.9290 0.9290 0.9290 0.9290 0.9290
2280.210253 0.9290 0.9290 0.9290 0.9290 0.9290
2284.773871 0.9290 0.9290 0.9290 0.9290 0.9285
2289.337489 0.9280 0.9280 0.9280 0.9280 0.9280
2293.901107 0.9280 0.9280 0.9280 0.9280 0.9280
2298.464724 0.9280 0.9280 0.9280 0.9280 0.9279
2303.028342 0.9274 0.9270 0.9270 0.9270 0.9270
2307.591960 0.9270 0.9270 0.9270 0.9270 0.9270
2312.155578 0.9270 0.9270 0.9270 0.9270 0.9270
2316.719196 0.9270 0.9270 0.9270 0.9270 0.9270
2321.282813 0.9270 0.9270 0.9270 0.9270 0.9270
2325.846431 0.9270 0.9270 0.9270 0.9270 0.9270
2330.410049 0.9270 0.9270 0.9270 0.9270 0.9270
2334.973667 0.9272 0.9277 0.9280 0.9280 0.9280
2339.537284 0.9280 0.9280 0.9280 0.9280 0.9280
2344.100902 0.9280 0.9280 0.9283 0.9288 0.9290
2348.664520 0.9290 0.9290 0.9290 0.9290 0.9290
2353.228138 0.9290 0.9290 0.9290 0.9290 0.9293
2357.791755 0.9299 0.9300 0.9300 0.9300 0.9300
2362.355373 0.9300 0.9300 0.9300 0.9300 0.9300
2366.918991 0.9300 0.9300 0.9300 0.9300 0.9300
2371.482609 0.9300 0.9300 0.9300 0.9300 0.9300
2376.046226 0.9300 0.9295 0.9290 0.9290 0.9290
2380.609844 0.9290 0.9290 0.9285 0.9280 0.9280
2385.173462 0.9280 0.9280 0.9280 0.9280 0.9280
2389.737080 0.9275 0.9270 0.9270 0.9270 0.9270
2394.300698 0.9270 0.9265 0.9260 0.9260 0.9260
2398.864315 0.9260 0.9259 0.9254 0.9250 0.9250
2403.427933 0.9250 0.9250 0.9248 0.9238 0.9230
2407.991551 0.9230 0.9230 0.9230 0.9230 0.9230
2412.555169 0.9230 0.9230 0.9230 0.9230 0.9230
2417.118786 0.9230 0.9230 0.9230 0.9230 0.9230
2421.682404 0.9230 0.9230 0.9230 0.9230 0.9230
2426.246022 0.9230 0.9230 0.9230 0.9230 0.9230
2430.809640 0.9230 0.9230 0.9230 0.9230 0.9230
2435.373257 0.9230 0.9230 0.9230 0.9230 0.9230
2439.936875 0.9230 0.9230 0.9230 0.9230 0.9227
2444.500493 0.9222 0.9220 0.9220 0.9220 0.9220
2449.064111 0.9220 0.9220 0.9217 0.9212 0.9210
2453.627729 0.9210 0.9210 0.9210 0.9210 0.9210
2458.191346 0.9206 0.9201 0.9200 0.9200 0.9200
2462.754964 0.9200 0.9200 0.9200 0.9200 0.9200
2467.318582 0.9200 0.9200 0.9200 0.9200 0.9200
2471.882200 0.9200 0.9200 0.9200 0.9200 0.9200
2476.445817 0.9200 0.9200 0.9200 0.9200 0.9200
2481.009435 0.9200 0.9205 0.9210 0.9210 0.9210
2485.573053 0.9210 0.9210 0.9210 0.9210 0.9210
2490.136671 0.9210 0.9210 0.9210 0.9210 0.9210
2494.700288 0.9210 0.9210 0.9210 0.9210 0.9210
2499.263906 0.9210 0.9210 0.9210 0.9210 0.9211
2503.827524 0.9216 0.9220 0.9220 0.9221 0.9226
2508.391142 0.9230 0.9230 0.9230 0.9230 0.9230
2512.954759 0.9230 0.9230 0.9230 0.9230 0.9230
2517.518377 0.9228 0.9223 0.9220 0.9220 0.9218
2522.081995 0.9213 0.9208 0.9203 0.9200 0.9200
2526.645613 0.9198 0.9193 0.9190 0.9190 0.9187
2531.209231 0.9182 0.9180 0.9180 0.9180 0.9180
2535.772848 0.9180 0.9180 0.9180 0.9180 0.9183
2540.336466 0.9188 0.9190 0.9190 0.9190 0.9190
2544.900084 0.9193 0.9198 0.9200 0.9200 0.9200
2549.463702 0.9200 0.9200 0.9200 0.9204 0.9209
2554.027319 0.9210 0.9210 0.9210 0.9210 0.9210
2558.590937 0.9210 0.9210 0.9210 0.9210 0.9210
2563.154555 0.9210 0.9210 0.9206 0.9201 0.9200
2567.718173 0.9200 0.9200 0.9200 0.9195 0.9190
2572.281790 0.9190 0.9190 0.9190 0.9190 0.9185
2576.845408 0.9180 0.9180 0.9180 0.9180 0.9180
2581.409026 0.9180 0.9180 0.9180 0.9180 0.9175
2585.972644 0.9170 0.9170 0.9170 0.9170 0.9169
2590.536262 0.9164 0.9160 0.9160 0.9160 0.9160
2595.099879 0.9158 0.9148 0.9140 0.9140 0.9140
2599.663497 0.9140 0.9140 0.9140 0.9140 0.9140
2604.227115 0.9140 0.9140 0.9140 0.9140 0.9140
2608.790733 0.9140 0.9140 0.9140 0.9140 0.9140
2613.354350 0.9140 0.9140 0.9144 0.9154 0.9160
2617.917968 0.9160 0.9160 0.9160 0.9160 0.9160
2622.481586 0.9162 0.9167 0.9170 0.9170 0.9170
2627.045204 0.9170 0.9170 0.9170 0.9170 0.9170
2631.608821 0.9170 0.9170 0.9170 0.9170 0.9167
2636.172439 0.9162 0.9160 0.9160 0.9160 0.9160
2640.736057 0.9154 0.9143 0.9140 0.9140 0.9133
2645.299675 0.9123 0.9120 0.9120 0.9116 0.9111
2649.863292 0.9110 0.9110 0.9110 0.9110 0.9110
2654.426910 0.9110 0.9114 0.9119 0.9120 0.9120
2658.990528 0.9120 0.9120 0.9120 0.9120 0.9120
2663.554146 0.9120 0.9120 0.9120 0.9120 0.9120
2668.117764 0.9120 0.9120 0.9120 0.9120 0.9115
2672.681381 0.9110 0.9110 0.9110 0.9105 0.9100
2677.244999 0.9100 0.9100 0.9095 0.9090 0.9085
2681.808617 0.9080 0.9080 0.9080 0.9080 0.9079
2686.372235 0.9069 0.9060 0.9060 0.9060 0.9060
2690.935852 0.9060 0.9060 0.9059 0.9054 0.9049
2695.499470 0.9044 0.9040 0.9040 0.9039 0.9034
2700.063088 0.9029 0.9024 0.9020 0.9020 0.9019
2704.626706 0.9013 0.9005 0.8990 0.8977 0.8966
2709.190323 0.8955 0.8939 0.8928 0.8923 0.8918
2713.753941 0.8913 0.8906 0.8896 0.8886 0.8876
2718.317559 0.8868 0.8863 0.8844 0.8808 0.8773
2722.881177 0.8737 0.8707 0.8682 0.8635 0.8570
2727.444795 0.8535 0.8524 0.8517 0.8512 0.8513
2732.008412 0.8518 0.8523 0.8528 0.8536 0.8546
2736.572030 0.8560 0.8575 0.8583 0.8588 0.8597
2741.135648 0.8607 0.8614 0.8619 0.8627 0.8637
2745.699266 0.8647 0.8657 0.8664 0.8669 0.8670
2750.262883 0.8670 0.8674 0.8679 0.8684 0.8689
2754.826501 0.8690 0.8690 0.8690 0.8690 0.8690
2759.390119 0.8690 0.8690 0.8690 0.8681 0.8671
2763.953737 0.8670 0.8670 0.8656 0.8641 0.8626
2768.517354 0.8610 0.8595 0.8580 0.8555 0.8530
2773.080972 0.8525 0.8520 0.8520 0.8520 0.8531
2777.644590 0.8542 0.8567 0.8594 0.8640 0.8683
2782.208208 0.8714 0.8742 0.8757 0.8771 0.8782
2786.771825 0.8793 0.8813 0.8831 0.8836 0.8842
2791.335443 0.8852 0.8860 0.8860 0.8860 0.8860
2795.899061 0.8860 0.8860 0.8859 0.8854 0.8850
2800.462679 0.8850 0.8847 0.8837 0.8827 0.8817
2805.026297 0.8805 0.8790 0.8776 0.8766 0.8750
2809.589914 0.8725 0.8704 0.8689 0.8672 0.8651
2814.153532 0.8631 0.8611 0.8591 0.8570 0.8553
2818.717150 0.8538 0.8522 0.8507 0.8477 0.8431
2823.280768 0.8388 0.8348 0.8313 0.8283 0.8253
2827.844385 0.8223 0.8198 0.8178 0.8158 0.8137
2832.408003 0.8120 0.8105 0.8090 0.8075 0.8043
2836.971621 0.8003 0.7969 0.7939 0.7905 0.7870
2841.535239 0.7831 0.7791 0.7739 0.7684 0.7620
2846.098856 0.7555 0.7489 0.7424 0.7346 0.7264
2850.662474 0.7171 0.7075 0.6962 0.6846 0.6717
2855.226092 0.6586 0.6283 0.5955 0.5736 0.5529
2859.789710 0.5198 0.4855 0.4307 0.3742 0.3472
2864.353328 0.3220 0.2963 0.2706 0.2282 0.1858
2868.916945 0.1702 0.1547 0.1446 0.1345 0.1239
2873.480563 0.1135 0.1054 0.0975 0.0909 0.0847
2878.044181 0.0811 0.0779 0.0774 0.0771 0.0776
2882.607799 0.0785 0.0821 0.0867 0.0969 0.1070
2887.171416 0.1171 0.1266 0.1342 0.1415 0.1481
2891.735034 0.1543 0.1593 0.1645 0.1700 0.1757
2896.298652 0.1818 0.1868 0.1893 0.1916 0.1937
2900.862270 0.1948 0.1943 0.1927 0.1892 0.1854
2905.425887 0.1814 0.1774 0.1733 0.1687 0.1631
2909.989505 0.1576 0.1520 0.1472 0.1431 0.1391
2914.553123 0.1351 0.1310 0.1270 0.1227 0.1182
2919.116741 0.1136 0.1091 0.1034 0.0968 0.0894
2923.680358 0.0813 0.0759 0.0724 0.0688 0.0653
2928.243976 0.0624 0.0599 0.0571 0.0540 0.0517
2932.807594 0.0497 0.0480 0.0465 0.0453 0.0443
2937.371212 0.0436 0.0431 0.0423 0.0412 0.0395
2941.934830 0.0374 0.0358 0.0343 0.0324 0.0304
2946.498447 0.0267 0.0227 0.0203 0.0183 0.0146
2951.062065 0.0105 0.0096 0.0091 0.0090 0.0090
2955.625683 0.0095 0.0100 0.0114 0.0129 0.0164
2960.189301 0.0199 0.0229 0.0260 0.0290 0.0320
2964.752918 0.0421 0.0522 0.0643 0.0764 0.0880
2969.316536 0.0999 0.1170 0.1345 0.1556 0.1760
2973.880154 0.1870 0.1980 0.2082 0.2185 0.2291
2978.443772 0.2396 0.2497 0.2580 0.2580 0.2549
2983.007389 0.2382 0.2250 0.2250 0.2265 0.2330
2987.571007 0.2456 0.2774 0.3125 0.3574 0.3950
2992.134625 0.4131 0.4312 0.4490 0.4737 0.5125
2996.698243 0.5435 0.5597 0.5760 0.5926 0.6070
3001.261861 0.6176 0.6242 0.6247 0.6275 0.6335
3005.825478 0.6394 0.6449 0.6484 0.6495 0.6495
3010.389096 0.6485 0.6473 0.6457 0.6403 0.6313
3014.952714 0.6270 0.6270 0.6306 0.6371 0.6588
3019.516332 0.6921 0.7183 0.7395 0.7552 0.7674
3024.079949 0.7782 0.7883 0.7949 0.7994 0.8039
3028.643567 0.8085 0.8148 0.8219 0.8282 0.8343
3033.207185 0.8393 0.8438 0.8483 0.8529 0.8567
3037.770803 0.8602 0.8633 0.8664 0.8702 0.8742
3042.334420 0.8758 0.8768 0.8774 0.8779 0.8788
3046.898038 0.8799 0.8813 0.8828 0.8839 0.8849
3051.461656 0.8855 0.8860 0.8869 0.8879 0.8894
3056.025274 0.8909 0.8920 0.8930 0.8940 0.8950
3060.588891 0.8955 0.8960 0.8965 0.8970 0.8985
3065.152509 0.9000 0.9005 0.9010 0.9010 0.9010
3069.716127 0.9016 0.9021 0.9026 0.9030 0.9030
3074.279745 0.9031 0.9036 0.9040 0.9040 0.9041
3078.843363 0.9046 0.9050 0.9050 0.9051 0.9056
3083.406980 0.9060 0.9060 0.9060 0.9060 0.9060
3087.970598 0.9060 0.9060 0.9060 0.9060 0.9060
3092.534216 0.9060 0.9060 0.9060 0.9060 0.9060
3097.097834 0.9060 0.9060 0.9060 0.9060 0.9060
3101.661451 0.9060 0.9060 0.9060 0.9060 0.9058
3106.225069 0.9053 0.9050 0.9050 0.9050 0.9050
3110.788687 0.9050 0.9050 0.9050 0.9050 0.9050
3115.352305 0.9050 0.9050 0.9050 0.9050 0.9050
3119.915922 0.9047 0.9042 0.9040 0.9040 0.9040
3124.479540 0.9040 0.9040 0.9040 0.9037 0.9031
3129.043158 0.9030 0.9030 0.9030 0.9030 0.9030
3133.606776 0.9030 0.9030 0.9030 0.9030 0.9030
3138.170394 0.9030 0.9030 0.9030 0.9030 0.9030
3142.734011 0.9030 0.9026 0.9021 0.9020 0.9020
3147.297629 0.9020 0.9020 0.9020 0.9020 0.9020
3151.861247 0.9020 0.9020 0.9020 0.9015 0.9010
3156.424865 0.9010 0.9010 0.9010 0.9010 0.9005
3160.988482 0.9000 0.9000 0.9000 0.9000 0.9000
3165.552100 0.9000 0.8999 0.8989 0.8980 0.8980
3170.115718 0.8980 0.8980 0.8979 0.8974 0.8970
3174.679336 0.8970 0.8970 0.8970 0.8970 0.8970
3179.242953 0.8970 0.8970 0.8970 0.8970 0.8969
3183.806571 0.8964 0.8960 0.8960 0.8960 0.8960
3188.370189 0.8958 0.8953 0.8950 0.8950 0.8948
3192.933807 0.8943 0.8940 0.8940 0.8938 0.8933
3197.497424 0.8930 0.8930 0.8928 0.8923 0.8920
3202.061042 0.8920 0.8920 0.8920 0.8918 0.8912
3206.624660 0.8910 0.8910 0.8905 0.8895 0.8890
3211.188278 0.8890 0.8887 0.8882 0.8880 0.8880
3215.751896 0.8877 0.8872 0.8870 0.8870 0.8870
3220.315513 0.8870 0.8867 0.8862 0.8860 0.8860
3224.879131 0.8856 0.8851 0.8850 0.8850 0.8846
3229.442749 0.8841 0.8840 0.8840 0.8836 0.8831
3234.006367 0.8830 0.8830 0.8822 0.8812 0.8810
3238.569984 0.8810 0.8806 0.8801 0.8796 0.8791
3243.133602 0.8786 0.8780 0.8771 0.8761 0.8755
3247.697220 0.8750 0.8745 0.8740 0.8725 0.8710
3252.260838 0.8705 0.8700 0.8690 0.8680 0.8675
3256.824455 0.8670 0.8665 0.8659 0.8644 0.8630
3261.388073 0.8625 0.8619 0.8609 0.8600 0.8600
3265.951691 0.8599 0.8594 0.8589 0.8584 0.8578
3270.515309 0.8568 0.8559 0.8554 0.8548 0.8538
3275.078927 0.8529 0.8524 0.8518 0.8507 0.8496
3279.642544 0.8481 0.8467 0.8457 0.8447 0.8437
3284.206162 0.8427 0.8417 0.8405 0.8390 0.8376
3288.769780 0.8366 0.8356 0.8346 0.8336 0.8326
3293.333398 0.8312 0.8291 0.8276 0.8266 0.8251
3297.897015 0.8231 0.8215 0.8205 0.8193 0.8177
3302.460633 0.8160 0.8139 0.8125 0.8115 0.8102
3307.024251 0.8087 0.8069 0.8048 0.8019 0.7984
3311.587869 0.7961 0.7946 0.7931 0.7916 0.7897
3316.151486 0.7877 0.7860 0.7845 0.7826 0.7806
3320.715104 0.7789 0.7774 0.7759 0.7744 0.7725
3325.278722 0.7705 0.7689 0.7673 0.7654 0.7634
3329.842340 0.7618 0.7603 0.7580 0.7554 0.7538
3334.405957 0.7522 0.7507 0.7492 0.7473 0.7452
3338.969575 0.7437 0.7421 0.7402 0.7382 0.7366
3343.533193 0.7351 0.7336 0.7321 0.7301 0.7280
3348.096811 0.7265 0.7250 0.7230 0.7210 0.7195
3352.660429 0.7180 0.7164 0.7149 0.7129 0.7109
3357.224046 0.7094 0.7079 0.7069 0.7058 0.7038
3361.787664 0.7018 0.7003 0.6987 0.6967 0.6950
3366.351282 0.6950 0.6948 0.6938 0.6928 0.6918
3370.914900 0.6907 0.6892 0.6878 0.6867 0.6857
3375.478517 0.6847 0.6837 0.6827 0.6815 0.6800
3380.042135 0.6787 0.6777 0.6768 0.6763 0.6756
3384.605753 0.6746 0.6738 0.6733 0.6724 0.6709
3389.169371 0.6698 0.6693 0.6686 0.6676 0.6668
3393.732988 0.6663 0.6655 0.6645 0.6635 0.6625
3398.296606 0.6615 0.6605 0.6595 0.6585 0.6577
3402.860224 0.6572 0.6562 0.6546 0.6537 0.6532
3407.423842 0.6524 0.6514 0.6507 0.6502 0.6494
3411.987460 0.6483 0.6470 0.6455 0.6447 0.6442
3416.551077 0.6436 0.6431 0.6426 0.6421 0.6416
3421.114695 0.6411 0.6406 0.6401 0.6396 0.6391
3425.678313 0.6382 0.6372 0.6370 0.6370 0.6366
3430.241931 0.6361 0.6356 0.6351 0.6346 0.6341
3434.805548 0.6336 0.6331 0.6325 0.6320 0.6315
3439.369166 0.6310 0.6301 0.6291 0.6285 0.6280
3443.932784 0.6275 0.6270 0.6265 0.6260 0.6260
3448.496402 0.6260 0.6255 0.6250 0.6245 0.6240
3453.060019 0.6235 0.6230 0.6230 0.6229 0.6224
3457.623637 0.6219 0.6209 0.6199 0.6194 0.6190
3462.187255 0.6190 0.6189 0.6184 0.6179 0.6174
3466.750873 0.6169 0.6164 0.6160 0.6160 0.6159
3471.314490 0.6154 0.6150 0.6150 0.6149 0.6143
3475.878108 0.6140 0.6140 0.6137 0.6127 0.6120
3480.441726 0.6120 0.6120 0.6120 0.6124 0.6134
3485.005344 0.6144 0.6154 0.6164 0.6174 0.6184
3489.568962 0.6195 0.6209 0.6229 0.6242 0.6247
3494.132579 0.6257 0.6273 0.6293 0.6318 0.6338
3498.696197 0.6353 0.6374 0.6399 0.6422 0.6442
3503.259815 0.6465 0.6490 0.6519 0.6549 0.6573
3507.823433 0.6593 0.6620 0.6650 0.6677 0.6702
3512.387050 0.6734 0.6769 0.6801 0.6831 0.6862
3516.950668 0.6892 0.6922 0.6953 0.6983 0.7014
3521.514286 0.7048 0.7083 0.7118 0.7154 0.7189
3526.077904 0.7224 0.7251 0.7276 0.7310 0.7345
3530.641521 0.7381 0.7416 0.7451 0.7487 0.7513
3535.205139 0.7538 0.7573 0.7608 0.7644 0.7679
3539.768757 0.7709 0.7740 0.7765 0.7790 0.7826
3544.332375 0.7861 0.7891 0.7921 0.7946 0.7971
3548.895993 0.7991 0.8011 0.8021 0.8032 0.8058
3553.459610 0.8083 0.8108 0.8134 0.8159 0.8183
3558.023228 0.8203 0.8224 0.8244 0.8264 0.8284
3562.586846 0.8304 0.8324 0.8343 0.8359 0.8372
3567.150464 0.8383 0.8394 0.8409 0.8423 0.8433
3571.714081 0.8442 0.8447 0.8452 0.8457 0.8465
3576.277699 0.8480 0.8490 0.8490 0.8492 0.8497
3580.841317 0.8498 0.8493 0.8486 0.8476 0.8468
3585.404935 0.8463 0.8453 0.8438 0.8421 0.8400
3589.968552 0.8373 0.8337 0.8291 0.8236 0.8151
3594.532170 0.8040 0.7951 0.7880 0.7804 0.7723
3599.095788 0.7631 0.7530 0.7389 0.7223 0.7091
3603.659406 0.6980 0.6773 0.6510 0.6222 0.5919
3608.223023 0.5670 0.5446 0.5344 0.5294 0.5152
3612.786641 0.4976 0.4848 0.4737 0.4679 0.4639
3617.350259 0.4630 0.4630 0.4930 0.5308 0.5531
3621.913877 0.5717 0.5846 0.5962 0.6158 0.6370
3626.477495 0.6584 0.6798 0.7037 0.7279 0.7558
3631.041112 0.7840 0.7912 0.7967 0.8027 0.8088
3635.604730 0.8148 0.8209 0.8240 0.8270 0.8315
3640.168348 0.8361 0.8437 0.8512 0.8567 0.8622
3644.731966 0.8668 0.8712 0.8743 0.8772 0.8792
3649.295583 0.8812 0.8833 0.8851 0.8856 0.8862
3653.859201 0.8872 0.8881 0.8886 0.8895 0.8920
3658.422819 0.8941 0.8946 0.8951 0.8956 0.8961
3662.986437 0.8966 0.8971 0.8976 0.8984 0.8999
3667.550054 0.9012 0.9017 0.9022 0.9027 0.9032
3672.113672 0.9037 0.9042 0.9047 0.9052 0.9057
3676.677290 0.9060 0.9060 0.9064 0.9074 0.9082
3681.240908 0.9087 0.9092 0.9097 0.9102 0.9107
3685.804526 0.9112 0.9118 0.9120 0.9120 0.9123
3690.368143 0.9128 0.9130 0.9130 0.9130 0.9130
3694.931761 0.9133 0.9138 0.9140 0.9140 0.9146
3699.495379 0.9156 0.9160 0.9160 0.9160 0.9160
3704.058997 0.9163 0.9168 0.9170 0.9170 0.9170
3708.622614 0.9170 0.9170 0.9170 0.9170 0.9170
3713.186232 0.9174 0.9179 0.9180 0.9180 0.9180
3717.749850 0.9180 0.9180 0.9180 0.9180 0.9180
3722.313468 0.9184 0.9189 0.9190 0.9190 0.9190
3726.877085 0.9190 0.9195 0.9200 0.9200 0.9200
3731.440703 0.9200 0.9200 0.9205 0.9210 0.9210
3736.004321 0.9210 0.9210 0.9210 0.9215 0.9220
3740.567939 0.9220 0.9220 0.9220 0.9220 0.9225
3745.131556 0.9230 0.9230 0.9230 0.9230 0.9230
3749.695174 0.9230 0.9230 0.9230 0.9230 0.9230
3754.258792 0.9230 0.9230 0.9230 0.9230 0.9230
3758.822410 0.9230 0.9233 0.9243 0.9250 0.9250
3763.386028 0.9250 0.9250 0.9250 0.9250 0.9250
3767.949645 0.9250 0.9250 0.9250 0.9250 0.9250
3772.513263 0.9250 0.9250 0.9250 0.9250 0.9250
3777.076881 0.9250 0.9250 0.9250 0.9252 0.9257
3781.640499 0.9260 0.9260 0.9260 0.9260 0.9260
3786.204116 0.9260 0.9260 0.9260 0.9260 0.9260
3790.767734 0.9263 0.9268 0.9270 0.9270 0.9270
3795.331352 0.9270 0.9270 0.9270 0.9270 0.9270
3799.894970 0.9270 0.9270 0.9273 0.9279 0.9280
3804.458587 0.9280 0.9280 0.9280 0.9280 0.9280
3809.022205 0.9280 0.9280 0.9280 0.9280 0.9280
3813.585823 0.9280 0.9280 0.9280 0.9280 0.9280
3818.149441 0.9280 0.9280 0.9280 0.9280 0.9280
3822.713059 0.9280 0.9280 0.9280 0.9280 0.9280
3827.276676 0.9280 0.9280 0.9280 0.9280 0.9280
3831.840294 0.9280 0.9280 0.9280 0.9280 0.9280
3836.403912 0.9275 0.9270 0.9270 0.9270 0.9270
3840.967530 0.9270 0.9270 0.9270 0.9270 0.9270
3845.531147 0.9270 0.9270 0.9270 0.9270 0.9270
3850.094765 0.9270 0.9270 0.9270 0.9270 0.9270
3854.658383 0.9270 0.9269 0.9264 0.9260 0.9260
3859.222001 0.9260 0.9260 0.9260 0.9260 0.9260
3863.785618 0.9260 0.9260 0.9260 0.9260 0.9260
3868.349236 0.9260 0.9260 0.9260 0.9260 0.9260
3872.912854 0.9260 0.9260 0.9260 0.9260 0.9260
3877.476472 0.9260 0.9260 0.9260 0.9260 0.9257
3882.040089 0.9252 0.9250 0.9250 0.9250 0.9250
3886.603707 0.9250 0.9250 0.9250 0.9250 0.9250
3891.167325 0.9250 0.9250 0.9250 0.9250 0.9250
3895.730943 0.9250 0.9250 0.9243 0.9233 0.9230
3900.294561 0.9230 0.9230 0.9230 0.9230 0.9230
3904.858178 0.9230 0.9230 0.9230 0.9230 0.9230
3909.421796 0.9230 0.9226 0.9221 0.9220 0.9220
3913.985414 0.9220 0.9220 0.9220 0.9220 0.9220
3918.549032 0.9220 0.9220 0.9220 0.9215 0.9210
3923.112649 0.9210 0.9210 0.9210 0.9210 0.9210
3927.676267 0.9210 0.9210 0.9210 0.9205 0.9200
3932.239885 0.9205 0.9210 0.9210 0.9210 0.9205
3936.803503 0.9200 0.9200 0.9200 0.9200 0.9200
3941.367120 0.9200 0.9199 0.9194 0.9190 0.9190
3945.930738 0.9190 0.9190 0.9190 0.9190 0.9189
3950.494356 0.9184 0.9180 0.9180 0.9180 0.9180
3955.057974 0.9180 0.9180 0.9178 0.9173 0.9170
3959.621592 0.9170 0.9170 0.9170 0.9168 0.9163
3964.185209 0.9160 0.9160 0.9160 0.9160 0.9160
3968.748827 0.9160 0.9160 0.9160
##END=
