##TITLE=PROPENENITRILE, 2-METHYL
##JCAMP-DX=4.24
##DATA TYPE=INFRARED SPECTRUM
##CLASS=COBLENTZ III
##ORIGIN=STANDARD OIL OF OHIO
##OWNER=COBLENTZ SOCIETY
Collection (C) 2018 copyright by the U.S. Secretary of Commerce
on behalf of the United States of America. All rights reserved.
##DATE=Not specified, most likely prior to 1970
##NAMES=2-methylacrylonitrile
METHACRYLONITRILE
##CAS REGISTRY NO=126-98-7
##MOLFORM=C4 H5 N
##MP=86 C
##SOURCE REFERENCE=COBLENTZ NO. 4346
##$NIST SOURCE=COBLENTZ
##$NIST IMAGE=cob4346
##SPECTROMETER/DATA SYSTEM=PERKIN-ELMER 521 (GRATING)
##STATE=LIQUID (NEAT)
$$ FRESHLY DISTILLED
##PATH LENGTH=0.003 CM
##SAMPLING PROCEDURE=TRANSMISSION
##RESOLUTION=4
##DATA PROCESSING=DIGITIZED BY NIST FROM HARD COPY
##XUNITS=1/CM
##YUNITS=TRANSMITTANCE
##XFACTOR=1.000000
##YFACTOR=1
##DELTAX=001.690005
##FIRSTX=609.85
##LASTX=3947.61
##FIRSTY=0.608
##MAXX=3947.61
##MINX=609.85
##MAXY=0.977
##MINY=0.01
##NPOINTS=1976
##XYDATA=(X++(Y..Y))
609.850000 0.6080 0.6160 0.6080 0.6160 0.6210
618.304305 0.6280 0.6320 0.6370 0.6420 0.6490
626.750000 0.6570 0.6670 0.6760 0.6830 0.6910
635.204305 0.6960 0.7010 0.7100 0.7200 0.7270
643.650000 0.7290 0.7320 0.7340 0.7350 0.7410
652.104305 0.7460 0.7510 0.7540 0.7590 0.7630
660.550000 0.7640 0.7640 0.7700 0.7780 0.7830
669.004305 0.7880 0.7900 0.7970 0.8000 0.8040
677.451000 0.8120 0.8190 0.8240 0.8310 0.8360
685.905305 0.8390 0.8430 0.8440 0.8460 0.8480
694.351000 0.8510 0.8530 0.8550 0.8560 0.8560
702.805305 0.8580 0.8600 0.8600 0.8600 0.8600
711.251000 0.8600 0.8580 0.8580 0.8560 0.8560
719.705305 0.8550 0.8510 0.8480 0.8390 0.8340
728.151000 0.8270 0.8190 0.8070 0.8020 0.7970
736.605305 0.7730 0.7560 0.7340 0.6960 0.6330
745.051000 0.5340 0.4490 0.4490 0.5110 0.6210
753.505305 0.7320 0.8070 0.8440 0.8560 0.8730
761.951000 0.8870 0.8990 0.9010 0.9020 0.9040
770.405305 0.9080 0.9110 0.9130 0.9140 0.9160
778.851000 0.9160 0.9180 0.9180 0.9180 0.9180
787.305305 0.9180 0.9180 0.9160 0.9160 0.9140
795.751000 0.9140 0.9130 0.9110 0.9090 0.9080
804.205305 0.9080 0.9060 0.9010 0.9010 0.8960
812.651000 0.8940 0.8920 0.8920 0.8940 0.8990
821.105305 0.9040 0.9180 0.9250 0.9310 0.9330
829.551000 0.9350 0.9350 0.9350 0.9350 0.9350
838.005305 0.9350 0.9350 0.9350 0.9330 0.9330
846.451000 0.9330 0.9330 0.9310 0.9300 0.9300
854.905305 0.9280 0.9260 0.9250 0.9190 0.9180
863.351000 0.9140 0.9130 0.9110 0.9040 0.9020
871.805305 0.9010 0.8990 0.8940 0.8900 0.8890
880.251000 0.8850 0.8800 0.8720 0.8630 0.8600
888.705305 0.8530 0.8500 0.8380 0.8270 0.8160
897.151000 0.8000 0.7870 0.7660 0.7470 0.7270
905.605305 0.7060 0.6670 0.6600 0.6200 0.5460
914.051000 0.4970 0.4490 0.3850 0.3200 0.2600
922.505305 0.2010 0.0910 0.0570 0.0280 0.0130
930.951000 0.0100 0.0100 0.0100 0.0100 0.0110
939.405305 0.0170 0.0220 0.0250 0.0370 0.0490
947.851000 0.0660 0.0810 0.1100 0.1390 0.1950
956.305305 0.2580 0.2870 0.3540 0.3980 0.4540
964.751000 0.4990 0.5310 0.5670 0.6010 0.6330
973.205305 0.6710 0.6910 0.7130 0.7340 0.7490
981.651000 0.7680 0.7780 0.7920 0.8000 0.8020
990.105305 0.8020 0.8020 0.8000 0.8000 0.7900
998.551000 0.7800 0.7630 0.7590 0.7580 0.7220
1007.005305 0.6890 0.6490 0.5430 0.4970 0.4240
1015.451000 0.4070 0.4070 0.4100 0.4410 0.4850
1023.905305 0.5450 0.5770 0.6080 0.6660 0.7240
1032.352000 0.7540 0.7800 0.7970 0.8000 0.8040
1040.806305 0.8040 0.8040 0.8040 0.8050 0.8070
1049.252000 0.8120 0.8360 0.8600 0.8840 0.8920
1057.706305 0.8990 0.9040 0.9110 0.9140 0.9180
1066.152000 0.9210 0.9260 0.9280 0.9300 0.9330
1074.606305 0.9360 0.9400 0.9420 0.9430 0.9470
1083.052000 0.9470 0.9480 0.9500 0.9500 0.9500
1091.506305 0.9500 0.9520 0.9520 0.9520 0.9520
1099.952000 0.9520 0.9520 0.9520 0.9520 0.9520
1108.406305 0.9520 0.9520 0.9520 0.9540 0.9540
1116.852000 0.9540 0.9540 0.9540 0.9540 0.9540
1125.306305 0.9540 0.9540 0.9540 0.9540 0.9540
1133.752000 0.9540 0.9550 0.9550 0.9550 0.9550
1142.206305 0.9550 0.9550 0.9550 0.9540 0.9540
1150.652000 0.9500 0.9450 0.9420 0.9380 0.9360
1159.106305 0.9330 0.9260 0.9230 0.9210 0.9210
1167.552000 0.9230 0.9250 0.9280 0.9310 0.9350
1176.006305 0.9380 0.9420 0.9430 0.9430 0.9450
1184.452000 0.9450 0.9450 0.9450 0.9430 0.9430
1192.906305 0.9420 0.9400 0.9400 0.9380 0.9360
1201.352000 0.9310 0.9300 0.9280 0.9260 0.9190
1209.806305 0.9160 0.9090 0.9040 0.9020 0.9010
1218.252000 0.9010 0.9010 0.8990 0.8990 0.8990
1226.706305 0.8990 0.8970 0.8960 0.8940 0.8920
1235.152000 0.8870 0.8800 0.8790 0.8750 0.8730
1243.606305 0.8700 0.8670 0.8620 0.8560 0.8480
1252.052000 0.8240 0.7680 0.7540 0.6860 0.5340
1260.506305 0.5110 0.3040 0.2400 0.1900 0.1900
1268.952000 0.3440 0.5000 0.5570 0.6110 0.6980
1277.406305 0.7510 0.8000 0.8270 0.8480 0.8550
1285.852000 0.8680 0.8770 0.8850 0.8900 0.8900
1294.306305 0.8960 0.8970 0.9010 0.9020 0.9020
1302.752000 0.9020 0.9020 0.9020 0.9020 0.9020
1311.206305 0.9010 0.9010 0.8990 0.8960 0.8960
1319.652000 0.8900 0.8890 0.8850 0.8820 0.8770
1328.106305 0.8750 0.8750 0.8750 0.8750 0.8750
1336.552000 0.8750 0.8750 0.8750 0.8750 0.8750
1345.006305 0.8750 0.8750 0.8750 0.8730 0.8720
1353.452000 0.8670 0.8630 0.8580 0.8530 0.8500
1361.906305 0.8380 0.8190 0.8090 0.8000 0.7730
1370.353000 0.7490 0.7010 0.6490 0.4830 0.3780
1378.807305 0.2350 0.1940 0.1940 0.2330 0.3560
1387.253000 0.4560 0.5570 0.5890 0.5890 0.5910
1395.707305 0.5910 0.5860 0.5620 0.5220 0.5050
1404.153000 0.4950 0.4920 0.4940 0.5000 0.5090
1412.607305 0.5160 0.5160 0.5000 0.4770 0.4490
1421.053000 0.4310 0.3960 0.3450 0.3390 0.3390
1429.507305 0.3470 0.3490 0.3490 0.3320 0.3010
1437.953000 0.2930 0.2530 0.2120 0.1460 0.0780
1446.407305 0.0660 0.0350 0.0350 0.0610 0.0950
1454.853000 0.1650 0.2330 0.2360 0.2620 0.3040
1463.307305 0.3930 0.4220 0.4440 0.4650 0.5000
1471.753000 0.5460 0.5480 0.5500 0.5670 0.5720
1480.207305 0.5960 0.6260 0.6470 0.6660 0.7000
1488.653000 0.7340 0.7470 0.7510 0.7520 0.7710
1497.107305 0.8020 0.8100 0.8140 0.8240 0.8480
1505.553000 0.8600 0.8630 0.8650 0.8680 0.8700
1514.007305 0.8720 0.8750 0.8770 0.8790 0.8790
1522.453000 0.8790 0.8790 0.8790 0.8770 0.8770
1530.907305 0.8770 0.8770 0.8750 0.8730 0.8720
1539.353000 0.8700 0.8700 0.8700 0.8700 0.8700
1547.807305 0.8680 0.8680 0.8680 0.8700 0.8700
1556.253000 0.8700 0.8700 0.8700 0.8700 0.8680
1564.707305 0.8680 0.8670 0.8670 0.8650 0.8630
1573.153000 0.8620 0.8600 0.8600 0.8580 0.8550
1581.607305 0.8510 0.8500 0.8500 0.8430 0.8390
1590.053000 0.8360 0.8310 0.8210 0.8140 0.8040
1598.507305 0.8020 0.7930 0.7810 0.7750 0.7710
1606.953000 0.7540 0.7410 0.7250 0.7030 0.6830
1615.407305 0.6520 0.5050 0.4580 0.3910 0.3210
1623.853000 0.2520 0.1830 0.1830 0.2810 0.4480
1632.307305 0.4950 0.5480 0.5990 0.7520 0.7610
1640.753000 0.7700 0.7850 0.7920 0.7950 0.7970
1649.207305 0.7980 0.8020 0.8050 0.8160 0.8170
1657.653000 0.8240 0.8290 0.8410 0.8530 0.8560
1666.107305 0.8600 0.8700 0.8820 0.8850 0.8870
1674.553000 0.8870 0.8900 0.8900 0.8990 0.9020
1683.007305 0.9060 0.9110 0.9130 0.9140 0.9140
1691.453000 0.9140 0.9160 0.9190 0.9360 0.9380
1699.907305 0.9400 0.9400 0.9430 0.9430 0.9430
1708.353000 0.9470 0.9500 0.9500 0.9520 0.9520
1716.807305 0.9520 0.9540 0.9550 0.9570 0.9590
1725.254000 0.9570 0.9570 0.9590 0.9590 0.9590
1733.708305 0.9590 0.9590 0.9570 0.9570 0.9570
1742.154000 0.9570 0.9570 0.9570 0.9570 0.9550
1750.608305 0.9550 0.9550 0.9540 0.9540 0.9540
1759.054000 0.9540 0.9540 0.9550 0.9550 0.9550
1767.508305 0.9550 0.9550 0.9550 0.9550 0.9550
1775.954000 0.9540 0.9540 0.9540 0.9540 0.9540
1784.408305 0.9540 0.9540 0.9540 0.9540 0.9540
1792.854000 0.9540 0.9540 0.9540 0.9540 0.9540
1801.308305 0.9540 0.9520 0.9500 0.9500 0.9500
1809.754000 0.9480 0.9480 0.9470 0.9450 0.9420
1818.208305 0.9400 0.9360 0.9330 0.9310 0.9300
1826.654000 0.9300 0.9280 0.9250 0.9230 0.9210
1835.108305 0.9180 0.9140 0.9090 0.9040 0.9020
1843.554000 0.8990 0.8900 0.8850 0.8800 0.8720
1852.008305 0.8600 0.8530 0.8460 0.8340 0.8260
1860.454000 0.8170 0.8040 0.7920 0.7800 0.7760
1868.908305 0.7700 0.7560 0.7510 0.7460 0.7440
1877.354000 0.7440 0.7440 0.7440 0.7460 0.7470
1885.808305 0.7510 0.7560 0.7640 0.7780 0.7810
1894.254000 0.7950 0.8000 0.8050 0.8140 0.8260
1902.708305 0.8390 0.8440 0.8510 0.8530 0.8600
1911.154000 0.8670 0.8700 0.8750 0.8850 0.8940
1919.608305 0.8990 0.9020 0.9110 0.9160 0.9210
1928.054000 0.9260 0.9280 0.9330 0.9350 0.9360
1936.508305 0.9380 0.9430 0.9450 0.9480 0.9500
1944.954000 0.9500 0.9500 0.9500 0.9500 0.9520
1953.408305 0.9520 0.9500 0.9500 0.9500 0.9500
1961.854000 0.9520 0.9520 0.9520 0.9520 0.9520
1970.308305 0.9520 0.9520 0.9500 0.9500 0.9500
1978.754000 0.9500 0.9500 0.9500 0.9500 0.9520
1987.208305 0.9520 0.9520 0.9520 0.9500 0.9500
1995.654000 0.9500 0.9520 0.9550 0.9550 0.9570
2004.108305 0.9600 0.9600 0.9600 0.9600 0.9600
2012.554000 0.9620 0.9640 0.9670 0.9690 0.9690
2021.008305 0.9710 0.9710 0.9710 0.9710 0.9720
2029.454000 0.9720 0.9720 0.9720 0.9740 0.9740
2037.908305 0.9760 0.9760 0.9760 0.9760 0.9770
2046.354000 0.9770 0.9770 0.9770 0.9770 0.9770
2054.808305 0.9770 0.9760 0.9760 0.9760 0.9760
2063.254000 0.9740 0.9740 0.9740 0.9740 0.9740
2071.708305 0.9740 0.9720 0.9720 0.9720 0.9720
2080.155000 0.9710 0.9710 0.9710 0.9710 0.9710
2088.609305 0.9710 0.9710 0.9710 0.9710 0.9710
2097.054000 0.9710 0.9710 0.9710 0.9710 0.9710
2105.508305 0.9710 0.9710 0.9710 0.9710 0.9710
2113.955000 0.9690 0.9690 0.9670 0.9650 0.9640
2122.409305 0.9620 0.9620 0.9620 0.9600 0.9600
2130.855000 0.9600 0.9600 0.9600 0.9600 0.9600
2139.309305 0.9600 0.9600 0.9600 0.9600 0.9590
2147.755000 0.9590 0.9590 0.9590 0.9570 0.9550
2156.209305 0.9550 0.9540 0.9540 0.9520 0.9500
2164.655000 0.9480 0.9400 0.9380 0.9360 0.9360
2173.109305 0.9350 0.9350 0.9360 0.9380 0.9380
2181.555000 0.9360 0.9350 0.9310 0.9280 0.9250
2190.009305 0.9180 0.9140 0.9060 0.8990 0.8990
2198.455000 0.8850 0.8630 0.8310 0.7920 0.7470
2206.909305 0.7000 0.6490 0.5310 0.4800 0.4530
2215.355000 0.4490 0.4480 0.4410 0.4240 0.3740
2223.809305 0.3060 0.2500 0.0980 0.0860 0.0980
2232.255000 0.1310 0.1610 0.2820 0.4680 0.5530
2240.709305 0.6380 0.7390 0.8000 0.8290 0.8580
2249.155000 0.8850 0.8990 0.9020 0.9140 0.9300
2257.609305 0.9330 0.9380 0.9470 0.9480 0.9500
2266.055000 0.9520 0.9540 0.9550 0.9570 0.9590
2274.509305 0.9600 0.9600 0.9620 0.9620 0.9640
2282.955000 0.9640 0.9650 0.9650 0.9650 0.9650
2291.409305 0.9650 0.9650 0.9650 0.9650 0.9650
2299.855000 0.9650 0.9650 0.9650 0.9650 0.9650
2308.309305 0.9650 0.9640 0.9640 0.9620 0.9600
2316.755000 0.9590 0.9570 0.9570 0.9550 0.9540
2325.209305 0.9540 0.9520 0.9520 0.9520 0.9520
2333.655000 0.9520 0.9540 0.9540 0.9540 0.9540
2342.109305 0.9540 0.9540 0.9540 0.9540 0.9540
2350.555000 0.9540 0.9540 0.9540 0.9540 0.9540
2359.009305 0.9540 0.9540 0.9540 0.9540 0.9520
2367.455000 0.9500 0.9500 0.9500 0.9480 0.9480
2375.909305 0.9480 0.9470 0.9470 0.9470 0.9450
2384.355000 0.9430 0.9420 0.9400 0.9360 0.9360
2392.809305 0.9350 0.9330 0.9310 0.9310 0.9310
2401.255000 0.9300 0.9300 0.9300 0.9280 0.9260
2409.709305 0.9260 0.9250 0.9230 0.9230 0.9210
2418.156000 0.9190 0.9190 0.9190 0.9210 0.9210
2426.610305 0.9230 0.9250 0.9280 0.9350 0.9400
2435.055000 0.9480 0.9500 0.9500 0.9520 0.9520
2443.509305 0.9520 0.9520 0.9520 0.9520 0.9540
2451.956000 0.9540 0.9520 0.9540 0.9550 0.9540
2460.410305 0.9540 0.9540 0.9540 0.9540 0.9540
2468.856000 0.9540 0.9540 0.9550 0.9570 0.9570
2477.310305 0.9570 0.9590 0.9590 0.9590 0.9590
2485.756000 0.9570 0.9570 0.9550 0.9550 0.9550
2494.210305 0.9550 0.9550 0.9540 0.9540 0.9540
2502.656000 0.9540 0.9540 0.9520 0.9500 0.9500
2511.110305 0.9500 0.9480 0.9480 0.9480 0.9480
2519.556000 0.9470 0.9470 0.9450 0.9450 0.9450
2528.010305 0.9470 0.9480 0.9520 0.9570 0.9620
2536.456000 0.9650 0.9670 0.9690 0.9690 0.9690
2544.910305 0.9690 0.9690 0.9690 0.9670 0.9670
2553.356000 0.9670 0.9650 0.9640 0.9640 0.9620
2561.810305 0.9600 0.9570 0.9540 0.9520 0.9500
2570.256000 0.9480 0.9480 0.9470 0.9470 0.9470
2578.710305 0.9480 0.9540 0.9600 0.9600 0.9620
2587.156000 0.9620 0.9640 0.9640 0.9640 0.9640
2595.610305 0.9640 0.9640 0.9640 0.9640 0.9640
2604.056000 0.9620 0.9620 0.9620 0.9620 0.9620
2612.510305 0.9620 0.9600 0.9600 0.9590 0.9590
2620.956000 0.9590 0.9590 0.9570 0.9570 0.9550
2629.410305 0.9540 0.9520 0.9520 0.9520 0.9500
2637.856000 0.9470 0.9380 0.9330 0.9310 0.9310
2646.310305 0.9330 0.9360 0.9480 0.9550 0.9590
2654.756000 0.9600 0.9600 0.9600 0.9600 0.9600
2663.210305 0.9600 0.9600 0.9600 0.9600 0.9600
2671.656000 0.9600 0.9600 0.9600 0.9600 0.9600
2680.110305 0.9600 0.9600 0.9600 0.9590 0.9590
2688.556000 0.9590 0.9600 0.9600 0.9600 0.9590
2697.010305 0.9570 0.9550 0.9540 0.9540 0.9520
2705.456000 0.9500 0.9480 0.9470 0.9470 0.9450
2713.910305 0.9430 0.9420 0.9420 0.9420 0.9420
2722.356000 0.9420 0.9420 0.9420 0.9420 0.9400
2730.810305 0.9400 0.9380 0.9350 0.9300 0.9280
2739.256000 0.9210 0.9160 0.9130 0.9130 0.9160
2747.710305 0.9190 0.9250 0.9260 0.9300 0.9310
2756.156000 0.9310 0.9310 0.9310 0.9310 0.9310
2764.610305 0.9310 0.9330 0.9330 0.9330 0.9330
2773.056000 0.9330 0.9330 0.9310 0.9300 0.9280
2781.510305 0.9260 0.9250 0.9210 0.9190 0.9130
2789.957000 0.9090 0.9080 0.9040 0.9020 0.9020
2798.411305 0.9010 0.9010 0.8990 0.8990 0.8990
2806.857000 0.8990 0.8990 0.8990 0.8990 0.8990
2815.311305 0.8970 0.8960 0.8940 0.8870 0.8850
2823.757000 0.8820 0.8790 0.8750 0.8730 0.8720
2832.211305 0.8680 0.8650 0.8630 0.8600 0.8530
2840.657000 0.8500 0.8390 0.8360 0.8310 0.8240
2849.111305 0.8240 0.8210 0.8160 0.8120 0.8050
2857.557000 0.8040 0.7980 0.7870 0.7810 0.7750
2866.011305 0.7660 0.7630 0.7590 0.7580 0.7560
2874.457000 0.7520 0.7510 0.7490 0.7340 0.7270
2882.911305 0.7220 0.7130 0.7050 0.7010 0.7000
2891.357000 0.7010 0.7050 0.7130 0.7180 0.7250
2899.811305 0.7270 0.7300 0.7340 0.7340 0.7340
2908.257000 0.7300 0.7270 0.7240 0.7130 0.7000
2916.711305 0.6880 0.6690 0.6490 0.6230 0.5970
2925.157000 0.5290 0.4920 0.4590 0.4130 0.4130
2933.611305 0.4340 0.4530 0.4730 0.5210 0.5500
2942.057000 0.5770 0.5790 0.6080 0.6110 0.6080
2950.511305 0.6040 0.5970 0.5910 0.5790 0.5220
2958.957000 0.4920 0.4590 0.4410 0.4170 0.4100
2967.411305 0.3910 0.3910 0.4150 0.4200 0.4920
2975.857000 0.5110 0.5260 0.5290 0.5290 0.5260
2984.311305 0.5110 0.4990 0.4780 0.4480 0.4310
2992.757000 0.4240 0.4220 0.4240 0.4830 0.4870
3001.211305 0.5190 0.5500 0.6090 0.6500 0.6600
3009.657000 0.6670 0.6760 0.6830 0.6930 0.7050
3018.111305 0.7240 0.7460 0.7490 0.7560 0.7640
3026.557000 0.7680 0.7700 0.7710 0.7710 0.7730
3035.011305 0.7730 0.7730 0.7730 0.7750 0.7760
3043.457000 0.7800 0.7880 0.7970 0.8040 0.8070
3051.911305 0.8100 0.8140 0.8170 0.8170 0.8170
3060.357000 0.8190 0.8190 0.8170 0.8170 0.8170
3068.811305 0.8190 0.8190 0.8190 0.8190 0.8170
3077.257000 0.8170 0.8160 0.8160 0.8140 0.8100
3085.711305 0.8090 0.8040 0.8040 0.8020 0.7980
3094.157000 0.7970 0.7920 0.7850 0.7760 0.7710
3102.611305 0.7640 0.7590 0.7540 0.7440 0.7420
3111.057000 0.7440 0.7510 0.7560 0.7610 0.7730
3119.511305 0.7880 0.7980 0.8040 0.8140 0.8210
3127.958000 0.8270 0.8290 0.8330 0.8380 0.8460
3136.412305 0.8480 0.8500 0.8530 0.8530 0.8580
3144.858000 0.8600 0.8620 0.8630 0.8630 0.8650
3153.312305 0.8670 0.8670 0.8670 0.8680 0.8680
3161.758000 0.8700 0.8700 0.8700 0.8700 0.8720
3170.212305 0.8720 0.8720 0.8720 0.8720 0.8720
3178.658000 0.8720 0.8720 0.8730 0.8750 0.8770
3187.112305 0.8800 0.8840 0.8870 0.8960 0.8970
3195.558000 0.8990 0.9040 0.9060 0.9080 0.9090
3204.012305 0.9130 0.9160 0.9180 0.9180 0.9190
3212.458000 0.9210 0.9210 0.9230 0.9230 0.9250
3220.912305 0.9250 0.9250 0.9250 0.9250 0.9250
3229.358000 0.9250 0.9250 0.9250 0.9250 0.9260
3237.812305 0.9260 0.9260 0.9260 0.9280 0.9280
3246.258000 0.9300 0.9300 0.9330 0.9350 0.9360
3254.712305 0.9400 0.9420 0.9430 0.9430 0.9430
3263.158000 0.9450 0.9450 0.9470 0.9470 0.9480
3271.612305 0.9480 0.9480 0.9480 0.9480 0.9500
3280.058000 0.9500 0.9500 0.9500 0.9500 0.9500
3288.512305 0.9500 0.9500 0.9500 0.9500 0.9500
3296.958000 0.9500 0.9500 0.9500 0.9500 0.9500
3305.412305 0.9500 0.9500 0.9500 0.9500 0.9500
3313.858000 0.9500 0.9500 0.9500 0.9500 0.9500
3322.312305 0.9500 0.9500 0.9480 0.9480 0.9480
3330.758000 0.9480 0.9480 0.9500 0.9500 0.9500
3339.212305 0.9500 0.9500 0.9500 0.9500 0.9500
3347.658000 0.9500 0.9500 0.9500 0.9500 0.9500
3356.112305 0.9500 0.9500 0.9500 0.9520 0.9500
3364.558000 0.9500 0.9500 0.9500 0.9500 0.9500
3373.012305 0.9500 0.9500 0.9500 0.9500 0.9500
3381.458000 0.9500 0.9500 0.9500 0.9500 0.9480
3389.912305 0.9480 0.9500 0.9500 0.9500 0.9500
3398.358000 0.9480 0.9500 0.9500 0.9500 0.9500
3406.812305 0.9500 0.9500 0.9500 0.9480 0.9480
3415.258000 0.9480 0.9500 0.9500 0.9500 0.9500
3423.712305 0.9500 0.9500 0.9480 0.9480 0.9480
3432.158000 0.9480 0.9480 0.9480 0.9470 0.9470
3440.612305 0.9470 0.9470 0.9470 0.9470 0.9470
3449.058000 0.9470 0.9430 0.9420 0.9400 0.9380
3457.512305 0.9380 0.9360 0.9360 0.9350 0.9350
3465.958000 0.9330 0.9330 0.9330 0.9310 0.9310
3474.412305 0.9300 0.9300 0.9260 0.9230 0.9160
3482.858000 0.9130 0.9060 0.9010 0.8920 0.8870
3491.312305 0.8870 0.8890 0.8940 0.8990 0.9040
3499.759000 0.9090 0.9160 0.9210 0.9250 0.9350
3508.213305 0.9350 0.9360 0.9360 0.9360 0.9360
3516.659000 0.9360 0.9360 0.9360 0.9360 0.9360
3525.113305 0.9360 0.9350 0.9330 0.9330 0.9330
3533.559000 0.9330 0.9310 0.9310 0.9310 0.9310
3542.013305 0.9310 0.9310 0.9310 0.9310 0.9310
3550.459000 0.9310 0.9310 0.9310 0.9330 0.9330
3558.913305 0.9330 0.9330 0.9330 0.9330 0.9350
3567.359000 0.9350 0.9350 0.9330 0.9330 0.9330
3575.813305 0.9330 0.9330 0.9330 0.9330 0.9350
3584.259000 0.9360 0.9400 0.9400 0.9420 0.9420
3592.713305 0.9400 0.9400 0.9400 0.9400 0.9380
3601.159000 0.9360 0.9350 0.9350 0.9350 0.9350
3609.613305 0.9360 0.9360 0.9360 0.9360 0.9350
3618.059000 0.9350 0.9350 0.9330 0.9330 0.9330
3626.513305 0.9330 0.9330 0.9330 0.9330 0.9330
3634.959000 0.9330 0.9330 0.9330 0.9330 0.9330
3643.413305 0.9330 0.9330 0.9310 0.9310 0.9310
3651.859000 0.9310 0.9300 0.9300 0.9300 0.9300
3660.313305 0.9310 0.9310 0.9330 0.9360 0.9380
3668.759000 0.9420 0.9420 0.9430 0.9430 0.9430
3677.213305 0.9430 0.9450 0.9450 0.9450 0.9470
3685.659000 0.9480 0.9500 0.9520 0.9520 0.9520
3694.113305 0.9540 0.9540 0.9550 0.9570 0.9590
3702.559000 0.9590 0.9590 0.9600 0.9600 0.9600
3711.013305 0.9600 0.9600 0.9600 0.9600 0.9600
3719.459000 0.9600 0.9600 0.9600 0.9600 0.9600
3727.913305 0.9600 0.9600 0.9600 0.9600 0.9600
3736.359000 0.9600 0.9600 0.9600 0.9600 0.9600
3744.813305 0.9600 0.9600 0.9600 0.9600 0.9600
3753.259000 0.9600 0.9600 0.9600 0.9600 0.9600
3761.713305 0.9600 0.9600 0.9600 0.9600 0.9600
3770.159000 0.9600 0.9600 0.9600 0.9600 0.9600
3778.613305 0.9600 0.9600 0.9600 0.9600 0.9600
3787.059000 0.9600 0.9600 0.9600 0.9600 0.9600
3795.513305 0.9600 0.9590 0.9590 0.9590 0.9590
3803.959000 0.9590 0.9590 0.9570 0.9570 0.9570
3812.413305 0.9570 0.9570 0.9550 0.9550 0.9550
3820.859000 0.9550 0.9550 0.9550 0.9550 0.9540
3829.313305 0.9540 0.9540 0.9520 0.9520 0.9500
3837.760000 0.9480 0.9480 0.9450 0.9450 0.9450
3846.214305 0.9470 0.9480 0.9480 0.9520 0.9520
3854.660000 0.9540 0.9540 0.9540 0.9540 0.9540
3863.114305 0.9540 0.9540 0.9540 0.9540 0.9540
3871.560000 0.9540 0.9540 0.9540 0.9540 0.9540
3880.014305 0.9540 0.9540 0.9540 0.9540 0.9540
3888.460000 0.9520 0.9520 0.9520 0.9500 0.9500
3896.914305 0.9500 0.9500 0.9480 0.9480 0.9480
3905.360000 0.9480 0.9480 0.9480 0.9470 0.9470
3913.814305 0.9450 0.9450 0.9430 0.9430 0.9420
3922.260000 0.9400 0.9400 0.9380 0.9380 0.9380
3930.714305 0.9360 0.9360 0.9360 0.9360 0.9360
3939.160000 0.9360 0.9380 0.9380 0.9380 0.9380
3947.614305 0.9380
##END=
