##TITLE=1,3-CYCLOHEXANEDIONE, 5,5-DIMETHYL-
##JCAMP-DX=4.24
##DATA TYPE=INFRARED SPECTRUM
##CLASS=COBLENTZ III
##ORIGIN=WESTERN REGIONAL RES. USDA
##OWNER=COBLENTZ SOCIETY
Collection (C) 2018 copyright by the U.S. Secretary of Commerce
on behalf of the United States of America. All rights reserved.
##DATE=1965/05/28
##NAMES=5,5-dimethyl-1,3-cyclohexanedione
DIMEDONE
##CAS REGISTRY NO=126-81-8
##MOLFORM=C8 H12 O2
##SOURCE REFERENCE=COBLENTZ NO. 9866
##$NIST SOURCE=COBLENTZ
##$NIST IMAGE=cob9866
##SPECTROMETER/DATA SYSTEM=BECKMAN IR-7 (GRATING)
##INSTRUMENT PARAMETERS=GRATING CHANGES AT 3000, 2200, 1150 CM^-^1
##STATE=SOLID (NUJOL MULL)
##PATH LENGTH=
$$ SPECTRAL CONTAMINATION DUE TO OIL AROUND 2900, 1470 AND 720 CM ^-^1
##SAMPLING PROCEDURE=TRANSMISSION
##RESOLUTION=4
##DATA PROCESSING=DIGITIZED BY NIST FROM HARD COPY (FROM TWO SEGMENTS)
##XUNITS=1/CM
##YUNITS=TRANSMITTANCE
##XFACTOR=1.000000
##YFACTOR=1
##DELTAX=0.813518
##FIRSTX=597.497
##LASTX=3997.19
##FIRSTY=0.915
##MAXX=3997.19
##MINX=597.497
##MAXY=0.932
##MINY=0.0160905
##NPOINTS=4180
##XYDATA=(X++(Y..Y))
597.497000 0.9150 0.9140 0.9130 0.9120 0.9110
601.564590 0.9100 0.9040 0.8980 0.8920 0.8522
605.632180 0.7220 0.6990 0.6760 0.6530 0.6300
609.699769 0.6071 0.6070 0.6409 0.6579 0.7097
613.767359 0.7480 0.7770 0.8000 0.8200 0.8400
617.834949 0.8649 0.8730 0.8770 0.8800 0.8820
621.902539 0.8820 0.8880 0.8920 0.8960 0.8980
625.970128 0.9000 0.9030 0.9050 0.9060 0.9070
630.037718 0.9100 0.9120 0.9120 0.9130 0.9140
634.105308 0.9160 0.9170 0.9190 0.9200 0.9210
638.172898 0.9220 0.9230 0.9240 0.9250 0.9260
642.240488 0.9270 0.9280 0.9280 0.9290 0.9290
646.308077 0.9300 0.9300 0.9300 0.9300 0.9300
650.375667 0.9300 0.9310 0.9310 0.9320 0.9320
654.443257 0.9320 0.9320 0.9320 0.9320 0.9320
658.510847 0.9320 0.9320 0.9320 0.9320 0.9320
662.578436 0.9320 0.9320 0.9320 0.9320 0.9320
666.646026 0.9320 0.9320 0.9320 0.9320 0.9320
670.713616 0.9320 0.9320 0.9320 0.9320 0.9320
674.781206 0.9320 0.9320 0.9320 0.9320 0.9320
678.848796 0.9320 0.9320 0.9320 0.9320 0.9320
682.916385 0.9320 0.9320 0.9320 0.9320 0.9320
686.983975 0.9320 0.9320 0.9320 0.9320 0.9320
691.051565 0.9320 0.9310 0.9310 0.9310 0.9310
695.119155 0.9310 0.9310 0.9300 0.9300 0.9300
699.186745 0.9300 0.9290 0.9280 0.9280 0.9280
703.254334 0.9270 0.9260 0.9250 0.9240 0.9230
707.321924 0.9220 0.9210 0.9200 0.9200 0.9170
711.389514 0.9160 0.9140 0.9130 0.9110 0.9100
715.457104 0.9080 0.9070 0.9060 0.9050 0.9040
719.524693 0.9030 0.9030 0.9020 0.9020 0.9020
723.592283 0.9020 0.9020 0.9020 0.9030 0.9030
727.659873 0.9040 0.9040 0.9040 0.9050 0.9050
731.727463 0.9060 0.9060 0.9070 0.9070 0.9080
735.795053 0.9080 0.9090 0.9100 0.9100 0.9110
739.862642 0.9120 0.9130 0.9140 0.9140 0.9150
743.930232 0.9150 0.9160 0.9170 0.9170 0.9180
747.997822 0.9180 0.9180 0.9180 0.9180 0.9190
752.065412 0.9190 0.9190 0.9200 0.9200 0.9200
756.133001 0.9200 0.9200 0.9210 0.9210 0.9210
760.200591 0.9210 0.9210 0.9200 0.9200 0.9200
764.268181 0.9200 0.9200 0.9200 0.9200 0.9200
768.335771 0.9200 0.9200 0.9200 0.9200 0.9200
772.403361 0.9200 0.9200 0.9190 0.9190 0.9190
776.470950 0.9190 0.9190 0.9190 0.9190 0.9190
780.538540 0.9190 0.9190 0.9190 0.9190 0.9180
784.606130 0.9180 0.9180 0.9170 0.9170 0.9170
788.673720 0.9160 0.9160 0.9150 0.9150 0.9140
792.741309 0.9140 0.9130 0.9130 0.9120 0.9110
796.808899 0.9100 0.9060 0.8950 0.8840 0.8691
800.876489 0.8600 0.8430 0.8410 0.8400 0.8410
804.944079 0.8430 0.8480 0.8580 0.8690 0.8799
809.011669 0.8900 0.8970 0.8980 0.8990 0.9000
813.079258 0.9000 0.9000 0.9010 0.9010 0.9010
817.146848 0.9000 0.8980 0.8960 0.8800 0.8470
821.214438 0.8260 0.8041 0.7073 0.6462 0.6131
825.282028 0.5810 0.5580 0.5340 0.4971 0.4960
829.349617 0.7383 0.7400 0.7390 0.7141 0.6861
833.417207 0.6580 0.6480 0.6020 0.6010 0.6509
837.484797 0.6739 0.7189 0.7559 0.7879 0.8119
841.552387 0.8320 0.8480 0.8590 0.8660 0.8700
845.619977 0.8720 0.8790 0.8800 0.8800 0.8820
849.687566 0.8830 0.8830 0.8830 0.8830 0.8840
853.755156 0.8840 0.8830 0.8830 0.8820 0.8820
857.822746 0.8800 0.8790 0.8780 0.8760 0.8720
861.890336 0.8690 0.8650 0.8610 0.8530 0.8470
865.957925 0.8400 0.8350 0.8220 0.7950 0.7511
870.025515 0.7250 0.7001 0.6741 0.6501 0.6500
874.093105 0.6740 0.6990 0.7230 0.7599 0.7929
878.160695 0.8229 0.8519 0.8669 0.8799 0.8820
882.228285 0.8840 0.8850 0.8850 0.8820 0.8790
886.295874 0.8730 0.8670 0.8610 0.8321 0.8002
890.363464 0.8000 0.8730 0.8760 0.8780 0.8780
894.431054 0.8770 0.8770 0.8760 0.8760 0.8750
898.498644 0.8730 0.8700 0.8690 0.8660 0.8640
902.566234 0.8610 0.8600 0.8560 0.8520 0.8490
906.633823 0.8450 0.8420 0.8390 0.8350 0.8320
910.701413 0.8320 0.8380 0.8440 0.8500 0.8560
914.769003 0.8570 0.8570 0.8560 0.8560 0.8540
918.836593 0.8520 0.8500 0.8480 0.8460 0.8430
922.904182 0.8390 0.8340 0.8300 0.8250 0.8220
926.971772 0.8210 0.8220 0.8280 0.8300 0.8320
931.039362 0.8340 0.8340 0.8350 0.8350 0.8340
935.106952 0.8330 0.8320 0.8310 0.8300 0.8290
939.174542 0.8280 0.8260 0.8240 0.8210 0.8200
943.242131 0.8200 0.8200 0.8200 0.8200 0.8190
947.309721 0.8190 0.8180 0.8160 0.8140 0.8120
951.377311 0.8110 0.8100 0.8070 0.8040 0.8010
955.444901 0.7980 0.7930 0.7880 0.7720 0.7610
959.512490 0.7530 0.7470 0.7410 0.7360 0.7270
963.580080 0.7250 0.7240 0.7250 0.7270 0.7300
967.647670 0.7340 0.7400 0.7410 0.7400 0.7390
971.715260 0.7370 0.7350 0.7330 0.7310 0.7300
975.782850 0.7280 0.7270 0.7250 0.7240 0.7220
979.850439 0.7200 0.7200 0.7180 0.7170 0.7150
983.918029 0.7130 0.7130 0.7120 0.7120 0.7120
987.985619 0.7130 0.7150 0.7180 0.7240 0.7300
992.053209 0.7330 0.7350 0.7360 0.7340 0.7330
996.120798 0.7300 0.7260 0.7260 0.7280 0.7340
1000.188388 0.7420 0.7500 0.7570 0.7630 0.7690
1004.255978 0.7740 0.7800 0.7840 0.7890 0.7920
1008.323568 0.7970 0.8000 0.8030 0.8070 0.8100
1012.391158 0.8120 0.8150 0.8170 0.8200 0.8210
1016.458747 0.8220 0.8220 0.8240 0.8250 0.8260
1020.526337 0.8260 0.8250 0.8240 0.8240 0.8230
1024.593927 0.8230 0.8230 0.8240 0.8280 0.8290
1028.661517 0.8300 0.8350 0.8370 0.8380 0.8390
1032.729106 0.8400 0.8400 0.8410 0.8420 0.8420
1036.796696 0.8430 0.8430 0.8430 0.8440 0.8440
1040.864286 0.8450 0.8460 0.8460 0.8460 0.8470
1044.931876 0.8470 0.8470 0.8470 0.8460 0.8460
1048.999466 0.8460 0.8460 0.8450 0.8450 0.8450
1053.067055 0.8450 0.8440 0.8440 0.8440 0.8430
1057.134645 0.8430 0.8430 0.8430 0.8420 0.8420
1061.202235 0.8420 0.8420 0.8430 0.8430 0.8430
1065.269825 0.8430 0.8430 0.8430 0.8440 0.8440
1069.337414 0.8440 0.8440 0.8440 0.8440 0.8430
1073.405004 0.8430 0.8430 0.8420 0.8410 0.8400
1077.472594 0.8390 0.8370 0.8350 0.8300 0.8250
1081.540184 0.8230 0.8210 0.8190 0.8160 0.8140
1085.607774 0.8120 0.8110 0.8110 0.8120 0.8120
1089.675363 0.8130 0.8150 0.8170 0.8190 0.8200
1093.742953 0.8230 0.8240 0.8260 0.8260 0.8280
1097.810543 0.8300 0.8300 0.8300 0.8300 0.8290
1101.878133 0.8290 0.8280 0.8280 0.8260 0.8250
1105.945723 0.8230 0.8210 0.8200 0.8170 0.8140
1110.013312 0.8110 0.8090 0.8060 0.8020 0.7990
1114.080902 0.7950 0.7910 0.7880 0.7840 0.7800
1118.148492 0.7760 0.7710 0.7670 0.7600 0.7520
1122.216082 0.7460 0.7390 0.7310 0.7181 0.7150
1126.283671 0.7100 0.7050 0.7020 0.7000 0.6970
1130.351261 0.6940 0.6870 0.6800 0.6740 0.6690
1134.418851 0.6630 0.6380 0.6160 0.5960 0.5710
1138.486441 0.5470 0.4762 0.4381 0.4001 0.3632
1142.554031 0.2420 0.2190 0.1960 0.1730 0.1500
1146.621620 0.1500 0.1500 0.1570 0.1600 0.1700
1150.689210 0.1870 0.2040 0.2250 0.2550 0.2900
1154.756800 0.3269 0.3669 0.4089 0.4499 0.4918
1158.824390 0.5691 0.6020 0.6300 0.6530 0.6760
1162.891979 0.6780 0.6770 0.6760 0.6720 0.6640
1166.959569 0.6500 0.6240 0.6080 0.6080 0.6200
1171.027159 0.6619 0.6750 0.6890 0.7010 0.7199
1175.094749 0.7380 0.7490 0.7500 0.7580 0.7630
1179.162339 0.7630 0.7650 0.7660 0.7670 0.7680
1183.229928 0.7690 0.7690 0.7690 0.7680 0.7670
1187.297518 0.7630 0.7630 0.7600 0.7540 0.7490
1191.365108 0.7450 0.7410 0.7370 0.7330 0.7290
1195.432698 0.7230 0.7190 0.7130 0.7070 0.7000
1199.500287 0.6940 0.6870 0.6800 0.6720 0.6640
1203.567877 0.6550 0.6460 0.6360 0.6260 0.6150
1207.635467 0.6030 0.5910 0.5790 0.5650 0.5500
1211.703057 0.5430 0.5360 0.5201 0.5041 0.4881
1215.770647 0.4700 0.4510 0.4310 0.4110 0.3900
1219.838236 0.3680 0.3451 0.3211 0.2971 0.2701
1223.905826 0.2440 0.2160 0.1870 0.1580 0.1260
1227.973416 0.1100 0.0940 0.0601 0.0411 0.0400
1232.041006 0.0390 0.0400 0.0410 0.0440 0.0480
1236.108595 0.0540 0.0680 0.1189 0.1499 0.1799
1240.176185 0.2181 0.2600 0.2900 0.3430 0.4259
1244.243775 0.4769 0.4770 0.4710 0.4261 0.3513
1248.311365 0.2889 0.2240 0.2220 0.2240 0.2350
1252.378955 0.2500 0.2720 0.2929 0.3139 0.3349
1256.446544 0.3540 0.4000 0.3990 0.3481 0.3200
1260.514134 0.2941 0.2940 0.3359 0.3778 0.4198
1264.581724 0.4671 0.5510 0.6080 0.6090 0.6170
1268.649314 0.6250 0.6330 0.6390 0.6579 0.6739
1272.716903 0.6880 0.6950 0.7010 0.7020 0.7010
1276.784493 0.6980 0.6890 0.6790 0.6680 0.6570
1280.852083 0.6460 0.6340 0.6210 0.6080 0.5940
1284.919673 0.5790 0.5630 0.5550 0.5460 0.5281
1288.987263 0.5080 0.4880 0.4650 0.4600 0.4440
1293.054852 0.4400 0.4400 0.4500 0.4540 0.4650
1297.122442 0.4741 0.5190 0.5170 0.4830 0.4490
1301.190032 0.4230 0.3990 0.3741 0.3491 0.3241
1305.257622 0.2490 0.2220 0.1970 0.1710 0.1460
1309.325212 0.1211 0.1210 0.1429 0.1649 0.1849
1313.392801 0.2401 0.3000 0.3550 0.4020 0.4439
1317.460391 0.4799 0.5119 0.5609 0.5799 0.5939
1321.527981 0.6060 0.6150 0.6220 0.6270 0.6300
1325.595571 0.6300 0.6300 0.6290 0.6230 0.6110
1329.663160 0.5940 0.5710 0.5590 0.5460 0.5180
1333.730750 0.4880 0.4571 0.4261 0.3971 0.3701
1337.798340 0.3440 0.3240 0.3080 0.2970 0.2710
1341.865930 0.2690 0.2670 0.2660 0.2640 0.2610
1345.933520 0.2229 0.1830 0.1710 0.1600 0.1500
1350.001109 0.1340 0.1170 0.1150 0.1140 0.1150
1354.068699 0.1190 0.1220 0.1270 0.1300 0.1360
1358.136289 0.1380 0.1430 0.1510 0.1610 0.1759
1362.203879 0.1910 0.2100 0.2310 0.2550 0.2810
1366.271468 0.3089 0.3379 0.3789 0.3800 0.3770
1370.339058 0.2759 0.2350 0.2350 0.3130 0.3440
1374.406648 0.3640 0.3840 0.4089 0.4529 0.4610
1378.474238 0.4620 0.4640 0.4650 0.4660 0.4690
1382.541828 0.4700 0.4780 0.4850 0.4930 0.5020
1386.609417 0.5120 0.5220 0.5340 0.5610 0.5760
1390.677007 0.5920 0.6100 0.6290 0.6489 0.6699
1394.744597 0.6960 0.7110 0.7130 0.7220 0.7300
1398.812187 0.7300 0.7310 0.7320 0.7340 0.7350
1402.879776 0.7350 0.7350 0.7340 0.7320 0.7300
1406.947366 0.7240 0.7120 0.7050 0.7000 0.6920
1411.014956 0.6780 0.6520 0.6110 0.5510 0.5100
1415.082546 0.4681 0.4590 0.4590 0.5806 0.5880
1419.150136 0.6730 0.6770 0.6770 0.6690 0.6500
1423.217725 0.6440 0.6230 0.5911 0.5601 0.5441
1427.285315 0.5280 0.5281 0.6380 0.6480 0.6580
1431.352905 0.6680 0.6780 0.6950 0.6960 0.6960
1435.420495 0.6910 0.6840 0.6730 0.6610 0.6460
1439.488084 0.6300 0.6120 0.5920 0.5900 0.5850
1443.555674 0.5700 0.5590 0.5470 0.5200 0.4900
1447.623264 0.4560 0.4220 0.3881 0.3561 0.3271
1451.690854 0.3000 0.2890 0.2790 0.2630 0.2630
1455.758444 0.2989 0.3150 0.3140 0.3060 0.3020
1459.826033 0.2970 0.2890 0.2800 0.2700 0.2590
1463.893623 0.2460 0.2320 0.2190 0.2050 0.1901
1467.961213 0.1750 0.1450 0.1400 0.1370 0.1350
1472.028803 0.1330 0.1320 0.1300 0.1280 0.1280
1476.096392 0.1260 0.1260 0.1270 0.1420 0.1570
1480.163982 0.1700 0.1830 0.1970 0.2100 0.2200
1484.231572 0.2300 0.2390 0.2470 0.2620 0.2880
1488.299162 0.2900 0.3120 0.3140 0.3300 0.3459
1492.366752 0.3570 0.3630 0.3670 0.3700 0.3730
1496.434341 0.3790 0.3830 0.3860 0.3870 0.3860
1500.501931 0.3810 0.3750 0.3670 0.3590 0.3490
1504.569521 0.3380 0.3260 0.3140 0.3010 0.2890
1508.637111 0.2750 0.2620 0.2490 0.2350 0.2220
1512.704701 0.2100 0.1980 0.1860 0.1760 0.1660
1516.772290 0.1570 0.1500 0.1420 0.1340 0.1250
1520.839880 0.1160 0.1140 0.1130 0.1130 0.1130
1524.907470 0.1140 0.1150 0.1160 0.1190 0.1200
1528.975060 0.1230 0.1260 0.1290 0.1320 0.1350
1533.042649 0.1380 0.1440 0.1450 0.1580 0.1690
1537.110239 0.1860 0.2050 0.2210 0.2290 0.2380
1541.177829 0.2410 0.2420 0.2520 0.2610 0.2710
1545.245419 0.2800 0.2900 0.2940 0.3060 0.3219
1549.313009 0.3390 0.3520 0.3580 0.3590 0.3600
1553.380598 0.3640 0.3690 0.3740 0.3760 0.3830
1557.448188 0.3890 0.3920 0.3950 0.3960 0.3970
1561.515778 0.4000 0.4000 0.4030 0.4060 0.4070
1565.583368 0.4080 0.4090 0.4090 0.4080 0.4040
1569.650957 0.3950 0.3850 0.3770 0.3690 0.3600
1573.718547 0.3510 0.3420 0.3330 0.3230 0.3110
1577.786137 0.2990 0.2840 0.2680 0.2491 0.2281
1581.853727 0.2040 0.1960 0.1850 0.1750 0.1740
1585.921317 0.1750 0.1760 0.1890 0.1970 0.2080
1589.988906 0.2180 0.2290 0.2390 0.2500 0.2600
1594.056496 0.2700 0.2800 0.2860 0.2970 0.3060
1598.124086 0.3080 0.3080 0.3020 0.2950 0.2830
1602.191676 0.2680 0.2500 0.2301 0.2101 0.1891
1606.259265 0.1680 0.1480 0.1300 0.1120 0.1000
1610.326855 0.0860 0.0800 0.0740 0.0690 0.0551
1614.394445 0.0500 0.0470 0.0430 0.0410 0.0400
1618.462035 0.0400 0.0400 0.0400 0.0410 0.0470
1622.529625 0.0520 0.0590 0.0640 0.0750 0.0830
1626.597214 0.0900 0.1240 0.1709 0.2159 0.2579
1630.664804 0.2981 0.3351 0.3700 0.4040 0.4360
1634.732394 0.4650 0.4920 0.5190 0.5639 0.5839
1638.799984 0.6030 0.6200 0.6360 0.6500 0.6620
1642.867573 0.6730 0.6830 0.6920 0.6990 0.7100
1646.935163 0.7200 0.7300 0.7390 0.7470 0.7540
1651.002753 0.7610 0.7680 0.7740 0.7800 0.7840
1655.070343 0.7890 0.7920 0.7960 0.7990 0.8010
1659.137933 0.8040 0.8060 0.8070 0.8080 0.8100
1663.205522 0.8100 0.8110 0.8120 0.8140 0.8160
1667.273112 0.8170 0.8170 0.8180 0.8190 0.8200
1671.340702 0.8220 0.8250 0.8270 0.8290 0.8300
1675.408292 0.8320 0.8340 0.8360 0.8380 0.8390
1679.475881 0.8400 0.8420 0.8440 0.8460 0.8480
1683.543471 0.8480 0.8490 0.8500 0.8500 0.8500
1687.611061 0.8510 0.8520 0.8520 0.8520 0.8520
1691.678651 0.8520 0.8520 0.8510 0.8510 0.8500
1695.746241 0.8500 0.8490 0.8490 0.8480 0.8470
1699.813830 0.8460 0.8460 0.8460 0.8460 0.8460
1703.881420 0.8470 0.8470 0.8480 0.8490 0.8500
1707.949010 0.8500 0.8500 0.8500 0.8520 0.8530
1712.016600 0.8540 0.8560 0.8580 0.8590 0.8610
1716.084190 0.8630 0.8650 0.8680 0.8700 0.8700
1720.151779 0.8700 0.8710 0.8720 0.8720 0.8720
1724.219369 0.8720 0.8710 0.8710 0.8700 0.8700
1728.286959 0.8700 0.8700 0.8700 0.8700 0.8690
1732.354549 0.8680 0.8680 0.8670 0.8670 0.8660
1736.422138 0.8660 0.8650 0.8640 0.8630 0.8620
1740.489728 0.8610 0.8600 0.8600 0.8590 0.8580
1744.557318 0.8550 0.8520 0.8490 0.8450 0.8410
1748.624908 0.8380 0.8350 0.8320 0.8300 0.8260
1752.692498 0.8230 0.8210 0.8200 0.8210 0.8300
1756.760087 0.8350 0.8400 0.8430 0.8480 0.8510
1760.827677 0.8550 0.8600 0.8610 0.8620 0.8630
1764.895267 0.8640 0.8640 0.8660 0.8680 0.8690
1768.962857 0.8690 0.8690 0.8700 0.8700 0.8700
1773.030446 0.8690 0.8680 0.8670 0.8650 0.8630
1777.098036 0.8630 0.8620 0.8610 0.8590 0.8550
1781.165626 0.8540 0.8530 0.8520 0.8520 0.8500
1785.233216 0.8470 0.8440 0.8400 0.8380 0.8360
1789.300806 0.8350 0.8350 0.8360 0.8360 0.8370
1793.368395 0.8370 0.8380 0.8390 0.8400 0.8400
1797.435985 0.8410 0.8410 0.8410 0.8400 0.8400
1801.503575 0.8400 0.8390 0.8370 0.8360 0.8360
1805.571165 0.8350 0.8350 0.8340 0.8340 0.8340
1809.638754 0.8330 0.8330 0.8330 0.8320 0.8320
1813.706344 0.8320 0.8310 0.8310 0.8300 0.8270
1817.773934 0.8250 0.8220 0.8200 0.8190 0.8160
1821.841524 0.8150 0.8130 0.8120 0.8110 0.8110
1825.909114 0.8110 0.8100 0.8100 0.8090 0.8090
1829.976703 0.8090 0.8080 0.8080 0.8070 0.8070
1834.044293 0.8070 0.8060 0.8050 0.8050 0.8040
1838.111883 0.8040 0.8040 0.8030 0.8020 0.8010
1842.179473 0.8000 0.8000 0.8000 0.7990 0.7970
1846.247062 0.7960 0.7950 0.7930 0.7920 0.7900
1850.314652 0.7890 0.7870 0.7850 0.7820 0.7810
1854.382242 0.7800 0.7790 0.7790 0.7780 0.7770
1858.449832 0.7770 0.7760 0.7740 0.7730 0.7720
1862.517422 0.7710 0.7700 0.7700 0.7690 0.7680
1866.585011 0.7670 0.7670 0.7650 0.7630 0.7600
1870.652601 0.7580 0.7560 0.7550 0.7550 0.7540
1874.720191 0.7520 0.7510 0.7500 0.7490 0.7480
1878.787781 0.7460 0.7450 0.7450 0.7440 0.7440
1882.855370 0.7430 0.7430 0.7420 0.7420 0.7410
1886.922960 0.7410 0.7400 0.7380 0.7360 0.7340
1890.990550 0.7330 0.7310 0.7300 0.7290 0.7280
1895.058140 0.7260 0.7250 0.7220 0.7190 0.7190
1899.125730 0.7180 0.7170 0.7160 0.7140 0.7120
1903.193319 0.7120 0.7110 0.7110 0.7100 0.7100
1907.260909 0.7100 0.7090 0.7090 0.7080 0.7080
1911.328499 0.7070 0.7070 0.7070 0.7070 0.7080
1915.396089 0.7080 0.7080 0.7090 0.7090 0.7090
1919.463679 0.7100 0.7100 0.7100 0.7100 0.7100
1923.531268 0.7110 0.7120 0.7130 0.7130 0.7130
1927.598858 0.7140 0.7140 0.7150 0.7150 0.7150
1931.666448 0.7160 0.7160 0.7160 0.7160 0.7160
1935.734038 0.7160 0.7160 0.7160 0.7170 0.7170
1939.801627 0.7170 0.7170 0.7180 0.7180 0.7180
1943.869217 0.7190 0.7190 0.7190 0.7200 0.7200
1947.936807 0.7200 0.7200 0.7200 0.7200 0.7200
1952.004397 0.7200 0.7200 0.7210 0.7210 0.7210
1956.071987 0.7220 0.7220 0.7230 0.7230 0.7240
1960.139576 0.7250 0.7260 0.7270 0.7270 0.7290
1964.207166 0.7290 0.7290 0.7300 0.7300 0.7300
1968.274756 0.7300 0.7300 0.7310 0.7310 0.7320
1972.342346 0.7320 0.7320 0.7330 0.7330 0.7330
1976.409935 0.7330 0.7330 0.7340 0.7340 0.7340
1980.477525 0.7340 0.7350 0.7350 0.7350 0.7350
1984.545115 0.7360 0.7360 0.7360 0.7370 0.7370
1988.612705 0.7370 0.7380 0.7380 0.7380 0.7390
1992.680295 0.7390 0.7390 0.7390 0.7390 0.7390
1996.747884 0.7390 0.7390 0.7390 0.7390 0.7380
2000.815474 0.7380 0.7380 0.7380 0.7380 0.7380
2004.883064 0.7380 0.7380 0.7380 0.7380 0.7380
2008.950654 0.7380 0.7380 0.7377 0.7375 0.7372
2013.018243 0.7370 0.7370 0.7370 0.7370 0.7371
2017.085833 0.7373 0.7376 0.7378 0.7380 0.7380
2021.153423 0.7380 0.7380 0.7381 0.7383 0.7386
2025.221013 0.7389 0.7390 0.7390 0.7390 0.7390
2029.288603 0.7391 0.7394 0.7396 0.7399 0.7400
2033.356192 0.7400 0.7400 0.7400 0.7402 0.7404
2037.423782 0.7407 0.7409 0.7412 0.7414 0.7417
2041.491372 0.7419 0.7422 0.7424 0.7427 0.7429
2045.558962 0.7432 0.7435 0.7437 0.7440 0.7442
2049.626551 0.7445 0.7447 0.7450 0.7455 0.7460
2053.694141 0.7465 0.7470 0.7477 0.7485 0.7492
2057.761731 0.7500 0.7508 0.7515 0.7523 0.7531
2061.829321 0.7541 0.7551 0.7561 0.7571 0.7579
2065.896911 0.7587 0.7594 0.7601 0.7603 0.7606
2069.964500 0.7608 0.7611 0.7613 0.7616 0.7618
2074.032090 0.7623 0.7633 0.7644 0.7654 0.7663
2078.099680 0.7671 0.7678 0.7686 0.7691 0.7694
2082.167270 0.7696 0.7699 0.7700 0.7700 0.7700
2086.234859 0.7700 0.7703 0.7708 0.7713 0.7718
2090.302449 0.7722 0.7724 0.7727 0.7729 0.7733
2094.370039 0.7738 0.7744 0.7749 0.7750 0.7750
2098.437629 0.7750 0.7750 0.7754 0.7759 0.7764
2102.505219 0.7769 0.7774 0.7779 0.7785 0.7790
2106.572808 0.7792 0.7795 0.7797 0.7800 0.7800
2110.640398 0.7800 0.7800 0.7800 0.7805 0.7810
2114.707988 0.7815 0.7820 0.7823 0.7825 0.7828
2118.775578 0.7830 0.7833 0.7835 0.7838 0.7840
2122.843168 0.7843 0.7846 0.7848 0.7851 0.7853
2126.910757 0.7856 0.7858 0.7861 0.7863 0.7866
2130.978347 0.7868 0.7871 0.7874 0.7876 0.7879
2135.045937 0.7881 0.7884 0.7886 0.7889 0.7891
2139.113527 0.7894 0.7896 0.7899 0.7900 0.7900
2143.181116 0.7900 0.7900 0.7902 0.7904 0.7907
2147.248706 0.7909 0.7912 0.7914 0.7917 0.7919
2151.316296 0.7924 0.7929 0.7934 0.7939 0.7942
2155.383886 0.7944 0.7947 0.7950 0.7952 0.7955
2159.451476 0.7957 0.7960 0.7962 0.7965 0.7967
2163.519065 0.7970 0.7970 0.7970 0.7970 0.7970
2167.586655 0.7973 0.7975 0.7978 0.7980 0.7980
2171.654245 0.7980 0.7980 0.7980 0.7983 0.7985
2175.721835 0.7988 0.7990 0.7990 0.7990 0.7990
2179.789424 0.7990 0.7990 0.7990 0.7990 0.7989
2183.857014 0.7987 0.7984 0.7982 0.7980 0.7980
2187.924604 0.7980 0.7980 0.7978 0.7973 0.7968
2191.992194 0.7962 0.7957 0.7952 0.7947 0.7942
2196.059784 0.7939 0.7936 0.7933 0.7931 0.7927
2200.127373 0.7922 0.7917 0.7912 0.7908 0.7906
2204.194963 0.7903 0.7901 0.7896 0.7891 0.7886
2208.262553 0.7881 0.7876 0.7871 0.7866 0.7861
2212.330143 0.7856 0.7851 0.7846 0.7841 0.7836
2216.397732 0.7830 0.7825 0.7820 0.7815 0.7810
2220.465322 0.7805 0.7800 0.7797 0.7795 0.7792
2224.532912 0.7789 0.7784 0.7779 0.7774 0.7769
2228.600502 0.7764 0.7759 0.7754 0.7748 0.7741
2232.668092 0.7733 0.7726 0.7719 0.7714 0.7709
2236.735681 0.7703 0.7698 0.7693 0.7688 0.7683
2240.803271 0.7677 0.7670 0.7662 0.7654 0.7646
2244.870861 0.7636 0.7626 0.7615 0.7606 0.7599
2248.938451 0.7591 0.7584 0.7576 0.7568 0.7561
2253.006040 0.7553 0.7549 0.7546 0.7543 0.7541
2257.073630 0.7538 0.7536 0.7533 0.7531 0.7530
2261.141220 0.7530 0.7530 0.7530 0.7526 0.7521
2265.208810 0.7516 0.7511 0.7508 0.7505 0.7503
2269.276400 0.7500 0.7498 0.7495 0.7493 0.7490
2273.343989 0.7480 0.7470 0.7460 0.7450 0.7437
2277.411579 0.7425 0.7412 0.7399 0.7389 0.7379
2281.479169 0.7369 0.7359 0.7346 0.7333 0.7321
2285.546759 0.7308 0.7298 0.7288 0.7277 0.7267
2289.614348 0.7257 0.7247 0.7237 0.7228 0.7220
2293.681938 0.7212 0.7205 0.7200 0.7200 0.7200
2297.749528 0.7200 0.7200 0.7200 0.7200 0.7200
2301.817118 0.7196 0.7189 0.7181 0.7174 0.7165
2305.884708 0.7154 0.7144 0.7134 0.7126 0.7118
2309.952297 0.7110 0.7103 0.7095 0.7088 0.7080
2314.019887 0.7072 0.7063 0.7053 0.7043 0.7033
2318.087477 0.7024 0.7017 0.7009 0.7001 0.6993
2322.155067 0.6986 0.6978 0.6971 0.6961 0.6951
2326.222657 0.6940 0.6930 0.6923 0.6915 0.6907
2330.290246 0.6900 0.6895 0.6890 0.6885 0.6879
2334.357836 0.6869 0.6859 0.6849 0.6839 0.6831
2338.425426 0.6824 0.6816 0.6809 0.6804 0.6799
2342.493016 0.6794 0.6788 0.6781 0.6773 0.6765
2346.560605 0.6758 0.6750 0.6743 0.6735 0.6727
2350.628195 0.6720 0.6712 0.6704 0.6697 0.6689
2354.695785 0.6681 0.6674 0.6666 0.6659 0.6651
2358.763375 0.6643 0.6636 0.6628 0.6621 0.6613
2362.830965 0.6607 0.6602 0.6597 0.6592 0.6585
2366.898554 0.6577 0.6570 0.6562 0.6555 0.6547
2370.966144 0.6539 0.6532 0.6524 0.6517 0.6509
2375.033734 0.6501 0.6496 0.6491 0.6486 0.6481
2379.101324 0.6473 0.6466 0.6458 0.6451 0.6443
2383.168913 0.6435 0.6427 0.6420 0.6412 0.6405
2387.236503 0.6397 0.6389 0.6382 0.6374 0.6367
2391.304093 0.6359 0.6348 0.6338 0.6328 0.6319
2395.371683 0.6314 0.6309 0.6304 0.6298 0.6287
2399.439273 0.6277 0.6267 0.6257 0.6247 0.6237
2403.506862 0.6227 0.6217 0.6210 0.6202 0.6195
2407.574452 0.6186 0.6176 0.6166 0.6156 0.6145
2411.642042 0.6135 0.6125 0.6115 0.6106 0.6098
2415.709632 0.6091 0.6083 0.6074 0.6064 0.6053
2419.777221 0.6043 0.6033 0.6023 0.6013 0.6003
2423.844811 0.5993 0.5983 0.5972 0.5962 0.5952
2427.912401 0.5942 0.5932 0.5922 0.5912 0.5901
2431.979991 0.5891 0.5881 0.5871 0.5861 0.5851
2436.047581 0.5841 0.5831 0.5820 0.5810 0.5800
2440.115170 0.5790 0.5780 0.5770 0.5760 0.5750
2444.182760 0.5739 0.5729 0.5719 0.5712 0.5704
2448.250350 0.5696 0.5687 0.5675 0.5662 0.5649
2452.317940 0.5637 0.5627 0.5617 0.5607 0.5598
2456.385529 0.5590 0.5582 0.5575 0.5565 0.5553
2460.453119 0.5540 0.5527 0.5518 0.5513 0.5508
2464.520709 0.5503 0.5499 0.5496 0.5494 0.5491
2468.588299 0.5485 0.5475 0.5464 0.5454 0.5444
2472.655889 0.5434 0.5424 0.5414 0.5405 0.5398
2476.723478 0.5390 0.5382 0.5371 0.5358 0.5346
2480.791068 0.5333 0.5324 0.5316 0.5309 0.5301
2484.858658 0.5291 0.5281 0.5271 0.5261 0.5253
2488.926248 0.5246 0.5238 0.5230 0.5223 0.5215
2492.993837 0.5208 0.5200 0.5190 0.5180 0.5170
2497.061427 0.5159 0.5149 0.5139 0.5129 0.5119
2501.129017 0.5114 0.5109 0.5104 0.5098 0.5088
2505.196607 0.5078 0.5068 0.5058 0.5051 0.5043
2509.264197 0.5036 0.5028 0.5020 0.5013 0.5005
2513.331786 0.4997 0.4990 0.4982 0.4974 0.4967
2517.399376 0.4959 0.4952 0.4944 0.4936 0.4929
2521.466966 0.4921 0.4914 0.4907 0.4902 0.4897
2525.534556 0.4892 0.4886 0.4878 0.4870 0.4863
2529.602146 0.4857 0.4852 0.4847 0.4842 0.4835
2533.669735 0.4827 0.4820 0.4812 0.4808 0.4806
2537.737325 0.4803 0.4801 0.4796 0.4791 0.4786
2541.804915 0.4781 0.4773 0.4766 0.4758 0.4750
2545.872505 0.4740 0.4730 0.4720 0.4710 0.4700
2549.940094 0.4690 0.4679 0.4669 0.4659 0.4649
2554.007684 0.4639 0.4629 0.4622 0.4614 0.4606
2558.075274 0.4599 0.4594 0.4589 0.4584 0.4579
2562.142864 0.4577 0.4574 0.4572 0.4570 0.4570
2566.210454 0.4570 0.4570 0.4571 0.4573 0.4576
2570.278043 0.4578 0.4587 0.4604 0.4622 0.4640
2574.345633 0.4658 0.4676 0.4694 0.4712 0.4732
2578.413223 0.4755 0.4778 0.4801 0.4813 0.4818
2582.480813 0.4823 0.4828 0.4827 0.4822 0.4817
2586.548402 0.4811 0.4801 0.4788 0.4776 0.4763
2590.615992 0.4749 0.4733 0.4718 0.4703 0.4692
2594.683582 0.4682 0.4672 0.4661 0.4645 0.4627
2598.751172 0.4609 0.4592 0.4585 0.4580 0.4575
2602.818762 0.4570 0.4572 0.4575 0.4578 0.4580
2606.886351 0.4606 0.4632 0.4658 0.4684 0.4717
2610.953941 0.4750 0.4783 0.4810 0.4813 0.4816
2615.021531 0.4818 0.4822 0.4833 0.4843 0.4853
2619.089121 0.4861 0.4863 0.4866 0.4868 0.4871
2623.156710 0.4873 0.4876 0.4878 0.4881 0.4884
2627.224300 0.4886 0.4889 0.4890 0.4890 0.4890
2631.291890 0.4890 0.4890 0.4890 0.4890 0.4890
2635.359480 0.4889 0.4886 0.4884 0.4881 0.4874
2639.427070 0.4863 0.4853 0.4843 0.4835 0.4827
2643.494659 0.4819 0.4812 0.4806 0.4801 0.4796
2647.562249 0.4791 0.4777 0.4762 0.4747 0.4732
2651.629839 0.4719 0.4706 0.4694 0.4681 0.4666
2655.697429 0.4651 0.4635 0.4620 0.4618 0.4615
2659.765018 0.4612 0.4610 0.4615 0.4620 0.4625
2663.832608 0.4632 0.4649 0.4667 0.4685 0.4703
2667.900198 0.4729 0.4754 0.4779 0.4806 0.4840
2671.967788 0.4873 0.4907 0.4940 0.4973 0.5006
2676.035378 0.5039 0.5067 0.5088 0.5108 0.5128
2680.102967 0.5148 0.5169 0.5189 0.5209 0.5225
2684.170557 0.5235 0.5245 0.5255 0.5265 0.5275
2688.238147 0.5285 0.5296 0.5294 0.5284 0.5274
2692.305737 0.5264 0.5244 0.5219 0.5194 0.5168
2696.373326 0.5141 0.5113 0.5086 0.5058 0.5034
2700.440916 0.5011 0.4988 0.4965 0.4948 0.4933
2704.508506 0.4917 0.4902 0.4895 0.4890 0.4885
2708.576096 0.4880 0.4885 0.4890 0.4895 0.4900
2712.643686 0.4908 0.4915 0.4923 0.4930 0.4941
2716.711275 0.4951 0.4961 0.4972 0.4987 0.5002
2720.778865 0.5017 0.5032 0.5048 0.5063 0.5078
2724.846455 0.5092 0.5102 0.5112 0.5122 0.5133
2728.914045 0.5143 0.5153 0.5163 0.5172 0.5180
2732.981635 0.5188 0.5195 0.5204 0.5214 0.5224
2737.049224 0.5235 0.5244 0.5251 0.5259 0.5266
2741.116814 0.5274 0.5282 0.5289 0.5297 0.5303
2745.184404 0.5308 0.5313 0.5318 0.5325 0.5332
2749.251994 0.5340 0.5348 0.5353 0.5359 0.5364
2753.319583 0.5369 0.5379 0.5392 0.5405 0.5417
2757.387173 0.5426 0.5434 0.5441 0.5449 0.5450
2761.454763 0.5450 0.5450 0.5450 0.5441 0.5431
2765.522353 0.5421 0.5411 0.5398 0.5385 0.5372
2769.589943 0.5360 0.5357 0.5355 0.5352 0.5350
2773.657532 0.5350 0.5350 0.5350 0.5351 0.5356
2777.725122 0.5361 0.5366 0.5372 0.5379 0.5387
2781.792712 0.5394 0.5402 0.5410 0.5417 0.5425
2785.860302 0.5436 0.5453 0.5471 0.5489 0.5503
2789.927891 0.5510 0.5518 0.5526 0.5534 0.5544
2793.995481 0.5555 0.5565 0.5596 0.5649 0.5702
2798.063071 0.5755 0.5796 0.5827 0.5858 0.5889
2802.130661 0.5900 0.5900 0.5900 0.5900 0.5898
2806.198251 0.5896 0.5893 0.5891 0.5884 0.5877
2810.265840 0.5869 0.5861 0.5823 0.5778 0.5732
2814.333430 0.5686 0.5658 0.5633 0.5608 0.5582
2818.401020 0.5562 0.5541 0.5521 0.5501 0.5490
2822.468610 0.5480 0.5470 0.5460 0.5447 0.5434
2826.536199 0.5422 0.5408 0.5386 0.5363 0.5340
2830.603789 0.5318 0.5297 0.5276 0.5256 0.5235
2834.671379 0.5215 0.5195 0.5174 0.5148 0.5108
2838.738969 0.5067 0.5027 0.4991 0.4966 0.4941
2842.806559 0.4915 0.4890 0.4865 0.4839 0.4814
2846.874148 0.4790 0.4767 0.4744 0.4721 0.4699
2850.941738 0.4676 0.4653 0.4630 0.4607 0.4585
2855.009328 0.4562 0.4539 0.4516 0.4494 0.4471
2859.076918 0.4448 0.4417 0.4381 0.4346 0.4310
2863.144507 0.3975 0.3514 0.3054 0.2593 0.2441
2867.212097 0.2358 0.2274 0.2191 0.2105 0.2019
2871.279687 0.1933 0.1846 0.1737 0.1625 0.1514
2875.347277 0.1403 0.1370 0.1340 0.1309 0.1279
2879.414867 0.1249 0.1218 0.1188 0.1158 0.1127
2883.482456 0.1097 0.1066 0.1038 0.1026 0.1013
2887.550046 0.1000 0.0987 0.0972 0.0957 0.0942
2891.617636 0.0936 0.0961 0.0987 0.1012 0.1037
2895.685226 0.1060 0.1083 0.1106 0.1129 0.1152
2899.752815 0.1175 0.1198 0.1220 0.1243 0.1266
2903.820405 0.1289 0.1322 0.1365 0.1408 0.1451
2907.887995 0.1470 0.1470 0.1470 0.1470 0.1398
2911.955585 0.1282 0.1165 0.1049 0.1003 0.0993
2916.023175 0.0983 0.0973 0.0961 0.0948 0.0936
2920.090764 0.0923 0.0902 0.0880 0.0857 0.0834
2924.158354 0.0811 0.0788 0.0766 0.0743 0.0720
2928.225944 0.0697 0.0673 0.0650 0.0627 0.0605
2932.293534 0.0582 0.0559 0.0536 0.0513 0.0491
2936.361124 0.0468 0.0445 0.0422 0.0399 0.0377
2940.428713 0.0354 0.0331 0.0308 0.0285 0.0260
2944.496303 0.0234 0.0209 0.0189 0.0184 0.0179
2948.563893 0.0174 0.0169 0.0167 0.0164 0.0162
2952.631483 0.0161 0.0163 0.0166 0.0169 0.0180
2956.699072 0.0206 0.0231 0.0256 0.0282 0.0308
2960.766662 0.0333 0.0359 0.0392 0.0430 0.0468
2964.834252 0.0506 0.0520 0.0520 0.0520 0.0520
2968.901842 0.0510 0.0494 0.0479 0.0464 0.0449
2972.969432 0.0434 0.0418 0.0403 0.0380 0.0355
2977.037021 0.0329 0.0304 0.0298 0.0295 0.0293
2981.104611 0.0290 0.0292 0.0295 0.0297 0.0300
2985.172201 0.0319 0.0339 0.0360 0.0380 0.0403
2989.239791 0.0425 0.0448 0.0472 0.0505 0.0539
2993.307380 0.0572 0.0606 0.0641 0.0677 0.0712
2997.374970 0.0767 0.0894 0.1021 0.1147 0.1270
3001.442560 0.1381 0.1493 0.1604 0.1742 0.1934
3005.510150 0.2127 0.2319 0.2487 0.2614 0.2740
3009.577740 0.2867 0.2994 0.3120 0.3247 0.3374
3013.645329 0.3498 0.3620 0.3741 0.3863 0.3954
3017.712919 0.4017 0.4080 0.4143 0.4222 0.4310
3021.780509 0.4399 0.4488 0.4575 0.4663 0.4751
3025.848099 0.4838 0.4864 0.4869 0.4874 0.4879
3029.915688 0.4904 0.4935 0.4965 0.4996 0.5030
3033.983278 0.5066 0.5101 0.5137 0.5246 0.5362
3038.050868 0.5479 0.5595 0.5602 0.5605 0.5607
3042.118458 0.5610 0.5654 0.5697 0.5740 0.5781
3046.186048 0.5793 0.5806 0.5819 0.5832 0.5847
3050.253637 0.5862 0.5877 0.5893 0.5914 0.5934
3054.321227 0.5954 0.5978 0.6017 0.6056 0.6094
3058.388817 0.6122 0.6127 0.6132 0.6137 0.6145
3062.456407 0.6158 0.6170 0.6183 0.6194 0.6205
3066.523996 0.6215 0.6225 0.6236 0.6249 0.6262
3070.591586 0.6274 0.6287 0.6300 0.6312 0.6325
3074.659176 0.6338 0.6350 0.6363 0.6376 0.6387
3078.726766 0.6397 0.6407 0.6417 0.6425 0.6433
3082.794356 0.6441 0.6448 0.6460 0.6472 0.6485
3086.861945 0.6498 0.6519 0.6542 0.6565 0.6588
3090.929535 0.6592 0.6595 0.6597 0.6600 0.6605
3094.997125 0.6610 0.6615 0.6620 0.6628 0.6635
3099.064715 0.6643 0.6651 0.6664 0.6676 0.6689
3103.132304 0.6700 0.6703 0.6705 0.6708 0.6712
3107.199894 0.6722 0.6732 0.6742 0.6751 0.6753
3111.267484 0.6756 0.6758 0.6761 0.6763 0.6766
3115.335074 0.6768 0.6770 0.6770 0.6770 0.6770
3119.402664 0.6771 0.6774 0.6776 0.6779 0.6786
3123.470253 0.6799 0.6812 0.6824 0.6833 0.6838
3127.537843 0.6843 0.6848 0.6864 0.6887 0.6910
3131.605433 0.6932 0.6942 0.6944 0.6947 0.6949
3135.673023 0.6961 0.6976 0.6991 0.7006 0.7022
3139.740613 0.7037 0.7052 0.7067 0.7091 0.7116
3143.808202 0.7141 0.7167 0.7174 0.7179 0.7185
3147.875792 0.7190 0.7197 0.7205 0.7212 0.7220
3151.943382 0.7230 0.7240 0.7251 0.7261 0.7271
3156.010972 0.7281 0.7291 0.7301 0.7309 0.7316
3160.078561 0.7324 0.7331 0.7336 0.7341 0.7346
3164.146151 0.7353 0.7363 0.7373 0.7383 0.7392
3168.213741 0.7397 0.7402 0.7407 0.7413 0.7420
3172.281331 0.7428 0.7435 0.7443 0.7451 0.7458
3176.348921 0.7466 0.7473 0.7481 0.7489 0.7496
3180.416510 0.7503 0.7508 0.7513 0.7518 0.7524
3184.484100 0.7532 0.7540 0.7548 0.7555 0.7563
3188.551690 0.7570 0.7578 0.7584 0.7589 0.7594
3192.619280 0.7599 0.7606 0.7614 0.7621 0.7629
3196.686869 0.7636 0.7644 0.7652 0.7659 0.7667
3200.754459 0.7674 0.7682 0.7690 0.7695 0.7700
3204.822049 0.7705 0.7710 0.7725 0.7740 0.7755
3208.889639 0.7770 0.7773 0.7775 0.7778 0.7780
3212.957229 0.7786 0.7791 0.7796 0.7801 0.7806
3217.024818 0.7811 0.7816 0.7822 0.7830 0.7837
3221.092408 0.7845 0.7852 0.7860 0.7868 0.7875
3225.159998 0.7882 0.7887 0.7892 0.7897 0.7902
3229.227588 0.7907 0.7912 0.7917 0.7924 0.7931
3233.295177 0.7939 0.7946 0.7954 0.7962 0.7969
3237.362767 0.7977 0.7983 0.7988 0.7993 0.7998
3241.430357 0.8008 0.8021 0.8033 0.8046 0.8052
3245.497947 0.8054 0.8057 0.8059 0.8062 0.8064
3249.565537 0.8067 0.8070 0.8074 0.8079 0.8084
3253.633126 0.8090 0.8092 0.8095 0.8097 0.8100
3257.700716 0.8105 0.8110 0.8115 0.8120 0.8125
3261.768306 0.8130 0.8135 0.8140 0.8145 0.8150
3265.835896 0.8156 0.8161 0.8166 0.8171 0.8176
3269.903485 0.8181 0.8186 0.8191 0.8196 0.8201
3273.971075 0.8203 0.8206 0.8208 0.8212 0.8220
3278.038665 0.8227 0.8235 0.8241 0.8243 0.8246
3282.106255 0.8249 0.8252 0.8257 0.8262 0.8267
3286.173845 0.8271 0.8274 0.8276 0.8279 0.8283
3290.241434 0.8288 0.8293 0.8298 0.8300 0.8300
3294.309024 0.8300 0.8300 0.8303 0.8308 0.8313
3298.376614 0.8318 0.8322 0.8324 0.8327 0.8329
3302.444204 0.8332 0.8334 0.8337 0.8340 0.8342
3306.511793 0.8345 0.8347 0.8350 0.8352 0.8355
3310.579383 0.8357 0.8360 0.8362 0.8365 0.8367
3314.646973 0.8370 0.8373 0.8375 0.8378 0.8380
3318.714563 0.8383 0.8385 0.8388 0.8390 0.8393
3322.782153 0.8395 0.8398 0.8400 0.8400 0.8400
3326.849742 0.8400 0.8401 0.8403 0.8406 0.8408
3330.917332 0.8411 0.8413 0.8416 0.8418 0.8421
3334.984922 0.8423 0.8426 0.8428 0.8430 0.8430
3339.052512 0.8430 0.8430 0.8431 0.8434 0.8436
3343.120102 0.8439 0.8441 0.8444 0.8446 0.8449
3347.187691 0.8452 0.8454 0.8457 0.8459 0.8462
3351.255281 0.8464 0.8467 0.8469 0.8472 0.8474
3355.322871 0.8477 0.8479 0.8482 0.8484 0.8487
3359.390461 0.8490 0.8492 0.8495 0.8497 0.8500
3363.458050 0.8500 0.8500 0.8500 0.8500 0.8502
3367.525640 0.8505 0.8507 0.8510 0.8510 0.8510
3371.593230 0.8510 0.8510 0.8513 0.8515 0.8518
3375.660820 0.8520 0.8523 0.8525 0.8528 0.8530
3379.728410 0.8530 0.8530 0.8530 0.8531 0.8533
3383.795999 0.8536 0.8538 0.8540 0.8540 0.8540
3387.863589 0.8540 0.8541 0.8543 0.8546 0.8548
3391.931179 0.8551 0.8554 0.8556 0.8559 0.8560
3395.998769 0.8560 0.8560 0.8560 0.8561 0.8564
3400.066358 0.8566 0.8569 0.8570 0.8570 0.8570
3404.133948 0.8570 0.8572 0.8574 0.8577 0.8579
3408.201538 0.8582 0.8584 0.8587 0.8589 0.8590
3412.269128 0.8590 0.8590 0.8590 0.8592 0.8595
3416.336718 0.8597 0.8600 0.8600 0.8600 0.8600
3420.404307 0.8600 0.8600 0.8600 0.8600 0.8600
3424.471897 0.8600 0.8600 0.8600 0.8600 0.8603
3428.539487 0.8605 0.8608 0.8610 0.8610 0.8610
3432.607077 0.8610 0.8610 0.8613 0.8615 0.8618
3436.674666 0.8620 0.8620 0.8620 0.8620 0.8620
3440.742256 0.8620 0.8620 0.8620 0.8620 0.8620
3444.809846 0.8620 0.8620 0.8621 0.8624 0.8626
3448.877436 0.8629 0.8630 0.8630 0.8630 0.8630
3452.945026 0.8630 0.8630 0.8630 0.8630 0.8630
3457.012615 0.8630 0.8630 0.8630 0.8632 0.8634
3461.080205 0.8637 0.8639 0.8640 0.8640 0.8640
3465.147795 0.8640 0.8640 0.8640 0.8640 0.8640
3469.215385 0.8640 0.8640 0.8640 0.8640 0.8642
3473.282974 0.8645 0.8647 0.8650 0.8650 0.8650
3477.350564 0.8650 0.8650 0.8650 0.8650 0.8650
3481.418154 0.8650 0.8650 0.8650 0.8650 0.8650
3485.485744 0.8653 0.8655 0.8658 0.8660 0.8663
3489.553334 0.8665 0.8668 0.8671 0.8673 0.8676
3493.620923 0.8678 0.8681 0.8683 0.8686 0.8688
3497.688513 0.8690 0.8690 0.8690 0.8690 0.8691
3501.756103 0.8693 0.8696 0.8699 0.8700 0.8700
3505.823693 0.8700 0.8700 0.8701 0.8704 0.8706
3509.891282 0.8709 0.8711 0.8714 0.8717 0.8719
3513.958872 0.8720 0.8720 0.8720 0.8720 0.8722
3518.026462 0.8724 0.8727 0.8729 0.8730 0.8730
3522.094052 0.8730 0.8730 0.8732 0.8735 0.8737
3526.161642 0.8740 0.8740 0.8740 0.8740 0.8740
3530.229231 0.8740 0.8740 0.8740 0.8740 0.8742
3534.296821 0.8745 0.8747 0.8750 0.8750 0.8750
3538.364411 0.8750 0.8750 0.8753 0.8755 0.8758
3542.432001 0.8760 0.8760 0.8760 0.8760 0.8761
3546.499591 0.8763 0.8766 0.8768 0.8770 0.8770
3550.567180 0.8770 0.8770 0.8770 0.8770 0.8770
3554.634770 0.8770 0.8771 0.8774 0.8776 0.8779
3558.702360 0.8780 0.8780 0.8780 0.8780 0.8781
3562.769950 0.8784 0.8786 0.8789 0.8790 0.8790
3566.837539 0.8790 0.8790 0.8792 0.8794 0.8797
3570.905129 0.8799 0.8800 0.8800 0.8800 0.8800
3574.972719 0.8800 0.8800 0.8800 0.8800 0.8800
3579.040309 0.8800 0.8800 0.8800 0.8802 0.8805
3583.107899 0.8807 0.8810 0.8810 0.8810 0.8810
3587.175488 0.8810 0.8812 0.8815 0.8818 0.8820
3591.243078 0.8820 0.8820 0.8820 0.8820 0.8817
3595.310668 0.8815 0.8812 0.8810 0.8813 0.8815
3599.378258 0.8818 0.8820 0.8820 0.8820 0.8820
3603.445847 0.8820 0.8820 0.8820 0.8820 0.8820
3607.513437 0.8820 0.8820 0.8820 0.8821 0.8824
3611.581027 0.8826 0.8829 0.8830 0.8830 0.8830
3615.648617 0.8830 0.8830 0.8830 0.8830 0.8830
3619.716207 0.8830 0.8830 0.8830 0.8830 0.8832
3623.783796 0.8834 0.8837 0.8839 0.8840 0.8840
3627.851386 0.8840 0.8840 0.8840 0.8840 0.8840
3631.918976 0.8840 0.8840 0.8840 0.8840 0.8840
3635.986566 0.8842 0.8845 0.8847 0.8850 0.8850
3640.054155 0.8850 0.8850 0.8850 0.8850 0.8850
3644.121745 0.8850 0.8850 0.8850 0.8850 0.8850
3648.189335 0.8850 0.8850 0.8850 0.8850 0.8850
3652.256925 0.8850 0.8850 0.8850 0.8850 0.8850
3656.324515 0.8850 0.8850 0.8850 0.8850 0.8850
3660.392104 0.8850 0.8850 0.8850 0.8850 0.8850
3664.459694 0.8850 0.8850 0.8850 0.8850 0.8850
3668.527284 0.8850 0.8850 0.8850 0.8850 0.8850
3672.594874 0.8850 0.8850 0.8850 0.8850 0.8850
3676.662463 0.8850 0.8850 0.8850 0.8850 0.8850
3680.730053 0.8850 0.8850 0.8850 0.8850 0.8850
3684.797643 0.8850 0.8850 0.8850 0.8848 0.8845
3688.865233 0.8843 0.8840 0.8840 0.8840 0.8840
3692.932823 0.8840 0.8840 0.8840 0.8840 0.8840
3697.000412 0.8840 0.8840 0.8840 0.8840 0.8840
3701.068002 0.8840 0.8840 0.8840 0.8840 0.8840
3705.135592 0.8840 0.8840 0.8840 0.8840 0.8840
3709.203182 0.8839 0.8837 0.8834 0.8832 0.8830
3713.270772 0.8830 0.8830 0.8830 0.8830 0.8830
3717.338361 0.8830 0.8830 0.8830 0.8830 0.8830
3721.405951 0.8830 0.8830 0.8830 0.8830 0.8830
3725.473541 0.8830 0.8830 0.8830 0.8830 0.8830
3729.541131 0.8830 0.8830 0.8830 0.8828 0.8826
3733.608720 0.8823 0.8821 0.8820 0.8820 0.8820
3737.676310 0.8820 0.8820 0.8820 0.8820 0.8820
3741.743900 0.8820 0.8820 0.8820 0.8820 0.8820
3745.811490 0.8820 0.8820 0.8820 0.8818 0.8815
3749.879080 0.8813 0.8810 0.8810 0.8810 0.8810
3753.946669 0.8810 0.8810 0.8810 0.8810 0.8810
3758.014259 0.8810 0.8810 0.8810 0.8810 0.8810
3762.081849 0.8810 0.8810 0.8810 0.8810 0.8810
3766.149439 0.8810 0.8809 0.8807 0.8804 0.8802
3770.217028 0.8800 0.8800 0.8800 0.8800 0.8800
3774.284618 0.8800 0.8800 0.8800 0.8800 0.8800
3778.352208 0.8800 0.8800 0.8800 0.8800 0.8800
3782.419798 0.8800 0.8800 0.8800 0.8800 0.8800
3786.487388 0.8800 0.8800 0.8800 0.8800 0.8800
3790.554977 0.8800 0.8800 0.8800 0.8800 0.8800
3794.622567 0.8800 0.8800 0.8800 0.8800 0.8800
3798.690157 0.8800 0.8800 0.8800 0.8800 0.8800
3802.757747 0.8798 0.8795 0.8793 0.8790 0.8790
3806.825336 0.8790 0.8790 0.8790 0.8790 0.8790
3810.892926 0.8790 0.8790 0.8790 0.8790 0.8790
3814.960516 0.8790 0.8790 0.8790 0.8790 0.8790
3819.028106 0.8787 0.8784 0.8782 0.8780 0.8780
3823.095696 0.8780 0.8780 0.8780 0.8780 0.8780
3827.163285 0.8780 0.8779 0.8776 0.8774 0.8771
3831.230875 0.8770 0.8770 0.8770 0.8770 0.8770
3835.298465 0.8770 0.8770 0.8770 0.8769 0.8766
3839.366055 0.8764 0.8761 0.8760 0.8760 0.8760
3843.433644 0.8760 0.8760 0.8760 0.8760 0.8760
3847.501234 0.8758 0.8756 0.8753 0.8751 0.8750
3851.568824 0.8750 0.8750 0.8750 0.8750 0.8750
3855.636414 0.8750 0.8750 0.8748 0.8745 0.8743
3859.704004 0.8740 0.8740 0.8740 0.8740 0.8740
3863.771593 0.8740 0.8740 0.8740 0.8740 0.8737
3867.839183 0.8735 0.8732 0.8730 0.8730 0.8730
3871.906773 0.8730 0.8730 0.8730 0.8730 0.8730
3875.974363 0.8729 0.8727 0.8724 0.8722 0.8720
3880.041952 0.8720 0.8720 0.8720 0.8720 0.8720
3884.109542 0.8720 0.8720 0.8719 0.8716 0.8714
3888.177132 0.8711 0.8710 0.8710 0.8710 0.8710
3892.244722 0.8710 0.8710 0.8710 0.8710 0.8708
3896.312312 0.8706 0.8703 0.8701 0.8700 0.8700
3900.379901 0.8700 0.8700 0.8700 0.8700 0.8700
3904.447491 0.8700 0.8700 0.8700 0.8700 0.8700
3908.515081 0.8700 0.8700 0.8700 0.8700 0.8700
3912.582671 0.8700 0.8700 0.8700 0.8698 0.8695
3916.650261 0.8693 0.8690 0.8690 0.8690 0.8690
3920.717850 0.8690 0.8690 0.8690 0.8690 0.8690
3924.785440 0.8687 0.8685 0.8682 0.8680 0.8680
3928.853030 0.8680 0.8680 0.8679 0.8677 0.8674
3932.920620 0.8672 0.8670 0.8670 0.8670 0.8670
3936.988209 0.8670 0.8670 0.8670 0.8670 0.8670
3941.055799 0.8670 0.8670 0.8670 0.8670 0.8670
3945.123389 0.8670 0.8670 0.8670 0.8670 0.8670
3949.190979 0.8670 0.8670 0.8670 0.8670 0.8670
3953.258569 0.8670 0.8670 0.8670 0.8670 0.8670
3957.326158 0.8670 0.8670 0.8670 0.8670 0.8670
3961.393748 0.8670 0.8670 0.8670 0.8670 0.8670
3965.461338 0.8670 0.8670 0.8670 0.8670 0.8670
3969.528928 0.8670 0.8670 0.8670 0.8670 0.8667
3973.596517 0.8665 0.8662 0.8660 0.8660 0.8660
3977.664107 0.8660 0.8660 0.8660 0.8660 0.8660
3981.731697 0.8660 0.8660 0.8660 0.8660 0.8660
3985.799287 0.8660 0.8660 0.8660 0.8660 0.8660
3989.866877 0.8660 0.8660 0.8660 0.8660 0.8660
3993.934466 0.8660 0.8660 0.8660 0.8660 0.8660
##END=
