##TITLE=TRIBUTYL PHOSPHATE
##JCAMP-DX=4.24
##DATA TYPE=INFRARED SPECTRUM
##CLASS=COBLENTZ
##ORIGIN=TENNESSEE EASTMAN COMPANY, RESEARCH LABORATORIES
##OWNER=COBLENTZ SOCIETY
Collection (C) 2018 copyright by the U.S. Secretary of Commerce
on behalf of the United States of America. All rights reserved.
##DATE=Not specified, most likely prior to 1970
##CAS REGISTRY NO=126-73-8
##MOLFORM=C12 H27 O4 P
##BP=135 C AT 5 mmHg
##SOURCE REFERENCE=COBLENTZ NO. 1548
##$NIST SOURCE=COBLENTZ
##$NIST IMAGE=cob1548
##SPECTROMETER/DATA SYSTEM=Not specified, most likely a prism, grating, or hybrid spectrometer.
##PATH LENGTH=SMEAR
##SAMPLING PROCEDURE=TRANSMISSION
##RESOLUTION=4
##DATA PROCESSING=DIGITIZED BY NIST FROM HARD COPY
##XUNITS=MICROMETERS
##YUNITS=TRANSMITTANCE
##XFACTOR=1.000000
##YFACTOR=1
##DELTAX=000.006826
##FIRSTX=2.014
##LASTX=16.0005
##FIRSTY=1
##MAXX=16.0005
##MINX=2.014
##MAXY=1.003
##MINY=0.059
##NPOINTS=2050
##XYDATA=(X++(Y..Y))
2.014000 1.0000 1.0000 1.0000 1.0000 1.0000
2.048146 1.0000 1.0000 1.0000 1.0000 1.0000
2.082000 1.0000 1.0000 1.0000 1.0000 1.0010
2.116146 1.0010 1.0030 1.0030 1.0030 1.0030
2.150000 1.0030 1.0030 1.0030 1.0030 1.0030
2.184146 1.0030 1.0030 1.0030 1.0030 1.0010
2.218000 1.0010 1.0000 1.0000 0.9980 0.9980
2.252146 0.9980 0.9980 0.9980 0.9980 0.9980
2.287000 0.9980 0.9980 1.0000 1.0000 1.0000
2.321146 1.0000 1.0000 1.0010 1.0010 1.0010
2.355000 1.0010 1.0010 1.0010 1.0010 1.0010
2.389146 1.0010 1.0010 1.0010 1.0010 1.0010
2.423000 1.0010 1.0010 1.0010 1.0010 1.0010
2.457146 1.0010 1.0010 1.0010 1.0010 1.0010
2.491000 1.0010 1.0010 1.0010 1.0030 1.0030
2.525146 1.0030 1.0010 1.0010 1.0010 1.0010
2.560000 1.0010 1.0010 1.0010 1.0010 1.0010
2.594146 1.0010 1.0010 1.0010 1.0010 1.0010
2.628000 1.0010 1.0010 1.0010 1.0010 1.0010
2.662146 1.0010 1.0010 1.0030 1.0030 1.0030
2.696000 1.0030 1.0010 1.0010 0.9960 0.9930
2.730146 0.9880 0.9820 0.9740 0.9650 0.9550
2.765000 0.9430 0.9280 0.9170 0.9090 0.8940
2.799146 0.8850 0.8820 0.8750 0.8730 0.8700
2.833000 0.8680 0.8640 0.8610 0.8590 0.8560
2.867146 0.8520 0.8520 0.8510 0.8510 0.8520
2.901000 0.8590 0.8640 0.8730 0.8780 0.8920
2.935146 0.9020 0.9110 0.9170 0.9240 0.9310
2.969000 0.9350 0.9400 0.9430 0.9470 0.9500
3.003146 0.9520 0.9530 0.9550 0.9570 0.9580
3.038000 0.9580 0.9600 0.9600 0.9620 0.9620
3.072146 0.9620 0.9620 0.9640 0.9640 0.9640
3.106000 0.9640 0.9640 0.9640 0.9640 0.9640
3.140146 0.9650 0.9650 0.9670 0.9670 0.9670
3.174000 0.9670 0.9670 0.9690 0.9690 0.9690
3.208146 0.9690 0.9690 0.9690 0.9690 0.9670
3.242000 0.9650 0.9640 0.9600 0.9570 0.9500
3.276146 0.9410 0.9350 0.9240 0.9140 0.9020
3.311000 0.8820 0.8440 0.8030 0.7570 0.6820
3.345146 0.5940 0.4880 0.3720 0.2440 0.2200
3.379000 0.2200 0.2220 0.2560 0.2880 0.3170
3.413146 0.3430 0.3600 0.3790 0.4030 0.4170
3.447000 0.4180 0.4200 0.4200 0.4230 0.4830
3.481146 0.5740 0.6420 0.7110 0.7570 0.7910
3.515000 0.8130 0.8350 0.8580 0.8710 0.8830
3.549146 0.8950 0.9050 0.9140 0.9190 0.9240
3.584000 0.9260 0.9280 0.9290 0.9290 0.9290
3.618146 0.9290 0.9290 0.9290 0.9290 0.9290
3.652000 0.9310 0.9330 0.9350 0.9380 0.9430
3.686146 0.9450 0.9520 0.9520 0.9530 0.9530
3.720000 0.9530 0.9550 0.9570 0.9570 0.9580
3.754146 0.9570 0.9580 0.9580 0.9600 0.9640
3.788000 0.9650 0.9670 0.9690 0.9700 0.9700
3.822146 0.9720 0.9720 0.9720 0.9740 0.9740
3.857000 0.9740 0.9740 0.9740 0.9740 0.9740
3.891146 0.9740 0.9740 0.9740 0.9760 0.9770
3.925000 0.9770 0.9770 0.9770 0.9770 0.9770
3.959146 0.9790 0.9790 0.9810 0.9810 0.9810
3.993000 0.9820 0.9820 0.9840 0.9840 0.9840
4.027146 0.9840 0.9840 0.9840 0.9840 0.9840
4.061000 0.9840 0.9840 0.9840 0.9840 0.9840
4.095146 0.9840 0.9840 0.9840 0.9840 0.9840
4.130000 0.9840 0.9840 0.9840 0.9840 0.9840
4.164146 0.9840 0.9840 0.9840 0.9840 0.9860
4.198000 0.9860 0.9860 0.9860 0.9860 0.9880
4.232146 0.9880 0.9890 0.9890 0.9890 0.9880
4.266000 0.9880 0.9880 0.9880 0.9880 0.9880
4.300146 0.9880 0.9880 0.9860 0.9860 0.9840
4.334000 0.9840 0.9840 0.9840 0.9840 0.9840
4.368146 0.9840 0.9840 0.9860 0.9860 0.9880
4.403000 0.9880 0.9880 0.9880 0.9880 0.9880
4.437146 0.9880 0.9880 0.9880 0.9880 0.9880
4.471000 0.9880 0.9880 0.9880 0.9890 0.9880
4.505146 0.9880 0.9880 0.9880 0.9880 0.9880
4.539000 0.9880 0.9880 0.9880 0.9880 0.9880
4.573146 0.9880 0.9890 0.9880 0.9880 0.9880
4.608000 0.9880 0.9880 0.9880 0.9880 0.9890
4.642146 0.9880 0.9880 0.9880 0.9860 0.9860
4.676000 0.9880 0.9880 0.9880 0.9880 0.9860
4.710146 0.9860 0.9860 0.9840 0.9840 0.9840
4.744000 0.9840 0.9840 0.9840 0.9840 0.9840
4.778146 0.9840 0.9840 0.9860 0.9880 0.9880
4.812000 0.9880 0.9880 0.9880 0.9880 0.9880
4.846146 0.9860 0.9860 0.9860 0.9840 0.9840
4.881000 0.9820 0.9820 0.9840 0.9820 0.9820
4.915146 0.9820 0.9820 0.9820 0.9820 0.9820
4.949000 0.9820 0.9820 0.9820 0.9820 0.9820
4.983146 0.9820 0.9820 0.9820 0.9820 0.9810
5.017000 0.9810 0.9810 0.9790 0.9790 0.9770
5.051146 0.9770 0.9760 0.9760 0.9760 0.9760
5.085000 0.9760 0.9760 0.9760 0.9760 0.9760
5.119146 0.9740 0.9720 0.9690 0.9670 0.9650
5.154000 0.9640 0.9640 0.9640 0.9640 0.9640
5.188146 0.9640 0.9620 0.9640 0.9620 0.9600
5.222000 0.9580 0.9570 0.9550 0.9550 0.9530
5.256146 0.9530 0.9530 0.9520 0.9520 0.9520
5.290000 0.9520 0.9520 0.9530 0.9530 0.9550
5.324146 0.9570 0.9570 0.9570 0.9570 0.9570
5.358000 0.9570 0.9570 0.9580 0.9580 0.9600
5.392146 0.9600 0.9600 0.9600 0.9600 0.9580
5.427000 0.9580 0.9580 0.9570 0.9570 0.9570
5.461146 0.9570 0.9570 0.9570 0.9550 0.9570
5.495000 0.9570 0.9550 0.9550 0.9550 0.9550
5.529146 0.9550 0.9550 0.9530 0.9530 0.9520
5.563000 0.9480 0.9470 0.9470 0.9470 0.9450
5.597146 0.9450 0.9430 0.9430 0.9430 0.9430
5.631000 0.9430 0.9430 0.9430 0.9410 0.9380
5.665146 0.9360 0.9360 0.9350 0.9350 0.9330
5.700000 0.9310 0.9310 0.9280 0.9260 0.9230
5.734146 0.9210 0.9210 0.9160 0.9140 0.9120
5.768000 0.9090 0.9090 0.9090 0.9110 0.9110
5.802146 0.9140 0.9160 0.9160 0.9160 0.9160
5.836000 0.9170 0.9170 0.9230 0.9240 0.9240
5.870146 0.9230 0.9240 0.9240 0.9230 0.9210
5.904000 0.9210 0.9190 0.9190 0.9190 0.9190
5.938146 0.9190 0.9170 0.9140 0.9110 0.9070
5.973000 0.9040 0.9020 0.9000 0.9000 0.8970
6.007146 0.8920 0.8870 0.8830 0.8820 0.8800
6.041000 0.8780 0.8780 0.8750 0.8710 0.8680
6.075146 0.8610 0.8590 0.8590 0.8590 0.8590
6.109000 0.8590 0.8610 0.8630 0.8640 0.8640
6.143146 0.8660 0.8710 0.8730 0.8760 0.8820
6.177000 0.8830 0.8850 0.8880 0.8920 0.8970
6.211146 0.9020 0.9050 0.9110 0.9110 0.9140
6.246000 0.9160 0.9190 0.9210 0.9230 0.9260
6.280146 0.9280 0.9290 0.9310 0.9310 0.9330
6.314000 0.9350 0.9350 0.9350 0.9330 0.9330
6.348146 0.9330 0.9310 0.9310 0.9310 0.9330
6.382000 0.9330 0.9310 0.9290 0.9280 0.9230
6.416146 0.9210 0.9210 0.9210 0.9210 0.9210
6.451000 0.9210 0.9210 0.9190 0.9170 0.9120
6.485146 0.9110 0.9090 0.9090 0.9090 0.9090
6.519000 0.9120 0.9120 0.9120 0.9110 0.9110
6.553146 0.9050 0.9050 0.9040 0.9020 0.9020
6.587000 0.9000 0.9000 0.8990 0.8920 0.8900
6.621146 0.8830 0.8780 0.8750 0.8730 0.8700
6.655000 0.8660 0.8590 0.8540 0.8510 0.8410
6.689146 0.8230 0.8030 0.7790 0.7530 0.7290
6.724000 0.7050 0.6830 0.6590 0.6420 0.6220
6.758146 0.6030 0.5790 0.5530 0.5190 0.5000
6.792000 0.4730 0.4700 0.4700 0.4710 0.4780
6.826146 0.4870 0.5000 0.5160 0.5350 0.5570
6.860000 0.5810 0.6080 0.6370 0.6610 0.6800
6.894146 0.7000 0.7170 0.7290 0.7410 0.7450
6.928000 0.7450 0.7430 0.7410 0.7360 0.7330
6.962146 0.7310 0.7350 0.7520 0.7720 0.7860
6.997000 0.8000 0.8220 0.8300 0.8320 0.8320
7.031146 0.8350 0.8390 0.8410 0.8440 0.8460
7.065000 0.8460 0.8460 0.8460 0.8440 0.8420
7.099146 0.8350 0.8290 0.8100 0.8000 0.7840
7.133000 0.7670 0.7520 0.7350 0.7170 0.7070
7.167146 0.6990 0.6880 0.6850 0.6820 0.6780
7.201000 0.6730 0.6660 0.6590 0.6540 0.6520
7.235146 0.6510 0.6520 0.6640 0.6800 0.7020
7.270000 0.7230 0.7410 0.7570 0.7720 0.7860
7.304146 0.7960 0.8050 0.8130 0.8180 0.8220
7.338000 0.8230 0.8270 0.8270 0.8270 0.8270
7.372146 0.8270 0.8270 0.8290 0.8290 0.8320
7.406000 0.8340 0.8350 0.8350 0.8350 0.8350
7.440146 0.8340 0.8340 0.8320 0.8290 0.8230
7.474000 0.8230 0.8230 0.8220 0.8220 0.8220
7.508146 0.8220 0.8220 0.8200 0.8200 0.8150
7.543000 0.8060 0.8030 0.8000 0.7910 0.7840
7.577146 0.7820 0.7790 0.7720 0.7580 0.7450
7.611000 0.7290 0.7140 0.6990 0.6820 0.6660
7.645146 0.6510 0.6350 0.6200 0.6050 0.5910
7.679000 0.5760 0.5620 0.5480 0.5330 0.5230
7.713146 0.5070 0.4940 0.4730 0.4520 0.4270
7.747000 0.3980 0.3720 0.3450 0.3210 0.2970
7.781146 0.2750 0.2540 0.2350 0.2200 0.2180
7.816000 0.2180 0.2200 0.2220 0.2230 0.2230
7.850146 0.2270 0.2300 0.2320 0.2350 0.2370
7.884000 0.2420 0.2440 0.2460 0.2470 0.2510
7.918146 0.2540 0.2580 0.2590 0.2660 0.2710
7.952000 0.2780 0.2880 0.3000 0.3140 0.3290
7.986146 0.3450 0.3620 0.3810 0.3980 0.4170
8.020000 0.4340 0.4520 0.4680 0.4830 0.4970
8.054146 0.5070 0.5140 0.5210 0.5230 0.5230
8.089000 0.5230 0.5230 0.5280 0.5330 0.5470
8.123146 0.5640 0.5910 0.6100 0.6350 0.6580
8.157000 0.6760 0.6940 0.7110 0.7230 0.7350
8.191146 0.7450 0.7550 0.7620 0.7690 0.7740
8.225000 0.7810 0.7820 0.7860 0.7910 0.7910
8.259146 0.7930 0.7960 0.8000 0.8010 0.8010
8.294000 0.8030 0.8130 0.8170 0.8150 0.8110
8.328146 0.8060 0.8050 0.8030 0.8030 0.8010
8.362000 0.8010 0.8010 0.8030 0.8030 0.8050
8.396146 0.8030 0.8030 0.8030 0.8030 0.8010
8.430000 0.8010 0.8000 0.8000 0.7980 0.7960
8.464146 0.7940 0.7910 0.7880 0.7810 0.7740
8.498000 0.7670 0.7580 0.7480 0.7380 0.7280
8.532146 0.7140 0.7070 0.7040 0.7020 0.6990
8.567000 0.6970 0.6950 0.6950 0.6950 0.6940
8.601146 0.6900 0.6850 0.6760 0.6680 0.6580
8.635000 0.6440 0.6290 0.6110 0.5940 0.5790
8.669146 0.5760 0.5740 0.5720 0.5720 0.5770
8.703000 0.5930 0.6060 0.6180 0.6300 0.6390
8.737146 0.6470 0.6520 0.6560 0.6560 0.6580
8.771000 0.6560 0.6540 0.6510 0.6440 0.6370
8.805146 0.6300 0.6230 0.6220 0.6180 0.6150
8.840000 0.6110 0.6050 0.6050 0.6030 0.5980
8.874146 0.5880 0.5770 0.5700 0.5640 0.5620
8.908000 0.5570 0.5530 0.5520 0.5530 0.5570
8.942146 0.5640 0.5720 0.5810 0.5910 0.5980
8.976000 0.6050 0.6100 0.6130 0.6150 0.6180
9.010146 0.6220 0.6220 0.6220 0.6200 0.6200
9.044000 0.6200 0.6130 0.6110 0.6060 0.6000
9.078146 0.5910 0.5840 0.5760 0.5650 0.5570
9.113000 0.5450 0.5330 0.5190 0.5070 0.4940
9.147146 0.4800 0.4660 0.4560 0.4460 0.4350
9.181000 0.4250 0.4170 0.4060 0.4000 0.3910
9.215146 0.3840 0.3770 0.3760 0.3670 0.3620
9.249000 0.3600 0.3550 0.3480 0.3410 0.3330
9.283146 0.3230 0.3120 0.3000 0.2870 0.2710
9.317000 0.2580 0.2510 0.2410 0.2290 0.2180
9.351146 0.2060 0.1940 0.1840 0.1740 0.1720
9.386000 0.1690 0.1600 0.1580 0.1550 0.1530
9.420146 0.1530 0.1530 0.1550 0.1550 0.1570
9.454000 0.1580 0.1580 0.1580 0.1600 0.1600
9.488146 0.1600 0.1600 0.1600 0.1600 0.1580
9.522000 0.1580 0.1570 0.1550 0.1530 0.1520
9.556146 0.1500 0.1470 0.1410 0.1330 0.1290
9.590000 0.1240 0.1160 0.1090 0.1020 0.0970
9.624146 0.0900 0.0850 0.0800 0.0760 0.0710
9.659000 0.0700 0.0680 0.0660 0.0640 0.0630
9.693146 0.0630 0.0610 0.0610 0.0590 0.0590
9.727000 0.0590 0.0590 0.0610 0.0630 0.0630
9.761146 0.0640 0.0680 0.0710 0.0750 0.0820
9.795000 0.0870 0.0940 0.1000 0.1050 0.1110
9.829146 0.1170 0.1230 0.1240 0.1290 0.1330
9.863000 0.1350 0.1350 0.1360 0.1380 0.1400
9.897146 0.1400 0.1400 0.1410 0.1410 0.1410
9.932000 0.1410 0.1410 0.1430 0.1430 0.1430
9.966146 0.1430 0.1430 0.1450 0.1450 0.1450
10.000000 0.1450 0.1450 0.1450 0.1430 0.1410
10.034146 0.1400 0.1380 0.1380 0.1380 0.1380
10.068000 0.1380 0.1380 0.1380 0.1380 0.1380
10.102146 0.1400 0.1400 0.1410 0.1410 0.1430
10.137000 0.1450 0.1500 0.1520 0.1530 0.1570
10.171146 0.1600 0.1640 0.1650 0.1700 0.1720
10.205000 0.1770 0.1810 0.1840 0.1890 0.1930
10.239146 0.2000 0.2050 0.2130 0.2220 0.2340
10.273000 0.2460 0.2610 0.2760 0.2940 0.3040
10.307146 0.3160 0.3280 0.3400 0.3520 0.3620
10.341000 0.3740 0.3820 0.3910 0.3930 0.3960
10.375146 0.3980 0.4000 0.4010 0.4030 0.4030
10.410000 0.4050 0.4060 0.4080 0.4100 0.4110
10.444146 0.4150 0.4170 0.4200 0.4220 0.4300
10.478000 0.4390 0.4470 0.4560 0.4640 0.4730
10.512146 0.4820 0.4950 0.5050 0.5170 0.5230
10.546000 0.5350 0.5430 0.5550 0.5650 0.5790
10.580146 0.5880 0.6000 0.6100 0.6180 0.6270
10.614000 0.6350 0.6390 0.6440 0.6510 0.6590
10.648146 0.6680 0.6760 0.6850 0.6920 0.6950
10.683000 0.7020 0.7050 0.7110 0.7160 0.7170
10.717146 0.7170 0.7210 0.7210 0.7230 0.7230
10.751000 0.7230 0.7240 0.7240 0.7240 0.7240
10.785146 0.7230 0.7230 0.7210 0.7170 0.7120
10.819000 0.7110 0.7050 0.6990 0.6920 0.6830
10.853146 0.6710 0.6610 0.6470 0.6340 0.6230
10.887000 0.6100 0.5960 0.5790 0.5640 0.5480
10.921146 0.5310 0.5170 0.5020 0.4900 0.4820
10.956000 0.4710 0.4640 0.4590 0.4520 0.4510
10.990146 0.4510 0.4510 0.4510 0.4510 0.4520
11.024000 0.4610 0.4660 0.4710 0.4780 0.4870
11.058146 0.4940 0.5020 0.5090 0.5160 0.5240
11.092000 0.5310 0.5380 0.5430 0.5500 0.5570
11.126146 0.5620 0.5690 0.5720 0.5770 0.5810
11.160000 0.5840 0.5890 0.6000 0.6030 0.6060
11.194146 0.6130 0.6180 0.6250 0.6300 0.6320
11.229000 0.6350 0.6410 0.6470 0.6510 0.6520
11.263146 0.6590 0.6640 0.6700 0.6730 0.6780
11.297000 0.6820 0.6870 0.6900 0.6940 0.6990
11.331146 0.7000 0.7040 0.7050 0.7090 0.7120
11.365000 0.7140 0.7160 0.7170 0.7170 0.7190
11.399146 0.7190 0.7190 0.7190 0.7190 0.7170
11.433000 0.7170 0.7140 0.7120 0.7050 0.7000
11.467146 0.6940 0.6880 0.6830 0.6780 0.6710
11.502000 0.6680 0.6610 0.6590 0.6540 0.6510
11.536146 0.6470 0.6470 0.6460 0.6460 0.6460
11.570000 0.6460 0.6460 0.6460 0.6470 0.6510
11.604146 0.6520 0.6540 0.6560 0.6580 0.6590
11.638000 0.6610 0.6610 0.6630 0.6630 0.6630
11.672146 0.6630 0.6630 0.6610 0.6610 0.6610
11.706000 0.6610 0.6590 0.6580 0.6560 0.6540
11.740146 0.6520 0.6520 0.6520 0.6520 0.6520
11.775000 0.6520 0.6520 0.6520 0.6520 0.6520
11.809146 0.6520 0.6540 0.6540 0.6560 0.6560
11.843000 0.6560 0.6580 0.6580 0.6580 0.6590
11.877146 0.6590 0.6590 0.6590 0.6590 0.6590
11.911000 0.6590 0.6610 0.6610 0.6590 0.6590
11.945146 0.6580 0.6580 0.6580 0.6580 0.6580
11.980000 0.6580 0.6590 0.6590 0.6580 0.6580
12.014146 0.6580 0.6590 0.6590 0.6610 0.6630
12.048000 0.6630 0.6640 0.6660 0.6680 0.6680
12.082146 0.6680 0.6700 0.6700 0.6700 0.6700
12.116000 0.6710 0.6710 0.6710 0.6710 0.6710
12.150146 0.6710 0.6710 0.6700 0.6680 0.6660
12.184000 0.6640 0.6610 0.6590 0.6560 0.6540
12.218146 0.6510 0.6490 0.6460 0.6410 0.6390
12.253000 0.6340 0.6320 0.6300 0.6250 0.6230
12.287146 0.6200 0.6170 0.6130 0.6100 0.6080
12.321000 0.6050 0.6030 0.6010 0.6010 0.6010
12.355146 0.6010 0.6010 0.6010 0.6030 0.6050
12.389000 0.6060 0.6080 0.6110 0.6170 0.6250
12.423146 0.6300 0.6350 0.6420 0.6470 0.6560
12.457000 0.6630 0.6700 0.6760 0.6830 0.6920
12.491146 0.7020 0.7120 0.7170 0.7210 0.7280
12.526000 0.7330 0.7400 0.7470 0.7500 0.7550
12.560146 0.7580 0.7620 0.7650 0.7690 0.7720
12.594000 0.7740 0.7790 0.7810 0.7820 0.7820
12.628146 0.7840 0.7860 0.7860 0.7880 0.7880
12.662000 0.7890 0.7890 0.7910 0.7910 0.7910
12.696146 0.7910 0.7910 0.7910 0.7910 0.7890
12.730000 0.7880 0.7860 0.7820 0.7810 0.7770
12.764146 0.7760 0.7720 0.7650 0.7600 0.7570
12.799000 0.7550 0.7500 0.7470 0.7430 0.7380
12.833146 0.7350 0.7310 0.7280 0.7260 0.7230
12.867000 0.7210 0.7170 0.7160 0.7160 0.7140
12.901146 0.7140 0.7120 0.7120 0.7110 0.7110
12.935000 0.7090 0.7090 0.7090 0.7090 0.7090
12.969146 0.7110 0.7120 0.7140 0.7160 0.7170
13.003000 0.7190 0.7230 0.7240 0.7280 0.7290
13.037146 0.7330 0.7360 0.7360 0.7400 0.7410
13.072000 0.7470 0.7480 0.7520 0.7530 0.7550
13.106146 0.7580 0.7600 0.7600 0.7620 0.7620
13.140000 0.7640 0.7640 0.7640 0.7650 0.7650
13.174146 0.7650 0.7650 0.7640 0.7640 0.7620
13.208000 0.7600 0.7580 0.7570 0.7550 0.7520
13.242146 0.7500 0.7500 0.7480 0.7450 0.7430
13.276000 0.7410 0.7380 0.7360 0.7360 0.7360
13.310146 0.7350 0.7350 0.7330 0.7310 0.7310
13.345000 0.7290 0.7280 0.7240 0.7230 0.7210
13.379146 0.7170 0.7160 0.7120 0.7090 0.7050
13.413000 0.7000 0.6950 0.6900 0.6830 0.6780
13.447146 0.6680 0.6630 0.6580 0.6510 0.6440
13.481000 0.6390 0.6300 0.6250 0.6220 0.6180
13.515146 0.6130 0.6130 0.6100 0.6100 0.6100
13.549000 0.6100 0.6080 0.6060 0.6060 0.6060
13.583146 0.6060 0.6060 0.6100 0.6130 0.6150
13.618000 0.6180 0.6180 0.6230 0.6250 0.6300
13.652146 0.6340 0.6390 0.6440 0.6490 0.6510
13.686000 0.6510 0.6520 0.6560 0.6580 0.6610
13.720146 0.6630 0.6640 0.6700 0.6730 0.6730
13.754000 0.6750 0.6780 0.6800 0.6820 0.6830
13.788146 0.6850 0.6870 0.6870 0.6900 0.6900
13.823000 0.6920 0.6920 0.6950 0.6990 0.7000
13.857146 0.7020 0.7040 0.7070 0.7090 0.7110
13.891000 0.7140 0.7140 0.7160 0.7190 0.7210
13.925146 0.7240 0.7260 0.7290 0.7330 0.7360
13.959000 0.7400 0.7400 0.7430 0.7450 0.7470
13.993146 0.7480 0.7500 0.7530 0.7550 0.7570
14.027000 0.7580 0.7580 0.7600 0.7620 0.7640
14.061146 0.7670 0.7690 0.7700 0.7720 0.7740
14.096000 0.7760 0.7760 0.7770 0.7790 0.7790
14.130146 0.7820 0.7840 0.7860 0.7890 0.7890
14.164000 0.7910 0.7930 0.7930 0.7940 0.7940
14.198146 0.7960 0.7960 0.7980 0.7980 0.8000
14.232000 0.7980 0.8000 0.8000 0.7980 0.7980
14.266146 0.7980 0.8000 0.8000 0.8010 0.8010
14.300000 0.8030 0.8030 0.8030 0.8030 0.8030
14.334146 0.8050 0.8050 0.8050 0.8050 0.8050
14.369000 0.8050 0.8050 0.8030 0.8030 0.8030
14.403146 0.8030 0.8050 0.8050 0.8050 0.8030
14.437000 0.8030 0.8030 0.8030 0.8030 0.8030
14.471146 0.8030 0.8030 0.8030 0.8030 0.8030
14.505000 0.8010 0.8010 0.8010 0.8010 0.8000
14.539146 0.8000 0.8000 0.7980 0.7980 0.7980
14.573000 0.7960 0.7960 0.7960 0.7940 0.7940
14.607146 0.7930 0.7940 0.7930 0.7910 0.7910
14.642000 0.7910 0.7890 0.7890 0.7880 0.7880
14.676146 0.7860 0.7860 0.7860 0.7840 0.7840
14.710000 0.7820 0.7820 0.7810 0.7810 0.7790
14.744146 0.7790 0.7770 0.7770 0.7770 0.7770
14.778000 0.7770 0.7770 0.7760 0.7760 0.7740
14.812146 0.7720 0.7720 0.7700 0.7700 0.7690
14.846000 0.7690 0.7690 0.7690 0.7670 0.7650
14.880146 0.7650 0.7640 0.7620 0.7600 0.7600
14.915000 0.7580 0.7570 0.7550 0.7530 0.7500
14.949146 0.7480 0.7430 0.7410 0.7400 0.7380
14.983000 0.7380 0.7380 0.7380 0.7360 0.7360
15.017146 0.7350 0.7350 0.7330 0.7330 0.7330
15.051000 0.7330 0.7330 0.7330 0.7330 0.7310
15.085146 0.7310 0.7310 0.7310 0.7290 0.7290
15.119000 0.7290 0.7280 0.7260 0.7240 0.7240
15.153146 0.7240 0.7230 0.7210 0.7190 0.7190
15.188000 0.7190 0.7190 0.7190 0.7170 0.7160
15.222146 0.7160 0.7140 0.7140 0.7140 0.7120
15.256000 0.7120 0.7110 0.7090 0.7070 0.7070
15.290146 0.7050 0.7050 0.7040 0.7020 0.7020
15.324000 0.7000 0.7000 0.7000 0.6990 0.6970
15.358146 0.6950 0.6950 0.6940 0.6940 0.6920
15.392000 0.6920 0.6920 0.6920 0.6900 0.6900
15.426146 0.6900 0.6900 0.6880 0.6880 0.6870
15.461000 0.6850 0.6850 0.6850 0.6830 0.6830
15.495146 0.6830 0.6800 0.6800 0.6800 0.6780
15.529000 0.6760 0.6750 0.6730 0.6730 0.6730
15.563146 0.6730 0.6710 0.6710 0.6710 0.6710
15.597000 0.6710 0.6710 0.6700 0.6700 0.6700
15.631146 0.6680 0.6680 0.6660 0.6660 0.6660
15.666000 0.6640 0.6640 0.6640 0.6640 0.6640
15.700146 0.6640 0.6630 0.6610 0.6590 0.6580
15.734000 0.6560 0.6560 0.6540 0.6520 0.6520
15.768146 0.6520 0.6520 0.6510 0.6510 0.6510
15.802000 0.6510 0.6510 0.6510 0.6490 0.6470
15.836146 0.6470 0.6470 0.6470 0.6460 0.6460
15.870000 0.6460 0.6460 0.6460 0.6440 0.6440
15.904146 0.6440 0.6440 0.6440 0.6440 0.6440
15.939000 0.6420 0.6420 0.6420 0.6420 0.6410
15.973146 0.6410 0.6410 0.6410 0.6410 0.6350
##END=
