##TITLE=METHACRYLONITRILE
##JCAMP-DX=4.24
##DATA TYPE=INFRARED SPECTRUM
##CLASS=COBLENTZ
##ORIGIN=DOW CHEMICAL COMPANY
##OWNER=COBLENTZ SOCIETY
Collection (C) 2018 copyright by the U.S. Secretary of Commerce
on behalf of the United States of America. All rights reserved.
##DATE=Not specified, most likely prior to 1970
##NAMES=2-methylacrylonitrile
##CAS REGISTRY NO=126-98-7
##MOLFORM=C4 H5 N
##SOURCE REFERENCE=COBLENTZ NO. 1510
##$NIST SOURCE=COBLENTZ
##$NIST IMAGE=cob1510
##SPECTROMETER/DATA SYSTEM=Not specified, most likely a prism, grating, or hybrid spectrometer.
##STATE=SOLUTION (10% CCl4 FOR 5000-1330, 10% CS2 FOR 1330-625 CM^-^1)
##PATH LENGTH=0.0128 CM, 0.0125 CM
$$SPECTRAL CONTAMINATION DUE TO CS2 AROUND 850, AND CCl4 AROUND 1550 CM^-^1
##SAMPLING PROCEDURE=TRANSMISSION
##RESOLUTION=4
##DATA PROCESSING=DIGITIZED BY NIST FROM HARD COPY
##XUNITS=MICROMETERS
##YUNITS=TRANSMITTANCE
##XFACTOR=1.000000
##YFACTOR=1
##DELTAX=000.006863
##FIRSTX=2.027
##LASTX=15.8769
##FIRSTY=0.895
##MAXX=15.8769
##MINX=2.027
##MAXY=0.914
##MINY=0.018
##NPOINTS=2019
##XYDATA=(X++(Y..Y))
2.027000 0.8950 0.8950 0.8950 0.8950 0.8950
2.061331 0.8950 0.8950 0.8950 0.8950 0.8950
2.096000 0.8950 0.8990 0.8990 0.8940 0.8920
2.130331 0.8900 0.8890 0.8890 0.8820 0.8780
2.165000 0.8780 0.8770 0.8750 0.8730 0.8730
2.199331 0.8700 0.8660 0.8650 0.8630 0.8610
2.233000 0.8610 0.8650 0.8680 0.8750 0.8820
2.267331 0.8820 0.8830 0.8830 0.8830 0.8830
2.302000 0.8850 0.8850 0.8890 0.8900 0.8920
2.336331 0.8940 0.8950 0.8950 0.8920 0.8920
2.371000 0.8900 0.8890 0.8890 0.8870 0.8850
2.405331 0.8850 0.8830 0.8820 0.8820 0.8820
2.439000 0.8830 0.8830 0.8830 0.8850 0.8850
2.473331 0.8850 0.8870 0.8870 0.8890 0.8890
2.508000 0.8900 0.8940 0.8940 0.8940 0.8940
2.542331 0.8940 0.8940 0.8920 0.8920 0.8920
2.576000 0.8920 0.8920 0.8950 0.8950 0.8970
2.610331 0.8970 0.8970 0.8950 0.8950 0.8940
2.645000 0.8940 0.8920 0.8900 0.8900 0.8890
2.679331 0.8870 0.8870 0.8870 0.8870 0.8870
2.714000 0.8870 0.8870 0.8870 0.8870 0.8830
2.748331 0.8800 0.8770 0.8720 0.8700 0.8700
2.782000 0.8700 0.8700 0.8700 0.8780 0.8780
2.816331 0.8730 0.8680 0.8680 0.8680 0.8700
2.851000 0.8720 0.8780 0.8800 0.8820 0.8830
2.885331 0.8820 0.8820 0.8800 0.8800 0.8780
2.920000 0.8780 0.8780 0.8780 0.8780 0.8780
2.954331 0.8780 0.8800 0.8800 0.8820 0.8820
2.988000 0.8820 0.8820 0.8820 0.8820 0.8800
3.022331 0.8800 0.8780 0.8770 0.8750 0.8720
3.057000 0.8700 0.8720 0.8720 0.8720 0.8700
3.091331 0.8700 0.8680 0.8650 0.8610 0.8600
3.125000 0.8580 0.8580 0.8540 0.8510 0.8480
3.159331 0.8440 0.8340 0.8270 0.8240 0.8240
3.194000 0.8270 0.8340 0.8370 0.8390 0.8410
3.228331 0.8410 0.8410 0.8410 0.8370 0.8270
3.263000 0.8170 0.8050 0.7960 0.7880 0.7690
3.297331 0.7400 0.7060 0.6800 0.6550 0.6270
3.331000 0.6210 0.6190 0.6210 0.6410 0.6630
3.365331 0.6800 0.6920 0.7040 0.7160 0.7350
3.400000 0.7610 0.7740 0.7860 0.7900 0.7910
3.434331 0.7910 0.7950 0.8050 0.8170 0.8240
3.469000 0.8310 0.8360 0.8430 0.8510 0.8530
3.503331 0.8580 0.8600 0.8610 0.8660 0.8680
3.537000 0.8700 0.8700 0.8700 0.8700 0.8700
3.571331 0.8700 0.8720 0.8720 0.8720 0.8720
3.606000 0.8720 0.8720 0.8730 0.8750 0.8780
3.640331 0.8800 0.8830 0.8850 0.8850 0.8870
3.675000 0.8870 0.8870 0.8870 0.8890 0.8890
3.709331 0.8870 0.8870 0.8870 0.8820 0.8780
3.743000 0.8770 0.8750 0.8750 0.8780 0.8800
3.777331 0.8850 0.8870 0.8870 0.8870 0.8870
3.812000 0.8850 0.8830 0.8820 0.8820 0.8800
3.846331 0.8800 0.8780 0.8780 0.8780 0.8780
3.880000 0.8800 0.8820 0.8820 0.8830 0.8830
3.914331 0.8820 0.8800 0.8770 0.8750 0.8750
3.949000 0.8780 0.8800 0.8820 0.8820 0.8830
3.983331 0.8830 0.8830 0.8830 0.8830 0.8830
4.018000 0.8830 0.8830 0.8820 0.8800 0.8780
4.052331 0.8770 0.8750 0.8720 0.8680 0.8660
4.086000 0.8660 0.8660 0.8660 0.8680 0.8700
4.120331 0.8700 0.8700 0.8700 0.8720 0.8720
4.155000 0.8700 0.8680 0.8660 0.8680 0.8680
4.189331 0.8660 0.8660 0.8630 0.8610 0.8600
4.224000 0.8580 0.8560 0.8560 0.8560 0.8580
4.258331 0.8600 0.8610 0.8650 0.8660 0.8660
4.292000 0.8660 0.8660 0.8660 0.8660 0.8650
4.326331 0.8650 0.8630 0.8630 0.8610 0.8610
4.361000 0.8610 0.8610 0.8530 0.8460 0.8370
4.395331 0.8290 0.8070 0.7780 0.7260 0.7080
4.429000 0.6630 0.6040 0.5680 0.5540 0.5540
4.463331 0.5580 0.5980 0.6530 0.7040 0.7470
4.498000 0.7640 0.7900 0.8100 0.8460 0.8660
4.532331 0.8700 0.8700 0.8700 0.8700 0.8680
4.567000 0.8680 0.8680 0.8680 0.8680 0.8720
4.601331 0.8770 0.8800 0.8820 0.8820 0.8780
4.635000 0.8780 0.8780 0.8780 0.8780 0.8780
4.669331 0.8780 0.8780 0.8780 0.8800 0.8800
4.704000 0.8820 0.8850 0.8870 0.8870 0.8870
4.738331 0.8870 0.8870 0.8870 0.8870 0.8850
4.773000 0.8830 0.8830 0.8820 0.8820 0.8820
4.807331 0.8820 0.8820 0.8820 0.8830 0.8830
4.841000 0.8830 0.8830 0.8830 0.8870 0.8870
4.875331 0.8850 0.8850 0.8830 0.8830 0.8820
4.910000 0.8800 0.8800 0.8780 0.8780 0.8780
4.944331 0.8770 0.8770 0.8750 0.8750 0.8770
4.978000 0.8770 0.8770 0.8750 0.8750 0.8750
5.012331 0.8750 0.8770 0.8770 0.8780 0.8780
5.047000 0.8800 0.8770 0.8770 0.8780 0.8780
5.081331 0.8780 0.8800 0.8820 0.8830 0.8830
5.116000 0.8830 0.8820 0.8800 0.8780 0.8800
5.150331 0.8800 0.8800 0.8800 0.8780 0.8770
5.184000 0.8750 0.8720 0.8660 0.8630 0.8580
5.218331 0.8560 0.8540 0.8530 0.8490 0.8480
5.253000 0.8430 0.8340 0.8250 0.8150 0.8070
5.287331 0.7980 0.7860 0.7760 0.7640 0.7490
5.322000 0.7380 0.7300 0.7280 0.7300 0.7350
5.356331 0.7470 0.7590 0.7710 0.7840 0.7980
5.390000 0.8100 0.8240 0.8360 0.8480 0.8560
5.424331 0.8630 0.8660 0.8660 0.8660 0.8680
5.459000 0.8680 0.8700 0.8720 0.8700 0.8680
5.493331 0.8680 0.8700 0.8700 0.8720 0.8730
5.527000 0.8750 0.8750 0.8780 0.8780 0.8800
5.561331 0.8800 0.8800 0.8780 0.8780 0.8780
5.596000 0.8780 0.8750 0.8750 0.8750 0.8750
5.630331 0.8750 0.8770 0.8770 0.8770 0.8770
5.665000 0.8770 0.8770 0.8770 0.8770 0.8770
5.699331 0.8770 0.8770 0.8750 0.8750 0.8750
5.733000 0.8750 0.8770 0.8770 0.8770 0.8770
5.767331 0.8770 0.8770 0.8770 0.8770 0.8770
5.802000 0.8770 0.8750 0.8700 0.8660 0.8660
5.836331 0.8660 0.8680 0.8680 0.8660 0.8660
5.871000 0.8660 0.8610 0.8610 0.8600 0.8600
5.905331 0.8610 0.8610 0.8580 0.8560 0.8540
5.939000 0.8530 0.8490 0.8490 0.8460 0.8430
5.973331 0.8370 0.8250 0.8190 0.8100 0.8050
6.008000 0.7980 0.7950 0.7880 0.7840 0.7840
6.042331 0.7810 0.7810 0.7790 0.7780 0.7740
6.076000 0.7620 0.7280 0.6630 0.6210 0.5760
6.110331 0.5320 0.5030 0.4940 0.4860 0.4840
6.145000 0.4880 0.5810 0.6210 0.6560 0.6820
6.179331 0.6960 0.6970 0.6960 0.6920 0.6800
6.214000 0.6620 0.6530 0.6430 0.6340 0.6220
6.248331 0.6120 0.6040 0.5980 0.5950 0.5920
6.282000 0.5870 0.5810 0.5780 0.5750 0.5750
6.316331 0.5690 0.5660 0.5610 0.5540 0.5470
6.351000 0.5350 0.5270 0.5180 0.5080 0.5010
6.385331 0.5000 0.4980 0.4790 0.4670 0.4530
6.420000 0.4500 0.4400 0.4380 0.4380 0.4380
6.454331 0.4380 0.4470 0.4700 0.4840 0.4960
6.488000 0.5220 0.5350 0.5440 0.5490 0.5540
6.522331 0.5580 0.5640 0.5750 0.5870 0.5980
6.557000 0.6100 0.6190 0.6270 0.6360 0.6450
6.591331 0.6560 0.6680 0.6800 0.6920 0.6970
6.625000 0.7010 0.7060 0.7080 0.7090 0.7160
6.659331 0.7160 0.7180 0.7200 0.7210 0.7210
6.694000 0.7210 0.7200 0.7110 0.6890 0.6800
6.728331 0.6650 0.6510 0.6390 0.6140 0.5950
6.763000 0.5730 0.5660 0.5520 0.5490 0.5420
6.797331 0.5290 0.5130 0.5050 0.4960 0.4690
6.831000 0.4280 0.3660 0.3190 0.2160 0.1770
6.865331 0.1770 0.1840 0.1870 0.2330 0.2790
6.900000 0.3240 0.3680 0.4090 0.4470 0.4810
6.934331 0.5290 0.5350 0.5390 0.5400 0.5390
6.969000 0.5340 0.5320 0.5370 0.5460 0.5640
7.003331 0.5830 0.5980 0.6140 0.6340 0.6510
7.037000 0.6600 0.6620 0.6620 0.6580 0.6510
7.071331 0.6430 0.6390 0.6380 0.6380 0.6390
7.106000 0.6460 0.6510 0.6580 0.6670 0.6770
7.140331 0.6840 0.6870 0.6870 0.6860 0.6670
7.175000 0.6450 0.6120 0.5920 0.5540 0.5170
7.209331 0.5010 0.4860 0.4690 0.4690 0.4690
7.243000 0.4770 0.6310 0.7060 0.7440 0.7730
7.277331 0.7840 0.7950 0.8020 0.8080 0.8150
7.312000 0.8190 0.8240 0.8270 0.8290 0.8310
7.346331 0.8320 0.8340 0.8360 0.8370 0.8390
7.380000 0.8410 0.8410 0.8410 0.8410 0.8410
7.414331 0.8410 0.8410 0.8410 0.8390 0.8390
7.449000 0.8390 0.8390 0.8370 0.8390 0.8370
7.483331 0.8360 0.8360 0.8340 0.8340 0.8340
7.518000 0.8340 0.8360 0.8370 0.8410 0.8460
7.552331 0.8460 0.8480 0.8480 0.8490 0.8510
7.586000 0.8510 0.8530 0.8540 0.8540 0.8560
7.620331 0.8560 0.8580 0.8580 0.8600 0.8600
7.655000 0.8580 0.8580 0.8560 0.8560 0.8560
7.689331 0.8560 0.8540 0.8530 0.8530 0.8510
7.724000 0.8490 0.8490 0.8480 0.8460 0.8430
7.758331 0.8360 0.8290 0.8240 0.8170 0.8100
7.792000 0.8000 0.7880 0.7740 0.7540 0.7300
7.826331 0.7010 0.6650 0.6210 0.5690 0.5320
7.861000 0.5130 0.4930 0.4600 0.4570 0.4590
7.895331 0.4840 0.5780 0.6380 0.6940 0.7320
7.929000 0.7490 0.7880 0.7960 0.8120 0.8220
7.963331 0.8290 0.8360 0.8410 0.8460 0.8510
7.998000 0.8540 0.8580 0.8610 0.8630 0.8650
8.032331 0.8650 0.8660 0.8680 0.8700 0.8700
8.067000 0.8720 0.8730 0.8730 0.8750 0.8750
8.101331 0.8770 0.8770 0.8780 0.8780 0.8800
8.135000 0.8800 0.8800 0.8800 0.8780 0.8770
8.169331 0.8770 0.8750 0.8730 0.8720 0.8720
8.204000 0.8700 0.8700 0.8680 0.8680 0.8680
8.238331 0.8700 0.8720 0.8730 0.8730 0.8750
8.273000 0.8770 0.8780 0.8800 0.8820 0.8820
8.307331 0.8830 0.8850 0.8870 0.8890 0.8920
8.341000 0.8940 0.8940 0.8940 0.8940 0.8940
8.375331 0.8940 0.8940 0.8940 0.8940 0.8940
8.410000 0.8940 0.8940 0.8940 0.8940 0.8920
8.444331 0.8920 0.8900 0.8900 0.8900 0.8900
8.478000 0.8890 0.8890 0.8890 0.8890 0.8890
8.512331 0.8890 0.8870 0.8870 0.8850 0.8850
8.547000 0.8830 0.8800 0.8780 0.8780 0.8780
8.581331 0.8780 0.8820 0.8830 0.8850 0.8890
8.616000 0.8900 0.8950 0.8940 0.8950 0.8970
8.650331 0.8970 0.8990 0.8990 0.9010 0.9020
8.684000 0.9040 0.9040 0.9060 0.9040 0.9060
8.718331 0.9060 0.9070 0.9070 0.9070 0.9070
8.753000 0.9070 0.9070 0.9070 0.9070 0.9070
8.787331 0.9070 0.9070 0.9070 0.9070 0.9070
8.822000 0.9070 0.9060 0.9060 0.9060 0.9060
8.856331 0.9060 0.9060 0.9060 0.9060 0.9040
8.890000 0.9040 0.9040 0.9040 0.9040 0.9040
8.924331 0.9060 0.9060 0.9060 0.9060 0.9060
8.959000 0.9060 0.9070 0.9090 0.9090 0.9070
8.993331 0.9090 0.9090 0.9070 0.9070 0.9070
9.027000 0.9070 0.9090 0.9090 0.9090 0.9090
9.061331 0.9110 0.9110 0.9120 0.9140 0.9140
9.096000 0.9140 0.9140 0.9140 0.9140 0.9120
9.130331 0.9120 0.9110 0.9090 0.9070 0.9070
9.165000 0.9060 0.9060 0.9040 0.9040 0.9040
9.199331 0.9040 0.9040 0.9040 0.9040 0.9040
9.233000 0.9040 0.9040 0.9070 0.9070 0.9070
9.267331 0.9070 0.9070 0.9060 0.9060 0.9040
9.302000 0.9040 0.9020 0.9020 0.9010 0.8990
9.336331 0.8990 0.8970 0.8970 0.8950 0.8940
9.371000 0.8950 0.8920 0.8920 0.8900 0.8900
9.405331 0.8890 0.8890 0.8850 0.8830 0.8800
9.439000 0.8780 0.8770 0.8730 0.8720 0.8700
9.473331 0.8680 0.8650 0.8580 0.8560 0.8530
9.508000 0.8480 0.8430 0.8360 0.8310 0.8220
9.542331 0.8150 0.8120 0.8070 0.8050 0.8050
9.576000 0.8050 0.8050 0.8080 0.8100 0.8120
9.610331 0.8130 0.8150 0.8150 0.8170 0.8190
9.645000 0.8240 0.8240 0.8250 0.8250 0.8240
9.679331 0.8240 0.8190 0.8150 0.8080 0.8020
9.714000 0.7930 0.7830 0.7740 0.7620 0.7500
9.748331 0.7380 0.7230 0.7060 0.6870 0.6620
9.782000 0.6450 0.6210 0.6070 0.5850 0.5580
9.816331 0.5370 0.5270 0.5270 0.5270 0.5270
9.851000 0.5340 0.5560 0.5730 0.5970 0.6170
9.885331 0.6460 0.6670 0.6860 0.6960 0.7130
9.920000 0.7280 0.7420 0.7550 0.7690 0.7790
9.954331 0.7910 0.8030 0.8130 0.8200 0.8240
9.988000 0.8250 0.8270 0.8320 0.8370 0.8410
10.022331 0.8440 0.8460 0.8480 0.8490 0.8510
10.057000 0.8530 0.8530 0.8530 0.8530 0.8530
10.091331 0.8530 0.8530 0.8530 0.8530 0.8530
10.125000 0.8530 0.8530 0.8510 0.8510 0.8510
10.159331 0.8510 0.8510 0.8490 0.8490 0.8480
10.194000 0.8480 0.8460 0.8440 0.8430 0.8390
10.228331 0.8360 0.8340 0.8320 0.8310 0.8290
10.263000 0.8250 0.8240 0.8190 0.8150 0.8120
10.297331 0.8080 0.8050 0.7980 0.7960 0.7880
10.331000 0.7880 0.7860 0.7780 0.7730 0.7670
10.365331 0.7610 0.7540 0.7450 0.7380 0.7300
10.400000 0.7200 0.7110 0.7010 0.6920 0.6800
10.434331 0.6700 0.6600 0.6480 0.6360 0.6210
10.469000 0.6050 0.6000 0.5920 0.5810 0.5730
10.503331 0.5690 0.5610 0.5490 0.5350 0.5230
10.537000 0.5100 0.5030 0.4940 0.4790 0.4600
10.571331 0.4400 0.4160 0.3870 0.3600 0.3340
10.606000 0.3080 0.2860 0.2660 0.2450 0.2260
10.640331 0.2080 0.1910 0.1750 0.1580 0.1450
10.675000 0.1290 0.1160 0.1020 0.0880 0.0750
10.709331 0.0630 0.0560 0.0470 0.0420 0.0300
10.743000 0.0290 0.0270 0.0250 0.0230 0.0220
10.777331 0.0180 0.0180 0.0180 0.0230 0.0320
10.812000 0.0420 0.0540 0.0680 0.0880 0.1100
10.846331 0.1460 0.1940 0.2350 0.2730 0.3050
10.880000 0.3370 0.3700 0.4010 0.4330 0.4650
10.914331 0.4930 0.5490 0.5750 0.5950 0.6070
10.949000 0.6240 0.6390 0.6530 0.6650 0.6770
10.983331 0.6870 0.6960 0.7060 0.7160 0.7260
11.018000 0.7470 0.7610 0.7660 0.7690 0.7730
11.052331 0.7760 0.7810 0.7840 0.7900 0.7930
11.086000 0.7980 0.8020 0.8070 0.8100 0.8130
11.120331 0.8150 0.8150 0.8170 0.8200 0.8220
11.155000 0.8240 0.8240 0.8240 0.8250 0.8250
11.189331 0.8250 0.8250 0.8250 0.8250 0.8250
11.224000 0.8250 0.8250 0.8250 0.8250 0.8250
11.258331 0.8240 0.8240 0.8240 0.8190 0.8150
11.292000 0.8150 0.8120 0.8080 0.8080 0.8070
11.326331 0.8050 0.8020 0.7980 0.7960 0.7930
11.361000 0.7910 0.7880 0.7860 0.7840 0.7840
11.395331 0.7830 0.7810 0.7780 0.7740 0.7730
11.429000 0.7670 0.7660 0.7640 0.7620 0.7610
11.463331 0.7590 0.7550 0.7540 0.7540 0.7520
11.498000 0.7490 0.7470 0.7450 0.7440 0.7420
11.532331 0.7400 0.7380 0.7380 0.7370 0.7370
11.567000 0.7350 0.7350 0.7330 0.7320 0.7320
11.601331 0.7300 0.7300 0.7280 0.7280 0.7280
11.635000 0.7260 0.7260 0.7250 0.7250 0.7250
11.669331 0.7250 0.7260 0.7260 0.7280 0.7300
11.704000 0.7330 0.7350 0.7370 0.7380 0.7400
11.738331 0.7440 0.7470 0.7520 0.7570 0.7610
11.773000 0.7660 0.7730 0.7780 0.7830 0.7880
11.807331 0.7910 0.8000 0.8080 0.8100 0.8130
11.841000 0.8150 0.8190 0.8250 0.8310 0.8360
11.875331 0.8410 0.8440 0.8460 0.8530 0.8580
11.910000 0.8600 0.8610 0.8610 0.8650 0.8660
11.944331 0.8680 0.8700 0.8720 0.8730 0.8750
11.978000 0.8750 0.8770 0.8780 0.8780 0.8780
12.012331 0.8800 0.8800 0.8820 0.8820 0.8820
12.047000 0.8830 0.8830 0.8830 0.8830 0.8830
12.081331 0.8830 0.8830 0.8830 0.8830 0.8830
12.116000 0.8830 0.8830 0.8830 0.8830 0.8830
12.150331 0.8830 0.8830 0.8830 0.8820 0.8800
12.184000 0.8780 0.8770 0.8750 0.8720 0.8680
12.218331 0.8660 0.8660 0.8650 0.8650 0.8650
12.253000 0.8600 0.8600 0.8580 0.8580 0.8560
12.287331 0.8540 0.8540 0.8540 0.8540 0.8540
12.322000 0.8540 0.8540 0.8560 0.8560 0.8580
12.356331 0.8580 0.8600 0.8600 0.8630 0.8650
12.390000 0.8650 0.8650 0.8660 0.8680 0.8700
12.424331 0.8700 0.8700 0.8700 0.8700 0.8680
12.459000 0.8680 0.8680 0.8680 0.8680 0.8660
12.493331 0.8660 0.8650 0.8650 0.8650 0.8650
12.527000 0.8650 0.8650 0.8630 0.8650 0.8650
12.561331 0.8650 0.8650 0.8650 0.8650 0.8650
12.596000 0.8650 0.8650 0.8630 0.8630 0.8610
12.630331 0.8600 0.8560 0.8560 0.8560 0.8560
12.665000 0.8560 0.8560 0.8560 0.8560 0.8560
12.699331 0.8560 0.8560 0.8560 0.8560 0.8560
12.733000 0.8560 0.8560 0.8560 0.8560 0.8580
12.767331 0.8580 0.8580 0.8580 0.8580 0.8580
12.802000 0.8600 0.8600 0.8610 0.8630 0.8630
12.836331 0.8630 0.8630 0.8630 0.8600 0.8580
12.871000 0.8580 0.8560 0.8560 0.8540 0.8540
12.905331 0.8530 0.8530 0.8530 0.8530 0.8510
12.939000 0.8510 0.8490 0.8480 0.8480 0.8460
12.973331 0.8460 0.8460 0.8440 0.8440 0.8430
13.008000 0.8430 0.8410 0.8390 0.8370 0.8360
13.042331 0.8360 0.8340 0.8340 0.8340 0.8320
13.076000 0.8310 0.8290 0.8270 0.8270 0.8240
13.110331 0.8240 0.8220 0.8220 0.8200 0.8190
13.145000 0.8150 0.8130 0.8100 0.8070 0.8000
13.179331 0.7960 0.7950 0.7930 0.7910 0.7900
13.214000 0.7840 0.7780 0.7710 0.7660 0.7590
13.248331 0.7520 0.7440 0.7370 0.7280 0.7200
13.282000 0.7110 0.7030 0.6920 0.6800 0.6700
13.316331 0.6580 0.6450 0.6310 0.6210 0.6100
13.351000 0.6050 0.6020 0.5950 0.5930 0.5930
13.385331 0.5930 0.5930 0.5950 0.6120 0.6240
13.420000 0.6340 0.6450 0.6530 0.6630 0.6700
13.454331 0.6790 0.6860 0.6940 0.6990 0.7060
13.488000 0.7130 0.7180 0.7230 0.7260 0.7320
13.522331 0.7330 0.7370 0.7420 0.7440 0.7440
13.557000 0.7450 0.7450 0.7470 0.7470 0.7470
13.591331 0.7470 0.7470 0.7470 0.7470 0.7470
13.625000 0.7470 0.7470 0.7470 0.7470 0.7470
13.659331 0.7470 0.7470 0.7450 0.7440 0.7440
13.694000 0.7440 0.7440 0.7440 0.7440 0.7440
13.728331 0.7440 0.7440 0.7440 0.7440 0.7440
13.763000 0.7450 0.7450 0.7450 0.7450 0.7470
13.797331 0.7470 0.7470 0.7470 0.7490 0.7490
13.831000 0.7490 0.7470 0.7470 0.7470 0.7470
13.865331 0.7470 0.7470 0.7470 0.7490 0.7490
13.900000 0.7470 0.7470 0.7470 0.7470 0.7470
13.934331 0.7470 0.7450 0.7450 0.7450 0.7440
13.969000 0.7440 0.7420 0.7420 0.7400 0.7400
14.003331 0.7380 0.7380 0.7380 0.7380 0.7380
14.037000 0.7370 0.7350 0.7350 0.7350 0.7350
14.071331 0.7350 0.7330 0.7330 0.7320 0.7300
14.106000 0.7260 0.7260 0.7260 0.7250 0.7250
14.140331 0.7250 0.7250 0.7250 0.7250 0.7250
14.175000 0.7230 0.7230 0.7210 0.7210 0.7200
14.209331 0.7180 0.7180 0.7160 0.7160 0.7150
14.243000 0.7130 0.7110 0.7090 0.7080 0.7060
14.277331 0.7060 0.7060 0.7040 0.7040 0.7030
14.312000 0.6990 0.6970 0.6960 0.6960 0.6920
14.346331 0.6910 0.6910 0.6890 0.6870 0.6860
14.380000 0.6860 0.6860 0.6860 0.6860 0.6860
14.414331 0.6840 0.6820 0.6800 0.6790 0.6770
14.449000 0.6750 0.6740 0.6740 0.6720 0.6720
14.483331 0.6700 0.6680 0.6680 0.6670 0.6650
14.518000 0.6650 0.6620 0.6620 0.6600 0.6600
14.552331 0.6580 0.6580 0.6560 0.6560 0.6550
14.586000 0.6530 0.6530 0.6510 0.6500 0.6480
14.620331 0.6460 0.6450 0.6430 0.6410 0.6390
14.655000 0.6380 0.6360 0.6340 0.6340 0.6330
14.689331 0.6310 0.6290 0.6270 0.6270 0.6260
14.724000 0.6240 0.6240 0.6210 0.6190 0.6170
14.758331 0.6160 0.6160 0.6140 0.6120 0.6100
14.792000 0.6090 0.6090 0.6050 0.6040 0.6000
14.826331 0.5980 0.5980 0.5970 0.5970 0.5950
14.861000 0.5950 0.5930 0.5900 0.5900 0.5880
14.895331 0.5850 0.5850 0.5830 0.5800 0.5780
14.929000 0.5760 0.5750 0.5730 0.5710 0.5710
14.963331 0.5690 0.5680 0.5680 0.5660 0.5660
14.998000 0.5640 0.5610 0.5560 0.5540 0.5510
15.032331 0.5490 0.5470 0.5460 0.5460 0.5440
15.067000 0.5420 0.5400 0.5390 0.5370 0.5370
15.101331 0.5350 0.5320 0.5300 0.5290 0.5250
15.135000 0.5230 0.5230 0.5200 0.5180 0.5170
15.169331 0.5130 0.5100 0.5060 0.5050 0.5010
15.204000 0.5010 0.5000 0.4940 0.4880 0.4880
15.238331 0.4860 0.4820 0.4820 0.4810 0.4790
15.273000 0.4790 0.4770 0.4760 0.4760 0.4740
15.307331 0.4700 0.4690 0.4670 0.4670 0.4650
15.341000 0.4640 0.4640 0.4620 0.4620 0.4600
15.375331 0.4590 0.4570 0.4570 0.4570 0.4570
15.410000 0.4550 0.4550 0.4530 0.4530 0.4520
15.444331 0.4520 0.4520 0.4500 0.4500 0.4480
15.478000 0.4480 0.4480 0.4470 0.4470 0.4450
15.512331 0.4450 0.4430 0.4430 0.4430 0.4410
15.547000 0.4400 0.4380 0.4380 0.4360 0.4350
15.581331 0.4330 0.4310 0.4310 0.4300 0.4280
15.616000 0.4280 0.4280 0.4280 0.4280 0.4300
15.650331 0.4300 0.4300 0.4300 0.4300 0.4300
15.684000 0.4300 0.4300 0.4300 0.4300 0.4300
15.718331 0.4280 0.4280 0.4260 0.4260 0.4240
15.753000 0.4240 0.4230 0.4230 0.4230 0.4230
15.787331 0.4210 0.4210 0.4210 0.4210 0.4190
15.822000 0.4180 0.4180 0.4160 0.4120 0.4110
15.856331 0.4090 0.4070 0.4090 0.4090
##END=
