##TITLE=TETRACHLOROETHYLENE
##JCAMP-DX=4.24
##DATA TYPE=INFRARED SPECTRUM
##CLASS=COBLENTZ
##ORIGIN=W.T. BOLLETER
##OWNER=COBLENTZ SOCIETY
Collection (C) 2018 copyright by the U.S. Secretary of Commerce
on behalf of the United States of America. All rights reserved.
##DATE=Not specified, most likely prior to 1970
##NAMES=1,1,2,2-tetrachloroethylene
##CAS REGISTRY NO=127-18-4
##MOLFORM=C2 Cl4
##SOURCE REFERENCE=COBLENTZ NO. 4471
##$NIST SOURCE=COBLENTZ
##$NIST IMAGE=cob4471
##SPECTROMETER/DATA SYSTEM=Not specified, most likely a prism, grating, or hybrid spectrometer.
##SAMPLING PROCEDURE=TRANSMISSION
##RESOLUTION=4
##DATA PROCESSING=DIGITIZED BY NIST FROM HARD COPY
##XUNITS=MICROMETERS
##YUNITS=TRANSMITTANCE
##XFACTOR=1.000000
##YFACTOR=1
##DELTAX=000.017518
##FIRSTX=14.543
##LASTX=38.018
##FIRSTY=0.644
##MAXX=38.018
##MINX=14.543
##MAXY=0.817
##MINY=0.371
##NPOINTS=1341
##XYDATA=(X++(Y..Y))
14.543000 0.6440 0.6440 0.6300 0.6210 0.6100
14.630657 0.6050 0.6000 0.5960 0.5850 0.5820
14.718000 0.5820 0.5820 0.5830 0.5870 0.5960
14.805657 0.6000 0.6050 0.6080 0.6100 0.6160
14.893000 0.6190 0.6210 0.6210 0.6230 0.6250
14.980657 0.6250 0.6210 0.6190 0.6170 0.6140
15.069000 0.6080 0.6070 0.6030 0.6010 0.5960
15.156657 0.5940 0.5940 0.5960 0.6000 0.6050
15.244000 0.6080 0.6170 0.6320 0.6460 0.6500
15.331657 0.6640 0.6800 0.6980 0.7070 0.7100
15.419000 0.7160 0.7190 0.7250 0.7280 0.7330
15.506657 0.7390 0.7410 0.7420 0.7420 0.7460
15.594000 0.7480 0.7500 0.7510 0.7530 0.7530
15.681657 0.7550 0.7570 0.7570 0.7580 0.7580
15.769000 0.7570 0.7570 0.7570 0.7550 0.7510
15.856657 0.7510 0.7500 0.7480 0.7480 0.7460
15.945000 0.7440 0.7440 0.7420 0.7410 0.7410
16.032657 0.7390 0.7370 0.7350 0.7350 0.7330
16.120000 0.7330 0.7300 0.7280 0.7260 0.7250
16.207657 0.7250 0.7230 0.7230 0.7230 0.7230
16.295000 0.7210 0.7210 0.7190 0.7190 0.7190
16.382657 0.7170 0.7160 0.7120 0.7080 0.7080
16.470000 0.7070 0.7030 0.6980 0.6960 0.6960
16.557657 0.6870 0.6820 0.6710 0.6670 0.6670
16.645000 0.6660 0.6600 0.6550 0.6510 0.6500
16.732657 0.6480 0.6480 0.6480 0.6500 0.6510
16.820000 0.6550 0.6580 0.6710 0.6730 0.6800
16.907657 0.6910 0.6980 0.6980 0.7030 0.7080
16.996000 0.7140 0.7170 0.7190 0.7210 0.7230
17.083657 0.7230 0.7250 0.7250 0.7260 0.7260
17.171000 0.7280 0.7280 0.7300 0.7300 0.7300
17.258657 0.7300 0.7300 0.7320 0.7320 0.7320
17.346000 0.7320 0.7300 0.7280 0.7260 0.7250
17.433657 0.7230 0.7230 0.7230 0.7230 0.7190
17.521000 0.7170 0.7160 0.7120 0.7100 0.7070
17.608657 0.7010 0.7000 0.7000 0.6980 0.6960
17.696000 0.6910 0.6890 0.6870 0.6850 0.6850
17.783657 0.6850 0.6850 0.6870 0.6890 0.6920
17.872000 0.6960 0.6980 0.7010 0.7070 0.7100
17.959657 0.7120 0.7140 0.7170 0.7190 0.7230
18.047000 0.7230 0.7250 0.7260 0.7280 0.7320
18.134657 0.7330 0.7330 0.7350 0.7350 0.7370
18.222000 0.7390 0.7390 0.7410 0.7410 0.7410
18.309657 0.7410 0.7390 0.7390 0.7390 0.7390
18.397000 0.7370 0.7370 0.7370 0.7350 0.7350
18.484657 0.7330 0.7320 0.7320 0.7320 0.7300
18.572000 0.7300 0.7300 0.7300 0.7300 0.7300
18.659657 0.7280 0.7250 0.7250 0.7250 0.7230
18.747000 0.7230 0.7210 0.7210 0.7190 0.7190
18.834657 0.7160 0.7160 0.7140 0.7120 0.7100
18.923000 0.7080 0.7080 0.7080 0.7080 0.7080
19.010657 0.7100 0.7100 0.7100 0.7100 0.7100
19.098000 0.7120 0.7120 0.7120 0.7120 0.7120
19.185657 0.7120 0.7120 0.7120 0.7120 0.7120
19.273000 0.7100 0.7080 0.7070 0.7070 0.7030
19.360657 0.7030 0.7010 0.7000 0.7000 0.7000
19.448000 0.7000 0.6980 0.6980 0.6960 0.6940
19.535657 0.6920 0.6920 0.6920 0.6910 0.6910
19.623000 0.6910 0.6910 0.6910 0.6890 0.6890
19.710657 0.6910 0.6910 0.6920 0.6920 0.6920
19.799000 0.6920 0.6940 0.6940 0.6940 0.6940
19.886657 0.6960 0.6960 0.6980 0.6980 0.7000
19.974000 0.7000 0.7000 0.6980 0.6980 0.6960
20.061657 0.6960 0.6940 0.6960 0.6960 0.6980
20.149000 0.6980 0.7000 0.7000 0.7000 0.6980
20.236657 0.6980 0.6960 0.6960 0.6980 0.6980
20.324000 0.6980 0.6980 0.6980 0.6980 0.6960
20.411657 0.6960 0.6960 0.6940 0.6920 0.6920
20.499000 0.6920 0.6910 0.6890 0.6890 0.6870
20.586657 0.6870 0.6870 0.6870 0.6870 0.6870
20.674000 0.6870 0.6870 0.6850 0.6850 0.6830
20.761657 0.6800 0.6800 0.6780 0.6760 0.6760
20.850000 0.6760 0.6750 0.6750 0.6730 0.6730
20.937657 0.6730 0.6730 0.6730 0.6710 0.6710
21.025000 0.6690 0.6670 0.6670 0.6660 0.6640
21.112657 0.6640 0.6620 0.6620 0.6600 0.6600
21.200000 0.6580 0.6570 0.6550 0.6510 0.6480
21.287657 0.6480 0.6420 0.6390 0.6350 0.6330
21.375000 0.6300 0.6280 0.6170 0.6140 0.6080
21.462657 0.6080 0.6030 0.6000 0.5940 0.5910
21.550000 0.5890 0.5850 0.5820 0.5800 0.5760
21.637657 0.5750 0.5750 0.5730 0.5730 0.5730
21.726000 0.5730 0.5730 0.5750 0.5760 0.5800
21.813657 0.5830 0.5850 0.5870 0.5940 0.6000
21.901000 0.6030 0.6050 0.6080 0.6120 0.6140
21.988657 0.6160 0.6210 0.6230 0.6260 0.6300
22.076000 0.6300 0.6330 0.6350 0.6370 0.6390
22.163657 0.6410 0.6410 0.6420 0.6420 0.6440
22.251000 0.6440 0.6460 0.6460 0.6480 0.6480
22.338657 0.6500 0.6500 0.6510 0.6510 0.6530
22.426000 0.6530 0.6530 0.6570 0.6580 0.6580
22.513657 0.6620 0.6620 0.6640 0.6660 0.6660
22.601000 0.6670 0.6670 0.6670 0.6670 0.6690
22.688657 0.6710 0.6710 0.6730 0.6750 0.6760
22.777000 0.6760 0.6760 0.6760 0.6760 0.6780
22.864657 0.6800 0.6800 0.6820 0.6820 0.6820
22.952000 0.6820 0.6820 0.6820 0.6820 0.6820
23.039657 0.6820 0.6800 0.6800 0.6780 0.6780
23.127000 0.6780 0.6780 0.6760 0.6760 0.6760
23.214657 0.6780 0.6780 0.6780 0.6780 0.6780
23.302000 0.6800 0.6800 0.6800 0.6800 0.6830
23.389657 0.6850 0.6890 0.6910 0.6920 0.6960
23.477000 0.6980 0.6980 0.7000 0.7010 0.7030
23.564657 0.7050 0.7070 0.7070 0.7080 0.7100
23.653000 0.7120 0.7120 0.7120 0.7140 0.7140
23.740657 0.7160 0.7160 0.7160 0.7160 0.7160
23.828000 0.7160 0.7160 0.7160 0.7160 0.7140
23.915657 0.7140 0.7140 0.7140 0.7140 0.7120
24.003000 0.7120 0.7100 0.7100 0.7080 0.7070
24.090657 0.7030 0.7010 0.7000 0.7000 0.6980
24.178000 0.6920 0.6920 0.6920 0.6890 0.6870
24.265657 0.6830 0.6820 0.6800 0.6800 0.6800
24.353000 0.6800 0.6800 0.6800 0.6820 0.6820
24.440657 0.6830 0.6850 0.6870 0.6870 0.6890
24.528000 0.6890 0.6910 0.6910 0.6920 0.6980
24.615657 0.7000 0.7000 0.7010 0.7050 0.7080
24.704000 0.7100 0.7100 0.7100 0.7120 0.7120
24.791657 0.7140 0.7160 0.7190 0.7190 0.7300
24.879000 0.7410 0.7440 0.7460 0.7480 0.7480
24.966657 0.7500 0.7510 0.7510 0.7510 0.7510
25.054000 0.7510 0.7510 0.7510 0.7530 0.7530
25.141657 0.7530 0.7550 0.7550 0.7570 0.7580
25.229000 0.7600 0.7600 0.7620 0.7620 0.7620
25.316657 0.7620 0.7620 0.7620 0.7620 0.7600
25.404000 0.7600 0.7600 0.7600 0.7600 0.7600
25.491657 0.7600 0.7620 0.7640 0.7640 0.7640
25.580000 0.7640 0.7640 0.7640 0.7640 0.7640
25.667657 0.7660 0.7660 0.7670 0.7690 0.7690
25.755000 0.7690 0.7690 0.7690 0.7690 0.7710
25.842657 0.7710 0.7710 0.7690 0.7690 0.7690
25.930000 0.7710 0.7710 0.7710 0.7710 0.7730
26.017657 0.7730 0.7710 0.7710 0.7710 0.7710
26.105000 0.7710 0.7730 0.7730 0.7730 0.7730
26.192657 0.7730 0.7730 0.7730 0.7730 0.7730
26.280000 0.7730 0.7750 0.7760 0.7760 0.7760
26.367657 0.7760 0.7760 0.7760 0.7760 0.7760
26.455000 0.7760 0.7780 0.7780 0.7780 0.7780
26.542657 0.7780 0.7800 0.7800 0.7800 0.7800
26.631000 0.7800 0.7800 0.7800 0.7800 0.7800
26.718657 0.7800 0.7800 0.7800 0.7800 0.7800
26.806000 0.7800 0.7800 0.7800 0.7800 0.7820
26.893657 0.7830 0.7830 0.7830 0.7830 0.7870
26.981000 0.7890 0.7920 0.7940 0.7960 0.7960
27.068657 0.7960 0.7960 0.7960 0.7960 0.7960
27.156000 0.7980 0.7980 0.7980 0.7980 0.7980
27.243657 0.7980 0.7980 0.8000 0.8000 0.8000
27.331000 0.8000 0.8000 0.8000 0.8000 0.8000
27.418657 0.8000 0.8010 0.8010 0.8030 0.8030
27.507000 0.8030 0.8050 0.8050 0.8050 0.8070
27.594657 0.8070 0.8080 0.8080 0.8100 0.8100
27.682000 0.8100 0.8080 0.8080 0.8070 0.8070
27.769657 0.8070 0.8080 0.8080 0.8080 0.8080
27.857000 0.8080 0.8080 0.8080 0.8080 0.8080
27.944657 0.8080 0.8100 0.8100 0.8100 0.8100
28.032000 0.8100 0.8100 0.8100 0.8100 0.8100
28.119657 0.8100 0.8100 0.8100 0.8100 0.8100
28.207000 0.8100 0.8120 0.8120 0.8140 0.8140
28.294657 0.8140 0.8140 0.8160 0.8160 0.8170
28.382000 0.8170 0.8170 0.8170 0.8170 0.8160
28.469657 0.8160 0.8160 0.8140 0.8140 0.8140
28.558000 0.8140 0.8140 0.8140 0.8140 0.8140
28.645657 0.8140 0.8140 0.8140 0.8120 0.8120
28.733000 0.8120 0.8100 0.8080 0.8070 0.8070
28.820657 0.8070 0.8050 0.8050 0.8050 0.8050
28.908000 0.8050 0.8050 0.8050 0.8050 0.8050
28.995657 0.8050 0.8050 0.8050 0.8050 0.8050
29.083000 0.8050 0.8050 0.8070 0.8070 0.8070
29.170657 0.8070 0.8070 0.8070 0.8070 0.8070
29.258000 0.8050 0.8050 0.8030 0.8030 0.8030
29.345657 0.8030 0.8030 0.8030 0.8030 0.8030
29.434000 0.8030 0.8030 0.8030 0.8030 0.8030
29.521657 0.8030 0.8030 0.8030 0.8030 0.8030
29.609000 0.8030 0.8030 0.8030 0.8030 0.8030
29.696657 0.8030 0.8030 0.8030 0.8030 0.8030
29.784000 0.8030 0.8030 0.8030 0.8030 0.8030
29.871657 0.8010 0.8010 0.8010 0.8000 0.8000
29.959000 0.8000 0.8000 0.8000 0.8000 0.8000
30.046657 0.8000 0.8000 0.8000 0.7980 0.7980
30.134000 0.7980 0.7960 0.7960 0.7940 0.7920
30.221657 0.7920 0.7920 0.7910 0.7910 0.7910
30.309000 0.7910 0.7890 0.7870 0.7870 0.7870
30.396657 0.7870 0.7850 0.7850 0.7850 0.7850
30.485000 0.7830 0.7820 0.7820 0.7820 0.7800
30.572657 0.7800 0.7800 0.7800 0.7800 0.7800
30.660000 0.7800 0.7780 0.7780 0.7780 0.7780
30.747657 0.7780 0.7760 0.7760 0.7760 0.7760
30.835000 0.7760 0.7760 0.7750 0.7730 0.7730
30.922657 0.7730 0.7730 0.7730 0.7730 0.7730
31.010000 0.7710 0.7710 0.7710 0.7710 0.7710
31.097657 0.7710 0.7710 0.7690 0.7670 0.7670
31.185000 0.7670 0.7660 0.7660 0.7640 0.7620
31.272657 0.7620 0.7600 0.7600 0.7600 0.7580
31.361000 0.7570 0.7550 0.7550 0.7550 0.7550
31.448657 0.7550 0.7530 0.7510 0.7510 0.7500
31.536000 0.7480 0.7480 0.7480 0.7460 0.7460
31.623657 0.7440 0.7440 0.7420 0.7420 0.7410
31.711000 0.7410 0.7390 0.7390 0.7390 0.7370
31.798657 0.7370 0.7350 0.7320 0.7320 0.7280
31.886000 0.7260 0.7250 0.7250 0.7230 0.7190
31.973657 0.7170 0.7160 0.7100 0.7080 0.7070
32.061000 0.7050 0.7050 0.7010 0.7010 0.7000
32.148657 0.7000 0.6980 0.6980 0.6960 0.6960
32.236000 0.6940 0.6940 0.6920 0.6920 0.6920
32.323657 0.6910 0.6910 0.6890 0.6890 0.6890
32.412000 0.6890 0.6890 0.6890 0.6890 0.6890
32.499657 0.6870 0.6870 0.6870 0.6870 0.6850
32.587000 0.6850 0.6850 0.6850 0.6850 0.6850
32.674657 0.6830 0.6830 0.6820 0.6820 0.6820
32.762000 0.6820 0.6820 0.6820 0.6820 0.6820
32.849657 0.6820 0.6800 0.6800 0.6800 0.6780
32.937000 0.6780 0.6780 0.6780 0.6780 0.6780
33.024657 0.6760 0.6750 0.6730 0.6690 0.6690
33.112000 0.6670 0.6670 0.6660 0.6660 0.6640
33.199657 0.6640 0.6640 0.6640 0.6620 0.6620
33.288000 0.6620 0.6620 0.6620 0.6620 0.6600
33.375657 0.6580 0.6570 0.6550 0.6530 0.6530
33.463000 0.6510 0.6510 0.6500 0.6500 0.6500
33.550657 0.6480 0.6460 0.6460 0.6440 0.6420
33.638000 0.6420 0.6420 0.6410 0.6410 0.6410
33.725657 0.6410 0.6410 0.6390 0.6370 0.6370
33.813000 0.6350 0.6350 0.6350 0.6330 0.6320
33.900657 0.6300 0.6300 0.6300 0.6300 0.6280
33.988000 0.6260 0.6250 0.6230 0.6230 0.6190
34.075657 0.6160 0.6100 0.6080 0.6080 0.6070
34.164000 0.6030 0.6010 0.6000 0.6000 0.6000
34.251657 0.5980 0.5960 0.5920 0.5870 0.5850
34.339000 0.5850 0.5820 0.5800 0.5750 0.5730
34.426657 0.5730 0.5690 0.5670 0.5670 0.5660
34.514000 0.5660 0.5640 0.5620 0.5600 0.5600
34.601657 0.5570 0.5550 0.5500 0.5480 0.5480
34.689000 0.5410 0.5390 0.5370 0.5370 0.5370
34.776657 0.5370 0.5330 0.5300 0.5280 0.5280
34.864000 0.5260 0.5260 0.5250 0.5230 0.5230
34.951657 0.5210 0.5210 0.5190 0.5140 0.5120
35.039000 0.5080 0.5070 0.5050 0.5050 0.5050
35.126657 0.5010 0.5010 0.5010 0.5000 0.4980
35.215000 0.4980 0.4980 0.4960 0.4960 0.4940
35.302657 0.4920 0.4910 0.4890 0.4890 0.4870
35.390000 0.4870 0.4870 0.4870 0.4850 0.4850
35.477657 0.4850 0.4850 0.4850 0.4850 0.4850
35.565000 0.4870 0.4870 0.4850 0.4850 0.4830
35.652657 0.4820 0.4820 0.4820 0.4820 0.4820
35.740000 0.4820 0.4820 0.4830 0.4830 0.4830
35.827657 0.4820 0.4820 0.4800 0.4800 0.4780
35.915000 0.4780 0.4760 0.4750 0.4750 0.4730
36.002657 0.4710 0.4710 0.4690 0.4670 0.4660
36.091000 0.4640 0.4640 0.4640 0.4620 0.4620
36.178657 0.4620 0.4600 0.4600 0.4580 0.4580
36.266000 0.4580 0.4580 0.4580 0.4570 0.4570
36.353657 0.4570 0.4580 0.4580 0.4580 0.4580
36.441000 0.4570 0.4570 0.4570 0.4550 0.4530
36.528657 0.4510 0.4500 0.4500 0.4480 0.4420
36.616000 0.4410 0.4390 0.4370 0.4350 0.4330
36.703657 0.4320 0.4320 0.4320 0.4300 0.4300
36.791000 0.4280 0.4260 0.4260 0.4260 0.4250
36.878657 0.4230 0.4230 0.4210 0.4190 0.4170
36.966000 0.4170 0.4170 0.4190 0.4210 0.4210
37.053657 0.4210 0.4190 0.4170 0.4160 0.4140
37.142000 0.4120 0.4120 0.4100 0.4100 0.4100
37.229657 0.4080 0.4070 0.4070 0.4070 0.4070
37.317000 0.4070 0.4070 0.4070 0.4050 0.4030
37.404657 0.4010 0.4000 0.4000 0.4000 0.4000
37.492000 0.3980 0.3980 0.3980 0.3980 0.3980
37.579657 0.3980 0.3960 0.3960 0.3980 0.3980
37.667000 0.4000 0.4000 0.4000 0.3980 0.3980
37.754657 0.3940 0.3920 0.3920 0.3910 0.3890
37.842000 0.3870 0.3850 0.3830 0.3820 0.3820
37.929657 0.3800 0.3780 0.3760 0.3730 0.3710
38.018000 0.3730
##END=
