##TITLE=Tetrachloroethene
##JCAMP-DX=4.24
##DATA TYPE=INFRARED SPECTRUM
##CLASS=IUPAC A
##ORIGIN=NIST, Analytical Chemistry Division, 301-975-3108
##OWNER=COPYRIGHT (C) 2000 by the U.S. Secretary of Commerce
##DATE=00/02/01
##$SPECTRA VERSION=1.10
##$UNCERTAINTY IN Y=2.0 % relative (B=1.0E-04,C=1.6E-09,D=1.3E-13)
##CAS NAME=Tetrachloroethene
##CAS REGISTRY NO=127-18-4
##MOLFORM=C2 Cl4
##MP=-19 C
##BP=121 C
##$NIST SOURCE=QUANT-IR
##SPECTROMETER/DATA SYSTEM=IFS66V (Bruker)
##INSTRUMENT PARAMETERS=KBr Beam Splitter; MCT Detector; Multipass cell
##STATE=gas
##SAMPLE DESCRIPTION=Tetrachloroethene Primary Gas Standard
##PRESSURE=101.3 Pa
##TEMPERATURE=23 C
##SAMPLING PROCEDURE=1 L/min Flow
##RESOLUTION=0.9640
##DATA PROCESSING=Triangular Apodization
##XUNITS=cm-1
##YUNITS=(micromol/mol)-1m-1 (base 10)
##XFACTOR=1.0
##YFACTOR=18.189E-13
##DELTAX=0.4820
##FIRSTX=575.17
##LASTX=3974.605
##FIRSTY=5.90E-07
##MAXX=3974.12
##MINX=575.17
##MAXY=.0014303
##MINY=-8.90E-07
##NPOINTS=7052
##XYDATA=(X++(Y..Y))
575.17 324761 658001 423401 88018-276356-207650
577.58 164074 348153 518325 183586 90424 212706
580.47 235460 185681-48185-151343-102137 197435
583.37 30008-156260 4328 137624 38955-125802
586.26-31100-73689 162045 386669 297134 406584
589.15 352049 127241 37028-65422-65923 93534
592.04 200792 52251-39635-16790 5803-26376
594.94 34422 126817-58094-103153-2604-36337
597.83-75059-649 317811 275592 71424 542
600.72-89629-91937-142661-125578 126817 115342
603.62 29546 41371-61505-88269 33226 122698
606.51 34292 77199 157702 199029 127204 91477
609.40 83958 25359 84501 111855 104955 79264
612.29 138623 140352 49834 171111 72852 91504
615.19 127666 67976 169133 197998 121589-41384
618.08 35017 181027 126092 66046 51585 116218
620.97 165129-1356-73646-33346-2258-22486
623.86-52544-89641-190040-73043-19952-113413
626.76-66218-30860-114064-136493-76824-22657
629.65-65733-129592-99219-212459-301458-179446
632.54-118468-127666-69689-63711-197491-225504
635.44-200799-179036-128381-127952-80687-6937
638.33 72343 5111-102830-145161-169291-96002
641.22 32679 69879-68983-140402-102448-60311
644.11-109795-166925-106861-96303-152695-80108
647.01-11680-52613-53073-29566-58258-64484
649.90-48165-167183-218340-139164-36716-56753
652.79-26235 36218-42631-38373-33599-110549
655.68-46045 53801 75536-14651-85154-37361
658.58 1758-79989-100497 2228-69062-94801
661.47-53206-1048-32052-41027 1095-55347
664.36-94522-91635-72475-12702 31788 488454
667.26 956870 602472 220628 121259 56549-22525
670.15-49849-15564-24788-37213-24523-64416
673.04-59081 36372 81600 117080 66130 35804
675.93 63484 82692 174346 269930 287128 289171
678.83 318338 324836 326177 352948 399891 385469
681.72 419099 478399 485688 518963 616036 634803
684.61 622063 617400 556878 616084 747058 714351
687.50 584463 599182 614892 635970 712293 634437
690.40 573608 623503 630042 556392 507766 492473
693.29 499208 540649 470551 459086 472795 415295
696.18 395052 341171 305624 254748 164920 217111
699.08 206703 163747 148842 42464-40205-36505
701.97 9268-31990-51251-63597-119357-108034
704.86-93566-72439-16058-67182-64777-21103
707.75-92362-67428-29876-75461-18011 36389
710.65-18093-49109-6060 55229-165-72144
713.54-83353-43083-71639-89678-14025-39056
716.43-86244-108371-31641 40673 73104 77533
719.32 29841 34222 2212-37865-7799 35697
722.22 9950-14026 32989 44817 31739 92529
725.11 146052 144191 160011 144628 154371 183224
728.00 204452 244252 211943 231908 251614 289813
730.90 312255 338909 362363 413080 589520 584936
733.79 582947 724196 816588 899905 1038175 1251967
736.68 1378432 1539362 1859725 2137342 2406842 2775524
739.57 3200495 3679291 4149452 4656370 5208942 5793023
742.47 6511520 7265124 8064172 8938029 9890360 10927399
745.36 11959555 12867478 13883151 15122717 16305311 17325841
748.25 18335062 19290231 20459994 21795734 22728328 23219831
751.14 23915898 25422129 26550510 26210409 25884077 26472390
754.04 27686390 28525768 27501689 26736581 28222065 30509849
756.93 29105560 25951444 25590103 26326610 26931831 25783906
759.82 24835204 25503643 27424228 27706695 24738006 23382895
762.72 23730763 24140969 24678829 25236536 26076680 27255215
765.61 28656768 30420781 32708608 35551231 39114595 43266400
768.50 48160796 53947188 60595502 68196628 76578094 85383326
771.39 94965286 105358965 116000496 126553972 136910913 147174671
774.29 156833390 165073096 171802090 177492304 182389185 187081617
777.18 190783984 193276450 194807249 196656116 201962361 199788399
780.07 189489722 191317516 207698765 208600846 197178871 194051543
782.96 187307376 183153878 183423195 183549386 184252041 182111794
785.86 177838703 171076102 161910530 150464027 137383675 123526886
788.75 109640222 96560547 84693524 74380441 65987110 59865004
791.64 55964040 54017441 54140275 55840301 58743656 62758490
794.54 67443746 72241510 76944470 81321630 85025936 88099096
797.43 90595890 92279385 92675537 92479665 93773040 97934444
800.32 105003235 109692885 107475118 102198060 98136220 96928318
803.21 98405666 101260830 103654575 102651767 99527322 97630099
806.11 96926671 95884297 93111997 88666064 84101108 79670278
809.00 74697524 68994700 62973716 57068774 51198614 45490010
811.89 40110502 35160985 30589810 26410664 22708423 19432511
814.78 16644354 14283338 12276193 10616654 9272854 8152452
817.68 7268809 6690073 6248101 5879668 5627673 5479281
820.57 5380806 5311029 5244387 5216158 5282579 5304790
823.46 5278213 5225266 5158575 5132502 5101242 5036710
826.36 5020056 5022819 4963984 4890863 4801288 4695949
829.25 4596685 4499383 4435370 4416438 4325028 4194275
832.14 4072289 3845643 3564636 3268733 2959635 2669291
835.03 2331283 1956206 1643565 1378346 1148384 921003
837.93 707067 588600 523691 481803 448186 391787
840.82 360651 364054 349604 348004 301786 250180
843.71 287718 331111 333822 319163 269753 250808
846.60 260864 264491 280440 298634 369962 352624
849.50 286887 271444 275555 279759 267381 289022
852.39 316517 318723 312811 292285 317361 348876
855.28 333356 331680 293879 297308 385856 377484
858.18 322674 319715 357416 390666 359840 383368
861.07 423966 436957 402630 390058 420494 410207
863.96 420499 422690 409030 421609 435148 444746
866.85 440311 445849 494973 499946 510967 542268
869.75 564379 620366 619626 620540 671541 666966
872.64 633612 659335 712157 767963 823666 877460
875.53 943597 980926 1018355 1057418 1132673 1268535
878.42 1377367 1416871 1481259 1622223 1793412 1923922
881.32 2042409 2269286 2497248 2701044 2989434 3286366
884.21 3650112 4034204 4400176 4855937 5346630 5940646
887.10 6618179 7319829 8116543 8979660 9904140 10908429
889.99 11981901 13133056 14407963 15815522 17281285 18804934
892.89 20452276 22222309 24062930 26031499 28177898 30540830
895.78 33096168 35968346 39174403 42691010 46672279 51232221
898.67 56485776 62499687 69414942 77305532 86319777 96615832
901.57 108297182 121459462 136058512 152158447 169982788 189666740
904.46 211079185 234113060 258968822 285709851 314253251 344656180
907.35 376677040 410060952 444449997 479531149 514938343 550008261
910.24 584565264 617849503 649205361 678293261 704463193 727274689
913.14 746542978 762087917 773807886 781474706 785382340 786338105
916.03 784389473 780613786 775598007 769282491 764067220 759545770
918.92 755635751 752707408 748199363 743651969 737405120 728500508
921.81 714191481 690370493 662525736 628880219 586877363 541240476
924.71 494146725 445836523 396472438 347084386 299062290 253873548
927.60 212642937 176070359 144591963 118177933 96429011 78755112
930.49 64433272 52772789 43255120 35494578 29079621 23769736
933.39 19411201 15868792 13022017 10733147 8929233 7484299
936.28 6329734 5421828 4673544 4073362 3589659 3182741
939.17 2888715 2643116 2377558 2186004 2010132 1849786
942.06 1726973 1599596 1490497 1392634 1310610 1247297
944.96 1206573 1162395 1079338 1014123 978943 926885
947.85 910561 897544 838935 828034 813319 755275
950.74 721824 711254 692431 640495 625704 635882
953.63 612857 582912 548852 534224 549610 545302
956.53 509807 503633 521748 526159 493400 440351
959.42 389424 395246 421987 421464 431621 439611
962.31 451499 441100 408283 382815 354725 350309
965.21 356136 335440 335467 329413 302320 305710
968.10 278391 252935 236501 220298 223507 226063
970.99 258014 253246 229972 227490 216646 218186
973.88 247977 278424 288119 325330 354781 325161
976.78 344107 383119 399400 422185 450293 484946
979.67 559274 605441 604134 610375 614530 641636
982.56 671257 706293 710500 722740 721636 703111
985.45 709642 712560 654522 610419 676877 703486
988.35 683668 701262 724031 746593 758188 752833
991.24 752884 725681 693158 664812 613873 569377
994.13 532972 479024 421091 369064 339192 305463
997.03 247863 220968 190314 170580 162123 140616
999.92 152444 171555 175620 160426 132317 160563
1002.81 213102 210662 208122 246814 292812 296044
1005.70 307024 332288 323240 327718 317738 286389
1008.60 265937 258209 264201 269237 260973 237506
1011.49 203888 171937 199810 204016 153251 144002
1014.38 163491 129548 65424 41696 56401 92949
1017.27 77851 26065 11293 17964 11638-17655
1020.17-32631-40275-63176-54309-38169-60831
1023.06-98636-87224-80932-111220-122639-122343
1025.95-108997-78916-69250-69990-82824-79218
1028.85-43772-30012-61737-86622-62852-61894
1031.74-27987 8647-26841-40660-47828-63841
1034.63-59111-71093-81128-73309-86665-97335
1037.52-63274-66260-63352-69268-97593-68436
1040.42-51843-84913-78869-40520-62303-86859
1043.31-67023-58137-70068-90607-108069-107576
1046.20-142543-152876-110231-101083-118750-118623
1049.09-78153-56815-66067-55494-47342-50058
1051.99-80937-67156-47300-31938-2316-27643
1054.88-52729-62444-73566-74531-83950-77794
1057.77-58428-82513-95618-112717-114554-78333
1060.67-33631-9313-10713-21146-68453-88519
1063.56-88866-98061-81631-69377-67554-45417
1066.45-49740-55316-58352-82125-65070-40790
1069.34-52242-53247-9522 18164-12893-27903
1072.24-542-13874-43572-19352 8751 16351
1075.13 31429 62304 130198 161113 143626 153702
1078.02 184013 236374 241901 252488 338740 396003
1080.91 391345 418777 511121 592219 642075 691790
1083.81 784160 875328 934307 1042497 1162495 1232915
1086.70 1312832 1423904 1511954 1582465 1684663 1813406
1089.59 1940683 2045475 2152512 2248186 2356580 2450507
1092.49 2514763 2635682 2775365 2896959 3002845 3156200
1095.38 3387051 3601860 3803476 4044580 4308682 4556904
1098.27 4803775 5061927 5280459 5409862 5456627 5397874
1101.16 5213279 4907598 4569328 4196164 3785799 3438372
1104.06 3188641 3053429 3036497 3122117 3199529 3210183
1106.95 3254357 3339626 3371429 3407763 3428269 3409843
1109.84 3378386 3353238 3345627 3341203 3355802 3369524
1112.73 3418058 3496850 3606865 3751251 3870871 4000259
1115.63 4140455 4303342 4502529 4696466 4857632 5004490
1118.52 5185887 5371681 5522045 5635543 5723678 5792391
1121.41 5825888 5855741 5911587 5977426 6028504 6033818
1124.31 5994548 5930413 5844112 5740953 5653268 5573725
1127.20 5534827 5488460 5365003 5207988 5001354 4791697
1130.09 4664733 4582835 4459649 4322783 4190975 4010508
1132.98 3817267 3639022 3474968 3324732 3231985 3187075
1135.88 3143576 3094647 3038432 3032036 3062666 3079022
1138.77 3104691 3181309 3290640 3369987 3418700 3493404
1141.66 3552537 3614823 3700834 3744886 3808755 3885584
1144.55 3914818 3917518 3945356 3982566 3997253 3973515
1147.45 3938384 3919461 3947964 3981870 3940797 3913467
1150.34 3872391 3778202 3671924 3626269 3577577 3471887
1153.23 3364875 3267598 3167537 3053823 2945813 2827401
1156.13 2665862 2520113 2394147 2236253 2072426 1921950
1159.02 1776094 1633195 1544193 1444294 1337272 1261584
1161.91 1208724 1153090 1085396 1060952 1083347 1073147
1164.80 1049003 1078746 1104989 1116594 1156417 1187555
1167.70 1163562 1169731 1203255 1230801 1281538 1299262
1170.59 1287433 1284804 1286274 1271398 1234184 1230873
1173.48 1247225 1229652 1227594 1234587 1190270 1135536
1176.37 1127329 1120296 1071640 1047897 1109886 1126822
1179.27 1052571 1032013 1028470 952268 889793 897217
1182.16 887292 855338 821868 740411 652702 584642
1185.05 517612 451418 354011 294080 274085 251351
1187.95 230928 213328 197121 176062 157228 153417
1190.84 154866 146704 164868 164182 164769 177510
1193.73 145232 117252 133902 149124 157833 173826
1196.62 183141 162126 134589 129016 125169 118620
1199.52 106777 100360 102420 116152 112709 95148
1202.41 96056 95962 90735 70060 69363 107708
1205.30 119709 118867 94518 70034 69133 53175
1208.19 54347 65257 92058 94177 83022 82938
1211.09 65725 59604 68708 97944 96545 98145
1213.98 139099 165871 165891 172261 208896 230399
1216.87 242964 259372 289091 327143 347619 362050
1219.77 383303 395899 381513 406518 465619 490300
1222.66 493854 498970 521100 535662 552179 548891
1225.55 543289 575781 590011 599283 603516 600217
1228.44 621221 626870 611842 583716 540954 530971
1231.34 555057 545912 513493 501364 499384 486265
1234.23 439494 410350 414114 414164 402889 379145
1237.12 371064 356255 339406 322456 310801 327674
1240.01 335153 337235 346731 357468 358386 338942
1242.91 342871 382458 398429 414180 439979 441790
1245.80 436385 445473 487692 529849 567868 598259
1248.69 639470 677161 711157 764753 783642 806972
1251.59 847770 872875 901576 928519 973742 1019608
1254.48 1041132 1041622 1039040 1043351 1057042 1075897
1257.37 1093264 1132275 1141624 1131868 1138273 1133363
1260.26 1111813 1108765 1106810 1101198 1101137 1139162
1263.16 1165024 1098866 1048150 1056264 1053888 1002072
1266.05 948850 935662 908582 858346 818205 759469
1268.94 696792 678201 637150 590493 562724 520151
1271.83 470255 430640 382216 322714 306661 291236
1274.73 275644 292167 289038 251209 221726 189164
1277.62 153605 154591 163425 167674 145545 107758
1280.51 99438 86692 26675-13079-15978-15907
1283.41-19350-2352-3206-22389-4705-2289
1286.30-9703-15325-9753 28045 65856 91766
1289.19 98454 81834 84886 104205 124178 145157
1292.08 166928 196651 229810 236612 226127 233341
1294.98 237601 238536 268091 289879 290906 298530
1297.87 308599 322919 317777 299333 291299 307334
1300.76 307251 295377 291351 282540 240207 206263
1303.65 192251 170783 173030 175984 168490 143863
1306.55 125543 117974 88717 66251 42355 16387
1309.44-9980-35401-27264-30227-44265-86859
1312.33-108921-98689-103815-107607-104432-94416
1315.23-112354-133352-144378-153266-165569-165742
1318.12-138970-108876-117103-141790-142919-158983
1321.01-178905-181404-175889-174784-157645-146023
1323.90-126085-115113-144225-166772-169964-143880
1326.80-132042-132207-102597-67358-70114-105602
1329.69-113100-110273-93940-63666-58858-43750
1332.58-27564-20183-17684-35857-17897 30113
1335.47 64697 80115 93939 121320 146440 159944
1338.37 182696 204121 223957 261229 322503 377259
1341.26 424901 451846 465240 514943 564452 625764
1344.15 703992 774622 839231 914531 987130 1062407
1347.05 1108638 1147441 1232635 1330938 1451167 1562411
1349.94 1658346 1771965 1893408 1974411 2035064 2242320
1352.83 2446365 2611908 2783291 2876358 3002707 3135531
1355.72 3223574 3298668 3372104 3438606 3493169 3546390
1358.62 3559605 3545374 3573212 3608604 3655782 3665877
1361.51 3620495 3611550 3613587 3600354 3561745 3533493
1364.40 3529792 3449147 3333117 3226738 3130690 3048360
1367.29 2947977 2868731 2803662 2687320 2514347 2330750
1370.19 2177931 2035343 1928579 1831289 1683709 1555403
1373.08 1413856 1260670 1142826 1051872 938498 811710
1375.97 739284 686599 639781 573409 479628 388907
1378.87 333030 314503 319840 297675 259082 248997
1381.76 246512 241846 217367 207236 240303 253715
1384.65 258995 256524 258884 240001 241505 260016
1387.54 225300 224980 219401 210984 210501 195847
1390.44 171185 170300 186782 172873 153318 175655
1393.33 200625 250302 235815 162005 152248 151619
1396.22 161377 174882 162658 144144 161551 156642
1399.11 88386 51831 76881 80716 83777 92365
1402.01 87983 95986 96662 94474 96787 84018
1404.90 49021 9540-599 9923 18224-8260
1407.79-22691-14604-36489-46033-49581-65788
1410.69-52256-31933-38975-53505-75966-92655
1413.58-103569-110232-110848-114692-107397-110184
1416.47-106035-104648-128029-120896-56606 407
1419.36-59451-120120-127684-142544-157451-172145
1422.26-177449-160016-158191-163675-155853-150141
1425.15-168260-179838-163787-151273-145893-157798
1428.04-157187-162109-164434-149486-143791-154886
1430.93-164256-181997-195461-156817-150787-183879
1433.83-168992-152634-146284-145974-68733 29458
1436.72-50708-130996-138221-184841-204038-199352
1439.61-201081-196848-180515-157054-155312-170338
1442.51-173121-158840-155161-169098-172465-158137
1445.40-154883-165385-173890-168713-142615-159319
1448.29-179101-168310-175004-192803-192700-172921
1451.18-158359-164889-180067-194486-205125-183638
1454.08-153365-143799-136852-112501 26231 84344
1456.97-81674-106797-76315-126290-130001-135493
1459.86-148097-186989-201224-177449-178046-190532
1462.75-159143-149315-158198-89094-83694-134759
1465.65-143115-151720-167146-163264-151984-155811
1468.54-157904-138732-121974-122439-135464-102920
1471.43-17147-54987-83301 1276-32242-100251
1474.33-111501-106293-61043-33891-76824-102844
1477.22-84039-69413-58968-60772-70041-63532
1480.11-46071-23808-46481-67958-49879-60426
1483.00-73809-83225-79044-76082-72788-62642
1485.90-83086-84633-44885-74349-117937-112670
1488.79-94083-75288-88031-100131-113972-128568
1491.68-134310-141068-157216-172413-162949-154297
1494.57-151991-140555-52340-75786-185560-192429
1497.47-198923-150958-124090-175828-205355-218642
1500.36-218165-206664-197151-208305-207727-178697
1503.25-179903-194055-191564-79072 20614-68451
1506.15-12385 72421-79722-158496-131937-159554
1509.04-172365-177613-197152-193657-209292-184497
1511.93-139919-165668-187535-174234-174229-159950
1514.82-166437-178762-148513-138881-131055-139338
1517.72-173215-173613-181549-155296-106846-98192
1520.61 17590-16373-142877-106417-119231-157401
1523.50-152338-156453-151655-108820-115712-171644
1526.39-170725-131999-143646-145053-142705-148505
1529.29-143592-151259-146702-139900-112341-111675
1532.18-107697-69001-18617-19577-91003-127856
1535.07-135578-117255-75531-57081-51438-41252
1537.97 40189 207495 132420 105625 179446 60067
1540.86 12143 105555 131061 30833 12295 22248
1543.75 1444 55935 81095 18870-15109-31705
1546.64-46999-48210-17828-3421-199 23317
1549.54 45286 29099-3490-17031-7421-8560
1552.43-22966 1016 83373 136807 59488 5180
1555.32 8552 26212 65990 153617 200999 303687
1558.21 312559 164777 232812 337933 231242 106692
1561.11 78146 71447 101045 113637 103579 79660
1564.00 100092 119688 90871 82877 97472 99742
1566.89 93989 108686 117285 123116 173886 218826
1569.79 151328 108306 118752 112869 105905 108095
1572.68 124888 132224 124723 155276 197402 289026
1575.57 450371 348201 185249 162974 151697 142522
1578.46 136035 160964 174113 150542 132168 120790
1581.36 95208 85585 83296 86217 94831 106439
1584.25 80462 77458 87791 78747 93844 107294
1587.14 99286 106997 119157 112087 85438 79903
1590.03 85672 60809 65943 67493 54836 50747
1592.93 52805 75069 76534 52896 46318 49690
1595.82 44611 18795 19547 39321 25624 5324
1598.71 3845 1114-25444-41490-37040-29321
1601.61-26571-48601-80642-89257-96694-104687
1604.50-100243-93235-98308-105518-110989-125532
1607.39-134239-145040-141811-128691-149417-169138
1610.28-170891-168862-158921-178108-193342-180748
1613.18-178181-159097-152971-157161-157228-107104
1616.07 51090 298-157852-172739-163383-157610
1618.96-166665-177117-181975-177959-168389-166481
1621.85-155170-136117-85617-85803-162083-184250
1624.75-187810-181095-169700-170444-163210-140179
1627.64-147435-187264-186579-187846-211841-198724
1630.53-176597-176093-172594-161300-163595-163527
1633.43-162753-138792-75798 35853 31302-105878
1636.32-139093-123635-123928-145764-161032-148887
1639.21-111129-95489-125353-137471-152048-164218
1642.10-161913-166593-169505-173359-175155-169072
1645.00-75627 23913-58172-107884-112907-135757
1647.89-147854-180412-164272-138835-147965-140188
1650.78-139333-76312 106935 157102 207243 85720
1653.67-66664-61987-132036-163526-185403-203401
1656.57-214155-214470-202566-198198-203283-194198
1659.46-213047-226106-219900-205567-173339-117415
1662.35-99412-182596-207366-207003-223982-215571
1665.25-206768-198522-200374-195404-193942-168907
1668.14-156365-104803-116367-187084-190970-164039
1671.03-136940-158575-176652-186131-200987-187337
1673.92-166798-94305-44692-112028-170112-176105
1676.82-179729-194497-193816-192417-183824-163095
1679.71-154706-170484-198679-186639-178085-157959
1682.60-115595-102212-72240 98853 125163-90021
1685.49-152829-161820-177777-185044-182360-178109
1688.39-189691-188196-181152-175346-189857-216345
1691.28-222206-209817-209307-199574-203936-211229
1694.17-201468-149022 38237 49152-147092-198133
1697.07-179388-144371-105922-104081-36736 26396
1699.96 14698-43651-157800-210089-225198-224528
1702.85-209466-199371-173068-165181-195368-184595
1705.74-128704-145375-193933-181254-173027-209174
1708.64-215790-195034-183232-170277-156206-167522
1711.53-192475-185320-168549-167394-137307-110295
1714.42-72492-63703-104270-122088-50986 103548
1717.31 30579-54950-40726-89608-109450-132903
1720.21-134488-141731-151531-148754-150314-124953
1723.10-113301-121767-118546-120516-127615-128085
1725.99-131226-134903-139691-128071-115002-126465
1728.89-109700-87227-92062-103540-120010-120411
1731.78-117793-64355 65530 20169 45550 107070
1734.67-44655-108896-97545-88558-91711-92519
1737.56-77153-51666-37409 8853 42990-9912
1740.46-24523 8851 16691 19903 39489 37807
1743.35 24673 36264 67870 94552 90783 80567
1746.24 85953 99173 86561 88748 134166 142433
1749.13 139293 128765 136468 218801 233866 152209
1752.03 124500 129260 126712 124776 116093 104882
1754.92 89904 92680 119907 121077 77788 40651
1757.81 24631 30795 33814 22791 29833 27881
1760.71 34550 81581 64765 39215 27279 10042
1763.60 34644 33289 11744 30526 44542 54141
1766.49 88404 113405 169547 176350 135292 153613
1769.38 183746 204267 252821 321813 324149 398705
1772.28 494721 433550 408253 429598 437394 477435
1775.17 509336 512665 523814 533031 540693 542417
1778.06 542951 555706 557059 554487 578827 598714
1780.95 595073 602662 612741 588592 563455 564078
1783.85 575548 616573 617830 563535 523469 486280
1786.74 453112 413840 375119 349565 320540 309286
1789.63 291101 262707 223550 186883 217091 312856
1792.53 306509 252884 278059 301473 308007 323560
1795.42 342959 354635 361156 367394 367037 364875
1798.31 367461 389804 376965 320248 315931 340198
1801.20 330079 325693 340918 325866 315150 305730
1804.10 294808 304892 291657 262157 241667 218431
1806.99 171930 123732 98731 54693 14523-29504
1809.88-59887-74497-129670-164860-165862-192884
1812.77-242836-273911-279722-310996-326459-329724
1815.67-349164-355243-370346-388049-387681-390218
1818.56-403993-400861-386801-387400-414147-433896
1821.45-444013-437979-442377-465370-445900-431739
1824.35-414384-394704-448370-489730-480665-475939
1827.24-468961-459711-458270-458169-440383-403483
1830.13-422978-473604-471809-465084-469377-481085
1833.02-494060-471811-475268-479124-464410-477646
1835.92-477581-466549-476935-461994-446849-460373
1838.81-457893-458764-470534-477893-464557-443509
1841.70-432053-390772-387242-390160-324626-358228
1844.59-395510-382846-380628-345596-356937-373134
1847.49-356238-344384-324437-323764-313225-279919
1850.38-251342-228556-221802-202356-186447-145907
1853.27-89512-74138-28339 4825-2553 15451
1856.17 14788 4771-25447-64799-90790-78112
1859.06-43242-31277-8732-25035-34721-19554
1861.95-29299-13727 14164 46720 68186 50287
1864.84 23352 8780 25047 33387 40830 62258
1867.74 31166 14207 45385 27490-4875-8003
1870.63-13004 17763 32867 16828 21360 32860
1873.52 50967 57854 66562 112995 148529 167059
1876.41 189704 200877 239165 277772 287705 283351
1879.31 309661 348962 380534 397802 419013 437188
1882.20 436131 455996 481058 521196 520515 490153
1885.09 490298 501497 525670 572093 602644 561834
1887.99 504078 510876 546816 547290 585199 598708
1890.88 540379 509810 500129 490630 478026 510831
1893.77 473465 403782 406336 405282 374567 338657
1896.66 325579 283406 259092 259087 259728 275096
1899.56 297432 275943 220849 214570 225829 227829
1902.45 281662 309152 270431 257771 268565 270851
1905.34 309064 346618 331688 324433 334183 333324
1908.23 368468 409961 391613 361993 359079 372403
1911.13 403361 422482 404114 376480 362936 362457
1914.02 367703 373278 347566 316236 298670 277320
1916.91 262623 279240 243713 178445 155008 128541
1919.81 115215 103552 70282 37962-28367-73813
1922.70-80104-122025-169660-196658-226990-242758
1925.59-245153-261908-271879-258928-262870-267868
1928.48-251610-251764-261032-284135-293271-275211
1931.38-289470-295067-268894-273038-278700-276066
1934.27-295465-294108-283078-301424-295530-281761
1937.16-296319-294626-288256-290117-276908-278533
1940.05-300484-311228-305168-283037-269311-279071
1942.95-292974-306375-299041-276730-279132-295807
1945.84-293175-277374-271121-283188-302862-304228
1948.73-286704-275271-274022-270781-270332-279771
1951.63-273849-258334-249080-265688-284525-260347
1954.52-266965-287826-285672-273582-278876-297023
1957.41-290109-280315-273762-261971-279929-300845
1960.30-281949-263199-277365-288107-279706-272199
1963.20-260693-270036-283155-274581-283611-292440
1966.09-279973-276723-273474-270469-261579-260123
1968.98-262269-271540-282134-275278-268675-267370
1971.87-259273-262139-251129-222021-203462-259284
1974.77-327776-310036-285510-278072-270527-259033
1977.66-259986-251869-259462-263319-246944-234768
1980.55-232106-249491-250708-258242-268747-261134
1983.45-251811-250727-242799-232153-227436-242051
1986.34-259527-256359-260137-238801-232360-241593
1989.23-229210-233378-252099-251219-231897-242522
1992.12-251174-254037-258098-246940-249570-230618
1995.02-222848-233387-241947-251838-257025-250111
1997.91-247053-258092-253330-245730-247957-251051
2000.80-251759-271352-271607-251272-261920-274233
2003.69-270341-260993-248668-237684-227951-225708
2006.59-226179-229238-242281-253902-263535-253674
2009.48-261627-262955-245757-249659-260600-260755
2012.37-254932-272579-270689-253303-232765-238978
2015.27-266808-262633-269398-279258-256887-252777
2018.16-266662-265326-255521-252325-245628-245193
2021.05-249985-270290-290161-278073-281575-284927
2023.94-263903-264462-266135-261521-246316-250418
2026.84-272814-273320-261676-238012-244018-255710
2029.73-255316-259840-256961-261222-257811-247231
2032.62-243710-253421-256719-264413-285082-283307
2035.51-280986-286206-282145-276986-275538-276160
2038.41-283142-273546-266410-268133-264736-261961
2041.30-256665-252594-276495-286317-280328-274546
2044.19-276713-284632-279451-268639-255973-257998
2047.09-253771-252972-264724-269946-260485-261696
2049.98-277496-274148-280312-278505-277913-291726
2052.87-294567-297005-275290-267371-278222-287104
2055.76-285791-290815-296270-289551-294514-297853
2058.66-293938-291388-275692-260722-261513-272624
2061.55-282430-280808-277267-280668-284070-271083
2064.44-268402-264401-267899-280568-284408-287429
2067.33-285801-268978-258860-276853-287195-288009
2070.23-280775-271418-268885-274659-270864-269592
2073.12-276738-267735-272830-301719-305758-273235
2076.01-257494-269240-281058-286917-293490-297571
2078.91-285964-291446-297633-291592-278211-261681
2081.80-275465-278406-268589-252043-239869-261157
2084.69-268279-261717-256787-268786-291530-279103
2087.58-277087-277592-274707-282113-268861-251972
2090.48-240755-250533-261350-272084-281323-260937
2093.37-256140-251062-232885-255132-276358-266885
2096.26-274416-278898-270402-284555-270489-245102
2099.15-257815-271422-273077-273665-287782-284030
2102.05-274195-262879-274560-287709-289819-296725
2104.94-292556-285391-294118-286885-243038-243139
2107.83-265838-289282-297589-287595-279451-276484
2110.73-236284-213342-257064-281957-299574-304719
2113.62-292498-285552-264820-225769-244643-296196
2116.51-294254-278245-273902-275669-273110-221325
2119.40-230487-270613-263899-270403-272054-280230
2122.30-278823-240375-217428-248608-261111-257351
2125.19-272449-274621-271942-262116-230026-233150
2128.08-267317-261770-262345-287055-279511-255303
2130.97-241786-246644-239807-239526-253953-240821
2133.87-244486-249694-239490-260120-275138-264426
2136.76-271035-276245-274598-258521-247417-256796
2139.65-254237-258714-262938-252029-228573-223558
2142.55-245153-236780-229591-241169-255043-250636
2145.44-240883-247771-241599-245411-241291-229276
2148.33-252399-254019-251361-242530-209832-227623
2151.22-254136-256748-253225-245978-239235-225706
2154.12-208925-217221-229289-231142-249191-243964
2157.01-240563-230555-222723-249420-257937-252216
2159.90-240453-232315-216688-191190-216565-251725
2162.79-257932-260518-256285-243865-218623-192467
2165.69-201084-227612-238847-218814-213324-199511
2168.58-165614-179975-224379-234640-228502-232721
2171.47-220838-163717-157354-213906-221430-199360
2174.37-193286-203739-145500-117093-157367-166387
2177.26-158572-145740-150073-102333-106212-96807
2180.15-126296-137367-110439-120509-63168-56456
2183.04-32180-59458-62005-20156-20254 17801
2185.94 2578 45598 17957 17259 53238 43500
2188.83 105488 85960 148381 69101 133999 109057
2191.72 123475 173082 189445 231040 174197 275017
2194.61 228679 315753 263417 367017 310441 377235
2197.51 359033 395300 393916 424115 453395 450692
2200.40 507187 506699 548749 504661 565100 563123
2203.29 608652 587959 631708 616500 661512 660162
2206.19 711061 686981 705659 695028 705872 715798
2209.08 738308 712809 730696 746222 751444 745776
2211.97 750455 743603 713684 700684 695686 693248
2214.86 684886 666288 645932 634121 598110 556178
2217.76 517469 487057 469071 422966 364902 322601
2220.65 260501 211004 168163 84737 25767-11218
2223.54 5810 68017 117960 174196 223029 286595
2226.43 343622 409011 476303 540014 599627 647902
2229.33 694776 757897 804207 832662 874432 923768
2232.22 944441 980251 1008022 1046732 1076627 1078509
2235.11 1095827 1097480 1093662 1102579 1102534 1092314
2238.01 1073364 1044987 1018711 1003199 985602 967543
2240.90 920803 881498 869482 820431 754116 704883
2243.79 678194 634687 581279 537569 488543 450698
2246.68 407335 364635 324558 283707 229237 186341
2249.58 161204 119210 105635 90672 45621 26458
2252.47-19277-62801-72134-79960-89542-117668
2255.36-150580-166783-170930-196563-223041-202113
2258.25-201886-227033-226882-233332-237173-216400
2261.15-213090-241917-256467-242624-232915-232812
2264.04-241913-249477-246576-246586-245444-247638
2266.93-242750-226806-220007-229919-245292-265432
2269.83-261716-228403-225994-224504-223697-248876
2272.72-244136-235874-242371-237074-230495-242083
2275.61-273290-287093-271011-265108-280571-286529
2278.50-273167-269090-256055-236984-242246-246969
2281.40-244669-245699-250265-245746-234493-232239
2284.29-253492-264244-256573-273086-279755-258817
2287.18-276754-284625-243884-250472-263843-242699
2290.07-230300-233247-229628-252907-264618-243937
2292.97-262864-277091-258175-247883-245828-232157
2295.86-249596-265738-262092-242018-210247-237131
2298.75-249622-227208-217393-237462-254244-263604
2301.65-249751-219995-232021-246783-247431-206135
2304.54-209376-244185-243966-194805-168010-232984
2307.43-247053-202688-128622-168161-226645-220667
2310.32-139567-107864-194736-222534-118732-40429
2313.22-135803-228698-153718-6380-75590-170609
2316.11-99268 63438-901-164317-100826 122089
2319.00 65974-158641-88657 214658 188359-90049
2321.89-46871 292698 268887-76331 3045 414976
2324.79 350166-48784 90765 524891 367544-50981
2327.68 179062 605480 325498-85370 299433 697088
2330.57 261469-51102 484206 700654 122984 65805
2333.47 698226 620540 18247 272943 807085 384603
2336.36-9270 539605 737470 113640 149559 721835
2339.25 457259 7228 446272 669155 132737 152290
2342.14 608839 348197 28145 349997 387669 27407
2345.04 105077 288744 79567-20924 109092 45249
2347.93-58836-81374-60951 3300-25646 20142
2350.82 222767 162355 79446 386261 350472 129163
2353.71 510592 528220 221257 690697 705602 302568
2356.61 828117 788620 361987 963464 824528 452362
2359.50 1066383 736390 545456 1136785 637459 715611
2362.39 1133834 555616 895589 960021 549851 1042878
2365.29 722138 672247 959988 502936 787212 672428
2368.18 519680 767781 459495 619509 498688 401864
2371.07 466648 279517 420664 304054 342251 297086
2373.96 223087 210756 124087 146500 96330 115517
2376.86 67671 53780 21493-33617-83327-106274
2379.75-118326-132659-140951-168699-187612-181101
2382.64-182913-192994-199586-206862-211629-214350
2385.53-205275-196230-188306-187494-210198-233321
2388.43-231769-231738-220989-224702-237210-207588
2391.32-208346-239338-241747-237825-233952-236116
2394.21-257140-272356-266424-274424-277551-269956
2397.11-258129-255719-273736-278081-269714-281385
2400.00-279921-267260-271167-273609-272298-256203
2402.89-241164-263546-274832-270528-278555-282643
2405.78-275589-261164-276456-276044-255515-250267
2408.68-239416-254128-280375-275573-281717-274951
2411.57-245667-241257-257316-281008-284227-271343
2414.46-279507-301951-300849-280602-268875-266069
2417.35-264809-265717-260046-236528-239892-276342
2420.25-286198-264427-239908-251057-264164-256506
2423.14-267513-265423-270862-286779-273230-281559
2426.03-279632-268641-275460-274882-265436-249959
2428.93-256731-250008-240000-261920-269751-269471
2431.82-248188-240183-256069-263401-254212-248119
2434.71-252781-233874-226495-238844-252025-254576
2437.60-248471-248416-223576-208288-238108-262457
2440.50-270256-246681-223063-238805-248117-251182
2443.39-238320-223890-246822-257170-240193-221597
2446.28-224359-228247-222907-219913-227816-222240
2449.17-226036-246953-236216-251018-249965-208156
2452.07-195296-199038-217242-243329-253819-241170
2454.96-221595-215405-210968-216878-217791-213367
2457.85-212191-200151-194837-217645-215199-207040
2460.75-209432-198313-203702-225055-210834-172953
2463.64-163304-152776-161612-151100-137854-156036
2466.53-147409-136194-119478-93598-98691-96800
2469.42-82430-56848-38671-26185-9362-15455
2472.32-10299 5421 33885 36351 33479 73110
2475.21 95131 119732 150550 143554 151177 178619
2478.10 210010 238099 266275 296396 310631 339478
2480.99 369505 384440 402005 444494 465076 473901
2483.89 506495 545537 579387 598426 620208 658104
2486.78 684775 703589 736648 769540 796656 812724
2489.67 842455 880013 885965 878492 886084 892318
2492.57 895889 906910 918377 914855 907258 881660
2495.46 881577 887912 850530 818614 808105 784768
2498.35 766529 747498 716062 692746 671909 650852
2501.24 605123 569364 529130 488533 465418 413626
2504.14 368561 349772 308505 233976 182019 157511
2507.03 126854 78700 35629-12425-51923-75603
2509.92-119998-142147-163027-180321-196175-201295
2512.81-203136-212558-200685-222322-252692-254325
2515.71-248818-262000-268004-248213-232966-233658
2518.60-250944-262268-259841-267007-273852-259859
2521.49-256793-266031-252861-248609-277633-291750
2524.39-301182-294675-282706-284480-283178-289723
2527.28-293061-302074-291012-289649-296527-265523
2530.17-248810-256060-262183-272149-272275-271844
2533.06-285611-284116-288990-294117-278926-290410
2535.96-305053-283622-275308-284499-272353-256052
2538.85-259640-269069-270444-248560-243403-262063
2541.74-250694-249153-255161-245671-249940-265825
2544.63-258295-274067-284034-253467-236557-252670
2547.53-262422-264577-264716-261309-264900-272741
2550.42-265547-252617-256417-248282-254997-269705
2553.31-279519-284834-272694-251634-250046-261258
2556.21-262497-270209-280286-264490-253226-263749
2559.10-275145-287317-267597-239802-249742-264650
2561.99-272844-278993-268346-260057-260667-255403
2564.88-265998-277118-277086-264810-257908-246154
2567.78-243534-245472-231179-241176-227206-226818
2570.67-249896-251572-264964-256014-254088-254082
2573.56-237166-238371-249295-248247-233827-232696
2576.45-234192-232438-232729-217283-222025-230435
2579.35-220610-235017-262396-271762-258497-255223
2582.24-277528-290568-254768-239729-265345-277989
2585.13-268091-230923-235540-278043-271370-245932
2588.03-241462-246853-258700-266335-263049-264064
2590.92-261331-262911-260976-246156-252382-260636
2593.81-267560-253617-250735-259738-243287-245131
2596.70-272607-280092-275945-280587-277625-251359
2599.60-241623-257307-241358-257501-271550-245814
2602.49-246743-241722-239814-262153-260827-259060
2605.38-249822-251142-263213-248689-252206-245556
2608.27-233611-255912-252333-254650-285197-275897
2611.17-268169-267920-256720-254450-260644-279558
2614.06-288193-281007-271566-259227-254289-276696
2616.95-303673-310944-301226-281259-294074-304602
2619.85-294152-280863-273017-277784-280529-289104
2622.74-287619-284824-286559-279454-285292-288845
2625.63-288012-286555-271445-268042-277759-276601
2628.52-258038-262725-275662-266587-251732-263739
2631.42-268922-253996-257816-263157-268715-263606
2634.31-279081-303824-286589-288474-316326-305834
2637.20-283705-282555-303512-300444-269664-284404
2640.09-307210-316589-308581-299836-296347-299278
2642.99-300596-278666-267023-282817-293143-294033
2645.88-308617-303163-292960-307646-309650-294542
2648.77-311641-313103-302290-316410-324613-325619
2651.67-319872-303921-275121-279039-314764-315312
2654.56-295337-292716-308630-308756-297344-305175
2657.45-300019-287223-308023-322350-311300-309670
2660.34-315108-318347-321348-312779-314119-353457
2663.24-343535-321088-324838-311428-305675-320256
2666.13-306667-286813-291595-296935-318638-310595
2669.02-306068-328326-336821-341274-313862-288344
2671.91-304361-296797-288148-303124-311686-309641
2674.81-301799-309139-303393-278474-284165-275604
2677.70-248347-261315-286253-312178-328670-338728
2680.59-338618-317160-309066-315725-322657-325286
2683.49-308315-279504-290214-309011-298558-306617
2686.38-319398-298783-290677-286564-267403-292818
2689.27-321695-303537-282128-285501-295972-309251
2692.16-328066-328639-310522-300606-317247-325089
2695.06-316242-290624-284620-305563-301741-293459
2697.95-304987-322399-333795-350349-346508-325430
2700.84-302913-286627-284335-288579-274932-263823
2703.73-257707-253874-265301-283716-290866-268706
2706.63-253451-265191-294659-307898-272478-272483
2709.52-328637-326614-319726-319405-296031-296371
2712.41-298931-288718-282309-306170-302326-274828
2715.31-279785-292667-299042-296685-306827-287185
2718.20-276625-296117-303705-289704-268569-254195
2721.09-273398-300254-313399-305356-281478-288057
2723.98-297621-297064-270376-252516-253838-251737
2726.88-257195-267033-253424-253656-274573-271553
2729.77-268406-254868-229212-229618-244038-227686
2732.66-217080-230919-241645-237817-227135-227765
2735.55-198045-206343-254579-244263-234156-218523
2738.45-205929-244324-262697-244691-228650-228381
2741.34-209938-190703-190073-196670-190173-183638
2744.23-189410-189170-183218-182831-193235-197442
2747.12-202646-200287-193431-191449-185757-201750
2750.02-196715-181240-210056-220122-203383-222355
2752.91-220863-196895-218508-234640-245173-234773
2755.80-218274-229358-240299-238633-232970-228854
2758.70-224545-232785-230026-229759-260663-261892
2761.59-231176-250609-266782-266368-263416-246568
2764.48-245520-254362-257555-266326-272937-262717
2767.37-251437-251380-247630-230478-245988-249935
2770.27-231627-214213-230085-228489-217151-224987
2773.16-224814-217039-201635-215781-239255-249685
2776.05-229501-216134-215572-209906-224236-241732
2778.94-233545-219702-208190-198614-223555-252551
2781.84-244659-223922-211415-204036-209138-218733
2784.73-232948-241253-225248-234390-265717-253470
2787.62-207599-189798-214667-220435-238717-275462
2790.52-250633-212129-223525-251055-282046-285704
2793.41-253336-249017-248127-222134-210173-233082
2796.30-226742-227804-231675-218246-264696-303430
2799.19-289039-266346-262506-268868-274141-246342
2802.09-232586-253789-248283-241007-235351-241551
2804.98-241894-238000-248995-232694-250224-287877
2807.87-297968-289473-274986-280879-271122-258693
2810.76-244119-249062-266133-254439-269338-276098
2813.66-268785-286106-277991-284135-308102-291844
2816.55-286565-259415-255610-296982-282537-262326
2819.44-280293-273993-269749-300343-288954-264263
2822.34-258277-267987-291462-308221-280385-256173
2825.23-264112-273529-250778-243056-250902-244412
2828.12-275207-297866-285323-271881-270725-267974
2831.01-272632-294397-292982-265931-253955-283548
2833.91-281517-266283-259498-246534-247565-250775
2836.80-305688-316053-280249-275192-266016-251267
2839.69-246158-268087-282099-265696-262590-254920
2842.58-244894-242573-268472-275335-245673-243212
2845.48-257379-280734-308815-286225-262260-274510
2848.37-273611-267659-256805-261200-255058-250820
2851.26-260074-262435-244298-225333-230612-230271
2854.16-223237-228300-218200-215779-238959-255701
2857.05-231171-188636-197096-203149-220575-232409
2859.94-208621-216990-203694-180923-185622-202534
2862.83-221658-198752-172847-193617-204779-183954
2865.73-175601-156942-165676-174366-171398-168008
2868.62-153809-157898-141749-135418-158129-168008
2871.51-149437-158401-174168-144304-137110-147105
2874.40-123075-111427-129233-147307-151644-149400
2877.30-141760-119258-118925-122921-104524-101446
2880.19-116196-133738-132585-118508-120550-113677
2883.08-90317-96901-107191-98651-94104-91525
2885.98-84352-87547-91897-68185-54118-78556
2888.87-82175-50159-46743-65544-71473-49421
2891.76-31536-44471-80336-78605-33552-23458
2894.65-17604-27854-25218 7586 12604 9666
2897.55 5262 1882-26931-17065 14170 16787
2900.44 11881 12174-14243-27508-6763-14329
2903.33-3643 7157 10782-7051-1004 2999
2906.22-26409-30514-25786-41486-52503-41176
2909.12-32465-18155-23951-45801-61795-81700
2912.01-93093-106756-108697-96413-79635-109679
2914.90-151737-148005-163260-178388-169554-180617
2917.80-188067-165364-149285-176344-202764-191745
2920.69-175359-204129-221710-213161-199146-184876
2923.58-193480-205496-220932-207435-193475-179319
2926.47-187392-193330-189359-212951-191647-193838
2929.37-215738-188529-186034-185332-200147-203916
2932.26-178718-174891-189371-214315-207520-177424
2935.15-176296-170049-151272-140502-145360-157270
2938.04-151421-169195-193461-189262-163561-172898
2940.94-171811-142018-164827-195950-197599-162237
2943.83-131040-128785-165396-165125-152746-171947
2946.72-157565-177706-197994-167142-150637-139450
2949.62-146757-196309-221858-206822-171457-170368
2952.51-164785-160320-178219-184169-176162-181845
2955.40-168243-154332-179660-209685-211196-191351
2958.29-214615-222701-200386-214901-234134-213392
2961.19-268041-204690-61791-89711-151665-172108
2964.08-165419-154484-164188-174905-175853-173559
2966.97-184038-188355-195186-213243-186042-178835
2969.86-202322-191367-163405-168299-180111-181397
2972.76-169457-146607-132856-131619-132890-152660
2975.65-176833-172563-173769-190009-198674-208655
2978.54-177856-153341-152427-118239-106589-121018
2981.44-127730-114732-109369-126190-122760-101003
2984.33-120474-139434-136666-129004-135578-144214
2987.22-131822-127355-149211-162344-141965-130800
2990.11-149817-173116-153995-149210-157476-140820
2993.01-147221-161584-161273-150270-145491-160914
2995.90-176311-186313-186206-206500-208334-193740
2998.79-196357-199535-193476-178783-191441-201449
3001.68-227022-250672-248345-223651-203952-212616
3004.58-245885-245994-245162-251662-231349-245113
3007.47-224524-227411-239095-228114-226275-243808
3010.36-268373-251457-241320-261118-287670-286701
3013.26-265605-271103-289126-287602-260922-243694
3016.15-273200-279333-243557-247824-278034-249037
3019.04-236131-257304-274950-285461-285532-270854
3021.93-246494-271518-274802-261206-300707-311156
3024.83-284961-285565-279261-268831-291688-299327
3027.72-273555-271025-266041-243870-246580-261059
3030.61-287365-304297-292898-290177-285996-303720
3033.50-312332-277664-263558-277239-279268-273563
3036.40-293919-293202-287920-292780-281429-299294
3039.29-324505-299624-307742-314267-261549-247469
3042.18-252836-283369-289382-284977-309343-323801
3045.08-303422-283455-279589-290838-316433-299333
3047.97-284141-280088-287049-291234-305143-308668
3050.86-283881-290110-278935-258814-266661-271929
3053.75-270634-291570-315454-320156-322533-312733
3056.65-303879-326572-343874-318133-310301-301809
3059.54-285314-293029-288700-240144-234378-250198
3062.43-258339-270513-267501-282941-282545-290336
3065.32-298614-300563-308113-311141-301469-293759
3068.22-290983-297945-311323-302861-299810-304068
3071.11-296154-269755-249458-254805-264413-255040
3074.00-254828-263601-263532-258252-249595-269516
3076.90-280398-297904-333631-334740-308832-276733
3079.79-268765-244979-240224-258871-279585-293911
3082.68-265658-269324-254951-245328-263719-235067
3085.57-251892-274056-259793-270282-269147-276788
3088.47-310099-303876-279333-269377-272205-288458
3091.36-264563-259984-257757-221410-223688-214454
3094.25-227512-254243-259673-261788-230145-194393
3097.14-200054-228884-221779-222827-254750-270715
3100.04-290405-261671-207939-216852-247236-258100
3102.93-236634-212901-205784-223509-249767-224758
3105.82-213373-244032-259702-240884-211202-227010
3108.72-240335-229489-212795-196320-192507-189596
3111.61-173655-180741-203687-201404-209927-228095
3114.50-238813-220814-235450-267246-250186-238154
3117.39-247565-223046-188068-191723-201765-204936
3120.29-181635-178428-202246-203784-198163-210214
3123.18-208204-201742-219187-235523-251317-259524
3126.07-227056-210333-216796-197589-200575-205821
3128.96-222143-213406-170021-170977-180402-192490
3131.86-172244-157769-175445-178549-186339-195620
3134.75-184514-166833-160017-152590-148818-155489
3137.64-170357-179895-178152-191631-197627-174645
3140.54-178455-163805-137399-147188-156778-176967
3143.43-173505-141016-141582-169689-182264-178322
3146.32-188768-207941-206589-207624-201706-161928
3149.21-173838-176268-171564-189342-199011-191713
3152.11-162067-161256-171157-164945-159153-144836
3155.00-134577-154336-166906-180798-183905-180756
3157.89-190584-182754-179585-188612-167349-164123
3160.78-167414-176788-197877-181732-165751-147755
3163.68-139563-170468-166643-144119-166107-170362
3166.57-181640-164386-145424-158307-155047-157805
3169.46-166141-182515-174647-164416-157624-180352
3172.36-191360-168105-160718-152069-152943-166381
3175.25-174643-184921-180840-175727-199270-208448
3178.14-189463-188186-196434-180242-133608-159951
3181.03-209334-181721-159095-181781-191690-162121
3183.93-132882-133109-148350-152196-156247-153057
3186.82-164582-189765-199891-193827-184524-184904
3189.71-208155-194278-168960-205135-204842-158262
3192.60-185906-229218-190335-183326-164857-174454
3195.50-222676-230667-196839-150261-144011-159022
3198.39-167752-156071-159432-158315-165665-163489
3201.28-155079-155332-175882-198642-200407-208985
3204.18-232981-254508-236318-218821-212812-204631
3207.07-198789-203115-193702-189780-192466-181823
3209.96-191132-175693-180822-178360-163546-147074
3212.85-117854-148548-185168-167993-145677-161945
3215.75-198838-202275-174127-213077-277206-273496
3218.64-252548-205815-191638-194319-195131-211101
3221.53-191075-167515-155550-155327-169200-164844
3224.42-138323-151541-170935-187383-184869-160171
3227.32-197186-203819-183740-188380-182115-188447
3230.21-189266-178204-170368-158942-157806-153266
3233.10-143209-162552-158449-176610-193778-174339
3236.00-180687-196050-187529-160478-174250-191869
3238.89-204100-219378-205023-185058-146498-112234
3241.78-143597-169560-159435-155561-181568-229993
3244.67-201961-155954-169462-172913-168149-177849
3247.57-190970-152081-143580-159929-130597-118044
3250.46-103430-113646-152193-168227-163739-177993
3253.35-185339-173816-152978-114770-113672-125595
3256.24-113073-128374-130653-122851-125846-124483
3259.14-147968-150762-139521-148816-130774-126275
3262.03-150917-139046-134002-130776-115998-120476
3264.92-129567-132085-156324-152065-138724-139447
3267.82-125038-138346-181590-191019-171102-177369
3270.71-148107-131055-151820-147436-127521-118112
3273.60-131261-147921-147547-149931-155422-142481
3276.49-124236-142082-153224-122508-113783-120902
3279.39-123651-132390-121582-120440-153060-142734
3282.28-139847-162443-148197-115520-117776-111709
3285.17-101868-119990-135607-123198-119388-124760
3288.06-89748-105160-116221-97034-131879-173693
3290.96-183193-187651-188471-184057-153888-155153
3293.85-171028-149355-114803-110565-117689-108286
3296.74-114930-124560-137515-152720-169536-161402
3299.64-158880-189214-189718-168360-169488-153676
3302.53-155426-152141-150104-189264-192984-175131
3305.42-154006-132300-147652-148540-142076-141102
3308.31-144002-159553-180428-195151-188291-161434
3311.21-137697-169940-177633-157517-147987-118373
3314.10-103701-180724-217740-186180-176320-146803
3316.99-159424-180629-167493-172593-188880-191211
3319.88-186938-200002-185953-188028-206867-191929
3322.78-191435-169533-141825-149885-166054-178859
3325.67-181697-175417-167668-183357-185841-156638
3328.56-138447-148072-148830-170092-195961-175761
3331.46-175729-163340-147803-176134-196026-196465
3334.35-222789-223667-201714-191348-187922-209263
3337.24-205869-208918-207342-158314-164387-234120
3340.13-225768-201939-195947-182492-191136-179715
3343.03-137244-109861-156860-186482-171249-178493
3345.92-183187-189597-216870-217304-211043-247653
3348.81-242556-192884-183081-201790-203862-187761
3351.70-204787-212003-212813-229378-252658-252320
3354.60-249797-253896-212969-197195-201616-207370
3357.49-198588-175606-184744-220866-245278-234876
3360.38-243028-232289-205087-246802-263676-234211
3363.28-238658-256275-240625-218942-227853-232359
3366.17-204033-228736-236669-232291-266911-237590
3369.06-207752-203335-216906-226125-246977-270215
3371.95-263300-248279-229040-223535-209863-244160
3374.85-267892-264993-265441-216080-185918-204149
3377.74-220215-208694-212955-206146-213757-253421
3380.63-273194-262260-232373-201064-220826-232162
3383.52-217983-220634-216796-227669-207958-176585
3386.42-184520-215147-237262-208694-176033-204982
3389.31-228687-207379-184135-225568-224553-188294
3392.20-220463-251318-260460-236387-230243-247456
3395.10-219639-187117-183182-187754-220372-259742
3397.99-243096-203215-213213-243230-256601-254304
3400.88-264283-263859-246709-243900-279716-273653
3403.77-215574-230601-262391-255806-252765-246114
3406.67-230962-221128-228053-213278-188272-228108
3409.56-247887-206232-196590-202302-203874-218425
3412.45-220649-211977-198323-201904-234184-263619
3415.34-258740-218477-192573-198402-218605-261183
3418.24-269867-259771-230068-192993-210283-231646
3421.13-245959-253658-244667-259222-251197-216786
3424.02-247983-288737-260017-233147-235060-217366
3426.92-204309-220413-227666-223679-196021-208424
3429.81-221719-200704-202575-220470-213396-213560
3432.70-212223-187478-220266-247672-244412-256411
3435.59-262579-239072-239716-177480-156011-210121
3438.49-217358-242470-239536-203929-224697-245255
3441.38-215229-225364-203248-183525-226814-235587
3444.27-207967-198546-247841-210903-163233-209515
3447.16-238618-216708-171536-214963-272774-239759
3450.06-231729-247499-230472-250219-243119-224181
3452.95-212820-217319-234590-198745-187595-160358
3455.84-118684-196715-257045-224830-226175-231635
3458.74-208765-175877-190051-210317-227003-254078
3461.63-245200-232510-214515-202820-211200-213226
3464.52-220521-247425-227835-194669-196543-203387
3467.41-196912-195501-218996-199797-198876-207020
3470.31-208185-232386-217509-226022-209621-162862
3473.20-217326-284430-251593-232048-217009-203938
3476.09-207266-226342-265616-236806-215748-208196
3478.98-197140-210376-206547-223759-228413-210342
3481.88-220710-199979-205372-209753-203972-252397
3484.77-273833-262147-234898-226028-244193-241251
3487.66-245642-243001-199031-210041-242569-223603
3490.56-195195-216946-215550-192192-205023-219710
3493.45-232848-194058-199555-232081-232877-244816
3496.34-249956-254498-248779-215733-212485-222691
3499.23-225038-211712-203982-215884-205738-185322
3502.13-186733-189803-211296-265240-271808-268953
3505.02-278113-296662-308622-291293-280379-258532
3507.91-264494-310364-290719-282165-312710-329550
3510.80-281030-272041-306231-288360-268438-243209
3513.70-269964-275561-289588-320900-297248-311929
3516.59-324942-305086-282741-284119-313319-323045
3519.48-309767-297072-284743-252080-259158-273589
3522.38-266458-279721-281056-235586-249724-300642
3525.27-301612-303528-299528-278689-283565-298910
3528.16-292869-270261-300949-321126-305368-331469
3531.05-355864-332899-282749-258335-262356-273669
3533.95-266989-254247-224407-233541-309008-328712
3536.84-294264-302882-311040-324795-340084-338937
3539.73-364302-361527-354341-362708-310956-290999
3542.62-294020-246992-240054-252859-223744-194582
3545.52-227900-248652-237549-260428-258417-227200
3548.41-250715-286342-294262-293692-308426-308724
3551.30-306247-318540-310333-290730-269759-241536
3554.20-233795-243526-237715-232088-208045-226655
3557.09-250841-237044-246754-250182-246370-273239
3559.98-278137-262507-263382-249568-234657-217948
3562.87-210948-232001-239379-247053-214560-166881
3565.77-205975-234114-208049-170412-172659-233168
3568.66-248189-227852-219312-210888-223093-216325
3571.55-205976-219594-229600-212982-202365-235305
3574.44-257186-231699-208571-248513-254961-223118
3577.34-228809-210985-183128-193962-219734-224420
3580.23-211925-221971-227412-189139-218447-257382
3583.12-230685-222616-198082-173099-221924-206405
3586.02-128975-168165-207488-210921-170312-157351
3588.91-218505-193096-160863-208656-238780-242077
3591.80-240004-239561-263042-258999-213332-201461
3594.69-208501-187614-193177-248283-264272-220082
3597.59-183586-214783-271042-235362-212546-231687
3600.48-217534-230761-265753-270212-234486-243641
3603.37-283590-257611-244772-267904-262413-284269
3606.26-269093-227682-247062-248507-195746-130355
3609.16-159788-229130-273487-265115-256776-236499
3612.05-203835-235775-248079-246962-246157-283852
3614.94-298118-275550-287686-300580-265798-246681
3617.84-260371-249794-194255-167297-247698-265414
3620.73-251604-264029-246388-271225-277346-284282
3623.62-312054-271399-233152-235931-235835-217602
3626.51-202630-229650-210574-187279-234376-162028
3629.41-165083-238634-231166-261244-293870-302937
3632.30-312888-335381-312397-344764-383115-357501
3635.19-342056-335798-318979-272084-252000-247133
3638.08-220155-200993-236220-250526-246648-239468
3640.98-233198-256606-272977-272038-282847-304953
3643.87-331664-322702-283383-272630-254838-254163
3646.76-242879-239510-283759-234133-118959-176936
3649.66-240021-234308-243976-251019-292906-320700
3652.55-303406-308381-340194-359334-339629-319942
3655.44-276308-223947-270236-302158-320013-365862
3658.33-361182-337949-351554-356001-319832-294240
3661.23-309242-331926-328405-312713-308322-320795
3664.12-342248-354459-341174-318509-317449-309876
3667.01-328860-362799-289135-249583-280431-255734
3669.90-149955-141009-275478-316401-323950-310597
3672.80-277143-272210-260500-200695-196880-180796
3675.69-184709-278243-318353-343787-333941-320938
3678.58-292636-286334-329124-330274-332294-323514
3681.48-283040-268489-256000-270430-299579-303966
3684.37-310348-289864-292853-329640-328581-306723
3687.26-271797-141541-146458-321457-383853-344063
3690.15-299295-263504-259466-289635-275160-299198
3693.05-324272-349084-368189-341559-352517-336028
3695.94-298236-323332-353627-311222-322491-369039
3698.83-342508-315012-311900-347327-333468-263806
3701.72-272404-314539-324776-291134-301360-315677
3704.62-268227-257139-252786-243746-263633-287470
3707.51-278920-242620-217185-213679-270743-314709
3710.40-290664-266074-189893-171309-269768-293221
3713.30-320907-330271-289397-305997-325829-336085
3716.19-322095-294182-297326-316836-311502-291773
3719.08-308335-301494-285926-275242-277359-279469
3721.97-258852-267694-290458-279974-250147-265774
3724.87-270481-254781-272790-267843-277784-299187
3727.76-282132-290690-321083-313312-309753-302073
3730.65-284530-241004-158595-221260-297075-281579
3733.54-277748-226823-201072-232657-294589-250735
3736.44-180342-234373-267300-288928-279194-270064
3739.33-287681-288327-280296-270960-306339-315269
3742.22-308774-266536-229202-119428 17206-122853
3745.12-285677-316204-320548-312010-280750-274003
3748.01-306692-179527-80999-206438-284256-278578
3750.90-257876-130187-78161-248750-332695-326883
3753.79-309784-298050-306940-293560-256690-239629
3756.69-271481-299992-311980-296950-312795-321262
3759.58-307878-316079-324026-330964-327179-347948
3762.47-354462-319713-319667-323173-323671-274510
3765.36-254808-293036-286933-282295-308949-324017
3768.26-327185-306731-227450-241304-314462-334084
3771.15-334973-333490-329365-319693-311934-303192
3774.04-287870-303768-319922-307955-307409-302373
3776.94-290480-304451-321588-327290-291726-304547
3779.83-364573-341616-321195-336354-345210-338629
3782.72-324759-337248-318980-270053-305033-327346
3785.61-312784-325319-335566-346593-361438-340010
3788.51-282662-296419-311850-266012-270612-317802
3791.40-328943-319824-332034-316378-325502-315801
3794.29-277842-313704-320324-264624-257861-313792
3797.18-348510-332178-333046-320979-327804-326303
3800.08-296149-179463-78805-194130-277934-280436
3802.97-295228-301516-273745-285996-319663-304286
3805.86-252665-162290-196707-273403-280700-290727
3808.76-297167-292590-322049-347848-330670-340212
3811.65-324779-325165-339973-334892-341007-279225
3814.54-280042-259950-88855-137099-294792-335788
3817.43-331265-311447-308303-291083-278044-246376
3820.33-219316-208261-196322-256740-287082-276050
3823.22-291335-301592-328431-356809-336048-306888
3826.11-292388-291063-322424-334019-325846-315412
3829.00-319502-311608-272794-287008-271475-254728
3831.90-281353-298170-313488-322407-305536-234703
3834.79-263028-323044-319033-309549-268016-135282
3837.68-149986-293176-347873-330562-290382-275478
3840.58-256123-266182-308596-340556-306934-262214
3843.47-275693-291605-307027-339739-323980-310644
3846.36-329751-317436-301146-316340-319267-322913
3849.25-316711-312003-292680-299398-208187-128133
3852.15-227383-262505-154174 27339-38064-227195
3855.04-287847-313251-322377-326224-344120-341367
3857.93-300319-311950-347217-369129-405724-376660
3860.82-305488-290486-322640-347480-372107-380959
3863.72-390876-319303-272670-319056-315241-313188
3866.61-335928-322376-313570-330412-309501-293953
3869.50-229151-262349-324001-316265-335996-347812
3872.40-375874-388718-348036-322203-375462-386054
3875.29-389423-389582-370852-373420-342160-342767
3878.18-352663-349285-321649-309841-324786-336147
3881.07-371673-374878-368577-369492-369590-395359
3883.97-413134-396733-282401-217376-307656-348573
3886.86-345544-359451-376447-368074-346711-376490
3889.75-377980-328561-279349-291952-346013-353872
3892.64-352222-353006-332219-362110-391065-374608
3895.54-390196-418686-405075-375658-350225-349538
3898.43-351932-331360-337823-325686-339046-329568
3901.32-292868-338453-355406-334804-274281-229835
3904.22-306369-335019-332943-352939-361215-370803
3907.11-390618-410962-409526-396190-388011-399310
3910.00-379362-399511-403771-369279-377961-376750
3912.89-366121-352308-372352-377704-395537-403735
3915.79-369991-365318-330134-348918-406315-431759
3918.68-389831-347236-337150-348852-383496-391925
3921.57-388766-349409-322719-346596-362475-355465
3924.46-349188-340670-325762-312843-319915-354870
3927.36-371697-372530-352949-335426-358054-367154
3930.25-391009-381075-367984-370248-344468-335602
3933.14-351634-367281-360381-329656-332512-317776
3936.04-321922-340208-305058-329984-380341-365097
3938.93-324136-333126-321770-305224-334249-339849
3941.82-316925-307766-328661-336886-341694-382822
3944.71-397340-372143-338172-328380-329009-340835
3947.61-336737-340231-353072-304043-276733-269163
3950.50-286827-331371-324280-311305-326436-347635
3953.39-352308-369887-377727-342990-332961-332321
3956.28-335055-352443-349776-333550-283103-265838
3959.18-304443-305375-308038-330241-325836-339131
3962.07-381033-387929-366649-361723-330181-294465
3964.96-308864-324204-343932-344554-332336-334635
3967.86-351369-366180-351240-335010-314311-294751
3970.75-316233-311481-289022-315792-340837-326469
3973.64-308573-301090
##END=
