##TITLE=Tetrachloroethene
##JCAMP-DX=4.24
##DATA TYPE=INFRARED SPECTRUM
##CLASS=IUPAC A
##ORIGIN=NIST, Analytical Chemistry Division, 301-975-3108
##OWNER=COPYRIGHT (C) 2000 by the U.S. Secretary of Commerce
##DATE=00/02/01
##$SPECTRA VERSION=1.10
##$UNCERTAINTY IN Y=2.0 % relative (B=1.0E-04,C=1.6E-09,D=1.3E-13)
##CAS NAME=Tetrachloroethene
##CAS REGISTRY NO=127-18-4
##MOLFORM=C2 Cl4
##MP=-19 C
##BP=121 C
##$NIST SOURCE=QUANT-IR
##SPECTROMETER/DATA SYSTEM=IFS66V (Bruker)
##INSTRUMENT PARAMETERS=KBr Beam Splitter; MCT Detector; Multipass cell
##STATE=gas
##SAMPLE DESCRIPTION=Tetrachloroethene Primary Gas Standard
##PRESSURE=101.3 Pa
##TEMPERATURE=23 C
##SAMPLING PROCEDURE=1 L/min Flow
##RESOLUTION=1.9290
##DATA PROCESSING=Triangular Apodization
##XUNITS=cm-1
##YUNITS=(micromol/mol)-1m-1 (base 10)
##XFACTOR=1.0
##YFACTOR=18.189E-13
##DELTAX=0.9645
##FIRSTX=575.652
##LASTX=3974.605
##FIRSTY=7.49E-07
##MAXX=3973.64
##MINX=575.65
##MAXY=.0014084
##MINY=-8.63E-07
##NPOINTS=3526
##XYDATA=(X++(Y..Y))
575.65 412063 127556-45454 297742 263140 194472
580.47 123462-27010 31664 13933 43883-8413
586.26 41246 278134 343550 175707 7762 79605
592.04 84605-491 34436 37158-13759-29729
597.83 99641 192747 33990-81533-20147 86696
603.62 25826-1080 71972 117693 163350 117895
609.40 85637 109521 126285 129505 127238 113788
615.19 141255 151310 80965 114046 113161 110015
620.97 51040-13047-7698-73537-72244-42536
626.76-57930-72293-46887-78687-169806-167279
632.54-83286-95230-164673-145292-84715 4370
638.33 5623-102080-44108 13681-59423-75962
644.11-89604-91776-51070-18648-21338-36148
649.90-106873-97988-13580 14831-9966-24709
655.68 41017 26683-14064-16642-25925-23109
661.47-2153 12796-14769-32663 49217 475766
667.25 557481 185214 44722 17555 14023 2394
673.04 65278 125558 103650 156280 275346 336623
678.83 360914 398564 443196 499525 577931 652168
684.61 639663 680420 708638 652842 685291 679109
690.40 649767 607836 554411 549402 517121 471435
696.18 398399 306951 259007 227759 116924 50765
701.97 41798-1795-25892 8068 23908 20069
707.75 14958 41985 67946 70845 84760 49000
713.54 19452 41403 38300 37665 117162 162860
719.32 125471 107729 122253 137848 160634 222380
725.11 275944 294272 328623 375069 399593 459084
730.89 521179 645570 785794 931362 1159542 1466159
736.68 1861143 2401942 3082387 3958231 4954132 6130329
742.47 7552106 9231484 11134255 13109922 15252943 17420905
748.25 19467119 21656671 23340133 25234175 26134594 26870556
754.04 27704098 27910851 28903979 27331040 26477663 26243755
759.82 26456152 26842767 24949450 25009321 26366595 28453376
765.61 31861785 37141615 44848287 55480117 69344925 86120316
771.39 105243889 125592786 145275577 162327996 174747785 184307267
777.18 190160586 195423634 194182980 195036211 200216442 191498289
782.96 183068524 181531373 178420225 167555141 148012748 123086602
788.75 97848914 76966932 63027620 57140464 58202282 64298513
794.53 72746322 81058784 87497448 91348977 92771619 98527190
800.32 105357829 101900755 97573359 100149752 100535602 97169649
806.11 93893220 87585545 78633416 68416763 57007382 45926611
811.89 35880251 27373451 20501389 15345204 11630758 9095964
817.68 7510191 6607679 6100361 5845204 5723165 5700082
823.46 5605022 5486506 5386456 5306549 5173575 4975289
829.25 4782902 4636475 4425536 4048713 3508650 2906181
835.03 2257819 1686106 1231227 919043 776731 688240
840.82 638603 603322 556827 579221 570064 530349
846.60 531696 577661 590555 551657 543515 565295
852.39 584716 588312 612658 607087 620947 650049
858.17 646540 676595 711438 740233 741327 758991
863.96 773242 792216 818793 855559 906220 966227
869.75 1035515 1094822 1131486 1178494 1290406 1429573
875.53 1553514 1685712 1896115 2105771 2355211 2687666
881.32 3086814 3596067 4232756 5012370 5928349 7095177
887.10 8546362 10272459 12286679 14630116 17381482 20515213
892.89 24051400 28079815 32799826 38511741 45545686 54459154
898.67 66065743 81165883 100698703 125516469 156151263 193255520
904.46 237115715 287822795 345459510 409019178 476340023 544448116
910.24 609714443 667952970 715324199 749243626 768578921 774311129
916.03 770030003 760383073 750829472 742589372 732575448 714435918
921.81 677059244 615553944 533764505 441688646 347417756 258292152
927.60 183143493 126059328 86173127 59246912 41059554 28578446
933.39 20045021 14331556 10578475 8089602 6410159 5252815
939.17 4443503 3815936 3329618 2939531 2620848 2377549
944.96 2180680 1983323 1830424 1711153 1601285 1489498
950.74 1389283 1298319 1230440 1155604 1090860 1047019
956.53 1004353 971780 889493 830808 828186 823882
962.31 798588 738252 694672 668374 637287 599120
968.10 551066 512056 509319 508529 482975 478813
973.88 510873 548865 564047 590619 631945 697576
979.67 772537 795106 820333 865364 878950 873974
985.45 843636 811302 831659 851874 876279 883692
991.24 849589 783301 698910 603048 506271 424690
997.03 350109 299739 276288 283037 273709 283096
1002.81 317248 352849 395139 415190 413829 382497
1008.60 355177 352785 318785 283709 266049 241744
1014.38 197556 148586 149944 122361 90025 67348
1020.17 33429 25754 8755-12708-31091-41153
1025.95-15504-6010 1101 15714-2683 13663
1031.74 41667 24648 2524-8109-20740-21233
1037.52-10519-15826-18062-12787-10642-13861
1043.31-17587-32659-66456-74816-62118-48315
1049.09-21343-5488-11423-12725 14981 15526
1054.88-14192-28290-27264-33911-55944-27359
1060.67 21133 9045-33379-41550-26948-8838
1066.45-12107-18751-10262 12390 36146 35655
1072.24 25882 36057 65608 125580 184605 216833
1078.02 264416 334162 416096 499480 623318 758258
1083.81 908452 1090178 1273643 1453205 1631711 1846153
1089.59 2072581 2280142 2468289 2676226 2917444 3213140
1095.38 3606603 4050319 4526869 4987919 5292877 5262411
1101.16 4842571 4182922 3529060 3173501 3170357 3261887
1106.95 3349052 3424487 3426921 3392839 3385108 3425498
1112.73 3552110 3776941 4030767 4335022 4683252 5010620
1118.52 5333446 5594541 5744325 5835081 5932073 5972774
1124.31 5883808 5718048 5565335 5431718 5168736 4825033
1130.09 4568439 4327769 4017074 3674704 3389422 3231774
1135.88 3135706 3090527 3120583 3225842 3376558 3503248
1141.66 3627580 3752655 3860218 3919789 3961635 3956874
1147.45 3930337 3937824 3890468 3759728 3614737 3459202
1153.23 3260163 3052605 2812030 2536130 2248705 1949434
1159.02 1686569 1477703 1312487 1189430 1119770 1103933
1164.80 1111278 1153407 1189053 1203580 1253402 1298312
1170.59 1297970 1275970 1250455 1246463 1222449 1168681
1176.37 1115205 1095913 1096730 1048311 966406 904463
1182.16 858695 746974 603885 462862 339177 277475
1187.95 239336 201908 179846 176553 185095 179027
1193.73 156251 164134 186592 174292 148916 133615
1199.52 123508 125037 119228 108782 97805 114456
1205.30 123952 94911 77385 87476 104710 94032
1211.09 87695 103764 132238 168549 200845 238634
1216.87 280392 330347 375947 396426 432226 486125
1222.66 514023 540586 557057 577101 601876 612584
1228.44 621193 584713 553411 541903 516318 481367
1234.23 437768 418896 397859 367789 342905 339930
1240.01 355397 365276 365568 388882 431114 450889
1245.80 474939 539503 612243 684958 758190 818623
1251.59 875798 938239 1007338 1039315 1047777 1077558
1257.37 1117846 1133969 1124812 1109444 1104394 1125968
1263.16 1098920 1049287 999356 930569 860552 763795
1268.94 677671 603933 525409 438041 352850 306836
1274.73 295214 263330 201907 173563 165030 130956
1280.51 80479 20407-47 5710 4701 6829
1286.30 6402 42326 91506 100046 115805 155315
1292.08 203205 235049 238855 255854 285167 304880
1297.87 316439 308557 303830 300979 272478 220696
1303.65 186785 176552 152790 116805 75316 25129
1309.44-10724-28005-65095-91293-91241-95622
1315.23-116126-142128-139822-116132-122447-149059
1321.01-162541-156894-130727-120958-141240-136118
1326.80-106457-74302-82115-88757-57904-28724
1332.58-10479-3850 40539 94664 135071 179185
1338.37 221060 288782 387171 463475 534497 648870
1344.15 785134 926737 1060884 1178947 1350156 1563268
1349.94 1777575 1974707 2244247 2587545 2859868 3085179
1355.72 3263048 3397013 3491886 3525323 3575831 3605556
1361.51 3582448 3550709 3502307 3392235 3203905 3015319
1367.29 2849027 2637524 2331421 2045338 1812733 1554104
1373.08 1287193 1057826 853371 707576 581669 428495
1378.87 347975 311193 274189 251334 240921 260452
1384.65 267042 257826 251368 234531 222069 201387
1390.44 187275 179478 190432 225486 190699 163300
1396.22 169350 163376 136182 87570 85613 95983
1402.01 97694 99843 77338 30103 13949 3182
1407.79-17355-36232-46959-37660-50300-82899
1413.58-99123-104524-99318-108220-88066-48115
1419.36-91856-138782-156347-159264-150566-154444
1425.15-160416-151026-147730-155367-146829-151559
1430.93-168658-164436-157616-155166-106980-45838
1436.72-99117-170967-190428-183912-161297-159960
1442.51-158803-159413-157757-159511-158105-156437
1448.29-168924-178378-170241-163229-184665-169698
1454.08-143887-66594-8544-75648-112891-134425
1459.86-169200-178200-168711-147476-111245-117613
1465.65-148976-153008-149076-133283-120823-84941
1471.43-50319-40271-75176-86190-59835-79070
1477.22-69535-60555-54542-40748-50996-61381
1483.00-73853-71906-71085-68309-79868-99175
1488.79-85875-97848-120956-140575-155184-153673
1494.57-112916-111412-173754-158049-166274-204352
1500.36-202104-194477-185255-170698-94636-19796
1506.15-24881-107411-156184-171921-191670-172255
1511.93-163300-170102-163797-158827-139268-143982
1517.72-164814-144209-67845-55130-111896-139014
1523.50-144366-127319-142977-145585-137130-141359
1529.29-141124-127954-106246-63057-47316-105676
1535.07-98580-60665 448 112123 133542 81513
1540.86 79173 58624 19862 44831 28325-24711
1546.64-28287-4846 25440 21886 471-9574
1552.43 32918 81756 40689 41034 150636 245855
1558.21 243209 242278 152120 87600 107492 99748
1564.00 104449 96269 101351 108699 143689 171757
1569.79 134874 113503 119908 132063 166449 295028
1575.57 306035 178826 148103 157534 151366 118998
1581.36 93418 92587 95680 85940 89252 100611
1587.14 109310 104630 84838 72746 63483 58369
1592.93 66163 60760 45190 32440 26405 15306
1598.71-7193-28598-31719-49447-83877-94973
1604.50-95423-101883-121358-133932-138576-156099
1610.28-163707-170527-176829-157268-151862-74058
1616.07-53103-147131-161195-168244-171122-160026
1621.85-124430-116861-166820-176687-162118-152804
1627.64-168525-190959-187625-172739-160252-159470
1633.43-114017-24185-68903-127750-137771-135274
1639.21-112976-133622-155833-159542-169793-126989
1645.00-52059-85125-133978-153951-144790-132415
1650.78-35148 121200 64525-78636-150306-193331
1656.57-202772-196579-198781-212640-191854-139343
1662.35-162083-207085-207850-197730-191417-166013
1668.14-132735-159005-164629-155989-182548-174436
1673.92-109848-112813-170100-183938-184905-164823
1679.71-171079-177609-149421-85307 21348-42491
1685.49-161024-172088-181199-179346-182732-200906
1691.28-209029-195869-201069-100356-44994-149427
1697.07-145768-78611-15073-65951-184859-211349
1702.85-188525-176328-165557-157578-178286-193607
1708.64-192726-167188-169591-174216-155234-103510
1714.42-87614-73231 7319-18456-86201-118435
1720.21-139151-141670-127658-115633-120423-124885
1725.99-130367-124325-113119-95314-100672-108616
1731.78-44626 37640 24111-64736-90447-77399
1737.56-50017 1008 4620 2789 27746 33866
1743.35 48844 80160 89420 89417 107376 131821
1749.13 142370 184485 169014 126934 124393 104315
1754.92 104164 101345 55812 34034 33306 37787
1760.71 60959 47484 29986 32335 38654 68090
1766.49 125774 160762 166696 220316 301080 397373
1772.28 434488 427447 470901 509332 526495 538769
1778.06 546728 561121 582912 596726 580671 567885
1783.85 589695 559186 482758 414996 351329 312277
1789.63 260976 228241 273371 285943 293796 325980
1795.42 349175 361140 365324 368595 339175 324850
1801.20 329807 320024 303225 289274 259966 203083
1806.99 130708 53257-19357-86254-145305-198691
1812.77-256485-299202-326446-351645-373359-388116
1818.56-389599-394408-421258-436599-443839-425847
1824.35-419773-462221-469006-457776-444401-425790
1830.13-448773-466141-472476-474763-467973-468565
1835.92-466961-457323-451104-457304-461917-437885
1841.70-401233-366635-361863-374567-358245-353727
1847.49-337945-313283-275937-230532-197572-140116
1853.27-67444-15518 5309-7277-55451-65080
1859.06-30373-21509-24407-4772 38517 44276
1864.84 21847 35248 42734 33808 21743 1880
1870.63 15644 28638 39860 65606 113772 167643
1876.41 212288 263465 295955 342525 395945 425703
1882.20 457458 497323 497404 503976 556097 548758
1887.99 519899 552429 562588 515292 489474 478045
1893.77 429423 389655 347319 292405 265865 277894
1899.56 265487 227785 249638 282572 270424 285132
1905.34 325093 329394 345734 381045 370130 375503
1911.13 400190 377476 360603 355043 316025 278621
1916.91 253392 191250 131205 94987 25420-55186
1922.70-121107-187388-229986-250110-258422-254411
1928.48-254622-271485-281909-278730-272650-278763
1934.27-287679-289148-288344-288802-283006-284429
1940.05-298848-284342-280456-293396-284819-285040
1945.84-279883-283548-292824-277371-270900-271600
1951.63-261517-263193-269858-275877-279287-284921
1957.41-278650-272811-281736-275534-277157-271630
1963.20-269109-278607-281463-275987-266752-261681
1968.98-269260-272352-264168-255406-230735-262006
1974.77-298187-276423-260817-256476-253385-240569
1980.55-243415-257176-257396-247277-234976-242197
1986.34-253442-243387-233787-238949-242677-242726
1992.12-250730-248448-233973-233729-247598-250526
1997.91-250850-248387-250464-261059-260766-264522
2003.69-258059-238195-227610-233426-249722-257638
2009.48-254503-252359-257466-263731-251848-246229
2015.27-263630-265519-259209-259671-251306-248567
2021.05-266672-280071-273657-265499-256204-257484
2026.84-263363-249672-249982-257422-256485-250535
2032.62-251118-267228-279495-280911-276491-275993
2038.41-272201-266190-259804-262700-276318-277028
2044.19-276762-268053-255700-257960-263014-266327
2049.98-274285-277810-286650-286120-275116-281535
2055.76-288955-290797-292909-284401-267497-270844
2061.55-278524-278282-272847-267069-276341-282615
2067.33-271505-273835-282248-273389-270716-270752
2073.12-273179-288181-278639-269208-285585-289477
2078.91-290568-284604-272338-270024-256214-256067
2084.69-262168-269984-278777-275254-272668-255043
2090.48-251988-267629-264042-248174-255084-269343
2096.26-273793-271801-259805-264573-276984-277774
2102.05-271166-281907-289405-289074-271755-256625
2107.83-278301-287072-260454-242214-273070-296229
2113.62-275000-251813-272036-282462-266605-246331
2119.40-252277-269822-270520-248383-242421-261888
2125.19-268666-254211-244338-261604-271608-258664
2130.97-242369-243577-244536-245217-256228-267329
2136.76-269106-259577-251702-256854-245125-233307
2142.55-234905-241179-246142-243293-240324-239821
2148.33-248020-234882-231827-249577-243296-224729
2154.12-218861-233750-239806-232056-240387-247213
2159.90-225987-211883-236496-254405-233752-207277
2165.69-216983-220418-192169-191846-222810-218811
2171.47-184670-191244-203542-173812-144957-152148
2177.26-146496-114953-107645-119476-96223-55312
2183.04-46774-28928 6511 25099 33446 64692
2188.83 102584 112102 122832 166801 206634 238581
2194.61 282117 322907 355839 386082 421747 466397
2200.40 508588 533422 567833 601175 627456 666666
2206.19 689669 696157 710459 721162 732853 741764
2211.97 726500 699921 683045 659726 618379 554271
2217.76 488269 417965 320668 221814 108673 36876
2223.54 84738 186985 293475 414363 536127 644553
2229.33 743701 829597 902961 967929 1027588 1067115
2235.11 1079658 1084304 1072579 1032174 991131 943833
2240.90 880631 802126 708590 624933 534939 447811
2246.68 366422 280858 196811 133389 84807 22766
2252.47-42171-76144-113173-155514-187359-202088
2258.25-212690-225066-219099-231268-238238-232797
2264.04-240992-242548-240563-227918-231196-249862
2269.83-236124-224678-236008-239014-234175-248311
2275.61-269859-270443-274383-262607-244571-241993
2281.40-245473-240685-240350-255216-265221-268745
2287.18-263858-252455-242545-232976-245203-254676
2292.97-260465-248244-241668-252767-238979-230442
2298.75-230364-234905-248774-233049-234252-220783
2304.54-225407-203459-213613-188485-182328-178008
2310.32-162091-151446-124009-135339-104792-76656
2316.11-48132-42611-13857-4769 51763 75974
2321.89 109435 134071 179618 208998 237559 256034
2327.68 268581 282150 311793 328756 342722 368035
2333.47 385360 390573 389942 389756 380835 373717
2339.25 367295 354524 333746 306894 251361 193032
2345.04 138555 84303 22065-32831-14854 79483
2350.82 172866 259548 336553 426957 524493 600821
2356.61 657296 714557 752008 769718 789844 811795
2362.39 814671 805390 795131 761641 702831 649313
2368.18 604133 539899 445740 371418 338049 283183
2373.96 194929 133469 97761 49674-27232-93463
2379.75-125599-157742-177295-186284-200571-204871
2385.53-193697-195037-219464-225432-222539-217118
2391.32-227025-235532-241223-260677-269599-264625
2397.11-261292-270455-273625-270470-268035-257283
2402.89-258301-272404-273575-269861-265270-250770
2408.68-256136-275150-264028-252101-269159-278152
2414.46-288072-280977-265699-260287-248222-263506
2420.25-262651-251427-260246-266218-275115-275539
2426.03-272617-267543-256690-248243-257163-258733
2431.82-249249-253756-249752-236865-238392-249453
2437.60-237579-226514-250300-245405-237267-241495
2443.39-236987-241668-229656-222695-222654-224304
2449.17-235043-240619-216527-205359-233257-234433
2454.96-215449-212957-211047-201987-206362-206317
2460.75-201844-205290-179715-155861-148316-143910
2466.53-129150-101884-86654-57157-24159-9528
2472.32 12370 38550 71929 121299 149749 183159
2478.10 238775 290989 338617 385344 434028 481458
2483.89 538373 595878 647649 702810 756884 809079
2489.67 854368 873040 879343 895617 897276 880267
2495.46 858621 817272 775772 734177 685918 633522
2501.24 561931 487878 412636 337161 242791 156862
2507.03 82181-3096-74572-131820-170946-193039
2512.81-201019-220875-244404-253180-244798-237941
2518.60-253437-262053-260989-255426-259868-283339
2524.39-289214-281347-286725-291428-288159-268239
2530.17-257088-266911-274595-282947-285522-287852
2535.96-285492-274145-263763-262194-255289-251011
2541.74-251465-249891-257706-268615-257167-251205
2547.53-261513-262985-264691-257494-252704-266983
2553.31-274355-259320-257106-269027-263870-265290
2559.10-271460-254855-260316-271295-261629-260441
2564.88-269508-264361-248576-241398-234022-236067
2570.67-250980-256468-246791-242800-241336-235035
2576.45-230695-226113-224200-241978-258470-265940
2582.24-267434-258025-262062-250238-256854-254492
2588.03-248372-261244-261932-259542-253465-257202
2593.81-257438-250620-255196-272413-274489-257529
2599.60-248267-255712-252329-244185-253747-256082
2605.38-253382-252612-245557-248104-262800-272526
2611.17-263913-259310-273875-278068-263247-278819
2616.95-298914-292514-293216-283532-277272-284665
2622.74-284578-282643-285646-280569-273045-269683
2628.52-265994-264491-261092-261036-261584-272789
2634.31-286319-297396-296569-291748-288827-290472
2640.09-305793-301680-295652-283629-281460-296835
2645.88-300532-301776-304320-307214-313709-320073
2651.66-299083-292200-304140-300047-303485-299894
2657.45-299882-310430-312958-314963-318364-332414
2663.24-328031-313257-309325-296480-300874-310516
2669.02-322987-325621-303180-295554-300933-306664
2674.81-301781-289021-270354-271018-306310-330333
2680.59-319315-315596-313934-295747-297633-306939
2686.38-300456-284208-293706-300092-289654-309744
2692.16-317565-310842-313684-300086-295887-301836
2697.95-317985-338505-320989-292815-281653-267270
2703.73-261070-277860-270563-274372-287635-293447
2709.52-317030-311193-296080-291648-293632-287043
2715.30-288112-298072-289049-291300-284495-269032
2721.09-291919-297629-288998-284716-260394-254961
2726.88-258104-260451-266954-250443-234719-229828
2732.66-229728-235219-218411-221815-237491-223516
2738.45-234948-243015-220229-199972-191746-189645
2744.23-186886-187921-196570-197982-192719-193819
2750.02-197655-209947-214637-212998-229002-231942
2755.80-229575-235050-229987-228420-240418-248471
2761.59-251211-260789-251779-251831-262732-260473
2767.37-247693-241914-238212-227222-223488-223484
2773.16-214905-221217-235207-221409-217163-230898
2778.94-219505-213617-235059-227039-209162-221443
2784.73-230889-241708-236948-208772-225594-249480
2790.52-232374-249662-269048-249395-228494-225891
2796.30-227804-241325-276760-273303-263578-252533
2802.09-244440-243084-239685-241762-245849-274613
2807.87-285249-273961-258917-253140-261962-271020
2813.66-276933-288151-288537-271038-275321-275581
2819.44-273803-284185-270556-273822-287055-269765
2825.23-260635-250217-257407-281343-275266-271213
2831.01-282128-272914-270803-268829-250531-268425
2836.80-293002-274497-256011-263509-267903-252685
2842.58-253732-259576-252868-276707-282642-269117
2848.37-265459-256282-255081-251534-234242-227767
2854.16-222594-226222-234497-208203-205735-219494
2859.94-208503-192142-199834-197037-189741-184790
2865.73-167203-168657-165344-151129-147705-156374
2871.51-158654-150802-135003-125152-140167-144099
2877.30-127419-114613-111132-123403-123116-107221
2883.08-99539-98111-90571-85855-73513-69729
2888.87-61455-59761-51177-53444-59143-30448
2894.65-21336-4752 7765-7351-8000 9982
2900.44 1662-15518-9550 351-180-11067
2906.22-26316-40368-40328-29434-45960-79157
2912.01-100289-97434-113946-150792-167335-176445
2917.80-167429-175423-188239-199053-206329-192919
2923.58-202798-203494-186861-190815-196786-199072
2929.37-192546-190872-190621-185025-197063-187050
2935.15-163776-150026-152067-171244-179751-168018
2940.94-161682-180126-163262-144286-160017-162869
2946.72-175765-168736-151059-185212-196623-170373
2952.51-168377-178639-174207-171526-194458-205076
2958.29-209498-212556-230088-174189-118371-156984
2964.08-164079-169386-177382-188556-194664-189487
2969.86-182053-172775-173054-151424-135878-154205
2975.65-172097-185984-189777-159860-127765-119131
2981.44-120260-117983-118621-128874-136306-134749
2987.22-139795-146776-145575-155651-154319-148676
2993.01-155812-154295-162061-183074-197537-198923
2998.79-194434-189447-206621-236548-224883-221347
3004.58-241905-242831-234485-231194-230965-244792
3010.36-251669-263260-275242-276077-273165-262317
3016.15-261195-257837-252366-258135-277498-269660
3021.93-263485-278929-293408-283168-279608-284723
3027.72-270651-253496-266464-290680-290915-295642
3033.50-284833-272732-282236-288691-289001-297563
3039.29-308324-290347-262876-272750-295496-305628
3045.08-290905-292683-296965-284050-293128-297434
3050.86-284032-270032-270763-292527-314375-312453
3056.65-320505-319416-298792-285683-257126-249845
3062.43-266914-277897-289290-300246-303631-295389
3068.22-297518-302162-296127-272670-256962-258761
3074.00-260066-259573-267137-301278-316288-283972
3079.79-252669-261437-277049-264543-252733-250816
3085.57-260997-267062-283066-291172-275411-272390
3091.36-259258-233638-223808-246237-245816-214436
3097.14-216402-234706-264767-250377-228947-241624
3102.93-222063-223865-229339-236780-236016-226352
3108.72-224226-202004-187312-187996-205234-221509
3114.50-232577-244890-243735-216644-198354-194630
3120.29-190637-199857-205684-209490-232933-240300
3126.07-218199-202830-208560-198912-179338-179054
3131.86-171129-178315-186293-170479-155504-159558
3137.64-175691-185461-181421-159528-152421-165070
3143.43-155889-163242-183216-198103-200251-179057
3149.21-173232-186052-181930-166560-163060-149141
3155.00-154233-175293-182614-182889-177728-167952
3160.78-178326-177115-155626-156990-160242-167760
3166.57-164533-153838-161855-171475-167997-173505
3172.36-171961-156239-166218-177378-185818-193981
3178.14-191420-169965-169537-179452-176642-161001
3183.93-142284-151116-160280-181872-190974-189844
3189.71-191444-188898-186635-197070-183053-187949
3195.50-206875-167902-156418-161182-161277-161042
3201.28-165757-188912-214295-233825-221458-204081
3207.07-198018-190884-186101-180727-172891-147270
3212.85-153283-164447-172134-189731-221548-253592
3218.64-216397-194143-196926-172318-161684-157424
3224.42-158632-175734-181303-189740-186263-184415
3230.21-177619-162542-153587-157707-173774-182289
3236.00-183266-176113-187034-206235-174704-141997
3241.78-152934-171837-194396-178415-167098-175584
3247.57-161085-144949-121684-126603-157668-173572
3253.35-164351-130353-118966-125755-125821-132388
3259.14-144190-139425-135877-138436-128041-123508
3264.92-137832-146757-136004-148999-176326-163437
3270.71-145445-138852-129476-140177-149340-140487
3276.49-138277-129295-121180-125730-130902-143348
3282.28-146034-127940-111583-119444-125018-114086
3288.06-105744-118632-157808-183488-171698-159924
3293.85-142509-118066-114804-127507-150451-163390
3299.64-175203-173495-157750-155256-174752-170753
3305.42-146139-145248-144346-161545-182121-164686
3311.21-161159-158404-130973-165732-186434-162725
3316.99-167797-177230-187026-190005-191451-192118
3322.78-167689-156480-172891-175428-175938-161448
3328.56-148472-170046-178600-164955-173792-202471
3334.35-210521-195959-200461-202132-182251-203799
3340.13-205880-188874-166230-143437-168106-180761
3345.92-193947-214972-226991-208135-194424-200309
3351.70-208502-229635-247536-235218-208051-200044
3357.49-191441-214259-237098-228192-236249-244559
3363.28-240315-230767-221769-224641-240799-233313
3369.06-212268-230055-255064-245748-223858-240276
3374.85-257763-223302-204979-212989-212681-244204
3380.63-248723-221113-220149-221297-213550-194995
3386.42-208040-208752-202668-209551-208645-214447
3392.20-235949-242306-228639-199805-201537-233848
3397.99-224182-233844-257107-253304-257150-251707
3403.77-240024-251308-241796-225631-212881-219261
3409.56-216073-202118-214494-209430-214921-244155
3415.34-224139-207465-246968-247184-215605-226689
3421.13-248514-245993-242463-256902-243691-217965
3426.92-218927-215501-209411-208138-212399-210895
3432.70-209169-233231-251116-238987-196028-198699
3438.49-228927-222845-226700-214254-207655-216923
3444.27-217970-205477-207018-209464-219849-242447
3450.06-236748-239210-226050-218344-203792-164738
3455.84-191440-230934-217329-195608-209020-238313
3461.63-228968-209755-216184-226800-208626-197948
3467.41-203176-204266-205725-220570-212944-204329
3473.20-241707-235565-209764-230032-233767-209666
3478.98-206848-218140-217116-208291-209489-241717
3484.77-252133-234924-240663-228733-218610-219540
3490.56-209108-206576-213770-211489-220121-242406
3496.34-244984-226775-218051-215356-207982-195609
3502.13-201504-246998-271654-289721-287507-272510
3507.91-283957-298223-299974-289234-280582-263424
3513.70-277717-300968-309688-300715-294351-309630
3519.48-294194-266872-267295-272294-259721-281831
3525.27-298274-287914-287649-290224-305121-328295
3531.05-316310-272511-267366-250627-260906-303198
3536.84-305780-320915-342408-353673-337973-296552
3542.62-261881-237760-221977-237839-250813-248621
3548.41-273104-296190-303400-307267-285960-250410
3554.20-238719-229017-229358-242801-247747-262872
3559.98-264044-246590-222807-229498-226833-202858
3565.77-207965-193575-213908-230149-215806-215535
3571.55-216841-216877-228358-233365-233695-233375
3577.34-206754-202250-216865-217151-213059-231104
3583.12-215281-199155-183921-177862-190549-185373
3588.91-188657-206551-234665-245389-239913-209813
3594.69-200453-230559-223562-221539-236864-221909
3600.48-239854-251911-253967-257221-260547-264626
3606.26-249853-221919-176062-216416-259788-234171
3612.05-231430-249046-270551-285495-277077-260851
3617.84-229463-212113-247262-257535-263485-284995
3623.62-267450-235983-221642-214756-207655-192148
3629.41-214921-263511-299066-318348-341077-352103
3635.19-324827-281789-239704-225258-241083-243234
3640.98-253988-274590-301778-305695-272634-249644
3646.76-254006-214097-192354-234803-264979-298896
3652.55-317640-337999-308261-262924-297496-341945
3658.33-348557-334773-312778-317996-317505-321713
3664.12-340935-321276-321206-316344-280915-223923
3669.90-206549-288746-302459-265120-222373-197888
3675.69-262779-324953-312608-302173-323608-309786
3681.48-273480-276330-299555-297052-313925-290166
3687.26-207388-278697-333834-278108-277576-302093
3693.05-339564-347624-328234-321684-329922-336541
3698.83-328479-320651-296129-296239-306644-290354
3704.62-263605-254653-272766-246256-239542-284974
3710.40-250007-219364-286666-309801-309019-320029
3716.19-306257-303131-303151-293319-281225-270760
3721.97-273283-271686-263476-264156-272772-283991
3727.76-296466-307209-294309-234375-231936-274215
3733.54-237205-241620-241129-235552-272689-278566
3739.33-279244-284624-298467-261129-129197-149036
3745.12-290891-298405-276363-197370-200160-257361
3750.90-173849-223624-313018-301506-281383-262087
3756.69-288580-306110-310428-315806-325671-337019
3762.47-328603-315310-288068-278784-293655-314952
3768.26-287068-269831-319082-329694-317181-302167
3774.04-302710-309456-299610-306975-311220-319990
3779.83-335886-332543-334968-321532-301752-311101
3785.61-325373-341526-326415-296649-286053-302961
3791.40-323113-319646-307482-301210-284675-303718
3797.18-330244-323184-304565-200996-193770-280091
3802.97-284821-294006-278646-218335-247366-289563
3808.76-301307-329517-328375-328383-325461-300324
3814.54-212897-197242-301315-314309-286005-249705
3820.33-216898-248468-281684-305485-332292-310853
3826.11-301835-321172-317723-300443-278644-271052
3831.90-295100-304292-272160-297189-287283-202443
3837.68-259437-317755-274070-281419-308838-284974
3843.47-291218-318565-319538-311546-312707-312492
3849.25-309248-255241-206353-190046-93271-179838
3855.04-305594-322820-326143-320572-365729-354414
3860.82-312853-342327-369943-328743-304625-320219
3866.61-320808-317387-282256-278559-319147-351691
3872.40-361954-351442-374177-381354-359704-347785
3878.18-337802-322552-341047-367529-366171-390109
3883.97-353198-285414-325003-360192-359826-363650
3889.75-327951-311135-344984-347785-358823-382329
3895.54-395988-375460-348684-337994-332376-321362
3901.32-331036-315257-280124-319277-349686-371526
3907.11-397283-395075-388324-389657-381447-369311
3912.89-363866-377716-386696-356656-365697-397300
3918.68-361097-355260-379995-353861-343781-352652
3924.46-336965-322985-347202-360632-349187-365810
3930.25-375995-357867-346007-353292-338803-324533
3936.04-322931-338344-350816-326236-321449-325517
3941.82-320147-334455-368583-363186-333622-333059
3947.61-338543-307947-284790-310514-322294-338695
3953.39-360321-347121-332648-342443-319394-288865
3959.18-304408-320716-346159-370472-348625-313516
3964.96-323130-336575-338580-350251-330541-308456
3970.75-304600-314143-320775-297140
##END=
