##TITLE=Tetrachloroethene
##JCAMP-DX=4.24
##DATA TYPE=INFRARED SPECTRUM
##CLASS=IUPAC A
##ORIGIN=NIST, Analytical Chemistry Division, 301-975-3108
##OWNER=COPYRIGHT (C) 2000 by the U.S. Secretary of Commerce
##DATE=00/02/01
##$SPECTRA VERSION=1.10
##$UNCERTAINTY IN Y=2.0 % relative (B=1.0E-04,C=1.6E-09,D=1.3E-13)
##CAS NAME=Tetrachloroethene
##CAS REGISTRY NO=127-18-4
##MOLFORM=C2 Cl4
##MP=-19 C
##BP=121 C
##$NIST SOURCE=QUANT-IR
##SPECTROMETER/DATA SYSTEM=IFS66V (Bruker)
##INSTRUMENT PARAMETERS=KBr Beam Splitter; MCT Detector; Multipass cell
##STATE=gas
##SAMPLE DESCRIPTION=Tetrachloroethene Primary Gas Standard
##PRESSURE=101.3 Pa
##TEMPERATURE=23 C
##SAMPLING PROCEDURE=1 L/min Flow
##RESOLUTION=1.9290
##DATA PROCESSING=3-Term B-H Apodization
##XUNITS=cm-1
##YUNITS=(micromol/mol)-1m-1 (base 10)
##XFACTOR=1.0
##YFACTOR=18.189E-13
##DELTAX=0.9645
##FIRSTX=575.652
##LASTX=3974.605
##FIRSTY=5.51E-07
##MAXX=3973.64
##MINX=575.65
##MAXY=.0014439
##MINY=-8.80E-07
##NPOINTS=3526
##XYDATA=(X++(Y..Y))
575.65 303065 114552 16091 195880 251996 179491
580.47 74869-24517-27653-12179-13843-31780
586.26 47078 236911 298862 157170 19723 29470
592.04 33174-10421-8301-9148-49276-39358
597.83 68986 125046 10372-94196-54171 19004
603.62-3524-21459 29280 91211 118801 90437
609.40 60533 72706 90305 96426 90480 88727
615.19 106214 102297 66803 71730 81776 67187
620.97 12022-40761-69290-107760-115081-96265
626.76-101937-106778-100616-137786-207123-205648
632.54-151019-155384-203509-195266-127550-52102
638.33-60210-118497-94129-58015-96754-131487
644.11-146726-141100-107198-75434-73908-104639
649.90-156303-147617-82801-49280-66544-66907
655.68-32434-35484-69431-85061-92939-88955
661.47-72770-67991-95490-103804 53539 381867
667.25 448412 180527-20795-71039-81473-73574
673.04-22301 23483 30081 82714 183804 254168
678.83 285896 319656 364315 426020 504567 564123
684.61 579029 605805 616221 593376 596821 595195
690.40 563445 515813 470288 449098 419079 366931
696.18 287044 201099 143567 88212-6691-77449
701.97-109594-145219-164827-144916-129439-132708
707.75-135357-115689-95689-86893-91895-124368
713.54-153850-153083-157575-145043-88631-54815
719.32-83298-111262-113855-105156-84225-37268
725.11 1790 19095 37550 61978 79448 112191
730.89 166118 261771 375677 510475 708172 990322
736.68 1370913 1890057 2568642 3422325 4425886 5619001
742.47 7062442 8778252 10704988 12766695 14953428 17163967
748.25 19345996 21466878 23376998 25051262 26108189 26851847
754.04 27487086 28002729 28199148 27103427 25957192 25560804
759.82 25666842 25326636 23945128 23497217 24506695 26499827
765.61 29809374 35084855 42936134 53927476 68315793 85885114
771.39 105963197 127279625 147879169 165503937 178883712 188482676
777.18 195134061 198986831 199259860 200791078 202373915 196103543
782.96 188416482 185511502 181801483 170479338 150129200 123950157
788.75 97313447 75112000 60430352 54244099 55614538 62305420
794.53 71521297 80546448 87507219 91539778 94536651 100292259
800.32 105319668 103547246 100434572 101375995 101898272 99476541
806.11 95515338 89081435 79933015 69060225 57241651 45603527
811.89 35106978 26223066 19145253 13846734 10108198 7621959
817.68 6126763 5323249 4944454 4801225 4796505 4836918
823.46 4830439 4775724 4728274 4677539 4578840 4419265
829.25 4263560 4125718 3921502 3548147 3012280 2379248
835.03 1721142 1125079 658487 350184 197534 122787
840.82 83778 51550 31084 39294 35218 7855
846.60 12186 45710 54855 24823 10114 20763
852.39 33618 37793 43544 37410 40613 47487
858.17 45563 55638 76812 84563 76387 67876
863.96 62300 57174 59474 69978 92840 123682
869.75 158096 176658 175767 186416 245522 327451
875.53 399824 483436 610464 753526 928716 1166896
881.32 1478364 1886239 2414873 3069336 3875448 4909343
887.10 6216068 7791891 9646035 11820914 14362569 17263343
892.89 20531371 24254436 28630139 33945244 40579675 49128537
898.67 60405951 75317930 94838594 119843652 151023458 188993012
904.46 234144263 286699925 346607041 412853968 483221086 554534187
910.24 622850070 683763836 733225172 768401049 788179134 793815537
916.03 789054760 779283249 769644352 761657191 752077094 733060755
921.81 694279945 630474545 545401869 448508378 349161798 256065256
927.60 177579400 118180526 77026824 49903777 32186691 20495838
933.39 12804691 7885230 4850296 3012950 1906546 1245184
939.17 847940 584958 402844 273383 185688 137354
944.96 106831 71431 52578 51161 49191 36874
950.74 23257 14429 13467 7894 6544 15474
956.53 29411 30962 4228-9693 17776 49975
962.31 55568 33379 16595 12542 6835-10552
968.10-35661-50221-38680-25965-25731-11021
973.88 34392 84518 122393 163081 222906 304298
979.67 384306 431333 472599 520019 548483 548839
985.45 527419 511598 531318 566017 600084 613458
991.24 588200 526691 443761 348431 254254 170306
997.03 100563 53277 37237 41194 45786 62725
1002.81 101249 148210 194692 222428 223061 199256
1008.60 178761 167718 142903 113012 93960 69224
1014.38 28162-8392-19690-38960-66643-93226
1020.17-117121-130102-143267-162749-179437-181243
1025.95-161268-144315-131118-123458-125808-110745
1031.74-89482-97275-116912-131044-139568-138218
1037.52-130158-129911-129519-124507-120273-120927
1043.31-125578-143796-170591-180687-169450-149339
1049.09-123004-107235-107512-102573-83001-82275
1054.88-104564-120590-123662-133337-141856-115330
1060.67-77399-84035-118085-131233-118086-103269
1066.45-103159-108090-99624-77793-57917-57890
1072.24-65756-59111-26377 29893 85278 124154
1078.02 170920 237838 317303 408726 528305 666996
1083.81 825242 1006351 1194524 1377375 1567151 1782346
1089.59 2009714 2219985 2415678 2624810 2872927 3188450
1095.38 3595411 4071227 4585303 5069316 5374294 5327509
1101.16 4882629 4183908 3509311 3128544 3082172 3180604
1106.95 3288250 3360458 3367897 3334818 3319340 3360720
1112.73 3493464 3715388 3990556 4313813 4672764 5028782
1118.52 5363449 5630590 5797585 5905063 5996429 6025776
1124.31 5940511 5779896 5622227 5452871 5184638 4853966
1130.09 4568798 4300643 3979609 3629163 3338633 3158777
1135.88 3060119 3022263 3060914 3175797 3330286 3476580
1141.66 3614265 3748003 3859884 3932878 3972307 3973274
1147.45 3961356 3956427 3906520 3786070 3636281 3468669
1153.23 3271605 3051674 2801323 2516995 2212905 1906181
1159.02 1632669 1412447 1241918 1119123 1052143 1036039
1164.80 1055136 1098249 1138286 1170455 1219728 1263634
1170.59 1270891 1251136 1231049 1220357 1195122 1144448
1176.37 1096049 1077224 1069116 1024654 951122 888647
1182.16 827082 718112 571276 421522 299992 228939
1187.95 188231 155290 135827 134740 141772 136279
1193.73 123413 130564 146751 139619 117009 99068
1199.52 90811 89399 84719 74062 69429 81347
1205.30 85410 64067 47414 54475 65825 60384
1211.09 55533 69462 99212 135254 171408 210432
1216.87 255745 306340 349361 378335 416305 464011
1222.66 499393 524322 543999 565479 588478 604074
1228.44 603289 574074 542665 523236 497785 459648
1234.23 420089 394069 370512 340537 316582 312817
1240.01 324885 334063 340290 363615 398827 423527
1245.80 454655 515276 591585 669293 743617 808565
1251.59 869899 936786 1000762 1035962 1052217 1080804
1257.37 1117454 1134761 1127907 1113855 1114380 1123860
1263.16 1103499 1056170 999742 932129 852695 758610
1268.94 668538 588567 506097 415544 333699 287014
1274.73 267896 234703 184272 153111 137702 105356
1280.51 51647-3198-27478-26636-23833-23569
1286.30-15192 19671 61713 80773 99788 139128
1292.08 186685 217814 229713 246683 274033 296633
1297.87 306715 303261 298735 290577 260260 212530
1303.65 177852 160783 138112 101989 56707 7872
1309.44-28560-54646-86836-110787-115554-121219
1315.23-141291-162403-160045-143926-148175-171404
1321.01-186286-179265-157905-151134-162766-159175
1326.80-131123-106295-108049-110248-87301-58941
1332.58-42768-28242 10585 61439 105555 146080
1338.37 191953 261482 351268 430614 510109 621300
1344.15 758918 901702 1033979 1165194 1336987 1549143
1349.94 1765252 1986583 2271322 2606594 2903340 3139498
1355.72 3324847 3463557 3553306 3601696 3644939 3669911
1361.51 3656407 3624049 3567699 3449515 3267059 3074976
1367.29 2891117 2660622 2361767 2067361 1808570 1543624
1373.08 1273749 1030715 827349 671802 533323 396926
1378.87 309706 268031 238045 217529 215367 231821
1384.65 242514 239309 230820 217572 202098 183830
1390.44 168885 164662 181617 200647 181167 156969
1396.22 155112 148856 118680 80779 71768 81377
1402.01 88557 87131 62748 23770 874-12563
1407.79-31171-49645-56666-53963-66282-93889
1413.58-113187-118000-117441-115928-92784-70684
1419.36-100360-146904-170131-172341-166984-168107
1425.15-170348-164372-161522-163136-160481-165702
1430.93-177469-177848-172647-157405-107997-67698
1436.72-105819-173054-202272-195233-177108-169634
1442.51-168984-168707-168264-168463-167250-168841
1448.29-179193-186676-181727-181343-191409-182919
1454.08-142911-69667-28804-68472-116532-148252
1459.86-177922-189905-179953-153424-125285-128883
1465.65-153420-164253-159097-145787-125461-90740
1471.43-56427-51238-76037-86102-76567-79990
1477.22-76963-67197-57147-49175-54790-67735
1483.00-77642-78821-75909-76107-87428-98755
1488.79-96594-105503-127987-150175-163879-154749
1494.57-125082-129270-165424-172650-182465-209048
1500.36-215697-208417-198738-169089-96019-27511
1506.15-33276-102764-159996-186623-196695-185585
1511.93-175785-176770-173743-163960-151454-156419
1517.72-168199-140640-80682-67252-109785-144624
1523.50-149627-142973-149272-153167-149698-151090
1529.29-150158-137387-109493-71881-67813-103947
1535.07-108768-69117 8134 101682 128781 96856
1540.86 75379 51618 28467 32431 15265-25133
1546.64-35433-11861 13521 12640-7526-10246
1552.43 27143 57706 38466 52137 147705 237753
1558.21 259576 233389 156042 95974 92214 95899
1564.00 94994 92040 94055 108987 141380 159102
1569.79 135070 111112 111131 127498 186739 284846
1575.57 292222 201377 150711 150988 143937 115849
1581.36 91614 86781 87377 83166 86268 97644
1587.14 106112 100734 84037 69248 59826 57405
1592.93 61387 57159 43446 30973 22933 10280
1598.71-11023-29509-39034-58240-86542-100903
1604.50-103271-110760-126986-140004-149369-162900
1610.28-173484-181504-182599-171179-142001-82654
1616.07-72875-133994-170060-177843-178095-161455
1621.85-131936-130597-164735-180577-169735-162925
1627.64-176860-195484-195681-182302-171842-158419
1633.43-104837-45162-67465-122399-143497-136818
1639.21-125481-138720-160165-172143-169431-123739
1645.00-71052-86932-135206-160485-158716-125091
1650.78-15623 100385 67007-61868-155688-200922
1656.57-212667-208956-211497-215971-191169-156086
1662.35-169206-206249-216050-207993-194785-167821
1668.14-146427-157414-166283-169635-183581-168255
1673.92-122904-122892-165977-191009-189062-177755
1679.71-179661-181002-149323-70771 1041-44890
1685.49-143733-183086-188075-188077-193425-208700
1691.28-216035-213016-187553-107740-73617-130891
1697.07-140585-76198-27170-75188-174637-216253
1702.85-202125-183628-170442-167811-183750-199859
1708.64-196571-180557-177969-179203-156231-115105
1714.42-89937-56452-6137-19716-80217-124190
1720.21-145434-147643-134839-124221-125605-132042
1725.99-135916-131267-118271-106509-110313-102995
1731.78-41855 26205 14131-57425-95836-86996
1737.56-52332-11855 1013 4535 19703 31999
1743.35 49487 74577 86559 91139 107268 129100
1749.13 152722 178946 168397 135757 118430 106282
1754.92 102179 90023 54388 28466 24295 34138
1760.71 47311 39226 23074 19534 29238 62247
1766.49 113390 147440 167414 218329 305195 393854
1772.28 434891 444635 476505 514239 535412 546787
1778.06 556459 572048 593196 603434 593133 587981
1783.85 594861 564811 493045 416568 352504 301656
1789.63 252400 231790 258175 280928 296906 325379
1795.42 351698 366281 373309 369395 348014 333839
1801.20 333518 327227 313803 297771 266227 209280
1806.99 134219 53902-22661-91949-153452-211031
1812.77-267088-310958-340903-365408-386346-398651
1818.56-401530-409510-430750-448458-450768-437022
1824.35-438307-466221-478775-468664-450883-440489
1830.13-455180-474349-483305-484184-480354-478809
1835.92-475908-467985-463883-469332-469852-447577
1841.70-409594-377901-371787-377486-371579-362983
1847.49-348560-322509-284149-241420-198865-139121
1853.27-67153-12258 8543-10211-50566-61842
1859.06-39646-26871-23730-1897 32241 39765
1864.84 28179 32144 38098 30430 13703-235
1870.63 5458 18270 32092 60117 107831 162129
1876.41 213047 260409 300930 348083 397714 434364
1882.20 468961 499578 507909 523439 556201 555964
1887.99 542447 560022 564615 530933 501215 478220
1893.77 437119 391398 342755 292022 266854 267990
1899.56 254602 232538 246155 270464 273604 289065
1905.34 319073 335057 354857 378547 381213 388388
1911.13 401185 389809 373658 358931 326324 290191
1916.91 253816 197252 139558 90270 22428-58177
1922.70-132412-197540-242211-263780-269335-265728
1928.48-266973-279555-288868-286569-282077-286143
1934.27-293513-296116-295545-293662-289879-293112
1940.05-299097-292026-288851-294251-292141-288465
1945.84-286105-289978-293312-284006-275986-272350
1951.63-266399-266516-272936-279388-284582-287346
1957.41-282892-279672-282503-281382-279320-275359
1963.20-274790-281420-284689-279406-270504-266923
1968.98-271997-274377-267732-252663-242000-266218
1974.77-293345-284186-266678-259387-253342-245016
1980.55-247549-257985-259436-249306-240418-245307
1986.34-252500-246188-238399-240276-244238-247373
1992.12-252220-248829-238240-237739-247746-253292
1997.91-253217-251717-255070-262443-266248-267176
2003.69-258911-241158-230394-235906-250523-258976
2009.48-257908-256551-261075-263306-255248-252726
2015.27-263450-267659-263983-260119-253670-254096
2021.05-269071-281087-278129-268281-260480-260834
2026.84-261790-254333-252945-257836-257496-252811
2032.62-255447-269190-281779-284293-281383-278817
2038.41-274793-268045-262943-266804-276989-281095
2044.19-278860-269633-259729-259254-264059-269350
2049.98-276006-282406-288806-287407-281267-284347
2055.76-291583-295446-295294-285721-273217-273283
2061.55-279707-280266-274899-271997-278492-282174
2067.33-276931-277749-281789-277388-273099-272909
2073.12-278668-286679-281478-276638-286103-293579
2078.91-293953-287224-277403-269303-259884-257808
2084.69-264096-273306-280387-279813-272510-259280
2090.48-257104-266203-263823-253685-257740-270270
2096.26-276476-272595-264985-268001-277792-279371
2102.05-277693-284873-293027-290160-274392-265565
2107.83-279202-284116-263487-252048-274623-292977
2113.62-278465-262319-273110-281884-268820-252435
2119.40-256219-270316-269838-253268-248699-262311
2125.19-268496-257580-251672-263567-271952-261631
2130.97-247723-244590-245873-249314-259696-270466
2136.76-272071-264051-258116-256912-247873-237500
2142.55-237474-243753-248183-246782-243929-245243
2148.33-247278-239877-239378-249252-245247-229462
2154.12-224774-235087-241173-239756-245396-246790
2159.90-230585-222127-240441-254325-238547-218433
2165.69-219999-218326-200735-201974-222809-220056
2171.47-198639-198732-202882-180262-156859-154961
2177.26-147160-124727-117274-120247-100035-67417
2183.04-49882-30319-904 18919 33209 62137
2188.83 93884 108080 124006 161355 202371 239594
2194.61 281577 322763 357069 388871 426186 470580
2200.40 511099 542024 574712 607755 639846 674915
2206.19 698778 709854 721572 734243 746922 752493
2211.97 739032 715324 694954 669607 625540 562188
2217.76 491784 411682 311962 198251 82268 18339
2223.54 56165 159179 278973 406883 534498 650858
2229.33 754511 844705 922260 991468 1051679 1092046
2235.11 1109229 1112220 1096843 1060084 1015695 964989
2240.90 899499 816828 723779 632529 540895 451182
2246.68 364626 276693 193352 127784 73143 11536
2252.47-48348-89743-127299-167662-198910-215526
2258.25-226352-232935-233399-240063-245230-244516
2264.04-248151-250375-245486-236809-240516-250078
2269.83-242473-233598-238604-241708-242120-255207
2275.61-272960-279775-279207-267583-251898-246660
2281.40-247344-244803-246956-259182-270690-274335
2287.18-269075-257740-245667-240150-248526-260038
2292.97-263203-254838-250537-253122-245105-235987
2298.75-235200-242713-249356-243748-237117-231220
2304.54-225631-216982-212254-198851-188281-182280
2310.32-169549-153685-137990-133912-111925-81329
2316.11-56541-42569-23565-98 42304 76596
2321.89 107033 138336 178772 212549 240570 258793
2327.68 272428 288413 313752 332824 351086 373279
2333.47 391735 397708 398446 395257 388471 380505
2339.25 373446 360269 340236 306495 252583 190044
2345.04 130157 67757-123-49304-29602 57307
2350.82 159602 251456 337865 432369 530495 611472
2356.61 675169 730178 768696 790626 811350 830384
2362.39 835627 828967 814267 778415 722408 666959
2368.18 615063 544915 455122 382091 336740 278380
2373.96 198409 134287 91751 39328-33890-99317
2379.75-139729-168771-187890-199212-209512-210941
2385.53-202824-205686-222745-231341-228003-224912
2391.32-231091-239633-249589-265329-274107-271163
2397.11-269264-274964-278492-276423-270817-263024
2402.89-264505-274586-278184-274750-266644-257060
2408.68-262015-273301-267330-260367-270645-283947
2414.46-291046-284930-271571-260841-255933-263038
2420.25-263619-257957-262131-270808-278316-280228
2426.03-277202-270464-259896-254192-258866-260179
2431.82-255817-255633-251109-242105-243111-248181
2437.60-240210-236140-248001-249201-243573-243252
2443.39-243175-242338-234118-226520-225350-229745
2449.17-239395-239881-222191-216115-232890-236812
2454.96-224128-217551-214034-209552-210958-212072
2460.75-211564-207638-187080-164494-154741-149103
2466.53-134044-111472-90122-61817-32508-13024
2472.32 7073 33632 70222 113218 147139 184189
2478.10 236373 290748 340445 388641 437405 488365
2483.89 545477 604001 659851 716497 773613 828432
2489.67 872142 894073 904859 916952 918626 904208
2495.46 877821 838503 795071 751136 702824 645789
2501.24 575105 498207 420789 338237 245386 156138
2507.03 73429-10542-85724-144149-183618-204301
2512.81-215528-233205-253685-261118-253738-249337
2518.60-259000-267626-266427-262185-268912-286537
2524.39-293748-290594-292936-296791-290620-273339
2530.17-263125-268754-278676-286640-290997-292619
2535.96-288902-278277-268472-263426-257809-253503
2541.74-252348-253463-261274-267480-260889-256302
2547.53-262025-266269-265743-259739-258327-268610
2553.31-273361-264313-261935-267911-268143-269329
2559.10-269397-261305-263595-269924-266182-265314
2564.88-270302-265530-252207-241494-235576-239133
2570.67-251471-256554-250573-245016-241778-236265
2576.45-230638-225503-227373-242487-259803-268892
2582.24-268858-263762-260725-255770-256516-254950
2588.03-253682-260701-264110-260787-257133-258023
2593.81-257329-253682-259483-272897-274482-261057
2599.60-252557-254514-252308-248484-253409-256842
2605.38-255423-251988-247428-250771-263733-271390
2611.17-266350-264270-273693-275779-270428-281693
2616.95-297383-298366-294252-286178-281520-284922
2622.74-286563-286162-286612-282291-275395-270480
2628.52-267159-264409-261769-260553-263409-273933
2634.31-288395-298503-299055-294201-291010-295314
2640.09-304964-304731-296229-285740-285155-295669
2645.88-302351-304211-306579-310593-317556-317864
2651.66-303649-296627-301943-303438-303486-301649
2657.45-303223-310537-315208-317484-323900-333013
2663.24-330084-318138-308351-300074-302246-313372
2669.02-325327-324439-308181-298671-302514-307144
2674.81-302558-287668-271591-276080-306218-328326
2680.59-325850-319645-312848-300980-300377-305902
2686.38-299904-289761-293595-297338-297177-309518
2692.16-318269-316436-312815-303221-298150-305193
2697.95-323517-337336-324203-298335-280594-267221
2703.73-264592-272383-272901-276281-287079-300335
2709.52-315809-313891-300911-294593-293428-289990
2715.30-291985-296663-294330-291710-283736-277804
2721.09-290970-299153-294423-283213-265190-256557
2726.88-258846-263925-265398-252558-237064-230337
2732.66-231487-231047-222509-224680-232590-230697
2738.45-237331-240529-222893-201770-191382-187832
2744.23-186218-188635-195199-196823-193618-193387
2750.02-199112-208970-214141-217742-228117-233133
2755.80-233262-234394-231534-231730-240999-249764
2761.59-255862-260047-256251-256663-263691-262039
2767.37-251772-244149-237992-229352-224549-221600
2773.16-217788-223706-231232-224492-221677-226743
2778.94-221182-219905-230732-226130-214912-220557
2784.73-233231-241613-233258-217007-226949-242405
2790.52-241434-253157-265715-251988-231845-224728
2796.30-228592-247255-273310-277483-266759-254611
2802.09-246290-242437-240320-241165-251706-274403
2807.87-285975-276634-261617-255824-262514-272104
2813.66-281162-290026-288371-277674-275982-276906
2819.44-278841-281529-276192-278455-284102-273922
2825.23-260423-252880-261556-277766-278812-277034
2831.01-280882-277241-273093-266161-258212-272101
2836.80-288857-278006-262720-264455-265899-257280
2842.58-255551-257704-261168-276835-283811-275444
2848.37-267372-260737-257685-251343-238126-228518
2854.16-225331-229612-229880-214349-210148-216746
2859.94-209499-198259-199237-198505-192624-183497
2865.73-171952-168399-163852-153184-150137-156494
2871.51-159137-150863-136003-129928-139418-142522
2877.30-129532-116017-114420-122642-122362-110302
2883.08-101464-97594-92181-84773-75450-68431
2888.87-62611-57846-53317-55343-53411-34637
2894.65-17621-1852 5800-1968-2046 7816
2900.44 2406-9721-7411 1536 1657-8929
2906.22-24945-37130-36224-31196-46276-76596
2912.01-96329-101368-118808-149964-171387-177191
2917.80-173948-178757-191435-203194-206522-201564
2923.58-204627-203171-193233-192914-198930-200320
2929.37-196264-193395-191579-191515-196234-187228
2935.15-165767-151111-154501-170481-178291-170611
2940.94-168432-174833-163584-150364-156618-166308
2946.72-173608-166764-161801-182834-192627-176947
2952.51-171091-176080-174705-177097-193968-207836
2958.29-214133-222831-221489-174253-132948-146544
2964.08-163830-170746-179938-190769-196370-192626
2969.86-184174-176905-169634-151422-140243-153214
2975.65-174145-189655-188570-161680-130876-118029
2981.44-116963-116272-118820-127554-134419-136018
2987.22-140246-145271-148565-154047-153823-150918
2993.01-152980-154905-164176-183094-197733-200040
2998.79-194678-193408-210808-231299-229357-228197
3004.58-240768-244171-237327-232022-234136-244256
3010.36-254841-266634-277382-279832-274984-266538
3016.15-262167-258035-254867-262206-274395-271913
3021.93-269158-281331-292311-288018-284366-283232
3027.72-270615-258404-268929-288431-296168-295978
3033.50-286498-277759-282563-289284-293272-301978
3039.29-306934-290203-269413-274713-295669-304279
3045.08-297289-295456-295441-290448-294562-296601
3050.86-285061-271789-274034-294240-313700-319843
3056.65-324479-320858-304343-283158-259448-251836
3062.43-264517-279086-292022-302638-305209-300837
3068.22-301647-304404-296217-275247-259718-257577
3074.00-259025-260389-274164-303070-313878-287561
3079.79-260510-263032-273564-266493-254690-252849
3085.57-260677-271477-286001-291471-282855-273857
3091.36-258539-235937-229642-243057-240950-220100
3097.14-217671-238894-260297-252746-238087-235826
3102.93-227245-224750-231414-237996-237399-230847
3108.72-221712-202941-187604-188747-204642-222500
3114.50-237155-247955-243571-220600-200816-192981
3120.29-192315-198849-205830-215760-234459-239839
3126.07-223074-209030-207427-198354-183544-176640
3131.86-174035-179581-183283-170995-157806-160983
3137.64-175887-185963-180075-162358-155408-159509
3143.43-158436-165495-184484-200085-199500-183992
3149.21-178155-184733-181994-170046-160126-151246
3155.00-156582-173878-184386-184755-178581-173556
3160.78-178138-174661-160579-156675-161741-166888
3166.57-163802-157595-162627-170113-171773-173905
3172.36-169914-161205-166307-178402-189024-195923
3178.14-190566-175367-172438-178963-176223-160012
3183.93-145660-148672-162713-181342-192217-193520
3189.71-193153-190928-191618-194113-189015-194159
3195.50-198356-174676-158117-158717-160061-160281
3201.28-168512-190804-218549-234324-226310-209700
3207.07-199832-193102-187676-181715-168783-151371
3212.85-151441-161975-173601-194534-228645-248159
3218.64-225794-202143-192794-175540-161471-156561
3224.42-161049-174142-184580-190450-189986-186249
3230.21-177649-163564-154757-159434-173555-183460
3236.00-183922-181883-192941-200801-176299-148698
3241.78-152674-174898-190985-183144-173990-173607
3247.57-163111-142584-124382-129982-157053-174017
3253.35-163209-135027-120730-122772-126770-134250
3259.14-142644-141450-138569-136466-128952-126670
3264.92-137404-143695-141685-154410-172900-166742
3270.71-149575-137978-133369-140865-147971-144109
3276.49-138153-129548-123156-125373-133643-144246
3282.28-144839-128999-115610-118408-121672-112977
3288.06-106868-122682-158698-182520-178025-162252
3293.85-141406-119711-114443-127889-149535-166637
3299.64-176886-173942-161840-161162-173061-169161
3305.42-151377-143628-147472-164240-177910-170570
3311.21-162757-152178-142307-163611-180276-170385
3316.99-169130-179017-188631-193330-195514-189888
3322.78-170916-161431-170699-177368-174637-161220
3328.56-154387-167505-174988-169330-178476-201626
3334.35-210262-203146-202608-199351-192590-202583
3340.13-206216-189675-163993-149259-162898-180779
3345.92-197625-217515-225536-211539-198290-200054
3351.70-212482-233223-247641-236628-213049-197834
3357.49-196172-214978-233547-234918-239575-245926
3363.28-242798-232607-224867-228882-238821-232036
3369.06-220312-233126-252443-246506-233569-243858
3374.85-251597-228429-209229-209569-220444-242723
3380.63-246959-229241-222009-221207-211901-201177
3386.42-205542-207962-205834-207999-210318-219148
3392.20-236763-243059-227565-204523-206648-225799
3397.99-229880-238951-255466-259742-259504-253691
3403.77-247893-250453-243672-227406-217062-217861
3409.56-214170-207461-210499-211617-221653-236982
3415.34-226229-219755-241909-243941-225124-229526
3421.13-246519-249431-250315-255890-244611-224636
3426.92-218305-215439-210587-209426-211564-210690
3432.70-215217-235574-251183-236022-204513-203120
3438.49-223069-228403-225864-216732-211662-216697
3444.27-216747-208854-206866-211209-224641-240606
3450.06-243537-240168-230786-219115-197223-174498
3455.84-192938-223262-218273-202596-213479-234313
3461.63-230567-216559-218975-223441-211545-200948
3467.41-202093-204547-209713-217564-213445-215230
3473.20-236225-234862-221096-228916-230870-214871
3478.98-209723-216455-216359-209637-216265-240615
3484.77-251351-243806-239947-231210-222112-217651
3490.56-210673-208111-211516-213657-224458-242179
3496.34-244943-230923-219761-213944-204821-194946
3502.13-206506-243514-275594-291788-289494-280585
3507.91-287495-300426-302483-293269-279722-269391
3513.70-280419-301979-311291-305299-302975-307916
3519.48-295034-273023-267950-268135-266914-282382
3525.27-296259-292843-289727-294783-311794-328554
3531.05-315401-281863-262494-252711-266184-296928
3536.84-312785-327884-349162-358853-341596-302066
3542.62-263423-235582-224305-234797-246907-254423
3548.41-275423-298684-310676-309841-287991-256435
3554.20-237806-229289-231200-241653-252835-264712
3559.98-265454-247998-230144-228712-223470-208779
3565.77-202157-199618-213935-226364-220793-216637
3571.55-217303-220502-229442-235945-237749-230620
3577.34-211741-205763-214921-218034-220564-227734
3583.12-218439-199722-184174-179943-185558-185769
3588.91-190299-209692-235576-248281-238889-214079
3594.69-207957-223725-226483-226673-231714-229879
3600.48-240405-253215-258137-261255-265862-266190
3606.26-250960-215893-188809-215520-248674-241130
3612.05-235647-251540-274420-287633-281968-260494
3617.84-230687-220191-242086-259663-272106-283453
3623.62-269763-240642-221973-212415-201632-194033
3629.41-216417-262245-301767-327744-350085-356269
3635.19-330602-284395-242521-227289-235585-243937
3640.98-256418-279691-304424-305495-278654-256752
3646.76-244069-212914-198438-227986-267188-300803
3652.55-326412-335875-307742-277406-299825-340728
3658.33-352825-338643-321309-318918-321338-329664
3664.12-338687-331624-326413-315911-277053-225282
3669.90-221588-277294-299590-266301-219730-208567
3675.69-261677-316604-320263-314489-322228-309208
3681.48-281747-280471-296589-306505-311353-277115
3687.26-234028-274823-316122-291949-281107-306821
3693.05-340057-349451-335885-328125-334080-339170
3698.83-334249-320861-303337-300932-305177-291056
3704.62-267258-260211-263792-249394-250504-269867
3710.40-249485-236215-278421-310947-318310-320764
3716.19-313519-307947-305282-296217-283398-274572
3721.97-273791-271623-265920-266242-274912-287863
3727.76-302368-310262-288904-245108-240076-258981
3733.54-247433-239930-239004-244675-269082-282671
3739.33-285858-294503-297496-241291-147669-164144
3745.12-268004-305758-270188-211468-208583-224948
3750.90-196512-229560-299127-308366-284221-271614
3756.69-288129-307307-315139-321310-332000-339869
3762.47-334246-316010-292245-283072-297241-308083
3768.26-289805-283251-314488-331400-321303-307569
3774.04-305985-307920-305057-307803-314581-325240
3779.83-337054-339534-336789-323006-308773-313555
3785.61-330720-341671-328301-301289-291158-305481
3791.40-323235-323009-312513-300374-293093-309017
3797.18-331571-330773-289609-213478-205034-263121
3802.97-292693-295224-270481-232660-246700-285013
3808.76-310735-330780-337314-336540-329858-289634
3814.54-220449-215102-285753-315526-289891-248215
3820.33-224855-245406-281935-312571-329899-318898
3826.11-311974-321829-321023-302832-282034-277961
3831.90-295538-299657-288096-294376-271826-227175
3837.68-258568-301283-288713-288037-301572-293838
3843.47-298321-318371-324105-319301-318757-320146
3849.25-306048-258639-209934-160347-113702-177791
3855.04-288056-330497-331225-338084-362560-354840
3860.82-330984-347276-363482-336826-314102-319069
3866.61-324028-312388-286423-284347-318643-352829
3872.40-363866-364096-377995-382988-367530-351158
3878.18-337574-329393-344904-366842-380063-386024
3883.97-349625-304568-323000-357677-368275-360502
3889.75-332888-320673-339547-352625-366258-388089
3895.54-398325-381158-355703-340859-332690-327462
3901.32-327725-309876-291925-315507-351109-378885
3907.11-399832-402095-396802-393570-385509-373717
3912.89-370944-381613-383438-367884-374866-389085
3918.68-372075-365366-374291-361356-350641-350292
3924.46-338732-331502-347690-359690-359690-370195
3930.25-376941-364396-354229-352799-342080-328377
3936.04-328151-341954-348248-333770-325078-324854
3941.82-325882-342889-368342-365771-344569-338566
3947.61-335166-310232-293594-307540-326562-345838
3953.39-360824-353513-343370-340554-320134-297534
3959.18-303976-325573-353389-370287-352366-325127
3964.96-326145-338678-347428-350775-335378-314502
3970.75-309455-317466-318734-301121
##END=
