##TITLE=Tetrachloroethene
##JCAMP-DX=4.24
##DATA TYPE=INFRARED SPECTRUM
##CLASS=IUPAC A
##ORIGIN=NIST, Analytical Chemistry Division, 301-975-3108
##OWNER=COPYRIGHT (C) 2000 by the U.S. Secretary of Commerce
##DATE=00/02/01
##$SPECTRA VERSION=1.10
##$UNCERTAINTY IN Y=2.0 % relative (B=1.0E-04,C=1.6E-09,D=1.3E-13)
##CAS NAME=Tetrachloroethene
##CAS REGISTRY NO=127-18-4
##MOLFORM=C2 Cl4
##MP=-19 C
##BP=121 C
##$NIST SOURCE=QUANT-IR
##SPECTROMETER/DATA SYSTEM=IFS66V (Bruker)
##INSTRUMENT PARAMETERS=KBr Beam Splitter; MCT Detector; Multipass cell
##STATE=gas
##SAMPLE DESCRIPTION=Tetrachloroethene Primary Gas Standard
##PRESSURE=101.3 Pa
##TEMPERATURE=23 C
##SAMPLING PROCEDURE=1 L/min Flow
##RESOLUTION=1.9290
##DATA PROCESSING=NB Strong Apodization
##XUNITS=cm-1
##YUNITS=(micromol/mol)-1m-1 (base 10)
##XFACTOR=1.0
##YFACTOR=18.189E-13
##DELTAX=0.9645
##FIRSTX=575.652
##LASTX=3974.605
##FIRSTY=6.86E-07
##MAXX=3973.64
##MINX=575.65
##MAXY=.001447
##MINY=-8.82E-07
##NPOINTS=3526
##XYDATA=(X++(Y..Y))
575.65 377343 98283-77443 263244 256953 184258
580.47 84955-59676-15419-19072-209-49403
586.26 11434 271452 336276 162236-28203 45761
592.04 43517-25114-8309 6159-62238-58591
597.83 68850 177642-5110-117902-70443 56271
603.62-15895-32762 27098 97883 129293 93766
609.40 44655 79732 86273 104774 84309 89921
615.19 100870 124758 40339 85320 74913 83993
620.97 6773-47309-62100-115154-123913-84625
626.76-106223-109102-94782-122831-228745-214884
632.54-139309-139407-224415-198365-137362-30597
638.33-47064-141620-100419-29068-112230-125528
644.11-156347-141258-113129-61967-77874-88630
649.90-176786-155328-78207-34549-73327-76106
655.68-23675-25203-81651-77935-102060-84527
661.47-79441-51190-105632-116791-12827 448912
667.25 524747 144824-45561-73920-81846-83810
673.04-24237 41079 13501 74912 189552 265621
678.83 279125 323038 356814 427240 500547 583675
684.61 565627 612121 626341 582257 599024 603702
690.40 561118 522706 455943 459799 415113 378840
696.18 282933 200484 133835 109087-21303-80297
701.97-110740-141613-181609-135143-132154-126076
707.75-147156-109665-97505-82547-88964-119741
713.54-168415-142875-164487-152441-89236-33041
719.32-93454-109554-121849-98467-98980-27161
725.11-534 25810 26379 75710 64241 121861
730.89 146001 269948 365669 507533 685435 986599
736.68 1336562 1877575 2525982 3413965 4385931 5587989
742.47 7007585 8751991 10680251 12752423 14934350 17198922
748.25 19308597 21558667 23343698 25211569 26159551 26799043
754.04 27624795 27838874 28677704 26963742 25845467 25490411
759.82 25627956 25773803 23567765 23333515 24329807 26349811
765.61 29447064 34727848 42386530 53421798 67755207 85527921
771.39 105679595 127457858 148273161 166378807 179318290 189128731
777.18 195257337 200010108 198929407 199940617 204901659 195892592
782.96 187303214 185563790 183307945 171948337 151193995 123931413
788.75 96609129 73820583 59069181 52982923 54791943 61879048
794.53 71608610 80875117 88039246 91882061 93804311 100068131
800.32 107176175 103640025 99269678 101641674 102607769 99424937
806.11 96077111 89492159 80204160 69222420 57214271 45392989
811.89 34860369 25919303 18871527 13584555 9928758 7449229
817.68 6031768 5247602 4921016 4770147 4795975 4840940
823.46 4848345 4762758 4736283 4677247 4601168 4408001
829.25 4264698 4127508 3960384 3568768 3032845 2378651
835.03 1716785 1095874 642055 312324 197026 108939
840.82 90271 46058 27317 37817 48352-6687
846.60 12110 44045 72279 11715 12826 13292
852.39 44327 27272 55677 27805 44227 47697
858.17 45017 50234 82596 85411 78181 64315
863.96 66248 51632 62771 63037 96579 117458
869.75 165925 176143 179943 170223 247138 325899
875.53 404900 466420 616693 744377 920401 1154263
881.32 1464902 1864868 2396332 3047742 3838652 4862869
887.10 6176560 7746837 9599023 11757202 14309506 17205920
892.89 20464897 24153469 28484104 33744177 40287650 48698152
898.67 59838473 74590167 93963893 118877531 149942812 187858548
904.46 232981103 285508506 345572828 412181935 483052592 554991248
910.24 624027294 685612303 735521091 770899019 790491693 795496051
916.03 789863267 779134381 769212810 761821873 753361939 736422426
921.81 698490258 634064717 547176869 448886715 348232095 253609579
927.60 174412299 115189351 74829820 48460468 31289794 19881110
933.39 12382405 7587293 4675043 2897470 1845534 1197922
939.17 836372 566459 400447 262417 183465 128746
944.96 115837 61853 54248 46881 56329 32056
950.74 27298 7660 19533 3646 6907 12831
956.53 31703 37347 3610-22379 21548 51035
962.31 65659 27332 17110 10244 11820-11607
968.10-34115-59329-35829-24124-26501-19994
973.88 36249 86046 123629 157385 221651 299795
979.67 396745 427724 472440 521971 555550 549936
985.45 531114 498707 534486 561783 606519 617642
991.24 596897 527198 448227 346241 253831 167089
997.03 98291 46645 34147 42031 44920 56028
1002.81 103382 144445 201422 223618 231114 195563
1008.60 177288 170142 146204 106688 98617 69184
1014.38 32575-20780-11243-41345-64907-94516
1020.17-118680-131300-139512-165976-178276-190131
1025.95-155924-146304-129647-120391-129481-115168
1031.74-79190-98664-116279-133588-139015-142816
1037.52-124682-133059-128194-126605-116842-123192
1043.31-121007-142957-172576-186960-167325-154047
1049.09-118348-105907-106000-109997-76020-78926
1054.88-105370-125049-120558-132406-149337-120276
1060.67-65106-79907-122621-137109-117075-100964
1066.45-100707-112638-100319-79844-51376-58210
1072.24-66922-65104-29158 27683 92965 118816
1078.02 170124 232824 320123 399073 529152 661840
1083.81 822322 1003986 1197631 1375582 1562891 1778242
1089.59 2015494 2221491 2415030 2616433 2865746 3168226
1095.38 3588429 4061401 4589408 5093517 5436395 5394892
1101.16 4928404 4179239 3457206 3062550 3067440 3180057
1106.95 3294248 3371880 3377125 3328767 3312730 3343647
1112.73 3478452 3708277 3984051 4304062 4678224 5027310
1118.52 5376610 5647760 5809390 5901258 6007468 6046773
1124.31 5955043 5775111 5620044 5473904 5200159 4836865
1130.09 4567131 4311786 3987527 3617665 3317844 3146405
1135.88 3053547 3007427 3050061 3165774 3337320 3474651
1141.66 3616779 3748424 3870510 3933960 3982159 3974660
1147.45 3956687 3964336 3922151 3787420 3638734 3474727
1153.23 3274077 3056255 2808608 2518171 2216159 1898734
1159.02 1624397 1403958 1235732 1109204 1043779 1031220
1164.80 1050307 1098845 1142854 1163508 1221402 1270849
1170.59 1275698 1250714 1227945 1222955 1201502 1143092
1176.37 1090995 1072150 1079430 1028862 949083 884079
1182.16 840153 722681 572312 417049 290023 223948
1187.95 189048 152102 133209 132162 145190 138615
1193.73 118546 127509 153312 141768 115585 97698
1199.52 89008 90544 85904 73651 65038 82145
1205.30 92969 61314 43291 52372 71697 59027
1211.09 52266 66580 98448 135586 170951 209257
1216.87 254692 306921 353991 375379 413305 468187
1222.66 500083 525635 543732 563906 591459 603970
1228.44 611732 572606 539430 525405 499580 461222
1234.23 415576 394639 372062 339814 312637 309571
1240.01 326169 335614 336550 360169 403165 422515
1245.80 448008 513195 592177 668767 746577 808337
1251.59 869538 934913 1008011 1039408 1048860 1078265
1257.37 1121971 1139116 1129054 1111440 1109936 1131784
1263.16 1108159 1055376 1003793 931250 858552 755361
1268.94 667597 588182 509074 414003 327706 279941
1274.73 272716 238885 179703 148287 143533 107365
1280.51 54592-11431-31010-26457-22981-24276
1286.30-20524 16394 70020 78553 96576 136447
1292.08 190713 221757 228389 243332 276586 297170
1297.87 311026 301618 299278 294325 265046 208649
1303.65 174081 162559 140803 102802 58394 5072
1309.44-31502-51431-88493-115629-114506-118425
1315.23-140040-167804-163516-138832-144090-173909
1321.01-189718-183029-154654-145893-167067-163915
1326.80-131060-99631-107461-117779-85995-57963
1332.58-39447-36060 10049 62793 106402 145391
1338.37 188390 255309 356336 430700 503723 616177
1344.15 759400 902321 1038100 1154758 1330689 1548488
1349.94 1768769 1973249 2258305 2618608 2911985 3147583
1355.72 3332420 3469952 3563765 3598050 3648298 3678567
1361.51 3657362 3626941 3577848 3463674 3265789 3071377
1367.29 2898267 2677889 2357554 2058388 1812407 1545810
1373.08 1267263 1026130 817369 668645 538419 384384
1378.87 302244 268114 235971 215466 210118 234284
1384.65 245371 239037 232576 216933 203427 183049
1390.44 167180 161655 177219 213233 179778 150987
1396.22 157350 152352 123117 71708 70276 81817
1402.01 89688 90738 67783 17694 316-11228
1407.79-31094-51396-60048-50046-62705-96595
1413.58-115445-119350-115796-120374-96892-55013
1419.36-100484-151171-173996-173469-165385-167150
1425.15-173473-162861-160158-165301-158695-162972
1430.93-181736-177491-173198-164694-110833-46684
1436.72-102778-181988-207639-197970-173146-169640
1442.51-168464-169267-167666-168959-167402-166013
1448.29-180237-189189-181967-175871-197822-185612
1454.08-151621-66594-5891-74368-118265-147530
1459.86-181134-194297-181461-156389-117242-124594
1465.65-158064-165823-161281-145160-129707-90657
1471.43-51404-44082-79271-93857-67585-86086
1477.22-75706-67966-57395-45753-54030-68024
1483.00-79628-79485-75216-74626-85018-105654
1488.79-90970-104677-127268-152145-166443-161829
1494.57-117776-118426-178450-169117-176661-216755
1500.36-215469-210159-198217-182011-93983-14735
1506.15-17871-109939-164987-187402-202375-184658
1511.93-172025-179843-172791-167284-146110-154378
1517.72-175431-150591-69571-54204-115606-147938
1523.50-154653-136169-152403-154199-148166-151355
1529.29-152555-139407-112718-67126-54336-115471
1535.07-114473-74034-298 117912 141294 89223
1540.86 77285 55237 16738 40624 20733-32658
1546.64-41675-11873 18495 17642-11755-17418
1552.43 23959 76389 27892 35967 146401 258337
1558.21 257381 251318 149168 82700 95384 94868
1564.00 96857 90263 92760 104917 141836 171790
1569.79 131196 107763 108394 123817 170013 306039
1575.57 316888 184158 143751 152406 150174 113430
1581.36 88399 84913 90734 79902 85728 97196
1587.14 109446 102581 83550 67829 59780 54366
1592.93 64525 58190 43708 28986 24539 11685
1598.71-10779-33099-36107-55553-90451-102994
1604.50-102102-108464-128120-141354-147263-164283
1610.28-173911-181268-187180-169523-153945-73153
1616.07-51647-148843-170370-180207-179447-166491
1621.85-126329-120563-171842-184859-169268-157778
1627.64-176144-199482-198485-180754-171145-165485
1633.43-113293-20696-65097-130846-146270-140559
1639.21-117018-139383-161743-173217-177161-130980
1645.00-50097-85477-138628-166917-159231-141158
1650.78-25152 137832 83194-74575-161341-207607
1656.57-214546-207896-208887-222869-195843-143574
1662.35-164150-215040-216934-209073-196348-170765
1668.14-134328-162596-166874-165436-188476-179230
1673.92-110035-113898-172658-194540-191802-173991
1679.71-178129-188992-154852-78989 32455-35928
1685.49-161890-184698-189918-186564-191124-210076
1691.28-219438-211365-204660-100883-43675-151821
1697.07-150499-77729-4349-64568-189882-226234
1702.85-200137-183149-169781-162504-184959-202532
1708.64-201154-175361-177467-183854-161082-110157
1714.42-88599-69189 13950-13556-84865-127899
1720.21-147879-151153-133973-121478-125285-132066
1725.99-137831-132477-118905-102599-109766-116519
1731.78-44436 42901 28192-68721-103110-89931
1737.56-56125-3315 1798 387 22253 30979
1743.35 46087 79205 87248 89144 104796 132321
1749.13 146548 189791 172486 129443 120677 103007
1754.92 102828 97434 50498 24462 23284 30980
1760.71 53985 39988 19800 18737 24792 57903
1766.49 117050 153260 158459 213521 302342 404633
1772.28 442726 435554 477425 517416 537011 546857
1778.06 555705 570025 595369 607852 593021 581183
1783.85 604648 572417 492331 414844 349137 302959
1789.63 249805 217515 264476 281298 293261 326623
1795.42 353580 367988 373160 375500 344768 330888
1801.20 335410 328867 312849 300771 270718 212440
1806.99 134643 53410-24229-92809-154888-209661
1812.77-270264-313038-341840-365268-388276-400226
1818.56-401558-404825-433292-449608-455630-434314
1824.35-430135-471926-482646-468750-452043-432574
1830.13-456616-475788-484654-485313-479316-479001
1835.92-477422-467209-461626-469638-474869-450241
1841.70-408650-373053-367994-383215-368909-365585
1847.49-349515-325214-285088-239523-203152-141945
1853.27-63669-6539 14790-4237-57379-70032
1859.06-34836-25069-27403-6399 39207 44419
1864.84 22318 32560 41507 30718 15467-6601
1870.63 6065 18313 29771 56190 106593 164166
1876.41 211654 264080 297900 347450 401203 434404
1882.20 467449 506539 506360 515880 566202 559831
1887.99 531452 564174 574059 527981 497897 485156
1893.77 435150 392615 344241 287377 259849 272685
1899.56 258766 222436 244068 278364 268997 284875
1905.34 324842 333238 351609 386354 378437 385006
1911.13 409316 388654 372014 364159 326363 287862
1916.91 260336 196540 135787 95628 24916-60990
1922.70-132034-202148-245624-266471-270822-265353
1928.48-263410-281162-290810-287556-279428-285980
1934.27-294468-296829-295188-294793-288428-291119
1940.05-303825-290517-285573-298281-290355-289708
1945.84-284119-289423-297305-282756-274556-274308
1951.63-264233-265742-272942-279819-284467-289076
1957.41-283249-276570-285640-279529-281136-274237
1963.20-273112-282236-286457-279999-269677-264779
1968.98-272540-276733-267858-255215-232146-265216
1974.77-303849-282892-265234-258398-255697-241617
1980.55-246166-259880-261885-249155-237367-244158
1986.34-256749-245657-236351-239875-245401-245516
1992.12-254646-250389-236276-234685-250091-253477
1997.91-254037-250584-253797-264063-265811-268860
2003.69-261511-239259-227671-233690-252400-260670
2009.48-258065-254852-261350-266041-254559-248236
2015.27-266558-268672-263454-261094-253062-249940
2021.05-270352-284119-279155-267725-259253-259374
2026.84-265905-251190-252387-258659-259045-251080
2032.62-253125-269420-284156-284941-281131-278881
2038.41-275776-267461-261916-264207-279930-280685
2044.19-281100-269534-257827-258078-264937-268068
2049.98-277172-281156-290824-288939-278419-283949
2055.76-292571-295506-297224-287112-269685-272373
2061.55-281229-281175-275007-269189-279247-284952
2067.33-274871-276444-284981-276225-272758-272135
2073.12-276878-290680-281740-271831-288414-293912
2078.91-295490-288085-275922-271035-257760-256303
2084.69-264214-272595-283245-279069-275839-255849
2090.48-254609-268906-266624-249182-256756-271633
2096.26-278124-274002-262253-266376-280154-280287
2102.05-275143-284678-295388-292223-274985-257721
2107.83-283058-288824-263654-241478-277844-299036
2113.62-280739-252723-276553-284896-271351-246095
2119.40-255520-272150-275053-249394-244941-263906
2125.19-272875-256318-247133-264574-276288-262116
2130.97-244803-244374-246050-247353-259795-272060
2136.76-274195-263586-256017-259645-248181-234784
2142.55-237001-243475-250267-246093-244147-243155
2148.33-251550-237514-236247-253072-247846-226864
2154.12-221369-236307-243912-236606-246174-251283
2159.90-229680-214764-242062-260840-239915-211768
2165.69-221334-223651-195870-196474-228946-225372
2171.47-191482-197715-210210-180117-150609-157012
2177.26-151851-120189-114257-125979-103587-61370
2183.04-51843-32886 1605 21080 28862 61331
2188.83 98632 108132 118029 162067 203720 237663
2194.61 282103 324047 357791 387569 424850 470755
2200.40 514372 540177 575038 608614 637837 677524
2206.19 701823 708323 722181 733719 747662 756473
2211.97 741131 713308 696050 672695 629491 562551
2217.76 492441 416586 312735 201081 74849-2735
2223.54 46527 158549 276985 406840 536912 652569
2229.33 756792 846837 923463 992377 1054928 1096778
2235.11 1110293 1115225 1101311 1060496 1016055 968286
2240.90 901459 820163 721153 634405 539443 451144
2246.68 364539 277256 188867 126105 74769 12897
2252.47-54412-88526-126839-168938-202209-216032
2258.25-226185-235811-230437-240683-247608-241810
2264.04-249660-250671-247682-233543-238265-255366
2269.83-242479-229267-240443-242493-239461-253137
2275.61-277287-278657-282696-267946-249775-245046
2281.40-249231-243620-244656-259556-272336-275383
2287.18-270820-256879-246138-235625-249538-260311
2292.97-266802-253437-247837-257012-244784-233788
2298.75-235075-240187-255613-239747-240621-227345
2304.54-230349-212072-216806-198121-184177-189290
2310.32-162445-163849-122818-150624-101322-92302
2316.11-40912-58322-8362-20362 59895 63300
2321.89 120002 123622 192022 202800 251808 250968
2327.68 280396 277927 323016 326717 355172 369013
2333.47 398977 394043 402638 392744 391684 377048
2339.25 377402 358932 343838 309274 255172 187486
2345.04 132014 68005-19-63419-42091 56627
2350.82 162015 252660 336072 430507 534750 614340
2356.61 675626 732966 772605 789478 811477 832940
2362.39 838227 828502 818851 782209 721834 664869
2368.18 618976 549698 451882 374429 340910 283993
2373.96 194069 129288 94371 44223-35290-105659
2379.75-139542-171132-189375-198377-211320-213412
2385.53-200801-201227-226313-232662-228770-221938
2391.32-231434-239977-247207-267287-276435-271019
2397.11-266885-276045-279562-276476-272144-260916
2402.89-262207-276764-279194-275000-268271-253425
2408.68-259841-278405-267705-255118-271925-283912
2414.46-294003-286626-269574-262122-250915-266122
2420.25-265282-254567-262547-270156-280059-280579
2426.03-277883-271264-259513-251098-260144-262107
2431.82-253433-257186-252547-239571-241584-252041
2437.60-240140-230078-252831-250037-241176-245035
2443.39-241148-245864-232628-225918-224326-228625
2449.17-240155-245317-219623-209412-237367-240530
2454.96-221288-217444-214992-207562-211279-213149
2460.75-209960-213047-186467-161756-153967-150961
2466.53-136275-109354-92666-62211-29455-13950
2472.32 6074 32452 67417 117034 146201 180377
2478.10 236899 291548 340825 388153 437715 486564
2483.89 545465 604872 659326 716497 773849 829666
2489.67 876758 896104 903027 919276 921821 905068
2495.46 881042 838560 794726 752450 703167 649560
2501.24 574986 498811 420453 341802 243768 154295
2507.03 75327-12956-87956-147620-186353-206830
2512.81-213145-232477-256339-264060-253559-245098
2518.60-260362-269210-267456-260068-265774-289420
2524.39-296385-288086-293127-298152-293671-271755
2530.17-259306-269150-278445-287876-290825-293700
2535.96-290274-278251-266820-264369-257367-252693
2541.74-252680-251658-261078-271049-260383-252926
2547.53-264016-265759-268005-258490-255694-269170
2553.31-277974-261402-260207-269933-267951-267747
2559.10-274077-256655-263472-272657-265467-262871
2564.88-273356-266906-251343-240859-234385-236317
2570.67-253768-258606-250334-243792-243373-235179
2576.45-231611-223930-225038-241375-262875-268485
2582.24-272372-259814-264936-251185-259335-254466
2588.03-251272-262131-265210-261046-255728-258373
2593.81-258825-251304-257573-275280-278252-259296
2599.60-250039-255894-253610-244984-255040-257341
2605.38-255612-252665-246006-248291-264985-274355
2611.17-265908-260609-275909-278574-265683-280224
2616.95-302608-296693-296690-284801-279812-285553
2622.74-287434-284890-288409-282384-274984-270245
2628.52-267008-264587-261391-260222-261737-273186
2634.31-289266-300140-300461-293062-290924-292056
2640.09-309234-304404-298007-283258-282605-297258
2645.88-303181-303791-306594-309735-317994-322257
2651.66-301632-292797-305163-301721-305277-300428
2657.45-301882-311507-315700-316765-322523-335709
2663.24-332571-315679-310449-296383-301798-312378
2669.02-327636-328538-305825-296057-302570-308902
2674.81-304416-288359-268351-269492-308741-333938
2680.59-325434-318544-316352-296634-299937-307880
2686.38-302347-284679-294673-299596-292550-310980
2692.16-321419-314343-316240-300976-296810-302696
2697.95-323378-343664-326518-295129-281236-265388
2703.73-261136-275939-271807-273738-289193-296251
2709.52-322215-314292-300281-292267-295862-287754
2715.30-291339-299001-293443-292409-285935-270326
2721.09-294625-300996-294588-285940-262508-254329
2726.88-259497-262730-270103-251855-235701-228788
2732.66-231301-234152-219791-221772-238397-225511
2738.45-238818-245101-223342-198908-190836-187394
2744.23-186064-186865-196936-197638-192931-192403
2750.02-198092-209906-215595-214377-230637-233825
2755.80-232179-236096-230851-229513-241382-250966
2761.59-254524-263489-254369-254974-265821-263984
2767.37-250592-243683-239331-227959-224182-222689
2773.16-215513-222128-236371-222484-219057-230558
2778.94-220598-214897-236162-227569-210035-220390
2784.73-233530-244227-237496-208838-226060-248953
2790.52-236053-252275-273172-251599-229641-222516
2796.30-227697-242236-281383-277587-268072-253092
2802.09-245780-242350-239693-240432-247578-277415
2807.87-290217-277071-260284-252661-263061-271878
2813.66-281153-291122-292315-273110-277344-276409
2819.44-277723-284709-274154-275829-290354-271746
2825.23-261484-248664-259673-282065-279388-273719
2831.01-284928-275468-273852-268108-252478-270394
2836.80-297015-277514-258716-264381-269754-254240
2842.58-254961-259405-256259-279582-287661-273369
2848.37-268727-258668-258900-252896-237251-227093
2854.16-224864-227823-237040-208970-208541-219859
2859.94-211514-193250-201580-198858-192708-185315
2865.73-168826-169169-165783-151262-148006-157503
2871.51-161188-152196-134881-125504-141329-146361
2877.30-128758-114437-111321-125249-124746-109342
2883.08-99831-99085-91304-86504-73641-69356
2888.87-61554-58647-51947-54105-60247-30457
2894.65-19889 118 9481-3571-6180 13202
2900.44 3211-13040-9013 4121 2863-7349
2906.22-26074-38964-38908-25503-43999-78208
2912.01-101089-97592-115364-153301-173035-180204
2917.80-171141-177401-192258-203337-210697-196863
2923.58-206928-205438-190358-191793-200267-201159
2929.37-196294-192180-193342-187536-201105-188742
2935.15-164959-147370-152086-171940-182379-169082
2940.94-164825-180224-164807-143468-159452-163924
2946.72-178115-167449-153755-185841-200240-171772
2952.51-170076-177226-175840-171153-197506-207523
2958.29-215347-219952-234772-174046-116251-152000
2964.08-163868-170944-178876-191872-198425-192816
2969.86-184737-174975-173896-149859-134718-152590
2975.65-175329-191246-194991-161642-127100-115794
2981.44-117952-115450-117483-127792-136233-134722
2987.22-140076-146422-146933-155753-154882-148451
2993.01-154768-152846-162225-183874-200438-201014
2998.79-194713-189312-208770-238450-228106-223849
3004.58-244246-245714-236792-230982-232142-244835
3010.36-254739-265713-280375-279369-277672-263373
3016.15-264147-256681-254515-258257-280798-270035
3021.93-266840-280088-297875-285807-283857-285818
3027.72-271725-252604-267211-292303-295911-298458
3033.50-286883-273700-283349-289961-292151-301417
3039.29-312329-291646-262927-272090-298253-308322
3045.08-295002-294342-299044-285821-296350-298768
3050.86-286323-267973-271301-293232-318783-317353
3056.65-326850-323503-303970-285022-256395-246722
3062.43-266388-278082-293279-302844-308403-297778
3068.22-302318-305242-300388-272897-257496-256823
3074.00-260173-258004-270266-305759-323257-286412
3079.79-254342-260599-279728-265389-254041-249575
3085.57-262239-268960-288172-294956-281302-275163
3091.36-261187-232417-224709-246340-247363-213403
3097.14-215248-236367-268556-253882-232231-241319
3102.93-223438-224140-231082-239212-239463-228949
3108.72-226095-200681-185839-184727-205808-222409
3114.50-237939-249563-248933-218369-198873-192213
3120.29-190738-198846-206610-211840-237857-244590
3126.07-222252-205047-210177-200080-180307-177748
3131.86-171399-179524-187600-170755-154575-158460
3137.64-177283-188412-183344-159616-152093-163053
3143.43-155820-162878-185758-201995-204263-180410
3149.21-175755-186640-185105-167092-162812-146849
3155.00-154743-175305-186650-185012-179868-169534
3160.78-180637-177828-156980-155856-161358-168532
3166.57-165482-153823-162921-171593-171206-174254
3172.36-173305-155711-167036-177737-190221-196996
3178.14-194584-171048-170917-181047-178649-160700
3183.93-140519-148739-160280-183876-193833-193244
3189.71-193811-190591-190008-197437-186661-190793
3195.50-209587-168751-156476-158207-161356-158449
3201.28-165965-189584-220444-239242-228061-206745
3207.07-200907-191516-189052-181084-172943-144913
3212.85-151257-162034-172049-191832-228843-260326
3218.64-223231-197813-197257-173351-160245-155576
3224.42-158159-176322-183964-192696-189642-187129
3230.21-179304-162142-152828-156706-175574-184247
3236.00-185946-177810-192537-208793-177656-139762
3241.78-152098-173334-198892-181364-171403-176740
3247.57-164391-143023-120034-124367-160732-177675
3253.35-168728-129869-118576-122690-126779-132399
3259.14-146469-140363-138480-137822-128686-122577
3264.92-139234-146189-138381-151048-180771-166990
3270.71-148461-137341-130710-140325-151916-142338
3276.49-140051-128648-121605-124496-132965-145547
3282.28-149098-128080-111905-118155-125384-111887
3288.06-103625-117218-161906-188352-179134-162274
3293.85-143588-114840-112689-124845-152500-165787
3299.64-180507-175322-160279-156542-177842-172307
3305.42-147870-142828-144692-163435-184781-168137
3311.21-162981-155734-132014-165517-188680-164829
3316.99-169035-177913-190863-192586-196838-193193
3322.78-169606-155473-174011-176978-178326-159840
3328.56-149258-168978-179670-164622-175665-204575
3334.35-214852-199427-203545-202338-186135-205016
3340.13-210840-189536-165351-139195-166741-178737
3345.92-198254-217405-232637-209246-196080-198239
3351.70-211174-233059-253793-238655-210469-196817
3357.49-191518-214110-240099-230973-240647-246884
3363.28-245080-231263-223725-225621-244052-233391
3369.06-214358-230923-259502-247694-227823-242682
3374.85-261695-224837-205548-209485-216306-246209
3380.63-254089-222987-223376-220816-215741-193811
3386.42-209401-207515-205235-207911-210211-215407
3392.20-240242-246266-230514-198840-201385-232995
3397.99-226571-236767-259794-258894-260802-254949
3403.77-243582-254448-244559-227009-213605-219478
3409.56-216180-202844-213604-209339-218211-245087
3415.34-225912-209729-249023-249212-218074-227186
3421.13-250957-249397-247613-260276-247281-219513
3426.92-219472-215368-210314-208036-212998-210257
3432.70-210940-236326-257245-240698-197302-197072
3438.49-230478-225749-230022-214263-210145-217058
3444.27-220014-205886-206947-209527-222644-245499
3450.06-242272-242708-230112-220271-201509-162556
3455.84-191039-232397-220059-196205-210579-241249
3461.63-232249-212157-218092-228530-210350-198060
3467.41-202887-204100-208108-220783-214144-206665
3473.20-244496-237490-213956-230965-236406-210622
3478.98-207768-217992-218541-206900-211754-243402
3484.77-257315-238862-244015-229708-221428-218442
3490.56-210333-205560-213930-210871-222868-244964
3496.34-249300-228765-219071-214554-205925-191447
3502.13-199667-246804-277350-295043-292260-275030
3507.91-287908-301432-306114-291721-282292-262621
3513.70-279787-303778-315152-304229-299620-313042
3519.48-297274-268139-267211-270806-261323-282898
3525.27-301570-290534-289935-291315-311696-333596
3531.05-322241-274257-265046-247142-261276-303371
3536.84-310932-326536-351000-363615-346387-300669
3542.62-261832-233455-219359-234763-250152-249179
3548.41-276263-300623-312286-313516-291216-251595
3554.20-237909-226906-229489-242529-251593-266757
3559.98-269429-248172-225901-228966-228699-202369
3565.77-206808-192092-216092-230518-219466-215587
3571.55-217835-218346-230506-236945-237781-235545
3577.34-207289-203043-216613-219462-216281-233965
3583.12-218507-199471-182752-176137-189544-183252
3588.91-188862-206511-239972-250202-244345-209083
3594.69-202321-228683-227221-222338-238226-222781
3600.48-242757-253711-258970-260443-266118-269458
3606.26-253744-218343-174039-214418-261554-236550
3612.05-232953-249335-277083-290309-285212-261399
3617.84-229745-209220-248028-258619-271477-288420
3623.62-274137-235788-222451-210699-204977-185353
3629.41-213630-262759-306319-325582-353647-361594
3635.19-335060-282606-238971-220434-239440-241072
3640.98-255944-277254-309856-311034-277576-251734
3646.76-251802-209923-186702-230518-265826-304360
3652.55-325613-345609-309572-263843-297199-348031
3658.33-356293-340461-316098-320005-320203-327456
3664.12-345000-328677-326670-322522-279624-219231
3669.90-202542-290695-307869-268927-214741-193511
3675.69-261519-330389-319606-309500-327731-313724
3681.48-274279-277458-299770-304859-317707-287755
3687.26-206432-278073-335246-282935-276366-303990
3693.05-345895-354090-333743-325375-334124-342006
3698.83-334225-323716-298957-298950-310309-292422
3704.62-264637-255036-272008-245179-242598-282943
3710.40-249477-218437-286410-314674-317267-324258
3716.19-312127-306995-307321-296341-283388-271958
3721.97-274836-272551-264601-264637-274470-287496
3727.76-302692-315111-296329-235741-231393-273388
3733.54-240027-241227-239251-237449-274668-283193
3739.33-285316-292569-308215-256227-122099-140699
3745.12-292887-311076-280839-196208-199767-248712
3750.90-173588-222374-316966-310012-284838-262091
3756.69-290889-308507-316060-319563-332391-342807
3762.47-335773-317974-289433-277987-297277-315617
3768.26-289157-270133-322595-334192-323346-303313
3774.04-306132-309620-303279-307143-314840-322948
3779.83-341427-337654-340608-323118-304441-311659
3785.61-331305-346549-331866-296787-287239-303651
3791.40-328842-323176-313347-299853-289104-304908
3797.18-340267-330977-306745-193854-190815-274625
3802.97-294914-297996-279706-215380-245688-288649
3808.76-309718-334453-338273-335718-336027-298280
3814.54-209748-191440-304050-320945-294340-244529
3820.33-215935-242486-285856-310319-340371-314644
3826.11-308901-323821-325429-302077-280732-270969
3831.90-299803-304825-280517-298747-286284-200716
3837.68-260042-317104-282030-283087-311290-287864
3843.47-295300-322319-326082-317697-318236-322035
3849.25-313218-260061-202732-175470-79884-171937
3855.04-306443-333947-332783-328441-373460-358864
3860.82-319605-346628-376268-333453-307509-320876
3866.61-325823-317207-281742-275178-321465-355311
3872.40-369299-356364-382620-386051-367967-348951
3878.18-339992-321843-345106-369615-378232-394697
3883.97-357003-283441-325756-361334-370963-364474
3889.75-332269-308989-347606-348364-366935-387094
3895.54-407003-379947-354970-337977-335007-322933
3901.32-333249-312354-279649-316157-353131-377985
3907.11-405268-402208-396184-394335-387135-371439
3912.89-368498-381743-390944-360226-371955-399738
3918.68-367920-359125-383910-357664-348564-353374
3924.46-339376-324024-350262-363305-355520-370770
3930.25-382356-362834-351475-355844-342990-325019
3936.04-326228-341338-356122-329003-325005-324828
3941.82-323731-338225-376527-368961-340437-336720
3947.61-342159-308358-285611-309097-326385-344585
3953.39-367511-352910-340240-345172-322597-288325
3959.18-304703-322631-355218-377248-355848-316197
3964.96-326140-339687-346932-355381-336782-310174
3970.75-308045-316987-325396-297680
##END=
