##TITLE=Tetrachloroethene
##JCAMP-DX=4.24
##DATA TYPE=INFRARED SPECTRUM
##CLASS=IUPAC A
##ORIGIN=NIST, Analytical Chemistry Division, 301-975-3108
##OWNER=COPYRIGHT (C) 2000 by the U.S. Secretary of Commerce
##DATE=00/02/01
##$SPECTRA VERSION=1.10
##$UNCERTAINTY IN Y=2.0 % relative (B=1.0E-04,C=1.6E-09,D=1.3E-13)
##CAS NAME=Tetrachloroethene
##CAS REGISTRY NO=127-18-4
##MOLFORM=C2 Cl4
##MP=-19 C
##BP=121 C
##$NIST SOURCE=QUANT-IR
##SPECTROMETER/DATA SYSTEM=IFS66V (Bruker)
##INSTRUMENT PARAMETERS=KBr Beam Splitter; MCT Detector; Multipass cell
##STATE=gas
##SAMPLE DESCRIPTION=Tetrachloroethene Primary Gas Standard
##PRESSURE=101.3 Pa
##TEMPERATURE=23 C
##SAMPLING PROCEDURE=1 L/min Flow
##RESOLUTION=1.9290
##DATA PROCESSING=Happ Genzel Apodization
##XUNITS=cm-1
##YUNITS=(micromol/mol)-1m-1 (base 10)
##XFACTOR=1.0
##YFACTOR=18.189E-13
##DELTAX=0.9645
##FIRSTX=575.652
##LASTX=3974.605
##FIRSTY=6.91E-07
##MAXX=3973.64
##MINX=575.65
##MAXY=.0014473
##MINY=-8.82E-07
##NPOINTS=3526
##XYDATA=(X++(Y..Y))
575.65 380292 95931-81208 262601 262585 183886
580.47 84037-60021-17805-16876-561-51593
586.26 9563 273078 342246 160404-30023 44735
592.04 45461-26534-8014 6780-62628-62002
597.83 71492 179710-3438-123153-69251 56824
603.62-14563-35272 27282 98418 130856 93178
609.40 44538 78614 87608 104023 85288 88101
615.19 103133 123310 41776 82900 77327 83596
620.97 7341-48009-61882-115851-124196-84525
626.76-105707-110026-93107-122821-229593-216820
632.54-137150-139312-224513-200914-136603-29198
638.33-45755-143859-99962-28644-110719-127539
644.11-155430-143033-111905-62673-75705-89550
649.90-176924-157493-76819-33805-73501-77151
655.68-22506-25112-81159-79249-101031-86157
661.47-77732-52129-103493-123172-14464 453313
667.25 532169 143927-50039-73914-82238-84953
673.04-23558 41280 13269 73121 190856 265867
678.83 279776 321974 357365 425797 502183 583391
684.61 566286 611933 627113 581820 599024 604060
690.40 562204 521548 456672 458634 416852 378283
696.18 284176 198577 135185 108573-20506-82269
701.97-109571-142950-181324-136255-130484-127230
707.75-146639-110544-96568-82893-87675-120676
713.54-168099-143656-163947-154301-87788-32783
719.32-92246-111430-120747-100013-98206-28318
725.11 1302 24328 27848 74069 65928 119447
730.89 147025 267955 366887 504822 685394 982994
736.68 1335875 1872374 2524738 3409191 4384264 5581464
742.47 7003621 8746647 10679249 12747734 14937504 17194089
748.25 19316883 21554290 23355335 25220739 26162747 26812249
754.04 27605208 27870962 28680110 26984063 25820381 25472876
759.82 25656186 25774183 23571978 23283657 24325991 26316273
765.61 29417938 34670647 42333655 53348189 67701749 85468903
771.39 105665930 127455718 148352423 166438471 179423365 189144994
777.18 195345950 200075083 198862617 199997071 204996792 195989470
782.96 187144140 185593723 183451793 172148595 151297108 123950279
788.75 96510613 73679058 58896181 52841074 54683979 61836032
794.53 71610784 80917694 88107328 91901405 93724233 100103780
800.32 107301924 103682386 99170244 101649062 102664714 99470092
806.11 96104642 89560137 80231139 69243046 57209234 45371669
811.89 34826803 25886508 18834947 13556969 9902567 7432696
817.68 6016468 5241695 4915043 4769010 4793835 4843317
823.46 4848061 4763913 4734730 4679802 4600977 4409275
829.25 4262702 4130065 3962612 3573164 3033726 2380125
835.03 1714467 1094619 637397 310859 193985 109716
840.82 89144 46663 25923 38952 47937-6291
846.60 10228 45882 71819 12750 10840 14688
852.39 43082 28687 54583 28706 43327 48495
858.17 44303 50380 82487 86171 77733 64738
863.96 65668 52160 61874 63578 95593 118195
869.75 165422 177490 178786 170119 245712 327223
875.53 403605 466625 615418 744614 918628 1153242
881.32 1462808 1862708 2393903 3045022 3834138 4857780
887.10 6171107 7742093 9592376 11750653 14302196 17199537
892.89 20456268 24141411 28466411 33719788 40251477 48646858
898.67 59769281 74501935 93859754 118758935 149813652 187721641
904.46 232838931 285366896 345448962 412101293 483032868 555047485
910.24 624169767 685833233 735798273 771198868 790766396 795700699
916.03 789955776 779122202 769173025 761829185 753548772 736799535
921.81 699001712 634476126 547409677 448930472 348109491 253326379
927.60 174031326 114835862 74559321 48286786 31177315 19808424
933.39 12329391 7553009 4651756 2885100 1836258 1194166
939.17 832876 566052 398544 262508 181787 129368
944.96 115017 62488 52948 47761 55747 32908
950.74 26363 8276 18955 4136 6278 12936
956.53 31817 38193 3003-22800 20792 52354
962.31 65549 27840 16220 10796 11602-10923
968.10-34853-59418-36260-23415-27155-20325
973.88 35834 86679 123255 157391 220623 300487
979.67 396804 428414 471766 522743 555715 550963
985.45 530286 498736 533381 562502 606336 618922
991.24 597173 528011 448098 346519 253374 167036
997.03 97689 46129 33651 42217 44452 55943
1002.81 102719 145004 201217 224734 231143 195824
1008.60 176759 170753 145948 106905 98125 70307
1014.38 31615-20436-11909-40467-65389-94286
1020.17-119148-131024-139720-165525-179181-189977
1025.95-156386-145835-129740-120022-130092-114984
1031.74-78999-97937-116853-133297-139650-142477
1037.52-125001-132573-128754-126173-117140-122766
1043.31-121029-142465-173246-187026-167941-153708
1049.09-118581-105080-106615-109884-76024-78078
1054.88-105783-125176-120490-132278-150285-120334
1060.67-64360-79069-123279-137569-117230-100432
1066.45-100818-112656-100950-79450-51279-57708
1072.24-67509-65361-30004 28174 92837 119220
1078.02 169099 233217 319280 399125 528255 661887
1083.81 821542 1004094 1197596 1375647 1562128 1778209
1089.59 2015623 2222137 2414431 2616136 2863885 3167002
1095.38 3586487 4061085 4589305 5097295 5443045 5403294
1101.16 4933362 4179031 3450518 3056262 3064116 3180599
1106.95 3294740 3373434 3377722 3328728 3311303 3342032
1112.73 3476550 3707463 3982850 4303786 4677737 5028202
1118.52 5377502 5650219 5810155 5901697 6008352 6049383
1124.31 5956456 5774848 5620104 5476204 5201169 4836165
1130.09 4566262 4313292 3988132 3616483 3315501 3144958
1135.88 3052272 3006277 3048054 3165545 3336996 3475416
1141.66 3616243 3749401 3870723 3935117 3982595 3975041
1147.45 3956334 3965348 3923464 3788122 3638910 3475314
1153.23 3274505 3056911 2809106 2518849 2215941 1898331
1159.02 1623116 1403173 1234724 1108185 1042773 1030527
1164.80 1049801 1099106 1142804 1163360 1221275 1271734
1170.59 1276257 1250645 1227695 1223305 1201974 1143233
1176.37 1090045 1072213 1079901 1029851 948364 884412
1182.16 840741 723824 572190 416512 288964 223399
1187.95 188866 151993 132670 132099 145435 138825
1193.73 118035 127383 153718 142198 115440 97443
1199.52 88930 90553 86133 73463 64639 82423
1205.30 93364 61443 42497 52532 71873 59215
1211.09 51738 66310 98322 135609 170897 209145
1216.87 254494 307207 354198 375212 413124 468330
1222.66 500439 525675 543625 564037 591295 604653
1228.44 612025 572829 539078 525458 500031 461060
1234.23 415445 394450 372323 339669 312210 309241
1240.01 326270 335721 336121 359999 403358 422453
1245.80 447374 512878 592117 668961 746619 808602
1251.59 869169 935153 1008467 1039931 1048476 1078105
1257.37 1122340 1139655 1129265 1110925 1109907 1132280
1263.16 1108727 1055688 1003663 931894 858463 755609
1268.94 667088 588443 509140 413995 326792 279500
1274.73 272947 239399 179138 148105 143621 108207
1280.51 54277-11810-31723-26372-22897-24399
1286.30-21236 16482 70251 78877 95857 136420
1292.08 190985 222257 228161 243232 276468 297693
1297.87 311065 301802 299154 294944 265311 208433
1303.65 173632 162712 141060 103053 58421 4788
1309.44-31655-51334-88624-116026-114564-117980
1315.23-140074-168303-163825-138380-143679-174022
1321.01-190299-183286-154295-145544-167286-164604
1326.80-130891-99021-107557-118131-86428-57279
1332.58-39772-36259 9540 63118 106418 145400
1338.37 187710 255098 356411 430899 502940 615734
1344.15 759115 902910 1037811 1154255 1329503 1548797
1349.94 1768608 1971862 2257399 2619123 2913537 3148425
1355.72 3333194 3471186 3564248 3598346 3648486 3679357
1361.51 3657783 3627167 3579307 3464816 3266096 3070814
1367.29 2899520 2679117 2357582 2057481 1812596 1545936
1373.08 1266881 1025160 816423 668534 538185 383666
1378.87 301123 267949 235968 214898 209889 234313
1384.65 245690 239208 232530 217108 203395 183019
1390.44 167079 160889 177577 213694 180137 150390
1396.22 157281 153204 122937 71420 69601 82068
1402.01 89714 91411 67858 17566-82-10997
1407.79-31062-51736-60183-49762-62370-96711
1413.58-115876-119335-115770-121087-96509-54351
1419.36-99693-151984-174326-173656-165158-167210
1425.15-173574-162841-160057-165400-158484-162930
1430.93-181844-177703-173224-165762-110289-45374
1436.72-101848-182955-208519-197972-173087-169313
1442.51-168615-169178-167699-169007-167288-165900
1448.29-180182-189657-181582-175968-197784-186569
1454.08-152412-65525-4756-73615-119139-147297
1459.86-181589-194611-182018-156220-116686-124127
1465.65-158270-166364-161191-145493-129850-90830
1471.43-50674-43398-79863-93838-67880-85610
1477.22-76300-67754-57403-45517-53787-68172
1483.00-79775-79571-75237-74150-85384-105536
1488.79-91161-104021-127537-152073-167145-162226
1494.57-116844-118120-178683-169352-176265-216907
1500.36-216200-209631-199117-182513-94402-12686
1506.15-16915-109962-165818-187720-202735-184612
1511.93-171908-179662-173292-167042-145948-153965
1517.72-176526-151189-68571-53131-115458-149116
1523.50-154371-136301-152112-154580-147950-151427
1529.29-152751-139750-113101-66046-53918-115679
1535.07-115635-74914-433 119178 142547 88986
1540.86 77362 54953 16550 40728 21486-33339
1546.64-42473-11892 19152 17960-11897-18786
1552.43 24767 76885 27873 33443 147312 258804
1558.21 259457 251463 149281 81398 95023 95367
1564.00 96610 90379 92405 104408 142434 172303
1569.79 131622 106807 108641 122288 169554 307883
1575.57 318783 183734 141981 153076 150390 113568
1581.36 87739 85044 90629 79988 85325 97411
1587.14 109638 102897 83421 67830 59468 54422
1592.93 64508 58577 43518 29002 24517 12018
1598.71-10994-33191-35949-55340-90707-103336
1604.50-101916-108290-128215-141382-147240-164307
1610.28-173872-181654-186968-170383-154416-71897
1616.07-50692-148607-171809-179705-180161-166653
1621.85-125661-119974-171987-185736-168984-157398
1627.64-175983-199931-198749-180695-170943-166886
1633.43-112807-19568-63917-131761-147105-140249
1639.21-116844-138921-162116-173287-178512-130558
1645.00-49301-84095-139734-167024-159964-143066
1650.78-24926 140592 85500-75395-162687-207967
1656.57-215047-207542-208900-223564-196001-142576
1662.35-163656-215498-217573-208814-197075-170125
1668.14-134180-162205-167313-164924-189387-179637
1673.92-109262-112871-172964-195369-191818-173668
1679.71-178270-189220-156688-78073 34412-34564
1685.49-163106-185830-189608-186635-190746-210479
1691.28-219213-212234-205823-99438-42511-151737
1697.07-153326-76644-2577-63339-191172-227506
1702.85-200127-183032-169481-162276-184715-203239
1708.64-201163-175268-177156-184534-161451-109527
1714.42-89353-68880 14571-11987-85553-128291
1720.21-148299-151414-133936-121234-125120-132198
1725.99-137930-132738-118851-102132-110108-117600
1731.78-44800 44866 29238-69234-104278-90513
1737.56-55996-2923 2103 119 22277 30856
1743.35 46021 79323 87625 88628 105044 131789
1749.13 146950 190244 173041 129231 120321 102971
1754.92 103030 97823 50426 23979 22840 31155
1760.71 54237 40291 19516 18439 24358 57428
1766.49 117622 153351 158145 212354 302540 405651
1772.28 443235 435282 476996 517975 537134 546935
1778.06 555510 569941 595528 608458 592628 581144
1783.85 605179 573444 492409 414453 348921 303131
1789.63 248879 216986 264152 281785 292872 326607
1795.42 353966 367922 373627 375627 344797 330455
1801.20 335609 328971 312924 301009 271289 212769
1806.99 134770 53274-24308-93069-154820-209813
1812.77-270380-313432-341850-365388-388369-400567
1818.56-401255-404762-433090-450174-455900-433909
1824.35-429703-472089-483206-469043-451600-432352
1830.13-456254-476193-484762-485398-479269-479021
1835.92-477537-467147-461361-469775-475304-450630
1841.70-408531-372359-368008-383143-369321-365377
1847.49-349942-325403-285117-239570-203443-142280
1853.27-63307-5898 15717-3864-58028-70679
1859.06-34735-24630-28013-6566 39758 44796
1864.84 22036 32431 41757 31122 15123-6740
1870.63 5705 18484 29422 55759 106564 164066
1876.41 211983 263979 297922 347291 401550 434329
1882.20 467638 506973 506102 515625 566837 560092
1887.99 530847 564307 574990 527780 497869 485292
1893.77 435506 392488 344441 286728 259340 273069
1899.56 258916 221706 243864 278779 268805 284554
1905.34 325113 333128 351652 386635 378399 384937
1911.13 409662 388884 371901 364538 326371 287962
1916.91 260642 196604 135601 95971 25191-61023
1922.70-132376-202391-246202-266706-271086-265135
1928.48-263273-281107-291196-287495-279321-285834
1934.27-294637-296841-295261-294829-288206-291175
1940.05-304018-290437-285500-298215-290662-289477
1945.84-284057-289454-297518-282764-274482-274278
1951.63-264223-265510-273016-279796-284534-289276
1957.41-283085-276655-285450-279822-280979-274282
1963.20-272899-282320-286640-280098-269534-264583
1968.98-272654-276772-268324-254854-231534-265162
1974.77-304482-283332-264703-258608-255585-241524
1980.55-245890-260122-262140-249137-237004-244193
1986.34-256955-245791-236040-239930-245311-245590
1992.12-254719-250647-235955-234568-250060-253734
1997.91-253988-250484-253757-264062-265920-269039
2003.69-261689-239184-227235-233575-252480-260939
2009.48-258024-254722-261390-266324-254337-248078
2015.27-266560-268949-263397-261202-252855-249697
2021.05-270342-284495-279271-267725-258941-259568
2026.84-265864-251281-252061-258902-259085-250963
2032.62-252848-269472-284355-285078-281077-278947
2038.41-275785-267530-261576-264258-279851-281013
2044.19-281102-269643-257552-258049-264826-268187
2049.98-277022-281261-290948-289030-278258-283820
2055.76-292652-295587-297453-287123-269470-272188
2061.55-281366-281363-274881-269020-279308-285143
2067.33-274723-276422-285068-276332-272625-271960
2073.12-276906-290943-281682-271648-288276-294212
2078.91-295584-288094-275995-270947-257700-256114
2084.69-264075-272805-283169-279472-275740-255769
2090.48-254238-269276-266698-248980-256469-271808
2096.26-278380-274033-262047-266209-280359-280349
2102.05-274954-284641-295565-292692-274560-257514
2107.83-282931-289761-263103-241051-277583-300165
2113.62-280375-252504-276179-285788-271099-245924
2119.40-255011-272739-275215-249275-244412-264147
2125.19-273247-256203-246731-264632-276731-262168
2130.97-244577-244278-246009-247238-259732-272289
2136.76-274410-263473-255979-259760-248242-234598
2142.55-236769-243650-250247-246308-243817-243381
2148.33-251572-237468-235977-253356-248160-226591
2154.12-221017-236475-244002-236512-246185-251765
2159.90-229427-214251-242046-261633-239886-211336
2165.69-221391-224031-195461-196002-229528-225720
2171.47-191051-197554-210845-180120-150119-157158
2177.26-152169-119886-113953-126580-103726-61180
2183.04-51730-33231 1901 21155 28569 61230
2188.83 99079 108040 117639 161929 203846 237590
2194.61 282053 324255 357809 387491 424612 470957
2200.40 514450 540241 574981 608603 637811 677737
2206.19 702056 708384 722055 733756 747777 756897
2211.97 741295 713266 696045 673159 629845 562636
2217.76 492706 416821 313206 201161 73756-4724
2223.54 45129 158344 276878 406821 537129 652847
2229.33 757028 847100 923600 992517 1055363 1097182
2235.11 1110593 1115564 1101732 1060627 1016190 968466
2240.90 902000 820128 721355 634169 539604 450916
2246.68 364733 277044 188610 125750 75115 12673
2252.47-54589-88808-126581-169222-202479-216102
2258.25-226370-235791-230412-240688-247654-241878
2264.04-249471-251029-247642-233293-238171-255706
2269.83-242518-228999-240410-242678-239050-253214
2275.61-277279-279061-282714-268179-249438-245004
2281.40-249258-243572-244411-259582-272471-275641
2287.18-270813-257086-245774-235577-249220-260710
2292.97-266931-253349-247744-257157-244861-233695
2298.75-234628-240630-255342-240382-239934-228005
2304.54-229782-212500-216709-198008-184519-188562
2310.32-163804-162207-124418-148998-103619-89991
2316.11-42945-56008-10991-18210 57580 65783
2321.89 117743 125492 190237 204684 250393 252565
2327.68 278927 279036 321963 327801 354137 369916
2333.47 398485 394830 402086 393377 391187 377493
2339.25 377099 359401 343831 309926 255118 187628
2345.04 131811 68461-573-64693-43543 56351
2350.82 162356 252770 335834 430473 535050 614733
2356.61 675736 733335 772883 789550 811405 833312
2362.39 838353 828740 819185 782711 721723 664790
2368.18 619340 550207 451413 373893 341154 284526
2373.96 193721 128767 94598 44757-35555-106055
2379.75-139910-171201-189565-198380-211482-213685
2385.53-200453-201061-226309-233136-228584-221848
2391.32-231348-239931-247140-267352-276773-270918
2397.11-266768-276050-279685-276592-272153-260726
2402.89-262040-276874-279346-275148-268250-253118
2408.68-259720-278792-267685-254863-271673-284199
2414.46-294234-286694-269722-261713-250923-266106
2420.25-265467-254432-262298-270336-280060-280755
2426.03-277897-271413-259338-250922-260220-262183
2431.82-253412-257212-252698-239311-241506-252393
2437.60-239915-229923-252879-250276-241132-244801
2443.39-241446-245759-232829-225642-224303-228405
2449.17-240456-245676-219338-208972-237577-240940
2454.96-221155-217347-215017-207452-211324-213041
2460.75-210223-213201-186670-161380-153872-151246
2466.53-136309-109442-92725-62257-29273-13910
2472.32 5949 32138 67437 117119 146216 180046
2478.10 236803 291731 340791 388211 437600 486490
2483.89 545410 604935 659326 716468 773858 829914
2489.67 877204 896295 903000 919455 922115 905382
2495.46 881208 838681 794735 752434 703487 649670
2501.24 575284 498611 420734 341890 243746 154181
2507.03 75276-12987-88411-147885-186841-206917
2512.81-213058-232348-256623-264441-253385-244900
2518.60-260260-269537-267494-259800-265564-289648
2524.39-296578-288035-292956-298477-293863-271601
2530.17-259019-268967-278614-287850-290943-293757
2535.96-290469-278173-266778-264330-257374-252643
2541.74-252610-251514-261128-271331-260291-252812
2547.53-263866-266062-267980-258495-255323-269420
2553.31-278153-261362-259940-270132-267805-267990
2559.10-273983-256675-263208-272990-265328-262803
2564.88-273487-267156-251247-240802-234120-236212
2570.67-253842-258928-250231-243833-243294-235327
2576.45-231490-223896-224636-241491-262811-269023
2582.24-272026-260273-264456-251514-259080-254618
2588.03-251060-262161-265432-260993-255641-258427
2593.81-258874-251128-257353-275583-278546-259209
2599.60-249761-256065-253547-244931-254930-257541
2605.38-255620-252708-245825-248089-265085-274682
2611.17-265782-260381-276081-278734-265298-280218
2616.95-302727-297061-296536-284876-279553-285656
2622.74-287410-284956-288417-282508-274905-270213
2628.52-267015-264562-261405-260107-261602-273086
2634.31-289346-300391-300480-293186-290520-292224
2640.09-309142-304861-297858-283136-282347-297331
2645.88-303316-303773-306558-309615-318212-322524
2651.66-301446-292655-305028-302013-305120-300466
2657.45-301717-311560-315801-316617-322474-336009
2663.24-332631-315848-310154-296426-301411-312447
2669.02-327916-328818-305744-295697-302580-309094
2674.81-304641-288446-267828-269013-308867-334523
2680.59-325422-318677-316263-296619-299572-308361
2686.38-302244-284514-294631-299647-292357-311027
2692.16-321546-314589-316111-301116-296416-302474
2697.95-323493-344222-326762-294996-281105-265138
2703.73-261024-276009-271765-273734-288816-296594
2709.52-322197-314867-299845-292381-295744-287752
2715.30-291244-299139-293420-292682-285617-270236
2721.09-294449-301419-294724-286006-262365-254123
2726.88-259302-263012-270202-252081-235414-228611
2732.66-231408-234310-219471-221877-238294-225632
2738.45-238642-245684-223354-198715-190626-187461
2744.23-185885-186866-196969-197795-192855-192268
2750.02-197983-210099-215486-214389-230614-233993
2755.80-232161-236144-230825-229285-241454-250906
2761.59-254732-263492-254398-254748-266040-264165
2767.37-250518-243672-239350-227911-224138-222731
2773.16-215235-222211-236563-222472-218853-230824
2778.94-220423-214755-236382-227778-209702-220151
2784.73-233622-244735-237478-208384-225952-249224
2790.52-235878-252203-273658-251906-229162-222534
2796.30-227055-242488-281414-278293-267804-253159
2802.09-245625-242314-239736-240090-247439-277551
2807.87-290709-277225-259987-252499-262912-271999
2813.66-281007-291549-292251-273174-277086-276469
2819.44-277736-284855-273917-275943-290385-272181
2825.23-261072-248467-259457-282449-279347-273764
2831.01-284861-275647-273866-268129-251979-270404
2836.80-297500-277761-258174-264523-269870-254167
2842.58-254908-259254-256143-279681-287956-273507
2848.37-268483-258755-258865-253110-237123-227069
2854.16-224457-228270-237007-209056-208025-220391
2859.94-211400-193190-201420-199073-192804-185256
2865.73-168764-169117-165963-151096-147790-157575
2871.51-161427-152390-134605-125228-141434-146701
2877.30-128862-114035-111226-125348-125081-109190
2883.08-99813-98974-91542-86336-73793-69150
2888.87-61671-58612-51677-54462-60220-30825
2894.65-19543 88 9947-3889-6254 13379
2900.44 3510-13465-9095 4235 3193-7344
2906.22-26024-39429-38816-25258-43461-78645
2912.01-101293-97373-115076-153382-173567-180214
2917.80-171070-177206-192167-203761-210569-196948
2923.58-206839-205710-190147-191626-200369-201339
2929.37-196139-192367-193012-187734-201113-189240
2935.15-164685-147047-151760-172178-182722-168890
2940.94-164686-180618-164733-143322-158997-164310
2946.72-178286-167404-153207-186113-200676-171772
2952.51-169558-177670-175460-171191-197176-208135
2958.29-214778-220539-235620-173789-115442-151416
2964.08-164613-170590-178957-191945-198583-193023
2969.86-184515-175167-173998-149806-134178-152424
2975.65-175390-191697-195415-161828-126619-115606
2981.44-117927-115438-117297-127890-136298-134692
2987.22-140072-146396-146951-155857-154877-148474
2993.01-154634-152817-161928-184017-200653-201246
2998.79-194601-188833-208836-238825-228151-223546
3004.58-244359-246029-236734-230787-232024-244821
3010.36-254664-265857-280333-279800-277427-263599
3016.15-263834-257002-253920-258537-280757-270389
3021.93-266187-280392-297967-285983-283627-286200
3027.72-271650-252142-267047-292467-296199-298586
3033.50-286844-273484-283220-290128-291942-301548
3039.29-312787-291726-262411-271647-298645-308603
3045.08-294854-294423-298932-285888-296130-299279
3050.86-286217-267791-270717-293508-318807-317600
3056.65-326860-323791-304130-285033-256036-246411
3062.43-266178-278349-293086-303255-308300-297905
3068.22-302006-305712-300472-272937-257074-256853
3074.00-260163-257771-269841-306248-323948-286574
3079.79-253484-260638-279893-265783-253525-249649
3085.57-261945-269045-288293-295234-281334-275263
3091.36-261375-232071-224199-246849-247548-213353
3097.14-214314-236701-269041-253959-232208-241078
3102.93-223696-223678-231188-239415-239404-229252
3108.72-226011-200915-185227-184640-205603-222635
3114.50-237837-250053-249153-218441-198523-192108
3120.29-190570-198934-206412-211776-238014-245176
3126.07-222089-204822-210325-200161-180277-177496
3131.86-171326-179538-187922-170849-154148-158263
3137.64-177312-188849-183549-159338-151964-163047
3143.43-155775-162579-185736-202518-204399-180351
3149.21-175316-187019-185087-167332-162503-146792
3155.00-154318-175570-186759-185305-179645-169466
3160.78-180752-178037-156864-155534-161422-168750
3166.57-165461-153679-162778-171796-171089-174564
3172.36-173153-155719-166593-178019-190069-197484
3178.14-194581-170950-170586-181267-179046-160489
3183.93-140378-148255-160414-183896-194110-193242
3189.71-193876-190448-190068-197594-186241-191195
3195.50-209681-169122-155675-158467-161273-158363
3201.28-165626-189454-220704-239775-228146-206732
3207.07-200626-191747-188753-181603-172668-144883
3212.85-150788-162179-171874-191336-229434-260947
3218.64-223407-197465-197303-173472-159975-155335
3224.42-158131-176181-184268-192653-189800-187196
3230.21-179399-162119-152419-156651-175499-184649
3236.00-185847-177566-192561-209569-177595-139339
3241.78-151300-173914-199076-181581-171117-176904
3247.57-164721-142951-119467-124042-160713-178578
3253.35-168802-129804-118022-122836-126549-132564
3259.14-146482-140553-138338-138047-128478-122379
3264.92-139268-146478-137901-151109-181071-167433
3270.71-148212-137238-130399-140455-151970-142592
3276.49-139917-128728-121370-124390-132873-145814
3282.28-149403-128076-111477-118221-125572-111997
3288.06-102989-116899-162090-189011-179286-162483
3293.85-143423-114760-112006-124982-152315-166178
3299.64-180571-175716-159827-156412-178100-172627
3305.42-147724-142508-144384-163654-185045-168234
3311.21-163132-155499-131543-165568-189124-164949
3316.99-168424-178216-190774-192739-196926-193582
3322.78-169242-155303-173764-177480-178378-159778
3328.56-148762-169188-179880-164422-175196-205051
3334.35-215056-199347-203636-202269-185950-205022
3340.13-211214-190045-164631-139152-166124-179266
3345.92-197747-218016-232792-209489-195570-198143
3351.70-210885-233287-254264-238934-210342-196466
3357.49-191059-214292-240207-231214-240286-247325
3363.28-245051-231402-223244-225687-244296-233606
3369.06-213724-230843-260004-247960-227101-242968
3374.85-262118-224979-205032-209228-216090-246707
3380.63-254296-223141-222733-221546-215244-193989
3386.42-209014-207936-204944-208074-209902-215396
3392.20-240262-246938-230594-198211-201228-233096
3397.99-226663-236534-259981-259083-260921-254799
3403.77-243621-254390-245016-226692-213446-219619
3409.56-216103-202858-213479-209178-218151-245646
3415.34-225725-209248-249308-249776-217554-226862
3421.13-251317-249409-247507-260657-247379-219377
3426.92-219197-215606-210106-208044-213059-210128
3432.70-210626-236326-258023-241025-196532-196866
3438.49-230393-226424-229713-214497-209673-217381
3444.27-219997-205940-206715-209298-222760-245515
3450.06-242676-242617-230166-220695-201263-161914
3455.84-190607-233261-220346-195497-210441-241726
3461.63-232561-211684-218122-228822-210390-197771
3467.41-202871-204041-208029-221189-213736-206565
3473.20-244723-237903-213430-231095-236756-210502
3478.98-207363-218246-218682-206614-211296-243869
3484.77-257422-239142-243733-229999-221157-218619
3490.56-210115-205603-213800-210833-222580-245399
3496.34-249550-228801-218833-214704-206004-190875
3502.13-199303-246718-277816-295453-292242-274901
3507.91-287498-301961-306036-292178-281855-262500
3513.70-279284-304234-315428-304087-299518-313367
3519.48-297520-267726-267187-270736-261065-282917
3525.27-301836-290752-289521-291242-311467-334549
3531.05-322260-274413-264469-246830-260982-303513
3536.84-311178-326208-351268-364214-346783-300695
3542.62-261588-233109-218895-234852-250099-249097
3548.41-276018-300967-312459-314068-291240-251527
3554.20-237508-226815-229312-242460-251634-266931
3559.98-269864-248169-225434-229302-228478-202811
3565.77-206081-192249-215809-231064-219390-215504
3571.55-217723-218298-230533-236950-238159-235576
3577.34-207217-202530-216957-219220-216479-233989
3583.12-218956-199321-182405-176163-189390-183500
3588.91-188215-206672-239921-250993-244451-208759
3594.69-201834-229011-227119-222609-237841-223073
3600.48-242246-254194-258853-260429-266236-269613
3606.26-254505-217852-173051-214313-262245-236882
3612.05-232101-249431-277124-290839-285362-261881
3617.84-228899-209034-247673-259085-271246-289120
3623.62-274260-235834-221867-211196-204519-185113
3629.41-212780-263228-306343-325852-353742-362426
3635.19-335339-282714-238109-220309-239093-241393
3640.98-255367-277438-310186-311808-277201-251762
3646.76-252089-209572-186001-229919-266459-304035
3652.55-326271-346274-309635-262751-296729-348635
3658.33-357051-340250-315990-319786-320047-327633
3664.12-345091-328810-326662-323051-280315-217591
3669.90-201928-290760-309585-269056-213924-192155
3675.69-261541-331454-319872-309070-328233-314011
3681.48-273758-277066-299896-304786-319097-287216
3687.26-205238-277730-336641-283086-275015-304177
3693.05-346264-354648-333607-324991-334252-342065
3698.83-334614-323618-298721-298788-310633-292841
3704.62-263954-255136-272209-244851-242297-283804
3710.40-249174-217594-286175-315547-317285-324359
3716.19-312172-306896-307412-296533-283178-271887
3721.97-274799-272686-264458-264469-274380-287467
3727.76-302726-315874-296786-234679-231350-273402
3733.54-240617-240693-239136-237290-274565-283760
3739.33-284922-292601-309767-256951-119532-139354
3745.12-293357-313866-280495-194993-200001-248825
3750.90-173104-221118-318166-311282-283922-261975
3756.69-290430-309084-315911-319522-332429-343036
3762.47-336125-318027-289179-277407-297371-316430
3768.26-288573-269761-322354-335312-323038-303243
3774.04-305959-309769-303159-307113-314597-323187
3779.83-341292-338060-340636-323236-304030-311326
3785.61-331473-347100-332092-296548-286513-303803
3791.40-329028-323576-313234-299922-288319-305240
3797.18-339941-332868-306612-192975-189161-275217
3802.97-295538-298844-279436-214867-244721-289139
3808.76-309879-334621-338458-335741-336752-299202
3814.54-207810-190576-304030-322997-294151-244357
3820.33-214848-242394-285611-311124-340442-314971
3826.11-308202-324244-325652-302360-280108-270681
3831.90-300064-305157-279924-299909-286018-199811
3837.68-259280-318558-281711-282868-311494-287924
3843.47-294719-322731-326296-317612-318100-322343
3849.25-314172-259374-203963-174140-78642-170297
3855.04-308011-335329-331886-328602-373790-359444
3860.82-318561-346738-377080-333513-306839-320744
3866.61-326404-317432-281197-274567-321144-356308
3872.40-368999-356525-382369-386837-367686-349199
3878.18-339572-321609-344844-369792-378309-395921
3883.97-356643-282755-324739-362339-371088-365181
3889.75-331472-308951-347039-349080-366103-387856
3895.54-407133-380529-354339-338213-334587-323075
3901.32-333606-312236-279010-315680-353391-378218
3907.11-405480-402514-395996-394528-387148-371363
3912.89-367985-382241-391069-359846-371819-400344
3918.68-367687-358959-384054-357970-348056-353838
3924.46-339114-323671-350264-363601-355294-370826
3930.25-382765-362790-351270-356039-343064-324828
3936.04-325677-341858-356180-329253-324503-325093
3941.82-323121-338281-376918-369550-339909-336777
3947.61-342584-308192-285027-308912-326396-344768
3953.39-367854-353040-339988-345681-322445-288037
3959.18-304028-322778-355237-378204-355815-315806
3964.96-325706-339854-347062-355749-336881-309940
3970.75-307529-317423-325566-297707
##END=
