##TITLE=Tetrachloroethene
##JCAMP-DX=4.24
##DATA TYPE=INFRARED SPECTRUM
##CLASS=IUPAC A
##ORIGIN=NIST, Analytical Chemistry Division, 301-975-3108
##OWNER=COPYRIGHT (C) 2000 by the U.S. Secretary of Commerce
##DATE=00/02/01
##$SPECTRA VERSION=1.10
##$UNCERTAINTY IN Y=2.0 % relative (B=1.0E-04,C=1.6E-09,D=1.3E-13)
##CAS NAME=Tetrachloroethene
##CAS REGISTRY NO=127-18-4
##MOLFORM=C2 Cl4
##MP=-19 C
##BP=121 C
##$NIST SOURCE=QUANT-IR
##SPECTROMETER/DATA SYSTEM=IFS66V (Bruker)
##INSTRUMENT PARAMETERS=KBr Beam Splitter; MCT Detector; Multipass cell
##STATE=gas
##SAMPLE DESCRIPTION=Tetrachloroethene Primary Gas Standard
##PRESSURE=101.3 Pa
##TEMPERATURE=23 C
##SAMPLING PROCEDURE=1 L/min Flow
##RESOLUTION=0.9640
##DATA PROCESSING=Happ Genzel Apodization
##XUNITS=cm-1
##YUNITS=(micromol/mol)-1m-1 (base 10)
##XFACTOR=1.0
##YFACTOR=18.189E-13
##DELTAX=0.4820
##FIRSTX=575.17
##LASTX=3974.605
##FIRSTY=5.78E-07
##MAXX=3974.12
##MINX=575.17
##MAXY=.0014508
##MINY=-8.87E-07
##NPOINTS=7052
##XYDATA=(X++(Y..Y))
575.17 317923 693273 466831 43821-344429-281455
577.58 143991 379400 540095 182888 73994 195847
580.47 248214 177458-77774-202507-119955 183890
583.37 19053-186209-15553 127387 29450-158802
586.26-77593-106812 162420 381733 335400 413983
589.15 369474 115221 10538-115415-87682 75216
592.04 208652 35765-55329-51063-10279-52531
594.94 37206 103537-65836-139885-21430-71499
597.83-101671-16393 335253 286631 79217-36520
600.72-109753-136384-180189-149962 115608 114888
603.62 26041 16378-92532-116802 10931 110140
606.51 17638 62332 147763 197691 116141 78094
609.40 55573 7793 59659 100842 82681 69834
612.29 118965 125942 37068 149467 57191 75424
615.19 100695 57218 157513 195282 101061-72232
618.08 11733 165899 121990 43132 33863 108859
620.97 155489-19464-104044-60919-21039-37933
623.86-73163-124181-219104-98473-43078-128751
626.76-88055-51722-137304-165873-96254-37570
629.65-81784-145697-126815-249689-339183-216593
632.54-141602-142645-82563-84290-222681-266005
635.44-236445-210039-156584-156756-102285-18911
638.33 67700-8478-127921-187726-208087-123172
641.22 24033 59947-89217-175061-131228-86445
644.11-138114-199329-136870-131717-179216-111158
647.01-31332-76598-72632-60167-76656-90750
649.90-73669-210823-259900-181370-62828-83573
652.79-43095 6324-60715-71067-68765-148501
655.68-77289 33125 59945-44580-120515-69280
658.58-31663-113621-134886-33483-102850-133170
661.47-90003-32997-64678-72894-35319-94580
664.36-141468-148539-123910-88857-3255 506446
667.26 1008200 636360 203239 62379 10610-79788
670.15-97025-67824-66191-83016-71967-118098
673.04-107270-10543 51404 78821 25945-15801
675.93 10145 31486 136046 232533 258381 250811
678.83 283650 281627 288311 309798 360964 341471
681.72 381103 433896 448266 481623 585264 606382
684.61 593282 573356 513327 580407 720532 684464
687.50 546246 547517 570227 603147 676419 596478
690.40 531340 581693 591171 514426 454865 440688
693.29 453573 494135 425429 413091 422970 371963
696.18 341986 291250 249803 190768 104122 153984
699.08 151179 111132 87509-27263-116573-111857
701.97-60711-99675-120707-141683-195054-190402
704.86-171066-142559-90116-138661-137650-101209
707.75-168297-147161-114305-152248-96272-38466
710.65-97974-133348-86474-20413-81284-163298
713.54-176466-138031-166193-182949-107802-133518
716.43-190943-217301-135362-53885-17066-18784
719.32-69627-72492-112122-153660-125324-79499
722.22-110725-136187-94641-83071-98010-36353
725.11 16976 18066 21930 6071 6755 37387
728.00 55970 92450 52629 66741 80854 117204
730.90 133673 151970 165428 223627 391715 382497
733.79 368781 498145 588021 661431 796211 1001339
736.68 1117955 1272709 1585555 1861792 2124869 2484556
739.57 2916166 3392676 3866240 4364780 4914118 5496218
742.47 6221078 6978544 7790907 8669058 9648505 10706112
745.36 11753542 12662196 13699683 14966690 16187833 17224487
748.25 18225296 19194025 20410687 21796984 22731577 23178736
751.14 23904844 25513810 26661410 26253064 25777440 26394857
754.04 27749507 28579359 27392752 26531736 28259415 30684659
756.93 29161743 25654437 25106497 25993228 26657056 25360009
759.82 24270741 25051570 27214288 27398447 24175612 22480901
762.72 22743069 23221715 23703496 24207042 24978403 26083761
765.61 27422178 29105606 31337250 34140691 37695120 41844963
768.50 46786763 52632517 59433724 67214533 75820415 84864346
771.39 94758942 105502689 116560130 127480153 138249113 148906223
774.29 158954482 167427068 174303279 179980606 184993622 189689889
777.18 193508572 195835942 197257783 199553139 205035927 201949912
780.07 190697822 193261215 210739114 212522758 200472164 195876959
782.96 188824636 184621259 184879414 185876949 186899833 185213839
785.86 180929306 174036372 164471343 152462591 138640979 124003942
788.75 109333313 95566456 83086643 72298165 63546900 57243806
791.64 53282778 51442244 51751084 53742458 56991740 61403165
794.54 66492946 71692512 76741348 81408150 85332297 88566591
797.43 91169508 92820854 93007784 92540613 93773458 98513264
800.32 106462743 111653148 109200006 103092157 98362142 97023986
803.21 98832224 102285685 105045775 104033401 100674590 98637346
806.11 98104695 97252166 94453789 89839039 85075689 80522312
809.00 75416618 69515020 63255996 57126363 51048833 45154353
811.89 39605081 34525106 29839298 25575594 21797062 18482504
814.78 15669098 13308950 11310586 9676975 8356086 7270440
817.68 6424901 5897225 5503417 5184642 4970572 4868238
820.57 4808886 4774517 4733773 4740992 4836666 4892914
823.46 4883672 4843441 4787686 4776858 4753986 4705817
826.36 4699605 4719928 4671041 4606655 4517423 4419546
829.25 4318431 4230097 4176727 4172729 4091319 3972972
832.14 3850158 3626776 3334365 3029406 2713130 2416338
835.03 2063386 1676421 1347340 1080845 844082 612251
837.93 391593 276014 216465 187896 154999 105656
840.82 74645 85197 76150 77186 24888-23868
843.71 14673 69116 75618 57316 3797-18103
846.60-7899-2344 13581 40193 113870 95722
849.50 22865 859 4907 8355-5379 17621
852.39 44788 48875 34572 14516 36778 70341
855.28 53178 43886-2376 6707 92143 86874
858.18 18663 12558 48294 81666 44669 67082
861.07 105202 116844 72069 55673 77772 68070
863.96 70251 66613 46554 52674 61571 64339
866.85 50666 52321 92712 93971 94953 118240
869.75 137009 184255 173695 167475 205636 189491
872.64 139843 150758 195482 242532 287714 330763
875.53 383386 405374 422950 441845 504756 629072
878.42 721477 736460 774484 897368 1050087 1154629
881.32 1248713 1448848 1652115 1831109 2085233 2359314
884.21 2693972 3045563 3377122 3790896 4246110 4807516
887.10 5448325 6118317 6874462 7700399 8583326 9543962
889.99 10567419 11670234 12896159 14257051 15665930 17128867
892.89 18705361 20401684 22154877 24027352 26069296 28318914
895.78 30756603 33502076 36571646 39940194 43764417 48167152
898.67 53272746 59145321 65931671 73705830 82631587 92868630
901.57 104542578 117730221 132390998 148586694 166572327 186483012
904.46 208181333 231551175 256808456 284029182 313167194 344254468
907.35 377081507 411343853 446704117 482809943 519289392 555467541
910.24 591140081 625506977 657906029 687917928 714903091 738367809
913.14 758126739 774003431 785854189 793443558 797109320 797637789
916.03 795217918 790914125 785297018 778571589 773019923 768511808
918.92 764893888 762313430 758433567 754488970 749136883 741054620
921.81 726945947 703019439 674483531 639698768 596218331 548628856
924.71 499698158 449607882 398397279 347113633 297258538 250440424
927.60 207862595 170294390 138166807 111441372 89653326 72143726
930.49 58102721 46787478 37632407 30233874 24161586 19172866
933.39 15110666 11854060 9273866 7243165 5675627 4455020
936.28 3504234 2784281 2205557 1762236 1414807 1142567
939.17 966081 830897 662650 558746 462648 381100
942.06 323832 263551 210216 168384 135975 124615
944.96 131177 130368 83835 54858 50264 36108
947.85 50868 68046 38635 54730 63441 29973
950.74 15488 29424 28316-3429-1096 30305
953.63 24729 9292-13910-9973 19823 31867
956.53 6220 14776 46868 67888 41910-6413
959.42-52006-34091 4520 18430 36877 57627
962.31 78787 76691 48868 27084 4767 9210
965.21 20783 10281 14820 15359-4691 2486
968.10-19379-41698-55450-66535-59014-47314
970.99-8910-8892-28732-31452-38687-33178
973.88 3194 38365 55970 98357 129873 103090
976.78 123170 166476 188641 213470 243739 287608
979.67 368200 422461 421448 427928 431727 464854
982.56 498328 539703 546262 562151 559694 545057
985.45 553701 556192 493119 450902 520641 554900
988.35 538261 555344 584348 611925 626799 625432
991.24 626080 600554 568436 539034 488167 443765
994.13 406576 353004 291692 240651 210888 177626
997.03 119920 91420 61673 44076 34547 16439
999.92 30311 54604 61047 42395 14246 46247
1002.81 103051 103122 100605 143332 193207 200316
1005.70 212540 238665 233088 237596 226781 194283
1008.60 171483 165075 174428 182193 175915 150383
1011.49 112918 83072 114017 119671 69017 60644
1014.38 81759 47923-22542-48044-27659 15557
1017.27-263-53673-71539-60634-67132-95166
1020.17-112573-120061-142665-129680-112889-135348
1023.06-175256-162403-156133-185174-200832-198876
1025.95-182429-148809-136397-138520-152899-147364
1028.85-107445-93124-127037-154569-132311-126166
1031.74-86544-49933-82895-102102-109930-124915
1034.63-120580-133025-140929-135659-148106-157650
1037.52-122959-121755-119132-128772-155129-124761
1040.42-108450-139989-134158-93585-115855-140281
1043.31-121940-107772-121988-143134-162024-163350
1046.20-201494-209106-165944-152259-173971-171363
1049.09-129970-103874-114357-102306-94739-98483
1051.99-131696-118000-96209-73994-45482-70121
1054.88-99168-111464-121386-124228-132157-124073
1057.77-104548-127924-145645-165386-166800-126000
1060.67-75932-46689-48197-62299-114255-136632
1063.56-140166-145452-130158-115228-111605-89216
1066.45-92862-98801-106435-129424-112408-87188
1069.34-99394-99503-52354-23297-56694-73156
1072.24-47766-62274-94383-71395-41532-33412
1075.13-21043 14987 85851 118282 96720 102548
1078.02 135034 187408 189885 201983 289926 348705
1080.91 340202 364520 459874 545173 593909 642995
1083.81 736797 827987 889981 1000217 1122980 1194797
1086.70 1274981 1386003 1475027 1543299 1646672 1779205
1089.59 1911357 2018260 2124906 2221985 2330549 2420528
1092.49 2483661 2603363 2746404 2866666 2969631 3126190
1095.38 3364595 3588191 3797921 4047290 4324638 4586115
1098.27 4850064 5126462 5364148 5506924 5560023 5498117
1101.16 5297422 4968990 4600795 4195658 3751924 3375425
1104.06 3106117 2968471 2961071 3066460 3153573 3173434
1106.95 3219769 3311873 3349993 3389817 3408523 3388661
1109.84 3349404 3320216 3307490 3301870 3311216 3323715
1112.73 3369128 3450902 3566532 3716701 3840830 3972396
1115.63 4114186 4285181 4492993 4696455 4861308 5013117
1118.52 5201292 5397517 5555271 5672288 5761516 5828548
1121.41 5858990 5887057 5945340 6018415 6075682 6082582
1124.31 6041210 5971112 5877974 5768454 5674565 5597000
1127.20 5563616 5521707 5398766 5230819 5008510 4788449
1130.09 4658712 4580033 4460172 4322569 4185753 3998864
1132.98 3795280 3606750 3433100 3277282 3182810 3141396
1135.88 3100584 3049538 2990757 2986004 3018321 3037692
1138.77 3064420 3148867 3266512 3352370 3404585 3479465
1141.66 3541856 3609149 3696211 3745394 3813367 3893826
1144.55 3924514 3926282 3954310 3996592 4011727 3986573
1147.45 3944035 3927839 3960668 4001136 3962451 3936765
1150.34 3891247 3793818 3681955 3638357 3590302 3485273
1153.23 3372866 3274264 3172592 3058680 2950314 2827468
1156.13 2662717 2511829 2383205 2220546 2052065 1893514
1159.02 1743107 1596964 1506874 1404775 1296828 1218561
1161.91 1167554 1109393 1040432 1018383 1043876 1036232
1164.80 1013317 1044548 1073986 1091277 1134178 1166257
1167.70 1141889 1146052 1180855 1215923 1270018 1290377
1170.59 1278029 1274486 1276436 1259002 1220228 1217313
1173.48 1234372 1220138 1220041 1226886 1180081 1122348
1176.37 1113387 1105769 1053828 1034160 1101981 1122810
1179.27 1048187 1025741 1019388 941784 875618 884905
1182.16 880320 853095 815946 732583 638222 567520
1185.05 498997 428142 325673 263270 243406 224298
1187.95 204819 187956 172363 149910 131920 127754
1190.84 130514 124433 143575 144500 148663 158849
1193.73 125420 94599 111546 129973 141846 160198
1196.62 170182 147474 117316 110595 107439 101003
1199.52 88019 81302 85039 100249 96687 78748
1202.41 78585 79834 72526 50022 50909 91744
1205.30 109017 106451 79621 52673 49587 33295
1208.19 34235 47724 76975 79861 68362 65274
1211.09 46506 38534 49558 79170 77705 79837
1213.98 122565 150907 150397 155725 193642 216353
1216.87 228879 244327 276728 316157 338265 352750
1219.77 374579 383671 368487 394068 457661 484925
1222.66 487595 490845 513639 530033 546262 540618
1225.55 535942 567953 585912 595100 598149 596383
1228.44 618526 626129 610538 576775 530808 521459
1231.34 547796 540115 505867 492622 492450 477536
1234.23 427730 395979 400732 403235 391540 367110
1237.12 357558 342535 323932 304663 293440 311053
1240.01 320065 323154 332772 345093 343202 321698
1242.91 325529 366266 385411 402425 427822 428337
1245.80 419418 427567 471500 517242 556326 588504
1248.69 629667 669020 705581 759606 778936 802903
1251.59 842385 870253 896858 926535 973575 1024041
1254.48 1044890 1044952 1037341 1042639 1053958 1075825
1257.37 1094324 1137665 1145335 1138373 1140363 1137122
1260.26 1112038 1109759 1105539 1101077 1102539 1149019
1263.16 1173480 1106095 1048819 1060060 1058358 1006249
1266.05 948710 937058 908852 861398 814997 755374
1268.94 689826 671705 629609 585276 554093 513219
1271.83 460616 420297 366627 307655 288005 275584
1274.73 262203 283353 280188 244291 208552 175240
1277.62 136661 140902 151938 161115 134607 98896
1280.51 87914 75696 10130-31618-37013-33377
1283.41-35405-16302-18672-35828-20400-15575
1286.30-25455-33053-27091 14278 56404 85755
1289.19 89481 71399 71311 92257 113022 135876
1292.08 158101 192250 225916 233691 220408 226883
1294.98 228453 232711 261559 287394 286937 295982
1297.87 305555 323171 314713 296369 286041 305334
1300.76 304739 295348 290233 281176 235507 199189
1303.65 181944 162552 165305 171290 163691 138452
1306.55 119760 111204 82463 57862 33427 5539
1309.44-22867-48056-38348-38416-54473-100244
1312.33-123702-113119-116386-119261-114746-103450
1315.23-122506-144979-158205-167743-181658-180685
1318.12-149535-116661-124498-151242-154533-172455
1321.01-193127-197574-191187-189074-171318-156881
1323.90-134267-124148-155996-183537-186699-159123
1326.80-146607-145554-113293-74999-79165-118562
1329.69-130963-128092-109127-78508-71593-57235
1332.58-40423-32893-34561-55219-37394 13601
1335.47 51320 65980 78962 106235 130931 144474
1338.37 165164 185489 203380 242531 305062 365325
1341.26 411576 437179 446576 495516 543963 609740
1344.15 687295 762379 825845 903920 977371 1053779
1347.05 1094653 1132383 1213529 1318711 1440867 1556894
1349.94 1652330 1771417 1890330 1966730 2027682 2240391
1352.83 2458303 2637946 2808283 2906690 3033901 3169955
1355.72 3261685 3335792 3409963 3477273 3535122 3587522
1358.62 3597487 3579763 3605051 3646391 3698136 3706798
1361.51 3659666 3647444 3652217 3639481 3600863 3576592
1364.40 3574019 3492878 3369340 3255794 3157996 3073145
1367.29 2973139 2896996 2834603 2717413 2534990 2341924
1370.19 2179710 2036956 1930882 1833711 1685784 1552404
1373.08 1404596 1247312 1126909 1035150 918714 788425
1375.97 714599 665917 623342 555174 457041 359780
1378.87 302466 288252 297931 277303 238294 227816
1381.76 228292 223588 197611 189304 224201 243298
1384.65 248494 248584 247250 231300 231869 251925
1387.54 216467 216454 208185 204872 200299 187722
1390.44 158343 161668 175667 163936 140939 165152
1393.33 197664 252478 234246 156920 139860 142184
1396.22 155812 170113 157691 140211 159759 152328
1399.11 79491 39101 64215 73103 77256 85818
1402.01 83074 91329 92827 92567 95291 82172
1404.90 42793 135-11004 3784 11928-13840
1407.79-29787-21965-43642-53259-60158-73322
1410.69-59835-35162-42124-57392-83472-100292
1413.58-113601-118296-120878-121449-116546-115631
1416.47-113401-111870-140339-127689-56361 6974
1419.36-58056-123923-138569-149101-167761-181784
1422.26-187493-167445-165650-169375-161800-155760
1425.15-175775-188175-171299-155881-150499-162655
1428.04-163542-169189-170235-154285-147528-158537
1430.93-171008-191950-203051-163266-156872-190396
1433.83-178423-159658-156425-151574-61917 39813
1436.72-41360-131820-148433-193362-215264-210542
1439.61-210553-205593-186369-160527-158802-175494
1442.51-178801-163335-159376-174514-177906-162954
1445.40-158336-170775-180318-172686-146083-162913
1448.29-183658-174302-181074-200285-200767-177797
1451.18-161874-167986-186778-204213-216160-192334
1454.08-160824-149765-149030-110550 39968 97076
1456.97-74231-112000-83892-126942-136281-138925
1459.86-154465-196128-211120-186147-187066-196356
1462.75-167407-155916-160149-88132-82373-134171
1465.65-150285-158127-174986-169924-159122-162244
1468.54-165131-144162-126347-129182-144193-102709
1471.43-18089-53582-80878 2501-29616-103942
1474.33-124444-112102-62153-32960-79285-109128
1477.22-91147-71811-60901-63497-73948-67482
1480.11-45593-23850-46924-70341-52641-62782
1483.00-77020-88690-82881-80436-73358-66606
1485.90-85992-85718-45241-76011-123244-120577
1488.79-96248-76160-87560-102488-117308-133246
1491.68-138216-146871-163367-180896-169545-161732
1494.57-159261-138370-46538-72022-188665-207647
1497.47-206892-152085-124420-176682-214127-228789
1500.36-227026-213474-204069-216061-214563-185638
1503.25-186717-208693-199959-75606 23866-57553
1506.15 298 80891-72634-165401-143423-163331
1509.04-179287-185129-204098-203775-218063-188151
1511.93-143186-167333-193132-181607-177863-164537
1514.82-172168-183622-153454-139720-131059-143602
1517.72-177950-185438-190430-163012-114132-89125
1520.61 26824-10000-141104-114591-124860-160853
1523.50-163079-162627-156199-108047-119678-176296
1526.39-179577-136989-147113-148686-148988-152418
1529.29-150684-157073-155225-144657-118783-116166
1532.18-113973-67463-14038-14056-95795-138092
1535.07-151957-124960-85808-59880-64883-48779
1537.97 46228 217656 146457 119247 179453 60432
1540.86 7903 106006 136534 31875 5547 11566
1543.75 432 56459 85410 19703-20694-41728
1546.64-56353-57300-23798-8105-2450 23064
1549.54 46660 29099-8915-23235-15487-16083
1552.43-35253-3384 86453 144705 58706-3663
1555.32-8776 14242 57996 150185 213142 321926
1558.21 320343 170590 240577 350017 244859 99673
1561.11 64675 60490 97518 110577 101051 74355
1564.00 98333 116418 89009 77489 93162 95454
1566.89 90326 104183 112237 122125 179969 224455
1569.79 154779 103683 112544 107568 100951 101437
1572.68 121639 124050 120242 143925 196768 307592
1575.57 476606 367519 189256 150877 145959 136056
1578.46 132631 160959 175535 152707 130802 118145
1581.36 90512 80728 77160 83270 93094 104806
1584.25 77727 74212 82683 76758 91748 106090
1587.14 99337 107199 121372 112312 85136 77778
1590.03 83184 58757 63788 64554 53097 46019
1592.93 51997 75007 78009 52133 45246 48689
1595.82 43167 15774 18160 38450 26095 4081
1598.71 2851-810-28249-46249-40407-29637
1601.61-25901-50435-84162-95398-102070-110024
1604.50-103670-96341-99637-108186-113536-129521
1607.39-138891-150778-144064-132363-151805-175592
1610.28-176668-173457-162581-184553-199199-190128
1613.18-181941-165300-155856-166887-165648-99902
1616.07 67218 12741-156847-186671-170256-161925
1618.96-171113-182845-188426-183549-173922-170983
1621.85-160454-134117-80061-81392-163251-192294
1624.75-196321-185674-174944-173560-164719-139396
1627.64-149039-189676-192493-194679-218580-205233
1630.53-181754-179196-176381-165303-167974-170613
1633.43-171238-146472-68228 51874 45257-103527
1636.32-146485-130597-125684-152205-167582-154178
1639.21-110049-94329-123588-141201-156264-169393
1642.10-167121-171965-175387-181243-187283-175561
1645.00-68421 33681-46534-109428-116952-140074
1647.89-154733-190791-169964-149041-150521-156637
1650.78-149907-79595 120075 190249 236721 99156
1653.67-61385-71912-136320-171184-195991-210962
1656.57-224932-220494-209641-201595-207117-197884
1659.46-219267-233269-229172-212058-173495-109644
1662.35-94807-180686-214608-214629-230872-221256
1665.25-212661-201178-206083-199370-199620-172350
1668.14-154441-98987-115001-189704-199240-166184
1671.03-136783-158457-180060-193528-208197-197406
1673.92-168485-87377-34729-106895-172834-183574
1676.82-184726-200516-199851-198828-187162-164948
1679.71-154910-175150-204460-196482-185114-163392
1682.60-119237-109859-59497 120475 148955-81510
1685.49-161642-175104-182223-194158-185250-184616
1688.39-192356-193826-182331-177837-192719-223371
1691.28-228824-217650-213233-206234-210465-223150
1694.17-215690-143732 57175 66570-143454-215032
1697.07-193758-148908-112261-101651-30860 43251
1699.96 31901-36162-163027-222039-240119-233657
1702.85-219310-202679-175620-167939-200767-185784
1705.74-128682-144291-196461-185080-178015-214060
1708.64-224209-201197-187247-170940-157905-170481
1711.53-198966-191836-176752-171327-143568-108308
1714.42-70707-60421-112682-129622-45003 117474
1717.31 45095-47889-45681-88981-115271-138243
1720.21-140226-147544-157100-156006-154762-127878
1723.10-114888-122577-120939-123075-130302-131890
1725.99-134751-140402-144178-132396-119161-130410
1728.89-111930-89224-91827-109022-125803-133288
1731.78-128116-62326 67350 33354 60248 114011
1734.67-41709-119341-111397-94122-100798-98978
1737.56-84989-57041-39550 13152 44445-9768
1740.46-29626 4436 14986 19793 38134 36229
1743.35 20400 32814 67474 97048 91907 80102
1746.24 85073 97195 83396 87421 133766 145959
1749.13 139291 124886 139333 227698 243359 157419
1752.03 120865 126548 126255 124894 115193 102943
1754.92 85716 92359 121705 124943 76542 35180
1757.81 16488 25668 27259 19347 22376 22635
1760.71 32337 81342 65163 36775 18544 4598
1763.60 27720 26499 4449 20826 36037 47183
1766.49 80696 112888 170380 175327 130377 144905
1769.38 174590 198836 250985 318838 327574 409052
1772.28 504999 444297 409304 426123 439661 480622
1775.17 515301 519298 529049 538490 545849 546639
1778.06 547321 559691 559896 558652 583566 605685
1780.95 602522 611857 620017 595447 565640 566185
1783.85 582545 629884 630950 575770 527964 490876
1786.74 453975 414570 372127 346632 316052 307147
1789.63 286784 258451 209945 173111 209606 313522
1792.53 307444 252025 271692 300142 307746 324565
1795.42 344805 358459 364827 371593 370369 367876
1798.31 373208 397292 381327 321415 315497 340766
1801.20 333956 329912 345261 331596 319651 308896
1804.10 300952 311488 299868 269440 249038 224106
1806.99 176239 125834 99293 55070 12429-33299
1809.88-61919-79029-134437-170445-170438-197259
1812.77-249638-281880-288961-318541-334681-337695
1815.67-355782-362128-378754-395041-395974-396961
1818.56-411779-406003-390790-389631-419403-441189
1821.45-451923-444102-451100-472010-454787-434913
1824.35-413301-394735-452834-498028-492242-482654
1827.24-475695-464500-464708-463025-441851-401813
1830.13-424618-477325-480270-469532-474892-487742
1833.02-500704-478038-480908-482660-470950-482076
1835.92-483406-473266-482086-466479-451348-463677
1838.81-463094-464754-478360-487170-473142-452074
1841.70-435130-395323-390637-388656-325635-358282
1844.59-400698-392655-384286-349998-361730-379418
1847.49-365157-349477-331271-330267-320710-285198
1850.38-254671-231220-225633-207878-191830-146854
1853.27-90633-68775-23323 11890 5212 22171
1856.17 21651 10735-25072-69635-99173-84420
1859.06-46833-29101-8597-25296-36731-24090
1861.95-32852-17382 13636 51484 73358 53821
1864.84 21090 5719 21360 32626 43086 62798
1867.74 29904 13771 42882 26690-9834-16937
1870.63-19256 13582 29112 12820 14313 27028
1873.52 45170 50365 61021 108177 147774 166616
1876.41 187869 199333 240442 279954 289565 282350
1879.31 308884 350908 384412 402995 423814 441337
1882.20 439324 458888 487777 530548 527788 494547
1885.09 490075 502217 530938 583672 615831 569108
1887.99 505037 510445 548059 556502 596519 610496
1890.88 548554 513272 501099 492826 484779 518163
1893.77 478411 405788 406071 407144 377046 338387
1896.66 322961 278093 253074 251202 256160 274869
1899.56 300306 274689 216388 205442 216912 224746
1902.45 282987 311668 271639 253874 262491 268862
1905.34 310355 350249 335162 325604 331650 334750
1908.23 372872 418115 397804 364807 357432 376107
1911.13 409601 433088 411108 382302 364239 367720
1914.02 373494 382633 353174 322702 299780 280924
1916.91 267556 287496 248542 182576 151873 129925
1919.81 116057 107524 74052 39048-32397-76862
1922.70-86144-125568-177347-206004-237700-251388
1925.59-255240-270245-280374-266080-269612-272173
1928.48-256181-253069-265459-289810-299015-281058
1931.38-295134-298773-273578-274253-280884-279955
1934.27-299562-297483-288372-304379-299542-285174
1937.16-299310-298072-292584-291232-278590-279726
1940.05-304687-317060-310329-284229-269686-278978
1942.95-297249-310956-302905-277862-281162-298275
1945.84-297106-278000-271820-284752-308178-308607
1948.73-290673-276104-275469-271060-273321-281430
1951.63-277064-256951-249570-266320-286812-261292
1954.52-269152-289332-289564-274339-282119-299465
1957.41-294921-282107-273877-261904-282972-304066
1960.30-284948-263856-278689-290900-283092-272427
1963.20-261079-271083-284401-277557-286447-295579
1966.09-283267-278696-275234-271806-262156-260130
1968.98-262933-274096-285191-278502-271198-268473
1971.87-261955-263700-251552-215539-198973-259828
1974.77-336202-318537-291545-278648-273275-259191
1977.66-261092-252184-262426-264600-248764-232640
1980.55-232125-248666-253177-260648-272470-263609
1983.45-254774-251125-244356-229946-227546-241710
1986.34-263118-259948-263204-238967-233892-239747
1989.23-230259-233242-254970-251809-234040-241379
1992.12-254198-256090-261534-248996-251401-229179
1995.02-222677-231226-244138-253443-260044-251041
1997.91-249442-259056-255545-246176-248705-250629
2000.80-254635-273703-274498-252732-264040-276962
2003.69-275215-262948-250656-236670-227695-223390
2006.59-225405-227790-243505-255931-266140-256226
2009.48-264276-264052-246861-250060-261774-262278
2012.37-257310-275572-274058-253790-230629-238591
2015.27-266995-266049-272978-281437-258611-253634
2018.16-267855-267799-256965-252267-245039-243618
2021.05-249902-272979-293335-282580-285146-286978
2023.94-266366-265089-268020-261586-246136-250421
2026.84-275718-276915-263161-236980-243536-255458
2029.73-257789-260407-259417-262380-259339-246342
2032.62-243755-251835-257729-265558-288428-285729
2035.51-285123-287424-285826-277406-277931-277305
2038.41-286365-274241-268840-267488-267117-260975
2041.30-256511-251753-278820-288805-283882-275397
2044.19-279455-286923-282749-269243-256662-256938
2047.09-253519-252713-266121-270538-261484-262025
2049.98-278443-276421-281785-279508-279740-293906
2052.87-298876-299522-276006-266929-278353-288483
2055.76-288051-292984-298416-291897-297132-300360
2058.66-298005-293139-276792-259017-260941-272675
2061.55-285110-282020-279837-282049-286486-271930
2064.44-268746-263336-269019-281386-287770-290470
2067.33-288014-268648-258615-277045-290408-291045
2070.23-282837-271798-269884-274770-272142-270374
2073.12-277157-267193-275158-305439-310585-274034
2076.01-256342-267600-282624-288932-297275-299273
2078.91-289245-293083-301821-293991-279487-261510
2081.80-277075-280245-270897-249548-239665-259854
2084.69-270805-261260-257507-269865-294879-281984
2087.58-279876-278222-278718-283775-271655-250214
2090.48-239914-248307-263444-274806-284921-262671
2093.37-257590-247682-232937-253789-278781-269079
2096.26-277497-279248-275488-285384-272648-243059
2099.15-258111-270657-276389-274431-292053-285398
2102.05-276174-261351-276226-288443-294537-299068
2104.94-295963-288420-298577-287216-242189-238720
2107.83-266245-292605-303155-290955-284818-275515
2110.73-233994-207415-255473-284060-307265-308434
2113.62-299803-287069-264487-220378-244889-297292
2116.51-302031-280024-277818-278359-273548-218206
2119.40-229059-269127-268823-271491-276214-284792
2122.30-282017-238431-215567-245927-263216-259599
2125.19-275686-277992-277057-261226-229262-231179
2128.08-268251-263409-267063-290141-285246-255819
2130.97-243088-244573-241089-239352-255368-241028
2133.87-246506-247419-242166-260217-279254-266656
2136.76-275146-278887-279262-258601-249748-255739
2139.65-257832-260300-267848-252148-229357-221848
2142.55-246645-236350-231397-241028-259177-251792
2145.44-244562-247165-245406-245570-242747-229772
2148.33-254957-257077-256614-240739-210370-225561
2151.22-258054-260510-258434-247843-242815-223705
2154.12-209729-214409-231352-232454-253623-246339
2157.01-244391-228704-225799-250057-264956-255120
2159.90-245805-232338-216427-187056-217831-253238
2162.79-266844-264764-264520-245877-220969-188379
2165.69-202672-228968-245890-221851-218203-196049
2168.58-165179-176733-229592-239372-237923-238166
2171.47-224979-160352-157982-215022-230561-203625
2174.37-202359-204367-148416-112669-160492-168470
2177.26-167207-148096-154799-101956-105825-96810
2180.15-132282-142215-120727-122613-68168-53040
2183.04-34678-61895-67627-24483-20822 15294
2185.94 4653 42529 16586 12234 48119 42269
2188.83 102988 91508 142473 74302 121351 111875
2191.72 109609 181753 178009 243529 158306 287808
2194.61 213094 331182 249605 382029 299511 389547
2197.51 350345 402421 390219 425946 456435 448015
2200.40 518857 501232 565659 490768 585423 546682
2203.29 635744 568989 659463 595539 691221 642352
2206.19 743901 670123 736533 675026 735241 699548
2209.08 766388 697996 756821 734375 778964 737325
2211.97 776883 735818 735783 691063 715189 687628
2214.86 705094 661865 665543 630469 615445 549692
2217.76 528911 480471 480842 415775 373244 309392
2220.65 262471 195262 162088 59543 4478-48429
2223.54-16612 39234 106602 155036 216300 272722
2226.43 341011 401240 478861 538717 606348 648863
2229.33 703886 762893 815733 839446 887101 931793
2232.22 959497 988929 1024220 1060050 1095280 1093645
2235.11 1114138 1110659 1112142 1116110 1122312 1107262
2238.01 1091143 1056385 1033367 1013426 1002354 978463
2240.90 934776 891361 883053 829118 762983 708110
2243.79 685167 638388 587063 537725 491655 449936
2246.68 409001 363182 325392 280105 226484 180242
2249.58 155362 113477 102553 85676 44780 19913
2252.47-25449-72403-80072-86284-93120-124683
2255.36-157297-175285-177744-206936-230269-210776
2258.25-206861-233458-233914-241964-241564-220886
2261.15-215330-248180-262659-249698-235249-236894
2264.04-245153-255202-250638-251714-249116-253203
2266.93-245256-229225-219588-231687-249403-272934
2269.83-266005-232467-225046-224896-225572-251888
2272.72-247140-239498-243279-238565-229752-244234
2275.61-277730-293387-275089-268905-284631-292057
2278.50-278527-272710-257512-238014-242645-248443
2281.40-246843-247906-252926-247308-234441-232612
2284.29-255419-266668-260782-277146-282727-263726
2287.18-281384-287705-247441-252122-266086-245065
2290.07-230665-231218-231459-254952-267666-247006
2292.97-267401-280647-263939-249111-246758-232710
2295.86-252790-270412-268458-241804-211834-237314
2298.75-253462-227900-218770-237440-261705-268111
2301.65-255160-219830-236021-250284-252701-205686
2304.54-212839-248493-250841-193107-169790-236348
2307.43-258657-202416-128033-165105-239084-224558
2310.32-142378-101658-207786-225817-124714-25737
2313.22-148267-234681-168111 6363-85354-172241
2316.11-111049 82148-9988-169509-115724 140424
2319.00 58727-169152-105554 235549 190819-99301
2321.89-61542 313102 271726-89600-8961 437565
2324.79 357874-62327 83975 548817 374931-67951
2327.68 177364 628953 325822-106417 303825 720670
2330.57 259684-67893 495613 718064 114989 55441
2333.47 718752 633515 9335 271617 827549 386887
2336.36-16383 545762 753222 109768 146971 730131
2339.25 466311 3273 450815 676960 138845 149395
2342.14 615514 357361 31100 343956 392790 26663
2345.04 97320 282818 82726-32612 97532 39628
2347.93-74607-109609-77085-19163-44817 14699
2350.82 216583 149947 85081 381671 340806 139591
2353.71 506098 516366 245787 689071 700618 335912
2356.61 823837 782910 403317 950748 831040 496590
2359.50 1044474 750300 584145 1104988 673265 737897
2362.39 1110051 606900 892370 952223 603162 1017673
2365.29 752756 696473 939710 545136 773752 678837
2368.18 545934 749940 493407 611982 508255 407856
2371.07 454501 286899 413709 310262 349578 296007
2373.96 229759 201727 122971 139618 94688 116067
2376.86 65490 57714 16033-34858-95167-112806
2379.75-128964-136328-149739-174839-196938-187213
2382.64-189298-197312-206176-212315-218586-219781
2385.53-210179-198451-188544-188386-213226-238469
2388.43-238154-235510-224151-229155-238612-209171
2391.32-208678-241574-245786-240939-234011-238444
2394.21-259658-277192-270792-279429-281382-273899
2397.11-258517-258140-275651-281852-273275-285182
2400.00-282652-270745-272824-277674-274514-256490
2402.89-240963-264281-277197-274231-281776-286557
2405.78-277557-264007-278817-279045-257494-248673
2408.68-238121-255391-282299-281341-285565-277288
2411.57-244842-239340-257184-284732-286571-274096
2414.46-281767-307456-305610-284596-269417-267532
2417.35-265932-268731-259190-235581-238675-280148
2420.25-290670-267186-238777-251383-263764-259944
2423.14-267165-268234-272991-289844-276441-285113
2426.03-281042-272438-276928-278942-265976-252420
2428.93-255846-250730-239718-264195-273251-273402
2431.82-248092-241304-256790-266995-256301-251263
2434.71-253160-234639-225192-239777-254284-258337
2437.60-252035-250016-221676-206784-237573-268352
2440.50-275179-249073-222965-239000-251099-254600
2443.39-238662-225400-248901-261678-242768-222627
2446.28-224367-229680-223404-221873-227486-224078
2449.17-227766-249455-240815-257168-252575-210261
2452.07-191250-197615-217942-249122-259497-246953
2454.96-223291-216967-211621-219934-219670-217653
2457.85-213199-201725-196360-220774-219085-211690
2460.75-211330-201392-208897-231706-217050-176480
2463.64-163194-155006-163682-153292-141620-159574
2466.53-153525-141406-121555-96612-101045-102163
2469.42-86298-60268-39480-27114-10477-18853
2472.32-14221 1850 31845 31611 30358 67574
2475.21 94350 119977 150160 141539 147405 174501
2478.10 208467 237388 267282 296546 311779 340649
2480.99 370907 385169 404017 446191 467672 475093
2483.89 508369 549067 585062 602321 626134 662747
2486.78 692011 709382 744918 777741 807097 821685
2489.67 855956 892644 901128 889537 897986 901831
2492.57 908777 918287 933579 928582 920574 892596
2495.46 895805 899865 863947 827965 817369 794298
2498.35 776909 756350 725503 700991 682175 659649
2501.24 614563 575351 534765 494194 470243 416789
2504.14 373050 353359 312192 233038 179409 154711
2507.03 125883 76813 31060-18730-58438-84165
2509.92-127863-151875-171959-189827-204494-209631
2512.81-209918-217168-204453-228144-258952-262448
2515.71-255078-269438-274115-253172-233826-235344
2518.60-253680-266504-264250-272106-277541-263574
2521.49-259532-267686-253330-249813-279170-298044
2524.39-306514-299683-285299-286928-285002-293144
2527.28-296802-306472-294537-295140-298648-267657
2530.17-247106-255034-262862-274033-273308-274664
2533.06-286788-287943-291961-296520-281162-294529
2535.96-307752-287828-276994-287073-273220-257173
2538.85-259098-272690-270996-250064-242668-263139
2541.74-251061-251413-253517-247381-249450-267251
2544.63-260063-279053-286027-255468-234427-252354
2547.53-263503-267284-265777-262878-266922-275043
2550.42-267264-253585-255508-247817-255158-271223
2553.31-283785-288775-274693-251405-249201-260901
2556.21-263949-273115-282475-265888-252950-263866
2559.10-278927-291047-268750-238751-247871-265416
2561.99-276373-281523-270778-260710-260510-255691
2564.88-267788-280166-280674-267503-258513-246636
2567.78-243779-244833-232197-239550-226087-226042
2570.67-249569-254823-267247-258716-256515-254468
2573.56-237603-238538-250637-249743-234486-232475
2576.45-234181-233657-231622-216845-220508-228749
2579.35-218971-235180-264442-275568-259383-257134
2582.24-281118-294279-255514-239082-265829-282827
2585.13-268697-229261-234706-280061-274757-246821
2588.03-239183-246570-259655-268300-265206-265284
2590.92-263063-264486-261361-246162-252087-262447
2593.81-268984-254735-251493-259032-242137-245124
2596.70-273299-284019-279067-285050-278731-252382
2599.60-240425-255858-241592-259853-271861-248927
2602.49-244534-240922-239518-263227-263094-260464
2605.38-249648-252745-263016-251038-251661-244246
2608.27-233370-254354-252091-256963-286618-279804
2611.17-269872-268179-256100-253077-260338-281862
2614.06-291084-284034-271447-257104-251937-276965
2616.95-307349-316183-303157-282797-295149-307785
2619.85-296381-281455-271984-277669-281086-290987
2622.74-288765-287047-286388-281257-285539-291448
2625.63-289887-288443-270891-269126-277947-277872
2628.52-257178-263578-275772-267465-251045-263979
2631.42-268385-254436-255979-263428-267197-263701
2634.31-280328-305577-288054-291502-318367-309696
2637.20-282871-283789-304389-301767-268194-283933
2640.09-308527-321357-310721-301782-296766-301918
2642.99-301077-278004-264819-281456-293251-296397
2645.88-310138-304261-294325-308579-310139-296463
2648.77-311953-314325-303560-317960-327596-330151
2651.67-322689-303765-271822-278046-315574-318485
2654.56-295552-293091-309033-310441-298470-305886
2657.45-298539-287716-307842-324954-312610-311028
2660.34-314965-321246-321050-313230-316005-357504
2663.24-347511-325078-324323-312308-306862-321235
2666.13-307284-285609-288867-297695-319361-311540
2669.02-307348-330044-342750-345407-314946-288514
2671.91-302631-296487-287910-303446-313880-311508
2674.81-304008-311434-303889-279798-282882-273003
2677.70-244309-256633-285055-314674-333165-344589
2680.59-342410-319205-309334-316642-326113-328559
2683.49-308374-278155-289024-308772-300541-309107
2686.38-321155-301345-290539-283568-265748-293492
2689.27-324397-306009-281118-283074-295423-311401
2692.16-332103-332028-311706-300955-318800-328992
2695.06-317801-289893-283370-305326-301597-293532
2697.95-304147-324733-338199-357007-352136-329707
2700.84-302848-286197-283969-288962-274978-262397
2703.73-254826-251338-264776-285760-293120-267939
2706.63-250573-263232-298016-308616-272013-272111
2709.52-330535-332661-325130-320658-298150-296516
2712.41-299595-287966-283885-307399-304413-274237
2715.31-279207-292489-301703-299299-309203-287004
2718.20-277587-296865-307703-291284-266563-251135
2721.09-271998-303698-318272-308771-282516-289715
2723.98-300711-300875-270693-252008-251081-251606
2726.88-257693-267592-253535-254890-275979-276066
2729.77-271408-255400-228078-229315-243240-227816
2732.66-215318-231230-242818-240129-228492-225799
2735.55-194533-206321-255007-250126-234591-216394
2738.45-204552-246749-266772-249891-230256-230030
2741.34-208955-189695-187739-196314-188932-183245
2744.23-188146-188824-181689-181996-192342-198774
2747.12-203430-201345-193239-189993-185628-201429
2750.02-194972-181088-209718-220546-206033-222587
2752.91-220646-196380-217372-237203-248689-235714
2755.80-218513-229268-241855-240832-233672-228635
2758.70-224377-232361-228571-231501-262702-263561
2761.59-232342-250362-269461-270424-265073-246830
2764.48-245590-253938-260082-268625-277056-264284
2767.37-254128-251390-248433-230259-248163-250952
2770.27-232601-213180-229875-228392-217966-224968
2773.16-225569-215867-199334-215211-241810-253457
2776.05-231321-215988-213125-209196-225136-244171
2778.94-236376-219863-205126-196272-224316-256224
2781.84-248956-224981-209528-201712-206970-218619
2784.73-234881-242007-225887-236884-270363-256812
2787.62-205651-185581-210003-219948-242430-279785
2790.52-252559-210375-219051-253483-287492-291356
2793.41-256378-251058-247184-221096-207869-231035
2796.30-226723-227314-227399-217426-266741-309661
2799.19-295268-268436-263128-272090-275536-246746
2802.09-231658-253425-249290-241007-234478-241215
2804.98-241060-238847-246191-231563-249609-291608
2807.87-303292-293791-277319-283094-272422-258436
2810.76-241824-248839-264402-256255-269242-277025
2813.66-270943-286510-279297-287736-310401-297801
2816.55-285999-258226-255333-298578-283708-265152
2819.44-277845-275768-270804-304276-290432-265785
2822.34-254055-269579-294114-314292-281491-257207
2825.23-263161-274806-249986-242046-246554-244707
2828.12-276312-302411-288564-273683-269647-268250
2831.01-273845-298578-295463-266327-253810-284460
2833.91-284701-267893-258677-244304-243607-251589
2836.80-310504-321902-285788-275434-266225-249190
2839.69-245407-269130-284987-268575-263600-254437
2842.58-243186-242405-270465-277158-245803-240687
2845.48-256243-286070-313282-291092-263269-276025
2848.37-275273-270149-257311-262840-254958-253194
2851.26-261868-266109-244692-225914-229337-230844
2854.16-223929-228185-217230-216109-242333-260912
2857.05-232819-187619-192689-203247-223181-234622
2859.94-212399-218148-203563-179636-183626-205201
2862.83-225021-199697-173274-193781-207554-186667
2865.73-174282-156019-164754-175602-173164-168852
2868.62-154417-157371-139243-134964-158000-169663
2871.51-150736-161323-175104-146779-137285-146586
2874.40-121429-109085-127658-149628-154873-153223
2877.30-142322-119986-118255-122408-102856-99774
2880.19-115961-136879-134622-121528-121452-113906
2883.08-89523-96627-107342-100497-94319-91547
2885.98-84515-89266-92264-67105-53150-79107
2888.87-82917-49652-44751-66320-72923-48781
2891.76-28028-44944-84045-82763-34663-20202
2894.65-16232-28483-24414 9537 16900 13500
2897.55 8186 1390-28302-18080 16079 20538
2900.44 17127 12512-13387-29748-7303-14807
2903.33-884 8762 14550-5642 2970 3338
2906.22-23843-31359-25233-42751-53093-42875
2909.12-28842-14672-18688-43677-60628-83232
2912.01-94397-110413-109600-94778-75607-109362
2914.90-152039-152945-165959-181597-172973-184850
2917.80-190172-165843-147338-177553-205483-193765
2920.69-176503-206027-226862-217447-200597-184090
2923.58-194038-208018-225493-210463-194185-178450
2926.47-187283-192774-193036-212913-194462-195897
2929.37-217270-190687-185421-185586-203261-205174
2932.26-179481-173025-191521-218705-211336-179957
2935.15-176319-170091-149489-137817-143121-155439
2938.04-150696-170908-196921-191912-165734-173125
2940.94-170447-140721-164920-200251-203211-162484
2943.83-126552-126036-164049-166386-153967-170448
2946.72-158405-181271-199807-170676-146392-135070
2949.62-143975-200329-228114-212463-172066-169353
2952.51-162088-160536-177914-185737-178338-181686
2955.40-166604-151389-179979-211968-214457-192988
2958.29-217969-223221-204684-216286-236841-224917
2961.19-277553-204121-53860-75671-148312-175819
2964.08-165834-154781-162992-176360-175639-175327
2966.97-183370-190992-198336-216660-186894-181825
2969.86-203053-194487-162485-168569-180966-185523
2972.76-169821-146291-128845-127991-129414-153343
2975.65-177362-175346-174922-193092-204892-213960
2978.54-181389-155302-150487-115816-103113-118774
2981.44-127344-112951-108643-125156-121203-99108
2984.33-118809-140132-137540-129069-135700-144498
2987.22-130387-126992-149595-164652-141071-129750
2990.11-149748-175093-155441-150278-155359-140850
2993.01-145662-162511-161182-149236-142537-160011
2995.90-176375-187373-188215-209167-210595-195423
2998.79-196980-200047-192732-176783-188642-201010
3001.68-230217-255961-253077-224281-200825-212547
3004.58-245944-250855-247403-253912-233190-245511
3007.47-223782-228479-237527-228373-224318-245810
3010.36-269956-252892-240406-262362-291682-290118
3013.26-267430-272590-293047-290841-260750-243370
3016.15-274804-280241-244225-248129-277994-249491
3019.04-233806-256115-277033-290068-288390-270863
3021.93-245895-270788-273222-263990-302623-315893
3024.83-288538-286458-278088-270545-293358-302531
3027.72-275867-271706-264011-242097-242017-260662
3030.61-289352-308253-295905-290946-287442-307976
3033.50-314929-278915-262016-275939-278691-274937
3036.40-294351-295469-289529-292267-281619-302749
3039.29-325886-305710-311030-316850-260334-242682
3042.18-248870-283878-289138-287780-312240-328642
3045.08-306461-282540-278113-292462-319394-302006
3047.97-284387-278873-286657-292940-308480-310772
3050.86-286793-290300-278075-257515-264077-269535
3053.75-269951-291831-318767-324487-326333-313066
3056.65-306230-329673-349155-322603-313031-301545
3059.54-287815-294935-288674-237974-229055-246910
3062.43-257793-270217-268042-283447-283282-292315
3065.32-299652-303719-310836-314310-303514-294128
3068.22-291266-299848-313840-305798-303012-307309
3071.11-298926-269116-247402-253056-263641-254841
3074.00-254282-263653-263922-256503-248385-267462
3076.90-281145-302054-341036-342740-313847-278157
3079.79-266695-241868-236714-257920-283204-296645
3082.68-269581-268873-254418-246096-260826-234902
3085.57-251401-273764-262535-269556-269352-280210
3088.47-314492-309396-281580-269335-274941-290097
3091.36-268386-261761-257400-220973-219450-211341
3094.25-227207-255849-265715-265463-229623-190290
3097.14-196560-226597-221126-222580-255746-278184
3100.04-297298-263881-205871-213670-249024-262438
3102.93-238357-210737-202734-224749-250732-225694
3105.82-212788-246306-264031-243081-211004-227575
3108.72-242784-232977-212784-195522-191045-186635
3111.61-170731-178300-202260-201387-210558-230368
3114.50-240049-222339-238290-271256-254913-243128
3117.39-249651-224710-185661-189790-201487-205379
3120.29-179134-177470-200594-205055-198649-210719
3123.18-207471-202062-218852-239280-257691-264516
3126.07-230195-211468-215494-198252-199181-208578
3128.96-225753-215419-169077-168339-180422-193783
3131.86-171189-156864-173186-179792-188736-198359
3134.75-186626-167014-158449-150198-146415-153829
3137.64-170889-180383-180811-194477-200162-177890
3140.54-179166-162378-135431-143213-157545-179204
3143.43-174056-138698-138697-168518-183784-179062
3146.32-191412-210002-212262-211496-202854-162024
3149.21-171956-174990-172629-191126-203134-193849
3152.11-161875-160859-170506-167125-157736-142796
3155.00-131028-152693-167156-183564-184923-184322
3157.89-191123-185437-181279-189697-167694-163076
3160.78-166191-179899-200507-185778-165455-144611
3163.68-138776-170068-166764-144700-164409-173993
3166.57-183277-165509-144153-157280-153399-158616
3169.46-166026-186007-175172-164874-156313-183532
3172.36-192704-171558-158107-151021-150343-166579
3175.25-175254-187374-180089-178289-200694-212864
3178.14-191222-191724-198287-179357-129835-160128
3181.03-210681-185483-159299-183697-194701-162919
3183.93-129407-129437-146083-152148-154714-151762
3186.82-164370-192182-203351-196586-184203-187831
3189.71-209377-195492-169880-207642-203501-159775
3192.60-185556-232793-194730-181806-161025-175566
3195.50-227380-238669-200021-147174-140609-156561
3198.39-168460-155255-159036-157142-166442-161825
3201.28-153397-152180-175945-199129-202393-210888
3204.18-238635-260447-242364-221174-214292-204708
3207.07-200914-202677-196055-189386-193828-182399
3209.96-192235-176149-182947-178643-165106-141141
3212.85-114297-145805-186997-167791-143348-159534
3215.75-201338-200821-174540-214400-286351-285042
3218.64-259106-206504-190641-192440-198401-213273
3221.53-193687-166482-152602-154316-169417-163337
3224.42-136530-148033-172224-189773-184901-161640
3227.32-198353-206667-187147-188161-183863-190444
3230.21-191170-180393-169855-159114-156290-151340
3233.10-142091-160028-158965-178509-195241-176256
3236.00-182631-198109-188739-159495-173075-192959
3238.89-209858-224569-211793-186510-142369-106933
3241.78-140074-169375-159466-153912-186227-235861
3244.67-207041-156714-167854-172811-170221-181487
3247.57-193067-153918-144039-159350-130946-113894
3250.46-97394-111226-151969-171358-167361-182165
3253.35-190561-179163-152834-113027-110560-122639
3256.24-113148-127430-130872-122691-123979-124886
3259.14-149439-152380-143034-148103-131171-126416
3262.03-151578-140944-135406-128874-115413-117960
3264.92-128386-133540-158157-154416-140001-137229
3267.82-122150-139015-184498-197107-176850-179440
3270.71-147920-131456-151297-149034-126034-115830
3273.60-130265-148871-149668-152613-157574-142440
3276.49-124634-143182-154828-122938-112050-118524
3279.39-124929-131266-121057-120839-153835-144603
3282.28-143633-165077-150773-116053-115312-109449
3285.17-99919-120540-135868-125923-119785-123157
3288.06-87621-103030-110757-95932-129550-177927
3290.96-188462-194116-193374-187368-154874-157508
3293.85-173231-150901-112963-107120-114569-105778
3296.74-112367-122340-137748-154383-171942-161965
3299.64-161842-191693-194259-171420-169386-154067
3302.53-154333-149793-151579-191932-198843-178696
3305.42-152546-131200-145493-148692-140906-139526
3308.31-141816-160843-182930-201890-190926-161752
3311.21-135765-171338-179131-161767-144205-111795
3314.10-99203-182310-223960-193989-174537-145915
3316.99-157982-180619-168118-173604-189546-193817
3319.88-189431-201385-187331-190886-208501-197177
3322.78-192886-168903-138676-146868-165367-181450
3325.67-183290-176557-168506-186316-187468-156616
3328.56-135491-143799-147567-171832-197968-179540
3331.46-175689-160404-145870-174469-196605-200859
3334.35-226452-228672-203451-190739-187885-210612
3337.24-208623-213931-205395-155628-163003-236595
3340.13-232560-205772-195683-184297-193395-179388
3343.03-131785-103405-153633-186608-173520-176970
3345.92-182261-190986-218591-218860-215927-252479
3348.81-247147-192954-181003-200212-203691-187215
3351.70-203882-211560-213583-231787-256324-258051
3354.60-255691-257070-213825-195480-200031-208094
3357.49-196250-171905-181298-222183-248104-240325
3360.38-245010-231394-205459-248474-266279-237968
3363.28-240015-259334-242034-219910-227847-230856
3366.17-204865-226977-237632-236960-270392-239982
3369.06-206551-199149-214875-226004-250489-275167
3371.95-268736-250636-229256-219889-209081-244650
3374.85-273361-272708-269663-214574-183291-200089
3377.74-220875-208636-212060-202774-214860-256132
3380.63-281560-267632-232861-199695-219921-233152
3383.52-220069-220652-219260-229716-207016-173540
3386.42-180880-217888-240573-209131-173867-204558
3389.31-230330-206979-184574-225058-224504-187503
3392.20-219764-255558-265996-238749-234260-248801
3395.10-221420-183363-177486-183483-223228-263704
3397.99-246560-200936-211252-243234-260349-257432
3400.88-268384-265706-247405-246310-284529-275473
3403.77-215922-228733-263920-260682-255785-248071
3406.67-231319-222175-227874-210780-187366-229600
3409.56-250191-208654-193634-200200-203657-219708
3412.45-221855-212027-194952-200649-235982-271027
3415.34-263228-219502-187288-193998-218344-265938
3418.24-276959-265495-228375-190354-205678-232424
3421.13-248563-256132-248123-262562-250212-217323
3424.02-249650-294353-265097-236040-233547-217103
3426.92-202415-220844-229648-224075-195500-208286
3429.81-221274-200832-202686-219638-216205-213342
3432.70-210507-184945-220950-248376-251221-259819
3435.59-268379-244988-239602-172358-151136-204666
3438.49-221704-246773-240590-205844-225378-246771
3441.38-219940-224524-201106-182513-227789-237783
3444.27-208454-200939-249244-210374-160960-207850
3447.16-242152-215868-168076-215799-275223-246505
3450.06-233267-248002-234223-252993-246339-225346
3452.95-212546-219982-236205-201712-185698-150072
3455.84-113154-194176-262083-231669-230019-233483
3458.74-208732-172318-186215-209236-231064-258507
3461.63-250856-234943-213877-202102-209516-213229
3464.52-224101-251091-230706-194196-194961-201964
3467.41-196400-196324-218638-201005-197773-205984
3470.31-210269-233448-221350-228340-204456-160014
3473.20-217290-290163-260264-233630-215898-201072
3476.09-205373-229421-270158-241321-216851-205143
3478.98-196999-207381-208297-224556-230283-212367
3481.88-219554-199539-203671-205858-204687-254826
3484.77-280957-267087-235630-226409-244281-244780
3487.66-249675-242681-198441-209378-244323-224300
3490.56-196332-214855-216186-190025-204661-221001
3493.45-234134-191840-198853-229881-237362-245986
3496.34-255076-258308-251485-215169-211659-222355
3499.23-226371-210979-204201-215299-204441-182570
3502.13-180351-184816-210245-267397-275911-272069
3505.02-280196-302160-313106-296589-279287-256856
3507.91-265095-311822-293178-284450-317590-333108
3510.80-283863-271973-308431-290862-267225-239818
3513.70-267447-274495-294160-321417-302870-314344
3516.59-329901-306503-282689-282679-317658-326642
3519.48-316295-298328-285408-248827-258761-270584
3522.38-270072-280471-280936-231488-248595-299940
3525.27-308590-306332-301927-278062-284982-299410
3528.16-293060-269727-301928-322212-309896-336857
3531.05-364308-339229-282880-255052-260036-273835
3533.95-267815-250487-216916-230657-310914-333906
3536.84-298355-301785-312538-327568-342995-344725
3539.73-369925-368315-364090-366774-316156-292398
3542.62-293197-245696-239362-249838-220762-189162
3545.52-225033-246669-240790-260405-258073-224698
3548.41-249496-287470-298687-297302-312232-312482
3551.30-311660-323690-316131-295036-269671-240388
3554.20-231529-243092-238215-229757-205491-225729
3557.09-250283-239582-246785-250064-248906-276110
3559.98-282637-267094-265827-251834-234609-215452
3562.87-209869-231643-244627-250307-212656-163818
3565.77-204421-236702-208774-164344-169755-233879
3568.66-253937-231471-219221-211374-223496-216054
3571.55-206168-220302-230624-212127-201543-237690
3574.44-260878-232883-209779-250353-258688-227561
3577.34-229214-209528-180525-191319-220895-225781
3580.23-214187-224050-225874-189498-219511-261286
3583.12-237282-224461-194277-175582-222072-205759
3586.02-125129-163459-209640-213951-166732-157621
3588.91-216253-192703-158446-206454-242430-246815
3591.80-241991-244043-268606-263010-214577-199780
3594.69-204723-183690-192311-251953-270518-219743
3597.59-179558-215026-273787-239195-212919-228305
3600.48-216785-231578-269587-272962-235391-245535
3603.37-285299-260918-246395-267418-268649-288531
3606.26-272208-229617-250125-250423-191619-118619
3609.16-150786-229217-280235-273071-260033-235010
3612.05-201528-233939-248129-247409-246929-288105
3614.94-301877-280984-292401-304606-269134-247507
3617.84-263396-248723-187739-161254-245082-268892
3620.73-256730-262425-249328-271065-281122-291356
3623.62-318405-274920-234035-233605-236679-214223
3626.51-204083-226342-210255-188537-228605-156820
3629.41-159558-232173-233383-262539-296013-308243
3632.30-317917-337779-316840-351222-391408-367086
3635.19-348989-341393-323178-272198-251491-243110
3638.08-215744-196033-233652-251420-247678-237192
3640.98-231535-256335-273405-274218-283477-311751
3643.87-338500-330746-286087-273480-253509-254664
3646.76-239079-246281-286132-230959-108919-166630
3649.66-235994-237636-240005-251968-295461-325179
3652.55-306655-311239-346179-367332-348613-322530
3655.44-271174-217283-263424-300853-326304-371376
3658.33-368085-342941-356601-359956-321251-291880
3661.23-309000-334083-331706-312841-308020-321563
3664.12-347399-360006-345836-320724-317115-311283
3667.01-337529-367459-293509-248819-282984-249438
3669.90-138116-126735-273591-325238-337152-313731
3672.80-283820-272833-260222-196991-187356-168225
3675.69-178885-276150-327494-353068-342148-323810
3678.58-291762-286822-331003-336864-339424-326062
3681.48-284963-263391-253049-268096-301630-307642
3684.37-313186-289340-296709-333189-338504-314640
3687.26-264600-123774-133217-321862-399970-357240
3690.15-299589-260117-255917-285930-274754-297935
3693.05-327208-355726-373910-348226-357045-335260
3695.94-299455-323736-355214-312920-326136-372349
3698.83-349027-314199-315447-351540-336329-261056
3701.72-269869-315706-329224-293890-305752-316665
3704.62-271480-253680-249982-241141-265455-290601
3707.51-283408-240168-210710-208157-273941-320702
3710.40-301908-262312-181051-161351-264974-298822
3713.30-329931-332547-293985-305235-331565-341201
3716.19-326194-293828-299432-318060-315144-293578
3719.08-311184-303381-287964-274463-278946-278212
3721.97-259035-268045-293272-280678-251166-264153
3724.87-270353-255550-271600-268141-280497-299700
3727.76-284692-293530-324965-320465-314997-308516
3730.65-288419-233298-150602-215605-300630-292230
3733.54-280180-223849-195122-234181-298296-251092
3736.44-176033-228441-270110-294374-281643-273269
3739.33-289644-291982-281052-274246-310787-326345
3742.22-316787-277593-227075-98868 43446-106685
3745.12-288115-334943-331669-320983-284325-286496
3748.01-307087-172148-65888-198924-290547-296845
3750.90-253876-116664-60153-244364-342524-341965
3753.79-313503-304523-309738-296465-253088-235715
3756.69-268900-303453-314254-300549-314590-323751
3759.58-309948-317587-326329-333294-331148-353606
3762.47-358722-323906-320887-328217-324741-273158
3765.36-251515-290939-286031-284283-309019-331849
3768.26-333031-306316-219839-235930-312668-342187
3771.15-339754-339054-331928-323313-312600-302984
3774.04-286681-305113-320994-311691-307766-302288
3776.94-289533-304947-325083-327642-290889-306185
3779.83-367783-346731-323891-337393-349934-340661
3782.72-329643-339305-318177-268229-303199-327603
3785.61-316211-325728-339061-352935-369060-341813
3788.51-283774-294946-310515-263140-268806-317346
3791.40-334348-323911-334760-320175-329439-314500
3794.29-280597-314647-322019-261482-254464-314378
3797.18-355423-339597-337288-326452-334698-337836
3800.08-297981-165726-60604-181859-278600-289800
3802.97-299757-304910-275814-289791-326717-312480
3805.86-247271-152349-186925-271423-285162-294323
3808.76-296585-296147-324658-354152-336661-344455
3811.65-327153-330260-343114-345990-342732-287549
3814.54-283318-249591-71895-121639-292143-351173
3817.43-340260-319351-311632-296469-278574-246138
3820.33-213631-199618-190483-255482-288226-280083
3823.22-290421-304774-334603-364598-342473-308457
3826.11-289902-291223-324727-339434-329980-319611
3829.00-323281-312568-275037-284628-270039-252238
3831.90-280814-299785-321188-327998-306667-230366
3834.79-262694-325252-331921-317702-262424-119970
3837.68-136084-292578-360986-341395-293214-273984
3840.58-251072-265794-312181-348884-308905-262248
3843.47-270340-292305-310365-345200-327267-316069
3846.36-330732-321507-302109-319185-322709-328852
3849.25-321726-316808-302374-301162-202088-120632
3852.15-228513-269784-143652 55828-14219-219294
3855.04-300349-322385-329323-333256-351105-344004
3857.93-301196-310165-349450-378950-416983-382437
3860.82-304870-284361-320575-350925-378612-392869
3863.72-396509-320240-269144-315893-315007-318131
3866.61-335079-327743-314150-335003-311636-290218
3869.50-220894-258211-320824-321447-335935-352335
3872.40-383098-394163-348483-322587-374956-393428
3875.29-395199-395196-375308-375821-342306-344575
3878.18-353746-351978-319543-307712-320623-338807
3881.07-374023-380651-371507-371847-372747-403575
3883.97-425943-402316-274386-206887-298726-351761
3886.86-349700-364188-380686-371718-350154-382438
3889.75-382820-328684-271723-288043-344880-359195
3892.64-355252-352641-332359-364227-393330-379866
3895.54-395447-426185-413085-378544-351312-349964
3898.43-352535-332990-336780-327812-340515-327560
3901.32-293626-339154-362785-337435-266527-222556
3904.22-300196-336669-336101-354108-362945-374319
3907.11-394543-418517-414403-401196-390598-401229
3910.00-382706-404162-406013-373508-378176-379154
3912.89-365543-353315-370853-382634-399841-409825
3915.79-373124-364078-324981-349895-411372-442946
3918.68-394659-346864-332404-349305-386716-400125
3921.57-393422-349662-321110-346004-365390-359335
3924.46-351493-341561-324341-309335-318920-356269
3927.36-378157-376372-354681-334746-358309-371258
3930.25-396729-385758-373523-371251-345785-334865
3933.14-353904-372009-363480-332542-330369-318212
3936.04-322624-339073-304046-333355-384643-372245
3938.93-326387-333478-319595-306979-334222-343353
3941.82-316083-307797-326602-338318-344362-390578
3944.71-405261-379332-338681-328211-329221-342800
3947.61-339498-346615-355749-306129-271150-263624
3950.50-285732-333302-326411-312664-326562-350510
3953.39-357196-377295-382581-347680-332741-333066
3956.28-337702-357403-356223-335468-279587-262426
3959.18-300729-306209-309407-330241-327068-343018
3962.07-387490-396314-375106-365331-330426-292090
3964.96-305791-325567-347781-347661-334534-336395
3967.86-356207-372054-357449-337855-313406-295367
3970.75-316013-311407-289303-317857-345131-332078
3973.64-310583-301378
##END=
