##TITLE=Tetrachloroethene
##JCAMP-DX=4.24
##DATA TYPE=INFRARED SPECTRUM
##CLASS=IUPAC A
##ORIGIN=NIST, Analytical Chemistry Division, 301-975-3108
##OWNER=COPYRIGHT (C) 2000 by the U.S. Secretary of Commerce
##DATE=00/02/01
##$SPECTRA VERSION=1.10
##$UNCERTAINTY IN Y=2.0 % relative (B=1.0E-04,C=1.6E-09,D=1.3E-13)
##CAS NAME=Tetrachloroethene
##CAS REGISTRY NO=127-18-4
##MOLFORM=C2 Cl4
##MP=-19 C
##BP=121 C
##$NIST SOURCE=QUANT-IR
##SPECTROMETER/DATA SYSTEM=IFS66V (Bruker)
##INSTRUMENT PARAMETERS=KBr Beam Splitter; MCT Detector; Multipass cell
##STATE=gas
##SAMPLE DESCRIPTION=Tetrachloroethene Primary Gas Standard
##PRESSURE=101.3 Pa
##TEMPERATURE=23 C
##SAMPLING PROCEDURE=1 L/min Flow
##RESOLUTION=1.9290
##DATA PROCESSING=Boxcar Apodization
##XUNITS=cm-1
##YUNITS=(micromol/mol)-1m-1 (base 10)
##XFACTOR=1.0
##YFACTOR=18.189E-13
##DELTAX=0.9645
##FIRSTX=575.652
##LASTX=3974.605
##FIRSTY=1.22E-06
##MAXX=3973.64
##MINX=575.65
##MAXY=.0014518
##MINY=-8.90E-07
##NPOINTS=3526
##XYDATA=(X++(Y..Y))
575.65 673668 85699-457924 631221 122689 220499
580.47 159619-228850 114422-115413 81830-78032
586.26-123304 407304 356149 244740-232199 167138
592.04 35951-54015-24877 77351-126291-54005
597.83-16386 402123-143353-82402-198080 244617
603.62-126621-12173 2154 125397 131706 134333
609.40-41415 155379 19456 178923 13756 158628
615.19-2182 293473-148396 233988-38480 190990
620.97-45010-54104-36783-128244-165992-22587
626.76-147636-90953-116936-39639-322871-201816
632.54-145793-52305-335925-136661-215889 48529
638.33-23944-190946-153865 116846-243032-29432
644.11-241054-81559-188510 36564-168482 28590
649.90-286389-126921-99963 27309-110302-88409
655.68-17723 32236-166367 4341-187252-5145
661.47-174167 74785-226340 4982-319150 677294
667.25 702957-11604-52057-83765-72778-102793
673.04-55489 130211-69535 89611 177283 323786
678.83 219254 377038 296161 480555 427613 697876
684.61 471936 654931 651561 542229 604493 643052
690.40 512608 597127 354069 555716 336585 465349
696.18 216749 260398 36097 241267-128692-29749
701.97-158443-75313-285341-44534-201267-51210
707.75-230646-45976-141163-43064-117596-62442
713.54-259692-59959-222989-130116-142068 81242
719.32-189664-38338-203813-9260-208054 69259
725.11-76356 114620-85750 206243-74636 253728
730.89 84 383317 266540 584694 556658 1086595
736.68 1167494 1978196 2330236 3525295 4217131 5633363
742.47 6824650 8791648 10563610 12836798 14723974 17536669
748.25 18864557 22152960 22846612 25745203 26370678 26094929
754.04 28928232 26027252 31117386 25643885 25979076 25626430
759.82 24608237 28132127 21436229 23997221 23465429 26663537
765.61 28356514 34650018 41033054 53053545 66351705 85502367
771.39 104509463 128530907 147894202 169245333 178431973 191916152
777.18 193389828 203341983 199134890 193747724 215447345 191853165
782.96 186187827 184667256 187162277 173575561 153805390 123166526
788.75 95928171 71217004 57178504 50585161 53769451 60917556
794.53 72046886 81286481 88928006 93012709 92280837 97804930
800.32 113293294 102814223 96098324 102696804 104754265 97755241
806.11 98188867 89589117 80864132 69396043 57265438 44891849
811.89 34598444 25295176 18555136 13027991 9793627 7031450
817.68 6008374 5020371 4991639 4630916 4868727 4781934
823.46 4961197 4650103 4832290 4591626 4733142 4301822
829.25 4336231 4051945 4106254 3537988 3122187 2322975
835.03 1771470 972897 701899 151333 292191 7402
840.82 166068-8671 56426-10687 137351-102152
846.60 73826-25844 185368-95568 92976-74477
852.39 144539-76183 157633-55192 95620 19783
858.17 68391 12595 120571 63481 104736 28953
863.96 108272 2933 110957 6241 150040 57850
869.75 227211 128763 241513 82390 303506 274126
875.53 474883 366702 691612 686279 933784 1115598
881.32 1460568 1815246 2375634 3015206 3784008 4770082
887.10 6136261 7653473 9554794 11619017 14253803 17098365
892.89 20381466 23988818 28257599 33431501 39855033 47997045
898.67 58955851 73440891 92525877 117394166 148180866 186049318
904.46 231173159 283526729 343869247 411075595 482747708 555677652
910.24 625897804 688646883 739214626 774983217 794353097 798178271
916.03 791265280 778677080 768018689 762363721 754392143 742765721
921.81 705283627 640585967 549432948 449549005 347027120 249238436
927.60 169200936 110119717 71489357 46169140 30029031 18866576
933.39 11786623 7059268 4471938 2663985 1814397 1059554
939.17 888150 477172 451423 196482 227716 59882
944.96 193216-12380 106523-6777 116309-23095
950.74 80234-49926 72178-36399 30715-8085
956.53 44230 42746 21529-79984 66348 15230
962.31 125018-22947 49213-21626 48062-40276
968.10-1392-107538-5121-37669-8435-60340
973.88 61186 72829 144502 124085 248024 253196
979.67 463337 385108 494577 505176 591918 521746
985.45 578210 426958 586809 515091 648865 598308
991.24 637100 502840 477679 324306 267211 150143
997.03 106296 25145 34946 39136 56679 21226
1002.81 136243 105961 244904 194496 275148 165073
1008.60 188280 161553 174703 63219 141080 32762
1014.38 87176-99225 55861-82789-38006-111908
1020.17-109432-149069-110495-198591-143373-243354
1025.95-111988-173055-116143-118163-128236-146354
1031.74-28507-129502-93688-158280-114592-179513
1037.52-83910-166404-102264-152938-87605-150284
1043.31-93692-155586-160610-220404-135528-191137
1049.09-84517-125537-77892-154742-37167-88007
1054.88-95812-146834-103986-132668-159658-146023
1060.67-21045-83802-126044-156304-105365-105854
1066.45-82840-137747-83902-103948-17812-76729
1072.24-53204-91684-16076-837 140147 76080
1078.02 198992 192341 362858 344499 562902 631139
1083.81 832644 986032 1217708 1362214 1564942 1755473
1089.59 2044545 2208261 2432119 2579314 2886105 3096589
1095.38 3612260 4016221 4614634 5103265 5566024 5495767
1101.16 5024718 4157716 3383103 2900677 3092589 3161092
1106.95 3314146 3383092 3410180 3296587 3322299 3300349
1112.73 3459060 3693573 3988289 4259429 4722822 4990807
1118.52 5420871 5662963 5849822 5864755 6039803 6078536
1124.31 5990916 5753937 5607590 5515481 5253141 4765545
1130.09 4584031 4325501 4014055 3590252 3280142 3123283
1135.88 3060369 2962361 3054697 3118239 3386818 3439457
1141.66 3647953 3719011 3921788 3903239 4022858 3967969
1147.45 3943733 3974111 3966509 3772339 3646577 3487584
1153.23 3275409 3059318 2832795 2503599 2240502 1870955
1159.02 1620063 1382404 1234761 1086956 1031164 1025688
1164.80 1041184 1094026 1168886 1130699 1234072 1281980
1170.59 1285482 1249003 1219640 1225188 1222577 1130671
1176.37 1093212 1042024 1121683 1020248 960438 848297
1182.16 892686 711935 582714 407882 270455 213249
1187.95 200036 138408 135661 119952 156892 144175
1193.73 108270 114688 176127 140440 112373 97601
1199.52 82146 96093 86026 76420 53999 77694
1205.30 121885 42462 45309 35968 98418 45818
1211.09 51284 58717 99059 136207 170765 205896
1216.87 255108 301656 372264 364570 402999 485314
1222.66 494019 530549 545953 551265 611931 583156
1228.44 647556 557958 532812 534823 496244 474081
1234.23 395482 403409 372506 340810 304167 302384
1240.01 330321 340701 329498 347003 420834 418917
1245.80 432324 510960 597911 659750 761513 798721
1251.59 878757 917235 1033375 1041558 1042687 1068907
1257.37 1134992 1146238 1128951 1113026 1087997 1157931
1263.16 1116688 1040940 1029113 906977 892836 729717
1268.94 678821 577070 524615 405088 324167 254622
1274.73 292905 244686 173554 126623 172802 92504
1280.51 80269-44620-27306-29139-18977-25804
1286.30-26542-4284 107982 56716 101500 121826
1292.08 205403 226490 229231 227333 294346 283870
1297.87 333309 286335 306400 295059 283219 193760
1303.65 167898 166888 147781 99546 66513-1593
1309.44-42036-37485-92957-129651-107295-116447
1315.23-132244-181976-172448-125546-134268-183778
1321.01-191004-195176-147814-128543-182958-169450
1326.80-134938-82885-100769-148075-65599-73400
1332.58-11328-72538 23493 59051 112238 140201
1338.37 190696 228248 382172 424439 494706 600661
1344.15 771947 887614 1069577 1113858 1333230 1536448
1349.94 1793188 1943392 2216989 2665734 2912458 3163862
1355.72 3348360 3467128 3603488 3569772 3659904 3700548
1361.51 3649344 3634719 3587361 3505095 3248252 3068750
1367.29 2898194 2733387 2333364 2038307 1826355 1554770
1373.08 1244900 1030301 793419 656240 572346 340393
1378.87 295996 273819 226197 220924 189531 246376
1384.65 250937 232755 242543 208933 210753 180682
1390.44 160741 168271 143804 265716 162154 136534
1396.22 170969 146079 152070 31790 83273 75497
1402.01 96201 88789 92742-11158 9442-11242
1407.79-30863-51346-73517-37896-53703-107074
1413.58-115529-125487-108779-122371-130397 8453
1419.36-124904-148991-186050-172295-164440-159695
1425.15-187521-154899-156701-173048-156247-149142
1430.93-201799-167967-176336-171216-142458 25726
1436.72-114254-200466-210783-211287-154082-179251
1442.51-161347-174947-163544-170149-171804-153884
1448.29-188046-188125-194842-144084-231518-172741
1454.08-173898-81932 81146-128094-101212-152031
1459.86-182334-209411-172341-177215-91092-115899
1465.65-176367-158401-174951-131863-147853-85815
1471.43-45513-27579-78207-136013-11022-132467
1477.22-50824-79602-57029-36076-56043-66234
1483.00-84823-81531-69746-81762-60787-146420
1488.79-54854-120651-114367-165167-159214-187636
1494.57-105924-71538-239047-144927-156669-253346
1500.36-192087-235341-167161-237488-69541-9348
1506.15 36378-148885-165446-183618-219569-182560
1511.93-154447-202016-152696-192647-121622-156032
1517.72-181480-185457-40909-16254-151431-130693
1523.50-189807-95333-178425-147471-147331-149876
1529.29-159143-140706-118127-73766 4055-169390
1535.07-110038-74943-39720 165780 169301 56865
1540.86 83647 83191-39654 81105 26861-50678
1546.64-53068-9535 23784 37030-32378-13019
1552.43-18656 163914-30718 28599 108908 355670
1558.21 182595 342657 107462 53520 120408 77275
1564.00 112558 78722 95411 99074 125855 224495
1569.79 96925 119741 86498 149227 95197 363446
1575.57 390874 105845 158406 139774 178796 94698
1581.36 92387 69928 112987 59141 95651 87405
1587.14 122526 101785 85863 59355 69580 35974
1592.93 82325 51453 51459 17047 34451 8797
1598.71-2895-49691-24971-47833-103233-104343
1604.50-101089-101420-131526-147284-137462-170023
1610.28-177812-168526-216140-137314-201818-60873
1616.07 32290-234212-129684-207736-164296-189618
1621.85-115406-85640-204685-182011-175482-140788
1627.64-178087-206266-206989-172001-174698-161119
1633.43-172537 74928-87178-148465-137353-168510
1639.21-77179-157768-156670-179175-176159-183342
1645.00 38254-119632-123490-197752-138831-171505
1650.78-80920 252355 101228-118067-152416-231280
1656.57-209099-212699-193945-240010-214794-108127
1662.35-150767-249271-201396-223634-181637-206551
1668.14-73586-203250-155014-160086-186124-226303
1673.92-64220-97360-197728-190763-203763-164991
1679.71-163824-225271-130464-149320 140626-29782
1685.49-220914-161495-207551-175840-190918-205252
1691.28-242242-179420-258821-108519 81141-265137
1697.07-119914-119508 66682-47314-230765-242612
1702.85-188989-183643-175651-140917-198760-195729
1708.64-225246-150382-183380-189402-174325-103449
1714.42-58916-146304 101881-28352-87656-137847
1720.21-146621-162669-129934-114544-128150-128622
1725.99-144594-131686-123338-95543-96304-156895
1731.78-47175 72838 71619-113284-107263-88306
1737.56-78917 29817-3353-12870 33912 30266
1743.35 29176 101098 78644 95116 83469 165334
1749.13 101807 233939 176687 103635 141523 87518
1754.92 100489 124471 32952 17171 30899 9699
1760.71 81496 35147 11095 23542 13871 49654
1766.49 119132 182068 120536 222009 281634 431870
1772.28 468467 395703 494484 517469 542645 543934
1778.06 558229 560741 603128 612575 604177 545724
1783.85 640789 581514 487263 415315 339632 304210
1789.63 264112 157989 307570 268966 285921 333004
1795.42 352361 378674 358386 404157 326273 328676
1801.20 338787 335124 304793 309704 276928 219710
1806.99 132410 55339-30683-89075-164779-197318
1812.77-284014-311618-347087-359860-396593-397680
1818.56-411280-381430-452704-438967-473806-431039
1824.35-400711-496043-487552-460224-471118-397419
1830.13-475128-471033-489303-487890-475676-479036
1835.92-482332-464844-457337-467270-488061-453558
1841.70-406362-368568-347204-416010-342364-385555
1847.49-341290-334525-288224-228457-216858-147116
1853.27-56415 4415 20542 15756-74070-94367
1859.06-11993-28188-28962-25623 60311 57165
1864.84 407 37392 52874 20170 34934-36166
1870.63 20270 13579 28149 48238 100926 178048
1876.41 194571 286563 280673 349544 408647 436990
1882.20 453798 530592 505019 484141 599722 572773
1887.99 490861 582256 595856 519019 480154 518070
1893.77 413917 403337 345734 282527 237527 287070
1899.56 275929 191049 239040 307938 250456 272502
1905.34 346783 327140 333452 418646 365100 369196
1911.13 441519 375768 366866 379787 326614 272388
1916.91 285661 190494 121807 112906 30604-75156
1922.70-119663-219273-245712-274277-270028-270367
1928.48-248027-291768-289304-295040-268072-289858
1934.27-294201-300435-291091-299820-286916-279601
1940.05-322450-285411-270156-321404-272147-303138
1945.84-274918-286309-311331-276483-268857-285611
1951.63-253242-268467-270875-282560-282264-291809
1957.41-290377-257340-308018-260880-295839-266389
1963.20-271149-283493-290752-280188-269234-259580
1968.98-271612-288161-255345-278782-198510-261368
1974.77-340671-263123-273164-246534-272237-225767
1980.55-247590-262045-268167-248168-232368-236663
1986.34-273593-238412-235214-235597-254759-232969
1992.12-265880-250415-235957-221492-263703-246781
1997.91-259995-247174-248701-272141-260567-272195
2003.69-270144-231449-226280-225249-260305-261446
2009.48-260391-249074-262235-271732-257792-228877
2015.27-283185-265436-262916-262481-256502-234717
2021.05-277860-288418-281974-263813-262605-245516
2026.84-289330-231438-259550-255202-266892-244744
2032.62-249551-268648-291317-283812-281792-276670
2038.41-281415-261759-267115-248466-298263-268257
2044.19-293540-264914-256784-251983-273475-257481
2049.98-287889-271198-298121-293955-268443-285471
2055.76-295342-293554-300580-294054-257487-272856
2061.55-285329-280624-279122-259237-281756-293666
2067.33-268635-269992-299220-267113-274966-272674
2073.12-267288-303590-285077-251849-304433-286987
2078.91-300857-291874-266509-282256-248987-253481
2084.69-269388-262266-300825-262861-296895-239237
2090.48-253231-271588-279925-230932-260164-273381
2096.26-279781-280109-254101-262533-286898-282923
2102.05-267794-283700-303684-288478-291535-221018
2107.83-308681-284735-282573-196022-304636-295994
2113.62-305431-206267-307506-272965-294004-215766
2119.40-268238-263382-299084-231331-241354-264630
2125.19-285813-252533-235161-267934-286398-262965
2130.97-236077-246032-248387-240434-261971-273804
2136.76-279071-264137-246325-270355-248463-225615
2142.55-241700-236411-262500-235482-255383-225155
2148.33-273925-225814-228217-264253-253057-220637
2154.12-214024-237722-256014-222243-250317-260482
2159.90-232868-190339-251450-271803-248081-188843
2165.69-227093-240630-182225-181189-244353-243260
2171.47-166146-196977-230311-179275-131904-163481
2177.26-167655-104709-107545-138157-118594-34588
2183.04-65836-35943 5703 30871 13927 60447
2188.83 110359 111379 97926 169914 207294 229729
2194.61 286232 324620 361427 382552 425083 465570
2200.40 529408 528416 578677 612919 628457 684538
2206.19 711141 698366 729012 729508 748416 764556
2211.97 747499 703553 701704 675328 639553 561702
2217.76 487898 434933 303465 214216 68381-54156
2223.54 37552 162101 270366 406856 543195 653243
2229.33 761577 850197 925392 992818 1058939 1109563
2235.11 1106524 1121120 1111636 1059228 1012886 980866
2240.90 895099 839240 700546 652045 526067 458761
2246.68 357450 287704 171752 128864 72478 27519
2252.47-81785-73216-132225-166770-211941-216100
2258.25-220267-250884-216082-243389-258990-225459
2264.04-263089-241696-260756-222978-229909-272649
2269.83-241952-213710-251736-240673-238302-239171
2275.61-300904-260239-301152-262150-249279-237099
2281.40-259180-238257-240372-259996-277826-272445
2287.18-280917-245597-260071-212579-264765-249575
2292.97-282646-247604-237462-271884-242475-223408
2298.75-248927-212472-298063-198489-280489-186714
2304.54-271904-174529-241728-200490-148492-252646
2310.32-79043-272814 12813-296354 33154-230151
2316.11 114034-222171 161814-203181 233534-92377
2321.89 267222-21058 325849 84980 362938 153096
2327.68 374376 181955 410309 255748 413481 314001
2333.47 456870 346686 445171 356917 426691 342582
2339.25 409787 335314 365240 302373 272243 167888
2345.04 149090 55402 18316-100641-63794 60821
2350.82 166065 255232 333728 421351 548511 617330
2356.61 674892 736114 785293 780685 814499 834903
2362.39 848413 818321 833386 786903 722252 655310
2368.18 629458 559752 448675 349463 356136 297875
2373.96 181758 117492 102094 54208-34638-127461
2379.75-127508-181311-191295-193782-216198-218171
2385.53-200701-182156-245552-225546-238438-208619
2391.32-236138-242898-236798-275524-278832-273213
2397.11-257647-281614-281465-273600-278702-255420
2402.89-255134-284782-280153-272024-277436-243033
2408.68-252340-293631-270604-234927-285659-275772
2414.46-302409-293616-254822-280608-224498-282918
2420.25-268468-241012-271721-261587-289372-276798
2426.03-281376-270876-262701-239948-264759-269896
2431.82-241601-264496-255821-233611-236107-262003
2437.60-246245-203052-276323-247981-229587-261230
2443.39-221666-267834-218326-231677-218868-229613
2449.17-235124-263747-214046-187284-254523-248314
2454.96-210145-219698-219059-200898-211144-222168
2460.75-193630-237009-177197-158440-152423-152688
2466.53-146706-95662-104342-62672-19204-19376
2472.32 4142 35490 52312 134689 140913 170119
2478.10 242351 290536 343900 383791 442839 479180
2483.89 547206 607449 656793 717116 774631 828797
2489.67 887805 900868 894108 925885 929792 900425
2495.46 892541 835536 792161 759945 695174 666433
2501.24 565037 508054 410142 358138 235710 148113
2507.03 86814-24491-85934-158114-185958-217630
2512.81-202869-232267-262015-268392-257644-228437
2518.60-270583-267986-272112-256222-255839-297606
2524.39-304880-276169-298889-295895-304094-267952
2530.17-247623-276685-272296-295293-286030-298058
2535.96-291442-280607-259224-270583-254840-250078
2541.74-256436-246212-258967-281087-260922-238024
2547.53-279219-253869-281365-250846-253482-264098
2553.31-297782-246388-259893-273602-272273-251577
2559.10-302017-230951-271378-276392-266663-251148
2564.88-286149-266272-250226-238607-236501-224072
2570.67-264260-259295-252740-235310-254819-224375
2576.45-241402-215468-226063-230473-282636-248873
2582.24-302444-224177-302358-216260-282959-246159
2588.03-246024-267715-265333-263379-251087-258535
2593.81-265516-243711-254055-278696-289846-252019
2599.60-245353-257790-262749-227823-267047-253751
2605.38-256883-254540-244257-240770-269005-280249
2611.17-267364-247621-283181-287965-252741-271938
2616.95-327021-276810-314372-274629-279298-285074
2622.74-293374-275822-297855-278982-275393-269689
2628.52-266256-266112-259249-261730-257177-271804
2634.31-291987-300721-308025-282629-302990-269305
2640.09-334954-288729-312424-272983-277547-302914
2645.88-304082-301927-307773-308352-314407-336956
2651.66-296954-276422-326248-284101-319590-292363
2657.45-300255-314485-316037-316564-317321-340414
2663.24-344414-297345-330473-275532-311148-304561
2669.02-332153-341382-296154-292493-302720-312339
2674.81-307894-289351-266885-248506-319008-345555
2680.59-324288-307936-338140-273524-309006-303600
2686.38-318831-262171-302349-309077-274936-316300
2692.16-334810-295833-338149-284950-301819-295269
2697.95-319948-359993-331683-282045-288538-262816
2703.73-247159-291595-268480-259604-311972-263975
2709.52-357356-298350-310931-275461-313328-274984
2715.30-291978-305790-290774-287225-307327-233331
2721.09-319288-297589-292488-297075-253687-247913
2726.88-269056-247922-292192-241154-237475-224863
2732.66-228497-244748-215760-202857-272393-194136
2738.45-252389-251061-226430-188466-194922-182758
2744.23-190976-177129-205484-196936-192112-190511
2750.02-196527-208852-226582-196218-244612-232336
2755.80-227240-243470-227950-224890-240879-259358
2761.59-241204-281686-243311-252989-270289-269172
2767.37-246351-241588-245856-221926-223934-226828
2773.16-211967-211269-257999-211820-211810-242324
2778.94-222993-192522-258413-228816-194721-225558
2784.73-232961-243228-260028-179092-225116-274762
2790.52-213723-248708-298842-239824-233174-209134
2796.30-243174-207348-323827-256477-283680-242073
2802.09-248515-242431-235839-246136-230230-288913
2807.87-298352-274664-262076-240433-271089-266304
2813.66-286202-283585-315486-246680-292706-271031
2819.44-272924-295672-271539-257714-322900-247162
2825.23-279866-231112-257577-292189-284587-254275
2831.01-308432-260430-278385-276754-237740-260439
2836.80-326329-267265-253691-259548-286968-240283
2842.58-253776-272178-234566-290472-299607-258244
2848.37-283036-244753-267161-253614-237884-218854
2854.16-235429-204449-276714-176879-216508-219367
2859.94-226666-167797-218989-194032-190924-195965
2865.73-154589-174649-170732-146143-143021-160567
2871.51-165148-153603-136800-110485-148070-156895
2877.30-121538-117923-97456-136671-126809-109455
2883.08-90950-110859-79255-100905-59410-80256
2888.87-52966-63404-53071-36696-97320 2855
2894.65-42948 12691 13707-1572-26894 37243
2900.44-2049-17242-16065 15320-1340 1650
2906.22-34343-34280-56533-1997-48278-73681
2912.01-120599-83839-105738-168112-166644-195181
2917.80-158848-175489-199572-191562-236426-169221
2923.58-222193-208619-182437-189670-205381-199368
2929.37-201896-179471-212943-160031-227187-181333
2935.15-169751-136212-149636-172266-194512-165656
2940.94-150819-196083-174320-111005-187761-139848
2946.72-197956-170809-128905-192332-228805-143363
2952.51-181050-168927-194701-137080-227307-186942
2958.29-238434-187396-280008-180230-52535-197490
2964.08-142748-182773-169996-196059-204288-187792
2969.86-193971-159166-193714-142807-122235-153426
2975.65-180274-185952-216530-155593-121681-109172
2981.44-124548-111227-116157-126027-143974-128655
2987.22-139504-152815-138304-161272-160773-134720
2993.01-168281-142693-160985-183364-208572-199455
2998.79-198098-181583-196490-264907-220279-209772
3004.58-258966-244852-235839-230705-225926-247577
3010.36-257282-255638-298285-263123-300243-238472
3016.15-285607-238374-271880-227542-317542-248107
3021.93-275248-263118-325859-267713-288756-287570
3027.72-280445-235197-263393-307428-286619-307333
3033.50-290137-258669-291414-288642-292310-294384
3039.29-327508-296825-244043-270872-301061-320779
3045.08-287726-285569-321788-258945-312879-294217
3050.86-297495-251893-275197-279084-345489-296250
3056.65-339547-327854-298551-293427-251920-228253
3062.43-283287-264167-306516-290656-329404-276681
3068.22-315947-294791-320969-258309-259052-251222
3074.00-267798-251281-262892-304620-353406-274513
3079.79-247894-245503-308711-247018-266659-229374
3085.57-279967-252447-296867-304125-272848-278351
3091.36-270472-223166-214458-247968-276630-179243
3097.14-229696-213479-297910-257217-202404-276768
3102.93-196443-234238-226262-239636-252050-209655
3108.72-252198-181242-195555-165103-219326-214069
3114.50-245942-242684-271363-203778-199745-190414
3120.29-188425-195732-216916-192575-251453-252083
3126.07-222777-190486-220327-206818-164458-190662
3131.86-159804-178884-200800-166899-150118-150802
3137.64-183826-188618-194412-153120-138776-181592
3143.43-144029-157374-193277-196497-225813-162315
3149.21-176990-184410-203141-143621-186869-124510
3155.00-158725-173838-196457-177044-193438-150049
3160.78-190815-187964-142088-160253-157965-170657
3166.57-175084-137805-169326-172466-172705-165939
3172.36-196557-125737-184865-164799-202034-187411
3178.14-216448-150708-172703-185521-179900-170577
3183.93-117532-163507-143377-197087-193623-192269
3189.71-195131-192554-180851-209097-187485-160481
3195.50-266599-126020-172254-146628-172316-150139
3201.28-163608-185823-223778-248410-235617-190444
3207.07-215869-175226-206189-161580-203758-111186
3212.85-164666-157997-169455-191397-213074-305659
3218.64-204453-185397-218645-159392-161166-157779
3224.42-143798-191940-171777-205753-182951-189837
3230.21-185276-155244-155010-143545-188883-176213
3236.00-200108-162193-190909-226785-188045-104013
3241.78-173092-147719-235884-164516-167113-187063
3247.57-162980-146443-114771-103450-181379-169737
3253.35-196414-103416-124789-116833-134896-116779
3259.14-167079-128106-143083-137496-134297-105876
3264.92-148983-149984-135789-130749-213952-154642
3270.71-150772-135806-127048-132811-171706-125060
3276.49-154401-120965-121176-122228-132649-144042
3282.28-163116-122754-105460-114243-140269-102593
3288.06-105676-97112-174308-198546-181457-154957
3293.85-161075-90683-124646-103823-174710-148533
3299.64-198833-169982-165983-135302-196117-178843
3305.42-134628-147174-139494-153007-212666-152608
3311.21-160275-180323-92778-173251-220426-131930
3316.99-186544-162619-206296-182695-202628-197849
3322.78-174577-128182-199333-159660-197224-153105
3328.56-137910-169750-199156-145013-174991-205856
3334.35-233233-181827-206354-219102-158891-215956
3340.13-225630-172822-194660-86344-206907-150704
3345.92-218295-196827-267199-188442-200909-190233
3351.70-213841-224636-272926-240333-201676-200578
3357.49-181657-203485-272153-202360-257627-237734
3363.28-259410-218850-232695-205578-265619-233243
3369.06-202442-220541-283293-245103-219294-227323
3374.85-303163-201104-202527-214809-202900-248159
3380.63-287125-183801-250988-195708-252419-148005
3386.42-242895-190938-212658-200946-220129-194985
3392.20-258308-243415-243791-186966-178879-267656
3397.99-206644-232399-276076-249996-263301-266291
3403.77-219472-277320-235786-234256-199941-224158
3409.56-228700-178645-233535-201498-202750-270756
3415.34-229932-170875-278135-260454-196493-223817
3421.13-264337-248426-236774-271643-258896-196231
3426.92-233884-207882-215356-200076-219333-211399
3432.70-197954-239430-267454-254605-182900-170279
3438.49-272893-191302-261940-192902-217463-208263
3444.27-238585-188343-214372-207212-209095-270204
3450.06-224307-258025-224960-214461-230983-118693
3455.84-193733-255223-221524-182719-199299-264170
3461.63-231761-202817-212303-247010-202887-191285
3467.41-207793-202966-202798-225303-229976-164260
3473.20-281901-238404-192736-236757-256239-191277
3478.98-209640-218133-227118-199540-202623-243295
3484.77-286453-203782-274368-212175-227235-215951
3490.56-216232-190002-231392-196533-223652-246122
3496.34-265460-215840-222397-213505-209811-189615
3502.13-174881-265999-273549-299594-307692-248826
3507.91-302976-290040-328771-268965-309771-229582
3513.70-292065-299153-328266-301737-285393-330270
3519.48-301887-254574-264262-286627-240116-284399
3525.27-322256-271606-303939-273779-319308-330852
3531.05-358421-229262-295798-226544-245213-332228
3536.84-294786-328391-352533-371191-359611-292432
3542.62-261066-231960-207834-231648-269350-223612
3548.41-288330-299685-316596-315575-308024-227729
3554.20-250580-216774-226487-248444-244464-271561
3559.98-278592-247794-218621-218979-264081-154873
3565.77-253439-146744-237278-234760-216223-211411
3571.55-224340-208589-234917-242243-226626-260994
3577.34-185193-204849-214454-234909-187363-266012
3583.12-205867-202452-185466-155215-215760-162013
3588.91-201394-183654-265678-236062-271162-190491
3594.69-188995-243145-236034-190281-284646-176148
3600.48-271033-241147-267811-255650-264203-281568
3606.26-247118-244686-125950-211360-309568-202669
3612.05-244058-233622-291707-286585-299903-250199
3617.84-251130-155706-291416-237533-277060-291388
3623.62-295887-206650-243904-185643-238137-144922
3629.41-225904-250003-331422-304141-370962-363146
3635.19-352209-268151-247215-186813-271592-215512
3640.98-271606-257317-330236-316252-283007-224598
3646.76-283921-205276-145249-261848-240058-332695
3652.55-301113-378571-316046-225735-295859-369754
3658.33-352113-355874-291915-332300-318444-311536
3664.12-374393-310250-326552-343332-272209-236221
3669.90-119484-360076-300236-280918-210187-155651
3675.69-259330-372591-307555-295904-341317-330022
3681.48-249333-274511-310763-299916-310175-359105
3687.26-96452-305302-394650-232577-289423-283822
3693.05-366447-361595-326633-321896-330574-355193
3698.83-322911-341350-282934-292943-328283-287126
3704.62-270742-224937-310023-231217-211507-325248
3710.40-259360-149324-335183-308630-312056-338145
3716.19-304482-304150-315719-291281-289604-260073
3721.97-281747-273307-262174-260938-275005-286361
3727.76-302509-319598-320548-218509-186553-348756
3733.54-184356-263803-243083-205257-306269-269867
3739.33-293683-279526-322040-311361-64858-55322
3745.12-409997-259128-345507-150109-149244-368372
3750.90-69356-220006-375476-282554-314146-214741
3756.69-320059-296956-326419-310336-334068-350699
3762.47-334118-326234-282781-267059-296187-330448
3768.26-303953-210797-373205-315213-344337-281147
3774.04-313728-312637-299116-303116-324440-303099
3779.83-368825-315218-360615-319418-294771-310253
3785.61-330385-355233-344832-279214-288724-288651
3791.40-354248-310534-323348-292323-294236-270501
3797.18-397331-275417-402508-113964-167872-314048
3802.97-291923-285466-336994-139051-269710-292061
3808.76-301748-346674-339359-328137-349875-314737
3814.54-212267-90477-402536-287649-325972-226374
3820.33-204721-226960-316094-273106-394898-280663
3826.11-315129-319569-344272-288274-293328-241085
3831.90-317117-319239-260329-286349-371142-86988
3837.68-291835-355579-258868-261163-357532-254363
3843.47-296656-330553-330547-312117-317503-325478
3849.25-319864-289580-128375-294789 61716-190124
3855.04-356031-313810-364857-273001-422131-361741
3860.82-291396-338790-420633-313708-292621-333157
3866.61-319891-334853-274312-243612-347075-338145
3872.40-407938-308959-416144-376942-380628-328220
3878.18-366739-287510-356072-375968-369098-402149
3883.97-408208-190773-372009-348364-385292-360654
3889.75-355637-245880-409489-302422-397580-356309
3895.54-451770-353765-371760-314245-360613-294179
3901.32-352984-327799-235163-332570-356773-366317
3907.11-427443-393375-398919-391792-396523-360621
3912.89-371277-367663-427235-330055-361997-436511
3918.68-354271-330176-430831-328742-353333-355051
3924.46-351511-294238-364534-372981-340774-371499
3930.25-399306-355423-343472-365318-346947-311749
3936.04-333237-321955-396939-295266-340900-315464
3941.82-331763-310605-409401-367409-334695-324581
3947.61-367328-302829-261575-321965-325778-332269
3953.39-392934-344899-332152-353367-341270-247581
3959.18-329239-301628-365687-384455-376131-279755
3964.96-339634-339144-341732-367422-342520-293177
3970.75-316491-300962-356779-277311
##END=
