##TITLE=N,N-DIMETHYL ACETAMIDE
$$ E.K. (W.L.)
##JCAMP-DX=4.24
##DATA TYPE=INFRARED SPECTRUM
##CLASS=COBLENTZ
##ORIGIN=WYANDOTTE CHEMICALS CORP., WYANDOTTE, MICHIGAN, USA
##OWNER=COBLENTZ SOCIETY
Collection (C) 2018 copyright by the U.S. Secretary of Commerce
on behalf of the United States of America. All rights reserved.
##DATE=Not specified, most likely prior to 1970
##NAMES=N,N-dimethylacetamide
##CAS REGISTRY NO=127-19-5
##MOLFORM=C4 H9 N O
##SOURCE REFERENCE=COBLENTZ NO. 1226
##$NIST SOURCE=COBLENTZ
##$NIST IMAGE=cob1226
##SPECTROMETER/DATA SYSTEM=Not specified, most likely a prism, grating, or hybrid spectrometer.
##SAMPLING PROCEDURE=TRANSMISSION
##RESOLUTION=4
##DATA PROCESSING=DIGITIZED BY NIST FROM HARD COPY
##XUNITS=MICROMETERS
##YUNITS=TRANSMITTANCE
##XFACTOR=1.000000
##YFACTOR=1
##DELTAX=000.006653
##FIRSTX=2
##LASTX=15.9516
##FIRSTY=0.976
##MAXX=15.9516
##MINX=2
##MAXY=1.008
##MINY=0.031
##NPOINTS=2098
##XYDATA=(X++(Y..Y))
2.000000 0.9760 0.9760 0.9760 0.9760 0.9760
2.033281 0.9760 0.9760 0.9760 0.9760 0.9760
2.067000 0.9760 0.9760 0.9760 0.9760 0.9750
2.100281 0.9750 0.9750 0.9730 0.9710 0.9700
2.133000 0.9680 0.9630 0.9600 0.9550 0.9500
2.166281 0.9450 0.9410 0.9350 0.9300 0.9210
2.200000 0.9160 0.9130 0.9130 0.9150 0.9180
2.233281 0.9210 0.9260 0.9310 0.9350 0.9410
2.266000 0.9450 0.9480 0.9500 0.9510 0.9530
2.299281 0.9550 0.9550 0.9580 0.9600 0.9600
2.333000 0.9630 0.9650 0.9680 0.9680 0.9680
2.366281 0.9700 0.9700 0.9700 0.9700 0.9700
2.399000 0.9700 0.9700 0.9700 0.9700 0.9700
2.432281 0.9700 0.9680 0.9680 0.9700 0.9700
2.466000 0.9700 0.9710 0.9710 0.9730 0.9750
2.499281 0.9760 0.9780 0.9800 0.9800 0.9810
2.532000 0.9810 0.9830 0.9810 0.9850 0.9850
2.565281 0.9850 0.9860 0.9880 0.9880 0.9900
2.599000 0.9900 0.9910 0.9910 0.9910 0.9910
2.632281 0.9910 0.9910 0.9910 0.9910 0.9910
2.665000 0.9900 0.9880 0.9880 0.9860 0.9860
2.698281 0.9860 0.9850 0.9830 0.9810 0.9800
2.732000 0.9760 0.9710 0.9660 0.9600 0.9500
2.765281 0.9400 0.9260 0.9100 0.9030 0.8980
2.798000 0.8930 0.8920 0.8920 0.8920 0.8900
2.831281 0.8900 0.8900 0.8900 0.8900 0.8920
2.865000 0.8930 0.8950 0.8950 0.8970 0.9000
2.898281 0.9010 0.9050 0.9050 0.9100 0.9130
2.931000 0.9160 0.9210 0.9250 0.9260 0.9310
2.964281 0.9330 0.9360 0.9400 0.9410 0.9410
2.998000 0.9410 0.9410 0.9410 0.9400 0.9400
3.031281 0.9350 0.9310 0.9210 0.9000 0.8820
3.064000 0.8780 0.8770 0.8800 0.9010 0.9110
3.097281 0.9160 0.9200 0.9280 0.9280 0.9280
3.131000 0.9280 0.9230 0.9160 0.9100 0.9050
3.164281 0.9030 0.8980 0.8950 0.8900 0.8730
3.198000 0.8650 0.8580 0.8530 0.8480 0.8430
3.231281 0.8350 0.8250 0.8100 0.8020 0.7870
3.264000 0.7700 0.7450 0.7170 0.6820 0.6110
3.297281 0.6070 0.5140 0.5080 0.5030 0.5010
3.331000 0.4960 0.4880 0.4680 0.3900 0.3020
3.364281 0.2400 0.2290 0.1770 0.1760 0.1770
3.397000 0.1920 0.2120 0.2400 0.2450 0.2690
3.430281 0.2820 0.3000 0.3100 0.3270 0.3380
3.464000 0.3480 0.3580 0.3700 0.3880 0.4110
3.497281 0.4450 0.4900 0.5360 0.5530 0.5880
3.530000 0.6120 0.6310 0.6460 0.6570 0.6670
3.563281 0.6790 0.6940 0.7120 0.7370 0.7600
3.597000 0.7770 0.7900 0.8030 0.8230 0.8530
3.630281 0.8950 0.9000 0.9050 0.9110 0.9160
3.663000 0.9210 0.9230 0.9260 0.9300 0.9330
3.696281 0.9350 0.9360 0.9380 0.9410 0.9450
3.730000 0.9480 0.9510 0.9530 0.9550 0.9600
3.763281 0.9630 0.9650 0.9680 0.9700 0.9710
3.796000 0.9750 0.9780 0.9780 0.9760 0.9750
3.829281 0.9750 0.9730 0.9710 0.9700 0.9680
3.863000 0.9660 0.9680 0.9680 0.9700 0.9700
3.896281 0.9710 0.9730 0.9730 0.9750 0.9730
3.929000 0.9730 0.9730 0.9730 0.9730 0.9730
3.962281 0.9730 0.9730 0.9700 0.9700 0.9700
3.996000 0.9700 0.9700 0.9710 0.9710 0.9710
4.029281 0.9710 0.9750 0.9760 0.9760 0.9780
4.062000 0.9780 0.9780 0.9780 0.9780 0.9780
4.095281 0.9780 0.9780 0.9780 0.9800 0.9800
4.129000 0.9810 0.9810 0.9830 0.9830 0.9830
4.162281 0.9830 0.9830 0.9810 0.9810 0.9800
4.195000 0.9800 0.9780 0.9760 0.9750 0.9730
4.228281 0.9710 0.9710 0.9710 0.9710 0.9710
4.262000 0.9710 0.9730 0.9730 0.9760 0.9780
4.295281 0.9800 0.9810 0.9830 0.9850 0.9850
4.329000 0.9880 0.9880 0.9900 0.9900 0.9910
4.362281 0.9930 0.9950 0.9950 0.9950 0.9960
4.395000 0.9960 0.9960 0.9960 0.9960 0.9960
4.428281 0.9960 0.9960 0.9960 0.9960 0.9950
4.462000 0.9950 0.9950 0.9930 0.9930 0.9910
4.495281 0.9910 0.9900 0.9880 0.9880 0.9850
4.528000 0.9830 0.9810 0.9780 0.9760 0.9750
4.561281 0.9710 0.9710 0.9710 0.9710 0.9730
4.595000 0.9750 0.9750 0.9750 0.9760 0.9780
4.628281 0.9800 0.9810 0.9830 0.9850 0.9860
4.661000 0.9880 0.9880 0.9900 0.9900 0.9900
4.694281 0.9900 0.9880 0.9860 0.9810 0.9780
4.728000 0.9600 0.9560 0.9560 0.9560 0.9580
4.761281 0.9600 0.9600 0.9630 0.9650 0.9680
4.794000 0.9700 0.9750 0.9800 0.9800 0.9810
4.827281 0.9860 0.9880 0.9910 0.9930 0.9930
4.861000 0.9930 0.9950 0.9980 0.9980 0.9980
4.894281 1.0000 1.0010 1.0010 1.0010 1.0010
4.927000 1.0010 1.0030 1.0030 1.0030 1.0030
4.960281 1.0030 1.0030 1.0030 1.0030 1.0030
4.994000 1.0030 1.0030 1.0010 1.0000 1.0000
5.027281 0.9980 0.9960 0.9960 0.9950 0.9930
5.060000 0.9900 0.9900 0.9900 0.9900 0.9900
5.093281 0.9950 0.9980 0.9980 0.9980 1.0000
5.127000 1.0000 1.0010 1.0010 1.0010 1.0030
5.160281 1.0030 1.0030 1.0030 1.0030 1.0030
5.193000 1.0030 1.0030 1.0030 1.0030 1.0030
5.226281 1.0030 1.0010 1.0000 0.9980 0.9960
5.260000 0.9950 0.9930 0.9910 0.9910 0.9910
5.293281 0.9950 1.0000 1.0010 1.0010 1.0010
5.327000 1.0030 1.0030 1.0040 1.0040 1.0040
5.360281 1.0040 1.0040 1.0040 1.0040 1.0040
5.393000 1.0060 1.0080 1.0080 1.0080 1.0080
5.426281 1.0060 1.0060 1.0040 1.0040 1.0030
5.460000 1.0030 1.0010 1.0000 1.0010 1.0010
5.493281 1.0010 1.0000 0.9980 0.9960 0.9950
5.526000 0.9900 0.9880 0.9880 0.9860 0.9830
5.559281 0.9810 0.9800 0.9780 0.9780 0.9750
5.593000 0.9730 0.9700 0.9680 0.9630 0.9600
5.626281 0.9530 0.9530 0.9510 0.9500 0.9460
5.659000 0.9430 0.9360 0.9280 0.9160 0.9010
5.692281 0.8970 0.8720 0.8380 0.7800 0.7340
5.726000 0.7020 0.7000 0.7020 0.7190 0.7340
5.759281 0.7520 0.7590 0.7750 0.7870 0.7890
5.792000 0.7900 0.7890 0.7650 0.7520 0.7350
5.825281 0.7250 0.7100 0.6910 0.6710 0.6490
5.859000 0.6320 0.6210 0.6040 0.5860 0.5740
5.892281 0.5440 0.5290 0.5090 0.5000 0.4760
5.925000 0.3870 0.3480 0.3050 0.2620 0.2600
5.958281 0.0830 0.0810 0.0630 0.0410 0.0340
5.992000 0.0340 0.0310 0.0310 0.0310 0.0330
6.025281 0.0330 0.0360 0.0360 0.0360 0.0360
6.058000 0.0340 0.0330 0.0330 0.0330 0.0330
6.091281 0.0380 0.0460 0.0490 0.0590 0.0680
6.125000 0.0810 0.0990 0.1210 0.1470 0.1760
6.158281 0.2050 0.2350 0.2670 0.2990 0.3270
6.191000 0.3530 0.3970 0.4180 0.4280 0.4360
6.224281 0.4550 0.4930 0.5610 0.5740 0.5860
6.258000 0.5910 0.5960 0.5990 0.6010 0.6010
6.291281 0.5990 0.5940 0.5860 0.5790 0.5730
6.324000 0.5730 0.5630 0.5540 0.5480 0.5410
6.357281 0.5340 0.5260 0.5040 0.4300 0.3930
6.391000 0.3580 0.3230 0.3220 0.3220 0.3230
6.424281 0.3280 0.3350 0.3450 0.3570 0.3750
6.458000 0.3900 0.4110 0.4200 0.4200 0.4130
6.491281 0.3920 0.3700 0.3600 0.3400 0.3250
6.524000 0.2950 0.2750 0.2550 0.2400 0.2140
6.557281 0.2090 0.1990 0.1870 0.1740 0.1590
6.591000 0.1420 0.1240 0.1060 0.0910 0.0830
6.624281 0.0780 0.0760 0.0780 0.0810 0.0880
6.657000 0.1010 0.1060 0.1160 0.1210 0.1260
6.690281 0.1290 0.1310 0.1320 0.1360 0.1370
6.724000 0.1410 0.1440 0.1470 0.1510 0.1540
6.757281 0.1540 0.1540 0.1520 0.1490 0.1420
6.790000 0.1410 0.1410 0.1410 0.1410 0.1440
6.823281 0.1440 0.1420 0.1410 0.1360 0.1360
6.857000 0.1270 0.1220 0.1210 0.1190 0.1170
6.890281 0.1170 0.1160 0.1160 0.1160 0.1160
6.923000 0.1160 0.1160 0.1140 0.1140 0.1140
6.956281 0.1110 0.1090 0.1090 0.1060 0.1040
6.990000 0.0980 0.0860 0.0790 0.0710 0.0640
7.023281 0.0560 0.0510 0.0480 0.0460 0.0430
7.056000 0.0410 0.0410 0.0390 0.0390 0.0380
7.089281 0.0380 0.0380 0.0360 0.0360 0.0360
7.123000 0.0360 0.0360 0.0360 0.0360 0.0380
7.156281 0.0380 0.0380 0.0410 0.0490 0.0610
7.189000 0.0910 0.1170 0.1390 0.1590 0.1790
7.222281 0.1960 0.2120 0.2290 0.2470 0.2650
7.256000 0.2840 0.3050 0.3270 0.3380 0.3480
7.289281 0.3470 0.3430 0.3280 0.3170 0.2970
7.322000 0.2790 0.2540 0.2400 0.2140 0.1890
7.355281 0.1860 0.1860 0.1890 0.2050 0.2100
7.389000 0.3420 0.4360 0.4530 0.4700 0.4850
7.422281 0.5010 0.5130 0.5490 0.5690 0.5880
7.455000 0.6040 0.6170 0.6310 0.6410 0.6510
7.488281 0.6610 0.6690 0.6770 0.6840 0.6910
7.522000 0.6990 0.7070 0.7140 0.7170 0.7200
7.555281 0.7240 0.7270 0.7290 0.7320 0.7350
7.589000 0.7390 0.7440 0.7470 0.7490 0.7520
7.622281 0.7520 0.7570 0.7570 0.7570 0.7570
7.655000 0.7570 0.7550 0.7540 0.7540 0.7500
7.688281 0.7500 0.7490 0.7470 0.7450 0.7390
7.722000 0.7320 0.7270 0.7200 0.7150 0.7100
7.755281 0.7040 0.6970 0.6910 0.6840 0.6740
7.788000 0.6640 0.6320 0.5990 0.5640 0.5210
7.821281 0.5040 0.4810 0.4450 0.3730 0.3500
7.855000 0.2890 0.2390 0.1660 0.1640 0.1660
7.888281 0.1760 0.2100 0.2400 0.2690 0.2970
7.921000 0.3250 0.3550 0.3850 0.4180 0.4550
7.954281 0.4850 0.5130 0.5380 0.5590 0.5790
7.988000 0.5990 0.6160 0.6310 0.6440 0.6540
8.021281 0.6640 0.6720 0.6790 0.6870 0.6940
8.054000 0.7000 0.7050 0.7120 0.7170 0.7220
8.087281 0.7250 0.7270 0.7270 0.7290 0.7290
8.121000 0.7290 0.7290 0.7270 0.7240 0.7240
8.154281 0.7200 0.7170 0.7120 0.7050 0.6970
8.187000 0.6890 0.6810 0.6720 0.6640 0.6560
8.220281 0.6490 0.6390 0.6260 0.6170 0.6040
8.254000 0.5960 0.5910 0.5830 0.5710 0.5480
8.287281 0.5310 0.5040 0.4850 0.4700 0.4560
8.320000 0.4430 0.4260 0.4030 0.3720 0.3500
8.353281 0.3350 0.3130 0.2850 0.2170 0.1960
8.387000 0.1760 0.1240 0.1020 0.1010 0.1010
8.420281 0.1010 0.1010 0.1110 0.1470 0.2020
8.453000 0.2140 0.2200 0.2250 0.2320 0.2400
8.486281 0.2490 0.2600 0.2720 0.2820 0.3050
8.520000 0.3220 0.3500 0.3900 0.4380 0.4810
8.553281 0.5160 0.5290 0.5460 0.5610 0.5760
8.586000 0.5910 0.6060 0.6210 0.6360 0.6490
8.619281 0.6620 0.6740 0.6860 0.6960 0.7040
8.653000 0.7100 0.7150 0.7220 0.7290 0.7300
8.686281 0.7390 0.7420 0.7490 0.7520 0.7600
8.720000 0.7640 0.7700 0.7740 0.7770 0.7800
8.753281 0.7840 0.7890 0.7920 0.7970 0.8000
8.786000 0.8050 0.8100 0.8150 0.8200 0.8220
8.819281 0.8230 0.8280 0.8280 0.8300 0.8320
8.853000 0.8330 0.8350 0.8370 0.8370 0.8380
8.886281 0.8370 0.8380 0.8380 0.8380 0.8380
8.919000 0.8380 0.8380 0.8400 0.8380 0.8380
8.952281 0.8380 0.8380 0.8380 0.8380 0.8380
8.986000 0.8380 0.8380 0.8380 0.8370 0.8370
9.019281 0.8370 0.8350 0.8370 0.8350 0.8350
9.052000 0.8320 0.8330 0.8320 0.8320 0.8300
9.085281 0.8300 0.8280 0.8270 0.8250 0.8250
9.119000 0.8220 0.8220 0.8200 0.8180 0.8180
9.152281 0.8130 0.8100 0.8070 0.8050 0.8020
9.185000 0.7990 0.7940 0.7870 0.7770 0.7740
9.218281 0.7700 0.7650 0.7620 0.7570 0.7500
9.252000 0.7440 0.7350 0.7270 0.7190 0.7070
9.285281 0.6940 0.6810 0.6660 0.6470 0.6340
9.318000 0.6170 0.6040 0.5910 0.5740 0.5560
9.351281 0.5480 0.5330 0.5180 0.5030 0.4980
9.385000 0.4830 0.4710 0.4650 0.4610 0.4610
9.418281 0.4610 0.4610 0.4630 0.4680 0.4760
9.451000 0.4910 0.5000 0.5060 0.5160 0.5260
9.484281 0.5360 0.5460 0.5560 0.5630 0.5690
9.518000 0.5690 0.5690 0.5690 0.5660 0.5560
9.551281 0.5460 0.5310 0.5180 0.5130 0.5040
9.584000 0.4950 0.4830 0.4710 0.4600 0.4480
9.617281 0.4380 0.4280 0.4180 0.4110 0.4100
9.651000 0.4100 0.4130 0.4180 0.4410 0.4500
9.684281 0.4500 0.4500 0.4500 0.4500 0.4500
9.718000 0.4410 0.4310 0.4260 0.4110 0.3970
9.751281 0.3680 0.3520 0.3250 0.2940 0.2850
9.784000 0.2650 0.2200 0.1870 0.1570 0.1460
9.817281 0.1310 0.1160 0.0990 0.0880 0.0790
9.851000 0.0660 0.0580 0.0560 0.0540 0.0540
9.884281 0.0540 0.0560 0.0730 0.0760 0.0910
9.917000 0.1040 0.1210 0.1740 0.2450 0.2600
9.950281 0.2870 0.3030 0.3280 0.3620 0.3970
9.984000 0.4360 0.4760 0.5130 0.5480 0.5740
10.017281 0.5830 0.5960 0.6140 0.6310 0.6490
10.050000 0.6660 0.6790 0.6910 0.7000 0.7100
10.083281 0.7190 0.7270 0.7340 0.7400 0.7470
10.117000 0.7520 0.7590 0.7640 0.7700 0.7770
10.150281 0.7840 0.7900 0.7940 0.7970 0.8000
10.183000 0.8050 0.8120 0.8150 0.8200 0.8220
10.216281 0.8270 0.8280 0.8300 0.8330 0.8350
10.250000 0.8380 0.8420 0.8450 0.8470 0.8480
10.283281 0.8520 0.8530 0.8550 0.8550 0.8550
10.316000 0.8550 0.8530 0.8530 0.8520 0.8520
10.349281 0.8500 0.8480 0.8430 0.8400 0.8330
10.383000 0.8280 0.8200 0.8080 0.8050 0.8000
10.416281 0.7970 0.7950 0.7950 0.7970 0.8000
10.449000 0.8000 0.8050 0.8130 0.8220 0.8280
10.482281 0.8300 0.8380 0.8420 0.8470 0.8480
10.516000 0.8530 0.8570 0.8630 0.8650 0.8680
10.549281 0.8720 0.8750 0.8780 0.8800 0.8820
10.582000 0.8850 0.8900 0.8920 0.8920 0.8930
10.615281 0.8970 0.8970 0.8980 0.9000 0.9010
10.649000 0.9030 0.9060 0.9100 0.9100 0.9110
10.682281 0.9130 0.9150 0.9160 0.9180 0.9200
10.715000 0.9200 0.9210 0.9230 0.9250 0.9250
10.748281 0.9260 0.9280 0.9280 0.9300 0.9300
10.782000 0.9310 0.9310 0.9330 0.9350 0.9350
10.815281 0.9350 0.9350 0.9360 0.9360 0.9360
10.849000 0.9360 0.9380 0.9380 0.9380 0.9380
10.882281 0.9380 0.9400 0.9400 0.9400 0.9400
10.915000 0.9400 0.9410 0.9410 0.9410 0.9410
10.948281 0.9430 0.9430 0.9430 0.9430 0.9430
10.982000 0.9430 0.9430 0.9450 0.9460 0.9460
11.015281 0.9480 0.9480 0.9500 0.9510 0.9510
11.048000 0.9530 0.9530 0.9530 0.9550 0.9550
11.081281 0.9550 0.9560 0.9560 0.9560 0.9560
11.115000 0.9580 0.9580 0.9580 0.9580 0.9580
11.148281 0.9600 0.9600 0.9600 0.9580 0.9580
11.181000 0.9580 0.9580 0.9580 0.9600 0.9600
11.214281 0.9600 0.9600 0.9600 0.9610 0.9610
11.248000 0.9610 0.9610 0.9610 0.9610 0.9610
11.281281 0.9610 0.9610 0.9610 0.9600 0.9600
11.314000 0.9600 0.9600 0.9600 0.9610 0.9610
11.347281 0.9610 0.9610 0.9610 0.9610 0.9630
11.381000 0.9610 0.9610 0.9610 0.9630 0.9630
11.414281 0.9630 0.9630 0.9630 0.9630 0.9630
11.447000 0.9630 0.9630 0.9630 0.9630 0.9630
11.480281 0.9630 0.9660 0.9660 0.9660 0.9660
11.514000 0.9660 0.9660 0.9660 0.9660 0.9680
11.547281 0.9680 0.9680 0.9680 0.9680 0.9680
11.580000 0.9680 0.9680 0.9680 0.9680 0.9680
11.613281 0.9680 0.9680 0.9700 0.9680 0.9680
11.647000 0.9680 0.9680 0.9680 0.9680 0.9680
11.680281 0.9680 0.9680 0.9680 0.9680 0.9680
11.713000 0.9680 0.9680 0.9680 0.9680 0.9680
11.746281 0.9680 0.9680 0.9680 0.9680 0.9680
11.780000 0.9680 0.9680 0.9680 0.9680 0.9680
11.813281 0.9680 0.9700 0.9700 0.9700 0.9700
11.846000 0.9700 0.9700 0.9700 0.9700 0.9700
11.879281 0.9700 0.9700 0.9710 0.9710 0.9710
11.913000 0.9710 0.9710 0.9710 0.9710 0.9710
11.946281 0.9710 0.9710 0.9710 0.9710 0.9710
11.980000 0.9710 0.9710 0.9730 0.9730 0.9710
12.013281 0.9710 0.9710 0.9710 0.9710 0.9730
12.046000 0.9730 0.9730 0.9730 0.9730 0.9730
12.079281 0.9730 0.9730 0.9730 0.9730 0.9730
12.113000 0.9730 0.9730 0.9730 0.9730 0.9730
12.146281 0.9750 0.9750 0.9750 0.9750 0.9750
12.179000 0.9750 0.9750 0.9750 0.9750 0.9730
12.212281 0.9730 0.9730 0.9750 0.9750 0.9750
12.246000 0.9750 0.9750 0.9750 0.9750 0.9750
12.279281 0.9750 0.9730 0.9730 0.9730 0.9750
12.312000 0.9730 0.9730 0.9730 0.9730 0.9730
12.345281 0.9730 0.9730 0.9730 0.9730 0.9730
12.379000 0.9730 0.9730 0.9730 0.9730 0.9710
12.412281 0.9710 0.9710 0.9710 0.9710 0.9710
12.445000 0.9710 0.9710 0.9710 0.9710 0.9710
12.478281 0.9710 0.9710 0.9710 0.9710 0.9710
12.512000 0.9710 0.9710 0.9700 0.9700 0.9700
12.545281 0.9700 0.9710 0.9700 0.9700 0.9700
12.578000 0.9700 0.9710 0.9710 0.9710 0.9710
12.611281 0.9700 0.9700 0.9700 0.9700 0.9700
12.645000 0.9710 0.9710 0.9700 0.9700 0.9710
12.678281 0.9700 0.9700 0.9700 0.9700 0.9700
12.711000 0.9700 0.9700 0.9700 0.9700 0.9700
12.744281 0.9700 0.9700 0.9700 0.9700 0.9700
12.778000 0.9700 0.9700 0.9680 0.9700 0.9700
12.811281 0.9700 0.9700 0.9700 0.9700 0.9700
12.844000 0.9680 0.9680 0.9680 0.9680 0.9680
12.877281 0.9680 0.9680 0.9680 0.9680 0.9680
12.911000 0.9680 0.9680 0.9680 0.9660 0.9680
12.944281 0.9680 0.9680 0.9660 0.9660 0.9630
12.977000 0.9630 0.9630 0.9630 0.9630 0.9630
13.010281 0.9630 0.9630 0.9650 0.9650 0.9630
13.044000 0.9630 0.9630 0.9630 0.9630 0.9610
13.077281 0.9610 0.9610 0.9610 0.9610 0.9610
13.111000 0.9600 0.9600 0.9600 0.9600 0.9580
13.144281 0.9600 0.9600 0.9600 0.9600 0.9580
13.177000 0.9580 0.9580 0.9560 0.9560 0.9550
13.210281 0.9550 0.9530 0.9550 0.9550 0.9550
13.244000 0.9530 0.9530 0.9510 0.9510 0.9500
13.277281 0.9500 0.9500 0.9480 0.9500 0.9480
13.310000 0.9460 0.9450 0.9450 0.9450 0.9430
13.343281 0.9430 0.9430 0.9430 0.9410 0.9410
13.377000 0.9400 0.9400 0.9400 0.9400 0.9380
13.410281 0.9350 0.9350 0.9330 0.9310 0.9310
13.443000 0.9300 0.9280 0.9260 0.9250 0.9230
13.476281 0.9210 0.9200 0.9180 0.9150 0.9110
13.510000 0.9100 0.9060 0.9030 0.9000 0.8950
13.543281 0.8850 0.8780 0.8720 0.8650 0.8570
13.576000 0.8500 0.8450 0.8380 0.8330 0.8300
13.609281 0.8280 0.8270 0.8270 0.8270 0.8280
13.643000 0.8300 0.8330 0.8380 0.8420 0.8450
13.676281 0.8520 0.8620 0.8680 0.8750 0.8800
13.709000 0.8850 0.8900 0.8930 0.9000 0.9010
13.742281 0.9030 0.9080 0.9100 0.9110 0.9130
13.776000 0.9130 0.9150 0.9160 0.9200 0.9210
13.809281 0.9210 0.9210 0.9230 0.9260 0.9260
13.842000 0.9260 0.9280 0.9280 0.9280 0.9280
13.875281 0.9300 0.9300 0.9310 0.9310 0.9310
13.909000 0.9330 0.9330 0.9330 0.9330 0.9350
13.942281 0.9350 0.9350 0.9350 0.9360 0.9360
13.975000 0.9360 0.9360 0.9360 0.9380 0.9400
14.008281 0.9400 0.9400 0.9400 0.9400 0.9400
14.042000 0.9400 0.9400 0.9400 0.9400 0.9400
14.075281 0.9400 0.9400 0.9400 0.9400 0.9400
14.108000 0.9400 0.9400 0.9400 0.9400 0.9400
14.141281 0.9400 0.9400 0.9400 0.9400 0.9400
14.175000 0.9400 0.9400 0.9400 0.9400 0.9400
14.208281 0.9400 0.9400 0.9400 0.9400 0.9400
14.242000 0.9400 0.9360 0.9360 0.9360 0.9360
14.275281 0.9360 0.9360 0.9360 0.9360 0.9360
14.308000 0.9380 0.9360 0.9360 0.9360 0.9360
14.341281 0.9360 0.9360 0.9360 0.9360 0.9360
14.375000 0.9360 0.9350 0.9350 0.9350 0.9350
14.408281 0.9330 0.9330 0.9330 0.9310 0.9310
14.441000 0.9310 0.9300 0.9300 0.9310 0.9300
14.474281 0.9280 0.9260 0.9280 0.9260 0.9250
14.508000 0.9250 0.9250 0.9230 0.9230 0.9210
14.541281 0.9210 0.9200 0.9200 0.9180 0.9180
14.574000 0.9180 0.9160 0.9160 0.9150 0.9130
14.607281 0.9110 0.9110 0.9100 0.9100 0.9100
14.641000 0.9100 0.9060 0.9060 0.9060 0.9050
14.674281 0.9030 0.9030 0.9010 0.9010 0.9000
14.707000 0.9000 0.9000 0.8980 0.8980 0.8970
14.740281 0.8970 0.8950 0.8950 0.8950 0.8930
14.774000 0.8930 0.8930 0.8930 0.8920 0.8920
14.807281 0.8900 0.8900 0.8900 0.8900 0.8880
14.840000 0.8880 0.8870 0.8870 0.8850 0.8830
14.873281 0.8850 0.8830 0.8830 0.8830 0.8830
14.907000 0.8820 0.8800 0.8800 0.8800 0.8800
14.940281 0.8780 0.8770 0.8770 0.8750 0.8750
14.973000 0.8730 0.8730 0.8720 0.8700 0.8680
15.006281 0.8670 0.8650 0.8650 0.8630 0.8630
15.040000 0.8620 0.8600 0.8600 0.8580 0.8580
15.073281 0.8580 0.8580 0.8580 0.8600 0.8580
15.106000 0.8580 0.8580 0.8570 0.8570 0.8550
15.139281 0.8550 0.8550 0.8550 0.8530 0.8550
15.173000 0.8530 0.8530 0.8520 0.8520 0.8500
15.206281 0.8500 0.8480 0.8470 0.8450 0.8430
15.240000 0.8420 0.8420 0.8400 0.8400 0.8380
15.273281 0.8380 0.8350 0.8320 0.8320 0.8320
15.306000 0.8320 0.8320 0.8300 0.8300 0.8300
15.339281 0.8280 0.8280 0.8280 0.8250 0.8250
15.373000 0.8230 0.8220 0.8200 0.8180 0.8170
15.406281 0.8130 0.8130 0.8120 0.8080 0.8070
15.439000 0.8070 0.8050 0.8050 0.8030 0.8020
15.472281 0.8020 0.8020 0.8020 0.8020 0.8020
15.506000 0.8020 0.8000 0.8000 0.7990 0.7990
15.539281 0.7990 0.7990 0.7990 0.7990 0.7970
15.572000 0.7970 0.7970 0.7950 0.7950 0.7940
15.605281 0.7920 0.7920 0.7900 0.7900 0.7900
15.639000 0.7890 0.7870 0.7870 0.7850 0.7850
15.672281 0.7840 0.7840 0.7820 0.7800 0.7800
15.705000 0.7790 0.7790 0.7790 0.7750 0.7750
15.738281 0.7720 0.7700 0.7700 0.7690 0.7690
15.772000 0.7690 0.7670 0.7670 0.7650 0.7650
15.805281 0.7650 0.7640 0.7640 0.7620 0.7620
15.838000 0.7600 0.7590 0.7590 0.7570 0.7570
15.871281 0.7550 0.7550 0.7540 0.7520 0.7500
15.905000 0.7490 0.7470 0.7450 0.7450 0.7440
15.938281 0.7440 0.7420 0.7420
##END=
