##TITLE=Tetrachloroethene
##JCAMP-DX=4.24
##DATA TYPE=INFRARED SPECTRUM
##CLASS=IUPAC A
##ORIGIN=NIST, Analytical Chemistry Division, 301-975-3108
##OWNER=COPYRIGHT (C) 2000 by the U.S. Secretary of Commerce
##DATE=00/02/01
##$SPECTRA VERSION=1.10
##$UNCERTAINTY IN Y=2.0 % relative (B=1.0E-04,C=1.6E-09,D=1.3E-13)
##CAS NAME=Tetrachloroethene
##CAS REGISTRY NO=127-18-4
##MOLFORM=C2 Cl4
##MP=-19 C
##BP=121 C
##$NIST SOURCE=QUANT-IR
##SPECTROMETER/DATA SYSTEM=IFS66V (Bruker)
##INSTRUMENT PARAMETERS=KBr Beam Splitter; MCT Detector; Multipass cell
##STATE=gas
##SAMPLE DESCRIPTION=Tetrachloroethene Primary Gas Standard
##PRESSURE=101.3 Pa
##TEMPERATURE=23 C
##SAMPLING PROCEDURE=1 L/min Flow
##RESOLUTION=0.9640
##DATA PROCESSING=3-Term B-H Apodization
##XUNITS=cm-1
##YUNITS=(micromol/mol)-1m-1 (base 10)
##XFACTOR=1.0
##YFACTOR=18.189E-13
##DELTAX=0.4820
##FIRSTX=575.17
##LASTX=3974.605
##FIRSTY=5.71E-07
##MAXX=3974.12
##MINX=575.17
##MAXY=.0014499
##MINY=-8.89E-07
##NPOINTS=7052
##XYDATA=(X++(Y..Y))
575.17 313977 584819 433977 48755-264722-214025
577.58 104535 373352 440641 232549 112917 183309
580.47 227740 142285-51702-169260-75854 96121
583.37 13287-117949-22340 86466 9943-105516
586.26-103330-49086 151706 333603 359344 392152
589.15 330035 145233 3320-85486-65982 72942
592.04 150457 53723-40786-42455-27403-27247
594.94 32683 61138-49368-103157-55041-64358
597.83-85455 36425 259146 261184 94804-28771
600.72-101771-138770-169133-104720 65159 100415
603.62 41000-2851-76323-90668 7435 73324
606.51 44905 67423 143244 172604 125165 80553
609.40 50487 26328 57318 90186 83956 80207
612.29 113282 105249 77960 107971 80396 75414
615.19 87649 84587 144751 173368 85025-24716
618.08 23789 129998 116284 55562 48357 105198
620.97 114010-1751-81926-61465-31075-41602
623.86-74751-134147-178470-111218-68676-105230
626.76-89050-73995-126677-148442-98264-55728
629.65-86028-129388-153451-243642-300518-225924
632.54-155199-131309-93321-109540-204890-253154
635.44-237728-204070-167578-145646-98432-16893
638.33 37518-15545-117190-181221-189064-112235
641.22 4710 26119-77192-152118-131106-103570
644.11-140401-176217-147869-141121-158463-108499
647.01-54968-66350-72176-64414-77534-83063
649.90-103658-193059-238815-172566-89602-71223
652.79-41713-14963-50237-68158-85049-119899
655.68-71485 19064 35903-39214-97662-71807
658.58-53055-103490-111023-66497-93883-121326
661.47-86558-49659-60216-64120-53552-91632
664.36-134688-142961-121722-81030 72188 508620
667.26 847168 629899 253723 78984 2465-65812
670.15-89319-72384-70072-77127-83067-107620
673.04-91685-17379 45933 64117 27871-3064
675.93 8147 47378 133855 220511 251732 259076
678.83 276321 284204 289852 316454 346811 353310
681.72 382679 427483 450981 495173 569644 600694
684.61 592416 565431 536435 593635 688915 665760
687.50 572156 550690 571646 611574 647794 599746
690.40 552102 574176 575749 517525 463287 444659
693.29 459834 473106 436617 416824 411660 376388
696.18 337819 293006 247204 184518 130083 143401
699.08 144757 114782 70293-21964-100498-102698
701.97-77918-95607-120894-147774-184337-187906
704.86-169883-137319-109200-129312-130750-120993
707.75-151436-145301-127574-134847-95866-60059
710.65-92976-119266-82232-43979-84365-151425
713.54-166846-150218-164625-165269-127252-137986
716.43-186413-197162-135991-61825-23425-28347
719.32-60035-79837-112161-141346-121896-93672
722.22-109560-124027-100097-88181-83799-38103
725.11 7520 18911 18229 8866 12661 34202
728.00 60632 77131 63889 65415 85764 113030
730.90 134257 151309 172341 245047 358372 382249
733.79 394929 490124 585682 671726 809642 984691
736.68 1124692 1301653 1578166 1859542 2142262 2497023
739.57 2924286 3392024 3870395 4374477 4918654 5522971
742.47 6225499 6989146 7801771 8687643 9661673 10705381
745.36 11727382 12685851 13740512 14958727 16153979 17219665
748.25 18218114 19238493 20442205 21715477 22645328 23226418
751.14 24065271 25432531 26380653 26242986 25973891 26522183
754.04 27664194 28210324 27455178 26990544 28393003 29974723
756.93 28799931 26202588 25342024 25969884 26291713 25406886
759.82 24598669 25300516 26869217 26773209 24466479 22822464
762.72 22779375 23223126 23706109 24255216 25037314 26124859
765.61 27482142 29204095 31435876 34276049 37797472 41986525
768.50 46945163 52802171 59605318 67362798 75893714 85017069
771.39 94908448 105558507 116534383 127454036 138228972 148801388
774.29 158672633 167146704 174090080 179864993 184936358 189540875
777.18 193233266 195692749 197379508 200172166 203491961 200467685
780.07 193159494 195979902 207896154 210008878 201936297 195319403
782.96 189394867 185392797 185005077 185894024 186406898 184763652
785.86 180464764 173566374 164038977 152141331 138498975 123995305
788.75 109495811 95791331 83386762 72655994 63980664 57657139
791.64 53655740 51823265 52047690 53963306 57198234 61522586
794.54 66511949 71665507 76675018 81275490 85211134 88455332
797.43 91002401 92561232 92887900 92844757 94389813 99091639
800.32 105977735 110282471 108561048 103337897 98963160 97581875
803.21 99120085 102170527 104369211 103615581 100916485 98903141
806.11 98048627 96906641 94129327 89816603 85114051 80423332
809.00 75275791 69450917 63281239 57133558 51082277 45214351
811.89 39689001 34593899 29913915 25661463 21878601 18571183
814.78 15749263 13372345 11375371 9731907 8397904 7311963
817.68 6482326 5919857 5517043 5202788 4990791 4875354
820.57 4813647 4773105 4742143 4757178 4829271 4881310
823.46 4878455 4840249 4796200 4774383 4749541 4713139
826.36 4704861 4706847 4669037 4601734 4516294 4418635
829.25 4321030 4235776 4186282 4158273 4085006 3972536
832.14 3832000 3614583 3332466 3026949 2717183 2405964
835.03 2057377 1686777 1358482 1085906 845251 613563
837.93 410958 285335 222319 186845 152268 108552
840.82 82656 80907 78757 67122 25628-8208
843.71 17518 60272 71675 50630 9668-12328
846.60-9088-13 14738 49528 96837 86123
849.50 32207 5170 5112 4836 1589 18125
852.39 40743 45641 33464 22020 39163 60591
855.28 55459 36575 7672 20654 75656 75472
858.18 30319 19313 48767 67914 56425 69058
861.07 101111 106267 77392 62714 71656 70547
863.96 69137 63505 51496 52941 60620 61365
866.85 53209 59649 85308 94031 99211 116820
869.75 142879 173281 174705 175617 195755 183389
872.64 150919 156590 195840 242326 287081 332869
875.53 377513 404947 422926 449681 515811 623396
878.42 707468 740673 789649 902608 1041565 1152298
881.32 1268203 1449136 1647313 1845234 2087997 2370446
884.21 2697092 3041245 3392655 3797291 4265463 4821459
887.10 5453138 6133862 6886674 7710342 8597249 9554845
889.99 10581538 11691765 12920470 14265038 15675648 17148709
892.89 18727043 20410997 22176468 24056769 26106597 28351341
895.78 30811366 33559476 36623664 40021239 43865914 48291901
898.67 53407265 59307335 66105305 73909330 82862867 93122128
901.57 104809898 117989925 132661220 148902696 166912085 186798478
904.46 208474843 231884506 257154662 284366390 313511270 344560746
907.35 377333693 411537539 446833188 482877826 519231448 555381029
910.24 590906847 625158983 657484493 687383020 714280506 737714054
913.14 757440772 773293429 785101612 792748758 796559397 797113922
916.03 794885736 790687551 785090671 778788513 773203520 768660488
918.92 765095705 762060747 758440716 754232945 748654127 740010212
921.81 725171421 702239979 673373987 638146408 595502512 548390391
924.71 499493388 449405070 398383373 347362696 297794030 251187448
927.60 208745925 171254118 139120283 112312125 90408660 72755256
930.49 58583746 47167957 37943031 30467104 24353055 19336126
933.39 15252942 11973436 9370690 7325039 5736821 4502382
936.28 3545412 2808672 2229850 1778926 1428132 1159371
939.17 973897 824021 675080 559397 465533 385357
942.06 323226 264799 212296 169942 139821 127650
944.96 130152 121846 87224 59207 48376 41285
947.85 51635 59063 47422 53122 55867 33470
950.74 20540 26793 22683 2701 4323 23279
953.63 23416 7545-8826-5546 16918 24706
956.53 12775 18626 45220 59190 38311-6334
959.42-40375-30525-47 19445 37144 57809
962.31 74671 71967 50210 26713 9697 10489
965.21 16680 13081 14254 11243 790-3234
968.10-19155-40207-55163-62907-58749-42019
970.99-16149-12297-25568-32400-36415-27637
973.88 2981 35097 60454 96724 118863 112022
976.78 127065 162660 189187 214440 246013 294301
979.67 363600 412222 423413 426790 437609 464226
982.56 500448 532794 548549 558529 557637 549192
985.45 552773 544370 496526 471529 513775 545824
988.35 544554 557257 584159 609716 623754 626066
991.24 621215 599458 569053 535017 489453 445059
994.13 403608 351641 293529 244380 210480 172831
997.03 125628 90793 64002 45559 32770 22362
999.92 32061 51416 56696 40467 25113 50796
1002.81 92609 102843 108635 144724 185367 201302
1005.70 215283 232575 235313 234671 222933 196083
1008.60 174309 167960 174055 179806 172363 148486
1011.49 113871 94343 109348 109406 76826 65903
1014.38 71932 41211-14204-40250-23208 4740
1017.27-6888-47272-66384-63824-70935-93341
1020.17-110545-123208-135906-129249-119680-138816
1023.06-165404-163812-162475-182679-197708-196451
1025.95-179133-152842-138768-140825-149389-141056
1028.85-112159-101598-126178-145145-135850-119830
1031.74-86965-62751-80039-100141-111433-121114
1034.63-123914-132023-138639-138714-147975-149126
1037.52-129590-121082-121328-132115-144545-127493
1040.42-117059-133331-127585-105311-115956-132674
1043.31-122651-113010-122924-143118-158348-170476
1046.20-195803-199997-171311-158628-169545-164490
1049.09-132539-110821-109751-103659-96149-104435
1051.99-122705-116929-96162-72524-55355-70626
1054.88-96221-111124-120035-125204-129412-121663
1057.77-112710-126433-146291-162103-159191-124512
1060.67-79437-52463-49913-69604-108529-133485
1063.56-140516-141752-130130-117553-107811-94243
1066.45-93067-99021-109461-122038-110985-93994
1069.34-97224-90975-55536-34633-53578-65489
1072.24-55076-65536-84271-70350-45458-32550
1075.13-17010 21394 79011 108350 102087 106809
1078.02 139077 178105 191587 215822 284539 336614
1080.91 346074 377385 457827 538765 593834 651126
1083.81 736356 822448 898875 1002472 1113641 1196452
1086.70 1280533 1382049 1471161 1549777 1651659 1779341
1089.59 1906563 2018560 2122915 2224227 2327316 2415360
1092.49 2494160 2607271 2742422 2863485 2979034 3141095
1095.38 3361561 3585794 3804966 4052374 4321600 4586659
1098.27 4852287 5119757 5347101 5491368 5539539 5473783
1101.16 5274526 4962267 4594352 4188394 3764249 3394037
1104.06 3129679 2991124 2981503 3062885 3141599 3178015
1106.95 3228524 3301429 3351007 3385719 3401843 3385137
1109.84 3351241 3323194 3308590 3304715 3311545 3329650
1112.73 3375604 3456641 3573103 3711525 3842567 3973937
1115.63 4119454 4291733 4492221 4689566 4858901 5019743
1118.52 5202707 5390621 5548124 5667319 5757744 5821914
1121.41 5858605 5892495 5947902 6015706 6066671 6074090
1124.31 6036116 5967143 5874875 5771478 5677185 5605010
1127.20 5562264 5506932 5391254 5220912 5008888 4804594
1130.09 4667878 4572454 4457054 4323010 4176530 3996111
1132.98 3797881 3609468 3436074 3288225 3192323 3141250
1135.88 3099018 3047802 3000633 2992500 3015963 3038870
1138.77 3074817 3154717 3260909 3346122 3409022 3476990
1141.66 3542662 3613058 3688954 3749075 3815593 3884894
1144.55 3919334 3931078 3956849 3991726 4004631 3983372
1147.45 3948880 3936268 3962650 3986130 3965672 3932742
1150.34 3882377 3790779 3694641 3637321 3580094 3484086
1153.23 3375324 3273740 3170331 3059745 2947839 2819833
1156.13 2665241 2516045 2376762 2219842 2053557 1895319
1159.02 1743271 1607593 1504200 1403944 1302010 1223483
1161.91 1166241 1107344 1048798 1026987 1037833 1033304
1164.80 1023364 1043922 1071853 1095848 1132495 1155759
1167.70 1147320 1151471 1180635 1219655 1263802 1284584
1170.59 1279699 1275422 1273082 1255003 1226748 1220976
1173.48 1228507 1222828 1221405 1217154 1178130 1131188
1176.37 1113618 1097719 1059472 1050051 1093601 1105302
1179.27 1058084 1028522 1006511 943749 889451 882041
1182.16 876389 851504 807587 730612 642673 567562
1185.05 499029 421989 333153 270730 243455 224282
1187.95 205229 188271 171025 150811 134231 129240
1190.84 128509 129420 139928 145230 149876 150894
1193.73 125869 103318 111584 128864 143001 158782
1196.62 164306 146109 121648 111061 106982 99708
1199.52 89250 83035 87214 96847 94040 82095
1202.41 78686 78429 69731 54091 58317 87196
1205.30 105745 102064 79479 57273 46764 36772
1208.19 36095 50861 72067 77302 70096 62169
1211.09 48705 41626 53195 73353 78355 87287
1213.98 119786 145894 151246 161858 190607 214740
1216.87 229276 247406 277998 313012 336931 354082
1219.77 372404 379139 375818 401032 450861 480821
1222.66 487470 494620 512194 530261 542252 540667
1225.55 542789 565141 584496 594053 597088 600928
1228.44 615736 622090 607363 574488 537343 527961
1231.34 541576 535356 509760 494831 489987 471116
1234.23 431038 402567 400151 400886 389047 370026
1237.12 356392 341975 323842 305918 298828 309282
1240.01 319118 324282 333285 342589 339640 326157
1242.91 332331 362130 385131 404050 423207 426816
1245.80 422266 434160 471590 516202 554982 590170
1248.69 629414 668244 709155 752967 780026 805659
1251.59 840205 870136 897312 929650 974284 1018611
1254.48 1041389 1043388 1039904 1043379 1056234 1074675
1257.37 1099387 1130768 1143087 1139763 1139730 1132790
1260.26 1116590 1108997 1105822 1101760 1110845 1145163
1263.16 1156853 1107997 1061263 1057510 1049520 1005025
1266.05 957340 933710 905633 861485 812882 753813
1268.94 698960 666807 629557 587493 552466 510959
1271.83 463019 417821 365573 314814 289256 275137
1274.73 268760 278714 274517 244220 209252 173824
1277.62 144815 141600 152051 154410 133202 103122
1280.51 88090 65626 14846-25433-35202-34714
1283.41-31304-20286-21436-29718-22520-18138
1286.30-24981-30833-20563 14204 54254 81194
1289.19 85538 74660 75095 92089 113524 135614
1292.08 160351 192095 221424 229716 224248 225769
1294.98 229001 237060 261171 282389 289038 295665
1297.87 307427 318123 313316 297412 291773 301363
1300.76 303468 295897 289838 274336 237361 202632
1303.65 181331 166711 165733 168966 160489 139605
1306.55 121741 107357 83402 57827 32759 5617
1309.44-22642-41403-40518-40881-60070-96156
1312.33-117497-115885-116061-118197-113209-109186
1315.23-122871-143453-157457-168625-179004-175293
1318.12-149202-123912-128017-146709-157465-172759
1321.01-190373-195472-192228-186001-172157-155305
1323.90-136375-131873-154956-179445-180998-161964
1326.80-148715-139851-112271-82475-85649-113458
1329.69-128437-125256-106865-83016-70047-56846
1332.58-42158-34303-38267-48139-31557 11208
1335.47 47207 65683 81553 105776 128862 145844
1338.37 165070 184992 207193 246684 304670 362737
1341.26 408166 433833 454206 494854 547433 611547
1344.15 687126 759955 828860 902677 978323 1047153
1347.05 1094155 1140199 1217673 1321722 1439924 1552880
1349.94 1656971 1771005 1883341 1962853 2055962 2240474
1352.83 2451503 2636897 2794690 2912490 3035268 3162028
1355.72 3258629 3335825 3408766 3475530 3534287 3580008
1358.62 3592283 3587850 3607513 3648494 3690511 3696538
1361.51 3666314 3650242 3649191 3634841 3603267 3580952
1364.40 3559561 3485590 3371165 3258461 3160523 3070140
1367.29 2977557 2899508 2824808 2705826 2533098 2347538
1370.19 2183017 2043419 1932820 1824060 1689001 1549489
1373.08 1402971 1253879 1132044 1030767 915945 798888
1375.97 718687 667253 618633 549945 457079 367001
1378.87 309962 292663 292407 273955 243578 229583
1381.76 227511 219690 200668 197281 221057 241027
1384.65 247489 248417 244657 233947 236083 240963
1387.54 223868 214136 209648 204229 199281 184264
1390.44 164588 163284 171347 161456 149988 165904
1393.33 202290 239214 223471 168229 142827 144407
1396.22 155866 165402 156614 147071 154933 140487
1399.11 85320 51031 60939 72411 78121 83595
1402.01 85277 89946 92590 93115 92485 77497
1404.90 42156 5816-6453 2681 5780-12137
1407.79-25214-27701-41113-52940-61291-68596
1410.69-57654-41119-43241-59614-81562-99879
1413.58-111928-118018-120486-120492-117204-115569
1416.47-113139-117763-132555-117710-57016-16809
1419.36-57518-114992-137799-150699-166725-180616
1422.26-182532-171040-166439-167458-161933-160547
1425.15-174410-182813-171782-157427-153899-160355
1428.04-164589-168328-167157-155953-150719-158738
1430.93-172468-190474-193607-169377-164245-181826
1433.83-177562-162231-156385-136520-58993 6183
1436.72-42415-118364-154110-188875-210645-211447
1439.61-209631-203107-185090-164899-162068-173105
1442.51-175407-165410-162835-172377-174615-164799
1445.40-161457-170113-177500-168929-154179-163498
1448.29-178136-177357-183231-196993-196509-179136
1451.18-165734-170312-186383-203471-209599-191049
1454.08-164515-151509-142652-90321 24048 54651
1456.97-48687-100805-97086-120242-135581-140862
1459.86-159414-191286-203853-190971-188566-189441
1462.75-170361-159430-145527-100675-92440-127643
1465.65-148872-159887-170909-169002-161559-162321
1468.54-160709-144851-129941-131442-134304-94400
1471.43-40109-52318-59974-19318-36526-94375
1474.33-118783-105343-65663-46784-76077-100599
1477.22-91042-73252-63281-64990-70810-64883
1480.11-45416-31969-47127-62528-58180-63049
1483.00-76925-85266-83736-79485-73401-71284
1485.90-82729-77954-58535-78707-114265-116913
1488.79-96810-81987-88004-102498-117592-131142
1491.68-139044-148061-163879-175336-170621-162230
1494.57-156719-124779-67874-88738-170115-205321
1497.47-196507-157136-138900-173643-210303-225785
1500.36-225003-214123-207975-213711-209420-191266
1503.25-190252-203502-179333-79199-10067-31375
1506.15 4691 37764-60724-144952-151453-162320
1509.04-177406-187843-200131-206950-209880-185368
1511.93-155797-167517-186247-183380-175839-168384
1514.82-173059-175759-156847-140317-134873-147656
1517.72-172895-185174-184874-158469-119779-71255
1520.61-1226-27372-111417-122566-128797-155051
1523.50-162407-162047-148084-119217-127484-166978
1526.39-170885-147153-144962-148769-149477-151406
1529.29-152312-155410-153905-141685-123085-116348
1532.18-105811-66536-23015-29400-87857-133798
1535.07-144147-123290-87647-66056-60315-36132
1537.97 62145 171965 155577 135552 145912 73283
1540.86 34571 94225 111529 46878 10901 8205
1543.75 12775 51731 67969 24932-17715-40301
1546.64-54288-50767-27299-9783 1087 22804
1549.54 39265 25430-4576-19428-16773-19804
1552.43-25781 6507 81670 117850 63995 5872
1555.32-3302 17175 67560 143887 222137 302584
1558.21 292400 211468 247077 311483 237738 120031
1561.11 69149 68672 92497 107210 97349 83947
1564.00 97048 108229 91945 82382 90700 94060
1566.89 93874 103029 112512 130648 178039 203441
1569.79 158529 114471 109703 107588 101896 105307
1572.68 118136 123172 124837 149605 205882 320079
1575.57 425092 356153 214412 156364 145259 136957
1578.46 138553 158372 168885 152846 132683 115101
1581.36 94073 81479 79191 83563 93931 97334
1584.25 82347 76232 79974 80640 91630 102179
1587.14 102089 108310 117207 109101 88573 80403
1590.03 77281 64580 62662 62520 53839 48311
1592.93 55084 71495 72651 55802 46861 47327
1595.82 38971 21283 21370 32506 24415 7840
1598.71 2444-5158-26513-41962-39632-30771
1601.61-31004-52096-80051-94646-102372-107373
1604.50-103577-98165-100686-107403-115693-128068
1607.39-139596-147319-143168-137965-152645-171310
1610.28-176260-171671-168830-183026-194992-190371
1613.18-180432-166404-159886-164136-155307-80087
1616.07 26396-7563-131204-179122-171419-165235
1618.96-171433-181812-186566-182644-175245-169501
1621.85-157826-129008-89722-96364-153032-188439
1624.75-193406-185839-176526-172349-161594-145674
1627.64-154741-182664-192426-198816-211641-203578
1630.53-185483-179185-174744-167969-167762-170444
1633.43-166631-137164-60472 29534 19004-83428
1636.32-136837-132126-131684-149894-162734-148483
1639.21-115172-102489-121257-140855-155995-166468
1642.10-168613-171520-175974-181131-184404-158558
1645.00-68578 5-42521-99609-120246-137822
1647.89-159478-179769-170622-152567-151857-153589
1650.78-140152-54197 94255 188667 202419 95207
1653.67-33392-83256-129724-170304-193641-211283
1656.57-221262-219705-209769-204497-203886-203890
1659.46-217585-230225-226828-208298-168998-117972
1662.35-113478-170732-208739-217857-225788-221956
1665.25-211607-204708-203315-201411-193840-175001
1668.14-146810-112196-125558-177676-192049-166482
1671.03-146277-158146-178633-193934-203415-194523
1673.92-159024-92116-57595-105219-163206-181738
1676.82-187635-197262-200051-196812-185308-167108
1679.71-160244-176953-197538-196091-183341-159125
1682.60-125707-102799-35948 94120 100859-52251
1685.49-151471-173100-183779-189893-187108-185890
1688.39-191398-191357-183712-181134-195719-218720
1691.28-225911-218926-212718-208158-212231-219138
1694.17-205175-119501 22660 26638-117339-199418
1697.07-189361-150315-117254-90643-30090 27507
1699.96 22687-47585-150026-215426-235440-232466
1702.85-218840-200860-178874-175497-192070-178097
1705.74-141843-150959-184723-186038-185828-209334
1708.64-218217-203038-186663-171584-162356-173538
1711.53-192370-190527-178594-167208-142295-108000
1714.42-75114-72295-105555-112798-29157 73603
1717.31 42471-30556-54734-85106-115335-134047
1720.21-141455-147902-155067-156263-149902-130515
1723.10-118598-120780-121687-123988-129248-132153
1725.99-135240-140072-141478-131899-123941-124718
1728.89-111381-93658-94475-108830-124336-130742
1731.78-118189-49348 36373 45103 65986 74688
1734.67-25955-105143-109209-98914-98837-97206
1737.56-82104-59370-32966 9486 28758-3310
1740.46-19951-11 14051 22289 34487 33643
1743.35 25586 36630 66734 90674 90873 83001
1746.24 86496 92419 86481 95325 127268 142851
1749.13 137901 129691 153032 214552 224943 166715
1752.03 128210 125365 126219 123252 114924 101852
1754.92 90093 96339 117226 115445 78148 38924
1757.81 21693 24113 25637 21257 22046 23828
1760.71 40136 68945 63472 38526 19070 11533
1763.60 23190 22664 11568 20467 35162 51508
1766.49 79978 117864 160902 166100 141547 147169
1769.38 173801 203511 254386 307487 340930 412230
1772.28 475923 449848 418265 425349 444725 479494
1775.17 509663 520562 528844 538206 544658 546556
1778.06 549538 557419 559612 563380 583114 600983
1780.95 604956 611605 614204 594370 571351 568542
1783.85 588528 621393 620941 577234 529850 490827
1786.74 453692 413734 375559 345206 320434 304642
1789.63 285772 254528 212244 185713 222382 293226
1792.53 298776 265760 272991 296389 309510 325095
1795.42 343698 357073 365034 370039 370270 369097
1798.31 376757 390161 373214 331350 320992 334915
1801.20 334424 333659 339717 332183 319774 309302
1804.10 304442 307404 296514 271342 248175 220095
1806.99 175583 130467 95725 55679 11677-30245
1809.88-59637-86195-130831-163909-175393-201744
1812.77-246137-277145-293312-315978-332256-340666
1815.67-353358-364217-378561-392388-395836-399695
1818.56-407839-404539-393047-395441-417665-439482
1821.45-448430-446786-453778-464939-454473-434756
1824.35-413318-408999-450148-489001-491639-483187
1827.24-474784-466717-464200-459810-438086-413307
1830.13-429942-468255-477923-472533-475958-488194
1833.02-493801-483082-480494-480183-475198-480271
1835.92-481192-476976-477471-466581-456447-461115
1838.81-463631-466841-477548-483087-471825-453050
1841.70-430774-401614-391655-376680-343725-359560
1844.59-391503-393189-378986-358754-362567-373636
1847.49-365127-348813-334496-328754-315910-286363
1850.38-255614-234759-223085-208516-186554-144700
1853.27-97130-64270-25052 3964 10082 18503
1856.17 20249 6021-26447-67096-91290-80189
1859.06-50771-28114-15590-24265-32178-28368
1861.95-28149-14871 14960 48690 65886 51593
1864.84 24074 11361 20511 32307 45177 52969
1867.74 33046 22068 34545 23029-4250-16575
1870.63-12581 10311 23348 16212 16121 28131
1873.52 42779 51254 67682 106767 143920 167388
1876.41 185694 205014 239898 274824 286314 288635
1879.31 311462 349465 381707 403382 423431 437485
1882.20 443600 460102 490685 522182 522363 499848
1885.09 492874 505172 535205 580194 601590 566063
1887.99 517458 516338 542379 562517 591990 596461
1890.88 553944 516899 502231 492207 492970 504612
1893.77 472487 419269 405754 401898 375131 343130
1896.66 317076 282071 256960 252490 258481 276289
1899.56 291104 268770 224992 209479 215841 234178
1902.45 277593 299222 275865 258575 261851 275267
1905.34 310190 340144 336409 328370 330969 341023
1908.23 374393 406053 395847 369234 362151 378590
1911.13 408089 424656 410245 383909 368406 367707
1914.02 374601 375250 353433 323724 300844 281371
1916.91 274178 276467 243917 188956 153338 131257
1919.81 117309 102626 74372 32015-27295-70579
1922.70-91622-127853-172951-206878-234278-249743
1925.59-257178-269543-275742-269522-269366-268771
1928.48-258590-255753-267584-287270-293825-287161
1931.38-293128-293501-278384-275286-279321-283932
1934.27-295479-296212-293047-300542-297713-290578
1937.16-296265-297456-293346-289147-281011-284120
1940.05-302257-313840-306734-286379-273901-280563
1942.95-296428-307169-299692-283117-283514-295083
1945.84-293792-280447-275071-286791-303923-305454
1948.73-291177-278741-274616-272360-274306-279298
1951.63-274095-259418-253589-267475-277919-267870
1954.52-270979-285989-286592-278629-283767-295556
1957.41-293395-283123-272903-268043-282908-296856
1960.30-284554-270417-278123-287284-282718-272157
1963.20-264969-271725-280613-280527-286515-291570
1966.09-284886-278699-275410-270527-263656-260882
1968.98-264457-274130-281943-278435-272076-267664
1971.87-263570-261186-247269-218942-212705-263013
1974.77-318724-317567-293631-280380-271241-262569
1977.66-258628-256032-260741-261479-248706-235361
1980.55-235288-246365-253749-261543-268600-263779
1983.45-255599-250685-242820-232275-230240-243380
1986.34-258203-261736-257717-242790-235690-236989
1989.23-232446-236735-250399-249203-238573-242422
1992.12-251976-257178-257751-252333-246381-232442
1995.02-225064-232183-243320-253160-257086-252459
1997.91-251459-256675-254472-248381-248536-250962
2000.80-257386-270520-270187-259007-264050-274503
2003.69-273232-263079-250226-237683-228383-224685
2006.59-225223-230448-242601-255904-262153-259780
2009.48-262666-260939-250664-251441-259912-261038
2012.37-261822-271738-270926-253137-236189-242400
2015.27-261467-267631-273357-275596-262003-257007
2018.16-265297-265823-258194-251678-246170-244905
2021.05-252897-272639-287531-285173-285047-282741
2023.94-270086-265662-266446-259912-249596-254397
2026.84-271085-274634-260547-243179-244269-253783
2029.73-257894-259694-260184-261319-257487-248286
2032.62-245581-251538-257838-268622-283450-286447
2035.51-285417-286936-284358-279314-277350-279468
2038.41-282148-275809-269291-267898-265828-261597
2041.30-256014-257919-275357-286423-283075-277754
2044.19-280021-284836-281129-269337-259057-256197
2047.09-253950-255354-264422-268200-263066-265130
2049.98-274789-278064-280239-279950-282392-292001
2052.87-298445-294885-278812-270476-278168-286529
2055.76-289043-293157-296101-294195-296644-299414
2058.66-297571-291110-276445-262664-262519-272983
2061.55-282129-282402-280398-282749-282724-274339
2064.44-268038-265499-270120-280347-287085-289641
2067.33-284924-270277-263820-275999-288211-289466
2070.23-282320-273438-271102-273432-272196-272128
2073.12-273887-270558-279089-301070-302930-277616
2076.01-261399-268303-280986-289373-296156-297054
2078.91-291765-294042-298664-293110-278444-267973
2081.80-274449-278295-268609-251599-245101-258173
2084.69-267041-262493-260080-272584-287553-284409
2087.58-279659-278714-279553-280678-269991-252229
2090.48-243180-249620-262518-275006-278649-266199
2093.37-256480-246827-239285-254714-272176-272769
2096.26-276029-278338-277956-281459-269252-251585
2099.15-257103-269923-274489-278551-287103-285517
2102.05-274633-267124-275392-287542-294168-297809
2104.94-295021-291735-294788-280933-249891-244087
2107.83-266016-289887-298958-292205-284203-269876
2110.73-236212-221459-251162-283759-302884-307065
2113.62-298761-285768-260014-233133-249609-288875
2116.51-297061-283984-277772-278144-263635-230701
2119.40-234054-261723-269617-271718-276929-282925
2122.30-274530-242178-225174-243506-259298-263491
2125.19-272872-277686-274296-258370-235147-237847
2128.08-260242-265258-270477-285169-280769-258965
2130.97-245490-243825-241076-243060-249299-245140
2133.87-245338-246453-246206-260688-273100-271003
2136.76-273799-278726-275140-260964-252269-255107
2139.65-257756-261472-263405-251202-231651-228210
2142.55-239719-237822-233616-242902-254295-252039
2145.44-246238-246430-245626-245341-240389-237263
2148.33-250214-257040-253748-238035-218610-228718
2151.22-252403-260073-256577-249201-239966-224894
2154.12-212750-217020-227891-236794-247809-247935
2157.01-241487-231206-230556-248490-260328-255545
2159.90-244702-232408-213314-198485-218108-249698
2162.79-263742-265504-260816-245265-218982-197362
2165.69-204196-227926-237874-226226-214395-194766
2168.58-172414-184608-221276-237909-237814-236363
2171.47-215094-171924-168470-207579-222860-208422
2174.37-202957-194012-151586-128540-152136-168066
2177.26-162707-154326-142354-113839-102006-105780
2180.15-127320-136302-125871-111307-76428-51415
2183.04-43422-58082-58160-32879-13374 5183
2185.94 14994 29973 20685 20276 38752 56831
2188.83 86869 106282 117586 97894 109587 112930
2191.72 125021 164304 196000 209280 205462 241572
2194.61 257727 285181 298008 334090 338752 359548
2197.51 371934 387286 400757 424755 448018 465158
2200.40 498808 521285 534389 528165 554062 577297
2203.29 599873 605346 623499 632428 657044 677521
2206.19 704487 702929 706414 703558 711651 724145
2209.08 736111 726502 737025 751162 759082 756041
2211.97 758665 746620 724573 706452 702958 698546
2214.86 691529 672804 656277 636316 604155 559975
2217.76 521701 491456 467006 421746 367749 314034
2220.65 257125 203294 147643 69978 3043-31912
2223.54-13519 42150 102434 158046 214768 275485
2226.43 338881 405072 474942 540861 601177 651682
2229.33 704123 762290 809988 844231 886262 928912
2232.22 959687 990184 1023961 1060531 1087928 1098479
2235.11 1109090 1112151 1112111 1116975 1118046 1107596
2238.01 1087330 1058924 1033530 1015342 999786 975261
2240.90 934318 898374 874154 827572 764446 714375
2243.79 680382 637945 587215 538430 492322 450203
2246.68 407949 364825 323868 278805 227508 184499
2249.58 151754 119454 101320 81259 47926 16101
2252.47-25859-65079-80220-86013-97864-124594
2255.36-154939-172226-182772-205855-222530-213535
2258.25-212613-228321-235672-240259-238045-223402
2261.15-222464-244645-257913-249333-238271-237869
2264.04-245713-252301-251965-250757-250590-250841
2266.93-243982-230185-223661-232446-250657-267435
2269.83-261175-237276-226341-224754-230606-245898
2272.72-246897-241463-241795-237740-233975-247583
2275.61-274642-287161-277412-272746-283232-288146
2278.50-280120-270946-256667-242470-242725-247167
2281.40-247282-248690-250957-246071-236310-237124
2284.29-253314-263483-264932-275231-278101-270519
2287.18-279443-278961-255924-253609-259755-246338
2290.07-233378-230999-235683-253209-261228-254905
2292.97-265754-275486-264102-251684-244163-239263
2295.86-252047-267056-264119-240943-222062-235506
2298.75-245879-231043-223556-238627-258214-265181
2301.65-250422-229906-234787-249086-242919-216142
2304.54-217457-242856-239921-199097-186352-227899
2307.43-245106-198670-148328-171687-222926-213104
2310.32-148675-129486-190433-206111-123081-67725
2313.22-139439-209837-145712-44708-81408-148620
2316.11-84216 27979-19578-133728-76557 77153
2319.00 34465-118835-53318 164095 148227-41828
2321.89 828 236934 214669-10678 58084 341930
2324.79 296574 39757 142040 433085 326238 56527
2327.68 214857 492499 301916 46474 304990 561774
2330.57 283377 94213 433540 568318 213333 187144
2333.47 582530 535784 170151 325573 645678 394143
2336.36 158961 481742 597440 234648 245857 576042
2339.25 429556 170087 409865 537515 239276 232725
2342.14 482483 345729 147951 295255 316791 107479
2345.04 117294 212581 98407 12699 61842 30819
2347.93-60782-97745-72175-34537-30094 41705
2350.82 167367 149364 152358 319971 309810 245573
2353.71 440370 462873 379372 609369 629019 496374
2356.61 724956 718535 578041 825428 789863 664437
2359.50 884414 774517 715029 923335 767958 797034
2362.39 941910 759403 848010 873335 751625 885089
2365.29 794236 754970 814280 668931 707908 672802
2368.18 612147 657872 570177 565767 510610 437059
2371.07 409763 347586 364600 342183 328889 295552
2373.96 236781 191019 142497 125688 109479 100503
2376.86 75424 49960 15671-37579-86680-113269
2379.75-126911-137735-151556-174643-190858-189698
2382.64-190111-197603-205594-212403-217678-217840
2385.53-209829-198772-190220-192865-213375-233715
2388.43-237996-233767-227112-230153-231331-214504
2391.32-214767-236147-244448-240389-236151-241312
2394.21-259217-272574-273872-277940-279920-272318
2397.11-261295-261276-273727-278973-277265-282368
2400.00-281050-273267-273301-276231-271950-256704
2402.89-248197-262201-274375-276222-281182-284226
2405.78-276527-269328-276099-275051-260035-248065
2408.68-243230-257161-277115-282468-283373-272748
2411.57-249922-243240-259134-279967-284115-277605
2414.46-285162-302351-302326-285560-271902-267422
2417.35-266861-266458-256705-240191-245832-274283
2420.25-284905-266012-246409-251149-260842-262024
2423.14-266049-268695-275607-283816-281007-282408
2426.03-280430-274721-276527-276227-265872-255472
2428.93-254417-249316-246589-260872-272197-268412
2431.82-251712-245106-255957-263145-257374-252597
2434.71-249364-236306-229542-239633-252569-256285
2437.60-253114-245060-224114-215042-237424-264168
2440.50-269341-248887-230817-237949-249799-251046
2443.39-239045-232162-246851-256051-242541-226581
2446.28-224992-227542-224314-223127-225928-225101
2449.17-231467-243391-245861-253187-245807-214543
2452.07-195727-199977-220056-245226-255636-244721
2454.96-226719-216767-214393-218116-219569-217077
2457.85-212111-202512-202094-215724-218267-212971
2460.75-209501-204546-211701-225021-212234-181734
2463.64-163674-158359-160086-152968-147243-154921
2466.53-152687-140008-120481-102086-100283-99198
2469.42-84506-61113-41209-25950-15403-16096
2472.32-12576 4699 26193 31426 37427 65510
2475.21 94106 121118 142804 144479 150990 175810
2478.10 207501 237554 267297 293839 314402 340812
2480.99 368083 385879 408374 442378 465082 479911
2483.89 509474 548430 581518 603648 628324 661569
2486.78 689630 712962 744093 777465 804104 825506
2489.67 856208 887791 897281 893504 896786 902697
2492.57 908911 919713 929511 928574 916480 898578
2495.46 895801 892741 863859 832760 814812 795545
2498.35 776266 754478 726722 701900 681687 655420
2501.24 615781 575102 534558 497548 464565 418772
2504.14 377259 349672 305144 237858 184413 154080
2507.03 122102 77596 30243-17008-55682-87779
2509.92-123979-151438-171447-189302-202866-208556
2512.81-211570-213062-211412-229147-254213-260350
2515.71-259177-267603-269550-253473-237545-238320
2518.60-252741-263696-266178-271674-274007-265364
2521.49-261835-263502-255259-255843-277084-296319
2524.39-303813-298180-288447-285926-287170-291948
2527.28-298294-302240-296998-295701-292331-269588
2530.17-252284-254798-263655-271768-273718-276655
2533.06-284745-288438-292266-292613-286603-294401
2535.96-301790-289434-280938-282529-273008-260266
2538.85-261295-269849-267687-252219-248135-256707
2541.74-253804-251396-252271-248542-252732-262182
2544.63-265274-276642-279430-257028-241643-250848
2547.53-262368-266261-265566-264090-267691-272217
2550.42-266076-256645-253466-250728-256589-270629
2553.31-282461-285390-272996-255215-251700-259253
2556.21-265085-273237-277731-266560-257304-264425
2559.10-278606-284802-267313-245911-249210-264267
2561.99-275389-278661-270860-262630-259428-258946
2564.88-267658-278199-278092-268411-257894-248221
2567.78-244676-242002-236241-235446-228582-230451
2570.67-245886-256586-263105-260105-256512-251694
2573.56-240917-240454-248384-247061-236989-233072
2576.45-233743-233522-229168-220241-221406-225258
2579.35-223872-237334-261364-270506-262043-261678
2582.24-279445-284667-259710-246815-263947-277446
2585.13-263998-237303-242063-270681-270905-250440
2588.03-241838-247549-258933-266096-265904-264784
2590.92-263731-263786-258961-250218-252613-262003
2593.81-265075-256774-253566-254395-245852-249602
2596.70-270168-281126-281226-282712-275282-254685
2599.60-245829-249860-247953-258544-265506-252450
2602.49-244619-241092-244412-258507-263049-258737
2605.38-252232-254132-258787-253537-250170-243409
2608.27-239447-249854-253412-261651-279767-279454
2611.17-271381-266162-257889-254717-263058-279539
2614.06-288255-283037-271172-258625-257411-277890
2616.95-303457-312424-301649-288847-295116-303421
2619.85-295910-282244-274911-276985-282515-288599
2622.74-288999-287202-285558-282951-285893-289946
2625.63-290189-285243-273999-270779-276626-273830
2628.52-262365-264388-272267-265794-256549-262321
2631.42-265044-257349-256913-262851-265824-267241
2634.31-282153-297524-292075-295688-311948-306416
2637.20-287954-287161-300509-295729-277600-285012
2640.09-306782-316884-311285-302298-298688-300847
2642.99-297057-279754-270225-280526-291610-298498
2645.88-306487-303533-298750-306301-307217-301967
2648.77-309457-311870-308317-316847-326533-328222
2651.67-320848-301203-278737-283696-309278-313876
2654.56-299284-296342-306490-307862-302226-303039
2657.45-297935-293286-307379-319452-314829-311779
2660.34-315569-319908-319932-314670-323567-347718
2663.24-345597-328970-322222-313421-310603-316010
2666.13-305873-290287-289499-300373-313783-312277
2669.02-312289-328017-341219-339370-315573-296062
2671.91-298693-296132-292312-302398-311715-310454
2674.81-306834-308733-300778-284881-280520-269404
2677.70-251955-259209-285429-312584-331972-342240
2680.59-338529-321703-312345-317018-324879-324589
2683.49-306406-285656-290606-303572-303708-309789
2686.38-315277-303094-291317-281301-274167-293996
2689.27-315494-304931-285942-284877-296003-312368
2692.16-328312-328486-313306-306230-317271-325297
2695.06-314756-293647-288685-300432-301022-296739
2697.95-306079-323205-339463-352551-349193-328804
2700.84-304770-288633-285433-285371-275376-263253
2703.73-255484-254433-266026-283496-287121-269492
2706.63-255811-267250-293729-300103-278419-283053
2709.52-319813-331366-325663-317245-302089-297247
2712.41-296995-289209-288979-302646-299311-280920
2715.31-280284-292131-299180-302064-302957-289593
2718.20-282594-295432-302729-289961-268041-257731
2721.09-273879-300570-314200-305439-288913-289994
2723.98-299147-295123-273005-255050-251377-252488
2726.88-258588-263072-256392-258514-272023-275395
2729.77-269375-253274-233257-231628-237876-228332
2732.66-220550-230239-240504-238225-230562-220199
2735.55-202415-213104-245043-248522-234153-217160
2738.45-214702-242358-260465-249167-234090-225935
2741.34-209533-192598-189801-193271-189346-185115
2744.23-187398-187398-183026-183822-191580-198493
2747.12-202268-200157-194313-189498-189535-197293
2750.02-193522-188954-206398-215871-211857-219238
2752.91-216343-204956-216705-236032-244174-234955
2755.80-223618-229484-239480-239682-234171-228595
2758.70-226767-230097-229757-236661-257333-257486
2761.59-241611-250237-266277-269436-262575-250050
2764.48-247174-253604-260406-268816-273012-265026
2767.37-255178-251736-245143-237332-244945-247582
2770.27-231994-220086-226282-226873-221206-223638
2773.16-223958-214342-205420-216861-239390-247194
2776.05-232718-218197-212812-212820-225715-239305
2778.94-234878-220248-205987-202997-224987-249171
2781.84-246027-226565-210795-204098-208055-219432
2784.73-233373-237665-230817-241018-261842-250144
2787.62-211145-193714-207135-222198-245401-267937
2790.52-250004-219526-223540-253370-282336-284056
2793.41-262116-251048-243356-223132-214801-225652
2796.30-227861-227303-225187-228450-265391-299432
2799.19-293100-272338-265577-271237-269670-249107
2802.09-238582-248344-248921-241056-237039-239900
2804.98-240587-240855-241881-237603-253935-285972
2807.87-299816-292209-281732-279734-272168-257718
2810.76-246134-250473-259866-260307-268264-274308
2813.66-275240-282032-282252-290447-303748-298331
2816.55-282956-262475-264126-287551-283443-270632
2819.44-275325-274813-278400-295088-289081-267667
2822.34-259281-270752-293880-304280-283474-262278
2825.23-264529-267873-253304-244227-245199-250889
2828.12-275302-295150-288560-275522-270206-269280
2831.01-277566-293349-291026-269016-261920-278672
2833.91-281765-269429-257416-247188-244505-261359
2836.80-301607-313456-290636-275465-264866-251502
2839.69-250334-267838-278941-270988-262576-254254
2842.58-244836-247744-266642-270155-250769-244177
2845.48-258799-285730-304387-289953-270934-273095
2848.37-274969-268303-261076-260016-256336-254872
2851.26-261264-261361-245255-229866-229032-229162
2854.16-226198-225223-219068-221008-240963-252672
2857.05-229501-197012-193280-205026-221873-228146
2859.94-217976-214130-201992-184686-186594-205127
2862.83-216755-199544-181740-192613-201083-188633
2865.73-172790-161153-164999-173142-173102-166649
2868.62-158018-153143-141986-139698-156147-163896
2871.51-156267-161917-167370-150267-140814-140101
2874.40-123936-114512-128300-146572-153715-151618
2877.30-140181-123718-119419-117907-106043-103019
2880.19-116962-132621-132742-123861-120230-110619
2883.08-95441-97103-104226-100626-94985-90681
2885.98-86680-89012-87141-69070-60429-75099
2888.87-76144-54907-49395-63685-67387-49389
2891.76-34761-48889-76989-74034-41199-21619
2894.65-19369-25580-18827 4428 15311 12886
2897.55 8298-3140-20892-13840 10616 19286
2900.44 16889 8807-12043-22151-13525-10167
2903.33-2335 8722 9273 44 1240-1571
2906.22-20305-28802-29670-41345-49443-42247
2909.12-28797-17815-22640-41892-62024-80798
2912.01-95663-107084-107438-93612-85338-110911
2914.90-144368-155302-166513-176967-176968-183508
2917.80-184977-166687-156292-176955-198519-192560
2920.69-185168-204286-221437-216331-200359-189172
2923.58-194317-209125-219215-210693-193914-183086
2926.47-186611-191618-196995-205620-198151-199807
2929.37-208041-195184-185839-189068-200323-200172
2932.26-183054-177341-193186-212516-206920-185162
2935.15-175714-167502-151168-140700-144607-152031
2938.04-155462-171779-191526-187918-171965-171363
2940.94-165203-150849-166523-194774-195158-163608
2943.83-132582-133203-157487-163576-159704-164621
2946.72-165199-180317-191224-171657-148770-138306
2949.62-152940-194737-220846-207557-179368-168074
2952.51-163305-163853-176275-182853-180496-178287
2955.40-166433-159487-180275-207067-209634-201955
2958.29-213943-219225-209797-218507-229916-237789
2961.19-254434-189961-85539-83963-140497-169030
2964.08-165758-158168-163986-173715-175834-176704
2966.97-183481-190566-200916-207390-191803-186306
2969.86-197894-189977-169713-169323-179832-181718
2972.76-168607-147196-132015-128116-133624-153285
2975.65-172718-175555-178470-191618-204822-206205
2978.54-182650-159348-144735-120032-108029-117595
2981.44-123119-114826-112375-121565-117686-106923
2984.33-118869-135932-136473-131770-136193-140219
2987.22-132434-131539-148437-157455-143548-135078
2990.11-151060-166607-158371-152066-151697-144425
2993.01-147827-159153-159437-149973-147100-159523
2995.90-175712-185212-192171-205476-207625-198568
2998.79-197072-198415-190850-182159-188303-204303
3001.68-229459-250951-248416-225249-207069-216473
3004.58-240824-249158-249780-248151-240163-238405
3007.47-229250-228865-234406-229222-228868-246441
3010.36-262363-253853-246524-263690-286179-286253
3013.26-272528-275295-288975-285927-262828-252383
3016.15-269984-272783-251370-253081-267069-252092
3019.04-240567-255712-275795-287273-285875-269043
3021.93-255360-266402-271083-272812-297993-308430
3024.83-293447-285065-278261-276015-291015-295839
3027.72-280245-270908-261428-246071-245302-262386
3030.61-287811-302360-297616-290846-291975-305550
3033.50-307086-282485-267499-273927-277368-279353
3036.40-290875-294219-291296-289540-287518-303149
3039.29-317919-310369-311522-304930-268145-246147
3042.18-254643-278075-288181-292353-310889-321634
3045.08-306221-286097-281192-295139-310985-302392
3047.97-286266-281447-286197-294679-306250-305731
3050.86-292158-287195-276614-262473-263779-268597
3053.75-273807-292818-314781-324064-323437-314316
3056.65-311522-329259-340457-326151-312377-301248
3059.54-291467-292814-280281-245825-233702-245475
3062.43-258418-267140-271728-280153-285318-291771
3065.32-299189-304197-310281-311664-303844-295267
3068.22-293234-300989-309672-306928-304191-305137
3071.11-295008-270614-252257-253999-260033-256408
3074.00-256083-261921-262711-256137-253504-266297
3076.90-282379-305560-334078-337611-312313-282908
3079.79-263891-245564-241416-258438-281504-288850
3082.68-274892-266069-255434-250711-252830-243053
3085.57-252283-267542-266154-268016-271312-284619
3088.47-307256-305399-284483-272286-276988-283130
3091.36-271290-262370-251114-227900-217647-215954
3094.25-229412-252367-264179-258933-229061-198377
3097.14-200950-220015-222399-228458-253468-277975
3100.04-287805-259311-217942-218314-245260-255625
3102.93-237844-214188-208010-225689-241331-227954
3105.82-221240-243259-257362-240769-220091-227040
3108.72-238427-231118-213310-197800-191106-184465
3111.61-174931-181401-197496-203474-212248-228807
3114.50-234857-228511-241484-262115-255973-246396
3117.39-244063-221942-193774-190702-200508-199586
3120.29-183810-181794-197291-202962-202223-207762
3123.18-207141-206059-219463-238854-255860-256923
3126.07-233093-215715-211302-201850-200438-210070
3128.96-221024-208523-177830-170050-181129-186989
3131.86-172821-162423-171251-180318-188879-194522
3134.75-185202-169084-158399-151041-148358-155593
3137.64-169517-178732-183189-193231-194800-182538
3140.54-175706-160490-141876-144079-159061-174412
3143.43-168497-145198-143922-165965-180071-182288
3146.32-192432-207152-211561-210552-196394-171839
3149.21-170194-174165-176437-189816-199574-189483
3152.11-167720-162568-168246-166000-156901-143044
3155.00-137409-150954-167871-180634-184700-185633
3157.89-188926-185524-183934-183755-171227-164206
3160.78-168084-181328-193940-185006-165311-147117
3163.68-145683-163729-163221-152632-162089-174327
3166.57-178309-164701-150772-153641-155587-158441
3169.46-168891-179880-175868-164611-163198-180010
3172.36-187371-172970-159277-151983-153625-164889
3175.25-176226-183620-181231-182512-199083-206437
3178.14-195624-192446-194179-173265-144591-163650
3181.03-196942-185405-168484-181191-187057-162633
3183.93-135402-132426-144059-151676-153602-154575
3186.82-167139-189129-200224-195558-187033-191115
3189.71-203101-192983-181865-199685-196508-172107
3192.60-189955-216528-200336-179590-167656-182243
3195.50-219983-230000-197208-155797-144234-156220
3198.39-163480-158858-157483-159609-163592-161411
3201.28-154456-156797-175780-195522-203378-214288
3204.18-237711-253159-241929-223774-213692-205820
3207.07-201850-201278-195795-191839-190314-187017
3209.96-186761-180960-180484-177245-163245-140410
3212.85-124879-147603-175949-167082-150449-164295
3215.75-193635-196176-186314-220531-272572-281471
3218.64-253685-213567-193518-193129-200232-206865
3221.53-192509-168802-155353-156734-165705-159393
3224.42-143650-150127-171000-186064-181032-173072
3227.32-192787-201772-191055-186900-186051-189268
3230.21-189153-180464-169798-160491-156070-150201
3233.10-147460-156098-162966-178043-188548-181158
3236.00-184004-193927-184802-167574-173879-192500
3238.89-209573-219539-209707-183179-143627-119533
3241.78-139151-162351-160342-160498-189665-221586
3244.67-203131-168131-166272-171735-172449-181961
3247.57-183534-159388-148759-151002-133555-113528
3250.46-103030-115940-148216-167008-170971-180899
3253.35-187034-176655-150210-119827-113238-118427
3256.24-117786-125274-128782-124590-123567-129472
3259.14-145339-150202-145801-144012-133243-132164
3262.03-144648-142293-135020-127692-118214-119516
3264.92-127118-137415-152813-152571-142284-134709
3267.82-128044-144045-178768-190863-181578-172783
3270.71-150857-137979-147227-145363-128330-120204
3273.60-131058-145576-150142-152995-153977-141870
3276.49-131226-142048-146741-127016-114978-118523
3279.39-124943-128354-122569-127295-145722-146403
3282.28-147626-158687-146967-122416-114206-108711
3285.17-105499-119427-131492-126340-122086-115353
3288.06-97511-101227-106711-104669-132287-170843
3290.96-188002-192622-192885-182140-161526-159718
3293.85-166436-148076-118749-109573-111383-108837
3296.74-112690-123527-137736-154832-166779-163809
3299.64-167273-186816-189493-175597-166528-157205
3302.53-153329-150732-158852-185619-194183-177709
3305.42-153160-137868-143260-146792-142139-139993
3308.31-145013-161124-182702-196211-188133-161684
3311.21-147502-165740-174998-161603-141770-114752
3314.10-116971-174509-211057-196403-172370-153485
3316.99-159874-174041-171668-175241-187667-191954
3319.88-192810-196298-190689-193506-203009-198799
3322.78-189211-167694-145755-148446-165130-178733
3325.67-181981-176046-173421-183171-181817-158271
3328.56-140939-142725-151282-172416-189546-182651
3331.46-173382-160489-153737-173225-193252-204944
3334.35-222183-223651-206007-192050-192965-205677
3337.24-210286-211440-197884-165702-175379-222033
3340.13-228911-208799-195177-188288-189032-173590
3343.03-134852-117874-150269-178305-176724-177175
3345.92-182783-194567-213566-218176-223286-244894
3348.81-238228-200821-186327-197604-199747-193608
3351.70-201909-210703-216409-232987-252229-257179
3354.60-256825-248509-218778-199247-200815-204490
3357.49-193942-178000-186863-219599-241884-242792
3360.38-241800-228730-218389-243581-258061-243485
3363.28-243202-252585-241300-225213-227202-225163
3366.17-213985-224717-235271-243844-258158-240076
3369.06-210801-203560-213758-228526-250595-269432
3371.95-266931-249761-231780-219126-217754-243295
3374.85-267880-272889-259738-219297-191549-201132
3377.74-214448-212046-209279-206854-219955-253412
3380.63-274389-264201-232772-209597-218480-228313
3383.52-222856-219890-221799-223515-205157-180852
3386.42-186122-215397-230910-208244-186018-203385
3389.31-221732-206829-196283-217506-217661-200507
3392.20-219801-251494-258892-243061-237691-241214
3395.10-219460-189353-179237-189729-223288-253526
3397.99-241201-211329-214767-240822-256476-260266
3400.88-265708-263070-250261-253601-276067-266086
3403.77-229316-232534-256911-260598-255211-246472
3406.67-232638-224899-223847-209310-199517-225583
3409.56-238898-213678-197420-199457-206162-216993
3412.45-219932-210551-199118-205844-236044-263299
3415.34-256927-221414-194494-196678-222990-258964
3418.24-273305-260836-228073-200091-207547-230476
3421.13-247257-253018-252511-257622-246387-229128
3424.02-252011-280753-265460-240740-231051-217208
3426.92-208695-218690-227556-219451-203320-208179
3429.81-215152-205000-205333-215985-216180-213798
3432.70-205675-196759-218785-244347-251942-260363
3435.59-261873-249244-227660-180890-164778-197441
3438.49-223754-240969-235388-215702-225867-237594
3441.38-226255-219120-201822-194436-220938-231191
3444.27-211801-211745-232985-208541-178620-205090
3447.16-231759-211492-185611-217827-259153-249496
3450.06-238554-242226-240787-247911-244048-226775
3452.95-215968-222010-226521-205590-182048-149396
3455.84-134716-191769-243978-237573-230469-228779
3458.74-206244-181707-187560-208984-232334-251933
3461.63-249682-233865-215572-205550-208822-214364
3464.52-227295-242391-227847-201039-195864-199885
3467.41-197066-200849-210933-203939-199807-204925
3470.31-214260-226427-225396-222609-200522-178425
3473.20-220280-271167-261526-234942-216385-204660
3476.09-208464-233093-256980-242693-218913-205698
3478.98-200514-205418-211189-222806-225612-217553
3481.88-213973-204366-203160-204971-214326-250147
3484.77-274060-263861-239594-231390-240948-245661
3487.66-247781-235568-208665-213612-234371-222880
3490.56-204794-211808-210851-197987-204182-221327
3493.45-223277-201403-202781-225696-237596-246145
3496.34-253858-256877-245737-221491-213858-221375
3499.23-222751-212559-207501-211262-202487-186130
3502.13-181537-188279-216408-258171-274103-274011
3505.02-282771-300204-308112-296598-278334-262040
3507.91-272606-299376-295469-291694-314719-321207
3510.80-290597-281083-297951-290696-265613-250564
3513.70-262997-277073-295682-312790-308632-315014
3516.59-322761-306706-286580-289364-312537-323640
3519.48-314505-299845-280415-257841-258585-268645
3522.38-271771-279220-271272-243973-254483-292240
3525.27-306680-306194-298041-283981-285976-296054
3528.16-289515-280165-299559-316217-317212-336820
3531.05-355009-333542-288149-260728-261759-270083
3533.95-266067-247362-225291-242808-300508-323271
3536.84-305766-302762-313360-327802-340178-349389
3539.73-364796-367901-365666-356822-321136-297115
3542.62-283879-253649-242065-242940-219938-201710
3545.52-222132-241748-245509-256568-252107-235594
3548.41-251486-282877-296237-300509-309392-312334
3551.30-314081-320058-313811-294281-268958-243929
3554.20-235420-239762-238057-226409-213824-226414
3557.09-243756-243082-245965-249137-254214-272292
3559.98-278604-269922-263302-251429-234201-217772
3562.87-214950-229817-243544-242633-210209-180403
3565.77-202512-226082-205827-173105-180510-225757
3568.66-246342-233583-219648-215302-219716-215711
3571.55-210483-219624-225460-213413-210116-235228
3574.44-251825-233514-221566-244358-251459-233886
3577.34-225061-207928-187651-194685-216422-222841
3580.23-218018-222883-218504-201782-221658-249054
3583.12-239896-221035-196234-187495-210980-193409
3586.02-147573-163875-202767-204428-173464-170279
3588.91-200967-190871-173508-203904-236946-245202
3591.80-243115-248214-263240-255162-220799-203318
3594.69-199878-188988-201589-244546-258068-221746
3597.59-192881-219635-256487-241038-220548-223026
3600.48-221805-235600-263539-265414-244041-251062
3603.37-273414-262869-252973-263393-272427-281988
3606.26-267132-241551-245966-240363-188438-138027
3609.16-158505-224644-269589-272252-258069-232900
3612.05-214105-229890-246073-246884-254903-282914
3614.94-295666-286900-292607-295902-271657-254415
3617.84-257696-240727-193255-181904-233489-262764
3620.73-260226-258520-256071-268685-281020-294930
3623.62-305176-275824-241088-234341-231947-216485
3626.51-209906-219678-208417-201141-206902-171121
3629.41-172091-218612-239195-262798-292567-307373
3632.30-320417-329666-327324-352178-379562-368651
3635.19-350535-339892-316837-278061-253400-239925
3638.08-216695-206807-229627-247821-246469-237906
3640.98-237184-254776-270574-275655-286987-311325
3643.87-332683-323608-292588-271357-257987-251101
3646.76-243397-252101-269593-217812-142502-167688
3649.66-224085-237950-241508-257728-293088-316282
3652.55-311060-316526-343831-360080-347449-318212
3655.44-270064-235958-261184-298850-330043-362565
3658.33-364142-350104-354664-352412-322899-300272
3661.23-310331-329208-328715-315445-311176-323854
3664.12-344957-355350-343708-324830-316464-316956
3667.01-338711-348254-299018-263204-270539-235741
3669.90-155277-156319-254894-319500-330082-313143
3672.80-286711-273258-250214-207510-185087-173314
3675.69-195071-267022-323701-346039-341265-321153
3678.58-296447-296050-323560-336718-336502-320987
3681.48-288657-265241-257480-271708-296196-308205
3684.37-307339-295313-301724-327790-332941-310880
3687.26-247310-150921-165667-301338-378849-354588
3690.15-302988-265993-262666-277707-281606-298624
3693.05-327085-354277-365397-355201-351039-332919
3695.94-310076-325445-341288-323380-332046-359595
3698.83-347262-320479-321769-342579-324967-276846
3701.72-275868-310408-319936-302827-305526-306327
3704.62-276726-256109-248829-247347-265359-285110
3707.51-276644-243066-214949-220802-270346-308905
3710.40-298566-254734-191514-184477-251110-299342
3713.30-324557-325020-303229-307705-328599-336974
3716.19-322791-300968-301433-314561-311263-301301
3719.08-305989-302490-287996-277867-277983-274778
3721.97-264181-270967-286489-277525-258980-262914
3724.87-266260-261619-267578-271246-281764-293366
3727.76-289056-297735-318235-320531-314820-305931
3730.65-282703-227390-177828-218933-283394-292559
3733.54-271470-229295-206792-239113-278205-245648
3736.44-199861-225378-267799-287299-282632-277769
3739.33-286922-289889-281365-282512-306560-322230
3742.22-311343-275667-213816-94625-10634-110929
3745.12-264417-326041-330645-316092-291211-290388
3748.01-278849-176688-110000-190113-275974-288135
3750.90-237186-129998-104885-227180-326003-336533
3753.79-317338-306863-306597-290934-257741-244861
3756.69-268913-299456-309587-305795-313663-319431
3759.58-314121-317454-326308-331353-335777-350572
3762.47-351232-330070-322315-326686-315850-278447
3765.36-262908-282331-287067-288741-308958-327561
3768.26-328860-294605-238971-246375-304224-336471
3771.15-340261-337729-331846-322736-313075-301406
3774.04-293221-304483-316489-312705-307581-300725
3776.94-294868-305494-322281-320287-300202-314943
3779.83-352294-346926-330221-337272-345975-340361
3782.72-333371-334035-312371-284193-300781-321263
3785.61-320114-326283-339154-353433-361402-336007
3788.51-296440-295835-298704-273144-276180-311895
3791.40-329052-328397-329483-325033-324909-310851
3794.29-293161-309782-309573-271378-266205-311241
3797.18-344777-342691-335184-330270-333595-330337
3800.08-281726-169492-102508-176166-263827-289492
3802.97-299216-298364-283767-293994-317241-304017
3805.86-241130-176101-195686-258351-284869-292819
3808.76-296232-301123-325306-344981-342121-339167
3811.65-331301-331835-341190-345321-333006-296724
3814.54-279131-221787-114268-142433-272048-339013
3817.43-338400-321895-310120-296111-275995-245904
3820.33-217404-199666-204555-249141-281066-283536
3823.22-290982-307532-334846-355053-340525-311243
3826.11-293235-297214-321162-335216-329821-322078
3829.00-320975-307227-284124-279869-269406-260932
3831.90-278506-300809-317977-323903-295630-250866
3834.79-267428-315501-327991-311178-245722-148901
3837.68-161237-276216-345884-335882-298997-272665
3840.58-258247-271035-310921-334775-307963-271977
3843.47-272890-291201-314007-335146-328884-320569
3846.36-326570-319347-309187-316128-323765-325945
3849.25-322692-314481-305477-283386-204515-155872
3852.15-215237-241217-129010 6473-37873-196630
3855.04-290362-319599-328802-335789-346782-337304
3857.93-310710-315559-347334-381039-403681-374880
3860.82-315011-294654-319109-350862-375791-391577
3863.72-381848-324565-287400-306346-316438-320224
3866.61-331109-325977-321349-325821-313474-280115
3869.50-241082-262265-309501-324411-335871-355173
3872.40-379541-384050-351740-337133-368317-390656
3875.29-395143-391070-379810-368784-349530-345180
3878.18-352287-346089-323479-312083-321358-342115
3881.07-368744-377831-373442-371538-378536-401634
3883.97-418362-383206-285081-235956-291063-342115
3886.86-352831-364389-376403-368961-360434-376262
3889.75-373393-327921-284961-295269-337136-355940
3892.64-355827-348948-342135-363578-385549-385244
3895.54-398215-418197-409402-379818-355865-350901
3898.43-348092-337778-333896-332102-335926-323283
3901.32-308589-334641-354356-329393-270737-245183
3904.22-291996-330346-339566-352241-363597-375679
3907.11-395527-413139-413215-401142-395097-395175
3910.00-390556-400377-399700-380564-377161-376788
3912.89-365532-358894-369639-383502-399088-400587
3915.79-379266-357465-337344-355755-406600-428185
3918.68-395169-352655-337898-353153-382148-396888
3921.57-386584-352395-330792-344867-360848-359098
3924.46-351110-340253-324726-313648-323980-353416
3927.36-373940-373015-354577-343134-355650-374219
3930.25-389678-385826-375337-366950-348441-340261
3933.14-353619-367455-359160-338099-328285-321094
3936.04-325319-328983-316313-336870-373548-365808
3938.93-336559-329149-319992-314158-330980-336699
3941.82-319661-312505-325498-336875-352122-384456
3944.71-398421-376358-344467-329848-331793-339531
3947.61-341386-347319-344773-309138-275903-268696
3950.50-290717-323066-325554-317407-328551-347144
3953.39-359815-374696-375188-351479-335404-333653
3956.28-340694-353340-353138-328865-286563-272560
3959.18-294492-305926-312736-325676-330586-348211
3962.07-381040-390889-377401-360751-329603-301764
3964.96-306424-326328-343608-345411-337215-339555
3967.86-355611-366468-356708-337006-314326-302579
3970.75-311333-308110-298662-317440-337979-330519
3973.64-313002-299111
##END=
