##TITLE=Tetrachloroethene
##JCAMP-DX=4.24
##DATA TYPE=INFRARED SPECTRUM
##CLASS=IUPAC A
##ORIGIN=NIST, Analytical Chemistry Division, 301-975-3108
##OWNER=COPYRIGHT (C) 2000 by the U.S. Secretary of Commerce
##DATE=00/02/01
##$SPECTRA VERSION=1.10
##$UNCERTAINTY IN Y=2.0 % relative (B=1.0E-04,C=1.6E-09,D=1.3E-13)
##CAS NAME=Tetrachloroethene
##CAS REGISTRY NO=127-18-4
##MOLFORM=C2 Cl4
##MP=-19 C
##BP=121 C
##$NIST SOURCE=QUANT-IR
##SPECTROMETER/DATA SYSTEM=IFS66V (Bruker)
##INSTRUMENT PARAMETERS=KBr Beam Splitter; MCT Detector; Multipass cell
##STATE=gas
##SAMPLE DESCRIPTION=Tetrachloroethene Primary Gas Standard
##PRESSURE=101.3 Pa
##TEMPERATURE=23 C
##SAMPLING PROCEDURE=1 L/min Flow
##RESOLUTION=0.9640
##DATA PROCESSING=NB Strong Apodization
##XUNITS=cm-1
##YUNITS=(micromol/mol)-1m-1 (base 10)
##XFACTOR=1.0
##YFACTOR=18.189E-13
##DELTAX=0.4820
##FIRSTX=575.17
##LASTX=3974.605
##FIRSTY=5.81E-07
##MAXX=3974.12
##MINX=575.17
##MAXY=.0014508
##MINY=-8.86E-07
##NPOINTS=7052
##XYDATA=(X++(Y..Y))
575.17 319414 684254 460448 46340-336034-278257
577.58 147157 369481 539491 180955 80539 195000
580.47 244147 176976-78834-194419-121684 180701
583.37 16600-181032-13894 120855 31776-160237
586.26-72421-106835 163386 378461 335174 412113
589.15 368006 114026 14014-115483-82784 71465
592.04 207259 33469-50979-52688-9244-52001
594.94 36873 100230-63900-139033-20469-75215
597.83-94662-17834 333668 280744 81400-35564
600.72-108940-137300-176442-149750 114512 111903
603.62 26385 16503-92359-113099 8660 109775
606.51 16829 65534 145109 197232 115525 78604
609.40 55967 8456 60149 99707 82601 71502
612.29 116244 128433 34676 151831 55005 76916
615.19 100594 57541 158445 190993 101973-69628
618.08 13413 163254 120579 44478 35923 106706
620.97 153963-19792-101028-61020-22130-37793
623.86-74912-122371-217973-98339-44923-127814
626.76-87792-53237-136901-163998-96423-39579
629.65-81218-146116-127670-249206-336552-216388
632.54-142895-142096-83942-85581-222099-264486
635.44-235704-210913-155871-157372-100272-20504
638.33 66192-9940-127058-186381-206580-121868
641.22 21469 57706-88987-172543-131182-88236
644.11-137581-198403-137011-132529-177493-111498
647.01-32043-77366-71368-61572-75234-92570
649.90-73572-211584-255841-182535-63093-84063
652.79-42842 5115-60334-71516-68294-147849
655.68-75209 30705 58329-44349-118477-69473
658.58-33601-111805-135053-33462-104520-130438
661.47-90857-33608-64534-72863-35809-95277
664.36-140420-147791-124438-86327 4225 502161
667.26 999194 630092 210191 63314 11118-79448
670.15-95686-68611-65897-83582-71921-117464
673.04-106145-10311 49898 77959 26165-15391
675.93 11424 31731 136711 230732 258506 250389
678.83 284244 280680 289761 308796 361476 341070
681.72 382130 432809 449311 481692 584886 605332
684.61 592687 573622 515016 581431 717701 683280
687.50 547401 548714 570879 602339 675339 595983
690.40 533158 581268 589729 514631 455328 442147
693.29 452470 494072 425079 413708 422539 371417
696.18 342290 291229 248862 191892 104524 154518
699.08 150273 110543 87079-27716-114140-112068
701.97-60963-100363-120524-141792-194581-189945
704.86-170373-143345-90541-138417-137757-101380
707.75-168144-146708-114704-151468-96264-39758
710.65-98357-131224-87079-21559-82455-161599
713.54-176090-138811-165461-182860-107828-135484
716.43-189226-216372-134740-54678-18363-18645
719.32-70022-72220-112481-152312-125348-80373
722.22-110746-135306-95008-83100-97326-36193
725.11 16277 17624 21900 6452 6685 38341
728.00 54591 93101 51672 68264 80162 117577
730.90 133397 151615 167535 223299 390716 381745
733.79 370499 498652 586967 663291 796363 1000795
736.68 1118707 1274513 1585961 1861400 2126303 2486282
739.57 2916713 3392825 3866940 4364936 4916161 5497185
742.47 6223188 6978588 7792916 8670307 9650672 10704692
745.36 11752684 12663719 13703692 14965728 16185709 17221948
748.25 18226509 19198068 20412220 21790234 22722145 23186186
751.14 23916956 25504428 26638534 26249091 25795219 26412688
754.04 27730489 28555042 27393182 26581083 28260248 30623291
756.93 29136027 25682278 25155841 25969688 26640690 25352118
759.82 24310088 25073207 27169987 27360605 24180196 22523886
762.72 22749749 23219658 23705710 24210991 24984827 26088284
765.61 27429650 29114138 31350747 34151798 37709441 41858096
768.50 46805032 52649788 59453708 67227179 75833082 84877665
771.39 94775438 105508275 116558661 127476817 138247349 148891835
774.29 158928194 167395180 174281465 179967332 184988126 189667972
777.18 193492151 195799031 197315010 199550525 204902683 201837682
780.07 190944121 193447629 210522035 212335461 200442716 195979200
782.96 188799393 184723045 184904221 185858154 186867803 185152714
785.86 180885121 173983363 164425736 152429347 138623028 124006322
788.75 109347035 95593430 83116894 72338818 63591717 57288298
791.64 53324794 51481124 51783581 53767679 57012292 61416413
794.54 66495420 71689999 76732760 81395762 85318413 88554666
797.43 91150228 92793795 92999843 92568039 93845501 98562257
800.32 106406855 111530147 109121552 103116794 98425473 97081513
803.21 98867360 102263325 104984958 103992274 100690423 98667327
806.11 98097984 97216556 94423351 89832010 85078767 80513408
809.00 75401521 69509319 63255803 57129641 51050961 45161938
811.89 39612836 34533409 29847224 25584455 21806373 18491725
814.78 15677567 13316314 11317094 9683173 8360227 7275972
817.68 6429482 5900884 5504400 5186968 4972187 4869575
820.57 4808947 4774684 4734856 4741996 4836458 4891655
823.46 4882784 4843682 4787895 4776989 4753518 4706683
826.36 4699501 4719567 4669914 4606768 4516854 4419810
829.25 4318325 4231332 4176715 4172138 4090408 3972437
832.14 3848764 3625406 3333786 3029748 2712797 2415764
835.03 2062759 1677328 1348503 1081579 843832 613201
837.93 392687 277728 216650 188065 154539 106353
840.82 74701 85776 75386 76869 24872-22518
843.71 14986 68606 74612 57207 4055-17590
846.60-7576-2744 14674 39892 113056 94594
849.50 23414 1734 4504 8587-5224 17961
852.39 44336 48446 34628 15258 36568 70288
855.28 52268 44071-1565 7566 91015 85899
858.18 19128 14085 47224 81814 44379 68300
861.07 104035 116426 72305 56088 77794 67810
863.96 70259 66544 46670 53013 61281 64097
866.85 51181 52463 92572 93801 95017 118908
869.75 136547 184036 173524 167946 204958 189037
872.64 140561 151596 195562 242350 287975 330463
875.53 383338 404871 423254 442649 505682 628504
878.42 720356 736725 775944 897966 1049133 1155018
881.32 1249839 1449227 1652249 1831488 2086570 2359920
884.21 2694136 3046092 3377464 3792786 4247438 4809077
887.10 5449308 6119515 6875951 7701596 8584573 9545369
889.99 10568811 11672803 12898202 14258466 15666767 17131232
892.89 18707071 20403543 22156528 24031144 26072485 28323374
895.78 30761944 33508004 36578153 39948109 43776108 48179721
898.67 53288262 59161821 65951190 73727400 82656590 92896067
901.57 104571017 117758381 132420670 148620440 166608691 186516636
904.46 208214314 231586280 256845540 284066403 313203316 344287713
907.35 377108950 411363846 446719982 482813611 519287965 555453654
910.24 591117262 625469413 657859778 687860510 714836802 738296472
913.14 758053600 773925893 785773350 793371626 797044878 797586032
916.03 795181751 790882436 785289061 778581948 773041445 768538858
918.92 764891297 762316613 758409698 754472739 749086695 740915393
921.81 726807315 702891416 674371474 639551891 596125710 548605156
924.71 499674199 449589494 398394367 347141837 297314995 250520920
927.60 207957677 170397487 138268990 111535602 89734186 72210147
930.49 58154424 46829261 37665023 30259954 24181863 19190723
933.39 15125901 11866882 9284528 7251778 5682285 4460424
936.28 3508120 2787565 2207694 1764273 1416239 1144459
939.17 966282 831440 662638 559730 462589 381547
942.06 323909 263613 210408 168661 136251 125104
944.96 130713 129998 83856 55243 50360 36544
947.85 50524 68037 38632 54939 62791 30140
950.74 16040 29067 28006-2922-847 30159
953.63 24039 9560-13684-9349 19241 31690
956.53 6312 15570 46330 67413 41085-5896
959.42-51251-33607 4298 18236 37118 57494
962.31 78357 76408 48655 27405 5054 9297
965.21 20632 10368 14601 15526-4968 2637
968.10-19756-41507-55177-66593-58361-47487
970.99-9115-9380-28590-31339-38484-32675
973.88 3146 38246 56308 97812 129589 103219
976.78 123863 166180 188576 213561 244177 288044
979.67 367668 421921 420868 428631 431508 465629
982.56 497663 539892 545728 562208 559385 545472
985.45 553398 555190 493868 452048 520670 554008
988.35 538492 555843 584224 611640 626706 625137
991.24 625874 600350 568321 538897 488121 443878
994.13 406362 352823 291891 241079 210580 177711
997.03 119829 91879 61697 44136 34711 16712
999.92 30636 54302 60441 42525 15122 46528
1002.81 102442 102853 101450 143310 192724 200313
1005.70 212475 238646 232750 237563 226390 194355
1008.60 171889 165264 174496 181830 175706 149903
1011.49 113540 83618 113755 118961 69436 61162
1014.38 80850 47468-22125-46785-27706 14849
1017.27-987-53148-71032-60868-67526-94922
1020.17-112689-119809-142511-129347-113799-135248
1023.06-174839-162259-156670-185107-200478-198451
1025.95-182408-148875-136920-138589-152500-146962
1028.85-107731-94101-126604-154354-131797-126014
1031.74-86759-50609-83173-101793-109789-125007
1034.63-120476-133146-140670-136058-147619-157634
1037.52-122748-122232-119352-128604-154711-124749
1040.42-109173-139352-133977-94081-116212-139539
1043.31-122004-108105-122432-142645-162356-163349
1046.20-201230-208320-166291-152857-173612-170668
1049.09-130391-104048-114621-101750-95634-98189
1051.99-131611-117435-96138-74329-45905-70541
1054.88-98831-111300-121407-124210-131762-124307
1057.77-104681-128408-145341-165087-166167-125653
1060.67-76526-46886-49026-62305-114256-136086
1063.56-140113-145178-130245-115069-111809-89204
1066.45-93136-98950-106337-129042-112215-87691
1069.34-99201-98788-52726-24151-56500-72673
1072.24-48225-62443-93770-71051-41861-33489
1075.13-20377 15337 85186 117687 96630 103613
1078.02 134782 186997 190090 202917 289648 347630
1080.91 340742 365537 459993 544385 594083 643594
1083.81 736702 827884 890463 1000416 1122393 1194750
1086.70 1275453 1385671 1474834 1543666 1647420 1778966
1089.59 1911252 2017847 2125090 2221958 2330115 2420524
1092.49 2484142 2604085 2745890 2866462 2970747 3127233
1095.38 3364785 3587853 3798617 4047682 4324582 4586055
1098.27 4850275 5125597 5362660 5504911 5558046 5495261
1101.16 5295399 4967893 4600008 4195425 3752676 3377826
1104.06 3108278 2971342 2962663 3066439 3152424 3174017
1106.95 3219904 3311888 3349199 3389833 3407657 3388375
1109.84 3349556 3320434 3307822 3301892 3311558 3324174
1112.73 3369773 3451825 3566637 3716869 3840470 3972887
1115.63 4114641 4285816 4492927 4695771 4861190 5013582
1118.52 5201472 5396892 5554434 5671842 5760920 5828049
1121.41 5858903 5887527 5945695 6018016 6074845 6081633
1124.31 6040682 5970566 5877902 5768431 5675206 5597609
1127.20 5563273 5520709 5397378 5230128 5008590 4789964
1130.09 4659523 4579592 4459805 4322237 4185244 3998310
1132.98 3795640 3606925 3433640 3278322 3183670 3141692
1135.88 3100085 3049814 2991420 2986759 3018157 3037942
1138.77 3065320 3149510 3265883 3352083 3404499 3479558
1141.66 3542023 3609021 3696164 3745329 3813584 3893042
1144.55 3924029 3926613 3954583 3996135 4010945 3986352
1147.45 3944367 3929027 3960095 4000790 3961656 3936968
1150.34 3889931 3794080 3682578 3638540 3589392 3484969
1153.23 3373140 3274173 3172476 3058699 2949921 2826956
1156.13 2662880 2511950 2383035 2220073 2052534 1893264
1159.02 1743856 1597202 1507266 1404437 1297442 1218990
1161.91 1167438 1109349 1041249 1019045 1043458 1036197
1164.80 1013797 1044867 1073750 1091702 1133708 1165789
1167.70 1141971 1146634 1181195 1215829 1269684 1289761
1170.59 1278068 1274651 1275962 1258867 1220704 1217531
1173.48 1234173 1220181 1220015 1226152 1179890 1123038
1176.37 1113417 1105144 1054542 1035330 1101166 1121724
1179.27 1048409 1026123 1018369 942043 876497 885123
1182.16 879813 852686 815328 732374 638386 567965
1185.05 498421 428193 325978 264141 243531 224212
1187.95 204933 187882 172361 149883 132318 127590
1190.84 130859 124293 143721 144402 148573 158327
1193.73 125465 95197 111837 129784 141961 159968
1196.62 169671 147385 117548 110857 107231 101029
1199.52 87997 81639 85085 99983 96539 78840
1202.41 78806 79525 72363 50553 51257 91765
1205.30 108336 106118 79762 52681 49906 33113
1208.19 34898 47616 76756 79611 68227 65370
1211.09 46363 39219 49494 78950 77759 80294
1213.98 122566 150248 150718 155924 193752 215938
1216.87 229064 244573 276816 315928 338101 352864
1219.77 374226 383502 369110 394524 457399 484168
1222.66 487871 490856 513887 529724 546003 540798
1225.55 536198 568093 585568 594935 598319 596458
1228.44 618517 625619 610130 576706 531438 521912
1231.34 547390 539667 506064 493009 491985 477167
1234.23 427934 396529 400904 402766 391583 367059
1237.12 357694 342375 323879 305022 293642 311183
1240.01 319832 323302 332803 344790 342946 322206
1242.91 325900 366237 385247 402424 427603 427978
1245.80 419941 427943 471800 516944 556347 588575
1248.69 629559 669303 705335 759542 778710 803172
1251.59 842337 870072 897043 926801 973537 1023686
1254.48 1044310 1045023 1037297 1043097 1053706 1076384
1257.37 1094042 1137640 1144708 1138722 1139971 1137215
1260.26 1111895 1110190 1105162 1101600 1103032 1148516
1263.16 1172211 1106124 1049785 1060102 1057312 1006438
1266.05 949012 937210 908308 861485 814526 755839
1268.94 689870 672001 629188 585619 553843 513190
1271.83 460598 420153 366690 308128 288195 275874
1274.73 262345 283269 279459 244369 208322 175674
1277.62 136819 141599 151417 160845 134228 99505
1280.51 87463 75391 10017-30664-37073-33112
1283.41-35420-16507-18756-35640-20286-15921
1286.30-25497-32582-26736 14540 56038 85286
1289.19 89186 71635 71651 92402 112907 136029
1292.08 158184 192303 225336 233573 220396 227058
1294.98 228449 233143 261369 287275 286651 296452
1297.87 305216 323146 314149 296931 286063 305454
1300.76 304267 295654 289823 280896 235458 199457
1303.65 182193 162670 165549 170931 163453 138590
1306.55 119724 111160 82282 57961 33416 5332
1309.44-22407-47952-38013-39155-54641-99977
1312.33-123274-113011-116684-118837-115003-103607
1315.23-122839-144683-158236-167718-181397-180166
1318.12-149545-117369-124656-151236-154415-172711
1321.01-192705-197568-190946-189140-171079-156874
1323.90-134629-124586-156254-182800-186428-159213
1326.80-146730-145171-113117-75852-79536-118441
1329.69-130457-127772-109160-78570-71739-57120
1332.58-40485-33338-34511-54809-36730 13407
1335.47 50902 65960 79158 106190 130834 144480
1338.37 165194 185509 203730 242935 305037 365155
1341.26 410922 437415 446599 496154 543850 610241
1344.15 686979 762550 825647 904318 976942 1053475
1347.05 1094554 1133005 1214158 1318975 1440614 1556899
1349.94 1652300 1771818 1888904 1967777 2028865 2241482
1352.83 2457627 2637008 2808004 2906389 3034312 3169238
1355.72 3261253 3335796 3409803 3477203 3534853 3586736
1358.62 3597320 3580007 3605827 3646275 3697307 3706217
1361.51 3659758 3648045 3651781 3639060 3601317 3576386
1364.40 3573203 3491814 3369468 3256257 3157939 3073244
1367.29 2973367 2897170 2833695 2716218 2534821 2342304
1370.19 2180266 2037658 1930624 1833543 1685299 1552554
1373.08 1404363 1247955 1127376 1034692 918813 788939
1375.97 715500 665742 623045 554539 457170 360367
1378.87 303433 288481 297536 277067 238551 228246
1381.76 228013 223341 198033 189722 224325 242789
1384.65 248548 248420 247025 231901 231367 252189
1387.54 215837 217264 207654 205270 199742 187910
1390.44 158489 162132 174954 164248 141034 166162
1393.33 197287 251476 233528 157275 140800 142133
1396.22 155879 169598 157804 140574 159289 151413
1399.11 79993 39947 64392 72820 77238 85880
1402.01 82968 91426 92712 92599 95002 81698
1404.90 42799 607-10453 3547 11473-13620
1407.79-29764-21916-43874-53042-60213-72865
1410.69-59830-35357-42682-57244-83596-100004
1413.58-113591-118174-120850-121373-116636-115440
1416.47-113837-111804-140113-126125-57376 5761
1419.36-58839-122831-138479-149135-167891-181291
1422.26-187463-167380-165960-169073-161983-156053
1425.15-175655-187829-171061-156346-150482-162798
1428.04-163399-169145-170006-154403-147803-158640
1430.93-171221-191430-202623-163654-157265-190161
1433.83-177860-160212-156086-149993-62646 37867
1436.72-42241-130878-148142-193462-214641-210550
1439.61-210527-205266-186372-160863-159145-175260
1442.51-178525-163511-159651-174353-177618-163118
1445.40-158559-170887-179723-172803-146424-163109
1448.29-183324-174358-181375-199908-200435-177835
1451.18-162325-168139-186929-203842-215751-192111
1454.08-161109-150139-147864-108931 37469 95142
1456.97-73980-110180-84498-127251-135517-139603
1459.86-154582-195752-210600-186368-187177-195845
1462.75-167875-155353-160033-88428-83577-133787
1465.65-150016-158139-174791-169717-159411-162110
1468.54-164907-144062-126829-129300-142941-102752
1471.43-19426-53214-80337 1969-31092-103011
1474.33-123574-111560-62726-33857-79312-108303
1477.22-90944-72056-61160-63528-73803-67012
1480.11-45861-24459-46774-70182-52453-63395
1483.00-76567-88721-82672-80460-73430-67006
1485.90-85374-85718-45782-76586-122484-119936
1488.79-96581-76440-87849-102439-117234-133217
1491.68-138100-147232-163030-180842-169118-162365
1494.57-158031-138269-48068-73054-188352-205836
1497.47-206858-152334-125500-176932-213418-228602
1500.36-226732-213660-204335-215754-214391-185810
1503.25-187375-207768-197960-77096 22767-56728
1506.15 284 78516-72915-163368-143444-163706
1509.04-179166-184916-204409-203349-217635-188039
1511.93-144014-167521-192746-181264-178100-164763
1514.82-171982-183433-153174-140173-131411-143736
1517.72-177865-185115-189655-163505-112831-89561
1520.61 25154-10951-140272-113513-126072-160083
1523.50-163182-162010-156219-108540-120662-175189
1526.39-179343-137029-147698-148309-149094-152467
1529.29-150591-157184-154771-144705-118986-116083
1532.18-113464-67010-15580-14607-96127-136745
1535.07-151783-124276-86529-59790-65363-45750
1537.97 44829 216326 145755 119858 178289 60357
1540.86 10764 104543 135201 32038 6567 11689
1543.75 1088 55929 84399 19314-19808-41930
1546.64-55711-57139-23750-8395-2110 22949
1549.54 46012 28756-8611-22725-15843-15990
1552.43-34739-1893 84950 143480 57910-1941
1555.32-8760 15434 57732 151007 212959 319568
1558.21 319621 172410 241888 346669 244029 100846
1561.11 66375 60245 97932 109445 101471 74627
1564.00 98464 115752 89133 77933 93010 95405
1566.89 90468 104202 112351 122995 179195 223265
1569.79 154570 104630 112743 107160 101436 101403
1572.68 121650 123754 120961 143944 199212 306123
1575.57 474041 365211 191389 152116 145558 136485
1578.46 132882 160863 174889 152726 130720 118301
1581.36 90396 81223 77002 83742 92554 104775
1584.25 77660 74532 82633 76911 91752 105900
1587.14 99412 107344 120974 111996 85580 77599
1590.03 83347 58598 64135 64192 53181 46329
1592.93 52204 74614 77736 52145 45692 48255
1595.82 43125 16071 18440 38039 25866 4393
1598.71 2774-1094-28155-45873-40193-29908
1601.61-26322-50560-83899-95237-102018-109886
1604.50-103568-96594-99612-108364-113422-129724
1607.39-138647-150598-144016-132815-151837-175447
1610.28-176182-173814-162706-184658-198805-189986
1613.18-181863-165567-155844-167312-163130-100199
1616.07 64905 10508-155314-184962-170782-162017
1618.96-171304-182671-188230-183546-173876-171034
1621.85-159912-133854-81260-82073-163276-191145
1624.75-196401-185505-175179-173303-164634-139971
1627.64-149346-189353-192416-194750-218287-204882
1630.53-182108-179171-176414-165295-168220-170360
1633.43-170921-145219-67875 49390 43841-103119
1636.32-144464-131269-125832-152353-166770-153872
1639.21-110504-94917-123710-141002-156151-169337
1642.10-166981-172169-175241-181460-186607-173880
1645.00-69412 31939-47373-108347-116623-140820
1647.89-154029-190783-169262-149849-150183-157164
1650.78-147049-80042 121063 186708 235270 98671
1653.67-60332-70715-137431-169959-196462-210442
1656.57-224992-220034-210075-201301-207540-197793
1659.46-219551-232762-228971-211607-173026-111006
1662.35-95682-180627-213780-214534-230981-220685
1665.25-213204-200804-206643-198602-200140-171367
1668.14-154870-99708-115882-189086-197980-166694
1671.03-137211-158805-179897-193302-208092-196639
1673.92-167773-88262-36180-107445-171626-183530
1676.82-184666-200595-199546-198772-186954-165163
1679.71-155529-175068-204156-196158-184858-163315
1682.60-119601-108732-57843 117144 146681-81758
1685.49-158470-175962-181611-194338-185025-184956
1688.39-192113-193737-182328-178340-192789-223099
1691.28-228500-217650-213295-206478-210351-223324
1694.17-213337-142978 54284 63733-142775-212244
1697.07-193583-149209-112221-100997-30937 42336
1699.96 29874-36082-162885-220559-240014-233337
1702.85-219291-202482-176182-168266-200110-185281
1705.74-129702-144763-195823-184935-178610-213763
1708.64-223704-201103-187389-170934-158477-170506
1711.53-198625-191591-176749-171158-143294-108197
1714.42-71659-60753-112986-126343-45971 115743
1717.31 43518-46694-45273-89767-114405-138417
1720.21-140007-147616-157101-155644-154673-127927
1723.10-115214-122581-120904-123157-130269-131856
1725.99-134831-140345-143836-132646-119107-130341
1728.89-111635-89718-92079-109084-125500-133368
1731.78-126009-63163 66705 33334 59596 112745
1734.67-42556-116603-111790-94032-101103-98349
1737.56-85192-56690-39269 12568 43512-9584
1740.46-28745 4329 14772 19928 37839 36091
1743.35 20724 33377 67193 96649 91617 80511
1746.24 85014 96924 83821 87721 133679 145306
1749.13 139153 125830 139988 226654 241955 157678
1752.03 121853 126570 126044 124934 114934 103078
1754.92 86014 92814 121068 124365 76269 35914
1757.81 16718 25731 27053 19532 22174 23362
1760.71 32091 81127 64383 36996 18949 4817
1763.60 27533 26286 4777 21007 36128 47153
1766.49 81280 112756 169603 174851 130744 145675
1769.38 174293 199664 250520 318799 328383 408585
1772.28 503667 443570 410537 426330 439873 480554
1775.17 514955 519118 529230 538351 545750 546722
1778.06 547361 559596 559910 559022 583471 605464
1780.95 602515 611872 619447 595495 565826 567006
1783.85 582550 629346 629980 575691 528230 490939
1786.74 453766 414834 371962 347127 315849 307458
1789.63 286211 258416 209929 174928 209897 312391
1792.53 306455 252892 272207 299787 307770 324720
1795.42 344619 358426 364684 371600 370194 368231
1798.31 373294 396575 380895 321994 316109 340377
1801.20 334012 329919 345201 331288 319771 309079
1804.10 301021 311279 299530 269498 249016 223628
1806.99 176426 125812 99478 54704 12609-32984
1809.88-62020-79278-134286-169945-170706-197794
1812.77-249177-281742-288943-318518-334550-337617
1815.67-355973-362013-378884-394700-396124-396913
1818.56-411714-405599-391307-389840-419623-440689
1821.45-451807-444338-451079-471711-454519-434710
1824.35-413979-395361-453054-497089-492053-482667
1827.24-475779-464505-464865-462380-441986-402583
1830.13-425121-476724-479877-469697-475331-487235
1833.02-500734-477910-481123-482551-471100-481999
1835.92-483404-473196-481979-466466-451576-463771
1838.81-462960-465016-478231-486778-473117-451822
1841.70-435113-395873-390039-388911-326043-359019
1844.59-400070-391900-384686-350132-362098-378983
1847.49-364833-349724-331363-330121-320451-284967
1850.38-255166-231116-225869-207519-191450-146875
1853.27-90746-68758-23583 11695 4853 22527
1856.17 20953 10612-25433-69218-98384-84225
1859.06-46691-29662-8798-25314-36629-23902
1861.95-32903-16797 13642 51130 72759 53430
1864.84 21547 6106 21373 32823 42713 62420
1867.74 30032 14259 42437 26347-9720-16256
1870.63-19138 13495 28675 12851 14757 26953
1873.52 45026 50580 61449 108146 147573 166260
1876.41 188201 199399 240701 279213 289548 282637
1879.31 309366 350664 384210 403042 423527 441422
1882.20 439194 459586 487513 530035 527264 494827
1885.09 490566 502502 531376 583099 614652 568764
1887.99 506207 510813 548137 556568 595958 609754
1890.88 548281 514242 500664 493606 484550 517490
1893.77 477921 406482 406632 406237 377334 338108
1896.66 323177 277940 253723 251268 256530 274750
1899.56 299510 274255 216999 205789 217351 225090
1902.45 282615 310719 271707 254341 262746 269289
1905.34 310188 349653 334951 325879 331810 335304
1908.23 372718 417405 397234 365397 357835 376516
1911.13 409139 432649 410608 382815 364274 368217
1914.02 372995 382510 352690 323164 299496 281617
1916.91 267356 287067 247886 183028 152200 130142
1919.81 115825 107614 73331 39033-32238-76301
1922.70-86506-125725-177251-205677-237623-251116
1925.59-255475-269979-280271-266086-269672-271977
1928.48-256243-253461-265662-289354-298961-281154
1931.38-295115-298448-273770-274409-281006-279931
1934.27-299439-297399-288552-304181-299519-285288
1937.16-299405-297838-292607-291142-278852-279981
1940.05-304683-316510-310151-284337-270126-279173
1942.95-297160-310476-302818-278132-281525-297891
1945.84-296908-278072-272326-284751-307942-308162
1948.73-290832-276186-275596-271066-273465-281135
1951.63-276938-256982-250297-265829-286800-261159
1954.52-269779-288762-289511-274557-282325-299122
1957.41-294814-281963-274169-262198-283039-303423
1960.30-284954-264305-278761-290607-282869-272603
1963.20-261351-271068-284293-277621-286433-295422
1966.09-283121-278945-275038-271888-262128-260335
1968.98-263050-274029-284984-278435-271205-268574
1971.87-261924-263516-251132-215982-200383-259627
1974.77-335377-317586-292265-278370-273639-258878
1977.66-261511-252032-262551-264204-248739-233011
1980.55-232252-248658-253163-260593-272319-263428
1983.45-254966-250960-244390-229969-228104-241421
1986.34-263296-259320-263399-238851-234220-239542
1989.23-230486-233417-254667-251586-234373-241442
1992.12-254292-255644-261883-248486-251686-228943
1995.02-223247-231130-244248-253185-259963-251075
1997.91-249599-258891-255464-246292-248753-250731
2000.80-254800-273312-274435-252870-264389-276539
2003.69-275135-262817-250752-236640-227919-223325
2006.59-225676-227713-243805-255467-266258-256133
2009.48-264282-263868-247014-250369-261419-262488
2012.37-257286-275592-273479-253894-231176-238729
2015.27-266852-265963-272882-281209-258671-254026
2018.16-267632-267662-256920-252387-245019-243857
2021.05-250199-272747-293115-282545-285100-286873
2023.94-266366-265387-267727-261514-246540-250529
2026.84-275687-276203-263412-237134-243877-255268
2029.73-257706-260453-259396-262276-259243-246437
2032.62-244007-251709-258019-265387-288458-285386
2035.51-285404-287157-285961-277232-278323-276991
2038.41-286483-273960-269188-267277-267276-260657
2041.30-257004-251750-278992-288239-284000-275499
2044.19-279547-286746-282521-269357-256752-256977
2047.09-253597-252843-266065-270241-261793-261984
2049.98-278558-276155-281874-279558-279783-294069
2052.87-298394-299488-275993-267406-278283-288376
2055.76-288105-292893-298429-291863-297247-300219
2058.66-297928-292936-276857-259217-261297-272489
2061.55-285066-281803-280154-281754-286580-271693
2064.44-269059-263329-269218-281268-287729-290278
2067.33-287804-268856-258952-277133-290095-290894
2070.23-282803-271948-269985-274648-272267-270255
2073.12-277190-267323-275591-304885-310102-274116
2076.01-256963-267635-282555-288889-297133-299176
2078.91-289405-293096-301748-293522-279916-261539
2081.80-277337-279710-270833-249778-240064-259767
2084.69-270537-261152-258125-269554-294876-281592
2087.58-280217-278163-278739-283548-271464-250401
2090.48-240290-248320-263655-274299-284941-262439
2093.37-257765-247632-233510-253672-278653-268868
2096.26-277686-279115-275632-284909-272773-243207
2099.15-258690-270014-276828-274086-292317-284712
2102.05-276676-261343-276564-288148-294583-298835
2104.94-296060-288550-298133-286973-242547-239466
2107.83-266239-292211-302917-290898-284781-274869
2110.73-234739-207875-256095-283223-307361-307893
2113.62-300042-286403-264817-221004-245619-296427
2116.51-301731-279929-278470-277401-273720-218561
2119.40-229789-268710-268509-271734-276243-284406
2122.30-281549-238745-216333-245828-263054-259505
2125.19-275867-277637-276883-260958-230009-231333
2128.08-268136-263180-267437-289674-284901-255952
2130.97-243453-244359-241466-239045-255595-240719
2133.87-246797-247214-242647-259937-279270-266363
2136.76-275631-278342-279294-258547-250108-255643
2139.65-257963-260121-267751-251689-230096-221735
2142.55-246784-235862-232064-240800-259077-251581
2145.44-244777-247096-245532-245194-243196-229637
2148.33-255290-256557-256437-240681-210974-225819
2151.22-257848-260016-258665-247545-242918-223525
2154.12-210353-214176-231780-231941-253970-245710
2157.01-244637-228724-226311-249836-264723-254795
2159.90-246117-231735-216992-187314-218507-252510
2162.79-266862-264387-264637-245229-221499-188522
2165.69-203546-228116-245963-221399-218411-195646
2168.58-166235-176914-229528-238596-238401-237273
2171.47-224881-160924-159095-214399-229910-203893
2174.37-202323-203464-149187-113072-161180-166938
2177.26-168348-146732-155836-100906-107356-96394
2180.15-132278-142085-119930-123182-67317-54274
2183.04-34703-61526-67647-23573-22238 16616
2185.94 3447 42877 16591 11983 49592 40313
2188.83 105523 88298 144763 72592 122529 112031
2191.72 108690 184653 173050 249022 152236 295133
2194.61 205090 339222 241981 388935 293153 394945
2197.51 346125 405292 388916 426076 457449 446029
2200.40 522060 496676 570299 485882 591343 540437
2203.29 641751 562766 665847 589257 697737 635996
2206.19 749608 664200 742093 669910 740442 694623
2209.08 770609 694001 761042 730433 782218 734273
2211.97 779516 732889 738388 689005 717462 685359
2214.86 706933 659979 667331 628449 616914 548082
2217.76 530863 478875 482017 414114 374620 308023
2220.65 263931 193742 163147 58200 6491-48467
2223.54-14961 38562 107056 154536 216888 272269
2226.43 341591 400765 479362 538031 606654 648464
2229.33 704448 762261 815823 839310 887363 931388
2232.22 959591 988861 1024587 1059400 1095514 1093030
2235.11 1114582 1110095 1112675 1115674 1122442 1106684
2238.01 1091344 1056117 1033819 1013255 1002392 977797
2240.90 935327 891138 883110 828207 763776 708043
2243.79 685336 637917 587290 537686 491816 449833
2246.68 409099 363106 325446 279774 226929 180096
2249.58 155738 113483 102628 85459 44671 19783
2252.47-25356-72084-79574-86735-93181-125001
2255.36-156766-175335-177935-206840-229683-211037
2258.25-207047-233553-233583-242025-241127-221333
2261.15-215690-248141-262031-249759-235385-237221
2264.04-244923-255272-250380-251986-248927-253220
2266.93-244944-229523-219750-232062-249262-272460
2269.83-265677-232708-225201-225238-225471-251877
2272.72-246780-239761-243120-238575-230097-244601
2275.61-277320-292984-275122-269357-284399-291896
2278.50-278405-272654-257535-238245-242821-248263
2281.40-246926-247893-252819-247115-234753-232900
2284.29-255259-266535-260948-276941-282610-264044
2287.18-281097-287421-247658-252488-265595-245058
2290.07-230864-231428-231744-254565-267654-247052
2292.97-267696-279951-264134-248947-247137-232758
2295.86-253104-269927-267917-242103-212370-237343
2298.75-252882-227952-219429-237364-261697-267213
2301.65-255598-219738-236990-249038-252931-205736
2304.54-213859-247579-250001-193912-170710-236266
2307.43-256698-202743-129441-165823-237891-222736
2310.32-144300-102437-208012-222100-126895-26950
2313.22-150180-229389-169668 5644-88619-166644
2316.11-112299 80685-13725-163386-115515 137767
2319.00 54288-162312-103689 231673 185323-92522
2321.89-58164 307954 266249-82067-4562 430343
2324.79 352655-53676 88122 539714 371086-57927
2327.68 180143 617886 324609-94739 303909 708068
2330.57 262138-56017 491055 706621 122816 64846
2333.47 708804 626054 21593 274918 814946 386924
2336.36-3323 540523 743067 117586 154647 719001
2339.25 464228 13973 448648 667425 145267 154929
2342.14 607469 355563 38772 341392 387843 30809
2345.04 99925 277928 83387-30058 96827 37130
2347.93-72906-108101-77247-20022-42734 15187
2350.82 213460 151197 87869 377624 341028 143641
2353.71 502523 515792 250394 684900 699682 340325
2356.61 820253 782048 407663 947118 830852 498862
2359.50 1042176 750818 585565 1103258 674048 737967
2362.39 1109882 605719 893672 952576 600982 1020283
2365.29 750891 695464 943127 540222 778257 677274
2368.18 544150 754289 487686 616259 506112 406807
2371.07 458660 282195 419265 305177 352675 293873
2373.96 229971 202965 121573 142036 92393 117931
2376.86 63672 58974 14533-33952-95327-112038
2379.75-129288-136137-150188-174442-196824-187002
2382.64-189666-197188-206218-212262-218487-219625
2385.53-210101-198482-188792-188787-213144-238262
2388.43-237797-235593-224396-228967-238366-209452
2391.32-209109-241444-245298-241099-234103-238854
2394.21-259362-277171-270601-279650-280977-273935
2397.11-258690-258485-275363-281871-273242-285206
2400.00-282420-270933-272921-277528-274158-256808
2402.89-241272-264367-276908-274275-281856-286158
2405.78-277749-264181-278708-278801-257376-249011
2408.68-238428-255481-282095-281169-285322-277131
2411.57-244986-240054-257106-284473-286229-274530
2414.46-281888-307190-305133-284773-269532-267710
2417.35-265858-268573-258941-236203-238998-280000
2420.25-289734-267439-239138-251579-263555-259955
2423.14-267129-268498-272676-290059-276091-285384
2426.03-280762-272691-276875-278694-266004-252649
2428.93-255618-251026-239716-264589-272481-273464
2431.82-248072-241864-256591-266755-256346-251251
2434.71-253005-234718-225549-239920-253930-258402
2437.60-251739-249862-221871-207427-237776-267805
2440.50-274577-249292-223300-239352-250665-254354
2443.39-238838-225784-248888-261090-242757-222949
2446.28-224448-229549-223431-221994-227297-224464
2449.17-227505-249703-240563-257074-252005-210470
2452.07-191784-197980-217938-248961-258857-247034
2454.96-223221-217404-211482-220095-219427-217739
2457.85-212913-202171-196385-220781-218761-211763
2460.75-211322-201645-209067-231074-216820-176493
2463.64-163806-154874-163578-153395-141713-159622
2466.53-153117-141291-121680-96826-101211-101773
2469.42-86113-60450-39373-27498-10376-19130
2472.32-13564 1672 31601 31629 30739 67671
2475.21 94354 119675 150004 141368 148009 174527
2478.10 208447 237421 267114 296551 311793 340767
2480.99 370597 385378 404184 445983 467516 475302
2483.89 508756 548752 584955 602277 626439 662492
2486.78 692081 709324 745250 777299 807235 821702
2489.67 856172 891986 901055 889462 898317 901553
2492.57 909158 917968 933724 927930 920833 892680
2495.46 895964 899203 864002 828111 817539 794122
2498.35 776940 756225 725499 701230 681893 659517
2501.24 614445 575345 535011 494019 470215 416681
2504.14 373544 352842 311829 233183 180085 154523
2507.03 125727 76639 31115-18468-58512-83987
2509.92-127973-151491-172068-189713-204255-209789
2512.81-209557-217458-204547-228561-258345-262426
2515.71-255218-269386-273676-253162-234207-235654
2518.60-253531-266382-264286-272058-277299-263722
2521.49-259589-267497-253522-250174-279265-297684
2524.39-306235-299726-285245-287285-284751-293519
2527.28-296421-306531-294515-295110-298274-267728
2530.17-247498-255287-262682-273990-273314-274744
2533.06-286728-287993-291728-296593-281295-294629
2535.96-307262-287979-277127-286967-272983-257597
2538.85-259201-272516-270557-250574-242592-263287
2541.74-250688-251784-253167-247829-249196-267515
2544.63-259909-279126-285300-255759-234818-252570
2547.53-263171-267273-265720-263029-266939-274762
2550.42-267318-253526-255727-247806-255448-271142
2553.31-283609-288432-274595-251717-249413-260877
2556.21-264002-273010-282171-265917-253247-264164
2559.10-278625-290577-268696-239206-248215-265275
2561.99-276195-281300-270821-260700-260727-255709
2564.88-267999-279791-280603-267380-258597-246812
2567.78-243609-245070-231955-239668-226189-226203
2570.67-249769-254358-267373-258525-256539-254382
2573.56-237736-238829-250333-249636-234549-232620
2576.45-234197-233453-231634-217024-220495-228756
2579.35-219113-235606-263958-275293-259446-257742
2582.24-280630-293784-255656-239791-265852-282048
2585.13-268494-229998-235116-279591-274142-247168
2588.03-239492-246696-259498-268228-265097-265363
2590.92-263096-264279-261438-246188-252481-262093
2593.81-268862-254845-251492-258943-242283-245567
2596.70-273037-283840-279042-284978-278269-252918
2599.60-240297-256166-241504-259946-271448-248940
2602.49-244654-241202-239468-263369-262573-260633
2605.38-249788-252714-262971-250930-251601-244456
2608.27-233433-254384-252159-257059-286423-279488
2611.17-269977-268196-256042-253486-260382-281792
2614.06-290728-283938-271375-257396-252352-277099
2616.95-307032-315629-303281-283103-295264-307448
2619.85-296139-281763-271991-277950-280885-291032
2622.74-288621-287083-286376-281373-285518-291499
2625.63-289574-288531-270846-269561-277502-277918
2628.52-257256-263919-275253-267573-251251-263983
2631.42-268156-254509-256245-263245-267176-264104
2634.31-280135-305335-288097-291882-317876-309389
2637.20-283234-284267-303697-301816-268350-284660
2640.09-307930-321257-310471-302048-296839-301794
2642.99-300766-278187-265232-281451-293218-296325
2645.88-309978-304207-294602-308380-310124-296597
2648.77-311925-314223-303677-318192-327244-330138
2651.67-322255-303810-272372-278496-315131-318016
2654.56-295832-293439-308729-310431-298461-305868
2657.45-298481-288168-307729-324714-312462-311378
2660.34-314822-321304-320664-313929-315915-357309
2663.24-346959-325392-324270-312475-306960-320958
2666.13-307175-285768-289404-297441-319228-311502
2669.02-307630-330190-342241-344996-315135-288829
2671.91-302675-296339-288207-303531-313504-311593
2674.81-304076-311200-303813-279969-282730-272955
2677.70-244622-257266-284883-314601-332977-344255
2680.59-342210-319291-309693-316702-325960-328085
2683.49-308416-278663-289173-308541-300623-309093
2686.38-320852-301315-290492-283780-266186-293619
2689.27-323676-305791-281545-283318-295557-311341
2692.16-331838-331600-311996-301250-318866-328467
2695.06-317592-290335-283588-305240-301297-293983
2697.95-304162-324896-337943-356859-351629-329742
2700.84-302928-286593-283893-288872-274828-262525
2703.73-254979-251541-265022-285330-292779-267893
2706.63-251224-263560-297521-307934-272804-272488
2709.52-330372-331981-325188-320608-298233-296741
2712.41-299298-288236-284143-306990-304217-274377
2715.31-279809-292008-302009-298864-309236-286890
2718.20-278187-296668-307336-290961-266938-251611
2721.09-272260-303474-317601-308878-282606-290240
2723.98-300105-300726-270613-252434-251088-251814
2726.88-257509-267467-253680-255099-275883-275763
2729.77-271223-255335-228476-229466-242896-227852
2732.66-215638-231399-242309-240335-228080-225897
2735.55-195056-206690-254609-249542-234526-216934
2738.45-204892-246864-265829-250093-230189-230085
2741.34-208707-190190-187726-196249-188844-183439
2744.23-188079-188715-181816-182118-192361-198686
2747.12-203279-201368-193077-190333-185605-201229
2750.02-195009-181474-209582-220306-206209-222350
2752.91-220627-196564-217909-236681-248431-235666
2755.80-218845-229438-241557-240782-233575-228859
2758.70-224348-232333-228730-231827-262137-263420
2761.59-232612-250770-269086-270138-265097-246905
2764.48-245891-253851-260220-268404-276967-264044
2767.37-254542-250966-248814-230167-248483-250142
2770.27-233048-213279-229958-228156-218104-225091
2773.16-225116-216102-199547-215698-241267-253141
2776.05-231235-216206-213267-209435-225160-243808
2778.94-236150-219811-205454-196741-224402-255628
2781.84-248599-225060-209776-201866-207148-218715
2784.73-234566-241843-226248-237135-269701-256106
2787.62-206260-186107-210094-220150-242307-279061
2790.52-252167-211142-219658-253490-286721-291116
2793.41-256387-251375-246664-221601-207985-231134
2796.30-226490-227191-227743-217907-266886-308681
2799.19-294976-268753-263501-271818-275128-247072
2802.09-231888-253521-248773-241351-234483-241188
2804.98-241165-238626-246297-231857-249977-291344
2807.87-302571-294068-277194-283303-271970-258675
2810.76-242139-248827-264385-256256-269226-277080
2813.66-270780-286625-279375-287760-310261-297307
2816.55-285985-258873-255467-298340-283211-265751
2819.44-277517-276185-270639-304305-289606-266446
2822.34-254164-270193-293443-313991-281137-258082
2825.23-262871-274655-249934-242279-246739-245000
2828.12-276271-301867-288344-273972-269604-268608
2831.01-273836-298383-294784-266937-254074-284373
2833.91-284265-267822-258985-244005-244533-251663
2836.80-310166-321071-285907-275696-266013-249496
2839.69-245848-268870-284764-268339-263852-254178
2842.58-243623-242682-270100-276762-245907-241280
2845.48-256501-285837-312561-291124-263499-276387
2848.37-274653-270545-257084-263084-254759-253563
2851.26-261602-265837-244657-226283-229281-230898
2854.16-223796-228214-217299-216565-242209-259998
2857.05-232849-187967-193267-203265-222781-234619
2859.94-212173-218269-203287-180022-184153-204875
2862.83-224481-199648-173954-193651-207280-186278
2865.73-174720-156100-164953-175474-172810-169151
2868.62-154133-157540-139186-135575-157612-169484
2871.51-150952-161326-174667-146931-137415-146384
2874.40-121384-109721-127685-149412-154684-152995
2877.30-142265-120262-118231-122310-102849-100330
2880.19-115870-136601-134398-121723-121205-113941
2883.08-89717-96881-107031-100481-94318-91594
2885.98-84652-89157-91894-67345-53651-78793
2888.87-82458-49910-45315-66015-72446-48825
2891.76-28688-45327-83179-82396-34606-20939
2894.65-16217-28182-24205 9510 16327 13786
2897.55 7719 1517-27951-17635 15759 20237
2900.44 17103 12081-12844-29837-6821-15365
2903.33-188 7973 14817-5743 3086 2903
2906.22-23576-31238-25404-42766-52737-42716
2909.12-28896-15076-18823-43928-60288-83477
2912.01-94041-110484-108974-95147-76204-109533
2914.90-151610-152888-165928-181528-172940-184930
2917.80-189562-166152-147897-177720-204670-193922
2920.69-176936-206118-226357-217078-200947-184136
2923.58-194608-207527-225478-209922-194622-178586
2926.47-187294-192981-192782-212837-194612-195835
2929.37-217243-190220-186172-185482-203109-204813
2932.26-179619-173645-191520-218135-211087-180126
2935.15-176459-169856-149549-138279-142965-155566
2938.04-150768-171196-196219-191814-166020-172915
2940.94-170466-141055-165565-199356-202736-162264
2943.83-127513-126338-163674-166335-153769-170845
2946.72-158345-181383-199128-170561-146584-135825
2949.62-144233-200392-226822-212593-172066-169797
2952.51-161984-160898-177695-185668-178232-181511
2955.40-166757-151835-180381-211049-214663-193032
2958.29-218169-222587-205447-215735-237642-224418
2961.19-276107-203357-55626-77515-147228-175250
2964.08-165727-155148-163021-176239-175535-175566
2966.97-183183-191406-197812-216620-186765-182485
2969.86-202400-194422-162667-169095-180547-185363
2972.76-169505-146582-128901-128341-129594-153402
2975.65-176939-175433-174990-193386-204341-213636
2978.54-181384-155361-150484-115835-103771-118563
2981.44-127072-113063-108964-124742-121213-99410
2984.33-119112-139638-137456-129332-135613-144315
2987.22-130427-127535-149262-164312-140966-130586
2990.11-149427-174843-155299-150480-155248-140999
2993.01-145877-162314-160834-149546-142678-160316
2995.90-175941-187607-188133-209073-210320-195525
2998.79-197215-199613-192973-176779-189148-200972
3001.68-230309-255368-252661-224356-201493-212814
3004.58-245542-250904-246909-254488-232502-246120
3007.47-223383-228973-237104-228492-224805-245646
3010.36-269538-252789-241043-262477-291127-289873
3013.26-267755-272901-292677-290283-261198-243865
3016.15-274547-279617-244877-248207-277593-249326
3019.04-234493-256273-276703-290004-287754-271320
3021.93-246084-270827-273121-264445-302345-315431
3024.83-288506-286665-278093-270979-293034-302257
3027.72-275832-271836-263836-242347-242437-260892
3030.61-288953-308084-295567-291404-287580-307729
3033.50-314409-279049-262570-275766-278770-274992
3036.40-294301-295332-289408-292446-281907-302695
3039.29-325478-305971-310606-316691-259978-244014
3042.18-248648-283901-288801-288238-312023-328115
3045.08-306336-282798-278753-292170-319213-301505
3047.97-284919-278873-286853-292999-308084-310754
3050.86-286710-290386-277906-257828-264182-269493
3053.75-270276-291833-318630-324115-326285-313089
3056.65-306854-329284-348917-322302-313344-301423
3059.54-288225-294401-288454-238211-229686-247005
3062.43-257401-270523-267704-283776-282995-292544
3065.32-299483-303826-310678-314174-303443-294273
3068.22-291551-299731-313737-305668-303231-306995
3071.11-298652-269205-247902-253064-263481-254862
3074.00-254428-263622-263589-256789-248521-267618
3076.90-281326-302044-340753-341831-314110-278072
3079.79-266959-241976-237173-258244-282494-296644
3082.68-269291-269071-254622-245867-261037-234923
3085.57-251693-273482-262380-269751-269562-280329
3088.47-314084-308918-281709-269938-274671-289951
3091.36-268374-261568-257523-220727-220088-211360
3094.25-227495-255712-265203-265070-229490-191139
3097.14-196784-226277-221192-222861-256022-277654
3100.04-296539-263676-206610-214481-248461-261929
3102.93-238159-211135-203364-224519-250216-225777
3105.82-213409-246299-263085-243272-211376-227888
3108.72-242237-232784-212852-195742-190978-186587
3111.61-171110-178379-202216-201216-210990-229898
3114.50-239937-222730-238392-270814-254711-243427
3117.39-249107-224728-185949-190426-200871-205323
3120.29-179249-177982-200267-205026-198654-210708
3123.18-207381-202379-218981-239321-257203-264120
3126.07-230324-211635-215612-198112-199659-208572
3128.96-225074-215349-169141-169245-179880-193588
3131.86-171171-157260-173281-179690-188725-198031
3134.75-186507-167092-158577-150221-146665-153953
3137.64-170766-180288-181006-194135-200131-177759
3140.54-179139-162298-135711-143714-157409-178751
3143.43-173735-139084-139322-168221-183590-179172
3146.32-191599-209687-212366-210836-203142-162002
3149.21-172457-174743-172869-191216-202470-193834
3152.11-162042-161253-170237-167045-157489-143202
3155.00-131130-153090-166771-183566-184781-184418
3157.89-190912-185658-181023-189778-167480-163499
3160.78-166390-179759-200236-185396-165505-145100
3163.68-139051-169684-166665-144841-164876-173497
3166.57-182997-165636-144211-157680-152916-159283
3169.46-165558-186170-174510-165547-156382-183533
3172.36-192137-171595-158223-151309-150344-166834
3175.25-174912-187350-180033-178780-200302-212706
3178.14-191112-192231-197336-179559-130632-160558
3181.03-209662-185320-160011-183604-193963-162861
3183.93-129979-129695-146060-151897-154774-151989
3186.82-164565-191996-202956-196506-184547-188003
3189.71-208730-195770-170198-207439-202794-160995
3192.60-185307-232533-193833-182626-161272-176149
3195.50-226903-237509-200101-147570-141431-156068
3198.39-168579-154906-159549-156813-166600-161473
3201.28-153764-152446-175988-198855-202415-211279
3204.18-238365-259969-242162-221376-214375-204733
3207.07-201042-202461-196304-189064-194328-181817
3209.96-192768-175713-183296-178232-164869-141399
3212.85-115068-145913-186253-167438-144224-159780
3215.75-200734-200477-175674-214519-285903-283649
3218.64-259431-206556-191243-192605-198235-213010
3221.53-193331-166776-152927-154497-168969-163278
3224.42-136833-148484-172133-189035-185297-161796
3227.32-198461-206109-187188-188471-183744-190497
3230.21-190945-180339-169908-159264-156080-151700
3233.10-141936-160354-158931-178412-195012-176248
3236.00-183082-197391-188843-159726-173554-192838
3238.89-209669-224283-211381-186149-142874-107677
3241.78-140293-168718-159409-154808-186089-234851
3244.67-206744-157252-168310-172363-170744-180995
3247.57-192772-154124-144210-159255-130431-114450
3250.46-97676-111761-151555-171148-167394-182205
3253.35-190227-178697-152889-113494-110710-122708
3256.24-113066-127524-130685-122596-124396-124851
3259.14-149348-152177-143013-147958-131477-126457
3262.03-151602-140519-135612-128727-115717-117939
3264.92-128677-133395-158013-154165-139949-137400
3267.82-122486-139572-183797-196976-176482-179524
3270.71-147898-132003-151093-148609-126253-116279
3273.60-130277-148698-149603-152624-157233-142516
3276.49-125131-142953-154450-122910-112541-118539
3279.39-124853-130964-121535-120790-153783-144380
3282.28-144004-164499-150601-116284-115457-109472
3285.17-100217-120623-135309-126267-119256-123496
3288.06-87568-103368-110444-96594-129739-177625
3290.96-187921-194411-192768-187487-155050-157866
3293.85-172591-150668-113450-107259-114617-105675
3296.74-112744-122193-138026-154078-171738-162068
3299.64-162229-191265-194076-171231-169747-153901
3302.53-154411-150148-151754-191792-198164-178489
3305.42-152940-131428-145617-148416-140917-139799
3308.31-141874-161180-182530-201732-190109-162531
3311.21-135972-171576-178331-161854-143731-112808
3314.10-100035-182070-222888-193493-175061-146224
3316.99-158159-180374-168027-174045-189122-194030
3319.88-189167-201466-187385-190977-208427-196834
3322.78-192757-168899-139072-147351-165106-181393
3325.67-182899-176850-168617-186214-186861-156871
3328.56-135760-144043-147840-171564-197773-179176
3331.46-175805-160495-146386-174474-196495-200879
3334.35-226197-228323-203296-191438-187718-210795
3337.24-208357-213662-204910-156733-163490-236106
3340.13-231665-206005-196010-184247-193274-178574
3343.03-132543-104244-153659-185928-173478-177172
3345.92-182427-191049-218291-218959-216222-251911
3348.81-246521-193309-181811-199714-203783-187232
3351.70-204155-211289-213931-231810-255974-258144
3354.60-255209-257009-213652-196247-199923-207781
3357.49-196139-172389-181918-221803-247793-240232
3360.38-244638-231741-205901-248498-265488-238347
3363.28-240226-258927-241822-220489-227482-230988
3366.17-205023-227062-237835-236598-270294-239187
3369.06-207447-199235-215121-226083-250405-274852
3371.95-268210-250925-229002-220477-209387-244704
3374.85-273140-271948-269512-214453-184459-199809
3377.74-220894-208205-212416-202866-215453-255781
3380.63-281024-266944-233340-200167-220031-232863
3383.52-219881-221123-218958-229469-206766-174187
3386.42-181491-217533-239655-209298-174573-204811
3389.31-229273-207387-185071-224631-224264-187932
3392.20-220542-254572-265773-238889-234511-248242
3395.10-221265-183641-178110-183823-223292-262615
3397.99-246367-201447-212020-242710-260328-257277
3400.88-268416-265263-247960-246669-283727-275065
3403.77-216583-229359-263439-260383-255841-247890
3406.67-231509-222331-227425-211087-187979-229405
3409.56-249382-208735-194113-200356-203570-219744
3412.45-221403-212098-195243-201252-235871-270357
3415.34-262510-219840-187674-194836-218162-265834
3418.24-276163-265125-228562-190979-206104-232283
3421.13-248148-256272-248062-262263-250076-218225
3424.02-249705-293538-264729-236526-233349-217337
3426.92-202578-221179-228843-224288-195707-208443
3429.81-220895-200989-202987-219343-216320-212839
3432.70-211007-185059-221499-247600-251605-259234
3435.59-268761-244062-239601-172789-152024-204932
3438.49-221075-246496-240265-206538-225243-246631
3441.38-219608-224548-201353-182994-227829-236600
3444.27-209486-200900-248568-210135-162055-208266
3447.16-240576-216134-169174-216029-274158-246447
3450.06-233438-248326-233874-253214-245770-225522
3452.95-213138-219564-236112-201333-185503-150630
3455.84-114519-194066-261029-231262-230662-232619
3458.74-208989-172709-186696-209271-230826-258293
3461.63-250351-235039-214012-202379-209503-213523
3464.52-223994-250577-230397-194624-195307-201560
3467.41-196861-196077-218648-200800-197991-206348
3470.31-209842-233722-220928-228026-204472-161415
3473.20-217340-289169-259492-234143-215971-201192
3476.09-206232-228882-269866-240699-217309-205339
3478.98-197014-207593-208338-224249-230405-211952
3481.88-219964-199331-203813-206165-204973-254905
3484.77-279970-266882-236045-226676-244284-244727
3487.66-249193-242604-198938-209854-243534-224182
3490.56-196910-214578-216168-189960-205595-219901
3493.45-234288-191827-199638-229518-237274-245968
3496.34-255146-257728-251535-215198-212290-222002
3499.23-226199-211099-204369-215064-204247-182818
3502.13-180496-185491-210202-267200-275234-272493
3505.02-280343-301924-312785-296351-279281-257712
3507.91-265001-311608-292739-285447-316956-332411
3510.80-284404-272269-308471-289677-268262-239687
3513.70-267985-274364-294033-321230-302858-314526
3516.59-329426-306183-283501-282797-317731-325836
3519.48-316623-297736-285866-248832-259337-270132
3522.38-270492-279723-280937-231949-249403-299356
3525.27-308298-306054-302050-278119-285494-298650
3528.16-293365-270070-301992-321876-310196-337033
3531.05-363316-338800-283179-255819-260017-273742
3533.95-267295-250460-217838-231445-310161-333116
3536.84-298474-302334-312524-327373-343221-344546
3539.73-369883-368231-363760-366431-316364-292438
3542.62-293187-245698-239978-248992-221126-189750
3545.52-225181-246247-240983-259971-258018-225106
3548.41-250138-286809-298687-297252-312233-312424
3551.30-311722-323525-315790-294938-269645-240835
3554.20-231610-243265-237577-230111-205804-225881
3557.09-249982-239498-246875-250156-249084-275922
3559.98-282366-267002-265925-251565-234647-215818
3562.87-210081-231831-244214-249493-213006-164615
3565.77-204791-235507-208464-165400-170410-233446
3568.66-253192-231311-219737-211279-223493-215910
3571.55-206543-220238-230143-212411-202088-237633
3574.44-259895-233265-210371-250087-258234-227550
3577.34-229268-209289-181166-191648-220519-225517
3580.23-214551-223580-225893-190106-219664-260753
3583.12-236727-224532-194655-176302-220899-205650
3586.02-125746-164778-208201-213410-167540-158058
3588.91-215606-192401-159408-206750-241683-246609
3591.80-242262-244240-268068-262518-214897-200098
3594.69-204516-184192-192986-251354-269380-219809
3597.59-181087-214875-272944-238907-213401-228425
3600.48-216836-232133-268827-272538-236071-245740
3603.37-284734-260843-246719-267707-268390-288032
3606.26-272203-229930-250417-248840-192101-119704
3609.16-152200-228367-279548-272695-259635-235568
3612.05-201703-234550-247169-248060-247044-287949
3614.94-301343-281345-292348-304021-269292-247944
3617.84-263124-247613-189090-162007-245097-267931
3620.73-256632-262824-249242-271249-281280-290962
3623.62-317956-274455-234909-233575-236381-214437
3626.51-204508-225538-211122-187712-228768-156907
3629.41-160656-231960-232842-263223-295275-308653
3632.30-317299-338063-317072-351410-390706-366648
3635.19-349566-340761-323168-272214-252005-242572
3638.08-216334-196394-233874-250769-247550-237472
3640.98-231797-256407-273056-274411-283719-311862
3643.87-337549-330725-285756-274278-253074-254975
3646.76-239287-246757-284055-231209-110251-168024
3649.66-234648-237346-240503-252313-295139-324678
3652.55-306723-311929-345800-366832-348289-321875
3655.44-271914-218012-264079-300508-326321-370798
3658.33-367743-343345-356540-359275-321419-292584
3661.23-309235-333583-331466-312980-308470-321673
3664.12-347253-359408-345862-320761-317387-311918
3667.01-336931-366499-293642-249870-282177-247919
3669.90-140577-127925-273917-323002-337367-313076
3672.80-284626-272022-260480-196776-187863-169018
3675.69-179476-276497-326077-353064-341508-323811
3678.58-292430-287093-331081-336273-339234-325773
3681.48-285001-263809-253566-268066-301759-306882
3684.37-313364-289453-297362-332527-338408-313089
3687.26-264325-125974-135731-320924-397348-356950
3690.15-299789-261181-255747-286250-274475-298526
3693.05-327186-355063-373988-347858-357132-334876
3695.94-300569-323378-354828-313232-326664-371596
3698.83-348426-315072-315895-350439-336031-261600
3701.72-271215-314601-329033-294130-305770-316132
3704.62-271477-254061-250147-241384-265742-289743
3707.51-283148-239901-211826-208821-273811-319764
3710.40-301022-261836-182692-162149-265452-297579
3713.30-329747-332122-294353-305822-331221-340592
3716.19-326235-294089-300000-317315-315442-293419
3719.08-311505-302717-288336-274578-278858-278085
3721.97-259370-268305-292643-280565-251604-264090
3724.87-270391-255401-271915-268088-280530-299413
3727.76-284954-293717-324742-320133-315018-308461
3730.65-287146-234031-152082-216258-299696-290975
3733.54-280398-223700-196818-234048-296646-251167
3736.44-176947-229637-268852-294276-281504-273578
3739.33-289673-291411-281634-274357-311023-325439
3742.22-316545-277235-225019-100654 40649-108780
3745.12-285457-333956-331276-320795-285142-286002
3748.01-305035-173279-68367-199871-288381-295759
3750.90-252230-119229-62253-245002-339558-341950
3753.79-313527-304934-309272-296101-253536-236433
3756.69-269206-302736-314198-300670-314581-323615
3759.58-309903-318004-325936-333521-331287-353235
3762.47-358470-323863-321593-327532-324286-273734
3765.36-251985-290984-285548-285005-308735-331927
3768.26-331622-306499-220658-237377-311926-341587
3771.15-339607-339126-331715-323489-312304-303308
3774.04-286893-305250-320605-311685-307658-302457
3776.94-289660-305390-324358-327378-291760-306390
3779.83-367242-346084-324695-337354-349582-340673
3782.72-329917-338525-318460-268733-303641-326946
3785.61-316330-325975-339070-352869-368195-341684
3788.51-284573-294913-310092-263431-269845-316635
3791.40-334304-323489-335199-319884-329231-314545
3794.29-281202-314348-321199-262015-255843-313804
3797.18-355004-339034-337840-326286-334885-336852
3800.08-296113-167467-62721-182974-276567-289827
3802.97-299361-304816-276243-290077-326258-310811
3805.86-247783-153805-187956-270735-284448-294517
3808.76-296438-296815-324162-354245-335989-344969
3811.65-326932-330576-343196-345268-342508-288272
3814.54-281531-249614-73682-124598-290514-349492
3817.43-340262-319329-311757-296231-278342-246367
3820.33-213395-200673-190763-255600-287392-280168
3823.22-290724-305025-334359-363999-342054-308691
3826.11-290509-291468-324663-338890-329981-319894
3829.00-322719-312786-275014-284767-270027-252559
3831.90-281323-299180-321605-326458-307125-230978
3834.79-263921-324121-331738-316066-262269-121946
3837.68-138382-291828-358736-341395-293026-274658
3840.58-251214-266788-311503-348014-308552-263184
3843.47-270545-292676-309909-345020-326940-316594
3846.36-330267-321679-302111-319671-322094-329229
3849.25-321103-317429-301673-299871-203211-122223
3852.15-229004-265322-144191 52613-17006-217838
3855.04-298603-322294-329271-333435-350514-343793
3857.93-301737-310719-349725-378426-416137-381580
3860.82-305867-285172-320936-350392-378914-391945
3863.72-395634-320859-269894-316291-314268-318726
3866.61-334343-328295-313597-335709-309933-291199
3869.50-221402-259132-320124-321032-336501-352263
3872.40-382785-393186-349149-323231-375107-392848
3875.29-394890-395532-374650-376356-341962-345401
3878.18-353013-351901-319624-308154-320998-338737
3881.07-373779-380360-371400-372329-372747-403962
3883.97-424393-401095-275561-208843-298965-350541
3886.86-349797-364415-379940-372096-350312-382447
3889.75-381535-328909-272838-288702-344366-358845
3892.64-354886-352984-332701-364346-392836-380116
3895.54-395653-425634-412520-378737-351818-349758
3898.43-352737-332637-337305-327672-340068-327861
3901.32-294029-339550-361534-336537-267730-223524
3904.22-300513-335677-336231-354244-362752-374713
3907.11-394273-418423-413778-401826-390140-401729
3910.00-382556-404144-405669-373618-378565-378595
3912.89-365890-353478-371022-382796-399129-410064
3915.79-372197-364997-325026-351255-410249-442120
3918.68-394206-347602-333089-349407-386663-399346
3921.57-393053-349912-321847-346102-364944-359209
3924.46-351479-341439-324382-309858-319253-356145
3927.36-377703-375829-355180-334773-359020-370624
3930.25-396730-385429-373609-371085-345926-335350
3933.14-354017-371310-363493-332506-330593-318563
3936.04-322182-339247-304251-334178-383273-372177
3938.93-326482-333780-319450-307542-333968-342867
3941.82-316224-308378-326318-338696-344390-390594
3944.71-404113-379454-338764-328878-329049-342805
3947.61-339666-346219-355355-305873-271816-264390
3950.50-285637-332972-325868-313353-326520-350538
3953.39-357176-376970-382181-347713-333100-333344
3956.28-337605-357453-355392-335257-280194-263072
3959.18-300635-306005-309490-330171-327271-343387
3962.07-386986-395887-374988-365033-330601-292524
3964.96-306435-325220-347607-347365-334774-336773
3967.86-355994-371723-357178-337748-313802-295646
3970.75-315789-311306-289800-318058-344395-331975
3973.64-310553-301499
##END=
