##TITLE=ETHENE, TETRACHLORO-
##JCAMP-DX=4.24
##DATA TYPE=INFRARED SPECTRUM
##CLASS=COBLENTZ III
##ORIGIN=DOW CORNING CORP.
##OWNER=COBLENTZ SOCIETY
Collection (C) 2018 copyright by the U.S. Secretary of Commerce
on behalf of the United States of America. All rights reserved.
##DATE=1966/01/06
##NAMES=1,1,2,2-tetrachloroethylene
PERCHLOROETHYLENE
##CAS REGISTRY NO=127-18-4
##MOLFORM=C2 Cl4
##SOURCE REFERENCE=COBLENTZ NO. 4786
##$NIST SOURCE=COBLENTZ
##$NIST IMAGE=cob4786
##SPECTROMETER/DATA SYSTEM=PERKIN-ELMER 521 (GRATING)
##INSTRUMENT PARAMETERS=FILTERS AT 3150, 2500, 2000, 1150, 700, 410; GRATING CHANGES AT 2000, 630 CM^-^1
##STATE=SOLUTION (10% IN CCl4 FOR 3800-1300, AND 10% IN CS2 FOR 1300-650 CM^-^1) VERSUS SOLVENT
##PATH LENGTH=0.012 AND 0.011 CM (CsBr CELL)
##SAMPLING PROCEDURE=TRANSMISSION
##RESOLUTION=4
##DATA PROCESSING=DIGITIZED BY NIST FROM HARD COPY (FROM TWO SEGMENTS)
##XUNITS=1/CM
##YUNITS=TRANSMITTANCE
##XFACTOR=1.000000
##YFACTOR=1
##DELTAX=0.983609
##FIRSTX=637.705
##LASTX=3792.14
##FIRSTY=0.86
##MAXX=3792.14
##MINX=637.705
##MAXY=0.91
##MINY=0
##NPOINTS=3208
##XYDATA=(X++(Y..Y))
637.705000 0.8600 0.8590 0.8590 0.8600 0.8590
642.623045 0.8590 0.8590 0.8590 0.8590 0.8590
647.541091 0.8590 0.8590 0.8590 0.8570 0.8550
652.459136 0.8530 0.8510 0.8490 0.8490 0.8490
657.377182 0.8490 0.8490 0.8490 0.8480 0.8450
662.295227 0.8440 0.8410 0.8410 0.8420 0.8450
667.213273 0.8510 0.8570 0.8600 0.8670 0.8670
672.131318 0.8680 0.8690 0.8690 0.8690 0.8680
677.049363 0.8670 0.8650 0.8640 0.8630 0.8630
681.967409 0.8630 0.8640 0.8640 0.8650 0.8650
686.885454 0.8650 0.8650 0.8670 0.8670 0.8680
691.803500 0.8710 0.8710 0.8710 0.8680 0.8650
696.721545 0.8600 0.8590 0.8590 0.8630 0.8690
701.639591 0.8710 0.8720 0.8730 0.8730 0.8750
706.557636 0.8750 0.8750 0.8750 0.8720 0.8720
711.475682 0.8730 0.8730 0.8730 0.8750 0.8750
716.393727 0.8760 0.8760 0.8760 0.8760 0.8750
721.311772 0.8750 0.8750 0.8730 0.8730 0.8720
726.229818 0.8710 0.8690 0.8690 0.8690 0.8690
731.147863 0.8710 0.8730 0.8730 0.8710 0.8680
736.065909 0.8640 0.8520 0.8480 0.8460 0.8450
740.983954 0.8410 0.8300 0.8121 0.7971 0.7791
745.902000 0.7610 0.7430 0.6931 0.6681 0.6421
750.820045 0.6400 0.6141 0.5851 0.5621 0.5590
755.738090 0.5620 0.5830 0.6040 0.6479 0.6789
760.656136 0.6920 0.7039 0.7070 0.7080 0.6911
765.574181 0.6690 0.6530 0.5971 0.5441 0.4971
770.492227 0.4462 0.3265 0.2325 0.1664 0.0557
775.410272 0.0510 0.0510 0.0610 0.0850 0.1079
780.328318 0.1618 0.3682 0.4586 0.5465 0.6007
785.246363 0.6330 0.6490 0.6510 0.6490 0.6450
790.164409 0.6330 0.6250 0.6091 0.5752 0.5482
795.082454 0.4790 0.4520 0.3911 0.3620 0.3321
800.000499 0.3320 0.3788 0.4039 0.4279 0.4757
804.918545 0.5220 0.5540 0.5980 0.6809 0.6870
809.836590 0.7000 0.7120 0.7269 0.7389 0.7509
814.754636 0.7620 0.7750 0.7940 0.8080 0.8250
819.672681 0.8330 0.8370 0.8440 0.8520 0.8530
824.590727 0.8590 0.8600 0.8600 0.8610 0.8610
829.508772 0.8610 0.8630 0.8630 0.8610 0.8610
834.426817 0.8600 0.8570 0.8550 0.8520 0.8510
839.344863 0.8490 0.8490 0.8420 0.8400 0.8380
844.262908 0.8380 0.8280 0.8260 0.8250 0.8250
849.180954 0.8250 0.8220 0.8200 0.8170 0.8170
854.098999 0.8160 0.8140 0.8140 0.8140 0.8170
859.017045 0.8170 0.8120 0.8080 0.8080 0.8050
863.935090 0.8040 0.8040 0.8040 0.8040 0.8020
868.853136 0.8020 0.7980 0.7940 0.7870 0.7860
873.771181 0.7850 0.7780 0.7700 0.7650 0.7610
878.689226 0.7570 0.7480 0.7361 0.7241 0.6922
883.607272 0.6760 0.6550 0.6300 0.6090 0.5751
888.525317 0.5591 0.5401 0.5002 0.4771 0.4482
893.443363 0.4410 0.4250 0.3671 0.3281 0.3120
898.361408 0.2961 0.2681 0.0192 0.0021 0.0000
903.279454 0.0000 0.0000 0.0000 0.0000 0.0000
908.197499 0.0000 0.0000 0.0100 0.0140 0.0289
913.115544 0.0690 0.0890 0.1100 0.1979 0.3257
918.033590 0.3888 0.4518 0.5625 0.6167 0.6667
922.951635 0.6840 0.6970 0.7110 0.7260 0.7430
927.869681 0.7590 0.7660 0.7730 0.7889 0.7940
932.787726 0.7980 0.8050 0.8140 0.8170 0.8210
937.705772 0.8250 0.8320 0.8330 0.8370 0.8380
942.623817 0.8420 0.8440 0.8460 0.8480 0.8490
947.541863 0.8520 0.8530 0.8530 0.8550 0.8560
952.459908 0.8560 0.8560 0.8570 0.8590 0.8590
957.377953 0.8590 0.8590 0.8570 0.8570 0.8570
962.295999 0.8570 0.8570 0.8570 0.8560 0.8550
967.214044 0.8550 0.8550 0.8550 0.8550 0.8530
972.132090 0.8510 0.8460 0.8420 0.8400 0.8400
977.050135 0.8380 0.8380 0.8380 0.8370 0.8360
981.968181 0.8330 0.8330 0.8320 0.8280 0.8250
986.886226 0.8250 0.8240 0.8240 0.8220 0.8220
991.804271 0.8220 0.8220 0.8240 0.8250 0.8260
996.722317 0.8280 0.8290 0.8300 0.8320 0.8330
1001.640362 0.8360 0.8380 0.8380 0.8400 0.8410
1006.558408 0.8440 0.8450 0.8450 0.8510 0.8510
1011.476453 0.8520 0.8530 0.8530 0.8530 0.8550
1016.394499 0.8550 0.8550 0.8550 0.8550 0.8550
1021.312544 0.8550 0.8550 0.8550 0.8550 0.8550
1026.230590 0.8550 0.8550 0.8550 0.8550 0.8550
1031.148635 0.8550 0.8550 0.8550 0.8550 0.8530
1036.066680 0.8530 0.8530 0.8530 0.8530 0.8530
1040.984726 0.8530 0.8530 0.8530 0.8530 0.8530
1045.902771 0.8530 0.8530 0.8530 0.8520 0.8520
1050.820817 0.8530 0.8530 0.8530 0.8530 0.8530
1055.738862 0.8530 0.8530 0.8520 0.8510 0.8510
1060.656908 0.8490 0.8490 0.8490 0.8490 0.8490
1065.574953 0.8480 0.8480 0.8480 0.8480 0.8480
1070.492998 0.8460 0.8450 0.8440 0.8440 0.8420
1075.411044 0.8420 0.8420 0.8410 0.8410 0.8410
1080.329089 0.8400 0.8400 0.8380 0.8380 0.8370
1085.247135 0.8360 0.8360 0.8360 0.8340 0.8330
1090.165180 0.8330 0.8320 0.8290 0.8260 0.8250
1095.083226 0.8240 0.8220 0.8220 0.8220 0.8240
1100.001271 0.8240 0.8250 0.8250 0.8260 0.8250
1104.919317 0.8260 0.8280 0.8280 0.8280 0.8280
1109.837362 0.8280 0.8260 0.8250 0.8240 0.8200
1114.755407 0.8180 0.8180 0.8180 0.8180 0.8180
1119.673453 0.8200 0.8210 0.8280 0.8290 0.8320
1124.591498 0.8340 0.8490 0.8510 0.8520 0.8530
1129.509544 0.8550 0.8560 0.8600 0.8600 0.8590
1134.427589 0.8590 0.8570 0.8570 0.8550 0.8530
1139.345635 0.8530 0.8520 0.8520 0.8530 0.8590
1144.263680 0.8630 0.8650 0.8690 0.8710 0.8720
1149.181725 0.8760 0.8800 0.8810 0.8810 0.8810
1154.099771 0.8810 0.8810 0.8800 0.8800 0.8800
1159.017816 0.8790 0.8790 0.8770 0.8760 0.8730
1163.935862 0.8730 0.8730 0.8760 0.8770 0.8790
1168.853907 0.8790 0.8800 0.8840 0.8870 0.8880
1173.771953 0.8890 0.8890 0.8890 0.8850 0.8870
1178.689998 0.8870 0.8880 0.8890 0.8910 0.8920
1183.608044 0.8920 0.8910 0.8890 0.8890 0.8910
1188.526089 0.8910 0.8920 0.8920 0.8920 0.8910
1193.444134 0.8920 0.8920 0.8930 0.8920 0.8920
1198.362180 0.8920 0.8910 0.8890 0.8880 0.8890
1203.280225 0.8890 0.8910 0.8910 0.8910 0.8910
1208.198271 0.8910 0.8910 0.8910 0.8910 0.8920
1213.116316 0.8930 0.8920 0.8920 0.8920 0.8910
1218.034362 0.8910 0.8890 0.8890 0.8890 0.8880
1222.952407 0.8880 0.8910 0.8930 0.8930 0.8930
1227.870452 0.8930 0.8920 0.8920 0.8920 0.8910
1232.788498 0.8910 0.8910 0.8910 0.8910 0.8910
1237.706543 0.8910 0.8890 0.8890 0.8880 0.8850
1242.624589 0.8830 0.8830 0.8810 0.8810 0.8810
1247.542634 0.8810 0.8800 0.8800 0.8790 0.8790
1252.460680 0.8790 0.8790 0.8800 0.8840 0.8890
1257.378725 0.8890 0.8910 0.8930 0.8930 0.8930
1262.296771 0.8950 0.8950 0.8960 0.8960 0.8970
1267.214816 0.8970 0.8970 0.8970 0.8970 0.8970
1272.132861 0.8970 0.8970 0.8990 0.8990 0.8990
1277.050907 0.8990 0.8990 0.9000 0.9000 0.9000
1281.968952 0.9000 0.9000 0.9020 0.9020 0.9020
1286.886998 0.9020 0.9020 0.9030 0.9030 0.9030
1291.805043 0.9030 0.9030 0.9030 0.9040 0.9040
1296.723089 0.9040 0.9040 0.9040 0.9040 0.9040
1301.641134 0.9040 0.9040 0.9040 0.9060 0.9060
1306.559179 0.9060 0.9060 0.9060 0.9060 0.9060
1311.477225 0.9060 0.9060 0.9060 0.9060 0.9060
1316.395270 0.9060 0.9060 0.9060 0.9060 0.9060
1321.313316 0.9060 0.9060 0.9040 0.9040 0.9040
1326.231361 0.9040 0.9040 0.9040 0.9040 0.9040
1331.149407 0.9040 0.9030 0.9030 0.9030 0.9020
1336.067452 0.9020 0.9020 0.9000 0.8970 0.8970
1340.985498 0.8930 0.8920 0.8920 0.8920 0.8910
1345.903543 0.8910 0.8850 0.8810 0.8790 0.8790
1350.821588 0.8770 0.8770 0.8770 0.8790 0.8790
1355.739634 0.8800 0.8800 0.8810 0.8840 0.8850
1360.657679 0.8880 0.8920 0.8930 0.8970 0.8990
1365.575725 0.9000 0.9000 0.9000 0.9000 0.9000
1370.493770 0.9040 0.9070 0.9070 0.9060 0.9060
1375.411816 0.9060 0.9060 0.9060 0.9060 0.9060
1380.329861 0.9060 0.9040 0.9030 0.9030 0.9040
1385.247906 0.9060 0.9040 0.9040 0.9040 0.9020
1390.165952 0.9020 0.9040 0.9060 0.9060 0.9040
1395.083997 0.9030 0.9030 0.9020 0.9020 0.9030
1400.002043 0.9040 0.9040 0.9040 0.9060 0.9060
1404.920088 0.9070 0.9070 0.9080 0.9080 0.9100
1409.838134 0.9100 0.9100 0.9100 0.9100 0.9080
1414.756179 0.9080 0.9080 0.9080 0.9080 0.9080
1419.674225 0.9080 0.9080 0.9080 0.9080 0.9080
1424.592270 0.9070 0.9070 0.9070 0.9060 0.9060
1429.510315 0.9060 0.9040 0.9040 0.9040 0.9040
1434.428361 0.9060 0.9060 0.9060 0.9060 0.9060
1439.346406 0.9060 0.9060 0.9060 0.9040 0.9040
1444.264452 0.9040 0.9040 0.9030 0.9030 0.9030
1449.182497 0.9020 0.9020 0.9020 0.9030 0.9040
1454.100543 0.9040 0.9040 0.9040 0.9040 0.9040
1459.018588 0.9040 0.9030 0.9000 0.8970 0.8970
1463.936633 0.8990 0.8990 0.9000 0.9000 0.9000
1468.854679 0.9000 0.8990 0.8970 0.8970 0.8970
1473.772724 0.8970 0.8970 0.8960 0.8950 0.8930
1478.690770 0.8930 0.8930 0.8950 0.8950 0.8950
1483.608815 0.8950 0.8930 0.8930 0.8930 0.8930
1488.526861 0.8920 0.8920 0.8910 0.8910 0.8890
1493.444906 0.8850 0.8840 0.8830 0.8830 0.8810
1498.362952 0.8810 0.8810 0.8830 0.8840 0.8880
1503.280997 0.8890 0.8890 0.8870 0.8840 0.8790
1508.199042 0.8770 0.8750 0.8750 0.8730 0.8730
1513.117088 0.8730 0.8730 0.8730 0.8720 0.8720
1518.035133 0.8720 0.8710 0.8710 0.8710 0.8670
1522.953179 0.8670 0.8670 0.8670 0.8650 0.8650
1527.871224 0.8640 0.8640 0.8630 0.8630 0.8600
1532.789270 0.8590 0.8590 0.8570 0.8520 0.8510
1537.707315 0.8490 0.8490 0.8480 0.8460 0.8460
1542.625360 0.8440 0.8440 0.8420 0.8410 0.8410
1547.543406 0.8410 0.8410 0.8410 0.8420 0.8440
1552.461451 0.8450 0.8450 0.8460 0.8480 0.8480
1557.379497 0.8490 0.8510 0.8570 0.8590 0.8600
1562.297542 0.8610 0.8650 0.8650 0.8670 0.8670
1567.215588 0.8680 0.8690 0.8690 0.8690 0.8690
1572.133633 0.8690 0.8680 0.8690 0.8690 0.8710
1577.051679 0.8720 0.8720 0.8720 0.8720 0.8720
1581.969724 0.8720 0.8730 0.8750 0.8750 0.8760
1586.887769 0.8770 0.8790 0.8790 0.8790 0.8790
1591.805815 0.8800 0.8810 0.8830 0.8850 0.8870
1596.723860 0.8880 0.8880 0.8890 0.8890 0.8910
1601.641906 0.8920 0.8920 0.8920 0.8920 0.8920
1606.559951 0.8920 0.8910 0.8910 0.8910 0.8910
1611.477997 0.8910 0.8920 0.8930 0.8930 0.8950
1616.396042 0.8950 0.8960 0.8970 0.8970 0.8970
1621.314087 0.8970 0.8970 0.8960 0.8960 0.8960
1626.232133 0.8960 0.8970 0.8960 0.8960 0.8960
1631.150178 0.8950 0.8950 0.8950 0.8930 0.8930
1636.068224 0.8930 0.8920 0.8920 0.8920 0.8920
1640.986269 0.8920 0.8930 0.8930 0.8960 0.8970
1645.904315 0.8970 0.8990 0.8970 0.8970 0.8970
1650.822360 0.8970 0.8970 0.8960 0.8960 0.8950
1655.740406 0.8950 0.8950 0.8930 0.8930 0.8930
1660.658451 0.8930 0.8930 0.8920 0.8920 0.8920
1665.576496 0.8920 0.8930 0.8930 0.8930 0.8930
1670.494542 0.8950 0.8950 0.8950 0.8950 0.8950
1675.412587 0.8950 0.8950 0.8950 0.8970 0.8970
1680.330633 0.8970 0.8970 0.8970 0.8970 0.8970
1685.248678 0.8970 0.8960 0.8960 0.8970 0.8970
1690.166724 0.8990 0.8990 0.8990 0.8960 0.8960
1695.084769 0.8930 0.8960 0.8960 0.8970 0.8970
1700.002814 0.8970 0.8970 0.8990 0.8960 0.8960
1704.920860 0.8960 0.8970 0.8970 0.8970 0.8960
1709.838905 0.8950 0.8930 0.8920 0.8920 0.8920
1714.756951 0.8920 0.8920 0.8930 0.8930 0.8930
1719.674996 0.8930 0.8920 0.8920 0.8920 0.8920
1724.593042 0.8920 0.8920 0.8930 0.8920 0.8930
1729.511087 0.8930 0.8930 0.8950 0.8950 0.8950
1734.429133 0.8950 0.8930 0.8920 0.8920 0.8920
1739.347178 0.8910 0.8890 0.8890 0.8910 0.8920
1744.265223 0.8920 0.8920 0.8920 0.8910 0.8910
1749.183269 0.8910 0.8910 0.8910 0.8910 0.8920
1754.101314 0.8910 0.8910 0.8920 0.8920 0.8920
1759.019360 0.8920 0.8910 0.8910 0.8910 0.8910
1763.937405 0.8910 0.8910 0.8910 0.8890 0.8890
1768.855451 0.8890 0.8890 0.8910 0.8910 0.8910
1773.773496 0.8920 0.8920 0.8920 0.8930 0.8930
1778.691541 0.8950 0.8950 0.8930 0.8950 0.8960
1783.609587 0.8960 0.8970 0.8970 0.8990 0.8970
1788.527632 0.8970 0.8960 0.8950 0.8950 0.8930
1793.445678 0.8930 0.8930 0.8930 0.8930 0.8930
1798.363723 0.8960 0.8960 0.8960 0.8920 0.8920
1803.281769 0.8920 0.8920 0.8920 0.8920 0.8920
1808.199814 0.8920 0.8920 0.8920 0.8950 0.8950
1813.117860 0.8950 0.8950 0.8920 0.8920 0.8950
1818.035905 0.8950 0.8950 0.8950 0.8970 0.8920
1822.953950 0.8920 0.8930 0.8930 0.8930 0.8950
1827.871996 0.8960 0.8960 0.8960 0.8960 0.8970
1832.790041 0.8950 0.8930 0.8930 0.8930 0.8960
1837.708087 0.8960 0.8970 0.8960 0.8960 0.8950
1842.626132 0.8930 0.8920 0.8920 0.8930 0.8930
1847.544178 0.8950 0.8950 0.8950 0.8950 0.8950
1852.462223 0.8950 0.8930 0.8930 0.8930 0.8920
1857.380268 0.8920 0.8920 0.8920 0.8920 0.8920
1862.298314 0.8930 0.8920 0.8920 0.8920 0.8930
1867.216359 0.8930 0.8920 0.8920 0.8920 0.8930
1872.134405 0.8930 0.8910 0.8890 0.8890 0.8890
1877.052450 0.8890 0.8890 0.8880 0.8880 0.8880
1881.970496 0.8870 0.8840 0.8850 0.8850 0.8870
1886.888541 0.8880 0.8880 0.8890 0.8890 0.8890
1891.806587 0.8880 0.8880 0.8890 0.8910 0.8910
1896.724632 0.8920 0.8920 0.8930 0.8930 0.8930
1901.642677 0.8930 0.8930 0.8920 0.8930 0.8950
1906.560723 0.8960 0.8960 0.8960 0.8970 0.8970
1911.478768 0.8970 0.8970 0.8970 0.8970 0.8960
1916.396814 0.8960 0.8950 0.8950 0.8930 0.8930
1921.314859 0.8930 0.8920 0.8930 0.8930 0.8930
1926.232905 0.8960 0.8960 0.8960 0.8970 0.8970
1931.150950 0.8970 0.8970 0.8950 0.8920 0.8920
1936.068995 0.8920 0.8950 0.8950 0.8960 0.8960
1940.987041 0.8960 0.8920 0.8920 0.8930 0.8960
1945.905086 0.8960 0.8970 0.8990 0.9000 0.9000
1950.823132 0.8990 0.8970 0.8960 0.8950 0.8930
1955.741177 0.8930 0.8930 0.8920 0.8920 0.8930
1960.659223 0.8950 0.8960 0.8970 0.8970 0.8970
1965.577268 0.8960 0.8960 0.8950 0.8930 0.8930
1970.495314 0.8930 0.8930 0.8920 0.8950 0.8930
1975.413359 0.8930 0.8930 0.8930 0.8930 0.8930
1980.331404 0.8950 0.8950 0.8970 0.9000 0.9020
1985.249450 0.8970 0.8930 0.8930 0.8930 0.8930
1990.167495 0.8930 0.8920 0.8920 0.8950 0.8960
1995.085541 0.8960 0.8970 0.8960 0.8960 0.8960
2000.003586 0.8950 0.8950 0.8950 0.8955 0.8960
2004.921632 0.8960 0.8960 0.8965 0.8970 0.8970
2009.839677 0.8970 0.8980 0.8990 0.8990 0.8990
2014.757722 0.8980 0.8970 0.8965 0.8960 0.8955
2019.675768 0.8950 0.8950 0.8949 0.8934 0.8920
2024.593813 0.8920 0.8920 0.8920 0.8920 0.8920
2029.511859 0.8920 0.8925 0.8930 0.8930 0.8930
2034.429904 0.8930 0.8930 0.8930 0.8930 0.8930
2039.347950 0.8930 0.8930 0.8930 0.8930 0.8930
2044.265995 0.8930 0.8930 0.8930 0.8930 0.8924
2049.184041 0.8920 0.8920 0.8920 0.8920 0.8920
2054.102086 0.8920 0.8920 0.8920 0.8920 0.8920
2059.020131 0.8920 0.8920 0.8920 0.8920 0.8921
2063.938177 0.8926 0.8930 0.8930 0.8929 0.8924
2068.856222 0.8919 0.8914 0.8910 0.8910 0.8910
2073.774268 0.8910 0.8910 0.8910 0.8910 0.8910
2078.692313 0.8908 0.8898 0.8890 0.8890 0.8890
2083.610359 0.8890 0.8893 0.8908 0.8920 0.8920
2088.528404 0.8917 0.8902 0.8889 0.8884 0.8880
2093.446449 0.8880 0.8880 0.8880 0.8881 0.8886
2098.364495 0.8890 0.8890 0.8892 0.8902 0.8910
2103.282540 0.8910 0.8910 0.8910 0.8910 0.8910
2108.200586 0.8910 0.8910 0.8910 0.8910 0.8908
2113.118631 0.8898 0.8890 0.8890 0.8890 0.8890
2118.036677 0.8889 0.8884 0.8881 0.8886 0.8890
2122.954722 0.8890 0.8893 0.8903 0.8910 0.8910
2127.872768 0.8910 0.8910 0.8907 0.8897 0.8890
2132.790813 0.8890 0.8890 0.8890 0.8890 0.8890
2137.708858 0.8890 0.8890 0.8890 0.8890 0.8890
2142.626904 0.8890 0.8888 0.8883 0.8882 0.8887
2147.544949 0.8890 0.8890 0.8890 0.8890 0.8890
2152.462995 0.8890 0.8890 0.8890 0.8888 0.8883
2157.381040 0.8880 0.8880 0.8878 0.8873 0.8866
2162.299086 0.8856 0.8850 0.8850 0.8854 0.8864
2167.217131 0.8870 0.8870 0.8870 0.8870 0.8870
2172.135176 0.8870 0.8872 0.8877 0.8880 0.8880
2177.053222 0.8880 0.8880 0.8882 0.8887 0.8890
2181.971267 0.8890 0.8890 0.8890 0.8894 0.8904
2186.889313 0.8910 0.8910 0.8906 0.8896 0.8890
2191.807358 0.8890 0.8890 0.8890 0.8890 0.8890
2196.725404 0.8888 0.8883 0.8880 0.8880 0.8878
2201.643449 0.8873 0.8870 0.8870 0.8870 0.8870
2206.561495 0.8870 0.8870 0.8865 0.8855 0.8850
2211.479540 0.8850 0.8850 0.8850 0.8848 0.8843
2216.397585 0.8840 0.8840 0.8838 0.8833 0.8830
2221.315631 0.8830 0.8825 0.8815 0.8810 0.8810
2226.233676 0.8815 0.8825 0.8830 0.8830 0.8825
2231.151722 0.8815 0.8810 0.8810 0.8810 0.8810
2236.069767 0.8815 0.8825 0.8830 0.8830 0.8830
2240.987813 0.8830 0.8833 0.8838 0.8840 0.8840
2245.905858 0.8837 0.8832 0.8830 0.8830 0.8833
2250.823903 0.8838 0.8840 0.8840 0.8840 0.8840
2255.741949 0.8837 0.8832 0.8830 0.8830 0.8824
2260.659994 0.8814 0.8810 0.8810 0.8816 0.8826
2265.578040 0.8830 0.8830 0.8830 0.8830 0.8833
2270.496085 0.8838 0.8840 0.8840 0.8837 0.8832
2275.414131 0.8830 0.8830 0.8830 0.8830 0.8830
2280.332176 0.8830 0.8830 0.8830 0.8833 0.8838
2285.250222 0.8840 0.8840 0.8840 0.8840 0.8840
2290.168267 0.8840 0.8840 0.8840 0.8837 0.8832
2295.086312 0.8830 0.8830 0.8830 0.8830 0.8830
2300.004358 0.8830 0.8830 0.8830 0.8837 0.8847
2304.922403 0.8850 0.8850 0.8837 0.8817 0.8810
2309.840449 0.8810 0.8810 0.8810 0.8810 0.8810
2314.758494 0.8817 0.8827 0.8830 0.8830 0.8830
2319.676540 0.8830 0.8830 0.8830 0.8819 0.8804
2324.594585 0.8800 0.8800 0.8800 0.8800 0.8800
2329.512630 0.8800 0.8800 0.8800 0.8800 0.8800
2334.430676 0.8800 0.8800 0.8800 0.8800 0.8804
2339.348721 0.8809 0.8818 0.8828 0.8834 0.8839
2344.266767 0.8844 0.8849 0.8850 0.8850 0.8850
2349.184812 0.8850 0.8850 0.8850 0.8850 0.8850
2354.102858 0.8850 0.8850 0.8846 0.8841 0.8840
2359.020903 0.8840 0.8840 0.8840 0.8836 0.8831
2363.938949 0.8830 0.8830 0.8830 0.8830 0.8830
2368.856994 0.8830 0.8830 0.8830 0.8834 0.8839
2373.775039 0.8840 0.8840 0.8827 0.8812 0.8810
2378.693085 0.8810 0.8810 0.8810 0.8810 0.8810
2383.611130 0.8810 0.8810 0.8818 0.8828 0.8834
2388.529176 0.8839 0.8840 0.8840 0.8840 0.8840
2393.447221 0.8840 0.8840 0.8836 0.8831 0.8830
2398.365267 0.8830 0.8830 0.8830 0.8821 0.8811
2403.283312 0.8823 0.8838 0.8836 0.8831 0.8830
2408.201357 0.8830 0.8830 0.8830 0.8830 0.8830
2413.119403 0.8821 0.8811 0.8801 0.8791 0.8790
2418.037448 0.8790 0.8790 0.8790 0.8790 0.8790
2422.955494 0.8781 0.8771 0.8770 0.8770 0.8770
2427.873539 0.8770 0.8770 0.8770 0.8770 0.8770
2432.791585 0.8770 0.8770 0.8770 0.8770 0.8780
2437.709630 0.8790 0.8780 0.8770 0.8770 0.8770
2442.627676 0.8770 0.8770 0.8770 0.8770 0.8770
2447.545721 0.8770 0.8770 0.8770 0.8780 0.8790
2452.463766 0.8790 0.8790 0.8790 0.8790 0.8800
2457.381812 0.8810 0.8810 0.8810 0.8805 0.8800
2462.299857 0.8785 0.8770 0.8760 0.8750 0.8735
2467.217903 0.8720 0.8715 0.8710 0.8710 0.8710
2472.135948 0.8710 0.8710 0.8715 0.8720 0.8720
2477.053994 0.8720 0.8715 0.8710 0.8715 0.8720
2481.972039 0.8720 0.8720 0.8720 0.8720 0.8720
2486.890084 0.8720 0.8720 0.8720 0.8715 0.8710
2491.808130 0.8710 0.8710 0.8715 0.8720 0.8720
2496.726175 0.8720 0.8720 0.8720 0.8720 0.8721
2501.644221 0.8726 0.8730 0.8730 0.8731 0.8741
2506.562266 0.8750 0.8750 0.8749 0.8739 0.8731
2511.480312 0.8741 0.8751 0.8756 0.8760 0.8760
2516.398357 0.8761 0.8766 0.8769 0.8764 0.8760
2521.316402 0.8760 0.8760 0.8760 0.8760 0.8760
2526.234448 0.8760 0.8760 0.8759 0.8754 0.8750
2531.152493 0.8750 0.8750 0.8750 0.8748 0.8738
2536.070539 0.8730 0.8730 0.8730 0.8730 0.8733
2540.988584 0.8748 0.8761 0.8766 0.8770 0.8770
2545.906630 0.8770 0.8770 0.8770 0.8770 0.8769
2550.824675 0.8764 0.8760 0.8760 0.8760 0.8760
2555.742721 0.8760 0.8760 0.8760 0.8760 0.8760
2560.660766 0.8760 0.8761 0.8766 0.8770 0.8770
2565.578811 0.8768 0.8758 0.8748 0.8737 0.8730
2570.496857 0.8730 0.8730 0.8730 0.8729 0.8724
2575.414902 0.8720 0.8720 0.8720 0.8720 0.8720
2580.332948 0.8720 0.8720 0.8720 0.8720 0.8720
2585.250993 0.8720 0.8720 0.8720 0.8720 0.8725
2590.169039 0.8740 0.8750 0.8750 0.8747 0.8737
2595.087084 0.8730 0.8730 0.8728 0.8723 0.8720
2600.005129 0.8720 0.8720 0.8720 0.8720 0.8720
2604.923175 0.8727 0.8747 0.8760 0.8760 0.8758
2609.841220 0.8753 0.8750 0.8750 0.8750 0.8750
2614.759266 0.8745 0.8730 0.8720 0.8720 0.8720
2619.677311 0.8720 0.8727 0.8747 0.8762 0.8767
2624.595357 0.8768 0.8763 0.8760 0.8760 0.8760
2629.513402 0.8760 0.8760 0.8760 0.8760 0.8760
2634.431448 0.8760 0.8760 0.8760 0.8760 0.8760
2639.349493 0.8760 0.8762 0.8767 0.8770 0.8770
2644.267538 0.8768 0.8763 0.8758 0.8753 0.8746
2649.185584 0.8736 0.8728 0.8723 0.8720 0.8720
2654.103629 0.8720 0.8720 0.8722 0.8727 0.8735
2659.021675 0.8745 0.8752 0.8757 0.8762 0.8767
2663.939720 0.8775 0.8785 0.8790 0.8790 0.8790
2668.857766 0.8790 0.8785 0.8775 0.8768 0.8763
2673.775811 0.8760 0.8760 0.8758 0.8753 0.8750
2678.693856 0.8750 0.8745 0.8735 0.8735 0.8745
2683.611902 0.8750 0.8750 0.8750 0.8750 0.8750
2688.529947 0.8750 0.8750 0.8750 0.8745 0.8735
2693.447993 0.8735 0.8745 0.8750 0.8750 0.8753
2698.366038 0.8758 0.8760 0.8760 0.8760 0.8760
2703.284084 0.8757 0.8752 0.8744 0.8734 0.8730
2708.202129 0.8730 0.8727 0.8722 0.8720 0.8720
2713.120175 0.8723 0.8728 0.8736 0.8746 0.8753
2718.038220 0.8758 0.8763 0.8768 0.8770 0.8770
2722.956265 0.8770 0.8770 0.8767 0.8762 0.8760
2727.874311 0.8760 0.8760 0.8760 0.8760 0.8760
2732.792356 0.8760 0.8760 0.8760 0.8760 0.8760
2737.710402 0.8760 0.8763 0.8768 0.8770 0.8770
2742.628447 0.8764 0.8754 0.8744 0.8733 0.8730
2747.546493 0.8730 0.8730 0.8730 0.8730 0.8730
2752.464538 0.8727 0.8722 0.8720 0.8720 0.8723
2757.382583 0.8728 0.8730 0.8730 0.8730 0.8730
2762.300629 0.8737 0.8747 0.8750 0.8750 0.8743
2767.218674 0.8733 0.8730 0.8730 0.8726 0.8721
2772.136720 0.8720 0.8720 0.8720 0.8720 0.8720
2777.054765 0.8720 0.8720 0.8720 0.8720 0.8720
2781.972811 0.8724 0.8729 0.8737 0.8747 0.8750
2786.890856 0.8750 0.8750 0.8750 0.8758 0.8768
2791.808902 0.8781 0.8796 0.8800 0.8800 0.8800
2796.726947 0.8800 0.8800 0.8800 0.8800 0.8800
2801.644992 0.8796 0.8791 0.8782 0.8772 0.8778
2806.563038 0.8788 0.8790 0.8790 0.8790 0.8790
2811.481083 0.8790 0.8790 0.8790 0.8790 0.8794
2816.399129 0.8799 0.8800 0.8800 0.8800 0.8800
2821.317174 0.8812 0.8827 0.8830 0.8830 0.8822
2826.235220 0.8812 0.8810 0.8810 0.8810 0.8810
2831.153265 0.8810 0.8810 0.8818 0.8828 0.8817
2836.071310 0.8802 0.8800 0.8800 0.8804 0.8809
2840.989356 0.8819 0.8829 0.8830 0.8830 0.8834
2845.907401 0.8839 0.8840 0.8840 0.8840 0.8840
2850.825447 0.8840 0.8840 0.8840 0.8840 0.8840
2855.743492 0.8840 0.8840 0.8840 0.8840 0.8840
2860.661538 0.8840 0.8840 0.8840 0.8840 0.8840
2865.579583 0.8840 0.8840 0.8840 0.8840 0.8840
2870.497629 0.8840 0.8840 0.8840 0.8840 0.8835
2875.415674 0.8830 0.8821 0.8811 0.8810 0.8810
2880.333719 0.8805 0.8800 0.8800 0.8800 0.8800
2885.251765 0.8800 0.8800 0.8800 0.8800 0.8800
2890.169810 0.8800 0.8800 0.8805 0.8810 0.8820
2895.087856 0.8830 0.8830 0.8830 0.8830 0.8830
2900.005901 0.8835 0.8840 0.8840 0.8840 0.8845
2904.923947 0.8850 0.8850 0.8850 0.8850 0.8850
2909.841992 0.8850 0.8850 0.8870 0.8890 0.8890
2914.760037 0.8890 0.8890 0.8890 0.8890 0.8890
2919.678083 0.8890 0.8890 0.8890 0.8890 0.8890
2924.596128 0.8891 0.8901 0.8910 0.8915 0.8920
2929.514174 0.8920 0.8920 0.8915 0.8909 0.8899
2934.432219 0.8890 0.8885 0.8880 0.8885 0.8890
2939.350265 0.8885 0.8879 0.8864 0.8850 0.8850
2944.268310 0.8849 0.8844 0.8841 0.8846 0.8850
2949.186356 0.8850 0.8851 0.8861 0.8870 0.8870
2954.104401 0.8871 0.8876 0.8881 0.8886 0.8890
2959.022446 0.8890 0.8890 0.8890 0.8890 0.8890
2963.940492 0.8891 0.8901 0.8909 0.8899 0.8890
2968.858537 0.8890 0.8890 0.8890 0.8890 0.8890
2973.776583 0.8890 0.8890 0.8890 0.8890 0.8890
2978.694628 0.8890 0.8889 0.8884 0.8880 0.8880
2983.612674 0.8879 0.8874 0.8870 0.8870 0.8870
2988.530719 0.8870 0.8868 0.8858 0.8849 0.8844
2993.448764 0.8840 0.8840 0.8840 0.8840 0.8840
2998.366810 0.8840 0.8841 0.8846 0.8852 0.8862
3003.284855 0.8871 0.8876 0.8881 0.8886 0.8890
3008.202901 0.8890 0.8890 0.8890 0.8890 0.8890
3013.120946 0.8888 0.8878 0.8870 0.8870 0.8870
3018.038992 0.8870 0.8867 0.8857 0.8850 0.8850
3022.957037 0.8850 0.8850 0.8850 0.8850 0.8853
3027.875083 0.8863 0.8871 0.8876 0.8880 0.8880
3032.793128 0.8881 0.8886 0.8893 0.8903 0.8907
3037.711173 0.8897 0.8890 0.8890 0.8890 0.8890
3042.629219 0.8888 0.8883 0.8880 0.8880 0.8880
3047.547264 0.8880 0.8880 0.8880 0.8880 0.8880
3052.465310 0.8880 0.8880 0.8880 0.8880 0.8880
3057.383355 0.8880 0.8880 0.8880 0.8880 0.8880
3062.301401 0.8882 0.8887 0.8890 0.8890 0.8890
3067.219446 0.8890 0.8890 0.8890 0.8890 0.8890
3072.137491 0.8888 0.8883 0.8880 0.8880 0.8882
3077.055537 0.8887 0.8890 0.8890 0.8894 0.8904
3081.973582 0.8910 0.8910 0.8910 0.8910 0.8906
3086.891628 0.8896 0.8888 0.8883 0.8880 0.8880
3091.809673 0.8880 0.8880 0.8880 0.8880 0.8880
3096.727719 0.8880 0.8880 0.8880 0.8880 0.8880
3101.645764 0.8880 0.8880 0.8880 0.8880 0.8880
3106.563810 0.8880 0.8880 0.8880 0.8880 0.8880
3111.481855 0.8880 0.8880 0.8880 0.8880 0.8882
3116.399900 0.8887 0.8890 0.8890 0.8888 0.8883
3121.317946 0.8880 0.8880 0.8887 0.8902 0.8910
3126.235991 0.8910 0.8913 0.8918 0.8923 0.8928
3131.154037 0.8938 0.8953 0.8960 0.8960 0.8950
3136.072082 0.8930 0.8920 0.8920 0.8920 0.8920
3140.990128 0.8920 0.8920 0.8920 0.8920 0.8920
3145.908173 0.8920 0.8920 0.8920 0.8920 0.8920
3150.826218 0.8920 0.8920 0.8920 0.8920 0.8920
3155.744264 0.8920 0.8920 0.8920 0.8920 0.8920
3160.662309 0.8920 0.8920 0.8920 0.8920 0.8920
3165.580355 0.8920 0.8920 0.8920 0.8929 0.8944
3170.498400 0.8950 0.8950 0.8953 0.8958 0.8960
3175.416446 0.8960 0.8960 0.8960 0.8960 0.8960
3180.334491 0.8960 0.8960 0.8960 0.8960 0.8957
3185.252537 0.8952 0.8950 0.8950 0.8944 0.8934
3190.170582 0.8930 0.8930 0.8930 0.8930 0.8930
3195.088627 0.8930 0.8927 0.8922 0.8920 0.8920
3200.006673 0.8920 0.8920 0.8923 0.8928 0.8930
3204.924718 0.8930 0.8930 0.8930 0.8937 0.8947
3209.842764 0.8953 0.8958 0.8963 0.8968 0.8970
3214.760809 0.8970 0.8970 0.8970 0.8970 0.8970
3219.678855 0.8970 0.8970 0.8966 0.8961 0.8971
3224.596900 0.8986 0.8990 0.8990 0.8983 0.8973
3229.514945 0.8970 0.8970 0.8970 0.8970 0.8970
3234.432991 0.8970 0.8970 0.8970 0.8966 0.8961
3239.351036 0.8964 0.8969 0.8970 0.8970 0.8970
3244.269082 0.8970 0.8970 0.8970 0.8970 0.8970
3249.187127 0.8970 0.8970 0.8970 0.8970 0.8970
3254.105173 0.8970 0.8970 0.8970 0.8966 0.8961
3259.023218 0.8960 0.8960 0.8956 0.8951 0.8954
3263.941264 0.8959 0.8964 0.8969 0.8970 0.8970
3268.859309 0.8978 0.8988 0.8990 0.8990 0.8982
3273.777354 0.8972 0.8970 0.8970 0.8970 0.8970
3278.695400 0.8966 0.8961 0.8960 0.8960 0.8960
3283.613445 0.8960 0.8960 0.8960 0.8964 0.8969
3288.531491 0.8970 0.8970 0.8966 0.8961 0.8960
3293.449536 0.8960 0.8956 0.8951 0.8950 0.8950
3298.367582 0.8937 0.8922 0.8920 0.8920 0.8920
3303.285627 0.8920 0.8920 0.8920 0.8920 0.8920
3308.203672 0.8920 0.8920 0.8920 0.8920 0.8925
3313.121718 0.8930 0.8930 0.8930 0.8925 0.8920
3318.039763 0.8920 0.8920 0.8920 0.8920 0.8920
3322.957809 0.8920 0.8920 0.8920 0.8920 0.8920
3327.875854 0.8920 0.8920 0.8920 0.8920 0.8920
3332.793900 0.8920 0.8920 0.8920 0.8920 0.8920
3337.711945 0.8920 0.8920 0.8920 0.8920 0.8920
3342.629991 0.8920 0.8920 0.8920 0.8920 0.8920
3347.548036 0.8915 0.8910 0.8910 0.8910 0.8910
3352.466081 0.8910 0.8910 0.8910 0.8910 0.8910
3357.384127 0.8910 0.8910 0.8910 0.8910 0.8910
3362.302172 0.8910 0.8910 0.8910 0.8910 0.8910
3367.220218 0.8910 0.8910 0.8910 0.8910 0.8910
3372.138263 0.8910 0.8910 0.8910 0.8910 0.8910
3377.056309 0.8910 0.8910 0.8910 0.8910 0.8910
3381.974354 0.8910 0.8910 0.8910 0.8910 0.8910
3386.892399 0.8915 0.8920 0.8920 0.8920 0.8920
3391.810445 0.8920 0.8920 0.8920 0.8920 0.8920
3396.728490 0.8920 0.8920 0.8920 0.8920 0.8920
3401.646536 0.8920 0.8920 0.8920 0.8920 0.8920
3406.564581 0.8920 0.8920 0.8920 0.8920 0.8920
3411.482627 0.8920 0.8920 0.8920 0.8920 0.8920
3416.400672 0.8920 0.8920 0.8920 0.8919 0.8914
3421.318718 0.8910 0.8910 0.8911 0.8916 0.8920
3426.236763 0.8920 0.8920 0.8920 0.8920 0.8920
3431.154808 0.8920 0.8920 0.8920 0.8920 0.8920
3436.072854 0.8920 0.8920 0.8920 0.8920 0.8920
3440.990899 0.8920 0.8920 0.8920 0.8920 0.8920
3445.908945 0.8920 0.8920 0.8920 0.8920 0.8920
3450.826990 0.8920 0.8920 0.8920 0.8920 0.8920
3455.745036 0.8920 0.8920 0.8920 0.8920 0.8920
3460.663081 0.8920 0.8920 0.8920 0.8920 0.8920
3465.581126 0.8920 0.8920 0.8920 0.8920 0.8920
3470.499172 0.8920 0.8920 0.8920 0.8920 0.8920
3475.417217 0.8920 0.8920 0.8920 0.8921 0.8926
3480.335263 0.8929 0.8924 0.8920 0.8920 0.8920
3485.253308 0.8920 0.8920 0.8920 0.8920 0.8920
3490.171354 0.8918 0.8913 0.8910 0.8910 0.8907
3495.089399 0.8897 0.8893 0.8903 0.8910 0.8910
3500.007445 0.8912 0.8917 0.8920 0.8920 0.8920
3504.925490 0.8920 0.8920 0.8920 0.8920 0.8920
3509.843535 0.8920 0.8920 0.8926 0.8941 0.8950
3514.761581 0.8950 0.8946 0.8936 0.8930 0.8930
3519.679626 0.8930 0.8930 0.8930 0.8930 0.8928
3524.597672 0.8923 0.8920 0.8920 0.8920 0.8920
3529.515717 0.8920 0.8920 0.8920 0.8920 0.8922
3534.433763 0.8927 0.8930 0.8930 0.8930 0.8930
3539.351808 0.8930 0.8930 0.8930 0.8930 0.8930
3544.269853 0.8930 0.8928 0.8923 0.8920 0.8920
3549.187899 0.8920 0.8920 0.8920 0.8920 0.8920
3554.105944 0.8920 0.8920 0.8920 0.8920 0.8920
3559.023990 0.8918 0.8913 0.8910 0.8910 0.8910
3563.942035 0.8910 0.8910 0.8910 0.8910 0.8910
3568.860081 0.8912 0.8917 0.8922 0.8928 0.8930
3573.778126 0.8930 0.8927 0.8922 0.8920 0.8920
3578.696172 0.8948 0.9003 0.9048 0.9083 0.9092
3583.614217 0.9077 0.9060 0.9040 0.9015 0.8985
3588.532262 0.8960 0.8939 0.8930 0.8930 0.8930
3593.450308 0.8930 0.8927 0.8922 0.8923 0.8928
3598.368353 0.8927 0.8922 0.8920 0.8920 0.8920
3603.286399 0.8920 0.8920 0.8920 0.8920 0.8920
3608.204444 0.8920 0.8920 0.8920 0.8920 0.8920
3613.122490 0.8920 0.8920 0.8920 0.8920 0.8920
3618.040535 0.8920 0.8920 0.8920 0.8920 0.8920
3622.958580 0.8920 0.8920 0.8920 0.8920 0.8920
3627.876626 0.8920 0.8920 0.8920 0.8920 0.8920
3632.794671 0.8920 0.8920 0.8920 0.8920 0.8920
3637.712717 0.8917 0.8912 0.8910 0.8910 0.8913
3642.630762 0.8918 0.8920 0.8920 0.8920 0.8920
3647.548808 0.8917 0.8912 0.8910 0.8910 0.8910
3652.466853 0.8910 0.8910 0.8910 0.8910 0.8910
3657.384899 0.8910 0.8910 0.8910 0.8910 0.8910
3662.302944 0.8910 0.8910 0.8910 0.8910 0.8910
3667.220989 0.8910 0.8910 0.8910 0.8910 0.8910
3672.139035 0.8910 0.8910 0.8910 0.8910 0.8910
3677.057080 0.8910 0.8910 0.8914 0.8919 0.8920
3681.975126 0.8920 0.8920 0.8920 0.8920 0.8920
3686.893171 0.8924 0.8929 0.8926 0.8921 0.8920
3691.811217 0.8920 0.8920 0.8920 0.8920 0.8920
3696.729262 0.8920 0.8920 0.8924 0.8929 0.8930
3701.647307 0.8930 0.8930 0.8930 0.8926 0.8921
3706.565353 0.8916 0.8911 0.8910 0.8910 0.8910
3711.483398 0.8910 0.8910 0.8910 0.8910 0.8910
3716.401444 0.8910 0.8910 0.8914 0.8919 0.8920
3721.319489 0.8920 0.8920 0.8920 0.8916 0.8911
3726.237535 0.8910 0.8910 0.8910 0.8910 0.8910
3731.155580 0.8910 0.8910 0.8910 0.8914 0.8919
3736.073626 0.8920 0.8920 0.8920 0.8920 0.8920
3740.991671 0.8920 0.8916 0.8911 0.8910 0.8910
3745.909716 0.8910 0.8910 0.8910 0.8910 0.8914
3750.827762 0.8919 0.8920 0.8920 0.8920 0.8920
3755.745807 0.8920 0.8920 0.8915 0.8910 0.8910
3760.663853 0.8910 0.8901 0.8891 0.8890 0.8890
3765.581898 0.8899 0.8909 0.8910 0.8910 0.8910
3770.499944 0.8910 0.8910 0.8910 0.8910 0.8910
3775.417989 0.8901 0.8891 0.8890 0.8890 0.8890
3780.336034 0.8890 0.8900 0.8910 0.8910 0.8910
3785.254080 0.8910 0.8910 0.8910 0.8910 0.8915
3790.172125 0.8920 0.8915 0.8910
##END=
