##TITLE=Tetrachloroethene
##JCAMP-DX=4.24
##DATA TYPE=INFRARED SPECTRUM
##CLASS=IUPAC A
##ORIGIN=NIST, Analytical Chemistry Division, 301-975-3108
##OWNER=COPYRIGHT (C) 2000 by the U.S. Secretary of Commerce
##DATE=00/02/01
##$SPECTRA VERSION=1.10
##$UNCERTAINTY IN Y=2.0 % relative (B=1.0E-04,C=1.6E-09,D=1.3E-13)
##CAS NAME=Tetrachloroethene
##CAS REGISTRY NO=127-18-4
##MOLFORM=C2 Cl4
##MP=-19 C
##BP=121 C
##$NIST SOURCE=QUANT-IR
##SPECTROMETER/DATA SYSTEM=IFS66V (Bruker)
##INSTRUMENT PARAMETERS=KBr Beam Splitter; MCT Detector; Multipass cell
##STATE=gas
##SAMPLE DESCRIPTION=Tetrachloroethene Primary Gas Standard
##PRESSURE=101.3 Pa
##TEMPERATURE=23 C
##SAMPLING PROCEDURE=1 L/min Flow
##RESOLUTION=0.9640
##DATA PROCESSING=Boxcar Apodization
##XUNITS=cm-1
##YUNITS=(micromol/mol)-1m-1 (base 10)
##XFACTOR=1.0
##YFACTOR=18.189E-13
##DELTAX=0.4820
##FIRSTX=575.17
##LASTX=3974.605
##FIRSTY=7.03E-07
##MAXX=3974.12
##MINX=575.17
##MAXY=.0014524
##MINY=-9.79E-07
##NPOINTS=7052
##XYDATA=(X++(Y..Y))
575.17 386712 939835 424219 93296-452071-530835
577.58 471317 54722 1045382-154075 106999 225047
580.47 216518 345364-253563-90554-412766 534184
583.37-37196-364776 81644 106778 221207-495499
586.26 247169-417798 265168 502798 215656 447552
589.15 533928-92504 181422-285310-15660-58150
592.04 477401-151908 32220-163099 127174-178321
594.94 61399 196270-70830-316264 202793-250014
597.83 70906-356161 689452 199824 86424-58193
600.72-108884-163327-101004-381884 342481 83483
603.62-39402 121376-172954-118703-56195 297256
606.51-160328 153464 72269 318284 41604 87993
609.40 91481-60674 83945 123299 65314 82598
612.29 44570 328984-266653 454156-145669 133780
615.19 160301-71540 254720 159650 219010-232864
618.08 11512 256856 107942 19920 32508 50979
620.97 320316-124779-113399-61462-7176-12985
623.86-126929-7839-393018-24374 23095-216269
626.76-76284 12680-177508-193432-89899-13912
629.65-40476-246081-16578-264894-447307-161054
632.54-115531-183017-75511 1420-293162-282244
635.44-200934-273541-70909-239624-49162-88946
638.33 174822-25721-151535-174990-253646-134824
641.22 34509 158429-144522-207757-129269-59275
644.11-107057-289451-81217-114203-223108-141758
647.01 72216-162634-24574-94808-14906-202641
649.90 94594-337486-220565-274116 74318-171695
652.79-35756 68379-96467-106340 36671-277319
655.68-32961 19270 131546-66530-169467-60218
658.58 9752-99801-269247 143680-211294-96235
661.47-141254 35863-85493-116631 41807-134057
664.36-138812-155072-143017-48141-129747 336949
667.26 1538305 441941 188250-438 83141-147647
670.15-84310-76076-32082-135926-10441-151634
673.04-147469 30939 29543 122900 25194-69251
675.93 67976-45452 174599 227552 302086 187192
678.83 348045 229791 336208 235030 457920 260569
681.72 413876 425141 474344 410519 654888 597477
684.61 578661 623220 451647 547429 786154 740433
687.50 452112 571811 586212 531331 787730 561656
690.40 486515 605674 620887 507293 424621 473038
693.29 381243 602954 352998 416986 464094 332950
696.18 370906 283509 229668 263096-16969 227830
699.08 152552 71321 162647-71706-113429-168769
701.97 22569-147065-111294-116320-231284-189208
704.86-152307-196714-6391-178970-176828-4873
707.75-250482-139862-60877-213478-100676 31213
710.65-138921-131576-131903 64675-107559-165911
713.54-212931-101895-147489-274147-5515-180238
716.43-152467-291463-109010-40774-29368 35354
719.32-134580-22984-125975-168927-145699-34159
722.22-119142-167642-79800-56287-148866-21011
725.11 40346 404 37017 8234-29919 90886
728.00-20189 198838-43255 130248 28493 153687
730.90 120751 143823 202205 101185 530882 357365
733.79 292778 557625 564658 672950 731321 1070955
736.68 1108843 1186225 1638473 1861353 2086136 2478812
739.57 2896389 3399691 3872588 4317977 4966229 5388621
742.47 6277384 6922103 7811459 8611749 9660440 10657416
745.36 11865457 12588412 13631180 14970891 16292391 17160696
748.25 18305496 19102680 20295809 21986885 22854837 23188497
751.14 23479870 25613308 27315475 26182570 25355222 26357989
754.04 27520627 29675277 27079697 25841031 27596343 32225765
756.93 30175191 23731935 25621754 25278408 28033292 24822990
759.82 23940320 24489970 27473924 29332399 22808243 22210942
762.72 22783902 23179853 23757256 24101640 24902892 26031465
765.61 27386724 28895686 31314562 33831846 37687860 41575447
768.50 46631337 52361088 59267525 66894622 75908659 84540573
771.39 94576248 105404309 116659301 127484960 138290255 148917719
774.29 159495778 167727951 174656110 180055080 185131300 189610896
777.18 194432861 195248638 198609871 196110810 208532530 205798376
780.07 186383497 185670134 217862157 219180675 191641717 202378772
782.96 184935053 184350668 184939632 185267485 188237078 185410364
785.86 181731736 174575051 165083668 152938582 138731003 124134037
788.75 108974127 95371972 82613603 71906234 62898178 56702309
791.64 52853742 50864933 51378542 53506991 56656145 61260025
794.54 66484475 71745755 76776366 81655272 85463094 88703999
797.43 91349331 93215215 93371700 91950799 93086469 97200065
800.32 107006011 114457368 109753776 102649854 97463315 96172892
803.21 98571626 102100037 106433138 104752671 99954511 98277598
806.11 98160079 97802484 95059491 89691116 84963999 80721094
809.00 75616649 69645268 63109493 57208886 50950757 45117881
811.89 39443254 34470190 29735275 25451343 21706060 18355294
814.78 15555977 13247021 11206531 9617085 8287257 7255774
817.68 6287882 5913899 5467655 5176415 4920846 4880811
820.57 4786284 4789723 4727256 4693039 4866677 4910231
823.46 4878723 4868662 4749283 4796358 4758914 4700107
826.36 4666056 4777418 4639596 4638067 4500390 4436537
829.25 4299041 4245586 4125002 4228615 4089994 3957109
832.14 3892979 3643239 3322140 3054028 2679198 2451439
835.03 2071536 1656304 1328272 1082892 828646 641304
837.93 328040 290243 190778 202648 150578 117667
840.82 32699 129540 34182 120725 18553-56163
843.71 9106 98504 60520 87972-17452-30771
846.60 10817-28720 46064-19939 174699 105676
849.50-6492 8590-9833 35634-37136 27742
852.39 48755 52570 40370 3038 15459 120283
855.28 8637 90045-28619-33537 135988 115464
858.18-28981 33087 6184 161797-29905 101629
861.07 83432 159587 50478 34955 109236 47136
863.96 75772 80478 25087 62741 56761 71630
866.85 54898 19826 125605 88812 74382 149114
869.75 90029 234576 161011 142425 232419 206321
872.64 107275 149393 197428 237027 300484 308594
875.53 412790 389534 434933 428394 480157 638547
878.42 755866 724124 745854 891682 1062157 1180311
881.32 1187150 1460832 1682571 1772301 2116933 2324168
884.21 2683741 3087659 3309119 3825331 4192293 4792523
887.10 5457745 6082141 6863348 7692732 8555353 9539227
889.99 10543635 11651142 12841416 14268982 15644847 17112101
892.89 18652042 20423105 22101337 24011647 25990058 28311947
895.78 30664069 33417314 36538007 39804565 43659067 47970303
898.67 53134890 58897171 65735244 73424988 82332359 92537156
901.57 104179268 117396842 132060303 148158203 166114662 186056436
904.46 207849076 231084064 256346262 283614790 312682881 343854087
907.35 376765093 411052373 446608202 482585173 519541964 555409558
910.24 591533864 625956513 658435267 688624090 715755408 739194947
913.14 759051113 774901813 786859174 794460712 797653428 798487615
916.03 795638171 790967154 786066303 777831198 772805502 768709318
918.92 763757218 763731950 757558285 755178487 749810053 741523931
921.81 731203608 702430202 676213667 642501554 596647242 548942813
924.71 499887329 450022073 398372286 346841963 296500114 249455673
927.60 206688224 169018020 136885525 110310527 88639778 71363974
930.49 57469137 46321304 37194604 29965889 23898985 18970479
933.39 14919334 11697593 9154115 7129733 5597048 4404977
936.28 3429832 2777186 2155300 1751253 1394818 1125026
939.17 931273 888389 596314 591766 444101 376823
942.06 328088 260906 205189 171261 124865 126627
944.96 119673 162583 65858 47054 62079 25890
947.85 33992 115240-8071 71065 79405 18550
950.74 7209 31757 46194-16861-21695 62754
953.63 6554 29130-34276-9408 13012 64952
956.53-26511 23896 34778 98060 30565 12238
959.42-86934-34713 20206 7135 43022 52275
962.31 84723 91441 34226 40475-11317 6608
965.21 35813-131 9060 43218-43375 37702
968.10-33858-42664-47282-87301-37313-81383
970.99 22215-9096-39526-23170-42711-44807
973.88 3504 50474 44957 87178 177850 60568
976.78 127595 175447 184413 211704 246649 268980
979.67 372056 458416 388932 460385 391158 497772
982.56 461710 584361 513447 584764 558068 538419
985.45 547546 583353 501431 383484 557762 571141
988.35 514123 561734 581650 613260 639082 611662
991.24 643928 598835 561191 554950 479723 441096
994.13 414037 354638 288155 237003 201665 206299
997.03 86650 111204 50008 39373 49122-4305
999.92 32187 60551 63138 56662-11652 32295
1002.81 136719 95207 88001 135430 217108 195188
1005.70 195497 269679 209433 251715 232800 187793
1008.60 170918 156494 179266 181070 187741 143152
1011.49 129904 43030 129714 148362 42650 51225
1014.38 100630 68236-52202-44082-53133 48229
1017.27 7977-67996-81885-50930-62036-95233
1020.17-128139-93578-173803-119063-110340-112672
1023.06-213288-149054-142678-194624-205608-195890
1025.95-199112-130024-142359-128854-157245-166796
1028.85-92120-83870-115735-196586-95317-154397
1031.74-91111-8028-106580-102472-96760-148130
1034.63-98877-143692-142271-135030-130520-202234
1037.52-80701-142332-114773-106106-195686-109475
1040.42-89520-151619-163303-48658-128747-152961
1043.31-122209-90293-134138-125324-193701-124779
1046.20-223041-227910-151270-138235-185988-181655
1049.09-132709-71894-149692-74335-120209-55687
1051.99-176659-102744-94954-92604-9589-82150
1054.88-102573-108236-127893-119347-131959-145427
1057.77-66339-152866-131285-171944-184179-121085
1060.67-79293-22935-69535-23649-145286-132420
1063.56-137806-153424-134482-96797-138997-62469
1066.45-101874-102219-87751-154270-113094-68946
1069.34-103870-119392-48706 6167-66673-96258
1072.24-25708-50769-125698-64891-32274-39786
1075.13-19672-5498 97473 150067 64892 117674
1078.02 104900 222738 187438 162744 308133 374603
1080.91 328818 332380 475252 551470 600390 621218
1083.81 736439 853212 860647 995231 1151427 1184320
1086.70 1262623 1394496 1489556 1521641 1647601 1769538
1089.59 1933373 2001784 2141607 2209042 2332578 2447318
1092.49 2445940 2608065 2749811 2876787 2959893 3085210
1095.38 3388154 3588982 3786377 4033810 4339673 4580371
1098.27 4845965 5129329 5400265 5514652 5595537 5522484
1101.16 5343806 4964077 4605641 4226202 3714372 3365309
1104.06 3060101 2954348 2909820 3087439 3174129 3171716
1106.95 3176755 3368235 3315417 3412464 3411351 3397977
1109.84 3344223 3312924 3313233 3288648 3321372 3310074
1112.73 3357903 3454384 3535774 3750483 3818768 3982679
1115.63 4102022 4274090 4494234 4709002 4869388 4994755
1118.52 5199714 5411514 5562644 5681812 5759697 5845465
1121.41 5857906 5875044 5944254 6018171 6093143 6092432
1124.31 6049023 5971750 5891708 5752138 5683287 5576633
1127.20 5558262 5563096 5388528 5258332 5008879 4757828
1130.09 4639509 4604427 4463610 4307889 4215795 3993485
1132.98 3794489 3598924 3437283 3257512 3163434 3153343
1135.88 3091471 3069099 2961942 2979684 3024823 3041775
1138.77 3041031 3141667 3273516 3375004 3378388 3495318
1141.66 3543533 3584477 3732361 3723554 3809411 3912416
1144.55 3934841 3912503 3949890 4006436 4020310 3996976
1147.45 3928552 3927239 3928535 4069106 3915068 3966405
1150.34 3889274 3820686 3635643 3651336 3610774 3481475
1153.23 3368640 3274124 3180212 3053268 2949783 2848598
1156.13 2655825 2492928 2411956 2206364 2062239 1874020
1159.02 1770293 1548733 1536224 1396501 1292637 1206942
1161.91 1171608 1118703 1025441 997160 1060871 1050918
1164.80 977310 1059772 1076246 1082922 1125816 1204953
1167.70 1116364 1138413 1193575 1193605 1290373 1298914
1170.59 1270450 1274839 1277701 1275076 1202778 1206119
1173.48 1257981 1207511 1211771 1251878 1183656 1099939
1176.37 1113358 1126903 1048842 992396 1116979 1176551
1179.27 1003185 1024881 1050307 941714 833425 908019
1182.16 882426 847700 836356 736545 619561 583459
1185.05 478273 462910 296847 255730 247297 221998
1187.95 206667 183324 180060 143435 134875 113509
1190.84 153885 92965 168440 136139 140078 181230
1193.73 125369 69730 121885 129228 139802 159237
1196.62 182838 151580 102522 117587 102347 109177
1199.52 80576 84234 75185 108849 105235 64568
1202.41 85364 76781 81432 47478 24554 115864
1205.30 102629 117081 85455 28543 76219 8465
1208.19 48334 27094 95273 84140 54458 85041
1211.09 29943 46635 28219 102296 76137 56773
1213.98 137378 153778 157731 129900 214005 209851
1216.87 233879 236234 273667 324366 339483 349322
1219.77 374021 401138 352544 373058 484640 479282
1222.66 498381 470732 530262 517745 558488 546239
1225.55 509625 587081 581627 594745 609401 575288
1228.44 632610 628888 613203 585967 518888 503477
1231.34 566010 549597 492083 494316 489209 498146
1234.23 417749 380613 410084 399021 406223 349781
1237.12 368451 339908 322750 310715 272450 325166
1240.01 316713 322786 330453 348173 352542 316427
1242.91 303159 386851 381319 393525 444310 423631
1245.80 423349 406030 482065 512308 563935 582582
1248.69 626897 683217 678001 792328 764822 798488
1251.59 851295 865483 900346 920090 967772 1040604
1254.48 1041646 1056746 1020726 1056723 1031679 1103198
1257.37 1056075 1174738 1132715 1145389 1127654 1165001
1260.26 1081511 1130338 1089973 1117075 1074837 1152671
1263.16 1214675 1098116 1016141 1075809 1067218 1020219
1266.05 912670 961336 904776 865879 807565 781460
1268.94 642292 709154 613699 587201 552363 525022
1271.83 446524 429105 373508 288084 287492 289121
1274.73 232076 305613 282667 248970 194993 199783
1277.62 98196 163333 131249 188836 126267 99845
1280.51 69316 119394-19930-28958-49514-15891
1283.41-58059-2034-7853-60566-6054-13724
1286.30-29420-27929-48647 24067 54355 93522
1289.19 99024 63159 63012 98837 106143 143264
1292.08 148362 195673 228148 250945 198960 239939
1294.98 224329 226593 255379 310951 264418 315489
1297.87 282013 350574 300359 312356 255064 332037
1300.76 293270 304210 276742 307748 223578 191112
1303.65 193656 145436 171405 170936 172001 137044
1306.55 108192 129480 71552 60919 37038-2492
1309.44-7211-79788-14825-51820-30719-112579
1312.33-140972-94505-128718-109478-132641-78243
1315.23-133103-142032-163730-161481-186374-190826
1318.12-151322-104073-111387-175530-134401-180533
1321.01-191654-209159-176449-207617-158411-165150
1323.90-136048-99229-170421-179091-207028-146849
1326.80-139870-162092-112630-66041-58282-141038
1329.69-126372-131603-121613-57502-84442-55688
1332.58-33637-40998-13230-77921-44213 19052
1335.47 58690 66381 72333 107018 138309 137620
1338.37 166637 189267 195519 235842 305159 374053
1341.26 405117 464172 406231 523161 520272 620071
1344.15 675097 782993 801544 925425 956099 1078972
1347.05 1092648 1115012 1212675 1314042 1435649 1579871
1349.94 1624503 1789745 1875550 2025411 1920930 2279162
1352.83 2469347 2611659 2867908 2865714 3041129 3185218
1355.72 3263149 3334733 3410907 3482989 3530296 3598519
1358.62 3619071 3546069 3619111 3631212 3709105 3739451
1361.51 3628262 3653193 3653210 3648925 3603704 3546172
1364.40 3620492 3493376 3364099 3257537 3143423 3092474
1367.29 2957747 2889737 2853193 2736069 2538082 2326693
1370.19 2181322 2028963 1911251 1878627 1651320 1573393
1373.08 1404494 1236033 1116463 1042170 937447 751529
1375.97 725538 652136 638466 559241 462384 342368
1378.87 297820 273411 313329 286504 219798 233263
1381.76 223120 235393 196497 162430 244848 237772
1384.65 254648 244852 251232 240347 190250 320546
1387.54 153413 259577 178833 225309 183206 215185
1390.44 128131 172025 171031 190127 95704 197348
1393.33 159443 287202 264450 110777 157107 128683
1396.22 158780 176016 167664 116085 169080 181670
1399.11 67075 6298 87706 67292 72063 99345
1402.01 67995 102003 89744 90849 99400 90139
1404.90 46343-12840-15778 1977 27563-14622
1407.79-53416 10206-65617-46191-57399-80565
1410.69-72334-9931-56888-39853-98836-91229
1413.58-122905-114257-123113-122283-117836-107800
1416.47-131704-76279-175121-123208-90710 90664
1419.36-90712-130548-141660-139379-179235-169359
1422.26-213333-145306-173236-168287-168050-140724
1425.15-178571-204299-160137-164354-131845-180189
1428.04-152536-172588-177907-149970-140734-160944
1430.93-170721-181741-237008-145089-131955-226822
1433.83-163802-164153-145024-175311-102708 146699
1436.72-67188-169130-109351-218972-217589-206125
1439.61-213806-207384-193199-149409-153811-179848
1442.51-187011-158589-150740-180322-184730-159559
1445.40-149105-178661-174038-196632-115433-167085
1448.29-200655-160550-180050-203989-211874-171615
1451.18-158151-160823-194541-194612-236296-190703
1454.08-152180-151125-144175-158265 34469 251031
1456.97-199720-106546-37004-170702-114727-152173
1459.86-132198-208738-230618-167984-184077-213129
1462.75-169476-116857-233532-32133-73459-153428
1465.65-149925-147980-190014-166912-156864-156604
1468.54-180787-137109-124003-121059-153326-146003
1471.43 48976-46744-172103 97946-45706-119624
1474.33-125566-126645-64685 8248-97436-124448
1477.22-85054-72071-57962-56591-85154-65145
1480.11-55263-3468-40020-106493-16268-83697
1483.00-60474-108967-69570-87867-73956-57450
1485.90-80634-127042 5665-82281-143055-117957
1488.79-104213-55947-95294-101119-112876-143841
1491.68-128885-154374-147347-209758-147071-181793
1494.57-129568-206040 10801-20896-274196-156766
1497.47-259872-133343-88051-200404-209935-237633
1500.36-226996-216489-192915-217689-235404-162785
1503.25-189219-204810-237232-108091 161846-166284
1506.15-23125 221564-143492-201417-103228-179266
1509.04-186236-163086-235478-171858-246580-197696
1511.93-107439-172128-216035-160669-196058-152584
1514.82-160922-218004-126058-152856-122719-128733
1517.72-199198-177561-190066-204144-39943-197306
1520.61 114231 46903-267071-35046-147798-161131
1523.50-173253-141279-201831-64596-115697-184058
1526.39-218771-83602-179835-134242-151253-158447
1529.29-139508-169012-146768-161178-103979-110950
1532.18-140528-55006-23473 48948-151718-109994
1535.07-190052-104994-106470-18396-110127-5758
1537.97-87846 411197 71349 57050 312347-8380
1540.86-30842 114651 222667-42655 15069 31527
1543.75-38536 60311 142461-22673-4128-57380
1546.64-42792-86982-2520-10284-8604 19750
1549.54 62471 36660-21923-24126-22464 9436
1552.43-69276-518 55825 244915-348 10351
1555.32-39687 44248-1868 211490 159129 340885
1558.21 440456 19405 253662 431211 256814 30602
1561.11 103777 7475 140960 86154 137201 31560
1564.00 111411 134579 79028 66740 101045 101181
1566.89 76491 111770 114164 108205 162586 292311
1569.79 127915 79959 134833 93098 114079 78163
1572.68 143123 114963 126186 111652 236999 187979
1575.57 657409 343157 134493 163204 138486 146156
1578.46 110047 171827 186503 153637 116739 140794
1581.36 66682 95858 59457 99786 68530 143743
1584.25 50189 75997 94070 62787 92061 119978
1587.14 87699 105862 129819 117165 83474 56992
1590.03 120603 22024 82658 61503 53572 43583
1592.93 44154 78721 97189 32522 52857 40207
1595.82 64322-3257 11656 54764 27158-5054
1598.71 2332 11968-33783-55546-37012-33195
1601.61-13958-46489-96126-93903-98160-119363
1604.50-100086-96342-92595-119371-97666-144747
1607.39-125834-163516-145986-120122-147318-193962
1610.28-160986-195982-133347-197423-205714-185764
1613.18-184732-171601-131163-197751-130566-215432
1616.07 200458 38826-235877-168023-180993-147426
1618.96-176702-181755-191530-187848-165530-179587
1621.85-156352-150898-72706-26399-218456-171230
1624.75-215300-177110-176040-170222-178869-126184
1627.64-130768-214548-190519-175047-244669-201210
1630.53-175186-177634-186853-150683-177883-162136
1633.43-183133-152572-95568 79941 133787-196092
1636.32-124754-147596-96763-171281-163118-174298
1639.21-98267-73305-139473-136790-153226-182827
1642.10-154197-181586-167277-188117-179162-205405
1645.00-102283 147609-96316-124466-87432-178348
1647.89-103372-251009-137639-164371-124665-197024
1650.78-94337-232498 292078 71130 366481 99396
1653.67-168733 28431-209333-130633-227694-187348
1656.57-249351-205513-226604-174177-240588-161926
1659.46-239120-230263-234433-215802-180941-113804
1662.35-28642-230272-216974-193417-261802-196126
1665.25-239370-166848-243123-158856-250186-122343
1668.14-211247-53932-91904-229993-193451-181998
1671.03-102004-172759-181524-183942-227911-186431
1673.92-192522-94423 34212-135979-180111-192693
1676.82-165751-221055-187334-207864-189229-161633
1679.71-148409-163366-229398-187335-184921-183343
1682.60-95289-111035-121682 137220 323530-246845
1685.49-100592-218940-147291-227043-164260-192450
1688.39-186688-205490-173738-179231-178685-238969
1691.28-231647-212086-216644-206414-195404-249672
1694.17-188987-244037 135680 175114-255935-199439
1697.07-210522-148943-87210-134061-40426 94672
1699.96 6890 27510-227853-202233-262454-225869
1702.85-223037-204050-179117-139030-224249-207688
1705.74-96186-125542-236166-174691-158247-227489
1708.64-238523-187513-195817-166974-155319-154877
1711.53-222067-189127-167929-184976-142863-103810
1714.42-84253-5991-163651-100396-163802 287713
1717.31 1337-95380 13754-134730-84921-166659
1720.21-125231-148797-166932-142454-176716-115820
1723.10-107188-131933-116124-121186-134436-129768
1725.99-134298-140793-145595-144255-91517-158600
1728.89-103497-84946-84938-114787-119649-151182
1731.78-105159-158632 205320-28750 6367 275028
1734.67-154234-95771-139461-61515-124898-83826
1737.56-108427-31442-65411 12709 92750-36587
1740.46-49678 24145 12540 11536 46322 45616
1743.35 4222 32953 61085 116907 86648 79182
1746.24 75708 112826 82191 56781 164178 139756
1749.13 142220 131987 90979 259563 290027 118208
1752.03 116346 134075 119178 134955 107122 114271
1754.92 72323 88425 121581 155273 57503 42256
1757.81-3655 37745 26800 17841 15413 43164
1760.71-18061 139160 45774 36426 28592-22793
1763.60 44551 38944-20602 28436 44488 23908
1766.49 104212 82589 192294 207012 84391 161093
1769.38 167633 204326 217228 376447 285965 375838
1772.28 609674 389800 406136 436208 422564 483026
1775.17 533070 506097 536344 534973 548844 549730
1778.06 537217 568499 561605 547303 582197 623022
1780.95 588700 614289 629339 603980 541635 583338
1783.85 550695 656104 647863 566309 525767 494750
1786.74 446944 429615 347078 373112 284376 332935
1789.63 269722 280459 195804 172440 151993 381264
1792.53 316908 211526 281689 308522 299031 327316
1795.42 343678 364924 358148 380319 364667 373729
1798.31 357423 409538 408572 289512 308736 357269
1801.20 334268 309915 372239 317629 323560 312549
1804.10 285706 324945 305856 260812 253166 227629
1806.99 186817 100157 124790 38909 23077-38905
1809.88-76588-50691-147622-187403-153681-192593
1812.77-251732-301793-265541-330801-342920-319329
1815.67-375343-346572-385224-395835-403001-379710
1818.56-431189-398539-398240-365650-437003-432072
1821.45-466657-437378-437241-497175-448032-428170
1824.35-437533-341867-475355-511230-489879-478770
1827.24-484497-452072-473513-456794-467083-368007
1830.13-415462-502606-480168-458171-485418-467044
1833.02-538384-446405-491534-490607-455234-487982
1835.92-495131-451459-502306-465513-432907-480235
1838.81-455794-462990-477832-494962-478316-439242
1841.70-455789-382789-364121-460384-245748-377377
1844.59-426243-364385-425060-309005-370634-393670
1847.49-354928-360522-318242-332434-337234-270414
1850.38-267675-208574-247628-191349-206714-157566
1853.27-61986-90574-24674 47080-33694 54169
1856.17 3343 31869-31206-67697-112588-99330
1859.06-21443-53606 20442-31382-56826 4833
1861.95-58874-9793 6398 53965 90778 52084
1864.84 20919-9500 26051 41269 19025 101073
1867.74 17220-11654 69679 34859-35367 5078
1870.63-49898 27942 43541-3401 19970 18823
1873.52 53240 52678 42092 113554 161712 149457
1876.41 211574 170946 253357 279789 306932 258801
1879.31 312740 349966 391273 402840 415078 465181
1882.20 411933 477407 462616 556883 537003 477179
1885.09 492637 496993 523990 581104 649346 572318
1887.99 481375 493000 580240 527992 599320 658507
1890.88 509590 529557 478940 524368 433084 565867
1893.77 491878 359516 427719 402092 398356 302255
1896.66 362764 250753 257243 245666 258083 262168
1899.56 321303 289428 193665 196399 238330 187427
1902.45 298279 342845 252274 245638 274700 250845
1905.34 305086 382164 320908 321433 340040 322282
1908.23 358570 456851 387235 363425 345609 379038
1911.13 399767 463119 396303 393654 341803 387198
1914.02 348172 418901 332430 335868 282243 304628
1916.91 224273 331524 247942 166957 153676 132580
1919.81 99979 137066 46105 76274-54907-88522
1922.70-71593-117735-197829-189147-253530-249299
1925.59-254123-263790-301435-247792-273415-282554
1928.48-246694-251958-262039-286944-324271-252129
1931.38-305380-314222-256100-273737-293612-258322
1934.27-316799-300563-270975-316794-308797-260685
1937.16-318718-292629-290134-298262-275920-265153
1940.05-317551-314190-323267-276264-263783-276891
1942.95-299043-313421-317112-259225-282119-300870
1945.84-308374-267040-273210-273356-322894-308646
1948.73-294227-264407-285288-263613-274216-280942
1951.63-289779-243505-255511-241770-334434-220684
1954.52-282947-285420-304843-258041-281883-306752
1957.41-300036-271153-289749-239550-286245-318754
1960.30-287596-244963-284222-299498-277508-279721
1963.20-250318-267560-300069-264663-285143-311272
1966.09-269381-287677-267046-281904-252993-263797
1968.98-258706-271938-294526-276652-266798-276014
1971.87-252543-269867-260458-212446-177838-234845
1974.77-400135-288310-307497-257543-299061-228813
1977.66-290232-225348-276781-265996-249157-230616
1980.55-220847-259963-250112-253548-287757-255705
1983.45-257911-246519-255088-217139-234697-221264
1986.34-296450-227166-299973-213409-237620-245675
1989.23-228034-220039-269270-256517-223358-236503
1992.12-270783-233180-294877-212054-289350-202159
1995.02-232083-221240-253676-244771-273452-244019
1997.91-245021-265189-258775-238363-251814-251791
2000.80-246731-275931-295473-224100-276829-274128
2003.69-283708-256477-257293-229342-233151-213315
2006.59-237148-210084-259763-238977-291673-233700
2009.48-273365-273634-232370-253914-258753-276682
2012.37-232180-296600-269877-261273-220236-224247
2015.27-290433-255026-267396-303962-242893-249954
2018.16-272968-273817-248580-259688-238632-245348
2021.05-244565-266918-315542-267909-283865-305372
2023.94-247150-272217-266388-267631-242670-232733
2026.84-299464-263268-286222-209222-252536-256842
2029.73-255150-264898-255180-263827-266200-238836
2032.62-244006-248091-268401-242456-316644-268535
2035.51-294948-278777-300086-259592-296311-253366
2038.41-314182-254432-280540-255937-281398-244963
2041.30-277926-218071-304206-280309-293234-265626
2044.19-280369-291149-283609-272340-247647-262029
2047.09-254346-243079-273572-271768-264631-243856
2049.98-301833-258431-293003-278954-267307-309552
2052.87-283984-322962-260343-265615-276585-295219
2055.76-284657-288806-311061-278508-303990-299749
2058.66-298157-295907-281659-246318-266019-263713
2061.55-300251-271164-289127-266826-310508-250073
2064.44-284375-250939-271235-281926-290274-287769
2067.33-296969-267352-243354-285506-290986-293958
2070.23-284305-268288-267484-277084-276654-256670
2073.12-296082-253464-270355-308069-334384-257545
2076.01-252178-264862-289410-284543-298698-306685
2078.91-282545-287446-316779-281277-300880-227760
2081.80-300928-270709-281823-245582-226532-264408
2084.69-282543-249800-266725-243698-334089-254528
2087.58-293972-272319-276250-290881-274710-245299
2090.48-237191-240888-276743-254956-319207-234850
2093.37-271081-248838-221583-243543-309912-241350
2096.26-292976-277512-269569-287284-296758-201733
2099.15-285830-249787-304200-238074-329531-258548
2102.05-303938-228988-294308-281254-299356-296573
2104.94-304604-275184-303134-311330-215006-236506
2107.83-267602-292815-317117-280905-288252-280719
2110.73-250626-148446-301861-254215-335923-293418
2113.62-315996-268391-301740-173624-248157-308529
2116.51-320192-253142-302609-244624-332854-164026
2119.40-230036-291816-255249-277518-273660-280872
2122.30-305075-229334-193025-254428-278984-235196
2125.19-297181-265998-286800-265372-225970-200838
2128.08-307216-244702-263271-298280-298009-242419
2130.97-244911-239504-256064-207717-296488-207030
2133.87-264932-242970-240288-245752-313911-231855
2136.76-300639-258931-303716-242509-251048-253957
2139.65-264589-245938-289535-239134-245136-182749
2142.55-289829-209734-244999-221309-283088-241228
2145.44-245156-246512-250697-231951-272230-184719
2148.33-292484-237593-267150-251040-190277-216608
2151.22-281745-244198-277351-228512-263457-208932
2154.12-218433-190210-266874-189576-298125-213786
2157.01-270542-213953-221298-248155-283254-239043
2159.90-264514-208895-254885-134185-242649-243546
2162.79-286447-244383-290653-223654-252974-143574
2165.69-228373-201779-293026-179969-248443-185846
2168.58-167470-139172-273677-217099-257056-214089
2171.47-275478-117983-144132-230318-250201-184956
2174.37-200629-223802-162726-39630-233112-111834
2177.26-236028-61935-261292 926-182782-32933
2180.15-159949-167045-66513-200965 4191-104288
2183.04 9355-67864-119212 53029-110696 115123
2185.94-91749 119221-2223-42137 153616-107889
2188.83 281446-102715 354960-108359 220051 120653
2191.72-16782 393602-114227 644582-334895 823321
2194.61-339540 892890-309290 910960-161338 763829
2197.51 66746 598868 279530 439951 539671 278617
2200.40 751788 215366 917970 93553 990787 131057
2203.29 1072765 120297 1112590 140902 1139744 194566
2206.19 1190221 251399 1127447 309166 1076621 364445
2209.08 1104699 378620 1036807 481464 1022305 508441
2211.97 986620 555744 905350 520014 876052 534870
2214.86 855779 523580 790746 515253 739133 426919
2217.76 646834 355640 605497 315064 461138 226257
2220.65 351702 90396 283610-49888 90925-142944
2223.54 32841-5713 150546 116343 249844 237958
2226.43 376745 360651 520478 499924 647506 616695
2229.33 725308 741076 851404 807122 902943 930104
2232.22 964583 977021 1041071 1032086 1144304 1044035
2235.11 1158791 1080006 1134078 1093076 1151909 1082459
2238.01 1120512 1031270 1050881 994585 1019949 969052
2240.90 958939 844097 934114 802813 785523 670543
2243.79 718391 622235 596090 530820 495478 443568
2246.68 419257 350495 336723 273837 238116 151979
2249.58 188346 81748 112676 99728 25869 33980
2252.47-18882-100207-61016-104419-69222-137610
2255.36-149969-194088-156706-210510-248821-206716
2258.25-182211-264547-212129-254133-243392-224725
2261.15-189420-266421-264357-254931-222824-244572
2264.04-233043-274002-233475-267338-233482-267387
2266.93-239815-235825-203231-241533-237159-285853
2269.83-278547-216876-222786-238491-195271-283387
2272.72-234976-239286-244516-244383-219033-240147
2275.61-278977-312403-263404-265052-283401-307081
2278.50-265644-280049-262645-222995-248446-248754
2281.40-247714-242901-259781-246951-235670-219063
2284.29-261182-278320-244953-280198-302213-239769
2287.18-281167-323505-210670-257216-281683-238545
2290.07-223669-239115-220330-249782-301639-206246
2292.97-287525-281581-271586-228450-274864-199455
2295.86-268186-270189-273156-255758-177878-247181
2298.75-273713-212466-218117-226604-282056-249301
2301.65-298072-160847-279275-210228-314792-150232
2304.54-226030-244661-279898-189188-115467-277208
2307.43-261844-232662-72381-153328-285323-216901
2310.32-181656 23825-314588-190087-220432 164087
2313.22-274165-166742-353761 263885-234665-86067
2316.11-310950 330601-104737-129423-327822 393089
2319.00 18849-182568-325798 485600 213173-156173
2321.89-278980 540687 373894-235762-211860 691504
2324.79 494171-293951-78083 840230 495405-371618
2327.68 77616 959215 409279-502397 302312 1113582
2330.57 221756-505663 664441 1102760-126401-309239
2333.47 1088643 883227-404575 101740 1344391 346785
2336.36-476999 695778 1218303-275065-100365 1146436
2339.25 588747-499632 591840 1072045-160253-96095
2342.14 1032146 354494-310736 505734 620976-252854
2345.04 84882 476542 28493-184478 260809-1616
2347.93-85280-122676-103436 30019-49711-108223
2350.82 366069 192414-165308 562283 507005-268650
2353.71 725215 769321-282997 956697 1036368-339249
2356.61 1211608 1081684-343261 1467828 1037647-288054
2359.50 1787261 643003-36173 1973406 218869 433897
2362.39 1966597-213345 1162029 1368588-229557 1781681
2365.29 481383 357336 1703257-260351 1267366 655565
2368.18 144630 1373121-99507 997798 422829 218127
2371.07 835785-199182 872713-44879 576837 213540
2373.96 207675 297539-27885 300560-68571 269920
2376.86-58439 150350-42369 18044-150838-78425
2379.75-155025-118670-158847-159549-226521-165270
2382.64-199125-190389-211658-209169-220315-223968
2385.53-209475-198032-188404-179381-209392-256021
2388.43-226571-247324-216870-217976-267536-191726
2391.32-191529-265663-235386-250184-224912-239077
2394.21-250503-301609-246884-295784-273795-284689
2397.11-248815-254992-274814-298259-250588-301251
2400.00-282263-264958-272738-280892-275097-266771
2402.89-213883-278372-281783-265317-287490-284896
2405.78-289502-242333-289108-291276-240431-263544
2408.68-222199-249870-301472-269966-287765-296026
2411.57-223070-244485-243604-301586-286518-271679
2414.46-267320-325580-305282-286405-259687-275141
2417.35-257615-276136-262564-234368-211434-306573
2420.25-287175-282922-210465-260726-270491-251094
2423.14-270057-276484-247156-329808-239240-309913
2426.03-273094-270722-275790-285790-266107-245856
2428.93-254057-270008-202404-296537-250489-303095
2431.82-227001-242321-253234-279557-251433-244409
2434.71-267095-229376-214468-246045-250458-271453
2437.60-235596-270992-215468-186852-244634-271809
2440.50-283998-257957-193407-256976-242630-264988
2443.39-242319-203801-258903-270653-243501-213170
2446.28-223831-236816-218871-220574-227910-233405
2449.17-198474-290504-204611-275638-266610-196745
2452.07-185465-199263-205919-264686-255993-262485
2454.96-201659-234596-191124-236491-210093-225204
2457.85-207590-214287-166538-248046-211346-208189
2460.75-220207-193749-200418-243839-234668-149132
2463.64-182131-133051-179132-158246-115887-185067
2466.53-143747-144808-131123-75965-110301-104518
2469.42-88525-62876-25923-47731 19820-43949
2472.32 1058-20157 54015 32091 8086 80618
2475.21 96611 102805 183428 119853 150274 168265
2478.10 213284 237426 261401 310867 298262 344246
2480.99 374638 388855 387096 458680 476130 456921
2483.89 516477 540892 600737 592639 626507 658763
2486.78 708284 687272 762096 762465 829042 800502
2489.67 863776 893157 920309 864322 917626 885806
2492.57 923441 897519 961613 904198 952468 862495
2495.46 902991 912339 867612 807000 837258 781309
2498.35 781659 761423 719196 704308 675046 676683
2501.24 604485 575968 544773 470198 499632 401684
2504.14 369208 353389 337436 212063 177605 150971
2507.03 140544 66571 36990-18291-75474-58816
2509.92-152029-140496-178285-188657-204099-221251
2512.81-188039-249660-170447-238628-261370-273630
2515.71-237426-277735-282083-251889-227256-231098
2518.60-253344-277044-255060-272912-287272-259450
2521.49-249505-283022-250064-231263-292865-295104
2524.39-310084-309587-266162-305682-263917-313540
2527.28-274760-331516-279721-292142-317558-261010
2530.17-233274-265495-252374-284714-270760-267849
2533.06-294477-287777-281796-319871-256734-299476
2535.96-320778-285617-260038-307954-265363-256826
2538.85-249796-283085-271320-258149-209935-303599
2541.74-221893-266611-245457-259236-221636-304593
2544.63-225697-295755-293421-259034-209192-268731
2547.53-257284-272789-264433-261900-263607-279684
2550.42-275645-235280-274253-231976-258360-270869
2553.31-284910-294073-280270-242292-243815-268684
2556.21-259819-268855-296355-263694-240544-271166
2559.10-270147-307185-274273-217422-253020-266300
2561.99-275750-287902-272404-249858-274348-238858
2564.88-276328-276785-291893-258374-264421-244863
2567.78-232991-267881-202874-264965-216895-208668
2570.67-275749-229357-293343-244220-257927-265513
2573.56-225227-238587-251736-260120-223526-234436
2576.45-236846-227706-244360-205801-215114-247806
2579.35-197895-239339-262760-293471-246583-255176
2582.24-272259-327736-238194-223726-275822-284601
2585.13-285687-213131-210495-312802-273195-240359
2588.03-235534-246525-257711-277321-257830-270308
2590.92-261011-260609-277014-225572-263376-252249
2593.81-285322-247579-240854-280245-227691-237752
2596.70-279771-293738-265579-295885-279229-260409
2599.60-206800-298933-204362-271158-288953-232661
2602.49-246876-250936-211593-293288-244688-275863
2605.38-240292-245273-282641-234944-257004-255903
2608.27-204278-278751-247478-236199-314922-270963
2611.17-265325-279396-244849-259065-247329-291981
2614.06-292772-286243-270140-259699-238009-276689
2616.95-316567-316492-315076-261997-299077-319132
2619.85-290003-288520-256416-291790-265961-305690
2622.74-281691-288352-289359-277487-281955-301956
2625.63-276409-309281-251836-276981-268082-301941
2628.52-231477-272408-275067-280778-228786-273275
2631.42-277472-242278-259781-260805-273197-259582
2634.31-263821-339608-267890-283571-333633-317521
2637.20-267491-284122-299313-336502-223137-305067
2640.09-295397-342634-297649-309321-288319-303931
2642.99-310819-275478-251088-286213-300721-282850
2645.88-323697-305774-281293-313300-324843-272652
2648.77-323667-323909-282611-332116-320265-340189
2651.67-316603-319394-254442-264823-332521-326761
2654.56-285129-288677-311358-323961-277965-320844
2657.45-298888-275417-305260-346294-294834-320423
2660.34-305292-332084-311901-331368-272219-402855
2663.24-336921-316888-332358-312999-290646-338583
2666.13-311324-266551-304383-274963-344072-306071
2669.02-291775-344981-333442-362248-318058-260382
2671.91-324645-293490-275323-311714-312269-319806
2674.81-291376-317700-316863-259790-289440-290666
2677.70-215332-265597-277010-323292-332221-345242
2680.59-355430-309184-306372-316400-327478-332639
2683.49-320114-256701-286280-327753-286951-305053
2686.38-340727-291567-284788-302935-237136-295357
2689.27-345495-304182-270788-282170-297470-303896
2692.16-342849-335222-313749-283423-329089-330157
2695.06-326173-285900-262935-328545-293517-293512
2697.95-293595-339415-321599-375734-348698-336559
2700.84-294723-288102-273226-304914-267460-262591
2703.73-256880-242268-266967-282171-312928-257830
2706.63-246549-252709-304481-328229-266960-227598
2709.52-381175-315256-324774-335837-281106-300251
2712.41-303208-290505-266798-317155-325225-243086
2715.31-295968-276203-327027-268088-344429-268088
2718.20-273734-296085-321813-286383-272195-233599
2721.09-271011-312702-315367-330619-251174-307576
2723.98-286565-326868-254509-252297-248833-255114
2726.88-246194-287114-243419-243573-292784-269157
2729.77-275474-264166-214859-222850-258865-227153
2732.66-198317-243171-236270-257750-202853-259084
2735.55-171043-184821-291792-239317-233690-231968
2738.45-162743-274738-265418-261963-206186-254737
2741.34-196197-192952-175593-210880-183034-180750
2744.23-189281-192892-178871-177065-196632-197603
2747.12-203647-208748-181760-204525-164306-216508
2750.02-203351-153878-222348-236072-182498-230935
2752.91-243187-157735-239786-224686-263838-237327
2755.80-203823-233992-243686-245443-227214-236976
2758.70-210584-243977-227022-216782-270341-290786
2761.59-193227-265209-272840-265825-278742-232413
2764.48-248573-251807-264277-258567-296453-250266
2767.37-264838-232993-280886-188116-278013-238533
2770.27-252880-179334-252489-227624-206086-236041
2773.16-218003-232759-174301-224347-234794-275649
2776.05-220313-212688-219367-198993-222845-256628
2778.94-236417-216027-212264-177561-223961-271902
2781.84-251885-219172-211637-194961-207548-217627
2784.73-232006-258846-212698-223718-291803-266953
2787.62-198144-161876-228357-215285-222426-316273
2790.52-251963-190234-215806-255443-286587-321650
2793.41-225406-263409-247880-229331-175088-262932
2796.30-212524-223659-250635-176897-278832-328362
2799.19-296829-258528-263174-267622-291437-246330
2802.09-203027-283824-232859-253111-220901-247539
2804.98-246765-221263-271976-210926-239326-312298
2807.87-295589-312264-248872-308778-257358-271232
2810.76-229644-240850-286684-235935-273262-293163
2813.66-243116-313682-266475-274844-339094-278973
2816.55-300459-259270-213559-348916-266085-259636
2819.44-277101-297789-223030-355342-266314-281818
2822.34-227831-287506-269483-358217-256562-262957
2825.23-244435-307077-229842-239918-259220-223621
2828.12-279418-321750-280255-274772-264569-276374
2831.01-252967-320056-294052-274163-220314-311651
2833.91-285131-256745-276679-218585-271965-202433
2836.80-345964-335796-265403-283370-266940-247408
2839.69-235601-266301-309260-247009-278232-246036
2842.58-250253-223842-277893-299747-223690-243478
2845.48-251169-280851-333152-299324-229818-305305
2848.37-253885-295169-228010-287851-239288-258645
2851.26-254379-282572-239409-219146-228220-242136
2854.16-207105-244995-210023-206288-245122-271869
2857.05-251121-151046-209493-195107-216001-268015
2859.94-175287-243417-202021-167307-186033-194326
2862.83-249755-197973-153663-194358-232551-162398
2865.73-197437-132114-170407-184197-160734-191148
2868.62-124924-186535-121738-132814-153211-194363
2871.51-128453-159126-199320-134549-122790-173860
2874.40-106714-103347-124856-158508-153671-154044
2877.30-150859-110671-110860-143099-85654-102769
2880.19-106903-150295-135537-116810-118536-132898
2883.08-64943-103529-112201-99811-90398-97979
2885.98-77681-87003-106135-65141-32662-88988
2888.87-102485-31165-39978-69480-85282-47512
2891.76-15244-38388-89947-115919 1820-38576
2894.65 663-33329-46315 35627 4485 27154
2897.55-9357 30169-55043-24348 33517 15797
2900.44 18626 14960 680-74573 44462-60875
2903.33 33461-21065 53688-41195 18023 11998
2906.22-31563-41658-7111-51114-58868-41587
2909.12-29886-13658-1829-63074-40247-105760
2912.01-73630-131509-97952-114878-44685-108523
2914.90-176000-139618-161003-203872-150192-195256
2917.80-195218-173308-119044-187418-213033-205919
2920.69-146126-217999-237982-209765-214842-158179
2923.58-213823-183715-258941-189190-211641-158431
2926.47-191993-205141-164684-247116-181297-172545
2929.37-265012-150544-210069-162762-214385-217795
2932.26-166501-171470-183178-231047-225420-158746
2935.15-184007-175942-142518-139312-129629-178424
2938.04-127595-176894-200248-209180-143268-174733
2940.94-199227-98973-179672-196431-229743-148054
2943.83-128908-99550-184992-179654-116808-215023
2946.72-120034-191360-218959-163541-139053-146374
2949.62-104704-233250-219103-244009-132183-193223
2952.51-150804-157295-177835-198714-163342-192968
2955.40-173692-123695-193739-204145-248455-145405
2958.29-248599-219032-207618-183492-301503-139244
2961.19-348328-250636 48678-96460-151498-192721
2964.08-160681-150975-157768-187202-169643-178072
2966.97-174604-209131-165042-265263-154817-183401
2969.86-205156-217790-129419-184369-170836-201208
2972.76-163597-152959-113422-140733-112815-156844
2975.65-185701-178411-157836-211317-185805-243023
2978.54-174268-136378-180512-94505-100870-116963
2981.44-140906-106064-101073-128894-140512-68440
2984.33-129299-144691-140321-123897-129891-161065
2987.22-120430-122953-142984-191668-123255-132064
2990.11-130847-211552-134227-148851-169662-128475
2993.01-140927-173904-157501-157054-122721-174279
2995.90-163996-207366-164082-225401-216354-182345
2998.79-205020-192849-211877-147923-209057-181708
3001.68-238020-260511-263277-221832-191005-202746
3004.58-256973-263393-215472-305952-170871-305905
3007.47-179171-245798-237362-229637-216433-237408
3010.36-294801-244505-230561-259291-301331-301548
3013.26-252221-268819-301763-296929-265704-213006
3016.15-291920-296648-230259-224408-321376-230309
3019.04-222388-263960-271527-302960-278516-296866
3021.93-202510-296203-279739-235025-315861-339317
3024.83-261243-301479-276610-258148-293423-328416
3027.72-251212-280872-270804-231288-238625-260663
3030.61-282697-333576-274698-307739-267997-312539
3033.50-337304-265085-252809-280441-288556-253910
3036.40-310403-297319-276214-312820-260340-300093
3039.29-351359-292211-291577-375258-205775-272774
3042.18-209350-317222-280569-281056-310692-347034
3045.08-303655-272437-285008-267696-357728-281604
3047.97-293910-264943-296355-285734-306348-336204
3050.86-255826-309674-279545-243044-269265-272999
3053.75-261717-286124-335269-312890-340774-306063
3056.65-301703-316970-387298-292301-328644-297317
3059.54-284312-286493-325260-205446-226623-258342
3062.43-240513-297580-236046-313195-261407-304434
3065.32-294934-305882-307455-323681-299288-293211
3068.22-291109-289690-332302-294892-304751-307072
3071.11-310420-263946-239882-248414-277066-247528
3074.00-249687-271763-258687-268300-226781-278904
3076.90-281431-282719-367816-336836-331444-249782
3079.79-291107-226624-228217-266639-267271-336960
3082.68-231906-290149-256172-214595-309556-193299
3085.57-257365-295581-239232-283889-266419-261661
3088.47-337306-314066-270585-274763-255415-320698
3091.36-253343-251192-294853-176178-251665-187522
3094.25-226621-268260-256103-285608-227795-177902
3097.14-181706-249896-217099-201758-276669-260893
3100.04-320064-280557-168766-217805-248924-280476
3102.93-233842-206779-196874-212372-281517-217221
3105.82-189651-262366-265468-262338-175742-241988
3108.72-245761-236627-211671-191538-188674-196086
3111.61-162532-164516-226245-184013-217088-221863
3114.50-263503-203485-225189-303680-241632-237151
3117.39-258581-241301-152112-208340-184168-235059
3120.29-157303-174172-205336-215940-179364-226378
3123.18-205521-193116-219486-243107-250140-289898
3126.07-219637-195141-241414-175336-208583-201079
3128.96-226078-249666-124815-191816-157061-223558
3131.86-160996-142614-186001-173844-187470-206584
3134.75-190047-158682-163431-146588-145395-148624
3137.64-174413-184926-175746-188519-227115-148884
3140.54-196376-169272-112288-155616-145187-188323
3143.43-191932-118059-133645-171133-197284-164922
3146.32-193848-212219-220978-191961-247612-109262
3149.21-199602-170113-161760-200521-198561-216418
3152.11-136450-166686-171666-171618-152099-157013
3155.00-100308-176758-148903-200161-179482-182382
3157.89-193692-193862-157519-224160-141425-172551
3160.78-162611-168189-224524-176758-168089-148005
3163.68-113213-189222-182205-108259-192264-155532
3166.57-198819-174739-110655-191764-123408-185043
3169.46-132136-226119-146243-191754-120761-203865
3172.36-198839-167218-154410-157625-132215-185380
3175.25-157058-207605-170462-175044-193694-242681
3178.14-162431-206969-185431-219611-79313-158000
3181.03-245913-181110-135262-193601-209012-162390
3183.93-118061-122911-156051-145989-162621-144980
3186.82-156737-201579-205690-199664-180298-177857
3189.71-218649-219247-116883-244232-212985-140627
3192.60-151272-310512-132885-223315-133831-162216
3195.50-248469-243311-218032-114688-152151-139590
3198.39-200585-122338-186764-131008-188526-150324
3201.28-161971-136456-179095-208083-198258-206358
3204.18-234095-281510-237628-214273-220829-199051
3207.07-201792-200729-208106-163251-231674-136062
3209.96-241289-133900-209636-169693-168541-152504
3212.85-87216-139312-219551-158683-137293-142154
3215.75-222347-211478-154416-184586-343980-253586
3218.64-299530-170264-198076-193663-183948-236878
3221.53-187496-164949-149048-148552-173041-181819
3224.42-110487-152039-176230-183057-218989-107168
3227.32-231450-212275-168790-204871-168526-198657
3230.21-193190-178964-170929-158238-149344-170554
3233.10-108485-192081-136750-177706-222142-149977
3236.00-191713-194084-213895-124670-186392-190394
3238.89-205514-239466-208847-190996-153698-67298
3241.78-152694-183389-153339-149846-163982-274539
3244.67-217447-115249-192778-162278-177428-161344
3247.57-232567-132579-125085-199748-99307-136002
3250.46-76875-106686-156176-187429-149020-190107
3253.35-196772-176516-167732-94374-101868-147036
3256.24-86460-141562-135411-109586-140564-99657
3259.14-168102-155654-129011-163149-132070-97098
3262.03-189204-118223-145723-128503-112889-108219
3264.92-145769-107977-180987-155043-126383-156748
3267.82-102511-133399-188632-225943-138266-217827
3270.71-131001-117506-164477-154316-121257-108903
3273.60-126574-160243-144619-150882-164648-147750
3276.49-107833-140741-184229-100281-114537-118015
3279.39-123699-134717-130775-84712-195239-126305
3282.28-136684-177185-165201-90680-126139-114669
3285.17-80574-130330-137653-137235-87790-177023
3288.06-32780-126238-119106-75780-119806-206067
3290.96-170358-213118-173520-219974-125101-159278
3293.85-185784-157875-99736-98933-133617-85738
3296.74-124722-110156-148398-140480-192824-154654
3299.64-148174-200940-213622-142375-197018-131892
3302.53-162883-156813-120315-219330-199589-176612
3305.42-162666-104857-161229-149395-134515-147339
3308.31-126298-172519-168131-227885-174968-191213
3311.21-79766-211042-170226-168003-138753-133133
3314.10-35030-215079-253091-164832-202952-117910
3316.99-154258-206749-145980-181167-183574-211863
3319.88-161933-231189-171263-180979-233634-177351
3322.78-207005-175463-115488-156020-156885-194515
3325.67-175518-190209-145729-199975-195017-157337
3328.56-116533-157901-138144-159229-234940-150395
3331.46-192174-162501-123739-180906-210171-180634
3334.35-238762-243532-183891-209032-154889-243762
3337.24-188952-219402-226138-142960-114693-295824
3340.13-220229-198079-209275-161558-212401-180865
3343.03-142924-56706-172904-205575-156033-182290
3345.92-185488-174697-234511-225318-188133-271421
3348.81-272604-163444-182193-195786-228563-153539
3351.70-224481-206140-211290-226380-264908-266230
3354.60-232101-300217-181316-203323-191341-217023
3357.49-204002-157380-173716-222918-268934-224662
3360.38-248280-257723-153047-275546-280701-223341
3363.28-229384-281506-237522-213093-218212-265093
3366.17-163577-241023-257588-187656-331427-210645
3369.06-217018-178026-230589-215040-247013-294051
3371.95-259236-265596-207116-244598-174981-253169
3374.85-294432-244363-317149-184112-183109-182901
3377.74-257189-174080-240748-183071-210795-256142
3380.63-301444-260563-250317-164412-231440-248539
3383.52-198942-240917-195057-254102-207447-158920
3386.42-173766-219451-258362-220164-134145-220302
3389.31-238218-221938-140819-249354-252576-134121
3392.20-247048-241715-296381-219347-226409-267503
3395.10-227531-161070-191237-161805-226334-277402
3397.99-269091-163123-221054-236501-281128-235689
3400.88-284490-263478-252118-220333-301145-309934
3403.77-169352-230627-283693-251054-260146-250338
3406.67-230704-213734-233350-229226-145149-244061
3409.56-280291-186053-189778-210215-187241-235422
3412.45-215495-223131-182637-195524-230628-288937
3415.34-269616-222604-162151-210652-186970-299276
3418.24-267081-277697-235423-162601-210077-238486
3421.13-240617-277185-222499-278877-264537-188104
3424.02-238324-337638-249334-229353-238358-226507
3426.92-173897-244893-211653-256410-161014-215097
3429.81-239658-184534-200054-226983-222073-191732
3432.70-255055-125289-254096-239239-263983-233416
3435.59-317284-189182-302961-142115-112357-250690
3438.49-189537-267809-254904-179957-217219-289844
3441.38-175773-253140-206471-136549-265853-230170
3444.27-227479-142329-311220-211479-106949-236532
3447.16-241796-248600-113531-214886-320202-230556
3450.06-210043-290194-187467-287400-238203-224270
3452.95-215004-195085-283079-167902-199272-171807
3455.84-50132-201627-320825-185408-250506-226808
3458.74-232038-136253-196789-211493-216413-284837
3461.63-239138-244228-209075-194736-212327-217733
3464.52-203619-278281-235087-172904-203009-198232
3467.41-209630-163687-259208-178881-194450-224423
3470.31-174474-279675-184510-249025-223884-114533
3473.20-202321-354988-226670-243961-216473-186494
3476.09-219703-190804-329286-211482-223007-207850
3478.98-180961-223590-195963-221801-259581-170370
3481.88-263188-166878-212132-220713-164905-281531
3484.77-282405-277000-228630-210603-261089-238720
3487.66-242617-277104-162385-203947-269048-226977
3490.56-173302-219454-245668-144097-241595-179010
3493.45-298424-139179-208187-236742-235557-242197
3496.34-265261-244184-284325-182126-223149-214375
3499.23-240186-206116-193124-228147-207482-173636
3502.13-178515-191349-175870-309386-260904-277464
3505.02-270642-305233-326504-289701-282757-260773
3507.91-221816-370448-264969-281756-310225-370614
3510.80-268434-233132-366181-248919-313448-177633
3513.70-311351-254773-283676-358020-273708-315798
3516.59-351583-293389-292036-250174-349198-311515
3519.48-339394-267157-330021-199516-282744-262025
3522.38-278399-258687-333391-180732-248073-317681
3525.27-310386-295306-328016-247644-299113-289337
3528.16-323219-226384-317416-341316-282407-342650
3531.05-377784-354503-265017-252958-249980-290588
3533.95-258581-266598-204784-195556-338472-361935
3536.84-263907-315195-308358-319640-365286-314311
3539.73-395159-366633-345395-405187-298478-268395
3542.62-342352-203250-248127-255017-239453-142878
3545.52-246917-256100-224399-263747-288608-181118
3548.41-262523-287469-312417-277856-327584-310771
3551.30-301373-336563-315952-296115-271603-238718
3554.20-213072-267426-216306-260144-172274-228381
3557.09-272992-219167-253830-257959-227867-288969
3559.98-294336-248996-282098-244673-238288-215959
3562.87-191433-246817-236430-261572-237884-104846
3565.77-227420-250309-214215-154536-137372-260572
3568.66-268073-214302-234951-187422-243709-212384
3571.55-196967-221432-240999-215594-175163-249075
3574.44-273639-242889-168771-272402-280461-194144
3577.34-252673-209523-166392-184520-232118-231067
3580.23-207101-213850-264809-147007-213383-306321
3583.12-204057-245804-195043-140963-236941-268464
3586.02-28196-208075-194572-246374-157641-108314
3588.91-272706-192404-113400-229648-245366-248354
3591.80-244672-229369-277672-286678-193096-192621
3594.69-223178-173742-167424-268981-296731-210862
3597.59-163487-185779-334838-219272-190059-259934
3600.48-192713-229831-274525-297813-213387-224338
3603.37-327165-248526-223600-297479-241060-304226
3606.26-299362-176800-283170-246311-227268-53708
3609.16-161500-222861-311768-263998-255553-266523
3612.05-140903-278058-223987-274552-207473-311413
3614.94-314328-263270-288993-329486-262134-225124
3617.84-285134-250921-207174-79192-306903-266656
3620.73-236098-294969-212779-289010-287461-258435
3623.62-372100-253026-228848-227157-253411-207142
3626.51-191564-230254-251980-92856-348451-84581
3629.41-133826-294607-184768-285645-286374-328876
3632.30-281947-390922-269554-353143-428405-343303
3635.19-361284-325975-357492-240280-261413-239542
3638.08-233132-151359-263222-246915-250130-242716
3640.98-211358-267455-275352-274808-271708-319621
3643.87-333426-369218-238260-314604-212704-287665
3646.76-219589-235987-297010-310874 21644-211759
3649.66-249559-228556-246910-235334-295860-354655
3652.55-285687-307604-345282-386846-343827-321554
3655.44-303509-145313-299070-298324-308538-395758
3658.33-377292-318920-364666-375455-319059-272163
3661.23-310730-341799-339423-303599-307835-312874
3664.12-355573-362842-357816-300865-329992-303303
3667.01-311203-433210-270221-208175-322300-266011
3669.90-137880-10784-386270-273360-385301-288551
3672.80-300938-239137-323383-133866-217957-169412
3675.69-115722-335813-297301-389655-323424-338347
3678.58-290258-248691-372400-316676-348452-341095
3681.48-268578-267081-249588-247100-335615-276828
3684.37-351600-259873-295864-335521-365066-279483
3687.26-346281-59036-52399-396073-418081-361582
3690.15-286264-268701-213936-341131-229062-315040
3693.05-326882-340138-420957-297855-393081-332112
3695.94-284787-301047-415647-268302-314349-411489
3698.83-338973-310035-299145-358918-386707-196136
3701.72-286955-303722-372429-253868-308779-350569
3704.62-245403-253269-262914-216504-276880-287736
3707.51-311006-214655-228883-164344-289708-346730
3710.40-290932-282707-186074-67675-355310-251391
3713.30-353054-354495-260801-310944-336344-341028
3716.19-346459-264054-310703-308505-347719-245744
3719.08-351100-283447-302190-259273-282195-291036
3721.97-244292-261451-307192-292597-226337-267700
3724.87-293688-218532-303826-249441-276110-321796
3727.76-271705-277907-351826-309317-315128-320371
3730.65-274232-289579-60984-220839-358009-246470
3733.54-333270-189958-193545-203975-345334-282806
3736.44-82816-286871-237671-329072-270078-261210
3739.33-304610-283138-299999-234738-340721-316959
3742.22-333880-276712-223363-186092 229238-160737
3745.12-316438-349365-319782-341718-273783-251543
3748.01-380807-190526 79404-280432-286981-308977
3750.90-278391-141534 103108-359898-322136-372729
3753.79-289982-309180-308197-313892-244052-213380
3756.69-279520-299631-336307-277395-318843-341856
3759.58-286394-333024-312745-351344-311707-356334
3762.47-389136-290109-337573-312714-355051-266012
3765.36-207951-338718-262391-288529-296270-359266
3768.26-303430-375890-146791-234312-328852-353238
3771.15-329724-349682-323574-333670-298873-323570
3774.04-259040-314316-329705-307333-303851-317335
3776.94-265599-317600-314759-356666-272768-267416
3779.83-430106-322660-319543-335277-360179-340675
3782.72-321110-338534-359295-201836-332155-336969
3785.61-301184-330535-339049-347616-379240-366737
3788.51-246201-288528-358672-220081-268123-319128
3791.40-362402-284080-378401-283566-347406-333370
3794.29-237540-328340-359788-227527-242441-309475
3797.18-397758-302543-367934-300494-345566-343534
3800.08-316803-208482 85152-252991-282825-294335
3802.97-286192-336844-249082-277190-359918-298737
3805.86-297118-79442-177780-315761-261561-309654
3808.76-291298-295855-301682-407092-283038-391403
3811.65-296278-334975-353237-327621-381626-267044
3814.54-241344-397569 87607-118572-338058-358521
3817.43-347133-305953-322845-291136-282541-256748
3820.33-184969-237421-126026-294016-294986-266652
3823.22-296533-299920-324346-393231-338007-302140
3826.11-293653-268906-340891-342811-330092-316890
3829.00-315484-347872-227237-313788-273947-217167
3831.90-312402-270725-355002-292719-383342-141628
3834.79-284541-332768-348410-292584-345624-38041
3837.68-85581-352031-360784-370407-254283-306900
3840.58-216846-275141-292928-394162-299140-246440
3843.47-262266-313085-273836-392917-305176-313185
3846.36-333697-341355-262987-354189-293671-359014
3849.25-293628-350029-262441-347939-230681 10508
3852.15-316723-261618-241889 203636 8491-285101
3855.04-293451-331699-329578-326350-353057-371304
3857.93-271220-301067-370350-349043-457363-390657
3860.82-288321-257723-342585-332046-403333-367471
3863.72-441695-320062-199205-381493-279444-331535
3866.61-325532-360903-252552-411188-239610-380215
3869.50-130739-272030-353431-293493-354720-334526
3872.40-391525-411998-355163-269376-414228-388859
3875.29-383292-429336-327405-433103-290523-372389
3878.18-333704-381886-300436-301801-328790-320380
3881.07-391839-386074-356804-391262-341571-427011
3883.97-410875-460046-258987-124676-346707-360768
3886.86-335785-371114-376426-400197-300531-415950
3889.75-386114-341997-240178-275090-366150-365011
3892.64-338664-384215-292911-372593-416014-361110
3895.54-387505-448324-413179-377623-346059-337264
3898.43-383513-295492-370000-300518-349340-359911
3901.32-230261-375261-363759-348033-286368-138707
3904.22-354487-334948-322867-368148-352574-381950
3907.11-378251-445166-396574-425257-349655-451513
3910.00-335421-424280-425941-341224-396443-372486
3912.89-377428-330856-381634-385681-376523-468432
3915.79-306315-433770-259158-369849-394060-493302
3918.68-374278-343591-327094-333613-408149-389782
3921.57-416244-343786-296800-355185-373776-356016
3924.46-352642-344289-324109-304935-304832-365796
3927.36-385464-373459-374077-290628-398404-332395
3930.25-434833-372114-368534-386578-338187-322732
3933.14-359867-371160-386132-302920-348105-316414
3936.04-292518-399112-245472-345714-392393-405473
3938.93-274532-368353-311013-290869-340559-362778
3941.82-300801-305061-321182-360794-302987-424516
3944.71-398944-400747-309732-344196-309379-360565
3947.61-334751-329510-398409-282400-269243-264353
3950.50-256306-375804-311080-312804-313926-369816
3953.39-342027-379989-406275-329861-330686-340419
3956.28-318284-380315-343035-362915-263828-233049
3959.18-329603-301004-294966-351522-315837-328834
3962.07-403314-409206-359216-378102-341635-256584
3964.96-325433-309148-364029-348486-329365-332651
3967.86-352169-389191-351932-338586-322071-267999
3970.75-332552-325418-257551-327311-356097-337349
3973.64-295755-318428
##END=
