##TITLE=ERGOTAMINE, DIHYDRO-, MONOMETHANESULFONATE (SALT)
##JCAMP-DX=4.24
##DATA TYPE=INFRARED SPECTRUM
##CLASS=COBLENTZ II
##ORIGIN=K. K. DEB-NCI FREDERICK CANCER RESEARCH CENTER
##OWNER=Copyright (C) 1987 by the Coblentz Society
Collection (C) 2018 copyright by the U.S. Secretary of Commerce
on behalf of the United States of America. All rights reserved.
##DATE=1973/08/18
##NAMES=2,6-ditert-butyl-4-methylphenol
PHENOL, 2,6-DI-Tert-BUTYL-4-METHYL-
##CAS REGISTRY NO=128-37-0
##MOLFORM=C15 H24 O
##MP=69 C
##BP=266 C
##SOURCE REFERENCE=COBLENTZ NO. 9009
##$NIST SOURCE=COBLENTZ
##$NIST IMAGE=cob9009
##SPECTROMETER/DATA SYSTEM=PERKIN-ELMER 180 (GRATING)
##INSTRUMENT PARAMETERS=GRATINGS: 2000, 1000, 500, 250 CM^-^1; FILTER CHANGE: 2970, 2000, 1485, 1000, 743, 500, 372, 250, 186 CM^-^1.
##STATE=SOLID (1 mg / 300 mg KBr DISC)
$$ PURITY - ANALYTICAL
##SAMPLING PROCEDURE=TRANSMISSION
##RESOLUTION=2
##DATA PROCESSING=DIGITIZED BY COBLENTZ SOCIETY (BATCH II) FROM HARD COPY
##XUNITS=1/CM
##YUNITS=TRANSMITTANCE
##XFACTOR=1.0
##YFACTOR=1
##FIRSTX=369
##LASTX=3790
##FIRSTY=0.8912
##MAXX=3790
##MINX=369
##MAXY=0.9612
##MINY=0.11
##NPOINTS=3422
##XYDATA=(X++(Y..Y))
369.000000 0.8912 0.8909 0.8912 0.8916 0.8919
374.000000 0.8927 0.8936 0.8945 0.8957 0.8971
379.000000 0.8992 0.9012 0.9034 0.9058 0.9082
384.000000 0.9105 0.9120 0.9135 0.9150 0.9165
389.000000 0.9172 0.9175 0.9178 0.9180 0.9183
394.000000 0.9181 0.9176 0.9171 0.9166 0.9160
399.000000 0.9155 0.9149 0.9143 0.9138 0.9132
404.000000 0.9132 0.9132 0.9132 0.9134 0.9139
409.000000 0.9144 0.9150 0.9155 0.9161 0.9170
414.000000 0.9182 0.9194 0.9206 0.9219 0.9231
419.000000 0.9243 0.9256 0.9268 0.9280 0.9293
424.000000 0.9305 0.9317 0.9323 0.9329 0.9336
429.000000 0.9330 0.9348 0.9342 0.9335 0.9328
434.000000 0.9320 0.9307 0.9286 0.9266 0.9245
439.000000 0.9225 0.9203 0.9170 0.9138 0.9106
444.000000 0.9073 0.9041 0.9009 0.8962 0.8913
449.000000 0.8867 0.8845 0.8843 0.8852 0.8861
454.000000 0.8891 0.8949 0.9006 0.9064 0.9121
459.000000 0.9147 0.9147 0.9148 0.9137 0.9040
464.000000 0.8943 0.8847 0.8750 0.8646 0.8659
469.000000 0.8739 0.8891 0.9044 0.9196 0.9348
474.000000 0.9380 0.9410 0.9436 0.9459 0.9482
479.000000 0.9503 0.9518 0.9533 0.9549 0.9563
484.000000 0.9569 0.9574 0.9580 0.9586 0.9592
489.000000 0.9596 0.9596 0.9597 0.9598 0.9598
494.000000 0.9599 0.9600 0.9600 0.9601 0.9602
499.000000 0.9599 0.9612 0.9593 0.9591 0.9588
504.000000 0.9585 0.9582 0.9575 0.9569 0.9563
509.000000 0.9556 0.9550 0.9544 0.9537 0.9531
514.000000 0.9524 0.9518 0.9512 0.9506 0.9500
519.000000 0.9494 0.9488 0.9482 0.9476 0.9469
524.000000 0.9469 0.9471 0.9474 0.9476 0.9480
529.000000 0.9486 0.9492 0.9498 0.9505 0.9510
534.000000 0.9516 0.9522 0.9528 0.9532 0.9534
539.000000 0.9535 0.9537 0.9539 0.9541 0.9541
544.000000 0.9541 0.9540 0.9539 0.9538 0.9537
549.000000 0.9536 0.9535 0.9534 0.9533 0.9530
554.000000 0.9528 0.9525 0.9522 0.9520 0.9517
559.000000 0.9514 0.9508 0.9500 0.9492 0.9484
564.000000 0.9467 0.9441 0.9415 0.9381 0.9344
569.000000 0.9307 0.9270 0.9231 0.9189 0.9147
574.000000 0.8906 0.8664 0.8423 0.8182 0.7924
579.000000 0.7958 0.7954 0.8295 0.8686 0.9078
584.000000 0.9378 0.9406 0.9432 0.9445 0.9457
589.000000 0.9469 0.9478 0.9482 0.9484 0.9486
594.000000 0.9483 0.9479 0.9476 0.9472 0.9462
599.000000 0.9449 0.9435 0.9422 0.9403 0.9376
604.000000 0.9348 0.9321 0.9293 0.9264 0.9236
609.000000 0.9207 0.9179 0.9150 0.9110 0.9070
614.000000 0.9033 0.9006 0.8979 0.8973 0.8961
619.000000 0.9036 0.9104 0.9172 0.9240 0.9308
624.000000 0.9333 0.9327 0.9321 0.9314 0.9306
629.000000 0.9302 0.9311 0.9331 0.9358 0.9384
634.000000 0.9410 0.9427 0.9444 0.9460 0.9475
639.000000 0.9478 0.9481 0.9485 0.9488 0.9487
644.000000 0.9485 0.9482 0.9480 0.9478 0.9476
649.000000 0.9474 0.9472 0.9470 0.9469 0.9469
654.000000 0.9469 0.9469 0.9468 0.9471 0.9474
659.000000 0.9477 0.9480 0.9483 0.9486 0.9489
664.000000 0.9492 0.9495 0.9499 0.9502 0.9511
669.000000 0.9524 0.9537 0.9550 0.9561 0.9566
674.000000 0.9570 0.9575 0.9559 0.9584 0.9588
679.000000 0.9590 0.9589 0.9588 0.9587 0.9586
684.000000 0.9585 0.9584 0.9583 0.9582 0.9579
689.000000 0.9575 0.9572 0.9568 0.9565 0.9561
694.000000 0.9558 0.9554 0.9551 0.9547 0.9543
699.000000 0.9538 0.9534 0.9529 0.9524 0.9519
704.000000 0.9515 0.9510 0.9505 0.9501 0.9496
709.000000 0.9491 0.9487 0.9483 0.9479 0.9475
714.000000 0.9471 0.9467 0.9463 0.9458 0.9454
719.000000 0.9451 0.9449 0.9448 0.9446 0.9444
724.000000 0.9442 0.9440 0.9439 0.9438 0.9437
729.000000 0.9437 0.9436 0.9436 0.9435 0.9434
734.000000 0.9434 0.9433 0.9432 0.9430 0.9429
739.000000 0.9428 0.9426 0.9421 0.9404 0.9388
744.000000 0.9371 0.9355 0.9333 0.9302 0.9270
749.000000 0.9238 0.9206 0.9174 0.9142 0.9095
754.000000 0.9049 0.9002 0.8956 0.8909 0.8851
759.000000 0.8711 0.8582 0.8474 0.8365 0.7928
764.000000 0.7050 0.6172 0.5295 0.4807 0.4813
769.000000 0.5097 0.5570 0.6044 0.6314 0.6357
774.000000 0.6395 0.6676 0.7041 0.7407 0.7773
779.000000 0.8139 0.8505 0.8871 0.9236 0.9376
784.000000 0.9408 0.9440 0.9456 0.9467 0.9479
789.000000 0.9490 0.9495 0.9496 0.9483 0.9498
794.000000 0.9499 0.9498 0.9496 0.9495 0.9492
799.000000 0.9485 0.9477 0.9470 0.9452 0.9431
804.000000 0.9409 0.9388 0.9365 0.9200 0.9035
809.000000 0.8869 0.8704 0.8664 0.8671 0.8864
814.000000 0.9030 0.9196 0.9351 0.9400 0.9431
819.000000 0.9453 0.9474 0.9475 0.9476 0.9477
824.000000 0.9462 0.9473 0.9468 0.9463 0.9455
829.000000 0.9446 0.9435 0.9425 0.9415 0.9407
834.000000 0.9398 0.9390 0.9384 0.9379 0.9373
839.000000 0.9368 0.9362 0.9353 0.9340 0.9326
844.000000 0.9313 0.9298 0.9276 0.9254 0.9233
849.000000 0.9211 0.9179 0.9137 0.9094 0.9052
854.000000 0.8993 0.8919 0.8845 0.8765 0.8654
859.000000 0.8543 0.7979 0.7114 0.6249 0.5384
864.000000 0.4519 0.3654 0.2996 0.3172 0.3917
869.000000 0.4662 0.5407 0.6153 0.6898 0.7643
874.000000 0.8389 0.8996 0.9017 0.9026 0.9022
879.000000 0.9004 0.8915 0.8775 0.8635 0.8495
884.000000 0.8354 0.8214 0.8074 0.7996 0.8010
889.000000 0.8132 0.8368 0.8604 0.8840 0.9060
894.000000 0.9066 0.9073 0.9081 0.9098 0.9132
899.000000 0.9190 0.9246 0.9281 0.9293 0.9305
904.000000 0.9311 0.9317 0.9323 0.9328 0.9334
909.000000 0.9340 0.9340 0.9336 0.9332 0.9327
914.000000 0.9320 0.9311 0.9302 0.9296 0.9289
919.000000 0.9282 0.9262 0.9243 0.9223 0.9203
924.000000 0.9185 0.9169 0.9154 0.9138 0.9122
929.000000 0.9106 0.9020 0.8917 0.8813 0.8710
934.000000 0.8656 0.8666 0.8712 0.8820 0.8928
939.000000 0.9036 0.9127 0.9144 0.9140 0.9130
944.000000 0.9114 0.9098 0.9073 0.9033 0.8981
949.000000 0.8966 0.8968 0.8976 0.8995 0.9027
954.000000 0.9068 0.9105 0.9129 0.9147 0.9162
959.000000 0.9184 0.9181 0.9183 0.9181 0.9177
964.000000 0.9171 0.9165 0.9159 0.9154 0.9148
969.000000 0.9141 0.9134 0.9128 0.9121 0.9114
974.000000 0.9107 0.9101 0.9094 0.9087 0.9081
979.000000 0.9075 0.9068 0.9062 0.9056 0.9049
984.000000 0.9043 0.9037 0.9031 0.9024 0.9017
989.000000 0.9010 0.9002 0.8995 0.8987 0.8979
994.000000 0.8972 0.8964 0.8957 0.8949 0.8942
999.000000 0.8934 0.8927 0.8920 0.8912 0.8905
1004.000000 0.8897 0.8890 0.8882 0.8874 0.8866
1009.000000 0.8857 0.8849 0.8841 0.8829 0.8813
1014.000000 0.8786 0.8756 0.8715 0.8614 0.8477
1019.000000 0.8340 0.8203 0.8066 0.7929 0.7797
1024.000000 0.7718 0.7693 0.7727 0.7704 0.7838
1029.000000 0.8005 0.8173 0.8318 0.8377 0.8413
1034.000000 0.8446 0.8478 0.8510 0.8541 0.8566
1039.000000 0.8592 0.8618 0.8640 0.8660 0.8681
1044.000000 0.8701 0.8719 0.8729 0.8740 0.8751
1049.000000 0.8761 0.8772 0.8783 0.8788 0.8793
1054.000000 0.8798 0.8803 0.8809 0.8813 0.8813
1059.000000 0.8814 0.8814 0.8814 0.8815 0.8815
1064.000000 0.8837 0.8813 0.8811 0.8809 0.8807
1069.000000 0.8805 0.8803 0.8800 0.8797 0.8794
1074.000000 0.8791 0.8788 0.8785 0.8778 0.8770
1079.000000 0.8763 0.8756 0.8744 0.8732 0.8719
1084.000000 0.8707 0.8694 0.8682 0.8669 0.8653
1089.000000 0.8637 0.8621 0.8598 0.8567 0.8536
1094.000000 0.8505 0.8474 0.8443 0.8410 0.8378
1099.000000 0.8345 0.8306 0.8259 0.8211 0.8164
1104.000000 0.8116 0.8058 0.7993 0.7928 0.7861
1109.000000 0.7650 0.7510 0.7340 0.7067 0.6793
1114.000000 0.6519 0.6245 0.5971 0.5697 0.5424
1119.000000 0.5226 0.5236 0.5233 0.5591 0.6018
1124.000000 0.6446 0.6874 0.7302 0.7312 0.7311
1129.000000 0.7305 0.7169 0.6926 0.6683 0.6441
1134.000000 0.6198 0.5955 0.5712 0.5469 0.5226
1139.000000 0.4983 0.4741 0.4498 0.4255 0.4012
1144.000000 0.3769 0.3526 0.3283 0.3040 0.2798
1149.000000 0.2715 0.2711 0.2724 0.3041 0.3246
1154.000000 0.3451 0.3656 0.3861 0.4066 0.4271
1159.000000 0.4476 0.4681 0.4886 0.5091 0.5296
1164.000000 0.5501 0.5706 0.5911 0.6116 0.6321
1169.000000 0.6526 0.6731 0.6868 0.6942 0.7016
1174.000000 0.7167 0.7202 0.7227 0.7252 0.7261
1179.000000 0.7264 0.7259 0.7256 0.7241 0.7226
1184.000000 0.7201 0.7155 0.7097 0.7016 0.6928
1189.000000 0.6839 0.6751 0.6662 0.6574 0.6486
1194.000000 0.6397 0.6309 0.6220 0.6128 0.6056
1199.000000 0.6005 0.5964 0.5924 0.5882 0.5839
1204.000000 0.5684 0.5497 0.5310 0.5123 0.4936
1209.000000 0.4749 0.4561 0.4374 0.4250 0.4238
1214.000000 0.4291 0.4564 0.4837 0.5109 0.5382
1219.000000 0.5618 0.5618 0.5603 0.5600 0.5200
1224.000000 0.4989 0.4778 0.4567 0.4356 0.4145
1229.000000 0.4021 0.4026 0.4098 0.4299 0.4501
1234.000000 0.4702 0.4903 0.5105 0.5306 0.5507
1239.000000 0.5709 0.5905 0.5877 0.5839 0.5750
1244.000000 0.5662 0.5573 0.5484 0.5478 0.5566
1249.000000 0.5791 0.6015 0.6239 0.6464 0.6688
1254.000000 0.6913 0.7085 0.7136 0.7139 0.7145
1259.000000 0.7134 0.7053 0.6972 0.6891 0.6810
1264.000000 0.6729 0.6659 0.6626 0.6726 0.7282
1269.000000 0.7839 0.8250 0.8344 0.8399 0.8436
1274.000000 0.8466 0.8479 0.8492 0.8501 0.8498
1279.000000 0.8500 0.8495 0.8490 0.8485 0.8478
1284.000000 0.8471 0.8457 0.8440 0.8401 0.8350
1289.000000 0.8299 0.8248 0.8199 0.8150 0.8092
1294.000000 0.8019 0.7947 0.7874 0.7801 0.7729
1299.000000 0.7656 0.7583 0.7511 0.7438 0.7365
1304.000000 0.7293 0.7285 0.7281 0.7287 0.7382
1309.000000 0.7476 0.7571 0.7666 0.7760 0.7855
1314.000000 0.7949 0.8044 0.8138 0.8199 0.8265
1319.000000 0.8354 0.8442 0.8500 0.8557 0.8602
1324.000000 0.8636 0.8666 0.8687 0.8707 0.8727
1329.000000 0.8731 0.8736 0.8740 0.8740 0.8739
1334.000000 0.8772 0.8733 0.8726 0.8720 0.8708
1339.000000 0.8696 0.8676 0.8653 0.8620 0.8582
1344.000000 0.8538 0.8489 0.8437 0.8378 0.8300
1349.000000 0.8195 0.8100 0.8013 0.7879 0.7633
1354.000000 0.7288 0.6944 0.6600 0.6255 0.5911
1359.000000 0.5567 0.5223 0.5102 0.5094 0.5101
1364.000000 0.5125 0.5381 0.5654 0.5928 0.6202
1369.000000 0.6475 0.6749 0.7022 0.7296 0.7399
1374.000000 0.7506 0.7686 0.7893 0.8003 0.8032
1379.000000 0.8057 0.8048 0.8042 0.8033 0.7933
1384.000000 0.7739 0.7545 0.7351 0.7156 0.6962
1389.000000 0.6768 0.6574 0.6380 0.6186 0.5992
1394.000000 0.5797 0.5603 0.5409 0.5382 0.5388
1399.000000 0.5685 0.6106 0.6527 0.6949 0.7370
1404.000000 0.7773 0.7770 0.7779 0.7764 0.7758
1409.000000 0.7745 0.7715 0.7646 0.7534 0.7400
1414.000000 0.7139 0.6899 0.6659 0.6419 0.6179
1419.000000 0.5940 0.5700 0.5460 0.5263 0.5151
1424.000000 0.5047 0.4479 0.3456 0.2433 0.1409
1429.000000 0.1333 0.1320 0.1322 0.1357 0.1849
1434.000000 0.2199 0.2549 0.2899 0.3249 0.3599
1439.000000 0.3949 0.4299 0.4759 0.4738 0.4738
1444.000000 0.4691 0.4607 0.4523 0.4439 0.4376
1449.000000 0.4392 0.4395 0.4665 0.4935 0.5205
1454.000000 0.5543 0.5689 0.5753 0.5794 0.5836
1459.000000 0.5877 0.5922 0.5967 0.6012 0.6055
1464.000000 0.6075 0.6095 0.6068 0.6021 0.5974
1469.000000 0.5963 0.6080 0.6222 0.6364 0.6506
1474.000000 0.6648 0.6790 0.6800 0.6773 0.6702
1479.000000 0.6631 0.6559 0.6488 0.6418 0.6420
1484.000000 0.6468 0.6729 0.6989 0.7249 0.7509
1489.000000 0.7770 0.8023 0.8103 0.8162 0.8205
1494.000000 0.8248 0.8311 0.8388 0.8473 0.8534
1499.000000 0.8554 0.8574 0.8595 0.8615 0.8628
1504.000000 0.8637 0.8647 0.8657 0.8666 0.8676
1509.000000 0.8685 0.8692 0.8700 0.8707 0.8715
1514.000000 0.8723 0.8730 0.8738 0.8745 0.8753
1519.000000 0.8760 0.8768 0.8775 0.8782 0.8790
1524.000000 0.8797 0.8802 0.8808 0.8813 0.8818
1529.000000 0.8825 0.8832 0.8839 0.8846 0.8853
1534.000000 0.8860 0.8867 0.8873 0.8880 0.8887
1539.000000 0.8890 0.8892 0.8895 0.8897 0.8898
1544.000000 0.8897 0.8896 0.8895 0.8895 0.8894
1549.000000 0.8893 0.8892 0.8892 0.8892 0.8902
1554.000000 0.8913 0.8923 0.8932 0.8939 0.8946
1559.000000 0.8953 0.8960 0.8963 0.8966 0.8969
1564.000000 0.8972 0.8975 0.9002 0.8978 0.8978
1569.000000 0.8979 0.8979 0.8979 0.8980 0.8980
1574.000000 0.8980 0.8975 0.8971 0.8966 0.8961
1579.000000 0.8957 0.8947 0.8938 0.8929 0.8919
1584.000000 0.8910 0.8903 0.8898 0.8893 0.8889
1589.000000 0.8884 0.8878 0.8871 0.8864 0.8858
1594.000000 0.8834 0.8784 0.8734 0.8684 0.8634
1599.000000 0.8584 0.8534 0.8498 0.8500 0.8508
1604.000000 0.8527 0.8584 0.8641 0.8698 0.8755
1609.000000 0.8811 0.8815 0.8819 0.8819 0.8819
1614.000000 0.8820 0.8818 0.8815 0.8812 0.8807
1619.000000 0.8802 0.8797 0.8792 0.8788 0.8785
1624.000000 0.8783 0.8780 0.8777 0.8775 0.8776
1629.000000 0.8777 0.8779 0.8783 0.8786 0.8789
1634.000000 0.8792 0.8797 0.8803 0.8808 0.8813
1639.000000 0.8818 0.8824 0.8831 0.8837 0.8843
1644.000000 0.8849 0.8855 0.8860 0.8865 0.8870
1649.000000 0.8875 0.8880 0.8885 0.8890 0.8894
1654.000000 0.8899 0.8904 0.8908 0.8913 0.8917
1659.000000 0.8922 0.8926 0.8930 0.8907 0.8937
1664.000000 0.8940 0.8944 0.8947 0.8950 0.8953
1669.000000 0.8954 0.8954 0.8955 0.8956 0.8956
1674.000000 0.8957 0.8958 0.8958 0.8957 0.8954
1679.000000 0.8952 0.8949 0.8946 0.8944 0.8941
1684.000000 0.8938 0.8935 0.8931 0.8928 0.8925
1689.000000 0.8921 0.8918 0.8914 0.8912 0.8910
1694.000000 0.8908 0.8906 0.8904 0.8902 0.8901
1699.000000 0.8901 0.8901 0.8902 0.8902 0.8902
1704.000000 0.8903 0.8903 0.8903 0.8903 0.8903
1709.000000 0.8903 0.8902 0.8902 0.8902 0.8903
1714.000000 0.8904 0.8904 0.8905 0.8906 0.8907
1719.000000 0.8908 0.8909 0.8911 0.8913 0.8915
1724.000000 0.8917 0.8919 0.8921 0.8923 0.8925
1729.000000 0.8927 0.8929 0.8931 0.8932 0.8933
1734.000000 0.8935 0.8936 0.8937 0.8939 0.8938
1739.000000 0.8938 0.8938 0.8937 0.8934 0.8927
1744.000000 0.8921 0.8915 0.8904 0.8885 0.8867
1749.000000 0.8846 0.8790 0.8733 0.8677 0.8620
1754.000000 0.8564 0.8508 0.8451 0.8417 0.8442
1759.000000 0.8453 0.8510 0.8566 0.8622 0.8678
1764.000000 0.8734 0.8791 0.8847 0.8903 0.8942
1769.000000 0.8972 0.9002 0.9026 0.9051 0.9057
1774.000000 0.9058 0.9059 0.9060 0.9061 0.9061
1779.000000 0.9060 0.9060 0.9059 0.9058 0.9057
1784.000000 0.9051 0.9042 0.9033 0.9023 0.9015
1789.000000 0.9006 0.8998 0.8991 0.8995 0.9003
1794.000000 0.9012 0.9023 0.9039 0.9057 0.9075
1799.000000 0.9094 0.9113 0.9127 0.9140 0.9154
1804.000000 0.9154 0.9154 0.9153 0.9151 0.9149
1809.000000 0.9147 0.9145 0.9143 0.9141 0.9139
1814.000000 0.9137 0.9135 0.9134 0.9132 0.9130
1819.000000 0.9129 0.9128 0.9126 0.9125 0.9124
1824.000000 0.9122 0.9121 0.9120 0.9118 0.9118
1829.000000 0.9117 0.9116 0.9116 0.9115 0.9115
1834.000000 0.9114 0.9113 0.9113 0.9112 0.9111
1839.000000 0.9110 0.9108 0.9107 0.9105 0.9104
1844.000000 0.9103 0.9101 0.9115 0.9099 0.9097
1849.000000 0.9095 0.9094 0.9092 0.9090 0.9088
1854.000000 0.9086 0.9085 0.9083 0.9081 0.9079
1859.000000 0.9077 0.9075 0.9073 0.9070 0.9068
1864.000000 0.9065 0.9063 0.9060 0.9058 0.9055
1869.000000 0.9053 0.9050 0.9048 0.9045 0.9043
1874.000000 0.9041 0.9038 0.9036 0.9034 0.9031
1879.000000 0.9029 0.9027 0.9024 0.9022 0.9021
1884.000000 0.9021 0.9021 0.9021 0.9020 0.9020
1889.000000 0.9020 0.9020 0.9019 0.9019 0.9019
1894.000000 0.9019 0.9020 0.9021 0.9022 0.9023
1899.000000 0.9024 0.9025 0.9026 0.9027 0.9029
1904.000000 0.9030 0.9032 0.9033 0.9035 0.9037
1909.000000 0.9039 0.9041 0.9043 0.9045 0.9047
1914.000000 0.9052 0.9053 0.9054 0.9055 0.9057
1919.000000 0.9058 0.9059 0.9061 0.9062 0.9063
1924.000000 0.9064 0.9066 0.9067 0.9068 0.9069
1929.000000 0.9071 0.9072 0.9073 0.9074 0.9076
1934.000000 0.9078 0.9081 0.9083 0.9086 0.9089
1939.000000 0.9092 0.9094 0.9095 0.9096 0.9098
1944.000000 0.9099 0.9100 0.9101 0.9102 0.9103
1949.000000 0.9104 0.9106 0.9107 0.9106 0.9106
1954.000000 0.9105 0.9104 0.9103 0.9102 0.9101
1959.000000 0.9100 0.9100 0.9099 0.9098 0.9097
1964.000000 0.9096 0.9093 0.9090 0.9086 0.9082
1969.000000 0.9078 0.9074 0.9070 0.9066 0.9062
1974.000000 0.9058 0.9054 0.9050 0.9046 0.9044
1979.000000 0.9042 0.9039 0.9037 0.9035 0.9032
1984.000000 0.9030 0.9027 0.9025 0.9023 0.9020
1989.000000 0.9018 0.9017 0.9017 0.9016 0.9016
1994.000000 0.9015 0.9015 0.9015 0.9014 0.9014
1999.000000 0.9014 0.9013 0.9013 0.9013 0.9012
2004.000000 0.9012 0.9012 0.9012 0.9011 0.9011
2009.000000 0.9011 0.9011 0.9011 0.9011 0.9011
2014.000000 0.9011 0.9011 0.9012 0.9012 0.9013
2019.000000 0.9013 0.9014 0.9014 0.9015 0.9015
2024.000000 0.9015 0.9015 0.9016 0.9016 0.9017
2029.000000 0.9017 0.9018 0.9018 0.9018 0.9018
2034.000000 0.9019 0.9019 0.9020 0.9020 0.9021
2039.000000 0.9021 0.9022 0.9022 0.9023 0.9023
2044.000000 0.9024 0.9024 0.9025 0.9025 0.9026
2049.000000 0.9026 0.9027 0.9027 0.9028 0.9029
2054.000000 0.9030 0.9030 0.9031 0.9031 0.9032
2059.000000 0.9032 0.9033 0.9033 0.9034 0.9034
2064.000000 0.9035 0.9035 0.9035 0.9035 0.9036
2069.000000 0.9036 0.9036 0.9036 0.9036 0.9036
2074.000000 0.9037 0.9037 0.9037 0.9037 0.9037
2079.000000 0.9037 0.9038 0.9038 0.9038 0.9038
2084.000000 0.9038 0.9038 0.9039 0.9039 0.9039
2089.000000 0.9039 0.9039 0.9039 0.9040 0.9040
2094.000000 0.9040 0.9039 0.9038 0.9036 0.9035
2099.000000 0.9034 0.9033 0.9031 0.9030 0.9029
2104.000000 0.9028 0.9026 0.9025 0.9024 0.9023
2109.000000 0.9021 0.9020 0.9019 0.9018 0.9016
2114.000000 0.9015 0.9014 0.9013 0.9011 0.9010
2119.000000 0.9009 0.9008 0.9007 0.9006 0.9005
2124.000000 0.9004 0.9003 0.9002 0.9001 0.9000
2129.000000 0.8999 0.8998 0.8996 0.8995 0.8993
2134.000000 0.8992 0.8991 0.8990 0.8988 0.8987
2139.000000 0.8985 0.8984 0.8983 0.8982 0.8980
2144.000000 0.8979 0.8977 0.8976 0.8974 0.8973
2149.000000 0.8972 0.8971 0.8969 0.8968 0.8966
2154.000000 0.8965 0.8963 0.8962 0.8961 0.8961
2159.000000 0.8961 0.8961 0.8961 0.8961 0.8961
2164.000000 0.8962 0.8962 0.8962 0.8962 0.8962
2169.000000 0.8962 0.8963 0.8963 0.8963 0.8963
2174.000000 0.8963 0.8963 0.8964 0.8964 0.8964
2179.000000 0.8963 0.8963 0.8963 0.8963 0.8962
2184.000000 0.8962 0.8961 0.8961 0.8961 0.8961
2189.000000 0.8960 0.8960 0.8959 0.8959 0.8959
2194.000000 0.8959 0.8958 0.8958 0.8957 0.8957
2199.000000 0.8957 0.8957 0.8956 0.8956 0.8955
2204.000000 0.8955 0.8955 0.8955 0.8954 0.8954
2209.000000 0.8953 0.8953 0.8952 0.8951 0.8949
2214.000000 0.8948 0.8946 0.8945 0.8943 0.8942
2219.000000 0.8941 0.8940 0.8938 0.8937 0.8935
2224.000000 0.8934 0.8933 0.8932 0.8930 0.8929
2229.000000 0.8927 0.8926 0.8925 0.8924 0.8922
2234.000000 0.8921 0.8921 0.8921 0.8921 0.8921
2239.000000 0.8921 0.8921 0.8921 0.8922 0.8922
2244.000000 0.8923 0.8926 0.8930 0.8933 0.8937
2249.000000 0.8940 0.8944 0.8946 0.8948 0.8949
2254.000000 0.8951 0.8953 0.8955 0.8955 0.8955
2259.000000 0.8954 0.8954 0.8952 0.8951 0.8948
2264.000000 0.8945 0.8942 0.8939 0.8936 0.8933
2269.000000 0.8930 0.8927 0.8922 0.8917 0.8910
2274.000000 0.8904 0.8897 0.8891 0.8884 0.8877
2279.000000 0.8868 0.8859 0.8850 0.8842 0.8833
2284.000000 0.8824 0.8821 0.8818 0.8820 0.8823
2289.000000 0.8825 0.8827 0.8829 0.8831 0.8833
2294.000000 0.8836 0.8839 0.8843 0.8846 0.8850
2299.000000 0.8853 0.8856 0.8859 0.8863 0.8866
2304.000000 0.8870 0.8873 0.8876 0.8879 0.8883
2309.000000 0.8886 0.8889 0.8891 0.8894 0.8896
2314.000000 0.8899 0.8902 0.8905 0.8907 0.8910
2319.000000 0.8910 0.8911 0.8912 0.8913 0.8913
2324.000000 0.8913 0.8912 0.8911 0.8910 0.8910
2329.000000 0.8909 0.8908 0.8907 0.8907 0.8906
2334.000000 0.8905 0.8904 0.8903 0.8902 0.8901
2339.000000 0.8899 0.8898 0.8897 0.8896 0.8894
2344.000000 0.8892 0.8889 0.8886 0.8883 0.8881
2349.000000 0.8878 0.8876 0.8873 0.8871 0.8868
2354.000000 0.8865 0.8861 0.8857 0.8852 0.8848
2359.000000 0.8843 0.8839 0.8834 0.8829 0.8824
2364.000000 0.8820 0.8815 0.8811 0.8807 0.8803
2369.000000 0.8800 0.8797 0.8794 0.8791 0.8788
2374.000000 0.8785 0.8782 0.8780 0.8780 0.8780
2379.000000 0.8780 0.8780 0.8780 0.8780 0.8780
2384.000000 0.8780 0.8780 0.8780 0.8780 0.8780
2389.000000 0.8780 0.8780 0.8780 0.8780 0.8780
2394.000000 0.8780 0.8780 0.8780 0.8780 0.8780
2399.000000 0.8780 0.8781 0.8781 0.8782 0.8782
2404.000000 0.8782 0.8782 0.8783 0.8783 0.8784
2409.000000 0.8784 0.8784 0.8784 0.8785 0.8785
2414.000000 0.8786 0.8786 0.8786 0.8786 0.8786
2419.000000 0.8785 0.8785 0.8785 0.8785 0.8784
2424.000000 0.8784 0.8783 0.8783 0.8783 0.8783
2429.000000 0.8782 0.8782 0.8782 0.8782 0.8781
2434.000000 0.8781 0.8781 0.8781 0.8781 0.8781
2439.000000 0.8781 0.8781 0.8781 0.8782 0.8782
2444.000000 0.8783 0.8783 0.8783 0.8783 0.8784
2449.000000 0.8784 0.8785 0.8785 0.8785 0.8785
2454.000000 0.8786 0.8787 0.8788 0.8789 0.8790
2459.000000 0.8791 0.8792 0.8793 0.8795 0.8796
2464.000000 0.8797 0.8798 0.8800 0.8801 0.8803
2469.000000 0.8804 0.8806 0.8807 0.8809 0.8810
2474.000000 0.8812 0.8813 0.8815 0.8814 0.8813
2479.000000 0.8812 0.8812 0.8811 0.8810 0.8809
2484.000000 0.8808 0.8807 0.8807 0.8806 0.8805
2489.000000 0.8804 0.8804 0.8803 0.8802 0.8801
2494.000000 0.8801 0.8799 0.8798 0.8796 0.8794
2499.000000 0.8791 0.8789 0.8787 0.8785 0.8782
2504.000000 0.8780 0.8778 0.8776 0.8773 0.8771
2509.000000 0.8769 0.8767 0.8765 0.8763 0.8760
2514.000000 0.8758 0.8755 0.8752 0.8748 0.8745
2519.000000 0.8742 0.8739 0.8736 0.8733 0.8730
2524.000000 0.8727 0.8724 0.8721 0.8718 0.8715
2529.000000 0.8711 0.8708 0.8704 0.8701 0.8697
2534.000000 0.8694 0.8690 0.8687 0.8683 0.8680
2539.000000 0.8676 0.8673 0.8669 0.8665 0.8661
2544.000000 0.8658 0.8654 0.8651 0.8647 0.8644
2549.000000 0.8645 0.8646 0.8647 0.8648 0.8649
2554.000000 0.8651 0.8652 0.8654 0.8656 0.8658
2559.000000 0.8660 0.8662 0.8663 0.8665 0.8667
2564.000000 0.8669 0.8670 0.8672 0.8673 0.8675
2569.000000 0.8676 0.8678 0.8679 0.8681 0.8682
2574.000000 0.8684 0.8685 0.8687 0.8688 0.8689
2579.000000 0.8689 0.8689 0.8689 0.8690 0.8690
2584.000000 0.8690 0.8690 0.8690 0.8690 0.8691
2589.000000 0.8691 0.8691 0.8690 0.8690 0.8689
2594.000000 0.8689 0.8688 0.8688 0.8687 0.8687
2599.000000 0.8686 0.8686 0.8685 0.8685 0.8684
2604.000000 0.8684 0.8682 0.8681 0.8679 0.8677
2609.000000 0.8675 0.8674 0.8672 0.8671 0.8669
2614.000000 0.8668 0.8666 0.8665 0.8663 0.8662
2619.000000 0.8660 0.8659 0.8657 0.8656 0.8654
2624.000000 0.8653 0.8651 0.8650 0.8648 0.8647
2629.000000 0.8645 0.8644 0.8642 0.8641 0.8639
2634.000000 0.8638 0.8636 0.8634 0.8632 0.8631
2639.000000 0.8629 0.8628 0.8626 0.8625 0.8623
2644.000000 0.8622 0.8620 0.8619 0.8617 0.8616
2649.000000 0.8614 0.8613 0.8611 0.8610 0.8608
2654.000000 0.8607 0.8605 0.8604 0.8602 0.8600
2659.000000 0.8598 0.8597 0.8595 0.8594 0.8592
2664.000000 0.8591 0.8589 0.8588 0.8586 0.8585
2669.000000 0.8583 0.8582 0.8580 0.8578 0.8576
2674.000000 0.8575 0.8573 0.8572 0.8570 0.8569
2679.000000 0.8565 0.8562 0.8559 0.8556 0.8552
2684.000000 0.8549 0.8545 0.8542 0.8539 0.8536
2689.000000 0.8532 0.8529 0.8525 0.8522 0.8519
2694.000000 0.8516 0.8512 0.8509 0.8505 0.8502
2699.000000 0.8499 0.8496 0.8491 0.8486 0.8480
2704.000000 0.8475 0.8469 0.8464 0.8458 0.8453
2709.000000 0.8447 0.8442 0.8436 0.8431 0.8425
2714.000000 0.8420 0.8414 0.8408 0.8396 0.8385
2719.000000 0.8373 0.8362 0.8349 0.8337 0.8318
2724.000000 0.8300 0.8294 0.8288 0.8288 0.8288
2729.000000 0.8288 0.8289 0.8290 0.8291 0.8295
2734.000000 0.8299 0.8308 0.8318 0.8325 0.8332
2739.000000 0.8339 0.8347 0.8353 0.8359 0.8360
2744.000000 0.8362 0.8361 0.8361 0.8360 0.8360
2749.000000 0.8357 0.8355 0.8352 0.8350 0.8347
2754.000000 0.8345 0.8341 0.8338 0.8334 0.8331
2759.000000 0.8327 0.8324 0.8320 0.8317 0.8313
2764.000000 0.8309 0.8305 0.8301 0.8296 0.8292
2769.000000 0.8287 0.8283 0.8278 0.8274 0.8269
2774.000000 0.8264 0.8259 0.8254 0.8249 0.8244
2779.000000 0.8239 0.8234 0.8227 0.8221 0.8212
2784.000000 0.8204 0.8195 0.8187 0.8178 0.8170
2789.000000 0.8161 0.8152 0.8143 0.8134 0.8124
2794.000000 0.8115 0.8105 0.8095 0.8085 0.8076
2799.000000 0.8063 0.8051 0.8037 0.8024 0.8010
2804.000000 0.7997 0.7983 0.7970 0.7955 0.7941
2809.000000 0.7926 0.7911 0.7896 0.7881 0.7866
2814.000000 0.7851 0.7833 0.7816 0.7798 0.7781
2819.000000 0.7763 0.7745 0.7727 0.7710 0.7692
2824.000000 0.7674 0.7651 0.7629 0.7606 0.7583
2829.000000 0.7560 0.7537 0.7514 0.7491 0.7465
2834.000000 0.7439 0.7397 0.7355 0.7313 0.7272
2839.000000 0.7230 0.7189 0.7114 0.7040 0.6802
2844.000000 0.6564 0.6424 0.6284 0.6144 0.6004
2849.000000 0.5864 0.5724 0.5584 0.5444 0.5303
2854.000000 0.5163 0.5023 0.4883 0.4743 0.4603
2859.000000 0.4463 0.4323 0.4183 0.4043 0.3903
2864.000000 0.3763 0.3659 0.3555 0.3554 0.3560
2869.000000 0.3554 0.3554 0.3630 0.3706 0.3805
2874.000000 0.3904 0.4003 0.4103 0.4202 0.4301
2879.000000 0.4400 0.4499 0.4512 0.4526 0.4529
2884.000000 0.4533 0.4531 0.4530 0.4526 0.4522
2889.000000 0.4511 0.4500 0.4415 0.4330 0.4233
2894.000000 0.4137 0.4040 0.3944 0.3848 0.3752
2899.000000 0.3655 0.3559 0.3462 0.3366 0.3269
2904.000000 0.3173 0.3135 0.3098 0.3082 0.3066
2909.000000 0.3061 0.3057 0.3053 0.3082 0.3092
2914.000000 0.3136 0.3220 0.3305 0.3389 0.3474
2919.000000 0.3559 0.3644 0.3654 0.3665 0.3667
2924.000000 0.3663 0.3653 0.3638 0.3537 0.3436
2929.000000 0.3334 0.3233 0.3132 0.3031 0.2930
2934.000000 0.2829 0.2727 0.2626 0.2525 0.2424
2939.000000 0.2322 0.2221 0.2120 0.2019 0.1917
2944.000000 0.1816 0.1715 0.1614 0.1512 0.1411
2949.000000 0.1310 0.1209 0.1154 0.1100 0.1101
2954.000000 0.1118 0.1110 0.1117 0.1152 0.1188
2959.000000 0.1251 0.1315 0.1378 0.1442 0.1505
2964.000000 0.1569 0.1617 0.1665 0.1758 0.1851
2969.000000 0.2140 0.2430 0.2719 0.3008 0.3297
2974.000000 0.3587 0.3876 0.4166 0.4455 0.4744
2979.000000 0.4974 0.5205 0.5227 0.5249 0.5296
2984.000000 0.5343 0.5452 0.5562 0.5611 0.5660
2989.000000 0.5693 0.5726 0.5750 0.5775 0.5792
2994.000000 0.5809 0.5826 0.5844 0.5864 0.5884
2999.000000 0.5919 0.5954 0.6015 0.6077 0.6146
3004.000000 0.6216 0.6260 0.6305 0.6349 0.6394
3009.000000 0.6493 0.6593 0.6704 0.6815 0.6892
3014.000000 0.6969 0.7021 0.7073 0.7126 0.7179
3019.000000 0.7233 0.7288 0.7344 0.7401 0.7456
3024.000000 0.7511 0.7544 0.7577 0.7609 0.7642
3029.000000 0.7659 0.7677 0.7691 0.7705 0.7718
3034.000000 0.7732 0.7737 0.7742 0.7747 0.7752
3039.000000 0.7757 0.7762 0.7764 0.7765 0.7766
3044.000000 0.7766 0.7766 0.7766 0.7750 0.7735
3049.000000 0.7716 0.7698 0.7679 0.7661 0.7642
3054.000000 0.7624 0.7606 0.7588 0.7569 0.7551
3059.000000 0.7532 0.7514 0.7495 0.7477 0.7463
3064.000000 0.7450 0.7448 0.7447 0.7447 0.7448
3069.000000 0.7451 0.7431 0.7467 0.7480 0.7514
3074.000000 0.7548 0.7582 0.7616 0.7650 0.7684
3079.000000 0.7718 0.7752 0.7786 0.7821 0.7855
3084.000000 0.7889 0.7923 0.7957 0.7977 0.7997
3089.000000 0.8011 0.8025 0.8034 0.8044 0.8053
3094.000000 0.8063 0.8069 0.8075 0.8081 0.8088
3099.000000 0.8094 0.8100 0.8106 0.8112 0.8116
3104.000000 0.8121 0.8124 0.8128 0.8129 0.8131
3109.000000 0.8132 0.8134 0.8135 0.8136 0.8137
3114.000000 0.8139 0.8139 0.8139 0.8139 0.8139
3119.000000 0.8140 0.8141 0.8141 0.8142 0.8142
3124.000000 0.8143 0.8143 0.8143 0.8143 0.8143
3129.000000 0.8143 0.8143 0.8143 0.8143 0.8142
3134.000000 0.8142 0.8142 0.8142 0.8141 0.8140
3139.000000 0.8139 0.8138 0.8137 0.8136 0.8135
3144.000000 0.8134 0.8133 0.8133 0.8132 0.8131
3149.000000 0.8130 0.8129 0.8128 0.8127 0.8125
3154.000000 0.8124 0.8122 0.8120 0.8118 0.8117
3159.000000 0.8115 0.8113 0.8111 0.8109 0.8107
3164.000000 0.8106 0.8104 0.8102 0.8100 0.8098
3169.000000 0.8096 0.8095 0.8094 0.8093 0.8092
3174.000000 0.8091 0.8090 0.8089 0.8088 0.8087
3179.000000 0.8086 0.8085 0.8084 0.8083 0.8082
3184.000000 0.8081 0.8080 0.8079 0.8078 0.8077
3189.000000 0.8076 0.8075 0.8074 0.8073 0.8072
3194.000000 0.8071 0.8070 0.8070 0.8070 0.8070
3199.000000 0.8070 0.8070 0.8069 0.8069 0.8069
3204.000000 0.8069 0.8068 0.8068 0.8068 0.8068
3209.000000 0.8068 0.8068 0.8068 0.8068 0.8068
3214.000000 0.8069 0.8069 0.8070 0.8070 0.8070
3219.000000 0.8070 0.8071 0.8071 0.8072 0.8072
3224.000000 0.8073 0.8073 0.8073 0.8073 0.8074
3229.000000 0.8074 0.8074 0.8074 0.8074 0.8074
3234.000000 0.8075 0.8075 0.8075 0.8075 0.8075
3239.000000 0.8075 0.8076 0.8076 0.8076 0.8076
3244.000000 0.8076 0.8076 0.8077 0.8076 0.8076
3249.000000 0.8074 0.8072 0.8070 0.8068 0.8066
3254.000000 0.8064 0.8062 0.8060 0.8058 0.8056
3259.000000 0.8054 0.8052 0.8048 0.8045 0.8041
3264.000000 0.8038 0.8034 0.8030 0.8026 0.8023
3269.000000 0.8019 0.8015 0.8011 0.8008 0.8005
3274.000000 0.8002 0.7999 0.7997 0.7994 0.7992
3279.000000 0.7990 0.7988 0.7986 0.7984 0.7982
3284.000000 0.7980 0.7978 0.7977 0.7975 0.7973
3289.000000 0.7971 0.7969 0.7967 0.7965 0.7963
3294.000000 0.7962 0.7959 0.7957 0.7954 0.7951
3299.000000 0.7948 0.7946 0.7943 0.7940 0.7937
3304.000000 0.7935 0.7932 0.7929 0.7926 0.7924
3309.000000 0.7921 0.7918 0.7915 0.7912 0.7909
3314.000000 0.7906 0.7903 0.7900 0.7897 0.7894
3319.000000 0.7890 0.7887 0.7884 0.7881 0.7878
3324.000000 0.7875 0.7872 0.7869 0.7865 0.7862
3329.000000 0.7858 0.7854 0.7850 0.7846 0.7842
3334.000000 0.7838 0.7833 0.7829 0.7825 0.7821
3339.000000 0.7817 0.7813 0.7809 0.7805 0.7801
3344.000000 0.7797 0.7793 0.7789 0.7784 0.7780
3349.000000 0.7775 0.7770 0.7765 0.7760 0.7755
3354.000000 0.7750 0.7745 0.7740 0.7735 0.7730
3359.000000 0.7725 0.7720 0.7715 0.7710 0.7705
3364.000000 0.7700 0.7695 0.7690 0.7685 0.7680
3369.000000 0.7674 0.7668 0.7662 0.7656 0.7650
3374.000000 0.7644 0.7638 0.7632 0.7625 0.7619
3379.000000 0.7613 0.7607 0.7601 0.7595 0.7589
3384.000000 0.7583 0.7578 0.7573 0.7568 0.7564
3389.000000 0.7559 0.7555 0.7550 0.7546 0.7541
3394.000000 0.7536 0.7531 0.7527 0.7522 0.7518
3399.000000 0.7513 0.7509 0.7504 0.7500 0.7495
3404.000000 0.7491 0.7486 0.7482 0.7480 0.7479
3409.000000 0.7477 0.7473 0.7474 0.7473 0.7472
3414.000000 0.7471 0.7469 0.7468 0.7467 0.7467
3419.000000 0.7467 0.7467 0.7466 0.7466 0.7466
3424.000000 0.7466 0.7465 0.7465 0.7465 0.7465
3429.000000 0.7464 0.7464 0.7464 0.7464 0.7463
3434.000000 0.7463 0.7463 0.7463 0.7462 0.7462
3439.000000 0.7463 0.7464 0.7465 0.7467 0.7468
3444.000000 0.7470 0.7471 0.7473 0.7474 0.7475
3449.000000 0.7476 0.7478 0.7479 0.7481 0.7482
3454.000000 0.7484 0.7486 0.7488 0.7489 0.7491
3459.000000 0.7492 0.7494 0.7495 0.7497 0.7498
3464.000000 0.7500 0.7501 0.7503 0.7504 0.7506
3469.000000 0.7507 0.7509 0.7511 0.7513 0.7514
3474.000000 0.7516 0.7517 0.7519 0.7520 0.7522
3479.000000 0.7523 0.7525 0.7526 0.7528 0.7529
3484.000000 0.7531 0.7532 0.7534 0.7536 0.7539
3489.000000 0.7541 0.7544 0.7546 0.7549 0.7551
3494.000000 0.7554 0.7557 0.7560 0.7562 0.7565
3499.000000 0.7567 0.7570 0.7572 0.7575 0.7577
3504.000000 0.7579 0.7581 0.7584 0.7586 0.7588
3509.000000 0.7590 0.7592 0.7594 0.7596 0.7598
3514.000000 0.7600 0.7602 0.7605 0.7607 0.7609
3519.000000 0.7611 0.7613 0.7614 0.7616 0.7617
3524.000000 0.7619 0.7620 0.7622 0.7623 0.7625
3529.000000 0.7626 0.7628 0.7630 0.7632 0.7633
3534.000000 0.7635 0.7636 0.7638 0.7639 0.7640
3539.000000 0.7640 0.7640 0.7640 0.7638 0.7640
3544.000000 0.7640 0.7640 0.7640 0.7640 0.7640
3549.000000 0.7640 0.7640 0.7639 0.7638 0.7634
3554.000000 0.7631 0.7628 0.7625 0.7621 0.7618
3559.000000 0.7614 0.7611 0.7606 0.7601 0.7596
3564.000000 0.7591 0.7586 0.7581 0.7576 0.7571
3569.000000 0.7563 0.7556 0.7544 0.7532 0.7519
3574.000000 0.7507 0.7493 0.7479 0.7465 0.7451
3579.000000 0.7436 0.7422 0.7405 0.7389 0.7372
3584.000000 0.7356 0.7340 0.7324 0.7303 0.7282
3589.000000 0.7253 0.7225 0.7197 0.7169 0.7141
3594.000000 0.7113 0.7085 0.7057 0.7028 0.7000
3599.000000 0.6972 0.6944 0.6915 0.6887 0.6846
3604.000000 0.6806 0.6759 0.6713 0.6666 0.6620
3609.000000 0.6539 0.6458 0.6348 0.6239 0.6071
3614.000000 0.5903 0.5565 0.5227 0.4888 0.4550
3619.000000 0.4211 0.3873 0.3534 0.3196 0.2858
3624.000000 0.2520 0.2409 0.2312 0.2332 0.2365
3629.000000 0.2592 0.2819 0.3046 0.3273 0.3499
3634.000000 0.3726 0.3953 0.4180 0.4407 0.4634
3639.000000 0.4860 0.5087 0.5314 0.5541 0.5749
3644.000000 0.5958 0.6044 0.6130 0.6202 0.6274
3649.000000 0.6382 0.6491 0.6649 0.6808 0.6868
3654.000000 0.6928 0.6962 0.6996 0.7030 0.7064
3659.000000 0.7101 0.7139 0.7177 0.7216 0.7252
3664.000000 0.7288 0.7319 0.7350 0.7380 0.7411
3669.000000 0.7441 0.7472 0.7500 0.7528 0.7556
3674.000000 0.7585 0.7610 0.7635 0.7654 0.7673
3679.000000 0.7691 0.7710 0.7728 0.7747 0.7766
3684.000000 0.7785 0.7798 0.7812 0.7823 0.7834
3689.000000 0.7845 0.7856 0.7867 0.7878 0.7888
3694.000000 0.7899 0.7910 0.7921 0.7930 0.7940
3699.000000 0.7948 0.7956 0.7964 0.7972 0.7980
3704.000000 0.7989 0.7997 0.8005 0.8013 0.8021
3709.000000 0.8029 0.8037 0.8040 0.8044 0.8048
3714.000000 0.8052 0.8056 0.8060 0.8064 0.8068
3719.000000 0.8070 0.8073 0.8074 0.8076 0.8077
3724.000000 0.8078 0.8079 0.8080 0.8081 0.8083
3729.000000 0.8084 0.8085 0.8086 0.8087 0.8087
3734.000000 0.8087 0.8087 0.8087 0.8087 0.8088
3739.000000 0.8088 0.8088 0.8088 0.8088 0.8086
3744.000000 0.8085 0.8083 0.8082 0.8080 0.8079
3749.000000 0.8077 0.8076 0.8074 0.8072 0.8070
3754.000000 0.8069 0.8066 0.8064 0.8062 0.8060
3759.000000 0.8058 0.8056 0.8054 0.8052 0.8050
3764.000000 0.8048 0.8046 0.8044 0.8042 0.8040
3769.000000 0.8038 0.8036 0.8033 0.8031 0.8028
3774.000000 0.8025 0.8023 0.8021 0.8018 0.8016
3779.000000 0.8013 0.8011 0.8008 0.8008 0.8003
3784.000000 0.8001 0.7999 0.7997 0.7994 0.7992
3789.000000 0.7991 0.7990
##END=
