##TITLE=2,6-DI-TERT-BUTYL-4-METHYL PHENOL
##JCAMP-DX=4.24
##DATA TYPE=INFRARED SPECTRUM
##CLASS=COBLENTZ
##ORIGIN=US INDUSTRIAL CHEMICALS COMPANY, CINCINNATI, OHIO
##OWNER=COBLENTZ SOCIETY
Collection (C) 2018 copyright by the U.S. Secretary of Commerce
on behalf of the United States of America. All rights reserved.
##DATE=Not specified, most likely prior to 1970
##NAMES=2,6-ditert-butyl-4-methylphenol
##CAS REGISTRY NO=128-37-0
##MOLFORM=C15 H24 O
##SOURCE REFERENCE=COBLENTZ NO. 2107
##$NIST SOURCE=COBLENTZ
##$NIST IMAGE=cob2107
##SPECTROMETER/DATA SYSTEM=PERKIN-ELMER (GRATING)
##STATE=SOLID (1.12% IN KBr DISC)
##PATH LENGTH=0.036 CM
##SAMPLING PROCEDURE=TRANSMISSION
##RESOLUTION=4
##DATA PROCESSING=DIGITIZED BY NIST FROM HARD COPY (FROM TWO SEGMENTS)
##XUNITS=1/CM
##YUNITS=TRANSMITTANCE
##XFACTOR=1.000000
##YFACTOR=1
##DELTAX=0.846905
##FIRSTX=602.606
##LASTX=3992.77
##FIRSTY=0.906
##MAXX=3992.77
##MINX=602.606
##MAXY=0.935
##MINY=0.096
##NPOINTS=4004
##XYDATA=(X++(Y..Y))
602.606000 0.9060 0.9050 0.9030 0.9010 0.9000
606.840527 0.8980 0.8960 0.8940 0.8930 0.8930
611.075055 0.8910 0.8910 0.8890 0.8890 0.8880
615.309582 0.8880 0.8880 0.8890 0.8940 0.9010
619.544109 0.9050 0.9060 0.9100 0.9130 0.9160
623.778636 0.9160 0.9160 0.9180 0.9180 0.9180
628.013164 0.9180 0.9180 0.9180 0.9200 0.9220
632.247691 0.9270 0.9280 0.9280 0.9300 0.9300
636.482218 0.9320 0.9320 0.9330 0.9330 0.9330
640.716745 0.9330 0.9320 0.9320 0.9320 0.9320
644.951273 0.9320 0.9320 0.9320 0.9320 0.9320
649.185800 0.9320 0.9320 0.9320 0.9320 0.9320
653.420327 0.9320 0.9320 0.9320 0.9320 0.9320
657.654855 0.9320 0.9320 0.9320 0.9330 0.9330
661.889382 0.9330 0.9330 0.9350 0.9350 0.9350
666.123909 0.9350 0.9330 0.9280 0.9280 0.9270
670.358436 0.9270 0.9270 0.9270 0.9270 0.9270
674.592964 0.9270 0.9270 0.9270 0.9270 0.9270
678.827491 0.9270 0.9270 0.9270 0.9270 0.9270
683.062018 0.9270 0.9270 0.9270 0.9270 0.9270
687.296545 0.9250 0.9250 0.9250 0.9250 0.9250
691.531073 0.9250 0.9250 0.9250 0.9250 0.9250
695.765600 0.9250 0.9230 0.9230 0.9230 0.9250
700.000127 0.9250 0.9250 0.9250 0.9250 0.9250
704.234655 0.9250 0.9250 0.9250 0.9250 0.9250
708.469182 0.9270 0.9270 0.9250 0.9250 0.9250
712.703709 0.9250 0.9250 0.9250 0.9230 0.9230
716.938236 0.9230 0.9230 0.9230 0.9230 0.9230
721.172764 0.9230 0.9230 0.9220 0.9220 0.9220
725.407291 0.9200 0.9200 0.9200 0.9180 0.9180
729.641818 0.9180 0.9160 0.9160 0.9160 0.9160
733.876345 0.9150 0.9130 0.9130 0.9130 0.9110
738.110873 0.9100 0.9100 0.9080 0.9080 0.9050
742.345400 0.9050 0.9050 0.9030 0.9000 0.8960
746.579927 0.8930 0.8890 0.8880 0.8880 0.8840
750.814455 0.8810 0.8740 0.8670 0.8640 0.8620
755.048982 0.8550 0.8500 0.8470 0.8420 0.8320
759.283509 0.8300 0.8280 0.8061 0.8000 0.7861
763.518036 0.7570 0.7050 0.5662 0.4272 0.4200
767.752564 0.4180 0.4200 0.4489 0.5008 0.5418
771.987091 0.5400 0.5300 0.5280 0.5669 0.6279
776.221618 0.6659 0.7228 0.8196 0.8499 0.8550
780.456145 0.8710 0.8760 0.8840 0.8860 0.8890
784.690673 0.8910 0.8930 0.8930 0.8930 0.8910
788.925200 0.8910 0.8910 0.8910 0.8910 0.8910
793.159727 0.8910 0.8890 0.8890 0.8880 0.8860
797.394255 0.8860 0.8840 0.8830 0.8790 0.8770
801.628782 0.8760 0.8740 0.8690 0.8660 0.8610
805.863309 0.8590 0.8540 0.8490 0.8420 0.8420
810.097836 0.8420 0.8440 0.8550 0.8669 0.8789
814.332364 0.8860 0.8890 0.8910 0.8940 0.8940
818.566891 0.8940 0.8930 0.8930 0.8930 0.8930
822.801418 0.8930 0.8910 0.8910 0.8910 0.8910
827.035945 0.8910 0.8910 0.8910 0.8890 0.8890
831.270473 0.8890 0.8890 0.8890 0.8880 0.8880
835.505000 0.8880 0.8880 0.8880 0.8880 0.8860
839.739527 0.8860 0.8860 0.8860 0.8840 0.8830
843.974055 0.8790 0.8770 0.8760 0.8740 0.8690
848.208582 0.8610 0.8570 0.8500 0.8440 0.8380
852.443109 0.8330 0.8280 0.8230 0.8130 0.8011
856.677636 0.7860 0.7660 0.7400 0.7081 0.6671
860.912164 0.6401 0.5504 0.4614 0.4013 0.2618
865.146691 0.2520 0.2590 0.3279 0.4048 0.5995
869.381218 0.6877 0.7547 0.7908 0.8099 0.8180
873.615745 0.8200 0.8200 0.8200 0.8200 0.8200
877.850273 0.8160 0.8150 0.8110 0.8060 0.8000
882.084800 0.7930 0.7860 0.7810 0.7770 0.7760
886.319327 0.7770 0.7909 0.8049 0.8249 0.8349
890.553855 0.8470 0.8550 0.8670 0.8690 0.8710
894.788382 0.8720 0.8740 0.8760 0.8760 0.8770
899.022909 0.8770 0.8770 0.8770 0.8770 0.8770
903.257436 0.8770 0.8770 0.8770 0.8770 0.8770
907.491964 0.8770 0.8760 0.8760 0.8760 0.8740
911.726491 0.8760 0.8760 0.8760 0.8740 0.8740
915.961018 0.8710 0.8710 0.8690 0.8670 0.8640
920.195545 0.8620 0.8620 0.8610 0.8590 0.8590
924.430073 0.8570 0.8550 0.8550 0.8540 0.8520
928.664600 0.8500 0.8500 0.8490 0.8470 0.8470
932.899127 0.8470 0.8470 0.8490 0.8500 0.8610
937.133655 0.8640 0.8670 0.8690 0.8690 0.8690
941.368182 0.8690 0.8710 0.8710 0.8710 0.8710
945.602709 0.8710 0.8710 0.8710 0.8710 0.8710
949.837236 0.8720 0.8720 0.8720 0.8740 0.8760
954.071764 0.8760 0.8760 0.8770 0.8790 0.8790
958.306291 0.8790 0.8810 0.8810 0.8810 0.8810
962.540818 0.8790 0.8790 0.8790 0.8790 0.8770
966.775345 0.8760 0.8690 0.8670 0.8670 0.8670
971.009873 0.8670 0.8670 0.8670 0.8670 0.8670
975.244400 0.8660 0.8640 0.8620 0.8610 0.8590
979.478927 0.8590 0.8590 0.8590 0.8570 0.8570
983.713455 0.8550 0.8540 0.8520 0.8500 0.8490
987.947982 0.8470 0.8470 0.8440 0.8440 0.8420
992.182509 0.8420 0.8420 0.8400 0.8400 0.8380
996.417036 0.8380 0.8370 0.8350 0.8350 0.8350
1000.651564 0.8350 0.8350 0.8350 0.8350 0.8330
1004.886091 0.8330 0.8330 0.8330 0.8330 0.8330
1009.120618 0.8330 0.8330 0.8330 0.8320 0.8280
1013.355145 0.8270 0.8200 0.8160 0.8100 0.8030
1017.589673 0.7940 0.7880 0.7790 0.7720 0.7620
1021.824200 0.7520 0.7420 0.7350 0.7300 0.7280
1026.058727 0.7280 0.7350 0.7440 0.7540 0.7640
1030.293255 0.7720 0.7830 0.7999 0.8030 0.8050
1034.527782 0.8060 0.8080 0.8100 0.8110 0.8150
1038.762309 0.8160 0.8180 0.8180 0.8220 0.8230
1042.996836 0.8250 0.8270 0.8280 0.8280 0.8300
1047.231364 0.8320 0.8330 0.8330 0.8350 0.8350
1051.465891 0.8370 0.8370 0.8380 0.8380 0.8380
1055.700418 0.8380 0.8380 0.8380 0.8380 0.8380
1059.934945 0.8380 0.8370 0.8370 0.8370 0.8370
1064.169473 0.8350 0.8350 0.8350 0.8350 0.8350
1068.404000 0.8350 0.8350 0.8350 0.8330 0.8330
1072.638527 0.8330 0.8330 0.8330 0.8320 0.8320
1076.873055 0.8320 0.8320 0.8320 0.8320 0.8300
1081.107582 0.8300 0.8280 0.8280 0.8270 0.8250
1085.342109 0.8250 0.8230 0.8230 0.8220 0.8200
1089.576636 0.8180 0.8160 0.8160 0.8150 0.8130
1093.811164 0.8100 0.8080 0.8050 0.8010 0.8000
1098.045691 0.7960 0.7940 0.7930 0.7890 0.7880
1102.280218 0.7840 0.7810 0.7790 0.7760 0.7720
1106.514745 0.7660 0.7590 0.7520 0.7420 0.7301
1110.749273 0.7160 0.7010 0.6830 0.6620 0.6400
1114.983800 0.6151 0.5881 0.5571 0.5401 0.5221
1119.218327 0.4840 0.4740 0.4720 0.4740 0.5638
1123.452855 0.5859 0.6159 0.6449 0.6739 0.6740
1127.687382 0.6740 0.6710 0.6690 0.6640 0.6590
1131.921909 0.6540 0.6450 0.6330 0.6201 0.6031
1136.156436 0.5840 0.5640 0.5520 0.5400 0.5131
1140.390964 0.4841 0.4541 0.4201 0.3842 0.3452
1144.625491 0.3030 0.2660 0.2370 0.2200 0.2100
1148.860018 0.2080 0.2080 0.2150 0.2230 0.2349
1153.094545 0.2490 0.2660 0.2840 0.3010 0.3200
1157.329073 0.3400 0.3589 0.3789 0.3979 0.4179
1161.563600 0.4370 0.4550 0.4740 0.4930 0.5100
1165.798127 0.5270 0.5589 0.5720 0.5840 0.5959
1170.032655 0.6050 0.6130 0.6160 0.6270 0.6280
1174.267182 0.6300 0.6350 0.6350 0.6380 0.6400
1178.501709 0.6400 0.6380 0.6370 0.6350 0.6320
1182.736236 0.6280 0.6200 0.6130 0.6080 0.6050
1186.970764 0.6030 0.5980 0.5940 0.5880 0.5810
1191.205291 0.5720 0.5640 0.5521 0.5450 0.5380
1195.439818 0.5280 0.5180 0.5130 0.5080 0.5060
1199.674345 0.5060 0.5060 0.5100 0.5100 0.5060
1203.908873 0.5010 0.4930 0.4840 0.4710 0.4520
1208.143400 0.4301 0.4011 0.3662 0.3441 0.3400
1212.377927 0.3400 0.3440 0.3660 0.3790 0.4009
1216.612455 0.4100 0.4329 0.4350 0.4350 0.4330
1220.846982 0.4280 0.4230 0.4110 0.3960 0.3790
1225.081509 0.3621 0.3451 0.3301 0.3200 0.3110
1229.316036 0.3100 0.3110 0.3220 0.3300 0.3549
1233.550564 0.3759 0.3959 0.4149 0.4329 0.4499
1237.785091 0.4710 0.4740 0.4720 0.4710 0.4690
1242.019618 0.4670 0.4660 0.4640 0.4610 0.4610
1246.254145 0.4620 0.4720 0.4830 0.4980 0.5150
1250.488673 0.5320 0.5639 0.5809 0.5939 0.6079
1254.723200 0.6180 0.6220 0.6230 0.6230 0.6220
1258.957727 0.6160 0.6110 0.6030 0.5960 0.5880
1263.192255 0.5840 0.5840 0.5860 0.5930 0.6010
1267.426782 0.6199 0.6499 0.6879 0.7228 0.7519
1271.661309 0.7660 0.7740 0.7830 0.7840 0.7840
1275.895836 0.7840 0.7840 0.7840 0.7840 0.7830
1280.130364 0.7830 0.7830 0.7790 0.7770 0.7740
1284.364891 0.7690 0.7670 0.7640 0.7640 0.7610
1288.599418 0.7570 0.7540 0.7500 0.7490 0.7450
1292.833945 0.7420 0.7370 0.7320 0.7250 0.7200
1297.068473 0.7130 0.7060 0.7000 0.6940 0.6860
1301.303000 0.6790 0.6720 0.6710 0.6710 0.6710
1305.537527 0.6720 0.6770 0.6790 0.6880 0.6940
1309.772055 0.7010 0.7080 0.7160 0.7270 0.7419
1314.006582 0.7540 0.7640 0.7710 0.7790 0.7860
1318.241109 0.7910 0.7960 0.8010 0.8050 0.8080
1322.475636 0.8110 0.8150 0.8200 0.8270 0.8280
1326.710164 0.8280 0.8280 0.8280 0.8300 0.8300
1330.944691 0.8300 0.8300 0.8300 0.8280 0.8270
1335.179218 0.8270 0.8250 0.8230 0.8220 0.8180
1339.413745 0.8180 0.8150 0.8150 0.8150 0.8130
1343.648273 0.8130 0.8110 0.8100 0.8060 0.8030
1347.882800 0.7980 0.7940 0.7890 0.7840 0.7790
1352.117327 0.7710 0.7620 0.7491 0.7321 0.7101
1356.351855 0.6810 0.6470 0.6051 0.5761 0.5471
1360.586382 0.5002 0.4661 0.4640 0.4660 0.4740
1364.820909 0.4910 0.5110 0.5659 0.5959 0.6229
1369.055436 0.6499 0.6719 0.6889 0.6999 0.7129
1373.289964 0.7320 0.7420 0.7450 0.7470 0.7470
1377.524491 0.7490 0.7500 0.7500 0.7490 0.7490
1381.759018 0.7450 0.7440 0.7380 0.7270 0.7160
1385.993545 0.6981 0.6771 0.6551 0.6321 0.6061
1390.228073 0.5810 0.5570 0.5450 0.5320 0.5081
1394.462600 0.5060 0.5060 0.5060 0.5080 0.5617
1398.697127 0.6060 0.6370 0.6570 0.6720 0.6840
1402.931655 0.6940 0.7060 0.7130 0.7160 0.7160
1407.166182 0.7160 0.7150 0.7100 0.7050 0.7000
1411.400709 0.6910 0.6830 0.6720 0.6611 0.6501
1415.635236 0.6400 0.6280 0.6030 0.5760 0.5620
1419.869764 0.5470 0.5271 0.5180 0.5001 0.4622
1424.104291 0.4150 0.3590 0.3060 0.2571 0.1891
1428.338818 0.1322 0.1280 0.1280 0.1270 0.1270
1432.573345 0.1300 0.1500 0.1770 0.2060 0.2439
1436.807873 0.2889 0.3219 0.3399 0.3519 0.3590
1441.042400 0.3640 0.3670 0.3690 0.3710 0.3710
1445.276927 0.3670 0.3640 0.3640 0.3640 0.3640
1449.511455 0.3660 0.3790 0.4010 0.4220 0.4380
1453.745982 0.4540 0.4670 0.4790 0.5009 0.5199
1457.980509 0.5220 0.5220 0.5220 0.5220 0.5220
1462.215036 0.5230 0.5280 0.5320 0.5350 0.5420
1466.449564 0.5470 0.5470 0.5470 0.5540 0.5620
1470.684091 0.5710 0.5770 0.5840 0.5910 0.5980
1474.918618 0.6050 0.6050 0.6050 0.6030 0.6000
1479.153145 0.6000 0.5980 0.5980 0.5980 0.5980
1483.387673 0.6010 0.6300 0.6590 0.6889 0.7199
1487.622200 0.7449 0.7669 0.7829 0.7959 0.8000
1491.856727 0.8010 0.8050 0.8060 0.8130 0.8280
1496.091255 0.8330 0.8440 0.8490 0.8520 0.8540
1500.325782 0.8540 0.8550 0.8570 0.8590 0.8610
1504.560309 0.8670 0.8720 0.8740 0.8740 0.8760
1508.794836 0.8760 0.8760 0.8760 0.8760 0.8740
1513.029364 0.8740 0.8690 0.8670 0.8660 0.8660
1517.263891 0.8660 0.8660 0.8660 0.8660 0.8660
1521.498418 0.8660 0.8660 0.8660 0.8660 0.8660
1525.732945 0.8660 0.8660 0.8660 0.8670 0.8670
1529.967473 0.8670 0.8670 0.8690 0.8690 0.8690
1534.202000 0.8690 0.8690 0.8690 0.8690 0.8690
1538.436527 0.8690 0.8690 0.8690 0.8690 0.8690
1542.671055 0.8690 0.8690 0.8690 0.8690 0.8690
1546.905582 0.8690 0.8710 0.8710 0.8720 0.8720
1551.140109 0.8720 0.8740 0.8740 0.8740 0.8740
1555.374636 0.8740 0.8740 0.8740 0.8740 0.8740
1559.609164 0.8740 0.8740 0.8740 0.8740 0.8740
1563.843691 0.8740 0.8740 0.8740 0.8740 0.8740
1568.078218 0.8720 0.8720 0.8720 0.8720 0.8720
1572.312745 0.8720 0.8720 0.8720 0.8710 0.8710
1576.547273 0.8710 0.8710 0.8710 0.8710 0.8710
1580.781800 0.8710 0.8710 0.8690 0.8690 0.8690
1585.016327 0.8690 0.8690 0.8690 0.8690 0.8690
1589.250855 0.8690 0.8670 0.8670 0.8670 0.8670
1593.485382 0.8660 0.8660 0.8660 0.8660 0.8660
1597.719909 0.8660 0.8660 0.8660 0.8660 0.8660
1601.954436 0.8670 0.8670 0.8690 0.8710 0.8720
1606.188964 0.8740 0.8760 0.8770 0.8770 0.8810
1610.423491 0.8810 0.8810 0.8810 0.8810 0.8810
1614.658018 0.8810 0.8810 0.8810 0.8810 0.8810
1618.892545 0.8810 0.8810 0.8810 0.8810 0.8810
1623.127073 0.8810 0.8810 0.8810 0.8810 0.8810
1627.361600 0.8830 0.8830 0.8830 0.8830 0.8840
1631.596127 0.8840 0.8840 0.8840 0.8840 0.8840
1635.830655 0.8840 0.8840 0.8830 0.8830 0.8830
1640.065182 0.8830 0.8830 0.8830 0.8830 0.8830
1644.299709 0.8830 0.8830 0.8830 0.8830 0.8830
1648.534236 0.8830 0.8830 0.8830 0.8830 0.8830
1652.768764 0.8830 0.8840 0.8840 0.8840 0.8860
1657.003291 0.8860 0.8860 0.8860 0.8860 0.8860
1661.237818 0.8860 0.8860 0.8860 0.8860 0.8860
1665.472345 0.8860 0.8860 0.8860 0.8860 0.8860
1669.706873 0.8860 0.8860 0.8860 0.8860 0.8860
1673.941400 0.8860 0.8860 0.8860 0.8860 0.8860
1678.175927 0.8860 0.8860 0.8860 0.8860 0.8860
1682.410455 0.8860 0.8860 0.8860 0.8860 0.8860
1686.644982 0.8860 0.8860 0.8860 0.8860 0.8860
1690.879509 0.8860 0.8860 0.8860 0.8860 0.8860
1695.114036 0.8840 0.8840 0.8840 0.8840 0.8830
1699.348564 0.8830 0.8830 0.8830 0.8830 0.8830
1703.583091 0.8830 0.8830 0.8830 0.8830 0.8830
1707.817618 0.8830 0.8830 0.8810 0.8810 0.8810
1712.052145 0.8810 0.8790 0.8790 0.8770 0.8770
1716.286673 0.8770 0.8770 0.8770 0.8770 0.8770
1720.521200 0.8760 0.8760 0.8760 0.8760 0.8760
1724.755727 0.8760 0.8760 0.8760 0.8760 0.8760
1728.990255 0.8760 0.8740 0.8740 0.8720 0.8710
1733.224782 0.8710 0.8710 0.8710 0.8710 0.8710
1737.459309 0.8710 0.8690 0.8690 0.8690 0.8670
1741.693836 0.8670 0.8660 0.8640 0.8640 0.8620
1745.928364 0.8610 0.8610 0.8590 0.8590 0.8590
1750.162891 0.8590 0.8570 0.8550 0.8550 0.8550
1754.397418 0.8550 0.8550 0.8570 0.8570 0.8570
1758.631945 0.8590 0.8620 0.8660 0.8690 0.8770
1762.866473 0.8840 0.8910 0.8940 0.8980 0.9010
1767.101000 0.9030 0.9030 0.9050 0.9060 0.9060
1771.335527 0.9080 0.9080 0.9100 0.9100 0.9100
1775.570055 0.9100 0.9100 0.9100 0.9100 0.9100
1779.804582 0.9100 0.9100 0.9100 0.9100 0.9100
1784.039109 0.9100 0.9100 0.9100 0.9100 0.9100
1788.273636 0.9110 0.9110 0.9110 0.9110 0.9110
1792.508164 0.9110 0.9110 0.9110 0.9110 0.9110
1796.742691 0.9110 0.9110 0.9110 0.9110 0.9110
1800.977218 0.9110 0.9110 0.9110 0.9110 0.9110
1805.211745 0.9110 0.9110 0.9110 0.9110 0.9110
1809.446273 0.9110 0.9110 0.9110 0.9110 0.9110
1813.680800 0.9110 0.9110 0.9130 0.9130 0.9130
1817.915327 0.9130 0.9130 0.9130 0.9130 0.9130
1822.149855 0.9130 0.9130 0.9130 0.9130 0.9130
1826.384382 0.9130 0.9130 0.9130 0.9130 0.9130
1830.618909 0.9130 0.9130 0.9130 0.9130 0.9130
1834.853436 0.9130 0.9130 0.9130 0.9130 0.9130
1839.087964 0.9130 0.9130 0.9110 0.9110 0.9110
1843.322491 0.9110 0.9110 0.9110 0.9110 0.9110
1847.557018 0.9110 0.9110 0.9110 0.9110 0.9110
1851.791545 0.9110 0.9110 0.9110 0.9110 0.9110
1856.026073 0.9110 0.9110 0.9110 0.9110 0.9110
1860.260600 0.9110 0.9110 0.9110 0.9110 0.9110
1864.495127 0.9110 0.9110 0.9110 0.9110 0.9100
1868.729655 0.9110 0.9110 0.9110 0.9110 0.9110
1872.964182 0.9110 0.9110 0.9110 0.9110 0.9110
1877.198709 0.9110 0.9110 0.9110 0.9110 0.9110
1881.433236 0.9110 0.9110 0.9110 0.9110 0.9110
1885.667764 0.9110 0.9100 0.9100 0.9100 0.9100
1889.902291 0.9100 0.9100 0.9100 0.9080 0.9080
1894.136818 0.9080 0.9080 0.9080 0.9080 0.9080
1898.371345 0.9080 0.9080 0.9080 0.9080 0.9080
1902.605873 0.9080 0.9080 0.9080 0.9080 0.9080
1906.840400 0.9080 0.9080 0.9080 0.9100 0.9100
1911.074927 0.9100 0.9080 0.9080 0.9080 0.9080
1915.309455 0.9080 0.9080 0.9080 0.9080 0.9080
1919.543982 0.9080 0.9080 0.9080 0.9080 0.9080
1923.778509 0.9080 0.9080 0.9080 0.9080 0.9080
1928.013036 0.9080 0.9080 0.9080 0.9080 0.9080
1932.247564 0.9080 0.9080 0.9080 0.9080 0.9080
1936.482091 0.9080 0.9080 0.9080 0.9080 0.9080
1940.716618 0.9080 0.9080 0.9080 0.9080 0.9080
1944.951145 0.9080 0.9080 0.9080 0.9080 0.9080
1949.185673 0.9080 0.9080 0.9080 0.9060 0.9060
1953.420200 0.9060 0.9060 0.9060 0.9060 0.9060
1957.654727 0.9060 0.9060 0.9060 0.9060 0.9060
1961.889255 0.9060 0.9060 0.9060 0.9060 0.9060
1966.123782 0.9060 0.9060 0.9060 0.9060 0.9060
1970.358309 0.9060 0.9050 0.9050 0.9050 0.9050
1974.592836 0.9050 0.9050 0.9050 0.9050 0.9050
1978.827364 0.9050 0.9030 0.9030 0.9030 0.9030
1983.061891 0.9030 0.9030 0.9010 0.9010 0.9010
1987.296418 0.9010 0.9010 0.9010 0.9000 0.9000
1991.530945 0.9000 0.9000 0.9000 0.9000 0.8980
1995.765473 0.8980 0.8980 0.8960 0.8960 0.8940
2000.000000 0.8940 0.8937 0.8935 0.8932 0.8930
2004.234527 0.8930 0.8930 0.8930 0.8930 0.8925
2008.469055 0.8919 0.8914 0.8910 0.8910 0.8910
2012.703582 0.8910 0.8909 0.8904 0.8899 0.8894
2016.938109 0.8889 0.8887 0.8884 0.8882 0.8880
2021.172636 0.8880 0.8880 0.8880 0.8878 0.8873
2025.407164 0.8868 0.8863 0.8860 0.8860 0.8860
2029.641691 0.8860 0.8858 0.8853 0.8848 0.8843
2033.876218 0.8840 0.8840 0.8840 0.8840 0.8839
2038.110745 0.8836 0.8834 0.8831 0.8827 0.8822
2042.345273 0.8817 0.8812 0.8810 0.8810 0.8810
2046.579800 0.8810 0.8810 0.8810 0.8810 0.8810
2050.814327 0.8810 0.8810 0.8810 0.8810 0.8810
2055.048855 0.8810 0.8810 0.8810 0.8810 0.8810
2059.283382 0.8810 0.8810 0.8810 0.8810 0.8810
2063.517909 0.8810 0.8810 0.8810 0.8810 0.8810
2067.752436 0.8810 0.8810 0.8810 0.8810 0.8810
2071.986964 0.8810 0.8810 0.8810 0.8810 0.8810
2076.221491 0.8810 0.8810 0.8810 0.8810 0.8810
2080.456018 0.8809 0.8804 0.8799 0.8794 0.8790
2084.690545 0.8790 0.8790 0.8790 0.8790 0.8790
2088.925073 0.8790 0.8790 0.8790 0.8790 0.8790
2093.159600 0.8790 0.8790 0.8790 0.8790 0.8790
2097.394127 0.8790 0.8790 0.8790 0.8790 0.8790
2101.628655 0.8790 0.8790 0.8790 0.8790 0.8790
2105.863182 0.8790 0.8790 0.8790 0.8790 0.8790
2110.097709 0.8790 0.8787 0.8782 0.8777 0.8771
2114.332236 0.8770 0.8770 0.8770 0.8770 0.8770
2118.566764 0.8770 0.8770 0.8770 0.8770 0.8770
2122.801291 0.8770 0.8770 0.8770 0.8770 0.8770
2127.035818 0.8770 0.8768 0.8765 0.8763 0.8760
2131.270345 0.8760 0.8760 0.8760 0.8760 0.8760
2135.504873 0.8760 0.8760 0.8760 0.8760 0.8760
2139.739400 0.8760 0.8760 0.8760 0.8760 0.8760
2143.973927 0.8760 0.8760 0.8760 0.8760 0.8759
2148.208455 0.8754 0.8749 0.8744 0.8740 0.8740
2152.442982 0.8740 0.8740 0.8740 0.8740 0.8740
2156.677509 0.8740 0.8740 0.8740 0.8740 0.8740
2160.912036 0.8740 0.8740 0.8740 0.8740 0.8740
2165.146564 0.8740 0.8740 0.8740 0.8737 0.8732
2169.381091 0.8727 0.8722 0.8720 0.8720 0.8720
2173.615618 0.8720 0.8720 0.8720 0.8720 0.8720
2177.850145 0.8720 0.8720 0.8720 0.8720 0.8720
2182.084673 0.8720 0.8720 0.8720 0.8720 0.8720
2186.319200 0.8720 0.8720 0.8720 0.8720 0.8720
2190.553727 0.8720 0.8720 0.8720 0.8720 0.8720
2194.788255 0.8720 0.8720 0.8720 0.8720 0.8720
2199.022782 0.8720 0.8720 0.8720 0.8720 0.8720
2203.257309 0.8720 0.8720 0.8720 0.8720 0.8720
2207.491836 0.8720 0.8720 0.8720 0.8720 0.8720
2211.726364 0.8720 0.8720 0.8720 0.8720 0.8720
2215.960891 0.8720 0.8720 0.8720 0.8720 0.8720
2220.195418 0.8720 0.8719 0.8717 0.8714 0.8712
2224.429945 0.8710 0.8710 0.8710 0.8710 0.8710
2228.664473 0.8710 0.8710 0.8710 0.8710 0.8710
2232.899000 0.8710 0.8710 0.8710 0.8710 0.8710
2237.133527 0.8710 0.8710 0.8710 0.8710 0.8710
2241.368055 0.8710 0.8710 0.8710 0.8710 0.8710
2245.602582 0.8710 0.8710 0.8710 0.8710 0.8710
2249.837109 0.8710 0.8710 0.8710 0.8710 0.8710
2254.071636 0.8710 0.8710 0.8710 0.8710 0.8710
2258.306164 0.8706 0.8701 0.8695 0.8690 0.8685
2262.540691 0.8680 0.8675 0.8670 0.8670 0.8670
2266.775218 0.8670 0.8670 0.8670 0.8670 0.8670
2271.009745 0.8670 0.8670 0.8670 0.8670 0.8670
2275.244273 0.8670 0.8670 0.8670 0.8670 0.8670
2279.478800 0.8670 0.8670 0.8670 0.8670 0.8670
2283.713327 0.8670 0.8669 0.8667 0.8664 0.8662
2287.947855 0.8660 0.8660 0.8660 0.8660 0.8660
2292.182382 0.8660 0.8660 0.8660 0.8660 0.8660
2296.416909 0.8660 0.8660 0.8660 0.8660 0.8660
2300.651436 0.8660 0.8660 0.8660 0.8660 0.8660
2304.885964 0.8660 0.8660 0.8660 0.8660 0.8657
2309.120491 0.8652 0.8646 0.8641 0.8640 0.8640
2313.355018 0.8640 0.8640 0.8640 0.8640 0.8640
2317.589545 0.8640 0.8644 0.8649 0.8654 0.8659
2321.824073 0.8660 0.8660 0.8660 0.8660 0.8660
2326.058600 0.8660 0.8660 0.8660 0.8660 0.8660
2330.293127 0.8660 0.8660 0.8655 0.8650 0.8645
2334.527655 0.8640 0.8640 0.8640 0.8640 0.8640
2338.762182 0.8640 0.8640 0.8640 0.8640 0.8640
2342.996709 0.8640 0.8640 0.8640 0.8640 0.8640
2347.231236 0.8640 0.8639 0.8634 0.8629 0.8623
2351.465764 0.8620 0.8620 0.8620 0.8620 0.8620
2355.700291 0.8620 0.8620 0.8620 0.8620 0.8620
2359.934818 0.8620 0.8620 0.8620 0.8620 0.8620
2364.169345 0.8620 0.8619 0.8616 0.8614 0.8611
2368.403873 0.8610 0.8610 0.8610 0.8610 0.8610
2372.638400 0.8610 0.8610 0.8610 0.8610 0.8610
2376.872927 0.8610 0.8610 0.8606 0.8601 0.8596
2381.107455 0.8591 0.8590 0.8590 0.8590 0.8590
2385.341982 0.8590 0.8590 0.8590 0.8590 0.8590
2389.576509 0.8590 0.8590 0.8590 0.8590 0.8590
2393.811036 0.8590 0.8590 0.8590 0.8590 0.8590
2398.045564 0.8590 0.8590 0.8590 0.8590 0.8590
2402.280091 0.8590 0.8590 0.8590 0.8590 0.8590
2406.514618 0.8590 0.8590 0.8590 0.8590 0.8590
2410.749145 0.8590 0.8590 0.8590 0.8590 0.8590
2414.983673 0.8590 0.8590 0.8590 0.8590 0.8590
2419.218200 0.8590 0.8590 0.8590 0.8590 0.8590
2423.452727 0.8590 0.8590 0.8590 0.8590 0.8590
2427.687255 0.8590 0.8590 0.8590 0.8590 0.8590
2431.921782 0.8590 0.8590 0.8590 0.8590 0.8590
2436.156309 0.8590 0.8590 0.8590 0.8590 0.8590
2440.390836 0.8590 0.8590 0.8590 0.8590 0.8590
2444.625364 0.8590 0.8590 0.8590 0.8590 0.8590
2448.859891 0.8590 0.8590 0.8590 0.8590 0.8590
2453.094418 0.8590 0.8590 0.8590 0.8590 0.8590
2457.328945 0.8590 0.8590 0.8590 0.8590 0.8590
2461.563473 0.8590 0.8590 0.8590 0.8590 0.8590
2465.798000 0.8590 0.8590 0.8590 0.8590 0.8590
2470.032527 0.8590 0.8590 0.8590 0.8590 0.8590
2474.267055 0.8590 0.8590 0.8590 0.8590 0.8590
2478.501582 0.8589 0.8584 0.8579 0.8574 0.8570
2482.736109 0.8570 0.8570 0.8570 0.8570 0.8570
2486.970636 0.8570 0.8570 0.8568 0.8563 0.8558
2491.205164 0.8553 0.8550 0.8550 0.8550 0.8550
2495.439691 0.8540 0.8520 0.8500 0.8480 0.8460
2499.674218 0.8442 0.8424 0.8406 0.8395 0.8388
2503.908745 0.8380 0.8372 0.8370 0.8370 0.8370
2508.143273 0.8370 0.8370 0.8370 0.8370 0.8370
2512.377800 0.8370 0.8370 0.8370 0.8370 0.8366
2516.612327 0.8361 0.8356 0.8351 0.8350 0.8350
2520.846855 0.8350 0.8350 0.8350 0.8350 0.8350
2525.081382 0.8350 0.8345 0.8340 0.8335 0.8330
2529.315909 0.8330 0.8330 0.8330 0.8330 0.8327
2533.550436 0.8325 0.8322 0.8320 0.8320 0.8320
2537.784964 0.8320 0.8320 0.8320 0.8320 0.8320
2542.019491 0.8320 0.8320 0.8320 0.8320 0.8320
2546.254018 0.8320 0.8320 0.8320 0.8318 0.8313
2550.488545 0.8308 0.8303 0.8300 0.8300 0.8300
2554.723073 0.8300 0.8300 0.8300 0.8300 0.8300
2558.957600 0.8300 0.8300 0.8300 0.8300 0.8300
2563.192127 0.8300 0.8300 0.8300 0.8300 0.8300
2567.426655 0.8300 0.8300 0.8300 0.8300 0.8300
2571.661182 0.8300 0.8300 0.8300 0.8300 0.8300
2575.895709 0.8300 0.8300 0.8300 0.8300 0.8296
2580.130236 0.8291 0.8286 0.8281 0.8284 0.8289
2584.364764 0.8294 0.8299 0.8300 0.8300 0.8300
2588.599291 0.8300 0.8295 0.8290 0.8285 0.8280
2592.833818 0.8278 0.8275 0.8272 0.8270 0.8270
2597.068345 0.8270 0.8270 0.8270 0.8270 0.8270
2601.302873 0.8270 0.8270 0.8270 0.8270 0.8270
2605.537400 0.8270 0.8270 0.8270 0.8270 0.8270
2609.771927 0.8270 0.8270 0.8270 0.8270 0.8270
2614.006455 0.8270 0.8270 0.8268 0.8263 0.8258
2618.240982 0.8253 0.8250 0.8250 0.8250 0.8250
2622.475509 0.8250 0.8250 0.8250 0.8250 0.8250
2626.710036 0.8250 0.8250 0.8250 0.8250 0.8250
2630.944564 0.8250 0.8250 0.8247 0.8242 0.8237
2635.179091 0.8232 0.8230 0.8230 0.8230 0.8230
2639.413618 0.8230 0.8230 0.8230 0.8230 0.8230
2643.648145 0.8230 0.8230 0.8230 0.8228 0.8225
2647.882673 0.8223 0.8220 0.8220 0.8220 0.8220
2652.117200 0.8220 0.8220 0.8220 0.8220 0.8220
2656.351727 0.8215 0.8210 0.8205 0.8200 0.8200
2660.586255 0.8200 0.8200 0.8200 0.8200 0.8200
2664.820782 0.8200 0.8200 0.8194 0.8189 0.8184
2669.055309 0.8180 0.8180 0.8180 0.8180 0.8180
2673.289836 0.8180 0.8180 0.8180 0.8180 0.8180
2677.524364 0.8180 0.8180 0.8178 0.8173 0.8168
2681.758891 0.8163 0.8159 0.8157 0.8154 0.8151
2685.993418 0.8148 0.8143 0.8138 0.8133 0.8128
2690.227945 0.8123 0.8118 0.8113 0.8109 0.8106
2694.462473 0.8104 0.8101 0.8097 0.8092 0.8087
2698.697000 0.8082 0.8077 0.8072 0.8067 0.8062
2702.931527 0.8058 0.8056 0.8053 0.8051 0.8050
2707.166055 0.8050 0.8050 0.8050 0.8050 0.8050
2711.400582 0.8050 0.8050 0.8046 0.8041 0.8036
2715.635109 0.8031 0.8030 0.8030 0.8030 0.8030
2719.869636 0.8030 0.8030 0.8030 0.8030 0.8025
2724.104164 0.8020 0.8015 0.8010 0.8010 0.8010
2728.338691 0.8010 0.8010 0.8010 0.8010 0.8010
2732.573218 0.8010 0.8007 0.8005 0.8002 0.8001
2736.807745 0.8003 0.8006 0.8008 0.8010 0.8010
2741.042273 0.8010 0.8010 0.8010 0.8010 0.8010
2745.276800 0.8010 0.8012 0.8017 0.8022 0.8027
2749.511327 0.8030 0.8030 0.8030 0.8030 0.8030
2753.745855 0.8030 0.8030 0.8030 0.8030 0.8030
2757.980382 0.8030 0.8030 0.8027 0.8022 0.8017
2762.214909 0.8012 0.8006 0.7998 0.7991 0.7983
2766.449436 0.7977 0.7972 0.7967 0.7961 0.7955
2770.683964 0.7947 0.7939 0.7932 0.7926 0.7921
2774.918491 0.7916 0.7911 0.7904 0.7896 0.7889
2779.153018 0.7881 0.7876 0.7871 0.7866 0.7861
2783.387545 0.7853 0.7846 0.7838 0.7830 0.7825
2787.622073 0.7820 0.7815 0.7810 0.7800 0.7790
2791.856600 0.7780 0.7770 0.7767 0.7765 0.7762
2796.091127 0.7760 0.7755 0.7750 0.7744 0.7739
2800.325655 0.7726 0.7713 0.7700 0.7686 0.7668
2804.560182 0.7651 0.7633 0.7617 0.7604 0.7591
2808.794709 0.7579 0.7566 0.7553 0.7541 0.7528
2813.029236 0.7515 0.7503 0.7490 0.7478 0.7465
2817.263764 0.7452 0.7440 0.7427 0.7414 0.7402
2821.498291 0.7389 0.7376 0.7359 0.7336 0.7313
2825.732818 0.7291 0.7272 0.7257 0.7242 0.7226
2829.967345 0.7204 0.7176 0.7148 0.7120 0.7092
2834.201873 0.7064 0.7036 0.7007 0.6974 0.6939
2838.436400 0.6903 0.6868 0.6836 0.6806 0.6776
2842.670927 0.6745 0.6698 0.6648 0.6597 0.6547
2846.905455 0.6472 0.6394 0.6315 0.6237 0.6138
2851.139982 0.6037 0.5936 0.5834 0.5736 0.5637
2855.374509 0.5539 0.5440 0.5341 0.5243 0.5144
2859.609036 0.5039 0.4802 0.4564 0.4326 0.4082
2863.843564 0.3774 0.3466 0.3157 0.2889 0.2881
2868.078091 0.2874 0.2866 0.2861 0.2866 0.2871
2872.312618 0.2876 0.2884 0.2900 0.2915 0.2930
2876.547145 0.2958 0.3011 0.3064 0.3117 0.3174
2880.781673 0.3237 0.3300 0.3363 0.3407 0.3425
2885.016200 0.3443 0.3461 0.3472 0.3477 0.3482
2889.250727 0.3488 0.3490 0.3490 0.3490 0.3490
2893.485255 0.3456 0.3396 0.3335 0.3274 0.3217
2897.719782 0.3161 0.3105 0.3050 0.3005 0.2967
2901.954309 0.2928 0.2890 0.2848 0.2805 0.2762
2906.188836 0.2719 0.2623 0.2515 0.2406 0.2297
2910.423364 0.2278 0.2275 0.2273 0.2270 0.2272
2914.657891 0.2275 0.2277 0.2280 0.2292 0.2304
2918.892418 0.2317 0.2330 0.2340 0.2350 0.2360
2923.126945 0.2370 0.2391 0.2411 0.2431 0.2450
2927.361473 0.2450 0.2450 0.2450 0.2449 0.2442
2931.596000 0.2434 0.2426 0.2407 0.2325 0.2243
2935.830527 0.2161 0.2074 0.1976 0.1877 0.1778
2940.065055 0.1684 0.1598 0.1512 0.1426 0.1338
2944.299582 0.1247 0.1156 0.1065 0.1009 0.1006
2948.534109 0.1004 0.1001 0.0996 0.0985 0.0975
2952.768636 0.0965 0.0960 0.0960 0.0960 0.0960
2957.003164 0.0965 0.0975 0.0986 0.0996 0.1029
2961.237691 0.1080 0.1130 0.1181 0.1219 0.1249
2965.472218 0.1279 0.1310 0.1342 0.1376 0.1409
2969.706745 0.1442 0.1501 0.1566 0.1632 0.1698
2973.941273 0.1793 0.1894 0.1995 0.2096 0.2251
2978.175800 0.2416 0.2580 0.2744 0.2966 0.3193
2982.410327 0.3421 0.3648 0.3833 0.4015 0.4197
2986.644855 0.4379 0.4496 0.4612 0.4728 0.4842
2990.879382 0.4908 0.4974 0.5040 0.5103 0.5136
2995.113909 0.5168 0.5201 0.5232 0.5250 0.5268
2999.348436 0.5285 0.5309 0.5360 0.5412 0.5463
3003.582964 0.5519 0.5588 0.5656 0.5724 0.5808
3007.817491 0.5924 0.6041 0.6157 0.6266 0.6362
3012.052018 0.6458 0.6554 0.6636 0.6699 0.6763
3016.286545 0.6826 0.6882 0.6930 0.6978 0.7026
3020.521073 0.7064 0.7092 0.7120 0.7147 0.7175
3024.755600 0.7203 0.7231 0.7259 0.7279 0.7294
3028.990127 0.7309 0.7324 0.7338 0.7351 0.7363
3033.224655 0.7376 0.7380 0.7380 0.7380 0.7380
3037.459182 0.7380 0.7380 0.7380 0.7380 0.7380
3041.693709 0.7380 0.7380 0.7380 0.7378 0.7375
3045.928236 0.7373 0.7370 0.7361 0.7351 0.7340
3050.162764 0.7330 0.7323 0.7315 0.7307 0.7300
3054.397291 0.7287 0.7275 0.7262 0.7249 0.7231
3058.631818 0.7214 0.7196 0.7179 0.7172 0.7164
3062.866345 0.7156 0.7150 0.7150 0.7150 0.7150
3067.100873 0.7150 0.7150 0.7150 0.7150 0.7151
3071.335400 0.7153 0.7156 0.7158 0.7168 0.7191
3075.569927 0.7213 0.7236 0.7263 0.7296 0.7329
3079.804455 0.7361 0.7393 0.7423 0.7454 0.7484
3084.038982 0.7523 0.7571 0.7619 0.7667 0.7706
3088.273509 0.7736 0.7767 0.7797 0.7817 0.7830
3092.508036 0.7842 0.7855 0.7863 0.7868 0.7873
3096.742564 0.7878 0.7882 0.7884 0.7887 0.7889
3100.977091 0.7890 0.7890 0.7890 0.7890 0.7894
3105.211618 0.7899 0.7904 0.7909 0.7910 0.7910
3109.446145 0.7910 0.7910 0.7910 0.7910 0.7910
3113.680673 0.7910 0.7910 0.7910 0.7910 0.7910
3117.915200 0.7910 0.7910 0.7910 0.7910 0.7910
3122.149727 0.7910 0.7910 0.7910 0.7910 0.7910
3126.384255 0.7910 0.7909 0.7904 0.7899 0.7894
3130.618782 0.7890 0.7890 0.7890 0.7890 0.7890
3134.853309 0.7890 0.7890 0.7890 0.7890 0.7890
3139.087836 0.7890 0.7890 0.7889 0.7887 0.7884
3143.322364 0.7882 0.7880 0.7880 0.7880 0.7880
3147.556891 0.7880 0.7880 0.7880 0.7880 0.7877
3151.791418 0.7872 0.7867 0.7862 0.7857 0.7852
3156.025945 0.7847 0.7842 0.7843 0.7848 0.7853
3160.260473 0.7858 0.7860 0.7860 0.7860 0.7860
3164.495000 0.7857 0.7852 0.7846 0.7841 0.7840
3168.729527 0.7840 0.7840 0.7840 0.7840 0.7840
3172.964055 0.7840 0.7840 0.7838 0.7835 0.7833
3177.198582 0.7830 0.7830 0.7830 0.7830 0.7830
3181.433109 0.7825 0.7820 0.7815 0.7810 0.7810
3185.667636 0.7810 0.7810 0.7810 0.7810 0.7810
3189.902164 0.7810 0.7810 0.7810 0.7810 0.7810
3194.136691 0.7810 0.7810 0.7810 0.7810 0.7810
3198.371218 0.7810 0.7810 0.7810 0.7809 0.7804
3202.605745 0.7799 0.7793 0.7790 0.7790 0.7790
3206.840273 0.7790 0.7790 0.7790 0.7790 0.7790
3211.074800 0.7790 0.7790 0.7790 0.7790 0.7790
3215.309327 0.7790 0.7790 0.7790 0.7790 0.7790
3219.543855 0.7790 0.7790 0.7790 0.7790 0.7790
3223.778382 0.7790 0.7790 0.7790 0.7790 0.7790
3228.012909 0.7787 0.7782 0.7777 0.7772 0.7770
3232.247436 0.7770 0.7770 0.7770 0.7768 0.7766
3236.481964 0.7763 0.7760 0.7760 0.7760 0.7760
3240.716491 0.7760 0.7760 0.7760 0.7760 0.7760
3244.951018 0.7755 0.7750 0.7745 0.7740 0.7740
3249.185545 0.7740 0.7740 0.7740 0.7735 0.7730
3253.420073 0.7725 0.7720 0.7717 0.7715 0.7712
3257.654600 0.7710 0.7710 0.7710 0.7710 0.7709
3261.889127 0.7704 0.7699 0.7694 0.7689 0.7684
3266.123655 0.7679 0.7674 0.7670 0.7670 0.7670
3270.358182 0.7670 0.7669 0.7667 0.7664 0.7662
3274.592709 0.7660 0.7660 0.7660 0.7660 0.7658
3278.827236 0.7653 0.7648 0.7643 0.7640 0.7640
3283.061764 0.7640 0.7640 0.7640 0.7640 0.7640
3287.296291 0.7640 0.7637 0.7632 0.7627 0.7622
3291.530818 0.7620 0.7620 0.7620 0.7620 0.7620
3295.765345 0.7620 0.7620 0.7620 0.7618 0.7616
3299.999873 0.7613 0.7611 0.7606 0.7601 0.7596
3304.234400 0.7591 0.7586 0.7581 0.7576 0.7570
3308.468927 0.7565 0.7560 0.7555 0.7550 0.7548
3312.703455 0.7545 0.7543 0.7540 0.7540 0.7540
3316.937982 0.7540 0.7540 0.7535 0.7530 0.7525
3321.172509 0.7520 0.7520 0.7520 0.7520 0.7520
3325.407036 0.7520 0.7520 0.7520 0.7519 0.7514
3329.641564 0.7509 0.7504 0.7500 0.7500 0.7500
3333.876091 0.7500 0.7499 0.7497 0.7494 0.7492
3338.110618 0.7488 0.7483 0.7478 0.7473 0.7467
3342.345145 0.7459 0.7452 0.7444 0.7435 0.7425
3346.579673 0.7415 0.7405 0.7397 0.7392 0.7387
3350.814200 0.7382 0.7376 0.7368 0.7361 0.7353
3355.048727 0.7347 0.7342 0.7337 0.7332 0.7328
3359.283255 0.7326 0.7323 0.7321 0.7317 0.7311
3363.517782 0.7306 0.7301 0.7296 0.7291 0.7286
3367.752309 0.7281 0.7278 0.7275 0.7273 0.7270
3371.986836 0.7266 0.7260 0.7255 0.7250 0.7245
3376.221364 0.7240 0.7235 0.7230 0.7228 0.7225
3380.455891 0.7222 0.7220 0.7220 0.7220 0.7220
3384.690418 0.7220 0.7215 0.7210 0.7205 0.7200
3388.924945 0.7200 0.7200 0.7200 0.7200 0.7200
3393.159473 0.7200 0.7200 0.7200 0.7200 0.7200
3397.394000 0.7200 0.7200 0.7200 0.7200 0.7200
3401.628527 0.7200 0.7200 0.7200 0.7200 0.7200
3405.863055 0.7200 0.7200 0.7200 0.7200 0.7200
3410.097582 0.7200 0.7200 0.7200 0.7200 0.7200
3414.332109 0.7200 0.7203 0.7208 0.7213 0.7218
3418.566636 0.7220 0.7220 0.7220 0.7220 0.7222
3422.801164 0.7224 0.7227 0.7229 0.7230 0.7230
3427.035691 0.7230 0.7230 0.7234 0.7239 0.7244
3431.270218 0.7249 0.7250 0.7250 0.7250 0.7250
3435.504745 0.7250 0.7250 0.7250 0.7250 0.7250
3439.739273 0.7250 0.7250 0.7250 0.7255 0.7260
3443.973800 0.7265 0.7270 0.7270 0.7270 0.7270
3448.208327 0.7270 0.7270 0.7270 0.7270 0.7270
3452.442855 0.7273 0.7275 0.7278 0.7280 0.7280
3456.677382 0.7280 0.7280 0.7280 0.7280 0.7280
3460.911909 0.7280 0.7280 0.7280 0.7280 0.7280
3465.146436 0.7280 0.7280 0.7280 0.7280 0.7280
3469.380964 0.7280 0.7280 0.7280 0.7280 0.7280
3473.615491 0.7280 0.7280 0.7280 0.7280 0.7280
3477.850018 0.7280 0.7280 0.7280 0.7280 0.7280
3482.084545 0.7283 0.7288 0.7293 0.7298 0.7300
3486.319073 0.7300 0.7300 0.7300 0.7303 0.7308
3490.553600 0.7313 0.7318 0.7320 0.7320 0.7320
3494.788127 0.7320 0.7322 0.7324 0.7327 0.7329
3499.022655 0.7330 0.7330 0.7330 0.7330 0.7330
3503.257182 0.7330 0.7330 0.7330 0.7330 0.7330
3507.491709 0.7330 0.7330 0.7330 0.7330 0.7330
3511.726236 0.7330 0.7330 0.7330 0.7330 0.7330
3515.960764 0.7330 0.7330 0.7330 0.7330 0.7327
3520.195291 0.7325 0.7322 0.7319 0.7314 0.7309
3524.429818 0.7304 0.7299 0.7294 0.7289 0.7284
3528.664345 0.7280 0.7280 0.7280 0.7280 0.7279
3532.898873 0.7277 0.7274 0.7272 0.7268 0.7263
3537.133400 0.7258 0.7253 0.7247 0.7239 0.7232
3541.367927 0.7224 0.7215 0.7205 0.7195 0.7185
3545.602455 0.7176 0.7168 0.7161 0.7153 0.7144
3549.836982 0.7134 0.7124 0.7114 0.7105 0.7098
3554.071509 0.7090 0.7083 0.7077 0.7072 0.7067
3558.306036 0.7062 0.7058 0.7056 0.7053 0.7051
3562.540564 0.7050 0.7050 0.7050 0.7050 0.7042
3566.775091 0.7032 0.7022 0.7012 0.6999 0.6986
3571.009618 0.6974 0.6961 0.6936 0.6911 0.6886
3575.244145 0.6860 0.6838 0.6815 0.6792 0.6769
3579.478673 0.6741 0.6714 0.6686 0.6657 0.6617
3583.713200 0.6576 0.6536 0.6495 0.6452 0.6409
3587.947727 0.6366 0.6323 0.6277 0.6232 0.6186
3592.182255 0.6129 0.6025 0.5921 0.5818 0.5718
3596.416782 0.5632 0.5546 0.5461 0.5375 0.5289
3600.651309 0.5203 0.5117 0.4998 0.4815 0.4633
3604.885836 0.4450 0.4239 0.3994 0.3749 0.3504
3609.120364 0.3300 0.3138 0.2976 0.2815 0.2740
3613.354891 0.2740 0.2740 0.2740 0.2762 0.2800
3617.589418 0.2838 0.2876 0.2950 0.3046 0.3142
3621.823945 0.3239 0.3341 0.3448 0.3554 0.3660
3626.058473 0.3766 0.3872 0.3978 0.4085 0.4216
3630.293000 0.4355 0.4494 0.4633 0.4910 0.5221
3634.527527 0.5532 0.5843 0.6006 0.6142 0.6278
3638.762055 0.6415 0.6505 0.6593 0.6682 0.6770
3642.996582 0.6828 0.6887 0.6945 0.7001 0.7029
3647.231109 0.7057 0.7085 0.7113 0.7140 0.7168
3651.465636 0.7196 0.7222 0.7237 0.7252 0.7268
3655.700164 0.7285 0.7316 0.7346 0.7377 0.7411
3659.934691 0.7459 0.7507 0.7555 0.7593 0.7606
3664.169218 0.7619 0.7631 0.7642 0.7647 0.7652
3668.403745 0.7657 0.7661 0.7663 0.7666 0.7669
3672.638273 0.7675 0.7685 0.7695 0.7705 0.7718
3676.872800 0.7733 0.7748 0.7763 0.7776 0.7786
3681.107327 0.7796 0.7806 0.7813 0.7818 0.7823
3685.341855 0.7828 0.7830 0.7830 0.7830 0.7830
3689.576382 0.7832 0.7834 0.7837 0.7839 0.7844
3693.810909 0.7849 0.7854 0.7859 0.7866 0.7873
3698.045436 0.7881 0.7889 0.7890 0.7890 0.7890
3702.279964 0.7890 0.7894 0.7900 0.7905 0.7910
3706.514491 0.7910 0.7910 0.7910 0.7910 0.7910
3710.749018 0.7910 0.7910 0.7910 0.7910 0.7910
3714.983545 0.7910 0.7910 0.7910 0.7910 0.7910
3719.218073 0.7910 0.7910 0.7910 0.7910 0.7910
3723.452600 0.7910 0.7910 0.7910 0.7910 0.7910
3727.687127 0.7910 0.7910 0.7910 0.7910 0.7910
3731.921655 0.7910 0.7910 0.7910 0.7910 0.7910
3736.156182 0.7910 0.7910 0.7910 0.7910 0.7910
3740.390709 0.7910 0.7910 0.7910 0.7910 0.7910
3744.625236 0.7910 0.7910 0.7910 0.7910 0.7910
3748.859764 0.7910 0.7907 0.7902 0.7897 0.7892
3753.094291 0.7890 0.7890 0.7890 0.7890 0.7890
3757.328818 0.7890 0.7890 0.7890 0.7888 0.7886
3761.563345 0.7883 0.7881 0.7880 0.7880 0.7880
3765.797873 0.7880 0.7880 0.7880 0.7880 0.7880
3770.032400 0.7875 0.7870 0.7865 0.7860 0.7860
3774.266927 0.7860 0.7860 0.7860 0.7865 0.7870
3778.501455 0.7875 0.7880 0.7880 0.7880 0.7880
3782.735982 0.7880 0.7880 0.7880 0.7880 0.7880
3786.970509 0.7880 0.7880 0.7880 0.7880 0.7880
3791.205036 0.7880 0.7880 0.7880 0.7880 0.7880
3795.439564 0.7880 0.7881 0.7883 0.7886 0.7888
3799.674091 0.7890 0.7890 0.7890 0.7890 0.7890
3803.908618 0.7890 0.7890 0.7890 0.7890 0.7890
3808.143145 0.7890 0.7890 0.7890 0.7890 0.7890
3812.377673 0.7890 0.7890 0.7890 0.7890 0.7890
3816.612200 0.7890 0.7890 0.7890 0.7890 0.7890
3820.846727 0.7890 0.7890 0.7890 0.7890 0.7890
3825.081255 0.7890 0.7890 0.7890 0.7890 0.7890
3829.315782 0.7890 0.7890 0.7890 0.7890 0.7890
3833.550309 0.7890 0.7890 0.7890 0.7890 0.7890
3837.784836 0.7890 0.7890 0.7890 0.7887 0.7885
3842.019364 0.7882 0.7880 0.7875 0.7870 0.7865
3846.253891 0.7860 0.7860 0.7860 0.7860 0.7860
3850.488418 0.7860 0.7860 0.7860 0.7860 0.7860
3854.722945 0.7860 0.7860 0.7860 0.7860 0.7860
3858.957473 0.7860 0.7860 0.7860 0.7860 0.7860
3863.192000 0.7862 0.7867 0.7872 0.7877 0.7880
3867.426527 0.7880 0.7880 0.7880 0.7880 0.7880
3871.661055 0.7880 0.7880 0.7880 0.7880 0.7880
3875.895582 0.7880 0.7880 0.7880 0.7880 0.7880
3880.130109 0.7880 0.7880 0.7880 0.7880 0.7880
3884.364636 0.7880 0.7880 0.7880 0.7880 0.7880
3888.599164 0.7880 0.7880 0.7880 0.7880 0.7880
3892.833691 0.7880 0.7880 0.7880 0.7880 0.7880
3897.068218 0.7880 0.7880 0.7880 0.7880 0.7876
3901.302745 0.7870 0.7865 0.7860 0.7860 0.7860
3905.537273 0.7860 0.7860 0.7860 0.7860 0.7860
3909.771800 0.7860 0.7860 0.7860 0.7860 0.7860
3914.006327 0.7860 0.7860 0.7860 0.7860 0.7860
3918.240855 0.7860 0.7860 0.7859 0.7854 0.7849
3922.475382 0.7844 0.7840 0.7840 0.7840 0.7840
3926.709909 0.7840 0.7840 0.7840 0.7840 0.7840
3930.944436 0.7840 0.7840 0.7840 0.7840 0.7840
3935.178964 0.7840 0.7840 0.7840 0.7840 0.7840
3939.413491 0.7840 0.7840 0.7840 0.7840 0.7840
3943.648018 0.7840 0.7840 0.7840 0.7840 0.7840
3947.882545 0.7840 0.7840 0.7840 0.7840 0.7840
3952.117073 0.7840 0.7840 0.7840 0.7840 0.7840
3956.351600 0.7840 0.7840 0.7840 0.7840 0.7840
3960.586127 0.7840 0.7840 0.7840 0.7840 0.7840
3964.820655 0.7840 0.7840 0.7840 0.7840 0.7840
3969.055182 0.7840 0.7840 0.7840 0.7840 0.7840
3973.289709 0.7840 0.7840 0.7840 0.7840 0.7840
3977.524236 0.7840 0.7840 0.7840 0.7840 0.7840
3981.758764 0.7840 0.7840 0.7840 0.7840 0.7840
3985.993291 0.7840 0.7840 0.7840 0.7840 0.7840
3990.227818 0.7840 0.7840 0.7840 0.7840
##END=
