##TITLE=PERSIAN RED OXIDE
##JCAMP-DX=4.24
##DATA TYPE=INFRARED SPECTRUM
##CLASS=COBLENTZ
##ORIGIN=DESOTO CHEMICAL COATINGS, INC.
##OWNER=COBLENTZ SOCIETY
Collection (C) 2018 copyright by the U.S. Secretary of Commerce
on behalf of the United States of America. All rights reserved.
##DATE=Not specified, most likely prior to 1970
##NAMES=FERRIC OXIDE
##CAS REGISTRY NO=1309-37-1
##MOLFORM=O3 Fe2
$$ Fe2O3 73%, SiO3^2^- AND SiO2 20%, Al2O3 3%, CaO 1%
##SOURCE REFERENCE=COBLENTZ NO. 4674
##$NIST SOURCE=COBLENTZ
##$NIST IMAGE=cob4674
##SPECTROMETER/DATA SYSTEM=Not specified, most likely a grating spectrometer.
##STATE=SOLID (0.6 mg / 300 mg CsI DISC)
##SAMPLING PROCEDURE=TRANSMISSION
##RESOLUTION=4
##DATA PROCESSING=DIGITIZED BY NIST FROM HARD COPY (FROM TWO SEGMENTS)
##XUNITS=1/CM
##YUNITS=TRANSMITTANCE
##XFACTOR=1.000000
##YFACTOR=1
##DELTAX=1.330379
##FIRSTX=200
##LASTX=3988.92
##FIRSTY=0.843
##MAXX=3988.92
##MINX=200
##MAXY=0.946
##MINY=0.144
##NPOINTS=2849
##XYDATA=(X++(Y..Y))
200.000000 0.8430 0.8430 0.8430 0.8430 0.8430
206.651896 0.8430 0.8440 0.8450 0.8470 0.8480
213.303792 0.8490 0.8520 0.8550 0.8590 0.8590
219.955688 0.8600 0.8600 0.8610 0.8650 0.8680
226.607584 0.8710 0.8710 0.8720 0.8720 0.8720
233.259480 0.8710 0.8710 0.8690 0.8690 0.8680
239.911377 0.8670 0.8670 0.8670 0.8650 0.8650
246.563273 0.8650 0.8650 0.8650 0.8650 0.8650
253.215169 0.8650 0.8650 0.8650 0.8650 0.8640
259.867065 0.8640 0.8640 0.8640 0.8640 0.8640
266.518961 0.8640 0.8640 0.8640 0.8630 0.8610
273.170857 0.8610 0.8600 0.8590 0.8590 0.8570
279.822753 0.8570 0.8570 0.8570 0.8570 0.8570
286.474649 0.8570 0.8560 0.8560 0.8550 0.8530
293.126545 0.8520 0.8490 0.8480 0.8450 0.8430
299.778441 0.8400 0.8360 0.8310 0.8290 0.8290
306.430337 0.8280 0.8270 0.8250 0.8200 0.8150
313.082234 0.8110 0.8080 0.8010 0.7990 0.7911
319.734130 0.7810 0.7670 0.7470 0.7260 0.6961
326.386026 0.6641 0.6461 0.6132 0.5693 0.5541
333.037922 0.5460 0.5260 0.5100 0.5020 0.4900
339.689818 0.4770 0.4611 0.4461 0.4380 0.4281
346.341714 0.4180 0.3970 0.3820 0.3670 0.3490
352.993610 0.3350 0.3270 0.3200 0.3170 0.3160
359.645506 0.3170 0.3210 0.3250 0.3350 0.3490
366.297402 0.3610 0.3749 0.3820 0.3919 0.3960
372.949298 0.4000 0.4010 0.4140 0.4399 0.4769
379.601195 0.5149 0.5459 0.5818 0.6029 0.6209
386.253091 0.6380 0.6520 0.6680 0.6840 0.6880
392.904987 0.6900 0.6920 0.6950 0.6990 0.7000
399.556883 0.7120 0.7240 0.7360 0.7400 0.7500
406.208779 0.7550 0.7590 0.7640 0.7670 0.7680
412.860675 0.7690 0.7710 0.7730 0.7750 0.7770
419.512571 0.7770 0.7760 0.7760 0.7750 0.7750
426.164467 0.7730 0.7730 0.7720 0.7710 0.7690
432.816363 0.7680 0.7650 0.7640 0.7610 0.7570
439.468259 0.7530 0.7480 0.7420 0.7360 0.7280
446.120155 0.7200 0.7120 0.7060 0.6941 0.6751
452.772052 0.6550 0.6440 0.6340 0.6220 0.6070
459.423948 0.5931 0.5791 0.5661 0.5541 0.5411
466.075844 0.5290 0.5170 0.5030 0.4850 0.4690
472.727740 0.4521 0.4381 0.4280 0.4041 0.3901
479.379636 0.3770 0.3670 0.3490 0.3480 0.3490
486.031532 0.3550 0.3689 0.4018 0.4487 0.4937
492.683428 0.5190 0.5530 0.5750 0.5910 0.6139
499.335324 0.6359 0.6430 0.6539 0.6560 0.6580
505.987220 0.6590 0.6600 0.6630 0.6630 0.6620
512.639116 0.6600 0.6590 0.6580 0.6540 0.6470
519.291012 0.6340 0.6180 0.6050 0.5970 0.5810
525.942909 0.5670 0.5491 0.5390 0.5141 0.4891
532.594805 0.4800 0.4600 0.4450 0.4260 0.4050
539.246701 0.3861 0.3671 0.3511 0.3351 0.3191
545.898597 0.3000 0.2950 0.2790 0.2630 0.2500
552.550493 0.2360 0.2260 0.2151 0.1991 0.1911
559.202389 0.1790 0.1700 0.1620 0.1560 0.1540
565.854285 0.1510 0.1500 0.1470 0.1470 0.1440
572.506181 0.1440 0.1440 0.1460 0.1480 0.1540
579.158077 0.1590 0.1670 0.1760 0.1800 0.1899
585.809973 0.1960 0.2030 0.2080 0.2180 0.2280
592.461870 0.2360 0.2460 0.2560 0.2650 0.2759
599.113766 0.2880 0.3010 0.3150 0.3280 0.3350
605.765662 0.3490 0.3639 0.3759 0.3889 0.4049
612.417558 0.4250 0.4380 0.4530 0.4690 0.4880
619.069454 0.5049 0.5219 0.5389 0.5569 0.5699
625.721350 0.5850 0.6010 0.6170 0.6300 0.6480
632.373246 0.6629 0.6759 0.6869 0.6989 0.7099
639.025142 0.7220 0.7400 0.7460 0.7510 0.7600
645.677038 0.7690 0.7770 0.7870 0.7880 0.7890
652.328934 0.7910 0.7910 0.7910 0.7920 0.7930
658.980830 0.7970 0.8010 0.8050 0.8080 0.8080
665.632727 0.8080 0.8090 0.8110 0.8130 0.8190
672.284623 0.8230 0.8250 0.8270 0.8280 0.8280
678.936519 0.8290 0.8330 0.8360 0.8390 0.8400
685.588415 0.8430 0.8450 0.8490 0.8510 0.8510
692.240311 0.8520 0.8520 0.8520 0.8520 0.8530
698.892207 0.8550 0.8560 0.8590 0.8610 0.8650
705.544103 0.8720 0.8780 0.8780 0.8820 0.8840
712.195999 0.8850 0.8860 0.8890 0.8890 0.8900
718.847895 0.8930 0.8960 0.8960 0.9000 0.9000
725.499791 0.9010 0.9010 0.9020 0.9040 0.9050
732.151687 0.9080 0.9090 0.9090 0.9090 0.9100
738.803584 0.9100 0.9100 0.9100 0.9100 0.9100
745.455480 0.9100 0.9100 0.9130 0.9130 0.9140
752.107376 0.9140 0.9140 0.9140 0.9140 0.9140
758.759272 0.9140 0.9140 0.9140 0.9130 0.9120
765.411168 0.9100 0.9100 0.9100 0.9100 0.9090
772.063064 0.9080 0.9040 0.9000 0.8970 0.8960
778.714960 0.8930 0.8820 0.8810 0.8820 0.8850
785.366856 0.8890 0.8920 0.8930 0.8940 0.8940
792.018752 0.8930 0.8900 0.8880 0.8820 0.8780
798.670648 0.8770 0.8760 0.8770 0.8800 0.8820
805.322544 0.8890 0.8930 0.8980 0.9000 0.9010
811.974441 0.9090 0.9130 0.9160 0.9200 0.9210
818.626337 0.9220 0.9240 0.9260 0.9280 0.9290
825.278233 0.9300 0.9300 0.9330 0.9330 0.9340
831.930129 0.9370 0.9380 0.9380 0.9380 0.9380
838.582025 0.9380 0.9400 0.9410 0.9410 0.9420
845.233921 0.9420 0.9420 0.9420 0.9420 0.9420
851.885817 0.9440 0.9440 0.9450 0.9450 0.9450
858.537713 0.9460 0.9460 0.9460 0.9450 0.9450
865.189609 0.9450 0.9450 0.9450 0.9440 0.9420
871.841505 0.9420 0.9420 0.9420 0.9420 0.9410
878.493402 0.9400 0.9400 0.9400 0.9400 0.9400
885.145298 0.9370 0.9370 0.9370 0.9370 0.9360
891.797194 0.9360 0.9360 0.9340 0.9340 0.9340
898.449090 0.9330 0.9320 0.9300 0.9260 0.9260
905.100986 0.9250 0.9220 0.9210 0.9210 0.9200
911.752882 0.9180 0.9160 0.9160 0.9140 0.9140
918.404778 0.9140 0.9140 0.9140 0.9140 0.9130
925.056674 0.9120 0.9120 0.9120 0.9120 0.9120
931.708570 0.9100 0.9090 0.9090 0.9090 0.9080
938.360466 0.9080 0.9080 0.9080 0.9080 0.9080
945.012362 0.9080 0.9080 0.9080 0.9060 0.9060
951.664259 0.9050 0.9040 0.9020 0.9010 0.9010
958.316155 0.9010 0.9000 0.8980 0.8970 0.8960
964.968051 0.8940 0.8920 0.8880 0.8840 0.8810
971.619947 0.8780 0.8760 0.8730 0.8690 0.8680
978.271843 0.8630 0.8590 0.8530 0.8510 0.8450
984.923739 0.8410 0.8370 0.8320 0.8310 0.8230
991.575635 0.8170 0.8130 0.8120 0.8090 0.8050
998.227531 0.7970 0.7950 0.7920 0.7890 0.7880
1004.879427 0.7840 0.7810 0.7790 0.7760 0.7720
1011.531323 0.7690 0.7680 0.7650 0.7650 0.7640
1018.183219 0.7610 0.7590 0.7520 0.7510 0.7480
1024.835116 0.7440 0.7430 0.7400 0.7400 0.7390
1031.487012 0.7360 0.7350 0.7340 0.7340 0.7340
1038.138908 0.7340 0.7350 0.7360 0.7360 0.7380
1044.790804 0.7380 0.7390 0.7390 0.7390 0.7390
1051.442700 0.7380 0.7380 0.7380 0.7380 0.7360
1058.094596 0.7360 0.7340 0.7320 0.7310 0.7300
1064.746492 0.7270 0.7260 0.7240 0.7230 0.7200
1071.398388 0.7190 0.7120 0.7100 0.7080 0.7070
1078.050284 0.7020 0.7000 0.6980 0.6920 0.6910
1084.702180 0.6900 0.6880 0.6880 0.6880 0.6880
1091.354076 0.6900 0.6900 0.6900 0.6910 0.6910
1098.005973 0.6940 0.6960 0.7000 0.7030 0.7070
1104.657869 0.7080 0.7100 0.7120 0.7150 0.7160
1111.309765 0.7200 0.7230 0.7230 0.7240 0.7280
1117.961661 0.7310 0.7350 0.7390 0.7460 0.7500
1124.613557 0.7500 0.7520 0.7590 0.7600 0.7640
1131.265453 0.7650 0.7680 0.7690 0.7750 0.7760
1137.917349 0.7760 0.7800 0.7810 0.7840 0.7850
1144.569245 0.7850 0.7890 0.7910 0.7930 0.7970
1151.221141 0.7990 0.8000 0.8010 0.8010 0.8030
1157.873037 0.8040 0.8070 0.8090 0.8090 0.8110
1164.524934 0.8110 0.8110 0.8110 0.8110 0.8120
1171.176830 0.8150 0.8190 0.8230 0.8270 0.8290
1177.828726 0.8310 0.8350 0.8370 0.8400 0.8430
1184.480622 0.8440 0.8450 0.8510 0.8520 0.8550
1191.132518 0.8560 0.8600 0.8630 0.8650 0.8670
1197.784414 0.8710 0.8750 0.8770 0.8780 0.8800
1204.436310 0.8810 0.8820 0.8850 0.8860 0.8860
1211.088206 0.8900 0.8920 0.8920 0.8930 0.8940
1217.740102 0.8960 0.8970 0.8970 0.8970 0.8980
1224.391998 0.8980 0.9000 0.9010 0.9010 0.9020
1231.043894 0.9040 0.9040 0.9020 0.9020 0.9020
1237.695791 0.9020 0.9040 0.9050 0.9050 0.9050
1244.347687 0.9050 0.9050 0.9050 0.9050 0.9060
1250.999583 0.9060 0.9060 0.9060 0.9060 0.9060
1257.651479 0.9060 0.9080 0.9080 0.9080 0.9080
1264.303375 0.9080 0.9080 0.9080 0.9080 0.9080
1270.955271 0.9080 0.9080 0.9090 0.9090 0.9100
1277.607167 0.9100 0.9120 0.9120 0.9120 0.9120
1284.259063 0.9120 0.9120 0.9130 0.9120 0.9120
1290.910959 0.9120 0.9100 0.9100 0.9090 0.9100
1297.562855 0.9100 0.9120 0.9120 0.9130 0.9120
1304.214751 0.9120 0.9120 0.9120 0.9120 0.9120
1310.866648 0.9120 0.9120 0.9130 0.9130 0.9130
1317.518544 0.9130 0.9140 0.9140 0.9140 0.9140
1324.170440 0.9140 0.9140 0.9140 0.9140 0.9140
1330.822336 0.9130 0.9130 0.9130 0.9130 0.9140
1337.474232 0.9130 0.9130 0.9130 0.9130 0.9130
1344.126128 0.9130 0.9130 0.9130 0.9130 0.9130
1350.778024 0.9130 0.9130 0.9130 0.9130 0.9130
1357.429920 0.9140 0.9160 0.9160 0.9160 0.9160
1364.081816 0.9140 0.9140 0.9130 0.9130 0.9130
1370.733712 0.9120 0.9120 0.9120 0.9120 0.9130
1377.385609 0.9120 0.9120 0.9120 0.9120 0.9130
1384.037505 0.9130 0.9130 0.9130 0.9140 0.9130
1390.689401 0.9130 0.9130 0.9130 0.9130 0.9130
1397.341297 0.9130 0.9120 0.9120 0.9120 0.9100
1403.993193 0.9100 0.9100 0.9090 0.9090 0.9090
1410.645089 0.9090 0.9090 0.9090 0.9090 0.9100
1417.296985 0.9100 0.9100 0.9100 0.9090 0.9090
1423.948881 0.9090 0.9090 0.9090 0.9090 0.9090
1430.600777 0.9090 0.9090 0.9090 0.9090 0.9090
1437.252673 0.9090 0.9100 0.9100 0.9100 0.9100
1443.904569 0.9100 0.9100 0.9100 0.9100 0.9100
1450.556466 0.9100 0.9100 0.9100 0.9100 0.9100
1457.208362 0.9100 0.9100 0.9100 0.9100 0.9100
1463.860258 0.9100 0.9100 0.9100 0.9100 0.9100
1470.512154 0.9120 0.9120 0.9120 0.9130 0.9130
1477.164050 0.9130 0.9130 0.9140 0.9140 0.9160
1483.815946 0.9160 0.9160 0.9170 0.9170 0.9170
1490.467842 0.9170 0.9170 0.9170 0.9170 0.9170
1497.119738 0.9170 0.9160 0.9160 0.9160 0.9160
1503.771634 0.9160 0.9160 0.9140 0.9140 0.9140
1510.423530 0.9140 0.9140 0.9130 0.9130 0.9130
1517.075426 0.9130 0.9130 0.9130 0.9130 0.9130
1523.727323 0.9130 0.9130 0.9130 0.9130 0.9130
1530.379219 0.9130 0.9130 0.9130 0.9130 0.9130
1537.031115 0.9130 0.9130 0.9130 0.9130 0.9130
1543.683011 0.9130 0.9130 0.9130 0.9130 0.9130
1550.334907 0.9130 0.9120 0.9120 0.9120 0.9120
1556.986803 0.9120 0.9100 0.9100 0.9100 0.9100
1563.638699 0.9100 0.9090 0.9090 0.9090 0.9090
1570.290595 0.9090 0.9090 0.9080 0.9080 0.9080
1576.942491 0.9080 0.9060 0.9060 0.9060 0.9060
1583.594387 0.9060 0.9050 0.9050 0.9040 0.8980
1590.246283 0.8980 0.8960 0.8960 0.8940 0.8930
1596.898180 0.8900 0.8890 0.8860 0.8820 0.8800
1603.550076 0.8800 0.8760 0.8730 0.8710 0.8690
1610.201972 0.8640 0.8610 0.8590 0.8560 0.8550
1616.853868 0.8530 0.8520 0.8510 0.8510 0.8490
1623.505764 0.8490 0.8490 0.8490 0.8510 0.8520
1630.157660 0.8550 0.8590 0.8630 0.8650 0.8680
1636.809556 0.8710 0.8730 0.8760 0.8780 0.8810
1643.461452 0.8820 0.8840 0.8850 0.8890 0.8890
1650.113348 0.8900 0.8900 0.8920 0.8930 0.8930
1656.765244 0.8940 0.8940 0.8960 0.8970 0.8970
1663.417141 0.8980 0.8980 0.9000 0.9010 0.9010
1670.069037 0.9010 0.9010 0.9010 0.9020 0.9020
1676.720933 0.9020 0.9020 0.9020 0.9040 0.9040
1683.372829 0.9050 0.9050 0.9050 0.9050 0.9050
1690.024725 0.9050 0.9050 0.9050 0.9050 0.9060
1696.676621 0.9060 0.9080 0.9090 0.9090 0.9090
1703.328517 0.9090 0.9090 0.9090 0.9100 0.9100
1709.980413 0.9100 0.9100 0.9100 0.9100 0.9100
1716.632309 0.9100 0.9100 0.9100 0.9100 0.9100
1723.284205 0.9100 0.9100 0.9100 0.9100 0.9100
1729.936101 0.9100 0.9100 0.9100 0.9100 0.9100
1736.587998 0.9100 0.9100 0.9100 0.9090 0.9090
1743.239894 0.9100 0.9100 0.9100 0.9100 0.9100
1749.891790 0.9100 0.9100 0.9100 0.9120 0.9120
1756.543686 0.9120 0.9120 0.9130 0.9130 0.9100
1763.195582 0.9100 0.9120 0.9120 0.9130 0.9130
1769.847478 0.9120 0.9120 0.9100 0.9080 0.9080
1776.499374 0.9090 0.9100 0.9100 0.9100 0.9120
1783.151270 0.9120 0.9100 0.9100 0.9120 0.9120
1789.803166 0.9120 0.9120 0.9100 0.9100 0.9090
1796.455062 0.9090 0.9090 0.9090 0.9100 0.9100
1803.106958 0.9100 0.9100 0.9100 0.9100 0.9100
1809.758855 0.9100 0.9090 0.9090 0.9100 0.9100
1816.410751 0.9100 0.9100 0.9090 0.9090 0.9090
1823.062647 0.9090 0.9100 0.9100 0.9100 0.9100
1829.714543 0.9100 0.9090 0.9090 0.9090 0.9090
1836.366439 0.9090 0.9090 0.9090 0.9090 0.9090
1843.018335 0.9090 0.9090 0.9080 0.9080 0.9080
1849.670231 0.9080 0.9080 0.9080 0.9080 0.9080
1856.322127 0.9080 0.9080 0.9080 0.9080 0.9080
1862.974023 0.9080 0.9080 0.9080 0.9080 0.9080
1869.625919 0.9060 0.9060 0.9060 0.9060 0.9060
1876.277816 0.9050 0.9050 0.9050 0.9050 0.9050
1882.929712 0.9040 0.9040 0.9040 0.9040 0.9040
1889.581608 0.9040 0.9040 0.9040 0.9040 0.9040
1896.233504 0.9040 0.9020 0.9020 0.9020 0.9020
1902.885400 0.9020 0.9020 0.9020 0.9020 0.9020
1909.537296 0.9020 0.9020 0.9020 0.9020 0.9020
1916.189192 0.9020 0.9020 0.9020 0.9020 0.9020
1922.841088 0.9020 0.9020 0.9020 0.9020 0.9020
1929.492984 0.9010 0.9010 0.9010 0.9010 0.9010
1936.144880 0.9010 0.9010 0.9010 0.9010 0.9010
1942.796776 0.9010 0.9010 0.9010 0.9010 0.9010
1949.448673 0.9010 0.9010 0.9010 0.9010 0.9010
1956.100569 0.9010 0.9010 0.9010 0.9010 0.9010
1962.752465 0.9010 0.9010 0.9010 0.9010 0.9010
1969.404361 0.9010 0.9010 0.9010 0.9010 0.9010
1976.056257 0.9010 0.9010 0.9010 0.9010 0.9010
1982.708153 0.9010 0.9010 0.9000 0.9000 0.9000
1989.360049 0.9000 0.9000 0.9000 0.8980 0.8980
1996.011945 0.8980 0.8980 0.8980 0.8980 0.8975
2002.663841 0.8970 0.8970 0.8970 0.8970 0.8970
2009.315737 0.8970 0.8970 0.8970 0.8970 0.8970
2015.967633 0.8970 0.8965 0.8960 0.8960 0.8960
2022.619530 0.8960 0.8960 0.8960 0.8960 0.8960
2029.271426 0.8960 0.8960 0.8960 0.8960 0.8960
2035.923322 0.8960 0.8960 0.8960 0.8960 0.8960
2042.575218 0.8960 0.8960 0.8960 0.8950 0.8940
2049.227114 0.8940 0.8940 0.8940 0.8941 0.8951
2055.879010 0.8960 0.8960 0.8960 0.8960 0.8960
2062.530906 0.8960 0.8959 0.8949 0.8940 0.8940
2069.182802 0.8940 0.8935 0.8930 0.8930 0.8930
2075.834698 0.8930 0.8930 0.8930 0.8930 0.8930
2082.486594 0.8930 0.8930 0.8930 0.8930 0.8930
2089.138490 0.8930 0.8930 0.8930 0.8930 0.8930
2095.790387 0.8930 0.8930 0.8930 0.8930 0.8930
2102.442283 0.8930 0.8930 0.8930 0.8930 0.8930
2109.094179 0.8930 0.8930 0.8930 0.8930 0.8929
2115.746075 0.8924 0.8920 0.8920 0.8920 0.8920
2122.397971 0.8920 0.8920 0.8920 0.8920 0.8920
2129.049867 0.8920 0.8920 0.8920 0.8920 0.8920
2135.701763 0.8921 0.8926 0.8931 0.8936 0.8940
2142.353659 0.8940 0.8938 0.8928 0.8920 0.8920
2149.005555 0.8920 0.8920 0.8918 0.8908 0.8900
2155.657451 0.8900 0.8900 0.8900 0.8900 0.8900
2162.309348 0.8900 0.8900 0.8900 0.8900 0.8900
2168.961244 0.8900 0.8900 0.8900 0.8900 0.8900
2175.613140 0.8902 0.8912 0.8918 0.8908 0.8900
2182.265036 0.8900 0.8900 0.8900 0.8900 0.8900
2188.916932 0.8900 0.8900 0.8900 0.8900 0.8903
2195.568828 0.8913 0.8917 0.8907 0.8900 0.8900
2202.220724 0.8899 0.8894 0.8890 0.8890 0.8891
2208.872620 0.8896 0.8900 0.8900 0.8900 0.8900
2215.524516 0.8900 0.8900 0.8900 0.8900 0.8900
2222.176412 0.8900 0.8900 0.8900 0.8897 0.8887
2228.828308 0.8880 0.8880 0.8880 0.8880 0.8880
2235.480205 0.8880 0.8877 0.8867 0.8860 0.8860
2242.132101 0.8860 0.8860 0.8860 0.8860 0.8860
2248.783997 0.8860 0.8854 0.8833 0.8820 0.8820
2255.435893 0.8820 0.8820 0.8825 0.8840 0.8850
2262.087789 0.8850 0.8848 0.8843 0.8836 0.8826
2268.739685 0.8820 0.8820 0.8820 0.8820 0.8818
2275.391581 0.8813 0.8810 0.8810 0.8812 0.8817
2282.043477 0.8824 0.8834 0.8836 0.8826 0.8820
2288.695373 0.8820 0.8820 0.8820 0.8820 0.8820
2295.347269 0.8820 0.8820 0.8824 0.8834 0.8850
2301.999165 0.8875 0.8890 0.8890 0.8888 0.8883
2308.651062 0.8876 0.8866 0.8860 0.8860 0.8860
2315.302958 0.8860 0.8864 0.8874 0.8880 0.8880
2321.954854 0.8876 0.8866 0.8858 0.8853 0.8848
2328.606750 0.8843 0.8836 0.8826 0.8820 0.8820
2335.258646 0.8820 0.8820 0.8816 0.8806 0.8793
2341.910542 0.8778 0.8770 0.8770 0.8768 0.8763
2348.562438 0.8765 0.8775 0.8785 0.8795 0.8800
2355.214334 0.8800 0.8802 0.8807 0.8810 0.8810
2361.866230 0.8810 0.8810 0.8810 0.8810 0.8810
2368.518126 0.8810 0.8808 0.8803 0.8800 0.8800
2375.170023 0.8800 0.8800 0.8800 0.8800 0.8795
2381.821919 0.8785 0.8780 0.8780 0.8780 0.8780
2388.473815 0.8777 0.8772 0.8770 0.8770 0.8767
2395.125711 0.8762 0.8760 0.8760 0.8760 0.8760
2401.777607 0.8760 0.8760 0.8760 0.8760 0.8763
2408.429503 0.8768 0.8770 0.8770 0.8767 0.8762
2415.081399 0.8760 0.8760 0.8760 0.8760 0.8757
2421.733295 0.8752 0.8745 0.8734 0.8730 0.8730
2428.385191 0.8730 0.8730 0.8730 0.8730 0.8730
2435.037087 0.8730 0.8736 0.8746 0.8750 0.8750
2441.688983 0.8750 0.8750 0.8750 0.8750 0.8744
2448.340880 0.8734 0.8730 0.8730 0.8730 0.8730
2454.992776 0.8730 0.8730 0.8727 0.8722 0.8720
2461.644672 0.8720 0.8720 0.8720 0.8720 0.8720
2468.296568 0.8720 0.8720 0.8717 0.8712 0.8710
2474.948464 0.8710 0.8710 0.8710 0.8704 0.8694
2481.600360 0.8690 0.8690 0.8690 0.8690 0.8690
2488.252256 0.8690 0.8690 0.8690 0.8690 0.8690
2494.904152 0.8687 0.8682 0.8677 0.8672 0.8670
2501.556048 0.8670 0.8663 0.8653 0.8647 0.8642
2508.207944 0.8640 0.8640 0.8640 0.8640 0.8640
2514.859840 0.8640 0.8643 0.8648 0.8650 0.8650
2521.511737 0.8650 0.8650 0.8650 0.8650 0.8647
2528.163633 0.8642 0.8640 0.8640 0.8640 0.8640
2534.815529 0.8640 0.8640 0.8640 0.8640 0.8640
2541.467425 0.8640 0.8636 0.8631 0.8630 0.8630
2548.119321 0.8630 0.8630 0.8630 0.8630 0.8630
2554.771217 0.8630 0.8623 0.8613 0.8610 0.8610
2561.423113 0.8610 0.8610 0.8610 0.8610 0.8610
2568.075009 0.8610 0.8606 0.8601 0.8600 0.8600
2574.726905 0.8600 0.8600 0.8600 0.8600 0.8600
2581.378801 0.8600 0.8600 0.8600 0.8600 0.8600
2588.030697 0.8596 0.8591 0.8590 0.8590 0.8590
2594.682594 0.8590 0.8590 0.8590 0.8590 0.8590
2601.334490 0.8590 0.8590 0.8582 0.8572 0.8570
2607.986386 0.8570 0.8566 0.8561 0.8556 0.8551
2614.638282 0.8550 0.8550 0.8542 0.8532 0.8530
2621.290178 0.8530 0.8526 0.8521 0.8520 0.8520
2627.942074 0.8520 0.8520 0.8520 0.8520 0.8516
2634.593970 0.8511 0.8514 0.8519 0.8520 0.8520
2641.245866 0.8520 0.8520 0.8520 0.8520 0.8520
2647.897762 0.8520 0.8520 0.8520 0.8520 0.8520
2654.549658 0.8520 0.8520 0.8520 0.8520 0.8520
2661.201555 0.8520 0.8516 0.8511 0.8510 0.8510
2667.853451 0.8510 0.8510 0.8510 0.8510 0.8501
2674.505347 0.8491 0.8490 0.8490 0.8490 0.8490
2681.157243 0.8490 0.8490 0.8490 0.8490 0.8486
2687.809139 0.8481 0.8480 0.8480 0.8480 0.8480
2694.461035 0.8480 0.8480 0.8475 0.8470 0.8470
2701.112931 0.8470 0.8470 0.8470 0.8461 0.8451
2707.764827 0.8450 0.8450 0.8450 0.8450 0.8445
2714.416723 0.8440 0.8440 0.8440 0.8440 0.8440
2721.068619 0.8440 0.8440 0.8440 0.8440 0.8435
2727.720515 0.8430 0.8430 0.8430 0.8430 0.8430
2734.372412 0.8430 0.8430 0.8420 0.8410 0.8410
2741.024308 0.8410 0.8410 0.8410 0.8410 0.8410
2747.676204 0.8410 0.8410 0.8410 0.8410 0.8410
2754.328100 0.8410 0.8405 0.8400 0.8395 0.8390
2760.979996 0.8390 0.8390 0.8380 0.8370 0.8370
2767.631892 0.8370 0.8365 0.8360 0.8360 0.8360
2774.283788 0.8360 0.8360 0.8355 0.8350 0.8350
2780.935684 0.8350 0.8350 0.8350 0.8350 0.8350
2787.587580 0.8340 0.8330 0.8330 0.8330 0.8330
2794.239476 0.8330 0.8330 0.8330 0.8330 0.8330
2800.891372 0.8330 0.8330 0.8330 0.8330 0.8330
2807.543269 0.8330 0.8325 0.8320 0.8320 0.8320
2814.195165 0.8315 0.8310 0.8310 0.8310 0.8310
2820.847061 0.8310 0.8310 0.8310 0.8310 0.8310
2827.498957 0.8310 0.8310 0.8310 0.8310 0.8310
2834.150853 0.8309 0.8299 0.8289 0.8284 0.8280
2840.802749 0.8280 0.8279 0.8274 0.8269 0.8259
2847.454645 0.8250 0.8250 0.8249 0.8244 0.8239
2854.106541 0.8234 0.8230 0.8230 0.8231 0.8236
2860.758437 0.8240 0.8240 0.8240 0.8240 0.8240
2867.410333 0.8240 0.8240 0.8240 0.8240 0.8240
2874.062229 0.8239 0.8234 0.8230 0.8230 0.8230
2880.714126 0.8230 0.8228 0.8218 0.8210 0.8210
2887.366022 0.8209 0.8204 0.8200 0.8200 0.8200
2894.017918 0.8200 0.8199 0.8194 0.8190 0.8190
2900.669814 0.8190 0.8190 0.8187 0.8172 0.8159
2907.321710 0.8154 0.8148 0.8138 0.8125 0.8100
2913.973606 0.8079 0.8074 0.8068 0.8058 0.8048
2920.625502 0.8038 0.8030 0.8030 0.8030 0.8030
2927.277398 0.8030 0.8030 0.8031 0.8036 0.8040
2933.929294 0.8040 0.8040 0.8040 0.8041 0.8046
2940.581190 0.8050 0.8050 0.8050 0.8050 0.8050
2947.233087 0.8050 0.8050 0.8050 0.8050 0.8050
2953.884983 0.8050 0.8050 0.8050 0.8050 0.8053
2960.536879 0.8063 0.8070 0.8070 0.8070 0.8070
2967.188775 0.8071 0.8076 0.8080 0.8080 0.8080
2973.840671 0.8080 0.8080 0.8080 0.8080 0.8080
2980.492567 0.8080 0.8080 0.8080 0.8080 0.8080
2987.144463 0.8080 0.8080 0.8080 0.8080 0.8080
2993.796359 0.8078 0.8073 0.8070 0.8070 0.8070
3000.448255 0.8070 0.8067 0.8057 0.8050 0.8050
3007.100151 0.8050 0.8050 0.8048 0.8043 0.8040
3013.752047 0.8040 0.8038 0.8033 0.8030 0.8030
3020.403944 0.8030 0.8030 0.8030 0.8030 0.8030
3027.055840 0.8030 0.8030 0.8030 0.8030 0.8030
3033.707736 0.8030 0.8030 0.8030 0.8030 0.8026
3040.359632 0.8016 0.8010 0.8010 0.8010 0.8010
3047.011528 0.8010 0.8010 0.8010 0.8010 0.8010
3053.663424 0.8010 0.8010 0.8010 0.8008 0.8003
3060.315320 0.7998 0.7993 0.7986 0.7976 0.7970
3066.967216 0.7970 0.7970 0.7970 0.7968 0.7963
3073.619112 0.7960 0.7960 0.7958 0.7953 0.7950
3080.271008 0.7950 0.7946 0.7936 0.7930 0.7930
3086.922904 0.7934 0.7944 0.7950 0.7950 0.7950
3093.574801 0.7950 0.7945 0.7935 0.7930 0.7930
3100.226697 0.7928 0.7923 0.7920 0.7920 0.7918
3106.878593 0.7913 0.7910 0.7910 0.7910 0.7910
3113.530489 0.7905 0.7895 0.7890 0.7890 0.7890
3120.182385 0.7890 0.7890 0.7890 0.7888 0.7883
3126.834281 0.7880 0.7880 0.7880 0.7880 0.7880
3133.486177 0.7880 0.7880 0.7880 0.7878 0.7873
3140.138073 0.7865 0.7855 0.7850 0.7850 0.7847
3146.789969 0.7842 0.7840 0.7840 0.7840 0.7840
3153.441865 0.7840 0.7840 0.7837 0.7832 0.7825
3160.093762 0.7815 0.7810 0.7810 0.7810 0.7810
3166.745658 0.7807 0.7802 0.7800 0.7800 0.7797
3173.397554 0.7792 0.7790 0.7790 0.7784 0.7774
3180.049450 0.7764 0.7754 0.7744 0.7734 0.7727
3186.701346 0.7722 0.7717 0.7712 0.7710 0.7710
3193.353242 0.7710 0.7710 0.7710 0.7710 0.7710
3200.005138 0.7710 0.7710 0.7710 0.7710 0.7710
3206.657034 0.7710 0.7710 0.7704 0.7694 0.7687
3213.308930 0.7682 0.7671 0.7656 0.7650 0.7650
3219.960826 0.7647 0.7642 0.7640 0.7640 0.7637
3226.612722 0.7632 0.7630 0.7630 0.7624 0.7614
3233.264619 0.7610 0.7610 0.7610 0.7610 0.7610
3239.916515 0.7610 0.7607 0.7602 0.7597 0.7592
3246.568411 0.7590 0.7590 0.7583 0.7573 0.7570
3253.220307 0.7570 0.7563 0.7553 0.7540 0.7525
3259.872203 0.7520 0.7520 0.7517 0.7512 0.7510
3266.524099 0.7510 0.7507 0.7502 0.7500 0.7500
3273.175995 0.7493 0.7483 0.7476 0.7471 0.7470
3279.827891 0.7470 0.7466 0.7461 0.7460 0.7460
3286.479787 0.7453 0.7443 0.7436 0.7431 0.7426
3293.131683 0.7421 0.7413 0.7403 0.7396 0.7391
3299.783579 0.7386 0.7381 0.7380 0.7380 0.7369
3306.435476 0.7354 0.7350 0.7350 0.7346 0.7341
3313.087372 0.7333 0.7323 0.7316 0.7311 0.7299
3319.739268 0.7284 0.7273 0.7263 0.7249 0.7234
3326.391164 0.7226 0.7221 0.7212 0.7202 0.7196
3333.043060 0.7191 0.7178 0.7163 0.7160 0.7160
3339.694956 0.7152 0.7142 0.7132 0.7122 0.7112
3346.346852 0.7102 0.7092 0.7082 0.7072 0.7062
3352.998748 0.7052 0.7042 0.7032 0.7022 0.7008
3359.650644 0.6993 0.6970 0.6945 0.6928 0.6913
3366.302540 0.6906 0.6901 0.6888 0.6873 0.6850
3372.954436 0.6825 0.6812 0.6802 0.6796 0.6791
3379.606333 0.6786 0.6781 0.6767 0.6752 0.6746
3386.258229 0.6741 0.6727 0.6712 0.6697 0.6682
3392.910125 0.6672 0.6662 0.6647 0.6632 0.6617
3399.562021 0.6602 0.6591 0.6581 0.6554 0.6524
3406.213917 0.6511 0.6501 0.6491 0.6481 0.6476
3412.865813 0.6471 0.6466 0.6461 0.6451 0.6441
3419.517709 0.6436 0.6431 0.6430 0.6430 0.6426
3426.169605 0.6421 0.6411 0.6401 0.6396 0.6391
3432.821501 0.6390 0.6390 0.6385 0.6380 0.6380
3439.473397 0.6380 0.6371 0.6361 0.6360 0.6360
3446.125294 0.6360 0.6360 0.6360 0.6360 0.6360
3452.777190 0.6360 0.6360 0.6360 0.6360 0.6360
3459.429086 0.6360 0.6360 0.6370 0.6380 0.6380
3466.080982 0.6380 0.6380 0.6380 0.6385 0.6390
3472.732878 0.6390 0.6390 0.6390 0.6390 0.6395
3479.384774 0.6400 0.6400 0.6400 0.6410 0.6420
3486.036670 0.6420 0.6420 0.6420 0.6420 0.6425
3492.688566 0.6430 0.6430 0.6430 0.6430 0.6430
3499.340462 0.6435 0.6440 0.6450 0.6460 0.6460
3505.992358 0.6460 0.6465 0.6470 0.6470 0.6470
3512.644254 0.6475 0.6480 0.6480 0.6480 0.6490
3519.296151 0.6500 0.6505 0.6510 0.6510 0.6510
3525.948047 0.6515 0.6520 0.6535 0.6550 0.6555
3532.599943 0.6560 0.6575 0.6590 0.6595 0.6600
3539.251839 0.6616 0.6631 0.6646 0.6660 0.6660
3545.903735 0.6660 0.6665 0.6671 0.6686 0.6700
3552.555631 0.6705 0.6710 0.6715 0.6721 0.6736
3559.207527 0.6750 0.6755 0.6760 0.6760 0.6761
3565.859423 0.6782 0.6801 0.6811 0.6820 0.6825
3572.511319 0.6832 0.6852 0.6870 0.6875 0.6880
3579.163215 0.6880 0.6881 0.6896 0.6910 0.6910
3585.815111 0.6910 0.6916 0.6921 0.6931 0.6941
3592.467008 0.6951 0.6961 0.6971 0.6981 0.6986
3599.118904 0.6992 0.7007 0.7021 0.7026 0.7031
3605.770800 0.7036 0.7041 0.7051 0.7061 0.7066
3612.422696 0.7071 0.7076 0.7080 0.7080 0.7081
3619.074592 0.7092 0.7101 0.7106 0.7111 0.7116
3625.726488 0.7120 0.7120 0.7122 0.7132 0.7141
3632.378384 0.7146 0.7153 0.7168 0.7180 0.7180
3639.030280 0.7181 0.7186 0.7190 0.7190 0.7191
3645.682176 0.7196 0.7202 0.7212 0.7221 0.7226
3652.334072 0.7230 0.7230 0.7231 0.7236 0.7240
3658.985969 0.7240 0.7240 0.7240 0.7242 0.7252
3665.637865 0.7260 0.7260 0.7260 0.7260 0.7261
3672.289761 0.7266 0.7270 0.7270 0.7270 0.7270
3678.941657 0.7270 0.7270 0.7270 0.7270 0.7271
3685.593553 0.7276 0.7280 0.7280 0.7280 0.7280
3692.245449 0.7280 0.7280 0.7280 0.7280 0.7280
3698.897345 0.7280 0.7280 0.7280 0.7280 0.7280
3705.549241 0.7280 0.7280 0.7279 0.7274 0.7270
3712.201137 0.7270 0.7270 0.7270 0.7271 0.7276
3718.853033 0.7280 0.7280 0.7280 0.7280 0.7279
3725.504929 0.7274 0.7270 0.7270 0.7270 0.7270
3732.156826 0.7270 0.7270 0.7268 0.7263 0.7260
3738.808722 0.7260 0.7260 0.7260 0.7257 0.7247
3745.460618 0.7240 0.7240 0.7240 0.7240 0.7238
3752.112514 0.7233 0.7230 0.7230 0.7230 0.7230
3758.764410 0.7228 0.7223 0.7220 0.7220 0.7220
3765.416306 0.7220 0.7217 0.7207 0.7200 0.7200
3772.068202 0.7200 0.7200 0.7200 0.7200 0.7200
3778.720098 0.7200 0.7200 0.7200 0.7200 0.7200
3785.371994 0.7200 0.7200 0.7200 0.7200 0.7200
3792.023890 0.7200 0.7200 0.7200 0.7200 0.7200
3798.675786 0.7200 0.7200 0.7198 0.7193 0.7190
3805.327683 0.7190 0.7190 0.7190 0.7188 0.7183
3811.979579 0.7180 0.7180 0.7176 0.7166 0.7160
3818.631475 0.7160 0.7158 0.7153 0.7148 0.7143
3825.283371 0.7140 0.7140 0.7140 0.7140 0.7140
3831.935267 0.7140 0.7136 0.7126 0.7120 0.7120
3838.587163 0.7120 0.7120 0.7118 0.7113 0.7110
3845.239059 0.7110 0.7110 0.7110 0.7110 0.7110
3851.890955 0.7110 0.7110 0.7108 0.7103 0.7100
3858.542851 0.7100 0.7100 0.7100 0.7100 0.7100
3865.194747 0.7100 0.7100 0.7095 0.7085 0.7080
3871.846643 0.7080 0.7080 0.7080 0.7080 0.7080
3878.498540 0.7080 0.7080 0.7080 0.7080 0.7078
3885.150436 0.7072 0.7070 0.7070 0.7070 0.7070
3891.802332 0.7070 0.7070 0.7070 0.7070 0.7067
3898.454228 0.7062 0.7060 0.7060 0.7055 0.7045
3905.106124 0.7040 0.7040 0.7037 0.7032 0.7030
3911.758020 0.7030 0.7027 0.7022 0.7020 0.7020
3918.409916 0.7020 0.7020 0.7020 0.7020 0.7020
3925.061812 0.7020 0.7020 0.7020 0.7020 0.7020
3931.713708 0.7014 0.7004 0.7000 0.7000 0.7000
3938.365604 0.7000 0.7000 0.7000 0.7000 0.7000
3945.017501 0.7000 0.7000 0.7000 0.7000 0.6997
3951.669397 0.6992 0.6990 0.6990 0.6990 0.6990
3958.321293 0.6990 0.6990 0.6990 0.6990 0.6990
3964.973189 0.6990 0.6987 0.6982 0.6980 0.6980
3971.625085 0.6980 0.6980 0.6980 0.6980 0.6980
3978.276981 0.6980 0.6974 0.6964 0.6960 0.6960
3984.928877 0.6960 0.6960 0.6960 0.6960
##END=
