##TITLE=TITANIUM DIOXIDE (RUTILE)
##JCAMP-DX=4.24
##DATA TYPE=INFRARED SPECTRUM
##CLASS=COBLENTZ
##ORIGIN=DESOTO CHEMICAL COATINGS
##OWNER=COBLENTZ SOCIETY
Collection (C) 2018 copyright by the U.S. Secretary of Commerce
on behalf of the United States of America. All rights reserved.
##DATE=Not specified, most likely prior to 1970
##CAS REGISTRY NO=13463-67-7
##MOLFORM=O2 Ti
$$ 97+% PURE
##SOURCE REFERENCE=COBLENTZ NO. 4652
##$NIST SOURCE=COBLENTZ
##$NIST IMAGE=cob4652
##SPECTROMETER/DATA SYSTEM=BECKMAN IR-12 (GRATING)
##INSTRUMENT PARAMETERS=GRATING BLAZED AT 3330, 1330, 445, 220 CM^-^1
##STATE=SOLID (0.3 mg / 300 mg CsI DISC)
##SAMPLING PROCEDURE=TRANSMISSION
##RESOLUTION=4
##DATA PROCESSING=DIGITIZED BY NIST FROM HARD COPY (FROM TWO SEGMENTS)
##XUNITS=1/CM
##YUNITS=TRANSMITTANCE
##XFACTOR=1.000000
##YFACTOR=1
##DELTAX=1.333334
##FIRSTX=198.667
##LASTX=3986.67
##FIRSTY=0.765
##MAXX=3986.67
##MINX=198.667
##MAXY=0.97
##MINY=0.121
##NPOINTS=2842
##XYDATA=(X++(Y..Y))
198.667000 0.7650 0.7660 0.7660 0.7650 0.7660
205.333670 0.7660 0.7660 0.7680 0.7680 0.7690
212.000341 0.7690 0.7690 0.7720 0.7720 0.7740
218.667011 0.7760 0.7780 0.7800 0.7800 0.7810
225.333681 0.7810 0.7820 0.7820 0.7820 0.7820
232.000352 0.7820 0.7820 0.7810 0.7810 0.7810
238.667022 0.7800 0.7800 0.7800 0.7800 0.7800
245.333692 0.7780 0.7780 0.7780 0.7780 0.7780
252.000363 0.7770 0.7770 0.7760 0.7740 0.7730
258.667033 0.7720 0.7700 0.7690 0.7660 0.7650
265.333703 0.7620 0.7600 0.7580 0.7540 0.7530
272.000374 0.7520 0.7490 0.7450 0.7410 0.7400
278.667044 0.7360 0.7320 0.7290 0.7250 0.7200
285.333714 0.7130 0.7090 0.7020 0.6980 0.6920
292.000385 0.6850 0.6610 0.6530 0.6480 0.6360
298.667055 0.6260 0.6180 0.6130 0.6080 0.6050
305.333725 0.6000 0.5890 0.5850 0.5740 0.5660
312.000395 0.5600 0.5500 0.5410 0.5291 0.5141
318.667066 0.5000 0.4840 0.4700 0.4530 0.4400
325.333736 0.4290 0.4131 0.4040 0.3931 0.3811
332.000406 0.3770 0.3680 0.3580 0.3520 0.3420
338.667077 0.3320 0.3280 0.3240 0.3200 0.3160
345.333747 0.3130 0.3120 0.3080 0.3040 0.3020
352.000417 0.3000 0.2970 0.2940 0.2930 0.2900
358.667088 0.2880 0.2880 0.2930 0.3000 0.3140
365.333758 0.3568 0.3998 0.4378 0.4420 0.4460
372.000428 0.4610 0.4680 0.4690 0.4720 0.4720
378.667099 0.4700 0.4690 0.4600 0.4491 0.4401
385.333769 0.4210 0.4090 0.3920 0.3820 0.3690
392.000439 0.3580 0.3520 0.3450 0.3291 0.3240
398.667110 0.3180 0.3100 0.3060 0.3020 0.3000
405.333780 0.2980 0.2960 0.2940 0.2920 0.2890
412.000450 0.2840 0.2820 0.2800 0.2780 0.2770
418.667121 0.2770 0.2770 0.2780 0.2780 0.2810
425.333791 0.2820 0.2840 0.2880 0.2920 0.3010
432.000461 0.3120 0.3220 0.3300 0.3380 0.3519
438.667132 0.3700 0.3840 0.4050 0.4250 0.4300
445.333802 0.4400 0.4529 0.4729 0.4760 0.4810
452.000472 0.4890 0.4930 0.4940 0.4970 0.4970
458.667143 0.4980 0.4980 0.4980 0.4970 0.4930
465.333813 0.4900 0.4820 0.4730 0.4680 0.4620
472.000483 0.4580 0.4500 0.4480 0.4381 0.4330
478.667154 0.4280 0.4220 0.4090 0.4010 0.4000
485.333824 0.3980 0.3851 0.3780 0.3720 0.3611
492.000494 0.3490 0.3400 0.3290 0.3220 0.3160
498.667164 0.3060 0.2980 0.2890 0.2840 0.2800
505.333835 0.2730 0.2620 0.2600 0.2490 0.2410
512.000505 0.2380 0.2320 0.2290 0.2210 0.2210
518.667175 0.2180 0.2140 0.2100 0.2090 0.2080
525.333846 0.2040 0.2010 0.2000 0.1980 0.1940
532.000516 0.1940 0.1930 0.1920 0.1920 0.1900
538.667186 0.1900 0.1890 0.1890 0.1890 0.1890
545.333857 0.1890 0.1890 0.1880 0.1880 0.1880
552.000527 0.1880 0.1880 0.1880 0.1880 0.1880
558.667197 0.1880 0.1890 0.1890 0.1890 0.1890
565.333868 0.1900 0.1900 0.1900 0.1890 0.1890
572.000538 0.1880 0.1880 0.1860 0.1860 0.1850
578.667208 0.1850 0.1840 0.1840 0.1840 0.1840
585.333879 0.1840 0.1840 0.1840 0.1840 0.1850
592.000549 0.1850 0.1850 0.1850 0.1850 0.1840
598.667219 0.1820 0.1800 0.1780 0.1760 0.1760
605.333890 0.1740 0.1720 0.1690 0.1680 0.1640
612.000560 0.1610 0.1580 0.1570 0.1540 0.1520
618.667230 0.1490 0.1450 0.1420 0.1410 0.1400
625.333901 0.1370 0.1360 0.1340 0.1320 0.1300
632.000571 0.1290 0.1280 0.1280 0.1260 0.1250
638.667241 0.1240 0.1240 0.1220 0.1220 0.1210
645.333912 0.1210 0.1210 0.1210 0.1210 0.1210
652.000582 0.1210 0.1210 0.1220 0.1220 0.1240
658.667252 0.1240 0.1250 0.1250 0.1250 0.1260
665.333923 0.1280 0.1290 0.1290 0.1320 0.1330
672.000593 0.1340 0.1360 0.1370 0.1380 0.1420
678.667263 0.1450 0.1460 0.1480 0.1530 0.1540
685.333934 0.1570 0.1600 0.1620 0.1680 0.1720
692.000604 0.1740 0.1780 0.1800 0.1840 0.1860
698.667274 0.1880 0.1940 0.1960 0.2000 0.2040
705.333944 0.2080 0.2120 0.2170 0.2200 0.2280
712.000615 0.2300 0.2370 0.2420 0.2490 0.2579
718.667285 0.2600 0.2700 0.2810 0.2840 0.2900
725.333955 0.3010 0.3090 0.3160 0.3299 0.3399
732.000626 0.3490 0.3570 0.3690 0.3780 0.3890
738.667296 0.3980 0.4060 0.4179 0.4319 0.4409
745.333966 0.4520 0.4620 0.4810 0.4980 0.5130
752.000637 0.5260 0.5370 0.5489 0.5520 0.5609
758.667307 0.5770 0.5890 0.6000 0.6090 0.6130
765.333977 0.6200 0.6290 0.6370 0.6440 0.6579
772.000648 0.6640 0.6690 0.6740 0.6820 0.6890
778.667318 0.6920 0.6980 0.7010 0.7100 0.7180
785.333988 0.7200 0.7210 0.7290 0.7320 0.7360
792.000659 0.7490 0.7530 0.7540 0.7600 0.7620
798.667329 0.7640 0.7690 0.7770 0.7820 0.7860
805.333999 0.7890 0.7890 0.7920 0.7930 0.7980
812.000670 0.8010 0.8040 0.8050 0.8100 0.8130
818.667340 0.8200 0.8210 0.8250 0.8260 0.8290
825.334010 0.8300 0.8340 0.8360 0.8400 0.8440
832.000681 0.8460 0.8490 0.8500 0.8530 0.8540
838.667351 0.8570 0.8570 0.8600 0.8600 0.8610
845.334021 0.8620 0.8620 0.8660 0.8690 0.8690
852.000692 0.8700 0.8760 0.8800 0.8810 0.8820
858.667362 0.8820 0.8820 0.8820 0.8810 0.8810
865.334032 0.8810 0.8820 0.8840 0.8850 0.8850
872.000703 0.8860 0.8880 0.8880 0.8890 0.8890
878.667373 0.8900 0.8900 0.8920 0.8930 0.8930
885.334043 0.8930 0.8960 0.8970 0.8970 0.8980
892.000713 0.8980 0.8980 0.8980 0.8980 0.9000
898.667384 0.9000 0.9000 0.9010 0.9020 0.9050
905.334054 0.9060 0.9090 0.9090 0.9080 0.9080
912.000724 0.9090 0.9100 0.9100 0.9120 0.9120
918.667395 0.9130 0.9130 0.9140 0.9140 0.9140
925.334065 0.9140 0.9160 0.9160 0.9160 0.9160
932.000735 0.9160 0.9160 0.9170 0.9170 0.9200
938.667406 0.9200 0.9200 0.9200 0.9210 0.9220
945.334076 0.9220 0.9220 0.9250 0.9260 0.9280
952.000746 0.9280 0.9280 0.9280 0.9280 0.9280
958.667417 0.9280 0.9280 0.9280 0.9300 0.9300
965.334087 0.9300 0.9320 0.9330 0.9330 0.9330
972.000757 0.9330 0.9340 0.9340 0.9340 0.9360
978.667428 0.9360 0.9360 0.9360 0.9370 0.9380
985.334098 0.9400 0.9400 0.9400 0.9410 0.9410
992.000768 0.9410 0.9410 0.9410 0.9410 0.9420
998.667439 0.9420 0.9420 0.9420 0.9420 0.9420
1005.334109 0.9440 0.9440 0.9420 0.9420 0.9440
1012.000779 0.9440 0.9440 0.9440 0.9420 0.9420
1018.667450 0.9410 0.9410 0.9410 0.9410 0.9420
1025.334120 0.9420 0.9420 0.9410 0.9400 0.9400
1032.000790 0.9400 0.9400 0.9400 0.9400 0.9400
1038.667461 0.9400 0.9400 0.9400 0.9400 0.9400
1045.334131 0.9400 0.9400 0.9400 0.9400 0.9400
1052.000801 0.9380 0.9380 0.9380 0.9400 0.9400
1058.667472 0.9400 0.9400 0.9400 0.9400 0.9380
1065.334142 0.9380 0.9380 0.9370 0.9370 0.9370
1072.000812 0.9370 0.9370 0.9370 0.9370 0.9370
1078.667482 0.9380 0.9400 0.9410 0.9410 0.9410
1085.334153 0.9410 0.9410 0.9400 0.9400 0.9400
1092.000823 0.9400 0.9400 0.9400 0.9400 0.9400
1098.667493 0.9400 0.9400 0.9400 0.9400 0.9410
1105.334164 0.9410 0.9410 0.9420 0.9420 0.9420
1112.000834 0.9440 0.9440 0.9420 0.9420 0.9420
1118.667504 0.9440 0.9440 0.9440 0.9440 0.9440
1125.334175 0.9440 0.9450 0.9450 0.9450 0.9450
1132.000845 0.9450 0.9460 0.9460 0.9460 0.9460
1138.667515 0.9450 0.9450 0.9450 0.9490 0.9500
1145.334186 0.9500 0.9500 0.9500 0.9500 0.9500
1152.000856 0.9500 0.9520 0.9520 0.9520 0.9520
1158.667526 0.9520 0.9520 0.9520 0.9520 0.9520
1165.334197 0.9520 0.9530 0.9530 0.9530 0.9530
1172.000867 0.9530 0.9540 0.9540 0.9540 0.9540
1178.667537 0.9540 0.9540 0.9540 0.9540 0.9540
1185.334208 0.9540 0.9560 0.9560 0.9560 0.9560
1192.000878 0.9570 0.9570 0.9570 0.9570 0.9570
1198.667548 0.9580 0.9580 0.9580 0.9580 0.9580
1205.334219 0.9580 0.9600 0.9600 0.9610 0.9610
1212.000889 0.9610 0.9610 0.9610 0.9610 0.9610
1218.667559 0.9610 0.9620 0.9620 0.9620 0.9620
1225.334230 0.9620 0.9620 0.9620 0.9620 0.9620
1232.000900 0.9620 0.9640 0.9640 0.9640 0.9640
1238.667570 0.9640 0.9640 0.9640 0.9640 0.9640
1245.334241 0.9640 0.9640 0.9640 0.9640 0.9640
1252.000911 0.9640 0.9640 0.9640 0.9640 0.9650
1258.667581 0.9640 0.9640 0.9640 0.9640 0.9650
1265.334252 0.9650 0.9650 0.9660 0.9660 0.9660
1272.000922 0.9660 0.9660 0.9660 0.9660 0.9650
1278.667592 0.9650 0.9660 0.9660 0.9660 0.9660
1285.334262 0.9660 0.9660 0.9660 0.9660 0.9660
1292.000933 0.9680 0.9680 0.9690 0.9690 0.9690
1298.667603 0.9680 0.9680 0.9680 0.9680 0.9680
1305.334273 0.9680 0.9680 0.9690 0.9690 0.9680
1312.000944 0.9680 0.9680 0.9660 0.9660 0.9660
1318.667614 0.9680 0.9680 0.9680 0.9680 0.9680
1325.334284 0.9680 0.9680 0.9680 0.9690 0.9690
1332.000955 0.9690 0.9700 0.9700 0.9700 0.9700
1338.667625 0.9690 0.9690 0.9690 0.9690 0.9690
1345.334295 0.9690 0.9680 0.9680 0.9680 0.9680
1352.000966 0.9680 0.9680 0.9680 0.9680 0.9680
1358.667636 0.9660 0.9660 0.9660 0.9660 0.9680
1365.334306 0.9680 0.9680 0.9680 0.9680 0.9680
1372.000977 0.9660 0.9660 0.9650 0.9640 0.9620
1378.667647 0.9620 0.9620 0.9620 0.9620 0.9610
1385.334317 0.9610 0.9610 0.9610 0.9610 0.9610
1392.000988 0.9620 0.9620 0.9620 0.9640 0.9650
1398.667658 0.9640 0.9640 0.9640 0.9640 0.9620
1405.334328 0.9620 0.9620 0.9640 0.9640 0.9640
1412.000999 0.9640 0.9640 0.9640 0.9620 0.9620
1418.667669 0.9620 0.9620 0.9620 0.9610 0.9610
1425.334339 0.9610 0.9610 0.9610 0.9610 0.9600
1432.001010 0.9600 0.9600 0.9580 0.9570 0.9570
1438.667680 0.9570 0.9580 0.9600 0.9600 0.9580
1445.334350 0.9580 0.9570 0.9570 0.9570 0.9570
1452.001021 0.9580 0.9580 0.9580 0.9570 0.9570
1458.667691 0.9570 0.9560 0.9560 0.9560 0.9560
1465.334361 0.9570 0.9570 0.9570 0.9570 0.9570
1472.001031 0.9570 0.9580 0.9580 0.9580 0.9600
1478.667702 0.9610 0.9620 0.9640 0.9650 0.9650
1485.334372 0.9660 0.9680 0.9680 0.9690 0.9690
1492.001042 0.9690 0.9690 0.9690 0.9690 0.9690
1498.667713 0.9690 0.9690 0.9690 0.9690 0.9690
1505.334383 0.9690 0.9690 0.9690 0.9690 0.9680
1512.001053 0.9680 0.9680 0.9680 0.9680 0.9680
1518.667724 0.9660 0.9660 0.9660 0.9660 0.9660
1525.334394 0.9660 0.9660 0.9660 0.9650 0.9650
1532.001064 0.9650 0.9650 0.9650 0.9650 0.9650
1538.667735 0.9650 0.9650 0.9650 0.9620 0.9620
1545.334405 0.9610 0.9610 0.9610 0.9610 0.9610
1552.001075 0.9610 0.9600 0.9600 0.9600 0.9610
1558.667746 0.9610 0.9600 0.9600 0.9600 0.9600
1565.334416 0.9580 0.9560 0.9540 0.9540 0.9540
1572.001086 0.9530 0.9530 0.9520 0.9520 0.9520
1578.667757 0.9520 0.9500 0.9500 0.9490 0.9460
1585.334427 0.9450 0.9420 0.9420 0.9420 0.9410
1592.001097 0.9410 0.9400 0.9360 0.9320 0.9290
1598.667768 0.9260 0.9250 0.9240 0.9220 0.9200
1605.334438 0.9170 0.9160 0.9130 0.9120 0.9100
1612.001108 0.9080 0.9060 0.9050 0.9040 0.9020
1618.667779 0.9020 0.9020 0.9040 0.9040 0.9050
1625.334449 0.9050 0.9060 0.9060 0.9080 0.9090
1632.001119 0.9100 0.9120 0.9120 0.9140 0.9160
1638.667790 0.9170 0.9170 0.9200 0.9200 0.9210
1645.334460 0.9210 0.9220 0.9220 0.9220 0.9220
1652.001130 0.9210 0.9210 0.9210 0.9200 0.9200
1658.667801 0.9180 0.9180 0.9170 0.9170 0.9170
1665.334471 0.9170 0.9180 0.9180 0.9180 0.9200
1672.001141 0.9200 0.9200 0.9210 0.9210 0.9210
1678.667811 0.9220 0.9240 0.9260 0.9290 0.9300
1685.334482 0.9340 0.9360 0.9370 0.9380 0.9400
1692.001152 0.9420 0.9440 0.9490 0.9500 0.9500
1698.667822 0.9500 0.9500 0.9520 0.9520 0.9520
1705.334493 0.9500 0.9500 0.9500 0.9520 0.9520
1712.001163 0.9520 0.9520 0.9520 0.9500 0.9500
1718.667833 0.9500 0.9500 0.9500 0.9490 0.9490
1725.334504 0.9500 0.9500 0.9490 0.9490 0.9490
1732.001174 0.9490 0.9490 0.9490 0.9490 0.9500
1738.667844 0.9520 0.9530 0.9530 0.9540 0.9560
1745.334515 0.9560 0.9560 0.9560 0.9560 0.9570
1752.001185 0.9570 0.9570 0.9570 0.9580 0.9580
1758.667855 0.9580 0.9580 0.9600 0.9600 0.9600
1765.334526 0.9600 0.9600 0.9610 0.9610 0.9610
1772.001196 0.9610 0.9610 0.9610 0.9610 0.9610
1778.667866 0.9610 0.9610 0.9610 0.9610 0.9610
1785.334537 0.9610 0.9610 0.9610 0.9610 0.9610
1792.001207 0.9610 0.9610 0.9610 0.9610 0.9610
1798.667877 0.9610 0.9610 0.9610 0.9610 0.9610
1805.334548 0.9610 0.9610 0.9610 0.9600 0.9600
1812.001218 0.9600 0.9600 0.9600 0.9580 0.9580
1818.667888 0.9580 0.9580 0.9580 0.9580 0.9580
1825.334559 0.9580 0.9580 0.9600 0.9600 0.9600
1832.001229 0.9580 0.9580 0.9580 0.9600 0.9600
1838.667899 0.9600 0.9600 0.9600 0.9580 0.9580
1845.334570 0.9570 0.9570 0.9560 0.9560 0.9560
1852.001240 0.9560 0.9560 0.9560 0.9560 0.9560
1858.667910 0.9570 0.9570 0.9570 0.9570 0.9560
1865.334580 0.9560 0.9560 0.9560 0.9570 0.9570
1872.001251 0.9570 0.9570 0.9570 0.9570 0.9570
1878.667921 0.9570 0.9570 0.9560 0.9560 0.9560
1885.334591 0.9560 0.9560 0.9560 0.9560 0.9540
1892.001262 0.9540 0.9540 0.9530 0.9530 0.9520
1898.667932 0.9520 0.9520 0.9520 0.9530 0.9530
1905.334602 0.9520 0.9520 0.9520 0.9520 0.9520
1912.001273 0.9500 0.9500 0.9500 0.9500 0.9500
1918.667943 0.9500 0.9500 0.9500 0.9520 0.9520
1925.334613 0.9520 0.9520 0.9520 0.9520 0.9500
1932.001284 0.9500 0.9490 0.9490 0.9500 0.9500
1938.667954 0.9490 0.9490 0.9490 0.9490 0.9490
1945.334624 0.9490 0.9490 0.9490 0.9480 0.9480
1952.001295 0.9490 0.9500 0.9500 0.9520 0.9520
1958.667965 0.9520 0.9500 0.9500 0.9490 0.9490
1965.334635 0.9490 0.9490 0.9490 0.9480 0.9480
1972.001306 0.9480 0.9480 0.9480 0.9480 0.9480
1978.667976 0.9480 0.9480 0.9480 0.9480 0.9480
1985.334646 0.9480 0.9460 0.9460 0.9450 0.9450
1992.001317 0.9460 0.9460 0.9460 0.9480 0.9480
1998.667987 0.9490 0.9490 0.9485 0.9480 0.9465
2005.334657 0.9450 0.9435 0.9420 0.9410 0.9400
2012.001328 0.9390 0.9380 0.9380 0.9380 0.9380
2018.667998 0.9380 0.9375 0.9370 0.9370 0.9370
2025.334668 0.9370 0.9369 0.9354 0.9340 0.9340
2032.001339 0.9340 0.9340 0.9340 0.9340 0.9340
2038.668009 0.9340 0.9340 0.9340 0.9340 0.9335
2045.334679 0.9330 0.9330 0.9330 0.9330 0.9330
2052.001349 0.9325 0.9320 0.9320 0.9320 0.9320
2058.668020 0.9320 0.9320 0.9319 0.9309 0.9300
2065.334690 0.9300 0.9300 0.9300 0.9300 0.9300
2072.001360 0.9300 0.9300 0.9299 0.9294 0.9290
2078.668031 0.9290 0.9290 0.9290 0.9290 0.9290
2085.334701 0.9290 0.9290 0.9290 0.9290 0.9291
2092.001371 0.9296 0.9300 0.9300 0.9300 0.9300
2098.668042 0.9300 0.9300 0.9300 0.9300 0.9300
2105.334712 0.9300 0.9300 0.9300 0.9299 0.9294
2112.001382 0.9290 0.9290 0.9290 0.9290 0.9290
2118.668053 0.9290 0.9290 0.9290 0.9290 0.9290
2125.334723 0.9290 0.9290 0.9290 0.9290 0.9290
2132.001393 0.9290 0.9290 0.9290 0.9290 0.9290
2138.668064 0.9290 0.9290 0.9290 0.9290 0.9290
2145.334734 0.9290 0.9289 0.9284 0.9280 0.9280
2152.001404 0.9277 0.9267 0.9260 0.9260 0.9259
2158.668075 0.9253 0.9248 0.9243 0.9240 0.9240
2165.334745 0.9237 0.9227 0.9220 0.9220 0.9220
2172.001415 0.9220 0.9220 0.9220 0.9220 0.9220
2178.668086 0.9220 0.9220 0.9223 0.9233 0.9240
2185.334756 0.9240 0.9236 0.9226 0.9220 0.9220
2192.001426 0.9220 0.9220 0.9220 0.9220 0.9220
2198.668097 0.9220 0.9220 0.9220 0.9220 0.9220
2205.334767 0.9220 0.9220 0.9220 0.9220 0.9220
2212.001437 0.9220 0.9220 0.9220 0.9220 0.9220
2218.668108 0.9220 0.9220 0.9218 0.9213 0.9210
2225.334778 0.9210 0.9210 0.9210 0.9210 0.9210
2232.001448 0.9210 0.9210 0.9210 0.9210 0.9210
2238.668119 0.9210 0.9208 0.9203 0.9200 0.9200
2245.334789 0.9200 0.9200 0.9200 0.9200 0.9200
2252.001459 0.9200 0.9200 0.9200 0.9200 0.9200
2258.668129 0.9200 0.9200 0.9200 0.9200 0.9195
2265.334800 0.9185 0.9180 0.9180 0.9180 0.9180
2272.001470 0.9180 0.9180 0.9180 0.9180 0.9180
2278.668140 0.9180 0.9180 0.9180 0.9180 0.9180
2285.334811 0.9180 0.9180 0.9180 0.9180 0.9180
2292.001481 0.9180 0.9180 0.9180 0.9177 0.9172
2298.668151 0.9170 0.9170 0.9170 0.9170 0.9170
2305.334822 0.9170 0.9170 0.9170 0.9170 0.9170
2312.001492 0.9170 0.9170 0.9167 0.9162 0.9160
2318.668162 0.9160 0.9160 0.9160 0.9160 0.9160
2325.334833 0.9160 0.9160 0.9154 0.9144 0.9140
2332.001503 0.9140 0.9137 0.9132 0.9127 0.9122
2338.668173 0.9120 0.9120 0.9120 0.9120 0.9113
2345.334844 0.9103 0.9100 0.9100 0.9100 0.9100
2352.001514 0.9100 0.9100 0.9100 0.9100 0.9096
2358.668184 0.9091 0.9090 0.9090 0.9086 0.9081
2365.334855 0.9073 0.9063 0.9056 0.9051 0.9046
2372.001525 0.9041 0.9033 0.9023 0.9020 0.9020
2378.668195 0.9028 0.9038 0.9044 0.9049 0.9054
2385.334866 0.9059 0.9068 0.9078 0.9084 0.9089
2392.001536 0.9090 0.9090 0.9090 0.9090 0.9090
2398.668206 0.9090 0.9094 0.9099 0.9100 0.9100
2405.334877 0.9100 0.9100 0.9100 0.9100 0.9100
2412.001547 0.9100 0.9100 0.9100 0.9100 0.9100
2418.668217 0.9100 0.9100 0.9100 0.9100 0.9100
2425.334888 0.9100 0.9100 0.9100 0.9100 0.9100
2432.001558 0.9100 0.9100 0.9100 0.9100 0.9100
2438.668228 0.9100 0.9100 0.9100 0.9100 0.9100
2445.334898 0.9096 0.9091 0.9090 0.9090 0.9090
2452.001569 0.9090 0.9090 0.9090 0.9090 0.9090
2458.668239 0.9090 0.9090 0.9090 0.9090 0.9090
2465.334909 0.9090 0.9085 0.9080 0.9080 0.9080
2472.001580 0.9080 0.9080 0.9080 0.9080 0.9071
2478.668250 0.9060 0.9060 0.9060 0.9060 0.9060
2485.334920 0.9055 0.9050 0.9050 0.9050 0.9050
2492.001591 0.9050 0.9050 0.9050 0.9045 0.9040
2498.668261 0.9040 0.9040 0.9030 0.9020 0.9020
2505.334931 0.9020 0.9020 0.9020 0.9020 0.9020
2512.001602 0.9020 0.9020 0.9020 0.9020 0.9020
2518.668272 0.9020 0.9020 0.9020 0.9020 0.9020
2525.334942 0.9015 0.9010 0.9010 0.9010 0.9010
2532.001613 0.9010 0.9010 0.9010 0.9010 0.9010
2538.668283 0.9010 0.9010 0.9010 0.9010 0.9010
2545.334953 0.9010 0.9010 0.9010 0.9010 0.9010
2552.001624 0.9005 0.9000 0.9000 0.9000 0.9000
2558.668294 0.9000 0.9000 0.9000 0.9000 0.9000
2565.334964 0.9000 0.9000 0.9000 0.9000 0.9000
2572.001635 0.9000 0.9000 0.9000 0.9000 0.9000
2578.668305 0.9000 0.9000 0.9000 0.9000 0.9000
2585.334975 0.8998 0.8988 0.8980 0.8980 0.8980
2592.001646 0.8980 0.8980 0.8980 0.8980 0.8980
2598.668316 0.8980 0.8980 0.8979 0.8974 0.8970
2605.334986 0.8970 0.8970 0.8970 0.8970 0.8970
2612.001657 0.8969 0.8964 0.8960 0.8960 0.8960
2618.668327 0.8960 0.8960 0.8960 0.8960 0.8960
2625.334997 0.8958 0.8948 0.8940 0.8940 0.8940
2632.001668 0.8940 0.8940 0.8940 0.8940 0.8940
2638.668338 0.8939 0.8934 0.8930 0.8930 0.8930
2645.335008 0.8930 0.8930 0.8930 0.8930 0.8930
2652.001678 0.8929 0.8924 0.8920 0.8920 0.8920
2658.668349 0.8920 0.8920 0.8920 0.8920 0.8920
2665.335019 0.8920 0.8920 0.8920 0.8920 0.8920
2672.001689 0.8920 0.8920 0.8920 0.8920 0.8920
2678.668360 0.8920 0.8920 0.8917 0.8907 0.8900
2685.335030 0.8900 0.8900 0.8900 0.8900 0.8900
2692.001700 0.8900 0.8900 0.8900 0.8900 0.8900
2698.668371 0.8900 0.8900 0.8900 0.8900 0.8900
2705.335041 0.8900 0.8900 0.8900 0.8900 0.8898
2712.001711 0.8893 0.8890 0.8890 0.8890 0.8890
2718.668382 0.8890 0.8890 0.8888 0.8883 0.8880
2725.335052 0.8880 0.8880 0.8880 0.8880 0.8880
2732.001722 0.8880 0.8880 0.8875 0.8865 0.8860
2738.668393 0.8860 0.8860 0.8860 0.8860 0.8860
2745.335063 0.8858 0.8853 0.8850 0.8850 0.8850
2752.001733 0.8850 0.8850 0.8850 0.8850 0.8850
2758.668404 0.8847 0.8842 0.8840 0.8840 0.8840
2765.335074 0.8840 0.8840 0.8840 0.8835 0.8825
2772.001744 0.8820 0.8820 0.8817 0.8812 0.8810
2778.668415 0.8810 0.8810 0.8810 0.8807 0.8802
2785.335085 0.8800 0.8800 0.8800 0.8800 0.8794
2792.001755 0.8784 0.8780 0.8780 0.8780 0.8780
2798.668426 0.8777 0.8772 0.8770 0.8770 0.8770
2805.335096 0.8770 0.8767 0.8762 0.8760 0.8760
2812.001766 0.8760 0.8760 0.8754 0.8744 0.8740
2818.668437 0.8740 0.8740 0.8740 0.8737 0.8732
2825.335107 0.8730 0.8730 0.8730 0.8730 0.8730
2832.001777 0.8730 0.8727 0.8722 0.8720 0.8720
2838.668447 0.8720 0.8720 0.8710 0.8695 0.8687
2845.335118 0.8682 0.8673 0.8663 0.8657 0.8652
2852.001788 0.8639 0.8624 0.8606 0.8586 0.8562
2858.668458 0.8537 0.8505 0.8470 0.8456 0.8451
2865.335129 0.8446 0.8441 0.8440 0.8440 0.8440
2872.001799 0.8440 0.8444 0.8449 0.8454 0.8459
2878.668469 0.8483 0.8513 0.8528 0.8538 0.8548
2885.335140 0.8558 0.8564 0.8569 0.8570 0.8570
2892.001810 0.8566 0.8561 0.8552 0.8542 0.8532
2898.668480 0.8522 0.8512 0.8502 0.8496 0.8491
2905.335151 0.8486 0.8481 0.8468 0.8453 0.8438
2912.001821 0.8423 0.8416 0.8411 0.8398 0.8383
2918.668491 0.8343 0.8298 0.8278 0.8263 0.8227
2925.335162 0.8187 0.8163 0.8143 0.8115 0.8084
2932.001832 0.8071 0.8061 0.8056 0.8051 0.8050
2938.668502 0.8050 0.8054 0.8059 0.8104 0.8154
2945.335173 0.8178 0.8198 0.8218 0.8238 0.8262
2952.001843 0.8287 0.8294 0.8299 0.8309 0.8319
2958.668513 0.8320 0.8320 0.8325 0.8330 0.8330
2965.335184 0.8330 0.8330 0.8330 0.8335 0.8340
2972.001854 0.8349 0.8359 0.8365 0.8370 0.8384
2978.668524 0.8399 0.8419 0.8439 0.8450 0.8460
2985.335195 0.8460 0.8460 0.8470 0.8480 0.8480
2992.001865 0.8480 0.8485 0.8490 0.8490 0.8490
2998.668535 0.8495 0.8500 0.8500 0.8500 0.8500
3005.335206 0.8500 0.8500 0.8500 0.8500 0.8500
3012.001876 0.8500 0.8500 0.8495 0.8490 0.8490
3018.668546 0.8490 0.8490 0.8490 0.8490 0.8490
3025.335216 0.8490 0.8490 0.8490 0.8490 0.8490
3032.001887 0.8490 0.8485 0.8480 0.8480 0.8480
3038.668557 0.8480 0.8480 0.8480 0.8479 0.8469
3045.335227 0.8460 0.8460 0.8460 0.8460 0.8460
3052.001898 0.8460 0.8460 0.8455 0.8450 0.8450
3058.668568 0.8450 0.8450 0.8450 0.8450 0.8450
3065.335238 0.8450 0.8449 0.8444 0.8439 0.8429
3072.001909 0.8420 0.8420 0.8419 0.8414 0.8410
3078.668579 0.8410 0.8409 0.8404 0.8400 0.8400
3085.335249 0.8400 0.8400 0.8398 0.8388 0.8380
3092.001920 0.8380 0.8380 0.8380 0.8380 0.8380
3098.668590 0.8380 0.8380 0.8380 0.8380 0.8379
3105.335260 0.8374 0.8370 0.8370 0.8369 0.8364
3112.001931 0.8360 0.8360 0.8358 0.8348 0.8340
3118.668601 0.8340 0.8339 0.8334 0.8330 0.8330
3125.335271 0.8330 0.8330 0.8330 0.8330 0.8329
3132.001942 0.8324 0.8320 0.8320 0.8320 0.8320
3138.668612 0.8320 0.8320 0.8320 0.8320 0.8317
3145.335282 0.8307 0.8299 0.8294 0.8290 0.8290
3152.001953 0.8289 0.8284 0.8280 0.8280 0.8280
3158.668623 0.8280 0.8277 0.8267 0.8260 0.8260
3165.335293 0.8260 0.8260 0.8258 0.8253 0.8250
3172.001964 0.8250 0.8250 0.8250 0.8250 0.8250
3178.668634 0.8248 0.8243 0.8240 0.8240 0.8236
3185.335304 0.8226 0.8218 0.8213 0.8210 0.8210
3192.001975 0.8208 0.8203 0.8196 0.8186 0.8178
3198.668645 0.8173 0.8170 0.8170 0.8168 0.8163
3205.335315 0.8160 0.8160 0.8156 0.8146 0.8140
3212.001986 0.8140 0.8138 0.8133 0.8130 0.8130
3218.668656 0.8124 0.8109 0.8098 0.8093 0.8088
3225.335326 0.8083 0.8080 0.8080 0.8080 0.8080
3232.001996 0.8075 0.8065 0.8060 0.8060 0.8058
3238.668667 0.8053 0.8048 0.8043 0.8035 0.8025
3245.335337 0.8018 0.8013 0.8010 0.8010 0.8007
3252.002007 0.8002 0.8000 0.8000 0.7995 0.7985
3258.668678 0.7980 0.7980 0.7977 0.7972 0.7970
3265.335348 0.7970 0.7962 0.7947 0.7937 0.7932
3272.002018 0.7930 0.7930 0.7930 0.7930 0.7927
3278.668689 0.7922 0.7914 0.7904 0.7897 0.7892
3285.335359 0.7890 0.7890 0.7887 0.7882 0.7874
3292.002029 0.7864 0.7854 0.7844 0.7834 0.7824
3298.668700 0.7817 0.7812 0.7807 0.7802 0.7794
3305.335370 0.7784 0.7777 0.7772 0.7767 0.7762
3312.002040 0.7754 0.7744 0.7740 0.7740 0.7737
3318.668711 0.7732 0.7730 0.7730 0.7727 0.7722
3325.335381 0.7714 0.7704 0.7700 0.7700 0.7697
3332.002051 0.7692 0.7690 0.7690 0.7687 0.7682
3338.668722 0.7673 0.7663 0.7657 0.7652 0.7647
3345.335392 0.7642 0.7633 0.7623 0.7613 0.7603
3352.002062 0.7600 0.7600 0.7593 0.7583 0.7576
3358.668733 0.7571 0.7559 0.7544 0.7533 0.7523
3365.335403 0.7513 0.7503 0.7496 0.7491 0.7486
3372.002073 0.7481 0.7473 0.7463 0.7445 0.7425
3378.668744 0.7413 0.7403 0.7393 0.7382 0.7372
3385.335414 0.7362 0.7352 0.7342 0.7336 0.7331
3392.002084 0.7326 0.7321 0.7308 0.7293 0.7286
3398.668755 0.7281 0.7272 0.7262 0.7256 0.7251
3405.335425 0.7238 0.7223 0.7212 0.7202 0.7192
3412.002095 0.7182 0.7176 0.7171 0.7158 0.7143
3418.668765 0.7140 0.7140 0.7136 0.7131 0.7126
3425.335436 0.7121 0.7112 0.7102 0.7100 0.7100
3432.002106 0.7100 0.7100 0.7096 0.7091 0.7090
3438.668776 0.7090 0.7086 0.7081 0.7080 0.7080
3445.335447 0.7080 0.7080 0.7071 0.7061 0.7060
3452.002117 0.7060 0.7060 0.7060 0.7060 0.7060
3458.668787 0.7060 0.7060 0.7060 0.7060 0.7069
3465.335458 0.7079 0.7080 0.7080 0.7080 0.7080
3472.002128 0.7080 0.7080 0.7080 0.7080 0.7085
3478.668798 0.7090 0.7090 0.7090 0.7090 0.7090
3485.335469 0.7095 0.7100 0.7100 0.7100 0.7110
3492.002139 0.7120 0.7120 0.7120 0.7120 0.7120
3498.668809 0.7120 0.7120 0.7125 0.7130 0.7135
3505.335480 0.7140 0.7150 0.7160 0.7160 0.7160
3512.002150 0.7165 0.7170 0.7175 0.7180 0.7190
3518.668820 0.7200 0.7200 0.7200 0.7205 0.7210
3525.335491 0.7215 0.7221 0.7236 0.7250 0.7250
3532.002161 0.7250 0.7255 0.7261 0.7271 0.7280
3538.668831 0.7280 0.7280 0.7285 0.7290 0.7290
3545.335502 0.7290 0.7295 0.7301 0.7311 0.7320
3552.002172 0.7325 0.7330 0.7335 0.7341 0.7351
3558.668842 0.7361 0.7366 0.7371 0.7376 0.7381
3565.335513 0.7391 0.7400 0.7400 0.7401 0.7406
3572.002183 0.7412 0.7427 0.7441 0.7451 0.7462
3578.668853 0.7477 0.7492 0.7507 0.7521 0.7526
3585.335524 0.7531 0.7536 0.7542 0.7557 0.7571
3592.002194 0.7576 0.7582 0.7592 0.7601 0.7606
3598.668864 0.7613 0.7628 0.7641 0.7646 0.7651
3605.335535 0.7656 0.7662 0.7672 0.7680 0.7680
3612.002205 0.7680 0.7680 0.7681 0.7686 0.7690
3618.668875 0.7690 0.7691 0.7696 0.7702 0.7712
3625.335545 0.7721 0.7726 0.7731 0.7736 0.7744
3632.002216 0.7759 0.7771 0.7776 0.7780 0.7780
3638.668886 0.7783 0.7793 0.7800 0.7800 0.7800
3645.335556 0.7800 0.7800 0.7800 0.7802 0.7807
3652.002227 0.7810 0.7810 0.7810 0.7810 0.7810
3658.668897 0.7810 0.7810 0.7810 0.7810 0.7810
3665.335567 0.7810 0.7810 0.7810 0.7810 0.7810
3672.002238 0.7810 0.7812 0.7817 0.7820 0.7820
3678.668908 0.7824 0.7834 0.7840 0.7840 0.7842
3685.335578 0.7847 0.7852 0.7857 0.7864 0.7874
3692.002249 0.7880 0.7880 0.7880 0.7880 0.7880
3698.668919 0.7880 0.7880 0.7880 0.7876 0.7866
3705.335589 0.7858 0.7853 0.7850 0.7850 0.7850
3712.002260 0.7850 0.7850 0.7850 0.7848 0.7843
3718.668930 0.7840 0.7840 0.7840 0.7840 0.7840
3725.335600 0.7840 0.7836 0.7825 0.7820 0.7820
3732.002271 0.7820 0.7820 0.7820 0.7820 0.7820
3738.668941 0.7820 0.7820 0.7820 0.7818 0.7813
3745.335611 0.7810 0.7810 0.7808 0.7803 0.7800
3752.002282 0.7800 0.7795 0.7785 0.7780 0.7780
3758.668952 0.7777 0.7772 0.7770 0.7770 0.7770
3765.335622 0.7770 0.7770 0.7770 0.7770 0.7770
3772.002293 0.7770 0.7770 0.7770 0.7770 0.7770
3778.668963 0.7770 0.7770 0.7770 0.7770 0.7770
3785.335633 0.7770 0.7770 0.7767 0.7762 0.7760
3792.002304 0.7760 0.7754 0.7744 0.7740 0.7740
3798.668974 0.7740 0.7740 0.7737 0.7732 0.7730
3805.335644 0.7730 0.7730 0.7730 0.7730 0.7730
3812.002314 0.7730 0.7730 0.7727 0.7722 0.7720
3818.668985 0.7720 0.7720 0.7720 0.7720 0.7720
3825.335655 0.7714 0.7704 0.7700 0.7700 0.7700
3832.002325 0.7700 0.7700 0.7700 0.7700 0.7700
3838.668996 0.7707 0.7717 0.7713 0.7703 0.7700
3845.335666 0.7700 0.7700 0.7700 0.7700 0.7700
3852.002336 0.7697 0.7692 0.7690 0.7690 0.7690
3858.669007 0.7690 0.7686 0.7681 0.7680 0.7680
3865.335677 0.7673 0.7663 0.7660 0.7660 0.7660
3872.002347 0.7660 0.7660 0.7660 0.7660 0.7660
3878.669018 0.7660 0.7660 0.7660 0.7660 0.7660
3885.335688 0.7660 0.7656 0.7651 0.7650 0.7650
3892.002358 0.7650 0.7650 0.7650 0.7650 0.7650
3898.669029 0.7650 0.7650 0.7650 0.7650 0.7650
3905.335699 0.7650 0.7650 0.7646 0.7641 0.7640
3912.002369 0.7640 0.7640 0.7640 0.7632 0.7622
3918.669040 0.7620 0.7620 0.7620 0.7620 0.7616
3925.335710 0.7611 0.7610 0.7610 0.7606 0.7601
3932.002380 0.7600 0.7600 0.7600 0.7600 0.7600
3938.669051 0.7600 0.7600 0.7600 0.7600 0.7600
3945.335721 0.7591 0.7581 0.7580 0.7580 0.7580
3952.002391 0.7580 0.7580 0.7580 0.7580 0.7580
3958.669062 0.7575 0.7570 0.7570 0.7570 0.7570
3965.335732 0.7570 0.7570 0.7570 0.7551 0.7531
3972.002402 0.7516 0.7501 0.7500 0.7500 0.7500
3978.669073 0.7500 0.7500 0.7500 0.7500 0.7500
3985.335743 0.7500 0.7500
##END=
