##TITLE=1,2-Diethylbenzene
##JCAMP-DX=4.24
$$ By DXEDIT 1.05 (RS McDonald)
##DATA TYPE=INFRARED SPECTRUM
##CLASS=COBLENTZ III
##ORIGIN=DOW CHEMICAL COMPANY
##OWNER=COPYRIGHT (C) 1988 by COBLENTZ SOCIETY INC.
Collection (C) 2018 copyright by the U.S. Secretary of Commerce
on behalf of the United States of America. All rights reserved.
##DATE=1964/06/17
##CAS REGISTRY NO=135-01-3
##MOLFORM=C10 H14
##SOURCE REFERENCE=COBLENTZ NO. 6365
##$NIST SOURCE=COBLENTZ
##$NIST IMAGE=cob6365
##SPECTROMETER/DATA SYSTEM=BECKMAN IR-9 (GRATING)
##INSTRUMENT PARAMETERS=ORDER CHANGES: 670, 1200, 2000 CM^-^1
##STATE=SOLUTION (10% CCl4 FOR 3800-1340, 10% CS2 FOR 1340-400)
##PATH LENGTH=0.011 CM, 0.011 CM
$$ SEE SPECTRUM NO. 3589 FOR "NEAT" SPECTRUM
$$ SPECTRAL CONTAMINATIONS DUE TO CS2 AROUND 650, 850, CCl4 AROUND 1550 CM^-^1 HAVE BEEN SUBTRACTED
$$SPECTRAL CONTAMINATION DUE TO UNKNOWN AROUND 886, 400 CM^-^1
$$ SPECTRAL FEATURE AT 1996 CM^-^1 IS PROBABLY AN ARTIFACT CAUSED BY GRATING CHANGE
##SAMPLING PROCEDURE=TRANSMISSION
##RESOLUTION=2
##DATA PROCESSING=DIGITIZED BY COBLENTZ SOCIETY (BATCH I) FROM HARD COPY
##XUNITS=1/CM
##YUNITS=TRANSMITTANCE
##XFACTOR=1
##YFACTOR=1
##DELTAX=1
##FIRSTX=3814
##LASTX=400
##FIRSTY=0.8999
##MAXX=3814
##MINX=400
##MAXY=0.9781
##MINY=0.0107
##NPOINTS=3415
##XYDATA=(X++(Y..Y))
3814.000000 0.8999 0.8995 0.8995 0.9000 0.9003
3809.000000 0.8996 0.8994 0.9000 0.9002 0.9001
3804.000000 0.9001 0.9000 0.8991 0.8989 0.8989
3799.000000 0.8989 0.8989 0.8990 0.8996 0.8989
3794.000000 0.8997 0.8996 0.8995 0.8995 0.8995
3789.000000 0.8994 0.8994 0.8993 0.8993 0.8992
3784.000000 0.8987 0.8983 0.8983 0.8989 0.8991
3779.000000 0.8983 0.8989 0.8988 0.8988 0.8979
3774.000000 0.8988 0.8988 0.8988 0.8987 0.8987
3769.000000 0.8985 0.8985 0.8985 0.8985 0.8985
3764.000000 0.8985 0.8985 0.8985 0.8985 0.8990
3759.000000 0.8988 0.8984 0.8984 0.8984 0.8984
3754.000000 0.8984 0.8984 0.8984 0.8985 0.8985
3749.000000 0.8987 0.8988 0.8988 0.8990 0.8991
3744.000000 0.8992 0.8993 0.8994 0.8995 0.8996
3739.000000 0.9000 0.9007 0.9008 0.9009 0.9010
3734.000000 0.9008 0.9004 0.9010 0.9015 0.9018
3729.000000 0.9019 0.9020 0.9021 0.9023 0.9024
3724.000000 0.9026 0.9027 0.9028 0.9029 0.9031
3719.000000 0.9023 0.9024 0.9034 0.9036 0.9037
3714.000000 0.9038 0.9038 0.9044 0.9047 0.9047
3709.000000 0.9054 0.9054 0.9056 0.9057 0.9060
3704.000000 0.9061 0.9062 0.9063 0.9064 0.9066
3699.000000 0.9067 0.9068 0.9069 0.9062 0.9062
3694.000000 0.9064 0.9065 0.9066 0.9067 0.9069
3689.000000 0.9070 0.9072 0.9071 0.9066 0.9067
3684.000000 0.9069 0.9070 0.9071 0.9072 0.9074
3679.000000 0.9075 0.9077 0.9078 0.9079 0.9080
3674.000000 0.9080 0.9082 0.9083 0.9083 0.9091
3669.000000 0.9083 0.9080 0.9078 0.9076 0.9073
3664.000000 0.9071 0.9062 0.9054 0.9046 0.9038
3659.000000 0.9028 0.9021 0.9013 0.9005 0.8996
3654.000000 0.8987 0.8983 0.8977 0.8975 0.8972
3649.000000 0.8969 0.8966 0.8965 0.8965 0.8965
3644.000000 0.8965 0.8965 0.8965 0.8965 0.8966
3639.000000 0.8966 0.8967 0.8970 0.8974 0.8979
3634.000000 0.8984 0.8991 0.9003 0.9008 0.9011
3629.000000 0.9010 0.9019 0.9031 0.9037 0.9043
3624.000000 0.9051 0.9055 0.9060 0.9063 0.9067
3619.000000 0.9068 0.9070 0.9070 0.9070 0.9070
3614.000000 0.9071 0.9071 0.9071 0.9071 0.9071
3609.000000 0.9070 0.9063 0.9071 0.9071 0.9071
3604.000000 0.9071 0.9068 0.9065 0.9071 0.9067
3599.000000 0.9062 0.9067 0.9072 0.9073 0.9073
3594.000000 0.9073 0.9073 0.9074 0.9074 0.9075
3589.000000 0.9075 0.9076 0.9076 0.9076 0.9076
3584.000000 0.9077 0.9077 0.9078 0.9078 0.9079
3579.000000 0.9079 0.9080 0.9080 0.9077 0.9074
3574.000000 0.9081 0.9081 0.9078 0.9073 0.9074
3569.000000 0.9074 0.9075 0.9075 0.9076 0.9076
3564.000000 0.9077 0.9077 0.9078 0.9078 0.9079
3559.000000 0.9079 0.9079 0.9079 0.9079 0.9088
3554.000000 0.9079 0.9080 0.9088 0.9087 0.9085
3549.000000 0.9079 0.9086 0.9085 0.9085 0.9081
3544.000000 0.9080 0.9084 0.9084 0.9083 0.9077
3539.000000 0.9079 0.9075 0.9078 0.9081 0.9081
3534.000000 0.9081 0.9080 0.9080 0.9079 0.9079
3529.000000 0.9068 0.9068 0.9068 0.9068 0.9068
3524.000000 0.9068 0.9067 0.9067 0.9067 0.9067
3519.000000 0.9067 0.9067 0.9066 0.9066 0.9066
3514.000000 0.9066 0.9066 0.9066 0.9066 0.9066
3509.000000 0.9065 0.9065 0.9065 0.9065 0.9065
3504.000000 0.9065 0.9064 0.9064 0.9064 0.9064
3499.000000 0.9064 0.9065 0.9065 0.9065 0.9065
3494.000000 0.9065 0.9065 0.9065 0.9065 0.9065
3489.000000 0.9065 0.9066 0.9066 0.9066 0.9066
3484.000000 0.9066 0.9066 0.9066 0.9066 0.9066
3479.000000 0.9066 0.9066 0.9066 0.9067 0.9067
3474.000000 0.9067 0.9067 0.9067 0.9067 0.9068
3469.000000 0.9068 0.9069 0.9069 0.9070 0.9070
3464.000000 0.9071 0.9071 0.9072 0.9072 0.9073
3459.000000 0.9073 0.9074 0.9074 0.9075 0.9075
3454.000000 0.9076 0.9076 0.9077 0.9077 0.9078
3449.000000 0.9078 0.9080 0.9080 0.9081 0.9081
3444.000000 0.9083 0.9083 0.9084 0.9085 0.9085
3439.000000 0.9085 0.9087 0.9087 0.9088 0.9087
3434.000000 0.9085 0.9080 0.9075 0.9070 0.9064
3429.000000 0.9060 0.9057 0.9053 0.9050 0.9039
3424.000000 0.9043 0.9040 0.9037 0.9033 0.9033
3419.000000 0.9032 0.9033 0.9040 0.9045 0.9049
3414.000000 0.9054 0.9056 0.9058 0.9059 0.9061
3409.000000 0.9063 0.9065 0.9071 0.9072 0.9069
3404.000000 0.9071 0.9072 0.9073 0.9073 0.9073
3399.000000 0.9073 0.9073 0.9072 0.9072 0.9072
3394.000000 0.9072 0.9072 0.9072 0.9071 0.9071
3389.000000 0.9071 0.9071 0.9071 0.9071 0.9071
3384.000000 0.9072 0.9072 0.9072 0.9072 0.9073
3379.000000 0.9073 0.9074 0.9074 0.9075 0.9075
3374.000000 0.9076 0.9076 0.9076 0.9076 0.9085
3369.000000 0.9078 0.9077 0.9077 0.9079 0.9079
3364.000000 0.9080 0.9080 0.9080 0.9080 0.9080
3359.000000 0.9082 0.9083 0.9083 0.9084 0.9084
3354.000000 0.9086 0.9086 0.9087 0.9087 0.9089
3349.000000 0.9089 0.9090 0.9092 0.9093 0.9100
3344.000000 0.9103 0.9096 0.9104 0.9096 0.9097
3339.000000 0.9098 0.9108 0.9108 0.9108 0.9101
3334.000000 0.9102 0.9102 0.9103 0.9104 0.9105
3329.000000 0.9105 0.9106 0.9106 0.9107 0.9108
3324.000000 0.9109 0.9109 0.9110 0.9110 0.9111
3319.000000 0.9111 0.9112 0.9112 0.9113 0.9114
3314.000000 0.9115 0.9115 0.9125 0.9125 0.9126
3309.000000 0.9126 0.9126 0.9120 0.9128 0.9129
3304.000000 0.9127 0.9121 0.9122 0.9122 0.9123
3299.000000 0.9124 0.9125 0.9125 0.9126 0.9127
3294.000000 0.9128 0.9128 0.9128 0.9128 0.9128
3289.000000 0.9128 0.9128 0.9127 0.9126 0.9126
3284.000000 0.9126 0.9134 0.9133 0.9124 0.9126
3279.000000 0.9132 0.9129 0.9121 0.9124 0.9129
3274.000000 0.9129 0.9128 0.9128 0.9126 0.9125
3269.000000 0.9123 0.9122 0.9120 0.9119 0.9117
3264.000000 0.9115 0.9113 0.9112 0.9110 0.9109
3259.000000 0.9107 0.9106 0.9103 0.9092 0.9099
3254.000000 0.9096 0.9093 0.9092 0.9089 0.9088
3249.000000 0.9084 0.9082 0.9080 0.9078 0.9072
3244.000000 0.9070 0.9072 0.9070 0.9068 0.9066
3239.000000 0.9064 0.9062 0.9059 0.9057 0.9054
3234.000000 0.9052 0.9050 0.9048 0.9046 0.9044
3229.000000 0.9041 0.9040 0.9036 0.9025 0.9026
3224.000000 0.9031 0.9029 0.9027 0.9024 0.9022
3219.000000 0.9019 0.9017 0.9014 0.9011 0.9008
3214.000000 0.9005 0.9001 0.8998 0.8994 0.8991
3209.000000 0.8988 0.8977 0.8972 0.8969 0.8966
3204.000000 0.8963 0.8960 0.8956 0.8952 0.8950
3199.000000 0.8954 0.8945 0.8946 0.8938 0.8941
3194.000000 0.8938 0.8934 0.8930 0.8926 0.8919
3189.000000 0.8915 0.8916 0.8912 0.8902 0.8895
3184.000000 0.8890 0.8885 0.8880 0.8877 0.8873
3179.000000 0.8868 0.8864 0.8856 0.8849 0.8842
3174.000000 0.8835 0.8828 0.8820 0.8814 0.8809
3169.000000 0.8804 0.8799 0.8800 0.8802 0.8804
3164.000000 0.8810 0.8816 0.8813 0.8815 0.8821
3159.000000 0.8823 0.8820 0.8828 0.8830 0.8833
3154.000000 0.8845 0.8850 0.8853 0.8856 0.8860
3149.000000 0.8863 0.8857 0.8859 0.8861 0.8861
3144.000000 0.8862 0.8861 0.8859 0.8856 0.8857
3139.000000 0.8848 0.8839 0.8830 0.8823 0.8813
3134.000000 0.8803 0.8792 0.8782 0.8767 0.8754
3129.000000 0.8738 0.8724 0.8704 0.8686 0.8665
3124.000000 0.8644 0.8613 0.8582 0.8539 0.8498
3119.000000 0.8455 0.8412 0.8387 0.8362 0.8185
3114.000000 0.8009 0.7957 0.7907 0.7906 0.7904
3109.000000 0.7928 0.7951 0.7980 0.8008 0.8032
3104.000000 0.8056 0.8082 0.8107 0.8130 0.8162
3099.000000 0.8167 0.8174 0.8178 0.8186 0.8185
3094.000000 0.8176 0.8154 0.8131 0.8002 0.7878
3089.000000 0.7722 0.7571 0.7410 0.7250 0.6996
3084.000000 0.6745 0.6585 0.6426 0.6214 0.6004
3079.000000 0.5927 0.5856 0.5847 0.5834 0.5819
3074.000000 0.5808 0.5763 0.5608 0.5657 0.5604
3069.000000 0.5589 0.5585 0.5605 0.5632 0.5762
3064.000000 0.5892 0.6018 0.6148 0.6279 0.6412
3059.000000 0.6548 0.6705 0.6677 0.6677 0.6672
3054.000000 0.6665 0.6628 0.6595 0.6527 0.6459
3049.000000 0.6433 0.6407 0.6386 0.6371 0.6337
3044.000000 0.6308 0.6262 0.6216 0.6140 0.6063
3039.000000 0.5986 0.5909 0.5831 0.5747 0.5591
3034.000000 0.5438 0.5270 0.5104 0.4943 0.4780
3029.000000 0.4615 0.4453 0.4337 0.4216 0.4255
3024.000000 0.4287 0.4404 0.4523 0.4641 0.4758
3019.000000 0.4882 0.5002 0.5120 0.5234 0.5351
3014.000000 0.5470 0.5588 0.5707 0.5825 0.5943
3009.000000 0.5987 0.6019 0.6021 0.6021 0.5976
3004.000000 0.5929 0.5846 0.5763 0.5682 0.5606
2999.000000 0.5525 0.5443 0.5363 0.5284 0.5204
2994.000000 0.5125 0.4693 0.4259 0.3836 0.3414
2989.000000 0.2925 0.2438 0.1950 0.1463 0.0973
2984.000000 0.0486 0.0331 0.0178 0.0160 0.0146
2979.000000 0.0137 0.0131 0.0132 0.0133 0.0147
2974.000000 0.0160 0.0182 0.0205 0.0227 0.0250
2969.000000 0.0407 0.0565 0.0778 0.0991 0.1204
2964.000000 0.1418 0.1631 0.1844 0.2057 0.2270
2959.000000 0.2486 0.2700 0.2888 0.3078 0.3077
2954.000000 0.3082 0.3071 0.3061 0.2902 0.2744
2949.000000 0.2585 0.2427 0.2267 0.2107 0.1948
2944.000000 0.1791 0.1633 0.1475 0.1471 0.1471
2939.000000 0.1470 0.1471 0.1579 0.1686 0.1958
2934.000000 0.2231 0.2503 0.2776 0.2964 0.3152
2929.000000 0.3240 0.3328 0.3418 0.3507 0.3595
2924.000000 0.3684 0.3812 0.3939 0.4093 0.4251
2919.000000 0.4321 0.4391 0.4398 0.4406 0.4408
2914.000000 0.4417 0.4412 0.4413 0.4403 0.4394
2909.000000 0.4376 0.4364 0.4336 0.4304 0.4272
2904.000000 0.4241 0.4211 0.4181 0.4149 0.4120
2899.000000 0.4114 0.4110 0.4106 0.4103 0.4097
2894.000000 0.4091 0.3940 0.3790 0.3550 0.3310
2889.000000 0.3070 0.2831 0.2591 0.2351 0.2112
2884.000000 0.1872 0.1723 0.1584 0.1579 0.1582
2879.000000 0.1680 0.1778 0.2107 0.2440 0.2771
2874.000000 0.3102 0.3433 0.3765 0.4085 0.4406
2869.000000 0.4598 0.4792 0.4984 0.5176 0.5370
2864.000000 0.5563 0.5755 0.5949 0.6141 0.6334
2859.000000 0.6469 0.6607 0.6748 0.6890 0.6963
2854.000000 0.7030 0.7087 0.7146 0.7192 0.7242
2849.000000 0.7288 0.7336 0.7388 0.7446 0.7500
2844.000000 0.7551 0.7598 0.7655 0.7695 0.7734
2839.000000 0.7769 0.7811 0.7844 0.7872 0.7900
2834.000000 0.7932 0.7962 0.7995 0.8027 0.8061
2829.000000 0.8102 0.8132 0.8172 0.8208 0.8239
2824.000000 0.8278 0.8331 0.8370 0.8410 0.8442
2819.000000 0.8473 0.8498 0.8535 0.8573 0.8603
2814.000000 0.8634 0.8656 0.8680 0.8694 0.8707
2809.000000 0.8709 0.8716 0.8722 0.8724 0.8724
2804.000000 0.8724 0.8724 0.8723 0.8722 0.8721
2799.000000 0.8720 0.8720 0.8720 0.8721 0.8724
2794.000000 0.8728 0.8731 0.8733 0.8730 0.8739
2789.000000 0.8739 0.8746 0.8752 0.8759 0.8769
2784.000000 0.8782 0.8784 0.8787 0.8799 0.8810
2779.000000 0.8817 0.8824 0.8832 0.8841 0.8848
2774.000000 0.8856 0.8863 0.8871 0.8878 0.8884
2769.000000 0.8890 0.8896 0.8902 0.8910 0.8916
2764.000000 0.8923 0.8929 0.8935 0.8941 0.8946
2759.000000 0.8950 0.8954 0.8957 0.8960 0.8960
2754.000000 0.8961 0.8961 0.8961 0.8961 0.8961
2749.000000 0.8951 0.8939 0.8922 0.8905 0.8888
2744.000000 0.8870 0.8858 0.8846 0.8840 0.8834
2739.000000 0.8828 0.8823 0.8820 0.8818 0.8818
2734.000000 0.8821 0.8825 0.8829 0.8842 0.8856
2729.000000 0.8874 0.8894 0.8920 0.8946 0.8972
2724.000000 0.8998 0.9013 0.9028 0.9037 0.9048
2719.000000 0.9050 0.9052 0.9054 0.9056 0.9056
2714.000000 0.9056 0.9056 0.9056 0.9056 0.9056
2709.000000 0.9056 0.9056 0.9055 0.9055 0.9054
2704.000000 0.9053 0.9052 0.9051 0.9050 0.9049
2699.000000 0.9047 0.9047 0.9050 0.9053 0.9057
2694.000000 0.9062 0.9066 0.9070 0.9075 0.9081
2689.000000 0.9088 0.9094 0.9100 0.9106 0.9111
2684.000000 0.9119 0.9123 0.9127 0.9128 0.9130
2679.000000 0.9131 0.9133 0.9135 0.9137 0.9137
2674.000000 0.9136 0.9136 0.9135 0.9133 0.9132
2669.000000 0.9130 0.9129 0.9127 0.9126 0.9124
2664.000000 0.9123 0.9118 0.9115 0.9111 0.9108
2659.000000 0.9105 0.9103 0.9108 0.9105 0.9102
2654.000000 0.9099 0.9095 0.9091 0.9084 0.9075
2649.000000 0.9071 0.9071 0.9072 0.9069 0.9059
2644.000000 0.9051 0.9047 0.9050 0.9042 0.9036
2639.000000 0.9029 0.9024 0.9018 0.9012 0.9007
2634.000000 0.9011 0.9005 0.9001 0.8988 0.8985
2629.000000 0.8990 0.8988 0.8985 0.8983 0.8983
2624.000000 0.8983 0.8985 0.8988 0.8990 0.8993
2619.000000 0.8995 0.8998 0.9003 0.9008 0.9013
2614.000000 0.9017 0.9023 0.9028 0.9032 0.9037
2609.000000 0.9041 0.9047 0.9052 0.9057 0.9061
2604.000000 0.9065 0.9071 0.9075 0.9080 0.9084
2599.000000 0.9088 0.9092 0.9095 0.9099 0.9103
2594.000000 0.9107 0.9111 0.9115 0.9119 0.9123
2589.000000 0.9126 0.9129 0.9132 0.9135 0.9137
2584.000000 0.9140 0.9144 0.9147 0.9149 0.9152
2579.000000 0.9153 0.9154 0.9154 0.9155 0.9155
2574.000000 0.9156 0.9157 0.9158 0.9158 0.9159
2569.000000 0.9160 0.9160 0.9160 0.9159 0.9158
2564.000000 0.9157 0.9156 0.9155 0.9154 0.9153
2559.000000 0.9152 0.9152 0.9151 0.9151 0.9151
2554.000000 0.9151 0.9150 0.9149 0.9149 0.9149
2549.000000 0.9148 0.9148 0.9147 0.9147 0.9147
2544.000000 0.9147 0.9146 0.9146 0.9146 0.9146
2539.000000 0.9145 0.9145 0.9144 0.9144 0.9144
2534.000000 0.9144 0.9144 0.9145 0.9146 0.9147
2529.000000 0.9147 0.9148 0.9148 0.9149 0.9149
2524.000000 0.9150 0.9151 0.9152 0.9152 0.9153
2519.000000 0.9153 0.9154 0.9154 0.9155 0.9156
2514.000000 0.9158 0.9159 0.9162 0.9163 0.9164
2509.000000 0.9165 0.9167 0.9168 0.9168 0.9168
2504.000000 0.9170 0.9171 0.9171 0.9171 0.9173
2499.000000 0.9173 0.9174 0.9174 0.9175 0.9175
2494.000000 0.9175 0.9175 0.9175 0.9174 0.9174
2489.000000 0.9173 0.9173 0.9170 0.9168 0.9164
2484.000000 0.9162 0.9160 0.9160 0.9166 0.9172
2479.000000 0.9175 0.9179 0.9187 0.9195 0.9198
2474.000000 0.9202 0.9204 0.9206 0.9207 0.9209
2469.000000 0.9211 0.9211 0.9212 0.9212 0.9211
2464.000000 0.9211 0.9210 0.9209 0.9208 0.9208
2459.000000 0.9207 0.9202 0.9201 0.9199 0.9194
2454.000000 0.9194 0.9198 0.9200 0.9199 0.9191
2449.000000 0.9194 0.9195 0.9193 0.9192 0.9190
2444.000000 0.9187 0.9184 0.9183 0.9180 0.9176
2439.000000 0.9173 0.9171 0.9168 0.9165 0.9162
2434.000000 0.9160 0.9151 0.9141 0.9130 0.9119
2429.000000 0.9106 0.9094 0.9080 0.9086 0.9069
2424.000000 0.9071 0.9073 0.9076 0.9080 0.9083
2419.000000 0.9088 0.9093 0.9099 0.9105 0.9110
2414.000000 0.9115 0.9119 0.9124 0.9128 0.9131
2409.000000 0.9134 0.9141 0.9142 0.9151 0.9154
2404.000000 0.9158 0.9160 0.9163 0.9163 0.9164
2399.000000 0.9164 0.9164 0.9164 0.9164 0.9164
2394.000000 0.9165 0.9165 0.9165 0.9165 0.9165
2389.000000 0.9174 0.9175 0.9175 0.9176 0.9177
2384.000000 0.9185 0.9185 0.9188 0.9192 0.9189
2379.000000 0.9190 0.9194 0.9195 0.9197 0.9194
2374.000000 0.9196 0.9197 0.9196 0.9193 0.9189
2369.000000 0.9179 0.9175 0.9172 0.9169 0.9165
2364.000000 0.9163 0.9159 0.9155 0.9150 0.9155
2359.000000 0.9151 0.9154 0.9151 0.9157 0.9159
2354.000000 0.9155 0.9150 0.9145 0.9136 0.9127
2349.000000 0.9122 0.9123 0.9129 0.9129 0.9124
2344.000000 0.9114 0.9107 0.9102 0.9098 0.9094
2339.000000 0.9082 0.9086 0.9081 0.9068 0.9064
2334.000000 0.9068 0.9064 0.9061 0.9057 0.9064
2329.000000 0.9062 0.9065 0.9069 0.9079 0.9085
2324.000000 0.9091 0.9095 0.9096 0.9099 0.9101
2319.000000 0.9103 0.9105 0.9107 0.9109 0.9110
2314.000000 0.9111 0.9111 0.9112 0.9112 0.9112
2309.000000 0.9112 0.9112 0.9111 0.9110 0.9108
2304.000000 0.9107 0.9105 0.9104 0.9102 0.9101
2299.000000 0.9102 0.9105 0.9104 0.9103 0.9101
2294.000000 0.9099 0.9099 0.9099 0.9100 0.9104
2289.000000 0.9105 0.9101 0.9101 0.9103 0.9105
2284.000000 0.9107 0.9100 0.9102 0.9104 0.9106
2279.000000 0.9107 0.9101 0.9104 0.9105 0.9101
2274.000000 0.9105 0.9108 0.9109 0.9106 0.9110
2269.000000 0.9109 0.9108 0.9112 0.9117 0.9115
2264.000000 0.9117 0.9122 0.9127 0.9125 0.9127
2259.000000 0.9133 0.9130 0.9134 0.9140 0.9145
2254.000000 0.9141 0.9145 0.9149 0.9151 0.9146
2249.000000 0.9147 0.9147 0.9147 0.9146 0.9142
2244.000000 0.9134 0.9133 0.9132 0.9131 0.9130
2239.000000 0.9130 0.9130 0.9130 0.9130 0.9124
2234.000000 0.9121 0.9120 0.9120 0.9124 0.9129
2229.000000 0.9132 0.9138 0.9142 0.9148 0.9152
2224.000000 0.9157 0.9162 0.9167 0.9165 0.9171
2219.000000 0.9174 0.9178 0.9181 0.9184 0.9187
2214.000000 0.9190 0.9191 0.9192 0.9193 0.9195
2209.000000 0.9196 0.9197 0.9198 0.9199 0.9200
2204.000000 0.9202 0.9204 0.9206 0.9206 0.9206
2199.000000 0.9206 0.9206 0.9206 0.9205 0.9198
2194.000000 0.9206 0.9204 0.9197 0.9197 0.9197
2189.000000 0.9197 0.9197 0.9197 0.9197 0.9197
2184.000000 0.9202 0.9201 0.9197 0.9197 0.9197
2179.000000 0.9197 0.9204 0.9206 0.9206 0.9206
2174.000000 0.9206 0.9206 0.9206 0.9206 0.9206
2169.000000 0.9205 0.9197 0.9197 0.9197 0.9197
2164.000000 0.9197 0.9197 0.9197 0.9197 0.9197
2159.000000 0.9197 0.9197 0.9197 0.9197 0.9197
2154.000000 0.9197 0.9197 0.9197 0.9197 0.9197
2149.000000 0.9197 0.9197 0.9197 0.9197 0.9197
2144.000000 0.9197 0.9196 0.9196 0.9196 0.9196
2139.000000 0.9196 0.9196 0.9196 0.9196 0.9196
2134.000000 0.9196 0.9196 0.9196 0.9196 0.9196
2129.000000 0.9196 0.9196 0.9196 0.9196 0.9196
2124.000000 0.9196 0.9196 0.9188 0.9195 0.9196
2119.000000 0.9196 0.9196 0.9196 0.9196 0.9196
2114.000000 0.9196 0.9196 0.9196 0.9196 0.9196
2109.000000 0.9196 0.9196 0.9196 0.9196 0.9196
2104.000000 0.9196 0.9196 0.9196 0.9196 0.9196
2099.000000 0.9196 0.9189 0.9187 0.9194 0.9196
2094.000000 0.9188 0.9195 0.9196 0.9196 0.9196
2089.000000 0.9196 0.9196 0.9196 0.9196 0.9196
2084.000000 0.9196 0.9196 0.9196 0.9196 0.9196
2079.000000 0.9196 0.9196 0.9196 0.9196 0.9196
2074.000000 0.9196 0.9196 0.9196 0.9196 0.9196
2069.000000 0.9196 0.9196 0.9196 0.9196 0.9196
2064.000000 0.9196 0.9196 0.9196 0.9196 0.9196
2059.000000 0.9196 0.9196 0.9197 0.9203 0.9200
2054.000000 0.9197 0.9194 0.9187 0.9182 0.9185
2049.000000 0.9177 0.9170 0.9169 0.9167 0.9167
2044.000000 0.9167 0.9164 0.9164 0.9160 0.9158
2039.000000 0.9155 0.9153 0.9151 0.9149 0.9147
2034.000000 0.9145 0.9143 0.9141 0.9140 0.9139
2029.000000 0.9139 0.9141 0.9145 0.9139 0.9142
2024.000000 0.9149 0.9150 0.9152 0.9153 0.9154
2019.000000 0.9155 0.9156 0.9156 0.9157 0.9157
2014.000000 0.9158 0.9158 0.9158 0.9158 0.9158
2009.000000 0.9158 0.9159 0.9159 0.9159 0.9157
2004.000000 0.9155 0.9148 0.9140 0.9121 0.9102
1999.000000 0.9031 0.8932 0.8830 0.8812 0.8816
1994.000000 0.8886 0.8960 0.9034 0.9107 0.9117
1989.000000 0.9118 0.9119 0.9121 0.9114 0.9115
1984.000000 0.9118 0.9121 0.9124 0.9126 0.9129
1979.000000 0.9129 0.9122 0.9124 0.9125 0.9126
1974.000000 0.9129 0.9129 0.9127 0.9125 0.9123
1969.000000 0.9121 0.9119 0.9116 0.9120 0.9117
1964.000000 0.9112 0.9118 0.9116 0.9109 0.9102
1959.000000 0.9096 0.9090 0.9079 0.9068 0.9047
1954.000000 0.9015 0.8984 0.8950 0.8914 0.8869
1949.000000 0.8818 0.8752 0.8691 0.8616 0.8574
1944.000000 0.8567 0.8535 0.8586 0.8630 0.8670
1939.000000 0.8702 0.8735 0.8768 0.8797 0.8822
1934.000000 0.8846 0.8871 0.8890 0.8908 0.8926
1929.000000 0.8932 0.8938 0.8944 0.8949 0.8960
1924.000000 0.8953 0.8953 0.8953 0.8941 0.8929
1919.000000 0.8907 0.8869 0.8835 0.8802 0.8766
1914.000000 0.8726 0.8666 0.8575 0.8440 0.8309
1909.000000 0.8258 0.8248 0.8230 0.8275 0.8319
1904.000000 0.8363 0.8436 0.8511 0.8595 0.8686
1899.000000 0.8751 0.8809 0.8866 0.8917 0.8963
1894.000000 0.8992 0.9001 0.9011 0.9016 0.9019
1889.000000 0.9025 0.9023 0.9021 0.9020 0.9018
1884.000000 0.9011 0.8994 0.8969 0.8937 0.8919
1879.000000 0.8901 0.8891 0.8881 0.8875 0.8897
1874.000000 0.8900 0.8909 0.8918 0.8928 0.8937
1869.000000 0.8945 0.8954 0.8964 0.8969 0.8974
1864.000000 0.8978 0.8980 0.8983 0.8986 0.8989
1859.000000 0.8992 0.8994 0.9002 0.9004 0.9007
1854.000000 0.9012 0.9017 0.9018 0.9010 0.9001
1849.000000 0.8992 0.8979 0.8968 0.8951 0.8935
1844.000000 0.8914 0.8889 0.8865 0.8846 0.8826
1839.000000 0.8802 0.8764 0.8745 0.8723 0.8718
1834.000000 0.8734 0.8761 0.8785 0.8822 0.8860
1829.000000 0.8893 0.8919 0.8944 0.8960 0.8967
1824.000000 0.8974 0.8981 0.8988 0.8972 0.8991
1819.000000 0.8996 0.8993 0.8989 0.8980 0.8972
1814.000000 0.8962 0.8953 0.8944 0.8930 0.8910
1809.000000 0.8874 0.8827 0.8782 0.8726 0.8638
1804.000000 0.8559 0.8500 0.8412 0.8426 0.8420
1799.000000 0.8441 0.8484 0.8544 0.8612 0.8692
1794.000000 0.8754 0.8788 0.8820 0.8842 0.8865
1789.000000 0.8886 0.8907 0.8919 0.8933 0.8946
1784.000000 0.8958 0.8972 0.8982 0.8991 0.8999
1779.000000 0.9008 0.9017 0.9023 0.9023 0.9024
1774.000000 0.9030 0.9036 0.9041 0.9046 0.9048
1769.000000 0.9050 0.9052 0.9054 0.9056 0.9057
1764.000000 0.9059 0.9061 0.9076 0.9065 0.9066
1759.000000 0.9070 0.9080 0.9081 0.9082 0.9082
1754.000000 0.9084 0.9084 0.9084 0.9084 0.9084
1749.000000 0.9084 0.9084 0.9078 0.9072 0.9066
1744.000000 0.9059 0.9053 0.9041 0.9031 0.9020
1739.000000 0.9010 0.8999 0.8987 0.8975 0.8963
1734.000000 0.8948 0.8935 0.8922 0.8924 0.8930
1729.000000 0.8934 0.8941 0.8949 0.8959 0.8967
1724.000000 0.8976 0.8984 0.8994 0.9000 0.9006
1719.000000 0.9012 0.9018 0.9024 0.9030 0.9035
1714.000000 0.9041 0.9045 0.9052 0.9057 0.9057
1709.000000 0.9057 0.9052 0.9042 0.9033 0.9023
1704.000000 0.9014 0.9005 0.8995 0.8986 0.8976
1699.000000 0.8960 0.8944 0.8924 0.8905 0.8886
1694.000000 0.8865 0.8842 0.8825 0.8819 0.8803
1689.000000 0.8811 0.8824 0.8838 0.8853 0.8866
1684.000000 0.8881 0.8897 0.8912 0.8929 0.8941
1679.000000 0.8949 0.8959 0.8967 0.8976 0.8985
1674.000000 0.8984 0.8987 0.8992 0.8991 0.8990
1669.000000 0.8989 0.8988 0.8987 0.8983 0.8978
1664.000000 0.8974 0.8969 0.8965 0.8960 0.8965
1659.000000 0.8954 0.8949 0.8953 0.8949 0.8944
1654.000000 0.8937 0.8932 0.8922 0.8924 0.8920
1649.000000 0.8916 0.8912 0.8907 0.8906 0.8907
1644.000000 0.8905 0.8904 0.8906 0.8909 0.8907
1639.000000 0.8904 0.8906 0.8906 0.8909 0.8904
1634.000000 0.8896 0.8894 0.8888 0.8877 0.8855
1629.000000 0.8840 0.8815 0.8790 0.8755 0.8718
1624.000000 0.8695 0.8665 0.8644 0.8617 0.8586
1619.000000 0.8564 0.8542 0.8522 0.8510 0.8497
1614.000000 0.8485 0.8474 0.8464 0.8461 0.8436
1609.000000 0.8418 0.8393 0.8314 0.8219 0.8088
1604.000000 0.8003 0.7901 0.7808 0.7089 0.7137
1599.000000 0.7232 0.7486 0.7739 0.7907 0.7928
1594.000000 0.7926 0.7916 0.7936 0.7961 0.7936
1589.000000 0.7874 0.7733 0.7646 0.7597 0.7581
1584.000000 0.7566 0.7554 0.7533 0.7520 0.7503
1579.000000 0.7489 0.7465 0.7450 0.7466 0.7492
1574.000000 0.7525 0.7537 0.7548 0.7580 0.7577
1569.000000 0.7583 0.7583 0.7582 0.7571 0.7565
1564.000000 0.7549 0.7524 0.7496 0.7493 0.7446
1559.000000 0.7059 0.6991 0.6915 0.6917 0.6922
1554.000000 0.6895 0.6865 0.6849 0.6831 0.6830
1549.000000 0.6821 0.6798 0.6776 0.6762 0.6752
1544.000000 0.6779 0.6832 0.6877 0.6906 0.7039
1539.000000 0.7103 0.7175 0.7223 0.7283 0.7381
1534.000000 0.7447 0.7502 0.7541 0.7551 0.7567
1529.000000 0.7587 0.7607 0.7626 0.7646 0.7659
1524.000000 0.7661 0.7652 0.7650 0.7640 0.7634
1519.000000 0.7628 0.7614 0.7608 0.7602 0.7590
1514.000000 0.7582 0.7584 0.7592 0.7600 0.7606
1509.000000 0.7606 0.7589 0.7570 0.7544 0.7520
1504.000000 0.7494 0.7464 0.7424 0.7376 0.7322
1499.000000 0.7249 0.7111 0.6928 0.6744 0.6545
1494.000000 0.6133 0.5500 0.4870 0.4242 0.3618
1489.000000 0.2996 0.2377 0.2288 0.2297 0.2646
1484.000000 0.3096 0.3546 0.4001 0.4454 0.4899
1479.000000 0.5336 0.5766 0.6194 0.6647 0.6630
1474.000000 0.6551 0.6235 0.5919 0.5601 0.5284
1469.000000 0.4968 0.4653 0.4341 0.4026 0.3717
1464.000000 0.3403 0.3241 0.3239 0.3238 0.3544
1459.000000 0.3850 0.3941 0.3945 0.3679 0.3406
1454.000000 0.3133 0.2862 0.2591 0.2316 0.2319
1449.000000 0.2551 0.3020 0.3486 0.3954 0.4424
1444.000000 0.4893 0.5265 0.5450 0.5556 0.5802
1439.000000 0.6029 0.6313 0.6525 0.6695 0.6804
1434.000000 0.6914 0.7071 0.7223 0.7367 0.7572
1429.000000 0.7775 0.7865 0.7959 0.8042 0.8116
1424.000000 0.8169 0.8216 0.8261 0.8293 0.8323
1419.000000 0.8355 0.8372 0.8388 0.8397 0.8412
1414.000000 0.8428 0.8441 0.8454 0.8466 0.8481
1409.000000 0.8492 0.8502 0.8512 0.8521 0.8528
1404.000000 0.8533 0.8539 0.8545 0.8549 0.8554
1399.000000 0.8595 0.8566 0.8567 0.8564 0.8562
1394.000000 0.8558 0.8554 0.8540 0.8527 0.8517
1389.000000 0.8508 0.8491 0.8473 0.8444 0.8401
1384.000000 0.8316 0.8171 0.7962 0.7797 0.7654
1379.000000 0.7520 0.7413 0.7128 0.6528 0.5927
1374.000000 0.5558 0.5550 0.5794 0.6221 0.6646
1369.000000 0.7071 0.7497 0.7924 0.8318 0.8387
1364.000000 0.8457 0.8537 0.8617 0.8676 0.8699
1359.000000 0.8717 0.8729 0.8733 0.8732 0.8735
1354.000000 0.8739 0.8739 0.8739 0.8741 0.8742
1349.000000 0.8730 0.8714 0.8675 0.8627 0.8580
1344.000000 0.8536 0.8492 0.8436 0.8383 0.8340
1339.000000 0.8314 0.8312 0.8312 0.8311 0.8319
1334.000000 0.8327 0.8334 0.8341 0.8345 0.8347
1329.000000 0.8322 0.8290 0.8273 0.8272 0.8243
1324.000000 0.8246 0.8245 0.8252 0.8272 0.8316
1319.000000 0.8375 0.8421 0.8465 0.8487 0.8499
1314.000000 0.8506 0.8513 0.8522 0.8532 0.8540
1309.000000 0.8550 0.8559 0.8577 0.8599 0.8621
1304.000000 0.8634 0.8657 0.8678 0.8699 0.8719
1299.000000 0.8740 0.8760 0.8779 0.8803 0.8830
1294.000000 0.8849 0.8867 0.8885 0.8897 0.8909
1289.000000 0.8918 0.8896 0.8869 0.8853 0.8850
1284.000000 0.8850 0.8850 0.8854 0.8883 0.8934
1279.000000 0.8973 0.9012 0.9052 0.9087 0.9109
1274.000000 0.9131 0.9153 0.9176 0.9191 0.9204
1269.000000 0.9216 0.9226 0.9235 0.9246 0.9253
1264.000000 0.9262 0.9267 0.9267 0.9263 0.9260
1259.000000 0.9256 0.9253 0.9246 0.9240 0.9234
1254.000000 0.9227 0.9211 0.9205 0.9192 0.9180
1249.000000 0.9166 0.9153 0.9147 0.9139 0.9131
1244.000000 0.9116 0.9115 0.9114 0.9114 0.9141
1239.000000 0.9180 0.9223 0.9257 0.9274 0.9292
1234.000000 0.9308 0.9331 0.9352 0.9366 0.9376
1229.000000 0.9387 0.9397 0.9404 0.9404 0.9404
1224.000000 0.9403 0.9403 0.9403 0.9403 0.9401
1219.000000 0.9412 0.9398 0.9395 0.9394 0.9392
1214.000000 0.9390 0.9392 0.9396 0.9393 0.9389
1209.000000 0.9385 0.9382 0.9380 0.9377 0.9374
1204.000000 0.9370 0.9365 0.9360 0.9355 0.9350
1199.000000 0.9346 0.9332 0.9325 0.9320 0.9316
1194.000000 0.9312 0.9317 0.9313 0.9309 0.9306
1189.000000 0.9302 0.9298 0.9294 0.9290 0.9283
1184.000000 0.9269 0.9250 0.9177 0.9067 0.8974
1179.000000 0.8898 0.8805 0.8737 0.8723 0.8719
1174.000000 0.8721 0.8814 0.8874 0.8906 0.8929
1169.000000 0.8936 0.8944 0.8962 0.8958 0.8950
1164.000000 0.8943 0.8936 0.8927 0.8920 0.8914
1159.000000 0.8907 0.8898 0.8898 0.8897 0.8915
1154.000000 0.8934 0.8957 0.8986 0.9007 0.9034
1149.000000 0.9062 0.9083 0.9110 0.9128 0.9147
1144.000000 0.9163 0.9163 0.9180 0.9180 0.9179
1139.000000 0.9205 0.9213 0.9220 0.9216 0.9206
1134.000000 0.9186 0.9148 0.9095 0.9030 0.8914
1129.000000 0.8801 0.8591 0.8559 0.8552 0.8556
1124.000000 0.8565 0.8583 0.8608 0.8645 0.8699
1119.000000 0.8760 0.8811 0.8859 0.8912 0.8958
1114.000000 0.9000 0.9025 0.9044 0.9061 0.9062
1109.000000 0.9062 0.9056 0.9066 0.9064 0.9069
1104.000000 0.9075 0.9080 0.9086 0.9095 0.9103
1099.000000 0.9112 0.9122 0.9131 0.9140 0.9151
1094.000000 0.9160 0.9163 0.9166 0.9168 0.9186
1089.000000 0.9160 0.9154 0.9147 0.9128 0.9110
1084.000000 0.9090 0.9069 0.9042 0.9010 0.8985
1079.000000 0.8959 0.8927 0.8896 0.8863 0.8836
1074.000000 0.8797 0.8747 0.8599 0.8492 0.8389
1069.000000 0.8285 0.8172 0.7997 0.7848 0.7671
1064.000000 0.7469 0.7347 0.7229 0.6932 0.6521
1059.000000 0.6104 0.5699 0.5440 0.5434 0.5445
1054.000000 0.5625 0.5965 0.6305 0.6647 0.6992
1049.000000 0.7333 0.7672 0.8014 0.8223 0.8269
1044.000000 0.8296 0.8322 0.8322 0.8321 0.8308
1039.000000 0.8296 0.8275 0.8255 0.8233 0.8193
1034.000000 0.8152 0.8087 0.7957 0.7806 0.7494
1029.000000 0.7503 0.7500 0.7532 0.8090 0.8213
1024.000000 0.8327 0.8452 0.8587 0.8710 0.8822
1019.000000 0.8908 0.8979 0.9043 0.9090 0.9136
1014.000000 0.9175 0.9210 0.9244 0.9270 0.9294
1009.000000 0.9315 0.9315 0.9320 0.9326 0.9333
1004.000000 0.9329 0.9335 0.9335 0.9334 0.9333
999.000000 0.9331 0.9327 0.9318 0.9310 0.9301
994.000000 0.9292 0.9285 0.9281 0.9276 0.9259
989.000000 0.9243 0.9222 0.9191 0.9161 0.9112
984.000000 0.8998 0.8940 0.8925 0.8910 0.8894
979.000000 0.8878 0.8862 0.8847 0.8825 0.8800
974.000000 0.8775 0.8743 0.8702 0.8673 0.8631
969.000000 0.8584 0.8531 0.8460 0.8263 0.8133
964.000000 0.8015 0.7964 0.7952 0.7936 0.7943
959.000000 0.7943 0.8149 0.8430 0.8581 0.8698
954.000000 0.8819 0.8907 0.8975 0.9016 0.9058
949.000000 0.9112 0.9162 0.9168 0.9172 0.9160
944.000000 0.9153 0.9122 0.9072 0.9005 0.8880
939.000000 0.8568 0.7985 0.7290 0.7271 0.7275
934.000000 0.7637 0.8145 0.8651 0.9047 0.9158
929.000000 0.9277 0.9338 0.9398 0.9449 0.9475
924.000000 0.9489 0.9500 0.9507 0.9515 0.9522
919.000000 0.9525 0.9532 0.9526 0.9534 0.9533
914.000000 0.9529 0.9525 0.9524 0.9527 0.9523
909.000000 0.9519 0.9518 0.9514 0.9506 0.9504
904.000000 0.9498 0.9490 0.9489 0.9482 0.9478
899.000000 0.9465 0.9459 0.9455 0.9452 0.9443
894.000000 0.9434 0.9414 0.9400 0.9384 0.9341
889.000000 0.9226 0.8964 0.8569 0.8592 0.8631
884.000000 0.8743 0.8846 0.8950 0.8962 0.8971
879.000000 0.8964 0.8958 0.8939 0.8919 0.8898
874.000000 0.8875 0.8852 0.8825 0.8798 0.8770
869.000000 0.8742 0.8682 0.8517 0.8389 0.8367
864.000000 0.8364 0.8347 0.8373 0.8394 0.8418
859.000000 0.8447 0.8493 0.8533 0.8577 0.8617
854.000000 0.8652 0.8677 0.8698 0.8719 0.8737
849.000000 0.8750 0.8775 0.8895 0.8944 0.9028
844.000000 0.9105 0.9134 0.9148 0.9159 0.9177
839.000000 0.9200 0.9217 0.9231 0.9210 0.9199
834.000000 0.9184 0.9146 0.9109 0.9070 0.9039
829.000000 0.9026 0.9013 0.9022 0.9072 0.9136
824.000000 0.9153 0.9158 0.9146 0.9132 0.9100
819.000000 0.8967 0.8868 0.8729 0.8569 0.8404
814.000000 0.8266 0.8177 0.8128 0.8109 0.8108
809.000000 0.8126 0.8136 0.8141 0.8139 0.8133
804.000000 0.8097 0.7996 0.7879 0.7809 0.7477
799.000000 0.7238 0.6976 0.6713 0.6450 0.6188
794.000000 0.5891 0.5889 0.5889 0.5905 0.5914
789.000000 0.6000 0.6124 0.6277 0.6741 0.6757
784.000000 0.6783 0.6812 0.6843 0.6955 0.7209
779.000000 0.7375 0.7474 0.7554 0.7641 0.7712
774.000000 0.7768 0.7742 0.7730 0.7712 0.7653
769.000000 0.7590 0.7498 0.7375 0.7250 0.7117
764.000000 0.6965 0.6769 0.6449 0.6135 0.5917
759.000000 0.5141 0.4242 0.3343 0.2444 0.1545
754.000000 0.0647 0.0115 0.0107 0.0129 0.0535
749.000000 0.1048 0.1560 0.2072 0.2586 0.3098
744.000000 0.3610 0.4122 0.4635 0.5149 0.5661
739.000000 0.6173 0.6686 0.7198 0.7254 0.7229
734.000000 0.7201 0.7119 0.7036 0.6956 0.6881
729.000000 0.6866 0.6865 0.6894 0.7007 0.7115
724.000000 0.7212 0.7316 0.7399 0.7461 0.7494
719.000000 0.7516 0.7491 0.7465 0.7415 0.7375
714.000000 0.7336 0.7350 0.7343 0.7342 0.7370
709.000000 0.7564 0.7774 0.7981 0.8114 0.8106
704.000000 0.8106 0.8086 0.8044 0.7973 0.7998
699.000000 0.8001 0.8011 0.8215 0.8407 0.8602
694.000000 0.8799 0.8990 0.9182 0.9386 0.9466
689.000000 0.9514 0.9572 0.9631 0.9665 0.9689
684.000000 0.9709 0.9728 0.9737 0.9742 0.9755
679.000000 0.9756 0.9768 0.9771 0.9781 0.9770
674.000000 0.9740 0.9714 0.9678 0.9629 0.9569
669.000000 0.9605 0.9652 0.9584 0.9512 0.9480
664.000000 0.9460 0.9436 0.9407 0.9376 0.9349
659.000000 0.9314 0.9246 0.9168 0.9149 0.9153
654.000000 0.9156 0.9176 0.9209 0.9251 0.9283
649.000000 0.9316 0.9347 0.9376 0.9401 0.9421
644.000000 0.9436 0.9449 0.9468 0.9483 0.9494
639.000000 0.9514 0.9526 0.9537 0.9560 0.9581
634.000000 0.9588 0.9599 0.9611 0.9620 0.9636
629.000000 0.9651 0.9658 0.9672 0.9678 0.9693
624.000000 0.9709 0.9706 0.9711 0.9715 0.9720
619.000000 0.9725 0.9740 0.9742 0.9740 0.9745
614.000000 0.9746 0.9745 0.9745 0.9744 0.9744
609.000000 0.9744 0.9741 0.9729 0.9719 0.9714
604.000000 0.9707 0.9701 0.9691 0.9681 0.9668
599.000000 0.9646 0.9625 0.9601 0.9576 0.9550
594.000000 0.9515 0.9438 0.9265 0.9016 0.8913
589.000000 0.8905 0.8971 0.9101 0.9233 0.9368
584.000000 0.9507 0.9562 0.9607 0.9633 0.9659
579.000000 0.9685 0.9710 0.9690 0.9680 0.9673
574.000000 0.9674 0.9667 0.9658 0.9647 0.9635
569.000000 0.9624 0.9611 0.9582 0.9563 0.9551
564.000000 0.9523 0.9485 0.9451 0.9395 0.9320
559.000000 0.9257 0.9201 0.9140 0.9044 0.8850
554.000000 0.8587 0.8329 0.8065 0.7810 0.7727
549.000000 0.7716 0.7732 0.7790 0.7901 0.8130
544.000000 0.8358 0.8586 0.8814 0.8911 0.8964
539.000000 0.9018 0.9082 0.9140 0.9182 0.9216
534.000000 0.9247 0.9296 0.9329 0.9356 0.9376
529.000000 0.9394 0.9397 0.9411 0.9417 0.9420
524.000000 0.9422 0.9417 0.9411 0.9405 0.9399
519.000000 0.9394 0.9384 0.9373 0.9364 0.9352
514.000000 0.9337 0.9323 0.9302 0.9275 0.9248
509.000000 0.9222 0.9179 0.9138 0.9092 0.9039
504.000000 0.8982 0.8910 0.8836 0.8766 0.8699
499.000000 0.8645 0.8590 0.8518 0.8453 0.8398
494.000000 0.8365 0.8364 0.8368 0.8373 0.8378
489.000000 0.8383 0.8387 0.8393 0.8398 0.8401
484.000000 0.8404 0.8405 0.8406 0.8408 0.8395
479.000000 0.8379 0.8353 0.8328 0.8294 0.8261
474.000000 0.8206 0.8134 0.7993 0.7709 0.7423
469.000000 0.7244 0.7242 0.7256 0.7283 0.7317
464.000000 0.7372 0.7431 0.7496 0.7537 0.7543
459.000000 0.7543 0.7543 0.7519 0.7493 0.7470
454.000000 0.7444 0.7414 0.7383 0.7354 0.7324
449.000000 0.7293 0.7259 0.7225 0.7191 0.7158
444.000000 0.7124 0.7086 0.7047 0.7007 0.6967
439.000000 0.6923 0.6867 0.6809 0.6751 0.6685
434.000000 0.6618 0.6552 0.6478 0.6403 0.6329
429.000000 0.6234 0.6118 0.5986 0.5873 0.5750
424.000000 0.5446 0.5295 0.5019 0.4909 0.4799
419.000000 0.4685 0.4591 0.4549 0.4500 0.4444
414.000000 0.4387 0.4342 0.4336 0.4336 0.4346
409.000000 0.4356 0.4369 0.4407 0.4451 0.4520
404.000000 0.4593 0.4667 0.4770 0.4909 0.5018
##END=
