##TITLE=2,5-DIMETHYL-P-QUINONE
$$ E. K. CO. (WHITE LABEL)
##JCAMP-DX=4.24
##DATA TYPE=INFRARED SPECTRUM
##CLASS=COBLENTZ
##ORIGIN=WYANDOTTE CHEMICALS CORP., WYANDOTTE, MICHIGAN, USA
##OWNER=COBLENTZ SOCIETY
Collection (C) 2018 copyright by the U.S. Secretary of Commerce
on behalf of the United States of America. All rights reserved.
##DATE=Not specified, most likely prior to 1970
##NAMES=2,5-dimethylbenzo-1,4-quinone
##CAS REGISTRY NO=137-18-8
##MOLFORM=C8 H8 O2
##SOURCE REFERENCE=COBLENTZ NO. 2764
##$NIST SOURCE=COBLENTZ
##$NIST IMAGE=cob2764
##SPECTROMETER/DATA SYSTEM=Not specified, most likely a prism, grating, or hybrid spectrometer.
##STATE=SOLID (MINERAL OIL MULL)
##PATH LENGTH=
$$SPECTRAL CONTAMINATION DUE TO OIL AROUND 2900 CM^-^1
##SAMPLING PROCEDURE=TRANSMISSION
##RESOLUTION=4
##DATA PROCESSING=DIGITIZED BY NIST FROM HARD COPY
##XUNITS=MICROMETERS
##YUNITS=TRANSMITTANCE
##XFACTOR=1.000000
##YFACTOR=1
##DELTAX=000.006632
##FIRSTX=2.02
##LASTX=16.0067
##FIRSTY=0.546
##MAXX=16.0067
##MINX=2.02
##MAXY=0.961
##MINY=0.041
##NPOINTS=2110
##XYDATA=(X++(Y..Y))
2.020000 0.5460 0.5460 0.5480 0.5480 0.5510
2.053175 0.5530 0.5560 0.5580 0.5610 0.5630
2.086000 0.5630 0.5630 0.5640 0.5640 0.5640
2.119175 0.5640 0.5640 0.5640 0.5640 0.5640
2.153000 0.5640 0.5640 0.5630 0.5630 0.5630
2.186175 0.5610 0.5610 0.5590 0.5590 0.5610
2.219000 0.5630 0.5640 0.5640 0.5660 0.5680
2.252175 0.5690 0.5690 0.5710 0.5710 0.5730
2.285000 0.5760 0.5790 0.5830 0.5840 0.5860
2.318175 0.5880 0.5880 0.5890 0.5910 0.5910
2.351000 0.5980 0.6010 0.6010 0.6020 0.6020
2.384175 0.6020 0.6040 0.6040 0.6060 0.6060
2.418000 0.6060 0.6060 0.6070 0.6070 0.6090
2.451175 0.6110 0.6120 0.6120 0.6120 0.6120
2.484000 0.6120 0.6120 0.6120 0.6120 0.6120
2.517175 0.6120 0.6140 0.6160 0.6210 0.6240
2.550000 0.6310 0.6340 0.6360 0.6370 0.6370
2.583175 0.6360 0.6340 0.6260 0.6210 0.6190
2.617000 0.6210 0.6320 0.6420 0.6490 0.6510
2.650175 0.6520 0.6520 0.6520 0.6520 0.6520
2.683000 0.6520 0.6510 0.6490 0.6490 0.6510
2.716175 0.6510 0.6520 0.6540 0.6540 0.6540
2.749000 0.6560 0.6560 0.6540 0.6540 0.6520
2.782175 0.6520 0.6520 0.6520 0.6510 0.6510
2.816000 0.6510 0.6510 0.6490 0.6490 0.6490
2.849175 0.6490 0.6470 0.6460 0.6440 0.6410
2.882000 0.6390 0.6370 0.6370 0.6370 0.6370
2.915175 0.6370 0.6370 0.6370 0.6390 0.6390
2.948000 0.6370 0.6370 0.6360 0.6360 0.6360
2.981175 0.6320 0.6320 0.6340 0.6360 0.6390
3.015000 0.6390 0.6390 0.6390 0.6390 0.6360
3.048175 0.6360 0.6340 0.6270 0.6210 0.6140
3.081000 0.6120 0.6140 0.6210 0.6290 0.6390
3.114175 0.6410 0.6410 0.6410 0.6410 0.6390
3.147000 0.6390 0.6410 0.6410 0.6440 0.6460
3.180175 0.6460 0.6460 0.6440 0.6420 0.6410
3.214000 0.6390 0.6370 0.6370 0.6340 0.6320
3.247175 0.6310 0.6090 0.6020 0.5930 0.5830
3.280000 0.5590 0.5560 0.5540 0.5510 0.4910
3.313175 0.4300 0.3680 0.3380 0.3070 0.2800
3.346000 0.0710 0.0660 0.0630 0.0610 0.0610
3.379175 0.0610 0.0580 0.0530 0.0510 0.0530
3.413000 0.0660 0.0840 0.0960 0.1160 0.1420
3.446175 0.1620 0.1660 0.1660 0.1460 0.1340
3.479000 0.1320 0.1320 0.1360 0.1720 0.2150
3.512175 0.2600 0.3120 0.4150 0.4710 0.5360
3.545000 0.5930 0.6370 0.6540 0.6560 0.6610
3.578175 0.6860 0.6940 0.7020 0.7090 0.7170
3.612000 0.7240 0.7270 0.7300 0.7340 0.7340
3.645175 0.7300 0.7300 0.7250 0.7200 0.7190
3.678000 0.7200 0.7220 0.7250 0.7290 0.7300
3.711175 0.7350 0.7350 0.7390 0.7400 0.7400
3.744000 0.7400 0.7400 0.7420 0.7450 0.7490
3.777175 0.7500 0.7520 0.7540 0.7550 0.7550
3.811000 0.7570 0.7570 0.7590 0.7590 0.7590
3.844175 0.7600 0.7640 0.7670 0.7700 0.7700
3.877000 0.7700 0.7720 0.7720 0.7720 0.7720
3.910175 0.7740 0.7740 0.7750 0.7770 0.7800
3.943000 0.7840 0.7890 0.7900 0.7900 0.7900
3.976175 0.7900 0.7920 0.7920 0.7940 0.7950
4.009000 0.7970 0.7990 0.8000 0.8000 0.8020
4.042175 0.8020 0.8020 0.8020 0.8020 0.7990
4.076000 0.7990 0.7990 0.7990 0.7990 0.8000
4.109175 0.8000 0.8000 0.8000 0.8000 0.8020
4.142000 0.8020 0.8050 0.8070 0.8080 0.8100
4.175175 0.8100 0.8130 0.8130 0.8150 0.8150
4.208000 0.8150 0.8150 0.8130 0.8120 0.8080
4.241175 0.8030 0.7920 0.7840 0.7800 0.7790
4.275000 0.7790 0.7790 0.7790 0.7820 0.7890
4.308175 0.7900 0.7940 0.8000 0.8030 0.8050
4.341000 0.8130 0.8170 0.8250 0.8320 0.8380
4.374175 0.8430 0.8470 0.8530 0.8570 0.8570
4.407000 0.8600 0.8600 0.8600 0.8600 0.8600
4.440175 0.8570 0.8530 0.8480 0.8470 0.8480
4.474000 0.8500 0.8500 0.8530 0.8550 0.8570
4.507175 0.8570 0.8580 0.8580 0.8600 0.8600
4.540000 0.8600 0.8620 0.8620 0.8620 0.8620
4.573175 0.8620 0.8620 0.8620 0.8620 0.8630
4.606000 0.8650 0.8670 0.8680 0.8700 0.8700
4.639175 0.8700 0.8720 0.8720 0.8720 0.8730
4.673000 0.8730 0.8750 0.8750 0.8720 0.8670
4.706175 0.8670 0.8680 0.8720 0.8750 0.8780
4.739000 0.8800 0.8820 0.8820 0.8830 0.8830
4.772175 0.8830 0.8850 0.8850 0.8880 0.8900
4.805000 0.8920 0.8920 0.8930 0.8930 0.8930
4.838175 0.8930 0.8930 0.8950 0.8950 0.8950
4.872000 0.8950 0.8950 0.8970 0.8970 0.8980
4.905175 0.9000 0.9010 0.9010 0.9010 0.9010
4.938000 0.9010 0.9010 0.9030 0.9030 0.9050
4.971175 0.9060 0.9080 0.9080 0.9100 0.9100
5.004000 0.9100 0.9100 0.9100 0.9100 0.9080
5.037175 0.9080 0.9050 0.9030 0.9010 0.8980
5.071000 0.8950 0.8930 0.8970 0.9030 0.9100
5.104175 0.9150 0.9200 0.9210 0.9210 0.9210
5.137000 0.9210 0.9210 0.9200 0.9180 0.9160
5.170175 0.9130 0.9130 0.9150 0.9200 0.9200
5.203000 0.9210 0.9260 0.9260 0.9280 0.9280
5.236175 0.9280 0.9280 0.9310 0.9310 0.9330
5.270000 0.9350 0.9360 0.9380 0.9400 0.9400
5.303175 0.9360 0.9330 0.9330 0.9350 0.9400
5.336000 0.9460 0.9500 0.9500 0.9460 0.9430
5.369175 0.9380 0.9330 0.9330 0.9330 0.9380
5.402000 0.9530 0.9530 0.9500 0.9460 0.9450
5.435175 0.9430 0.9400 0.9380 0.9360 0.9400
5.468000 0.9510 0.9530 0.9530 0.9510 0.9410
5.501175 0.9410 0.9430 0.9550 0.9550 0.9550
5.535000 0.9550 0.9530 0.9460 0.9410 0.9400
5.568175 0.9360 0.9260 0.9210 0.9150 0.9130
5.601000 0.9150 0.9210 0.9330 0.9410 0.9410
5.634175 0.9400 0.9380 0.9380 0.9380 0.9380
5.667000 0.9430 0.9510 0.9530 0.9530 0.9550
5.700175 0.9500 0.9500 0.9450 0.9400 0.9380
5.734000 0.9350 0.9350 0.9350 0.9350 0.9350
5.767175 0.9360 0.9430 0.9530 0.9610 0.9610
5.800000 0.9380 0.9330 0.9230 0.9210 0.9200
5.833175 0.9180 0.9160 0.9150 0.9000 0.8850
5.866000 0.8730 0.8680 0.8580 0.8420 0.8100
5.899175 0.7600 0.7120 0.6770 0.6640 0.6510
5.933000 0.6020 0.4980 0.3980 0.2970 0.1820
5.966175 0.0810 0.0530 0.0430 0.0410 0.0430
5.999000 0.0440 0.0490 0.0510 0.0510 0.0540
6.032175 0.0580 0.0580 0.0560 0.0480 0.0430
6.065000 0.0460 0.0560 0.0680 0.0810 0.1020
6.098175 0.1260 0.1460 0.1560 0.1610 0.1610
6.132000 0.1540 0.1260 0.0810 0.0530 0.0530
6.165175 0.0580 0.0930 0.1160 0.1370 0.1590
6.198000 0.1910 0.2320 0.2550 0.2840 0.3030
6.231175 0.3300 0.3750 0.3880 0.4060 0.4280
6.264000 0.4480 0.4660 0.4750 0.4810 0.4850
6.297175 0.4930 0.5090 0.5240 0.5290 0.5440
6.331000 0.5460 0.5490 0.5490 0.5510 0.5510
6.364175 0.5510 0.5510 0.5510 0.5530 0.5630
6.397000 0.5740 0.5840 0.5840 0.5830 0.5790
6.430175 0.5740 0.5690 0.5630 0.5630 0.5630
6.463000 0.5660 0.5790 0.5880 0.5980 0.6060
6.496175 0.6070 0.6090 0.6090 0.6090 0.6070
6.530000 0.6060 0.6060 0.6090 0.6140 0.6210
6.563175 0.6320 0.6420 0.6440 0.6490 0.6510
6.596000 0.6510 0.6510 0.6520 0.6540 0.6540
6.629175 0.6540 0.6540 0.6520 0.6510 0.6510
6.662000 0.6460 0.6440 0.6390 0.6340 0.6310
6.695175 0.6260 0.6210 0.6070 0.5860 0.5530
6.729000 0.5230 0.5010 0.4810 0.4500 0.3970
6.762175 0.3520 0.3070 0.2190 0.1920 0.1760
6.795000 0.1660 0.1570 0.1560 0.1570 0.1590
6.828175 0.1660 0.1720 0.1760 0.1790 0.1810
6.861000 0.1820 0.1860 0.1860 0.1840 0.1820
6.894175 0.1760 0.1690 0.1620 0.1610 0.1620
6.928000 0.1910 0.2150 0.2500 0.2720 0.2900
6.961175 0.3050 0.3200 0.3520 0.3720 0.3930
6.994000 0.4200 0.4430 0.4660 0.4880 0.5080
7.027175 0.5260 0.5360 0.5580 0.5780 0.5790
7.060000 0.5790 0.5790 0.5740 0.5730 0.5740
7.093175 0.5790 0.5860 0.5980 0.6040 0.6060
7.126000 0.6040 0.6010 0.6010 0.5990 0.5910
7.159175 0.5890 0.5830 0.5660 0.5490 0.5110
7.193000 0.4700 0.3920 0.3270 0.2620 0.1370
7.226175 0.0760 0.0740 0.0760 0.0840 0.0990
7.259000 0.1160 0.1360 0.1560 0.1740 0.1940
7.292175 0.2200 0.2420 0.2650 0.2900 0.3200
7.325000 0.3820 0.4500 0.4630 0.4630 0.4600
7.358175 0.4060 0.3470 0.2850 0.1510 0.1490
7.392000 0.1490 0.1810 0.2150 0.2500 0.2850
7.425175 0.3220 0.3900 0.4230 0.4550 0.4860
7.458000 0.5140 0.5430 0.5680 0.5890 0.6090
7.491175 0.6260 0.6360 0.6460 0.6540 0.6610
7.524000 0.6660 0.6740 0.6790 0.6820 0.6820
7.557175 0.6840 0.6890 0.6920 0.6990 0.7000
7.591000 0.7000 0.7000 0.6990 0.6990 0.6990
7.624175 0.6990 0.6990 0.6990 0.6940 0.6920
7.657000 0.6910 0.6870 0.6810 0.6710 0.6640
7.690175 0.6560 0.6510 0.6270 0.5990 0.5710
7.723000 0.5530 0.5510 0.5530 0.5590 0.5740
7.756175 0.5880 0.5990 0.6120 0.6260 0.6410
7.790000 0.6520 0.6620 0.6710 0.6720 0.6720
7.823175 0.6720 0.6720 0.6720 0.6710 0.6690
7.856000 0.6660 0.6560 0.6470 0.6390 0.6310
7.889175 0.6170 0.6010 0.5460 0.4960 0.4400
7.922000 0.3520 0.2770 0.2000 0.0880 0.0610
7.955175 0.0510 0.0490 0.0510 0.0640 0.0810
7.989000 0.1070 0.1370 0.1690 0.2020 0.2340
8.022175 0.2640 0.2920 0.3130 0.3300 0.3870
8.055000 0.4200 0.4510 0.4810 0.5010 0.5160
8.088175 0.5330 0.5490 0.5680 0.5890 0.6010
8.121000 0.6210 0.6320 0.6410 0.6470 0.6560
8.154175 0.6660 0.6790 0.6820 0.6860 0.6890
8.188000 0.6920 0.6940 0.6970 0.7020 0.7040
8.221175 0.7070 0.7090 0.7100 0.7140 0.7150
8.254000 0.7170 0.7170 0.7170 0.7170 0.7170
8.287175 0.7150 0.7140 0.7120 0.7120 0.7120
8.320000 0.7100 0.7090 0.7040 0.7040 0.7020
8.353175 0.7020 0.7000 0.7000 0.7020 0.7050
8.387000 0.7090 0.7120 0.7120 0.7100 0.6890
8.420175 0.6770 0.6670 0.6560 0.6440 0.6340
8.453000 0.6320 0.6370 0.6420 0.6490 0.6610
8.486175 0.6870 0.6970 0.7020 0.7100 0.7170
8.519000 0.7240 0.7250 0.7250 0.7270 0.7290
8.552175 0.7300 0.7300 0.7340 0.7340 0.7340
8.586000 0.7300 0.6710 0.6470 0.6240 0.5760
8.619175 0.5290 0.4810 0.4050 0.3280 0.1460
8.652000 0.1120 0.1110 0.1140 0.1570 0.1670
8.685175 0.2540 0.2970 0.3820 0.4210 0.4600
8.718000 0.4950 0.5290 0.5590 0.5860 0.6060
8.751175 0.6210 0.6320 0.6440 0.6570 0.6840
8.784000 0.6940 0.6970 0.7050 0.7120 0.7170
8.817175 0.7190 0.7220 0.7250 0.7300 0.7320
8.851000 0.7340 0.7390 0.7420 0.7420 0.7440
8.884175 0.7440 0.7450 0.7450 0.7450 0.7470
8.917000 0.7470 0.7490 0.7490 0.7490 0.7470
8.950175 0.7470 0.7470 0.7490 0.7490 0.7500
8.983000 0.7520 0.7540 0.7570 0.7600 0.7600
9.016175 0.7620 0.7640 0.7640 0.7620 0.7620
9.050000 0.7620 0.7600 0.7600 0.7600 0.7590
9.083175 0.7570 0.7570 0.7570 0.7600 0.7640
9.116000 0.7670 0.7670 0.7690 0.7690 0.7690
9.149175 0.7690 0.7690 0.7690 0.7690 0.7690
9.182000 0.7690 0.7670 0.7650 0.7640 0.7620
9.215175 0.7620 0.7620 0.7640 0.7650 0.7670
9.249000 0.7690 0.7690 0.7690 0.7690 0.7670
9.282175 0.7650 0.7650 0.7650 0.7650 0.7650
9.315000 0.7650 0.7650 0.7650 0.7650 0.7650
9.348175 0.7650 0.7650 0.7650 0.7650 0.7650
9.381000 0.7670 0.7670 0.7670 0.7690 0.7690
9.414175 0.7700 0.7700 0.7700 0.7700 0.7700
9.448000 0.7700 0.7700 0.7700 0.7700 0.7690
9.481175 0.7690 0.7670 0.7670 0.7650 0.7650
9.514000 0.7650 0.7640 0.7620 0.7620 0.7600
9.547175 0.7570 0.7540 0.7520 0.7500 0.7490
9.580000 0.7450 0.7370 0.7300 0.7240 0.7170
9.613175 0.7040 0.6870 0.6760 0.6640 0.6390
9.647000 0.6110 0.5790 0.5480 0.5140 0.4910
9.680175 0.4750 0.4710 0.4750 0.5130 0.5360
9.713000 0.5660 0.6010 0.6260 0.6510 0.6790
9.746175 0.6890 0.6960 0.7070 0.7170 0.7240
9.779000 0.7290 0.7290 0.7300 0.7320 0.7320
9.812175 0.7320 0.7320 0.7300 0.7220 0.7150
9.846000 0.7050 0.6970 0.6870 0.6740 0.6640
9.879175 0.6520 0.6260 0.5880 0.5380 0.4730
9.912000 0.3920 0.3420 0.2920 0.2250 0.1770
9.945175 0.1740 0.1760 0.1960 0.2270 0.2670
9.978000 0.3030 0.3770 0.4110 0.4530 0.4700
10.011175 0.4830 0.4910 0.5280 0.5660 0.5990
10.045000 0.6140 0.6340 0.6440 0.6570 0.6660
10.078175 0.6770 0.6840 0.6910 0.6940 0.6970
10.111000 0.7000 0.7050 0.7120 0.7140 0.7140
10.144175 0.7190 0.7220 0.7290 0.7320 0.7370
10.177000 0.7400 0.7420 0.7440 0.7450 0.7450
10.210175 0.7470 0.7470 0.7470 0.7450 0.7450
10.243000 0.7440 0.7420 0.7420 0.7420 0.7420
10.276175 0.7400 0.7400 0.7400 0.7400 0.7420
10.310000 0.7440 0.7450 0.7450 0.7450 0.7450
10.343175 0.7450 0.7450 0.7470 0.7490 0.7490
10.376000 0.7490 0.7490 0.7470 0.7470 0.7470
10.409175 0.7450 0.7450 0.7420 0.7420 0.7420
10.442000 0.7400 0.7400 0.7400 0.7400 0.7400
10.475175 0.7400 0.7400 0.7400 0.7400 0.7400
10.509000 0.7400 0.7400 0.7400 0.7400 0.7400
10.542175 0.7400 0.7390 0.7370 0.7320 0.7300
10.575000 0.7270 0.7220 0.7190 0.7140 0.7100
10.608175 0.7070 0.7020 0.6970 0.6940 0.6870
10.641000 0.6820 0.6740 0.6710 0.6660 0.6570
10.674175 0.6470 0.6360 0.6240 0.6110 0.5940
10.708000 0.5780 0.5580 0.5360 0.5060 0.4700
10.741175 0.4350 0.4000 0.3500 0.3270 0.3030
10.774000 0.2600 0.2220 0.1860 0.1560 0.1270
10.807175 0.1040 0.0840 0.0730 0.0610 0.0590
10.840000 0.0610 0.0660 0.0840 0.1060 0.1260
10.873175 0.1560 0.1960 0.2300 0.2720 0.3100
10.907000 0.3800 0.4150 0.4460 0.4800 0.5130
10.940175 0.5460 0.5790 0.6040 0.6290 0.6440
10.973000 0.6560 0.6760 0.6870 0.6990 0.7020
11.006175 0.7070 0.7100 0.7150 0.7170 0.7200
11.039000 0.7240 0.7300 0.7400 0.7520 0.7690
11.072175 0.7770 0.7840 0.7920 0.7990 0.8070
11.106000 0.8150 0.8230 0.8300 0.8320 0.8320
11.139175 0.8320 0.8320 0.8300 0.8300 0.8300
11.172000 0.8300 0.8300 0.8300 0.8350 0.8380
11.205175 0.8380 0.8420 0.8430 0.8430 0.8450
11.238000 0.8450 0.8450 0.8450 0.8450 0.8430
11.271175 0.8430 0.8420 0.8400 0.8400 0.8400
11.305000 0.8450 0.8480 0.8520 0.8520 0.8520
11.338175 0.8530 0.8530 0.8580 0.8600 0.8650
11.371000 0.8680 0.8700 0.8700 0.8720 0.8720
11.404175 0.8730 0.8750 0.8770 0.8780 0.8800
11.437000 0.8800 0.8800 0.8830 0.8830 0.8830
11.470175 0.8830 0.8830 0.8830 0.8830 0.8850
11.504000 0.8850 0.8900 0.8920 0.8920 0.8900
11.537175 0.8870 0.8870 0.8870 0.8880 0.8880
11.570000 0.8880 0.8880 0.8900 0.8900 0.8900
11.603175 0.8920 0.8920 0.8920 0.8930 0.8930
11.636000 0.8950 0.8950 0.8950 0.8950 0.8950
11.669175 0.8950 0.8950 0.8950 0.8950 0.8950
11.703000 0.8950 0.8950 0.8950 0.8950 0.8930
11.736175 0.8930 0.8930 0.8930 0.8930 0.8930
11.769000 0.8950 0.8950 0.8970 0.8970 0.8970
11.802175 0.8980 0.8980 0.8980 0.8980 0.9000
11.835000 0.9000 0.9010 0.9010 0.9010 0.9010
11.868175 0.9010 0.9010 0.9010 0.9010 0.9010
11.901000 0.9030 0.9050 0.9060 0.9060 0.9080
11.934175 0.9130 0.9150 0.9160 0.9160 0.9180
11.968000 0.9180 0.9180 0.9180 0.9180 0.9180
12.001175 0.9180 0.9200 0.9210 0.9210 0.9210
12.034000 0.9210 0.9230 0.9230 0.9230 0.9230
12.067175 0.9250 0.9250 0.9260 0.9280 0.9280
12.100000 0.9280 0.9300 0.9300 0.9300 0.9300
12.133175 0.9310 0.9310 0.9330 0.9350 0.9360
12.167000 0.9380 0.9380 0.9380 0.9380 0.9380
12.200175 0.9380 0.9380 0.9380 0.9400 0.9400
12.233000 0.9400 0.9380 0.9360 0.9360 0.9350
12.266175 0.9350 0.9360 0.9360 0.9360 0.9360
12.299000 0.9380 0.9380 0.9360 0.9350 0.9310
12.332175 0.9280 0.9280 0.9260 0.9260 0.9260
12.366000 0.9250 0.9210 0.9200 0.9180 0.9160
12.399175 0.9130 0.9100 0.9030 0.8980 0.8950
12.432000 0.8900 0.8870 0.8870 0.8820 0.8730
12.465175 0.8600 0.8520 0.8370 0.8150 0.7870
12.498000 0.7540 0.7150 0.6740 0.6510 0.6260
12.531175 0.5740 0.5410 0.5080 0.4700 0.4410
12.565000 0.4180 0.3930 0.3620 0.3500 0.3330
12.598175 0.3330 0.3320 0.3570 0.3770 0.4000
12.631000 0.4280 0.4580 0.4900 0.5210 0.5590
12.664175 0.5980 0.6240 0.6540 0.7070 0.7270
12.697000 0.7470 0.7640 0.7800 0.7940 0.8050
12.730175 0.8170 0.8280 0.8370 0.8450 0.8530
12.764000 0.8600 0.8650 0.8700 0.8730 0.8780
12.797175 0.8820 0.8870 0.8880 0.8920 0.8950
12.830000 0.8970 0.8970 0.9010 0.9010 0.9030
12.863175 0.9030 0.9050 0.9050 0.9050 0.9030
12.896000 0.9010 0.9010 0.9010 0.9010 0.9010
12.929175 0.9010 0.9010 0.9030 0.9030 0.9050
12.963000 0.9060 0.9080 0.9080 0.9080 0.9080
12.996175 0.9080 0.9080 0.9080 0.9080 0.9080
13.029000 0.9080 0.9080 0.9080 0.9080 0.9080
13.062175 0.9080 0.9080 0.9080 0.9080 0.9080
13.095000 0.9080 0.9060 0.9060 0.9050 0.9050
13.128175 0.9030 0.9030 0.9010 0.9000 0.9000
13.162000 0.8980 0.8970 0.8970 0.8970 0.8950
13.195175 0.8950 0.8950 0.8930 0.8930 0.8930
13.228000 0.8930 0.8930 0.8930 0.8930 0.8930
13.261175 0.8930 0.8930 0.8930 0.8920 0.8920
13.294000 0.8920 0.8920 0.8920 0.8920 0.8920
13.327175 0.8930 0.8930 0.8950 0.8970 0.8970
13.360000 0.8970 0.8970 0.8970 0.8980 0.8980
13.393175 0.9000 0.9000 0.9000 0.9000 0.8980
13.427000 0.8950 0.8950 0.8920 0.8900 0.8900
13.460175 0.8900 0.8900 0.8850 0.8830 0.8830
13.493000 0.8870 0.8870 0.8880 0.8880 0.8880
13.526175 0.8870 0.8870 0.8780 0.8750 0.8750
13.559000 0.8730 0.8730 0.8730 0.8720 0.8720
13.592175 0.8700 0.8700 0.8700 0.8700 0.8700
13.626000 0.8700 0.8700 0.8700 0.8700 0.8700
13.659175 0.8680 0.8680 0.8680 0.8680 0.8680
13.692000 0.8680 0.8670 0.8670 0.8650 0.8630
13.725175 0.8600 0.8600 0.8600 0.8600 0.8600
13.758000 0.8620 0.8620 0.8600 0.8600 0.8580
13.791175 0.8570 0.8530 0.8520 0.8500 0.8470
13.825000 0.8430 0.8420 0.8400 0.8380 0.8350
13.858175 0.8330 0.8300 0.8270 0.8250 0.8250
13.891000 0.8250 0.8250 0.8230 0.8180 0.8170
13.924175 0.8080 0.8030 0.8000 0.7970 0.7940
13.957000 0.7900 0.7850 0.7800 0.7750 0.7670
13.990175 0.7590 0.7450 0.7320 0.7140 0.6940
14.024000 0.6670 0.6590 0.6510 0.6270 0.5990
14.057175 0.5710 0.5430 0.5140 0.4910 0.4710
14.090000 0.4560 0.4430 0.4350 0.4330 0.4350
14.123175 0.4360 0.4380 0.4450 0.4530 0.4630
14.156000 0.4750 0.4830 0.4900 0.4980 0.5090
14.189175 0.5260 0.5480 0.5630 0.5760 0.5890
14.223000 0.6020 0.6170 0.6290 0.6420 0.6560
14.256175 0.6840 0.6970 0.7100 0.7220 0.7300
14.289000 0.7420 0.7520 0.7600 0.7670 0.7740
14.322175 0.7790 0.7840 0.7920 0.7970 0.8050
14.355000 0.8080 0.8120 0.8120 0.8130 0.8130
14.388175 0.8130 0.8150 0.8170 0.8200 0.8230
14.422000 0.8250 0.8280 0.8280 0.8300 0.8320
14.455175 0.8330 0.8330 0.8350 0.8350 0.8370
14.488000 0.8370 0.8380 0.8380 0.8380 0.8380
14.521175 0.8380 0.8380 0.8380 0.8370 0.8350
14.554000 0.8330 0.8320 0.8320 0.8320 0.8320
14.587175 0.8300 0.8300 0.8300 0.8280 0.8280
14.621000 0.8270 0.8270 0.8250 0.8230 0.8230
14.654175 0.8230 0.8230 0.8230 0.8230 0.8230
14.687000 0.8230 0.8230 0.8200 0.8200 0.8170
14.720175 0.8170 0.8170 0.8150 0.8150 0.8130
14.753000 0.8130 0.8120 0.8080 0.8070 0.8030
14.786175 0.8020 0.8000 0.7990 0.7990 0.7970
14.820000 0.7950 0.7920 0.7870 0.7850 0.7820
14.853175 0.7800 0.7800 0.7800 0.7800 0.7800
14.886000 0.7800 0.7790 0.7770 0.7720 0.7640
14.919175 0.7550 0.7520 0.7440 0.7390 0.7370
14.952000 0.7340 0.7320 0.7270 0.7240 0.7150
14.985175 0.7050 0.6960 0.6840 0.6740 0.6690
15.018000 0.6620 0.6490 0.6360 0.6220 0.6060
15.051175 0.5890 0.5690 0.5490 0.5240 0.5080
15.085000 0.4910 0.4780 0.4630 0.4550 0.4500
15.118175 0.4460 0.4430 0.4400 0.4360 0.4350
15.151000 0.4350 0.4360 0.4360 0.4380 0.4380
15.184175 0.4400 0.4430 0.4500 0.4550 0.4650
15.217000 0.4730 0.4850 0.4930 0.5030 0.5090
15.250175 0.5180 0.5260 0.5380 0.5490 0.5610
15.284000 0.5680 0.5740 0.5810 0.5890 0.5960
15.317175 0.6010 0.6070 0.6070 0.6110 0.6160
15.350000 0.6170 0.6170 0.6190 0.6210 0.6220
15.383175 0.6260 0.6270 0.6290 0.6310 0.6320
15.416000 0.6320 0.6320 0.6320 0.6310 0.6310
15.449175 0.6310 0.6270 0.6260 0.6240 0.6220
15.483000 0.6210 0.6190 0.6190 0.6190 0.6210
15.516175 0.6210 0.6210 0.6220 0.6220 0.6220
15.549000 0.6210 0.6210 0.6190 0.6170 0.6170
15.582175 0.6160 0.6160 0.6160 0.6120 0.6120
15.615000 0.6070 0.6020 0.6010 0.5990 0.5980
15.648175 0.5960 0.5960 0.5940 0.5940 0.5930
15.682000 0.5910 0.5880 0.5860 0.5840 0.5810
15.715175 0.5790 0.5760 0.5730 0.5710 0.5680
15.748000 0.5640 0.5630 0.5590 0.5580 0.5560
15.781175 0.5530 0.5510 0.5490 0.5460 0.5410
15.814000 0.5360 0.5330 0.5310 0.5310 0.5290
15.847175 0.5290 0.5280 0.5260 0.5230 0.5210
15.881000 0.5210 0.5160 0.5130 0.5110 0.5090
15.914175 0.5090 0.5090 0.5080 0.5080 0.5040
15.947000 0.5030 0.4980 0.4960 0.4950 0.4880
15.980175 0.4880 0.4860 0.4830 0.4800 0.4830
##END=
