##TITLE=p-Benzoquinone, 2,5-dimethyl-
##JCAMP-DX=4.24
$$ By DXEDIT 1.05 (RS McDonald)
##DATA TYPE=INFRARED SPECTRUM
##CLASS=COBLENTZ III
##ORIGIN=SMITH KLINE & FRENCH LABS.
##OWNER=COPYRIGHT (C) 1988 by COBLENTZ SOCIETY INC.
Collection (C) 2018 copyright by the U.S. Secretary of Commerce
on behalf of the United States of America. All rights reserved.
##DATE=1958/07/11
##NAMES=2,5-dimethylbenzo-1,4-quinone
##CAS REGISTRY NO=137-18-8
##MOLFORM=C8 H8 O2
##SOURCE REFERENCE=COBLENTZ NO. 08401
##$NIST SOURCE=COBLENTZ
##$NIST IMAGE=cob8401
##SPECTROMETER/DATA SYSTEM=PERKIN-ELMER 21 (GRATING)
##INSTRUMENT PARAMETERS=NaCl PRISM
##STATE=SOLID (OIL MULL)
$$SPECTRAL CONTAMINATION DUE TO OIL AROUND 2900 CM^-^1
##SAMPLING PROCEDURE=TRANSMISSION
##RESOLUTION=2
##DATA PROCESSING=DIGITIZED BY COBLENTZ SOCIETY (BATCH I) FROM HARD COPY
##XUNITS=1/CM
##YUNITS=TRANSMITTANCE
##XFACTOR=1
##YFACTOR=1
##DELTAX=1
##FIRSTX=4000
##LASTX=642
##FIRSTY=0.4219
##MAXX=4000
##MINX=642
##MAXY=0.9868
##MINY=0.0891
##NPOINTS=3359
##XYDATA=(X++(Y..Y))
4000.000000 0.4219 0.4220 0.4221 0.4222 0.4224
3995.000000 0.4225 0.4226 0.4227 0.4229 0.4230
3990.000000 0.4232 0.4233 0.4234 0.4236 0.4237
3985.000000 0.4238 0.4240 0.4241 0.4242 0.4243
3980.000000 0.4245 0.4246 0.4247 0.4248 0.4250
3975.000000 0.4251 0.4252 0.4254 0.4255 0.4257
3970.000000 0.4258 0.4259 0.4260 0.4262 0.4262
3965.000000 0.4265 0.4266 0.4267 0.4268 0.4270
3960.000000 0.4271 0.4272 0.4274 0.4275 0.4276
3955.000000 0.4277 0.4278 0.4279 0.4280 0.4281
3950.000000 0.4282 0.4283 0.4284 0.4285 0.4286
3945.000000 0.4287 0.4288 0.4289 0.4290 0.4291
3940.000000 0.4292 0.4293 0.4294 0.4296 0.4296
3935.000000 0.4297 0.4298 0.4299 0.4300 0.4301
3930.000000 0.4302 0.4303 0.4304 0.4305 0.4306
3925.000000 0.4307 0.4308 0.4309 0.4310 0.4310
3920.000000 0.4312 0.4312 0.4314 0.4315 0.4316
3915.000000 0.4317 0.4319 0.4320 0.4321 0.4322
3910.000000 0.4322 0.4323 0.4324 0.4325 0.4326
3905.000000 0.4326 0.4326 0.4326 0.4326 0.4326
3900.000000 0.4327 0.4327 0.4327 0.4327 0.4327
3895.000000 0.4327 0.4328 0.4328 0.4328 0.4328
3890.000000 0.4328 0.4328 0.4329 0.4329 0.4329
3885.000000 0.4329 0.4329 0.4329 0.4329 0.4330
3880.000000 0.4330 0.4330 0.4330 0.4330 0.4330
3875.000000 0.4331 0.4331 0.4331 0.4331 0.4331
3870.000000 0.4331 0.4332 0.4332 0.4332 0.4332
3865.000000 0.4332 0.4332 0.4333 0.4333 0.4333
3860.000000 0.4333 0.4333 0.4334 0.4334 0.4334
3855.000000 0.4334 0.4334 0.4334 0.4335 0.4335
3850.000000 0.4335 0.4336 0.4336 0.4336 0.4337
3845.000000 0.4337 0.4337 0.4337 0.4337 0.4337
3840.000000 0.4338 0.4338 0.4338 0.4338 0.4338
3835.000000 0.4338 0.4339 0.4339 0.4339 0.4340
3830.000000 0.4340 0.4340 0.4341 0.4341 0.4341
3825.000000 0.4341 0.4341 0.4341 0.4342 0.4342
3820.000000 0.4342 0.4342 0.4342 0.4342 0.4343
3815.000000 0.4343 0.4343 0.4344 0.4344 0.4344
3810.000000 0.4345 0.4345 0.4345 0.4345 0.4345
3805.000000 0.4346 0.4346 0.4346 0.4346 0.4346
3800.000000 0.4346 0.4347 0.4347 0.4347 0.4348
3795.000000 0.4348 0.4348 0.4349 0.4349 0.4349
3790.000000 0.4349 0.4349 0.4349 0.4350 0.4351
3785.000000 0.4352 0.4353 0.4354 0.4355 0.4355
3780.000000 0.4356 0.4357 0.4357 0.4358 0.4359
3775.000000 0.4360 0.4360 0.4360 0.4362 0.4362
3770.000000 0.4362 0.4364 0.4364 0.4365 0.4366
3765.000000 0.4367 0.4367 0.4368 0.4369 0.4369
3760.000000 0.4370 0.4371 0.4372 0.4373 0.4374
3755.000000 0.4374 0.4375 0.4376 0.4377 0.4377
3750.000000 0.4378 0.4379 0.4380 0.4380 0.4381
3745.000000 0.4382 0.4382 0.4383 0.4384 0.4385
3740.000000 0.4385 0.4386 0.4387 0.4387 0.4388
3735.000000 0.4389 0.4390 0.4391 0.4392 0.4393
3730.000000 0.4393 0.4394 0.4395 0.4396 0.4396
3725.000000 0.4397 0.4398 0.4399 0.4399 0.4400
3720.000000 0.4401 0.4401 0.4402 0.4403 0.4404
3715.000000 0.4404 0.4405 0.4406 0.4407 0.4408
3710.000000 0.4409 0.4410 0.4410 0.4412 0.4412
3705.000000 0.4412 0.4414 0.4415 0.4416 0.4416
3700.000000 0.4417 0.4418 0.4419 0.4420 0.4421
3695.000000 0.4421 0.4422 0.4423 0.4424 0.4425
3690.000000 0.4426 0.4427 0.4428 0.4429 0.4430
3685.000000 0.4431 0.4432 0.4432 0.4433 0.4434
3680.000000 0.4435 0.4436 0.4437 0.4438 0.4439
3675.000000 0.4440 0.4440 0.4441 0.4442 0.4443
3670.000000 0.4443 0.4444 0.4445 0.4446 0.4447
3665.000000 0.4448 0.4449 0.4450 0.4451 0.4452
3660.000000 0.4453 0.4454 0.4455 0.4456 0.4457
3655.000000 0.4457 0.4458 0.4459 0.4460 0.4460
3650.000000 0.4462 0.4462 0.4464 0.4464 0.4465
3645.000000 0.4466 0.4467 0.4468 0.4469 0.4470
3640.000000 0.4471 0.4472 0.4472 0.4473 0.4474
3635.000000 0.4475 0.4476 0.4477 0.4478 0.4479
3630.000000 0.4480 0.4481 0.4482 0.4483 0.4484
3625.000000 0.4485 0.4486 0.4487 0.4488 0.4489
3620.000000 0.4490 0.4490 0.4491 0.4492 0.4493
3615.000000 0.4494 0.4495 0.4496 0.4497 0.4498
3610.000000 0.4499 0.4500 0.4501 0.4502 0.4503
3605.000000 0.4503 0.4504 0.4505 0.4506 0.4507
3600.000000 0.4508 0.4509 0.4510 0.4510 0.4512
3595.000000 0.4512 0.4514 0.4514 0.4515 0.4516
3590.000000 0.4517 0.4518 0.4519 0.4520 0.4521
3585.000000 0.4522 0.4523 0.4524 0.4525 0.4526
3580.000000 0.4527 0.4528 0.4529 0.4530 0.4531
3575.000000 0.4532 0.4533 0.4534 0.4535 0.4536
3570.000000 0.4537 0.4538 0.4539 0.4540 0.4541
3565.000000 0.4542 0.4543 0.4544 0.4545 0.4546
3560.000000 0.4547 0.4548 0.4549 0.4551 0.4552
3555.000000 0.4553 0.4554 0.4555 0.4556 0.4558
3550.000000 0.4559 0.4560 0.4562 0.4562 0.4565
3545.000000 0.4566 0.4567 0.4568 0.4569 0.4571
3540.000000 0.4572 0.4573 0.4574 0.4575 0.4577
3535.000000 0.4578 0.4579 0.4580 0.4581 0.4583
3530.000000 0.4584 0.4585 0.4586 0.4587 0.4589
3525.000000 0.4590 0.4591 0.4592 0.4593 0.4595
3520.000000 0.4596 0.4597 0.4598 0.4599 0.4600
3515.000000 0.4600 0.4600 0.4601 0.4601 0.4602
3510.000000 0.4602 0.4603 0.4603 0.4604 0.4605
3505.000000 0.4605 0.4606 0.4607 0.4607 0.4608
3500.000000 0.4608 0.4609 0.4610 0.4610 0.4610
3495.000000 0.4610 0.4612 0.4612 0.4612 0.4612
3490.000000 0.4612 0.4614 0.4615 0.4615 0.4616
3485.000000 0.4616 0.4616 0.4616 0.4616 0.4617
3480.000000 0.4617 0.4617 0.4617 0.4618 0.4618
3475.000000 0.4618 0.4618 0.4618 0.4619 0.4619
3470.000000 0.4619 0.4619 0.4619 0.4620 0.4620
3465.000000 0.4620 0.4620 0.4620 0.4621 0.4621
3460.000000 0.4621 0.4621 0.4621 0.4622 0.4622
3455.000000 0.4622 0.4622 0.4623 0.4623 0.4623
3450.000000 0.4623 0.4623 0.4622 0.4622 0.4622
3445.000000 0.4622 0.4622 0.4622 0.4622 0.4622
3440.000000 0.4622 0.4622 0.4621 0.4621 0.4621
3435.000000 0.4621 0.4621 0.4621 0.4621 0.4621
3430.000000 0.4621 0.4620 0.4620 0.4620 0.4620
3425.000000 0.4620 0.4620 0.4620 0.4620 0.4620
3420.000000 0.4620 0.4620 0.4620 0.4620 0.4620
3415.000000 0.4620 0.4620 0.4620 0.4620 0.4620
3410.000000 0.4621 0.4621 0.4621 0.4621 0.4621
3405.000000 0.4623 0.4624 0.4625 0.4626 0.4627
3400.000000 0.4629 0.4630 0.4632 0.4633 0.4635
3395.000000 0.4637 0.4639 0.4641 0.4643 0.4645
3390.000000 0.4647 0.4649 0.4651 0.4654 0.4656
3385.000000 0.4659 0.4660 0.4662 0.4666 0.4668
3380.000000 0.4671 0.4673 0.4675 0.4677 0.4679
3375.000000 0.4680 0.4682 0.4683 0.4685 0.4686
3370.000000 0.4687 0.4688 0.4689 0.4690 0.4691
3365.000000 0.4692 0.4693 0.4694 0.4696 0.4697
3360.000000 0.4698 0.4699 0.4700 0.4701 0.4702
3355.000000 0.4703 0.4704 0.4706 0.4707 0.4708
3350.000000 0.4709 0.4709 0.4710 0.4710 0.4712
3345.000000 0.4712 0.4715 0.4716 0.4717 0.4718
3340.000000 0.4719 0.4719 0.4720 0.4721 0.4721
3335.000000 0.4721 0.4721 0.4721 0.4721 0.4721
3330.000000 0.4721 0.4721 0.4722 0.4722 0.4722
3325.000000 0.4722 0.4723 0.4723 0.4723 0.4723
3320.000000 0.4724 0.4724 0.4724 0.4724 0.4724
3315.000000 0.4725 0.4725 0.4725 0.4725 0.4726
3310.000000 0.4726 0.4726 0.4726 0.4726 0.4727
3305.000000 0.4727 0.4727 0.4727 0.4726 0.4726
3300.000000 0.4725 0.4725 0.4724 0.4724 0.4724
3295.000000 0.4723 0.4723 0.4722 0.4722 0.4722
3290.000000 0.4722 0.4721 0.4721 0.4720 0.4720
3285.000000 0.4719 0.4719 0.4719 0.4718 0.4718
3280.000000 0.4717 0.4717 0.4717 0.4717 0.4716
3275.000000 0.4716 0.4715 0.4715 0.4714 0.4714
3270.000000 0.4712 0.4712 0.4712 0.4712 0.4712
3265.000000 0.4712 0.4712 0.4710 0.4710 0.4710
3260.000000 0.4710 0.4710 0.4710 0.4710 0.4710
3255.000000 0.4709 0.4709 0.4708 0.4708 0.4708
3250.000000 0.4707 0.4707 0.4707 0.4707 0.4706
3245.000000 0.4706 0.4706 0.4706 0.4705 0.4705
3240.000000 0.4705 0.4705 0.4704 0.4704 0.4704
3235.000000 0.4704 0.4704 0.4704 0.4704 0.4704
3230.000000 0.4704 0.4704 0.4704 0.4704 0.4704
3225.000000 0.4704 0.4704 0.4704 0.4704 0.4704
3220.000000 0.4704 0.4704 0.4704 0.4704 0.4704
3215.000000 0.4704 0.4704 0.4704 0.4704 0.4705
3210.000000 0.4705 0.4706 0.4706 0.4707 0.4707
3205.000000 0.4708 0.4708 0.4709 0.4709 0.4710
3200.000000 0.4710 0.4710 0.4710 0.4710 0.4712
3195.000000 0.4712 0.4714 0.4714 0.4715 0.4715
3190.000000 0.4716 0.4716 0.4717 0.4717 0.4718
3185.000000 0.4718 0.4719 0.4720 0.4721 0.4721
3180.000000 0.4722 0.4723 0.4724 0.4725 0.4726
3175.000000 0.4727 0.4727 0.4728 0.4729 0.4730
3170.000000 0.4730 0.4731 0.4732 0.4734 0.4736
3165.000000 0.4738 0.4740 0.4742 0.4744 0.4746
3160.000000 0.4747 0.4749 0.4751 0.4753 0.4755
3155.000000 0.4757 0.4759 0.4760 0.4762 0.4765
3150.000000 0.4767 0.4769 0.4771 0.4774 0.4777
3145.000000 0.4780 0.4783 0.4786 0.4790 0.4793
3140.000000 0.4797 0.4800 0.4803 0.4807 0.4810
3135.000000 0.4814 0.4818 0.4822 0.4826 0.4830
3130.000000 0.4834 0.4838 0.4842 0.4846 0.4850
3125.000000 0.4855 0.4859 0.4862 0.4867 0.4871
3120.000000 0.4872 0.4873 0.4874 0.4875 0.4875
3115.000000 0.4876 0.4877 0.4878 0.4879 0.4880
3110.000000 0.4881 0.4882 0.4883 0.4883 0.4884
3105.000000 0.4885 0.4885 0.4885 0.4885 0.4886
3100.000000 0.4886 0.4886 0.4886 0.4886 0.4886
3095.000000 0.4886 0.4886 0.4886 0.4886 0.4886
3090.000000 0.4887 0.4887 0.4887 0.4887 0.4887
3085.000000 0.4887 0.4887 0.4887 0.4888 0.4888
3080.000000 0.4888 0.4888 0.4887 0.4887 0.4887
3075.000000 0.4886 0.4886 0.4886 0.4886 0.4886
3070.000000 0.4886 0.4886 0.4886 0.4885 0.4885
3065.000000 0.4885 0.4885 0.4884 0.4884 0.4884
3060.000000 0.4884 0.4881 0.4879 0.4876 0.4874
3055.000000 0.4871 0.4869 0.4866 0.4860 0.4853
3050.000000 0.4845 0.4837 0.4828 0.4818 0.4808
3045.000000 0.4795 0.4737 0.4680 0.4622 0.4582
3040.000000 0.4572 0.4562 0.4553 0.4544 0.4535
3035.000000 0.4527 0.4519 0.4518 0.4517 0.4517
3030.000000 0.4516 0.4515 0.4515 0.4514 0.4512
3025.000000 0.4512 0.4510 0.4510 0.4508 0.4507
3020.000000 0.4505 0.4504 0.4503 0.4502 0.4501
3015.000000 0.4500 0.4498 0.4497 0.4495 0.4494
3010.000000 0.4493 0.4491 0.4490 0.4488 0.4486
3005.000000 0.4485 0.4483 0.4482 0.4481 0.4479
3000.000000 0.4476 0.4473 0.4471 0.4466 0.4460
2995.000000 0.4456 0.4451 0.4444 0.4437 0.4430
2990.000000 0.4418 0.4398 0.4378 0.4358 0.4331
2985.000000 0.4302 0.4273 0.4246 0.4223 0.4201
2980.000000 0.4178 0.4155 0.4132 0.4108 0.4084
2975.000000 0.4058 0.4032 0.4006 0.3966 0.3918
2970.000000 0.3871 0.3820 0.3738 0.3655 0.3573
2965.000000 0.3491 0.3409 0.3327 0.3244 0.3162
2960.000000 0.3079 0.2996 0.2914 0.2831 0.2748
2955.000000 0.2666 0.2583 0.2499 0.2416 0.2333
2950.000000 0.2250 0.2167 0.2084 0.2001 0.1918
2945.000000 0.1834 0.1790 0.1767 0.1744 0.1724
2940.000000 0.1712 0.1701 0.1690 0.1675 0.1659
2935.000000 0.1643 0.1625 0.1601 0.1577 0.1553
2930.000000 0.1518 0.1482 0.1445 0.1415 0.1395
2925.000000 0.1375 0.1355 0.1336 0.1317 0.1299
2920.000000 0.1271 0.1236 0.1202 0.1161 0.1084
2915.000000 0.1007 0.0930 0.0910 0.0907 0.0905
2910.000000 0.0903 0.0900 0.0896 0.0895 0.0893
2905.000000 0.0892 0.0892 0.0891 0.0891 0.0891
2900.000000 0.0891 0.0893 0.0896 0.0900 0.0906
2895.000000 0.0913 0.0920 0.0934 0.0953 0.0972
2890.000000 0.0993 0.1022 0.1051 0.1079 0.1105
2885.000000 0.1130 0.1155 0.1180 0.1206 0.1232
2880.000000 0.1257 0.1284 0.1310 0.1337 0.1381
2875.000000 0.1428 0.1474 0.1525 0.1579 0.1634
2870.000000 0.1679 0.1703 0.1726 0.1750 0.1760
2865.000000 0.1770 0.1779 0.1784 0.1787 0.1792
2860.000000 0.1794 0.1798 0.1802 0.1804 0.1808
2855.000000 0.1811 0.1814 0.1817 0.1821 0.1824
2850.000000 0.1828 0.1833 0.1837 0.1844 0.1854
2845.000000 0.1863 0.1874 0.1892 0.1910 0.1928
2840.000000 0.1946 0.1967 0.1985 0.2008 0.2029
2835.000000 0.2052 0.2089 0.2144 0.2199 0.2263
2830.000000 0.2353 0.2443 0.2533 0.2624 0.2715
2825.000000 0.2806 0.2897 0.2988 0.3079 0.3169
2820.000000 0.3259 0.3350 0.3442 0.3534 0.3625
2815.000000 0.3716 0.3808 0.3899 0.3990 0.4082
2810.000000 0.4174 0.4265 0.4396 0.4527 0.4658
2805.000000 0.4716 0.4759 0.4803 0.4855 0.4910
2800.000000 0.4967 0.5026 0.5087 0.5147 0.5204
2795.000000 0.5255 0.5306 0.5350 0.5378 0.5406
2790.000000 0.5433 0.5453 0.5474 0.5494 0.5515
2785.000000 0.5535 0.5556 0.5576 0.5596 0.5617
2780.000000 0.5641 0.5665 0.5689 0.5712 0.5738
2775.000000 0.5762 0.5784 0.5806 0.5827 0.5845
2770.000000 0.5859 0.5874 0.5888 0.5903 0.5917
2765.000000 0.5930 0.5943 0.5955 0.5966 0.5977
2760.000000 0.5988 0.5999 0.6009 0.6020 0.6031
2755.000000 0.6042 0.6053 0.6062 0.6072 0.6081
2750.000000 0.6090 0.6098 0.6106 0.6114 0.6121
2745.000000 0.6129 0.6137 0.6141 0.6145 0.6149
2740.000000 0.6154 0.6158 0.6162 0.6167 0.6171
2735.000000 0.6175 0.6180 0.6184 0.6188 0.6192
2730.000000 0.6195 0.6198 0.6200 0.6203 0.6205
2725.000000 0.6208 0.6210 0.6212 0.6216 0.6218
2720.000000 0.6220 0.6223 0.6226 0.6228 0.6231
2715.000000 0.6233 0.6235 0.6237 0.6239 0.6240
2710.000000 0.6242 0.6243 0.6244 0.6245 0.6246
2705.000000 0.6247 0.6249 0.6250 0.6251 0.6253
2700.000000 0.6254 0.6255 0.6256 0.6257 0.6258
2695.000000 0.6259 0.6260 0.6262 0.6262 0.6265
2690.000000 0.6270 0.6276 0.6282 0.6289 0.6297
2685.000000 0.6304 0.6310 0.6318 0.6323 0.6328
2680.000000 0.6333 0.6338 0.6342 0.6347 0.6351
2675.000000 0.6354 0.6357 0.6358 0.6359 0.6360
2670.000000 0.6360 0.6362 0.6364 0.6365 0.6366
2665.000000 0.6367 0.6368 0.6369 0.6370 0.6371
2660.000000 0.6373 0.6374 0.6375 0.6376 0.6378
2655.000000 0.6379 0.6380 0.6382 0.6385 0.6387
2650.000000 0.6388 0.6390 0.6392 0.6394 0.6396
2645.000000 0.6398 0.6400 0.6401 0.6404 0.6406
2640.000000 0.6408 0.6410 0.6412 0.6415 0.6417
2635.000000 0.6418 0.6419 0.6421 0.6425 0.6426
2630.000000 0.6428 0.6431 0.6433 0.6435 0.6437
2625.000000 0.6439 0.6441 0.6443 0.6445 0.6447
2620.000000 0.6449 0.6451 0.6455 0.6458 0.6461
2615.000000 0.6464 0.6467 0.6469 0.6471 0.6475
2610.000000 0.6478 0.6481 0.6484 0.6487 0.6490
2605.000000 0.6492 0.6495 0.6498 0.6501 0.6504
2600.000000 0.6507 0.6510 0.6512 0.6515 0.6518
2595.000000 0.6521 0.6525 0.6528 0.6532 0.6535
2590.000000 0.6539 0.6543 0.6546 0.6550 0.6554
2585.000000 0.6558 0.6561 0.6565 0.6568 0.6572
2580.000000 0.6575 0.6580 0.6584 0.6588 0.6591
2575.000000 0.6594 0.6598 0.6601 0.6604 0.6606
2570.000000 0.6608 0.6611 0.6614 0.6617 0.6618
2565.000000 0.6621 0.6625 0.6626 0.6630 0.6633
2560.000000 0.6635 0.6638 0.6641 0.6643 0.6646
2555.000000 0.6649 0.6651 0.6654 0.6656 0.6658
2550.000000 0.6658 0.6661 0.6661 0.6664 0.6665
2545.000000 0.6667 0.6668 0.6671 0.6671 0.6674
2540.000000 0.6675 0.6676 0.6678 0.6678 0.6680
2535.000000 0.6680 0.6678 0.6678 0.6678 0.6676
2530.000000 0.6675 0.6675 0.6675 0.6674 0.6674
2525.000000 0.6674 0.6674 0.6674 0.6674 0.6674
2520.000000 0.6674 0.6674 0.6674 0.6674 0.6674
2515.000000 0.6674 0.6674 0.6674 0.6674 0.6675
2510.000000 0.6676 0.6682 0.6688 0.6693 0.6698
2505.000000 0.6704 0.6708 0.6715 0.6719 0.6725
2500.000000 0.6731 0.6737 0.6743 0.6749 0.6755
2495.000000 0.6761 0.6768 0.6775 0.6782 0.6788
2490.000000 0.6795 0.6801 0.6808 0.6814 0.6821
2485.000000 0.6826 0.6834 0.6840 0.6847 0.6854
2480.000000 0.6861 0.6867 0.6874 0.6880 0.6887
2475.000000 0.6893 0.6899 0.6905 0.6911 0.6918
2470.000000 0.6925 0.6931 0.6938 0.6945 0.6951
2465.000000 0.6957 0.6961 0.6967 0.6968 0.6971
2460.000000 0.6974 0.6976 0.6978 0.6982 0.6985
2455.000000 0.6987 0.6990 0.6992 0.6995 0.6997
2450.000000 0.7000 0.7001 0.7005 0.7007 0.7008
2445.000000 0.7010 0.7011 0.7011 0.7014 0.7015
2440.000000 0.7015 0.7017 0.7018 0.7018 0.7019
2435.000000 0.7021 0.7022 0.7024 0.7025 0.7026
2430.000000 0.7028 0.7028 0.7030 0.7032 0.7033
2425.000000 0.7034 0.7036 0.7038 0.7039 0.7041
2420.000000 0.7043 0.7045 0.7047 0.7049 0.7051
2415.000000 0.7051 0.7054 0.7056 0.7057 0.7058
2410.000000 0.7061 0.7062 0.7064 0.7065 0.7068
2405.000000 0.7068 0.7068 0.7069 0.7069 0.7071
2400.000000 0.7071 0.7071 0.7071 0.7071 0.7072
2395.000000 0.7072 0.7074 0.7074 0.7075 0.7075
2390.000000 0.7075 0.7075 0.7075 0.7076 0.7076
2385.000000 0.7076 0.7076 0.7078 0.7078 0.7078
2380.000000 0.7078 0.7078 0.7080 0.7080 0.7081
2375.000000 0.7081 0.7082 0.7082 0.7082 0.7082
2370.000000 0.7082 0.7082 0.7082 0.7082 0.7082
2365.000000 0.7082 0.7082 0.7082 0.7082 0.7082
2360.000000 0.7081 0.7081 0.7078 0.7076 0.7075
2355.000000 0.7072 0.7069 0.7068 0.7067 0.7064
2350.000000 0.7061 0.7057 0.7051 0.7048 0.7043
2345.000000 0.7039 0.7034 0.7028 0.7025 0.7021
2340.000000 0.7018 0.7014 0.7010 0.7006 0.7001
2335.000000 0.6998 0.6994 0.6990 0.6986 0.6985
2330.000000 0.6984 0.6982 0.6980 0.6980 0.6981
2325.000000 0.6981 0.6982 0.6983 0.6984 0.6985
2320.000000 0.6986 0.6988 0.6996 0.7003 0.7010
2315.000000 0.7017 0.7024 0.7030 0.7036 0.7042
2310.000000 0.7048 0.7054 0.7060 0.7065 0.7071
2305.000000 0.7076 0.7082 0.7089 0.7095 0.7101
2300.000000 0.7107 0.7114 0.7121 0.7128 0.7134
2295.000000 0.7141 0.7148 0.7155 0.7161 0.7168
2290.000000 0.7175 0.7183 0.7190 0.7197 0.7204
2285.000000 0.7211 0.7218 0.7225 0.7232 0.7240
2280.000000 0.7247 0.7254 0.7261 0.7268 0.7275
2275.000000 0.7283 0.7290 0.7298 0.7305 0.7311
2270.000000 0.7318 0.7324 0.7330 0.7335 0.7340
2265.000000 0.7345 0.7350 0.7356 0.7361 0.7365
2260.000000 0.7371 0.7376 0.7382 0.7388 0.7392
2255.000000 0.7395 0.7397 0.7400 0.7401 0.7405
2250.000000 0.7407 0.7410 0.7411 0.7414 0.7417
2245.000000 0.7418 0.7421 0.7424 0.7426 0.7428
2240.000000 0.7432 0.7434 0.7437 0.7439 0.7442
2235.000000 0.7444 0.7446 0.7448 0.7451 0.7453
2230.000000 0.7456 0.7458 0.7461 0.7462 0.7465
2225.000000 0.7468 0.7469 0.7472 0.7475 0.7478
2220.000000 0.7480 0.7482 0.7484 0.7487 0.7489
2215.000000 0.7492 0.7494 0.7496 0.7498 0.7501
2210.000000 0.7504 0.7506 0.7508 0.7511 0.7512
2205.000000 0.7515 0.7518 0.7519 0.7521 0.7522
2200.000000 0.7524 0.7525 0.7525 0.7526 0.7528
2195.000000 0.7528 0.7530 0.7531 0.7533 0.7534
2190.000000 0.7535 0.7536 0.7537 0.7538 0.7539
2185.000000 0.7540 0.7541 0.7542 0.7543 0.7545
2180.000000 0.7555 0.7549 0.7551 0.7553 0.7554
2175.000000 0.7556 0.7558 0.7560 0.7561 0.7564
2170.000000 0.7565 0.7567 0.7568 0.7571 0.7572
2165.000000 0.7575 0.7576 0.7578 0.7581 0.7582
2160.000000 0.7584 0.7585 0.7587 0.7590 0.7591
2155.000000 0.7593 0.7595 0.7597 0.7599 0.7600
2150.000000 0.7601 0.7604 0.7606 0.7608 0.7608
2145.000000 0.7611 0.7612 0.7615 0.7617 0.7618
2140.000000 0.7619 0.7622 0.7625 0.7631 0.7637
2135.000000 0.7642 0.7648 0.7653 0.7658 0.7665
2130.000000 0.7671 0.7678 0.7687 0.7694 0.7701
2125.000000 0.7708 0.7715 0.7724 0.7730 0.7732
2120.000000 0.7734 0.7736 0.7738 0.7739 0.7740
2115.000000 0.7742 0.7743 0.7745 0.7745 0.7746
2110.000000 0.7746 0.7747 0.7747 0.7747 0.7748
2105.000000 0.7748 0.7748 0.7748 0.7749 0.7749
2100.000000 0.7749 0.7750 0.7750 0.7751 0.7751
2095.000000 0.7755 0.7758 0.7762 0.7767 0.7771
2090.000000 0.7775 0.7780 0.7785 0.7790 0.7794
2085.000000 0.7799 0.7803 0.7808 0.7811 0.7812
2080.000000 0.7812 0.7811 0.7811 0.7811 0.7810
2075.000000 0.7808 0.7806 0.7804 0.7801 0.7799
2070.000000 0.7796 0.7793 0.7791 0.7789 0.7788
2065.000000 0.7788 0.7789 0.7789 0.7790 0.7790
2060.000000 0.7790 0.7791 0.7791 0.7792 0.7794
2055.000000 0.7797 0.7800 0.7801 0.7805 0.7807
2050.000000 0.7810 0.7812 0.7815 0.7818 0.7822
2045.000000 0.7826 0.7831 0.7835 0.7840 0.7845
2040.000000 0.7849 0.7853 0.7857 0.7861 0.7865
2035.000000 0.7869 0.7874 0.7878 0.7881 0.7885
2030.000000 0.7888 0.7891 0.7895 0.7898 0.7901
2025.000000 0.7905 0.7908 0.7911 0.7915 0.7919
2020.000000 0.7924 0.7928 0.7932 0.7937 0.7941
2015.000000 0.7946 0.7951 0.7955 0.7957 0.7958
2010.000000 0.7958 0.7960 0.7961 0.7961 0.7961
2005.000000 0.7961 0.7964 0.7965 0.7968 0.7971
2000.000000 0.7975 0.7978 0.7983 0.7987 0.7991
1995.000000 0.7996 0.8006 0.8015 0.8025 0.8035
1990.000000 0.8045 0.8054 0.8062 0.8071 0.8078
1985.000000 0.8087 0.8094 0.8101 0.8106 0.8107
1980.000000 0.8108 0.8110 0.8111 0.8112 0.8114
1975.000000 0.8115 0.8115 0.8115 0.8115 0.8114
1970.000000 0.8112 0.8112 0.8111 0.8111 0.8111
1965.000000 0.8110 0.8110 0.8108 0.8108 0.8108
1960.000000 0.8108 0.8110 0.8115 0.8119 0.8125
1955.000000 0.8131 0.8136 0.8141 0.8146 0.8151
1950.000000 0.8157 0.8161 0.8168 0.8174 0.8180
1945.000000 0.8185 0.8191 0.8197 0.8202 0.8207
1940.000000 0.8213 0.8218 0.8221 0.8228 0.8233
1935.000000 0.8238 0.8246 0.8255 0.8265 0.8275
1930.000000 0.8287 0.8298 0.8308 0.8318 0.8328
1925.000000 0.8338 0.8348 0.8358 0.8368 0.8375
1920.000000 0.8378 0.8381 0.8383 0.8386 0.8389
1915.000000 0.8390 0.8392 0.8392 0.8392 0.8393
1910.000000 0.8393 0.8394 0.8394 0.8394 0.8396
1905.000000 0.8398 0.8400 0.8401 0.8402 0.8404
1900.000000 0.8407 0.8413 0.8420 0.8427 0.8435
1895.000000 0.8445 0.8456 0.8467 0.8475 0.8483
1890.000000 0.8485 0.8487 0.8490 0.8492 0.8495
1885.000000 0.8498 0.8501 0.8504 0.8508 0.8512
1880.000000 0.8515 0.8518 0.8523 0.8527 0.8532
1875.000000 0.8537 0.8543 0.8549 0.8554 0.8560
1870.000000 0.8566 0.8571 0.8577 0.8583 0.8589
1865.000000 0.8594 0.8600 0.8606 0.8611 0.8616
1860.000000 0.8620 0.8624 0.8628 0.8633 0.8638
1855.000000 0.8643 0.8647 0.8652 0.8657 0.8662
1850.000000 0.8667 0.8673 0.8678 0.8683 0.8689
1845.000000 0.8695 0.8700 0.8705 0.8710 0.8716
1840.000000 0.8721 0.8728 0.8735 0.8741 0.8747
1835.000000 0.8754 0.8760 0.8766 0.8773 0.8778
1830.000000 0.8786 0.8792 0.8798 0.8804 0.8809
1825.000000 0.8813 0.8817 0.8840 0.8823 0.8821
1820.000000 0.8820 0.8817 0.8815 0.8809 0.8803
1815.000000 0.8797 0.8788 0.8771 0.8754 0.8736
1810.000000 0.8717 0.8695 0.8673 0.8651 0.8631
1805.000000 0.8613 0.8595 0.8585 0.8566 0.8565
1800.000000 0.8565 0.8563 0.8563 0.8564 0.8564
1795.000000 0.8575 0.8587 0.8600 0.8613 0.8627
1790.000000 0.8643 0.8660 0.8675 0.8687 0.8699
1785.000000 0.8710 0.8720 0.8725 0.8732 0.8738
1780.000000 0.8743 0.8747 0.8747 0.8747 0.8747
1775.000000 0.8745 0.8743 0.8741 0.8737 0.8706
1770.000000 0.8657 0.8589 0.8492 0.8407 0.8343
1765.000000 0.8255 0.8158 0.8097 0.8021 0.8001
1760.000000 0.7981 0.7993 0.7992 0.7992 0.7992
1755.000000 0.7996 0.8005 0.8021 0.8043 0.8085
1750.000000 0.8183 0.8304 0.8424 0.8545 0.8666
1745.000000 0.8743 0.8771 0.8778 0.8783 0.8788
1740.000000 0.8799 0.8818 0.8841 0.8867 0.8892
1735.000000 0.8918 0.8945 0.8973 0.9003 0.9032
1730.000000 0.9061 0.9082 0.9095 0.9107 0.9120
1725.000000 0.9133 0.9145 0.9158 0.9163 0.9167
1720.000000 0.9171 0.9175 0.9178 0.9184 0.9185
1715.000000 0.9186 0.9185 0.9184 0.9183 0.9181
1710.000000 0.9181 0.9178 0.9175 0.9174 0.9171
1705.000000 0.9167 0.9154 0.9135 0.9109 0.9075
1700.000000 0.9024 0.8923 0.8774 0.8606 0.8439
1695.000000 0.8271 0.8103 0.7934 0.7765 0.7597
1690.000000 0.7428 0.7260 0.7092 0.6958 0.6843
1685.000000 0.6589 0.6424 0.6234 0.5962 0.5717
1680.000000 0.5460 0.5206 0.4950 0.4694 0.4438
1675.000000 0.4181 0.3924 0.3666 0.3408 0.3151
1670.000000 0.2893 0.2634 0.2375 0.2116 0.1856
1665.000000 0.1657 0.1629 0.1628 0.1628 0.1634
1660.000000 0.1654 0.1686 0.1735 0.1793 0.1857
1655.000000 0.1902 0.1934 0.1983 0.2046 0.2111
1650.000000 0.2209 0.2199 0.2193 0.2140 0.2050
1645.000000 0.1957 0.1864 0.1750 0.1774 0.1775
1640.000000 0.1776 0.1787 0.1813 0.1846 0.1929
1635.000000 0.2058 0.2188 0.2318 0.2448 0.2579
1630.000000 0.2710 0.2841 0.2971 0.3064 0.3104
1625.000000 0.3104 0.3102 0.3075 0.2984 0.2849
1620.000000 0.2714 0.2578 0.2442 0.2306 0.2173
1615.000000 0.2122 0.2113 0.2126 0.2147 0.2226
1610.000000 0.2381 0.2549 0.2717 0.2884 0.3054
1605.000000 0.3223 0.3392 0.3562 0.3726 0.3843
1600.000000 0.3904 0.3944 0.3980 0.4016 0.4055
1595.000000 0.4112 0.4189 0.4274 0.4360 0.4445
1590.000000 0.4531 0.4616 0.4702 0.4788 0.4874
1585.000000 0.4960 0.5046 0.5133 0.5219 0.5306
1580.000000 0.5392 0.5479 0.5566 0.5652 0.5730
1575.000000 0.5799 0.5864 0.5916 0.5960 0.5997
1570.000000 0.6030 0.6056 0.6071 0.6123 0.6095
1565.000000 0.6104 0.6108 0.6110 0.6114 0.6117
1560.000000 0.6120 0.6123 0.6126 0.6129 0.6129
1555.000000 0.6130 0.6125 0.6119 0.6112 0.6104
1550.000000 0.6098 0.6091 0.6086 0.6085 0.6084
1545.000000 0.6083 0.6083 0.6082 0.6082 0.6082
1540.000000 0.6087 0.6093 0.6099 0.6106 0.6112
1535.000000 0.6118 0.6130 0.6144 0.6158 0.6173
1530.000000 0.6188 0.6208 0.6228 0.6248 0.6268
1525.000000 0.6286 0.6305 0.6323 0.6342 0.6360
1520.000000 0.6386 0.6421 0.6467 0.6518 0.6580
1515.000000 0.6637 0.6687 0.6730 0.6756 0.6768
1510.000000 0.6775 0.6780 0.6785 0.6789 0.6818
1505.000000 0.6862 0.6884 0.6906 0.6898 0.6897
1500.000000 0.6882 0.6857 0.6828 0.6689 0.6595
1495.000000 0.6525 0.6439 0.6412 0.6374 0.6392
1490.000000 0.6389 0.6390 0.6403 0.6438 0.6481
1485.000000 0.6531 0.6580 0.6617 0.6644 0.6667
1480.000000 0.6668 0.6668 0.6644 0.6597 0.6484
1475.000000 0.6188 0.5854 0.5518 0.5182 0.4846
1470.000000 0.4560 0.4455 0.4408 0.4366 0.4326
1465.000000 0.4298 0.4273 0.4250 0.4231 0.4215
1460.000000 0.4202 0.4176 0.4190 0.4188 0.4198
1455.000000 0.4225 0.4269 0.4312 0.4357 0.4404
1450.000000 0.4462 0.4537 0.4605 0.4628 0.4629
1445.000000 0.4630 0.4599 0.4559 0.4510 0.4442
1440.000000 0.4385 0.4332 0.4355 0.4362 0.4406
1435.000000 0.4489 0.4727 0.4941 0.5020 0.5083
1430.000000 0.5155 0.5256 0.5356 0.5456 0.5556
1425.000000 0.5656 0.5757 0.5857 0.5958 0.6059
1420.000000 0.6159 0.6260 0.6360 0.6499 0.6678
1415.000000 0.6738 0.6775 0.6811 0.6848 0.6884
1410.000000 0.6917 0.6938 0.6953 0.6976 0.6965
1405.000000 0.6962 0.6960 0.6958 0.6944 0.6931
1400.000000 0.6924 0.6917 0.6911 0.6912 0.6919
1395.000000 0.6926 0.6936 0.6944 0.6951 0.6958
1390.000000 0.6964 0.6961 0.6950 0.6917 0.6694
1385.000000 0.6293 0.5880 0.5466 0.5051 0.4635
1380.000000 0.4219 0.3803 0.3384 0.3099 0.3064
1375.000000 0.3053 0.3068 0.3114 0.3222 0.3425
1370.000000 0.3644 0.3864 0.4084 0.4304 0.4524
1365.000000 0.4745 0.4966 0.5188 0.5409 0.5631
1360.000000 0.5853 0.6076 0.6254 0.6278 0.6283
1355.000000 0.6275 0.5774 0.5268 0.4762 0.4254
1350.000000 0.3780 0.3764 0.3766 0.3789 0.4143
1345.000000 0.4540 0.4938 0.5336 0.5735 0.5888
1340.000000 0.6214 0.6465 0.6698 0.6887 0.6996
1335.000000 0.7047 0.7091 0.7121 0.7160 0.7208
1330.000000 0.7275 0.7322 0.7356 0.7381 0.7403
1325.000000 0.7415 0.7428 0.7451 0.7440 0.7435
1320.000000 0.7431 0.7406 0.7371 0.7332 0.7287
1315.000000 0.7244 0.7243 0.7247 0.7268 0.7333
1310.000000 0.7392 0.7436 0.7441 0.7443 0.7444
1305.000000 0.7445 0.7446 0.7446 0.7447 0.7448
1300.000000 0.7449 0.7443 0.7406 0.7321 0.7206
1295.000000 0.7118 0.7036 0.6935 0.6865 0.6817
1290.000000 0.6788 0.6765 0.6755 0.6732 0.6741
1285.000000 0.6740 0.6740 0.6744 0.6758 0.6784
1280.000000 0.6825 0.6880 0.6933 0.6982 0.7008
1275.000000 0.7028 0.7050 0.7065 0.7075 0.7087
1270.000000 0.7086 0.7085 0.7071 0.7043 0.6965
1265.000000 0.6838 0.6528 0.6190 0.5850 0.5510
1260.000000 0.5170 0.4829 0.4488 0.4145 0.3803
1255.000000 0.3459 0.3117 0.2772 0.2374 0.2373
1250.000000 0.2372 0.2400 0.2568 0.2911 0.3255
1245.000000 0.3600 0.3936 0.4047 0.4144 0.4356
1240.000000 0.4574 0.4792 0.5010 0.5229 0.5448
1235.000000 0.5668 0.5887 0.6108 0.6328 0.6550
1230.000000 0.6757 0.6897 0.7005 0.7089 0.7193
1225.000000 0.7307 0.7365 0.7394 0.7406 0.7415
1220.000000 0.7408 0.7405 0.7397 0.7390 0.7382
1215.000000 0.7371 0.7358 0.7348 0.7332 0.7317
1210.000000 0.7293 0.7258 0.7204 0.7118 0.6988
1205.000000 0.6806 0.6662 0.6565 0.6489 0.6448
1200.000000 0.6411 0.6368 0.6375 0.6392 0.6453
1195.000000 0.6595 0.6753 0.6965 0.7088 0.7162
1190.000000 0.7262 0.7331 0.7387 0.7417 0.7424
1185.000000 0.7411 0.7399 0.7386 0.7372 0.7368
1180.000000 0.7375 0.7490 0.7588 0.7664 0.7715
1175.000000 0.7751 0.7764 0.7771 0.7746 0.7687
1170.000000 0.7655 0.7640 0.7715 0.7890 0.7958
1165.000000 0.8021 0.8050 0.8065 0.8068 0.8061
1160.000000 0.7865 0.7230 0.6639 0.6047 0.5454
1155.000000 0.4860 0.4265 0.3707 0.3614 0.3595
1150.000000 0.3677 0.3871 0.4259 0.4965 0.5598
1145.000000 0.5782 0.6415 0.6712 0.6837 0.6895
1140.000000 0.6956 0.7049 0.7151 0.7225 0.7284
1135.000000 0.7331 0.7378 0.7430 0.7481 0.7531
1130.000000 0.7578 0.7625 0.7668 0.7706 0.7743
1125.000000 0.7786 0.7835 0.7868 0.7896 0.7906
1120.000000 0.7915 0.7925 0.7932 0.7938 0.7951
1115.000000 0.7968 0.7986 0.8003 0.8019 0.8038
1110.000000 0.8055 0.8061 0.8065 0.8067 0.8067
1105.000000 0.8065 0.8075 0.8093 0.8108 0.8121
1100.000000 0.8136 0.8147 0.8158 0.8178 0.8171
1095.000000 0.8165 0.8157 0.8146 0.8121 0.8097
1090.000000 0.8038 0.7950 0.7834 0.7722 0.7646
1085.000000 0.7611 0.7576 0.7518 0.7534 0.7532
1080.000000 0.7561 0.7617 0.7687 0.7787 0.7862
1075.000000 0.8437 0.9084 0.8821 0.8527 0.8302
1070.000000 0.8267 0.8255 0.8258 0.8268 0.8280
1065.000000 0.8290 0.8299 0.8308 0.8317 0.8328
1060.000000 0.8343 0.8359 0.8390 0.8447 0.8463
1055.000000 0.8465 0.8468 0.8475 0.8493 0.8516
1050.000000 0.8559 0.8605 0.8630 0.8628 0.8633
1045.000000 0.8624 0.8611 0.8599 0.8583 0.8564
1040.000000 0.8537 0.8492 0.8448 0.8370 0.8255
1035.000000 0.8139 0.8021 0.7904 0.7731 0.7742
1030.000000 0.7758 0.7836 0.8092 0.8165 0.8228
1025.000000 0.8299 0.8378 0.8451 0.8500 0.8528
1020.000000 0.8549 0.8566 0.8603 0.8590 0.8595
1015.000000 0.8592 0.8565 0.8463 0.7988 0.7526
1010.000000 0.7064 0.6601 0.6137 0.5672 0.5206
1005.000000 0.4531 0.4516 0.4524 0.4633 0.5026
1000.000000 0.5572 0.6118 0.6608 0.7111 0.7307
995.000000 0.7499 0.7683 0.7841 0.7965 0.8049
990.000000 0.8124 0.8192 0.8259 0.8328 0.8378
985.000000 0.8418 0.8453 0.8471 0.8483 0.8486
980.000000 0.8491 0.8493 0.8496 0.8498 0.8501
975.000000 0.8506 0.8511 0.8518 0.8532 0.8568
970.000000 0.8606 0.8639 0.8657 0.8660 0.8661
965.000000 0.8670 0.8687 0.8728 0.8741 0.8752
960.000000 0.8764 0.8775 0.8781 0.8786 0.8791
955.000000 0.8796 0.8801 0.8806 0.8807 0.8809
950.000000 0.8810 0.8811 0.8803 0.8795 0.8786
945.000000 0.8777 0.8760 0.8741 0.8720 0.8696
940.000000 0.8645 0.8592 0.8501 0.8378 0.8213
935.000000 0.8042 0.7858 0.7607 0.7312 0.6951
930.000000 0.6678 0.6267 0.5854 0.5441 0.4957
925.000000 0.4980 0.4983 0.5171 0.5799 0.6440
920.000000 0.7085 0.7611 0.7808 0.8003 0.8157
915.000000 0.8286 0.8394 0.8488 0.8538 0.8564
910.000000 0.8573 0.8602 0.8653 0.8718 0.8785
905.000000 0.8852 0.8946 0.9021 0.9082 0.9128
900.000000 0.9154 0.9178 0.9204 0.9232 0.9261
895.000000 0.9290 0.9323 0.9363 0.9402 0.9440
890.000000 0.9462 0.9481 0.9493 0.9499 0.9512
885.000000 0.9535 0.9556 0.9596 0.9625 0.9647
880.000000 0.9666 0.9674 0.9682 0.9695 0.9708
875.000000 0.9727 0.9751 0.9775 0.9778 0.9768
870.000000 0.9758 0.9751 0.9743 0.9746 0.9750
865.000000 0.9786 0.9760 0.9767 0.9775 0.9783
860.000000 0.9788 0.9795 0.9800 0.9804 0.9804
855.000000 0.9804 0.9789 0.9745 0.9731 0.9730
850.000000 0.9725 0.9718 0.9706 0.9692 0.9678
845.000000 0.9656 0.9601 0.9512 0.9434 0.9374
840.000000 0.9325 0.9278 0.9243 0.9230 0.9249
835.000000 0.9257 0.9198 0.9221 0.9218 0.9227
830.000000 0.9291 0.9378 0.9425 0.9473 0.9537
825.000000 0.9593 0.9640 0.9674 0.9705 0.9731
820.000000 0.9758 0.9778 0.9799 0.9817 0.9868
815.000000 0.9844 0.9844 0.9844 0.9841 0.9838
810.000000 0.9835 0.9823 0.9800 0.9775 0.9749
805.000000 0.9684 0.9510 0.9127 0.8609 0.8115
800.000000 0.7690 0.7440 0.7097 0.6750 0.6401
795.000000 0.6322 0.6448 0.6945 0.7399 0.7854
790.000000 0.8217 0.8591 0.8825 0.9023 0.9178
785.000000 0.9220 0.9273 0.9330 0.9377 0.9407
780.000000 0.9433 0.9445 0.9458 0.9470 0.9491
775.000000 0.9533 0.9575 0.9601 0.9621 0.9633
770.000000 0.9644 0.9653 0.9661 0.9668 0.9675
765.000000 0.9665 0.9664 0.9664 0.9655 0.9644
760.000000 0.9628 0.9614 0.9593 0.9564 0.9507
755.000000 0.9427 0.9342 0.9304 0.9308 0.9287
750.000000 0.9267 0.9260 0.9258 0.9256 0.9256
745.000000 0.9256 0.9256 0.9260 0.9265 0.9288
740.000000 0.9275 0.9280 0.9286 0.9291 0.9295
735.000000 0.9294 0.9294 0.9294 0.9300 0.9278
730.000000 0.9234 0.9128 0.8925 0.8882 0.8849
725.000000 0.8818 0.8786 0.8763 0.8743 0.8713
720.000000 0.8683 0.8664 0.8645 0.8620 0.8568
715.000000 0.8468 0.8153 0.7865 0.7401 0.6887
710.000000 0.6657 0.6601 0.6599 0.6701 0.6944
705.000000 0.7122 0.7408 0.7725 0.7940 0.8194
700.000000 0.8387 0.8515 0.8623 0.8703 0.8780
695.000000 0.8843 0.8898 0.8935 0.8973 0.8997
690.000000 0.9020 0.9033 0.9045 0.9054 0.9060
685.000000 0.9062 0.9074 0.9011 0.8996 0.9016
680.000000 0.9033 0.9008 0.8978 0.8956 0.8938
675.000000 0.8917 0.8888 0.8857 0.8802 0.8736
670.000000 0.8663 0.8575 0.8475 0.8260 0.7994
665.000000 0.7774 0.7519 0.7334 0.7287 0.7272
660.000000 0.7307 0.7412 0.7504 0.7586 0.7657
655.000000 0.7715 0.7740 0.7761 0.7772 0.7785
650.000000 0.7801 0.7815 0.7808 0.7776 0.7719
645.000000 0.7708 0.7714 0.7714 0.7715
##END=
