##TITLE=LIMONENE
##JCAMP-DX=4.24
$$ By DXEDIT 1.05 (RS McDonald)
##DATA TYPE=INFRARED SPECTRUM
##CLASS=COBLENTZ III
##ORIGIN=WESTERN REGIONAL RES. USDA
##OWNER=COBLENTZ SOC.
Collection (C) 2018 copyright by the U.S. Secretary of Commerce
on behalf of the United States of America. All rights reserved.
##DATE=1967/08/02
##NAMES=4-isopropenyl-1-methyl-1-cyclohexene
p-MENTHA-1,8-DIENE
##CAS REGISTRY NO=138-86-3
##MOLFORM=C10 H16
##SOURCE REFERENCE=COBLENTZ NO. 06199
##$NIST SOURCE=COBLENTZ
##$NIST IMAGE=cob6199
##SPECTROMETER/DATA SYSTEM=CARY 90 (GRATING)
##INSTRUMENT PARAMETERS=ORDER CHANGES: 3000, 2000, 1200 CM^-^1
##STATE=LIQUID (NEAT)
##PATH LENGTH=0.0025 CM
##SAMPLING PROCEDURE=TRANSMISSION
##RESOLUTION=2
##DATA PROCESSING=DIGITIZED BY COBLENTZ SOCIETY (BATCH I) FROM HARD COPY
##XUNITS=1/CM
##YUNITS=TRANSMITTANCE
##XLABEL=Wavenumbers (cm-1)
##YLABEL=Transmittance
##XFACTOR=1
##YFACTOR=1
##DELTAX=1
##FIRSTX=4022
##LASTX=479
##FIRSTY=0.9459
##MAXX=4022
##MINX=479
##MAXY=1.0125
##MINY=0.0026
##NPOINTS=3544
##XYDATA=(X++(Y..Y))
4022.000000 0.9459 0.9459 0.9459 0.9458 0.9457
4017.000000 0.9456 0.9456 0.9455 0.9454 0.9453
4012.000000 0.9452 0.9451 0.9450 0.9449 0.9449
4007.000000 0.9448 0.9447 0.9446 0.9445 0.9444
4002.000000 0.9444 0.9443 0.9442 0.9441 0.9440
3997.000000 0.9439 0.9438 0.9437 0.9437 0.9436
3992.000000 0.9435 0.9434 0.9433 0.9432 0.9432
3987.000000 0.9431 0.9430 0.9428 0.9427 0.9425
3982.000000 0.9425 0.9424 0.9423 0.9421 0.9420
3977.000000 0.9418 0.9418 0.9417 0.9416 0.9414
3972.000000 0.9413 0.9412 0.9411 0.9411 0.9411
3967.000000 0.9410 0.9410 0.9410 0.9410 0.9410
3962.000000 0.9410 0.9409 0.9409 0.9409 0.9409
3957.000000 0.9409 0.9409 0.9408 0.9408 0.9408
3952.000000 0.9408 0.9408 0.9409 0.9409 0.9410
3947.000000 0.9410 0.9411 0.9411 0.9411 0.9411
3942.000000 0.9412 0.9412 0.9413 0.9413 0.9414
3937.000000 0.9414 0.9415 0.9415 0.9415 0.9415
3932.000000 0.9416 0.9416 0.9417 0.9417 0.9418
3927.000000 0.9418 0.9418 0.9418 0.9420 0.9421
3922.000000 0.9421 0.9423 0.9424 0.9425 0.9427
3917.000000 0.9428 0.9428 0.9430 0.9431 0.9432
3912.000000 0.9433 0.9434 0.9435 0.9436 0.9437
3907.000000 0.9438 0.9440 0.9441 0.9442 0.9443
3902.000000 0.9444 0.9445 0.9446 0.9446 0.9447
3897.000000 0.9447 0.9448 0.9448 0.9449 0.9449
3892.000000 0.9450 0.9450 0.9451 0.9451 0.9452
3887.000000 0.9452 0.9453 0.9453 0.9454 0.9454
3882.000000 0.9455 0.9455 0.9456 0.9456 0.9456
3877.000000 0.9455 0.9455 0.9454 0.9454 0.9453
3872.000000 0.9453 0.9452 0.9452 0.9452 0.9452
3867.000000 0.9451 0.9451 0.9450 0.9450 0.9449
3862.000000 0.9449 0.9448 0.9448 0.9448 0.9448
3857.000000 0.9447 0.9447 0.9447 0.9447 0.9447
3852.000000 0.9448 0.9448 0.9448 0.9448 0.9448
3847.000000 0.9448 0.9449 0.9449 0.9449 0.9449
3842.000000 0.9449 0.9449 0.9449 0.9449 0.9450
3837.000000 0.9450 0.9450 0.9450 0.9450 0.9450
3832.000000 0.9451 0.9451 0.9451 0.9452 0.9453
3827.000000 0.9454 0.9456 0.9457 0.9459 0.9460
3822.000000 0.9462 0.9463 0.9464 0.9465 0.9467
3817.000000 0.9468 0.9470 0.9471 0.9473 0.9474
3812.000000 0.9475 0.9477 0.9478 0.9480 0.9482
3807.000000 0.9483 0.9485 0.9486 0.9488 0.9489
3802.000000 0.9491 0.9492 0.9493 0.9494 0.9496
3797.000000 0.9497 0.9499 0.9500 0.9501 0.9502
3792.000000 0.9504 0.9505 0.9506 0.9507 0.9508
3787.000000 0.9509 0.9511 0.9512 0.9513 0.9514
3782.000000 0.9515 0.9516 0.9518 0.9518 0.9520
3777.000000 0.9521 0.9521 0.9523 0.9525 0.9525
3772.000000 0.9527 0.9528 0.9528 0.9530 0.9532
3767.000000 0.9533 0.9534 0.9535 0.9536 0.9536
3762.000000 0.9536 0.9536 0.9537 0.9537 0.9538
3757.000000 0.9538 0.9538 0.9538 0.9539 0.9539
3752.000000 0.9540 0.9540 0.9541 0.9541 0.9541
3747.000000 0.9541 0.9542 0.9542 0.9543 0.9543
3742.000000 0.9543 0.9543 0.9544 0.9544 0.9545
3737.000000 0.9545 0.9545 0.9545 0.9546 0.9546
3732.000000 0.9547 0.9547 0.9547 0.9547 0.9548
3727.000000 0.9548 0.9549 0.9549 0.9550 0.9550
3722.000000 0.9550 0.9550 0.9551 0.9551 0.9552
3717.000000 0.9552 0.9552 0.9552 0.9553 0.9553
3712.000000 0.9554 0.9554 0.9554 0.9554 0.9555
3707.000000 0.9555 0.9556 0.9556 0.9556 0.9556
3702.000000 0.9557 0.9557 0.9558 0.9558 0.9559
3697.000000 0.9559 0.9560 0.9560 0.9560 0.9560
3692.000000 0.9561 0.9561 0.9562 0.9562 0.9563
3687.000000 0.9563 0.9563 0.9563 0.9564 0.9564
3682.000000 0.9565 0.9565 0.9566 0.9566 0.9566
3677.000000 0.9566 0.9567 0.9567 0.9568 0.9568
3672.000000 0.9568 0.9568 0.9570 0.9570 0.9570
3667.000000 0.9570 0.9571 0.9571 0.9571 0.9571
3662.000000 0.9573 0.9573 0.9574 0.9574 0.9574
3657.000000 0.9574 0.9575 0.9575 0.9575 0.9575
3652.000000 0.9577 0.9577 0.9578 0.9578 0.9578
3647.000000 0.9578 0.9578 0.9578 0.9580 0.9580
3642.000000 0.9581 0.9581 0.9582 0.9582 0.9583
3637.000000 0.9583 0.9583 0.9583 0.9584 0.9584
3632.000000 0.9585 0.9585 0.9586 0.9586 0.9587
3627.000000 0.9587 0.9587 0.9587 0.9588 0.9588
3622.000000 0.9589 0.9589 0.9589 0.9589 0.9590
3617.000000 0.9590 0.9590 0.9590 0.9591 0.9591
3612.000000 0.9591 0.9591 0.9592 0.9592 0.9592
3607.000000 0.9592 0.9592 0.9591 0.9591 0.9590
3602.000000 0.9590 0.9589 0.9589 0.9588 0.9587
3597.000000 0.9586 0.9586 0.9585 0.9585 0.9584
3592.000000 0.9584 0.9583 0.9583 0.9582 0.9582
3587.000000 0.9581 0.9580 0.9578 0.9578 0.9578
3582.000000 0.9578 0.9577 0.9577 0.9575 0.9575
3577.000000 0.9575 0.9574 0.9573 0.9573 0.9573
3572.000000 0.9573 0.9571 0.9571 0.9571 0.9571
3567.000000 0.9570 0.9570 0.9570 0.9570 0.9568
3562.000000 0.9568 0.9568 0.9568 0.9568 0.9568
3557.000000 0.9567 0.9567 0.9566 0.9566 0.9565
3552.000000 0.9565 0.9565 0.9565 0.9564 0.9564
3547.000000 0.9563 0.9563 0.9563 0.9563 0.9562
3542.000000 0.9562 0.9561 0.9561 0.9561 0.9561
3537.000000 0.9560 0.9560 0.9560 0.9560 0.9559
3532.000000 0.9559 0.9559 0.9559 0.9559 0.9559
3527.000000 0.9558 0.9558 0.9558 0.9558 0.9557
3522.000000 0.9557 0.9557 0.9557 0.9556 0.9556
3517.000000 0.9556 0.9556 0.9556 0.9556 0.9555
3512.000000 0.9555 0.9555 0.9555 0.9554 0.9554
3507.000000 0.9553 0.9553 0.9553 0.9553 0.9552
3502.000000 0.9552 0.9552 0.9552 0.9551 0.9551
3497.000000 0.9551 0.9551 0.9550 0.9550 0.9549
3492.000000 0.9549 0.9548 0.9548 0.9547 0.9547
3487.000000 0.9546 0.9546 0.9545 0.9545 0.9544
3482.000000 0.9544 0.9543 0.9542 0.9541 0.9541
3477.000000 0.9540 0.9540 0.9539 0.9539 0.9538
3472.000000 0.9538 0.9537 0.9536 0.9535 0.9535
3467.000000 0.9534 0.9534 0.9533 0.9533 0.9532
3462.000000 0.9532 0.9531 0.9530 0.9528 0.9528
3457.000000 0.9528 0.9528 0.9527 0.9527 0.9525
3452.000000 0.9525 0.9525 0.9525 0.9525 0.9525
3447.000000 0.9524 0.9524 0.9523 0.9523 0.9523
3442.000000 0.9523 0.9521 0.9521 0.9521 0.9521
3437.000000 0.9520 0.9520 0.9520 0.9520 0.9518
3432.000000 0.9518 0.9518 0.9518 0.9518 0.9518
3427.000000 0.9517 0.9517 0.9516 0.9516 0.9515
3422.000000 0.9515 0.9515 0.9515 0.9515 0.9515
3417.000000 0.9514 0.9514 0.9514 0.9514 0.9514
3412.000000 0.9514 0.9514 0.9514 0.9513 0.9513
3407.000000 0.9513 0.9513 0.9513 0.9513 0.9513
3402.000000 0.9513 0.9513 0.9513 0.9512 0.9512
3397.000000 0.9512 0.9512 0.9511 0.9510 0.9509
3392.000000 0.9509 0.9508 0.9507 0.9506 0.9505
3387.000000 0.9504 0.9504 0.9503 0.9502 0.9501
3382.000000 0.9501 0.9500 0.9499 0.9498 0.9497
3377.000000 0.9496 0.9496 0.9495 0.9494 0.9493
3372.000000 0.9493 0.9492 0.9491 0.9490 0.9489
3367.000000 0.9487 0.9486 0.9484 0.9483 0.9481
3362.000000 0.9480 0.9478 0.9477 0.9475 0.9474
3357.000000 0.9471 0.9471 0.9468 0.9468 0.9466
3352.000000 0.9465 0.9464 0.9463 0.9461 0.9460
3347.000000 0.9458 0.9457 0.9455 0.9454 0.9452
3342.000000 0.9451 0.9449 0.9448 0.9447 0.9446
3337.000000 0.9445 0.9445 0.9444 0.9443 0.9442
3332.000000 0.9442 0.9441 0.9440 0.9439 0.9439
3327.000000 0.9438 0.9437 0.9436 0.9435 0.9434
3322.000000 0.9434 0.9433 0.9432 0.9431 0.9431
3317.000000 0.9430 0.9428 0.9428 0.9428 0.9427
3312.000000 0.9427 0.9425 0.9425 0.9425 0.9425
3307.000000 0.9424 0.9424 0.9424 0.9424 0.9423
3302.000000 0.9423 0.9421 0.9421 0.9421 0.9421
3297.000000 0.9420 0.9420 0.9418 0.9418 0.9418
3292.000000 0.9418 0.9417 0.9417 0.9416 0.9416
3287.000000 0.9416 0.9416 0.9415 0.9415 0.9414
3282.000000 0.9414 0.9413 0.9413 0.9412 0.9412
3277.000000 0.9412 0.9412 0.9411 0.9411 0.9410
3272.000000 0.9410 0.9410 0.9410 0.9409 0.9409
3267.000000 0.9409 0.9409 0.9408 0.9408 0.9407
3262.000000 0.9407 0.9407 0.9407 0.9406 0.9406
3257.000000 0.9406 0.9406 0.9405 0.9405 0.9404
3252.000000 0.9404 0.9404 0.9404 0.9403 0.9402
3247.000000 0.9401 0.9400 0.9399 0.9399 0.9398
3242.000000 0.9397 0.9396 0.9395 0.9394 0.9404
3237.000000 0.9391 0.9390 0.9388 0.9387 0.9385
3232.000000 0.9384 0.9382 0.9381 0.9378 0.9378
3227.000000 0.9375 0.9375 0.9373 0.9371 0.9370
3222.000000 0.9368 0.9367 0.9365 0.9363 0.9361
3217.000000 0.9359 0.9357 0.9354 0.9352 0.9350
3212.000000 0.9348 0.9346 0.9344 0.9340 0.9337
3207.000000 0.9332 0.9328 0.9323 0.9318 0.9313
3202.000000 0.9309 0.9304 0.9300 0.9295 0.9290
3197.000000 0.9285 0.9281 0.9275 0.9271 0.9267
3192.000000 0.9262 0.9257 0.9253 0.9248 0.9244
3187.000000 0.9239 0.9234 0.9228 0.9225 0.9220
3182.000000 0.9216 0.9211 0.9206 0.9201 0.9197
3177.000000 0.9192 0.9187 0.9182 0.9178 0.9173
3172.000000 0.9168 0.9163 0.9158 0.9152 0.9147
3167.000000 0.9141 0.9136 0.9130 0.9124 0.9113
3162.000000 0.9103 0.9092 0.9081 0.9070 0.9060
3157.000000 0.9049 0.9038 0.9027 0.9017 0.9003
3152.000000 0.8989 0.8975 0.8961 0.8947 0.8933
3147.000000 0.8918 0.8905 0.8891 0.8877 0.8863
3142.000000 0.8849 0.8835 0.8821 0.8807 0.8793
3137.000000 0.8778 0.8765 0.8751 0.8737 0.8720
3132.000000 0.8704 0.8686 0.8668 0.8651 0.8634
3127.000000 0.8616 0.8599 0.8566 0.8533 0.8499
3122.000000 0.8465 0.8435 0.8405 0.8375 0.8347
3117.000000 0.8318 0.8290 0.8249 0.8208 0.8162
3112.000000 0.8118 0.8068 0.8018 0.7961 0.7904
3107.000000 0.7824 0.7744 0.7668 0.7593 0.7467
3102.000000 0.7341 0.6511 0.5683 0.5106 0.4529
3097.000000 0.4016 0.3504 0.3504 0.3500 0.3510
3092.000000 0.3516 0.3534 0.3550 0.3576 0.3602
3087.000000 0.3627 0.3653 0.3677 0.3700 0.3724
3082.000000 0.3748 0.3776 0.3804 0.3846 0.3888
3077.000000 0.4104 0.4321 0.4545 0.4770 0.4994
3072.000000 0.5219 0.5443 0.5668 0.5893 0.6118
3067.000000 0.6155 0.6172 0.6150 0.6109 0.6027
3062.000000 0.5946 0.5864 0.5783 0.5701 0.5620
3057.000000 0.5538 0.5457 0.5458 0.5459 0.5529
3052.000000 0.5607 0.5690 0.5774 0.5857 0.5941
3047.000000 0.6024 0.6107 0.6190 0.6274 0.6357
3042.000000 0.6441 0.6471 0.6501 0.6499 0.6494
3037.000000 0.6300 0.6102 0.5838 0.5574 0.5310
3032.000000 0.5046 0.4782 0.4519 0.4255 0.3991
3027.000000 0.3727 0.3462 0.3199 0.2735 0.2852
3022.000000 0.2769 0.2856 0.2943 0.3030 0.3117
3017.000000 0.3204 0.3291 0.3378 0.3464 0.3552
3012.000000 0.3639 0.3726 0.3812 0.3876 0.3940
3007.000000 0.3832 0.3726 0.3500 0.3926 0.3050
3002.000000 0.2825 0.2699 0.2573 0.2539 0.2506
2997.000000 0.2391 0.2276 0.2129 0.1983 0.1858
2992.000000 0.1733 0.1527 0.1321 0.1014 0.0707
2987.000000 0.0425 0.0145 0.0143 0.0141 0.0139
2982.000000 0.0137 0.0137 0.0172 0.0142 0.0148
2977.000000 0.0196 0.0245 0.0293 0.0342 0.0390
2972.000000 0.0439 0.0487 0.0536 0.0584 0.0632
2967.000000 0.0680 0.0729 0.0777 0.0853 0.0842
2962.000000 0.0861 0.0859 0.0858 0.0804 0.0750
2957.000000 0.0640 0.0530 0.0430 0.0330 0.0287
2952.000000 0.0245 0.0218 0.0194 0.0175 0.0157
2947.000000 0.0146 0.0135 0.0126 0.0116 0.0105
2942.000000 0.0096 0.0094 0.0093 0.0091 0.0090
2937.000000 0.0088 0.0087 0.0085 0.0084 0.0083
2932.000000 0.0082 0.0081 0.0080 0.0080 0.0080
2927.000000 0.0081 0.0081 0.0081 0.0081 0.0082
2922.000000 0.0083 0.0084 0.0086 0.0087 0.0089
2917.000000 0.0090 0.0092 0.0094 0.0097 0.0100
2912.000000 0.0104 0.0108 0.0112 0.0115 0.0119
2907.000000 0.0123 0.0127 0.0132 0.0137 0.0141
2902.000000 0.0146 0.0151 0.0157 0.0162 0.0167
2897.000000 0.0173 0.0179 0.0185 0.0194 0.0202
2892.000000 0.0209 0.0218 0.0228 0.0235 0.0245
2887.000000 0.0263 0.0281 0.0306 0.0331 0.0368
2882.000000 0.0407 0.0445 0.0483 0.0521 0.0559
2877.000000 0.0576 0.0593 0.0566 0.0540 0.0513
2872.000000 0.0486 0.0459 0.0432 0.0405 0.0379
2867.000000 0.0352 0.0325 0.0322 0.0320 0.0457
2862.000000 0.0594 0.0693 0.0792 0.0791 0.0790
2857.000000 0.0769 0.0748 0.0708 0.0669 0.0629
2852.000000 0.0589 0.0549 0.0510 0.0469 0.0430
2847.000000 0.0392 0.0354 0.0354 0.0354 0.0518
2842.000000 0.0683 0.0851 0.1019 0.1187 0.1356
2837.000000 0.1524 0.1692 0.1860 0.2028 0.2196
2832.000000 0.2364 0.2534 0.2705 0.3043 0.3380
2827.000000 0.3574 0.3766 0.3868 0.3971 0.4124
2822.000000 0.4278 0.4688 0.5099 0.5216 0.5334
2817.000000 0.5447 0.5560 0.5672 0.5785 0.5945
2812.000000 0.6106 0.6193 0.6280 0.6395 0.6511
2807.000000 0.6701 0.6893 0.7134 0.7375 0.7464
2802.000000 0.7554 0.7635 0.7715 0.7784 0.7851
2797.000000 0.7908 0.7965 0.7996 0.8026 0.8056
2792.000000 0.8085 0.8110 0.8135 0.8151 0.8167
2787.000000 0.8183 0.8200 0.8218 0.8236 0.8254
2782.000000 0.8273 0.8290 0.8308 0.8321 0.8335
2777.000000 0.8346 0.8357 0.8367 0.8378 0.8390
2772.000000 0.8402 0.8415 0.8428 0.8441 0.8454
2767.000000 0.8463 0.8471 0.8480 0.8488 0.8496
2762.000000 0.8504 0.8509 0.8514 0.8515 0.8515
2757.000000 0.8515 0.8514 0.8506 0.8498 0.8483
2752.000000 0.8468 0.8448 0.8428 0.8401 0.8375
2747.000000 0.8343 0.8311 0.8278 0.8245 0.8211
2742.000000 0.8178 0.8144 0.8111 0.8046 0.7982
2737.000000 0.7939 0.7897 0.7864 0.7832 0.7369
2732.000000 0.6908 0.6905 0.6901 0.6901 0.6935
2727.000000 0.6925 0.6949 0.7096 0.7244 0.7443
2722.000000 0.7642 0.7841 0.8040 0.8239 0.8439
2717.000000 0.8548 0.8658 0.8692 0.8725 0.8748
2712.000000 0.8770 0.8788 0.8806 0.8820 0.8834
2707.000000 0.8844 0.8854 0.8863 0.8871 0.8881
2702.000000 0.8890 0.8898 0.8907 0.8915 0.8924
2697.000000 0.8928 0.8934 0.8937 0.8941 0.8944
2692.000000 0.8947 0.8950 0.8953 0.8954 0.8956
2687.000000 0.8956 0.8956 0.8954 0.8952 0.8946
2682.000000 0.8940 0.8923 0.8907 0.8875 0.8845
2677.000000 0.8809 0.8773 0.8724 0.8675 0.8670
2672.000000 0.8665 0.8664 0.8664 0.8663 0.8662
2667.000000 0.8675 0.8691 0.8720 0.8750 0.8781
2662.000000 0.8812 0.8846 0.8881 0.8924 0.8968
2657.000000 0.8995 0.9023 0.9047 0.9071 0.9086
2652.000000 0.9101 0.9108 0.9116 0.9123 0.9131
2647.000000 0.9137 0.9143 0.9148 0.9154 0.9159
2642.000000 0.9164 0.9166 0.9168 0.9171 0.9174
2637.000000 0.9175 0.9175 0.9175 0.9175 0.9173
2632.000000 0.9171 0.9154 0.9136 0.9120 0.9104
2627.000000 0.9088 0.9071 0.9054 0.9036 0.9021
2622.000000 0.9009 0.9003 0.8997 0.8990 0.8984
2617.000000 0.8984 0.8984 0.8990 0.8997 0.9003
2612.000000 0.9010 0.9017 0.9024 0.9032 0.9041
2607.000000 0.9049 0.9058 0.9066 0.9075 0.9083
2602.000000 0.9091 0.9099 0.9108 0.9114 0.9121
2597.000000 0.9127 0.9133 0.9138 0.9144 0.9146
2592.000000 0.9149 0.9151 0.9154 0.9156 0.9159
2587.000000 0.9161 0.9164 0.9165 0.9165 0.9165
2582.000000 0.9165 0.9164 0.9163 0.9160 0.9158
2577.000000 0.9155 0.9153 0.9150 0.9147 0.9144
2572.000000 0.9142 0.9139 0.9139 0.9138 0.9140
2567.000000 0.9142 0.9145 0.9150 0.9156 0.9161
2562.000000 0.9166 0.9171 0.9178 0.9187 0.9196
2557.000000 0.9205 0.9214 0.9223 0.9232 0.9240
2552.000000 0.9249 0.9256 0.9264 0.9271 0.9278
2547.000000 0.9283 0.9288 0.9289 0.9290 0.9290
2542.000000 0.9290 0.9288 0.9287 0.9284 0.9281
2537.000000 0.9277 0.9273 0.9268 0.9264 0.9262
2532.000000 0.9261 0.9261 0.9261 0.9261 0.9261
2527.000000 0.9261 0.9261 0.9262 0.9264 0.9267
2522.000000 0.9271 0.9274 0.9277 0.9280 0.9284
2517.000000 0.9291 0.9299 0.9307 0.9315 0.9323
2512.000000 0.9331 0.9338 0.9346 0.9351 0.9357
2507.000000 0.9361 0.9366 0.9370 0.9374 0.9374
2502.000000 0.9375 0.9375 0.9377 0.9377 0.9378
2497.000000 0.9378 0.9380 0.9375 0.9371 0.9362
2492.000000 0.9354 0.9347 0.9340 0.9333 0.9327
2487.000000 0.9321 0.9315 0.9309 0.9303 0.9297
2482.000000 0.9291 0.9286 0.9281 0.9275 0.9270
2477.000000 0.9265 0.9260 0.9257 0.9255 0.9253
2472.000000 0.9251 0.9249 0.9249 0.9248 0.9249
2467.000000 0.9251 0.9253 0.9255 0.9258 0.9260
2462.000000 0.9262 0.9264 0.9267 0.9268 0.9271
2457.000000 0.9273 0.9275 0.9278 0.9280 0.9283
2452.000000 0.9287 0.9292 0.9297 0.9302 0.9307
2447.000000 0.9312 0.9318 0.9321 0.9327 0.9330
2442.000000 0.9334 0.9337 0.9340 0.9343 0.9347
2437.000000 0.9350 0.9353 0.9356 0.9360 0.9363
2432.000000 0.9366 0.9368 0.9370 0.9370 0.9371
2427.000000 0.9371 0.9371 0.9371 0.9371 0.9370
2422.000000 0.9370 0.9368 0.9368 0.9368 0.9368
2417.000000 0.9367 0.9367 0.9366 0.9366 0.9364
2412.000000 0.9363 0.9362 0.9361 0.9359 0.9358
2407.000000 0.9357 0.9356 0.9355 0.9354 0.9351
2402.000000 0.9349 0.9347 0.9345 0.9343 0.9341
2397.000000 0.9338 0.9336 0.9333 0.9331 0.9328
2392.000000 0.9325 0.9323 0.9320 0.9317 0.9315
2387.000000 0.9313 0.9311 0.9309 0.9307 0.9304
2382.000000 0.9302 0.9300 0.9299 0.9298 0.9297
2377.000000 0.9296 0.9295 0.9294 0.9293 0.9291
2372.000000 0.9290 0.9289 0.9288 0.9288 0.9289
2367.000000 0.9289 0.9290 0.9290 0.9291 0.9291
2362.000000 0.9292 0.9292 0.9293 0.9294 0.9295
2357.000000 0.9296 0.9298 0.9301 0.9304 0.9307
2352.000000 0.9310 0.9313 0.9316 0.9318 0.9321
2347.000000 0.9325 0.9328 0.9331 0.9335 0.9339
2342.000000 0.9343 0.9347 0.9351 0.9355 0.9360
2337.000000 0.9364 0.9368 0.9371 0.9375 0.9378
2332.000000 0.9383 0.9385 0.9388 0.9391 0.9394
2327.000000 0.9396 0.9399 0.9402 0.9405 0.9407
2322.000000 0.9410 0.9412 0.9415 0.9417 0.9420
2317.000000 0.9421 0.9424 0.9425 0.9428 0.9431
2312.000000 0.9434 0.9436 0.9438 0.9440 0.9442
2307.000000 0.9442 0.9443 0.9443 0.9443 0.9443
2302.000000 0.9444 0.9444 0.9445 0.9445 0.9445
2297.000000 0.9444 0.9443 0.9441 0.9439 0.9436
2292.000000 0.9434 0.9432 0.9430 0.9428 0.9425
2287.000000 0.9424 0.9421 0.9420 0.9418 0.9415
2282.000000 0.9413 0.9411 0.9409 0.9405 0.9402
2277.000000 0.9399 0.9396 0.9392 0.9389 0.9386
2272.000000 0.9383 0.9378 0.9375 0.9373 0.9370
2267.000000 0.9366 0.9363 0.9360 0.9357 0.9355
2262.000000 0.9353 0.9351 0.9350 0.9348 0.9346
2257.000000 0.9344 0.9342 0.9340 0.9339 0.9337
2252.000000 0.9335 0.9332 0.9330 0.9328 0.9325
2247.000000 0.9324 0.9321 0.9320 0.9318 0.9316
2242.000000 0.9314 0.9313 0.9313 0.9314 0.9316
2237.000000 0.9318 0.9320 0.9321 0.9323 0.9325
2232.000000 0.9328 0.9330 0.9332 0.9334 0.9336
2227.000000 0.9338 0.9341 0.9343 0.9345 0.9347
2222.000000 0.9350 0.9352 0.9354 0.9356 0.9359
2217.000000 0.9361 0.9363 0.9364 0.9365 0.9365
2212.000000 0.9366 0.9366 0.9367 0.9367 0.9368
2207.000000 0.9368 0.9368 0.9368 0.9368 0.9368
2202.000000 0.9370 0.9370 0.9371 0.9371 0.9371
2197.000000 0.9371 0.9373 0.9373 0.9374 0.9374
2192.000000 0.9375 0.9375 0.9375 0.9375 0.9377
2187.000000 0.9377 0.9377 0.9377 0.9378 0.9378
2182.000000 0.9378 0.9378 0.9378 0.9378 0.9378
2177.000000 0.9378 0.9378 0.9378 0.9378 0.9378
2172.000000 0.9380 0.9380 0.9380 0.9380 0.9381
2167.000000 0.9381 0.9382 0.9382 0.9383 0.9383
2162.000000 0.9383 0.9383 0.9384 0.9384 0.9385
2157.000000 0.9385 0.9386 0.9386 0.9387 0.9387
2152.000000 0.9387 0.9387 0.9388 0.9388 0.9389
2147.000000 0.9389 0.9390 0.9391 0.9392 0.9393
2142.000000 0.9394 0.9395 0.9397 0.9398 0.9400
2137.000000 0.9401 0.9402 0.9403 0.9405 0.9406
2132.000000 0.9408 0.9409 0.9410 0.9411 0.9413
2127.000000 0.9413 0.9414 0.9414 0.9415 0.9415
2122.000000 0.9416 0.9416 0.9416 0.9416 0.9416
2117.000000 0.9414 0.9413 0.9411 0.9410 0.9408
2112.000000 0.9407 0.9405 0.9404 0.9402 0.9401
2107.000000 0.9399 0.9398 0.9396 0.9395 0.9393
2102.000000 0.9392 0.9390 0.9388 0.9386 0.9384
2097.000000 0.9381 0.9378 0.9377 0.9375 0.9373
2092.000000 0.9371 0.9368 0.9367 0.9365 0.9363
2087.000000 0.9360 0.9358 0.9355 0.9353 0.9351
2082.000000 0.9349 0.9346 0.9344 0.9341 0.9339
2077.000000 0.9336 0.9334 0.9333 0.9332 0.9331
2072.000000 0.9331 0.9330 0.9330 0.9328 0.9328
2067.000000 0.9328 0.9328 0.9327 0.9327 0.9325
2062.000000 0.9325 0.9325 0.9327 0.9327 0.9327
2057.000000 0.9327 0.9328 0.9328 0.9328 0.9328
2052.000000 0.9328 0.9328 0.9328 0.9328 0.9328
2047.000000 0.9328 0.9328 0.9327 0.9325 0.9324
2042.000000 0.9323 0.9321 0.9321 0.9318 0.9318
2037.000000 0.9316 0.9315 0.9313 0.9311 0.9309
2032.000000 0.9308 0.9306 0.9304 0.9301 0.9299
2027.000000 0.9297 0.9295 0.9293 0.9291 0.9288
2022.000000 0.9286 0.9283 0.9281 0.9278 0.9275
2017.000000 0.9275 0.9274 0.9273 0.9271 0.9271
2012.000000 0.9271 0.9271 0.9271 0.9275 0.9282
2007.000000 0.9288 0.9295 0.9301 0.9307 0.9318
2002.000000 0.9331 0.9360 0.9390 0.9420 0.9449
1997.000000 0.9478 0.9497 0.9499 0.9501 0.9503
1992.000000 0.9504 0.9504 0.9504 0.9501 0.9499
1987.000000 0.9496 0.9494 0.9491 0.9489 0.9486
1982.000000 0.9484 0.9481 0.9480 0.9478 0.9478
1977.000000 0.9477 0.9475 0.9474 0.9473 0.9471
1972.000000 0.9470 0.9465 0.9460 0.9455 0.9450
1967.000000 0.9446 0.9441 0.9436 0.9431 0.9427
1962.000000 0.9421 0.9418 0.9413 0.9409 0.9405
1957.000000 0.9400 0.9396 0.9395 0.9394 0.9392
1952.000000 0.9391 0.9391 0.9395 0.9399 0.9403
1947.000000 0.9407 0.9411 0.9415 0.9418 0.9424
1942.000000 0.9428 0.9434 0.9439 0.9443 0.9448
1937.000000 0.9453 0.9458 0.9462 0.9466 0.9468
1932.000000 0.9473 0.9477 0.9480 0.9484 0.9488
1927.000000 0.9491 0.9494 0.9496 0.9499 0.9501
1922.000000 0.9504 0.9506 0.9509 0.9511 0.9511
1917.000000 0.9512 0.9512 0.9512 0.9513 0.9513
1912.000000 0.9514 0.9514 0.9514 0.9512 0.9510
1907.000000 0.9508 0.9506 0.9504 0.9502 0.9500
1902.000000 0.9498 0.9496 0.9493 0.9491 0.9488
1897.000000 0.9486 0.9484 0.9482 0.9475 0.9471
1892.000000 0.9465 0.9459 0.9456 0.9453 0.9450
1887.000000 0.9447 0.9445 0.9442 0.9439 0.9438
1882.000000 0.9436 0.9435 0.9433 0.9432 0.9430
1877.000000 0.9428 0.9427 0.9424 0.9420 0.9415
1872.000000 0.9411 0.9407 0.9403 0.9400 0.9396
1867.000000 0.9427 0.9390 0.9387 0.9384 0.9381
1862.000000 0.9378 0.9375 0.9374 0.9373 0.9371
1857.000000 0.9371 0.9373 0.9375 0.9375 0.9377
1852.000000 0.9378 0.9380 0.9381 0.9382 0.9383
1847.000000 0.9384 0.9385 0.9386 0.9387 0.9388
1842.000000 0.9389 0.9389 0.9388 0.9387 0.9386
1837.000000 0.9385 0.9384 0.9383 0.9382 0.9380
1832.000000 0.9378 0.9375 0.9373 0.9371 0.9368
1827.000000 0.9363 0.9359 0.9354 0.9349 0.9344
1822.000000 0.9339 0.9334 0.9328 0.9323 0.9317
1817.000000 0.9312 0.9304 0.9295 0.9286 0.9278
1812.000000 0.9268 0.9259 0.9249 0.9239 0.9227
1807.000000 0.9210 0.9193 0.9175 0.9150 0.9121
1802.000000 0.9094 0.9055 0.9012 0.8961 0.8909
1797.000000 0.8861 0.8812 0.8762 0.8699 0.8634
1792.000000 0.8573 0.8475 0.8415 0.8354 0.8293
1787.000000 0.8233 0.8171 0.8111 0.8051 0.7993
1782.000000 0.7985 0.7981 0.7978 0.7984 0.7995
1777.000000 0.8068 0.8164 0.8268 0.8385 0.8478
1772.000000 0.8568 0.8659 0.8740 0.8809 0.8860
1767.000000 0.8902 0.8931 0.8961 0.8988 0.9009
1762.000000 0.9031 0.9052 0.9073 0.9088 0.9103
1757.000000 0.9118 0.9133 0.9148 0.9162 0.9177
1752.000000 0.9191 0.9205 0.9218 0.9230 0.9243
1747.000000 0.9255 0.9266 0.9274 0.9282 0.9290
1742.000000 0.9298 0.9304 0.9309 0.9314 0.9318
1737.000000 0.9325 0.9330 0.9335 0.9355 0.9345
1732.000000 0.9346 0.9347 0.9347 0.9347 0.9345
1727.000000 0.9342 0.9338 0.9333 0.9312 0.9289
1722.000000 0.9247 0.9198 0.9154 0.9109 0.9073
1717.000000 0.9041 0.9008 0.8980 0.8953 0.8925
1712.000000 0.8896 0.8882 0.8887 0.8875 0.8878
1707.000000 0.8880 0.8888 0.8901 0.8913 0.8925
1702.000000 0.8940 0.8953 0.8964 0.8971 0.8978
1697.000000 0.8985 0.8989 0.8993 0.8996 0.9020
1692.000000 0.8998 0.8994 0.8989 0.8985 0.8970
1687.000000 0.8951 0.8932 0.8903 0.8871 0.8840
1682.000000 0.8805 0.8761 0.8717 0.8654 0.8544
1677.000000 0.8050 0.7548 0.7544 0.7606 0.7608
1672.000000 0.7715 0.7821 0.7928 0.8036 0.8125
1667.000000 0.8141 0.8145 0.8133 0.8132 0.8132
1662.000000 0.8125 0.8108 0.8094 0.8055 0.8001
1657.000000 0.7919 0.7764 0.7512 0.6942 0.6367
1652.000000 0.5792 0.5217 0.4642 0.4066 0.3492
1647.000000 0.2917 0.2342 0.1767 0.1192 0.0774
1642.000000 0.0785 0.0755 0.0754 0.0759 0.1239
1637.000000 0.1853 0.2468 0.3082 0.3696 0.4310
1632.000000 0.4925 0.5059 0.5423 0.6062 0.6449
1627.000000 0.6808 0.6978 0.7155 0.7269 0.7367
1622.000000 0.7444 0.7519 0.7596 0.7680 0.7767
1617.000000 0.7835 0.7903 0.7964 0.8012 0.8069
1612.000000 0.8118 0.8164 0.8217 0.8260 0.8304
1607.000000 0.8333 0.8341 0.8349 0.8354 0.8341
1602.000000 0.8357 0.8350 0.8328 0.8296 0.8257
1597.000000 0.8215 0.8165 0.8124 0.8096 0.8095
1592.000000 0.8100 0.8099 0.8104 0.8115 0.8134
1587.000000 0.8151 0.8168 0.8194 0.8220 0.8245
1582.000000 0.8270 0.8295 0.8324 0.8356 0.8389
1577.000000 0.8421 0.8454 0.8491 0.8528 0.8567
1572.000000 0.8605 0.8635 0.8665 0.8695 0.8714
1567.000000 0.8732 0.8750 0.8765 0.8777 0.8789
1562.000000 0.8801 0.8813 0.8825 0.8833 0.8841
1557.000000 0.8849 0.8857 0.8865 0.8873 0.8877
1552.000000 0.8881 0.8886 0.8890 0.8893 0.8894
1547.000000 0.8895 0.8897 0.8898 0.8899 0.8900
1542.000000 0.8902 0.8902 0.8902 0.8902 0.8901
1537.000000 0.8901 0.8900 0.8900 0.8897 0.8894
1532.000000 0.8890 0.8886 0.8882 0.8878 0.8875
1527.000000 0.8871 0.8867 0.8863 0.8859 0.8853
1522.000000 0.8847 0.8840 0.8834 0.8828 0.8821
1517.000000 0.8815 0.8809 0.8802 0.8793 0.8783
1512.000000 0.8771 0.8762 0.8752 0.8742 0.8732
1507.000000 0.8720 0.8701 0.8682 0.8663 0.8644
1502.000000 0.8625 0.8606 0.8587 0.8561 0.8534
1497.000000 0.8507 0.8480 0.8453 0.8424 0.8393
1492.000000 0.8363 0.8332 0.8301 0.8270 0.8225
1487.000000 0.8183 0.8139 0.8096 0.8051 0.8007
1482.000000 0.7962 0.7918 0.7862 0.7793 0.7721
1477.000000 0.7651 0.7550 0.7444 0.7337 0.7214
1472.000000 0.7088 0.6975 0.6861 0.6751 0.6640
1467.000000 0.6494 0.6301 0.6073 0.5879 0.5720
1462.000000 0.5560 0.5384 0.5202 0.5023 0.3771
1457.000000 0.3226 0.2680 0.2134 0.1589 0.0670
1452.000000 0.0626 0.0619 0.0614 0.0614 0.0615
1447.000000 0.0637 0.0678 0.0714 0.0737 0.0750
1442.000000 0.0753 0.0740 0.0694 0.0604 0.0475
1437.000000 0.0414 0.0388 0.0344 0.0373 0.0370
1432.000000 0.0370 0.0425 0.0496 0.0564 0.0633
1427.000000 0.0792 0.1178 0.1620 0.2062 0.2504
1422.000000 0.2946 0.3388 0.3830 0.4272 0.4714
1417.000000 0.5156 0.5556 0.5745 0.5948 0.6142
1412.000000 0.6282 0.6390 0.6493 0.6565 0.6640
1407.000000 0.6735 0.6810 0.6895 0.6958 0.6984
1402.000000 0.7007 0.7022 0.7036 0.7028 0.7043
1397.000000 0.7043 0.7043 0.7036 0.7025 0.7011
1392.000000 0.6992 0.6958 0.6922 0.6882 0.6804
1387.000000 0.6726 0.6603 0.6469 0.6318 0.6160
1382.000000 0.5994 0.5798 0.5571 0.5365 0.4491
1377.000000 0.2898 0.1427 0.1451 0.1424 0.1689
1372.000000 0.2084 0.2481 0.2877 0.3273 0.3668
1367.000000 0.4064 0.4460 0.4856 0.5252 0.5648
1362.000000 0.6044 0.6425 0.6847 0.7103 0.7317
1357.000000 0.7615 0.7646 0.7653 0.7661 0.7669
1352.000000 0.7681 0.7694 0.7706 0.7831 0.7948
1347.000000 0.8044 0.8114 0.8138 0.8151 0.8157
1342.000000 0.8196 0.8158 0.8153 0.8143 0.8124
1337.000000 0.8094 0.8028 0.7949 0.7843 0.7743
1332.000000 0.7635 0.7558 0.7522 0.7515 0.7515
1327.000000 0.7460 0.7557 0.7678 0.7803 0.7915
1322.000000 0.8007 0.8099 0.8132 0.8142 0.8148
1317.000000 0.8151 0.8145 0.8082 0.7915 0.7644
1312.000000 0.7498 0.7405 0.7296 0.7051 0.7091
1307.000000 0.7092 0.7093 0.7143 0.7228 0.7317
1302.000000 0.7412 0.7608 0.7783 0.7944 0.8053
1297.000000 0.8083 0.8065 0.8062 0.8036 0.7989
1292.000000 0.7918 0.7841 0.7718 0.7528 0.7434
1287.000000 0.7375 0.7347 0.7300 0.7361 0.7457
1282.000000 0.7600 0.7707 0.7854 0.7918 0.7953
1277.000000 0.7972 0.7996 0.8018 0.8078 0.8160
1272.000000 0.8245 0.8315 0.8390 0.8453 0.8496
1267.000000 0.8508 0.8514 0.8517 0.8541 0.8514
1262.000000 0.8504 0.8492 0.8459 0.8404 0.8345
1257.000000 0.8241 0.7975 0.7758 0.7682 0.7682
1252.000000 0.7696 0.7711 0.7718 0.7724 0.7728
1247.000000 0.7721 0.7675 0.7603 0.7275 0.7154
1242.000000 0.7062 0.7076 0.7048 0.7051 0.7056
1237.000000 0.7092 0.7135 0.7178 0.7197 0.7208
1232.000000 0.7217 0.7218 0.7218 0.7217 0.7225
1227.000000 0.7240 0.7328 0.7438 0.7548 0.7658
1222.000000 0.7767 0.7876 0.7987 0.8096 0.8206
1217.000000 0.8316 0.8425 0.8535 0.8560 0.8566
1212.000000 0.8565 0.8564 0.8504 0.8401 0.8298
1207.000000 0.8195 0.8092 0.7989 0.7886 0.7782
1202.000000 0.7678 0.7575 0.7472 0.7369 0.7267
1197.000000 0.7260 0.7255 0.7415 0.7691 0.7965
1192.000000 0.8240 0.8515 0.8790 0.9033 0.9118
1187.000000 0.9250 0.9315 0.9349 0.9351 0.9353
1182.000000 0.9354 0.9361 0.9368 0.9377 0.9391
1177.000000 0.9417 0.9492 0.9528 0.9544 0.9544
1172.000000 0.9544 0.9544 0.9540 0.9531 0.9505
1167.000000 0.9471 0.9431 0.9374 0.9296 0.9209
1162.000000 0.9135 0.9062 0.8932 0.8764 0.8540
1157.000000 0.7551 0.6290 0.5029 0.4371 0.4391
1152.000000 0.4854 0.5200 0.5546 0.5766 0.5760
1147.000000 0.5603 0.4844 0.4396 0.4418 0.4883
1142.000000 0.5736 0.6589 0.7443 0.8296 0.8759
1137.000000 0.8892 0.9003 0.9157 0.9265 0.9342
1132.000000 0.9412 0.9483 0.9521 0.9548 0.9561
1127.000000 0.9568 0.9573 0.9573 0.9560 0.9567
1122.000000 0.9563 0.9540 0.9504 0.9461 0.9314
1117.000000 0.9064 0.8814 0.8563 0.8313 0.8261
1112.000000 0.8290 0.8316 0.8388 0.8498 0.8601
1107.000000 0.8616 0.8627 0.8642 0.8667 0.8707
1102.000000 0.8978 0.9205 0.9293 0.9381 0.9464
1097.000000 0.9510 0.9528 0.9543 0.9556 0.9564
1092.000000 0.9571 0.9574 0.9575 0.9571 0.9545
1087.000000 0.9530 0.9491 0.9431 0.9366 0.9264
1082.000000 0.9201 0.9156 0.9123 0.9095 0.9080
1077.000000 0.9078 0.9040 0.9114 0.9151 0.9193
1072.000000 0.9236 0.9278 0.9312 0.9345 0.9368
1067.000000 0.9388 0.9389 0.9457 0.9363 0.9335
1062.000000 0.9305 0.9249 0.9173 0.9023 0.8780
1057.000000 0.8392 0.8004 0.7615 0.7228 0.6840
1052.000000 0.6451 0.6064 0.5850 0.5848 0.5822
1047.000000 0.6047 0.6512 0.6980 0.7446 0.7912
1042.000000 0.8025 0.8087 0.8147 0.8204 0.8260
1037.000000 0.8321 0.8394 0.8484 0.8581 0.8625
1032.000000 0.8646 0.8671 0.8673 0.8674 0.8674
1027.000000 0.8606 0.8336 0.7975 0.7614 0.7253
1022.000000 0.6965 0.6815 0.6654 0.6449 0.6331
1017.000000 0.6249 0.6173 0.6105 0.6070 0.6052
1012.000000 0.6045 0.6034 0.6032 0.6278 0.6599
1007.000000 0.6919 0.7241 0.7561 0.7883 0.8204
1002.000000 0.8525 0.8751 0.8775 0.8775 0.8768
997.000000 0.8758 0.8744 0.8724 0.8703 0.8683
992.000000 0.8665 0.8646 0.8627 0.8608 0.8581
987.000000 0.8546 0.8503 0.8450 0.8364 0.8317
982.000000 0.8265 0.8305 0.8318 0.8459 0.8600
977.000000 0.8741 0.8881 0.9021 0.9163 0.9256
972.000000 0.9278 0.9300 0.9314 0.9327 0.9333
967.000000 0.9333 0.9333 0.9327 0.9320 0.9297
962.000000 0.9270 0.9217 0.9153 0.8787 0.8377
957.000000 0.7968 0.7558 0.7149 0.6740 0.6600
952.000000 0.6561 0.7146 0.7483 0.7821 0.8158
947.000000 0.8496 0.8727 0.8821 0.8893 0.8927
942.000000 0.8948 0.8967 0.8982 0.8997 0.9005
937.000000 0.9011 0.9011 0.9012 0.9011 0.9004
932.000000 0.8998 0.8990 0.8973 0.8955 0.8936
927.000000 0.8897 0.8855 0.8798 0.8740 0.8637
922.000000 0.8499 0.8299 0.7743 0.7201 0.7062
917.000000 0.6549 0.5751 0.4952 0.4153 0.3355
912.000000 0.2556 0.2264 0.2252 0.3035 0.3778
907.000000 0.4521 0.5262 0.6005 0.6201 0.6202
902.000000 0.6203 0.5598 0.5029 0.4460 0.3893
897.000000 0.3324 0.2756 0.2188 0.1619 0.1295
892.000000 0.0512 0.0413 0.0260 0.0154 0.0110
887.000000 0.0086 0.0074 0.0067 0.0026 0.0062
882.000000 0.0090 0.0128 0.0274 0.0886 0.1721
877.000000 0.2556 0.3392 0.3957 0.5023 0.5299
872.000000 0.5575 0.5851 0.6127 0.6403 0.6678
867.000000 0.6934 0.7050 0.7519 0.7797 0.7938
862.000000 0.8147 0.8380 0.8538 0.8650 0.8712
857.000000 0.8775 0.8832 0.8878 0.8924 0.8962
852.000000 0.9000 0.9038 0.9070 0.9101 0.9132
847.000000 0.9159 0.9180 0.9202 0.9223 0.9244
842.000000 0.9260 0.9274 0.9282 0.9291 0.9299
837.000000 0.9307 0.9313 0.9318 0.9324 0.9328
832.000000 0.9328 0.9328 0.9328 0.9328 0.9327
827.000000 0.9325 0.9323 0.9321 0.9316 0.9309
822.000000 0.9303 0.9296 0.9280 0.9261 0.9235
817.000000 0.9195 0.9155 0.9103 0.9030 0.8949
812.000000 0.8838 0.8725 0.8612 0.8498 0.8302
807.000000 0.7978 0.6654 0.6204 0.5635 0.5067
802.000000 0.4498 0.3929 0.3359 0.2791 0.2222
797.000000 0.1515 0.1508 0.1565 0.1890 0.2215
792.000000 0.2540 0.2865 0.3189 0.3514 0.3839
787.000000 0.4164 0.4292 0.4386 0.4574 0.5604
782.000000 0.6964 0.8124 0.8336 0.8810 0.9137
777.000000 0.9263 0.9341 0.9384 0.9412 0.9433
772.000000 0.9449 0.9462 0.9462 0.9463 0.9478
767.000000 0.9477 0.9464 0.9443 0.9374 0.9085
762.000000 0.8800 0.8515 0.8231 0.7946 0.7732
757.000000 0.7708 0.7728 0.7756 0.7860 0.7956
752.000000 0.8444 0.8701 0.8958 0.9215 0.9471
747.000000 0.9574 0.9630 0.9677 0.9721 0.9764
742.000000 0.9801 0.9825 0.9849 0.9868 0.9887
737.000000 0.9904 0.9913 0.9921 0.9931 0.9941
732.000000 0.9945 0.9950 0.9951 0.9951 0.9949
727.000000 0.9947 0.9945 0.9937 0.9927 0.9918
722.000000 0.9907 0.9892 0.9878 0.9864 0.9852
717.000000 0.9839 0.9832 0.9825 0.9821 0.9821
712.000000 0.9823 0.9827 0.9831 0.9835 0.9839
707.000000 0.9844 0.9849 0.9854 0.9859 0.9864
702.000000 0.9870 0.9877 0.9883 0.9890 0.9897
697.000000 0.9906 0.9914 0.9924 0.9935 0.9947
692.000000 0.9959 0.9973 0.9988 1.0002 1.0011
687.000000 1.0005 0.9999 0.9993 0.9986 0.9975
682.000000 0.9965 0.9958 0.9952 0.9952 0.9952
677.000000 0.9956 0.9965 0.9975 0.9987 0.9998
672.000000 1.0008 1.0018 1.0028 1.0040 1.0050
667.000000 1.0037 1.0067 1.0075 1.0083 1.0092
662.000000 1.0099 1.0104 1.0110 1.0115 1.0121
657.000000 1.0124 1.0125 1.0125 1.0125 1.0125
652.000000 1.0124 1.0121 1.0114 1.0105 1.0073
647.000000 1.0032 0.9970 0.9850 0.9728 0.9609
642.000000 0.9488 0.9367 0.9247 0.9125 0.9109
637.000000 0.9128 0.9246 0.9335 0.9425 0.9514
632.000000 0.9604 0.9693 0.9783 0.9844 0.9877
627.000000 0.9910 0.9942 0.9967 0.9992 1.0015
622.000000 1.0031 1.0046 1.0055 1.0062 1.0068
617.000000 1.0075 1.0083 1.0089 1.0088 1.0088
612.000000 1.0087 1.0087 1.0087 1.0086 1.0083
607.000000 1.0078 1.0074 1.0070 1.0066 1.0062
602.000000 1.0057 1.0050 1.0043 1.0035 1.0028
597.000000 1.0020 1.0012 0.9955 0.9996 0.9988
592.000000 0.9980 0.9971 0.9965 0.9957 0.9947
587.000000 0.9937 0.9925 0.9916 0.9906 0.9895
582.000000 0.9885 0.9877 0.9868 0.9861 0.9852
577.000000 0.9843 0.9834 0.9825 0.9813 0.9801
572.000000 0.9788 0.9775 0.9757 0.9737 0.9717
567.000000 0.9691 0.9664 0.9638 0.9604 0.9568
562.000000 0.9531 0.9470 0.9408 0.9343 0.9277
557.000000 0.9094 0.8762 0.8471 0.8296 0.8121
552.000000 0.7946 0.7771 0.7596 0.7421 0.7246
547.000000 0.7071 0.6896 0.6721 0.6546 0.6371
542.000000 0.6196 0.6021 0.5874 0.5859 0.6140
537.000000 0.6615 0.7093 0.7568 0.8045 0.8521
532.000000 0.8936 0.8932 0.8930 0.8808 0.8685
527.000000 0.8563 0.8441 0.8318 0.8197 0.8075
522.000000 0.7951 0.7830 0.7708 0.7640 0.7645
517.000000 0.8072 0.8791 0.8913 0.8938 0.8970
512.000000 0.9006 0.9078 0.9217 0.9354 0.9492
507.000000 0.9553 0.9553 0.9553 0.9558 0.9565
502.000000 0.9236 0.8812 0.8497 0.8492 0.8488
497.000000 0.8483 0.8486 0.8491 0.8495 0.8500
492.000000 0.8514 0.8535 0.8556 0.8575 0.8593
487.000000 0.8612 0.8630 0.8649 0.8668 0.8687
482.000000 0.8707 0.8724 0.8737 0.8751
##END=
