##TITLE=LIMONENE
##JCAMP-DX=4.24
$$ By DXEDIT 1.05 (RS McDonald)
##DATA TYPE=INFRARED SPECTRUM
##CLASS=COBLENTZ III
##ORIGIN=WESTERN REGIONAL RES. USDA
##OWNER=COBLENTZ SOC.
Collection (C) 2018 copyright by the U.S. Secretary of Commerce
on behalf of the United States of America. All rights reserved.
##DATE=1967/08/03
##NAMES=4-isopropenyl-1-methyl-1-cyclohexene
p-MENTHA-1,8-DIENE
##CAS REGISTRY NO=138-86-3
##MOLFORM=C10 H16
##SOURCE REFERENCE=COBLENTZ NO. 06198
##$NIST SOURCE=COBLENTZ
##$NIST IMAGE=cob6198
##SPECTROMETER/DATA SYSTEM=CARY 90 (GRATING)
##INSTRUMENT PARAMETERS=ORDER CHANGES: 3000, 2000, 1200 CM^-^1
##STATE=SOLUTION (20% CCl4 FOR 4000-1330, 20% CS2 FOR 1330-480 CM^-^1) VS SOLVENT
##PATH LENGTH=0.010 CM, 0.010 CM
##SAMPLING PROCEDURE=TRANSMISSION
##RESOLUTION=2
##DATA PROCESSING=DIGITIZED BY COBLENTZ SOCIETY (BATCH I) FROM HARD COPY
##XUNITS=1/CM
##YUNITS=TRANSMITTANCE
##XLABEL=Wavenumbers (cm-1)
##YLABEL=Transmittance
##XFACTOR=1
##YFACTOR=1
##DELTAX=1
##FIRSTX=4024
##LASTX=481
##FIRSTY=0.9427
##MAXX=4024
##MINX=481
##MAXY=1.0052
##MINY=0.0055
##NPOINTS=3544
##XYDATA=(X++(Y..Y))
4024.000000 0.9427 0.9427 0.9427 0.9424 0.9421
4019.000000 0.9418 0.9417 0.9414 0.9411 0.9408
4014.000000 0.9406 0.9403 0.9401 0.9398 0.9396
4009.000000 0.9393 0.9391 0.9388 0.9385 0.9382
4004.000000 0.9380 0.9377 0.9375 0.9371 0.9370
3999.000000 0.9367 0.9365 0.9362 0.9359 0.9356
3994.000000 0.9354 0.9351 0.9349 0.9345 0.9342
3989.000000 0.9339 0.9336 0.9333 0.9330 0.9325
3984.000000 0.9323 0.9320 0.9317 0.9314 0.9311
3979.000000 0.9307 0.9304 0.9301 0.9298 0.9296
3974.000000 0.9294 0.9293 0.9292 0.9290 0.9289
3969.000000 0.9287 0.9286 0.9285 0.9284 0.9282
3964.000000 0.9281 0.9280 0.9278 0.9277 0.9275
3959.000000 0.9274 0.9273 0.9271 0.9271 0.9268
3954.000000 0.9268 0.9267 0.9266 0.9264 0.9263
3949.000000 0.9262 0.9261 0.9260 0.9259 0.9258
3944.000000 0.9257 0.9256 0.9255 0.9253 0.9252
3939.000000 0.9251 0.9250 0.9249 0.9248 0.9247
3934.000000 0.9246 0.9245 0.9244 0.9243 0.9242
3929.000000 0.9241 0.9240 0.9239 0.9238 0.9237
3924.000000 0.9236 0.9235 0.9234 0.9233 0.9232
3919.000000 0.9231 0.9230 0.9228 0.9228 0.9228
3914.000000 0.9228 0.9230 0.9231 0.9232 0.9233
3909.000000 0.9234 0.9235 0.9236 0.9237 0.9238
3904.000000 0.9239 0.9240 0.9242 0.9243 0.9244
3899.000000 0.9245 0.9246 0.9247 0.9248 0.9249
3894.000000 0.9250 0.9251 0.9252 0.9253 0.9254
3889.000000 0.9255 0.9256 0.9257 0.9259 0.9260
3884.000000 0.9262 0.9263 0.9265 0.9266 0.9268
3879.000000 0.9270 0.9271 0.9273 0.9275 0.9275
3874.000000 0.9278 0.9278 0.9281 0.9282 0.9284
3869.000000 0.9285 0.9287 0.9288 0.9290 0.9291
3864.000000 0.9293 0.9295 0.9297 0.9298 0.9300
3859.000000 0.9301 0.9303 0.9304 0.9305 0.9305
3854.000000 0.9306 0.9306 0.9306 0.9306 0.9307
3849.000000 0.9307 0.9308 0.9308 0.9309 0.9309
3844.000000 0.9310 0.9310 0.9310 0.9310 0.9311
3839.000000 0.9311 0.9312 0.9312 0.9313 0.9313
3834.000000 0.9314 0.9314 0.9314 0.9314 0.9315
3829.000000 0.9315 0.9316 0.9316 0.9316 0.9315
3824.000000 0.9315 0.9315 0.9315 0.9314 0.9314
3819.000000 0.9313 0.9313 0.9313 0.9313 0.9312
3814.000000 0.9312 0.9311 0.9311 0.9310 0.9310
3809.000000 0.9310 0.9310 0.9309 0.9309 0.9308
3804.000000 0.9308 0.9308 0.9308 0.9307 0.9307
3799.000000 0.9306 0.9306 0.9305 0.9305 0.9305
3794.000000 0.9305 0.9304 0.9304 0.9303 0.9303
3789.000000 0.9302 0.9302 0.9302 0.9302 0.9301
3784.000000 0.9301 0.9300 0.9300 0.9300 0.9300
3779.000000 0.9299 0.9299 0.9298 0.9298 0.9298
3774.000000 0.9299 0.9299 0.9300 0.9301 0.9302
3769.000000 0.9302 0.9303 0.9304 0.9305 0.9305
3764.000000 0.9306 0.9306 0.9307 0.9308 0.9309
3759.000000 0.9309 0.9310 0.9311 0.9312 0.9312
3754.000000 0.9313 0.9314 0.9315 0.9315 0.9316
3749.000000 0.9317 0.9318 0.9318 0.9318 0.9318
3744.000000 0.9320 0.9321 0.9321 0.9321 0.9323
3739.000000 0.9323 0.9324 0.9324 0.9325 0.9325
3734.000000 0.9325 0.9327 0.9328 0.9328 0.9328
3729.000000 0.9328 0.9330 0.9330 0.9331 0.9331
3724.000000 0.9331 0.9331 0.9330 0.9328 0.9328
3719.000000 0.9328 0.9328 0.9327 0.9325 0.9325
3714.000000 0.9325 0.9324 0.9324 0.9323 0.9323
3709.000000 0.9321 0.9321 0.9320 0.9320 0.9318
3704.000000 0.9318 0.9318 0.9317 0.9316 0.9316
3699.000000 0.9315 0.9315 0.9314 0.9313 0.9312
3694.000000 0.9312 0.9311 0.9311 0.9310 0.9309
3689.000000 0.9308 0.9308 0.9307 0.9307 0.9306
3684.000000 0.9306 0.9305 0.9304 0.9303 0.9303
3679.000000 0.9302 0.9302 0.9301 0.9301 0.9300
3674.000000 0.9299 0.9298 0.9298 0.9297 0.9297
3669.000000 0.9296 0.9295 0.9294 0.9294 0.9293
3664.000000 0.9293 0.9292 0.9292 0.9291 0.9290
3659.000000 0.9289 0.9289 0.9288 0.9288 0.9287
3654.000000 0.9287 0.9286 0.9285 0.9284 0.9284
3649.000000 0.9283 0.9283 0.9283 0.9283 0.9283
3644.000000 0.9283 0.9283 0.9283 0.9283 0.9283
3639.000000 0.9283 0.9284 0.9284 0.9284 0.9284
3634.000000 0.9284 0.9284 0.9285 0.9285 0.9285
3629.000000 0.9285 0.9285 0.9285 0.9286 0.9286
3624.000000 0.9286 0.9286 0.9286 0.9286 0.9287
3619.000000 0.9287 0.9287 0.9287 0.9287 0.9287
3614.000000 0.9288 0.9288 0.9288 0.9288 0.9289
3609.000000 0.9289 0.9290 0.9290 0.9291 0.9291
3604.000000 0.9292 0.9292 0.9293 0.9293 0.9294
3599.000000 0.9294 0.9295 0.9295 0.9296 0.9296
3594.000000 0.9297 0.9297 0.9298 0.9298 0.9299
3589.000000 0.9299 0.9300 0.9300 0.9301 0.9301
3584.000000 0.9302 0.9302 0.9303 0.9303 0.9304
3579.000000 0.9304 0.9305 0.9305 0.9306 0.9306
3574.000000 0.9307 0.9307 0.9307 0.9307 0.9308
3569.000000 0.9308 0.9309 0.9309 0.9310 0.9310
3564.000000 0.9311 0.9311 0.9311 0.9311 0.9312
3559.000000 0.9312 0.9313 0.9313 0.9314 0.9314
3554.000000 0.9315 0.9315 0.9316 0.9316 0.9316
3549.000000 0.9316 0.9317 0.9317 0.9318 0.9318
3544.000000 0.9320 0.9321 0.9321 0.9321 0.9323
3539.000000 0.9324 0.9325 0.9325 0.9327 0.9327
3534.000000 0.9328 0.9328 0.9330 0.9331 0.9332
3529.000000 0.9333 0.9334 0.9334 0.9335 0.9336
3524.000000 0.9337 0.9338 0.9339 0.9339 0.9340
3519.000000 0.9341 0.9342 0.9343 0.9344 0.9345
3514.000000 0.9346 0.9346 0.9347 0.9347 0.9347
3509.000000 0.9347 0.9348 0.9348 0.9348 0.9348
3504.000000 0.9349 0.9349 0.9349 0.9349 0.9350
3499.000000 0.9350 0.9350 0.9350 0.9351 0.9351
3494.000000 0.9351 0.9351 0.9352 0.9352 0.9353
3489.000000 0.9353 0.9353 0.9353 0.9354 0.9354
3484.000000 0.9354 0.9354 0.9355 0.9355 0.9355
3479.000000 0.9354 0.9354 0.9353 0.9353 0.9353
3474.000000 0.9353 0.9352 0.9352 0.9352 0.9352
3469.000000 0.9351 0.9351 0.9350 0.9350 0.9350
3464.000000 0.9350 0.9349 0.9349 0.9348 0.9348
3459.000000 0.9348 0.9348 0.9347 0.9347 0.9346
3454.000000 0.9345 0.9344 0.9343 0.9342 0.9341
3449.000000 0.9340 0.9339 0.9338 0.9337 0.9336
3444.000000 0.9335 0.9334 0.9333 0.9332 0.9331
3439.000000 0.9330 0.9328 0.9328 0.9328 0.9327
3434.000000 0.9327 0.9325 0.9325 0.9324 0.9324
3429.000000 0.9323 0.9323 0.9321 0.9321 0.9321
3424.000000 0.9320 0.9318 0.9318 0.9318 0.9317
3419.000000 0.9316 0.9315 0.9314 0.9313 0.9312
3414.000000 0.9311 0.9310 0.9310 0.9308 0.9306
3409.000000 0.9304 0.9302 0.9299 0.9297 0.9295
3404.000000 0.9293 0.9289 0.9286 0.9282 0.9278
3399.000000 0.9275 0.9273 0.9268 0.9266 0.9262
3394.000000 0.9259 0.9255 0.9252 0.9249 0.9246
3389.000000 0.9242 0.9239 0.9235 0.9232 0.9228
3384.000000 0.9225 0.9221 0.9218 0.9215 0.9212
3379.000000 0.9208 0.9205 0.9204 0.9203 0.9202
3374.000000 0.9202 0.9201 0.9200 0.9199 0.9199
3369.000000 0.9198 0.9197 0.9196 0.9196 0.9195
3364.000000 0.9195 0.9194 0.9193 0.9192 0.9192
3359.000000 0.9191 0.9190 0.9189 0.9189 0.9188
3354.000000 0.9187 0.9186 0.9185 0.9184 0.9183
3349.000000 0.9182 0.9181 0.9180 0.9178 0.9178
3344.000000 0.9177 0.9175 0.9175 0.9174 0.9173
3339.000000 0.9171 0.9171 0.9170 0.9168 0.9168
3334.000000 0.9167 0.9166 0.9165 0.9164 0.9163
3329.000000 0.9162 0.9161 0.9160 0.9159 0.9158
3324.000000 0.9157 0.9157 0.9157 0.9158 0.9159
3319.000000 0.9160 0.9161 0.9162 0.9163 0.9164
3314.000000 0.9165 0.9165 0.9166 0.9167 0.9168
3309.000000 0.9168 0.9168 0.9168 0.9170 0.9170
3304.000000 0.9171 0.9171 0.9171 0.9171 0.9173
3299.000000 0.9173 0.9174 0.9174 0.9175 0.9175
3294.000000 0.9175 0.9175 0.9177 0.9177 0.9178
3289.000000 0.9178 0.9178 0.9178 0.9178 0.9178
3284.000000 0.9178 0.9178 0.9180 0.9180 0.9180
3279.000000 0.9180 0.9181 0.9181 0.9181 0.9181
3274.000000 0.9181 0.9181 0.9182 0.9182 0.9182
3269.000000 0.9182 0.9183 0.9183 0.9183 0.9183
3264.000000 0.9183 0.9182 0.9182 0.9181 0.9181
3259.000000 0.9181 0.9181 0.9180 0.9180 0.9178
3254.000000 0.9178 0.9178 0.9178 0.9178 0.9178
3249.000000 0.9177 0.9177 0.9175 0.9175 0.9175
3244.000000 0.9175 0.9175 0.9175 0.9174 0.9174
3239.000000 0.9174 0.9174 0.9173 0.9173 0.9171
3234.000000 0.9171 0.9170 0.9168 0.9166 0.9164
3229.000000 0.9161 0.9159 0.9157 0.9155 0.9152
3224.000000 0.9150 0.9148 0.9146 0.9143 0.9141
3219.000000 0.9139 0.9137 0.9135 0.9133 0.9130
3214.000000 0.9125 0.9125 0.9124 0.9121 0.9120
3209.000000 0.9117 0.9114 0.9110 0.9107 0.9103
3204.000000 0.9100 0.9096 0.9092 0.9088 0.9085
3199.000000 0.9081 0.9078 0.9074 0.9071 0.9067
3194.000000 0.9064 0.9059 0.9054 0.9048 0.9043
3189.000000 0.9037 0.9032 0.9025 0.9020 0.9014
3184.000000 0.9009 0.9003 0.8998 0.8992 0.8986
3179.000000 0.8980 0.8974 0.8968 0.8962 0.8956
3174.000000 0.8950 0.8943 0.8936 0.8927 0.8918
3169.000000 0.8911 0.8903 0.8895 0.8887 0.8878
3164.000000 0.8871 0.8863 0.8855 0.8845 0.8836
3159.000000 0.8827 0.8818 0.8808 0.8799 0.8787
3154.000000 0.8775 0.8762 0.8750 0.8738 0.8725
3149.000000 0.8713 0.8701 0.8687 0.8673 0.8657
3144.000000 0.8642 0.8625 0.8611 0.8596 0.8581
3139.000000 0.8557 0.8533 0.8509 0.8485 0.8460
3134.000000 0.8435 0.8407 0.8380 0.8355 0.8330
3129.000000 0.8311 0.8292 0.8271 0.8253 0.8233
3124.000000 0.8213 0.8191 0.8169 0.8148 0.8126
3119.000000 0.8097 0.8067 0.8025 0.7984 0.7932
3114.000000 0.7880 0.7825 0.7772 0.7634 0.7495
3109.000000 0.7396 0.7298 0.7194 0.7091 0.7001
3104.000000 0.6912 0.6695 0.6476 0.5718 0.4959
3099.000000 0.4633 0.4308 0.4308 0.4308 0.4344
3094.000000 0.4278 0.4416 0.4453 0.4490 0.4527
3089.000000 0.4564 0.4601 0.4638 0.4676 0.4692
3084.000000 0.4708 0.4722 0.4737 0.4791 0.4845
3079.000000 0.5022 0.5199 0.5376 0.5553 0.5729
3074.000000 0.5906 0.6083 0.6260 0.6437 0.6614
3069.000000 0.6628 0.6630 0.6630 0.6630 0.6525
3064.000000 0.6421 0.6318 0.6215 0.6110 0.6008
3059.000000 0.5957 0.5910 0.5923 0.5940 0.6035
3054.000000 0.6131 0.6226 0.6322 0.6418 0.6514
3049.000000 0.6608 0.6705 0.6762 0.6821 0.6818
3044.000000 0.6841 0.6808 0.6804 0.6533 0.6262
3039.000000 0.5990 0.5717 0.5444 0.5171 0.4897
3034.000000 0.4624 0.4351 0.4078 0.3805 0.3532
3029.000000 0.3480 0.3430 0.3429 0.3443 0.3500
3024.000000 0.3575 0.3652 0.3729 0.3806 0.3884
3019.000000 0.3960 0.4038 0.4115 0.4192 0.4269
3014.000000 0.4346 0.4423 0.4500 0.4499 0.4498
3009.000000 0.4375 0.4512 0.4062 0.3873 0.3682
3004.000000 0.3494 0.3304 0.3115 0.2925 0.2735
2999.000000 0.2546 0.2356 0.2166 0.1977 0.1786
2994.000000 0.1598 0.1408 0.1219 0.1029 0.0839
2989.000000 0.0650 0.0461 0.0383 0.0305 0.0306
2984.000000 0.0306 0.0417 0.0491 0.0564 0.0637
2979.000000 0.0710 0.0784 0.0857 0.0930 0.1003
2974.000000 0.1076 0.1149 0.1223 0.1252 0.1281
2969.000000 0.1279 0.1278 0.1274 0.1270 0.1257
2964.000000 0.1316 0.1195 0.1146 0.1064 0.0982
2959.000000 0.0889 0.0799 0.0731 0.0664 0.0581
2954.000000 0.0499 0.0441 0.0383 0.0344 0.0305
2949.000000 0.0274 0.0243 0.0212 0.0183 0.0157
2944.000000 0.0131 0.0118 0.0104 0.0099 0.0093
2939.000000 0.0086 0.0080 0.0079 0.0078 0.0077
2934.000000 0.0077 0.0076 0.0077 0.0078 0.0081
2929.000000 0.0084 0.0087 0.0089 0.0092 0.0095
2924.000000 0.0098 0.0103 0.0109 0.0115 0.0121
2919.000000 0.0126 0.0132 0.0138 0.0144 0.0150
2914.000000 0.0157 0.0165 0.0173 0.0181 0.0189
2909.000000 0.0197 0.0205 0.0215 0.0228 0.0240
2904.000000 0.0253 0.0265 0.0277 0.0289 0.0302
2899.000000 0.0316 0.0333 0.0351 0.0368 0.0390
2894.000000 0.0411 0.0433 0.0456 0.0475 0.0497
2889.000000 0.0515 0.0534 0.0552 0.0571 0.0592
2884.000000 0.0613 0.0644 0.1190 0.0939 0.1205
2879.000000 0.1177 0.1150 0.1080 0.1011 0.0941
2874.000000 0.0871 0.0801 0.0731 0.0691 0.0651
2869.000000 0.0646 0.0623 0.0729 0.0817 0.0959
2864.000000 0.1101 0.1230 0.1359 0.1360 0.1361
2859.000000 0.1298 0.1371 0.1172 0.1110 0.1046
2854.000000 0.0984 0.0921 0.0859 0.0796 0.0734
2849.000000 0.0698 0.0662 0.0662 0.0638 0.0892
2844.000000 0.1123 0.1368 0.1613 0.1858 0.2103
2839.000000 0.2347 0.2592 0.2837 0.3082 0.3327
2834.000000 0.3572 0.3816 0.4060 0.4306 0.4551
2829.000000 0.4986 0.5422 0.5527 0.5633 0.5704
2824.000000 0.5775 0.5846 0.5917 0.6054 0.6192
2819.000000 0.6266 0.6341 0.6414 0.6488 0.6560
2814.000000 0.6633 0.6776 0.6921 0.7135 0.7349
2809.000000 0.7476 0.7605 0.7676 0.7749 0.7801
2804.000000 0.7855 0.7903 0.7951 0.8001 0.8053
2799.000000 0.8096 0.8140 0.8168 0.8199 0.8218
2794.000000 0.8239 0.8253 0.8267 0.8281 0.8295
2789.000000 0.8303 0.8311 0.8317 0.8323 0.8328
2784.000000 0.8335 0.8341 0.8347 0.8352 0.8358
2779.000000 0.8363 0.8368 0.8371 0.8375 0.8378
2774.000000 0.8347 0.8387 0.8391 0.8395 0.8399
2769.000000 0.8403 0.8407 0.8412 0.8417 0.8417
2764.000000 0.8417 0.8414 0.8412 0.8406 0.8400
2759.000000 0.8393 0.8387 0.8375 0.8364 0.8352
2754.000000 0.8340 0.8327 0.8314 0.8300 0.8287
2749.000000 0.8267 0.8248 0.8225 0.8203 0.8171
2744.000000 0.8139 0.8019 0.7901 0.7660 0.7418
2739.000000 0.7243 0.7068 0.7065 0.7062 0.7171
2734.000000 0.7086 0.7393 0.7507 0.7621 0.7736
2729.000000 0.7850 0.7965 0.8078 0.8193 0.8307
2724.000000 0.8421 0.8484 0.8546 0.8563 0.8581
2719.000000 0.8594 0.8608 0.8620 0.8632 0.8643
2714.000000 0.8655 0.8665 0.8675 0.8684 0.8693
2709.000000 0.8702 0.8711 0.8718 0.8728 0.8736
2704.000000 0.8744 0.8749 0.8755 0.8755 0.8755
2699.000000 0.8755 0.8755 0.8753 0.8752 0.8750
2694.000000 0.8748 0.8745 0.8742 0.8734 0.8725
2689.000000 0.8718 0.8710 0.8702 0.8694 0.8681
2684.000000 0.8668 0.8655 0.8642 0.8624 0.8606
2679.000000 0.8588 0.8570 0.8553 0.8536 0.8527
2674.000000 0.8518 0.8516 0.8515 0.8515 0.8517
2669.000000 0.8528 0.8542 0.8568 0.8595 0.8623
2664.000000 0.8652 0.8667 0.8682 0.8695 0.8708
2659.000000 0.8721 0.8734 0.8742 0.8751 0.8759
2654.000000 0.8767 0.8775 0.8783 0.8790 0.8797
2649.000000 0.8802 0.8807 0.8812 0.8818 0.8823
2644.000000 0.8828 0.8832 0.8837 0.8840 0.8843
2639.000000 0.8844 0.8844 0.8844 0.8840 0.8831
2634.000000 0.8821 0.8813 0.8805 0.8792 0.8780
2629.000000 0.8767 0.8754 0.8740 0.8727 0.8715
2624.000000 0.8704 0.8698 0.8693 0.8690 0.8687
2619.000000 0.8685 0.8684 0.8691 0.8698 0.8704
2614.000000 0.8711 0.8718 0.8725 0.8731 0.8738
2609.000000 0.8744 0.8751 0.8757 0.8764 0.8768
2604.000000 0.8775 0.8780 0.8786 0.8788 0.8791
2599.000000 0.8793 0.8796 0.8798 0.8800 0.8802
2594.000000 0.8805 0.8806 0.8807 0.8807 0.8807
2589.000000 0.8805 0.8803 0.8800 0.8797 0.8794
2584.000000 0.8792 0.8788 0.8785 0.8781 0.8780
2579.000000 0.8778 0.8780 0.8781 0.8783 0.8784
2574.000000 0.8786 0.8787 0.8789 0.8793 0.8797
2569.000000 0.8801 0.8806 0.8809 0.8813 0.8816
2564.000000 0.8818 0.8821 0.8825 0.8828 0.8830
2559.000000 0.8832 0.8834 0.8835 0.8837 0.8839
2554.000000 0.8841 0.8843 0.8845 0.8847 0.8849
2549.000000 0.8850 0.8852 0.8852 0.8853 0.8853
2544.000000 0.8854 0.8854 0.8855 0.8855 0.8855
2539.000000 0.8855 0.8856 0.8856 0.8857 0.8857
2534.000000 0.8858 0.8859 0.8860 0.8861 0.8862
2529.000000 0.8863 0.8864 0.8865 0.8866 0.8867
2524.000000 0.8868 0.8868 0.8870 0.8870 0.8871
2519.000000 0.8871 0.8873 0.8874 0.8875 0.8875
2514.000000 0.8875 0.8875 0.8877 0.8878 0.8878
2509.000000 0.8878 0.8880 0.8880 0.8881 0.8881
2504.000000 0.8881 0.8881 0.8878 0.8877 0.8875
2499.000000 0.8873 0.8871 0.8868 0.8867 0.8864
2494.000000 0.8861 0.8857 0.8853 0.8849 0.8846
2489.000000 0.8843 0.8840 0.8837 0.8835 0.8832
2484.000000 0.8828 0.8825 0.8824 0.8823 0.8821
2479.000000 0.8821 0.8821 0.8821 0.8821 0.8821
2474.000000 0.8823 0.8825 0.8828 0.8830 0.8832
2469.000000 0.8834 0.8836 0.8838 0.8841 0.8843
2464.000000 0.8845 0.8847 0.8850 0.8853 0.8856
2459.000000 0.8859 0.8862 0.8864 0.8867 0.8870
2454.000000 0.8873 0.8875 0.8878 0.8881 0.8884
2449.000000 0.8887 0.8890 0.8892 0.8894 0.8895
2444.000000 0.8897 0.8898 0.8899 0.8900 0.8901
2439.000000 0.8902 0.8903 0.8904 0.8905 0.8905
2434.000000 0.8906 0.8906 0.8906 0.8905 0.8904
2429.000000 0.8903 0.8903 0.8902 0.8901 0.8900
2424.000000 0.8899 0.8898 0.8898 0.8897 0.8896
2419.000000 0.8895 0.8895 0.8894 0.8894 0.8893
2414.000000 0.8893 0.8893 0.8893 0.8892 0.8892
2409.000000 0.8891 0.8891 0.8890 0.8890 0.8889
2404.000000 0.8889 0.8889 0.8889 0.8890 0.8891
2399.000000 0.8892 0.8893 0.8894 0.8895 0.8895
2394.000000 0.8896 0.8897 0.8898 0.8899 0.8900
2389.000000 0.8901 0.8902 0.8903 0.8904 0.8904
2384.000000 0.8905 0.8906 0.8907 0.8908 0.8909
2379.000000 0.8910 0.8911 0.8912 0.8913 0.8913
2374.000000 0.8914 0.8915 0.8916 0.8917 0.8918
2369.000000 0.8918 0.8920 0.8920 0.8921 0.8921
2364.000000 0.8923 0.8923 0.8924 0.8925 0.8925
2359.000000 0.8925 0.8927 0.8928 0.8928 0.8928
2354.000000 0.8930 0.8930 0.8931 0.8932 0.8933
2349.000000 0.8933 0.8933 0.8933 0.8934 0.8934
2344.000000 0.8935 0.8935 0.8935 0.8935 0.8936
2339.000000 0.8936 0.8937 0.8937 0.8937 0.8937
2334.000000 0.8938 0.8938 0.8939 0.8939 0.8939
2329.000000 0.8939 0.8940 0.8940 0.8941 0.8941
2324.000000 0.8941 0.8942 0.8943 0.8944 0.8945
2319.000000 0.8945 0.8946 0.8947 0.8948 0.8948
2314.000000 0.8949 0.8950 0.8951 0.8951 0.8952
2309.000000 0.8953 0.8954 0.8954 0.8955 0.8956
2304.000000 0.8956 0.8956 0.8956 0.8955 0.8955
2299.000000 0.8954 0.8954 0.8953 0.8953 0.8952
2294.000000 0.8951 0.8950 0.8950 0.8949 0.8949
2289.000000 0.8948 0.8948 0.8947 0.8947 0.8945
2284.000000 0.8944 0.8942 0.8941 0.8939 0.8938
2279.000000 0.8937 0.8936 0.8934 0.8933 0.8928
2274.000000 0.8924 0.8918 0.8914 0.8909 0.8905
2269.000000 0.8900 0.8895 0.8890 0.8885 0.8880
2264.000000 0.8875 0.8871 0.8866 0.8861 0.8856
2259.000000 0.8852 0.8848 0.8843 0.8839 0.8836
2254.000000 0.8834 0.8832 0.8831 0.8827 0.8824
2249.000000 0.8824 0.8824 0.8824 0.8825 0.8825
2244.000000 0.8825 0.8825 0.8827 0.8827 0.8828
2239.000000 0.8828 0.8830 0.8830 0.8831 0.8831
2234.000000 0.8832 0.8832 0.8833 0.8833 0.8834
2229.000000 0.8835 0.8836 0.8836 0.8837 0.8837
2224.000000 0.8838 0.8838 0.8839 0.8840 0.8841
2219.000000 0.8841 0.8842 0.8842 0.8843 0.8843
2214.000000 0.8844 0.8844 0.8845 0.8846 0.8847
2209.000000 0.8847 0.8848 0.8848 0.8849 0.8849
2204.000000 0.8850 0.8850 0.8851 0.8851 0.8852
2199.000000 0.8852 0.8853 0.8853 0.8853 0.8853
2194.000000 0.8853 0.8853 0.8853 0.8853 0.8853
2189.000000 0.8853 0.8853 0.8853 0.8854 0.8854
2184.000000 0.8855 0.8855 0.8856 0.8857 0.8858
2179.000000 0.8858 0.8859 0.8859 0.8860 0.8861
2174.000000 0.8862 0.8862 0.8863 0.8863 0.8864
2169.000000 0.8864 0.8865 0.8866 0.8867 0.8867
2164.000000 0.8868 0.8868 0.8868 0.8868 0.8870
2159.000000 0.8870 0.8871 0.8871 0.8873 0.8873
2154.000000 0.8874 0.8874 0.8874 0.8873 0.8871
2149.000000 0.8871 0.8870 0.8867 0.8864 0.8852
2144.000000 0.8841 0.8836 0.8831 0.8831 0.8831
2139.000000 0.8830 0.8830 0.8828 0.8828 0.8828
2134.000000 0.8828 0.8828 0.8828 0.8827 0.8827
2129.000000 0.8825 0.8825 0.8823 0.8821 0.8821
2124.000000 0.8820 0.8818 0.8817 0.8816 0.8815
2119.000000 0.8814 0.8813 0.8811 0.8810 0.8809
2114.000000 0.8808 0.8807 0.8806 0.8804 0.8803
2109.000000 0.8801 0.8800 0.8798 0.8797 0.8796
2104.000000 0.8795 0.8793 0.8792 0.8790 0.8789
2099.000000 0.8787 0.8786 0.8784 0.8783 0.8781
2094.000000 0.8780 0.8778 0.8778 0.8775 0.8775
2089.000000 0.8773 0.8771 0.8770 0.8768 0.8766
2084.000000 0.8765 0.8763 0.8762 0.8760 0.8759
2079.000000 0.8757 0.8756 0.8754 0.8753 0.8752
2074.000000 0.8751 0.8750 0.8750 0.8749 0.8749
2069.000000 0.8748 0.8748 0.8747 0.8746 0.8745
2064.000000 0.8745 0.8744 0.8744 0.8743 0.8743
2059.000000 0.8742 0.8742 0.8741 0.8741 0.8741
2054.000000 0.8741 0.8740 0.8740 0.8739 0.8739
2049.000000 0.8738 0.8738 0.8736 0.8735 0.8735
2044.000000 0.8734 0.8730 0.8728 0.8727 0.8725
2039.000000 0.8725 0.8724 0.8721 0.8721 0.8718
2034.000000 0.8716 0.8714 0.8712 0.8709 0.8707
2029.000000 0.8705 0.8703 0.8700 0.8698 0.8695
2024.000000 0.8693 0.8690 0.8687 0.8684 0.8682
2019.000000 0.8678 0.8677 0.8674 0.8671 0.8668
2014.000000 0.8665 0.8662 0.8660 0.8659 0.8658
2009.000000 0.8656 0.8655 0.8654 0.8653 0.8651
2004.000000 0.8650 0.8649 0.8649 0.8647 0.8646
1999.000000 0.8668 0.8695 0.8721 0.8750 0.8778
1994.000000 0.8812 0.8854 0.8896 0.8939 0.8960
1989.000000 0.8966 0.8973 0.8978 0.8985 0.8986
1984.000000 0.8986 0.8986 0.8986 0.8986 0.8986
1979.000000 0.8984 0.8982 0.8980 0.8973 0.8964
1974.000000 0.8955 0.8946 0.8937 0.8925 0.8891
1969.000000 0.8855 0.8824 0.8796 0.8778 0.8761
1964.000000 0.8752 0.8750 0.8750 0.8752 0.8755
1959.000000 0.8757 0.8760 0.8762 0.8765 0.8767
1954.000000 0.8770 0.8771 0.8771 0.8771 0.8771
1949.000000 0.8771 0.8771 0.8771 0.8771 0.8771
1944.000000 0.8771 0.8771 0.8771 0.8771 0.8771
1939.000000 0.8773 0.8774 0.8774 0.8775 0.8775
1934.000000 0.8777 0.8780 0.8783 0.8787 0.8790
1929.000000 0.8793 0.8797 0.8800 0.8803 0.8806
1924.000000 0.8806 0.8807 0.8807 0.8808 0.8808
1919.000000 0.8809 0.8809 0.8810 0.8810 0.8810
1914.000000 0.8809 0.8808 0.8803 0.8797 0.8792
1909.000000 0.8794 0.8797 0.8801 0.8804 0.8808
1904.000000 0.8811 0.8814 0.8817 0.8818 0.8821
1899.000000 0.8823 0.8825 0.8827 0.8830 0.8832
1894.000000 0.8832 0.8831 0.8831 0.8830 0.8827
1889.000000 0.8821 0.8815 0.8810 0.8804 0.8798
1884.000000 0.8792 0.8786 0.8780 0.8773 0.8766
1879.000000 0.8759 0.8753 0.8746 0.8739 0.8738
1874.000000 0.8737 0.8738 0.8743 0.8749 0.8756
1869.000000 0.8764 0.8771 0.8778 0.8783 0.8787
1864.000000 0.8790 0.8794 0.8798 0.8802 0.8806
1859.000000 0.8809 0.8813 0.8814 0.8815 0.8816
1854.000000 0.8817 0.8818 0.8818 0.8820 0.8821
1849.000000 0.8823 0.8824 0.8825 0.8827 0.8828
1844.000000 0.8828 0.8828 0.8828 0.8828 0.8828
1839.000000 0.8828 0.8828 0.8828 0.8828 0.8828
1834.000000 0.8824 0.8818 0.8813 0.8801 0.8790
1829.000000 0.8767 0.8740 0.8718 0.8699 0.8685
1824.000000 0.8686 0.8687 0.8688 0.8690 0.8691
1819.000000 0.8693 0.8695 0.8695 0.8695 0.8692
1814.000000 0.8689 0.8684 0.8675 0.8666 0.8657
1809.000000 0.8649 0.8642 0.8634 0.8625 0.8608
1804.000000 0.8587 0.8562 0.8537 0.8512 0.8488
1799.000000 0.8464 0.8434 0.8401 0.8362 0.8321
1794.000000 0.8284 0.8241 0.8181 0.8118 0.8056
1789.000000 0.7994 0.7931 0.7868 0.7807 0.7744
1784.000000 0.7682 0.7618 0.7610 0.7607 0.7689
1779.000000 0.7792 0.7895 0.7998 0.8101 0.8162
1774.000000 0.8221 0.8263 0.8305 0.8348 0.8392
1769.000000 0.8438 0.8480 0.8512 0.8543 0.8573
1764.000000 0.8587 0.8597 0.8607 0.8613 0.8617
1759.000000 0.8621 0.8624 0.8625 0.8628 0.8631
1754.000000 0.8636 0.8641 0.8647 0.8655 0.8664
1749.000000 0.8674 0.8684 0.8693 0.8703 0.8713
1744.000000 0.8724 0.8734 0.8744 0.8754 0.8764
1739.000000 0.8768 0.8775 0.8780 0.8785 0.8784
1734.000000 0.8782 0.8778 0.8777 0.8771 0.8761
1729.000000 0.8749 0.8737 0.8718 0.8699 0.8680
1724.000000 0.8662 0.8635 0.8607 0.8580 0.8546
1719.000000 0.8513 0.8480 0.8447 0.8415 0.8392
1714.000000 0.8382 0.8386 0.8389 0.8393 0.8397
1709.000000 0.8401 0.8406 0.8411 0.8416 0.8421
1704.000000 0.8427 0.8431 0.8436 0.8441 0.8445
1699.000000 0.8450 0.8452 0.8452 0.8451 0.8451
1694.000000 0.8450 0.8449 0.8448 0.8445 0.8437
1689.000000 0.8430 0.8421 0.8409 0.8396 0.8378
1684.000000 0.8361 0.8340 0.8317 0.8278 0.8233
1679.000000 0.8075 0.7915 0.7756 0.7597 0.7437
1674.000000 0.7305 0.7283 0.7378 0.7481 0.7583
1669.000000 0.7684 0.7782 0.7810 0.7824 0.7831
1664.000000 0.7836 0.7836 0.7835 0.7824 0.7778
1659.000000 0.7674 0.7565 0.7468 0.7325 0.7149
1654.000000 0.6996 0.6701 0.6544 0.6394 0.6139
1649.000000 0.5888 0.5132 0.4376 0.3620 0.2864
1644.000000 0.2108 0.1219 0.1219 0.1219 0.1540
1639.000000 0.2011 0.2482 0.2953 0.3424 0.3895
1634.000000 0.4365 0.4836 0.5234 0.6110 0.6293
1629.000000 0.6424 0.6569 0.6778 0.6958 0.7045
1624.000000 0.7133 0.7211 0.7290 0.7368 0.7448
1619.000000 0.7524 0.7600 0.7661 0.7715 0.7761
1614.000000 0.7800 0.7845 0.7891 0.7938 0.7985
1609.000000 0.8025 0.8061 0.8094 0.8128 0.8165
1604.000000 0.8192 0.8203 0.8213 0.8221 0.8225
1599.000000 0.8228 0.8231 0.8232 0.8233 0.8234
1594.000000 0.8237 0.8243 0.8252 0.8268 0.8285
1589.000000 0.8314 0.8346 0.8378 0.8410 0.8443
1584.000000 0.8475 0.8505 0.8528 0.8549 0.8559
1579.000000 0.8568 0.8577 0.8583 0.8589 0.8595
1574.000000 0.8602 0.8610 0.8620 0.8630 0.8666
1569.000000 0.8704 0.8742 0.8780 0.8820 0.8873
1564.000000 0.8925 0.8970 0.9015 0.9045 0.9073
1559.000000 0.9102 0.9131 0.9158 0.9182 0.9207
1554.000000 0.9228 0.9241 0.9252 0.9259 0.9266
1549.000000 0.9271 0.9277 0.9284 0.9273 0.9268
1544.000000 0.9265 0.9261 0.9251 0.9240 0.9230
1539.000000 0.9214 0.9193 0.9171 0.9151 0.9130
1534.000000 0.9109 0.9081 0.9051 0.9021 0.8992
1529.000000 0.8957 0.8923 0.8888 0.8853 0.8817
1524.000000 0.8786 0.8761 0.8736 0.8718 0.8709
1519.000000 0.8698 0.8691 0.8688 0.8685 0.8682
1514.000000 0.8675 0.8666 0.8656 0.8647 0.8635
1509.000000 0.8618 0.8603 0.8586 0.8570 0.8551
1504.000000 0.8528 0.8507 0.8486 0.8464 0.8442
1499.000000 0.8420 0.8384 0.8347 0.8311 0.8275
1494.000000 0.8241 0.8206 0.8171 0.8137 0.8103
1489.000000 0.8069 0.8037 0.8005 0.7965 0.7924
1484.000000 0.7883 0.7842 0.7797 0.7751 0.7704
1479.000000 0.7657 0.7601 0.7545 0.7489 0.7421
1474.000000 0.7351 0.7258 0.7158 0.7025 0.6883
1469.000000 0.6750 0.6618 0.6537 0.6455 0.6355
1464.000000 0.6188 0.6037 0.5152 0.5009 0.4848
1459.000000 0.4374 0.3746 0.3118 0.2489 0.1861
1454.000000 0.1233 0.0934 0.0908 0.1271 0.1362
1449.000000 0.1359 0.1356 0.1332 0.1358 0.1266
1444.000000 0.1233 0.1200 0.1146 0.1086 0.0926
1439.000000 0.0830 0.0681 0.0599 0.0588 0.0596
1434.000000 0.0625 0.0723 0.1079 0.1274 0.1558
1429.000000 0.1757 0.2303 0.2702 0.3102 0.3500
1424.000000 0.3900 0.4300 0.5509 0.5729 0.6130
1419.000000 0.6359 0.6460 0.6558 0.6639 0.6715
1414.000000 0.6782 0.6847 0.6914 0.6981 0.7037
1409.000000 0.7080 0.7104 0.7126 0.7148 0.7169
1404.000000 0.7190 0.7210 0.7231 0.7239 0.7240
1399.000000 0.7240 0.7235 0.7228 0.7217 0.7206
1394.000000 0.7195 0.7180 0.7160 0.7141 0.7119
1389.000000 0.7086 0.7044 0.6982 0.6907 0.6818
1384.000000 0.6714 0.6608 0.6454 0.6174 0.5551
1379.000000 0.4792 0.3993 0.3194 0.2395 0.1862
1374.000000 0.1866 0.1935 0.2276 0.2617 0.2957
1369.000000 0.3297 0.3637 0.3977 0.4318 0.4658
1364.000000 0.4998 0.5294 0.5589 0.5964 0.6689
1359.000000 0.7341 0.7435 0.7490 0.7524 0.7546
1354.000000 0.7561 0.7578 0.7596 0.7614 0.7636
1349.000000 0.7665 0.7724 0.7786 0.7838 0.7865
1344.000000 0.7884 0.7893 0.7901 0.7910 0.7910
1339.000000 0.7910 0.7906 0.7892 0.7872 0.7853
1334.000000 0.7817 0.7774 0.7717 0.7653 0.7588
1329.000000 0.7369 0.7501 0.7493 0.7489 0.7486
1324.000000 0.7497 0.7512 0.7618 0.7741 0.7832
1319.000000 0.7847 0.7851 0.7857 0.8085 0.7811
1314.000000 0.7701 0.7592 0.7483 0.7372 0.7292
1309.000000 0.7303 0.7421 0.7531 0.7588 0.7640
1304.000000 0.7691 0.7737 0.7783 0.7836 0.7901
1299.000000 0.7943 0.7964 0.7976 0.8125 0.8001
1294.000000 0.8001 0.7937 0.7871 0.7807 0.7742
1289.000000 0.7678 0.7612 0.7574 0.7545 0.7637
1284.000000 0.7724 0.7799 0.7880 0.7961 0.8054
1279.000000 0.8092 0.8094 0.8101 0.8142 0.8187
1274.000000 0.8237 0.8293 0.8353 0.8404 0.8451
1269.000000 0.8487 0.8516 0.8532 0.8534 0.8524
1264.000000 0.8527 0.8521 0.8511 0.8494 0.8448
1259.000000 0.8378 0.8278 0.8175 0.8101 0.8065
1254.000000 0.8058 0.8056 0.8056 0.8056 0.8057
1249.000000 0.8058 0.8049 0.8008 0.7947 0.7864
1244.000000 0.7775 0.7711 0.7656 0.7625 0.7611
1239.000000 0.7608 0.7608 0.7608 0.7611 0.7622
1234.000000 0.7642 0.7658 0.7668 0.7680 0.7682
1229.000000 0.7684 0.7686 0.7689 0.7696 0.7797
1224.000000 0.7905 0.8014 0.8121 0.8231 0.8339
1219.000000 0.8448 0.8556 0.8650 0.8650 0.8650
1214.000000 0.8656 0.8655 0.8609 0.8528 0.8449
1209.000000 0.8368 0.8289 0.8208 0.8162 0.8158
1204.000000 0.8238 0.8153 0.8154 0.8156 0.8157
1199.000000 0.8184 0.8278 0.8371 0.8466 0.8561
1194.000000 0.8655 0.8749 0.8843 0.8937 0.9031
1189.000000 0.9125 0.9220 0.9314 0.9446 0.9405
1184.000000 0.9403 0.9393 0.9377 0.9362 0.9346
1179.000000 0.9260 0.9339 0.9345 0.9368 0.9393
1174.000000 0.9433 0.9450 0.9551 0.9478 0.9487
1169.000000 0.9482 0.9475 0.9468 0.9441 0.9412
1164.000000 0.9378 0.9325 0.9271 0.9214 0.9153
1159.000000 0.9092 0.9031 0.8970 0.8812 0.7051
1154.000000 0.5864 0.5850 0.5847 0.6436 0.7053
1149.000000 0.7087 0.7096 0.5805 0.5694 0.5694
1144.000000 0.5712 0.5717 0.6761 0.7286 0.7810
1139.000000 0.8335 0.8910 0.9159 0.9275 0.9374
1134.000000 0.9407 0.9438 0.9468 0.9487 0.9502
1129.000000 0.9517 0.9528 0.9536 0.9543 0.9547
1124.000000 0.9551 0.9553 0.9553 0.9552 0.9541
1119.000000 0.9524 0.9501 0.9463 0.9413 0.9309
1114.000000 0.9173 0.9068 0.8803 0.8845 0.8830
1109.000000 0.8828 0.8828 0.8836 0.8844 0.8866
1104.000000 0.8893 0.8920 0.8994 0.9073 0.9138
1099.000000 0.9217 0.9290 0.9356 0.9402 0.9439
1094.000000 0.9478 0.9509 0.9532 0.9542 0.9554
1089.000000 0.9556 0.9561 0.9564 0.9564 0.9565
1084.000000 0.9562 0.9549 0.9525 0.9471 0.9413
1079.000000 0.9361 0.9318 0.9285 0.9151 0.9220
1074.000000 0.9194 0.9181 0.9174 0.9196 0.9218
1069.000000 0.9235 0.9253 0.9268 0.9284 0.9386
1064.000000 0.9314 0.9320 0.9318 0.9298 0.9265
1059.000000 0.9210 0.9148 0.9064 0.8965 0.8894
1054.000000 0.8811 0.8695 0.8514 0.8167 0.7571
1049.000000 0.6806 0.6796 0.6822 0.7115 0.7408
1044.000000 0.7701 0.7995 0.8289 0.8431 0.8487
1039.000000 0.8531 0.8571 0.8609 0.8644 0.8680
1034.000000 0.8717 0.8761 0.8783 0.8806 0.8805
1029.000000 0.8805 0.8805 0.8794 0.8735 0.8547
1024.000000 0.8360 0.8171 0.7985 0.7797 0.7610
1019.000000 0.7421 0.7325 0.7247 0.7062 0.6915
1014.000000 0.6858 0.6892 0.7084 0.7275 0.7468
1009.000000 0.7660 0.7851 0.8044 0.8236 0.8428
1004.000000 0.8593 0.8660 0.8733 0.8873 0.8813
999.000000 0.8823 0.8833 0.8838 0.8841 0.8843
994.000000 0.8837 0.8831 0.8825 0.8813 0.8795
989.000000 0.8775 0.8750 0.8696 0.8648 0.8643
984.000000 0.8607 0.8618 0.8733 0.8871 0.8955
979.000000 0.9025 0.9110 0.9170 0.9218 0.9264
974.000000 0.9297 0.9325 0.9388 0.9361 0.9368
969.000000 0.9371 0.9373 0.9373 0.9368 0.9363
964.000000 0.9349 0.9335 0.9306 0.9270 0.9228
959.000000 0.9175 0.9124 0.8555 0.7484 0.7458
954.000000 0.7658 0.7861 0.8062 0.8265 0.8467
949.000000 0.8668 0.8817 0.8937 0.9065 0.9096
944.000000 0.9111 0.9124 0.9134 0.9139 0.9144
939.000000 0.9147 0.9151 0.9216 0.9158 0.9161
934.000000 0.9163 0.9163 0.9164 0.9163 0.9152
929.000000 0.9135 0.9110 0.9071 0.9024 0.8958
924.000000 0.8842 0.8740 0.8638 0.8475 0.6569
919.000000 0.6162 0.5757 0.5351 0.4944 0.4538
914.000000 0.4131 0.3725 0.3348 0.3368 0.3360
909.000000 0.3880 0.4655 0.5429 0.6202 0.6975
904.000000 0.7294 0.7294 0.7304 0.7097 0.6565
899.000000 0.6035 0.5505 0.4974 0.4443 0.3912
894.000000 0.3382 0.2851 0.2320 0.1790 0.1259
889.000000 0.0728 0.0198 0.0055 0.0055 0.0055
884.000000 0.0414 0.0855 0.1296 0.1736 0.2178
879.000000 0.2618 0.3059 0.3500 0.3941 0.4665
874.000000 0.5053 0.5440 0.5828 0.6215 0.6603
869.000000 0.6990 0.7130 0.7265 0.7478 0.8143
864.000000 0.8370 0.8497 0.8627 0.8760 0.8846
859.000000 0.8921 0.8996 0.9081 0.9178 0.9239
854.000000 0.9291 0.9342 0.9406 0.9475 0.9561
849.000000 0.9630 0.9716 0.9749 0.9765 0.9775
844.000000 0.9798 0.9785 0.9785 0.9785 0.9783
839.000000 0.9774 0.9766 0.9757 0.9749 0.9738
834.000000 0.9725 0.9713 0.9701 0.9688 0.9675
829.000000 0.9663 0.9646 0.9627 0.9607 0.9588
824.000000 0.9568 0.9546 0.9520 0.9493 0.9466
819.000000 0.9440 0.9411 0.9383 0.9354 0.9325
814.000000 0.9297 0.9253 0.9207 0.9161 0.9094
809.000000 0.9027 0.8953 0.8870 0.8785 0.8685
804.000000 0.8586 0.8358 0.5909 0.5022 0.4135
799.000000 0.3248 0.2604 0.2622 0.2621 0.2634
794.000000 0.3257 0.3843 0.4429 0.5015 0.5601
789.000000 0.5733 0.5821 0.5967 0.6115 0.6321
784.000000 0.6800 0.7278 0.7758 0.8238 0.8717
779.000000 0.9135 0.9298 0.9423 0.9487 0.9550
774.000000 0.9632 0.9670 0.9685 0.9739 0.9697
769.000000 0.9693 0.9686 0.9671 0.9658 0.9635
764.000000 0.9607 0.9571 0.9506 0.9191 0.8821
759.000000 0.8488 0.8492 0.8503 0.8557 0.8642
754.000000 0.8804 0.8992 0.9178 0.9366 0.9553
749.000000 0.9741 0.9825 0.9866 0.9899 0.9918
744.000000 0.9932 0.9946 0.9960 0.9970 0.9975
739.000000 0.9981 0.9984 0.9983 0.9981 0.9978
734.000000 0.9978 0.9975 0.9975 0.9971 0.9966
729.000000 0.9961 0.9957 0.9952 0.9948 0.9942
724.000000 0.9931 0.9918 0.9908 0.9897 0.9886
719.000000 0.9875 0.9866 0.9856 0.9847 0.9839
714.000000 0.9836 0.9833 0.9830 0.9828 0.9828
709.000000 0.9828 0.9828 0.9828 0.9831 0.9834
704.000000 0.9838 0.9842 0.9846 0.9851 0.9855
699.000000 0.9859 0.9863 0.9866 0.9870 0.9873
694.000000 0.9877 0.9880 0.9883 0.9886 0.9886
689.000000 0.9885 0.9882 0.9984 0.9877 0.9873
684.000000 0.9871 0.9871 0.9873 0.9878 0.9886
679.000000 0.9894 0.9901 0.9909 0.9918 0.9928
674.000000 0.9937 0.9947 0.9958 0.9970 0.9981
669.000000 0.9989 0.9995 1.0002 1.0004 1.0005
664.000000 1.0007 1.0008 1.0008 1.0008 1.0006
659.000000 1.0001 0.9995 0.9989 0.9982 0.9974
654.000000 0.9966 0.9957 0.9944 0.9927 0.9908
649.000000 0.9871 0.9846 0.9810 0.9774 0.9738
644.000000 0.9702 0.9666 0.9630 0.9594 0.9559
639.000000 0.9523 0.9486 0.9471 0.9887 0.9896
634.000000 0.9904 0.9912 0.9921 0.9925 0.9931
629.000000 0.9936 0.9941 0.9946 0.9951 0.9954
624.000000 0.9957 0.9960 0.9963 0.9965 0.9968
619.000000 0.9971 0.9973 0.9975 0.9978 0.9980
614.000000 0.9982 0.9984 0.9986 0.9988 0.9990
609.000000 0.9992 0.9994 0.9994 0.9993 0.9993
604.000000 0.9993 0.9993 0.9993 0.9993 0.9993
599.000000 0.9993 0.9993 1.0052 0.9985 0.9980
594.000000 0.9974 0.9968 0.9963 0.9952 0.9941
589.000000 0.9930 0.9920 0.9909 0.9898 0.9886
584.000000 0.9875 0.9863 0.9852 0.9840 0.9828
579.000000 0.9817 0.9806 0.9794 0.9785 0.9775
574.000000 0.9767 0.9757 0.9747 0.9737 0.9728
569.000000 0.9718 0.9711 0.9704 0.9696 0.9684
564.000000 0.9673 0.9661 0.9647 0.9633 0.9613
559.000000 0.9585 0.9547 0.9428 0.9264 0.9100
554.000000 0.8935 0.8770 0.8606 0.8441 0.8277
549.000000 0.8111 0.7947 0.7783 0.7618 0.7454
544.000000 0.7289 0.7124 0.6960 0.6949 0.6976
539.000000 0.7272 0.7568 0.7864 0.8160 0.8456
534.000000 0.8751 0.9047 0.9245 0.9208 0.9086
529.000000 0.8981 0.8875 0.8771 0.8666 0.8562
524.000000 0.8457 0.8352 0.8247 0.8188 0.8225
519.000000 0.8373 0.8486 0.8599 0.8711 0.8824
514.000000 0.8937 0.9049 0.9162 0.9251 0.9305
509.000000 0.9341 0.9364 0.9378 0.9425 0.9380
504.000000 0.9356 0.9296 0.8938 0.8797 0.8694
499.000000 0.8595 0.8506 0.8417 0.8332 0.8261
494.000000 0.8198 0.8142 0.8090 0.8053 0.8022
489.000000 0.8001 0.8005 0.8171 0.8304 0.8451
484.000000 0.8593 0.8728 0.8812 0.8874
##END=
