##TITLE=DIPENTENE LIMONENE
##JCAMP-DX=4.24
##DATA TYPE=INFRARED SPECTRUM
##CLASS=COBLENTZ
##ORIGIN=INTERNATIONAL FLAVORS & FRAGRANCES, INC.
##OWNER=COBLENTZ SOCIETY
Collection (C) 2018 copyright by the U.S. Secretary of Commerce
on behalf of the United States of America. All rights reserved.
##DATE=Not specified, most likely prior to 1970
##NAMES=4-isopropenyl-1-methyl-1-cyclohexene
##CAS REGISTRY NO=138-86-3
##MOLFORM=C10 H16
##SOURCE REFERENCE=COBLENTZ NO. 4996
##$NIST SOURCE=COBLENTZ
##$NIST IMAGE=cob4996
##SPECTROMETER/DATA SYSTEM=Not specified, most likely a prism, grating, or hybrid spectrometer.
##SAMPLING PROCEDURE=TRANSMISSION
##RESOLUTION=4
##DATA PROCESSING=DIGITIZED BY NIST FROM HARD COPY
##XUNITS=MICROMETERS
##YUNITS=TRANSMITTANCE
##XFACTOR=1.000000
##YFACTOR=1
##DELTAX=000.006619
##FIRSTX=1.723
##LASTX=14.9865
##FIRSTY=0.911
##MAXX=14.9865
##MINX=1.723
##MAXY=0.957
##MINY=0.055
##NPOINTS=2005
##XYDATA=(X++(Y..Y))
1.723000 0.9110 0.9110 0.9110 0.9130 0.9130
1.756111 0.9150 0.9150 0.9150 0.9160 0.9150
1.789000 0.9150 0.9150 0.9150 0.9150 0.9130
1.822111 0.9130 0.9130 0.9130 0.9110 0.9110
1.855000 0.9110 0.9110 0.9110 0.9110 0.9110
1.888111 0.9110 0.9110 0.9100 0.9100 0.9080
1.921000 0.9050 0.9030 0.9020 0.9020 0.9000
1.954111 0.9000 0.8980 0.8950 0.8920 0.8850
1.987000 0.8800 0.8720 0.8640 0.8610 0.8560
2.020111 0.8530 0.8510 0.8510 0.8530 0.8560
2.054000 0.8590 0.8620 0.8640 0.8660 0.8690
2.087111 0.8770 0.8800 0.8840 0.8850 0.8870
2.120000 0.8890 0.8920 0.8930 0.8930 0.8930
2.153111 0.8920 0.8920 0.8920 0.8900 0.8900
2.186000 0.8900 0.8920 0.8920 0.8920 0.8920
2.219111 0.8920 0.8920 0.8920 0.8930 0.8930
2.252000 0.8930 0.8930 0.8930 0.8930 0.8930
2.285111 0.8930 0.8950 0.8950 0.8950 0.8970
2.318000 0.8970 0.8970 0.8970 0.8970 0.8970
2.351111 0.8970 0.8980 0.8980 0.8980 0.8980
2.384000 0.8980 0.8980 0.8980 0.8980 0.9000
2.417111 0.9000 0.9000 0.9000 0.9000 0.9000
2.451000 0.9000 0.9000 0.9020 0.9020 0.9020
2.484111 0.9030 0.9030 0.9020 0.9020 0.9000
2.517000 0.9000 0.9000 0.9000 0.9000 0.9000
2.550111 0.9020 0.9020 0.9030 0.9070 0.9100
2.583000 0.9100 0.9110 0.9110 0.9110 0.9130
2.616111 0.9130 0.9130 0.9130 0.9130 0.9150
2.649000 0.9150 0.9150 0.9150 0.9160 0.9180
2.682111 0.9210 0.9230 0.9230 0.9230 0.9230
2.715000 0.9230 0.9230 0.9230 0.9240 0.9240
2.748111 0.9230 0.9230 0.9230 0.9230 0.9210
2.782000 0.9200 0.9180 0.9160 0.9150 0.9130
2.815111 0.9130 0.9110 0.9110 0.9110 0.9110
2.848000 0.9110 0.9110 0.9110 0.9110 0.9110
2.881111 0.9110 0.9110 0.9100 0.9100 0.9100
2.914000 0.9100 0.9100 0.9110 0.9100 0.9100
2.947111 0.9110 0.9110 0.9110 0.9110 0.9110
2.980000 0.9110 0.9130 0.9130 0.9130 0.9110
3.013111 0.9130 0.9130 0.9150 0.9150 0.9150
3.046000 0.9150 0.9150 0.9150 0.9150 0.9130
3.079111 0.9110 0.9130 0.9130 0.9130 0.9130
3.113000 0.9110 0.9110 0.9100 0.9080 0.9070
3.146111 0.9030 0.9000 0.8930 0.8870 0.8760
3.179000 0.8620 0.8100 0.7300 0.6900 0.6320
3.212111 0.5770 0.5770 0.6080 0.6360 0.6540
3.245000 0.6720 0.6810 0.6850 0.6850 0.6680
3.278111 0.5120 0.5000 0.4970 0.4810 0.4460
3.311000 0.3370 0.2670 0.1900 0.1760 0.1680
3.344111 0.1660 0.1630 0.1610 0.1410 0.1020
3.377000 0.0650 0.0630 0.0630 0.0650 0.0660
3.410111 0.0710 0.0780 0.0940 0.1010 0.1070
3.443000 0.1190 0.1250 0.1330 0.1410 0.1500
3.476111 0.1590 0.1770 0.1950 0.2150 0.3370
3.510000 0.4420 0.5070 0.5720 0.6100 0.7110
3.543111 0.7210 0.7340 0.7580 0.7870 0.8140
3.576000 0.8270 0.8330 0.8400 0.8450 0.8490
3.609111 0.8490 0.8510 0.8510 0.8480 0.8350
3.642000 0.8220 0.8100 0.8100 0.8270 0.8430
3.675111 0.8610 0.8670 0.8690 0.8760 0.8840
3.708000 0.8870 0.8900 0.8900 0.8900 0.8890
3.741111 0.8900 0.8900 0.8930 0.8970 0.9020
3.774000 0.9030 0.9070 0.9070 0.9070 0.9080
3.807111 0.9080 0.9080 0.9080 0.9080 0.9100
3.841000 0.9100 0.9110 0.9130 0.9130 0.9130
3.874111 0.9150 0.9150 0.9150 0.9160 0.9160
3.907000 0.9180 0.9180 0.9200 0.9210 0.9230
3.940111 0.9230 0.9240 0.9240 0.9240 0.9260
3.973000 0.9260 0.9260 0.9280 0.9280 0.9280
4.006111 0.9280 0.9280 0.9280 0.9280 0.9280
4.039000 0.9290 0.9290 0.9290 0.9290 0.9290
4.072111 0.9310 0.9310 0.9310 0.9310 0.9310
4.105000 0.9330 0.9340 0.9380 0.9390 0.9390
4.138111 0.9390 0.9390 0.9390 0.9390 0.9390
4.172000 0.9390 0.9380 0.9360 0.9340 0.9340
4.205111 0.9310 0.9310 0.9280 0.9260 0.9260
4.238000 0.9260 0.9280 0.9290 0.9310 0.9330
4.271111 0.9340 0.9360 0.9380 0.9390 0.9410
4.304000 0.9420 0.9440 0.9460 0.9470 0.9490
4.337111 0.9490 0.9510 0.9510 0.9510 0.9510
4.370000 0.9510 0.9510 0.9490 0.9490 0.9490
4.403111 0.9470 0.9460 0.9440 0.9440 0.9440
4.436000 0.9420 0.9410 0.9410 0.9410 0.9420
4.469111 0.9460 0.9490 0.9490 0.9510 0.9510
4.502000 0.9510 0.9510 0.9490 0.9510 0.9510
4.535111 0.9510 0.9510 0.9510 0.9510 0.9520
4.569000 0.9520 0.9540 0.9540 0.9540 0.9540
4.602111 0.9540 0.9550 0.9550 0.9550 0.9550
4.635000 0.9540 0.9540 0.9550 0.9550 0.9550
4.668111 0.9540 0.9540 0.9540 0.9540 0.9540
4.701000 0.9540 0.9540 0.9540 0.9540 0.9540
4.734111 0.9550 0.9550 0.9550 0.9550 0.9550
4.767000 0.9550 0.9550 0.9550 0.9550 0.9550
4.800111 0.9550 0.9540 0.9540 0.9520 0.9520
4.833000 0.9520 0.9520 0.9520 0.9520 0.9520
4.866111 0.9540 0.9540 0.9550 0.9550 0.9550
4.900000 0.9550 0.9550 0.9570 0.9570 0.9550
4.933111 0.9550 0.9550 0.9550 0.9550 0.9550
4.966000 0.9550 0.9550 0.9540 0.9540 0.9510
4.999111 0.9510 0.9510 0.9520 0.9520 0.9550
5.032000 0.9540 0.9540 0.9520 0.9510 0.9490
5.065111 0.9490 0.9490 0.9510 0.9510 0.9510
5.098000 0.9510 0.9490 0.9470 0.9470 0.9470
5.131111 0.9460 0.9460 0.9440 0.9440 0.9440
5.164000 0.9440 0.9460 0.9460 0.9460 0.9470
5.197111 0.9490 0.9510 0.9520 0.9510 0.9520
5.231000 0.9520 0.9520 0.9520 0.9520 0.9520
5.264111 0.9520 0.9520 0.9520 0.9540 0.9520
5.297000 0.9520 0.9510 0.9510 0.9490 0.9440
5.330111 0.9420 0.9420 0.9420 0.9420 0.9440
5.363000 0.9460 0.9470 0.9470 0.9470 0.9470
5.396111 0.9490 0.9490 0.9490 0.9490 0.9470
5.429000 0.9460 0.9460 0.9420 0.9420 0.9420
5.462111 0.9420 0.9410 0.9410 0.9390 0.9390
5.495000 0.9380 0.9380 0.9380 0.9360 0.9340
5.528111 0.9290 0.9240 0.9180 0.9110 0.9020
5.562000 0.8970 0.8930 0.8770 0.8720 0.8640
5.595111 0.8620 0.8620 0.8640 0.8690 0.8770
5.628000 0.8870 0.9020 0.9080 0.9110 0.9150
5.661111 0.9160 0.9160 0.9180 0.9180 0.9200
5.694000 0.9210 0.9230 0.9240 0.9240 0.9240
5.727111 0.9260 0.9260 0.9260 0.9260 0.9260
5.760000 0.9240 0.9200 0.9150 0.9100 0.9050
5.793111 0.9020 0.8950 0.8930 0.8920 0.8920
5.826000 0.8920 0.8920 0.8930 0.8950 0.8950
5.859111 0.8970 0.9000 0.9020 0.9030 0.9030
5.892000 0.9030 0.9000 0.8890 0.8840 0.8760
5.925111 0.8530 0.8410 0.8170 0.8150 0.8170
5.959000 0.8220 0.8300 0.8300 0.8360 0.8430
5.992111 0.8460 0.8430 0.8350 0.8200 0.7680
6.025000 0.7290 0.6780 0.5980 0.2880 0.2490
6.058111 0.2490 0.3230 0.3960 0.4450 0.5050
6.091000 0.5540 0.6030 0.6730 0.7220 0.7560
6.124111 0.7760 0.7890 0.7970 0.8050 0.8180
6.157000 0.8270 0.8330 0.8380 0.8450 0.8490
6.190111 0.8530 0.8580 0.8610 0.8640 0.8660
6.223000 0.8660 0.8660 0.8660 0.8640 0.8590
6.256111 0.8580 0.8580 0.8580 0.8580 0.8610
6.290000 0.8640 0.8690 0.8720 0.8760 0.8760
6.323111 0.8770 0.8800 0.8840 0.8890 0.8920
6.356000 0.8930 0.8970 0.8980 0.8980 0.8970
6.389111 0.8950 0.8970 0.8980 0.9020 0.9020
6.422000 0.9050 0.9050 0.9050 0.9070 0.9070
6.455111 0.9070 0.9050 0.9030 0.9030 0.9050
6.488000 0.9070 0.9080 0.9080 0.9080 0.9080
6.521111 0.9080 0.9080 0.9080 0.9080 0.9080
6.554000 0.9070 0.9070 0.9050 0.9050 0.9050
6.587111 0.9030 0.9000 0.8970 0.8930 0.8920
6.621000 0.8900 0.8890 0.8870 0.8870 0.8850
6.654111 0.8820 0.8800 0.8770 0.8720 0.8670
6.687000 0.8620 0.8590 0.8560 0.8530 0.8480
6.720111 0.8360 0.8270 0.8170 0.8100 0.8040
6.753000 0.7960 0.7890 0.7790 0.7680 0.7530
6.786111 0.7350 0.7120 0.6860 0.6540 0.6160
6.819000 0.5700 0.4560 0.4150 0.3580 0.2820
6.852111 0.2280 0.1900 0.1850 0.1850 0.1890
6.885000 0.1940 0.1940 0.1920 0.1790 0.1720
6.918111 0.1610 0.1590 0.1500 0.1430 0.1410
6.951000 0.1450 0.1850 0.2230 0.2850 0.3400
6.984111 0.3930 0.4400 0.4840 0.5220 0.5390
7.018000 0.5570 0.5880 0.6180 0.6420 0.6650
7.051111 0.6830 0.7010 0.7140 0.7250 0.7350
7.084000 0.7430 0.7500 0.7550 0.7600 0.7610
7.117111 0.7630 0.7650 0.7650 0.7650 0.7650
7.150000 0.7630 0.7600 0.7550 0.7500 0.7470
7.183111 0.7420 0.7340 0.7170 0.6940 0.6600
7.216000 0.6110 0.5490 0.4200 0.3600 0.3080
7.249111 0.3080 0.3440 0.3800 0.4170 0.4500
7.282000 0.5050 0.5310 0.5560 0.6010 0.6410
7.315111 0.6730 0.7030 0.7270 0.7480 0.7650
7.349000 0.7780 0.7870 0.7920 0.7970 0.7990
7.382111 0.8020 0.8040 0.8090 0.8150 0.8250
7.415000 0.8300 0.8330 0.8330 0.8360 0.8360
7.448111 0.8360 0.8380 0.8380 0.8360 0.8250
7.481000 0.8140 0.8120 0.8040 0.7990 0.7970
7.514111 0.7970 0.7970 0.7990 0.8020 0.8070
7.547000 0.8180 0.8300 0.8360 0.8380 0.8380
7.580111 0.8360 0.8330 0.8270 0.8070 0.7970
7.613000 0.7830 0.7790 0.7780 0.7810 0.7870
7.646111 0.7920 0.7960 0.8000 0.8070 0.8140
7.680000 0.8200 0.8250 0.8300 0.8310 0.8330
7.713111 0.8350 0.8350 0.8270 0.8180 0.8100
7.746000 0.8050 0.7990 0.7940 0.7940 0.8020
7.779111 0.8100 0.8150 0.8220 0.8280 0.8350
7.812000 0.8330 0.8310 0.8310 0.8330 0.8360
7.845111 0.8410 0.8460 0.8530 0.8580 0.8610
7.878000 0.8620 0.8640 0.8640 0.8640 0.8640
7.911111 0.8620 0.8560 0.8490 0.8450 0.8360
7.944000 0.8280 0.8250 0.8220 0.8200 0.8170
7.977111 0.8170 0.8150 0.8150 0.8140 0.8120
8.010000 0.8100 0.8070 0.8000 0.7860 0.7730
8.043111 0.7710 0.7690 0.7690 0.7710 0.7730
8.077000 0.7760 0.7780 0.7810 0.7810 0.7830
8.110111 0.7830 0.7830 0.7840 0.7840 0.7860
8.143000 0.7860 0.7890 0.7990 0.8140 0.8230
8.176111 0.8330 0.8410 0.8480 0.8510 0.8540
8.209000 0.8560 0.8610 0.8620 0.8620 0.8620
8.242111 0.8620 0.8610 0.8530 0.8450 0.8360
8.275000 0.8310 0.8270 0.8250 0.8250 0.8250
8.308111 0.8230 0.8180 0.8140 0.7990 0.7860
8.341000 0.7860 0.7920 0.8230 0.8380 0.8460
8.374111 0.8540 0.8610 0.8670 0.8720 0.8760
8.408000 0.8770 0.8770 0.8770 0.8760 0.8760
8.441111 0.8760 0.8760 0.8760 0.8770 0.8770
8.474000 0.8790 0.8790 0.8800 0.8800 0.8800
8.507111 0.8820 0.8820 0.8800 0.8790 0.8790
8.540000 0.8760 0.8720 0.8690 0.8640 0.8580
8.573111 0.8530 0.8430 0.8270 0.8100 0.7870
8.606000 0.7580 0.7170 0.6630 0.5900 0.5770
8.639111 0.5770 0.5970 0.6130 0.6230 0.6260
8.672000 0.6240 0.6210 0.6100 0.5820 0.5820
8.705111 0.6110 0.6390 0.6670 0.6910 0.7470
8.739000 0.7910 0.8090 0.8230 0.8350 0.8450
8.772111 0.8530 0.8580 0.8620 0.8670 0.8710
8.805000 0.8740 0.8790 0.8820 0.8870 0.8890
8.838111 0.8890 0.8900 0.8900 0.8900 0.8900
8.871000 0.8900 0.8900 0.8890 0.8840 0.8770
8.904111 0.8710 0.8640 0.8540 0.8460 0.8380
8.937000 0.8300 0.8250 0.8220 0.8200 0.8220
8.970111 0.8230 0.8270 0.8310 0.8330 0.8330
9.003000 0.8350 0.8360 0.8360 0.8380 0.8410
9.036111 0.8460 0.8510 0.8560 0.8590 0.8640
9.069000 0.8670 0.8710 0.8740 0.8790 0.8800
9.102111 0.8820 0.8840 0.8850 0.8850 0.8870
9.136000 0.8870 0.8870 0.8850 0.8850 0.8850
9.169111 0.8840 0.8820 0.8790 0.8770 0.8740
9.202000 0.8720 0.8710 0.8670 0.8640 0.8560
9.235111 0.8540 0.8540 0.8540 0.8540 0.8540
9.268000 0.8560 0.8580 0.8590 0.8610 0.8610
9.301111 0.8620 0.8640 0.8640 0.8660 0.8660
9.334000 0.8690 0.8670 0.8660 0.8660 0.8640
9.367111 0.8640 0.8610 0.8560 0.8490 0.8410
9.400000 0.8310 0.8230 0.8140 0.8050 0.7960
9.433111 0.7870 0.7790 0.7760 0.7550 0.7320
9.467000 0.7120 0.6830 0.6730 0.6540 0.6520
9.500111 0.6520 0.6550 0.6900 0.7010 0.7090
9.533000 0.7290 0.7450 0.7580 0.7690 0.7760
9.566111 0.7830 0.7860 0.7890 0.7890 0.7890
9.599000 0.7910 0.7920 0.7940 0.7970 0.7990
9.632111 0.8020 0.8040 0.8070 0.8090 0.8100
9.665000 0.8100 0.8090 0.8090 0.8070 0.8020
9.698111 0.7970 0.7910 0.7830 0.7710 0.7600
9.731000 0.7450 0.7270 0.7120 0.7090 0.7060
9.764111 0.7010 0.6990 0.6940 0.6880 0.6830
9.798000 0.6780 0.6760 0.6750 0.6750 0.6760
9.831111 0.6800 0.6860 0.6930 0.6980 0.7040
9.864000 0.7120 0.7210 0.7320 0.7450 0.7610
9.897111 0.7810 0.7890 0.7970 0.8040 0.8120
9.930000 0.8180 0.8230 0.8280 0.8310 0.8310
9.963111 0.8330 0.8330 0.8330 0.8330 0.8330
9.996000 0.8330 0.8310 0.8310 0.8300 0.8280
10.029111 0.8280 0.8280 0.8280 0.8310 0.8310
10.062000 0.8310 0.8300 0.8280 0.8250 0.8220
10.095111 0.8200 0.8170 0.8150 0.8150 0.8150
10.129000 0.8150 0.8170 0.8200 0.8270 0.8310
10.162111 0.8380 0.8430 0.8480 0.8510 0.8560
10.195000 0.8590 0.8640 0.8660 0.8690 0.8720
10.228111 0.8740 0.8760 0.8720 0.8760 0.8770
10.261000 0.8770 0.8770 0.8770 0.8770 0.8770
10.294111 0.8770 0.8770 0.8770 0.8770 0.8760
10.327000 0.8740 0.8710 0.8670 0.8640 0.8590
10.360111 0.8540 0.8490 0.8430 0.8350 0.8270
10.393000 0.8150 0.8000 0.7840 0.7610 0.7340
10.426111 0.7160 0.7140 0.7160 0.7350 0.7520
10.459000 0.7660 0.7790 0.7910 0.8000 0.8090
10.492111 0.8150 0.8220 0.8280 0.8330 0.8360
10.526000 0.8410 0.8450 0.8480 0.8510 0.8530
10.559111 0.8560 0.8580 0.8580 0.8590 0.8610
10.592000 0.8610 0.8610 0.8610 0.8610 0.8610
10.625111 0.8620 0.8620 0.8620 0.8620 0.8640
10.658000 0.8640 0.8660 0.8660 0.8660 0.8660
10.691111 0.8660 0.8660 0.8640 0.8640 0.8620
10.724000 0.8610 0.8610 0.8590 0.8540 0.8490
10.757111 0.8460 0.8430 0.8410 0.8380 0.8330
10.790000 0.8270 0.8200 0.8100 0.7990 0.7830
10.823111 0.7680 0.7530 0.7380 0.7210 0.7030
10.857000 0.6800 0.6540 0.6230 0.5870 0.4950
10.890111 0.4370 0.4250 0.4040 0.3810 0.3810
10.923000 0.4070 0.4330 0.4610 0.4870 0.5150
10.956111 0.5350 0.5560 0.5770 0.6000 0.6130
10.989000 0.6230 0.6390 0.6680 0.6700 0.6730
11.022111 0.6730 0.6730 0.6720 0.6670 0.6600
11.055000 0.6520 0.6410 0.6280 0.6150 0.5980
11.088111 0.5790 0.5590 0.5100 0.4840 0.4530
11.121000 0.4200 0.3860 0.3490 0.3080 0.2650
11.154111 0.2180 0.1870 0.1590 0.1330 0.1120
11.188000 0.0810 0.0700 0.0650 0.0610 0.0580
11.221111 0.0570 0.0550 0.0550 0.0550 0.0570
11.254000 0.0580 0.0600 0.0650 0.0710 0.0840
11.287111 0.0920 0.1010 0.1230 0.1510 0.1850
11.320000 0.2230 0.2570 0.2920 0.3240 0.3530
11.353111 0.3840 0.4120 0.4380 0.4640 0.4910
11.386000 0.5130 0.5360 0.5480 0.5590 0.5800
11.419111 0.6010 0.6210 0.6410 0.6590 0.6760
11.452000 0.6940 0.7110 0.7270 0.7300 0.7380
11.485111 0.7420 0.7530 0.7610 0.7680 0.7760
11.518000 0.7830 0.7910 0.7970 0.8040 0.8120
11.551111 0.8170 0.8200 0.8230 0.8280 0.8310
11.585000 0.8350 0.8380 0.8410 0.8450 0.8480
11.618111 0.8510 0.8530 0.8540 0.8560 0.8560
11.651000 0.8580 0.8590 0.8610 0.8640 0.8660
11.684111 0.8660 0.8670 0.8690 0.8690 0.8690
11.717000 0.8710 0.8710 0.8720 0.8720 0.8740
11.750111 0.8760 0.8760 0.8760 0.8770 0.8770
11.783000 0.8770 0.8770 0.8770 0.8770 0.8770
11.816111 0.8790 0.8790 0.8790 0.8790 0.8790
11.849000 0.8790 0.8790 0.8790 0.8800 0.8800
11.882111 0.8820 0.8820 0.8840 0.8840 0.8850
11.916000 0.8850 0.8850 0.8850 0.8850 0.8870
11.949111 0.8870 0.8870 0.8870 0.8870 0.8890
11.982000 0.8890 0.8890 0.8890 0.8890 0.8900
12.015111 0.8900 0.8900 0.8900 0.8900 0.8900
12.048000 0.8900 0.8900 0.8900 0.8900 0.8900
12.081111 0.8900 0.8890 0.8890 0.8890 0.8890
12.114000 0.8890 0.8890 0.8870 0.8870 0.8870
12.147111 0.8850 0.8850 0.8840 0.8840 0.8840
12.180000 0.8820 0.8820 0.8800 0.8790 0.8760
12.213111 0.8740 0.8710 0.8710 0.8690 0.8670
12.247000 0.8640 0.8610 0.8580 0.8540 0.8510
12.280111 0.8480 0.8450 0.8400 0.8350 0.8300
12.313000 0.8250 0.8180 0.8120 0.8040 0.7940
12.346111 0.7840 0.7730 0.7610 0.7470 0.7320
12.379000 0.7160 0.6980 0.6760 0.6550 0.6310
12.412111 0.6050 0.5850 0.5640 0.5180 0.4940
12.445000 0.4710 0.4480 0.4250 0.4040 0.3840
12.478111 0.3680 0.3520 0.3390 0.3290 0.3230
12.511000 0.3140 0.3080 0.3060 0.3080 0.3160
12.544111 0.3310 0.3500 0.3760 0.4060 0.4370
12.577000 0.4710 0.4920 0.5170 0.5430 0.5540
12.610111 0.5640 0.5800 0.5870 0.5880 0.5880
12.644000 0.5880 0.5870 0.5660 0.5540 0.5480
12.677111 0.5560 0.5640 0.5800 0.5970 0.6060
12.710000 0.6420 0.6760 0.7030 0.7240 0.7420
12.743111 0.7560 0.7710 0.7840 0.7970 0.8140
12.776000 0.8170 0.8250 0.8330 0.8400 0.8430
12.809111 0.8480 0.8510 0.8540 0.8590 0.8640
12.842000 0.8670 0.8690 0.8710 0.8720 0.8740
12.875111 0.8760 0.8770 0.8790 0.8790 0.8800
12.908000 0.8820 0.8820 0.8820 0.8840 0.8840
12.941111 0.8840 0.8840 0.8840 0.8840 0.8840
12.975000 0.8840 0.8840 0.8820 0.8820 0.8820
13.008111 0.8800 0.8790 0.8770 0.8760 0.8740
13.041000 0.8710 0.8670 0.8640 0.8590 0.8540
13.074111 0.8480 0.8410 0.8360 0.8280 0.8220
13.107000 0.8140 0.8050 0.7960 0.7920 0.7840
13.140111 0.7810 0.7780 0.7760 0.7740 0.7710
13.173000 0.7710 0.7690 0.7690 0.7710 0.7740
13.206111 0.7780 0.7840 0.7890 0.7960 0.8020
13.239000 0.8100 0.8170 0.8230 0.8300 0.8360
13.272111 0.8410 0.8460 0.8490 0.8540 0.8560
13.306000 0.8590 0.8610 0.8640 0.8660 0.8670
13.339111 0.8690 0.8690 0.8710 0.8720 0.8720
13.372000 0.8720 0.8720 0.8720 0.8720 0.8740
13.405111 0.8740 0.8740 0.8740 0.8760 0.8760
13.438000 0.8760 0.8760 0.8760 0.8770 0.8770
13.471111 0.8790 0.8790 0.8800 0.8800 0.8800
13.504000 0.8790 0.8790 0.8790 0.8790 0.8770
13.537111 0.8770 0.8790 0.8790 0.8770 0.8760
13.570000 0.8760 0.8740 0.8720 0.8720 0.8720
13.603111 0.8720 0.8720 0.8740 0.8740 0.8740
13.637000 0.8740 0.8740 0.8740 0.8740 0.8740
13.670111 0.8720 0.8720 0.8720 0.8720 0.8710
13.703000 0.8710 0.8710 0.8710 0.8690 0.8690
13.736111 0.8690 0.8670 0.8670 0.8670 0.8670
13.769000 0.8670 0.8660 0.8660 0.8660 0.8660
13.802111 0.8660 0.8640 0.8640 0.8640 0.8640
13.835000 0.8640 0.8640 0.8620 0.8620 0.8620
13.868111 0.8610 0.8610 0.8610 0.8580 0.8580
13.901000 0.8560 0.8540 0.8540 0.8540 0.8530
13.934111 0.8530 0.8510 0.8510 0.8510 0.8490
13.967000 0.8480 0.8480 0.8480 0.8480 0.8460
14.000111 0.8460 0.8460 0.8450 0.8430 0.8430
14.034000 0.8430 0.8410 0.8410 0.8410 0.8400
14.067111 0.8400 0.8400 0.8400 0.8400 0.8400
14.100000 0.8400 0.8400 0.8380 0.8380 0.8380
14.133111 0.8360 0.8360 0.8360 0.8360 0.8360
14.166000 0.8360 0.8360 0.8360 0.8360 0.8350
14.199111 0.8350 0.8330 0.8310 0.8310 0.8300
14.232000 0.8300 0.8280 0.8280 0.8270 0.8270
14.265111 0.8250 0.8250 0.8230 0.8230 0.8230
14.298000 0.8230 0.8220 0.8220 0.8220 0.8220
14.331111 0.8220 0.8200 0.8200 0.8200 0.8180
14.365000 0.8180 0.8180 0.8170 0.8170 0.8150
14.398111 0.8150 0.8150 0.8150 0.8150 0.8150
14.431000 0.8150 0.8150 0.8140 0.8140 0.8140
14.464111 0.8120 0.8120 0.8100 0.8100 0.8100
14.497000 0.8090 0.8090 0.8090 0.8070 0.8070
14.530111 0.8050 0.8050 0.8040 0.8040 0.8020
14.563000 0.8000 0.8000 0.8000 0.7990 0.7990
14.596111 0.7970 0.7970 0.7960 0.7940 0.7940
14.629000 0.7920 0.7920 0.7910 0.7910 0.7890
14.662111 0.7890 0.7870 0.7860 0.7860 0.7860
14.696000 0.7840 0.7830 0.7810 0.7810 0.7790
14.729111 0.7780 0.7760 0.7760 0.7760 0.7740
14.762000 0.7740 0.7740 0.7740 0.7760 0.7760
14.795111 0.7760 0.7760 0.7760 0.7760 0.7740
14.828000 0.7740 0.7730 0.7710 0.7710 0.7710
14.861111 0.7690 0.7680 0.7680 0.7680 0.7680
14.894000 0.7680 0.7660 0.7660 0.7660 0.7660
14.927111 0.7650 0.7650 0.7650 0.7650 0.7650
14.960000 0.7630 0.7610 0.7600 0.7580 0.7580
##END=
