##TITLE=Ethyl Acrylate
##JCAMP-DX=4.24
##DATA TYPE=INFRARED SPECTRUM
##CLASS=IUPAC A
##ORIGIN=NIST, Anayltical Chemistry Division, 301-975-3108
##OWNER=COPYRIGHT (C) 1998 by the U.S. Secretary of Commerce
##DATE=98/10/1
##$SPECTRA VERSION=1.00
##$UNCERTAINTY IN Y=2.0 % relative (B=1.0E-04,C=3.0E-10,D=2.7E-14)
##CAS NAME=Ethyl Ester-Propenoic Acid
##CAS REGISTRY NO=140-88-5
##MOLFORM=C H2: C H C O2 C2 H5
##MP=-71.2 C
##BP=99.8 C
##$NIST SOURCE=QUANT-IR
##SPECTROMETER/DATA SYSTEM=IFS66V (Bruker)
##INSTRUMENT PARAMETERS=KBr Beam splitter; MCT Detector; Multipass cell
##STATE=gas
##SAMPLE DESCRIPTION=Ethyl Acrylate Primary Gas Standard
##PRESSURE=101.3 kPa
##TEMPERATURE=23 C
##SAMPLING PROCEDURE=1 L/min Flow
##RESOLUTION=0.9640
##DATA PROCESSING=Happ Genzel Apodization
##XUNITS=cm-1
##YUNITS=(micromol/mol)-1m-1 (base 10)
##XFACTOR=1.0
##YFACTOR=18.189E-13
##DELTAX=0.4820
##FIRSTX=575.169
##LASTX=3975.077
##FIRSTY=4.60E-07
##MAXX=3974.59
##MINX=575.17
##MAXY=.0020845
##MINY=-5.16E-07
##NPOINTS=7053
##XYDATA=(X++(Y..Y))
575.17 253368 244584 395254 483506 488070 428876
577.58 453286 525814 471792 333374 278856 377348
580.47 337602 351590 333616 245584 339848 508160
583.37 419754 345828 370610 287184 375310 295568
586.26 181396 248148 399842 469800 429222 330486
589.15 438382 591532 544826 571430 737634 735422
592.04 616684 674134 667786 643828 638662 670610
594.94 810686 942312 990788 961880 1035194 1299722
597.83 1490236 1570278 1680202 1714666 1740732 1944522
600.72 2208218 2470192 2626404 2737934 2814070 2878294
603.61 2994470 3131914 3157626 3206550 3291658 3212156
606.51 3119426 3097956 3127282 3307970 3625264 4089638
609.40 4644200 4970962 4481622 3899774 3721384 3798430
612.29 3948020 4100724 4250274 4416410 4566440 4626818
615.18 4615960 4618340 4642884 4505134 4347394 4269710
618.08 4092054 3896326 3746132 3620514 3463900 3300220
620.97 3178034 3093182 3003748 2927134 2868334 2753626
623.86 2609742 2549848 2471822 2415392 2392136 2330520
626.76 2271518 2278388 2243296 2240026 2211946 2088822
629.65 1985592 1892042 1843450 1771164 1638876 1564594
632.54 1554284 1564342 1572446 1541016 1510844 1554462
635.43 1562240 1578958 1658224 1740536 1778212 1859822
638.33 1976820 2028628 2163604 2293230 2340658 2382696
641.22 2519260 2674306 2787462 2916164 3032692 3182712
644.11 3356582 3481066 3687152 3927280 4202680 4431646
647.00 4591146 4857398 5127704 5327000 5598824 5891176
649.90 6191930 6460748 6701494 7049108 7423864 7753562
652.79 8081368 8369668 8645760 8911154 9186176 9456456
655.68 9728270 9962992 10235300 10402850 10408260 10484200
658.58 10603270 10810300 10958040 11064330 11122720 11178080
661.47 11340780 11498400 11611060 11725860 11788990 11828360
664.36 11905130 12028570 12106010 12139550 12151220 12143390
667.25 12113510 11980480 11827390 11683740 11474170 11180080
670.15 10914330 10659490 10356720 10027280 9712502 9392278
673.04 9002674 8626174 8339104 8049794 7689654 7381760
675.93 7178532 6976846 6816604 6651844 6507634 6426788
678.82 6299012 6078898 5883558 5716596 5502074 5235746
681.72 4968726 4676972 4369760 4092022 3821888 3526352
684.61 3296680 3146852 2916128 2691700 2494782 2318432
687.50 2195606 2027590 1884374 1767020 1700356 1657054
690.40 1537820 1447056 1350996 1260050 1171774 1115324
693.29 1100774 1064452 977192 884402 835242 809600
696.18 804872 791418 742156 698882 648752 603426
699.07 621842 631494 599546 564500 539638 524748
701.97 508260 513856 518820 533348 500090 467638
704.86 436644 456206 471806 456156 452732 450184
707.75 455228 460080 443128 426194 420786 421530
710.64 426188 449514 487978 538502 504818 426958
713.54 468234 522354 502782 495348 546564 584084
716.43 554388 502514 500250 511718 501844 497248
719.32 521468 543716 553846 553386 566820 588406
722.22 581688 579578 587048 582606 594660 600202
725.11 604684 587036 550030 570702 614020 606394
728.00 629326 637428 707176 752886 742000 717434
730.89 708696 719280 718756 715062 699538 717940
733.79 749284 770052 784080 810094 814768 805982
736.68 818576 859444 853698 837906 823014 822494
739.57 858580 898306 906432 923996 937052 941572
742.46 922910 935144 988604 1006502 998234 1024432
745.36 1050722 1034216 1030690 1051912 1073010 1088788
748.25 1115588 1153414 1192190 1197916 1192984 1218058
751.14 1225354 1198192 1224468 1254004 1284566 1342372
754.04 1340438 1336592 1381808 1411666 1400404 1415052
756.93 1443838 1472884 1512916 1539666 1548102 1581360
759.82 1633906 1687466 1711034 1703858 1745932 1810734
762.71 1826060 1868264 1941334 1990130 2060426 2134192
765.61 2204496 2265386 2352448 2480644 2590784 2650498
768.50 2730628 2867538 3020302 3149684 3275556 3400620
771.39 3562116 3726616 3920696 4149402 4340742 4539688
774.28 4799574 5024132 5275100 5554902 5843764 6151576
777.18 6471310 6797346 7128766 7504198 7886076 8279992
780.07 8699598 9112778 9512538 9983402 10487670 10980490
782.96 11447440 11879320 12362370 12900460 13493680 14113970
785.86 14765690 15563570 16467390 17366950 18238280 19123590
788.75 20040290 20900990 21734270 22621610 23568500 24546430
791.64 25584880 26633680 27603240 28467200 29456960 30589290
794.53 31808090 33032710 34251150 35456370 36615040 37793620
797.43 39006180 40221530 41495400 42773350 43946110 45037580
800.32 46272900 47695210 49252480 50927050 52800450 54717380
803.21 56518350 58242480 60423320 61875420 61794760 61535810
806.10 61628620 62145730 62743380 63333900 64124660 65228110
809.00 66478830 67956380 69808660 71700920 73115780 74100740
811.89 74455090 73956330 72698330 71688130 71148550 69970700
814.78 68516420 67290960 65703310 64047080 62868910 62335080
817.68 61593440 59858340 57819940 56573580 55721360 54531900
820.57 52800540 50704720 48643200 46827560 45419930 44127000
823.46 42815960 41550770 40252520 38958830 37677840 36380190
826.35 35071510 33753770 32434340 31125980 29843060 28594370
829.25 27390860 26182830 24942410 23794130 22741790 21711780
832.14 20698970 19726890 18854410 18002540 17183340 16454810
835.03 15770430 15185630 14609750 14086540 13662320 13262320
837.92 12891800 12596570 12344820 12171180 12055880 11972580
840.82 11915570 11922800 12026310 12127310 12250980 12426890
843.71 12625640 12902090 13211670 13518320 13883930 14266000
846.60 14689610 15144810 15602130 16074310 16566840 17064070
849.50 17560650 18048730 18541710 19064260 19588670 20078480
852.39 20505980 20902650 21303700 21714010 22079800 22408350
855.28 22741570 22994800 23082030 23054570 23018180 23017560
858.17 23026380 23058740 23193130 23395120 23549120 23600420
861.07 23561590 23522130 23516560 23511040 23448370 23336660
863.96 23153110 22932970 22665470 22304940 21941810 21542530
866.85 21103330 20643000 20153330 19655100 19159710 18655110
869.74 18191310 17716700 17220150 16738190 16262400 15793060
872.64 15284310 14751800 14211980 13673470 13165890 12660530
875.53 12152650 11655720 11186430 10757850 10342230 9951772
878.42 9584258 9227218 8907378 8613554 8326332 8054538
881.31 7821186 7655452 7511442 7356396 7236602 7125220
884.21 7028244 6984436 6968480 6936914 6901050 6929362
887.10 7037986 7140994 7226968 7370980 7554962 7743282
889.99 7968934 8213812 8464150 8739798 9020088 9325092
892.89 9609094 9859402 10114490 10355560 10573940 10754500
895.78 10896380 11036740 11147510 11233320 11327160 11439140
898.67 11607830 11742410 11833880 11943610 12017010 12073440
901.56 12169110 12285980 12426780 12581200 12720310 12845510
904.46 12966360 13094300 13224020 13367510 13485980 13586070
907.35 13681270 13782970 13867330 13942260 13965270 14010210
910.24 14062010 14084750 14105050 14095740 14056210 13991730
913.13 13885750 13737920 13545260 13331230 13095740 12809450
916.03 12518370 12243720 11960880 11725560 11559770 11482540
918.92 11456580 11431720 11346270 11165170 11016930 10971040
921.81 10993280 11059690 11118620 11124340 11066880 10945830
924.71 10771890 10537070 10231670 9889230 9547016 9209890
927.60 8889382 8588130 8289498 8018700 7771474 7558770
930.49 7408066 7280094 7183022 7128542 7112742 7113236
933.38 7150502 7223872 7298822 7393866 7519224 7664430
936.28 7864356 8102674 8369446 8656644 8963786 9312380
939.17 9692716 10128040 10620910 11178920 11755880 12361540
942.06 13047170 13792940 14573790 15403590 16297100 17241780
944.95 18230990 19266170 20366550 21503610 22664160 23897310
947.85 25182720 26494780 27821810 29161110 30559200 31975190
950.74 33379320 34811560 36288440 37759450 39206520 40622390
953.63 41993700 43290420 44567330 45889340 47257550 48658620
956.53 50097630 51585200 53161580 54811810 56674480 58906450
959.42 61803590 65732470 71198220 78522110 87279560 95416780
962.31 99483220 95805840 85201730 76005860 73469460 75652840
965.20 79903910 85428750 91674720 97341770 100115500 97596460
968.10 90135160 82713030 79838480 80005140 80979180 82140760
970.99 83276070 84325700 85290540 86174510 86971020 87694040
973.88 88375280 88975930 89442700 89832300 90156610 90377970
976.77 90536390 90626380 90668580 90659130 90630900 90548840
979.67 90404360 90166470 89927570 89648700 89369440 89195760
982.56 89211100 89541010 90324740 91694460 94066890 98064060
985.45 104352500 112439400 119287300 119652000 111844000 99290100
988.35 89033830 85175920 84820650 85501730 86483380 87318250
991.24 87355370 86073520 82725790 78054660 73566380 70129180
994.13 67952670 66381290 64956980 63573740 62094150 60538170
997.02 58926950 57275080 55623350 53993010 52339320 50676140
999.92 49004990 47323680 45639710 43985810 42350840 40743940
1002.81 39134830 37579520 36072260 34609650 33159980 31766770
1005.70 30434490 29163460 27974770 26880030 25859220 24938060
1008.59 24095030 23342630 22685740 22106020 21582980 21183010
1011.49 20829800 20552960 20391660 20263700 20205740 20278600
1014.38 20442590 20720490 21091950 21581110 22183540 22897440
1017.27 23691340 24608630 25658610 26850730 28181750 29632270
1020.17 31245230 33033530 34946690 37016880 39250120 41629920
1023.06 44166460 46855020 49645740 52617590 55711250 58854930
1025.95 62074240 65357210 68650980 71938310 75202260 78423290
1028.84 81564950 84608230 87442050 90098030 92507120 94628500
1031.74 96583720 98273600 99823370 101370900 102994500 104805900
1034.63 106618700 107887400 108234600 108227000 108712300 109778000
1037.52 111278900 113080100 114979800 116646600 117712300 118005400
1040.41 117508900 116359500 115016400 113895400 112869600 111417800
1043.31 109455100 106472100 103031200 100060200 97499810 95167880
1046.20 93109160 91190580 89339980 87568540 85868260 84349480
1049.09 83082500 82069780 81297660 80861750 80799430 81160520
1051.99 81893920 83029660 84598180 86562120 88939170 91730190
1054.88 94855870 98361860 102243900 106414300 110835800 115503100
1057.77 120406200 125405200 130346600 135159900 139863900 144283700
1060.66 148266700 151908400 155253300 158186900 160663100 162620400
1063.56 164275900 165698800 166942100 168251500 169735500 171544700
1066.45 173919300 176847700 179797300 182280100 184011300 184994000
1069.34 185697900 185267700 182460800 179633500 178634300 178977400
1072.23 179784600 180366700 180277700 179187600 177043700 173888600
1075.13 169586000 164218400 158282200 151866600 144732100 137412300
1078.02 130463500 123999200 117581800 111490800 105971000 100860500
1080.91 96078320 91683700 87708210 84085620 80773360 77717550
1083.81 75017800 72532770 70130910 67916860 65964510 64230470
1086.70 62674160 61376860 60365750 59587180 59021640 58635480
1089.59 58431670 58397310 58533670 58831430 59258160 59708820
1092.48 60201570 60746280 61244100 61695760 62084490 62320940
1095.38 62451050 62454180 62353390 62223290 62082360 61992240
1098.27 61968420 62048770 62243750 62493650 62599390 62474760
1101.16 62114240 61451790 60865260 60625640 60449960 60165840
1104.05 59799510 59425380 59084760 58788050 58419870 57928530
1106.95 57307060 56546200 55597870 54460480 53263930 52008240
1109.84 50612350 49161730 47709810 46229640 44758700 43358950
1112.73 41987720 40634870 39321410 38091020 36921730 35816530
1115.63 34761020 33749720 32783010 31894140 31060410 30264170
1118.52 29548570 28913550 28238750 27573320 27003430 26601580
1121.41 26386540 26263300 26152210 26070380 25966040 25809890
1124.30 25622680 25388750 25061630 24651230 24171340 23654900
1127.20 23117310 22573710 22039800 21497650 20969640 20465740
1130.09 19980280 19532040 19140670 18799000 18496880 18230010
1132.98 17975850 17744770 17530730 17377320 17265020 17169250
1135.87 17089580 17036380 17009290 17013370 17017310 17047760
1138.77 17110790 17180490 17264030 17368510 17468530 17571760
1141.66 17706300 17873360 18038250 18212000 18411940 18619790
1144.55 18827320 19029020 19264670 19513530 19745540 20005300
1147.45 20294850 20594880 20922910 21296770 21705600 22128750
1150.34 22579450 23080150 23600970 24177950 24800130 25446650
1153.23 26162920 26925000 27688280 28510100 29390870 30313250
1156.12 31293020 32347710 33457280 34629120 35846360 37179400
1159.02 38648210 40217540 41822660 43534830 45191900 46761120
1161.91 48609710 50825050 53279800 55987750 58900560 61970680
1164.80 65182150 68582070 72175260 75973350 80009740 84288680
1167.69 88684100 93073260 97488690 101910300 106222800 110525900
1170.59 114856200 119227100 123738100 128456200 133488800 138942800
1173.48 144878900 151434700 158672600 166626500 174828200 183046800
1176.37 192162700 202749400 214617000 227566400 241672500 257320900
1179.26 274628100 293477600 313716200 335556500 359300700 384998600
1182.16 412619900 442108000 473544100 506978000 542197400 579088400
1185.05 617329200 657216800 698110500 739319200 780438700 821015200
1187.94 860476500 898183400 933444200 965569600 993994000 1018460000
1190.84 1038690000 1055175000 1068181000 1078301000 1086186000 1092577000
1193.73 1098298000 1103650000 1109433000 1115972000 1123067000 1131209000
1196.62 1139287000 1141936000 1134088000 1125838000 1126886000 1133817000
1199.51 1141722000 1145976000 1144731000 1136421000 1119164000 1092387000
1202.41 1056322000 1011946000 960825000 904661800 846363000 788446800
1205.30 732035000 677416000 626004000 578818800 535429700 496147800
1208.19 461346000 430127300 401582200 375586900 352416700 331774000
1211.08 312969100 295731300 279823000 264640500 249832200 235431200
1213.98 221579000 208359800 195762200 183962500 173089400 162880300
1216.87 152991800 143646100 135268200 127807000 121067300 114661800
1219.76 108758300 103601500 99104100 95013860 91172410 87565230
1222.66 84248680 81216170 78351700 75596410 73040890 70670600
1225.55 68476360 66419810 64492020 62740920 61107430 59572610
1228.44 58148350 56821000 55600020 54492570 53490660 52576520
1231.33 51724670 50963910 50310340 49710190 49194040 48786610
1234.23 48411060 48058360 47770620 47507450 47152880 46721480
1237.12 46372530 46113760 45924800 45750160 45563790 45352280
1240.01 45079880 44769770 44451120 44135160 43836770 43594200
1242.90 43414330 43276100 43157410 43087720 43150140 43288590
1245.80 43401040 43551080 43839510 44278270 44869510 45583070
1248.69 46386000 47335580 48453020 49724490 51205420 52903220
1251.58 54841020 57063520 59585940 62464800 65721610 69381660
1254.48 73521250 78118930 83239190 88936940 95181910 101943200
1257.37 109299900 117245900 125731600 134758800 144237600 154093200
1260.26 164272500 174668700 185187100 195778000 206315700 216658100
1263.15 226672300 236502400 246048400 255176400 263936500 272473100
1266.05 280845700 289117700 297337500 305663600 314228000 322745400
1268.94 330970800 338768100 345636900 351263300 355758100 358905900
1271.83 360811600 362010800 362810500 363722000 364765200 365508400
1274.72 365681900 365330900 364689100 363648300 361410100 358056600
1277.62 354076900 349251500 342967700 334388400 321938500 306028400
1280.51 289928000 276618300 266870700 260741300 256946200 254647100
1283.40 250462200 241727500 232490800 224703500 217335500 210188900
1286.30 203389800 197128700 191595600 187062800 183793500 181905500
1289.19 181418500 182403300 184767700 188286000 192805200 198136200
1292.08 203929800 209948400 215836100 221294800 225900800 229323600
1294.97 231329600 231918100 231402600 229917600 227393700 224103800
1297.87 220891400 219678500 222146900 229713100 241657100 252392300
1300.76 248806600 233868100 227094900 230419300 237082700 243501000
1303.65 248224000 250426700 249934900 246676600 240807300 232562700
1306.54 222119600 209551300 195788000 182090300 169168700 157209000
1309.44 146172800 136166400 127165600 118975400 111632000 105020200
1312.33 99026740 93549600 88541290 83916470 79629220 75559490
1315.22 71686480 68008000 64556290 61335140 58293820 55398020
1318.12 52630720 49992460 47493140 45086060 42815480 40719190
1321.01 38762960 36921260 35196170 33564630 32050700 30626510
1323.90 29256650 27890150 26582740 25360930 24235990 23170970
1326.79 22151980 21196250 20290720 19416450 18577090 17764830
1329.69 17013290 16276540 15569950 14909000 14287360 13701080
1332.58 13148190 12633740 12182520 11748480 11320780 10944260
1335.47 10624730 10324130 10059240 9825270 9607986 9408012
1338.36 9234870 9054860 8893380 8777464 8671872 8553678
1341.26 8471340 8408440 8345022 8262274 8196892 8152878
1344.15 8113982 8069892 8043978 8005940 7970876 7951374
1347.04 7943242 7934178 7935960 7953028 7981480 8007948
1349.94 8046978 8098784 8162480 8252948 8354836 8483144
1352.83 8629442 8775142 8955986 9177052 9424958 9698198
1355.72 10013960 10356710 10723990 11119010 11571460 12068160
1358.61 12586880 13140240 13716960 14287890 14857040 15448820
1361.51 16030310 16560980 17024370 17445200 17802120 18052960
1364.40 18250590 18423600 18601520 18818080 19138070 19654990
1367.29 20421650 21233450 21769460 22141200 22606350 23151330
1370.18 23535350 23686670 23889860 24339790 25010730 25789050
1373.08 26641800 27537120 28429430 29312000 30217880 31097830
1375.97 31998700 32934230 33887550 34891540 36015230 37239410
1378.86 38598320 40097540 41759130 43586220 45556730 47685390
1381.76 49968560 52338200 54740420 57174970 59597340 61886690
1384.65 64092020 66210670 68122700 69763510 71245010 72611670
1387.54 73885930 75098560 76346720 77768900 79365900 80912160
1390.43 82240350 83223480 84205280 85764940 88234820 90656010
1393.33 92773860 95829420 99827710 104418000 109304000 114289100
1396.22 119217900 124097000 128945400 133888600 138965000 144255500
1399.11 149894900 155997400 162574700 169534100 176789600 184388200
1402.00 192108600 199843000 207465300 214566800 220833200 226204300
1404.90 230648500 234048100 236376700 237773300 238528700 238998200
1407.79 239352400 240323700 243235900 249341200 253839800 250338000
1410.68 244220100 240781100 239547400 239384500 239778600 240231700
1413.58 240436000 239993700 238448000 235886200 231773600 225820000
1416.47 219109700 212125500 204859400 197160600 188876900 180006200
1419.36 170675600 160912500 150768800 140507200 130237800 120071100
1422.25 110192800 100817800 92031920 83803900 76286680 69519400
1425.15 63445960 58033920 53275080 49124200 45535040 42479330
1428.04 39861880 37635270 35777600 34191760 32829770 31669630
1430.93 30691910 29859350 29163720 28564270 28071290 27674520
1433.82 27349630 27090530 26912370 26794640 26717110 26708830
1436.72 26778030 26861360 26958630 27115380 27298370 27501460
1439.61 27735000 27976770 28240990 28520440 28824300 29162100
1442.50 29482600 29792880 30110020 30413760 30702460 30988010
1445.40 31280760 31582510 31879980 32169540 32437680 32716470
1448.29 33058450 33453410 33882040 34410610 35053300 35771250
1451.18 36486790 37198580 37761700 38081440 38274600 38288410
1454.07 38175740 38005610 37881570 37878820 37977980 38132190
1456.97 38327560 38539930 38747420 38998600 39303870 39497590
1459.86 39533680 39567150 39688150 39917010 40279310 40811960
1462.75 41461370 42137640 42655280 42809750 42840020 42981810
1465.64 43198840 43424740 43588690 43646190 43596380 43480360
1468.54 43355520 43268340 43321750 43603940 44054110 44581240
1471.43 44545080 43522010 42320630 41474720 40965440 40693700
1474.32 40574850 40511510 40418330 40263160 40057600 39781930
1477.21 39412120 38926410 38378210 37771060 37082730 36313850
1480.11 35494640 34622460 33706720 32722370 31674660 30560100
1483.00 29390950 28176760 26943090 25730130 24595830 23585960
1485.89 22749490 22118680 21710490 21501640 21446820 21461440
1488.79 21482530 21452780 21372890 21208100 20936050 20577420
1491.68 20178530 19743810 19276490 18776240 18269210 17749630
1494.57 17249150 16760580 16260300 15765090 15298940 14857420
1497.46 14435210 14033330 13661150 13297240 12966300 12663790
1500.36 12366490 12071610 11803270 11557740 11321660 11082000
1503.25 10858100 10627090 10409930 10230650 10050260 9841298
1506.14 9661840 9495484 9313826 9146586 9008948 8879024
1509.03 8746914 8623512 8509620 8395780 8289894 8202712
1511.93 8129608 8034466 7929146 7844504 7771672 7700644
1514.82 7626900 7535100 7448108 7365558 7287484 7188776
1517.71 7093990 7004586 6909998 6832814 6748918 6647520
1520.61 6573878 6503764 6416750 6313550 6223882 6152696
1523.50 6066868 5979578 5897190 5822566 5733104 5626114
1526.39 5537408 5455774 5368662 5277652 5187118 5094138
1529.28 4998510 4906238 4820846 4752326 4685614 4609334
1532.18 4534778 4463906 4415036 4351944 4282120 4233800
1535.07 4187636 4139500 4089704 4038732 3999738 3970874
1537.96 3946720 3928004 3887010 3854268 3830484 3785220
1540.85 3744486 3733860 3731668 3702316 3687248 3668388
1543.75 3656808 3654438 3643010 3632468 3645164 3649194
1546.64 3653804 3660826 3668168 3659026 3670154 3695874
1549.53 3711754 3719478 3735648 3771686 3811018 3830892
1552.43 3851652 3889696 3930478 3981308 4015300 4043710
1555.32 4080264 4126258 4181170 4236346 4278050 4322992
1558.21 4372230 4404824 4429284 4453080 4468406 4473452
1561.10 4487494 4505086 4524584 4534770 4558248 4588238
1564.00 4627428 4670834 4698256 4721688 4737570 4749984
1566.89 4770234 4782108 4797266 4818646 4835436 4834106
1569.78 4816874 4789846 4767570 4738240 4709270 4687874
1572.67 4658102 4615592 4582244 4544546 4519082 4518282
1575.57 4523568 4500710 4483626 4479252 4475268 4472620
1578.46 4476708 4482446 4493454 4500730 4511106 4529546
1581.35 4554432 4558318 4562066 4572182 4600982 4626700
1584.25 4640310 4657240 4675992 4691262 4706206 4718424
1587.14 4744288 4767476 4793090 4811460 4831360 4866058
1590.03 4911300 4954978 5002072 5047230 5075938 5110802
1592.92 5169718 5230652 5294344 5362382 5451608 5528654
1595.82 5605822 5706098 5821068 5934344 6056532 6177598
1598.71 6305160 6427140 6566784 6720214 6890180 7076922
1601.60 7258620 7450648 7683460 7930694 8170500 8433336
1604.49 8735458 9054784 9396666 9762788 10134970 10526000
1607.39 10954170 11403470 11861220 12348440 12850210 13349400
1610.28 13878290 14438270 15011360 15602090 16227920 16876240
1613.17 17533390 18234350 18963510 19681930 20376060 21083680
1616.07 21814700 22504690 23195180 23899550 24572260 25194390
1618.96 25776950 26320140 26784490 27156450 27432350 27618480
1621.85 27762350 27886230 28014340 28196580 28462690 28871540
1624.74 29434310 30128180 30912470 31745070 32631100 33544160
1627.64 34461860 35378820 36326020 37340430 38425720 39564680
1630.53 40813700 42225970 43756100 45377830 47123410 49011410
1633.42 51018840 53109180 55164270 57086590 58806630 60244750
1636.31 61288350 61864050 61931700 61536900 60727560 59604530
1639.21 58396550 57324690 56674720 56645860 57095700 57200950
1642.10 55800120 53149720 51080820 50599740 51540620 53040570
1644.99 54070490 54373340 54833040 55857880 56844860 57221880
1647.89 56785210 55489650 53362080 50547460 47210830 43537960
1650.78 39666910 35771810 31967570 28379230 25087040 22115370
1653.67 19497600 17252560 15344730 13755280 12440530 11363930
1656.56 10515190 9852166 9305142 8835154 8466570 8158684
1659.46 7892638 7676904 7486694 7296274 7125246 6980004
1662.35 6865692 6753196 6640078 6551562 6471842 6392012
1665.24 6321130 6260992 6197712 6150110 6131930 6105774
1668.13 6074220 6060256 6049126 6039004 6036390 6049288
1671.03 6068752 6088460 6103094 6119480 6162786 6216536
1673.92 6261884 6315622 6377140 6419234 6472416 6537006
1676.81 6604364 6679366 6753572 6813198 6863540 6902044
1679.71 6935694 6972952 7018582 7067524 7122236 7192996
1682.60 7262662 7326176 7406868 7510528 7604078 7694890
1685.49 7796418 7896958 8020668 8159904 8283074 8410664
1688.38 8545250 8685576 8836658 8985912 9130056 9272802
1691.28 9428806 9602564 9778104 9950886 10125260 10311600
1694.17 10520380 10745140 10990970 11243980 11498610 11758660
1697.06 12032130 12323850 12624280 12936310 13255570 13561600
1699.95 13856360 14142190 14417760 14674070 14904960 15106040
1702.85 15254380 15353230 15417820 15439880 15440170 15433820
1705.74 15451530 15538750 15733100 16074850 16598930 17270940
1708.63 18052720 18899200 19753030 20576680 21354160 22086400
1711.53 22759740 23402130 24040760 24691930 25385480 26131800
1714.42 26954140 27824000 28761140 29807270 30970610 32265460
1717.31 33705120 35290070 37038170 38979500 41133720 43524600
1720.20 46135560 48975240 52048110 55376570 58973200 62816400
1723.10 66952550 71414490 76182180 81271530 86702360 92493830
1725.99 98709860 105328100 112336400 119761400 127655800 136077800
1728.88 144980400 154392500 164325300 174765200 185812800 197494300
1731.77 209794400 222661900 236110100 250277400 265157100 280802100
1734.67 297261700 314308200 332011300 350392400 369453600 389095900
1737.56 409185800 429803400 450662500 471411200 492075100 512271800
1740.45 531685200 549850200 566174300 580479000 592084100 600461600
1743.34 605192000 606194500 603485100 597093700 587917400 577135300
1746.24 566125300 556316900 549265200 545717600 545684000 548923500
1749.13 554631800 562087400 571502000 582718800 595007700 607720800
1752.02 619739800 629502700 635443600 636443400 632114500 622917200
1754.92 609620600 592741700 573157700 551806000 529383300 506437000
1757.81 483027500 459454000 436186200 413569700 391742600 370690300
1760.70 350396500 330963300 312655000 295274000 278671800 262880400
1763.59 247846900 233482600 219764200 206667200 194163200 182219400
1766.49 170849700 160025000 149623000 139745900 130416700 121565300
1769.38 113218000 105360300 97931460 90960120 84423340 78317800
1772.27 72671300 67444440 62540600 57987750 53829790 50009720
1775.16 46479400 43238520 40285600 37602990 35155830 32908480
1778.06 30850790 28995760 27302530 25749030 24341750 23059060
1780.95 21921630 20880430 19930100 19079380 18299060 17583080
1783.84 16949290 16369050 15820090 15318840 14849860 14426700
1786.74 14064910 13733140 13419780 13115720 12833790 12579990
1789.63 12336300 12106140 11914200 11721330 11523440 11349940
1792.52 11176010 10982290 10789070 10607980 10431220 10266900
1795.41 10106930 9941572 9772594 9629060 9487128 9334484
1798.31 9192426 9079372 8971522 8881018 8804132 8704588
1801.20 8609240 8541920 8482370 8406074 8335464 8280990
1804.09 8207098 8127398 8042968 7964204 7887120 7799476
1806.98 7705798 7615916 7528114 7445590 7360910 7270850
1809.88 7181836 7105300 7030602 6953048 6868962 6799076
1812.77 6728070 6653394 6592952 6539960 6493592 6443490
1815.66 6395004 6360366 6328372 6292260 6265940 6248892
1818.56 6234810 6220238 6214884 6223306 6232936 6237220
1821.45 6239334 6225316 6189134 6155212 6128538 6108766
1824.34 6081892 6050174 6021570 5999986 5983406 5966656
1827.23 5954704 5928526 5897098 5870086 5841476 5807684
1830.13 5769702 5726828 5681618 5645648 5617382 5561452
1833.02 5497286 5445094 5384864 5324748 5268584 5207218
1835.91 5141056 5080382 5039322 4991870 4949380 4916714
1838.80 4874820 4838742 4794968 4744158 4703296 4649270
1841.70 4574508 4493306 4417360 4341160 4268134 4196760
1844.59 4129848 4059042 3993534 3936996 3871136 3799764
1847.48 3730594 3680706 3624258 3562734 3504260 3435042
1850.38 3380424 3339558 3287114 3234688 3181670 3121130
1853.27 3068214 3019244 2985370 2950476 2904366 2875350
1856.16 2853046 2822752 2789252 2755046 2720632 2681234
1859.05 2656116 2634854 2609658 2583172 2552118 2522376
1861.95 2504110 2485830 2462306 2440990 2420438 2395688
1864.84 2373364 2371238 2359148 2347872 2345302 2346402
1867.73 2346064 2345922 2351884 2357560 2376736 2392018
1870.62 2399174 2410792 2426514 2453134 2494548 2533720
1873.52 2576116 2610170 2641220 2687464 2740542 2797292
1876.41 2854876 2910164 2972672 3028462 3097054 3163696
1879.30 3227522 3298564 3364456 3424794 3485706 3558902
1882.20 3638630 3706840 3763834 3820776 3886202 3949224
1885.09 4011796 4078836 4133870 4179846 4235992 4294280
1887.98 4342718 4377980 4408618 4435530 4453998 4473090
1890.87 4492256 4512436 4538558 4558716 4588682 4612764
1893.77 4618554 4622816 4627834 4650660 4672978 4677672
1896.66 4680612 4689722 4686598 4675078 4668676 4667630
1899.55 4652428 4634454 4615100 4594270 4570650 4557932
1902.44 4548864 4538968 4541228 4561320 4583970 4615454
1905.34 4654392 4683274 4720328 4771396 4836474 4918422
1908.23 5011836 5095548 5182492 5287178 5398900 5524464
1911.12 5661500 5797124 5926464 6079164 6247116 6423234
1914.02 6617860 6807990 6999352 7207412 7417542 7625666
1916.91 7846608 8069218 8295324 8529714 8766756 9006546
1919.80 9257214 9495166 9734392 9983850 10241020 10499390
1922.69 10758490 11040780 11348070 11684150 12050180 12421060
1925.59 12814010 13236810 13657280 14061010 14453270 14795270
1928.48 15047910 15238360 15368800 15414900 15370750 15263270
1931.37 15121540 14944460 14747620 14548160 14337430 14136870
1934.26 13941410 13710890 13438100 13156980 12915200 12747850
1937.16 12665230 12672480 12733550 12774500 12738050 12602740
1940.05 12369400 12047910 11667930 11218930 10724940 10220700
1942.94 9699430 9180226 8690162 8219564 7778086 7373164
1945.84 6997128 6661422 6359714 6098920 5869902 5662606
1948.73 5494664 5355200 5237444 5132710 5059166 5002566
1951.62 4936592 4868584 4824804 4800804 4807180 4824730
1954.51 4832488 4841910 4822446 4772736 4696984 4603694
1957.41 4496160 4391790 4285862 4167770 4057256 3952882
1960.30 3857274 3766276 3673388 3580964 3502058 3416520
1963.19 3349678 3302348 3244428 3178040 3123970 3079652
1966.08 3031870 2980768 2933146 2902088 2872366 2842042
1968.98 2808638 2772566 2746082 2727732 2712060 2695308
1971.87 2679884 2662834 2624462 2591600 2562772 2523214
1974.76 2495830 2475974 2459542 2437424 2414860 2403444
1977.66 2398458 2395646 2394250 2396014 2394490 2394760
1980.55 2396384 2398244 2411572 2411438 2409612 2410376
1983.44 2408272 2390004 2378722 2365122 2348036 2328814
1986.33 2318388 2315280 2307178 2299894 2286414 2272746
1989.23 2250756 2225006 2213226 2202248 2194282 2193656
1992.12 2190674 2184446 2182678 2173974 2153056 2130768
1995.01 2099258 2051924 2011194 1974880 1933480 1901292
1997.90 1863846 1816646 1770268 1729372 1691772 1668186
2000.80 1655956 1632528 1611530 1591460 1572904 1564148
2003.69 1559554 1544352 1524944 1515264 1523796 1525398
2006.58 1518854 1517062 1514610 1503072 1494868 1502356
2009.48 1509572 1504502 1496268 1506248 1512044 1515912
2012.37 1534396 1557266 1575376 1580046 1579610 1588890
2015.26 1612552 1633206 1639132 1657178 1678462 1691810
2018.15 1698866 1712070 1727876 1749258 1774980 1795264
2021.05 1818192 1841914 1850432 1877476 1909378 1936448
2023.94 1958880 1990316 2028524 2059082 2090682 2130602
2026.83 2163982 2198256 2243104 2294142 2338028 2374972
2029.72 2410772 2453738 2502826 2560102 2612640 2668844
2032.62 2733876 2807934 2877478 2937366 3015250 3102862
2035.51 3198284 3298782 3400512 3498508 3609818 3741932
2038.40 3862542 3991758 4133102 4281810 4456432 4638758
2041.29 4806910 4976016 5156060 5345556 5535140 5721210
2044.19 5908298 6096092 6281950 6454154 6622556 6780294
2047.08 6926466 7070424 7213174 7351946 7472788 7590362
2049.97 7704526 7819884 7919362 8017236 8131204 8236846
2052.87 8338634 8442872 8538542 8612788 8673950 8720854
2055.76 8755220 8784248 8828332 8860698 8858542 8840102
2058.65 8812298 8746678 8646828 8516090 8359910 8196322
2061.54 8011082 7811848 7632670 7464630 7280112 7099384
2064.44 6931238 6774426 6625788 6478462 6340218 6200164
2067.33 6057100 5922830 5792926 5659502 5528014 5386172
2070.22 5244934 5103430 4957212 4820826 4698234 4581886
2073.11 4472028 4361726 4251144 4152002 4050058 3948002
2076.01 3860904 3780484 3707978 3636964 3557580 3488832
2078.90 3436272 3380998 3322118 3258470 3220304 3192976
2081.79 3156194 3131342 3116902 3099880 3066522 3045342
2084.69 3054826 3056358 3050882 3041756 3043700 3049744
2087.58 3053418 3062178 3068438 3064566 3066760 3064314
2090.47 3059272 3064746 3064276 3065942 3067898 3057130
2093.36 3053792 3053500 3040734 3017336 2991912 2979468
2096.26 2975844 2964954 2949546 2942702 2931248 2899022
2099.15 2880810 2862602 2841240 2830584 2805582 2778146
2102.04 2751844 2712278 2687122 2668880 2626608 2588540
2104.93 2556360 2529930 2506700 2474176 2441210 2426016
2107.83 2418836 2389296 2367736 2357150 2346448 2348692
2110.72 2345456 2336264 2332558 2328370 2335088 2344026
2113.61 2342286 2341228 2345482 2346878 2353844 2364548
2116.51 2379086 2404490 2412572 2403822 2405070 2406350
2119.40 2411752 2419082 2421838 2427028 2434396 2427530
2122.29 2427968 2435902 2427822 2428064 2440150 2438584
2125.18 2435094 2439478 2432176 2414940 2415096 2426768
2128.08 2432616 2422030 2412296 2410086 2395474 2382066
2130.97 2364714 2353194 2344580 2333296 2306056 2278018
2133.86 2263564 2253676 2235100 2219110 2201284 2181614
2136.75 2163046 2146628 2125388 2083396 2056600 2045352
2139.65 2032108 2020128 2000032 1986190 1967722 1937784
2142.54 1907142 1889652 1882106 1872964 1847722 1822004
2145.43 1802862 1793896 1771426 1745752 1727348 1721674
2148.33 1718144 1706926 1687506 1663170 1650910 1648088
2151.22 1644656 1644358 1637470 1626072 1626484 1631566
2154.11 1631566 1629138 1633856 1630814 1642862 1666274
2157.00 1671818 1662648 1662864 1682924 1699224 1706640
2159.90 1709866 1721390 1726472 1714762 1719178 1720500
2162.79 1723024 1730644 1724946 1710758 1685386 1666272
2165.68 1655048 1637688 1617244 1601430 1582108 1563318
2168.57 1546228 1529064 1522596 1501492 1468448 1447368
2171.47 1425050 1400308 1381870 1365902 1340264 1312400
2174.36 1286682 1256704 1219140 1181902 1153202 1118704
2177.25 1088562 1060434 1038548 1007302 964824 945948
2180.15 941594 929314 916954 909094 892938 877816
2183.04 874358 873254 876670 877008 869700 870586
2185.93 866128 856796 864412 872990 874896 876122
2188.82 867048 858312 866900 879466 890476 889902
2191.72 885732 891780 906468 898840 887240 890822
2194.61 892454 878098 878108 898562 899622 891672
2197.50 889306 904430 909158 892202 875758 874452
2200.39 875484 877458 866814 855844 853406 851194
2203.29 846952 846898 834456 826052 836500 830816
2206.18 819884 808536 808572 821158 813344 803922
2209.07 807204 810876 815370 810462 801092 796504
2211.97 793200 799182 809404 817382 810108 791080
2214.86 789170 799872 808876 811456 825900 837904
2217.75 837090 838830 840956 862580 876732 870062
2220.64 868326 885158 901220 908566 918560 931798
2223.54 934428 931772 937604 942068 940708 945202
2226.43 941518 925554 915300 926272 941250 931724
2229.32 926736 948200 960240 963908 973852 997144
2232.21 1005378 1011106 1021242 1027814 1031984 1022660
2235.11 1016564 1028806 1029152 1019698 1015590 1015348
2238.00 1009864 1002700 1007080 1006910 1001470 1004758
2240.89 1008244 1010410 1008576 1008518 1003256 1010484
2243.79 1025672 1034688 1029636 1024178 1031942 1028140
2246.68 1037476 1034312 1032518 1031586 1023674 1023370
2249.57 1022986 1023996 1023726 1007348 1002566 1015954
2252.46 1006766 994762 998280 991764 986504 985388
2255.36 994084 998608 1002282 1002744 1000068 1010992
2258.25 1013434 1011692 1015266 1025088 1029694 1026674
2261.14 1028010 1031298 1037776 1046968 1054108 1060320
2264.03 1073878 1081632 1079586 1072668 1071562 1067300
2266.93 1070806 1075140 1063570 1055822 1063634 1070070
2269.82 1061950 1052732 1047982 1047544 1043178 1048740
2272.71 1050110 1042978 1043194 1059754 1068944 1061944
2275.61 1049388 1030694 1037666 1050472 1048512 1043720
2278.50 1032636 1031268 1045694 1046580 1042010 1043176
2281.39 1041514 1043128 1035076 1030230 1022566 1012202
2284.28 1012190 1014188 1009356 1008820 1009894 1010158
2287.18 1010870 1013048 1019250 1029368 1032622 1019256
2290.07 998994 999184 1011562 1027088 1048332 1058688
2292.96 1066746 1075570 1076138 1083898 1096050 1107986
2295.85 1122918 1133290 1140338 1165954 1184254 1193352
2298.75 1208662 1224542 1232192 1234248 1255238 1284708
2301.64 1304938 1309402 1315262 1332462 1356240 1371776
2304.53 1384762 1400054 1414898 1431030 1452300 1481266
2307.43 1499466 1523844 1534872 1541454 1559648 1573584
2310.32 1602652 1621174 1631794 1641562 1661214 1691256
2313.21 1698316 1699534 1701076 1706138 1709640 1712324
2316.10 1707910 1710370 1701486 1705034 1714504 1708664
2319.00 1700848 1705180 1711868 1717344 1725508 1710392
2321.89 1697976 1711200 1696516 1671098 1682990 1700198
2324.78 1690726 1672718 1670436 1661842 1633710 1606832
2327.67 1589746 1581902 1567514 1539894 1536220 1536370
2330.57 1495402 1455548 1448504 1439382 1409568 1381904
2333.46 1378986 1369348 1343936 1335052 1327374 1295616
2336.35 1271818 1281052 1286204 1275052 1268356 1278044
2339.24 1254604 1216558 1207804 1193514 1161562 1159230
2342.14 1155044 1110506 1089556 1101446 1090194 1068542
2345.03 1068990 1074872 1077208 1076322 1068508 1071964
2347.92 1081468 1095118 1122896 1148380 1152972 1158592
2350.82 1180668 1201006 1232954 1265056 1281994 1307354
2353.71 1352458 1387898 1421428 1472954 1508508 1532214
2356.60 1585492 1630566 1660826 1718404 1744626 1759212
2359.49 1811174 1840402 1861736 1905664 1920232 1949782
2362.39 2001612 2022566 2067140 2093636 2117618 2174492
2365.28 2192266 2227714 2281138 2321872 2378676 2424664
2368.17 2473838 2541990 2583172 2624642 2680768 2726894
2371.06 2772194 2818818 2876354 2923214 2976806 3029274
2373.96 3082344 3123982 3160010 3206532 3254206 3293210
2376.85 3342532 3403726 3457894 3510954 3558490 3605600
2379.74 3646766 3680838 3729852 3777224 3800358 3830024
2382.64 3859118 3885964 3909024 3914172 3908880 3919474
2385.53 3946380 3974056 3993732 3988424 3972510 3964478
2388.42 3956306 3937406 3918568 3908238 3881394 3842522
2391.31 3815848 3779140 3714150 3642678 3584152 3535396
2394.21 3467176 3373802 3274274 3179198 3090372 3004012
2397.10 2907318 2821164 2740406 2653818 2586792 2532192
2399.99 2464348 2391566 2323996 2260990 2202656 2150406
2402.88 2101444 2056440 2002218 1964396 1923252 1881590
2405.78 1845704 1801856 1762608 1740054 1722178 1700410
2408.67 1672258 1649866 1634840 1623442 1618440 1604730
2411.56 1571018 1555712 1567862 1570388 1558118 1548004
2414.46 1538990 1533394 1529424 1529426 1522868 1514908
2417.35 1502218 1486582 1487706 1478890 1466778 1465082
2420.24 1458358 1446968 1447438 1446080 1425920 1416646
2423.13 1416978 1411012 1398056 1384748 1379910 1371098
2426.03 1359396 1343072 1329466 1302514 1270154 1250790
2428.92 1227176 1207170 1189264 1160496 1143958 1115612
2431.81 1093606 1083770 1058034 1032736 1035426 1016724
2434.70 996186 978582 941440 911314 904024 901454
2437.60 881828 864168 849936 831140 809912 795084
2440.49 789022 784422 769756 754768 749950 740456
2443.38 731492 721380 700676 682550 683986 688944
2446.28 672618 660662 657740 662536 671594 679344
2449.17 674384 665056 651420 643012 642380 642066
2452.06 654096 667448 671038 677318 674016 678432
2454.95 691614 685814 683034 698798 727742 750036
2457.85 745782 740020 758056 777956 792070 808840
2460.74 826946 838680 856850 872430 876480 900492
2463.63 932570 949692 979602 1017702 1047296 1074232
2466.52 1096110 1103482 1109290 1133610 1156900 1171950
2469.42 1206518 1234310 1244468 1258830 1280404 1305316
2472.31 1324204 1333390 1344678 1369720 1384292 1389300
2475.20 1402400 1426234 1440710 1436124 1455618 1479554
2478.10 1485596 1480882 1489618 1504074 1517996 1524010
2480.99 1524340 1512828 1496616 1497104 1513584 1509618
2483.88 1489660 1483652 1501276 1496952 1475370 1470936
2486.77 1469248 1473138 1464086 1434370 1435188 1446888
2489.67 1436010 1431280 1437022 1419992 1395262 1385460
2492.56 1376768 1366226 1351480 1336980 1330694 1318700
2495.45 1317232 1315324 1310918 1307020 1289426 1272322
2498.34 1263952 1255970 1245698 1227094 1215162 1199632
2501.24 1182392 1160224 1139362 1139570 1116212 1099482
2504.13 1090050 1050950 1029924 1020562 1011512 995028
2507.02 969372 955874 932466 901962 901430 889552
2509.92 866980 868446 859232 847454 839728 817988
2512.81 812944 806898 786994 780764 788482 790192
2515.70 761830 737204 726622 734156 745312 738982
2518.59 724352 726762 739052 739104 742018 735954
2521.49 723128 726900 732796 745352 743660 744660
2524.38 759874 773648 783460 793610 801722 793988
2527.27 807574 823464 824834 830458 837932 845866
2530.16 864592 881802 895368 911042 907414 925482
2533.06 940696 945380 957494 976132 1005042 1010960
2535.95 1016700 1033414 1052918 1050942 1035422 1037254
2538.84 1058352 1061866 1057390 1075498 1089364 1102886
2541.74 1097036 1089720 1095852 1100692 1105056 1122752
2544.63 1138246 1132420 1115476 1113510 1117276 1121488
2547.52 1125820 1131656 1133060 1121246 1110788 1113894
2550.41 1111996 1110130 1120302 1118346 1107994 1119874
2553.31 1133288 1126436 1115642 1108844 1104026 1107372
2556.20 1100820 1087926 1084862 1077036 1067808 1043684
2559.09 1011050 1003856 1003360 985344 955254 934532
2561.98 926964 906458 891696 884324 871852 847962
2564.88 829066 819258 819620 815874 799150 795082
2567.77 786908 782170 769476 749238 729108 713688
2570.66 695022 678786 655136 629072 607522 591676
2573.56 580916 572338 554214 549338 539600 534596
2576.45 527344 530926 523986 520866 525238 523264
2579.34 517410 523954 537220 530674 507808 494546
2582.23 506256 521564 519750 518930 535120 544380
2585.13 558166 574618 570492 577982 609758 635646
2588.02 641792 644538 650772 661736 675686 690632
2590.91 706094 725532 745594 764040 770406 780492
2593.80 793374 809028 822622 830312 841186 855338
2596.70 865488 875788 882036 894796 906378 917536
2599.59 944720 940736 934680 953614 967160 974020
2602.48 985354 990496 989300 991788 987688 980092
2605.37 984888 990946 988628 981334 966042 955196
2608.27 944166 932038 939674 950138 967966 983960
2611.16 968880 955910 952278 947234 949362 950290
2614.05 934694 935440 932870 910212 889690 882348
2616.95 868708 862200 861202 858520 847018 834156
2619.84 828412 816890 803674 795600 786526 778232
2622.73 758986 754794 767544 756434 742484 733090
2625.62 729062 711596 695446 691840 688124 689540
2628.52 681872 659966 658292 669390 672348 676988
2631.41 671344 666650 664142 656136 650226 650784
2634.30 651466 649614 646008 649948 664244 679080
2637.19 688456 689788 692158 703366 695252 702748
2640.09 729110 741602 735058 721450 728524 750876
2642.98 752630 755594 768836 780070 796628 796164
2645.87 791276 802498 802040 805900 833908 854062
2648.77 857172 852542 873504 895384 897116 899040
2651.66 900562 905100 916808 934626 938352 933806
2654.55 948446 970562 967320 971718 993650 1005832
2657.44 1008492 1016376 1036006 1068656 1073298 1064762
2660.34 1070238 1093674 1078536 1069444 1093310 1093702
2663.23 1088232 1092016 1087092 1084418 1082114 1098312
2666.12 1106342 1097066 1097594 1104704 1118908 1121386
2669.01 1122328 1123500 1112048 1126414 1136240 1130490
2671.91 1146698 1152240 1130570 1111582 1114820 1106444
2674.80 1108506 1103828 1081664 1087010 1084610 1046712
2677.69 1029086 1032138 1033516 1047336 1054212 1039844
2680.59 1029246 1027858 1011024 1007676 1035574 1038950
2683.48 1041018 1037628 1020450 1032580 1051012 1045198
2686.37 1041828 1054558 1049214 1036368 1046750 1056898
2689.26 1063810 1085592 1105198 1111932 1105372 1106216
2692.16 1144780 1180336 1185404 1195424 1222846 1246820
2695.05 1269392 1288088 1335666 1378794 1397842 1414784
2697.94 1435208 1457650 1487602 1506682 1506976 1501090
2700.83 1523268 1563492 1572080 1570746 1566260 1571446
2703.73 1598120 1599838 1592036 1602510 1622334 1642050
2706.62 1639764 1631416 1639382 1644684 1638292 1618996
2709.51 1624346 1637948 1612296 1592110 1580720 1573880
2712.41 1578662 1559840 1533916 1518486 1503182 1496430
2715.30 1485770 1466466 1452548 1429546 1409060 1411868
2718.19 1416324 1430078 1433802 1429970 1442326 1453814
2721.08 1447186 1446906 1454402 1444362 1423298 1438244
2723.98 1448710 1461544 1462974 1441990 1443752 1460630
2726.87 1461292 1460392 1462748 1479504 1503614 1508072
2729.76 1515082 1515038 1528318 1542350 1556066 1579348
2732.65 1606642 1640232 1643900 1636726 1626964 1597372
2735.55 1581634 1591558 1580630 1572670 1563372 1539556
2738.44 1523046 1504666 1483900 1470666 1449162 1452620
2741.33 1454680 1449234 1422722 1407118 1407476 1414022
2744.23 1430020 1433414 1425610 1430972 1446968 1459076
2747.12 1465186 1484600 1506094 1522540 1513292 1504920
2750.01 1517516 1535286 1548294 1543168 1548690 1556872
2752.90 1554210 1551952 1551178 1559426 1573448 1581560
2755.80 1571384 1573982 1602958 1626814 1632346 1664422
2758.69 1727952 1777496 1795658 1795280 1807000 1841690
2761.58 1869214 1896750 1945300 1980656 1989950 2013258
2764.47 2045836 2077830 2118640 2140810 2146144 2157056
2767.37 2176884 2191912 2201256 2214430 2218592 2227522
2770.26 2231632 2235412 2252678 2252370 2248040 2255654
2773.15 2230272 2197310 2180876 2175054 2162308 2138900
2776.05 2120476 2106618 2096114 2086000 2065068 2053972
2778.94 2035348 1990052 1956954 1926076 1882364 1846480
2781.83 1820770 1775320 1727482 1700648 1687500 1667212
2784.72 1621690 1584592 1570068 1553378 1524490 1512864
2787.62 1506944 1501846 1510284 1521678 1521392 1521494
2790.51 1525390 1519150 1518322 1531560 1561370 1570616
2793.40 1564664 1559138 1579080 1610564 1628766 1622196
2796.29 1628858 1636730 1627184 1637984 1656612 1671792
2799.19 1703406 1718618 1719550 1724036 1736448 1753432
2802.08 1774936 1803384 1826982 1842516 1856874 1885840
2804.97 1913394 1928694 1954316 1990596 2009528 2039014
2807.87 2067996 2090038 2120208 2143668 2156802 2185508
2810.76 2235732 2262306 2312812 2349746 2383706 2437560
2813.65 2479700 2509378 2541194 2602298 2676602 2745324
2816.54 2818874 2872310 2914350 2960334 3039564 3113158
2819.44 3178010 3253336 3313316 3347806 3388048 3427664
2822.33 3459482 3497020 3516392 3533658 3555476 3560364
2825.22 3561858 3582114 3592618 3593212 3611256 3637010
2828.11 3647296 3660934 3695928 3711124 3711186 3725562
2831.01 3742912 3767218 3795576 3820486 3808684 3786104
2833.90 3779696 3782444 3765550 3754056 3744382 3717224
2836.79 3710138 3721144 3738448 3748660 3724902 3705112
2839.69 3718852 3736702 3739884 3730388 3719058 3714776
2842.58 3741182 3770424 3773486 3794028 3815712 3832512
2845.47 3857160 3876566 3891316 3900348 3906016 3921924
2848.36 3956124 3987150 4001772 4031786 4041680 4061154
2851.26 4104276 4122740 4150932 4182148 4208758 4244296
2854.15 4281444 4328978 4378228 4410682 4452358 4482790
2857.04 4515000 4554984 4575796 4602834 4642144 4676880
2859.93 4729170 4772270 4796218 4837764 4893618 4960236
2862.83 5028046 5093192 5184948 5297264 5406270 5494802
2865.72 5593538 5717184 5817052 5926856 6087298 6257324
2868.61 6414926 6576600 6788982 7007652 7236858 7498614
2871.51 7784386 8117358 8468796 8845038 9247388 9714770
2874.40 10222190 10733940 11309630 11946560 12618750 13313320
2877.29 14020900 14738590 15467770 16188170 16873220 17526330
2880.18 18128500 18663090 19066930 19401070 19669630 19845900
2883.08 19960530 20094550 20271140 20480140 20724250 20985940
2885.97 21258940 21555070 21872360 22195630 22519030 22832390
2888.86 23108070 23364590 23601930 23815930 23985380 24140030
2891.75 24252050 24318660 24312290 24309630 24305900 24288460
2894.65 24224210 24145190 24089920 24066140 24070060 24082360
2897.54 24088880 24147020 24250190 24379400 24540620 24762100
2900.43 25019220 25333620 25705770 26122900 26504060 26853780
2903.32 27218010 27599340 27962740 28325940 28720880 29133390
2906.22 29546120 29950960 30358440 30776530 31157620 31546890
2909.11 31943980 32275610 32569930 32849150 33097510 33353980
2912.00 33607310 33822330 33983430 34155550 34315400 34392860
2914.90 34398610 34338230 34120530 33792590 33369730 32924910
2917.79 32542290 32217510 31905930 31655060 31504040 31426200
2920.68 31392490 31394340 31431430 31519630 31597370 31629500
2923.57 31613730 31622700 31557420 31417110 31276390 31101540
2926.47 30904890 30720300 30519240 30320090 30159970 30045470
2929.36 29988990 29956840 29998410 30172480 30458270 30844260
2932.25 31335030 31969430 32709390 33528080 34419250 35425980
2935.14 36521840 37657800 38807490 39991490 41160240 42281660
2938.04 43334180 44275190 45102500 45812370 46478170 47128300
2940.93 47806500 48593850 49529110 50650230 51727960 52322500
2943.82 52518840 52695510 53045760 53551800 54214800 55053450
2946.72 56013210 57014200 57965780 58786650 59035080 58627320
2949.61 58080460 57710130 57492510 57315220 57138600 56992020
2952.50 56761660 56461560 56170020 55880120 55684220 55537300
2955.39 55160820 54449130 53575350 52926860 52564620 52325520
2958.29 52181100 52170840 52170090 52217010 52221450 52182360
2961.18 52234190 52585710 53059660 53476780 54051910 54882640
2964.07 55979400 57034750 57651320 57607530 57162010 56832780
2966.96 56868430 57312320 57990480 58840140 59887890 60912370
2969.86 61808000 62680580 63696820 64976230 66571460 68430140
2972.75 70471970 72712300 75155730 77794620 80597080 83541600
2975.64 86581890 89783320 93019630 96281140 99626790 102950400
2978.54 106227800 109483000 112776600 116132400 119602300 123328400
2981.43 127447300 132050500 136800300 140589200 141965500 141410500
2984.32 141120800 141486600 141975400 142515700 143038500 143458700
2987.21 143834100 144366200 145278600 146633500 148212300 149158000
2990.11 148974800 148514600 148919100 150536700 153174500 156870300
2993.00 161786200 169122300 180683700 191971100 191146900 178050200
2995.89 164429000 155198900 148723900 143641800 139262100 135323100
2998.78 131745500 128399900 125239700 122060800 118756600 115449000
3001.68 112235800 109211800 106267100 103284600 100245800 97181760
3004.57 94268460 91530020 89030030 86770590 84681380 82582860
3007.46 80572790 78778220 77091160 75349060 73443110 71423670
3010.36 69255860 66941140 64587000 62190840 59736760 57271480
3013.25 54830980 52421930 50030970 47680260 45429090 43247150
3016.14 41159110 39183160 37320620 35540080 33848580 32257940
3019.03 30770540 29333960 27941690 26626720 25419290 24283810
3021.93 23222800 22207290 21237440 20374520 19588470 18839280
3024.82 18153230 17525670 16954750 16451670 16011380 15579860
3027.71 15162380 14793190 14458310 14143200 13874340 13671670
3030.60 13530640 13382700 13258560 13195060 13150820 13153790
3033.50 13199030 13223570 13266610 13341020 13466830 13659390
3036.39 13870980 14115050 14437100 14827420 15236730 15678410
3039.28 16188810 16713470 17214270 17720660 18213870 18615970
3042.18 18960380 19257020 19446370 19520910 19515470 19429610
3045.07 19240530 18975970 18753110 18558900 18430230 18406610
3047.96 18479970 18634200 18722890 18486330 17991580 17603640
3050.85 17490890 17563440 17687810 17839420 17999850 18114190
3053.75 18127080 18008930 17766050 17365680 16811420 16192590
3056.64 15492810 14722090 13925740 13120070 12347160 11603620
3059.53 10878610 10210890 9606700 9039634 8541188 8129236
3062.42 7785108 7465490 7184172 6951614 6743434 6576200
3065.32 6436908 6317706 6237038 6206756 6186512 6171466
3068.21 6172846 6190442 6198208 6233140 6293672 6348904
3071.10 6408864 6482950 6569952 6662556 6716784 6773478
3074.00 6866896 6943416 7023238 7102860 7160090 7196370
3076.89 7250750 7306302 7341024 7365100 7408774 7422852
3079.78 7380352 7337380 7287428 7237150 7198526 7132196
3082.67 7050228 7035006 7033260 7031910 7047934 7022036
3085.57 6966852 6954796 6981426 7050576 7120606 7118412
3088.46 7071812 7041942 6956764 6820798 6686634 6525410
3091.35 6370112 6240252 6092458 5918774 5751424 5609612
3094.24 5489724 5389200 5287888 5220796 5175264 5146316
3097.14 5150532 5175256 5238528 5351658 5504806 5678318
3100.03 5915754 6251038 6627394 7041120 7533348 8125970
3102.92 8778278 9442250 10193510 11027490 11886750 12753310
3105.82 13601020 14387380 15035350 15548610 15915910 16064890
3108.71 15947680 15624780 15040430 14249380 13417570 12708980
3111.60 12382810 12685380 13692520 14899560 15382070 15584460
3114.49 16166630 16010490 14736000 13632700 13622590 14266280
3117.39 15004840 15604320 16030000 16248430 16209180 15930720
3120.28 15464350 14805530 13988240 13046940 12065720 11104530
3123.17 10181090 9276336 8375936 7557752 6848628 6208834
3126.06 5647754 5155216 4746680 4409730 4104146 3826804
3128.96 3584486 3399734 3240446 3116786 3029876 2932742
3131.85 2821528 2761118 2702128 2633056 2559302 2476572
3134.74 2416910 2378004 2334342 2291734 2252756 2235902
3137.64 2197786 2155570 2126398 2085958 2065054 2041790
3140.53 2030636 2033086 2027648 2033420 2045604 2034494
3143.42 2019876 2044010 2068328 2061188 2048002 2058076
3146.31 2066634 2085572 2112772 2110480 2103464 2113800
3149.21 2123386 2133358 2150604 2152810 2143286 2141302
3152.10 2148310 2132062 2112662 2107252 2107798 2117892
3154.99 2122022 2107582 2088558 2079452 2077118 2079914
3157.88 2049462 2018564 2033804 2029976 2004074 1997878
3160.78 1992228 1972994 1940874 1921534 1908324 1889382
3163.67 1878264 1861726 1860588 1857138 1851972 1824468
3166.56 1793348 1781990 1769188 1750120 1723898 1692372
3169.46 1706652 1696144 1674484 1672308 1653156 1631408
3172.35 1611184 1615892 1614830 1579212 1563822 1559012
3175.24 1536902 1497752 1480996 1492684 1502286 1486650
3178.13 1454664 1437424 1419142 1406012 1399000 1380802
3181.03 1357694 1359992 1398866 1389006 1323432 1313118
3183.92 1333184 1312190 1267400 1247470 1243618 1236146
3186.81 1260000 1242038 1209810 1199852 1194974 1174920
3189.70 1151222 1158494 1165838 1150166 1134978 1155032
3192.60 1142548 1094818 1085718 1113274 1119150 1099128
3195.49 1073018 1040996 1036260 1046034 1040208 1054780
3198.38 1055502 1039916 1024942 1014516 1022748 1034570
3201.27 1020592 995730 988692 1017050 1020142 978616
3204.17 969452 970378 968224 974916 982732 959818
3207.06 948062 926000 917032 932862 945240 913784
3209.95 895466 922656 924258 916864 936786 913368
3212.85 904996 919010 906656 901494 906964 904920
3215.74 902940 921490 923698 924976 920636 882440
3218.63 877142 894352 916784 926422 913046 918246
3221.52 930402 932234 915270 924998 940672 966658
3224.42 978128 974490 967832 970050 976730 989190
3227.31 1010304 1014468 990186 978506 996226 1010444
3230.20 1015190 1022828 1018492 1019302 1026782 1041592
3233.09 1046282 1059372 1072992 1085670 1077486 1057306
3235.99 1054532 1039160 1050692 1056234 1043254 1052308
3238.88 1056330 1045722 1031096 1029142 1046172 1060152
3241.77 1063090 1056214 1047298 1059718 1075110 1049246
3244.67 1035046 1016370 1016112 1004856 973912 954706
3247.56 957122 973838 960714 921118 900726 891852
3250.45 865620 841692 847876 842470 805594 779340
3253.34 758234 723868 704086 683816 687470 681796
3256.24 663714 662922 655728 611954 577640 543096
3259.13 511582 501040 477050 468734 475660 435254
3262.02 385480 384646 384948 368730 331766 313972
3264.91 314002 285384 281000 289962 262892 229906
3267.81 230986 241766 212784 184766 174962 181082
3270.70 162024 138828 153032 156656 131178 117820
3273.59 98172 93380 116802 135308 114476 115908
3276.49 106030 106632 107452 117960 102212 66620
3279.38 67660 86212 95742 88264 67958 27208
3282.27 8888 18770 9184 3170 21456 35384
3285.16 52902 56816 38304 10380 5742-3308
3288.06 2946 4954-5106 10484 1220-38736
3290.95-39580-22948-26000-38338-36062-17326
3293.84-12888-40776-63968-46504-38030-34690
3296.73-55052-82636-77060-77980-60470-57688
3299.63-53710-46176-41364-18412-9892-11274
3302.52-23700-23528-15032-12242-8218 4596
3305.41 36214 54516 48358 57426 58848 55844
3308.31 61428 64994 63408 103658 136650 136344
3311.20 143764 165590 148426 116798 139554 187806
3314.09 196898 190016 196126 193682 217102 223300
3316.98 206776 181200 188498 232596 254450 229788
3319.88 234508 234270 241544 241536 241264 259044
3322.77 268464 260720 273248 296290 289722 273258
3325.66 272736 271488 276222 282370 288990 313368
3328.55 333968 326636 324146 337622 334666 325526
3331.45 336396 337284 349054 356734 330606 334794
3334.34 336920 351790 378000 380104 350592 330022
3337.23 359858 373502 365110 369242 380122 382340
3340.13 387824 391598 387658 399746 423546 416932
3343.02 420668 451664 469920 475048 472842 478036
3345.91 481052 468862 483116 490802 506070 518586
3348.80 551380 570812 590896 593806 611012 613576
3351.70 580528 573776 611494 639558 659312 685706
3354.59 692486 683350 683956 694246 720982 743112
3357.48 750036 758590 759802 783030 801874 812198
3360.37 809648 821648 836960 828918 849398 871528
3363.27 868812 878092 885374 893306 877152 864438
3366.16 880260 888946 862432 846514 852234 868906
3369.05 879236 877424 884498 889330 877488 848054
3371.95 835858 838500 844624 869754 874786 868744
3374.84 850164 858314 856274 846716 868648 889198
3377.73 871384 857068 889276 903348 911826 933832
3380.62 952782 946034 952918 983606 1003934 1011106
3383.52 998038 979446 981218 992990 1001706 1012796
3386.41 1040844 1025094 996462 1012950 984864 968586
3389.30 965764 942874 905164 882480 892708 880932
3392.19 830626 820068 844320 862616 875282 866358
3395.09 851334 841586 828940 825288 849246 840382
3397.98 785594 708986 664586 616916 572758 538140
3400.87 537270 504988 477442 466128 412666 367354
3403.77 338760 309560 277776 228998 228634 233100
3406.66 232440 213830 210318 221672 224616 231984
3409.55 222872 205094 196350 226850 233710 178238
3412.44 183892 208044 183372 166926 198274 199982
3415.34 187530 191680 178916 149166 137010 175082
3418.23 209690 170064 113498 113794 154118 152520
3421.12 141494 131080 111992 123686 139456 123998
3424.01 124920 134320 123882 113500 128726 140436
3426.91 153906 149584 146742 145288 160510 165868
3429.80 131938 82242 97474 124702 137280 138518
3432.69 139920 109986 114738 127628 117926 131708
3435.59 159946 169854 153152 122566 149124 162444
3438.48 174650 160558 172700 182596 169920 179122
3441.37 196866 178384 171750 170294 203780 239820
3444.26 238478 217210 209480 232872 303248 348250
3447.16 365478 368350 391432 444846 458364 468204
3450.05 516960 579284 611246 634456 722364 797792
3452.94 816610 851412 932254 1011824 1079208 1149754
3455.83 1224548 1299278 1370842 1479002 1598964 1714676
3458.73 1823190 1939124 2064534 2171882 2273582 2409520
3461.62 2545604 2676374 2839106 3007746 3179758 3349748
3464.51 3511766 3649330 3802590 4018684 4208546 4383140
3467.40 4561216 4725216 4901172 5114242 5299316 5436716
3470.30 5577524 5739336 5909802 6068130 6187142 6285436
3473.19 6368144 6447254 6545316 6589916 6602530 6616608
3476.08 6624036 6595068 6581742 6588214 6587748 6560550
3478.98 6582484 6657806 6738090 6782466 6836930 6905882
3481.87 6956584 6984266 6963058 6932742 6887520 6812310
3484.76 6749706 6627994 6472362 6333916 6147024 5925054
3487.65 5726014 5486292 5257330 5040134 4817736 4610834
3490.55 4422122 4224082 4004592 3797972 3595356 3403252
3493.44 3204682 3021488 2848708 2672648 2490350 2306130
3496.33 2149000 2007582 1871956 1737888 1600612 1476096
3499.22 1359046 1228882 1095674 1016838 939552 847062
3502.12 779694 724208 624814 547504 479172 419818
3505.01 370260 301666 231374 185562 141552 95138
3507.90 81324 63876 39508 10154-15836-34634
3510.80-50174-74806-111224-127326-123638-144140
3513.69-151178-165766-209466-210762-209348-223888
3516.58-240110-229896-238938-235014-222458-213006
3519.47-205728-199620-225094-240942-233842-244574
3522.37-236068-241390-278548-283870-276560-252258
3525.26-252444-266560-253002-231196-233106-258124
3528.15-239664-226120-232700-240896-258192-255800
3531.04-240086-238882-241658-243926-260782-262564
3533.94-270116-273172-229408-189150-209742-215132
3536.83-221532-227320-208180-174460-163140-211510
3539.72-216860-211980-208854-183216-153636-161722
3542.62-166574-149586-119874-128248-150608-162662
3545.51-153342-134854-137252-140324-124496-92668
3548.40-83188-90718-84170-86238-79924-59966
3551.29-63498-72408-66194-64270-50734-25832
3554.19-9748-18086-22984-11990-25242-22444
3557.08 5538 31202 41964 28092 41844 57144
3559.97 64280 72654 58254 45690 26968 22620
3562.86 54620 72014 87910 100824 86376 66934
3565.76 59332 66210 71150 75794 77676 86210
3568.65 93132 79244 67724 60560 62646 79884
3571.54 75264 67798 61688 70770 85830 84698
3574.44 81026 70848 50630 27386 7428 12954
3577.33 41752 32452 8480-1954 1858 8556
3580.22 7672 12950 24086 24666 22908 31722
3583.11 35106 28364 32176 28034 4320-11648
3586.01-5916-7854 9800 8848-16106-28740
3588.90-19868-22366-17608 8700 36772 32422
3591.79 24008 13576-4056 9600 16520 22752
3594.68 52584 50352 45104 52362 57506 40386
3597.58 11182 2278 32150 53840 22536-4710
3600.47-6058 19758 36044 26754 44054 43218
3603.36 41150 42074 37656 20142 27458 67286
3606.26 83516 69456 46674 27318 25682 50160
3609.15 64670 64540 53252 36442 43358 62982
3612.04 65584 55252 61512 50020 45862 32326
3614.93 35156 55806 55650 40852 35952 34326
3617.83 50254 50288 38606 58924 61384 52350
3620.72 34118 12252 23906 51252 60116 36050
3623.61 374 6872 15072 21174 33422 54452
3626.50 57836 37256 24180 25674 50778 56978
3629.40 41192 29098 13100 12396 29098 32882
3632.29 28764 27616 21280 16292 24870 20462
3635.18 19432 24446-2384-17354 2208 14468
3638.08 46432 47672 38084 30876 19634 14350
3640.97 12764-5082-572 7382 7958 24064
3643.86 21886 5852 11342 24928 16784 60
3646.75-8208-12962-17418 3172 28240 32136
3649.65 22222 10514 12532 35846 26120-90
3652.54-10298-4462-2568-17908 376 27072
3655.43 43864 57788 23304-16108-21250-12034
3658.32-9220-10406-5588 5520 4022 21018
3661.22 22254 17182 19684 27228 23128 11828
3664.11 7084 15008 36978 42990 38738 19086
3667.00-10842-7206 16054 16356 8740 11696
3669.90 24150 33134 24008 32216 27338 17108
3672.79 8012 17710 8728-1340 14000 48320
3675.68 64836 18544-16348-7348 18254 26912
3678.57 28808 27972 20380 20532 25560 21198
3681.47 19488 7540 3642 2368-10278 2304
3684.36 19184 19240 20360 30668 27618 27282
3687.25 42074 66146 59480 32464 14076 6970
3690.14 9486 24630 35400 48070 45666 38368
3693.04 45168 37464 18820 14700 16826 31084
3695.93 53176 34934 40782 40630 17288 20850
3698.82 23122 37992 46376 34442 29924 50862
3701.72 66442 46542 27624 55444 75032 58268
3704.61 32216 30252 63224 82488 60472 36898
3707.50 37206 49396 53722 46262 50882 69794
3710.39 78104 67978 52808 47938 37192 49080
3713.29 64264 86018 93760 82970 89482 100244
3716.18 89964 79972 97216 116524 110944 113048
3719.07 104338 87246 113862 126346 115126 87810
3721.96 76682 118796 122990 115162 119146 125492
3724.86 121176 109136 119110 111674 110094 119636
3727.75 123448 136318 128420 95864 111764 131374
3730.64 131232 136816 155602 167758 160086 157582
3733.54 154854 137384 131406 129692 119468 124352
3736.43 132072 128846 122780 123044 156054 174578
3739.32 161136 141514 141968 155164 158346 150056
3742.21 151600 144020 145764 176888 204860 210920
3745.11 175296 144556 164634 172958 153236 162440
3748.00 168208 187122 204530 180606 172016 181464
3750.89 201602 216752 222040 213754 210216 199874
3753.78 180966 181550 189764 205254 208548 207938
3756.68 212338 224564 229740 205692 218280 283260
3759.57 283304 241986 224760 246244 273126 282592
3762.46 273780 273788 277672 280616 299950 302774
3765.35 293542 284022 310004 328066 317832 313774
3768.25 303888 317470 341980 338032 321204 322068
3771.14 329146 333772 353076 343978 340260 345658
3774.03 352980 356268 339726 334568 342626 344540
3776.93 337598 336576 323678 321598 323340 335656
3779.82 351178 332690 317626 305804 295178 303774
3782.71 333078 337456 319408 320586 308416 286030
3785.60 293866 299760 293080 272080 264412 255106
3788.50 248970 252978 272538 284762 265020 255438
3791.39 258666 260498 248618 228546 226096 220640
3794.28 207506 209234 222912 223290 219290 248142
3797.17 250656 211332 196716 172926 180656 197366
3800.07 203686 222890 227790 202688 204120 198770
3802.96 185022 194812 210876 204800 165266 155416
3805.85 170014 180068 169510 150098 157758 173154
3808.75 161678 140438 144364 146392 131434 124510
3811.64 144896 141166 141220 154562 175270 171492
3814.53 132726 116808 147012 146636 142850 157020
3817.42 145594 130914 121818 117936 112664 106466
3820.32 135056 133188 125022 136870 143304 125370
3823.21 116500 120608 142086 138604 131352 159794
3826.10 169126 162524 151516 151256 124056 114906
3828.99 143104 164680 165464 166594 168280 139002
3831.89 142938 173782 176050 173126 184022 190866
3834.78 178622 179786 168012 165784 206166 216492
3837.67 206562 205098 184132 185172 224672 209736
3840.57 219530 230796 211688 193818 196852 187374
3843.46 177294 186008 182358 181078 192360 212572
3846.35 202606 211032 201738 177386 171384 190568
3849.24 198362 188104 187188 212884 228424 226306
3852.14 209898 182044 181590 215288 220740 186758
3855.03 148388 158852 183872 187208 181330 171216
3857.92 167242 164438 156892 144954 144146 137270
3860.81 143378 148702 148468 135060 120846 120894
3863.71 142636 164154 152862 123226 109692 108176
3866.60 129534 165878 160214 156872 162874 138232
3869.49 138940 138270 132070 155194 133562 111396
3872.39 111640 136890 168832 151120 121126 130122
3875.28 126510 116086 137640 144232 139850 126166
3878.17 117794 119522 111278 107900 120384 141340
3881.06 138266 138716 160308 152452 134524 162238
3883.96 178212 170854 163294 161202 155778 158620
3886.85 164402 162642 159012 178134 189926 182956
3889.74 172336 153398 176458 179198 157322 139948
3892.63 170282 206678 195996 194520 187630 185456
3895.53 185830 178222 172962 163776 171832 171762
3898.42 198330 225666 211414 197798 187336 190936
3901.31 200264 203128 211452 215294 217782 233170
3904.21 205564 186536 195514 210568 222214 188404
3907.10 181026 211658 201974 157374 153160 159442
3909.99 180596 191442 167686 178754 205226 201096
3912.88 196898 196530 203130 220654 194336 161118
3915.78 169348 172390 170564 145648 150030 157804
3918.67 137756 153536 165522 147130 147994 154094
3921.56 140160 125484 109878 109776 112670 112758
3924.45 135702 137192 118706 101292 105462 124044
3927.35 103908 79188 106362 105344 90188 118622
3930.24 125490 117606 115586 104164 109406 135482
3933.13 129532 109682 100832 103968 102742 110928
3936.03 103480 94150 103766 113350 113988 126260
3938.92 141976 139348 115722 93470 95082 95276
3941.81 103084 125976 139692 154554 161586 142482
3944.70 131560 138786 157102 176640 177608 186408
3947.60 187432 205472 208798 172342 141264 156534
3950.49 186448 178226 170214 172658 185514 190222
3953.38 206986 208150 196758 195460 200948 218692
3956.27 225144 209414 195458 179704 186948 202702
3959.17 205032 206778 224180 219146 231570 258226
3962.06 228480 219170 238494 265368 273134 291580
3964.95 297786 280408 282410 280294 293590 296592
3967.85 287578 297586 325236 320684 310248 333570
3970.74 329494 349792 369940 353054 353164 371186
3973.63 364916 350824 368658
##END=
