##TITLE=Ethyl Acrylate
##JCAMP-DX=4.24
##DATA TYPE=INFRARED SPECTRUM
##CLASS=IUPAC A
##ORIGIN=NIST, Anayltical Chemistry Division, 301-975-3108
##OWNER=COPYRIGHT (C) 1998 by the U.S. Secretary of Commerce
##DATE=98/10/1
##$SPECTRA VERSION=1.00
##$UNCERTAINTY IN Y=2.0 % relative (B=1.0E-04,C=3.0E-10,D=2.7E-14)
##CAS NAME=Ethyl Ester-Propenoic Acid
##CAS REGISTRY NO=140-88-5
##MOLFORM=C H2: C H C O2 C2 H5
##MP=-71.2 C
##BP=99.8 C
##$NIST SOURCE=QUANT-IR
##SPECTROMETER/DATA SYSTEM=IFS66V (Bruker)
##INSTRUMENT PARAMETERS=KBr Beam splitter; MCT Detector; Multipass cell
##STATE=gas
##SAMPLE DESCRIPTION=Ethyl Acrylate Primary Gas Standard
##PRESSURE=101.3 kPa
##TEMPERATURE=23 C
##SAMPLING PROCEDURE=1 L/min Flow
##RESOLUTION=1.9290
##DATA PROCESSING=Happ Genzel Apodization
##XUNITS=cm-1
##YUNITS=(micromol/mol)-1m-1 (base 10)
##XFACTOR=1.0
##YFACTOR=18.189E-13
##DELTAX=0.9645
##FIRSTX=574.687
##LASTX=3974.595
##FIRSTY=4.85E-07
##MAXX=3973.63
##MINX=574.69
##MAXY=.0020775
##MINY=-4.94E-07
##NPOINTS=3527
##XYDATA=(X++(Y..Y))
574.69 267046 308158 430820 466134 462536 379068
579.51 338318 333158 330230 400268 381588 333628
585.29 283124 300402 401076 424322 515406 621992
591.08 683166 661916 655518 723504 893696 1022036
596.86 1277484 1558194 1725020 1992714 2415154 2713440
602.65 2904688 3085278 3206950 3193334 3148336 3408286
608.44 4120786 4549492 4108068 3863996 4100406 4399658
614.22 4586448 4610106 4487288 4229756 3919236 3606338
620.01 3324630 3095784 2931180 2741346 2556110 2426266
625.79 2336032 2269766 2221694 2086916 1912876 1745832
631.58 1605264 1559164 1546576 1546536 1609908 1724368
637.36 1875412 2057492 2255596 2426768 2659964 2915062
643.15 3193026 3516570 3942948 4405612 4864384 5354048
648.93 5893924 6456396 7069608 7742042 8358486 8914226
654.72 9453452 9962896 10323120 10523150 10788030 11035550
660.50 11228230 11476680 11699360 11848140 12008150 12121760
666.29 12119150 11960540 11644800 11184620 10635880 10030040
672.08 9361068 8668704 8022778 7436996 6995292 6669040
677.86 6401204 6082932 5692246 5226224 4670528 4096088
683.65 3562908 3119388 2707434 2340360 2037082 1796212
689.43 1627854 1447474 1266220 1135506 1037698 906566
695.22 821702 773562 697674 632172 611198 569352
701.00 528290 516606 512138 473986 457036 457610
706.79 454358 449578 432376 425976 460612 495026
712.57 478934 491158 522832 547954 525160 503730
718.36 511592 535964 560126 576222 583768 587790
724.14 596462 582176 582658 612652 662340 721940
729.93 725680 715702 713232 726428 767196 799504
735.71 817998 839368 839040 841230 885596 921056
741.50 934246 952918 995056 1022716 1038884 1053378
747.29 1095794 1149882 1193976 1208208 1220448 1256918
753.07 1318992 1355502 1395260 1423454 1477570 1531008
758.86 1595176 1668196 1727164 1792380 1884324 1996138
764.64 2133346 2280234 2472168 2659392 2880486 3143728
770.43 3418996 3743710 4138382 4563288 5036948 5563718
776.21 6160988 6804078 7515510 8290084 9116000 10004410
782.00 10964110 11903680 12937170 14146950 15631330 17352730
787.78 19134680 20886080 22661410 24578480 26585880 28528940
793.57 30649640 33026390 35436780 37810730 40251950 42711940
799.35 45118850 47792340 51040100 54662520 58362940 61047390
805.14 61735760 62228350 63463350 65355690 68168940 71430210
810.93 73656360 73532460 71870090 69788460 67141820 64343410
816.71 62189760 59693920 56816120 54193800 50702860 47068900
822.50 44130640 41545040 38959200 36375450 33749910 31146390
828.28 28615430 26180430 23849630 21729250 19777650 18032440
834.07 16495100 15209250 14138720 13289070 12632900 12212140
839.85 11994420 11976060 12141610 12454200 12924850 13547960
845.64 14290070 15152210 16085030 17063890 18052960 19065410
851.42 20040750 20902990 21690200 22397690 22893790 23041870
857.21 23028670 23118380 23367470 23546570 23537800 23479700
862.99 23292460 22897020 22288020 21518520 20625340 19655180
868.78 18671220 17707480 16743200 15772900 14745270 13688860
874.57 12660330 11674850 10771300 9966538 9248542 8621148
880.35 8082210 7672176 7371870 7139432 7001450 6940408
886.14 6973484 7138952 7396836 7763176 8221264 8748102
891.92 9313944 9856266 10338890 10732170 11019610 11236860
897.71 11463500 11720720 11926490 12092390 12301210 12574140
903.49 12842160 13098060 13354900 13582550 13774140 13919800
909.28 14012510 14076960 14075420 13964860 13709860 13312870
915.06 12803030 12247030 11774140 11517300 11391200 11180880
920.85 11021370 11054670 11081180 10906900 10492970 9885650
926.63 9220768 8594410 8037138 7593764 7302444 7152784
932.42 7136762 7230474 7412964 7696006 8123360 8671894
938.21 9338892 10167840 11199080 12407800 13822800 15443530
943.99 17274750 19304420 21528420 23931680 26507530 29189990
949.78 31977160 34832810 37746820 40585900 43280970 45916590
955.56 48689720 51634220 54963270 59364400 66794730 79386970
961.35 92494850 91802290 79872870 77332160 85843290 95290900
967.13 94650010 85233740 80768840 82116450 84268690 86116520
972.92 87656650 88896260 89780980 90329300 90590800 90638800
978.70 90503280 90149590 89655730 89330180 89851660 92402170
984.49 99587540 111320100 114456100 100589700 87725700 85711770
990.27 86770060 84798340 78103540 70930720 66513340 63526020
996.06 60494080 57277370 53980060 50673200 47321340 44004360
1001.85 40749060 37615870 34624220 31810920 29216840 26938950
1007.63 24993760 23407890 22152960 21229980 20616250 20316850
1013.42 20347150 20792140 21657610 22963090 24698680 26946820
1019.20 29739330 33131520 37125240 41738000 46939430 52701950
1024.99 58901220 65370350 71920380 78371580 84478350 89931060
1030.77 94485630 98177430 101433400 104766500 107345500 108485500
1036.56 110089400 113135000 116248900 117467400 116225200 113927600
1042.34 111002200 106195500 100339100 95337110 91243550 87633060
1048.13 84513470 82251100 81119620 81430360 83318930 86848500
1053.91 91974390 98614700 106590000 115654700 125372900 135063200
1059.70 144006800 151687600 157864600 162394900 165594200 168378900
1065.48 171913600 176870900 181789700 184642200 184017200 180650700
1071.27 179333400 179905900 178463400 173118500 163774400 151457400
1077.06 137619200 124117000 111838000 101105000 91962900 84299560
1082.84 77936320 72616850 68083990 64367810 61566190 59733190
1088.63 58759360 58515480 58911980 59737070 60725540 61643760
1094.41 62238340 62388180 62220490 62041430 62121920 62407470
1100.20 62298100 61495880 60684480 60112260 59445080 58748060
1105.98 57835500 56422740 54402890 51932240 49149510 46240790
1111.77 43380990 40665890 38135060 35853130 33782790 31934370
1117.55 30313820 28905630 27636660 26720490 26281610 26057730
1123.34 25783250 25331170 24604030 23641360 22575830 21506770
1129.12 20480530 19569410 18826300 18243000 17761430 17406210
1134.91 17180440 17055920 17019150 17067330 17189320 17369790
1140.70 17589680 17877880 18225390 18620470 19044890 19511150
1146.48 20022680 20615080 21319220 22149220 23101220 24208710
1152.27 25486140 26938230 28548060 30353790 32387940 34671040
1158.05 37266350 40259890 43507160 46923970 51008450 56130370
1163.84 62072740 68718680 76134400 84371970 93081790 101861000
1169.62 110538800 119321800 128671300 139287200 151908200 166816400
1175.41 183632100 203639400 228401100 258441000 294480900 336841400
1181.19 386329900 443448400 508223600 580091800 657908200 739244700
1186.98 820235200 896484500 963030700 1015603000 1052797000 1076762000
1192.76 1092059000 1103889000 1116497000 1130637000 1136311000 1130871000
1198.55 1134599000 1142146000 1130355000 1086009000 1007259000 903148200
1204.34 789396600 679595800 581534300 499113400 432053200 377482900
1210.12 333090200 296613100 264929000 235808100 208806700 184567300
1215.91 163156000 144271900 128277800 115023500 104035600 95207300
1221.69 87751740 81346340 75715010 70796210 66509030 62833220
1227.48 59639660 56900440 54558760 52631630 51024120 49773780
1233.26 48810750 48100080 47451850 46767600 46153180 45749480
1239.05 45309730 44768020 44143700 43641310 43288560 43170510
1244.83 43281910 43643780 44373570 45662220 47440070 49871500
1250.62 53063850 57283840 62718850 69710340 78471940 89324360
1256.40 102336700 117635300 135064300 154319900 174749400 195747300
1262.19 216451900 236310400 254920000 272369900 289084900 305795200
1267.98 322548100 338156800 350422700 358101500 361750500 363782100
1273.76 365130800 365110400 362898900 357566400 348208800 331905000
1279.55 305830600 279068700 262435600 253381400 241110400 225129900
1285.33 210421500 197641200 187923500 182886100 183342000 188981600
1291.12 198462300 209875700 220699700 228377700 231114600 229246300
1296.90 224230300 222275400 232256700 244132300 237536200 233242900
1302.69 242339400 248532800 244912500 230984300 208788700 182551100
1308.47 157897400 136817800 119568100 105427800 93890250 84121820
1314.26 75714920 68144850 61478150 55473140 50096400 45165980
1320.04 40831130 36985920 33653090 30649920 27939100 25411730
1325.83 23217450 21219510 19449910 17787380 16307630 14926670
1331.61 13734880 12659700 11768750 10969570 10355500 9829768
1337.40 9430152 9059440 8794644 8562802 8416350 8262598
1343.19 8165270 8068416 8015444 7950868 7948366 7952434
1348.97 8022260 8101450 8271896 8486824 8803314 9189920
1354.76 9731182 10366960 11161280 12080450 13161270 14282060
1360.54 15447910 16512130 17404990 18006180 18433310 18887960
1366.33 19807320 21082190 22182860 23050450 23719010 24478210
1372.11 25848540 27530370 29327280 31099460 32961340 34955260
1377.90 37338790 40198810 43699540 47775660 52377290 57147080
1383.68 61833640 66062200 69656090 72535720 75142220 77855320
1389.47 80770790 83240590 86260200 90601090 96461050 104621300
1395.25 114275800 124074200 133997800 144481900 156330600 169738600
1401.04 184505800 199714000 214036800 225526900 233346300 237308500
1406.83 238982900 241726000 248006200 248459100 242303300 239774400
1412.61 240027400 239311900 234810700 225241400 211910200 196784400
1418.40 179659900 160685000 140489200 120285400 101203500 84292890
1424.18 69995110 58489610 49507930 42795410 37875120 34355500
1429.97 31788140 29955510 28630630 27731070 27137870 26832540
1435.75 26750220 26879770 27133420 27521960 27986540 28540700
1441.54 29153940 29795770 30402260 30994620 31578300 32161660
1447.32 32750900 33488640 34482330 35781160 37098930 37974350
1453.11 38200640 38036980 37946130 38159980 38544380 39016480
1458.89 39409100 39620280 40011840 40891870 42021620 42722000
1464.68 43034070 43383980 43575260 43472160 43364690 43725740
1470.47 44205310 43363680 41706490 40800260 40492460 40227870
1476.25 39713460 38880530 37714720 36278100 34585950 32679950
1482.04 30519210 28166820 25780860 23706830 22267450 21606440
1487.82 21464180 21415230 21136560 20546530 19719430 18769470
1493.61 17757080 16758610 15780450 14873200 14048870 13318280
1499.39 12668330 12088200 11563210 11089000 10636220 10232430
1505.18 9851774 9492854 9161866 8880830 8627872 8402800
1510.96 8207800 8030388 7851994 7698226 7534996 7366750
1516.75 7187806 7005904 6828834 6659616 6493654 6320890
1522.53 6147086 5983410 5813600 5634272 5452878 5277930
1528.32 5092020 4912826 4753060 4610426 4471918 4350658
1534.11 4236192 4139160 4044370 3975820 3918348 3857498
1539.89 3787688 3739162 3704360 3673334 3650850 3642954
1545.68 3648282 3659904 3667768 3692538 3724386 3773628
1551.46 3830492 3894670 3973464 4048190 4131272 4230852
1557.25 4323038 4399420 4447514 4477364 4504914 4541084
1563.03 4593426 4663812 4716848 4752660 4783158 4815566
1568.82 4823074 4790420 4738376 4683680 4617390 4553242
1574.60 4520418 4501704 4480990 4476408 4484220 4503266
1580.39 4530600 4556986 4580968 4621526 4657620 4690858
1586.17 4723836 4767786 4812732 4872976 4955670 5040380
1591.96 5122668 5233132 5370874 5530370 5715238 5938466
1597.74 6179436 6436696 6731128 7078030 7471950 7931944
1603.53 8455826 9070344 9770182 10548010 11413090 12358320
1609.32 13366190 14450270 15622570 16888360 18250960 19671170
1615.10 21091050 22502340 23880480 25166130 26268080 27090900
1620.89 27585510 27892390 28257880 28975660 30190240 31778640
1626.67 33548310 35400980 37386180 39641660 42309110 45462760
1632.46 49093050 53088610 56944130 59976350 61519110 61254820
1638.24 59540700 57616880 56909430 56293570 53461360 51530560
1644.03 52788320 54425310 55847640 56666600 54923920 50188450
1649.81 43404540 35837730 28578070 22360260 17487850 13946770
1655.60 11517670 9936334 8896930 8191498 7693782 7308560
1661.38 6997112 6756408 6557938 6397718 6262208 6165106
1667.17 6103804 6064198 6043890 6054628 6085788 6133798
1672.96 6214648 6318164 6423034 6541148 6677822 6806000
1678.74 6898576 6977960 7072230 7193766 7335818 7508518
1684.53 7698984 7909724 8154510 8415250 8690830 8983254
1690.31 9280724 9605342 9952278 10325610 10757440 11246220
1696.10 11767400 12331730 12939200 13554000 14134080 14656970
1701.88 15072140 15326860 15423550 15452140 15613350 16194460
1707.67 17346450 18906340 20545730 22050250 23397880 24719730
1713.45 26178200 27873170 29889080 32364410 35403820 39128000
1719.24 43679390 49139130 55557500 63018180 71629730 81508150
1725.02 92777430 105602600 120086100 136420300 154748100 175178700
1730.81 197916800 223077600 250777600 281335000 314755000 350852300
1736.60 389430800 429964100 471305900 511714000 548624400 578624400
1742.38 597969900 603611400 595184000 576979600 558153300 548142100
1748.17 550640000 563397800 583487400 607197600 626890900 632829100
1753.95 620040800 590877200 551053500 506144500 459650000 414102300
1759.74 371227500 331690000 295834300 263399500 233928700 207076600
1765.52 182611100 160342800 140114000 121909500 105667100 91262950
1771.31 78627900 67682220 58249310 50215860 43436050 37765730
1777.09 33042310 29109920 25847020 23151590 20945130 19130680
1782.88 17634680 16394860 15344610 14463920 13746080 13130140
1788.66 12589750 12125050 11721950 11350100 10981470 10613000
1794.45 10269560 9942194 9631404 9341286 9087522 8886380
1800.24 8707230 8546916 8408572 8273038 8125310 7964172
1806.02 7796054 7617790 7444714 7271916 7107440 6951064
1811.81 6799928 6660316 6543546 6445360 6362762 6297354
1817.59 6251262 6226102 6224974 6233568 6213280 6159826
1823.38 6105588 6051848 6003282 5967126 5924970 5869372
1829.16 5804404 5726526 5646978 5555752 5442896 5325942
1834.95 5204984 5089548 4994414 4914410 4834930 4746490
1840.73 4637268 4495110 4342824 4198598 4062096 3932968
1846.52 3802324 3679456 3562064 3442270 3335896 3233402
1852.30 3124310 3026592 2947162 2879536 2820178 2754302
1858.09 2687840 2633300 2581074 2527818 2483756 2440880
1863.88 2398756 2368960 2352416 2346082 2348934 2363220
1869.66 2388364 2414426 2461268 2533666 2609736 2692774
1875.45 2797980 2912316 3033606 3162916 3296426 3425734
1881.23 3562208 3700072 3824586 3949238 4072744 4183772
1887.02 4288528 4373740 4431328 4473336 4514732 4561876
1892.80 4603274 4625214 4650384 4675466 4683764 4677140
1898.59 4661282 4633270 4594008 4560814 4546426 4565848
1904.37 4618524 4687462 4781736 4924454 5097780 5294342
1910.16 5530956 5796672 6090056 6432088 6809970 7210180
1915.94 7631438 8072034 8532390 9010284 9495566 9988654
1921.73 10502440 11058520 11701860 12435340 13237640 14047800
1927.51 14740890 15193580 15355910 15236070 14931040 14544210
1933.30 14136370 13685510 13182770 12807120 12705960 12724250
1939.09 12535400 12002670 11189070 10212020 9196276 8239478
1944.87 7395458 6686472 6120848 5686582 5370110 5150668
1950.66 4999764 4881900 4818588 4821838 4824898 4754978
1956.44 4595476 4390204 4170422 3958456 3765932 3586490
1962.23 3426804 3298736 3183820 3078728 2983932 2904570
1968.01 2840122 2777648 2729934 2695414 2653464 2592756
1973.80 2528626 2477730 2437888 2407936 2396956 2394916
1979.58 2395856 2401880 2409652 2407400 2391266 2362868
1985.37 2333734 2313700 2297232 2268182 2231350 2204470
1991.15 2193298 2185046 2167648 2124218 2053822 1974052
1996.94 1898938 1816078 1733668 1673502 1632596 1593314
2002.73 1566204 1542006 1524418 1521106 1516390 1505280
2008.51 1502728 1503462 1506390 1522910 1553998 1577196
2014.30 1596400 1627392 1659128 1688534 1714766 1751272
2020.08 1795764 1837158 1881240 1934726 1993600 2059620
2025.87 2128590 2204082 2290584 2374448 2458340 2559246
2031.65 2674412 2805734 2945684 3108404 3299330 3506626
2037.44 3740016 3999128 4295640 4633086 4982308 5346274
2043.22 5721424 6093710 6449584 6773406 7069276 7342600
2049.01 7588596 7812422 8023614 8234458 8436840 8602382
2054.79 8713002 8789332 8841648 8829470 8722808 8499874
2060.58 8183892 7820776 7458800 7106880 6779814 6482470
2066.37 6199660 5925522 5658804 5385076 5102494 4829076
2072.15 4585570 4362754 4152092 3955614 3785154 3634408
2077.94 3497414 3378286 3271090 3191280 3137146 3093342
2083.72 3060268 3051612 3047046 3049762 3060500 3065468
2089.51 3063942 3063462 3064834 3059432 3046862 3016620
2095.29 2984298 2963038 2939186 2903006 2862526 2824946
2101.08 2776690 2718254 2659004 2592474 2530796 2475198
2106.86 2429130 2391604 2359980 2347014 2337834 2333850
2112.65 2339304 2343512 2349410 2368290 2395554 2406556
2118.43 2408462 2417750 2426394 2430266 2430288 2433034
2124.22 2436838 2433962 2423176 2423608 2421204 2405408
2130.01 2380980 2354894 2325374 2284790 2250474 2218274
2135.79 2182294 2142110 2089894 2046446 2017256 1983170
2141.58 1937784 1895570 1865198 1826066 1788454 1750126
2147.36 1723420 1701412 1669412 1649340 1641022 1631598
2153.15 1629578 1631170 1638450 1657406 1667686 1682358
2158.93 1704750 1717270 1720118 1721242 1724206 1705022
2164.72 1670208 1635832 1600588 1564130 1532342 1495546
2170.50 1448042 1403130 1361496 1312576 1252786 1185232
2176.29 1120460 1062254 1003914 954448 928888 905706
2182.07 883912 874946 874342 868186 864538 869590
2187.86 871600 866638 878132 887884 894650 895956
2193.64 890042 885124 890922 895218 899024 891586
2199.43 877494 871624 859672 850804 842148 833442
2205.22 826340 815370 812932 809652 810234 807736
2211.00 798858 802002 808486 799220 799968 815848
2216.79 831794 841826 858646 872192 885886 909298
2222.57 926400 935174 939708 940726 929198 927842
2228.36 933870 946064 967206 991424 1012532 1024462
2234.14 1024966 1024152 1021520 1013116 1007442 1004796
2239.93 1005906 1008248 1007996 1014726 1027532 1028916
2245.71 1031694 1033422 1029572 1024310 1021662 1012842
2251.50 1007562 1000180 991880 989978 997316 1002450
2257.28 1008184 1014286 1022578 1027944 1033424 1046248
2263.07 1062968 1075840 1074492 1070636 1068326 1063326
2268.86 1062972 1055068 1047512 1046704 1047476 1056300
2274.64 1056746 1042626 1044066 1041484 1038306 1042940
2280.43 1043040 1039264 1028990 1016848 1011832 1009894
2286.21 1010426 1015680 1024494 1016448 1007820 1028782
2292.00 1056266 1072818 1086710 1108710 1133384 1163702
2297.78 1195106 1220140 1243580 1279434 1309634 1335876
2303.57 1369954 1400114 1434578 1477690 1517922 1545770
2309.35 1579116 1616008 1647494 1680902 1699432 1705600
2315.14 1709674 1707356 1707378 1707232 1707928 1715390
2320.92 1712058 1699980 1687824 1687398 1678410 1651908
2326.71 1612990 1578132 1550112 1517636 1470916 1429584
2332.50 1393012 1363148 1334634 1300352 1281146 1277042
2338.28 1262840 1227622 1188408 1156992 1120450 1093552
2344.07 1078144 1073334 1074156 1076444 1102046 1138282
2349.85 1166422 1205978 1259320 1316054 1388242 1466160
2355.64 1543548 1625794 1706080 1772020 1836888 1896522
2361.42 1958512 2027388 2094474 2162128 2236736 2326190
2367.21 2427446 2531534 2630416 2725358 2823170 2924838
2372.99 3028288 3121144 3207432 3298216 3401866 3508052
2378.78 3602044 3686664 3766568 3830348 3881638 3909082
2384.56 3929342 3967300 3981524 3964162 3937198 3900204
2390.35 3845646 3763896 3649444 3524338 3368574 3182802
2396.14 3000968 2823874 2663992 2526628 2394114 2264162
2401.92 2153260 2054170 1965038 1882756 1805408 1743440
2407.71 1697822 1654210 1625940 1596320 1569854 1562232
2413.49 1549416 1534806 1526822 1512086 1492992 1477334
2419.28 1463646 1451416 1438600 1421508 1407086 1388100
2425.06 1369050 1341954 1300154 1250680 1207550 1163214
2430.85 1118934 1077852 1043482 1013426 970998 923036
2436.63 894514 865124 830454 799878 780110 758672
2442.42 740266 716372 692614 679602 666542 665002
2448.20 672924 662846 647644 647686 663558 673942
2453.99 681262 687022 706634 736422 751290 775776
2459.77 809158 840306 869434 904600 954984 1014370
2465.56 1069884 1103020 1134790 1178864 1226076 1262960
2471.35 1301822 1334704 1365450 1393128 1421024 1445630
2477.13 1470558 1486634 1503676 1518912 1511390 1504080
2482.92 1501538 1493644 1488338 1474986 1465338 1447174
2488.70 1438916 1433780 1415660 1387452 1364226 1339978
2494.49 1323164 1313944 1300968 1276312 1254222 1228674
2500.27 1197922 1162484 1132218 1099764 1057540 1021126
2506.06 991452 951762 913790 885880 866368 847042
2511.84 824128 801960 788228 775510 746644 735596
2517.63 735218 731936 737946 733496 730864 739470
2523.41 751568 771628 790994 802214 817660 831806
2529.20 850796 879958 904910 925308 948496 978904
2534.99 1009766 1033280 1044470 1045896 1058950 1075848
2540.77 1093858 1095148 1102518 1120214 1126834 1117652
2546.56 1122264 1127592 1122406 1112874 1114500 1115366
2552.34 1121240 1122132 1111656 1102710 1091520 1073662
2558.13 1041416 1007568 979062 939906 909004 880990
2563.91 850560 824022 811284 794528 778402 748338
2569.70 713628 674692 632090 594352 570168 548490
2575.48 535794 527186 524424 521790 526670 521308
2581.27 508298 513722 526538 545496 567214 589538
2587.05 625672 645908 664242 691008 726480 758154
2592.84 783038 807208 831934 853388 875086 894776
2598.63 921516 938716 953886 974014 987640 988454
2604.41 985940 986248 977874 955148 941902 953246
2610.20 969896 959924 950546 944114 933700 909880
2615.98 882272 865006 854326 836340 816340 795394
2621.77 775490 761216 753330 734156 712548 693518
2627.55 684602 668662 667906 671922 667530 656822
2633.34 651704 648932 656220 675166 690570 697018
2639.12 712072 729716 732498 742886 760706 779798
2644.91 794404 799166 817154 843812 864228 885652
2650.69 899646 909070 928246 942024 961162 979042
2656.48 1001212 1023684 1055840 1071180 1079230 1082120
2662.27 1089736 1088836 1087562 1094008 1100958 1106958
2668.05 1119696 1120174 1126242 1136762 1139492 1120434
2673.84 1109512 1097908 1082844 1053674 1036138 1042422
2679.62 1040332 1023322 1021356 1034090 1034832 1035490
2685.41 1045762 1046752 1046684 1056654 1085356 1104422
2691.19 1124978 1165772 1204292 1244830 1301192 1366232
2696.98 1417074 1459568 1496398 1515106 1550186 1568768
2702.76 1580106 1594160 1609568 1630580 1638424 1637100
2708.55 1630248 1620876 1597910 1576510 1555402 1520466
2714.33 1495144 1466108 1432982 1415978 1426050 1435774
2720.12 1446898 1448224 1442018 1440180 1454246 1451018
2725.91 1455444 1462730 1483060 1505448 1521220 1542848
2731.69 1583666 1625222 1632216 1604016 1585960 1569946
2737.48 1541544 1503576 1471256 1453208 1440202 1416102
2743.26 1418166 1427638 1437604 1456768 1487054 1509390
2749.05 1516094 1531040 1546818 1551668 1554378 1561710
2754.83 1574552 1586256 1621632 1679924 1759516 1800670
2760.62 1842174 1903854 1969440 2018562 2080354 2130658
2766.40 2162214 2188244 2212022 2225122 2240256 2249114
2772.19 2241508 2204624 2172540 2139804 2109348 2081728
2777.97 2049000 1992186 1922190 1849060 1774994 1708072
2783.76 1656174 1595012 1550212 1516836 1509308 1515896
2789.54 1522776 1521560 1539366 1560260 1573484 1602136
2795.33 1626048 1630614 1644478 1676212 1711240 1727970
2801.12 1757732 1800018 1843620 1884592 1934008 1984204
2806.90 2040110 2091044 2141136 2193820 2269882 2348452
2812.69 2433730 2511334 2612388 2743476 2866076 2974876
2818.47 3110684 3243528 3348216 3423820 3490072 3532286
2824.26 3560160 3577580 3602006 3630254 3669908 3702248
2830.04 3730700 3768362 3802618 3792312 3776282 3752174
2835.83 3727864 3724298 3733464 3720624 3730016 3727650
2841.61 3731404 3759416 3797162 3833800 3874172 3898320
2847.40 3932286 3979660 4026598 4069220 4125782 4180370
2853.18 4248552 4327882 4412796 4482070 4548976 4607596
2858.97 4684480 4763136 4849012 4960334 5109046 5294400
2864.76 5501094 5709030 5953890 6251852 6602612 7015552
2870.54 7520434 8132396 8869022 9739672 10772640 11971280
2876.33 13324580 14742420 16168960 17489270 18588370 19349530
2882.11 19810630 20119100 20504140 20993820 21570370 22193150
2887.90 22813450 23348610 23793090 24110790 24281940 24305970
2893.68 24265250 24156020 24085820 24084150 24179020 24401650
2899.47 24794390 25370300 26109390 26856380 27595240 28340640
2905.25 29136720 29950080 30764180 31541480 32250840 32832260
2911.04 33351130 33792030 34144260 34340080 34246620 33730380
2916.82 32960660 32235220 31719220 31456570 31423520 31512110
2922.61 31607650 31579440 31406980 31085860 30717660 30340230
2928.40 30083650 30005470 30254720 30917250 32047220 33580280
2934.18 35488910 37668850 39987080 42227240 44199600 45771900
2939.97 47155780 48697440 50597780 52071300 52798240 53660840
2945.75 55138250 56980820 58427060 58503770 57813300 57321190
2951.54 56949290 56455330 55934910 55391890 54362390 53099450
2957.32 52402530 52191870 52199080 52251100 52674420 53568280
2963.11 55041700 56739780 57357720 57063300 57495540 58941680
2968.89 60850560 62768320 65191780 68560670 72858540 77901150
2974.68 83628820 89812340 96329170 102913400 109515200 116207700
2980.46 123618000 132059800 139125900 141375100 141655800 142481300
2986.25 143454000 144606500 146731900 148494400 149049200 151243700
2992.04 157865700 171405300 184794200 176856800 157248800 144164900
2997.82 135541900 128534600 121973600 115536600 109248100 103265800
3003.61 97252970 91705870 86861300 82660340 78836100 75263510
3009.39 71313120 66911640 62148260 57294840 52429560 47747440
3015.18 43303700 39265830 35595060 32330180 29362160 26700600
3020.96 24325140 22252100 20420950 18884710 17561380 16494790
3026.75 15587530 14821720 14170150 13711500 13395160 13221190
3032.53 13172160 13236640 13372960 13682950 14159310 14851330
3038.32 15712300 16708230 17701540 18576180 19185850 19463940
3044.10 19360830 18992510 18602320 18479130 18569900 18341580
3049.89 17765250 17615860 17837330 18050160 17913840 17271870
3055.67 16136630 14703820 13134850 11625380 10248030 9088840
3061.46 8170688 7494124 6970564 6598592 6341076 6220446
3067.25 6178566 6193492 6245064 6354348 6488942 6647948
3073.03 6786580 6945396 7087800 7204696 7293738 7371516
3078.82 7390840 7336484 7236710 7131502 7047738 7036326
3084.60 7006230 6985798 7044954 7093154 7010688 6814144
3090.39 6526512 6233806 5919480 5626892 5393206 5238218
3096.17 5164164 5202982 5376424 5723222 6283850 7095158
3101.96 8164680 9495378 11048440 12740110 14299010 15441820
3107.74 15890860 15456150 14215730 12979120 13109990 14556700
3113.53 15634420 15423450 14242580 14375360 15476100 16080000
3119.31 15791920 14697090 13015460 11128460 9288252 7627568
3125.10 6259610 5211970 4433944 3854092 3421142 3137684
3130.89 2929344 2768138 2626724 2490248 2376876 2297394
3136.67 2226710 2161236 2091974 2050302 2031050 2036002
3142.46 2033494 2046242 2055756 2063008 2085686 2107960
3148.24 2114692 2135992 2145476 2144818 2128238 2114232
3154.03 2112740 2105446 2083306 2066250 2036352 2021210
3159.81 1997490 1968144 1923950 1893116 1866822 1854778
3165.60 1821118 1784426 1744204 1711444 1689196 1667462
3171.38 1633696 1613084 1584830 1551138 1508864 1492816
3177.17 1476848 1440184 1407152 1381364 1373048 1364960
3182.95 1327878 1300086 1256784 1246514 1231906 1204422
3188.74 1173844 1160418 1150824 1140638 1112130 1105448
3194.53 1091576 1055322 1042528 1049050 1038212 1024872
3200.31 1020856 1007728 1003630 989970 971082 973630
3206.10 959164 935300 927856 920880 914708 924002
3211.88 916936 911630 904986 907446 915456 918922
3217.67 895720 898924 915454 923048 924464 932940
3223.45 958384 972862 973484 992354 1000062 994008
3229.24 1005228 1018738 1023176 1039272 1059876 1075032
3235.02 1062084 1050030 1049184 1051168 1043072 1039742
3240.81 1052816 1057344 1058430 1049804 1022864 996230
3246.59 967538 958844 927674 886166 854034 828132
3252.38 781138 729490 693442 677606 657338 612192
3258.17 546638 499918 471052 431714 388470 359914
3263.95 320470 295642 273348 246934 223548 195972
3269.74 170022 155142 142388 118954 106656 119544
3275.52 113588 109806 103542 84288 81616 78314
3281.31 37914 14342 13640 35616 43170 20322
3287.09 2190 2596-2372-21554-31676-29856
3292.88-26886-36858-47194-46548-69498-70808
3298.66-59434-43834-25260-15310-19766-10268
3304.45 11752 44300 54208 59632 66614 102036
3310.23 136696 148188 142836 171346 192710 203350
3316.02 209056 200624 220794 237764 236060 243438
3321.80 254560 270000 281986 280088 273560 285858
3327.59 309456 328220 330530 333816 339620 344874
3333.38 338164 356246 362896 353492 362172 373586
3339.16 381804 390626 402686 422098 446764 471630
3344.95 475416 479552 492616 527268 566850 597444
3350.73 597762 597262 634584 676080 686568 703222
3356.52 734856 758570 781800 807512 821606 840182
3362.30 861016 879202 881840 877874 872182 859900
3368.09 865112 880598 878546 856340 843644 861594
3373.87 863952 856536 859526 872376 876390 901028
3379.66 930302 952838 979510 999964 988698 994358
3385.44 1014510 1020028 998264 974310 934602 897752
3391.23 864126 841410 855680 862294 841600 836172
3397.02 811808 721914 619104 551952 504618 450154
3402.80 375370 306870 249836 229798 219920 220744
3408.59 222742 213948 212384 202048 188304 187338
3414.37 191026 184400 160984 170894 159680 135116
3420.16 142414 131406 125328 128918 126118 125428
3425.94 138400 148908 151824 144958 111756 118866
3431.73 132990 123834 120750 139446 153194 146884
3437.51 157112 169758 174458 181738 179822 188318
3443.30 219676 225428 255380 330674 379352 429830
3449.08 486854 566366 661506 772334 874272 1006710
3454.87 1151406 1302574 1487738 1712158 1941462 2171822
3460.66 2412382 2691900 3009364 3343116 3660592 4012946
3466.44 4379902 4734636 5099164 5435712 5744056 6046566
3472.23 6274830 6450380 6568308 6610366 6599944 6584656
3478.01 6586348 6662682 6784198 6896754 6957512 6921856
3483.80 6807456 6607776 6309604 5926900 5487764 5041706
3489.58 4619388 4214778 3802012 3403738 3027156 2669530
3495.37 2319880 2012832 1737574 1479594 1231918 1022604
3501.15 857464 708042 555114 423112 301290 189400
3506.94 109366 59792 11986-33416-78892-118322
3512.72-142100-174886-206686-223750-234294-229806
3518.51-214988-212960-231298-239358-254346-271912
3524.30-263826-254076-244004-240910-236536-242582
3530.08-249316-242272-249250-262492-251870-215792
3535.87-214388-213066-190726-196950-208698-182920
3541.65-162388-144926-138576-149858-144026-129476
3547.44-103332-87144-81812-69606-66964-57464
3553.22-31840-17430-19696-8688 20634 38714
3559.01 53422 62586 44432 39988 68860 87408
3564.79 73296 67176 75112 83916 78172 67424
3570.58 70860 69944 73434 80894 64766 32136
3576.36 22002 22862 6502 6446 14656 24006
3582.15 29004 31364 18666-930-2278-2546
3587.94-19018-17196 7964 26498 13414 10762
3593.72 29128 47384 49752 35072 21326 28850
3599.51 10654 16212 33318 41714 37786 34712
3605.29 56068 62326 38822 47442 56100 49108
3611.08 54678 59910 49746 41762 45884 44816
3616.86 40210 47536 52248 46764 28862 41116
3622.65 30834 13192 24102 44824 39350 36732
3628.43 44334 30082 20394 28272 25516 21626
3634.22 20664 12252-912 19588 38894 30708
3640.00 14438 4118 5986 16018 14748 15244
3645.79 2722-8814 5274 23084 19030 21274
3651.57 6878-5960-3610 23488 33834 1240
3657.36-13974-7370 2356 15202 20264 21658
3663.15 15492 21488 34042 16842 3070 11214
3668.93 16758 26514 27050 19400 10552 13434
3674.72 34004 22314 3342 21848 24730 23602
3680.50 19214 11122-270 5958 17900 26584
3686.29 35138 51014 34658 15010 23622 41306
3692.07 41926 32936 20486 32118 39784 33160
3697.86 24336 34286 38138 47478 47996 53154
3703.64 52094 48148 61126 49464 45594 52372
3709.43 64192 64614 48824 54428 77502 89722
3715.21 90690 93288 105596 108518 104624 111924
3721.00 99420 106380 118786 120490 116106 113952
3726.79 119322 125004 115616 123898 142400 158740
3732.57 156010 141738 127818 126430 126652 137882
3738.36 156738 152184 150416 152286 150680 176568
3744.14 189092 167642 161528 166358 182496 185346
3749.93 188030 210348 212930 198000 187694 200348
3755.71 210330 218978 225272 254506 252364 251678
3761.50 272676 276806 286138 295354 299650 314522
3767.28 314722 321824 330576 327218 336814 344356
3773.07 347188 347940 341174 340402 332686 326362
3778.85 334038 330756 309210 312838 325992 315800
3784.64 298516 292250 276268 257892 260376 270202
3790.43 262394 253090 235188 218860 214496 223998
3796.21 234610 217038 187414 195890 213636 211032
3802.00 196760 198128 189478 170380 168258 163052
3807.78 160136 151010 139138 135630 141560 156864
3813.57 154982 137554 143448 146896 133634 118042
3819.35 118914 129254 133860 128508 126990 138478
3825.14 152836 159846 141754 134058 153904 163578
3830.92 153670 163642 177826 183228 176524 183310
3836.71 204044 200428 199038 215218 217182 202370
3842.49 187490 183098 187590 202112 202458 187594
3848.28 185504 193984 208762 216424 197294 201762
3854.07 185180 169584 179166 174192 161692 149166
3859.85 142464 144650 134586 133140 146206 130214
3865.64 121766 148808 157386 146590 138724 137826
3871.42 124522 137162 143760 128640 128160 136328
3877.21 128794 116640 116680 131858 144954 150038
3882.99 159222 168586 161114 160278 163188 175662
3888.78 177760 170080 165710 163736 186154 193826
3894.56 185930 178304 170198 183740 205934 201432
3900.35 194066 204762 215008 216132 201004 204590
3906.13 199620 193860 172910 166596 178224 186476
3911.92 197636 201718 200664 179132 166932 156804
3917.70 149748 152362 152876 145410 126714 112844
3923.49 120500 125430 113264 107482 98980 100916
3929.28 111950 117270 113228 121624 114024 104832
3935.06 104182 102816 110516 127214 127322 104824
3940.85 100240 124006 147454 145680 146050 169060
3946.63 185622 195762 175600 164702 174758 178234
3952.42 192970 201534 201576 212110 207376 191320
3958.20 197678 211156 226258 235980 235614 258538
3963.99 284372 286240 285802 292434 303940 317940
3969.77 327886 347998 358490 361374 365622
##END=
