##TITLE=Ethyl Acrylate
##JCAMP-DX=4.24
##DATA TYPE=INFRARED SPECTRUM
##CLASS=IUPAC A
##ORIGIN=NIST, Anayltical Chemistry Division, 301-975-3108
##OWNER=COPYRIGHT (C) 1998 by the U.S. Secretary of Commerce
##DATE=98/10/1
##$SPECTRA VERSION=1.00
##$UNCERTAINTY IN Y=2.0 % relative (B=1.0E-04,C=3.0E-10,D=2.7E-14)
##CAS NAME=Ethyl Ester-Propenoic Acid
##CAS REGISTRY NO=140-88-5
##MOLFORM=C H2: C H C O2 C2 H5
##MP=-71.2 C
##BP=99.8 C
##$NIST SOURCE=QUANT-IR
##SPECTROMETER/DATA SYSTEM=IFS66V (Bruker)
##INSTRUMENT PARAMETERS=KBr Beam splitter; MCT Detector; Multipass cell
##STATE=gas
##SAMPLE DESCRIPTION=Ethyl Acrylate Primary Gas Standard
##PRESSURE=101.3 kPa
##TEMPERATURE=23 C
##SAMPLING PROCEDURE=1 L/min Flow
##RESOLUTION=0.9640
##DATA PROCESSING=3-Term B-H Apodization
##XUNITS=cm-1
##YUNITS=(micromol/mol)-1m-1 (base 10)
##XFACTOR=1.0
##YFACTOR=18.189E-13
##DELTAX=0.4820
##FIRSTX=575.169
##LASTX=3975.077
##FIRSTY=4.50E-07
##MAXX=3974.59
##MINX=575.17
##MAXY=.0020827
##MINY=-5.13E-07
##NPOINTS=7053
##XYDATA=(X++(Y..Y))
575.17 247510 275406 382114 470044 475688 444344
577.58 462122 502634 457486 347048 308394 349904
580.47 349338 345074 320812 278258 353918 461082
583.37 422544 365374 347722 321844 342226 290904
586.26 213094 263768 384520 451092 417598 368306
589.15 446622 554716 558618 596616 707582 713346
592.04 650476 660654 665786 646826 644934 690404
594.94 808712 927848 976734 979800 1070054 1285884
597.83 1470334 1576424 1666442 1712518 1773520 1953902
600.72 2209002 2450382 2619310 2731238 2812160 2887270
603.61 2998938 3111216 3162008 3213840 3261242 3210408
606.51 3132320 3106098 3155014 3331076 3652418 4104086
609.40 4607488 4821560 4468036 3971052 3766648 3810892
612.29 3948632 4100058 4253266 4413776 4550262 4614424
615.18 4617916 4623324 4613054 4501740 4362606 4250752
618.08 4089586 3904078 3750816 3614682 3462766 3307522
620.97 3184812 3092134 3006094 2930382 2858518 2747768
623.86 2625750 2545626 2476152 2421194 2385372 2330480
626.76 2284200 2269840 2249648 2235702 2194376 2093244
629.65 1986570 1900550 1839160 1760098 1649590 1575786
632.54 1557870 1564014 1565514 1540742 1524828 1547264
635.43 1564150 1590052 1658844 1732354 1785940 1866900
638.33 1963842 2044716 2161984 2278836 2339382 2399914
641.22 2522444 2666482 2790720 2913654 3038578 3187606
644.11 3346596 3496762 3692266 3934062 4194480 4418560
647.00 4610960 4858008 5114308 5340868 5601762 5893000
649.90 6186318 6455180 6721128 7053738 7415476 7753852
652.79 8073764 8368048 8643378 8913382 9184766 9457436
655.68 9720858 9970390 10216930 10372780 10422600 10490110
658.58 10620530 10798420 10951510 11055570 11121850 11197790
661.47 11339510 11490220 11611960 11716250 11785020 11834770
664.36 11913850 12020010 12098340 12135840 12147440 12140170
667.25 12094470 11977440 11828990 11672270 11458680 11185640
670.15 10916160 10650900 10352030 10029860 9711826 9379582
673.04 9005052 8642286 8338686 8036910 7698872 7400960
675.93 7177852 6984964 6815296 6655516 6519134 6418454
678.82 6282206 6083732 5888546 5708168 5492684 5235970
681.72 4964162 4674198 4375092 4093424 3817186 3537830
684.61 3311704 3131382 2917894 2696536 2497938 2328812
687.50 2186558 2032724 1888574 1775940 1705150 1642456
690.40 1543984 1445322 1352412 1260182 1177512 1122862
693.29 1096828 1055392 976124 892370 839192 813408
696.18 803392 784830 743450 697652 649292 615188
699.07 620042 624040 599170 566132 541678 524032
701.97 512718 513092 521312 524014 501020 467186
704.86 446198 455238 466154 458560 452710 451600
707.75 455262 456064 443248 428176 421960 422052
710.64 429706 451920 490500 523438 496446 448934
713.54 470154 509114 504992 505966 544026 572146
716.43 550298 511626 502536 507916 502704 502554
719.32 520940 541676 551868 555882 568410 583162
722.22 582598 581426 584608 585906 593188 600244
725.11 600694 583472 560282 575216 603932 613082
728.00 625392 649498 702254 743042 739570 720188
730.89 712340 716976 718578 712508 705972 719970
733.79 747578 768614 786546 806008 812588 809488
736.68 824130 850562 852352 837842 825626 828954
739.57 859412 892300 908544 922856 935860 937144
742.46 928504 942638 982096 1001792 1004516 1024530
745.36 1042818 1036770 1035010 1051918 1071960 1090860
748.25 1117426 1153754 1186178 1196008 1198432 1215020
751.14 1218742 1208260 1224754 1253994 1289972 1331170
754.04 1340344 1345374 1379124 1404042 1405362 1417392
756.93 1443870 1474894 1510588 1536230 1552708 1584674
759.82 1634130 1682220 1705310 1712814 1750142 1801498
762.71 1831070 1873942 1936526 1994428 2060694 2133828
765.61 2202598 2270110 2359798 2477500 2581568 2654300
768.50 2740664 2870472 3015834 3149440 3274962 3407560
771.39 3562244 3731976 3926988 4142616 4341786 4551288
774.28 4792382 5029418 5279970 5556492 5847202 6153548
777.18 6472628 6797926 7137004 7504976 7888360 8284472
780.07 8698648 9109908 9525628 9989122 10485550 10976180
782.96 11440730 11888860 12371820 12910330 13498540 14119020
785.86 14792020 15582260 16466460 17361980 18240580 19129640
788.75 20029910 20896260 21743800 22632390 23573510 24557660
791.64 25586290 26620320 27583260 28490680 29481520 30605020
794.53 31808740 33031700 34248980 35447820 36618700 37799870
797.43 39006150 40232400 41495910 42755000 43930820 45063970
800.32 46305370 47719710 49271950 50963850 52806500 54699020
803.21 56500530 58328520 60294540 61598020 61769160 61595070
806.10 61706420 62157950 62742610 63368650 64181180 65252910
809.00 66519110 68022780 69817170 71613880 73042220 73988020
811.89 74305660 73819610 72742900 71775720 71030890 69922020
814.78 68560900 67222650 65693090 64130220 62985420 62297980
817.68 61415970 59803120 57963850 56642390 55661080 54436260
820.57 52735150 50712190 48685240 46901540 45439100 44123550
823.46 42824750 41544220 40253710 38961010 37674820 36378300
826.35 35069860 33753500 32436260 31130520 29849040 28602420
829.25 27390240 26176520 24959140 23811140 22745450 21715070
832.14 20705710 19745080 18857720 18008020 17200110 16461580
835.03 15789120 15186320 14619340 14104200 13666440 13267300
837.92 12905570 12603730 12359010 12181310 12061560 11977230
840.82 11926640 11940420 12025290 12131440 12260450 12430480
843.71 12639730 12907980 13210640 13529420 13886250 14273700
846.60 14695090 15145140 15604760 16077970 16567600 17064000
849.50 17559130 18049480 18547140 19064450 19582710 20067240
852.39 20500680 20903330 21305560 21705990 22073080 22409520
855.28 22727420 22965260 23061750 23053090 23024610 23019190
858.17 23030300 23077010 23205220 23386420 23531100 23584180
861.07 23561770 23528010 23516830 23500550 23440080 23323680
863.96 23146710 22924990 22648270 22305270 21934960 21535640
866.85 21099590 20637810 20151710 19655900 19157590 18662850
869.74 18189130 17712740 17222970 16739000 16263900 15785770
872.64 15280240 14750550 14212030 13679200 13166100 12660120
875.53 12154610 11660500 11193840 10759920 10346770 9955872
878.42 9585934 9233944 8911946 8614650 8329102 8061210
881.31 7833302 7659332 7509142 7363016 7237862 7127730
884.21 7037770 6989358 6965654 6936052 6912414 6943804
887.10 7036822 7137764 7237490 7378054 7555486 7750084
889.99 7972318 8214564 8468960 8740224 9024828 9321214
892.89 9603012 9860486 10111870 10351620 10567300 10747460
895.78 10896400 11031380 11142980 11235030 11329920 11449750
898.67 11601470 11734600 11837570 11936860 12013970 12080610
901.56 12172670 12290280 12429250 12578370 12717960 12844600
904.46 12967840 13094310 13226850 13362710 13483010 13584910
907.35 13682850 13779380 13866320 13932340 13969690 14011310
910.24 14056680 14084600 14099640 14090440 14051880 13984300
913.13 13878470 13729900 13541520 13327590 13086540 12808640
916.03 12521530 12241840 11969640 11737570 11575660 11491510
918.92 11456750 11421210 11328850 11171260 11035150 10982920
921.81 11001210 11058330 11109160 11113230 11055590 10936550
924.71 10761170 10524520 10225130 9889354 9547878 9212794
927.60 8892926 8588370 8294578 8022830 7777394 7570064
930.49 7411750 7285734 7190414 7135546 7115416 7119812
933.38 7156976 7223990 7302386 7399376 7522436 7674386
936.28 7870970 8107744 8373094 8659982 8971376 9317670
939.17 9702714 10137920 10632730 11182050 11760870 12375860
942.06 13057720 13799090 14582400 15414950 16306040 17249720
944.95 18238960 19277820 20373040 21507490 22677270 23906440
947.85 25187370 26497560 27823640 29171880 30562190 31973040
950.74 33384240 34819690 36287160 37755370 39200860 40614760
953.63 41980220 43287010 44575340 45897580 47263140 48665600
956.53 50105700 51601600 53173670 54850020 56738820 59024390
959.42 61984850 66004340 71526260 78777650 87171710 94698590
962.31 98115370 94564290 85459700 77192800 74300200 76014620
965.20 80129240 85556690 91573980 96831970 99178510 96717030
968.10 90139460 83531040 80370620 80146340 81012090 82135890
970.99 83260930 84310720 85276300 86159050 86957960 87686800
973.88 88361170 88951980 89429200 89821030 90137940 90367380
976.77 90523810 90618460 90658870 90656500 90620730 90538590
979.67 90386870 90167280 89919860 89648810 89387990 89229230
982.56 89266230 89621820 90426900 91872270 94351900 98471350
985.45 104670300 112229000 118133900 118205700 111000100 99696580
988.35 90180850 85784950 85004870 85552460 86460160 87174460
991.24 87126270 85704440 82491860 78088580 73751420 70354210
994.13 68058130 66406850 64964770 63556010 62081060 60528220
997.02 58919880 57274930 55627500 53988480 52337930 50674530
999.92 49003410 47322880 45645460 43988670 42356380 40742840
1002.81 39144970 37587500 36080650 34611380 33170350 31777300
1005.70 30445420 29177820 27991670 26892660 25877250 24951460
1008.59 24111320 23359210 22699800 22115270 21605590 21190610
1011.49 20843380 20573700 20397200 20275930 20229340 20294090
1014.38 20463260 20736470 21113170 21600710 22203650 22911050
1017.27 23713490 24631860 25683780 26875310 28202690 29660920
1020.17 31276490 33055130 34974700 37045530 39276080 41657320
1023.06 44193830 46872230 49678440 52638840 55719940 58868340
1025.95 62085620 65358890 68650020 71933940 75195030 78408760
1028.84 81548340 84570430 87411140 90054630 92455300 94600630
1031.74 96535580 98249380 99823030 101384000 103028300 104806600
1034.63 106522900 107723000 108171200 108316100 108814200 109855000
1037.52 111331800 113097800 114938800 116540200 117575600 117866300
1040.41 117392700 116326000 115055300 113914700 112790600 111331800
1043.31 109271000 106391300 103116300 100132200 97539480 95216910
1046.20 93133470 91202430 89354300 87580520 85900720 84393690
1049.09 83127810 82111540 81357690 80927050 80874870 81225660
1051.99 81965120 83106140 84667860 86634900 89012690 91788660
1054.88 94923260 98428360 102294600 106458800 110878900 115545200
1057.77 120422800 125395200 130323400 135141300 139813500 144206100
1060.66 148206400 151856700 155179800 158107200 160570100 162568100
1063.56 164234800 165666400 166954500 168281900 169792900 171644400
1066.45 174018400 176850800 179714700 182147600 183877800 184945800
1069.34 185503200 184836500 182462000 179959100 178870700 179059400
1072.23 179744100 180248600 180100400 179001500 176865800 173685800
1075.13 169397200 164118500 158199400 151736500 144701200 137476500
1078.02 130552100 124004100 117640800 111592000 106043000 100918300
1080.91 96146610 91758140 87769900 84141130 80817510 77781480
1083.81 75055390 72546990 70164260 67963150 66003150 64261460
1086.70 62720050 61427570 60406510 59625060 59052980 58667930
1089.59 58461320 58427670 58561900 58854660 59261890 59716330
1092.48 60211070 60737660 61235930 61685110 62056900 62302730
1095.38 62428370 62435690 62348580 62220950 62091760 62003590
1098.27 61987080 62068820 62253900 62467980 62558270 62434060
1101.16 62059560 61465400 60927920 60636050 60430910 60151060
1104.05 59798460 59430960 59093100 58774990 58398280 57905460
1106.95 57282560 56513170 55564070 54450380 53253760 51982920
1109.84 50602970 49161570 47704750 46231050 44771740 43363620
1112.73 41991200 40641490 39336500 38101440 36933330 35825060
1115.63 34769040 33757300 32797050 31903710 31067060 30278190
1118.52 29563460 28905750 28240730 27590020 27033200 26634700
1121.41 26402820 26265040 26157780 26066190 25956880 25804420
1124.30 25614610 25372040 25047110 24638800 24165000 23651150
1127.20 23116170 22575610 22038130 21500260 20973900 20468940
1130.09 19986860 19542110 19149490 18805850 18503330 18231940
1132.98 17980280 17747360 17541830 17384380 17268030 17171950
1135.87 17094430 17040770 17015100 17013020 17022160 17053520
1138.77 17111910 17182900 17267870 17367580 17469120 17577270
1141.66 17712190 17872820 18039800 18216760 18413180 18619910
1144.55 18826030 19035240 19267030 19510300 19750640 20010550
1147.45 20296630 20599820 20931060 21302930 21708140 22133430
1150.34 22588630 23083290 23611160 24185910 24804230 25459120
1153.23 26171170 26924770 27698980 28520350 29398280 30323200
1156.12 31306570 32356990 33468760 34636510 35867340 37202960
1159.02 38666600 40222870 41842540 43524890 45175260 46811330
1161.91 48674780 50866610 53325060 56023550 58928570 61995240
1164.80 65215740 68615980 72211500 76015270 80052860 84309210
1167.69 88682680 93077850 97490380 101890000 106221700 110530600
1170.59 114863200 119252000 123774500 128511500 133563600 139027100
1173.48 144989100 151554200 158800200 166670400 174828200 183206500
1176.37 192423400 202974700 214808100 227769100 241945800 257613100
1179.26 274900700 293721400 313998600 335892700 359644900 385337600
1182.16 412948800 442450300 473897900 507289600 542495200 579320500
1185.05 617623800 657390800 698165400 739301800 780342200 820816900
1187.94 860166300 897750100 932891100 964913500 993297600 1017708000
1190.84 1038032000 1054559000 1067673000 1077907000 1085921000 1092462000
1193.73 1098231000 1103727000 1109569000 1116064000 1123258000 1131197000
1196.62 1138346000 1140043000 1134022000 1127511000 1127909000 1134001000
1199.51 1141065000 1145011000 1143484000 1134840000 1117483000 1090747000
1202.41 1054852000 1010757000 959928300 904285300 846428200 788713300
1205.30 732345000 677980800 626752200 579484000 536153200 496940500
1208.19 461976600 430597800 402030600 376086400 352863100 332096900
1211.08 313245400 295966900 279950100 264705900 249904000 235527800
1213.98 221691100 208468700 195903000 184126600 173206800 162935900
1216.87 153086700 143818800 135428500 127936300 121124000 114751100
1219.76 108890300 103718200 99175610 95057670 91213560 87616680
1222.66 84298900 81245920 78370330 75632320 73073180 70701910
1225.55 68500620 66442220 64523680 62761370 61124870 59592200
1228.44 58165350 56839800 55620080 54511170 53506240 52587380
1231.33 51740700 50983120 50319460 49725020 49213540 48791990
1234.23 48415030 48069960 47775090 47491240 47138740 46736760
1237.12 46388050 46126400 45927120 45748080 45559500 45341310
1240.01 45073320 44768240 44451650 44138140 43846720 43605280
1242.90 43421670 43279560 43165790 43111400 43163670 43283630
1245.80 43407660 43575750 43865920 44305260 44891190 45598560
1248.69 46412000 47365380 48479860 49761760 51243560 52945520
1251.58 54891440 57116240 59648940 62531630 65792340 69466910
1254.48 73601510 78211420 83341050 89033700 95272540 102048600
1257.37 109403900 117340800 125827500 134838200 144304000 154150300
1260.26 164310900 174689800 185200400 195767900 206282100 216598500
1263.15 226641100 236451600 245974600 255111000 263897500 272443800
1266.05 280828100 289108200 297355800 305706800 314219300 322693300
1268.94 330896300 338604000 345416100 351065200 355519600 358685300
1271.83 360688800 361938300 362832000 363745500 364712100 365407200
1274.72 365589500 365278800 364621800 363433800 361213400 357946900
1277.62 353928800 348992200 342566700 333701000 321324000 305993900
1280.51 290427300 277242000 267516900 261146500 257216100 254319500
1283.40 249637700 241651600 232748500 224774500 217375400 210249400
1286.30 203485200 197256700 191772400 187285800 184037700 182152300
1289.19 181678700 182646800 184971300 188462300 192949400 198216600
1292.08 203970700 209924100 215761400 221143600 225692300 229073200
1294.97 231079000 231723200 231232800 229732000 227260500 224112100
1297.87 221249600 220322400 223056100 230479300 241472100 249841000
1300.76 246752900 235370000 228869300 231007300 237034700 243203800
1303.65 247776200 249952900 249445000 246216800 240387000 232176400
1306.54 221741900 209340300 195800400 182227600 169338800 157371300
1309.44 146354600 136344700 127307200 119126100 111760300 105129900
1312.33 99117190 93632950 88608280 83976760 79666920 75594580
1315.22 71720490 68048180 64597020 61366840 58319440 55420780
1318.12 52653260 50017370 47508970 45110330 42846280 40743960
1321.01 38782940 36942170 35212240 33585840 32066160 30636540
1323.90 29256640 27901010 26597560 25378320 24246390 23179090
1326.79 22163160 21205210 20296010 19422930 18581410 17776110
1329.69 17015430 16282100 15577920 14916010 14293510 13707100
1332.58 13154730 12645240 12185350 11749580 11329810 10954540
1335.47 10627760 10330660 10064570 9828318 9610850 9413046
1338.36 9233358 9058244 8901446 8779414 8669264 8560430
1341.26 8474478 8408626 8341252 8265632 8200492 8153982
1344.15 8112736 8073502 8041486 8006668 7973514 7953510
1347.04 7942922 7936210 7938576 7955152 7980988 8010246
1349.94 8049254 8100756 8167402 8254776 8359594 8486398
1352.83 8629106 8781542 8963002 9181870 9429260 9705922
1355.72 10018540 10361190 10728690 11129320 11579260 12071940
1358.61 12593090 13144360 13715920 14287450 14861250 15446900
1361.51 16021390 16548960 17016930 17434100 17782990 18043870
1364.40 18246060 18424590 18608220 18836340 19172780 19699350
1367.29 20430230 21183610 21740500 22158090 22620780 23122830
1370.18 23493350 23696370 23933500 24379110 25029280 25802410
1373.08 26649180 27536750 28427290 29316740 30212660 31101940
1375.97 32004640 32937500 33896120 34913220 36032440 37263580
1378.86 38622820 40126330 41788370 43611440 45584640 47712840
1381.76 49983720 52343940 54745970 57173370 59573080 61872320
1384.65 64076680 66174400 68074140 69735960 71224450 72595590
1387.54 73874760 75104950 76377230 77800750 79355900 80874840
1390.43 82177580 83224170 84305830 85929170 88225490 90597220
1393.33 92945160 95993420 99933580 104469000 109322300 114278100
1396.22 119209900 124090700 128962900 133911600 139002900 144316900
1399.11 149977000 156081000 162642600 169585200 176851600 184408800
1402.00 192111200 199823800 207373100 214419000 220675200 226040900
1404.90 230464100 233858600 236212600 237659000 238480300 238975200
1407.79 239462700 240662700 243806600 249073500 252391200 249889300
1410.68 244699700 241169300 239735200 239483600 239788400 240187800
1413.58 240323100 239796400 238270800 235613100 231444100 225690000
1416.47 219060400 212076500 204782700 197057400 188772900 179925200
1419.36 170599400 160844300 150748800 140505400 130255900 120121800
1422.25 110281600 100922300 92129360 83929990 76418870 69641880
1425.15 63562530 58149300 53382380 49223160 45629450 42556510
1428.04 39930720 37700730 35825250 34231430 32865210 31702080
1430.93 30717200 29883870 29180330 28583300 28088160 27687260
1433.82 27361110 27104960 26923010 26801650 26729310 26722720
1436.72 26780360 26863660 26969430 27119840 27301880 27507010
1439.61 27736230 27980900 28243610 28524660 28830570 29158780
1442.50 29480850 29794180 30107580 30411100 30701920 30989250
1445.40 31282440 31581640 31878720 32165610 32439560 32727680
1448.29 33067970 33458940 33900060 34430520 35066980 35770290
1451.18 36486600 37172460 37717750 38060290 38241990 38266630
1454.07 38165210 38013940 37903060 37896880 37987560 38139530
1456.97 38330560 38538960 38755020 39008680 39283900 39469340
1459.86 39533540 39582570 39707260 39940400 40309630 40832570
1462.75 41466020 42110300 42589830 42788210 42860190 42994880
1465.64 43200560 43413690 43569900 43627170 43584680 43478830
1468.54 43362170 43292850 43362900 43632800 44068900 44482450
1471.43 44367210 43492610 42383560 41534270 41007210 40720800
1474.32 40584570 40506260 40407200 40254500 40045030 39765580
1477.21 39391250 38915720 38367670 37756840 37068280 36305260
1480.11 35485000 34615100 33694310 32711420 31662670 30550600
1483.00 29382870 28173400 26946620 25744140 24617670 23616700
1485.89 22785680 22158160 21745520 21529080 21458810 21462840
1488.79 21473190 21444240 21357720 21189250 20920580 20570570
1491.68 20172010 19738270 19270390 18775370 18266680 17753240
1494.57 17251200 16758470 16261150 15770340 15303190 14860930
1497.46 14438620 14038850 13662300 13303290 12971230 12664770
1500.36 12366750 12076480 11807160 11559580 11320740 11085100
1503.25 10856580 10629630 10416650 10230580 10044840 9846856
1506.14 9664068 9492682 9316408 9151890 9010262 8878612
1509.03 8748460 8625242 8509546 8397240 8293132 8205360
1511.93 8125550 8032670 7932876 7846594 7771902 7700338
1514.82 7623448 7536208 7448662 7366624 7283548 7189638
1517.71 7094948 7003540 6913210 6831660 6745554 6652762
1520.61 6574310 6500866 6413788 6315960 6227314 6149874
1523.50 6066772 5980336 5898666 5819928 5729850 5629548
1526.39 5538560 5454832 5367944 5277766 5186680 5093642
1529.28 4999146 4907390 4823894 4752664 4683794 4609818
1532.18 4535186 4468098 4412312 4350738 4286070 4234064
1535.07 4187330 4139202 4089464 4040866 4001586 3971562
1537.96 3947922 3923786 3888614 3855938 3826490 3786134
1540.85 3749736 3735606 3726404 3705310 3686232 3669868
1543.75 3658370 3652892 3642972 3636908 3643296 3649548
1546.64 3654016 3661148 3664924 3662864 3672664 3694124
1549.53 3710288 3720972 3739196 3772300 3807494 3831016
1552.43 3854884 3889936 3932534 3978086 4014434 4045108
1555.32 4081962 4127804 4181288 4233854 4278670 4323826
1558.21 4369172 4403452 4429144 4451648 4466438 4475232
1561.10 4487942 4505628 4522684 4537344 4559262 4589902
1564.00 4628248 4667868 4697660 4720324 4736886 4751530
1566.89 4768578 4782804 4798312 4817908 4832136 4831390
1569.78 4815018 4790852 4766186 4738364 4710604 4686454
1572.67 4655666 4617462 4581242 4546852 4523346 4519568
1575.57 4518274 4501956 4485798 4479352 4475436 4473912
1578.46 4476876 4483520 4492642 4501412 4512376 4530940
1581.35 4550406 4558552 4562980 4575686 4600328 4624548
1584.25 4640920 4657600 4675282 4691346 4705512 4721094
1587.14 4743576 4768100 4791664 4811790 4833960 4867972
1590.03 4910950 4955620 5001764 5044254 5076982 5115242
1592.92 5169856 5231346 5294844 5366464 5449164 5528796
1595.82 5609858 5708818 5820554 5936164 6056072 6179022
1598.71 6303880 6430494 6569086 6723166 6893204 7075958
1601.60 7260374 7458006 7685970 7929282 8174584 8440392
1604.49 8738372 9058794 9401012 9763760 10138300 10532610
1607.39 10957920 11404830 11866540 12351040 12849580 13354790
1610.28 13883770 14440550 15014440 15608320 16231980 16877570
1613.17 17541340 18239280 18961610 19677570 20378350 21088220
1616.07 21806950 22505040 23197670 23893900 24563310 25187380
1618.96 25770150 26306100 26768200 27139530 27416360 27611130
1621.85 27758840 27886830 28024100 28211140 28488090 28898680
1624.74 29457440 30144240 30920750 31754720 32635730 33545060
1627.64 34461600 35384200 36337870 37353070 38434990 39584080
1630.53 40842780 42246640 43772210 45399650 47148730 49032280
1633.42 51033820 53102720 55140930 57050780 58757100 60174880
1636.31 61205930 61774100 61850190 61463770 60671760 59589910
1639.21 58420170 57399390 56784580 56731170 57035980 56933400
1642.10 55575780 53255420 51361630 50851870 51639290 52957220
1644.99 53939380 54402450 54934530 55850550 56736820 57078070
1647.89 56633760 55342390 53241120 50454970 47151930 43502520
1650.78 39663100 35787530 32005880 28431510 25143600 22177750
1653.67 19563600 17311870 15401070 13803710 12482470 11404260
1656.56 10547940 9872726 9318414 8853414 8477072 8166090
1659.46 7901542 7681486 7486454 7299874 7129648 6985636
1662.35 6865920 6753002 6644578 6553028 6471834 6393566
1665.24 6323108 6260346 6200454 6155478 6130384 6104776
1668.13 6077470 6060642 6049362 6040266 6039208 6050404
1671.03 6068804 6087582 6103292 6124382 6164588 6215010
1673.92 6263336 6317192 6373414 6421416 6474350 6537500
1676.81 6605714 6679280 6750896 6811652 6861374 6901226
1679.71 6936308 6974460 7019164 7068480 7125178 7192742
1682.60 7261550 7329190 7411072 7508598 7603592 7696908
1685.49 7796076 7901142 8023508 8156854 8284000 8411856
1688.38 8546236 8687550 8836270 8985042 9129766 9275158
1691.28 9431994 9602832 9777612 9951180 10127320 10315670
1694.17 10523070 10748980 10992160 11244290 11499560 11761020
1697.06 12035410 12325330 12626330 12937660 13253130 13559660
1699.95 13854750 14140410 14414360 14669550 14899780 15096670
1702.85 15245580 15347340 15410130 15436170 15438900 15438080
1705.74 15463790 15557710 15759000 16107270 16624920 17290360
1708.63 18064170 18900430 19747740 20568420 21346330 22075830
1711.53 22754330 23401530 24042820 24699620 25394540 26145540
1714.42 26962280 27835900 28780450 29827900 30993830 32291040
1717.31 33730740 35318790 37072390 39016900 41175730 43563220
1720.20 46176060 49016300 52093180 55424080 59016440 62868180
1723.10 67010160 71468310 76238910 81331920 86765660 92569120
1725.99 98780640 105396900 112410000 119843900 127749400 136162100
1728.88 145070400 154484500 164414200 174872800 185924400 197603500
1731.77 209894400 222763800 236237400 250402900 265291300 280947300
1734.67 297363300 314424900 332130200 350512500 369556300 389173600
1737.56 409279600 429846300 450640700 471398000 491991200 512133500
1740.45 531466000 549522400 565821000 580000300 591515500 599816900
1743.34 604533700 605540700 602832300 596603500 587632400 577096300
1746.24 566335600 556805400 549884300 546337600 546262700 549359900
1749.13 554937300 562434600 571821000 582906700 595083800 607598400
1752.02 619341800 628827400 634570900 635501900 631254500 622195200
1754.92 608986800 592264200 572846300 551615700 529292600 506353400
1757.81 482998400 459507600 436301000 413709000 391878600 370824400
1760.70 350546700 331163500 312817500 295411200 278814800 263014100
1763.59 247964600 233596600 219873600 206771800 194261900 182320400
1766.49 170946500 160098500 149716100 139842600 130500700 121654300
1769.38 113304600 105435500 98012560 91036550 84499450 78398790
1772.27 72745620 67501030 62602560 58057650 53889330 50060760
1775.16 46530520 43289330 40333340 37644510 35191100 32941810
1778.06 30886740 29024270 27327020 25775150 24363320 23085160
1780.95 21938290 20896560 19947740 19091780 18310320 17597720
1783.84 16958740 16374410 15828700 15324400 14857920 14437710
1786.74 14070040 13736510 13421300 13119690 12838770 12581800
1789.63 12338520 12113150 11913880 11720370 11527910 11349800
1792.52 11172460 10982380 10791310 10608610 10433550 10267560
1795.41 10106090 9940710 9777356 9629184 9485280 9336250
1798.31 9197756 9080104 8974636 8883564 8799904 8705416
1801.20 8614226 8543324 8479320 8407040 8338552 8277262
1804.09 8206298 8126400 8044080 7964470 7885252 7798370
1806.98 7706542 7616206 7529128 7445146 7360006 7270944
1809.88 7184178 7105494 7030234 6951704 6871660 6798794
1812.77 6727364 6656026 6594162 6541224 6492862 6443770
1815.66 6397498 6360836 6327568 6294064 6267544 6249444
1818.56 6234678 6221880 6217350 6223506 6231962 6236876
1821.45 6236510 6221274 6189668 6156398 6129862 6107424
1824.34 6081060 6050730 6022790 6000936 5983252 5967672
1827.23 5952036 5927664 5897882 5869806 5840542 5806966
1830.13 5768816 5726432 5683192 5647190 5612296 5560030
1833.02 5499528 5443538 5384940 5325472 5267610 5206430
1835.91 5141898 5084062 5038002 4992794 4951224 4914894
1838.80 4876018 4837310 4793654 4746074 4700862 4645632
1841.70 4573326 4494330 4417216 4341810 4268340 4197638
1844.59 4129088 4059972 3995228 3935202 3870292 3799978
1847.48 3734226 3679394 3623364 3563392 3502188 3437722
1850.38 3382912 3337386 3287180 3234626 3180210 3122636
1853.27 3068758 3022030 2985188 2948348 2907542 2876494
1856.16 2851590 2822240 2789062 2755122 2719582 2683922
1859.05 2656716 2634168 2609444 2582356 2552314 2524474
1861.95 2504080 2484866 2462750 2441078 2419770 2395938
1864.84 2377218 2369214 2359428 2349374 2345960 2346160
1867.73 2346028 2347130 2351656 2360128 2375944 2390582
1870.62 2399992 2411510 2428388 2455880 2493988 2534432
1873.52 2574560 2609614 2643984 2688632 2741174 2797514
1876.41 2854312 2911672 2971212 3030968 3096574 3163202
1879.30 3228872 3297582 3363514 3424852 3487914 3560088
1882.20 3636536 3704880 3763788 3822354 3885722 3949132
1885.09 4012652 4076672 4132214 4181738 4236328 4292560
1887.98 4340350 4377186 4407986 4433984 4454146 4473116
1890.87 4492356 4513632 4537318 4560602 4587618 4609420
1893.77 4618436 4622780 4631148 4650510 4669834 4677346
1896.66 4681812 4687444 4685172 4675922 4669768 4664942
1899.55 4652084 4634108 4614940 4593650 4572696 4558520
1902.44 4548716 4541090 4544466 4561684 4585540 4616872
1905.34 4652448 4684838 4722746 4773904 4839412 4920544
1908.23 5010012 5096118 5185726 5288300 5401438 5526434
1911.12 5661336 5795836 5930758 6081820 6248466 6426668
1914.02 6616930 6808222 7002358 7207772 7417090 7628070
1916.91 7846792 8069886 8296762 8530238 8767108 9008684
1919.80 9254748 9495510 9736166 9985222 10241260 10499420
1922.69 10762670 11045170 11353100 11689590 12050860 12425020
1925.59 12819350 13236360 13654260 14059080 14444460 14779270
1928.48 15037080 15227770 15353900 15398920 15359550 15257330
1931.37 15115240 14940930 14747300 14546010 14339320 14137830
1934.26 13935150 13703380 13436630 13163920 12928410 12762750
1937.16 12681170 12682040 12729940 12760820 12720530 12585540
1940.05 12353670 12037820 11655580 11210980 10723260 10217600
1942.94 9699760 9185502 8693494 8224714 7784624 7378122
1945.84 7004392 6667302 6367000 6104568 5873578 5669746
1948.73 5499532 5359188 5239546 5138386 5062106 5000914
1951.62 4936116 4873040 4828140 4806274 4809196 4822798
1954.51 4833056 4836574 4817246 4768028 4693992 4601078
1957.41 4496788 4391562 4283564 4169266 4058222 3954524
1960.30 3858016 3766028 3673302 3583606 3500616 3419976
1963.19 3353144 3300416 3242900 3180264 3125718 3078976
1966.08 3031342 2981278 2936222 2902206 2872316 2841484
1968.98 2808128 2774308 2747508 2728198 2711886 2695480
1971.87 2679752 2658852 2625568 2592358 2560704 2525544
1974.76 2497042 2476666 2458474 2437338 2416878 2404548
1977.66 2398866 2395858 2394860 2395388 2394806 2395074
1980.55 2396254 2400532 2408924 2411334 2409924 2410062
1983.44 2405154 2391490 2378146 2364606 2347584 2330400
1986.33 2319738 2314280 2307454 2298676 2286482 2271238
1989.23 2250022 2227610 2213262 2202812 2195596 2193234
1992.12 2190058 2185300 2181432 2171774 2152864 2129160
1995.01 2096364 2053168 2012012 1973850 1935260 1900272
1997.90 1862136 1816786 1771268 1729918 1694232 1670320
2000.80 1653788 1633102 1611620 1591746 1574628 1564946
2003.69 1557586 1543672 1526580 1518634 1522452 1523970
2006.58 1519724 1516954 1512972 1503632 1497738 1502240
2009.48 1507446 1503812 1499686 1505374 1511696 1518576
2012.37 1535110 1556476 1572946 1579150 1581338 1591438
2015.26 1612090 1630412 1641476 1657642 1677122 1690608
2018.15 1700054 1712456 1728896 1750036 1774002 1795680
2021.05 1818518 1838914 1854016 1878148 1908630 1935528
2023.94 1960540 1991524 2027130 2059244 2092254 2129336
2026.83 2164190 2200104 2244252 2292808 2336848 2374706
2029.72 2412126 2454718 2504402 2559132 2613364 2670370
2032.62 2735490 2807188 2875594 2940752 3016828 3104322
2035.51 3199130 3299038 3399816 3500798 3613714 3739632
2038.40 3864214 3993890 4134308 4286498 4457794 4636152
2041.29 4807138 4977934 5157752 5345564 5534484 5721442
2044.19 5908360 6095854 6279400 6453598 6620624 6778226
2047.08 6926138 7070130 7212614 7348582 7472396 7589600
2049.97 7704904 7816956 7919054 8020246 8129570 8236244
2052.87 8339040 8441426 8534642 8610590 8671342 8718734
2055.76 8754130 8787098 8826194 8854560 8855646 8838600
2058.65 8805464 8740704 8641382 8511512 8358742 8192416
2061.54 8008562 7815460 7634722 7461538 7280894 7101582
2064.44 6933228 6775922 6625918 6480174 6339834 6199628
2067.33 6058666 5923650 5792190 5659994 5526032 5386376
2070.22 5244872 5102552 4958976 4823290 4699294 4583064
2073.11 4471954 4361602 4253278 4151440 4050000 3950742
2076.01 3862004 3781922 3708264 3635414 3559470 3491798
2078.90 3435642 3380518 3321066 3263154 3222208 3191166
2081.79 3158436 3133114 3116520 3096898 3068628 3051002
2084.69 3053160 3055296 3050082 3043844 3044370 3049312
2087.58 3054332 3061784 3066522 3065772 3065882 3063798
2090.47 3061272 3063564 3064704 3066058 3065506 3058558
2093.36 3054320 3051258 3038880 3016936 2994250 2981050
2096.26 2974514 2964154 2951062 2942006 2927316 2901754
2099.15 2880710 2861972 2843320 2827866 2805216 2778422
2102.04 2749346 2714906 2688468 2664372 2627564 2589476
2104.93 2557408 2530528 2504992 2474116 2444324 2427598
2107.83 2414622 2390872 2369682 2357010 2348888 2347632
2110.72 2344376 2337332 2332352 2330394 2335468 2342092
2113.61 2342418 2342222 2344896 2347914 2354508 2365150
2116.51 2381142 2401358 2409502 2405766 2404934 2407162
2119.40 2412064 2418272 2422232 2427528 2431724 2428892
2122.29 2429384 2432900 2429376 2430230 2437618 2438276
2125.18 2436542 2437388 2430328 2418138 2417082 2425772
2128.08 2429654 2422158 2413790 2407662 2395910 2381176
2130.97 2365902 2353590 2344236 2330338 2305982 2280406
2133.86 2264438 2252014 2235670 2218724 2200968 2181832
2136.75 2163368 2145924 2121482 2086250 2059356 2044884
2139.65 2032488 2018504 2001312 1985278 1965728 1937604
2142.54 1909552 1891338 1881938 1869944 1847798 1823012
2145.43 1804872 1791298 1770984 1746960 1729670 1722028
2148.33 1716766 1705510 1686570 1665364 1652592 1647916
2151.22 1645276 1643168 1636614 1628256 1627248 1630720
2154.11 1631016 1630596 1632266 1633616 1644896 1663038
2157.00 1669228 1664272 1666502 1682138 1697714 1705838
2159.90 1711380 1720330 1723258 1717908 1718436 1720760
2162.79 1724010 1728150 1723584 1708646 1686580 1667668
2165.68 1653940 1637116 1618132 1600752 1582208 1563676
2168.57 1546092 1531126 1519906 1499326 1470702 1447054
2171.47 1424646 1401414 1382360 1364120 1339902 1312798
2174.36 1285908 1255386 1219120 1183568 1151992 1119632
2177.25 1088794 1061636 1036884 1005182 969144 948496
2180.15 940138 929304 917814 907558 893118 879950
2183.04 874700 874096 876146 875554 871270 869598
2185.93 865182 859930 864514 871786 874840 874258
2188.82 867056 861506 867480 879302 888316 889338
2191.72 887458 893492 902316 898216 889950 890504
2194.61 889526 880642 881920 894876 898202 892504
2197.50 892592 902476 905334 892248 878570 874716
2200.39 875804 875080 866832 857342 853472 850754
2203.29 847814 844618 835108 829622 833386 830048
2206.18 819736 810526 810954 817348 813132 806228
2209.07 807182 811110 813646 809664 802006 796640
2211.97 794924 799882 809040 814692 807916 794252
2214.86 791322 799640 807614 813674 825466 835508
2217.75 837734 838666 844644 861138 873030 870930
2220.64 871696 884968 899660 909046 919178 929874
2223.54 933474 933328 937362 940958 941858 943696
2226.43 939336 926554 919090 927040 936792 932498
2229.32 931632 946308 958892 964878 976438 994258
2232.21 1005040 1011896 1020554 1027472 1029528 1023188
2235.11 1019978 1026548 1027456 1020656 1016282 1014422
2238.00 1009498 1004850 1006220 1005922 1003128 1004684
2240.89 1008116 1009574 1009048 1007422 1005598 1011852
2243.79 1024574 1032228 1029414 1026840 1029470 1030900
2246.68 1034916 1034752 1032632 1030278 1025122 1023292
2249.57 1023234 1023852 1020750 1009422 1005946 1011766
2252.46 1006278 997688 996274 992168 987082 987280
2255.36 993222 998508 1001750 1002046 1002690 1009308
2258.25 1012782 1012588 1016418 1024152 1028292 1027520
2261.14 1028298 1031898 1038236 1046636 1053864 1061738
2264.03 1072754 1079970 1078624 1073836 1070868 1068752
2266.93 1070988 1072220 1064300 1058590 1063422 1067390
2269.82 1061858 1053434 1048874 1046672 1045108 1047896
2272.71 1048626 1044242 1046172 1058426 1065986 1061134
2275.61 1048064 1035462 1038632 1047782 1048116 1042524
2278.50 1034352 1034186 1043168 1045624 1043130 1042518
2281.39 1042288 1041216 1035802 1029656 1022078 1014068
2284.28 1012564 1012896 1010198 1009062 1009766 1010230
2287.18 1011134 1013744 1019978 1028134 1029698 1017946
2290.07 1002726 1001310 1012054 1028214 1046294 1058316
2292.96 1066946 1073988 1077520 1084628 1096018 1108512
2295.85 1122168 1132536 1143850 1164510 1182632 1194508
2298.75 1208720 1223144 1231066 1237756 1256654 1283132
2301.64 1302052 1309722 1317232 1333692 1354702 1371352
2304.53 1385192 1399928 1415190 1431822 1453868 1479094
2307.43 1500814 1521338 1534046 1543718 1558590 1576584
2310.32 1600546 1619888 1631616 1643246 1663266 1686912
2313.21 1697494 1699446 1701844 1705706 1709688 1710816
2316.10 1709430 1708060 1703890 1706046 1711744 1708320
2319.00 1703036 1705602 1711564 1717988 1721240 1710822
2321.89 1702784 1706030 1694570 1677900 1683858 1695436
2324.78 1689174 1675626 1669284 1658312 1634000 1608542
2327.67 1591394 1580798 1565000 1544276 1536984 1528868
2330.57 1495662 1461486 1448050 1435708 1409886 1386436
2333.46 1377736 1366442 1347002 1335266 1323020 1296988
2336.35 1277864 1280162 1283390 1275704 1271542 1271942
2339.24 1252002 1221918 1206784 1190196 1167016 1158956
2342.14 1147608 1114858 1095488 1097168 1088342 1072578
2345.03 1069884 1074224 1076714 1074970 1070622 1072986
2347.92 1082168 1097674 1122502 1144614 1153130 1161662
2350.82 1180162 1203202 1232954 1262312 1283478 1310972
2353.71 1350640 1387510 1424776 1470044 1506272 1537680
2356.60 1583992 1627672 1666112 1712546 1742484 1766198
2359.49 1806868 1838944 1866090 1900086 1922970 1954068
2362.39 1995532 2027334 2063644 2093030 2124014 2166894
2365.28 2195804 2230878 2278648 2325016 2376568 2425188
2368.17 2477466 2536912 2583332 2627352 2678792 2726956
2371.06 2772192 2821054 2874132 2924692 2976392 3029550
2373.96 3080212 3123002 3161902 3206754 3252594 3295062
2376.85 3344718 3402342 3457826 3509876 3558484 3604546
2379.74 3645436 3683550 3729652 3772694 3801758 3829784
2382.64 3858774 3885312 3905834 3912278 3911744 3922392
2385.53 3946444 3972742 3989208 3986572 3973948 3964450
2388.42 3954386 3937382 3920190 3905236 3879212 3844806
2391.31 3814052 3774054 3713058 3644946 3585972 3531880
2394.21 3462716 3372728 3275096 3180248 3090920 3002018
2397.10 2909298 2822132 2739250 2657376 2589024 2529750
2399.99 2463520 2392478 2324824 2261762 2203822 2150844
2402.88 2102366 2054504 2005428 1963602 1923222 1882656
2405.78 1844224 1802670 1765628 1740822 1721534 1699214
2408.67 1673328 1651164 1635458 1624596 1616954 1601036
2411.56 1574358 1560650 1566080 1567728 1558592 1548116
2414.46 1539674 1533592 1530230 1528174 1522662 1514114
2417.35 1501538 1489786 1485760 1478350 1468678 1464150
2420.24 1457500 1449110 1447184 1442570 1427996 1418322
2423.13 1415828 1409814 1397916 1386380 1379068 1370710
2426.03 1358446 1343698 1327018 1301518 1272588 1249924
2428.92 1227820 1207682 1187062 1163002 1141576 1116878
2431.81 1095766 1080950 1057918 1038086 1031256 1016578
2434.70 996754 974970 942774 915336 904944 898266
2437.60 882304 864734 849138 830682 811068 796626
2440.49 789308 782604 769666 756678 749010 740606
2443.38 731306 719452 701140 686020 684716 684958
2446.28 673574 662156 659178 663220 671460 676976
2449.17 673716 664222 652366 644436 642340 644322
2452.06 654354 665592 671688 675472 675424 680104
2454.95 688064 686450 686296 701144 726602 745254
2457.85 745492 744372 758284 776950 792526 809136
2460.74 825722 839888 856430 870238 880140 901962
2463.63 929738 952106 981026 1016150 1046860 1073356
2466.52 1093514 1103166 1112652 1133438 1155270 1175628
2469.42 1205214 1231144 1245290 1260066 1281038 1304216
2472.31 1322506 1333688 1347260 1367754 1382604 1390768
2475.20 1404276 1424698 1437046 1440702 1456236 1476468
2478.10 1483556 1483434 1490506 1504076 1516498 1523098
2480.99 1522176 1512014 1499532 1500090 1509798 1506850
2483.88 1492048 1488038 1497240 1493826 1478600 1471256
2486.77 1470326 1470900 1460184 1440022 1437086 1442758
2489.67 1437160 1433242 1432854 1418634 1398006 1385574
2492.56 1376470 1365496 1351436 1338608 1329466 1320752
2495.45 1317054 1314880 1311092 1304492 1289548 1273918
2498.34 1263936 1255678 1244062 1228442 1214416 1199362
2501.24 1181584 1160232 1143474 1135028 1117524 1100964
2504.13 1084402 1054502 1031814 1020676 1010214 993288
2507.02 971674 954086 931024 907566 899260 887540
2509.92 871520 866330 858818 848318 836988 821176
2512.81 812706 804330 789558 783128 787596 784592
2515.70 762716 739556 729914 734788 742180 737484
2518.59 727402 728594 736714 739754 740398 734628
2521.49 726302 727020 734230 742612 744220 747220
2524.38 759544 773008 783420 793454 798606 798048
2527.27 807874 820840 825664 830764 837974 847822
2530.16 864350 880998 896052 907198 911650 924780
2533.06 938812 946828 958446 978254 1000644 1011146
2535.95 1018526 1034040 1049004 1048552 1038498 1040762
2538.84 1055170 1060310 1061696 1074424 1089594 1099222
2541.74 1096878 1092118 1095608 1100544 1107512 1122328
2544.63 1134480 1130360 1118274 1114430 1117398 1121478
2547.52 1126106 1130890 1130682 1121464 1113290 1112928
2550.41 1111974 1112370 1118096 1116768 1112080 1120112
2553.31 1129634 1125772 1116390 1109110 1105580 1105560
2556.20 1099634 1089820 1083864 1076910 1065134 1042068
2559.09 1015716 1004992 1000224 983218 956862 937040
2561.98 924434 907644 892926 883492 869722 848934
2564.88 830634 821062 818984 813340 801696 794076
2567.77 787744 780604 768236 749170 730064 712970
2570.66 695598 677354 654780 629818 608602 592458
2573.56 581504 570336 556926 548124 540760 533878
2576.45 529586 528788 524816 522160 524114 522538
2579.34 519632 525208 533632 527794 509486 499044
2582.23 506872 518492 519874 522110 533724 545234
2585.13 558746 570778 572650 582320 608698 632078
2588.02 641260 645122 651638 662238 675894 690670
2590.91 706872 725552 745438 761736 771208 780898
2593.80 793918 808650 821556 830882 841812 854548
2596.70 865608 874978 883240 894642 906084 920748
2599.59 938848 940484 939206 952556 965976 974870
2602.48 984232 989336 990028 990582 987028 982360
2605.37 985096 989416 987824 979832 966890 955188
2608.27 943830 935724 940034 951464 967788 978206
2611.16 969436 957522 952012 948480 949294 947092
2614.05 937860 934730 929318 910542 892188 881030
2616.95 870118 863096 860956 856918 846762 835490
2619.84 827328 816580 804660 795316 786800 776156
2622.73 761660 758002 763010 756172 743120 734222
2625.62 726522 711876 697732 691718 689112 687942
2628.52 679220 663664 660588 667792 672832 675002
2631.41 671610 667024 663142 656510 651402 650776
2634.30 651040 649270 647360 651798 664332 678094
2637.19 687078 689838 693990 699622 698204 706098
2640.09 726588 738262 733758 725130 731364 747020
2642.98 752934 757476 768334 781192 793490 795346
2645.87 794304 800278 802778 810360 832334 851184
2648.77 855602 857290 873612 891708 897286 898876
2651.66 901160 906304 917992 932046 936876 937218
2654.55 949908 965828 968812 974848 991884 1004094
2657.44 1009528 1018282 1038606 1063380 1071180 1067022
2660.34 1073806 1086438 1079716 1075510 1088874 1092746
2663.23 1089986 1090278 1087700 1084254 1085606 1096786
2666.12 1103172 1098974 1098602 1106118 1116708 1121120
2669.01 1122530 1120964 1116920 1125520 1133302 1134668
2671.91 1144638 1147474 1130912 1115824 1112414 1108530
2674.80 1107294 1100522 1086788 1085622 1078090 1050506
2677.69 1032752 1031696 1035862 1046068 1050386 1040540
2680.59 1030970 1025016 1013318 1013560 1030822 1038960
2683.48 1040050 1034986 1025870 1033644 1046634 1045632
2686.37 1044824 1051238 1047830 1040646 1046616 1056268
2689.26 1066562 1085138 1102932 1109592 1106556 1113108
2692.16 1144168 1174846 1186310 1198642 1222026 1246810
2695.05 1268386 1293528 1334716 1374514 1397500 1415434
2697.94 1435484 1459094 1485602 1503390 1505816 1506078
2700.83 1526654 1557594 1570518 1570136 1567876 1575512
2703.73 1593448 1598208 1595352 1604076 1622424 1638058
2706.62 1638658 1634456 1638770 1642740 1635836 1623454
2709.51 1625988 1630632 1613540 1593596 1581430 1576156
2712.41 1574268 1558646 1535852 1518388 1504798 1495714
2715.30 1484166 1467538 1450878 1429898 1413408 1411902
2718.19 1418188 1428178 1432448 1432906 1442208 1450458
2721.08 1448442 1448232 1451408 1442074 1430158 1437038
2723.98 1449362 1459498 1458848 1446164 1446472 1457604
2726.87 1461128 1460914 1465266 1480996 1499812 1508868
2729.76 1513516 1517648 1528326 1542272 1557878 1579864
2732.65 1608040 1634660 1642114 1636314 1623354 1599784
2735.55 1586456 1587508 1581388 1572396 1560708 1540952
2738.44 1522718 1504092 1485532 1468774 1454036 1451996
2741.33 1453666 1445202 1424852 1409904 1408508 1415796
2744.23 1427728 1431376 1428036 1432804 1446344 1457856
2747.12 1467742 1484786 1505396 1517802 1513502 1508726
2750.01 1518302 1534612 1544850 1545246 1549116 1554888
2752.90 1554372 1552124 1552858 1560382 1572508 1578160
2755.80 1573728 1578684 1602074 1623402 1637150 1670066
2758.69 1725390 1771948 1792356 1797410 1811192 1840306
2761.58 1869176 1900606 1942936 1975890 1992594 2014880
2764.47 2045620 2079572 2115208 2137846 2147156 2158650
2767.37 2176044 2190810 2202106 2212638 2219598 2226600
2770.26 2231510 2237968 2249442 2251580 2250458 2249484
2773.15 2229098 2200200 2182796 2173808 2160372 2139840
2776.05 2121274 2107174 2096286 2083928 2066928 2052698
2778.94 2030396 1992444 1957270 1923772 1883738 1848420
2781.83 1817114 1774930 1731256 1703018 1686340 1662556
2784.72 1623302 1588582 1569736 1551034 1527744 1513776
2787.62 1507072 1504286 1510816 1519562 1521452 1522284
2790.51 1523416 1520276 1520622 1534768 1557454 1568118
2793.40 1564548 1563850 1580992 1608352 1624150 1624732
2796.29 1629088 1633448 1630972 1639356 1655824 1674972
2799.19 1700290 1716164 1720170 1725454 1737256 1754190
2802.08 1776238 1802456 1825610 1842214 1859580 1885542
2804.97 1911194 1930492 1956398 1987226 2011642 2038836
2807.87 2066708 2091610 2118912 2141914 2159360 2189778
2810.76 2230892 2267166 2310008 2349310 2387362 2435330
2813.65 2477588 2509638 2546486 2604664 2675420 2746456
2816.54 2815036 2870530 2914762 2966564 3038332 3111630
2819.44 3179950 3250616 3308682 3348954 3387946 3426140
2822.33 3460730 3493588 3516120 3534502 3552430 3559692
2825.22 3565358 3580272 3590828 3596378 3612638 3634212
2828.11 3647826 3664920 3692274 3708388 3713904 3725902
2831.01 3744306 3767762 3795222 3813708 3806940 3788882
2833.90 3781494 3778732 3766632 3754458 3741054 3720976
2836.79 3713272 3722230 3737326 3742456 3725648 3711172
2839.69 3719484 3734136 3737584 3730142 3720190 3720304
2842.58 3741780 3765468 3776908 3794070 3814838 3833994
2845.47 3856144 3875794 3890290 3899728 3907846 3925150
2848.36 3955690 3983928 4004912 4027896 4043422 4065622
2851.26 4099490 4124784 4151340 4181310 4210418 4244508
2854.15 4283284 4329422 4374974 4412628 4450142 4483164
2857.04 4516498 4551406 4576970 4605112 4641110 4680204
2859.93 4727480 4768744 4799510 4840194 4895554 4960486
2862.83 5027420 5098052 5188518 5296738 5402548 5496568
2865.72 5598200 5712708 5818798 5936058 6088772 6255282
2868.61 6415324 6586002 6789796 7009516 7242804 7502526
2871.51 7793124 8120240 8473474 8849344 9259088 9721926
2874.40 10222580 10745560 11320330 11952810 12622680 13315610
2877.29 14022680 14740610 15466350 16181680 16867900 17516960
2880.18 18117130 18639300 19055120 19389330 19653380 19834810
2883.08 19964150 20102080 20276790 20486430 20727300 20987900
2885.97 21263060 21558810 21873430 22195570 22517460 22825430
2888.86 23104970 23360930 23598190 23807550 23983350 24131930
2891.75 24244670 24304990 24313640 24308990 24303880 24279820
2894.65 24221770 24149340 24095550 24070940 24071740 24080930
2897.54 24098390 24154750 24254950 24384740 24551680 24767950
2900.43 25029700 25343480 25714170 26116130 26498620 26856310
2903.32 27221200 27596000 27962710 28331650 28723950 29133400
2906.22 29544780 29951250 30360690 30769570 31159250 31548480
2909.11 31932090 32269090 32567460 32843370 33099270 33353240
2912.00 33600770 33812390 33985770 34153330 34300840 34379940
2914.90 34387610 34309630 34101700 33775380 33366020 32935900
2917.79 32552720 32219490 31916780 31672740 31516990 31433850
2920.68 31398940 31400240 31440940 31517330 31589760 31620310
2923.57 31619010 31609030 31544120 31417380 31270140 31097650
2926.47 30907240 30717220 30519540 30327160 30167790 30056030
2929.36 29992970 29969860 30022050 30191980 30476170 30862400
2932.25 31360830 31987730 32723540 33540490 34440030 35441510
2935.14 36529090 37659890 38813910 39988620 41151870 42269680
2938.04 43314200 44255440 45081340 45804930 46475280 47133130
2940.93 47825980 48619780 49562120 50643540 51641220 52252140
2943.82 52515620 52726540 53073100 53579390 54246140 55074500
2946.72 56021030 57004590 57944210 58684760 58918070 58603540
2949.61 58111980 57737080 57499690 57314860 57144650 56976680
2952.50 56749290 56463460 56169870 55896870 55693590 55496040
2955.39 55101820 54419540 53616210 52977360 52586370 52341550
2958.29 52206010 52171120 52179760 52208590 52214240 52197580
2961.18 52288180 52607440 53048260 53505850 54096180 54930760
2964.07 55971720 56957450 57533980 57536040 57183460 56896890
2966.96 56941190 57353320 58020300 58876060 59883180 60889510
2969.86 61803790 62706080 63743280 65032100 66618130 68462060
2972.75 70507300 72747880 75190580 77823020 80622820 83557500
2975.64 86611420 89788820 93023940 96296610 99622340 102942500
2978.54 106223600 109490000 112787600 116152200 119647800 123397300
2981.43 127533600 132077000 136632200 140160900 141619600 141463300
2984.32 141236300 141507200 141985000 142512500 143020200 143450700
2987.21 143861500 144433900 145356300 146674600 148100300 148956000
2990.11 148926100 148668200 149134600 150715200 153362400 157083800
2993.00 162211300 169871500 180659300 189809200 188957500 177979300
2995.89 165209300 155682000 148970000 143764800 139339700 135387300
2998.78 131785700 128433300 125236100 122038100 118756500 115465100
3001.68 112269900 109225700 106260100 103275100 100240400 97209470
3004.57 94298450 91572820 89071930 86801540 84678710 82598630
3007.46 80611330 78796960 77081720 75319460 73423620 71397320
3010.36 69229610 66934590 64579480 62180510 59734830 57275890
3013.25 54836520 52425190 50037730 47698360 45440830 43264030
3016.14 41178660 39203460 37334800 35555990 33866170 32276490
3019.03 30779210 29341910 27955120 26646070 25431640 24297190
3021.93 23230760 22215130 21256590 20388080 19594750 18850640
3024.82 18163430 17535740 16966620 16462990 16012700 15582340
3027.71 15170980 14799290 14461630 14151530 13885840 13682920
3030.60 13529040 13386930 13269530 13198180 13159220 13161540
3033.50 13194910 13227150 13272020 13350050 13478860 13662510
3036.39 13876720 14128880 14449260 14830650 15242330 15690830
3039.28 16191210 16709170 17215260 17718650 18197340 18605980
3042.18 18952050 19237980 19425990 19506960 19501170 19411580
3045.07 19226630 18984060 18757670 18570670 18448790 18423690
3047.96 18494320 18623100 18664870 18440180 18010990 17652450
3050.85 17523720 17572260 17692730 17841010 17991700 18096290
3053.75 18103830 17987030 17738310 17338100 16800540 16178050
3056.64 15480260 14717720 13923890 13126040 12352330 11606770
3059.53 10888770 10222260 9612994 9051910 8556388 8141366
3062.42 7789240 7472262 7192952 6955658 6750888 6581000
3065.32 6440508 6324382 6246196 6208284 6187562 6174220
3068.21 6175966 6188372 6203224 6237664 6292646 6349750
3071.10 6411424 6485112 6571176 6655526 6717174 6780354
3074.00 6863464 6944302 7023060 7099028 7156142 7199848
3076.89 7250816 7302696 7338968 7368808 7403532 7412556
3079.78 7380614 7335954 7287414 7239274 7193684 7129012
3082.67 7062612 7037050 7033310 7035212 7040374 7016662
3085.57 6974816 6961378 6989112 7050770 7107738 7110336
3088.46 7075286 7031846 6947694 6821470 6681532 6526566
3091.35 6374736 6236968 6087864 5919876 5756056 5613314
3094.24 5493400 5388708 5294226 5224486 5178122 5152336
3097.14 5153964 5182176 5247272 5358832 5508240 5689554
3100.03 5933332 6258048 6633984 7055010 7551082 8136734
3102.92 8779818 9458038 10208120 11031800 11888190 12749820
3105.82 13590510 14362540 15011820 15522750 15877650 16017250
3108.71 15912120 15578130 15003870 14242340 13439040 12776500
3111.60 12494030 12809900 13729910 14768600 15331150 15657010
3114.49 16033490 15810680 14766700 13828680 13736910 14283030
3117.39 14979780 15573890 15993370 16202930 16166760 15897910
3120.28 15430040 14777840 13966050 13040070 12069250 11111230
3123.17 10184490 9276808 8390590 7577202 6860564 6222984
3126.06 5659640 5170150 4759406 4415076 4109300 3832728
3128.96 3594998 3403924 3246888 3123262 3028174 2929820
3131.85 2831080 2760988 2700470 2632248 2557602 2480722
3134.74 2420674 2376966 2334742 2292088 2257038 2231854
3137.64 2197084 2158116 2124014 2089816 2064328 2044064
3140.53 2033090 2031546 2029726 2034584 2041440 2033730
3143.42 2026998 2043914 2062758 2060016 2052350 2057606
3146.31 2068520 2087174 2107348 2109714 2106602 2113618
3149.21 2123404 2134782 2147812 2150798 2144544 2143086
3152.10 2143980 2131586 2115186 2108216 2109576 2116802
3154.99 2118724 2106730 2090426 2080498 2078246 2073852
3157.88 2049268 2027100 2030172 2026010 2007766 1997836
3160.78 1989916 1970588 1943228 1922670 1907112 1891054
3163.67 1876958 1864806 1859874 1857104 1847812 1823880
3166.56 1796916 1781714 1767974 1749112 1722460 1701134
3169.46 1701782 1694250 1678166 1668994 1652952 1631452
3172.35 1615762 1614942 1608384 1583124 1565550 1556030
3175.24 1533730 1501826 1486056 1492276 1497850 1483608
3178.13 1457506 1437062 1420120 1407132 1396948 1379960
3181.03 1362082 1366740 1390146 1378786 1333642 1318454
3183.92 1325764 1307992 1271802 1250544 1242462 1242382
3186.81 1252006 1239762 1213748 1200748 1192304 1174104
3189.70 1156970 1158334 1161860 1150006 1141630 1149016
3192.60 1136220 1101792 1092296 1109310 1114534 1098186
3195.49 1071810 1045908 1038984 1042888 1044242 1052052
3198.38 1052698 1040040 1025698 1017856 1023460 1029858
3201.27 1018752 998780 995134 1012604 1011840 984848
3204.17 970922 969994 969602 975476 976764 962342
3207.06 945798 928580 921282 932472 937178 916178
3209.95 903768 917932 922462 922284 928464 916374
3212.85 909044 914048 908154 903292 905698 904746
3215.74 906874 918342 923586 924222 914166 888704
3218.63 880910 895326 914614 922068 916670 919214
3221.52 928866 928464 920490 925630 942840 963846
3224.42 975582 973866 969492 970788 977742 990776
3227.31 1007318 1009308 992480 983788 995558 1008666
3230.20 1015912 1020462 1019628 1020278 1028322 1039520
3233.09 1048014 1059296 1072942 1081976 1075140 1060822
3235.99 1051784 1044352 1049472 1052802 1047428 1051240
3238.88 1053796 1044984 1033324 1032590 1045550 1058234
3241.77 1061328 1055864 1050994 1060594 1067202 1051946
3244.67 1033716 1020052 1013954 1001354 976070 958454
3247.56 959806 968446 955946 924652 902772 888714
3250.45 865954 847210 845758 836772 807578 780366
3253.34 755570 726854 703564 688450 685574 679632
3256.24 666800 661946 648910 613948 577476 543536
3259.13 515558 498370 479926 471606 467070 433488
3262.02 394522 384528 382226 364868 335208 317376
3264.91 308498 289968 283392 283396 261914 235924
3267.81 232928 234328 213274 187770 178040 176412
3270.70 161256 145644 151130 151244 133708 116360
3273.59 101030 98196 116304 127672 119190 113232
3276.49 108416 106250 109508 113154 98560 73364
3279.38 70612 84700 92604 86180 64122 31274
3282.27 14022 15122 9816 7680 20406 36274
3285.16 50304 53020 36354 14904 4572-338
3288.06 2150 2608-248 5966-4436-31506
3290.95-36578-26482-27646-35748-33070-19904
3293.84-18608-40118-56374-48486-38688-38948
3296.73-56568-76260-78804-74168-63496-57276
3299.63-53058-46870-37818-21292-11386-13456
3302.52-21306-22088-16092-11970-6740 8022
3305.41 33890 49932 51402 55816 58194 57276
3308.31 61254 63708 71250 102152 130736 137702
3311.20 146524 158496 145778 126620 144098 180738
3314.09 193976 192678 194100 198810 213634 219544
3316.98 204920 187214 194938 228888 245622 235722
3319.88 233038 236012 240012 241542 244522 257568
3322.77 265282 264432 275168 290924 287950 276240
3325.66 272442 272648 276450 282386 292216 312738
3328.55 328870 327570 327052 334648 333454 329336
3331.45 334376 339286 348576 350190 336608 333948
3334.34 339412 353782 373686 374538 351968 339372
3337.23 356662 369658 367362 370486 378474 383010
3340.13 387504 390192 390468 402036 417856 418886
3343.02 425616 449242 467684 473712 474124 477870
3345.91 477904 474136 481366 492684 505020 522774
3348.80 548436 571456 587372 596716 608308 607144
3351.70 585230 581838 609578 638104 660598 682160
3354.59 689612 685196 685556 697244 720192 740232
3357.48 750628 756904 764108 781932 800600 809714
3360.37 812326 822372 832476 834278 849668 866864
3363.27 871294 877408 885814 888758 877876 869510
3366.16 879092 882446 864524 850268 854200 867806
3369.05 876958 879158 884004 886466 874234 851196
3371.95 838574 838832 848410 865742 873252 866066
3374.84 855352 856250 854906 852458 868358 882368
3377.73 871806 865788 885598 902590 914120 933450
3380.62 948000 948560 957224 981622 1001716 1007466
3383.52 997012 983172 982898 992528 1001940 1016098
3386.41 1032938 1022480 1005266 1004172 987530 970776
3389.30 962242 940210 907788 888456 888808 873816
3392.19 837938 826234 843092 861814 871278 865388
3395.09 852226 841150 830294 830600 843044 832568
3397.98 781298 715276 663470 617984 573938 544736
3400.87 531166 506004 480566 458242 414368 370336
3403.77 338436 309502 274124 238284 228930 232586
3406.66 228928 216688 212996 219978 225658 228838
3409.55 221498 206516 203462 222866 221970 189782
3412.44 186928 199322 184698 175842 192608 197572
3415.34 190618 188550 175938 152202 146024 174606
3418.23 196206 167218 123504 121220 146218 151116
3421.12 141608 129370 117600 124490 133610 127184
3424.01 126328 130828 123728 118368 127722 141128
3426.91 150376 150184 146678 148540 158560 159130
3429.80 128656 94398 99106 122424 134900 139082
3432.69 133726 116652 116012 123494 122206 134358
3435.59 156462 165522 149996 133650 145840 163062
3438.48 169236 165804 172028 178602 173770 180942
3441.37 189904 181044 172170 176872 204068 233230
3444.26 234830 219820 214666 241670 298324 343548
3447.16 362848 371840 397174 437356 457860 475152
3450.05 519350 573946 609346 646438 719928 787624
3452.94 819516 859720 931890 1009642 1079854 1150400
3455.83 1224716 1298396 1377668 1480860 1598328 1713302
3458.73 1824542 1940860 2061300 2170742 2279876 2409460
3461.62 2544478 2682334 2839896 3008496 3179304 3348416
3464.51 3507422 3651816 3814334 4013462 4206096 4383738
3467.40 4558700 4727206 4908036 5109120 5290790 5437420
3470.30 5581266 5740822 5907760 6061030 6183544 6282776
3473.19 6367206 6451166 6535318 6584566 6602606 6615768
3476.08 6617124 6598244 6584986 6587308 6582506 6569668
3478.98 6591732 6658894 6731394 6784454 6839564 6902454
3481.87 6952794 6975310 6961626 6930248 6881776 6815172
3484.76 6738788 6622040 6475682 6325228 6140490 5929826
3487.65 5718070 5488694 5259238 5039190 4820516 4614050
3490.55 4420560 4220018 4007206 3798366 3597524 3401804
3493.44 3207610 3023260 2848108 2671608 2489854 2311098
3496.33 2151690 2008606 1872284 1737200 1602996 1477330
3499.22 1356870 1227958 1105806 1016778 936938 851392
3502.12 782220 715766 629314 548754 480870 421612
3505.01 366778 301364 235778 185920 140860 101286
3507.90 80372 62828 38510 10820-14596-34026
3510.80-51786-76948-107656-123574-128284-141536
3513.69-152384-171428-201338-210730-211868-224588
3516.58-234866-233888-236220-233724-222854-213568
3519.47-205666-205490-223320-236640-237392-240862
3522.37-238504-247408-272396-282088-273162-256840
3525.26-254944-261470-251692-235188-237648-249880
3528.15-240848-229664-232848-242702-254560-253444
3531.04-242708-239628-241376-246812-257804-263770
3533.94-269350-264810-229786-200520-206474-215604
3536.83-221412-222768-205810-177964-174520-203070
3539.72-215536-212112-204988-182242-160716-160818
3542.62-162958-146984-126988-130518-148862-158858
3545.51-151616-138738-137258-137052-121530-96714
3548.40-86310-87980-85906-84698-77382-64280
3551.29-64454-69566-67156-62084-48762-27348
3554.19-14138-17540-19882-16650-22206-17946
3557.08 4974 28808 37208 33384 41926 55650
3559.97 64720 68332 58828 44476 29412 29372
3562.86 51700 71904 87438 95824 85612 68946
3565.76 62020 65728 71202 75220 78890 86006
3568.65 89288 79782 68490 62066 65612 75678
3571.54 75016 67864 64472 71870 82826 84372
3574.44 79824 69080 50092 27974 11830 17390
3577.33 34640 30030 10842 588 2386 7142
3580.22 8802 14028 22156 24248 24832 30772
3583.11 33186 30406 30676 24594 5564-7480
3586.01-7728-3938 6220 4684-14010-24706
3588.90-22150-20928-13874 9182 30792 31838
3591.79 23726 12032 1814 8232 16254 27350
3594.68 46448 50094 47214 52088 53470 38258
3597.58 14754 9208 30830 44102 23536-248
3600.47-1192 18202 31066 32080 40310 43340
3603.36 41490 41294 35154 24588 33384 62926
3606.26 78200 67908 47318 30354 30494 48232
3609.15 62124 62610 52136 40806 45524 60072
3612.04 62998 58674 57838 51796 43826 35420
3614.93 38320 52076 52966 42802 36306 37644
3617.83 47390 47960 44734 55364 59556 50684
3620.72 33360 18332 26674 47908 54400 33686
3623.61 8300 6812 14882 22140 35094 51310
3626.50 53452 38786 26542 30112 47264 53050
3629.40 41994 28266 15852 15568 26688 31520
3632.29 29312 26704 21416 18894 22382 21102
3635.18 20658 18602-322-10860 328 18594
3638.08 40460 46058 38394 30218 20590 15228
3640.97 9544-830-52 5940 10950 20662
3643.86 19412 9740 12824 20958 15324 1544
3646.75-7514-13080-12806 3904 24472 29672
3649.65 21978 12778 16626 29688 23296 2782
3652.54-7512-5004-5956-11630 1768 25160
3655.43 43710 48840 22600-10020-18692-13258
3658.32-9842-9484-4194 2864 7768 17858
3661.22 21336 18424 20680 25088 21846 13048
3664.11 9216 17684 33954 41294 36010 17130
3667.00-4764-3682 11844 14990 10678 13270
3669.90 23762 29524 27566 29472 26726 16974
3672.79 11724 14090 8630 3202 17274 45442
3675.68 53250 20886-8672-4296 15082 25812
3678.57 28320 26742 21756 21494 23710 21884
3681.47 17482 9056 4196 98-5542 2944
3684.36 16208 19372 22166 28086 28252 29830
3687.25 43928 60504 55938 34000 16116 8564
3690.14 11886 23658 35918 45294 44760 41030
3693.04 42476 35514 21454 15818 18790 32910
3695.93 45406 39718 39586 36262 22490 20212
3698.82 25646 36716 42772 35728 34538 49892
3701.72 60114 46576 36220 53804 68576 56644
3704.61 36442 36570 60762 75052 60272 41162
3707.50 39298 48012 51564 48438 53484 67824
3710.39 74920 66924 54930 46508 41586 49350
3713.29 65638 83468 90374 86172 90234 96436
3716.18 90012 84856 97654 111890 112504 111152
3719.07 102524 95488 110996 122268 112330 90340
3721.96 86774 111424 121194 117176 119564 123696
3724.86 119532 113456 115630 112918 112060 118516
3727.75 125148 132742 123634 104968 112132 127906
3730.64 132256 139186 154458 164124 161100 157586
3733.54 152094 139542 132174 128048 122274 124840
3736.43 130034 128498 123642 129184 153264 168974
3739.32 159980 145166 144186 153434 156164 152014
3742.21 149824 145650 151140 176152 201154 203370
3745.11 176128 153790 162490 167678 158824 161464
3748.00 170674 187040 196786 183716 174968 183534
3750.89 200564 215146 219486 214726 209010 198196
3753.78 184656 182674 191264 202912 207952 208792
3756.68 213726 223418 224380 212108 228086 271182
3759.57 276208 246180 231768 247072 270116 279238
3762.46 275438 274516 277296 283844 296706 300902
3765.35 293186 290626 308500 322868 319238 312434
3768.25 308244 319416 336836 335762 324368 323268
3771.14 328418 336826 347568 345250 341756 345992
3774.03 352390 352538 341924 336830 341620 342786
3776.93 338924 334168 325836 322144 325190 336456
3779.82 344792 333600 318052 306062 298512 307598
3782.71 328570 333352 323064 318122 306430 291720
3785.60 293226 297776 290258 274744 263898 255784
3788.50 250696 255762 271354 278834 267052 257620
3791.39 258448 258084 247046 231848 225468 219246
3794.28 210190 211364 220560 222340 225368 243480
3797.17 242814 216382 194430 178996 182026 195510
3800.07 206022 220486 222096 207832 202676 197250
3802.96 189350 195786 207156 198508 170862 159612
3805.85 169246 176408 167832 155050 159098 168372
3808.75 159826 145136 143858 143478 132634 129784
3811.64 140140 142164 143384 156032 170860 165252
3814.53 136670 125384 141166 146146 146232 152202
3817.42 145188 131870 122680 117884 112070 113244
3820.32 129106 132348 128482 136058 138708 127264
3823.21 118542 123956 137492 137788 138104 155972
3826.10 166634 161412 153860 146050 127452 121580
3828.99 141834 161018 165436 166992 162358 145170
3831.89 147766 168484 175270 175522 183448 187198
3834.78 181318 177318 169564 173746 200470 212992
3837.67 208182 201558 187780 192726 214038 214902
3840.57 219438 225496 211812 197726 194484 187202
3843.46 180884 183494 183056 182996 194422 206584
3846.35 206492 207482 199242 180522 176036 188390
3849.24 195220 189658 192114 210912 225358 223794
3852.14 207806 186864 187880 210036 213892 185766
3855.03 157312 161342 179930 185696 180468 172424
3857.92 167344 163724 155904 147220 142740 139866
3860.81 143022 147880 146002 134992 123318 124790
3863.71 142624 158280 149562 126198 111754 112148
3866.60 132480 158064 160772 158758 156992 143112
3869.49 138620 136958 137916 146586 133880 115200
3872.39 116092 138234 159832 148888 128326 127712
3875.28 125144 122138 134624 142520 138072 127134
3878.17 119688 117590 112260 110604 122066 136878
3881.06 138928 142624 154988 150448 143056 159826
3883.96 174192 170762 164376 160468 157364 159070
3886.85 163130 162168 163218 176806 186414 182686
3889.74 170292 161518 172338 175110 157888 148574
3892.63 171506 197858 198132 193222 188628 185918
3895.53 184266 178886 171922 167248 169968 176750
3898.42 198520 217992 211844 198140 189964 191914
3901.31 199072 204128 210732 214790 220554 225030
3904.21 207354 191540 196364 210362 213646 193400
3907.10 187800 204490 195462 165030 154632 162258
3909.99 178850 184964 174170 181482 199594 201246
3912.88 197556 197642 205344 212646 193018 168880
3915.78 167948 171990 165990 151184 150652 152500
3918.67 144518 152732 159970 150736 148926 150384
3921.56 140210 125162 112722 110350 111926 117174
3924.45 131610 133780 118844 105112 108166 117046
3927.35 102902 88862 101036 102696 98376 114404
3930.24 123006 118706 113828 107074 113362 129484
3933.13 127264 111506 103152 102920 104704 107932
3936.03 103210 97548 103762 111666 116144 126870
3938.92 138696 135650 115870 97894 94658 96644
3941.81 105868 124200 139974 153238 156786 144044
3944.70 134790 140642 157540 172992 179410 184626
3947.60 190774 202764 201662 173330 149488 159326
3950.49 179290 178614 171800 174798 183718 192694
3953.38 204016 205948 198628 196558 203208 216710
3956.27 221044 209978 194870 184006 188344 200374
3959.17 204772 209850 219916 222252 234536 247512
3962.06 232696 223888 240138 261632 275286 289414
3964.95 293316 284292 281230 283400 291540 294512
3967.85 290914 300862 319428 319408 316818 328026
3970.74 334294 349678 363166 356256 356348 366856
3973.63 363336 356858 369376
##END=
