##TITLE=Ethyl Acrylate
##JCAMP-DX=4.24
##DATA TYPE=INFRARED SPECTRUM
##CLASS=IUPAC A
##ORIGIN=NIST, Anayltical Chemistry Division, 301-975-3108
##OWNER=COPYRIGHT (C) 1998 by the U.S. Secretary of Commerce
##DATE=98/10/1
##$SPECTRA VERSION=1.00
##$UNCERTAINTY IN Y=2.0 % relative (B=1.0E-04,C=3.0E-10,D=2.7E-14)
##CAS NAME=Ethyl Ester-Propenoic Acid
##CAS REGISTRY NO=140-88-5
##MOLFORM=C H2: C H C O2 C2 H5
##MP=-71.2 C
##BP=99.8 C
##$NIST SOURCE=QUANT-IR
##SPECTROMETER/DATA SYSTEM=IFS66V (Bruker)
##INSTRUMENT PARAMETERS=KBr Beam splitter; MCT Detector; Multipass cell
##STATE=gas
##SAMPLE DESCRIPTION=Ethyl Acrylate Primary Gas Standard
##PRESSURE=101.3 kPa
##TEMPERATURE=23 C
##SAMPLING PROCEDURE=1 L/min Flow
##RESOLUTION=1.9290
##DATA PROCESSING=Boxcar Apodization
##XUNITS=cm-1
##YUNITS=(micromol/mol)-1m-1 (base 10)
##XFACTOR=1.0
##YFACTOR=18.189E-13
##DELTAX=0.9645
##FIRSTX=574.687
##LASTX=3974.595
##FIRSTY=4.65E-07
##MAXX=3973.63
##MINX=574.69
##MAXY=.0020873
##MINY=-5.28E-07
##NPOINTS=3527
##XYDATA=(X++(Y..Y))
574.69 255738 239236 521458 410836 539896 333664
579.51 324220 375876 242384 489634 349558 348306
585.29 283438 217204 511566 327038 564158 589978
591.08 754560 609706 691148 618162 1001756 916994
596.86 1287510 1614568 1697288 1900206 2504076 2722538
602.65 2901570 3094114 3248360 3223126 3068768 3259270
608.44 4095632 5041030 3856010 3763462 4106642 4422798
614.22 4638662 4628228 4539254 4225046 3931250 3585382
620.01 3330346 3050536 2966844 2728580 2545650 2408052
625.79 2349396 2232820 2276374 2082936 1906754 1757108
631.58 1558592 1562362 1552270 1517504 1608568 1705436
637.36 1884362 2024498 2307642 2365206 2689590 2885570
643.15 3209376 3462322 3950394 4406194 4859468 5334044
648.93 5895324 6450534 7031148 7778460 8367934 8916456
654.72 9455316 9986100 10416320 10442590 10818040 11063440
660.50 11187960 11487040 11741220 11813970 12034830 12140070
666.29 12165960 11988980 11688750 11198040 10649180 10042670
672.08 9381440 8631920 8041834 7369158 6990504 6632598
677.86 6432640 6096428 5701722 5265946 4658010 4104330
683.65 3514930 3133476 2690956 2319854 2037632 1753026
689.43 1655600 1437916 1261660 1105168 1080174 871078
695.22 815796 786108 702046 599034 639650 556944
701.00 528020 500266 543338 451184 457860 460962
706.79 449538 459002 427624 416848 445638 539326
712.57 441004 507084 504140 582212 511808 499276
718.36 506048 536844 563826 574776 591998 573550
724.14 616824 571850 571634 619198 638386 761390
729.93 713404 718628 711172 712644 773858 806204
735.71 809508 849608 845326 813800 901162 921058
741.50 940950 931790 1014206 1013620 1052460 1032462
747.29 1103118 1142028 1214978 1196904 1227830 1226760
753.07 1356398 1323902 1428362 1389350 1498152 1517746
758.86 1594820 1673442 1729332 1775826 1894066 1970078
764.64 2159038 2236646 2503172 2635318 2871812 3145900
770.43 3410576 3711740 4151464 4534490 5042330 5526844
776.21 6171182 6771334 7513412 8264582 9126286 9943408
782.00 11024920 11842840 12924460 14061170 15569660 17345450
787.78 19152800 20881640 22629760 24515090 26675190 28448230
793.57 30571120 33034330 35463140 37777700 40235440 42764760
799.35 45065160 47598300 50972500 54639770 58405700 61986370
805.14 61497340 62041640 63395170 65044200 68043300 71587020
810.93 74451160 73870500 71824700 69975620 67315360 63902980
816.71 62399540 59986900 56304480 54839660 50575570 46863260
822.50 44042270 41604320 38909460 36430200 33713670 31154240
828.28 28560800 26204180 23744650 21740160 19688400 18023500
834.07 16397370 15194830 14054790 13278510 12547990 12185510
839.85 11938450 11933970 12111920 12418530 12879750 13536460
845.64 14243020 15153530 16058320 17078870 18034480 19070160
851.42 20085260 20907470 21710280 22426070 23018840 23069620
857.21 23000120 23054390 23385980 23637360 23495250 23537550
862.99 23329110 22961830 22313650 21554400 20639640 19662900
868.78 18652710 17722760 16726580 15802450 14750250 13676450
874.57 12656440 11653300 10743560 9954038 9218698 8612712
880.35 8043290 7642550 7370212 7105056 6988888 6927164
886.14 6922842 7138016 7357250 7748056 8204394 8733850
891.92 9325076 9868054 10359940 10760610 11038000 11235670
897.71 11438480 11749730 11935260 12082770 12271980 12587880
903.49 12844230 13091590 13366970 13590030 13780650 13943040
909.28 14004720 14100160 14095030 14004910 13741190 13341680
915.06 12817300 12231080 11713980 11457630 11459910 11164410
920.85 10940280 11067610 11138830 10960170 10550620 9891212
926.63 9207696 8580836 8012814 7550216 7276362 7115548
932.42 7116118 7206164 7401576 7646338 8106368 8640040
938.21 9311770 10101050 11179810 12342080 13789180 15382000
943.99 17241500 19245120 21505760 23864640 26514080 29135120
949.78 31993980 34779960 37795050 40601130 43341250 45820140
955.56 48717100 51495440 54875330 58636380 65552920 77852050
961.35 96804870 97077930 74486220 75242100 85056710 98281060
967.13 98545850 81925780 79643540 82238520 84304410 86215480
972.92 87697680 89002050 89847900 90403690 90637050 90669970
978.70 90567810 90185980 89646460 89147110 89441180 91514380
984.49 97435480 112684500 122020700 98571370 83871370 85877050
990.27 87166340 86738170 77902570 69938320 66275440 63643720
996.06 60501890 57326230 53938840 50730170 47274600 44021680
1001.85 40693740 37605600 34562010 31788090 29113170 26887600
1007.63 24884610 23354720 22055280 21179190 20523210 20270490
1013.42 20218690 20723650 21525490 22899960 24548060 26848990
1019.20 29573950 33015730 36959380 41621940 46787640 52611370
1024.99 58827830 65362530 71931290 78452940 84622140 90168270
1030.77 94686350 98334540 101301800 104839300 108061400 108180600
1036.56 109621200 113091300 116751200 118234100 116394100 113822300
1042.34 111707200 106536900 99887340 95195940 91116490 87587800
1048.13 84255280 82041860 80735310 81094350 82909690 86498780
1053.91 91603680 98315460 106324400 115485000 125381400 135241400
1059.70 144329500 152019600 158271200 162760600 165664900 168262800
1065.48 171363800 176847900 182432100 185232200 185475200 179399000
1071.27 178748000 180634000 179364100 174190200 164371700 151964700
1077.06 137359900 123879700 111428500 100752500 91604540 84010060
1082.84 77670510 72483140 67875390 64171820 61317730 59540520
1088.63 58598390 58353920 58809690 59708800 60730440 61730850
1094.41 62353820 62476270 62216930 61973020 62025600 62495630
1100.20 62583540 61434310 60551960 60244000 59365050 58832960
1105.98 57932900 56610700 54473890 52029380 49163890 46236110
1111.77 43328640 40648120 38044660 35833000 33708580 31905790
1117.55 30226850 28924880 27539470 26575330 26240360 26084180
1123.34 25813330 25412120 24660060 23665170 22567120 21506850
1129.12 20446230 19534260 18774640 18238900 17720910 17378530
1134.91 17156120 17039150 16994890 17055770 17166740 17375550
1140.70 17559380 17874540 18204190 18625740 19024430 19511810
1146.48 19996340 20595050 21280570 22133620 23054270 24178410
1152.27 25433870 26915890 28494740 30304710 32327410 34612480
1158.05 37151410 40188550 43534920 46761020 50693440 55991260
1163.84 61892130 68575940 75878630 84290130 93056640 101932500
1169.62 110498600 119239100 128338300 138881200 151184000 166626500
1175.41 182893300 202363700 227365100 256859900 293212200 335069500
1181.19 384615500 441603900 506602500 578647000 656977200 739369700
1186.98 821249000 898761200 966428200 1019385000 1055958000 1078831000
1192.76 1092739000 1103699000 1115485000 1131660000 1143402000 1124410000
1198.55 1133423000 1147535000 1138291000 1094655000 1013562000 905186600
1204.34 788030000 676851000 577614700 495401300 429299800 375147200
1210.12 331128300 295619200 264422400 235425200 208090900 183861700
1215.91 162692800 143533100 127576700 114659800 103319800 95082600
1221.69 87386130 81274500 75474400 70717280 66302340 62783310
1227.48 59480620 56867280 54397680 52626250 50878130 49762790
1233.26 48695060 48128780 47438120 46806990 46005110 45844990
1239.05 45270910 44865110 44038520 43667790 43182280 43157430
1244.83 43189290 43622600 44147660 45651850 47200990 49786360
1250.62 52740750 57095590 62266430 69398310 77882860 88921030
1256.40 101707900 117220900 134531300 154153400 174498800 195932300
1262.19 216566000 236707100 255130300 272643300 288972200 305790600
1267.98 322630300 339114900 351447800 359338200 361868700 363886900
1273.76 365450800 365627600 363562600 358621300 349108400 335697200
1279.55 305852300 275917400 259643100 255472400 242239300 224114500
1285.33 210391700 196798600 186858200 181535100 182067600 188123700
1291.12 197898400 210117700 221288500 229907800 231895700 230498200
1296.90 223674800 219259300 227916200 255387500 234078000 227758200
1302.69 245210600 250219500 247918000 232590600 210302700 181455700
1308.47 157359200 135597500 119126300 104571200 93729570 83584850
1314.26 75767810 67721780 61509620 55161230 50164860 44871880
1320.04 40853690 36737780 33697400 30465000 28034130 25191410
1325.83 23303610 21042360 19548900 17626390 16401660 14769380
1331.61 13818860 12504350 11863150 10812770 10441970 9696394
1337.40 9528896 8933414 8884162 8446914 8511958 8162612
1343.19 8246628 7978010 8101228 7852634 8029808 7853994
1348.97 8104848 7997748 8340116 8386798 8867014 9071132
1354.76 9790108 10253680 11208250 11959230 13235630 14189760
1360.54 15543950 16481870 17550930 17987440 18505210 18711370
1366.33 19682930 21193630 22221340 23082270 23805280 24154390
1372.11 25907030 27406170 29443640 30976800 33041590 34758560
1377.90 37328090 39944000 43664360 47537280 52443500 57062850
1383.68 62047390 66105570 69975870 72460200 75271860 77521640
1389.47 81217680 82976860 85879110 90433110 95715220 104230100
1395.25 114441000 123936300 134029600 143985300 156093700 169229800
1401.04 184571900 199628500 215056900 226064500 234742300 237370000
1406.83 239731400 238848800 250436800 251490300 239406100 239879000
1412.61 239898500 240476800 236006300 226353900 211880300 197537400
1418.40 179931900 161148900 140357100 120139600 100555600 83781020
1424.18 69225930 58005300 48884190 42466720 37473980 34219940
1429.97 31553500 29904040 28477660 27714290 27023650 26828060
1435.75 26651910 26901850 27056070 27545530 27932820 28552950
1441.54 29120000 29834170 30381890 31017900 31553000 32197750
1447.32 32686090 33455300 34368980 35773950 37210180 38164240
1453.11 38295260 38016170 37827270 38153510 38507770 39020710
1458.89 39515330 39549520 39890430 40757550 42206830 42853400
1464.68 42930460 43456580 43668020 43477440 43263980 43487040
1470.47 44744690 43664580 41280310 40743200 40453370 40332960
1476.25 39757070 38992210 37743310 36370490 34597230 32775100
1482.04 30540570 28213480 25684200 23573890 22039790 21492400
1487.82 21439260 21494120 21207060 20614430 19727520 18805570
1493.61 17727160 16778430 15743790 14868080 14014560 13309760
1499.39 12641890 12088620 11533540 11107060 10602290 10244560
1505.18 9834258 9499870 9135070 8886412 8613558 8402744
1510.96 8192176 8049328 7824386 7719100 7523338 7378106
1516.75 7183650 7007212 6825110 6659150 6495206 6324532
1522.53 6138070 5990684 5811776 5640780 5441582 5291342
1528.32 5082976 4913810 4740378 4621916 4453652 4364558
1534.11 4215222 4156774 4021982 3984220 3910052 3871844
1539.89 3771458 3741418 3701600 3673746 3644102 3643706
1545.68 3640046 3672084 3651330 3701826 3712060 3775712
1551.46 3830326 3885656 3980054 4045892 4121694 4239012
1557.25 4320964 4411902 4448744 4480252 4499240 4542820
1563.03 4578876 4677992 4715652 4758496 4776048 4824416
1568.82 4834422 4795246 4735156 4689024 4619730 4540294
1574.60 4516974 4508584 4470374 4478174 4478322 4504038
1580.39 4526412 4566936 4564334 4633830 4649994 4699212
1586.17 4712222 4775566 4805190 4867500 4953546 5048798
1591.96 5107566 5231790 5361832 5531062 5697298 5941292
1597.74 6173038 6432512 6710122 7078778 7444186 7929926
1603.53 8424412 9055056 9751962 10527840 11391150 12349550
1609.32 13345950 14430080 15601710 16863760 18232430 19681430
1615.10 21085990 22512510 23894940 25214690 26324000 27190950
1620.89 27624250 27889630 28166980 28838320 30104910 31741360
1626.67 33539430 35376020 37320830 39548890 42179060 45372900
1632.46 48956250 53132590 57118370 60349020 61964490 61649630
1638.24 59623630 57238230 56493980 57550380 53159530 50076910
1644.03 53294730 54317680 55807140 57472160 55645720 50690920
1649.81 43558480 35759050 28300890 22044270 17157300 13703060
1655.60 11305120 9828426 8819428 8146338 7668984 7299108
1661.38 6970196 6757940 6539048 6402032 6246318 6159478
1667.17 6097030 6063942 6031960 6051678 6084180 6123654
1672.96 6207096 6323268 6417318 6536140 6676668 6822200
1678.74 6897512 6977436 7059634 7196424 7321686 7508200
1684.53 7696092 7896516 8154182 8413268 8680942 8991472
1690.31 9266382 9603448 9948720 10309410 10740310 11245470
1696.10 11753900 12320830 12934990 13567400 14141710 14682960
1701.88 15111560 15369280 15443120 15432120 15507900 16040720
1707.67 17239850 18900990 20585340 22098020 23403680 24684220
1713.45 26118640 27811190 29772380 32239380 35248280 38931360
1719.24 43466800 48923740 55314340 62759020 71327220 81206900
1725.02 92392710 105246600 119644300 135958000 154276500 174640400
1730.81 197339300 222543800 250064900 280678300 314142200 350267200
1736.60 388934000 429760800 471475800 512461700 550213200 581083100
1742.38 601299300 607086600 597812000 577148300 555755300 544756900
1748.17 548430800 561680100 582375600 607892300 630400400 637698700
1753.95 623891600 593397100 551986900 506539200 459389700 413377800
1759.74 370514300 330749100 295067700 262713600 233336400 206529500
1765.52 182096600 159896200 139633200 121455800 105245900 90862680
1771.31 78215060 67357380 57908060 49938110 43172190 37550030
1777.09 32862870 28953490 25722160 23032030 20860110 19056700
1782.88 17573950 16354430 15310140 14415280 13731240 13111540
1788.66 12572440 12108340 11716650 11347940 10988590 10598380
1794.45 10271540 9936112 9627044 9336868 9065838 8888794
1800.24 8701288 8539534 8409770 8274810 8132166 7959806
1806.02 7806368 7608228 7451534 7265284 7107780 6948800
1811.81 6799634 6651738 6541022 6441246 6359304 6292346
1817.59 6247096 6219900 6219584 6242630 6226402 6153300
1823.38 6108486 6051112 5996928 5970278 5929964 5868000
1829.16 5811986 5723114 5649028 5566054 5438426 5330176
1834.95 5203576 5083074 4990634 4914572 4837802 4748588
1840.73 4650280 4495576 4338848 4199350 4056590 3937694
1846.52 3798318 3676306 3567946 3434094 3335680 3238204
1852.30 3119912 3020678 2947078 2873846 2825280 2754602
1858.09 2682624 2633252 2584088 2521856 2485458 2441686
1863.88 2394424 2365940 2350542 2343262 2348204 2356314
1869.66 2394354 2406436 2453146 2535058 2610938 2681612
1875.45 2800660 2908090 3033832 3158596 3302088 3421038
1881.23 3560344 3707736 3821914 3947674 4080214 4180376
1887.02 4295258 4380966 4435350 4472296 4513748 4559466
1892.80 4615630 4618246 4651070 4680926 4687120 4678772
1898.59 4663354 4638952 4589928 4558588 4536896 4556506
1904.37 4616608 4685018 4764020 4919804 5095738 5280522
1910.16 5525198 5794824 6072454 6426374 6805054 7205038
1915.94 7627312 8067468 8527408 9008940 9496302 9980474
1921.73 10500100 11029860 11683830 12415970 13232080 14072280
1927.51 14806370 15256650 15433560 15273920 14950240 14543340
1933.30 14140230 13720380 13149380 12723120 12660940 12793870
1939.09 12625040 12067690 11228530 10218350 9180726 8210496
1944.87 7365884 6649452 6093476 5656132 5350762 5129252
1950.66 5000564 4868406 4794730 4824460 4842826 4783488
1956.44 4600578 4395554 4167340 3952486 3763508 3585032
1962.23 3412870 3301100 3179086 3077590 2981028 2897050
1968.01 2845664 2770256 2726884 2696730 2660870 2592914
1973.80 2524276 2474492 2438742 2399288 2397320 2393772
1979.58 2395180 2399518 2414090 2409430 2395972 2362122
1985.37 2331506 2310546 2303262 2269848 2229216 2197836
1991.15 2195208 2184302 2176616 2130060 2058178 1967418
1996.94 1905408 1815354 1728436 1664194 1640296 1583026
2002.73 1570346 1539712 1519020 1521724 1521746 1498552
2008.51 1504518 1502730 1504114 1515358 1559334 1580186
2014.30 1588084 1632028 1655884 1693800 1708896 1749436
2020.08 1797930 1837034 1876678 1936094 1989578 2060492
2025.87 2127630 2198928 2292564 2377620 2448930 2561030
2031.65 2665396 2808836 2938830 3098528 3301034 3496150
2037.44 3736670 3991692 4278944 4638560 4974452 5344394
2043.22 5722488 6095970 6459654 6779688 7072490 7351360
2049.01 7592268 7817260 8021280 8235412 8445410 8618264
2054.79 8722278 8786092 8863948 8845154 8758382 8517428
2060.58 8200394 7811836 7462024 7098240 6771900 6479860
2066.37 6199128 5920698 5663176 5386708 5103166 4816710
2072.15 4583854 4358438 4151726 3946602 3780536 3634490
2077.94 3488090 3382102 3259574 3186954 3133078 3096828
2083.72 3045468 3058256 3042246 3047042 3063628 3066658
2089.51 3064532 3059848 3070828 3055832 3056438 3015538
2095.29 2979332 2964650 2942980 2904870 2858682 2829154
2101.08 2781386 2713266 2666760 2586636 2531814 2472578
2106.86 2424702 2396020 2348196 2351442 2335496 2329684
2112.65 2341924 2342808 2346744 2362236 2403968 2409230
2118.43 2402904 2420672 2425774 2433564 2427062 2434546
2124.22 2435478 2442306 2412970 2427864 2424306 2407300
2130.01 2382092 2352064 2334306 2277836 2251504 2220708
2135.79 2179364 2150720 2084760 2041054 2020720 1985376
2141.58 1940474 1883916 1877866 1816906 1795644 1743220
2147.36 1720726 1709912 1662258 1645608 1645132 1626840
2153.15 1629168 1633270 1628268 1667396 1663222 1678394
2158.93 1710750 1717100 1724192 1713622 1736076 1707082
2164.72 1669160 1635774 1602634 1560628 1533800 1500650
2170.50 1445382 1401642 1364348 1314690 1255868 1183686
2176.29 1118206 1062494 1005746 941056 934404 903848
2182.07 881348 869966 880172 865106 863390 866648
2187.86 882660 850734 887738 883108 899180 895620
2193.64 893520 876344 897226 890786 903556 896686
2199.43 867712 881136 853338 852992 843164 828936
2205.22 834234 805318 819968 804122 812244 811652
2211.00 794086 797198 821134 790252 798242 813718
2216.79 838424 834392 862584 873708 878260 915866
2222.57 925004 940192 933634 953404 918228 930602
2228.36 931012 943810 966378 992532 1013884 1029374
2234.14 1023574 1023806 1025540 1009852 1008308 1003014
2239.93 1005448 1009870 1007262 1007834 1038276 1022152
2245.71 1035350 1032702 1033176 1018034 1030100 1005592
2251.50 1012510 997978 992992 983188 1002814 998610
2257.28 1011046 1011080 1025014 1028388 1029834 1046838
2263.07 1061282 1083034 1073606 1068022 1073772 1055916
2268.86 1070178 1053206 1044306 1049306 1043032 1056026
2274.64 1070212 1026036 1053766 1039456 1033936 1047360
2280.43 1041626 1042020 1030472 1012506 1013362 1007584
2286.21 1011816 1010018 1032756 1019686 992584 1031514
2292.00 1058598 1075576 1080602 1112104 1128890 1165156
2297.78 1195118 1225026 1233760 1285054 1311990 1328716
2303.57 1376472 1395976 1433412 1475900 1526146 1540742
2309.35 1577130 1622128 1640600 1688948 1702420 1702940
2315.14 1714992 1703994 1707570 1710310 1699714 1724720
2320.92 1709284 1705870 1676926 1695218 1679614 1658796
2326.71 1608126 1578536 1547190 1528510 1462698 1432504
2332.50 1389656 1361354 1340826 1293464 1275956 1280938
2338.28 1269030 1230294 1179974 1166206 1112504 1093242
2344.07 1075316 1069642 1079972 1065098 1099396 1145176
2349.85 1161074 1200152 1264482 1306444 1390058 1465802
2355.64 1543098 1622348 1716534 1765412 1842928 1894266
2361.42 1955384 2030062 2093152 2161974 2231466 2323796
2367.21 2426502 2533294 2632460 2722764 2824316 2920898
2372.99 3034562 3121032 3207992 3292528 3401718 3511550
2378.78 3606224 3682784 3776164 3827952 3890124 3915514
2384.56 3913028 3981246 3989016 3964318 3938946 3906002
2390.35 3847930 3779958 3642370 3535442 3380382 3174142
2396.14 3005438 2817358 2657520 2525732 2397828 2253826
2401.92 2154620 2049514 1964592 1881604 1803614 1733402
2407.71 1706700 1641526 1631332 1597766 1557934 1569770
2413.49 1548940 1530176 1531482 1512594 1491506 1476858
2419.28 1464272 1448972 1444266 1415000 1413940 1383172
2425.06 1373766 1343920 1305552 1243784 1211904 1161156
2430.85 1119326 1075798 1041174 1016556 978376 908216
2436.63 902290 862662 833710 790648 787590 752114
2442.42 745066 717212 685720 684112 662960 657336
2448.20 684934 660482 646276 637998 671706 670102
2453.99 685140 683372 697428 751388 740486 776408
2459.77 809594 840888 869664 897442 956246 1009576
2465.56 1083686 1097980 1134120 1173164 1236916 1253684
2471.35 1310660 1329328 1371298 1387926 1427100 1439942
2477.13 1477438 1485112 1499386 1532254 1507296 1500086
2482.92 1510188 1482804 1502406 1461038 1480124 1435122
2488.70 1442352 1434692 1423078 1379312 1370834 1333720
2494.49 1323736 1311278 1310372 1268702 1260018 1226218
2500.27 1203062 1157628 1133240 1104424 1055410 1015626
2506.06 999684 948066 912470 882594 866962 848758
2511.84 823116 801858 781040 791376 732952 733876
2517.63 742252 720142 749150 729600 726938 741292
2523.41 747746 770766 797524 795980 821462 830470
2529.20 845268 884024 905158 925218 945664 978386
2534.99 1013358 1032764 1054410 1032978 1067538 1064876
2540.77 1109764 1085706 1102570 1119206 1140212 1103238
2546.56 1128740 1126174 1129756 1101484 1122578 1108666
2552.34 1123792 1127854 1107114 1106062 1090480 1079410
2558.13 1043424 998738 992322 928434 914268 877282
2563.91 856370 810274 823764 783164 791822 742316
2569.70 718916 672598 635358 583952 577620 538990
2575.48 541538 519188 531506 513132 532284 527100
2581.27 496808 516316 524580 541330 576134 572278
2587.05 643228 638088 666840 684330 730768 758626
2592.84 784438 804182 837040 847768 882856 884268
2598.63 931220 936110 952294 975382 992542 988454
2604.41 984368 987094 986156 949320 937740 944196
2610.20 989882 948948 955590 940368 941384 909096
2615.98 880210 860260 860884 833088 819390 792472
2621.77 778220 752134 765416 726314 721200 678584
2627.55 700696 653056 673054 670740 673552 650264
2633.34 655406 644500 652802 675912 695792 693044
2639.12 707516 741738 723860 743424 760658 778104
2644.91 802894 790884 814776 848974 860800 887478
2650.69 906240 896422 941422 929316 972284 967048
2656.48 1013792 1006014 1074824 1061358 1090458 1070888
2662.27 1099996 1084634 1087482 1090678 1108310 1094076
2668.05 1135678 1108014 1133052 1128578 1159576 1103528
2673.84 1120754 1089248 1095276 1047416 1026684 1046930
2679.62 1047636 1016688 1014494 1042040 1035128 1026930
2685.41 1055838 1041078 1050914 1042422 1095618 1104338
2691.19 1113422 1172594 1202198 1240880 1296686 1372022
2696.98 1422268 1450000 1519202 1489568 1570620 1563106
2702.76 1580128 1597054 1601438 1641056 1635268 1643158
2708.55 1624792 1630072 1595490 1571396 1569462 1506582
2714.33 1503874 1463324 1434840 1398306 1438366 1425044
2720.12 1458230 1442296 1452058 1418302 1479368 1431554
2725.91 1468098 1449800 1487546 1505846 1522416 1533800
2731.69 1584400 1631816 1650656 1589576 1591082 1570386
2737.48 1547784 1498134 1472076 1442466 1459412 1393102
2743.26 1426480 1423822 1437702 1451154 1488940 1518550
2749.05 1508460 1531454 1552652 1548560 1557934 1551898
2754.83 1588388 1564908 1633954 1649592 1796692 1782664
2760.62 1846678 1891172 1990630 1998240 2093932 2130772
2766.40 2167116 2182208 2223458 2215146 2250074 2242450
2772.19 2263714 2188728 2182640 2132778 2113372 2076522
2777.97 2062238 1990578 1925892 1845162 1781322 1690054
2783.76 1676880 1573962 1562282 1498290 1514678 1507792
2789.54 1536028 1506824 1541486 1566960 1563398 1603546
2795.33 1637582 1621624 1644630 1666972 1729366 1713198
2801.12 1761056 1794502 1851850 1873524 1943174 1973098
2806.90 2051158 2081334 2153594 2171860 2285312 2331890
2812.69 2450252 2497006 2605864 2742998 2882204 2951512
2818.47 3122080 3243252 3365618 3412560 3508310 3525012
2824.26 3573244 3564768 3611826 3616328 3681186 3697162
2830.04 3735180 3753782 3835580 3774518 3790576 3744676
2835.83 3731278 3703084 3766840 3685938 3755376 3714902
2841.61 3729686 3751918 3806646 3820272 3892536 3885206
2847.40 3934712 3973702 4038516 4051674 4140876 4164654
2853.18 4256552 4313776 4432142 4466656 4567980 4586934
2858.97 4695440 4756446 4846452 4947556 5104042 5282218
2864.76 5513192 5691736 5945242 6236230 6594926 6986930
2870.54 7502984 8094674 8849858 9688106 10749860 11910370
2876.33 13334870 14714800 16214460 17516920 18699570 19400270
2882.11 19881060 20056590 20503030 20954260 21576960 22171090
2887.90 22860860 23345130 23844480 24121100 24353030 24276860
2893.68 24326840 24109860 24092970 24045120 24166430 24342290
2899.47 24775440 25290700 26150970 26831040 27620960 28299400
2905.25 29156580 29927690 30795830 31526810 32321380 32810200
2911.04 33394650 33790460 34193080 34384080 34384360 33787680
2916.82 32942660 32175650 31666800 31385140 31413070 31486290
2922.61 31671420 31580170 31485740 31049960 30769790 30263670
2928.40 30089370 29890280 30190450 30769170 31989710 33459520
2934.18 35452760 37602680 40039430 42249280 44363630 45767060
2939.97 47191480 48461140 50754980 52367530 52696170 53467220
2945.75 55077470 56951140 58953470 58674240 57656180 57319100
2951.54 56991080 56481940 55857480 55568620 54513780 52802800
2957.32 52377570 52060510 52312790 52072240 52606920 53434150
2963.11 54842730 57113710 57764040 56653300 57319580 58748490
2968.89 61014730 62569450 64986130 68294160 72757380 77659090
2974.68 83610060 89642480 96411310 102824300 109623800 115952900
2980.46 123386800 131823000 141285800 141387100 141436200 142437200
2986.25 143629600 144061100 146856500 149112000 148690900 149822600
2992.04 157113700 167664400 194430800 179431300 153275400 144342500
2997.82 134640200 128846000 121702600 115734300 108909100 103553200
3003.61 96951900 91655650 86577150 82730300 78580270 75539100
3009.39 71303500 67109700 62057540 57398680 52289860 47786620
3015.18 43113620 39264570 35421050 32331770 29235640 26687880
3020.96 24195240 22265640 20277370 18911420 17429690 16518760
3026.75 15503940 14851410 14070210 13722180 13327840 13225290
3032.53 13104950 13275910 13276680 13694770 14061640 14851830
3038.32 15639840 16741890 17698060 18669330 19236870 19583290
3044.10 19412410 19017990 18513160 18394760 18642050 18576650
3049.89 17492410 17590720 17797980 18175790 18009130 17429500
3055.67 16166660 14773670 13077950 11628840 10164720 9061694
3061.46 8076324 7499950 6898318 6609816 6272668 6232016
3067.25 6141210 6212318 6201830 6378726 6449960 6690152
3073.03 6747420 6974420 7075626 7229602 7275628 7400146
3078.82 7400574 7358816 7220262 7153000 6992562 7071268
3084.60 6998530 6959168 7035224 7153450 7010336 6868748
3090.39 6490496 6268348 5896484 5624294 5363362 5231782
3096.17 5128100 5180728 5329808 5680930 6215352 7046662
3101.96 8088166 9461296 10982140 12790360 14380790 15616770
3107.74 16094480 15689660 14272770 12608660 12550170 14918050
3113.53 15719790 16151560 13427550 14236050 15648350 16314110
3119.31 15965180 14865310 13036360 11116830 9247722 7554290
3125.10 6178464 5154350 4379972 3839522 3362224 3140286
3130.89 2907066 2770408 2623912 2489600 2358092 2307998
3136.67 2211942 2179890 2066990 2062376 2005428 2059534
3142.46 2011650 2058440 2052360 2061000 2078342 2127514
3148.24 2091932 2155002 2135678 2158824 2121268 2113918
3154.03 2107926 2122800 2062462 2092470 2008834 2044472
3159.81 1979282 1993008 1898962 1913218 1840348 1882228
3165.60 1805136 1797318 1733620 1715792 1679120 1686124
3171.38 1612246 1631336 1571322 1569852 1487268 1498284
3177.17 1485600 1434982 1406910 1379886 1359264 1398382
3182.95 1292642 1339626 1215236 1270924 1220808 1218790
3188.74 1154500 1174052 1134508 1165678 1088322 1114158
3194.53 1102240 1044102 1034596 1059468 1039188 1014680
3200.31 1034350 995536 1009568 997862 951948 988962
3206.10 959520 928540 926854 929504 894768 946456
3211.88 900818 925036 891152 917228 900906 947646
3217.67 869892 904082 915916 925742 923888 924528
3223.45 961624 984678 956518 1001890 1005932 984532
3229.24 1004204 1028312 1010922 1046644 1050410 1095204
3235.02 1052572 1051164 1044840 1057342 1043084 1028770
3240.81 1062006 1055406 1057202 1064316 1008534 1014866
3246.59 940424 983498 919720 890420 842684 844144
3252.38 776210 729638 682430 682952 660306 624798
3258.17 534658 496446 473280 440454 369748 380190
3263.95 302752 302102 273454 244352 226442 195992
3269.74 165454 154718 145816 122058 84846 142166
3275.52 101442 113362 109870 78950 71164 108684
3281.31 14576 21618-2878 44222 54028 16772
3287.09-5096 4616 5570-27900-33866-30340
3292.88-24714-28500-68508-16136-95572-61994
3298.66-66618-40110-29748 64-36762 72
3304.45-7914 69344 38056 76778 41182 115812
3310.23 130734 171498 111232 187946 192710 197476
3316.02 227702 177110 228430 246650 226352 248128
3321.80 249576 272626 284298 285954 262182 287728
3327.59 305164 341202 320974 342168 327162 366152
3333.38 312922 369092 369586 341086 366352 373500
3339.16 381024 391924 397194 426272 437258 489438
3344.95 464428 487044 477188 534204 561158 612778
3350.73 597936 582342 631416 694222 678394 697992
3356.52 740254 759116 775614 818928 812766 844914
3362.30 856548 887548 882372 874888 880342 850432
3368.09 861554 888096 882146 860596 820594 880494
3373.87 858478 860192 846058 890294 856870 908050
3379.66 928790 956080 969316 1026738 968116 998702
3385.44 1010456 1039782 983488 991240 925618 898940
3391.23 867116 822328 860242 878384 826790 839388
3397.02 838048 722976 603298 552128 500194 467434
3402.80 359776 319702 224008 240258 211168 220012
3408.59 232034 203778 219600 204148 179598 192782
3414.37 182366 209486 127872 189774 169846 105854
3420.16 168686 117648 126238 130880 127016 119262
3425.94 138230 157938 138512 176784 77118 127582
3431.73 140268 121414 113046 138068 169064 131280
3437.51 161126 173578 169478 186962 181804 168058
3443.30 242120 218906 223962 365188 356820 446110
3449.08 464840 578980 638444 797862 846630 1015198
3454.87 1146980 1297944 1468974 1721334 1933926 2179182
3460.66 2392536 2691908 2991240 3369126 3634280 4013476
3466.44 4390374 4721890 5108654 5454288 5719412 6091352
3472.23 6269186 6471490 6582298 6632478 6586818 6598050
3478.01 6551226 6656630 6788258 6902284 6992338 6931452
3483.80 6828980 6633224 6327176 5944972 5484442 5038308
3489.58 4606896 4229630 3787994 3407120 3011584 2683540
3495.37 2294774 2014824 1726240 1486776 1216188 1013776
3501.15 849626 719448 539828 426460 298582 182438
3506.94 96464 66414 7660-32342-77002-129852
3512.72-132726-176226-213922-220258-241730-230970
3518.51-215164-198598-244280-233698-247644-290638
3524.30-252468-263530-233616-248724-229966-239688
3530.08-261958-229438-252546-261364-275066-188232
3535.87-220848-225460-176348-189554-234814-166882
3541.65-168462-143720-124204-166984-135534-140886
3547.44-96784-81064-91698-59484-71140-64698
3553.22-26898-10518-24096-18606 29870 38318
3559.01 48476 80068 35886 28740 70342 105514
3564.79 62208 66962 72646 89018 83278 55406
3570.58 79626 65854 69806 89482 71938 23308
3576.36 12936 41860-11558 13304 8438 30528
3582.15 24352 38336 22100-9018-5080 11004
3587.94-31646-19564 2782 47594 968 8286
3593.72 26332 56496 47164 49050-9646 65906
3599.51-19150 24978 31114 46800 40446 22558
3605.29 57344 86596 10656 56794 62396 40710
3611.08 55426 66904 48070 36502 47730 50960
3616.86 27558 58994 40770 72294-6838 68766
3622.65 24524 7630 14842 62194 34260 28382
3628.43 58694 26766 9210 40124 19668 24560
3634.22 16736 25940-24178 26542 47122 32042
3640.00 11186 4426-3670 30092 2860 27154
3645.79-176-14944-3144 45150-2188 42438
3651.57-4666-1734-17116 26034 58148-15120
3657.36-17470-4666-3586 23250 15204 29090
3663.15 10760 12936 52178 12820-9100 21728
3668.93 6990 34586 27198 19172 12138-1766
3674.72 50212 31946-28070 48068 10566 34450
3680.50 11314 22424-15452 12470 12170 36706
3686.29 17372 75040 28572 8484 16680 54964
3692.07 34054 47262-1622 45316 35052 45296
3697.86 2936 53326 21186 62518 38660 55264
3703.64 62724 24116 89672 31504 51178 46650
3709.43 66920 75368 37208 49388 83408 91826
3715.21 91128 88536 106542 120450 82642 140112
3721.00 75406 114782 117742 125226 112180 116154
3726.79 110586 142880 97696 130184 135424 170900
3732.57 153676 146574 118512 130778 124196 128258
3738.36 174036 144842 147472 162860 132416 181136
3744.14 210056 148116 170804 153284 192426 188528
3749.93 170840 227660 209444 206336 167098 217126
3755.71 194432 240640 192964 285320 244128 238632
3761.50 289682 267028 286754 303814 284206 331538
3767.28 305118 320326 342022 314110 343012 345054
3773.07 344072 356594 331612 348076 331284 320572
3778.85 334958 345360 292464 312150 334816 319240
3784.64 288752 300584 276296 251888 253498 284914
3790.43 252564 262818 230912 217540 209890 222202
3796.21 242298 229072 163690 201130 215854 220964
3802.00 183024 204620 198080 154254 180322 154098
3807.78 166686 150888 135622 135590 135732 161138
3813.57 168024 118380 151842 148918 137232 109958
3819.35 117726 130644 137536 128498 119506 142950
3825.14 147012 176320 134230 124748 155618 179058
3830.92 135404 170922 174882 191604 172018 171956
3836.71 221108 196304 189374 224324 219808 203910
3842.49 181330 185446 179382 208892 209018 180710
3848.28 182236 197926 196530 248150 162258 228216
3854.07 179514 155376 192820 171082 162820 149672
3859.85 134328 154250 132562 119652 165200 128420
3865.64 99410 167290 155068 152892 123404 160320
3871.42 99742 146564 152636 120236 124260 145186
3877.21 127718 114914 109594 134988 146818 150568
3882.99 152024 184680 147584 169128 152314 182634
3888.78 182734 161278 177968 141528 201346 195322
3894.56 182812 183820 160920 178226 219430 202138
3900.35 181786 214656 204642 239560 172940 227952
3906.13 181704 213106 161092 160298 186798 176132
3911.92 210294 189596 221442 163230 173942 154274
3917.70 145572 154970 153064 150346 126232 104208
3923.49 119620 138850 99912 118840 88536 103500
3929.28 107266 131334 94444 138972 108310 102412
3935.06 106998 99378 106656 130666 139712 95058
3940.85 92734 122946 157752 147928 128358 185468
3946.63 171460 218834 166208 154290 187496 165488
3952.42 198726 207016 191546 219546 215316 176668
3958.20 201524 209714 224152 247714 220416 258988
3963.99 295610 283526 283206 294142 297678 328356
3969.77 313890 360088 353880 367648 354224
##END=
