##TITLE=2-PROPENOIC ACID, ETHYL ESTER
##JCAMP-DX=4.24
##DATA TYPE=INFRARED SPECTRUM
##CLASS=COBLENTZ III
##ORIGIN=DOW CORNING CORP.
##OWNER=COBLENTZ SOCIETY
Collection (C) 2018 copyright by the U.S. Secretary of Commerce
on behalf of the United States of America. All rights reserved.
##DATE=1966
##NAMES=ethyl acrylate
ACRYLIC ACID, ETHYL ESTER
##CAS REGISTRY NO=140-88-5
##MOLFORM=C5 H8 O2
##SOURCE REFERENCE=COBLENTZ NO. 4305
##$NIST SOURCE=COBLENTZ
##$NIST IMAGE=cob4305
##SPECTROMETER/DATA SYSTEM=PERKIN-ELMER 521 (GRATING)
##INSTRUMENT PARAMETERS=FILTERS AT 3150, 2500, 2000, 1150, 700, 410; GRATING CHANGES AT 2000, 630 CM^-^1
##STATE=SOLUTION (5% IN CCl4 FOR 3800-1300, 5% IN CS2 FOR 1300-600, AND 5% IN CCl4 FOR 600-240 CM^-^1) VERSUS SOLVENT
##PATH LENGTH=0.010, 0.010, AND 0.020 CM (CsBr CELL)
##SAMPLING PROCEDURE=TRANSMISSION
##RESOLUTION=4
##DATA PROCESSING=DIGITIZED BY NIST FROM HARD COPY (FROM TWO SEGMENTS)
##XUNITS=1/CM
##YUNITS=TRANSMITTANCE
##XFACTOR=1.000000
##YFACTOR=1
##DELTAX=1.281027
##FIRSTX=228.343
##LASTX=3790.88
##FIRSTY=0.794
##MAXX=3790.88
##MINX=228.343
##MAXY=0.895
##MINY=0
##NPOINTS=2782
##XYDATA=(X++(Y..Y))
228.343000 0.7940 0.7940 0.7940 0.7940 0.7940
234.748133 0.7940 0.7940 0.7940 0.7940 0.7940
241.153266 0.7940 0.7940 0.7950 0.7950 0.7950
247.558400 0.7950 0.7950 0.7950 0.7970 0.7970
253.963533 0.7990 0.7990 0.8010 0.8010 0.8020
260.368666 0.8020 0.8020 0.8020 0.8020 0.8020
266.773799 0.8020 0.8020 0.8010 0.8010 0.8010
273.178933 0.7970 0.7970 0.7950 0.7950 0.7940
279.584066 0.7940 0.7920 0.7920 0.7920 0.7920
285.989199 0.7900 0.7900 0.7900 0.7880 0.7870
292.394332 0.7850 0.7850 0.7850 0.7870 0.7870
298.799466 0.7870 0.7850 0.7810 0.7730 0.7660
305.204599 0.7570 0.7520 0.7500 0.7460 0.7450
311.609732 0.7450 0.7430 0.7430 0.7450 0.7460
318.014865 0.7460 0.7460 0.7460 0.7450 0.7450
324.419999 0.7390 0.7380 0.7360 0.7360 0.7320
330.825132 0.7290 0.7260 0.7190 0.7130 0.7060
337.230265 0.6980 0.6940 0.6890 0.6850 0.6780
343.635398 0.6770 0.6770 0.6780 0.6820 0.6890
350.040532 0.6960 0.7030 0.7120 0.7259 0.7290
356.445665 0.7320 0.7360 0.7380 0.7390 0.7410
362.850798 0.7380 0.7270 0.7190 0.7051 0.6911
369.255931 0.6770 0.6770 0.6890 0.7030 0.7170
375.661065 0.7320 0.7390 0.7500 0.7500 0.7391
382.066198 0.7340 0.7320 0.7320 0.7340 0.7340
388.471331 0.7380 0.7410 0.7500 0.7589 0.7640
394.876464 0.7740 0.7780 0.7880 0.7920 0.7940
401.281598 0.7970 0.8040 0.8080 0.8110 0.8130
407.686731 0.8130 0.8150 0.8150 0.8160 0.8150
414.091864 0.8150 0.8150 0.8150 0.8130 0.8110
420.496997 0.8090 0.8090 0.8090 0.8110 0.8110
426.902131 0.8130 0.8130 0.8130 0.8130 0.8130
433.307264 0.8130 0.8110 0.8110 0.8110 0.8110
439.712397 0.8110 0.8110 0.8090 0.8080 0.8080
446.117530 0.8060 0.8020 0.8010 0.7990 0.7970
452.522664 0.7950 0.7940 0.7920 0.7920 0.7900
458.927797 0.7880 0.7870 0.7870 0.7850 0.7850
465.332930 0.7830 0.7830 0.7830 0.7830 0.7850
471.738063 0.7850 0.7850 0.7850 0.7870 0.7870
478.143197 0.7870 0.7880 0.7900 0.7900 0.7920
484.548330 0.7940 0.7940 0.7950 0.7950 0.7970
490.953463 0.7990 0.8010 0.8020 0.8040 0.8040
497.358596 0.8040 0.8040 0.8040 0.8040 0.8060
503.763729 0.8060 0.8060 0.8060 0.8060 0.8060
510.168863 0.8060 0.8060 0.8060 0.8060 0.8060
516.573996 0.8040 0.8020 0.8020 0.7990 0.7970
522.979129 0.7970 0.7970 0.7950 0.7950 0.7950
529.384262 0.7950 0.7950 0.7970 0.7970 0.7990
535.789396 0.8010 0.8020 0.8080 0.8090 0.8110
542.194529 0.8130 0.8130 0.8150 0.8150 0.8160
548.599662 0.8160 0.8180 0.8200 0.8200 0.8200
555.004795 0.8210 0.8210 0.8210 0.8230 0.8230
561.409929 0.8250 0.8250 0.8270 0.8270 0.8270
567.815062 0.8280 0.8280 0.8280 0.8280 0.8300
574.220195 0.8300 0.8300 0.8320 0.8320 0.8320
580.625328 0.8320 0.8340 0.8340 0.8340 0.8340
587.030462 0.8350 0.8350 0.8350 0.8350 0.8370
593.435595 0.8370 0.8370 0.8370 0.8370 0.8390
599.840728 0.8390 0.8390 0.8390 0.8390 0.8410
606.245861 0.8410 0.8410 0.8410 0.8410 0.8410
612.650995 0.8410 0.8410 0.8420 0.8420 0.8420
619.056128 0.8420 0.8420 0.8420 0.8420 0.8440
625.461261 0.8440 0.8440 0.8440 0.8440 0.8440
631.866394 0.8440 0.8440 0.8440 0.8440 0.8440
638.271528 0.8440 0.8420 0.8420 0.8410 0.8390
644.676661 0.8350 0.8340 0.8320 0.8270 0.8200
651.081794 0.8160 0.8080 0.8040 0.7950 0.7940
657.486927 0.7880 0.7850 0.7830 0.7800 0.7760
663.892061 0.7740 0.7710 0.7690 0.7670 0.7530
670.297194 0.7530 0.7988 0.8149 0.8200 0.8339
676.702327 0.8460 0.8480 0.8510 0.8550 0.8560
683.107460 0.8560 0.8580 0.8580 0.8600 0.8600
689.512594 0.8600 0.8600 0.8620 0.8620 0.8630
695.917727 0.8650 0.8650 0.8670 0.8670 0.8690
702.322860 0.8690 0.8700 0.8700 0.8690 0.8690
708.727993 0.8690 0.8690 0.8670 0.8670 0.8670
715.133127 0.8670 0.8650 0.8650 0.8650 0.8650
721.538260 0.8650 0.8650 0.8650 0.8650 0.8670
727.943393 0.8670 0.8690 0.8690 0.8690 0.8690
734.348526 0.8690 0.8690 0.8690 0.8670 0.8670
740.753660 0.8670 0.8670 0.8670 0.8670 0.8670
747.158793 0.8670 0.8670 0.8650 0.8650 0.8650
753.563926 0.8650 0.8650 0.8630 0.8630 0.8620
759.969059 0.8600 0.8600 0.8560 0.8560 0.8560
766.374192 0.8550 0.8550 0.8510 0.8480 0.8460
772.779326 0.8420 0.8320 0.8280 0.8250 0.8230
779.184459 0.8130 0.8040 0.7870 0.7760 0.7670
785.589592 0.7530 0.7430 0.7430 0.7261 0.7170
791.994725 0.7010 0.6920 0.6710 0.6540 0.6470
798.399859 0.5443 0.4922 0.4382 0.3833 0.3711
804.804992 0.3560 0.3520 0.3540 0.3630 0.3800
811.210125 0.4289 0.4689 0.5407 0.5718 0.6028
817.615258 0.6630 0.7080 0.7410 0.7760 0.7760
824.020392 0.7850 0.7940 0.7990 0.8020 0.8090
830.425525 0.8150 0.8160 0.8160 0.8210 0.8210
836.830658 0.8230 0.8200 0.8160 0.8130 0.7991
843.235791 0.7950 0.7940 0.7870 0.7780 0.7451
849.640925 0.7101 0.7010 0.6920 0.6910 0.6910
856.046058 0.6920 0.6940 0.7030 0.7060 0.7290
862.451191 0.7499 0.7659 0.7989 0.8159 0.8249
868.856324 0.8320 0.8370 0.8410 0.8420 0.8440
875.261458 0.8440 0.8460 0.8460 0.8460 0.8440
881.666591 0.8420 0.8390 0.8390 0.8390 0.8370
888.071724 0.8370 0.8350 0.8340 0.8320 0.8250
894.476857 0.8230 0.8200 0.8150 0.8040 0.8020
900.881991 0.8010 0.7990 0.7990 0.7970 0.7970
907.287124 0.7950 0.7920 0.7880 0.7870 0.7810
913.692257 0.7800 0.7810 0.7870 0.7920 0.8039
920.097390 0.8180 0.8230 0.8270 0.8280 0.8300
926.502524 0.8340 0.8350 0.8350 0.8350 0.8340
932.907657 0.8340 0.8320 0.8300 0.8280 0.8230
939.312790 0.8160 0.8130 0.8010 0.7950 0.7870
945.717923 0.7760 0.7670 0.7520 0.7310 0.7051
952.123057 0.6801 0.6561 0.5465 0.5002 0.4572
958.528190 0.4100 0.3640 0.3210 0.3170 0.2731
964.933323 0.2730 0.3886 0.4388 0.5345 0.5350
971.338456 0.5180 0.4920 0.4620 0.4320 0.4031
977.743590 0.3282 0.3071 0.2393 0.2141 0.1881
984.148723 0.1881 0.2751 0.4950 0.5270 0.5560
990.553856 0.5949 0.6658 0.6700 0.6869 0.7099
996.958989 0.7190 0.7220 0.7340 0.7380 0.7380
1003.364123 0.7380 0.7380 0.7360 0.7320 0.7290
1009.769256 0.7170 0.7080 0.7030 0.6940 0.6780
1016.174389 0.6700 0.6630 0.6590 0.5953 0.5443
1022.579522 0.5039 0.4380 0.3890 0.3470 0.3171
1028.984655 0.2931 0.2910 0.3398 0.3629 0.4306
1035.389789 0.5130 0.5140 0.5470 0.5790 0.5810
1041.794922 0.5910 0.5890 0.5880 0.5810 0.5740
1048.200055 0.5420 0.5070 0.4690 0.4171 0.3571
1054.605188 0.3211 0.2861 0.2511 0.2162 0.1812
1061.010322 0.1460 0.1460 0.1930 0.2399 0.3079
1067.415455 0.3988 0.4787 0.5388 0.5679 0.5978
1073.820588 0.6070 0.6310 0.6500 0.6660 0.6730
1080.225721 0.6770 0.6730 0.6700 0.6660 0.6570
1086.630855 0.6450 0.6360 0.6070 0.5820 0.5490
1093.035988 0.5510 0.5510 0.5630 0.5720 0.5929
1099.441121 0.6240 0.6560 0.6780 0.6850 0.6870
1105.846254 0.6870 0.6870 0.6870 0.6870 0.6870
1112.251388 0.7060 0.7120 0.7200 0.7320 0.7410
1118.656521 0.7570 0.7590 0.7620 0.7640 0.7660
1125.061654 0.7660 0.7660 0.7640 0.7640 0.7600
1131.466787 0.7590 0.7500 0.7450 0.7410 0.7410
1137.871921 0.7360 0.7320 0.7260 0.7200 0.7120
1144.277054 0.6990 0.6920 0.6820 0.6780 0.6591
1150.682187 0.6350 0.6190 0.6030 0.5910 0.5880
1157.087320 0.5651 0.5371 0.5141 0.4861 0.4502
1163.492454 0.4200 0.3890 0.3640 0.3380 0.3210
1169.897587 0.3080 0.3010 0.2871 0.2681 0.2392
1176.302720 0.2110 0.2000 0.1650 0.0681 0.0341
1182.707853 0.0051 0.0010 0.0000 0.0000 0.0010
1189.112987 0.0030 0.0060 0.0120 0.0130 0.0170
1195.518120 0.0260 0.0330 0.0340 0.0679 0.0988
1201.923253 0.1290 0.1720 0.2040 0.2400 0.3079
1208.328386 0.3399 0.3988 0.4518 0.4918 0.5129
1214.733520 0.5410 0.5510 0.5600 0.5610 0.5860
1221.138653 0.6089 0.6210 0.6379 0.6400 0.6420
1227.543786 0.6450 0.6450 0.6470 0.6470 0.6470
1233.948919 0.6450 0.6450 0.6400 0.6350 0.6300
1240.354053 0.6260 0.6230 0.6190 0.6170 0.6120
1246.759186 0.6070 0.6050 0.5891 0.5741 0.5441
1253.164319 0.4740 0.4480 0.4380 0.3960 0.3451
1259.569452 0.2871 0.2371 0.1842 0.1302 0.0822
1265.974586 0.0780 0.0820 0.0940 0.0970 0.1080
1272.379719 0.1180 0.1369 0.1788 0.1810 0.2924
1278.784852 0.4040 0.4270 0.4290 0.4270 0.4250
1285.189985 0.4011 0.3801 0.3760 0.3083 0.2045
1291.595118 0.1790 0.1510 0.1230 0.0940 0.0940
1298.000252 0.1509 0.2069 0.3186 0.3210 0.3688
1304.405385 0.4481 0.5250 0.5600 0.5930 0.6239
1310.810518 0.6499 0.6978 0.7030 0.7149 0.7269
1317.215651 0.7320 0.7500 0.7590 0.7660 0.7800
1323.620785 0.7880 0.7950 0.7970 0.8020 0.8060
1330.025918 0.8110 0.8160 0.8180 0.8200 0.8200
1336.431051 0.8210 0.8210 0.8230 0.8230 0.8230
1342.836184 0.8230 0.8230 0.8210 0.8210 0.8210
1349.241318 0.8200 0.8200 0.8160 0.8110 0.8060
1355.646451 0.8020 0.7990 0.7950 0.7760 0.7520
1362.051584 0.7271 0.7130 0.6961 0.6781 0.6780
1368.456717 0.7030 0.7240 0.7410 0.7430 0.7390
1374.861851 0.7360 0.7310 0.7171 0.6961 0.6751
1381.266984 0.6519 0.5929 0.5180 0.4690 0.4241
1387.672117 0.4240 0.5207 0.5300 0.5370 0.5300
1394.077250 0.5110 0.5020 0.4880 0.4100 0.3760
1400.482384 0.3381 0.3001 0.2442 0.1862 0.1293
1406.887517 0.0890 0.0890 0.1090 0.1300 0.2889
1413.292650 0.3170 0.3898 0.5385 0.5749 0.6118
1419.697783 0.6491 0.6870 0.6990 0.7240 0.7320
1426.102917 0.7430 0.7450 0.7460 0.7450 0.7410
1432.508050 0.7360 0.7320 0.7260 0.7190 0.7120
1438.913183 0.7050 0.6851 0.6631 0.6421 0.6211
1445.318316 0.6169 0.5810 0.5810 0.6350 0.6939
1451.723450 0.6940 0.6870 0.6820 0.6750 0.6680
1458.128583 0.6570 0.6520 0.6360 0.5860 0.5860
1464.533716 0.5980 0.6030 0.6239 0.6280 0.6419
1470.938849 0.6660 0.6680 0.6680 0.6630 0.6500
1477.343983 0.6231 0.6230 0.6489 0.6848 0.7407
1483.749116 0.7500 0.7760 0.7970 0.8090 0.8130
1490.154249 0.8160 0.8230 0.8270 0.8270 0.8280
1496.559382 0.8300 0.8300 0.8320 0.8320 0.8320
1502.964516 0.8320 0.8340 0.8350 0.8350 0.8350
1509.369649 0.8370 0.8390 0.8390 0.8390 0.8410
1515.774782 0.8420 0.8440 0.8460 0.8480 0.8480
1522.179915 0.8510 0.8510 0.8530 0.8560 0.8560
1528.585049 0.8580 0.8600 0.8600 0.8620 0.8620
1534.990182 0.8630 0.8630 0.8650 0.8650 0.8650
1541.395315 0.8650 0.8650 0.8650 0.8630 0.8630
1547.800448 0.8620 0.8620 0.8620 0.8620 0.8620
1554.205581 0.8620 0.8620 0.8620 0.8620 0.8600
1560.610715 0.8560 0.8560 0.8550 0.8550 0.8550
1567.015848 0.8530 0.8510 0.8490 0.8490 0.8480
1573.420981 0.8460 0.8440 0.8420 0.8410 0.8390
1579.826114 0.8390 0.8390 0.8390 0.8370 0.8370
1586.231248 0.8370 0.8370 0.8350 0.8350 0.8350
1592.636381 0.8340 0.8320 0.8300 0.8210 0.8200
1599.041514 0.8180 0.8150 0.8130 0.8090 0.8080
1605.446647 0.7970 0.7880 0.7780 0.7780 0.7641
1611.851781 0.7460 0.7340 0.7130 0.6960 0.6610
1618.256914 0.6261 0.5911 0.5860 0.5631 0.5630
1624.662047 0.6030 0.6310 0.6640 0.6770 0.6770
1631.067180 0.6710 0.6710 0.6262 0.5254 0.4643
1637.472314 0.4578 0.3560 0.3561 0.5179 0.6778
1643.877447 0.7010 0.7798 0.7810 0.7880 0.7970
1650.282580 0.8060 0.8130 0.8150 0.8150 0.8160
1656.687713 0.8160 0.8150 0.8150 0.8130 0.8090
1663.092847 0.8020 0.7990 0.7970 0.7950 0.7940
1669.497980 0.7900 0.7850 0.7810 0.7760 0.7740
1675.903113 0.7670 0.7640 0.7600 0.7480 0.7360
1682.308246 0.7240 0.7170 0.7080 0.6941 0.6850
1688.713380 0.6820 0.6820 0.6800 0.6800 0.6780
1695.118513 0.6780 0.6710 0.6640 0.6560 0.6470
1701.523646 0.6360 0.6260 0.6030 0.5890 0.5750
1707.928779 0.5490 0.5131 0.4602 0.4241 0.3802
1714.333913 0.3379 0.2939 0.2400 0.2210 0.0781
1720.739046 0.0401 0.0051 0.0010 0.0000 0.0010
1727.144179 0.0030 0.0050 0.0080 0.0100 0.0120
1733.549312 0.0130 0.0170 0.0240 0.0310 0.0828
1739.954446 0.1151 0.1441 0.2390 0.3010 0.3629
1746.359579 0.4289 0.4849 0.5368 0.5559 0.5749
1752.764712 0.6031 0.6310 0.6470 0.6640 0.6780
1759.169845 0.6820 0.6940 0.7080 0.7339 0.7410
1765.574979 0.7450 0.7480 0.7530 0.7570 0.7570
1771.980112 0.7590 0.7660 0.7690 0.7760 0.7800
1778.385245 0.7830 0.7850 0.7880 0.7920 0.7950
1784.790378 0.7990 0.8040 0.8060 0.8090 0.8090
1791.195511 0.8110 0.8130 0.8150 0.8150 0.8160
1797.600645 0.8160 0.8180 0.8200 0.8230 0.8250
1804.005778 0.8270 0.8280 0.8320 0.8340 0.8350
1810.410911 0.8370 0.8390 0.8390 0.8390 0.8390
1816.816044 0.8410 0.8420 0.8420 0.8440 0.8460
1823.221178 0.8460 0.8480 0.8490 0.8490 0.8490
1829.626311 0.8490 0.8490 0.8490 0.8510 0.8530
1836.031444 0.8550 0.8550 0.8550 0.8550 0.8550
1842.436577 0.8550 0.8550 0.8560 0.8560 0.8560
1848.841711 0.8560 0.8560 0.8580 0.8580 0.8560
1855.246844 0.8560 0.8560 0.8550 0.8550 0.8550
1861.651977 0.8560 0.8560 0.8560 0.8560 0.8550
1868.057110 0.8550 0.8550 0.8550 0.8550 0.8550
1874.462244 0.8550 0.8550 0.8550 0.8530 0.8510
1880.867377 0.8510 0.8510 0.8510 0.8510 0.8510
1887.272510 0.8510 0.8510 0.8510 0.8510 0.8510
1893.677643 0.8530 0.8530 0.8530 0.8510 0.8510
1900.082777 0.8510 0.8510 0.8490 0.8480 0.8480
1906.487910 0.8480 0.8480 0.8480 0.8480 0.8460
1912.893043 0.8440 0.8420 0.8410 0.8370 0.8350
1919.298176 0.8340 0.8320 0.8270 0.8250 0.8230
1925.703310 0.8200 0.8180 0.8150 0.8130 0.8090
1932.108443 0.8080 0.8060 0.8080 0.8150 0.8160
1938.513576 0.8230 0.8270 0.8300 0.8350 0.8350
1944.918709 0.8390 0.8410 0.8420 0.8440 0.8460
1951.323843 0.8480 0.8490 0.8510 0.8510 0.8530
1957.728976 0.8530 0.8530 0.8530 0.8550 0.8550
1964.134109 0.8550 0.8550 0.8550 0.8550 0.8560
1970.539242 0.8560 0.8560 0.8560 0.8560 0.8560
1976.944376 0.8560 0.8560 0.8560 0.8560 0.8580
1983.349509 0.8580 0.8580 0.8580 0.8580 0.8600
1989.754642 0.8600 0.8630 0.8670 0.8700 0.8740
1996.159775 0.8760 0.8790 0.8790 0.8770 0.8765
2002.564909 0.8760 0.8740 0.8720 0.8705 0.8690
2008.970042 0.8690 0.8690 0.8680 0.8670 0.8660
2015.375175 0.8650 0.8650 0.8650 0.8640 0.8630
2021.780308 0.8615 0.8600 0.8600 0.8600 0.8590
2028.185442 0.8580 0.8570 0.8560 0.8560 0.8560
2034.590575 0.8555 0.8550 0.8550 0.8550 0.8515
2040.995708 0.8480 0.8460 0.8440 0.8440 0.8440
2047.400841 0.8450 0.8460 0.8460 0.8461 0.8476
2053.805974 0.8490 0.8500 0.8510 0.8520 0.8530
2060.211108 0.8540 0.8550 0.8555 0.8560 0.8560
2066.616241 0.8560 0.8560 0.8560 0.8560 0.8560
2073.021374 0.8570 0.8580 0.8580 0.8580 0.8580
2079.426507 0.8580 0.8580 0.8580 0.8580 0.8580
2085.831641 0.8580 0.8580 0.8580 0.8580 0.8580
2092.236774 0.8580 0.8580 0.8580 0.8580 0.8580
2098.641907 0.8580 0.8580 0.8580 0.8580 0.8580
2105.047040 0.8580 0.8580 0.8580 0.8580 0.8580
2111.452174 0.8580 0.8579 0.8569 0.8560 0.8560
2117.857307 0.8561 0.8571 0.8580 0.8580 0.8581
2124.262440 0.8591 0.8599 0.8589 0.8580 0.8580
2130.667573 0.8580 0.8580 0.8581 0.8591 0.8601
2137.072707 0.8611 0.8620 0.8620 0.8620 0.8620
2143.477840 0.8620 0.8620 0.8619 0.8609 0.8600
2149.882973 0.8600 0.8600 0.8600 0.8600 0.8600
2156.288106 0.8600 0.8600 0.8600 0.8600 0.8600
2162.693240 0.8600 0.8600 0.8600 0.8600 0.8600
2169.098373 0.8600 0.8600 0.8601 0.8611 0.8620
2175.503506 0.8625 0.8630 0.8630 0.8630 0.8630
2181.908639 0.8630 0.8630 0.8630 0.8630 0.8631
2188.313773 0.8641 0.8650 0.8650 0.8650 0.8650
2194.718906 0.8650 0.8650 0.8651 0.8661 0.8670
2201.124039 0.8670 0.8667 0.8642 0.8620 0.8620
2207.529172 0.8620 0.8620 0.8620 0.8620 0.8620
2213.934306 0.8620 0.8620 0.8620 0.8620 0.8620
2220.339439 0.8620 0.8620 0.8620 0.8620 0.8620
2226.744572 0.8620 0.8620 0.8620 0.8620 0.8620
2233.149705 0.8620 0.8620 0.8620 0.8620 0.8620
2239.554839 0.8620 0.8620 0.8620 0.8620 0.8620
2245.959972 0.8619 0.8609 0.8600 0.8600 0.8599
2252.365105 0.8589 0.8580 0.8580 0.8580 0.8580
2258.770238 0.8580 0.8580 0.8580 0.8580 0.8580
2265.175372 0.8580 0.8580 0.8580 0.8582 0.8592
2271.580505 0.8602 0.8617 0.8630 0.8630 0.8629
2277.985638 0.8624 0.8620 0.8620 0.8620 0.8620
2284.390771 0.8618 0.8608 0.8600 0.8600 0.8600
2290.795905 0.8600 0.8600 0.8600 0.8600 0.8600
2297.201038 0.8600 0.8600 0.8598 0.8588 0.8578
2303.606171 0.8568 0.8560 0.8560 0.8562 0.8572
2310.011304 0.8580 0.8580 0.8578 0.8568 0.8560
2316.416437 0.8560 0.8560 0.8560 0.8560 0.8560
2322.821571 0.8562 0.8572 0.8580 0.8580 0.8580
2329.226704 0.8580 0.8580 0.8580 0.8580 0.8580
2335.631837 0.8580 0.8580 0.8578 0.8568 0.8559
2342.036970 0.8554 0.8550 0.8550 0.8550 0.8550
2348.442104 0.8550 0.8550 0.8550 0.8550 0.8550
2354.847237 0.8550 0.8550 0.8550 0.8550 0.8550
2361.252370 0.8550 0.8550 0.8550 0.8550 0.8550
2367.657503 0.8550 0.8550 0.8550 0.8550 0.8550
2374.062637 0.8550 0.8550 0.8548 0.8538 0.8530
2380.467770 0.8530 0.8528 0.8518 0.8510 0.8510
2386.872903 0.8512 0.8522 0.8530 0.8530 0.8532
2393.278036 0.8542 0.8550 0.8550 0.8550 0.8550
2399.683170 0.8551 0.8556 0.8559 0.8554 0.8550
2406.088303 0.8550 0.8550 0.8550 0.8550 0.8550
2412.493436 0.8550 0.8550 0.8550 0.8550 0.8550
2418.898569 0.8550 0.8551 0.8556 0.8560 0.8560
2425.303703 0.8563 0.8573 0.8583 0.8592 0.8600
2431.708836 0.8600 0.8600 0.8600 0.8600 0.8600
2438.113969 0.8597 0.8587 0.8580 0.8580 0.8580
2444.519102 0.8580 0.8580 0.8580 0.8580 0.8580
2450.924236 0.8580 0.8580 0.8580 0.8580 0.8577
2457.329369 0.8567 0.8559 0.8554 0.8547 0.8537
2463.734502 0.8530 0.8530 0.8533 0.8543 0.8550
2470.139635 0.8550 0.8550 0.8550 0.8550 0.8550
2476.544769 0.8550 0.8550 0.8550 0.8550 0.8550
2482.949902 0.8550 0.8550 0.8550 0.8547 0.8537
2489.355035 0.8530 0.8530 0.8530 0.8530 0.8530
2495.760168 0.8530 0.8530 0.8530 0.8533 0.8543
2502.165302 0.8550 0.8550 0.8550 0.8550 0.8550
2508.570435 0.8550 0.8550 0.8550 0.8550 0.8550
2514.975568 0.8550 0.8550 0.8550 0.8550 0.8550
2521.380701 0.8550 0.8550 0.8550 0.8550 0.8550
2527.785835 0.8550 0.8550 0.8550 0.8550 0.8547
2534.190968 0.8537 0.8530 0.8530 0.8530 0.8530
2540.596101 0.8530 0.8530 0.8533 0.8543 0.8547
2547.001234 0.8537 0.8530 0.8530 0.8530 0.8530
2553.406368 0.8530 0.8530 0.8530 0.8530 0.8533
2559.811501 0.8543 0.8550 0.8550 0.8550 0.8550
2566.216634 0.8550 0.8550 0.8550 0.8550 0.8550
2572.621767 0.8550 0.8550 0.8550 0.8550 0.8550
2579.026900 0.8550 0.8550 0.8550 0.8550 0.8550
2585.432034 0.8550 0.8550 0.8550 0.8550 0.8550
2591.837167 0.8546 0.8536 0.8530 0.8530 0.8530
2598.242300 0.8530 0.8530 0.8530 0.8530 0.8530
2604.647433 0.8530 0.8530 0.8530 0.8530 0.8530
2611.052567 0.8530 0.8530 0.8530 0.8530 0.8530
2617.457700 0.8530 0.8530 0.8530 0.8530 0.8530
2623.862833 0.8530 0.8530 0.8530 0.8530 0.8530
2630.267966 0.8530 0.8530 0.8534 0.8544 0.8546
2636.673100 0.8536 0.8530 0.8530 0.8534 0.8544
2643.078233 0.8552 0.8557 0.8558 0.8553 0.8550
2649.483366 0.8550 0.8550 0.8550 0.8550 0.8550
2655.888499 0.8546 0.8536 0.8530 0.8530 0.8530
2662.293633 0.8530 0.8530 0.8530 0.8534 0.8544
2668.698766 0.8546 0.8536 0.8530 0.8530 0.8530
2675.103899 0.8530 0.8530 0.8530 0.8530 0.8530
2681.509032 0.8530 0.8530 0.8530 0.8530 0.8530
2687.914166 0.8530 0.8530 0.8530 0.8530 0.8530
2694.319299 0.8530 0.8530 0.8530 0.8530 0.8530
2700.724432 0.8530 0.8530 0.8530 0.8530 0.8530
2707.129565 0.8530 0.8530 0.8530 0.8530 0.8526
2713.534699 0.8516 0.8510 0.8510 0.8510 0.8510
2719.939832 0.8510 0.8510 0.8510 0.8510 0.8514
2726.344965 0.8524 0.8530 0.8530 0.8526 0.8516
2732.750098 0.8510 0.8510 0.8514 0.8524 0.8530
2739.155232 0.8530 0.8526 0.8515 0.8510 0.8510
2745.560365 0.8510 0.8510 0.8510 0.8510 0.8510
2751.965498 0.8510 0.8510 0.8510 0.8510 0.8510
2758.370631 0.8510 0.8510 0.8505 0.8495 0.8490
2764.775765 0.8490 0.8495 0.8505 0.8510 0.8510
2771.180898 0.8510 0.8510 0.8510 0.8510 0.8510
2777.586031 0.8510 0.8505 0.8495 0.8490 0.8490
2783.991164 0.8490 0.8490 0.8490 0.8490 0.8490
2790.396298 0.8490 0.8490 0.8490 0.8490 0.8490
2796.801431 0.8488 0.8483 0.8475 0.8465 0.8460
2803.206564 0.8460 0.8455 0.8445 0.8435 0.8425
2809.611697 0.8418 0.8413 0.8405 0.8395 0.8390
2816.016831 0.8390 0.8390 0.8390 0.8390 0.8390
2822.421964 0.8390 0.8390 0.8385 0.8375 0.8370
2828.827097 0.8370 0.8370 0.8370 0.8370 0.8370
2835.232230 0.8370 0.8370 0.8362 0.8347 0.8330
2841.637363 0.8310 0.8292 0.8277 0.8270 0.8270
2848.042497 0.8265 0.8255 0.8250 0.8250 0.8245
2854.447630 0.8235 0.8225 0.8215 0.8194 0.8164
2860.852763 0.8140 0.8120 0.8084 0.8034 0.7992
2867.257896 0.7957 0.7887 0.7786 0.7688 0.7593
2873.663030 0.7550 0.7550 0.7588 0.7658 0.7709
2880.068163 0.7744 0.7771 0.7791 0.7800 0.7800
2886.473296 0.7765 0.7700 0.7648 0.7609 0.7547
2892.878429 0.7467 0.7425 0.7414 0.7351 0.7246
2899.283563 0.7152 0.7067 0.6971 0.6866 0.6806
2905.688696 0.6781 0.6784 0.6809 0.6853 0.6913
2912.093829 0.6959 0.6994 0.7060 0.7150 0.7198
2918.498962 0.7213 0.7220 0.7220 0.7194 0.7149
2924.904096 0.7090 0.7020 0.6927 0.6817 0.6718
2931.309229 0.6628 0.6570 0.6535 0.6491 0.6441
2937.714362 0.6374 0.6294 0.6260 0.6260 0.6354
2944.119495 0.6519 0.6645 0.6741 0.6780 0.6780
2950.524629 0.6765 0.6740 0.6668 0.6563 0.6505
2956.929762 0.6480 0.6367 0.6192 0.6073 0.5993
2963.334895 0.5951 0.5936 0.5915 0.5890 0.5839
2969.740028 0.5769 0.5625 0.5427 0.5170 0.4875
2976.145162 0.4647 0.4462 0.4268 0.4068 0.3875
2982.550295 0.3685 0.3610 0.3610 0.3695 0.3835
2988.955428 0.3974 0.4114 0.4254 0.4394 0.4531
2995.360561 0.4666 0.4805 0.4947 0.5138 0.5358
3001.765695 0.5571 0.5781 0.6110 0.6510 0.6747
3008.170828 0.6887 0.7043 0.7208 0.7363 0.7513
3014.575961 0.7585 0.7610 0.7669 0.7749 0.7811
3020.981094 0.7861 0.7899 0.7929 0.7950 0.7965
3027.386228 0.7970 0.7970 0.7964 0.7954 0.7924
3033.791361 0.7884 0.7825 0.7755 0.7730 0.7730
3040.196494 0.7835 0.8000 0.8076 0.8101 0.8123
3046.601627 0.8143 0.8166 0.8191 0.8216 0.8241
3053.006761 0.8257 0.8267 0.8280 0.8295 0.8313
3059.411894 0.8333 0.8343 0.8348 0.8347 0.8342
3065.817027 0.8340 0.8340 0.8334 0.8324 0.8320
3072.222160 0.8320 0.8320 0.8320 0.8327 0.8337
3078.627294 0.8357 0.8382 0.8397 0.8407 0.8410
3085.032427 0.8410 0.8410 0.8410 0.8410 0.8410
3091.437560 0.8403 0.8393 0.8390 0.8390 0.8383
3097.842693 0.8373 0.8353 0.8328 0.8303 0.8278
3104.247826 0.8263 0.8253 0.8257 0.8267 0.8287
3110.652960 0.8312 0.8337 0.8362 0.8408 0.8463
3117.058093 0.8483 0.8488 0.8490 0.8490 0.8497
3123.463226 0.8507 0.8517 0.8527 0.8530 0.8530
3129.868359 0.8530 0.8530 0.8530 0.8530 0.8530
3136.273493 0.8530 0.8530 0.8530 0.8530 0.8530
3142.678626 0.8530 0.8530 0.8530 0.8530 0.8530
3149.083759 0.8530 0.8530 0.8530 0.8537 0.8547
3155.488892 0.8550 0.8550 0.8550 0.8550 0.8550
3161.894026 0.8550 0.8550 0.8550 0.8550 0.8550
3168.299159 0.8554 0.8559 0.8560 0.8560 0.8560
3174.704292 0.8560 0.8560 0.8560 0.8560 0.8560
3181.109425 0.8567 0.8577 0.8580 0.8580 0.8580
3187.514559 0.8580 0.8580 0.8580 0.8580 0.8580
3193.919692 0.8580 0.8580 0.8580 0.8580 0.8580
3200.324825 0.8580 0.8580 0.8580 0.8580 0.8580
3206.729958 0.8588 0.8598 0.8608 0.8618 0.8620
3213.135092 0.8620 0.8620 0.8620 0.8620 0.8620
3219.540225 0.8620 0.8620 0.8624 0.8629 0.8630
3225.945358 0.8630 0.8630 0.8630 0.8630 0.8630
3232.350491 0.8626 0.8621 0.8620 0.8620 0.8620
3238.755625 0.8620 0.8620 0.8620 0.8624 0.8629
3245.160758 0.8638 0.8648 0.8658 0.8668 0.8670
3251.565891 0.8670 0.8670 0.8670 0.8670 0.8670
3257.971024 0.8670 0.8670 0.8662 0.8652 0.8650
3264.376158 0.8650 0.8658 0.8668 0.8678 0.8688
3270.781291 0.8690 0.8690 0.8690 0.8690 0.8690
3277.186424 0.8690 0.8694 0.8699 0.8696 0.8691
3283.591557 0.8690 0.8690 0.8694 0.8699 0.8700
3289.996691 0.8700 0.8700 0.8700 0.8700 0.8700
3296.401824 0.8696 0.8691 0.8690 0.8690 0.8694
3302.806957 0.8699 0.8700 0.8700 0.8708 0.8718
3309.212090 0.8720 0.8720 0.8720 0.8720 0.8712
3315.617224 0.8702 0.8700 0.8700 0.8700 0.8700
3322.022357 0.8700 0.8700 0.8696 0.8691 0.8690
3328.427490 0.8690 0.8690 0.8690 0.8690 0.8690
3334.832623 0.8690 0.8690 0.8682 0.8672 0.8662
3341.237757 0.8652 0.8650 0.8650 0.8650 0.8650
3347.642890 0.8650 0.8650 0.8658 0.8668 0.8670
3354.048023 0.8670 0.8670 0.8670 0.8661 0.8651
3360.453156 0.8650 0.8650 0.8650 0.8650 0.8658
3366.858289 0.8668 0.8670 0.8670 0.8678 0.8688
3373.263423 0.8690 0.8690 0.8690 0.8690 0.8690
3379.668556 0.8690 0.8690 0.8690 0.8694 0.8699
3386.073689 0.8700 0.8700 0.8700 0.8700 0.8700
3392.478822 0.8700 0.8696 0.8691 0.8690 0.8690
3398.883956 0.8690 0.8690 0.8690 0.8690 0.8681
3405.289089 0.8671 0.8670 0.8670 0.8652 0.8632
3411.694222 0.8626 0.8621 0.8602 0.8582 0.8571
3418.099355 0.8561 0.8560 0.8560 0.8538 0.8513
3424.504489 0.8497 0.8482 0.8454 0.8424 0.8407
3430.909622 0.8392 0.8381 0.8371 0.8370 0.8370
3437.314755 0.8379 0.8389 0.8399 0.8409 0.8423
3443.719888 0.8438 0.8458 0.8478 0.8493 0.8508
3450.125022 0.8519 0.8529 0.8561 0.8596 0.8613
3456.530155 0.8628 0.8639 0.8649 0.8659 0.8669
3462.935288 0.8670 0.8670 0.8670 0.8670 0.8670
3469.340421 0.8670 0.8684 0.8699 0.8709 0.8719
3475.745555 0.8720 0.8720 0.8720 0.8720 0.8720
3482.150688 0.8720 0.8720 0.8720 0.8720 0.8720
3488.555821 0.8720 0.8720 0.8720 0.8720 0.8729
3494.960954 0.8739 0.8740 0.8740 0.8740 0.8740
3501.366088 0.8740 0.8740 0.8731 0.8721 0.8720
3507.771221 0.8720 0.8720 0.8720 0.8720 0.8720
3514.176354 0.8720 0.8720 0.8720 0.8720 0.8729
3520.581487 0.8739 0.8740 0.8740 0.8740 0.8740
3526.986621 0.8740 0.8740 0.8740 0.8740 0.8731
3533.391754 0.8721 0.8720 0.8720 0.8720 0.8720
3539.796887 0.8720 0.8720 0.8730 0.8740 0.8740
3546.202020 0.8740 0.8740 0.8740 0.8740 0.8740
3552.607154 0.8740 0.8740 0.8740 0.8740 0.8740
3559.012287 0.8740 0.8750 0.8760 0.8765 0.8770
3565.417420 0.8770 0.8770 0.8765 0.8760 0.8760
3571.822553 0.8760 0.8765 0.8770 0.8789 0.8809
3578.227687 0.8820 0.8830 0.8864 0.8899 0.8900
3584.632820 0.8900 0.8856 0.8810 0.8800 0.8790
3591.037953 0.8790 0.8790 0.8790 0.8790 0.8790
3597.443086 0.8790 0.8800 0.8810 0.8810 0.8810
3603.848220 0.8810 0.8810 0.8820 0.8830 0.8830
3610.253353 0.8830 0.8835 0.8840 0.8835 0.8830
3616.658486 0.8830 0.8830 0.8830 0.8830 0.8865
3623.063619 0.8900 0.8900 0.8900 0.8870 0.8840
3629.468752 0.8825 0.8810 0.8800 0.8790 0.8790
3635.873886 0.8790 0.8810 0.8830 0.8830 0.8831
3642.279019 0.8866 0.8900 0.8900 0.8899 0.8869
3648.684152 0.8840 0.8835 0.8830 0.8820 0.8810
3655.089285 0.8810 0.8810 0.8800 0.8790 0.8800
3661.494419 0.8810 0.8825 0.8840 0.8850 0.8861
3667.899552 0.8881 0.8900 0.8900 0.8899 0.8869
3674.304685 0.8840 0.8835 0.8830 0.8820 0.8810
3680.709818 0.8810 0.8810 0.8800 0.8790 0.8790
3687.114952 0.8790 0.8790 0.8790 0.8790 0.8790
3693.520085 0.8790 0.8791 0.8801 0.8811 0.8821
3699.925218 0.8830 0.8835 0.8840 0.8840 0.8840
3706.330351 0.8840 0.8840 0.8840 0.8840 0.8840
3712.735485 0.8840 0.8840 0.8841 0.8851 0.8861
3719.140618 0.8871 0.8881 0.8891 0.8900 0.8905
3725.545751 0.8910 0.8910 0.8911 0.8921 0.8930
3731.950884 0.8930 0.8931 0.8941 0.8950 0.8950
3738.356018 0.8950 0.8950 0.8949 0.8939 0.8930
3744.761151 0.8930 0.8929 0.8919 0.8910 0.8905
3751.166284 0.8898 0.8878 0.8860 0.8860 0.8860
3757.571417 0.8860 0.8860 0.8860 0.8860 0.8860
3763.976551 0.8859 0.8849 0.8840 0.8840 0.8839
3770.381684 0.8834 0.8830 0.8830 0.8830 0.8830
3776.786817 0.8830 0.8830 0.8831 0.8836 0.8840
3783.191950 0.8840 0.8841 0.8851 0.8861 0.8871
3789.597084 0.8880 0.8880
##END=
