##TITLE=Ethyl Acrylate
##JCAMP-DX=4.24
##DATA TYPE=INFRARED SPECTRUM
##CLASS=IUPAC A
##ORIGIN=NIST, Anayltical Chemistry Division, 301-975-3108
##OWNER=COPYRIGHT (C) 1998 by the U.S. Secretary of Commerce
##DATE=98/10/1
##$SPECTRA VERSION=1.00
##$UNCERTAINTY IN Y=2.0 % relative (B=1.0E-04,C=3.0E-10,D=2.7E-14)
##CAS NAME=Ethyl Ester-Propenoic Acid
##CAS REGISTRY NO=140-88-5
##MOLFORM=C H2: C H C O2 C2 H5
##MP=-71.2 C
##BP=99.8 C
##$NIST SOURCE=QUANT-IR
##SPECTROMETER/DATA SYSTEM=IFS66V (Bruker)
##INSTRUMENT PARAMETERS=KBr Beam splitter; MCT Detector; Multipass cell
##STATE=gas
##SAMPLE DESCRIPTION=Ethyl Acrylate Primary Gas Standard
##PRESSURE=101.3 kPa
##TEMPERATURE=23 C
##SAMPLING PROCEDURE=1 L/min Flow
##RESOLUTION=0.9640
##DATA PROCESSING=Triangular Apodization
##XUNITS=cm-1
##YUNITS=(micromol/mol)-1m-1 (base 10)
##XFACTOR=1.0
##YFACTOR=18.189E-13
##DELTAX=0.4820
##FIRSTX=575.169
##LASTX=3975.077
##FIRSTY=5.27E-07
##MAXX=3974.59
##MINX=575.17
##MAXY=.0020571
##MINY=-4.83E-07
##NPOINTS=7053
##XYDATA=(X++(Y..Y))
575.17 290026 275112 414224 492300 497086 445376
577.58 465516 532952 486384 359754 309250 407690
580.47 357974 373172 369768 277962 361024 527818
583.37 427836 370962 403990 310834 403446 336488
586.26 221918 297596 423494 490848 461642 370564
589.15 471742 621778 571738 593334 759614 754256
592.04 643014 711584 704396 684612 692920 717448
594.94 853464 972108 1029474 1011556 1082484 1333402
597.83 1511640 1581724 1706138 1746366 1781130 1977714
600.72 2222466 2464630 2617026 2725590 2812906 2873806
603.61 2988396 3122384 3148434 3192060 3289324 3212680
606.51 3146946 3138408 3179026 3345604 3647314 4046318
609.40 4540154 4853996 4417400 3906160 3776462 3832530
612.29 3968860 4101192 4239806 4388290 4527830 4583474
615.18 4575050 4570750 4600858 4465430 4316568 4248394
618.08 4076864 3890928 3750664 3625788 3478212 3318904
620.97 3203348 3116538 3029062 2946084 2891876 2779188
623.86 2642090 2586186 2509856 2447458 2429396 2364128
626.76 2306170 2312910 2270564 2262674 2237726 2116514
629.65 2026444 1933764 1886658 1820554 1695342 1628230
632.54 1617974 1620546 1630516 1601562 1573280 1619796
635.43 1627782 1644246 1721106 1803294 1837682 1919838
638.33 2037194 2084372 2215306 2345064 2394106 2443652
641.22 2577688 2730918 2837622 2973856 3087280 3238728
644.11 3414226 3538162 3744512 3975536 4239486 4472420
647.00 4625608 4894506 5160512 5355834 5628526 5912438
649.90 6205714 6478048 6712446 7055956 7415852 7733798
652.79 8055062 8339378 8611108 8874956 9143740 9406866
655.68 9675114 9894564 10162070 10330620 10347980 10438230
658.58 10555280 10753020 10895300 10999980 11071020 11122710
661.47 11285740 11431450 11537470 11650390 11714990 11755190
664.36 11828000 11943000 12010780 12040800 12048920 12035390
667.25 12004980 11875080 11723870 11585160 11381010 11097570
670.15 10840440 10592460 10295800 9976248 9667632 9359016
673.04 8982468 8617964 8335678 8055174 7703608 7406458
675.93 7205794 6998960 6836524 6671380 6516502 6429364
678.82 6295422 6077176 5883010 5715806 5500572 5239342
681.72 4980370 4697742 4398790 4127922 3868298 3578494
684.61 3349560 3201500 2968530 2752198 2561130 2381792
687.50 2262714 2092492 1955530 1835714 1763044 1716630
690.40 1594618 1506854 1413138 1322472 1237870 1176328
693.29 1157982 1117780 1034438 945686 899232 868994
696.18 859590 844212 793898 753988 708040 660148
699.07 676930 680882 649794 615802 594136 577152
701.97 562388 563696 567204 578184 548056 518376
704.86 489922 505398 521114 501862 502296 497230
707.75 501846 505912 490552 474898 471550 471932
710.64 476442 497882 528384 577476 549746 475518
713.54 517394 567922 546482 541358 587256 622042
716.43 594754 548896 548222 560126 549552 546394
719.32 568718 589080 598630 599250 610630 633578
722.22 625128 625656 633314 629084 640424 646182
725.11 648772 639394 600612 625006 663824 656138
728.00 681344 687184 750534 794726 782910 765134
730.89 757666 768912 768458 767262 754194 771108
733.79 802392 819616 834570 858326 866654 857414
736.68 870928 909210 904672 891198 883208 880348
739.57 916674 952390 960596 977954 991962 998716
742.46 984064 994644 1047166 1063846 1056250 1083192
745.36 1109982 1095432 1094940 1117526 1137600 1154368
748.25 1180260 1215998 1253420 1261836 1257136 1284702
751.14 1295262 1269354 1300134 1328142 1354368 1413628
754.04 1413342 1410714 1457952 1487246 1478988 1497108
756.93 1527720 1554808 1596174 1624638 1635854 1671166
759.82 1721902 1774346 1802946 1799558 1843440 1911634
762.71 1926690 1973340 2048054 2096982 2168906 2244662
765.61 2316708 2382988 2468526 2596620 2706470 2773452
768.50 2857270 2996648 3145726 3277714 3407184 3537162
771.39 3701352 3869218 4058950 4291796 4481958 4683748
774.28 4946420 5171170 5424048 5706300 5993466 6301988
777.18 6621834 6949742 7281682 7657224 8038922 8429862
780.07 8850292 9265752 9666606 10137400 10636120 11125940
782.96 11599410 12039560 12532330 13073630 13667660 14293670
785.86 14942390 15731120 16614040 17496420 18354930 19230160
788.75 20137110 20996510 21828090 22718410 23655810 24625050
791.64 25643270 26682230 27651010 28526300 29518370 30639810
794.53 31832360 33037730 34233990 35431680 36577780 37752120
797.43 38953720 40157480 41410280 42679370 43850400 44957440
800.32 46190650 47603650 49123160 50756350 52558380 54408980
803.21 56159600 57761920 59833970 61249620 61241360 61136780
806.10 61316440 61843900 62461350 63047940 63845670 64912980
809.00 66123460 67500230 69232160 70974260 72268820 73171100
811.89 73510750 73086490 71941260 70979630 70489870 69323480
814.78 67928580 66779100 65262810 63680210 62513450 61901700
817.68 61140460 59464880 57520880 56298900 55395820 54176070
820.57 52496870 50495350 48532600 46766260 45374220 44076450
823.46 42758960 41503920 40210800 38927750 37659050 36372760
826.35 35080760 33780560 32481290 31192190 29929050 28694190
829.25 27505580 26317930 25098420 23969050 22928820 21908100
832.14 20912090 19949520 19090890 18246340 17438360 16719790
835.03 16038110 15457420 14887300 14363230 13944630 13541880
837.92 13174750 12881610 12628470 12450920 12330590 12243450
840.82 12184720 12183790 12280240 12371330 12488180 12661830
843.71 12849060 13116980 13415280 13710200 14067370 14436940
846.60 14846040 15288540 15730500 16189910 16668100 17150570
849.50 17634500 18110550 18590130 19095610 19601640 20076190
852.39 20494820 20883970 21274510 21672170 22026190 22339690
855.28 22658530 22902800 22995920 22986140 22966610 22977290
858.17 22994490 23026410 23150750 23332250 23469550 23516470
861.07 23482320 23444330 23434210 23419620 23348720 23236430
863.96 23051890 22834460 22574060 22220490 21867940 21478980
866.85 21047650 20602280 20122830 19638350 19155010 18658480
869.74 18202130 17733940 17243750 16769980 16297110 15833410
872.64 15331580 14810320 14284020 13755600 13258440 12761700
875.53 12264580 11778970 11317940 10897040 10486460 10101510
878.42 9740440 9387730 9072448 8782322 8499716 8234914
881.31 8003166 7837036 7691652 7535428 7418152 7309084
884.21 7212112 7167458 7148916 7119886 7088032 7114760
887.10 7218192 7316822 7400052 7541680 7720674 7900342
889.99 8120250 8356520 8598106 8865782 9134184 9427968
892.89 9703046 9944452 10194310 10426980 10640090 10819330
895.78 10959860 11102870 11215670 11306220 11405460 11513960
898.67 11679180 11810270 11899240 12013160 12089720 12150010
901.56 12250120 12363820 12500870 12649490 12785730 12908020
904.46 13029280 13153760 13280750 13418140 13535510 13631470
907.35 13727520 13824000 13905970 13980140 14003880 14047190
910.24 14098570 14114800 14134870 14122070 14082100 14018060
913.13 13914560 13772620 13588310 13382240 13160150 12886380
916.03 12611730 12353250 12085220 11862730 11701270 11619060
918.92 11582240 11547640 11466660 11296730 11160500 11116190
921.81 11126660 11177950 11222040 11217600 11157160 11037390
924.71 10869020 10645380 10356190 10032820 9709974 9389170
927.60 9083144 8796950 8511060 8255382 8020982 7818352
930.49 7676082 7554900 7463496 7414498 7402504 7407114
933.38 7446466 7524404 7602294 7703872 7836280 7986282
936.28 8190834 8430768 8700124 8991432 9303770 9658230
939.17 10043830 10482630 10975470 11532690 12111070 12717110
942.06 13402590 14144830 14921910 15748320 16636310 17574260
944.95 18556780 19583190 20673900 21802430 22951690 24174220
947.85 25443450 26741020 28056040 29382390 30765640 32168790
950.74 33558520 34978540 36438060 37893530 39326140 40734980
953.63 42105310 43412500 44700820 46038030 47414020 48830280
956.53 50284310 51796530 53404340 55099200 57011590 59286020
959.42 62183140 66011110 71188220 77930860 85867960 93130870
962.31 96866980 93860580 84582330 76592780 74531920 76459160
965.20 80206050 85137860 90691660 95706310 98174230 96051930
968.10 89482020 82898980 80399700 80466810 81202250 82220030
970.99 83232950 84210700 85114830 85961240 86724160 87423330
973.88 88078540 88665280 89117980 89506500 89827590 90053780
976.77 90216280 90319000 90368140 90374090 90352820 90289010
979.67 90163600 89958580 89754600 89528390 89299250 89195660
982.56 89262900 89649990 90462390 91843340 94117230 97817860
985.45 103424200 110513900 116510700 116728100 109816800 98640030
988.35 89410940 85868400 85255460 85534540 86205260 86729820
991.24 86564220 85253790 82109600 77773610 73625920 70347190
994.13 68201700 66571300 65086950 63668080 62171500 60613870
997.02 59017760 57378720 55746400 54129640 52495370 50848570
999.92 49203320 47542760 45887970 44255720 42647750 41063380
1002.81 39483670 37950770 36470120 35028280 33607370 32237230
1005.70 30934810 29684080 28521060 27443160 26442050 25533800
1008.59 24708220 23963520 23320500 22748930 22235920 21844370
1011.49 21502280 21228600 21081450 20959260 20915770 20996950
1014.38 21168500 21449660 21827920 22316420 22921440 23633600
1017.27 24430610 25346990 26396960 27580020 28906690 30344520
1020.17 31945030 33713530 35605540 37648080 39854580 42195690
1023.06 44693640 47337850 50078470 52991560 56024790 59099580
1025.95 62254640 65465240 68688740 71902510 75096300 78243730
1028.84 81311640 84289580 87059830 89669660 92047260 94146730
1031.74 96103300 97801980 99366830 100925300 102520100 104266400
1034.63 106000600 107266100 107699500 107817600 108381100 109435000
1037.52 110851900 112532000 114278300 115814100 116785900 117070200
1040.41 116628800 115596000 114335200 113261700 112230400 110778100
1043.31 108904900 106107000 102869400 100091700 97635810 95379580
1046.20 93384440 91522140 89732060 88035580 86414830 84973160
1049.09 83778610 82828980 82118300 81733460 81708190 82089760
1051.99 82833190 83961660 85515640 87444580 89774860 92507590
1054.88 95560430 98980540 102761600 106818200 111116000 115645100
1057.77 120392000 125230800 130015700 134678900 139238400 143537700
1060.66 147418100 150984600 154262000 157146100 159610900 161583200
1063.56 163280100 164758300 166056100 167415200 168926600 170705200
1066.45 172975800 175720700 178467700 180768700 182419000 183292400
1069.34 183940800 183628400 181091000 178552900 177655000 177827900
1072.23 178404100 178748300 178493500 177303000 175138700 172029700
1075.13 167865300 162673000 156959800 150786800 143940700 136904500
1078.02 130199400 123928100 117688400 111750500 106364900 101342300
1080.91 96643700 92314460 88386980 84795460 81511370 78468590
1083.81 75775200 73297620 70908010 68714140 66773580 65048810
1086.70 63496940 62199200 61174950 60373510 59780800 59365380
1089.59 59127340 59056390 59146680 59391490 59763110 60159920
1092.48 60597390 61092880 61537890 61945070 62299210 62507580
1095.38 62626540 62627970 62532970 62414010 62280460 62192750
1098.27 62162160 62219580 62373010 62576220 62644050 62502390
1101.16 62171800 61551140 60994060 60751640 60549560 60247910
1104.05 59881860 59502190 59147980 58827300 58437040 57928570
1106.95 57300870 56540680 55611840 54497850 53331400 52106240
1109.84 50745920 49333620 47924210 46479940 45046130 43675660
1112.73 42333680 41006670 39721590 38511400 37361440 36268680
1115.63 35229740 34230720 33279140 32398440 31577750 30786500
1118.52 30076210 29444900 28782190 28133920 27581200 27173890
1121.41 26943410 26793530 26657780 26553020 26431790 26259230
1124.30 26063050 25821800 25496110 25094820 24630680 24131660
1127.20 23613320 23086200 22571100 22045500 21535830 21049030
1130.09 20580910 20146520 19768090 19433190 19138680 18876980
1132.98 18631400 18409080 18204840 18056190 17949930 17856450
1135.87 17784770 17736070 17714810 17723690 17734480 17769550
1138.77 17839840 17913500 18003930 18114900 18224530 18337220
1141.66 18480910 18655870 18829410 19012520 19222540 19439580
1144.55 19660820 19875170 20124820 20388730 20636960 20914600
1147.45 21222920 21540320 21888170 22278090 22705710 23146540
1150.34 23617800 24139140 24680410 25276280 25921910 26585680
1153.23 27324090 28106420 28894490 29740670 30650150 31596050
1156.12 32606290 33685700 34826050 36027720 37282000 38642350
1159.02 40138820 41731310 43359290 45103470 46822200 48456460
1161.91 50373950 52627480 55102400 57823640 60750200 63832590
1164.80 67064280 70480810 74092440 77897980 81934000 86198380
1167.69 90588260 94976160 99410320 103866900 108235100 112614900
1170.59 117044500 121521800 126162600 131010000 136180000 141764000
1173.48 147822500 154482500 161787200 169805100 178139400 186533700
1176.37 195837600 206536800 218462800 231458500 245602900 261239500
1179.26 278484000 297227900 317353600 339034700 362574500 387969200
1182.16 415243500 444289700 475229700 508050000 542588500 578712200
1185.05 616095400 655006100 694854300 734936300 774948200 814372800
1187.94 852724500 889341900 923643300 954931600 982734700 1006792000
1190.84 1026844000 1043347000 1056541000 1066951000 1075217000 1081947000
1193.73 1088010000 1093542000 1099400000 1105790000 1112526000 1119903000
1196.62 1127184000 1129945000 1122964000 1115598000 1116537000 1122056000
1199.51 1128246000 1130954000 1128478000 1119479000 1102026000 1075775000
1202.41 1040813000 998105900 949074300 895269500 839326800 783611300
1205.30 729178700 676330600 626414500 580473700 538013800 499409900
1208.19 465036400 434066000 405693100 379810700 356645200 335919400
1211.08 316964400 299557300 283478600 268159400 253280300 238869600
1213.98 225029900 211842400 199270200 187477400 176576800 166354200
1216.87 156470100 147147700 138751600 131222900 124405400 117942400
1219.76 111976400 106742600 102126200 97923370 93978700 90288420
1222.66 86883490 83769380 80827660 78008140 75394460 72965070
1225.55 70711940 68603580 66621480 64821240 63136850 61555860
1228.44 60090230 58722920 57463320 56317400 55275530 54325910
1231.33 53439580 52644740 51958520 51324690 50772310 50329900
1234.23 49917720 49531910 49207720 48916000 48544960 48108690
1237.12 47754580 47479690 47268370 47073700 46869460 46650360
1240.01 46376880 46074510 45768080 45467590 45185070 44957600
1242.90 44790140 44667240 44569250 44517920 44594600 44750480
1245.80 44888430 45073480 45395560 45859360 46471980 47211400
1248.69 48041870 49024110 50175520 51480170 52996890 54730160
1251.58 56700610 58957710 61506580 64410400 67683870 71351060
1254.48 75489290 80072940 85161430 90811130 96991010 103669500
1257.37 110925300 118745900 127080900 135936200 145226100 154872200
1260.26 164837600 175005000 185297100 195652300 205967200 216103100
1263.15 225932000 235587800 244982600 253976500 262635200 271074800
1266.05 279350700 287518800 295620100 303777200 312130200 320392300
1268.94 328338800 335873200 342526900 347993500 352432900 355597200
1271.83 357597100 358928900 359826200 360755600 361764000 362427900
1274.72 362562800 362151500 361428000 360298400 358025300 354651200
1277.62 350674300 345792000 339509400 331160400 319392000 304482600
1280.51 289464500 276906300 267434000 261222800 256958200 254159800
1283.40 249866400 241361300 232604600 225176800 217987000 211077100
1286.30 204514400 198494600 193183700 188828300 185676300 183828700
1289.19 183304600 184165700 186338600 189590500 193799000 198770400
1292.08 204181500 209803200 215307200 220406200 224726400 227947700
1294.97 229892300 230501900 230121400 228828900 226645500 223795200
1297.87 221075800 220147400 222450500 229116200 239329200 249121900
1300.76 246152300 232745300 227171400 230229300 235777600 241327100
1303.65 245312600 247100000 246363400 243112100 237373600 229442800
1306.54 219451900 207503900 194410800 181360000 168942600 157391900
1309.44 146651800 136879600 128038600 119963200 112688200 106121300
1312.33 100137100 94667990 89645540 85007810 80697820 76617410
1315.22 72733570 69055150 65591820 62362410 59302830 56398300
1318.12 53619170 50974870 48468520 46060210 43781670 41679510
1321.01 39705780 37851700 36109310 34463860 32928230 31486540
1323.90 30098750 28725450 27409710 26181230 25040640 23965090
1326.79 22929750 21964380 21043100 20159720 19309440 18489220
1329.69 17727710 16985000 16269400 15604800 14973070 14382330
1332.58 13821430 13300040 12838170 12398420 11962350 11581060
1335.47 11251070 10941740 10665230 10423520 10194580 9986752
1338.36 9804326 9619820 9448844 9327264 9211650 9088212
1341.26 8997074 8927506 8855468 8770752 8699084 8652442
1344.15 8606424 8559354 8528908 8490130 8451834 8432508
1347.04 8420978 8412126 8411842 8428504 8455384 8482192
1349.94 8521518 8575218 8638264 8730730 8831114 8959676
1352.83 9106480 9253904 9435194 9656602 9901840 10173670
1355.72 10485580 10825290 11189050 11580100 12024730 12512440
1358.61 13018720 13559550 14122820 14681440 15237210 15814640
1361.51 16380330 16901040 17357380 17776960 18138860 18402920
1364.40 18621820 18820190 19023960 19266190 19601470 20106130
1367.29 20833690 21613130 22140660 22527290 22997970 23541930
1370.18 23943520 24139690 24388680 24862740 25528970 26296340
1373.08 27131930 28018660 28901210 29783250 30690670 31579110
1375.97 32486890 33439000 34404810 35426920 36562260 37795470
1378.86 39155740 40653630 42300930 44111400 46051750 48144920
1381.76 50379110 52699920 55045700 57427240 59798140 62045770
1384.65 64210720 66302610 68198380 69849970 71354430 72757730
1387.54 74069070 75333730 76616280 78060150 79653300 81208580
1390.43 82588880 83682900 84791170 86390220 88870820 91318780
1393.33 93484390 96570040 100497900 104946000 109706100 114564200
1396.22 119409500 124221900 129031600 133936000 138984400 144229300
1399.11 149810900 155809200 162253300 169044100 176100700 183475000
1402.00 190943600 198399600 205744700 212588500 218649800 223873700
1404.90 228228400 231603400 233982400 235497900 236399300 237061400
1407.79 237568600 238653300 241146400 246556100 250708100 247468300
1410.68 242051800 239141600 237894200 237599400 237771800 237995900
1413.58 237955000 237337800 235628800 233019000 228976400 223204100
1416.47 216729700 209946600 202824600 195284900 187172400 178509800
1419.36 169409400 159909100 150040000 140072300 130091400 120213400
1422.25 110603500 101469100 92891940 84840600 77465740 70806990
1425.15 64805290 59443650 54709190 50564760 46958440 43875890
1428.04 41216610 38942440 37030480 35390510 33973650 32764660
1430.93 31736010 30857000 30116070 29476490 28942930 28510780
1433.82 28150040 27859430 27648790 27502830 27396430 27359310
1436.72 27399340 27456220 27528050 27663020 27821380 28001590
1439.61 28214660 28435430 28681300 28942200 29224740 29543100
1442.50 29844270 30138010 30441230 30731450 31010090 31286240
1445.40 31569630 31861480 32150200 32434510 32702380 32978830
1448.29 33317420 33704720 34122150 34631150 35241140 35919860
1451.18 36584790 37254020 37785720 38090830 38290440 38322380
1454.07 38237940 38104280 38002890 38013480 38109560 38257060
1456.97 38441550 38647470 38845200 39080410 39369890 39560540
1459.86 39609360 39665000 39798370 40028300 40373490 40874310
1462.75 41469970 42090900 42581860 42739930 42789400 42941100
1465.64 43143080 43351320 43501620 43557010 43516660 43416430
1468.54 43310820 43235140 43277150 43523780 43881610 44326560
1471.43 44283040 43335670 42252080 41485720 40987920 40706050
1474.32 40555220 40462710 40339800 40166080 39942260 39656430
1477.21 39280270 38797680 38252070 37653330 36971480 36217130
1480.11 35410350 34553790 33651830 32687400 31660950 30576390
1483.00 29439170 28266280 27074970 25909040 24815570 23841930
1485.89 23026240 22403810 21982830 21748370 21653740 21628610
1488.79 21611000 21551950 21447070 21270260 20991860 20638290
1491.68 20243410 19817070 19356260 18866970 18369590 17860730
1494.57 17366330 16886870 16392590 15907560 15446710 15011610
1497.46 14591780 14193910 13823350 13462000 13129570 12827820
1500.36 12528270 12235350 11964770 11718590 11479180 11239010
1503.25 11014210 10785300 10565030 10384760 10201800 9992848
1506.14 9812852 9647348 9464456 9298518 9158404 9026752
1509.03 8891990 8767970 8651940 8537648 8429328 8338994
1511.93 8261852 8165972 8059260 7975072 7897722 7824180
1514.82 7747642 7655824 7567468 7483972 7404260 7305886
1517.71 7210482 7123122 7025636 6948884 6864308 6762582
1520.61 6687920 6615738 6528322 6426832 6336784 6265352
1523.50 6177810 6091148 6007354 5931898 5843094 5737238
1526.39 5649552 5567546 5479676 5389474 5299382 5207884
1529.28 5113358 5023424 4937588 4869100 4801018 4725426
1532.18 4652084 4580654 4531384 4468702 4398604 4351350
1535.07 4303484 4255094 4206226 4155488 4116716 4086628
1537.96 4059586 4041008 3998794 3966576 3943056 3899956
1540.85 3859084 3848540 3843856 3814344 3799536 3782260
1543.75 3767940 3767720 3754388 3745048 3755772 3759700
1546.64 3762072 3769802 3776806 3769156 3779202 3804616
1549.53 3818770 3828146 3843704 3877846 3915826 3935112
1552.43 3956620 3994212 4032214 4081432 4114900 4143360
1555.32 4180578 4224524 4276904 4330304 4370100 4413662
1558.21 4461250 4493182 4516998 4542106 4557702 4564942
1561.10 4579356 4597714 4617272 4628486 4651974 4681402
1564.00 4717236 4759720 4784450 4808944 4824656 4837534
1566.89 4857680 4869740 4883322 4904014 4918188 4917910
1569.78 4901762 4877744 4856934 4830602 4801544 4782840
1572.67 4753646 4714606 4683792 4650226 4624434 4623962
1575.57 4627672 4606716 4590532 4588872 4583740 4583214
1578.46 4586566 4593598 4603612 4612944 4622146 4641224
1581.35 4664868 4670858 4675998 4688086 4715166 4742074
1584.25 4754642 4774442 4792782 4810478 4826400 4840950
1587.14 4867294 4891914 4918112 4940072 4961082 4998148
1590.03 5042854 5087518 5133968 5182644 5213326 5252584
1592.92 5312364 5375498 5439962 5510006 5599494 5680036
1595.82 5757920 5861736 5975410 6090434 6212740 6336358
1598.71 6465880 6591824 6733878 6890554 7060128 7249848
1601.60 7433682 7628446 7861732 8110278 8351466 8616652
1604.49 8919168 9237174 9577012 9942318 10313370 10703140
1607.39 11128660 11575010 12028390 12512180 13011030 13507310
1610.28 14033430 14589240 15157690 15743050 16362470 17004210
1613.17 17652080 18342360 19057560 19765300 20449640 21146690
1616.07 21867680 22546360 23225530 23917820 24577040 25189690
1618.96 25763400 26300600 26762320 27139920 27431350 27639010
1621.85 27810790 27964510 28122760 28334530 28621910 29042040
1624.74 29602610 30284890 31054080 31870250 32740740 33640550
1627.64 34548970 35462730 36406960 37416710 38496540 39627590
1630.53 40861740 42249400 43746560 45328260 47026600 48851650
1633.42 50779500 52777580 54736660 56564610 58199960 59566840
1636.31 60562510 61124330 61211870 60874740 60154750 59144180
1639.21 58054140 57076360 56454200 56361080 56667780 56713070
1642.10 55434800 53051780 51215720 50770340 51545980 52845220
1644.99 53749790 54006140 54406420 55301840 56113420 56358780
1647.89 55866280 54585460 52535830 49845600 46665130 43163000
1650.78 39467700 35742190 32094960 28640270 25461590 22576520
1653.67 20023810 17821380 15936130 14354910 13037380 11948460
1656.56 11078590 10390400 9817886 9324254 8933514 8605070
1659.46 8317622 8084798 7878106 7675820 7495002 7339560
1662.35 7215032 7094622 6973956 6879802 6793854 6709110
1665.24 6633990 6571164 6505322 6453866 6432314 6402484
1668.13 6368708 6353542 6340450 6329406 6325612 6336896
1671.03 6353948 6372892 6388142 6404778 6446520 6499272
1673.92 6542100 6595272 6656476 6698926 6752686 6818050
1676.81 6883308 6957736 7030592 7090820 7143278 7185686
1679.71 7223502 7264990 7314278 7366880 7424122 7497432
1682.60 7570444 7637532 7720702 7826518 7921978 8016016
1685.49 8122796 8225970 8351794 8493306 8618408 8750476
1688.38 8889000 9032170 9186548 9339378 9488838 9637708
1691.28 9798498 9976818 10156290 10335450 10516570 10709710
1694.17 10923910 11152560 11401480 11658160 11916960 12182540
1697.06 12459970 12755790 13058340 13372300 13693460 14002410
1699.95 14301480 14592560 14873430 15136740 15375040 15588240
1702.85 15751910 15871830 15962300 16014910 16050490 16084420
1705.74 16142300 16269590 16496380 16859640 17392150 18060840
1708.63 18832270 19667970 20514300 21338650 22124440 22875460
1711.53 23574490 24250760 24926780 25617860 26352020 27137680
1714.42 28000600 28913770 29895630 30988550 32195900 33534050
1717.31 35017180 36645100 38436660 40419180 42609900 45033850
1720.20 47674350 50543470 53644130 56997470 60619390 64485970
1723.10 68642660 73123130 77903480 83006340 88448650 94244630
1725.99 100459400 107069600 114067900 121481000 129351400 137742500
1728.88 146600200 155962400 165840600 176214900 187184400 198768400
1731.77 210954900 223706800 237018800 251041800 265738800 281167600
1734.67 297383200 314156900 331565500 349617900 368301200 387539200
1737.56 407162200 427276800 447591800 467754000 487820100 507373200
1740.45 526140800 543689500 559430500 573239400 584450500 592609500
1743.34 597326700 598545700 596315500 590659300 582433500 572727200
1746.24 562786800 553911400 547520600 544317600 544286500 547296400
1749.13 552621100 559570100 568351200 578772500 590093000 601733300
1752.02 612643200 621398300 626586600 627200200 622859300 613961000
1754.92 601209200 585031700 566256800 545742000 524115900 501933500
1757.81 479253400 456382500 433766200 411722000 390388900 369778400
1760.70 349882800 330790000 312763800 295614000 279204800 263590400
1763.59 248705000 234473900 220875700 207886200 195481500 183623700
1766.49 172329500 161577900 151243400 141428300 132155000 123342100
1769.38 115030600 107199600 99791530 92836500 86311940 80206580
1772.27 74552200 69310940 64391780 59819660 55637340 51784680
1775.16 48221070 44945080 41953070 39227000 36735510 34445330
1778.06 32343130 30445070 28706700 27110700 25662460 24337030
1780.95 23157380 22075160 21083180 20194880 19376420 18623900
1783.84 17954150 17339760 16757660 16228500 15731360 15280230
1786.74 14889710 14528910 14189300 13862260 13557020 13282240
1789.63 13017610 12766170 12553990 12341490 12124570 11933680
1792.52 11743370 11535180 11330640 11137370 10948740 10771420
1795.41 10600700 10425030 10246970 10093080 9942724 9781602
1798.31 9632362 9510744 9392782 9290702 9205096 9096700
1801.20 8994346 8917396 8849028 8763514 8685068 8622234
1804.09 8540576 8454896 8365662 8280016 8198114 8104710
1806.98 8007828 7913596 7821870 7734112 7646126 7552156
1809.88 7460462 7379370 7300804 7219858 7132714 7059858
1812.77 6986272 6908374 6845544 6788090 6738022 6684950
1815.66 6632936 6595066 6559402 6520058 6490482 6469482
1818.56 6451540 6433386 6423516 6426496 6430372 6428554
1821.45 6426262 6409398 6372166 6337700 6308820 6286304
1824.34 6257116 6223950 6193516 6169564 6149754 6129158
1827.23 6114050 6085580 6051890 6023402 5991872 5956464
1830.13 5916596 5873370 5826454 5787552 5757084 5699990
1833.02 5635374 5583954 5522146 5461814 5404750 5343490
1835.91 5277720 5216258 5174314 5124634 5079672 5045656
1838.80 5000048 4962602 4917000 4863906 4821112 4765916
1841.70 4691354 4612044 4536908 4461232 4388284 4316578
1844.59 4249754 4178532 4112278 4054760 3988506 3917974
1847.48 3848400 3797820 3740040 3677460 3620480 3551058
1850.38 3495838 3454242 3399662 3347410 3294706 3234534
1853.27 3182782 3132982 3097736 3062716 3015218 2985888
1856.16 2961394 2929874 2895736 2861564 2827506 2788072
1859.05 2762266 2740024 2713254 2687082 2656256 2626338
1861.95 2607646 2588308 2564612 2542824 2523072 2498732
1864.84 2476206 2473856 2460994 2449468 2446710 2446914
1867.73 2446094 2445778 2451778 2456388 2474304 2489308
1870.62 2495798 2509162 2524364 2550310 2589824 2626718
1873.52 2667688 2702198 2732406 2779060 2829396 2885006
1876.41 2940554 2994676 3056212 3110434 3177368 3242816
1879.30 3304070 3374262 3438230 3498516 3558314 3629478
1882.20 3706340 3772888 3829448 3885980 3950348 4011972
1885.09 4072162 4138024 4191960 4237400 4292314 4348492
1887.98 4395426 4430492 4461170 4489038 4507756 4528160
1890.87 4547682 4567650 4594152 4612764 4641926 4665376
1893.77 4671716 4678160 4683518 4704910 4726814 4730576
1896.66 4734484 4743336 4741524 4730644 4725666 4724708
1899.55 4710972 4694416 4677904 4659168 4638410 4627440
1902.44 4621066 4612918 4616778 4637670 4659946 4691124
1905.34 4730890 4760808 4799732 4852116 4916496 4996694
1908.23 5089010 5172254 5259610 5364514 5475112 5598666
1911.12 5734014 5869160 5998024 6150428 6316440 6488780
1914.02 6680728 6868266 7056582 7262742 7469586 7675248
1916.91 7893520 8113802 8336256 8568644 8801978 9038432
1919.80 9286062 9521790 9759104 10006910 10261070 10518480
1922.69 10775500 11056110 11358240 11686300 12043440 12403430
1925.59 12782960 13190090 13592700 13977240 14351000 14677690
1928.48 14919190 15103190 15230070 15277110 15240270 15142810
1931.37 15013200 14847190 14661020 14471940 14268720 14073230
1934.26 13882800 13659950 13401050 13135890 12906390 12743740
1937.16 12654450 12644660 12681750 12699940 12647400 12506490
1940.05 12275660 11962100 11595170 11162740 10686300 10202140
1942.94 9699090 9197336 8723452 8265776 7835588 7440724
1945.84 7071690 6742740 6444322 6186092 5958270 5751344
1948.73 5582304 5440800 5320258 5212810 5134212 5074094
1951.62 5005066 4936304 4891342 4862300 4861994 4871846
1954.51 4871056 4874240 4850102 4798754 4724410 4633966
1957.41 4529176 4427496 4324238 4208884 4101146 3998980
1960.30 3903394 3814082 3721732 3630664 3553384 3468766
1963.19 3400904 3352892 3293762 3228038 3174178 3129010
1966.08 3080938 3030476 2982852 2951092 2919856 2888488
1968.98 2855568 2819302 2792854 2772878 2755958 2737424
1971.87 2720136 2703266 2664702 2633068 2605564 2566402
1974.76 2539952 2519514 2502400 2480906 2458392 2447200
1977.66 2440882 2437288 2434248 2435790 2432594 2433088
1980.55 2433442 2434212 2445686 2445106 2441486 2442430
1983.44 2439210 2421674 2410438 2397646 2380740 2362586
1986.33 2351502 2347964 2338244 2331008 2316684 2303648
1989.23 2282790 2257726 2246678 2235232 2226040 2224636
1992.12 2220200 2212600 2209436 2199968 2178254 2156346
1995.01 2126340 2080382 2041686 2006678 1965260 1933782
1997.90 1897062 1851448 1807144 1768498 1731426 1707608
2000.80 1694718 1670760 1650110 1631218 1612032 1603154
2003.69 1597460 1583106 1564690 1554980 1562244 1562842
2006.58 1555748 1554118 1552066 1541318 1533726 1540288
2009.48 1547098 1542582 1534994 1545424 1551256 1554484
2012.37 1572626 1593090 1610692 1615830 1617320 1626236
2015.26 1649262 1669094 1675184 1692890 1714194 1726974
2018.15 1735542 1749056 1765680 1785578 1812126 1830736
2021.05 1854318 1878486 1887880 1914864 1946840 1973062
2023.94 1996832 2027242 2066080 2095722 2127890 2167668
2026.83 2201728 2235828 2280738 2330180 2374332 2411750
2029.72 2449438 2492914 2542160 2599304 2652158 2708818
2032.62 2773364 2846690 2916886 2977434 3056370 3143220
2035.51 3237374 3336684 3438582 3536538 3646768 3778172
2038.40 3897102 4025832 4167116 4312452 4483548 4661630
2041.29 4826670 4993980 5170982 5356548 5542026 5724536
2044.19 5907824 6091420 6273624 6442092 6608098 6763680
2047.08 6908460 7050614 7191196 7327976 7447682 7564644
2049.97 7677308 7791860 7890850 7987294 8099600 8202204
2052.87 8300418 8401572 8493240 8565548 8625038 8672132
2055.76 8706148 8733758 8773782 8803152 8797968 8778350
2058.65 8749436 8683716 8586818 8461700 8310720 8154060
2061.54 7976588 7784172 7610600 7446890 7266344 7090968
2064.44 6926448 6771810 6625002 6478776 6341630 6203462
2067.33 6061278 5928848 5799270 5666522 5536506 5396592
2070.22 5257504 5119586 4975960 4842496 4721312 4605366
2073.11 4496160 4387192 4277108 4179610 4078834 3978144
2076.01 3892260 3811674 3738370 3668586 3589518 3521866
2078.90 3468602 3413012 3355754 3293096 3254656 3227070
2081.79 3188732 3163874 3147134 3130618 3097682 3076566
2084.69 3084144 3083216 3076914 3068106 3068648 3074196
2087.58 3075416 3083332 3088454 3083712 3085878 3083460
2090.47 3077302 3083026 3080834 3081570 3083432 3071916
2093.36 3068062 3067032 3053868 3032446 3008068 2995764
2096.26 2990930 2979822 2963306 2956018 2944864 2912618
2099.15 2895764 2877742 2854838 2844774 2818974 2791702
2102.04 2767600 2727880 2703070 2685246 2643244 2607512
2104.93 2576272 2549474 2526716 2495558 2463250 2447568
2107.83 2440380 2410838 2390534 2380910 2368362 2370500
2110.72 2366266 2357058 2354154 2349364 2354910 2363334
2113.61 2360860 2360220 2364686 2365690 2372434 2382726
2116.51 2394454 2418586 2425778 2417672 2420238 2421396
2119.40 2425874 2433358 2435078 2439726 2447320 2440332
2122.29 2440428 2449120 2440388 2440446 2452128 2449674
2125.18 2445704 2450270 2443614 2427180 2427480 2436750
2128.08 2441900 2430776 2421680 2419270 2404754 2391766
2130.97 2375520 2363056 2354342 2342422 2317198 2289704
2133.86 2276056 2265212 2246398 2230510 2212924 2193310
2136.75 2174688 2157460 2138142 2097180 2072294 2060440
2139.65 2045856 2033614 2013288 1998746 1981368 1951904
2142.54 1923714 1905354 1897238 1886588 1862734 1837590
2145.43 1819046 1809350 1787820 1762982 1745610 1738536
2148.33 1734128 1722222 1704552 1681292 1669726 1666542
2151.22 1661638 1661260 1654544 1643696 1643702 1648438
2154.11 1647710 1645288 1650732 1647310 1657716 1679584
2157.00 1684416 1676730 1677142 1695980 1710104 1717312
2159.90 1719542 1730554 1735846 1723704 1729182 1729464
2162.79 1730414 1737326 1730462 1717662 1693752 1675220
2165.68 1664506 1646942 1626842 1611706 1592326 1573942
2168.57 1557372 1538852 1532154 1511252 1478810 1459082
2171.47 1436900 1412098 1393378 1377068 1351248 1323954
2174.36 1298326 1269368 1232772 1196858 1169054 1135122
2177.25 1105802 1077660 1055752 1026676 985378 967312
2180.15 962002 948456 935718 928252 912440 897778
2183.04 894584 892072 894502 894776 886638 888114
2185.93 884090 874534 881874 889296 889692 892012
2188.82 883552 875818 883728 894690 904214 904494
2191.72 900190 905536 919386 912128 901142 904886
2194.61 907190 893100 893008 911998 912334 905008
2197.50 902898 915770 920722 904072 890132 888532
2200.39 888744 890050 880410 869550 867920 865110
2203.29 860170 860954 849010 840158 850746 843934
2206.18 834616 824374 823072 835622 827276 818658
2209.07 822386 824414 828828 824118 815640 812230
2211.97 808772 814220 822678 829994 824108 806852
2214.86 805896 815692 824268 825712 839890 850990
2217.75 850444 853556 855050 875016 889144 882728
2220.64 882450 898232 913434 919742 929458 942008
2223.54 945066 942340 948780 952846 951142 955570
2226.43 952982 938670 929868 939120 954374 944780
2229.32 940824 961354 972644 975754 985476 1007446
2232.21 1015036 1020098 1030766 1035606 1041118 1032468
2235.11 1026654 1038626 1038530 1029540 1026342 1026064
2238.00 1021422 1013942 1018878 1018314 1013156 1016386
2240.89 1019556 1021322 1019730 1020612 1015438 1022352
2243.79 1035474 1044436 1039208 1034828 1042764 1038058
2246.68 1047300 1044262 1041788 1042588 1033680 1034698
2249.57 1033310 1033756 1034464 1019018 1013530 1027556
2252.46 1017350 1006386 1010598 1004046 999440 998374
2255.36 1006428 1010072 1013580 1014786 1011490 1022584
2258.25 1024646 1023164 1026730 1035816 1040314 1037616
2261.14 1039574 1043030 1048682 1057838 1064240 1069998
2264.03 1082292 1089740 1087800 1081832 1081640 1077234
2266.93 1080038 1084748 1073844 1066504 1073968 1079176
2269.82 1071792 1063280 1059438 1059032 1054464 1059476
2272.71 1061294 1054508 1054342 1069546 1077176 1070472
2275.61 1060818 1042814 1049528 1061148 1057818 1054880
2278.50 1044758 1042654 1056924 1056338 1052422 1053758
2281.39 1051664 1053398 1045620 1041090 1035016 1024366
2284.28 1025082 1026554 1021884 1021448 1022796 1022690
2287.18 1023942 1025682 1031344 1040016 1043540 1032242
2290.07 1014258 1015640 1027300 1040436 1061102 1070188
2292.96 1078386 1087906 1088870 1096906 1109374 1119984
2295.85 1135322 1145896 1152382 1177542 1194994 1203718
2298.75 1219130 1234832 1243426 1246238 1266458 1294230
2301.64 1313400 1319108 1325858 1342832 1365772 1380642
2304.53 1394006 1409300 1424656 1440318 1460840 1489068
2307.43 1505392 1530058 1541298 1548222 1567704 1579714
2310.32 1608390 1625614 1636988 1646892 1665160 1693680
2313.21 1700454 1701932 1705368 1709226 1713804 1715836
2316.10 1712212 1715306 1707178 1709676 1719744 1713410
2319.00 1706818 1711026 1717012 1720248 1729314 1714890
2321.89 1701982 1716120 1702094 1677390 1688776 1703482
2324.78 1693594 1676150 1673928 1665446 1638444 1613996
2327.67 1596978 1588548 1575254 1547262 1542376 1542766
2330.57 1503118 1465734 1458922 1448966 1420522 1393462
2333.46 1390534 1380568 1355064 1346062 1339584 1308906
2336.35 1286584 1294250 1298108 1286006 1278276 1287330
2339.24 1265404 1228162 1221584 1208002 1175706 1173212
2342.14 1170562 1127254 1107886 1119690 1107800 1087222
2345.03 1088818 1093260 1095084 1095342 1088294 1092772
2347.92 1102516 1114800 1140734 1165722 1170686 1177724
2350.82 1200678 1219836 1250452 1282810 1299752 1325066
2353.71 1369578 1404006 1435694 1486766 1522448 1544698
2356.60 1598376 1642272 1669466 1727984 1754394 1767892
2359.49 1821868 1849674 1869742 1916938 1930064 1959756
2362.39 2012896 2030032 2077210 2103900 2125972 2185774
2365.28 2201678 2238124 2292364 2329550 2387422 2432204
2368.17 2478934 2547488 2586666 2628850 2684448 2730144
2371.06 2775000 2821648 2877936 2924284 2976498 3028296
2373.96 3079786 3122478 3158090 3205018 3252466 3291134
2376.85 3339716 3399298 3451172 3503140 3549642 3595572
2379.74 3637488 3669854 3717916 3763898 3786186 3816204
2382.64 3844734 3869666 3893008 3899314 3895944 3906888
2385.53 3931646 3955644 3973948 3968936 3954212 3946680
2388.42 3938530 3919684 3900194 3889416 3862662 3823246
2391.31 3796586 3759642 3696848 3628048 3570100 3520270
2394.21 3452976 3362198 3267440 3175032 3088310 3004268
2397.10 2909714 2825512 2747696 2661656 2595492 2540176
2399.99 2472810 2401192 2336022 2273162 2216358 2163448
2402.88 2115024 2070246 2016370 1978714 1938118 1895418
2405.78 1861480 1817778 1779794 1756432 1737544 1715246
2408.67 1687804 1665456 1650608 1637250 1631244 1618256
2411.56 1586194 1570694 1581472 1581372 1569132 1559546
2414.46 1550690 1544668 1539824 1539272 1531776 1524174
2417.35 1512424 1496288 1497712 1488506 1475864 1474518
2420.24 1467528 1455588 1455332 1454146 1433828 1425262
2423.13 1424548 1418010 1405162 1392156 1386602 1377340
2426.03 1365148 1348668 1335122 1309842 1277588 1260570
2428.92 1235626 1216454 1198600 1169904 1154160 1127060
2431.81 1103506 1095680 1069188 1043914 1046438 1026380
2434.70 1005350 990048 954040 925524 917464 913670
2437.60 893578 876390 862762 844256 824158 809460
2440.49 802564 797536 783058 768142 763726 753350
2443.38 744302 734784 715794 697916 698916 702924
2446.28 687120 676218 674050 677006 684980 691340
2449.17 686582 678414 666452 658572 659132 657614
2452.06 669054 681322 683764 691236 688012 692016
2454.95 705890 700546 699112 714180 739906 761698
2457.85 758468 754430 772612 791512 804598 821296
2460.74 839328 850610 868568 885562 889272 913410
2463.63 944962 960800 989994 1026712 1054092 1080352
2466.52 1102312 1111388 1117610 1142450 1165370 1179002
2469.42 1212744 1239642 1249656 1265134 1285922 1309648
2472.31 1328408 1338258 1349096 1374026 1387862 1393964
2475.20 1406198 1429528 1443896 1439904 1458460 1481870
2478.10 1486874 1484224 1492474 1506500 1518322 1524408
2480.99 1524476 1515790 1500330 1500954 1515508 1512190
2483.88 1493532 1487616 1503982 1499624 1478468 1476334
2486.77 1472474 1475856 1468510 1439596 1440500 1451720
2489.67 1439154 1434290 1439782 1423262 1399658 1391414
2492.56 1381592 1371778 1357288 1343350 1337582 1325116
2495.45 1323182 1320770 1314634 1311662 1293970 1278150
2498.34 1269524 1260992 1250854 1232188 1220950 1205030
2501.24 1188682 1167872 1145742 1147304 1122340 1105568
2504.13 1098108 1059052 1039974 1030000 1019302 1004114
2507.02 977716 965868 943874 912908 913378 901218
2509.92 877564 880334 869490 857346 851450 828774
2512.81 824622 818676 799362 792728 798792 799830
2515.70 773382 751436 741874 747024 757214 750934
2518.59 737528 739582 751454 749378 753360 747968
2521.49 736214 740682 745150 757486 756132 757118
2524.38 771994 784654 793424 803278 812466 804704
2527.27 818322 833976 834552 841304 849432 856230
2530.16 875180 890544 903368 920100 915856 934488
2533.06 949326 953858 966576 983194 1011216 1016888
2535.95 1022642 1038734 1056788 1056274 1042852 1044662
2538.84 1065702 1068360 1064434 1082262 1094088 1106960
2541.74 1102786 1095580 1103380 1107200 1111322 1126780
2544.63 1141642 1136162 1121382 1120280 1123912 1127076
2547.52 1131102 1135660 1137754 1126744 1117170 1120694
2550.41 1118764 1115712 1126056 1124210 1113762 1124772
2553.31 1136964 1129452 1120150 1114186 1108430 1111604
2556.20 1104848 1091810 1089230 1080030 1071244 1049424
2559.09 1017690 1010882 1008668 991220 962608 942798
2561.98 935608 914964 900172 892638 880234 857284
2564.88 840110 829252 829070 824384 807848 803642
2567.77 795168 788874 777558 756768 738692 722666
2570.66 704946 688190 666744 640604 621820 604500
2573.56 595034 585324 568506 562836 554268 548142
2576.45 541624 544120 538126 533650 538954 536198
2579.34 531036 535974 548418 542266 522322 510504
2582.23 521232 535526 533730 532992 549772 557382
2585.13 570204 587378 583906 591164 621518 644928
2588.02 651408 655176 662594 673048 687244 701268
2590.91 716780 734838 754194 772028 778872 789176
2593.80 802234 816746 830780 838006 849218 863022
2596.70 872638 883684 889318 902682 913938 922966
2599.59 950466 946886 941226 960998 972622 978818
2602.48 990040 995040 993688 996872 993610 986128
2605.37 990974 995968 993172 987132 972684 963310
2608.27 954078 941756 950096 957828 973100 988410
2611.16 973840 962150 960436 953590 955940 956564
2614.05 940980 940968 939480 916744 898590 891690
2616.95 878364 871316 870000 866386 855724 842638
2619.84 837818 826074 813440 805810 796050 789464
2622.73 770334 765592 777450 765586 752560 743604
2625.62 739696 723340 707696 705092 699746 700776
2628.52 694588 673238 672476 682256 683438 688114
2631.41 682684 677990 676628 668626 663656 663962
2634.30 664780 663204 660608 663920 677682 690296
2637.19 700076 701118 703592 715798 708140 714742
2640.09 740040 750338 746394 734238 741200 763006
2642.98 763796 767302 780860 789914 806698 806846
2645.87 801996 815190 814628 818232 844810 863234
2648.77 867508 863302 883714 904384 905570 908930
2651.66 911570 915970 927172 943774 948896 944174
2654.55 958898 980238 977550 981524 1004102 1014200
2657.44 1018906 1026096 1044544 1074412 1080140 1072010
2660.34 1077656 1100968 1087050 1077256 1102886 1100518
2663.23 1096464 1100878 1096286 1094926 1092062 1107270
2666.12 1115234 1106038 1108236 1113824 1127718 1129236
2669.01 1130228 1133564 1120914 1135820 1144986 1137736
2671.91 1153086 1158908 1138060 1121230 1125362 1115612
2674.80 1117086 1114448 1090752 1096766 1095254 1058856
2677.69 1044020 1047506 1046190 1058744 1064994 1051410
2680.59 1041404 1042534 1026130 1022210 1049518 1050098
2683.48 1052444 1051892 1034410 1046640 1064100 1057990
2686.37 1054832 1068290 1063676 1051726 1063256 1073012
2689.26 1078680 1100038 1117754 1125788 1121798 1123066
2692.16 1159260 1193712 1197766 1210072 1236452 1260024
2695.05 1282798 1300666 1345452 1387116 1404346 1423216
2697.94 1443266 1464754 1493136 1511916 1514540 1510220
2700.83 1530870 1569400 1575930 1577174 1574708 1578574
2703.73 1605216 1606540 1599912 1611110 1628014 1647020
2706.62 1644932 1637396 1645506 1649596 1645098 1626116
2709.51 1630506 1644184 1618116 1600988 1590806 1581800
2712.41 1587066 1568112 1544022 1530520 1514800 1507934
2715.30 1497954 1478210 1466958 1445130 1426190 1429178
2718.19 1431814 1443860 1448336 1442906 1455738 1465622
2721.08 1459958 1458422 1467488 1458036 1438464 1453728
2723.98 1462024 1472634 1476776 1455898 1459162 1475246
2726.87 1474936 1475936 1478012 1493612 1516476 1519918
2729.76 1528482 1528558 1542136 1555680 1568568 1590546
2732.65 1614398 1645846 1648928 1641564 1636152 1607478
2735.55 1593386 1602976 1590990 1582460 1575626 1550624
2738.44 1537636 1518644 1500084 1487664 1467206 1469212
2741.33 1470784 1464948 1441648 1426870 1428922 1432252
2744.23 1448296 1450850 1444712 1449722 1465668 1476552
2747.12 1482826 1500862 1520406 1536540 1529060 1522198
2750.01 1535086 1550550 1563902 1558614 1564996 1573338
2752.90 1571056 1570268 1570508 1578094 1591652 1600446
2755.80 1592708 1595670 1624318 1647884 1654110 1684516
2758.69 1744162 1789402 1808682 1811104 1824068 1858680
2761.58 1885460 1910772 1957812 1992282 2001672 2026330
2764.47 2058172 2087174 2126766 2148210 2154740 2166264
2767.37 2186128 2200302 2209512 2223074 2226940 2236102
2770.26 2241066 2242776 2260830 2258978 2253878 2262216
2773.15 2238166 2207690 2193032 2186038 2173916 2150858
2776.05 2134012 2119852 2108582 2098856 2076708 2065322
2778.94 2047706 2003244 1972156 1943114 1900130 1865252
2781.83 1840798 1796992 1751756 1725360 1710730 1690850
2784.72 1647782 1612306 1598754 1582232 1554116 1543672
2787.62 1537974 1531938 1539170 1549866 1548426 1549338
2790.51 1553296 1548766 1547958 1560518 1587444 1597016
2793.40 1592160 1589308 1607030 1636730 1653782 1648188
2796.29 1655486 1665918 1655838 1668808 1686706 1699928
2799.19 1730710 1745648 1747658 1754310 1767214 1784316
2802.08 1805006 1832504 1855842 1872116 1887016 1915372
2804.97 1943494 1958396 1984132 2020700 2038358 2068712
2807.87 2097542 2119596 2149430 2175458 2188494 2218446
2810.76 2268208 2293044 2343576 2381372 2413204 2468442
2813.65 2508900 2541962 2573932 2635170 2705884 2771754
2816.54 2842972 2897104 2940360 2986892 3063896 3135470
2819.44 3196284 3270326 3328882 3363292 3404808 3444530
2822.33 3475278 3513574 3533322 3550686 3574500 3580546
2825.22 3583436 3604752 3616378 3617764 3636396 3661992
2828.11 3672788 3685348 3720638 3735012 3736776 3752248
2831.01 3769662 3791696 3818116 3841648 3832532 3812314
2833.90 3808128 3811462 3795400 3785198 3779008 3753126
2836.79 3748516 3758190 3772732 3783986 3762898 3745766
2839.69 3759870 3775822 3779316 3772132 3764838 3760910
2842.58 3786738 3815434 3817764 3839672 3861652 3877388
2845.47 3903006 3921708 3937876 3948572 3957000 3972828
2848.36 4006990 4037762 4051610 4084636 4095452 4115186
2851.26 4160126 4177564 4207442 4240414 4266734 4304746
2854.15 4340784 4388332 4437470 4469730 4513294 4545180
2857.04 4577624 4620908 4642866 4673060 4715060 4749824
2859.93 4803550 4849374 4876266 4922534 4979726 5047826
2862.83 5118390 5185682 5278430 5389590 5499422 5590802
2865.72 5691290 5819442 5922702 6036646 6198540 6369170
2868.61 6530480 6695088 6911110 7130654 7362458 7627154
2871.51 7912886 8245124 8595300 8971456 9371766 9833628
2874.40 10336760 10840510 11408790 12031640 12687340 13364340
2877.29 14055410 14752970 15463420 16161810 16829090 17462460
2880.18 18049120 18573080 18975070 19311100 19590650 19780280
2883.08 19915590 20065000 20253010 20464400 20710960 20970840
2885.97 21243120 21534120 21847110 22160770 22477810 22782460
2888.86 23055340 23305670 23542620 23751490 23922650 24074090
2891.75 24190350 24260960 24267090 24271750 24278210 24266430
2894.65 24217870 24150420 24111280 24092950 24106300 24125090
2897.54 24142430 24205660 24316030 24445770 24611510 24831060
2900.43 25087260 25392480 25753630 26155320 26528910 26871760
2903.32 27233750 27608830 27969950 28328100 28719290 29121720
2906.22 29528020 29924080 30323470 30733830 31107100 31485170
2909.11 31875880 32197940 32491400 32768620 33015430 33265320
2912.00 33513840 33722660 33881570 34044160 34199060 34265980
2914.90 34270930 34213380 34010150 33707520 33322240 32907720
2917.79 32554520 32248640 31957250 31718350 31576710 31495830
2920.68 31462080 31457800 31489530 31564690 31635290 31662420
2923.57 31645120 31654010 31594960 31461480 31338120 31176010
2926.47 30995700 30829340 30647710 30469420 30331110 30232750
2929.36 30196360 30182370 30241840 30426050 30716920 31102640
2932.25 31590130 32212140 32937600 33737520 34610010 35588790
2935.14 36654120 37755520 38871400 40020610 41154500 42243800
2938.04 43272150 44197170 45022320 45738030 46415860 47079320
2940.93 47762240 48545660 49443220 50502120 51532560 52124820
2943.82 52367160 52597870 52978730 53488030 54136840 54938300
2946.72 55846710 56782450 57656460 58423730 58680410 58333760
2949.61 57874660 57555120 57360350 57191590 57019660 56880040
2952.50 56662550 56377170 56111300 55827500 55628370 55470290
2955.39 55112250 54458510 53664230 53068260 52738040 52500770
2958.29 52362550 52350410 52348660 52397440 52422620 52411420
2961.18 52481280 52831670 53299340 53710020 54279320 55064900
2964.07 56083370 57063310 57661820 57682330 57348500 57128440
2966.96 57220920 57683840 58356650 59184260 60212270 61226970
2969.86 62140890 63052200 64104540 65398620 66988120 68824750
2972.75 70840080 73046730 75453260 78041900 80792970 83681540
2975.64 86659390 89797980 92971070 96165720 99451700 102713600
2978.54 105942200 109153200 112404400 115714200 119124100 122758400
2981.43 126712700 131057600 135485900 139093700 140536900 140210400
2984.32 140153700 140626900 141136200 141708300 142258700 142724200
2987.21 143151500 143719000 144618000 145882400 147367700 148313200
2990.11 148272000 148007300 148550800 150171400 152725500 156254100
2993.00 160900600 167403700 177456500 187533200 186707900 174818300
2995.89 162742800 154349300 148108200 143118200 138774000 134858900
2998.78 131297800 127951400 124794000 121632400 118365300 115113000
3001.68 111939100 108944700 106018500 103068200 100078300 97072150
3004.57 94211060 91512520 89026460 86765410 84668430 82567520
3007.46 80548580 78732380 77005770 75235540 73313590 71298620
3010.36 69148900 66860270 64539210 62177780 59759540 57335160
3013.25 54930120 52559170 50203960 47889770 45670700 43518740
3016.14 41453830 39499600 37650160 35884530 34202010 32619830
3019.03 31134950 29705820 28320100 27013320 25808430 24672920
3021.93 23610960 22599690 21629110 20766520 19975460 19222340
3024.82 18532670 17902040 17324030 16812610 16362230 15924620
3027.71 15501280 15129830 14790060 14473370 14200170 13989440
3030.60 13839710 13685220 13554090 13487350 13432820 13426630
3033.50 13463670 13481230 13522370 13594490 13712170 13897380
3036.39 14099590 14334480 14642090 15015340 15405220 15825570
3039.28 16310330 16809010 17281400 17761150 18228560 18608710
3042.18 18933440 19216780 19394600 19468920 19465240 19391020
3045.07 19219500 18977390 18775470 18595930 18470580 18442690
3047.96 18490440 18609060 18677850 18458800 18009050 17660040
3050.85 17551530 17602600 17697270 17818080 17947150 18031150
3053.75 18022860 17890210 17645630 17254780 16717220 16122560
3056.64 15448350 14705740 13941510 13163600 12416080 11696330
3059.53 10991200 10341780 9752646 9197750 8708090 8298824
3062.42 7954908 7634176 7352650 7119398 6908858 6738692
3065.32 6598132 6475196 6390696 6352874 6326620 6304856
3068.21 6301838 6315004 6319072 6348646 6404652 6453094
3071.10 6509238 6577658 6656502 6745058 6795586 6849480
3074.00 6939358 7009706 7083586 7159816 7213660 7248830
3076.89 7299966 7352416 7384508 7404724 7444786 7457226
3079.78 7415912 7377610 7331636 7280936 7246464 7184446
3082.67 7106194 7092448 7088204 7079818 7095754 7069964
3085.57 7019274 7009340 7030560 7086938 7148888 7141722
3088.46 7093752 7065398 6982614 6851272 6727760 6573252
3091.35 6424446 6299558 6157852 5992532 5835914 5701132
3094.24 5587054 5492682 5396900 5335788 5295816 5270838
3097.14 5281272 5310508 5377752 5492564 5648582 5824642
3100.03 6060736 6391924 6760850 7168374 7649276 8224064
3102.92 8858104 9499628 10225750 11025500 11845170 12669370
3105.82 13474030 14219550 14835010 15319420 15670410 15814860
3108.71 15710870 15424220 14900290 14189850 13456030 12830160
3111.60 12549370 12812680 13691100 14796050 15215020 15366960
3114.49 15920430 15803430 14660460 13701380 13709280 14269550
3117.39 14902860 15430040 15799210 15989110 15934780 15663480
3120.28 15214380 14585890 13808160 12914780 11978940 11058540
3123.17 10167430 9297288 8427238 7636444 6946372 6318176
3126.06 5767518 5280016 4872398 4533102 4225486 3947150
3128.96 3703416 3514898 3351460 3218624 3126696 3023928
3131.85 2909234 2844646 2780552 2706358 2634168 2549382
3134.74 2489634 2446966 2401030 2356816 2314728 2296148
3137.64 2255904 2212934 2185052 2142784 2122662 2098114
3140.53 2084730 2086154 2077790 2080750 2091760 2080376
3143.42 2065326 2086574 2108208 2100142 2087906 2098396
3146.31 2104650 2120080 2145916 2142668 2135940 2146714
3149.21 2154120 2162244 2177600 2179526 2169794 2167362
3152.10 2173974 2158078 2139854 2135402 2133816 2141714
3154.99 2144782 2130400 2112778 2103944 2098930 2102152
3157.88 2073432 2042204 2057468 2051690 2025192 2019880
3160.78 2012338 1994428 1962764 1945296 1931302 1912644
3163.67 1901370 1884828 1881796 1877092 1870342 1845584
3166.56 1813774 1804876 1788986 1771832 1747250 1714936
3169.46 1728860 1716982 1693588 1693470 1672532 1653618
3172.35 1632036 1635350 1633902 1598374 1583722 1578594
3175.24 1557116 1520702 1504116 1513010 1519530 1504212
3178.13 1473428 1458336 1439926 1426256 1419268 1402136
3181.03 1380446 1378690 1413752 1405068 1341546 1333518
3183.92 1350394 1329768 1286788 1270352 1265606 1254518
3186.81 1277122 1259094 1227790 1219590 1213732 1195180
3189.70 1171834 1177720 1184154 1168438 1152262 1171018
3192.60 1160050 1114312 1106502 1130484 1133570 1113800
3195.49 1092430 1061208 1057242 1066058 1057402 1071104
3198.38 1071190 1055710 1043702 1032554 1039252 1049650
3201.27 1036102 1014662 1005350 1032050 1034014 994700
3204.17 987178 989420 983246 990508 996238 974724
3207.06 964270 945596 934306 949258 959906 931850
3209.95 912214 941248 939110 930514 952404 928324
3212.85 920188 935706 921606 917450 923252 920970
3215.74 917694 936294 936026 936706 935878 898866
3218.63 896552 910798 930544 939660 927494 931998
3221.52 944582 945764 931162 940544 955060 977290
3224.42 989278 985144 981140 983004 990234 999730
3227.31 1019720 1023902 1002738 991852 1009912 1021126
3230.20 1025632 1033180 1030022 1030634 1038254 1051898
3233.09 1055878 1068170 1079574 1091808 1084420 1065442
3235.99 1065746 1049110 1060258 1066252 1051372 1061624
3238.88 1064098 1054926 1041818 1040038 1054786 1067286
3241.77 1068462 1064556 1053558 1065656 1078978 1053764
3244.67 1041686 1023720 1021734 1012484 981800 965416
3247.56 964106 978970 965334 928038 908668 900774
3250.45 874704 850888 854894 849654 811830 789048
3253.34 768158 735242 716734 696010 697328 692162
3256.24 670936 670180 662270 619424 588490 556294
3259.13 524096 515364 490048 478772 486414 446916
3262.02 399830 399366 396372 380852 345620 327518
3264.91 329430 298662 294036 301898 276112 243958
3267.81 244854 253420 225674 199304 189990 194278
3270.70 177612 152184 167680 168136 144416 132440
3273.59 116406 107768 131158 145710 126024 127888
3276.49 119390 118308 118722 127076 114642 79886
3279.38 82290 97458 104276 96482 79386 42016
3282.27 24090 35256 23806 18442 35174 46482
3285.16 60734 65488 47874 22808 19754 9956
3288.06 14920 18118 4684 21092 12928-25298
3290.95-24792-9936-13848-25028-23416-7444
3293.84-2620-28160-49944-32186-28014-23694
3296.73-42036-67698-60174-63520-46330-44406
3299.63-40668-32208-29388-7206-32-368
3302.52-10826-10472-1208 734 6362 16448
3305.41 46812 63486 57600 67468 70378 66408
3308.31 74290 78516 76178 113596 145078 143254
3311.20 150664 172942 158620 130042 151030 196840
3314.09 202182 198042 205182 202374 223396 230870
3316.98 215046 195680 198742 241832 259940 237374
3319.88 243732 244256 249838 252578 249658 268496
3322.77 276706 269836 280556 303516 296258 282272
3325.66 283272 282074 286516 293596 298226 321054
3328.55 340506 333700 331382 345692 342790 333584
3331.45 346506 344672 356080 365092 339072 346242
3334.34 347508 359578 383878 386378 360812 341456
3337.23 370426 382592 373406 379454 389244 391602
3340.13 396490 402330 397680 409376 432866 426840
3343.02 429758 460854 475118 482650 479104 487010
3345.91 489488 479708 492972 502334 514988 528846
3348.80 557740 577220 595354 599256 614058 621302
3351.70 589772 586162 621604 646852 663556 690088
3354.59 696810 689660 692840 701720 727504 747548
3357.48 754702 764428 765818 787894 805670 815884
3360.37 814322 825306 842922 832458 853962 874382
3363.27 871136 880800 887236 894992 881744 868302
3366.16 884282 891924 867620 854070 859720 873828
3369.05 883688 880728 887732 891422 882184 854324
3371.95 845440 847250 851764 874334 878714 873902
3374.84 856656 865314 864714 853926 874590 894776
3377.73 878210 865228 897128 909408 916088 937800
3380.62 956008 950306 956650 986090 1002686 1010484
3383.52 999530 983140 985592 996202 1004358 1010838
3386.41 1039784 1023480 995228 1014322 985128 968930
3389.30 967748 944414 911114 887436 896882 886494
3392.19 838158 829932 850818 864674 875230 867362
3395.09 851506 844952 830318 825626 843598 835278
3397.98 781882 712896 670040 626706 582180 548378
3400.87 545736 513610 482768 475892 420216 380630
3403.77 350934 323538 293496 246992 245526 248420
3406.66 245604 228896 223798 235532 234506 242734
3409.55 232968 219026 207100 236016 243476 189578
3412.44 195438 220602 193892 179248 208944 209326
3415.34 195222 201832 188898 163972 150150 184336
3418.23 214884 179820 127764 129330 165502 161786
3421.12 150796 145376 124154 136906 150688 135956
3424.01 135732 147508 135300 128032 140798 152222
3426.91 162728 161092 156676 157578 167268 176204
3429.80 143756 100604 113388 140220 146672 150516
3432.69 152064 125612 128594 145500 130910 148318
3435.59 169704 182710 166186 140546 164632 177842
3438.48 187552 177268 185888 201038 183852 197086
3441.37 212334 197144 192418 193238 221362 258150
3444.26 255066 241576 236134 258796 324186 366078
3447.16 384218 391332 412644 467740 481042 494006
3450.05 541538 602914 636412 659274 744944 819392
3452.94 839562 878036 958266 1035056 1102192 1172892
3455.83 1248514 1324720 1396666 1503392 1620454 1733340
3458.73 1841522 1955004 2080132 2188030 2289594 2425966
3461.62 2560794 2689382 2850608 3014388 3182690 3348438
3464.51 3510914 3649226 3799892 4011822 4195398 4365488
3467.40 4544046 4705228 4876750 5083254 5263736 5399734
3470.30 5541012 5699066 5862158 6016492 6131250 6231520
3473.19 6313536 6390838 6485950 6531816 6544822 6564352
3476.08 6573320 6550840 6538978 6549316 6550356 6528612
3478.98 6548886 6619662 6692246 6732830 6782204 6846200
3481.87 6887912 6914464 6889832 6861106 6815960 6738458
3484.76 6676546 6558020 6402380 6271630 6087316 5872064
3487.65 5681610 5448026 5225468 5015544 4796434 4592912
3490.55 4405840 4210238 3994954 3792940 3593610 3404518
3493.44 3209126 3027700 2857004 2682242 2504848 2323420
3496.33 2169422 2027502 1892366 1758786 1623606 1498416
3499.22 1384186 1256192 1125600 1045418 968892 872550
3502.12 805728 748872 650162 574852 507784 445332
3505.01 396918 328650 259618 215066 171070 123362
3507.90 108292 88212 62448 33764 7072-12376
3510.80-29384-52746-88410-105798-101614-126348
3513.69-132140-145922-188484-190468-188536-205466
3516.58-219750-210964-219600-218368-205144-199780
3519.47-193310-187326-210938-226908-217210-232324
3522.37-222828-227480-262886-265642-261200-239064
3525.26-239010-252958-240268-220560-221392-246342
3528.15-227474-215902-223632-228624-245270-243458
3531.04-228242-229298-231282-232496-248590-249104
3533.94-253622-259922-219096-181606-203542-204502
3536.83-209790-214694-198962-168272-156570-201820
3539.72-204554-197034-198616-172740-146910-152794
3542.62-157922-141406-114798-121882-141752-150806
3545.51-143490-125116-127988-129496-115820-85738
3548.40-77332-84504-75924-77900-73220-52692
3551.29-56924-64310-56684-55218-42984-20366
3554.19-4890-12394-16938-3464-16926-13148
3557.08 12454 35046 46742 32940 47618 61574
3559.97 66298 76284 61568 52882 36550 31270
3562.86 62490 75836 89756 102874 89528 72876
3565.76 66504 72798 76780 81148 82522 89544
3568.65 97094 83042 74392 67604 68476 84938
3571.54 79564 73644 68096 75548 89534 86896
3574.44 83496 74692 55492 36234 16838 20540
3577.33 46992 37354 15378 7412 9704 16578
3580.22 14476 19622 29714 30606 27804 37106
3583.11 39392 32966 35574 33770 10248-2796
3586.01 2482-968 14220 15252-9574-18960
3588.90-10912-12538-9812 14600 39880 35182
3591.79 28104 21656 2722 18640 23448 27568
3594.68 56764 53728 48382 56086 59850 45578
3597.58 19518 10780 36746 57542 27072 5544
3600.47 2846 27148 41458 31288 49000 48152
3603.36 45076 47650 43986 28858 33844 71064
3606.26 83990 71480 52528 35934 33300 56202
3609.15 67466 67910 58426 43792 48774 68230
3612.04 68506 59428 65872 54916 51628 40244
3614.93 40298 61270 59066 46282 43154 39924
3617.83 55560 55752 42800 63502 64012 55612
3620.72 41632 19860 31472 53964 62406 41100
3623.61 8436 16070 23036 27502 38250 57096
3626.50 60618 41912 31632 31570 54520 59724
3629.40 44112 35714 20328 19414 34674 37460
3632.29 32774 33226 26830 21900 30334 25910
3635.18 22660 31272 4130-7658 10816 19394
3638.08 48800 50208 39730 36512 23880 20220
3640.97 19318 1840 6534 14544 12260 28624
3643.86 26660 11076 16726 28858 21178 5706
3646.75-456-4394-9132 8922 32122 34094
3649.65 27006 16306 17018 39132 29590 5812
3652.54-2540 2168 5738-10800 7820 30784
3655.43 43450 58118 27108-9052-11272-5060
3658.32-1506-4310 1436 11442 9218 25230
3661.22 27096 21288 24816 31082 27972 17750
3664.11 14366 20226 40788 44412 41188 25048
3667.00-2680 414 22610 20682 15364 16978
3669.90 29318 36874 28136 35814 32328 22200
3672.79 14120 23620 15760 6248 19784 49020
3675.68 65742 23224-7308 2046 23894 30976
3678.57 32130 32960 25004 25728 30378 25244
3681.47 25058 13150 10062 10212-2692 8982
3684.36 25364 23710 25736 35516 33432 32420
3687.25 45752 67114 61582 36442 22140 15132
3690.14 17322 30930 39534 51522 49638 41876
3693.04 49374 42652 24676 23370 23692 35526
3695.93 58086 37752 45322 46528 22966 29132
3698.82 29582 42464 51688 39884 36534 54550
3701.72 70224 51880 34148 60252 77690 62030
3704.61 40372 37390 67364 84442 64246 43732
3707.50 44852 55096 59794 52136 57030 73310
3710.39 81604 71484 59086 55656 45640 56886
3713.29 70206 89128 98114 86632 94100 104350
3716.18 95536 85928 102152 120410 112940 117036
3719.07 110640 92184 119070 127972 119346 95856
3721.96 83508 124862 126092 118930 123608 129298
3724.86 125956 113744 124952 117488 115166 126278
3727.75 126132 140078 133932 102770 119098 137474
3730.64 135524 141742 158142 170210 161780 160454
3733.54 158858 142028 136962 136694 125420 131108
3736.43 137380 135116 130330 129618 159528 176734
3739.32 163794 147812 147726 160478 162830 154810
3742.21 158202 151568 152342 180992 204356 211178
3745.11 180278 150796 171818 178922 158560 170650
3748.00 173572 190210 208222 185114 179086 188314
3750.89 205388 219176 224164 216194 214058 205462
3753.78 187980 189490 196316 210336 213730 213042
3756.68 217998 227784 236558 212970 223272 284404
3759.57 283392 246226 233546 252402 276422 285146
3762.46 276940 278704 282670 284510 302824 305630
3765.35 298454 289012 313450 330304 319180 319016
3768.25 308794 321050 343838 340300 324444 327534
3771.14 333394 336286 355628 346296 343374 348950
3774.03 354258 358654 342914 338194 346286 346948
3776.93 340178 340518 327748 327012 327612 337488
3779.82 352680 334356 321468 312418 301566 308618
3782.71 334806 339068 319798 324054 312082 290862
3785.60 298042 302888 295838 276824 270024 261978
3788.50 255716 258820 275208 287414 267638 260078
3791.39 262322 263538 252812 233614 231974 227322
3794.28 214154 215920 227970 229408 221580 250572
3797.17 251514 214572 204660 182014 187898 205240
3800.07 206208 225902 230232 205738 208958 204548
3802.96 190214 199266 212604 208330 171126 163306
3805.85 175782 183948 174686 156520 162786 177722
3808.75 165744 146854 149864 153444 137772 132014
3811.64 151128 147462 146300 159334 175694 175420
3814.53 138650 124474 153696 151410 145694 161964
3817.42 148456 137304 127678 125776 120488 113366
3820.32 140588 138990 129036 142580 147210 131580
3823.21 124264 127008 147964 144430 136482 163998
3826.10 171666 165156 155330 157218 132440 123338
3828.99 150040 168618 168390 169434 174204 145836
3831.89 149834 179490 179750 177134 187786 194912
3834.78 181832 186164 175414 171432 210016 218688
3837.67 206940 211594 189436 190426 229224 211834
3840.57 220764 233798 213840 198462 202468 192898
3843.46 183298 191816 189068 186146 197424 215638
3846.35 205182 213046 207022 182756 179288 195198
3849.24 203624 193060 192902 215814 229550 226288
3852.14 214416 188044 187294 217106 221546 191388
3855.03 156524 166540 188520 189698 184748 175866
3857.92 171424 169652 161752 151136 150544 143852
3860.81 148576 153580 152534 141536 128510 128678
3863.71 146790 166520 156088 129412 119576 117396
3866.60 134804 169850 162032 158856 168248 141540
3869.49 145704 144444 135746 160002 138728 119290
3872.39 120838 140270 171362 154232 125938 137536
3875.28 133294 121784 143334 147398 143932 131890
3878.17 124028 126638 119040 115784 126920 146594
3881.06 143862 142296 165430 157564 140212 167112
3883.96 181340 173208 168154 166378 161612 163856
3886.85 169656 168724 163732 182806 191888 186136
3889.74 178064 159054 181178 183816 164376 148534
3892.63 175598 210070 196710 198596 191650 189856
3895.53 190476 183294 179484 170348 179924 177728
3898.42 201402 227670 212670 202700 193570 196296
3901.31 206030 206512 215848 218578 219010 236112
3904.21 209142 192974 201482 212626 225460 193616
3907.10 184838 215660 205072 163910 162942 166886
3909.99 184542 197360 172510 184264 209166 203272
3912.88 200776 201036 203856 222900 197156 166978
3915.78 175768 176388 175954 151516 155596 165246
3918.67 142356 158806 170160 150662 152652 158366
3921.56 144084 132460 117058 117796 120366 118140
3924.45 139856 140608 123836 109084 110674 129730
3927.35 110912 85754 114652 112278 95858 124844
3930.24 129668 121058 122766 110418 115132 139018
3933.13 133482 114646 108502 110754 108916 116642
3936.03 110718 100910 111322 119618 119646 130550
3938.92 144702 142446 121896 101590 104988 104470
3941.81 110868 132874 143922 157238 165742 147602
3944.70 139994 146152 162918 180806 181100 190746
3947.60 190336 206492 210988 178396 150136 164694
3950.49 191596 183284 176262 179974 191348 195002
3953.38 210404 212692 201232 202636 205450 222550
3956.27 227734 213624 202538 188366 194444 209928
3959.17 211302 212000 231348 224174 235406 263010
3962.06 234262 227336 246138 270396 275994 293868
3964.95 300958 283996 288784 285614 298310 302416
3967.85 293720 302400 329940 324962 314670 340468
3970.74 333414 352618 373466 356368 357020 376192
3973.63 369166 358006 373766
##END=
