##TITLE=Ethyl Acrylate
##JCAMP-DX=4.24
##DATA TYPE=INFRARED SPECTRUM
##CLASS=IUPAC A
##ORIGIN=NIST, Anayltical Chemistry Division, 301-975-3108
##OWNER=COPYRIGHT (C) 1998 by the U.S. Secretary of Commerce
##DATE=98/10/1
##$SPECTRA VERSION=1.00
##$UNCERTAINTY IN Y=2.0 % relative (B=1.0E-04,C=3.0E-10,D=2.7E-14)
##CAS NAME=Ethyl Ester-Propenoic Acid
##CAS REGISTRY NO=140-88-5
##MOLFORM=C H2: C H C O2 C2 H5
##MP=-71.2 C
##BP=99.8 C
##$NIST SOURCE=QUANT-IR
##SPECTROMETER/DATA SYSTEM=IFS66V (Bruker)
##INSTRUMENT PARAMETERS=KBr Beam splitter; MCT Detector; Multipass cell
##STATE=gas
##SAMPLE DESCRIPTION=Ethyl Acrylate Primary Gas Standard
##PRESSURE=101.3 kPa
##TEMPERATURE=23 C
##SAMPLING PROCEDURE=1 L/min Flow
##RESOLUTION=1.9290
##DATA PROCESSING=NB Strong Apodization
##XUNITS=cm-1
##YUNITS=(micromol/mol)-1m-1 (base 10)
##XFACTOR=1.0
##YFACTOR=18.189E-13
##DELTAX=0.9645
##FIRSTX=574.687
##LASTX=3974.595
##FIRSTY=4.90E-07
##MAXX=3973.63
##MINX=574.69
##MAXY=.0020769
##MINY=-4.94E-07
##NPOINTS=3527
##XYDATA=(X++(Y..Y))
574.69 269820 308606 430796 463796 462444 379038
579.51 338834 334328 329826 400316 379974 333976
585.29 284820 300454 401804 423688 516914 620200
591.08 682678 661148 658162 723530 895222 1022728
596.86 1278226 1556810 1726784 1994402 2414202 2710968
602.65 2904382 3084054 3204558 3193082 3154276 3415992
608.44 4113004 4539632 4106838 3873676 4102282 4397186
614.22 4583748 4606882 4485224 4228350 3919452 3606638
620.01 3326068 3096302 2931374 2741174 2557186 2426856
625.79 2336938 2269320 2220862 2085838 1912870 1746818
631.58 1606438 1560096 1546986 1547416 1611116 1724854
637.36 1876352 2057114 2256150 2426846 2661188 2914934
643.15 3194510 3517856 3943986 4405536 4865002 5354818
648.93 5894504 6457534 7070134 7741554 8357160 8913938
654.72 9452764 9959724 10321420 10522820 10788330 11034910
660.50 11228580 11476350 11698510 11847610 12007680 12119350
666.29 12116390 11957370 11642270 11182810 10634760 10028820
672.08 9360942 8668978 8024712 7438940 6998044 6669612
677.86 6400692 6081468 5690596 5224966 4669744 4097340
683.65 3563964 3120514 2708118 2341438 2038658 1796962
689.43 1628192 1447236 1267344 1135606 1037868 906882
695.22 822436 773210 697996 632508 611342 569086
701.00 529000 516406 512040 473964 457492 457608
706.79 454190 449482 432556 426762 460258 494816
712.57 478734 492032 522230 547560 524890 504340
718.36 511888 535964 560016 575972 583894 587544
724.14 596400 582272 583138 613314 661990 721510
729.93 725032 715954 713600 726760 767154 799328
735.71 817846 839088 839248 841630 885740 920508
741.50 934526 953022 995136 1022222 1039146 1053602
747.29 1096234 1149476 1193690 1207928 1221198 1256864
753.07 1319226 1354834 1395754 1423300 1478018 1530996
758.86 1595336 1668020 1727320 1792684 1885018 1996152
764.64 2134192 2280302 2472776 2659680 2881268 3144122
770.43 3419966 3744704 4139412 4563810 5038360 5564602
776.21 6162316 6805026 7516948 8290792 9117752 10004720
782.00 10965020 11904510 12941190 14151750 15635660 17354080
787.78 19134220 20886610 22664180 24579150 26586400 28531400
793.57 30654110 33027410 35436440 37811620 40251980 42711740
799.35 45124260 47801690 51048270 54664000 58338480 61020440
805.14 61725000 62242450 63478280 65370960 68177500 71408170
810.93 73617010 73502620 71858740 69779120 67142620 64348480
816.71 62186650 59691540 56809880 54187950 50696170 47081080
822.50 44137730 41546070 38958140 36375600 33749690 31148250
828.28 28616570 26183480 23852370 21733600 19780650 18037270
834.07 16499020 15214130 14142180 13293520 12636690 12216460
839.85 11998030 11979520 12144550 12457190 12927550 13550600
845.64 14291910 15153980 16085500 17064500 18053100 19064600
851.42 20039020 20901270 21688780 22393140 22888140 23038500
857.21 23030650 23120840 23366170 23544090 23535560 23477950
862.99 23288220 22893260 22284730 21516300 20623820 19655010
868.78 18671310 17707840 16742650 15772180 14744680 13689220
874.57 12661330 11676330 10773080 9968374 9250034 8623128
880.35 8084456 7674152 7373518 7140890 7003052 6942404
886.14 6975520 7141218 7398544 7765070 8222574 8748704
891.92 9313648 9855062 10337200 10730210 11018320 11237080
897.71 11463680 11720130 11925700 12093230 12302120 12574340
903.49 12841910 13097910 13354500 13581820 13773170 13919060
909.28 14011640 14075900 14073210 13962250 13707110 13310760
915.06 12802200 12248730 11778100 11519070 11390720 11181730
920.85 11024230 11054880 11077550 10902210 10489580 9884380
926.63 9221412 8595808 8039346 7596478 7305300 7155192
932.42 7138940 7232074 7415142 7698390 8125902 8674054
938.21 9342196 10171240 11202960 12411310 13827020 15447270
943.99 17278780 19307820 21532250 23934360 26510250 29191280
949.78 31979210 34833070 37746020 40582760 43280820 45917780
955.56 48694410 51640120 54986650 59421680 66897600 79361800
961.35 92253230 91648630 79976580 77563130 85847150 95107260
967.13 94526380 85276960 80888930 82139360 84259740 86111950
972.92 87649980 88890210 89774210 90324090 90586650 90635090
978.70 90499370 90146930 89659390 89346330 89890270 92499670
984.49 99650410 111136700 114214500 100565200 87906160 85795090
990.27 86700340 84727080 78087260 70975730 66544000 63526880
996.06 60489510 57276530 53978930 50673390 47321130 44006230
1001.85 40750810 37619030 34627160 31815700 29222180 26945870
1007.63 25000030 23414690 22158830 21236290 20621780 20323780
1013.42 20354320 20800800 21665290 22972080 24707700 26957810
1019.20 29750160 33143480 37136520 41749670 46949640 52710500
1024.99 58906120 65372120 71918260 78365070 84465690 89914540
1030.77 94468900 98170870 101432400 104749400 107326800 108489600
1036.56 110114600 113136200 116213300 117424800 116203700 113909800
1042.34 110972600 106177500 100349600 95356580 91252260 87643740
1048.13 84528410 82273850 81145950 81461070 83349540 86879320
1053.91 92002780 98640340 106610600 115666700 125372400 135049000
1059.70 143983500 151658400 157833600 162370700 165585400 168395300
1065.48 171935700 176870400 181753700 184569100 183984600 180672200
1071.27 179367300 179874000 178387500 173045500 163715200 151432200
1077.06 137621500 124141600 111866400 101135500 91990820 84324500
1082.84 77955610 72632830 68099020 64385590 61584120 59749670
1088.63 58773490 58527340 58920110 59740400 60723910 61637820
1094.41 62230060 62382390 62220140 62046410 62124820 62399620
1100.20 62287790 61494130 60687380 60113170 59442400 58744810
1105.98 57825540 56412150 54393530 51926830 49146840 46241840
1111.77 43383380 40669960 38139060 35857800 33786500 31939270
1117.55 30316930 28909430 27643080 26728810 26286010 26057040
1123.34 25779560 25326290 24599560 23639390 22575580 21507810
1129.12 20482560 19572710 18829000 18245380 17763570 17408720
1134.91 17182370 17057650 17020680 17068850 17190220 17370870
1140.70 17590650 17879250 18226070 18621290 19045440 19512250
1146.48 20024060 20617330 21321410 22151810 23103930 24212150
1152.27 25489190 26941540 28551610 30358200 32392590 34677340
1158.05 37273460 40264260 43511910 46936450 51026590 56147230
1163.84 62085620 68734160 76148650 84381580 93082860 101859900
1169.62 110540300 119333500 128694600 139327000 151946800 166858500
1175.41 183692500 203725700 228506200 258550300 294605500 336974000
1181.19 386476100 443592400 508358800 580203500 657972300 739239200
1186.98 820142400 896299700 962766800 1015314000 1052545000 1076600000
1192.76 1091988000 1103910000 1116511000 1130448000 1136206000 1130946000
1198.55 1134673000 1141801000 1129735000 1085366000 1006782000 902959900
1204.34 789462100 679820400 581825900 499402400 432294000 377676600
1210.12 333237600 296706600 264978800 235850400 208857500 184619700
1215.91 163207200 144325000 128328600 115070500 104071500 95237980
1221.69 87768760 81363380 75726930 70809630 66519290 62843690
1227.48 59647140 56909280 54565210 52639230 51029510 49780490
1233.26 48814350 48102100 47450710 46770140 46154990 45750780
1239.05 45306310 44768160 44144310 43645510 43291960 43175640
1244.83 43285980 43652160 44382040 45673850 47450490 49887960
1250.62 53081510 57308980 62746420 69746200 78509410 89367620
1256.40 102378100 117677600 135096700 154344600 174757500 195744300
1262.19 216433900 236288700 254896500 272358000 289082600 305796500
1267.98 322522600 338097000 350333700 358031400 361714200 363768100
1273.76 365105900 365067900 362839500 357493300 348057800 331751700
1279.55 305814500 279246700 262557900 253350000 241043700 225136300
1285.33 210469800 197695600 188013300 182989300 183439500 189055600
1291.12 198497000 209866400 220636700 228291100 231020600 229193000
1296.90 224298000 222502400 232195500 243943300 237508700 233446200
1302.69 242342700 248324600 244729600 230819100 208724800 182565400
1308.47 157973000 136883800 119633300 105471800 93929220 84142750
1314.26 75736190 68157270 61494780 55481430 50108610 45173900
1320.04 40843410 36992900 33661940 30652920 27945600 25414890
1325.83 23224120 21221100 19454650 17788250 16312070 14927790
1331.61 13739530 12660720 11773050 10970570 10359550 9829868
1337.40 9433018 9059216 8797418 8562308 8418272 8261768
1343.19 8167052 8067502 8017038 7950208 7950322 7951846
1348.97 8024308 8101368 8274462 8487076 8806406 9191034
1354.76 9734760 10368300 11165330 12081680 13163910 14281110
1360.54 15447600 16507280 17401150 18001400 18435670 18895450
1366.33 19813020 21080760 22177640 23046350 23723270 24485700
1372.11 25857620 27530300 29329180 31098880 32966270 34960330
1377.90 37350060 40208720 43712700 47783150 52382810 57143270
1383.68 61827180 66047800 69645720 72527450 75148070 77852240
1389.47 80770300 83247740 86283220 90635150 96499650 104649100
1395.25 114282800 124073600 134012000 144504000 156363100 169760600
1401.04 184517900 199691000 213990500 225449900 233283100 237253000
1406.83 239030600 241744400 247919300 248367500 242322800 239849300
1412.61 240000800 239244500 234714800 225174600 211866400 196753200
1418.40 179621000 160665400 140486100 120309200 101241800 84344760
1424.18 70045660 58539880 49548960 42831390 37900060 34375430
1429.97 31800660 29966580 28637520 27738050 27142310 26837810
1435.75 26753160 26883260 27134950 27524310 27987540 28542380
1441.54 29153900 29795730 30401480 30994910 31577720 32162590
1447.32 32753010 33494180 34487300 35781480 37090660 37962680
1453.11 38193260 38038370 37950880 38164120 38545640 39014540
1458.89 39407060 39623030 40021230 40894840 42015310 42715530
1464.68 43032510 43381980 43569950 43472200 43374370 43722810
1470.47 44185360 43350500 41714970 40814120 40492530 40224000
1476.25 39706740 38874910 37708830 36273980 34581040 32675880
1482.04 30514990 28166990 25786260 23719320 22281340 21616500
1487.82 21465880 21411310 21130550 20542270 19716650 18768790
1493.61 17756740 16759560 15781350 14875090 14050400 13320020
1499.39 12669450 12089530 11563770 11089930 10636630 10233270
1505.18 9851910 9493678 9162488 8881622 8628248 8403508
1510.96 8207882 8030798 7851952 7698484 7534604 7366736
1516.75 7187654 7006036 6828962 6659666 6493534 6320940
1522.53 6147134 5983422 5813332 5634366 5452780 5277962
1528.32 5091986 4913308 4753204 4610776 4471924 4351142
1534.11 4236132 4139618 4044502 3976278 3918080 3857598
1539.89 3787846 3739540 3704404 3673528 3651070 3643282
1545.68 3648248 3660094 3667792 3692936 3724522 3773854
1551.46 3830684 3894794 3973536 4048332 4131458 4230868
1557.25 4322596 4399012 4447102 4477364 4505006 4541524
1563.03 4593530 4663716 4716392 4752668 4783052 4815152
1568.82 4822356 4790054 4738242 4683512 4617508 4553700
1574.60 4520694 4501810 4481134 4476752 4484370 4503472
1580.39 4530486 4557154 4580990 4621702 4657374 4691042
1586.17 4723838 4767982 4812946 4873386 4955678 5040504
1591.96 5123012 5233766 5371200 5531000 5715768 5938950
1597.74 6179692 6437492 6731932 7079194 7472910 7933460
1603.53 8457314 9072062 9771676 10549660 11414540 12359640
1609.32 13367580 14451940 15624390 16890150 18251940 19671390
1615.10 21090730 22501770 23878590 25162770 26262520 27085150
1620.89 27581750 27893750 28264460 28984670 30197450 31782140
1626.67 33550080 35403560 37391280 39649560 42318000 45472410
1632.46 49098920 53086310 56928120 59948400 61485140 61227930
1638.24 59538070 57638810 56900950 56268560 53476370 51574740
1644.03 52810750 54416940 55831770 56623020 54866700 50149910
1649.81 43389120 35843560 28597280 22385890 17512770 13968280
1655.60 11533410 9947008 8903256 8195458 7695952 7310112
1661.38 6998212 6757476 6558426 6398416 6262786 6165842
1667.17 6104182 6064656 6044376 6055050 6086172 6134360
1672.96 6215032 6318308 6423230 6541488 6677592 6805490
1678.74 6898226 6978316 7072608 7194334 7336234 7508940
1684.53 7699424 7910232 8154908 8415558 8691002 8983578
1690.31 9281046 9605836 9952850 10326660 10758440 11246990
1696.10 11768140 12332540 12939290 13553460 14132870 14654940
1701.88 15069120 15323930 15422280 15454890 15621230 16204930
1707.67 17354000 18908120 20543260 22047450 23397380 24722240
1713.45 26182590 27879560 29897560 32375260 35416930 39143610
1719.24 43696640 49157480 55577280 63040210 71653600 81535080
1725.02 92806420 105634800 120121000 136458100 154788400 175222400
1730.81 197962400 223127200 250830700 281389600 314806100 350899200
1736.60 389467100 429979400 471287300 511646300 548492700 578421000
1742.38 597711400 603346400 595004400 576968600 558315000 548371000
1748.17 550840300 563537600 583551300 607116000 626634900 632482200
1753.95 619728500 590675700 550951600 506115600 459667400 414150700
1759.74 371292700 331757900 295899900 263455800 233978600 207122000
1765.52 182652700 160382100 140152200 121946800 105702200 91296780
1771.31 78659530 67711590 58275500 50239990 43456990 37783800
1777.09 33057440 29122590 25857970 23160730 20952720 19136730
1782.88 17639500 16398550 15347950 14466760 13748230 13131540
1788.66 12591180 12126180 11722580 11350120 10981640 10613270
1794.45 10270010 9942448 9631798 9342088 9088294 8886986
1800.24 8707544 8547284 8408670 8272778 8125136 7963898
1806.02 7796050 7617690 7444882 7271970 7107638 6951144
1811.81 6800196 6660680 6543940 6445646 6363096 6297712
1817.59 6251676 6226558 6225082 6233066 6212770 6159648
1823.38 6105676 6051966 6003430 5967060 5924752 5869102
1829.16 5804278 5726402 5646738 5555468 5442680 5325948
1834.95 5205086 5089896 4994700 4914428 4834780 4746020
1840.73 4636766 4494866 4342932 4198814 4062138 3933048
1846.52 3802418 3679512 3562152 3442404 3335984 3233354
1852.30 3124476 3026908 2947456 2879600 2820134 2754298
1858.09 2688006 2633360 2581118 2527900 2483826 2440918
1863.88 2398952 2369222 2352616 2346244 2349200 2363316
1869.66 2388526 2414752 2461698 2533796 2609928 2693056
1875.45 2798268 2912386 3033806 3162916 3296456 3425804
1881.23 3562192 3699934 3824518 3949178 4072618 4183536
1887.02 4288206 4373232 4431030 4473310 4514852 4561674
1892.80 4603090 4625130 4650402 4675184 4683472 4676956
1898.59 4661030 4633126 4594056 4561226 4547040 4566438
1904.37 4618874 4688026 4782506 4925094 5098306 5294986
1910.16 5531536 5797306 6090830 6432838 6810398 7210568
1915.94 7631816 8072414 8532698 9010436 9495764 9988960
1921.73 10503420 11059990 11703660 12436610 13237710 14045520
1927.51 14736520 15187910 15350810 15232410 14929520 14543710
1933.30 14135370 13685010 13185120 12811970 12707890 12720770
1939.09 12528990 11997270 11186010 10211230 9197370 8241576
1944.87 7398074 6689118 6123418 5688752 5372036 5151828
1950.66 5000582 4882922 4819676 4821906 4823506 4753434
1956.44 4594470 4389980 4170556 3958786 3766200 3586938
1962.23 3427250 3299120 3183940 3078954 2984246 2904750
1968.01 2840304 2777836 2730190 2695262 2653166 2592680
1973.80 2528848 2477930 2438150 2408198 2397182 2394962
1979.58 2395962 2401872 2409508 2407106 2391072 2362838
1985.37 2333908 2313718 2297058 2268030 2231544 2204708
1991.15 2193416 2184804 2167210 2123694 2053696 1974016
1996.94 1898892 1816078 1734088 1673762 1632818 1593364
2002.73 1566370 1542124 1524632 1521092 1516354 1505332
2008.51 1502850 1503498 1506674 1523088 1553930 1577166
2014.30 1596494 1627528 1658986 1688580 1714886 1751420
2020.08 1795742 1837214 1881366 1934892 1993678 2059710
2025.87 2128736 2204222 2290570 2374518 2458536 2559646
2031.65 2674586 2806018 2946082 3108856 3299782 3507000
2037.44 3740574 3999876 4296244 4633510 4982476 5346506
2043.22 5721388 6093350 6449038 6772864 7068800 7342138
2049.01 7588134 7812230 8023556 8234284 8436126 8601408
2054.79 8712382 8788682 8840602 8827516 8720778 8498002
2060.58 8183124 7820604 7459126 7107296 6780350 6482774
2066.37 6199852 5925594 5658728 5384892 5102734 4829526
2072.15 4586040 4362944 4152432 3956038 3785532 3634746
2077.94 3497626 3378668 3271496 3191802 3137306 3093684
2083.72 3060516 3051872 3047112 3049892 3060434 3065332
2089.51 3063982 3063424 3064814 3059164 3046652 3016546
2095.29 2984454 2963018 2938964 2902950 2862502 2824788
2101.08 2776550 2718110 2659016 2592448 2530976 2475370
2106.86 2429228 2391860 2360150 2347216 2337906 2333978
2112.65 2339336 2343532 2349676 2368350 2395352 2406390
2118.43 2408516 2417808 2426260 2430244 2430288 2433092
2124.22 2436640 2433968 2423210 2423644 2420944 2405238
2130.01 2380972 2354736 2325320 2284774 2250556 2218244
2135.79 2182108 2142026 2089984 2046680 2017212 1982944
2141.58 1937926 1895586 1865286 1825876 1788610 1750256
2147.36 1723460 1701378 1669526 1649544 1641098 1631654
2153.15 1629662 1631364 1638486 1657436 1667682 1682458
2158.93 1704650 1717022 1720180 1721106 1723940 1704686
2164.72 1670190 1635816 1600606 1564164 1532250 1495406
2170.50 1448040 1403182 1361384 1312354 1252664 1185272
2176.29 1120562 1062260 1004176 954720 929076 905698
2182.07 884162 875044 874330 868186 864716 869452
2187.86 871686 866666 878318 887704 894610 895782
2193.64 890142 885184 891040 895094 898852 891550
2199.43 877454 871714 859586 850868 842172 833370
2205.22 826438 815336 813082 809620 810192 807686
2211.00 799032 801974 808394 799254 800302 815800
2216.79 831802 841812 858662 872232 885946 909298
2222.57 926164 935186 939478 940718 929188 928088
2228.36 933960 946222 967270 991370 1012336 1024298
2234.14 1024900 1024100 1021474 1013102 1007540 1004852
2239.93 1005916 1008230 1008146 1014714 1027504 1028792
2245.71 1031748 1033278 1029614 1024232 1021706 1012762
2251.50 1007620 1000114 992058 990052 997388 1002374
2257.28 1008262 1014266 1022560 1027958 1033518 1046366
2263.07 1062824 1075666 1074404 1070614 1068396 1063258
2268.86 1062958 1055036 1047592 1046824 1047558 1056088
2274.64 1056712 1042606 1044206 1041424 1038386 1042948
2280.43 1042898 1039174 1028978 1016922 1011944 1009898
2286.21 1010582 1015626 1024272 1016512 1008190 1029012
2292.00 1056048 1072810 1086772 1108854 1133422 1163758
2297.78 1194948 1220220 1243650 1279432 1309592 1335892
2303.57 1370018 1400120 1434766 1477574 1517812 1545784
2309.35 1579158 1616030 1647368 1680730 1699198 1705478
2315.14 1709656 1707324 1707384 1707326 1707902 1715342
2320.92 1711774 1700118 1687866 1687366 1678010 1651754
2326.71 1612990 1578306 1549936 1517538 1470850 1429774
2332.50 1393104 1363126 1334646 1300556 1281406 1276878
2338.28 1262466 1227586 1188398 1157090 1120492 1093832
2344.07 1078340 1073372 1074340 1076748 1102240 1138250
2349.85 1166564 1206184 1259528 1316204 1388422 1466146
2355.64 1543650 1625668 1705976 1771832 1836906 1896532
2361.42 1958604 2027412 2094448 2162298 2236976 2326428
2367.21 2427490 2531446 2630362 2725370 2823294 2924790
2372.99 3028172 3120978 3207556 3298408 3401920 3507838
2378.78 3601910 3686456 3766412 3829972 3881250 3909072
2384.56 3929388 3967052 3980922 3963920 3937014 3899906
2390.35 3845026 3763484 3649010 3523848 3368118 3182684
2396.14 3001200 2824148 2664386 2526730 2394258 2264386
2401.92 2153584 2054310 1965182 1882860 1805738 1743604
2407.71 1698090 1654278 1626032 1596440 1570022 1562296
2413.49 1549354 1534858 1526770 1511988 1493038 1477380
2419.28 1463690 1451346 1438628 1421420 1407136 1387988
2425.06 1368956 1341642 1300086 1250678 1207622 1163168
2430.85 1119014 1077984 1043520 1013200 971032 923170
2436.63 894676 864938 830626 799932 780246 758590
2442.42 740238 716406 692700 679722 666738 665054
2448.20 672762 662660 647990 647850 663618 673762
2453.99 681320 687284 706658 736418 751260 776018
2459.77 809112 840264 869588 904812 955238 1014160
2465.56 1069650 1102876 1135074 1178818 1226068 1262794
2471.35 1301880 1334532 1365506 1393016 1421086 1445502
2477.13 1470502 1486634 1503514 1518686 1511280 1504118
2482.92 1501608 1493450 1488476 1474744 1465474 1447144
2488.70 1439062 1433496 1415572 1387392 1364352 1340024
2494.49 1323356 1313794 1300894 1276200 1254274 1228488
2500.27 1197924 1162504 1132178 1099642 1057628 1021166
2506.06 991400 951712 914010 886012 866386 846986
2511.84 824126 802170 788070 775500 746748 735822
2517.63 735324 731868 737964 733446 731042 739612
2523.41 751664 771592 790950 802164 817722 831896
2529.20 850910 879956 904794 925380 948604 978914
2534.99 1009660 1032968 1044458 1045884 1059250 1075616
2540.77 1093810 1095090 1102762 1119928 1126748 1117662
2546.56 1122430 1127306 1122464 1112884 1114676 1115332
2552.34 1121170 1121996 1111576 1102750 1091318 1073452
2558.13 1041420 1007492 979114 939842 909188 880856
2563.91 850778 824048 811476 794278 778368 748094
2569.70 713632 674568 632272 594450 570398 548492
2575.48 536024 527144 524598 521772 526540 521268
2581.27 508462 513990 526626 545468 567444 589464
2587.05 625698 645674 664506 691080 726474 758008
2592.84 783040 807162 831966 853264 875222 894700
2598.63 921508 938610 953964 973896 987428 988384
2604.41 985968 986060 977700 955256 942410 953166
2610.20 969706 959678 950740 943938 933534 909782
2615.98 882470 865068 854292 836220 816378 795364
2621.77 775682 761170 753324 733918 712810 693418
2627.55 684806 668674 668136 671698 667502 656812
2633.34 651844 649082 656422 675094 690474 697136
2639.12 712024 729642 732470 743092 760740 779636
2644.91 794368 799296 817308 843796 864150 885526
2650.69 899680 909016 928422 941862 961380 978878
2656.48 1001506 1023518 1055864 1070776 1079358 1081986
2662.27 1089750 1088748 1087728 1093964 1101094 1106828
2668.05 1119762 1120038 1126502 1136388 1139418 1120242
2673.84 1109762 1097620 1082776 1053832 1036494 1042330
2679.62 1040124 1023546 1021550 1033992 1034826 1035530
2685.41 1045770 1046584 1047042 1056776 1085358 1104462
2691.19 1125192 1165890 1204278 1245140 1301288 1366034
2696.98 1416978 1459202 1496506 1514892 1550276 1568452
2702.76 1580164 1594282 1609500 1630512 1638116 1637116
2708.55 1630048 1620768 1597886 1576396 1555398 1520374
2714.33 1495250 1465952 1433410 1416244 1426320 1435568
2720.12 1446898 1447920 1442348 1440064 1454408 1450744
2725.91 1455808 1462764 1483194 1505310 1521374 1543134
2731.69 1583690 1624528 1631776 1603934 1586132 1569662
2737.48 1541430 1503610 1471618 1453080 1440384 1416200
2743.26 1418546 1427564 1437822 1456924 1486886 1509236
2749.05 1516102 1531088 1546670 1551552 1554564 1561628
2754.83 1574828 1586350 1622488 1679736 1759428 1800268
2760.62 1842760 1903676 1969514 2018410 2080376 2130220
2766.40 2162168 2188072 2212012 2224956 2240322 2248558
2772.19 2241302 2204376 2172756 2139712 2109498 2081496
2777.97 2048700 1991842 1922178 1848968 1775304 1708024
2783.76 1656428 1594918 1550772 1517052 1509768 1515716
2789.54 1522880 1521688 1539478 1560252 1573604 1602070
2795.33 1625828 1630638 1644922 1676078 1711206 1727950
2801.12 1758110 1799936 1843728 1884556 1934230 1984100
2806.90 2040228 2090808 2141480 2193892 2270302 2348228
2812.69 2433912 2511604 2612948 2743274 2866096 2975006
2818.47 3110874 3242840 3347890 3423346 3489898 3531776
2824.26 3560194 3577470 3602320 3630226 3669966 3702060
2830.04 3731016 3767950 3802286 3791762 3776394 3752034
2835.83 3728424 3724130 3733704 3720350 3730316 3727524
2841.61 3731926 3759516 3797334 3833584 3874190 3898270
2847.40 3932654 3979532 4026750 4069162 4126074 4180352
2853.18 4248998 4327708 4412848 4481654 4549214 4607568
2858.97 4684766 4763172 4849550 4960980 5109814 5294638
2864.76 5501392 5709536 5954976 6252794 6603926 7017148
2870.54 7522626 8134582 8871822 9742464 10776160 11973670
2876.33 13326390 14742020 16167400 17484530 18582610 19343340
2882.11 19808520 20119570 20506680 20995080 21571600 22192620
2887.90 22812420 23346350 23791140 24107480 24279970 24303710
2893.68 24265000 24155930 24087630 24085660 24181770 24404490
2899.47 24798420 25372470 26110520 26855590 27595960 28340980
2905.25 29137570 29949630 30763980 31539490 32249330 32830230
2911.04 33350230 33789900 34141570 34334020 34239390 33725500
2916.82 32961300 32239070 31724180 31460580 31426230 31511700
2922.61 31606050 31575930 31405140 31083890 30718620 30341420
2928.40 30088090 30010840 30263290 30925300 32055680 33586720
2934.18 35494640 37670800 39986310 42221210 44193480 45767110
2939.97 47160740 48700830 50590790 52059880 52798910 53671850
2945.75 55146120 56970110 58405620 58488830 57814580 57324400
2951.54 56947120 56455490 55932380 55384070 54360100 53106440
2957.32 52414100 52194000 52202750 52255930 52684350 53579920
2963.11 55042220 56721910 57344490 57071610 57516720 58948460
2968.89 60854240 62776100 65210030 68577470 72874190 77912380
2974.68 83639380 89816700 96332420 102912000 109519200 116220500
2980.46 123638400 132020000 139057700 141326700 141664100 142485000
2986.25 143461900 144618600 146724100 148480700 149077100 151322100
2992.04 158024100 171309400 184495400 176627500 157315700 144286000
2997.82 135557500 128552200 121970700 115544200 109248000 103271400
3003.61 97257610 91721620 86870820 82671010 78836450 75260490
3009.39 71301900 66907170 62144150 57296820 52430920 47754060
3015.18 43309320 39274690 35601030 32337340 29366810 26707160
3020.96 24329610 22258240 20424870 18890480 17564660 16499160
3026.75 15589090 14825120 14172620 13715150 13397160 13224250
3032.53 13173420 13239250 13374990 13687270 14162360 14855440
3038.32 15713980 16708910 17698610 18571820 19178950 19457300
3044.10 19355540 18992500 18607090 18482320 18563670 18338460
3049.89 17769340 17624580 17836300 18044340 17903730 17263340
3055.67 16130100 14702090 13135050 11628650 10251500 9094062
3061.46 8174450 7497950 6972602 6601614 6342874 6222590
3067.25 6179126 6194768 6245516 6355504 6488648 6648412
3073.03 6786186 6945644 7086924 7204562 7293086 7370710
3078.82 7389298 7335840 7236220 7132548 7048224 7036654
3084.60 7006336 6987090 7044530 7091308 7007866 6813196
3090.39 6525558 6234072 5919498 5628240 5394470 5240012
3096.17 5166102 5205718 5379598 5727428 6288416 7100310
3101.96 8169316 9500042 11050360 12738040 14290810 15428820
3107.74 15873970 15441280 14217510 13004080 13129840 14555960
3113.53 15603910 15416810 14256000 14396190 15468240 16062870
3119.31 15776390 14686530 13011030 11129320 9291802 7632976
3125.10 6265626 5217188 4437532 3857330 3423418 3139578
3130.89 2929982 2768634 2626806 2490766 2377298 2297838
3136.67 2226498 2161560 2092082 2051128 2031050 2036360
3142.46 2033366 2046422 2055656 2063304 2085528 2108022
3148.24 2114522 2136146 2145004 2144730 2128174 2114498
3154.03 2112518 2105462 2082956 2066540 2036086 2021526
3159.81 1996946 1968332 1923718 1893686 1866568 1854872
3165.60 1820686 1784612 1744178 1711772 1688998 1667586
3171.38 1633528 1613320 1584378 1551362 1509018 1492926
3177.17 1476574 1440100 1407378 1381726 1372750 1365020
3182.95 1327268 1300644 1256630 1246958 1231356 1204642
3188.74 1173852 1160814 1150428 1140776 1112114 1105458
3194.53 1091294 1055620 1042828 1048868 1038170 1024852
3200.31 1020976 1007640 1003540 990038 971148 973574
3206.10 958950 935520 927870 921088 914624 924124
3211.88 916604 911896 904912 907796 915002 918938
3217.67 895766 899372 915258 922928 924654 933142
3223.45 958196 972800 973528 992302 999874 994190
3229.24 1005280 1018728 1023178 1039562 1059514 1074810
3235.02 1061884 1050336 1049158 1051052 1043204 1039868
3240.81 1052850 1057188 1058176 1049686 1022534 996630
3246.59 967390 958864 927244 886484 853942 827970
3252.38 780916 729870 693704 677610 656794 611974
3258.17 546842 500260 470862 431812 388388 360134
3263.95 320406 295854 273264 246926 223530 195998
3269.74 170204 155164 142216 119300 106758 119622
3275.52 113354 109804 103408 84548 81364 78114
3281.31 37764 15094 13820 35442 42686 20344
3287.09 2492 2500-2530-21494-31408-29862
3292.88-27140-36674-47430-46404-69582-70298
3298.66-59470-43708-25552-15330-19802-9726
3304.45 11564 44312 53726 60060 66746 102320
3310.23 135988 148320 142924 171572 192450 203056
3316.02 209188 200748 220910 237510 236042 243654
3321.80 254552 269968 281704 280100 273772 286174
3327.59 309244 328102 330344 334068 339310 345092
3333.38 338174 356264 362672 353620 362366 373488
3339.16 381806 390728 402748 422322 446546 471522
3344.95 475166 479946 492796 527552 566494 597038
3350.73 597766 597838 634620 675734 686526 703464
3356.52 734804 758556 781720 807498 821504 840354
3362.30 860844 879012 881696 877746 872230 860096
3368.09 865298 880326 878134 856676 843864 861648
3373.87 863588 856866 859464 872572 876448 901288
3379.66 930128 952994 979128 999802 988642 994810
3385.44 1014068 1019806 997862 974328 934462 897840
3391.23 864496 841852 855602 862004 841630 835778
3397.02 810816 721596 619640 552446 504338 450046
3402.80 375152 307464 250134 230298 219980 220736
3408.59 222720 213860 212358 201998 188428 187580
3414.37 190550 184606 160996 170832 159600 135178
3420.16 142618 131180 125588 128810 126192 125610
3425.94 138354 148928 151250 145082 111924 119248
3431.73 132590 123912 121124 139278 153084 146912
3437.51 157274 169662 174382 181642 180146 188364
3443.30 219606 225852 255760 330840 378848 430364
3449.08 486916 567026 661356 772704 874382 1007188
3454.87 1151484 1303272 1488292 1712472 1941314 2172222
3460.66 2412896 2692828 3009330 3343328 3660830 4013300
3466.44 4379892 4734526 5098736 5435454 5743328 6045814
3472.23 6273408 6449442 6566802 6609568 6599518 6585402
3478.01 6587362 6663662 6784090 6895580 6955986 6920136
3483.80 6805886 6605958 6307936 5925936 5487534 5042212
3489.58 4619540 4214912 3802046 3404342 3027260 2670044
3495.37 2320346 2013654 1737736 1479992 1232510 1023472
3501.15 857672 708212 555268 423432 301478 190012
3506.94 109818 59992 11932-33398-78686-118222
3512.72-142090-174902-206496-223502-234096-229578
3518.51-215316-213112-231366-239386-254250-271730
3524.30-263502-254306-243922-241070-236638-242526
3530.08-249276-242320-249482-261866-251796-215998
3535.87-214530-212864-191070-196922-208398-182644
3541.65-162626-145178-138658-149860-143586-129470
3547.44-103428-87258-81894-69590-66894-57236
3553.22-32002-17686-19464-8476 20588 38616
3559.01 53160 62326 44574 40548 68642 87020
3564.79 73226 67534 75072 83668 78178 67480
3570.58 70972 69954 73446 80506 64536 32478
3576.36 22064 22886 6468 6816 14544 24046
3582.15 28838 31140 18596-682-2308-2638
3587.94-18856-16674 7680 26200 13390 11210
3593.72 29090 47166 49292 35420 21114 29100
3599.51 10530 16700 33072 41488 37912 35004
3605.29 55730 62170 38938 47670 55872 49200
3611.08 54706 59680 49772 41924 45818 44852
3616.86 40226 47730 51724 47068 28760 41206
3622.65 30516 13750 24144 44572 39312 36768
3628.43 44156 30098 20572 28290 25354 21760
3634.22 20388 12460-626 19718 38420 30514
3640.00 14532 4416 5964 16072 14512 15186
3645.79 2702-8348 5184 23060 18676 21368
3651.57 6636-5478-3304 23108 33366 1260
3657.36-13496-7228 2280 15210 20040 21652
3663.15 15692 21430 33752 16818 3326 11414
3668.93 16616 26484 26850 19352 10914 13478
3674.72 33610 22352 3522 22096 24290 23764
3680.50 18956 11286-170 6232 17700 26812
3686.29 34904 50772 34448 15536 23714 41182
3692.07 41508 33184 20576 32314 39332 33376
3697.86 24306 34588 37862 47626 47882 53050
3703.64 52292 47974 61214 49214 45998 52372
3709.43 63952 64484 49070 54748 77376 89474
3715.21 90762 93398 105402 108626 104372 112112
3721.00 99330 106706 118518 120418 116098 114174
3726.79 119130 125048 115634 124298 142192 158542
3732.57 155676 141862 127906 126574 126874 137826
3738.36 156586 152066 150426 152480 150906 176354
3744.14 188750 167538 162050 166308 182404 185420
3749.93 188110 210268 212416 198298 187798 200662
3755.71 209922 219440 225064 254464 252216 251874
3761.50 272706 276666 286166 295440 299526 314582
3767.28 314656 321820 330568 327206 336930 344250
3773.07 347058 347970 341088 340410 332702 326562
3778.85 333790 330648 309442 313056 325632 315694
3784.64 298566 292200 276218 258256 260404 270112
3790.43 262118 253108 235130 219114 214754 223964
3796.21 234096 217022 187800 196248 213176 210982
3802.00 196818 198038 189426 170404 168484 162888
3807.78 160136 150948 139246 135886 141638 156542
3813.57 154908 137674 143592 146526 133654 118268
3819.35 119122 129140 133700 128600 127140 138660
3825.14 152508 159610 141848 134510 153702 163452
3830.92 153728 163930 177530 183122 176766 183370
3836.71 203860 200376 199248 215088 216822 202400
3842.49 187608 183376 187646 201910 202252 187720
3848.28 185722 194218 208290 216532 197024 201880
3854.07 185082 169844 179164 173902 161728 149332
3859.85 142478 144578 134764 133154 145956 130346
3865.64 122122 148790 156852 146806 138538 138060
3871.42 124574 137226 143450 128782 128302 136138
3877.21 128652 116900 116898 131866 144810 150144
3882.99 159062 168552 160948 160594 163160 175574
3888.78 177636 169940 166082 163798 186160 193474
3894.56 185846 178440 170514 183812 205606 201354
3900.35 194244 204978 214538 216284 200802 204940
3906.13 199166 193940 172998 166884 178354 186292
3911.92 197770 201296 200656 178982 167148 156830
3917.70 149876 152384 152674 145242 126836 113164
3923.49 120422 125318 113102 107682 99004 101186
3929.28 111708 117368 113088 121642 113852 104972
3935.06 104244 102952 110654 126876 127056 105032
3940.85 100782 123958 147078 145778 146194 169306
3946.63 185102 195568 175610 164960 174924 178186
3952.42 192960 201466 201584 211916 207286 191514
3958.20 197964 211154 226062 236022 235826 258620
3963.99 284054 286098 285934 292588 303854 318086
3969.77 327808 348042 358196 361548 365722
##END=
