##TITLE=Ethyl Acrylate
##JCAMP-DX=4.24
##DATA TYPE=INFRARED SPECTRUM
##CLASS=IUPAC A
##ORIGIN=NIST, Anayltical Chemistry Division, 301-975-3108
##OWNER=COPYRIGHT (C) 1998 by the U.S. Secretary of Commerce
##DATE=98/10/1
##$SPECTRA VERSION=1.00
##$UNCERTAINTY IN Y=2.0 % relative (B=1.0E-04,C=3.0E-10,D=2.7E-14)
##CAS NAME=Ethyl Ester-Propenoic Acid
##CAS REGISTRY NO=140-88-5
##MOLFORM=C H2: C H C O2 C2 H5
##MP=-71.2 C
##BP=99.8 C
##$NIST SOURCE=QUANT-IR
##SPECTROMETER/DATA SYSTEM=IFS66V (Bruker)
##INSTRUMENT PARAMETERS=KBr Beam splitter; MCT Detector; Multipass cell
##STATE=gas
##SAMPLE DESCRIPTION=Ethyl Acrylate Primary Gas Standard
##PRESSURE=101.3 kPa
##TEMPERATURE=23 C
##SAMPLING PROCEDURE=1 L/min Flow
##RESOLUTION=0.9640
##DATA PROCESSING=NB Strong Apodization
##XUNITS=cm-1
##YUNITS=(micromol/mol)-1m-1 (base 10)
##XFACTOR=1.0
##YFACTOR=18.189E-13
##DELTAX=0.4820
##FIRSTX=575.169
##LASTX=3975.077
##FIRSTY=4.64E-07
##MAXX=3974.59
##MINX=575.17
##MAXY=.0020843
##MINY=-5.14E-07
##NPOINTS=7053
##XYDATA=(X++(Y..Y))
575.17 255484 244582 396504 480356 488108 429738
577.58 453836 524290 469490 336326 278874 378234
580.47 336020 351884 332878 248524 340046 505378
583.37 419598 345348 372992 285350 376026 293368
586.26 184996 249294 399146 466720 429692 332976
589.15 438914 589446 545288 573462 734818 734868
592.04 616960 675544 666126 644484 639808 671796
594.94 811164 940366 989736 964050 1037594 1299176
597.83 1488606 1569754 1679344 1715208 1742546 1947082
600.72 2206918 2469426 2624688 2737702 2813698 2879506
603.61 2994050 3130888 3157796 3206136 3290162 3211096
606.51 3120510 3099816 3129082 3311594 3626914 4093098
609.40 4635744 4961326 4476694 3907478 3726328 3800002
612.29 3948044 4100740 4250556 4415864 4565102 4625232
615.18 4616726 4617482 4641166 4504590 4347684 4269342
618.08 4090830 3897538 3746250 3620274 3463662 3301018
620.97 3178568 3093324 3003956 2927300 2867226 2753860
623.86 2609998 2550672 2471682 2416014 2391454 2331112
626.76 2271558 2278942 2243042 2239470 2211072 2088082
629.65 1986694 1892238 1843088 1770570 1639418 1565958
632.54 1554718 1564226 1571648 1541618 1511146 1554784
635.43 1562018 1580112 1658162 1740050 1779066 1859540
638.33 1977282 2028602 2164274 2291524 2340886 2383956
641.22 2519672 2674036 2787078 2916428 3033328 3182374
644.11 3357110 3481100 3688884 3927334 4201696 4431354
647.00 4592010 4857640 5127326 5327114 5600076 5890934
649.90 6191216 6460980 6702608 7049870 7423474 7752796
652.79 8081338 8368834 8646098 8910764 9186744 9455626
655.68 9728640 9962786 10233170 10401390 10407420 10487060
658.58 10602970 10810780 10956360 11063660 11123160 11179200
661.47 11341180 11497780 11610500 11725430 11788270 11829320
664.36 11905480 12028200 12105040 12138970 12151270 12142190
667.25 12112490 11979550 11827640 11682310 11473190 11180010
670.15 10914670 10658720 10356170 10027600 9712050 9391456
673.04 9002848 8627554 8339054 8048874 7690634 7382952
675.93 7179676 6976682 6817078 6652242 6508450 6425970
678.82 6297788 6078866 5884140 5715728 5501348 5235342
681.72 4968480 4676728 4370194 4092062 3821664 3527802
684.61 3297114 3146708 2915428 2692268 2495768 2318322
687.50 2196026 2027122 1885332 1768030 1700004 1656990
690.40 1537024 1447892 1350514 1260448 1172292 1115944
693.29 1100488 1063520 977200 884928 835946 809864
696.18 804616 791060 741976 698772 649224 604044
699.07 621992 630790 599300 564874 539536 525178
701.97 508074 514572 518102 533438 499204 468476
704.86 436920 456402 471396 456058 452994 450226
707.75 455150 459848 442998 426470 420814 421788
710.64 426278 450154 487734 537088 504648 428160
713.54 468898 521190 502908 496224 546424 582864
716.43 554152 503084 500670 511350 502012 497566
719.32 521636 543358 553762 553622 566780 588172
722.22 581640 579596 587208 582472 594908 599944
725.11 604286 586908 550996 570596 614270 605472
728.00 630578 637262 707472 751656 741714 717826
730.89 708790 719464 718244 715366 699700 718460
733.79 748922 770176 783944 810010 814312 806686
736.68 818494 859284 853018 838144 823254 823160
739.57 858462 898166 906110 924314 936522 941498
742.46 923370 935674 988186 1006096 998670 1024346
745.36 1050294 1034162 1031228 1051888 1073014 1088864
748.25 1115928 1153238 1191734 1197768 1193376 1217600
751.14 1225316 1198456 1224890 1254256 1284370 1341992
754.04 1340124 1337388 1381506 1411274 1400460 1415504
756.93 1443880 1472992 1512648 1539540 1548316 1581852
759.82 1633880 1686802 1710804 1704514 1746124 1810388
762.71 1826238 1868608 1941474 1989950 2060898 2133844
765.61 2204558 2265804 2353122 2480260 2590138 2650682
768.50 2731694 2867716 3020208 3149190 3276060 3400736
771.39 3562614 3727074 3921088 4148946 4341204 4539884
774.28 4800012 5023898 5275902 5555102 5843998 6151964
777.18 6471182 6797878 7129074 7504720 7886146 8280522
780.07 8699258 9113094 9513272 9984272 10487560 10979660
782.96 11447390 11879690 12363770 12901360 13494040 14115160
785.86 14767870 15565650 16467480 17366370 18238760 19123630
788.75 20039760 20900360 21735280 22622490 23569590 24547030
791.64 25585530 26631430 27602710 28468180 29460400 30590440
794.53 31808570 33032540 34250640 35455920 36615220 37794000
797.43 39006810 40222090 41495680 42771090 43945520 45039290
800.32 46277020 47697100 49256000 50929050 52803100 54712480
803.21 56522170 58245060 60409480 61853760 61784350 61546220
806.10 61633610 62149270 62742770 63338220 64129300 65232070
809.00 66483050 67963220 69807890 71694890 73104930 74090400
811.89 74437240 73944820 72702550 71691810 71142290 69965050
814.78 68516160 67289140 65699580 64057790 62878490 62331300
817.68 61576610 59854330 57830690 56582300 55715640 54521290
820.57 52794760 50703730 48649620 46833120 45423340 44126920
823.46 42815920 41551030 40252110 38959150 37677620 36379890
826.35 35071400 33753700 32434600 31126390 29843810 28595150
829.25 27390540 26182890 24943630 23795900 22742550 21711760
832.14 20700310 19728040 18855210 18003460 17184170 16456870
835.03 15771030 15186780 14610470 14088160 13663010 13263090
837.92 12892700 12598000 12345830 12172500 12056450 11973040
840.82 11917130 11923890 12026940 12127580 12251640 12427900
843.71 12626650 12902690 13212200 13518630 13884950 14266380
846.60 14690310 15144920 15602380 16074630 16567020 17064000
849.50 17560500 18048940 18542040 19064460 19587850 20077540
852.39 20505240 20902860 21303620 21713320 22079280 22408070
855.28 22740100 22991880 23079870 23054330 23018740 23017760
858.17 23027100 23060400 23194290 23394460 23547000 23599060
861.07 23561260 23522910 23516270 23510420 23446980 23335660
863.96 23152340 22931610 22664610 22303970 21941670 21541620
866.85 21102890 20642500 20153250 19654810 19160100 18655260
869.74 18191430 17716380 17220130 16738660 16262100 15792690
872.64 15283700 14751610 14212230 13673730 13166160 12660430
875.53 12152830 11656370 11186950 10758360 10342590 9952142
878.42 9584666 9227736 8907908 8613754 8326544 8055426
881.31 7822266 7655812 7511636 7356596 7237022 7125536
884.21 7029092 6984980 6968230 6936934 6902260 6930600
887.10 7038058 7140914 7227756 7371728 7555332 7743724
889.99 7969330 8214154 8464224 8740360 9020122 9324878
892.89 9608614 9859196 10114430 10355050 10573160 10754030
895.78 10896010 11036350 11147160 11233130 11328050 11439520
898.67 11607570 11741830 11833660 11943330 12016710 12073900
901.56 12169760 12286330 12426980 12581050 12719930 12845580
904.46 12966260 13094680 13223850 13367440 13485340 13586280
907.35 13680950 13783240 13866390 13942130 13965060 14010450
910.24 14061720 14084350 14104730 14095110 14055650 13991070
913.13 13884830 13737190 13544830 13330630 13095050 12809300
916.03 12518380 12244070 11961340 11727210 11561170 11483620
918.92 11456640 11430290 11345050 11165460 11018740 10972540
921.81 10993950 11059600 11117690 11123070 11065740 10944760
924.71 10770700 10535830 10230960 9889140 9547170 9210244
927.60 8889570 8588448 8289816 8019190 7772334 7559548
930.49 7408876 7280464 7183974 7129082 7113272 7113854
933.38 7151056 7224102 7299166 7394262 7519944 7665120
936.28 7865290 8103152 8369782 8657230 8964258 9313340
939.17 9693426 10129460 10621790 11179510 11756520 12362830
942.06 13048400 13793650 14574750 15404690 16298190 17242520
944.95 18232030 19267240 20367210 21504360 22665190 23898450
947.85 25183270 26494870 27822430 29161790 30559720 31975030
950.74 33379880 34812150 36288590 37758840 39206090 40621280
953.63 41992600 43289960 44568110 45890170 47258360 48659040
956.53 50099100 51586070 53164000 54815000 56682390 58918420
959.42 61824110 65761040 71234020 78547030 87267020 95338440
962.31 99334280 95693750 85218360 76121780 73563420 75694900
965.20 79927160 85442170 91662520 97285720 100016200 97509050
968.10 90139300 82783630 79902810 80021590 80982160 82140710
970.99 83274290 84324170 85288910 86172890 86969700 87693140
973.88 88373580 88973780 89441060 89830780 90155180 90376190
976.77 90535620 90624920 90668220 90658060 90630610 90546800
979.67 90403690 90165370 89927500 89648540 89371420 89199340
982.56 89217410 89548900 90337090 91712590 94099660 98105220
985.45 104387700 112406700 119173200 119497800 111759600 99334250
988.35 89137340 85254040 84838200 85509300 86477920 87306380
991.24 87325900 86038770 82700750 78056210 73587590 70150420
994.13 67965820 66384390 64957000 63572760 62092210 60537320
997.02 58926090 57275260 55623350 53993010 52338830 50676190
999.92 49004600 47323960 45639830 43986700 42350720 40744670
1002.81 39135160 37580990 36072560 34610480 33160620 31768140
1005.70 30435560 29165180 27976240 26881890 25860640 24939950
1008.59 24096460 23344710 22686730 22107950 21584300 21184620
1011.49 20831180 20554700 20392740 20265110 20207670 20281010
1014.38 20444110 20722850 21093710 21583690 22185170 22899500
1017.27 23693290 24611370 25661260 26853260 28184220 29635360
1020.17 31248220 33036390 34949360 37020100 39252830 41633160
1023.06 44168720 46857900 49648370 52620160 55712380 58856240
1025.95 62075340 65357630 68650660 71938100 75201060 78422380
1028.84 81562160 84605250 87438060 90093110 92502860 94623600
1031.74 96580180 98270320 99823220 101372900 102997500 104805700
1034.63 106607800 107871500 108228600 108234200 108724200 109786000
1037.52 111284700 113081800 114975200 116635500 117697700 117990000
1040.41 117497500 116355300 115020900 113894500 112865900 111402900
1043.31 109440000 106463400 103037700 100068800 97504800 95172110
1046.20 93112340 91192000 89341050 87570540 85871250 84354540
1049.09 83086870 82075120 81303290 80869600 80806700 81168210
1051.99 81901390 83037740 84605870 86570110 88946510 91737230
1054.88 94862780 98368870 102249700 106418900 110840800 115507100
1057.77 120408300 125403900 130344800 135157000 139858600 144275900
1060.66 148260100 151902000 155246500 158177000 160654800 162613600
1063.56 164271500 165696300 166942400 168255300 169741700 171555700
1066.45 173928500 176848700 179788700 182265100 183999200 184987700
1069.34 185669600 185235400 182454700 179665600 178661200 178985700
1072.23 179781100 180353300 180259300 179167600 177023900 173866900
1075.13 169566900 164207100 158271100 151856300 144726500 137420900
1078.02 130469300 124003900 117586500 111501300 105979200 100866800
1080.91 96085820 91691150 87715610 84090630 80779540 77723100
1083.81 75022210 72534850 70134180 67921800 65968510 64234280
1086.70 62678870 61382100 60370500 59590900 59025400 58638650
1089.59 58435160 58400310 58537050 58833350 59259150 59709540
1092.48 60202150 60745820 61243210 61694020 62082430 62318230
1095.38 62448940 62452360 62352400 62223600 62082840 61993900
1098.27 61970090 62051220 62244270 62491160 62595540 62469060
1101.16 62110060 61453040 60870360 60627940 60447710 60164520
1104.05 59799030 59426410 59084960 58787180 58417350 57926150
1106.95 57304320 56542520 55594790 54458970 53262510 52006220
1109.84 50610980 49161610 47709380 46230050 44759560 43359910
1112.73 41987800 40635980 39322530 38092580 36922640 35817720
1115.63 34761640 33750870 32784180 31895320 31061120 30265950
1118.52 29549350 28913650 28238520 27575300 27006580 26604960
1121.41 26388220 26263970 26152300 26070190 25965080 25809280
1124.30 25621610 25387270 25059820 24650090 24170510 23654510
1127.20 23117300 22573650 22039900 21497780 20970100 20466150
1130.09 19980980 19533090 19141580 18799890 18497300 18230600
1132.98 17975890 17745580 17531450 17378320 17265250 17169670
1135.87 17089910 17037120 17009540 17013730 17017620 17048340
1138.77 17111000 17180780 17264270 17368580 17468550 17572390
1141.66 17706750 17873490 18038420 18212340 18412280 18619560
1144.55 18827520 19029420 19264880 19513500 19745830 20005890
1147.45 20295140 20595390 20923740 21297440 21705870 22129470
1150.34 22579980 23081010 23601730 24178800 24800860 25447770
1153.23 26163620 26925500 27688970 28511380 29391610 30314500
1156.12 31294110 32349200 33457920 34630650 35848000 37182440
1159.02 38649370 40219380 41823580 43533900 45191510 46765360
1161.91 48616420 50830410 53283940 55992060 58903270 61973770
1164.80 65185380 68585950 72179080 75978030 80014040 84290870
1167.69 88684340 93073760 97488090 101909300 106221900 110526500
1170.59 114857300 119229500 123742200 128462300 133496300 138952800
1173.48 144889700 151448800 158684800 166630700 174831800 183062200
1176.37 192189600 202774600 214637200 227589800 241700500 257353000
1179.26 274656700 293505000 313746700 335592000 359338200 385034800
1182.16 412655500 442145800 473579900 507014900 542224800 579119800
1185.05 617354800 657238400 698115900 739317400 780427900 820994100
1187.94 860442600 898137300 933383400 965501400 993915200 1018384000
1190.84 1038615000 1055112000 1068125000 1078258000 1086159000 1092561000
1193.73 1098295000 1103657000 1109444000 1115988000 1123081000 1131212000
1196.62 1139161000 1141779000 1134075000 1125982000 1127019000 1133821000
1199.51 1141667000 1145866000 1144596000 1136254000 1118982000 1092210000
1202.41 1056166000 1011814000 960734000 904618000 846370300 788471600
1205.30 732073500 677476200 626079700 578894800 535507800 496229900
1208.19 461415400 430178700 401631700 375639400 352464000 331810200
1211.08 312998900 295755300 279837700 264647900 249839800 235441800
1213.98 221590400 208372400 195777300 183979600 173101600 162887400
1216.87 153002900 143662400 135287400 127818400 121076200 114670500
1219.76 108772300 103613700 99112140 95018650 91177000 87570650
1222.66 84253950 81219240 78354470 75599440 73044910 70673670
1225.55 68478980 66422640 64494820 62743530 61109260 59574600
1228.44 58150320 56822970 55602160 54494630 53492220 52577850
1231.33 51726460 50965600 50311700 49711790 49195760 48787510
1234.23 48411540 48059480 47770940 47505760 47152040 46722220
1237.12 46374760 46114720 45925280 45749950 45563120 45351380
1240.01 45079040 44769640 44451110 44135620 43837710 43595400
1242.90 43415120 43276420 43158670 43089860 43151480 43288500
1245.80 43401740 43553460 43842540 44281100 44871710 45585090
1248.69 46388640 47338590 48456360 49728110 51209710 52907870
1251.58 54846210 57069500 59592570 62471860 65729780 69390070
1254.48 73530610 78128580 83250230 88947100 95192260 101954200
1257.37 109311000 117256600 125741400 134767600 144244700 154099300
1260.26 164276600 174671400 185187900 195777600 206310900 216653600
1263.15 226667200 236497600 246040400 255169700 263931700 272470400
1266.05 280843500 289116800 297340000 305666800 314227600 322740500
1268.94 330961500 338750600 345615000 351239700 355733400 358883600
1271.83 360795800 362005600 362810800 363724400 364759800 365498000
1274.72 365671700 365326300 364678100 363628900 361388700 358043600
1277.62 354059800 349226000 342919300 334318400 321876200 306025300
1280.51 289974100 276692700 266930600 260794600 256968300 254603800
1283.40 250399300 241702800 232517200 224715600 217337800 210196500
1286.30 203399300 197143100 191614500 187086900 183819400 181932800
1289.19 181446000 182429500 184789800 188305400 192819600 198146300
1292.08 203932800 209947100 215826800 221279400 225878000 229296800
1294.97 231303300 231896900 231382900 229899800 227376600 224110700
1297.87 220923700 219755400 222234000 229808600 241599900 252141100
1300.76 248644400 233955600 227302000 230485300 237080300 243467000
1303.65 248178500 250373600 249883700 246626000 240763200 232518900
1306.54 222081600 209528500 195788300 182104900 169186400 157227300
1309.44 146192200 136184600 127182600 118990100 111646800 105031400
1312.33 99037200 93557850 88549300 83922090 79634100 75562790
1315.22 71690490 68012180 64560590 61338640 58296620 55400380
1318.12 52633430 49994640 47495370 45088470 42818720 40721840
1321.01 38765360 36923120 35198430 33566380 32052820 30627040
1323.90 29257350 27890780 26584690 25362480 24237300 23171870
1326.79 22153130 21197130 20291550 19416750 18578140 17765340
1329.69 17014090 16276860 15570890 14909710 14288100 13701580
1332.58 13149190 12634580 12183060 11748640 11321750 10945120
1335.47 10625420 10324560 10059950 9825486 9608520 9408192
1338.36 9235054 9055110 8894202 8777538 8672040 8553896
1341.26 8472042 8408124 8345030 8262298 8197474 8152768
1344.15 8114238 8069792 8044134 8005780 7971280 7951464
1347.04 7943380 7934264 7936342 7953116 7981600 8008092
1349.94 8047192 8099166 8162748 8253398 8355224 8483392
1352.83 8629690 8775588 8956846 9177476 9425618 9698768
1355.72 10014690 10357000 10724740 11119910 11572310 12068710
1358.61 12587430 13140680 13716860 14288000 14857240 15448750
1361.51 16029260 16559860 17023470 17443770 17800550 18051580
1364.40 18250340 18423560 18602370 18820010 19141940 19659530
1367.29 20421770 21229430 21766210 22142620 22607580 23148300
1370.18 23531860 23687030 23894550 24343720 25013190 25790230
1373.08 26642720 27536910 28429690 29311750 30218100 31097780
1375.97 31999520 32934450 33888900 34893190 36017740 37241530
1378.86 38601280 40100510 41762220 43589080 45559720 47688180
1381.76 49970290 52338840 54741190 57174110 59595670 61884600
1384.65 64090420 66206520 68118240 69759860 71243140 72609690
1387.54 73884980 75099180 76350250 77771230 79366110 80906610
1390.43 82235700 83222210 84218380 85778260 88234540 90656020
1393.33 92785040 95850460 99837500 104424700 109305000 114289000
1396.22 119216100 124097400 128946400 133891600 138968900 144262300
1399.11 149903400 156006600 162581400 169541000 176794500 184391500
1402.00 192108800 199840100 207455800 214551200 220816100 226186400
1404.90 230628800 234028100 236358400 237762500 238520800 238999100
1407.79 239361300 240366700 243290200 249291300 253727200 250271900
1410.68 244264800 240826400 239568200 239394300 239780400 240227200
1413.58 240422000 239975900 238426100 235855900 231743600 225801300
1416.47 219105800 212119400 204851500 197149500 188866100 179997100
1419.36 170667000 160906300 150765500 140507600 130239700 120076700
1422.25 110202400 100828300 92043630 83816630 76301130 69532570
1425.15 63458660 58046240 53286610 49135110 45544850 42487870
1428.04 39869460 37641900 35783130 34195840 32833800 31672830
1430.93 30695030 29861540 29165950 28566030 28073220 27675830
1433.82 27351020 27091930 26913530 26795500 26718450 26710050
1436.72 26778470 26861800 26959410 27116090 27298790 27501820
1439.61 27735430 27976990 28241360 28521030 28824620 29162070
1442.50 29482340 29792910 30109860 30413460 30702390 30988190
1445.40 31280830 31582570 31879680 32169280 32437900 32717600
1448.29 33059270 33454500 33883520 34413080 35054240 35771870
1451.18 36486160 37195600 37758190 38077630 38272300 38285360
1454.07 38175040 38006340 37883780 37880710 37979160 38132900
1456.97 38327840 38539950 38748410 38999050 39302050 39495020
1459.86 39533220 39568890 39690120 39919760 40282260 40814250
1462.75 41462020 42133770 42649840 42806910 42841650 42983580
1465.64 43198810 43423680 43586660 43644200 43595140 43480130
1468.54 43356240 43271400 43325180 43608300 44054260 44569600
1471.43 44530260 43516140 42327400 41481160 40970040 40696520
1474.32 40575950 40510940 40417330 40261960 40056490 39779850
1477.21 39410350 38924860 38377240 37769400 37081430 36312580
1480.11 35493950 34621280 33705740 32720920 31673580 30558910
1483.00 29390210 28176310 26943600 25731490 24598320 23589140
1485.89 22753520 22122740 21714450 21504310 21448430 21461270
1488.79 21481950 21451480 21371470 21205980 20934590 20576390
1491.68 20178070 19742950 19276170 18775750 18269330 17749740
1494.57 17249420 16760420 16260420 15765540 15299510 14857680
1497.46 14435790 14033590 13661660 13297610 12966930 12663820
1500.36 12366700 12071920 11803850 11557720 11321900 11081930
1503.25 10858250 10627280 10410590 10230500 10050140 9841464
1506.14 9662182 9495312 9314038 9147080 9009142 8879014
1509.03 8747062 8623642 8509704 8395870 8290330 8202796
1511.93 8129366 8034280 7929438 7844750 7771792 7700398
1514.82 7626846 7534900 7448460 7365328 7287418 7188666
1517.71 7094064 7004670 6910148 6832658 6748898 6647656
1520.61 6574178 6503332 6416552 6313794 6224038 6152696
1523.50 6066638 5979810 5897218 5822292 5732956 5626224
1526.39 5537664 5455638 5368614 5277630 5187074 5094124
1529.28 4998512 4906456 4821080 4752348 4685574 4609154
1532.18 4535142 4463968 4415008 4351838 4282344 4233990
1535.07 4187540 4139464 4089728 4038930 3999872 3971134
1537.96 3946530 3927916 3886996 3854344 3830294 3785182
1540.85 3745130 3733736 3731678 3702046 3687564 3668330
1543.75 3657024 3654232 3643226 3632542 3645372 3648930
1546.64 3654082 3660534 3668224 3659130 3670506 3695712
1549.53 3711608 3719646 3735988 3771702 3810750 3830932
1552.43 3851782 3890036 3930342 3981268 4015060 4043902
1555.32 4080424 4126456 4181090 4236218 4278056 4322990
1558.21 4372048 4404598 4429292 4452856 4468372 4473412
1561.10 4487766 4504886 4524694 4534764 4558528 4588380
1564.00 4627406 4670710 4698038 4721590 4737584 4749946
1566.89 4770276 4782042 4797440 4818490 4835192 4833704
1569.78 4816830 4789752 4767582 4738194 4709404 4687662
1572.67 4658060 4615484 4582414 4544628 4519650 4518166
1575.57 4523388 4500570 4483942 4479242 4475348 4472646
1578.46 4476870 4482394 4493538 4500652 4511428 4529388
1581.35 4554382 4558024 4562428 4572318 4601028 4626500
1584.25 4640322 4657254 4676018 4691098 4706390 4718392
1587.14 4744510 4767302 4793106 4811434 4831648 4866210
1590.03 4911346 4955010 5001978 5047010 5076090 5111058
1592.92 5169996 5230470 5294730 5362404 5451692 5528534
1595.82 5606290 5706262 5821260 5934244 6056802 6177406
1598.71 6305382 6427212 6567186 6720510 6890408 7076914
1601.60 7258890 7451254 7683770 7930662 8170912 8433950
1604.49 8735930 9055176 9397046 9763008 10135320 10526650
1607.39 10954540 11403780 11861650 12348680 12850360 13349800
1610.28 13878900 14438540 15011730 15602720 16228240 16876680
1613.17 17533960 18234960 18963280 19681530 20376430 21083650
1616.07 21814490 22504400 23195410 23899030 24571300 25193690
1618.96 25776030 26318790 26782700 27154560 27430810 27617540
1621.85 27761970 27886470 28015120 28198460 28465170 28874520
1624.74 29436820 30129770 30913660 31745820 32631780 33544160
1627.64 34461960 35379350 36327320 37341620 38426950 39566810
1630.53 40816520 42228370 43757890 45380200 47125930 49013940
1633.42 51020040 53108760 55161650 57082850 58801030 60237510
1636.31 61279220 61854700 61922740 61528930 60722060 59602440
1639.21 58399590 57332510 56686450 56654470 57087740 57173720
1642.10 55780150 53157380 51110980 50626010 51551170 53031690
1644.99 54059480 54374800 54842140 55858070 56833520 57206500
1647.89 56768690 55474240 53348660 50537930 47203930 43534720
1650.78 39665950 35773890 31971480 28384830 25093180 22122170
1653.67 19504460 17259220 15350610 13760560 12445160 11368150
1656.56 10518770 9854260 9306970 8836670 8467960 8159466
1659.46 7893550 7677316 7486904 7296434 7125918 6980398
1662.35 6865824 6753284 6640362 6551836 6471820 6392214
1665.24 6321236 6261032 6198050 6150466 6131940 6105714
1668.13 6074388 6060448 6049070 6039220 6036596 6049468
1671.03 6068742 6088332 6103256 6119830 6163024 6216432
1673.92 6262070 6315550 6377110 6419188 6472724 6537066
1676.81 6604494 6679300 6753404 6812912 6863400 6901906
1679.71 6935790 6973078 7018644 7067708 7122420 7193040
1682.60 7262568 7326530 7407136 7510502 7604028 7694938
1685.49 7796608 7897288 8020848 8159844 8282976 8410854
1688.38 8545396 8685690 8836704 8985768 9130076 9273044
1691.28 9429080 9602654 9778042 9950904 10125550 10311900
1694.17 10520830 10745390 10991200 11243990 11498720 11758940
1697.06 12032410 12324080 12624500 12936360 13255430 13561310
1699.95 13856220 14141960 14417390 14673640 14904290 15105110
1702.85 15253500 15352400 15417210 15439310 15440140 15434260
1705.74 15452850 15540750 15736040 16078060 16601900 17272970
1708.63 18053910 18899420 19752400 20575940 21353110 22085480
1711.53 22759090 23401990 24041170 24692490 25386790 26132880
1714.42 26955320 27825250 28763120 29809570 30973090 32268180
1717.31 33707910 35293240 37041710 38983760 41137940 43529050
1720.20 46139740 48979770 52053020 55381440 58978190 62821880
1723.10 66958600 71420460 76188300 81277840 86709610 92501460
1725.99 98717720 105335600 112344200 119770700 127665200 136087500
1728.88 144989900 154402100 164335600 174776200 185825100 197505900
1731.77 209805100 222673600 236123100 250291100 265172400 280815700
1734.67 297274900 314319300 332024900 350405100 369464100 389105700
1737.56 409194700 429807400 450662700 471406900 492067700 512256600
1740.45 531659700 549818500 566132200 580430200 592021200 600393200
1743.34 605121400 606122000 603418200 597038800 587888400 577129500
1746.24 566150100 556367400 549331300 545785200 545745300 548969700
1749.13 554668200 562122800 571535300 582740800 595014300 607707500
1752.02 619696600 629430500 635350000 636342800 632022700 622837400
1754.92 609554100 592689900 573123100 551786900 529371000 506429900
1757.81 483023900 459459800 436198400 413584300 391757700 370704100
1760.70 350414500 330982500 312673700 295288900 278687000 262894700
1763.59 247859800 233494700 219776100 206678400 194173900 182230600
1766.49 170859200 160034100 149632300 139756200 130426200 121574700
1769.38 113227000 105369000 97939690 90968630 84431540 78326540
1772.27 72678980 67451020 62547220 57995020 53836340 50015300
1775.16 46484860 43244020 40290700 37607500 35159590 32912260
1778.06 30854420 28998910 27305370 25751450 24344620 23061300
1780.95 21923830 20882070 19931920 19080770 18300390 17584490
1783.84 16950320 16369840 15820760 15319610 14850760 14427660
1786.74 14065690 13733340 13420090 13116090 12834300 12580160
1789.63 12336760 12106550 11914360 11721320 11523710 11350010
1792.52 11175690 10982290 10789210 10608200 10431310 10267100
1795.41 10106690 9941752 9772780 9629262 9486876 9334798
1798.31 9192742 9079688 8971802 8881102 8803964 8704554
1801.20 8609750 8542022 8482158 8406222 8335504 8280964
1804.09 8206722 8127492 8042962 7964256 7886936 7799394
1806.98 7705794 7616040 7528130 7445610 7360760 7270964
1809.88 7181928 7105480 7030390 6953142 6869014 6799150
1812.77 6728068 6653520 6593228 6539972 6493596 6443532
1815.66 6395210 6360418 6328376 6292360 6266160 6248916
1818.56 6234846 6220400 6215110 6223344 6232874 6237130
1821.45 6238998 6225038 6189020 6155466 6128550 6108730
1824.34 6081768 6050228 6021728 6000004 5983546 5966550
1827.23 5954612 5928354 5897174 5870064 5841390 5807588
1830.13 5769624 5726770 5681870 5645582 5617084 5561260
1833.02 5497362 5445112 5384788 5324802 5268544 5207056
1835.91 5141314 5080500 5039426 4991908 4949432 4916774
1838.80 4874718 4838682 4794918 4744164 4703172 4648846
1841.70 4574430 4493304 4417466 4341118 4268268 4196736
1844.59 4129860 4059148 3993582 3936986 3870872 3800012
1847.48 3730700 3680760 3624162 3562638 3504270 3435202
1850.38 3380614 3339496 3287030 3234630 3181682 3121082
1853.27 3068474 3019394 2985342 2950438 2904500 2875538
1856.16 2852936 2822630 2789316 2754912 2720732 2681314
1859.05 2656282 2634774 2609608 2583098 2552186 2522514
1861.95 2504146 2485764 2462292 2441050 2420278 2395940
1864.84 2373420 2371354 2359004 2348080 2345366 2346356
1867.73 2346150 2345884 2352088 2357606 2376776 2391872
1870.62 2399208 2410892 2426774 2453264 2494698 2533616
1873.52 2576046 2610152 2641404 2687660 2740616 2797228
1876.41 2855010 2910032 2972864 3028422 3097168 3163648
1879.30 3227562 3298560 3364296 3424862 3485898 3558990
1882.20 3638476 3706598 3763880 3820848 3886218 3949234
1885.09 4011796 4078660 4133756 4179930 4236086 4294068
1887.98 4342510 4377870 4408512 4435440 4453960 4473080
1890.87 4492366 4512370 4538670 4558720 4588600 4612544
1893.77 4618340 4623034 4627984 4650712 4672686 4677648
1896.66 4680614 4689612 4686378 4675240 4668620 4667566
1899.55 4652212 4634540 4614962 4594354 4570728 4558058
1902.44 4548854 4539226 4541466 4561472 4584126 4615476
1905.34 4654396 4683286 4720658 4771630 4836844 4918526
1908.23 5011776 5095606 5182714 5287454 5399060 5524746
1911.12 5661370 5797212 5926714 6079498 6247384 6423388
1914.02 6617932 6808002 6999598 7207466 7417608 7625750
1916.91 7846762 8069234 8295498 8529712 8766960 9006504
1919.80 9257222 9495052 9734624 9983994 10241000 10499520
1922.69 10758810 11041290 11348680 11684540 12050480 12421410
1925.59 12814500 13236810 13657030 14060690 14452240 14793810
1928.48 15046550 15237230 15367210 15413220 15369580 15262500
1931.37 15120950 14944120 14747410 14548140 14337520 14136900
1934.26 13940820 13710120 13437940 13157750 12916530 12749550
1937.16 12666860 12673440 12733220 12773030 12736240 12600770
1940.05 12367940 12046530 11666810 11218080 10724590 10220490
1942.94 9699506 9180626 8690660 8220100 7778682 7373882
1945.84 6997716 6662216 6360412 6099478 5870494 5663134
1948.73 5495392 5355434 5237910 5133122 5059536 5002386
1951.62 4936676 4868840 4825374 4801256 4807342 4824782
1954.51 4832196 4841634 4821706 4772364 4696532 4603544
1957.41 4496144 4391706 4285800 4167732 4057508 3952952
1960.30 3857430 3766152 3673586 3580926 3502240 3416704
1963.19 3350022 3302220 3244292 3178220 3124132 3079654
1966.08 3031736 2980956 2933290 2902252 2872288 2841988
1968.98 2808640 2772686 2746260 2727782 2712024 2695410
1971.87 2679664 2662686 2624410 2591626 2562772 2523228
1974.76 2496118 2475936 2459498 2437428 2415012 2403612
1977.66 2398468 2395722 2394240 2396014 2394514 2394706
1980.55 2396584 2398166 2411618 2411194 2409820 2410112
1983.44 2408256 2389856 2378866 2364944 2348076 2328954
1986.33 2318454 2315328 2307032 2299930 2286292 2272628
1989.23 2250770 2225110 2213366 2202266 2194398 2193622
1992.12 2190660 2184456 2182568 2173796 2152974 2130566
1995.01 2099078 2051956 2011238 1974938 1933474 1901298
1997.90 1863644 1816668 1770334 1729480 1692054 1668256
2000.80 1655962 1632404 1611630 1591476 1573092 1564164
2003.69 1559452 1544202 1525228 1515440 1523798 1525230
2006.58 1518910 1517042 1514472 1503166 1495064 1502426
2009.48 1509284 1504594 1496382 1506324 1512016 1516090
2012.37 1534562 1557108 1575186 1579934 1579792 1589154
2015.26 1612416 1633144 1639134 1657364 1678246 1691784
2018.15 1698874 1712196 1727956 1749310 1774916 1795362
2021.05 1817996 1841986 1850430 1877784 1909170 1936462
2023.94 1958990 1990418 2028438 2059120 2090728 2130602
2026.83 2163942 2198476 2243166 2294078 2337844 2375016
2029.72 2410812 2453972 2502832 2560162 2612616 2669056
2032.62 2734028 2807782 2877500 2937464 3015602 3102916
2035.51 3198438 3298754 3400482 3498838 3609954 3742026
2038.40 3862522 3991994 4133364 4282166 4456582 4638598
2041.29 4806850 4976248 5156212 5345566 5535110 5721172
2044.19 5908386 6095930 6281852 6453944 6622414 6780100
2047.08 6926356 7070496 7212934 7351828 7472512 7590490
2049.97 7704354 7819720 7919366 8017348 8131240 8236682
2052.87 8338708 8442642 8538260 8612418 8673778 8720512
2055.76 8755290 8784332 8828182 8860092 8858252 8839758
2058.65 8811762 8745940 8646228 8515718 8359604 8196000
2061.54 8010874 7812150 7632790 7464524 7280044 7099660
2064.44 6931468 6774514 6625932 6478510 6340250 6200120
2067.33 6057242 5922866 5792986 5659362 5527994 5386074
2070.22 5244938 5103398 4957362 4821060 4698404 4581970
2073.11 4472012 4361812 4251226 4152028 4050100 3948172
2076.01 3861130 3780590 3707970 3636896 3557762 3489026
2078.90 3436392 3380736 3322276 3258748 3220516 3192960
2081.79 3156254 3131636 3116754 3099682 3066806 3045650
2084.69 3054978 3056012 3050986 3041826 3043828 3049726
2087.58 3053488 3062078 3068392 3064522 3066740 3064338
2090.47 3059298 3064798 3064256 3065868 3067828 3057134
2093.36 3053868 3053310 3040494 3017354 2992108 2979614
2096.26 2975750 2964876 2949704 2942474 2931162 2898984
2099.15 2880932 2862636 2841210 2830534 2805460 2778066
2102.04 2751786 2712450 2687112 2668730 2626432 2588778
2104.93 2556436 2529946 2506594 2474148 2441582 2425974
2107.83 2418718 2389248 2367936 2357300 2346502 2348702
2110.72 2345368 2336248 2332696 2328466 2335142 2343882
2113.61 2342282 2341266 2345524 2346918 2353906 2364722
2116.51 2379128 2404248 2412358 2403804 2405242 2406332
2119.40 2411812 2419004 2421922 2426932 2434308 2427590
2122.29 2427998 2435804 2427878 2428206 2440030 2438512
2125.18 2435176 2439286 2432092 2415126 2415382 2426608
2128.08 2432376 2422070 2412256 2410118 2395240 2382210
2130.97 2364652 2353378 2344392 2333136 2305976 2278284
2133.86 2263580 2253652 2235016 2219150 2201234 2181610
2136.75 2163160 2146354 2125278 2083480 2056892 2045450
2139.65 2031940 2020198 1999954 1986204 1967476 1937822
2142.54 1907310 1889914 1881956 1872844 1847536 1822304
2145.43 1802820 1793874 1771222 1745974 1727516 1721738
2148.33 1718026 1706722 1687496 1663328 1651074 1648156
2151.22 1644630 1644266 1637450 1626190 1626638 1631410
2154.11 1631656 1629046 1633964 1630950 1643048 1666024
2157.00 1671518 1662874 1663092 1682996 1698972 1706640
2159.90 1709966 1721174 1726446 1714716 1719358 1720466
2162.79 1723016 1730564 1724614 1710706 1685408 1666416
2165.68 1654962 1637658 1617252 1601434 1582106 1563282
2168.57 1546382 1529062 1522438 1501332 1468508 1447462
2171.47 1424974 1400438 1381860 1365804 1340182 1312426
2174.36 1286622 1256538 1219234 1181884 1153308 1118600
2177.25 1088750 1060444 1038368 1007252 965094 946248
2180.15 941508 929304 916966 909018 892962 877952
2183.04 874498 873288 876584 876988 869706 870536
2185.93 866136 856952 864512 872896 874796 875986
2188.82 867108 858492 867120 879310 890374 889760
2191.72 886020 891736 906278 898676 887502 890750
2194.61 892268 878366 878274 898490 899246 891956
2197.50 889430 904352 908748 892250 875904 874666
2200.39 875324 877382 866730 856012 853386 851250
2203.29 846882 846772 834606 826130 836508 830516
2206.18 819962 808790 808606 821014 813222 804096
2209.07 807328 810778 815268 810388 801100 796638
2211.97 793272 799328 809318 817080 810018 791240
2214.86 789502 799754 808906 811536 825864 837810
2217.75 836908 839116 841050 862568 876366 870152
2220.64 868592 885200 901078 908602 918572 931646
2223.54 934354 931866 937582 942052 940688 945118
2226.43 941296 925668 915676 926262 940938 931834
2229.32 926992 948280 959926 964188 973850 997112
2232.21 1005212 1011170 1021260 1027654 1031818 1022770
2235.11 1016710 1028762 1028918 1019784 1015660 1015240
2238.00 1009918 1002784 1007062 1006868 1001504 1004890
2240.89 1008098 1010480 1008426 1008624 1003336 1010688
2243.79 1025548 1034398 1029796 1024058 1032222 1027880
2246.68 1037646 1034120 1032558 1031562 1023676 1023458
2249.57 1023012 1023868 1023574 1007548 1002706 1015766
2252.46 1006686 994852 998360 991570 986764 985392
2255.36 994150 998530 1002174 1002860 1000068 1011048
2258.25 1013248 1011840 1015334 1025000 1029614 1026666
2261.14 1028114 1031324 1037844 1046898 1054178 1060330
2264.03 1073876 1081366 1079608 1072614 1071662 1067360
2266.93 1070778 1074966 1063580 1056098 1063580 1069906
2269.82 1061818 1052916 1047918 1047670 1043168 1048774
2272.71 1049926 1043160 1043402 1059648 1068744 1061630
2275.61 1049560 1030914 1037852 1050294 1048318 1043706
2278.50 1032828 1031412 1045600 1046454 1042004 1043310
2281.39 1041346 1043182 1034956 1030254 1022540 1012344
2284.28 1012212 1014150 1009342 1008900 1009866 1010170
2287.18 1010896 1013138 1019290 1029258 1032286 1019234
2290.07 999244 999450 1011702 1027052 1048266 1058602
2292.96 1066686 1075560 1076148 1084032 1096050 1108036
2295.85 1122770 1133422 1140422 1165990 1184068 1193402
2298.75 1208728 1224314 1232244 1234426 1255494 1284466
2301.64 1304742 1309352 1315518 1332510 1356178 1371690
2304.53 1384782 1400094 1414852 1431260 1452202 1481384
2307.43 1499276 1523768 1534836 1541420 1559936 1573484
2310.32 1602742 1620886 1631810 1641832 1661160 1691142
2313.21 1697966 1699698 1700996 1706268 1709420 1712474
2316.10 1707690 1710504 1701494 1705176 1714286 1708610
2319.00 1701036 1705214 1711960 1717186 1725246 1710508
2321.89 1698134 1710950 1696364 1671570 1683184 1699732
2324.78 1690616 1672876 1670362 1661560 1633646 1607054
2327.67 1589906 1581706 1567474 1540180 1536186 1535862
2330.57 1495340 1456024 1448568 1438992 1409686 1382192
2333.46 1378930 1369182 1344086 1335070 1327032 1295800
2336.35 1272222 1281162 1285814 1275298 1268338 1277690
2339.24 1254362 1216894 1207752 1193406 1161874 1159128
2342.14 1154632 1110738 1090040 1101224 1090000 1068810
2345.03 1069180 1074824 1077054 1076346 1068580 1072134
2347.92 1081588 1095318 1122834 1148068 1153016 1158720
2350.82 1180870 1201060 1232978 1264846 1282158 1307584
2353.71 1352398 1387924 1421572 1472744 1508458 1532484
2356.60 1585398 1630614 1660794 1718180 1744516 1759460
2359.49 1811098 1840324 1861716 1905592 1920394 1949790
2362.39 2001784 2022282 2067164 2093792 2117534 2174582
2365.28 2192098 2228066 2281214 2321788 2378718 2424774
2368.17 2473862 2541858 2583032 2624792 2680818 2726640
2371.06 2772490 2818678 2876528 2923016 2977028 3029102
2373.96 3082238 3123876 3160160 3206534 3254130 3293370
2376.85 3342658 3403760 3457718 3510970 3558410 3605476
2379.74 3646736 3681030 3729724 3777050 3800194 3830178
2382.64 3859022 3885864 3908716 3914026 3909122 3919750
2385.53 3946484 3973782 3993382 3988196 3972612 3964482
2388.42 3956128 3937454 3918590 3908018 3881236 3842604
2391.31 3815690 3778696 3713962 3642958 3584236 3535108
2394.21 3466718 3373664 3274332 3179380 3090282 3004010
2397.10 2907384 2821240 2740450 2654066 2586996 2532054
2399.99 2464200 2391668 2324068 2261126 2202680 2150624
2402.88 2101266 2056622 2002170 1964568 1923184 1881628
2405.78 1845652 1801930 1762854 1740208 1722052 1700366
2408.67 1672312 1650004 1634946 1623534 1618206 1604528
2411.56 1571272 1556136 1567780 1570148 1558056 1548122
2414.46 1538962 1533530 1529376 1529416 1522788 1514768
2417.35 1502356 1486612 1487740 1478778 1466904 1465038
2420.24 1458308 1447144 1447322 1445942 1425946 1416866
2423.13 1416896 1410836 1398140 1384758 1379990 1370900
2426.03 1359464 1342958 1329310 1302472 1270224 1250864
2428.92 1227218 1207052 1189384 1160326 1144070 1115584
2431.81 1093798 1083500 1058256 1032802 1035476 1016482
2434.70 996174 978406 941456 911772 904014 901322
2437.60 881718 864280 849842 831118 810008 795260
2440.49 789014 784274 769790 754828 749998 740396
2443.38 731452 721236 700720 682908 683930 688792
2446.28 672490 660948 657810 662690 671466 679240
2449.17 674182 665058 651500 643092 642508 642204
2452.06 654098 667420 670874 677324 674114 678450
2454.95 691484 685742 683408 699042 727560 749636
2457.85 745778 740312 758210 777824 792132 808794
2460.74 826942 838722 856748 872402 876702 900596
2463.63 932506 949748 979788 1017600 1047204 1074120
2466.52 1095864 1103508 1109534 1133578 1156948 1172052
2469.42 1206518 1234030 1244454 1259022 1280422 1305236
2472.31 1323998 1333520 1344762 1369658 1384096 1389422
2475.20 1402628 1425920 1440684 1436216 1455892 1479134
2478.10 1485534 1480950 1489860 1503960 1517950 1523806
2480.99 1524180 1512730 1496970 1497236 1513384 1509242
2483.88 1490024 1483864 1501032 1496712 1475450 1471204
2486.77 1469236 1472824 1463990 1434650 1435424 1446626
2489.67 1436048 1431356 1436754 1419840 1395420 1385592
2492.56 1376684 1366138 1351586 1336930 1330846 1318676
2495.45 1317338 1315292 1310814 1306896 1289384 1272436
2498.34 1264056 1255788 1245734 1227018 1215234 1199554
2501.24 1182222 1160524 1139292 1139580 1116170 1099390
2504.13 1089972 1050862 1030360 1020506 1011330 995014
2507.02 969408 955728 932558 902164 901410 889496
2509.92 867082 868530 859128 847348 839788 818018
2512.81 813002 806764 787086 781154 788162 789940
2515.70 761638 737620 726874 734224 745026 738854
2518.59 724640 726846 739032 738972 741894 735974
2521.49 723162 727246 732618 745336 743614 744874
2524.38 759934 773502 783580 793332 801792 794054
2527.27 807738 823264 824814 830518 837994 845998
2530.16 864548 881912 895040 911188 907352 925664
2533.06 940520 945358 957866 975968 1004990 1010708
2535.95 1017038 1033326 1052630 1050682 1035752 1037496
2538.84 1058110 1061872 1057458 1075802 1089016 1102784
2541.74 1096906 1089936 1095858 1100744 1105206 1122746
2544.63 1137840 1132312 1115592 1113730 1117236 1121520
2547.52 1125834 1131544 1132858 1121298 1110924 1113892
2550.41 1112034 1110224 1120144 1118296 1108238 1119946
2553.31 1132988 1126314 1115672 1108988 1104044 1107258
2556.20 1100776 1087926 1084966 1076864 1067564 1043660
2559.09 1011330 1004054 1003058 985104 955492 934572
2561.98 926996 906370 891922 884152 871760 847948
2564.88 829296 819436 819440 815900 799034 795330
2567.77 786718 782188 769244 749322 729070 713780
2570.66 694910 678772 655024 629194 607572 591884
2573.56 580740 572506 554054 549642 539330 534912
2576.45 527186 531032 523898 521030 525130 523226
2579.34 517622 524006 536940 530350 508016 494934
2582.23 506340 521290 519826 519048 535194 544404
2585.13 558082 574464 570590 578396 609674 635350
2588.02 641650 644640 650836 661816 675676 690696
2590.91 706092 725644 745416 764002 770312 780646
2593.80 793374 808994 822546 830358 841198 855360
2596.70 865372 875832 882084 894716 906634 917388
2599.59 944550 940568 935020 953650 967026 974040
2602.48 985270 990424 989278 991712 987672 980234
2605.37 984936 990844 988438 981294 966052 955158
2608.27 944316 932174 939906 950248 967756 983676
2611.16 968708 956122 952290 947378 949178 950294
2614.05 934692 935508 932504 910294 889760 882462
2616.95 868670 862392 861114 858394 847022 834194
2619.84 828382 816866 803682 795716 786366 778198
2622.73 759254 754868 767458 756098 742770 732984
2625.62 728990 711572 695592 691974 688120 689350
2628.52 681766 660200 658500 669422 672154 676990
2631.41 671252 666698 664076 656164 650320 650820
2634.30 651392 649616 646138 650118 664276 678984
2637.19 688260 689962 692006 703378 695324 703084
2640.09 728942 741186 734994 721822 728646 750738
2642.98 752538 755714 768982 779948 796456 796132
2645.87 791360 802470 802142 806144 833976 853570
2648.77 857264 852774 873586 895136 896956 899148
2651.66 900546 905310 916810 934444 938222 934142
2654.55 948430 970364 967308 972006 993536 1005688
2657.44 1008478 1016792 1035922 1068482 1072810 1065282
2660.34 1070126 1093414 1078536 1069772 1093226 1093470
2663.23 1088282 1092086 1086878 1084702 1082206 1098248
2666.12 1106142 1097038 1097916 1104642 1118840 1121352
2669.01 1122132 1123638 1112166 1126440 1136162 1130564
2671.91 1146698 1151676 1130766 1111646 1115016 1106362
2674.80 1108386 1103772 1081870 1086890 1084224 1046842
2677.69 1029474 1032282 1033574 1047254 1053886 1039890
2680.59 1029296 1027704 1011382 1007844 1035608 1038634
2683.48 1040908 1037624 1020720 1032764 1050654 1045240
2686.37 1041964 1054360 1049142 1036606 1046860 1056902
2689.26 1063942 1085646 1104930 1111660 1105666 1106682
2692.16 1144804 1179880 1185442 1195616 1223016 1246510
2695.05 1269692 1288256 1335758 1378374 1397744 1414826
2697.94 1435338 1457662 1487490 1506280 1506940 1501602
2700.83 1523376 1563256 1571650 1570754 1566570 1571530
2703.73 1597954 1599586 1592282 1602808 1622190 1641754
2706.62 1639686 1631546 1639506 1644298 1638260 1619352
2709.51 1624284 1637654 1612056 1592364 1580928 1573824
2712.41 1578482 1559626 1534018 1518640 1503216 1496384
2715.30 1485706 1466414 1452460 1429694 1409234 1412206
2718.19 1416244 1430024 1433698 1430178 1442286 1453628
2721.08 1447172 1447092 1453956 1444540 1423408 1438646
2723.98 1448490 1461336 1462762 1442228 1443996 1460512
2726.87 1461108 1460532 1463046 1479424 1503618 1507712
2729.76 1515326 1514992 1528476 1542368 1556100 1579662
2732.65 1606424 1639992 1643556 1636600 1626732 1597666
2735.55 1581794 1591588 1580416 1572674 1563238 1539540
2738.44 1523038 1504774 1483702 1470998 1449110 1453022
2741.33 1454182 1449174 1422714 1407446 1407688 1414060
2744.23 1429866 1433256 1425758 1431226 1446826 1459136
2747.12 1465206 1484856 1505768 1522276 1513244 1505206
2750.01 1517776 1534986 1548232 1543140 1548794 1556748
2752.90 1554106 1552086 1551256 1559612 1573214 1581396
2755.80 1571536 1574438 1602834 1626656 1632726 1664928
2758.69 1727798 1776882 1795338 1795530 1807284 1841684
2761.58 1869266 1896984 1945086 1980346 1990016 2013462
2764.47 2045962 2077776 2118452 2140470 2146224 2157206
2767.37 2176784 2191916 2201126 2214496 2218488 2227506
2770.26 2231720 2235444 2252510 2252382 2247912 2255424
2773.15 2229930 2197664 2181042 2174934 2162174 2138918
2776.05 2120584 2106726 2095992 2085992 2065110 2053760
2778.94 2035122 1990010 1957084 1925878 1882520 1846514
2781.83 1820588 1775228 1727814 1700970 1687236 1666952
2784.72 1621718 1585020 1569974 1553358 1524582 1513084
2787.62 1506982 1502044 1510328 1521522 1521402 1521440
2790.51 1525398 1519062 1518798 1531566 1561290 1570116
2793.40 1564878 1559404 1579440 1610156 1628566 1622228
2796.29 1628850 1636656 1627324 1638158 1656756 1671776
2799.19 1703350 1718264 1719626 1724174 1736530 1753564
2802.08 1774982 1803372 1826766 1842600 1857020 1885856
2804.97 1913212 1928914 1954290 1990626 2009430 2039114
2807.87 2067936 2090044 2120188 2143408 2157308 2185382
2810.76 2236052 2262022 2313020 2349604 2383898 2437552
2813.65 2479324 2509574 2541604 2602522 2676714 2745096
2816.54 2818812 2871824 2914752 2960566 3039716 3112984
2819.44 3178094 3253066 3312982 3347760 3388034 3427692
2822.33 3459310 3496936 3516244 3533690 3555226 3560380
2825.22 3562006 3582066 3592474 3593452 3611384 3636784
2828.11 3647442 3661088 3695742 3710894 3711248 3725832
2831.01 3742860 3767490 3795224 3820108 3808304 3786504
2833.90 3779668 3782344 3765508 3753988 3744338 3717350
2836.79 3710568 3721306 3738144 3748248 3724922 3705602
2839.69 3719046 3736382 3739710 3730250 3719340 3715234
2842.58 3741118 3770314 3773422 3794242 3815638 3832536
2845.47 3857180 3876408 3891230 3900302 3906200 3922274
2848.36 3955918 3987224 4001556 4031804 4041806 4061258
2851.26 4104326 4122534 4151138 4182106 4208804 4244436
2854.15 4281622 4328850 4378244 4410480 4452412 4482768
2857.04 4514984 4554858 4575814 4602940 4642330 4676946
2859.93 4729072 4772074 4796328 4838166 4893776 4960202
2862.83 5028176 5093510 5185424 5297122 5405992 5495054
2865.72 5593694 5717060 5817236 5927538 6087734 6256888
2868.61 6415382 6577046 6789454 7007834 7237242 7499460
2871.51 7784812 8118146 8468904 8845888 9248388 9715412
2874.40 10222720 10734750 11310950 11947200 12619190 13313570
2877.29 14021110 14738810 15467490 16187760 16872270 17525800
2880.18 18126560 18661390 19065060 19399990 19667830 19844930
2883.08 19960690 20095350 20271860 20480690 20724650 20986180
2885.97 21259340 21555460 21872470 22195710 22518620 22832000
2888.86 23107400 23364520 23601090 23815640 23984470 24139850
2891.75 24250480 24318130 24311600 24310120 24305210 24287950
2894.65 24223770 24145650 24090480 24066740 24070000 24082680
2897.54 24089430 24148110 24250510 24380320 24541310 24763250
2900.43 25019910 25335100 25706120 26122660 26503340 26854080
2903.32 27218170 27599190 27962740 28326420 28721270 29133400
2906.22 29545920 29951220 30358200 30776320 31157580 31546780
2909.11 31943130 32274770 32569440 32848940 33097310 33354130
2912.00 33606320 33821770 33983240 34155360 34313900 34391770
2914.90 34396600 34336180 34117700 33791260 33369170 32926070
2917.79 32543170 32218110 31906940 31656880 31505440 31427150
2920.68 31392980 31395360 31431880 31519930 31595980 31629430
2923.57 31613170 31621920 31556080 31416660 31276040 31101160
2926.47 30904860 30720200 30519300 30320630 30161130 30046170
2929.36 29989810 29958220 30000670 30174870 30459930 30846650
2932.25 31337280 31971810 32710590 33529870 34421040 35427900
2935.14 36522400 37658430 38807730 39991420 41159360 42280140
2938.04 43332400 44272620 45100770 45811140 46478000 47128990
2940.93 47808280 48596980 49532520 50648280 51720300 52314860
2943.82 52518210 52698470 53048950 53554900 54217800 55056130
2946.72 56013370 57014400 57961590 58776590 59023820 58623720
2949.61 58083610 57713080 57493180 57315800 57138310 56991050
2952.50 56760410 56461200 56170640 55881750 55684400 55533700
2955.39 55154100 54447100 53578530 52932350 52567020 52328000
2958.29 52182300 52172620 52169570 52217200 52220030 52185070
2961.18 52238730 52587890 53060090 53478350 54057860 54886480
2964.07 55979100 57026120 57639420 57600480 57163180 56840260
2966.96 56875410 57317170 57994290 58842800 59888140 60909960
2969.86 61807660 62683160 63701870 64982120 66576300 68434060
2972.75 70475410 72716450 75159080 77798230 80599010 83544580
2975.64 86583680 89784730 93020280 96281980 99627040 102949200
2978.54 106227700 109483500 112777800 116134900 119606800 123336400
2981.43 127455800 132053100 136780000 140545400 141934000 141409000
2984.32 141134100 141490300 141975600 142515600 143036700 143457900
2987.21 143837400 144372800 145287700 146636100 148200200 149139100
2990.11 148969200 148530200 148941000 150557800 153193200 156894500
2993.00 161835500 169202300 180651400 191764500 190936300 178015300
2995.89 164510200 155255900 148749100 143656300 139270500 135329400
2998.78 131750800 128402600 125239600 122059000 118755900 115451500
3001.68 112238600 109213600 106266700 103282900 100246400 97183390
3004.57 94272780 91533770 89035260 86772810 84682310 82584370
3007.46 80576340 78780610 77089720 75346700 73440300 71421020
3010.36 69253440 66939910 64586350 62189860 59736460 57271940
3013.25 54831560 52422190 50032110 47681560 45430940 43248600
3016.14 41161480 39185020 37322480 35541560 33850720 32259570
3019.03 30771810 29334650 27943400 26628360 25421050 24284950
3021.93 23223710 22208430 21239140 20376010 19589420 18840230
3024.82 18154490 17526680 16956160 16452600 16011780 15580130
3027.71 15163190 14793820 14458860 14143900 13875830 13672420
3030.60 13530930 13383120 13259380 13195790 13151640 13154260
3033.50 13199180 13223530 13267360 13342080 13467800 13660020
3036.39 13871570 14116480 14438290 14827910 15237480 15679410
3039.28 16189210 16713120 17214370 17720060 18212640 18614650
3042.18 18959340 19255110 19444270 19519230 19514040 19427420
3045.07 19239750 18975930 18754240 18559940 18432170 18408550
3047.96 18481470 18632410 18717290 18481980 17993020 17608740
3050.85 17494310 17564770 17688180 17839560 17999010 18112220
3053.75 18124750 18006420 17762970 17363230 16809600 16191370
3056.64 15491490 14721400 13925820 13120480 12347730 11604110
3059.53 10879630 10211930 9607694 9040748 8542930 8130340
3062.42 7785790 7466196 7184898 6952378 6743952 6576872
3065.32 6437236 6318572 6237716 6207210 6186464 6171938
3068.21 6172862 6190632 6198482 6233614 6293692 6348956
3071.10 6409066 6483352 6569764 6662122 6716878 6773734
3074.00 6867098 6943130 7023388 7102306 7159958 7196412
3076.89 7250932 7305816 7341032 7365200 7408224 7422126
3079.78 7379936 7337474 7287402 7237270 7197944 7132382
3082.67 7050814 7035652 7033312 7031938 7047334 7021686
3085.57 6967276 6955836 6982058 7050522 7119360 7117840
3088.46 7071536 7041278 6955916 6820404 6686518 6525388
3091.35 6370456 6240046 6091982 5918902 5751788 5610222
3094.24 5489788 5389592 5288194 5221338 5175664 5146738
3097.14 5151142 5175850 5239554 5352280 5505364 5679600
3100.03 5917268 6252106 6628076 7042592 7535268 8126820
3102.92 8779094 9443464 10195100 11028150 11886700 12753160
3105.82 13599490 14385180 15032530 15545930 15911440 16060570
3108.71 15942900 15620360 15036560 14248340 13420260 12716160
3111.60 12394640 12698970 13693690 14889040 15378520 15585600
3114.49 16155700 15991500 14738600 13650590 13636470 14267970
3117.39 15002600 15600770 16026060 16243590 16204810 15926770
3120.28 15461080 14802190 13986200 13045990 12066110 11105250
3123.17 10181290 9276764 8377330 7559616 6850304 6210008
3126.06 5649314 5156694 4747946 4410534 4104476 3827766
3128.96 3585188 3400552 3240980 3117472 3029570 2932960
3131.85 2821834 2761588 2701802 2632908 2559296 2476902
3134.74 2417216 2378130 2334108 2292148 2252734 2235844
3137.64 2197678 2155526 2126658 2085840 2065374 2041870
3140.53 2030822 2033118 2027748 2033504 2045214 2034588
3143.42 2020310 2044158 2067738 2061186 2048172 2058288
3146.31 2066776 2085554 2112464 2110306 2103708 2113856
3149.21 2123444 2133342 2150468 2152520 2143518 2141248
3152.10 2148124 2131908 2112864 2107480 2107872 2117816
3154.99 2121692 2107534 2088614 2079772 2076944 2079488
3157.88 2049600 2018988 2033760 2029620 2004200 1998070
3160.78 1991848 1972906 1940996 1921604 1908434 1889198
3163.67 1878560 1861614 1860896 1856804 1851768 1824372
3166.56 1793606 1782028 1769160 1749688 1724390 1692458
3169.46 1706754 1695848 1674558 1672380 1652776 1631722
3172.35 1611458 1615692 1614570 1579200 1564200 1558590
3175.24 1536750 1498050 1481506 1492690 1501768 1486520
3178.13 1454668 1437618 1419160 1406080 1398870 1380662
3181.03 1358324 1360360 1398048 1388382 1323964 1313766
3183.92 1332566 1311732 1267850 1247520 1244152 1235920
3186.81 1259906 1241484 1210226 1199972 1194650 1175052
3189.70 1151502 1158688 1165294 1150462 1135166 1154708
3192.60 1141994 1095378 1086322 1113008 1118704 1098838
3195.49 1073124 1041398 1036354 1046192 1040088 1054846
3198.38 1055106 1039890 1025108 1014814 1022734 1034252
3201.27 1020268 996216 989138 1016548 1019764 978646
3204.17 969996 970162 968570 974548 982750 959402
3207.06 948360 925968 917642 932556 944740 913986
3209.95 895998 922434 924312 916684 936752 913240
3212.85 905308 918880 906512 901796 906750 905138
3215.74 902966 921498 923616 924576 920576 882520
3218.63 877840 894384 916428 926310 913018 918670
3221.52 929882 932372 915212 925590 940488 966642
3224.42 977716 974518 967914 970176 976866 989280
3227.31 1009972 1014070 990360 978958 996234 1010368
3230.20 1015012 1022882 1018338 1019656 1026646 1041722
3233.09 1046152 1059590 1072832 1085280 1077524 1057112
3235.99 1054918 1039156 1050758 1056080 1043326 1052442
3238.88 1055976 1045676 1031354 1029398 1046206 1059914
3241.77 1062908 1056196 1047770 1059386 1075026 1048724
3244.67 1035594 1016240 1016126 1004524 974014 955238
3247.56 957200 973406 960308 921328 900934 891598
3250.45 865746 842048 847720 842046 805648 779328
3253.34 758340 723666 704584 683810 687552 681558
3256.24 663988 662634 655438 611754 577786 543280
3259.13 511644 501134 477236 468796 475032 435190
3262.02 385964 385058 384376 368564 332082 313994
3264.91 313986 285480 281226 289498 262702 230560
3267.81 230920 241470 212432 185370 174972 180828
3270.70 162020 139272 152900 156388 130972 118080
3273.59 98226 94074 116314 135318 114014 116468
3276.49 105624 107108 107258 117622 102020 66990
3279.38 68176 85942 95568 87804 67824 27534
3282.27 9234 18658 9228 3394 21694 35166
3285.16 52848 56210 38446 10352 6116-3322
3288.06 2896 5004-5018 10164 902-38364
3290.95-39130-23270-26182-38062-35828-17552
3293.84-13494-40484-63674-46190-38448-35052
3296.73-54910-82612-76474-78288-60256-57896
3299.63-53680-45964-41424-18294-10386-11220
3302.52-23642-23342-15068-12304-7936 4818
3305.41 35936 54348 48246 57574 58634 56084
3308.31 61188 65326 63700 103768 136060 136494
3311.20 143804 165070 148252 117608 139986 187244
3314.09 196678 189858 196558 193538 217248 222586
3316.98 206854 181650 189232 231942 254242 229500
3319.88 235104 233946 241654 241508 241504 258900
3322.77 268294 260970 273368 295888 289548 273376
3325.66 272920 271480 276266 282470 289220 313252
3328.55 333616 326646 324350 337394 334692 325568
3331.45 336536 337382 348692 356762 330416 335324
3334.34 336888 352014 377608 379458 351016 330470
3337.23 359936 373024 365292 369330 380082 382302
3340.13 387798 391514 387988 399710 423330 416984
3343.02 421028 451648 469536 474990 472990 477766
3345.91 481276 468694 483648 490346 506632 518310
3348.80 551770 570234 591118 593668 610828 613082
3351.70 580944 574406 611544 639382 659298 685434
3354.59 692246 683382 684290 694438 720880 743034
3357.48 749716 758902 759744 783322 801440 812188
3360.37 809818 821522 836958 829062 849474 871362
3363.27 868614 878448 885010 893166 877108 864936
3366.16 880028 888582 862378 847014 852414 868746
3369.05 879164 877402 884580 888900 877336 848254
3371.95 836050 838884 844498 869898 874084 869042
3374.84 850144 858410 856188 847108 868672 888520
3377.73 871676 857384 889474 902974 912186 933602
3380.62 952558 946166 953250 983602 1003540 1010798
3383.52 997990 979688 981512 992824 1001998 1012730
3386.41 1040224 1025238 996348 1013164 984410 969052
3389.30 965382 942600 905524 882910 892294 880552
3392.19 831040 820732 844410 862274 875082 866136
3395.09 851452 841470 829364 825348 849056 839182
3397.98 785658 708950 665114 616484 573510 538058
3400.87 537298 504898 477412 465886 412462 367682
3403.77 338980 309046 278200 229080 229368 232550
3406.66 232472 213918 210524 221774 224378 231960
3409.55 222496 205500 196888 226164 233366 178548
3412.44 184508 207236 183650 167310 198202 199610
3415.34 187656 191546 178530 149608 137812 174866
3418.23 208670 169576 114642 114158 153882 152036
3421.12 141478 131156 112356 123680 139228 123984
3424.01 125170 133952 124042 113622 129084 140044
3426.91 153986 149246 147094 145304 160516 164910
3429.80 132180 82730 98236 124094 137458 137926
3432.69 140068 110052 115044 127412 118160 131946
3435.59 159824 168946 153670 122546 149944 161496
3438.48 175002 160404 172914 182240 170296 178972
3441.37 196796 177960 172412 170530 203980 239126
3444.26 238194 217244 210434 233200 303276 347466
3447.16 365304 368860 391542 444608 458102 468886
3450.05 517228 578650 611502 635060 722392 796898
3452.94 816808 852108 932396 1011604 1079178 1149952
3455.83 1224334 1299586 1371126 1479486 1598754 1714638
3458.73 1823306 1939220 2064240 2171946 2273944 2409628
3461.62 2545714 2676610 2839528 3007616 3179848 3349486
3464.51 3511326 3649970 3803040 4018868 4207970 4383200
3467.40 4561006 4725576 4901540 5113902 5298524 5436652
3470.30 5577910 5739560 5909434 6067582 6186650 6285052
3473.19 6368432 6446974 6544920 6588982 6602748 6616132
3476.08 6623862 6594924 6582394 6587730 6587802 6561006
3478.98 6583710 6657662 6737792 6782430 6837120 6905800
3481.87 6955786 6983738 6962662 6932304 6887488 6811804
3484.76 6749126 6627342 6472320 6333194 6146724 5924656
3487.65 5726130 5485912 5257740 5040080 4817970 4611186
3490.55 4421842 4223982 4004446 3798414 3595194 3403474
3493.44 3204738 3021758 2848678 2672436 2490508 2306426
3496.33 2149412 2007682 1871926 1737956 1600724 1476318
3499.22 1358638 1229260 1096122 1017224 939208 847634
3502.12 779448 724152 624536 548062 479236 419904
3505.01 370044 301632 231742 185556 141810 95308
3507.90 81618 63540 39536 10150-15674-34594
3510.80-50360-74956-110804-127262-123638-144174
3513.69-151460-165728-209384-210206-209978-223484
3516.58-240242-229604-239162-234606-222660-212856
3519.47-206056-199894-224984-240816-233676-244602
3522.37-236326-241544-278568-283078-276704-252438
3525.26-252666-266258-252666-231896-233006-257950
3528.15-239384-226514-232912-240820-257994-255556
3531.04-240278-238926-241862-243846-260856-262484
3533.94-269964-272402-229748-189594-210150-214786
3536.83-221554-227000-207662-175422-163320-211650
3539.72-216122-212180-208342-183420-153902-162024
3542.62-165882-149734-120174-128744-150332-162266
3545.51-153306-135022-137412-139868-124358-92988
3548.40-83376-90752-84076-86138-79830-60210
3551.29-63606-72316-66032-64210-50466-26056
3554.19-10128-17940-23036-12002-25188-22006
3557.08 5678 30620 41976 28132 42104 57056
3559.97 64026 72594 57974 45724 27364 22914
3562.86 54752 71796 87788 100498 86134 67260
3565.76 59464 66330 71018 75840 77770 86074
3568.65 92946 79132 67826 60886 62596 79872
3571.54 74904 68026 61874 70822 85696 84500
3574.44 80966 70662 50554 27452 8032 13022
3577.33 41462 31966 8772-1694 1874 8504
3580.22 7736 13018 23954 24636 23038 31614
3583.11 35056 28376 32116 27658 4594-11608
3586.01-5538-7996 9760 8320-15802-28574
3588.90-19790-22398-17112 8540 36446 32188
3591.79 23870 13782-3892 9698 16674 22698
3594.68 52526 49970 45460 52224 57182 40144
3597.58 11594 2940 31836 53266 22256-4044
3600.47-5628 19426 36090 26532 44336 42808
3603.36 41414 41796 37606 20568 27862 67064
3606.26 82886 69294 46704 27772 25948 50170
3609.15 64332 64278 53304 36714 43674 62564
3612.04 65666 55016 61792 49606 46108 32434
3614.93 35450 55496 55462 40808 36296 34394
3617.83 50018 50372 38656 59070 60922 52202
3620.72 34210 12688 24244 50964 59366 36192
3623.61 632 7322 14820 21424 33460 54136
3626.50 57552 37152 24722 25812 50614 56616
3629.40 41072 29206 13328 12618 28998 32692
3632.29 28786 27520 21422 16310 24844 20496
3635.18 19328 24124-2148-17134 2756 14092
3638.08 46468 47142 38222 30776 19834 14166
3640.97 12854-5008-408 7418 7950 23918
3643.86 21648 6160 11450 24652 16560 230
3646.75-8222-12762-17150 3318 27880 31876
3649.65 22116 10970 12552 35588 25690 164
3652.54-9920-4740-2484-17676 660 27078
3655.43 43384 57326 23022-15504-20972-12084
3658.32-9370-10150-5780 5770 3824 21146
3661.22 21918 17426 19674 27090 23002 11876
3664.11 7458 15044 36918 42654 38440 19060
3667.00-10370-6900 15802 16142 8890 11984
3669.90 23834 33250 23778 32454 26862 17510
3672.79 7928 17714 8592-914 14474 47654
3675.68 64196 18382-15414-7152 18116 26684
3678.57 28750 27906 20508 20516 25602 20984
3681.47 19532 7580 3582 2462-10118 2520
3684.36 18876 19310 20340 30658 27494 27714
3687.25 42016 65788 59040 32602 14258 7266
3690.14 9532 24782 35218 47910 45630 38436
3693.04 45040 37284 18994 14828 17258 30702
3695.93 53174 34762 40830 40514 17252 21326
3698.82 23016 38004 46018 34598 30304 50770
3701.72 65830 46722 28136 55506 74366 58054
3704.61 32734 30750 63008 81858 60352 37316
3707.50 37450 49226 53588 46438 51082 69688
3710.39 77680 68058 52666 48278 37164 49502
3713.29 64152 85812 93554 83120 89574 99936
3716.18 89978 80416 97162 116338 110838 112826
3719.07 104580 87454 114054 125734 114762 88524
3721.96 76890 118864 122362 115476 119204 125170
3724.86 121362 109044 119250 111548 110280 119694
3727.75 123474 135820 128446 96160 112174 130974
3730.64 131312 137050 155426 167540 160064 157528
3733.54 154760 137452 131464 129704 119582 124438
3736.43 131968 128610 123204 123266 156036 173920
3739.32 161074 141800 142240 154930 158308 149982
3742.21 151620 144216 146108 177054 204232 210326
3745.11 175452 145216 164496 172794 153208 162836
3748.00 168286 186872 204262 180424 172640 181468
3750.89 201674 216410 221966 213692 210092 199900
3753.78 181050 181964 189652 205232 208370 208060
3756.68 212510 224272 229428 206460 218652 282716
3759.57 282256 242512 225336 246478 272710 282390
3762.46 273826 273818 277894 280548 300014 302232
3765.35 293898 284318 309970 327762 317558 314048
3768.25 304092 317664 341564 337782 321488 322084
3771.14 329438 333512 353106 343702 340566 345718
3774.03 352744 356158 339730 334898 342430 344578
3776.93 337386 336714 323586 321828 323570 335436
3779.82 350974 332398 317854 305782 295612 303988
3782.71 332706 337212 319456 320472 308418 286210
3785.60 294176 299244 293136 271990 264634 255028
3788.50 249240 253244 272256 284484 264930 255792
3791.39 258608 260214 248616 228660 226154 220534
3794.28 207724 209448 222636 223444 219574 247672
3797.17 250366 211000 197326 172952 181046 197234
3800.07 203824 222492 227672 202658 204284 198648
3802.96 185272 195100 210216 204602 165426 156036
3805.85 169890 179676 169478 150430 157932 172686
3808.75 161624 140652 144504 145980 131826 124528
3811.64 144996 140862 141678 154544 174858 170910
3814.53 133266 117196 146944 146438 142930 156906
3817.42 145298 131086 121966 117688 113146 106400
3820.32 135122 132768 125466 136630 143148 125210
3823.21 117054 120604 141820 138704 131522 159948
3826.10 168446 162826 151212 151248 124170 115528
3828.99 143098 164260 165582 166242 168224 139284
3831.89 143368 173528 175780 173450 183780 190856
3834.78 178482 179756 168358 166084 206038 216034
3837.67 206528 204886 184804 185032 224814 209284
3840.57 219950 230166 211796 193982 196796 187428
3843.46 177348 186138 182098 181648 191988 212746
3846.35 202236 211158 201284 177830 171670 190512
3849.24 197974 188386 187452 212890 228036 225992
3852.14 209780 182586 181962 215042 219832 186928
3855.03 148986 159224 183584 186888 181382 171202
3857.92 167372 164218 157040 144828 144408 137180
3860.81 143604 148424 148360 134968 121166 121252
3863.71 142588 163614 152580 123374 110004 108702
3866.60 129454 165546 160084 156758 162872 138204
3869.49 139028 138558 131838 155166 133058 111998
3872.39 112120 136794 168152 150962 121500 130110
3875.28 126558 116224 137804 143744 139828 126244
3878.17 117852 119530 111226 108322 120330 141118
3881.06 138312 138896 159896 152510 134862 162408
3883.96 177648 170898 163284 161296 155800 158750
3886.85 164182 162788 159216 178056 189774 182452
3889.74 172854 153394 176682 178412 157670 140652
3892.63 170204 206376 195552 194838 187522 185490
3895.53 185858 177970 173300 163594 172190 171946
3898.42 198272 225262 211038 198124 187448 191064
3901.31 200224 203160 211302 215582 217442 232996
3904.21 205390 187014 195908 210014 221968 188556
3907.10 181668 210958 201680 157540 153822 159510
3909.99 180278 191228 167952 179052 204910 200886
3912.88 196998 196826 202976 220140 194300 161412
3915.78 169826 171736 170708 145798 150046 157752
3918.67 137914 153626 165160 147242 148102 153908
3921.56 139914 125670 110040 109780 112912 112750
3924.45 135650 136670 118774 101732 105528 123484
3927.35 104060 79574 106238 105244 90444 118702
3930.24 125062 117618 115550 104506 109498 135250
3933.13 129056 110020 100844 104198 102580 110886
3936.03 103384 94440 103776 113290 114096 126332
3938.92 141668 138926 115868 93678 95258 95394
3941.81 103222 125996 139620 154318 161312 142482
3944.70 131902 139108 156870 176708 177264 186740
3947.60 187376 205306 208156 172402 142116 156584
3950.49 186188 177826 170710 172522 185760 190064
3953.38 206924 207906 196824 195736 201052 218474
3956.27 224920 209154 195738 179880 187222 202398
3959.17 205208 206698 224124 219446 231316 258020
3962.06 228158 220118 238284 265416 273030 291350
3964.95 297696 280230 282874 280140 293650 296316
3967.85 287976 297728 324766 320842 310174 333888
3970.74 329376 349880 369512 353142 353484 370786
3973.63 364962 351012 369258
##END=
