##TITLE=Ethyl Acrylate
##JCAMP-DX=4.24
##DATA TYPE=INFRARED SPECTRUM
##CLASS=IUPAC A
##ORIGIN=NIST, Anayltical Chemistry Division, 301-975-3108
##OWNER=COPYRIGHT (C) 1998 by the U.S. Secretary of Commerce
##DATE=98/10/1
##$SPECTRA VERSION=1.00
##$UNCERTAINTY IN Y=2.0 % relative (B=1.0E-04,C=3.0E-10,D=2.7E-14)
##CAS NAME=Ethyl Ester-Propenoic Acid
##CAS REGISTRY NO=140-88-5
##MOLFORM=C H2: C H C O2 C2 H5
##MP=-71.2 C
##BP=99.8 C
##$NIST SOURCE=QUANT-IR
##SPECTROMETER/DATA SYSTEM=IFS66V (Bruker)
##INSTRUMENT PARAMETERS=KBr Beam splitter; MCT Detector; Multipass cell
##STATE=gas
##SAMPLE DESCRIPTION=Ethyl Acrylate Primary Gas Standard
##PRESSURE=101.3 kPa
##TEMPERATURE=23 C
##SAMPLING PROCEDURE=1 L/min Flow
##RESOLUTION=1.9290
##DATA PROCESSING=3-Term B-H Apodization
##XUNITS=cm-1
##YUNITS=(micromol/mol)-1m-1 (base 10)
##XFACTOR=1.0
##YFACTOR=18.189E-13
##DELTAX=0.9645
##FIRSTX=574.687
##LASTX=3974.595
##FIRSTY=5.24E-07
##MAXX=3973.63
##MINX=574.69
##MAXY=.0020713
##MINY=-4.85E-07
##NPOINTS=3527
##XYDATA=(X++(Y..Y))
574.69 288564 323598 413932 460608 447210 387350
579.51 344722 332650 344590 383172 377230 332886
585.29 294754 316456 385476 437998 517050 614864
591.08 667526 665556 667546 743250 884256 1046050
596.86 1281612 1537464 1742916 2021212 2391982 2694874
602.65 2902924 3074978 3182858 3187326 3202352 3489092
608.44 4072588 4389848 4147210 3948586 4111066 4379868
614.22 4557352 4584580 4463074 4220756 3918576 3612130
620.01 3333586 3107758 2926104 2742402 2565838 2433446
625.79 2339868 2273660 2205668 2080258 1914206 1750142
631.58 1622458 1564852 1548612 1558028 1618706 1731044
637.36 1880554 2060932 2249886 2438700 2663106 2919604
643.15 3200510 3535358 3949022 4404932 4869790 5363086
648.93 5897774 6465228 7080578 7731670 8347866 8911344
654.72 9448300 9936792 10293670 10535960 10784420 11025550
660.50 11238650 11472040 11685800 11850780 11999630 12101430
666.29 12091390 11932970 11619090 11169140 10625800 10018940
672.08 9356628 8677444 8032706 7463146 7015214 6679830
677.86 6391888 6070218 5679114 5210000 4667570 4103000
683.65 3579302 3124512 2715482 2351742 2047786 1809562
689.43 1625210 1447524 1274992 1141788 1031090 915250
695.22 828130 768536 699366 640508 607020 569746
701.00 533340 518186 505704 478102 460028 456884
706.79 454196 447250 434330 433212 460886 485430
712.57 484588 494164 522096 539014 525674 508852
718.36 514542 535910 558664 574784 582992 588886
724.14 592096 584928 587956 615896 664542 711526
729.93 723582 716930 715964 731450 765604 796992
735.71 818668 835430 839342 849044 883742 917234
741.50 935048 957388 992170 1020934 1038314 1058608
747.29 1097644 1148330 1188412 1208102 1224454 1261942
753.07 1313822 1356718 1392584 1428616 1477024 1533126
758.86 1596704 1665674 1728192 1797314 1887532 2001040
764.64 2134472 2288876 2470712 2665710 2887904 3145748
770.43 3427660 3756388 4143300 4572258 5045954 5576592
776.21 6168642 6816494 7526394 8299430 9126514 10017920
782.00 10959380 11921080 12967700 14195880 15673310 17363280
787.78 19129060 20890280 22686410 24595310 26572970 28561120
793.57 30695230 33031990 35429960 37822970 40255520 42701720
799.35 45165730 47894980 51105830 54676380 58187620 60685100
805.14 61707120 62359710 63577620 65520290 68248480 71249220
810.93 73236300 73261260 71799050 69687540 67112140 64463290
816.71 62126630 59622230 56870650 54031180 50680950 47192620
822.50 44193020 41543760 38960590 36367120 33754440 31158680
828.28 28633040 26197820 23887950 21758000 19814950 18068320
834.07 16540310 15246510 14178390 13322510 12675090 12247550
839.85 12029820 12008510 12167470 12482080 12951970 13568630
845.64 14311660 15164310 16093490 17065330 18057360 19058940
851.42 20020410 20890020 21676100 22360800 22831430 23013600
857.21 23046940 23147080 23355070 23512420 23530220 23456320
862.99 23255950 22859000 22259930 21496530 20611820 19652650
868.78 18675080 17707070 16742510 15762440 14740220 13693900
874.57 12667800 11689360 10788840 9981694 9264720 8636510
880.35 8105152 7691632 7383556 7156366 7014922 6956842
886.14 6997270 7154838 7416282 7779244 8233418 8755096
891.92 9309674 9845772 10323110 10713400 11007170 11238490
897.71 11469270 11711280 11919460 12099960 12312830 12573010
903.49 12840030 13098350 13349640 13576200 13766120 13910230
909.28 14007820 14065140 14056290 13939220 13684830 13292900
915.06 12794810 12261630 11812490 11540990 11375310 11189950
920.85 11056160 11053230 11045500 10864640 10458570 9875652
926.63 9227654 8606554 8057200 7620778 7327308 7176504
932.42 7156032 7246224 7430464 7721818 8144518 8692896
938.21 9367262 10203960 11229950 12444580 13858820 15480950
943.99 17309510 19339020 21559670 23962700 26525690 29209100
949.78 31988560 34843920 37732940 40560860 43269500 45942210
955.56 48718570 51703130 55149150 59899630 67706780 79507410
961.35 90035540 89762980 81597130 79273180 86020420 93496440
967.13 93062090 86152800 81790230 82252040 84215680 86061630
972.92 87604190 88833120 89721820 90278500 90553180 90606640
978.70 90464480 90124770 89684820 89479420 90208580 93216410
984.49 100413100 109815700 111379200 100803800 89668860 86235770
990.27 86241590 83946970 78025630 71424460 66763820 63515900
996.06 60462180 57262510 53979280 50664280 47328300 44014580
1001.85 40771170 37640380 34656130 31849030 29273280 26997140
1007.63 25057730 23465810 22211980 21284130 20672160 20374420
1013.42 20421020 20865760 21735910 23038250 24789820 27042310
1019.20 29845730 33237200 37234960 41841470 47038910 52778800
1024.99 58949050 65384370 71903150 78310720 84363040 89771890
1030.77 94333300 98099320 101449400 104635500 107083500 108571500
1036.56 110346700 113147700 115913000 117028900 116040500 113822100
1042.34 110664500 106008200 100495200 95496010 91329120 87718270
1048.13 84666020 82449620 81375240 81708260 83609200 87129850
1053.91 92242100 98850110 106782500 115770400 125367900 134931200
1059.70 143783200 151422500 157573400 162158700 165521500 168510000
1065.48 172169300 176864800 181421600 184032900 183516100 181028600
1071.27 179670000 179544700 177774600 172409500 163251400 151185600
1077.06 137682200 124331800 112111800 101385400 92224200 84528780
1082.84 78121040 72754670 68228540 64528900 61737670 59884720
1088.63 58888040 58628800 58987700 59765710 60713370 61586380
1094.41 62159570 62331830 62218610 62087420 62159130 62337830
1100.20 62173190 61495590 60728310 60093200 59441620 58709280
1105.98 57747590 56314590 54324010 51876630 49127580 46249280
1111.77 43406920 40697890 38179670 35889870 33822440 31974080
1117.55 30352090 28929130 27699260 26805460 26319380 26048490
1123.34 25752130 25282260 24562420 23623210 22575410 21514120
1129.12 20501010 19598990 18854810 18260550 17783970 17429010
1134.91 17198330 17071340 17034240 17080240 17199830 17376430
1140.70 17602040 17888130 18234000 18625400 19052500 19518910
1146.48 20037120 20634680 21341630 22170490 23128890 24238520
1152.27 25517220 26965780 28582800 30394020 32431940 34725860
1158.05 37337110 40304930 43535680 47041990 51193120 56274110
1163.84 62197270 68853780 76280790 84454700 93094170 101842000
1169.62 110557600 119420700 128895600 139639800 152315900 167147700
1175.41 184195200 204481900 229328400 259503300 295591400 338100600
1181.19 387673600 444798800 509471800 581139100 658527400 739178000
1186.98 819395600 894767400 960558100 1012882000 1050459000 1075230000
1192.76 1091449000 1104027000 1116781000 1129162000 1134255000 1132580000
1198.55 1135279000 1138713000 1124600000 1079919000 1002767000 901441900
1204.34 790094400 681660700 584295500 501824000 434252300 379277200
1210.12 334489000 297455900 265379000 236179400 209295400 185067200
1215.91 163599200 144783300 128762700 115420100 104421200 95445540
1221.69 87939640 81480710 75842340 70906280 66618300 62917040
1227.48 59720980 56969380 54633290 52686620 51088490 49823340
1233.26 48856490 48110200 47445950 46778760 46192440 45741300
1239.05 45293040 44751810 44166830 43666450 43331070 43210180
1244.83 43326850 43707380 44474230 45746420 47557270 50003910
1250.62 53247020 57496360 62995490 70020710 78843130 89703500
1256.40 102742200 118009500 135388800 154524600 174851900 195692800
1262.19 216304000 236087400 254716300 272237800 289086200 305802400
1267.98 322349700 337562800 349613700 357383800 361470300 363662700
1273.76 364889000 364723400 362349200 356853300 346997300 330148100
1279.55 305711600 280873100 263794900 252785400 240449900 225369300
1285.33 210753000 198184500 188749200 183857400 184258500 189658900
1291.12 198805800 209769400 220147200 227497400 230307600 228679700
1296.90 224767400 224387600 232672400 240726100 238003700 235656100
1302.69 241781000 246812700 243080000 229531100 208062800 182845400
1308.47 158521900 137500500 120111000 105892400 94197250 84366720
1314.26 75857430 68308740 61591060 55587490 50171580 45274350
1320.04 40914710 37079060 33708760 30703970 27968610 25473510
1325.83 23249350 21262400 19466220 17822120 16322630 14962430
1331.61 13753150 12694570 11782530 11004620 10368860 9854204
1337.40 9433054 9080254 8798434 8579882 8413102 8274372
1343.19 8163652 8077836 8011662 7963576 7947794 7965778
1348.97 8022144 8119280 8278108 8506348 8814022 9218952
1354.76 9746180 10396540 11181730 12110730 13166580 14291720
1360.54 15428460 16483340 17351870 17976690 18436540 18971430
1366.33 19870950 21049960 22142040 23015610 23732770 24589890
1372.11 25900800 27552720 29320600 31117410 32982330 35026250
1377.90 37420810 40314120 43799050 47870840 52404760 57134540
1383.68 61750530 65952320 69526780 72490400 75157810 77897020
1389.47 80684940 83340480 86494980 90865380 96871500 104886000
1395.25 114297000 124098500 134093300 144726400 156603200 169982400
1401.04 184580000 199563600 213529000 224885400 232654900 236914500
1406.83 239150800 242393300 246955000 247261200 242986400 240249800
1412.61 239863900 238637700 233915600 224572200 211602600 196425300
1418.40 179336300 160465400 140490300 120480800 101589600 84751980
1424.18 70490430 58932940 49910480 43109940 38123960 34521810
1429.97 31919170 30043750 28706840 27784020 27189670 26870920
1435.75 26788640 26900610 27158190 27534520 28003040 28550590
1441.54 29159560 29788900 30400260 30992640 31578770 32161920
1447.32 32777740 33533270 34537080 35784560 37020660 37858940
1453.11 38131720 38049920 38000920 38189390 38560200 39002750
1458.89 39375730 39652730 40098240 40937540 41944040 42652590
1464.68 43042720 43355230 43522780 43471300 43447230 43751070
1470.47 43967220 43217380 41844310 40904190 40500690 40182790
1476.25 39657870 38821050 37667620 36232300 34549000 32634220
1482.04 30485850 28160080 25836430 23818560 22405830 21697880
1487.82 21480720 21374140 21081630 20504410 19698170 18758000
1493.61 17760090 16761680 15793390 14887540 14065680 13332310
1499.39 12680870 12097660 11572550 11092300 10645340 10236150
1505.18 9855872 9497502 9171000 8885534 8632958 8407964
1510.96 8211146 8029824 7856798 7696166 7534378 7364676
1516.75 7187386 7006708 6830260 6660184 6492452 6320634
1522.53 6149012 5982206 5812004 5633782 5454220 5275768
1528.32 5093362 4916140 4756266 4610894 4475260 4351534
1534.11 4239622 4139178 4049342 3977548 3917942 3855662
1539.89 3791682 3741472 3705066 3674792 3653496 3645208
1545.68 3649534 3659004 3671014 3693558 3727628 3774892
1551.46 3831750 3897368 3972628 4049674 4134304 4229412
1557.25 4320368 4394304 4444356 4476908 4506512 4543824
1563.03 4596828 4660538 4713916 4751626 4783634 4811106
1568.82 4815942 4786990 4737988 4681578 4617708 4558890
1574.60 4522912 4501218 4483982 4478500 4486272 4504674
1580.39 4530524 4556366 4584162 4620502 4657290 4690640
1586.17 4725962 4767794 4815516 4876946 4956060 5039790
1591.96 5127822 5237844 5374798 5534712 5722198 5941454
1597.74 6182366 6443166 6740574 7086086 7483872 7942954
1603.53 8472042 9085310 9783952 10563410 11427310 12369260
1609.32 13379690 14465830 15639050 16905490 18261230 19670900
1615.10 21089680 22496430 23864300 25133580 26218990 27032460
1620.89 27552470 27902510 28320260 29063820 30256200 31810540
1626.67 33562740 35424250 37433940 39714320 42395290 45546460
1632.46 49158600 53063640 56799140 59712860 61199580 60997670
1638.24 59502970 57833620 56933830 55886830 53622410 52108320
1644.03 52842860 54390700 55744900 56209990 54395030 49826250
1649.81 43266880 35892060 28762690 22597810 17723300 14142760
1655.60 11667650 10031630 8955884 8228102 7713612 7321422
1661.38 7009818 6763628 6564900 6401870 6269134 6171370
1667.17 6107670 6067516 6049468 6058196 6088716 6139648
1672.96 6218696 6318290 6425428 6544440 6676388 6799550
1678.74 6896334 6980528 7077174 7197232 7341376 7511576
1684.53 7702526 7915844 8157256 8417838 8693928 8983948
1690.31 9285684 9609212 9956884 10335990 10767580 11251800
1696.10 11775090 12339360 12940550 13547760 14124100 14637930
1701.88 15043770 15298840 15411450 15475330 15687640 16295670
1707.67 17418700 18920100 20521750 22022320 23393330 24743920
1713.45 26220040 27929560 29970390 32463850 35524620 39274120
1719.24 43839760 49308180 55741480 63221130 71853490 81753150
1725.02 93052490 105894600 120412900 136772000 155118700 175585800
1730.81 198344400 223524200 251282400 281839400 315226600 351289500
1736.60 389775700 430106000 471140900 511096800 547404000 576743400
1742.38 595547600 601123500 593450500 576869100 559716600 550360300
1748.17 552447500 564692200 584131800 606493100 624456000 629512400
1753.95 617148700 588993700 550159700 505862500 459816500 414574900
1759.74 371814100 332340700 296436700 263922000 234390000 207497300
1765.52 182998700 160701900 140471300 122255600 105991300 91574900
1771.31 78926460 67948650 58496640 50436840 43632000 37932780
1777.09 33181850 29228120 25947050 23238030 21014200 19186890
1782.88 17679930 16428250 15374440 14492890 13763890 13143500
1788.66 12603100 12135970 11727420 11350700 10981350 10617600
1794.45 10272280 9945166 9635044 9347620 9097010 8890106
1800.24 8710588 8550842 8409028 8270906 8122864 7963064
1806.02 7794096 7618880 7444620 7273482 7108824 6952010
1811.81 6801912 6664416 6546790 6448122 6365786 6300776
1817.59 6254942 6230358 6226756 6228420 6207312 6159828
1823.38 6105614 6052752 6005544 5966030 5922558 5867792
1829.16 5802030 5726310 5644930 5551824 5442286 5325166
1834.95 5205960 5093168 4997090 4914496 4833332 4742878
1840.73 4631342 4493360 4344290 4199908 4063476 3932610
1846.52 3803742 3680462 3561530 3444744 3336566 3232168
1852.30 3126354 3029856 2949190 2881074 2818952 2754194
1858.09 2689996 2633698 2580834 2529520 2483924 2440992
1863.88 2400964 2371298 2354208 2347718 2350912 2365228
1869.66 2388396 2418160 2465826 2534268 2610908 2696812
1875.45 2799492 2913598 3034978 3163728 3295586 3427062
1881.23 3562486 3697620 3824666 3949074 4070446 4182766
1887.02 4285032 4368846 4428568 4473252 4515740 4560940
1892.80 4599676 4625914 4650356 4672470 4681132 4675522
1898.59 4659152 4631220 4595136 4564090 4552430 4571752
1904.37 4621356 4691862 4790422 4929806 5101812 5301506
1910.16 5536072 5801460 6098776 6438362 6813906 7213900
1915.94 7634844 8075520 8535504 9011580 9496890 9992378
1921.73 10509750 11074100 11717710 12447560 13239100 14027190
1927.51 14698250 15142410 15305840 15203480 14916590 14540620
1933.30 14128900 13675870 13205290 12856000 12727400 12687230
1939.09 12474490 11953090 11160180 10205240 9206720 8259444
1944.87 7419258 6711858 6143970 5707440 5387172 5162882
1950.66 5005420 4891546 4830514 4821750 4811994 4739002
1956.44 4587512 4387602 4171828 3961918 3768228 3589912
1962.23 3432522 3300944 3185606 3080520 2986642 2907286
1968.01 2840344 2780336 2732262 2694110 2650090 2592166
1973.80 2530990 2479696 2439568 2411374 2398484 2395452
1979.58 2396742 2402230 2407838 2404974 2389062 2362758
1985.37 2335342 2314378 2294946 2266812 2233104 2207306
1991.15 2193760 2183490 2162992 2119466 2052122 1974990
1996.94 1897474 1816170 1737596 1677004 1632714 1595618
2002.73 1566618 1543188 1526982 1520852 1515180 1506890
2008.51 1503256 1503854 1508770 1525568 1552532 1576448
2014.30 1598598 1627424 1658796 1687880 1716652 1752680
2020.08 1795186 1837622 1882950 1935622 1994910 2060108
2025.87 2129730 2206080 2290090 2374386 2461458 2561656
2031.65 2677374 2807150 2949736 3113452 3302104 3511324
2037.44 3744502 4005704 4303016 4634994 4985002 5348234
2043.22 5720910 6090844 6443870 6768474 7065338 7337726
2049.01 7584712 7810152 8023602 8232984 8430336 8592620
2054.79 8706922 8785276 8830110 8812920 8702104 8483532
2060.58 8175454 7821158 7460458 7111326 6785082 6485018
2066.37 6201160 5926896 5657510 5383522 5104054 4834470
2072.15 4589158 4364930 4154536 3960268 3788636 3636768
2077.94 3500676 3380256 3276032 3195778 3139004 3095112
2083.72 3064770 3052176 3048396 3051196 3059444 3064328
2089.51 3064108 3063856 3063546 3058276 3043628 3016286
2095.29 2986300 2962560 2936992 2902230 2863104 2823024
2101.08 2774844 2718218 2657592 2593428 2531818 2476890
2106.86 2430688 2392524 2363428 2347572 2338774 2335556
2112.65 2339036 2343816 2351694 2369856 2392586 2404938
2118.43 2409846 2417578 2425588 2429536 2430824 2433184
2124.22 2435720 2432430 2425314 2423032 2418840 2403886
2130.01 2380672 2354364 2323288 2286012 2250816 2217574
2135.79 2181634 2139866 2091506 2049006 2016344 1981184
2141.58 1938272 1897846 1863428 1826518 1788182 1752266
2147.36 1724284 1699520 1671608 1651436 1640746 1632968
2153.15 1630206 1632102 1640666 1655708 1668532 1683766
2158.93 1702930 1715614 1719736 1721716 1720156 1702296
2164.72 1670304 1635684 1600336 1565004 1531452 1493602
2170.50 1448542 1403724 1360186 1310666 1251388 1185742
2176.29 1121634 1062226 1005400 958832 929182 905984
2182.07 886168 876486 873268 868680 866056 869130
2187.86 870172 869794 877632 887472 893618 894724
2193.64 890140 887148 890532 895226 897000 890338
2199.43 879110 870382 860334 850794 842118 833812
2205.22 825512 817044 812640 810430 809662 806558
2211.00 801022 802676 805518 801126 802602 815904
2216.79 830640 843146 858002 872186 887714 908078
2222.57 925000 934342 939232 938308 931174 929052
2228.36 934988 947648 967750 990866 1010928 1022398
2234.14 1024768 1023848 1020446 1013652 1007944 1005478
2239.93 1006128 1007768 1009210 1015912 1025346 1029298
2245.71 1031438 1032480 1029254 1024890 1020426 1013602
2251.50 1007098 1000068 992956 991706 996822 1002632
2257.28 1008188 1014730 1022024 1027954 1034760 1046904
2263.07 1062342 1073248 1074080 1070956 1067750 1064278
2268.86 1061526 1055166 1048738 1046922 1048952 1054868
2274.64 1053964 1045644 1043174 1041424 1039738 1042070
2280.43 1042404 1038092 1028638 1018162 1012328 1010366
2286.21 1011208 1016408 1021428 1016280 1013218 1029844
2292.00 1054340 1072304 1088230 1109098 1134448 1163858
2297.78 1194012 1219764 1245916 1278346 1308906 1337370
2303.57 1369146 1400940 1436088 1477232 1515624 1546820
2309.35 1579766 1614952 1647968 1678180 1697246 1705296
2315.14 1708466 1707828 1707344 1707312 1709262 1713342
2320.92 1710614 1699844 1690066 1685764 1675378 1649634
2326.71 1613788 1579298 1549408 1514964 1472012 1430340
2332.50 1394234 1363418 1333516 1303084 1283846 1275228
2338.28 1259104 1226880 1189922 1155920 1122272 1095530
2344.07 1080022 1074378 1074286 1080682 1103926 1136748
2349.85 1168494 1208466 1259796 1318908 1389188 1466076
2355.64 1544392 1625530 1703400 1771974 1835864 1896974
2361.42 1959760 2027026 2094600 2163326 2239394 2328266
2367.21 2427952 2530604 2629696 2725906 2823808 2925226
2372.99 3026338 3120018 3208192 3300544 3402304 3505886
2378.78 3600348 3685936 3763600 3828254 3877368 3907714
2384.56 3932720 3962934 3975946 3962510 3935440 3897068
2390.35 3840930 3757946 3647762 3518842 3363176 3183658
2396.14 3001688 2826964 2667992 2527480 2394476 2267648
2401.92 2155260 2055978 1966224 1883628 1808086 1746456
2407.71 1697982 1657110 1625596 1596832 1573338 1561184
2413.49 1549118 1536040 1525566 1511328 1493612 1477682
2419.28 1463882 1451366 1437748 1422102 1406160 1388192
2425.06 1367570 1339388 1298724 1251912 1207252 1163266
2430.85 1119474 1079048 1044270 1011238 969894 926684
2436.63 894204 864270 831090 801926 779668 759330
2442.42 739224 716378 694602 679500 668594 666786
2448.20 669584 662016 650290 650606 662446 673496
2453.99 680914 689476 708574 733548 753166 777290
2459.77 808766 839948 870466 907362 956502 1013806
2465.56 1065754 1102892 1136916 1179522 1224076 1263494
2471.35 1300610 1334450 1364802 1393274 1420332 1445804
2477.13 1468894 1486832 1503456 1514726 1511512 1504982
2482.92 1500440 1494314 1486664 1475914 1463568 1449126
2488.70 1439380 1431532 1413774 1388478 1363914 1341386
2494.49 1324456 1313354 1298766 1276912 1253508 1227832
2500.27 1197010 1163474 1131822 1097990 1058582 1022398
2506.06 989562 952134 915544 887390 866388 846390
2511.84 824276 803410 788552 772408 749990 737464
2517.63 734572 733778 735916 733890 732876 740032
2523.41 753014 771526 789460 803070 817358 832666
2529.20 852658 879150 904124 925788 949796 978994
2534.99 1008430 1031176 1042586 1048162 1059430 1076268
2540.77 1090654 1096388 1104290 1118334 1123842 1120322
2546.56 1122252 1125816 1121506 1115028 1114202 1116366
2552.34 1120330 1120060 1112014 1102254 1090398 1071072
2558.13 1041100 1008670 976956 941562 909390 880652
2563.91 851106 826678 810334 794874 775730 747666
2569.70 712792 674106 632856 596896 570442 550230
2575.48 536376 528356 524298 523260 524794 519874
2581.27 511704 514938 527634 546056 567132 592268
2587.05 622576 645744 665636 692642 725740 756978
2592.84 782886 807366 831266 853548 874580 896206
2598.63 919676 938422 954770 972868 985338 987884
2604.41 986458 984740 975236 956896 946210 954346
2610.20 964908 960256 950946 943508 931238 909246
2615.98 884090 866236 852936 836062 816114 795634
2621.77 776400 762502 751140 733902 712810 695566
2627.55 683060 671594 668618 670504 666320 657920
2633.34 652030 650752 658292 674542 688924 698578
2639.12 712612 726914 733984 744150 760926 779064
2644.91 792536 801610 818692 842632 864472 884338
2650.69 898724 911008 927044 943210 960714 980028
2656.48 1001002 1025716 1052558 1070132 1078108 1083166
2662.27 1088060 1088860 1088890 1094164 1100642 1108384
2668.05 1117258 1121388 1126864 1135596 1135332 1122184
2673.84 1109160 1097494 1080162 1055802 1040426 1040890
2679.62 1037618 1026044 1024022 1031864 1034810 1037320
2685.41 1043958 1046690 1048320 1060168 1083488 1104680
2691.19 1128694 1165240 1204682 1247630 1302776 1363674
2696.98 1415532 1458796 1492812 1518450 1546928 1567642
2702.76 1580572 1594332 1610700 1628100 1636916 1636024
2708.55 1629930 1618350 1598230 1576666 1552734 1522406
2714.33 1494324 1465464 1435712 1420996 1425734 1436238
2720.12 1444978 1447054 1442558 1443366 1450752 1452738
2725.91 1455672 1465240 1483320 1504304 1522200 1546332
2731.69 1583778 1619152 1625790 1606060 1586204 1567810
2737.48 1539772 1504660 1473690 1454298 1437898 1421074
2743.26 1419264 1427802 1439180 1458794 1485650 1506516
2749.05 1517668 1531174 1544820 1551366 1555098 1562860
2754.83 1574068 1590766 1625308 1684214 1752142 1801106
2760.62 1845544 1904788 1966170 2021162 2078098 2127436
2766.40 2161162 2187984 2209950 2225680 2238974 2246426
2772.19 2236018 2205780 2172218 2140342 2109750 2080960
2777.97 2044588 1989958 1921574 1848980 1776088 1711028
2783.76 1654152 1598260 1551922 1521660 1511620 1516116
2789.54 1521108 1525132 1539852 1558804 1576342 1601294
2795.33 1622486 1632398 1647542 1676970 1707720 1730516
2801.12 1759812 1800358 1842996 1886274 1933950 1985416
2806.90 2039026 2091102 2141322 2198292 2269992 2349950
2812.69 2432068 2515660 2617680 2742028 2863370 2980000
2818.47 3109936 3238700 3342860 3422450 3485564 3529976
2824.26 3558092 3579050 3602458 3632502 3668416 3701686
2830.04 3732188 3768082 3794280 3791700 3774596 3752296
2835.83 3731354 3726926 3728990 3725166 3727468 3728968
2841.61 3735604 3761244 3796774 3834724 3871004 3900278
2847.40 3934538 3979710 4025608 4071978 4125128 4183032
2853.18 4250300 4329136 4409708 4481986 4547156 4611162
2858.97 4684556 4764516 4853434 4967020 5115440 5298318
2864.76 5501056 5715730 5963188 6261242 6613448 7031934
2870.54 7539182 8154586 8892432 9768616 10801560 11999100
2876.33 13335450 14744490 16149770 17450720 18528030 19296950
2882.11 19782950 20133550 20522120 21009560 21578170 22193180
2887.90 22797840 23333110 23770250 24085410 24255200 24295460
2893.68 24252200 24163690 24097440 24101540 24201220 24432090
2899.47 24826230 25399980 26109880 26855520 27595830 28350200
2905.25 29139270 29950670 30757200 31530120 32227400 32821980
2911.04 33336830 33776840 34116380 34289500 34171160 33685660
2916.82 32968640 32272420 31763810 31497480 31444620 31513840
2922.61 31585070 31554660 31379820 31078530 30714990 30362570
2928.40 30114160 30064090 30327010 31000590 32117630 33647280
2934.18 35536240 37693970 39972580 42180800 44127490 45739650
2939.97 47182120 48763940 50521220 51936940 52823660 53770430
2945.75 55202210 56913390 58180940 58368500 57850630 57341870
2951.54 56927460 56450230 55932640 55304680 54319160 53202820
2957.32 52486540 52232020 52204400 52318580 52756610 53670580
2963.11 55084420 56546540 57192600 57196610 57673280 59025160
2968.89 60848660 62859290 65358380 68725710 72988500 78023800
2974.68 83707460 89873080 96339000 102918300 109528500 116336200
2980.46 123799900 131828500 138253800 141036900 141754000 142507500
2986.25 143481200 144784900 146667000 148274200 149338200 152033500
2992.04 159069000 171457400 180931600 174799300 158451600 144927000
2997.82 135838000 128604700 122000500 115557900 109307700 103254500
3003.61 97339180 91827500 86977720 82723540 78884630 75192890
3009.39 71235870 66845360 62134680 57290620 52463900 47787530
3015.18 43377340 39328870 35668370 32381110 29417410 26749980
3020.96 24379770 22293340 20474580 18920700 17608210 16521640
3026.75 15613560 14840720 14205360 13735710 13421010 13242550
3032.53 13193050 13248160 13404790 13711270 14198370 14880320
3038.32 15736980 16707080 17681240 18528750 19127860 19396000
3044.10 19314220 18988230 18650020 18517630 18513610 18276930
3049.89 17844240 17680050 17836670 17987600 17825040 17183890
3055.67 16084910 14678980 13146250 11647990 10287220 9130788
3061.46 8214134 7520270 6998096 6618008 6366006 6233724
3067.25 6189098 6199390 6255874 6358184 6493946 6643570
3073.03 6790862 6941974 7083676 7199394 7292182 7360882
3078.82 7377988 7328220 7236120 7134736 7061312 7032390
3084.60 7008050 7000018 7043276 7069462 6991110 6797366
3090.39 6526392 6229374 5923692 5637058 5407340 5252248
3096.17 5184296 5226560 5407158 5760816 6328318 7140502
3101.96 8211114 9534264 11073620 12716260 14225860 15319060
3107.74 15734880 15312950 14215190 13221630 13347580 14485810
3113.53 15411390 15241740 14485120 14544450 15387210 15921970
3119.31 15649790 14592830 12979760 11136730 9319916 7679352
3125.10 6316296 5259460 4469094 3879616 3448036 3150526
3130.89 2937902 2771488 2627630 2494228 2383086 2298684
3136.67 2227912 2160196 2097232 2053900 2035740 2034230
3142.46 2036570 2045432 2055438 2065698 2085770 2104884
3148.24 2117668 2133566 2143940 2141792 2128824 2116386
3154.03 2111844 2102536 2084614 2063498 2039460 2019252
3159.81 1996904 1965076 1926766 1893476 1869822 1850494
3165.60 1820932 1783550 1745706 1713158 1689496 1665008
3171.38 1636402 1611392 1584178 1549274 1513816 1492716
3177.17 1473112 1440916 1408400 1384394 1373374 1359284
3182.95 1330208 1296598 1263322 1245260 1229926 1203592
3188.74 1177192 1160792 1151062 1136970 1116374 1104032
3194.53 1087510 1059584 1046010 1045852 1037762 1026686
3200.31 1019010 1009534 1001864 988908 975162 970388
3206.10 957544 938260 927956 920838 917780 920724
3211.88 917574 911120 906838 908194 914978 913744
3217.67 900792 901104 913910 921930 925688 936028
3223.45 956434 970236 976970 990238 997576 997172
3229.24 1005642 1016980 1025434 1039892 1059138 1069786
3235.02 1062436 1051930 1049760 1049308 1043890 1042786
3240.81 1051156 1056792 1056788 1046358 1023216 995488
3246.59 971536 954472 926066 887688 855340 824178
3252.38 780442 732166 697142 676734 653004 608426
3258.17 550122 503056 469206 430862 391382 357622
3263.95 323348 295942 272640 247508 222768 196250
3269.74 172018 155516 140484 120802 111436 115838
3275.52 114214 109306 101180 87246 81726 71312
3281.31 41290 18116 17878 32960 37724 21206
3287.09 5524 1630-4978-19866-29580-29648
3292.88-29154-37094-44864-51234-65238-68814
3298.66-58560-43402-26648-18104-17016-8334
3304.45 13970 39890 53776 59542 72028 101618
3310.23 132842 144810 149310 169772 190870 202626
3316.02 206240 206024 220084 234372 237822 243984
3321.80 255406 269354 279554 279170 277030 287758
3327.59 308716 325124 330898 334074 339786 342376
3333.38 342946 354016 360000 356854 362554 373040
3339.16 381924 391154 404064 422914 446996 467638
3344.95 475706 480928 496646 527970 565424 591926
3350.73 597618 604066 635366 670378 687798 705902
3356.52 733384 758476 782356 805280 822560 840470
3362.30 860654 876358 880694 877640 870880 863100
3368.09 866950 877432 875010 857884 849386 858524
3373.87 862388 858246 861500 870486 880338 901676
3379.66 929176 953480 978656 993960 992034 996754
3385.44 1012082 1014932 998196 971252 935280 898282
3391.23 865936 848158 854270 857270 844530 832854
3397.02 800010 719674 625556 555352 503486 446304
3402.80 376774 308570 256726 231324 221940 220962
3408.59 220694 215402 210728 201420 190680 188022
3414.37 189436 180994 167396 166872 157176 141196
3420.16 138722 132538 126968 127780 126462 127902
3425.94 137980 147416 150422 139774 119400 119888
3431.73 128842 124926 124650 138626 149420 150048
3437.51 157444 168314 175004 180050 181568 192666
3443.30 214812 229718 263820 325384 380130 430614
3449.08 491174 568784 664680 770274 880084 1008638
3454.87 1152610 1308506 1494870 1712806 1941800 2173418
3460.66 2419484 2698414 3012538 3339778 3667128 4015442
3466.44 4377586 4736584 5094162 5430482 5743570 6032886
3472.23 6265898 6440046 6554990 6600894 6599382 6587292
3478.01 6599896 6670564 6782574 6887746 6940234 6908138
3483.80 6792366 6590336 6294724 5916834 5486644 5045852
3489.58 4622690 4213068 3804792 3407392 3030736 2670608
3495.37 2327718 2018248 1740776 1481214 1238832 1030372
3501.15 860326 707202 559026 424790 303052 195014
3506.94 114866 59958 12488-33452-77894-115394
3512.72-143842-174688-204006-222704-231558-228008
3518.51-217180-216756-229262-240666-254928-267118
3524.30-263778-253824-245418-240528-238462-242762
3530.08-246688-244948-250256-258418-247016-222320
3535.87-214266-209198-195930-198052-201710-184156
3541.65-162788-146858-141904-146562-142706-127248
3547.44-105178-89136-80426-71458-65700-54544
3553.22-33868-20438-17326-5336 18512 38142
3559.01 52572 57530 46964 45942 67056 81424
3564.79 74900 69594 75312 81312 77206 70110
3570.58 69930 70786 74192 76666 61784 36182
3576.36 24078 19508 9678 7722 14982 23122
3582.15 28648 28634 17410 2370-2034-5610
3587.94-15614-13138 6934 20630 15464 14422
3593.72 29166 44466 46880 34940 25624 23660
3599.51 15354 18012 31868 39492 37876 39160
3605.29 53448 56710 44924 47254 53282 51440
3611.08 54604 57122 50156 43950 44954 44080
3616.86 42522 46848 50736 44098 34784 36670
3622.65 29702 18210 25980 39964 39946 38660
3628.43 40282 30934 23644 26200 25444 22068
3634.22 19468 11150 5352 19238 34002 29292
3640.00 15528 6204 7590 13784 15300 12760
3645.79 2950-4286 6088 18870 20554 17976
3651.57 7386-3440 918 20558 25954 4566
3657.36-10154-6890 3014 13698 19740 20204
3663.15 17678 22792 28556 17516 7086 10548
3668.93 17684 24762 25642 19200 12534 16788
3674.72 28128 20862 10432 18618 24336 22816
3680.50 18744 10320 3070 6802 17460 26350
3686.29 36766 44978 34220 19998 25324 38092
3692.07 40440 32042 25082 31162 37430 32528
3697.86 28006 32842 39434 45650 48988 52042
3703.64 51378 51556 56300 51176 47306 53356
3709.43 62178 61606 52738 57532 75514 87746
3715.21 90962 95054 103964 107098 107004 107936
3721.00 103262 107140 116970 119346 116572 115198
3726.79 119558 122044 119024 125522 142174 155212
3732.57 154078 141698 130162 126616 128592 139392
3738.36 152358 152816 151102 151468 155782 174178
3744.14 182822 170682 163212 168572 180006 185252
3749.93 191760 206598 209996 198620 192066 199538
3755.71 210432 218122 229884 248476 252786 255674
3761.50 269426 277904 286106 294332 301788 311648
3767.28 316108 322138 328258 329716 336332 343532
3773.07 346896 346468 342402 339050 332954 328886
3778.85 332138 327316 313882 314488 321800 314510
3784.64 300612 290408 275856 261598 261780 266868
3790.43 262342 251412 235548 220942 216972 224226
3796.21 229610 214718 194450 197372 210096 208822
3802.00 199732 196272 187504 173630 167476 163632
3807.78 158934 150542 140646 137252 143292 153824
3813.57 152040 141958 142852 143986 133160 121038
3819.35 120564 128240 132074 129168 129380 138878
3825.14 151696 155194 143696 138982 152122 159894
3830.92 157464 164212 176380 180974 178934 185942
3836.71 199508 200896 202256 212588 214248 202326
3842.49 189418 184574 189482 199536 199710 189930
3848.28 187388 194984 207796 211162 202076 197596
3854.07 185468 174204 176382 172964 161664 150156
3859.85 144160 142346 136108 135912 140820 131546
3865.64 128326 145252 154108 146962 140240 135226
3871.42 129492 135928 139846 131328 129726 133446
3877.21 128022 118770 119426 131436 143540 150732
3882.99 159404 165360 162536 160736 165058 173736
3888.78 175978 170832 165866 168388 183306 191122
3894.56 186042 178106 174108 185340 201068 200926
3900.35 197422 204478 213658 212854 204802 202634
3906.13 199858 190850 175670 169808 177466 187190
3911.92 196156 201090 196714 181066 167142 157384
3917.70 151496 151946 151502 143378 127552 116720
3923.49 120050 122214 114638 106778 100990 102424
3929.28 111066 115368 115756 118516 113870 106348
3935.06 104000 104444 112142 124294 123182 108104
3940.85 105264 123974 142910 146000 150306 167610
3946.63 184814 190078 177386 168516 173362 180434
3952.42 191790 199956 203586 209334 205266 195474
3958.20 198820 211464 225378 234002 239930 259028
3963.99 280024 285900 287070 293236 304500 317028
3969.77 329924 346094 357280 361478 368326
##END=
