##TITLE=Ethyl Acrylate
##JCAMP-DX=4.24
##DATA TYPE=INFRARED SPECTRUM
##CLASS=IUPAC A
##ORIGIN=NIST, Anayltical Chemistry Division, 301-975-3108
##OWNER=COPYRIGHT (C) 1998 by the U.S. Secretary of Commerce
##DATE=98/10/1
##$SPECTRA VERSION=1.00
##$UNCERTAINTY IN Y=2.0 % relative (B=1.0E-04,C=3.0E-10,D=2.7E-14)
##CAS NAME=Ethyl Ester-Propenoic Acid
##CAS REGISTRY NO=140-88-5
##MOLFORM=C H2: C H C O2 C2 H5
##MP=-71.2 C
##BP=99.8 C
##$NIST SOURCE=QUANT-IR
##SPECTROMETER/DATA SYSTEM=IFS66V (Bruker)
##INSTRUMENT PARAMETERS=KBr Beam splitter; MCT Detector; Multipass cell
##STATE=gas
##SAMPLE DESCRIPTION=Ethyl Acrylate Primary Gas Standard
##PRESSURE=101.3 kPa
##TEMPERATURE=23 C
##SAMPLING PROCEDURE=1 L/min Flow
##RESOLUTION=0.9640
##DATA PROCESSING=Boxcar Apodization
##XUNITS=cm-1
##YUNITS=(micromol/mol)-1m-1 (base 10)
##XFACTOR=1.0
##YFACTOR=18.189E-13
##DELTAX=0.4820
##FIRSTX=575.169
##LASTX=3975.077
##FIRSTY=6.61E-07
##MAXX=3974.59
##MINX=575.17
##MAXY=.0020863
##MINY=-5.25E-07
##NPOINTS=7053
##XYDATA=(X++(Y..Y))
575.17 363586 79322 511366 440140 556864 375412
577.58 425698 595566 463100 368300 122132 555264
580.47 217242 400902 370826 179456 274724 652266
583.37 405176 221280 577224 37630 579700 235866
586.26 150786 198396 461646 457010 507796 218014
589.15 415744 711596 487030 512980 792286 834700
592.04 446804 795236 618768 654756 643380 611556
594.94 835700 951418 1027662 944074 937676 1353966
597.83 1535140 1521680 1718872 1748450 1631594 1987792
600.72 2156450 2549486 2598830 2767684 2807596 2875568
603.61 2955362 3204660 3138646 3154902 3395026 3187100
606.51 3087774 3125640 3043518 3324462 3533942 4139244
609.40 4529558 5416752 4371690 3803098 3653570 3797978
612.29 3944354 4106616 4243338 4410120 4604166 4634688
615.18 4631090 4561914 4737318 4503406 4276988 4355738
618.08 4061608 3899434 3723790 3644980 3460124 3291632
620.97 3160364 3105686 2996812 2918004 2878772 2794290
623.86 2533556 2603040 2441970 2410290 2400728 2353924
626.76 2205684 2342800 2200728 2243164 2271994 2040548
629.65 2018338 1854192 1854102 1807838 1602612 1554568
632.54 1549992 1564020 1579446 1564528 1447700 1604560
635.43 1544274 1561860 1653556 1765486 1769274 1811808
638.33 2062456 1941922 2197210 2306846 2357460 2335248
641.22 2518696 2704588 2759218 2936274 3026166 3144344
644.11 3428822 3400180 3722130 3892476 4213672 4487226
647.00 4519868 4861464 5185438 5259166 5626918 5872902
649.90 6198090 6496574 6639768 7050510 7455182 7724112
652.79 8120682 8346844 8671930 8883594 9214714 9422146
655.68 9778288 9917632 10253580 10510270 10301360 10555820
658.58 10499890 10892070 10929840 11089820 11139310 11116890
661.47 11359720 11520460 11585570 11761150 11783740 11829060
664.36 11871350 12060060 12112270 12137320 12172030 12116550
667.25 12177410 11961310 11828300 11691370 11521380 11146770
670.15 10916540 10676740 10362180 10023950 9700128 9429938
673.04 8996514 8589792 8340764 8084542 7677704 7322666
675.93 7223770 6928796 6842092 6644914 6477768 6440074
678.82 6344792 6051084 5877936 5729162 5525918 5219328
681.72 4983902 4682696 4356682 4087352 3838268 3518182
684.61 3233514 3222630 2883292 2686280 2512758 2261326
687.50 2257418 1985596 1895788 1756506 1662796 1731882
690.40 1476634 1486586 1325206 1275614 1158562 1098776
693.29 1110720 1079556 982920 861458 839444 799216
696.18 803994 812580 729440 701418 662406 564214
699.07 635984 646454 592082 570058 523944 545852
701.97 476288 545302 478024 587564 462112 501262
704.86 394678 469990 485562 441512 460934 444802
707.75 451998 473190 437562 426060 415136 428706
710.64 411174 458716 466376 567668 542540 353906
713.54 481910 550636 496772 468960 555526 603250
716.43 567898 473990 503714 518426 504066 480082
719.32 530506 541754 561502 548064 557690 606890
722.22 575970 569832 605940 560162 611668 589458
725.11 613810 598608 533244 540640 678332 537272
728.00 695806 566196 745334 759082 745970 715650
730.89 693064 738234 701248 740148 670320 727138
733.79 744092 783550 764504 830312 808484 813888
736.68 785026 901586 835486 848318 816022 814032
739.57 848726 926134 882926 941606 923962 963054
742.46 909034 915154 1007922 1016950 980688 1020478
745.36 1077406 1018678 1027300 1050616 1079544 1080154
748.25 1118188 1144954 1208384 1201620 1178798 1217466
751.14 1258700 1155396 1237592 1262900 1249652 1387738
754.04 1329190 1319394 1384142 1438774 1375910 1419208
756.93 1444496 1466930 1515170 1553634 1531554 1581202
759.82 1631536 1692148 1732466 1679892 1731202 1846360
762.71 1807098 1850030 1971994 1961066 2076114 2123168
765.61 2218002 2254298 2338652 2482806 2617582 2636200
768.50 2716784 2857378 3042004 3132564 3297330 3367722
771.39 3580704 3713126 3904020 4167196 4353242 4485108
774.28 4853542 4988056 5278936 5553192 5834856 6155128
777.18 6460006 6813874 7096104 7519906 7875624 8276640
780.07 8692190 9139846 9470180 9984114 10494970 10974210
782.96 11480680 11843090 12362560 12881220 13483300 14130360
785.86 14706380 15539470 16477030 17372790 18243240 19092180
788.75 20077280 20902060 21722210 22594630 23583990 24506230
791.64 25602730 26621890 27692140 28377080 29452650 30546930
794.53 31824810 33030240 34246360 35483260 36603610 37773530
797.43 39030500 40182090 41504650 42787150 44009810 44956380
800.32 46254920 47631420 49284420 50799040 52868520 54643010
803.21 56739860 57876600 60599280 62559250 61555150 61589600
806.10 61390930 62222520 62721270 63315830 63988700 65250900
809.00 66414330 67857340 69729700 71944300 73103960 74314810
811.89 74597780 74262220 72600750 71362220 71536300 70029700
814.78 68267340 67584610 65629040 63995380 62585860 62403210
817.68 61925260 60009050 57439610 56518740 55835610 54657270
820.57 52935520 50628700 48651390 46638610 45444860 44143080
823.46 42771600 41592380 40232780 38958730 37685120 36379950
826.35 35075820 33753000 32433530 31117600 29838010 28580320
829.25 27383530 26218510 24898830 23768050 22750320 21695640
832.14 20710930 19674380 18865440 18008690 17125290 16493490
835.03 15694060 15225670 14583740 14054580 13663980 13266200
837.92 12851620 12611220 12307320 12165960 12047260 11965940
840.82 11913380 11870290 12054800 12115830 12226620 12442990
843.71 12589580 12892480 13237020 13471680 13908510 14238810
846.60 14686970 15146590 15598480 16066170 16569130 17062200
849.50 17563390 18052700 18524790 19070210 19589840 20104410
852.39 20506580 20906170 21290520 21732000 22095490 22390970
855.28 22761800 23044960 23110710 23052170 23004050 23017170
858.17 23031980 23022500 23170100 23417540 23567800 23637100
861.07 23547420 23519130 23503840 23543680 23442050 23367790
863.96 23158580 22925640 22724450 22267620 21972550 21544260
866.85 21108490 20650370 20160320 19639970 19185180 18619970
869.74 18207060 17725890 17204890 16750020 16243850 15818090
872.64 15283830 14751640 14220150 13653240 13173990 12659660
875.53 12149110 11653930 11166520 10765420 10331520 9944040
878.42 9590074 9210904 8902450 8615356 8320450 8051034
881.31 7796806 7648252 7530910 7329186 7245400 7123478
884.21 7009104 6977690 6975516 6942842 6884476 6897958
887.10 7047558 7155668 7200174 7360822 7565506 7724490
889.99 7964932 8222726 8441890 8757538 8996294 9338186
892.89 9623324 9846782 10124940 10357820 10580900 10773800
895.78 10883030 11050140 11159170 11217670 11344030 11397250
898.67 11632010 11761960 11807150 11968190 12022690 12052550
901.56 12172950 12276700 12420680 12591100 12718620 12853460
904.46 12953860 13108460 13201700 13391680 13476910 13601440
907.35 13659330 13812320 13838100 13990560 13933640 14013810
910.24 14078380 14071970 14120970 14100970 14058320 14006520
913.13 13890630 13753610 13548570 13329180 13118660 12808780
916.03 12501790 12266650 11932130 11722220 11526790 11474320
918.92 11457480 11436730 11394260 11143780 10986020 10962240
921.81 10976600 11063260 11134460 11137010 11084630 10955300
924.71 10784920 10558040 10240270 9885190 9547624 9207428
927.60 8877906 8598128 8275014 8014686 7771762 7527590
930.49 7418570 7264026 7179124 7111116 7118636 7100614
933.38 7137308 7231194 7293344 7379242 7528530 7637482
936.28 7863236 8093846 8362724 8660740 8941008 9320004
939.17 9665956 10127900 10590450 11185050 11753110 12333190
942.06 13036170 13786820 14564000 15383620 16289820 17227600
944.95 18226880 19243970 20357280 21510760 22633240 23889770
947.85 25179020 26484310 27834960 29128620 30563140 31980580
950.74 33374660 34788950 36301230 37758100 39220820 40621550
953.63 42025920 43290640 44554400 45874210 47259610 48636100
956.53 50110190 51529850 53189460 54728230 56629300 58726240
959.42 61604340 65346170 70762560 78067500 87343270 96343230
962.31 101327600 98317390 84421170 73908870 72486300 75325370
965.20 79583990 85229450 91738970 97970180 101477600 99081140
968.10 90249370 80922940 79355870 79880760 80944790 82157860
970.99 83296800 84345900 85307420 86195770 86991980 87697310
973.88 88388470 89022450 89454780 89834740 90204090 90367620
976.77 90575990 90612700 90708690 90630830 90675620 90526590
979.67 90473970 90119600 89968400 89640200 89348820 89146830
982.56 89156920 89401860 90249960 91422250 93774460 97394320
985.45 103917300 112327100 121224000 121726100 113238000 98708060
988.35 86701760 84804160 84518100 85543430 86388040 87645830
991.24 87483720 86765210 83048580 77932870 73345160 69716440
994.13 67876820 66365980 64921510 63630750 62092900 60560480
997.02 58931360 57283130 55600030 54018000 52327660 50687850
999.92 48997310 47340090 45611770 44004590 42316040 40778320
1002.81 39091610 37592260 36037720 34632900 33127340 31763260
1005.70 30414400 29152620 27937850 26883130 25815000 24938570
1008.59 24059940 23333410 22646850 22128880 21511830 21203190
1011.49 20807070 20509470 20400390 20253460 20150910 20286000
1014.38 20389000 20724280 21043120 21573620 22136600 22903020
1017.27 23645250 24587290 25621870 26815700 28161380 29595350
1020.17 31189370 33025520 34896410 36985250 39211250 41605740
1023.06 44105040 46870550 49568780 52600630 55706020 58834120
1025.95 62052480 65365210 68643320 71954650 75195210 78466350
1028.84 81550860 84696490 87459620 90146610 92623040 94597020
1031.74 96707460 98281530 99821240 101370200 102922400 104787200
1034.63 106733100 108182900 108351900 108012300 108603500 109666300
1037.52 111213100 113045300 115028400 116800900 117904300 118175200
1040.41 117710000 116373200 114977100 113751000 113150500 111332300
1043.31 109884300 106575800 102817800 99985020 97478030 95065480
1046.20 93096810 91181680 89305110 87579720 85805900 84302400
1049.09 83002980 82048240 81186860 80805750 80667400 81101350
1051.99 81791780 82924960 84512020 86472550 88821370 91680830
1054.88 94754300 98268080 102188400 106349600 110791500 115425400
1057.77 120396400 125409800 130403400 135151000 139937200 144405500
1060.66 148345900 151942900 155390300 158244000 160850300 162645200
1063.56 164332700 165773700 166890100 168231800 169659100 171417700
1066.45 173726900 176870100 179916200 182447000 184254400 185008300
1069.34 185700100 186382300 182233500 179069800 178349300 178863900
1072.23 179870300 180505100 180540000 179438200 177250000 174167700
1075.13 169875700 164328400 158304700 152183900 144687900 137384000
1078.02 130203000 124151200 117440900 111341700 105889200 100791400
1080.91 95993400 91563590 87654460 83978380 80767210 77582780
1083.81 74982540 72535180 70077420 67851580 65908760 64207600
1086.70 62605600 61300820 60325620 59524380 58995340 58580280
1089.59 58404480 58346530 58508660 58779180 59276190 59695050
1092.48 60173590 60773440 61255540 61688040 62153990 62318690
1095.38 62493120 62485190 62342820 62246260 62050130 61993710
1098.27 61930920 62030630 62208960 62538070 62674640 62485010
1101.16 62250940 61424330 60716760 60652870 60470970 60198010
1104.05 59785620 59433430 59046330 58825840 58441540 57963320
1106.95 57334300 56587200 55662400 54457900 53264580 52068440
1109.84 50611400 49158480 47719660 46238140 44719800 43370090
1112.73 41972130 40641780 39281480 38094270 36892990 35816290
1115.63 34740650 33753320 32750390 31888850 31050230 30255750
1118.52 29497780 28959940 28221010 27558950 26959190 26551180
1121.41 26361630 26280070 26125820 26085950 25978590 25816820
1124.30 25625030 25423050 25072380 24675080 24174400 23660430
1127.20 23122500 22562070 22052070 21488870 20963710 20464280
1130.09 19971180 19517520 19126800 18796200 18477750 18242230
1132.98 17953730 17761110 17497690 17377450 17256650 17172120
1135.87 17075130 17040800 16987320 17029070 17002790 17039430
1138.77 17112150 17178970 17252380 17376280 17466500 17565480
1141.66 17691670 17881250 18036640 18199000 18417680 18611480
1144.55 18841330 19010450 19260090 19529580 19729510 19998940
1147.45 20295940 20588220 20909360 21289230 21701780 22130890
1150.34 22550710 23095100 23574720 24168140 24804070 25422950
1153.23 26144560 26945750 27656990 28503840 29377820 30308360
1156.12 31260090 32354550 33419390 34648460 35793720 37167160
1159.02 38593680 40256580 41750300 43557670 45266040 46653040
1161.91 48508520 50802640 53193940 55957450 58852350 61956270
1164.80 65122710 68546860 72123700 75924100 79938060 84262740
1167.69 88699940 93068570 97457590 101981500 106196700 110524900
1170.59 114857400 119184900 123695500 128390900 133369400 138865600
1173.48 144696500 151318200 158445200 166558300 174967200 182774100
1176.37 191763200 202484000 214355400 227361500 241256700 256955100
1179.26 274240300 293208000 313345800 335091100 358855900 384551300
1182.16 412188500 441699000 472986300 506695900 541633400 579021000
1185.05 616706800 657097200 698012900 739358900 780539700 821289500
1187.94 860857200 898780900 934120600 966533300 994772700 1019639000
1190.84 1039394000 1056099000 1068800000 1078818000 1086595000 1092600000
1193.73 1098505000 1103514000 1109112000 1116101000 1122529000 1131288000
1196.62 1139706000 1146309000 1133956000 1122177000 1126267000 1133039000
1199.51 1143184000 1146994000 1146393000 1138588000 1121390000 1094544000
1202.41 1058350000 1013371000 962224400 905024200 846267100 787939900
1205.30 731823700 676636500 624840100 578098800 534486800 494969200
1208.19 460566300 429547600 401045600 374872500 351798600 331405800
1211.08 312610400 295371100 279694200 264576400 249737300 235310600
1213.98 221407600 208248400 195572800 183718700 172922200 162850900
1216.87 152907500 143329900 135123000 127545800 121101100 114510100
1219.76 108577000 103430000 99026230 94960060 91127160 87490480
1222.66 84177870 81172210 78357100 75518630 73017310 70618220
1225.55 68446190 66404960 64428100 62728330 61083140 59543240
1228.44 58130640 56794810 55572480 54469540 53466450 52568320
1231.33 51705760 50925160 50312510 49690440 49154000 48791140
1234.23 48408660 48036600 47758840 47532170 47198340 46667480
1237.12 46370680 46081930 45931130 45752880 45562820 45376980
1240.01 45084070 44773010 44447900 44136760 43818680 43579010
1242.90 43405200 43270940 43159060 43040060 43127660 43312720
1245.80 43393210 43507650 43810360 44239410 44836910 45575720
1248.69 46346390 47288760 48434100 49661460 51162030 52850710
1251.58 54767040 57004080 59498800 62371250 65649250 69240960
1254.48 73442640 77985140 83107660 88800450 95084980 101789800
1257.37 109159900 117137100 125586300 134665700 144149000 154016700
1260.26 164216400 174659800 185142300 195819400 206317300 216808800
1263.15 226647300 236594400 246143100 255281600 263964400 272526600
1266.05 280857300 289137900 297331000 305552300 314256400 322837800
1268.94 331019000 338991700 345995400 351445500 356106100 359258400
1271.83 360882500 362199100 362699700 363680500 364841300 365672200
1274.72 365793000 365432300 364632200 364078800 361659300 358159700
1277.62 354213200 349675800 343299100 335486100 322915800 306110400
1280.51 288951000 276027400 265666000 260526800 256317600 254833000
1283.40 252542300 241235600 232061400 224748800 217240100 210145100
1286.30 203240100 196984200 191354700 186769700 183455400 181606500
1289.19 181053800 182081800 184503300 188070700 192571600 198085100
1292.08 203820100 210030800 215884200 221529000 226158900 229670200
1294.97 231679100 232173200 231561600 230260800 227472200 224343100
1297.87 220176800 219108200 220511900 229002700 240573200 256842600
1300.76 253822200 229062900 225132500 229708600 237365700 243796400
1303.65 248947000 250963900 250652100 247231600 241405500 232986900
1306.54 222730000 209827800 195727900 181889400 168922300 157023800
1309.44 145928700 135892000 127045100 118720600 111501000 104849500
1312.33 98938110 93410980 88484820 83803540 79611840 75495570
1315.22 71656410 67947650 64500540 61295150 58263140 55364190
1318.12 52611940 49941120 47492820 45045900 42773090 40684050
1321.01 38747340 36878340 35195380 33515870 32047700 30592540
1323.90 29284610 27855490 26576590 25324370 24230640 23160120
1326.79 22136610 21179740 20294440 19393040 18593110 17723750
1329.69 17032420 16258150 15563600 14896580 14283400 13687380
1332.58 13150760 12603010 12188470 11748160 11309230 10920380
1335.47 10635060 10304960 10057980 9816456 9613132 9387502
1338.36 9250770 9045118 8881692 8768926 8693170 8525102
1341.26 8480892 8395282 8366706 8244150 8200146 8142044
1344.15 8130902 8046420 8063672 7995566 7972428 7942564
1347.04 7950886 7926078 7936380 7944864 7988732 8001164
1349.94 8043002 8102074 8146886 8259292 8344198 8475210
1352.83 8640608 8757608 8950608 9166922 9427142 9677898
1355.72 10016640 10343780 10726950 11097290 11561770 12068230
1358.61 12574390 13134690 13719030 14294410 14841510 15455940
1361.51 16039500 16583240 17030490 17451200 17845910 18050800
1364.40 18265040 18416660 18598380 18793700 19094670 19583770
1367.29 20381590 21353030 21806140 22100260 22571830 23193030
1370.18 23633490 23648560 23828810 24273710 25005050 25761020
1373.08 26638490 27530330 28451620 29276720 30254740 31072970
1375.97 31998950 32923850 33893730 34836830 36017060 37189390
1378.86 38578540 40053450 41719480 43557400 45520240 47641270
1381.76 49953580 52330880 54739940 57151110 59665710 61884000
1384.65 64113970 66248830 68218270 69773430 71285590 72621840
1387.54 73914010 75084460 76316030 77680660 79427790 80906670
1390.43 82409340 83179530 84140190 85382980 88281400 90977970
1393.33 92279050 95724920 99623860 104406400 109239300 114352700
1396.22 119190400 124147400 128886100 133882000 138906400 144184700
1399.11 149770100 155896400 162460800 169519000 176642800 184403300
1402.00 192098500 199837900 207599700 214779300 221038000 226409000
1404.90 230892800 234318000 236573200 237976500 238499000 239150300
1407.79 239142300 240045000 242155700 248948600 257443300 250319000
1410.68 243277400 240322400 239355900 239219400 239798500 240291600
1413.58 240525400 240371700 238579500 236217600 232419300 225822400
1416.47 219215000 212151200 204976200 197295300 189031000 180099100
1419.36 170765000 161043700 150754200 140528400 130211400 120009500
1422.25 110075100 100651600 91948800 83606610 76119860 69356430
1425.15 63299580 57877360 53133900 49002480 45398720 42385880
1428.04 39778160 37533380 35730250 34132340 32792010 31615380
1430.93 30673920 29810440 29158940 28528160 28053890 27655020
1433.82 27340660 27065190 26899580 26789400 26701920 26680270
1436.72 26782420 26865560 26930490 27117370 27295620 27485790
1439.61 27743880 27963470 28240720 28519140 28803220 29178670
1442.50 29482290 29787270 30116570 30417470 30702290 30987860
1445.40 31274090 31589220 31875260 32181770 32435270 32699210
1448.29 33037960 33465510 33840620 34395280 35016400 35797430
1451.18 36464970 37227100 37865610 38053740 38361930 38291600
1454.07 38207420 37985930 37849760 37851450 37971750 38119040
1456.97 38323300 38546010 38742350 38960660 39343450 39554700
1459.86 39518400 39548320 39659850 39894060 40227760 40784920
1462.75 41459290 42142670 42804220 42820200 42790880 42974560
1465.64 43189690 43444510 43613610 43674690 43612220 43481090
1468.54 43346800 43250320 43231970 43602770 43978660 44681560
1471.43 44949610 43464180 42229400 41390100 40917570 40652530
1474.32 40565930 40518010 40441920 40263570 40083440 39791320
1477.21 39458520 38924580 38398560 37784330 37112550 36311490
1480.11 35520640 34617110 33736800 32726120 31699200 30565910
1483.00 29407430 28177510 26944330 25705780 24572780 23539710
1485.89 22707150 22058140 21671550 21453760 21443500 21447620
1488.79 21511650 21449440 21401680 21229140 20965400 20574450
1491.68 20196360 19741000 19297800 18762240 18287370 17733800
1494.57 17248840 16765240 16261460 15752650 15297770 14847980
1497.46 14439100 14013360 13674210 13278480 12964040 12659390
1500.36 12373790 12056560 11804550 11547010 11335960 11062910
1503.25 10872580 10619500 10399350 10225050 10075030 9817652
1506.14 9662764 9503868 9308628 9135916 9009448 8880814
1509.03 8744426 8618824 8513544 8391254 8288582 8191598
1511.93 8142782 8036866 7920550 7841496 7775480 7692962
1514.82 7643736 7521532 7458138 7351274 7306316 7179734
1517.71 7092342 7012098 6899294 6832884 6766170 6624680
1520.61 6582184 6503686 6425528 6309320 6211442 6167486
1523.50 6059426 5983620 5890300 5826844 5744838 5611972
1526.39 5540404 5455850 5370964 5276098 5187966 5096158
1529.28 4995600 4907652 4813576 4751014 4694138 4600320
1532.18 4545576 4444036 4428624 4354322 4269716 4238874
1535.07 4186042 4140116 4091516 4035064 3994516 3976606
1537.96 3933852 3946878 3878100 3847946 3845196 3778680
1540.85 3740508 3719578 3760548 3676344 3704714 3657380
1543.75 3657760 3654022 3652082 3610826 3663370 3637004
1546.64 3663476 3648026 3688052 3641896 3669988 3698806
1549.53 3714916 3717322 3729070 3769328 3819810 3832184
1552.43 3838958 3900752 3914628 3997202 4010884 4043712
1555.32 4076536 4125520 4177700 4244918 4274982 4318342
1558.21 4381854 4403654 4430526 4452014 4478122 4462114
1561.10 4495246 4494784 4538974 4520792 4563198 4584150
1564.00 4622818 4681470 4694020 4724930 4741790 4740354
1566.89 4780656 4775780 4798328 4816272 4844508 4833428
1569.78 4825290 4780680 4775798 4735250 4707664 4687044
1572.67 4670018 4601340 4594436 4534686 4517676 4506762
1575.57 4545782 4488520 4484098 4477630 4478186 4466094
1578.46 4482290 4474294 4501626 4493534 4516630 4515786
1581.35 4574578 4546050 4570696 4557940 4606912 4630184
1584.25 4638350 4655008 4681340 4684494 4716978 4702768
1587.14 4756418 4757494 4801836 4808270 4828528 4861062
1590.03 4915252 4952312 5000928 5054506 5076546 5095956
1592.92 5179718 5220136 5306138 5341024 5468484 5522802
1595.82 5602482 5696636 5831800 5920448 6069328 6162748
1598.71 6320534 6411682 6569834 6714768 6883304 7081644
1601.60 7259518 7433500 7681810 7937272 8164222 8418388
1604.49 8737350 9048114 9387788 9765944 10130420 10514610
1607.39 10948180 11407720 11848830 12343640 12859240 13335710
1610.28 13871530 14436660 15008750 15592160 16218630 16885370
1613.17 17512550 18230050 18966190 19690690 20377190 21058790
1616.07 21848260 22492240 23190180 23909810 24584960 25205080
1618.96 25778870 26344360 26804890 27176970 27460090 27622960
1621.85 27766420 27892240 27992000 28188590 28419800 28836930
1624.74 29404090 30102240 30912850 31721810 32631580 33539260
1627.64 34468190 35369660 36310820 37317860 38422740 39540520
1630.53 40763010 42205230 43737380 45350700 47081650 48993630
1633.42 50982680 53128490 55190600 57138620 58861110 60347460
1636.31 61388600 61995190 62033340 61630900 60820980 59606160
1639.21 58384260 57215620 56519760 56495620 57122690 57632770
1642.10 56271110 52867960 50686140 50215110 51411280 53168110
1644.99 54372120 54268690 54618830 55897500 57004420 57419720
1647.89 56977480 55701850 53506460 50685270 47266790 43605770
1650.78 39650900 35765470 31907600 28309740 25013160 22036880
1653.67 19400850 17184220 15263850 13694070 12389620 11305870
1656.56 10473800 9821166 9302902 8794358 8462650 8147934
1659.46 7879818 7667272 7496476 7283282 7126398 6964524
1662.35 6869748 6757396 6626836 6553674 6471358 6391140
1665.24 6314704 6266120 6195308 6134916 6140384 6109210
1668.13 6063140 6065094 6046076 6040278 6028952 6049864
1671.03 6068280 6088742 6107978 6106044 6162350 6220546
1673.92 6261358 6304456 6395956 6405904 6473632 6536092
1676.81 6602510 6676964 6761830 6810904 6869918 6901288
1679.71 6935932 6969546 7017918 7069166 7113298 7196178
1682.60 7265268 7323058 7394364 7519868 7604890 7686396
1685.49 7804720 7887064 8012292 8173828 8275010 8411142
1688.38 8545204 8679466 8840212 8985554 9132448 9268974
1691.28 9422088 9604320 9778938 9949938 10125050 10301070
1694.17 10522750 10734150 10993180 11242640 11497930 11756200
1697.06 12025160 12324360 12621340 12931080 13263500 13561560
1699.95 13859780 14143160 14422320 14681700 14908010 15121100
1702.85 15268890 15353770 15436300 15438720 15446180 15427600
1705.74 15435970 15511800 15704470 16021230 16570410 17243230
1708.63 18036150 18900900 19758290 20592880 21357250 22108200
1711.53 22764640 23399860 24044920 24671930 25385600 26098750
1714.42 26955170 27807120 28732220 29782680 30939720 32230650
1717.31 33672480 35255790 36987670 38938460 41067200 43484290
1720.20 46076160 48925530 51990400 55305450 58928810 62744650
1723.10 66871580 71349580 76109060 81185620 86634660 92377300
1725.99 98625200 105240200 112236500 119666000 127509300 135987900
1728.88 144856700 154261900 164233500 174603700 185674400 197345500
1731.77 209662200 222552500 235917900 250117200 265011600 280537500
1734.67 297211400 314104500 331881600 350222400 369301500 389041400
1737.56 409019000 429721100 450781800 471326900 492238900 512442500
1740.45 531908000 550409200 566489200 581205400 592773900 601352800
1743.34 606068800 606984200 604476400 597671900 588361200 577126900
1746.24 565929600 555581100 548422500 544917100 544882000 548323600
1749.13 554365700 561561500 571036700 582529200 594843900 607869400
1752.02 620251100 630417000 636619800 637724400 633276500 623792100
1754.92 610516100 593359600 573526100 552097600 529407300 506615400
1757.81 483052800 459382800 436024100 413370600 391582000 370491500
1760.70 350264500 330611300 312485300 295096500 278478300 262700000
1763.59 247704500 233326900 219624800 206527800 194035700 182096900
1766.49 170689900 159976000 149474700 139616600 130319100 121445000
1769.38 113092600 105283900 97806540 90870860 84322300 78211900
1772.27 72560700 67389040 62457630 57885930 53755660 49946780
1775.16 46410780 43172300 40220900 37549960 35108900 32871270
1778.06 30794960 28960650 27278570 25700380 24333080 23003380
1780.95 21915040 20855260 19904580 19064530 18288850 17557430
1783.84 16937170 16369450 15800010 15317610 14840520 14403890
1786.74 14066110 13723140 13423510 13107720 12826630 12576590
1789.63 12341310 12084310 11921910 11726070 11509690 11352900
1792.52 11183280 10982130 10781690 10613270 10421910 10270890
1795.41 10102580 9953100 9753650 9636308 9487550 9336964
1798.31 9175630 9087102 8965070 8871008 8820336 8699430
1801.20 8600878 8538572 8490776 8406544 8320274 8299844
1804.09 8197690 8136314 8036292 7965200 7889786 7802820
1806.98 7701360 7619134 7522958 7449130 7359958 7274908
1809.88 7172270 7111100 7024790 6963674 6856498 6803344
1812.77 6731694 6644332 6596246 6533884 6497854 6443350
1815.66 6389446 6359634 6332990 6286332 6265368 6246888
1818.56 6237098 6217386 6210030 6223716 6235624 6235884
1821.45 6241934 6236710 6182100 6157978 6121868 6114672
1824.34 6081878 6049142 6020880 5995610 5989308 5957422
1827.23 5965562 5926640 5895890 5870380 5843596 5807624
1830.13 5771918 5726610 5682248 5635154 5633544 5561880
1833.02 5488360 5453528 5382136 5322562 5272458 5205560
1835.91 5145848 5065364 5049970 4988426 4941810 4928010
1838.80 4865246 4843978 4800012 4734180 4711596 4653032
1841.70 4578162 4487450 4422122 4336152 4271890 4191350
1844.59 4134260 4058048 3986142 3946274 3866188 3807546
1847.48 3715172 3689646 3625374 3556266 3515196 3426726
1850.38 3374304 3348410 3284154 3232732 3189782 3111670
1853.27 3074564 3009934 2985658 2960136 2892744 2875730
1856.16 2857068 2820970 2792596 2749726 2729920 2669854
1859.05 2659108 2635392 2609344 2584660 2553524 2516296
1861.95 2505424 2488858 2459166 2443084 2417928 2403656
1864.84 2354850 2386298 2352472 2347584 2343950 2346178
1867.73 2349376 2338222 2360444 2345564 2382680 2394028
1870.62 2396662 2410188 2426334 2443264 2502974 2526166
1873.52 2582106 2612086 2633762 2687762 2740474 2793480
1876.41 2863010 2897282 2987392 3013700 3103992 3164212
1879.30 3222198 3303262 3363960 3426810 3480924 3555766
1882.20 3644200 3708492 3765628 3814990 3889428 3949882
1885.09 4007480 4083782 4138646 4172804 4237482 4295702
1887.98 4347760 4377960 4408248 4440136 4452060 4472388
1890.87 4495754 4503958 4548904 4549004 4591206 4622466
1893.77 4611668 4630716 4615520 4653696 4678710 4678878
1896.66 4673820 4698196 4685842 4676766 4660376 4679960
1899.55 4646096 4639672 4610632 4600952 4562308 4559824
1902.44 4549140 4537260 4532784 4564912 4581472 4608862
1905.34 4664828 4675564 4719722 4766512 4834474 4911104
1908.23 5019456 5094778 5173438 5291344 5391200 5524434
1911.12 5657800 5807206 5912918 6077350 6249642 6410982
1914.02 6625428 6807070 6992702 7207160 7422706 7615868
1916.91 7851496 8065938 8294594 8526414 8772542 8993594
1919.80 9270786 9489152 9733588 9981512 10239570 10503930
1922.69 10748610 11036100 11343860 11669860 12057790 12412740
1925.59 12803740 13239240 13664200 14059160 14462150 14826650
1928.48 15055120 15252330 15388990 15438140 15386570 15266410
1931.37 15132650 14950740 14741580 14558620 14330330 14132810
1934.26 13952880 13723220 13440130 13148250 12894240 12731070
1937.16 12640640 12656800 12740910 12793110 12764630 12620950
1940.05 12398350 12050270 11691960 11229500 10721210 10229090
1942.94 9700586 9167074 8690572 8212290 7765540 7373174
1945.84 6980770 6659270 6347096 6089616 5872464 5644212
1948.73 5495688 5342732 5243822 5117272 5057634 5004640
1951.62 4942652 4854398 4827638 4788598 4802462 4836774
1954.51 4818878 4859968 4822784 4784134 4696084 4611934
1957.41 4492072 4389926 4295862 4158450 4061434 3946310
1960.30 3859668 3762654 3681342 3565554 3516562 3404702
1963.19 3344066 3307760 3247994 3172770 3120384 3083536
1966.08 3029852 2984918 2921998 2907402 2869774 2843380
1968.98 2811182 2767958 2744712 2727412 2711504 2698006
1971.87 2672814 2678268 2616822 2588492 2573632 2511700
1974.76 2499674 2470984 2463916 2437884 2409858 2403514
1977.66 2396872 2397110 2391004 2398966 2394136 2390842
1980.55 2404526 2382924 2427728 2402506 2416000 2401810
1983.44 2424740 2376290 2387282 2361168 2352192 2325208
1986.33 2313858 2322138 2300692 2307358 2281676 2276532
1989.23 2254976 2215132 2218092 2199960 2191742 2194536
1992.12 2193518 2180168 2185358 2178932 2151022 2131934
1995.01 2107792 2046660 2008350 1982370 1923928 1906888
1997.90 1865592 1816732 1767498 1730270 1689148 1659398
2000.80 1667744 1624994 1614900 1590204 1570952 1560164
2003.69 1566640 1542406 1526608 1503600 1531150 1526828
2006.58 1516306 1516830 1518360 1503638 1486464 1505716
2009.48 1510402 1511492 1482286 1513686 1512852 1508516
2012.37 1536236 1555980 1581302 1580940 1576700 1585070
2015.26 1610002 1645990 1626570 1661602 1677458 1697670
2018.15 1692484 1714964 1724900 1747736 1777172 1797110
2021.05 1809050 1860612 1831130 1885314 1905530 1942426
2023.94 1953412 1988100 2032392 2059922 2083814 2137476
2026.83 2161348 2196632 2238954 2299258 2337386 2378292
2029.72 2404804 2457182 2494634 2567590 2608088 2668312
2032.62 2730842 2806524 2888314 2923132 3019644 3097114
2035.51 3199498 3296620 3403114 3498332 3594314 3757500
2038.40 3853208 3989370 4135888 4270332 4454528 4646978
2041.29 4803796 4974108 5152692 5345874 5537684 5718466
2044.19 5911136 6091500 6291764 6449490 6627434 6784234
2047.08 6923954 7074560 7207240 7365638 7464690 7598842
2049.97 7696242 7829550 7920960 8005440 8141050 8233982
2052.87 8339324 8441676 8549208 8610508 8681686 8719332
2055.76 8763578 8771604 8834438 8870810 8863352 8835050
2058.65 8828642 8751390 8653712 8526190 8354892 8205342
2061.54 8016694 7803720 7625980 7477238 7273848 7097606
2064.44 6929072 6769924 6630288 6471146 6343712 6201130
2067.33 6054364 5919456 5799176 5651806 5537792 5381396
2070.22 5245702 5106676 4953580 4816228 4698808 4578898
2073.11 4471944 4365356 4243036 4155860 4051964 3939808
2076.01 3863172 3776708 3706610 3642442 3554530 3479838
2078.90 3444128 3374366 3333352 3243648 3218194 3201882
2081.79 3146962 3132062 3114044 3108418 3065788 3026338
2084.69 3069256 3049626 3059172 3032780 3045290 3050906
2087.58 3051480 3060454 3076898 3056672 3070662 3067738
2090.47 3049972 3072516 3061380 3062800 3077838 3049790
2093.36 3053558 3058346 3042134 3019854 2986662 2976224
2096.26 2979852 2966110 2947358 2938092 2948806 2883412
2099.15 2885676 2866852 2829606 2842784 2803080 2774220
2102.04 2762378 2704872 2679468 2687240 2615432 2592068
2104.93 2553412 2527528 2512050 2473382 2438152 2416172
2107.83 2436864 2379416 2364788 2362938 2335998 2354354
2110.72 2348166 2330230 2338446 2321142 2335166 2348852
2113.61 2341618 2337280 2350052 2343012 2352728 2367278
2116.51 2369998 2412112 2421186 2392926 2411890 2401296
2119.40 2412606 2420218 2422904 2420970 2445294 2422382
2122.29 2421788 2447988 2421804 2421706 2449164 2437548
2125.18 2430426 2443536 2439058 2404756 2414600 2426592
2128.08 2439348 2422926 2402626 2424242 2384502 2392318
2130.97 2355702 2358144 2339130 2343740 2303080 2275316
2133.86 2259268 2261838 2229032 2222530 2201202 2180226
2136.75 2165264 2140688 2141864 2071626 2052400 2051376
2139.65 2024244 2031194 1990182 1991862 1968962 1940690
2142.54 1899828 1890672 1877096 1885238 1840180 1827810
2145.43 1790276 1807298 1766230 1747680 1720776 1722362
2148.33 1720968 1707338 1691926 1657352 1647998 1651272
2151.22 1640748 1647164 1641418 1618562 1628258 1630264
2154.11 1637910 1618058 1646232 1620764 1638862 1674304
2157.00 1674938 1662052 1651752 1689622 1698460 1710610
2159.90 1705548 1719202 1742340 1696700 1729350 1717914
2162.79 1717684 1740600 1720364 1719984 1679616 1664254
2165.68 1657640 1639792 1612828 1605008 1581678 1560212
2168.57 1552210 1518282 1531086 1507092 1458824 1452266
2171.47 1424476 1399178 1378778 1371782 1339298 1310998
2174.36 1288770 1257492 1222796 1172256 1163520 1110064
2177.25 1094058 1054230 1041290 1016462 951934 943274
2180.15 946208 929148 912806 914448 892886 871550
2183.04 877374 870124 876444 883742 861846 873988
2185.93 871388 845990 867430 875792 872006 880742
2188.82 869456 847736 871854 874500 898666 887338
2191.72 887124 880882 921880 896072 882262 890034
2194.61 901220 874404 863604 915674 893580 897676
2197.50 875750 912582 914080 894244 865562 881074
2200.39 867884 887632 863278 854250 852136 855528
2203.29 840134 854292 836400 810084 852986 824428
2206.18 823552 806770 797640 835894 810274 797958
2209.07 811494 806432 820632 812026 796638 800554
2211.97 786914 800520 808328 820796 818462 779920
2214.86 789752 797060 816556 802766 826642 847300
2217.75 827234 849888 824614 870170 882824 869070
2220.64 859618 887912 904270 907406 915574 936680
2223.54 936622 927056 937938 947370 933820 950128
2226.43 945086 924582 908290 922384 953330 931914
2229.32 909674 961384 955952 969102 959746 1011532
2232.21 1000954 1009546 1024902 1024392 1038710 1023874
2235.11 1003772 1039112 1029784 1017712 1014244 1016604
2238.00 1013518 994592 1010810 1010856 993796 1009998
2240.89 1003492 1017580 1000588 1018216 993808 1010354
2243.79 1027462 1036810 1036960 1005370 1055304 1003984
2246.68 1057370 1024530 1034086 1036842 1016820 1026504
2249.57 1022610 1020350 1033894 1003370 990086 1030898
2252.46 1006934 982240 1011824 982700 992864 975464
2255.36 1001078 996380 1001336 1010394 986298 1021892
2258.25 1010242 1012422 1011434 1027054 1034148 1021936
2261.14 1030262 1028832 1038094 1045980 1058144 1052816
2264.03 1080016 1080614 1085620 1064470 1078852 1061636
2266.93 1068972 1084260 1060022 1051166 1062494 1078768
2269.82 1057342 1055894 1040744 1056968 1032340 1054690
2272.71 1051246 1042880 1034940 1062774 1077516 1055100
2275.61 1062348 1013418 1039372 1057934 1044154 1049262
2278.50 1030348 1021354 1055328 1047542 1035584 1051482
2281.39 1031378 1055206 1026684 1034536 1023724 1007892
2284.28 1010738 1019872 1004372 1010472 1009418 1010432
2287.18 1010260 1012728 1016582 1031998 1036016 1025322
2290.07 988340 997534 1013880 1020184 1056416 1057608
2292.96 1063484 1083498 1069150 1085094 1095854 1107462
2295.85 1121346 1142044 1124800 1174906 1186208 1189036
2298.75 1210576 1223824 1240184 1221906 1257122 1284170
2301.64 1313546 1305610 1314112 1327600 1362160 1371062
2304.53 1383052 1402450 1411466 1435356 1440492 1496808
2307.43 1485758 1534122 1537938 1528466 1575288 1554316
2310.32 1616864 1617814 1633328 1642190 1648334 1710310
2313.21 1689694 1706450 1693234 1714006 1700674 1726204
2316.10 1691574 1727746 1688602 1705302 1720846 1708904
2319.00 1695918 1704298 1716498 1708630 1738532 1711986
2321.89 1678532 1729354 1701492 1652066 1685134 1708912
2324.78 1694922 1662750 1673786 1670302 1630150 1605432
2327.67 1586778 1580988 1579162 1526852 1531072 1557606
2330.57 1492096 1440910 1453172 1445204 1411996 1368264
2333.46 1383654 1378814 1332942 1334722 1337936 1295372
2336.35 1253870 1290164 1286964 1280468 1250498 1297932
2339.24 1259162 1200636 1211122 1207224 1143898 1157138
2342.14 1179444 1095988 1075456 1116042 1093364 1056946
2345.03 1070792 1076824 1074400 1084146 1059982 1072780
2347.92 1082048 1088806 1122920 1156930 1153874 1146904
2350.82 1190594 1191260 1234170 1271808 1280178 1296420
2353.71 1360058 1390756 1409064 1480964 1518138 1513566
2356.60 1589822 1647308 1632224 1741118 1751558 1731950
2359.49 1830508 1845266 1838936 1931426 1912252 1927668
2362.39 2038938 1988418 2085908 2102048 2081732 2216960
2365.28 2168112 2223956 2296094 2303406 2390762 2425734
2368.17 2456064 2563432 2577860 2615310 2693206 2717194
2371.06 2783228 2801438 2894978 2907794 2987444 3020986
2373.96 3090452 3124768 3155676 3205372 3260092 3289298
2376.85 3335458 3412278 3452032 3517190 3555312 3607210
2379.74 3652128 3673806 3725962 3794980 3787038 3836830
2382.64 3857120 3886068 3914564 3919048 3902392 3913860
2385.53 3949662 3971244 4005016 3989878 3968436 3964654
2388.42 3960104 3939092 3910772 3916240 3887024 3833404
2391.31 3819306 3790218 3713112 3640500 3577326 3543736
2394.21 3473998 3374694 3271526 3180274 3084362 3014500
2397.10 2899176 2819144 2747864 2644258 2582092 2540302
2399.99 2463362 2390694 2321804 2262412 2196858 2156432
2402.88 2089884 2073442 1983312 1975132 1920414 1878000
2405.78 1851148 1800700 1755260 1741670 1721070 1705272
2408.67 1668402 1648244 1635120 1620784 1617968 1617194
2411.56 1562392 1544976 1574096 1576192 1553136 1551678
2414.46 1534296 1537258 1523472 1535488 1521234 1514060
2417.35 1510564 1470896 1499216 1477648 1461460 1468326
2420.24 1461130 1441918 1444594 1459600 1416004 1415392
2423.13 1420222 1410988 1401860 1376244 1387486 1365888
2426.03 1366870 1335454 1337060 1305754 1260408 1257310
2428.92 1225952 1199900 1205358 1141058 1161008 1107056
2431.81 1090188 1088140 1067154 1006638 1059238 1008626
2434.70 993108 990928 935238 906432 898790 913832
2437.60 875216 865256 850584 833102 807114 793250
2440.49 787332 788742 771428 746870 756544 737632
2443.38 730958 726598 699620 677214 677942 704868
2446.28 662774 663350 652274 664886 667318 688290
2449.17 670484 669584 649062 638760 646892 635464
2452.06 652650 676110 662026 687004 670002 670400
2454.95 705608 680158 679222 694806 727692 760794
2457.85 747266 727312 762444 778558 792062 805600
2460.74 833178 833746 855694 882652 865304 896400
2463.63 945236 939170 978712 1022118 1046378 1074618
2466.52 1101186 1105752 1100482 1133394 1167240 1156266
2469.42 1213274 1240996 1239738 1258986 1277560 1308464
2472.31 1325724 1336396 1334038 1377796 1386544 1385532
2475.20 1400852 1422886 1459434 1414826 1462530 1480274
2478.10 1494898 1469206 1494120 1499516 1524662 1520914
2480.99 1530586 1513182 1494240 1485598 1526830 1510650
2483.88 1489990 1467904 1514076 1504764 1461586 1478150
2486.77 1463442 1473896 1481068 1414632 1433748 1459102
2489.67 1431516 1423414 1449412 1421708 1386562 1389124
2492.56 1375810 1366648 1355656 1326566 1342616 1306998
2495.45 1322106 1316088 1306758 1315456 1287590 1267686
2498.34 1267878 1251052 1255540 1217366 1221356 1198502
2501.24 1180546 1170592 1115694 1163382 1107862 1088540
2504.13 1116642 1029482 1035372 1017650 1012552 1002948
2507.02 959016 959972 943164 879982 912072 898032
2509.92 847238 882016 857974 839384 855776 802614
2512.81 816094 815920 776644 782230 781466 811110
2515.70 750084 739966 717876 733696 751514 742448
2518.59 718358 720250 750368 731434 745742 743906
2521.49 707602 738592 718904 759428 738940 738912
2524.38 763804 771658 788134 784348 820708 774774
2527.27 812116 829766 820100 830952 839660 840880
2530.16 863712 890356 879926 936426 882898 935634
2533.06 944370 937176 965544 959024 1026660 1000600
2535.95 1019448 1026386 1063784 1054082 1030768 1027630
2538.84 1066208 1070738 1036816 1092070 1075494 1119034
2541.74 1092580 1085436 1096864 1103902 1097026 1124956
2544.63 1143338 1139648 1104628 1116624 1115126 1122944
2547.52 1124448 1131900 1138296 1121994 1102452 1119046
2550.41 1113312 1101880 1126212 1124926 1095118 1121124
2553.31 1141716 1125780 1112686 1112402 1096698 1112758
2556.20 1105470 1078030 1093482 1071570 1073350 1051104
2559.09 996696 1004504 1009506 987864 955294 922552
2561.98 941738 896886 893520 882248 879974 842496
2564.88 828704 816480 816294 830522 781256 809550
2567.77 775134 791750 766844 753344 722044 721358
2570.66 687424 686428 652310 630434 602652 595976
2573.56 570662 589792 533274 567520 522964 550512
2576.45 509080 546808 515700 520510 526868 526158
2579.34 512904 519186 546138 534436 506422 484416
2582.23 506322 527940 521920 506490 544982 540730
2585.13 552302 589292 562678 569934 612076 644170
2588.02 639316 645190 648236 662276 673976 693090
2590.91 701552 729704 739776 775062 762578 784022
2593.80 790168 810208 825134 829172 838148 860288
2596.70 860968 881240 877878 892536 916994 895442
2599.59 969652 935792 923358 960000 968962 970116
2602.48 988196 993962 984708 995362 990528 973382
2605.37 985320 995386 986202 987534 961994 954004
2608.27 951176 917962 945756 947194 961398 1004070
2611.16 959576 955410 953412 946498 942782 967584
2614.05 917422 942126 937848 911996 878418 893702
2616.95 859776 864564 859104 862734 848102 828772
2619.84 832776 817860 798744 800996 779860 787614
2622.73 754698 740366 788564 745652 749474 722994
2625.62 740274 708958 689074 696804 683020 691356
2628.52 691818 649164 653328 679012 662996 687516
2631.41 666404 666702 666772 655438 647132 652242
2634.30 651036 651696 643336 646560 664476 681390
2637.19 688294 695898 677020 723752 682120 697404
2640.09 735848 745080 739236 715280 718070 766172
2642.98 747970 749964 776362 770140 806962 798994
2645.87 778758 812784 802226 790862 844680 851804
2648.77 868712 835602 875922 905764 890616 903644
2651.66 896722 906448 910338 942270 941070 928088
2654.55 939890 988782 958704 965974 998142 1010840
2657.44 1001832 1021684 1018532 1091118 1066344 1071704
2660.34 1046972 1123084 1071716 1049910 1112772 1091272
2663.23 1080306 1103694 1076472 1095282 1067002 1104222
2666.12 1115824 1086322 1103388 1095338 1127886 1121520
2669.01 1114574 1141234 1091032 1131926 1148932 1110930
2671.91 1157714 1156754 1136226 1091182 1134560 1092374
2674.80 1111174 1118412 1062438 1089798 1105072 1031654
2677.69 1023504 1039554 1023460 1050954 1062766 1037498
2680.59 1022396 1036980 1012026 982730 1061560 1027754
2683.48 1042480 1050872 1001864 1033414 1061354 1044464
2686.37 1030756 1065042 1053892 1022470 1051294 1060424
2689.26 1054268 1089470 1107866 1114694 1109544 1086314
2692.16 1149350 1192572 1182754 1184422 1233782 1235740
2695.05 1285720 1264930 1344514 1385744 1396848 1412260
2697.94 1438610 1450216 1494048 1509942 1511704 1492970
2700.83 1509432 1585862 1565330 1574056 1568438 1553380
2703.73 1616628 1599650 1583486 1604382 1617160 1652366
2706.62 1642856 1619942 1646758 1641600 1649806 1608104
2709.51 1613612 1665648 1597622 1593200 1584054 1560452
2712.41 1595050 1558614 1527492 1524214 1496106 1498672
2715.30 1491522 1459444 1457802 1433386 1392326 1423804
2718.19 1403552 1438664 1436566 1422484 1440852 1465612
2721.08 1439232 1447328 1453594 1463356 1390792 1459126
2723.98 1436946 1465758 1476300 1429082 1437812 1472292
2726.87 1456228 1462112 1460542 1468534 1524074 1490928
2729.76 1532090 1499540 1534164 1543452 1547958 1587604
2732.65 1591464 1661108 1640266 1635174 1636806 1595780
2735.55 1561656 1614124 1568782 1574798 1571592 1532754
2738.44 1523402 1512506 1467628 1493274 1420926 1470960
2741.33 1441500 1469164 1410444 1404944 1408870 1406748
2744.23 1436156 1438968 1417706 1430706 1444858 1468156
2747.12 1452100 1492764 1498042 1538220 1510432 1495038
2750.01 1522476 1528418 1564130 1531196 1550150 1562772
2752.90 1549820 1555896 1544874 1561180 1569886 1594030
2755.80 1564128 1565678 1603224 1639622 1620506 1652714
2758.69 1735672 1785168 1801408 1792724 1795116 1849022
2761.58 1871148 1884894 1950034 1994656 1978590 2011766
2764.47 2051410 2066892 2129788 2144368 2143522 2154042
2767.37 2177626 2197990 2192008 2226108 2209588 2232092
2770.26 2234790 2223800 2263140 2257130 2230492 2279916
2773.15 2224180 2194848 2176192 2177842 2167414 2134854
2776.05 2119836 2107598 2091114 2096300 2056840 2053050
2778.94 2053258 1975836 1960036 1930878 1880908 1837250
2781.83 1833604 1774332 1719342 1699632 1684324 1682780
2784.72 1613758 1579120 1568206 1565364 1510570 1516106
2787.62 1507592 1496268 1509118 1527024 1521760 1514902
2790.51 1536618 1509674 1523802 1514176 1579898 1565316
2793.40 1573708 1542898 1582478 1607334 1646190 1609522
2796.29 1627782 1650706 1613054 1636644 1666038 1654574
2799.19 1717740 1718776 1719132 1721306 1735310 1754248
2802.08 1769646 1807972 1826412 1847316 1847414 1888516
2804.97 1918020 1927474 1942214 2009408 1995064 2043412
2807.87 2072702 2081598 2127082 2142770 2162344 2157898
2810.76 2273124 2226282 2335580 2346196 2372192 2448092
2813.65 2478344 2514468 2528528 2597486 2687296 2730756
2816.54 2837358 2863842 2927032 2935254 3052186 3114410
2819.44 3171202 3257508 3325734 3340134 3387792 3436560
2822.33 3446774 3512074 3512126 3530670 3562168 3564662
2825.22 3548528 3590174 3596888 3585098 3608482 3643892
2828.11 3649472 3645620 3708150 3717704 3698738 3733726
2831.01 3733328 3774472 3784180 3843282 3803578 3786008
2833.90 3768858 3798684 3758116 3749768 3760006 3702524
2836.79 3708758 3720978 3733924 3766480 3721792 3690584
2839.69 3722348 3738960 3745782 3727038 3722810 3702320
2842.58 3735816 3792570 3753336 3801444 3817404 3826034
2845.47 3862744 3875250 3893462 3902370 3902512 3917838
2848.36 3950878 4006658 3977886 4052642 4036994 4041656
2851.26 4130834 4104902 4156288 4184458 4202614 4247396
2854.15 4278736 4321812 4395946 4393284 4466028 4479516
2857.04 4507198 4568696 4570758 4594656 4654000 4661952
2859.93 4734608 4783694 4783264 4838980 4889420 4958058
2862.83 5036134 5079154 5183016 5295252 5416210 5494080
2865.72 5575076 5736096 5815146 5902458 6095522 6252946
2868.61 6429338 6543264 6801686 7005044 7219708 7508710
2871.51 7753950 8131112 8448658 8853492 9221692 9701272
2874.40 10239360 10703030 11300660 11937180 12614380 13310530
2877.29 14018770 14736240 15463910 16208320 16865400 17556380
2880.18 18117130 18727150 19059480 19424090 19688910 19870150
2883.08 19946280 20084170 20267070 20467610 20722470 20985030
2885.97 21251540 21550120 21870170 22199710 22511580 22855730
2888.86 23098730 23382190 23589380 23850970 23960700 24177390
2891.75 24232150 24373170 24277930 24331610 24290020 24317250
2894.65 24219700 24141680 24078860 24063960 24058530 24103060
2897.54 24057840 24147130 24235950 24386470 24506330 24774820
2900.43 24988170 25336110 25673250 26151330 26506200 26851780
2903.32 27206020 27612240 27962570 28313650 28718030 29134770
2906.22 29545540 29958860 30337940 30805860 31146650 31534990
2909.11 31974910 32280750 32564280 32872290 33079990 33363640
2912.00 33605430 33855370 33962120 34161250 34335690 34422180
2914.90 34381600 34414750 34116240 33836320 33366870 32909820
2917.79 32518170 32231050 31885230 31629130 31485410 31422440
2920.68 31375780 31401550 31396080 31543820 31586730 31675740
2923.57 31564330 31667020 31577630 31400650 31295020 31108640
2926.47 30891470 30732480 30520700 30302570 30160380 30016390
2929.36 29998420 29939570 29955570 30157270 30424910 30837150
2932.25 31280210 31960880 32678640 33529680 34373800 35414930
2935.14 36503960 37670460 38782090 40003830 41172100 42289000
2938.04 43374100 44286170 45150620 45806510 46487800 47127330
2940.93 47771030 48568460 49475960 50613860 51909390 52418500
2943.82 52511450 52636410 53017550 53520990 54158010 55041180
2946.72 55977550 57068500 57924130 58960290 59243820 58622540
2949.61 58021950 57674950 57480430 57338270 57096220 57037890
2952.50 56780760 56440820 56190750 55850820 55637910 55625700
2955.39 55230300 54533710 53470520 52861720 52535290 52336000
2958.29 52091290 52235860 52098600 52271190 52208930 52200910
2961.18 52112500 52551590 53138580 53383490 54032760 54765040
2964.07 56007050 57129250 57841840 57728580 57090620 56762120
2966.96 56739910 57274780 57972390 58748440 59921960 60947830
2969.86 61819980 62640200 63635430 64896790 66502510 68407130
2972.75 70411520 72677950 75093340 77779180 80531980 83567010
2975.64 86491970 89806730 93020070 96231560 99657980 102949300
2978.54 106245600 109465000 112762400 116121400 119528300 123256000
2981.43 127297600 131988100 136949100 141265100 142651600 141064100
2984.32 140978400 141510200 141939800 142523800 143072800 143473300
2987.21 143810500 144250000 145193100 146506800 148369800 149549900
2990.11 149031100 148268100 148573800 150376300 152873900 156674400
2993.00 161324400 167976200 179596500 195930000 195103700 177126700
2995.89 163153500 154709600 148386600 143525700 139168400 135217300
2998.78 131724900 128322000 125256900 122117300 118732700 115451800
3001.68 112158500 109200300 106292100 103275600 100298100 97094300
3004.57 94269670 91439800 89000970 86688150 84732720 82554810
3007.46 80498520 78764180 77090690 75419250 73443580 71465910
3010.36 69305180 66930660 64601590 62209320 59736990 57263700
3013.25 54824180 52414150 50037850 47631760 45435900 43210550
3016.14 41143860 39143280 37315540 35509830 33835250 32218450
3019.03 30772830 29317280 27934020 26584040 25419060 24255060
3021.93 23215690 22207150 21199250 20356900 19590930 18814300
3024.82 18145960 17509160 16943920 16425620 16020220 15576510
3027.71 15147330 14783380 14461970 14124710 13867600 13639720
3030.60 13550340 13375580 13231670 13204330 13136830 13129990
3033.50 13226320 13204370 13265630 13331130 13439520 13666290
3036.39 13863140 14093960 14416210 14829020 15234900 15648730
3039.28 16191210 16723310 17212760 17708760 18256330 18619870
3042.18 18966490 19286620 19478420 19531300 19539160 19444320
3045.07 19285700 18931290 18770530 18534290 18404740 18385670
3047.96 18457360 18627040 18827770 18573900 17940480 17528570
3050.85 17442080 17567170 17676110 17835760 18011290 18137260
3053.75 18163230 18032520 17799560 17421320 16801890 16223760
3056.64 15510550 14720450 13937470 13103650 12341010 11605030
3059.53 10862920 10188800 9610446 9015858 8524330 8105872
3062.42 7788686 7455988 7164476 6958332 6723066 6576078
3065.32 6429622 6314746 6212704 6216134 6178922 6174606
3068.21 6156686 6208806 6181334 6227000 6299286 6347244
3071.10 6402398 6485580 6557368 6683700 6718378 6746144
3074.00 6892388 6928140 7030100 7102318 7176886 7178652
3076.89 7257214 7307762 7351982 7348708 7416488 7450830
3079.78 7363906 7348266 7285444 7231224 7202690 7156106
3082.67 7005888 7047858 7034124 7016646 7065330 7038606
3085.57 6940062 6957640 6962890 7048486 7143140 7140122
3088.46 7043002 7070756 6973614 6803438 6708512 6518758
3091.35 6357834 6250134 6099604 5918100 5739516 5612546
3094.24 5472860 5406270 5265692 5221318 5174676 5130578
3097.14 5154692 5160774 5229624 5337068 5507748 5665676
3100.03 5878398 6253044 6619006 7021326 7509448 8101174
3102.92 8800384 9403778 10173930 11028950 11877650 12765780
3105.82 13599880 14438920 15054550 15586960 15953160 16157870
3108.71 15959570 15709710 15091740 14251340 13402450 12619090
3111.60 12225350 12514130 13545210 15214830 15517880 15232270
3114.49 16473210 16385280 14672790 13234280 13522750 14244020
3117.39 15061790 15632730 16080520 16309310 16274220 15957190
3120.28 15525440 14828910 14031050 13047620 12061250 11094230
3123.17 10171850 9289532 8350018 7522854 6846960 6178300
3126.06 5641990 5130668 4725754 4411548 4089460 3831026
3128.96 3554294 3408430 3224876 3108812 3027312 2956920
3131.85 2781732 2779036 2698676 2633276 2566924 2467532
3134.74 2407326 2388660 2323806 2304616 2229590 2254974
3137.64 2197696 2140812 2147894 2061800 2080416 2032446
3140.53 2024976 2042040 2020296 2030422 2053546 2042244
3143.42 1997348 2050102 2076454 2067588 2030982 2068152
3146.31 2061654 2076742 2130104 2108346 2095838 2116386
3149.21 2125726 2124926 2160674 2152780 2145016 2129756
3152.10 2164540 2128980 2106782 2110066 2101154 2121038
3154.99 2127290 2110708 2080572 2085046 2065274 2096836
3157.88 2055050 1989044 2050994 2038436 1989210 2004410
3160.78 1991298 1982216 1933158 1917544 1919224 1873656
3163.67 1896250 1840888 1875848 1844670 1867530 1822954
3166.56 1784942 1783368 1775824 1739518 1749158 1649308
3169.46 1736114 1695220 1658334 1691446 1641608 1641824
3172.35 1596890 1613918 1639500 1558152 1568082 1559552
3175.24 1548678 1486762 1472482 1495106 1507236 1497914
3178.13 1439766 1446190 1414618 1402656 1405240 1380776
3181.03 1356424 1337580 1415884 1420424 1288778 1307338
3183.92 1350954 1317542 1260928 1232364 1269270 1194994
3186.81 1299088 1233762 1204304 1198714 1198060 1184030
3189.70 1130512 1166758 1167190 1161760 1106074 1175666
3192.60 1155826 1078434 1072058 1124894 1127364 1094234
3195.49 1082318 1030096 1025124 1068424 1014678 1071588
3198.38 1055650 1039064 1026176 1007940 1018210 1048148
3201.27 1019232 996208 971112 1022212 1050930 946198
3204.17 981982 963458 974928 957344 1015920 930650
3207.06 971804 910058 917410 923130 971030 907148
3209.95 872030 938496 936302 881904 979038 893034
3212.85 895158 939924 894042 902836 905812 913784
3215.74 883332 937870 921408 914872 952130 852884
3218.63 881744 890662 915570 945742 892172 929078
3221.52 919034 958258 884682 943688 921688 981976
3224.42 975870 979544 961312 971336 975784 984326
3227.31 1013946 1027776 983922 967218 999446 1017722
3230.20 1004458 1037714 1006448 1027384 1013292 1057670
3233.09 1032362 1067384 1067674 1091018 1091178 1031992
3235.99 1082526 1011720 1059852 1068282 1024488 1062034
3238.88 1057424 1048068 1028544 1020082 1050888 1061256
3241.77 1066838 1056176 1045674 1042216 1114616 1015780
3244.67 1061996 991404 1029026 1010672 967108 953042
3247.56 946192 986716 971418 909718 897428 899436
3250.45 868568 824926 853954 856636 797916 772478
3253.34 776782 700694 725046 658548 701572 683468
3256.24 658118 657026 681488 594290 583658 546948
3259.13 493546 518320 468192 456454 497938 442852
3262.02 354834 399648 379442 383096 324482 297434
3264.91 342064 265054 276158 308248 261084 221758
3267.81 217748 271120 197264 190680 158466 197756
3270.70 164776 119866 157146 176590 109632 136060
3273.59 83426 94704 100242 177554 71754 151124
3276.49 77858 126694 88572 132278 113922 44808
3279.38 70236 84502 106186 82604 83556 16894
3282.27-5064 33462 8306-13042 35880 22284
3285.16 65466 54188 54296-14908 25494-19714
3288.06 6184 18050-26848 22486 19798-63414
3290.95-39664-15546-23512-42262-44000-11332
3293.84-4644-33692-93442-25438-48740-25624
3296.73-41802-115412-46962-108972-36650-67574
3299.63-55646-35324-62040 862-19782 2432
3302.52-34762-24008-11168-15078-6698-4904
3305.41 38070 73002 27810 71684 53762 57884
3308.31 53166 84252 31870 116190 146194 134834
3311.20 130022 184778 156364 93544 131516 204328
3314.09 205518 169340 222778 160694 241588 216346
3316.98 221236 163450 182596 227328 294894 187164
3319.88 264182 212582 254986 239124 233716 261028
3322.77 279738 249582 267700 309866 293186 261488
3325.66 280808 265136 276996 285506 280424 312470
3328.55 348406 321758 316256 344958 341864 307578
3331.45 351088 330920 338340 392194 292352 358312
3334.34 322332 349576 386416 386774 358218 296606
3337.23 379836 376472 360238 365128 387852 377072
3340.13 389122 395552 384848 386322 445978 408402
3343.02 407794 462988 469100 478762 472324 468132
3345.91 506868 433710 512916 462960 533676 484738
3348.80 582508 545362 618526 571934 620144 628770
3351.70 571534 553282 623860 640838 652260 694242
3354.59 699218 675014 686944 685922 720984 756036
3357.48 735068 778976 734526 799626 792794 825314
3360.37 800982 814212 859670 806690 850054 890574
3363.27 848540 894374 869638 913106 870754 856134
3366.16 877508 910808 849352 844594 848158 869392
3369.05 888518 867412 889706 889424 888732 839302
3371.95 827806 851214 819516 896648 857212 893944
3374.84 821452 873412 859930 830596 871130 900904
3377.73 879932 821912 916272 893618 913140 926966
3380.62 970554 937112 942342 993412 1001974 1019026
3383.52 1001748 968390 982950 990002 1010004 994042
3386.41 1059370 1044398 945756 1066894 954214 974382
3389.30 969432 948580 902996 866808 898548 904972
3392.19 807194 810984 854144 854722 889512 862618
3395.09 851930 838656 838082 797890 876450 837096
3397.98 811982 672496 691168 594626 594696 499682
3400.87 571358 495280 461280 497330 398140 361910
3403.77 349272 291072 313004 182250 254124 215518
3406.66 253116 201096 204272 233658 211088 247158
3409.55 217462 211218 178430 223324 283502 127864
3412.44 190568 224338 187478 132822 225984 199040
3415.34 176178 202520 181880 148394 118260 169398
3418.23 245174 167140 101780 87214 187854 142272
3421.12 141110 141618 96448 118652 162672 106062
3424.01 127192 138478 131740 90946 147910 121720
3426.91 176652 132994 161238 126648 172848 165578
3429.80 159558 33824 117952 113320 158012 112846
3432.69 178948 75888 120620 139862 106072 123668
3435.59 176114 158484 190130 61500 197550 123704
3438.48 217768 124950 186468 188316 165370 162148
3441.37 232496 148412 194238 142594 211014 248084
3444.26 249330 203538 217006 197856 330484 345064
3447.16 373450 367282 365740 475554 452268 455402
3450.05 514034 585356 630358 592526 736442 819338
3452.94 808840 832022 939254 1016148 1074300 1153732
3455.83 1215928 1315484 1344796 1487002 1594532 1721274
3458.73 1819418 1933914 2070996 2180072 2253654 2413614
3461.62 2555832 2653714 2849814 2999504 3184918 3347968
3464.51 3518732 3659298 3756658 4053108 4200352 4383114
3467.40 4565988 4728174 4877538 5129340 5315698 5431044
3470.30 5570980 5739286 5907806 6084972 6189134 6284664
3473.19 6383534 6415702 6584626 6583160 6610974 6602194
3476.08 6655886 6571532 6589192 6574570 6619080 6527786
3478.98 6578506 6646470 6763566 6770242 6829900 6920032
3481.87 6948830 7011232 6956746 6929616 6916032 6778864
3484.76 6786670 6634262 6454686 6351728 6171564 5885036
3487.65 5771962 5459728 5262634 5042548 4811996 4606324
3490.55 4420202 4242400 3985204 3812042 3577902 3419416
3493.44 3190866 3022204 2850440 2671170 2498306 2290960
3496.33 2149370 2006180 1869068 1744478 1591324 1478432
3499.22 1355422 1248118 1057442 1032478 939730 846206
3502.12 756394 767570 590800 561456 471642 414466
3505.01 380492 302164 221676 183222 154914 68696
3507.90 97088 57156 46352 5886-16078-36994
3510.80-47678-69178-115076-144272-100010-158158
3513.69-155544-134006-250128-190000-219856-204172
3516.58-273944-197064-262490-225836-228962-203896
3519.47-218310-178190-230962-258304-210388-264128
3522.37-233108-214918-311468-265332-299546-234130
3525.26-247292-282788-247946-235014-205542-295544
3528.15-223358-221854-238842-229208-270234-259062
3531.04-233748-235904-250968-225674-279494-252210
3533.94-269804-288752-240166-144954-241310-200836
3536.83-222324-240386-201816-190824-108908-262058
3539.72-196112-220092-208912-197474-124236-178428
3542.62-160214-169564-92320-134504-149570-169138
3545.51-160638-120510-142554-141620-135068-82694
3548.40-73556-106172-71810-91020-89498-46478
3551.29-61922-84200-55368-73456-51728-25690
3554.19-270-15932-40932 11862-38734-30858
3557.08 13484 23390 67158 1720 50588 61556
3559.97 53400 92406 45800 53172 28112-1904
3562.86 74382 65014 85988 115288 81894 67922
3565.76 49670 73300 66196 80564 74256 82774
3568.65 106188 73010 66856 64468 45144 101680
3571.54 63744 75742 53306 67204 96554 79424
3574.44 85152 72998 51526 26170 6080-8162
3577.33 69122 27778 6688-6628 312 13958
3580.22 4188 9520 29720 25502 17660 32568
3583.11 43806 17336 38668 31864 8456-32872
3586.01 17788-34300 28240 10858-15238-45100
3588.90-4050-31562-19216 104 56686 26956
3591.79 20916 28282-28094 19716 23680-3386
3594.68 82846 37908 46904 48102 67764 42966
3597.58 6986-10806 28120 84510 7960-5410
3600.47-15742 15904 64256-9668 74278 27220
3603.36 49504 35580 49804 11374 10950 82082
3606.26 89084 71948 44014 27612 9940 60506
3609.15 66226 65204 61304 22500 44124 62432
3612.04 83122 27798 91470 25288 66304 18716
3614.93 30114 63370 63838 28814 45970 19706
3617.83 56808 65502 8252 82572 54390 56516
3620.72 40582-3366 20390 59388 63118 53832
3623.61-32526 23720 6942 25402 25532 59860
3626.50 70746 25672 30808 7218 63626 64342
3629.40 33144 36834 6996 3614 38300 33098
3632.29 26958 28648 25866 3206 37264 17600
3635.18 10340 42486-3562-44500 32224-21148
3638.08 79862 35980 42776 29236 22802 2640
3640.97 33230-24890 2836 15788-7694 36672
3643.86 26388-3412 6944 36370 16202-1444
3646.75-12562-4806-32394 4930 34638 36612
3649.65 19184 14924-8444 59116 25820-6178
3652.54-11790-10936 17974-42160 2820 37212
3655.43 27650 88366 16544-25972-25736-6060
3658.32-12274-5248-20578 29064-23342 42856
3661.22 14404 19978 13438 33968 25288 7246
3664.11 9062 2304 50616 39814 42776 28230
3667.00-25948-14650 28912 16748 2888 14394
3669.90 14208 57110-3908 56076 12642 32906
3672.79-15296 37532 4446-10080 13274 39776
3675.68 103308 82-23120-16970 30884 23994
3678.57 29756 31414 18160 14536 36900 10106
3681.47 31386 1092-1252 17624-29620 6972
3684.36 23338 21692 9424 44554 19500 29628
3687.25 29588 83666 61804 29870 9182 9710
3690.14-1634 35226 26164 57130 48826 26822
3693.04 54862 40884 12084 12484 22486 7956
3695.93 93670 3864 48726 59156-10718 40798
3698.82 5854 45758 52000 33868 18226 53288
3701.72 77836 52994 188 66308 85338 59696
3704.61 27862 14900 68478 99284 57292 29084
3707.50 34748 51066 60146 41378 43780 76962
3710.39 79078 76974 35880 68160 12798 63172
3713.29 52466 92894 103516 71852 88382 109680
3716.18 90080 69978 93196 133836 99440 114910
3719.07 122310 51810 134900 126802 116724 99716
3721.96 31100 160056 110172 115842 118564 123814
3724.86 136330 83156 142586 100260 107402 126210
3727.75 116524 136850 154868 58244 124678 135142
3730.64 129274 131900 155840 178748 154024 155576
3733.54 165820 128534 129606 138474 109274 124258
3736.43 139646 122202 133556 98206 170514 180144
3739.32 165648 131594 140534 155692 168562 137156
3742.21 161662 142554 129798 186242 202142 229820
3745.11 175582 120104 170614 195200 123376 180976
3748.00 158236 178722 235616 157772 178900 170192
3750.89 210338 212618 232818 206304 212082 209772
3753.78 164556 190470 177726 217160 204990 208238
3756.68 210184 221464 246180 199640 179332 327840
3759.57 283118 239202 207350 250960 274132 292946
3762.46 266886 270706 287880 260804 319600 293226
3765.35 308230 259566 316902 344342 301230 330076
3768.25 288268 314164 354392 340816 315172 315678
3771.14 343884 308208 383338 327298 343558 345520
3774.03 348082 371876 328022 334896 340346 355678
3776.93 322728 354226 309222 326878 321644 323760
3779.82 377440 317286 323902 303316 293518 290916
3782.71 344046 349632 302444 328790 319572 262002
3785.60 308580 291382 310494 254128 275576 248634
3788.50 249742 247508 268984 305868 251272 256266
3791.39 257672 263392 256572 215280 231492 224318
3794.28 201202 205412 226184 232770 198268 254886
3797.17 282272 172616 230770 141322 188854 200856
3800.07 197726 220428 253798 174442 217516 202530
3802.96 171244 199672 207030 231054 141284 155464
3805.85 169434 185918 177046 135508 157216 181278
3808.75 170130 122354 152962 146302 140026 96510
3811.64 174358 124502 146872 144748 185158 182706
3814.53 131648 85264 175606 142010 128460 177280
3817.42 138284 130968 123414 108938 133456 67852
3820.32 169618 121582 123842 131214 163094 109200
3823.21 125394 103040 156834 146700 101472 185758
3826.10 157508 179614 127648 179136 109778 102306
3828.99 149450 169084 169628 152124 197338 116604
3831.89 132950 192590 170708 171976 178228 209594
3834.78 159784 191628 172140 134756 231858 217596
3837.67 198546 214238 190308 139608 286404 165630
3840.57 236030 234912 215944 178530 207378 190606
3843.46 159824 204766 168404 192522 167040 251306
3846.35 167688 235420 197444 178074 155724 201254
3849.24 200470 190552 170030 223878 230076 229116
3852.14 215976 176492 161080 234566 224494 198144
3855.03 122438 159208 194432 183884 187742 163808
3857.92 171980 159618 168144 127902 161572 119714
3860.81 153956 142350 158278 131686 119714 112650
3863.71 141324 175680 160074 113202 109772 105994
3866.60 111674 194772 152626 143370 192634 112904
3869.49 142956 155600 93130 199444 113956 113442
3872.39 104066 127524 191576 157044 96840 141900
3875.28 135910 89174 159084 136048 148484 123494
3878.17 110084 130090 104292 108774 109470 157468
3881.06 135560 125382 172998 165610 101192 181256
3883.96 178892 173582 156448 168988 147778 161240
3886.85 163342 170038 144678 181448 203852 165898
3889.74 201880 109810 206672 172574 167184 119048
3892.63 161506 242004 169382 212114 178584 184260
3895.53 195118 165716 190514 139232 194336 151904
3898.42 195548 251248 196066 207410 177094 191174
3901.31 204226 200102 209092 228314 191102 269534
3904.21 190354 177100 204748 192370 258866 166498
3907.10 169082 223440 226724 122728 168900 146844
3909.99 179392 217156 143460 174774 223340 193388
3912.88 196844 200532 186872 243680 200682 130178
3915.78 193782 151480 199808 121378 148146 183078
3918.67 108460 160820 181606 132674 146400 167030
3921.56 131588 133298 101140 106856 125224 89178
3924.45 155340 136382 120936 95820 94422 140874
3927.35 114374 42510 129624 115906 56402 143342
3930.24 123134 113130 122526 101838 91234 159392
3933.13 123914 112786 88208 118346 86166 125832
3936.03 100896 87160 103724 120472 106346 125344
3938.92 148316 143812 119958 77748 103684 92336
3941.81 93734 135654 135626 153220 176594 134914
3944.70 126038 141098 146136 198700 155646 207778
3947.60 167280 214126 223456 169248 128448 143200
3950.49 215748 161296 180218 155778 204500 170930
3953.38 220984 210364 190146 198584 193476 220754
3956.27 239098 196958 208804 162804 190062 203832
3959.17 212702 188330 243922 213940 206524 307666
3962.06 194514 228578 221862 287234 257834 294746
3964.95 317940 253778 305046 258200 307114 297410
3967.85 284154 285740 338676 333358 273106 373844
3970.74 300016 353958 389842 339458 348006 378914
3973.63 376322 324294 387254
##END=
