##TITLE=Ethyl Acrylate
##JCAMP-DX=4.24
##DATA TYPE=INFRARED SPECTRUM
##CLASS=IUPAC A
##ORIGIN=NIST, Anayltical Chemistry Division, 301-975-3108
##OWNER=COPYRIGHT (C) 1998 by the U.S. Secretary of Commerce
##DATE=98/10/1
##$SPECTRA VERSION=1.00
##$UNCERTAINTY IN Y=2.0 % relative (B=1.0E-04,C=3.0E-10,D=2.7E-14)
##CAS NAME=Ethyl Ester-Propenoic Acid
##CAS REGISTRY NO=140-88-5
##MOLFORM=C H2: C H C O2 C2 H5
##MP=-71.2 C
##BP=99.8 C
##$NIST SOURCE=QUANT-IR
##SPECTROMETER/DATA SYSTEM=IFS66V (Bruker)
##INSTRUMENT PARAMETERS=KBr Beam splitter; MCT Detector; Multipass cell
##STATE=gas
##SAMPLE DESCRIPTION=Ethyl Acrylate Primary Gas Standard
##PRESSURE=101.3 kPa
##TEMPERATURE=23 C
##SAMPLING PROCEDURE=1 L/min Flow
##RESOLUTION=1.9290
##DATA PROCESSING=Triangular Apodization
##XUNITS=cm-1
##YUNITS=(micromol/mol)-1m-1 (base 10)
##XFACTOR=1.0
##YFACTOR=18.189E-13
##DELTAX=0.9645
##FIRSTX=574.687
##LASTX=3974.595
##FIRSTY=5.72E-07
##MAXX=3973.63
##MINX=574.69
##MAXY=.0020276
##MINY=-4.16E-07
##NPOINTS=3527
##XYDATA=(X++(Y..Y))
574.69 314542 359002 466022 494558 495454 421610
579.51 386970 389244 375794 450304 426040 393676
585.29 348298 368024 465960 487110 570280 678496
591.08 732814 731640 730230 806914 974064 1097226
596.86 1336638 1618744 1772268 2031068 2431138 2709886
602.65 2893440 3074110 3203834 3213340 3197498 3416356
608.44 4065908 4477456 4067822 3874100 4109572 4357220
614.22 4522490 4536962 4426680 4191328 3906856 3620378
620.01 3355284 3137156 2977940 2796872 2616820 2495308
625.79 2401744 2331352 2282162 2153662 1992844 1845960
631.58 1713104 1676350 1665028 1669094 1732002 1846600
637.36 1989146 2169104 2363368 2535938 2767244 3024488
643.15 3298936 3620010 4032974 4484830 4929382 5409376
648.93 5935110 6480854 7067596 7715166 8303998 8841320
654.72 9356384 9850146 10206790 10408850 10678010 10926110
660.50 11106930 11351240 11559920 11696350 11840980 11938770
666.29 11922630 11767260 11463660 11029230 10506030 9934956
672.08 9297672 8642892 8028236 7464882 7028848 6695226
677.86 6413298 6087392 5697434 5246582 4712724 4166066
683.65 3652476 3224898 2821488 2463678 2164880 1921914
689.43 1749168 1568524 1384742 1254428 1154056 1022506
695.22 933790 886272 805398 740358 716420 673918
701.00 629812 617292 610274 571926 554884 554600
706.79 548564 544374 529606 521042 553554 585184
712.57 569428 581264 610772 633766 614780 596248
718.36 606326 627968 650754 666302 674932 679140
724.14 691442 679274 683304 712342 756720 814532
729.93 818652 813750 816428 829390 869990 901524
735.71 919258 944882 947446 952610 996784 1033572
741.50 1047402 1070084 1111724 1142652 1160986 1181310
747.29 1222682 1278838 1321904 1344432 1359478 1402062
753.07 1463582 1504970 1548550 1584474 1641906 1702678
758.86 1768032 1850714 1913898 1991256 2088610 2209786
764.64 2352160 2506550 2704588 2901244 3127172 3402984
770.43 3682882 4017892 4415962 4847648 5324254 5857534
776.21 6454908 7102614 7810756 8589938 9411246 10301070
782.00 11263500 12215180 13260890 14472930 15928570 17611740
787.78 19349470 21078030 22827830 24717620 26702190 28620710
793.57 30707720 33036030 35390440 37714120 40114080 42541110
799.35 44922060 47521480 50651370 54031210 57508430 60128380
805.14 60892300 61538180 62843210 64616120 67182270 70106100
810.93 72120550 71986290 70468860 68601620 66149730 63459220
816.71 61426360 58978910 56154320 53659970 50309020 46818410
822.50 44009050 41443390 38903010 36362250 33808490 31263490
828.28 28810550 26435660 24173990 22103940 20205830 18494990
834.07 16995600 15725970 14673820 13827300 13176050 12745690
839.85 12517650 12474150 12618780 12897900 13337740 13919380
845.64 14617910 15429290 16311020 17237000 18172940 19129890
851.42 20055480 20870950 21614790 22282010 22762020 22921890
857.21 22934890 23025860 23255240 23408270 23380650 23311370
862.99 23117480 22724810 22140380 21402300 20552050 19620960
868.78 18676190 17742010 16804150 15861160 14867890 13848010
874.57 12860850 11909300 11037420 10256810 9559352 8950166
880.35 8424612 8021670 7726398 7493196 7358874 7296998
886.14 7325892 7482558 7724018 8068446 8499680 8992068
891.92 9524696 10034180 10493560 10873320 11160540 11380910
897.71 11608620 11863730 12070980 12239780 12448630 12713670
903.49 12971200 13215440 13463430 13679210 13863180 14002610
909.28 14089470 14147770 14141980 14034550 13796300 13430340
915.06 12964640 12457720 12017230 11769620 11646810 11439330
920.85 11276630 11294210 11295220 11118410 10734440 10178760
926.63 9572606 9004402 8496014 8095142 7835206 7709450
932.42 7709856 7821882 8021228 8323180 8765078 9330738
938.21 10010290 10852460 11887500 13096300 14501560 16109820
943.99 17915300 19918330 22102350 24464180 26988130 29621520
949.78 32353620 35158240 38019910 40835420 43528520 46194210
955.56 49009550 52023740 55435700 59804300 66660280 77753740
961.35 89979480 89815790 79246340 77554140 85092980 93418100
967.13 93034500 84528000 80950390 82307940 84053960 85732940
972.92 87138480 88319140 89161800 89715890 89993080 90086050
978.70 90004820 89755630 89392500 89236440 89848570 92205190
984.49 98128380 108478400 111526500 98780420 87348480 85640140
990.27 85985310 83880820 77580640 70911330 66769990 63739880
996.06 60677200 57489590 54259620 51025070 47762680 44535620
1001.85 41381290 38339890 35449250 32727400 30227450 28025850
1007.63 26149580 24612540 23404790 22515000 21940890 21672560
1013.42 21737720 22201760 23082390 24387310 26119560 28344040
1019.20 31098600 34420580 38320890 42802100 47840340 53398070
1024.99 59365160 65577090 71862800 78048270 83915060 89182980
1030.77 93633460 97297250 100487900 103758200 106361700 107574200
1036.56 109178600 112016000 114824100 115937300 114778400 112662600
1042.34 110023700 105605000 100225200 95656130 91866080 88512590
1048.13 85662770 83639790 82695560 83103500 84998770 88426480
1053.91 93354570 99693810 107273100 115851600 125030700 134186600
1059.70 142668200 150004600 155990300 160487700 163761900 166624700
1065.48 170006200 174620700 179046800 181656500 181213400 178081100
1071.27 176753600 176985300 175171500 169896500 161035100 149499400
1077.06 136533400 123829000 112181400 101887300 93054070 85569850
1082.84 79318160 74062780 69582510 65897720 63094190 61206500
1088.63 60137480 59753260 59983670 60619690 61422740 62182430
1094.41 62672330 62774970 62601960 62407830 62422920 62620460
1100.20 62476190 61675920 60890240 60308130 59594150 58847100
1105.98 57902580 56488250 54532270 52162660 49513230 46732390
1111.77 44001110 41388760 38948540 36734270 34724070 32917250
1117.55 31334330 29960270 28720260 27798590 27322860 27031710
1123.34 26705140 26231860 25522570 24604520 23602900 22597930
1129.12 21635640 20777110 20077620 19527670 19076870 18747930
1134.91 18548280 18444420 18432230 18502450 18650910 18859250
1140.70 19112770 19435320 19821970 20258200 20733380 21255920
1146.48 21833270 22492900 23269470 24171790 25201470 26387140
1152.27 27746930 29284700 30989150 32895120 35039240 37436690
1158.05 40143700 43252850 46652200 50236350 54479080 59711360
1163.84 65725900 72427260 79882360 88137070 96891500 105789900
1169.62 114715400 123852700 133641400 144693000 157699400 173024900
1175.41 190246100 210631400 235597100 265571900 301274900 342982000
1181.19 391387800 446941400 509544500 578639000 653048800 730551600
1186.98 807485700 879957100 943429800 994136400 1030696000 1055117000
1192.76 1071160000 1083642000 1095619000 1109040000 1114486000 1108435000
1198.55 1110302000 1114695000 1100324000 1056994000 982646300 885408700
1204.34 779129700 676011600 582937000 503794700 438545300 384738200
1210.12 340444400 303725000 271726000 242451600 215443400 191239900
1215.91 169852100 150903100 134800100 121328600 110042000 100875900
1221.69 93081210 86355040 80469020 75300950 70812800 66927740
1227.48 63565040 60650220 58166520 56087120 54352690 52960080
1233.26 51874410 51027140 50291900 49523670 48860470 48394420
1239.05 47929720 47379900 46801270 46339350 46056890 45989120
1244.83 46194380 46634380 47476440 48855560 50752900 53286160
1250.62 56610740 60918640 66441700 73434520 82146740 92810420
1256.40 105537500 120369100 137218800 155732200 175370200 195522500
1262.19 215461700 234617900 252687600 269644600 285900200 301970800
1267.98 317966900 332754000 344483100 351981600 355751200 357859200
1273.76 359196600 358946300 356632000 351147200 342049200 326921100
1279.55 302942300 278064700 262260400 253148900 240987900 225692000
1285.33 212038700 200018300 190903400 186066900 186267200 191122300
1291.12 199525000 209616900 219344800 226211900 228891300 227450800
1296.90 223551000 221345500 230083600 241309000 234627700 230431300
1302.69 238741900 243065100 238949100 225781900 205159200 180825700
1308.47 157776000 137821000 121150900 107351600 95893270 86170990
1314.26 77716890 70149650 63429580 57421470 51991550 47060620
1320.04 42670910 38804300 35391220 32354080 29573170 27022530
1325.83 24765690 22741200 20908730 19228310 17697550 16306990
1331.61 15068400 13982650 13044380 12231340 11566450 11022340
1337.40 10571770 10186390 9876206 9631644 9443230 9282110
1343.19 9150092 9052990 8972940 8914560 8891702 8905572
1348.97 8959672 9052668 9209794 9439406 9742110 10139570
1354.76 10660400 11296770 12057080 12958330 13986230 15072290
1360.54 16179950 17221480 18095990 18738400 19220050 19730810
1366.33 20637070 21896800 22957950 23878490 24610180 25437980
1372.11 26818010 28493500 30261010 32062910 33941620 35991230
1377.90 38380760 41245920 44665380 48641460 53063860 57676530
1383.68 62185790 66338510 69900540 72876420 75571120 78397220
1389.47 81450700 84113170 87315600 91816700 97582810 105534000
1395.25 114834900 124338100 134020600 144288000 155741900 168619700
1401.04 182585400 196950800 210397700 221341100 228892100 233085500
1406.83 235025400 237452100 243424800 243909000 238074800 235881200
1412.61 235714700 234386000 229773000 220430500 207708600 193253300
1418.40 176913700 158801700 139637500 120416900 102261600 86043110
1424.18 72252190 61003330 52133900 45368680 40338160 36636140
1429.97 33901480 31884620 30413180 29360110 28648710 28215740
1435.75 28031960 28050570 28215800 28509750 28899980 29370000
1441.54 29916900 30487250 31044920 31587000 32140050 32691920
1447.32 33261290 33959310 34882530 36064260 37269860 38077550
1453.11 38321440 38213820 38170280 38391770 38746920 39186550
1458.89 39572000 39790100 40166270 40967750 42004120 42639980
1464.68 42920070 43261290 43440060 43352870 43230540 43490860
1470.47 43919150 43118340 41576890 40749520 40400960 40057230
1476.25 39505320 38655150 37512320 36108120 34474070 32635750
1482.04 30578080 28348410 26104840 24136820 22740210 22030850
1487.82 21793550 21639670 21302020 20690320 19880230 18955310
1493.61 17976610 17006000 16056950 15167850 14360940 13634100
1499.39 12989700 12404960 11879510 11399540 10945190 10535560
1505.18 10154410 9790544 9459300 9171270 8914944 8679802
1510.96 8479698 8292482 8107890 7945688 7777440 7603022
1516.75 7423562 7238112 7061032 6887484 6720946 6545212
1522.53 6371370 6204978 6035736 5855300 5676328 5501792
1528.32 5320072 5141674 4985478 4841308 4704742 4581906
1534.11 4468772 4370036 4275960 4203566 4145582 4082246
1539.89 4014252 3964218 3930138 3896384 3874880 3863862
1545.68 3868402 3877452 3884946 3908310 3938840 3984868
1551.46 4039964 4099232 4176214 4246212 4325722 4419378
1557.25 4506352 4578926 4627848 4658682 4689818 4725616
1563.03 4776362 4842538 4893456 4927462 4957478 4987490
1568.82 4996416 4966938 4921738 4873742 4815860 4757260
1574.60 4730002 4713676 4696382 4694276 4705024 4723986
1580.39 4754092 4781668 4808990 4851312 4891400 4927896
1586.17 4967106 5015786 5067780 5131698 5220796 5310496
1591.96 5401284 5518314 5663780 5828274 6019760 6247232
1597.74 6496054 6759946 7064408 7417906 7819086 8283892
1603.53 8811400 9424322 10121530 10890660 11746730 12678970
1609.32 13673900 14741370 15894490 17130960 18459080 19838840
1615.10 21218800 22588220 23927140 25176080 26261800 27100290
1620.89 27651510 28042610 28490490 29250500 30461540 32009090
1626.67 33736040 35552910 37510080 39716010 42300050 45307730
1632.46 48722660 52436680 55998730 58795120 60264700 60110250
1638.24 58667370 56916690 56241320 55774070 53132160 51312910
1644.03 52477290 53707010 54734120 55297310 53485450 49024240
1649.81 42742730 35734840 28974340 23120780 18468460 15016940
1655.60 12587820 10951980 9839740 9058056 8498092 8059144
1661.38 7707876 7433862 7209888 7028824 6878632 6767548
1667.17 6696480 6647440 6621268 6626354 6654636 6698550
1672.96 6777026 6877476 6981592 7098366 7235540 7366104
1678.74 7467822 7559268 7667436 7800850 7954346 8138052
1684.53 8340910 8562324 8820212 9092372 9382216 9690908
1690.31 10006320 10350560 10719740 11113390 11565510 12071590
1696.10 12609670 13188730 13810690 14440140 15040750 15593320
1701.88 16056300 16383380 16584300 16739290 17024080 17689970
1707.67 18876010 20437250 22089310 23648490 25098920 26553550
1713.45 28163240 30016900 32196750 34836820 38037470 41908740
1719.24 46593140 52164890 58681980 66223330 74900500 84818490
1725.02 96098470 108897700 123309700 139514100 157652800 177807800
1730.81 200185700 224876900 251964000 281732100 314151900 349004200
1736.60 386070300 424807400 464094200 502305000 537084100 565377300
1742.38 583895600 590037200 583555600 568253900 552177900 543742500
1748.17 546222400 557524200 575067100 595614500 612385700 616675600
1753.95 604077200 576687200 539447900 497308100 453388600 410065800
1759.74 369025900 330901200 296116100 264477600 235611900 209242400
1765.52 185165300 163217300 143245500 125238100 109136100 94812620
1771.31 82208270 71244430 61750910 53622800 46720600 40904940
1777.09 36025120 31930200 28506350 25650920 23289020 21324640
1782.88 19686000 18315480 17143780 16150520 15327570 14614350
1788.66 13984550 13438530 12958170 12517720 12088860 11668080
1794.45 11277960 10907600 10557980 10232410 9942170 9705604
1800.24 9490116 9295348 9123714 8957434 8781968 8597674
1806.02 8408948 8212542 8022616 7834450 7654456 7484746
1811.81 7320094 7168158 7037976 6926430 6829810 6750892
1817.59 6690204 6649176 6629434 6620880 6586614 6523126
1823.38 6461124 6398914 6339934 6293638 6240684 6175968
1829.16 6103796 6018532 5932520 5836236 5719224 5600404
1834.95 5477350 5358640 5258278 5170994 5083440 4988212
1840.73 4875638 4732816 4581630 4437828 4299758 4169512
1846.52 4036898 3912456 3793874 3672022 3563892 3460300
1852.30 3349940 3251686 3169802 3098390 3035770 2967820
1858.09 2899238 2843352 2789120 2734250 2689028 2645558
1863.88 2602660 2572612 2554316 2546578 2547214 2559474
1869.66 2583042 2607624 2651308 2720658 2792194 2871500
1875.45 2971980 3081048 3196246 3320064 3447928 3571784
1881.23 3702242 3835268 3954038 4074342 4192942 4298872
1887.02 4399398 4482448 4539456 4583202 4624496 4671008
1892.80 4712010 4733964 4759256 4784546 4793406 4789418
1898.59 4777550 4755334 4723350 4698288 4690470 4713610
1904.37 4769220 4840428 4935750 5078176 5249670 5442880
1910.16 5676606 5938096 6225470 6559998 6927944 7317524
1915.94 7728458 8158332 8606968 9073780 9547966 10031890
1921.73 10535870 11077300 11695930 12391590 13141190 13894030
1927.51 14535220 14956870 15116000 15016710 14745320 14391660
1933.30 14013450 13596320 13125240 12759080 12631700 12604590
1939.09 12386750 11864190 11095180 10177960 9223002 8318714
1944.87 7513992 6831358 6279936 5850266 5530018 5301474
1950.66 5140378 5010984 4932202 4915452 4899058 4819052
1956.44 4660532 4462956 4252166 4046712 3859992 3684020
1962.23 3526170 3398468 3282396 3176740 3081172 3000138
1968.01 2934154 2869382 2818528 2780688 2736300 2676272
1973.80 2613338 2563782 2523556 2492318 2478784 2473758
1979.58 2470816 2473420 2477266 2472604 2455502 2428026
1985.37 2398886 2378218 2360350 2331648 2295260 2268420
1991.15 2254386 2242602 2222200 2179588 2111774 2036222
1996.94 1964766 1886732 1807550 1750246 1709684 1670282
2002.73 1643236 1619536 1600608 1597018 1591354 1580484
2008.51 1578396 1579854 1582724 1598176 1627988 1650132
2014.30 1669038 1699844 1730868 1760574 1787548 1823948
2020.08 1868750 1909956 1954852 2008628 2067378 2133324
2025.87 2202640 2277414 2364426 2448760 2534250 2636460
2031.65 2751716 2883406 3023406 3185096 3374770 3578656
2037.44 3809452 4063348 4351622 4678900 5015666 5366790
2043.22 5728410 6086244 6430096 6743672 7031650 7298554
2049.01 7539036 7758294 7963458 8165836 8357752 8515158
2054.79 8618884 8689174 8733956 8716606 8611712 8401534
2060.58 8104950 7764404 7422228 7086672 6770584 6482120
2066.37 6204604 5935792 5674036 5407460 5133098 4867970
2072.15 4630408 4412066 4205552 4012648 3845038 3695834
2077.94 3560078 3442596 3336362 3255556 3200224 3153854
2083.72 3118152 3106434 3097936 3096346 3103554 3105172
2089.51 3101278 3098658 3097518 3089654 3076434 3046686
2095.29 3014444 2992782 2967764 2931628 2891000 2854040
2101.08 2806252 2749392 2692900 2628740 2569976 2516270
2106.86 2471522 2435204 2403246 2390026 2379584 2373932
2112.65 2378318 2381224 2385748 2401764 2426510 2435638
2118.43 2437002 2445640 2453118 2456016 2455802 2457222
2124.22 2460292 2456934 2445498 2444878 2441092 2424762
2130.01 2400840 2375174 2346894 2307032 2273756 2241780
2135.79 2205532 2167366 2116540 2074390 2044732 2011074
2141.58 1966348 1925378 1895486 1856724 1820524 1783278
2147.36 1756300 1735492 1703416 1684156 1675690 1665062
2153.15 1662868 1663536 1668644 1686396 1694284 1706940
2158.93 1726894 1737344 1738834 1738348 1740026 1721048
2164.72 1687332 1655188 1620770 1584812 1552996 1516994
2170.50 1470080 1426278 1384764 1336740 1278934 1214694
2176.29 1152252 1097316 1041068 993124 967580 944394
2182.07 921508 912312 909832 903472 898070 903084
2187.86 903902 898622 908820 917344 922042 924176
2193.64 917966 913636 918582 921400 924454 917586
2199.43 903556 899108 886710 878700 870014 861604
2205.22 854988 844234 841980 838438 838208 836956
2211.00 827430 830958 837380 828832 829728 845136
2216.79 859614 868692 885260 898164 910676 932772
2222.57 948748 956658 961720 963840 953820 953686
2228.36 960250 971038 990946 1012616 1032016 1043408
2234.14 1044016 1043988 1042184 1034684 1029888 1027802
2239.93 1028396 1031440 1030434 1036828 1048594 1049528
2245.71 1051706 1054228 1049778 1045546 1042932 1034912
2251.50 1029786 1023938 1015724 1014556 1020986 1025814
2257.28 1030896 1036902 1044654 1050250 1055218 1067364
2263.07 1082022 1094432 1092746 1089986 1088280 1083284
2268.86 1083458 1076324 1069012 1069382 1068346 1077006
2274.64 1077492 1063642 1066180 1063702 1059772 1064820
2280.43 1063780 1060856 1051584 1040770 1036570 1035042
2286.21 1035508 1039856 1049286 1042880 1035390 1055958
2292.00 1081778 1097264 1111718 1133498 1157536 1186244
2297.78 1217118 1241742 1264582 1300012 1329414 1354880
2303.57 1389098 1418460 1451668 1493084 1532102 1558850
2309.35 1591592 1627216 1656266 1688560 1706504 1712798
2315.14 1718630 1716490 1717846 1717632 1717994 1724512
2320.92 1721438 1709692 1698074 1696200 1687114 1661172
2326.71 1625374 1591492 1564796 1533238 1488788 1449820
2332.50 1414856 1385304 1358712 1324962 1305834 1299912
2338.28 1285502 1251730 1215404 1187050 1152802 1128386
2344.07 1114320 1109956 1112268 1114572 1139580 1175392
2349.85 1202334 1242126 1294552 1349346 1419072 1494722
2355.64 1568528 1648482 1726442 1791216 1856172 1916214
2361.42 1977780 2046802 2113376 2181486 2255484 2343190
2367.21 2441114 2542166 2638458 2731812 2827440 2926434
2372.99 3027066 3118366 3203402 3292498 3392060 3494278
2378.78 3583974 3665352 3742426 3802956 3853512 3881008
2384.56 3899400 3935256 3947036 3928722 3902736 3864716
2390.35 3810292 3730744 3618940 3499148 3350378 3173016
2396.14 3001024 2831564 2676458 2543372 2413600 2286986
2401.92 2178468 2081074 1992410 1912310 1835414 1774266
2407.71 1728280 1683270 1654270 1624234 1595648 1587366
2413.49 1572126 1556166 1547148 1531692 1512016 1496652
2419.28 1481636 1468962 1454976 1437436 1422052 1402472
2425.06 1381962 1355618 1314582 1267526 1225714 1183062
2430.85 1139464 1099936 1064494 1035526 993784 947586
2436.63 919458 890852 856174 826972 806854 785296
2442.42 766850 744406 720662 709498 695462 693156
2448.20 700060 690766 676720 677450 692020 701448
2453.99 709358 715494 733964 763680 777292 801984
2459.77 834338 864878 893752 928618 976188 1032456
2465.56 1085268 1118654 1149646 1193610 1238234 1274268
2471.35 1311616 1344452 1373728 1401658 1428146 1452284
2477.13 1476182 1491942 1507072 1523486 1515290 1510380
2482.92 1507750 1500510 1495084 1482628 1473280 1456366
2488.70 1446614 1442280 1423266 1397430 1375030 1352424
2494.49 1334394 1325224 1310896 1286916 1264728 1240216
2500.27 1209856 1175890 1145730 1115124 1073502 1038660
2506.06 1009842 971572 935094 908086 888162 868794
2511.84 846568 824692 810718 799460 770884 761192
2517.63 760526 755636 761976 757682 755194 764554
2523.41 774756 793962 812188 822928 838608 852882
2529.20 870576 899072 922360 942754 964618 994036
2534.99 1022068 1045356 1056352 1059488 1071970 1088406
2540.77 1105142 1107592 1113310 1131530 1136830 1129054
2546.56 1132984 1139042 1133166 1125146 1126412 1126664
2552.34 1130700 1131762 1120124 1112100 1099608 1083292
2558.13 1051566 1019984 992716 955440 924886 899196
2563.91 868256 843226 828940 811808 794414 766058
2569.70 731632 696510 655070 620494 596548 576112
2575.48 562622 554572 550750 547714 551692 548090
2581.27 535080 542638 553366 572246 592380 613314
2587.05 647834 667894 685418 712492 745142 776430
2592.84 799426 824198 847458 869242 889984 909276
2598.63 934752 951902 965470 985554 997712 999632
2604.41 996752 998288 990548 971156 957952 968534
2610.20 982710 972712 963310 957812 946688 925568
2615.98 898638 883126 871540 854596 834552 815962
2621.77 795612 782438 773412 756024 734682 717736
2627.55 708932 694000 691848 696328 690810 682070
2633.34 677550 675996 681920 700102 714392 720540
2639.12 734830 752940 755146 766630 783378 801696
2644.91 816618 821974 839368 865882 883616 906010
2650.69 919098 929720 948282 962842 980458 999576
2656.48 1019512 1041826 1071072 1087026 1094110 1099134
2662.27 1105918 1107510 1105106 1113840 1118832 1125624
2668.05 1137002 1138626 1142548 1153712 1155126 1138376
2673.84 1127878 1118032 1103838 1078372 1060674 1067874
2679.62 1065038 1049830 1047662 1061120 1060562 1062218
2685.41 1072536 1074906 1075900 1086316 1114448 1133772
2691.19 1153164 1194402 1230804 1270502 1323154 1385858
2696.98 1432494 1474464 1510884 1528958 1563996 1582690
2702.76 1593828 1609396 1622848 1643666 1650300 1649906
2708.55 1643104 1635840 1613354 1594252 1574704 1542006
2714.33 1518250 1493270 1461282 1446858 1454550 1463436
2720.12 1471554 1475256 1468038 1468160 1481122 1479170
2725.91 1483358 1492130 1509662 1532950 1546480 1568068
2731.69 1603318 1642466 1648142 1623354 1607040 1593862
2737.48 1566192 1533474 1502260 1487102 1474940 1452776
2743.26 1454892 1465050 1472980 1491950 1519136 1541944
2749.05 1547224 1563998 1578696 1585962 1588878 1599702
2754.83 1612524 1627674 1660620 1716540 1790978 1832466
2760.62 1871128 1933734 1994378 2042518 2100122 2150586
2766.40 2178892 2207204 2228962 2243478 2255882 2265676
2772.19 2257714 2224898 2194556 2165524 2133866 2108046
2777.97 2074380 2021908 1954338 1888446 1816888 1755246
2783.76 1705410 1648800 1606096 1576116 1566352 1573340
2789.54 1578410 1578198 1594526 1616694 1627010 1656862
2795.33 1679652 1687044 1701080 1733882 1767784 1786746
2801.12 1816114 1860202 1901590 1944548 1992388 2044172
2806.90 2098056 2151870 2201572 2257084 2331264 2410296
2812.69 2493978 2573782 2670164 2800006 2916778 3023798
2818.47 3153204 3282576 3381816 3458932 3524294 3570712
2824.26 3600130 3623654 3649050 3680712 3718596 3754234
2830.04 3779922 3819116 3851778 3846110 3833280 3818442
2835.83 3795254 3797692 3807194 3798268 3809804 3813634
2841.61 3817518 3850752 3886070 3925570 3966316 3995682
2847.40 4030384 4082898 4129890 4177824 4235942 4295900
2853.18 4364178 4447706 4532404 4607804 4679272 4746804
2858.97 4829442 4918788 5011522 5134160 5286976 5479396
2864.76 5691232 5910218 6163570 6473606 6830876 7254170
2870.54 7761474 8376152 9103498 9962522 10965260 12124620
2876.33 13418260 14773200 16126970 17390770 18448070 19211610
2882.11 19698340 20049750 20458140 20958970 21519900 22128760
2887.90 22723520 23247030 23677590 24003070 24184540 24240260
2893.68 24232520 24166910 24129590 24165850 24278620 24522020
2899.47 24908470 25470130 26176090 26899220 27611730 28342820
2905.25 29109880 29900680 30678510 31431400 32112900 32680450
2911.04 33180120 33608590 33936220 34125960 34049480 33599890
2916.82 32914390 32278790 31812330 31575900 31532890 31608800
2922.61 31684850 31665350 31513630 31245190 30932840 30629690
2928.40 30436060 30425040 30707010 31385250 32481810 33963020
2934.18 35776420 37855060 40046580 42191070 44091780 45655250
2939.97 47033400 48530870 50356170 51812680 52556760 53458500
2945.75 54854060 56546490 57907350 58022670 57442470 57066190
2951.54 56744620 56300360 55808520 55344920 54421620 53297830
2957.32 52696680 52533810 52566210 52663210 53106460 53981260
2963.11 55326920 56978240 57646000 57527690 58097090 59592480
2968.89 61494440 63463210 65898830 69259600 73430240 78331660
2974.68 83839420 89819240 96076300 102467200 108828000 115327900
2980.46 122261500 130174400 136888800 139196800 139744000 140911100
2986.25 141955500 143178600 145212800 147145900 147723100 150108900
2992.04 155738700 167228800 179473200 171955100 154071000 142750200
2997.82 134461000 127569700 121148300 114810200 108687800 102837400
3003.61 96996580 91552600 86797970 82570200 78713450 75076620
3009.39 71135790 66777940 62144460 57407600 52694140 48126800
3015.18 43807460 39843310 36244620 33008030 30081400 27427990
3020.96 25077860 22999180 21175280 19620850 18288930 17190210
3026.75 16268900 15474040 14812540 14324040 13991360 13779940
3032.53 13711540 13742710 13860770 14134990 14576000 15202370
3038.32 15993850 16893390 17800890 18587850 19147150 19399290
3044.10 19322640 18993400 18645570 18499880 18576630 18349750
3049.89 17800950 17643290 17804420 17921530 17746820 17103380
3055.67 16034370 14683970 13217880 11789530 10489180 9371344
3061.46 8485632 7811600 7292034 6907974 6643944 6500322
3067.25 6444816 6434570 6473474 6557976 6677156 6813026
3073.03 6938398 7076460 7208606 7308034 7390192 7454004
3078.82 7473656 7417378 7330974 7231066 7152456 7137216
3084.60 7108306 7074826 7125524 7154446 7072804 6886546
3090.39 6623600 6353144 6069200 5798814 5594046 5456076
3096.17 5404580 5454956 5642908 5986546 6539390 7314816
3101.96 8335774 9580896 11028280 12582580 14018540 15060040
3107.74 15503550 15153890 14130770 13024820 13160230 14415930
3113.53 15365050 15200090 14126610 14246230 15226280 15654510
3119.31 15359460 14322980 12775950 11020910 9314208 7743274
3125.10 6445980 5425856 4662368 4076174 3635434 3333474
3130.89 3109916 2928940 2779822 2631040 2513870 2423456
3136.67 2348534 2275494 2205952 2157586 2135128 2131204
3142.46 2124806 2129648 2137994 2137026 2158388 2173560
3148.24 2178182 2193818 2201842 2196860 2182872 2164404
3154.03 2164332 2151790 2131330 2111684 2083586 2064452
3159.81 2042776 2010364 1970488 1937018 1912012 1895602
3165.60 1863940 1825200 1789328 1753062 1732932 1707666
3171.38 1675456 1652164 1625554 1591008 1550904 1531822
3177.17 1517430 1477738 1449602 1419792 1412290 1400172
3182.95 1364970 1337734 1296860 1283380 1270838 1240202
3188.74 1213780 1197000 1188078 1176000 1148236 1139742
3194.53 1128428 1091024 1079670 1084032 1072254 1057824
3200.31 1055180 1039388 1036512 1022416 1003238 1005314
3206.10 991880 966992 962552 953308 947400 954720
3211.88 948252 941712 937422 936646 945062 947780
3217.67 926634 928992 945636 950414 953844 959506
3223.45 984696 997146 997252 1015244 1023836 1016286
3229.24 1029140 1040640 1045104 1058892 1077724 1091068
3235.02 1079756 1068174 1068346 1069080 1062062 1056698
3240.81 1069884 1070218 1071424 1061364 1036644 1010768
3246.59 982760 972576 943170 901048 871270 844056
3252.38 800182 749510 715340 695876 675310 630664
3258.17 569578 523196 496332 455558 414100 386188
3263.95 347344 321844 300514 272264 250880 222804
3269.74 198402 181980 170940 146722 134508 145538
3275.52 138088 132350 128726 106746 105168 101554
3281.31 63886 42386 41094 58248 65752 42602
3287.09 26942 26278 22168 2710-5358-5968
3292.88-1950-13394-22188-20822-41842-43554
3298.66-30936-20048-328 7436 6214 14054
3304.45 36196 64774 76344 81302 90400 121176
3310.23 155632 165862 162072 189760 210010 218702
3316.02 228134 218168 239562 255136 253646 261760
3321.80 272736 286114 298992 297328 293266 304146
3327.59 326980 343170 346992 349498 356782 362192
3333.38 355712 373164 381152 370828 382058 391770
3339.16 400924 409230 422282 439702 463576 486928
3344.95 492496 497618 511964 543448 580620 609534
3350.73 613196 612668 649732 688570 698968 715332
3356.52 747524 768604 791752 816518 830538 848146
3362.30 868194 885040 888450 884914 882376 870032
3368.09 875762 888860 888432 867738 856966 873558
3373.87 876586 868302 873622 885312 889744 911524
3379.66 940694 958302 984608 1003368 993720 997520
3385.44 1017200 1019476 999340 977194 940828 906090
3391.23 876512 851154 863748 866772 843234 835050
3397.02 812386 726494 632476 568184 522156 467992
3402.80 397936 333682 279628 259134 247634 244894
3408.59 246708 235016 234766 223536 211038 208520
3414.37 211778 205878 181600 192720 182156 156756
3420.16 167000 154458 149066 153116 150494 148966
3425.94 162140 169982 173178 169210 137898 145658
3431.73 160384 150796 149500 167186 181720 175270
3437.51 187482 200440 205518 215616 216632 225034
3443.30 261268 267068 298926 373140 421744 473130
3449.08 534586 612272 708858 818040 921532 1052254
3454.87 1199320 1347262 1532022 1749498 1975624 2201388
3460.66 2441054 2712570 3022066 3345624 3654214 3994922
3466.44 4351772 4689330 5043786 5365344 5661380 5952298
3472.23 6172124 6341468 6462520 6508422 6510008 6504402
3478.01 6509916 6579340 6686606 6779946 6829196 6785256
3483.80 6671566 6476950 6191918 5828320 5412902 4986440
3489.58 4581378 4189060 3790166 3402800 3038376 2689652
3495.37 2350004 2048576 1779228 1524544 1282954 1074400
3501.15 910062 758746 606560 475054 355556 243158
3506.94 162486 109264 58072 10602-35382-77222
3512.72-101428-135716-167462-184978-197292-196556
3518.51-184960-184750-204018-210772-224938-242830
3524.30-235088-228188-219596-218160-213676-219686
3530.08-226530-219676-225130-238082-228756-194790
3535.87-194410-195030-170704-177428-188224-162444
3541.65-145384-129422-121608-132298-124516-112014
3547.44-87454-72206-67644-54120-51278-42696
3553.22-17986-4170-5560 4854 33314 48416
3559.01 62144 72608 56706 52152 79680 96170
3564.79 82984 78280 85716 93396 88544 77852
3570.58 82496 80232 82468 89112 75182 43948
3576.36 36000 36790 20716 20478 28256 35032
3582.15 39658 41024 31032 11346 11818 11288
3587.94-3302-2912 20828 36972 25826 22586
3593.72 41346 54928 59614 44678 33264 41506
3599.51 24214 28488 45736 51060 50308 44406
3605.29 66302 71876 49148 58266 67368 58188
3611.08 65110 69082 60526 51972 57728 54980
3616.86 51736 56728 62356 56624 39648 51606
3622.65 43530 24804 36640 54530 49210 45258
3628.43 55164 39874 31884 39082 36444 31422
3634.22 32268 24438 11864 29864 48190 38498
3640.00 26174 15746 18208 26378 24910 25114
3645.79 15796 2854 17616 32386 27906 30672
3651.57 18574 6700 8538 31712 43034 11204
3657.36-42 5922 13856 25370 29704 31686
3663.15 26036 30276 43998 26684 15068 23292
3668.93 27090 35786 36674 29550 22946 22730
3674.72 44584 32104 14650 32884 34826 32252
3680.50 30578 22054 13336 17540 30278 35944
3686.29 44108 58676 45416 25750 36244 49924
3692.07 51670 42976 32668 42158 50876 43096
3697.86 36560 45562 48918 57534 57770 62956
3703.64 62752 57470 71984 59890 57286 63518
3709.43 73822 75708 60904 66576 88314 98400
3715.21 100620 101900 115330 116804 113640 121842
3721.00 110026 115936 129008 128458 126912 123442
3726.79 129890 135024 126928 134074 151502 165010
3732.57 163688 150722 139140 138574 138700 147638
3738.36 166668 160874 160582 164136 160294 185098
3744.14 197236 176522 173722 177010 193120 195132
3749.93 197202 218098 221508 207336 200218 211094
3755.71 221686 228996 234472 262914 261356 259340
3761.50 282734 283614 294502 303092 306634 321980
3767.28 321550 328260 338174 333320 343928 349936
3773.07 352648 353720 347172 346904 340470 332836
3778.85 340944 337818 317270 320016 332756 321362
3784.64 305740 300166 286202 267552 270300 278034
3790.43 269748 261204 245556 229810 226232 232288
3796.21 242902 226494 199064 206810 222654 219036
3802.00 205072 207206 199172 180318 179534 173342
3807.78 170490 162424 151030 148556 152034 166486
3813.57 164662 147610 153780 156890 144430 130694
3819.35 131488 140518 144854 139824 139054 149078
3825.14 161734 168868 153172 145204 165224 173426
3830.92 164034 173898 187062 192220 186626 191928
3836.71 213084 208206 207046 222324 224010 210302
3842.49 198092 193980 197540 210098 211530 196452
3848.28 196998 202430 216290 223406 203920 210154
3854.07 195114 178338 189670 182342 171878 160166
3859.85 153462 156132 146338 143120 158026 141438
3865.64 133570 158650 166226 154808 149322 149108
3871.42 135712 147090 154672 138312 139566 146598
3877.21 140232 129052 129994 143108 155890 159134
3882.99 168498 177380 170614 170690 173038 184610
3888.78 186618 179648 177420 173854 195490 201746
3894.56 194368 189478 181614 193166 214984 209134
3900.35 203782 212886 222762 223236 209376 212956
3906.13 208084 203218 184454 178216 189604 195362
3911.92 205350 208186 207964 187586 177148 168146
3917.70 160398 162716 162144 155322 138934 124886
3923.49 132666 136092 124540 119796 112664 112870
3929.28 124156 127862 123762 132196 125476 116446
3935.06 117770 115460 122270 137256 138654 118100
3940.85 115112 136222 158700 156240 157528 179178
3946.63 193022 203950 185872 176246 187978 188808
3952.42 203602 211686 210588 221928 218532 203452
3958.20 211474 223004 237186 247588 246794 268326
3963.99 293452 294182 296228 302552 314406 327452
3969.77 337064 355830 367030 369814 375570
##END=
