##TITLE=Acetic acid, benzyl ester
##JCAMP-DX=4.24
$$ By DXEDIT 1.05 (RS McDonald)
##DATA TYPE=INFRARED SPECTRUM
##CLASS=COBLENTZ III
##ORIGIN=DOW CHEMICAL COMPANY
##OWNER=COPYRIGHT (C) 1988 by COBLENTZ SOCIETY INC.
Collection (C) 2018 copyright by the U.S. Secretary of Commerce
on behalf of the United States of America. All rights reserved.
##DATE=1963/01/25
##NAMES=benzyl acetate
##CAS REGISTRY NO=140-11-4
##MOLFORM=C9 H10 O2
##SOURCE REFERENCE=COBLENTZ NO. 6375
##$NIST SOURCE=COBLENTZ
##$NIST IMAGE=cob6375
##SPECTROMETER/DATA SYSTEM=DOW KBr FOREPRISM-GRATING
##INSTRUMENT PARAMETERS=BLAZED AT 3.5, 12.0, 20.0 MICRON AND CHANGED AT 5.0, 7.5, 14.9 MICRON
##STATE=SOLUTION (10% CCl4 FOR 3800-1340, 10% CS2 FOR 1340-450 CM^-^1)
##PATH LENGTH=0.011 CM, 0.010 CM
$$SPECTRAL CONTAMINATIONS DUE TO CS2 AROUND 850 AND CCl4 AROUND 1550 CM^-^1 HAVE BEEN SUBTRACTED
$$ SEE SPECTRUM NO. 3715 FOR "NEAT" SPECTRUM
##SAMPLING PROCEDURE=TRANSMISSION
##RESOLUTION=2
##DATA PROCESSING=DIGITIZED BY COBLENTZ SOCIETY (BATCH I) FROM HARD COPY
##XUNITS=1/CM
##YUNITS=TRANSMITTANCE
##XFACTOR=1
##YFACTOR=1
##DELTAX=1
##FIRSTX=3812
##LASTX=449
##FIRSTY=0.9106
##MAXX=3812
##MINX=449
##MAXY=0.9178
##MINY=0.0078
##NPOINTS=3364
##XYDATA=(X++(Y..Y))
3812.000000 0.9106 0.9108 0.9111 0.9106 0.9104
3807.000000 0.9108 0.9110 0.9109 0.9107 0.9107
3802.000000 0.9100 0.9099 0.9097 0.9097 0.9097
3797.000000 0.9097 0.9100 0.9095 0.9101 0.9099
3792.000000 0.9098 0.9097 0.9097 0.9096 0.9096
3787.000000 0.9095 0.9095 0.9096 0.9093 0.9092
3782.000000 0.9093 0.9098 0.9100 0.9096 0.9102
3777.000000 0.9102 0.9103 0.9097 0.9103 0.9103
3772.000000 0.9103 0.9103 0.9103 0.9102 0.9102
3767.000000 0.9102 0.9102 0.9101 0.9101 0.9100
3762.000000 0.9100 0.9100 0.9104 0.9102 0.9099
3757.000000 0.9098 0.9098 0.9097 0.9097 0.9096
3752.000000 0.9095 0.9094 0.9094 0.9093 0.9092
3747.000000 0.9091 0.9091 0.9090 0.9089 0.9088
3742.000000 0.9088 0.9087 0.9086 0.9086 0.9088
3737.000000 0.9086 0.9085 0.9083 0.9079 0.9074
3732.000000 0.9075 0.9076 0.9075 0.9073 0.9072
3727.000000 0.9069 0.9069 0.9066 0.9066 0.9064
3722.000000 0.9064 0.9064 0.9066 0.9062 0.9069
3717.000000 0.9079 0.9084 0.9088 0.9092 0.9096
3712.000000 0.9103 0.9110 0.9112 0.9121 0.9126
3707.000000 0.9125 0.9125 0.9123 0.9121 0.9119
3702.000000 0.9116 0.9114 0.9112 0.9108 0.9105
3697.000000 0.9101 0.9092 0.9087 0.9084 0.9081
3692.000000 0.9078 0.9078 0.9078 0.9079 0.9080
3687.000000 0.9079 0.9075 0.9076 0.9078 0.9079
3682.000000 0.9080 0.9081 0.9082 0.9082 0.9082
3677.000000 0.9082 0.9082 0.9075 0.9069 0.9059
3672.000000 0.9051 0.9042 0.9038 0.9024 0.9014
3667.000000 0.9008 0.9004 0.9001 0.8999 0.8996
3662.000000 0.8993 0.8993 0.8993 0.8998 0.9004
3657.000000 0.9008 0.9015 0.9020 0.9026 0.9031
3652.000000 0.9037 0.9046 0.9055 0.9062 0.9072
3647.000000 0.9065 0.9059 0.9052 0.9045 0.9035
3642.000000 0.9026 0.9014 0.9003 0.8985 0.8969
3637.000000 0.8970 0.8971 0.8982 0.8993 0.9011
3632.000000 0.9032 0.9045 0.9055 0.9062 0.9076
3627.000000 0.9082 0.9085 0.9085 0.9085 0.9085
3622.000000 0.9086 0.9087 0.9089 0.9093 0.9097
3617.000000 0.9101 0.9105 0.9109 0.9112 0.9116
3612.000000 0.9121 0.9124 0.9128 0.9114 0.9095
3607.000000 0.9086 0.9072 0.9065 0.9060 0.9059
3602.000000 0.9057 0.9063 0.9061 0.9057 0.9062
3597.000000 0.9065 0.9065 0.9065 0.9065 0.9065
3592.000000 0.9067 0.9067 0.9067 0.9067 0.9067
3587.000000 0.9067 0.9067 0.9065 0.9065 0.9065
3582.000000 0.9064 0.9064 0.9064 0.9065 0.9065
3577.000000 0.9067 0.9066 0.9066 0.9072 0.9073
3572.000000 0.9072 0.9070 0.9071 0.9073 0.9075
3567.000000 0.9077 0.9080 0.9082 0.9085 0.9087
3562.000000 0.9090 0.9092 0.9094 0.9096 0.9098
3557.000000 0.9100 0.9102 0.9110 0.9104 0.9105
3552.000000 0.9109 0.9102 0.9095 0.9088 0.9088
3547.000000 0.9086 0.9084 0.9079 0.9078 0.9079
3542.000000 0.9077 0.9075 0.9070 0.9071 0.9068
3537.000000 0.9070 0.9072 0.9071 0.9071 0.9070
3532.000000 0.9070 0.9068 0.9068 0.9060 0.9058
3527.000000 0.9057 0.9056 0.9054 0.9053 0.9051
3522.000000 0.9049 0.9047 0.9046 0.9044 0.9042
3517.000000 0.9040 0.9038 0.9035 0.9032 0.9029
3512.000000 0.9027 0.9024 0.9021 0.9010 0.8999
3507.000000 0.8986 0.8975 0.8963 0.8951 0.8936
3502.000000 0.8923 0.8908 0.8895 0.8884 0.8874
3497.000000 0.8865 0.8856 0.8846 0.8836 0.8827
3492.000000 0.8819 0.8811 0.8803 0.8795 0.8787
3487.000000 0.8779 0.8772 0.8766 0.8761 0.8755
3482.000000 0.8752 0.8746 0.8742 0.8738 0.8735
3477.000000 0.8733 0.8731 0.8728 0.8725 0.8724
3472.000000 0.8722 0.8722 0.8723 0.8724 0.8725
3467.000000 0.8726 0.8727 0.8735 0.8744 0.8754
3462.000000 0.8763 0.8772 0.8782 0.8791 0.8800
3457.000000 0.8810 0.8819 0.8828 0.8838 0.8846
3452.000000 0.8857 0.8867 0.8877 0.8886 0.8896
3447.000000 0.8907 0.8917 0.8927 0.8937 0.8947
3442.000000 0.8959 0.8969 0.8979 0.8989 0.8999
3437.000000 0.9010 0.9019 0.9027 0.9036 0.9037
3432.000000 0.9038 0.9039 0.9040 0.9040 0.9041
3427.000000 0.9042 0.9043 0.9039 0.9044 0.9045
3422.000000 0.9046 0.9046 0.9046 0.9046 0.9046
3417.000000 0.9045 0.9045 0.9045 0.9045 0.9045
3412.000000 0.9045 0.9045 0.9045 0.9044 0.9044
3407.000000 0.9047 0.9047 0.9044 0.9044 0.9044
3402.000000 0.9044 0.9044 0.9044 0.9043 0.9043
3397.000000 0.9043 0.9043 0.9043 0.9043 0.9043
3392.000000 0.9043 0.9043 0.9043 0.9042 0.9042
3387.000000 0.9042 0.9042 0.9042 0.9042 0.9042
3382.000000 0.9043 0.9043 0.9043 0.9043 0.9043
3377.000000 0.9043 0.9043 0.9043 0.9044 0.9044
3372.000000 0.9044 0.9044 0.9050 0.9044 0.9044
3367.000000 0.9044 0.9044 0.9043 0.9043 0.9043
3362.000000 0.9043 0.9043 0.9043 0.9043 0.9043
3357.000000 0.9043 0.9043 0.9042 0.9042 0.9042
3352.000000 0.9043 0.9043 0.9044 0.9044 0.9045
3347.000000 0.9045 0.9045 0.9050 0.9052 0.9047
3342.000000 0.9053 0.9047 0.9048 0.9044 0.9047
3337.000000 0.9043 0.9038 0.9028 0.9024 0.9020
3332.000000 0.9017 0.9016 0.9015 0.9014 0.9014
3327.000000 0.9013 0.9012 0.9011 0.9009 0.9009
3322.000000 0.9011 0.9013 0.9015 0.9016 0.9018
3317.000000 0.9020 0.9022 0.9023 0.9025 0.9027
3312.000000 0.9036 0.9037 0.9039 0.9040 0.9040
3307.000000 0.9036 0.9041 0.9041 0.9040 0.9035
3302.000000 0.9035 0.9036 0.9036 0.9035 0.9034
3297.000000 0.9033 0.9033 0.9032 0.9031 0.9030
3292.000000 0.9029 0.9028 0.9027 0.9026 0.9025
3287.000000 0.9024 0.9023 0.9022 0.9021 0.9026
3282.000000 0.9024 0.9018 0.9018 0.9022 0.9019
3277.000000 0.9014 0.9015 0.9018 0.9017 0.9015
3272.000000 0.9015 0.9012 0.9012 0.9011 0.9010
3267.000000 0.9008 0.9007 0.9005 0.9005 0.9003
3262.000000 0.9002 0.9000 0.8999 0.8998 0.8996
3257.000000 0.8994 0.8988 0.8991 0.8990 0.8989
3252.000000 0.8988 0.8986 0.8985 0.8983 0.8982
3247.000000 0.8981 0.8981 0.8977 0.8977 0.8979
3242.000000 0.8979 0.8978 0.8978 0.8978 0.8978
3237.000000 0.8977 0.8977 0.8976 0.8976 0.8975
3232.000000 0.8975 0.8974 0.8973 0.8972 0.8972
3227.000000 0.8970 0.8963 0.8964 0.8969 0.8964
3222.000000 0.8960 0.8949 0.8940 0.8937 0.8935
3217.000000 0.8935 0.8936 0.8937 0.8938 0.8939
3212.000000 0.8941 0.8942 0.8943 0.8944 0.8940
3207.000000 0.8939 0.8939 0.8937 0.8936 0.8934
3202.000000 0.8932 0.8930 0.8929 0.8932 0.8926
3197.000000 0.8927 0.8923 0.8926 0.8925 0.8923
3192.000000 0.8921 0.8918 0.8914 0.8913 0.8912
3187.000000 0.8911 0.8905 0.8902 0.8899 0.8898
3182.000000 0.8896 0.8895 0.8893 0.8891 0.8890
3177.000000 0.8888 0.8886 0.8883 0.8882 0.8879
3172.000000 0.8877 0.8874 0.8872 0.8869 0.8867
3167.000000 0.8864 0.8862 0.8859 0.8860 0.8860
3162.000000 0.8855 0.8851 0.8853 0.8851 0.8845
3157.000000 0.8844 0.8838 0.8833 0.8836 0.8834
3152.000000 0.8830 0.8826 0.8823 0.8820 0.8811
3147.000000 0.8808 0.8804 0.8801 0.8797 0.8793
3142.000000 0.8790 0.8788 0.8790 0.8786 0.8783
3137.000000 0.8779 0.8775 0.8771 0.8767 0.8763
3132.000000 0.8759 0.8755 0.8751 0.8745 0.8739
3127.000000 0.8718 0.8698 0.8667 0.8637 0.8598
3122.000000 0.8561 0.8513 0.8465 0.8420 0.8376
3117.000000 0.8346 0.8317 0.8299 0.8285 0.8277
3112.000000 0.8269 0.8260 0.8253 0.8245 0.8238
3107.000000 0.8229 0.8219 0.8152 0.8084 0.7842
3102.000000 0.7599 0.7356 0.6889 0.6999 0.6882
3097.000000 0.6891 0.6902 0.6987 0.7070 0.7157
3092.000000 0.7242 0.7322 0.7409 0.7424 0.7440
3087.000000 0.7440 0.7459 0.7317 0.7193 0.7065
3082.000000 0.6937 0.6807 0.6680 0.6552 0.6428
3077.000000 0.6304 0.5834 0.6047 0.5924 0.5890
3072.000000 0.5852 0.5950 0.6049 0.6143 0.6246
3067.000000 0.6339 0.6438 0.6536 0.6633 0.6727
3062.000000 0.6826 0.6923 0.7023 0.7125 0.7224
3057.000000 0.7265 0.7310 0.7253 0.7198 0.6990
3052.000000 0.6785 0.6583 0.6380 0.6175 0.5969
3047.000000 0.5764 0.5562 0.5358 0.5156 0.4954
3042.000000 0.4753 0.4601 0.4472 0.4454 0.4458
3037.000000 0.4578 0.4697 0.4980 0.5265 0.5547
3032.000000 0.5831 0.6103 0.6372 0.6439 0.6510
3027.000000 0.6639 0.6770 0.6920 0.7070 0.7165
3022.000000 0.7263 0.7337 0.7414 0.7461 0.7504
3017.000000 0.7527 0.7544 0.7565 0.7586 0.7609
3012.000000 0.7632 0.7657 0.7683 0.7699 0.7714
3007.000000 0.7722 0.7735 0.7745 0.7750 0.7750
3002.000000 0.7747 0.7748 0.7748 0.7728 0.7706
2997.000000 0.7684 0.7666 0.7646 0.7626 0.7610
2992.000000 0.7591 0.7570 0.7550 0.7529 0.7509
2987.000000 0.7489 0.7470 0.7449 0.7430 0.7409
2982.000000 0.7387 0.7363 0.7338 0.7319 0.7291
2977.000000 0.7258 0.7229 0.7194 0.7159 0.7103
2972.000000 0.7047 0.6953 0.6860 0.6783 0.6705
2967.000000 0.6626 0.6546 0.6466 0.6387 0.6307
2962.000000 0.6227 0.6174 0.6104 0.6125 0.6125
2957.000000 0.6126 0.6132 0.6169 0.6208 0.6286
2952.000000 0.6361 0.6435 0.6509 0.6583 0.6658
2947.000000 0.6683 0.6707 0.6722 0.6738 0.6744
2942.000000 0.6753 0.6843 0.6936 0.7045 0.7154
2937.000000 0.7261 0.7369 0.7472 0.7578 0.7686
2932.000000 0.7793 0.7901 0.8008 0.8057 0.8107
2927.000000 0.8124 0.8141 0.8152 0.8165 0.8178
2922.000000 0.8188 0.8195 0.8206 0.8218 0.8229
2917.000000 0.8237 0.8244 0.8254 0.8262 0.8265
2912.000000 0.8268 0.8269 0.8269 0.8269 0.8270
2907.000000 0.8253 0.8231 0.8196 0.8162 0.8129
2902.000000 0.8094 0.8060 0.8026 0.7961 0.7895
2897.000000 0.7820 0.7744 0.7732 0.7725 0.7720
2892.000000 0.7723 0.7728 0.7732 0.7763 0.7795
2887.000000 0.7833 0.7870 0.7904 0.7941 0.7975
2882.000000 0.8009 0.8039 0.8072 0.8104 0.8135
2877.000000 0.8162 0.8200 0.8232 0.8265 0.8301
2872.000000 0.8339 0.8377 0.8415 0.8452 0.8490
2867.000000 0.8523 0.8557 0.8586 0.8614 0.8640
2862.000000 0.8666 0.8683 0.8701 0.8712 0.8722
2857.000000 0.8720 0.8718 0.8715 0.8707 0.8706
2852.000000 0.8706 0.8705 0.8705 0.8705 0.8705
2847.000000 0.8706 0.8711 0.8711 0.8710 0.8712
2842.000000 0.8722 0.8728 0.8732 0.8738 0.8748
2837.000000 0.8754 0.8757 0.8759 0.8767 0.8767
2832.000000 0.8767 0.8766 0.8769 0.8774 0.8771
2827.000000 0.8775 0.8778 0.8772 0.8772 0.8778
2822.000000 0.8772 0.8776 0.8776 0.8775 0.8769
2817.000000 0.8768 0.8768 0.8772 0.8776 0.8780
2812.000000 0.8784 0.8788 0.8792 0.8795 0.8803
2807.000000 0.8809 0.8814 0.8817 0.8820 0.8824
2802.000000 0.8827 0.8830 0.8833 0.8836 0.8839
2797.000000 0.8842 0.8845 0.8848 0.8851 0.8854
2792.000000 0.8856 0.8855 0.8862 0.8860 0.8863
2787.000000 0.8866 0.8868 0.8873 0.8878 0.8877
2782.000000 0.8875 0.8878 0.8882 0.8883 0.8884
2777.000000 0.8885 0.8886 0.8887 0.8888 0.8889
2772.000000 0.8890 0.8890 0.8890 0.8890 0.8890
2767.000000 0.8890 0.8890 0.8890 0.8890 0.8890
2762.000000 0.8890 0.8890 0.8890 0.8889 0.8889
2757.000000 0.8888 0.8888 0.8887 0.8886 0.8885
2752.000000 0.8885 0.8884 0.8883 0.8882 0.8881
2747.000000 0.8880 0.8878 0.8878 0.8878 0.8875
2742.000000 0.8874 0.8870 0.8869 0.8867 0.8867
2737.000000 0.8867 0.8867 0.8866 0.8866 0.8865
2732.000000 0.8865 0.8864 0.8864 0.8863 0.8862
2727.000000 0.8860 0.8859 0.8857 0.8856 0.8855
2722.000000 0.8854 0.8852 0.8851 0.8850 0.8849
2717.000000 0.8849 0.8849 0.8849 0.8850 0.8851
2712.000000 0.8852 0.8853 0.8855 0.8856 0.8858
2707.000000 0.8859 0.8861 0.8862 0.8864 0.8865
2702.000000 0.8867 0.8867 0.8870 0.8870 0.8873
2697.000000 0.8874 0.8876 0.8877 0.8879 0.8880
2692.000000 0.8882 0.8883 0.8885 0.8886 0.8889
2687.000000 0.8890 0.8891 0.8892 0.8894 0.8895
2682.000000 0.8896 0.8897 0.8898 0.8899 0.8900
2677.000000 0.8901 0.8902 0.8903 0.8904 0.8905
2672.000000 0.8906 0.8907 0.8908 0.8909 0.8910
2667.000000 0.8910 0.8911 0.8910 0.8909 0.8908
2662.000000 0.8907 0.8906 0.8905 0.8904 0.8903
2657.000000 0.8908 0.8907 0.8905 0.8904 0.8903
2652.000000 0.8902 0.8898 0.8893 0.8892 0.8894
2647.000000 0.8897 0.8896 0.8891 0.8887 0.8886
2642.000000 0.8891 0.8888 0.8886 0.8885 0.8885
2637.000000 0.8884 0.8884 0.8883 0.8889 0.8889
2632.000000 0.8889 0.8882 0.8883 0.8887 0.8887
2627.000000 0.8887 0.8887 0.8886 0.8886 0.8885
2622.000000 0.8885 0.8885 0.8885 0.8883 0.8883
2617.000000 0.8883 0.8883 0.8883 0.8883 0.8882
2612.000000 0.8882 0.8880 0.8880 0.8880 0.8880
2607.000000 0.8880 0.8880 0.8880 0.8880 0.8879
2602.000000 0.8879 0.8879 0.8879 0.8878 0.8878
2597.000000 0.8878 0.8878 0.8876 0.8876 0.8876
2592.000000 0.8876 0.8876 0.8878 0.8878 0.8878
2587.000000 0.8878 0.8879 0.8879 0.8880 0.8880
2582.000000 0.8880 0.8880 0.8880 0.8880 0.8880
2577.000000 0.8880 0.8882 0.8882 0.8883 0.8883
2572.000000 0.8885 0.8886 0.8888 0.8889 0.8890
2567.000000 0.8891 0.8893 0.8894 0.8895 0.8896
2562.000000 0.8897 0.8898 0.8900 0.8901 0.8902
2557.000000 0.8904 0.8907 0.8909 0.8912 0.8915
2552.000000 0.8918 0.8920 0.8923 0.8924 0.8927
2547.000000 0.8930 0.8933 0.8934 0.8938 0.8940
2542.000000 0.8942 0.8944 0.8947 0.8949 0.8952
2537.000000 0.8954 0.8957 0.8959 0.8963 0.8965
2532.000000 0.8968 0.8970 0.8973 0.8972 0.8972
2527.000000 0.8972 0.8972 0.8971 0.8971 0.8971
2522.000000 0.8971 0.8970 0.8970 0.8969 0.8969
2517.000000 0.8969 0.8969 0.8968 0.8968 0.8966
2512.000000 0.8965 0.8963 0.8961 0.8959 0.8957
2507.000000 0.8955 0.8953 0.8951 0.8949 0.8947
2502.000000 0.8945 0.8943 0.8941 0.8939 0.8937
2497.000000 0.8934 0.8931 0.8925 0.8921 0.8917
2492.000000 0.8913 0.8909 0.8905 0.8901 0.8897
2487.000000 0.8893 0.8889 0.8884 0.8879 0.8875
2482.000000 0.8871 0.8871 0.8869 0.8865 0.8861
2477.000000 0.8857 0.8853 0.8850 0.8847 0.8846
2472.000000 0.8845 0.8843 0.8842 0.8840 0.8839
2467.000000 0.8837 0.8836 0.8834 0.8834 0.8833
2462.000000 0.8832 0.8830 0.8829 0.8827 0.8824
2457.000000 0.8824 0.8824 0.8821 0.8821 0.8825
2452.000000 0.8827 0.8827 0.8824 0.8828 0.8829
2447.000000 0.8829 0.8829 0.8829 0.8830 0.8830
2442.000000 0.8830 0.8830 0.8830 0.8830 0.8830
2437.000000 0.8830 0.8830 0.8830 0.8832 0.8832
2432.000000 0.8833 0.8833 0.8833 0.8833 0.8834
2427.000000 0.8834 0.8834 0.8834 0.8836 0.8836
2422.000000 0.8837 0.8837 0.8837 0.8837 0.8837
2417.000000 0.8837 0.8839 0.8839 0.8840 0.8840
2412.000000 0.8841 0.8841 0.8841 0.8843 0.8847
2407.000000 0.8844 0.8849 0.8851 0.8852 0.8852
2402.000000 0.8853 0.8854 0.8855 0.8855 0.8856
2397.000000 0.8857 0.8858 0.8859 0.8860 0.8860
2392.000000 0.8861 0.8862 0.8863 0.8869 0.8870
2387.000000 0.8871 0.8872 0.8874 0.8880 0.8880
2382.000000 0.8883 0.8889 0.8890 0.8893 0.8898
2377.000000 0.8902 0.8907 0.8908 0.8913 0.8917
2372.000000 0.8918 0.8919 0.8920 0.8915 0.8914
2367.000000 0.8914 0.8915 0.8915 0.8915 0.8915
2362.000000 0.8915 0.8915 0.8921 0.8922 0.8928
2357.000000 0.8929 0.8936 0.8941 0.8941 0.8941
2352.000000 0.8941 0.8938 0.8934 0.8933 0.8936
2347.000000 0.8942 0.8945 0.8944 0.8939 0.8933
2342.000000 0.8930 0.8926 0.8923 0.8913 0.8915
2337.000000 0.8912 0.8903 0.8899 0.8902 0.8897
2332.000000 0.8895 0.8893 0.8895 0.8892 0.8890
2327.000000 0.8890 0.8892 0.8892 0.8895 0.8894
2322.000000 0.8893 0.8891 0.8890 0.8889 0.8888
2317.000000 0.8886 0.8885 0.8884 0.8883 0.8881
2312.000000 0.8880 0.8878 0.8877 0.8876 0.8875
2307.000000 0.8874 0.8874 0.8874 0.8874 0.8874
2302.000000 0.8874 0.8872 0.8872 0.8875 0.8879
2297.000000 0.8879 0.8879 0.8877 0.8876 0.8873
2292.000000 0.8871 0.8866 0.8863 0.8861 0.8854
2287.000000 0.8850 0.8847 0.8843 0.8841 0.8833
2282.000000 0.8832 0.8832 0.8833 0.8837 0.8835
2277.000000 0.8839 0.8843 0.8841 0.8845 0.8850
2272.000000 0.8853 0.8853 0.8857 0.8859 0.8860
2267.000000 0.8864 0.8868 0.8869 0.8870 0.8875
2262.000000 0.8879 0.8876 0.8878 0.8880 0.8878
2257.000000 0.8880 0.8883 0.8885 0.8882 0.8885
2252.000000 0.8888 0.8890 0.8887 0.8889 0.8892
2247.000000 0.8895 0.8898 0.8897 0.8897 0.8899
2242.000000 0.8902 0.8903 0.8905 0.8907 0.8909
2237.000000 0.8911 0.8913 0.8910 0.8910 0.8912
2232.000000 0.8914 0.8915 0.8917 0.8919 0.8921
2227.000000 0.8922 0.8924 0.8925 0.8926 0.8927
2222.000000 0.8928 0.8924 0.8925 0.8926 0.8927
2217.000000 0.8927 0.8926 0.8924 0.8923 0.8921
2212.000000 0.8919 0.8917 0.8916 0.8914 0.8914
2207.000000 0.8913 0.8914 0.8914 0.8914 0.8914
2202.000000 0.8914 0.8914 0.8915 0.8915 0.8915
2197.000000 0.8915 0.8914 0.8909 0.8915 0.8913
2192.000000 0.8908 0.8907 0.8907 0.8906 0.8906
2187.000000 0.8906 0.8906 0.8905 0.8909 0.8908
2182.000000 0.8905 0.8904 0.8904 0.8903 0.8908
2177.000000 0.8908 0.8908 0.8907 0.8906 0.8905
2172.000000 0.8904 0.8903 0.8902 0.8900 0.8894
2167.000000 0.8893 0.8892 0.8891 0.8890 0.8889
2162.000000 0.8888 0.8887 0.8886 0.8885 0.8883
2157.000000 0.8883 0.8883 0.8883 0.8884 0.8884
2152.000000 0.8885 0.8885 0.8886 0.8886 0.8888
2147.000000 0.8888 0.8889 0.8889 0.8890 0.8890
2142.000000 0.8891 0.8891 0.8892 0.8892 0.8893
2137.000000 0.8893 0.8894 0.8895 0.8896 0.8897
2132.000000 0.8898 0.8899 0.8900 0.8901 0.8902
2127.000000 0.8903 0.8904 0.8905 0.8906 0.8907
2122.000000 0.8902 0.8908 0.8910 0.8910 0.8911
2117.000000 0.8912 0.8913 0.8914 0.8915 0.8916
2112.000000 0.8917 0.8920 0.8924 0.8928 0.8931
2107.000000 0.8936 0.8940 0.8943 0.8945 0.8947
2102.000000 0.8949 0.8951 0.8954 0.8956 0.8953
2097.000000 0.8952 0.8960 0.8962 0.8957 0.8963
2092.000000 0.8965 0.8966 0.8967 0.8967 0.8968
2087.000000 0.8969 0.8970 0.8966 0.8962 0.8958
2082.000000 0.8955 0.8951 0.8947 0.8943 0.8940
2077.000000 0.8936 0.8933 0.8926 0.8919 0.8911
2072.000000 0.8903 0.8894 0.8885 0.8870 0.8857
2067.000000 0.8849 0.8841 0.8836 0.8832 0.8829
2062.000000 0.8826 0.8826 0.8825 0.8824 0.8824
2057.000000 0.8827 0.8834 0.8835 0.8839 0.8841
2052.000000 0.8841 0.8843 0.8848 0.8847 0.8847
2047.000000 0.8849 0.8852 0.8855 0.8858 0.8861
2042.000000 0.8865 0.8868 0.8873 0.8876 0.8880
2037.000000 0.8882 0.8884 0.8884 0.8884 0.8884
2032.000000 0.8885 0.8885 0.8885 0.8885 0.8887
2027.000000 0.8889 0.8886 0.8889 0.8894 0.8895
2022.000000 0.8896 0.8897 0.8898 0.8899 0.8900
2017.000000 0.8901 0.8902 0.8902 0.8902 0.8902
2012.000000 0.8903 0.8903 0.8903 0.8903 0.8904
2007.000000 0.8904 0.8904 0.8905 0.8906 0.8906
2002.000000 0.8905 0.8905 0.8903 0.8900 0.8897
1997.000000 0.8851 0.8808 0.8765 0.8722 0.8679
1992.000000 0.8638 0.8636 0.8635 0.8634 0.8633
1987.000000 0.8632 0.8624 0.8623 0.8619 0.8617
1982.000000 0.8614 0.8612 0.8609 0.8606 0.8597
1977.000000 0.8593 0.8588 0.8582 0.8570 0.8557
1972.000000 0.8542 0.8518 0.8494 0.8454 0.8404
1967.000000 0.8359 0.8338 0.8321 0.8284 0.8306
1962.000000 0.8366 0.8468 0.8569 0.8569 0.8565
1957.000000 0.8503 0.8433 0.8364 0.8287 0.8219
1952.000000 0.8148 0.8079 0.8008 0.7967 0.7967
1947.000000 0.7965 0.8001 0.8060 0.8118 0.8176
1942.000000 0.8230 0.8264 0.8296 0.8327 0.8356
1937.000000 0.8383 0.8412 0.8429 0.8442 0.8456
1932.000000 0.8469 0.8482 0.8496 0.8509 0.8520
1927.000000 0.8528 0.8536 0.8544 0.8553 0.8561
1922.000000 0.8569 0.8577 0.8577 0.8578 0.8576
1917.000000 0.8574 0.8572 0.8569 0.8563 0.8557
1912.000000 0.8550 0.8542 0.8536 0.8529 0.8522
1907.000000 0.8521 0.8516 0.8509 0.8504 0.8497
1902.000000 0.8491 0.8486 0.8481 0.8478 0.8474
1897.000000 0.8471 0.8468 0.8464 0.8461 0.8440
1892.000000 0.8421 0.8397 0.8378 0.8364 0.8349
1887.000000 0.8335 0.8321 0.8306 0.8296 0.8284
1882.000000 0.8270 0.8257 0.8243 0.8230 0.8215
1877.000000 0.8202 0.8189 0.8180 0.8165 0.8150
1872.000000 0.8134 0.8119 0.8106 0.8095 0.8085
1867.000000 0.8075 0.8065 0.8054 0.8047 0.8037
1862.000000 0.8037 0.8057 0.8078 0.8091 0.8103
1857.000000 0.8121 0.8133 0.8143 0.8154 0.8160
1852.000000 0.8166 0.8172 0.8177 0.8183 0.8185
1847.000000 0.8187 0.8187 0.8187 0.8187 0.8183
1842.000000 0.8179 0.8175 0.8170 0.8156 0.8145
1837.000000 0.8133 0.8119 0.8097 0.8071 0.8045
1832.000000 0.8020 0.8004 0.7987 0.7970 0.7954
1827.000000 0.7940 0.7928 0.7915 0.7902 0.7888
1822.000000 0.7871 0.7854 0.7837 0.7825 0.7808
1817.000000 0.7788 0.7769 0.7747 0.7729 0.7690
1812.000000 0.7647 0.7580 0.7512 0.7436 0.7343
1807.000000 0.7266 0.7240 0.7246 0.7250 0.7254
1802.000000 0.7255 0.7257 0.7254 0.7253 0.7252
1797.000000 0.7241 0.7230 0.7219 0.7205 0.7197
1792.000000 0.7166 0.7134 0.7100 0.7067 0.7029
1787.000000 0.6982 0.6935 0.6889 0.6834 0.6776
1782.000000 0.6717 0.6637 0.6539 0.6440 0.6317
1777.000000 0.6195 0.6067 0.5929 0.5787 0.5639
1772.000000 0.5494 0.5361 0.5228 0.5085 0.4941
1767.000000 0.4084 0.3851 0.3601 0.2894 0.2391
1762.000000 0.1888 0.1384 0.0881 0.0389 0.0266
1757.000000 0.0215 0.0177 0.0160 0.0144 0.0136
1752.000000 0.0132 0.0130 0.0130 0.0129 0.0128
1747.000000 0.0126 0.0125 0.0102 0.0121 0.0119
1742.000000 0.0118 0.0116 0.0125 0.0136 0.0150
1737.000000 0.0169 0.0214 0.0284 0.0348 0.0402
1732.000000 0.0474 0.0546 0.0634 0.0723 0.0942
1727.000000 0.1245 0.1500 0.2282 0.2520 0.2757
1722.000000 0.2994 0.3232 0.3470 0.3707 0.3925
1717.000000 0.4126 0.4426 0.4677 0.4853 0.4969
1712.000000 0.5086 0.5204 0.5328 0.5453 0.5578
1707.000000 0.5684 0.5784 0.5885 0.6011 0.6157
1702.000000 0.6301 0.6416 0.6505 0.6593 0.6682
1697.000000 0.6779 0.6883 0.6986 0.7039 0.7085
1692.000000 0.7131 0.7176 0.7223 0.7268 0.7314
1687.000000 0.7353 0.7384 0.7416 0.7448 0.7478
1682.000000 0.7506 0.7532 0.7561 0.7586 0.7613
1677.000000 0.7630 0.7642 0.7655 0.7667 0.7679
1672.000000 0.7688 0.7690 0.7692 0.7694 0.7696
1667.000000 0.7698 0.7696 0.7692 0.7689 0.7684
1662.000000 0.7680 0.7675 0.7680 0.7680 0.7682
1657.000000 0.7690 0.7696 0.7702 0.7709 0.7718
1652.000000 0.7728 0.7747 0.7763 0.7785 0.7805
1647.000000 0.7828 0.7850 0.7875 0.7896 0.7915
1642.000000 0.7936 0.7954 0.7969 0.7979 0.7993
1637.000000 0.8006 0.8017 0.8025 0.8025 0.8031
1632.000000 0.8075 0.8037 0.8034 0.8038 0.8035
1627.000000 0.8038 0.8035 0.8029 0.8035 0.8037
1622.000000 0.8039 0.8037 0.8032 0.8031 0.8033
1617.000000 0.8032 0.8036 0.8011 0.7978 0.7923
1612.000000 0.7871 0.7816 0.7753 0.7678 0.7604
1607.000000 0.7526 0.7513 0.7515 0.7537 0.7550
1602.000000 0.7571 0.7569 0.7579 0.7540 0.7507
1597.000000 0.7460 0.7410 0.7353 0.7287 0.7193
1592.000000 0.7115 0.7038 0.6862 0.6615 0.6515
1587.000000 0.6539 0.6562 0.6609 0.6660 0.6704
1582.000000 0.6722 0.6744 0.6756 0.6768 0.6774
1577.000000 0.6783 0.6782 0.6787 0.6798 0.6804
1572.000000 0.6802 0.6798 0.6745 0.6665 0.6581
1567.000000 0.6506 0.6443 0.6385 0.6328 0.6272
1562.000000 0.6215 0.6164 0.6124 0.6084 0.6034
1557.000000 0.5977 0.5930 0.5906 0.5873 0.5842
1552.000000 0.5843 0.5842 0.5846 0.5834 0.5822
1547.000000 0.5808 0.5795 0.5776 0.5771 0.5801
1542.000000 0.5857 0.5933 0.5995 0.6016 0.6040
1537.000000 0.6073 0.6151 0.6260 0.6297 0.6334
1532.000000 0.6373 0.6464 0.6560 0.6628 0.6686
1527.000000 0.6722 0.6762 0.6792 0.6828 0.6858
1522.000000 0.6893 0.6923 0.6940 0.6950 0.6956
1517.000000 0.6965 0.6973 0.6980 0.6988 0.6990
1512.000000 0.6993 0.6991 0.6990 0.6988 0.6970
1507.000000 0.6949 0.6919 0.6804 0.6460 0.6044
1502.000000 0.5629 0.5219 0.4812 0.4407 0.4112
1497.000000 0.4106 0.4096 0.4538 0.4998 0.5459
1492.000000 0.5920 0.6380 0.6802 0.6945 0.7024
1487.000000 0.7061 0.7102 0.7130 0.7156 0.7186
1482.000000 0.7222 0.7256 0.7268 0.7272 0.7263
1477.000000 0.7250 0.7247 0.7240 0.7218 0.7200
1472.000000 0.7174 0.7095 0.6952 0.6793 0.6598
1467.000000 0.6387 0.6160 0.5991 0.5816 0.5640
1462.000000 0.5402 0.5063 0.4959 0.4198 0.3145
1457.000000 0.2343 0.2328 0.2347 0.2635 0.2951
1452.000000 0.3268 0.3585 0.3900 0.4215 0.4532
1447.000000 0.4762 0.4864 0.4960 0.5064 0.5170
1442.000000 0.5255 0.5333 0.5402 0.5488 0.5558
1437.000000 0.5589 0.5621 0.5660 0.5701 0.5737
1432.000000 0.5774 0.5813 0.5850 0.5893 0.5933
1427.000000 0.5974 0.6022 0.6071 0.6116 0.6164
1422.000000 0.6217 0.6277 0.6337 0.6399 0.6466
1417.000000 0.6538 0.6606 0.6681 0.6764 0.6825
1412.000000 0.6862 0.6890 0.6903 0.6913 0.6920
1407.000000 0.6924 0.6951 0.6930 0.6930 0.6929
1402.000000 0.6921 0.6894 0.6830 0.6741 0.6657
1397.000000 0.6578 0.6490 0.6381 0.6272 0.6177
1392.000000 0.6079 0.5983 0.5842 0.5695 0.5345
1387.000000 0.5051 0.4830 0.3150 0.2747 0.2341
1382.000000 0.1937 0.1533 0.1040 0.1049 0.1047
1377.000000 0.1321 0.1687 0.2054 0.2420 0.2786
1372.000000 0.3153 0.3519 0.3887 0.4173 0.4206
1367.000000 0.4171 0.3684 0.2908 0.2132 0.1356
1362.000000 0.0652 0.0651 0.0651 0.0665 0.1459
1357.000000 0.2286 0.3111 0.3939 0.4765 0.5592
1352.000000 0.6210 0.6382 0.6540 0.6720 0.6920
1347.000000 0.7058 0.7149 0.7238 0.7319 0.7385
1342.000000 0.7439 0.7494 0.7532 0.7537 0.7555
1337.000000 0.7533 0.7531 0.7520 0.7513 0.7500
1332.000000 0.7483 0.7454 0.7412 0.7380 0.7379
1327.000000 0.7377 0.7375 0.7371 0.7369 0.7368
1322.000000 0.7363 0.7359 0.7353 0.7348 0.7343
1317.000000 0.7336 0.7325 0.7310 0.7281 0.7252
1312.000000 0.7220 0.7187 0.7155 0.7122 0.7096
1307.000000 0.7067 0.7040 0.7012 0.6980 0.6951
1302.000000 0.6926 0.6899 0.6871 0.6844 0.6815
1297.000000 0.6787 0.6759 0.6715 0.6642 0.6504
1292.000000 0.6376 0.6290 0.6207 0.6110 0.6014
1287.000000 0.5912 0.5786 0.5659 0.5477 0.5267
1282.000000 0.5126 0.5001 0.4878 0.4706 0.4501
1277.000000 0.4306 0.4115 0.3978 0.3862 0.3737
1272.000000 0.3578 0.3406 0.3196 0.2950 0.2722
1267.000000 0.2496 0.2270 0.2043 0.1815 0.1588
1262.000000 0.1361 0.1132 0.0913 0.0745 0.0710
1257.000000 0.0694 0.0677 0.0658 0.0639 0.0620
1252.000000 0.0568 0.0491 0.0415 0.0370 0.0321
1247.000000 0.0268 0.0215 0.0169 0.0151 0.0140
1242.000000 0.0132 0.0124 0.0120 0.0116 0.0112
1237.000000 0.0107 0.0105 0.0100 0.0094 0.0088
1232.000000 0.0082 0.0080 0.0080 0.0080 0.0080
1227.000000 0.0079 0.0079 0.0079 0.0079 0.0079
1222.000000 0.0078 0.0091 0.0115 0.0149 0.0197
1217.000000 0.0252 0.0307 0.0371 0.0457 0.0615
1212.000000 0.1030 0.1173 0.1435 0.1680 0.1898
1207.000000 0.2149 0.2530 0.2744 0.2958 0.3173
1202.000000 0.3387 0.3601 0.3816 0.4030 0.4241
1197.000000 0.4648 0.4902 0.5120 0.5290 0.5553
1192.000000 0.5804 0.5958 0.6110 0.6235 0.6325
1187.000000 0.6427 0.6510 0.6551 0.6559 0.6566
1182.000000 0.6561 0.6558 0.6563 0.6568 0.6654
1177.000000 0.6790 0.6876 0.6955 0.7026 0.7084
1172.000000 0.7139 0.7196 0.7252 0.7297 0.7339
1167.000000 0.7389 0.7432 0.7472 0.7510 0.7539
1162.000000 0.7557 0.7574 0.7590 0.7605 0.7618
1157.000000 0.7630 0.7642 0.7661 0.7693 0.7725
1152.000000 0.7755 0.7780 0.7808 0.7839 0.7861
1147.000000 0.7887 0.7913 0.7937 0.7962 0.7981
1142.000000 0.8007 0.8025 0.8044 0.8066 0.8089
1137.000000 0.8106 0.8119 0.8135 0.8145 0.8148
1132.000000 0.8158 0.8165 0.8173 0.8177 0.8173
1127.000000 0.8174 0.8174 0.8173 0.8173 0.8173
1122.000000 0.8176 0.8176 0.8173 0.8171 0.8164
1117.000000 0.8157 0.8155 0.8144 0.8129 0.8114
1112.000000 0.8093 0.8068 0.8039 0.8002 0.7961
1107.000000 0.7909 0.7842 0.7795 0.7751 0.7720
1102.000000 0.7697 0.7674 0.7651 0.7637 0.7630
1097.000000 0.7622 0.7614 0.7604 0.7596 0.7584
1092.000000 0.7566 0.7512 0.7450 0.7379 0.7306
1087.000000 0.7238 0.7167 0.7072 0.6961 0.6834
1082.000000 0.6706 0.6524 0.6323 0.6038 0.6046
1077.000000 0.6065 0.6116 0.6171 0.6225 0.6281
1072.000000 0.6338 0.6392 0.6407 0.6427 0.6412
1067.000000 0.6397 0.6313 0.6256 0.6202 0.6104
1062.000000 0.6013 0.5927 0.5841 0.5752 0.5661
1057.000000 0.5414 0.5272 0.5155 0.5000 0.4745
1052.000000 0.4446 0.4147 0.3851 0.3551 0.3253
1047.000000 0.2955 0.2656 0.2449 0.2318 0.2208
1042.000000 0.2058 0.1904 0.1784 0.1682 0.1612
1037.000000 0.1566 0.1521 0.1492 0.1465 0.1435
1032.000000 0.1398 0.1346 0.1114 0.0858 0.0601
1027.000000 0.0499 0.0471 0.0523 0.0569 0.0790
1022.000000 0.1011 0.1232 0.1453 0.1673 0.1895
1017.000000 0.2115 0.2336 0.2556 0.2777 0.3024
1012.000000 0.3270 0.3517 0.3763 0.4011 0.4255
1007.000000 0.4501 0.4690 0.4689 0.4685 0.4675
1002.000000 0.4536 0.4475 0.4471 0.5129 0.5301
997.000000 0.5443 0.5578 0.5671 0.5764 0.5853
992.000000 0.5934 0.6014 0.6093 0.6171 0.6250
987.000000 0.6327 0.6388 0.6396 0.6425 0.6392
982.000000 0.6308 0.6223 0.6138 0.6055 0.5971
977.000000 0.5885 0.5802 0.5717 0.5634 0.5548
972.000000 0.5462 0.5380 0.5296 0.5212 0.5127
967.000000 0.5043 0.4958 0.4875 0.4840 0.4806
962.000000 0.4845 0.4872 0.4981 0.5252 0.5524
957.000000 0.5796 0.6067 0.6339 0.6528 0.6656
952.000000 0.6790 0.6951 0.7062 0.7142 0.7221
947.000000 0.7297 0.7370 0.7455 0.7520 0.7549
942.000000 0.7558 0.7567 0.7620 0.7591 0.7581
937.000000 0.7534 0.7489 0.7437 0.7371 0.7307
932.000000 0.7241 0.7173 0.7102 0.7031 0.6959
927.000000 0.6893 0.6853 0.6812 0.6773 0.6734
922.000000 0.6690 0.6645 0.6598 0.6553 0.6489
917.000000 0.6444 0.6458 0.6450 0.6453 0.6557
912.000000 0.6726 0.6775 0.6823 0.6870 0.6911
907.000000 0.6939 0.6956 0.6957 0.6959 0.6959
902.000000 0.6928 0.6805 0.6710 0.6627 0.6516
897.000000 0.6487 0.6492 0.6558 0.6691 0.6808
892.000000 0.6921 0.7047 0.7162 0.7244 0.7328
887.000000 0.7416 0.7504 0.7573 0.7635 0.7685
882.000000 0.7726 0.7753 0.7773 0.7796 0.7805
877.000000 0.7817 0.7815 0.7814 0.7811 0.7809
872.000000 0.7797 0.7777 0.7759 0.7740 0.7722
867.000000 0.7707 0.7685 0.7665 0.7649 0.7633
862.000000 0.7608 0.7580 0.7555 0.7531 0.7507
857.000000 0.7477 0.7448 0.7413 0.7371 0.7327
852.000000 0.7282 0.7230 0.7197 0.7172 0.7153
847.000000 0.7134 0.7112 0.7099 0.7058 0.7012
842.000000 0.6940 0.6836 0.6732 0.6633 0.6531
837.000000 0.6437 0.6278 0.6285 0.6271 0.6266
832.000000 0.6323 0.6456 0.6591 0.6727 0.6861
827.000000 0.6977 0.7070 0.7122 0.7149 0.7172
822.000000 0.7187 0.7199 0.7213 0.7264 0.7346
817.000000 0.7427 0.7538 0.7663 0.7793 0.7865
812.000000 0.7944 0.8027 0.8107 0.8171 0.8221
807.000000 0.8249 0.8277 0.8309 0.8322 0.8331
802.000000 0.8341 0.8355 0.8378 0.8400 0.8423
797.000000 0.8445 0.8468 0.8487 0.8496 0.8509
792.000000 0.8525 0.8542 0.8542 0.8544 0.8549
787.000000 0.8553 0.8557 0.8558 0.8558 0.8549
782.000000 0.8541 0.8537 0.8529 0.8527 0.8516
777.000000 0.8503 0.8495 0.8486 0.8468 0.8440
772.000000 0.8412 0.8386 0.8330 0.8271 0.8212
767.000000 0.8138 0.8067 0.7981 0.7874 0.7758
762.000000 0.7557 0.7379 0.7196 0.6879 0.6491
757.000000 0.6203 0.5651 0.5098 0.4547 0.3995
752.000000 0.3442 0.2889 0.2336 0.1781 0.1607
747.000000 0.1660 0.1616 0.1698 0.1819 0.1938
742.000000 0.2058 0.2178 0.2298 0.2417 0.2537
737.000000 0.2588 0.2584 0.2554 0.2525 0.2507
732.000000 0.2502 0.2512 0.2785 0.3195 0.3604
727.000000 0.4013 0.4424 0.4837 0.5247 0.5658
722.000000 0.6044 0.6176 0.6320 0.6454 0.6587
717.000000 0.6723 0.6859 0.6993 0.7041 0.7073
712.000000 0.7065 0.7037 0.7005 0.6900 0.6409
707.000000 0.5805 0.5202 0.4599 0.3997 0.3396
702.000000 0.2792 0.2189 0.1587 0.0983 0.0259
697.000000 0.0263 0.0273 0.0291 0.0952 0.1659
692.000000 0.2368 0.3076 0.3784 0.4492 0.5203
687.000000 0.5912 0.6621 0.7151 0.7288 0.7351
682.000000 0.7389 0.7377 0.7355 0.7334 0.7342
677.000000 0.7373 0.7501 0.7623 0.7735 0.7850
672.000000 0.7963 0.8080 0.8208 0.8368 0.8515
667.000000 0.8597 0.8571 0.8573 0.8583 0.8583
662.000000 0.8581 0.8574 0.8552 0.8517 0.8477
657.000000 0.8405 0.8332 0.8232 0.8128 0.8078
652.000000 0.8036 0.8037 0.8030 0.8030 0.8031
647.000000 0.8031 0.8020 0.7973 0.7929 0.7885
642.000000 0.7871 0.7863 0.7861 0.7931 0.8027
637.000000 0.8123 0.8225 0.8326 0.8406 0.8430
632.000000 0.8452 0.8466 0.8482 0.8491 0.8515
627.000000 0.8495 0.8489 0.8487 0.8481 0.8451
622.000000 0.8374 0.8257 0.8101 0.7868 0.7638
617.000000 0.7402 0.7164 0.6928 0.6693 0.6456
612.000000 0.6221 0.6159 0.6180 0.6207 0.6290
607.000000 0.6432 0.6724 0.6889 0.7049 0.7188
602.000000 0.7359 0.7505 0.7727 0.7947 0.8166
597.000000 0.8322 0.8393 0.8436 0.8479 0.8523
592.000000 0.8574 0.8599 0.8625 0.8643 0.8660
587.000000 0.8648 0.8648 0.8621 0.8587 0.8489
582.000000 0.8374 0.8242 0.7941 0.7517 0.7094
577.000000 0.6595 0.6621 0.6623 0.6805 0.7014
572.000000 0.7222 0.7430 0.7668 0.8140 0.8421
567.000000 0.8580 0.8739 0.8896 0.8956 0.9001
562.000000 0.9029 0.9048 0.9069 0.9088 0.9108
557.000000 0.9123 0.9132 0.9134 0.9135 0.9139
552.000000 0.9138 0.9145 0.9149 0.9154 0.9156
547.000000 0.9159 0.9161 0.9163 0.9166 0.9167
542.000000 0.9167 0.9167 0.9166 0.9166 0.9172
537.000000 0.9173 0.9178 0.9174 0.9170 0.9172
532.000000 0.9170 0.9168 0.9165 0.9159 0.9150
527.000000 0.9140 0.9134 0.9120 0.9086 0.9050
522.000000 0.9013 0.8972 0.8931 0.8881 0.8826
517.000000 0.8769 0.8711 0.8635 0.8560 0.8478
512.000000 0.8378 0.8173 0.7752 0.7219 0.7011
507.000000 0.6875 0.6814 0.6757 0.6697 0.6620
502.000000 0.6548 0.6477 0.6441 0.6422 0.6406
497.000000 0.6407 0.6403 0.6403 0.6402 0.6406
492.000000 0.6410 0.6570 0.6753 0.7008 0.7164
487.000000 0.7285 0.7370 0.7445 0.7519 0.7595
482.000000 0.7678 0.7760 0.7843 0.7918 0.7978
477.000000 0.8036 0.8080 0.8120 0.8160 0.8198
472.000000 0.8235 0.8264 0.8293 0.8317 0.8337
467.000000 0.8354 0.8367 0.8370 0.8374 0.8378
462.000000 0.8382 0.8386 0.8389 0.8394 0.8400
457.000000 0.8405 0.8407 0.8410 0.8426 0.8414
452.000000 0.8417 0.8419 0.8420 0.8421
##END=
