##TITLE=2-NORPINENE, 2,6-DIMETHYL-6-(4-METHYL-3-PENTENYL)
##JCAMP-DX=4.24
##DATA TYPE=INFRARED SPECTRUM
##CLASS=COBLENTZ III
##ORIGIN=WESTERN REGIONAL RES. USDA
##OWNER=COBLENTZ SOCIETY
Collection (C) 2018 copyright by the U.S. Secretary of Commerce
on behalf of the United States of America. All rights reserved.
##DATE=1967/08/08
##NAMES=2,6-dimethyl-6-(4-methyl-3-pentenyl)bicyclo[3.1.1]hept-2-ene
##CAS REGISTRY NO=14087-02-6
##MOLFORM=C15 H24
##SOURCE REFERENCE=COBLENTZ NO. 7276
##$NIST SOURCE=COBLENTZ
##$NIST IMAGE=cob7276
##SPECTROMETER/DATA SYSTEM=CARY 90 (GRATING)
##INSTRUMENT PARAMETERS=GRATING CHANGES AT 3000, 2000, 1200 CM^-^1
##STATE=SOLUTION (20% IN CCl4 FOR 4000-1300 CM^-^1, 20% IN CS2 FOR 1300-450 CM^-^1) VS. SOLVENT
##PATH LENGTH=0.010 CM, 0.010 CM
##SAMPLING PROCEDURE=TRANSMISSION
##RESOLUTION=4
##DATA PROCESSING=DIGITIZED BY NIST FROM HARD COPY (FROM TWO SEGMENTS)
##XUNITS=1/CM
##YUNITS=TRANSMITTANCE
##XFACTOR=1.000000
##YFACTOR=1
##DELTAX=0.928796
##FIRSTX=449.845
##LASTX=4008.06
##FIRSTY=0.635
##MAXX=4008.06
##MINX=449.845
##MAXY=0.963
##MINY=0.002
##NPOINTS=3832
##XYDATA=(X++(Y..Y))
449.845000 0.6350 0.6420 0.6480 0.6500 0.6550
454.488979 0.6680 0.6710 0.6889 0.7119 0.7200
459.132958 0.7260 0.7380 0.7410 0.7450 0.7510
463.776937 0.7570 0.7630 0.7650 0.7750 0.7869
468.420915 0.7940 0.7960 0.7970 0.7980 0.7980
473.064894 0.7970 0.7970 0.7930 0.7920 0.7900
477.708873 0.7890 0.7860 0.7850 0.7830 0.7800
482.352852 0.7780 0.7770 0.7760 0.7750 0.7730
486.996831 0.7720 0.7720 0.7720 0.7730 0.7730
491.640810 0.7760 0.7770 0.7780 0.7800 0.7820
496.284789 0.7840 0.7860 0.7860 0.7890 0.7900
500.928767 0.7910 0.7930 0.7960 0.7980 0.7990
505.572746 0.8010 0.8030 0.8060 0.8100 0.8120
510.216725 0.8130 0.8170 0.8200 0.8200 0.8220
514.860704 0.8280 0.8290 0.8350 0.8420 0.8490
519.504683 0.8550 0.8600 0.8640 0.8670 0.8690
524.148662 0.8710 0.8720 0.8740 0.8740 0.8740
528.792641 0.8720 0.8720 0.8710 0.8650 0.8551
533.436620 0.8460 0.8400 0.8340 0.8310 0.8270
538.080598 0.8240 0.8190 0.8140 0.8070 0.7990
542.724577 0.7870 0.7770 0.7760 0.7770 0.7890
547.368556 0.7990 0.8070 0.8170 0.8250 0.8320
552.012535 0.8400 0.8470 0.8530 0.8600 0.8640
556.656514 0.8700 0.8750 0.8790 0.8840 0.8880
561.300493 0.8900 0.8910 0.8920 0.8920 0.8920
565.944472 0.8920 0.8920 0.8910 0.8910 0.8910
570.588450 0.8910 0.8900 0.8890 0.8890 0.8880
575.232429 0.8860 0.8850 0.8840 0.8840 0.8830
579.876408 0.8820 0.8820 0.8810 0.8810 0.8810
584.520387 0.8820 0.8830 0.8840 0.8860 0.8860
589.164366 0.8860 0.8860 0.8850 0.8850 0.8840
593.808345 0.8840 0.8830 0.8830 0.8840 0.8840
598.452324 0.8860 0.8900 0.8920 0.8960 0.8980
603.096302 0.9020 0.9040 0.9050 0.9060 0.9060
607.740281 0.9070 0.9090 0.9090 0.9090 0.9070
612.384260 0.9070 0.9050 0.9020 0.8990 0.8910
617.028239 0.8900 0.8790 0.8720 0.8670 0.8411
621.672218 0.8141 0.7871 0.7561 0.7540 0.7560
626.316197 0.7750 0.7940 0.8170 0.8499 0.8749
630.960176 0.8920 0.9040 0.9120 0.9160 0.9170
635.604155 0.9180 0.9180 0.9200 0.9240 0.9250
640.248133 0.9260 0.9280 0.9300 0.9320 0.9330
644.892112 0.9330 0.9340 0.9340 0.9340 0.9350
649.536091 0.9370 0.9370 0.9370 0.9370 0.9370
654.180070 0.9370 0.9350 0.9350 0.9350 0.9350
658.824049 0.9340 0.9340 0.9340 0.9340 0.9320
663.468028 0.9320 0.9310 0.9310 0.9300 0.9300
668.112007 0.9280 0.9270 0.9260 0.9260 0.9250
672.755985 0.9250 0.9240 0.9240 0.9230 0.9230
677.399964 0.9210 0.9210 0.9210 0.9210 0.9210
682.043943 0.9210 0.9230 0.9230 0.9240 0.9240
686.687922 0.9250 0.9260 0.9260 0.9270 0.9270
691.331901 0.9270 0.9280 0.9280 0.9300 0.9300
695.975880 0.9310 0.9310 0.9320 0.9320 0.9320
700.619859 0.9330 0.9330 0.9320 0.9320 0.9310
705.263837 0.9300 0.9300 0.9280 0.9280 0.9270
709.907816 0.9270 0.9270 0.9260 0.9260 0.9250
714.551795 0.9240 0.9230 0.9210 0.9200 0.9190
719.195774 0.9170 0.9160 0.9130 0.9100 0.9070
723.839753 0.9040 0.9000 0.8960 0.8910 0.8850
728.483732 0.8770 0.8690 0.8570 0.8490 0.8420
733.127711 0.8350 0.8280 0.8210 0.8140 0.8060
737.771690 0.8040 0.8030 0.8010 0.8030 0.8040
742.415668 0.8120 0.8180 0.8240 0.8260 0.8330
747.059647 0.8370 0.8410 0.8440 0.8510 0.8580
751.703626 0.8630 0.8640 0.8680 0.8690 0.8690
756.347605 0.8690 0.8680 0.8600 0.8550 0.8500
760.991584 0.8460 0.8360 0.8211 0.7941 0.7472
765.635563 0.7220 0.6870 0.6520 0.6180 0.6180
770.279542 0.6429 0.6450 0.6948 0.7129 0.7488
774.923520 0.7500 0.7500 0.7480 0.7430 0.7310
779.567499 0.5923 0.4425 0.4071 0.3502 0.2943
784.211478 0.2370 0.1810 0.1250 0.1250 0.1529
788.855457 0.2607 0.3507 0.4267 0.4887 0.5398
793.499436 0.5811 0.6150 0.6420 0.6630 0.6810
798.143415 0.6980 0.7140 0.7330 0.7539 0.7709
802.787394 0.7710 0.7730 0.7750 0.7760 0.7760
807.431372 0.7750 0.7750 0.7730 0.7710 0.7680
812.075351 0.7680 0.7630 0.7560 0.7470 0.7350
816.719330 0.7220 0.7060 0.6890 0.6721 0.6531
821.363309 0.6350 0.6160 0.5960 0.5780 0.5600
826.007288 0.5430 0.5171 0.5160 0.5170 0.5409
830.651267 0.5650 0.5880 0.6040 0.6340 0.6570
835.295246 0.6750 0.6890 0.7010 0.7090 0.7160
839.939225 0.7210 0.7240 0.7280 0.7310 0.7340
844.583203 0.7370 0.7510 0.7660 0.7819 0.7979
849.227182 0.8120 0.8250 0.8360 0.8440 0.8490
853.871161 0.8500 0.8510 0.8510 0.8510 0.8530
858.515140 0.8540 0.8560 0.8580 0.8600 0.8620
863.159119 0.8630 0.8650 0.8650 0.8670 0.8670
867.803098 0.8650 0.8640 0.8620 0.8610 0.8580
872.447077 0.8550 0.8510 0.8460 0.8390 0.8310
877.091055 0.8200 0.8060 0.7660 0.7410 0.7190
881.735034 0.6960 0.6751 0.6531 0.6311 0.6111
886.379013 0.6110 0.6220 0.6340 0.6580 0.6800
891.022992 0.7020 0.7439 0.7450 0.7580 0.7699
895.666971 0.7820 0.8000 0.8130 0.8250 0.8280
900.310950 0.8310 0.8320 0.8330 0.8330 0.8330
904.954929 0.8330 0.8340 0.8360 0.8400 0.8430
909.598907 0.8460 0.8500 0.8550 0.8580 0.8600
914.242886 0.8620 0.8620 0.8620 0.8610 0.8560
918.886865 0.8480 0.8360 0.8240 0.8110 0.7991
923.530844 0.7910 0.7860 0.7760 0.7610 0.7590
928.174823 0.7610 0.7800 0.7890 0.8000 0.8110
932.818802 0.8170 0.8220 0.8260 0.8270 0.8260
937.462781 0.8240 0.8180 0.8130 0.8080 0.8030
942.106759 0.7970 0.7890 0.7790 0.7690 0.7550
946.750738 0.7380 0.7170 0.6931 0.6641 0.6301
951.394717 0.5880 0.5870 0.5880 0.6090 0.6240
956.038696 0.6440 0.6730 0.7129 0.7419 0.7629
960.682675 0.7640 0.7660 0.7660 0.7690 0.7710
965.326654 0.7730 0.7750 0.7770 0.7790 0.7800
969.970633 0.7820 0.7820 0.7830 0.7830 0.7820
974.614612 0.7820 0.7790 0.7710 0.7660 0.7560
979.258590 0.7350 0.7150 0.7140 0.7150 0.7230
983.902569 0.7340 0.7420 0.7490 0.7570 0.7650
988.546548 0.7750 0.7860 0.7990 0.8130 0.8260
993.190527 0.8280 0.8280 0.8270 0.8270 0.8260
997.834506 0.8210 0.8170 0.8130 0.8080 0.8040
1002.478485 0.7970 0.7890 0.7770 0.7620 0.7431
1007.122464 0.7200 0.6910 0.6560 0.6140 0.5530
1011.766442 0.5510 0.5520 0.5739 0.5959 0.6179
1016.410421 0.6410 0.6580 0.6750 0.7030 0.7310
1021.054400 0.7500 0.7660 0.7770 0.7800 0.7890
1025.698379 0.7900 0.7910 0.7930 0.7940 0.7970
1030.342358 0.7970 0.7970 0.7980 0.7990 0.7990
1034.986337 0.7980 0.7960 0.7920 0.7830 0.7720
1039.630316 0.7640 0.7630 0.7640 0.7730 0.7909
1044.274294 0.8110 0.8250 0.8330 0.8350 0.8390
1048.918273 0.8410 0.8420 0.8420 0.8390 0.8340
1053.562252 0.8310 0.8270 0.8060 0.7850 0.7660
1058.206231 0.7470 0.7280 0.7090 0.7090 0.7200
1062.850210 0.7550 0.7700 0.7910 0.7930 0.7970
1067.494189 0.7990 0.7990 0.7980 0.7900 0.7800
1072.138168 0.7720 0.7640 0.7560 0.7480 0.7400
1076.782147 0.7350 0.7140 0.6801 0.6391 0.6081
1081.426125 0.5710 0.5690 0.5710 0.5890 0.6080
1086.070104 0.6270 0.6410 0.6510 0.6710 0.6879
1090.714083 0.6910 0.6890 0.6880 0.6860 0.6800
1095.358062 0.6700 0.6600 0.6510 0.6410 0.6380
1100.002041 0.6390 0.6510 0.6640 0.6750 0.6850
1104.646020 0.6950 0.7070 0.7200 0.7350 0.7450
1109.289999 0.7470 0.7430 0.7330 0.7120 0.6850
1113.933977 0.6680 0.6311 0.6150 0.5990 0.5711
1118.577956 0.5680 0.5690 0.5860 0.5960 0.6270
1123.221935 0.6530 0.6750 0.6940 0.7090 0.7230
1127.865914 0.7340 0.7430 0.7510 0.7580 0.7650
1132.509893 0.7720 0.7780 0.7860 0.7960 0.8060
1137.153872 0.8190 0.8330 0.8340 0.8340 0.8330
1141.797851 0.8310 0.8280 0.8220 0.8180 0.7991
1146.441829 0.7890 0.7850 0.7840 0.7850 0.7910
1151.085808 0.7980 0.8030 0.8060 0.8080 0.8100
1155.729787 0.8130 0.8130 0.8120 0.8100 0.8060
1160.373766 0.8030 0.7990 0.7890 0.7691 0.7491
1165.017745 0.7020 0.6870 0.6710 0.6710 0.6930
1169.661724 0.7539 0.7650 0.7770 0.7910 0.8040
1174.305703 0.8190 0.8340 0.8350 0.8360 0.8360
1178.949682 0.8370 0.8370 0.8370 0.8360 0.8360
1183.593660 0.8350 0.8350 0.8330 0.8320 0.8190
1188.237639 0.8030 0.7820 0.7580 0.7350 0.7131
1192.881618 0.6909 0.6730 0.6580 0.6490 0.6340
1197.525597 0.6320 0.6340 0.6490 0.6650 0.6710
1202.169576 0.6770 0.6910 0.7030 0.7120 0.7130
1206.813555 0.7140 0.7140 0.7100 0.6880 0.6421
1211.457534 0.5869 0.5410 0.5390 0.5410 0.5780
1216.101512 0.6150 0.6520 0.6780 0.6910 0.7129
1220.745491 0.7351 0.7560 0.7710 0.7830 0.7860
1225.389470 0.7900 0.7910 0.7920 0.7920 0.7930
1230.033449 0.7930 0.7940 0.7940 0.7960 0.7970
1234.677428 0.7990 0.8000 0.8010 0.8010 0.8030
1239.321407 0.8030 0.8030 0.8040 0.8040 0.8040
1243.965386 0.8030 0.8030 0.8010 0.7990 0.7980
1248.609364 0.7980 0.7960 0.7940 0.7920 0.7900
1253.253343 0.7850 0.7800 0.7730 0.7680 0.7630
1257.897322 0.7580 0.7570 0.7570 0.7580 0.7620
1262.541301 0.7650 0.7680 0.7720 0.7750 0.7790
1267.185280 0.7890 0.7960 0.8010 0.8060 0.8110
1271.829259 0.8140 0.8170 0.8190 0.8200 0.8210
1276.473238 0.8210 0.8220 0.8220 0.8240 0.8240
1281.117217 0.8250 0.8250 0.8250 0.8250 0.8250
1285.761195 0.8250 0.8240 0.8240 0.8220 0.8210
1290.405174 0.8200 0.8200 0.8170 0.8110 0.8030
1295.049153 0.7930 0.7820 0.7700 0.7570 0.7450
1299.693132 0.7340 0.7230 0.7140 0.7070 0.7020
1304.337111 0.6930 0.6820 0.6800 0.6810 0.6980
1308.981090 0.7080 0.7190 0.7400 0.7540 0.7590
1313.625069 0.7680 0.7680 0.7660 0.7630 0.7550
1318.269047 0.7470 0.7330 0.7090 0.6810 0.6511
1322.913026 0.6229 0.6000 0.5860 0.5850 0.5580
1327.557005 0.5540 0.5540 0.5740 0.5950 0.6020
1332.200984 0.6060 0.6070 0.6070 0.6020 0.5960
1336.844963 0.5920 0.5900 0.5920 0.6090 0.6170
1341.488942 0.6441 0.6640 0.6800 0.6890 0.6960
1346.132921 0.6980 0.7050 0.7060 0.7060 0.7030
1350.776899 0.7010 0.7000 0.7000 0.6990 0.6990
1355.420878 0.6990 0.6940 0.6930 0.6840 0.6770
1360.064857 0.6700 0.6620 0.6520 0.6370 0.6150
1364.708836 0.5850 0.5450 0.4941 0.4281 0.3472
1369.352815 0.1789 0.1419 0.1019 0.0600 0.0590
1373.996794 0.0600 0.0720 0.1030 0.1499 0.1869
1378.640773 0.2502 0.3071 0.3581 0.4051 0.4470
1383.284751 0.4870 0.5230 0.5570 0.5889 0.6199
1387.928730 0.6451 0.6660 0.6820 0.6940 0.7050
1392.572709 0.7100 0.7160 0.7200 0.7240 0.7280
1397.216688 0.7330 0.7380 0.7400 0.7400 0.7400
1401.860667 0.7400 0.7380 0.7360 0.7310 0.7280
1406.504646 0.7230 0.7190 0.7140 0.7090 0.7050
1411.148625 0.6990 0.6930 0.6860 0.6780 0.6680
1415.792604 0.6590 0.6480 0.6350 0.6210 0.6060
1420.436582 0.5880 0.5680 0.5470 0.5240 0.4981
1425.080561 0.4689 0.4389 0.4059 0.3699 0.3319
1429.724540 0.2900 0.2440 0.1960 0.1440 0.1350
1434.368519 0.1220 0.1100 0.1100 0.1130 0.1180
1439.012498 0.1270 0.1280 0.1290 0.1210 0.1110
1443.656477 0.1030 0.0940 0.0860 0.0780 0.0780
1448.300456 0.0850 0.1130 0.1300 0.1510 0.1730
1452.944434 0.1981 0.2231 0.2481 0.2720 0.2960
1457.588413 0.3150 0.3320 0.3440 0.3460 0.3470
1462.232392 0.3470 0.3440 0.3330 0.3240 0.3210
1466.876371 0.3210 0.3220 0.3480 0.3640 0.3790
1471.520350 0.4241 0.4651 0.5011 0.5341 0.5650
1476.164329 0.5930 0.6170 0.6390 0.6590 0.6770
1480.808308 0.6920 0.7060 0.7170 0.7280 0.7370
1485.452286 0.7450 0.7520 0.7580 0.7630 0.7690
1490.096265 0.7730 0.7770 0.7840 0.7910 0.7970
1494.740244 0.8030 0.8070 0.8120 0.8170 0.8210
1499.384223 0.8260 0.8290 0.8330 0.8360 0.8400
1504.028202 0.8430 0.8470 0.8490 0.8510 0.8540
1508.672181 0.8570 0.8600 0.8620 0.8640 0.8670
1513.316160 0.8690 0.8700 0.8720 0.8720 0.8740
1517.960139 0.8740 0.8760 0.8760 0.8780 0.8810
1522.604117 0.8830 0.8850 0.8860 0.8890 0.8910
1527.248096 0.8930 0.8960 0.8980 0.9000 0.9030
1531.892075 0.9060 0.9090 0.9120 0.9140 0.9180
1536.536054 0.9210 0.9240 0.9270 0.9340 0.9390
1541.180033 0.9420 0.9450 0.9460 0.9470 0.9490
1545.824012 0.9520 0.9540 0.9550 0.9550 0.9540
1550.467991 0.9530 0.9510 0.9480 0.9460 0.9440
1555.111969 0.9440 0.9420 0.9410 0.9380 0.9340
1559.755948 0.9310 0.9270 0.9250 0.9230 0.9190
1564.399927 0.9170 0.9140 0.9110 0.9070 0.9040
1569.043906 0.8990 0.8960 0.8930 0.8910 0.8900
1573.687885 0.8890 0.8880 0.8880 0.8880 0.8880
1578.331864 0.8890 0.8930 0.8970 0.8990 0.9020
1582.975843 0.9040 0.9050 0.9060 0.9070 0.9070
1587.619821 0.9090 0.9090 0.9090 0.9070 0.9070
1592.263800 0.9070 0.9050 0.9050 0.9040 0.9020
1596.907779 0.8990 0.8970 0.8950 0.8920 0.8900
1601.551758 0.8880 0.8860 0.8840 0.8830 0.8820
1606.195737 0.8790 0.8780 0.8770 0.8760 0.8750
1610.839716 0.8740 0.8720 0.8710 0.8700 0.8690
1615.483695 0.8680 0.8670 0.8650 0.8650 0.8640
1620.127674 0.8630 0.8610 0.8600 0.8580 0.8570
1624.771652 0.8560 0.8540 0.8530 0.8500 0.8480
1629.415631 0.8440 0.8410 0.8390 0.8360 0.8340
1634.059610 0.8330 0.8320 0.8330 0.8340 0.8350
1638.703589 0.8360 0.8370 0.8400 0.8410 0.8420
1643.347568 0.8430 0.8440 0.8460 0.8460 0.8440
1647.991547 0.8420 0.8400 0.8360 0.8320 0.8270
1652.635526 0.8130 0.7980 0.7890 0.7750 0.7620
1657.279504 0.7479 0.7340 0.7330 0.7340 0.7550
1661.923483 0.7830 0.7940 0.8040 0.8120 0.8130
1666.567462 0.8130 0.8120 0.8100 0.8070 0.8060
1671.211441 0.8030 0.8010 0.8000 0.8010 0.8050
1675.855420 0.8131 0.8250 0.8330 0.8410 0.8480
1680.499399 0.8540 0.8580 0.8620 0.8640 0.8670
1685.143378 0.8690 0.8700 0.8710 0.8710 0.8720
1689.787356 0.8720 0.8740 0.8750 0.8760 0.8770
1694.431335 0.8780 0.8780 0.8790 0.8810 0.8810
1699.075314 0.8820 0.8830 0.8840 0.8840 0.8840
1703.719293 0.8840 0.8840 0.8840 0.8840 0.8840
1708.363272 0.8850 0.8850 0.8850 0.8860 0.8860
1713.007251 0.8860 0.8880 0.8880 0.8890 0.8890
1717.651230 0.8890 0.8890 0.8890 0.8890 0.8880
1722.295209 0.8880 0.8880 0.8880 0.8880 0.8860
1726.939187 0.8860 0.8850 0.8850 0.8850 0.8840
1731.583166 0.8840 0.8840 0.8830 0.8830 0.8820
1736.227145 0.8820 0.8810 0.8790 0.8790 0.8780
1740.871124 0.8780 0.8780 0.8790 0.8790 0.8790
1745.515103 0.8810 0.8810 0.8820 0.8840 0.8860
1750.159082 0.8890 0.8890 0.8900 0.8900 0.8910
1754.803061 0.8910 0.8910 0.8910 0.8910 0.8910
1759.447039 0.8910 0.8910 0.8910 0.8910 0.8910
1764.091018 0.8900 0.8900 0.8900 0.8890 0.8890
1768.734997 0.8890 0.8890 0.8890 0.8890 0.8900
1773.378976 0.8900 0.8900 0.8900 0.8910 0.8910
1778.022955 0.8910 0.8910 0.8920 0.8920 0.8920
1782.666934 0.8920 0.8920 0.8910 0.8910 0.8910
1787.310913 0.8900 0.8900 0.8900 0.8900 0.8900
1791.954891 0.8910 0.8910 0.8920 0.8920 0.8930
1796.598870 0.8930 0.8950 0.8930 0.8930 0.8960
1801.242849 0.8960 0.8960 0.8960 0.8950 0.8950
1805.886828 0.8950 0.8950 0.8930 0.8930 0.8920
1810.530807 0.8930 0.8930 0.8930 0.8930 0.8950
1815.174786 0.8950 0.8950 0.8950 0.8960 0.8960
1819.818765 0.8960 0.8960 0.8960 0.8970 0.8970
1824.462743 0.8970 0.8970 0.8960 0.8960 0.8960
1829.106722 0.8960 0.8950 0.8950 0.8950 0.8950
1833.750701 0.8930 0.8930 0.8930 0.8930 0.8930
1838.394680 0.8930 0.8930 0.8930 0.8930 0.8930
1843.038659 0.8950 0.8950 0.8950 0.8950 0.8950
1847.682638 0.8960 0.8960 0.8960 0.8960 0.8960
1852.326617 0.8970 0.8970 0.8970 0.8970 0.8980
1856.970596 0.8980 0.8980 0.8980 0.8990 0.8990
1861.614574 0.8990 0.8990 0.8990 0.8990 0.8990
1866.258553 0.8990 0.8990 0.8990 0.8990 0.8990
1870.902532 0.8990 0.8990 0.8990 0.8990 0.9000
1875.546511 0.9000 0.9000 0.9000 0.9000 0.9000
1880.190490 0.9000 0.9000 0.9000 0.9000 0.9000
1884.834469 0.9000 0.9000 0.9000 0.9000 0.9000
1889.478448 0.9020 0.9020 0.9020 0.9020 0.9020
1894.122426 0.9020 0.9030 0.9030 0.9030 0.9030
1898.766405 0.9030 0.9030 0.9030 0.9030 0.9030
1903.410384 0.9030 0.9030 0.9030 0.9030 0.9030
1908.054363 0.9030 0.9030 0.9030 0.9030 0.9030
1912.698342 0.9030 0.9030 0.9030 0.9020 0.9020
1917.342321 0.9020 0.9020 0.9020 0.9020 0.9020
1921.986300 0.8990 0.8990 0.8990 0.8990 0.8990
1926.630278 0.8980 0.8980 0.8980 0.8980 0.8980
1931.274257 0.8980 0.8980 0.8980 0.8980 0.8980
1935.918236 0.8980 0.8980 0.8980 0.8980 0.8980
1940.562215 0.8980 0.8970 0.8970 0.8970 0.8970
1945.206194 0.8960 0.8960 0.8960 0.8970 0.8970
1949.850173 0.8970 0.8970 0.8970 0.8970 0.8970
1954.494152 0.8970 0.8970 0.8970 0.8970 0.8960
1959.138131 0.8960 0.8960 0.8960 0.8960 0.8960
1963.782109 0.8960 0.8970 0.8970 0.8970 0.8980
1968.426088 0.8980 0.8980 0.8990 0.8990 0.8990
1973.070067 0.9000 0.9000 0.9000 0.9020 0.9020
1977.714046 0.9020 0.9030 0.9030 0.9030 0.9030
1982.358025 0.9020 0.9020 0.9000 0.9000 0.8990
1987.002004 0.8990 0.8980 0.8970 0.8970 0.8960
1991.645983 0.8960 0.8950 0.8950 0.8930 0.8930
1996.289961 0.8930 0.8930 0.8930 0.8930 0.8930
2000.933940 0.8930 0.8930 0.8925 0.8920 0.8920
2005.577919 0.8920 0.8915 0.8910 0.8910 0.8910
2010.221898 0.8910 0.8910 0.8905 0.8900 0.8900
2014.865877 0.8900 0.8900 0.8900 0.8895 0.8890
2019.509856 0.8890 0.8890 0.8890 0.8890 0.8890
2024.153835 0.8890 0.8890 0.8890 0.8890 0.8890
2028.797813 0.8890 0.8890 0.8890 0.8890 0.8890
2033.441792 0.8890 0.8885 0.8880 0.8880 0.8880
2038.085771 0.8870 0.8860 0.8860 0.8860 0.8860
2042.729750 0.8860 0.8855 0.8850 0.8850 0.8850
2047.373729 0.8850 0.8850 0.8850 0.8850 0.8855
2052.017708 0.8860 0.8860 0.8860 0.8870 0.8880
2056.661687 0.8880 0.8880 0.8880 0.8880 0.8885
2061.305666 0.8890 0.8895 0.8900 0.8900 0.8900
2065.949644 0.8900 0.8900 0.8900 0.8900 0.8905
2070.593623 0.8910 0.8910 0.8910 0.8915 0.8920
2075.237602 0.8920 0.8920 0.8920 0.8920 0.8925
2079.881581 0.8930 0.8930 0.8930 0.8930 0.8931
2084.525560 0.8941 0.8950 0.8950 0.8950 0.8950
2089.169539 0.8950 0.8955 0.8960 0.8960 0.8960
2093.813518 0.8960 0.8960 0.8960 0.8960 0.8965
2098.457496 0.8970 0.8970 0.8970 0.8970 0.8970
2103.101475 0.8975 0.8980 0.8980 0.8980 0.8980
2107.745454 0.8980 0.8980 0.8980 0.8980 0.8980
2112.389433 0.8980 0.8980 0.8980 0.8980 0.8980
2117.033412 0.8980 0.8980 0.8980 0.8975 0.8970
2121.677391 0.8970 0.8970 0.8970 0.8970 0.8970
2126.321370 0.8970 0.8970 0.8970 0.8970 0.8969
2130.965348 0.8964 0.8960 0.8960 0.8959 0.8954
2135.609327 0.8950 0.8950 0.8950 0.8950 0.8950
2140.253306 0.8950 0.8949 0.8939 0.8930 0.8930
2144.897285 0.8930 0.8930 0.8930 0.8930 0.8930
2149.541264 0.8930 0.8930 0.8930 0.8930 0.8930
2154.185243 0.8931 0.8941 0.8950 0.8950 0.8950
2158.829222 0.8950 0.8950 0.8950 0.8951 0.8956
2163.473201 0.8960 0.8960 0.8960 0.8960 0.8961
2168.117179 0.8966 0.8970 0.8970 0.8970 0.8970
2172.761158 0.8971 0.8976 0.8980 0.8980 0.8980
2177.405137 0.8980 0.8981 0.8986 0.8990 0.8990
2182.049116 0.8990 0.8990 0.8991 0.8996 0.9000
2186.693095 0.9000 0.9000 0.9000 0.9000 0.9000
2191.337074 0.9002 0.9012 0.9020 0.9020 0.9020
2195.981053 0.9020 0.9020 0.9020 0.9021 0.9026
2200.625031 0.9030 0.9030 0.9030 0.9030 0.9030
2205.269010 0.9030 0.9031 0.9036 0.9040 0.9040
2209.912989 0.9040 0.9040 0.9040 0.9040 0.9041
2214.556968 0.9046 0.9050 0.9050 0.9050 0.9050
2219.200947 0.9050 0.9050 0.9050 0.9050 0.9050
2223.844926 0.9050 0.9050 0.9050 0.9051 0.9056
2228.488905 0.9060 0.9060 0.9060 0.9060 0.9061
2233.132883 0.9066 0.9070 0.9070 0.9070 0.9070
2237.776862 0.9072 0.9082 0.9090 0.9090 0.9091
2242.420841 0.9096 0.9100 0.9100 0.9100 0.9100
2247.064820 0.9101 0.9106 0.9110 0.9110 0.9110
2251.708799 0.9110 0.9110 0.9110 0.9110 0.9110
2256.352778 0.9110 0.9110 0.9110 0.9110 0.9110
2260.996757 0.9110 0.9110 0.9110 0.9110 0.9110
2265.640735 0.9109 0.9104 0.9100 0.9100 0.9100
2270.284714 0.9100 0.9100 0.9100 0.9100 0.9100
2274.928693 0.9100 0.9100 0.9101 0.9106 0.9110
2279.572672 0.9110 0.9110 0.9110 0.9111 0.9116
2284.216651 0.9120 0.9120 0.9120 0.9120 0.9121
2288.860630 0.9126 0.9130 0.9130 0.9130 0.9130
2293.504609 0.9131 0.9136 0.9140 0.9140 0.9140
2298.148588 0.9140 0.9140 0.9140 0.9143 0.9153
2302.792566 0.9160 0.9160 0.9160 0.9160 0.9160
2307.436545 0.9160 0.9161 0.9166 0.9170 0.9170
2312.080524 0.9170 0.9170 0.9170 0.9170 0.9170
2316.724503 0.9170 0.9170 0.9170 0.9169 0.9164
2321.368482 0.9160 0.9160 0.9160 0.9160 0.9160
2326.012461 0.9160 0.9160 0.9160 0.9160 0.9160
2330.656440 0.9157 0.9147 0.9140 0.9140 0.9139
2335.300418 0.9134 0.9129 0.9124 0.9119 0.9114
2339.944397 0.9109 0.9104 0.9099 0.9094 0.9087
2344.588376 0.9077 0.9069 0.9064 0.9059 0.9054
2349.232355 0.9049 0.9044 0.9039 0.9034 0.9030
2353.876334 0.9030 0.9030 0.9030 0.9030 0.9030
2358.520313 0.9029 0.9024 0.9020 0.9020 0.9020
2363.164292 0.9020 0.9020 0.9020 0.9021 0.9026
2367.808270 0.9030 0.9030 0.9032 0.9037 0.9042
2372.452249 0.9047 0.9052 0.9057 0.9060 0.9060
2377.096228 0.9058 0.9053 0.9048 0.9043 0.9040
2381.740207 0.9040 0.9040 0.9040 0.9038 0.9033
2386.384186 0.9025 0.9010 0.9000 0.9000 0.8998
2391.028165 0.8993 0.8990 0.8990 0.8988 0.8983
2395.672144 0.8980 0.8980 0.8980 0.8980 0.8980
2400.316123 0.8980 0.8983 0.8993 0.9007 0.9027
2404.960101 0.9042 0.9047 0.9050 0.9050 0.9052
2409.604080 0.9057 0.9060 0.9060 0.9060 0.9060
2414.248059 0.9062 0.9067 0.9070 0.9070 0.9073
2418.892038 0.9083 0.9090 0.9090 0.9092 0.9097
2423.536017 0.9100 0.9100 0.9100 0.9100 0.9100
2428.179996 0.9100 0.9100 0.9100 0.9100 0.9100
2432.823975 0.9100 0.9100 0.9098 0.9093 0.9090
2437.467953 0.9090 0.9086 0.9076 0.9070 0.9070
2442.111932 0.9068 0.9063 0.9058 0.9053 0.9050
2446.755911 0.9050 0.9044 0.9029 0.9016 0.9006
2451.399890 0.8998 0.8993 0.8988 0.8983 0.8978
2456.043869 0.8973 0.8968 0.8963 0.8958 0.8953
2460.687848 0.8950 0.8950 0.8950 0.8950 0.8950
2465.331827 0.8950 0.8952 0.8957 0.8962 0.8967
2469.975805 0.8972 0.8977 0.8982 0.8987 0.8992
2474.619784 0.8997 0.9004 0.9014 0.9020 0.9020
2479.263763 0.9020 0.9020 0.9022 0.9027 0.9030
2483.907742 0.9030 0.9028 0.9023 0.9020 0.9020
2488.551721 0.9016 0.9006 0.8994 0.8979 0.8966
2493.195700 0.8956 0.8946 0.8936 0.8928 0.8923
2497.839679 0.8920 0.8920 0.8920 0.8920 0.8926
2502.483658 0.8941 0.8950 0.8950 0.8952 0.8957
2507.127636 0.8962 0.8967 0.8974 0.8984 0.8992
2511.771615 0.8997 0.9004 0.9014 0.9020 0.9020
2516.415594 0.9020 0.9020 0.9020 0.9020 0.9022
2521.059573 0.9027 0.9030 0.9030 0.9032 0.9037
2525.703552 0.9040 0.9040 0.9040 0.9040 0.9040
2530.347531 0.9040 0.9038 0.9033 0.9030 0.9030
2534.991510 0.9028 0.9023 0.9020 0.9020 0.9015
2539.635488 0.9005 0.9000 0.9000 0.8998 0.8993
2544.279467 0.8990 0.8990 0.8990 0.8990 0.8990
2548.923446 0.8990 0.8990 0.8990 0.8990 0.8990
2553.567425 0.8990 0.8990 0.8992 0.8997 0.9000
2558.211404 0.9000 0.9005 0.9015 0.9020 0.9020
2562.855383 0.9020 0.9020 0.9022 0.9027 0.9030
2567.499362 0.9030 0.9030 0.9030 0.9032 0.9037
2572.143340 0.9040 0.9040 0.9040 0.9040 0.9042
2576.787319 0.9047 0.9050 0.9050 0.9050 0.9050
2581.431298 0.9052 0.9057 0.9060 0.9060 0.9060
2586.075277 0.9060 0.9060 0.9060 0.9060 0.9060
2590.719256 0.9060 0.9060 0.9060 0.9060 0.9057
2595.363235 0.9052 0.9050 0.9050 0.9050 0.9050
2600.007214 0.9050 0.9050 0.9050 0.9050 0.9048
2604.651193 0.9043 0.9040 0.9040 0.9040 0.9040
2609.295171 0.9040 0.9040 0.9037 0.9032 0.9027
2613.939150 0.9022 0.9025 0.9035 0.9040 0.9040
2618.583129 0.9037 0.9032 0.9022 0.9007 0.8995
2623.227108 0.8985 0.8980 0.8980 0.8977 0.8972
2627.871087 0.8970 0.8970 0.8970 0.8970 0.8970
2632.515066 0.8970 0.8967 0.8962 0.8960 0.8960
2637.159045 0.8957 0.8952 0.8945 0.8935 0.8927
2641.803023 0.8922 0.8920 0.8920 0.8917 0.8912
2646.447002 0.8902 0.8887 0.8875 0.8865 0.8855
2651.090981 0.8845 0.8837 0.8832 0.8825 0.8815
2655.734960 0.8805 0.8795 0.8785 0.8775 0.8765
2660.378939 0.8755 0.8747 0.8742 0.8740 0.8740
2665.022918 0.8743 0.8748 0.8756 0.8766 0.8781
2669.666897 0.8801 0.8816 0.8826 0.8838 0.8853
2674.310875 0.8871 0.8891 0.8903 0.8908 0.8916
2678.954854 0.8926 0.8936 0.8946 0.8953 0.8958
2683.598833 0.8960 0.8960 0.8963 0.8968 0.8970
2688.242812 0.8970 0.8970 0.8970 0.8967 0.8962
2692.886791 0.8957 0.8952 0.8944 0.8934 0.8930
2697.530770 0.8930 0.8924 0.8914 0.8907 0.8902
2702.174749 0.8894 0.8884 0.8868 0.8848 0.8831
2706.818727 0.8816 0.8795 0.8770 0.8748 0.8728
2711.462706 0.8711 0.8696 0.8678 0.8658 0.8638
2716.106685 0.8618 0.8607 0.8602 0.8526 0.8401
2720.750664 0.8285 0.8175 0.8067 0.7961 0.7856
2725.394643 0.7751 0.7646 0.7541 0.7436 0.7331
2730.038622 0.7229 0.7129 0.7090 0.7090 0.7191
2734.682601 0.7356 0.7505 0.7645 0.7785 0.7925
2739.326580 0.8026 0.8101 0.8170 0.8236 0.8288
2743.970558 0.8333 0.8369 0.8399 0.8419 0.8434
2748.614537 0.8446 0.8456 0.8469 0.8484 0.8496
2753.258516 0.8506 0.8519 0.8534 0.8543 0.8548
2757.902495 0.8550 0.8550 0.8550 0.8550 0.8550
2762.546474 0.8550 0.8547 0.8542 0.8540 0.8540
2767.190453 0.8530 0.8515 0.8504 0.8494 0.8487
2771.834432 0.8482 0.8477 0.8472 0.8457 0.8437
2776.478410 0.8417 0.8397 0.8377 0.8357 0.8340
2781.122389 0.8325 0.8307 0.8287 0.8270 0.8255
2785.766368 0.8237 0.8217 0.8200 0.8185 0.8167
2790.410347 0.8147 0.8130 0.8115 0.8097 0.8077
2795.054326 0.8044 0.8004 0.7967 0.7932 0.7893
2799.698305 0.7853 0.7816 0.7781 0.7743 0.7703
2804.342284 0.7666 0.7631 0.7593 0.7553 0.7510
2808.986262 0.7465 0.7450 0.7450 0.7416 0.7366
2813.630241 0.7263 0.7133 0.7016 0.6904 0.6836
2818.274220 0.6786 0.6739 0.6694 0.6460 0.6140
2822.918199 0.5999 0.5939 0.5655 0.5270 0.5112
2827.562178 0.5057 0.4992 0.4922 0.4598 0.4158
2832.206157 0.3673 0.3168 0.2605 0.2014 0.1801
2836.850136 0.1746 0.1698 0.1653 0.1608 0.1563
2841.494115 0.1511 0.1456 0.1408 0.1363 0.1315
2846.138093 0.1265 0.1218 0.1173 0.1125 0.1075
2850.782072 0.1025 0.0975 0.0928 0.0883 0.0830
2855.426051 0.0775 0.0746 0.0726 0.0706 0.0686
2860.070030 0.0666 0.0646 0.0626 0.0606 0.0593
2864.714009 0.0583 0.0569 0.0554 0.0543 0.0533
2869.357988 0.0523 0.0513 0.0499 0.0484 0.0469
2874.001967 0.0454 0.0435 0.0415 0.0403 0.0393
2878.645945 0.0383 0.0373 0.0359 0.0344 0.0333
2883.289924 0.0323 0.0309 0.0294 0.0279 0.0264
2887.933903 0.0253 0.0243 0.0233 0.0223 0.0205
2892.577882 0.0185 0.0172 0.0162 0.0160 0.0160
2897.221861 0.0156 0.0151 0.0142 0.0132 0.0126
2901.865840 0.0121 0.0116 0.0111 0.0106 0.0101
2906.509819 0.0096 0.0091 0.0086 0.0081 0.0072
2911.153797 0.0062 0.0056 0.0051 0.0050 0.0050
2915.797776 0.0046 0.0041 0.0040 0.0040 0.0036
2920.441755 0.0031 0.0030 0.0030 0.0030 0.0030
2925.085734 0.0030 0.0030 0.0030 0.0030 0.0026
2929.729713 0.0021 0.0020 0.0020 0.0020 0.0020
2934.373692 0.0020 0.0020 0.0020 0.0020 0.0020
2939.017671 0.0020 0.0020 0.0020 0.0020 0.0020
2943.661650 0.0024 0.0029 0.0030 0.0030 0.0034
2948.305628 0.0039 0.0040 0.0040 0.0040 0.0040
2952.949607 0.0044 0.0049 0.0050 0.0050 0.0054
2957.593586 0.0059 0.0060 0.0060 0.0060 0.0060
2962.237565 0.0068 0.0078 0.0084 0.0089 0.0094
2966.881544 0.0099 0.0104 0.0109 0.0110 0.0110
2971.525523 0.0114 0.0119 0.0124 0.0129 0.0138
2976.169502 0.0148 0.0154 0.0159 0.0160 0.0160
2980.813480 0.0164 0.0169 0.0178 0.0188 0.0202
2985.457459 0.0217 0.0228 0.0238 0.0265 0.0295
2990.101438 0.0308 0.0318 0.0473 0.0658 0.0971
2994.745417 0.1311 0.1581 0.1836 0.2037 0.2227
2999.389396 0.2380 0.2525 0.2638 0.2744 0.2836
3004.033375 0.2926 0.3012 0.3097 0.3194 0.3294
3008.677354 0.3411 0.3531 0.3571 0.3596 0.3600
3013.321332 0.3600 0.3511 0.3407 0.3314 0.3224
3017.965311 0.3143 0.3063 0.2982 0.2901 0.2817
3022.609290 0.2732 0.2660 0.2590 0.2580 0.2580
3027.253269 0.2752 0.2952 0.3156 0.3361 0.3557
3031.897248 0.3752 0.3956 0.4161 0.4349 0.4534
3036.541227 0.4826 0.5136 0.5362 0.5574 0.5604
3041.185206 0.5609 0.5715 0.5835 0.5951 0.6066
3045.829185 0.6277 0.6502 0.6539 0.6549 0.6589
3050.473163 0.6634 0.6675 0.6715 0.6786 0.6861
3055.117142 0.6874 0.6879 0.6972 0.7078 0.7273
3059.761121 0.7478 0.7504 0.7509 0.7546 0.7586
3064.405100 0.7621 0.7656 0.7691 0.7726 0.7752
3069.049079 0.7777 0.7833 0.7893 0.7940 0.7985
3073.693058 0.8030 0.8075 0.8107 0.8137 0.8163
3078.337037 0.8188 0.8204 0.8219 0.8243 0.8268
3082.981015 0.8279 0.8289 0.8308 0.8328 0.8339
3087.624994 0.8349 0.8355 0.8360 0.8374 0.8389
3092.268973 0.8395 0.8400 0.8405 0.8410 0.8419
3096.912952 0.8429 0.8430 0.8430 0.8435 0.8440
3101.556931 0.8454 0.8469 0.8475 0.8480 0.8485
3106.200910 0.8490 0.8495 0.8500 0.8505 0.8510
3110.844889 0.8519 0.8529 0.8530 0.8530 0.8544
3115.488867 0.8559 0.8569 0.8579 0.8599 0.8619
3120.132846 0.8629 0.8639 0.8659 0.8679 0.8689
3124.776825 0.8699 0.8709 0.8719 0.8720 0.8720
3129.420804 0.8729 0.8739 0.8745 0.8750 0.8760
3134.064783 0.8770 0.8794 0.8819 0.8825 0.8830
3138.708762 0.8835 0.8840 0.8845 0.8850 0.8864
3143.352741 0.8879 0.8890 0.8900 0.8910 0.8920
3147.996719 0.8934 0.8949 0.8960 0.8970 0.8975
3152.640698 0.8980 0.8990 0.9000 0.9010 0.9020
3157.284677 0.9025 0.9030 0.9040 0.9050 0.9055
3161.928656 0.9060 0.9065 0.9070 0.9085 0.9100
3166.572635 0.9105 0.9110 0.9115 0.9120 0.9125
3171.216614 0.9130 0.9135 0.9140 0.9150 0.9160
3175.860593 0.9165 0.9170 0.9175 0.9180 0.9185
3180.504572 0.9190 0.9190 0.9190 0.9195 0.9200
3185.148550 0.9205 0.9210 0.9220 0.9230 0.9235
3189.792529 0.9240 0.9245 0.9250 0.9255 0.9260
3194.436508 0.9265 0.9270 0.9270 0.9270 0.9275
3199.080487 0.9280 0.9280 0.9280 0.9290 0.9300
3203.724466 0.9300 0.9300 0.9300 0.9300 0.9300
3208.368445 0.9300 0.9300 0.9300 0.9290 0.9280
3213.012424 0.9280 0.9280 0.9280 0.9280 0.9275
3217.656402 0.9270 0.9270 0.9270 0.9270 0.9270
3222.300381 0.9270 0.9270 0.9275 0.9280 0.9280
3226.944360 0.9280 0.9280 0.9280 0.9280 0.9280
3231.588339 0.9290 0.9300 0.9300 0.9300 0.9305
3236.232318 0.9310 0.9315 0.9320 0.9320 0.9320
3240.876297 0.9325 0.9330 0.9330 0.9330 0.9335
3245.520276 0.9340 0.9340 0.9340 0.9345 0.9350
3250.164254 0.9350 0.9350 0.9360 0.9370 0.9370
3254.808233 0.9370 0.9375 0.9380 0.9380 0.9380
3259.452212 0.9385 0.9390 0.9390 0.9390 0.9395
3264.096191 0.9400 0.9400 0.9400 0.9400 0.9400
3268.740170 0.9405 0.9410 0.9410 0.9410 0.9410
3273.384149 0.9410 0.9415 0.9420 0.9420 0.9420
3278.028128 0.9420 0.9421 0.9431 0.9440 0.9440
3282.672107 0.9440 0.9440 0.9441 0.9451 0.9460
3287.316085 0.9460 0.9460 0.9460 0.9460 0.9460
3291.960064 0.9460 0.9465 0.9470 0.9470 0.9470
3296.604043 0.9470 0.9470 0.9475 0.9480 0.9480
3301.248022 0.9480 0.9480 0.9480 0.9480 0.9480
3305.892001 0.9480 0.9480 0.9480 0.9480 0.9480
3310.535980 0.9480 0.9480 0.9480 0.9480 0.9480
3315.179959 0.9480 0.9480 0.9480 0.9480 0.9480
3319.823937 0.9480 0.9480 0.9480 0.9480 0.9480
3324.467916 0.9480 0.9480 0.9480 0.9480 0.9480
3329.111895 0.9480 0.9480 0.9480 0.9480 0.9479
3333.755874 0.9474 0.9470 0.9470 0.9470 0.9470
3338.399853 0.9470 0.9470 0.9470 0.9470 0.9470
3343.043832 0.9470 0.9470 0.9470 0.9470 0.9470
3347.687811 0.9470 0.9470 0.9470 0.9470 0.9470
3352.331789 0.9470 0.9470 0.9470 0.9470 0.9470
3356.975768 0.9470 0.9470 0.9470 0.9470 0.9470
3361.619747 0.9470 0.9470 0.9470 0.9469 0.9464
3366.263726 0.9460 0.9460 0.9460 0.9460 0.9460
3370.907705 0.9460 0.9460 0.9460 0.9460 0.9460
3375.551684 0.9460 0.9460 0.9460 0.9460 0.9460
3380.195663 0.9460 0.9460 0.9460 0.9460 0.9460
3384.839642 0.9460 0.9460 0.9460 0.9460 0.9460
3389.483620 0.9460 0.9460 0.9460 0.9460 0.9460
3394.127599 0.9460 0.9460 0.9460 0.9460 0.9460
3398.771578 0.9460 0.9460 0.9460 0.9460 0.9460
3403.415557 0.9460 0.9460 0.9460 0.9460 0.9460
3408.059536 0.9460 0.9460 0.9460 0.9460 0.9460
3412.703515 0.9461 0.9466 0.9470 0.9470 0.9470
3417.347494 0.9470 0.9470 0.9470 0.9470 0.9470
3421.991472 0.9470 0.9470 0.9471 0.9476 0.9480
3426.635451 0.9480 0.9480 0.9480 0.9480 0.9480
3431.279430 0.9480 0.9480 0.9480 0.9480 0.9481
3435.923409 0.9486 0.9490 0.9490 0.9492 0.9502
3440.567388 0.9510 0.9510 0.9511 0.9516 0.9520
3445.211367 0.9520 0.9521 0.9526 0.9530 0.9530
3449.855346 0.9530 0.9530 0.9530 0.9530 0.9531
3454.499324 0.9536 0.9540 0.9540 0.9540 0.9540
3459.143303 0.9540 0.9540 0.9541 0.9546 0.9550
3463.787282 0.9550 0.9550 0.9550 0.9550 0.9550
3468.431261 0.9551 0.9556 0.9560 0.9560 0.9560
3473.075240 0.9560 0.9560 0.9560 0.9562 0.9572
3477.719219 0.9580 0.9580 0.9580 0.9580 0.9580
3482.363198 0.9580 0.9581 0.9586 0.9590 0.9590
3487.007177 0.9590 0.9590 0.9591 0.9596 0.9600
3491.651155 0.9600 0.9600 0.9600 0.9599 0.9594
3496.295134 0.9591 0.9596 0.9600 0.9600 0.9600
3500.939113 0.9600 0.9600 0.9600 0.9600 0.9600
3505.583092 0.9600 0.9600 0.9600 0.9600 0.9600
3510.227071 0.9600 0.9600 0.9600 0.9600 0.9600
3514.871050 0.9600 0.9600 0.9600 0.9600 0.9600
3519.515029 0.9600 0.9600 0.9600 0.9600 0.9600
3524.159007 0.9600 0.9600 0.9600 0.9600 0.9600
3528.802986 0.9600 0.9600 0.9600 0.9600 0.9600
3533.446965 0.9600 0.9600 0.9600 0.9600 0.9600
3538.090944 0.9600 0.9600 0.9600 0.9600 0.9600
3542.734923 0.9600 0.9600 0.9600 0.9600 0.9600
3547.378902 0.9600 0.9600 0.9600 0.9600 0.9600
3552.022881 0.9600 0.9600 0.9601 0.9606 0.9610
3556.666859 0.9610 0.9610 0.9610 0.9610 0.9610
3561.310838 0.9610 0.9610 0.9610 0.9610 0.9612
3565.954817 0.9617 0.9620 0.9620 0.9620 0.9620
3570.598796 0.9620 0.9620 0.9620 0.9620 0.9620
3575.242775 0.9620 0.9622 0.9627 0.9630 0.9630
3579.886754 0.9630 0.9630 0.9630 0.9630 0.9630
3584.530733 0.9630 0.9630 0.9630 0.9630 0.9630
3589.174711 0.9630 0.9630 0.9630 0.9630 0.9630
3593.818690 0.9630 0.9630 0.9630 0.9630 0.9630
3598.462669 0.9628 0.9623 0.9620 0.9620 0.9620
3603.106648 0.9620 0.9620 0.9620 0.9620 0.9620
3607.750627 0.9620 0.9620 0.9620 0.9620 0.9620
3612.394606 0.9620 0.9620 0.9620 0.9620 0.9620
3617.038585 0.9620 0.9620 0.9620 0.9620 0.9620
3621.682564 0.9620 0.9620 0.9620 0.9620 0.9620
3626.326542 0.9620 0.9620 0.9620 0.9620 0.9620
3630.970521 0.9620 0.9620 0.9620 0.9620 0.9620
3635.614500 0.9620 0.9620 0.9620 0.9620 0.9620
3640.258479 0.9620 0.9620 0.9620 0.9620 0.9620
3644.902458 0.9620 0.9620 0.9618 0.9613 0.9610
3649.546437 0.9610 0.9610 0.9610 0.9610 0.9610
3654.190416 0.9610 0.9610 0.9610 0.9610 0.9610
3658.834394 0.9610 0.9608 0.9603 0.9600 0.9600
3663.478373 0.9600 0.9600 0.9600 0.9600 0.9600
3668.122352 0.9600 0.9600 0.9600 0.9598 0.9593
3672.766331 0.9590 0.9590 0.9590 0.9590 0.9590
3677.410310 0.9590 0.9590 0.9590 0.9590 0.9590
3682.054289 0.9590 0.9590 0.9590 0.9590 0.9590
3686.698268 0.9590 0.9590 0.9590 0.9590 0.9590
3691.342246 0.9590 0.9590 0.9590 0.9590 0.9590
3695.986225 0.9590 0.9590 0.9590 0.9590 0.9590
3700.630204 0.9590 0.9590 0.9588 0.9583 0.9580
3705.274183 0.9580 0.9580 0.9580 0.9580 0.9580
3709.918162 0.9580 0.9580 0.9580 0.9580 0.9576
3714.562141 0.9566 0.9560 0.9560 0.9560 0.9560
3719.206120 0.9560 0.9560 0.9560 0.9560 0.9558
3723.850099 0.9553 0.9550 0.9550 0.9550 0.9550
3728.494077 0.9548 0.9543 0.9540 0.9540 0.9540
3733.138056 0.9540 0.9540 0.9540 0.9540 0.9540
3737.782035 0.9540 0.9540 0.9540 0.9540 0.9540
3742.426014 0.9540 0.9540 0.9540 0.9540 0.9540
3747.069993 0.9540 0.9540 0.9540 0.9540 0.9540
3751.713972 0.9540 0.9540 0.9540 0.9538 0.9533
3756.357951 0.9530 0.9530 0.9530 0.9530 0.9530
3761.001929 0.9530 0.9530 0.9530 0.9530 0.9530
3765.645908 0.9530 0.9530 0.9530 0.9530 0.9530
3770.289887 0.9530 0.9530 0.9530 0.9530 0.9530
3774.933866 0.9530 0.9530 0.9530 0.9530 0.9528
3779.577845 0.9523 0.9520 0.9520 0.9520 0.9520
3784.221824 0.9520 0.9520 0.9520 0.9520 0.9520
3788.865803 0.9520 0.9520 0.9520 0.9518 0.9513
3793.509781 0.9510 0.9510 0.9510 0.9510 0.9510
3798.153760 0.9510 0.9510 0.9510 0.9510 0.9510
3802.797739 0.9505 0.9495 0.9490 0.9490 0.9490
3807.441718 0.9490 0.9490 0.9490 0.9487 0.9482
3812.085697 0.9480 0.9480 0.9480 0.9480 0.9480
3816.729676 0.9480 0.9477 0.9472 0.9470 0.9470
3821.373655 0.9470 0.9470 0.9467 0.9462 0.9460
3826.017634 0.9460 0.9460 0.9460 0.9460 0.9460
3830.661612 0.9457 0.9452 0.9450 0.9450 0.9447
3835.305591 0.9442 0.9440 0.9440 0.9440 0.9440
3839.949570 0.9440 0.9440 0.9440 0.9440 0.9440
3844.593549 0.9440 0.9440 0.9440 0.9440 0.9440
3849.237528 0.9440 0.9440 0.9440 0.9440 0.9440
3853.881507 0.9440 0.9440 0.9440 0.9440 0.9440
3858.525486 0.9440 0.9440 0.9440 0.9440 0.9440
3863.169464 0.9440 0.9440 0.9440 0.9440 0.9440
3867.813443 0.9440 0.9440 0.9440 0.9440 0.9440
3872.457422 0.9440 0.9443 0.9448 0.9450 0.9450
3877.101401 0.9450 0.9450 0.9450 0.9450 0.9450
3881.745380 0.9450 0.9450 0.9450 0.9453 0.9458
3886.389359 0.9460 0.9460 0.9460 0.9460 0.9460
3891.033338 0.9460 0.9460 0.9460 0.9460 0.9460
3895.677316 0.9463 0.9468 0.9470 0.9470 0.9470
3900.321295 0.9470 0.9470 0.9470 0.9470 0.9470
3904.965274 0.9470 0.9470 0.9470 0.9470 0.9470
3909.609253 0.9470 0.9470 0.9470 0.9470 0.9470
3914.253232 0.9470 0.9470 0.9470 0.9470 0.9470
3918.897211 0.9470 0.9470 0.9470 0.9470 0.9470
3923.541190 0.9470 0.9470 0.9467 0.9462 0.9460
3928.185169 0.9460 0.9460 0.9460 0.9460 0.9460
3932.829147 0.9457 0.9452 0.9450 0.9450 0.9450
3937.473126 0.9450 0.9450 0.9450 0.9447 0.9442
3942.117105 0.9440 0.9440 0.9440 0.9440 0.9434
3946.761084 0.9424 0.9420 0.9420 0.9417 0.9412
3951.405063 0.9410 0.9410 0.9410 0.9410 0.9407
3956.049042 0.9402 0.9400 0.9400 0.9400 0.9400
3960.693021 0.9397 0.9392 0.9390 0.9390 0.9390
3965.336999 0.9390 0.9387 0.9382 0.9377 0.9372
3969.980978 0.9370 0.9370 0.9370 0.9370 0.9370
3974.624957 0.9370 0.9370 0.9370 0.9370 0.9370
3979.268936 0.9373 0.9378 0.9380 0.9380 0.9380
3983.912915 0.9380 0.9380 0.9380 0.9383 0.9388
3988.556894 0.9390 0.9390 0.9390 0.9390 0.9390
3993.200873 0.9390 0.9393 0.9398 0.9403 0.9408
3997.844851 0.9410 0.9410 0.9413 0.9418 0.9420
4002.488830 0.9420 0.9427 0.9437 0.9440 0.9440
4007.132809 0.9443 0.9448
##END=
