##TITLE=Ethyl Acetate
##JCAMP-DX=4.24
##DATA TYPE=INFRARED SPECTRUM
##CLASS=IUPAC A
##ORIGIN=NIST, Anayltical Chemistry Division, 301-975-3108
##OWNER=COPYRIGHT (C) 1998 by the U.S. Secretary of Commerce
##DATE=98/10/1
##$SPECTRA VERSION=1.00
##$UNCERTAINTY IN Y=2.0 % relative (B=1.0E-04,C=6.3E-10,D=2.7E-14)
##CAS NAME=Ethyl Ester Acetic Acid
##CAS REGISTRY NO=141-78-6
##MOLFORM=C H3 C O2 C H2 C H3
##MP=-83.58 C
##BP=77.06 C
##$NIST SOURCE=QUANT-IR
##SPECTROMETER/DATA SYSTEM=IFS66V (Bruker)
##INSTRUMENT PARAMETERS=KBr Beam splitter; MCT Detector; Multipass cell
##STATE=gas
##SAMPLE DESCRIPTION=Ethyl Acetate Primary Gas Standard
##PRESSURE=101.3 kPa
##TEMPERATURE=23 C
##SAMPLING PROCEDURE=1 L/min Flow
##RESOLUTION=0.9640
##DATA PROCESSING=3-Term B-H Apodization
##XUNITS=cm-1
##YUNITS=(micromol/mol)-1m-1 (base 10)
##XFACTOR=1.0
##YFACTOR=18.189E-13
##DELTAX=0.4820
##FIRSTX=575.169
##LASTX=3975.077
##FIRSTY=2.38E-07
##MAXX=3974.59
##MINX=575.17
##MAXY=.0019927
##MINY=-3.83E-06
##NPOINTS=7053
##XYDATA=(X++(Y..Y))
575.17 130860 375524 640730 651838 455064 406852
577.58 691896 908380 873686 837362 893680 997382
580.47 1165170 1357496 1533080 1679090 1716278 1818146
583.37 2077332 2284172 2297542 2328912 2565096 2912684
586.26 3287880 3580734 3735112 3865170 4091340 4391744
589.15 4725164 4974630 5117938 5307446 5457692 5663536
592.04 6086590 6419356 6599400 6866174 7218898 7579366
594.94 7990124 8320478 8495656 8583206 8753598 9180118
597.83 9577606 9713968 9828656 10090020 10404670 10790550
600.72 11228630 11706450 12306030 13149150 14329660 15357460
603.61 15953800 16637690 17568950 18454380 19127630 19601240
606.51 19621630 18970490 18087210 17420620 16985610 16663930
609.40 16370210 16189540 16162610 16095920 15880240 15576410
612.29 15325510 15173900 15037450 14945770 14971290 15057540
615.18 15109050 15208040 15428240 15684740 15942500 16228800
618.08 16571440 16987440 17474310 18047340 18685340 19344860
620.97 20060950 20856020 21724640 22629300 23635760 24714580
623.86 25642180 26466560 27252350 27844070 28231590 28484300
626.76 28583090 28491060 28187890 27611930 26745470 25791940
629.65 24925570 24272090 24175810 24848800 25872990 26282550
632.54 25503780 24106910 23108060 22832960 23008970 23364900
635.43 23706930 23962610 24247930 24582290 24431300 23457360
638.33 22296790 21553660 21112070 20770350 20540120 20323410
641.22 19938540 19357080 18641690 17831400 16932440 15979190
644.11 15024120 14013560 12895850 11773110 10691380 9649598
647.00 8704462 7837532 7011422 6265220 5599686 4988874
649.90 4443174 3987206 3567262 3178836 2865290 2600292
652.79 2362122 2152008 1943530 1721416 1577480 1536230
655.68 1488038 1427280 1342384 1249228 1190184 1127400
658.58 1083728 1041336 964380 900578 868492 829820
661.47 774772 708308 674668 693134 662116 569464
664.36 498542 455292 447452 514912 542808 503340
667.25 505106 479106 397858 363316 369524 396080
670.15 434834 429294 402802 399314 385262 350564
673.04 335170 348258 336746 320058 294264 238108
675.93 234878 296536 320752 304446 299510 269738
678.82 236962 221774 191134 174426 181334 159464
681.72 109848 94536 126928 189462 214370 197676
684.61 195402 172768 154170 155076 172478 199236
687.50 196926 190420 183968 153952 126388 140044
690.40 169106 188632 169038 109110 107622 151008
693.29 164730 127846 79380 93404 177240 231062
696.18 207456 184308 159704 125046 123524 114998
699.07 94666 72950 31934 21074 50344 80256
701.97 90838 92268 95852 106554 134664 158878
704.86 168068 154898 98586 63612 88636 130700
707.75 163756 172926 150610 138252 156682 164902
710.64 188780 213856 184422 172258 200886 221556
713.54 226656 201602 172880 200832 262260 267918
716.43 231254 238342 258380 240010 217646 224520
719.32 250954 279396 279572 263382 256704 253586
722.22 265094 277744 273020 266098 269024 255694
725.11 238614 264142 315808 335368 303830 266240
728.00 270504 297784 313432 348788 389942 394328
730.89 386900 381360 380588 394792 409530 416924
733.79 425072 438512 441158 414896 410866 439062
736.68 469880 501136 517152 512942 506934 504216
739.57 499332 506334 534024 567846 597824 627060
742.46 646136 649748 646920 649148 688026 743416
745.36 773292 804092 851754 891342 904008 899846
748.25 916442 971854 1039288 1099220 1146250 1184566
751.14 1239754 1291300 1334218 1404634 1467560 1498258
754.04 1554068 1647138 1709892 1768516 1891990 2034852
756.93 2122320 2176244 2269194 2400112 2505554 2599704
759.82 2733956 2901610 3057446 3207796 3358034 3500108
762.71 3673390 3869206 4044764 4213358 4408308 4623426
765.61 4850464 5060030 5252412 5471588 5716084 5964722
768.50 6231550 6527718 6838360 7128864 7402250 7698840
771.39 8012882 8332708 8675636 9025872 9334550 9642646
774.28 10011460 10423420 10816610 11186790 11537690 11841540
777.18 12114590 12361730 12592260 12836730 13095370 13310090
780.07 13421680 13447150 13446260 13432270 13397150 13314950
782.96 13170860 13015030 12918030 12977450 13182340 13270250
785.86 13185640 13264460 13627440 14063100 14409030 14633680
788.75 14742860 14769190 14718650 14609270 14493440 14362930
791.64 14205550 14039000 13849500 13635480 13384940 13121690
794.53 12870890 12592400 12280420 11983650 11687080 11363630
797.43 11067100 10788620 10480990 10147220 9854832 9618788
800.32 9377954 9138166 8881518 8615672 8390310 8196282
803.21 8015124 7821534 7611790 7429730 7268784 7094282
806.10 6926670 6743386 6550064 6447338 6437552 6466538
809.00 6435624 6272536 6030498 5790318 5622478 5519856
811.89 5436362 5345810 5243698 5171310 5128604 5087168
814.78 5063240 5049280 5018816 5005248 5027946 5057694
817.68 5067218 5088082 5131934 5151822 5178836 5279470
820.57 5446218 5602222 5707728 5798912 5924764 6100420
823.46 6286826 6449160 6622922 6834310 7078746 7346964
826.35 7612628 7834630 8070948 8363980 8672162 9003762
829.25 9366044 9750370 10158700 10553540 10920780 11305490
832.14 11755260 12260200 12749750 13215280 13739630 14304690
835.03 14809840 15311710 15876760 16466060 17050360 17605090
837.92 18125080 18647050 19163250 19657740 20163170 20614390
840.82 20945240 21187020 21379130 21545960 21662330 21711920
843.71 21661330 21551420 21513020 21598960 21747390 21881620
846.60 21984960 22102830 22285090 22505770 22707320 22844300
849.50 22892800 22900050 22905150 22908500 22884350 22845970
852.39 22823270 22794900 22772380 22752650 22680870 22561210
855.28 22437700 22274230 22051680 21790620 21461760 21069830
858.17 20651970 20199280 19698380 19144480 18545060 17932120
861.07 17325770 16717700 16083340 15427940 14780300 14173790
863.96 13620050 13079980 12540470 12008880 11469520 10950830
866.85 10460870 9979688 9543646 9164928 8767570 8347104
869.74 7987792 7684212 7377990 7047448 6741374 6472280
872.64 6197776 5920054 5671486 5441880 5197746 4963788
875.53 4752714 4563466 4394118 4230700 4074750 3907100
878.42 3728914 3574416 3457966 3358028 3248390 3126808
881.31 3006360 2921906 2851610 2762890 2692468 2649448
884.21 2598384 2527126 2448606 2399170 2378484 2350052
887.10 2309452 2276892 2262716 2266396 2260846 2240838
889.99 2254676 2306148 2364800 2417100 2462794 2493904
892.89 2520354 2567996 2636526 2733080 2853720 2972802
895.78 3100446 3266826 3464882 3675534 3885336 4109094
898.67 4392190 4728798 5071392 5422410 5829570 6297884
901.56 6785034 7302226 7874344 8448820 9024098 9654354
904.46 10292220 10894490 11488540 12078010 12657210 13192080
907.35 13646360 14055950 14426400 14737540 14995880 15193460
910.24 15328500 15469600 15647490 15901380 16336740 17037100
913.13 18086640 19157540 19472070 19047700 18513170 18180530
916.03 18112820 18265540 18558790 18906110 19274670 19662630
918.92 20042680 20392020 20710150 20990200 21232490 21447900
921.81 21635300 21794710 21944700 22073440 22199060 22326990
924.71 22475500 22671560 22880240 23096860 23331690 23595530
927.60 23864190 24109060 24368090 24624320 24827070 24981300
930.49 25067400 25032870 24879670 24673160 24377450 23924600
933.38 23375960 22771900 22074420 21294210 20541220 19930670
936.28 19502930 19315410 19436640 19897210 20642360 21269510
939.17 20974250 19446930 17583270 16480960 16327930 16718760
942.06 17305060 17925410 18481350 18885460 19077770 19055060
944.95 18832810 18391850 17735840 16905610 15952940 14895650
947.85 13759280 12616080 11511680 10451730 9434210 8497578
950.74 7663146 6908178 6242416 5669432 5178276 4759166
953.63 4406332 4125880 3902712 3715018 3552682 3411820
956.53 3284934 3165194 3065212 3005560 2976134 2941674
959.42 2893332 2839842 2797538 2786878 2776298 2750536
962.31 2746280 2759532 2765502 2766454 2773360 2786480
965.20 2804396 2822620 2849898 2884278 2911368 2942744
968.10 2988974 3041212 3102808 3175836 3238412 3303552
970.99 3384218 3465528 3544164 3626732 3704994 3779620
973.88 3867218 3959274 4063504 4178866 4295658 4419888
976.77 4558610 4721520 4891242 5037532 5173872 5322402
979.67 5480106 5651090 5848154 6047024 6234436 6445486
982.56 6687578 6942434 7193802 7452656 7728272 8016822
985.45 8320382 8626424 8929814 9256758 9608952 9955878
988.35 10299950 10649930 10988340 11313640 11635000 11947580
991.24 12242650 12526070 12794550 13037350 13243810 13409650
994.13 13553880 13671610 13763920 13854800 13923640 13962440
997.02 13978140 13982050 13982160 13973780 13973780 13985080
999.92 13993830 14021780 14109790 14231320 14262510 14184540
1002.81 14123220 14116680 14102880 14083220 14108730 14170440
1005.70 14228280 14255280 14251560 14241160 14217350 14148350
1008.59 14041010 13931420 13802060 13629030 13449630 13281470
1011.49 13104590 12927080 12778250 12648130 12527150 12440940
1014.38 12399490 12403740 12434780 12491720 12595390 12732130
1017.27 12900420 13125990 13392270 13689980 14033030 14401200
1020.17 14777500 15188890 15657310 16171650 16724770 17319530
1023.06 17980090 18715610 19526800 20396710 21327900 22358580
1025.95 23476380 24694830 26049990 27518410 29083180 30767840
1028.84 32593300 34572740 36687670 38958800 41417560 44067030
1031.74 46928420 50005620 53291360 56787700 60469320 64348700
1034.63 68467590 72842900 77461430 82293340 87331200 92612370
1037.52 98146740 103922900 109942600 116226300 122722700 129432800
1040.41 136433000 143676300 151138100 158840300 166695600 174622000
1043.31 182563400 190405600 198090100 205638400 213126500 220616000
1046.20 228087200 235447800 242592900 249470300 256005400 262084700
1049.09 267604600 272586100 277012000 280817800 284136100 287129700
1051.99 289740600 291816000 293344000 294517900 295448300 296309000
1054.88 297382600 298758200 300443600 302359600 304175800 305266000
1057.77 304734100 302134600 298292300 294789700 292840400 291912000
1060.66 289900800 286607300 283524900 280589200 277073700 272738600
1063.56 267404900 260975500 253572600 245382800 236523600 227127000
1066.45 217479500 207802800 198194200 188703600 179273700 169909500
1069.34 160783100 152141500 144143500 136819800 130190500 124157600
1072.23 118594600 113516800 108939500 104782100 100975100 97468120
1075.13 94158830 91057310 88185330 85478650 82938350 80554840
1078.02 78309990 76169840 74122970 72196830 70387670 68690900
1080.91 67080480 65554530 64158810 62910710 61793770 60790350
1083.81 59899600 59124140 58473100 57953010 57548660 57256980
1086.70 57111120 57109700 57189200 57336900 57584070 57947750
1089.59 58430670 59031000 59735990 60498850 61270060 62098470
1092.48 63022360 63993900 64930810 65775440 66567390 67367540
1095.38 68216940 69119980 69917110 70336650 70256960 69760910
1098.27 69091130 68448790 67862090 67297550 66776140 66427800
1101.16 66404720 66788880 67709270 69323890 71667290 74201250
1104.05 75108140 72691340 68207940 64525920 62670750 62074290
1106.95 62160440 62569040 63086140 63610520 64031730 64277880
1109.84 64309160 64056290 63513700 62695400 61586350 60200800
1112.73 58571300 56738570 54727140 52595500 50406410 48183280
1115.63 45963910 43788260 41670280 39645810 37761510 36014250
1118.52 34409270 32971330 31688310 30522160 29425040 28336200
1121.41 27242370 26293410 25632600 25205970 24908100 24668620
1124.30 24424710 24130840 23762390 23312430 22792600 22200510
1127.20 21526220 20792170 20018670 19224910 18444790 17688810
1130.09 16949430 16210890 15497900 14827100 14191960 13617500
1132.98 13093030 12575090 12080220 11637750 11239720 10872940
1135.87 10529140 10209630 9934446 9710878 9496272 9295560
1138.77 9139620 8985560 8827624 8697106 8577090 8471398
1141.66 8394020 8330754 8268034 8215034 8181962 8163196
1144.55 8163922 8166442 8163092 8179608 8205802 8237020
1147.45 8277418 8303784 8309992 8332944 8385602 8436700
1150.34 8488018 8561870 8640566 8694140 8725652 8772470
1153.23 8842526 8913948 8988990 9066184 9141256 9221936
1156.12 9316418 9435684 9559784 9666496 9801108 9991882
1159.02 10202990 10437400 10723340 11063510 11402950 11560670
1161.91 11310240 10813880 10466870 10336500 10299540 10283360
1164.80 10256880 10231650 10247610 10284820 10297000 10305130
1167.69 10331140 10350040 10366460 10395180 10433180 10464130
1170.59 10482870 10513300 10555000 10593840 10616520 10601760
1173.48 10571460 10563930 10570390 10575610 10580480 10579300
1176.37 10565150 10546350 10544490 10584730 10665800 10752860
1179.26 10838830 10938720 11057980 11197210 11340570 11466050
1182.16 11577190 11698140 11834740 11972230 12118380 12290210
1185.05 12468650 12651090 12859320 13084130 13321860 13592910
1187.94 13889920 14203590 14541640 14921150 15354250 15813780
1190.84 16293020 16815630 17403550 18046270 18725350 19450060
1193.73 20216380 21033320 21916850 22881280 23930370 25051820
1196.62 26229790 27468830 28793310 30197030 31686980 33275110
1199.51 34950400 36707640 38533010 40453590 42475830 44564320
1202.41 46713230 48930570 51218900 53588470 56041150 58583910
1205.30 61218580 63922250 66692790 69519580 72393980 75328570
1208.19 78337740 81448890 84696940 88072660 91540710 95104920
1211.08 98781620 102571300 106455100 110393800 114401200 118539600
1213.98 122799900 127094400 131409300 135841000 140528400 145662100
1216.87 151432400 157928900 165109000 172925600 181445400 190762300
1219.76 200820600 211519700 222914600 235227000 248662300 262809600
1222.66 277370000 293071100 310520500 329664900 350332800 372430600
1225.55 395844800 420456300 446182300 472895600 500395300 528535500
1228.44 557116100 585942800 614773300 643333600 671497000 698965700
1231.33 725307800 750396200 774116000 796204000 816444900 834907200
1234.23 851750800 867239400 881775800 895976700 910747900 926624800
1237.12 943838500 962737900 983545900 1006327000 1030997000 1056768000
1240.01 1080142000 1093783000 1090908000 1070853000 1042439000 1022264000
1242.90 1019779000 1029458000 1042573000 1056449000 1070766000 1083459000
1245.80 1092279000 1095534000 1091509000 1079751000 1062002000 1039058000
1248.69 1011270000 980698600 948243500 913488200 876891300 839832700
1251.58 803654400 769138800 736710000 706745800 679402700 654077200
1254.48 630047000 606937500 584226000 561503900 538846300 516300500
1257.37 493673900 470875800 448012600 425129900 402251400 379395100
1260.26 356620300 334090000 312055500 290853000 270822400 252278300
1263.15 235689200 221641600 210657300 202947800 197665800 192259200
1266.05 184682900 175900500 167071600 158000100 150162100 145279800
1268.94 142744000 141502900 141034800 140794800 140291900 139341500
1271.83 137872800 135780600 133038600 129657800 125638100 121106800
1274.72 116274500 111141800 105519600 99602870 93908900 88614740
1277.62 83623290 78898080 74477680 70384400 66590800 63063370
1280.51 59800780 56789650 54017080 51477530 49131910 46972770
1283.40 45010660 43232240 41624380 40160660 38846100 37735670
1286.30 36814770 36032830 35394720 34900740 34523390 34259660
1289.19 34129980 34126710 34221520 34398060 34651920 34983000
1292.08 35401290 35898810 36449760 37061080 37729310 38420730
1294.97 39127010 39870310 40662700 41475360 42290370 43114270
1297.87 43931120 44713470 45488440 46288600 47089150 47891910
1300.76 48739050 49648410 50626680 51666700 52671590 53515460
1303.65 54028740 53876210 53082310 52140190 51397310 50982440
1306.54 50898940 51050950 51370640 51853850 52489220 53138080
1309.44 53486220 53253450 52486620 51430450 50270600 49180530
1312.33 48256190 47449740 46731220 46120380 45585370 45053760
1315.22 44452640 43732010 42896560 41981820 40995020 39891710
1318.12 38629640 37247110 35788460 34278800 32755800 31214770
1321.01 29657520 28114180 26602090 25145660 23777570 22484870
1323.90 21244580 20066530 18963960 17938970 16990300 16127330
1326.79 15342950 14629230 13986800 13401540 12852880 12337940
1329.69 11874080 11451050 11064750 10721200 10402950 10118900
1332.58 9878538 9672232 9491616 9322688 9169498 9048938
1335.47 8948942 8847004 8771400 8731594 8693750 8648528
1338.36 8630378 8662430 8702898 8754636 8885404 9066670
1341.26 9256764 9476490 9727244 10019760 10370260 10784810
1344.15 11270200 11827970 12456050 13163520 13977110 14899550
1347.04 15916600 17026980 18260330 19643880 21169760 22825770
1349.94 24588910 26474830 28507950 30650380 32871700 35169300
1352.83 37536230 39945090 42361160 44750500 47070560 49305620
1355.72 51406710 53309830 55052960 56663640 58194810 59791080
1358.61 61604820 63850610 66760380 70607440 75800060 82419440
1361.51 89152330 93847810 96847880 100912100 106882200 113668800
1364.40 120347300 126279400 131708200 137720700 144740900 152304900
1367.29 159891900 167158600 173867600 179850300 184937700 188938700
1370.18 191773200 193626500 194715500 195115500 194989200 194765100
1373.08 194806600 195188900 195910300 197006300 198168600 198907100
1375.97 199275500 198454300 195268500 191466300 188390700 186088300
1378.86 185731900 187347900 189887500 192715000 195475000 197964400
1381.76 199996900 201193900 201264900 200207900 198020300 194620100
1384.65 190091200 184578900 178168400 170977400 163132200 155070400
1387.54 147316800 139650700 131948800 124426200 117209500 110400800
1390.43 104030300 98124820 92716490 87780650 83309460 79321840
1393.33 75730660 72585970 70291490 68594510 66734620 64471340
1396.22 61979720 59514940 57280730 55353930 53574480 52007490
1399.11 50946360 50194120 49438220 48685900 48038800 47533050
1402.00 47125540 46752050 46353870 45905980 45354180 44732440
1404.90 44154860 43518230 42737600 41868310 40952240 40006040
1407.79 39037960 38089360 37173400 36266290 35397990 34593320
1410.68 33835130 33128500 32505400 31953700 31451190 30992580
1413.58 30565060 30179070 29826920 29487500 29189430 28944480
1416.47 28682210 28437940 28298810 28092250 27576480 27110240
1419.36 27358940 27902720 28167590 28339120 28556050 28785980
1422.25 28954800 28977570 28876810 28826950 28939440 29140430
1425.15 29359880 29598730 29857790 30129450 30405240 30683560
1428.04 30965230 31209690 31365950 31544510 31872260 32224680
1430.93 32508850 32775340 33044030 33284510 33509280 33742820
1433.82 33980340 34228500 34444560 34515360 34279510 34145820
1436.72 34721140 35487730 35905000 36172280 36448540 36735240
1439.61 37034390 37347100 37641610 37895680 38143970 38388360
1442.50 38589680 38764610 38958710 39181760 39410220 39638080
1445.40 39851710 40047440 40235620 40353220 40446590 40765760
1448.29 41241430 41639180 41999970 42408900 42906810 43574340
1451.18 44441680 45522620 46753700 47634040 47600700 46837260
1454.07 45962710 45254920 44728500 44031130 42945240 42566060
1456.97 43257760 43737270 43924880 44333060 44848900 45394460
1459.86 45773500 45832290 45640810 45367310 45170360 45113040
1462.75 45209580 45401160 45339240 44845720 44517040 44529740
1465.64 44464420 44314870 44203480 44159830 44231540 44445190
1468.54 44781350 45253920 45749830 45950390 45635580 44815020
1471.43 43865040 43316590 42765830 42005370 41827170 42048510
1474.32 42059050 41910750 41634750 41396260 41412000 41449120
1477.21 41311910 41064700 40744030 40361520 39936240 39459900
1480.11 38903530 38287200 37677500 37054700 36335600 35527780
1483.00 34680540 33798210 32860510 31881450 30930710 30080140
1485.89 29349810 28638800 27962720 27479970 27101640 26722520
1488.79 26369830 26130970 26023090 25924860 25902940 25897910
1491.68 25729160 25424010 25037830 24608370 24151160 23649800
1494.57 23067770 22215410 21127680 20582010 20563990 20297540
1497.46 19722160 18979180 18370370 18078910 17785870 17367250
1500.36 16919850 16471430 16050240 15685480 15331280 14958900
1503.25 14584700 14222780 13718940 12808140 12120980 12071130
1506.14 11649780 11173930 11474250 11728210 11594660 11468520
1509.03 11312410 11143740 11029450 10894910 10678900 10340800
1511.93 10116680 10129900 10118190 9993502 9798138 9586908
1514.82 9473390 9372200 9149162 8876686 8669268 8669620
1517.71 8814756 8853386 8749758 8512784 8237068 7863644
1520.61 7346940 7419812 7845500 7875562 7918472 8082562
1523.50 8112128 8000298 7719094 7468660 7588038 7787432
1526.39 7728624 7598328 7553032 7490648 7452814 7479574
1529.28 7482008 7459746 7418230 7316826 7217804 7166902
1532.18 7037214 6791564 6604170 6674252 6921066 7048248
1535.07 7066116 7078148 7087662 7075308 7034328 6879788
1537.96 6305932 5620542 5748044 6051710 6149188 6630660
1540.85 6840050 6477076 6472624 6974424 7264126 7340400
1543.75 7354944 7175422 7047674 7249556 7474470 7536040
1546.64 7548010 7544716 7518002 7488598 7443468 7358404
1549.53 7330238 7468930 7678300 7806074 7825034 7760356
1552.43 7668572 7517618 7139004 6873174 7179820 7584314
1555.32 7724168 7739332 7599606 7242032 6861422 6452006
1558.21 6477218 6981024 6841980 6465532 6963502 7728308
1561.10 7980316 7963102 7911814 7854266 7763928 7625332
1564.00 7407848 7227670 7173934 7112700 6983066 6845144
1566.89 6716642 6599990 6467918 6288914 6021982 5873986
1569.78 6055132 6187982 6038498 5834194 5701432 5642878
1572.67 5618244 5597968 5573334 5531514 5370446 4728274
1575.57 3920632 4119224 4839522 5038050 4922700 4783236
1578.46 4641746 4488072 4323514 4159522 4020618 3908694
1581.35 3795394 3678664 3570054 3479210 3412302 3350758
1584.25 3272496 3198684 3151500 3114376 3072158 3038832
1587.14 3017698 2996742 2972424 2950378 2927786 2907274
1590.03 2888368 2867330 2842178 2827350 2818308 2807332
1592.92 2795036 2774838 2755922 2755184 2762986 2763286
1595.82 2758086 2776526 2799962 2791736 2770520 2767504
1598.71 2782174 2795360 2793640 2793062 2800866 2815940
1601.60 2837658 2858462 2863478 2868414 2892486 2925922
1604.49 2954412 2981014 3011944 3039076 3050530 3075496
1607.39 3119838 3158404 3163296 3156980 3194310 3250988
1610.28 3293750 3325610 3336260 3353406 3381238 3414906
1613.17 3455908 3494220 3516000 3520292 3449526 2990374
1616.07 2320932 2511650 3308330 3708534 3790418 3825558
1618.96 3858920 3898010 3933838 3963614 3998352 4012370
1621.85 3997268 3904198 3709396 3739238 4032918 4213770
1624.74 4272120 4307718 4324140 4326370 4272814 4162780
1627.64 4183216 4334150 4431988 4457104 4463898 4472790
1630.53 4478914 4479238 4477390 4475026 4476588 4477944
1633.42 4445484 4263746 3826084 3328888 3416806 4054042
1636.31 4401974 4382116 4409778 4550918 4651016 4703494
1639.21 4740742 4754012 4768034 4805592 4841082 4873368
1642.10 4912164 4948408 4966740 4984928 4997656 4896440
1644.99 4450420 4090400 4415132 4789644 4820776 4842846
1647.89 4926316 5085832 5223476 5276018 5290874 5295336
1650.78 5228828 4736484 3857384 3349982 3420472 4122948
1653.67 4832538 5120972 5459012 5733830 5848042 5914102
1656.56 5985916 6070078 6138842 6202854 6272458 6322770
1659.46 6367712 6420544 6469072 6501324 6483932 6311928
1662.35 6217240 6463028 6729332 6819934 6873980 6937190
1665.24 6999982 7057258 7104648 7138378 7148694 7124050
1668.13 6994290 6718050 6746334 7155060 7398368 7361836
1671.03 7332002 7491640 7678208 7783376 7847676 7868968
1673.92 7740588 7374066 7244812 7667456 8103932 8269406
1676.81 8335000 8398980 8465668 8523708 8565060 8593556
1679.71 8633624 8729544 8870604 8982872 9026366 8927172
1682.60 8749490 8711736 8501180 7823416 7829856 8900964
1685.49 9685716 9925244 10042160 10123290 10169190 10249950
1688.38 10401990 10525350 10569230 10657500 10815490 10946680
1691.28 11038430 11117100 11190170 11268190 11329710 11356290
1694.17 11267550 10740640 9818026 9790242 10786780 11388800
1697.06 11465650 11510180 11539990 11383970 10803430 10169620
1699.95 10176110 10796400 11561580 12037660 12246030 12379310
1702.85 12483100 12490130 12436020 12571470 12817210 12864830
1705.74 12817190 12971300 13256420 13474920 13638030 13783160
1708.63 13918150 14038540 14176150 14387260 14631730 14846540
1711.53 15045950 15240840 15430550 15578200 15707690 15831070
1714.42 15858490 16038410 16438620 16621250 16201040 15629330
1717.31 15933950 16487700 16667870 16927550 17165260 17266380
1720.20 17395010 17631770 17962800 18319720 18681730 19131490
1723.10 19813440 20767240 21849660 22951270 24055950 25148160
1725.99 26218940 27281610 28330170 29374690 30445270 31558900
1728.88 32687990 33879980 35297440 36930890 38647390 40446940
1731.77 42365430 44168380 45937740 48392260 51139910 54161140
1734.67 58145800 62349020 66349220 70482860 74889860 79561990
1737.56 84496570 89688160 95032320 100441400 106446700 113329200
1740.45 120485100 127745700 135347900 143301400 151594900 160381200
1743.34 169778700 179713800 190113200 201000800 212448700 224501900
1746.24 237113200 250394400 264451000 279114500 294493900 310801700
1749.13 327909600 345714600 363996000 382684600 402615400 423945500
1752.02 445669100 467482600 489445600 511422900 533200600 554494100
1754.92 575057000 594489400 612178200 627836100 641279600 651800600
1757.81 658962400 662765500 663036900 659661400 652710100 642303600
1760.70 628549000 612026800 594529500 578082800 564837900 556411800
1763.59 551416400 545997800 539601500 538675300 550067300 574058900
1766.49 605872300 639589600 670401900 695673700 713815700 723780700
1769.38 725883500 721103800 710379600 695095400 676523800 654966600
1772.27 631635700 607829500 583082000 557355200 531368400 505462700
1775.16 479862800 454902200 430712600 407361500 384996700 363680800
1778.06 343401600 324215000 306161300 289057300 272810300 257605600
1780.95 243397700 229905900 217026500 204707000 192928400 181674700
1783.84 170772700 160229400 150342400 140973700 131860000 123092200
1786.74 114764100 106862500 99370380 92269660 85546120 79206560
1789.63 73223700 67539870 62294720 57533500 52888450 48425970
1792.52 44755500 41675180 38663160 35773890 33116540 30674950
1795.41 28456410 26499180 24747730 23135980 21651110 20288460
1798.31 19014710 17800070 16752080 15913380 15112650 14321240
1801.20 13633600 13013640 12473640 12034320 11612200 11217600
1804.09 10869510 10554250 10266120 10006060 9774476 9556648
1806.98 9345172 9166264 9031080 8910710 8779744 8623732
1809.88 8457178 8377380 8370190 8328546 8269632 8237268
1812.77 8219778 8216790 8220638 8221596 8224900 8232676
1815.66 8245442 8247622 8230240 8244072 8295380 8334426
1818.56 8361106 8392160 8431908 8474126 8510918 8544094
1821.45 8572670 8595940 8628556 8666680 8683014 8645874
1824.34 8498612 8402840 8513578 8639220 8668032 8671856
1827.23 8686334 8695138 8676598 8657966 8616684 8613128
1830.13 8801610 9020104 9118434 9155068 9166090 9168312
1833.02 9171462 9170404 9157042 9138576 9121998 9108850
1835.91 9085410 9036912 8991266 8962680 8927870 8884606
1838.80 8837200 8789074 8726250 8654228 8594278 8529116
1841.70 8456384 8388534 8269416 7954120 7591778 7639120
1844.59 7890454 7952456 7913038 7849654 7749068 7622892
1847.48 7535078 7494830 7439344 7362264 7281440 7203516
1850.38 7121516 7033092 6944660 6851888 6769282 6699290
1853.27 6624606 6550638 6483990 6418432 6345480 6279206
1856.16 6223436 6157430 6089012 6040188 6006316 5966508
1859.05 5919378 5883964 5856328 5823970 5794028 5771920
1861.95 5749724 5720848 5691100 5661248 5631480 5606190
1864.84 5585570 5556548 5530894 5531184 5502088 5442402
1867.73 5444164 5395434 5255422 5282748 5424604 5461588
1870.62 5440516 5431856 5427576 5407748 5374492 5344502
1873.52 5329964 5330634 5330116 5323220 5327666 5353986
1876.41 5395832 5439086 5487742 5544074 5602462 5662784
1879.30 5719236 5779602 5848776 5922118 5990472 6039932
1882.20 6078386 6117590 6147464 6165206 6189402 6214854
1885.09 6226152 6233328 6246354 6255934 6264918 6269774
1887.98 6261776 6213718 6147986 6194626 6319436 6395202
1890.87 6432332 6468128 6518884 6581808 6635816 6670038
1893.77 6688162 6692286 6707898 6759140 6808776 6831906
1896.66 6855006 6891314 6917314 6920294 6913484 6916140
1899.55 6929666 6937346 6939712 6941804 6927904 6887320
1902.44 6835156 6795776 6770522 6739150 6699348 6648326
1905.34 6588326 6529714 6465350 6384470 6287800 6191152
1908.23 6106386 6007000 5875926 5751532 5643708 5519080
1911.12 5386322 5255528 5119066 4984240 4860720 4744042
1914.02 4628178 4508090 4380322 4252022 4136236 4011112
1916.91 3804184 3565582 3494758 3511498 3453230 3362268
1919.80 3272908 3195588 3122670 3033186 2936362 2849356
1922.69 2787700 2762258 2743246 2709952 2666452 2621420
1925.59 2576304 2531218 2487762 2449768 2410550 2365838
1928.48 2334048 2310138 2283488 2262378 2243328 2217558
1931.37 2180752 2145662 2121896 2098836 2076248 2054172
1934.26 2034394 2020156 2005156 1994014 1989834 1982490
1937.16 1972994 1970422 1976828 1978436 1972546 1969512
1940.05 1968678 1963128 1945536 1894882 1835292 1859020
1942.94 1928136 1959356 1972220 1980354 1974232 1963098
1945.84 1963132 1981094 1997736 2005586 2007610 2002332
1948.73 2002714 2015832 2028434 2028692 2017830 2008882
1951.62 2007644 2011108 2012976 2005192 2005728 2027408
1954.51 2040828 2040540 2047592 2062118 2077776 2087000
1957.41 2089408 2093586 2095290 2090552 2090598 2097000
1960.30 2093532 2083456 2083426 2089536 2089828 2083186
1963.19 2080146 2077462 2069196 2062394 2050350 2031446
1966.08 2026858 2018102 2008768 2027796 2043054 2035654
1968.98 2016554 1999212 1993262 1989112 1989276 2000300
1971.87 2005360 2001162 1997766 1995114 1983540 1961034
1974.76 1941894 1931186 1927580 1932142 1939816 1935458
1977.66 1920190 1905214 1888140 1871716 1856284 1839700
1980.55 1824908 1815918 1809506 1803886 1800634 1794858
1983.44 1786476 1781904 1794066 1806934 1801862 1785146
1986.33 1780374 1788088 1788406 1790604 1806258 1827020
1989.23 1851396 1869352 1865058 1847426 1828902 1844154
1992.12 1892908 1939188 1977664 2008944 2035716 2061810
1995.01 2080348 2102428 2148056 2194894 2231630 2276034
1997.90 2316072 2342872 2369644 2407028 2445010 2480832
2000.80 2517236 2550954 2581100 2609372 2636306 2662156
2003.69 2688536 2711260 2729842 2760760 2803398 2838640
2006.58 2862760 2885696 2924160 2973202 3005498 3029530
2009.48 3072066 3116530 3141218 3155964 3177350 3208580
2012.37 3239962 3276962 3313012 3335254 3343598 3346116
2015.26 3362896 3370908 3359786 3370932 3386674 3372094
2018.15 3346216 3326392 3308510 3295758 3288954 3281048
2021.05 3263320 3236742 3210536 3194484 3196354 3191268
2023.94 3149424 3085252 3029352 2988454 2949982 2918834
2026.83 2900638 2891330 2889646 2889186 2881292 2860478
2029.72 2824046 2778432 2745602 2721870 2674620 2609942
2032.62 2544914 2468936 2393268 2327774 2262754 2197714
2035.51 2135154 2069970 2005964 1953184 1906554 1865632
2038.40 1829776 1799432 1770398 1735260 1699018 1666522
2041.29 1641952 1621822 1604924 1587278 1560510 1538646
2044.19 1533204 1531310 1519308 1506200 1504994 1507002
2047.08 1513230 1520558 1519282 1518732 1522914 1532440
2049.97 1546748 1559784 1573972 1596612 1621776 1642770
2052.87 1656060 1664754 1680062 1703130 1723828 1742178
2055.76 1771086 1806422 1841222 1882738 1926866 1966960
2058.65 2007468 2051958 2097812 2142240 2195078 2251308
2061.54 2302194 2354072 2411496 2471542 2530256 2597066
2064.44 2671226 2745072 2828620 2927988 3028888 3121272
2067.33 3210644 3301294 3393562 3501044 3626134 3754172
2070.22 3883250 4018350 4158626 4306318 4451332 4582284
2073.11 4726366 4891090 5048252 5188812 5329472 5489342
2076.01 5650560 5778570 5879026 5984922 6108690 6236822
2078.90 6349786 6440428 6523768 6612226 6691214 6754340
2081.79 6830974 6936210 7053896 7166340 7258400 7334664
2084.69 7385054 7397706 7388548 7394112 7419712 7451580
2087.58 7504728 7581480 7659782 7719786 7750540 7768060
2090.47 7799682 7814096 7786144 7743318 7690374 7609418
2093.36 7504014 7371910 7221104 7088612 6963632 6822582
2096.26 6670970 6514654 6355712 6179552 5980480 5801150
2099.15 5667348 5549796 5420776 5276828 5132864 4993776
2102.04 4849746 4701056 4583072 4497170 4403164 4300750
2104.93 4194068 4079514 3970982 3847806 3717520 3636356
2107.83 3567236 3467988 3359634 3254152 3148468 3037092
2110.72 2905164 2794624 2733188 2662180 2567416 2471686
2113.61 2375538 2272312 2150218 2031622 1964088 1916314
2116.51 1855112 1791678 1740654 1692170 1614624 1521654
2119.40 1472952 1465762 1446034 1413210 1381210 1346970
2122.29 1309376 1254678 1200584 1191936 1200638 1192640
2125.18 1174372 1149496 1118728 1081866 1044458 1037784
2128.08 1046550 1038174 1023124 1010800 998598 972148
2130.97 939668 941814 956608 952970 957480 972282
2133.86 978616 976780 975842 995404 1030004 1055890
2136.75 1077534 1109466 1151540 1190380 1213524 1236608
2139.65 1278770 1326954 1379448 1426976 1451222 1469934
2142.54 1504294 1541370 1562616 1580202 1608276 1641426
2145.43 1664628 1676828 1694492 1724994 1746392 1756352
2148.33 1775304 1802462 1822862 1828242 1829602 1854416
2151.22 1894776 1924812 1942756 1947614 1930934 1896392
2154.11 1881722 1902848 1927724 1942588 1957836 1973068
2157.00 1969238 1940236 1937996 1976440 1993816 1978654
2159.90 1958476 1932092 1885266 1832710 1821794 1837286
2162.79 1838832 1826130 1799966 1757552 1693088 1654524
2165.68 1686752 1717030 1705438 1699130 1691114 1630014
2168.57 1548104 1541038 1595226 1630648 1630284 1615332
2171.47 1592906 1551232 1536110 1570058 1589490 1588060
2174.36 1589396 1581330 1544796 1510582 1525124 1546922
2177.25 1547524 1546510 1545104 1513294 1462832 1470822
2180.15 1510750 1513692 1493770 1478008 1447864 1393948
2183.04 1378164 1396722 1395528 1381232 1363816 1326240
2185.93 1276768 1269696 1287934 1290138 1287924 1275704
2188.82 1243390 1200278 1183912 1190436 1174088 1142264
2191.72 1108946 1059112 1000862 977692 975378 950092
2194.61 907048 858892 809768 774906 764136 752648
2197.50 736296 725056 709234 686216 670086 680862
2200.39 700656 704246 697852 685814 671442 672122
2203.29 692898 709706 726164 743012 736468 725456
2206.18 744410 781128 804366 816968 837722 859352
2209.07 870512 884602 902552 914078 926292 933830
2211.97 928126 925464 937520 953580 964808 975344
2214.86 983388 995880 1025512 1054114 1064326 1070844
2217.75 1082838 1092860 1106148 1128568 1157136 1180838
2220.64 1193952 1203078 1214220 1222108 1220764 1223770
2223.54 1233866 1250292 1279736 1310546 1334080 1354308
2226.43 1363014 1358592 1361546 1380500 1400942 1411892
2229.32 1415896 1417104 1415418 1413912 1417708 1422802
2232.21 1418560 1400256 1383932 1382672 1388214 1385502
2235.11 1360026 1331490 1320308 1318866 1317658 1308560
2238.00 1291288 1280418 1281298 1278408 1271912 1267036
2240.89 1255538 1235380 1221534 1222560 1223490 1214490
2243.79 1209754 1212870 1205762 1188128 1172868 1155302
2246.68 1139292 1128806 1112890 1087178 1065516 1054046
2249.57 1045534 1035162 1022584 1004448 981422 962230
2252.46 952960 940088 915558 895956 879566 856476
2255.36 838458 830754 818796 801602 784714 774102
2258.25 767764 762392 747010 725770 714640 707390
2261.14 696140 676902 661592 659654 661682 659572
2264.03 655610 652116 654296 660238 659762 653514
2266.93 655050 662172 662184 666448 680838 698874
2269.82 712088 710544 710438 722194 729060 727104
2272.71 725422 730782 737308 738170 748320 771904
2275.61 791290 803668 814566 817556 819648 833934
2278.50 850710 865592 887490 912292 938636 956474
2281.39 958800 967140 986722 1006186 1031502 1059548
2284.28 1076076 1088834 1108720 1130240 1146952 1156088
2287.18 1171940 1212936 1262428 1286618 1287654 1292432
2290.07 1315772 1351172 1381804 1396578 1401752 1420358
2292.96 1448310 1465400 1471102 1482740 1498862 1505478
2295.85 1517176 1546634 1574714 1590864 1611064 1641436
2298.75 1667180 1681186 1688056 1696896 1704754 1709426
2301.64 1720570 1743942 1768258 1784094 1798898 1814290
2304.53 1827596 1838856 1844092 1848036 1854194 1854728
2307.43 1853474 1846998 1829904 1806176 1771750 1740004
2310.32 1726820 1716646 1699546 1682416 1666450 1650946
2313.21 1644338 1645334 1639032 1622342 1614888 1612446
2316.10 1596804 1577266 1564700 1543096 1511304 1488754
2319.00 1480570 1468820 1449520 1427478 1404974 1386010
2321.89 1362894 1336990 1322334 1307984 1279894 1253974
2324.78 1248222 1249200 1231982 1200166 1178518 1165850
2327.67 1141946 1123542 1124036 1119976 1101918 1084296
2330.57 1068614 1048662 1028654 1020436 1017262 991076
2333.46 953322 951324 976668 980212 968634 962922
2336.35 945422 920588 917506 924396 902010 870670
2339.24 867926 873164 865682 859966 874074 885370
2342.14 873342 867740 867590 849712 837202 837048
2345.03 815212 776038 742014 716748 697184 677826
2347.92 663546 657542 657408 653542 641860 631568
2350.82 620540 619074 631680 632236 637496 651984
2353.71 649596 647658 655078 656612 663714 674966
2356.60 673842 681290 702224 707992 715052 732680
2359.49 738136 747742 765512 777480 795136 810246
2362.39 818622 830392 836366 842708 856492 871984
2365.28 892820 904628 907388 924418 938126 940398
2368.17 939564 941350 950910 957268 957408 950896
2371.06 954576 967756 973110 987040 994018 985106
2373.96 980792 976486 972940 965628 958092 959098
2376.85 956590 955528 966192 973030 970462 962762
2379.74 954808 952950 950456 947874 949684 948734
2382.64 948668 948068 939868 930844 927836 927940
2385.53 928008 924290 923364 928780 929166 926298
2388.42 934728 947936 951324 949042 937866 925754
2391.31 931098 948306 957362 952186 939146 936734
2394.21 950352 957086 947656 944288 952366 958186
2397.10 964080 973810 980380 979958 976428 965226
2399.99 958694 975400 990602 987104 980042 982844
2402.88 990944 995850 1001588 1005966 1011056 1023772
2405.78 1039406 1058348 1068026 1051104 1034804 1034876
2408.67 1042296 1060500 1076380 1081218 1078498 1064868
2411.56 1059792 1069240 1080138 1081512 1073038 1072290
2414.46 1080270 1086596 1093912 1099240 1096834 1092524
2417.35 1106204 1128266 1134398 1130974 1126824 1122422
2420.24 1120044 1120758 1130326 1138396 1130764 1123988
2423.13 1134692 1153690 1154322 1138976 1138050 1138956
2426.03 1120440 1095178 1075430 1066720 1057316 1039016
2428.92 1031604 1036620 1030422 1018260 1012886 1007368
2431.81 1003028 999226 986828 965904 950756 944664
2434.70 932458 924182 920516 908002 904010 906788
2437.60 896418 886452 886080 881458 871562 862098
2440.49 854900 845118 836286 837040 837486 835958
2443.38 845708 857938 858426 855604 851664 848652
2446.28 857366 872210 881534 900030 930010 953066
2449.17 972526 998308 1029718 1060334 1091982 1117006
2452.06 1131400 1163272 1208812 1253158 1286282 1299662
2454.95 1320980 1365624 1426058 1482796 1518796 1547934
2457.85 1588002 1634698 1680582 1729326 1777966 1828742
2460.74 1884016 1934046 1979572 2016322 2041692 2069802
2463.63 2104898 2148210 2193300 2224804 2256716 2308004
2466.52 2356752 2388546 2417572 2437798 2449590 2471794
2469.42 2500160 2520456 2535064 2552396 2576082 2598892
2472.31 2608574 2608458 2615654 2636426 2659742 2672574
2475.20 2667168 2652202 2649662 2658118 2665214 2663942
2478.10 2664210 2670338 2660910 2639632 2623504 2604452
2480.99 2571652 2537598 2511722 2476722 2435530 2403648
2483.88 2375684 2334848 2280996 2233378 2186956 2141536
2486.77 2114396 2090994 2052090 1998028 1948184 1922200
2489.67 1904764 1878518 1841036 1800804 1769012 1742010
2492.56 1705788 1654566 1605124 1572824 1552572 1529240
2495.45 1501784 1475666 1441296 1402432 1364602 1317772
2498.34 1267772 1232456 1197852 1152672 1113146 1089172
2501.24 1064242 1027380 983492 930480 880844 845078
2504.13 809086 767592 735134 712538 694992 672938
2507.02 638456 603962 575162 548320 523262 506864
2509.92 496226 479114 451584 419126 396034 380966
2512.81 357728 330894 305022 281188 275592 274772
2515.70 249004 221506 207730 190442 176400 172442
2518.59 166396 155992 139026 119276 116442 122672
2521.49 122926 109532 95432 99700 104620 99548
2524.38 101114 102968 87830 73938 89372 118496
2527.27 127668 124702 120530 112170 110376 123350
2530.16 138320 138412 140402 161344 173580 171808
2533.06 176974 190054 196748 203638 223690 240368
2535.95 242852 247432 260430 264586 259274 257252
2538.84 259182 273094 299618 315580 304024 291870
2541.74 300566 312764 319936 327702 334744 334944
2544.63 327212 322334 321418 320762 320394 320784
2547.52 316162 307534 309774 323472 330226 325102
2550.41 325274 328358 326268 321712 322664 331190
2553.31 334582 329828 322088 312748 307638 307776
2556.20 303700 294022 285680 285904 283836 272280
2559.09 257456 235748 217388 207466 205230 222252
2561.98 243974 242644 221468 205278 207026 203628
2564.88 191176 189350 190554 188944 182254 169878
2567.77 160688 167548 184104 185102 179038 180134
2570.66 183300 183098 172990 155366 155630 173252
2573.56 183574 179554 171548 172610 175132 174028
2576.45 178510 187600 194534 192668 181240 174704
2579.34 176076 179778 194650 219716 227478 217690
2582.23 227980 248996 257944 267458 276788 275762
2585.13 280026 296156 312608 324978 330266 340222
2588.02 361554 382068 397374 396710 396882 432596
2590.91 482598 503746 506266 523842 558952 594574
2593.80 617036 631720 653402 674974 693474 728266
2596.70 772334 806258 824472 833698 846782 875316
2599.59 909916 935344 957406 985658 1008332 1014882
2602.48 1020654 1047292 1084498 1107744 1125364 1148852
2605.37 1159318 1150838 1143008 1146636 1159002 1168742
2608.27 1176584 1187562 1197394 1211954 1233768 1249804
2611.16 1260726 1268976 1256422 1229256 1221884 1234790
2614.05 1236240 1207886 1172712 1159482 1153486 1143682
2616.95 1142436 1148276 1132076 1089184 1053044 1043032
2619.84 1044792 1041224 1028246 1010976 990346 957948
2622.73 931498 927574 922724 903132 886940 865878
2625.62 836844 815896 798334 770310 732960 708734
2628.52 697082 683012 673362 663970 648930 626828
2631.41 605614 598468 599180 579594 544070 529654
2634.30 529064 528446 522898 510570 497884 476760
2637.19 448004 426248 410554 391602 389510 404478
2640.09 400498 388308 382568 369778 354536 338594
2642.98 328546 335742 341046 327288 312746 309004
2645.87 304808 293562 289740 299808 306184 291664
2648.77 276264 275980 284316 288124 281000 277966
2651.66 282582 286970 288910 285102 292946 313728
2654.55 319910 314492 307496 310764 324144 340152
2657.44 353816 361140 372328 386646 387590 389008
2660.34 401568 402134 397360 407250 439214 474802
2663.23 496802 520748 539708 546450 551840 555922
2666.12 563268 576762 596310 618712 644578 675956
2669.01 690922 685214 685216 709010 744198 767108
2671.91 776844 775566 778610 802086 822630 833358
2674.80 845094 857130 861638 858352 860608 875282
2677.69 879876 871850 885258 910706 943348 984770
2680.59 1006708 1006668 1008904 1026116 1045266 1045304
2683.48 1042076 1063028 1093426 1092926 1066960 1067146
2686.37 1097626 1123090 1128258 1125946 1129296 1138632
2689.26 1152894 1166300 1165730 1154806 1157582 1169960
2692.16 1176554 1182446 1184368 1171416 1145590 1117354
2695.05 1098362 1087610 1076822 1064064 1049774 1039816
2697.94 1028496 1013590 1004604 1002112 989440 962630
2700.83 943120 933946 931414 938388 945948 960914
2703.73 983170 993770 997654 1006828 1013876 1015484
2706.62 1006998 980010 943040 919764 914932 913486
2709.51 904548 888958 880360 864966 834358 832844
2712.41 849328 842082 827940 822270 824462 844570
2715.30 875222 887880 880992 895534 921238 914122
2718.19 902650 929070 957816 957330 964788 980666
2721.08 981388 973082 961184 965944 974426 976184
2723.98 985702 1003902 1029918 1054296 1064396 1071678
2726.87 1091628 1106248 1105662 1106580 1113612 1126034
2729.76 1146066 1158308 1153812 1148926 1166456 1204786
2732.65 1241108 1269478 1289794 1298522 1302488 1316130
2735.55 1338030 1347908 1339284 1326574 1319064 1306774
2738.44 1308410 1333624 1349368 1360392 1382302 1397234
2741.33 1397144 1384764 1371626 1381536 1408078 1434960
2744.23 1467270 1500314 1517494 1523936 1533130 1540954
2747.12 1556974 1598784 1634140 1645568 1663410 1704494
2750.01 1748112 1767760 1780962 1802816 1803692 1784658
2752.90 1783078 1805030 1834744 1850470 1854184 1861066
2755.80 1858244 1849362 1858336 1877622 1885152 1891260
2758.69 1908236 1925228 1930240 1933316 1935046 1925234
2761.58 1903036 1872510 1856790 1858260 1859964 1856916
2764.47 1851886 1854196 1861070 1868066 1864782 1850328
2767.37 1858302 1881202 1884592 1877652 1868334 1873008
2770.26 1907148 1932000 1931522 1934316 1947852 1946112
2773.15 1923924 1916570 1931828 1936784 1930894 1925788
2776.05 1917574 1923732 1938744 1935656 1932360 1938554
2778.94 1935192 1917340 1911764 1919486 1913094 1900146
2781.83 1897192 1902300 1904258 1894882 1889834 1901344
2784.72 1922990 1939960 1934286 1919498 1910816 1915138
2787.62 1919626 1908466 1903360 1904576 1893242 1875790
2790.51 1873922 1871624 1840116 1807972 1791054 1783956
2793.40 1788424 1800080 1813840 1815076 1801276 1780598
2796.29 1759134 1751956 1763712 1767324 1750192 1741006
2799.19 1743350 1745506 1743980 1742114 1739672 1745784
2802.08 1762302 1781288 1805348 1821460 1840328 1874918
2804.97 1911518 1936052 1948934 1969330 2012984 2057138
2807.87 2086396 2111822 2143954 2190072 2224590 2242730
2810.76 2280108 2338940 2409276 2478336 2534784 2583234
2813.65 2628542 2671450 2716918 2755238 2777812 2812586
2816.54 2870562 2921320 2943736 2941128 2939770 2975264
2819.44 3024384 3060856 3093758 3108352 3104574 3114520
2822.33 3147708 3192166 3229794 3248246 3258976 3288718
2825.22 3320834 3337776 3368938 3421632 3463002 3494240
2828.11 3531102 3563576 3595336 3621554 3638032 3664256
2831.01 3689900 3695358 3712316 3750740 3772096 3767274
2833.90 3773756 3806408 3839026 3871244 3909208 3951380
2836.79 3990046 4030176 4091954 4153964 4197732 4245062
2839.69 4300252 4364980 4441102 4505136 4560604 4636686
2842.58 4720658 4790408 4852090 4902700 4938882 4975144
2845.47 5026886 5098292 5192474 5273342 5313006 5359842
2848.36 5437566 5496390 5537466 5604376 5688994 5772996
2851.26 5866324 5964054 6044110 6102008 6165312 6256312
2854.15 6340734 6381720 6426938 6509382 6588204 6640258
2857.04 6666838 6698956 6749288 6792326 6840140 6908858
2859.93 6955942 6972686 7013890 7087828 7166308 7221672
2862.83 7255840 7312756 7396840 7473958 7548502 7635604
2865.72 7738322 7862988 7998476 8145018 8323862 8522412
2868.61 8719682 8924868 9150300 9398800 9676898 10005940
2871.51 10371030 10761280 11179550 11595790 12014790 12481700
2874.40 12997140 13538810 14104940 14677910 15244360 15809830
2877.29 16361500 16911080 17433540 17853840 18208690 18546000
2880.18 18822780 19018430 19150860 19214270 19223210 19241330
2883.08 19326280 19469130 19661710 19948150 20350960 20845100
2885.97 21364450 21834140 22177000 22383130 22509210 22629620
2888.86 22815500 23064040 23317550 23582280 23879140 24167930
2891.75 24438010 24678870 24887760 25087720 25281030 25448070
2894.65 25591860 25727890 25823730 25881650 25934490 25994720
2897.54 26065070 26156430 26265570 26395280 26593780 26865460
2900.43 27147530 27425560 27662740 27830920 27976710 28105060
2903.32 28215730 28375830 28601140 28835930 29087310 29386940
2906.22 29716680 30068770 30432800 30798540 31166640 31519040
2909.11 31848180 32141990 32396660 32604540 32754680 32871010
2912.00 32965600 33056170 33130560 33177250 33230260 33282270
2914.90 33294740 33235700 33064010 32752910 32351860 31966300
2917.79 31676810 31464290 31313040 31270240 31336550 31489480
2920.68 31691620 31907650 32134420 32352990 32554480 32750780
2923.57 32916350 33040590 33147940 33246090 33316920 33361280
2926.47 33397320 33444360 33523010 33640650 33787870 34000540
2929.36 34311120 34701320 35182780 35754520 36403760 37122850
2932.25 37880350 38679610 39544290 40487640 41515120 42619890
2935.14 43770120 44911790 46028350 47105880 48106760 48993700
2938.04 49745100 50397700 50983170 51500180 51962100 52415310
2940.93 52948940 53625380 54497700 55654080 56933250 57968720
2943.82 58616880 59043620 59482610 60031140 60695260 61491470
2946.72 62440030 63489580 64524960 65467500 66206090 66628420
2949.61 66726820 66560440 66239100 65866600 65528710 65315490
2952.50 65227400 65202760 65270600 65479780 65841910 66370040
2955.39 66984410 67359260 67103560 66336210 65655320 65384610
2958.29 65403460 65543310 65724250 65911510 66090560 66237430
2961.18 66371120 66565110 66774410 67000770 67360950 67994550
2964.07 69046440 70171120 70632160 70310240 69844560 69786310
2966.96 70285140 71116780 71908030 72604070 73341950 74151700
2969.86 75024090 76009910 77168550 78559180 80254360 82233620
2972.75 84443300 86895140 89508030 92144420 94810870 97563280
2975.64 100369100 103178300 105982200 108775100 111537800 114247300
2978.54 116946100 119706400 122582400 125687800 129312300 133941700
2981.43 139184200 142318600 141416300 138884200 137327700 136746900
2984.32 136656300 136852600 137212200 137637400 138078200 138663900
2987.21 139552800 140707800 142015000 143130000 143629300 143561800
2990.11 143386400 143480000 144076900 145545400 148176700 151956400
2993.00 156868300 163214600 171794000 181552400 185635900 179049100
2995.89 167595800 158273400 151848700 146958700 142787400 138963400
2998.78 135268500 131600800 127938900 124321000 120791800 117269600
3001.68 113706000 110183600 106715700 103283800 99984820 96944020
3004.57 94250170 91917830 89764730 87568310 85355940 83307860
3007.46 81508860 79920150 78441100 76987480 75503380 73947610
3010.36 72306100 70579130 68766550 66901900 65014320 63084640
3013.25 61110390 59086050 57043150 55048080 53082750 51115830
3016.14 49157050 47237180 45393860 43613990 41904750 40284010
3019.03 38725840 37245470 35866780 34555800 33273930 32037590
3021.93 30873710 29801890 28817440 27877430 26983370 26128440
3024.82 25278190 24477810 23760960 23071270 22401540 21791890
3027.71 21264870 20793350 20330650 19883340 19449390 19018760
3030.60 18599290 18185190 17785800 17433080 17137090 16882020
3033.50 16658730 16470780 16301720 16143320 15973040 15772830
3036.39 15578490 15411490 15245150 15057260 14868370 14685410
3039.28 14491410 14297320 14137830 13998210 13848510 13701340
3042.18 13540720 13364370 13210250 13092940 12998720 12901360
3045.07 12781670 12662640 12563200 12467520 12368720 12270430
3047.96 12186010 12132340 12092820 12048330 12009010 11958570
3050.85 11894880 11849280 11813700 11759620 11705180 11665990
3053.75 11631950 11599730 11552720 11477210 11401570 11359710
3056.64 11313120 11237040 11172570 11097780 11011520 10944770
3059.53 10863840 10733800 10605120 10517640 10429640 10338730
3062.42 10275320 10188840 10056520 9951416 9877958 9785620
3065.32 9667760 9544474 9447016 9373626 9269954 9135250
3068.21 9014948 8915876 8831544 8733070 8598588 8455368
3071.10 8338402 8235964 8118254 7993544 7875438 7764868
3074.00 7675640 7593494 7464832 7300958 7161310 7043934
3076.89 6937314 6827630 6687406 6543282 6438506 6360896
3079.78 6266536 6166254 6080502 5992244 5888476 5780164
3082.67 5692518 5613664 5508070 5408190 5345448 5281292
3085.57 5207472 5161364 5119808 5042992 4949442 4882396
3088.46 4832590 4780096 4725994 4663004 4581200 4493246
3091.35 4449814 4435018 4409506 4377754 4330410 4267984
3094.24 4211282 4176296 4151088 4108624 4048634 3999330
3097.14 3975144 3943444 3901494 3881882 3851020 3796856
3100.03 3765832 3743024 3712480 3681284 3638514 3581722
3102.92 3525106 3477138 3440202 3404876 3351522 3292552
3105.82 3263200 3260438 3237672 3194272 3166322 3132660
3108.71 3065762 3010254 2979518 2927716 2859494 2804066
3111.60 2778470 2766138 2740886 2713352 2697070 2682256
3114.49 2647280 2608222 2588564 2579418 2556374 2512612
3117.39 2490610 2505816 2518698 2496610 2460534 2453830
3120.28 2446502 2406334 2365142 2341210 2328272 2320658
3123.17 2315332 2300176 2273494 2258818 2273026 2289576
3126.06 2277430 2261904 2243158 2204970 2196346 2208812
3128.96 2206824 2217172 2243982 2253576 2248248 2248522
3131.85 2251704 2247544 2236186 2230410 2225894 2210912
3134.74 2180568 2149740 2130826 2125164 2137518 2135728
3137.64 2112426 2080146 2037570 2000726 1980862 1970168
3140.53 1943450 1904830 1869448 1828366 1803832 1788316
3143.42 1759120 1739772 1742638 1747884 1737094 1730746
3146.31 1743460 1723516 1669190 1637886 1633874 1627640
3149.21 1609390 1587798 1566008 1561296 1573798 1565434
3152.10 1508614 1435810 1385724 1373048 1384032 1387176
3154.99 1370952 1347998 1334630 1329272 1325036 1314222
3157.88 1293356 1278598 1257662 1243696 1261388 1262610
3160.78 1236824 1235046 1246474 1247490 1250032 1249026
3163.67 1239086 1225566 1221486 1227388 1235786 1257384
3166.56 1284238 1286270 1276244 1266886 1253170 1254806
3169.46 1255520 1261772 1299276 1316344 1311976 1314112
3172.35 1315854 1328158 1359060 1389386 1415814 1434242
3175.24 1416306 1395038 1400592 1432130 1451368 1447270
3178.13 1465804 1496382 1519042 1537292 1546342 1545644
3181.03 1538532 1523004 1520466 1542324 1563058 1567244
3183.92 1547994 1521978 1524562 1546488 1566492 1584882
3186.81 1590300 1578974 1572158 1568038 1554722 1539338
3189.70 1531168 1533518 1539898 1545608 1542630 1521158
3192.60 1498472 1477610 1453348 1447526 1449490 1445782
3195.49 1449338 1444992 1422930 1401864 1387418 1405358
3198.38 1433178 1429866 1413784 1394064 1366290 1349078
3201.27 1345228 1317162 1277070 1267810 1281002 1267774
3204.17 1231740 1205168 1202400 1217750 1219352 1201602
3207.06 1188030 1173040 1135194 1082716 1055608 1080730
3209.95 1121178 1122696 1085332 1038182 1002946 990880
3212.85 995104 986478 973982 971540 970122 964888
3215.74 959928 945156 913142 886822 874790 870008
3218.63 868258 859446 850000 818810 776728 770508
3221.52 781134 773888 771290 768962 754452 755660
3224.42 765082 755962 740528 729362 713904 696416
3227.31 665660 616116 590948 598484 604742 609644
3230.20 634088 663222 661674 647172 639394 608884
3233.09 568274 551008 549376 545364 545410 543160
3235.99 539120 544468 542482 535622 526914 530710
3238.88 556046 550296 496160 468046 479978 473296
3241.77 470182 482682 471538 444284 422722 406980
3244.67 399214 385942 371136 392478 400768 352518
3247.56 322878 331386 321788 310560 335670 342186
3250.45 296192 243198 229356 259408 301668 306560
3253.34 271500 238340 226010 227294 217548 189188
3256.24 171492 172978 177152 179198 165110 151372
3259.13 156718 147150 116222 105952 124920 141886
3262.02 126578 116250 144716 146384 104190 67018
3264.91 51816 51726 57164 42574 21774 17424
3267.81 29422 60324 91186 103620 98224 89758
3270.70 61916 27996 41708 72320 79858 60530
3273.59 30694 22396 38408 74168 96300 76296
3276.49 56300 51586 22180 5190 25286 41076
3279.38 59350 79130 75258 41120 20494 36714
3282.27 56314 65298 72934 81596 85722 73120
3285.16 65282 66604 48020 41940 70750 93438
3288.06 83650 76098 90420 109748 115020 106876
3290.95 99312 89506 73290 62560 58038 55398
3293.84 77916 103328 92436 76760 81328 92920
3296.73 108368 109704 102442 103650 111734 119472
3299.63 101016 72394 78474 93316 109028 142754
3302.52 158150 146066 145794 144960 113730 111832
3305.41 152202 145572 102874 85768 81388 77836
3308.31 88316 120868 136062 124736 114772 108242
3311.20 112428 112184 87892 75300 92290 103702
3314.09 89980 92892 121738 135622 119730 100028
3316.98 92548 95206 113940 133524 145750 160936
3319.88 144656 93520 79428 89228 89704 74546
3322.77 44682 36624 48376 66262 75380 67774
3325.66 76238 106114 105074 82068 91656 97624
3328.55 63958 46532 60448 59924 39270 31662
3331.45 34422 45732 74000 90842 75220 45532
3334.34 22220 37456 79680 76874 43894 42182
3337.23 62326 50928-616-24720 266 13356
3340.13-6988-30596-30648-510 13282-23732
3343.02-67860-62556-26318 1412 18392 12042
3345.91 4954 13042 13548 6590 31434 73490
3348.80 93546 90610 58190 37130 65568 95046
3351.70 95238 83502 92778 126564 135876 113612
3354.59 98204 103506 129816 158604 167100 168256
3357.48 163894 147710 127846 103756 98552 124766
3360.37 143748 141308 137298 139166 126330 97840
3363.27 80876 72706 87126 124564 136374 132810
3366.16 125396 106510 109758 136500 146310 138010
3369.05 110702 67422 52378 57258 46980 29364
3371.95 19138 29610 39146 39568 40396 16448
3374.84-21014-39842-24986-5386-14698-22058
3377.73-21586-31396-58462-63554-34570-26376
3380.62-58200-77160-75452-94784-108000-91654
3383.52-75868-78842-82964-82594-73452-45002
3386.41-34920-77284-120236-118694-96046-76876
3389.30-53044-22816 1908 7984-15506-54856
3392.19-76622-82054-104988-118264-86068-57190
3395.09-59478-63622-39248-15986-22254-39978
3397.98-56306-60704-32282 6920 20574-1820
3400.87-41884-69740-77194-66970-53682-30588
3403.77 5452 26918 16730-4724-502 21500
3406.66 10864-3378 9024-10850-51748-45538
3409.55-14812 8254 16868 3296 886 27452
3412.44 47886 44408 55644 100734 122576 96232
3415.34 76882 83138 89572 82504 69236 75264
3418.23 105226 136134 138646 122608 110668 119362
3421.12 138224 126790 94200 96652 129572 142298
3424.01 150034 148460 132908 135124 141784 131168
3426.91 123028 141894 163942 168196 169484 183722
3429.80 191334 166228 126994 108132 133902 182702
3432.69 196326 203244 223996 195916 130242 129930
3435.59 167966 168290 177532 210456 216622 192960
3438.48 181002 174314 166034 173316 164964 144158
3441.37 138054 142416 142468 162074 179216 162560
3444.26 150922 158866 171822 165300 114330 66770
3447.16 72650 115014 155968 168846 151220 138494
3450.05 153164 173556 174020 155364 138714 114822
3452.94 101132 114850 112370 113158 149192 161712
3455.83 125996 109774 123314 103674 77092 95194
3458.73 103712 93262 82256 37266-896 10820
3461.62 46330 77552 81406 86092 84830 44152
3464.51 7970 8580 49222 76824 47200 22814
3467.40 37174 51784 56512 22810-30802-6086
3470.30 59318 73538 45704 16850-2460-5588
3473.19 2232 18020 57612 94546 108778 122518
3476.08 136214 151762 168680 183966 233128 302308
3478.98 327560 310586 318146 364872 403180 426908
3481.87 456506 494138 557672 649480 745708 819070
3484.76 856396 898024 977868 1053176 1107264 1185630
3487.65 1287752 1390088 1491444 1596430 1732538 1901608
3490.55 2049608 2164258 2288720 2436222 2588600 2754056
3493.44 2921336 3071564 3241640 3436366 3619666 3774980
3496.33 3947196 4146780 4318704 4504546 4758606 5013328
3499.22 5198764 5346942 5507012 5667670 5811432 5933578
3502.12 6031792 6103916 6177122 6258812 6295516 6285238
3505.01 6264826 6242022 6209414 6157642 6095054 6020372
3507.90 5944158 5879742 5807426 5763454 5791330 5857884
3510.80 5954458 6104314 6313868 6554622 6769878 6924484
3513.69 7004560 7012412 6995826 6959456 6868716 6743848
3516.58 6593456 6401062 6178358 5953952 5723818 5464590
3519.47 5180908 4892848 4639006 4423728 4184272 3898056
3522.37 3617580 3368370 3118328 2902148 2736862 2531196
3525.26 2302570 2124572 1964436 1801920 1632856 1443308
3528.15 1272340 1151486 1072010 983766 845426 709700
3531.04 623912 512392 359790 259836 202322 134224
3533.94 69556 14696-58536-171252-277980-321876
3536.83-332784-345138-364948-415512-483190-535202
3539.72-574180-607244-612884-598166-612610-666876
3542.62-721310-739480-730480-739770-775740-790078
3545.51-792744-848130-894570-869198-827398-800180
3548.40-827070-884748-892160-861886-814476-788644
3551.29-841206-879676-836950-817484-839364-837484
3554.19-818074-806860-803546-803922-792908-787858
3557.08-809756-822506-807744-797248-797184-803190
3559.97-802394-793286-769772-766820-799912-811528
3562.86-814844-802218-758454-739308-786608-868846
3565.76-935664-918542-845216-879802-920196-817980
3568.65-702324-658380-664574-661294-628418-594240
3571.54-571244-563268-557196-551214-555412-568160
3574.44-576442-536578-481424-477452-494058-485696
3577.33-461886-463348-483752-487106-495168-502220
3580.22-463056-392564-332980-316772-339226-354754
3583.11-345682-311414-286094-297480-337840-446002
3586.01-562628-505550-368220-389918-560678-544658
3588.90-305084-197328-231912-233962-193862-168778
3591.79-184812-238418-266748-237306-208020-222016
3594.68-277282-272372-197198-148164-128168-140906
3597.58-182626-199044-193448-189294-160266-160568
3600.47-197176-186670-150600-136120-122106-89232
3603.36-59584-68104-97746-113452-117936-149546
3606.26-220174-257226-216206-191814-355472-603050
3609.15-517466-254606-166930-161882-196586-349754
3612.04-472182-353184-187018-185686-251030-259224
3614.93-222936-176992-155960-212926-328070-366080
3617.83-293168-317100-555724-662676-444006-266850
3620.72-248370-235406-211750-203854-195490-178712
3623.61-163032-164466-183022-216780-247784-250308
3626.50-254080-354364-655784-847234-824484-962706
3629.40-861748-462658-260000-204682-185072-201102
3632.29-230916-294994-363844-337636-264546-217862
3635.18-193734-183680-192800-210946-243182-280480
3638.08-265660-233762-220796-208450-201870-197862
3640.97-201468-239256-268372-243232-225908-240058
3643.86-253280-263330-269028-299970-391324-529048
3646.75-652192-606484-479146-683530-1048966-909686
3649.65-611474-634654-666524-522964-323670-242426
3652.54-245912-240442-217558-210636-233250-353204
3655.43-672926-816830-523474-274006-216412-198666
3658.32-209386-226890-233850-228784-205698-193286
3661.22-198110-208706-225344-231682-237090-256994
3664.11-268110-245612-212352-211710-222194-233542
3667.00-254372-343612-548450-628326-490440-567554
3669.90-1071358-1269140-753186-302606-194624-204728
3672.79-246266-329948-549094-857620-1032458-1225490
3675.68-1193680-696550-355984-282912-248470-277440
3678.57-369592-387282-298460-235008-220148-219680
3681.47-209192-203296-206856-199836-184982-185054
3684.36-190750-191330-202712-212222-224402-302272
3687.25-685674-1355478-1369594-703118-330830-321830
3690.14-436242-589730-531434-314558-221096-229674
3693.04-243992-249042-240148-205968-179778-197750
3695.93-237042-240998-215852-197562-192136-194134
3698.82-197342-204124-220812-250708-359014-489820
3701.72-430140-292998-239002-208014-186796-175956
3704.61-192844-231060-253630-260160-250442-245444
3707.50-265358-328268-484194-572922-432818-310874
3710.39-322544-455508-845784-1027546-657972-312090
3713.29-232910-254194-277844-249074-206028-195280
3716.18-209440-215742-205180-211378-258300-291466
3719.07-246042-203112-204030-212804-272714-388692
3721.96-404948-301016-205294-170088-224144-311568
3724.86-317042-320050-439042-472146-333192-234102
3727.75-184664-147184-145560-148934-144834-167286
3730.64-286190-624754-918190-707016-350726-258994
3733.54-319034-447102-550372-511384-490928-730322
3736.43-798154-470336-257312-263876-275194-253872
3739.32-222814-198962-225326-268218-239748-182410
3742.21-170422-289682-743888-1612702-2110196-1466528
3745.11-561912-220784-185752-195708-205234-219694
3748.00-416146-1045936-1453520-955202-367714-251792
3750.89-500452-1185920-1494018-872928-302178-164924
3753.78-119058-92324-88128-98882-173296-224176
3756.68-148608-67922-63844-101968-185614-317630
3759.57-325674-154736-31354-17698-18812 1012
3762.46 418-27272-32040-12226-36512-153048
3765.35-216602-105036 6834 34022 37748 27776
3768.25-6024-151426-397582-383434-141080-27334
3771.14 1370 44534 52836 31560 29302 54314
3774.03 72916 68362 59688 51228 43958 30902
3776.93 322-33050-51464-130176-256574-226080
3779.82-78536-8248 6064 24686 39948 38746
3782.71 28602-8204-71278-106816-66646-5752
3785.60-1232-22656-32778-48652-60900-53606
3788.50-47036-38710-24452-21216-12160 2620
3791.39-1972-11644 540 2328-12074-21016
3794.28-38442-74464-163038-299638-290510-153736
3797.17-90994-73566-61136-80572-102914-143804
3800.07-369008-968874-1244114-700334-233306-167634
3802.96-131790-66370-25130-20204-68836-158570
3805.85-419986-828254-767902-309330-72608-25716
3808.75-21470-32978-25382-9198-7396-11340
3811.64-16138-15860-35324-64260-75962-94456
3814.53-195390-647048-1221186-1008380-367016-106764
3817.42-84050-77786-58456-71468-190616-436880
3820.32-628184-693486-675794-391448-97148-44318
3823.21-50598-36320-21092-7282-21524-88630
3826.10-180138-166752-52380 17512 21464 3450
3828.99-20158-36262-47102-130294-298234-315388
3831.89-124040-4826-8934-39692-164636-372844
3834.78-332296-108930-43396-130216-564900-1243594
3837.67-1140918-423866-100986-127850-178056-231536
3840.57-269378-161262-39632-22424-85000-200792
3843.46-198034-60836 4962 10714 33292 42626
3846.35 50442 69754 61286 42450 21882-1698
3849.24-22608-23968-33478-216260-753200-1049106
3852.14-641318-436086-1101646-1912648-1641198-642222
3855.03-65912 28810-27958-103568-101256-16266
3857.92 48076 53436 31666 12530 14300 11022
3860.81-95238-192708-101890 6630-1482-43526
3863.71-143440-387438-520000-301426-78750-9990
3866.60 26120 39320 5602-107340-291346-545622
3869.49-811430-645644-205910-17048 24402 36092
3872.39 6892-63996-200458-278600-173402-33096
3875.28 27928 46478 46922 52842 56292 37606
3878.17 15036-21496-151992-321944-315950-172728
3881.06-60474-7432-5256-36478-44200-12318
3883.96-3770-150754-502962-607878-281906-23792
3886.85 17678 2646 1266 37078 56700 41730
3889.74-5124-209022-462042-373058-111946 6520
3892.63 20882-12030-12274 24850 43152 59676
3895.53 71046 59232 54628 44322 19544-31944
3898.42-198342-315454-175540-5042 6100-195340
3901.31-405152-267466-11032 23074-197080-398984
3904.21-249408-33536-16056-20204 48376 87382
3907.10 82444 98632 114008 99492 86662 100946
3909.99 128170 152834 156978 130394 99578 91012
3912.88 89928 86806 86778 104080 138268 145890
3915.78 100602 12132-63572-9726 75882 102538
3918.67 101414 15458-58840 6728 96756 125460
3921.56 131596 137090 131302 126504 122248 95056
3924.45 70082 97380 133400 133846 145698 161508
3927.35 158072 158534 155284 126078 108852 114182
3930.24 121428 127276 103278 63670 83218 159886
3933.13 204818 201610 206250 227874 231430 233140
3936.03 242564 240292 238842 245262 246690 243312
3938.92 235876 230046 236930 257960 300408 294630
3941.81 187714 119308 194146 293980 319020 290204
3944.70 256876 254124 268400 262662 240012 240436
3947.60 237878 187140 174612 261690 341384 384774
3950.49 412156 382998 351512 332082 293670 286086
3953.38 314464 325098 323168 345406 371694 344628
3956.27 309028 318690 351070 383210 396846 373766
3959.17 354840 371122 384814 380300 366402 363846
3962.06 377582 355502 330734 340772 345834 354740
3964.95 373990 386932 401848 418392 431918 445540
3967.85 443872 417848 411008 437060 472900 487430
3970.74 481502 484428 503552 531592 545688 550356
3973.63 543996 546990 558616
##END=
