##TITLE=Ethyl Acetate
##JCAMP-DX=4.24
##DATA TYPE=INFRARED SPECTRUM
##CLASS=IUPAC A
##ORIGIN=NIST, Anayltical Chemistry Division, 301-975-3108
##OWNER=COPYRIGHT (C) 1998 by the U.S. Secretary of Commerce
##DATE=98/10/1
##$SPECTRA VERSION=1.00
##$UNCERTAINTY IN Y=2.0 % relative (B=1.0E-04,C=6.3E-10,D=2.7E-14)
##CAS NAME=Ethyl Ester Acetic Acid
##CAS REGISTRY NO=141-78-6
##MOLFORM=C H3 C O2 C H2 C H3
##MP=-83.58 C
##BP=77.06 C
##$NIST SOURCE=QUANT-IR
##SPECTROMETER/DATA SYSTEM=IFS66V (Bruker)
##INSTRUMENT PARAMETERS=KBr Beam splitter; MCT Detector; Multipass cell
##STATE=gas
##SAMPLE DESCRIPTION=Ethyl Acetate Primary Gas Standard
##PRESSURE=101.3 kPa
##TEMPERATURE=23 C
##SAMPLING PROCEDURE=1 L/min Flow
##RESOLUTION=1.9290
##DATA PROCESSING=NB Strong Apodization
##XUNITS=cm-1
##YUNITS=(micromol/mol)-1m-1 (base 10)
##XFACTOR=1.0
##YFACTOR=18.189E-13
##DELTAX=0.9645
##FIRSTX=574.687
##LASTX=3974.595
##FIRSTY=3.83E-07
##MAXX=3973.63
##MINX=574.69
##MAXY=.001985
##MINY=-2.53E-06
##NPOINTS=3527
##XYDATA=(X++(Y..Y))
574.69 210616 395422 549666 558872 793250 881468
579.51 1031020 1349576 1635788 1886808 2197450 2428380
585.29 2926782 3511578 3911274 4404548 4926410 5299266
591.08 5753614 6352602 6912142 7594872 8236988 8637552
596.86 9163106 9698668 10126270 10828100 11775580 13307690
602.65 15160120 16754450 18340900 19333810 18831020 17550720
608.44 16695520 16260310 16020980 15599690 15192850 15005100
614.22 15050600 15268070 15688760 16262850 17029660 18085430
620.01 19375500 20898280 22681190 24649290 26423100 27731400
625.79 28389920 28364820 27453370 25840550 24596020 25016140
631.58 25659070 24291050 23103350 23367760 23971530 24308150
637.36 23342200 21728310 20830980 20230660 19279930 17776850
643.15 15973780 13958690 11797010 9697746 7870968 6308092
648.93 5031354 4010022 3219886 2615774 2155472 1760636
654.72 1542832 1413502 1263760 1134312 1028812 913902
660.50 821632 725736 671392 575050 480252 498270
666.29 512666 456698 387598 398194 419222 394164
672.08 360598 338876 313654 263160 283380 302904
677.86 268176 217932 183274 147636 121142 172098
683.65 198338 174286 164924 187328 187666 156924
689.43 149276 167556 134364 137836 123998 125906
695.22 195852 182250 138524 108222 68170 40128
701.00 71910 92166 115224 149262 137194 91918
706.79 126982 157372 152228 169944 193052 189884
712.57 211982 201912 215628 248616 244222 237854
718.36 235104 266784 265432 261142 269484 269202
724.14 255958 276774 309616 285844 296696 349584
729.93 386256 384800 395932 416972 431682 424784
735.71 442996 493074 510356 504936 516466 566974
741.50 620960 646314 666400 734408 810354 877820
747.29 910368 980168 1091782 1190880 1289718 1400876
753.07 1509598 1636592 1798308 2008796 2194464 2390230
758.86 2620078 2897606 3207718 3513396 3863048 4224628
764.64 4629638 5052500 5485848 5974660 6535128 7121252
770.43 7709180 8343460 9008566 9672364 10417390 11172270
776.21 11822250 12353660 12841190 13254050 13428550 13417420
782.00 13283920 13052420 13042970 13199360 13407190 14020750
787.78 14565910 14725330 14600030 14350090 14026220 13617010
793.57 13123320 12577520 11982230 11375130 10774260 10168690
799.35 9620656 9131176 8633698 8204336 7815082 7440758
805.14 7093534 6746076 6498530 6432836 6226622 5827934
810.93 5532654 5342972 5186084 5096150 5043680 5023662
816.71 5049856 5097070 5158698 5313588 5577790 5817134
822.50 6106846 6455274 6853598 7344036 7841496 8377510
828.28 9020844 9760852 10542010 11339660 12255940 13241990
834.07 14281840 15341160 16462660 17588710 18642280 19657210
839.85 20549600 21157700 21516030 21658670 21587260 21635820
845.64 21867480 22135380 22495380 22797330 22895640 22895770
851.42 22850590 22797840 22726150 22552710 22242070 21753760
857.21 21050190 20171760 19119090 17934350 16703910 15433520
862.99 14200380 13082700 12007050 10966230 10004040 9160054
868.78 8375768 7685528 7059170 6472370 5934334 5437496
874.57 4976862 4573824 4233580 3903218 3594514 3353818
880.35 3129692 2928992 2771976 2645836 2525670 2412298
886.14 2345772 2286026 2263526 2256348 2312836 2411458
891.92 2493162 2580508 2746162 2978748 3285538 3676226
897.71 4141180 4735176 5453538 6312140 7329650 8452566
903.49 9660804 10886040 12071030 13148950 14032110 14703180
909.28 15163850 15489430 16009940 17213300 18770270 18954070
915.06 18331350 18350560 18918550 19659980 20371410 20969750
920.85 21430620 21787090 22069840 22340620 22681290 23108190
926.63 23597470 24113360 24597270 24937930 24968390 24616540
932.42 23867660 22717440 21313740 20036550 19501550 20039360
938.21 20754850 19261320 17002220 16853860 17881200 18768870
943.99 18929340 18271240 16826540 14856090 12632950 10483330
949.78 8551674 6963254 5715332 4802086 4156726 3732986
955.56 3417400 3180230 3018974 2937038 2844652 2790514
961.35 2757740 2759418 2767272 2790738 2825474 2883718
967.13 2948310 3048312 3170952 3312010 3463216 3626404
972.92 3783666 3967240 4179502 4430428 4722774 5033858
978.70 5326820 5665210 6042422 6463644 6940868 7463132
984.49 8022820 8629166 9267352 9956508 10642480 11312130
990.27 11936400 12518830 13014020 13396920 13656450 13845080
996.06 13946780 13980920 13975390 13988590 14050620 14187420
1001.85 14185530 14119130 14104230 14169990 14238300 14231690
1007.63 14127580 13919530 13623230 13278940 12940560 12656610
1013.42 12466730 12421280 12516060 12753560 13150380 13714380
1019.20 14408940 15220640 16194630 17357960 18758140 20436750
1024.99 22411450 24771850 27577550 30851740 34655040 39068480
1030.77 44190060 50131090 56899040 64489720 72984250 82420140
1036.56 92758840 104070600 116354300 129596100 143808000 158934100
1042.34 174623400 190319200 205599900 220602200 235322900 249266000
1048.13 261761700 272253000 280531400 286896300 291507300 294377200
1053.91 296421600 298938100 302285200 304323900 301456700 295583800
1059.70 291424600 286600300 280287900 272156000 260395400 244992800
1065.48 226968300 207845900 188739200 170059100 152509600 137226500
1071.27 124442900 113809200 104987300 97597880 91181940 85579920
1077.06 80631670 76231980 72262330 68747560 65625460 62992260
1082.84 60853340 59201500 58018380 57345040 57157100 57399180
1088.63 58013220 59095620 60505960 62154610 63968420 65751950
1094.41 67388880 69056080 70045840 69663780 68467690 67342750
1100.20 66600680 67124230 69715210 73233350 71582970 65494280
1105.98 62506770 62629950 63560340 64140100 63892500 62519650
1111.77 60062080 56630750 52562580 48181940 43827800 39721560
1117.55 36103320 33058860 30563630 28343490 26451200 25283910
1123.34 24668640 24085920 23271390 22152920 20769940 19230130
1129.12 17698910 16224340 14851990 13643520 12590410 11663060
1134.91 10887890 10234310 9720824 9315194 8986790 8704678
1140.70 8486354 8332342 8226106 8172206 8166342 8185364
1146.48 8240618 8294804 8347386 8438320 8563826 8683776
1152.27 8783792 8915946 9065478 9231062 9437404 9682492
1158.05 10006110 10467980 11052100 11348820 10875420 10398060
1163.84 10279990 10250870 10275860 10311540 10349510 10399520
1169.62 10459380 10519030 10583250 10594010 10571700 10575180
1175.41 10572080 10557520 10605500 10754710 10949060 11200000
1181.19 11458230 11706530 11977480 12296160 12663030 13094510
1186.98 13607410 14219550 14948760 15828770 16850700 18071240
1192.76 19474430 21073900 22928960 25088140 27515330 30250060
1198.55 33325700 36753060 40508560 44602930 48971130 53640410
1204.34 58633990 63963460 69546640 75376410 81523710 88133510
1210.12 95167220 102628100 110435500 118608500 127110300 135999100
1215.91 146028900 158336900 173340800 191199900 211941800 235843100
1221.69 263131600 294057400 330571700 373211400 421107100 473368900
1227.48 528790800 585945200 643077800 698327600 749565100 795136600
1233.26 833944600 866697000 896275300 927441600 963841900 1007452000
1239.05 1055048000 1084363000 1066495000 1031654000 1032028000 1056514000
1244.83 1081230000 1091284000 1076125000 1036322000 979494300 912446200
1250.62 840323500 770364200 708253400 654860200 607187800 561525000
1256.40 516269800 470820000 425139900 379438100 334398700 291529100
1262.19 253456400 223434400 204265500 191193000 175749300 158759200
1267.98 146648900 141959600 140652500 139037600 135390300 129295600
1273.76 120906900 110885200 99704810 88802720 79076420 70561260
1279.55 63219430 56930950 51595550 47086690 43332440 40252640
1285.33 37845580 36117060 34972000 34336530 34186090 34443590
1291.12 35033710 35932690 37092880 38431080 39897010 41477950
1296.90 43109750 44708590 46291930 47915020 49690340 51644720
1302.69 53303730 53530360 52243320 51172470 51155560 51935900
1308.47 52960540 52950370 51368130 49269550 47505380 46163250
1314.26 45013190 43666810 41934610 39804470 37199800 34268000
1320.04 31207090 28133580 25194240 22518700 20110150 17985190
1325.83 16173830 14670310 13424450 12365860 11473640 10738410
1331.61 10143260 9686774 9333316 9059796 8861642 8733858
1337.40 8664758 8669750 8794970 9075430 9497292 10051400
1343.19 10828300 11868350 13226670 14954020 17102310 19725080
1348.97 22895600 26553290 30703390 35204370 39954450 44706440
1354.76 49230690 53205960 56630900 59914980 64253990 71389240
1360.54 82406400 93034170 101893100 113632600 126031800 138264600
1366.33 152325400 166839400 179309400 188274400 193153600 194832300
1372.11 194893200 195406800 197023000 198623000 197275500 191796800
1377.90 187150300 187940500 192680400 197678300 200548400 199530900
1383.68 193954900 184049900 170613500 155194800 139655300 124607600
1389.47 110658400 98416780 88055990 79567880 73039390 68538490
1395.25 64339410 59641230 55462130 52266290 50218100 48742590
1401.04 47589440 46741270 45849630 44742460 43442400 41840230
1406.83 39994230 38107400 36287090 34624450 33172740 31985940
1412.61 31011290 30199390 29509180 28944690 28477570 27956920
1418.40 27446460 27800120 28351940 28747880 28916600 28908530
1424.18 29157660 29609570 30132590 30682120 31170160 31613000
1429.97 32195630 32772550 33275880 33747110 34203140 34378810
1435.75 34476120 35340480 36164220 36742950 37337100 37889570
1441.54 38366950 38773720 39185920 39631640 40033980 40359240
1447.32 40842260 41623280 42459910 43699980 45571520 47154050
1453.11 46737810 45336910 43909340 43065760 43611900 44399040
1458.89 45303660 45683590 45411240 45197780 45262870 44908690
1464.68 44518020 44331860 44221800 44528330 45246120 45663100
1470.47 44750630 43332770 42271050 41976380 41848640 41506540
1476.25 41371020 41015050 40337510 39413320 38287220 37002390
1482.04 35503160 33765230 31901350 30138220 28675190 27536900
1487.82 26747280 26191950 25965880 25811140 25381170 24583560
1493.61 23592450 22134970 20838380 20122400 19053620 18093040
1499.39 17346130 16483760 15698200 14955220 14126330 12925960
1505.18 11961250 11499140 11553210 11460980 11161430 10847940
1510.96 10400180 10129500 9953338 9625960 9319516 8915256
1516.75 8744496 8767580 8477136 7846912 7586054 7857806
1522.53 8020154 7923188 7631466 7682978 7621254 7510742
1528.32 7467862 7448694 7312988 7130136 6826610 6763208
1534.11 6989668 7074146 7055348 6675562 5975478 6013722
1539.89 6494028 6628992 6904570 7284414 7202084 7282386
1545.68 7491924 7538980 7472772 7399122 7501592 7750564
1551.46 7730528 7430818 7130236 7476086 7636078 7215024
1557.25 6674684 6728898 6840214 7509068 7925116 7836164
1563.03 7590516 7285304 7080462 6851686 6587614 6260702
1568.82 6017052 6062594 5860572 5671704 5589408 5438788
1574.60 4703060 4386294 4855204 4775542 4489364 4166034
1580.39 3916004 3678044 3495994 3340322 3214836 3110644
1586.17 3047604 2992968 2952784 2905890 2868152 2828902
1591.96 2807318 2774966 2760828 2761584 2778446 2784682
1597.74 2776608 2789158 2796892 2820030 2850676 2878500
1603.53 2923166 2983818 3031498 3086638 3139908 3179270
1609.32 3242404 3320146 3354400 3423630 3481738 3453548
1615.10 2941828 2811908 3533344 3817284 3903684 3957038
1620.89 3996398 3869414 3865470 4146252 4298468 4294966
1626.67 4226132 4315774 4443696 4470700 4478294 4477090
1632.46 4451200 4132338 3626400 3941904 4383946 4534236
1638.24 4696986 4748060 4812476 4870316 4945650 4968758
1644.03 4749676 4391550 4649076 4871832 5079622 5249728
1649.81 5228398 4562350 3690664 4139818 5100648 5652322
1655.60 5919306 6059186 6207972 6314828 6423620 6457906
1661.38 6369054 6478394 6798280 6926960 7063266 7113212
1667.17 7072250 6860210 7101334 7348724 7520082 7750116
1672.96 7782364 7501348 7700636 8199900 8401018 8513346
1678.74 8604638 8748454 8941488 8893220 8604404 8173770
1684.53 8818344 9829070 10097760 10293820 10480510 10700450
1690.31 10915220 11124740 11250780 11270630 10607780 10275200
1696.10 11124940 11483480 11184510 10488770 10890550 11886690
1701.88 12353900 12473020 12616660 12825660 13037170 13446580
1707.67 13771910 14055490 14401080 14841200 15230140 15570430
1713.45 15799260 16133110 16323330 16017970 16352880 16916470
1719.24 17272130 17685840 18328440 19263280 20845320 22953990
1725.02 25135080 27276420 29387380 31574800 33999170 36993300
1730.81 40489140 44206770 48593770 54619300 62280220 70642220
1736.60 79709840 89782660 100771500 113532300 127923800 143517200
1742.38 160727500 179996500 201328400 224847700 250826000 279550800
1748.17 311275600 346005200 383366500 424239000 467553300 511295700
1753.95 554054400 593480100 626483100 649843400 660678300 657547600
1759.74 640340900 611456800 579974300 558226900 545944200 545492200
1765.52 578657500 638013600 691452700 719172400 717611400 693075800
1771.31 653927000 607313700 557166100 505650100 455358200 407933000
1777.09 364304200 324862400 289591300 258172700 230275000 205023000
1782.88 181900200 160578500 141156700 123340400 107107500 92492290
1788.66 79416060 67791970 57636140 48830500 41761340 35902350
1794.45 30806940 26623520 23208970 20342320 17893000 15948450
1800.24 14370780 13062110 12052560 11242170 10570840 10021630
1806.02 9563182 9189092 8904734 8624978 8412358 8320870
1811.81 8246224 8221920 8221326 8235500 8239870 8262894
1817.59 8327214 8397544 8470736 8542318 8599130 8654294
1823.38 8597342 8498286 8595558 8674748 8682232 8651906
1829.16 8700698 8966342 9137426 9168638 9163404 9140572
1834.95 9101006 9039296 8958678 8884676 8778946 8661396
1840.73 8523514 8350846 7952198 7746452 7890036 7827664
1846.52 7644286 7487804 7361614 7199076 7034288 6855030
1852.30 6700138 6552418 6417258 6282124 6158298 6046684
1858.09 5964890 5886834 5826270 5771028 5720698 5661026
1863.88 5608142 5559614 5518186 5460996 5367362 5336680
1869.66 5429294 5431990 5403050 5350568 5332902 5327364
1875.45 5364418 5440406 5547348 5660082 5785656 5917122
1881.23 6035326 6110954 6168880 6206678 6237176 6253214
1887.02 6261814 6211210 6234914 6372790 6476456 6576818
1892.80 6660582 6698746 6759724 6830330 6886382 6914742
1898.59 6921292 6934570 6932606 6881254 6802440 6734086
1904.37 6643638 6526072 6376338 6194926 5993052 5757446
1910.16 5514734 5252868 4990504 4743886 4505064 4256262
1915.94 3972264 3642358 3483936 3361506 3196554 3029808
1921.73 2863836 2767292 2703764 2621492 2532322 2449236
1927.51 2371496 2310182 2263138 2212410 2150656 2099202
1933.30 2055528 2020844 1996760 1982192 1974036 1975550
1939.09 1969928 1954788 1895412 1882522 1947704 1973004
1944.87 1969700 1980752 2002130 2004826 2016050 2022698
1950.66 2013046 2009690 2010024 2024256 2043406 2062348
1956.44 2084096 2091700 2093058 2092300 2088186 2086524
1962.23 2084558 2074934 2060002 2036140 2020436 2026336
1968.01 2029182 2003860 1992712 1997228 2001474 1989678
1973.80 1962954 1935028 1933780 1929112 1905056 1871524
1979.58 1841398 1817070 1805246 1793266 1790090 1797602
1985.37 1791004 1785486 1797670 1827758 1858690 1848244
1991.15 1861838 1934312 2006846 2058348 2113354 2190930
1996.94 2274060 2342286 2408362 2480380 2549280 2608324
2002.73 2662180 2710044 2766452 2832780 2893506 2965902
2008.51 3037296 3106884 3159314 3209542 3276416 3327018
2014.30 3351416 3363678 3372502 3364890 3328352 3298726
2020.08 3275842 3237096 3202532 3172894 3088232 2991384
2025.87 2925826 2895340 2885152 2851648 2784262 2710940
2031.65 2607490 2468834 2329118 2198288 2071354 1957112
2037.44 1868954 1799664 1734778 1670368 1623780 1583414
2043.22 1546716 1526860 1511712 1508916 1517258 1521070
2049.01 1534984 1560724 1598252 1638492 1668054 1702372
2054.79 1747196 1807146 1884242 1966958 2052842 2145936
2060.58 2249406 2356728 2471910 2600752 2750660 2929122
2066.37 3119408 3303268 3510252 3755184 4021882 4304322
2072.15 4588726 4887834 5189662 5488094 5765050 5992824
2077.94 6229572 6435094 6607892 6760632 6944190 7155470
2083.72 7319270 7386200 7404690 7463194 7582648 7704532
2089.51 7771538 7793474 7735382 7594296 7363368 7092128
2095.29 6816392 6511362 6170270 5823486 5545276 5275526
2101.08 4991898 4716328 4496036 4297272 4080006 3848020
2106.86 3643032 3461874 3253406 3030282 2815988 2651724
2112.65 2470122 2264614 2054680 1912800 1796324 1679068
2118.43 1542340 1463440 1411704 1344062 1257210 1202204
2124.22 1185866 1145944 1083822 1045634 1033952 1009718
2130.01 971600 948380 955956 968414 978726 1002340
2135.79 1054618 1113986 1183760 1244876 1329286 1415742
2141.58 1476738 1534252 1585094 1636388 1679600 1720988
2147.36 1760198 1798622 1827616 1861958 1917990 1935130
2153.15 1907082 1906162 1942560 1961694 1954218 1967088
2158.93 1974396 1920772 1854014 1830770 1819320 1747234
2164.72 1688590 1697974 1695268 1622094 1573048 1611848
2170.50 1609060 1565584 1566006 1587058 1567808 1533064
2176.29 1537712 1543878 1507654 1486462 1501266 1469412
2182.07 1412164 1389208 1377828 1322248 1283730 1285254
2187.86 1265582 1212720 1181528 1138522 1057490 987422
2193.64 940314 858780 786974 750348 723276 690608
2199.43 685904 697770 685804 681552 709410 732292
2205.22 739896 775486 820058 854758 886460 912922
2211.00 928458 931992 952186 974152 1003968 1045388
2216.79 1073080 1094516 1131936 1175208 1203602 1218018
2222.57 1227944 1256308 1307512 1347634 1362362 1381392
2228.36 1408222 1415202 1416892 1417074 1401818 1385626
2234.14 1375366 1338866 1319786 1304248 1286312 1276118
2239.93 1264046 1238244 1223266 1215882 1208498 1187800
2245.71 1156520 1125824 1089260 1055690 1033972 1001744
2251.50 966968 934814 897514 858662 829620 801594
2257.28 776802 757438 730184 704962 679426 661750
2263.07 658852 654466 657766 656338 660446 671094
2268.86 696132 710610 720668 726872 731454 742790
2274.64 770710 801652 817588 835866 868746 912294
2280.43 949826 972238 1009188 1054198 1092102 1127114
2286.21 1161126 1215928 1275420 1301114 1349558 1391478
2292.00 1425358 1459450 1484850 1507952 1546890 1592160
2297.78 1639566 1677124 1696480 1712924 1744730 1782874
2303.57 1813364 1835968 1848466 1852962 1841574 1801144
2309.35 1748602 1713772 1683030 1655416 1641948 1625850
2315.14 1606908 1579136 1538740 1495422 1465038 1427324
2320.92 1384366 1341530 1302274 1263530 1240518 1204220
2326.71 1162100 1131984 1113300 1085066 1049162 1021590
2332.50 987320 964060 972670 957194 930924 911082
2338.28 883692 867638 869218 874978 869724 851074
2344.07 827758 777220 720120 680614 660488 649904
2349.85 632330 624676 634120 645506 651340 658596
2355.64 671076 686174 708358 728560 751382 778802
2361.42 807770 828004 846340 873258 901620 922920
2367.21 938680 944232 954104 955070 966536 982970
2372.99 986114 975962 966530 957906 960918 967570
2378.78 963390 952626 950068 948236 945270 933098
2384.56 928328 925260 927290 930900 944036 944250
2390.35 934638 944134 949000 943370 950726 948782
2396.14 959172 971356 978094 967892 975874 984100
2401.92 986316 995200 1007336 1025600 1052722 1049954
2407.71 1040994 1059048 1076368 1068490 1070718 1076734
2413.49 1076932 1086366 1095824 1100570 1121626 1129514
2419.28 1123836 1124392 1131874 1132072 1145394 1143676
2425.06 1130442 1097818 1066662 1043912 1032438 1020576
2430.85 1007988 994730 968562 943100 925792 911322
2436.63 901932 890136 878936 862736 846326 837328
2442.42 841072 852566 855172 853978 871486 904774
2448.20 951770 1000862 1060424 1113064 1171032 1245962
2453.99 1303762 1373758 1473376 1552082 1635722 1729186
2459.77 1830940 1930336 2011478 2073328 2148850 2225156
2465.56 2307506 2384770 2434652 2474424 2517806 2555024
2471.35 2592616 2611646 2638174 2662620 2658052 2657354
2477.13 2664910 2662630 2641210 2597592 2540848 2473498
2482.92 2405608 2328196 2234960 2149454 2083506 2000450
2488.70 1927372 1872492 1804794 1736958 1655746 1578902
2494.49 1527714 1471442 1402116 1316560 1233418 1155298
2500.27 1089286 1022318 932524 845536 772006 714898
2506.06 667522 606202 550410 509134 473982 423062
2511.84 378272 330698 290020 263980 227238 192072
2517.63 172382 152206 127398 119282 110122 100194
2523.41 102144 95020 88698 109224 123538 115172
2529.20 124838 139012 158530 173856 188332 208720
2534.99 234478 250124 260390 259902 279104 302272
2540.77 301576 310512 327290 330778 324746 320594
2546.56 318648 312584 320696 326362 326320 324464
2552.34 329024 327600 314990 305830 295012 284738
2558.13 269542 237074 213512 223624 232838 212562
2563.91 200728 190848 186472 171712 172118 180982
2569.70 181696 177590 164168 170100 177708 173332
2575.48 176946 185830 188728 178150 186320 210906
2581.27 226376 244186 267146 277536 297524 321536
2587.05 345874 377780 399400 438662 495192 531974
2592.84 589204 632948 676188 731754 798828 834918
2598.63 879502 932694 983216 1014268 1053040 1104176
2604.41 1142500 1150230 1151324 1167838 1187834 1214908
2610.20 1247028 1258348 1238630 1228614 1204776 1163576
2615.98 1148462 1136130 1093034 1048908 1037474 1006800
2621.77 962862 926480 904232 861342 818610 765120
2627.55 716416 683382 662138 626730 602330 571774
2633.34 538510 524752 509960 472530 429958 399212
2639.12 397998 388884 368782 341884 335494 325480
2644.91 309774 296838 298020 290360 280978 283084
2650.69 281898 284976 291166 307126 314214 315680
2656.48 339356 361918 381920 392070 400684 417592
2662.27 470310 516834 545602 556772 581094 620068
2668.05 668364 687206 715676 758598 779034 801050
2673.84 833796 852224 862354 869636 882196 914338
2679.62 976582 1005778 1027756 1043352 1067374 1080776
2685.41 1082780 1112580 1128830 1140704 1159838 1160018
2691.19 1168980 1178734 1165064 1121142 1088908 1062824
2696.98 1040050 1015684 997760 964658 939214 939468
2702.76 964226 989714 1006668 1008390 975998 928528
2708.55 910724 889764 861594 839782 838974 826566
2714.33 850530 878412 900526 911682 931712 958170
2720.12 974674 971868 968764 979212 1008282 1047364
2725.91 1076844 1098922 1110352 1128570 1150802 1159886
2731.69 1205564 1263738 1296906 1318972 1339216 1327198
2737.48 1315282 1330296 1365056 1387884 1386674 1389372
2743.26 1438770 1491130 1525508 1545232 1597508 1646970
2749.05 1706656 1762748 1793676 1791758 1809822 1843820
2754.83 1857156 1856928 1873812 1895316 1920492 1931086
2760.62 1918676 1879118 1859976 1855722 1857404 1862008
2766.40 1860928 1872558 1877714 1885172 1921560 1936844
2772.19 1938510 1925402 1932570 1924504 1928514 1933516
2777.97 1935194 1921458 1915002 1903700 1901396 1896408
2783.76 1907552 1928224 1923366 1914048 1911234 1898136
2789.54 1883112 1857786 1816524 1789174 1801682 1805714
2795.33 1782160 1759390 1759632 1745362 1745174 1741192
2801.12 1752620 1781388 1824856 1874526 1932264 1978294
2806.90 2052136 2113956 2186490 2249696 2347264 2470514
2812.69 2582600 2670072 2750692 2821332 2907950 2941068
2818.47 2985088 3054706 3101822 3125044 3190212 3243186
2824.26 3291768 3342726 3419468 3493696 3564030 3616234
2830.04 3664640 3698914 3744424 3770714 3809994 3872686
2835.83 3951628 4038166 4147930 4248058 4371134 4500582
2841.61 4642388 4782988 4897276 4981756 5110434 5253262
2847.40 5373900 5487478 5616034 5775516 5956544 6103366
2853.18 6253540 6381620 6510196 6626258 6707676 6794664
2858.97 6899586 6982528 7091334 7211872 7326336 7472586
2864.76 7645846 7869672 8162098 8523276 8936778 9416882
2870.54 10028700 10773930 11601650 12507850 13552970 14674390
2876.33 15805410 16888980 17817620 18510340 18980690 19183550
2882.11 19277940 19500730 20016190 20857470 21765640 22334330
2887.90 22665300 23070410 23598320 24154380 24664400 25079580
2893.68 25437990 25704150 25879630 25998700 26170090 26429940
2899.47 26878960 27398680 27816550 28097610 28411560 28844880
2905.25 29408620 30073160 30801020 31502140 32121180 32570210
2911.04 32861850 33043410 33181130 33256360 33172770 32700180
2916.82 32018950 31502670 31336830 31515260 31915900 32341100
2922.61 32737310 33025570 33235030 33352650 33465740 33658170
2928.40 34058210 34750420 35805120 37143970 38721750 40532410
2934.18 42649680 44892390 47065160 48912970 50360160 51464480
2939.97 52465550 53742100 55715370 57756300 59044500 60096980
2945.75 61581930 63479470 65351490 66434260 66473900 65882390
2951.54 65391200 65252060 65579100 66396030 67027840 66359890
2957.32 65560920 65566440 65908340 66231000 66580720 67078280
2963.11 68212090 69816020 70223070 70082380 71129030 72606480
2968.89 74205630 76100180 78744740 82363820 86998510 92151990
2974.68 97608020 103160300 108772300 114225700 119793800 126007700
2980.46 134132400 140243500 139271500 137052200 136969600 137635700
2986.25 138856100 140752200 142830800 143451800 143830700 146167400
2992.04 152692400 164412600 178296400 176228700 159845500 147461300
2997.82 138997200 131651700 124323700 117291300 110180100 103393700
3003.61 97119190 92044520 87547180 83467190 79968270 76987440
3009.39 73880890 70546940 66869490 63071840 59064620 55077710
3015.18 51109840 47289880 43645820 40335140 37290850 34586990
3020.96 32070700 29859540 27895150 26146090 24511730 23094660
3026.75 21829360 20810570 19883020 19031210 18188780 17471520
3032.53 16895390 16489240 16129930 15781500 15405970 15061810
3038.32 14674700 14320220 13989630 13700340 13369770 13111500
3044.10 12885910 12676790 12461090 12284380 12135390 12054120
3049.89 11948530 11858440 11754330 11674540 11586230 11482520
3055.67 11353310 11243200 11089160 10940620 10729360 10525040
3061.46 10344090 10173540 9961928 9776300 9553416 9363902
3067.25 9136720 8926620 8711910 8470822 8226480 7999878
3073.03 7771988 7574390 7306902 7053556 6810568 6565442
3078.82 6352270 6175056 5981474 5792916 5599980 5427748
3084.60 5276246 5165678 5032122 4894660 4775892 4655748
3090.39 4512130 4434570 4366986 4273208 4178718 4102734
3096.17 4007930 3942968 3874312 3808070 3737726 3677772
3101.96 3578632 3485476 3394016 3309836 3249664 3201244
3107.74 3116374 3022620 2917322 2821538 2759274 2720246
3113.53 2671244 2619310 2570206 2525756 2502494 2492862
3119.31 2450436 2407438 2344882 2324298 2292256 2275516
3125.10 2274408 2261100 2215152 2208114 2221304 2248572
3130.89 2247180 2246928 2227938 2205984 2153358 2135426
3136.67 2121854 2078040 2006916 1965550 1902070 1838260
3142.46 1781536 1752922 1739102 1738820 1705600 1653778
3148.24 1619716 1591092 1566362 1543372 1445444 1387874
3154.03 1375374 1354318 1327792 1312020 1274988 1258420
3159.81 1249654 1243938 1245004 1246282 1228444 1232304
3165.60 1256782 1280728 1264674 1258232 1271696 1307922
3171.38 1313434 1339130 1384810 1419752 1406658 1428912
3177.17 1454020 1495552 1530416 1542916 1528384 1544282
3182.95 1553336 1537032 1545630 1579328 1578036 1565818
3188.74 1541540 1537828 1538476 1520828 1476324 1453704
3194.53 1445922 1438338 1406298 1411094 1419870 1392734
3200.31 1352140 1314136 1276150 1258194 1215986 1213726
3206.10 1199646 1163518 1095382 1090010 1100152 1045988
3211.88 997334 985962 971010 965472 935658 895930
3217.67 869564 858180 813902 780826 772730 766662
3223.45 757512 753458 726340 690310 626272 602064
3229.24 616960 650752 645482 606152 557960 548334
3235.02 541146 543698 533592 540154 527370 487530
3240.81 472974 474000 444480 411528 387154 385806
3246.59 358120 327514 323940 317530 263178 265404
3252.38 285968 249054 221810 194028 175354 172560
3258.17 157698 139038 119576 129016 130142 126472
3263.95 77500 54416 38592 28490 59488 95000
3269.74 79674 50486 60310 56664 35562 67202
3275.52 73036 44342 21034 42594 65542 48524
3281.31 39404 65114 76832 75978 58546 58922
3287.09 77626 87640 101588 107084 85792 67062
3292.88 65390 88730 84602 94916 104498 108450
3298.66 106292 87898 95396 134692 148016 135246
3304.45 127678 128906 92622 87126 111626 124700
3310.23 111280 104082 86904 95528 102506 122904
3316.02 104028 104832 129128 146160 106994 87262
3321.80 67564 48840 60130 76548 91328 95366
3327.59 80130 61844 49406 39682 51188 76058
3333.38 49220 49602 61646 52450 32738-1822
3339.16-2878-17462-10086-26134-46544-5070
3344.95 9872 11598 20060 64496 76108 60310
3350.73 80516 94712 114378 116668 113346 150886
3356.52 162840 145978 113058 123704 138226 132990
3362.30 101114 86198 113382 129570 116220 130786
3368.09 125798 80920 50736 34938 28998 38004
3373.87 8690-21882-18540-18176-38928-47758
3379.66-45128-68366-91908-90620-80954-76246
3385.44-56324-77694-106778-73706-27264-6634
3391.23-48270-86252-99254-70186-52482-28838
3397.02-40336-43504-7384-10400-59482-62050
3402.80-26696 12154 5836 10100 3346-17070
3408.59-32984 882 7024 26826 50308 90618
3414.37 96330 85032 79720 87918 121746 125370
3420.16 121888 119320 109670 138972 141664 138752
3425.94 131436 145586 165154 180478 157606 132556
3431.73 167838 205274 180408 149584 170276 198746
3437.51 195630 175734 166658 150474 143016 160000
3443.30 163152 161380 144500 93506 114788 154008
3449.08 150874 164416 153086 121838 109830 127204
3454.87 140032 121786 101460 93690 88048 41578
3460.66 25028 65912 79440 46634 26900 52730
3466.44 38808 45044 17034 14598 50154 22676
3472.23 1062 28652 84440 122814 152008 200598
3478.01 280822 321654 362524 429674 507332 652928
3483.80 800924 915232 1045024 1198622 1389036 1613820
3489.58 1891548 2168424 2440540 2755356 3079796 3431824
3495.37 3781564 4138914 4534930 4980456 5348960 5658916
3501.15 5919026 6103464 6235952 6277278 6235488 6150984
3506.94 6018992 5880392 5799036 5878950 6136684 6541876
3512.72 6880384 6995130 6931356 6727164 6383952 5949602
3518.51 5450486 4911440 4411734 3899884 3372990 2923850
3524.30 2521438 2137138 1796466 1453924 1172744 961904
3530.08 728474 497802 280866 136714 2512-164888
3535.87-304124-349394-426262-525716-594974-610832
3541.65-668758-724932-751830-787376-843070-856594
3547.44-827742-862592-853120-822636-846202-834554
3553.22-829354-810302-801110-797740-811680-801230
3559.01-801596-786646-783808-802850-791244-771732
3564.79-858724-896438-879434-806146-684556-648970
3570.58-598526-567104-554814-563976-529200-489602
3576.36-478274-472736-487200-479904-397956-337180
3582.15-340336-316890-318948-440060-470458-450306
3587.94-446120-264434-217544-187104-229754-232324
3593.72-241664-236080-168900-151092-190006-179026
3599.51-177028-171000-138816-90308-81002-108018
3605.29-167526-219458-285166-448512-324424-194112
3611.08-327898-324102-225506-233314-193808-237730
3616.86-320714-405104-517178-336652-236064-199806
3622.65-184752-169458-219510-251368-443376-758000
3628.43-850936-531530-236574-213450-290886-311800
3634.22-231164-193714-218588-256442-241560-209428
3640.00-206796-230714-248124-237784-268240-327152
3645.79-515856-583806-738222-825714-649930-498000
3651.57-282714-239032-227512-437034-613658-367714
3657.36-212170-223176-220060-202684-210560-231680
3663.15-251830-240312-220140-242788-388340-542898
3668.93-742846-942560-465230-232942-396326-815534
3674.72-1084212-751434-323192-310212-329242-267276
3680.50-209692-213784-189818-195446-188098-223314
3686.29-463142-1040886-799912-411424-488888-360738
3692.07-241562-239378-210976-208022-225508-204816
3697.86-195172-209816-287712-403534-323820-214978
3703.64-190646-224792-251916-260646-365504-471032
3709.43-380020-558768-774148-439000-258672-240704
3715.21-208338-209144-229136-256922-222252-241406
3721.00-339262-300104-215632-280574-360234-396184
3726.79-258564-165794-144518-236420-573050-630926
3732.57-345974-438082-521738-652716-496720-288768
3738.36-241830-227912-230394-214148-481850-1388202
3744.14-1305460-404050-201866-335052-908448-877544
3749.93-491268-981156-847476-246420-105588-122538
3755.71-169724-102066-131688-251040-170530-30562
3761.50-9674-15630-39458-120972-98532 17320
3767.28 3542-177832-277652-70598 24096 44524
3773.07 47206 69006 47216 26792-36620-137702
3778.85-173328-34360 17452 36402-24744-64800
3784.64-35480-15794-50636-47212-41884-14340
3790.43-10490 1406-10274-19660-109948-222842
3796.21-186004-74156-92512-254382-792858-694450
3802.00-214140-79184-44192-256166-598404-393014
3807.78-54666-33688-5902-20876-15516-65450
3813.57-156968-664068-786302-245978-76472-128344
3819.35-417324-619122-388770-86380-37122-20268
3825.14-98070-114940-19480 2388-42102-157148
3830.92-222068-62424-95404-251108-177650-313074
3836.71-877660-568166-169892-212436-149662-73136
3842.49-141042-85798 12250 40814 59252 39500
3848.28 2492-42318-360150-744228-843804-1394966
3854.07-803400-78872-66722-18612 32528 25426
3859.85-36524-106326-47030-83522-321126-283020
3865.64-37698 7626-148652-520118-511274-106330
3871.42 12060-88630-193920-66022 33844 52004
3877.21 32104-66620-237614-179880-36530-26548
3882.99-31630-231318-406990-128534 6852 32340
3888.78 8212-210558-284604-51990-3366 25592
3894.56 49824 65150 30136-74100-202664-86632
3900.35-189434-202258-107062-239484-115206 6734
3906.13 67718 97694 99928 108782 140992 128000
3911.92 95722 89950 110148 116988 25508 10440
3917.70 76968 25902 23824 110978 131164 126170
3923.49 97346 103718 134810 155022 154092 131784
3929.28 116080 113598 92060 147556 201808 221850
3935.06 235070 240460 243226 241508 236700 264312
3940.85 250152 186626 259094 286312 262354 256132
3946.63 235898 209084 263212 370748 376702 329404
3952.42 301118 321822 342708 342172 330524 373970
3958.20 373322 373646 373910 370074 352864 343434
3963.99 357666 388434 416288 437804 425850 443200
3969.77 476614 493856 524722 546674 548388
##END=
