##TITLE=Ethyl Acetate
##JCAMP-DX=4.24
##DATA TYPE=INFRARED SPECTRUM
##CLASS=IUPAC A
##ORIGIN=NIST, Anayltical Chemistry Division, 301-975-3108
##OWNER=COPYRIGHT (C) 1998 by the U.S. Secretary of Commerce
##DATE=98/10/1
##$SPECTRA VERSION=1.00
##$UNCERTAINTY IN Y=2.0 % relative (B=1.0E-04,C=6.3E-10,D=2.7E-14)
##CAS NAME=Ethyl Ester Acetic Acid
##CAS REGISTRY NO=141-78-6
##MOLFORM=C H3 C O2 C H2 C H3
##MP=-83.58 C
##BP=77.06 C
##$NIST SOURCE=QUANT-IR
##SPECTROMETER/DATA SYSTEM=IFS66V (Bruker)
##INSTRUMENT PARAMETERS=KBr Beam splitter; MCT Detector; Multipass cell
##STATE=gas
##SAMPLE DESCRIPTION=Ethyl Acetate Primary Gas Standard
##PRESSURE=101.3 kPa
##TEMPERATURE=23 C
##SAMPLING PROCEDURE=1 L/min Flow
##RESOLUTION=1.9290
##DATA PROCESSING=Happ Genzel Apodization
##XUNITS=cm-1
##YUNITS=(micromol/mol)-1m-1 (base 10)
##XFACTOR=1.0
##YFACTOR=18.189E-13
##DELTAX=0.9645
##FIRSTX=574.687
##LASTX=3974.595
##FIRSTY=3.84E-07
##MAXX=3973.63
##MINX=574.69
##MAXY=.0019858
##MINY=-2.54E-06
##NPOINTS=3527
##XYDATA=(X++(Y..Y))
574.69 211358 396272 548884 559838 791504 882466
579.51 1027652 1350160 1635258 1888326 2195484 2425910
585.29 2925090 3513114 3911206 4404028 4928118 5298108
591.08 5752094 6351296 6911148 7596360 8239018 8637378
596.86 9163158 9697892 10124960 10819750 11766410 13303240
602.65 15160840 16757700 18353270 19359330 18844800 17546680
608.44 16684290 16259480 16021590 15600940 15188200 15001190
614.22 15046580 15264900 15685500 16258890 17024870 18080370
620.01 19371470 20892680 22678960 24651760 26432970 27742440
625.79 28404470 28380720 27467140 25830460 24567360 25019270
631.58 25682190 24295080 23079800 23353940 23983870 24327780
637.36 23353020 21720110 20822250 20238490 19288820 17783980
643.15 15977270 13961570 11795400 9693468 7865114 6303266
648.93 5026034 4006050 3215786 2613952 2152924 1758376
654.72 1540828 1413622 1263540 1134096 1028408 914260
660.50 820768 725880 671682 574684 478964 497760
666.29 514212 456556 386650 397772 419922 394556
672.08 360142 339444 313248 262728 282962 303918
677.86 268520 217644 183484 146848 120528 172016
683.65 199354 174020 164502 187586 188280 156264
689.43 149558 167336 134786 137620 123346 125760
695.22 196222 183452 138148 108484 67552 39670
701.00 71526 92360 115030 150296 137122 91344
706.79 126536 158026 151904 170096 192850 190350
712.57 211732 201888 215416 248806 244864 237102
718.36 235258 266692 265878 260786 269740 269270
724.14 255340 276990 309900 285788 295700 350032
729.93 386646 384918 395506 417314 431842 424370
735.71 442648 493368 510946 504498 515902 566804
741.50 621586 646098 666018 733732 811046 877910
747.29 910008 979432 1091808 1190938 1289636 1400664
753.07 1509546 1635500 1798048 2008580 2194684 2389432
758.86 2619118 2897348 3207126 3513356 3862096 4224330
764.64 4629070 5052272 5484814 5973394 6534644 7121016
770.43 7708408 8343180 9007870 9671520 10416980 11174270
776.21 11824350 12354480 12843240 13257830 13432130 13420660
782.00 13284160 13049260 13040960 13194790 13403740 14019710
787.78 14573560 14730660 14602640 14351440 14027900 13618430
793.57 13124560 12578240 11982500 11375200 10774060 10167640
799.35 9620044 9130460 8633152 8203266 7814704 7440522
805.14 7093428 6743464 6496588 6434690 6229482 5827140
810.93 5530326 5342000 5185262 5095174 5043082 5022870
816.71 5049462 5096700 5156668 5312452 5577060 5816936
822.50 6105638 6453850 6852638 7343254 7840918 8375608
828.28 9018844 9760470 10540810 11338460 12253760 13241670
834.07 14280790 15340450 16462600 17589650 18643310 19659830
839.85 20554490 21162410 21521060 21661150 21586030 21632760
845.64 21865540 22134680 22496370 22800480 22898190 22896290
851.42 22850810 22798400 22727830 22555400 22245600 21757490
857.21 21053870 20174960 19121360 17935660 16704380 15432630
862.99 14198790 13081350 12006710 10964310 10002500 9158132
868.78 8374570 7684054 7058418 6471506 5933536 5436782
874.57 4975694 4572852 4233256 3902580 3593716 3353088
880.35 3129392 2928186 2771336 2645880 2525102 2412100
886.14 2344860 2286076 2262558 2255574 2311958 2411750
891.92 2492824 2579400 2744652 2977322 3284202 3674370
897.71 4139144 4732608 5450766 6309482 7327214 8451310
903.49 9660270 10886830 12073230 13152430 14036220 14707390
909.28 15165900 15486180 15994490 17214090 18788780 18969680
915.06 18323200 18337830 18915870 19660180 20373800 20972130
920.85 21432790 21788410 22069980 22339440 22679620 23106980
926.63 23597000 24113890 24600270 24943570 24975630 24624380
932.42 23874900 22722700 21310150 20024000 19477810 20045540
938.21 20787420 19272340 16973880 16824660 17885860 18781170
943.99 18946210 18284980 16837570 14859870 12632660 10478270
949.78 8545972 6956100 5709578 4796374 4153170 3730318
955.56 3416370 3178206 3018366 2936172 2844838 2789410
961.35 2757650 2758834 2767348 2790168 2825426 2883160
967.13 2948022 3047606 3170816 3311584 3463294 3626150
972.92 3783482 3966480 4178908 4429476 4722790 5033596
978.70 5326522 5664148 6041690 6462568 6940078 7462222
984.49 8022272 8628078 9266962 9956034 10643250 11312550
990.27 11937630 12520120 13016530 13398750 13658370 13846260
996.06 13948450 13981210 13975700 13986580 14050880 14188430
1001.85 14187570 14117850 14102990 14169830 14239650 14233620
1007.63 14129520 13921210 13624140 13278800 12939640 12654620
1013.42 12464230 12418450 12513410 12750450 13147320 13711890
1019.20 14406530 15217760 16190900 17353420 18753080 20430780
1024.99 22404310 24763410 27568530 30841680 34643500 39054780
1030.77 44174760 50115320 56883200 64472500 72966800 82402260
1036.56 92740900 104051900 116336200 129577300 143791200 158923200
1042.34 174624000 190325500 205606000 220608000 235337600 249293400
1048.13 261800100 272294100 280568200 286931100 291538400 294392900
1053.91 296412900 298922200 302317400 304411400 301498000 295582000
1059.70 291415700 286634200 280327500 272218100 260468000 245040500
1065.48 226990300 207846500 188730800 170035600 152469100 137178500
1071.27 124401800 113774500 104961000 97577920 91167590 85566540
1077.06 80622210 76222570 72255020 68738760 65617170 62982230
1082.84 60844560 59192030 58009210 57335320 57149690 57390800
1088.63 58005740 59088440 60501780 62151220 63970100 65752060
1094.41 67391270 69068710 70070310 69678270 68470220 67330620
1100.20 66581650 67074720 69718680 73319960 71647300 65465090
1105.98 62434910 62616880 63565370 64157360 63912360 62541620
1111.77 60079360 56643850 52567700 48182340 43822170 39713190
1117.55 36091530 33049560 30557880 28336060 26438870 25273530
1123.34 24667280 24090600 23276950 22158190 20772490 19230490
1129.12 17697570 16222380 14848940 13640730 12587570 11660730
1134.91 10885010 10232110 9718458 9313978 8985652 8703614
1140.70 8485126 8331388 8225076 8171478 8165556 8185004
1146.48 8240460 8294776 8346776 8437624 8564052 8683810
1152.27 8783560 8915440 9065106 9230474 9436506 9681008
1158.05 10003520 10465190 11060350 11358660 10878330 10391770
1163.84 10276790 10250860 10275110 10311730 10349150 10399520
1169.62 10459070 10519360 10583980 10594550 10571520 10575150
1175.41 10572250 10556220 10604050 10753230 10948520 11199570
1181.19 11458460 11706080 11976670 12295120 12661890 13092860
1186.98 13605690 14217010 14946380 15825460 16847490 18067410
1192.76 19470860 21068770 22923680 25082510 27509830 30243310
1198.55 33319390 36746260 40502820 44597030 48965920 53633760
1204.34 58628210 63958050 69542450 75369510 81516080 88124340
1210.12 95160100 102620700 110428900 118602600 127102500 135975800
1215.91 145988100 158284100 173287500 191144600 211880200 235783600
1221.69 263054000 293957300 330455200 373109700 421025900 473307800
1227.48 528759600 585944100 643116400 698401500 749675900 795262200
1233.26 834061800 866752000 896250100 927340800 963702000 1007373000
1239.05 1055477000 1085161000 1066740000 1031174000 1031477000 1056519000
1244.83 1081519000 1091747000 1076594000 1036649000 979695900 912533100
1250.62 840286700 770218400 708089300 654753300 607144300 561520100
1256.40 516271800 470825900 425139400 379426800 334354400 291442300
1262.19 253293700 223237900 204161800 191217000 175779900 158667400
1267.98 146520600 141885600 140660600 139073900 135439200 129335900
1273.76 120942600 110902000 99702420 88780840 79052360 70539710
1279.55 63198770 56913340 51579330 47072740 43319300 40239810
1285.33 37832930 36105840 34962150 34327500 34178290 34437120
1291.12 35027920 35927770 37089450 38428550 39894900 41477160
1296.90 43110020 44709170 46290910 47912220 49686610 51652080
1302.69 53330990 53554440 52243020 51152910 51138430 51933930
1308.47 52979640 52977150 51379960 49263630 47496900 46160170
1314.26 45016520 43673720 41943100 39812610 37206310 34270610
1320.04 31207190 28130900 25189610 22513340 20104810 17979250
1325.83 16167960 14665510 13420740 12362730 11470730 10735580
1331.61 10140810 9684692 9331824 9058338 8860358 8732698
1337.40 8663312 8667482 8792012 9072952 9494288 10047650
1343.19 10822950 11862510 13219440 14946340 17092630 19715670
1348.97 22885130 26545210 30695460 35200900 39953160 44712270
1354.76 49239520 53218150 56630590 59899010 64190910 71330860
1360.54 82413650 93040120 101873800 113602300 126031200 138240000
1366.33 152313900 166876500 179378300 188348500 193217600 194859100
1372.11 194888500 195384300 197025700 198682900 197341400 191783000
1377.90 187056000 187864100 192671300 197721800 200620100 199618100
1383.68 194037100 184117600 170648300 155201900 139643100 124587200
1389.47 110626800 98380100 88022150 79526100 73007580 68529960
1395.25 64344870 59636490 55439580 52248250 50204800 48736460
1401.04 47584840 46741330 45853360 44746990 43447580 41844680
1406.83 39995510 38105740 36284470 34619990 33168210 31981520
1412.61 31008500 30196680 29507280 28941850 28481620 27950010
1418.40 27438230 27791100 28356530 28752650 28917870 28906020
1424.18 29152670 29608400 30132090 30683670 31169730 31612070
1429.97 32194590 32774420 33276010 33747880 34209910 34374480
1435.75 34469900 35335600 36170090 36743440 37337140 37891460
1441.54 38367900 38773820 39185320 39632620 40035130 40355480
1447.32 40839110 41619150 42454030 43685870 45584520 47181400
1453.11 46761980 45338700 43891310 43050780 43596270 44404540
1458.89 45309890 45696220 45409150 45197080 45265340 44911910
1464.68 44515070 44327820 44216090 44518570 45256830 45680970
1470.47 44765140 43323150 42259300 41973110 41848760 41507940
1476.25 41371520 41022600 40341890 39417060 38290530 37006370
1482.04 35507580 33767660 31899090 30133400 28667800 27531960
1487.82 26740700 26187620 25963510 25817370 25385670 24591040
1493.61 23598300 22130380 20834510 20120790 19056060 18089150
1499.39 17345760 16485020 15694770 14960690 14128250 12925870
1505.18 11948220 11493270 11553070 11464930 11163890 10847630
1510.96 10398600 10128380 9953500 9629074 9318014 8912644
1516.75 8741140 8773306 8482084 7840402 7578624 7856044
1522.53 8028960 7921422 7631564 7679954 7624806 7508186
1528.32 7468860 7448884 7316284 7130106 6822760 6759552
1534.11 6989510 7077886 7063352 6676852 5965872 6006080
1539.89 6496436 6628286 6905602 7287146 7203756 7278528
1545.68 7494548 7541662 7472624 7395266 7500916 7752822
1551.46 7739120 7425198 7125392 7474386 7650158 7211682
1557.25 6673116 6716428 6839740 7508186 7935436 7840550
1563.03 7589828 7285320 7079498 6852970 6589314 6256398
1568.82 6016782 6061574 5864512 5666266 5595694 5444388
1574.60 4695330 4378994 4855652 4786204 4486440 4167002
1580.39 3914082 3678146 3494726 3340292 3213930 3110386
1586.17 3046938 2993162 2952454 2906170 2867696 2829102
1591.96 2806998 2775030 2760268 2761454 2778650 2784684
1597.74 2776656 2788824 2796878 2819800 2850696 2878162
1603.53 2923050 2983778 3031568 3086638 3140114 3178656
1609.32 3242844 3319652 3355510 3421338 3487352 3458854
1615.10 2933252 2804014 3531974 3827148 3901094 3959806
1620.89 3997580 3867106 3862300 4146082 4303252 4294514
1626.67 4224630 4314648 4445014 4471790 4477950 4477600
1632.46 4459084 4129276 3618826 3935610 4388368 4537054
1638.24 4696212 4749956 4811152 4871016 4945616 4976038
1644.03 4745928 4388612 4642530 4876192 5078176 5254872
1649.81 5241720 4559248 3674754 4126242 5107310 5659326
1655.60 5920512 6060312 6207648 6315408 6425336 6459242
1661.38 6365244 6476956 6797776 6930864 7061148 7119608
1667.17 7068916 6858572 7096754 7351518 7518734 7755760
1672.96 7783902 7495918 7695306 8202606 8405064 8512870
1678.74 8603056 8749794 8942456 8903186 8598926 8160348
1684.53 8811898 9836468 10105620 10290110 10482260 10698620
1690.31 10917600 11122850 11258010 11279390 10598260 10264490
1696.10 11121510 11506240 11181310 10476760 10877560 11894050
1701.88 12362120 12472070 12616790 12822880 13036850 13445360
1707.67 13774270 14053220 14400710 14840530 15232740 15571040
1713.45 15797120 16140340 16323640 16014750 16344520 16920450
1719.24 17271300 17682390 18321050 19252330 20835810 22951280
1725.02 25136720 27276260 29386790 31569030 33989280 36984340
1730.81 40484020 44192850 48563600 54590620 62263980 70628100
1736.60 79695050 89758820 100742900 113500300 127899300 143486800
1742.38 160689400 179956300 201287100 224800500 250774800 279491300
1748.17 311224400 345946000 383307500 424191800 467542000 511317800
1753.95 554117600 593602000 626668100 650079500 660944600 657816500
1759.74 640562200 611486500 579813300 558075100 545622100 544934600
1765.52 578175700 638089600 691946200 719719700 718055600 693350800
1771.31 654073900 607382800 557187600 505631200 455302100 407862100
1777.09 364223800 324784600 289515600 258109200 230221400 204985200
1782.88 181862600 160545800 141123600 123311500 107076200 92463860
1788.66 79386610 67767190 57605820 48801940 41736740 35886440
1794.45 30791440 26607820 23199390 20333050 17884700 15940960
1800.24 14365290 13057090 12048330 11239630 10568530 10019980
1806.02 9561232 9188014 8904094 8623602 8410884 8319490
1811.81 8246116 8220898 8221450 8235402 8239560 8262288
1817.59 8326920 8397504 8470966 8542160 8599706 8656446
1823.38 8596762 8496798 8594238 8676710 8683114 8649198
1829.16 8698740 8966414 9140564 9169434 9163662 9140882
1834.95 9101560 9039302 8959140 8884554 8780044 8660456
1840.73 8526376 8352756 7948776 7742628 7890508 7831802
1846.52 7643080 7487886 7361502 7199882 7033880 6855154
1852.30 6699548 6552532 6416950 6282200 6157732 6046520
1858.09 5964408 5886848 5825888 5771196 5720614 5661116
1863.88 5607902 5559566 5518530 5461674 5365492 5336012
1869.66 5429050 5434090 5402386 5350822 5331958 5327042
1875.45 5363364 5440082 5546982 5660034 5785380 5917620
1881.23 6035774 6111662 6168908 6207214 6236914 6254138
1887.02 6262104 6210012 6233458 6372438 6477104 6577146
1892.80 6661008 6698792 6759296 6830680 6886922 6915026
1898.59 6921324 6934840 6933512 6881624 6802570 6734226
1904.37 6644288 6526684 6376802 6195592 5993328 5757952
1910.16 5514814 5253026 4990120 4743920 4504828 4257914
1915.94 3971348 3641038 3482226 3362330 3197026 3029188
1921.73 2863048 2766490 2704040 2621672 2532252 2449052
1927.51 2371240 2309896 2263256 2212476 2150624 2098944
1933.30 2055416 2020594 1996660 1981920 1974096 1975334
1939.09 1970608 1955108 1894610 1881580 1947818 1973838
1944.87 1969324 1980776 2002148 2004932 2016082 2022868
1950.66 2013136 2009430 2009898 2024120 2043344 2062438
1956.44 2084216 2091902 2093090 2092336 2088156 2086560
1962.23 2084628 2075130 2060082 2036012 2020028 2026536
1968.01 2029398 2003880 1992272 1997322 2001680 1990078
1973.80 1962770 1934792 1933676 1929526 1905192 1871544
1979.58 1841172 1816974 1805136 1793096 1790026 1797698
1985.37 1791046 1785200 1797182 1828076 1859050 1847944
1991.15 1860906 1934128 2007262 2058270 2112980 2190844
1996.94 2274248 2342382 2408252 2480452 2549408 2608502
2002.73 2662220 2709878 2766410 2832632 2893560 2965686
2008.51 3037522 3107094 3159304 3209418 3276578 3327542
2014.30 3351650 3363740 3372918 3365224 3328380 3298614
2020.08 3276064 3236922 3202828 3173470 3088692 2990784
2025.87 2925108 2895052 2885570 2852122 2784622 2711400
2031.65 2608092 2468946 2328940 2198196 2071084 1956678
2037.44 1868554 1799636 1734640 1670174 1623612 1583260
2043.22 1546552 1526632 1511516 1508794 1517182 1521012
2049.01 1534690 1560514 1598268 1638564 1668068 1702128
2054.79 1746898 1806874 1884082 1966924 2052670 2145798
2060.58 2249272 2356606 2471650 2600324 2750146 2928964
2066.37 3119378 3302894 3509616 3754620 4021764 4304072
2072.15 4588628 4887706 5189640 5488858 5765330 5993388
2077.94 6229616 6436070 6607978 6760212 6943716 7156364
2083.72 7321004 7387068 7404042 7462042 7582734 7705198
2089.51 7772844 7794604 7737284 7595744 7364192 7092390
2095.29 6816734 6512306 6169860 5822882 5544604 5276068
2101.08 4991434 4715618 4495464 4297666 4080192 3847528
2106.86 3642816 3462014 3254066 3029598 2815730 2651418
2112.65 2471100 2264054 2054124 1911706 1796916 1678712
2118.43 1541906 1462582 1412164 1344242 1256668 1201668
2124.22 1186104 1146362 1083410 1045236 1034060 1010016
2130.01 971258 947948 955726 968534 978330 1002064
2135.79 1054144 1114174 1183512 1244732 1329218 1416024
2141.58 1477058 1534156 1585282 1636376 1679758 1720936
2147.36 1760294 1798778 1827366 1861844 1918574 1935836
2153.15 1906726 1905514 1942844 1962028 1954004 1967316
2158.93 1975258 1921142 1853156 1830866 1819978 1747140
2164.72 1687490 1698188 1696392 1621468 1572100 1612040
2170.50 1609842 1564972 1565630 1587692 1568012 1532526
2176.29 1537706 1544458 1507364 1486184 1501720 1469998
2182.07 1411534 1389238 1378218 1322156 1283054 1285628
2187.86 1265932 1212680 1181628 1139144 1057248 987366
2193.64 940464 858876 786258 750234 723194 690202
2199.43 685702 697994 685726 681044 709500 732346
2205.22 739656 775188 820212 854890 886482 913264
2211.00 928442 931962 951960 974032 1003854 1045540
2216.79 1073190 1094272 1131840 1175422 1203928 1218046
2222.57 1227602 1255952 1307698 1348022 1362326 1381370
2228.36 1408402 1415408 1416942 1417332 1401714 1385884
2234.14 1375334 1338998 1319476 1304350 1286156 1276248
2239.93 1264106 1238238 1222996 1215966 1208704 1187970
2245.71 1156592 1125882 1089146 1055636 1033992 1001880
2251.50 966916 934908 897488 858574 829536 801510
2257.28 776816 757428 730280 704906 679228 661642
2263.07 658634 654584 657606 656456 660090 671092
2268.86 696082 710852 720666 726940 731284 742514
2274.64 770700 801818 817616 835580 868530 912492
2280.43 949922 972138 1008996 1054262 1092258 1127034
2286.21 1160712 1216170 1275434 1301328 1349272 1391776
2292.00 1425350 1459612 1484812 1507788 1546654 1592188
2297.78 1639744 1677442 1696516 1712690 1744608 1782970
2303.57 1813570 1836114 1848644 1853288 1842100 1801286
2309.35 1748432 1713604 1682914 1655300 1641844 1626008
2315.14 1607020 1579426 1538670 1495384 1464986 1427544
2320.92 1384260 1341622 1302012 1263546 1240518 1204438
2326.71 1161830 1131840 1113436 1085136 1049154 1021642
2332.50 986946 963862 972740 957528 930904 911052
2338.28 883582 867292 869124 875232 869836 851402
2344.07 828052 777434 719806 680200 660406 649898
2349.85 632214 624370 634062 645596 651310 658546
2355.64 670934 686156 708288 728582 751244 778836
2361.42 807876 828044 846204 873252 901664 923178
2367.21 938646 944432 953994 955060 966384 983240
2372.99 986294 976068 966390 957780 960822 967782
2378.78 963440 952608 949904 948430 945230 933174
2384.56 928110 925330 927080 930900 944208 944320
2390.35 934470 944170 949002 943498 950484 948908
2396.14 958854 971756 978040 967902 975682 984232
2401.92 986230 995148 1007086 1025704 1053028 1050124
2407.71 1040560 1059120 1076594 1068540 1070574 1076776
2413.49 1076834 1086406 1095702 1100558 1121660 1129846
2419.28 1123658 1124450 1131674 1132236 1145302 1144204
2425.06 1130548 1097980 1066378 1043804 1032380 1020576
2430.85 1008092 994856 968600 942982 925654 911332
2436.63 901864 890228 878956 862776 846174 837084
2442.42 840964 852716 855162 853770 871036 904684
2448.20 951518 1000880 1060420 1112908 1170958 1246042
2453.99 1303504 1373560 1473296 1552330 1635358 1729126
2459.77 1830920 1930794 2011600 2073376 2148596 2225154
2465.56 2307638 2385190 2434850 2474496 2517688 2555318
2471.35 2592660 2611678 2638292 2662924 2658166 2657162
2477.13 2665064 2663040 2641556 2597936 2540946 2473600
2482.92 2405766 2328480 2234716 2149372 2083510 2000374
2488.70 1927188 1872434 1805080 1737046 1655620 1578636
2494.49 1527582 1471872 1402244 1316674 1233212 1155106
2500.27 1089406 1022548 932624 845234 771652 714872
2506.06 667560 606272 550002 509228 473980 423226
2511.84 378162 330560 289900 264008 227264 191814
2517.63 172412 152140 127288 119188 110088 100120
2523.41 102216 94930 88346 109356 123690 115202
2529.20 124456 139114 158476 173948 188142 208760
2534.99 234468 250468 260326 259708 279090 302476
2540.77 301598 310332 327490 330988 324676 320670
2546.56 318514 312554 320566 326572 326266 324426
2552.34 329126 327720 315052 305768 295028 284894
2558.13 269774 236896 212954 223732 233062 212800
2563.91 200346 191072 186346 171640 171930 181018
2569.70 181994 177492 164046 169994 177836 173318
2575.48 176744 186076 188786 177930 186044 210968
2581.27 226348 244232 267146 277548 297396 321430
2587.05 345942 377762 399084 438658 494970 532242
2592.84 588942 633294 675650 731986 798870 835190
2598.63 879074 932972 983338 1014278 1052774 1104458
2604.41 1142998 1150348 1151154 1167646 1187758 1214800
2610.20 1247534 1258640 1238774 1228768 1204938 1163318
2615.98 1148346 1136684 1092880 1048714 1037424 1007302
2621.77 962494 926574 904176 861744 818510 765226
2627.55 715946 683434 662030 626862 602270 571804
2633.34 538236 524786 510244 472806 429492 398998
2639.12 397814 389368 368598 341842 335298 325750
2644.91 309558 296776 298036 290382 280912 282952
2650.69 281994 284752 291124 307262 314152 315558
2656.48 339096 362188 381908 392322 400198 417338
2662.27 470064 517440 545658 556808 580526 620276
2668.05 668506 687228 715512 758788 779106 800946
2673.84 833898 852510 862304 869680 881512 914328
2679.62 976568 1006414 1027536 1043404 1067584 1080688
2685.41 1082722 1112484 1128968 1140790 1159850 1160138
2691.19 1168810 1179344 1165340 1121252 1088550 1062956
2696.98 1039848 1015854 997768 964680 938638 939102
2702.76 964130 989882 1007006 1009046 976054 928364
2708.55 910446 890140 861156 839918 838494 826544
2714.33 849990 878812 900504 911674 931520 958420
2720.12 974942 971940 968490 978842 1008178 1047406
2725.91 1077124 1099012 1110222 1128716 1150632 1159572
2731.69 1205204 1264178 1297050 1319266 1339514 1327370
2737.48 1314714 1330008 1365198 1388420 1386346 1388908
2743.26 1438340 1491804 1525304 1545224 1597020 1647144
2749.05 1706506 1763444 1793976 1791640 1809480 1844186
2754.83 1857290 1856846 1873484 1895464 1920564 1931772
2760.62 1918842 1879054 1859546 1855600 1857472 1861900
2766.40 1860904 1872620 1877438 1885118 1921406 1937618
2772.19 1938216 1925680 1932220 1924776 1928140 1933896
2777.97 1935126 1921702 1914732 1903852 1901194 1896198
2783.76 1907494 1928494 1923540 1914014 1911268 1898300
2789.54 1883272 1858084 1816134 1788700 1801630 1806324
2795.33 1781942 1759404 1759328 1745644 1744810 1741188
2801.12 1752102 1781298 1824464 1874812 1931842 1978538
2806.90 2051600 2114448 2186056 2249460 2346608 2470844
2812.69 2582814 2670622 2750246 2821908 2908072 2941404
2818.47 2984442 3055314 3101734 3125028 3189762 3243746
2824.26 3291308 3342668 3419122 3494126 3564000 3616730
2830.04 3664408 3699262 3744274 3770810 3809354 3872592
2835.83 3951124 4038240 4147522 4248150 4370624 4500602
2841.61 4642236 4783754 4897342 4981434 5109948 5253668
2847.40 5374040 5487260 5615248 5775584 5956492 6104002
2853.18 6253412 6381924 6510402 6626794 6707540 6794680
2858.97 6899466 6982440 7091052 7211740 7326074 7471794
2864.76 7645032 7868306 8160842 8522306 8935306 9414578
2870.54 10026130 10772450 11599730 12505750 13551220 14674250
2876.33 15806340 16892130 17821500 18515420 18984990 19185850
2882.11 19275530 19495130 20010000 20857120 21770820 22338930
2887.90 22664410 23068050 23597550 24155600 24665630 25081300
2893.68 25439220 25706360 25880010 25998610 26167360 26427320
2899.47 26877180 27400890 27818480 28097580 28409030 28842620
2905.25 29406410 30072370 30801030 31504250 32123870 32573590
2911.04 32863530 33044790 33181620 33260620 33178900 32704340
2916.82 32016040 31496150 31330020 31511650 31914500 32342600
2922.61 32738400 33027960 33235980 33353360 33463670 33654770
2928.40 34052030 34744310 35799010 37140110 38716240 40527920
2934.18 42646210 44894700 47070450 48921210 50365950 51467390
2939.97 52458380 53731040 55715080 57767300 59050070 60089790
2945.75 61573120 63481580 65365020 66454540 66484530 65882420
2951.54 65383460 65243730 65568300 66405250 67044300 66365960
2957.32 65547340 65558550 65908400 66231270 66577340 67064010
2963.11 68210250 69832870 70229800 70069790 71113360 72607630
2968.89 74197500 76088180 78723970 82347570 86985620 92148730
2974.68 97603460 103162600 108770900 114229400 119772200 125976900
2980.46 134189900 140339100 139318500 137013700 136947100 137630500
2986.25 138837600 140759500 142845400 143465600 143782800 146106700
2992.04 152553800 164444400 178552100 176460000 159846100 147343500
2997.82 138993400 131639100 124328800 117283600 110181900 103375700
3003.61 97104790 92027830 87541750 83454050 79962090 76985610
3009.39 73888900 70549750 66875610 63072230 59067270 55074920
3015.18 51109140 47284360 43641860 40327560 37287050 34580780
3020.96 32067080 29853140 27892770 26141860 24509840 23089430
3026.75 21827010 20806820 19883280 19029400 18187800 17467630
3032.53 16893390 16487230 16130750 15780800 15406820 15061150
3038.32 14675400 14318540 13990280 13699480 13369840 13109880
3044.10 12886350 12676130 12461240 12282790 12135380 12053270
3049.89 11949370 11857740 11754670 11674060 11587160 11482150
3055.67 11354100 11242700 11090450 10940570 10730130 10523910
3061.46 10344760 10173070 9962954 9775378 9554364 9363282
3067.25 9137294 8926286 8712578 8470626 8226696 7998982
3073.03 7772698 7574358 7307598 7052950 6810692 6564708
3078.82 6351976 6174820 5981908 5792510 5600066 5426802
3084.60 5276130 5165530 5032516 4894096 4776358 4655386
3090.39 4511734 4433886 4367662 4272962 4178916 4102326
3096.17 4008140 3942402 3874786 3807592 3738224 3677778
3101.96 3579084 3485134 3394012 3309242 3249770 3201470
3107.74 3116946 3022588 2917234 2820868 2758956 2720258
3113.53 2671402 2619232 2570128 2525218 2502664 2492788
3119.31 2451304 2406820 2345110 2323676 2292486 2274912
3125.10 2275036 2261060 2215148 2207090 2221676 2248412
3130.89 2247856 2246600 2228750 2205732 2153426 2134898
3136.67 2122788 2077970 2007144 1965244 1902594 1837728
3142.46 1781372 1752272 1739232 1739154 1705998 1653520
3148.24 1619676 1590620 1567196 1543654 1445514 1386756
3154.03 1375568 1354230 1328026 1311862 1275082 1257990
3159.81 1249734 1243678 1245254 1246260 1228400 1231608
3165.60 1257208 1280918 1265032 1257342 1271916 1307762
3171.38 1313644 1338314 1385602 1419756 1406964 1428082
3177.17 1454252 1495302 1531206 1542922 1528314 1544194
3182.95 1553750 1536556 1545494 1579448 1578760 1565590
3188.74 1541528 1537492 1539080 1520944 1476336 1453054
3194.53 1446368 1438192 1406134 1410824 1420508 1392966
3200.31 1352330 1313638 1276568 1257622 1216264 1213110
3206.10 1200806 1163306 1094820 1089694 1100980 1046070
3211.88 996876 985560 971324 965536 936092 895428
3217.67 869712 858290 814012 780268 772744 766524
3223.45 757788 753390 727126 690140 626124 600884
3229.24 617028 651070 646488 605866 557834 547676
3235.02 541534 543378 533738 540334 527774 487158
3240.81 472854 474196 444928 410966 387212 385858
3246.59 358402 326840 324460 317630 262732 265124
3252.38 286436 249520 221444 193928 175226 172496
3258.17 158116 138586 119642 128478 131032 126448
3263.95 77730 53950 38444 27852 59452 95814
3269.74 79842 50036 60536 56488 35372 67068
3275.52 73980 44012 20428 42540 66136 48366
3281.31 39056 64976 77412 76004 58360 58644
3287.09 77606 87682 101822 107352 86038 66356
3292.88 65504 88552 84890 94636 104662 108684
3298.66 106402 87462 95002 134924 148652 134942
3304.45 128006 128930 92568 86328 112032 124816
3310.23 111728 103594 87158 94768 103128 122766
3316.02 104326 103918 129852 146414 107350 86910
3321.80 67516 48494 59834 76674 91536 95666
3327.59 80228 61752 49356 39068 51538 76174
3333.38 49376 49192 61850 53088 32336-1580
3339.16-3510-17180-9904-26440-46846-5430
3344.95 10726 10944 19924 64842 76376 60226
3350.73 80046 94994 114626 116436 113220 150738
3356.52 163902 145708 112838 123210 138856 133292
3362.30 100830 85528 113626 129738 116184 130966
3368.09 126378 80880 50424 34538 29142 38308
3373.87 8848-22412-18540-17874-39108-47808
3379.66-44890-68242-92398-90646-81218-76038
3385.44-55870-77694-107464-74448-26262-6100
3391.23-47722-87300-99368-70726-51888-28684
3397.02-40392-44006-6732-9902-59810-63224
3402.80-26226 12282 6338 9800 4048-17824
3408.59-32940 352 7636 26054 50624 90794
3414.37 96836 84996 79178 87904 121866 125670
3420.16 122096 118848 109784 138662 142384 138356
3425.94 131434 145154 165532 181014 157522 131702
3431.73 167780 206238 180528 148844 169992 199354
3437.51 195846 175748 166632 150260 142798 160022
3443.30 163250 162064 144362 92856 114350 154290
3449.08 151238 164440 153594 121450 109324 127346
3454.87 140412 122040 100998 94044 88348 41166
3460.66 24216 66122 80474 45990 26972 52216
3466.44 39654 44810 16770 14406 50534 23080
3472.23-66 28324 84514 123194 151332 200550
3478.01 281014 321830 362316 428860 506676 652630
3483.80 801368 915266 1044278 1198224 1388014 1613200
3489.58 1891412 2168240 2440292 2754556 3079822 3431440
3495.37 3781748 4137676 4534856 4981062 5350470 5659946
3501.15 5920106 6104876 6237442 6278782 6236598 6151550
3506.94 6019438 5878852 5796516 5875004 6134520 6542948
3512.72 6884280 6998768 6934098 6729624 6385760 5951026
3518.51 5450748 4911284 4411752 3899838 3371982 2922856
3524.30 2520746 2136922 1795910 1452914 1171868 961578
3530.08 729136 496814 280170 136154 3304-165944
3535.87-304896-349750-425270-526814-595180-610852
3541.65-668384-725516-751666-787076-844074-856560
3547.44-827712-862692-853324-822558-845730-835392
3553.22-828882-810702-800440-798070-811408-801702
3559.01-801390-786634-783366-803708-790388-771246
3564.79-858420-897936-880850-805908-684546-647804
3570.58-599160-566012-555114-564214-529510-489212
3576.36-477902-472496-487826-480858-397712-336294
3582.15-340640-315744-318084-440844-470708-452684
3587.94-445460-265964-213956-188192-228764-233096
3593.72-241902-236796-168164-150544-190024-179610
3599.51-176714-171734-138806-89894-80136-107328
3605.29-168346-217258-286588-451028-324832-191310
3611.08-328524-325722-225372-232034-193590-237050
3616.86-318886-408262-518040-338978-232626-200798
3622.65-183296-170008-217996-249468-440852-762938
3628.43-856932-532078-231912-210886-292502-312844
3634.22-231168-192092-218708-257066-242014-208962
3640.00-206108-231308-247650-238610-265282-328016
3645.79-514688-584282-739970-827782-653532-494908
3651.57-283606-234958-225054-439048-617890-369056
3657.36-208184-223254-220362-202398-210072-231990
3663.15-252092-240828-218788-240996-388646-538938
3668.93-749954-945906-467944-221936-392634-819380
3674.72-1093544-752992-318198-307084-331852-266426
3680.50-209720-212824-190812-193998-189788-214186
3686.29-465754-1047786-804908-406798-487376-363472
3692.07-238984-239262-210882-207800-225758-204968
3697.86-194690-207976-288634-405244-325544-213078
3703.64-189624-224990-251952-258644-367302-471626
3709.43-376514-560950-778316-441360-253550-240946
3715.21-208256-208156-229780-257322-221310-240804
3721.00-341040-300468-214406-278490-363026-397328
3726.79-259190-164330-140950-233832-578654-632558
3732.57-346280-431272-526558-654022-499340-286066
3738.36-240506-227712-232206-203298-479006-1401330
3744.14-1316608-401328-184934-335424-916732-877422
3749.93-488162-982798-857660-241642-98706-124784
3755.71-169616-101210-130838-253390-172036-28900
3761.50-8748-14948-39206-122480-99856 19146
3767.28 7220-181116-280014-71880 27576 43618
3773.07 47984 68708 48150 26920-35256-140342
3778.85-174172-35384 20188 36460-24420-66288
3784.64-34968-15620-50262-48288-41324-14852
3790.43-9706 916-9402-18696-109568-225780
3796.21-185910-75104-83958-255174-798906-701982
3802.00-211164-74060-40002-256572-605110-396010
3807.78-51578-30150-8214-18290-18058-59714
3813.57-154058-670720-793376-246408-66832-126786
3819.35-418618-626208-389874-83902-33764-20472
3825.14-98538-116424-19116 4242-40562-159750
3830.92-223390-60934-93214-254962-170038-314580
3836.71-883604-574572-163028-211714-150430-71960
3842.49-141604-87224 13186 41576 59728 39520
3848.28 3232-36020-365042-736506-853344-1400830
3854.07-811874-68346-62544-21436 34620 26432
3859.85-37130-107844-44760-81936-324610-286184
3865.64-36344 14418-147788-525986-516508-104550
3871.42 18838-90908-195588-67526 36228 52334
3877.21 34502-67046-240334-181400-35712-24286
3882.99-28472-234456-410300-130452 10770 33802
3888.78 10756-213954-287010-52748 18 24006
3894.56 51122 64946 33368-77350-201900-87430
3900.35-189324-201896-108128-238798-118730 9406
3906.13 67812 98404 99550 108816 141408 128468
3911.92 95400 89070 111228 117746 24456 9868
3917.70 77616 25730 22684 111114 132636 125858
3923.49 97186 103072 135012 155450 154502 131448
3929.28 116464 112906 91686 146956 202560 222076
3935.06 235138 240516 243432 241292 236294 265564
3940.85 249520 186176 258424 287736 262142 256324
3946.63 235852 207542 262844 371772 378262 328712
3952.42 300604 321392 343608 341520 330720 373598
3958.20 374126 373196 374266 370118 352836 342914
3963.99 357502 388206 416858 437868 425718 442862
3969.77 476654 493886 524804 546904 548600
##END=
