##TITLE=Ethyl Acetate
##JCAMP-DX=4.24
##DATA TYPE=INFRARED SPECTRUM
##CLASS=IUPAC A
##ORIGIN=NIST, Anayltical Chemistry Division, 301-975-3108
##OWNER=COPYRIGHT (C) 1998 by the U.S. Secretary of Commerce
##DATE=98/10/1
##$SPECTRA VERSION=1.00
##$UNCERTAINTY IN Y=2.0 % relative (B=1.0E-04,C=6.3E-10,D=2.7E-14)
##CAS NAME=Ethyl Ester Acetic Acid
##CAS REGISTRY NO=141-78-6
##MOLFORM=C H3 C O2 C H2 C H3
##MP=-83.58 C
##BP=77.06 C
##$NIST SOURCE=QUANT-IR
##SPECTROMETER/DATA SYSTEM=IFS66V (Bruker)
##INSTRUMENT PARAMETERS=KBr Beam splitter; MCT Detector; Multipass cell
##STATE=gas
##SAMPLE DESCRIPTION=Ethyl Acetate Primary Gas Standard
##PRESSURE=101.3 kPa
##TEMPERATURE=23 C
##SAMPLING PROCEDURE=1 L/min Flow
##RESOLUTION=1.9290
##DATA PROCESSING=Boxcar Apodization
##XUNITS=cm-1
##YUNITS=(micromol/mol)-1m-1 (base 10)
##XFACTOR=1.0
##YFACTOR=18.189E-13
##DELTAX=0.9645
##FIRSTX=574.687
##LASTX=3974.595
##FIRSTY=1.56E-07
##MAXX=3973.63
##MINX=574.69
##MAXY=.0020043
##MINY=-4.23E-06
##NPOINTS=3527
##XYDATA=(X++(Y..Y))
574.69 85798 388150 725710 296868 1007796 781262
579.51 993368 1354064 1697842 1770366 2354154 2250232
585.29 2907734 3640460 3821246 4391940 5015026 5261438
591.08 5666788 6441874 6824378 7582960 8399622 8520198
596.86 9148656 9839968 9915498 10898890 11539250 13164160
602.65 15391880 16618260 18449040 19864760 19089880 17252800
608.44 16689450 16103740 16193050 15539240 15152850 14919680
614.22 15039790 15189320 15666420 16226220 16927590 18050580
620.01 19302690 20852920 22575500 24746520 26506840 27947020
625.79 28500510 28637730 27661020 25844020 23968250 24689110
631.58 26840950 23970490 22506890 23526390 23798460 24874160
637.36 23581730 21298040 20843710 20296370 19498180 17792580
643.15 16049710 13992880 11800380 9586310 7836708 6210230
648.93 4987000 3932950 3195728 2545440 2192102 1668960
654.72 1533370 1430104 1255404 1115968 1055104 878530
660.50 856814 678866 704688 587460 414862 520098
666.29 528518 474932 341700 403290 440962 387440
672.08 364758 322064 354698 207682 299248 320222
677.86 270534 212114 177664 168438 65634 200756
683.65 211314 170038 146016 202114 195240 158200
689.43 112764 226802 83104 163404 131950 63206
695.22 265582 167336 138942 107106 81248-3966
701.00 99954 80662 112076 156298 174506 30682
706.79 149776 168144 142662 157238 227542 147484
712.57 253220 179138 203658 279140 223144 261282
718.36 194618 304100 251446 261346 268822 280278
724.14 244022 256818 357044 252940 291210 348940
729.93 411410 366550 401304 410928 448228 414506
735.71 423538 515396 511782 504544 497106 571132
741.50 626398 660806 631468 751880 793634 910854
747.29 885290 966862 1102912 1190838 1279200 1412792
753.07 1493816 1643020 1759626 2042756 2177760 2386120
758.86 2608830 2876130 3235396 3472132 3887540 4192666
764.64 4635034 5051554 5471194 5949868 6530510 7129076
770.43 7692712 8324374 9037544 9622102 10420850 11202820
776.21 11861040 12360230 12834470 13346720 13473720 13420460
782.00 13368050 12952030 12957410 13324920 13128420 14125220
787.78 14664720 14809110 14613480 14370850 14044090 13647150
793.57 13125720 12599280 11981660 11367680 10786290 10151870
799.35 9585766 9168226 8586998 8205812 7813592 7426190
805.14 7100904 6743214 6386612 6506670 6314758 5753248
810.93 5512002 5350178 5152912 5095856 5035842 5007208
816.71 5046456 5098728 5142204 5248370 5632282 5776852
822.50 6095152 6458902 6800754 7367480 7829210 8341686
828.28 9001188 9737218 10574030 11266880 12269980 13202750
834.07 14304180 15304230 16461240 17624160 18637530 19675980
839.85 20644430 21223050 21538850 21777560 21511730 21567930
845.64 21905110 22070770 22513440 22882130 22896920 22917210
851.42 22846830 22793710 22760930 22584700 22281490 21822730
857.21 21081220 20221180 19160840 17929400 16725120 15430960
862.99 14144050 13094400 11988210 10962200 9945358 9176178
868.78 8328784 7679840 7049158 6458612 5923950 5430836
874.57 4963488 4549042 4237794 3906876 3557338 3365464
880.35 3119944 2915370 2766342 2638958 2541576 2372794
886.14 2374378 2248020 2286606 2220962 2305334 2418414
891.92 2502616 2544378 2737934 2960602 3255738 3674244
897.71 4093300 4711054 5422224 6257100 7319016 8416472
903.49 9664934 10893190 12093910 13205030 14088170 14746140
909.28 15236170 15421630 15886850 16818610 19464510 19181680
915.06 17980030 18265760 18863840 19687460 20392850 21015670
920.85 21449780 21810270 22076030 22315560 22658610 23092710
926.63 23588650 24120780 24623050 25026580 25070310 24703700
932.42 23993310 22769720 21342340 19775450 19285830 19628280
938.21 21779250 19631470 15927180 16759500 17874220 19039430
943.99 19085290 18528340 16916630 14962300 12564040 10463190
949.78 8427710 6904820 5604196 4760324 4072692 3733862
955.56 3379666 3184552 2961936 2983900 2799002 2812772
961.35 2725286 2778076 2747468 2803028 2802846 2900530
967.13 2922928 3054092 3157144 3319452 3447660 3643632
972.92 3763834 3969200 4162778 4426268 4703662 5063962
978.70 5292650 5668146 6026310 6451132 6925518 7463008
984.49 7997088 8640324 9230480 9978756 10628550 11342050
990.27 11927700 12556410 13027860 13450210 13649540 13887150
996.06 13947560 14011860 13943340 14015050 13963350 14291040
1001.85 14173980 14115800 14066490 14175360 14260260 14255860
1007.63 14155080 13943490 13635310 13278730 12922480 12640610
1013.42 12419470 12392340 12478380 12716260 13102330 13683420
1019.20 14387900 15173110 16151840 17299900 18679930 20377010
1024.99 22307140 24658440 27464720 30720960 34500500 38899930
1030.77 43970600 49926270 56701500 64264450 72729390 82223610
1036.56 92492500 103838500 116109800 129363100 143545500 158793600
1042.34 174604100 190501600 205637100 220638800 235508100 249639500
1048.13 262271700 272860500 280994700 287280600 292052000 294597400
1053.91 296256600 298593300 302355800 305951900 302871000 293839200
1059.70 292361100 286785600 280554200 273340300 261263000 245740500
1065.48 227185300 207786500 188649400 169866600 151817600 136593500
1071.27 123905500 113369200 104589900 97419220 90936580 85455360
1077.06 80456140 76176780 72095930 68704660 65461190 62893780
1082.84 60709740 59110060 57865660 57243440 57019440 57359960
1088.63 57834120 59052130 60427530 62124740 63936730 65893380
1094.41 67237530 69248060 70481260 69933330 68279960 67451220
1100.20 66099780 66836840 68604900 75200390 73645840 63429480
1105.98 62036040 62371320 63770880 64279710 64258250 62737620
1111.77 60367540 56748460 52676080 48134020 43801490 39558660
1117.55 35985630 32871630 30528830 28311950 26199590 25124310
1123.34 24695790 24143720 23361440 22212970 20827100 19204540
1129.12 17694490 16197790 14807680 13596400 12577280 11602780
1134.91 10879430 10180260 9705806 9286182 8987028 8681908
1140.70 8470870 8321620 8214706 8152740 8171986 8163364
1146.48 8248538 8298702 8331850 8429686 8561924 8703388
1152.27 8760000 8918724 9063216 9215896 9431756 9668206
1158.05 9960136 10440090 11028830 11754170 10765270 10266370
1163.84 10310970 10207430 10292130 10303060 10351580 10389600
1169.62 10470620 10501600 10609540 10606700 10551190 10583810
1175.41 10578880 10545220 10559230 10767500 10913910 11210340
1181.19 11460100 11702740 11959840 12289910 12642550 13079010
1186.98 13575510 14202810 14891680 15817640 16777510 18040680
1192.76 19419710 21020420 22830700 25043980 27424250 30175460
1198.55 33220770 36693560 40394800 44564260 48875810 53577980
1204.34 58522040 63926370 69468140 75332110 81358320 88068460
1210.12 95020980 102576700 110323500 118527500 127057100 135783700
1215.91 145343400 157698000 172593500 190498000 211206400 234837300
1221.69 262572500 292398000 328986400 371947500 419954700 472615200
1227.48 528289900 586014100 643448800 699455900 750904600 797037800
1233.26 835482800 867774100 895639300 926155200 961814100 1005662000
1239.05 1056933000 1101904000 1074309000 1013917000 1028324000 1056399000
1244.83 1084999000 1098519000 1082692000 1040439000 981770400 914127200
1250.62 839595800 768081000 705848600 653341600 606963200 561378400
1256.40 516416600 470836100 425220000 379263200 334024200 290224500
1262.19 251709800 220065000 202174800 192897400 176337500 157362300
1267.98 144044900 141458100 140724300 139714300 135928800 130021400
1273.76 121143100 111396500 99507360 88464220 78793800 70244370
1279.55 62975260 56675050 51407740 46884230 43177810 40084690
1285.33 37663920 35975680 34851580 34206720 34085330 34366860
1291.12 34952940 35863980 37051500 38403500 39864070 41458260
1296.90 43134370 44704940 46293850 47870030 49629070 51637500
1302.69 53709160 54141790 52028760 50844410 50997140 51762220
1308.47 53271530 53515750 51425590 49137700 47395600 46092580
1314.26 45082530 43786400 42001900 39962540 37273370 34293600
1320.04 31214250 28104340 25109570 22461720 20037630 17904740
1325.83 16094800 14601980 13384520 12324030 11431280 10709520
1331.61 10100720 9665702 9312990 9041904 8842042 8721560
1337.40 8649356 8637640 8755264 9032158 9485860 9976084
1343.19 10776470 11778290 13145160 14833980 17009800 19544660
1348.97 22820740 26375940 30664850 35086500 40004070 44701090
1354.76 49446650 53294550 56811380 59544680 63813780 69717520
1360.54 82614140 94642430 99726300 114118500 126274200 137377500
1366.33 152219900 167470800 180147000 189492300 193880100 195396400
1372.11 194583800 195091800 196867700 199328300 198991800 191502300
1377.90 185229600 186873100 192811900 198141600 201652000 200689800
1383.68 195082600 184944400 171223200 155011400 139626600 124314500
1389.47 110185400 97970240 87532020 79218470 72238460 68592040
1395.25 64676620 59323430 55327210 51818040 50173520 48664580
1401.04 47467210 46779670 45925940 44757620 43543240 41914260
1406.83 39983740 38104220 36231260 34588930 33081220 31950550
1412.61 30954100 30193420 29446890 28962130 28389480 28216180
1418.40 26889230 27941760 28341280 28806890 29037440 28749740
1424.18 29139360 29586680 30128130 30686740 31232040 31507270
1429.97 32236710 32783570 33290800 33733940 34237510 34621460
1435.75 33934950 35567020 36196100 36712440 37363130 37901170
1441.54 38397120 38766430 39167770 39645170 40068180 40347940
1447.32 40660370 41747500 42278340 43570670 45362300 48117130
1453.11 46816370 45279920 43998280 42253020 43965410 44077840
1458.89 45606240 45850220 45426740 44927030 45597790 44827670
1464.68 44422680 44418110 44022210 44466620 45136190 46328670
1470.47 44713890 43321250 41936840 41950050 42063220 41246910
1476.25 41561980 41051560 40415610 39460140 38317950 37056930
1482.04 35576770 33796740 31890700 30021050 28638360 27383290
1487.82 26772580 26023690 25985300 25852460 25567550 24494350
1493.61 23840240 22137510 20403850 20536750 18866800 18017150
1499.39 17479560 16362050 15777550 14834260 14438950 12696980
1505.18 11947050 11202200 11718920 11516800 11089860 10983770
1510.96 10287600 10072530 10099510 9493656 9474740 8776542
1516.75 8668236 8875904 8638900 7722230 7317742 8043972
1522.53 7955684 8184998 7271914 7917632 7533202 7545808
1528.32 7395348 7563514 7234848 7259146 6724158 6616528
1534.11 7128788 7037388 7121512 6953566 5586288 5864206
1539.89 6757034 6520382 6751412 7650736 6974190 7292636
1545.68 7549932 7567186 7473812 7375288 7363340 7947684
1551.46 7687452 7651174 6635458 7743220 7685794 7473934
1557.25 6125414 7150756 6293620 7803496 8033436 7838640
1563.03 7652122 7195616 7127908 6850384 6584066 6340498
1568.82 5732420 6356828 5701538 5752618 5429418 5826900
1574.60 4566498 3864476 5392484 4593750 4629164 4045976
1580.39 3987344 3611170 3525282 3306950 3233130 3076090
1586.17 3067698 2969328 2974256 2884686 2888230 2802774
1591.96 2831430 2754190 2767272 2750000 2782372 2798608
1597.74 2754492 2806438 2782040 2821956 2852530 2875156
1603.53 2910808 2999520 3020006 3090602 3144014 3180522
1609.32 3208936 3384318 3279420 3504316 3369564 3745336
1615.10 2879442 2246766 4029318 3656280 4023826 3859414
1620.89 4130128 3826344 3699226 4278898 4282918 4375074
1626.67 4118070 4322922 4491914 4457636 4484708 4482490
1632.46 4459072 4435712 3084190 4049894 4520266 4418972
1638.24 4829470 4662400 4874818 4811290 5006628 4937524
1644.03 5035356 3878738 4932024 4730578 5160256 5234178
1649.81 5397794 4884962 2960418 4131950 5278738 5682534
1655.60 5985746 6006224 6261130 6284230 6442468 6526448
1661.38 6319148 6311632 7020672 6763632 7231418 6961210
1667.17 7377542 6456216 7278794 7312360 7515650 7732302
1672.96 8050630 7212904 7601814 8395936 8352132 8537744
1678.74 8615550 8639204 9142186 8779490 8952924 7592056
1684.53 8694282 10306280 9882020 10426900 10378880 10778940
1690.31 10830870 11258720 11097690 11631520 10639130 9469566
1696.10 11745350 11317290 11708200 9815466 10788930 12146550
1701.88 12409780 12466460 12547430 12929010 12850580 13579490
1707.67 13727030 14079330 14318450 14914110 15190880 15649060
1713.45 15769070 16010650 16814330 15491260 16437120 16981620
1719.24 17261000 17585020 18331070 19033710 20683910 22992510
1725.02 25122450 27314260 29341390 31565300 33805390 36842520
1730.81 40494380 44101360 48104900 54096620 62229650 70511760
1736.60 79298380 89804580 100112800 113152500 127700500 143111400
1742.38 160150800 179526300 200767500 224263000 250090600 278886700
1748.17 310307100 345708200 382145300 423626100 467566200 511409400
1753.95 554863400 595092100 628868400 653112000 664213600 661147000
1759.74 643646300 612781600 576308600 555029300 546952200 533110600
1765.52 570518100 641127700 698587100 727271700 723225600 696772700
1771.31 655493800 608068800 557680300 505167400 454675600 406909100
1777.09 363282000 323744200 288721600 257145100 229750800 204399100
1782.88 181590300 159963900 140861300 122897200 106729700 92065050
1788.66 79129780 67308270 57476310 48206040 41518780 35776360
1794.45 30511150 26460840 23047630 20292210 17713810 15876110
1800.24 14319520 12961300 12018270 11205510 10540620 9996668
1806.02 9553758 9143246 8926770 8612010 8347494 8357722
1811.81 8202240 8236924 8202146 8251036 8232170 8245330
1817.59 8331988 8396680 8464940 8559318 8579334 8687646
1823.38 8660728 8356568 8660196 8677946 8690342 8671410
1829.16 8556202 9058788 9161010 9174620 9165748 9147830
1834.95 9099800 9059400 8931890 8922486 8748674 8710828
1840.73 8454658 8509334 7885368 7536220 8081682 7798552
1846.52 7659538 7449192 7406554 7168652 7066108 6823880
1852.30 6717202 6534012 6431094 6266876 6169078 6022108
1858.09 5980950 5868100 5836512 5758876 5734638 5649616
1863.88 5614436 5550936 5524842 5471386 5375844 5235436
1869.66 5530950 5384810 5452268 5303528 5359774 5295458
1875.45 5368032 5420374 5558140 5647546 5791078 5909916
1881.23 6062150 6100064 6188250 6192604 6260280 6226682
1887.02 6312078 6180876 6175956 6420260 6457288 6580200
1892.80 6689878 6674426 6764586 6831818 6894122 6925224
1898.59 6912124 6938898 6948082 6894116 6786004 6749692
1904.37 6646342 6534092 6389732 6189334 6016056 5744266
1910.16 5531800 5245718 4991308 4731752 4524940 4230958
1915.94 4053816 3519244 3512550 3374424 3183880 3050312
1921.73 2825188 2764154 2713240 2622454 2528282 2451318
1927.51 2364538 2306810 2262458 2221570 2141266 2101524
1933.30 2050600 2020552 1990682 1986720 1961954 1989814
1939.09 1954912 1988040 1878430 1838946 1984244 1971666
1944.87 1968498 1968906 2020756 1991952 2019404 2032454
1950.66 2003956 2015242 2001332 2024548 2045908 2056156
1956.44 2093632 2090292 2093928 2093936 2087006 2085064
1962.23 2089604 2072576 2066620 2032324 2014014 2021772
1968.01 2050176 1988526 1993420 1993336 2010532 1989366
1973.80 1971284 1916302 1941456 1932886 1909752 1866858
1979.58 1844276 1808238 1810066 1790526 1782126 1807972
1985.37 1789288 1778226 1797390 1815654 1887756 1835436
1991.15 1837330 1941408 2013930 2057554 2104282 2188712
1996.94 2282386 2340784 2406106 2480732 2554146 2607024
2002.73 2666310 2707872 2758126 2844280 2879946 2974620
2008.51 3030574 3116642 3161328 3197238 3285940 3334066
2014.30 3353916 3363946 3373082 3381510 3319354 3296320
2020.08 3283230 3239078 3185580 3206834 3083480 2982720
2025.87 2916910 2886630 2892850 2867516 2775464 2723108
2031.65 2620004 2465268 2326474 2198364 2069524 1947442
2037.44 1865384 1797066 1739882 1659976 1624272 1585704
2043.22 1536542 1530766 1507074 1502632 1524900 1513716
2049.01 1534156 1556908 1595288 1646584 1663124 1701096
2054.79 1743544 1800528 1885018 1965450 2052272 2140816
2060.58 2250956 2353798 2468814 2596118 2741650 2924002
2066.37 3127858 3294962 3496440 3755022 4011856 4311636
2072.15 4578630 4888962 5193852 5480490 5803402 5961302
2077.94 6258268 6431052 6625586 6743804 6933140 7168318
2083.72 7351686 7402070 7387432 7444788 7576922 7734244
2089.51 7765674 7828182 7745160 7628000 7371032 7084414
2095.29 6832360 6512578 6191620 5776348 5562768 5270464
2101.08 5002448 4686694 4496302 4302276 4088270 3839248
2106.86 3626108 3485384 3243370 3047718 2773530 2682248
2112.65 2457338 2292076 2005362 1929996 1775360 1714158
2118.43 1499330 1469036 1410766 1358558 1244296 1183652
2124.22 1201086 1153584 1074784 1033366 1043392 1012974
2130.01 969738 933094 960832 966442 981120 983708
2135.79 1065854 1097240 1202016 1226594 1329788 1430514
2141.58 1468440 1543716 1577560 1644872 1675362 1724906
2147.36 1757242 1802810 1830902 1843666 1935222 1954622
2153.15 1892604 1891790 1950464 1976110 1940726 1962890
2158.93 2004236 1919986 1840744 1815292 1857338 1737456
2164.72 1659548 1702744 1726196 1620474 1519056 1647544
2170.50 1622148 1543416 1558110 1605396 1575948 1512102
2176.29 1536778 1565478 1503074 1459264 1532134 1473182
2182.07 1400434 1375794 1409426 1307798 1268398 1292520
2187.86 1286770 1190704 1189884 1153276 1055418 965494
2193.64 970368 845636 778292 745476 733284 677362
2199.43 677088 714150 681186 667896 711592 746220
2205.22 720716 777304 824720 852594 890422 911176
2211.00 940980 916442 959166 970654 996786 1053554
2216.79 1075588 1087232 1129382 1182184 1205672 1221596
2222.57 1222132 1246376 1312124 1358686 1359026 1373670
2228.36 1421692 1412114 1416812 1422072 1406792 1369504
2234.14 1403214 1316088 1328262 1302356 1285090 1272440
2239.93 1276296 1227318 1225674 1212424 1214528 1191392
2245.71 1153422 1129194 1090614 1045674 1043910 999162
2251.50 966196 936350 900252 852172 831834 801540
2257.28 771116 765396 725138 707164 679400 650892
2263.07 668982 642218 669052 646276 667620 656326
2268.86 709030 705618 724892 725844 731544 736116
2274.64 768418 810614 814684 831464 866086 911304
2280.43 961670 961116 1008330 1058434 1090460 1130278
2286.21 1156032 1202066 1309232 1269912 1366758 1387814
2292.00 1426048 1461256 1489340 1497796 1549564 1588720
2297.78 1642904 1683390 1698096 1705958 1743000 1787010
2303.57 1813510 1840270 1849014 1856156 1850872 1807572
2309.35 1737024 1715922 1684776 1645560 1648562 1622454
2315.14 1611754 1580534 1544514 1483160 1474784 1423940
2320.92 1388712 1334182 1311896 1246772 1254350 1201976
2326.71 1160270 1125324 1118622 1089442 1041602 1026496
2332.50 990352 939448 994356 955578 925254 919416
2338.28 877332 862336 868826 876608 878422 843024
2344.07 843934 776004 714270 676530 654694 657618
2349.85 627076 618800 634666 647912 651126 655142
2355.64 673912 679776 713294 725112 751968 775690
2361.42 813046 827990 843168 871498 907424 918384
2367.21 950122 932124 967474 944402 967520 985710
2372.99 993196 970764 971324 950498 961234 970186
2378.78 968718 944376 955718 941862 956476 922352
2384.56 935136 917468 933876 920824 951440 950710
2390.35 922286 946670 960220 925152 969598 931202
2396.14 969548 961544 997800 948412 983498 984704
2401.92 983860 993284 1010788 1012244 1072040 1049434
2407.71 1029820 1056760 1093930 1055960 1072512 1080670
2413.49 1071950 1084402 1105540 1084038 1134132 1130168
2419.28 1124812 1114450 1147430 1112120 1163994 1134852
2425.06 1146246 1089604 1069270 1036400 1035618 1020800
2430.85 1005012 1002576 966682 939104 928336 905942
2436.63 906912 886002 883414 861502 845108 833330
2442.42 837820 855936 860096 842870 872890 894876
2448.20 959370 989830 1068182 1112890 1157672 1260036
2453.99 1301746 1351078 1497850 1538206 1639776 1722200
2459.77 1834646 1930946 2026590 2057258 2157788 2218476
2465.56 2308106 2395706 2437726 2467278 2528110 2543766
2471.35 2609492 2602262 2635844 2680036 2650066 2655206
2477.13 2668824 2666148 2650000 2597252 2547472 2469410
2482.92 2409508 2333384 2236008 2133030 2100880 1993446
2488.70 1916040 1886952 1794942 1746870 1656218 1562974
2494.49 1537610 1468778 1413354 1309780 1236082 1149948
2500.27 1086168 1036420 926546 843014 769102 706240
2506.06 680794 597984 551096 499464 490150 410750
2511.84 385420 328630 280210 273788 224980 186070
2517.63 172058 159578 114858 124012 112256 91096
2523.41 109044 97402 75050 110324 141402 95710
2529.20 134500 129760 165564 170644 190048 201190
2534.99 245144 242820 273646 246742 276042 318556
2540.77 291372 308504 333556 332316 325324 315518
2546.56 328036 299284 328050 324386 330196 318976
2552.34 331382 334016 309366 309362 293776 283610
2558.13 279008 234384 200648 220250 254940 194806
2563.91 212662 177134 202020 158974 170828 187456
2569.70 176180 190100 149374 172240 185372 165840
2575.48 178718 183038 200526 167130 180544 217800
2581.27 225444 237008 279888 267542 298564 324524
2587.05 337074 388060 394412 421014 524090 500954
2592.84 613424 619778 684716 710358 829744 815316
2598.63 887030 924260 999252 1005270 1050328 1105986
2604.41 1155020 1151946 1141950 1171848 1183530 1213536
2610.20 1249020 1278066 1222918 1236492 1216586 1146192
2615.98 1150030 1146572 1100254 1021972 1059600 1001110
2621.77 969460 907616 927944 845254 834032 755534
2627.55 719046 669126 681222 610134 611544 572758
2633.34 529836 523320 523162 467020 435956 376868
2639.12 413694 381686 382972 321960 347118 321048
2644.91 315356 284538 306766 291160 272184 291038
2650.69 274846 289632 283266 310956 322640 297534
2656.48 350546 353934 393098 383762 411528 390186
2662.27 486530 511508 562194 541208 587840 602772
2668.05 693570 675730 707724 773476 775568 793000
2673.84 844874 849174 867934 862292 888674 884012
2679.62 1010750 989334 1041944 1032106 1071240 1094526
2685.41 1057838 1129002 1128576 1129852 1178536 1146226
2691.19 1174214 1178782 1185784 1104174 1096582 1054174
2696.98 1049832 1002216 1013708 956110 935654 928130
2702.76 968162 990722 1009644 1017130 989584 903396
2708.55 925426 882524 872626 813012 870018 790390
2714.33 867464 868804 913520 901822 932826 958172
2720.12 984590 969190 965714 974272 1002636 1055024
2725.91 1074400 1105580 1108292 1119370 1170952 1134460
2731.69 1206810 1272196 1302826 1308422 1361018 1320414
2737.48 1309958 1320108 1373162 1391696 1396032 1358386
2743.26 1453028 1484002 1548790 1511782 1619716 1629276
2749.05 1716284 1760910 1816522 1774416 1806970 1850408
2754.83 1866878 1841794 1881950 1885412 1932438 1928002
2760.62 1939908 1860512 1861484 1854054 1853322 1870576
2766.40 1850228 1876152 1886762 1856958 1949204 1920972
2772.19 1964890 1893198 1962294 1901046 1942648 1921368
2777.97 1954388 1903924 1930514 1888702 1912556 1887170
2783.76 1900916 1943172 1921810 1907948 1920378 1893322
2789.54 1887838 1862564 1817874 1765640 1813352 1810260
2795.33 1790110 1734562 1786684 1720234 1763916 1724792
2801.12 1756738 1768594 1835510 1854544 1961428 1940076
2806.90 2085430 2084152 2214182 2222312 2348108 2467400
2812.69 2601616 2654336 2777644 2782204 2958852 2915410
2818.47 2984634 3053024 3131338 3081344 3220686 3225996
2824.26 3308246 3317088 3436804 3479878 3584708 3599780
2830.04 3688318 3673226 3770984 3752972 3812272 3858928
2835.83 3964808 4011378 4174376 4220986 4385334 4485920
2841.61 4650142 4780098 4925900 4947922 5115188 5259742
2847.40 5377974 5479150 5615476 5750810 5993526 6075726
2853.18 6280478 6367914 6516072 6639652 6707506 6775508
2858.97 6926606 6960072 7090488 7223350 7305892 7475910
2864.76 7628084 7853710 8142596 8510564 8929420 9373788
2870.54 9994948 10751270 11599400 12448980 13544620 14668880
2876.33 15816420 16920300 17902090 18534620 19083940 19204400
2882.11 19244460 19419170 19923090 20803670 21915900 22399340
2887.90 22620960 23030880 23601890 24154110 24712790 25067070
2893.68 25483040 25709090 25923290 25949890 26187630 26337500
2899.47 26876650 27418080 27885030 28063560 28389550 28799950
2905.25 29395300 30038800 30827800 31500780 32188790 32595430
2911.04 32907400 33029220 33218520 33247880 33332430 32751550
2916.82 31966060 31397190 31257200 31432830 31950090 32313070
2922.61 32804060 33010480 33292680 33329120 33470620 33581980
2928.40 34008820 34622940 35763120 37058880 38706740 40395810
2934.18 42657500 44870260 47188990 48993980 50483580 51463360
2939.97 52460600 53448200 55661700 58106610 59080940 59921470
2945.75 61491520 63415250 65626480 66704520 66699130 65763620
2951.54 65343010 65097680 65485350 66232540 67728310 66259440
2957.32 65252250 65524030 65945430 66206320 66575340 66953040
2963.11 67811700 70397780 70535460 69348340 71288130 72470450
2968.89 74247380 75808140 78582660 81969630 86994720 91980500
2974.68 97695560 103011600 108982500 114036300 119927100 125146700
2980.46 133964800 143759000 138730800 136249900 137079600 137334900
2986.25 138871300 140261400 143810400 143176900 143794500 144361300
2992.04 152493200 160888100 184698200 181870900 155592800 147750600
2997.82 138144000 132219100 123780400 117718900 109770600 103605100
3003.61 96445210 92144180 87338920 83412890 79665310 77204060
3009.39 73796060 70790520 66741470 63273890 58932340 55175700
3015.18 50982320 47338680 43459640 40370430 37095410 34651020
3020.96 31902200 29868030 27769330 26205640 24365510 23150920
3026.75 21669810 20870050 19796230 19099740 18098400 17484520
3032.53 16797440 16526250 16085920 15839870 15337800 15134880
3038.32 14612380 14363000 13920920 13779480 13291300 13143530
3044.10 12849910 12714250 12413350 12320010 12065350 12114200
3049.89 11898980 11902160 11712790 11704960 11563200 11525290
3055.67 11300400 11308280 11031920 11009230 10688940 10547200
3061.46 10304520 10236230 9894176 9850220 9481882 9427698
3067.25 9094314 8947214 8709404 8485358 8197458 8036286
3073.03 7713432 7647454 7264662 7067966 6806186 6563940
3078.82 6325026 6202922 5959016 5814328 5575074 5444144
3084.60 5238052 5197000 5019548 4898304 4758824 4695344
3090.39 4458674 4451978 4366868 4285200 4150494 4138976
3096.17 3968610 3969576 3852762 3831410 3706824 3718330
3101.96 3554070 3498230 3385624 3309374 3232552 3230356
3107.74 3102956 3036192 2910468 2814072 2747134 2731438
3113.53 2667288 2620972 2567118 2526314 2480758 2530146
3119.31 2417610 2451106 2292656 2361558 2266274 2284602
3125.10 2260924 2298414 2174006 2227916 2191558 2285738
3130.89 2218142 2279336 2198642 2248442 2113122 2152492
3136.67 2115608 2109850 1965920 2000666 1881888 1852858
3142.46 1758248 1763866 1719230 1761286 1707412 1647412
3148.24 1613882 1605462 1532708 1609428 1401070 1385346
3154.03 1375728 1365412 1306626 1340590 1250042 1268022
3159.81 1242516 1248294 1234068 1268328 1206936 1238578
3165.60 1240008 1315984 1239978 1272562 1239176 1347694
3171.38 1283140 1350798 1364350 1470010 1357856 1458546
3177.17 1427192 1513122 1521820 1571202 1498012 1556156
3182.95 1562450 1531038 1523546 1611178 1561286 1587126
3188.74 1519628 1547052 1533040 1545214 1452194 1463806
3194.53 1428810 1469916 1373522 1418476 1430260 1399784
3200.31 1339756 1334234 1239448 1305548 1163928 1249146
3206.10 1178174 1205298 1050422 1087980 1132966 1039316
3211.88 974942 1005634 949322 988374 928440 901674
3217.67 847832 888822 797480 777790 768840 776810
3223.45 740196 779830 704870 726376 590830 608256
3229.24 593730 680180 640458 626866 522252 571856
3235.02 516658 569276 509648 554434 538104 477006
3240.81 459906 498926 430764 423992 360760 412176
3246.59 349524 325354 307622 362870 222036 257586
3252.38 325806 223384 234244 189624 163660 187822
3258.17 145554 157730 86928 157920 101308 173528
3263.95 41696 66046 37972 11942 54870 117658
3269.74 85766 28200 65280 81800-11384 98084
3275.52 73124 51876-3452 44726 83430 47176
3281.31 16082 84568 68142 91898 46768 51882
3287.09 86306 83026 99926 125048 73470 76360
3292.88 35890 123772 59004 106428 102742 107376
3298.66 117678 79106 76756 153490 149754 141244
3304.45 105420 167490 62434 87982 106358 149332
3310.23 86042 134082 49978 127024 64260 169960
3316.02 71114 116212 108020 194456 72672 101190
3321.80 67818 33136 65022 74418 93592 103854
3327.59 78622 60348 48162 41154 25106 123622
3333.38 16486 51902 75572 39772 61686-43606
3339.16 33248-49220 7174-10456-97366 34690
3344.95-7142 28474-11884 85628 93052 28194
3350.73 102168 80262 122210 131292 75984 182068
3356.52 152360 172678 76104 138744 134056 150172
3362.30 93126 69466 115418 153604 88350 143732
3368.09 143780 68402 47104 40198 8762 65654
3373.87 4018-36682-15534-7416-44628-57918
3379.66-27386-72718-98644-97498-66656-98934
3385.44-31978-68576-144698-59440-39232 37184
3391.23-74006-71274-138000-37282-81520 2668
3397.02-49038-63270 5990 20102-95836-55632
3402.80-48332 54776-26288 34062-10740 8564
3408.59-86508 50594-30058 52668 20046 119960
3414.37 93458 81596 84468 64416 146168 122590
3420.16 112362 144320 65872 177744 120222 158750
3425.94 108886 156752 154348 200422 162380 103280
3431.73 167366 233252 182054 124240 173064 208574
3437.51 204120 163806 175248 149342 127414 172162
3443.30 164296 151898 183562 45318 113110 186272
3449.08 120822 187206 154916 116900 98608 126760
3454.87 157454 114288 104720 79022 118434 27452
3460.66-4084 87046 87490 57526-22436 111754
3466.44-12104 88376 28-15760 99204 3226
3472.23-6698 12112 101194 117986 157350 170630
3478.01 313592 315356 345176 449280 464880 661636
3483.80 819356 899116 1048878 1178704 1393134 1585374
3489.58 1898212 2181580 2407132 2776410 3050970 3450586
3495.37 3767224 4146814 4486796 5035082 5349236 5668742
3501.15 5950118 6101414 6267716 6302808 6233766 6177004
3506.94 6009918 5884102 5735532 5851282 6069844 6568722
3512.72 6955890 7032690 6962468 6769286 6404204 5959182
3518.51 5478810 4876808 4424238 3917550 3334096 2914852
3524.30 2530302 2104334 1819608 1432170 1134638 998468
3530.08 702412 522192 231978 150640 6518-151526
3535.87-372062-301484-440100-514440-642412-565670
3541.65-684750-732896-749052-776542-849692-898492
3547.44-765548-902034-868008-770336-899004-796772
3553.22-861928-783854-822140-766370-847992-771056
3559.01-826950-772066-780328-801758-831640-682728
3564.79-917476-896260-882306-862046-598472-707966
3570.58-556700-589466-520572-601390-521078-477314
3576.36-485112-461656-485184-520164-384784-305442
3582.15-359824-331060-235916-496904-514914-341318
3587.94-650404-71220-336106-71560-312528-190442
3593.72-253228-266920-150052-111684-241748-147626
3599.51-192130-169816-155820-68086-74876-104468
3605.29-146460-283312-133868-646350-312266-32646
3611.08-440706-362546-124788-322986-126976-219686
3616.86-387650-257570-780630-165562-302118-137474
3622.65-247298-79722-303468-156756-411878-792576
3628.43-1044824-482710-134566-208338-293154-375146
3634.22-187110-190032-201880-286666-243160-194692
3640.00-208072-212934-297430-166164-348896-169220
3645.79-677796-479428-735520-1010904-492600-671814
3651.57-84276-360674-92184-399578-878042-228956
3657.36-187090-236644-228160-185880-215198-222302
3663.15-271392-236828-219602-198850-360764-643528
3668.93-472966-1502940-118604-248386-263516-838276
3674.72-1331136-794232-78578-401484-315240-301000
3680.50-136902-288414-112296-276484-83150-352010
3686.29-23496-1611820-755506-113318-743132-264450
3692.07-214954-269606-192742-194498-253906-191312
3697.86-187906-213900-214214-537080-288542-200374
3703.64-167266-231062-268536-234130-305968-643642
3709.43-235768-437916-1173324-196688-280518-247456
3715.21-186182-220578-201134-305850-200236-185958
3721.00-409386-336592-107228-342400-300566-529448
3726.79-185694-160494-151914-95812-637912-923180
3732.57 51168-697112-293180-900764-438916-238964
3738.36-243162-235854-193254-319490 57880-1891718
3744.14-1715874 190468-468156 100774-1220876-1224308
3749.93 275738-1535116-952106 40240-189142-26554
3755.71-289716-32342-73454-363276-176830 30388
3761.50-19368-23100 8496-166664-150324 84756
3767.28 35474-136254-502430 95394-31788 98336
3773.07-8702 129952 3162 71368-53070-100296
3778.85-321094 94900-53792 118168-64012-74594
3784.64-49180 37834-106838-6296-87762 32040
3790.43-51406 45882-51718 34086-108882-254824
3796.21-274888 90698-262340 157776-1211926-791516
3802.00 16946-163266 43158-110856-896434-419358
3807.78 158912-175130 119200-138720 125326-232092
3813.57 157612-803526-1189058 140376-206594 52202
3819.35-464782-781680-424736 83312-133382 81686
3825.14-146032-167906 33350 7198-31762-108864
3830.92-406520 89542-66594-338102-249276 182994
3836.71-1541332-414928 19534-337264-149906 35184
3842.49-244116-79112 50730 17850 87800 36082
3848.28-732-20368-107832-1310114-26242-2327206
3854.07-613054 239366-241890 54168 22534 43286
3859.85-9008-183190-30812 61106-466952-378074
3865.64 109074-34050 32908-683310-717658 119816
3871.42-15166-2752-372426 24354 22898 79222
3877.21 19008 25950-370176-203544 59058-89094
3882.99 43640-136174-741964 89750-32942 33830
3888.78 100484-221752-510194 168688-112186 93260
3894.56-1456 131724-24520 70144-474474 162300
3900.35-283312-321566 158852-517882 14992-31718
3906.13 99826 92614 110500 80920 172246 129912
3911.92 81320 93748 85894 187846-14026-49098
3917.70 171408-14596-25814 173178 103178 160856
3923.49 66846 104338 136344 162580 157908 138480
3929.28 88572 159554 28354 171652 207908 220984
3935.06 238794 240756 241678 250200 220110 260162
3940.85 323634 65882 329514 285026 252292 262254
3946.63 246518 184554 222226 435946 371526 336302
3952.42 268180 340590 329794 378874 266054 433514
3958.20 341288 391394 362628 384304 344492 340844
3963.99 346164 400620 401268 469490 400652 440452
3969.77 490698 480074 529314 559006 536244
##END=
