##TITLE=Ethyl Acetate
##JCAMP-DX=4.24
##DATA TYPE=INFRARED SPECTRUM
##CLASS=IUPAC A
##ORIGIN=NIST, Anayltical Chemistry Division, 301-975-3108
##OWNER=COPYRIGHT (C) 1998 by the U.S. Secretary of Commerce
##DATE=98/10/1
##$SPECTRA VERSION=1.00
##$UNCERTAINTY IN Y=2.0 % relative (B=1.0E-04,C=6.3E-10,D=2.7E-14)
##CAS NAME=Ethyl Ester Acetic Acid
##CAS REGISTRY NO=141-78-6
##MOLFORM=C H3 C O2 C H2 C H3
##MP=-83.58 C
##BP=77.06 C
##$NIST SOURCE=QUANT-IR
##SPECTROMETER/DATA SYSTEM=IFS66V (Bruker)
##INSTRUMENT PARAMETERS=KBr Beam splitter; MCT Detector; Multipass cell
##STATE=gas
##SAMPLE DESCRIPTION=Ethyl Acetate Primary Gas Standard
##PRESSURE=101.3 kPa
##TEMPERATURE=23 C
##SAMPLING PROCEDURE=1 L/min Flow
##RESOLUTION=1.9290
##DATA PROCESSING=Triangular Apodization
##XUNITS=cm-1
##YUNITS=(micromol/mol)-1m-1 (base 10)
##XFACTOR=1.0
##YFACTOR=9.0949E-13
##DELTAX=0.9645
##FIRSTX=574.687
##LASTX=3974.595
##FIRSTY=5.25E-07
##MAXX=3973.63
##MINX=574.69
##MAXY=.0019417
##MINY=-2.37E-06
##NPOINTS=3527
##XYDATA=(X++(Y..Y))
574.69 577288 983928 1293598 1316648 1808710 2011366
579.51 2283416 2956954 3484420 4005282 4643458 5102032
585.29 6067650 7228652 7974832 8959706 10007030 10744660
591.08 11656030 12854680 13921570 15254270 16540660 17321280
596.86 18413430 19520490 20397740 21846910 23651490 26535090
602.65 30013090 32889420 35799760 37745250 36867220 34628020
608.44 33170010 32414000 31976620 31228100 30491940 30213440
614.22 30328800 30779920 31614250 32748870 34235500 36272740
620.01 38736820 41603680 44934750 48583680 51862880 54275680
625.79 55503620 55519800 53963100 51125720 48735510 49475580
631.58 50731890 48032780 45825630 46343020 47197330 47752450
637.36 45888860 42804040 41108110 39859960 37912370 34996110
643.15 31535820 27725820 23604860 19623110 16121670 13111760
648.93 10608260 8604862 7010338 5794306 4845322 4027992
654.72 3544130 3251662 2899794 2623622 2384148 2140366
660.50 1938870 1731986 1613618 1419862 1214416 1237818
666.29 1247296 1129004 986494 1000184 1026706 968784
672.08 896054 854350 803338 697358 729004 761020
677.86 686360 590456 529204 461018 401668 494082
683.65 540710 485652 470368 507738 511372 445058
689.43 432882 470286 397702 412934 384136 376182
695.22 512182 480958 393768 352680 273196 223042
701.00 281088 318814 348740 423360 398748 314254
706.79 382582 445738 423480 467216 508252 500904
712.57 549028 528620 553614 620066 610722 601988
718.36 597514 659964 658386 649008 670836 674540
724.14 647772 690176 758622 713734 734740 840842
729.93 907410 908536 933080 978448 1011992 1002734
735.71 1039962 1140408 1178096 1173860 1205412 1303014
741.50 1415480 1467578 1517134 1651972 1804846 1942226
747.29 2017638 2158620 2388424 2580984 2786046 3011956
753.07 3240302 3497050 3821834 4241126 4613218 5009816
758.86 5470864 6021978 6635792 7240788 7935316 8651448
764.64 9449678 10291460 11145260 12108950 13203600 14350900
770.43 15492940 16732840 18028300 19305730 20735540 22180940
776.21 23427620 24447460 25384870 26191580 26544760 26565160
782.00 26396980 25982740 26027270 26342750 26686130 27807070
787.78 28800160 29048530 28830810 28360210 27760980 26977560
793.57 26042450 25001530 23869790 22705490 21564640 20393860
799.35 19341090 18394420 17425840 16588720 15833920 15094250
805.14 14433700 13753820 13245670 13103550 12699960 11929690
810.93 11391370 11036030 10727590 10558670 10458850 10422890
816.71 10480380 10590310 10718110 11028550 11553390 12022110
822.50 12600500 13298370 14076470 15051130 16031460 17093570
828.28 18354900 19806400 21331290 22891870 24675800 26591920
834.07 28600940 30645520 32799460 34966000 36972380 38910160
839.85 40627950 41801990 42534860 42890760 42814160 42962160
845.64 43437930 43922800 44593610 45155500 45327500 45332680
851.42 45241540 45115440 44947650 44569590 43936670 42971220
857.21 41599680 39907860 37891220 35617340 33270830 30830930
862.99 28455870 26292960 24208020 22179220 20308910 18656640
868.78 17114740 15749410 14514610 13348640 12288090 11306170
874.57 10396800 9594472 8921054 8264404 7650792 7176730
880.35 6729448 6331688 6017154 5769586 5529964 5313300
886.14 5185688 5076752 5038888 5035832 5146384 5355038
891.92 5526958 5723178 6072682 6550080 7167770 7956932
897.71 8879986 10059990 11465990 13135860 15099790 17257230
903.49 19567710 21915900 24177230 26264230 27975170 29337820
909.28 30301720 31062030 32050510 34265450 37248640 37644700
915.06 36559960 36787650 37888560 39271560 40611220 41754480
920.85 42654980 43371640 43952120 44502610 45172900 45987980
926.63 46897950 47842010 48706040 49308290 49321710 48651520
932.42 47253780 45164920 42593020 40263580 39140960 39921640
938.21 41289980 38486960 34247940 34053470 35790950 37151920
943.99 37306250 35965380 33257740 29559330 25425460 21382970
949.78 17748620 14703350 12304180 10493790 9206352 8317748
955.56 7666670 7148362 6807736 6608154 6411040 6278962
961.35 6211536 6193612 6211174 6244134 6319660 6428544
967.13 6564014 6755964 7005734 7277848 7585802 7910002
972.92 8236148 8605184 9041474 9535470 10123590 10741600
978.70 11335340 12013630 12776110 13606970 14559910 15583290
984.49 16690890 17874630 19125780 20460780 21799620 23093630
990.27 24315900 25444340 26427330 27186170 27731000 28130410
996.06 28385540 28492380 28548270 28607150 28761260 29052880
1001.85 29092390 29001770 29025750 29173520 29335070 29348290
1007.63 29201470 28864870 28381430 27812440 27269120 26830030
1013.42 26574840 26595980 26892030 27463060 28349670 29567730
1019.20 31056140 32787390 34860520 37313980 40246120 43737840
1024.99 47818800 52662310 58388380 65032190 72724230 81607060
1030.77 91862410 103699500 117141000 132160900 148935100 167519200
1036.56 187834000 210007600 234036600 259852200 287473000 316764600
1042.34 347103800 377460000 407013800 436003800 464392700 491231500
1048.13 515318700 535672100 551839900 564440500 573737500 579704700
1053.91 583899800 588666000 594573200 598383200 592794400 581515500
1059.70 573606700 563848100 550955600 534967700 512044700 482568600
1065.48 448251100 411858800 375477800 339799600 306139100 276652300
1071.27 251760600 230793800 213261700 198456500 185563900 174269900
1077.06 164314900 155441400 147471700 140407900 134156900 128850500
1082.84 124542800 121158300 118715600 117231400 116718200 117011300
1088.63 118037800 119940900 122492100 125445600 128773200 132005300
1094.41 134939300 137932200 139790700 139057900 136978500 135015000
1100.20 133729800 134456900 138658700 145162900 142110100 130728600
1105.98 125541500 125693100 126869400 127601200 126766000 123990300
1111.77 119188300 112664000 104918300 96629190 88333660 80501980
1117.55 73521730 67600700 62703720 58344090 54552200 52137080
1123.34 50722010 49370150 47625760 45377550 42660600 39675700
1129.12 36710000 33858160 31179560 28823890 26748370 24919030
1134.91 23377200 22073360 21030670 20206020 19527470 18951670
1140.70 18498090 18180220 17948610 17826950 17797650 17818130
1146.48 17915400 18016710 18117060 18293150 18539620 18777070
1152.27 18981770 19252280 19561870 19893080 20318610 20796760
1158.05 21430440 22257010 23345840 23954340 23105040 22289330
1163.84 22162970 22115320 22192480 22290450 22394710 22530000
1169.62 22683320 22836310 23010060 23085880 23104710 23182860
1175.41 23257690 23306930 23485320 23852640 24304290 24869430
1181.19 25466780 26049110 26697490 27440910 28293860 29274620
1186.98 30433710 31785750 33384040 35278810 37464080 40039680
1192.76 42995740 46331070 50186270 54631570 59616780 65197260
1198.55 71464860 78408420 86013470 94285520 103126400 112561200
1204.34 122666100 133436400 144761100 156595300 169104100 182534900
1210.12 196836400 212019300 227971400 244748800 262380600 280921200
1215.91 301767500 327050200 357461200 393405100 434891400 482590900
1221.69 536928500 598139600 669904200 753109200 845969000 946967500
1227.48 1053822000 1163834000 1273782000 1380200000 1479253000 1567937000
1233.26 1644358000 1709641000 1768856000 1830312000 1900128000 1980676000
1239.05 2067919000 2125648000 2095489000 2033236000 2036754000 2079763000
1244.83 2119974000 2134960000 2103608000 2027881000 1920993000 1795213000
1250.62 1659137000 1526323000 1407043000 1303106000 1209281000 1119181000
1256.40 1030106000 941095600 851961000 763264800 676157400 593481500
1262.19 519829500 460553400 421382500 393939200 362485900 328677600
1267.98 304335800 293529000 288789900 283529300 275046700 262256500
1273.76 245546800 225965000 204317600 183170000 164248100 147463500
1279.55 132907400 120329600 109600100 100468300 92827060 86507000
1285.33 81505660 77832250 75299940 73764020 73189730 73419340
1291.12 74308490 75810460 77834740 80217220 82859510 85740090
1296.90 88736460 91683650 94615570 97603680 100819900 104300500
1302.69 107330200 107786900 105434700 103533500 103471600 104661900
1308.47 106349300 106175700 103123300 99189080 95838940 93147170
1314.26 90776950 88009930 84540020 80364900 75319380 69673570
1320.04 63809160 57903730 52245410 47075130 42399250 38250490
1325.83 34695960 31720200 29241730 27125480 25342590 23871310
1331.61 22676620 21759070 21051110 20509730 20129280 19902990
1337.40 19806090 19871770 20176400 20800650 21708650 22894520
1343.19 24522620 26679940 29444150 32944600 37236100 42451790
1348.97 48691670 55867900 63957550 72737060 81976720 91290030
1354.76 100232200 108316000 115503900 122598300 131620200 145379100
1360.54 166770800 187293200 204262200 227236400 251236800 274395600
1366.33 301247800 328576400 352121800 369301800 379119700 383060000
1372.11 383890400 385268200 388338000 391361200 389260700 379460300
1377.90 371076700 372521100 380630800 388882700 393280900 390641600
1383.68 379678600 360906000 335592200 306556500 277248500 248700500
1389.47 222068800 198565100 178517700 161892500 148793800 139622300
1395.25 131071100 121686600 113463800 107056600 102784600 99586650
1401.04 96977370 95037940 93022280 90648080 87981390 84778840
1406.83 81153980 77474630 73932900 70671590 67818950 65440490
1412.61 63491570 61819120 60438370 59237920 58341100 57317760
1418.40 56282760 56894360 57849350 58490260 58834740 58796460
1424.18 59296430 60137610 61096160 62132380 63063360 63894940
1429.97 65018920 66106230 67078670 67951440 68904220 69288730
1435.75 69483240 71165020 72727040 73774180 74965770 76017540
1441.54 76971520 77767420 78597530 79469370 80308900 80955260
1447.32 81934840 83449860 85052560 87246930 90637060 93599340
1453.11 92790300 90393200 87935120 86396950 87432130 88773660
1458.89 90336080 91092110 90510070 90156860 90315320 89629710
1464.68 88901760 88593960 88345310 88791030 90017780 90733900
1470.47 89008840 86408940 84442870 83848720 83518580 82711130
1476.25 82375170 81599520 80208190 78409500 76193890 73711890
1482.04 70814170 67508700 63953590 60609110 57783180 55563450
1487.82 53959290 52778760 52177980 51753320 50794710 49179920
1493.61 47318960 44513020 41986810 40643900 38481950 36590630
1499.39 35129290 33402980 31820030 30365380 28755220 26488300
1505.18 24630250 23701840 23699670 23432870 22769230 22191540
1510.96 21274100 20743410 20371390 19700030 19123180 18323400
1516.75 17944260 17962860 17424580 16204700 15726250 16177620
1522.53 16451420 16217890 15669430 15752290 15647990 15367180
1528.32 15317130 15228700 14981390 14642730 14082070 13919920
1534.11 14356810 14415170 14409560 13759870 12440150 12520810
1539.89 13469080 13588660 14115730 14849330 14665730 14806650
1545.68 15248860 15281970 15220240 15038940 15257020 15660020
1551.46 15682120 15090170 14551770 15132370 15511510 14636270
1557.25 13730570 13839600 14001460 15165950 15956050 15693270
1563.03 15317970 14708560 14366310 13888730 13431080 12779260
1568.82 12312320 12380030 11982120 11565450 11397110 11174220
1574.60 9752156 9122672 10031460 9787354 9219388 8659186
1580.39 8157304 7727714 7350914 7066654 6801360 6606556
1586.17 6465076 6360264 6266200 6178542 6095006 6021964
1591.96 5974532 5914424 5882544 5882934 5910920 5923574
1597.74 5906070 5935126 5949942 5994518 6058010 6109252
1603.53 6197596 6314066 6406402 6510852 6623198 6691940
1609.32 6821138 6966832 7032404 7157872 7242484 7298366
1615.10 6325480 6078558 7471432 7939674 8069616 8223952
1620.89 8314530 8105906 8085300 8636044 8904340 8909892
1626.67 8794090 8968150 9222248 9249598 9287678 9251592
1632.46 9261362 8722904 7746508 8389016 9198508 9419114
1638.24 9754936 9866224 9978512 10125280 10216930 10338670
1644.03 9937000 9281998 9792642 10198940 10527530 10839400
1649.81 10860720 9743180 8098766 9010962 10772000 11717740
1655.60 12237780 12537290 12844010 13077320 13287580 13430350
1661.38 13245770 13505380 14096620 14362650 14588510 14767020
1667.17 14702830 14348790 14809990 15328800 15573310 16088850
1672.96 16188370 15689660 16080220 17076950 17398250 17679380
1678.74 17855220 18168470 18533270 18520070 18101530 17290820
1684.53 18530380 20461820 20886400 21329680 21748710 22181810
1690.31 22629340 23046030 23267240 23488760 22265420 21682300
1696.10 23323300 24017730 23537990 22340520 23125520 25082550
1701.88 25901770 26216440 26593480 27087690 27548240 28413550
1707.67 29112620 29728430 30481040 31409660 32225490 33014660
1713.45 33513400 34317620 34877860 34445610 35283720 36590330
1719.24 37416040 38506440 40015060 42066240 45319520 49590760
1725.02 54002330 58428720 62882430 67552940 72702620 78977680
1730.81 86309900 94134470 103252200 115467400 130846700 147521200
1736.60 165719900 185991100 208011100 233480600 262173400 293148700
1742.38 327365600 365545000 407725200 454066700 505177500 561397000
1748.17 623313700 690829600 763019500 841603000 924472900 1007657000
1753.95 1088738000 1163266000 1225563000 1269942000 1291128000 1286914000
1759.74 1257329000 1206716000 1150382000 1113199000 1092976000 1091280000
1765.52 1150581000 1257153000 1351079000 1399355000 1395316000 1349828000
1771.31 1277144000 1190073000 1095688000 998063700 902238800 811409100
1777.09 727260600 650810300 581957400 520332100 465292200 415383500
1782.88 369562500 327353500 288831100 253529600 221259200 192251200
1788.66 166169200 143000600 122668200 104936800 90557500 78558280
1794.45 68015360 59344840 52177370 46125120 40912780 36735420
1800.24 33293100 30396050 28117280 26250840 24674830 23375710
1806.02 22267150 21343230 20622250 19919080 19359920 19051040
1811.81 18771840 18604010 18494280 18421170 18341550 18300140
1817.59 18347400 18404460 18472650 18547510 18582780 18651250
1823.38 18502580 18263990 18418810 18517170 18498390 18415940
1829.16 18455520 18920130 19192310 19202920 19178580 19101980
1834.95 19005970 18855570 18678460 18504430 18279840 18019630
1840.73 17724190 17414010 16629030 16206380 16462200 16288140
1846.52 15899490 15604010 15329410 15006790 14665150 14314580
1852.30 13992210 13700170 13414770 13147950 12887340 12663970
1858.09 12484540 12323420 12183480 12067800 11949850 11828560
1863.88 11707820 11610060 11509100 11411310 11212520 11148880
1869.66 11307300 11301580 11231330 11144550 11100810 11099060
1875.45 11154040 11300690 11486570 11698800 11919770 12167280
1881.23 12378620 12523290 12626350 12704240 12755940 12789410
1887.02 12816050 12723470 12762790 13028650 13202190 13386940
1892.80 13545380 13610940 13724300 13852570 13949310 13998840
1898.59 14001350 14018450 14006470 13900040 13739550 13602510
1904.37 13414470 13179610 12880470 12525740 12129080 11672170
1910.16 11197080 10693890 10174580 9700258 9218420 8743034
1915.94 8197620 7555982 7243488 6995228 6652722 6335920
1921.73 6002642 5808068 5671758 5498382 5318782 5153038
1927.51 4996078 4869102 4771018 4665956 4541804 4438610
1933.30 4351270 4277796 4227932 4192180 4171180 4166342
1939.09 4149182 4125408 4009828 3980328 4102790 4141902
1944.87 4128812 4151706 4189386 4190400 4209488 4222884
1950.66 4201484 4197584 4195678 4221604 4254410 4286448
1956.44 4325424 4337840 4338270 4337696 4326768 4323228
1962.23 4316458 4297528 4268260 4224816 4190254 4201382
1968.01 4203826 4154468 4130604 4138964 4140320 4119208
1973.80 4066746 4013634 4008044 3998392 3948720 3888036
1979.58 3830672 3785124 3762300 3738910 3729754 3746570
1985.37 3732494 3725122 3747058 3803156 3866756 3849738
1991.15 3876794 4018538 4153796 4252774 4359320 4508928
1996.94 4668176 4799018 4926890 5067008 5200350 5315208
2002.73 5423512 5517488 5629314 5758454 5875194 6014060
2008.51 6150348 6283932 6385886 6479426 6608042 6701928
2014.30 6748400 6770984 6788882 6775540 6706302 6648862
2020.08 6608058 6527234 6457632 6401298 6240044 6056598
2025.87 5933548 5864728 5837122 5763146 5626114 5483408
2031.65 5285354 5019686 4755620 4507456 4264434 4044700
2037.44 3872598 3736426 3608618 3481676 3391316 3312636
2043.22 3239448 3202304 3170962 3164508 3181266 3188222
2049.01 3216598 3266556 3338498 3418480 3478032 3550008
2054.79 3641350 3760344 3912272 4075534 4245260 4430622
2060.58 4636452 4851014 5081276 5339134 5633944 5984448
2066.37 6359500 6721756 7129492 7608534 8124768 8673694
2072.15 9222160 9803310 10381800 10960110 11496570 11939770
2077.94 12401840 12807880 13147890 13452160 13802420 14206330
2083.72 14519920 14658010 14706340 14821960 15044830 15261840
2089.51 15373120 15403540 15284570 15014500 14575220 14059130
2095.29 13531710 12950590 12297370 11630980 11091320 10567140
2101.08 10011630 9474584 9038016 8642106 8212710 7753898
2106.86 7350862 6988206 6581234 6141280 5725064 5394632
2112.65 5043540 4638318 4237424 3951798 3724576 3486770
2118.43 3220412 3056816 2952658 2811894 2642674 2528026
2124.22 2493116 2409700 2287046 2211856 2186168 2137906
2130.01 2063626 2020458 2032988 2057600 2074594 2121750
2135.79 2219204 2331086 2463464 2577498 2736482 2901728
2141.58 3015510 3128104 3226800 3326162 3410592 3490728
2147.36 3566648 3642420 3698502 3759818 3867590 3902982
2153.15 3850642 3851650 3920822 3955290 3934638 3957930
2158.93 3972376 3872296 3744712 3701764 3682326 3544068
2164.72 3429180 3446108 3441970 3300054 3203410 3280372
2170.50 3270066 3180706 3182426 3220904 3181160 3112206
2176.29 3119476 3132844 3056946 3014134 3041836 2980310
2182.07 2865646 2824694 2801790 2693740 2613838 2618206
2187.86 2573056 2467634 2405230 2326740 2165928 2034634
2193.64 1946650 1791414 1652566 1585964 1531588 1466232
2199.43 1453776 1477548 1451792 1442024 1496562 1539742
2205.22 1551118 1620358 1703372 1767252 1826696 1879336
2211.00 1911074 1920156 1962180 2005716 2060328 2141974
2216.79 2194702 2236308 2308210 2390852 2444934 2476694
2222.57 2498026 2552140 2648072 2724652 2750118 2788062
2228.36 2839364 2852362 2853272 2858632 2825696 2797456
2234.14 2779014 2709602 2672530 2646100 2605634 2588192
2239.93 2562454 2513214 2482114 2466706 2448220 2408412
2245.71 2345768 2289716 2217786 2152618 2109748 2046518
2251.50 1977236 1917008 1844014 1769402 1713386 1658562
2257.28 1608340 1571884 1517086 1471336 1421392 1388600
2263.07 1381374 1372784 1376956 1376692 1382162 1403492
2268.86 1448788 1477206 1495212 1511606 1521216 1544978
2274.64 1597430 1658944 1689296 1727886 1790440 1875038
2280.43 1947812 1992426 2064504 2154030 2225110 2298908
2286.21 2361028 2469514 2583920 2632716 2727448 2811940
2292.00 2873764 2946096 2995266 3043640 3118680 3205538
2297.78 3293878 3368208 3406498 3440506 3501558 3573524
2303.57 3628846 3671260 3693068 3700464 3680210 3606232
2309.35 3507568 3445510 3385630 3331038 3302686 3269154
2315.14 3228210 3176204 3096298 3014024 2953434 2881606
2320.92 2795356 2715776 2637502 2561888 2514956 2445672
2326.71 2361376 2303820 2264494 2209846 2137048 2088370
2332.50 2019992 1971908 1987172 1953708 1900364 1866534
2338.28 1811552 1780596 1779178 1786970 1772076 1734124
2344.07 1690788 1596916 1490282 1417874 1377722 1357944
2349.85 1322512 1307418 1324180 1344950 1354410 1369688
2355.64 1393174 1422446 1464212 1503776 1545854 1599134
2361.42 1653474 1694164 1727702 1781502 1832862 1875116
2367.21 1904296 1917290 1937038 1940806 1959858 1993664
2372.99 1996922 1980920 1963826 1949614 1952680 1967446
2378.78 1956844 1938914 1932464 1930992 1923608 1903006
2384.56 1892726 1889680 1891186 1898196 1921434 1925052
2390.35 1902192 1925916 1932006 1922996 1937018 1935510
2396.14 1951202 1977992 1988600 1971790 1986110 2006036
2401.92 2006132 2028170 2047800 2082034 2133368 2130954
2407.71 2110940 2149772 2181208 2166290 2171100 2186816
2413.49 2183132 2205190 2221216 2229912 2268198 2286180
2419.28 2271210 2277424 2288610 2288938 2310542 2308218
2425.06 2280920 2223694 2163898 2123462 2099086 2076358
2430.85 2048924 2025912 1974520 1928260 1895062 1867678
2436.63 1848500 1826508 1804892 1776846 1746386 1732110
2442.42 1737954 1763082 1768944 1771466 1807070 1873816
2448.20 1963320 2058374 2174172 2278584 2388508 2541012
2453.99 2650848 2788622 2983046 3135788 3296894 3481368
2459.77 3672750 3867920 4024388 4148380 4296578 4445564
2465.56 4600512 4753220 4847612 4929418 5014068 5086946
2471.35 5160784 5197178 5246734 5297034 5285128 5284838
2477.13 5296518 5288850 5244848 5161366 5052282 4923468
2482.92 4791374 4645388 4464344 4299398 4172982 4009080
2488.70 3864210 3757162 3619036 3488446 3329496 3177950
2494.49 3074892 2960834 2822822 2657294 2495710 2342616
2500.27 2210086 2080150 1903694 1738032 1593464 1480086
2506.06 1384642 1264478 1152246 1071244 998982 898062
2511.84 810860 718986 636452 586836 513286 443532
2517.63 405456 365362 314444 299444 279856 258096
2523.41 262378 249504 232676 273992 299054 282728
2529.20 301950 330062 364122 396036 420468 461252
2534.99 507630 538446 559344 558794 594456 641606
2540.77 636444 655306 686856 693924 681816 677014
2546.56 673542 662128 676558 687910 685846 682498
2552.34 689894 687970 661976 646650 624162 604782
2558.13 577214 518608 470586 491656 505532 466512
2563.91 444050 427386 418594 391060 390316 407860
2569.70 406562 402218 374920 388404 403042 394388
2575.48 401246 419958 426992 408972 424632 475152
2581.27 501280 537558 583260 604626 644514 694542
2587.05 738934 808138 846270 926780 1034656 1106120
2592.84 1215238 1306340 1384238 1496832 1623250 1696714
2598.63 1780086 1887712 1982584 2046218 2118152 2218332
2604.41 2290942 2309530 2314228 2350316 2387326 2435740
2610.20 2495306 2517426 2476768 2462562 2418896 2339478
2615.98 2308948 2288904 2201842 2119062 2094924 2037676
2621.77 1947292 1881210 1833458 1752160 1666962 1570374
2627.55 1471664 1411372 1365588 1296772 1246650 1191338
2633.34 1120356 1096178 1062444 994092 911114 854662
2639.12 847198 830606 787994 739244 724144 707632
2644.91 674076 651058 652316 638708 618794 626062
2650.69 621974 630164 639364 673086 685842 690592
2656.48 735216 780654 815850 842820 858876 895144
2662.27 991758 1083344 1135264 1164768 1209790 1287730
2668.05 1379580 1417798 1470156 1559856 1594770 1641230
2673.84 1703996 1743320 1762618 1786184 1808346 1871676
2679.62 1988106 2043906 2085424 2119178 2165232 2196320
2685.41 2195912 2259530 2286572 2309828 2347360 2347718
2691.19 2360592 2382544 2354190 2275648 2214542 2170202
2696.98 2122810 2079320 2044384 1986396 1936084 1939016
2702.76 1979268 2025692 2049416 2057854 1994958 1910364
2708.55 1876334 1843074 1784258 1750196 1747598 1726028
2714.33 1767308 1823646 1860170 1886208 1920606 1974766
2720.12 2004988 2005110 2001970 2026146 2079850 2155654
2725.91 2209186 2256506 2277844 2318276 2364438 2382988
2731.69 2468084 2582396 2639158 2685386 2727080 2711898
2737.48 2690768 2726244 2788384 2839304 2837114 2849616
2743.26 2941226 3046458 3108416 3152934 3252274 3350392
2749.05 3456556 3569432 3627466 3630970 3664624 3737406
2754.83 3759618 3765258 3796838 3840492 3882980 3907462
2760.62 3885280 3816656 3782884 3779712 3779386 3793584
2766.40 3786502 3816380 3822470 3839040 3904332 3937456
2772.19 3936428 3919152 3930916 3921812 3923394 3940256
2777.97 3938162 3918582 3904582 3888638 3883260 3877000
2783.76 3892976 3937096 3922774 3908950 3903560 3880784
2789.54 3850880 3811334 3732756 3685434 3706006 3719168
2795.33 3669626 3635530 3636396 3615814 3615406 3619102
2801.12 3637656 3704562 3781268 3886970 3994194 4092156
2806.90 4232306 4362008 4501086 4635238 4815738 5062920
2812.69 5268218 5449016 5601258 5747398 5916702 5993902
2818.47 6075208 6228974 6316662 6374562 6502274 6617766
2824.26 6709360 6822090 6966362 7120274 7251964 7366924
2830.04 7461652 7542860 7636074 7704840 7783724 7923266
2835.83 8075308 8255198 8469624 8674702 8913848 9175976
2841.61 9446252 9732240 9960118 10138850 10395060 10686920
2847.40 10923590 11164460 11418200 11739500 12092660 12386280
2853.18 12685460 12949350 13205900 13455170 13625040 13818390
2858.97 14043660 14225370 14459380 14722930 14969220 15289350
2864.76 15656850 16125030 16721250 17455430 18289410 19253590
2870.54 20460330 21926810 23537930 25297770 27311230 29466440
2876.33 31618710 33701860 35488020 36853460 37825370 38319620
2882.11 38604150 39130680 40139960 41742500 43474250 44589270
2887.90 45269430 46117340 47154650 48243540 49233780 50061810
2893.68 50776760 51343140 51726020 52026910 52407940 52948910
2899.47 53815610 54835440 55654200 56248640 56897340 57779400
2905.25 58869290 60154240 61533570 62875740 64054920 64941070
2911.04 65517940 65907810 66180570 66347230 66229920 65420880
2916.82 64218460 63351340 63077540 63438740 64184010 64996770
2922.61 65757150 66356310 66810480 67136660 67447270 67944280
2928.40 68804230 70229730 72303380 74936170 77987050 81490390
2934.18 85535680 89829580 93978690 97582740 100452000 102752700
2939.97 104837400 107362900 111155900 115121800 117630300 119771100
2945.75 122663700 126250800 129755700 131870900 132074300 131185900
2951.54 130437200 130335700 130911800 132447000 133715800 132556900
2957.32 131179700 131388800 132079000 132769400 133562700 134583100
2963.11 136701600 139935100 140838800 140783700 143077700 146109600
2968.89 149323600 153246100 158481300 165580600 174489000 184418000
2974.68 194869600 205594700 216431100 227002500 237808300 249225400
2980.46 264389600 276257300 274603400 271152700 271734400 273179200
2986.25 275495800 279183500 283195400 284794500 285707600 290508800
2992.04 301939200 321906800 347470900 343366900 312712700 290947300
2997.82 275341600 260836200 246809300 233024000 219439200 206201800
3003.61 194107200 184055000 175242700 166974900 159997800 153837600
3009.39 147586300 140837100 133611800 126089500 118293800 110448100
3015.18 102755500 95241230 88158220 81612780 75649400 70260390
3020.96 65305000 60857180 56969620 53421380 50179120 47296940
3026.75 44766780 42649930 40777240 39006270 37330260 35841650
3032.53 34673740 33771360 33015560 32238540 31471890 30732040
3038.32 29960790 29208480 28552130 27935890 27279890 26725850
3044.10 26278210 25817240 25393600 25003830 24701920 24494780
3049.89 24274540 24053680 23843830 23641760 23465680 23220330
3055.67 22965950 22714990 22410850 22091500 21688550 21257620
3061.46 20913900 20545390 20134900 19745540 19311680 18915820
3067.25 18474800 18034380 17624040 17124750 16657320 16190710
3073.03 15742280 15337980 14816380 14306080 13844070 13343900
3078.82 12930560 12563360 12183060 11797880 11426200 11072750
3084.60 10774170 10537630 10275720 9985680 9759020 9510944
3090.39 9229372 9060486 8928504 8722082 8542178 8379668
3096.17 8194692 8051420 7919244 7770204 7633210 7502656
3101.96 7311722 7120278 6949558 6769954 6651778 6543216
3107.74 6376758 6188802 5992206 5797924 5678250 5589564
3113.53 5492716 5380690 5290814 5189894 5146256 5112050
3119.31 5032768 4941314 4826380 4776912 4721012 4669310
3125.10 4675388 4636120 4555594 4529566 4558752 4591894
3130.89 4592850 4576656 4547752 4495522 4400894 4351424
3136.67 4333320 4234504 4104666 4018458 3903848 3772218
3142.46 3671638 3604148 3576370 3562796 3502952 3391836
3148.24 3336228 3266318 3219192 3173010 2989210 2872740
3154.03 2858262 2800980 2754150 2717864 2650266 2611338
3159.81 2600642 2577612 2585146 2580488 2552546 2550134
3165.60 2602030 2638258 2616250 2596660 2631112 2691666
3171.38 2709302 2744872 2841762 2898838 2881334 2919332
3177.17 2974418 3039354 3113738 3130314 3108542 3133968
3182.95 3161582 3119300 3142080 3198424 3197762 3169744
3188.74 3130372 3113928 3121174 3079890 3002358 2952152
3194.53 2942888 2921292 2861212 2860230 2882514 2816798
3200.31 2750280 2669398 2603820 2562568 2483996 2468038
3206.10 2446702 2371686 2245038 2224670 2252558 2134736
3211.88 2050168 2023342 1992524 1973670 1921816 1837264
3217.67 1791504 1764742 1683548 1612628 1603890 1579296
3223.45 1564242 1546606 1499616 1428368 1315236 1261030
3229.24 1291316 1339676 1334564 1252976 1170632 1146466
3235.02 1135582 1131554 1112684 1117166 1100188 1014106
3240.81 992434 987952 934276 866486 823004 815006
3246.59 766432 698030 695864 683098 574700 575624
3252.38 618866 536372 492950 436784 401858 391854
3258.17 366272 325182 292112 301504 304822 294332
3263.95 205038 160388 138970 108312 167954 229514
3269.74 202860 141154 170200 159010 115924 174900
3275.52 188946 130894 91864 127600 176228 136932
3281.31 123630 170188 191916 189084 160154 157732
3287.09 197852 208100 237664 245178 210904 173070
3292.88 173854 215554 207460 223370 245710 246940
3298.66 252140 212118 229056 298038 325960 294326
3304.45 287144 289270 225164 207566 262154 274778
3310.23 257182 238486 214716 222334 240996 272798
3316.02 244542 234812 287990 313394 242152 205288
3321.80 176612 133608 160132 183298 211026 216030
3327.59 190138 154128 137474 112968 134380 183016
3333.38 126950 128638 151760 131718 97634 31366
3339.16 34392 758 19662-9934-52374 29180
3344.95 56544 56968 73050 157072 181372 146294
3350.73 193604 213336 255336 258042 250890 319806
3356.52 344938 310940 253880 270748 300664 287028
3362.30 233368 199228 255222 280622 250570 277626
3368.09 272290 182378 133410 100740 86130 103630
3373.87 48228-12966-3336-4970-46588-64588
3379.66-56982-101878-146286-142302-124806-123878
3385.44-79082-120994-173792-115380-28778 3578
3391.23-65828-138606-154168-106520-72750-32214
3397.02-46852-64818 15452 4024-80802-89390
3402.80-17018 46260 38820 40220 42298-4336
3408.59-25186 34644 51062 80534 129696 199836
3414.37 216072 192548 191202 199406 270570 269226
3420.16 269798 264758 247470 301782 309884 300804
3425.94 293594 315254 353344 381356 344594 292464
3431.73 361274 431588 384140 326648 367936 419478
3437.51 411440 374366 362136 332240 315334 350234
3443.30 349948 347992 324798 222648 267028 340692
3449.08 324642 354400 335856 276914 256106 287170
3454.87 310454 275276 237814 222860 219462 129814
3460.66 99160 174580 203532 135722 105418 156394
3466.44 126564 144906 94880 86454 166450 114134
3472.23 79140 139058 244552 323426 381890 479052
3478.01 641512 724450 813968 959162 1109556 1396876
3483.80 1688100 1915010 2181528 2490432 2869326 3304982
3489.58 3849638 4386818 4919658 5534142 6167078 6846302
3495.37 7533232 8217214 8977350 9826456 10527420 11117080
3501.15 11626400 11976720 12245150 12333660 12273620 12134660
3506.94 11914390 11675630 11543270 11690820 12146960 12865750
3512.72 13466290 13646010 13516030 13128830 12476550 11657030
3518.51 10715150 9683502 8732916 7753522 6734640 5870850
3524.30 5087550 4329756 3672506 2994912 2441584 2018598
3530.08 1556458 1099754 676496 379068 121464-219576
3535.87-491402-593430-745600-954032-1088024-1129258
3541.65-1245554-1365084-1414850-1487078-1597614-1631860
3547.44-1569968-1655050-1633938-1578198-1628684-1608530
3553.22-1595390-1571000-1546232-1548468-1568564-1553892
3559.01-1550982-1531856-1514868-1564966-1538328-1493830
3564.79-1659606-1716670-1683806-1555746-1326148-1268474
3570.58-1173962-1105692-1082896-1095198-1029890-951210
3576.36-934960-914542-936882-928694-771804-660504
3582.15-674750-632628-608386-858780-878310-849048
3587.94-849634-513846-426696-382684-439194-453928
3593.72-447928-463602-317664-296652-365620-341432
3599.51-331692-328680-268166-181878-171556-214454
3605.29-334542-420994-518524-854758-616594-353396
3611.08-645732-620404-422626-476540-376276-479196
3616.86-607628-757614-974752-641092-449730-423474
3622.65-366248-361120-449382-513772-825378-1411554
3628.43-1581666-1000146-468948-447568-573454-607782
3634.22-451568-386630-431220-500954-469114-416124
3640.00-407272-463210-488084-484386-539452-641392
3645.79-1008560-1095986-1386016-1553582-1220156-966950
3651.57-576458-511450-462724-822044-1182408-685560
3657.36-422844-462582-441772-405858-424556-455868
3663.15-504974-476494-468938-478034-796776-1012710
3668.93-1386296-1793748-913448-490300-825686-1504660
3674.72-2056664-1396110-638910-632556-680036-516978
3680.50-444038-423314-411962-386878-437684-450154
3686.29-851280-1969790-1495028-734730-993130-697464
3692.07-478724-491866-422594-411794-452550-402266
3697.86-398964-411466-549110-769034-620678-419224
3703.64-393488-448436-511548-507542-701864-933998
3709.43-703656-1041014-1480574-812166-507750-505890
3715.21-415486-423260-450164-509026-440662-459012
3721.00-666828-577650-428264-543846-692370-754440
3726.79-513522-344320-345876-434408-1116512-1193650
3732.57-664156-853074-1006774-1224410-974168-552364
3738.36-535232-465624-534898-482168-861998-2614786
3744.14-2449716-748892-516824-659074-1763424-1695474
3749.93-843394-1889792-1614266-446508-273438-272004
3755.71-354620-209916-242888-485820-316842-59656
3761.50-35552-44410-63142-229720-181692 20394
3767.28 22096-327126-501430-115306 57908 64790
3773.07 99716 119630 98892 40202-39552-248508
3778.85-300504-55530 40366 59428-28030-126294
3784.64-44642-28960-81030-87162-62724-31062
3790.43-10174-8518-17856-51484-183976-435834
3796.21-334466-179162-200520-447610-1468960-1292632
3802.00-364690-226714-113024-460516-1131664-714432
3807.78-97646-101140-42716-55908-65638-170148
3813.57-261288-1227696-1470884-435896-192738-282458
3819.35-754482-1167736-698744-173896-101012-58240
3825.14-181892-235544-28836-24824-73420-300198
3830.92-423522-131804-164112-545526-324424-544200
3836.71-1656012-1045576-273936-463850-288224-137252
3842.49-281168-164658 13486 59700 76948 64826
3848.28-76988-65942-733290-1385496-1476208-2591536
3854.07-1503178-99550-236942-56070 27954 30476
3859.85-75368-216800-97450-133260-607006-525470
3865.64-76492-21572-257844-958000-940664-182356
3871.42 12900-181174-355196-122138 71656 68814
3877.21 63726-113226-429968-329656-46916-87056
3882.99-36266-413170-751518-214662 18552 16866
3888.78 51276-392904-507734-73698 7074 29438
3894.56 112546 100008 78950-130320-376076-122686
3900.35-344930-373880-150422-443110-191286 39716
3906.13 125282 204486 198728 222874 284232 262406
3911.92 203392 193166 226812 252876 73726 43914
3917.70 190066 75240 73378 241966 270878 264058
3923.49 217194 225264 289264 317664 325000 277972
3929.28 258458 257532 214208 317608 420776 449544
3935.06 480946 490490 497686 500454 480974 544728
3940.85 521136 391702 537802 587272 532110 533984
3946.63 502880 447484 546368 745208 755578 665560
3952.42 626522 657990 706610 697014 679310 759842
3958.20 761736 754956 766336 753614 731366 708966
3963.99 742946 793720 848468 889892 869434 901956
3969.77 971610 995608 1059430 1098742 1105110
##END=
