##TITLE=ACETIC ACID, ETHYL ESTER
##JCAMP-DX=4.24
##DATA TYPE=INFRARED SPECTRUM
##CLASS=COBLENTZ II
##ORIGIN=DOW CORNING CORP.
##OWNER=COBLENTZ SOCIETY
Collection (C) 2018 copyright by the U.S. Secretary of Commerce
on behalf of the United States of America. All rights reserved.
##DATE=1965
##NAMES=ethyl acetate
##CAS REGISTRY NO=141-78-6
##MOLFORM=C4 H8 02
##BP=77 C
##SOURCE REFERENCE=COBLENTZ NO. 4802
##$NIST SOURCE=COBLENTZ
##$NIST IMAGE=cob4802
##SPECTROMETER/DATA SYSTEM=PERKIN-ELMER 521 (GRATING)
##INSTRUMENT PARAMETERS=GRATING CHANGES AT 2000, 630 CM^-^1
##STATE=SOLUTION (10% IN CCl4 FOR 3800-1300, 10% IN CS2 FOR 1300-650, 10% IN CCl4 FOR 650-250 CM^-^1) VERSUS SOLVENT
##PATH LENGTH=0.012, 0.012, AND 0.010 CM (CsBr CELL)
##SAMPLING PROCEDURE=TRANSMISSION
##RESOLUTION=4
##DATA PROCESSING=DIGITIZED BY NIST FROM HARD COPY (FROM TWO SEGMENTS)
##XUNITS=1/CM
##YUNITS=TRANSMITTANCE
##XFACTOR=1.000000
##YFACTOR=1
##DELTAX=0.984686
##FIRSTX=248.249
##LASTX=3793.12
##FIRSTY=0.713
##MAXX=3793.12
##MINX=248.249
##MAXY=0.895754
##MINY=0.001
##NPOINTS=3601
##XYDATA=(X++(Y..Y))
248.249000 0.7130 0.7150 0.7130 0.7150 0.7170
253.172429 0.7190 0.7250 0.7290 0.7330 0.7370
258.095859 0.7390 0.7410 0.7410 0.7430 0.7450
263.019288 0.7450 0.7450 0.7450 0.7430 0.7430
267.942717 0.7420 0.7420 0.7410 0.7370 0.7370
272.866146 0.7350 0.7340 0.7310 0.7290 0.7290
277.789576 0.7300 0.7310 0.7330 0.7330 0.7330
282.713005 0.7310 0.7300 0.7290 0.7260 0.7260
287.636434 0.7250 0.7220 0.7110 0.7090 0.7070
292.559863 0.7060 0.7050 0.7030 0.6970 0.6930
297.483293 0.6890 0.6840 0.6800 0.6760 0.6680
302.406722 0.6660 0.6640 0.6640 0.6660 0.6660
307.330151 0.6680 0.6700 0.6710 0.6740 0.6790
312.253580 0.6900 0.6970 0.7060 0.7179 0.7270
317.177010 0.7410 0.7450 0.7470 0.7640 0.7760
322.100439 0.7810 0.7850 0.7890 0.7940 0.7940
327.023868 0.7960 0.7980 0.8050 0.8060 0.8100
331.947297 0.8130 0.8150 0.8170 0.8190 0.8210
336.870727 0.8230 0.8230 0.8240 0.8250 0.8250
341.794156 0.8270 0.8270 0.8270 0.8270 0.8270
346.717585 0.8270 0.8250 0.8250 0.8230 0.8200
351.641014 0.8190 0.8160 0.8130 0.8120 0.8050
356.564444 0.8000 0.7970 0.7960 0.7940 0.7930
361.487873 0.7860 0.7770 0.7700 0.7620 0.7531
366.411302 0.7450 0.7270 0.7130 0.7020 0.6541
371.334731 0.5961 0.5791 0.5421 0.5251 0.5081
376.258161 0.5050 0.5080 0.5330 0.5420 0.5500
381.181590 0.6039 0.6548 0.6739 0.7088 0.7229
386.105019 0.7410 0.7580 0.7610 0.7800 0.7920
391.028448 0.7930 0.7940 0.7960 0.7980 0.8040
395.951878 0.8060 0.8080 0.8080 0.8100 0.8130
400.875307 0.8130 0.8160 0.8160 0.8170 0.8170
405.798736 0.8170 0.8190 0.8200 0.8200 0.8210
410.722165 0.8210 0.8230 0.8230 0.8230 0.8210
415.645595 0.8200 0.8190 0.8190 0.8170 0.8160
420.569024 0.8150 0.8120 0.8100 0.8090 0.8080
425.492453 0.8060 0.8000 0.7970 0.7970 0.7930
430.415882 0.7880 0.7840 0.7800 0.7760 0.7700
435.339312 0.7640 0.7610 0.7600 0.7580 0.7600
440.262741 0.7610 0.7620 0.7640 0.7650 0.7650
445.186170 0.7650 0.7650 0.7640 0.7600 0.7540
450.109599 0.7520 0.7460 0.7420 0.7340 0.7290
455.033029 0.7210 0.7130 0.7050 0.6970 0.6890
459.956458 0.6800 0.6780 0.6790 0.6870 0.6970
464.879887 0.7030 0.7220 0.7390 0.7470 0.7500
469.803316 0.7580 0.7640 0.7700 0.7740 0.7760
474.726746 0.7780 0.7810 0.7820 0.7860 0.7880
479.650175 0.7890 0.7900 0.7930 0.7930 0.7940
484.573604 0.7940 0.7960 0.7960 0.7980 0.8000
489.497033 0.8020 0.8020 0.8020 0.8040 0.8040
494.420463 0.8040 0.8040 0.8040 0.8040 0.8050
499.343892 0.8060 0.8080 0.8080 0.8080 0.8090
504.267321 0.8090 0.8090 0.8090 0.8090 0.8080
509.190750 0.8080 0.8080 0.8080 0.8060 0.8060
514.114180 0.8060 0.8050 0.8050 0.8050 0.8040
519.037609 0.8040 0.8040 0.8040 0.8040 0.8040
523.961038 0.8040 0.8020 0.8020 0.8020 0.8010
528.884468 0.8010 0.8010 0.8010 0.8010 0.8010
533.807897 0.8020 0.8020 0.8040 0.8040 0.8050
538.731326 0.8050 0.8060 0.8060 0.8060 0.8060
543.654755 0.8050 0.8050 0.8050 0.8050 0.8050
548.578185 0.8050 0.8050 0.8050 0.8050 0.8040
553.501614 0.8040 0.8040 0.8040 0.8040 0.8040
558.425043 0.8040 0.8040 0.8040 0.8040 0.8020
563.348472 0.8020 0.8020 0.8010 0.8010 0.8000
568.271902 0.7980 0.7980 0.7970 0.7960 0.7960
573.195331 0.7960 0.7940 0.7940 0.7930 0.7900
578.118760 0.7890 0.7880 0.7820 0.7800 0.7780
583.042189 0.7770 0.7700 0.7620 0.7600 0.7580
587.965619 0.7520 0.7470 0.7301 0.7111 0.6941
592.889048 0.6750 0.6550 0.6320 0.5990 0.5011
597.812477 0.4691 0.4281 0.4280 0.4509 0.4869
602.735906 0.5160 0.5380 0.5600 0.5810 0.6499
607.659336 0.6829 0.7059 0.7090 0.7289 0.7410
612.582765 0.7540 0.7580 0.7600 0.7600 0.7580
617.506194 0.7570 0.7540 0.7520 0.7500 0.7470
622.429623 0.7460 0.7380 0.7290 0.7220 0.7130
627.353053 0.6950 0.6641 0.6381 0.6041 0.5323
632.276482 0.4950 0.4590 0.4590 0.5039 0.5479
637.199911 0.5690 0.5909 0.6348 0.6908 0.7089
642.123340 0.7260 0.7600 0.7800 0.7840 0.7860
647.046770 0.7890 0.7960 0.7970 0.8000 0.8000
651.970199 0.7980 0.7970 0.7980 0.8050 0.8060
656.893628 0.8130 0.8200 0.8210 0.8230 0.8230
661.817057 0.8210 0.8210 0.8200 0.8200 0.8200
666.740487 0.8200 0.8210 0.8350 0.8410 0.8410
671.663916 0.8430 0.8440 0.8440 0.8470 0.8490
676.587345 0.8520 0.8530 0.8530 0.8550 0.8550
681.510774 0.8560 0.8560 0.8560 0.8560 0.8560
686.434204 0.8560 0.8560 0.8560 0.8560 0.8560
691.357633 0.8570 0.8590 0.8590 0.8590 0.8590
696.281062 0.8590 0.8600 0.8600 0.8610 0.8610
701.204491 0.8610 0.8630 0.8630 0.8630 0.8630
706.127921 0.8630 0.8630 0.8630 0.8630 0.8630
711.051350 0.8630 0.8640 0.8640 0.8640 0.8640
715.974779 0.8630 0.8630 0.8630 0.8630 0.8630
720.898208 0.8630 0.8630 0.8610 0.8610 0.8610
725.821638 0.8630 0.8630 0.8640 0.8640 0.8640
730.745067 0.8640 0.8640 0.8640 0.8640 0.8640
735.668496 0.8650 0.8650 0.8650 0.8640 0.8640
740.591925 0.8630 0.8630 0.8610 0.8610 0.8600
745.515355 0.8590 0.8570 0.8560 0.8550 0.8550
750.438784 0.8520 0.8480 0.8470 0.8450 0.8440
755.362213 0.8430 0.8410 0.8410 0.8390 0.8350
760.285642 0.8330 0.8320 0.8310 0.8240 0.8170
765.209072 0.8160 0.8130 0.8090 0.8060 0.8000
770.132501 0.7840 0.7800 0.7680 0.7610 0.7600
775.055930 0.7460 0.7300 0.7220 0.7021 0.6890
779.979359 0.6460 0.6360 0.6240 0.6120 0.6000
784.902789 0.6000 0.6040 0.6130 0.6200 0.6270
789.826218 0.6380 0.6590 0.6860 0.7100 0.7190
794.749647 0.7270 0.7410 0.7460 0.7520 0.7530
799.673077 0.7540 0.7540 0.7560 0.7570 0.7600
804.596506 0.7610 0.7620 0.7650 0.7660 0.7740
809.519935 0.7800 0.7810 0.7900 0.7930 0.7960
814.443364 0.7980 0.8000 0.8010 0.8020 0.8040
819.366794 0.8040 0.8040 0.8020 0.8020 0.7980
824.290223 0.7960 0.7930 0.7890 0.7860 0.7820
829.213652 0.7780 0.7700 0.7610 0.7460 0.7390
834.137081 0.7300 0.7130 0.6980 0.6800 0.6561
839.060511 0.6440 0.6269 0.5720 0.5280 0.5050
843.983940 0.4830 0.4630 0.4630 0.4740 0.5039
848.907369 0.5160 0.5330 0.5630 0.5910 0.6470
853.830798 0.6660 0.6860 0.6950 0.7259 0.7390
858.754228 0.7430 0.7540 0.7610 0.7680 0.7730
863.677657 0.7740 0.7860 0.7890 0.7900 0.7940
868.601086 0.7960 0.7970 0.8040 0.8080 0.8120
873.524515 0.8150 0.8170 0.8170 0.8190 0.8200
878.447945 0.8210 0.8230 0.8240 0.8240 0.8240
883.371374 0.8240 0.8240 0.8240 0.8240 0.8240
888.294803 0.8230 0.8230 0.8210 0.8210 0.8200
893.218232 0.8190 0.8160 0.8150 0.8120 0.8090
898.141662 0.8090 0.8010 0.7960 0.7890 0.7850
903.065091 0.7810 0.7760 0.7700 0.7650 0.7560
907.988520 0.7420 0.7220 0.7060 0.6860 0.6660
912.911949 0.6460 0.6270 0.6260 0.6270 0.6320
917.835379 0.6390 0.6470 0.6540 0.6790 0.6820
922.758808 0.6820 0.6800 0.6760 0.6710 0.6620
927.682237 0.6560 0.6500 0.6200 0.6010 0.5810
932.605666 0.5411 0.5210 0.5011 0.4831 0.4611
937.529096 0.4611 0.5160 0.5460 0.5760 0.5880
942.452525 0.7189 0.7420 0.7580 0.7660 0.7780
947.375954 0.7940 0.7960 0.8080 0.8150 0.8160
952.299383 0.8170 0.8190 0.8200 0.8200 0.8200
957.222813 0.8200 0.8190 0.8170 0.8160 0.8160
962.146242 0.8150 0.8130 0.8120 0.8100 0.8080
967.069671 0.8050 0.8050 0.8010 0.7970 0.7960
971.993100 0.7930 0.7900 0.7850 0.7820 0.7780
976.916530 0.7770 0.7740 0.7730 0.7690 0.7610
981.839959 0.7580 0.7560 0.7490 0.7430 0.7310
986.763388 0.7300 0.7140 0.7100 0.6990 0.6910
991.686817 0.6780 0.6710 0.6600 0.6510 0.6400
996.610247 0.6310 0.6300 0.6280 0.6280 0.6300
1001.533676 0.6300 0.6300 0.6310 0.6310 0.6320
1006.457105 0.6320 0.6320 0.6310 0.6280 0.6240
1011.380534 0.6190 0.6070 0.6040 0.6000 0.5930
1016.303964 0.5870 0.5790 0.5670 0.5450 0.5290
1021.227393 0.5100 0.4890 0.4670 0.4431 0.4191
1026.150822 0.3920 0.3650 0.3370 0.3090 0.2780
1031.074251 0.2370 0.1901 0.1680 0.1500 0.0772
1035.997681 0.0440 0.0360 0.0250 0.0090 0.0060
1040.921110 0.0040 0.0040 0.0020 0.0020 0.0020
1045.844539 0.0020 0.0040 0.0040 0.0050 0.0060
1050.767968 0.0200 0.0370 0.0420 0.0689 0.0810
1055.691398 0.0950 0.1081 0.1470 0.1590 0.1890
1060.614827 0.2140 0.2370 0.2570 0.2760 0.2930
1065.538256 0.3080 0.3210 0.3350 0.3450 0.3560
1070.461686 0.3650 0.3840 0.3910 0.3990 0.4110
1075.385115 0.4240 0.4270 0.4320 0.4320 0.4310
1080.308544 0.4310 0.4300 0.4280 0.4220 0.4200
1085.231973 0.4120 0.4080 0.3960 0.3840 0.3710
1090.155403 0.3560 0.3410 0.3240 0.3120 0.3050
1095.078832 0.3040 0.3050 0.3170 0.3290 0.3390
1100.002261 0.3490 0.3899 0.3980 0.4040 0.4070
1104.925690 0.4080 0.4100 0.4100 0.4110 0.4120
1109.849120 0.4150 0.4180 0.4320 0.4649 0.5009
1114.772549 0.5250 0.5370 0.5490 0.5760 0.6170
1119.695978 0.6240 0.6310 0.6510 0.6590 0.6630
1124.619407 0.6700 0.6760 0.6830 0.6870 0.6890
1129.542837 0.6950 0.6970 0.6980 0.6980 0.6990
1134.466266 0.6990 0.6980 0.6970 0.6940 0.6940
1139.389695 0.6910 0.6890 0.6860 0.6830 0.6800
1144.313124 0.6760 0.6680 0.6620 0.6600 0.6590
1149.236554 0.6340 0.6190 0.6050 0.6050 0.6090
1154.159983 0.6130 0.6240 0.6280 0.6300 0.6320
1159.083412 0.6320 0.6350 0.6360 0.6380 0.6380
1164.006841 0.6390 0.6390 0.6400 0.6400 0.6400
1168.930271 0.6400 0.6390 0.6390 0.6380 0.6380
1173.853700 0.6360 0.6360 0.6340 0.6310 0.6300
1178.777129 0.6240 0.6190 0.6120 0.6090 0.6050
1183.700558 0.6030 0.5930 0.5840 0.5760 0.5690
1188.623988 0.5610 0.5380 0.5290 0.5040 0.4970
1193.547417 0.4820 0.4660 0.4500 0.4300 0.4060
1198.470846 0.3860 0.3680 0.3390 0.3121 0.2921
1203.394275 0.2520 0.2310 0.2090 0.1910 0.1780
1208.317705 0.1590 0.1520 0.1280 0.0891 0.0541
1213.241134 0.0440 0.0330 0.0200 0.0140 0.0090
1218.164563 0.0060 0.0050 0.0020 0.0020 0.0020
1223.087992 0.0010 0.0010 0.0010 0.0010 0.0010
1228.011422 0.0010 0.0010 0.0010 0.0010 0.0010
1232.934851 0.0010 0.0010 0.0010 0.0010 0.0010
1237.858280 0.0010 0.0010 0.0010 0.0010 0.0020
1242.781709 0.0020 0.0040 0.0050 0.0050 0.0080
1247.705139 0.0090 0.0140 0.0200 0.0250 0.0300
1252.628568 0.0320 0.0490 0.0520 0.0560 0.0570
1257.551997 0.0580 0.0580 0.0610 0.0630 0.0670
1262.475426 0.0690 0.0800 0.0910 0.1000 0.1150
1267.398856 0.1280 0.1550 0.1790 0.2179 0.2499
1272.322285 0.2890 0.3001 0.3210 0.3430 0.3640
1277.245714 0.3750 0.3860 0.3940 0.4070 0.4080
1282.169143 0.4080 0.4080 0.4070 0.4060 0.4000
1287.092573 0.3990 0.3950 0.3940 0.3760 0.3600
1292.016002 0.3410 0.3280 0.3210 0.3190 0.3200
1296.939431 0.3230 0.3290 0.3390 0.3510 0.3610
1301.862860 0.3720 0.3830 0.3920 0.4020 0.4180
1306.786290 0.4380 0.4610 0.4700 0.5020 0.5160
1311.709719 0.5410 0.5490 0.5570 0.5850 0.6040
1316.633148 0.6210 0.6340 0.6500 0.6560 0.6680
1321.556577 0.6840 0.6970 0.7010 0.7010 0.7030
1326.480007 0.7060 0.7090 0.7100 0.7110 0.7110
1331.403436 0.7100 0.7070 0.7030 0.7010 0.6970
1336.326865 0.6910 0.6870 0.6830 0.6790 0.6710
1341.250295 0.6620 0.6480 0.6430 0.6210 0.6150
1346.173724 0.5910 0.5410 0.5080 0.4700 0.4430
1351.097153 0.2899 0.2539 0.2189 0.1840 0.1510
1356.020582 0.1510 0.1620 0.2110 0.2330 0.2330
1360.944012 0.2099 0.1839 0.1468 0.0559 0.0050
1365.867441 0.0020 0.0010 0.0010 0.0020 0.0040
1370.790870 0.0060 0.0141 0.0370 0.0640 0.0850
1375.714299 0.1070 0.1440 0.1900 0.2309 0.2689
1380.637729 0.3100 0.3150 0.3150 0.3060 0.2980
1385.561158 0.2920 0.2850 0.2800 0.2820 0.3000
1390.484587 0.3091 0.3351 0.3530 0.3720 0.3831
1395.408016 0.4310 0.4530 0.4590 0.4750 0.4910
1400.331446 0.4930 0.5060 0.5080 0.5080 0.5080
1405.254875 0.5060 0.5040 0.4980 0.4940 0.4890
1410.178304 0.4850 0.4810 0.4770 0.4730 0.4650
1415.101733 0.4580 0.4490 0.4410 0.4380 0.4350
1420.025163 0.4280 0.4200 0.4110 0.4030 0.3990
1424.948592 0.3980 0.3920 0.3920 0.3910 0.3910
1429.872021 0.3900 0.3880 0.3780 0.3720 0.3650
1434.795450 0.3630 0.3570 0.3480 0.3270 0.3130
1439.718880 0.2959 0.2730 0.2680 0.2520 0.2520
1444.642309 0.2970 0.3320 0.3350 0.3640 0.3899
1449.565738 0.3910 0.3900 0.3860 0.3790 0.3730
1454.489167 0.3640 0.3590 0.3550 0.3520 0.3510
1459.412597 0.3400 0.3310 0.3240 0.3240 0.3430
1464.336026 0.3610 0.3820 0.4000 0.4340 0.4340
1469.259455 0.4200 0.4080 0.4000 0.3900 0.3780
1474.182884 0.3680 0.3560 0.3560 0.3880 0.4020
1479.106314 0.4532 0.5011 0.5380 0.5600 0.5800
1484.029743 0.6070 0.6280 0.6400 0.6470 0.6540
1488.953172 0.6640 0.6741 0.6930 0.6990 0.7010
1493.876601 0.7050 0.7090 0.7090 0.7140 0.7180
1498.800031 0.7220 0.7260 0.7300 0.7340 0.7370
1503.723460 0.7390 0.7390 0.7410 0.7420 0.7420
1508.646889 0.7430 0.7490 0.7520 0.7560 0.7580
1513.570318 0.7580 0.7600 0.7640 0.7650 0.7650
1518.493748 0.7660 0.7660 0.7660 0.7660 0.7660
1523.417177 0.7680 0.7680 0.7690 0.7690 0.7700
1528.340606 0.7720 0.7720 0.7730 0.7730 0.7730
1533.264035 0.7720 0.7700 0.7690 0.7680 0.7660
1538.187465 0.7650 0.7640 0.7620 0.7600 0.7500
1543.110894 0.7470 0.7460 0.7460 0.7450 0.7450
1548.034323 0.7450 0.7450 0.7450 0.7450 0.7460
1552.957752 0.7460 0.7460 0.7460 0.7470 0.7490
1557.881182 0.7490 0.7490 0.7500 0.7500 0.7520
1562.804611 0.7520 0.7530 0.7540 0.7580 0.7620
1567.728040 0.7680 0.7690 0.7730 0.7780 0.7900
1572.651469 0.7940 0.7960 0.7970 0.7970 0.7980
1577.574899 0.8000 0.8010 0.8020 0.8020 0.8010
1582.498328 0.8010 0.8000 0.8010 0.8020 0.8040
1587.421757 0.8040 0.8050 0.8050 0.8060 0.8080
1592.345186 0.8090 0.8090 0.8080 0.8060 0.8050
1597.268616 0.8050 0.8050 0.8050 0.8060 0.8060
1602.192045 0.8060 0.8060 0.8050 0.8010 0.8000
1607.115474 0.7970 0.7960 0.7940 0.7930 0.7920
1612.038904 0.7880 0.7880 0.7860 0.7860 0.7860
1616.962333 0.7860 0.7860 0.7850 0.7850 0.7850
1621.885762 0.7820 0.7810 0.7800 0.7780 0.7760
1626.809191 0.7730 0.7700 0.7690 0.7680 0.7650
1631.732621 0.7600 0.7580 0.7570 0.7560 0.7540
1636.656050 0.7500 0.7460 0.7450 0.7430 0.7340
1641.579479 0.7250 0.7190 0.7150 0.7110 0.7070
1646.502908 0.7020 0.7020 0.6990 0.6980 0.6980
1651.426338 0.6970 0.6950 0.6950 0.6950 0.6950
1656.349767 0.6950 0.6940 0.6900 0.6870 0.6840
1661.273196 0.6790 0.6720 0.6710 0.6700 0.6660
1666.196625 0.6620 0.6550 0.6480 0.6400 0.6340
1671.120055 0.6310 0.6170 0.6150 0.6090 0.5950
1676.043484 0.5790 0.5710 0.5670 0.5579 0.5330
1680.966913 0.5180 0.5020 0.4950 0.4790 0.4630
1685.890342 0.4490 0.4379 0.4240 0.4139 0.3780
1690.813772 0.3720 0.3690 0.3680 0.3680 0.3670
1695.737201 0.3670 0.3670 0.3670 0.3670 0.3650
1700.660630 0.3630 0.3590 0.3530 0.3520 0.3390
1705.584059 0.3330 0.3290 0.3170 0.3039 0.2820
1710.507489 0.2640 0.2340 0.2170 0.2010 0.1830
1715.430918 0.1629 0.1279 0.0989 0.0579 0.0280
1720.354347 0.0170 0.0060 0.0040 0.0040 0.0040
1725.277776 0.0040 0.0040 0.0040 0.0040 0.0040
1730.201206 0.0040 0.0040 0.0020 0.0020 0.0020
1735.124635 0.0020 0.0020 0.0020 0.0020 0.0020
1740.048064 0.0020 0.0020 0.0020 0.0040 0.0040
1744.971493 0.0100 0.0160 0.0280 0.0420 0.0560
1749.894923 0.0770 0.0910 0.1030 0.1440 0.1550
1754.818352 0.1752 0.2101 0.2341 0.2571 0.2771
1759.741781 0.3101 0.3570 0.3830 0.3940 0.4180
1764.665210 0.4351 0.4490 0.4610 0.4700 0.4791
1769.588640 0.5050 0.5170 0.5330 0.5370 0.5420
1774.512069 0.5480 0.5530 0.5630 0.5790 0.5870
1779.435498 0.5920 0.6030 0.6080 0.6300 0.6320
1784.358927 0.6340 0.6421 0.6540 0.6660 0.6760
1789.282357 0.6800 0.6930 0.6950 0.7030 0.7100
1794.205786 0.7180 0.7250 0.7290 0.7290 0.7300
1799.129215 0.7350 0.7380 0.7420 0.7430 0.7430
1804.052644 0.7450 0.7470 0.7500 0.7560 0.7580
1808.976074 0.7600 0.7600 0.7600 0.7600 0.7600
1813.899503 0.7580 0.7580 0.7570 0.7560 0.7560
1818.822932 0.7560 0.7570 0.7580 0.7610 0.7620
1823.746361 0.7640 0.7650 0.7690 0.7780 0.7820
1828.669791 0.7860 0.7880 0.7900 0.7940 0.7960
1833.593220 0.8010 0.8040 0.8060 0.8120 0.8130
1838.516649 0.8150 0.8160 0.8190 0.8200 0.8200
1843.440078 0.8230 0.8240 0.8250 0.8250 0.8250
1848.363508 0.8240 0.8240 0.8230 0.8210 0.8200
1853.286937 0.8190 0.8170 0.8160 0.8150 0.8120
1858.210366 0.8100 0.8090 0.8060 0.8000 0.7980
1863.133795 0.7960 0.7940 0.7930 0.7930 0.7930
1868.057225 0.7930 0.7920 0.7920 0.7920 0.7900
1872.980654 0.7900 0.7890 0.7890 0.7880 0.7860
1877.904083 0.7820 0.7800 0.7780 0.7780 0.7780
1882.827513 0.7800 0.7840 0.7880 0.7920 0.7940
1887.750942 0.8000 0.8040 0.8090 0.8120 0.8190
1892.674371 0.8270 0.8330 0.8360 0.8400 0.8450
1897.597800 0.8480 0.8490 0.8520 0.8530 0.8560
1902.521230 0.8590 0.8600 0.8600 0.8610 0.8610
1907.444659 0.8630 0.8640 0.8640 0.8650 0.8650
1912.368088 0.8650 0.8650 0.8650 0.8640 0.8640
1917.291517 0.8640 0.8640 0.8640 0.8640 0.8640
1922.214947 0.8640 0.8640 0.8650 0.8650 0.8670
1927.138376 0.8650 0.8640 0.8630 0.8630 0.8630
1932.061805 0.8630 0.8630 0.8630 0.8630 0.8640
1936.985234 0.8650 0.8670 0.8670 0.8640 0.8640
1941.908664 0.8640 0.8640 0.8640 0.8630 0.8630
1946.832093 0.8630 0.8610 0.8610 0.8610 0.8610
1951.755522 0.8610 0.8610 0.8600 0.8600 0.8600
1956.678951 0.8600 0.8610 0.8610 0.8640 0.8650
1961.602381 0.8670 0.8670 0.8670 0.8670 0.8680
1966.525810 0.8680 0.8680 0.8690 0.8710 0.8690
1971.449239 0.8680 0.8670 0.8650 0.8650 0.8650
1976.372668 0.8670 0.8670 0.8680 0.8690 0.8690
1981.296098 0.8690 0.8690 0.8710 0.8710 0.8710
1986.219527 0.8690 0.8680 0.8650 0.8610 0.8570
1991.142956 0.8560 0.8560 0.8550 0.8550 0.8530
1996.066385 0.8530 0.8530 0.8520 0.8520 0.8520
2000.989815 0.8520 0.8520 0.8525 0.8530 0.8530
2005.913244 0.8530 0.8530 0.8530 0.8530 0.8530
2010.836673 0.8530 0.8530 0.8530 0.8530 0.8540
2015.760102 0.8550 0.8555 0.8560 0.8574 0.8589
2020.683532 0.8595 0.8600 0.8614 0.8629 0.8635
2025.606961 0.8640 0.8654 0.8669 0.8675 0.8680
2030.530390 0.8685 0.8690 0.8690 0.8690 0.8699
2035.453819 0.8709 0.8710 0.8710 0.8710 0.8710
2040.377249 0.8710 0.8710 0.8710 0.8710 0.8710
2045.300678 0.8710 0.8701 0.8691 0.8681 0.8671
2050.224107 0.8657 0.8642 0.8636 0.8631 0.8617
2055.147536 0.8602 0.8583 0.8563 0.8560 0.8560
2060.070966 0.8556 0.8551 0.8533 0.8513 0.8501
2064.994395 0.8491 0.8464 0.8435 0.8405 0.8375
2069.917824 0.8349 0.8324 0.8299 0.8274 0.8229
2074.841253 0.8179 0.8150 0.8125 0.8095 0.8065
2079.764683 0.8035 0.8005 0.7988 0.7973 0.7970
2084.688112 0.7970 0.7974 0.7979 0.8004 0.8034
2089.611541 0.8060 0.8085 0.8118 0.8152 0.8180
2094.534970 0.8204 0.8237 0.8272 0.8299 0.8325
2099.458400 0.8354 0.8383 0.8441 0.8505 0.8524
2104.381829 0.8529 0.8545 0.8565 0.8581 0.8596
2109.305258 0.8604 0.8609 0.8617 0.8627 0.8634
2114.228687 0.8639 0.8644 0.8649 0.8657 0.8667
2119.152117 0.8674 0.8679 0.8684 0.8689 0.8690
2124.075546 0.8690 0.8697 0.8707 0.8710 0.8710
2128.998975 0.8710 0.8710 0.8703 0.8693 0.8690
2133.922404 0.8690 0.8683 0.8673 0.8663 0.8653
2138.845834 0.8647 0.8642 0.8637 0.8632 0.8623
2143.769263 0.8613 0.8610 0.8610 0.8607 0.8602
2148.692692 0.8597 0.8592 0.8583 0.8573 0.8567
2153.616122 0.8562 0.8560 0.8560 0.8563 0.8568
2158.539551 0.8570 0.8570 0.8570 0.8570 0.8576
2163.462980 0.8586 0.8593 0.8598 0.8603 0.8608
2168.386409 0.8616 0.8626 0.8630 0.8630 0.8624
2173.309839 0.8614 0.8610 0.8610 0.8610 0.8610
2178.233268 0.8616 0.8626 0.8633 0.8638 0.8643
2183.156697 0.8648 0.8650 0.8650 0.8656 0.8666
2188.080126 0.8673 0.8678 0.8680 0.8680 0.8680
2193.003556 0.8680 0.8680 0.8680 0.8680 0.8680
2197.926985 0.8680 0.8680 0.8680 0.8680 0.8677
2202.850414 0.8672 0.8670 0.8670 0.8665 0.8655
2207.773843 0.8650 0.8650 0.8650 0.8650 0.8650
2212.697273 0.8650 0.8655 0.8665 0.8670 0.8670
2217.620702 0.8670 0.8670 0.8670 0.8670 0.8665
2222.544131 0.8655 0.8650 0.8650 0.8650 0.8650
2227.467560 0.8650 0.8650 0.8650 0.8650 0.8650
2232.390990 0.8650 0.8650 0.8650 0.8650 0.8650
2237.314419 0.8655 0.8665 0.8670 0.8670 0.8672
2242.237848 0.8677 0.8680 0.8680 0.8680 0.8680
2247.161277 0.8682 0.8687 0.8690 0.8690 0.8694
2252.084707 0.8704 0.8710 0.8710 0.8710 0.8710
2257.008136 0.8712 0.8717 0.8720 0.8720 0.8722
2261.931565 0.8727 0.8730 0.8730 0.8730 0.8730
2266.854994 0.8730 0.8730 0.8730 0.8730 0.8728
2271.778424 0.8723 0.8720 0.8720 0.8720 0.8720
2276.701853 0.8714 0.8699 0.8686 0.8676 0.8670
2281.625282 0.8670 0.8664 0.8649 0.8640 0.8640
2286.548711 0.8635 0.8620 0.8608 0.8603 0.8598
2291.472141 0.8593 0.8590 0.8590 0.8592 0.8597
2296.395570 0.8602 0.8607 0.8613 0.8623 0.8632
2301.318999 0.8637 0.8642 0.8647 0.8653 0.8663
2306.242428 0.8670 0.8670 0.8672 0.8677 0.8680
2311.165858 0.8680 0.8681 0.8686 0.8690 0.8690
2316.089287 0.8693 0.8703 0.8710 0.8710 0.8711
2321.012716 0.8716 0.8724 0.8739 0.8750 0.8750
2325.936145 0.8750 0.8750 0.8747 0.8737 0.8730
2330.859575 0.8730 0.8730 0.8730 0.8729 0.8724
2335.783004 0.8720 0.8720 0.8719 0.8714 0.8710
2340.706433 0.8710 0.8710 0.8710 0.8710 0.8710
2345.629862 0.8710 0.8710 0.8710 0.8710 0.8711
2350.553292 0.8716 0.8721 0.8726 0.8729 0.8724
2355.476721 0.8720 0.8720 0.8720 0.8720 0.8720
2360.400150 0.8720 0.8719 0.8714 0.8710 0.8710
2365.323579 0.8710 0.8710 0.8710 0.8710 0.8710
2370.247009 0.8710 0.8710 0.8710 0.8708 0.8698
2375.170438 0.8690 0.8690 0.8690 0.8690 0.8689
2380.093867 0.8684 0.8679 0.8674 0.8669 0.8659
2385.017296 0.8650 0.8650 0.8649 0.8639 0.8630
2389.940726 0.8630 0.8629 0.8619 0.8609 0.8604
2394.864155 0.8600 0.8600 0.8599 0.8594 0.8589
2399.787584 0.8579 0.8570 0.8570 0.8571 0.8581
2404.711013 0.8590 0.8595 0.8601 0.8616 0.8630
2409.634443 0.8630 0.8629 0.8614 0.8599 0.8584
2414.557872 0.8570 0.8565 0.8560 0.8565 0.8571
2419.481301 0.8581 0.8591 0.8601 0.8611 0.8621
2424.404731 0.8630 0.8630 0.8630 0.8630 0.8630
2429.328160 0.8635 0.8640 0.8640 0.8640 0.8640
2434.251589 0.8640 0.8635 0.8630 0.8630 0.8630
2439.175018 0.8615 0.8600 0.8595 0.8590 0.8590
2444.098448 0.8590 0.8580 0.8570 0.8550 0.8530
2449.021877 0.8525 0.8520 0.8515 0.8510 0.8500
2453.945306 0.8490 0.8480 0.8470 0.8455 0.8440
2458.868735 0.8425 0.8410 0.8400 0.8390 0.8380
2463.792165 0.8370 0.8365 0.8360 0.8360 0.8360
2468.715594 0.8360 0.8360 0.8365 0.8370 0.8370
2473.639023 0.8370 0.8380 0.8389 0.8395 0.8400
2478.562452 0.8414 0.8429 0.8435 0.8440 0.8445
2483.485882 0.8450 0.8459 0.8469 0.8475 0.8480
2488.409311 0.8494 0.8509 0.8514 0.8519 0.8534
2493.332740 0.8549 0.8555 0.8560 0.8560 0.8560
2498.256169 0.8564 0.8569 0.8579 0.8589 0.8594
2503.179599 0.8599 0.8604 0.8609 0.8619 0.8629
2508.103028 0.8630 0.8630 0.8621 0.8611 0.8610
2513.026457 0.8610 0.8610 0.8610 0.8610 0.8610
2517.949886 0.8610 0.8610 0.8618 0.8628 0.8622
2522.873316 0.8612 0.8610 0.8610 0.8610 0.8610
2527.796745 0.8618 0.8628 0.8630 0.8630 0.8630
2532.720174 0.8630 0.8630 0.8630 0.8630 0.8630
2537.643603 0.8630 0.8630 0.8634 0.8639 0.8644
2542.567033 0.8649 0.8650 0.8650 0.8650 0.8650
2547.490462 0.8658 0.8668 0.8670 0.8670 0.8670
2552.413891 0.8670 0.8670 0.8670 0.8670 0.8670
2557.337320 0.8674 0.8679 0.8680 0.8680 0.8669
2562.260750 0.8654 0.8650 0.8650 0.8646 0.8641
2567.184179 0.8636 0.8631 0.8630 0.8630 0.8630
2572.107608 0.8630 0.8630 0.8630 0.8634 0.8639
2577.031037 0.8640 0.8640 0.8629 0.8614 0.8603
2581.954467 0.8593 0.8583 0.8573 0.8567 0.8562
2586.877896 0.8550 0.8535 0.8527 0.8522 0.8517
2591.801325 0.8512 0.8510 0.8510 0.8510 0.8510
2596.724754 0.8510 0.8510 0.8513 0.8518 0.8523
2601.648184 0.8528 0.8537 0.8547 0.8550 0.8550
2606.571613 0.8544 0.8534 0.8530 0.8530 0.8530
2611.495042 0.8530 0.8536 0.8546 0.8553 0.8558
2616.418471 0.8563 0.8568 0.8576 0.8586 0.8596
2621.341901 0.8606 0.8610 0.8610 0.8610 0.8610
2626.265330 0.8616 0.8626 0.8630 0.8630 0.8624
2631.188759 0.8614 0.8610 0.8610 0.8610 0.8610
2636.112188 0.8607 0.8602 0.8597 0.8592 0.8584
2641.035618 0.8574 0.8570 0.8570 0.8570 0.8570
2645.959047 0.8567 0.8562 0.8552 0.8537 0.8527
2650.882476 0.8522 0.8520 0.8520 0.8517 0.8512
2655.805905 0.8510 0.8510 0.8499 0.8479 0.8465
2660.729335 0.8455 0.8450 0.8450 0.8450 0.8450
2665.652764 0.8447 0.8442 0.8440 0.8440 0.8440
2670.576193 0.8440 0.8440 0.8440 0.8443 0.8448
2675.499622 0.8460 0.8480 0.8497 0.8512 0.8522
2680.423052 0.8527 0.8537 0.8552 0.8562 0.8567
2685.346481 0.8570 0.8570 0.8575 0.8585 0.8590
2690.269910 0.8590 0.8590 0.8590 0.8590 0.8590
2695.193340 0.8585 0.8575 0.8568 0.8563 0.8558
2700.116769 0.8553 0.8543 0.8528 0.8505 0.8470
2705.040198 0.8448 0.8443 0.8438 0.8433 0.8426
2709.963627 0.8416 0.8408 0.8403 0.8398 0.8393
2714.887057 0.8390 0.8390 0.8386 0.8376 0.8368
2719.810486 0.8363 0.8360 0.8360 0.8358 0.8353
2724.733915 0.8350 0.8350 0.8346 0.8336 0.8328
2729.657344 0.8323 0.8318 0.8313 0.8310 0.8310
2734.580774 0.8310 0.8310 0.8312 0.8317 0.8320
2739.504203 0.8320 0.8322 0.8327 0.8330 0.8330
2744.427632 0.8330 0.8330 0.8333 0.8343 0.8352
2749.351061 0.8357 0.8360 0.8360 0.8360 0.8360
2754.274491 0.8360 0.8360 0.8360 0.8360 0.8360
2759.197920 0.8360 0.8358 0.8353 0.8350 0.8350
2764.121349 0.8347 0.8337 0.8329 0.8324 0.8320
2769.044778 0.8320 0.8319 0.8314 0.8310 0.8310
2773.968208 0.8307 0.8297 0.8290 0.8290 0.8290
2778.891637 0.8290 0.8290 0.8290 0.8293 0.8303
2783.815066 0.8310 0.8310 0.8310 0.8310 0.8310
2788.738495 0.8310 0.8310 0.8310 0.8308 0.8298
2793.661925 0.8289 0.8284 0.8279 0.8274 0.8267
2798.585354 0.8252 0.8236 0.8216 0.8196 0.8176
2803.508783 0.8159 0.8154 0.8148 0.8138 0.8130
2808.432212 0.8130 0.8129 0.8124 0.8120 0.8120
2813.355642 0.8118 0.8108 0.8100 0.8100 0.8099
2818.279071 0.8094 0.8087 0.8072 0.8056 0.8031
2823.202500 0.8010 0.8010 0.8008 0.7993 0.7979
2828.125929 0.7974 0.7969 0.7964 0.7954 0.7914
2833.049359 0.7875 0.7846 0.7820 0.7820 0.7820
2837.972788 0.7820 0.7819 0.7809 0.7799 0.7789
2842.896217 0.7779 0.7769 0.7759 0.7749 0.7739
2847.819646 0.7729 0.7719 0.7709 0.7699 0.7694
2852.743076 0.7688 0.7673 0.7659 0.7649 0.7638
2857.666505 0.7618 0.7593 0.7519 0.7436 0.7261
2862.589934 0.7090 0.6961 0.6830 0.6691 0.6551
2867.513363 0.6410 0.6269 0.6124 0.5990 0.5990
2872.436793 0.5997 0.6107 0.6217 0.6331 0.6446
2877.360222 0.6555 0.6660 0.6660 0.6659 0.6639
2882.283651 0.6618 0.6569 0.6519 0.6474 0.6429
2887.207080 0.6389 0.6346 0.6226 0.6105 0.5931
2892.130510 0.5756 0.5577 0.5399 0.5304 0.5209
2897.053939 0.5110 0.5010 0.4915 0.4821 0.4746
2901.977368 0.4671 0.4547 0.4422 0.4420 0.4420
2906.900797 0.4577 0.4738 0.4918 0.5097 0.5174
2911.824227 0.5248 0.5347 0.5447 0.5494 0.5538
2916.747656 0.5583 0.5628 0.5635 0.5640 0.5417
2921.671085 0.5183 0.5057 0.4937 0.4841 0.4747
2926.594514 0.4562 0.4370 0.4261 0.4156 0.4042
2931.517944 0.3928 0.3864 0.3804 0.3740 0.3675
2936.441373 0.3601 0.3526 0.3520 0.3520 0.3610
2941.364802 0.3710 0.3859 0.4014 0.4132 0.4247
2946.288231 0.4260 0.4260 0.4215 0.4165 0.4138
2951.211661 0.4113 0.4061 0.4006 0.3903 0.3793
2956.135090 0.3684 0.3574 0.3473 0.3374 0.3356
2961.058519 0.3351 0.3273 0.3183 0.3140 0.3105
2965.981949 0.3028 0.2942 0.2831 0.2717 0.2623
2970.905378 0.2534 0.2233 0.1894 0.1723 0.1583
2975.828807 0.1274 0.0930 0.0796 0.0706 0.0690
2980.752236 0.0690 0.0787 0.0907 0.0938 0.0948
2985.675666 0.0990 0.1041 0.1095 0.1150 0.1241
2990.599095 0.1340 0.1392 0.1432 0.1591 0.1780
2995.522524 0.1981 0.2186 0.2640 0.3163 0.3539
3000.445953 0.3873 0.4103 0.4303 0.4437 0.4552
3005.369383 0.4652 0.4748 0.4862 0.4982 0.5159
3010.292812 0.5353 0.5449 0.5514 0.5575 0.5635
3015.216241 0.5747 0.5876 0.5939 0.5979 0.6056
3020.139670 0.6145 0.6224 0.6299 0.6374 0.6448
3025.063100 0.6556 0.6677 0.6750 0.6805 0.6863
3029.986529 0.6923 0.6965 0.7000 0.7059 0.7129
3034.909958 0.7185 0.7235 0.7264 0.7284 0.7317
3039.833387 0.7357 0.7390 0.7420 0.7454 0.7488
3044.756817 0.7510 0.7525 0.7547 0.7572 0.7594
3049.680246 0.7613 0.7657 0.7712 0.7740 0.7755
3054.603675 0.7767 0.7777 0.7786 0.7796 0.7806
3059.527104 0.7816 0.7839 0.7869 0.7883 0.7888
3064.450534 0.7906 0.7931 0.7950 0.7965 0.7995
3069.373963 0.8035 0.8053 0.8058 0.8066 0.8076
3074.297392 0.8092 0.8112 0.8123 0.8128 0.8130
3079.220821 0.8130 0.8139 0.8154 0.8160 0.8160
3084.144251 0.8163 0.8168 0.8170 0.8170 0.8170
3089.067680 0.8170 0.8170 0.8170 0.8176 0.8186
3093.991109 0.8190 0.8190 0.8193 0.8198 0.8208
3098.914538 0.8223 0.8241 0.8261 0.8275 0.8285
3103.837968 0.8290 0.8290 0.8296 0.8305 0.8313
3108.761397 0.8318 0.8323 0.8328 0.8330 0.8330
3113.684826 0.8330 0.8330 0.8335 0.8345 0.8350
3118.608255 0.8350 0.8355 0.8365 0.8370 0.8370
3123.531685 0.8385 0.8415 0.8435 0.8445 0.8455
3128.455114 0.8465 0.8472 0.8477 0.8482 0.8487
3133.378543 0.8490 0.8490 0.8490 0.8490 0.8495
3138.301972 0.8505 0.8510 0.8510 0.8512 0.8517
3143.225402 0.8520 0.8520 0.8520 0.8520 0.8520
3148.148831 0.8520 0.8520 0.8520 0.8520 0.8520
3153.072260 0.8520 0.8520 0.8520 0.8520 0.8522
3157.995689 0.8527 0.8530 0.8530 0.8530 0.8530
3162.919119 0.8534 0.8544 0.8550 0.8550 0.8550
3167.842548 0.8550 0.8550 0.8550 0.8552 0.8557
3172.765977 0.8560 0.8560 0.8562 0.8567 0.8574
3177.689406 0.8584 0.8590 0.8590 0.8590 0.8590
3182.612836 0.8592 0.8597 0.8600 0.8600 0.8602
3187.536265 0.8607 0.8614 0.8624 0.8630 0.8630
3192.459694 0.8630 0.8630 0.8630 0.8630 0.8630
3197.383123 0.8630 0.8632 0.8637 0.8642 0.8647
3202.306553 0.8650 0.8650 0.8650 0.8650 0.8653
3207.229982 0.8663 0.8670 0.8670 0.8670 0.8670
3212.153411 0.8670 0.8670 0.8671 0.8676 0.8681
3217.076840 0.8686 0.8690 0.8690 0.8690 0.8690
3222.000270 0.8693 0.8703 0.8711 0.8716 0.8720
3226.923699 0.8720 0.8720 0.8720 0.8721 0.8726
3231.847128 0.8730 0.8730 0.8730 0.8730 0.8732
3236.770558 0.8742 0.8751 0.8756 0.8760 0.8760
3241.693987 0.8760 0.8760 0.8762 0.8772 0.8780
3246.617416 0.8780 0.8781 0.8786 0.8790 0.8790
3251.540845 0.8790 0.8790 0.8790 0.8790 0.8790
3256.464275 0.8790 0.8790 0.8790 0.8790 0.8790
3261.387704 0.8791 0.8796 0.8800 0.8800 0.8799
3266.311133 0.8794 0.8790 0.8790 0.8790 0.8790
3271.234562 0.8790 0.8790 0.8790 0.8790 0.8790
3276.157992 0.8790 0.8789 0.8784 0.8780 0.8780
3281.081421 0.8780 0.8780 0.8780 0.8780 0.8780
3286.004850 0.8780 0.8780 0.8780 0.8779 0.8769
3290.928279 0.8760 0.8760 0.8760 0.8760 0.8760
3295.851709 0.8760 0.8759 0.8754 0.8750 0.8750
3300.775138 0.8749 0.8739 0.8730 0.8730 0.8730
3305.698567 0.8730 0.8731 0.8741 0.8750 0.8750
3310.621996 0.8750 0.8750 0.8750 0.8750 0.8750
3315.545426 0.8750 0.8750 0.8755 0.8760 0.8760
3320.468855 0.8760 0.8760 0.8760 0.8760 0.8760
3325.392284 0.8760 0.8760 0.8760 0.8760 0.8760
3330.315713 0.8760 0.8760 0.8760 0.8770 0.8780
3335.239143 0.8780 0.8780 0.8780 0.8780 0.8770
3340.162572 0.8760 0.8745 0.8730 0.8730 0.8730
3345.086001 0.8730 0.8730 0.8725 0.8720 0.8715
3350.009430 0.8710 0.8710 0.8710 0.8715 0.8720
3354.932860 0.8725 0.8730 0.8730 0.8730 0.8730
3359.856289 0.8730 0.8730 0.8730 0.8730 0.8730
3364.779718 0.8730 0.8730 0.8730 0.8730 0.8730
3369.703147 0.8730 0.8725 0.8720 0.8720 0.8720
3374.626577 0.8715 0.8710 0.8710 0.8710 0.8701
3379.550006 0.8691 0.8699 0.8709 0.8715 0.8720
3384.473435 0.8720 0.8720 0.8720 0.8720 0.8720
3389.396864 0.8720 0.8720 0.8720 0.8720 0.8720
3394.320294 0.8720 0.8720 0.8716 0.8711 0.8710
3399.243723 0.8710 0.8701 0.8691 0.8690 0.8690
3404.167152 0.8686 0.8681 0.8680 0.8680 0.8676
3409.090581 0.8671 0.8657 0.8642 0.8636 0.8631
3414.014011 0.8630 0.8630 0.8622 0.8612 0.8602
3418.937440 0.8592 0.8582 0.8571 0.8562 0.8552
3423.860869 0.8542 0.8532 0.8530 0.8530 0.8530
3428.784298 0.8530 0.8526 0.8521 0.8516 0.8511
3433.707728 0.8486 0.8456 0.8446 0.8441 0.8428
3438.631157 0.8413 0.8406 0.8401 0.8364 0.8319
3443.554586 0.8282 0.8247 0.8220 0.8195 0.8155
3448.478015 0.8110 0.8077 0.8047 0.8013 0.7978
3453.401445 0.7951 0.7926 0.7878 0.7823 0.7799
3458.324874 0.7784 0.7780 0.7780 0.7791 0.7806
3463.248303 0.7844 0.7889 0.7945 0.8005 0.8031
3468.171732 0.8046 0.8109 0.8189 0.8225 0.8245
3473.095162 0.8301 0.8370 0.8419 0.8459 0.8477
3478.018591 0.8487 0.8518 0.8559 0.8581 0.8596
3482.942020 0.8614 0.8634 0.8640 0.8640 0.8657
3487.865449 0.8682 0.8697 0.8707 0.8713 0.8718
3492.788879 0.8720 0.8720 0.8720 0.8720 0.8720
3497.712308 0.8720 0.8723 0.8728 0.8737 0.8747
3502.635737 0.8750 0.8750 0.8750 0.8750 0.8753
3507.559167 0.8758 0.8760 0.8760 0.8760 0.8760
3512.482596 0.8766 0.8776 0.8780 0.8780 0.8783
3517.406025 0.8788 0.8790 0.8790 0.8790 0.8790
3522.329454 0.8790 0.8790 0.8790 0.8790 0.8790
3527.252884 0.8790 0.8787 0.8782 0.8780 0.8780
3532.176313 0.8780 0.8780 0.8780 0.8780 0.8780
3537.099742 0.8780 0.8780 0.8780 0.8783 0.8788
3542.023171 0.8790 0.8790 0.8790 0.8790 0.8790
3546.946601 0.8790 0.8793 0.8798 0.8800 0.8800
3551.870030 0.8805 0.8815 0.8820 0.8820 0.8815
3556.793459 0.8805 0.8800 0.8800 0.8805 0.8815
3561.716888 0.8820 0.8820 0.8823 0.8828 0.8833
3566.640318 0.8838 0.8858 0.8893 0.8918 0.8933
3571.563747 0.8943 0.8948 0.8952 0.8957 0.8958
3576.487176 0.8953 0.8943 0.8928 0.8918 0.8913
3581.410605 0.8908 0.8903 0.8893 0.8878 0.8868
3586.334035 0.8863 0.8860 0.8860 0.8862 0.8867
3591.257464 0.8872 0.8877 0.8885 0.8895 0.8900
3596.180893 0.8900 0.8900 0.8900 0.8895 0.8885
3601.104322 0.8880 0.8880 0.8878 0.8873 0.8870
3606.027752 0.8870 0.8868 0.8863 0.8860 0.8860
3610.951181 0.8862 0.8867 0.8872 0.8877 0.8884
3615.874610 0.8894 0.8902 0.8907 0.8910 0.8910
3620.798039 0.8908 0.8903 0.8894 0.8879 0.8870
3625.721469 0.8870 0.8868 0.8863 0.8860 0.8860
3630.644898 0.8862 0.8867 0.8872 0.8877 0.8884
3635.568327 0.8894 0.8900 0.8900 0.8900 0.8900
3640.491756 0.8896 0.8886 0.8880 0.8880 0.8878
3645.415186 0.8873 0.8868 0.8863 0.8860 0.8860
3650.338615 0.8860 0.8860 0.8860 0.8860 0.8862
3655.262044 0.8867 0.8872 0.8877 0.8880 0.8880
3660.185473 0.8878 0.8873 0.8868 0.8863 0.8860
3665.108903 0.8860 0.8857 0.8847 0.8840 0.8840
3670.032332 0.8839 0.8834 0.8830 0.8830 0.8830
3674.955761 0.8830 0.8830 0.8830 0.8830 0.8830
3679.879190 0.8831 0.8836 0.8840 0.8840 0.8843
3684.802620 0.8853 0.8860 0.8860 0.8861 0.8866
3689.726049 0.8870 0.8870 0.8871 0.8876 0.8880
3694.649478 0.8880 0.8882 0.8892 0.8900 0.8900
3699.572907 0.8900 0.8900 0.8901 0.8906 0.8910
3704.496337 0.8910 0.8910 0.8910 0.8910 0.8910
3709.419766 0.8911 0.8916 0.8920 0.8920 0.8922
3714.343195 0.8932 0.8940 0.8940 0.8940 0.8940
3719.266624 0.8940 0.8940 0.8940 0.8940 0.8940
3724.190054 0.8940 0.8941 0.8946 0.8950 0.8950
3729.113483 0.8950 0.8950 0.8949 0.8944 0.8940
3734.036912 0.8940 0.8939 0.8929 0.8920 0.8920
3738.960341 0.8919 0.8914 0.8910 0.8910 0.8910
3743.883771 0.8910 0.8910 0.8910 0.8910 0.8910
3748.807200 0.8909 0.8904 0.8900 0.8900 0.8900
3753.730629 0.8900 0.8900 0.8900 0.8899 0.8889
3758.654058 0.8880 0.8880 0.8880 0.8880 0.8881
3763.577488 0.8891 0.8900 0.8900 0.8900 0.8900
3768.500917 0.8900 0.8900 0.8900 0.8900 0.8899
3773.424346 0.8889 0.8880 0.8880 0.8880 0.8880
3778.347776 0.8880 0.8880 0.8881 0.8890 0.8900
3783.271205 0.8905 0.8910 0.8910 0.8910 0.8910
3788.194634 0.8910 0.8910 0.8910 0.8910 0.8910
3793.118063 0.8910
##END=
