##TITLE=Ethyl Acetate
##JCAMP-DX=4.24
##DATA TYPE=INFRARED SPECTRUM
##CLASS=IUPAC A
##ORIGIN=NIST, Anayltical Chemistry Division, 301-975-3108
##OWNER=COPYRIGHT (C) 1998 by the U.S. Secretary of Commerce
##DATE=98/10/1
##$SPECTRA VERSION=1.00
##$UNCERTAINTY IN Y=2.0 % relative (B=1.0E-04,C=6.3E-10,D=2.7E-14)
##CAS NAME=Ethyl Ester Acetic Acid
##CAS REGISTRY NO=141-78-6
##MOLFORM=C H3 C O2 C H2 C H3
##MP=-83.58 C
##BP=77.06 C
##$NIST SOURCE=QUANT-IR
##SPECTROMETER/DATA SYSTEM=IFS66V (Bruker)
##INSTRUMENT PARAMETERS=KBr Beam splitter; MCT Detector; Multipass cell
##STATE=gas
##SAMPLE DESCRIPTION=Ethyl Acetate Primary Gas Standard
##PRESSURE=101.3 kPa
##TEMPERATURE=23 C
##SAMPLING PROCEDURE=1 L/min Flow
##RESOLUTION=0.9640
##DATA PROCESSING=NB Strong Apodization
##XUNITS=cm-1
##YUNITS=(micromol/mol)-1m-1 (base 10)
##XFACTOR=1.0
##YFACTOR=18.189E-13
##DELTAX=0.4820
##FIRSTX=575.169
##LASTX=3975.077
##FIRSTY=7.76E-08
##MAXX=3974.59
##MINX=575.17
##MAXY=.0019947
##MINY=-4.37E-06
##NPOINTS=7053
##XYDATA=(X++(Y..Y))
575.17 42702 387296 685478 698000 433358 315502
577.58 721560 968624 858276 821506 888502 988220
580.47 1152426 1377134 1512840 1727750 1689872 1786982
583.37 2082884 2334362 2293998 2276398 2561228 2897548
586.26 3308030 3605352 3744222 3837092 4086606 4380318
589.15 4737406 5011180 5085828 5325272 5466486 5584632
592.04 6131266 6447936 6577830 6841904 7238388 7548950
594.94 8013342 8350066 8504744 8587982 8676552 9196244
597.83 9637062 9716860 9783108 10101810 10381940 10784260
600.72 11230750 11677840 12285550 13058230 14355650 15483830
603.61 15897870 16594980 17574950 18505560 19140930 19665940
606.51 19767180 18999450 18032940 17386690 16964130 16669550
609.40 16353000 16148560 16179250 16122140 15897950 15566400
612.29 15298690 15183230 15028190 14924830 14955320 15075360
615.18 15100420 15178310 15429730 15684140 15938970 16218870
618.08 16559570 16976300 17462180 18030270 18692960 19327550
620.97 20054540 20836410 21727560 22613020 23604890 24761380
623.86 25656190 26456770 27296910 27876150 28248370 28509090
626.76 28613740 28523710 28227390 27672100 26755400 25770070
629.65 24909720 24177150 24035420 24767870 25981890 26517000
632.54 25618720 24011000 22971420 22772800 22976320 23375200
635.43 23723140 23965090 24208190 24660520 24614230 23477350
638.33 22196710 21509920 21108900 20744230 20533290 20359490
641.22 19970210 19378090 18653880 17847590 16942180 15975740
644.11 15028500 14044100 12887880 11766620 10689050 9630764
647.00 8688562 7840140 6991014 6256402 5587848 4985300
649.90 4419268 3987782 3563870 3162284 2859396 2597014
652.79 2356306 2150932 1950974 1709480 1547804 1551760
655.68 1482392 1433760 1348644 1232748 1201968 1116848
658.58 1084448 1050976 960774 891952 872628 831932
661.47 776916 706962 654454 710284 673392 563474
664.36 490914 458944 421138 527340 563966 481670
667.25 514128 496828 379908 360202 367262 389510
670.15 446722 434854 391816 406338 386816 351048
673.04 321502 361874 332956 319468 307040 225052
675.93 218990 307298 332460 292490 311408 268586
678.82 229606 230546 185948 168648 186920 169272
681.72 98488 89466 118416 196108 230044 181372
684.61 210832 165376 152802 153596 165794 211236
687.50 193164 190522 189158 155466 115604 138216
690.40 172836 189326 188778 86774 103454 155548
693.29 175660 131022 67322 77882 182174 253276
696.18 198884 185250 167232 111020 129640 117890
699.07 89412 84438 21148 15162 49930 85392
701.97 91686 91340 96046 101690 135412 163816
704.86 166296 169854 91858 50448 88464 131564
707.75 167648 179570 150366 126504 165632 159794
710.64 182786 233974 175588 162832 206804 220570
713.54 234258 204158 160164 192298 274882 280820
716.43 214930 238012 267714 240912 209616 223668
719.32 247900 286522 283666 257562 260734 247096
722.22 266704 280484 275048 260608 274466 258250
725.11 228268 259010 321876 346688 304186 257820
728.00 264052 305860 306346 345642 401592 392722
730.89 387538 380870 377096 394504 412736 414550
733.79 426452 435484 453822 405872 405294 440924
736.68 467792 504606 521250 512680 505360 506252
739.57 496872 502042 533338 569304 597154 628338
742.46 650436 648682 649370 640172 683426 752762
745.36 770816 800280 853336 896536 907828 896156
748.25 907770 970954 1041368 1100038 1150754 1178244
751.14 1240482 1297634 1323002 1408316 1475474 1494192
754.04 1540796 1659582 1711460 1753070 1887058 2049272
756.93 2128150 2168848 2257270 2411272 2506284 2592656
759.82 2725026 2907816 3057884 3204648 3365502 3489678
762.71 3670340 3873350 4049090 4203842 4409184 4617474
765.61 4855808 5064802 5245616 5466452 5718166 5960790
768.50 6226346 6524622 6841888 7135812 7393142 7698702
771.39 8011204 8330740 8668184 9041022 9332248 9631846
774.28 10001000 10430470 10821080 11185040 11551540 11841680
777.18 12121480 12363720 12590580 12830600 13103330 13328130
780.07 13438870 13446650 13449790 13434180 13404080 13328830
782.96 13171420 13007620 12893100 12939220 13207630 13321730
785.86 13143360 13208120 13619910 14083830 14425450 14656290
788.75 14751900 14782800 14730210 14606930 14494600 14372100
791.64 14200600 14048340 13848390 13645430 13386810 13115530
794.53 12877710 12600260 12275570 11979870 11700560 11351460
797.43 11065630 10793830 10488140 10140540 9837468 9629836
800.32 9370504 9144472 8885408 8604488 8387400 8192946
803.21 8017288 7827738 7604170 7424442 7275532 7090342
806.10 6926934 6755946 6524140 6436596 6427300 6475838
809.00 6464550 6281566 6033488 5773606 5611536 5518940
811.89 5435628 5352542 5235038 5165868 5131124 5083570
814.78 5058530 5057654 5013126 4998858 5025890 5063948
817.68 5066012 5077964 5143166 5149512 5166208 5264248
820.57 5451236 5612086 5711106 5791062 5916654 6095698
823.46 6297876 6442556 6619210 6825924 7078474 7341192
826.35 7628368 7830030 8056516 8367108 8666594 8997840
829.25 9365168 9742666 10162740 10560350 10917520 11294240
832.14 11742420 12265940 12757820 13202930 13724680 14327060
835.03 14807530 15296470 15875950 16465630 17055520 17613270
837.92 18122580 18645480 19173380 19648280 20171610 20640970
840.82 20953730 21200620 21374310 21561460 21665920 21733640
843.71 21673730 21537160 21488360 21589640 21751580 21888720
846.60 21983320 22089290 22277350 22511710 22714220 22865330
849.50 22895180 22901470 22902680 22914810 22889280 22837400
852.39 22829530 22791560 22769890 22762620 22692840 22554700
855.28 22446660 22286390 22052870 21804280 21473580 21070280
858.17 20658680 20206920 19706430 19153860 18545410 17931360
861.07 17323920 16724340 16086710 15426940 14773860 14162290
863.96 13619390 13082340 12534730 12015420 11463670 10944450
866.85 10463450 9971566 9529844 9170086 8778856 8328458
869.74 7981228 7682662 7387956 7040170 6732842 6476506
872.64 6198390 5915154 5664520 5450576 5192386 4960972
875.53 4749730 4558198 4396252 4226372 4078390 3910342
878.42 3723594 3568064 3453660 3362884 3247596 3131100
881.31 2995764 2919636 2858618 2758276 2685146 2653892
884.21 2600108 2531402 2441212 2393376 2381344 2353034
887.10 2307176 2274192 2258878 2267130 2268296 2230748
889.99 2249122 2305046 2366994 2417112 2465514 2496740
892.89 2513722 2567076 2630820 2728302 2855330 2973302
895.78 3091240 3262692 3462542 3676320 3885566 4096958
898.67 4381684 4730544 5071872 5412016 5816746 6298304
901.56 6781818 7288110 7876472 8454094 9006948 9655552
904.46 10301330 10893260 11489410 12080090 12660040 13213320
907.35 13646810 14064640 14434330 14748550 15000110 15213000
910.24 15319550 15467620 15636810 15872640 16293620 16981270
913.13 18037700 19329880 19607130 19041900 18481320 18130560
916.03 18082280 18238370 18556230 18901310 19272100 19662050
918.92 20051170 20393490 20719250 20993920 21239220 21448210
921.81 21645970 21788760 21954830 22069690 22200010 22326600
924.71 22460980 22675520 22876060 23096300 23324990 23593070
927.60 23873720 24102650 24366180 24638250 24830770 24992440
930.49 25086130 25057900 24881160 24684860 24410970 23936630
933.38 23380730 22789680 22090280 21292040 20512190 19905970
936.28 19464300 19265540 19382530 19843000 20639540 21427060
939.17 21223640 19505320 17420780 16315230 16248080 16695350
942.06 17300030 17935830 18505970 18920480 19113810 19082320
944.95 18870510 18425340 17765150 16922430 15969220 14911940
947.85 13757220 12610080 11502900 10448020 9421072 8477490
950.74 7655018 6891762 6228074 5656728 5166274 4750584
953.63 4392728 4117494 3897176 3711530 3548948 3409482
956.53 3284666 3162580 3057718 2999264 2978636 2944474
959.42 2893356 2840208 2788724 2787558 2782804 2743044
962.31 2744098 2761176 2767418 2763804 2773752 2784208
965.20 2806018 2820450 2847524 2887674 2909820 2939938
968.10 2987974 3041378 3097338 3181414 3236810 3299788
970.99 3385250 3465922 3543480 3626220 3709066 3772902
973.88 3870588 3954780 4062276 4179298 4294070 4418252
976.77 4553812 4718908 4897982 5038790 5170656 5321450
979.67 5478916 5645178 5847070 6053574 6226488 6442088
982.56 6683604 6945890 7191390 7449618 7727018 8013486
985.45 8319872 8629034 8924764 9250780 9612040 9956778
988.35 10296590 10653840 10989930 11314340 11635270 11952200
991.24 12243110 12528600 12798700 13042600 13252120 13411640
994.13 13556950 13679970 13758080 13862400 13926660 13967320
997.02 13979720 13981440 13985300 13971800 13970190 13988340
999.92 13990490 14012010 14097410 14250820 14287380 14175970
1002.81 14110520 14121360 14106760 14071770 14103040 14171500
1005.70 14233570 14262080 14250490 14242450 14225700 14156820
1008.59 14037930 13933830 13813240 13627880 13446280 13284360
1011.49 13105950 12920520 12774430 12650530 12518040 12436400
1014.38 12389250 12401440 12431720 12482310 12590250 12730270
1017.27 12887330 13120960 13389040 13680030 14029920 14401360
1020.17 14772720 15176540 15652880 16163200 16721720 17306270
1023.06 17969490 18702760 19516600 20392350 21305390 22349320
1025.95 23460480 24670960 26031290 27507720 29060200 30749900
1028.84 32562990 34556960 36661450 38928320 41388600 44033670
1031.74 46891820 49977020 53252500 56763910 60436610 64312150
1034.63 68423910 72806700 77425080 82267310 87286980 92575860
1037.52 98105190 103890100 109894100 116195200 122696800 129375600
1040.41 136399600 143644900 151093100 158817700 166688200 174612700
1043.31 182584800 190431100 198114200 205648200 213121300 220619700
1046.20 228099400 235490500 242627200 249529700 256069200 262186100
1049.09 267682200 272671700 277117600 280900000 284171300 287193900
1051.99 289821700 291921400 293384600 294562800 295467500 296261500
1054.88 297336800 298708500 300395900 302370700 304274400 305531100
1057.77 305111700 302355900 298223500 294504200 292574800 292181500
1060.66 290203200 286446300 283515700 280695800 277203400 272892600
1063.56 267593100 261124000 253699100 245480900 236623400 227158000
1066.45 217480900 207793700 198168000 188697700 179270200 169873200
1069.34 160706500 152030000 144045100 136701200 130096000 124091700
1072.23 118516500 113434000 108873400 104731400 100919800 97445570
1075.13 94127390 91011470 88170200 85444900 82918420 80529260
1078.02 78295110 76158290 74099660 72181580 70366810 68678820
1080.91 67069970 65531600 64135080 62889560 61777220 60772140
1083.81 59881720 59105120 58450570 57935980 57531830 57234540
1086.70 57082460 57102490 57177960 57321820 57563820 57930560
1089.59 58410190 59015580 59722840 60505420 61258720 62079580
1092.48 63015710 63997030 64952740 65781140 66567100 67358300
1095.38 68204980 69126940 69988410 70416580 70332530 69784190
1098.27 69080610 68437940 67861320 67293650 66752360 66368940
1101.16 66346420 66704380 67597310 69198930 71587340 74430340
1104.05 75766820 73088300 67976740 64192170 62486900 61970790
1106.95 62113560 62557960 63081110 63629390 64061740 64307230
1109.84 64358820 64102420 63553550 62745460 61627280 60242800
1112.73 58599110 56770670 54745420 52602300 50413270 48182900
1115.63 45955240 43780250 41657300 39619880 37741340 35993350
1118.52 34380290 32947180 31668900 30511760 29422530 28345590
1121.41 27220320 26236770 25597330 25186550 24899010 24669650
1124.30 24433720 24142360 23776790 23322320 22803320 22215390
1127.20 21535440 20796990 20024920 19219040 18443310 17682730
1130.09 16953720 16205150 15489690 14824400 14180490 13607000
1132.98 13096240 12571280 12069750 11631680 11234140 10870350
1135.87 10525090 10204090 9921734 9712800 9496510 9282458
1138.77 9142578 8988824 8818296 8698896 8574290 8465730
1141.66 8392010 8331404 8267212 8209806 8181920 8158218
1144.55 8163294 8171194 8155450 8180432 8204858 8234246
1147.45 8279950 8309536 8306144 8325634 8388022 8437988
1150.34 8481682 8561472 8645082 8699866 8721598 8766904
1153.23 8844798 8912228 8988486 9067748 9139164 9221358
1156.12 9310328 9434570 9565694 9662672 9786160 9994334
1159.02 10197250 10430880 10710770 11063010 11422050 11643340
1161.91 11362730 10768130 10431580 10323360 10298330 10284700
1164.80 10260260 10220720 10243640 10291900 10298490 10297730
1167.69 10336350 10349120 10364500 10393130 10434010 10468680
1170.59 10478680 10511500 10556150 10594750 10624830 10605390
1173.48 10564680 10562430 10571290 10575110 10581370 10581930
1176.37 10566400 10543640 10537700 10575570 10667280 10753490
1179.26 10835800 10936160 11053830 11196350 11344260 11469510
1182.16 11574520 11694840 11835360 11972420 12111140 12290790
1185.05 12469430 12644850 12856960 13084250 13314130 13589250
1187.94 13888460 14198800 14537140 14908500 15352960 15810870
1190.84 16286410 16804470 17393020 18044600 18714220 19446810
1193.73 20206670 21024080 21903070 22867590 23918960 25042960
1196.62 26222500 27452330 28782120 30184830 31667830 33265490
1199.51 34932740 36702520 38514980 40436140 42467200 44555220
1202.41 46701600 48920420 51205400 53575180 56028500 58565700
1205.30 61211700 63908900 66685250 69512470 72384550 75316910
1208.19 78322950 81425110 84675380 88060660 91525680 95086100
1211.08 98764340 102554000 106449300 110385400 114377700 118516300
1213.98 122797900 127096300 131389400 135804600 140457100 145559700
1216.87 151311700 157821800 165013700 172816600 181313800 190640700
1219.76 200731300 211408400 222782800 235018500 248539900 262814700
1222.66 277162200 292777100 310249300 329435500 350099300 372230100
1225.55 395651800 420288200 446012500 472788600 500279800 528477300
1228.44 557070400 585942100 614823800 643394600 671585900 699176600
1231.33 725488000 750619000 774360800 796520500 816715400 835170700
1234.23 851969000 867388300 881854000 895863200 910560100 926432800
1237.12 943557100 962440800 983226000 1006026000 1030746000 1056985000
1240.01 1081665000 1096635000 1093824000 1072613000 1040844000 1018838000
1242.90 1017830000 1029211000 1042518000 1056245000 1071069000 1084070000
1245.80 1093163000 1096677000 1092881000 1080604000 1062772000 1039975000
1248.69 1011598000 980958000 948651300 913810300 876962300 839667600
1251.58 803389900 768803100 736334300 706286100 679090900 653894000
1254.48 629888100 606873900 584259300 561481500 538823700 516312300
1257.37 493719400 470871000 448025500 425121700 402254500 379382600
1260.26 356587600 334012000 311929200 290660500 270600400 251971300
1263.15 235289500 221150800 210118800 202491100 197677600 192760200
1266.05 184869200 175789500 167236700 157822000 149558400 144938300
1268.94 142554000 141378700 140994300 140855400 140360700 139421500
1271.83 137974100 135886000 133134000 129766200 125721600 121148500
1274.72 116307000 111237100 105584700 99545010 93839820 88570740
1277.62 83584690 78848380 74424840 70336210 66551620 63020160
1280.51 59760770 56754500 53976130 51450520 49102540 46940250
1283.40 44982680 43204420 41601740 40141790 38809020 37704420
1286.30 36796850 36008740 35370960 34883250 34507270 34236450
1289.19 34109780 34111640 34209350 34385470 34640640 34968780
1292.08 35386960 35893130 36439510 37049900 37727970 38418430
1294.97 39122240 39859100 40661420 41475480 42288530 43113530
1297.87 43939980 44715040 45480660 46290420 47091230 47882300
1300.76 48730070 49637070 50614650 51668020 52704120 53549480
1303.65 54149820 54001760 53089060 52106430 51341030 50926350
1306.54 50863800 51026980 51345040 51825960 52479980 53184580
1309.44 53591640 53345710 52524260 51450670 50256550 49147420
1312.33 48239930 47439060 46710430 46108060 45584580 45065370
1315.22 44473310 43751770 42907220 41992070 41011660 39921990
1318.12 38647720 37256950 35800020 34276200 32760830 31217970
1321.01 29654690 28109040 26595140 25128680 23765560 22478790
1323.90 21233800 20055160 18950410 17928930 16974880 16115420
1326.79 15332620 14616640 13978340 13395290 12850110 12327010
1329.69 11868580 11446650 11055020 10720130 10396890 10110750
1332.58 9874550 9666404 9491774 9319808 9164422 9042902
1335.47 8954214 8840298 8764282 8732386 8696630 8644492
1338.36 8618694 8662292 8707234 8734424 8878122 9069818
1341.26 9248150 9474186 9719858 10010360 10360560 10773020
1344.15 11259200 11816350 12445680 13144610 13959960 14884910
1347.04 15902940 17008580 18233310 19623880 21146550 22811550
1349.94 24570850 26446990 28492940 30638370 32859720 35157540
1352.83 37529080 39945050 42363480 44763830 47083070 49322660
1355.72 51446530 53331090 55073660 56683670 58178630 59764210
1358.61 61533710 63747700 66618630 70395050 75525910 82344460
1361.51 89564320 94260480 96543420 100556500 106784600 113677700
1364.40 120494300 126408000 131573800 137531900 144660300 152308600
1367.29 159942500 167252100 173977800 179994200 185105200 189141000
1370.18 191921600 193745000 194819800 195219300 194993600 194718100
1373.08 194743000 195151500 195828600 196988600 198260000 198966400
1375.97 199342500 199064200 195283000 191262000 188411500 185664000
1378.86 185411700 187218600 189853500 192723500 195528400 198017200
1381.76 200138400 201379700 201445500 200373000 198228200 194792500
1384.65 190247700 184717200 178297600 171075300 163205200 154949900
1387.54 147339500 139657800 131917300 124378400 117142600 110330100
1390.43 103962100 98037880 92649420 87702780 83237360 79245830
1393.33 75702920 72408370 70176210 68653280 66803320 64513820
1396.22 61967760 59482450 57215270 55339060 53564940 51890520
1399.11 50901980 50208620 49437940 48667760 48012210 47519090
1402.00 47118410 46759180 46359610 45921680 45378630 44704770
1404.90 44172500 43545000 42749530 41875800 40955430 40012070
1407.79 39034090 38080280 37177490 36257840 35387030 34586050
1410.68 33830040 33111580 32494610 31947440 31442280 30990160
1413.58 30557410 30171800 29828990 29479480 29177740 28948150
1416.47 28691590 28399220 28315040 28147260 27616820 26917010
1419.36 27320970 27989700 28161650 28334450 28549020 28797470
1422.25 28978580 29006140 28865440 28792180 28928090 29140540
1425.15 29355670 29595600 29855780 30128710 30405850 30680980
1428.04 30969610 31228990 31369780 31500910 31877290 32238980
1430.93 32510640 32771270 33051840 33287810 33504220 33746380
1433.82 33973860 34234290 34460790 34577110 34304450 33949030
1436.72 34712490 35576010 35915120 36168360 36447120 36734120
1439.61 37030130 37350060 37651250 37895330 38140660 38400440
1442.50 38592450 38762510 38949770 39185480 39406600 39642980
1445.40 39854050 40047380 40243210 40378940 40387730 40734940
1448.29 41272050 41640310 41991260 42397830 42878040 43539580
1451.18 44414680 45475840 46802850 47810120 47736430 46828580
1454.07 45936820 45216250 44734580 44172840 42817910 42269150
1456.97 43408750 43779420 43851200 44342010 44822530 45430580
1459.86 45829690 45874450 45654830 45348780 45150240 45085390
1462.75 45188540 45426940 45466840 44787260 44429550 44582220
1465.64 44465410 44312460 44188680 44147080 44199850 44435440
1468.54 44751380 45243270 45797850 46045010 45714050 44868340
1471.43 43742380 43313810 42887600 41827250 41761490 42124550
1474.32 42061600 41942850 41639320 41324320 41419250 41487740
1477.21 41323010 41077780 40753450 40367830 39942470 39474660
1480.11 38915840 38282490 37675070 37076320 36349860 35531900
1483.00 34685450 33807460 32870510 31875350 30915450 30054690
1485.89 29347950 28650140 27909220 27470690 27106310 26716500
1488.79 26358440 26089600 26045960 25899130 25892390 25941960
1491.68 25740790 25444410 25036400 24619260 24149770 23668790
1494.57 23090380 22319420 20993570 20450930 20671830 20318260
1497.46 19770870 18955790 18286050 18102380 17808330 17368130
1500.36 16919850 16470050 16034960 15686680 15335900 14957870
1503.25 14582910 14224970 13822580 12801920 11889270 12239710
1506.14 11688770 10928790 11546290 11814950 11554690 11492030
1509.03 11313460 11123890 11043190 10896010 10718210 10320470
1511.93 10051050 10155880 10133180 10004530 9807122 9561656
1514.82 9465154 9409220 9147270 8876340 8626540 8634406
1517.71 8848578 8872676 8769382 8531778 8210074 7972798
1520.61 7185234 7323294 8011206 7809954 7908010 8108958
1523.50 8135972 8022570 7746746 7357136 7589344 7846150
1526.39 7742684 7560854 7576752 7479274 7437584 7489038
1529.28 7486824 7456466 7436128 7315352 7201428 7181480
1532.18 7069018 6775980 6565358 6617542 6976468 7048844
1535.07 7077254 7063980 7107402 7062156 7060540 6928164
1537.96 6423050 5353898 5757640 6165782 5971460 6721606
1540.85 6982124 6389716 6327566 7082662 7274840 7344276
1543.75 7395958 7187738 6944308 7273306 7503772 7541340
1546.64 7546624 7553112 7514970 7490036 7455122 7352162
1549.53 7293440 7455068 7700588 7819342 7844072 7759442
1552.43 7671000 7563754 7160396 6698550 7206696 7629086
1555.32 7747522 7740078 7676602 7202828 6901566 6395212
1558.21 6288108 7199422 6903388 6233242 6920480 7878362
1561.10 7986172 7983810 7893054 7877854 7753456 7657136
1564.00 7394776 7199416 7177190 7133706 6974300 6851098
1566.89 6706690 6608914 6468334 6312542 6016482 5780794
1569.78 6076328 6258662 6027942 5829974 5678924 5647654
1572.67 5608578 5609206 5563154 5552616 5432372 4860638
1575.57 3631884 4033378 4996228 5061638 4927016 4778076
1578.46 4648706 4486320 4326836 4153240 4015190 3910664
1581.35 3795958 3677332 3567252 3474836 3410048 3356772
1584.25 3270674 3193592 3148854 3118330 3068256 3037990
1587.14 3016284 2999896 2968966 2953560 2924548 2909692
1590.03 2885668 2871988 2836738 2828546 2817616 2808202
1592.92 2795474 2777250 2749164 2756562 2761562 2769084
1595.82 2749182 2776660 2806418 2795482 2764314 2766500
1598.71 2779792 2802158 2789836 2794142 2797384 2817256
1601.60 2834416 2865116 2861374 2866004 2888850 2929938
1604.49 2952034 2983006 3008078 3048124 3043136 3074596
1607.39 3117906 3167332 3166140 3147104 3188580 3260250
1610.28 3286996 3339042 3326088 3358594 3374082 3420196
1613.17 3448196 3506642 3508242 3534442 3492918 3118736
1616.07 2087948 2387996 3446002 3736832 3799510 3819788
1618.96 3862212 3894462 3939638 3957852 4003852 4018238
1621.85 3999988 3945764 3663782 3662798 4091288 4217940
1624.74 4281770 4303944 4332606 4324650 4303412 4125490
1627.64 4156418 4352858 4443926 4458224 4463326 4472470
1630.53 4481694 4477184 4480476 4470760 4480202 4475496
1633.42 4472594 4306354 3864914 3216052 3268528 4166342
1636.31 4458512 4367926 4372708 4578140 4648696 4710908
1639.21 4740290 4760502 4754624 4814622 4835364 4877810
1642.10 4905482 4959980 4958848 4991066 4998520 4974520
1644.99 4475448 3888280 4441948 4884466 4779350 4862252
1647.89 4884632 5111106 5224890 5296304 5274254 5315896
1650.78 5267094 4894110 3697858 3324424 3253594 4127780
1653.67 4978214 5029472 5514950 5741798 5868376 5900022
1656.56 5991778 6066426 6147814 6191120 6286484 6315306
1659.46 6372838 6413672 6480776 6493844 6527198 6310864
1662.35 6121664 6477374 6772046 6812752 6877760 6931860
1665.24 7007008 7051734 7115166 7131402 7167162 7117244
1668.13 7061920 6648092 6647230 7220322 7442100 7369150
1671.03 7273750 7501496 7693750 7786198 7855566 7880874
1673.92 7809038 7341580 7096570 7700508 8156148 8280622
1676.81 8331186 8399808 8466288 8527004 8567852 8592048
1679.71 8625130 8715262 8883238 8986178 9054456 8952024
1682.60 8707496 8711724 8665538 7696850 7526730 9070324
1685.49 9749364 9948820 10030780 10146470 10151570 10241750
1688.38 10398340 10557400 10547660 10647500 10819430 10960160
1691.28 11030770 11129140 11175710 11284820 11319820 11382980
1694.17 11309490 10902400 9618590 9526378 10961490 11463010
1697.06 11452650 11512410 11559130 11470990 10846140 10009840
1699.95 10092150 10751560 11645390 12071840 12257110 12378160
1702.85 12498080 12519070 12386090 12541900 12870540 12888910
1705.74 12765370 12945330 13282930 13476620 13644460 13780790
1708.63 13923850 14036900 14160730 14378980 14643930 14844070
1711.53 15049940 15237700 15439090 15587130 15691310 15870210
1714.42 15833520 15962320 16504320 16699920 16324950 15347560
1717.31 15928850 16613160 16588830 16958620 17188180 17260830
1720.20 17372820 17616710 17958560 18324750 18668090 19095250
1723.10 19757530 20754240 21847320 22952320 24055140 25156490
1725.99 26214820 27288480 28328140 29373700 30432930 31560670
1728.88 32683880 33839010 35251210 36935030 38624700 40432530
1731.77 42358620 44261070 45727280 48369230 51186280 53861450
1734.67 58194400 62379270 66331240 70421630 74863410 79507390
1737.56 84467410 89642420 95064360 100343800 106244500 113333600
1740.45 120473500 127680300 135292000 143257200 151515900 160274800
1743.34 169696400 179645100 190036000 200915100 212344700 224422200
1746.24 237015700 250245400 264378700 279007700 294323100 310688500
1749.13 327795400 345625400 363992900 382465500 402310600 423963600
1752.02 445637600 467462000 489437500 511452700 533280800 554605700
1754.92 575221200 594777000 612518800 628137200 641767900 652345300
1757.81 659476500 663323700 663625900 660212900 653269400 642812100
1760.70 629070400 612151600 594377700 577592800 563956000 555769000
1763.59 551557800 546490600 538731700 536463200 547927300 572822000
1766.49 605591600 640148000 671293200 696789800 715175700 725025200
1769.38 726961900 722049900 711127000 695522200 677063800 655278400
1772.27 631574300 608053700 583247900 557379700 531347400 505433500
1775.16 479741700 454786100 430583800 407202700 384828400 363520800
1778.06 343234000 324021900 306016400 288938900 272635500 257431800
1780.95 243306300 229798900 216947300 204618000 192843300 181614100
1783.84 170750800 160087000 150264400 140950900 131801700 123017500
1786.74 114700400 106794900 99311870 92207720 85489890 79140200
1789.63 73192540 67467860 62195760 57525810 52908160 48242190
1792.52 44655240 41702240 38630120 35739580 33078160 30648450
1795.41 28404440 26471180 24725820 23117050 21630830 20272240
1798.31 19012890 17774260 16702940 15919260 15116600 14294710
1801.20 13627200 13005770 12444110 12045850 11600330 11213580
1804.09 10861630 10552740 10259600 10002920 9770128 9559782
1806.98 9337114 9159666 9026846 8916036 8779330 8635070
1809.88 8435376 8361444 8383652 8331212 8261250 8238214
1812.77 8215242 8216604 8221340 8221274 8223770 8232288
1815.66 8244986 8256014 8222168 8234838 8301622 8335420
1818.56 8360412 8390414 8431034 8476232 8510336 8545734
1821.45 8572976 8596030 8623006 8675804 8682678 8675762
1824.34 8495710 8344640 8524356 8659072 8669348 8668686
1827.23 8686506 8702336 8675414 8657370 8630186 8553440
1830.13 8807316 9046504 9123948 9160306 9166288 9168530
1833.02 9170900 9174242 9156672 9138954 9120488 9110058
1835.91 9091470 9036718 8984582 8967876 8926234 8888252
1838.80 8833734 8794218 8727496 8651224 8594038 8534810
1841.70 8448760 8397772 8297420 8000530 7476416 7606418
1844.59 7950546 7954174 7920144 7852236 7759056 7613076
1847.48 7523438 7502252 7441704 7363216 7280056 7204212
1850.38 7123836 7031086 6947480 6849502 6765548 6702524
1853.27 6623186 6550020 6482568 6421576 6343796 6275750
1856.16 6227074 6158236 6084586 6037354 6007778 5969200
1859.05 5915880 5882364 5858552 5822848 5792770 5771288
1861.95 5752292 5719726 5691830 5660916 5631160 5604382
1864.84 5587562 5558430 5521502 5536926 5516138 5420098
1867.73 5449494 5436764 5203974 5259264 5459342 5464504
1870.62 5438334 5429222 5432456 5409236 5374516 5341166
1873.52 5327338 5330538 5333174 5319890 5324714 5350074
1876.41 5397434 5437682 5485802 5545048 5600546 5665142
1879.30 5717852 5777850 5848576 5921646 5995340 6041238
1882.20 6077648 6118590 6151746 6161786 6189464 6217880
1885.09 6227444 6230322 6248754 6255154 6265114 6272660
1887.98 6265080 6228398 6118334 6178444 6337142 6397966
1890.87 6433832 6464012 6516926 6583142 6640146 6671672
1893.77 6691262 6691972 6697680 6761230 6814892 6831464
1896.66 6850688 6894110 6921732 6921958 6911660 6912942
1899.55 6932150 6938094 6938820 6944272 6933664 6888846
1902.44 6833200 6791148 6774178 6738880 6701990 6650112
1905.34 6587136 6530534 6468584 6387072 6288636 6186716
1908.23 6109174 6014790 5874132 5744804 5651306 5518072
1911.12 5386308 5256378 5119954 4980448 4861186 4742428
1914.02 4630472 4507706 4383258 4246258 4138358 4021884
1916.91 3827264 3517184 3480348 3537050 3450790 3365628
1919.80 3267798 3195746 3125582 3035828 2932626 2848298
1922.69 2777104 2764378 2744606 2713044 2665148 2622394
1925.59 2575644 2531568 2486424 2449264 2413802 2361606
1928.48 2332780 2312176 2281082 2262628 2243990 2220188
1931.37 2180826 2141876 2123620 2097758 2076640 2054024
1934.26 2032626 2021120 2004684 1991622 1991618 1982530
1937.16 1972190 1967844 1978128 1980768 1970542 1970156
1940.05 1968198 1966222 1948420 1905450 1811476 1851714
1942.94 1940096 1960092 1971882 1984478 1973986 1962550
1945.84 1957556 1983190 1998992 2006038 2009690 2001320
1948.73 1999394 2016590 2030330 2031408 2016838 2007416
1951.62 2007102 2010684 2015826 2004452 1999114 2030802
1954.51 2044214 2037568 2047026 2061480 2079060 2088826
1957.41 2088136 2094052 2097188 2089400 2088486 2099514
1960.30 2095678 2080030 2083096 2089984 2092488 2080996
1963.19 2080532 2078794 2068712 2062048 2054826 2025158
1966.08 2028952 2021390 1998378 2031686 2046564 2037694
1968.98 2016498 1996054 1993766 1989262 1985348 2002804
1971.87 2007034 2000508 1997498 1996284 1986810 1959178
1974.76 1940930 1929880 1926474 1930726 1942524 1938108
1977.66 1918448 1906918 1887184 1871784 1856604 1839434
1980.55 1823902 1814972 1810704 1801604 1803094 1793346
1983.44 1788690 1775736 1795544 1809612 1805224 1782068
1986.33 1776854 1791656 1787502 1787702 1805738 1827000
1989.23 1850138 1876602 1864048 1851306 1820814 1837130
1992.12 1895998 1939358 1979380 2009728 2035052 2063630
1995.01 2081156 2095852 2148308 2199434 2226674 2278844
1997.90 2317642 2344202 2365456 2408728 2444726 2480848
2000.80 2517524 2551868 2581102 2609724 2636466 2662014
2003.69 2688672 2713426 2726808 2757882 2805840 2840276
2006.58 2863646 2882520 2920826 2977880 3007956 3023992
2009.48 3071678 3121716 3141920 3155578 3173736 3210946
2012.37 3237454 3276994 3316374 3336366 3346844 3340826
2015.26 3364064 3378906 3350960 3370568 3394086 3373464
2018.15 3343712 3327468 3306882 3294964 3288758 3283060
2021.05 3265192 3236164 3209738 3189928 3196778 3199774
2023.94 3152692 3083680 3025188 2990036 2948176 2916382
2026.83 2899776 2889536 2889664 2890244 2883678 2862702
2029.72 2826816 2775358 2742174 2727956 2678236 2607050
2032.62 2549390 2468002 2390706 2328622 2262564 2197154
2035.51 2135434 2071146 2002062 1953876 1904596 1865482
2038.40 1828668 1798552 1772774 1734382 1699362 1664172
2041.29 1641872 1621260 1604184 1590342 1559446 1534800
2044.19 1532940 1533450 1520496 1502040 1506160 1505828
2047.08 1512078 1523954 1517692 1518686 1521634 1531666
2049.97 1546958 1560478 1571270 1596878 1622200 1644206
2052.87 1657380 1663046 1678542 1703590 1725434 1739112
2055.76 1770084 1807572 1839252 1882138 1928504 1966136
2058.65 2007390 2050648 2099870 2139314 2194614 2253204
2061.54 2301294 2353622 2410072 2473432 2527754 2595784
2064.44 2672132 2743616 2824714 2928466 3030540 3122048
2067.33 3209462 3302504 3390314 3497382 3626616 3754144
2070.22 3881872 4017818 4157394 4305274 4456878 4578516
2073.11 4721336 4893910 5051110 5189700 5324422 5488388
2076.01 5657642 5784112 5876904 5981386 6107760 6239668
2078.90 6354094 6441900 6521150 6614346 6695202 6752144
2081.79 6823730 6936576 7052126 7173200 7257746 7340288
2084.69 7390784 7403170 7384324 7389596 7421498 7446490
2087.58 7500666 7581018 7663464 7724202 7755318 7761166
2090.47 7803500 7823716 7786572 7743916 7696360 7612872
2093.36 7507218 7378698 7213764 7088130 6967568 6823532
2096.26 6672202 6514090 6358228 6185862 5976900 5790470
2099.15 5666642 5551062 5425234 5275028 5132698 4993482
2102.04 4853474 4694470 4575018 4502230 4403314 4300936
2104.93 4196984 4076742 3972358 3855874 3700526 3637636
2107.83 3573668 3469220 3357580 3255930 3146692 3043896
2110.72 2902728 2779518 2740502 2665218 2567442 2470736
2113.61 2377638 2274066 2155090 2015562 1964352 1918754
2116.51 1856160 1788610 1738950 1698512 1619742 1511958
2119.40 1462774 1472606 1446786 1412918 1381606 1347298
2122.29 1311548 1259370 1186310 1191922 1203704 1194792
2125.18 1174064 1152212 1117220 1086286 1035240 1035398
2128.08 1051700 1038328 1022470 1010592 1000322 977090
2130.97 929282 939838 963422 949168 955136 975278
2133.86 978998 978212 971104 991906 1033374 1056376
2136.75 1075546 1107230 1152146 1193586 1214904 1230274
2139.65 1280256 1325242 1379208 1433172 1451532 1466528
2142.54 1502744 1546514 1561994 1578746 1606110 1644552
2145.43 1666060 1676948 1689602 1728472 1748796 1754012
2148.33 1773238 1804352 1825038 1830784 1823626 1851120
2151.22 1898456 1925630 1945320 1950274 1936356 1892042
2154.11 1873568 1903700 1930448 1941406 1957924 1974932
2157.00 1977378 1934286 1926816 1983698 2000314 1977086
2159.90 1960170 1934672 1890194 1821392 1817112 1842454
2162.79 1839332 1829550 1800894 1763404 1691370 1634948
2165.68 1690354 1728274 1700628 1697762 1702300 1638166
2168.57 1529710 1528840 1602602 1635980 1633454 1613430
2171.47 1600066 1547134 1521284 1578526 1592254 1586086
2174.36 1590938 1586562 1548298 1495194 1527386 1551714
2177.25 1546474 1546032 1549100 1523388 1445566 1464922
2180.15 1521706 1515928 1492660 1477784 1458650 1382552
2183.04 1370368 1404854 1395370 1382134 1365630 1333528
2185.93 1264418 1264946 1294996 1287214 1291362 1277916
2188.82 1247630 1194442 1176618 1199166 1174678 1142220
2191.72 1111128 1064140 991384 972982 982722 951426
2194.61 908430 858526 809078 767542 766730 753728
2197.50 733866 727018 710018 686632 663412 679056
2200.39 705624 704350 699512 686024 669992 665698
2203.29 696592 709164 723982 749574 737624 718572
2206.18 740710 785142 806610 814362 837118 862874
2209.07 869022 883112 905322 912718 926748 937526
2211.97 927090 922266 936880 955368 964084 976062
2214.86 983768 990956 1026080 1058486 1064734 1068454
2217.75 1084820 1091532 1104906 1126974 1158128 1183268
2220.64 1194118 1202906 1213650 1225734 1218512 1222812
2223.54 1233720 1246828 1279862 1312640 1333492 1356402
2226.43 1366378 1356718 1357980 1380634 1402992 1412960
2229.32 1416084 1417700 1415668 1412522 1417394 1424282
2232.21 1421662 1400274 1379682 1382866 1387748 1391928
2235.11 1359906 1327316 1319452 1318342 1319480 1310124
2238.00 1290660 1276446 1283844 1278496 1271276 1268040
2240.89 1258022 1233918 1218282 1222446 1226792 1212822
2243.79 1207740 1214904 1209080 1185246 1175206 1154128
2246.68 1138350 1129244 1116082 1085432 1063812 1053432
2249.57 1046402 1034934 1023846 1005442 980862 959928
2252.46 952996 944434 912508 895936 881062 856382
2255.36 834286 834012 818024 803176 781936 774730
2258.25 766340 764686 749344 721648 715720 706572
2261.14 699344 675354 659164 658658 663460 659000
2264.03 656364 650574 653426 661640 661344 651800
2266.93 652854 665548 660440 664450 680790 698522
2269.82 716384 709944 706762 724344 730524 727072
2272.71 723948 729942 739976 735814 745154 773418
2275.61 793076 802528 816966 818004 816452 833654
2278.50 852490 862592 888378 911132 939688 961004
2281.39 956576 964384 988350 1004430 1030334 1062698
2284.28 1076818 1086486 1109172 1130454 1149146 1155384
2287.18 1166492 1210524 1268346 1291144 1286172 1289228
2290.07 1312878 1353040 1383634 1400458 1396986 1419218
2292.96 1450182 1468646 1468884 1481276 1502040 1504782
2295.85 1512274 1547836 1577490 1590170 1607716 1643618
2298.75 1668440 1683484 1686316 1697638 1705540 1708460
2301.64 1717792 1743686 1770884 1783384 1798874 1814854
2304.53 1827528 1840130 1844838 1846054 1856910 1853800
2307.43 1854368 1849562 1829814 1808842 1772162 1734474
2310.32 1727762 1717806 1699774 1681260 1667990 1648022
2313.21 1643628 1645564 1643468 1618222 1614420 1615104
2316.10 1598648 1573210 1568380 1544438 1510350 1484168
2319.00 1483058 1469624 1449884 1427952 1403608 1386874
2321.89 1364682 1333342 1322336 1311620 1279594 1249470
2324.78 1246456 1253606 1234926 1197926 1175020 1170756
2327.67 1140278 1118774 1125534 1123652 1100554 1084030
2330.57 1069606 1049096 1026354 1017984 1022752 995012
2333.46 945026 944516 983738 983106 964700 966826
2336.35 947468 915728 913646 932540 904510 862188
2339.24 867954 876128 865992 854942 873612 893242
2342.14 869404 865860 873286 848270 831994 843792
2345.03 817978 774012 741250 714792 698602 676078
2347.92 662684 655946 658182 655754 640640 631950
2350.82 620582 612486 638472 629602 633956 658070
2353.71 648498 644296 658642 654484 661822 679468
2356.60 671972 676040 708508 707018 710498 738436
2359.49 735868 745002 769354 774092 796172 812798
2362.39 815630 833318 835896 840522 857598 869828
2365.28 894046 909358 900516 927454 939924 940238
2368.17 940438 937740 953588 956676 960210 948796
2371.06 950480 973474 967862 988996 999224 980716
2373.96 983604 974244 974828 965946 955194 960744
2376.85 957220 951280 968436 974302 971246 963264
2379.74 952856 953442 951294 945432 951930 947480
2382.64 948806 949772 940250 928942 928060 927246
2385.53 929434 923860 921132 930676 929986 924028
2388.42 932534 952118 949922 952170 937894 922484
2391.31 927920 951198 958986 954708 936674 933014
2394.21 951764 961632 945478 941394 954194 957690
2397.10 963260 974134 982378 979448 978218 966058
2399.99 951520 977060 994714 987314 978028 981310
2402.88 992942 994480 1002446 1006170 1008942 1023874
2405.78 1038856 1057918 1076080 1049252 1031058 1035358
2408.67 1039134 1060860 1079956 1079784 1083584 1061210
2411.56 1057656 1068880 1081848 1084176 1071030 1069812
2414.46 1082386 1084862 1095210 1099692 1099138 1087552
2417.35 1104228 1132778 1135432 1130612 1127448 1121416
2420.24 1120428 1118514 1129772 1143126 1129876 1120680
2423.13 1132330 1157530 1159164 1133632 1137564 1144444
2426.03 1120086 1095168 1072336 1066946 1060372 1036498
2428.92 1027776 1040572 1031494 1015630 1014146 1006752
2431.81 1002450 1001186 988430 965342 947082 948262
2434.70 930892 921934 924830 904900 901858 911132
2437.60 895932 883248 888354 881776 871830 861096
2440.49 855660 845772 833140 837910 838562 833174
2443.38 844456 862024 857372 856432 851734 846434
2446.28 855262 875324 879100 896806 932968 953244
2449.17 971352 997016 1030294 1060314 1091374 1122674
2452.06 1124934 1161876 1209622 1253240 1292976 1296178
2454.95 1317336 1362616 1426212 1487994 1519552 1545464
2457.85 1586508 1636086 1679008 1729944 1777952 1826674
2460.74 1886260 1934012 1980714 2019662 2039884 2069202
2463.63 2103412 2146868 2197176 2225228 2251284 2308738
2466.52 2361768 2386594 2419870 2440226 2446504 2470442
2469.42 2502512 2521188 2534686 2550890 2575962 2601528
2472.31 2610912 2606592 2613032 2635824 2661942 2675216
2475.20 2670534 2647880 2648614 2657878 2667476 2663994
2478.10 2660968 2674880 2663200 2637276 2624210 2607330
2480.99 2572558 2533718 2515256 2477860 2432998 2402898
2483.88 2377758 2338844 2277788 2233618 2188578 2136044
2486.77 2114362 2094170 2054624 1998568 1941562 1921996
2489.67 1906170 1880798 1841732 1798630 1768138 1743364
2492.56 1709490 1654018 1601540 1570740 1553234 1531176
2495.45 1499348 1478972 1441284 1401910 1366056 1320186
2498.34 1262512 1233404 1200462 1151648 1109374 1089418
2501.24 1067730 1026650 986772 929348 877748 845120
2504.13 811720 764500 734054 711590 695012 676864
2507.02 637076 603418 574436 548932 521146 505578
2509.92 497796 480812 452912 417276 393278 384278
2512.81 357554 330442 305916 277278 272654 282898
2515.70 247956 217330 210546 189358 173864 173454
2518.59 167372 155950 142238 113290 116460 122868
2521.49 126126 110560 89964 100368 107806 97074
2524.38 100192 107822 87736 67900 85358 125054
2527.27 128490 124376 122044 111108 106986 122932
2530.16 141692 139598 133154 165700 175930 170266
2533.06 174514 192410 197276 199610 224772 243958
2535.95 241988 244826 262624 267312 256828 258384
2538.84 256118 270892 300354 322944 303348 286614
2541.74 300880 314352 318894 328348 335092 337818
2544.63 325276 322260 321128 321056 319830 321562
2547.52 318066 304572 307746 324260 334442 321910
2550.41 325532 329296 326834 320996 320206 333010
2553.31 335950 330026 322572 312222 305728 309496
2556.20 304256 294452 283194 286158 287034 270634
2559.09 260670 234150 215724 207558 200736 220562
2561.98 249664 245744 221218 199852 209054 207018
2564.88 186560 190520 190338 189940 183682 169134
2567.77 158482 163364 189996 185056 177660 179530
2570.66 184356 183828 176586 150552 151952 175732
2573.56 185756 181124 168404 172914 176514 172338
2576.45 177730 188112 195622 195438 179624 172830
2579.34 177000 177318 192032 222624 233908 210414
2582.23 226558 252912 256810 266560 280504 274006
2585.13 277170 297166 312532 326998 329828 336330
2588.02 363880 380848 401696 397882 388322 429320
2590.91 489886 507624 501906 521022 558598 597658
2593.80 618610 629760 652708 678258 687884 727700
2596.70 773618 809942 825192 834078 842696 874540
2599.59 912048 936466 954912 986890 1011802 1015548
2602.48 1015914 1044640 1088754 1108684 1122616 1151620
2605.37 1163900 1149432 1141554 1144164 1160478 1169158
2608.27 1175236 1188612 1196600 1209632 1235694 1250966
2611.16 1259470 1273494 1260438 1224192 1217474 1237392
2614.05 1242026 1210464 1165542 1160122 1154252 1142636
2616.95 1139008 1153418 1137780 1087440 1047416 1041282
2619.84 1046420 1042442 1029738 1009548 994738 956330
2622.73 926548 927234 928412 899202 889088 868064
2625.62 834102 815476 800090 773234 729856 705122
2628.52 700398 679810 674762 664032 650888 626860
2631.41 602662 596338 602804 585680 536094 529320
2634.30 528716 529074 525190 508866 500356 478236
2637.19 446580 424064 413272 388382 383590 411342
2640.09 401406 384880 386382 368398 355656 337866
2642.98 324584 335346 346974 325690 311142 308130
2645.87 308266 290676 287916 298696 312858 290282
2648.77 273440 274576 284664 291606 279190 276358
2651.66 283368 286580 290966 283572 287336 320342
2654.55 319190 316918 303946 309718 323692 340206
2657.44 355858 360032 370626 390378 388300 383600
2660.34 407064 401912 395370 402664 437764 480202
2663.23 493690 522184 542936 545044 553300 554672
2666.12 562488 575766 595452 619506 641202 680142
2669.01 695214 683894 680460 706280 747908 768646
2671.91 778670 776646 771364 805316 823868 833042
2674.80 844576 858604 863618 857118 857738 876194
2677.69 886422 863134 885942 909564 939812 989620
2680.59 1011158 1005498 1006042 1024690 1050440 1046350
2683.48 1036206 1060674 1099464 1100450 1059150 1061666
2686.37 1099102 1127586 1129242 1124300 1128760 1137450
2689.26 1152880 1168554 1169326 1150482 1155780 1172384
2692.16 1175738 1182792 1187422 1173570 1146070 1115602
2695.05 1096204 1088882 1075958 1065908 1047344 1040964
2697.94 1029226 1012576 1002588 1004052 993426 960022
2700.83 941086 934352 927752 940450 943864 958748
2703.73 986282 995520 994916 1008534 1013962 1017192
2706.62 1010182 982784 939684 916134 914882 914702
2709.51 906562 886892 879744 872794 825048 828918
2712.41 856884 842028 825568 822680 820028 842720
2715.30 877872 894680 874222 891790 930626 915434
2718.19 892584 928564 967206 953060 961696 987054
2721.08 979026 978128 954012 967152 976460 973600
2723.98 985126 1001878 1030104 1057322 1065842 1067106
2726.87 1093452 1109940 1104470 1105300 1113708 1123244
2729.76 1147944 1161880 1154084 1144724 1161624 1206770
2732.65 1242034 1270532 1292158 1299486 1300744 1313284
2735.55 1341352 1350858 1340740 1323400 1322208 1304664
2738.44 1300998 1338654 1349994 1356618 1384546 1399950
2741.33 1398576 1386776 1365556 1379006 1409170 1433664
2744.23 1466022 1504452 1519156 1522800 1533230 1541994
2747.12 1548586 1601550 1640062 1643390 1658770 1703036
2750.01 1754618 1768714 1776670 1807892 1809152 1779124
2752.90 1779800 1802904 1837878 1853926 1850748 1864546
2755.80 1859702 1845540 1855078 1882360 1884280 1889282
2758.69 1907406 1929002 1929630 1932698 1938360 1925740
2761.58 1906770 1868330 1853382 1859408 1860046 1858520
2764.47 1849268 1854084 1860840 1868928 1869738 1844088
2767.37 1854192 1887890 1884600 1878334 1867946 1863624
2770.26 1911322 1937310 1930308 1930656 1951430 1951188
2773.15 1920738 1910000 1936380 1938474 1929324 1928110
2776.05 1914670 1919460 1946258 1933176 1930822 1939608
2778.94 1940002 1913822 1907734 1924472 1913716 1897864
2781.83 1895840 1902470 1907354 1894246 1885564 1901092
2784.72 1921420 1946986 1934004 1919162 1908066 1913708
2787.62 1925708 1904970 1902056 1907682 1894840 1872372
2790.51 1871354 1881624 1837244 1805514 1790254 1781082
2793.40 1788294 1798382 1816832 1817926 1801538 1781948
2796.29 1755982 1748278 1764064 1774880 1745116 1740568
2799.19 1742474 1747414 1742924 1743008 1738586 1742038
2802.08 1765114 1776654 1810220 1819604 1837426 1874166
2804.97 1914500 1937836 1948880 1962744 2013916 2060926
2807.87 2085824 2112078 2139346 2192402 2230798 2235678
2810.76 2278386 2335938 2409942 2480868 2536074 2583266
2813.65 2629484 2670552 2717002 2760768 2774240 2807518
2816.54 2871890 2927520 2946790 2943874 2929208 2974066
2819.44 3028640 3059114 3097284 3113726 3099900 3111420
2822.33 3144694 3194464 3232296 3252084 3252364 3288850
2825.22 3325760 3334446 3363038 3425648 3465736 3490378
2828.11 3534508 3561966 3596386 3624720 3635024 3662808
2831.01 3697048 3691844 3706318 3755498 3777600 3765558
2833.90 3765744 3810214 3837356 3871140 3907738 3952178
2836.79 3991654 4023880 4091972 4159898 4194752 4244458
2839.69 4299348 4360994 4444658 4508070 4554912 4634768
2842.58 4725596 4789506 4855018 4904674 4940170 4970458
2845.47 5026082 5091496 5194892 5283690 5311320 5349684
2848.36 5444682 5500860 5530252 5601394 5691258 5769974
2851.26 5865302 5967222 6049122 6101170 6158560 6256194
2854.15 6352490 6380626 6415654 6513980 6590630 6647226
2857.04 6664714 6693628 6753098 6792096 6833286 6913400
2859.93 6965502 6964250 7009030 7086642 7170626 7227740
2862.83 7250098 7306130 7400952 7474140 7545450 7634486
2865.72 7733086 7862026 7998234 8137990 8319944 8525276
2868.61 8716832 8922918 9144690 9397562 9664858 10001700
2871.51 10368300 10753920 11181910 11597740 12004390 12473180
2874.40 12995050 13533330 14103890 14680980 15241920 15814120
2877.29 16361950 16908750 17458960 17862460 18207070 18557170
2880.18 18838210 19025300 19163550 19224400 19222120 19227650
2883.08 19316340 19466140 19643020 19931060 20332250 20844190
2885.97 21368810 21858640 22200100 22395650 22511270 22615980
2888.86 22803050 23066270 23318380 23570330 23886340 24167670
2891.75 24443940 24685390 24887280 25089070 25284130 25455960
2894.65 25586230 25739790 25828280 25883230 25931220 25995540
2897.54 26059500 26154520 26263840 26384760 26575280 26871260
2900.43 27143610 27432420 27678760 27830520 27978900 28112590
2903.32 28205110 28361330 28603970 28834630 29075430 29385030
2906.22 29711920 30066600 30434480 30795240 31171650 31521050
2909.11 31854520 32148890 32401310 32618620 32755660 32877890
2912.00 32963350 33058210 33139190 33172130 33230710 33288330
2914.90 33306310 33252160 33090370 32767760 32350070 31945910
2917.79 31664390 31460640 31289890 31255480 31320720 31482180
2920.68 31691230 31904830 32135140 32359070 32550630 32758470
2923.57 32923060 33043650 33146680 33252890 33320480 33363370
2926.47 33394890 33440070 33514490 33638930 33778340 33980110
2929.36 34303360 34684310 35168360 35744090 36389330 37120260
2932.25 37873480 38668900 39532060 40473440 41503260 42610020
2935.14 43774760 44915280 46032680 47119720 48122620 49019940
2938.04 49758630 50407320 50994540 51509920 51964880 52403000
2940.93 52921740 53603610 54439920 55625180 56982710 58040340
2943.82 58654020 59034790 59462700 60014570 60674290 61466210
2946.72 62418800 63497400 64535990 65498540 66262200 66678650
2949.61 66772440 66583070 66246520 65862510 65506200 65290500
2952.50 65224940 65186780 65246510 65457310 65813400 66347990
2955.39 67014240 67478920 67207180 66306610 65572520 65342930
2958.29 65386160 65539140 65722590 65914020 66093330 66248240
2961.18 66350230 66566600 66779530 66972100 67330620 67905700
2964.07 69014660 70301020 70790930 70318240 69769940 69687720
2966.96 70221250 71142720 71927420 72591060 73329630 74145450
2969.86 75005780 75981550 77135190 78506140 80207230 82203950
2972.75 84399370 86865720 89513170 92140340 94792980 97554280
2975.64 100371700 103177400 105985200 108777500 111550100 114250300
2978.54 116933400 119692000 122548400 125619600 129141600 133742600
2981.43 139494400 143207100 141629800 138606700 137197100 136669700
2984.32 136618800 136822700 137205900 137638100 138064100 138597600
2987.21 139520500 140670000 142038800 143248200 143733200 143573800
2990.11 143333100 143414000 143935200 145348900 147995800 151790100
2993.00 156658100 162866300 171333300 182401600 187930900 179735900
2995.89 166985600 157800200 151633500 146859100 142733200 138948500
2998.78 135266000 131600700 127935700 124298200 120792500 117284600
3001.68 113693300 110173500 106716400 103262900 99941780 96890360
3004.57 94183580 91887100 89782820 87577120 85323340 83266590
3007.46 81472080 79905300 78437260 76992810 75515470 73961940
3010.36 72318680 70594080 68776020 66900750 65024820 63089350
3013.25 61119540 59092930 57029110 55044580 53085050 51113550
3016.14 49153830 47220230 45386300 43604410 41886030 40278680
3019.03 38712820 37227380 35855180 34554720 33266200 32025530
3021.93 30860220 29783590 28815340 27868650 26974740 26132330
3024.82 25271000 24457340 23762290 23068300 22391640 21777710
3027.71 21253270 20797250 20325260 19881790 19449920 19015830
3030.60 18598850 18184810 17776360 17424250 17129650 16879630
3033.50 16649870 16470300 16298550 16144430 15981750 15769830
3036.39 15573120 15410440 15252030 15055490 14866720 14688120
3039.28 14493100 14289660 14132530 14004920 13843480 13705660
3042.18 13544700 13359630 13203310 13089520 12998380 12907530
3045.07 12781260 12657160 12564320 12467460 12369430 12268380
3047.96 12180150 12128630 12097470 12043640 12012690 11962040
3050.85 11890440 11845660 11820390 11758490 11701490 11666430
3053.75 11630590 11601800 11559360 11477610 11393430 11358560
3056.64 11325980 11226200 11179210 11099870 11005760 10945870
3059.53 10876630 10733100 10593420 10520840 10432490 10329280
3062.42 10279360 10203390 10046110 9945186 9883502 9789790
3065.32 9669274 9539946 9439522 9381368 9277860 9128716
3068.21 9013866 8910938 8834622 8740598 8600538 8449038
3071.10 8335034 8240878 8119062 7991430 7875664 7760588
3074.00 7671758 7603788 7473856 7291936 7159260 7042626
3076.89 6935084 6836874 6687136 6536296 6430700 6368390
3079.78 6266414 6162528 6081140 5995784 5889518 5776454
3082.67 5687674 5623452 5505900 5399252 5346362 5287392
3085.57 5197402 5161924 5126514 5048238 4941298 4879992
3088.46 4834862 4778252 4729254 4663902 4587518 4480542
3091.35 4445086 4440174 4407618 4381972 4332920 4267284
3094.24 4206744 4173716 4155496 4111842 4047502 3992014
3097.14 3978026 3948008 3893326 3884140 3860478 3786302
3100.03 3767482 3744364 3711646 3683440 3641738 3581042
3102.92 3523626 3475474 3438478 3409850 3352924 3287058
3105.82 3255922 3266378 3243020 3188394 3166538 3142290
3108.71 3062658 3001566 2988104 2928922 2858258 2797664
3111.60 2775362 2771102 2739926 2711918 2694796 2688312
3114.49 2647856 2603304 2587366 2580622 2563556 2507030
3117.39 2482482 2507020 2525398 2501596 2450920 2454076
3120.28 2456000 2403872 2362642 2338826 2328458 2319026
3123.17 2317652 2302900 2271658 2252376 2271784 2297622
3126.06 2276986 2258672 2253804 2194140 2192814 2214900
3128.96 2203128 2212404 2249078 2256678 2245528 2248782
3131.85 2252212 2250528 2233326 2230790 2227358 2214034
3134.74 2181444 2145310 2132214 2117364 2143192 2139228
3137.64 2112338 2083774 2035496 1998116 1978114 1973712
3140.53 1947504 1899878 1875488 1822034 1802158 1793332
3143.42 1756368 1735030 1742430 1751572 1737956 1722274
3146.31 1752006 1732418 1661108 1634114 1633600 1632292
3149.21 1606870 1591182 1560628 1558810 1575202 1578082
3152.10 1508990 1432734 1378154 1368890 1385978 1391294
3154.99 1371900 1346028 1332584 1330412 1324008 1319530
3157.88 1288328 1281910 1258298 1233352 1266402 1270970
3160.78 1228234 1233004 1251124 1244376 1252254 1249606
3163.67 1240968 1222942 1219596 1228088 1233366 1254150
3166.56 1291506 1287754 1273900 1271162 1247302 1255478
3169.46 1259236 1248034 1309146 1319262 1308536 1316540
3172.35 1313052 1324882 1358370 1393314 1410704 1448128
3175.24 1412156 1392642 1393544 1434416 1460502 1437482
3178.13 1466144 1497734 1519592 1538436 1548972 1545036
3181.03 1541910 1520574 1514180 1544188 1565242 1571424
3183.92 1551230 1514118 1521796 1548074 1565792 1586744
3186.81 1595186 1576180 1571602 1570708 1554542 1538456
3189.70 1528722 1533250 1540090 1546028 1547578 1520628
3192.60 1496366 1481980 1446594 1447424 1451562 1443416
3195.49 1449438 1451880 1418186 1405634 1378174 1402660
3198.38 1442832 1428962 1415256 1395040 1366468 1341570
3201.27 1354590 1318004 1272136 1259946 1290020 1270940
3204.17 1229690 1201256 1197768 1221204 1224278 1198772
3207.06 1187974 1177656 1138934 1078322 1045034 1076624
3209.95 1131268 1128086 1087954 1034180 1001280 984044
3212.85 1002016 984946 972674 970622 972290 963218
3215.74 961864 949194 912074 882350 876642 865558
3218.63 874396 854254 857096 821652 768392 765704
3221.52 789390 769482 771214 773914 749392 753320
3224.42 770740 756158 738846 731058 713832 697052
3227.31 673066 609198 584226 600566 605960 604884
3230.20 631982 670680 664986 641030 647632 609890
3233.09 563430 547336 552196 543134 545696 545868
3235.99 533478 549398 541092 537122 525790 523158
3238.88 562604 562688 489796 455488 490884 469896
3241.77 465038 489822 474030 441936 422780 404856
3244.67 399498 390470 359726 393484 418554 343992
3247.56 314304 337340 325268 297122 342128 352760
3250.45 297572 234676 222322 255650 309794 315208
3253.34 268916 235292 222418 229914 222160 186888
3256.24 166060 175506 174516 184578 165224 145102
3259.13 160526 153534 110284 100598 124754 149248
3262.02 128668 101032 155172 154036 102762 61282
3264.91 51876 47330 64056 43242 17208 17068
3267.81 23528 62084 93292 108592 96202 93064
3270.70 68140 12798 41504 76860 83716 64780
3273.59 23630 20820 32828 76144 106822 75484
3276.49 48930 61490 19896-7076 33212 36136
3279.38 60984 80910 84444 37038 12066 37698
3282.27 59078 64386 73468 80858 90404 72788
3285.16 59058 76332 43022 35180 70712 103418
3288.06 80600 72114 89378 112624 118266 105138
3290.95 100300 90704 72932 59254 61834 47542
3293.84 76810 112840 92998 69932 84014 88430
3296.73 113848 110500 100266 103098 110356 124578
3299.63 106548 60336 80112 94850 101940 147834
3302.52 164910 141794 143276 156244 106928 98110
3305.41 166450 153878 92242 87594 79298 78716
3308.31 79480 127002 141568 122204 115624 105832
3311.20 110942 121158 82970 70072 91744 112994
3314.09 83952 87308 125232 142088 119972 96218
3316.98 93350 89942 115094 135542 143602 164376
3319.88 158640 78642 77932 92098 89690 82224
3322.77 35700 36110 45792 68204 79722 65138
3325.66 68266 114970 111220 71760 91284 110998
3328.55 56724 40318 63562 66634 33134 31656
3331.45 33582 41070 75830 98628 75978 45770
3334.34 15794 27508 93242 82722 35386 37654
3337.23 68072 61932-7476-36778 4968 20812
3340.13-7980-33316-38796 2522 25200-22702
3343.02-78048-70284-19174-2620 28016 8866
3345.91 2732 13272 19016-2614 27712 80558
3348.80 94172 98400 57628 22894 68806 100338
3351.70 97808 79944 85110 133316 142900 110318
3354.59 95336 99620 128110 164944 166506 168794
3357.48 167358 146504 130246 101200 89584 128704
3360.37 147628 141500 134678 142150 131234 92982
3363.27 80884 70510 77472 135324 136300 132490
3366.16 130110 101562 102898 142948 148022 140102
3369.05 117150 59344 47648 63638 45646 30746
3371.95 12420 30978 42770 35242 48056 18472
3374.84-24898-45170-29636 7178-21446-19950
3377.73-23354-23468-64646-71574-30010-16264
3380.62-61954-85208-65326-98532-113774-92046
3383.52-69750-80986-82908-83384-78402-43686
3386.41-20698-79080-129768-122178-93138-78932
3389.30-54108-22046 4808 13294-11530-59358
3392.19-80966-76922-103518-133376-80500-53062
3395.09-56208-73512-37132-9948-20504-41518
3397.98-55586-69374-33718 12146 26356 2970
3400.87-46898-70738-83074-64250-56706-33232
3403.77 7356 34384 18040-8608-8298 32928
3406.66 11254-13582 18264-3248-66490-47314
3409.55-12478 8682 23798 240-6110 29198
3412.44 54324 41770 45980 105832 134954 92054
3415.34 71092 84846 90836 86146 63372 72476
3418.23 102620 144262 140514 122246 107092 114876
3421.12 146436 131270 87664 86386 140516 138436
3424.01 152216 153914 125862 135706 145054 132754
3426.91 114530 143252 167260 169592 165134 184772
3429.80 198238 169480 122050 102286 124120 196676
3432.69 194572 197630 233522 209378 111400 120976
3435.59 183348 162100 171792 216740 223840 188436
3438.48 178706 179992 155674 182522 164004 143788
3441.37 132066 149250 134308 162392 189102 159176
3444.26 146792 159314 171922 177982 112478 55754
3447.16 66448 115976 160558 175634 150172 131366
3450.05 153580 176130 179966 151406 141916 115040
3452.94 90440 123326 111936 102556 154292 175000
3455.83 119226 101152 133100 108114 60942 102142
3458.73 108220 87546 94002 35664-13580 10474
3461.62 43628 86886 79054 83192 98960 38274
3464.51 4650-1654 50818 92362 44072 12348
3467.40 41062 51308 61846 35172-54410-12032
3470.30 71518 81456 43200 16586-5844-8014
3473.19 3706 10732 58590 101158 106148 123444
3476.08 136468 149198 173552 174794 228090 311834
3478.98 337712 303860 308900 368858 406968 423274
3481.87 457948 488326 552508 649068 748836 827526
3484.76 856100 887424 979930 1060894 1099280 1181846
3487.65 1289204 1389312 1492550 1591122 1723446 1907796
3490.55 2057132 2161088 2283250 2437644 2586006 2750874
3493.44 2930224 3063744 3238268 3437192 3627978 3771510
3496.33 3936806 4158530 4316724 4487172 4759382 5028500
3499.22 5205826 5340524 5508916 5669514 5815960 5936120
3502.12 6037712 6104110 6170704 6270176 6304124 6284422
3505.01 6266214 6241828 6215008 6157350 6097888 6021860
3507.90 5938662 5884628 5804548 5745734 5789392 5852886
3510.80 5946076 6093432 6307828 6559492 6780916 6934786
3513.69 7019902 7013764 6995710 6973330 6871378 6747412
3516.58 6601170 6406872 6177146 5953412 5730824 5467632
3519.47 5183084 4886924 4628428 4430498 4194258 3896824
3522.37 3607874 3373278 3114108 2884626 2751702 2537356
3525.26 2286756 2125284 1965412 1800022 1641342 1437546
3528.15 1264638 1142642 1073274 995824 846416 693710
3531.04 631164 526560 343202 252666 208272 131820
3533.94 67322 17016-49342-170560-293378-326150
3536.83-330084-347278-356722-412780-487076-537922
3539.72-572822-612938-618662-591208-604610-667108
3542.62-728496-745678-726048-732648-781028-797234
3545.51-776318-848584-915726-864148-830340-788064
3548.40-817404-900816-894884-865292-815114-767438
3551.29-842800-905578-823838-809564-846430-841500
3554.19-813578-808378-799514-809400-791122-781724
3557.08-810288-832356-801664-799176-792574-807580
3559.97-801318-797424-769062-751478-814098-806124
3562.86-819176-809688-754568-724918-781400-871466
3565.76-946974-943054-809460-875556-963552-807834
3568.65-693432-645134-670264-667004-627422-592806
3571.54-567950-562968-559202-546670-557068-563676
3574.44-589424-540968-467104-475380-499618-489730
3577.33-456280-457108-491988-483466-493162-513100
3580.22-468644-389458-327184-305470-345886-354800
3583.11-354582-307298-280074-293236-330210-426690
3586.01-613456-516162-340242-345860-602154-607880
3588.90-254186-176062-242810-243806-187806-163710
3591.79-175464-242024-283570-231088-205654-206060
3594.68-292300-291014-182698-149218-120460-134802
3597.58-187794-207180-184372-203052-151232-149172
3600.47-212118-190810-142744-138196-124856-91698
3603.36-48816-66192-99688-118478-111184-141836
3606.26-222418-280552-209846-165982-305694-699046
3609.15-549638-196630-168974-156040-173750-339222
3612.04-541806-352042-150340-173330-269918-262146
3614.93-226724-172718-143442-195958-344678-394012
3617.83-277798-260778-575246-756392-407702-238730
3620.72-253656-239430-204360-207488-194852-181138
3623.61-157544-163398-179514-216054-255448-250556
3626.50-243650-308300-657356-951940-708984-1046430
3629.40-934928-386786-253870-195486-181752-197394
3632.29-229688-281568-394816-339162-260104-212800
3635.18-193724-178902-191612-211332-234696-298118
3638.08-265322-228262-223562-205722-201996-198466
3640.97-193308-237520-286344-236204-220208-241564
3643.86-254076-263062-269850-281910-391748-516998
3646.75-692714-633394-414388-605940-1203528-932042
3649.65-508440-664638-688162-548436-282406-237630
3652.54-244636-249104-210542-207810-225766-301830
3655.43-685720-951898-468034-249426-212554-195016
3658.32-205664-233070-230736-237632-199746-191364
3661.22-197880-206274-228196-233232-231224-260366
3664.11-272738-252012-199912-214150-221064-232590
3667.00-249472-308292-569092-695466-443020-467258
3669.90-1103612-1485230-664466-264076-164448-218696
3672.79-226076-325482-497056-926712-999174-1238820
3675.68-1349448-605148-324374-281972-240534-257562
3678.57-385584-416660-280892-233006-212216-228508
3681.47-203210-204516-205714-206480-176262-188736
3684.36-188390-193848-195208-225066-202934-282246
3687.25-555910-1518318-1533884-582322-285404-310314
3690.14-413930-637292-574464-267316-214936-225256
3693.04-251168-244810-251418-200670-174126-189178
3695.93-248668-244740-213916-195212-190884-194398
3698.82-196906-202034-220466-240560-334948-546624
3701.72-439524-265274-246606-199876-190556-168364
3704.61-188130-236654-254282-264314-250296-238632
3707.50-264712-304588-485464-639882-415476-278338
3710.39-329894-377988-869650-1186424-606018-270362
3713.29-217848-255386-289428-252404-196846-192786
3716.18-208852-223438-198644-206594-252368-318910
3719.07-236988-195700-204882-208112-249872-414474
3721.96-430768-291430-199766-151576-214418-333318
3724.86-324038-281498-456386-523448-302732-234438
3727.75-182906-138732-145870-152164-140426-156260
3730.64-245010-598344-1059162-718554-280064-252786
3733.54-297404-455938-573264-533244-401092-767164
3736.43-911444-410632-221308-270656-282292-252548
3739.32-225596-187600-217572-288710-243232-173058
3742.21-157772-235416-652750-1633256-2405846-1475144
3745.11-425740-189168-181390-198540-204364-209386
3748.00-308992-1048178-1707922-921534-263914-234096
3750.89-378770-1229382-1760936-784884-227924-161948
3753.78-119804-81936-95812-78964-173714-260246
3756.68-141684-53040-58324-98440-167652-337846
3759.57-376246-128686-14736-14548-28760 8610
3762.46 5862-31892-40014-3914-16996-152762
3765.35-270910-88174 19298 38486 35528 35752
3768.25-574-100410-466624-436812-90162-21678
3771.14-6146 53616 59608 25692 24518 54558
3774.03 80420 65490 61972 49076 45720 33540
3776.93 3124-40826-42046-106408-296880-253270
3779.82-49092-5376 6514 21660 47738 34810
3782.71 36444-4186-73166-124806-70908 9122
3785.60 2422-28242-28938-49286-66174-52238
3788.50-45808-43806-17332-26112-11840 4740
3791.39 3552-22908 7976 3066-12250-22436
3794.28-30930-75312-134758-338918-319404-126182
3797.17-86278-80136-45082-91038-93106-137004
3800.07-263918-1002558-1483404-616058-159212-180568
3802.96-137220-59680-20780-10936-61790-147646
3805.85-341200-946658-864140-217682-64386-11398
3808.75-25640-30984-34678 2906-15760-1772
3811.64-27658-2728-40296-62258-82840-79078
3814.53-153318-543574-1445740-1079522-249840-89150
3817.42-79330-86662-51096-56016-162350-441292
3820.32-676130-661742-766262-379470-38726-47058
3823.21-55532-33200-25122 568-15990-75408
3826.10-203792-191540-34552 26296 25512 2298
3828.99-18484-43366-33360-106406-321576-379234
3831.89-83260 6390-752-40442-112760-447030
3834.78-368130-62580-27336-95200-436746-1448246
3837.67-1280214-281406-66938-121516-193158-206202
3840.57-325496-147896-22334-12462-68024-221850
3843.46-239806-26642 8108 6522 34812 48494
3846.35 37762 86302 53562 49754 15920 5002
3849.24-33052-20006-21286-125572-768446-1262530
3852.14-560834-274534-1021288-2177346-1786606-504944
3855.03 3356 47274-25974-115700-123996-4458
3857.92 55690 60680 27136 13230 4962 38742
3860.81-88234-246088-98822 38616-7878-33792
3863.71-114390-383420-631274-266002-57658-3838
3866.60 22040 55760 6936-78246-307178-493984
3869.49-922748-710560-115404-17162 34900 39326
3872.39 13346-50324-201340-329366-169642-15980
3875.28 31860 50926 44480 51648 63512 35740
3878.17 15118-6204-129324-369050-339610-159082
3881.06-53628 2564-144-38162-58850-2516
3883.96 8064-84006-550448-722736-234714 13164
3886.85 20292 3800-12640 45432 61526 42878
3889.74 17400-166076-561526-396870-68494 11476
3892.63 37942-25012-19544 32368 41954 57692
3895.53 80724 52628 57110 48880 15602-4068
3898.42-192126-392482-161924 17642 44012-170114
3901.31-502830-280220 38674 61302-174016-504958
3904.21-243602 14548-18050-43026 60824 97642
3907.10 72866 100062 121042 99414 79294 100918
3909.99 126910 157330 162038 133214 91316 93326
3912.88 87972 89296 81200 102328 139102 161802
3915.78 99266 25802-104424-9150 93824 94734
3918.67 125694 18122-98726 10930 109062 128916
3921.56 128426 142242 129370 125394 127700 97128
3924.45 57024 94092 147796 124526 147180 165844
3927.35 156982 155952 165232 120922 103796 116932
3930.24 117872 134850 108368 52018 68132 170718
3933.13 213832 199482 199256 236036 229782 230234
3936.03 247110 239116 236718 246930 247584 243108
3938.92 237784 224832 238576 249318 307102 320788
3941.81 181228 83444 194836 310154 327054 291564
3944.70 249238 251216 272284 268516 232576 238694
3947.60 252654 181784 147206 269774 351146 377298
3950.49 433236 376406 348442 340222 286598 275672
3953.38 323200 325400 320370 338114 389596 343208
3956.27 299410 315204 352520 383636 407108 372314
3959.17 345296 373678 388880 380226 368040 353286
3962.06 391472 354974 319516 347076 343474 351484
3964.95 377896 384372 402764 418218 432610 445300
3967.85 453586 410408 406346 434478 477064 493610
3970.74 476174 485022 497466 539078 543294 554938
3973.63 542398 540638 570200
##END=
