##TITLE=Ethyl Acetate
##JCAMP-DX=4.24
##DATA TYPE=INFRARED SPECTRUM
##CLASS=IUPAC A
##ORIGIN=NIST, Anayltical Chemistry Division, 301-975-3108
##OWNER=COPYRIGHT (C) 1998 by the U.S. Secretary of Commerce
##DATE=98/10/1
##$SPECTRA VERSION=1.00
##$UNCERTAINTY IN Y=2.0 % relative (B=1.0E-04,C=6.3E-10,D=2.7E-14)
##CAS NAME=Ethyl Ester Acetic Acid
##CAS REGISTRY NO=141-78-6
##MOLFORM=C H3 C O2 C H2 C H3
##MP=-83.58 C
##BP=77.06 C
##$NIST SOURCE=QUANT-IR
##SPECTROMETER/DATA SYSTEM=IFS66V (Bruker)
##INSTRUMENT PARAMETERS=KBr Beam splitter; MCT Detector; Multipass cell
##STATE=gas
##SAMPLE DESCRIPTION=Ethyl Acetate Primary Gas Standard
##PRESSURE=101.3 kPa
##TEMPERATURE=23 C
##SAMPLING PROCEDURE=1 L/min Flow
##RESOLUTION=1.9290
##DATA PROCESSING=3-Term B-H Apodization
##XUNITS=cm-1
##YUNITS=(micromol/mol)-1m-1 (base 10)
##XFACTOR=1.0
##YFACTOR=18.189E-13
##DELTAX=0.9645
##FIRSTX=574.687
##LASTX=3974.595
##FIRSTY=4.21E-07
##MAXX=3973.63
##MINX=574.69
##MAXY=.0019776
##MINY=-2.15E-06
##NPOINTS=3527
##XYDATA=(X++(Y..Y))
574.69 231990 390896 520874 603218 762834 893886
579.51 1058810 1343656 1628454 1900074 2179000 2475716
585.29 2940706 3477848 3929348 4409648 4899848 5313294
591.08 5778806 6342650 6934480 7589334 8193724 8661700
596.86 9164998 9676444 10175300 10861340 11872470 13361210
602.65 15111250 16760390 18250060 19087720 18705160 17627620
608.44 16759310 16294820 15986640 15603580 15227690 15042790
614.22 15076410 15301210 15712130 16292630 17076600 18121440
620.01 19412410 20939020 22713140 24616890 26350440 27627010
625.79 28284720 28222590 27338950 25894310 24874300 25062380
631.58 25306050 24331350 23347460 23411420 23938630 24089980
637.36 23235250 21855110 20875730 20174460 19189130 17731970
643.15 15939870 13935080 11806320 9742670 7911460 6354070
648.93 5071012 4047014 3248554 2639556 2163520 1790630
654.72 1556494 1409352 1267254 1138554 1026398 918552
660.50 819776 733848 663646 574638 499964 496892
666.29 501190 454070 401500 399550 411324 393150
672.08 362400 338862 308208 276024 282746 293902
677.86 265820 220630 183180 148168 135032 167270
683.65 190062 176818 170484 183438 182520 160568
689.43 154530 157456 141940 134144 126032 138748
695.22 180484 178204 140816 106578 69508 50838
701.00 69040 92920 117254 141854 130744 106512
706.79 125416 151358 156272 171148 187790 195344
712.57 205504 206376 219072 241764 244660 237614
718.36 241820 260374 265444 263186 268142 266728
724.14 261684 279344 299128 292316 303420 347014
729.93 379548 387416 397312 416198 427722 428998
735.71 448616 487218 506804 507562 523076 567380
741.50 616288 645004 674946 735002 809614 871254
747.29 916932 987068 1089302 1190866 1291970 1400042
753.07 1512806 1641626 1807088 2003672 2196522 2395498
758.86 2627666 2903208 3205926 3521514 3863882 4232288
764.64 4632116 5053892 5494720 5986362 6539044 7121022
770.43 7716868 8348708 9007072 9686596 10418930 11155260
776.21 11802990 12347250 12830690 13214720 13399370 13399200
782.00 13265510 13090190 13070540 13201540 13479370 14006840
787.78 14503540 14680070 14581260 14338620 14012810 13603340
793.57 13115530 12569320 11980530 11376410 10772900 10178060
799.35 9630718 9128346 8645690 8210308 7817196 7445472
805.14 7092778 6761168 6530640 6408584 6193858 5846800
810.93 5549334 5347254 5197380 5101682 5048706 5031232
816.71 5053068 5098842 5173420 5332472 5571662 5826154
822.50 6116074 6462428 6869486 7343958 7847520 8394952
828.28 9036104 9767602 10543090 11360150 12265880 13251270
834.07 14283830 15351930 16463470 17576330 18637060 19638570
839.85 20503380 21118350 21483170 21621770 21608500 21666050
845.64 21870960 22151910 22486130 22763340 22881110 22888370
851.42 22849710 22795380 22709650 22531210 22214240 21719130
857.21 21023200 20144010 19097860 17927970 16697000 15439170
862.99 14219920 13088430 12012630 10978190 10023850 9168194
868.78 8391500 7695280 7065260 6480176 5940812 5443028
874.57 4985948 4584208 4234692 3906234 3606190 3355736
880.35 3133450 2936068 2776830 2646828 2526094 2420778
886.14 2345696 2292924 2264894 2267176 2319548 2408398
891.92 2493564 2593638 2756366 2990412 3299096 3687182
897.71 4162194 4754466 5475492 6337876 7345646 8466606
903.49 9663194 10879800 12054400 13117780 13998630 14670070
909.28 15140700 15519810 16118850 17283310 18535390 18823210
915.06 18443870 18436060 18945500 19654340 20353600 20947580
920.85 21414400 21775240 22067770 22352080 22695020 23118030
926.63 23601790 24108510 24575230 24888400 24907850 24554350
932.42 23803290 22677020 21331180 20156220 19673060 20084150
938.21 20379240 19130350 17364710 17033830 17857620 18650400
943.99 18801450 18144930 16744880 14814890 12646590 10516710
949.78 8607228 7016118 5769002 4843480 4192680 3748940
955.56 3430146 3191520 3032874 2933606 2851960 2792986
961.35 2763982 2759692 2770220 2792034 2829756 2884022
967.13 2954508 3051526 3174116 3313298 3465534 3624838
972.92 3788298 3971476 4185792 4436882 4726192 5029892
978.70 5334902 5670916 6049450 6472528 6948044 7468712
984.49 8030652 8633500 9276338 9955240 10640480 11304340
990.27 11930530 12504590 12996690 13376630 13646240 13830700
996.06 13936550 13974000 13979190 13995160 14065290 14162520
1001.85 14176030 14127310 14117780 14170220 14226200 14216320
1007.63 14111090 13905500 13615620 13279860 12949290 12671160
1013.42 12489990 12443160 12538530 12778600 13177050 13734810
1019.20 14426930 15246490 16224230 17395250 18802340 20482680
1024.99 22472530 24842170 27651040 30934960 34751110 39179670
1030.77 44319880 50261280 57027980 64632170 73133280 82560980
1036.56 92912940 104223300 116505100 129748600 143953800 159023400
1042.34 174624300 190249400 205557400 220560400 235201100 249037300
1048.13 261444600 271901100 280231100 286622400 291226800 294245400
1053.91 296500200 299081200 302093200 303519500 300953800 295918800
1059.70 291290400 286369200 280013200 271569500 259819900 244575400
1065.48 226798200 207852300 188804400 170232600 152873200 137622100
1071.27 124781100 114094300 105214300 97748200 91311330 85681590
1077.06 80719170 76297690 72335810 68807220 65703960 63069440
1082.84 60930660 59274380 58099580 57421060 57225670 57455620
1088.63 58089630 59145960 60543860 62180860 63964460 65724600
1094.41 67401040 68948940 69822470 69532860 68485940 67395170
1100.20 66804940 67448960 69906270 72375260 70831370 66048710
1105.98 62994700 62753600 63499880 64011110 63711860 62350130
1111.77 59906240 56531670 52512340 48187660 43865720 39800070
1117.55 36193260 33147740 30604810 28392300 26569510 25372630
1123.34 24671770 24048810 23222800 22111220 20744510 19232590
1129.12 17707540 16240360 14878170 13668280 12609470 11687880
1134.91 10906210 10257100 9737464 9327632 8993570 8714978
1140.70 8496540 8339734 8234342 8180054 8169778 8191638
1146.48 8240096 8294296 8353756 8443898 8562952 8679966
1152.27 8789568 8918426 9067842 9237760 9443210 9694668
1158.05 10028310 10488630 11010040 11216720 10879620 10458180
1163.84 10291370 10260380 10276880 10312050 10351330 10401300
1169.62 10458960 10520470 10574170 10588530 10576520 10573850
1175.41 10569860 10567420 10622390 10760850 10958820 11200690
1181.19 11456490 11710090 11985240 12303520 12673320 13107200
1186.98 13623230 14237580 14973220 15850170 16882920 18099480
1192.76 19505310 21113900 22977790 25129400 27564170 30303540
1198.55 33381660 36803950 40563030 44644860 49019110 53690980
1204.34 58687990 64002400 69585640 75425130 81598620 88198870
1210.12 95235900 102681300 110493800 118660100 127167500 136175300
1215.91 146393600 158761000 173791700 191652000 212437800 236380900
1221.69 263687100 294949500 331541700 374035800 421795900 473864400
1227.48 529064600 585938200 642783100 697688800 748672000 794058700
1233.26 832982300 866182000 896535600 928269500 964995100 1008168000
1239.05 1052283000 1076552000 1063638000 1037692000 1035790000 1056514000
1244.83 1078910000 1087248000 1072210000 1033648000 977896900 911623500
1250.62 840671400 771622900 709643300 655764200 607487300 561586100
1256.40 516233400 470782800 425131700 379538700 334730800 292284300
1262.19 254715300 225188700 205255700 190753900 175480400 159547000
1267.98 147861900 142480000 140597200 138708900 135005200 128928400
1273.76 120655600 110692600 99754130 88992200 79266430 70746990
1279.55 63384610 57081630 51724950 47205960 43437950 40358520
1285.33 37953160 36208710 35051850 34413360 34250280 34495580
1291.12 35082540 35974050 37120700 38450920 39915440 41486240
1296.90 43103720 44706270 46297640 47939380 49720610 51603180
1302.69 53073220 53278670 52285490 51344010 51280440 51980470
1308.47 52793590 52692130 51289880 49326270 47572840 46194730
1314.26 44980950 43604780 41873220 39727780 37148350 34248200
1320.04 31204820 28154620 25236770 22560380 20154790 18034760
1325.83 16222510 14711070 13453560 12392040 11498480 10760230
1331.61 10165450 9702816 9345846 9071644 8872812 8742936
1337.40 8676232 8688768 8819632 9097908 9517130 10087240
1343.19 10869290 11918750 13284500 15020680 17176210 19813040
1348.97 22970700 26632880 30757060 35245640 39953260 44672680
1354.76 49140990 53119340 56602090 60082120 64687720 72041380
1360.54 82331030 92698820 102415600 113711700 125988300 138578100
1366.33 152399600 166510200 178755900 187620500 192649600 194571100
1372.11 194974900 195587100 197031700 198154600 196583000 191931600
1377.90 188044400 188571400 192710100 197343600 199928900 198809600
1383.68 193270400 183490800 170296700 155186400 139729600 124780800
1389.47 110930100 98712830 88351980 79871990 73373990 68578880
1395.25 64248100 59730820 55614560 52454300 50304190 48792340
1401.04 47640190 46732900 45814350 44713630 43393480 41800950
1406.83 39988780 38117530 36312500 34657150 33215540 32018850
1412.61 31037310 30217770 29529830 28959490 28471290 27947860
1418.40 27598130 27824450 28327780 28711880 28884970 28953660
1424.18 29188850 29620520 30136960 30672360 31160920 31638320
1429.97 32193250 32760800 33270600 33746480 34158270 34357460
1435.75 34613310 35325410 36124710 36747580 37329840 37877880
1441.54 38355180 38774930 39191830 39624670 40020340 40383670
1447.32 40893730 41625890 42525850 43802750 45537350 46815710
1453.11 46588500 45335790 43993270 43305380 43633680 44428020
1458.89 45214600 45577390 45421660 45250840 45186010 44906220
1464.68 44552980 44338900 44291250 44594470 45205420 45437400
1470.47 44675870 43388100 42399540 42001380 41807130 41548480
1476.25 41331060 40965030 40298440 39381530 38262900 36968460
1482.04 35464740 33744960 31916930 30187270 28725030 27594220
1487.82 26780920 26247520 25976440 25767610 25319570 24559040
1493.61 23511670 22159760 20943440 20051850 19076800 18129030
1499.39 17322820 16499690 15702680 14946440 14058250 12969230
1505.18 12037990 11587720 11524210 11427290 11162820 10821990
1510.96 10431620 10145910 9924778 9634194 9298552 8955634
1516.75 8777628 8715644 8418642 7908092 7676640 7834182
1522.53 7982340 7884620 7697140 7657218 7616164 7520672
1528.32 7473716 7427156 7308786 7106610 6866732 6812868
1534.11 6962296 7061062 6998278 6615370 6102760 6086324
1539.89 6429448 6655512 6926714 7199738 7235700 7302484
1545.68 7464394 7521188 7471170 7427102 7528898 7703156
1551.46 7688656 7422906 7247004 7439036 7543958 7189026
1557.25 6784444 6721100 6944728 7460614 7843750 7813836
1563.03 7579294 7304136 7074934 6846650 6577532 6270662
1568.82 6071544 6013890 5867710 5686382 5585304 5333780
1574.60 4772310 4525876 4750692 4750678 4480084 4180948
1580.39 3915468 3688560 3499064 3345806 3217446 3117986
1586.17 3048166 2995902 2951042 2907958 2867246 2832482
1591.96 2804794 2778418 2762860 2764442 2776656 2781978
1597.74 2780586 2787750 2799740 2821124 2850070 2881216
1603.53 2926024 2981228 3033058 3086282 3137468 3183020
1609.32 3245718 3311272 3362242 3419638 3473584 3367532
1615.10 3002424 2962810 3447294 3792732 3895916 3958306
1620.89 3965928 3889532 3915248 4121574 4275192 4282336
1626.67 4254306 4321404 4426252 4468546 4476690 4474378
1632.46 4405640 4091868 3772006 3956570 4333412 4541316
1638.24 4675334 4753062 4809594 4874792 4936758 4932112
1644.03 4718048 4504192 4633012 4873792 5072122 5222710
1649.81 5123552 4517766 3919028 4217044 5030072 5608912
1655.60 5898312 6062734 6199736 6316432 6411926 6435880
1661.38 6401522 6516306 6760894 6933872 7045264 7104174
1667.17 7035066 6943974 7095802 7337304 7530784 7720388
1672.96 7724062 7585498 7750120 8146236 8389918 8509326
1678.74 8612504 8759986 8898468 8860272 8568480 8359364
1684.53 8878394 9696972 10095750 10288570 10488580 10697390
1690.31 10917050 11107980 11241820 11151430 10657040 10485510
1696.10 11027410 11388340 11105140 10680330 10985110 11794620
1701.88 12299640 12478150 12628770 12822010 13074140 13428890
1707.67 13766680 14064440 14418280 14830820 15224360 15550140
1713.45 15817810 16115590 16228900 16135320 16384850 16880530
1719.24 17281860 17723490 18371080 19368860 20930310 22962430
1725.02 25129140 27270480 29400050 31609970 34091800 37073930
1730.81 40519700 44308390 48857510 54883550 62383250 70751140
1736.60 79874400 89915790 101060400 113789300 128107400 143771800
1742.38 161054800 180319300 201672300 225233700 251259300 280021200
1748.17 311755800 346403300 383935500 424625700 467613200 511146900
1753.95 553531600 592468000 624964000 647862000 658474000 655321700
1759.74 638468000 611012900 581591600 559732600 547614300 551006000
1765.52 582913200 636983900 687328300 714507800 713991700 690776800
1771.31 652770000 606765100 556941800 505849700 455809400 408533200
1777.09 364963200 325521300 290194500 258732800 230686000 205359900
1782.88 182178000 160882900 141405300 123590600 107361900 92735600
1788.66 79642150 68027010 57841520 49112840 41949840 36018390
1794.45 30953740 26743970 23295620 20405660 17974900 16005510
1800.24 14412160 13110500 12083300 11263960 10590150 10035880
1806.02 9576072 9204280 8904208 8635480 8433036 8321786
1811.81 8255300 8224988 8224154 8233394 8242902 8269836
1817.59 8327836 8398014 8470702 8539458 8599992 8635806
1823.38 8588512 8533616 8590292 8663624 8676040 8663062
1829.16 8739164 8948430 9115196 9163378 9160698 9137898
1834.95 9097658 9035808 8960666 8878626 8778110 8656916
1840.73 8521084 8309938 7984064 7807716 7851050 7810174
1846.52 7648494 7493640 7354512 7199782 7031022 6859776
1852.30 6700654 6554882 6416798 6284286 6159772 6052026
1858.09 5964846 5890090 5826742 5772158 5718790 5662434
1863.88 5608604 5561000 5515682 5454720 5376728 5359146
1869.66 5411816 5428810 5397936 5357424 5333772 5334780
1875.45 5370202 5445676 5547806 5662406 5786446 5915362
1881.23 6027966 6108704 6165254 6206042 6234284 6253120
1887.02 6250750 6223588 6254494 6365548 6476724 6574304
1892.80 6652494 6703202 6761054 6828058 6881942 6911070
1898.59 6922754 6932206 6924528 6876698 6804754 6730196
1904.37 6639496 6520988 6371154 6192108 5987168 5756906
1910.16 5511258 5252986 4992964 4745394 4503066 4251670
1915.94 3962118 3673022 3488274 3354282 3196866 3029038
1921.73 2875784 2772394 2700428 2620446 2533402 2449930
1927.51 2374208 2312486 2262562 2210386 2152566 2100290
1933.30 2057012 2022464 1998362 1983008 1975906 1974008
1939.09 1969086 1946694 1903098 1896078 1940154 1968640
1944.87 1972082 1982726 1998568 2006638 2015262 2019832
1950.66 2014362 2010024 2012438 2024970 2043268 2063030
1956.44 2081600 2090820 2092740 2091714 2088624 2086534
1962.23 2083226 2074230 2058396 2037476 2024016 2026010
1968.01 2024092 2006588 1995108 1997286 1998756 1987396
1973.80 1962478 1939790 1932992 1925990 1903498 1872204
1979.58 1842168 1819278 1804998 1794690 1792036 1795024
1985.37 1791222 1788406 1800424 1828348 1851226 1852338
1991.15 1871744 1933960 2003324 2058920 2117138 2191840
1996.94 2271456 2342026 2409384 2479890 2547616 2607610
2002.73 2661094 2711442 2768246 2831480 2895766 2965450
2008.51 3037278 3103914 3158902 3212598 3273602 3322794
2014.30 3349540 3363236 3370018 3359880 3329784 3299902
2020.08 3273066 3237744 3204000 3163258 3086546 2996486
2025.87 2931394 2898760 2881302 2845954 2783832 2705990
2031.65 2601690 2468876 2330582 2198816 2073298 1961382
2037.44 1871918 1800362 1734622 1673460 1624664 1583836
2043.22 1549644 1527372 1513736 1510830 1516238 1522856
2049.01 1536786 1562636 1598766 1636544 1668954 1703988
2054.79 1749578 1809964 1885030 1967454 2053946 2147678
2060.58 2249900 2357988 2474048 2604042 2755300 2931058
2066.37 3118016 3307042 3516462 3758412 4024574 4304300
2072.15 4591330 4888170 5189086 5485128 5756224 5995460
2077.94 6223906 6430244 6604234 6765924 6948940 7147872
2083.72 7303440 7378326 7411432 7473164 7583160 7695180
2089.51 7765116 7780326 7722660 7579616 7357138 7091894
2095.29 6811468 6505774 6168628 5835648 5545898 5273422
2101.08 4992718 4725778 4499284 4294192 4077414 3852500
2106.86 3647270 3456866 3251454 3031040 2825120 2648026
2112.65 2466798 2262974 2066732 1916068 1796780 1674780
2118.43 1552664 1467410 1409188 1340568 1262518 1208814
2124.22 1181640 1142228 1087844 1050118 1031656 1007428
2130.01 973942 953596 956484 968060 980664 1007314
2135.79 1055264 1116124 1181732 1249106 1329604 1411298
2141.58 1476562 1532932 1585438 1634874 1679470 1720540
2147.36 1760208 1796994 1828304 1866044 1911450 1927484
2153.15 1911810 1912418 1939570 1957064 1957944 1966486
2158.93 1964000 1918784 1861260 1833148 1808562 1749606
2164.72 1700150 1695948 1683216 1625876 1588540 1604064
2170.50 1602258 1573238 1569462 1580156 1565132 1539934
2176.29 1537996 1536492 1510186 1493050 1492972 1465340
2182.07 1417974 1391454 1369834 1325368 1290516 1281660
2187.86 1259736 1216950 1179492 1132082 1059350 991768
2193.64 933886 860692 792708 751876 721962 695362
2199.43 688766 693440 687122 687008 708492 729390
2205.22 744898 776774 818342 854408 885574 911316
2211.00 926178 935114 952166 975434 1006038 1042964
2216.79 1072012 1097248 1132924 1172692 1201420 1217188
2222.57 1230942 1260168 1305644 1343332 1363208 1382902
2228.36 1404686 1414536 1416748 1414486 1401572 1387132
2234.14 1370326 1342364 1320048 1303864 1287600 1275944
2239.93 1261494 1240290 1224350 1216000 1206270 1186072
2245.71 1156774 1124780 1089670 1057882 1031988 1001448
2251.50 967438 933948 897174 860402 829662 802082
2257.28 777846 755930 730692 704806 680614 664370
2263.07 658238 656056 656650 657490 661198 673802
2268.86 694058 710110 719970 726632 732460 745558
2274.64 771250 799004 818050 838240 870472 911396
2280.43 947064 974882 1010454 1052928 1091742 1126778
2286.21 1164548 1217118 1269000 1305770 1347972 1390326
2292.00 1425454 1458022 1484336 1510726 1547738 1592606
2297.78 1637984 1674120 1695986 1715534 1745748 1781552
2303.57 1812188 1834308 1847282 1850510 1836830 1799088
2309.35 1751764 1714266 1683404 1657934 1641296 1625542
2315.14 1605444 1577144 1538114 1497852 1463572 1426616
2320.92 1384278 1342296 1302002 1266546 1237988 1203368
2326.71 1164030 1133966 1111628 1083728 1050766 1020308
2332.50 988868 969858 968154 955610 932184 909570
2338.28 885632 870508 869864 873228 867418 850732
2344.07 823038 776260 723016 683678 662120 648504
2349.85 634010 627498 634366 644550 651576 659502
2355.64 671360 687476 707868 729060 752076 779150
2361.42 806244 827700 847792 873522 900360 922240
2367.21 936744 945338 952254 957044 967310 980818
2372.99 983870 976272 966470 959934 961486 965792
2378.78 962216 954176 949994 948270 943476 934600
2384.56 928356 926272 927292 932738 941792 942476
2390.35 938080 943282 946994 946024 948616 951256
2396.14 959138 970832 974808 971386 975650 983096
2401.92 987468 995706 1008156 1027480 1047442 1048996
2407.71 1045614 1058984 1071850 1070534 1071250 1075640
2413.49 1078570 1086402 1094734 1103692 1119182 1127372
2419.28 1124832 1125764 1130202 1134802 1142480 1142244
2425.06 1126974 1098322 1067868 1045872 1032246 1020454
2430.85 1008028 992460 968750 944486 926114 912278
2436.63 901386 890378 878020 862730 847486 839388
2442.42 842380 851050 854400 857200 873810 907152
2448.20 951788 1002858 1059046 1113862 1174160 1242724
2453.99 1305704 1379124 1469230 1553310 1637110 1730648
2459.77 1830514 1927518 2008020 2076020 2148634 2226310
2465.56 2306782 2380182 2433070 2475254 2516514 2555510
2471.35 2589162 2613178 2638002 2657522 2658980 2658732
2477.13 2663282 2659634 2637580 2595656 2539032 2473604
2482.92 2404064 2325548 2236134 2153058 2080182 2002226
2488.70 1930584 1869968 1805174 1734542 1656370 1583414
2494.49 1526572 1469546 1399276 1317180 1234072 1157342
2500.27 1089274 1018298 933186 847650 774590 716678
2506.06 664884 607306 552640 510380 470980 424462
2511.84 377574 331792 292638 261942 227534 194690
2517.63 172270 151198 130424 118916 109894 102380
2523.41 100464 95000 93360 108190 119402 118656
2529.20 125174 140116 157660 173798 189206 209792
2534.99 232578 249572 258250 263412 279842 297974
2540.77 303460 311816 325018 329276 325058 321094
2546.56 317662 315230 320066 325534 325922 325664
2552.34 328032 325656 315752 305442 295158 284064
2558.13 266532 238482 219172 223556 227526 214516
2563.91 200634 192144 184306 174480 173464 179490
2569.70 181174 175694 167682 170272 175558 174838
2575.48 177716 185002 186212 181412 189046 209186
2581.27 226796 245246 264732 279378 298090 321448
2587.05 347382 375744 402316 441900 491094 536230
2592.84 586310 633234 677860 734248 792978 836904
2598.63 880628 932548 979672 1015764 1055090 1102170
2604.41 1137392 1149192 1154040 1168180 1189036 1215804
2610.20 1243790 1252918 1240798 1226232 1201640 1168250
2615.98 1148880 1130958 1092664 1054916 1033728 1004910
2621.77 963874 929292 900240 861950 816460 766116
2627.55 718760 685640 659266 629026 601068 571252
2633.34 541866 524630 506044 471918 431558 404492
2639.12 396236 387412 367270 345726 334536 324708
2644.91 310024 299442 296324 290054 283070 282268
2650.69 282780 285270 292964 305598 313034 319734
2656.48 338780 361782 380076 392064 401552 424014
2662.27 468802 514274 542382 559292 583126 622096
2668.05 662916 689110 718248 754540 779442 803020
2673.84 831206 851066 861772 870600 884966 920012
2679.62 970292 1005272 1026332 1045066 1065606 1078498
2685.41 1088002 1109860 1128176 1142262 1156236 1161868
2691.19 1169018 1175142 1159748 1123562 1089602 1063566
2696.98 1039488 1017152 994858 966068 943252 943548
2702.76 964170 988384 1004362 1002864 973248 933996
2708.55 909724 888808 862246 843882 836028 833376
2714.33 850550 877798 898426 913370 932704 956644
2720.12 971388 971920 970918 982196 1009992 1045614
2725.91 1075836 1097042 1111514 1129498 1147980 1166396
2731.69 1207460 1259528 1295100 1319156 1333504 1327428
2737.48 1319612 1333630 1362976 1384008 1386940 1397592
2743.26 1438724 1488538 1522482 1551394 1596258 1649104
2749.05 1705886 1758964 1787862 1795464 1812428 1840348
2754.83 1854764 1860094 1874224 1896208 1917932 1927706
2760.62 1913792 1882922 1862178 1856630 1857998 1860788
2766.40 1863310 1871362 1877734 1890618 1917380 1935286
2772.19 1935404 1929634 1929192 1927126 1928248 1933380
2777.97 1932208 1923182 1913732 1905580 1900556 1899184
2783.76 1909298 1923732 1922792 1915304 1909322 1898050
2789.54 1881432 1855112 1818590 1796110 1799972 1801250
2795.33 1782088 1763778 1756420 1748380 1743934 1744026
2801.12 1755144 1783962 1825466 1876382 1929450 1983868
2806.90 2049140 2116584 2184062 2255820 2351226 2468810
2812.69 2578272 2669556 2748308 2825226 2897942 2943614
2818.47 2989216 3051164 3097146 3133054 3187270 3243014
2824.26 3291608 3347510 3418504 3493542 3560624 3616216
2830.04 3661708 3701550 3740544 3773244 3813534 3875504
2835.83 3952312 4042606 4145476 4252468 4371604 4502910
2841.61 4642052 4779034 4891682 4989760 5112450 5249534
2847.40 5372730 5489964 5620796 5779634 5949984 6104918
2853.18 6249258 6382210 6508208 6620406 6708640 6798110
2858.97 6895154 6987310 7093138 7210406 7331884 7476432
2864.76 7653976 7880502 8173056 8531398 8946806 9438140
2870.54 10049920 10786790 11613260 12530880 13564670 14675910
2876.33 15798180 16864690 17779400 18476500 18936790 19166380
2882.11 19298480 19547410 20068850 20869660 21708460 22296010
2887.90 22678730 23090430 23602360 24147390 24648440 25071680
2893.68 25422720 25690250 25869650 26008230 26182600 26461800
2899.47 26889870 27382310 27793320 28103850 28430410 28865870
2905.25 29424180 30083830 30796110 31489970 32093350 32545700
2911.04 32843950 33037490 33170920 33233290 33108250 32666660
2916.82 32046000 31558950 31391250 31551280 31918090 32337670
2922.61 32718790 33014330 33219240 33352650 33477390 33691680
2928.40 34103580 34809070 35848930 37182150 38756880 40583320
2934.18 42668320 44882720 47012180 48849980 50304560 51448510
2939.97 52506690 53859070 55727900 57628120 59007700 60169460
2945.75 61647810 63478660 65223260 66267420 66371530 65902600
2951.54 65445980 65326490 65658000 66374880 66803850 66344100
2957.32 65695960 65617410 65902990 66235770 66601520 67179570
2963.11 68300350 69610650 70127800 70291480 71187100 72626900
2968.89 74248100 76221940 78896500 82529600 87075560 92202290
2974.68 97619450 103174200 108740700 114247800 119882600 126339000
2980.46 133840200 139036800 139110300 137413900 137073100 137726500
2986.25 138959600 140798100 142573600 143419600 144127000 146851000
2992.04 153489600 164899200 175642600 173853800 160640500 148047800
2997.82 139182000 131634500 124385700 117264800 110241200 103462800
3003.61 97323500 92126830 87614370 83557180 80056770 76960400
3009.39 73849210 70487200 66856210 63033400 59072240 55077360
3015.18 51135980 47314510 43702000 40373660 37348420 34612370
3020.96 32121980 29896360 27931300 26160940 24549180 23115270
3026.75 21871880 20822090 19897060 19030040 18210510 17492330
3032.53 16924250 16494940 16132800 15775440 15413120 15052730
3038.32 14681670 14322520 13998160 13691140 13383440 13115430
3044.10 12889400 12674530 12468490 12287340 12148050 12048260
3049.89 11952530 11854850 11759400 11672330 11584550 11477290
3055.67 11358080 11234320 11092070 10928740 10731720 10528070
3061.46 10346880 10165150 9968260 9768076 9561016 9355944
3067.25 9140762 8925386 8707796 8469978 8230090 7998450
3073.03 7778732 7561086 7310574 7054764 6810146 6570434
3078.82 6358646 6171528 5982988 5791532 5603882 5430320
3084.60 5283804 5161026 5031858 4897560 4776168 4650658
3090.39 4524138 4435504 4362790 4272820 4182506 4098540
3096.17 4013850 3941512 3875318 3806722 3740410 3670364
3101.96 3580420 3485346 3395278 3313582 3252048 3194648
3107.74 3115550 3020416 2918918 2826926 2763188 2718282
3113.53 2670920 2619722 2570910 2529032 2505298 2486580
3119.31 2451492 2402938 2353120 2321212 2295372 2277748
3125.10 2272910 2254798 2222506 2210544 2224390 2242948
3130.89 2248356 2243068 2228490 2199812 2160066 2135634
3136.67 2117324 2072840 2012970 1960942 1902646 1838874
3142.46 1786534 1754786 1741874 1733012 1702652 1656846
3148.24 1620618 1591276 1567894 1529474 1453204 1394952
3154.03 1373822 1353160 1330196 1307724 1278984 1259298
3159.81 1250262 1244892 1245390 1242560 1232466 1235306
3165.60 1257242 1273388 1266962 1260846 1276252 1301784
3171.38 1317506 1341938 1383790 1410648 1413810 1428312
3177.17 1457370 1494048 1527250 1537812 1534180 1542858
3182.95 1548976 1541158 1550246 1572838 1576982 1563270
3188.74 1545422 1538258 1535820 1515892 1480500 1455678
3194.53 1446478 1433430 1413124 1411522 1413914 1390576
3200.31 1352926 1313488 1280454 1252774 1223916 1210786
3206.10 1196952 1157110 1106626 1092548 1088948 1047192
3211.88 1003836 984640 973234 960998 934326 897864
3217.67 872622 852012 816166 784822 773050 765878
3223.45 758900 749084 725750 684744 633518 607836
3229.24 620586 643832 640426 604156 565078 547860
3235.02 543424 540866 537028 536750 522742 491888
3240.81 475810 468426 444418 412446 391610 380826
3246.59 357882 331882 324048 308434 273418 268530
3252.38 275618 251584 221272 195530 178208 170176
3258.17 157494 138286 125094 126786 130426 117888
3263.95 82764 55118 39298 35428 60366 86372
3269.74 77344 57412 57940 53030 45414 62166
3275.52 67666 44944 28772 42748 58672 49844
3281.31 45584 62252 75230 72886 61680 61992
3287.09 75900 88476 100384 102374 86580 69380
3292.88 70226 83232 87732 94438 103670 107628
3298.66 103306 92182 100942 130040 143918 135974
3304.45 129828 121724 98368 91778 109932 119862
3310.23 113114 101532 92062 94224 105876 115244
3316.02 108114 108184 128698 135862 111270 86792
3321.80 67574 54028 60670 76382 89650 92134
3327.59 79740 62826 49744 42932 54178 66354
3333.38 54632 51340 57886 51308 29464 4786
3339.16-6292-12914-14348-27438-35178-10604
3344.95 8362 12082 26758 58678 71274 67070
3350.73 78748 96106 111408 115264 120990 145904
3356.52 158760 142626 121028 123792 135314 128322
3362.30 103936 93314 111530 124146 121630 127374
3368.09 118992 83724 52996 36222 32066 31106
3373.87 8640-16082-19154-21852-36842-45602
3379.66-49766-68286-87820-89184-82252-72988
3385.44-63578-79248-95908-72156-30802-17610
3391.23-46822-82912-91572-73108-50520-35332
3397.02-38822-36584-13942-18552-51076-56444
3402.80-25506 3764 8634 7712 1590-17214
3408.59-23510-5160 10334 26554 53940 84326
3414.37 93836 86100 81566 92728 116182 124468
3420.16 122354 117318 117214 133526 141516 137434
3425.94 135448 146054 164924 173918 157020 142922
3431.73 168198 194658 179470 158428 171338 193518
3437.51 192824 177882 165206 151810 147358 157366
3443.30 162470 159440 137740 106380 117542 146242
3449.08 154664 159836 149910 124982 114722 126508
3454.87 134658 121744 103340 94574 80598 46644
3460.66 34912 60956 71944 48404 35602 44484
3466.44 43776 38200 21526 21644 38602 24234
3472.23 8918 33436 81160 121492 154826 206540
3478.01 273528 321908 367146 430370 519246 652920
3483.80 795012 918198 1048462 1204786 1393984 1622884
3489.58 1891032 2167142 2448232 2755988 3084948 3430816
3495.37 3783016 4144566 4544276 4966750 5340206 5651296
3501.15 5906536 6095986 6221148 6263942 6229298 6142938
3506.94 6018182 5888744 5825400 5906578 6161434 6530890
3512.72 6843840 6967302 6909504 6704866 6369774 5939602
3518.51 5443434 4918860 4409366 3896732 3386290 2931096
3524.30 2523686 2144952 1795074 1463982 1184792 957006
3530.08 729714 498976 293646 137770-3010-161042
3535.87-287338-356022-429428-521376-585148-618982
3541.65-667974-720042-753310-791002-836314-848588
3547.44-839968-854258-849344-832908-838866-836856
3553.22-826188-812622-801342-801428-806688-803954
3559.01-798378-788910-787484-797970-788528-791346
3564.79-849006-888252-870886-796766-700870-644504
3570.58-602706-569342-559268-555918-528726-494436
3576.36-478764-476282-484054-466960-401712-348228
3582.15-335220-320100-340472-423724-461562-456862
3587.94-411608-291916-215912-202014-220794-234754
3593.72-239276-225262-177300-161158-180378-181568
3599.51-176034-166976-135708-97072-86590-113196
3605.29-166724-219384-306104-397054-323836-241102
3611.08-302144-308206-245844-222392-209042-244000
3616.86-318744-414910-462970-355080-243970-204580
3622.65-182684-182412-213376-278856-463896-723160
3628.43-781102-537346-281868-228562-281968-294028
3634.22-239402-203414-221076-247278-238900-214444
3640.00-210882-230170-242252-246252-269728-352608
3645.79-491184-601252-728410-778970-659574-482172
3651.57-315690-238986-266266-433836-539036-387080
3657.36-238830-219890-217612-207146-212410-231880
3663.15-246304-239062-226368-263412-389682-547180
3668.93-753148-818582-515058-292926-439288-792790
3674.72-983050-735952-395938-311274-316714-267200
3680.50-221508-206934-196776-191006-196924-250310
3686.29-531718-894392-779288-495106-446934-365438
3692.07-260906-233710-215604-211690-218518-207058
3697.86-198876-219418-296360-368790-320690-228626
3703.64-200190-223420-248126-276662-367838-433798
3709.43-427446-569172-674906-472072-283068-237362
3715.21-214312-211626-231394-245398-231278-255810
3721.00-315440-291904-242420-280668-355704-364966
3726.79-268154-176682-160682-279966-527472-568090
3732.57-418314-427492-536952-600434-490542-315844
3738.36-246076-230510-227286-253172-601224-1218202
3744.14-1165682-533666-242012-418492-803836-810102
3749.93-655854-864866-771414-328744-125836-130054
3755.71-147668-119478-147988-216090-161330-51252
3761.50-13052-17878-50334-103376-82256-4700
3767.28-23654-166696-222660-94028 14494 40472
3773.07 51974 60342 48974 18962-42250-128944
3778.85-141470-52388 14984 21508-20330-53550
3784.64-36726-26004-42794-48308-37006-19492
3790.43-7896-3616-8342-33802-113932-198376
3796.21-171874-99108-108110-327748-680298-632488
3802.00-276652-89890-84766-282270-503294-372288
3807.78-111426-27038-16370-14008-28242-65162
3813.57-233068-600304-670156-317554-105038-170332
3819.35-403192-546748-377190-131314-38012-38290
3825.14-87214-95572-32906-7520-53516-151276
3830.92-180752-97508-115996-210878-207780-397840
3836.71-719132-560304-245852-190214-147490-99626
3842.49-118172-79490 38 40312 52556 36830
3848.28 2804-86096-377696-680820-944538-1186390
3854.07-789486-201424-52740-20448 23842 16574
3859.85-38944-83302-62264-120202-273378-247970
3865.64-73556-21132-188640-456146-443212-158776
3871.42-20476-91878-151940-73616 21458 45946
3877.21 20452-81302-197756-166044-60740-25614
3882.99-64622-231332-325144-158846-8608 25890
3888.78-25736-187754-229592-88528-2580 23098
3894.56 49938 55758 20988-82802-155176-129788
3900.35-172028-181142-152232-189926-120134-1706
3906.13 62368 93470 100714 113402 132948 124982
3911.92 100284 93862 109072 99148 38772 25234
3917.70 55120 34956 39402 98332 128392 121370
3923.49 103752 107520 133010 151630 150636 132686
3929.28 119006 108900 106140 146498 196252 220990
3935.06 233742 240088 242600 240616 242514 257898
3940.85 239852 211966 249570 278366 265744 253684
3946.63 234284 222376 272898 352846 368782 332234
3952.42 309676 321238 339724 339244 341286 365078
3958.20 374562 373160 373612 367566 354274 347164
3963.99 360504 387594 415872 431514 431270 445770
3969.77 473518 496524 523196 543148 549444
##END=
