##TITLE=Ethyl Acetate
##JCAMP-DX=4.24
##DATA TYPE=INFRARED SPECTRUM
##CLASS=IUPAC A
##ORIGIN=NIST, Anayltical Chemistry Division, 301-975-3108
##OWNER=COPYRIGHT (C) 1998 by the U.S. Secretary of Commerce
##DATE=98/10/1
##$SPECTRA VERSION=1.00
##$UNCERTAINTY IN Y=2.0 % relative (B=1.0E-04,C=6.3E-10,D=2.7E-14)
##CAS NAME=Ethyl Ester Acetic Acid
##CAS REGISTRY NO=141-78-6
##MOLFORM=C H3 C O2 C H2 C H3
##MP=-83.58 C
##BP=77.06 C
##$NIST SOURCE=QUANT-IR
##SPECTROMETER/DATA SYSTEM=IFS66V (Bruker)
##INSTRUMENT PARAMETERS=KBr Beam splitter; MCT Detector; Multipass cell
##STATE=gas
##SAMPLE DESCRIPTION=Ethyl Acetate Primary Gas Standard
##PRESSURE=101.3 kPa
##TEMPERATURE=23 C
##SAMPLING PROCEDURE=1 L/min Flow
##RESOLUTION=0.9640
##DATA PROCESSING=Triangular Apodization
##XUNITS=cm-1
##YUNITS=(micromol/mol)-1m-1 (base 10)
##XFACTOR=1.0
##YFACTOR=18.189E-13
##DELTAX=0.4820
##FIRSTX=575.169
##LASTX=3975.077
##FIRSTY=1.85E-07
##MAXX=3974.59
##MINX=575.17
##MAXY=.00197
##MINY=-4.07E-06
##NPOINTS=7053
##XYDATA=(X++(Y..Y))
575.17 101714 440300 704784 727530 503144 382960
577.58 783782 1006426 902018 884296 971618 1053240
580.47 1225578 1429110 1562380 1778280 1757920 1845422
583.37 2140006 2383358 2360550 2358784 2648294 2958912
586.26 3342858 3638954 3779722 3888388 4140544 4420516
589.15 4760298 5043912 5104594 5376146 5522032 5630704
592.04 6168262 6482654 6599654 6886172 7270200 7561204
594.94 8013076 8340194 8507998 8621968 8711182 9211788
597.83 9652738 9728164 9828778 10161720 10441370 10841480
600.72 11295880 11735460 12354680 13056680 14296280 15377780
603.61 15768370 16452660 17393870 18251150 18831080 19312310
606.51 19446260 18742930 17883160 17313990 16917220 16643400
609.40 16339560 16131540 16156530 16086870 15878700 15573000
612.29 15327400 15228290 15085930 14988150 15021620 15143050
615.18 15171660 15251670 15504060 15751270 16002960 16288790
618.08 16624270 17043150 17513780 18072120 18716430 19337590
620.97 20046290 20805460 21671510 22523080 23459210 24575470
623.86 25417650 26176130 26989590 27536590 27894340 28149970
626.76 28250670 28163970 27886370 27384950 26538770 25643870
629.65 24877300 24202830 24046050 24659730 25712650 26178270
632.54 25356920 23901110 22984110 22799890 22950440 23280500
635.43 23580720 23777400 23950970 24336060 24296500 23224220
638.33 22045330 21419510 21017140 20623310 20384680 20178000
641.22 19770940 19179600 18474480 17685500 16810630 15860790
644.11 14940500 13980950 12860160 11773240 10739810 9699556
647.00 8787670 7951274 7121100 6393030 5739954 5137986
649.90 4578438 4144020 3724586 3315464 3016190 2743416
652.79 2499330 2284532 2091558 1846498 1681560 1676390
655.68 1589258 1534454 1448942 1326450 1298670 1205362
658.58 1167360 1134242 1040238 970984 950840 902496
661.47 852088 780932 724908 772734 738140 624866
664.36 566094 533940 487994 585014 620884 525764
667.25 567174 549572 434924 421292 427440 436328
670.15 495220 476362 436934 448942 433784 395002
673.04 367628 405382 374560 358022 355246 273244
675.93 265046 349682 367436 324162 348744 305436
678.82 266534 272454 226920 207824 226902 210298
681.72 142534 139204 158358 232394 261076 211404
684.61 245808 201598 189564 193572 197920 245164
687.50 222552 220986 221628 191930 151258 177090
690.40 201662 217814 220758 123810 139228 189716
693.29 202358 167116 107830 116080 210646 277406
696.18 219076 212344 200090 139780 164402 148640
699.07 120758 121130 60562 54366 88588 117262
701.97 124568 122744 131380 132298 166680 189674
704.86 190482 199044 127266 88836 127848 163032
707.75 194558 208498 181802 158348 201480 190426
710.64 209582 265060 205126 195272 240264 246488
713.54 263222 237438 196800 223972 303452 307700
716.43 244234 268504 299494 270850 244948 259110
719.32 278700 315856 312316 288448 294600 281074
722.22 298116 313396 306392 293426 308332 295828
725.11 266164 295220 352402 374990 338158 296376
728.00 304100 346298 341870 378912 433444 422878
730.89 420262 418440 412052 432584 446860 451744
733.79 460446 470842 490642 446636 446658 484318
736.68 504180 540976 556720 549970 545088 549250
739.57 541606 547794 578178 612712 637812 669096
742.46 691272 691558 697880 689654 731492 800088
745.36 815790 845406 898080 939332 954880 948022
748.25 962522 1024922 1091920 1147668 1201776 1227068
751.14 1292726 1350258 1375456 1459202 1531326 1548824
754.04 1598966 1716994 1773152 1811508 1946442 2099874
756.93 2182562 2225072 2317942 2469450 2566634 2653522
759.82 2786872 2966688 3112344 3258576 3422046 3546662
762.71 3724082 3928218 4099632 4257854 4461810 4667296
765.61 4900618 5112138 5291568 5514932 5765178 6004666
768.50 6268346 6558808 6871818 7160860 7418450 7720000
771.39 8032826 8342438 8675330 9041164 9332574 9628346
774.28 9991128 10407220 10783240 11135750 11495120 11778890
777.18 12054890 12298780 12520120 12755310 13013330 13231680
780.07 13340890 13357300 13369980 13360990 13336540 13275310
782.96 13135850 12997220 12900310 12931220 13188510 13304920
785.86 13141860 13211480 13602490 14016360 14328310 14541590
788.75 14634250 14664400 14624210 14503330 14403960 14283140
791.64 14117710 13968700 13773620 13575410 13327090 13059480
794.53 12829800 12559840 12241190 11954980 11684890 11341020
797.43 11062560 10794660 10498370 10159750 9863932 9659768
800.32 9398144 9174854 8925202 8646456 8438058 8240186
803.21 8065162 7878314 7658514 7479576 7336536 7146322
806.10 6991220 6828310 6602866 6516644 6493890 6521328
809.00 6503972 6323892 6097540 5853090 5700268 5607422
811.89 5521394 5441106 5326796 5258652 5227540 5175978
814.78 5151942 5152312 5109300 5096786 5122218 5161024
817.68 5162608 5176482 5244358 5257370 5276160 5375560
820.57 5550420 5708630 5804576 5895186 6017774 6198276
823.46 6394204 6543298 6717680 6929102 7172082 7430866
826.35 7715028 7920614 8146188 8462112 8753848 9083426
829.25 9446314 9814638 10228290 10621790 10979950 11356750
832.14 11798310 12309460 12797040 13231990 13744860 14337820
835.03 14809340 15290680 15863940 16433270 17008520 17555050
837.92 18053160 18565090 19085130 19538400 20048940 20500460
840.82 20809640 21056580 21237130 21422990 21532810 21605970
843.71 21572840 21455410 21427500 21525700 21681720 21810720
846.60 21909030 22009860 22192430 22407610 22596040 22738950
849.50 22770510 22780440 22784600 22797200 22773550 22720940
852.39 22714350 22672600 22641400 22630090 22554130 22411970
855.28 22301970 22139350 21901060 21657060 21330690 20933620
858.17 20531980 20086490 19596330 19057640 18466110 17867370
861.07 17273520 16685560 16063090 15420020 14785710 14183270
863.96 13649830 13116470 12574450 12065490 11521980 11011130
866.85 10540570 10055580 9613952 9258490 8869280 8425608
869.74 8081400 7781928 7485622 7141510 6835608 6581408
872.64 6304078 6022160 5773346 5560526 5303526 5075416
875.53 4867190 4673404 4512528 4338502 4191834 4025162
878.42 3843218 3688700 3574684 3479090 3364586 3250076
881.31 3117752 3039132 2981556 2877242 2806926 2772312
884.21 2718012 2651494 2566080 2517774 2506392 2476342
887.10 2432922 2403340 2387186 2395828 2399788 2364990
889.99 2385364 2439848 2498170 2546694 2597296 2632424
892.89 2654572 2713132 2780346 2876450 3006402 3124860
895.78 3246158 3418198 3617060 3829268 4043402 4255528
898.67 4539960 4883984 5223448 5560950 5962114 6435670
901.56 6911656 7402838 7983190 8546836 9086104 9718486
904.46 10350650 10921660 11511840 12081600 12650520 13188220
907.35 13619050 14027550 14404620 14710470 14976450 15195950
910.24 15327520 15488430 15690290 15923610 16357780 16983600
913.13 17934720 19142830 19407370 18906270 18460230 18167080
916.03 18142040 18295110 18594180 18924060 19272210 19650580
918.92 20019970 20354210 20667190 20941790 21178860 21392180
921.81 21587190 21734000 21902460 22021630 22155920 22288750
924.71 22420870 22634890 22828570 23043120 23264430 23518770
927.60 23791460 24003090 24253970 24508450 24683700 24828370
930.49 24912820 24880950 24705740 24511830 24251090 23790040
933.38 23261940 22700400 22041920 21291860 20563120 19997290
936.28 19579770 19379580 19467360 19843640 20503650 21177900
939.17 20992830 19428320 17546860 16564880 16488390 16853670
942.06 17367030 17920400 18419240 18780490 18937810 18887110
944.95 18670380 18234030 17596580 16786700 15872920 14861460
947.85 13753730 12653760 11586760 10569280 9574534 8657908
950.74 7858382 7109510 6457932 5894080 5406420 4992522
953.63 4632470 4352712 4125912 3932600 3764230 3619010
956.53 3491044 3366932 3259518 3195132 3168070 3127422
959.42 3074330 3022808 2968122 2965486 2958670 2917100
962.31 2916974 2932684 2935330 2932664 2941922 2952140
965.20 2973750 2987914 3014028 3054566 3077200 3107206
968.10 3157146 3208886 3263396 3347364 3402196 3464982
970.99 3550524 3630850 3706602 3791734 3874662 3940824
973.88 4040136 4126142 4232498 4352002 4465170 4592320
976.77 4725712 4888196 5065374 5205994 5340494 5494092
979.67 5654466 5818566 6021474 6226986 6401838 6617004
982.56 6857850 7115672 7361126 7616472 7894486 8175552
985.45 8479806 8786014 9079728 9400170 9757476 10093890
988.35 10428620 10779670 11111300 11429440 11747360 12058530
991.24 12345980 12626040 12893350 13131750 13343850 13501500
994.13 13652980 13778560 13861080 13968420 14037940 14082300
997.02 14105250 14112040 14127490 14119140 14126240 14149920
999.92 14160190 14183730 14262660 14408810 14449720 14349140
1002.81 14298940 14318730 14309720 14280220 14315570 14380940
1005.70 14440350 14470510 14462670 14457900 14446930 14386200
1008.59 14277480 14184640 14078600 13907160 13743800 13598620
1011.49 13438900 13269430 13143150 13035140 12921060 12855990
1014.38 12824230 12847550 12893460 12953950 13077610 13229730
1017.27 13398400 13643930 13922870 14222430 14583010 14967620
1020.17 15352990 15774490 16266140 16791810 17367920 17970520
1023.06 18653620 19401590 20233260 21126320 22058680 23121040
1025.95 24254900 25476280 26857220 28341480 29912780 31614190
1028.84 33443680 35445740 37565820 39836910 42311800 44952680
1031.74 47814190 50887140 54153670 57646350 61309400 65162110
1034.63 69258630 73603970 78191730 82990210 87974190 93213230
1037.52 98694770 104418500 110356300 116583700 123011900 129599700
1040.41 136533200 143669000 150990600 158582400 166304300 174073100
1043.31 181898700 189602600 197165400 204583600 211944400 219306400
1046.20 226645100 233875700 240865300 247610200 254015400 260003500
1049.09 265407900 270311200 274724100 278472800 281743600 284745400
1051.99 287371100 289482500 290994500 292238900 293224400 294061200
1054.88 295159300 296476500 298044100 299831100 301501300 302571400
1057.77 302150700 299594900 295805600 292317400 290321100 289810000
1060.66 287740400 283984800 281097500 278221200 274617800 270313000
1063.56 265044200 258707700 251449200 243463500 234855100 225672500
1066.45 216269200 206854300 197457000 188220200 179015200 169861600
1069.34 160926500 152461300 144642000 137416500 130887800 124942100
1072.23 119401400 114344900 109791800 105642500 101808800 98323740
1075.13 94986710 91859020 89006310 86265620 83725360 81324330
1078.02 79075230 76932690 74865420 72946450 71124080 69432510
1080.91 67823540 66285890 64890490 63640470 62521030 61507690
1083.81 60610840 59825740 59161720 58633460 58218670 57903520
1086.70 57731980 57725960 57778600 57898160 58122190 58460250
1089.59 58911320 59476520 60142030 60885270 61599900 62381900
1092.48 63269810 64197930 65105100 65898440 66649560 67410610
1095.38 68196040 69049780 69837500 70231590 70160940 69675260
1098.27 69034660 68456270 67919980 67404200 66908890 66568900
1101.16 66563840 66906010 67716980 69152000 71208780 73680300
1104.05 74897360 72456180 67805070 64441610 62883420 62311250
1106.95 62355660 62686970 63100340 63552500 63900660 64072360
1109.84 64075010 63780990 63216820 62408170 61306040 59951060
1112.73 58351520 56575930 54613980 52534140 50414450 48247730
1115.63 46082990 43968460 41901980 39912520 38077060 36361410
1118.52 34772150 33353540 32080210 30921470 29833230 28773620
1121.41 27672000 26703400 26058180 25615860 25284970 25016580
1124.30 24742910 24424590 24039660 23575240 23049980 22466240
1127.20 21791310 21068750 20311850 19524610 18762710 18015640
1130.09 17297810 16563180 15858140 15207380 14568590 13999790
1132.98 13492730 12970700 12474310 12039710 11642430 11277670
1135.87 10934580 10614140 10329180 10117600 9899078 9678402
1138.77 9538452 9380208 9207168 9088754 8962602 8851364
1141.66 8776050 8712022 8646574 8587158 8559494 8530624
1144.55 8533596 8539214 8521052 8544838 8567606 8591488
1147.45 8636260 8665058 8664278 8683534 8746866 8794252
1150.34 8836800 8913702 8994856 9050132 9075416 9122580
1153.23 9202642 9267654 9345516 9425110 9498936 9582880
1156.12 9673498 9794242 9929850 10025450 10151660 10354930
1159.02 10552920 10773560 11039150 11357990 11677710 11893250
1161.91 11648310 11109530 10823410 10730300 10697730 10686530
1164.80 10663700 10629870 10651790 10704060 10709770 10714620
1167.69 10757290 10774310 10793500 10827040 10869830 10910300
1170.59 10924180 10962650 11010350 11050280 11087290 11077520
1173.48 11047490 11055880 11071990 11082570 11097300 11108030
1176.37 11104580 11096970 11104020 11150700 11249240 11341570
1179.26 11431880 11541770 11666300 11814340 11969670 12104610
1182.16 12223040 12355710 12510440 12660520 12812700 13006330
1185.05 13200130 13389070 13618410 13861900 14107160 14399760
1187.94 14714850 15043240 15400920 15788690 16250230 16724540
1190.84 17220370 17756960 18363940 19030910 19717690 20468260
1193.73 21249660 22086290 22987390 23967740 25035590 26172750
1196.62 27370830 28614940 29965120 31381120 32880170 34489250
1199.51 36168100 37949190 39775170 41704180 43747180 45841640
1202.41 48000860 50233700 52532430 54918050 57384950 59934960
1205.30 62593610 65303500 68094490 70942440 73836690 76798870
1208.19 79836110 82968270 86244840 89655900 93146640 96737030
1211.08 100446700 104266400 108199500 112181700 116227900 120421600
1213.98 124769100 129148600 133553300 138102700 142901500 148137000
1216.87 153998900 160585400 167838700 175691100 184224000 193567500
1219.76 203668400 214351600 225756600 237951800 251433000 265684100
1222.66 280040800 295644700 313045800 332012600 352425100 374217300
1225.55 397288800 421492500 446776000 473040400 500012900 527637500
1228.44 555665500 583917100 612225500 640171100 667790200 694805100
1231.33 720616600 745277400 768651000 790495200 810509800 828876300
1234.23 845710700 861225200 875884900 890036300 904830500 920640400
1237.12 937549400 956002400 976137900 997923500 1021234000 1045482000
1240.01 1068260000 1082103000 1080112000 1061911000 1033869000 1014360000
1242.90 1013819000 1023958000 1035566000 1047763000 1061080000 1072592000
1245.80 1080358000 1083028000 1078947000 1066843000 1049620000 1027758000
1248.69 1000372000 970862400 939689900 906008800 870458200 834457600
1251.58 799339600 765735100 734029100 704513500 677629200 652604900
1254.48 628651100 605713200 583172900 560526100 538017900 515703100
1257.37 493305400 470713300 448139800 425550300 403002600 380510000
1260.26 358110100 335988600 314358700 293555600 273929500 255699800
1263.15 239319600 225336600 214203800 206144000 200730000 195397300
1266.05 187333500 178346400 170117400 160969400 152883500 148250600
1268.94 145564700 143972900 143199500 142670300 141858600 140653600
1271.83 139019500 136781400 133945500 130539900 126512700 121978600
1274.72 117190200 112204700 106680300 100788900 95225110 90051000
1277.62 85126170 80444480 76060190 71997520 68227220 64700870
1280.51 61443270 58432150 55642260 53103610 50740500 48560200
1283.40 46586750 44785030 43162460 41684680 40330740 39201660
1286.30 38265240 37443600 36773590 36253640 35844210 35540340
1289.19 35377860 35341790 35399640 35538280 35757390 36049100
1292.08 36428060 36896880 37402190 37973330 38611080 39264530
1294.97 39932180 40634280 41397980 42175510 42949560 43740020
1297.87 44533510 45281050 46017020 46801800 47572300 48335490
1300.76 49148310 50015170 50929650 51913790 52867730 53625220
1303.65 54185980 54066960 53238880 52373450 51686920 51299670
1306.54 51233540 51364080 51637300 52051560 52614420 53216350
1309.44 53555690 53295650 52518120 51520580 50398440 49338760
1312.33 48464380 47672690 46943260 46328500 45782890 45236220
1315.22 44626260 43894730 43050420 42136080 41158240 40079610
1318.12 38824760 37465250 36044280 34553940 33073060 31565520
1321.01 30035560 28527580 27047670 25610430 24271630 23004890
1323.90 21777960 20617120 19527960 18519340 17574520 16721990
1326.79 15943090 15228030 14588710 14004280 13458890 12935450
1329.69 12477830 12055950 11661580 11328310 11003250 10717530
1332.58 10479680 10269190 10091920 9921832 9765066 9645298
1335.47 9557656 9447066 9372516 9344890 9312094 9269916
1338.36 9249462 9302236 9356978 9390998 9543682 9740740
1341.26 9923346 10161650 10418650 10721150 11084250 11507170
1344.15 12003350 12569960 13209810 13917130 14739550 15667470
1347.04 16689680 17797790 19023060 20408000 21918000 23568480
1349.94 25312310 27165550 29187140 31300090 33489510 35752740
1352.83 38088410 40465840 42847190 45216220 47509760 49730620
1355.72 51860240 53760280 55554300 57232360 58820700 60510390
1358.61 62392420 64690290 67628260 71368830 76316810 82743310
1361.51 89702530 94377550 96821650 100959700 107090900 113668500
1364.40 120303700 126132900 131287500 137175800 144127500 151473200
1367.29 158817800 165838600 172331100 178131600 183106700 187058600
1370.18 189856700 191728300 192927800 193457100 193416200 193272200
1373.08 193421600 193845400 194519500 195546500 196769500 197292300
1375.97 197573200 197434300 193888200 190265500 187852400 185245200
1378.86 185024500 186666100 188956500 191548500 194043300 196270000
1381.76 198123500 199183200 199096500 197980500 195823900 192471900
1384.65 188030700 182705600 176471700 169550500 161964600 154003700
1387.54 146630200 139182800 131626000 124333800 117264000 110638600
1390.43 104393000 98598660 93286270 88429060 83995050 80054940
1393.33 76545690 73241710 70927720 69304560 67350490 65059940
1396.22 62555920 60131120 57887580 56039370 54281760 52597340
1399.11 51577910 50831920 50003180 49212180 48523600 47996420
1402.00 47544500 47146240 46698400 46238020 45675780 44986250
1404.90 44437130 43800120 42994650 42138500 41225550 40303670
1407.79 39337510 38401870 37511380 36607450 35745310 34958680
1410.68 34207230 33496620 32878660 32332490 31817770 31367470
1413.58 30924790 30539950 30187990 29843660 29524060 29304840
1416.47 29032500 28746660 28629400 28493740 28009190 27334480
1419.36 27713040 28333200 28433680 28612690 28807370 29033250
1422.25 29201580 29237980 29118270 29061150 29198350 29398440
1425.15 29598010 29829770 30076200 30340410 30603840 30871010
1428.04 31142110 31406780 31549200 31682620 32047110 32395900
1430.93 32648730 32909940 33181420 33417220 33625260 33871600
1433.82 34081580 34343300 34539970 34700460 34483670 34146140
1436.72 34884340 35695590 35976320 36252260 36528820 36816220
1439.61 37103660 37416530 37712620 37951360 38194890 38452260
1442.50 38647150 38818610 39011160 39242080 39462330 39691050
1445.40 39907570 40092270 40299040 40455820 40473550 40816670
1448.29 41340840 41687600 42040480 42454060 42919560 43560730
1451.18 44381150 45343230 46540100 47476990 47410080 46597090
1454.07 45817050 45158910 44685450 44255600 42966760 42433510
1456.97 43550240 43827920 43857650 44368500 44769530 45336550
1459.86 45697050 45743430 45554960 45290670 45112620 45059030
1462.75 45121910 45328300 45389550 44735730 44410250 44575820
1465.64 44436460 44290710 44190840 44143200 44197250 44405040
1468.54 44686340 45101260 45595740 45787600 45479610 44728010
1471.43 43646710 43275140 42908380 41846600 41791220 42120360
1474.32 41978950 41882300 41590020 41267950 41346590 41381050
1477.21 41189650 40947540 40623180 40239910 39816920 39353500
1480.11 38806000 38181150 37580480 36987210 36270240 35469600
1483.00 34645480 33789460 32883320 31920670 30998150 30152340
1485.89 29464930 28783720 28048260 27616110 27241100 26846750
1488.79 26489730 26204130 26151980 25968020 25930990 25950830
1491.68 25729250 25426420 25034000 24606960 24156090 23656700
1494.57 23096500 22401240 21119430 20581190 20779500 20354560
1497.46 19841720 19071810 18407630 18227910 17908080 17459460
1500.36 17028870 16581610 16152690 15799230 15448930 15060780
1503.25 14692230 14297040 13961790 12987560 12069500 12468340
1506.14 11918180 11114450 11753810 11942350 11645940 11617730
1509.03 11429680 11238060 11158720 10995650 10840500 10457690
1511.93 10190800 10287560 10239640 10100940 9925846 9672988
1514.82 9581684 9518564 9265238 9016484 8781028 8761664
1517.71 8962412 8940650 8855310 8617014 8309094 8156326
1520.61 7363670 7497166 8164152 7904884 7994582 8210516
1523.50 8179222 8116452 7854680 7493626 7693450 7949702
1526.39 7808852 7659146 7672158 7586328 7525058 7589924
1529.28 7562568 7539646 7511068 7407048 7277176 7276974
1532.18 7155522 6909642 6694214 6753656 7063698 7135306
1535.07 7128856 7150206 7150238 7137674 7076092 7000056
1537.96 6567522 5522844 5953422 6351210 6053306 6799878
1540.85 7077324 6473600 6455882 7167936 7323014 7353882
1543.75 7466172 7255788 7040950 7348526 7567172 7573086
1546.64 7601290 7600538 7573150 7546144 7525398 7434420
1549.53 7375400 7527490 7742668 7848766 7861078 7798298
1552.43 7685910 7637234 7259456 6822400 7293834 7684550
1555.32 7732722 7749306 7696782 7240650 7020652 6546570
1558.21 6384246 7298194 7022106 6330168 7041942 7889150
1561.10 7960580 7957694 7906380 7871752 7773578 7670554
1564.00 7446316 7236804 7236092 7168790 7023650 6896482
1566.89 6764292 6659388 6525204 6380792 6121102 5862282
1569.78 6152516 6296602 6072826 5887756 5762890 5706624
1572.67 5684784 5644542 5622574 5547476 5479512 4989532
1575.57 3810290 4185642 5098122 5058190 4962704 4825064
1578.46 4706542 4550638 4401106 4233882 4100708 3997466
1581.35 3885330 3767782 3663842 3569106 3506096 3449718
1584.25 3368270 3288908 3248512 3212814 3166116 3130722
1587.14 3112806 3089752 3063156 3042390 3018442 2997566
1590.03 2978810 2960418 2930586 2917094 2911342 2894636
1592.92 2888754 2866046 2844410 2845872 2854834 2857488
1595.82 2841910 2861550 2895920 2878838 2856810 2854342
1598.71 2871826 2887658 2881448 2881120 2891330 2903778
1601.60 2925544 2949916 2953694 2952590 2982428 3014590
1604.49 3042772 3065430 3096648 3130508 3132998 3156988
1607.39 3205338 3244686 3256572 3228582 3281830 3338260
1610.28 3371810 3413144 3413792 3432574 3464810 3488594
1613.17 3533960 3563356 3587204 3567702 3561936 3269840
1616.07 2286304 2570468 3580054 3771670 3849452 3886900
1618.96 3928780 3968568 4011074 4030946 4074298 4091368
1621.85 4065580 4053378 3776510 3780610 4186404 4289388
1624.74 4337828 4382094 4393706 4402094 4388114 4228228
1627.64 4251270 4446358 4514248 4533854 4538748 4552450
1630.53 4559744 4557768 4559830 4550066 4556118 4541630
1633.42 4538188 4382892 4027394 3411800 3456842 4294082
1636.31 4544956 4436042 4481442 4662450 4741710 4783820
1639.21 4836912 4842166 4854868 4901092 4934908 4962154
1642.10 5000618 5042332 5046660 5069596 5062102 5068082
1644.99 4640544 4044970 4615510 4995056 4876108 4970712
1647.89 5005060 5188796 5327536 5345886 5372686 5339212
1650.78 5347532 5005484 3920270 3628962 3541862 4325930
1653.67 5138774 5113250 5614814 5834354 5941090 6008126
1656.56 6082074 6180614 6244488 6304744 6387938 6430962
1659.46 6477492 6529826 6588142 6600280 6650624 6469140
1662.35 6274990 6632846 6893416 6924156 6995212 7057456
1665.24 7122898 7178332 7229020 7257682 7283902 7240476
1668.13 7227594 6838810 6832360 7381778 7571770 7506600
1671.03 7432364 7651406 7834898 7907134 7986170 7995308
1673.92 7981212 7551636 7322362 7901780 8311890 8405530
1676.81 8481082 8547096 8623598 8681982 8731964 8760678
1679.71 8800164 8882690 9046290 9130808 9204940 9122424
1682.60 8892836 8880004 8954300 8013238 7858038 9328228
1685.49 9912258 10057330 10210490 10300640 10355010 10417370
1688.38 10601580 10738720 10756080 10837810 11030750 11142320
1691.28 11235100 11315500 11382120 11467100 11518120 11548020
1694.17 11491570 11204900 9999894 9901144 11284190 11672680
1697.06 11642260 11750300 11760100 11739570 11180110 10442930
1699.95 10536330 11146470 11946310 12348300 12517760 12667010
1702.85 12787030 12849620 12723530 12887730 13213210 13246890
1705.74 13138130 13336710 13660720 13848520 14018700 14170520
1708.63 14318320 14453560 14578350 14808150 15067060 15273740
1711.53 15480930 15679640 15881770 16052900 16145090 16380030
1714.42 16331330 16487270 16972570 17206980 16918100 16004030
1717.31 16608740 17296030 17205940 17639700 17879280 17981500
1720.20 18144060 18411830 18784160 19174930 19564320 20024730
1723.10 20708370 21696860 22780150 23868490 24979300 26082960
1725.99 27162100 28252500 29327670 30401330 31505240 32667850
1728.88 33856700 35047540 36513650 38210100 39944810 41758020
1731.77 43740900 45751930 47252460 50007440 52872510 55517580
1734.67 59840540 63988130 67888570 72053110 76478190 81159060
1737.56 86102980 91292170 96756910 102087800 107982600 115058300
1740.45 122136700 129314500 136932600 144888400 153144500 161882900
1743.34 171269400 181160800 191493900 202316600 213670400 225675400
1746.24 238176800 251285800 265299700 279778000 294912400 311077300
1749.13 327919200 345457000 363607600 381772400 401243300 422419400
1752.02 443534300 464807700 486251600 507660000 528885400 549566300
1754.92 569522400 588453600 605602500 620682200 633864000 644115300
1757.81 651041800 654900900 655334600 652278500 645855900 636178200
1760.70 623490000 607848800 591493700 576028400 563298400 555509400
1763.59 551565100 547186300 540518200 538996200 550075000 573084200
1766.49 603127300 634855400 663500100 687064400 704174900 713356400
1769.38 715182000 710634200 700349100 685517300 668015600 647176600
1772.27 624369000 601724500 577705300 552603400 527396100 502202100
1775.16 477198700 452854000 429215900 406318700 384385500 363455000
1778.06 343495000 324548800 306762700 289884600 273727600 258652800
1780.95 244600500 231152900 218347100 206088300 194337900 183172800
1783.84 172361900 161755600 151965100 142692300 133554200 124828200
1786.74 116539300 108668300 101197200 94119340 87405430 81069460
1789.63 75128660 69422660 64120770 59454900 54849100 50173940
1792.52 46560290 43542830 40390160 37467450 34778100 32308240
1795.41 30027100 28042840 26250690 24586490 23059600 21651400
1798.31 20365030 19089870 17979840 17150980 16308180 15440720
1801.20 14755040 14091370 13496840 13060240 12582940 12158950
1804.09 11786200 11440280 11127680 10837570 10585950 10347430
1806.98 10109700 9904798 9754912 9614654 9463136 9306542
1809.88 9097750 9001780 9008656 8929858 8849050 8811544
1812.77 8773874 8757378 8749814 8732808 8725398 8718508
1815.66 8720004 8722220 8680244 8681492 8738000 8756580
1818.56 8773288 8793214 8824376 8858320 8883978 8908638
1821.45 8930626 8942996 8961750 9004284 8996498 8999066
1824.34 8830150 8677960 8848636 8962758 8955758 8960446
1827.23 8966500 8987702 8947952 8941744 8919432 8835100
1830.13 9069512 9287872 9340124 9381908 9383512 9385512
1833.02 9384516 9384718 9364884 9344038 9323676 9306392
1835.91 9288782 9229264 9178804 9156438 9113922 9069352
1838.80 9016224 8969136 8907652 8821248 8771264 8698932
1841.70 8618870 8545782 8463952 8201072 7693784 7814786
1844.59 8133908 8093686 8068000 8000668 7913274 7772848
1847.48 7682932 7660034 7593050 7513954 7431042 7354124
1850.38 7274104 7179932 7098994 7000368 6916580 6852626
1853.27 6772278 6697838 6629856 6567838 6490190 6420260
1856.16 6372228 6302520 6229602 6181090 6149150 6109052
1859.05 6054360 6020036 5994490 5957056 5925190 5902170
1861.95 5880872 5847124 5818362 5787154 5756670 5728080
1864.84 5710734 5681966 5640966 5653686 5639126 5532828
1867.73 5566314 5567130 5332590 5388086 5577986 5564900
1870.62 5543012 5536998 5537376 5516744 5482664 5453852
1873.52 5438346 5442440 5443540 5432262 5436710 5461150
1876.41 5505396 5542996 5588040 5645236 5696544 5759586
1879.30 5809328 5867248 5934156 6002578 6072438 6116970
1882.20 6150880 6192164 6224166 6234304 6260624 6289336
1885.09 6297734 6300780 6320228 6324130 6335246 6339752
1887.98 6335032 6310664 6204262 6262002 6412580 6460594
1890.87 6497430 6528592 6577740 6640754 6693496 6723232
1893.77 6744832 6748224 6752734 6813426 6863748 6877542
1896.66 6895970 6936850 6961868 6962354 6953024 6953900
1899.55 6970998 6975038 6972016 6976502 6963620 6921966
1902.44 6867406 6827052 6807684 6770776 6731652 6681478
1905.34 6616370 6561092 6496874 6417678 6320216 6220122
1908.23 6140310 6050030 5908998 5784378 5690966 5560018
1911.12 5427814 5304358 5166820 5033064 4911656 4796636
1914.02 4680298 4562954 4435162 4304642 4187968 4079954
1916.91 3900228 3598576 3561668 3610884 3509580 3430370
1919.80 3334804 3260000 3193378 3101602 3005500 2922090
1922.69 2852284 2834026 2812112 2775544 2729634 2685266
1925.59 2640096 2595288 2550702 2512424 2478674 2425346
1928.48 2397196 2375786 2342846 2323690 2303286 2279564
1931.37 2241036 2202644 2185038 2158160 2136894 2114804
1934.26 2092378 2081488 2064252 2050300 2049978 2039792
1937.16 2029888 2023540 2033516 2033452 2024234 2021044
1940.05 2020952 2013738 2000834 1964186 1874710 1911090
1942.94 1996362 2004802 2019306 2030348 2022404 2011598
1945.84 2007652 2030680 2045476 2049686 2055774 2046696
1948.73 2045650 2060720 2073258 2073710 2060836 2052072
1951.62 2052548 2054236 2060788 2049846 2043576 2074438
1954.51 2086392 2078940 2089474 2101998 2118076 2127440
1957.41 2125950 2132072 2135390 2127926 2126084 2137524
1960.30 2133080 2118504 2120950 2127528 2128716 2117954
1963.19 2116472 2116150 2104102 2098682 2093046 2062306
1966.08 2068376 2061690 2036318 2068922 2080948 2070932
1968.98 2053466 2032876 2032630 2027234 2022028 2038466
1971.87 2041302 2034254 2031074 2029502 2020712 1994630
1974.76 1977958 1967882 1963462 1965810 1976168 1971136
1977.66 1951672 1941892 1922454 1907954 1893312 1877438
1980.55 1861572 1854082 1848338 1840300 1840166 1832302
1983.44 1827278 1815246 1832286 1845944 1841294 1820652
1986.33 1815728 1831276 1827094 1826502 1846000 1863040
1989.23 1885426 1909978 1899382 1891128 1864938 1879792
1992.12 1937574 1974770 2014040 2043380 2068264 2097382
1995.01 2117228 2129942 2183076 2231080 2256924 2307182
1997.90 2346736 2371610 2394962 2436400 2472712 2506134
2000.80 2543706 2576024 2606056 2633604 2661338 2685822
2003.69 2713076 2738528 2752544 2782606 2829610 2862006
2006.58 2886868 2905900 2942616 2998028 3027972 3042390
2009.48 3090154 3137210 3157768 3172050 3191294 3227664
2012.37 3252482 3289314 3327476 3345152 3358704 3350654
2015.26 3374854 3390472 3361476 3380222 3403874 3381212
2018.15 3355382 3340602 3321128 3308530 3301996 3294930
2021.05 3277896 3249640 3225728 3203762 3208084 3208700
2023.94 3163598 3098558 3044402 3011100 2970330 2938652
2026.83 2922280 2909626 2907350 2905142 2896224 2874772
2029.72 2840628 2790574 2755922 2741842 2691104 2621434
2032.62 2567804 2488612 2413740 2354082 2289060 2224378
2035.51 2165126 2102224 2035192 1988324 1939554 1900466
2038.40 1863648 1832634 1807000 1768844 1735198 1700784
2041.29 1678680 1657872 1639512 1627018 1596688 1573114
2044.19 1570446 1570478 1557662 1539626 1544836 1543100
2047.08 1548366 1560324 1553994 1555788 1559824 1568564
2049.97 1584512 1597270 1608086 1632758 1656976 1678140
2052.87 1692462 1699128 1715156 1740458 1762762 1776802
2055.76 1807908 1845736 1875730 1918762 1963992 2001714
2058.65 2042640 2086102 2135542 2174578 2229574 2287866
2061.54 2335784 2388394 2445194 2508642 2563496 2630810
2064.44 2708320 2778526 2859340 2960460 3061076 3150868
2067.33 3239016 3332966 3421352 3527168 3654944 3779642
2070.22 3905138 4039828 4176042 4320594 4471358 4591060
2073.11 4731694 4900710 5053754 5190898 5323546 5482244
2076.01 5647542 5771600 5866334 5971148 6095772 6222888
2078.90 6336230 6423082 6503536 6595390 6679220 6735528
2081.79 6809744 6917516 7028596 7142760 7224476 7302758
2084.69 7355266 7370564 7358034 7366648 7401350 7424904
2087.58 7476072 7551642 7625904 7683328 7712958 7716142
2090.47 7755200 7773242 7733784 7692148 7646186 7562164
2093.36 7461088 7339040 7178918 7057198 6939032 6795564
2096.26 6648726 6493066 6340100 6175134 5972662 5792460
2099.15 5669006 5551834 5424916 5277756 5137124 5000832
2102.04 4865120 4709070 4589926 4515940 4413960 4309806
2104.93 4210006 4086252 3986912 3873158 3719386 3654940
2107.83 3590384 3481304 3374276 3273066 3163716 3066024
2110.72 2928198 2805814 2765434 2687932 2587198 2496144
2113.61 2399822 2302766 2187248 2052464 2000206 1953882
2116.51 1887202 1821778 1768852 1728924 1654270 1549534
2119.40 1501672 1507822 1478482 1441692 1413604 1374786
2122.29 1343798 1292896 1223152 1225432 1236378 1220044
2125.18 1203220 1178344 1147350 1117764 1069380 1066476
2128.08 1083194 1064856 1052114 1037920 1029600 1008904
2130.97 962434 972342 996416 978422 985956 1004704
2133.86 1007786 1009110 1003008 1022650 1062894 1084124
2136.75 1103010 1134174 1175890 1216940 1238208 1253654
2139.65 1303728 1345108 1395550 1448354 1467082 1481930
2142.54 1518642 1560132 1576596 1592528 1620888 1656158
2145.43 1679118 1689316 1702850 1739872 1761056 1764900
2148.33 1785600 1814154 1834740 1842188 1835894 1862420
2151.22 1906840 1930470 1948570 1954206 1943800 1904460
2154.11 1886960 1917184 1939666 1949382 1963742 1979444
2157.00 1984408 1944238 1934844 1990388 2001386 1978818
2159.90 1963078 1940392 1900834 1835112 1830808 1853754
2162.79 1845414 1836680 1807494 1776122 1710776 1653644
2165.68 1706774 1739634 1707894 1704758 1710942 1654130
2168.57 1551602 1552140 1619188 1644768 1641374 1621794
2171.47 1614088 1564374 1537318 1593946 1601910 1594486
2174.36 1598796 1596188 1562100 1509946 1542192 1562766
2177.25 1554808 1553278 1556562 1536604 1459824 1478928
2180.15 1531376 1521290 1498346 1484996 1470776 1396216
2183.04 1384982 1417594 1403906 1389626 1375216 1347302
2185.93 1280074 1280812 1308814 1295288 1299472 1285248
2188.82 1258604 1207198 1188822 1209690 1183050 1150018
2191.72 1122278 1078836 1008320 989864 997748 964404
2194.61 923164 878046 830908 790488 789210 775298
2197.50 753806 748180 731048 710598 686918 701488
2200.39 724996 722194 717546 707470 692154 688106
2203.29 717862 728368 739994 767184 756302 739250
2206.18 760942 802684 822318 829324 851802 877342
2209.07 882430 896448 918876 924716 938588 950464
2211.97 941146 937694 952320 970118 977678 990698
2214.86 999140 1005474 1038624 1070182 1075186 1080432
2217.75 1097514 1104520 1117764 1138848 1168034 1191864
2220.64 1202766 1211488 1222572 1235420 1229108 1234594
2223.54 1246842 1257898 1289866 1320336 1338914 1361238
2226.43 1372284 1363848 1366030 1387644 1408114 1417102
2229.32 1420408 1422574 1421270 1418004 1422584 1427934
2232.21 1426522 1406098 1387494 1389916 1392682 1396868
2235.11 1366856 1336324 1329916 1327308 1326996 1318880
2238.00 1299678 1286314 1292856 1287242 1278404 1276298
2240.89 1266030 1244342 1228148 1232630 1235258 1221912
2243.79 1214878 1222836 1215112 1192632 1183026 1163626
2246.68 1146304 1138526 1124654 1096096 1074670 1065078
2249.57 1056542 1044680 1033394 1015574 992544 971058
2252.46 964416 955302 924374 907442 895240 869094
2255.36 848932 847104 831898 816434 796954 789076
2258.25 779936 777806 763270 736294 730922 721558
2261.14 714114 692484 675874 676462 679266 675048
2264.03 672344 667182 668972 676952 676846 667736
2266.93 668760 682098 676350 680730 696244 711416
2269.82 729548 723416 720322 738408 743528 741222
2272.71 738728 744962 755640 752004 760430 788362
2275.61 805792 814812 829694 832448 830544 849170
2278.50 867000 876606 902070 923268 949754 972498
2281.39 968102 977550 1001980 1016788 1041150 1073458
2284.28 1086766 1097174 1119930 1140476 1159686 1167826
2287.18 1178618 1219824 1274728 1296044 1294034 1298686
2290.07 1322740 1359356 1389308 1405956 1404422 1425494
2292.96 1456506 1473486 1475408 1487122 1510012 1512188
2295.85 1520476 1554316 1583714 1594774 1612960 1646616
2298.75 1670692 1685018 1689182 1700598 1709964 1713176
2301.64 1722640 1747150 1773090 1784434 1799520 1815484
2304.53 1826394 1839704 1843466 1844786 1855270 1851610
2307.43 1851112 1847616 1826634 1809510 1774426 1739202
2310.32 1732136 1722958 1703040 1687262 1673076 1655274
2313.21 1648020 1650874 1646664 1623306 1616952 1619782
2316.10 1600592 1577340 1571182 1550048 1515570 1491760
2319.00 1488786 1475462 1454468 1434954 1409436 1394244
2321.89 1372496 1341466 1330184 1320020 1288896 1259654
2324.78 1255624 1260566 1242540 1206392 1184760 1181272
2327.67 1151458 1129044 1135888 1132008 1109028 1093246
2330.57 1079600 1059836 1037796 1027848 1032596 1007472
2333.46 959432 958010 995112 991044 972096 975770
2336.35 957980 926702 923668 942320 915212 874218
2339.24 881434 887830 877912 865782 882806 901708
2342.14 876592 872792 882156 855620 839084 851226
2345.03 825050 783870 754190 728782 713184 691596
2347.92 678030 671386 671526 670284 653496 648262
2350.82 636440 627764 653926 644050 645938 672490
2353.71 660350 657494 672742 667814 673920 693536
2356.60 684844 688350 721700 718666 721240 751318
2359.49 746676 756082 781420 783420 806002 822194
2362.39 823816 842776 845568 849612 868374 877216
2365.28 901840 916974 907088 934588 945930 946054
2368.17 948082 944846 960924 962734 967856 957038
2371.06 958110 982548 973050 994786 1004582 985744
2373.96 990610 981304 981680 975016 962574 970550
2376.85 965872 959828 976046 981076 977290 971616
2379.74 960436 962712 959676 954018 960368 955842
2382.64 956038 958296 948408 938574 937836 936576
2385.53 939052 933582 930796 939902 940254 933000
2388.42 942094 959564 956964 959148 948304 932344
2391.31 938904 958986 966236 962330 947052 942448
2394.21 960852 969968 954476 951188 964346 966636
2397.10 971630 981864 989782 986130 986798 976608
2399.99 961544 986514 1002494 995218 987360 991160
2402.88 1002296 1003312 1011112 1015948 1017204 1033264
2405.78 1045010 1062518 1080922 1056060 1039512 1047160
2408.67 1047044 1069124 1085086 1084934 1089814 1069830
2411.56 1065956 1078004 1087652 1092336 1078272 1079230
2414.46 1090466 1092868 1101592 1107140 1107004 1096460
2417.35 1111032 1139052 1139248 1136034 1133758 1128316
2420.24 1128316 1125696 1135678 1149138 1136280 1128174
2423.13 1138206 1161232 1163376 1137170 1142144 1148492
2426.03 1124454 1102326 1080802 1074894 1069912 1045718
2428.92 1037032 1049492 1039644 1023688 1023652 1015074
2431.81 1010524 1008668 997112 975040 957408 959762
2434.70 941788 932410 937098 916086 912742 922894
2437.60 906700 894760 900196 893054 883802 873606
2440.49 869044 860082 847726 852670 854286 847426
2443.38 859024 875296 870750 870486 868572 862976
2446.28 872628 892754 896428 913058 949338 967842
2449.17 986760 1011482 1045000 1072620 1103578 1136178
2452.06 1138488 1176050 1221828 1262118 1303604 1307948
2454.95 1331384 1375676 1435202 1495234 1526570 1553358
2457.85 1595118 1643800 1685294 1735758 1782868 1829538
2460.74 1888356 1933628 1979550 2019256 2039868 2070934
2463.63 2104844 2146302 2196258 2224578 2249184 2305824
2466.52 2356434 2379370 2413238 2435210 2441242 2466152
2469.42 2497028 2515406 2529112 2545622 2568898 2594082
2472.31 2603400 2601050 2607276 2629498 2652136 2665404
2475.20 2661646 2641264 2642496 2650956 2659140 2655766
2478.10 2650566 2664708 2652072 2626762 2613966 2598000
2480.99 2563812 2525812 2508446 2471780 2427616 2397978
2483.88 2372202 2334652 2274664 2233178 2190478 2137154
2486.77 2115820 2093442 2054818 2001546 1946268 1926290
2489.67 1908640 1881688 1844186 1801442 1771294 1745190
2492.56 1712452 1658570 1608888 1577430 1559564 1535296
2495.45 1503138 1482006 1445374 1404608 1371446 1326056
2498.34 1269884 1240828 1208818 1160206 1118498 1097768
2501.24 1074594 1032906 994926 940086 889022 857922
2504.13 824586 777882 748466 724740 706602 688242
2507.02 649086 616366 588682 563062 535744 518690
2509.92 510286 491704 465748 430600 407140 397846
2512.81 371078 344176 322714 292720 286732 296726
2515.70 261334 231876 227116 205334 189138 189488
2518.59 180872 170604 157968 129992 132718 137664
2521.49 139602 126178 105130 115870 122828 110480
2524.38 113996 121612 104070 84436 101210 137602
2527.27 139546 135050 136006 124826 122438 135596
2530.16 155346 152146 146082 177350 187744 180972
2533.06 186986 203808 209522 210036 235206 252802
2535.95 251396 253304 272086 275548 266792 269348
2538.84 268408 280182 308052 329016 311872 295658
2541.74 311910 322608 327182 335226 342226 344632
2544.63 333440 330734 330368 329782 328428 330252
2547.52 327594 315170 317370 333244 342296 329962
2550.41 333850 337844 335046 330242 328586 340796
2553.31 342896 336734 330868 320782 314438 317896
2556.20 312382 303606 291884 294900 294988 278464
2559.09 270360 245654 228174 222682 213448 231438
2561.98 257324 253264 231052 210704 220362 218416
2564.88 197252 202758 201082 200650 194758 182478
2567.77 171800 175988 200744 195846 187624 191592
2570.66 193964 194386 188612 164384 165418 187998
2573.56 195806 192354 180202 185430 189286 184584
2576.45 190216 199510 205996 207210 192208 187308
2579.34 192076 192752 204488 234586 245802 223262
2582.23 239528 266380 267286 278144 292642 286926
2585.13 290362 310910 323894 339776 342530 349568
2588.02 376618 391660 413064 412684 403192 442616
2590.91 500234 516666 513214 533220 569422 605704
2593.80 627784 637776 662900 688062 698196 735678
2596.70 780512 813332 830792 840412 851020 880842
2599.59 918116 940614 959078 989692 1015004 1019964
2602.48 1021700 1049146 1091702 1109908 1122344 1151410
2605.37 1163450 1150966 1145510 1148652 1164428 1172872
2608.27 1178190 1192404 1199758 1211418 1236594 1250030
2611.16 1256606 1270746 1260070 1225404 1220086 1236706
2614.05 1241186 1211146 1169562 1165006 1159738 1146170
2616.95 1141538 1153652 1139336 1091904 1055110 1049318
2619.84 1051554 1046728 1032950 1013600 999644 964554
2622.73 933552 935306 934158 904436 894596 875512
2625.62 840662 823912 807204 783122 740152 717560
2628.52 712332 690810 684886 674070 660460 638306
2631.41 614748 606664 612612 596414 548244 543350
2634.30 541284 539210 535542 518076 510310 489724
2637.19 459142 438098 429108 404488 397184 425220
2640.09 412226 396430 398930 380988 368806 354152
2642.98 338412 349660 358818 339316 324244 323500
2645.87 321966 306812 302068 312732 325252 304462
2648.77 288664 290860 298660 306110 293694 291460
2651.66 299172 300148 307236 298578 302560 333650
2654.55 332224 330536 320540 325426 339908 353746
2657.44 370066 373558 383092 404060 401490 397036
2660.34 421670 417008 412504 420244 452674 493798
2663.23 504086 532620 553348 554940 565562 567378
2666.12 576418 589338 608814 631890 651234 688568
2669.01 704290 694738 693892 717790 757910 775286
2671.91 787460 787038 782130 815686 833112 841080
2674.80 853266 866882 872440 868242 867676 887452
2677.69 898252 875938 900040 923132 947872 997046
2680.59 1016260 1012752 1014518 1032214 1057750 1054562
2683.48 1045578 1067898 1105014 1107094 1069068 1072874
2686.37 1108454 1133462 1135464 1131656 1137214 1145286
2689.26 1158882 1173872 1175720 1157602 1163416 1179364
2692.16 1180570 1186574 1191108 1177270 1153112 1124132
2695.05 1106880 1098788 1086448 1076168 1058588 1051648
2697.94 1041470 1024240 1014818 1014872 1006294 973194
2700.83 957860 951220 944348 956496 959480 970944
2703.73 998674 1005116 1004966 1017468 1022286 1023370
2706.62 1018166 992588 953676 931170 930608 927668
2709.51 921538 900144 894700 890248 843526 846472
2712.41 875494 857230 844694 842850 840728 859868
2715.30 893462 909750 890068 905812 945966 930628
2718.19 909282 943756 982544 964468 976096 999698
2721.08 992006 993234 971100 983862 995038 990220
2723.98 1004042 1018670 1044984 1071332 1079928 1080892
2726.87 1106944 1123504 1117914 1121090 1130026 1138338
2729.76 1162120 1176122 1170536 1163462 1179916 1222806
2732.65 1254554 1281216 1302610 1311048 1312890 1325188
2735.55 1351446 1360940 1352134 1336614 1338940 1322886
2738.44 1318366 1356264 1365742 1370430 1399148 1412040
2741.33 1412618 1404046 1385548 1399068 1429250 1450024
2744.23 1481244 1517348 1532876 1536072 1549964 1559614
2747.12 1565174 1616108 1653820 1656632 1673326 1714494
2750.01 1764228 1777180 1783942 1816430 1819052 1791560
2752.90 1795366 1815938 1849004 1863806 1860438 1875232
2755.80 1873014 1858572 1869474 1895084 1897084 1901124
2758.69 1919034 1939208 1938984 1941930 1947826 1935390
2761.58 1920092 1884212 1870888 1876984 1876166 1875520
2764.47 1866234 1871614 1877000 1884188 1887536 1862186
2767.37 1871602 1905290 1898790 1896360 1887982 1882328
2770.26 1927508 1952160 1943498 1945500 1964446 1966708
2773.15 1937056 1928146 1953502 1954904 1944456 1947764
2776.05 1932454 1937646 1963408 1950240 1947008 1956908
2778.94 1957220 1932856 1926436 1944116 1932540 1918136
2781.83 1917194 1922102 1928330 1915160 1908554 1922248
2784.72 1940090 1963896 1951614 1938834 1929218 1933134
2787.62 1946426 1924338 1922536 1927774 1916420 1893468
2790.51 1892542 1903432 1860522 1832046 1820102 1809376
2793.40 1816992 1823612 1841240 1840982 1826562 1809260
2796.29 1786986 1777488 1793698 1803162 1775308 1771778
2799.19 1775066 1778916 1775298 1777284 1773374 1778148
2802.08 1800654 1811352 1844260 1855368 1871098 1909034
2804.97 1945624 1970946 1983016 1997842 2047474 2093468
2807.87 2117002 2146446 2171380 2225118 2263854 2270230
2810.76 2314518 2370496 2439848 2508974 2561788 2608880
2813.65 2655684 2695496 2741814 2786368 2801762 2833536
2816.54 2897330 2948112 2970082 2971376 2960216 3004202
2819.44 3058328 3083128 3123842 3140958 3131518 3144598
2822.33 3178662 3223962 3262342 3282710 3285118 3321370
2825.22 3360494 3368580 3397326 3459318 3497238 3521274
2828.11 3566678 3593066 3626984 3657754 3667276 3695780
2831.01 3732296 3727640 3743204 3791546 3815276 3805376
2833.90 3809432 3854462 3881354 3914696 3952426 3995980
2836.79 4038110 4068440 4136544 4203716 4237820 4290080
2839.69 4345520 4404930 4487784 4551878 4597138 4677654
2842.58 4765224 4827906 4892392 4945622 4982224 5017576
2845.47 5073998 5138180 5235854 5326542 5353890 5394838
2848.36 5490476 5548148 5577928 5652620 5740786 5817552
2851.26 5910216 6010190 6091546 6146430 6204094 6299106
2854.15 6396768 6425664 6463696 6561786 6635214 6693398
2857.04 6715870 6746834 6810558 6850782 6891060 6972950
2859.93 7027628 7030602 7080180 7157596 7239628 7301602
2862.83 7328058 7388288 7486126 7560320 7636106 7729954
2865.72 7830974 7961916 8101974 8241258 8425448 8629206
2868.61 8822978 9030206 9256350 9510638 9778194 10111850
2871.51 10474790 10850810 11274820 11686440 12089430 12553230
2874.40 13065770 13589680 14146580 14710430 15254940 15816910
2877.29 16347870 16877130 17415710 17811610 18151290 18502980
2880.18 18781480 18973410 19123690 19202790 19224320 19249910
2883.08 19356110 19514880 19698570 19982730 20371140 20855250
2885.97 21351520 21817580 22153010 22355470 22491590 22611210
2888.86 22803890 23068510 23315450 23562330 23873730 24145720
2891.75 24417050 24656780 24858810 25058980 25256390 25426380
2894.65 25559440 25713840 25811030 25870680 25933450 26003080
2897.54 26078080 26175590 26296860 26417270 26607570 26893860
2900.43 27153090 27429470 27676090 27825210 27983300 28127310
2903.32 28229160 28389500 28635280 28862300 29101100 29407730
2906.22 29725520 30070490 30429120 30777310 31144430 31481070
2909.11 31806760 32092170 32340200 32556190 32695050 32822530
2912.00 32911530 33007870 33093050 33125470 33183640 33237430
2914.90 33249190 33196730 33048190 32754160 32376250 32006140
2917.79 31753120 31567810 31409750 31382120 31445460 31594200
2920.68 31795210 31993390 32218020 32432940 32620120 32823090
2923.57 32990090 33111090 33222360 33333370 33412320 33466620
2926.47 33516380 33576620 33666080 33806300 33960240 34172570
2929.36 34505740 34886450 35369270 35939080 36572540 37293420
2932.25 38035870 38821500 39674020 40598220 41604850 42679750
2935.14 43812610 44918190 46005600 47063580 48043740 48928340
2938.04 49666770 50320180 50922470 51451800 51935340 52396330
2940.93 52937750 53628340 54440690 55566440 56858540 57871180
2943.82 58493280 58908920 59372300 59939850 60600470 61373970
2946.72 62290470 63319980 64299940 65211220 65942000 66350300
2949.61 66469500 66327960 66048300 65726430 65415660 65233700
2952.50 65190010 65165210 65232870 65442190 65773390 66255330
2955.39 66851200 67284880 67059060 66254950 65619200 65433480
2958.29 65474770 65613370 65791200 65975460 66159910 66327300
2961.18 66438710 66674180 66903860 67116610 67494910 68037740
2964.07 69054020 70265820 70749510 70370530 69956230 69949260
2966.96 70478540 71374520 72137270 72805790 73566170 74400720
2969.86 75281980 76280600 77454230 78826280 80512390 82478670
2972.75 84621900 87026740 89610940 92176800 94774990 97483180
2975.64 100242700 102992000 105749200 108490800 111224400 113887200
2978.54 116544300 119267900 122092400 125094300 128481800 132671300
2981.43 137992600 141561300 140179400 137588900 136546900 136106000
2984.32 136087800 136307600 136684400 137136200 137571100 138114100
2987.21 139012200 140097500 141372800 142537400 143041200 142986900
2990.11 142880300 143095800 143696200 145123100 147680600 151289500
2993.00 155844600 161575700 168903300 178835000 183966000 176322800
2995.89 164773000 156642900 150785100 146135100 142035400 138292000
2998.78 134633800 131021600 127408200 123825900 120369100 116920200
3001.68 113384300 109934900 106548700 103168800 99920610 96926060
3004.57 94237360 91931210 89814910 87611430 85379010 83338510
3007.46 81535900 79941080 78438060 76959880 75458060 73889110
3010.36 72239230 70520330 68712300 66851010 64991500 63071450
3013.25 61123660 59126910 57088120 55131200 53192580 51245060
3016.14 49314270 47405400 45596490 43834290 42130840 40540000
3019.03 38985760 37508290 36141270 34844330 33560170 32328990
3021.93 31168900 30091810 29120900 28169610 27268880 26429760
3024.82 25566960 24753490 24057370 23359640 22682520 22066250
3027.71 21532520 21066380 20583320 20132190 19696650 19255930
3030.60 18839460 18424600 18018250 17663400 17365010 17105990
3033.50 16866890 16677040 16493060 16327170 16158360 15941820
3036.39 15741250 15573500 15409160 15208900 15017650 14837960
3039.28 14643460 14438040 14279020 14146910 13979550 13839390
3042.18 13680070 13494730 13340690 13222330 13124690 13030180
3045.07 12901730 12777090 12682660 12583570 12483410 12384370
3047.96 12292010 12238360 12200760 12141790 12105740 12055310
3050.85 11978890 11933400 11904060 11840370 11780360 11744910
3053.75 11701730 11670230 11623860 11545810 11456980 11422900
3056.64 11385310 11283110 11234940 11157780 11057440 10998120
3059.53 10927220 10787880 10649620 10579860 10489720 10381090
3062.42 10329610 10253930 10096720 9997564 9934236 9836406
3065.32 9719086 9592176 9488452 9428924 9323508 9176816
3068.21 9065114 8960162 8879064 8785026 8646406 8498838
3071.10 8384936 8290520 8167462 8041264 7927634 7811324
3074.00 7717336 7647404 7519096 7340388 7214398 7096060
3076.89 6986300 6888302 6743100 6594216 6490332 6424406
3079.78 6321944 6215356 6136056 6047114 5944948 5830876
3082.67 5743132 5678180 5564002 5455360 5405718 5343098
3085.57 5252370 5212950 5176568 5097620 4993712 4933768
3088.46 4886778 4827660 4776994 4712586 4640484 4535528
3091.35 4499316 4491758 4452170 4426396 4377122 4313718
3094.24 4254182 4219736 4198740 4155276 4092490 4037380
3097.14 4021872 3992706 3932920 3925656 3900784 3825972
3100.03 3807896 3783968 3746714 3719718 3677082 3618422
3102.92 3562968 3515376 3476786 3447970 3393122 3328954
3105.82 3296128 3303576 3278228 3221996 3199428 3177472
3108.71 3097510 3038368 3025568 2966282 2899198 2841284
3111.60 2817088 2811292 2778230 2749966 2731100 2724196
3114.49 2684162 2641050 2624708 2615696 2600008 2545378
3117.39 2520706 2541740 2555612 2533378 2481926 2485746
3120.28 2486650 2435212 2396970 2375208 2362748 2352494
3123.17 2348858 2335878 2305330 2287024 2301608 2327426
3126.06 2302368 2286406 2285110 2226216 2224752 2248534
3128.96 2231962 2240536 2274630 2279946 2268458 2271880
3131.85 2274124 2272328 2254546 2252108 2246756 2234874
3134.74 2202836 2170068 2157498 2140214 2162832 2157386
3137.64 2128480 2104638 2056922 2022918 2000162 1996330
3140.53 1968374 1922386 1901136 1848708 1827896 1821756
3143.42 1782864 1763314 1767640 1775580 1761252 1741644
3146.31 1771368 1751528 1683896 1658778 1658912 1653042
3149.21 1629772 1613218 1585938 1578340 1593706 1592808
3152.10 1529836 1458518 1410564 1397458 1413094 1413448
3154.99 1396320 1369644 1358862 1353636 1347444 1342588
3157.88 1311676 1306772 1286396 1257484 1291142 1295098
3160.78 1251316 1258680 1275142 1266084 1273822 1271554
3163.67 1263244 1247614 1243660 1253690 1256184 1274330
3166.56 1310068 1305148 1291718 1294070 1267712 1279664
3169.46 1283604 1268494 1329660 1337050 1325996 1337486
3172.35 1334942 1343974 1378592 1407408 1423382 1460340
3175.24 1427782 1411270 1413174 1450250 1477370 1452334
3178.13 1482214 1512138 1529554 1549198 1558166 1555184
3181.03 1554240 1535460 1528202 1557646 1574016 1580756
3183.92 1563840 1529194 1537452 1562270 1575142 1595098
3186.81 1603314 1584554 1580978 1580886 1564978 1550708
3189.70 1541220 1544904 1550144 1553210 1556342 1528622
3192.60 1507390 1495112 1460542 1460438 1466094 1452880
3195.49 1460688 1461578 1429248 1420802 1392340 1413728
3198.38 1451060 1434746 1420940 1405734 1375450 1352620
3201.27 1363326 1331362 1284318 1274536 1299874 1282100
3204.17 1241250 1218212 1210258 1232946 1232658 1207888
3207.06 1196044 1187886 1150546 1097440 1062882 1092162
3209.95 1137806 1134490 1094400 1049498 1015960 1000908
3212.85 1014788 999622 983680 985100 982122 974862
3215.74 969340 961646 922070 898528 889384 879918
3218.63 884994 865588 865940 837934 782102 783554
3221.52 803588 782504 782390 788588 760436 765622
3224.42 780672 765916 747712 742692 722708 707768
3227.31 686744 626980 602616 620110 621700 620188
3230.20 641830 679978 670896 647900 655962 621534
3233.09 576400 563544 567206 556256 558808 558978
3235.99 544786 561420 551432 548530 538526 532090
3238.88 568250 571254 499762 469092 505382 481326
3241.77 473534 499996 481322 452034 435318 417194
3244.67 411284 405952 370196 402914 427818 355226
3247.56 326520 353630 337548 308824 350028 361070
3250.45 307240 253120 240750 268992 316608 320876
3253.34 277008 247914 235230 240498 234448 199314
3256.24 181052 189558 185790 195588 177800 155844
3259.13 172280 166076 123958 116878 135800 161092
3262.02 139482 111426 162750 162420 110574 77582
3264.91 66960 61516 76976 57596 32782 35484
3267.81 38710 74174 101164 115806 101774 101892
3270.70 81658 26786 55994 86622 90690 75780
3273.59 37200 37250 45928 83462 113922 82662
3276.49 56578 75562 32732 8314 48130 48074
3279.38 68260 88580 91384 49998 25062 52464
3282.27 69204 73738 82574 87768 99488 81156
3285.16 68530 87644 56524 46660 82082 111000
3288.06 89668 81946 99058 119240 124380 111904
3290.95 107532 100726 82442 71508 74862 60270
3293.84 84610 122456 99312 81188 94802 97710
3296.73 120810 119206 107354 113532 115846 132316
3299.63 116176 71552 93580 107310 109058 153788
3302.52 170028 145712 148322 164658 116976 104154
3305.41 174244 157382 100600 99082 92880 90132
3308.31 90298 132926 148196 125692 125682 112414
3311.20 118824 128622 93944 79792 102332 121376
3314.09 93920 95670 132290 146506 125826 105402
3316.98 104358 100174 122256 143004 144342 166404
3319.88 163618 85578 89060 101006 95792 91800
3322.77 47114 48708 58096 75080 89730 73008
3325.66 75756 119574 118254 75552 98286 117002
3328.55 65134 48632 73848 73828 42850 42400
3331.45 46012 48556 81714 101974 80104 55932
3334.34 28080 35302 98876 87138 41830 45244
3337.23 72182 68300 2982-24738 15806 27966
3340.13 410-20142-28376 10090 30288-11436
3343.02-64546-52820-8490 5164 33294 18284
3345.91 9372 24290 28936 8910 35770 87154
3348.80 93826 103632 66490 33306 78446 106022
3351.70 103334 88786 91296 138014 146418 115620
3354.59 105520 108640 133980 168580 167816 170238
3357.48 170820 149542 138306 110988 98964 135698
3360.37 152164 144744 138836 145514 137694 99100
3363.27 93328 81562 85742 141020 139348 133878
3366.16 137706 107448 109358 146604 148326 139616
3369.05 123302 65694 57264 71550 53010 40000
3371.95 21842 38604 49944 37432 53924 23574
3374.84-12896-34594-19072 13460-14150-14566
3377.73-15228-16448-52836-63226-22918-10670
3380.62-55416-76340-54548-86992-103234-80316
3383.52-62222-72322-74636-71834-72290-39198
3386.41-17238-70266-117412-106302-81590-68934
3389.30-47758-17278 4430 14290-8978-50696
3392.19-73356-63658-91520-119304-70760-43892
3395.09-49910-63838-32066-3914-17776-32992
3397.98-44746-58442-25996 14642 27074 6010
3400.87-37770-58722-69034-52434-44350-26712
3403.77 13232 35494 24002-2160-1422 38608
3406.66 18306-10218 26718 5750-54798-33306
3409.55-2042 13704 31714 9062 3630 37348
3412.44 61802 49726 52090 108398 137102 94468
3415.34 78844 91692 97548 93266 73852 81320
3418.23 109112 146808 143242 127568 114714 120432
3421.12 150380 138594 96214 96254 148816 141794
3424.01 155796 160172 131654 142140 152848 140044
3426.91 124062 149862 173892 173148 170854 186096
3429.80 202532 172888 135074 114524 134834 201764
3432.69 198982 195450 235622 214478 121488 131722
3435.59 195310 166856 177664 219168 227376 189882
3438.48 187066 186080 163060 187078 173330 149472
3441.37 143658 157856 143710 166042 196756 162364
3444.26 155852 164598 175158 182334 123638 70696
3447.16 83662 125658 165198 179558 156646 139636
3450.05 160746 180174 184300 155460 150880 125952
3452.94 100298 134798 123400 109092 160618 179320
3455.83 126358 107800 143518 117520 70220 113034
3458.73 116482 91358 105572 48878 4240 28786
3461.62 54688 96746 85360 89102 108178 49898
3464.51 22474 15390 60784 102856 54682 25890
3467.40 57476 59800 72850 52938-33714 6498
3470.30 86002 89158 56648 35098 15898 14546
3473.19 28312 32120 78132 119466 122036 143010
3476.08 155738 169546 196744 197962 246670 328128
3478.98 353378 325346 332548 394172 429512 447738
3481.87 486024 517636 579932 672846 766226 845514
3484.76 877418 909980 1003854 1085178 1123656 1208466
3487.65 1314992 1412212 1517628 1615804 1743594 1923292
3490.55 2068968 2173334 2296088 2451800 2594568 2757542
3493.44 2935100 3067170 3238346 3433414 3620800 3764212
3496.33 3925000 4148244 4302776 4468222 4730462 4988916
3499.22 5159288 5294486 5460978 5617630 5758870 5876944
3502.12 5978396 6045856 6108404 6207668 6239698 6224142
3505.01 6211000 6189846 6166132 6112610 6058654 5990960
3507.90 5911248 5868600 5795116 5742006 5787566 5848272
3510.80 5934684 6074142 6269254 6501746 6702306 6843252
3513.69 6924986 6917410 6899412 6879084 6776916 6656700
3516.58 6516264 6328308 6106378 5889144 5673064 5416388
3519.47 5143828 4857386 4602520 4405896 4173192 3883478
3522.37 3602360 3378074 3122780 2891508 2761692 2548918
3525.26 2299892 2146374 1982366 1817050 1662586 1464240
3528.15 1295408 1173286 1095512 1017736 869806 717324
3531.04 656358 555050 372706 287018 240698 159290
3533.94 93452 40550-24266-138640-258326-289228
3536.83-299630-323684-334892-389424-461954-509028
3539.72-543044-583920-594306-570720-586534-645070
3542.62-702422-720462-704718-711596-760146-778878
3545.51-753176-824216-888690-836394-814474-774852
3548.40-799110-880008-868622-844354-806124-752984
3551.29-827436-886836-805774-793492-834386-822576
3554.19-800638-794500-787858-795512-782244-767572
3557.08-798938-816330-788494-786572-781100-794658
3559.97-787028-787118-760094-741596-803596-791288
3562.86-802164-800068-747646-722052-774720-851366
3565.76-918662-925518-786624-854162-940298-786434
3568.65-686306-644740-661694-660020-616618-589794
3571.54-561774-560112-552758-541834-549102-552252
3574.44-576796-534226-461272-473630-492420-484268
3577.33-450360-451992-484592-473656-477868-501092
3580.22-454612-387662-327666-309924-342436-351580
3583.11-347178-311478-278976-304948-325740-410704
3586.01-586474-500480-336470-334850-574598-585062
3588.90-242302-185526-251598-239966-190492-169204
3591.79-176554-236516-275344-224274-205686-198894
3594.68-281676-279774-176034-152246-127304-132324
3597.58-187422-198358-177160-198880-150546-141748
3600.47-209366-180912-139362-134464-125730-92446
3603.36-56502-68798-105078-116836-118068-136280
3606.26-220328-267452-218612-168540-282348-662324
3609.15-516986-183030-188352-174974-172644-322884
3612.04-514612-338258-147734-185634-265110-256294
3614.93-222912-181446-152920-197168-335062-383918
3617.83-283820-246968-546616-717460-382062-234970
3620.72-268446-235104-209766-205666-200134-181282
3623.61-166628-166800-189166-213544-265278-249524
3626.50-274588-292880-639712-914452-639572-985568
3629.40-901618-355278-282552-215386-193058-212450
3632.29-230796-275482-380478-327702-252516-217220
3635.18-196996-182974-194954-211826-228122-291378
3638.08-257806-223524-224306-205296-202536-203030
3640.97-192442-235472-281988-235080-219484-248058
3643.86-251914-270906-273354-292302-388150-501950
3646.75-660276-635960-410770-571112-1162246-880708
3649.65-480498-657964-667152-529474-294814-246338
3652.54-265088-249884-229546-213168-259016-279342
3655.43-648658-897640-437682-245518-242956-192366
3658.32-220368-227034-234496-232290-205250-189754
3661.22-205394-202278-232118-228778-233160-253052
3664.11-273000-248364-207402-217790-233640-236956
3667.00-273026-296350-560958-671896-466368-428062
3669.90-1051224-1393228-628674-269186-233232-230636
3672.79-276108-334944-496496-902610-930480-1143648
3675.68-1295400-566394-341974-320132-254390-266888
3678.57-379982-407594-277150-236294-221682-228220
3681.47-211302-201670-214110-203940-187158-187414
3684.36-204206-191954-216924-230044-241078-307612
3687.25-505412-1415938-1443946-525336-322220-345016
3690.14-397806-619362-550654-264854-226086-239336
3693.04-247750-247196-246962-206798-175774-193006
3695.93-243982-241434-210354-197148-192586-195700
3698.82-200732-201818-228354-239070-315578-523252
3701.72-416570-253476-254122-201952-197066-174808
3704.61-191054-237596-250574-262198-252850-240720
3707.50-276466-296960-462792-618384-403618-282778
3710.39-367926-352028-816164-1120454-561800-272386
3713.29-249844-253472-297482-246624-205762-192910
3716.18-215406-219976-205676-202358-249968-308900
3719.07-236310-193152-216684-210022-243972-396214
3721.96-413284-279368-210522-162548-216844-329854
3724.86-323184-265162-439318-502456-286368-238096
3727.75-195254-146720-158544-166754-154172-186338
3730.64-246546-552972-1004436-673578-276960-285866
3733.54-310722-445524-561082-532444-376412-730080
3736.43-877494-386414-234610-293542-282434-261334
3739.32-233602-202738-221234-302128-250468-208850
3742.21-197546-296846-618702-1501548-2239244-1366806
3745.11-411746-266518-221626-241186-233080-273522
3748.00-299258-978112-1614784-864530-274528-337184
3750.89-353062-1154048-1654568-718712-229080-221810
3753.78-129416-111038-108092-92678-165444-259952
3756.68-134962-64800-68992-110128-152348-316352
3759.57-350970-121090-18326-29676-30158-1592
3762.46 6814-39092-36394-16324-9422-142756
3765.35-248716-81508 21662 17540 33612 15708
3768.25-7890-81632-427754-404724-64890-31462
3771.14-14524 49522 53546 24868 24164 53644
3774.03 76100 61814 58886 47600 42250 31996
3776.93 3912-41708-40800-86520-274706-229372
3779.82-38600-8578 48 21128 41296 31522
3782.71 30540-502-65100-111022-65486 11806
3785.60-1534-27498-26192-43046-62870-44280
3788.50-43422-39480-16408-22392-14828 7494
3791.39 468-21124 3746 4384-20392-21008
3794.28-39544-76456-122262-314544-303436-111746
3797.17-97878-89410-55370-106578-108242-176874
3800.07-232244-917212-1391148-549334-157574-220054
3802.96-140310-78622-40962-30964-85044-166602
3805.85-292690-885438-798854-189874-84924-40736
3808.75-26750-49250-30504-13056-13456-17834
3811.64-25252-22068-35876-87198-79332-125662
3814.53-155796-483172-1344424-1001522-209530-138860
3817.42-98190-111278-67150-87214-158856-431098
3820.32-627882-598916-717878-367632-36788-80078
3823.21-60176-43704-31224-11020-22438-70038
3826.10-189242-179472-31974 17366 12088-1338
3828.99-26324-45358-46886-88364-304280-350390
3831.89-83618 1094-35044-46112-109082-416822
3834.78-365710-54218-85244-126436-375086-1351622
3837.67-1186338-242252-103424-158048-188176-201906
3840.57-308736-151312-23090-39684-56068-214854
3843.46-221664-25464 6126-9738 36978 35350
3846.35 33510 72830 46388 35826 9520-6524
3849.24-46724-39502-70460-116320-720730-1204998
3852.14-556776-282580-955250-2017004-1654058-453480
3855.03-60044-10546-47854-124974-123340-14060
3857.92 44366 42780 21476 4610-3990 31402
3860.81-74112-241116-85508 25072-18646-58404
3863.71-95488-355006-583200-245190-48532-38390
3866.60 18814 20662-674-98420-294736-437448
3869.49-849708-663250-91838-48126 10872 26728
3872.39-6404-44878-184142-303234-152928-12598
3875.28 18564 46156 35570 46460 55260 30722
3878.17 3586-8246-113438-340210-308302-141902
3881.06-57570-7498-3896-42858-59252-14354
3883.96-12700-67426-499950-672590-197234 2164
3886.85 1212-1006-16828 35946 55710 19446
3889.74 14162-138644-519992-357418-51312-6172
3892.63 33760-25416-18836 36550 36884 54926
3895.53 76442 48682 51018 48126 1330 4540
3898.42-169198-365782-142652 4992 26980-142932
3901.31-475812-249064 25226 46256-154256-469564
3904.21-217624 28194-28764-38336 60414 97080
3907.10 67988 99964 120474 99992 83674 103786
3909.99 127988 152150 160952 131346 96882 96412
3912.88 95772 91278 90356 99516 140684 152128
3915.78 102128 38712-85042 2904 102882 81824
3918.67 130938 28732-81116 25658 114848 124334
3921.56 129198 142014 131618 125932 131874 105526
3924.45 65142 101964 152936 126402 148686 169650
3927.35 156418 157528 168652 125826 111056 125114
3930.24 122060 139276 119624 65132 81122 175606
3933.13 215402 198974 201912 238380 231448 231010
3936.03 250320 241146 239046 250528 249072 247064
3938.92 241916 230718 244430 250324 299916 322324
3941.81 191802 101300 207978 309712 320178 291720
3944.70 253464 256216 275642 273108 237360 243230
3947.60 262554 197678 159784 282644 348886 368760
3950.49 427348 372868 345538 349544 291194 286250
3953.38 327922 332596 322164 341210 388996 348628
3956.27 304498 326824 354962 384314 405926 376500
3959.17 347782 380298 388808 384112 371776 356384
3962.06 395524 361598 324668 358762 349436 358826
3964.95 383718 389692 405670 422980 432834 446964
3967.85 456360 416912 414584 440656 479538 495148
3970.74 479692 489554 500820 540274 542300 555936
3973.63 544138 541430 573828
##END=
