##TITLE=2-PROPENOIC ACID, BUTYL ESTER
##JCAMP-DX=4.24
##DATA TYPE=INFRARED SPECTRUM
##CLASS=COBLENTZ III
##ORIGIN=DOW CORNING CORP.
##OWNER=COBLENTZ SOCIETY
Collection (C) 2018 copyright by the U.S. Secretary of Commerce
on behalf of the United States of America. All rights reserved.
##DATE=1966
##NAMES=butyl acrylate
ACRYLIC ACID, BUTYL ESTER
##CAS REGISTRY NO=141-32-2
##MOLFORM=C7 H12 O2
##SOURCE REFERENCE=COBLENTZ NO. 4303
##$NIST SOURCE=COBLENTZ
##$NIST IMAGE=cob4303
##SPECTROMETER/DATA SYSTEM=PERKIN-ELMER 521 (GRATING)
##INSTRUMENT PARAMETERS=FILTERS AT 3150, 2500, 2000, 1150, 700, 410; GRATING CHANGES AT 2000, 630 CM^-^1
##STATE=SOLUTION (5% IN CCl4 FOR 3800-1300, 5% IN CS2 FOR 1300-600, AND 5% IN CCl4 FOR 600-240 CM^-^1) VERSUS SOLVENT
##PATH LENGTH=0.010, 0.010, AND 0.020 CM (CsBr CELL)
##SAMPLING PROCEDURE=TRANSMISSION
##RESOLUTION=4
##DATA PROCESSING=DIGITIZED BY NIST FROM HARD COPY (FROM TWO SEGMENTS)
##XUNITS=1/CM
##YUNITS=TRANSMITTANCE
##XFACTOR=1.000000
##YFACTOR=1
##DELTAX=1.280000
##FIRSTX=233.6
##LASTX=3799.68
##FIRSTY=0.805
##MAXX=3799.68
##MINX=233.6
##MAXY=0.889
##MINY=0.003
##NPOINTS=2787
##XYDATA=(X++(Y..Y))
233.600000 0.8050 0.8040 0.8020 0.8000 0.8000
240.000000 0.8020 0.8040 0.8050 0.8070 0.8090
246.400000 0.8110 0.8110 0.8110 0.8110 0.8110
252.800000 0.8110 0.8090 0.8090 0.8090 0.8090
259.200000 0.8070 0.8070 0.8050 0.8050 0.8040
265.600000 0.8040 0.8040 0.8020 0.8020 0.8000
272.000000 0.8000 0.8000 0.7980 0.7970 0.7970
278.400000 0.7930 0.7930 0.7910 0.7910 0.7900
284.800000 0.7900 0.7900 0.7900 0.7900 0.7900
291.200000 0.7900 0.7910 0.7910 0.7910 0.7950
297.600000 0.7950 0.7950 0.7970 0.7970 0.7950
304.000000 0.7910 0.7880 0.7840 0.7840 0.7830
310.400000 0.7830 0.7810 0.7810 0.7790 0.7790
316.800000 0.7810 0.7810 0.7840 0.7880 0.7930
323.200000 0.7930 0.7930 0.7880 0.7840 0.7840
329.600000 0.7840 0.7860 0.7860 0.7880 0.7880
336.000000 0.7840 0.7810 0.7760 0.7740 0.7690
342.400000 0.7650 0.7630 0.7620 0.7580 0.7560
348.800000 0.7560 0.7550 0.7550 0.7530 0.7530
355.200000 0.7530 0.7510 0.7500 0.7500 0.7500
361.600000 0.7500 0.7510 0.7530 0.7550 0.7600
368.000000 0.7630 0.7650 0.7759 0.7790 0.7830
374.400000 0.7880 0.7930 0.7950 0.7950 0.7970
380.800000 0.7980 0.7980 0.8040 0.8110 0.8120
387.200000 0.8160 0.8160 0.8190 0.8230 0.8230
393.600000 0.8250 0.8260 0.8260 0.8280 0.8280
400.000000 0.8280 0.8300 0.8280 0.8280 0.8280
406.400000 0.8260 0.8260 0.8260 0.8260 0.8260
412.800000 0.8250 0.8250 0.8230 0.8230 0.8210
419.200000 0.8190 0.8160 0.8160 0.8140 0.8120
425.600000 0.8110 0.8090 0.8050 0.8000 0.7880
432.000000 0.7830 0.7810 0.7810 0.7830 0.7860
438.400000 0.7880 0.7980 0.8020 0.8050 0.8070
444.800000 0.8090 0.8090 0.8090 0.8070 0.8070
451.200000 0.8070 0.8050 0.8040 0.8040 0.8040
457.600000 0.8050 0.8050 0.8070 0.8070 0.8070
464.000000 0.8090 0.8120 0.8140 0.8160 0.8160
470.400000 0.8160 0.8180 0.8180 0.8180 0.8180
476.800000 0.8190 0.8190 0.8190 0.8190 0.8190
483.200000 0.8190 0.8180 0.8160 0.8120 0.8110
489.600000 0.8090 0.8090 0.8090 0.8070 0.8040
496.000000 0.8000 0.8000 0.7980 0.7970 0.7900
502.400000 0.7880 0.7880 0.7880 0.7900 0.7900
508.800000 0.7900 0.7910 0.7980 0.8000 0.8050
515.200000 0.8110 0.8110 0.8110 0.8110 0.8110
521.600000 0.8110 0.8110 0.8120 0.8140 0.8140
528.000000 0.8140 0.8120 0.8120 0.8120 0.8120
534.400000 0.8120 0.8120 0.8120 0.8140 0.8140
540.800000 0.8140 0.8160 0.8160 0.8160 0.8180
547.200000 0.8180 0.8190 0.8230 0.8250 0.8260
553.600000 0.8280 0.8280 0.8300 0.8320 0.8320
560.000000 0.8320 0.8330 0.8350 0.8350 0.8350
566.400000 0.8370 0.8370 0.8370 0.8370 0.8390
572.800000 0.8400 0.8400 0.8400 0.8400 0.8390
579.200000 0.8390 0.8400 0.8420 0.8420 0.8400
585.600000 0.8400 0.8400 0.8420 0.8400 0.8400
592.000000 0.8400 0.8390 0.8370 0.8370 0.8390
598.400000 0.8390 0.8280 0.8250 0.8260 0.8280
604.800000 0.8280 0.8260 0.8250 0.8260 0.8320
611.200000 0.8370 0.8400 0.8470 0.8510 0.8510
617.600000 0.8530 0.8530 0.8530 0.8530 0.8510
624.000000 0.8490 0.8470 0.8470 0.8470 0.8470
630.400000 0.8490 0.8510 0.8530 0.8530 0.8530
636.800000 0.8530 0.8510 0.8510 0.8510 0.8510
643.200000 0.8510 0.8490 0.8470 0.8470 0.8470
649.600000 0.8420 0.8350 0.8320 0.8300 0.8280
656.000000 0.8260 0.8210 0.8140 0.8070 0.7980
662.400000 0.7950 0.7950 0.7970 0.7980 0.8000
668.800000 0.8020 0.8070 0.8110 0.8160 0.8330
675.200000 0.8440 0.8470 0.8599 0.8610 0.8630
681.600000 0.8650 0.8670 0.8670 0.8670 0.8680
688.000000 0.8700 0.8720 0.8720 0.8740 0.8740
694.400000 0.8740 0.8750 0.8750 0.8750 0.8770
700.800000 0.8770 0.8770 0.8770 0.8770 0.8750
707.200000 0.8750 0.8720 0.8720 0.8740 0.8750
713.600000 0.8750 0.8750 0.8750 0.8750 0.8740
720.000000 0.8720 0.8720 0.8610 0.8600 0.8580
726.400000 0.8580 0.8580 0.8560 0.8510 0.8421
732.800000 0.8230 0.8140 0.8070 0.8040 0.8050
739.200000 0.8189 0.8280 0.8370 0.8390 0.8440
745.600000 0.8460 0.8470 0.8490 0.8510 0.8510
752.000000 0.8530 0.8530 0.8560 0.8580 0.8580
758.400000 0.8600 0.8610 0.8610 0.8630 0.8630
764.800000 0.8630 0.8630 0.8610 0.8600 0.8600
771.200000 0.8600 0.8600 0.8600 0.8600 0.8600
777.600000 0.8580 0.8580 0.8580 0.8560 0.8530
784.000000 0.8420 0.8370 0.8330 0.8250 0.8230
790.400000 0.8180 0.8120 0.8070 0.8020 0.7881
796.800000 0.7700 0.7290 0.6921 0.6571 0.6381
803.200000 0.5683 0.5192 0.4195 0.3603 0.3600
809.600000 0.4120 0.4160 0.4629 0.5169 0.6147
816.000000 0.6688 0.7108 0.7339 0.7499 0.7649
822.400000 0.7770 0.7830 0.7860 0.7880 0.7910
828.800000 0.7930 0.7950 0.7950 0.7950 0.7970
835.200000 0.7970 0.7970 0.7970 0.7980 0.8000
841.600000 0.8070 0.8070 0.8090 0.8120 0.8140
848.000000 0.8140 0.8120 0.8120 0.8110 0.8110
854.400000 0.8090 0.8090 0.8090 0.8110 0.8110
860.800000 0.8120 0.8140 0.8140 0.8160 0.8180
867.200000 0.8180 0.8180 0.8180 0.8180 0.8190
873.600000 0.8250 0.8280 0.8350 0.8390 0.8400
880.000000 0.8400 0.8420 0.8460 0.8470 0.8470
886.400000 0.8470 0.8490 0.8510 0.8510 0.8510
892.800000 0.8470 0.8370 0.8330 0.8320 0.8260
899.200000 0.8250 0.8210 0.8180 0.8160 0.8120
905.600000 0.8110 0.8110 0.8090 0.8090 0.8110
912.000000 0.8160 0.8180 0.8230 0.8250 0.8280
918.400000 0.8330 0.8350 0.8350 0.8370 0.8370
924.800000 0.8370 0.8330 0.8320 0.8320 0.8280
931.200000 0.8250 0.8190 0.8120 0.8090 0.7951
937.600000 0.7790 0.7560 0.7480 0.7290 0.7011
944.000000 0.6831 0.6641 0.6570 0.6570 0.6570
950.400000 0.6590 0.6600 0.6600 0.6341 0.6061
956.800000 0.5691 0.5152 0.4454 0.3744 0.3055
963.200000 0.3050 0.3490 0.3650 0.4019 0.4838
969.600000 0.5099 0.5448 0.5470 0.5470 0.5400
976.000000 0.5270 0.4561 0.4021 0.3112 0.2442
982.400000 0.2440 0.2828 0.3039 0.3646 0.4206
988.800000 0.5060 0.6079 0.6589 0.6869 0.6990
995.200000 0.7060 0.7080 0.7130 0.7150 0.7180
1001.600000 0.7200 0.7250 0.7300 0.7360 0.7410
1008.000000 0.7430 0.7440 0.7440 0.7430 0.7390
1014.400000 0.7370 0.7300 0.7270 0.7230 0.7130
1020.800000 0.7130 0.7220 0.7270 0.7459 0.7460
1027.200000 0.7410 0.7340 0.7300 0.7250 0.7230
1033.600000 0.7220 0.7180 0.7110 0.6951 0.6851
1040.000000 0.6180 0.5820 0.5640 0.5620 0.5610
1046.400000 0.5610 0.5610 0.5590 0.5550 0.5401
1052.800000 0.5270 0.4940 0.4441 0.4161 0.4000
1059.200000 0.3861 0.3741 0.3720 0.3720 0.3740
1065.600000 0.3790 0.3810 0.3880 0.3960 0.4000
1072.000000 0.4817 0.5149 0.5429 0.5778 0.6336
1078.400000 0.6530 0.6950 0.7200 0.7410 0.7440
1084.800000 0.7530 0.7649 0.7700 0.7720 0.7809
1091.200000 0.7880 0.7900 0.7910 0.7980 0.8050
1097.600000 0.8090 0.8110 0.8110 0.8110 0.8090
1104.000000 0.8050 0.8020 0.7980 0.7970 0.7900
1110.400000 0.7770 0.7690 0.7600 0.7560 0.7550
1116.800000 0.7550 0.7560 0.7580 0.7670 0.7840
1123.200000 0.7860 0.7860 0.7810 0.7760 0.7690
1129.600000 0.7670 0.7650 0.7630 0.7600 0.7560
1136.000000 0.7550 0.7530 0.7500 0.7440 0.7390
1142.400000 0.7300 0.7220 0.7060 0.6950 0.6780
1148.800000 0.6710 0.6620 0.6590 0.6570 0.6550
1155.200000 0.6520 0.6410 0.6340 0.6320 0.6041
1161.600000 0.5871 0.5661 0.5481 0.5271 0.5061
1168.000000 0.4860 0.4590 0.4171 0.3861 0.3441
1174.400000 0.3091 0.2582 0.1943 0.1672 0.1183
1180.800000 0.0690 0.0540 0.0400 0.0151 0.0120
1187.200000 0.0100 0.0120 0.0130 0.0150 0.0190
1193.600000 0.0200 0.0270 0.0310 0.0410 0.1287
1200.000000 0.1938 0.2318 0.2599 0.2878 0.3178
1206.400000 0.3580 0.3810 0.4279 0.4629 0.5059
1212.800000 0.5548 0.5729 0.5989 0.6239 0.6409
1219.200000 0.6410 0.6500 0.6550 0.6590 0.6600
1225.600000 0.6590 0.6550 0.6530 0.6460 0.6390
1232.000000 0.6340 0.6320 0.6320 0.6290 0.6290
1238.400000 0.6270 0.6270 0.6270 0.6250 0.6240
1244.800000 0.6200 0.6040 0.5960 0.5780 0.5640
1251.200000 0.5401 0.5081 0.4801 0.4313 0.4032
1257.600000 0.3670 0.3600 0.3181 0.2951 0.2860
1264.000000 0.2721 0.2581 0.2272 0.2012 0.1762
1270.400000 0.1730 0.1550 0.1450 0.1450 0.1899
1276.800000 0.2179 0.2648 0.3038 0.3298 0.3697
1283.200000 0.4020 0.4190 0.4350 0.4450 0.4350
1289.600000 0.4121 0.3652 0.3182 0.2912 0.2582
1296.000000 0.2250 0.1900 0.1900 0.2648 0.3368
1302.400000 0.4207 0.5026 0.5149 0.5518 0.5848
1308.800000 0.6110 0.6360 0.6640 0.6660 0.6849
1315.200000 0.7039 0.7289 0.7389 0.7430 0.7430
1321.600000 0.7430 0.7440 0.7480 0.7530 0.7620
1328.000000 0.7829 0.7949 0.7970 0.7980 0.8000
1334.400000 0.8000 0.8000 0.8020 0.8070 0.8110
1340.800000 0.8140 0.8160 0.8160 0.8160 0.8160
1347.200000 0.8160 0.8160 0.8160 0.8160 0.8160
1353.600000 0.8160 0.8160 0.8160 0.8160 0.8160
1360.000000 0.8160 0.8160 0.8140 0.8140 0.8120
1366.400000 0.8090 0.8070 0.8040 0.7901 0.7860
1372.800000 0.7790 0.7690 0.7600 0.7321 0.7021
1379.200000 0.6432 0.6410 0.6430 0.6460 0.6480
1385.600000 0.6480 0.6500 0.6520 0.6710 0.6899
1392.000000 0.6900 0.6800 0.6641 0.6501 0.6341
1398.400000 0.6200 0.6110 0.4842 0.3513 0.2912
1404.800000 0.2302 0.1643 0.1182 0.0713 0.2141
1411.200000 0.3670 0.4350 0.5029 0.5100 0.5618
1417.600000 0.6288 0.6877 0.7009 0.7179 0.7528
1424.000000 0.7580 0.7600 0.7600 0.7580 0.7550
1430.400000 0.7510 0.7460 0.7390 0.7370 0.7390
1436.800000 0.7430 0.7460 0.7480 0.7510 0.7510
1443.200000 0.7440 0.7390 0.7271 0.7061 0.6812
1449.600000 0.6410 0.6080 0.6040 0.6010 0.5920
1456.000000 0.5571 0.5540 0.5500 0.5480 0.5450
1462.400000 0.5430 0.5330 0.5170 0.5080 0.5080
1468.800000 0.5170 0.5728 0.5800 0.5919 0.6357
1475.200000 0.6570 0.6690 0.6810 0.7079 0.7339
1481.600000 0.7599 0.7859 0.7969 0.8050 0.8090
1488.000000 0.8140 0.8180 0.8210 0.8260 0.8300
1494.400000 0.8320 0.8330 0.8350 0.8400 0.8420
1500.800000 0.8440 0.8460 0.8470 0.8490 0.8510
1507.200000 0.8530 0.8530 0.8540 0.8540 0.8540
1513.600000 0.8560 0.8560 0.8560 0.8560 0.8560
1520.000000 0.8580 0.8580 0.8580 0.8580 0.8580
1526.400000 0.8580 0.8580 0.8600 0.8610 0.8650
1532.800000 0.8680 0.8700 0.8700 0.8720 0.8740
1539.200000 0.8740 0.8740 0.8750 0.8750 0.8750
1545.600000 0.8750 0.8750 0.8750 0.8770 0.8770
1552.000000 0.8770 0.8770 0.8750 0.8750 0.8740
1558.400000 0.8740 0.8720 0.8720 0.8700 0.8700
1564.800000 0.8680 0.8670 0.8670 0.8650 0.8650
1571.200000 0.8650 0.8650 0.8650 0.8650 0.8630
1577.600000 0.8600 0.8600 0.8560 0.8560 0.8560
1584.000000 0.8560 0.8540 0.8540 0.8530 0.8530
1590.400000 0.8510 0.8490 0.8460 0.8420 0.8390
1596.800000 0.8350 0.8350 0.8320 0.8300 0.8280
1603.200000 0.8250 0.8210 0.8160 0.8090 0.8020
1609.600000 0.8000 0.7721 0.7630 0.7560 0.7371
1616.000000 0.7220 0.7040 0.6810 0.6600 0.6381
1622.400000 0.6171 0.6170 0.6449 0.6808 0.6870
1628.800000 0.6880 0.6850 0.6810 0.6780 0.6640
1635.200000 0.6082 0.5831 0.5611 0.5361 0.5360
1641.600000 0.6040 0.7289 0.7320 0.7440 0.7789
1648.000000 0.7790 0.7979 0.8000 0.8050 0.8110
1654.400000 0.8160 0.8180 0.8190 0.8210 0.8230
1660.800000 0.8230 0.8210 0.8210 0.8190 0.8180
1667.200000 0.8140 0.8140 0.8110 0.8090 0.8070
1673.600000 0.8020 0.8000 0.7980 0.7910 0.7880
1680.000000 0.7810 0.7770 0.7630 0.7530 0.7460
1686.400000 0.7360 0.7320 0.7320 0.7300 0.7300
1692.800000 0.7290 0.7290 0.7270 0.7200 0.7150
1699.200000 0.7060 0.6941 0.6801 0.6661 0.6551
1705.600000 0.6450 0.6270 0.5960 0.5900 0.5451
1712.000000 0.5191 0.4822 0.4313 0.3674 0.3263
1718.400000 0.2970 0.2091 0.1321 0.1041 0.0751
1724.800000 0.0411 0.0081 0.0050 0.0030 0.0030
1731.200000 0.0060 0.0120 0.0170 0.0240 0.0290
1737.600000 0.0410 0.0430 0.1445 0.1868 0.2645
1744.000000 0.3250 0.3740 0.4279 0.4819 0.5448
1750.400000 0.5689 0.5989 0.6527 0.6639 0.6809
1756.800000 0.6950 0.7110 0.7200 0.7270 0.7370
1763.200000 0.7549 0.7560 0.7620 0.7650 0.7700
1769.600000 0.7810 0.7830 0.7860 0.7970 0.8000
1776.000000 0.8020 0.8070 0.8090 0.8090 0.8110
1782.400000 0.8160 0.8180 0.8180 0.8190 0.8190
1788.800000 0.8230 0.8230 0.8260 0.8280 0.8280
1795.200000 0.8280 0.8300 0.8320 0.8330 0.8390
1801.600000 0.8420 0.8440 0.8470 0.8490 0.8490
1808.000000 0.8490 0.8490 0.8490 0.8490 0.8510
1814.400000 0.8530 0.8530 0.8530 0.8540 0.8540
1820.800000 0.8540 0.8540 0.8540 0.8560 0.8560
1827.200000 0.8560 0.8580 0.8580 0.8580 0.8580
1833.600000 0.8580 0.8580 0.8580 0.8600 0.8600
1840.000000 0.8600 0.8600 0.8600 0.8600 0.8580
1846.400000 0.8580 0.8580 0.8600 0.8610 0.8610
1852.800000 0.8610 0.8610 0.8610 0.8610 0.8610
1859.200000 0.8610 0.8610 0.8630 0.8630 0.8630
1865.600000 0.8630 0.8630 0.8630 0.8630 0.8630
1872.000000 0.8630 0.8630 0.8610 0.8600 0.8600
1878.400000 0.8600 0.8600 0.8600 0.8610 0.8610
1884.800000 0.8610 0.8600 0.8580 0.8580 0.8580
1891.200000 0.8580 0.8580 0.8580 0.8580 0.8580
1897.600000 0.8580 0.8580 0.8580 0.8580 0.8580
1904.000000 0.8580 0.8580 0.8600 0.8580 0.8580
1910.400000 0.8580 0.8580 0.8580 0.8540 0.8540
1916.800000 0.8530 0.8530 0.8490 0.8470 0.8420
1923.200000 0.8390 0.8350 0.8330 0.8320 0.8280
1929.600000 0.8260 0.8280 0.8330 0.8350 0.8370
1936.000000 0.8370 0.8390 0.8420 0.8420 0.8460
1942.400000 0.8470 0.8490 0.8490 0.8530 0.8530
1948.800000 0.8530 0.8530 0.8530 0.8540 0.8540
1955.200000 0.8560 0.8560 0.8560 0.8580 0.8580
1961.600000 0.8560 0.8580 0.8580 0.8580 0.8580
1968.000000 0.8610 0.8610 0.8600 0.8600 0.8580
1974.400000 0.8580 0.8580 0.8630 0.8670 0.8670
1980.800000 0.8630 0.8610 0.8610 0.8630 0.8630
1987.200000 0.8630 0.8630 0.8630 0.8650 0.8650
1993.600000 0.8680 0.8700 0.8720 0.8740 0.8750
2000.000000 0.8750 0.8750 0.8750 0.8745 0.8740
2006.400000 0.8710 0.8680 0.8675 0.8670 0.8660
2012.800000 0.8650 0.8650 0.8650 0.8650 0.8650
2019.200000 0.8650 0.8650 0.8650 0.8650 0.8650
2025.600000 0.8650 0.8650 0.8650 0.8650 0.8650
2032.000000 0.8650 0.8650 0.8650 0.8650 0.8650
2038.400000 0.8650 0.8630 0.8610 0.8610 0.8610
2044.800000 0.8610 0.8610 0.8605 0.8600 0.8600
2051.200000 0.8600 0.8600 0.8600 0.8605 0.8610
2057.600000 0.8620 0.8630 0.8630 0.8630 0.8630
2064.000000 0.8630 0.8630 0.8630 0.8620 0.8610
2070.400000 0.8610 0.8610 0.8610 0.8610 0.8610
2076.800000 0.8610 0.8610 0.8610 0.8610 0.8610
2083.200000 0.8610 0.8610 0.8610 0.8610 0.8610
2089.600000 0.8610 0.8620 0.8630 0.8630 0.8630
2096.000000 0.8630 0.8630 0.8630 0.8630 0.8630
2102.400000 0.8630 0.8630 0.8630 0.8630 0.8630
2108.800000 0.8630 0.8630 0.8630 0.8630 0.8640
2115.200000 0.8650 0.8650 0.8650 0.8650 0.8650
2121.600000 0.8650 0.8650 0.8650 0.8650 0.8650
2128.000000 0.8650 0.8650 0.8650 0.8650 0.8650
2134.400000 0.8650 0.8650 0.8640 0.8630 0.8630
2140.800000 0.8630 0.8630 0.8630 0.8630 0.8630
2147.200000 0.8640 0.8650 0.8650 0.8650 0.8650
2153.600000 0.8650 0.8650 0.8650 0.8650 0.8650
2160.000000 0.8650 0.8650 0.8660 0.8670 0.8660
2166.400000 0.8650 0.8640 0.8630 0.8615 0.8600
2172.800000 0.8600 0.8600 0.8580 0.8561 0.8560
2179.200000 0.8560 0.8585 0.8610 0.8620 0.8630
2185.600000 0.8630 0.8630 0.8620 0.8610 0.8610
2192.000000 0.8610 0.8610 0.8610 0.8610 0.8610
2198.400000 0.8610 0.8610 0.8620 0.8630 0.8640
2204.800000 0.8650 0.8650 0.8650 0.8660 0.8670
2211.200000 0.8670 0.8670 0.8660 0.8650 0.8650
2217.600000 0.8650 0.8660 0.8670 0.8670 0.8670
2224.000000 0.8670 0.8670 0.8670 0.8670 0.8670
2230.400000 0.8670 0.8670 0.8670 0.8675 0.8680
2236.800000 0.8680 0.8680 0.8680 0.8680 0.8675
2243.200000 0.8670 0.8670 0.8670 0.8670 0.8670
2249.600000 0.8670 0.8670 0.8660 0.8650 0.8640
2256.000000 0.8630 0.8630 0.8630 0.8640 0.8650
2262.400000 0.8660 0.8670 0.8670 0.8670 0.8660
2268.800000 0.8650 0.8650 0.8650 0.8660 0.8670
2275.200000 0.8670 0.8670 0.8670 0.8670 0.8650
2281.600000 0.8630 0.8620 0.8610 0.8610 0.8610
2288.000000 0.8610 0.8610 0.8610 0.8610 0.8610
2294.400000 0.8610 0.8610 0.8610 0.8610 0.8610
2300.800000 0.8620 0.8630 0.8620 0.8610 0.8610
2307.200000 0.8610 0.8610 0.8610 0.8610 0.8610
2313.600000 0.8610 0.8610 0.8610 0.8610 0.8610
2320.000000 0.8610 0.8610 0.8610 0.8610 0.8610
2326.400000 0.8610 0.8610 0.8610 0.8610 0.8610
2332.800000 0.8610 0.8610 0.8610 0.8610 0.8610
2339.200000 0.8610 0.8610 0.8610 0.8610 0.8610
2345.600000 0.8610 0.8605 0.8600 0.8600 0.8600
2352.000000 0.8600 0.8600 0.8590 0.8580 0.8570
2358.400000 0.8560 0.8560 0.8560 0.8560 0.8560
2364.800000 0.8560 0.8560 0.8560 0.8560 0.8570
2371.200000 0.8580 0.8570 0.8560 0.8560 0.8560
2377.600000 0.8550 0.8540 0.8540 0.8540 0.8550
2384.000000 0.8560 0.8560 0.8560 0.8560 0.8560
2390.400000 0.8560 0.8560 0.8560 0.8560 0.8560
2396.800000 0.8560 0.8560 0.8560 0.8570 0.8580
2403.200000 0.8580 0.8580 0.8590 0.8600 0.8590
2409.600000 0.8580 0.8590 0.8600 0.8600 0.8600
2416.000000 0.8590 0.8580 0.8580 0.8580 0.8580
2422.400000 0.8580 0.8580 0.8580 0.8580 0.8580
2428.800000 0.8580 0.8580 0.8580 0.8580 0.8590
2435.200000 0.8600 0.8600 0.8600 0.8590 0.8580
2441.600000 0.8580 0.8580 0.8580 0.8580 0.8580
2448.000000 0.8580 0.8580 0.8580 0.8580 0.8580
2454.400000 0.8580 0.8580 0.8590 0.8600 0.8600
2460.800000 0.8600 0.8590 0.8580 0.8570 0.8560
2467.200000 0.8550 0.8540 0.8540 0.8540 0.8540
2473.600000 0.8540 0.8540 0.8540 0.8540 0.8540
2480.000000 0.8540 0.8540 0.8540 0.8540 0.8540
2486.400000 0.8540 0.8550 0.8560 0.8560 0.8560
2492.800000 0.8560 0.8560 0.8560 0.8560 0.8550
2499.200000 0.8540 0.8540 0.8540 0.8540 0.8540
2505.600000 0.8540 0.8540 0.8540 0.8540 0.8540
2512.000000 0.8540 0.8540 0.8540 0.8550 0.8560
2518.400000 0.8560 0.8560 0.8560 0.8560 0.8560
2524.800000 0.8560 0.8560 0.8560 0.8560 0.8560
2531.200000 0.8550 0.8540 0.8540 0.8540 0.8540
2537.600000 0.8540 0.8540 0.8540 0.8540 0.8540
2544.000000 0.8540 0.8540 0.8540 0.8540 0.8540
2550.400000 0.8540 0.8540 0.8540 0.8540 0.8540
2556.800000 0.8540 0.8540 0.8550 0.8560 0.8560
2563.200000 0.8560 0.8550 0.8540 0.8540 0.8540
2569.600000 0.8540 0.8540 0.8540 0.8540 0.8540
2576.000000 0.8540 0.8540 0.8540 0.8540 0.8540
2582.400000 0.8535 0.8530 0.8520 0.8510 0.8510
2588.800000 0.8510 0.8510 0.8510 0.8510 0.8510
2595.200000 0.8510 0.8510 0.8510 0.8510 0.8520
2601.600000 0.8530 0.8535 0.8540 0.8540 0.8540
2608.000000 0.8535 0.8530 0.8530 0.8530 0.8530
2614.400000 0.8530 0.8530 0.8530 0.8535 0.8540
2620.800000 0.8540 0.8540 0.8540 0.8540 0.8540
2627.200000 0.8540 0.8535 0.8530 0.8530 0.8530
2633.600000 0.8535 0.8540 0.8540 0.8540 0.8540
2640.000000 0.8540 0.8535 0.8530 0.8530 0.8530
2646.400000 0.8530 0.8530 0.8535 0.8540 0.8540
2652.800000 0.8540 0.8535 0.8530 0.8530 0.8530
2659.200000 0.8530 0.8530 0.8530 0.8530 0.8530
2665.600000 0.8530 0.8530 0.8530 0.8530 0.8530
2672.000000 0.8530 0.8530 0.8530 0.8530 0.8530
2678.400000 0.8530 0.8530 0.8530 0.8520 0.8510
2684.800000 0.8510 0.8510 0.8520 0.8530 0.8530
2691.200000 0.8530 0.8530 0.8530 0.8520 0.8510
2697.600000 0.8510 0.8510 0.8510 0.8510 0.8510
2704.000000 0.8510 0.8510 0.8510 0.8510 0.8510
2710.400000 0.8510 0.8510 0.8510 0.8510 0.8500
2716.800000 0.8490 0.8490 0.8490 0.8490 0.8490
2723.200000 0.8490 0.8490 0.8490 0.8490 0.8480
2729.600000 0.8470 0.8470 0.8470 0.8465 0.8460
2736.000000 0.8450 0.8440 0.8440 0.8440 0.8450
2742.400000 0.8460 0.8460 0.8460 0.8465 0.8470
2748.800000 0.8470 0.8470 0.8470 0.8470 0.8465
2755.200000 0.8460 0.8460 0.8460 0.8460 0.8460
2761.600000 0.8460 0.8460 0.8460 0.8460 0.8460
2768.000000 0.8460 0.8450 0.8440 0.8440 0.8440
2774.400000 0.8440 0.8440 0.8440 0.8440 0.8440
2780.800000 0.8440 0.8430 0.8420 0.8420 0.8420
2787.200000 0.8420 0.8420 0.8410 0.8400 0.8400
2793.600000 0.8400 0.8385 0.8370 0.8360 0.8350
2800.000000 0.8340 0.8330 0.8325 0.8320 0.8310
2806.400000 0.8300 0.8300 0.8300 0.8290 0.8280
2812.800000 0.8270 0.8260 0.8255 0.8250 0.8240
2819.200000 0.8230 0.8220 0.8210 0.8195 0.8180
2825.600000 0.8170 0.8160 0.8140 0.8120 0.8081
2832.000000 0.8041 0.7996 0.7951 0.7906 0.7861
2838.400000 0.7845 0.7830 0.7742 0.7652 0.7566
2844.800000 0.7480 0.7390 0.7300 0.7205 0.7111
2851.200000 0.7040 0.6971 0.6960 0.6950 0.6935
2857.600000 0.6920 0.6851 0.6781 0.6633 0.6483
2864.000000 0.6191 0.5897 0.5709 0.5525 0.5357
2870.400000 0.5190 0.4925 0.4661 0.4635 0.4610
2876.800000 0.4446 0.4281 0.4280 0.4280 0.4700
2883.200000 0.5124 0.5406 0.5685 0.5926 0.6165
2889.600000 0.6204 0.6239 0.6211 0.6181 0.6037
2896.000000 0.5890 0.5755 0.5620 0.5605 0.5590
2902.400000 0.5590 0.5590 0.5580 0.5570 0.5555
2908.800000 0.5540 0.5471 0.5401 0.5321 0.5242
2915.200000 0.5186 0.5131 0.5096 0.5061 0.5035
2921.600000 0.5010 0.4865 0.4720 0.4640 0.4560
2928.000000 0.4351 0.4142 0.4001 0.3862 0.3514
2934.400000 0.3165 0.3160 0.3160 0.3307 0.3457
2940.800000 0.3543 0.3628 0.3640 0.3650 0.3719
2947.200000 0.3790 0.3805 0.3820 0.3805 0.3790
2953.600000 0.3477 0.3163 0.2927 0.2693 0.2448
2960.000000 0.2203 0.2003 0.1803 0.1653 0.1503
2966.400000 0.1500 0.1500 0.1685 0.1875 0.2003
2972.800000 0.2130 0.2494 0.2859 0.3218 0.3578
2979.200000 0.4022 0.4466 0.4737 0.5007 0.5321
2985.600000 0.5636 0.5729 0.5818 0.5957 0.6097
2992.000000 0.6286 0.6476 0.6617 0.6756 0.6923
2998.400000 0.7090 0.7215 0.7340 0.7410 0.7480
3004.800000 0.7495 0.7510 0.7639 0.7769 0.7800
3011.200000 0.7830 0.7889 0.7949 0.7960 0.7970
3017.600000 0.7975 0.7980 0.8009 0.8039 0.8055
3024.000000 0.8070 0.8070 0.8070 0.8070 0.8070
3030.400000 0.8060 0.8050 0.8015 0.7980 0.7975
3036.800000 0.7970 0.7916 0.7861 0.7860 0.7860
3043.200000 0.7904 0.7949 0.8018 0.8088 0.8134
3049.600000 0.8180 0.8215 0.8250 0.8265 0.8280
3056.000000 0.8290 0.8300 0.8310 0.8320 0.8320
3062.400000 0.8320 0.8320 0.8320 0.8320 0.8320
3068.800000 0.8325 0.8330 0.8330 0.8330 0.8330
3075.200000 0.8330 0.8340 0.8350 0.8370 0.8390
3081.600000 0.8405 0.8420 0.8420 0.8420 0.8430
3088.000000 0.8440 0.8440 0.8440 0.8430 0.8420
3094.400000 0.8410 0.8400 0.8385 0.8370 0.8350
3100.800000 0.8330 0.8295 0.8260 0.8225 0.8190
3107.200000 0.8190 0.8190 0.8210 0.8230 0.8299
3113.600000 0.8369 0.8414 0.8459 0.8475 0.8490
3120.000000 0.8500 0.8510 0.8510 0.8510 0.8510
3126.400000 0.8510 0.8520 0.8530 0.8545 0.8560
3132.800000 0.8560 0.8560 0.8560 0.8560 0.8550
3139.200000 0.8540 0.8540 0.8540 0.8540 0.8540
3145.600000 0.8540 0.8540 0.8540 0.8540 0.8540
3152.000000 0.8540 0.8540 0.8540 0.8540 0.8540
3158.400000 0.8540 0.8540 0.8535 0.8530 0.8530
3164.800000 0.8530 0.8530 0.8530 0.8530 0.8530
3171.200000 0.8530 0.8530 0.8535 0.8540 0.8540
3177.600000 0.8540 0.8540 0.8540 0.8540 0.8540
3184.000000 0.8550 0.8560 0.8560 0.8560 0.8560
3190.400000 0.8560 0.8560 0.8560 0.8550 0.8540
3196.800000 0.8540 0.8540 0.8540 0.8540 0.8540
3203.200000 0.8540 0.8550 0.8560 0.8560 0.8560
3209.600000 0.8580 0.8600 0.8600 0.8600 0.8605
3216.000000 0.8610 0.8610 0.8610 0.8610 0.8610
3222.400000 0.8610 0.8610 0.8610 0.8610 0.8610
3228.800000 0.8610 0.8610 0.8610 0.8620 0.8630
3235.200000 0.8630 0.8630 0.8620 0.8610 0.8610
3241.600000 0.8610 0.8630 0.8650 0.8650 0.8650
3248.000000 0.8660 0.8670 0.8670 0.8670 0.8660
3254.400000 0.8650 0.8650 0.8650 0.8660 0.8670
3260.800000 0.8670 0.8670 0.8670 0.8670 0.8670
3267.200000 0.8670 0.8670 0.8670 0.8670 0.8670
3273.600000 0.8670 0.8670 0.8670 0.8670 0.8675
3280.000000 0.8680 0.8675 0.8670 0.8670 0.8670
3286.400000 0.8670 0.8670 0.8675 0.8680 0.8680
3292.800000 0.8680 0.8680 0.8680 0.8680 0.8680
3299.200000 0.8680 0.8680 0.8680 0.8680 0.8680
3305.600000 0.8680 0.8680 0.8680 0.8680 0.8680
3312.000000 0.8680 0.8680 0.8680 0.8680 0.8680
3318.400000 0.8680 0.8680 0.8680 0.8680 0.8680
3324.800000 0.8680 0.8680 0.8675 0.8670 0.8670
3331.200000 0.8670 0.8660 0.8650 0.8650 0.8650
3337.600000 0.8650 0.8650 0.8650 0.8650 0.8660
3344.000000 0.8670 0.8670 0.8670 0.8670 0.8670
3350.400000 0.8670 0.8670 0.8660 0.8650 0.8650
3356.800000 0.8650 0.8650 0.8650 0.8650 0.8650
3363.200000 0.8660 0.8670 0.8670 0.8670 0.8670
3369.600000 0.8670 0.8675 0.8680 0.8680 0.8680
3376.000000 0.8680 0.8680 0.8680 0.8680 0.8680
3382.400000 0.8680 0.8680 0.8680 0.8690 0.8700
3388.800000 0.8700 0.8700 0.8700 0.8700 0.8700
3395.200000 0.8700 0.8700 0.8700 0.8700 0.8700
3401.600000 0.8690 0.8680 0.8680 0.8680 0.8675
3408.000000 0.8670 0.8660 0.8650 0.8650 0.8650
3414.400000 0.8640 0.8630 0.8620 0.8610 0.8595
3420.800000 0.8580 0.8570 0.8560 0.8550 0.8540
3427.200000 0.8535 0.8530 0.8520 0.8510 0.8490
3433.600000 0.8470 0.8465 0.8460 0.8460 0.8460
3440.000000 0.8465 0.8470 0.8470 0.8470 0.8480
3446.400000 0.8490 0.8500 0.8510 0.8510 0.8510
3452.800000 0.8520 0.8530 0.8564 0.8599 0.8615
3459.200000 0.8630 0.8640 0.8650 0.8660 0.8670
3465.600000 0.8670 0.8670 0.8670 0.8670 0.8675
3472.000000 0.8680 0.8690 0.8700 0.8700 0.8700
3478.400000 0.8700 0.8700 0.8710 0.8720 0.8720
3484.800000 0.8720 0.8720 0.8720 0.8720 0.8720
3491.200000 0.8720 0.8720 0.8720 0.8720 0.8720
3497.600000 0.8720 0.8730 0.8740 0.8740 0.8740
3504.000000 0.8740 0.8740 0.8740 0.8740 0.8730
3510.400000 0.8720 0.8720 0.8720 0.8720 0.8720
3516.800000 0.8720 0.8720 0.8720 0.8720 0.8730
3523.200000 0.8740 0.8740 0.8740 0.8740 0.8740
3529.600000 0.8740 0.8740 0.8740 0.8740 0.8740
3536.000000 0.8740 0.8740 0.8740 0.8730 0.8720
3542.400000 0.8720 0.8720 0.8730 0.8740 0.8730
3548.800000 0.8720 0.8720 0.8720 0.8720 0.8720
3555.200000 0.8720 0.8720 0.8720 0.8720 0.8730
3561.600000 0.8740 0.8740 0.8740 0.8740 0.8740
3568.000000 0.8740 0.8740 0.8740 0.8740 0.8740
3574.400000 0.8740 0.8740 0.8740 0.8740 0.8740
3580.800000 0.8755 0.8770 0.8804 0.8839 0.8850
3587.200000 0.8860 0.8825 0.8790 0.8770 0.8750
3593.600000 0.8750 0.8750 0.8750 0.8750 0.8760
3600.000000 0.8770 0.8780 0.8790 0.8770 0.8750
3606.400000 0.8750 0.8750 0.8760 0.8770 0.8770
3612.800000 0.8770 0.8780 0.8790 0.8790 0.8790
3619.200000 0.8770 0.8750 0.8750 0.8750 0.8760
3625.600000 0.8770 0.8780 0.8790 0.8790 0.8790
3632.000000 0.8790 0.8790 0.8770 0.8751 0.8750
3638.400000 0.8750 0.8750 0.8750 0.8760 0.8770
3644.800000 0.8780 0.8790 0.8790 0.8790 0.8780
3651.200000 0.8770 0.8760 0.8750 0.8750 0.8750
3657.600000 0.8750 0.8750 0.8750 0.8750 0.8760
3664.000000 0.8770 0.8770 0.8770 0.8780 0.8790
3670.400000 0.8805 0.8820 0.8820 0.8820 0.8815
3676.800000 0.8810 0.8800 0.8790 0.8780 0.8770
3683.200000 0.8770 0.8770 0.8780 0.8790 0.8790
3689.600000 0.8790 0.8770 0.8750 0.8750 0.8750
3696.000000 0.8770 0.8790 0.8800 0.8810 0.8815
3702.400000 0.8820 0.8830 0.8840 0.8840 0.8840
3708.800000 0.8840 0.8840 0.8830 0.8820 0.8805
3715.200000 0.8790 0.8790 0.8790 0.8790 0.8790
3721.600000 0.8805 0.8820 0.8820 0.8820 0.8830
3728.000000 0.8840 0.8840 0.8840 0.8840 0.8840
3734.400000 0.8840 0.8840 0.8840 0.8840 0.8850
3740.800000 0.8860 0.8870 0.8880 0.8885 0.8890
3747.200000 0.8890 0.8890 0.8885 0.8880 0.8870
3753.600000 0.8860 0.8840 0.8820 0.8820 0.8820
3760.000000 0.8815 0.8810 0.8810 0.8810 0.8810
3766.400000 0.8810 0.8800 0.8790 0.8780 0.8770
3772.800000 0.8770 0.8770 0.8780 0.8790 0.8790
3779.200000 0.8790 0.8805 0.8820 0.8820 0.8820
3785.600000 0.8820 0.8820 0.8820 0.8820 0.8820
3792.000000 0.8820 0.8820 0.8820 0.8820 0.8820
3798.400000 0.8830 0.8840
##END=
