##TITLE=Ethyl Acetate
##JCAMP-DX=4.24
##DATA TYPE=INFRARED SPECTRUM
##CLASS=IUPAC A
##ORIGIN=NIST, Anayltical Chemistry Division, 301-975-3108
##OWNER=COPYRIGHT (C) 1998 by the U.S. Secretary of Commerce
##DATE=98/10/1
##$SPECTRA VERSION=1.00
##$UNCERTAINTY IN Y=2.0 % relative (B=1.0E-04,C=6.3E-10,D=2.7E-14)
##CAS NAME=Ethyl Ester Acetic Acid
##CAS REGISTRY NO=141-78-6
##MOLFORM=C H3 C O2 C H2 C H3
##MP=-83.58 C
##BP=77.06 C
##$NIST SOURCE=QUANT-IR
##SPECTROMETER/DATA SYSTEM=IFS66V (Bruker)
##INSTRUMENT PARAMETERS=KBr Beam splitter; MCT Detector; Multipass cell
##STATE=gas
##SAMPLE DESCRIPTION=Ethyl Acetate Primary Gas Standard
##PRESSURE=101.3 kPa
##TEMPERATURE=23 C
##SAMPLING PROCEDURE=1 L/min Flow
##RESOLUTION=0.9640
##DATA PROCESSING=Happ Genzel Apodization
##XUNITS=cm-1
##YUNITS=(micromol/mol)-1m-1 (base 10)
##XFACTOR=1.0
##YFACTOR=18.189E-13
##DELTAX=0.4820
##FIRSTX=575.169
##LASTX=3975.077
##FIRSTY=6.60E-08
##MAXX=3974.59
##MINX=575.17
##MAXY=.0019953
##MINY=-4.41E-06
##NPOINTS=7053
##XYDATA=(X++(Y..Y))
575.17 36300 385190 692350 702746 428896 309368
577.58 722242 974534 858676 818646 888308 985986
580.47 1153638 1374868 1516542 1727302 1690790 1781688
583.37 2085058 2338442 2293306 2273006 2557372 2898550
586.26 3308572 3609374 3743720 3835974 4084232 4379698
589.15 4740110 5011940 5085944 5326322 5463684 5582476
592.04 6130654 6453530 6574288 6841642 7236386 7549668
594.94 8013736 8353374 8508104 8583988 8672958 9195232
597.83 9644226 9716062 9781322 10099090 10381920 10782960
600.72 11229390 11677520 12278520 13051580 14360140 15490970
603.61 15898980 16586220 17578070 18508690 19144550 19675440
606.51 19780240 19004880 18027720 17381170 16962820 16669150
609.40 16350380 16145910 16179250 16126090 15899690 15564760
612.29 15297280 15182280 15028280 14921550 14954790 15075920
615.18 15099580 15176020 15428530 15684790 15938150 16217920
618.08 16557990 16975260 17459870 18029930 18691520 19327760
620.97 20051720 20835900 21726790 22610210 23604420 24763600
623.86 25658660 26457480 27300070 27880830 28250560 28511880
626.76 28617600 28527230 28233360 27677580 26757090 25768930
629.65 24905260 24167050 24018390 24760120 25994690 26542510
632.54 25631550 24001860 22956280 22763240 22974250 23374780
635.43 23726410 23962950 24206540 24670830 24631100 23481730
638.33 22186940 21503590 21107470 20742080 20532880 20362730
641.22 19974590 19380300 18655810 17849220 16943370 15975190
644.11 15030250 14045580 12888670 11765310 10688500 9628626
647.00 8687480 7838750 6990352 6253860 5587836 4983106
649.90 4418284 3986608 3563566 3160818 2858284 2596678
652.79 2355618 2151012 1951636 1707186 1546682 1550774
655.68 1483652 1434014 1348332 1232996 1200960 1117312
658.58 1083928 1051964 960388 891362 872624 832332
661.47 777540 705548 654100 710614 675376 562400
664.36 491102 457314 420248 528026 565110 481208
667.25 514398 497902 379402 358892 366976 389352
670.15 447652 435094 391718 405898 388112 349700
673.04 321820 361604 333506 319624 307568 224108
675.93 217380 308426 332858 292864 311306 268916
678.82 229334 230574 186008 167766 187926 169476
681.72 98298 87974 117864 197412 229926 182356
684.61 209896 166334 151926 153142 166074 211266
687.50 193766 190090 189972 155228 114824 137988
690.40 172492 191184 188448 86670 101494 156772
693.29 176568 131406 65950 76144 183282 254436
696.18 199240 185146 167134 110822 129422 118100
699.07 89912 84202 21176 13788 50246 85686
701.97 91920 91334 95806 101342 135642 163694
704.86 167334 170264 91758 49044 88036 131916
707.75 168016 180486 149718 126348 165494 159452
710.64 183148 234592 175686 161778 206770 221228
713.54 234712 204366 158876 191450 276410 281362
716.43 214356 237290 268886 240812 209216 222924
719.32 248128 287062 283844 257730 260150 247274
722.22 266266 281228 274760 260620 274706 258398
725.11 227410 258272 322712 347702 304466 256610
728.00 263942 305836 306090 345560 402104 393316
730.89 387220 380894 376702 394620 412682 414916
733.79 425728 436418 453794 405908 404342 440892
736.68 467912 504796 521762 512624 505362 506240
739.57 496700 501564 533246 569390 597126 628646
742.46 650540 649132 649026 639464 683182 753138
745.36 771038 799710 853540 897128 908232 895652
748.25 906998 970702 1041462 1100544 1150682 1177980
751.14 1240700 1297500 1322796 1408094 1476596 1493214
754.04 1540404 1659930 1711892 1751452 1886732 2050358
756.93 2129214 2167526 2256904 2411396 2507076 2591356
759.82 2724632 2907934 3057968 3204970 3365222 3489502
762.71 3669404 3874250 4048820 4203818 4408184 4617676
765.61 4855962 5065298 5245000 5465976 5718040 5960576
768.50 6225646 6524250 6842594 7135824 7393090 7697860
771.39 8011654 8329624 8668692 9041308 9332906 9630054
774.28 10000380 10430820 10821390 11185820 11551870 11842890
777.18 12121480 12364450 12589950 12830430 13103930 13330560
780.07 13440280 13447410 13449680 13434650 13405100 13329970
782.96 13171890 13006640 12889430 12936130 13210680 13325130
785.86 13140620 13201350 13618800 14085620 14428340 14658030
788.75 14753810 14784120 14731410 14606890 14495110 14372130
791.64 14201480 14047980 13849530 13645790 13387170 13115220
794.53 12878200 12601140 12274880 11980380 11700470 11351590
797.43 11064620 10794800 10488830 10139190 9837038 9629040
800.32 9371332 9144386 8885702 8603836 8386466 8192846
803.21 8017622 7828020 7603596 7424066 7275752 7090048
806.10 6927854 6755382 6523298 6433770 6426868 6477140
809.00 6466932 6283782 6032834 5772414 5610072 5518462
811.89 5436198 5352450 5234688 5165098 5131240 5083054
814.78 5058618 5057678 5013172 4997754 5025928 5064488
817.68 5065470 5077912 5143216 5149980 5164214 5263142
820.57 5451262 5613452 5711248 5790532 5915206 6096040
823.46 6297848 6443014 6617762 6825928 7077240 7342004
826.35 7628816 7829964 8055400 8366574 8666400 8997236
829.25 9364536 9742394 10162880 10561060 10917290 11292660
832.14 11741410 12266260 12758650 13201190 13724390 14327820
835.03 14808090 15294970 15875290 16465930 17056100 17614010
837.92 18122330 18645950 19173350 19648250 20172650 20643000
840.82 20956340 21200430 21375830 21561300 21668080 21735180
843.71 21675340 21535500 21485770 21588310 21752060 21889490
846.60 21983000 22087870 22276690 22511700 22716110 22866520
849.50 22896560 22900940 22902910 22915440 22889280 22837510
852.39 22829170 22791770 22769500 22764000 22693460 22555010
855.28 22447230 22287520 22053750 21805470 21474840 21070830
858.17 20659160 20207920 19707550 19154610 18545860 17930910
861.07 17324150 16724720 16087290 15426810 14772920 14161270
863.96 13619220 13082120 12534980 12015210 11463490 10943820
866.85 10463330 9970680 9528500 9170866 8778958 8327826
869.74 7979274 7683454 7388102 7039888 6731984 6476554
872.64 6198780 5914140 5664596 5450430 5192638 4960266
875.53 4749274 4558036 4395826 4226502 4078484 3910646
878.42 3723202 3567044 3453634 3362712 3248384 3130618
881.31 2995294 2919222 2859100 2757870 2684668 2653790
884.21 2600932 2531268 2440780 2392648 2381592 2353302
887.10 2307060 2273772 2258390 2267630 2268296 2230416
889.99 2247996 2305148 2367028 2417272 2465914 2496648
892.89 2513562 2566414 2630428 2727714 2855532 2973036
895.78 3090614 3261874 3462394 3676462 3885260 4095776
898.67 4380562 4730508 5071884 5410754 5815584 6298022
901.56 6781180 7287024 7876604 8453858 9006126 9655108
904.46 10302210 10893470 11489480 12079910 12661490 13214230
907.35 13648400 14064640 14436110 14748840 15002160 15213370
910.24 15320240 15466320 15635910 15868700 16289720 16971010
913.13 18039570 19343500 19623880 19043810 18475560 18126340
916.03 18077040 18236500 18554680 18901480 19271290 19662580
918.92 20051370 20394560 20719510 20995180 21239120 21449490
921.81 21645640 21789830 21954450 22070270 22199880 22325890
924.71 22460570 22674640 22876550 23095580 23324430 23593160
927.60 23874020 24102440 24366260 24639040 24832080 24993220
930.49 25089040 25059840 24882190 24686560 24413970 23938670
933.38 23381550 22791440 22092360 21291150 20509770 19902080
936.28 19460020 19259500 19375920 19836350 20640830 21446490
939.17 21249520 19512480 17404360 16295020 16238040 16692080
942.06 17299680 17937010 18508930 18924780 19117680 19086400
944.95 18874350 18429860 17768250 16924780 15971320 14913320
947.85 13757600 12608920 11502280 10447190 9419410 8475730
950.74 7653186 6890382 6226098 5655178 5165036 4749156
953.63 4391498 4116228 3896628 3711010 3548554 3409220
956.53 3284576 3162232 3056838 2998686 2978750 2944750
959.42 2893642 2839758 2788174 2787612 2783000 2742840
962.31 2743452 2761568 2767366 2763868 2773398 2784326
965.20 2805892 2820290 2847438 2887736 2909872 2939484
968.10 2988062 3040908 3097440 3181352 3236968 3299378
970.99 3385210 3466098 3543200 3626626 3708716 3773144
973.88 3870024 3954898 4061856 4179348 4293974 4417942
976.77 4553248 4718868 4898390 5039100 5170330 5321308
979.67 5478662 5644540 5847286 6053522 6226436 6440988
982.56 6683738 6945740 7191420 7449214 7726756 8013184
985.45 8319884 8629094 8924274 9250276 9612162 9956812
988.35 10296570 10653910 10990390 11314220 11635590 11952390
991.24 12243450 12528800 12799160 13043400 13252850 13411980
994.13 13557720 13680010 13758620 13862280 13927680 13967560
997.02 13979970 13981550 13985430 13971600 13970060 13988260
999.92 13990460 14010320 14096870 14252690 14289700 14175640
1002.81 14109120 14121700 14106880 14070970 14102100 14171650
1005.70 14234300 14262590 14250660 14242540 14226770 14157480
1008.59 14037930 13934250 13814050 13628120 13445900 13284620
1011.49 13106000 12919850 12774260 12650090 12517800 12435070
1014.38 12388680 12400780 12431330 12481320 12589760 12729490
1017.27 12886410 13120060 13388460 13679230 14029310 14401460
1020.17 14771830 15175690 15651580 16162960 16720530 17305350
1023.06 17967820 18701260 19515840 20390710 21304020 22347220
1025.95 23458900 24668030 26029410 27505540 29058550 30746460
1028.84 32560720 34553880 36658860 38924540 41385070 44029430
1031.74 46888060 49972500 53249100 56759860 60433430 64307110
1034.63 68419370 72801520 77421700 82262770 87283060 92570220
1037.52 98101380 103884800 109889400 116191300 122692400 129370500
1040.41 136394600 143640900 151088500 158814800 166686600 174612900
1043.31 182586200 190434800 198116800 205649200 213121500 220619200
1046.20 228102400 235493700 242633400 249534900 256079200 262195900
1049.09 267693200 272681800 277130200 280908700 284178000 287199600
1051.99 289833900 291930600 293392600 294566900 295468900 296257600
1054.88 297330300 298702400 300391300 302371100 304287700 305563600
1057.77 305154000 302381500 298217600 294466100 292555700 292205700
1060.66 290228200 286445300 283505200 280710900 277218100 272912700
1063.56 267613400 261143800 253712800 245494900 236632800 227163400
1066.45 217480800 207792000 198165900 188696500 179269400 169869200
1069.34 160696400 152018300 144031200 136688400 130084400 124083000
1072.23 118507500 113424000 108865700 104724200 100914700 97441650
1075.13 94123300 91007710 88166040 85442860 82914520 80527100
1078.02 78293040 76156410 74097700 72178880 70364960 68677110
1080.91 67068430 65529200 64132030 62887180 61775000 60770080
1083.81 59879540 59102660 58448150 57933670 57529980 57231320
1086.70 57080030 57100580 57177170 57319600 57561820 57928000
1089.59 58408270 59013030 59722300 60504990 61257900 62077560
1092.48 63014390 63998260 64954200 65782690 66566550 67357570
1095.38 68203000 69129460 69995020 70427570 70340180 69787810
1098.27 69079450 68436780 67860930 67293380 66748660 66363180
1101.16 66338270 66694520 67583940 69183250 71579230 74464270
1104.05 75836110 73131030 67959330 64151290 62462880 61958910
1106.95 62107730 62555940 63081260 63631320 64064990 64311610
1109.84 64364100 64108010 63559010 62750590 61633160 60246890
1112.73 58603470 56773770 54747880 52603300 50413890 48182840
1115.63 45954370 43779250 41655380 39617290 37738630 35990650
1118.52 34377170 32943980 31666840 30510140 29422830 28345930
1121.41 27217420 26231170 25592320 25184420 24897840 24669830
1124.30 24434650 24143940 23778280 23323660 22804700 22217000
1127.20 21536530 20797950 20024970 19219190 18442290 17682890
1130.09 16953410 16204850 15488850 14823680 14179280 13606090
1132.98 13096090 12570960 12068710 11630680 11233720 10869770
1135.87 10524900 10202910 9920922 9712628 9496160 9281716
1138.77 9142464 8988872 8817996 8698398 8574250 8465056
1141.66 8391724 8331526 8266884 8209604 8181454 8157882
1144.55 8163412 8171056 8155390 8179940 8204946 8233940
1147.45 8280320 8309968 8305768 8325022 8388084 8437992
1150.34 8481282 8561194 8645788 8700268 8721256 8766480
1153.23 8844666 8912280 8988424 9067716 9139236 9220914
1156.12 9309894 9434436 9566266 9661840 9785410 9993456
1159.02 10197440 10429330 10710140 11061940 11426170 11651880
1161.91 11367480 10765450 10426060 10322180 10297790 10285300
1164.80 10259980 10220040 10243030 10292630 10298380 10297620
1167.69 10336170 10349480 10364080 10392920 10434290 10468790
1170.59 10478570 10511180 10556140 10595160 10625590 10605670
1173.48 10564260 10562030 10571400 10575100 10581480 10582230
1176.37 10566500 10543400 10536680 10574900 10667070 10753640
1179.26 10835540 10935700 11053460 11196220 11344710 11469790
1182.16 11574330 11694450 11835490 11972110 12110760 12290580
1185.05 12469410 12644320 12856680 13083940 13313580 13588680
1187.94 13888100 14198590 14535990 14907760 15352190 15810770
1190.84 16285530 16803030 17392240 18043540 18713830 19445580
1193.73 20206080 21022570 21901630 22865900 23917520 25042090
1196.62 26221160 27450850 28780580 30183010 31666340 33263230
1199.51 34931840 36700740 38513490 40433960 42466020 44554100
1202.41 46700340 48919010 51203850 53573720 56026480 58564310
1205.30 61209970 63908000 66683940 69511740 72383340 75315600
1208.19 78320940 81422430 84672930 88058930 91523920 95083990
1211.08 98761960 102552400 106448300 110384200 114374900 118513900
1213.98 122797400 127096100 131387600 135799600 140448900 145547000
1216.87 151297700 157808700 165002000 172803300 181298000 190627100
1219.76 200718400 211397100 222763900 234995700 248528600 262806000
1222.66 277143500 292740200 310217800 329405700 350073200 372203900
1225.55 395630400 420265300 445995600 472771600 500269600 528467500
1228.44 557066600 585941700 614829800 643400600 671601100 699195900
1231.33 725514900 750642000 774394400 796554100 816751300 835200900
1234.23 851994900 867408300 881859500 895852500 910538500 926406300
1237.12 943526500 962402600 983189400 1005988000 1030717000 1057020000
1240.01 1081856000 1096956000 1094194000 1072777000 1040674000 1018465000
1242.90 1017585000 1029162000 1042509000 1056237000 1071092000 1084150000
1245.80 1093263000 1096827000 1093025000 1080720000 1062873000 1040062000
1248.69 1011657000 980986200 948698200 913848400 876970500 839650500
1251.58 803355900 768765400 736284300 706236700 679051000 653870300
1254.48 629870600 606867300 584259400 561481700 538819700 516315400
1257.37 493721500 470874000 448024200 425123000 402253300 379382000
1260.26 356582700 334003500 311912500 290639200 270571600 251935200
1263.15 235240400 221092400 210052700 202439900 197684400 192806200
1266.05 184892000 175792500 167240100 157799600 149500400 144887200
1268.94 142533700 141362700 140991000 140860200 140370300 139431000
1271.83 137986400 135898100 133146700 129778300 125731900 121153100
1274.72 116312900 111247200 105590500 99540890 93830760 88565410
1277.62 83579720 78842660 74418340 70330650 66546470 63015180
1280.51 59756080 56749680 53972000 51446590 49099190 46936450
1283.40 44979110 43201130 41599270 40138780 38805200 37700680
1286.30 36794210 36006150 35368060 34881170 34505060 34233950
1289.19 34107220 34109860 34207770 34384070 34639160 34967020
1292.08 35385550 35892050 36438380 37048840 37727400 38418460
1294.97 39121250 39858330 40660840 41475650 42288160 43113790
1297.87 43940660 44715170 45480160 46290410 47091220 47881560
1300.76 48728680 49635900 50612880 51669390 52705840 53556500
1303.65 54163120 54014520 53092690 52101130 51334830 50919730
1306.54 50859340 51024020 51341900 51822710 52479200 53190550
1309.44 53603500 53356160 52530160 51452100 50255190 49143960
1312.33 48237650 47437440 46708440 46106340 45584590 45066730
1315.22 44475770 43753950 42908800 41993100 41014150 39924970
1318.12 38650110 37258530 35800640 34276770 32760880 31218510
1321.01 29654310 28108580 26593930 25127030 23764060 22477780
1323.90 21232790 20053500 18949140 17927280 16973390 16113840
1326.79 15331260 14615360 13977070 13394860 12849260 12326190
1329.69 11867750 11445860 11054400 10719470 10396350 10109920
1332.58 9873730 9666128 9491378 9319760 9163452 9042848
1335.47 8953996 8840026 8763370 8732424 8696934 8643858
1338.36 8617606 8662426 8706770 8733102 8876968 9069618
1341.26 9247918 9473270 9719286 10009160 10359320 10771740
1344.15 11257690 11815210 12444000 13142720 13957720 14883180
1347.04 15901310 17006040 18230680 19620780 21144360 22809480
1349.94 24568430 26444280 28490620 30637110 32858190 35156160
1352.83 37528340 39944750 42364160 44765120 47084430 49325640
1355.72 51449970 53334490 55076340 56684860 58178240 59759460
1358.61 61526070 63734900 66601500 70368300 75494340 82340790
1361.51 89611990 94293090 96524810 100511800 106768800 113682100
1364.40 120510900 126418100 131562800 137509500 144649700 152308700
1367.29 159949200 167262400 173992300 180010300 185127300 189162700
1370.18 191941500 193758100 194834400 195228600 194996700 194711000
1373.08 194737700 195143500 195821800 196985800 198272400 198962800
1375.97 199378600 199101800 195301600 191248000 188389200 185634600
1378.86 185364700 187204800 189847700 192726300 195532100 198026900
1381.76 200153400 201402700 201466000 200395600 198250300 194815300
1384.65 190265300 184735500 178310700 171092000 163204200 154948000
1387.54 147333200 139662000 131912800 124372600 117134700 110322000
1390.43 103952600 98029210 92639370 87695340 83225850 79241740
1393.33 75691860 72392830 70163140 68656580 66813630 64517120
1396.22 61968290 59476510 57209530 55337300 53559740 51881760
1399.11 50894370 50209910 49438330 48665280 48009620 47516800
1402.00 47118140 46759510 46360340 45924690 45378730 44704970
1404.90 44172500 43548610 42751190 41876430 40956190 40012450
1407.79 39033570 38079880 37177040 36257440 35385470 34585440
1410.68 33828870 33110110 32493130 31946450 31441640 30989420
1413.58 30556630 30171230 29828690 29478810 29176230 28949520
1416.47 28689980 28398390 28313750 28158380 27611720 26905180
1419.36 27312740 27996340 28165340 28331380 28549710 28797930
1422.25 28982200 29008490 28864430 28788740 28926210 29140430
1425.15 29355370 29595120 29855550 30128690 30405740 30680840
1428.04 30970210 31231530 31368410 31498710 31875790 32241270
1430.93 32510600 32771300 33052380 33288010 33504380 33745750
1433.82 33974140 34234260 34463110 34586720 34298540 33937620
1436.72 34705500 35585280 35918680 36166980 36447300 36733700
1439.61 37029880 37350440 37652130 37895260 38140920 38400970
1442.50 38593480 38761580 38949660 39184850 39407110 39642870
1445.40 39854820 40046640 40246150 40378240 40383880 40731270
1448.29 41273660 41641860 41989870 42396320 42874490 43536350
1451.18 44409470 45472460 46809300 47829550 47750780 46831020
1454.07 45932280 45210670 44740930 44182070 42799660 42251980
1456.97 43407640 43791140 43845460 44337440 44824360 45432090
1459.86 45837190 45879330 45656150 45347480 45146920 45083040
1462.75 45184260 45435260 45473720 44784810 44422320 44582200
1465.64 44469980 44309680 44188690 44143680 44198220 44432130
1468.54 44749180 45241780 45804430 46053980 45727280 44868000
1471.43 43733940 43316480 42888660 41819290 41750160 42129490
1474.32 42066620 41944630 41638080 41319790 41417780 41492000
1477.21 41325390 41078700 40754900 40368410 39943500 39476290
1480.11 38917080 38282070 37675400 37078070 36351870 35532490
1483.00 34685980 33808770 32871200 31875130 30913130 30052020
1485.89 29348670 28648320 27906620 27467470 27106910 26716910
1488.79 26354430 26089030 26044040 25898590 25891900 25944410
1491.68 25745060 25444370 25038580 24618230 24152440 23666980
1494.57 23100420 22321550 20982930 20441020 20673550 20329600
1497.46 19771660 18953170 18280190 18101030 17812530 17368030
1500.36 16920120 16469170 16034090 15686290 15336260 14958480
1503.25 14581070 14228310 13834260 12791140 11882060 12244060
1506.14 11690890 10915020 11543100 11826050 11554730 11490860
1509.03 11314570 11123080 11042150 10899280 10720260 10317690
1511.93 10047050 10154940 10136910 10005610 9807374 9559264
1514.82 9465482 9410740 9149878 8874034 8622312 8631740
1517.71 8850288 8875738 8773586 8528160 8218382 7970860
1520.61 7174754 7317624 8015128 7815976 7900076 8114474
1523.50 8136978 8028922 7742834 7352230 7584994 7853976
1526.39 7742636 7560368 7575562 7480022 7435626 7489744
1529.28 7487158 7457134 7437128 7315398 7200050 7183496
1532.18 7070980 6776406 6557386 6616802 6975962 7054488
1535.07 7074320 7066500 7105220 7065616 7057392 6945580
1537.96 6416358 5343592 5751626 6168344 5968136 6722200
1540.85 6998866 6378498 6320008 7082982 7283782 7342138
1543.75 7402720 7183846 6940212 7269974 7509538 7541288
1546.64 7547232 7553250 7515180 7490234 7456278 7350908
1549.53 7289890 7453718 7701932 7822278 7845136 7760160
1552.43 7670886 7572068 7153462 6691654 7199356 7639538
1555.32 7746112 7746954 7676588 7206918 6902450 6381606
1558.21 6283720 7208948 6912124 6212724 6915218 7887708
1561.10 7995916 7979600 7896586 7875374 7757084 7656958
1564.00 7395170 7195900 7177970 7134512 6975532 6849578
1566.89 6707614 6608140 6469784 6315334 6012548 5774986
1569.78 6076658 6264568 6030500 5826330 5679160 5645378
1572.67 5610228 5607480 5565544 5550186 5450496 4856498
1575.57 3616586 4018552 5008056 5071078 4924228 4779500
1578.46 4648018 4487258 4326372 4152964 4014534 3910712
1581.35 3796124 3677138 3566936 3474222 3410116 3356986
1584.25 3270790 3192804 3148884 3118216 3068378 3037402
1587.14 3016634 2999598 2969348 2953106 2924990 2909150
1590.03 2886242 2871578 2836972 2828054 2817942 2807984
1592.92 2795938 2776874 2749206 2755862 2762324 2768680
1595.82 2749094 2776190 2807390 2795524 2764210 2765698
1598.71 2780318 2801994 2790316 2793478 2797698 2816648
1601.60 2834896 2865038 2861780 2865216 2889022 2929658
1604.49 2952572 2982292 3008848 3047770 3043524 3073566
1607.39 3118432 3167858 3166564 3145884 3188658 3259730
1610.28 3288388 3338180 3327250 3357122 3375156 3418826
1613.17 3449576 3505430 3510518 3531562 3507766 3117550
1616.07 2073648 2373478 3453534 3747194 3797156 3821208
1618.96 3861076 3895340 3939120 3958102 4004302 4017978
1621.85 4002832 3947640 3658214 3659098 4090992 4223656
1624.74 4279748 4305950 4331106 4327740 4303062 4123842
1627.64 4153026 4354092 4445810 4458374 4463162 4472688
1630.53 4481550 4477616 4479978 4471308 4479350 4476786
1633.42 4474418 4313274 3866644 3201610 3259818 4169154
1636.31 4470542 4363656 4372004 4577244 4651510 4709724
1639.21 4741962 4759336 4755282 4813482 4836640 4876478
1642.10 4906726 4959114 4960174 4989494 5001050 4984356
1644.99 4469922 3877292 4438536 4892086 4782674 4856152
1647.89 4887274 5107976 5229828 5294172 5277474 5311518
1650.78 5284170 4892474 3701482 3302468 3245780 4128290
1653.67 4983028 5035136 5508744 5750664 5865788 5902028
1656.56 5989770 6068262 6146470 6192434 6285430 6316854
1659.46 6371226 6415228 6479410 6495996 6530710 6308232
1662.35 6115762 6475718 6776494 6814052 6876280 6932998
1665.24 7005968 7053238 7113784 7133988 7164752 7122856
1668.13 7063018 6642244 6639828 7221782 7451400 7366160
1671.03 7271516 7499446 7696392 7787130 7855086 7885060
1673.92 7814706 7334966 7087126 7697634 8164416 8281704
1676.81 8331150 8399558 8466578 8527318 8568098 8592096
1679.71 8623434 8715024 8882932 8988136 9057292 8954130
1682.60 8701972 8718128 8676204 7678952 7510340 9068134
1685.49 9769910 9945246 10034310 10144980 10152710 10238360
1688.38 10400730 10557580 10548120 10644710 10821060 10959960
1691.28 11032410 11127440 11177650 11282720 11323290 11380230
1694.17 11324680 10908000 9599408 9507326 10965430 11479840
1697.06 11450170 11511980 11562800 11481790 10844910 10000230
1699.95 10074540 10753120 11648700 12079730 12256980 12378550
1702.85 12500930 12519610 12382440 12539140 12875140 12891170
1705.74 12760810 12942710 13283900 13478830 13643820 13781560
1708.63 13923890 14036780 14158920 14378660 14644090 14845040
1711.53 15049450 15237900 15440470 15586250 15692780 15872040
1714.42 15829080 15960240 16502570 16722630 16318110 15336640
1717.31 15919180 16621730 16590670 16954520 17194110 17258960
1720.20 17371010 17614430 17958510 18324580 18667070 19089840
1723.10 19752740 20751050 21847820 22951800 24055910 25156320
1725.99 26215630 27288110 28328890 29372600 30432430 31560360
1728.88 32683100 33833810 35247910 36931980 38625770 40425440
1731.77 42368350 44254970 45717800 48364560 51175320 53851100
1734.67 58180390 62392030 66324420 70418600 74855950 79504910
1737.56 84459440 89642420 95063160 100330700 106228800 113325800
1740.45 120474800 127672400 135285400 143251100 151506400 160262900
1743.34 169685900 179636400 190027200 200903900 212333400 224412200
1746.24 237001700 250231800 264366500 278994400 294305600 310672500
1749.13 327781300 345618900 363985700 382438800 402285900 423951500
1752.02 445642100 467455800 489438200 511456000 533290200 554618900
1754.92 575242400 594811900 612555400 628181200 641821900 652411300
1757.81 659540200 663391300 663694700 660283500 653331300 642882400
1760.70 629120300 612175400 594356800 577528600 563858400 555693800
1763.59 551581200 546520600 538632600 536211600 547673000 572668200
1766.49 605562000 640206200 671402600 696928600 715332200 725179000
1769.38 727091000 722167000 711208300 695588200 677120300 655309100
1772.27 631586600 608065000 583273200 557381800 531346900 505426300
1775.16 479730800 454770100 430568600 407183700 384808300 363501500
1778.06 343212600 324000300 305998400 288923100 272614800 257413300
1780.95 243291300 229789300 216935400 204608800 192831600 181610200
1783.84 170741600 160076200 150252700 140947300 131795300 123008900
1786.74 114691900 106787600 99303890 92201310 85481500 79134500
1789.63 73186500 67459510 62185160 57526380 52902970 48227980
1792.52 44642170 41701300 38629890 35733190 33075410 30643070
1795.41 28400300 26466440 24723740 23114520 21628340 20270770
1798.31 19012100 17770460 16699220 15918260 15116810 14292710
1801.20 13625980 13003610 12443220 12044250 11601130 11211680
1804.09 10861650 10551790 10259440 10001980 9770280 9559334
1806.98 9336846 9158350 9027018 8915640 8780712 8634662
1809.88 8433930 8359782 8384418 8331712 8260776 8237626
1812.77 8215252 8216274 8221534 8221152 8223790 8231932
1815.66 8245546 8256200 8221622 8234076 8301726 8335944
1818.56 8360166 8390242 8431044 8476236 8510560 8545628
1821.45 8573402 8595338 8623556 8675262 8684526 8678160
1824.34 8493992 8341202 8522968 8662078 8669606 8668252
1827.23 8686710 8703016 8674772 8659402 8627528 8551238
1830.13 8805220 9049870 9125212 9160432 9166692 9168256
1833.02 9171184 9174306 9156954 9138774 9120434 9110262
1835.91 9092080 9036456 8984528 8967548 8926950 8887818
1838.80 8834140 8794234 8727904 8650720 8594500 8534426
1841.70 8449350 8397016 8304580 7998690 7469932 7600866
1844.59 7954612 7957720 7918942 7853982 7759060 7612456
1847.48 7522452 7502376 7442486 7363066 7280038 7204340
1850.38 7123834 7031268 6947440 6849316 6765370 6702460
1853.27 6623404 6549636 6482728 6421644 6343672 6275558
1856.16 6227250 6158364 6084152 6036988 6008008 5969300
1859.05 5915672 5882192 5858622 5822900 5792472 5771428
1861.95 5752292 5719890 5691696 5661032 5630980 5604284
1864.84 5587880 5558196 5520910 5537860 5516486 5418500
1867.73 5451538 5437584 5201452 5256252 5461420 5466576
1870.62 5437222 5429514 5432530 5409734 5374306 5340932
1873.52 5326912 5330722 5333180 5319858 5324048 5349950
1876.41 5397306 5437634 5485696 5544864 5600698 5665068
1879.30 5717878 5777650 5848398 5921874 5995610 6041574
1882.20 6077470 6118938 6151828 6161802 6189268 6218326
1885.09 6227384 6230348 6248672 6255226 6265294 6272436
1887.98 6266762 6228060 6116438 6176640 6337994 6399354
1890.87 6433364 6463936 6516488 6583454 6640458 6672038
1893.77 6691644 6691548 6697108 6761086 6815638 6831356
1896.66 6850432 6894244 6922284 6922174 6911366 6912794
1899.55 6932202 6938268 6938740 6944636 6934156 6889220
1902.44 6832708 6791074 6774060 6739272 6702090 6650334
1905.34 6587078 6530628 6468896 6387496 6288500 6186498
1908.23 6109438 6015562 5873790 5744704 5651310 5518596
1911.12 5385984 5256696 5119746 4980418 4860802 4742678
1914.02 4630268 4508224 4382870 4246434 4137636 4025018
1916.91 3826646 3514604 3478008 3538538 3452290 3364734
1919.80 3268054 3195304 3126210 3035728 2932804 2847326
1922.69 2776816 2763828 2745294 2712986 2665370 2622222
1925.59 2575768 2531480 2486268 2449420 2413776 2361452
1928.48 2332578 2312192 2281090 2262442 2244218 2220428
1931.37 2180702 2141776 2123436 2097906 2076560 2053978
1934.26 2032544 2021130 2004574 1991552 1991582 1982712
1937.16 1971936 1967700 1978246 1980860 1970618 1969888
1940.05 1968564 1965978 1949868 1904932 1810272 1850416
1942.94 1941020 1960594 1971876 1984678 1974314 1962054
1945.84 1957406 1983044 1999286 2006132 2009848 2001180
1948.73 1999160 2016514 2030692 2031570 2016834 2007240
1951.62 2006962 2010764 2016082 2004170 1998778 2030892
1954.51 2044548 2037472 2046752 2061526 2079194 2088938
1957.41 2088116 2094080 2097348 2089274 2088344 2099760
1960.30 2095758 2079924 2082794 2090294 2092478 2081042
1963.19 2080414 2079010 2068526 2062404 2054684 2025058
1966.08 2029056 2021196 1998124 2031384 2047318 2037848
1968.98 2016426 1995844 1993756 1989102 1985234 2002812
1971.87 2007316 2000464 1997408 1996572 1986926 1959230
1974.76 1940640 1929834 1926230 1930696 1942796 1938254
1977.66 1918566 1906798 1887298 1871684 1856670 1839410
1980.55 1823722 1815044 1810500 1801814 1802824 1793794
1983.44 1788226 1775720 1795220 1810234 1805364 1781800
1986.33 1776650 1791734 1787580 1787336 1805734 1826726
1989.23 1850576 1876640 1864804 1850970 1820298 1836404
1992.12 1895970 1939698 1979416 2009850 2035028 2063876
1995.01 2080994 2095392 2148356 2199470 2226792 2278598
1997.90 2318244 2343926 2365464 2408510 2444936 2480734
2000.80 2517632 2551904 2581168 2609722 2636518 2661938
2003.69 2688836 2713456 2726574 2757640 2805938 2840614
2006.58 2863636 2882150 2920632 2978250 3008128 3023592
2009.48 3071626 3122074 3142304 3155192 3173772 3210734
2012.37 3237480 3276968 3316560 3336868 3346748 3340560
2015.26 3364388 3379066 3350742 3370228 3394852 3373658
2018.15 3343620 3327320 3306898 3294746 3288822 3283266
2021.05 3265344 3236244 3209442 3189544 3196950 3200466
2023.94 3153308 3083306 3025022 2989870 2948144 2916090
2026.83 2899574 2889436 2889578 2890448 2883868 2863104
2029.72 2826968 2775042 2741998 2728460 2678512 2607204
2032.62 2549416 2468136 2390438 2328592 2262630 2197022
2035.51 2135620 2070958 2002040 1953542 1904664 1865290
2038.40 1828560 1798598 1772780 1734570 1699128 1664128
2041.29 1641724 1621182 1604262 1590490 1559384 1534442
2044.19 1532812 1533798 1520376 1501952 1505962 1505784
2047.08 1512126 1523996 1517850 1518442 1521622 1531496
2049.97 1547080 1560364 1571194 1596724 1622346 1644364
2052.87 1657460 1662936 1678316 1703734 1725418 1738946
2055.76 1769934 1807582 1839134 1882094 1928534 1966246
2058.65 2007144 2050806 2099740 2139256 2194492 2253300
2061.54 2301374 2353358 2410182 2473330 2527692 2595570
2064.44 2672208 2743380 2824432 2928368 3030818 3122014
2067.33 3209546 3302394 3390056 3497006 3626560 3754162
2070.22 3881742 4017752 4157118 4305518 4457030 4578342
2073.11 4720856 4894002 5051626 5189584 5324034 5488298
2076.01 5658378 5784692 5876788 5980938 6107676 6239982
2078.90 6354604 6441972 6521054 6614494 6695652 6751724
2081.79 6823356 6935960 7052682 7173178 7258418 7340452
2084.69 7391822 7403466 7384026 7389246 7421268 7446240
2087.58 7500018 7581098 7663698 7725062 7755284 7761034
2090.47 7803706 7824634 7786872 7744034 7696928 7613264
2093.36 7507980 7378774 7213634 7087752 6967982 6823802
2096.26 6672202 6514122 6358622 6186380 5976428 5789636
2099.15 5666082 5551610 5425312 5275246 5132328 4993838
2102.04 4853474 4693824 4574456 4502246 4403658 4300972
2104.93 4197136 4076456 3973094 3855456 3700096 3636836
2107.83 3574700 3469206 3357682 3255652 3147048 3044346
2110.72 2902054 2778854 2740254 2666168 2567162 2470920
2113.61 2377476 2274988 2154430 2015082 1963418 1919452
2116.51 1856068 1788344 1738852 1699202 1620120 1510900
2119.40 1462070 1472660 1447348 1412708 1381738 1347180
2122.29 1312290 1258900 1185840 1191106 1204422 1194776
2125.18 1174416 1151992 1117784 1085902 1034886 1034910
2128.08 1052110 1038540 1022354 1010472 1000892 976948
2130.97 928742 939500 963800 949106 954848 975390
2133.86 979346 978068 970720 991604 1033522 1056572
2136.75 1075256 1107036 1152162 1194070 1214704 1230110
2139.65 1279914 1325258 1379318 1433588 1451776 1466014
2142.54 1502840 1546694 1562276 1578308 1606164 1644600
2145.43 1666512 1676592 1689516 1728516 1749166 1753746
2148.33 1773096 1804398 1825524 1830740 1823188 1850794
2151.22 1898590 1926034 1945370 1950900 1936634 1891662
2154.11 1872798 1903624 1930686 1941470 1957702 1975558
2157.00 1977822 1933688 1926012 1984038 2001084 1977230
2159.90 1960016 1935464 1890016 1820724 1816466 1842686
2162.79 1839858 1829546 1801358 1764014 1690556 1633708
2165.68 1690228 1729274 1700542 1697526 1703724 1638448
2168.57 1528234 1527474 1602930 1637054 1633380 1613824
2171.47 1600436 1546400 1520574 1578454 1593048 1585854
2174.36 1591002 1587524 1547804 1494600 1526856 1552416
2177.25 1546502 1545728 1550234 1523318 1444680 1464022
2180.15 1522494 1516686 1492092 1478572 1458756 1382004
2183.04 1369574 1405118 1395996 1381740 1366524 1333394
2185.93 1263768 1264364 1295170 1287660 1291156 1278652
2188.82 1247738 1193784 1176340 1199354 1175340 1141898
2191.72 1111778 1064104 990754 972522 983096 952032
2194.61 908282 858806 808506 767296 766576 753922
2197.50 733798 726966 710386 686334 662912 678878
2200.39 705880 704722 699440 686294 669424 665534
2203.29 696500 709242 723994 750008 737816 717862
2206.18 740348 785448 806876 814124 837142 863056
2209.07 868976 883058 905378 912758 926824 937792
2211.97 927074 921890 936850 955430 964132 976150
2214.86 983604 990662 1026032 1058950 1064738 1068424
2217.75 1084734 1091612 1104608 1126888 1158230 1183460
2220.64 1194272 1202714 1213884 1225766 1218552 1222614
2223.54 1233578 1246598 1279820 1312778 1333574 1356628
2226.43 1366658 1356570 1357616 1380600 1403214 1413098
2229.32 1416124 1417772 1415646 1412428 1417320 1424496
2232.21 1422000 1400140 1379514 1382474 1388174 1392236
2235.11 1360072 1326924 1319180 1318430 1319576 1310408
2238.00 1290376 1276350 1283776 1278704 1271140 1268236
2240.89 1258182 1233820 1217902 1222522 1226956 1212792
2243.79 1207470 1215244 1209134 1185404 1175032 1154282
2246.68 1138072 1129492 1116184 1085456 1063494 1053448
2249.57 1046384 1035030 1023918 1005584 980776 959642
2252.46 953208 944516 912580 895686 881392 856078
2255.36 834308 833810 818458 802880 782054 774432
2258.25 766432 764914 749348 721640 715358 706926
2261.14 699320 675430 658752 658684 663452 659160
2264.03 656256 650514 653302 661802 661494 651552
2266.93 652852 665584 660462 664206 680636 698742
2269.82 716624 709922 706536 724366 730804 727036
2272.71 723748 730004 740038 735676 744828 773544
2275.61 793178 802618 817078 818056 816162 833670
2278.50 852426 862612 888162 911156 939892 961280
2281.39 956482 964152 988320 1004348 1030262 1062948
2284.28 1076884 1086380 1109034 1130650 1149282 1155280
2287.18 1165906 1210362 1268872 1291660 1286114 1288730
2290.07 1312742 1352976 1384208 1400426 1396900 1418812
2292.96 1450578 1468806 1468776 1481166 1502270 1504656
2295.85 1511934 1547798 1577858 1589978 1607604 1643552
2298.75 1668878 1683462 1686390 1697558 1705690 1708294
2301.64 1717520 1743710 1771014 1783468 1798810 1814900
2304.53 1827564 1840300 1844756 1846152 1856862 1853944
2307.43 1854430 1849732 1829998 1809076 1772026 1734208
2310.32 1727548 1718116 1699640 1681382 1667822 1648022
2313.21 1643238 1645980 1643452 1618234 1614100 1615590
2316.10 1598520 1573266 1568332 1544910 1509924 1484048
2319.00 1482972 1469908 1449900 1427940 1403530 1387012
2321.89 1364674 1333160 1322276 1311960 1279568 1248988
2324.78 1246330 1253976 1235328 1197550 1174982 1170872
2327.67 1140278 1118292 1125670 1123922 1100596 1083908
2330.57 1069746 1049122 1026030 1017902 1023268 995300
2333.46 944196 943980 984192 983428 964616 966962
2336.35 947770 915110 913516 933164 904674 861666
2339.24 867616 876588 865904 854434 873832 893566
2342.14 869400 865648 873716 848074 831830 844096
2345.03 818464 773892 740946 714838 698458 676124
2347.92 662404 655868 658274 655890 640608 632098
2350.82 620094 612570 638406 629688 633736 658360
2353.71 648538 644132 658674 654428 661734 679746
2356.60 671708 675896 708706 707018 710382 738526
2359.49 735890 744872 769314 774138 796164 812860
2362.39 815718 833284 835966 840392 857496 869700
2365.28 894408 909258 900542 927224 940316 940350
2368.17 940186 937832 953368 957056 960254 948484
2371.06 950546 973300 967952 989052 999420 980926
2373.96 983224 974526 974754 965990 955024 960840
2376.85 957120 951156 968368 974604 971332 963230
2379.74 952752 953484 951202 945496 951818 947596
2382.64 948720 949998 940210 928890 927892 927342
2385.53 929480 923784 921038 930728 930156 923646
2388.42 932618 952080 950294 952150 938080 921978
2391.31 927786 951232 959450 954768 936504 932600
2394.21 951982 961948 945362 941160 954190 957782
2397.10 963088 974274 982452 979536 978458 965812
2399.99 951188 976940 995218 987394 977732 981304
2402.88 992896 994580 1002410 1006170 1008802 1023830
2405.78 1038650 1058310 1076442 1049378 1030674 1035150
2408.67 1038964 1060964 1079986 1080246 1083490 1061300
2411.56 1057158 1068916 1082072 1084378 1070828 1069716
2414.46 1082268 1085042 1095026 1100086 1099012 1087256
2417.35 1104018 1133096 1135680 1130610 1127392 1121468
2420.24 1120304 1118312 1129870 1143376 1129986 1120192
2423.13 1132154 1158018 1159398 1133382 1137486 1144784
2426.03 1120402 1094872 1072184 1066948 1060596 1036222
2428.92 1027564 1040764 1031646 1015524 1014066 1006788
2431.81 1002414 1001334 988716 965050 947072 948254
2434.70 930856 921910 924900 904810 901682 911410
2437.60 895924 883090 888328 882026 871716 861086
2440.49 855742 845690 833010 837868 838662 832866
2443.38 844502 862132 857598 856326 851818 846082
2446.28 855256 875368 878948 896590 933038 953440
2449.17 971134 996924 1030358 1060130 1091798 1122580
2452.06 1124860 1161412 1209610 1253690 1293140 1296266
2454.95 1316668 1362322 1426344 1488382 1519772 1545132
2457.85 1586456 1636018 1679042 1729914 1777868 1826672
2460.74 1886262 1934150 1980918 2019812 2039934 2068980
2463.63 2103234 2146872 2197468 2225216 2250846 2308840
2466.52 2362024 2386770 2419952 2440436 2446282 2470294
2469.42 2502672 2521364 2534582 2550758 2575958 2601832
2472.31 2611106 2606462 2612690 2635814 2662072 2675756
2475.20 2670548 2647798 2648196 2658030 2667660 2663866
2478.10 2660942 2675108 2663504 2637146 2624194 2607744
2480.99 2572422 2533690 2515310 2478092 2432774 2402724
2483.88 2378172 2338978 2277742 2233588 2188492 2135774
2486.77 2114166 2094528 2055058 1998308 1941230 1921644
2489.67 1906486 1881006 1841776 1798472 1767962 1743630
2492.56 1709772 1654016 1601160 1570442 1553428 1531100
2495.45 1499508 1478948 1441528 1401736 1366410 1320072
2498.34 1262368 1233238 1200816 1151488 1109014 1089510
2501.24 1067850 1026970 986798 929394 877348 845238
2504.13 811740 764440 733760 711476 695206 676988
2507.02 637230 603144 574522 548828 521008 505438
2509.92 497914 481072 453020 417002 393208 384342
2512.81 357718 330400 305908 276778 272720 283276
2515.70 248096 217020 210556 189384 173600 173532
2518.59 167366 156306 142016 113234 115988 123172
2521.49 126402 110516 89630 100314 108054 96910
2524.38 100196 108160 87822 67114 85232 125324
2527.27 128892 124302 122158 110976 106668 122838
2530.16 142180 139324 133004 165622 176466 169962
2533.06 174406 192548 197256 199354 224802 244308
2535.95 241918 244616 262860 267414 256928 258116
2538.84 256054 270420 300750 323426 303422 286126
2541.74 300806 314462 318952 328218 335398 337820
2544.63 325368 322040 321220 321000 319812 321720
2547.52 318084 304442 307350 324598 334508 321980
2550.41 325302 329494 326896 320816 320116 333048
2553.31 336174 330060 322632 312072 305700 309480
2556.20 304500 294334 283020 286276 287074 270916
2559.09 260610 234204 215536 207384 200336 220484
2561.98 250066 246334 220924 199552 209178 207118
2564.88 186526 190234 190552 189986 183792 169184
2567.77 157930 163412 190084 185436 177332 179586
2570.66 184292 184218 176596 150274 151536 175844
2573.56 186200 181068 168298 172830 176616 172238
2576.45 177612 188122 195876 195578 179542 172682
2579.34 176926 177148 191678 223210 234056 210184
2582.23 226176 253244 256776 266596 280666 273944
2585.13 276924 297084 312708 327146 329636 336270
2588.02 363646 381168 401960 397900 387548 428988
2590.91 490548 508026 501614 520542 558670 597916
2593.80 618812 629504 652884 678114 687792 727248
2596.70 774030 810120 825534 833846 842472 874324
2599.59 912340 936468 954816 986940 1012216 1015550
2602.48 1015432 1044450 1089046 1108814 1122454 1151902
2605.37 1164252 1149528 1141158 1144098 1160482 1169218
2608.27 1175192 1188622 1196494 1209500 1235808 1251038
2611.16 1259532 1273932 1260746 1223788 1216984 1237600
2614.05 1242826 1210398 1165280 1159742 1154582 1142268
2616.95 1138958 1153796 1138432 1087262 1046842 1041050
2619.84 1046510 1042758 1029632 1009810 994824 956358
2622.73 925890 927468 928488 899364 889012 868296
2625.62 833958 815294 800422 773406 729518 705014
2628.52 700216 680010 674488 664332 650948 626894
2631.41 602346 596064 603470 585730 535972 528722
2634.30 528890 529188 525222 508994 500406 478514
2637.19 446312 424040 413338 387944 383378 411608
2640.09 401638 384820 386314 368676 355536 337830
2642.98 324118 335516 347230 325908 310668 308364
2645.87 308220 290760 287328 299050 313078 290494
2648.77 273002 274376 284862 291750 279168 276172
2651.66 283326 286696 291142 283128 287376 320236
2654.55 319884 316584 303978 309360 323692 340280
2657.44 355974 359932 370556 390734 388116 383608
2660.34 407024 402320 394914 402172 437852 480288
2663.23 493836 522168 543168 545188 553174 554724
2666.12 562310 575618 595518 619256 641240 680354
2669.01 695752 683768 679878 706124 748098 768952
2671.91 779008 776314 771214 805102 824306 832890
2674.80 844590 858764 863780 857044 857294 876726
2677.69 886306 863102 885376 909558 939620 989974
2680.59 1011676 1005462 1005602 1024740 1050820 1046460
2683.48 1035670 1060352 1100320 1100828 1058764 1060824
2686.37 1099326 1128012 1129394 1124188 1128590 1137398
2689.26 1152810 1168978 1169426 1150272 1155534 1172498
2692.16 1175792 1182824 1187726 1173858 1146120 1115348
2695.05 1096130 1088734 1076208 1065730 1047428 1040858
2697.94 1029406 1012392 1002434 1004318 993678 959898
2700.83 940912 934080 927772 940274 943818 958540
2703.73 986574 995596 994908 1008422 1014188 1017288
2706.62 1010656 982938 939426 915726 914788 914934
2709.51 906700 886582 880180 872818 824662 828414
2712.41 857390 842256 825388 822432 819800 842290
2715.30 878508 894922 873826 891506 931354 915580
2718.19 891662 928622 967746 952936 961602 987012
2721.08 979776 977628 954106 966798 976722 973490
2723.98 984842 1001794 1030068 1057734 1065780 1066920
2726.87 1093486 1110310 1104426 1105200 1113518 1123164
2729.76 1148034 1162292 1154126 1144168 1161282 1206728
2732.65 1242286 1270650 1292394 1299634 1300440 1313198
2735.55 1341470 1351432 1340610 1323454 1322258 1304310
2738.44 1300662 1338698 1350220 1356352 1384642 1400256
2741.33 1398948 1386642 1365202 1378576 1409242 1433510
2744.23 1466048 1504720 1519454 1522624 1533454 1541586
2747.12 1548256 1601532 1640670 1643302 1658118 1703098
2750.01 1755096 1768830 1776460 1808346 1809522 1778904
2752.90 1779106 1802846 1838228 1854040 1850834 1864582
2755.80 1859992 1845006 1855010 1882458 1884508 1888856
2758.69 1907546 1929164 1929694 1932758 1938428 1926236
2761.58 1906740 1868148 1852976 1859350 1860308 1858404
2764.47 1849246 1853910 1860792 1869304 1869842 1843660
2767.37 1853914 1888174 1884960 1878422 1867448 1863246
2770.26 1911286 1938062 1930108 1930428 1951734 1951714
2773.15 1920298 1909630 1936488 1938780 1929320 1928170
2776.05 1914250 1919514 1946340 1933508 1930306 1940030
2778.94 1940208 1913570 1907490 1924682 1913980 1897592
2781.83 1895632 1902592 1907606 1894102 1885362 1900604
2784.72 1921844 1947152 1934458 1918880 1907742 1913888
2787.62 1925826 1905040 1901756 1908018 1895042 1871810
2790.51 1871656 1881914 1837572 1805004 1790072 1780964
2793.40 1787996 1798464 1817018 1818236 1801746 1781872
2796.29 1755804 1747666 1764534 1774992 1745316 1739956
2799.19 1742760 1747306 1743056 1743008 1738288 1742106
2802.08 1764664 1777000 1810014 1819842 1836892 1874232
2804.97 1914660 1938254 1948542 1962374 2013842 2061228
2807.87 2086056 2111748 2139104 2192752 2230946 2235594
2810.76 2277616 2335928 2409862 2481196 2536200 2583350
2813.65 2629522 2670414 2717288 2760970 2774116 2806874
2816.54 2872144 2927954 2947616 2943510 2928668 2973650
2819.44 3028932 3059222 3097668 3114022 3099800 3110692
2822.33 3144670 3194396 3232982 3251982 3252130 3288690
2825.22 3326178 3334104 3362592 3425914 3465866 3490452
2828.11 3534338 3562162 3596426 3624954 3634728 3662944
2831.01 3697368 3691680 3705810 3755794 3778368 3765056
2833.90 3765478 3809894 3837710 3870800 3907722 3952324
2836.79 3991528 4023476 4091994 4160190 4194834 4244202
2839.69 4299128 4360816 4444900 4508274 4554444 4634660
2842.58 4725746 4789884 4854998 4905212 4939924 4970432
2845.47 5025394 5091176 5195098 5284688 5311002 5349148
2848.36 5444950 5501376 5529666 5601028 5691254 5769876
2851.26 5865084 5967660 6049600 6101064 6157834 6256436
2854.15 6353434 6380427 6415078 6513632 6591636 6647502
2857.04 6664658 6693236 6753256 6792008 6832772 6913994
2859.93 6965964 6964016 7008040 7086664 7171180 7228160
2862.83 7249598 7305594 7401044 7474290 7545236 7634058
2865.72 7732752 7861808 7998040 8137312 8319626 8525180
2868.61 8716966 8922184 9144644 9396618 9664150 10000850
2871.51 10367820 10753440 11181970 11597750 12003440 12472210
2874.40 12994500 13532910 14103810 14680980 15242090 15814400
2877.29 16361610 16909720 17460580 17864100 18207080 18558400
2880.18 18839720 19026670 19164720 19225690 19221840 19226200
2883.08 19315420 19464950 19641670 19928190 20330940 20843140
2885.97 21370240 21860890 22203020 22397260 22511250 22614610
2888.86 22801690 23066460 23317850 23570180 23885890 24168540
2891.75 24444270 24686070 24887540 25088880 25285100 25455830
2894.65 25586970 25739990 25829580 25882910 25931370 25995070
2897.54 26059300 26154030 26263770 26382930 26574350 26870470
2900.43 27144120 27433120 27680090 27831040 27979200 28112980
2903.32 28204080 28360010 28603830 28834320 29074640 29384190
2906.22 29711660 30066410 30434260 30795470 31171650 31521700
2909.11 31855160 32149450 32402600 32619240 32756870 32877830
2912.00 32963600 33058580 33139550 33172240 33230380 33289290
2914.90 33307460 33254580 33092950 32769890 32349470 31943920
2917.79 31663090 31459190 31288300 31252830 31319340 31481140
2920.68 31691050 31904570 32135500 32359090 32551060 32758720
2923.57 32924220 33043690 33147050 33253200 33321250 33363360
2926.47 33394860 33439230 33513910 33638410 33776920 33978510
2929.36 34301450 34682860 35166560 35742430 36388260 37119310
2932.25 37872930 38667580 39530490 40471940 41501500 42609370
2935.14 43774790 44915840 46033480 47120900 48125230 49022290
2938.04 49760770 50408380 50995910 51511030 51965280 52401020
2940.93 52919700 53599150 54434340 55622280 56987710 58048760
2943.82 58658260 59034340 59460290 60012330 60671950 61462820
2946.72 62417170 63497270 64537960 65502470 66268180 66685420
2949.61 66777250 66586220 66247390 65861880 65503420 65288340
2952.50 65223500 65185390 65243660 65454340 65810080 66345430
2955.39 67018970 67492260 67217790 66304640 65563570 65336870
2958.29 65384480 65538220 65722800 65913710 66094780 66247710
2961.18 66349580 66566180 66778960 66970830 67324100 67897100
2964.07 69012200 70315460 70807060 70321860 69760480 69675900
2966.96 70215300 71143490 71930230 72589900 73328140 74144360
2969.86 75003660 75978420 77130560 78500220 80201910 82199380
2972.75 84394720 86862630 89512810 92140100 94791060 97553290
2975.64 100371600 103177800 105985000 108778400 111551100 114250500
2978.54 116932400 119689600 122544800 125610600 129119300 133723000
2981.43 139543500 143286100 141667400 138581400 137173700 136664000
2984.32 136612000 136820600 137204000 137639100 138060200 138593000
2987.21 139513700 140667300 142042300 143260800 143745300 143575300
2990.11 143328300 143403900 143918900 145325700 147974300 151768100
2993.00 156635900 162813300 171294400 182528900 188141000 179847300
2995.89 166925400 157735700 151608300 146845900 142727600 138945900
2998.78 135265900 131600900 127934400 124296600 120792400 117285400
3001.68 113692600 110172300 106715900 103260500 99936940 96883210
3004.57 94176410 91883570 89784260 87577730 85320280 83261140
3007.46 81468230 79903010 78437020 76993350 75516960 73963540
3010.36 72320360 70595860 68776750 66901470 65025240 63090460
3013.25 61120620 59093070 57028360 55043750 53085160 51113720
3016.14 49152720 47219020 45384960 43602960 41884590 40277220
3019.03 38711620 37225130 35854030 34554150 33265450 32024220
3021.93 30858100 29782250 28814220 27867930 26973970 26132410
3024.82 25269820 24455960 23761420 23068360 22390370 21775860
3027.71 21252490 20796790 20325310 19881320 19449920 19015600
3030.60 18598820 18184460 17775600 17422890 17129160 16878720
3033.50 16649520 16469660 16298430 16144760 15982230 15769920
3036.39 15572250 15410670 15252310 15055670 14866430 14688480
3039.28 14493120 14288800 14132390 14004770 13843830 13705650
3042.18 13545220 13359130 13202560 13088940 12998610 12907960
3045.07 12781240 12656820 12564100 12467700 12369360 12268190
3047.96 12179350 12128610 12097270 12043840 12012700 11962490
3050.85 11889900 11845590 11820650 11758620 11701140 11666260
3053.75 11630590 11602090 11559990 11477670 11392420 11359170
3056.64 11325920 11226700 11178800 11100510 11005060 10946290
3059.53 10877670 10733030 10592580 10520830 10432590 10328610
3062.42 10280020 10204120 10045820 9944238 9883970 9790420
3065.32 9669404 9539256 9439080 9382040 9278400 9128698
3068.21 9013034 8910890 8834754 8741482 8600688 8448420
3071.10 8334766 8241176 8119260 7991306 7875502 7760086
3074.00 7671588 7604872 7474440 7291628 7158600 7042378
3076.89 6935356 6837270 6687568 6535084 6430458 6368504
3079.78 6266784 6162064 6081218 5996114 5889732 5775752
3082.67 5687782 5623790 5506012 5398238 5346662 5287332
3085.57 5197152 5161424 5127632 5048350 4940882 4879554
3088.46 4834850 4778538 4729020 4664826 4587192 4479928
3091.35 4444356 4440332 4407986 4382048 4333416 4267086
3094.24 4206260 4173550 4155792 4112392 4047090 3991560
3097.14 3978230 3948154 3892856 3884534 3860636 3786276
3100.03 3766866 3744798 3711544 3683706 3642012 3581058
3102.92 3523454 3475150 3438558 3410140 3353214 3286250
3105.82 3255458 3266786 3243484 3188002 3166666 3143040
3108.71 3062284 3001248 2988206 2929680 2857748 2797074
3111.60 2775174 2771244 2740222 2711390 2694980 2688610
3114.49 2648016 2602924 2586938 2581194 2563820 2506710
3117.39 2481602 2506988 2526400 2501656 2450386 2454054
3120.28 2456612 2404122 2362022 2338792 2328214 2319084
3123.17 2317788 2303226 2271392 2251686 2271818 2298246
3126.06 2276852 2259134 2253716 2193950 2192122 2215314
3128.96 2202890 2212022 2249438 2256998 2245472 2248538
3131.85 2252580 2250480 2233378 2230594 2227646 2214420
3134.74 2181256 2145420 2131470 2117434 2143158 2139824
3137.64 2112548 2083838 2035556 1997600 1977958 1974184
3140.53 1947452 1900252 1875142 1822018 1801820 1793662
3143.42 1756240 1734486 1742352 1752120 1737582 1722050
3146.31 1752598 1733132 1660806 1633186 1634014 1632198
3149.21 1607352 1590790 1560644 1558018 1576016 1578758
3152.10 1509670 1431990 1377500 1368336 1386204 1391708
3154.99 1372072 1345734 1332552 1330140 1324516 1319334
3157.88 1288518 1281930 1258092 1232770 1266732 1271506
3160.78 1227824 1232662 1251248 1244590 1252034 1250036
3163.67 1240888 1222828 1219354 1228108 1232970 1254172
3166.56 1291924 1287994 1274042 1271002 1247108 1255698
3169.46 1258640 1247994 1309014 1320066 1308332 1316420
3172.35 1313040 1324236 1358778 1392790 1411614 1448100
3175.24 1412970 1391530 1393162 1434858 1460670 1437434
3178.13 1465466 1498182 1519534 1538736 1549012 1545324
3181.03 1542006 1520302 1513734 1544084 1565660 1571990
3183.92 1551234 1513648 1521284 1548180 1565794 1587084
3186.81 1595422 1576172 1571470 1570898 1554666 1538220
3189.70 1528558 1533158 1540046 1546296 1547912 1520578
3192.60 1496532 1481756 1446504 1447052 1451832 1443102
3195.49 1449866 1451820 1418738 1405000 1377752 1402432
3198.38 1443316 1429530 1414972 1395582 1365786 1341758
3201.27 1354636 1318778 1270996 1259838 1290278 1271694
3204.17 1229394 1200696 1197434 1221516 1224656 1198718
3207.06 1187884 1178206 1139280 1077820 1043804 1076450
3209.95 1131900 1129190 1087826 1034274 1000342 984200
3212.85 1001854 985428 972156 970810 972214 963304
3215.74 961992 949646 911806 882320 876042 866102
3218.63 873894 854800 857194 822144 767394 765604
3221.52 789506 769630 771102 774154 749108 753116
3224.42 771102 756348 738710 731156 713750 697554
3227.31 673246 608876 583404 600678 606050 604402
3230.20 631872 671436 665022 641164 647768 610428
3233.09 562690 547180 552130 543122 545848 545624
3235.99 533674 549132 541518 537064 525460 522728
3238.88 563228 563864 488970 454980 490902 470154
3241.77 464556 490282 474452 441796 422620 404622
3244.67 399866 390266 358996 393910 419502 343920
3247.56 313132 338076 324996 296670 342126 354208
3250.45 297572 233960 221220 255512 310588 316002
3253.34 268992 234644 222238 230112 222646 186530
3256.24 165866 175132 174890 184734 165270 144656
3259.13 160876 153954 109976 99796 124824 150224
3262.02 128088 100704 155186 155460 102312 61088
3264.91 51200 47592 64236 43478 16970 16474
3267.81 23452 61762 93984 108734 96262 93712
3270.70 67876 12248 40734 77532 84414 64714
3273.59 23530 19984 32582 76382 107798 75286
3276.49 48794 61906 19546-7460 32694 36774
3279.38 60312 81878 84800 36912 11192 37652
3282.27 59316 64506 73266 81072 90792 72430
3285.16 59266 76314 43224 34000 71192 103852
3288.06 80818 71420 89338 112968 118466 105212
3290.95 100212 91010 72580 59456 61490 47218
3293.84 76628 113710 92978 69756 83432 88808
3296.73 113810 110882 100032 102892 110328 125354
3299.63 106432 59946 79702 94898 101632 148106
3302.52 165616 141346 143468 156820 106246 97298
3305.41 167368 154618 91982 86782 79928 77872
3308.31 79432 127096 142240 122214 115468 105510
3311.20 111286 121366 83096 69008 92270 113240
3314.09 83856 86526 125632 142768 119944 96126
3316.98 92902 89844 114924 135836 143220 165550
3319.88 158742 78476 76964 92360 90380 82010
3322.77 35800 35204 45972 68252 80242 64588
3325.66 67942 115572 111736 70942 91520 111606
3328.55 56718 39260 64196 66810 33122 31234
3331.45 33520 40642 76128 99204 76410 45656
3334.34 14726 27238 93952 83598 34624 36996
3337.23 68970 62718-8046-37866 5208 21556
3340.13-7754-34050-39338 2822 26310-22412
3343.02-79398-70514-19572-1658 27828 9420
3345.91 1928 13848 18904-3128 27334 80826
3348.80 94906 98950 57250 22082 68468 101240
3351.70 98044 79340 84702 133752 143618 110232
3354.59 94816 99142 128210 165210 166774 168866
3357.48 167500 146710 130322 100704 89092 128652
3360.37 148306 141390 134534 142544 131432 92872
3363.27 80748 69750 77454 135382 136978 132414
3366.16 130396 101032 102514 143144 148474 140588
3369.05 117322 58828 47270 63738 46222 30192
3371.95 12220 30968 42790 35508 48286 18956
3374.84-25238-46258-29122 7076-20682-20948
3377.73-22460-23532-64832-72526-29458-15336
3380.62-62456-85346-65258-98220-114772-91768
3383.52-69550-80764-83132-83480-78992-43096
3386.41-19778-78846-130924-122492-93110-78906
3389.30-54350-21916 5156 13962-11232-59754
3392.19-81386-76276-104092-133836-81048-51722
3395.09-56694-73768-37416-9096-20430-41344
3397.98-56068-69858-34098 12684 27278 3060
3400.87-46816-71584-83016-64614-56648-33728
3403.77 7812 34906 18542-9574-8310 33416
3406.66 11394-14180 19006-2928-67220-48116
3409.55-12224 9130 24108 118-6836 29364
3412.44 54940 41372 45218 106380 135928 91982
3415.34 70474 84718 91418 85986 63304 71576
3418.23 102956 144574 141134 122076 106534 114810
3421.12 146912 132042 86468 86262 140390 139006
3424.01 152220 154116 125712 135296 145774 132410
3426.91 114218 142916 167896 169500 164904 184818
3429.80 199030 169670 121922 100804 124272 196904
3432.69 195128 196890 234948 209912 110104 120238
3435.59 183922 162316 170910 217490 224448 188056
3438.48 178918 179422 156122 182046 165050 142756
3441.37 132512 148794 134252 162308 189788 159184
3444.26 146342 158962 172678 178638 112662 54470
3447.16 65718 115988 161230 176276 149992 130890
3450.05 153214 176886 180040 151578 142056 114592
3452.94 90228 123386 112070 101654 154870 176006
3455.83 118824 100388 134038 107962 60360 102040
3458.73 108636 87788 94462 35638-14452 9520
3461.62 44266 87150 78996 83610 99244 38882
3464.51 3310-2294 51126 93552 43974 11572
3467.40 40886 51478 63112 34994-55478-13446
3470.30 72962 82228 43298 16244-6152-8086
3473.19 3364 10378 58614 101562 106300 123356
3476.08 136314 149478 173300 174306 227442 312920
3478.98 338602 303306 308026 369088 407228 423350
3481.87 457562 487982 551834 648928 749408 828306
3484.76 855936 886598 980104 1061260 1098952 1181196
3487.65 1289230 1389456 1492484 1590384 1722848 1908154
3490.55 2057976 2160794 2282796 2437570 2585584 2751200
3493.44 2930148 3063822 3237264 3437760 3628546 3770950
3496.33 3936506 4158924 4316624 4485642 4759236 5030184
3499.22 5206422 5340414 5508572 5670136 5816168 5936728
3502.12 6038264 6103860 6170700 6270894 6305200 6284666
3505.01 6265972 6242300 6215134 6157738 6098110 6021746
3507.90 5938588 5884814 5803852 5744570 5788284 5852704
3510.80 5944862 6092260 6307136 6560090 6781972 6936510
3513.69 7021152 7014172 6996194 6974140 6872324 6747654
3516.58 6602118 6407460 6177072 5953582 5731268 5468318
3519.47 5183146 4886084 4627728 4430854 4195520 3896432
3522.37 3607390 3373360 3113148 2883928 2752308 2537970
3525.26 2285832 2124656 1965528 1800408 1641438 1437584
3528.15 1263286 1141880 1073434 997094 846132 692694
3531.04 631802 527290 342360 251538 208574 131922
3533.94 66880 17488-48408-170796-294594-326876
3536.83-330132-346880-356322-412234-487560-538090
3539.72-572954-613516-619086-590648-603664-667110
3542.62-729348-746248-725620-731958-781770-797264
3545.51-775214-848950-916724-865280-829404-787072
3548.40-816942-901502-896026-865632-814484-765730
3551.29-843414-906864-823912-808122-847242-841718
3554.19-813666-807786-799862-809342-791254-780854
3557.08-810846-832472-802184-798276-793034-807262
3559.97-801738-797894-768046-751596-813558-807140
3562.86-818940-810698-753930-723568-780710-871310
3565.76-949776-943228-807562-875490-965872-809422
3568.65-690586-644876-670088-667880-627418-592494
3571.54-567644-563060-558972-546870-556334-564204
3574.44-590238-541326-466116-474690-500398-490066
3577.33-455564-456962-492098-483536-493064-514046
3580.22-469332-389398-325864-305210-345396-356004
3583.11-354576-307540-278902-293442-327414-428018
3586.01-615596-519670-335294-342902-606814-611644
3588.90-252756-171394-244564-244438-187774-162552
3591.79-174664-242878-284250-231954-203746-205754
3594.68-293466-292224-182766-147880-120324-133808
3597.58-188810-206976-185142-202896-150942-148348
3600.47-212992-191502-142282-137904-125676-91274
3603.36-48356-65380-100364-118504-110892-140448
3606.26-223824-281344-211406-159066-306486-704334
3609.15-554264-193142-165928-156986-169450-341562
3612.04-545420-354488-145602-172482-270780-263676
3614.93-226430-172666-141366-194916-346194-396954
3617.83-275454-255302-579514-761564-408802-233436
3620.72-254508-239448-204340-207056-195498-180746
3623.61-157494-162868-179198-216254-255824-251082
3626.50-241868-301732-664562-949928-711572-1047064
3629.40-942702-383802-248204-196974-179916-198152
3632.29-227748-282756-395536-341258-258718-212736
3635.18-193252-178584-191664-210484-235284-298558
3638.08-266138-227666-223458-205762-201908-198386
3640.97-192322-238126-287014-236532-219140-241790
3643.86-253976-263642-268612-281778-389310-518398
3646.75-695568-636964-403986-605720-1211932-936614
3649.65-502156-661382-695648-546808-281988-234030
3652.54-246254-248798-210526-207524-223794-295844
3655.43-692488-957292-471180-241744-213648-193832
3658.32-206032-232714-231650-237394-199988-190736
3661.22-197832-206176-228458-233118-231126-260150
3664.11-273994-251652-199776-213468-221236-232900
3667.00-247434-305746-572328-699872-439744-454100
3669.90-1115532-1494086-670152-249854-166774-215136
3672.79-228836-318464-499580-926228-998926-1246196
3675.68-1354368-607310-313912-284100-238284-256432
3678.57-387452-418250-281422-230600-213126-227814
3681.47-203930-203558-206662-205944-176666-187856
3684.36-189376-192504-196860-222718-206140-270030
3687.25-553750-1530428-1548014-578264-274446-309370
3690.14-413034-642202-576892-266146-210846-226832
3693.04-250244-246062-251116-201294-172452-189306
3695.93-248984-245708-213566-194966-190744-194394
3698.82-196862-201718-220906-237474-335994-549388
3701.72-441830-263604-245130-200896-189558-168210
3704.61-187574-236882-254796-264606-250038-238550
3707.50-263632-301976-487954-643734-415546-276336
3710.39-326110-372260-875974-1194942-609354-261122
3713.29-217392-255128-290756-252578-196330-191884
3716.18-209524-223318-198988-204684-253814-319482
3719.07-237908-193968-205508-206266-249270-416168
3721.96-433382-291628-197958-149930-213598-335576
3724.86-323620-278944-458730-525948-303484-231774
3727.75-183616-137688-145872-152356-140048-155104
3730.64-237850-602136-1067366-723334-274070-248188
3733.54-298002-454516-579028-530192-396664-770906
3736.43-918616-410414-214212-271844-282794-252996
3739.32-225294-186392-217506-289900-244156-172312
3742.21-155290-229526-639850-1645718-2425688-1484148
3745.11-411338-182124-182436-197600-206038-205048
3748.00-297314-1056690-1722994-926992-252728-225462
3750.89-368784-1241028-1775294-789788-213164-162690
3753.78-118916-82286-94818-77810-174448-262384
3756.68-142552-50696-58028-97174-166358-341206
3759.57-378950-128982-10962-15256-28770 8666
3762.46 6782-32624-40494-3336-13946-155350
3765.35-272994-89858 22636 37902 36712 34394
3768.25 4240-100168-471100-441754-88092-18562
3771.14-7426 54554 60212 25378 23670 55018
3774.03 80568 65968 61558 49344 45570 34188
3776.93 2970-41408-40084-105912-299930-255640
3779.82-48012-3122 5384 22434 47398 35578
3782.71 36450-3096-74082-126288-71378 10366
3785.60 2974-28474-28930-49268-66624-52120
3788.50-46088-43504-17610-25724-12502 5748
3791.39 2996-22696 7520 4018-12962-21576
3794.28-31756-72608-135018-341208-322392-124632
3797.17-85212-79590-45682-89218-95508-131402
3800.07-254414-1013188-1495808-619638-146084-181732
3802.96-138196-59008-20230-9202-63218-140622
3805.85-340586-955470-871950-215256-56720-13584
3808.75-23600-32808-33560 1850-14152-3300
3811.64-26326-3640-38842-63936-81214-81124
3814.53-139652-546970-1457628-1091520-241210-81792
3817.42-81650-85834-51342-53488-158922-444604
3820.32-675024-667644-768146-382046-32592-45652
3823.21-56578-33292-24704 472-14098-75314
3826.10-205942-193474-34070 28378 25388 2804
3828.99-19100-43328-32014-103650-326332-381640
3831.89-84160 11802-3310-35290-113756-450210
3834.78-373430-58292-26726-83142-435788-1462276
3837.67-1293634-275126-54862-125678-189692-209796
3840.57-325622-150468-18918-11056-66590-225242
3843.46-241398-26550 10866 5042 35884 47546
3846.35 38756 85432 55252 48384 17266 3744
3849.24-32228-21728-16840-115990-777434-1273140
3852.14-563112-247996-1022810-2198386-1802974-496388
3855.03 16276 48146-25050-118072-125024-4778
3857.92 57786 60498 27806 11828 5658 41068
3860.81-88878-249580-99600 41090-6678-33994
3863.71-108716-389104-634984-269740-51170-5188
3866.60 23762 54904 11004-80412-301168-497182
3869.49-930102-716120-111884-11048 32878 41268
3872.39 13460-47936-203658-332146-171320-13640
3875.28 32710 51074 44360 51784 63792 36028
3878.17 14736-3150-129456-371882-343112-158260
3881.06-51970 3128 1070-39436-58680-3958
3883.96 13298-80150-556332-730448-235224 19770
3886.85 20862 2884-12808 45168 62830 42130
3889.74 23152-167568-566546-401958-65244 14902
3892.63 37518-24944-20760 32940 41884 58056
3895.53 80792 52814 57112 48890 16150-666
3898.42-194740-395936-164712 22010 49604-171864
3901.31-508438-284258 43392 69120-177636-509734
3904.21-247254 20494-18156-44594 61278 98726
3907.10 72464 99818 121924 99214 78904 100386
3909.99 127210 157512 162986 132926 91256 92688
3912.88 88534 88818 81274 101350 140446 161710
3915.78 101880 23798-105838-10470 94960 95864
3918.67 127212 17676-101128 9618 111148 128962
3921.56 128662 142210 129524 125224 128354 97038
3924.45 55766 94270 148048 124880 146554 166624
3927.35 156560 156368 165456 120896 103300 116676
3930.24 118166 135304 108962 50486 67160 171124
3933.13 215266 198898 199204 236116 230038 230008
3936.03 247290 239196 236482 247064 247612 243390
3938.92 237432 225018 237870 248946 308120 323114
3941.81 180232 80594 193962 312058 328254 291428
3944.70 248702 250666 272956 268742 232050 238772
3947.60 253888 180716 145372 269826 351628 378392
3950.49 433446 377144 347804 340776 285856 275126
3953.38 323208 326288 319098 338718 390132 343910
3956.27 298104 314904 352332 384282 407718 372274
3959.17 344542 373688 389208 380804 367134 353610
3962.06 391758 355228 318890 346900 343642 351248
3964.95 377866 384586 402470 418542 432232 446078
3967.85 453634 410468 405280 434402 477644 493762
3970.74 476452 484040 497954 538734 544002 554950
3973.63 542016 540932 570078
##END=
