##TITLE=Ethyl Acetate
##JCAMP-DX=4.24
##DATA TYPE=INFRARED SPECTRUM
##CLASS=IUPAC A
##ORIGIN=NIST, Anayltical Chemistry Division, 301-975-3108
##OWNER=COPYRIGHT (C) 1998 by the U.S. Secretary of Commerce
##DATE=98/10/1
##$SPECTRA VERSION=1.00
##$UNCERTAINTY IN Y=2.0 % relative (B=1.0E-04,C=6.3E-10,D=2.7E-14)
##CAS NAME=Ethyl Ester Acetic Acid
##CAS REGISTRY NO=141-78-6
##MOLFORM=C H3 C O2 C H2 C H3
##MP=-83.58 C
##BP=77.06 C
##$NIST SOURCE=QUANT-IR
##SPECTROMETER/DATA SYSTEM=IFS66V (Bruker)
##INSTRUMENT PARAMETERS=KBr Beam splitter; MCT Detector; Multipass cell
##STATE=gas
##SAMPLE DESCRIPTION=Ethyl Acetate Primary Gas Standard
##PRESSURE=101.3 kPa
##TEMPERATURE=23 C
##SAMPLING PROCEDURE=1 L/min Flow
##RESOLUTION=0.9640
##DATA PROCESSING=Boxcar Apodization
##XUNITS=cm-1
##YUNITS=(micromol/mol)-1m-1 (base 10)
##XFACTOR=1.0
##YFACTOR=18.189E-13
##DELTAX=0.4820
##FIRSTX=575.169
##LASTX=3975.077
##FIRSTY=-4.25E-07
##MAXX=3974.59
##MINX=575.17
##MAXY=.0020046
##MINY=-6.15E-06
##NPOINTS=7053
##XYDATA=(X++(Y..Y))
575.17-234160 505042 724758 803986 444382 17664
577.58 855334 1116122 763192 824130 861310 1015500
580.47 1041774 1552898 1292384 2003442 1517604 1782418
583.37 2044088 2483324 2294572 2100334 2654538 2787598
586.26 3401568 3612454 3809974 3720324 4131952 4336752
589.15 4727698 5172442 4921496 5383346 5598018 5230446
592.04 6388724 6428428 6576908 6714058 7404200 7366980
594.94 8121606 8408686 8456014 8729112 8373198 9316574
597.83 9734012 9762252 9590296 10246320 10264170 10792370
600.72 11279780 11548780 12375800 12781170 14358650 15942570
603.61 15569020 16625650 17511380 18686140 19091740 19726220
606.51 20140590 18993020 17896870 17367910 16896450 16712650
609.40 16340280 16011680 16264910 16146830 15938820 15561210
612.29 15198970 15262860 14977470 14912310 14887210 15155020
615.18 15079980 15089910 15473090 15663110 15947090 16192320
618.08 16548490 16945820 17470770 17948500 18779180 19229890
620.97 20104820 20749630 21768360 22606910 23459780 24939590
623.86 25656570 26382590 27433240 27906680 28268070 28553580
626.76 28658350 28586500 28257750 27823260 26757330 25690350
629.65 24963970 23983140 23799470 24564740 26176900 26999240
632.54 25841860 23772870 22696490 22746200 22869810 23446130
635.43 23713210 24037510 24038650 24767520 25077270 23453080
638.33 21953060 21466830 21139930 20672340 20507050 20453690
641.22 20006050 19422030 18657140 17886480 16954340 15974660
644.11 14997300 14162770 12820280 11774200 10689590 9600254
647.00 8633912 7899758 6901174 6289120 5524252 5034984
649.90 4320868 4028994 3553412 3121840 2859222 2592544
652.79 2343792 2146300 1969236 1715876 1424858 1661876
655.68 1417332 1460244 1389468 1140394 1292694 1047382
658.58 1105172 1070882 954590 863432 893334 833468
661.47 768680 742292 556646 793406 671310 566824
664.36 443174 527262 308174 574860 638546 383924
667.25 550982 559470 301088 382154 362400 362480
670.15 479044 459540 334078 458454 355036 394974
673.04 238684 442730 295142 313832 357626 184442
675.93 183188 330140 382968 218594 376136 252676
678.82 199608 275390 156916 164536 186158 215434
681.72 45506 104402 92098 191484 316560 66134
684.61 319454 97906 172952 156870 124632 272022
687.50 156074 203494 192816 169808 83604 132730
690.40 204644 137200 303734-29426 140622 141086
693.29 209534 135098 44662 46504 176824 335130
696.18 143670 193074 208112 45532 165948 128046
699.07 47034 151876-36602 25356 37184 105626
701.97 87640 88202 102340 88150 131138 193644
704.86 126336 236722 59052 23144 99506 126152
707.75 177778 187090 167776 70190 216012 142872
710.64 141596 320430 127204 144120 237578 197502
713.54 260264 212272 130008 172874 296266 333586
716.43 144544 258100 281462 250308 178002 240994
719.32 225664 307704 300272 221634 299452 206920
722.22 289296 271852 295044 230318 296938 267200
725.11 199306 253224 329026 377460 296908 249116
728.00 233810 349106 276846 331340 447470 366968
730.89 400664 376096 372326 387522 433480 389292
733.79 456168 391112 522430 356252 405304 450192
736.68 454770 516308 527952 512764 496972 517544
739.57 489118 493558 532696 574220 594804 625460
742.46 669924 630374 672130 613742 666848 790752
745.36 751618 796662 854922 907196 915830 891532
748.25 885096 973588 1049572 1090402 1175192 1153742
751.14 1237352 1335470 1269014 1435668 1482808 1503022
754.04 1480732 1717082 1705712 1721122 1868000 2096072
756.93 2125998 2169854 2203622 2468332 2486258 2594416
759.82 2689316 2937288 3058024 3178518 3413662 3438846
762.71 3683600 3866828 4082216 4152856 4444388 4579000
765.61 4881250 5073888 5229288 5452794 5733436 5947350
768.50 6218596 6520402 6838886 7173440 7344948 7725120
771.39 7987138 8355412 8611918 9114508 9299820 9628534
774.28 9963840 10457510 10835510 11152290 11614380 11805530
777.18 12158610 12350740 12602260 12800420 13128680 13349650
780.07 13487860 13419850 13471280 13429060 13411070 13367180
782.96 13161980 12999710 12867460 12830430 13251550 13495500
785.86 13001000 13111700 13611020 14144090 14423740 14723320
788.75 14739890 14816810 14752030 14597880 14482810 14421040
791.64 14147300 14108390 13807650 13688450 13384340 13092490
794.53 12899180 12614910 12270940 11944070 11774600 11283810
797.43 11086800 10793660 10505450 10145220 9758864 9711346
800.32 9307082 9181300 8895514 8567198 8397690 8179536
803.21 8019068 7852328 7580226 7409418 7302100 7080578
806.10 6900112 6839890 6413380 6463296 6385242 6487616
809.00 6544578 6264984 6066858 5721264 5597380 5528512
811.89 5416082 5390840 5199204 5161366 5139708 5081342
814.78 5030400 5101762 4982046 4997238 5014668 5080902
817.68 5075988 5025484 5202224 5123200 5160248 5214494
820.57 5479602 5621868 5727648 5762340 5919226 6058700
823.46 6360016 6391872 6645394 6779158 7115638 7285690
826.35 7699824 7806180 8015620 8397486 8645366 8984414
829.25 9379036 9710808 10179490 10576190 10907310 11281690
832.14 11703630 12289350 12774980 13189810 13653990 14423320
835.03 14778750 15261380 15889590 16455800 17065910 17633480
837.92 18116660 18624430 19225470 19600610 20182260 20722230
840.82 20918780 21278130 21300720 21648880 21617440 21805520
843.71 21688710 21513960 21432570 21581780 21759300 21905430
846.60 21982490 22061770 22254170 22544180 22693430 22940990
849.50 22865770 22924000 22882290 22929930 22914770 22789130
852.39 22873170 22766510 22769350 22772840 22738000 22510110
855.28 22476840 22315220 22033540 21839440 21498090 21055970
858.17 20678270 20217750 19714610 19180880 18533270 17940230
861.07 17306810 16748560 16086960 15426800 14766680 14133610
863.96 13620420 13102040 12497320 12055860 11438220 10930110
866.85 10481440 9954286 9498196 9173464 8837466 8247872
869.74 8004838 7651010 7437804 7009168 6713682 6497530
872.64 6190462 5919452 5625424 5501184 5156954 4967394
875.53 4746944 4536600 4419170 4200558 4094398 3919260
878.42 3706782 3565472 3430982 3394668 3219846 3168710
881.31 2952470 2921852 2879838 2747930 2659108 2681074
884.21 2584784 2558486 2414220 2385076 2388754 2361384
887.10 2298984 2271592 2253652 2256250 2308170 2187258
889.99 2253410 2296098 2378010 2412318 2468098 2514410
892.89 2483732 2582344 2611906 2721746 2857456 2984824
895.78 3061102 3265300 3454654 3677556 3895720 4068542
898.67 4359412 4741960 5074876 5394826 5783818 6310496
901.56 6783102 7247378 7883498 8489736 8940468 9675790
904.46 10321470 10883690 11488300 12098020 12629270 13300170
907.35 13598570 14112930 14418010 14801530 14956690 15308960
910.24 15246900 15502730 15600760 15851130 16177660 16989910
913.13 17720280 19834600 19820260 18954680 18475460 17996710
916.03 18079820 18150900 18593030 18868940 19285860 19639630
918.92 20092900 20366180 20762460 20972560 21280670 21408660
921.81 21713630 21723890 22019960 22032070 22209760 22344640
924.71 22398240 22721980 22840530 23115200 23304830 23579430
927.60 23913560 24076290 24352390 24688590 24810030 25027040
930.49 25097470 25131330 24855330 24695760 24496330 23939890
933.38 23378150 22831170 22111980 21307760 20431580 19894330
936.28 19390690 19187560 19296250 19750300 20577360 21679540
939.17 21771560 19600790 17047260 16041630 16134330 16676590
942.06 17286020 17954650 18546810 18974770 19186020 19101050
944.95 18952580 18465000 17825100 16938790 15991770 14956110
947.85 13734980 12611910 11475900 10454250 9401994 8425236
950.74 7667350 6848082 6212164 5636648 5141458 4748468
953.63 4358466 4111642 3884698 3709468 3540922 3405456
956.53 3286300 3159664 3044154 2983628 2988374 2951404
959.42 2885596 2854658 2759134 2789478 2811732 2709448
962.31 2751900 2757738 2780168 2747108 2786696 2768650
965.20 2818554 2813572 2837710 2904016 2899754 2939350
968.10 2979530 3056692 3065444 3212876 3223672 3292102
970.99 3392076 3462296 3548998 3610572 3741730 3729790
973.88 3905764 3926828 4069552 4178918 4290146 4417966
976.77 4545680 4706198 4921636 5036312 5163074 5321290
979.67 5479582 5633882 5834378 6090820 6185600 6457382
982.56 6658108 6969928 7176910 7446782 7727202 8005694
985.45 8316658 8641608 8912314 9234854 9624242 9961272
988.35 10278970 10672960 10984360 11321870 11626210 11971220
991.24 12234610 12536310 12805440 13047350 13272150 13413290
994.13 13548740 13723130 13710620 13906140 13911560 13986840
997.02 13978570 13976380 13996620 13968350 13954170 14008850
999.92 13974290 14009800 14047580 14298980 14349720 14140300
1002.81 14084050 14136450 14124900 14035240 14100440 14172830
1005.70 14240080 14282290 14239120 14245980 14237920 14181530
1008.59 14020890 13934120 13847920 13614910 13439170 13292590
1011.49 13111450 12906680 12758990 12677470 12477300 12452670
1014.38 12351760 12410910 12426180 12463770 12577420 12744560
1017.27 12846380 13121690 13389930 13651800 14032550 14399240
1020.17 14775540 15135750 15669090 16126550 16741820 17264840
1023.06 17963470 18680960 19486440 20419370 21228100 22365910
1025.95 23422700 24636400 25987220 27520920 28987980 30760940
1028.84 32471140 34569610 36599950 38885660 41339900 43989960
1031.74 46811150 49965740 53149670 56764590 60359050 64275960
1034.63 68327940 72776260 77334180 82271580 87170900 92556490
1037.52 98001740 103879000 109781600 116151500 122694300 129228900
1040.41 136377500 143600400 150999000 158785600 166698800 174559200
1043.31 182652600 190458500 198161600 205670700 213086700 220653500
1046.20 228071800 235622700 242614600 249688300 256097200 262428600
1049.09 267751700 272821200 277286700 281074100 284144500 287359900
1051.99 289880500 292199000 293354100 294676100 295524800 296131000
1054.88 297286200 298632500 300281800 302405700 304379800 305954800
1057.77 305834100 302765400 298032600 294101900 291749800 292890800
1060.66 291062400 285618200 283759300 280799100 277456700 273080200
1063.56 267977700 261296500 253953400 245567400 236867500 227150700
1066.45 217489500 207791100 198097100 188701900 179283700 169803900
1069.34 160607400 151797000 143945900 136464800 129952900 124011000
1072.23 118381200 113299000 108758600 104682600 100786900 97445320
1075.13 94087860 90884020 88216350 85330650 82931390 80459040
1078.02 78281730 76153470 74037950 72181460 70313790 68667920
1080.91 67061920 65484130 64101710 62850740 61757720 60739600
1083.81 59853590 59080090 58404440 57918240 57498910 57214260
1086.70 57003560 57124300 57142210 57311670 57515500 57920110
1089.59 58358900 59011690 59670300 60554340 61224500 62039450
1092.48 63019630 63977100 65026270 65763050 66584950 67327110
1095.38 68201300 69082860 70166390 70507140 70502950 69793220
1098.27 69059980 68411090 67873570 67281270 66741470 66232810
1101.16 66289210 66558260 67417900 68997290 71382770 74619860
1104.05 77182490 73909160 67263080 63634960 62244920 61799640
1106.95 62044710 62562940 63050850 63670580 64120140 64330650
1109.84 64458610 64176930 63596520 62853530 61664370 60339900
1112.73 58612260 56846520 54765430 52608300 50429530 48182970
1115.63 45935900 43768910 41646770 39561990 37716940 35965920
1118.52 34322110 32916980 31628880 30505350 29402620 28387490
1121.41 27192200 26106240 25561790 25149700 24888110 24668710
1124.30 24454170 24155010 23807870 23332480 22818870 22243840
1127.20 21552460 20792040 20057230 19182600 18466560 17645320
1130.09 16986940 16183210 15473280 14830870 14157320 13578950
1132.98 13118200 12561610 12045570 11629850 11217720 10874930
1135.87 10509780 10210140 9879160 9729196 9507420 9236844
1138.77 9160764 9005366 8778478 8722878 8561174 8456148
1141.66 8389738 8331936 8272354 8189062 8194804 8142684
1144.55 8156444 8200408 8117150 8199642 8196742 8229398
1147.45 8281744 8327916 8296298 8305730 8398782 8445458
1150.34 8459768 8567332 8648294 8718390 8709934 8750552
1153.23 8860208 8902498 8987190 9077228 9126040 9232046
1156.12 9289808 9434636 9578602 9669098 9728144 10035410
1159.02 10160830 10444910 10661450 11089010 11399230 11826200
1161.91 11497570 10605090 10407690 10289930 10311960 10272590
1164.80 10288320 10181210 10242420 10306270 10310990 10261060
1167.69 10369580 10333300 10367160 10387650 10430980 10488660
1170.59 10460220 10511320 10561820 10587700 10645910 10616020
1173.48 10541260 10566170 10573130 10572580 10582950 10586920
1176.37 10570550 10536620 10532070 10547510 10681650 10752590
1179.26 10828060 10935920 11042840 11195800 11350590 11479880
1182.16 11565420 11689570 11834870 11982850 12084280 12300470
1185.05 12473810 12628090 12852750 13094450 13290600 13586340
1187.94 13892240 14180220 14547840 14864100 15369610 15799600
1190.84 16278020 16788980 17360870 18068730 18667390 19467350
1193.73 20172990 21022080 21873290 22847350 23901800 25024390
1196.62 26223710 27411990 28768710 30176900 31611600 33283590
1199.51 34867330 36730690 38464250 40411260 42456700 44542580
1202.41 46678410 48909330 51182220 53548900 56023200 58511760
1205.30 61228120 63865840 66686310 69496540 72372730 75294980
1208.19 78306660 81380310 84636580 88050460 91501100 95050660
1211.08 98744770 102513500 106451000 110377000 114334500 118467500
1213.98 122801600 127117600 131340200 135768300 140331900 145402700
1216.87 151099200 157656300 164874000 172646600 181098900 190414600
1219.76 200651600 211178800 222652600 234609300 248241300 263119400
1222.66 276640100 292343500 309767500 329144600 349655300 371979600
1225.55 395278400 420105500 445628200 472746300 499977200 528478600
1228.44 556935100 585964900 614897500 643539900 671582100 699709900
1231.33 725613100 751093900 774618800 797173500 817045600 835643700
1234.23 852323700 867579500 882094200 895592200 910219300 926230900
1237.12 943004200 962042800 982642800 1005615000 1030207000 1057012000
1240.01 1083852000 1102041000 1098186000 1077025000 1037453000 1011845000
1242.90 1014934000 1029514000 1042570000 1055364000 1071945000 1084829000
1245.80 1094773000 1098175000 1095733000 1081555000 1063758000 1042126000
1248.69 1011553000 981434000 949377400 914381400 877080600 839308700
1251.58 803024300 768182600 735871600 705353500 678667000 653647600
1254.48 629596000 606737000 584445100 561350600 538826800 516274300
1257.37 493901900 470749900 448137800 425035400 402315000 379329500
1260.26 356573800 333858900 311772800 290294500 270311900 251456400
1263.15 234677500 220339800 209265000 201604800 197564700 194043300
1266.05 185159900 175115700 168005600 157577600 148112200 144664100
1268.94 142183200 141221600 140871700 141039100 140431100 139559500
1271.83 138130800 136076000 133250300 129975500 125845900 121222400
1274.72 116298800 111436200 105754500 99362330 93744290 88501190
1277.62 83536550 78759120 74343890 70251500 66502260 62944700
1280.51 59692690 56715480 53886520 51428080 49049920 46885340
1283.40 44942320 43158780 41558820 40134200 38729440 37653070
1286.30 36783090 35961320 35333850 34854640 34490400 34189680
1289.19 34080840 34086360 34193760 34361900 34626120 34946880
1292.08 35354920 35895710 36420640 37022440 37738680 38406030
1294.97 39127240 39822460 40673150 41470490 42290210 43101050
1297.87 43967140 44718480 45455480 46299480 47104180 47852710
1300.76 48726300 49610220 50605460 51632880 52818560 53515650
1303.65 54389820 54281340 53016300 52082360 51229770 50832550
1306.54 50813210 50993850 51305270 51775490 52450400 53250170
1309.44 53791510 53517880 52543270 51511840 50221480 49077220
1312.33 48222240 47434060 46660520 46094680 45579400 45086640
1315.22 44507560 43790680 42914580 42013400 41024260 39991280
1318.12 38670880 37260460 35841690 34244980 32786080 31217960
1321.01 29652230 28095540 26595360 25088990 23747520 22477770
1323.90 21208100 20045470 18917640 17926360 16939070 16100560
1326.79 15319640 14589120 13972340 13376070 12861230 12294520
1329.69 11865060 11447240 11023430 10733860 10381920 10092550
1332.58 9878458 9643880 9505740 9305348 9167424 9012290
1335.47 8989612 8812564 8754546 8734776 8704806 8640710
1338.36 8590258 8658348 8744112 8668018 8874024 9092788
1341.26 9211122 9488950 9698818 9997408 10346960 10750090
1344.15 11247070 11790100 12442000 13102600 13937100 14861010
1347.04 15881030 16988950 18170940 19611870 21091430 22800440
1349.94 24548640 26382660 28483810 30614500 32843200 35136910
1352.83 37514110 39953020 42356120 44794110 47106480 49323280
1355.72 51550330 53342400 55100180 56754650 58106610 59769030
1358.61 61389990 63600800 66392890 70089260 74995220 82064770
1361.51 90331000 95480810 95482490 100002100 106731200 113623300
1364.40 120770200 126793300 131190200 137202100 144546500 152338600
1367.29 160001300 167438400 174112600 180265500 185312300 189557200
1370.18 192092000 193974300 194919500 195495800 194913800 194691000
1373.08 194554900 195211200 195574300 197010100 198340700 199375200
1375.97 198622400 201147300 194806100 190612800 189172700 184336600
1378.86 185126900 186948200 189881700 192668000 195707000 197987800
1381.76 200438000 201654600 201779400 200545800 198661100 194995900
1384.65 190548000 184874900 178597400 171077100 163621400 154357700
1387.54 147652800 139562900 131902900 124285900 117044800 110193500
1390.43 103899600 97835850 92610380 87510720 83211410 78974780
1393.33 75895280 71934170 69961170 68863620 66868630 64635220
1396.22 61889940 59484290 57044960 55318970 53672460 51537390
1399.11 50894990 50249930 49431400 48642920 47951360 47512370
1402.00 47092570 46783590 46370240 45914000 45504080 44550860
1404.90 44265610 43576780 42765840 41891400 40952080 40030580
1407.79 39030480 38043760 37213620 36224960 35377060 34565630
1410.68 33840090 33065930 32483260 31943350 31416880 30997740
1413.58 30542550 30148400 29853230 29451710 29167670 28920730
1416.47 28798550 28205800 28447820 28108740 27984780 26243830
1419.36 27369500 28249200 28032890 28390660 28491510 28844620
1422.25 28995380 29088980 28833710 28711600 28923890 29146270
1425.15 29343360 29592530 29852940 30124660 30413840 30667930
1428.04 30978010 31254280 31431950 31334210 31949480 32245370
1430.93 32523490 32745750 33078760 33297410 33475330 33779170
1433.82 33938150 34253120 34486320 34618900 34611960 33246550
1436.72 34876560 35765180 35874010 36176430 36437910 36740080
1439.61 37014560 37355450 37674620 37896310 38113450 38449660
1442.50 38574850 38780800 38903420 39226460 39369140 39676400
1445.40 39838340 40071690 40196480 40536550 40190420 40682850
1448.29 41385170 41604140 41986620 42383200 42836640 43454160
1451.18 44427950 45321660 46869000 48157560 48024330 46705400
1454.07 45930970 45162210 44603520 44640450 42690550 41213660
1456.97 44237380 43664650 43640140 44505620 44642120 45568510
1459.86 45903580 45950870 45688080 45286880 45148370 45003610
1462.75 45203150 45320860 45934370 44551200 44180610 44857700
1465.64 44340670 44384100 44104950 44188750 44077190 44490220
1468.54 44651470 45236220 45845070 46277780 45740450 45146010
1471.43 43346560 43226210 43497130 41130700 41748960 42372460
1474.32 41942810 42049800 41700930 41079660 41499210 41565790
1477.21 41312520 41115030 40760040 40382770 39943250 39504790
1480.11 38942820 38269280 37651200 37138000 36365040 35534990
1483.00 34694110 33817970 32901930 31852680 30900750 30002500
1485.89 29318920 28764280 27707050 27514840 27117320 26674670
1488.79 26415090 25892620 26221500 25781180 25849790 26100920
1491.68 25673700 25555790 24954970 24716530 24052010 23822760
1494.57 22918310 22803170 20600500 20055480 21181570 20105690
1497.46 20000330 18903850 18021140 18261300 17806790 17377140
1500.36 16908000 16491380 15978500 15706600 15346670 14941640
1503.25 14609630 14153810 14020900 13078950 10889560 13002120
1506.14 11828920 10057440 12003110 11954890 11348200 11636700
1509.03 11293070 11042640 11140870 10811210 10863270 10295440
1511.93 9824066 10319200 10102370 10035250 9839666 9504110
1514.82 9407626 9561904 9060968 8945400 8520514 8536876
1517.71 8964434 8897222 8736890 8735596 7835214 8595616
1520.61 6648062 6983454 8767298 7290914 8090354 8065094
1523.50 8253826 7936114 8020636 6901076 7737012 7914068
1526.39 7830620 7365826 7744254 7391514 7422392 7510646
1529.28 7508288 7414354 7505840 7299500 7162062 7189296
1532.18 7191372 6671628 6606022 6329646 7297912 6870730
1535.07 7240002 6891174 7302248 6859348 7310464 6664708
1537.96 7236296 4253970 5994556 6682208 5142536 7181394
1540.85 7229924 6276876 5764358 7660272 7053984 7443692
1543.75 7393252 7383810 6507672 7506348 7480502 7580484
1546.64 7510588 7599512 7487918 7494482 7482636 7356536
1549.53 7206044 7418990 7782462 7796882 7921366 7715444
1552.43 7703322 7550630 7490812 5968818 7579906 7541570
1555.32 7927818 7526506 8080672 6883378 7088434 6487346
1558.21 5427982 8077774 6961692 5630718 6822492 8416180
1561.10 7719236 8221504 7675298 8088222 7578594 7842588
1564.00 7301998 7165240 7161392 7229390 6886156 6930302
1566.89 6624568 6678784 6426802 6361116 6096990 5466860
1569.78 6172304 6463174 5893186 5918360 5544652 5753946
1572.67 5492684 5740882 5410884 5751216 5220240 5687214
1575.57 2553558 4027558 5462588 4927436 5014880 4709404
1578.46 4707744 4447210 4360256 4126434 4007604 3918810
1581.35 3794912 3676266 3561404 3470522 3395680 3383404
1584.25 3256618 3191260 3132600 3144522 3042422 3052828
1587.14 2996376 3027730 2937150 2986126 2891984 2940896
1590.03 2852210 2911026 2798860 2851882 2801624 2822088
1592.92 2781424 2803666 2709788 2786764 2729802 2813804
1595.82 2702228 2793784 2809080 2817048 2731724 2787210
1598.71 2749464 2845452 2753076 2822110 2767044 2844842
1601.60 2800444 2905372 2835482 2879578 2861432 2962864
1604.49 2920372 3017444 2962156 3109238 2989894 3102992
1607.39 3088552 3203614 3163696 3136204 3150684 3329758
1610.28 3205310 3440940 3231170 3437836 3294672 3500352
1613.17 3352682 3624972 3379140 3702732 3284434 3834098
1616.07 1277954 2170722 3942382 3595140 3906946 3742892
1618.96 3918288 3845712 3988240 3917862 4021898 4049664
1621.85 3940088 4102466 3593752 3364464 4412246 4067586
1624.74 4399378 4212670 4430258 4218096 4481156 3972288
1627.64 4120316 4410140 4457014 4455326 4466852 4462388
1630.53 4502566 4451654 4513270 4430594 4524390 4422968
1633.42 4554814 4338182 4013576 3052094 2738732 4683998
1636.31 4397714 4427044 4181658 4761302 4543178 4794592
1639.21 4678172 4838232 4656340 4903290 4760988 4946578
1642.10 4828340 5049852 4878078 5062134 4931346 5102680
1644.99 4761112 3157420 4674000 5169982 4461432 5145266
1647.89 4575988 5355924 5061188 5497370 5052842 5581918
1650.78 4939020 5792068 2745950 3841482 2600786 4155778
1653.67 5591644 4389492 5985822 5514334 6067156 5747190
1656.56 6098340 5978928 6246704 6080040 6400524 6222156
1659.46 6454236 6326528 6583272 6389842 6656522 6377868
1662.35 5797382 6596910 6871138 6735128 6941202 6865886
1665.24 7081458 6969842 7219684 7010528 7336484 6918098
1668.13 7387196 6451164 6343364 7520586 7402668 7495946
1671.03 7026696 7618596 7694062 7779610 7897756 7830950
1673.92 7998678 7368964 6591914 7961344 8187758 8312966
1676.81 8302682 8415784 8458562 8536082 8575612 8582572
1679.71 8630814 8647070 8957866 8943866 9121746 9020252
1682.60 8632154 8546690 9204308 7572844 6401372 10036690
1685.49 9473928 10194000 9835920 10337700 10004180 10314440
1688.38 10294990 10733860 10408690 10687840 10780080 11049920
1691.28 10929850 11254300 11028920 11448190 11150250 11602310
1694.17 11091820 11590590 9130724 8702404 11763030 11366510
1697.06 11461150 11508210 11571620 11596820 11123410 9442900
1699.95 10178090 10464500 12001920 12008380 12324090 12348940
1702.85 12502130 12650120 12232450 12464890 13019180 12949130
1705.74 12627880 12882810 13397360 13420120 13697360 13742570
1708.63 13956780 14028430 14136260 14342320 14705880 14801620
1711.53 15085570 15212950 15448460 15649320 15576810 16006960
1714.42 15852270 15597090 16915940 16443130 17181720 14177110
1717.31 16198400 17009490 16139790 17224380 17139270 17291850
1720.20 17301890 17611540 17933750 18363290 18625030 19068990
1723.10 19603320 20785320 21818810 22978020 24023600 25209230
1725.99 26165530 27338990 28291950 29405040 30377550 31587920
1728.88 32678850 33788210 35095240 37064040 38460470 40573360
1731.77 42045140 44917800 44917480 48386130 51761340 52596560
1734.67 58869600 62155500 66466610 70161510 74970800 79282410
1737.56 84558500 89405350 95279880 100215200 105651500 113590500
1740.45 120382300 127575400 135189200 143220200 151385300 160075700
1743.34 169577800 179548900 189899900 200803300 212143300 224308100
1746.24 236924600 249876000 264370200 278849600 293957500 310575400
1749.13 327615400 345375600 364191800 382116100 401440900 424430000
1752.02 445347200 467544500 489359400 511517900 533410200 554784600
1754.92 575443000 595233700 613197400 628379400 642703100 653207900
1757.81 660259900 664192300 664652500 660960700 654333400 643362800
1760.70 630310500 612100600 594216100 576942800 562209900 554623200
1763.59 551677200 548314900 537175300 532352500 544257500 570968600
1766.49 605050600 641354600 672685600 698458700 717601700 726907900
1769.38 728720100 723470800 712570000 695767600 678188900 655980200
1772.27 630864900 608880000 583365100 557454400 531232000 505510300
1775.16 479427200 454662600 430366700 406948200 384552700 363266900
1778.06 342999800 323656700 305804300 288794700 272343100 257070700
1780.95 243284300 229529000 216902500 204419100 192758700 181414800
1783.84 170918200 159656800 150213800 140939800 131698500 122877200
1786.74 114627200 106657900 99251100 92073310 85450510 78962260
1789.63 73220710 67331030 61998380 57475470 53173310 47699490
1792.52 44516460 41878360 38472830 35748120 32958780 30675010
1795.41 28252840 26469850 24672080 23098230 21594990 20236330
1798.31 19026960 17753200 16554280 15983590 15129710 14219920
1801.20 13625620 13032860 12313330 12156800 11512440 11252510
1804.09 10815630 10578220 10226250 10018140 9739986 9593138
1806.98 9299776 9167090 8996532 8958106 8735620 8708572
1809.88 8361174 8329132 8429946 8333422 8229488 8261172
1812.77 8190796 8226418 8218078 8224718 8215902 8241274
1815.66 8226156 8295078 8195480 8209186 8330780 8326436
1818.56 8363302 8386580 8425730 8487918 8499474 8559076
1821.45 8560384 8618110 8577138 8737358 8628428 8762648
1824.34 8530652 8139762 8622010 8674976 8672028 8658590
1827.23 8687034 8714072 8693178 8592508 8781772 8302488
1830.13 8901398 9083442 9119952 9179260 9156956 9176856
1833.02 9159486 9192822 9145900 9146894 9112696 9112040
1835.91 9103678 9045044 8949190 9006504 8894966 8922056
1838.80 8800750 8824160 8717860 8655088 8573386 8583188
1841.70 8381642 8473560 8233718 8300990 7057978 7600566
1844.59 8144472 7865424 7986422 7814938 7812678 7578014
1847.48 7492636 7536492 7432476 7371848 7273158 7204284
1850.38 7135652 7015790 6963016 6842726 6751000 6721564
1853.27 6609328 6558100 6470192 6436622 6338130 6263656
1856.16 6240772 6159282 6073812 6033162 6009092 5980322
1859.05 5903782 5878778 5868574 5815232 5795126 5763522
1861.95 5766182 5708640 5699860 5655690 5634670 5597660
1864.84 5589362 5574642 5488640 5542512 5576216 5351022
1867.73 5418314 5629606 5008588 5223536 5580298 5421786
1870.62 5457410 5405532 5457602 5401002 5382244 5329078
1873.52 5327294 5323854 5350178 5302828 5329292 5333028
1876.41 5410110 5431694 5479028 5555266 5586420 5679464
1879.30 5710108 5774430 5852708 5912304 6013376 6037440
1882.20 6079420 6112946 6172440 6142590 6196014 6220206
1885.09 6236246 6213872 6262912 6250228 6259206 6294568
1887.98 6234006 6315416 6018192 6146814 6404722 6373406
1890.87 6454562 6443838 6520226 6580416 6653774 6669418
1893.77 6696418 6702724 6660586 6776750 6825016 6832632
1896.66 6834720 6904912 6928864 6924296 6910528 6900388
1899.55 6944022 6936426 6936810 6945558 6950306 6885054
1902.44 6837862 6768338 6797362 6725392 6713584 6651956
1905.34 6583298 6531026 6477030 6387780 6297304 6168676
1908.23 6117292 6031862 5875776 5711084 5692114 5496288
1911.12 5397152 5249608 5132786 4959446 4877002 4724340
1914.02 4651158 4487434 4413822 4206058 4173292 3985988
1916.91 3967844 3337688 3474362 3626848 3396556 3407836
1919.80 3232302 3211728 3119966 3055264 2905890 2873172
1922.69 2728432 2793412 2730166 2732490 2650280 2633478
1925.59 2567890 2536452 2483464 2442632 2431220 2344204
1928.48 2331956 2322406 2268582 2268970 2241060 2226836
1931.37 2184838 2124912 2138080 2087774 2081388 2054078
1934.26 2026334 2025504 2005716 1980976 2002074 1977690
1937.16 1975074 1958856 1980974 1991264 1956460 1983022
1940.05 1952654 1991238 1920332 1977438 1720276 1853198
1942.94 1974070 1951684 1967918 2001312 1962604 1974648
1945.84 1932110 1999214 1996232 2006486 2015204 2000702
1948.73 1988272 2023038 2029528 2041066 2011450 2005176
1951.62 2007848 2006676 2023220 2008826 1974250 2045992
1954.51 2052284 2025046 2051668 2056978 2081998 2094868
1957.41 2082034 2095564 2102662 2086724 2081836 2105154
1960.30 2105090 2064580 2090582 2082832 2107420 2067244
1963.19 2086874 2078506 2072318 2049692 2082160 1995538
1966.08 2036868 2044340 1951498 2060752 2042712 2044634
1968.98 2017148 1986528 1996288 1995070 1967984 2015662
1971.87 2007640 1998212 1998544 1993956 2000704 1947736
1974.76 1944586 1924334 1927920 1924182 1948680 1947674
1977.66 1905840 1919162 1878898 1875046 1856618 1838410
1980.55 1824532 1807140 1824008 1782326 1825114 1771290
1983.44 1815004 1742656 1813620 1804836 1819448 1773016
1986.33 1764660 1808276 1780194 1784128 1801970 1836124
1989.23 1829540 1914132 1836218 1882200 1792818 1822546
1992.12 1912344 1931164 1986972 2010026 2032310 2066376
1995.01 2089600 2075518 2147584 2222998 2196432 2301460
1997.90 2307394 2360350 2342118 2425076 2436230 2485116
2000.80 2515008 2556276 2578594 2612068 2635376 2663630
2003.69 2684556 2724040 2717652 2749942 2815604 2839370
2006.58 2868530 2876480 2909004 2991928 3015558 3006982
2009.48 3070402 3139130 3133930 3165028 3153496 3229850
2012.37 3223348 3278094 3327958 3328412 3365520 3321264
2015.26 3360644 3416254 3310680 3378756 3409872 3375884
2018.15 3332248 3337908 3297672 3297426 3285562 3287832
2021.05 3270310 3231262 3213806 3177434 3193552 3224398
2023.94 3151516 3086396 3007880 3003666 2939658 2912434
2026.83 2901060 2883242 2892274 2889616 2890560 2862494
2029.72 2837070 2767862 2729774 2744670 2689304 2587164
2032.62 2571882 2459224 2385190 2333904 2259590 2198452
2035.51 2131116 2083302 1981986 1967590 1892306 1870588
2038.40 1825906 1792726 1785000 1724314 1708088 1653028
2041.29 1646082 1620248 1598460 1601826 1556056 1524706
2044.19 1535552 1534522 1530352 1482940 1517932 1501044
2047.08 1504706 1540528 1504690 1525894 1514804 1533264
2049.97 1544066 1567928 1559002 1602926 1619976 1647298
2052.87 1661900 1657258 1677230 1701908 1734494 1727742
2055.76 1769552 1813022 1832906 1879780 1936680 1958272
2058.65 2014424 2039026 2114686 2125564 2195786 2260400
2061.54 2294236 2359010 2399292 2486772 2515988 2595934
2064.44 2674304 2743588 2811968 2934370 3030754 3127416
2067.33 3200660 3312414 3380734 3489464 3630886 3753558
2070.22 3878854 4016670 4159174 4292764 4481636 4563854
2073.11 4708872 4905838 5051504 5197696 5308724 5486110
2076.01 5672978 5796564 5868690 5975916 6104914 6245884
2078.90 6361268 6447766 6509148 6622136 6701998 6754356
2081.79 6795310 6957826 7025570 7210824 7232910 7365556
2084.69 7389396 7423750 7370188 7376600 7437826 7427282
2087.58 7498910 7575342 7676720 7721658 7781346 7728078
2090.47 7817656 7846766 7779942 7743152 7710182 7619758
2093.36 7501188 7412052 7178674 7096830 6975636 6821260
2096.26 6677904 6509834 6360346 6203382 5972722 5758126
2099.15 5680112 5541286 5447210 5258222 5143022 4981472
2102.04 4873526 4678672 4549494 4528512 4393678 4302104
2104.93 4205622 4072352 3956872 3911700 3622744 3669060
2107.83 3575710 3477978 3342228 3273462 3127506 3066248
2110.72 2910056 2719176 2786970 2652280 2577784 2457250
2113.61 2395966 2254538 2201744 1943880 1994640 1910076
2116.51 1866148 1778530 1733448 1711790 1635574 1492378
2119.40 1429466 1507878 1433644 1418810 1377526 1354500
2122.29 1299750 1299350 1123628 1217562 1196828 1209006
2125.18 1159512 1174612 1091668 1121916 996072 1038464
2128.08 1065456 1034600 1020824 1013678 992636 1007370
2130.97 890238 939996 987608 932020 950490 987846
2133.86 971212 989830 957464 982552 1046872 1053322
2136.75 1073860 1100454 1155580 1195894 1228298 1201782
2139.65 1298056 1315702 1374770 1453554 1445796 1463954
2142.54 1491046 1569262 1549658 1584740 1591942 1660786
2145.43 1659476 1688660 1665538 1746348 1749870 1750336
2148.33 1765580 1813398 1822204 1845400 1805054 1843312
2151.22 1913996 1917906 1957042 1945590 1957158 1879768
2154.11 1853930 1909878 1938718 1932746 1964588 1966582
2157.00 2007482 1919826 1892260 2010988 2012904 1963588
2159.90 1973400 1925202 1921478 1781386 1811802 1862434
2162.79 1827466 1846206 1792734 1776644 1705812 1568852
2165.68 1713010 1758422 1677494 1696468 1720032 1672906
2168.57 1476428 1504502 1632154 1633140 1651088 1592282
2171.47 1626844 1546938 1464700 1624646 1584372 1581702
2174.36 1597030 1586228 1581034 1431806 1554750 1556792
2177.25 1539864 1551712 1537628 1578184 1380926 1460008
2180.15 1556486 1505628 1502692 1453810 1512254 1338816
2183.04 1352578 1440010 1376208 1398172 1348912 1375986
2185.93 1218448 1257348 1326660 1259478 1314442 1268474
2188.82 1266622 1182920 1146310 1239860 1157838 1151680
2191.72 1103124 1092078 959782 961730 1010458 940588
2194.61 920314 847888 822788 735788 785362 753512
2197.50 723436 738280 704082 697202 643220 674594
2200.39 724534 693616 710830 678674 679544 636554
2203.29 719170 703526 712654 770932 738512 703070
2206.18 731746 797708 810530 807512 833152 876088
2209.07 862532 876910 917938 904526 926798 949184
2211.97 922190 916364 934490 962844 959066 977248
2214.86 990670 973468 1030790 1067486 1067182 1056284
2217.75 1098008 1082200 1107192 1120986 1160362 1190498
2220.64 1190132 1207714 1203622 1244010 1205322 1223978
2223.54 1236724 1235836 1281596 1319652 1327908 1360720
2226.43 1375796 1351262 1349738 1382366 1407338 1414436
2229.32 1415734 1418728 1417578 1408050 1417502 1426168
2232.21 1427592 1404782 1361850 1395480 1372734 1416910
2235.11 1354138 1317082 1322686 1313098 1326620 1309612
2238.00 1296052 1257890 1299746 1272384 1272416 1266918
2240.89 1267130 1228556 1212796 1219170 1240074 1204122
2243.79 1205750 1214832 1225700 1164762 1193290 1142676
2246.68 1142362 1123452 1130718 1074984 1064634 1049344
2249.57 1051844 1030682 1028364 1006772 980026 956530
2252.46 946526 965486 893550 904092 878200 866136
2255.36 810476 858116 800410 820932 763210 787164
2258.25 755932 770212 761522 700066 732124 691518
2261.14 717696 664222 659322 651954 673756 650902
2264.03 663846 643892 652642 664254 665236 649998
2266.93 641494 682214 650852 661144 684706 690622
2269.82 731736 707348 694114 734724 730438 727734
2272.71 722006 723828 752418 727346 738378 777364
2275.61 799788 793564 826582 818406 808710 831316
2278.50 864126 846224 899352 903980 939716 976218
2281.39 947972 956614 997928 997596 1026530 1071636
2284.28 1079084 1076998 1115576 1125798 1157052 1154630
2287.18 1155020 1202592 1283840 1300208 1279524 1287406
2290.07 1301030 1365414 1375890 1422418 1373622 1425726
2292.96 1447862 1481764 1459502 1477436 1511540 1505460
2295.85 1495894 1555852 1580902 1592758 1592564 1657562
2298.75 1661832 1696636 1674336 1704286 1705076 1708528
2301.64 1710966 1741816 1780880 1777178 1800734 1815950
2304.53 1826614 1841396 1851424 1832554 1872624 1844380
2307.43 1857590 1857106 1824662 1815342 1778860 1712754
2310.32 1739636 1714124 1705914 1670506 1682240 1631480
2313.21 1652418 1633566 1668520 1594818 1622608 1613524
2316.10 1613390 1548804 1590246 1536706 1518724 1462604
2319.00 1499432 1464916 1452032 1429910 1399252 1387138
2321.89 1374470 1319340 1324110 1320930 1278874 1239830
2324.78 1240484 1266480 1238276 1197292 1157428 1193654
2327.67 1131136 1108244 1128910 1135534 1091826 1086128
2330.57 1070810 1050874 1023344 1007460 1036836 1007408
2333.46 925500 924632 1007626 989046 946120 983364
2336.35 949514 908098 897074 957314 912874 832892
2339.24 877630 878962 870006 843266 864930 925172
2342.14 848418 862606 889980 846858 809006 870086
2345.03 818518 766714 746026 703318 710540 665396
2347.92 666750 649268 660398 662326 636358 628808
2350.82 635518 575374 676452 612618 622766 680460
2353.71 642360 631038 676474 644756 654954 694542
2356.60 669996 652874 735536 701906 690434 765422
2359.49 723832 734506 790114 755566 801520 824256
2362.39 797594 849490 831144 833698 865270 863148
2365.28 889430 937282 863666 949884 937890 936416
2368.17 951990 916402 973700 942878 973512 946678
2371.06 927672 1007808 938374 997142 1020840 951692
2373.96 1009254 953992 987728 965228 946032 965810
2376.85 964044 932270 982354 971816 973368 966100
2379.74 946390 954252 958780 930466 967294 937038
2382.64 952540 951490 943974 920142 934224 920860
2385.53 935592 923834 911864 939662 928734 923968
2388.42 917808 975840 930886 970056 931616 921196
2391.31 914166 966170 953424 966798 928032 925984
2394.21 952612 976508 937296 933050 963958 952522
2397.10 963886 971790 990460 974414 980570 977570
2399.99 923606 989194 1001664 986194 975920 973498
2402.88 1004908 984252 1008364 1006674 1002802 1024938
2405.78 1042272 1043914 1107956 1035402 1023424 1042870
2408.67 1028852 1058662 1098448 1058212 1113476 1038764
2411.56 1061728 1064888 1085506 1091240 1067226 1058828
2414.46 1097626 1069860 1107896 1090150 1115470 1069456
2417.35 1100598 1146562 1134156 1128354 1132328 1114908
2420.24 1125922 1112586 1124074 1160682 1122276 1117284
2423.13 1124900 1163956 1177270 1113120 1136794 1163472
2426.03 1109144 1103610 1060204 1068726 1069544 1031572
2428.92 1013752 1055802 1032674 1005096 1022720 1002836
2431.81 1000080 1007436 988338 970878 928156 967426
2434.70 923592 911244 945124 891344 895926 925462
2437.60 894086 870680 901062 876250 876472 856074
2440.49 857398 851546 820316 844112 840848 828108
2443.38 835992 880764 844772 864370 849106 845590
2446.28 844202 890728 870682 886462 946140 949026
2449.17 971044 993452 1030910 1065970 1075716 1155164
2452.06 1093378 1168050 1213954 1241030 1322974 1275606
2454.95 1317784 1355134 1423640 1503862 1516980 1542202
2457.85 1580128 1645480 1669824 1734124 1780178 1816218
2460.74 1897568 1929908 1980632 2032598 2029142 2072464
2463.63 2100686 2139948 2209218 2227552 2235764 2309350
2466.52 2380726 2371036 2429542 2446484 2437214 2467246
2469.42 2510490 2519844 2535782 2546522 2575622 2606184
2472.31 2617884 2600202 2609650 2632280 2670230 2672818
2475.20 2688140 2627208 2655526 2652072 2674436 2667424
2478.10 2644994 2691694 2666508 2628304 2628424 2610206
2480.99 2581312 2513888 2532296 2477078 2426248 2403702
2483.88 2376918 2355564 2262320 2235920 2199410 2115572
2486.77 2119304 2100760 2055202 2009022 1916406 1931388
2489.67 1904132 1887080 1843700 1791978 1768404 1742910
2492.56 1720534 1651514 1593336 1569072 1550748 1544040
2495.45 1481248 1497598 1433114 1405100 1362504 1336838
2498.34 1238500 1243616 1203748 1151168 1099976 1087962
2501.24 1082656 1013178 1003482 921472 873798 841510
2504.13 825384 750122 736920 710020 689434 693870
2507.02 625136 608822 567892 555696 513736 503294
2509.92 502142 482662 456290 415746 380642 400006
2512.81 351476 329998 310262 271654 255260 314544
2515.70 238304 204506 224952 182998 168724 175592
2518.59 173534 144742 166072 83140 130650 114610
2521.49 135684 116522 71326 105472 117260 89144
2524.38 94688 124102 84416 59492 67606 152116
2527.27 120500 125258 125876 110378 97476 124416
2530.16 144524 154476 98754 191484 172120 171594
2533.06 164000 201510 200172 186198 229252 253018
2535.95 239032 237554 266688 279226 240568 272816
2538.84 241348 273622 292018 348260 296860 273900
2541.74 303932 320418 311090 335844 327548 353274
2544.63 312014 328634 316674 324418 317342 320970
2547.52 327848 292410 309122 318150 355122 302740
2550.41 333748 328146 328388 322162 310100 341448
2553.31 336386 330400 322940 314148 296352 319070
2556.20 300224 299914 275422 283862 302758 253668
2559.09 279338 223832 213280 212506 189534 213382
2561.98 268018 244848 228120 180206 216144 221890
2564.88 163610 204656 183192 193626 188284 163474
2567.77 163412 139590 219024 173024 180820 173506
2570.66 192550 175800 195538 133176 144924 185336
2573.56 184608 190778 154856 177194 180614 166704
2576.45 176782 190456 194020 205632 173670 167162
2579.34 184580 168826 189140 220452 263716 178426
2582.23 230788 263160 252552 260252 295450 266572
2585.13 269644 304274 307740 332734 333506 317502
2588.02 382844 364974 417300 403134 366282 421604
2590.91 508936 516566 487178 520364 554324 607122
2593.80 620018 627688 643238 700596 660508 738682
2596.70 767296 825092 817994 843574 826992 877506
2599.59 914230 942760 944020 992072 1017882 1019136
2602.48 1004850 1036428 1102776 1109614 1112982 1157402
2605.37 1177984 1139048 1145536 1133046 1168460 1169296
2608.27 1169794 1193688 1195620 1201334 1242446 1254786
2611.16 1250884 1284462 1272398 1209824 1207774 1245640
2614.05 1248656 1226398 1134788 1175350 1148268 1148554
2616.95 1121596 1169888 1148430 1083634 1034568 1038706
2619.84 1053004 1039148 1040934 993728 1016222 945964
2622.73 920756 917806 956732 873236 902990 872156
2625.62 824592 817630 800544 782924 724042 688896
2628.52 723612 656920 690310 655126 659842 626004
2631.41 596024 593448 602212 616422 497604 545090
2634.30 521636 529626 535714 496322 511854 477770
2637.19 446906 413466 425858 383982 359278 439034
2640.09 399912 368270 408362 352884 365848 334114
2642.98 318486 327268 371794 309846 317520 295498
2645.87 329244 271868 296374 281678 342278 276314
2648.77 271808 272478 281374 305390 270286 273682
2651.66 287866 282372 295616 289462 255858 358860
2654.55 294452 340276 283408 315698 320520 339086
2657.44 362828 356864 364202 399082 397778 354592
2660.34 437178 389070 398396 392636 428214 505572
2663.23 473342 529940 552852 533788 564140 546964
2666.12 563420 575062 589120 630906 622198 696020
2669.01 701940 681034 671976 697164 761186 768476
2671.91 777830 792292 737496 828846 817282 836162
2674.80 840862 861726 869752 851894 856360 864880
2677.69 924744 818008 906732 902896 927934 1003626
2680.59 1020142 999962 1003626 1015856 1066588 1048970
2683.48 1020472 1057846 1106082 1129342 1029012 1057642
2686.37 1100064 1139286 1129638 1118932 1131004 1132614
2689.26 1154958 1167992 1185296 1133814 1153664 1181620
2692.16 1170034 1183406 1194256 1176798 1146600 1114320
2695.05 1086496 1100430 1063674 1081248 1031564 1050644
2697.94 1027312 1013060 995918 1007018 1006416 950602
2700.83 935080 944834 907978 956916 933716 954294
2703.73 993274 1003210 980148 1021064 1007186 1023658
2706.62 1012520 993298 929166 909506 916808 915356
2709.51 912076 885494 863626 913508 787018 823690
2712.41 880842 836336 817490 832870 803006 845930
2715.30 873076 923760 849444 880814 958530 918452
2718.19 865930 924948 999890 935510 946666 1022560
2721.08 944376 1019622 912852 984892 978504 964392
2723.98 989714 993920 1032260 1061102 1075340 1048142
2726.87 1102342 1118154 1099962 1101118 1119968 1110858
2729.76 1155084 1168752 1154414 1138826 1146394 1218496
2732.65 1239592 1272368 1297704 1300026 1300650 1300362
2735.55 1355708 1349340 1352036 1305210 1337454 1303830
2738.44 1272286 1363736 1346664 1345000 1392536 1405854
2741.33 1394910 1401470 1343756 1379000 1412410 1432088
2744.23 1457930 1518958 1518272 1522708 1526778 1559782
2747.12 1513914 1616896 1653284 1634998 1652706 1693878
2750.01 1775010 1769830 1760314 1820788 1827336 1756670
2752.90 1782376 1793914 1844164 1868678 1829742 1882226
2755.80 1858230 1841868 1839108 1905274 1872544 1891666
2758.69 1898608 1944288 1924410 1927436 1953530 1914162
2761.58 1927120 1851738 1847482 1867044 1853254 1870034
2764.47 1836406 1858432 1860860 1862992 1892478 1823846
2767.37 1841094 1913908 1875174 1878852 1880664 1825190
2770.26 1934666 1942806 1930378 1916778 1962342 1961922
2773.15 1917254 1885788 1957664 1937758 1922284 1937310
2776.05 1912718 1894766 1984080 1909810 1938256 1932246
2778.94 1959968 1902040 1894088 1944228 1909648 1893844
2781.83 1894286 1900564 1915632 1895908 1868362 1914504
2784.72 1900394 1979254 1918974 1925808 1902610 1901652
2787.62 1953726 1884872 1903434 1914726 1896942 1870926
2790.51 1848744 1925868 1812480 1807848 1790886 1770396
2793.40 1795718 1787570 1826644 1823992 1796390 1792000
2796.29 1743712 1747834 1751234 1812282 1711704 1756812
2799.19 1728860 1761158 1733416 1747462 1742204 1719974
2802.08 1793670 1741640 1842868 1801694 1839180 1866750
2804.97 1926750 1934350 1958870 1938626 2021316 2071610
2807.87 2076900 2121878 2122952 2194038 2259546 2201084
2810.76 2292198 2320108 2416590 2483912 2539460 2580874
2813.65 2633022 2669998 2708780 2784440 2758368 2800556
2816.54 2870130 2948432 2937974 2969304 2888838 2981018
2819.44 3041268 3048052 3103254 3134240 3077594 3117196
2822.33 3128610 3209632 3224616 3275862 3223600 3294998
2825.22 3339058 3327288 3345062 3438814 3476648 3467746
2828.11 3557262 3547418 3601482 3633630 3628170 3651138
2831.01 3725278 3678440 3688994 3772438 3783738 3771760
2833.90 3730728 3840320 3818028 3881042 3899666 3953208
2836.79 4002920 4003258 4091230 4182514 4177040 4248694
2839.69 4300878 4345474 4456564 4517100 4539376 4626964
2842.58 4747910 4772792 4871758 4898076 4955322 4945830
2845.47 5042974 5063924 5202996 5307836 5312342 5311044
2848.36 5474908 5508918 5510238 5595770 5704090 5756776
2851.26 5866242 5970690 6062010 6099544 6143670 6249192
2854.15 6386108 6381402 6372464 6548234 6574026 6676144
2857.04 6654112 6677788 6768426 6793314 6812540 6919464
2859.93 7002678 6926758 7012334 7079298 7178184 7246712
2862.83 7234822 7286978 7419824 7471270 7535810 7641210
2865.72 7715612 7864308 8002166 8122146 8307870 8544552
2868.61 8697266 8935364 9116332 9420010 9622300 10005990
2871.51 10367380 10730660 11192660 11608310 11978180 12457540
2874.40 13000480 13517520 14101240 14696090 15225450 15826960
2877.29 16374050 16867220 17544610 17857810 18198260 18576940
2880.18 18875270 19019500 19194800 19239730 19223800 19199390
2883.08 19291170 19488060 19584780 19928080 20271890 20871650
2885.97 21347830 21921150 22233290 22414210 22521650 22584020
2888.86 22778960 23072450 23339960 23511620 23937090 24140640
2891.75 24465130 24699230 24876260 25102190 25270430 25502270
2894.65 25532830 25798060 25811610 25903070 25907140 26016220
2897.54 26033620 26162340 26255030 26385610 26504600 26925930
2900.43 27106880 27449250 27721680 27813820 27980630 28141260
2903.32 28179310 28324750 28623020 28838120 29036750 29399610
2906.22 29695640 30061100 30449570 30771670 31196930 31512630
2909.11 31867670 32168500 32386750 32673700 32724620 32915320
2912.00 32943510 33058750 33173250 33141690 33242570 33290610
2914.90 33332900 33264940 33152090 32782910 32357280 31897800
2917.79 31638240 31486390 31216650 31257460 31278190 31477260
2920.68 31693150 31899930 32126820 32391360 32516050 32792480
2923.57 32922580 33059760 33127270 33280500 33315390 33375680
2926.47 33382590 33442690 33487800 33646080 33771100 33921330
2929.36 34319420 34639640 35147220 35738600 36346590 37135200
2932.25 37854920 38652710 39514960 40444510 41492940 42578500
2935.14 43797840 44917290 46030480 47156670 48127810 49087740
2938.04 49763980 50426320 51010930 51530430 51965850 52398820
2940.93 52841360 53623460 54300210 55558370 57093580 58169900
2943.82 58721130 58999860 59428040 59996040 60634670 61434890
2946.72 62356180 63541840 64534310 65542600 66376940 66739830
2949.61 66866860 66605460 66260640 65858370 65471290 65223500
2952.50 65256760 65145860 65206310 65428640 65762360 66302940
2955.39 67027690 67714640 67437670 66207630 65398110 65305800
2958.29 65348180 65547930 65705590 65937860 66065460 66320130
2961.18 66260900 66586030 66825160 66864070 67365730 67686990
2964.07 68919000 70555000 71152700 70252170 69653710 69518060
2966.96 70066570 71259780 71948930 72557030 73307580 74147260
2969.86 74974380 75928420 77099200 78405940 80121340 82185970
2972.75 84308770 86804170 89553020 92127620 94756340 97535520
2975.64 100391700 103160600 106004200 108764800 111584200 114259900
2978.54 116894900 119692500 122477700 125554000 128875700 133253400
2981.43 139666900 145545700 141630200 137875900 137179600 136457800
2984.32 136629800 136724300 137236300 137608400 138113900 138386600
2987.21 139553900 140546900 142061900 143491700 143920800 143589100
2990.11 143197800 143372000 143684700 145012600 147697800 151581500
2993.00 156274200 162535000 170002500 183070300 193791800 180020200
2995.89 165499900 157159300 151317500 146736100 142630600 138945400
2998.78 135262500 131594300 127954800 124227100 120800600 117338900
3001.68 113645600 110156200 106736600 103227500 99861540 96822490
3004.57 94046680 91833210 89838020 87609820 85242580 83212180
3007.46 81393980 79897620 78424620 77005340 75534100 73988560
3010.36 72334580 70618970 68803180 66872840 65066590 63081100
3013.25 61136190 59123820 56978220 55049980 53094730 51098000
3016.14 49169400 47168510 45386560 43597720 41831630 40295100
3019.03 38681050 37199520 35829000 34566940 33249460 32001300
3021.93 30852510 29727970 28838710 27843310 26954630 26149790
3024.82 25269640 24390270 23795630 23052710 22377620 21757820
3027.71 21216240 20831780 20295670 19888020 19451350 19008500
3030.60 18596450 18194680 17748590 17419550 17104970 16895230
3033.50 16613920 16486900 16285140 16140990 16013160 15751280
3036.39 15570210 15398000 15280710 15040330 14866460 14692470
3039.28 14501160 14274990 14108700 14045090 13806720 13729190
3042.18 13549640 13350950 13187710 13088870 12990360 12927580
3045.07 12779730 12638430 12576820 12460070 12376390 12262240
3047.96 12173890 12109220 12128590 12012220 12032920 11965990
3050.85 11883880 11827880 11848640 11748070 11693240 11672640
3053.75 11624380 11603020 11577590 11475860 11381980 11333380
3056.64 11396560 11153580 11227520 11090300 10997320 10937900
3059.53 10914830 10730680 10556710 10538240 10444310 10299560
3062.42 10280740 10258800 9999870 9940108 9898250 9794498
3065.32 9673066 9535762 9413606 9401868 9304184 9094740
3068.21 9032480 8885936 8847554 8753688 8606914 8433158
3071.10 8325554 8257880 8117804 7984036 7881782 7752308
3074.00 7656546 7625982 7503918 7254082 7166984 7043544
3076.89 6915056 6874558 6672434 6535906 6395816 6405880
3079.78 6253940 6157664 6080456 6006548 5887418 5778316
3082.67 5658104 5666532 5489696 5383580 5341000 5322960
3085.57 5150498 5180252 5128400 5073220 4910242 4880072
3088.46 4847658 4759730 4753326 4641578 4630590 4431500
3091.35 4442316 4461978 4387814 4401082 4331850 4269406
3094.24 4196912 4164940 4170286 4112812 4053512 3966380
3097.14 3988388 3966364 3865412 3883418 3906256 3731354
3100.03 3794504 3737862 3711286 3685836 3651158 3576834
3102.92 3520820 3476224 3426974 3427928 3351782 3281846
3105.82 3231004 3286162 3257338 3168468 3164270 3170454
3108.71 3057810 2964562 3030328 2913518 2866754 2780960
3111.60 2765008 2793114 2726428 2719526 2677366 2711550
3114.49 2646300 2588488 2593246 2570664 2593726 2487162
3117.39 2465324 2514046 2532180 2525254 2416048 2455680
3120.28 2488262 2383660 2367752 2327010 2337334 2308128
3123.17 2326404 2307336 2270452 2237648 2265696 2320280
3126.06 2279354 2227584 2312564 2142474 2195496 2233894
3128.96 2191762 2197870 2265316 2263936 2232480 2257334
3131.85 2244060 2267714 2216666 2238056 2227108 2218492
3134.74 2192224 2118416 2161652 2074072 2174442 2139220
3137.64 2106616 2099726 2023972 1998426 1969298 1977704
3140.53 1970846 1862588 1917578 1788636 1804380 1809028
3143.42 1747066 1724866 1744364 1755148 1752810 1684470
3146.31 1779022 1759038 1626766 1642038 1618950 1661154
3149.21 1577854 1622404 1529928 1570582 1556784 1626342
3152.10 1489650 1439730 1356260 1364856 1388538 1402100
3154.99 1370618 1345434 1321550 1345354 1303220 1353392
3157.88 1255944 1299682 1266478 1196926 1282744 1299162
3160.78 1195706 1231464 1272412 1221630 1270364 1239654
3163.67 1253944 1211638 1217832 1230626 1232510 1236392
3166.56 1317338 1288132 1258326 1296642 1223816 1251950
3169.46 1296328 1177350 1364572 1310984 1296762 1332694
3172.35 1298092 1328284 1340932 1430926 1355620 1523006
3175.24 1365720 1413232 1366684 1434904 1502920 1387802
3178.13 1487808 1490976 1525378 1534450 1562096 1533030
3181.03 1557254 1515392 1494818 1556236 1564980 1576670
3183.92 1568076 1486484 1522634 1552938 1562618 1586072
3186.81 1613916 1561600 1572444 1579070 1550270 1540528
3189.70 1520788 1534728 1541866 1541118 1562814 1519914
3192.60 1479896 1511990 1413044 1459130 1452870 1442104
3195.49 1435664 1490784 1377016 1444086 1341740 1395486
3198.38 1479336 1407052 1432192 1382702 1389036 1294598
3201.27 1404570 1298108 1281234 1219992 1331454 1264444
3204.17 1228854 1195612 1184404 1229670 1239584 1184794
3207.06 1190354 1185206 1149716 1068996 1026526 1058952
3209.95 1167222 1122388 1107034 1008424 1021852 942048
3212.85 1044942 961078 982758 958486 987624 949974
3215.74 970106 955074 916510 857564 905922 824772
3218.63 922758 808952 893870 819822 755836 741960
3221.52 830564 741208 775040 791800 732072 746192
3224.42 790324 751146 734520 736054 716354 685372
3227.31 707190 581878 573582 607864 610992 592702
3230.20 625122 686794 681894 603860 687518 598884
3233.09 560286 532114 569248 532186 542526 567264
3235.99 498210 582872 521294 547374 528766 495832
3238.88 579478 592684 480970 403940 548138 444250
3241.77 452642 512680 475636 433458 427422 400566
3244.67 391288 419192 321712 385834 484958 300362
3247.56 304558 345920 353284 238038 376926 364980
3250.45 306334 209710 218194 239794 329520 337184
3253.34 253036 238054 208294 238976 231238 186256
3256.24 142462 200106 149500 208946 163448 125844
3259.13 169780 175122 88714 94470 123312 158712
3262.02 157318 29232 210938 150988 110416 34722
3264.91 73306 16076 95448 39540 706 32368
3267.81-4860 80630 84346 129838 83854 91654
3270.70 108368-50428 62450 81204 84040 88494
3273.59-10122 37130 10066 80592 132872 76468
3276.49 14946 100142 19608-61186 90890-9274
3279.38 90152 60248 124094 17628-5254 43160
3282.27 67696 55910 81384 71676 102694 82120
3285.16 19550 129126 9796 35356 55048 144712
3288.06 57268 71894 84462 118164 129346 93362
3290.95 108734 87166 82256 35410 92788 14510
3293.84 77996 135550 98436 37666 115992 53194
3296.73 144762 102172 97332 104198 105402 127962
3299.63 139218 8372 101074 101140 74150 166280
3302.52 179638 132214 124370 199302 90096 50894
3305.41 212830 177708 42506 121752 49434 109290
3308.31 32970 158032 149006 110654 122412 104074
3311.20 91968 163588 52198 74730 72460 156056
3314.09 54072 81190 131440 156512 122012 78554
3316.98 111258 64402 127816 135356 144972 146998
3319.88 229436 5460 97962 99454 70194 128422
3322.77-14518 60648 25538 78998 85886 68312
3325.66 34602 145402 126904 42660 81004 164926
3328.55 17736 39510 60200 98206 130 45054
3331.45 30074 30028 75986 122560 67898 50126
3334.34 12976-16582 143798 88122 12832 32004
3337.23 72818 96946-27288-68122 22186 38908
3340.13-19576-26816-65414 9010 56610-27122
3343.02-90446-105882 31976-53604 85964-26452
3345.91 16616-3974 52684-37072 20292 108184
3348.80 77496 122268 65972-28128 95412 102166
3351.70 104906 77904 57132 155864 158746 96050
3354.59 94820 93570 116474 190246 155506 169602
3357.48 180504 135040 140158 102644 56728 151090
3360.37 148192 145790 124318 147126 150076 72214
3363.27 83894 81938 27156 190386 115210 134384
3366.16 145020 92268 77504 171148 143412 137612
3369.05 144710 33096 33018 94714 22152 53914
3371.95-17136 39062 60184 5910 79922 16806
3374.84-36992-39850-70480 78144-81266 21918
3377.73-60696 22410-93614-84882-22590 9932
3380.62-67072-124068-13226-127918-113892-103672
3383.52-41854-100086-74568-86168-86122-55172
3386.41 28118-96202-145296-132090-77278-91090
3389.30-52096-22872 10494 20722 1642-73246
3392.19-89652-70228-77024-201144-33528-71878
3395.09-22874-120454-15680-5114-11810-55868
3397.98-36976-100834-30426 24068 29218 25954
3400.87-76536-50204-116536-37578-75802-31008
3403.77 1996 60204 8760-282-49594 80034
3406.66 7606-48402 43926 28244-122554-33512
3409.55-7764-1346 50490-12018-21914 33546
3412.44 70880 39116 17132 116886 171102 72856
3415.34 57510 98360 80080 110938 33642 84912
3418.23 78386 178354 131904 125458 104352 92708
3421.12 176866 131194 89196 35378 202110 101326
3424.01 163862 175942 93424 150862 140834 152212
3426.91 77764 161324 165100 180994 147066 190458
3429.80 209410 183370 97954 116426 67190 265366
3432.69 166802 191012 240706 265438 49494 96262
3435.59 246950 124446 166082 228642 242858 177272
3438.48 158428 228394 86100 247306 125648 174774
3441.37 85134 200846 90944 168756 218620 143512
3444.26 136330 172544 149888 226008 96806 36332
3447.16 54482 121330 165020 192284 150158 107312
3450.05 166664 167722 208500 125926 154538 129048
3452.94 40900 166558 105092 73872 163076 216712
3455.83 93908 79098 156568 136378-6974 141534
3458.73 118860 51872 140560 29440-54816 35878
3461.62 12334 127192 68488 55328 164750-9756
3464.51 26554-37872 51910 138298 30732-19432
3467.40 64796 45394 52366 105908-147916-1078
3470.30 92156 102186 25708 25470-14752-17698
3473.19 21016-16780 63142 123446 88892 129792
3476.08 142794 127712 206968 140292 221052 329510
3478.98 366058 283598 286560 382568 420140 401746
3481.87 476994 468020 545570 650272 749144 849158
3484.76 858784 856064 985698 1091084 1067204 1180936
3487.65 1295800 1382184 1500088 1585030 1693178 1929924
3490.55 2072302 2152584 2268454 2446486 2585866 2724022
3493.44 2979978 3019950 3250078 3424670 3656000 3768326
3496.33 3892030 4208516 4310054 4440074 4767610 5058848
3499.22 5225838 5308666 5529104 5660546 5833556 5931198
3502.12 6052808 6111378 6137356 6307858 6318140 6272332
3505.01 6279980 6226914 6240540 6144048 6106896 6031658
3507.90 5913454 5904192 5810938 5686974 5812654 5832708
3510.80 5939430 6069698 6297760 6566460 6807544 6937786
3513.69 7062494 7008008 6980236 7021628 6857184 6758358
3516.58 6613138 6420150 6172160 5945462 5753958 5464106
3519.47 5192508 4880326 4593106 4455952 4210016 3901244
3522.37 3571618 3397048 3119802 2813714 2811968 2551626
3525.26 2232084 2145512 1968544 1778504 1683402 1406406
3528.15 1264546 1117234 1076752 1021894 859538 639072
3531.04 651028 579644 281332 247548 231062 117104
3533.94 67372 15506-27774-160494-337864-327682
3536.83-314010-370216-325276-414902-492966-547594
3539.72-561026-626158-636492-571378-589792-668334
3542.62-741572-761822-714566-715226-788410-832812
3545.51-723138-839186-997548-805578-872378-752916
3548.40-781500-963706-876294-874404-834498-707842
3551.29-832106-1005380-751644-811152-857532-859306
3554.19-784848-835294-766510-842284-775280-777512
3557.08-794230-882962-752852-836568-754320-839868
3559.97-784086-804814-795544-667092-904918-746756
3562.86-850320-817876-754316-689082-773324-889576
3565.76-926662-1063924-678034-853578-1124096-708792
3568.65-729652-581198-708750-668724-625032-591680
3571.54-561856-557122-578118-516126-587386-524056
3574.44-634744-552522-421772-483234-507664-500598
3577.33-447878-428472-532550-461294-486444-540292
3580.22-480370-372606-337620-251682-397754-316892
3583.11-405546-273278-289510-259774-375960-281742
3586.01-821542-468680-336816-198372-686388-829486
3588.90-28348-199896-247926-281376-154724-171324
3591.79-149906-235802-352364-173692-247552-131548
3594.68-337188-353312-104652-194566-82124-135258
3597.58-182118-257982-112768-281244-110128-115910
3600.47-262298-194968-112618-158846-114306-119040
3603.36-3432-82542-87268-148754-79124-147184
3606.26-186058-388616-126224-233038-19252-1050450
3609.15-581420 5326-268194-98458-182392-210248
3612.04-807266-269332-100488-127208-350158-229054
3614.93-258010-150090-140016-135796-387826-459400
3617.83-260304-126876-550126-1100738-181216-248138
3620.72-251356-268222-160378-243076-169652-208254
3623.61-127634-176432-166444-211736-276620-251362
3626.50-224894-271990-448038-1562548-21716-1470992
3629.40-1082790-87348-376878-108692-223146-150234
3632.29-285006-171608-539966-282306-280154-185098
3635.18-209834-162704-184404-237568-173344-377592
3638.08-239272-217396-240042-190810-206388-202548
3640.97-180668-209308-362850-187684-224236-238702
3643.86-266546-239908-316134-186392-470094-403664
3646.75-834534-663066-378438-204588-1769414-917854
3649.65-147592-914180-585048-735272-68632-326762
3652.54-182974-313450-163710-216878-229510-217354
3655.43-545436-1510872-76850-351998-149300-225488
3658.32-164478-283566-182250-295044-157964-203026
3661.22-194822-199664-232742-247254-200500-286494
3664.11-258312-298100-136566-249008-207410-225738
3667.00-275116-204504-572732-939186-268348-340396
3669.90-905346-2381264-11764-495944 86458-428714
3672.79-18188-520662-146762-1302102-828246-1094192
3675.68-2018970-63062-466140-209440-276330-178324
3678.57-418872-523228-172558-293748-141244-300296
3681.47-145190-244680-165938-263698-111142-242592
3684.36-136808-258862-93310-376564 6992-533228
3687.25 67320-2024118-1975660-73554-359088-277776
3690.14-333396-734216-736190-47694-306058-151754
3693.04-322862-179226-325278-149888-197306-137012
3695.93-303380-233978-215416-188840-188812-197154
3698.82-193532-204342-203784-277432-177892-763624
3701.72-420760-169216-326796-130400-239558-132000
3704.61-181394-257578-244058-277084-256028-209008
3707.50-290036-256622-419804-878370-319918-175958
3710.39-467094-147146-802968-1775208-232308-323666
3713.29-143972-282502-302388-271844-157796-210768
3716.18-181896-272766-149312-241172-174888-450694
3719.07-157774-212178-187662-240484-144996-501472
3721.96-488204-237308-221854-102830-187960-384218
3724.86-369632-155612-476172-721114-120122-313898
3727.75-151722-127780-146790-161816-135838-128112
3730.64-237370-348732-1558436-639608-83662-353044
3733.54-167948-546554-526240-734712-56720-852202
3736.43-1295306-105652-236968-269670-311786-228240
3739.32-251996-160016-182362-357044-240688-139370
3742.21-180832-111596-553510-1369710-3382194-1248728
3745.11-135624-217636-145728-232930-166996-270288
3748.00-90794-806490-2606622-576698-65062-366898
3750.89-55684-1101634-2751720-169524-275774-110704
3753.78-170934-5722-172362-2900-158126-384106
3756.68-82484-41224-41028-114516-112838-343144
3759.57-565036 19652-39898 25954-86808 51988
3762.46 3020-29648-75206 29684-8552-70186
3765.35-500938 56312-19992 88454-22200 122488
3768.25-114644 163506-701222-568498 113600-78536
3771.14-10726 71398 80512 1638 25662 41052
3774.03 116980 35088 87040 28548 60194 28452
3776.93 21570-65930-47142 2230-417140-328460
3779.82 75856-56734 43040-20394 101804-11806
3782.71 79968-16880-53988-178192-77418 49538
3785.60 6700-52282-8070-54272-78780-50598
3788.50-29014-81432 30544-66200 12490-17140
3791.39 52436-92276 64592-25900 13282-61284
3794.28 36252-160984 24828-482200-378108-32510
3797.17-86218-135566 57700-197138 15780-253672
3800.07 6838-865076-2378932-64918-155270-205854
3802.96-151864-38638-13708-17052 13616-288742
3805.85 50894-1306324-1142762 194636-244622 130536
3808.75-118966 44864-127950 108346-116938 103274
3811.64-138438 105774-124246 15886-189944 75478
3814.53-337852 107838-2284666-1092414 103764-195370
3817.42-2222-153344-11846-41548-123006-360162
3820.32-963304-316936-1190662-233030 78724-92048
3823.21-61716-9116-61296 45122-41986-8226
3826.10-265252-265196 45740 10738 52184-22512
3828.99 12526-89516 8632-69396-295912-654252
3831.89 169016-105082 127414-206678 202060-758072
3834.78-383802 35454 48334-264118 207812-2109900
3837.67-1620494 285706-239002 34388-385988 44436
3840.57-627068 8004-43796 12208-32622-224696
3843.46-419118 156766-61920 34870 2390 115076
3846.35-64928 204474-42084 133246-59230 79854
3849.24-110942 39432-75292 63340-575364-2089886
3852.14-64260-200834-541920-2967358-2059686-39252
3855.03-272 110414-48788-105106-217614 71198
3857.92 30694 107604-19658 58804-66338 120584
3860.81-37152-419096-66272 142094-87328 32810
3863.71-136602-185180-1117622 41886-149306 84822
3866.60-71174 184302-121064 145984-568242-124886
3869.49-1295200-883012 252574-191576 146744-8458
3872.39 51864-54258-132994-518012-97402 2824
3875.28 31668 65032 37890 38798 95986 13630
3878.17 28348-15926-4838-533896-360706-111242
3881.06-65574 39054-12032-6328-144122 88416
3883.96-79430 154632-628966-1097726 25474 18690
3886.85 16562 33076-81268 101114 41004 75488
3889.74-34600 105614-938248-370988 62046-56670
3892.63 134836-95468-20090 52386 40570 34456
3895.53 130632 10780 73124 66068-15442 39990
3898.42-80816-695408-11954 9392 85414 6210
3901.31-844844-237754 167774 34168 52036-925578
3904.21-100736 89052-18346-124912 116650 118208
3907.10 35320 113432 132536 105638 50898 117548
3909.99 109816 177478 158602 158720 47042 127002
3912.88 58234 120790 44772 126962 98148 252660
3915.78 12960 158660-280174 36636 149272 26488
3918.67 204410 47714-239170 72284 112130 147710
3921.56 102032 171780 113360 125000 137616 110088
3924.45 25996 70944 216996 64198 174424 163860
3927.35 165274 128920 211538 94414 92078 138386
3930.24 90594 162308 116976 36902 15708 217530
3933.13 218214 206116 162738 277420 213070 222260
3936.03 265028 230910 232710 250860 252558 232822
3938.92 258888 191956 268326 212688 314212 389332
3941.81 177426-22312 224000 340118 334602 301570
3944.70 224580 252144 273306 292952 207664 228074
3947.60 294858 184058 58780 308838 389800 305310
3950.49 537588 318468 353674 363442 274962 233706
3953.38 371984 298852 344636 279736 470482 312954
3956.27 289594 303120 367718 365630 444384 364214
3959.17 318972 384568 403004 361644 403328 288132
3962.06 456742 343686 280652 383362 328032 340364
3964.95 399872 363994 417364 406178 448578 420132
3967.85 504136 369244 413036 423220 481868 522206
3970.74 439256 517526 450660 588780 509980 578640
3973.63 544622 499306 634412
##END=
