##TITLE=4-THIAZOLIDINONE, 5-BENZYLIDENE-2-IMINO-
##JCAMP-DX=4.24
##DATA TYPE=INFRARED SPECTRUM
##CLASS=COBLENTZ
##ORIGIN=TENNESSEE EASTMAN COMPANY, RESEARCH LABORATORIES
##OWNER=COBLENTZ SOCIETY
Collection (C) 2018 copyright by the U.S. Secretary of Commerce
on behalf of the United States of America. All rights reserved.
##DATE=Not specified, most likely prior to 1970
##NAMES=(5E)-5-benzylidene-2-imino-1,3-thiazolidin-4-one
##CAS REGISTRY NO=14230-00-3
##MOLFORM=C10 H8 N2 O S
##MP=280 C
##SOURCE REFERENCE=COBLENTZ NO. 707
##$NIST SOURCE=COBLENTZ
##$NIST IMAGE=cob707
##SPECTROMETER/DATA SYSTEM=Not specified, most likely a prism, grating, or hybrid spectrometer.
##STATE=SOLID (KBr PELLET)
##SAMPLING PROCEDURE=TRANSMISSION
##RESOLUTION=4
##DATA PROCESSING=DIGITIZED BY NIST FROM HARD COPY
##XUNITS=MICROMETERS
##YUNITS=TRANSMITTANCE
##XFACTOR=1.000000
##YFACTOR=1
##DELTAX=000.006842
##FIRSTX=2
##LASTX=15.9438
##FIRSTY=0.883
##MAXX=15.9438
##MINX=2
##MAXY=1.001
##MINY=0.089
##NPOINTS=2039
##XYDATA=(X++(Y..Y))
2.000000 0.8830 0.8830 0.8830 0.8840 0.8840
2.034227 0.8840 0.8860 0.8860 0.8860 0.8880
2.068000 0.8880 0.8900 0.8910 0.8910 0.8910
2.102227 0.8930 0.8930 0.8950 0.8980 0.9000
2.137000 0.9000 0.8980 0.9000 0.9020 0.9020
2.171227 0.9030 0.9030 0.9030 0.9050 0.9050
2.205000 0.9050 0.9070 0.9080 0.9080 0.9080
2.239227 0.9080 0.9100 0.9100 0.9120 0.9120
2.274000 0.9120 0.9140 0.9140 0.9150 0.9150
2.308227 0.9170 0.9170 0.9190 0.9190 0.9200
2.342000 0.9200 0.9200 0.9220 0.9220 0.9220
2.376227 0.9220 0.9240 0.9240 0.9240 0.9240
2.411000 0.9260 0.9260 0.9260 0.9260 0.9290
2.445227 0.9290 0.9270 0.9270 0.9270 0.9290
2.479000 0.9290 0.9290 0.9310 0.9310 0.9290
2.513227 0.9290 0.9290 0.9290 0.9310 0.9310
2.547000 0.9310 0.9310 0.9310 0.9320 0.9320
2.581227 0.9320 0.9320 0.9320 0.9320 0.9320
2.616000 0.9310 0.9310 0.9310 0.9320 0.9320
2.650227 0.9320 0.9320 0.9320 0.9320 0.9320
2.684000 0.9320 0.9320 0.9320 0.9310 0.9290
2.718227 0.9290 0.9120 0.9100 0.9000 0.8710
2.753000 0.8430 0.8310 0.8210 0.8090 0.7980
2.787227 0.7860 0.7760 0.7640 0.7620 0.7560
2.821000 0.7500 0.7350 0.7280 0.7210 0.7140
2.855227 0.7060 0.6920 0.6870 0.6820 0.6760
2.889000 0.6710 0.6700 0.6680 0.6660 0.6610
2.923227 0.6590 0.6590 0.6590 0.6590 0.6590
2.958000 0.6590 0.6590 0.6590 0.6590 0.6590
2.992227 0.6560 0.6520 0.6510 0.6440 0.6340
3.026000 0.6180 0.5960 0.5750 0.5560 0.5170
3.060227 0.4390 0.4000 0.3690 0.3330 0.2980
3.095000 0.2660 0.2400 0.2180 0.1990 0.1870
3.129227 0.1820 0.1800 0.1820 0.1970 0.2230
3.163000 0.2420 0.2740 0.3040 0.3210 0.3330
3.197227 0.3480 0.3600 0.3650 0.3710 0.3710
3.232000 0.3710 0.3670 0.3530 0.3380 0.3210
3.266227 0.3020 0.2950 0.2810 0.2780 0.2760
3.300000 0.2740 0.2740 0.2740 0.2780 0.2860
3.334227 0.2950 0.3070 0.3290 0.3410 0.3590
3.368000 0.3760 0.4000 0.4260 0.4510 0.4740
3.402227 0.4840 0.4960 0.5080 0.5220 0.5480
3.437000 0.5650 0.5770 0.5940 0.6060 0.6230
3.471227 0.6350 0.6440 0.6440 0.6460 0.6460
3.505000 0.6420 0.6370 0.6340 0.6340 0.6350
3.539227 0.6460 0.6520 0.6610 0.6700 0.6780
3.574000 0.6830 0.6890 0.6940 0.7040 0.7180
3.608227 0.7310 0.7420 0.7490 0.7540 0.7620
3.642000 0.7660 0.7730 0.7830 0.8000 0.8020
3.676227 0.8050 0.8120 0.8120 0.8160 0.8170
3.711000 0.8210 0.8240 0.8280 0.8290 0.8310
3.745227 0.8360 0.8400 0.8410 0.8410 0.8430
3.779000 0.8450 0.8470 0.8500 0.8530 0.8570
3.813227 0.8650 0.8690 0.8740 0.8790 0.8860
3.847000 0.8910 0.8980 0.9020 0.9050 0.9070
3.881227 0.9080 0.9120 0.9140 0.9150 0.9170
3.916000 0.9190 0.9190 0.9190 0.9190 0.9190
3.950227 0.9200 0.9220 0.9220 0.9220 0.9260
3.984000 0.9260 0.9270 0.9270 0.9310 0.9320
4.018227 0.9360 0.9390 0.9410 0.9410 0.9450
4.053000 0.9460 0.9480 0.9500 0.9500 0.9510
4.087227 0.9510 0.9530 0.9550 0.9550 0.9550
4.121000 0.9550 0.9550 0.9550 0.9550 0.9550
4.155227 0.9550 0.9570 0.9580 0.9580 0.9580
4.189000 0.9580 0.9600 0.9600 0.9630 0.9630
4.223227 0.9630 0.9630 0.9630 0.9630 0.9630
4.258000 0.9630 0.9630 0.9630 0.9630 0.9630
4.292227 0.9630 0.9630 0.9630 0.9630 0.9630
4.326000 0.9630 0.9620 0.9600 0.9600 0.9600
4.360227 0.9600 0.9600 0.9620 0.9630 0.9650
4.395000 0.9690 0.9700 0.9720 0.9720 0.9720
4.429227 0.9720 0.9750 0.9790 0.9810 0.9820
4.463000 0.9840 0.9840 0.9860 0.9870 0.9870
4.497227 0.9890 0.9890 0.9890 0.9890 0.9910
4.532000 0.9910 0.9910 0.9910 0.9910 0.9910
4.566227 0.9910 0.9910 0.9910 0.9910 0.9910
4.600000 0.9910 0.9910 0.9910 0.9910 0.9910
4.634227 0.9910 0.9910 0.9910 0.9910 0.9930
4.668000 0.9930 0.9930 0.9930 0.9930 0.9930
4.702227 0.9930 0.9930 0.9930 0.9930 0.9930
4.737000 0.9930 0.9930 0.9930 0.9930 0.9930
4.771227 0.9930 0.9930 0.9930 0.9930 0.9940
4.805000 0.9940 0.9940 0.9940 0.9940 0.9940
4.839227 0.9940 0.9940 0.9960 0.9960 0.9960
4.874000 0.9960 0.9960 0.9960 0.9960 0.9960
4.908227 0.9960 0.9960 0.9960 0.9960 0.9960
4.942000 0.9960 0.9960 0.9960 0.9980 1.0000
4.976227 1.0000 1.0000 1.0010 1.0010 1.0010
5.011000 1.0010 1.0000 1.0000 1.0000 1.0000
5.045227 1.0010 1.0010 1.0010 1.0010 1.0010
5.079000 1.0010 1.0010 1.0010 1.0010 1.0010
5.113227 1.0010 1.0010 0.9960 0.9940 0.9930
5.147000 0.9930 0.9910 0.9910 0.9890 0.9890
5.181227 0.9890 0.9890 0.9890 0.9890 0.9890
5.216000 0.9890 0.9890 0.9890 0.9890 0.9890
5.250227 0.9890 0.9890 0.9890 0.9890 0.9890
5.284000 0.9910 0.9890 0.9890 0.9890 0.9890
5.318227 0.9890 0.9890 0.9890 0.9870 0.9870
5.353000 0.9870 0.9860 0.9860 0.9860 0.9860
5.387227 0.9860 0.9860 0.9860 0.9860 0.9860
5.421000 0.9860 0.9860 0.9860 0.9860 0.9870
5.455227 0.9860 0.9860 0.9860 0.9860 0.9860
5.489000 0.9860 0.9860 0.9860 0.9860 0.9870
5.523227 0.9860 0.9860 0.9860 0.9840 0.9810
5.558000 0.9790 0.9720 0.9690 0.9690 0.9690
5.592227 0.9690 0.9670 0.9670 0.9650 0.9630
5.626000 0.9630 0.9620 0.9580 0.9580 0.9580
5.660227 0.9580 0.9580 0.9580 0.9580 0.9580
5.695000 0.9570 0.9570 0.9550 0.9500 0.9460
5.729227 0.9430 0.9410 0.9320 0.9290 0.9200
5.763000 0.9170 0.9170 0.9170 0.9190 0.9190
5.797227 0.9140 0.8960 0.8710 0.8520 0.8400
5.832000 0.8290 0.8210 0.8050 0.7920 0.7680
5.866227 0.7380 0.7020 0.6610 0.6110 0.5720
5.900000 0.5250 0.4570 0.4120 0.3620 0.3070
5.934227 0.2560 0.2090 0.1680 0.1470 0.1370
5.968000 0.1350 0.1350 0.1340 0.1370 0.1580
6.002227 0.1850 0.2230 0.2420 0.2590 0.2860
6.037000 0.3160 0.3430 0.3790 0.4050 0.4240
6.071227 0.4380 0.4510 0.4620 0.4700 0.4790
6.105000 0.4890 0.4940 0.5000 0.5100 0.5130
6.139227 0.5170 0.5180 0.5170 0.5050 0.4570
6.174000 0.4310 0.4100 0.3900 0.3810 0.3900
6.208227 0.4020 0.4170 0.4310 0.4430 0.4480
6.242000 0.4570 0.4650 0.4740 0.4770 0.4860
6.276227 0.4870 0.4910 0.4910 0.4890 0.4870
6.311000 0.4810 0.4670 0.4570 0.4500 0.4480
6.345227 0.4450 0.4390 0.4340 0.4290 0.4290
6.379000 0.4190 0.4030 0.3840 0.3650 0.3470
6.413227 0.3410 0.3310 0.3280 0.3230 0.3190
6.447000 0.3120 0.3020 0.2810 0.2640 0.2470
6.481227 0.2330 0.2230 0.2140 0.2040 0.2010
6.516000 0.1990 0.1970 0.1890 0.1830 0.1700
6.550227 0.1540 0.1350 0.1160 0.1080 0.1040
6.584000 0.1040 0.1040 0.1040 0.1040 0.1040
6.618227 0.1040 0.1040 0.1080 0.1110 0.1180
6.653000 0.1230 0.1350 0.1520 0.1760 0.2020
6.687227 0.2300 0.2610 0.2920 0.3230 0.3470
6.721000 0.3670 0.3880 0.4050 0.4240 0.4390
6.755227 0.4550 0.4670 0.4790 0.4890 0.4980
6.789000 0.5010 0.5050 0.5100 0.5200 0.5270
6.823227 0.5300 0.5360 0.5390 0.5390 0.5370
6.858000 0.5180 0.4220 0.4000 0.4000 0.4140
6.892227 0.4820 0.5010 0.5200 0.5460 0.5600
6.926000 0.5630 0.5700 0.5700 0.5730 0.5750
6.960227 0.5790 0.5800 0.5820 0.5850 0.5870
6.995000 0.5910 0.5920 0.5910 0.5940 0.5990
7.029227 0.6040 0.6130 0.6180 0.6210 0.6230
7.063000 0.6230 0.6210 0.6200 0.6090 0.5920
7.097227 0.5750 0.5540 0.5300 0.5050 0.4410
7.132000 0.4020 0.3590 0.3090 0.2740 0.2560
7.166227 0.2490 0.2490 0.2570 0.2690 0.2810
7.200000 0.3040 0.3240 0.3360 0.3410 0.3450
7.234227 0.3450 0.3430 0.3350 0.3230 0.3100
7.268000 0.2980 0.2920 0.2880 0.2880 0.2920
7.302227 0.3000 0.3210 0.3500 0.3810 0.4120
7.337000 0.4510 0.4790 0.4960 0.5130 0.5360
7.371227 0.5600 0.5820 0.6040 0.6230 0.6370
7.405000 0.6420 0.6490 0.6520 0.6540 0.6520
7.439227 0.6520 0.6490 0.6460 0.6460 0.6490
7.474000 0.6680 0.6950 0.7180 0.7300 0.7370
7.508227 0.7380 0.7420 0.7400 0.7400 0.7310
7.542000 0.7180 0.6970 0.6920 0.6780 0.6700
7.576227 0.6640 0.6640 0.6710 0.6800 0.6820
7.611000 0.6830 0.6830 0.6750 0.6610 0.6490
7.645227 0.6420 0.6350 0.6280 0.6180 0.5970
7.679000 0.5680 0.5270 0.3980 0.3260 0.2610
7.713227 0.2040 0.1640 0.1420 0.1350 0.1350
7.747000 0.1350 0.1350 0.1340 0.1280 0.1180
7.781227 0.1080 0.0990 0.0940 0.0910 0.0890
7.816000 0.0890 0.0910 0.0990 0.1110 0.1320
7.850227 0.1590 0.1890 0.2160 0.2450 0.2730
7.884000 0.3000 0.3280 0.3530 0.3780 0.4020
7.918227 0.4220 0.4410 0.4580 0.4700 0.4810
7.953000 0.4930 0.4980 0.5010 0.5030 0.5060
7.987227 0.5120 0.5150 0.5150 0.5170 0.5170
8.021000 0.5270 0.5410 0.5560 0.5730 0.5910
8.055227 0.6090 0.6280 0.6460 0.6630 0.6800
8.089000 0.6940 0.7040 0.7130 0.7160 0.7210
8.123227 0.7250 0.7260 0.7260 0.7280 0.7260
8.158000 0.7260 0.7280 0.7280 0.7310 0.7330
8.192227 0.7330 0.7310 0.7230 0.7070 0.6920
8.226000 0.6760 0.6520 0.6180 0.5650 0.4240
8.260227 0.4150 0.4170 0.4580 0.4890 0.5100
8.295000 0.5300 0.5700 0.6080 0.6440 0.6750
8.329227 0.7020 0.7210 0.7280 0.7310 0.7330
8.363000 0.7350 0.7330 0.7350 0.7350 0.7350
8.397227 0.7350 0.7350 0.7370 0.7380 0.7430
8.432000 0.7500 0.7540 0.7560 0.7610 0.7620
8.466227 0.7660 0.7660 0.7680 0.7690 0.7690
8.500000 0.7690 0.7690 0.7690 0.7690 0.7690
8.534227 0.7680 0.7640 0.7560 0.7470 0.7380
8.568000 0.7300 0.7180 0.7060 0.6920 0.6760
8.602227 0.6560 0.6340 0.6080 0.5790 0.5420
8.637000 0.5050 0.4120 0.3900 0.3570 0.3360
8.671227 0.3210 0.3090 0.2970 0.2930 0.2950
8.705000 0.3070 0.3280 0.3550 0.3900 0.4270
8.739227 0.4670 0.4870 0.5080 0.5480 0.5840
8.774000 0.6150 0.6400 0.6560 0.6640 0.6710
8.808227 0.6800 0.6900 0.6990 0.7070 0.7140
8.842000 0.7210 0.7260 0.7310 0.7350 0.7400
8.876227 0.7430 0.7490 0.7520 0.7560 0.7570
8.911000 0.7620 0.7640 0.7660 0.7690 0.7690
8.945227 0.7710 0.7710 0.7710 0.7710 0.7740
8.979000 0.7760 0.7780 0.7780 0.7780 0.7780
9.013227 0.7780 0.7780 0.7780 0.7780 0.7780
9.047000 0.7780 0.7780 0.7780 0.7760 0.7740
9.081227 0.7740 0.7740 0.7730 0.7730 0.7760
9.116000 0.7800 0.7810 0.7850 0.7920 0.7930
9.150227 0.7970 0.8000 0.8020 0.8020 0.8040
9.184000 0.8040 0.8050 0.8050 0.8070 0.8070
9.218227 0.8070 0.8070 0.8070 0.8070 0.8070
9.253000 0.8050 0.8050 0.8040 0.8040 0.8040
9.287227 0.8040 0.8040 0.8050 0.8050 0.8070
9.321000 0.8070 0.8070 0.8090 0.8090 0.8100
9.355227 0.8100 0.8120 0.8120 0.8120 0.8140
9.389000 0.8140 0.8140 0.8170 0.8170 0.8190
9.423227 0.8190 0.8230 0.8230 0.8240 0.8230
9.458000 0.8240 0.8260 0.8260 0.8260 0.8280
9.492227 0.8280 0.8280 0.8280 0.8280 0.8280
9.526000 0.8280 0.8280 0.8280 0.8280 0.8280
9.560227 0.8290 0.8290 0.8290 0.8290 0.8290
9.595000 0.8290 0.8290 0.8290 0.8290 0.8280
9.629227 0.8280 0.8280 0.8260 0.8240 0.8190
9.663000 0.8100 0.8090 0.8050 0.8050 0.8050
9.697227 0.8050 0.8050 0.8070 0.8070 0.8090
9.732000 0.8090 0.8090 0.8090 0.8100 0.8120
9.766227 0.8120 0.8120 0.8120 0.8120 0.8120
9.800000 0.8120 0.8120 0.8120 0.8120 0.8070
9.834227 0.7980 0.7930 0.7800 0.7690 0.7570
9.868000 0.7490 0.7400 0.7330 0.7250 0.7160
9.902227 0.7060 0.7020 0.7020 0.7010 0.7010
9.937000 0.7020 0.7070 0.7110 0.7180 0.7250
9.971227 0.7330 0.7420 0.7520 0.7620 0.7730
10.005000 0.7830 0.7900 0.7970 0.8020 0.8040
10.039227 0.8040 0.8040 0.8090 0.8090 0.8100
10.074000 0.8100 0.8120 0.8120 0.8140 0.8140
10.108227 0.8160 0.8160 0.8160 0.8160 0.8160
10.142000 0.8170 0.8170 0.8170 0.8190 0.8210
10.176227 0.8210 0.8230 0.8230 0.8240 0.8240
10.211000 0.8240 0.8240 0.8240 0.8240 0.8260
10.245227 0.8260 0.8260 0.8280 0.8280 0.8280
10.279000 0.8290 0.8290 0.8290 0.8330 0.8350
10.313227 0.8360 0.8360 0.8380 0.8380 0.8360
10.347000 0.8360 0.8360 0.8360 0.8360 0.8360
10.381227 0.8350 0.8350 0.8350 0.8350 0.8350
10.416000 0.8350 0.8350 0.8350 0.8360 0.8360
10.450227 0.8360 0.8360 0.8380 0.8380 0.8360
10.484000 0.8360 0.8360 0.8360 0.8360 0.8360
10.518227 0.8380 0.8380 0.8380 0.8380 0.8380
10.553000 0.8360 0.8360 0.8360 0.8360 0.8360
10.587227 0.8360 0.8360 0.8380 0.8380 0.8400
10.621000 0.8400 0.8400 0.8400 0.8410 0.8410
10.655227 0.8410 0.8410 0.8400 0.8410 0.8410
10.689000 0.8410 0.8410 0.8410 0.8410 0.8410
10.723227 0.8410 0.8410 0.8410 0.8410 0.8410
10.758000 0.8410 0.8410 0.8430 0.8410 0.8410
10.792227 0.8410 0.8410 0.8410 0.8380 0.8360
10.826000 0.8330 0.8280 0.8240 0.8210 0.8090
10.860227 0.8070 0.7980 0.7970 0.7830 0.7740
10.895000 0.7680 0.7620 0.7610 0.7610 0.7610
10.929227 0.7590 0.7610 0.7610 0.7610 0.7610
10.963000 0.7610 0.7610 0.7590 0.7590 0.7570
10.997227 0.7560 0.7560 0.7540 0.7590 0.7710
11.032000 0.7900 0.7970 0.8040 0.8120 0.8140
11.066227 0.8160 0.8170 0.8190 0.8210 0.8210
11.100000 0.8230 0.8230 0.8240 0.8260 0.8280
11.134227 0.8280 0.8290 0.8290 0.8310 0.8310
11.168000 0.8330 0.8330 0.8330 0.8330 0.8330
11.202227 0.8330 0.8330 0.8310 0.8290 0.8280
11.237000 0.8240 0.8210 0.8210 0.8210 0.8210
11.271227 0.8210 0.8210 0.8210 0.8210 0.8210
11.305000 0.8210 0.8210 0.8230 0.8230 0.8240
11.339227 0.8240 0.8240 0.8240 0.8260 0.8280
11.374000 0.8280 0.8280 0.8280 0.8280 0.8280
11.408227 0.8280 0.8280 0.8280 0.8280 0.8280
11.442000 0.8280 0.8280 0.8280 0.8280 0.8280
11.476227 0.8280 0.8280 0.8290 0.8290 0.8290
11.511000 0.8290 0.8290 0.8290 0.8290 0.8290
11.545227 0.8290 0.8280 0.8280 0.8260 0.8240
11.579000 0.8190 0.8120 0.8090 0.8050 0.8050
11.613227 0.8040 0.8000 0.7970 0.7900 0.7780
11.647000 0.7710 0.7640 0.7590 0.7560 0.7540
11.681227 0.7540 0.7540 0.7540 0.7540 0.7540
11.716000 0.7540 0.7540 0.7540 0.7560 0.7560
11.750227 0.7540 0.7540 0.7540 0.7540 0.7540
11.784000 0.7520 0.7540 0.7520 0.7520 0.7500
11.818227 0.7490 0.7470 0.7470 0.7450 0.7430
11.853000 0.7430 0.7400 0.7380 0.7350 0.7330
11.887227 0.7330 0.7310 0.7310 0.7300 0.7300
11.921000 0.7280 0.7280 0.7280 0.7280 0.7280
11.955227 0.7280 0.7280 0.7300 0.7300 0.7310
11.989000 0.7310 0.7330 0.7350 0.7330 0.7330
12.023227 0.7370 0.7370 0.7380 0.7380 0.7400
12.058000 0.7420 0.7420 0.7420 0.7420 0.7430
12.092227 0.7430 0.7450 0.7450 0.7470 0.7500
12.126000 0.7520 0.7540 0.7560 0.7570 0.7610
12.160227 0.7620 0.7640 0.7680 0.7690 0.7730
12.195000 0.7760 0.7780 0.7810 0.7830 0.7850
12.229227 0.7860 0.7880 0.7880 0.7900 0.7900
12.263000 0.7900 0.7920 0.7920 0.7920 0.7920
12.297227 0.7920 0.7920 0.7920 0.7920 0.7920
12.332000 0.7920 0.7930 0.7930 0.7950 0.7950
12.366227 0.7970 0.7970 0.7980 0.7980 0.8000
12.400000 0.8000 0.8020 0.8020 0.8020 0.8020
12.434227 0.8020 0.8020 0.8020 0.8020 0.8020
12.468000 0.8020 0.8020 0.8000 0.8000 0.8000
12.502227 0.8000 0.8000 0.8000 0.8000 0.8000
12.537000 0.8000 0.8000 0.8000 0.8000 0.8000
12.571227 0.8000 0.7980 0.7980 0.7950 0.7920
12.605000 0.7880 0.7850 0.7800 0.7760 0.7740
12.639227 0.7730 0.7690 0.7680 0.7640 0.7610
12.674000 0.7590 0.7560 0.7540 0.7500 0.7470
12.708227 0.7450 0.7420 0.7380 0.7330 0.7260
12.742000 0.7190 0.7130 0.7040 0.6970 0.6870
12.776227 0.6760 0.6660 0.6560 0.6440 0.6300
12.811000 0.6180 0.6040 0.5890 0.5730 0.5580
12.845227 0.5420 0.5240 0.5050 0.4650 0.4430
12.879000 0.4220 0.4050 0.3880 0.3740 0.3590
12.913227 0.3470 0.3330 0.3210 0.3120 0.3050
12.947000 0.2980 0.2930 0.2880 0.2860 0.2830
12.981227 0.2810 0.2800 0.2800 0.2800 0.2810
13.016000 0.2830 0.2850 0.2880 0.2930 0.3000
13.050227 0.3100 0.3240 0.3410 0.3640 0.3860
13.084000 0.4100 0.4340 0.4600 0.4870 0.5010
13.118227 0.5150 0.5420 0.5680 0.5940 0.6200
13.153000 0.6420 0.6630 0.6800 0.6940 0.7040
13.187227 0.7110 0.7180 0.7230 0.7280 0.7330
13.221000 0.7370 0.7400 0.7420 0.7430 0.7450
13.255227 0.7450 0.7470 0.7470 0.7470 0.7450
13.289000 0.7450 0.7470 0.7470 0.7470 0.7470
13.323227 0.7470 0.7470 0.7470 0.7470 0.7470
13.358000 0.7490 0.7490 0.7490 0.7470 0.7470
13.392227 0.7450 0.7450 0.7430 0.7430 0.7420
13.426000 0.7400 0.7400 0.7400 0.7400 0.7400
13.460227 0.7400 0.7400 0.7400 0.7400 0.7400
13.495000 0.7400 0.7400 0.7400 0.7400 0.7420
13.529227 0.7420 0.7420 0.7400 0.7400 0.7400
13.563000 0.7400 0.7420 0.7400 0.7400 0.7380
13.597227 0.7380 0.7350 0.7350 0.7330 0.7310
13.632000 0.7280 0.7250 0.7210 0.7190 0.7180
13.666227 0.7160 0.7130 0.7070 0.7070 0.7060
13.700000 0.7020 0.6990 0.6950 0.6900 0.6870
13.734227 0.6830 0.6780 0.6750 0.6700 0.6640
13.768000 0.6590 0.6560 0.6520 0.6510 0.6440
13.802227 0.6420 0.6370 0.6340 0.6300 0.6270
13.837000 0.6250 0.6230 0.6200 0.6150 0.6110
13.871227 0.6110 0.6090 0.6090 0.6090 0.6090
13.905000 0.6080 0.6080 0.6080 0.6080 0.6080
13.939227 0.6080 0.6080 0.6090 0.6090 0.6090
13.974000 0.6110 0.6110 0.6130 0.6130 0.6150
14.008227 0.6130 0.6130 0.6130 0.6160 0.6180
14.042000 0.6210 0.6230 0.6230 0.6250 0.6270
14.076227 0.6270 0.6270 0.6300 0.6320 0.6340
14.111000 0.6350 0.6370 0.6370 0.6370 0.6370
14.145227 0.6390 0.6390 0.6400 0.6400 0.6400
14.179000 0.6420 0.6420 0.6440 0.6460 0.6460
14.213227 0.6470 0.6470 0.6490 0.6490 0.6470
14.247000 0.6470 0.6460 0.6460 0.6440 0.6400
14.281227 0.6350 0.6340 0.6280 0.6210 0.6150
14.316000 0.6080 0.6040 0.6010 0.5920 0.5850
14.350227 0.5790 0.5730 0.5670 0.5610 0.5560
14.384000 0.5530 0.5510 0.5480 0.5480 0.5460
14.418227 0.5460 0.5460 0.5460 0.5460 0.5480
14.453000 0.5490 0.5510 0.5610 0.5650 0.5680
14.487227 0.5770 0.5800 0.5840 0.5850 0.5850
14.521000 0.5870 0.5870 0.5890 0.5890 0.5890
14.555227 0.5890 0.5890 0.5890 0.5890 0.5870
14.589000 0.5840 0.5730 0.5680 0.5600 0.5510
14.623227 0.5390 0.5300 0.5240 0.5120 0.5050
14.658000 0.4890 0.4790 0.4720 0.4650 0.4570
14.692227 0.4500 0.4450 0.4390 0.4380 0.4380
14.726000 0.4380 0.4380 0.4380 0.4390 0.4460
14.760227 0.4530 0.4600 0.4700 0.4810 0.4960
14.795000 0.5060 0.5150 0.5290 0.5410 0.5530
14.829227 0.5650 0.5770 0.5890 0.6010 0.6110
14.863000 0.6230 0.6340 0.6440 0.6520 0.6610
14.897227 0.6700 0.6760 0.6830 0.6900 0.6950
14.932000 0.6990 0.7040 0.7070 0.7110 0.7140
14.966227 0.7180 0.7210 0.7250 0.7280 0.7310
15.000000 0.7370 0.7400 0.7450 0.7490 0.7540
15.034227 0.7560 0.7590 0.7590 0.7610 0.7620
15.068000 0.7640 0.7660 0.7660 0.7680 0.7690
15.102227 0.7690 0.7710 0.7730 0.7730 0.7730
15.137000 0.7740 0.7740 0.7740 0.7760 0.7760
15.171227 0.7760 0.7760 0.7780 0.7800 0.7800
15.205000 0.7800 0.7800 0.7800 0.7800 0.7800
15.239227 0.7800 0.7800 0.7800 0.7800 0.7800
15.274000 0.7800 0.7800 0.7780 0.7780 0.7780
15.308227 0.7780 0.7780 0.7800 0.7800 0.7780
15.342000 0.7780 0.7780 0.7780 0.7780 0.7760
15.376227 0.7740 0.7740 0.7730 0.7680 0.7640
15.411000 0.7620 0.7610 0.7590 0.7560 0.7540
15.445227 0.7520 0.7520 0.7490 0.7490 0.7490
15.479000 0.7470 0.7470 0.7450 0.7420 0.7400
15.513227 0.7370 0.7330 0.7300 0.7280 0.7230
15.547000 0.7190 0.7180 0.7160 0.7140 0.7140
15.581227 0.7140 0.7130 0.7110 0.7110 0.7110
15.616000 0.7110 0.7090 0.7070 0.7060 0.7060
15.650227 0.7040 0.7020 0.6990 0.6950 0.6950
15.684000 0.6940 0.6920 0.6890 0.6850 0.6830
15.718227 0.6780 0.6780 0.6760 0.6750 0.6710
15.753000 0.6680 0.6630 0.6610 0.6590 0.6580
15.787227 0.6560 0.6520 0.6510 0.6520 0.6510
15.821000 0.6510 0.6510 0.6490 0.6490 0.6490
15.855227 0.6510 0.6510 0.6510 0.6510 0.6510
15.889000 0.6490 0.6490 0.6490 0.6490 0.6490
15.923227 0.6490 0.6490 0.6490 0.6490
##END=
