##TITLE=DODECANE, 1-BROMO-
##JCAMP-DX=4.24
##DATA TYPE=INFRARED SPECTRUM
##CLASS=COBLENTZ III
##ORIGIN=DOW CHEMICAL COMPANY
##OWNER=COBLENTZ SOCIETY
Collection (C) 2018 copyright by the U.S. Secretary of Commerce
on behalf of the United States of America. All rights reserved.
##DATE=1962/12/27
##NAMES=1-bromododecane
##CAS REGISTRY NO=143-15-7
##MOLFORM=C12 H25 Br
##SOURCE REFERENCE=COBLENTZ NO. 10009
##$NIST SOURCE=COBLENTZ
##$NIST IMAGE=cob10009
##SPECTROMETER/DATA SYSTEM=DOW KBr FOREPRISM-GRATING
##INSTRUMENT PARAMETERS=BLAZED AT 3.5, 12.0, 20.0 MICRON, CHANGED AT 5.0, 7.5, 14.9 MICRON
##STATE=SOLUTION (10% IN CCl4 FOR 3800-1333, AND 10% IN CS2 FOR 1333-400 CM^-^1)
##PATH LENGTH=0.010, 0.010 CM
$$SPECTRAL CONTAMINATION DUE TO CCl4 AROUND 1550, AND CS2 AROUND 855 CM^-^1
##SAMPLING PROCEDURE=TRANSMISSION
##RESOLUTION=4
##DATA PROCESSING=DIGITIZED BY NIST FROM HARD COPY (FROM TWO SEGMENTS)
##XUNITS=1/CM
##YUNITS=TRANSMITTANCE
##XFACTOR=1.000000
##YFACTOR=1
##DELTAX=0.868622
##FIRSTX=381.759
##LASTX=3796.31
##FIRSTY=0.561
##MAXX=3796.31
##MINX=381.759
##MAXY=1.098
##MINY=0.016
##NPOINTS=3932
##XYDATA=(X++(Y..Y))
381.759000 0.5610 0.5610 0.5610 0.5610 0.5610
386.102109 0.5610 0.5610 0.5620 0.5620 0.5650
390.445217 0.5680 0.5720 0.5730 0.5740 0.5760
394.788326 0.5770 0.5810 0.5830 0.5910 0.5980
399.131434 0.6040 0.6100 0.6190 0.6640 0.6750
403.474543 0.7019 0.7040 0.7190 0.7320 0.7599
407.817652 0.7600 0.7720 0.7840 0.7970 0.8090
412.160760 0.8210 0.8310 0.8410 0.8510 0.8560
416.503869 0.8700 0.8730 0.8770 0.8820 0.8890
420.846977 0.8890 0.8910 0.8930 0.8990 0.9010
425.190086 0.9040 0.9100 0.9110 0.9140 0.9190
429.533195 0.9220 0.9250 0.9260 0.9260 0.9260
433.876303 0.9300 0.9310 0.9330 0.9340 0.9340
438.219412 0.9370 0.9410 0.9440 0.9480 0.9500
442.562520 0.9530 0.9550 0.9560 0.9570 0.9610
446.905629 0.9630 0.9640 0.9670 0.9700 0.9720
451.248738 0.9740 0.9740 0.9740 0.9740 0.9750
455.591846 0.9760 0.9760 0.9760 0.9760 0.9790
459.934955 0.9800 0.9800 0.9790 0.9790 0.9820
464.278063 0.9830 0.9850 0.9860 0.9860 0.9860
468.621172 0.9850 0.9850 0.9850 0.9870 0.9870
472.964281 0.9870 0.9890 0.9890 0.9900 0.9900
477.307389 0.9900 0.9910 0.9930 0.9940 0.9930
481.650498 0.9910 0.9910 0.9910 0.9910 0.9910
485.993606 0.9900 0.9900 0.9900 0.9890 0.9890
490.336715 0.9900 0.9900 0.9910 0.9910 0.9930
494.679823 0.9940 0.9940 0.9950 0.9950 0.9950
499.022932 0.9970 0.9970 0.9970 0.9970 0.9970
503.366041 0.9970 0.9970 0.9980 0.9980 1.0000
507.709149 1.0000 1.0000 0.9980 0.9980 0.9970
512.052258 0.9970 0.9970 0.9970 0.9970 0.9950
516.395366 0.9950 0.9950 0.9970 0.9980 0.9980
520.738475 1.0000 1.0000 1.0010 1.0010 1.0010
525.081584 1.0000 1.0000 1.0000 0.9980 0.9970
529.424692 0.9970 0.9950 0.9950 0.9970 0.9970
533.767801 0.9980 1.0000 1.0000 1.0000 1.0000
538.110909 1.0000 0.9980 0.9950 0.9940 0.9930
542.454018 0.9910 0.9900 0.9900 0.9890 0.9890
546.797127 0.9890 0.9870 0.9860 0.9850 0.9820
551.140235 0.9800 0.9760 0.9740 0.9700 0.9650
555.483344 0.9530 0.9370 0.9190 0.9110 0.8811
559.826452 0.8650 0.8371 0.8171 0.8031 0.8010
564.169561 0.8020 0.8140 0.8140 0.8330 0.8460
568.512670 0.8480 0.8779 0.9049 0.9160 0.9230
572.855778 0.9330 0.9370 0.9530 0.9570 0.9630
577.198887 0.9700 0.9740 0.9780 0.9820 0.9860
581.541995 0.9870 0.9900 0.9900 0.9910 0.9930
585.885104 1.0010 1.0080 1.0210 1.0021 1.0000
590.228213 1.0000 0.9980 0.9970 0.9970 0.9950
594.571321 0.9940 0.9930 0.9930 0.9930 0.9940
598.914430 0.9950 0.9950 0.9950 0.9950 0.9950
603.257538 0.9940 0.9940 0.9940 0.9940 1.0000
607.600647 1.0000 0.9970 0.9930 0.9900 0.9870
611.943756 0.9860 0.9850 0.9830 0.9820 0.9820
616.286864 0.9820 0.9800 0.9800 0.9800 0.9790
620.629973 0.9790 0.9780 0.9780 0.9760 0.9760
624.973081 0.9740 0.9720 0.9710 0.9670 0.9630
629.316190 0.9600 0.9530 0.9490 0.9351 0.9310
633.659299 0.9250 0.9150 0.9080 0.9030 0.8950
638.002407 0.8880 0.8820 0.8391 0.7912 0.7731
642.345516 0.7680 0.7610 0.7570 0.7430 0.7420
646.688624 0.7460 0.7530 0.7709 0.7830 0.7940
651.031733 0.8020 0.8330 0.8430 0.8440 0.8590
655.374842 0.8610 0.8859 0.8910 0.8960 0.9099
659.717950 0.9230 0.9290 0.9350 0.9420 0.9450
664.061059 0.9460 0.9480 0.9480 0.9490 0.9490
668.404167 0.9500 0.9530 0.9560 0.9570 0.9590
672.747276 0.9590 0.9590 0.9570 0.9560 0.9560
677.090384 0.9560 0.9570 0.9570 0.9590 0.9600
681.433493 0.9600 0.9600 0.9600 0.9570 0.9550
685.776602 0.9530 0.9490 0.9480 0.9480 0.9480
690.119710 0.9480 0.9460 0.9460 0.9460 0.9450
694.462819 0.9440 0.9440 0.9410 0.9400 0.9370
698.805927 0.9350 0.9310 0.9270 0.9230 0.9200
703.149036 0.9150 0.9120 0.9110 0.9010 0.8960
707.492145 0.8910 0.8840 0.8800 0.8710 0.8630
711.835253 0.8550 0.8390 0.8250 0.8160 0.8060
716.178362 0.7970 0.7801 0.7561 0.7152 0.7120
720.521470 0.7130 0.7230 0.7340 0.7430 0.7540
724.864579 0.7750 0.7770 0.7840 0.7940 0.8030
729.207688 0.8110 0.8210 0.8280 0.8330 0.8370
733.550796 0.8400 0.8440 0.8500 0.8520 0.8540
737.893905 0.8560 0.8620 0.8660 0.8710 0.8730
742.237013 0.8760 0.8770 0.8780 0.8800 0.8810
746.580122 0.8810 0.8820 0.8820 0.8840 0.8860
750.923231 0.8890 0.8910 0.8910 0.8910 0.8930
755.266339 0.8950 0.8960 0.8960 0.8960 0.8970
759.609448 0.9040 0.9080 0.9080 0.9100 0.9110
763.952556 0.9110 0.9110 0.9100 0.9100 0.9100
768.295665 0.9100 0.9110 0.9110 0.9120 0.9120
772.638774 0.9120 0.9120 0.9120 0.9120 0.9110
776.981882 0.9110 0.9110 0.9120 0.9120 0.9140
781.324991 0.9140 0.9140 0.9150 0.9150 0.9160
785.668099 0.9160 0.9180 0.9190 0.9200 0.9220
790.011208 0.9200 0.9200 0.9200 0.9200 0.9200
794.354317 0.9190 0.9190 0.9200 0.9200 0.9190
798.697425 0.9190 0.9200 0.9190 0.9180 0.9160
803.040534 0.9160 0.9160 0.9160 0.9150 0.9150
807.383642 0.9150 0.9160 0.9180 0.9190 0.9200
811.726751 0.9220 0.9230 0.9250 0.9260 0.9260
816.069860 0.9250 0.9250 0.9250 0.9250 0.9260
820.412968 0.9260 0.9250 0.9250 0.9230 0.9220
824.756077 0.9220 0.9200 0.9190 0.9180 0.9150
829.099185 0.9140 0.9120 0.9110 0.9070 0.9050
833.442294 0.9040 0.9030 0.8990 0.8920 0.8910
837.785403 0.8910 0.8880 0.8770 0.8710 0.8700
842.128511 0.8540 0.8470 0.8400 0.8320 0.8220
846.471620 0.8200 0.8180 0.8160 0.8050 0.7861
850.814728 0.7820 0.7790 0.7770 0.7770 0.7770
855.157837 0.7790 0.7790 0.7800 0.7820 0.7830
859.500945 0.7860 0.7880 0.7910 0.7920 0.7920
863.844054 0.7940 0.7950 0.7970 0.8030 0.8100
868.187163 0.8110 0.8110 0.8140 0.8200 0.8240
872.530271 0.8250 0.8260 0.8310 0.8350 0.8400
876.873380 0.8430 0.8470 0.8500 0.8520 0.8540
881.216488 0.8580 0.8610 0.8630 0.8710 0.8710
885.559597 0.8740 0.8770 0.8810 0.8850 0.8910
889.902706 0.8930 0.8960 0.8990 0.9000 0.9050
894.245814 0.9110 0.9120 0.9120 0.9140 0.9150
898.588923 0.9160 0.9180 0.9200 0.9220 0.9230
902.932031 0.9230 0.9230 0.9230 0.9250 0.9260
907.275140 0.9260 0.9260 0.9260 0.9270 0.9270
911.618249 0.9270 0.9270 0.9270 0.9270 0.9270
915.961357 0.9270 0.9290 0.9300 0.9310 0.9310
920.304466 0.9310 0.9310 0.9310 0.9330 0.9310
924.647574 0.9290 0.9290 0.9290 0.9290 0.9290
928.990683 0.9310 0.9330 0.9340 0.9340 0.9340
933.333792 0.9330 0.9330 0.9310 0.9310 0.9300
937.676900 0.9300 0.9300 0.9310 0.9330 0.9340
942.020009 0.9340 0.9350 0.9400 0.9400 0.9350
946.363117 0.9350 0.9340 0.9340 0.9340 0.9330
950.706226 0.9310 0.9310 0.9310 0.9310 0.9310
955.049335 0.9300 0.9310 0.9310 0.9310 0.9310
959.392443 0.9300 0.9290 0.9270 0.9270 0.9270
963.735552 0.9260 0.9260 0.9260 0.9260 0.9270
968.078660 0.9270 0.9270 0.9260 0.9250 0.9250
972.421769 0.9250 0.9250 0.9250 0.9230 0.9230
976.764878 0.9230 0.9230 0.9230 0.9230 0.9230
981.107986 0.9230 0.9230 0.9230 0.9220 0.9220
985.451095 0.9220 0.9220 0.9220 0.9230 0.9230
989.794203 0.9230 0.9230 0.9230 0.9220 0.9220
994.137312 0.9220 0.9220 0.9220 0.9220 0.9220
998.480421 0.9220 0.9230 0.9250 0.9250 0.9250
1002.823529 0.9270 0.9290 0.9310 0.9310 0.9310
1007.166638 0.9310 0.9310 0.9310 0.9310 0.9310
1011.509746 0.9300 0.9300 0.9300 0.9270 0.9270
1015.852855 0.9270 0.9270 0.9260 0.9260 0.9250
1020.195964 0.9230 0.9220 0.9220 0.9220 0.9200
1024.539072 0.9200 0.9200 0.9200 0.9190 0.9180
1028.882181 0.9160 0.9140 0.9140 0.9120 0.9120
1033.225289 0.9120 0.9120 0.9110 0.9110 0.9110
1037.568398 0.9110 0.9110 0.9100 0.9100 0.9080
1041.911507 0.9070 0.9070 0.9100 0.9110 0.9110
1046.254615 0.9110 0.9110 0.9110 0.9110 0.9110
1050.597724 0.9110 0.9110 0.9110 0.9110 0.9100
1054.940832 0.9100 0.9100 0.9100 0.9100 0.9100
1059.283941 0.9100 0.9100 0.9100 0.9100 0.9080
1063.627049 0.9080 0.9080 0.9070 0.9070 0.9050
1067.970158 0.9050 0.9050 0.9050 0.9040 0.9040
1072.313267 0.9040 0.9040 0.9030 0.9030 0.9040
1076.656375 0.9040 0.9050 0.9070 0.9070 0.9110
1080.999484 0.9120 0.9120 0.9120 0.9140 0.9140
1085.342592 0.9140 0.9150 0.9150 0.9140 0.9150
1089.685701 0.9150 0.9150 0.9160 0.9160 0.9160
1094.028810 0.9180 0.9190 0.9190 0.9220 0.9220
1098.371918 0.9200 0.9200 0.9220 0.9220 0.9220
1102.715027 0.9220 0.9220 0.9220 0.9220 0.9220
1107.058135 0.9220 0.9200 0.9200 0.9190 0.9180
1111.401244 0.9180 0.9160 0.9160 0.9160 0.9160
1115.744353 0.9160 0.9160 0.9160 0.9180 0.9180
1120.087461 0.9190 0.9200 0.9220 0.9230 0.9250
1124.430570 0.9260 0.9260 0.9260 0.9260 0.9260
1128.773678 0.9260 0.9260 0.9260 0.9250 0.9230
1133.116787 0.9220 0.9200 0.9200 0.9190 0.9160
1137.459896 0.9160 0.9150 0.9150 0.9140 0.9120
1141.803004 0.9110 0.9110 0.9100 0.9100 0.9080
1146.146113 0.9080 0.9080 0.9080 0.9080 0.9080
1150.489221 0.9080 0.9100 0.9110 0.9110 0.9110
1154.832330 0.9110 0.9080 0.9070 0.9070 0.9050
1159.175439 0.9050 0.9040 0.9030 0.9030 0.9030
1163.518547 0.9040 0.9040 0.9040 0.9040 0.9040
1167.861656 0.9030 0.9030 0.9010 0.9010 0.9010
1172.204764 0.9010 0.9010 0.9000 0.8990 0.8970
1176.547873 0.8970 0.8960 0.8950 0.8930 0.8920
1180.890982 0.8920 0.8910 0.8910 0.8910 0.8860
1185.234090 0.8840 0.8840 0.8820 0.8810 0.8770
1189.577199 0.8710 0.8690 0.8690 0.8660 0.8550
1193.920307 0.8550 0.8510 0.8500 0.8410 0.8390
1198.263416 0.8390 0.8350 0.8320 0.8260 0.8240
1202.606525 0.8210 0.8180 0.8140 0.8130 0.8110
1206.949633 0.8020 0.7980 0.7950 0.7940 0.7870
1211.292742 0.7860 0.7860 0.7860 0.7840 0.7840
1215.635850 0.7830 0.7820 0.7820 0.7790 0.7790
1219.978959 0.7720 0.7670 0.7640 0.7610 0.7580
1224.322068 0.7530 0.7500 0.7460 0.7450 0.7420
1228.665176 0.7410 0.7380 0.7340 0.7270 0.7240
1233.008285 0.7190 0.7160 0.7110 0.7070 0.7010
1237.351393 0.6980 0.6920 0.6890 0.6880 0.6890
1241.694502 0.6930 0.6940 0.6960 0.6980 0.7020
1246.037610 0.7040 0.7020 0.6930 0.6830 0.6780
1250.380719 0.6710 0.6640 0.6550 0.6520 0.6530
1254.723828 0.6600 0.6630 0.6680 0.6780 0.6810
1259.066936 0.6890 0.7050 0.7050 0.7110 0.7150
1263.410045 0.7200 0.7240 0.7270 0.7310 0.7350
1267.753153 0.7380 0.7390 0.7390 0.7380 0.7380
1272.096262 0.7370 0.7370 0.7370 0.7380 0.7390
1276.439371 0.7410 0.7420 0.7460 0.7490 0.7560
1280.782479 0.7570 0.7580 0.7580 0.7580 0.7580
1285.125588 0.7580 0.7580 0.7580 0.7570 0.7570
1289.468696 0.7570 0.7570 0.7570 0.7560 0.7560
1293.811805 0.7570 0.7570 0.7580 0.7620 0.7670
1298.154914 0.7680 0.7760 0.7840 0.7900 0.8159
1302.498022 0.8260 0.8310 0.8320 0.8330 0.8520
1306.841131 0.8550 0.8620 0.8700 0.8740 0.8879
1311.184239 0.8950 0.9030 0.9100 0.9120 0.9150
1315.527348 0.9160 0.9220 0.9250 0.9300 0.9310
1319.870457 0.9340 0.9370 0.9400 0.9410 0.9410
1324.213565 0.9420 0.9420 0.9440 0.9440 0.9420
1328.556674 0.9400 0.9370 0.9330 0.9300 0.9260
1332.899782 0.9220 0.9160 0.9100 0.9070 0.9070
1337.242891 0.9050 0.9050 0.9050 0.9100 0.9110
1341.586000 0.9110 0.9110 0.9100 0.9070 0.9040
1345.929108 0.9010 0.8990 0.8960 0.8930 0.8860
1350.272217 0.8800 0.8780 0.8780 0.8780 0.8800
1354.615325 0.8820 0.8840 0.8850 0.8850 0.8820
1358.958434 0.8820 0.8810 0.8780 0.8770 0.8760
1363.301543 0.8740 0.8690 0.8690 0.8670 0.8590
1367.644651 0.8580 0.8580 0.8560 0.8560 0.8580
1371.987760 0.8580 0.8560 0.8540 0.8210 0.8090
1376.330868 0.8020 0.7751 0.7750 0.7989 0.8388
1380.673977 0.9000 0.9010 0.9100 0.9160 0.9190
1385.017086 0.9250 0.9300 0.9400 0.9400 0.9440
1389.360194 0.9460 0.9530 0.9550 0.9560 0.9560
1393.703303 0.9560 0.9570 0.9590 0.9590 0.9590
1398.046411 0.9590 0.9590 0.9600 0.9610 0.9600
1402.389520 0.9590 0.9590 0.9560 0.9530 0.9530
1406.732629 0.9490 0.9490 0.9490 0.9480 0.9480
1411.075737 0.9480 0.9460 0.9450 0.9450 0.9400
1415.418846 0.9380 0.9370 0.9310 0.9300 0.9250
1419.761954 0.9190 0.9120 0.9050 0.8990 0.8920
1424.105063 0.8850 0.8610 0.8390 0.8200 0.7820
1428.448172 0.7570 0.7410 0.7410 0.7669 0.7680
1432.791280 0.7670 0.7640 0.7610 0.7310 0.6970
1437.134389 0.6750 0.6590 0.6590 0.6750 0.6959
1441.477497 0.6970 0.7040 0.7050 0.7070 0.7050
1445.820606 0.7040 0.6980 0.6940 0.6880 0.6213
1450.163714 0.5990 0.5790 0.5570 0.5360 0.5050
1454.506823 0.4910 0.4800 0.4700 0.4680 0.4630
1458.849932 0.4560 0.4490 0.4420 0.4350 0.4290
1463.193040 0.4220 0.4080 0.4010 0.3960 0.3661
1467.536149 0.3630 0.3650 0.3820 0.5140 0.5829
1471.879257 0.7747 0.7830 0.8289 0.8310 0.8370
1476.222366 0.8520 0.8590 0.8620 0.8700 0.8710
1480.565475 0.8770 0.8780 0.8780 0.8780 0.8780
1484.908583 0.8770 0.8760 0.8700 0.8690 0.8700
1489.251692 0.8700 0.8710 0.8710 0.8700 0.8690
1493.594800 0.8660 0.8650 0.8580 0.8560 0.8550
1497.937909 0.8550 0.8540 0.8520 0.8480 0.8440
1502.281018 0.8360 0.8330 0.8290 0.8250 0.8210
1506.624126 0.8170 0.8130 0.8100 0.8050 0.8010
1510.967235 0.7970 0.7910 0.7860 0.7820 0.7790
1515.310343 0.7750 0.7650 0.7610 0.7580 0.7570
1519.653452 0.7560 0.7430 0.7410 0.7390 0.7380
1523.996561 0.7310 0.7230 0.7200 0.7160 0.7120
1528.339669 0.7080 0.6970 0.6890 0.6820 0.6680
1532.682778 0.6600 0.6530 0.6470 0.6400 0.6231
1537.025886 0.6110 0.6000 0.5890 0.5810 0.5540
1541.368995 0.5490 0.5440 0.5390 0.5360 0.5360
1545.712104 0.5350 0.5340 0.5340 0.5340 0.5340
1550.055212 0.5350 0.5390 0.5430 0.5440 0.5510
1554.398321 0.5640 0.5650 0.5730 0.5850 0.5870
1558.741429 0.5990 0.6100 0.6220 0.6370 0.6520
1563.084538 0.6590 0.6660 0.6740 0.6790 0.6890
1567.427647 0.6940 0.7010 0.7020 0.7070 0.7090
1571.770755 0.7130 0.7150 0.7170 0.7190 0.7220
1576.113864 0.7220 0.7230 0.7240 0.7260 0.7280
1580.456972 0.7300 0.7350 0.7370 0.7410 0.7420
1584.800081 0.7450 0.7530 0.7580 0.7610 0.7690
1589.143190 0.7730 0.7840 0.7970 0.8130 0.8140
1593.486298 0.8240 0.8250 0.8320 0.8410 0.8480
1597.829407 0.8540 0.8620 0.8670 0.8780 0.8860
1602.172515 0.8960 0.9000 0.9030 0.9110 0.9190
1606.515624 0.9260 0.9310 0.9340 0.9350 0.9420
1610.858733 0.9450 0.9490 0.9520 0.9530 0.9550
1615.201841 0.9570 0.9600 0.9630 0.9640 0.9650
1619.544950 0.9650 0.9680 0.9700 0.9720 0.9740
1623.888058 0.9750 0.9750 0.9760 0.9760 0.9780
1628.231167 0.9780 0.9790 0.9790 0.9760 0.9760
1632.574275 0.9760 0.9780 0.9790 0.9800 0.9820
1636.917384 0.9850 0.9850 0.9870 0.9870 0.9870
1641.260493 0.9870 0.9890 0.9890 0.9890 0.9900
1645.603601 0.9900 0.9900 0.9900 0.9910 0.9910
1649.946710 0.9900 0.9910 0.9910 0.9910 0.9910
1654.289818 0.9910 0.9910 0.9900 0.9900 0.9890
1658.632927 0.9890 0.9890 0.9890 0.9900 0.9900
1662.976036 0.9900 0.9900 0.9910 0.9930 0.9930
1667.319144 0.9930 0.9910 0.9900 0.9890 0.9870
1671.662253 0.9870 0.9890 0.9890 0.9890 0.9890
1676.005361 0.9900 0.9900 0.9900 0.9900 0.9870
1680.348470 0.9870 0.9910 0.9910 0.9910 0.9910
1684.691579 0.9910 0.9910 0.9910 0.9910 0.9900
1689.034687 0.9900 0.9910 0.9910 0.9890 0.9860
1693.377796 0.9860 0.9850 0.9850 0.9850 0.9850
1697.720904 0.9850 0.9860 0.9870 0.9890 0.9910
1702.064013 0.9910 0.9910 0.9900 0.9900 0.9900
1706.407122 0.9900 0.9900 0.9900 0.9900 0.9910
1710.750230 0.9940 0.9940 0.9930 0.9930 0.9910
1715.093339 0.9910 0.9900 0.9910 0.9930 0.9930
1719.436447 0.9930 0.9930 0.9910 0.9930 0.9930
1723.779556 0.9930 0.9930 0.9930 0.9930 0.9940
1728.122665 0.9950 0.9980 0.9760 0.9940 0.9910
1732.465773 0.9910 0.9930 0.9930 0.9930 0.9940
1736.808882 0.9940 0.9940 0.9940 0.9940 0.9950
1741.151990 0.9970 0.9970 0.9980 0.9980 0.9980
1745.495099 0.9980 0.9980 0.9980 0.9980 0.9980
1749.838208 0.9970 0.9950 0.9950 0.9950 0.9950
1754.181316 0.9950 0.9970 0.9980 0.9980 0.9980
1758.524425 0.9980 0.9970 0.9970 0.9950 0.9950
1762.867533 0.9950 0.9970 0.9970 0.9980 0.9980
1767.210642 0.9980 0.9970 0.9970 0.9980 0.9970
1771.553751 0.9970 0.9950 0.9950 0.9940 0.9940
1775.896859 0.9930 0.9930 0.9940 0.9940 0.9940
1780.239968 0.9950 0.9950 0.9950 0.9950 0.9950
1784.583076 0.9950 0.9940 0.9940 0.9940 0.9940
1788.926185 0.9930 0.9940 0.9930 0.9930 0.9930
1793.269294 0.9910 0.9930 0.9930 0.9910 0.9910
1797.612402 0.9900 0.9890 0.9910 0.9930 0.9930
1801.955511 0.9930 0.9910 0.9900 0.9900 0.9900
1806.298619 0.9900 0.9900 0.9900 0.9900 0.9900
1810.641728 0.9900 0.9900 0.9900 0.9890 0.9890
1814.984836 0.9890 0.9870 0.9870 0.9890 0.9900
1819.327945 0.9900 0.9900 0.9900 0.9890 0.9890
1823.671054 0.9890 0.9900 0.9900 0.9900 0.9900
1828.014162 0.9900 0.9900 0.9890 0.9870 0.9870
1832.357271 0.9870 0.9870 0.9890 0.9890 0.9890
1836.700379 0.9890 0.9870 0.9870 0.9870 0.9860
1841.043488 0.9860 0.9870 0.9870 0.9870 0.9870
1845.386597 0.9860 0.9860 0.9870 0.9870 0.9870
1849.729705 0.9860 0.9860 0.9870 0.9870 0.9860
1854.072814 0.9860 0.9890 0.9890 0.9890 0.9890
1858.415922 0.9890 0.9890 0.9890 0.9890 0.9860
1862.759031 0.9860 0.9860 0.9860 0.9870 0.9870
1867.102140 0.9870 0.9870 0.9870 0.9890 0.9890
1871.445248 0.9890 0.9860 0.9870 0.9890 0.9890
1875.788357 0.9890 0.9890 0.9900 0.9900 0.9900
1880.131465 0.9900 0.9900 0.9900 0.9900 0.9900
1884.474574 0.9900 0.9890 0.9890 0.9870 0.9870
1888.817683 0.9890 0.9890 0.9870 0.9870 0.9870
1893.160791 0.9870 0.9870 0.9870 0.9870 0.9870
1897.503900 0.9870 0.9870 0.9870 0.9870 0.9870
1901.847008 0.9870 0.9870 0.9870 0.9870 0.9890
1906.190117 0.9900 0.9890 0.9890 0.9890 0.9890
1910.533226 0.9890 0.9890 0.9900 0.9900 0.9900
1914.876334 0.9900 0.9910 0.9910 0.9910 0.9930
1919.219443 0.9930 0.9930 0.9930 0.9910 0.9910
1923.562551 0.9900 0.9900 0.9890 0.9890 0.9890
1927.905660 0.9890 0.9890 0.9890 0.9900 0.9900
1932.248769 0.9900 0.9890 0.9890 0.9890 0.9890
1936.591877 0.9890 0.9870 0.9870 0.9870 0.9900
1940.934986 0.9900 0.9890 0.9890 0.9890 0.9890
1945.278094 0.9890 0.9890 0.9900 1.0040 1.0100
1949.621203 1.0100 0.9910 0.9890 0.9890 0.9900
1953.964312 0.9930 0.9940 1.0050 1.0140 1.0980
1958.307420 1.0980 1.0680 1.0311 0.9951 0.9890
1962.650529 0.9870 0.9870 0.9860 0.9860 0.9830
1966.993637 0.9820 0.9790 0.9790 0.9790 0.9790
1971.336746 0.9790 0.9790 0.9790 0.9790 0.9790
1975.679855 0.9790 0.9790 0.9790 0.9790 0.9790
1980.022963 0.9800 0.9800 0.9790 0.9780 0.9760
1984.366072 0.9760 0.9760 0.9780 0.9780 0.9780
1988.709180 0.9780 0.9780 0.9780 0.9570 0.9400
1993.052289 0.9410 0.9520 0.9590 0.9760 0.9780
1997.395398 0.9780 0.9780 0.9760 0.9720 0.9720
2001.738506 0.9720 0.9720 0.9720 0.9720 0.9720
2006.081615 0.9720 0.9720 0.9720 0.9720 0.9730
2010.424723 0.9740 0.9730 0.9720 0.9720 0.9720
2014.767832 0.9715 0.9710 0.9715 0.9720 0.9720
2019.110940 0.9720 0.9730 0.9740 0.9730 0.9720
2023.454049 0.9715 0.9710 0.9705 0.9700 0.9700
2027.797158 0.9700 0.9700 0.9700 0.9926 1.0156
2032.140266 0.9984 0.9804 0.9741 0.9680 0.9680
2036.483375 0.9680 0.9680 0.9680 0.9680 0.9680
2040.826483 0.9675 0.9670 0.9670 0.9670 0.9670
2045.169592 0.9670 0.9675 0.9680 0.9690 0.9700
2049.512701 0.9705 0.9710 0.9710 0.9710 0.9710
2053.855809 0.9710 0.9710 0.9710 0.9710 0.9710
2058.198918 0.9710 0.9710 0.9710 0.9710 0.9710
2062.542026 0.9710 0.9705 0.9700 0.9690 0.9680
2066.885135 0.9680 0.9680 0.9690 0.9700 0.9705
2071.228244 0.9710 0.9715 0.9720 0.9730 0.9740
2075.571352 0.9745 0.9750 0.9750 0.9750 0.9750
2079.914461 0.9750 0.9750 0.9750 0.9750 0.9750
2084.257569 0.9755 0.9760 0.9760 0.9760 0.9760
2088.600678 0.9760 0.9760 0.9760 0.9750 0.9740
2092.943787 0.9740 0.9740 0.9740 0.9740 0.9730
2097.286895 0.9720 0.9720 0.9720 0.9739 0.9759
2101.630004 0.9760 0.9760 0.9760 0.9760 0.9760
2105.973112 0.9760 0.9760 0.9760 0.9760 0.9760
2110.316221 0.9740 0.9720 0.9720 0.9720 0.9730
2114.659330 0.9740 0.9750 0.9760 0.9760 0.9760
2119.002438 0.9770 0.9780 0.9780 0.9780 0.9760
2123.345547 0.9740 0.9740 0.9740 0.9740 0.9740
2127.688655 0.9740 0.9740 0.9750 0.9760 0.9750
2132.031764 0.9740 0.9730 0.9720 0.9715 0.9710
2136.374873 0.9710 0.9710 0.9710 0.9710 0.9710
2140.717981 0.9710 0.9710 0.9710 0.9705 0.9700
2145.061090 0.9700 0.9700 0.9700 0.9700 0.9710
2149.404198 0.9720 0.9720 0.9720 0.9710 0.9700
2153.747307 0.9700 0.9700 0.9700 0.9700 0.9700
2158.090416 0.9700 0.9700 0.9700 0.9690 0.9680
2162.433524 0.9690 0.9700 0.9700 0.9700 0.9700
2166.776633 0.9700 0.9700 0.9700 0.9690 0.9680
2171.119741 0.9680 0.9680 0.9680 0.9680 0.9680
2175.462850 0.9680 0.9680 0.9680 0.9680 0.9680
2179.805959 0.9680 0.9680 0.9680 0.9680 0.9680
2184.149067 0.9680 0.9680 0.9680 0.9680 0.9680
2188.492176 0.9680 0.9680 0.9680 0.9680 0.9695
2192.835284 0.9710 0.9710 0.9710 0.9710 0.9710
2197.178393 0.9710 0.9710 0.9710 0.9710 0.9710
2201.521501 0.9710 0.9710 0.9710 0.9710 0.9710
2205.864610 0.9715 0.9720 0.9720 0.9720 0.9720
2210.207719 0.9720 0.9715 0.9710 0.9710 0.9710
2214.550827 0.9710 0.9710 0.9710 0.9710 0.9710
2218.893936 0.9710 0.9710 0.9710 0.9696 0.9681
2223.237044 0.9680 0.9680 0.9680 0.9680 0.9680
2227.580153 0.9680 0.9680 0.9680 0.9675 0.9670
2231.923262 0.9670 0.9670 0.9670 0.9670 0.9670
2236.266370 0.9670 0.9670 0.9670 0.9675 0.9680
2240.609479 0.9680 0.9680 0.9666 0.9650 0.9650
2244.952587 0.9650 0.9650 0.9650 0.9650 0.9650
2249.295696 0.9650 0.9650 0.9650 0.9650 0.9645
2253.638805 0.9640 0.9640 0.9640 0.9640 0.9640
2257.981913 0.9640 0.9640 0.9635 0.9630 0.9630
2262.325022 0.9630 0.9630 0.9630 0.9630 0.9630
2266.668130 0.9620 0.9610 0.9605 0.9600 0.9595
2271.011239 0.9590 0.9590 0.9590 0.9581 0.9571
2275.354348 0.9570 0.9570 0.9565 0.9560 0.9560
2279.697456 0.9560 0.9555 0.9550 0.9550 0.9550
2284.040565 0.9540 0.9530 0.9530 0.9530 0.9525
2288.383673 0.9520 0.9520 0.9520 0.9520 0.9520
2292.726782 0.9520 0.9520 0.9520 0.9520 0.9520
2297.069891 0.9520 0.9525 0.9530 0.9530 0.9530
2301.412999 0.9530 0.9530 0.9530 0.9530 0.9539
2305.756108 0.9549 0.9550 0.9550 0.9550 0.9550
2310.099216 0.9550 0.9550 0.9550 0.9550 0.9550
2314.442325 0.9550 0.9550 0.9550 0.9550 0.9550
2318.785434 0.9540 0.9530 0.9525 0.9520 0.9520
2323.128542 0.9520 0.9520 0.9520 0.9525 0.9530
2327.471651 0.9539 0.9549 0.9555 0.9560 0.9560
2331.814759 0.9560 0.9560 0.9560 0.9560 0.9560
2336.157868 0.9560 0.9560 0.9560 0.9560 0.9560
2340.500977 0.9560 0.9560 0.9560 0.9565 0.9570
2344.844085 0.9579 0.9589 0.9595 0.9600 0.9600
2349.187194 0.9600 0.9605 0.9610 0.9619 0.9629
2353.530302 0.9630 0.9630 0.9635 0.9640 0.9640
2357.873411 0.9640 0.9635 0.9630 0.9630 0.9630
2362.216520 0.9630 0.9630 0.9630 0.9630 0.9630
2366.559628 0.9630 0.9635 0.9640 0.9654 0.9669
2370.902737 0.9675 0.9680 0.9689 0.9699 0.9705
2375.245845 0.9710 0.9710 0.9710 0.9710 0.9710
2379.588954 0.9724 0.9739 0.9745 0.9750 0.9755
2383.932063 0.9760 0.9755 0.9750 0.9745 0.9740
2388.275171 0.9740 0.9740 0.9740 0.9740 0.9740
2392.618280 0.9740 0.9740 0.9740 0.9740 0.9740
2396.961388 0.9740 0.9740 0.9745 0.9750 0.9755
2401.304497 0.9760 0.9760 0.9760 0.9755 0.9750
2405.647605 0.9755 0.9760 0.9760 0.9760 0.9760
2409.990714 0.9760 0.9760 0.9760 0.9760 0.9760
2414.333823 0.9760 0.9760 0.9760 0.9760 0.9760
2418.676931 0.9760 0.9769 0.9779 0.9780 0.9780
2423.020040 0.9771 0.9761 0.9760 0.9760 0.9760
2427.363148 0.9760 0.9755 0.9750 0.9750 0.9750
2431.706257 0.9755 0.9760 0.9769 0.9779 0.9780
2436.049366 0.9780 0.9780 0.9780 0.9785 0.9790
2440.392474 0.9790 0.9790 0.9785 0.9780 0.9780
2444.735583 0.9780 0.9780 0.9780 0.9780 0.9780
2449.078691 0.9785 0.9790 0.9790 0.9790 0.9790
2453.421800 0.9790 0.9790 0.9790 0.9790 0.9790
2457.764909 0.9790 0.9790 0.9785 0.9780 0.9780
2462.108017 0.9780 0.9785 0.9790 0.9790 0.9790
2466.451126 0.9790 0.9790 0.9790 0.9790 0.9790
2470.794234 0.9790 0.9795 0.9800 0.9800 0.9800
2475.137343 0.9800 0.9800 0.9800 0.9800 0.9800
2479.480452 0.9800 0.9800 0.9800 0.9800 0.9800
2483.823560 0.9795 0.9790 0.9790 0.9790 0.9790
2488.166669 0.9790 0.9790 0.9790 0.9790 0.9790
2492.509777 0.9790 0.9790 0.9785 0.9780 0.9780
2496.852886 0.9780 0.9780 0.9780 0.9780 0.9780
2501.195995 0.9780 0.9780 0.9780 0.9780 0.9780
2505.539103 0.9780 0.9780 0.9780 0.9780 0.9780
2509.882212 0.9780 0.9780 0.9771 0.9761 0.9760
2514.225320 0.9760 0.9760 0.9760 0.9760 0.9760
2518.568429 0.9760 0.9760 0.9755 0.9750 0.9750
2522.911538 0.9750 0.9750 0.9750 0.9755 0.9760
2527.254646 0.9760 0.9760 0.9755 0.9750 0.9750
2531.597755 0.9750 0.9750 0.9750 0.9750 0.9750
2535.940863 0.9750 0.9750 0.9745 0.9740 0.9740
2540.283972 0.9740 0.9740 0.9740 0.9740 0.9740
2544.627081 0.9740 0.9740 0.9745 0.9750 0.9745
2548.970189 0.9740 0.9740 0.9740 0.9726 0.9711
2553.313298 0.9710 0.9710 0.9705 0.9700 0.9700
2557.656406 0.9700 0.9700 0.9700 0.9691 0.9681
2561.999515 0.9675 0.9670 0.9670 0.9670 0.9661
2566.342624 0.9651 0.9650 0.9650 0.9650 0.9650
2570.685732 0.9650 0.9650 0.9645 0.9640 0.9640
2575.028841 0.9640 0.9640 0.9640 0.9640 0.9640
2579.371949 0.9635 0.9630 0.9621 0.9611 0.9605
2583.715058 0.9600 0.9595 0.9590 0.9590 0.9590
2588.058166 0.9590 0.9590 0.9581 0.9571 0.9570
2592.401275 0.9570 0.9570 0.9570 0.9565 0.9560
2596.744384 0.9560 0.9560 0.9560 0.9560 0.9560
2601.087492 0.9560 0.9560 0.9560 0.9555 0.9550
2605.430601 0.9541 0.9531 0.9530 0.9530 0.9530
2609.773709 0.9530 0.9525 0.9520 0.9511 0.9501
2614.116818 0.9491 0.9481 0.9471 0.9461 0.9460
2618.459927 0.9460 0.9460 0.9460 0.9455 0.9450
2622.803035 0.9446 0.9441 0.9440 0.9440 0.9440
2627.146144 0.9440 0.9440 0.9440 0.9440 0.9440
2631.489252 0.9426 0.9411 0.9410 0.9410 0.9410
2635.832361 0.9410 0.9410 0.9410 0.9406 0.9401
2640.175470 0.9391 0.9381 0.9380 0.9380 0.9375
2644.518578 0.9370 0.9370 0.9370 0.9370 0.9370
2648.861687 0.9370 0.9370 0.9361 0.9351 0.9345
2653.204795 0.9340 0.9340 0.9340 0.9336 0.9331
2657.547904 0.9330 0.9330 0.9321 0.9311 0.9310
2661.891013 0.9310 0.9305 0.9300 0.9286 0.9271
2666.234121 0.9265 0.9260 0.9260 0.9260 0.9260
2670.577230 0.9260 0.9256 0.9251 0.9250 0.9250
2674.920338 0.9250 0.9250 0.9250 0.9250 0.9250
2679.263447 0.9250 0.9255 0.9260 0.9260 0.9260
2683.606556 0.9260 0.9260 0.9260 0.9260 0.9260
2687.949664 0.9260 0.9273 0.9288 0.9294 0.9299
2692.292773 0.9304 0.9309 0.9310 0.9310 0.9319
2696.635881 0.9329 0.9330 0.9330 0.9335 0.9339
2700.978990 0.9340 0.9340 0.9327 0.9312 0.9310
2705.322099 0.9310 0.9310 0.9310 0.9310 0.9310
2709.665207 0.9306 0.9301 0.9304 0.9310 0.9305
2714.008316 0.9300 0.9300 0.9300 0.9296 0.9291
2718.351424 0.9281 0.9271 0.9266 0.9261 0.9256
2722.694533 0.9251 0.9237 0.9222 0.9220 0.9220
2727.037642 0.9220 0.9220 0.9220 0.9220 0.9220
2731.380750 0.9220 0.9224 0.9229 0.9243 0.9258
2735.723859 0.9260 0.9260 0.9260 0.9260 0.9260
2740.066967 0.9260 0.9264 0.9269 0.9279 0.9289
2744.410076 0.9290 0.9290 0.9290 0.9290 0.9290
2748.753185 0.9290 0.9290 0.9290 0.9281 0.9271
2753.096293 0.9270 0.9270 0.9266 0.9261 0.9256
2757.439402 0.9251 0.9250 0.9250 0.9241 0.9231
2761.782510 0.9226 0.9221 0.9211 0.9201 0.9196
2766.125619 0.9191 0.9190 0.9190 0.9186 0.9181
2770.468727 0.9171 0.9161 0.9151 0.9141 0.9122
2774.811836 0.9102 0.9078 0.9053 0.9046 0.9041
2779.154945 0.9027 0.9012 0.8992 0.8972 0.8961
2783.498053 0.8951 0.8937 0.8922 0.8920 0.8920
2787.841162 0.8916 0.8911 0.8888 0.8863 0.8838
2792.184270 0.8813 0.8806 0.8801 0.8787 0.8772
2796.527379 0.8766 0.8761 0.8738 0.8713 0.8701
2800.870488 0.8691 0.8672 0.8652 0.8623 0.8593
2805.213596 0.8559 0.8524 0.8516 0.8511 0.8479
2809.556705 0.8444 0.8401 0.8356 0.8311 0.8266
2813.899813 0.8225 0.8185 0.8158 0.8133 0.8121
2818.242922 0.8111 0.8021 0.7922 0.7755 0.7581
2822.586031 0.7542 0.7522 0.7463 0.7398 0.7342
2826.929139 0.7287 0.7271 0.7261 0.7120 0.6961
2831.272248 0.6744 0.6519 0.6188 0.5840 0.5698
2835.615356 0.5583 0.5526 0.5476 0.5281 0.5066
2839.958465 0.4847 0.4627 0.4271 0.3897 0.3601
2844.301574 0.3316 0.3088 0.2868 0.2675 0.2485
2848.644682 0.2022 0.1517 0.1122 0.0744 0.0581
2852.987791 0.0446 0.0408 0.0383 0.0384 0.0389
2857.330899 0.0438 0.0493 0.0627 0.0772 0.1008
2861.674008 0.1258 0.1455 0.1645 0.1935 0.2239
2866.017117 0.2423 0.2588 0.2658 0.2713 0.2733
2870.360225 0.2748 0.2754 0.2759 0.2773 0.2788
2874.703334 0.2869 0.2959 0.3140 0.3335 0.3556
2879.046442 0.3780 0.3853 0.3903 0.3910 0.3910
2883.389551 0.3867 0.3817 0.3797 0.3782 0.3692
2887.732660 0.3592 0.3466 0.3336 0.3219 0.3105
2892.075768 0.2907 0.2697 0.2579 0.2474 0.2412
2896.418877 0.2357 0.2315 0.2275 0.2188 0.2093
2900.761985 0.1903 0.1699 0.1566 0.1445 0.1391
2905.105094 0.1346 0.1253 0.1153 0.1096 0.1046
2909.448203 0.0970 0.0891 0.0793 0.0693 0.0602
2913.791311 0.0512 0.0448 0.0388 0.0337 0.0287
2918.134420 0.0259 0.0234 0.0204 0.0174 0.0170
2922.477528 0.0170 0.0166 0.0161 0.0160 0.0160
2926.820637 0.0160 0.0160 0.0164 0.0169 0.0170
2931.163746 0.0170 0.0183 0.0198 0.0204 0.0209
2935.506854 0.0219 0.0229 0.0247 0.0267 0.0292
2939.849963 0.0317 0.0372 0.0432 0.0570 0.0720
2944.193071 0.0865 0.1010 0.1090 0.1160 0.1235
2948.536180 0.1309 0.1320 0.1320 0.1311 0.1301
2952.879289 0.1279 0.1254 0.1237 0.1222 0.1207
2957.222397 0.1192 0.1173 0.1153 0.1150 0.1150
2961.565506 0.1167 0.1187 0.1298 0.1422 0.1504
2965.908614 0.1579 0.1706 0.1840 0.2116 0.2416
2970.251723 0.2758 0.3108 0.3499 0.3897 0.4279
2974.594831 0.4659 0.4835 0.4980 0.5444 0.5958
2978.937940 0.6146 0.6281 0.6437 0.6597 0.6757
2983.281049 0.6917 0.7047 0.7172 0.7211 0.7236
2987.624157 0.7287 0.7342 0.7431 0.7527 0.7588
2991.967266 0.7642 0.7676 0.7706 0.7714 0.7719
2996.310374 0.7720 0.7720 0.7720 0.7720 0.7724
3000.653483 0.7729 0.7730 0.7730 0.7730 0.7730
3004.996592 0.7738 0.7748 0.7754 0.7759 0.7777
3009.339700 0.7797 0.7873 0.7958 0.8026 0.8091
3013.682809 0.8177 0.8267 0.8284 0.8289 0.8316
3018.025917 0.8345 0.8397 0.8452 0.8494 0.8534
3022.369026 0.8578 0.8623 0.8677 0.8732 0.8757
3026.712135 0.8777 0.8780 0.8780 0.8806 0.8836
3031.055243 0.8861 0.8886 0.8903 0.8918 0.8933
3035.398352 0.8948 0.8954 0.8959 0.8973 0.8988
3039.741460 0.9007 0.9027 0.9038 0.9049 0.9063
3044.084569 0.9078 0.9093 0.9108 0.9123 0.9138
3048.427678 0.9140 0.9140 0.9144 0.9149 0.9154
3052.770786 0.9159 0.9168 0.9178 0.9184 0.9189
3057.113895 0.9203 0.9218 0.9237 0.9257 0.9264
3061.457003 0.9269 0.9279 0.9289 0.9294 0.9299
3065.800112 0.9304 0.9309 0.9318 0.9328 0.9330
3070.143221 0.9330 0.9334 0.9339 0.9344 0.9349
3074.486329 0.9350 0.9350 0.9350 0.9350 0.9363
3078.829438 0.9378 0.9380 0.9380 0.9380 0.9380
3083.172546 0.9388 0.9398 0.9404 0.9409 0.9414
3087.515655 0.9419 0.9420 0.9420 0.9428 0.9438
3091.858764 0.9444 0.9449 0.9450 0.9450 0.9450
3096.201872 0.9450 0.9450 0.9450 0.9454 0.9459
3100.544981 0.9468 0.9478 0.9484 0.9489 0.9490
3104.888089 0.9490 0.9503 0.9518 0.9524 0.9529
3109.231198 0.9530 0.9530 0.9530 0.9530 0.9530
3113.574307 0.9530 0.9538 0.9548 0.9550 0.9550
3117.917415 0.9550 0.9550 0.9550 0.9550 0.9550
3122.260524 0.9550 0.9550 0.9550 0.9550 0.9550
3126.603632 0.9550 0.9550 0.9550 0.9550 0.9554
3130.946741 0.9559 0.9560 0.9560 0.9556 0.9551
3135.289850 0.9550 0.9550 0.9550 0.9550 0.9550
3139.632958 0.9550 0.9554 0.9559 0.9560 0.9560
3143.976067 0.9564 0.9569 0.9566 0.9561 0.9564
3148.319175 0.9569 0.9570 0.9570 0.9570 0.9570
3152.662284 0.9570 0.9570 0.9570 0.9570 0.9570
3157.005392 0.9570 0.9570 0.9570 0.9570 0.9570
3161.348501 0.9570 0.9570 0.9578 0.9588 0.9590
3165.691610 0.9590 0.9590 0.9590 0.9590 0.9590
3170.034718 0.9590 0.9590 0.9590 0.9590 0.9590
3174.377827 0.9590 0.9590 0.9590 0.9582 0.9572
3178.720935 0.9570 0.9570 0.9578 0.9588 0.9590
3183.064044 0.9590 0.9582 0.9572 0.9570 0.9570
3187.407153 0.9570 0.9570 0.9570 0.9570 0.9570
3191.750261 0.9570 0.9570 0.9570 0.9570 0.9570
3196.093370 0.9570 0.9570 0.9582 0.9598 0.9600
3200.436478 0.9600 0.9600 0.9600 0.9600 0.9600
3204.779587 0.9600 0.9600 0.9588 0.9573 0.9570
3209.122696 0.9570 0.9578 0.9588 0.9598 0.9608
3213.465804 0.9610 0.9610 0.9610 0.9610 0.9610
3217.808913 0.9610 0.9618 0.9628 0.9630 0.9630
3222.152021 0.9630 0.9630 0.9630 0.9630 0.9630
3226.495130 0.9630 0.9630 0.9630 0.9630 0.9630
3230.838239 0.9638 0.9648 0.9650 0.9650 0.9646
3235.181347 0.9641 0.9640 0.9640 0.9644 0.9649
3239.524456 0.9650 0.9650 0.9650 0.9650 0.9650
3243.867564 0.9650 0.9650 0.9650 0.9646 0.9641
3248.210673 0.9640 0.9640 0.9640 0.9640 0.9640
3252.553782 0.9640 0.9640 0.9640 0.9640 0.9640
3256.896890 0.9640 0.9640 0.9640 0.9640 0.9640
3261.239999 0.9640 0.9640 0.9640 0.9640 0.9640
3265.583107 0.9640 0.9640 0.9640 0.9640 0.9644
3269.926216 0.9649 0.9658 0.9668 0.9670 0.9670
3274.269325 0.9670 0.9670 0.9670 0.9670 0.9670
3278.612433 0.9670 0.9670 0.9670 0.9662 0.9652
3282.955542 0.9650 0.9650 0.9650 0.9650 0.9650
3287.298650 0.9650 0.9650 0.9650 0.9650 0.9650
3291.641759 0.9650 0.9650 0.9650 0.9650 0.9650
3295.984868 0.9650 0.9650 0.9650 0.9650 0.9650
3300.327976 0.9658 0.9668 0.9670 0.9670 0.9670
3304.671085 0.9670 0.9670 0.9670 0.9670 0.9670
3309.014193 0.9670 0.9670 0.9670 0.9670 0.9674
3313.357302 0.9679 0.9680 0.9680 0.9680 0.9680
3317.700411 0.9680 0.9680 0.9688 0.9698 0.9692
3322.043519 0.9682 0.9680 0.9680 0.9680 0.9680
3326.386628 0.9680 0.9680 0.9680 0.9680 0.9680
3330.729736 0.9680 0.9680 0.9680 0.9676 0.9671
3335.072845 0.9670 0.9670 0.9670 0.9670 0.9670
3339.415954 0.9670 0.9662 0.9652 0.9650 0.9650
3343.759062 0.9650 0.9650 0.9650 0.9650 0.9650
3348.102171 0.9650 0.9658 0.9668 0.9670 0.9670
3352.445279 0.9662 0.9652 0.9650 0.9650 0.9650
3356.788388 0.9650 0.9646 0.9641 0.9640 0.9640
3361.131496 0.9640 0.9640 0.9644 0.9649 0.9650
3365.474605 0.9650 0.9650 0.9650 0.9650 0.9650
3369.817714 0.9646 0.9641 0.9640 0.9640 0.9644
3374.160822 0.9649 0.9650 0.9650 0.9650 0.9650
3378.503931 0.9650 0.9650 0.9650 0.9650 0.9646
3382.847039 0.9641 0.9640 0.9640 0.9640 0.9640
3387.190148 0.9640 0.9640 0.9640 0.9640 0.9640
3391.533257 0.9640 0.9640 0.9640 0.9640 0.9640
3395.876365 0.9640 0.9640 0.9640 0.9640 0.9644
3400.219474 0.9649 0.9658 0.9668 0.9670 0.9670
3404.562582 0.9662 0.9652 0.9650 0.9650 0.9650
3408.905691 0.9650 0.9658 0.9668 0.9670 0.9670
3413.248800 0.9654 0.9634 0.9630 0.9630 0.9630
3417.591908 0.9630 0.9630 0.9630 0.9630 0.9630
3421.935017 0.9630 0.9630 0.9630 0.9630 0.9630
3426.278125 0.9630 0.9630 0.9630 0.9630 0.9630
3430.621234 0.9630 0.9630 0.9630 0.9630 0.9630
3434.964343 0.9630 0.9630 0.9630 0.9630 0.9630
3439.307451 0.9630 0.9630 0.9630 0.9630 0.9630
3443.650560 0.9630 0.9630 0.9630 0.9630 0.9630
3447.993668 0.9630 0.9630 0.9634 0.9639 0.9636
3452.336777 0.9631 0.9622 0.9612 0.9610 0.9610
3456.679886 0.9610 0.9610 0.9610 0.9610 0.9606
3461.022994 0.9601 0.9600 0.9600 0.9600 0.9600
3465.366103 0.9604 0.9609 0.9622 0.9637 0.9640
3469.709211 0.9640 0.9636 0.9631 0.9630 0.9630
3474.052320 0.9630 0.9630 0.9630 0.9630 0.9622
3478.395429 0.9612 0.9618 0.9628 0.9634 0.9639
3482.738537 0.9640 0.9640 0.9640 0.9640 0.9640
3487.081646 0.9640 0.9628 0.9613 0.9606 0.9601
3491.424754 0.9600 0.9600 0.9600 0.9600 0.9600
3495.767863 0.9600 0.9604 0.9609 0.9618 0.9628
3500.110972 0.9630 0.9630 0.9630 0.9630 0.9630
3504.454080 0.9630 0.9630 0.9630 0.9622 0.9612
3508.797189 0.9610 0.9610 0.9610 0.9610 0.9606
3513.140297 0.9601 0.9600 0.9600 0.9604 0.9609
3517.483406 0.9610 0.9610 0.9622 0.9637 0.9640
3521.826515 0.9640 0.9636 0.9631 0.9622 0.9612
3526.169623 0.9610 0.9610 0.9610 0.9610 0.9610
3530.512732 0.9610 0.9606 0.9601 0.9600 0.9600
3534.855840 0.9600 0.9600 0.9600 0.9600 0.9600
3539.198949 0.9600 0.9600 0.9600 0.9600 0.9600
3543.542057 0.9600 0.9600 0.9600 0.9600 0.9596
3547.885166 0.9591 0.9590 0.9590 0.9590 0.9590
3552.228275 0.9590 0.9590 0.9590 0.9590 0.9590
3556.571383 0.9590 0.9590 0.9590 0.9594 0.9599
3560.914492 0.9600 0.9600 0.9604 0.9609 0.9610
3565.257600 0.9610 0.9610 0.9610 0.9610 0.9610
3569.600709 0.9606 0.9601 0.9596 0.9591 0.9582
3573.943818 0.9572 0.9570 0.9570 0.9566 0.9561
3578.286926 0.9560 0.9560 0.9560 0.9560 0.9560
3582.630035 0.9560 0.9556 0.9551 0.9550 0.9550
3586.973143 0.9550 0.9550 0.9550 0.9550 0.9542
3591.316252 0.9532 0.9530 0.9530 0.9530 0.9530
3595.659361 0.9530 0.9530 0.9530 0.9530 0.9530
3600.002469 0.9530 0.9530 0.9530 0.9530 0.9530
3604.345578 0.9526 0.9521 0.9512 0.9502 0.9500
3608.688686 0.9500 0.9496 0.9491 0.9479 0.9464
3613.031795 0.9456 0.9451 0.9450 0.9450 0.9454
3617.374904 0.9459 0.9468 0.9478 0.9480 0.9480
3621.718012 0.9488 0.9498 0.9500 0.9500 0.9496
3626.061121 0.9491 0.9486 0.9481 0.9480 0.9480
3630.404229 0.9484 0.9489 0.9494 0.9499 0.9496
3634.747338 0.9491 0.9490 0.9490 0.9490 0.9490
3639.090447 0.9490 0.9490 0.9486 0.9481 0.9480
3643.433555 0.9480 0.9472 0.9462 0.9460 0.9460
3647.776664 0.9460 0.9460 0.9460 0.9460 0.9460
3652.119772 0.9460 0.9460 0.9460 0.9460 0.9460
3656.462881 0.9468 0.9478 0.9480 0.9480 0.9484
3660.805990 0.9489 0.9486 0.9481 0.9480 0.9480
3665.149098 0.9480 0.9480 0.9480 0.9480 0.9480
3669.492207 0.9480 0.9480 0.9480 0.9484 0.9489
3673.835315 0.9486 0.9481 0.9480 0.9480 0.9480
3678.178424 0.9480 0.9480 0.9480 0.9480 0.9480
3682.521533 0.9484 0.9489 0.9490 0.9490 0.9494
3686.864641 0.9499 0.9508 0.9518 0.9524 0.9529
3691.207750 0.9538 0.9548 0.9550 0.9550 0.9550
3695.550858 0.9550 0.9550 0.9550 0.9542 0.9532
3699.893967 0.9530 0.9530 0.9530 0.9530 0.9526
3704.237076 0.9521 0.9520 0.9520 0.9520 0.9520
3708.580184 0.9524 0.9529 0.9530 0.9530 0.9530
3712.923293 0.9530 0.9530 0.9530 0.9530 0.9530
3717.266401 0.9526 0.9521 0.9520 0.9520 0.9520
3721.609510 0.9520 0.9520 0.9520 0.9520 0.9520
3725.952618 0.9524 0.9529 0.9530 0.9530 0.9530
3730.295727 0.9530 0.9537 0.9547 0.9550 0.9550
3734.638836 0.9550 0.9550 0.9542 0.9532 0.9530
3738.981944 0.9530 0.9530 0.9530 0.9530 0.9530
3743.325053 0.9530 0.9530 0.9530 0.9530 0.9530
3747.668161 0.9530 0.9530 0.9530 0.9530 0.9530
3752.011270 0.9530 0.9530 0.9530 0.9530 0.9530
3756.354379 0.9530 0.9530 0.9530 0.9530 0.9530
3760.697487 0.9530 0.9530 0.9526 0.9521 0.9520
3765.040596 0.9520 0.9520 0.9520 0.9520 0.9520
3769.383704 0.9520 0.9520 0.9520 0.9520 0.9520
3773.726813 0.9520 0.9520 0.9520 0.9520 0.9520
3778.069922 0.9520 0.9520 0.9513 0.9503 0.9500
3782.413030 0.9500 0.9496 0.9491 0.9490 0.9490
3786.756139 0.9490 0.9490 0.9494 0.9499 0.9500
3791.099247 0.9500 0.9496 0.9491 0.9486 0.9481
3795.442356 0.9473 0.9463
##END=
