##TITLE=4-Octene, (E)
##JCAMP-DX=4.24
##DATA TYPE=INFRARED SPECTRUM
##CLASS=COBLENTZ III
##ORIGIN=COLGATE-PALMOLIVE COMPANY (KELLENBACH)
##OWNER=Copyright (C) 1987 by the Coblentz Society
Collection (C) 2018 copyright by the U.S. Secretary of Commerce
on behalf of the United States of America. All rights reserved.
##DATE=1966/11/21
##NAMES=(4E)-4-octene
##CAS REGISTRY NO=14850-23-8
##MOLFORM=C8 H16
##SOURCE REFERENCE=COBLENTZ NO. 9773
##$NIST SOURCE=COBLENTZ
##$NIST IMAGE=cob9773
##SPECTROMETER/DATA SYSTEM=BECKMAN IR-12 (GRATING)
##INSTRUMENT PARAMETERS=GRATING
##STATE=LIQUID (NEAT)
$$ PURITY 99.8%
$$ SOURCE - CHEMICAL SAMPLES CO.
##PATH LENGTH=0.0094 CM
$$ SEE SPECRUM NO. 4267 FOR "SOLUTION" RUN
##SAMPLING PROCEDURE=TRANSMISSION
##RESOLUTION=2
##DATA PROCESSING=DIGITIZED BY COBLENTZ SOCIETY (BATCH II) FROM HARD COPY
##XUNITS=1/CM
##YUNITS=TRANSMITTANCE
##XFACTOR=1.0
##YFACTOR=1
##FIRSTX=200
##LASTX=4000
##FIRSTY=0.622
##MAXX=4000
##MINX=200
##MAXY=0.9991
##MINY=0
##NPOINTS=3801
##XYDATA=(X++(Y..Y))
200.000000 0.6220 0.6215 0.6210 0.6205 0.6200
205.000000 0.6195 0.6191 0.6184 0.6173 0.6161
210.000000 0.6150 0.6163 0.6277 0.6390 0.6504
215.000000 0.6617 0.6731 0.6845 0.6958 0.7072
220.000000 0.7186 0.7267 0.7330 0.7366 0.7401
225.000000 0.7437 0.7476 0.7615 0.7754 0.7894
230.000000 0.8033 0.8172 0.8311 0.8451 0.8590
235.000000 0.8729 0.8869 0.9008 0.9147 0.9188
240.000000 0.9192 0.9186 0.9169 0.9152 0.9132
245.000000 0.9113 0.9126 0.9151 0.9184 0.9202
250.000000 0.9179 0.9164 0.9148 0.9148 0.9149
255.000000 0.9140 0.9125 0.9104 0.9075 0.9048
260.000000 0.9022 0.8997 0.8970 0.8946 0.8948
265.000000 0.8951 0.8953 0.8975 0.8994 0.9020
270.000000 0.9045 0.9066 0.9077 0.9088 0.9095
275.000000 0.9098 0.9102 0.9116 0.9130 0.9143
280.000000 0.9134 0.9125 0.9116 0.9107 0.9079
285.000000 0.9050 0.9021 0.8993 0.8965 0.8937
290.000000 0.8918 0.8899 0.8872 0.8843 0.8804
295.000000 0.8772 0.8746 0.8724 0.8704 0.8693
300.000000 0.8683 0.8682 0.8687 0.8698 0.8729
305.000000 0.8809 0.8889 0.8969 0.9048 0.9128
310.000000 0.9208 0.9288 0.9367 0.9386 0.9405
315.000000 0.9427 0.9479 0.9539 0.9586 0.9623
320.000000 0.9659 0.9676 0.9691 0.9705 0.9720
325.000000 0.9737 0.9754 0.9777 0.9829 0.9878
330.000000 0.9925 0.9965 0.9987 0.9991 0.9988
335.000000 0.9981 0.9973 0.9965 0.9947 0.9921
340.000000 0.9894 0.9866 0.9839 0.9811 0.9779
345.000000 0.9745 0.9705 0.9669 0.9638 0.9606
350.000000 0.9573 0.9539 0.9517 0.9498 0.9483
355.000000 0.9479 0.9475 0.9471 0.9469 0.9466
360.000000 0.9422 0.9372 0.9321 0.9271 0.9220
365.000000 0.9170 0.9119 0.9069 0.9018 0.8968
370.000000 0.8918 0.8867 0.8817 0.8766 0.8733
375.000000 0.8705 0.8678 0.8650 0.8623 0.8596
380.000000 0.8576 0.8562 0.8548 0.8534 0.8526
385.000000 0.8507 0.8548 0.8569 0.8609 0.8651
390.000000 0.8688 0.8720 0.8741 0.8762 0.8782
395.000000 0.8798 0.8814 0.8831 0.8847 0.8863
400.000000 0.8879 0.8895 0.8907 0.8917 0.8928
405.000000 0.8939 0.8950 0.8960 0.8970 0.8980
410.000000 0.8991 0.9001 0.9011 0.9015 0.9017
415.000000 0.9020 0.9020 0.9019 0.9018 0.9022
420.000000 0.9029 0.9036 0.9043 0.9047 0.9059
425.000000 0.9049 0.9050 0.9051 0.9041 0.9029
430.000000 0.9014 0.8999 0.8984 0.8973 0.8965
435.000000 0.8957 0.8949 0.8941 0.8937 0.8933
440.000000 0.8929 0.8926 0.8922 0.8918 0.8915
445.000000 0.8911 0.8908 0.8906 0.8903 0.8901
450.000000 0.8898 0.8896 0.8893 0.8890 0.8887
455.000000 0.8884 0.8880 0.8877 0.8874 0.8870
460.000000 0.8867 0.8866 0.8867 0.8868 0.8869
465.000000 0.8870 0.8874 0.8879 0.8884 0.8889
470.000000 0.8899 0.8910 0.8921 0.8928 0.8935
475.000000 0.8943 0.8950 0.8951 0.8943 0.8934
480.000000 0.8920 0.8894 0.8868 0.8838 0.8806
485.000000 0.8774 0.8750 0.8726 0.8702 0.8677
490.000000 0.8660 0.8653 0.8654 0.8639 0.8684
495.000000 0.8703 0.8738 0.8782 0.8826 0.8870
500.000000 0.8913 0.8954 0.8982 0.8986 0.8988
505.000000 0.9000 0.8984 0.8977 0.8971 0.8959
510.000000 0.8945 0.8931 0.8909 0.8881 0.8844
515.000000 0.8783 0.8719 0.8656 0.8618 0.8594
520.000000 0.8592 0.8599 0.8596 0.8607 0.8619
525.000000 0.8640 0.8662 0.8688 0.8720 0.8752
530.000000 0.8786 0.8823 0.8859 0.8892 0.8925
535.000000 0.8958 0.8990 0.9020 0.9035 0.9046
540.000000 0.9048 0.9051 0.9053 0.9056 0.9059
545.000000 0.9061 0.9064 0.9067 0.9070 0.9069
550.000000 0.9069 0.9069 0.9069 0.9069 0.9069
555.000000 0.9069 0.9068 0.9065 0.9062 0.9060
560.000000 0.9057 0.9054 0.9052 0.9049 0.9047
565.000000 0.9046 0.9044 0.9043 0.9041 0.9039
570.000000 0.9027 0.9037 0.9038 0.9039 0.9041
575.000000 0.9042 0.9043 0.9044 0.9045 0.9050
580.000000 0.9055 0.9060 0.9062 0.9062 0.9062
585.000000 0.9060 0.9054 0.9048 0.9042 0.9036
590.000000 0.9030 0.9023 0.9016 0.9008 0.9001
595.000000 0.8994 0.8986 0.8978 0.8971 0.8963
600.000000 0.8955 0.8947 0.8942 0.8938 0.8934
605.000000 0.8931 0.8927 0.8923 0.8919 0.8915
610.000000 0.8912 0.8908 0.8905 0.8901 0.8898
615.000000 0.8895 0.8891 0.8888 0.8884 0.8881
620.000000 0.8877 0.8874 0.8871 0.8867 0.8867
625.000000 0.8866 0.8865 0.8864 0.8863 0.8869
630.000000 0.8874 0.8879 0.8884 0.8889 0.8894
635.000000 0.8899 0.8904 0.8908 0.8908 0.8907
640.000000 0.8907 0.8907 0.8905 0.8902 0.8900
645.000000 0.8898 0.8895 0.8893 0.8890 0.8884
650.000000 0.8878 0.8873 0.8859 0.8844 0.8829
655.000000 0.8814 0.8799 0.8779 0.8758 0.8738
660.000000 0.8717 0.8699 0.8682 0.8665 0.8647
665.000000 0.8630 0.8613 0.8598 0.8584 0.8570
670.000000 0.8556 0.8543 0.8529 0.8515 0.8509
675.000000 0.8506 0.8504 0.8501 0.8498 0.8494
680.000000 0.8490 0.8485 0.8481 0.8476 0.8472
685.000000 0.8468 0.8464 0.8445 0.8422 0.8384
690.000000 0.8347 0.8307 0.8266 0.8225 0.8176
695.000000 0.8121 0.8065 0.8010 0.7970 0.7934
700.000000 0.7897 0.7861 0.7824 0.7788 0.7728
705.000000 0.7669 0.7609 0.7552 0.7509 0.7465
710.000000 0.7422 0.7380 0.7343 0.7306 0.7279
715.000000 0.7258 0.7238 0.7217 0.7195 0.7171
720.000000 0.7147 0.7113 0.7074 0.7021 0.6931
725.000000 0.6838 0.6641 0.6516 0.6400 0.6171
730.000000 0.5906 0.5641 0.5377 0.5112 0.4847
735.000000 0.4582 0.4317 0.4053 0.3788 0.3523
740.000000 0.3293 0.3282 0.3363 0.3481 0.3599
745.000000 0.3717 0.3835 0.3953 0.4071 0.4189
750.000000 0.4207 0.4218 0.4193 0.4123 0.4053
755.000000 0.3984 0.3914 0.3844 0.3775 0.3705
760.000000 0.3666 0.3661 0.3745 0.3807 0.3870
765.000000 0.3932 0.3995 0.4057 0.4120 0.4182
770.000000 0.4245 0.4308 0.4310 0.4299 0.4283
775.000000 0.4265 0.4246 0.4225 0.4205 0.4196
780.000000 0.4188 0.4179 0.4178 0.4211 0.4316
785.000000 0.4422 0.4528 0.4633 0.4732 0.4804
790.000000 0.4876 0.4949 0.5023 0.5111 0.5217
795.000000 0.5371 0.5629 0.5772 0.6045 0.6294
800.000000 0.6467 0.6625 0.6687 0.6750 0.6813
805.000000 0.6872 0.6928 0.6983 0.7017 0.7051
810.000000 0.7085 0.7116 0.7148 0.7179 0.7196
815.000000 0.7206 0.7216 0.7226 0.7236 0.7247
820.000000 0.7247 0.7283 0.7248 0.7245 0.7238
825.000000 0.7231 0.7224 0.7216 0.7202 0.7188
830.000000 0.7174 0.7160 0.7146 0.7131 0.7110
835.000000 0.7090 0.7069 0.7049 0.7028 0.6998
840.000000 0.6952 0.6906 0.6855 0.6775 0.6696
845.000000 0.6619 0.6541 0.6464 0.6387 0.6310
850.000000 0.6232 0.6155 0.6078 0.6001 0.5924
855.000000 0.5846 0.5769 0.5692 0.5615 0.5537
860.000000 0.5460 0.5361 0.5344 0.5340 0.5348
865.000000 0.5368 0.5405 0.5433 0.5446 0.5451
870.000000 0.5448 0.5437 0.5297 0.5158 0.5018
875.000000 0.4879 0.4740 0.4600 0.4461 0.4321
880.000000 0.4182 0.4043 0.3979 0.3925 0.3874
885.000000 0.3836 0.3808 0.3780 0.3752 0.3724
890.000000 0.3696 0.3668 0.3624 0.3586 0.3581
895.000000 0.3576 0.3575 0.3588 0.3590 0.3792
900.000000 0.4124 0.4456 0.4789 0.5121 0.5375
905.000000 0.5458 0.5539 0.5620 0.5831 0.5915
910.000000 0.5987 0.6041 0.6068 0.6096 0.6123
915.000000 0.6143 0.6149 0.6155 0.6158 0.6159
920.000000 0.6140 0.6160 0.6152 0.6137 0.6115
925.000000 0.6067 0.6027 0.5962 0.5904 0.5850
930.000000 0.5792 0.5733 0.5673 0.5608 0.5536
935.000000 0.5464 0.5390 0.5310 0.5230 0.5147
940.000000 0.5052 0.4958 0.4790 0.4526 0.3989
945.000000 0.3670 0.3351 0.3032 0.2713 0.2394
950.000000 0.2304 0.2243 0.0950 0.0784 0.0543
955.000000 0.0393 0.0340 0.0286 0.0233 0.0178
960.000000 0.0122 0.0073 0.0023 0.0000 0.0000
965.000000 0.0000 0.0000 0.0000 0.0001 0.0000
970.000000 0.0000 0.0000 0.0000 0.0000 0.0000
975.000000 0.0000 0.0000 0.0000 0.0066 0.0249
980.000000 0.0432 0.0615 0.0798 0.0981 0.1164
985.000000 0.1347 0.1530 0.1713 0.1896 0.2079
990.000000 0.2262 0.2445 0.2628 0.2811 0.2994
995.000000 0.3177 0.3360 0.3543 0.3726 0.3909
1000.000000 0.4092 0.4251 0.4318 0.4341 0.4352
1005.000000 0.4362 0.4373 0.4383 0.4393 0.4403
1010.000000 0.4425 0.4454 0.4483 0.4532 0.4609
1015.000000 0.4695 0.4787 0.4884 0.4984 0.5062
1020.000000 0.5109 0.5157 0.5204 0.5239 0.5273
1025.000000 0.5307 0.5341 0.5379 0.5417 0.5454
1030.000000 0.5483 0.5488 0.5498 0.5496 0.5492
1035.000000 0.5424 0.5236 0.5049 0.4861 0.4673
1040.000000 0.4485 0.4298 0.4110 0.3922 0.3735
1045.000000 0.3547 0.3359 0.3172 0.2984 0.2796
1050.000000 0.2609 0.2421 0.2233 0.2046 0.1858
1055.000000 0.1670 0.1547 0.1456 0.1287 0.1168
1060.000000 0.1144 0.1130 0.1166 0.1342 0.1545
1065.000000 0.1747 0.1950 0.2153 0.2356 0.2558
1070.000000 0.2761 0.2964 0.3167 0.3369 0.3572
1075.000000 0.3775 0.3978 0.4180 0.4339 0.4563
1080.000000 0.4596 0.4608 0.4613 0.4616 0.4603
1085.000000 0.4497 0.4347 0.4198 0.4049 0.3900
1090.000000 0.3750 0.3601 0.3452 0.3303 0.3153
1095.000000 0.3004 0.2855 0.2706 0.2637 0.2661
1100.000000 0.2635 0.2671 0.2959 0.3247 0.3535
1105.000000 0.3823 0.4111 0.4399 0.4687 0.4975
1110.000000 0.5263 0.5532 0.5633 0.5695 0.5750
1115.000000 0.5805 0.5860 0.5917 0.5974 0.6031
1120.000000 0.6084 0.6134 0.6185 0.6206 0.6218
1125.000000 0.6230 0.6240 0.6246 0.6253 0.6256
1130.000000 0.6277 0.6257 0.6251 0.6244 0.6236
1135.000000 0.6227 0.6209 0.6191 0.6158 0.6114
1140.000000 0.6068 0.6022 0.5931 0.5818 0.5799
1145.000000 0.5796 0.5788 0.5791 0.5796 0.5829
1150.000000 0.5881 0.5934 0.5994 0.6049 0.6097
1155.000000 0.6144 0.6199 0.6256 0.6294 0.6332
1160.000000 0.6363 0.6380 0.6397 0.6414 0.6431
1165.000000 0.6447 0.6457 0.6467 0.6477 0.6486
1170.000000 0.6496 0.6506 0.6511 0.6514 0.6518
1175.000000 0.6536 0.6518 0.6514 0.6510 0.6506
1180.000000 0.6502 0.6496 0.6487 0.6479 0.6471
1185.000000 0.6463 0.6453 0.6440 0.6428 0.6415
1190.000000 0.6402 0.6389 0.6376 0.6357 0.6338
1195.000000 0.6319 0.6301 0.6209 0.6111 0.6012
1200.000000 0.5914 0.5816 0.5717 0.5619 0.5520
1205.000000 0.5422 0.5345 0.5255 0.5241 0.5239
1210.000000 0.5250 0.5333 0.5426 0.5519 0.5612
1215.000000 0.5672 0.5698 0.5733 0.5766 0.5782
1220.000000 0.5797 0.5800 0.5819 0.5799 0.5796
1225.000000 0.5783 0.5762 0.5702 0.5646 0.5579
1230.000000 0.5546 0.5545 0.5557 0.5592 0.5636
1235.000000 0.5671 0.5701 0.5716 0.5725 0.5729
1240.000000 0.5731 0.5731 0.5719 0.5704 0.5678
1245.000000 0.5641 0.5601 0.5549 0.5481 0.5421
1250.000000 0.5326 0.5141 0.4957 0.4772 0.4587
1255.000000 0.4403 0.4218 0.4033 0.3848 0.3664
1260.000000 0.3479 0.3294 0.3109 0.2925 0.2829
1265.000000 0.2817 0.2862 0.3034 0.3207 0.3379
1270.000000 0.3551 0.3724 0.3896 0.4069 0.4241
1275.000000 0.4414 0.4586 0.4636 0.4642 0.4627
1280.000000 0.4621 0.4575 0.4432 0.4295 0.4291
1285.000000 0.4286 0.4274 0.4259 0.4244 0.4216
1290.000000 0.4185 0.4125 0.4070 0.4022 0.4006
1295.000000 0.3999 0.3996 0.3994 0.3992 0.3959
1300.000000 0.3900 0.3822 0.3804 0.3805 0.3809
1305.000000 0.3805 0.3866 0.3911 0.3955 0.3995
1310.000000 0.4036 0.4077 0.4119 0.4159 0.4188
1315.000000 0.4217 0.4246 0.4274 0.4296 0.4306
1320.000000 0.4305 0.4310 0.4300 0.4292 0.4281
1325.000000 0.4247 0.4199 0.4130 0.4070 0.4013
1330.000000 0.3829 0.3527 0.3224 0.2922 0.2619
1335.000000 0.2317 0.2014 0.1712 0.1442 0.1417
1340.000000 0.1662 0.1919 0.2176 0.2433 0.2690
1345.000000 0.2947 0.2989 0.3020 0.3050 0.3081
1350.000000 0.3112 0.3187 0.3282 0.3390 0.3504
1355.000000 0.3578 0.3633 0.3675 0.3702 0.3713
1360.000000 0.3712 0.3732 0.3612 0.3518 0.3424
1365.000000 0.3330 0.3236 0.3142 0.3048 0.2954
1370.000000 0.2543 0.2105 0.1667 0.1229 0.0791
1375.000000 0.0353 0.0140 0.0127 0.0216 0.0491
1380.000000 0.0765 0.1040 0.1314 0.1589 0.1863
1385.000000 0.2137 0.2412 0.2686 0.2961 0.3235
1390.000000 0.3398 0.3476 0.3560 0.3637 0.3698
1395.000000 0.3760 0.3826 0.3882 0.3914 0.3945
1400.000000 0.3966 0.3971 0.4019 0.3972 0.3961
1405.000000 0.3942 0.3921 0.3869 0.3815 0.3761
1410.000000 0.3707 0.3653 0.3599 0.3545 0.3491
1415.000000 0.3437 0.3383 0.3343 0.3280 0.3122
1420.000000 0.2964 0.2806 0.2648 0.2491 0.2333
1425.000000 0.2175 0.2017 0.1859 0.0488 0.0426
1430.000000 0.0381 0.0337 0.0307 0.0279 0.0236
1435.000000 0.0131 0.0113 0.0112 0.0108 0.0117
1440.000000 0.0143 0.0178 0.0193 0.0193 0.0199
1445.000000 0.0189 0.0184 0.0177 0.0169 0.0157
1450.000000 0.0141 0.0105 0.0037 0.0000 0.0000
1455.000000 0.0000 0.0000 0.0000 0.0000 0.0000
1460.000000 0.0001 0.0000 0.0000 0.0000 0.0000
1465.000000 0.0000 0.0000 0.0000 0.0045 0.0228
1470.000000 0.0411 0.0595 0.0778 0.0961 0.1144
1475.000000 0.1328 0.1511 0.1694 0.1877 0.2060
1480.000000 0.2244 0.2427 0.2610 0.2793 0.2977
1485.000000 0.3160 0.3356 0.3399 0.3514 0.3694
1490.000000 0.3875 0.4056 0.4097 0.4118 0.4138
1495.000000 0.4158 0.4200 0.4257 0.4413 0.4544
1500.000000 0.4643 0.4694 0.4745 0.4791 0.4821
1505.000000 0.4851 0.4881 0.4926 0.4976 0.5039
1510.000000 0.5151 0.5187 0.5222 0.5257 0.5292
1515.000000 0.5316 0.5340 0.5365 0.5389 0.5414
1520.000000 0.5438 0.5463 0.5487 0.5512 0.5536
1525.000000 0.5561 0.5585 0.5610 0.5633 0.5657
1530.000000 0.5681 0.5705 0.5729 0.5752 0.5770
1535.000000 0.5788 0.5806 0.5824 0.5843 0.5861
1540.000000 0.5876 0.5887 0.5901 0.5915 0.5930
1545.000000 0.5944 0.5958 0.5973 0.5987 0.6003
1550.000000 0.6019 0.6035 0.6051 0.6067 0.6083
1555.000000 0.6099 0.6113 0.6120 0.6127 0.6134
1560.000000 0.6141 0.6148 0.6155 0.6163 0.6170
1565.000000 0.6177 0.6184 0.6191 0.6198 0.6204
1570.000000 0.6211 0.6218 0.6225 0.6232 0.6239
1575.000000 0.6246 0.6253 0.6260 0.6267 0.6274
1580.000000 0.6282 0.6289 0.6296 0.6304 0.6311
1585.000000 0.6318 0.6325 0.6332 0.6339 0.6346
1590.000000 0.6353 0.6360 0.6367 0.6374 0.6381
1595.000000 0.6388 0.6396 0.6403 0.6410 0.6416
1600.000000 0.6420 0.6424 0.6429 0.6433 0.6437
1605.000000 0.6441 0.6445 0.6450 0.6454 0.6458
1610.000000 0.6462 0.6466 0.6470 0.6474 0.6478
1615.000000 0.6482 0.6486 0.6490 0.6494 0.6498
1620.000000 0.6502 0.6505 0.6505 0.6506 0.6506
1625.000000 0.6506 0.6507 0.6507 0.6507 0.6507
1630.000000 0.6507 0.6506 0.6535 0.6506 0.6503
1635.000000 0.6499 0.6496 0.6493 0.6490 0.6488
1640.000000 0.6486 0.6489 0.6493 0.6498 0.6503
1645.000000 0.6508 0.6506 0.6505 0.6504 0.6497
1650.000000 0.6488 0.6478 0.6468 0.6455 0.6441
1655.000000 0.6424 0.6403 0.6383 0.6362 0.6336
1660.000000 0.6299 0.6262 0.6225 0.6181 0.6137
1665.000000 0.6092 0.6009 0.5951 0.5914 0.5912
1670.000000 0.5936 0.5922 0.5937 0.5957 0.5995
1675.000000 0.6034 0.6063 0.6093 0.6129 0.6160
1680.000000 0.6176 0.6189 0.6192 0.6194 0.6191
1685.000000 0.6189 0.6188 0.6193 0.6198 0.6203
1690.000000 0.6210 0.6218 0.6225 0.6232 0.6232
1695.000000 0.6229 0.6227 0.6247 0.6218 0.6214
1700.000000 0.6209 0.6203 0.6198 0.6192 0.6187
1705.000000 0.6186 0.6187 0.6189 0.6191 0.6192
1710.000000 0.6197 0.6203 0.6208 0.6213 0.6198
1715.000000 0.6168 0.6130 0.6101 0.6072 0.6045
1720.000000 0.6036 0.6026 0.6017 0.6019 0.6025
1725.000000 0.6031 0.6042 0.6053 0.6056 0.6052
1730.000000 0.6038 0.6010 0.5956 0.5919 0.5882
1735.000000 0.5854 0.5826 0.5797 0.5785 0.5774
1740.000000 0.5763 0.5752 0.5744 0.5744 0.5743
1745.000000 0.5743 0.5740 0.5756 0.5772 0.5791
1750.000000 0.5811 0.5844 0.5878 0.5920 0.5963
1755.000000 0.6006 0.6041 0.6069 0.6096 0.6124
1760.000000 0.6152 0.6180 0.6212 0.6244 0.6276
1765.000000 0.6308 0.6334 0.6357 0.6379 0.6402
1770.000000 0.6422 0.6439 0.6455 0.6470 0.6486
1775.000000 0.6501 0.6516 0.6532 0.6548 0.6563
1780.000000 0.6577 0.6592 0.6607 0.6618 0.6626
1785.000000 0.6635 0.6643 0.6651 0.6656 0.6657
1790.000000 0.6658 0.6659 0.6662 0.6665 0.6672
1795.000000 0.6683 0.6695 0.6736 0.6718 0.6716
1800.000000 0.6711 0.6705 0.6699 0.6693 0.6686
1805.000000 0.6679 0.6672 0.6665 0.6658 0.6651
1810.000000 0.6644 0.6637 0.6629 0.6621 0.6614
1815.000000 0.6606 0.6598 0.6591 0.6581 0.6570
1820.000000 0.6558 0.6547 0.6535 0.6523 0.6512
1825.000000 0.6500 0.6489 0.6477 0.6465 0.6452
1830.000000 0.6438 0.6425 0.6412 0.6399 0.6386
1835.000000 0.6372 0.6359 0.6349 0.6338 0.6327
1840.000000 0.6317 0.6306 0.6297 0.6292 0.6287
1845.000000 0.6282 0.6277 0.6272 0.6267 0.6264
1850.000000 0.6264 0.6263 0.6262 0.6261 0.6260
1855.000000 0.6259 0.6269 0.6247 0.6295 0.6320
1860.000000 0.6344 0.6370 0.6398 0.6426 0.6454
1865.000000 0.6480 0.6506 0.6533 0.6559 0.6586
1870.000000 0.6612 0.6639 0.6667 0.6696 0.6725
1875.000000 0.6754 0.6780 0.6800 0.6821 0.6827
1880.000000 0.6824 0.6823 0.6825 0.6826 0.6827
1885.000000 0.6838 0.6849 0.6858 0.6866 0.6873
1890.000000 0.6877 0.6877 0.6877 0.6878 0.6878
1895.000000 0.6878 0.6879 0.6878 0.6876 0.6875
1900.000000 0.6874 0.6873 0.6872 0.6871 0.6872
1905.000000 0.6881 0.6889 0.6898 0.6907 0.6915
1910.000000 0.6925 0.6934 0.6944 0.6953 0.6963
1915.000000 0.6972 0.6976 0.6980 0.6984 0.6988
1920.000000 0.6991 0.6991 0.6990 0.6990 0.6990
1925.000000 0.6989 0.6988 0.6987 0.6986 0.6985
1930.000000 0.6984 0.6983 0.6982 0.6981 0.6980
1935.000000 0.6978 0.6974 0.6970 0.6966 0.6963
1940.000000 0.6959 0.6955 0.6948 0.6942 0.6935
1945.000000 0.6928 0.6924 0.6925 0.6927 0.6928
1950.000000 0.6930 0.6935 0.6939 0.6943 0.6947
1955.000000 0.6951 0.6955 0.6959 0.6964 0.6967
1960.000000 0.6968 0.6968 0.6968 0.6969 0.6969
1965.000000 0.6969 0.6970 0.6969 0.6968 0.6967
1970.000000 0.6966 0.6964 0.6963 0.6964 0.6964
1975.000000 0.6964 0.6965 0.6965 0.6967 0.6970
1980.000000 0.6972 0.6975 0.6977 0.6980 0.6982
1985.000000 0.6985 0.6988 0.6990 0.6994 0.6997
1990.000000 0.7001 0.7004 0.7008 0.7011 0.7015
1995.000000 0.7020 0.7027 0.7034 0.7040 0.7047
2000.000000 0.7057 0.7102 0.7148 0.7166 0.7185
2005.000000 0.7196 0.7207 0.7206 0.7205 0.7204
2010.000000 0.7203 0.7200 0.7197 0.7193 0.7190
2015.000000 0.7184 0.7178 0.7171 0.7164 0.7149
2020.000000 0.7134 0.7118 0.7103 0.7093 0.7083
2025.000000 0.7076 0.7070 0.7064 0.7058 0.7053
2030.000000 0.7048 0.7049 0.7050 0.7051 0.7052
2035.000000 0.7053 0.7054 0.7057 0.7061 0.7065
2040.000000 0.7070 0.7074 0.7079 0.7080 0.7082
2045.000000 0.7080 0.7079 0.7073 0.7067 0.7057
2050.000000 0.7047 0.7040 0.7034 0.7029 0.7024
2055.000000 0.7021 0.7019 0.7018 0.7018 0.7021
2060.000000 0.7024 0.7027 0.7031 0.7038 0.7045
2065.000000 0.7052 0.7059 0.7066 0.7073 0.7080
2070.000000 0.7088 0.7095 0.7102 0.7109 0.7117
2075.000000 0.7124 0.7131 0.7137 0.7144 0.7150
2080.000000 0.7157 0.7159 0.7162 0.7164 0.7167
2085.000000 0.7169 0.7171 0.7173 0.7176 0.7179
2090.000000 0.7183 0.7183 0.7184 0.7184 0.7185
2095.000000 0.7185 0.7186 0.7185 0.7185 0.7184
2100.000000 0.7184 0.7183 0.7183 0.7182 0.7181
2105.000000 0.7180 0.7180 0.7179 0.7179 0.7178
2110.000000 0.7178 0.7177 0.7177 0.7176 0.7176
2115.000000 0.7175 0.7175 0.7174 0.7174 0.7173
2120.000000 0.7173 0.7172 0.7172 0.7171 0.7171
2125.000000 0.7171 0.7171 0.7170 0.7170 0.7168
2130.000000 0.7167 0.7165 0.7163 0.7160 0.7158
2135.000000 0.7156 0.7154 0.7152 0.7150 0.7147
2140.000000 0.7145 0.7143 0.7141 0.7139 0.7137
2145.000000 0.7134 0.7132 0.7130 0.7128 0.7125
2150.000000 0.7123 0.7119 0.7116 0.7111 0.7107
2155.000000 0.7103 0.7099 0.7095 0.7091 0.7086
2160.000000 0.7082 0.7078 0.7074 0.7070 0.7066
2165.000000 0.7062 0.7058 0.7053 0.7049 0.7043
2170.000000 0.7037 0.7030 0.7023 0.7016 0.7009
2175.000000 0.7004 0.6999 0.7002 0.7005 0.7008
2180.000000 0.7011 0.7014 0.7017 0.7018 0.7020
2185.000000 0.7020 0.7020 0.7020 0.7021 0.7021
2190.000000 0.7021 0.7021 0.7022 0.7021 0.7021
2195.000000 0.7020 0.7020 0.7019 0.7019 0.7018
2200.000000 0.7018 0.7018 0.7018 0.7016 0.7015
2205.000000 0.7013 0.7012 0.7010 0.7009 0.7007
2210.000000 0.7006 0.7004 0.7003 0.7002 0.7001
2215.000000 0.6999 0.6998 0.6996 0.6995 0.6994
2220.000000 0.6993 0.6991 0.6990 0.6989 0.6988
2225.000000 0.6986 0.6985 0.6985 0.6985 0.6986
2230.000000 0.6987 0.6988 0.6990 0.6991 0.6993
2235.000000 0.6994 0.6995 0.6996 0.6998 0.6999
2240.000000 0.7000 0.7002 0.7004 0.7006 0.7008
2245.000000 0.7010 0.7012 0.7014 0.7017 0.7019
2250.000000 0.7021 0.7023 0.7025 0.7027 0.7030
2255.000000 0.7032 0.7034 0.7036 0.7038 0.7040
2260.000000 0.7043 0.7045 0.7047 0.7049 0.7052
2265.000000 0.7054 0.7057 0.7059 0.7062 0.7064
2270.000000 0.7066 0.7068 0.7071 0.7073 0.7076
2275.000000 0.7078 0.7081 0.7081 0.7082 0.7082
2280.000000 0.7082 0.7082 0.7083 0.7083 0.7083
2285.000000 0.7083 0.7083 0.7083 0.7083 0.7082
2290.000000 0.7081 0.7079 0.7078 0.7076 0.7075
2295.000000 0.7073 0.7072 0.7071 0.7070 0.7067
2300.000000 0.7064 0.7059 0.7055 0.7050 0.7045
2305.000000 0.7040 0.7036 0.7031 0.7027 0.7021
2310.000000 0.7016 0.7007 0.6999 0.6990 0.6982
2315.000000 0.6973 0.6965 0.6956 0.6948 0.6941
2320.000000 0.6934 0.6926 0.6919 0.6912 0.6905
2325.000000 0.6898 0.6891 0.6887 0.6884 0.6882
2330.000000 0.6880 0.6878 0.6876 0.6874 0.6872
2335.000000 0.6870 0.6868 0.6865 0.6863 0.6861
2340.000000 0.6859 0.6857 0.6855 0.6853 0.6851
2345.000000 0.6849 0.6847 0.6845 0.6843 0.6840
2350.000000 0.6838 0.6836 0.6834 0.6833 0.6832
2355.000000 0.6831 0.6831 0.6830 0.6830 0.6829
2360.000000 0.6829 0.6828 0.6828 0.6827 0.6827
2365.000000 0.6826 0.6825 0.6824 0.6824 0.6827
2370.000000 0.6830 0.6832 0.6835 0.6837 0.6840
2375.000000 0.6842 0.6845 0.6847 0.6850 0.6853
2380.000000 0.6856 0.6852 0.6849 0.6844 0.6840
2385.000000 0.6833 0.6826 0.6819 0.6812 0.6805
2390.000000 0.6799 0.6792 0.6785 0.6778 0.6772
2395.000000 0.6765 0.6759 0.6753 0.6747 0.6741
2400.000000 0.6735 0.6728 0.6733 0.6721 0.6720
2405.000000 0.6722 0.6725 0.6730 0.6735 0.6741
2410.000000 0.6747 0.6753 0.6759 0.6766 0.6773
2415.000000 0.6780 0.6787 0.6794 0.6801 0.6804
2420.000000 0.6808 0.6811 0.6815 0.6819 0.6823
2425.000000 0.6826 0.6830 0.6832 0.6834 0.6835
2430.000000 0.6837 0.6838 0.6840 0.6841 0.6842
2435.000000 0.6843 0.6845 0.6846 0.6848 0.6852
2440.000000 0.6857 0.6865 0.6873 0.6882 0.6891
2445.000000 0.6901 0.6912 0.6922 0.6933 0.6943
2450.000000 0.6954 0.6965 0.6977 0.6991 0.7005
2455.000000 0.7018 0.7032 0.7046 0.7060 0.7069
2460.000000 0.7079 0.7088 0.7098 0.7094 0.7091
2465.000000 0.7087 0.7111 0.7078 0.7074 0.7069
2470.000000 0.7064 0.7059 0.7054 0.7049 0.7044
2475.000000 0.7038 0.7032 0.7026 0.7020 0.7013
2480.000000 0.7007 0.7001 0.6995 0.6988 0.6982
2485.000000 0.6974 0.6967 0.6959 0.6952 0.6944
2490.000000 0.6936 0.6928 0.6921 0.6913 0.6905
2495.000000 0.6897 0.6890 0.6882 0.6874 0.6866
2500.000000 0.6859 0.6851 0.6844 0.6834 0.6824
2505.000000 0.6814 0.6805 0.6795 0.6786 0.6776
2510.000000 0.6767 0.6757 0.6748 0.6738 0.6729
2515.000000 0.6719 0.6710 0.6700 0.6691 0.6681
2520.000000 0.6672 0.6660 0.6648 0.6636 0.6625
2525.000000 0.6613 0.6601 0.6589 0.6578 0.6566
2530.000000 0.6554 0.6542 0.6530 0.6518 0.6507
2535.000000 0.6495 0.6484 0.6473 0.6462 0.6450
2540.000000 0.6439 0.6434 0.6430 0.6426 0.6423
2545.000000 0.6419 0.6416 0.6412 0.6408 0.6404
2550.000000 0.6401 0.6397 0.6393 0.6392 0.6391
2555.000000 0.6392 0.6393 0.6396 0.6399 0.6402
2560.000000 0.6406 0.6409 0.6413 0.6416 0.6419
2565.000000 0.6421 0.6423 0.6424 0.6426 0.6427
2570.000000 0.6429 0.6430 0.6431 0.6427 0.6424
2575.000000 0.6414 0.6404 0.6393 0.6383 0.6371
2580.000000 0.6359 0.6347 0.6336 0.6324 0.6312
2585.000000 0.6300 0.6288 0.6276 0.6264 0.6252
2590.000000 0.6241 0.6230 0.6219 0.6208 0.6197
2595.000000 0.6186 0.6175 0.6165 0.6156 0.6150
2600.000000 0.6144 0.6138 0.6132 0.6126 0.6120
2605.000000 0.6115 0.6110 0.6110 0.6110 0.6110
2610.000000 0.6110 0.6110 0.6110 0.6109 0.6109
2615.000000 0.6111 0.6113 0.6117 0.6122 0.6126
2620.000000 0.6130 0.6134 0.6139 0.6141 0.6143
2625.000000 0.6143 0.6144 0.6141 0.6139 0.6135
2630.000000 0.6131 0.6127 0.6124 0.6117 0.6111
2635.000000 0.6099 0.6088 0.6052 0.6016 0.5981
2640.000000 0.5947 0.5915 0.5883 0.5867 0.5851
2645.000000 0.5838 0.5826 0.5818 0.5810 0.5806
2650.000000 0.5803 0.5799 0.5795 0.5791 0.5787
2655.000000 0.5686 0.5585 0.5467 0.5349 0.5252
2660.000000 0.5155 0.5122 0.5090 0.5054 0.5018
2665.000000 0.5002 0.4986 0.4974 0.4962 0.4950
2670.000000 0.4938 0.4933 0.4928 0.4928 0.4928
2675.000000 0.4968 0.5009 0.5059 0.5109 0.5159
2680.000000 0.5209 0.5259 0.5309 0.5359 0.5409
2685.000000 0.5459 0.5532 0.5516 0.5524 0.5518
2690.000000 0.5512 0.5506 0.5500 0.5493 0.5487
2695.000000 0.5480 0.5473 0.5465 0.5458 0.5450
2700.000000 0.5442 0.5432 0.5422 0.5412 0.5402
2705.000000 0.5392 0.5383 0.5373 0.5363 0.5340
2710.000000 0.5317 0.5288 0.5260 0.5206 0.5152
2715.000000 0.5118 0.5085 0.5070 0.5056 0.5045
2720.000000 0.5035 0.5015 0.4995 0.4912 0.4830
2725.000000 0.4747 0.4665 0.4583 0.4501 0.4418
2730.000000 0.4336 0.4276 0.4216 0.4217 0.4219
2735.000000 0.4252 0.4208 0.4327 0.4368 0.4409
2740.000000 0.4451 0.4492 0.4533 0.4574 0.4615
2745.000000 0.4656 0.4698 0.4739 0.4780 0.4821
2750.000000 0.4862 0.4903 0.4945 0.4986 0.5027
2755.000000 0.5043 0.5073 0.5059 0.5059 0.5051
2760.000000 0.5044 0.4990 0.4936 0.4876 0.4817
2765.000000 0.4757 0.4698 0.4638 0.4579 0.4519
2770.000000 0.4460 0.4400 0.4341 0.4281 0.4222
2775.000000 0.4162 0.4103 0.4043 0.3983 0.3923
2780.000000 0.3864 0.3804 0.3745 0.3685 0.3626
2785.000000 0.3566 0.3507 0.3444 0.3381 0.3314
2790.000000 0.3248 0.3172 0.3097 0.3025 0.2953
2795.000000 0.2908 0.2864 0.2819 0.2775 0.2730
2800.000000 0.2686 0.2641 0.2597 0.2546 0.2495
2805.000000 0.2421 0.2347 0.2273 0.2199 0.2126
2810.000000 0.2054 0.1979 0.1905 0.1822 0.1740
2815.000000 0.1657 0.1575 0.1492 0.1410 0.1328
2820.000000 0.1246 0.1163 0.1081 0.0998 0.0916
2825.000000 0.0833 0.0751 0.0668 0.0586 0.0504
2830.000000 0.0422 0.0339 0.0257 0.0174 0.0092
2835.000000 0.0046 0.0000 0.0000 0.0000 0.0000
2840.000000 0.0000 0.0000 0.0000 0.0000 0.0000
2845.000000 0.0000 0.0000 0.0000 0.0000 0.0000
2850.000000 0.0000 0.0000 0.0000 0.0000 0.0000
2855.000000 0.0000 0.0000 0.0000 0.0000 0.0000
2860.000000 0.0000 0.0000 0.0000 0.0000 0.0000
2865.000000 0.0000 0.0000 0.0000 0.0000 0.0000
2870.000000 0.0000 0.0000 0.0000 0.0000 0.0000
2875.000000 0.0000 0.0000 0.0000 0.0000 0.0000
2880.000000 0.0000 0.0000 0.0000 0.0000 0.0000
2885.000000 0.0000 0.0000 0.0000 0.0000 0.0000
2890.000000 0.0000 0.0000 0.0000 0.0000 0.0000
2895.000000 0.0000 0.0000 0.0000 0.0000 0.0000
2900.000000 0.0000 0.0000 0.0000 0.0000 0.0000
2905.000000 0.0000 0.0000 0.0000 0.0000 0.0000
2910.000000 0.0000 0.0000 0.0000 0.0000 0.0000
2915.000000 0.0000 0.0000 0.0000 0.0000 0.0000
2920.000000 0.0000 0.0000 0.0000 0.0000 0.0000
2925.000000 0.0000 0.0000 0.0000 0.0000 0.0000
2930.000000 0.0000 0.0000 0.0000 0.0000 0.0000
2935.000000 0.0000 0.0000 0.0000 0.0000 0.0000
2940.000000 0.0000 0.0000 0.0000 0.0000 0.0000
2945.000000 0.0000 0.0000 0.0000 0.0000 0.0000
2950.000000 0.0000 0.0000 0.0000 0.0000 0.0000
2955.000000 0.0000 0.0000 0.0000 0.0001 0.0001
2960.000000 0.0001 0.0001 0.0001 0.0001 0.0001
2965.000000 0.0001 0.0001 0.0001 0.0001 0.0001
2970.000000 0.0001 0.0001 0.0001 0.0001 0.0001
2975.000000 0.0001 0.0001 0.0001 0.0001 0.0001
2980.000000 0.0001 0.0001 0.0001 0.0001 0.0001
2985.000000 0.0001 0.0001 0.0001 0.0001 0.0005
2990.000000 0.0009 0.0015 0.0022 0.0028 0.0035
2995.000000 0.0047 0.0060 0.0072 0.0085 0.0110
3000.000000 0.0135 0.0146 0.0158 0.0165 0.0173
3005.000000 0.0176 0.0179 0.0182 0.0185 0.0188
3010.000000 0.0191 0.0194 0.0198 0.0202 0.0207
3015.000000 0.0211 0.0216 0.0220 0.0225 0.0232
3020.000000 0.0240 0.0249 0.0258 0.0267 0.0277
3025.000000 0.0288 0.0300 0.0317 0.0334 0.0351
3030.000000 0.0368 0.0461 0.0555 0.0650 0.0745
3035.000000 0.0840 0.0935 0.1030 0.1125 0.1448
3040.000000 0.1772 0.2089 0.2407 0.2506 0.2605
3045.000000 0.2697 0.2790 0.2887 0.2985 0.3081
3050.000000 0.3177 0.3271 0.3365 0.3428 0.3492
3055.000000 0.3549 0.3607 0.3664 0.3722 0.3782
3060.000000 0.3843 0.3904 0.3965 0.4022 0.4079
3065.000000 0.4124 0.4170 0.4216 0.4262 0.4307
3070.000000 0.4353 0.4379 0.4406 0.4432 0.4458
3075.000000 0.4484 0.4510 0.4536 0.4562 0.4588
3080.000000 0.4614 0.4645 0.4676 0.4710 0.4745
3085.000000 0.4779 0.4814 0.4848 0.4883 0.4907
3090.000000 0.4932 0.4948 0.4964 0.4980 0.4997
3095.000000 0.5013 0.5029 0.5045 0.5061 0.5077
3100.000000 0.5093 0.5109 0.5126 0.5142 0.5158
3105.000000 0.5172 0.5186 0.5199 0.5212 0.5224
3110.000000 0.5237 0.5250 0.5263 0.5275 0.5288
3115.000000 0.5301 0.5314 0.5325 0.5337 0.5347
3120.000000 0.5357 0.5366 0.5376 0.5386 0.5396
3125.000000 0.5406 0.5416 0.5434 0.5452 0.5465
3130.000000 0.5478 0.5490 0.5502 0.5513 0.5524
3135.000000 0.5528 0.5533 0.5536 0.5539 0.5542
3140.000000 0.5545 0.5547 0.5550 0.5551 0.5553
3145.000000 0.5555 0.5557 0.5558 0.5560 0.5561
3150.000000 0.5563 0.5564 0.5566 0.5566 0.5566
3155.000000 0.5566 0.5566 0.5565 0.5565 0.5565
3160.000000 0.5565 0.5565 0.5565 0.5565 0.5565
3165.000000 0.5564 0.5564 0.5564 0.5564 0.5564
3170.000000 0.5564 0.5563 0.5563 0.5562 0.5562
3175.000000 0.5562 0.5562 0.5561 0.5561 0.5561
3180.000000 0.5561 0.5560 0.5533 0.5559 0.5559
3185.000000 0.5559 0.5559 0.5559 0.5559 0.5559
3190.000000 0.5560 0.5560 0.5561 0.5563 0.5565
3195.000000 0.5581 0.5597 0.5613 0.5630 0.5658
3200.000000 0.5687 0.5721 0.5755 0.5787 0.5819
3205.000000 0.5840 0.5861 0.5879 0.5898 0.5916
3210.000000 0.5935 0.5953 0.5972 0.5986 0.6000
3215.000000 0.6011 0.6023 0.6034 0.6046 0.6057
3220.000000 0.6069 0.6080 0.6092 0.6103 0.6114
3225.000000 0.6124 0.6135 0.6144 0.6153 0.6161
3230.000000 0.6170 0.6179 0.6188 0.6196 0.6205
3235.000000 0.6214 0.6223 0.6231 0.6240 0.6243
3240.000000 0.6246 0.6249 0.6252 0.6255 0.6258
3245.000000 0.6261 0.6264 0.6266 0.6269 0.6272
3250.000000 0.6275 0.6278 0.6281 0.6282 0.6283
3255.000000 0.6284 0.6286 0.6287 0.6288 0.6289
3260.000000 0.6290 0.6292 0.6295 0.6299 0.6304
3265.000000 0.6309 0.6314 0.6321 0.6329 0.6338
3270.000000 0.6347 0.6356 0.6365 0.6374 0.6383
3275.000000 0.6389 0.6395 0.6401 0.6407 0.6412
3280.000000 0.6418 0.6423 0.6429 0.6432 0.6436
3285.000000 0.6437 0.6439 0.6440 0.6442 0.6444
3290.000000 0.6447 0.6450 0.6453 0.6456 0.6459
3295.000000 0.6462 0.6466 0.6468 0.6471 0.6474
3300.000000 0.6477 0.6480 0.6483 0.6486 0.6489
3305.000000 0.6492 0.6495 0.6498 0.6501 0.6503
3310.000000 0.6506 0.6509 0.6522 0.6515 0.6518
3315.000000 0.6521 0.6524 0.6527 0.6530 0.6532
3320.000000 0.6535 0.6537 0.6540 0.6542 0.6544
3325.000000 0.6546 0.6549 0.6551 0.6553 0.6555
3330.000000 0.6557 0.6559 0.6562 0.6564 0.6566
3335.000000 0.6568 0.6570 0.6571 0.6572 0.6573
3340.000000 0.6574 0.6574 0.6575 0.6576 0.6577
3345.000000 0.6577 0.6578 0.6579 0.6580 0.6580
3350.000000 0.6581 0.6582 0.6583 0.6582 0.6582
3355.000000 0.6582 0.6582 0.6581 0.6581 0.6580
3360.000000 0.6580 0.6579 0.6579 0.6578 0.6578
3365.000000 0.6577 0.6577 0.6575 0.6574 0.6572
3370.000000 0.6571 0.6569 0.6567 0.6565 0.6563
3375.000000 0.6561 0.6559 0.6557 0.6556 0.6554
3380.000000 0.6552 0.6550 0.6548 0.6546 0.6544
3385.000000 0.6542 0.6540 0.6538 0.6536 0.6534
3390.000000 0.6532 0.6529 0.6527 0.6525 0.6523
3395.000000 0.6520 0.6518 0.6516 0.6514 0.6511
3400.000000 0.6509 0.6507 0.6505 0.6502 0.6500
3405.000000 0.6497 0.6495 0.6493 0.6491 0.6488
3410.000000 0.6486 0.6485 0.6485 0.6485 0.6485
3415.000000 0.6485 0.6486 0.6486 0.6486 0.6486
3420.000000 0.6487 0.6487 0.6487 0.6487 0.6488
3425.000000 0.6489 0.6491 0.6492 0.6494 0.6495
3430.000000 0.6496 0.6497 0.6499 0.6500 0.6502
3435.000000 0.6503 0.6504 0.6505 0.6507 0.6509
3440.000000 0.6511 0.6512 0.6514 0.6515 0.6517
3445.000000 0.6518 0.6520 0.6522 0.6524 0.6525
3450.000000 0.6527 0.6528 0.6530 0.6531 0.6533
3455.000000 0.6535 0.6537 0.6537 0.6538 0.6538
3460.000000 0.6539 0.6539 0.6540 0.6540 0.6541
3465.000000 0.6541 0.6542 0.6542 0.6543 0.6541
3470.000000 0.6540 0.6537 0.6535 0.6533 0.6531
3475.000000 0.6529 0.6527 0.6524 0.6522 0.6520
3480.000000 0.6518 0.6518 0.6519 0.6519 0.6520
3485.000000 0.6520 0.6521 0.6521 0.6522 0.6522
3490.000000 0.6523 0.6524 0.6526 0.6529 0.6533
3495.000000 0.6536 0.6540 0.6543 0.6547 0.6550
3500.000000 0.6553 0.6555 0.6557 0.6559 0.6562
3505.000000 0.6564 0.6566 0.6568 0.6571 0.6568
3510.000000 0.6566 0.6564 0.6562 0.6559 0.6557
3515.000000 0.6555 0.6553 0.6550 0.6548 0.6546
3520.000000 0.6544 0.6542 0.6540 0.6539 0.6539
3525.000000 0.6538 0.6537 0.6536 0.6536 0.6535
3530.000000 0.6534 0.6533 0.6533 0.6532 0.6532
3535.000000 0.6531 0.6530 0.6530 0.6531 0.6533
3540.000000 0.6536 0.6538 0.6541 0.6544 0.6547
3545.000000 0.6549 0.6552 0.6555 0.6558 0.6560
3550.000000 0.6563 0.6565 0.6567 0.6569 0.6571
3555.000000 0.6573 0.6575 0.6577 0.6579 0.6581
3560.000000 0.6583 0.6585 0.6588 0.6588 0.6589
3565.000000 0.6587 0.6586 0.6585 0.6584 0.6582
3570.000000 0.6580 0.6578 0.6576 0.6573 0.6571
3575.000000 0.6569 0.6567 0.6564 0.6562 0.6560
3580.000000 0.6558 0.6555 0.6553 0.6551 0.6549
3585.000000 0.6546 0.6544 0.6542 0.6540 0.6537
3590.000000 0.6535 0.6533 0.6531 0.6528 0.6526
3595.000000 0.6524 0.6522 0.6520 0.6518 0.6516
3600.000000 0.6514 0.6512 0.6510 0.6508 0.6507
3605.000000 0.6505 0.6503 0.6501 0.6499 0.6497
3610.000000 0.6495 0.6493 0.6491 0.6489 0.6487
3615.000000 0.6485 0.6483 0.6481 0.6479 0.6477
3620.000000 0.6475 0.6472 0.6470 0.6467 0.6465
3625.000000 0.6462 0.6460 0.6457 0.6455 0.6452
3630.000000 0.6450 0.6448 0.6446 0.6443 0.6441
3635.000000 0.6438 0.6436 0.6433 0.6431 0.6428
3640.000000 0.6426 0.6424 0.6422 0.6419 0.6417
3645.000000 0.6414 0.6412 0.6409 0.6407 0.6405
3650.000000 0.6403 0.6401 0.6399 0.6397 0.6395
3655.000000 0.6393 0.6391 0.6389 0.6387 0.6385
3660.000000 0.6383 0.6381 0.6379 0.6377 0.6375
3665.000000 0.6373 0.6371 0.6369 0.6367 0.6365
3670.000000 0.6363 0.6361 0.6359 0.6357 0.6355
3675.000000 0.6352 0.6350 0.6348 0.6346 0.6344
3680.000000 0.6342 0.6340 0.6338 0.6336 0.6334
3685.000000 0.6332 0.6330 0.6328 0.6326 0.6324
3690.000000 0.6322 0.6319 0.6317 0.6315 0.6313
3695.000000 0.6312 0.6311 0.6312 0.6313 0.6314
3700.000000 0.6315 0.6316 0.6317 0.6318 0.6319
3705.000000 0.6320 0.6321 0.6322 0.6323 0.6323
3710.000000 0.6324 0.6324 0.6324 0.6322 0.6320
3715.000000 0.6318 0.6316 0.6314 0.6312 0.6310
3720.000000 0.6308 0.6306 0.6304 0.6302 0.6301
3725.000000 0.6300 0.6299 0.6297 0.6296 0.6294
3730.000000 0.6293 0.6293 0.6293 0.6297 0.6301
3735.000000 0.6305 0.6310 0.6314 0.6318 0.6322
3740.000000 0.6327 0.6319 0.6312 0.6302 0.6293
3745.000000 0.6283 0.6274 0.6264 0.6255 0.6245
3750.000000 0.6235 0.6225 0.6216 0.6208 0.6200
3755.000000 0.6192 0.6185 0.6177 0.6170 0.6162
3760.000000 0.6155 0.6154 0.6154 0.6154 0.6154
3765.000000 0.6153 0.6153 0.6154 0.6155 0.6156
3770.000000 0.6158 0.6159 0.6154 0.6161 0.6163
3775.000000 0.6164 0.6166 0.6167 0.6169 0.6170
3780.000000 0.6171 0.6172 0.6174 0.6175 0.6177
3785.000000 0.6178 0.6180 0.6181 0.6183 0.6185
3790.000000 0.6187 0.6188 0.6190 0.6191 0.6193
3795.000000 0.6195 0.6197 0.6198 0.6200 0.6201
3800.000000 0.6203 0.6205 0.6207 0.6208 0.6210
3805.000000 0.6212 0.6215 0.6217 0.6219 0.6221
3810.000000 0.6224 0.6226 0.6229 0.6231 0.6233
3815.000000 0.6235 0.6238 0.6240 0.6243 0.6245
3820.000000 0.6247 0.6249 0.6252 0.6254 0.6256
3825.000000 0.6257 0.6258 0.6259 0.6261 0.6262
3830.000000 0.6264 0.6265 0.6266 0.6267 0.6269
3835.000000 0.6270 0.6271 0.6272 0.6274 0.6275
3840.000000 0.6276 0.6277 0.6279 0.6278 0.6278
3845.000000 0.6277 0.6277 0.6276 0.6276 0.6275
3850.000000 0.6275 0.6274 0.6274 0.6274 0.6274
3855.000000 0.6273 0.6273 0.6272 0.6272 0.6271
3860.000000 0.6271 0.6269 0.6267 0.6265 0.6263
3865.000000 0.6261 0.6259 0.6257 0.6255 0.6253
3870.000000 0.6251 0.6249 0.6247 0.6245 0.6243
3875.000000 0.6241 0.6239 0.6237 0.6235 0.6232
3880.000000 0.6230 0.6226 0.6223 0.6219 0.6215
3885.000000 0.6211 0.6208 0.6204 0.6200 0.6196
3890.000000 0.6193 0.6189 0.6185 0.6181 0.6178
3895.000000 0.6174 0.6170 0.6166 0.6163 0.6158
3900.000000 0.6154 0.6148 0.6143 0.6137 0.6131
3905.000000 0.6125 0.6120 0.6114 0.6109 0.6103
3910.000000 0.6097 0.6091 0.6086 0.6080 0.6074
3915.000000 0.6068 0.6063 0.6057 0.6052 0.6046
3920.000000 0.6040 0.6034 0.6028 0.6022 0.6016
3925.000000 0.6009 0.6003 0.5997 0.5991 0.5984
3930.000000 0.5978 0.5972 0.5966 0.5959 0.5953
3935.000000 0.5947 0.5941 0.5934 0.5928 0.5922
3940.000000 0.5916 0.5909 0.5903 0.5897 0.5891
3945.000000 0.5884 0.5878 0.5872 0.5866 0.5859
3950.000000 0.5853 0.5846 0.5840 0.5834 0.5828
3955.000000 0.5821 0.5815 0.5808 0.5802 0.5796
3960.000000 0.5790 0.5784 0.5778 0.5772 0.5766
3965.000000 0.5760 0.5755 0.5749 0.5744 0.5738
3970.000000 0.5733 0.5727 0.5722 0.5716 0.5711
3975.000000 0.5709 0.5720 0.5705 0.5703 0.5701
3980.000000 0.5699 0.5697 0.5695 0.5693 0.5691
3985.000000 0.5690 0.5690 0.5690 0.5690 0.5690
3990.000000 0.5691 0.5691 0.5692 0.5692 0.5693
3995.000000 0.5693 0.5694 0.5694 0.5694 0.5694
4000.000000 0.5695
##END=
