##TITLE=8-Hydroxyquinoline
##JCAMP-DX=4.24
##DATA TYPE=INFRARED SPECTRUM
##CLASS=COBLENTZ II
##ORIGIN=DOW CORNING CORP.
##OWNER=Copyright (C) 1987 by the Coblentz Society
Collection (C) 2018 copyright by the U.S. Secretary of Commerce
on behalf of the United States of America. All rights reserved.
##DATE=1966/01/04
##NAMES=8-quinolinol
##CAS REGISTRY NO=148-24-3
##MOLFORM=C9 H7 N O
##MP=73 C
##SOURCE REFERENCE=COBLENTZ NO. 5568
##$NIST SOURCE=COBLENTZ
##$NIST IMAGE=cob5568
##SPECTROMETER/DATA SYSTEM=PERKIN-ELMER 521 (GRATING)
##INSTRUMENT PARAMETERS=FILTERS AT 3150, 2500, 2000, 1150, 700, 410. GRATING CHANGES: 2000, 630
##STATE=SOLID (SPLIT MULL)
##PATH LENGTH=
$$ SPECTRAL FEATURE AT 617 CM^-^1 IS AN ARTIFACT CAUSED BY A CHANGE IN RECORDING PARAMETER
##RESOLUTION=2
##XUNITS=1/CM
##YUNITS=TRANSMITTANCE
##XFACTOR=1.0
##YFACTOR=1
##FIRSTX=242
##LASTX=3810
##FIRSTY=0.7589
##MAXX=3810
##MINX=242
##MAXY=0.9879
##MINY=0
##NPOINTS=3569
##XYDATA=(X++(Y..Y))
242.000000 0.7589 0.7602 0.7595 0.7625 0.7636
247.000000 0.7648 0.7659 0.7670 0.7682 0.7694
252.000000 0.7704 0.7710 0.7716 0.7722 0.7728
257.000000 0.7734 0.7740 0.7749 0.7758 0.7766
262.000000 0.7775 0.7784 0.7800 0.7820 0.7839
267.000000 0.7859 0.7878 0.7912 0.7954 0.7996
272.000000 0.8038 0.8067 0.8096 0.8125 0.8153
277.000000 0.8178 0.8198 0.8218 0.8238 0.8258
282.000000 0.8284 0.8332 0.8381 0.8430 0.8478
287.000000 0.8530 0.8584 0.8638 0.8692 0.8716
292.000000 0.8732 0.8748 0.8764 0.8781 0.8797
297.000000 0.8816 0.8836 0.8855 0.8874 0.8895
302.000000 0.8920 0.8945 0.8969 0.8994 0.9019
307.000000 0.9044 0.9069 0.9100 0.9139 0.9178
312.000000 0.9217 0.9256 0.9295 0.9334 0.9369
317.000000 0.9398 0.9427 0.9456 0.9485 0.9493
322.000000 0.9498 0.9504 0.9509 0.9511 0.9510
327.000000 0.9509 0.9507 0.9506 0.9504 0.9503
332.000000 0.9505 0.9508 0.9512 0.9515 0.9518
337.000000 0.9521 0.9524 0.9535 0.9546 0.9557
342.000000 0.9568 0.9579 0.9590 0.9597 0.9601
347.000000 0.9605 0.9610 0.9614 0.9618 0.9623
352.000000 0.9626 0.9629 0.9632 0.9661 0.9638
357.000000 0.9641 0.9644 0.9647 0.9648 0.9649
362.000000 0.9649 0.9650 0.9650 0.9651 0.9651
367.000000 0.9652 0.9652 0.9653 0.9653 0.9654
372.000000 0.9655 0.9655 0.9656 0.9656 0.9657
377.000000 0.9657 0.9658 0.9659 0.9659 0.9660
382.000000 0.9661 0.9661 0.9662 0.9663 0.9664
387.000000 0.9664 0.9660 0.9656 0.9652 0.9648
392.000000 0.9631 0.9609 0.9586 0.9559 0.9517
397.000000 0.9475 0.9433 0.9383 0.9332 0.9244
402.000000 0.9157 0.9125 0.9093 0.9061 0.9042
407.000000 0.9031 0.9019 0.9008 0.8973 0.8668
412.000000 0.8364 0.8060 0.7756 0.7730 0.7738
417.000000 0.8033 0.7731 0.8843 0.9249 0.9654
422.000000 0.9827 0.9858 0.9872 0.9879 0.9876
427.000000 0.9878 0.9877 0.9872 0.9867 0.9858
432.000000 0.9849 0.9840 0.9830 0.9819 0.9808
437.000000 0.9798 0.9781 0.9764 0.9746 0.9721
442.000000 0.9690 0.9650 0.9611 0.9571 0.9508
447.000000 0.9438 0.9350 0.9261 0.9134 0.8895
452.000000 0.8608 0.8259 0.7911 0.7563 0.6977
457.000000 0.6287 0.5598 0.4908 0.4219 0.3941
462.000000 0.3938 0.4251 0.4945 0.5638 0.6332
467.000000 0.7026 0.7720 0.8414 0.8985 0.9294
472.000000 0.9345 0.9384 0.9396 0.9403 0.9418
477.000000 0.9395 0.9388 0.9363 0.9333 0.9297
482.000000 0.9260 0.9199 0.9138 0.9077 0.9016
487.000000 0.8955 0.8948 0.8989 0.9166 0.9201
492.000000 0.9192 0.9181 0.9209 0.9140 0.9123
497.000000 0.9106 0.9089 0.9069 0.9049 0.9029
502.000000 0.9010 0.8991 0.8971 0.8952 0.8927
507.000000 0.8899 0.8871 0.8841 0.8804 0.8753
512.000000 0.8684 0.8619 0.8557 0.8496 0.8435
517.000000 0.8369 0.8283 0.8196 0.8106 0.8003
522.000000 0.7899 0.7795 0.7692 0.7588 0.7484
527.000000 0.7394 0.7322 0.7249 0.7177 0.7086
532.000000 0.6993 0.6850 0.6621 0.6488 0.6268
537.000000 0.5949 0.5630 0.5311 0.4995 0.4992
542.000000 0.5008 0.5003 0.5775 0.6063 0.6062
547.000000 0.6055 0.6082 0.5969 0.5883 0.5796
552.000000 0.5711 0.5625 0.5538 0.5439 0.5341
557.000000 0.5243 0.5067 0.4843 0.4602 0.4469
562.000000 0.4354 0.4238 0.4012 0.3748 0.3497
567.000000 0.3223 0.2963 0.2726 0.2490 0.2253
572.000000 0.2074 0.2072 0.2072 0.2651 0.3213
577.000000 0.3400 0.3399 0.3418 0.3257 0.3175
582.000000 0.3136 0.3141 0.3122 0.3182 0.3214
587.000000 0.3282 0.3461 0.3676 0.3890 0.4104
592.000000 0.4318 0.4532 0.4747 0.4961 0.5175
597.000000 0.5389 0.5603 0.5818 0.6032 0.6438
602.000000 0.6901 0.7232 0.7446 0.7570 0.7688
607.000000 0.7815 0.7987 0.8152 0.8284 0.8358
612.000000 0.8432 0.8538 0.8635 0.8623 0.8305
617.000000 0.7996 0.7981 0.8034 0.8134 0.8234
622.000000 0.8276 0.8305 0.8315 0.8345 0.8325
627.000000 0.8323 0.8316 0.8302 0.8250 0.8187
632.000000 0.8097 0.7964 0.7344 0.6521 0.5698
637.000000 0.4875 0.4051 0.3228 0.2694 0.2674
642.000000 0.6030 0.7053 0.7138 0.7220 0.7295
647.000000 0.7357 0.7413 0.7453 0.7490 0.7518
652.000000 0.7545 0.7571 0.7579 0.7587 0.7597
657.000000 0.7632 0.7703 0.7786 0.7812 0.7828
662.000000 0.7838 0.7842 0.7846 0.7851 0.7856
667.000000 0.7861 0.7866 0.7870 0.7874 0.7878
672.000000 0.7882 0.7880 0.7897 0.7876 0.7874
677.000000 0.7872 0.7869 0.7867 0.7864 0.7861
682.000000 0.7859 0.7854 0.7849 0.7845 0.7840
687.000000 0.7839 0.7842 0.7845 0.7848 0.7851
692.000000 0.7854 0.7855 0.7855 0.7846 0.7835
697.000000 0.7816 0.7773 0.7696 0.7554 0.7384
702.000000 0.6994 0.6724 0.6373 0.6160 0.5776
707.000000 0.4680 0.3583 0.2487 0.1390 0.0294
712.000000 0.0220 0.0223 0.2837 0.4863 0.6889
717.000000 0.7274 0.7540 0.7849 0.8054 0.8083
722.000000 0.8096 0.8101 0.8087 0.8078 0.8053
727.000000 0.8024 0.7984 0.7943 0.7896 0.7839
732.000000 0.7783 0.7720 0.7653 0.7572 0.7474
737.000000 0.7376 0.7027 0.6861 0.6657 0.5947
742.000000 0.5297 0.4646 0.3996 0.3345 0.2694
747.000000 0.2044 0.1393 0.0743 0.0372 0.0315
752.000000 0.0364 0.1386 0.2507 0.3627 0.4748
757.000000 0.5868 0.6780 0.7681 0.7879 0.7981
762.000000 0.8057 0.8103 0.8127 0.8123 0.8127
767.000000 0.8110 0.8101 0.8055 0.7916 0.7672
772.000000 0.7338 0.7004 0.6669 0.6335 0.6000
777.000000 0.5666 0.5332 0.4997 0.4663 0.4181
782.000000 0.3524 0.2867 0.2211 0.1554 0.0897
787.000000 0.0240 0.0015 0.0015 0.0003 0.0858
792.000000 0.1635 0.2411 0.3188 0.3965 0.4741
797.000000 0.5518 0.6294 0.6974 0.7010 0.7016
802.000000 0.6992 0.6574 0.6085 0.5596 0.5107
807.000000 0.4986 0.4984 0.6057 0.6769 0.6763
812.000000 0.6743 0.6007 0.5270 0.4534 0.3797
817.000000 0.3061 0.2324 0.1588 0.0851 0.0115
822.000000 0.0018 0.0014 0.0913 0.1875 0.2838
827.000000 0.3800 0.4763 0.5726 0.7229 0.7900
832.000000 0.8070 0.8243 0.8336 0.8392 0.8429
837.000000 0.8466 0.8494 0.8519 0.8544 0.8570
842.000000 0.8592 0.8613 0.8634 0.8655 0.8665
847.000000 0.8676 0.8680 0.8719 0.8686 0.8688
852.000000 0.8691 0.8694 0.8692 0.8691 0.8690
857.000000 0.8688 0.8686 0.8684 0.8682 0.8679
862.000000 0.8677 0.8671 0.8603 0.8534 0.8502
867.000000 0.8474 0.8394 0.8276 0.8157 0.8039
872.000000 0.7939 0.7929 0.7929 0.8072 0.8250
877.000000 0.8428 0.8533 0.8538 0.8548 0.8533
882.000000 0.8523 0.8432 0.7918 0.7405 0.6935
887.000000 0.6942 0.6939 0.7081 0.7465 0.7850
892.000000 0.8002 0.8036 0.8246 0.8618 0.8924
897.000000 0.9024 0.9073 0.9120 0.9139 0.9138
902.000000 0.9142 0.9146 0.9146 0.9144 0.9142
907.000000 0.9140 0.9137 0.9133 0.9130 0.9127
912.000000 0.9124 0.9117 0.9109 0.9103 0.9097
917.000000 0.9091 0.9085 0.9079 0.9072 0.9065
922.000000 0.9056 0.9047 0.9038 0.9037 0.9037
927.000000 0.9036 0.9036 0.9035 0.9031 0.9027
932.000000 0.9017 0.8999 0.8979 0.8945 0.8911
937.000000 0.8878 0.8845 0.8813 0.8784 0.8763
942.000000 0.8758 0.8752 0.8746 0.8741 0.8735
947.000000 0.8732 0.8730 0.8728 0.8706 0.8683
952.000000 0.8633 0.8537 0.8276 0.8042 0.8061
957.000000 0.8177 0.8356 0.8536 0.8695 0.8742
962.000000 0.8779 0.8809 0.8813 0.8796 0.8790
967.000000 0.8780 0.8752 0.8427 0.8104 0.7885
972.000000 0.7918 0.7901 0.8229 0.8385 0.8541
977.000000 0.8670 0.8727 0.8787 0.8865 0.8903
982.000000 0.8939 0.8959 0.8976 0.8989 0.8995
987.000000 0.8999 0.9003 0.9006 0.9013 0.9012
992.000000 0.9014 0.9010 0.9005 0.8999 0.8994
997.000000 0.8988 0.8983 0.8976 0.8968 0.8960
1002.000000 0.8952 0.8944 0.8936 0.8926 0.8917
1007.000000 0.8908 0.8898 0.8880 0.8861 0.8842
1012.000000 0.8824 0.8805 0.8786 0.8766 0.8747
1017.000000 0.8723 0.8692 0.8662 0.8631 0.8601
1022.000000 0.8570 0.8532 0.8487 0.8443 0.8404
1027.000000 0.8377 0.8350 0.8320 0.8257 0.8194
1032.000000 0.8100 0.8004 0.7887 0.7756 0.7628
1037.000000 0.7506 0.7405 0.7362 0.7368 0.7375
1042.000000 0.7390 0.7386 0.7371 0.7346 0.6996
1047.000000 0.6697 0.6398 0.6099 0.5977 0.5988
1052.000000 0.6013 0.6319 0.6676 0.7032 0.7389
1057.000000 0.7745 0.7855 0.7911 0.7937 0.7953
1062.000000 0.7960 0.7941 0.7955 0.7946 0.7938
1067.000000 0.7927 0.7912 0.7893 0.7874 0.7854
1072.000000 0.7812 0.7771 0.7731 0.7671 0.7611
1077.000000 0.7541 0.7464 0.7386 0.7263 0.7109
1082.000000 0.6838 0.5179 0.4995 0.4429 0.3996
1087.000000 0.3562 0.3129 0.2696 0.2263 0.1829
1092.000000 0.1661 0.1662 0.1689 0.2133 0.2625
1097.000000 0.3118 0.3610 0.4102 0.4328 0.4451
1102.000000 0.4626 0.4744 0.4840 0.4935 0.5050
1107.000000 0.5167 0.5294 0.5383 0.5463 0.5493
1112.000000 0.5514 0.5535 0.5548 0.5560 0.5589
1117.000000 0.5624 0.5641 0.5636 0.5659 0.5652
1122.000000 0.5645 0.5632 0.5619 0.5565 0.5494
1127.000000 0.5422 0.5350 0.5322 0.5316 0.5535
1132.000000 0.5729 0.5750 0.5760 0.5768 0.5768
1137.000000 0.5770 0.5753 0.5728 0.5703 0.5679
1142.000000 0.5654 0.5628 0.5602 0.5576 0.5550
1147.000000 0.5523 0.5497 0.5437 0.5348 0.5233
1152.000000 0.5081 0.4803 0.4501 0.4199 0.3897
1157.000000 0.3595 0.3293 0.2991 0.2689 0.2387
1162.000000 0.2085 0.2005 0.2020 0.2139 0.3219
1167.000000 0.4298 0.5377 0.6456 0.6722 0.6723
1172.000000 0.6742 0.6698 0.6650 0.6398 0.6152
1177.000000 0.5905 0.5659 0.5413 0.5166 0.4920
1182.000000 0.4673 0.4427 0.4180 0.3934 0.3483
1187.000000 0.2943 0.2403 0.1864 0.1324 0.0784
1192.000000 0.0618 0.0594 0.0583 0.0748 0.0901
1197.000000 0.0979 0.0971 0.0962 0.0786 0.0685
1202.000000 0.0584 0.0552 0.0580 0.0872 0.1342
1207.000000 0.1812 0.2283 0.2753 0.3224 0.3440
1212.000000 0.3424 0.3413 0.3117 0.2731 0.2345
1217.000000 0.1958 0.1572 0.1186 0.0800 0.0414
1222.000000 0.0355 0.0348 0.0363 0.0389 0.1028
1227.000000 0.1667 0.2306 0.2945 0.3584 0.4223
1232.000000 0.4531 0.4528 0.4527 0.4333 0.4139
1237.000000 0.3945 0.3796 0.3826 0.4487 0.5275
1242.000000 0.6063 0.6140 0.6171 0.6190 0.6209
1247.000000 0.6191 0.6181 0.6163 0.5983 0.5443
1252.000000 0.4903 0.4363 0.3823 0.3282 0.2724
1257.000000 0.2127 0.1529 0.0931 0.0333 0.0007
1262.000000 0.0033 0.0310 0.0638 0.0966 0.1293
1267.000000 0.1421 0.1403 0.1333 0.1166 0.1000
1272.000000 0.0833 0.0666 0.0499 0.0332 0.0166
1277.000000 0.0091 0.0091 0.0162 0.0547 0.0931
1282.000000 0.1315 0.1699 0.2084 0.2468 0.2852
1287.000000 0.3236 0.3621 0.4005 0.4389 0.4773
1292.000000 0.5089 0.5123 0.5158 0.5203 0.5259
1297.000000 0.5318 0.5411 0.5587 0.5781 0.6599
1302.000000 0.6807 0.7025 0.7150 0.7253 0.7373
1307.000000 0.7514 0.7665 0.7826 0.7906 0.7981
1312.000000 0.8015 0.8049 0.8071 0.8087 0.8099
1317.000000 0.8106 0.8112 0.8119 0.8123 0.8122
1322.000000 0.8120 0.8120 0.8120 0.8119 0.8118
1327.000000 0.8113 0.8108 0.8089 0.8065 0.8035
1332.000000 0.8003 0.7971 0.7938 0.7896 0.7853
1337.000000 0.7810 0.7749 0.7677 0.7605 0.7534
1342.000000 0.7389 0.7228 0.6905 0.6666 0.6505
1347.000000 0.6306 0.5892 0.5477 0.5062 0.4691
1352.000000 0.4707 0.4759 0.4829 0.4899 0.4969
1357.000000 0.5038 0.5047 0.5059 0.4726 0.4356
1362.000000 0.4139 0.4104 0.4076 0.4049 0.3977
1367.000000 0.3917 0.3808 0.3693 0.3073 0.2454
1372.000000 0.1835 0.1215 0.0596 0.0040 0.0011
1377.000000 0.0003 0.0011 0.0011 0.0038 0.0134
1382.000000 0.0227 0.0623 0.1338 0.2052 0.2767
1387.000000 0.3482 0.4196 0.4911 0.5220 0.5186
1392.000000 0.4903 0.4615 0.4327 0.4039 0.3751
1397.000000 0.3463 0.3175 0.2887 0.2599 0.2311
1402.000000 0.2191 0.2140 0.1836 0.1386 0.0936
1407.000000 0.0485 0.0266 0.0256 0.0251 0.0540
1412.000000 0.1188 0.1837 0.2486 0.3134 0.3783
1417.000000 0.4432 0.4855 0.4863 0.4998 0.5297
1422.000000 0.5503 0.5563 0.5615 0.5632 0.5631
1427.000000 0.5631 0.5535 0.5316 0.5097 0.4877
1432.000000 0.4658 0.4605 0.4601 0.4603 0.4758
1437.000000 0.4973 0.5187 0.5402 0.5616 0.5831
1442.000000 0.5946 0.5992 0.6018 0.6028 0.6037
1447.000000 0.6015 0.5989 0.5828 0.5595 0.5361
1452.000000 0.5127 0.4893 0.4659 0.4425 0.4321
1457.000000 0.4312 0.4298 0.4280 0.4245 0.2933
1462.000000 0.2196 0.2036 0.1944 0.1859 0.1676
1467.000000 0.1258 0.0839 0.0421 0.0007 0.0007
1472.000000 0.0466 0.0848 0.1230 0.1613 0.1995
1477.000000 0.2377 0.2478 0.2484 0.2280 0.2031
1482.000000 0.1781 0.1609 0.1700 0.1571 0.2093
1487.000000 0.2289 0.2486 0.2571 0.2575 0.2395
1492.000000 0.2100 0.1804 0.1508 0.1212 0.0916
1497.000000 0.0620 0.0324 0.0028 0.0001 0.0001
1502.000000 0.0000 0.0006 0.0012 0.0023 0.0035
1507.000000 0.0056 0.0100 0.0136 0.0448 0.0908
1512.000000 0.1146 0.1418 0.1463 0.1509 0.1562
1517.000000 0.1620 0.2410 0.3522 0.4634 0.5209
1522.000000 0.5366 0.6929 0.7020 0.7098 0.7169
1527.000000 0.7216 0.7264 0.7301 0.7332 0.7347
1532.000000 0.7358 0.7369 0.7375 0.7380 0.7385
1537.000000 0.7381 0.7388 0.7389 0.7384 0.7380
1542.000000 0.7375 0.7367 0.7358 0.7343 0.7319
1547.000000 0.7296 0.7272 0.7244 0.7216 0.7188
1552.000000 0.7160 0.7140 0.7138 0.7138 0.7138
1557.000000 0.7139 0.7139 0.7116 0.6981 0.6908
1562.000000 0.6833 0.6757 0.6644 0.6443 0.6241
1567.000000 0.6040 0.5838 0.5637 0.5435 0.5234
1572.000000 0.5032 0.4831 0.4629 0.4450 0.3362
1577.000000 0.2606 0.1851 0.1095 0.0846 0.0849
1582.000000 0.0831 0.2249 0.3417 0.4585 0.5720
1587.000000 0.5817 0.5888 0.5927 0.5967 0.6015
1592.000000 0.6089 0.6180 0.6189 0.6173 0.6131
1597.000000 0.6043 0.6018 0.6008 0.6008 0.6457
1602.000000 0.6970 0.7483 0.7850 0.7936 0.7968
1607.000000 0.7999 0.7984 0.7980 0.7975 0.7920
1612.000000 0.7803 0.7727 0.7708 0.7708 0.7706
1617.000000 0.7701 0.7683 0.7665 0.7635 0.7450
1622.000000 0.7212 0.6974 0.6735 0.6585 0.6650
1627.000000 0.6806 0.6961 0.7117 0.7272 0.7428
1632.000000 0.7415 0.7420 0.7357 0.7295 0.7232
1637.000000 0.7169 0.7106 0.7044 0.7004 0.7274
1642.000000 0.7743 0.8082 0.8179 0.8315 0.8497
1647.000000 0.8618 0.8717 0.8777 0.8809 0.8834
1652.000000 0.8857 0.8870 0.8881 0.8889 0.8893
1657.000000 0.8896 0.8899 0.8903 0.8906 0.8909
1662.000000 0.8915 0.8921 0.8928 0.8942 0.8961
1667.000000 0.8980 0.8998 0.9008 0.9018 0.9028
1672.000000 0.9034 0.9037 0.9039 0.9030 0.9044
1677.000000 0.9044 0.9036 0.9028 0.9020 0.9012
1682.000000 0.8997 0.8979 0.8961 0.8935 0.8904
1687.000000 0.8865 0.8807 0.8759 0.8715 0.8671
1692.000000 0.8627 0.8566 0.8501 0.8436 0.8389
1697.000000 0.8381 0.8384 0.8371 0.8423 0.8458
1702.000000 0.8489 0.8524 0.8562 0.8632 0.8700
1707.000000 0.8765 0.8823 0.8867 0.8912 0.8976
1712.000000 0.9007 0.9030 0.9033 0.9035 0.9037
1717.000000 0.9039 0.9044 0.9039 0.9036 0.9034
1722.000000 0.9031 0.9027 0.9023 0.9017 0.9004
1727.000000 0.8976 0.8939 0.8901 0.8898 0.8895
1732.000000 0.8890 0.8883 0.8876 0.8861 0.8838
1737.000000 0.8804 0.8772 0.8741 0.8710 0.8679
1742.000000 0.8642 0.8587 0.8532 0.8482 0.8434
1747.000000 0.8386 0.8308 0.8311 0.8294 0.8343
1752.000000 0.8375 0.8441 0.8518 0.8585 0.8645
1757.000000 0.8692 0.8732 0.8764 0.8782 0.8797
1762.000000 0.8805 0.8812 0.8820 0.8830 0.8841
1767.000000 0.8875 0.8922 0.8976 0.9029 0.9082
1772.000000 0.9133 0.9183 0.9213 0.9228 0.9241
1777.000000 0.9247 0.9253 0.9260 0.9265 0.9269
1782.000000 0.9273 0.9283 0.9310 0.9338 0.9367
1787.000000 0.9371 0.9370 0.9369 0.9365 0.9362
1792.000000 0.9358 0.9355 0.9352 0.9349 0.9347
1797.000000 0.9344 0.9342 0.9361 0.9339 0.9340
1802.000000 0.9341 0.9342 0.9344 0.9354 0.9366
1807.000000 0.9375 0.9376 0.9378 0.9379 0.9377
1812.000000 0.9374 0.9367 0.9357 0.9346 0.9332
1817.000000 0.9314 0.9295 0.9266 0.9235 0.9204
1822.000000 0.9167 0.9126 0.9085 0.9045 0.9009
1827.000000 0.8972 0.8930 0.8885 0.8839 0.8769
1832.000000 0.8718 0.8710 0.8711 0.8713 0.8717
1837.000000 0.8749 0.8792 0.8859 0.8930 0.8999
1842.000000 0.9067 0.9130 0.9184 0.9225 0.9262
1847.000000 0.9293 0.9321 0.9340 0.9359 0.9370
1852.000000 0.9380 0.9408 0.9385 0.9384 0.9383
1857.000000 0.9382 0.9381 0.9380 0.9379 0.9378
1862.000000 0.9375 0.9372 0.9370 0.9367 0.9364
1867.000000 0.9358 0.9352 0.9346 0.9340 0.9331
1872.000000 0.9316 0.9301 0.9286 0.9245 0.9199
1877.000000 0.9146 0.9091 0.9030 0.8952 0.8878
1882.000000 0.8810 0.8750 0.8698 0.8669 0.8659
1887.000000 0.8665 0.8659 0.8728 0.8814 0.8883
1892.000000 0.8943 0.8989 0.9016 0.9020 0.9020
1897.000000 0.9019 0.9016 0.9012 0.9002 0.8986
1902.000000 0.8965 0.8940 0.8914 0.8877 0.8836
1907.000000 0.8750 0.8659 0.8565 0.8474 0.8379
1912.000000 0.8276 0.8170 0.7990 0.7839 0.7778
1917.000000 0.7772 0.7750 0.7782 0.7800 0.7918
1922.000000 0.8138 0.8357 0.8578 0.8658 0.8728
1927.000000 0.8780 0.8828 0.8867 0.8899 0.8918
1932.000000 0.8923 0.8925 0.8928 0.8930 0.8931
1937.000000 0.8930 0.8930 0.8929 0.8928 0.8927
1942.000000 0.8926 0.8919 0.8907 0.8890 0.8862
1947.000000 0.8822 0.8779 0.8723 0.8681 0.8672
1952.000000 0.8661 0.8682 0.8706 0.8779 0.8845
1957.000000 0.8903 0.8983 0.9060 0.9121 0.9193
1962.000000 0.9262 0.9292 0.9309 0.9320 0.9340
1967.000000 0.9327 0.9325 0.9324 0.9323 0.9321
1972.000000 0.9318 0.9316 0.9316 0.9327 0.9340
1977.000000 0.9359 0.9382 0.9417 0.9431 0.9441
1982.000000 0.9449 0.9453 0.9455 0.9455 0.9456
1987.000000 0.9454 0.9450 0.9445 0.9443 0.9446
1992.000000 0.9448 0.9453 0.9463 0.9472 0.9488
1997.000000 0.9513 0.9562 0.9599 0.9621 0.9633
2002.000000 0.9645 0.9647 0.9650 0.9652 0.9655
2007.000000 0.9657 0.9659 0.9660 0.9662 0.9663
2012.000000 0.9664 0.9665 0.9667 0.9668 0.9670
2017.000000 0.9671 0.9672 0.9673 0.9675 0.9674
2022.000000 0.9673 0.9672 0.9671 0.9670 0.9669
2027.000000 0.9668 0.9668 0.9667 0.9666 0.9665
2032.000000 0.9664 0.9662 0.9660 0.9658 0.9657
2037.000000 0.9655 0.9654 0.9652 0.9651 0.9649
2042.000000 0.9648 0.9646 0.9644 0.9642 0.9641
2047.000000 0.9639 0.9638 0.9636 0.9635 0.9633
2052.000000 0.9632 0.9630 0.9628 0.9626 0.9625
2057.000000 0.9622 0.9619 0.9615 0.9612 0.9608
2062.000000 0.9605 0.9601 0.9598 0.9594 0.9591
2067.000000 0.9587 0.9584 0.9580 0.9577 0.9574
2072.000000 0.9571 0.9568 0.9565 0.9561 0.9558
2077.000000 0.9555 0.9552 0.9549 0.9546 0.9548
2082.000000 0.9551 0.9553 0.9556 0.9558 0.9561
2087.000000 0.9569 0.9577 0.9585 0.9593 0.9606
2092.000000 0.9619 0.9627 0.9636 0.9637 0.9639
2097.000000 0.9640 0.9642 0.9643 0.9645 0.9646
2102.000000 0.9647 0.9646 0.9646 0.9645 0.9645
2107.000000 0.9645 0.9645 0.9644 0.9644 0.9644
2112.000000 0.9645 0.9645 0.9645 0.9645 0.9645
2117.000000 0.9645 0.9646 0.9645 0.9644 0.9643
2122.000000 0.9643 0.9642 0.9641 0.9640 0.9639
2127.000000 0.9638 0.9638 0.9635 0.9633 0.9626
2132.000000 0.9619 0.9611 0.9604 0.9593 0.9582
2137.000000 0.9571 0.9560 0.9542 0.9525 0.9503
2142.000000 0.9481 0.9446 0.9412 0.9400 0.9388
2147.000000 0.9386 0.9385 0.9393 0.9353 0.9421
2152.000000 0.9442 0.9456 0.9471 0.9474 0.9478
2157.000000 0.9481 0.9485 0.9485 0.9486 0.9485
2162.000000 0.9484 0.9482 0.9481 0.9476 0.9491
2167.000000 0.9467 0.9463 0.9457 0.9452 0.9446
2172.000000 0.9441 0.9435 0.9429 0.9424 0.9420
2177.000000 0.9416 0.9413 0.9412 0.9403 0.9417
2182.000000 0.9424 0.9446 0.9469 0.9489 0.9510
2187.000000 0.9524 0.9539 0.9545 0.9551 0.9553
2192.000000 0.9556 0.9556 0.9556 0.9556 0.9557
2197.000000 0.9557 0.9557 0.9555 0.9553 0.9550
2202.000000 0.9547 0.9544 0.9542 0.9539 0.9536
2207.000000 0.9533 0.9531 0.9528 0.9526 0.9523
2212.000000 0.9521 0.9518 0.9516 0.9513 0.9511
2217.000000 0.9509 0.9507 0.9504 0.9502 0.9499
2222.000000 0.9497 0.9495 0.9493 0.9490 0.9488
2227.000000 0.9485 0.9483 0.9481 0.9480 0.9478
2232.000000 0.9477 0.9475 0.9474 0.9472 0.9471
2237.000000 0.9469 0.9468 0.9466 0.9465 0.9463
2242.000000 0.9462 0.9460 0.9458 0.9453 0.9449
2247.000000 0.9444 0.9439 0.9434 0.9430 0.9425
2252.000000 0.9420 0.9417 0.9415 0.9412 0.9410
2257.000000 0.9407 0.9405 0.9402 0.9400 0.9397
2262.000000 0.9394 0.9391 0.9389 0.9386 0.9384
2267.000000 0.9384 0.9385 0.9385 0.9386 0.9386
2272.000000 0.9387 0.9387 0.9388 0.9388 0.9389
2277.000000 0.9389 0.9390 0.9391 0.9392 0.9393
2282.000000 0.9394 0.9394 0.9395 0.9396 0.9397
2287.000000 0.9398 0.9399 0.9399 0.9400 0.9401
2292.000000 0.9402 0.9403 0.9404 0.9405 0.9406
2297.000000 0.9407 0.9408 0.9407 0.9407 0.9406
2302.000000 0.9406 0.9405 0.9405 0.9404 0.9404
2307.000000 0.9404 0.9404 0.9403 0.9403 0.9401
2312.000000 0.9400 0.9398 0.9396 0.9393 0.9391
2317.000000 0.9389 0.9387 0.9384 0.9382 0.9379
2322.000000 0.9377 0.9375 0.9373 0.9370 0.9367
2327.000000 0.9364 0.9361 0.9358 0.9355 0.9351
2332.000000 0.9348 0.9345 0.9342 0.9339 0.9336
2337.000000 0.9334 0.9333 0.9335 0.9337 0.9339
2342.000000 0.9341 0.9342 0.9344 0.9345 0.9347
2347.000000 0.9349 0.9351 0.9352 0.9354 0.9355
2352.000000 0.9357 0.9359 0.9361 0.9362 0.9364
2357.000000 0.9365 0.9367 0.9368 0.9370 0.9372
2362.000000 0.9374 0.9375 0.9377 0.9378 0.9380
2367.000000 0.9385 0.9390 0.9395 0.9401 0.9407
2372.000000 0.9413 0.9418 0.9424 0.9427 0.9431
2377.000000 0.9430 0.9429 0.9428 0.9427 0.9426
2382.000000 0.9426 0.9425 0.9425 0.9429 0.9434
2387.000000 0.9437 0.9441 0.9444 0.9448 0.9451
2392.000000 0.9454 0.9457 0.9461 0.9464 0.9467
2397.000000 0.9470 0.9474 0.9477 0.9480 0.9482
2402.000000 0.9484 0.9482 0.9481 0.9479 0.9478
2407.000000 0.9476 0.9475 0.9470 0.9466 0.9461
2412.000000 0.9456 0.9450 0.9445 0.9438 0.9432
2417.000000 0.9425 0.9419 0.9412 0.9406 0.9399
2422.000000 0.9393 0.9386 0.9380 0.9373 0.9366
2427.000000 0.9359 0.9353 0.9346 0.9339 0.9332
2432.000000 0.9325 0.9320 0.9316 0.9314 0.9312
2437.000000 0.9310 0.9309 0.9307 0.9306 0.9304
2442.000000 0.9303 0.9301 0.9300 0.9298 0.9296
2447.000000 0.9293 0.9291 0.9288 0.9286 0.9283
2452.000000 0.9281 0.9278 0.9276 0.9273 0.9270
2457.000000 0.9267 0.9264 0.9260 0.9257 0.9254
2462.000000 0.9251 0.9253 0.9256 0.9259 0.9262
2467.000000 0.9265 0.9269 0.9271 0.9274 0.9275
2472.000000 0.9276 0.9277 0.9278 0.9274 0.9271
2477.000000 0.9267 0.9264 0.9260 0.9257 0.9252
2482.000000 0.9247 0.9242 0.9238 0.9233 0.9229
2487.000000 0.9224 0.9219 0.9214 0.9210 0.9203
2492.000000 0.9197 0.9190 0.9184 0.9177 0.9171
2497.000000 0.9165 0.9159 0.9152 0.9146 0.9139
2502.000000 0.9133 0.9125 0.9117 0.9109 0.9101
2507.000000 0.9093 0.9086 0.9078 0.9070 0.9062
2512.000000 0.9054 0.9049 0.9045 0.9043 0.9041
2517.000000 0.9038 0.9036 0.9034 0.9032 0.9029
2522.000000 0.9027 0.9025 0.9023 0.9023 0.9024
2527.000000 0.9024 0.9025 0.9025 0.9026 0.9026
2532.000000 0.9027 0.9027 0.9028 0.9031 0.9035
2537.000000 0.9038 0.9041 0.9044 0.9048 0.9054
2542.000000 0.9061 0.9071 0.9081 0.9091 0.9101
2547.000000 0.9112 0.9123 0.9134 0.9145 0.9156
2552.000000 0.9168 0.9177 0.9187 0.9195 0.9203
2557.000000 0.9209 0.9216 0.9213 0.9211 0.9209
2562.000000 0.9207 0.9204 0.9202 0.9200 0.9198
2567.000000 0.9195 0.9193 0.9191 0.9189 0.9184
2572.000000 0.9180 0.9175 0.9171 0.9166 0.9161
2577.000000 0.9156 0.9152 0.9147 0.9143 0.9138
2582.000000 0.9133 0.9126 0.9120 0.9113 0.9107
2587.000000 0.9100 0.9094 0.9087 0.9081 0.9074
2592.000000 0.9067 0.9058 0.9050 0.9042 0.9034
2597.000000 0.9025 0.9017 0.9008 0.9000 0.8994
2602.000000 0.8989 0.8988 0.8987 0.8985 0.8984
2607.000000 0.8983 0.8982 0.8981 0.8980 0.8981
2612.000000 0.8982 0.8982 0.8983 0.8983 0.8984
2617.000000 0.8984 0.8985 0.8976 0.8967 0.8959
2622.000000 0.8951 0.8948 0.8946 0.8944 0.8942
2627.000000 0.8940 0.8938 0.8941 0.8944 0.8947
2632.000000 0.8950 0.8953 0.8956 0.8961 0.8967
2637.000000 0.8973 0.8979 0.8985 0.8991 0.8997
2642.000000 0.9003 0.9009 0.9016 0.9022 0.9029
2647.000000 0.9036 0.9043 0.9052 0.9061 0.9069
2652.000000 0.9078 0.9086 0.9095 0.9102 0.9109
2657.000000 0.9113 0.9118 0.9122 0.9127 0.9129
2662.000000 0.9132 0.9132 0.9132 0.9132 0.9133
2667.000000 0.9132 0.9132 0.9131 0.9131 0.9130
2672.000000 0.9130 0.9130 0.9130 0.9129 0.9104
2677.000000 0.9128 0.9128 0.9127 0.9126 0.9125
2682.000000 0.9124 0.9123 0.9122 0.9121 0.9120
2687.000000 0.9118 0.9117 0.9116 0.9115 0.9114
2692.000000 0.9113 0.9112 0.9111 0.9110 0.9109
2697.000000 0.9107 0.9106 0.9104 0.9103 0.9102
2702.000000 0.9101 0.9099 0.9098 0.9096 0.9095
2707.000000 0.9093 0.9092 0.9090 0.9089 0.9087
2712.000000 0.9085 0.9083 0.9082 0.9080 0.9078
2717.000000 0.9076 0.9074 0.9072 0.9070 0.9068
2722.000000 0.9066 0.9064 0.9062 0.9060 0.9058
2727.000000 0.9056 0.9054 0.9053 0.9052 0.9051
2732.000000 0.9050 0.9049 0.9049 0.9048 0.9047
2737.000000 0.9046 0.9046 0.9045 0.9044 0.9043
2742.000000 0.9043 0.9042 0.9041 0.9040 0.9039
2747.000000 0.9038 0.9038 0.9037 0.9036 0.9035
2752.000000 0.9035 0.9035 0.9035 0.9036 0.9038
2757.000000 0.9040 0.9042 0.9043 0.9045 0.9042
2762.000000 0.9040 0.9036 0.9032 0.9027 0.9023
2767.000000 0.9018 0.9014 0.9010 0.9006 0.9001
2772.000000 0.8996 0.8990 0.8985 0.8980 0.8975
2777.000000 0.8969 0.8964 0.8958 0.8953 0.8948
2782.000000 0.8943 0.8937 0.8932 0.8927 0.8922
2787.000000 0.8917 0.8912 0.8907 0.8903 0.8898
2792.000000 0.8893 0.8888 0.8884 0.8879 0.8875
2797.000000 0.8870 0.8866 0.8861 0.8857 0.8852
2802.000000 0.8847 0.8842 0.8838 0.8833 0.8829
2807.000000 0.8825 0.8822 0.8818 0.8815 0.8811
2812.000000 0.8808 0.8804 0.8801 0.8797 0.8794
2817.000000 0.8790 0.8787 0.8783 0.8780 0.8775
2822.000000 0.8770 0.8765 0.8760 0.8755 0.8750
2827.000000 0.8745 0.8740 0.8735 0.8730 0.8725
2832.000000 0.8721 0.8716 0.8711 0.8708 0.8706
2837.000000 0.8703 0.8701 0.8698 0.8695 0.8692
2842.000000 0.8690 0.8687 0.8685 0.8682 0.8679
2847.000000 0.8676 0.8674 0.8671 0.8669 0.8667
2852.000000 0.8666 0.8666 0.8666 0.8666 0.8666
2857.000000 0.8659 0.8652 0.8641 0.8630 0.8621
2862.000000 0.8613 0.8606 0.8599 0.8592 0.8586
2867.000000 0.8579 0.8572 0.8565 0.8559 0.8555
2872.000000 0.8552 0.8548 0.8545 0.8541 0.8538
2877.000000 0.8534 0.8531 0.8529 0.8528 0.8526
2882.000000 0.8525 0.8523 0.8522 0.8520 0.8519
2887.000000 0.8517 0.8516 0.8514 0.8513 0.8510
2892.000000 0.8508 0.8503 0.8498 0.8492 0.8487
2897.000000 0.8482 0.8477 0.8471 0.8466 0.8461
2902.000000 0.8456 0.8450 0.8444 0.8436 0.8428
2907.000000 0.8420 0.8412 0.8404 0.8397 0.8389
2912.000000 0.8381 0.8373 0.8365 0.8353 0.8342
2917.000000 0.8330 0.8318 0.8305 0.8293 0.8281
2922.000000 0.8269 0.8256 0.8244 0.8232 0.8220
2927.000000 0.8205 0.8191 0.8176 0.8161 0.8146
2932.000000 0.8131 0.8116 0.8101 0.8086 0.8072
2937.000000 0.8057 0.8042 0.8026 0.8011 0.7992
2942.000000 0.7974 0.7955 0.7937 0.7918 0.7900
2947.000000 0.7881 0.7863 0.7844 0.7826 0.7807
2952.000000 0.7788 0.7770 0.7753 0.7736 0.7719
2957.000000 0.7702 0.7685 0.7668 0.7651 0.7644
2962.000000 0.7637 0.7630 0.7623 0.7619 0.7622
2967.000000 0.7630 0.7644 0.7672 0.7700 0.7707
2972.000000 0.7714 0.7721 0.7728 0.7734 0.7741
2977.000000 0.7742 0.7744 0.7745 0.7746 0.7747
2982.000000 0.7749 0.7749 0.7750 0.7751 0.7752
2987.000000 0.7752 0.7753 0.7751 0.7777 0.7744
2992.000000 0.7739 0.7734 0.7729 0.7711 0.7693
2997.000000 0.7669 0.7646 0.7617 0.7588 0.7548
3002.000000 0.7509 0.7458 0.7408 0.7353 0.7299
3007.000000 0.7250 0.7201 0.7152 0.7104 0.7048
3012.000000 0.6992 0.6935 0.6878 0.6834 0.6790
3017.000000 0.6748 0.6707 0.6657 0.6608 0.6532
3022.000000 0.6456 0.6280 0.6104 0.5891 0.5678
3027.000000 0.5565 0.5452 0.5449 0.5447 0.5465
3032.000000 0.5483 0.5562 0.5441 0.5720 0.5799
3037.000000 0.5835 0.5871 0.5871 0.5868 0.5797
3042.000000 0.5723 0.5558 0.5393 0.5228 0.5063
3047.000000 0.4898 0.4734 0.4569 0.4404 0.4239
3052.000000 0.4074 0.3909 0.3744 0.3606 0.3468
3057.000000 0.3466 0.3464 0.3562 0.3661 0.3865
3062.000000 0.3465 0.4273 0.4478 0.4599 0.4721
3067.000000 0.4733 0.4745 0.4756 0.4767 0.4780
3072.000000 0.4793 0.4812 0.4832 0.4860 0.4889
3077.000000 0.5387 0.5886 0.5975 0.6064 0.6204
3082.000000 0.6345 0.6413 0.6482 0.6546 0.6610
3087.000000 0.6653 0.6696 0.6734 0.6773 0.6807
3092.000000 0.6842 0.6876 0.6910 0.6928 0.6946
3097.000000 0.6964 0.6983 0.7001 0.7019 0.7025
3102.000000 0.7032 0.7037 0.7042 0.7046 0.7051
3107.000000 0.7061 0.7072 0.7111 0.7150 0.7195
3112.000000 0.7240 0.7271 0.7303 0.7316 0.7329
3117.000000 0.7341 0.7353 0.7361 0.7369 0.7376
3122.000000 0.7383 0.7387 0.7399 0.7392 0.7392
3127.000000 0.7391 0.7391 0.7389 0.7387 0.7384
3132.000000 0.7382 0.7380 0.7378 0.7373 0.7369
3137.000000 0.7364 0.7360 0.7355 0.7351 0.7347
3142.000000 0.7343 0.7338 0.7334 0.7329 0.7325
3147.000000 0.7317 0.7310 0.7302 0.7295 0.7287
3152.000000 0.7280 0.7272 0.7264 0.7255 0.7247
3157.000000 0.7243 0.7239 0.7237 0.7235 0.7232
3162.000000 0.7230 0.7227 0.7225 0.7223 0.7221
3167.000000 0.7219 0.7217 0.7215 0.7214 0.7212
3172.000000 0.7211 0.7210 0.7209 0.7207 0.7206
3177.000000 0.7204 0.7203 0.7201 0.7200 0.7198
3182.000000 0.7196 0.7191 0.7187 0.7182 0.7178
3187.000000 0.7173 0.7168 0.7163 0.7159 0.7154
3192.000000 0.7150 0.7144 0.7139 0.7132 0.7125
3197.000000 0.7118 0.7111 0.7103 0.7095 0.7082
3202.000000 0.7069 0.7056 0.7044 0.7031 0.7018
3207.000000 0.7007 0.6997 0.6989 0.6982 0.6974
3212.000000 0.6967 0.6959 0.6952 0.6946 0.6940
3217.000000 0.6935 0.6930 0.6925 0.6921 0.6916
3222.000000 0.6911 0.6906 0.6901 0.6895 0.6889
3227.000000 0.6882 0.6876 0.6870 0.6864 0.6858
3232.000000 0.6852 0.6845 0.6839 0.6833 0.6827
3237.000000 0.6817 0.6808 0.6798 0.6788 0.6778
3242.000000 0.6768 0.6758 0.6749 0.6739 0.6729
3247.000000 0.6719 0.6710 0.6700 0.6690 0.6681
3252.000000 0.6672 0.6663 0.6655 0.6646 0.6638
3257.000000 0.6629 0.6621 0.6612 0.6603 0.6594
3262.000000 0.6586 0.6577 0.6569 0.6560 0.6552
3267.000000 0.6543 0.6534 0.6525 0.6517 0.6507
3272.000000 0.6497 0.6485 0.6474 0.6463 0.6452
3277.000000 0.6440 0.6429 0.6417 0.6406 0.6394
3282.000000 0.6383 0.6372 0.6361 0.6349 0.6338
3287.000000 0.6323 0.6309 0.6294 0.6280 0.6265
3292.000000 0.6251 0.6236 0.6222 0.6207 0.6193
3297.000000 0.6178 0.6164 0.6149 0.6134 0.6118
3302.000000 0.6103 0.6088 0.6073 0.6057 0.6042
3307.000000 0.6027 0.6012 0.5996 0.5981 0.5966
3312.000000 0.5951 0.5935 0.5920 0.5905 0.5890
3317.000000 0.5874 0.5859 0.5843 0.5828 0.5812
3322.000000 0.5796 0.5779 0.5763 0.5747 0.5731
3327.000000 0.5714 0.5698 0.5681 0.5665 0.5649
3332.000000 0.5633 0.5618 0.5603 0.5589 0.5575
3337.000000 0.5561 0.5548 0.5534 0.5520 0.5506
3342.000000 0.5492 0.5478 0.5464 0.5450 0.5436
3347.000000 0.5422 0.5409 0.5394 0.5380 0.5363
3352.000000 0.5346 0.5329 0.5312 0.5295 0.5278
3357.000000 0.5261 0.5244 0.5227 0.5210 0.5187
3362.000000 0.5164 0.5135 0.5107 0.5078 0.5049
3367.000000 0.5020 0.4992 0.4950 0.4908 0.4863
3372.000000 0.4819 0.4769 0.4720 0.4650 0.4580
3377.000000 0.4510 0.4440 0.4373 0.4307 0.4253
3382.000000 0.4199 0.4145 0.4091 0.4036 0.3982
3387.000000 0.3920 0.3859 0.3798 0.3737 0.3675
3392.000000 0.3614 0.3551 0.3488 0.3425 0.3363
3397.000000 0.3298 0.3234 0.3168 0.3103 0.3037
3402.000000 0.2971 0.2875 0.2780 0.2663 0.2546
3407.000000 0.2374 0.2202 0.2127 0.2052 0.2005
3412.000000 0.1958 0.1944 0.1931 0.1926 0.1922
3417.000000 0.1923 0.1918 0.1927 0.1930 0.1941
3422.000000 0.1952 0.1975 0.1999 0.2038 0.2078
3427.000000 0.2128 0.2178 0.2246 0.2315 0.2461
3432.000000 0.2608 0.2675 0.2743 0.2795 0.2848
3437.000000 0.2929 0.3011 0.3092 0.3174 0.3255
3442.000000 0.3337 0.3418 0.3500 0.3582 0.3664
3447.000000 0.3745 0.3827 0.3908 0.3990 0.4073
3452.000000 0.4157 0.4215 0.4274 0.4365 0.4457
3457.000000 0.4584 0.4711 0.4820 0.4929 0.5009
3462.000000 0.5089 0.5169 0.5249 0.5394 0.5540
3467.000000 0.5681 0.5823 0.5938 0.6054 0.6149
3472.000000 0.6244 0.6335 0.6427 0.6511 0.6595
3477.000000 0.6664 0.6733 0.6802 0.6871 0.6943
3482.000000 0.7015 0.7089 0.7164 0.7239 0.7314
3487.000000 0.7571 0.7828 0.7904 0.7981 0.8057
3492.000000 0.8134 0.8198 0.8262 0.8318 0.8374
3497.000000 0.8430 0.8486 0.8536 0.8586 0.8624
3502.000000 0.8663 0.8702 0.8741 0.8774 0.8807
3507.000000 0.8837 0.8867 0.8897 0.8928 0.8955
3512.000000 0.8983 0.9009 0.9036 0.9062 0.9089
3517.000000 0.9107 0.9125 0.9142 0.9159 0.9176
3522.000000 0.9194 0.9210 0.9226 0.9239 0.9252
3527.000000 0.9265 0.9278 0.9291 0.9304 0.9317
3532.000000 0.9330 0.9343 0.9356 0.9364 0.9373
3537.000000 0.9381 0.9390 0.9398 0.9407 0.9415
3542.000000 0.9424 0.9432 0.9441 0.9449 0.9457
3547.000000 0.9463 0.9469 0.9475 0.9482 0.9488
3552.000000 0.9494 0.9500 0.9506 0.9512 0.9518
3557.000000 0.9523 0.9528 0.9530 0.9533 0.9535
3562.000000 0.9538 0.9540 0.9542 0.9544 0.9547
3567.000000 0.9549 0.9552 0.9554 0.9557 0.9559
3572.000000 0.9561 0.9562 0.9575 0.9565 0.9566
3577.000000 0.9567 0.9568 0.9569 0.9570 0.9571
3582.000000 0.9572 0.9572 0.9573 0.9574 0.9575
3587.000000 0.9576 0.9577 0.9578 0.9580 0.9581
3592.000000 0.9582 0.9583 0.9584 0.9585 0.9587
3597.000000 0.9588 0.9589 0.9590 0.9591 0.9592
3602.000000 0.9594 0.9594 0.9595 0.9595 0.9595
3607.000000 0.9595 0.9595 0.9595 0.9596 0.9596
3612.000000 0.9596 0.9596 0.9596 0.9596 0.9597
3617.000000 0.9597 0.9597 0.9597 0.9597 0.9594
3622.000000 0.9592 0.9589 0.9586 0.9583 0.9581
3627.000000 0.9578 0.9575 0.9572 0.9569 0.9565
3632.000000 0.9562 0.9555 0.9549 0.9543 0.9537
3637.000000 0.9530 0.9524 0.9518 0.9512 0.9505
3642.000000 0.9499 0.9493 0.9487 0.9480 0.9474
3647.000000 0.9466 0.9458 0.9450 0.9442 0.9433
3652.000000 0.9425 0.9416 0.9408 0.9400 0.9392
3657.000000 0.9383 0.9375 0.9369 0.9363 0.9357
3662.000000 0.9351 0.9345 0.9340 0.9334 0.9328
3667.000000 0.9322 0.9316 0.9310 0.9305 0.9299
3672.000000 0.9293 0.9287 0.9281 0.9276 0.9271
3677.000000 0.9267 0.9263 0.9259 0.9255 0.9253
3682.000000 0.9252 0.9255 0.9258 0.9261 0.9265
3687.000000 0.9268 0.9228 0.9282 0.9293 0.9306
3692.000000 0.9319 0.9332 0.9345 0.9358 0.9371
3697.000000 0.9388 0.9406 0.9424 0.9443 0.9461
3702.000000 0.9480 0.9495 0.9510 0.9519 0.9529
3707.000000 0.9538 0.9548 0.9557 0.9567 0.9576
3712.000000 0.9586 0.9595 0.9605 0.9614 0.9624
3717.000000 0.9628 0.9632 0.9636 0.9640 0.9644
3722.000000 0.9648 0.9652 0.9656 0.9657 0.9658
3727.000000 0.9657 0.9657 0.9656 0.9655 0.9654
3732.000000 0.9653 0.9652 0.9652 0.9651 0.9651
3737.000000 0.9661 0.9671 0.9680 0.9690 0.9699
3742.000000 0.9709 0.9716 0.9724 0.9725 0.9727
3747.000000 0.9729 0.9731 0.9732 0.9731 0.9735
3752.000000 0.9736 0.9736 0.9736 0.9736 0.9736
3757.000000 0.9736 0.9736 0.9736 0.9737 0.9737
3762.000000 0.9737 0.9737 0.9738 0.9738 0.9739
3767.000000 0.9739 0.9739 0.9739 0.9740 0.9740
3772.000000 0.9741 0.9741 0.9742 0.9742 0.9742
3777.000000 0.9742 0.9743 0.9743 0.9744 0.9744
3782.000000 0.9744 0.9743 0.9743 0.9743 0.9743
3787.000000 0.9743 0.9743 0.9743 0.9743 0.9743
3792.000000 0.9743 0.9743 0.9743 0.9742 0.9741
3797.000000 0.9739 0.9737 0.9735 0.9734 0.9732
3802.000000 0.9731 0.9729 0.9728 0.9726 0.9725
3807.000000 0.9723 0.9722 0.9720 0.9719
##END=
