##TITLE=1-Fluoro-2-nitrobenzene
##JCAMP-DX=4.24
$$ By DXEDIT 1.05 (RS McDonald)
##DATA TYPE=INFRARED SPECTRUM
##CLASS=COBLENTZ III
##ORIGIN=DOW CHEMICAL COMPANY
##OWNER=COPYRIGHT (C) 1988 by COBLENTZ SOCIETY INC.
Collection (C) 2018 copyright by the U.S. Secretary of Commerce
on behalf of the United States of America. All rights reserved.
##DATE=1960/08/02
##CAS REGISTRY NO=1493-27-2
##MOLFORM=C6 H4 F N O2
##SOURCE REFERENCE=COBLENTZ NO. 6317
##$NIST SOURCE=COBLENTZ
##$NIST IMAGE=cob6317
##SPECTROMETER/DATA SYSTEM=DOW KBr FOREPRISM-GRATING
##INSTRUMENT PARAMETERS=BLAZED AT 3.5, 12.0, 20.0 MICRON AND CHANGED AT 5.0, 7.5, 14.9 MICRON
##STATE=SOLUTION (2% CCl4 FOR 3800-1340, 2% CS2 FOR 1340-430 CM^-^1)
##PATH LENGTH=0.011 CM, 0.011 CM
$$SPECTRAL CONTAMINATION DUE TO IMPURITY AROUND 3400 CM^-^1
##SAMPLING PROCEDURE=TRANSMISSION
##RESOLUTION=2
##DATA PROCESSING=DIGITIZED BY COBLENTZ SOCIETY (BATCH I) FROM HARD COPY
##XUNITS=1/CM
##YUNITS=TRANSMITTANCE
##XFACTOR=1
##YFACTOR=1
##DELTAX=1
##FIRSTX=3814
##LASTX=437
##FIRSTY=0.9335
##MAXX=3814
##MINX=437
##MAXY=0.9615
##MINY=0.032
##NPOINTS=3378
##XYDATA=(X++(Y..Y))
3814.000000 0.9335 0.9325 0.9325 0.9335 0.9342
3809.000000 0.9328 0.9323 0.9336 0.9339 0.9338
3804.000000 0.9338 0.9336 0.9319 0.9318 0.9318
3799.000000 0.9317 0.9317 0.9318 0.9330 0.9318
3794.000000 0.9332 0.9331 0.9330 0.9328 0.9327
3789.000000 0.9326 0.9325 0.9322 0.9321 0.9319
3784.000000 0.9307 0.9300 0.9297 0.9309 0.9312
3779.000000 0.9296 0.9307 0.9309 0.9307 0.9288
3774.000000 0.9304 0.9303 0.9302 0.9301 0.9300
3769.000000 0.9298 0.9297 0.9296 0.9295 0.9294
3764.000000 0.9292 0.9290 0.9289 0.9288 0.9296
3759.000000 0.9294 0.9286 0.9285 0.9284 0.9283
3754.000000 0.9283 0.9282 0.9282 0.9281 0.9280
3749.000000 0.9279 0.9278 0.9277 0.9277 0.9276
3744.000000 0.9275 0.9274 0.9274 0.9273 0.9273
3739.000000 0.9277 0.9288 0.9286 0.9285 0.9283
3734.000000 0.9275 0.9265 0.9273 0.9279 0.9279
3729.000000 0.9276 0.9276 0.9275 0.9273 0.9272
3724.000000 0.9271 0.9270 0.9269 0.9268 0.9267
3719.000000 0.9248 0.9250 0.9265 0.9264 0.9263
3714.000000 0.9263 0.9263 0.9268 0.9276 0.9272
3709.000000 0.9284 0.9286 0.9288 0.9290 0.9292
3704.000000 0.9293 0.9295 0.9296 0.9298 0.9300
3699.000000 0.9300 0.9303 0.9305 0.9292 0.9291
3694.000000 0.9292 0.9292 0.9292 0.9291 0.9291
3689.000000 0.9290 0.9290 0.9286 0.9272 0.9271
3684.000000 0.9271 0.9271 0.9271 0.9270 0.9270
3679.000000 0.9268 0.9268 0.9268 0.9268 0.9268
3674.000000 0.9268 0.9267 0.9267 0.9267 0.9281
3669.000000 0.9267 0.9265 0.9264 0.9264 0.9263
3664.000000 0.9262 0.9260 0.9260 0.9260 0.9260
3659.000000 0.9259 0.9257 0.9257 0.9257 0.9256
3654.000000 0.9256 0.9255 0.9254 0.9253 0.9252
3649.000000 0.9250 0.9250 0.9249 0.9248 0.9247
3644.000000 0.9246 0.9245 0.9245 0.9244 0.9243
3639.000000 0.9242 0.9241 0.9240 0.9239 0.9238
3634.000000 0.9236 0.9239 0.9253 0.9252 0.9245
3629.000000 0.9232 0.9238 0.9248 0.9246 0.9245
3624.000000 0.9244 0.9243 0.9243 0.9242 0.9241
3619.000000 0.9240 0.9239 0.9238 0.9237 0.9236
3614.000000 0.9236 0.9235 0.9234 0.9231 0.9231
3609.000000 0.9229 0.9213 0.9228 0.9228 0.9227
3604.000000 0.9226 0.9219 0.9212 0.9223 0.9213
3599.000000 0.9203 0.9211 0.9218 0.9218 0.9217
3594.000000 0.9216 0.9214 0.9213 0.9211 0.9210
3589.000000 0.9208 0.9207 0.9205 0.9203 0.9201
3584.000000 0.9200 0.9198 0.9196 0.9194 0.9193
3579.000000 0.9191 0.9190 0.9187 0.9181 0.9173
3574.000000 0.9183 0.9181 0.9172 0.9161 0.9159
3569.000000 0.9157 0.9156 0.9153 0.9152 0.9150
3564.000000 0.9149 0.9147 0.9146 0.9143 0.9142
3559.000000 0.9140 0.9139 0.9137 0.9135 0.9149
3554.000000 0.9132 0.9132 0.9145 0.9143 0.9137
3549.000000 0.9127 0.9137 0.9135 0.9134 0.9124
3544.000000 0.9121 0.9128 0.9127 0.9124 0.9111
3539.000000 0.9114 0.9107 0.9112 0.9114 0.9113
3534.000000 0.9111 0.9108 0.9107 0.9104 0.9102
3529.000000 0.9083 0.9081 0.9079 0.9076 0.9074
3524.000000 0.9072 0.9070 0.9068 0.9066 0.9064
3519.000000 0.9062 0.9059 0.9056 0.9054 0.9051
3514.000000 0.9050 0.9047 0.9046 0.9043 0.9041
3509.000000 0.9039 0.9037 0.9035 0.9033 0.9031
3504.000000 0.9029 0.9026 0.9025 0.9023 0.9021
3499.000000 0.9019 0.9018 0.9016 0.9015 0.9013
3494.000000 0.9010 0.9008 0.9007 0.9005 0.9004
3489.000000 0.9001 0.9000 0.8998 0.8997 0.8993
3484.000000 0.8993 0.8990 0.8989 0.8987 0.8986
3479.000000 0.8984 0.8983 0.8981 0.8978 0.8976
3474.000000 0.8975 0.8973 0.8972 0.8970 0.8968
3469.000000 0.8966 0.8965 0.8963 0.8960 0.8958
3464.000000 0.8957 0.8955 0.8954 0.8952 0.8950
3459.000000 0.8948 0.8944 0.8943 0.8942 0.8940
3454.000000 0.8937 0.8936 0.8934 0.8932 0.8930
3449.000000 0.8927 0.8925 0.8923 0.8921 0.8919
3444.000000 0.8918 0.8916 0.8914 0.8911 0.8909
3439.000000 0.8907 0.8906 0.8904 0.8903 0.8901
3434.000000 0.8900 0.8899 0.8898 0.8894 0.8894
3429.000000 0.8891 0.8891 0.8890 0.8889 0.8873
3424.000000 0.8884 0.8884 0.8883 0.8882 0.8881
3419.000000 0.8878 0.8877 0.8876 0.8875 0.8874
3414.000000 0.8873 0.8872 0.8871 0.8869 0.8868
3409.000000 0.8867 0.8866 0.8873 0.8871 0.8862
3404.000000 0.8861 0.8860 0.8859 0.8857 0.8856
3399.000000 0.8855 0.8854 0.8853 0.8852 0.8850
3394.000000 0.8848 0.8847 0.8846 0.8845 0.8844
3389.000000 0.8843 0.8841 0.8840 0.8838 0.8838
3384.000000 0.8837 0.8836 0.8833 0.8833 0.8833
3379.000000 0.8833 0.8838 0.8840 0.8841 0.8844
3374.000000 0.8847 0.8849 0.8852 0.8854 0.8871
3369.000000 0.8860 0.8862 0.8864 0.8867 0.8869
3364.000000 0.8872 0.8875 0.8879 0.8882 0.8885
3359.000000 0.8888 0.8890 0.8893 0.8897 0.8901
3354.000000 0.8904 0.8907 0.8910 0.8913 0.8917
3349.000000 0.8921 0.8924 0.8926 0.8928 0.8943
3344.000000 0.8950 0.8937 0.8953 0.8939 0.8943
3339.000000 0.8945 0.8963 0.8966 0.8966 0.8953
3334.000000 0.8956 0.8958 0.8960 0.8962 0.8966
3329.000000 0.8968 0.8970 0.8972 0.8974 0.8976
3324.000000 0.8979 0.8981 0.8983 0.8986 0.8988
3319.000000 0.8991 0.8993 0.8995 0.8997 0.8998
3314.000000 0.9002 0.9004 0.9023 0.9026 0.9029
3309.000000 0.9031 0.9030 0.9021 0.9037 0.9039
3304.000000 0.9037 0.9027 0.9030 0.9032 0.9035
3299.000000 0.9037 0.9039 0.9040 0.9043 0.9046
3294.000000 0.9049 0.9050 0.9054 0.9056 0.9059
3289.000000 0.9061 0.9063 0.9065 0.9068 0.9070
3284.000000 0.9074 0.9093 0.9093 0.9080 0.9086
3279.000000 0.9102 0.9101 0.9090 0.9098 0.9112
3274.000000 0.9115 0.9117 0.9119 0.9120 0.9124
3269.000000 0.9126 0.9130 0.9131 0.9133 0.9134
3264.000000 0.9135 0.9136 0.9138 0.9139 0.9141
3259.000000 0.9142 0.9144 0.9144 0.9130 0.9147
3254.000000 0.9149 0.9150 0.9153 0.9154 0.9156
3249.000000 0.9157 0.9158 0.9159 0.9161 0.9154
3244.000000 0.9156 0.9165 0.9167 0.9168 0.9169
3239.000000 0.9169 0.9172 0.9172 0.9174 0.9176
3234.000000 0.9178 0.9179 0.9180 0.9181 0.9182
3229.000000 0.9183 0.9185 0.9183 0.9170 0.9175
3224.000000 0.9190 0.9191 0.9192 0.9193 0.9195
3219.000000 0.9196 0.9197 0.9198 0.9201 0.9202
3214.000000 0.9204 0.9205 0.9207 0.9208 0.9210
3209.000000 0.9211 0.9198 0.9197 0.9199 0.9200
3204.000000 0.9202 0.9203 0.9204 0.9206 0.9210
3199.000000 0.9224 0.9215 0.9225 0.9220 0.9233
3194.000000 0.9235 0.9236 0.9238 0.9239 0.9232
3189.000000 0.9236 0.9246 0.9248 0.9238 0.9234
3184.000000 0.9236 0.9239 0.9241 0.9243 0.9245
3179.000000 0.9247 0.9249 0.9251 0.9252 0.9255
3174.000000 0.9256 0.9260 0.9262 0.9264 0.9266
3169.000000 0.9268 0.9270 0.9272 0.9274 0.9275
3164.000000 0.9285 0.9296 0.9288 0.9293 0.9302
3159.000000 0.9303 0.9293 0.9301 0.9295 0.9293
3154.000000 0.9310 0.9314 0.9316 0.9317 0.9319
3149.000000 0.9321 0.9304 0.9307 0.9309 0.9309
3144.000000 0.9311 0.9312 0.9312 0.9319 0.9332
3139.000000 0.9334 0.9335 0.9336 0.9337 0.9338
3134.000000 0.9339 0.9340 0.9342 0.9343 0.9345
3129.000000 0.9347 0.9349 0.9350 0.9351 0.9351
3124.000000 0.9350 0.9349 0.9349 0.9343 0.9337
3119.000000 0.9329 0.9322 0.9314 0.9307 0.9296
3114.000000 0.9287 0.9276 0.9265 0.9262 0.9259
3109.000000 0.9260 0.9261 0.9272 0.9281 0.9281
3104.000000 0.9281 0.9281 0.9281 0.9280 0.9294
3099.000000 0.9296 0.9295 0.9309 0.9325 0.9340
3094.000000 0.9337 0.9334 0.9329 0.9310 0.9303
3089.000000 0.9282 0.9265 0.9263 0.9264 0.9237
3084.000000 0.9218 0.9214 0.9209 0.9206 0.9204
3079.000000 0.9201 0.9210 0.9225 0.9230 0.9229
3074.000000 0.9244 0.9248 0.9234 0.9232 0.9233
3069.000000 0.9217 0.9234 0.9219 0.9222 0.9224
3064.000000 0.9225 0.9212 0.9215 0.9218 0.9226
3059.000000 0.9240 0.9243 0.9239 0.9232 0.9248
3054.000000 0.9259 0.9253 0.9257 0.9271 0.9280
3049.000000 0.9284 0.9287 0.9290 0.9308 0.9315
3044.000000 0.9333 0.9354 0.9377 0.9398 0.9419
3039.000000 0.9423 0.9426 0.9426 0.9412 0.9401
3034.000000 0.9399 0.9384 0.9375 0.9377 0.9373
3029.000000 0.9364 0.9367 0.9360 0.9354 0.9355
3024.000000 0.9358 0.9359 0.9363 0.9366 0.9369
3019.000000 0.9385 0.9391 0.9393 0.9380 0.9381
3014.000000 0.9384 0.9386 0.9388 0.9390 0.9393
3009.000000 0.9395 0.9394 0.9382 0.9390 0.9404
3004.000000 0.9405 0.9398 0.9387 0.9389 0.9399
2999.000000 0.9398 0.9390 0.9392 0.9393 0.9393
2994.000000 0.9394 0.9408 0.9414 0.9414 0.9415
2989.000000 0.9415 0.9417 0.9417 0.9417 0.9415
2984.000000 0.9415 0.9415 0.9415 0.9414 0.9416
2979.000000 0.9430 0.9424 0.9417 0.9428 0.9427
2974.000000 0.9427 0.9425 0.9425 0.9424 0.9424
2969.000000 0.9433 0.9440 0.9440 0.9439 0.9438
2964.000000 0.9438 0.9436 0.9435 0.9434 0.9433
2959.000000 0.9450 0.9448 0.9430 0.9429 0.9428
2954.000000 0.9430 0.9442 0.9441 0.9440 0.9439
2949.000000 0.9438 0.9437 0.9428 0.9417 0.9416
2944.000000 0.9425 0.9421 0.9424 0.9416 0.9422
2939.000000 0.9424 0.9421 0.9418 0.9414 0.9395
2934.000000 0.9389 0.9386 0.9384 0.9381 0.9377
2929.000000 0.9374 0.9371 0.9368 0.9366 0.9362
2924.000000 0.9360 0.9359 0.9351 0.9339 0.9339
2919.000000 0.9338 0.9337 0.9336 0.9335 0.9334
2914.000000 0.9334 0.9334 0.9334 0.9333 0.9333
2909.000000 0.9333 0.9349 0.9350 0.9333 0.9332
2904.000000 0.9332 0.9332 0.9332 0.9332 0.9332
2899.000000 0.9330 0.9330 0.9330 0.9330 0.9330
2894.000000 0.9330 0.9328 0.9325 0.9322 0.9318
2889.000000 0.9296 0.9276 0.9257 0.9239 0.9222
2884.000000 0.9206 0.9191 0.9176 0.9162 0.9152
2879.000000 0.9140 0.9129 0.9105 0.9114 0.9108
2874.000000 0.9108 0.9107 0.9111 0.9115 0.9120
2869.000000 0.9124 0.9128 0.9136 0.9143 0.9150
2864.000000 0.9158 0.9165 0.9175 0.9182 0.9191
2859.000000 0.9198 0.9207 0.9214 0.9222 0.9228
2854.000000 0.9219 0.9222 0.9228 0.9234 0.9240
2849.000000 0.9245 0.9250 0.9259 0.9281 0.9286
2844.000000 0.9287 0.9282 0.9299 0.9302 0.9298
2839.000000 0.9298 0.9312 0.9316 0.9310 0.9305
2834.000000 0.9310 0.9313 0.9316 0.9318 0.9320
2829.000000 0.9336 0.9327 0.9342 0.9346 0.9330
2824.000000 0.9331 0.9349 0.9335 0.9352 0.9354
2819.000000 0.9352 0.9338 0.9339 0.9340 0.9341
2814.000000 0.9343 0.9344 0.9345 0.9345 0.9346
2809.000000 0.9346 0.9358 0.9365 0.9366 0.9366
2804.000000 0.9366 0.9366 0.9368 0.9368 0.9368
2799.000000 0.9368 0.9369 0.9369 0.9369 0.9369
2794.000000 0.9369 0.9369 0.9366 0.9355 0.9365
2789.000000 0.9351 0.9351 0.9351 0.9351 0.9359
2784.000000 0.9369 0.9362 0.9354 0.9364 0.9373
2779.000000 0.9373 0.9373 0.9375 0.9376 0.9376
2774.000000 0.9376 0.9378 0.9379 0.9379 0.9380
2769.000000 0.9381 0.9382 0.9382 0.9383 0.9383
2764.000000 0.9384 0.9384 0.9385 0.9385 0.9387
2759.000000 0.9387 0.9388 0.9388 0.9389 0.9389
2754.000000 0.9390 0.9390 0.9391 0.9391 0.9392
2749.000000 0.9392 0.9392 0.9392 0.9391 0.9389
2744.000000 0.9389 0.9388 0.9388 0.9387 0.9386
2739.000000 0.9385 0.9385 0.9384 0.9384 0.9383
2734.000000 0.9383 0.9382 0.9382 0.9382 0.9382
2729.000000 0.9382 0.9382 0.9381 0.9381 0.9381
2724.000000 0.9381 0.9381 0.9381 0.9379 0.9379
2719.000000 0.9379 0.9379 0.9379 0.9379 0.9378
2714.000000 0.9378 0.9378 0.9378 0.9378 0.9378
2709.000000 0.9377 0.9377 0.9377 0.9377 0.9377
2704.000000 0.9377 0.9375 0.9375 0.9375 0.9375
2699.000000 0.9375 0.9374 0.9372 0.9372 0.9371
2694.000000 0.9369 0.9367 0.9367 0.9366 0.9364
2689.000000 0.9364 0.9363 0.9362 0.9361 0.9360
2684.000000 0.9359 0.9358 0.9357 0.9355 0.9354
2679.000000 0.9353 0.9352 0.9352 0.9353 0.9353
2674.000000 0.9353 0.9353 0.9353 0.9353 0.9354
2669.000000 0.9354 0.9354 0.9354 0.9355 0.9355
2664.000000 0.9356 0.9356 0.9357 0.9358 0.9359
2659.000000 0.9359 0.9362 0.9379 0.9380 0.9380
2654.000000 0.9381 0.9381 0.9381 0.9377 0.9367
2649.000000 0.9367 0.9375 0.9386 0.9387 0.9377
2644.000000 0.9371 0.9371 0.9383 0.9375 0.9373
2639.000000 0.9373 0.9374 0.9374 0.9376 0.9376
2634.000000 0.9394 0.9395 0.9395 0.9378 0.9381
2629.000000 0.9397 0.9398 0.9399 0.9400 0.9400
2624.000000 0.9401 0.9401 0.9402 0.9402 0.9403
2619.000000 0.9403 0.9404 0.9404 0.9405 0.9405
2614.000000 0.9406 0.9406 0.9407 0.9407 0.9408
2609.000000 0.9408 0.9409 0.9409 0.9410 0.9410
2604.000000 0.9411 0.9411 0.9412 0.9412 0.9413
2599.000000 0.9413 0.9414 0.9414 0.9415 0.9415
2594.000000 0.9415 0.9414 0.9414 0.9414 0.9414
2589.000000 0.9414 0.9414 0.9413 0.9413 0.9413
2584.000000 0.9413 0.9413 0.9413 0.9412 0.9412
2579.000000 0.9412 0.9412 0.9412 0.9412 0.9411
2574.000000 0.9411 0.9411 0.9411 0.9411 0.9411
2569.000000 0.9410 0.9410 0.9410 0.9409 0.9409
2564.000000 0.9411 0.9411 0.9412 0.9412 0.9413
2559.000000 0.9413 0.9414 0.9414 0.9415 0.9415
2554.000000 0.9416 0.9416 0.9417 0.9417 0.9418
2549.000000 0.9418 0.9419 0.9419 0.9420 0.9420
2544.000000 0.9421 0.9421 0.9422 0.9422 0.9423
2539.000000 0.9423 0.9424 0.9424 0.9425 0.9425
2534.000000 0.9426 0.9426 0.9427 0.9427 0.9428
2529.000000 0.9428 0.9428 0.9428 0.9429 0.9429
2524.000000 0.9430 0.9430 0.9431 0.9431 0.9431
2519.000000 0.9431 0.9432 0.9432 0.9432 0.9432
2514.000000 0.9434 0.9434 0.9435 0.9435 0.9435
2509.000000 0.9435 0.9435 0.9435 0.9437 0.9437
2504.000000 0.9437 0.9437 0.9435 0.9435 0.9435
2499.000000 0.9432 0.9430 0.9427 0.9425 0.9422
2494.000000 0.9420 0.9418 0.9416 0.9412 0.9410
2489.000000 0.9408 0.9406 0.9403 0.9401 0.9399
2484.000000 0.9396 0.9394 0.9394 0.9405 0.9413
2479.000000 0.9413 0.9414 0.9415 0.9416 0.9416
2474.000000 0.9417 0.9418 0.9419 0.9419 0.9420
2469.000000 0.9420 0.9421 0.9421 0.9422 0.9423
2464.000000 0.9424 0.9424 0.9426 0.9425 0.9427
2459.000000 0.9427 0.9419 0.9420 0.9420 0.9412
2454.000000 0.9413 0.9425 0.9432 0.9432 0.9418
2449.000000 0.9428 0.9433 0.9433 0.9433 0.9433
2444.000000 0.9434 0.9434 0.9434 0.9434 0.9435
2439.000000 0.9435 0.9436 0.9436 0.9436 0.9436
2434.000000 0.9437 0.9438 0.9439 0.9440 0.9441
2429.000000 0.9442 0.9443 0.9443 0.9444 0.9445
2424.000000 0.9446 0.9446 0.9447 0.9447 0.9448
2419.000000 0.9448 0.9448 0.9448 0.9450 0.9450
2414.000000 0.9450 0.9450 0.9450 0.9450 0.9450
2409.000000 0.9453 0.9460 0.9454 0.9466 0.9466
2404.000000 0.9466 0.9466 0.9466 0.9465 0.9465
2399.000000 0.9464 0.9463 0.9461 0.9461 0.9460
2394.000000 0.9460 0.9459 0.9459 0.9458 0.9458
2389.000000 0.9458 0.9458 0.9457 0.9457 0.9457
2384.000000 0.9456 0.9456 0.9456 0.9456 0.9455
2379.000000 0.9455 0.9455 0.9454 0.9454 0.9454
2374.000000 0.9454 0.9453 0.9453 0.9453 0.9453
2369.000000 0.9452 0.9452 0.9452 0.9451 0.9451
2364.000000 0.9451 0.9451 0.9450 0.9450 0.9450
2359.000000 0.9449 0.9449 0.9449 0.9449 0.9448
2354.000000 0.9448 0.9448 0.9447 0.9447 0.9447
2349.000000 0.9447 0.9446 0.9446 0.9446 0.9445
2344.000000 0.9445 0.9445 0.9445 0.9444 0.9444
2339.000000 0.9444 0.9444 0.9443 0.9443 0.9440
2334.000000 0.9457 0.9455 0.9452 0.9453 0.9467
2329.000000 0.9465 0.9464 0.9467 0.9477 0.9482
2324.000000 0.9492 0.9490 0.9488 0.9486 0.9484
2319.000000 0.9482 0.9480 0.9478 0.9477 0.9474
2314.000000 0.9471 0.9470 0.9469 0.9467 0.9466
2309.000000 0.9463 0.9461 0.9459 0.9458 0.9456
2304.000000 0.9454 0.9451 0.9449 0.9447 0.9446
2299.000000 0.9449 0.9459 0.9457 0.9455 0.9453
2294.000000 0.9451 0.9448 0.9447 0.9446 0.9445
2289.000000 0.9444 0.9430 0.9423 0.9422 0.9427
2284.000000 0.9434 0.9423 0.9426 0.9432 0.9437
2279.000000 0.9442 0.9430 0.9435 0.9438 0.9429
2274.000000 0.9434 0.9439 0.9439 0.9430 0.9433
2269.000000 0.9429 0.9423 0.9426 0.9430 0.9422
2264.000000 0.9419 0.9422 0.9426 0.9415 0.9413
2259.000000 0.9415 0.9404 0.9403 0.9406 0.9408
2254.000000 0.9394 0.9396 0.9399 0.9399 0.9387
2249.000000 0.9389 0.9392 0.9394 0.9397 0.9394
2244.000000 0.9385 0.9387 0.9389 0.9391 0.9394
2239.000000 0.9396 0.9400 0.9402 0.9405 0.9395
2234.000000 0.9392 0.9395 0.9397 0.9399 0.9402
2229.000000 0.9404 0.9407 0.9409 0.9413 0.9415
2224.000000 0.9417 0.9420 0.9419 0.9406 0.9410
2219.000000 0.9412 0.9414 0.9416 0.9419 0.9421
2214.000000 0.9423 0.9426 0.9429 0.9430 0.9432
2209.000000 0.9433 0.9435 0.9436 0.9438 0.9439
2204.000000 0.9441 0.9442 0.9443 0.9445 0.9447
2199.000000 0.9448 0.9448 0.9448 0.9448 0.9436
2194.000000 0.9452 0.9448 0.9434 0.9434 0.9436
2189.000000 0.9437 0.9437 0.9437 0.9439 0.9440
2184.000000 0.9451 0.9448 0.9442 0.9443 0.9444
2179.000000 0.9444 0.9459 0.9464 0.9465 0.9465
2174.000000 0.9466 0.9466 0.9467 0.9468 0.9470
2169.000000 0.9467 0.9453 0.9454 0.9455 0.9455
2164.000000 0.9456 0.9456 0.9457 0.9457 0.9458
2159.000000 0.9458 0.9458 0.9458 0.9459 0.9459
2154.000000 0.9460 0.9460 0.9460 0.9460 0.9461
2149.000000 0.9461 0.9462 0.9462 0.9462 0.9462
2144.000000 0.9463 0.9463 0.9464 0.9464 0.9464
2139.000000 0.9464 0.9465 0.9465 0.9466 0.9466
2134.000000 0.9466 0.9466 0.9467 0.9467 0.9467
2129.000000 0.9467 0.9467 0.9467 0.9468 0.9468
2124.000000 0.9468 0.9468 0.9453 0.9466 0.9469
2119.000000 0.9469 0.9469 0.9469 0.9469 0.9469
2114.000000 0.9470 0.9470 0.9470 0.9470 0.9470
2109.000000 0.9470 0.9471 0.9471 0.9471 0.9471
2104.000000 0.9471 0.9471 0.9471 0.9471 0.9471
2099.000000 0.9471 0.9458 0.9453 0.9467 0.9471
2094.000000 0.9455 0.9469 0.9471 0.9471 0.9471
2089.000000 0.9470 0.9470 0.9470 0.9470 0.9470
2084.000000 0.9470 0.9470 0.9470 0.9470 0.9470
2079.000000 0.9470 0.9470 0.9469 0.9469 0.9469
2074.000000 0.9469 0.9469 0.9469 0.9468 0.9468
2069.000000 0.9468 0.9468 0.9468 0.9468 0.9467
2064.000000 0.9467 0.9467 0.9467 0.9467 0.9467
2059.000000 0.9466 0.9466 0.9470 0.9484 0.9484
2054.000000 0.9484 0.9482 0.9475 0.9473 0.9482
2049.000000 0.9472 0.9463 0.9462 0.9462 0.9461
2044.000000 0.9461 0.9460 0.9460 0.9459 0.9459
2039.000000 0.9458 0.9458 0.9457 0.9457 0.9456
2034.000000 0.9456 0.9455 0.9455 0.9454 0.9454
2029.000000 0.9451 0.9455 0.9459 0.9446 0.9451
2024.000000 0.9461 0.9459 0.9456 0.9454 0.9452
2019.000000 0.9448 0.9441 0.9437 0.9432 0.9420
2014.000000 0.9408 0.9398 0.9387 0.9376 0.9367
2009.000000 0.9361 0.9356 0.9354 0.9352 0.9352
2004.000000 0.9352 0.9351 0.9351 0.9351 0.9351
1999.000000 0.9352 0.9345 0.9339 0.9358 0.9383
1994.000000 0.9406 0.9431 0.9454 0.9474 0.9475
1989.000000 0.9476 0.9476 0.9478 0.9464 0.9462
1984.000000 0.9464 0.9465 0.9465 0.9464 0.9464
1979.000000 0.9462 0.9444 0.9444 0.9444 0.9444
1974.000000 0.9442 0.9440 0.9440 0.9439 0.9436
1969.000000 0.9430 0.9423 0.9416 0.9416 0.9397
1964.000000 0.9370 0.9365 0.9352 0.9336 0.9321
1959.000000 0.9355 0.9453 0.9550 0.9615 0.9605
1954.000000 0.9553 0.9515 0.9466 0.9407 0.9398
1949.000000 0.9383 0.9384 0.9384 0.9384 0.9386
1944.000000 0.9388 0.9390 0.9392 0.9395 0.9397
1939.000000 0.9397 0.9397 0.9397 0.9387 0.9376
1934.000000 0.9361 0.9343 0.9327 0.9312 0.9296
1929.000000 0.9288 0.9287 0.9283 0.9280 0.9278
1924.000000 0.9278 0.9286 0.9297 0.9304 0.9312
1919.000000 0.9319 0.9327 0.9334 0.9340 0.9347
1914.000000 0.9353 0.9359 0.9366 0.9372 0.9372
1909.000000 0.9374 0.9376 0.9390 0.9396 0.9397
1904.000000 0.9397 0.9399 0.9400 0.9399 0.9396
1899.000000 0.9394 0.9389 0.9386 0.9383 0.9380
1894.000000 0.9377 0.9373 0.9371 0.9365 0.9352
1889.000000 0.9352 0.9352 0.9351 0.9351 0.9351
1884.000000 0.9361 0.9368 0.9368 0.9368 0.9369
1879.000000 0.9371 0.9373 0.9375 0.9377 0.9395
1874.000000 0.9398 0.9400 0.9402 0.9403 0.9403
1869.000000 0.9403 0.9403 0.9405 0.9405 0.9402
1864.000000 0.9398 0.9395 0.9390 0.9386 0.9382
1859.000000 0.9378 0.9373 0.9379 0.9367 0.9355
1854.000000 0.9349 0.9344 0.9337 0.9331 0.9325
1849.000000 0.9318 0.9315 0.9313 0.9312 0.9311
1844.000000 0.9310 0.9307 0.9307 0.9306 0.9307
1839.000000 0.9311 0.9314 0.9316 0.9312 0.9305
1834.000000 0.9308 0.9310 0.9313 0.9316 0.9320
1829.000000 0.9325 0.9329 0.9332 0.9332 0.9329
1824.000000 0.9324 0.9319 0.9315 0.9308 0.9301
1819.000000 0.9312 0.9304 0.9296 0.9289 0.9282
1814.000000 0.9274 0.9269 0.9263 0.9257 0.9251
1809.000000 0.9244 0.9235 0.9240 0.9244 0.9248
1804.000000 0.9243 0.9239 0.9243 0.9252 0.9263
1799.000000 0.9275 0.9285 0.9297 0.9309 0.9320
1794.000000 0.9330 0.9339 0.9348 0.9357 0.9366
1789.000000 0.9374 0.9382 0.9390 0.9398 0.9402
1784.000000 0.9405 0.9406 0.9408 0.9410 0.9412
1779.000000 0.9414 0.9416 0.9417 0.9407 0.9400
1774.000000 0.9400 0.9401 0.9401 0.9401 0.9401
1769.000000 0.9401 0.9401 0.9401 0.9401 0.9403
1764.000000 0.9405 0.9404 0.9407 0.9408 0.9409
1759.000000 0.9412 0.9428 0.9429 0.9429 0.9429
1754.000000 0.9429 0.9428 0.9426 0.9424 0.9419
1749.000000 0.9410 0.9402 0.9417 0.9383 0.9376
1744.000000 0.9374 0.9375 0.9377 0.9378 0.9378
1739.000000 0.9379 0.9380 0.9381 0.9381 0.9381
1734.000000 0.9382 0.9382 0.9383 0.9383 0.9384
1729.000000 0.9384 0.9384 0.9382 0.9382 0.9383
1724.000000 0.9382 0.9383 0.9382 0.9381 0.9381
1719.000000 0.9381 0.9381 0.9379 0.9380 0.9380
1714.000000 0.9380 0.9379 0.9378 0.9379 0.9378
1709.000000 0.9379 0.9379 0.9379 0.9379 0.9379
1704.000000 0.9379 0.9378 0.9379 0.9378 0.9378
1699.000000 0.9378 0.9377 0.9377 0.9377 0.9377
1694.000000 0.9376 0.9369 0.9366 0.9363 0.9359
1689.000000 0.9353 0.9347 0.9340 0.9334 0.9328
1684.000000 0.9321 0.9313 0.9305 0.9297 0.9289
1679.000000 0.9281 0.9273 0.9265 0.9257 0.9249
1674.000000 0.9243 0.9245 0.9251 0.9246 0.9240
1669.000000 0.9236 0.9230 0.9225 0.9219 0.9214
1664.000000 0.9209 0.9210 0.9208 0.9206 0.9221
1659.000000 0.9206 0.9203 0.9219 0.9219 0.9218
1654.000000 0.9219 0.9216 0.9204 0.9217 0.9214
1649.000000 0.9201 0.9164 0.9127 0.9105 0.9093
1644.000000 0.9071 0.9053 0.9050 0.9048 0.9036
1639.000000 0.9026 0.9029 0.9027 0.9033 0.9029
1634.000000 0.9022 0.9029 0.9023 0.9016 0.8990
1629.000000 0.8982 0.8957 0.8935 0.8892 0.8857
1624.000000 0.8821 0.8779 0.8727 0.8669 0.8592
1619.000000 0.8521 0.8418 0.8323 0.8229 0.7763
1614.000000 0.6085 0.4473 0.2215 0.2218 0.2231
1609.000000 0.2365 0.2793 0.3225 0.3668 0.4119
1604.000000 0.4578 0.5026 0.5115 0.5171 0.5208
1599.000000 0.5253 0.5683 0.6147 0.6623 0.7110
1594.000000 0.7412 0.7529 0.7617 0.7711 0.7772
1589.000000 0.7833 0.7873 0.7905 0.7937 0.7941
1584.000000 0.7924 0.7901 0.7877 0.7840 0.7822
1579.000000 0.7795 0.7765 0.7751 0.7722 0.7696
1574.000000 0.7664 0.7648 0.7648 0.7667 0.7702
1569.000000 0.7738 0.7761 0.7812 0.7861 0.7724
1564.000000 0.7699 0.7719 0.7794 0.7869 0.7995
1559.000000 0.8135 0.8257 0.7881 0.7742 0.7583
1554.000000 0.7136 0.7053 0.6945 0.6722 0.6271
1549.000000 0.5162 0.4707 0.4165 0.3609 0.3069
1544.000000 0.2534 0.2011 0.1502 0.1014 0.0546
1539.000000 0.0340 0.0331 0.0320 0.0992 0.1636
1534.000000 0.2255 0.2856 0.3442 0.4009 0.4896
1529.000000 0.5702 0.5956 0.6165 0.6270 0.6375
1524.000000 0.6493 0.6654 0.6901 0.7276 0.7392
1519.000000 0.7507 0.7600 0.7701 0.7762 0.7790
1514.000000 0.7826 0.7848 0.7877 0.7877 0.7879
1509.000000 0.7885 0.7887 0.7890 0.7909 0.7927
1504.000000 0.7956 0.7983 0.7995 0.8001 0.7998
1499.000000 0.7938 0.7877 0.7826 0.7775 0.7740
1494.000000 0.7679 0.7632 0.7581 0.7526 0.7466
1489.000000 0.7245 0.6665 0.6094 0.6041 0.6029
1484.000000 0.6320 0.6831 0.7349 0.7860 0.7995
1479.000000 0.8172 0.8268 0.8337 0.8419 0.8451
1474.000000 0.8465 0.8501 0.8560 0.8605 0.8648
1469.000000 0.8692 0.8734 0.8790 0.8831 0.8882
1464.000000 0.8893 0.8915 0.8924 0.8940 0.8940
1459.000000 0.8936 0.8925 0.8925 0.8927 0.8923
1454.000000 0.8917 0.8921 0.8930 0.8940 0.8952
1449.000000 0.8977 0.9013 0.9037 0.9061 0.9092
1444.000000 0.9115 0.9136 0.9157 0.9163 0.9147
1439.000000 0.9149 0.9151 0.9153 0.9160 0.9172
1434.000000 0.9187 0.9202 0.9222 0.9249 0.9260
1429.000000 0.9270 0.9274 0.9281 0.9302 0.9314
1424.000000 0.9314 0.9317 0.9328 0.9340 0.9352
1419.000000 0.9364 0.9376 0.9387 0.9384 0.9393
1414.000000 0.9406 0.9418 0.9432 0.9445 0.9458
1409.000000 0.9462 0.9468 0.9473 0.9478 0.9482
1404.000000 0.9486 0.9488 0.9489 0.9491 0.9493
1399.000000 0.9495 0.9506 0.9515 0.9546 0.9514
1394.000000 0.9514 0.9513 0.9512 0.9510 0.9520
1389.000000 0.9535 0.9533 0.9561 0.9590 0.9610
1384.000000 0.9592 0.9512 0.9412 0.9286 0.9160
1379.000000 0.9049 0.8955 0.8867 0.8773 0.8673
1374.000000 0.8594 0.8517 0.8438 0.8345 0.8242
1369.000000 0.8138 0.8032 0.7838 0.7645 0.7495
1364.000000 0.7285 0.7002 0.6765 0.6394 0.6220
1359.000000 0.5671 0.5080 0.4490 0.3893 0.3303
1354.000000 0.2715 0.2126 0.1536 0.1426 0.1425
1349.000000 0.1439 0.1675 0.2454 0.3231 0.4007
1344.000000 0.4782 0.5782 0.6249 0.6519 0.6749
1339.000000 0.6939 0.7127 0.7339 0.7510 0.7629
1334.000000 0.7647 0.7661 0.7677 0.7705 0.7736
1329.000000 0.7869 0.7965 0.8056 0.8138 0.8203
1324.000000 0.8266 0.8305 0.8331 0.8369 0.8417
1319.000000 0.8441 0.8454 0.8496 0.8492 0.8501
1314.000000 0.8509 0.8425 0.8356 0.8235 0.8140
1309.000000 0.8081 0.8093 0.8090 0.8108 0.8168
1304.000000 0.8220 0.8286 0.8333 0.8377 0.8418
1299.000000 0.8464 0.8511 0.8557 0.8585 0.8620
1294.000000 0.8642 0.8666 0.8679 0.8680 0.8679
1289.000000 0.8687 0.8696 0.8705 0.8711 0.8719
1284.000000 0.8727 0.8735 0.8743 0.8750 0.8757
1279.000000 0.8765 0.8771 0.8779 0.8807 0.8834
1274.000000 0.8804 0.8755 0.8672 0.8576 0.8416
1269.000000 0.7506 0.6595 0.6123 0.6134 0.6543
1264.000000 0.6986 0.7430 0.7867 0.8168 0.8225
1259.000000 0.8282 0.8341 0.8498 0.8577 0.8595
1254.000000 0.8608 0.8607 0.8601 0.8598 0.8597
1249.000000 0.8581 0.8566 0.8503 0.7905 0.7221
1244.000000 0.6530 0.5850 0.5213 0.5226 0.5228
1239.000000 0.5846 0.7011 0.7623 0.7782 0.7972
1234.000000 0.8183 0.8341 0.8445 0.8533 0.8617
1229.000000 0.8696 0.8775 0.8821 0.8869 0.8913
1224.000000 0.8944 0.8976 0.9007 0.9031 0.9046
1219.000000 0.9061 0.9076 0.9090 0.9097 0.9104
1214.000000 0.9109 0.9120 0.9136 0.9142 0.9146
1209.000000 0.9150 0.9154 0.9159 0.9163 0.9167
1204.000000 0.9172 0.9177 0.9182 0.9188 0.9194
1199.000000 0.9199 0.9190 0.9193 0.9199 0.9203
1194.000000 0.9208 0.9229 0.9234 0.9238 0.9242
1189.000000 0.9246 0.9249 0.9253 0.9257 0.9261
1184.000000 0.9264 0.9259 0.9258 0.9234 0.9244
1179.000000 0.9251 0.9261 0.9245 0.9210 0.9197
1174.000000 0.9199 0.9200 0.9201 0.9203 0.9204
1169.000000 0.9205 0.9207 0.9226 0.9228 0.9229
1164.000000 0.9226 0.9211 0.9181 0.9142 0.9085
1159.000000 0.8975 0.8891 0.8875 0.8872 0.8870
1154.000000 0.8868 0.8907 0.8996 0.9036 0.9067
1149.000000 0.9073 0.9061 0.9049 0.9043 0.9030
1144.000000 0.9012 0.8976 0.8822 0.8531 0.8240
1139.000000 0.7966 0.7913 0.7904 0.8030 0.8238
1134.000000 0.8428 0.8611 0.8806 0.8945 0.8970
1129.000000 0.8983 0.8985 0.8996 0.9009 0.9020
1124.000000 0.9030 0.9039 0.9062 0.9079 0.9089
1119.000000 0.9099 0.9106 0.9117 0.9141 0.9152
1114.000000 0.9160 0.9166 0.9172 0.9176 0.9180
1109.000000 0.9190 0.9172 0.9182 0.9169 0.9164
1104.000000 0.9147 0.9130 0.9110 0.9074 0.9037
1099.000000 0.8975 0.8901 0.8825 0.8743 0.8666
1094.000000 0.8605 0.8543 0.8435 0.8332 0.8288
1089.000000 0.8270 0.8266 0.8268 0.8284 0.8321
1084.000000 0.8369 0.8454 0.8520 0.8574 0.8627
1079.000000 0.8671 0.8714 0.8770 0.8778 0.8797
1074.000000 0.8816 0.8843 0.8869 0.8886 0.8903
1069.000000 0.8918 0.8934 0.8943 0.8953 0.8960
1064.000000 0.8963 0.8970 0.8989 0.8994 0.8996
1059.000000 0.8979 0.8991 0.8963 0.8920 0.8894
1054.000000 0.8872 0.8871 0.8875 0.8894 0.8919
1049.000000 0.8933 0.8945 0.8962 0.8979 0.8998
1044.000000 0.9017 0.9028 0.9040 0.9051 0.9052
1039.000000 0.9055 0.9056 0.9057 0.9052 0.9047
1034.000000 0.9029 0.8993 0.8938 0.8883 0.8774
1029.000000 0.8786 0.8779 0.8788 0.8794 0.8801
1024.000000 0.8825 0.8852 0.8881 0.8912 0.8943
1019.000000 0.8973 0.9003 0.9036 0.9065 0.9079
1014.000000 0.9094 0.9109 0.9124 0.9137 0.9143
1009.000000 0.9149 0.9139 0.9143 0.9149 0.9153
1004.000000 0.9140 0.9143 0.9147 0.9150 0.9154
999.000000 0.9157 0.9157 0.9147 0.9150 0.9153
994.000000 0.9157 0.9159 0.9167 0.9177 0.9177
989.000000 0.9177 0.9177 0.9176 0.9176 0.9176
984.000000 0.9177 0.9177 0.9177 0.9177 0.9177
979.000000 0.9177 0.9177 0.9177 0.9177 0.9177
974.000000 0.9176 0.9174 0.9162 0.9176 0.9176
969.000000 0.9176 0.9176 0.9176 0.9176 0.9176
964.000000 0.9176 0.9176 0.9176 0.9175 0.9175
959.000000 0.9175 0.9175 0.9175 0.9175 0.9175
954.000000 0.9141 0.9103 0.9069 0.8982 0.8849
949.000000 0.8715 0.8599 0.8593 0.8615 0.8591
944.000000 0.8635 0.8780 0.8924 0.8999 0.9018
939.000000 0.9037 0.9057 0.9071 0.9079 0.9088
934.000000 0.9096 0.9105 0.9113 0.9115 0.9117
929.000000 0.9120 0.9122 0.9124 0.9126 0.9128
924.000000 0.9131 0.9133 0.9135 0.9137 0.9139
919.000000 0.9145 0.9159 0.9151 0.9166 0.9169
914.000000 0.9171 0.9174 0.9223 0.9194 0.9195
909.000000 0.9196 0.9206 0.9216 0.9216 0.9229
904.000000 0.9234 0.9226 0.9232 0.9229 0.9236
899.000000 0.9227 0.9232 0.9238 0.9245 0.9243
894.000000 0.9255 0.9253 0.9252 0.9245 0.9237
889.000000 0.9234 0.9242 0.9242 0.9247 0.9248
884.000000 0.9260 0.9265 0.9258 0.9261 0.9256
879.000000 0.9202 0.9146 0.9101 0.9063 0.9025
874.000000 0.8937 0.8752 0.8518 0.8434 0.8399
869.000000 0.8343 0.7859 0.6507 0.5129 0.3187
864.000000 0.3198 0.3216 0.3257 0.4279 0.5315
859.000000 0.6354 0.7396 0.8053 0.8097 0.8113
854.000000 0.8105 0.8080 0.8042 0.8056 0.8226
849.000000 0.8367 0.8510 0.8584 0.8572 0.8572
844.000000 0.8573 0.8668 0.8701 0.8728 0.8738
839.000000 0.8761 0.8774 0.8809 0.8823 0.8846
834.000000 0.8858 0.8863 0.8869 0.8874 0.8887
829.000000 0.8902 0.8906 0.8919 0.8925 0.8934
824.000000 0.8943 0.8952 0.8959 0.8960 0.8947
819.000000 0.8949 0.8944 0.8930 0.8907 0.8816
814.000000 0.8275 0.7566 0.6586 0.6605 0.6610
809.000000 0.6993 0.7448 0.7894 0.8357 0.8544
804.000000 0.8612 0.8678 0.8739 0.8778 0.8806
799.000000 0.8827 0.8847 0.8869 0.8882 0.8895
794.000000 0.8893 0.8890 0.8891 0.8910 0.8895
789.000000 0.8894 0.8885 0.8876 0.8868 0.8854
784.000000 0.8821 0.8771 0.8700 0.8633 0.8477
779.000000 0.8268 0.7120 0.5848 0.4586 0.4541
774.000000 0.4518 0.4771 0.5415 0.6065 0.6713
769.000000 0.7434 0.7603 0.7766 0.7907 0.8037
764.000000 0.8234 0.8344 0.8423 0.8482 0.8528
759.000000 0.8557 0.8586 0.8603 0.8620 0.8627
754.000000 0.8633 0.8662 0.8641 0.8599 0.8554
749.000000 0.8389 0.8217 0.8113 0.6923 0.5475
744.000000 0.4028 0.2582 0.1474 0.1458 0.1467
739.000000 0.2754 0.5244 0.5762 0.6280 0.6799
734.000000 0.7110 0.7272 0.7434 0.7629 0.7843
729.000000 0.8020 0.8239 0.8296 0.8307 0.8325
724.000000 0.8337 0.8375 0.8419 0.8508 0.8580
719.000000 0.8624 0.8668 0.8707 0.8734 0.8750
714.000000 0.8777 0.8797 0.8813 0.8829 0.8838
709.000000 0.8847 0.8858 0.8868 0.8879 0.8886
704.000000 0.8892 0.8914 0.8916 0.8920 0.8936
699.000000 0.8937 0.8940 0.8943 0.9001 0.8961
694.000000 0.8976 0.8962 0.8935 0.8889 0.8840
689.000000 0.8790 0.8747 0.8699 0.8632 0.8528
684.000000 0.8452 0.8441 0.8441 0.8451 0.8487
679.000000 0.8565 0.8654 0.8719 0.8797 0.8894
674.000000 0.8970 0.9051 0.9034 0.9032 0.9057
669.000000 0.9176 0.9259 0.9144 0.9028 0.9006
664.000000 0.9002 0.8967 0.8931 0.8869 0.8451
659.000000 0.7878 0.7288 0.7022 0.7041 0.7052
654.000000 0.7248 0.7458 0.7651 0.7860 0.8051
649.000000 0.8243 0.8382 0.8445 0.8498 0.8563
644.000000 0.8622 0.8673 0.8736 0.8780 0.8813
639.000000 0.8856 0.8885 0.8889 0.8911 0.8929
634.000000 0.8929 0.8944 0.8950 0.8952 0.8967
629.000000 0.8985 0.8989 0.9006 0.9007 0.9025
624.000000 0.9037 0.9029 0.9037 0.9047 0.9056
619.000000 0.9068 0.9092 0.9095 0.9087 0.9090
614.000000 0.9087 0.9081 0.9085 0.9089 0.9093
609.000000 0.9096 0.9100 0.9093 0.9092 0.9094
604.000000 0.9098 0.9101 0.9103 0.9105 0.9108
599.000000 0.9112 0.9114 0.9117 0.9121 0.9123
594.000000 0.9128 0.9132 0.9136 0.9139 0.9143
589.000000 0.9148 0.9151 0.9148 0.9146 0.9149
584.000000 0.9140 0.9141 0.9141 0.9140 0.9140
579.000000 0.9139 0.9136 0.9119 0.9106 0.9089
574.000000 0.9085 0.9071 0.9055 0.9040 0.9022
569.000000 0.9013 0.9003 0.8987 0.8990 0.9007
564.000000 0.9006 0.8995 0.8997 0.9001 0.9004
559.000000 0.9008 0.9012 0.9015 0.9019 0.9012
554.000000 0.9006 0.9009 0.8996 0.9001 0.9004
549.000000 0.9000 0.8996 0.8976 0.8949 0.8877
544.000000 0.8773 0.8668 0.8565 0.8461 0.8405
539.000000 0.8384 0.8400 0.8459 0.8564 0.8652
534.000000 0.8738 0.8842 0.8921 0.8926 0.8931
529.000000 0.8936 0.8938 0.8937 0.8951 0.8957
524.000000 0.8959 0.8960 0.8960 0.8960 0.8960
519.000000 0.8959 0.8942 0.8918 0.8876 0.8834
514.000000 0.8795 0.8759 0.8732 0.8709 0.8690
509.000000 0.8677 0.8683 0.8695 0.8707 0.8719
504.000000 0.8730 0.8742 0.8750 0.8754 0.8759
499.000000 0.8763 0.8767 0.8771 0.8774 0.8778
494.000000 0.8780 0.8783 0.8785 0.8788 0.8791
489.000000 0.8792 0.8792 0.8795 0.8796 0.8796
484.000000 0.8798 0.8799 0.8800 0.8801 0.8801
479.000000 0.8800 0.8800 0.8800 0.8799 0.8799
474.000000 0.8799 0.8798 0.8798 0.8795 0.8792
469.000000 0.8790 0.8787 0.8785 0.8783 0.8781
464.000000 0.8778 0.8776 0.8773 0.8770 0.8768
459.000000 0.8766 0.8765 0.8763 0.8762 0.8761
454.000000 0.8759 0.8758 0.8757 0.8757 0.8755
449.000000 0.8755 0.8755 0.8754 0.8754 0.8754
444.000000 0.8753 0.8753 0.8753 0.8752 0.8752
439.000000 0.8752 0.8751 0.8748
##END=
