##TITLE=CIS-1,2-DICHLOROETHYLENE
##JCAMP-DX=4.24
##DATA TYPE=INFRARED SPECTRUM
##CLASS=COBLENTZ
##ORIGIN=W.T. BOLLETER
##OWNER=COBLENTZ SOCIETY
Collection (C) 2018 copyright by the U.S. Secretary of Commerce
on behalf of the United States of America. All rights reserved.
##DATE=Not specified, most likely prior to 1970
##NAMES=(Z)-1,2-dichloroethene
##CAS REGISTRY NO=156-59-2
##MOLFORM=C2 H2 Cl2
##SOURCE REFERENCE=COBLENTZ NO. 4468
##$NIST SOURCE=COBLENTZ
##$NIST IMAGE=cob4468
##SPECTROMETER/DATA SYSTEM=Not specified, most likely a prism, grating, or hybrid spectrometer.
##PATH LENGTH=0.0025 CM
##SAMPLING PROCEDURE=TRANSMISSION
##RESOLUTION=4
##DATA PROCESSING=DIGITIZED BY NIST FROM HARD COPY
##XUNITS=MICROMETERS
##YUNITS=TRANSMITTANCE
##XFACTOR=1.000000
##YFACTOR=1
##DELTAX=000.017467
##FIRSTX=14.524
##LASTX=37.9649
##FIRSTY=0.062
##MAXX=37.9649
##MINX=14.524
##MAXY=0.873
##MINY=0.062
##NPOINTS=1343
##XYDATA=(X++(Y..Y))
14.524000 0.0620 0.0620 0.0620 0.0620 0.0620
14.611401 0.0620 0.0620 0.0620 0.0620 0.0620
14.699000 0.0620 0.0620 0.0620 0.0640 0.0620
14.786401 0.0620 0.0640 0.0640 0.0640 0.0640
14.873000 0.0650 0.0670 0.0690 0.0720 0.0740
14.960401 0.0780 0.0800 0.0830 0.0850 0.0870
15.048000 0.0880 0.0940 0.0970 0.1010 0.1100
15.135401 0.1280 0.1330 0.1370 0.1400 0.1490
15.223000 0.1490 0.1580 0.1690 0.1810 0.1920
15.310401 0.2020 0.2130 0.2240 0.2310 0.2490
15.397000 0.2560 0.2680 0.2770 0.2880 0.2970
15.484401 0.3040 0.3180 0.3300 0.3380 0.3500
15.572000 0.3590 0.3640 0.3790 0.3890 0.4000
15.659401 0.4020 0.4110 0.4190 0.4270 0.4350
15.747000 0.4430 0.4500 0.4550 0.4670 0.4710
15.834401 0.4760 0.4820 0.4870 0.4920 0.5000
15.921000 0.5000 0.5070 0.5100 0.5140 0.5170
16.008401 0.5210 0.5240 0.5260 0.5280 0.5300
16.096000 0.5320 0.5350 0.5390 0.5400 0.5420
16.183401 0.5440 0.5460 0.5480 0.5480 0.5490
16.271000 0.5510 0.5550 0.5560 0.5620 0.5640
16.358401 0.5650 0.5690 0.5720 0.5780 0.5810
16.445000 0.5830 0.5850 0.5870 0.5900 0.5900
16.532401 0.5900 0.5900 0.5880 0.5870 0.5850
16.620000 0.5830 0.5810 0.5800 0.5760 0.5740
16.707401 0.5710 0.5690 0.5670 0.5670 0.5670
16.795000 0.5690 0.5690 0.5710 0.5710 0.5710
16.882401 0.5690 0.5690 0.5670 0.5650 0.5640
16.969000 0.5600 0.5530 0.5510 0.5490 0.5420
17.056401 0.5350 0.5240 0.5210 0.5080 0.5010
17.144000 0.5010 0.5000 0.4760 0.4660 0.4510
17.231401 0.4300 0.4140 0.3980 0.3710 0.3520
17.319000 0.3340 0.3130 0.2980 0.2700 0.2490
17.406401 0.2240 0.2010 0.1900 0.1600 0.1370
17.493000 0.1240 0.1120 0.0990 0.0870 0.0830
17.580401 0.0810 0.0800 0.0760 0.0740 0.0720
17.668000 0.0710 0.0710 0.0690 0.0690 0.0710
17.755401 0.0740 0.0760 0.0800 0.0830 0.0870
17.843000 0.1010 0.1030 0.1200 0.1440 0.1510
17.930401 0.1720 0.1950 0.2200 0.2470 0.2750
18.017000 0.3020 0.3270 0.3500 0.3700 0.4000
18.104401 0.4190 0.4480 0.4620 0.4850 0.5210
18.192000 0.5330 0.5550 0.5640 0.5800 0.5900
18.279401 0.6010 0.6170 0.6290 0.6380 0.6490
18.367000 0.6530 0.6610 0.6650 0.6740 0.6830
18.454401 0.6860 0.6930 0.7010 0.7040 0.7080
18.541000 0.7090 0.7150 0.7180 0.7220 0.7240
18.628401 0.7250 0.7290 0.7330 0.7360 0.7380
18.716000 0.7400 0.7410 0.7410 0.7430 0.7450
18.803401 0.7470 0.7470 0.7490 0.7500 0.7520
18.891000 0.7580 0.7590 0.7590 0.7610 0.7650
18.978401 0.7720 0.7750 0.7790 0.7810 0.7820
19.066000 0.7840 0.7930 0.7980 0.8000 0.8000
19.153401 0.8040 0.8060 0.8090 0.8110 0.8130
19.240000 0.8140 0.8140 0.8160 0.8180 0.8200
19.327401 0.8200 0.8200 0.8220 0.8220 0.8230
19.415000 0.8230 0.8250 0.8250 0.8270 0.8270
19.502401 0.8270 0.8270 0.8290 0.8290 0.8290
19.590000 0.8300 0.8300 0.8300 0.8320 0.8320
19.677401 0.8320 0.8320 0.8320 0.8320 0.8300
19.764000 0.8300 0.8300 0.8300 0.8300 0.8300
19.851401 0.8300 0.8290 0.8290 0.8270 0.8270
19.939000 0.8270 0.8250 0.8270 0.8250 0.8250
20.026401 0.8250 0.8250 0.8250 0.8230 0.8230
20.114000 0.8220 0.8220 0.8200 0.8180 0.8160
20.201401 0.8160 0.8160 0.8140 0.8140 0.8130
20.288000 0.8130 0.8130 0.8110 0.8090 0.8090
20.375401 0.8070 0.8070 0.8070 0.8070 0.8070
20.463000 0.8070 0.8060 0.8060 0.8060 0.8060
20.550401 0.8060 0.8060 0.8060 0.8060 0.8040
20.638000 0.8040 0.8020 0.8020 0.8020 0.8020
20.725401 0.8020 0.8020 0.8020 0.8000 0.8000
20.812000 0.8000 0.8000 0.8000 0.8000 0.8000
20.899401 0.8000 0.8000 0.8000 0.8000 0.7980
20.987000 0.7980 0.7980 0.7980 0.7980 0.7970
21.074401 0.7970 0.7970 0.7970 0.7970 0.7970
21.162000 0.7950 0.7950 0.7930 0.7910 0.7910
21.249401 0.7910 0.7910 0.7900 0.7900 0.7900
21.336000 0.7900 0.7880 0.7860 0.7840 0.7840
21.423401 0.7840 0.7840 0.7840 0.7840 0.7820
21.511000 0.7820 0.7820 0.7820 0.7820 0.7820
21.598401 0.7820 0.7820 0.7820 0.7820 0.7820
21.686000 0.7820 0.7820 0.7820 0.7820 0.7820
21.773401 0.7820 0.7820 0.7820 0.7810 0.7810
21.860000 0.7810 0.7810 0.7810 0.7810 0.7790
21.947401 0.7790 0.7770 0.7750 0.7740 0.7720
22.035000 0.7720 0.7720 0.7720 0.7720 0.7720
22.122401 0.7700 0.7700 0.7700 0.7700 0.7720
22.210000 0.7720 0.7720 0.7720 0.7740 0.7740
22.297401 0.7740 0.7740 0.7740 0.7740 0.7750
22.384000 0.7750 0.7770 0.7770 0.7770 0.7770
22.471401 0.7790 0.7810 0.7810 0.7810 0.7810
22.559000 0.7810 0.7810 0.7820 0.7820 0.7820
22.646401 0.7820 0.7820 0.7840 0.7840 0.7840
22.734000 0.7820 0.7820 0.7820 0.7840 0.7840
22.821401 0.7840 0.7840 0.7840 0.7840 0.7860
22.908000 0.7860 0.7860 0.7860 0.7860 0.7860
22.995401 0.7860 0.7880 0.7880 0.7880 0.7880
23.083000 0.7900 0.7910 0.7910 0.7910 0.7930
23.170401 0.7930 0.7930 0.7950 0.7950 0.7950
23.258000 0.7950 0.7970 0.7970 0.7970 0.7970
23.345401 0.7980 0.7980 0.7980 0.7980 0.7980
23.432000 0.7980 0.7980 0.7980 0.8000 0.8000
23.519401 0.8000 0.8000 0.8000 0.8000 0.8000
23.607000 0.8000 0.8000 0.8000 0.8000 0.8000
23.694401 0.8000 0.8000 0.8000 0.8000 0.8020
23.782000 0.8020 0.8020 0.8000 0.8000 0.8000
23.869401 0.8000 0.8000 0.8000 0.8000 0.8000
23.956000 0.8000 0.8000 0.8000 0.8000 0.8000
24.043401 0.8000 0.8000 0.8000 0.8000 0.8000
24.131000 0.8000 0.8000 0.8000 0.8000 0.8000
24.218401 0.8000 0.8000 0.8000 0.8000 0.8000
24.306000 0.8000 0.8000 0.8000 0.8000 0.8000
24.393401 0.8000 0.8000 0.8000 0.8020 0.8020
24.480000 0.8020 0.8020 0.8020 0.8020 0.8020
24.567401 0.8020 0.8040 0.8040 0.8060 0.8060
24.655000 0.8070 0.8070 0.8090 0.8090 0.8110
24.742401 0.8110 0.8130 0.8130 0.8140 0.8140
24.830000 0.8160 0.8160 0.8160 0.8180 0.8180
24.917401 0.8200 0.8200 0.8200 0.8220 0.8220
25.004000 0.8230 0.8230 0.8250 0.8250 0.8250
25.091401 0.8270 0.8270 0.8270 0.8270 0.8270
25.179000 0.8270 0.8270 0.8270 0.8270 0.8290
25.266401 0.8270 0.8270 0.8270 0.8270 0.8270
25.354000 0.8270 0.8270 0.8270 0.8270 0.8270
25.441401 0.8270 0.8250 0.8250 0.8250 0.8250
25.528000 0.8250 0.8250 0.8250 0.8250 0.8270
25.615401 0.8270 0.8270 0.8270 0.8290 0.8290
25.703000 0.8290 0.8290 0.8300 0.8300 0.8300
25.790401 0.8320 0.8320 0.8320 0.8340 0.8340
25.878000 0.8320 0.8320 0.8320 0.8320 0.8320
25.965401 0.8340 0.8340 0.8360 0.8360 0.8380
26.052000 0.8380 0.8380 0.8380 0.8380 0.8380
26.139401 0.8380 0.8380 0.8380 0.8380 0.8380
26.227000 0.8380 0.8380 0.8390 0.8390 0.8390
26.314401 0.8390 0.8390 0.8390 0.8410 0.8410
26.402000 0.8430 0.8430 0.8430 0.8430 0.8430
26.489401 0.8430 0.8410 0.8410 0.8410 0.8410
26.576000 0.8410 0.8430 0.8430 0.8430 0.8430
26.663401 0.8430 0.8430 0.8430 0.8430 0.8430
26.751000 0.8450 0.8450 0.8450 0.8450 0.8450
26.838401 0.8450 0.8450 0.8450 0.8450 0.8450
26.926000 0.8450 0.8460 0.8460 0.8480 0.8480
27.013401 0.8500 0.8500 0.8500 0.8500 0.8500
27.100000 0.8520 0.8520 0.8520 0.8520 0.8540
27.187401 0.8540 0.8540 0.8540 0.8540 0.8540
27.275000 0.8550 0.8550 0.8550 0.8550 0.8570
27.362401 0.8570 0.8570 0.8570 0.8570 0.8590
27.450000 0.8590 0.8610 0.8610 0.8610 0.8610
27.537401 0.8620 0.8620 0.8620 0.8620 0.8620
27.624000 0.8620 0.8640 0.8640 0.8640 0.8640
27.711401 0.8640 0.8640 0.8640 0.8660 0.8660
27.799000 0.8640 0.8640 0.8640 0.8640 0.8620
27.886401 0.8620 0.8620 0.8620 0.8620 0.8610
27.974000 0.8610 0.8610 0.8610 0.8610 0.8610
28.061401 0.8610 0.8590 0.8550 0.8550 0.8540
28.148000 0.8540 0.8540 0.8520 0.8520 0.8500
28.235401 0.8480 0.8480 0.8480 0.8480 0.8460
28.323000 0.8460 0.8460 0.8460 0.8460 0.8460
28.410401 0.8460 0.8480 0.8480 0.8480 0.8500
28.498000 0.8500 0.8500 0.8500 0.8500 0.8520
28.585401 0.8520 0.8520 0.8520 0.8520 0.8540
28.672000 0.8540 0.8540 0.8550 0.8550 0.8550
28.759401 0.8550 0.8550 0.8570 0.8570 0.8590
28.847000 0.8610 0.8620 0.8640 0.8640 0.8660
28.934401 0.8660 0.8680 0.8680 0.8680 0.8680
29.022000 0.8680 0.8700 0.8700 0.8700 0.8700
29.109401 0.8710 0.8710 0.8710 0.8710 0.8730
29.197000 0.8730 0.8730 0.8730 0.8730 0.8730
29.284401 0.8730 0.8730 0.8730 0.8730 0.8730
29.371000 0.8730 0.8730 0.8730 0.8730 0.8730
29.458401 0.8730 0.8730 0.8730 0.8710 0.8710
29.546000 0.8730 0.8730 0.8710 0.8710 0.8710
29.633401 0.8710 0.8710 0.8710 0.8710 0.8710
29.721000 0.8730 0.8730 0.8730 0.8730 0.8730
29.808401 0.8730 0.8730 0.8730 0.8730 0.8710
29.895000 0.8710 0.8710 0.8730 0.8730 0.8730
29.982401 0.8710 0.8710 0.8710 0.8710 0.8700
30.070000 0.8700 0.8700 0.8700 0.8700 0.8700
30.157401 0.8700 0.8700 0.8700 0.8700 0.8700
30.245000 0.8680 0.8680 0.8680 0.8680 0.8680
30.332401 0.8680 0.8660 0.8660 0.8660 0.8660
30.419000 0.8680 0.8680 0.8680 0.8680 0.8660
30.506401 0.8660 0.8660 0.8660 0.8640 0.8640
30.594000 0.8640 0.8640 0.8640 0.8640 0.8640
30.681401 0.8640 0.8640 0.8660 0.8660 0.8660
30.769000 0.8640 0.8640 0.8660 0.8660 0.8660
30.856401 0.8660 0.8660 0.8660 0.8640 0.8640
30.943000 0.8640 0.8620 0.8610 0.8590 0.8570
31.030401 0.8550 0.8550 0.8550 0.8550 0.8550
31.118000 0.8550 0.8550 0.8550 0.8540 0.8540
31.205401 0.8550 0.8550 0.8570 0.8570 0.8570
31.293000 0.8570 0.8570 0.8550 0.8550 0.8550
31.380401 0.8540 0.8520 0.8500 0.8450 0.8410
31.467000 0.8410 0.8410 0.8390 0.8390 0.8390
31.554401 0.8390 0.8410 0.8410 0.8410 0.8410
31.642000 0.8410 0.8410 0.8390 0.8390 0.8390
31.729401 0.8410 0.8410 0.8390 0.8390 0.8390
31.817000 0.8380 0.8380 0.8360 0.8360 0.8380
31.904401 0.8380 0.8380 0.8390 0.8390 0.8390
31.991000 0.8380 0.8380 0.8380 0.8380 0.8360
32.078401 0.8360 0.8340 0.8340 0.8340 0.8320
32.166000 0.8320 0.8320 0.8320 0.8320 0.8300
32.253401 0.8300 0.8300 0.8300 0.8300 0.8290
32.341000 0.8290 0.8290 0.8270 0.8270 0.8270
32.428401 0.8250 0.8250 0.8250 0.8230 0.8220
32.515000 0.8220 0.8220 0.8200 0.8200 0.8200
32.602401 0.8180 0.8180 0.8180 0.8160 0.8160
32.690000 0.8140 0.8140 0.8140 0.8130 0.8130
32.777401 0.8130 0.8130 0.8130 0.8110 0.8110
32.865000 0.8090 0.8090 0.8090 0.8060 0.8060
32.952401 0.8060 0.8060 0.8040 0.8040 0.8040
33.039000 0.8020 0.8020 0.8020 0.8000 0.8000
33.126401 0.7980 0.7970 0.7970 0.7950 0.7950
33.214000 0.7950 0.7950 0.7930 0.7930 0.7930
33.301401 0.7930 0.7910 0.7910 0.7910 0.7910
33.389000 0.7900 0.7900 0.7880 0.7880 0.7880
33.476401 0.7860 0.7860 0.7860 0.7840 0.7840
33.563000 0.7840 0.7820 0.7810 0.7810 0.7790
33.650401 0.7790 0.7770 0.7770 0.7750 0.7750
33.738000 0.7750 0.7740 0.7740 0.7720 0.7720
33.825401 0.7700 0.7700 0.7680 0.7660 0.7650
33.913000 0.7650 0.7630 0.7630 0.7630 0.7630
34.000401 0.7610 0.7610 0.7590 0.7590 0.7580
34.087000 0.7580 0.7580 0.7580 0.7560 0.7560
34.174401 0.7540 0.7520 0.7520 0.7520 0.7500
34.262000 0.7500 0.7470 0.7450 0.7450 0.7430
34.349401 0.7410 0.7410 0.7410 0.7400 0.7400
34.437000 0.7380 0.7360 0.7340 0.7340 0.7330
34.524401 0.7310 0.7310 0.7290 0.7270 0.7270
34.611000 0.7250 0.7250 0.7250 0.7240 0.7220
34.698401 0.7200 0.7180 0.7170 0.7170 0.7150
34.786000 0.7150 0.7130 0.7110 0.7090 0.7060
34.873401 0.7040 0.7040 0.7040 0.7020 0.7020
34.961000 0.7010 0.6990 0.6950 0.6920 0.6920
35.048401 0.6920 0.6920 0.6900 0.6880 0.6860
35.135000 0.6850 0.6830 0.6830 0.6830 0.6830
35.222401 0.6830 0.6810 0.6810 0.6790 0.6790
35.310000 0.6770 0.6770 0.6770 0.6760 0.6760
35.397401 0.6720 0.6700 0.6670 0.6630 0.6580
35.485000 0.6540 0.6530 0.6530 0.6490 0.6450
35.572401 0.6440 0.6440 0.6440 0.6440 0.6420
35.659000 0.6420 0.6420 0.6420 0.6400 0.6400
35.746401 0.6380 0.6380 0.6370 0.6370 0.6350
35.834000 0.6330 0.6330 0.6310 0.6310 0.6290
35.921401 0.6280 0.6280 0.6260 0.6240 0.6220
36.009000 0.6200 0.6200 0.6200 0.6190 0.6170
36.096401 0.6170 0.6170 0.6150 0.6150 0.6130
36.183000 0.6130 0.6120 0.6100 0.6080 0.6080
36.270401 0.6080 0.6080 0.6060 0.6040 0.6040
36.358000 0.6030 0.5990 0.5970 0.5960 0.5940
36.445401 0.5940 0.5920 0.5900 0.5900 0.5880
36.533000 0.5880 0.5880 0.5880 0.5870 0.5850
36.620401 0.5850 0.5830 0.5810 0.5800 0.5780
36.707000 0.5780 0.5780 0.5780 0.5780 0.5760
36.794401 0.5740 0.5720 0.5710 0.5690 0.5690
36.882000 0.5670 0.5670 0.5670 0.5670 0.5650
36.969401 0.5650 0.5640 0.5620 0.5620 0.5600
37.057000 0.5580 0.5530 0.5510 0.5490 0.5490
37.144401 0.5480 0.5480 0.5480 0.5480 0.5480
37.231000 0.5480 0.5480 0.5480 0.5480 0.5460
37.318401 0.5460 0.5460 0.5460 0.5440 0.5440
37.406000 0.5440 0.5420 0.5420 0.5390 0.5390
37.493401 0.5370 0.5350 0.5350 0.5330 0.5330
37.581000 0.5330 0.5330 0.5330 0.5320 0.5320
37.668401 0.5300 0.5300 0.5300 0.5300 0.5280
37.755000 0.5260 0.5240 0.5240 0.5230 0.5230
37.842401 0.5230 0.5230 0.5210 0.5170 0.5170
37.930000 0.5160 0.5160 0.5160
##END=
