##TITLE=CYCLOBUTANECARBONITRILE, 3-METHYLENE-
##JCAMP-DX=4.24
##DATA TYPE=INFRARED SPECTRUM
##CLASS=COBLENTZ III
##ORIGIN=WESTERN REGIONAL RES. USDA
##OWNER=COBLENTZ SOCIETY
Collection (C) 2018 copyright by the U.S. Secretary of Commerce
on behalf of the United States of America. All rights reserved.
##DATE=1967/03/30
##NAMES=3-methylenecyclobutanecarbonitrile
##CAS REGISTRY NO=15760-35-7
##MOLFORM=C6 H7 N
##SOURCE REFERENCE=COBLENTZ NO. 6982
##$NIST SOURCE=COBLENTZ
##$NIST IMAGE=cob6982
##SPECTROMETER/DATA SYSTEM=CARY 90 (GRATING)
##INSTRUMENT PARAMETERS=GRATING CHANGES AT 3000, 2000, 1200 CM^-^1
##STATE=LIQUID (NEAT)
##PATH LENGTH=0.0025 CM
##SAMPLING PROCEDURE=TRANSMISSION
##RESOLUTION=4
##DATA PROCESSING=DIGITIZED BY NIST FROM HARD COPY (FROM TWO SEGMENTS)
##XUNITS=1/CM
##YUNITS=TRANSMITTANCE
##XFACTOR=1.000000
##YFACTOR=1
##DELTAX=0.927646
##FIRSTX=444.341
##LASTX=4006.5
##FIRSTY=0.556
##MAXX=4006.5
##MINX=444.341
##MAXY=0.937
##MINY=0.009
##NPOINTS=3841
##XYDATA=(X++(Y..Y))
444.341000 0.5560 0.5570 0.5570 0.5570 0.5580
448.979230 0.5590 0.5600 0.5620 0.5630 0.5640
453.617460 0.5650 0.5660 0.5690 0.5700 0.5720
458.255690 0.5730 0.5740 0.5770 0.5780 0.5790
462.893920 0.5810 0.5830 0.5850 0.5860 0.5870
467.532151 0.5900 0.5910 0.5910 0.5900 0.5900
472.170381 0.5880 0.5860 0.5860 0.5850 0.5840
476.808611 0.5810 0.5800 0.5790 0.5770 0.5760
481.446841 0.5740 0.5710 0.5660 0.5630 0.5590
486.085071 0.5570 0.5540 0.5500 0.5470 0.5430
490.723301 0.5420 0.5370 0.5340 0.5290 0.5260
495.361531 0.5210 0.5180 0.5130 0.5080 0.5060
499.999761 0.5010 0.4980 0.4930 0.4900 0.4850
504.637992 0.4770 0.4760 0.4760 0.4760 0.4780
509.276222 0.4850 0.4930 0.5000 0.5210 0.5380
513.914452 0.5629 0.5839 0.5989 0.6119 0.6210
518.552682 0.6260 0.6280 0.6300 0.6300 0.6320
523.190912 0.6350 0.6360 0.6370 0.6390 0.6410
527.829142 0.6420 0.6430 0.6440 0.6460 0.6480
532.467372 0.6490 0.6500 0.6510 0.6530 0.6550
537.105602 0.6560 0.6570 0.6580 0.6590 0.6600
541.743832 0.6620 0.6630 0.6640 0.6650 0.6660
546.382063 0.6670 0.6680 0.6700 0.6710 0.6710
551.020293 0.6720 0.6730 0.6740 0.6740 0.6750
555.658523 0.6770 0.6780 0.6780 0.6790 0.6790
560.296753 0.6800 0.6800 0.6810 0.6810 0.6820
564.934983 0.6820 0.6840 0.6840 0.6850 0.6850
569.573213 0.6850 0.6860 0.6860 0.6860 0.6870
574.211443 0.6870 0.6870 0.6870 0.6880 0.6880
578.849673 0.6880 0.6880 0.6880 0.6870 0.6870
583.487903 0.6870 0.6870 0.6870 0.6860 0.6860
588.126134 0.6860 0.6860 0.6850 0.6850 0.6850
592.764364 0.6850 0.6840 0.6840 0.6820 0.6810
597.402594 0.6800 0.6740 0.6660 0.6600 0.6530
602.040824 0.6490 0.6440 0.6430 0.6420 0.6430
606.679054 0.6450 0.6480 0.6500 0.6520 0.6550
611.317284 0.6570 0.6580 0.6600 0.6630 0.6640
615.955514 0.6660 0.6680 0.6700 0.6720 0.6730
620.593744 0.6740 0.6740 0.6740 0.6750 0.6750
625.231975 0.6750 0.6750 0.6750 0.6750 0.6750
629.870205 0.6750 0.6750 0.6740 0.6740 0.6730
634.508435 0.6710 0.6710 0.6700 0.6680 0.6680
639.146665 0.6680 0.6670 0.6670 0.6670 0.6680
643.784895 0.6680 0.6700 0.6710 0.6740 0.6750
648.423125 0.6750 0.6750 0.6770 0.6780 0.6780
653.061355 0.6790 0.6800 0.6800 0.6810 0.6810
657.699585 0.6820 0.6840 0.6840 0.6850 0.6850
662.337815 0.6870 0.6880 0.6890 0.6910 0.6920
666.976046 0.6930 0.6940 0.6950 0.6960 0.6980
671.614276 0.7000 0.7010 0.7020 0.7030 0.7040
676.252506 0.7060 0.7070 0.7080 0.7080 0.7090
680.890736 0.7090 0.7090 0.7090 0.7100 0.7100
685.528966 0.7100 0.7110 0.7110 0.7110 0.7110
690.167196 0.7110 0.7130 0.7150 0.7160 0.7170
694.805426 0.7180 0.7210 0.7220 0.7230 0.7240
699.443656 0.7250 0.7270 0.7280 0.7280 0.7290
704.081886 0.7290 0.7300 0.7300 0.7310 0.7310
708.720117 0.7320 0.7320 0.7340 0.7340 0.7350
713.358347 0.7350 0.7360 0.7380 0.7390 0.7390
717.996577 0.7400 0.7420 0.7420 0.7430 0.7440
722.634807 0.7450 0.7460 0.7470 0.7490 0.7500
727.273037 0.7500 0.7500 0.7500 0.7510 0.7510
731.911267 0.7520 0.7520 0.7530 0.7540 0.7540
736.549497 0.7540 0.7540 0.7530 0.7530 0.7530
741.187727 0.7520 0.7500 0.7500 0.7490 0.7470
745.825958 0.7460 0.7460 0.7440 0.7420 0.7380
750.464188 0.7360 0.7350 0.7340 0.7340 0.7340
755.102418 0.7350 0.7360 0.7390 0.7400 0.7420
759.740648 0.7430 0.7450 0.7470 0.7500 0.7530
764.378878 0.7560 0.7580 0.7600 0.7630 0.7640
769.017108 0.7650 0.7650 0.7660 0.7660 0.7660
773.655338 0.7670 0.7670 0.7680 0.7680 0.7700
778.293568 0.7700 0.7700 0.7710 0.7710 0.7720
782.931798 0.7720 0.7730 0.7730 0.7730 0.7740
787.570029 0.7740 0.7770 0.7770 0.7780 0.7790
792.208259 0.7810 0.7820 0.7820 0.7830 0.7830
796.846489 0.7850 0.7860 0.7870 0.7880 0.7880
801.484719 0.7890 0.7890 0.7890 0.7900 0.7900
806.122949 0.7890 0.7890 0.7880 0.7870 0.7870
810.761179 0.7860 0.7850 0.7830 0.7800 0.7780
815.399409 0.7740 0.7720 0.7700 0.7670 0.7650
820.037639 0.7610 0.7580 0.7530 0.7470 0.7420
824.675870 0.7340 0.7240 0.7140 0.7010 0.6940
829.314100 0.6860 0.6700 0.6501 0.6291 0.6121
833.952330 0.6100 0.6120 0.6260 0.6440 0.6590
838.590560 0.6710 0.6790 0.6860 0.6920 0.7000
843.228790 0.7010 0.7000 0.6990 0.6960 0.6930
847.867020 0.6880 0.6840 0.6780 0.6730 0.6670
852.505250 0.6620 0.6550 0.6460 0.6380 0.6270
857.143480 0.6140 0.6000 0.5831 0.5641 0.5421
861.781710 0.5160 0.4880 0.4570 0.4220 0.4030
866.419941 0.3830 0.3401 0.2922 0.2402 0.1833
871.058171 0.1680 0.1490 0.1310 0.1130 0.1040
875.696401 0.0950 0.0760 0.0561 0.0450 0.0340
880.334631 0.0240 0.0130 0.0110 0.0100 0.0090
884.972861 0.0090 0.0090 0.0100 0.0110 0.0120
889.611091 0.0160 0.0190 0.0240 0.0270 0.0310
894.249321 0.0360 0.0440 0.0530 0.0540 0.0699
898.887551 0.1020 0.1180 0.1340 0.1490 0.1660
903.525781 0.1820 0.1900 0.2159 0.2409 0.2679
908.164012 0.2950 0.3200 0.3460 0.3690 0.4079
912.802242 0.4230 0.4469 0.4689 0.4879 0.5079
917.440472 0.5260 0.5420 0.5580 0.5720 0.5860
922.078702 0.5990 0.6090 0.6210 0.6300 0.6390
926.716932 0.6480 0.6550 0.6620 0.6670 0.6720
931.355162 0.6780 0.6810 0.6860 0.6880 0.6920
935.993392 0.6940 0.6960 0.7000 0.7010 0.7030
940.631622 0.7040 0.7060 0.7060 0.7070 0.7070
945.269853 0.7060 0.7030 0.7020 0.7020 0.7030
949.908083 0.7100 0.7100 0.7140 0.7180 0.7220
954.546313 0.7270 0.7310 0.7350 0.7390 0.7420
959.184543 0.7440 0.7460 0.7460 0.7490 0.7500
963.822773 0.7500 0.7510 0.7510 0.7510 0.7520
968.461003 0.7520 0.7520 0.7530 0.7540 0.7570
973.099233 0.7590 0.7610 0.7650 0.7680 0.7720
977.737463 0.7750 0.7800 0.7830 0.7860 0.7890
982.375693 0.7920 0.7930 0.7940 0.7940 0.7940
987.013924 0.7950 0.7960 0.7960 0.7970 0.7990
991.652154 0.8010 0.8020 0.8030 0.8040 0.8040
996.290384 0.8040 0.8060 0.8070 0.8070 0.8060
1000.928614 0.8040 0.8030 0.8010 0.7990 0.7950
1005.566844 0.7920 0.7890 0.7870 0.7850 0.7830
1010.205074 0.7820 0.7830 0.7870 0.7900 0.7960
1014.843304 0.8020 0.8060 0.8070 0.8080 0.8080
1019.481534 0.8080 0.8070 0.8070 0.8040 0.8020
1024.119765 0.7970 0.7940 0.7900 0.7860 0.7830
1028.757995 0.7810 0.7800 0.7720 0.7710 0.7710
1033.396225 0.7720 0.7740 0.7770 0.7780 0.7770
1038.034455 0.7740 0.7710 0.7660 0.7600 0.7510
1042.672685 0.7420 0.7290 0.7130 0.7020 0.6950
1047.310915 0.6870 0.6720 0.6570 0.6420 0.6280
1051.949145 0.6280 0.6489 0.6679 0.7078 0.7239
1056.587375 0.7430 0.7590 0.7730 0.7860 0.7960
1061.225605 0.8040 0.8110 0.8170 0.8210 0.8240
1065.863836 0.8260 0.8290 0.8300 0.8300 0.8310
1070.502066 0.8310 0.8310 0.8320 0.8350 0.8360
1075.140296 0.8380 0.8400 0.8420 0.8420 0.8430
1079.778526 0.8430 0.8430 0.8430 0.8420 0.8420
1084.416756 0.8420 0.8400 0.8390 0.8390 0.8390
1089.054986 0.8390 0.8380 0.8380 0.8380 0.8370
1093.693216 0.8370 0.8370 0.8370 0.8370 0.8370
1098.331446 0.8370 0.8360 0.8360 0.8360 0.8350
1102.969676 0.8350 0.8330 0.8320 0.8310 0.8310
1107.607907 0.8300 0.8290 0.8290 0.8280 0.8260
1112.246137 0.8260 0.8250 0.8240 0.8230 0.8220
1116.884367 0.8210 0.8180 0.8160 0.8150 0.8130
1121.522597 0.8090 0.8070 0.8040 0.8010 0.7990
1126.160827 0.7950 0.7920 0.7890 0.7860 0.7820
1130.799057 0.7800 0.7770 0.7730 0.7700 0.7680
1135.437287 0.7650 0.7580 0.7500 0.7420 0.7320
1140.075517 0.7230 0.7140 0.7070 0.7010 0.7000
1144.713748 0.6980 0.6950 0.6930 0.6780 0.6501
1149.351978 0.6240 0.6010 0.5810 0.5640 0.5490
1153.990208 0.5350 0.5230 0.5110 0.5090 0.5110
1158.628438 0.5220 0.5330 0.5430 0.5540 0.5600
1163.266668 0.5860 0.6070 0.6240 0.6380 0.6510
1167.904898 0.6600 0.6700 0.6780 0.6790 0.6780
1172.543128 0.6770 0.6750 0.6730 0.6730 0.6620
1177.181358 0.6450 0.6280 0.6140 0.6100 0.6010
1181.819588 0.5910 0.5810 0.5720 0.5620 0.5600
1186.457819 0.5590 0.5600 0.5630 0.5720 0.5920
1191.096049 0.6130 0.6290 0.6380 0.6530 0.6709
1195.734279 0.6850 0.7090 0.7180 0.7280 0.7350
1200.372509 0.7420 0.7490 0.7540 0.7600 0.7640
1205.010739 0.7650 0.7670 0.7700 0.7720 0.7730
1209.648969 0.7730 0.7720 0.7680 0.7590 0.7540
1214.287199 0.7380 0.7210 0.7110 0.7030 0.6950
1218.925429 0.6790 0.6630 0.6451 0.6450 0.6570
1223.563659 0.6700 0.6810 0.7010 0.7340 0.7560
1228.201890 0.7710 0.7800 0.7880 0.7950 0.8000
1232.840120 0.8040 0.8070 0.8080 0.8100 0.8140
1237.478350 0.8180 0.8220 0.8230 0.8250 0.8250
1242.116580 0.8260 0.8260 0.8250 0.8240 0.8230
1246.754810 0.8220 0.8190 0.8180 0.8170 0.8160
1251.393040 0.8150 0.8140 0.8130 0.8110 0.8110
1256.031270 0.8110 0.8130 0.8130 0.8140 0.8140
1260.669500 0.8140 0.8140 0.8150 0.8140 0.8150
1265.307731 0.8150 0.8160 0.8160 0.8170 0.8170
1269.945961 0.8180 0.8190 0.8190 0.8210 0.8210
1274.584191 0.8220 0.8220 0.8230 0.8230 0.8230
1279.222421 0.8230 0.8230 0.8230 0.8230 0.8230
1283.860651 0.8230 0.8230 0.8230 0.8240 0.8250
1288.498881 0.8260 0.8260 0.8280 0.8290 0.8300
1293.137111 0.8300 0.8300 0.8310 0.8310 0.8310
1297.775341 0.8310 0.8310 0.8310 0.8300 0.8290
1302.413571 0.8280 0.8260 0.8230 0.8210 0.8150
1307.051802 0.8090 0.8040 0.7990 0.7930 0.7880
1311.690032 0.7820 0.7770 0.7710 0.7640 0.7570
1316.328262 0.7500 0.7400 0.7360 0.7280 0.7270
1320.966492 0.7280 0.7340 0.7390 0.7460 0.7540
1325.604722 0.7630 0.7720 0.7800 0.7880 0.7930
1330.242952 0.8010 0.8060 0.8090 0.8130 0.8140
1334.881182 0.8150 0.8160 0.8170 0.8170 0.8190
1339.519412 0.8210 0.8220 0.8220 0.8220 0.8230
1344.157643 0.8230 0.8240 0.8250 0.8250 0.8250
1348.795873 0.8250 0.8240 0.8240 0.8230 0.8230
1353.434103 0.8220 0.8220 0.8210 0.8180 0.8170
1358.072333 0.8160 0.8150 0.8140 0.8110 0.8100
1362.710563 0.8080 0.8040 0.8010 0.7970 0.7930
1367.348793 0.7870 0.7800 0.7780 0.7730 0.7700
1371.987023 0.7650 0.7610 0.7570 0.7520 0.7460
1376.625253 0.7420 0.7360 0.7300 0.7240 0.7180
1381.263483 0.7130 0.7060 0.7000 0.6960 0.6930
1385.901714 0.6860 0.6790 0.6720 0.6650 0.6421
1390.539944 0.6139 0.5850 0.5550 0.5220 0.4900
1395.178174 0.4570 0.4260 0.4110 0.3960 0.3671
1399.816404 0.3289 0.2900 0.2890 0.2900 0.2930
1404.454634 0.2960 0.2960 0.2950 0.2910 0.2860
1409.092864 0.2750 0.2610 0.2520 0.2500 0.2520
1413.731094 0.2560 0.2610 0.2650 0.2700 0.2750
1418.369324 0.2790 0.2840 0.2890 0.3040 0.3070
1423.007554 0.3220 0.3540 0.4059 0.4289 0.4489
1427.645785 0.4690 0.4860 0.5120 0.5330 0.5430
1432.284015 0.5470 0.5490 0.5490 0.5490 0.5490
1436.922245 0.5490 0.5500 0.5540 0.5620 0.5760
1441.560475 0.5930 0.6120 0.6300 0.6460 0.6580
1446.198705 0.6641 0.7040 0.7170 0.7280 0.7360
1450.836935 0.7420 0.7460 0.7500 0.7540 0.7590
1455.475165 0.7650 0.7740 0.7850 0.7960 0.8030
1460.113395 0.8090 0.8130 0.8150 0.8170 0.8210
1464.751626 0.8240 0.8290 0.8330 0.8360 0.8380
1469.389856 0.8400 0.8420 0.8430 0.8430 0.8430
1474.028086 0.8440 0.8450 0.8470 0.8490 0.8510
1478.666316 0.8540 0.8550 0.8570 0.8570 0.8580
1483.304546 0.8590 0.8590 0.8600 0.8600 0.8610
1487.942776 0.8610 0.8640 0.8650 0.8660 0.8660
1492.581006 0.8670 0.8670 0.8680 0.8680 0.8690
1497.219236 0.8710 0.8710 0.8720 0.8720 0.8710
1501.857466 0.8710 0.8690 0.8690 0.8680 0.8680
1506.495697 0.8670 0.8670 0.8660 0.8650 0.8640
1511.133927 0.8620 0.8610 0.8600 0.8590 0.8590
1515.772157 0.8580 0.8570 0.8550 0.8540 0.8530
1520.410387 0.8530 0.8530 0.8520 0.8520 0.8520
1525.048617 0.8530 0.8530 0.8540 0.8540 0.8550
1529.686847 0.8550 0.8570 0.8580 0.8580 0.8590
1534.325077 0.8590 0.8600 0.8600 0.8620 0.8640
1538.963307 0.8640 0.8650 0.8660 0.8680 0.8680
1543.601537 0.8690 0.8690 0.8690 0.8690 0.8710
1548.239768 0.8720 0.8730 0.8750 0.8800 0.8820
1552.877998 0.8850 0.8850 0.8860 0.8860 0.8870
1557.516228 0.8870 0.8880 0.8900 0.8930 0.8940
1562.154458 0.8960 0.8960 0.8970 0.8980 0.9000
1566.792688 0.9010 0.9010 0.9010 0.9020 0.9020
1571.430918 0.9010 0.9010 0.9000 0.9000 0.8980
1576.069148 0.8980 0.8970 0.8970 0.8960 0.8960
1580.707378 0.8960 0.8970 0.8980 0.8980 0.9000
1585.345609 0.9000 0.9000 0.9010 0.9010 0.9020
1589.983839 0.9020 0.9020 0.9020 0.9010 0.9010
1594.622069 0.9000 0.9000 0.8980 0.8980 0.8970
1599.260299 0.8970 0.8970 0.8970 0.8970 0.8980
1603.898529 0.9000 0.9010 0.9010 0.9010 0.9010
1608.536759 0.9010 0.9010 0.9000 0.9000 0.9000
1613.174989 0.9000 0.8980 0.8980 0.8980 0.8970
1617.813219 0.8970 0.8970 0.8960 0.8950 0.8940
1622.451449 0.8930 0.8930 0.8910 0.8900 0.8890
1627.089680 0.8890 0.8880 0.8870 0.8860 0.8850
1631.727910 0.8820 0.8810 0.8800 0.8780 0.8740
1636.366140 0.8690 0.8660 0.8610 0.8570 0.8520
1641.004370 0.8490 0.8440 0.8390 0.8350 0.8300
1645.642600 0.8240 0.8190 0.8160 0.8100 0.8040
1650.280830 0.8000 0.7940 0.7870 0.7810 0.7740
1654.919060 0.7680 0.7610 0.7540 0.7460 0.7380
1659.557290 0.7310 0.7230 0.7140 0.7060 0.7010
1664.195521 0.6960 0.6860 0.6770 0.6660 0.6560
1668.833751 0.6439 0.6259 0.5959 0.5589 0.5160
1673.471981 0.4700 0.4190 0.3930 0.3670 0.3151
1678.110211 0.2649 0.2189 0.1760 0.1410 0.1130
1682.748441 0.1040 0.0950 0.0870 0.0850 0.0840
1687.386671 0.0850 0.0871 0.1331 0.1771 0.2260
1692.024901 0.2770 0.3280 0.4299 0.4759 0.5179
1696.663131 0.5511 0.5771 0.6371 0.7230 0.7520
1701.301361 0.7730 0.7870 0.7970 0.8040 0.8090
1705.939592 0.8140 0.8190 0.8280 0.8400 0.8450
1710.577822 0.8490 0.8520 0.8540 0.8570 0.8590
1715.216052 0.8610 0.8620 0.8640 0.8640 0.8650
1719.854282 0.8660 0.8670 0.8690 0.8710 0.8720
1724.492512 0.8730 0.8730 0.8740 0.8750 0.8760
1729.130742 0.8780 0.8780 0.8780 0.8790 0.8790
1733.768972 0.8790 0.8780 0.8760 0.8760 0.8750
1738.407202 0.8740 0.8740 0.8730 0.8720 0.8720
1743.045432 0.8710 0.8690 0.8690 0.8680 0.8660
1747.683663 0.8650 0.8610 0.8590 0.8570 0.8530
1752.321893 0.8500 0.8470 0.8450 0.8440 0.8400
1756.960123 0.8390 0.8370 0.8350 0.8320 0.8290
1761.598353 0.8250 0.8230 0.8180 0.8150 0.8110
1766.236583 0.8080 0.8040 0.8010 0.7960 0.7930
1770.874813 0.7890 0.7870 0.7830 0.7810 0.7780
1775.513043 0.7750 0.7740 0.7720 0.7710 0.7700
1780.151273 0.7680 0.7680 0.7700 0.7710 0.7720
1784.789504 0.7740 0.7800 0.7850 0.7890 0.7930
1789.427734 0.7970 0.8010 0.8030 0.8070 0.8100
1794.065964 0.8130 0.8160 0.8180 0.8210 0.8230
1798.704194 0.8260 0.8290 0.8310 0.8350 0.8370
1803.342424 0.8400 0.8430 0.8450 0.8450 0.8460
1807.980654 0.8490 0.8510 0.8520 0.8520 0.8530
1812.618884 0.8540 0.8550 0.8580 0.8580 0.8590
1817.257114 0.8590 0.8600 0.8610 0.8640 0.8640
1821.895344 0.8650 0.8650 0.8670 0.8680 0.8690
1826.533575 0.8710 0.8710 0.8720 0.8730 0.8740
1831.171805 0.8760 0.8790 0.8800 0.8820 0.8850
1835.810035 0.8870 0.8880 0.8890 0.8900 0.8910
1840.448265 0.8910 0.8910 0.8930 0.8940 0.8950
1845.086495 0.8960 0.8970 0.8970 0.9000 0.9020
1849.724725 0.9030 0.9030 0.9040 0.9050 0.9050
1854.362955 0.9050 0.9040 0.9040 0.9040 0.9030
1859.001185 0.9030 0.9020 0.9010 0.9000 0.9000
1863.639416 0.9000 0.9010 0.9010 0.9010 0.9010
1868.277646 0.9010 0.9020 0.9020 0.9020 0.9020
1872.915876 0.9020 0.9020 0.9030 0.9030 0.9030
1877.554106 0.9040 0.9050 0.9050 0.9050 0.9050
1882.192336 0.9050 0.9050 0.9050 0.9050 0.9050
1886.830566 0.9050 0.9070 0.9070 0.9070 0.9070
1891.468796 0.9070 0.9070 0.9070 0.9070 0.9070
1896.107026 0.9070 0.9070 0.9070 0.9070 0.9070
1900.745256 0.9070 0.9070 0.9070 0.9050 0.9050
1905.383487 0.9050 0.9050 0.9050 0.9050 0.9050
1910.021717 0.9050 0.9040 0.9040 0.9040 0.9040
1914.659947 0.9040 0.9040 0.9040 0.9040 0.9030
1919.298177 0.9030 0.9030 0.9030 0.9020 0.9020
1923.936407 0.9020 0.9010 0.9010 0.9010 0.9000
1928.574637 0.9000 0.8980 0.8980 0.8980 0.8970
1933.212867 0.8970 0.8970 0.8960 0.8960 0.8950
1937.851097 0.8940 0.8940 0.8930 0.8930 0.8910
1942.489327 0.8910 0.8900 0.8900 0.8890 0.8890
1947.127558 0.8880 0.8870 0.8870 0.8860 0.8860
1951.765788 0.8860 0.8860 0.8870 0.8870 0.8870
1956.404018 0.8870 0.8880 0.8880 0.8880 0.8880
1961.042248 0.8890 0.8900 0.8900 0.8910 0.8930
1965.680478 0.8930 0.8940 0.8950 0.8950 0.8960
1970.318708 0.8970 0.8970 0.8980 0.9000 0.9000
1974.956938 0.9010 0.9020 0.9030 0.9030 0.9040
1979.595168 0.9050 0.9070 0.9070 0.9080 0.9090
1984.233399 0.9100 0.9100 0.9100 0.9110 0.9110
1988.871629 0.9120 0.9120 0.9140 0.9140 0.9150
1993.509859 0.9150 0.9160 0.9160 0.9160 0.9170
1998.148089 0.9170 0.9180 0.9180 0.9185 0.9190
2002.786319 0.9190 0.9190 0.9200 0.9210 0.9210
2007.424549 0.9210 0.9215 0.9220 0.9220 0.9220
2012.062779 0.9225 0.9230 0.9230 0.9230 0.9230
2016.701009 0.9230 0.9235 0.9240 0.9240 0.9240
2021.339239 0.9245 0.9250 0.9250 0.9250 0.9255
2025.977470 0.9260 0.9260 0.9260 0.9265 0.9270
2030.615700 0.9270 0.9270 0.9279 0.9289 0.9290
2035.253930 0.9290 0.9290 0.9290 0.9295 0.9300
2039.892160 0.9300 0.9300 0.9300 0.9300 0.9300
2044.530390 0.9300 0.9300 0.9300 0.9300 0.9300
2049.168620 0.9305 0.9310 0.9310 0.9310 0.9310
2053.806850 0.9310 0.9310 0.9310 0.9310 0.9310
2058.445080 0.9310 0.9310 0.9314 0.9319 0.9320
2063.083310 0.9320 0.9320 0.9320 0.9320 0.9320
2067.721541 0.9320 0.9320 0.9320 0.9320 0.9324
2072.359771 0.9329 0.9330 0.9330 0.9330 0.9330
2076.998001 0.9330 0.9330 0.9330 0.9330 0.9330
2081.636231 0.9330 0.9330 0.9330 0.9330 0.9330
2086.274461 0.9330 0.9330 0.9326 0.9321 0.9320
2090.912691 0.9320 0.9320 0.9320 0.9320 0.9320
2095.550921 0.9316 0.9311 0.9310 0.9310 0.9310
2100.189151 0.9310 0.9310 0.9310 0.9306 0.9301
2104.827382 0.9300 0.9300 0.9300 0.9300 0.9300
2109.465612 0.9300 0.9296 0.9291 0.9290 0.9290
2114.103842 0.9290 0.9290 0.9290 0.9290 0.9282
2118.742072 0.9272 0.9270 0.9270 0.9270 0.9270
2123.380302 0.9270 0.9270 0.9266 0.9261 0.9260
2128.018532 0.9260 0.9260 0.9260 0.9260 0.9260
2132.656762 0.9260 0.9260 0.9260 0.9260 0.9256
2137.294992 0.9251 0.9250 0.9250 0.9246 0.9241
2141.933222 0.9240 0.9240 0.9236 0.9231 0.9230
2146.571453 0.9230 0.9230 0.9230 0.9226 0.9221
2151.209683 0.9220 0.9220 0.9216 0.9211 0.9210
2155.847913 0.9210 0.9210 0.9210 0.9203 0.9193
2160.486143 0.9190 0.9190 0.9186 0.9181 0.9180
2165.124373 0.9180 0.9176 0.9171 0.9166 0.9161
2169.762603 0.9156 0.9151 0.9146 0.9142 0.9130
2174.400833 0.9115 0.9107 0.9102 0.9093 0.9083
2179.039063 0.9063 0.9038 0.9020 0.9005 0.8983
2183.677294 0.8958 0.8937 0.8916 0.8900 0.8885
2188.315524 0.8863 0.8838 0.8827 0.8822 0.8817
2192.953754 0.8812 0.8807 0.8802 0.8780 0.8751
2197.591984 0.8724 0.8699 0.8684 0.8674 0.8664
2202.230214 0.8654 0.8640 0.8625 0.8610 0.8595
2206.868444 0.8571 0.8541 0.8508 0.8473 0.8425
2211.506674 0.8371 0.8306 0.8237 0.8145 0.8040
2216.144904 0.7920 0.7791 0.7646 0.7491 0.7309
2220.783134 0.7110 0.6961 0.6845 0.6727 0.6607
2225.421365 0.6050 0.5212 0.4534 0.3960 0.3384
2230.059595 0.2805 0.2398 0.2109 0.1820 0.1531
2234.697825 0.1326 0.1181 0.1036 0.0892 0.0664
2239.336055 0.0375 0.0261 0.0282 0.0432 0.0676
2243.974285 0.1300 0.2203 0.3148 0.4125 0.4798
2248.612515 0.5237 0.5606 0.5920 0.6398 0.7006
2253.250745 0.7379 0.7558 0.7708 0.7833 0.7938
2257.888975 0.8028 0.8100 0.8155 0.8210 0.8265
2262.527205 0.8309 0.8344 0.8368 0.8383 0.8398
2267.165436 0.8413 0.8423 0.8428 0.8435 0.8445
2271.803666 0.8460 0.8480 0.8493 0.8498 0.8503
2276.441896 0.8508 0.8513 0.8518 0.8523 0.8528
2281.080126 0.8530 0.8530 0.8530 0.8530 0.8530
2285.718356 0.8530 0.8530 0.8530 0.8528 0.8523
2290.356586 0.8518 0.8513 0.8510 0.8510 0.8508
2294.994816 0.8503 0.8500 0.8500 0.8498 0.8493
2299.633046 0.8490 0.8490 0.8485 0.8475 0.8470
2304.271277 0.8470 0.8468 0.8463 0.8460 0.8460
2308.909507 0.8458 0.8453 0.8450 0.8450 0.8448
2313.547737 0.8443 0.8438 0.8433 0.8430 0.8430
2318.185967 0.8428 0.8423 0.8416 0.8406 0.8400
2322.824197 0.8400 0.8400 0.8400 0.8398 0.8393
2327.462427 0.8390 0.8390 0.8390 0.8390 0.8390
2332.100657 0.8390 0.8388 0.8383 0.8380 0.8380
2336.738887 0.8380 0.8380 0.8380 0.8380 0.8380
2341.377117 0.8380 0.8378 0.8373 0.8370 0.8370
2346.015348 0.8368 0.8363 0.8360 0.8360 0.8358
2350.653578 0.8353 0.8350 0.8350 0.8346 0.8336
2355.291808 0.8328 0.8323 0.8318 0.8313 0.8306
2359.930038 0.8296 0.8288 0.8283 0.8276 0.8266
2364.568268 0.8258 0.8253 0.8248 0.8243 0.8238
2369.206498 0.8233 0.8228 0.8223 0.8220 0.8220
2373.844728 0.8220 0.8220 0.8222 0.8227 0.8240
2378.482958 0.8270 0.8295 0.8310 0.8325 0.8340
2383.121188 0.8352 0.8357 0.8362 0.8367 0.8372
2387.759419 0.8377 0.8382 0.8387 0.8390 0.8390
2392.397649 0.8392 0.8397 0.8400 0.8400 0.8403
2397.035879 0.8413 0.8417 0.8407 0.8400 0.8400
2401.674109 0.8399 0.8394 0.8390 0.8390 0.8389
2406.312339 0.8384 0.8380 0.8380 0.8377 0.8367
2410.950569 0.8359 0.8354 0.8347 0.8337 0.8330
2415.588799 0.8330 0.8329 0.8324 0.8319 0.8314
2420.227029 0.8310 0.8310 0.8310 0.8310 0.8309
2424.865260 0.8304 0.8300 0.8300 0.8300 0.8300
2429.503490 0.8300 0.8300 0.8301 0.8306 0.8310
2434.141720 0.8310 0.8311 0.8316 0.8320 0.8320
2438.779950 0.8321 0.8326 0.8333 0.8348 0.8361
2443.418180 0.8366 0.8371 0.8376 0.8380 0.8380
2448.056410 0.8380 0.8380 0.8378 0.8368 0.8355
2452.694640 0.8330 0.8310 0.8310 0.8309 0.8304
2457.332870 0.8299 0.8294 0.8289 0.8284 0.8280
2461.971100 0.8280 0.8280 0.8280 0.8280 0.8280
2466.609331 0.8281 0.8286 0.8291 0.8296 0.8302
2471.247561 0.8312 0.8321 0.8326 0.8332 0.8342
2475.885791 0.8350 0.8350 0.8350 0.8350 0.8351
2480.524021 0.8356 0.8360 0.8360 0.8361 0.8366
2485.162251 0.8370 0.8370 0.8370 0.8370 0.8370
2489.800481 0.8370 0.8370 0.8370 0.8370 0.8370
2494.438711 0.8370 0.8370 0.8370 0.8370 0.8370
2499.076941 0.8370 0.8370 0.8370 0.8370 0.8370
2503.715172 0.8370 0.8370 0.8370 0.8370 0.8371
2508.353402 0.8376 0.8381 0.8386 0.8390 0.8390
2512.991632 0.8390 0.8395 0.8401 0.8411 0.8420
2517.629862 0.8420 0.8420 0.8425 0.8430 0.8430
2522.268092 0.8430 0.8430 0.8430 0.8425 0.8420
2526.906322 0.8420 0.8420 0.8420 0.8420 0.8420
2531.544552 0.8420 0.8420 0.8419 0.8409 0.8400
2536.182782 0.8395 0.8390 0.8385 0.8380 0.8380
2540.821012 0.8380 0.8385 0.8390 0.8395 0.8400
2545.459243 0.8410 0.8420 0.8425 0.8430 0.8435
2550.097473 0.8440 0.8445 0.8450 0.8455 0.8460
2554.735703 0.8460 0.8460 0.8465 0.8470 0.8470
2559.373933 0.8470 0.8480 0.8490 0.8495 0.8500
2564.012163 0.8500 0.8500 0.8500 0.8500 0.8500
2568.650393 0.8500 0.8500 0.8500 0.8500 0.8500
2573.288623 0.8500 0.8500 0.8500 0.8500 0.8500
2577.926853 0.8500 0.8500 0.8500 0.8500 0.8500
2582.565083 0.8500 0.8500 0.8500 0.8500 0.8495
2587.203314 0.8490 0.8490 0.8490 0.8490 0.8490
2591.841544 0.8480 0.8470 0.8470 0.8470 0.8470
2596.479774 0.8470 0.8465 0.8460 0.8460 0.8460
2601.118004 0.8460 0.8460 0.8455 0.8450 0.8441
2605.756234 0.8431 0.8425 0.8420 0.8411 0.8401
2610.394464 0.8391 0.8381 0.8371 0.8361 0.8355
2615.032694 0.8350 0.8341 0.8331 0.8321 0.8311
2619.670924 0.8305 0.8300 0.8291 0.8281 0.8266
2624.309155 0.8251 0.8246 0.8241 0.8244 0.8249
2628.947385 0.8263 0.8278 0.8293 0.8308 0.8328
2633.585615 0.8348 0.8363 0.8378 0.8380 0.8380
2638.223845 0.8389 0.8399 0.8400 0.8400 0.8409
2642.862075 0.8419 0.8420 0.8420 0.8424 0.8429
2647.500305 0.8430 0.8430 0.8426 0.8421 0.8420
2652.138535 0.8420 0.8420 0.8420 0.8411 0.8401
2656.776765 0.8391 0.8382 0.8380 0.8380 0.8376
2661.414995 0.8371 0.8378 0.8388 0.8407 0.8427
2666.053226 0.8446 0.8466 0.8482 0.8498 0.8504
2670.691456 0.8509 0.8510 0.8510 0.8514 0.8519
2675.329686 0.8524 0.8529 0.8538 0.8548 0.8562
2679.967916 0.8577 0.8584 0.8589 0.8594 0.8599
2684.606146 0.8608 0.8618 0.8628 0.8638 0.8644
2689.244376 0.8649 0.8658 0.8668 0.8674 0.8679
2693.882606 0.8680 0.8680 0.8680 0.8680 0.8684
2698.520836 0.8689 0.8690 0.8690 0.8690 0.8690
2703.159067 0.8690 0.8690 0.8690 0.8690 0.8686
2707.797297 0.8681 0.8680 0.8680 0.8676 0.8671
2712.435527 0.8670 0.8670 0.8670 0.8670 0.8670
2717.073757 0.8670 0.8666 0.8661 0.8653 0.8643
2721.711987 0.8633 0.8623 0.8613 0.8603 0.8589
2726.350217 0.8574 0.8555 0.8535 0.8526 0.8521
2730.988447 0.8520 0.8520 0.8513 0.8503 0.8500
2735.626677 0.8500 0.8496 0.8491 0.8483 0.8473
2740.264907 0.8470 0.8470 0.8470 0.8470 0.8466
2744.903138 0.8461 0.8460 0.8460 0.8460 0.8460
2749.541368 0.8457 0.8452 0.8450 0.8450 0.8447
2754.179598 0.8442 0.8440 0.8440 0.8437 0.8432
2758.817828 0.8430 0.8430 0.8427 0.8422 0.8420
2763.456058 0.8420 0.8413 0.8403 0.8400 0.8400
2768.094288 0.8397 0.8392 0.8390 0.8390 0.8390
2772.732518 0.8390 0.8387 0.8382 0.8380 0.8380
2777.370748 0.8377 0.8372 0.8370 0.8370 0.8370
2782.008978 0.8370 0.8370 0.8370 0.8370 0.8370
2786.647209 0.8367 0.8362 0.8351 0.8336 0.8330
2791.285439 0.8330 0.8327 0.8322 0.8314 0.8304
2795.923669 0.8297 0.8292 0.8278 0.8258 0.8241
2800.561899 0.8226 0.8205 0.8180 0.8158 0.8138
2805.200129 0.8112 0.8082 0.8052 0.8023 0.7993
2809.838359 0.7963 0.7933 0.7903 0.7870 0.7835
2814.476589 0.7797 0.7758 0.7720 0.7685 0.7644
2819.114819 0.7599 0.7557 0.7517 0.7472 0.7422
2823.753050 0.7375 0.7330 0.7285 0.7240 0.7190
2828.391280 0.7135 0.7080 0.7025 0.6962 0.6893
2833.029510 0.6820 0.6745 0.6670 0.6595 0.6546
2837.667740 0.6522 0.6507 0.6502 0.6503 0.6508
2842.305970 0.6552 0.6632 0.6686 0.6716 0.6764
2846.944200 0.6828 0.6919 0.7033 0.7120 0.7180
2851.582430 0.7233 0.7277 0.7305 0.7315 0.7328
2856.220660 0.7343 0.7370 0.7410 0.7435 0.7445
2860.858890 0.7450 0.7450 0.7455 0.7465 0.7475
2865.497121 0.7485 0.7490 0.7490 0.7490 0.7490
2870.135351 0.7490 0.7490 0.7485 0.7475 0.7470
2874.773581 0.7470 0.7470 0.7470 0.7465 0.7455
2879.411811 0.7443 0.7428 0.7415 0.7405 0.7393
2884.050041 0.7378 0.7359 0.7334 0.7311 0.7291
2888.688271 0.7267 0.7237 0.7207 0.7177 0.7149
2893.326501 0.7124 0.7099 0.7074 0.7049 0.7024
2897.964731 0.7006 0.6996 0.6982 0.6962 0.6933
2902.602961 0.6893 0.6843 0.6778 0.6705 0.6621
2907.241192 0.6528 0.6423 0.6306 0.6170 0.6030
2911.879422 0.5886 0.5735 0.5575 0.5408 0.5228
2916.517652 0.5041 0.4841 0.4638 0.4428 0.4258
2921.155882 0.4148 0.4036 0.3921 0.3760 0.3520
2925.794112 0.3281 0.3042 0.2792 0.2525 0.2259
2930.432342 0.1995 0.1751 0.1542 0.1408 0.1403
2935.070572 0.1402 0.1407 0.1462 0.1607 0.1815
2939.708802 0.2139 0.2430 0.2660 0.2860 0.3004
2944.347033 0.3136 0.3240 0.3335 0.3411 0.3488
2948.985263 0.3568 0.3656 0.3761 0.3877 0.4017
2953.623493 0.4112 0.4117 0.4118 0.4113 0.4110
2958.261723 0.4110 0.4091 0.4031 0.3971 0.3911
2962.899953 0.3815 0.3635 0.3502 0.3477 0.3429
2967.538183 0.3329 0.3240 0.3175 0.3098 0.2993
2972.176413 0.2896 0.2816 0.2744 0.2689 0.2643
2976.814643 0.2618 0.2594 0.2574 0.2559 0.2554
2981.452873 0.2550 0.2550 0.2553 0.2563 0.2576
2986.091104 0.2596 0.2621 0.2661 0.2700 0.2734
2990.729334 0.2769 0.2804 0.2860 0.2975 0.3090
2995.367564 0.3204 0.3326 0.3471 0.3666 0.4015
3000.005794 0.4305 0.4410 0.4537 0.4733 0.4924
3004.644024 0.5098 0.5268 0.5423 0.5571 0.5701
3009.282254 0.5829 0.5954 0.6072 0.6167 0.6260
3013.920484 0.6350 0.6435 0.6505 0.6572 0.6627
3018.558714 0.6682 0.6736 0.6788 0.6829 0.6867
3023.196945 0.6896 0.6931 0.6980 0.7024 0.7044
3027.835175 0.7062 0.7072 0.7083 0.7098 0.7113
3032.473405 0.7128 0.7143 0.7158 0.7175 0.7199
3037.111635 0.7224 0.7249 0.7271 0.7276 0.7282
3041.749865 0.7292 0.7299 0.7294 0.7290 0.7290
3046.388095 0.7288 0.7278 0.7268 0.7253 0.7238
3051.026325 0.7223 0.7208 0.7193 0.7178 0.7169
3055.664555 0.7159 0.7154 0.7149 0.7144 0.7131
3060.302785 0.7071 0.7017 0.6997 0.6976 0.6952
3064.941016 0.6922 0.6868 0.6813 0.6764 0.6712
3069.579246 0.6647 0.6580 0.6495 0.6407 0.6292
3074.217476 0.6173 0.6018 0.5859 0.5668 0.5470
3078.855706 0.5221 0.4978 0.4783 0.4609 0.4599
3083.493936 0.4591 0.4601 0.4630 0.4830 0.5023
3088.132166 0.5157 0.5302 0.5541 0.5777 0.5976
3092.770396 0.6174 0.6343 0.6519 0.6776 0.7017
3097.408626 0.7102 0.7186 0.7256 0.7324 0.7379
3102.046856 0.7433 0.7473 0.7512 0.7542 0.7571
3106.685087 0.7586 0.7603 0.7658 0.7712 0.7742
3111.323317 0.7771 0.7791 0.7810 0.7820 0.7831
3115.961547 0.7846 0.7861 0.7881 0.7901 0.7926
3120.599777 0.7951 0.7976 0.8001 0.8015 0.8030
3125.238007 0.8035 0.8040 0.8050 0.8060 0.8060
3129.876237 0.8060 0.8070 0.8080 0.8090 0.8100
3134.514467 0.8105 0.8110 0.8110 0.8110 0.8125
3139.152697 0.8140 0.8150 0.8160 0.8160 0.8160
3143.790928 0.8165 0.8170 0.8175 0.8180 0.8180
3148.429158 0.8180 0.8195 0.8210 0.8215 0.8220
3153.067388 0.8220 0.8220 0.8225 0.8230 0.8235
3157.705618 0.8240 0.8250 0.8260 0.8270 0.8280
3162.343848 0.8285 0.8290 0.8300 0.8310 0.8320
3166.982078 0.8329 0.8330 0.8330 0.8340 0.8350
3171.620308 0.8350 0.8350 0.8355 0.8360 0.8360
3176.258538 0.8360 0.8365 0.8370 0.8384 0.8399
3180.896768 0.8409 0.8419 0.8420 0.8420 0.8425
3185.534999 0.8430 0.8435 0.8440 0.8445 0.8450
3190.173229 0.8450 0.8450 0.8455 0.8460 0.8465
3194.811459 0.8470 0.8470 0.8470 0.8479 0.8489
3199.449689 0.8494 0.8499 0.8504 0.8509 0.8510
3204.087919 0.8510 0.8514 0.8519 0.8520 0.8520
3208.726149 0.8520 0.8520 0.8524 0.8529 0.8530
3213.364379 0.8530 0.8530 0.8530 0.8530 0.8530
3218.002609 0.8530 0.8530 0.8530 0.8530 0.8526
3222.640839 0.8521 0.8520 0.8520 0.8516 0.8511
3227.279070 0.8510 0.8510 0.8510 0.8510 0.8506
3231.917300 0.8501 0.8496 0.8491 0.8482 0.8472
3236.555530 0.8466 0.8461 0.8456 0.8451 0.8450
3241.193760 0.8450 0.8446 0.8441 0.8436 0.8431
3245.831990 0.8430 0.8430 0.8426 0.8421 0.8412
3250.470220 0.8402 0.8400 0.8400 0.8396 0.8391
3255.108450 0.8386 0.8381 0.8380 0.8380 0.8376
3259.746680 0.8371 0.8366 0.8361 0.8356 0.8351
3264.384911 0.8342 0.8332 0.8330 0.8330 0.8326
3269.023141 0.8321 0.8320 0.8320 0.8316 0.8311
3273.661371 0.8306 0.8301 0.8285 0.8265 0.8245
3278.299601 0.8225 0.8194 0.8159 0.8142 0.8132
3282.937831 0.8119 0.8104 0.8092 0.8082 0.8054
3287.576061 0.8019 0.7980 0.7940 0.7904 0.7869
3292.214291 0.7834 0.7799 0.7786 0.7781 0.7784
3296.852521 0.7789 0.7801 0.7816 0.7842 0.7872
3301.490751 0.7898 0.7923 0.7934 0.7939 0.7958
3306.128982 0.7983 0.8004 0.8024 0.8048 0.8073
3310.767212 0.8098 0.8123 0.8144 0.8164 0.8187
3315.405442 0.8212 0.8241 0.8271 0.8297 0.8322
3320.043672 0.8347 0.8372 0.8397 0.8422 0.8451
3324.681902 0.8481 0.8504 0.8524 0.8544 0.8563
3329.320132 0.8583 0.8603 0.8623 0.8643 0.8657
3333.958362 0.8667 0.8683 0.8703 0.8713 0.8718
3338.596592 0.8723 0.8728 0.8730 0.8730 0.8733
3343.234823 0.8738 0.8740 0.8740 0.8743 0.8748
3347.873053 0.8753 0.8758 0.8760 0.8760 0.8766
3352.511283 0.8776 0.8783 0.8788 0.8790 0.8790
3357.149513 0.8793 0.8798 0.8803 0.8808 0.8810
3361.787743 0.8810 0.8813 0.8818 0.8823 0.8828
3366.425973 0.8830 0.8830 0.8836 0.8846 0.8853
3371.064203 0.8858 0.8860 0.8860 0.8863 0.8868
3375.702433 0.8879 0.8894 0.8900 0.8900 0.8903
3380.340663 0.8908 0.8916 0.8926 0.8936 0.8946
3384.978894 0.8953 0.8958 0.8963 0.8968 0.8973
3389.617124 0.8978 0.8988 0.9003 0.9013 0.9018
3394.255354 0.9023 0.9028 0.9036 0.9046 0.9050
3398.893584 0.9050 0.9056 0.9065 0.9070 0.9070
3403.531814 0.9073 0.9078 0.9083 0.9088 0.9090
3408.170044 0.9090 0.9093 0.9098 0.9100 0.9100
3412.808274 0.9100 0.9100 0.9103 0.9108 0.9110
3417.446504 0.9110 0.9110 0.9110 0.9110 0.9110
3422.084734 0.9110 0.9110 0.9107 0.9102 0.9100
3426.722965 0.9100 0.9100 0.9100 0.9100 0.9100
3431.361195 0.9100 0.9100 0.9100 0.9100 0.9100
3435.999425 0.9100 0.9098 0.9093 0.9090 0.9090
3440.637655 0.9090 0.9090 0.9090 0.9090 0.9090
3445.275885 0.9090 0.9090 0.9090 0.9092 0.9097
3449.914115 0.9100 0.9100 0.9105 0.9115 0.9120
3454.552345 0.9120 0.9125 0.9135 0.9140 0.9140
3459.190575 0.9140 0.9140 0.9140 0.9140 0.9140
3463.828806 0.9140 0.9142 0.9147 0.9150 0.9150
3468.467036 0.9150 0.9150 0.9150 0.9150 0.9152
3473.105266 0.9157 0.9160 0.9160 0.9160 0.9160
3477.743496 0.9162 0.9167 0.9172 0.9177 0.9180
3482.381726 0.9180 0.9180 0.9180 0.9180 0.9180
3487.019956 0.9180 0.9180 0.9180 0.9180 0.9182
3491.658186 0.9187 0.9190 0.9190 0.9190 0.9190
3496.296416 0.9188 0.9183 0.9180 0.9180 0.9178
3500.934646 0.9173 0.9168 0.9163 0.9160 0.9160
3505.572877 0.9158 0.9153 0.9145 0.9130 0.9116
3510.211107 0.9106 0.9096 0.9086 0.9078 0.9073
3514.849337 0.9065 0.9050 0.9038 0.9033 0.9028
3519.487567 0.9023 0.9018 0.9013 0.9008 0.9003
3524.125797 0.8995 0.8980 0.8968 0.8963 0.8958
3528.764027 0.8953 0.8947 0.8937 0.8927 0.8917
3533.402257 0.8907 0.8897 0.8888 0.8883 0.8877
3538.040487 0.8867 0.8859 0.8854 0.8847 0.8837
3542.678718 0.8827 0.8817 0.8807 0.8797 0.8786
3547.316948 0.8771 0.8748 0.8708 0.8679 0.8674
3551.955178 0.8669 0.8664 0.8661 0.8666 0.8678
3556.593408 0.8708 0.8737 0.8762 0.8785 0.8805
3561.231638 0.8827 0.8852 0.8874 0.8889 0.8904
3565.869868 0.8919 0.8934 0.8949 0.8963 0.8973
3570.508098 0.8984 0.8999 0.9011 0.9016 0.9022
3575.146328 0.9032 0.9041 0.9046 0.9052 0.9062
3579.784558 0.9071 0.9076 0.9081 0.9086 0.9090
3584.422789 0.9090 0.9091 0.9096 0.9101 0.9106
3589.061019 0.9110 0.9110 0.9110 0.9110 0.9111
3593.699249 0.9116 0.9120 0.9120 0.9122 0.9132
3598.337479 0.9141 0.9146 0.9150 0.9150 0.9150
3602.975709 0.9150 0.9150 0.9150 0.9150 0.9150
3607.613939 0.9150 0.9150 0.9150 0.9150 0.9150
3612.252169 0.9150 0.9149 0.9144 0.9140 0.9140
3616.890399 0.9140 0.9140 0.9140 0.9140 0.9140
3621.528629 0.9140 0.9140 0.9140 0.9140 0.9140
3626.166860 0.9140 0.9140 0.9140 0.9140 0.9139
3630.805090 0.9129 0.9120 0.9120 0.9120 0.9120
3635.443320 0.9120 0.9120 0.9120 0.9120 0.9120
3640.081550 0.9120 0.9120 0.9120 0.9119 0.9114
3644.719780 0.9110 0.9110 0.9109 0.9104 0.9100
3649.358010 0.9100 0.9099 0.9094 0.9090 0.9090
3653.996240 0.9089 0.9084 0.9079 0.9074 0.9070
3658.634470 0.9070 0.9069 0.9059 0.9050 0.9045
3663.272701 0.9040 0.9040 0.9040 0.9040 0.9040
3667.910931 0.9035 0.9030 0.9030 0.9030 0.9030
3672.549161 0.9030 0.9035 0.9040 0.9040 0.9040
3677.187391 0.9045 0.9051 0.9061 0.9070 0.9075
3681.825621 0.9080 0.9080 0.9080 0.9085 0.9090
3686.463851 0.9090 0.9090 0.9095 0.9100 0.9105
3691.102081 0.9110 0.9115 0.9120 0.9130 0.9140
3695.740311 0.9140 0.9140 0.9140 0.9140 0.9140
3700.378541 0.9140 0.9140 0.9140 0.9140 0.9140
3705.016772 0.9130 0.9120 0.9120 0.9120 0.9120
3709.655002 0.9120 0.9115 0.9110 0.9110 0.9110
3714.293232 0.9105 0.9100 0.9100 0.9100 0.9100
3718.931462 0.9100 0.9095 0.9090 0.9090 0.9090
3723.569692 0.9085 0.9080 0.9080 0.9080 0.9075
3728.207922 0.9070 0.9070 0.9070 0.9060 0.9050
3732.846152 0.9050 0.9050 0.9050 0.9050 0.9045
3737.484382 0.9040 0.9035 0.9030 0.9030 0.9030
3742.122612 0.9030 0.9030 0.9030 0.9030 0.9025
3746.760843 0.9020 0.9020 0.9020 0.9020 0.9020
3751.399073 0.9015 0.9010 0.9010 0.9010 0.9010
3756.037303 0.9010 0.9005 0.9000 0.9000 0.9000
3760.675533 0.9000 0.9000 0.8991 0.8981 0.8980
3765.313763 0.8980 0.8975 0.8970 0.8970 0.8970
3769.951993 0.8970 0.8970 0.8970 0.8970 0.8970
3774.590223 0.8970 0.8966 0.8961 0.8960 0.8960
3779.228453 0.8960 0.8960 0.8956 0.8951 0.8950
3783.866684 0.8950 0.8950 0.8950 0.8946 0.8941
3788.504914 0.8940 0.8940 0.8936 0.8931 0.8930
3793.143144 0.8930 0.8934 0.8939 0.8940 0.8940
3797.781374 0.8940 0.8940 0.8940 0.8940 0.8940
3802.419604 0.8940 0.8940 0.8940 0.8940 0.8940
3807.057834 0.8944 0.8949 0.8950 0.8950 0.8950
3811.696064 0.8950 0.8954 0.8959 0.8960 0.8960
3816.334294 0.8960 0.8960 0.8960 0.8960 0.8960
3820.972524 0.8960 0.8964 0.8969 0.8970 0.8970
3825.610755 0.8970 0.8970 0.8974 0.8979 0.8980
3830.248985 0.8980 0.8980 0.8980 0.8980 0.8980
3834.887215 0.8988 0.8998 0.9000 0.9000 0.9000
3839.525445 0.9000 0.9004 0.9009 0.9010 0.9010
3844.163675 0.9010 0.9010 0.9014 0.9019 0.9020
3848.801905 0.9020 0.9020 0.9020 0.9024 0.9029
3853.440135 0.9034 0.9039 0.9040 0.9040 0.9044
3858.078365 0.9049 0.9050 0.9050 0.9058 0.9067
3862.716596 0.9070 0.9070 0.9074 0.9079 0.9080
3867.354826 0.9080 0.9084 0.9089 0.9090 0.9090
3871.993056 0.9094 0.9099 0.9100 0.9100 0.9104
3876.631286 0.9109 0.9110 0.9110 0.9110 0.9110
3881.269516 0.9114 0.9119 0.9120 0.9120 0.9120
3885.907746 0.9120 0.9127 0.9137 0.9140 0.9140
3890.545976 0.9140 0.9140 0.9143 0.9148 0.9150
3895.184206 0.9150 0.9153 0.9158 0.9163 0.9168
3899.822436 0.9170 0.9170 0.9173 0.9178 0.9183
3904.460667 0.9188 0.9190 0.9190 0.9197 0.9207
3909.098897 0.9213 0.9218 0.9223 0.9228 0.9230
3913.737127 0.9230 0.9233 0.9238 0.9243 0.9248
3918.375357 0.9250 0.9250 0.9253 0.9258 0.9260
3923.013587 0.9260 0.9263 0.9268 0.9276 0.9286
3927.651817 0.9293 0.9298 0.9303 0.9308 0.9313
3932.290047 0.9318 0.9320 0.9320 0.9323 0.9328
3936.928277 0.9333 0.9338 0.9346 0.9356 0.9363
3941.566507 0.9368 0.9370 0.9370 0.9370 0.9370
3946.204738 0.9370 0.9370 0.9370 0.9370 0.9367
3950.842968 0.9362 0.9360 0.9360 0.9360 0.9360
3955.481198 0.9360 0.9360 0.9354 0.9344 0.9340
3960.119428 0.9340 0.9340 0.9340 0.9340 0.9340
3964.757658 0.9337 0.9332 0.9330 0.9330 0.9330
3969.395888 0.9330 0.9330 0.9330 0.9324 0.9314
3974.034118 0.9310 0.9310 0.9310 0.9310 0.9307
3978.672348 0.9302 0.9297 0.9292 0.9290 0.9290
3983.310579 0.9290 0.9290 0.9290 0.9290 0.9290
3987.948809 0.9290 0.9290 0.9290 0.9285 0.9275
3992.587039 0.9270 0.9270 0.9270 0.9270 0.9270
3997.225269 0.9270 0.9270 0.9270 0.9270 0.9270
4001.863499 0.9270 0.9270 0.9270 0.9270 0.9270
4006.501729 0.9270
##END=
