##TITLE=2,7-DIMETHYL-PHENANTHRENE
##JCAMP-DX=4.24
##DATA TYPE=INFRARED SPECTRUM
##CLASS=COBLENTZ
##ORIGIN=CENTRE D'ETUDES NUCLEAIRES DE GRENOBLE
##OWNER=COBLENTZ SOCIETY
Collection (C) 2018 copyright by the U.S. Secretary of Commerce
on behalf of the United States of America. All rights reserved.
##DATE=Not specified, most likely prior to 1970
##NAMES=2,7-dimethylphenanthrene
##CAS REGISTRY NO=1576-69-8
##MOLFORM=C16 H14
##SOURCE REFERENCE=COBLENTZ NO. 4220
##$NIST SOURCE=COBLENTZ
##$NIST IMAGE=cob4220
##SPECTROMETER/DATA SYSTEM=Not specified, most likely a prism, grating, or hybrid spectrometer.
##STATE=SOLID (1% IN KBr)
##PATH LENGTH=
$$PURITY 99.7%
##SAMPLING PROCEDURE=TRANSMISSION
##RESOLUTION=4
##DATA PROCESSING=DIGITIZED BY NIST FROM HARD COPY
##XUNITS=MICROMETERS
##YUNITS=TRANSMITTANCE
##XFACTOR=1.000000
##YFACTOR=1
##DELTAX=000.006677
##FIRSTX=1.978
##LASTX=15.9597
##FIRSTY=0.106
##MAXX=15.9597
##MINX=1.978
##MAXY=1.003
##MINY=0.019
##NPOINTS=2095
##XYDATA=(X++(Y..Y))
1.978000 0.1060 0.1060 0.1070 0.1090 0.1090
2.011401 0.1090 0.1110 0.1110 0.1110 0.1120
2.045000 0.1140 0.1190 0.1220 0.1240 0.1260
2.078401 0.1260 0.1270 0.1290 0.1310 0.1310
2.112000 0.1310 0.1310 0.1320 0.1320 0.1320
2.145401 0.1320 0.1320 0.1320 0.1320 0.1320
2.179000 0.1320 0.1340 0.1360 0.1360 0.1370
2.212401 0.1390 0.1410 0.1440 0.1470 0.1510
2.246000 0.1520 0.1540 0.1560 0.1570 0.1610
2.279401 0.1670 0.1720 0.1740 0.1760 0.1760
2.312000 0.1790 0.1810 0.1820 0.1820 0.1840
2.345401 0.1840 0.1860 0.1860 0.1860 0.1870
2.379000 0.1910 0.1970 0.1990 0.2000 0.2020
2.412401 0.2040 0.2040 0.2050 0.2070 0.2100
2.446000 0.2120 0.2120 0.2140 0.2150 0.2170
2.479401 0.2190 0.2200 0.2200 0.2220 0.2220
2.513000 0.2240 0.2290 0.2320 0.2390 0.2470
2.546401 0.2520 0.2600 0.2620 0.2670 0.2700
2.579000 0.2700 0.2220 0.2220 0.2320 0.2420
2.612401 0.2500 0.2670 0.2700 0.2720 0.2700
2.646000 0.2700 0.2600 0.2570 0.2570 0.2600
2.679401 0.2650 0.2750 0.2820 0.2920 0.2940
2.713000 0.3000 0.2970 0.2940 0.2900 0.2870
2.746401 0.2870 0.2900 0.2940 0.2950 0.2970
2.780000 0.2970 0.2990 0.2990 0.2990 0.2900
2.813401 0.2900 0.2970 0.3300 0.3300 0.3280
2.846000 0.3270 0.3100 0.3080 0.2990 0.2940
2.879401 0.2940 0.2990 0.3200 0.3300 0.3320
2.913000 0.3370 0.3420 0.3400 0.3320 0.3270
2.946401 0.3250 0.3280 0.3350 0.3380 0.3420
2.980000 0.3470 0.3500 0.3570 0.3670 0.3680
3.013401 0.3680 0.3700 0.3700 0.3700 0.3720
3.047000 0.3730 0.3770 0.3780 0.3830 0.3880
3.080401 0.3930 0.3950 0.4000 0.4030 0.4060
3.114000 0.4010 0.3920 0.3920 0.3970 0.4150
3.147401 0.4310 0.4150 0.3930 0.3930 0.3980
3.180000 0.4010 0.4050 0.4130 0.4200 0.4310
3.213401 0.4330 0.4310 0.4080 0.4080 0.4230
3.247000 0.4360 0.4460 0.4530 0.4560 0.4630
3.280401 0.4610 0.4600 0.4550 0.4450 0.4380
3.314000 0.4310 0.4230 0.3880 0.3800 0.3630
3.347401 0.3400 0.3270 0.3180 0.3170 0.3180
3.381000 0.3320 0.3370 0.3450 0.3550 0.3600
3.414401 0.3600 0.3580 0.3420 0.3400 0.3600
3.447000 0.3570 0.3320 0.3270 0.3250 0.3220
3.480401 0.3100 0.2800 0.2720 0.2750 0.3050
3.514000 0.3520 0.3820 0.3980 0.3980 0.3980
3.547401 0.3770 0.3450 0.3450 0.3480 0.3750
3.581000 0.3970 0.4030 0.4080 0.4530 0.4630
3.614401 0.4800 0.4830 0.4810 0.4630 0.4610
3.648000 0.4760 0.4950 0.4960 0.5040 0.5180
3.681401 0.4930 0.5060 0.5190 0.5360 0.5330
3.714000 0.5260 0.5080 0.4930 0.4900 0.4930
3.747401 0.5030 0.5330 0.5330 0.5290 0.5280
3.781000 0.5310 0.5460 0.5490 0.5560 0.5610
3.814401 0.5660 0.5690 0.5390 0.5390 0.5460
3.848000 0.5580 0.5630 0.5660 0.5660 0.5680
3.881401 0.5710 0.5880 0.5890 0.5940 0.5940
3.915000 0.5930 0.5830 0.5690 0.5790 0.5840
3.948401 0.5880 0.5880 0.5890 0.5910 0.5910
3.982000 0.5860 0.5840 0.5830 0.5790 0.5790
4.015401 0.5860 0.5960 0.6040 0.6040 0.6040
4.048000 0.5940 0.5980 0.6070 0.6170 0.6220
4.081401 0.6270 0.6320 0.6360 0.6390 0.6390
4.115000 0.6410 0.6440 0.6390 0.6360 0.6270
4.148401 0.6190 0.6160 0.6120 0.6120 0.6140
4.182000 0.6170 0.6190 0.6210 0.6220 0.6240
4.215401 0.6260 0.6270 0.6290 0.6310 0.6320
4.249000 0.6360 0.6370 0.6410 0.6410 0.6290
4.282401 0.6190 0.6060 0.6020 0.5880 0.5790
4.315000 0.5760 0.5730 0.5690 0.5640 0.5610
4.348401 0.5590 0.5580 0.5580 0.5610 0.5880
4.382000 0.5960 0.6010 0.6040 0.6110 0.6210
4.415401 0.6290 0.6370 0.6490 0.6590 0.6710
4.449000 0.6740 0.6770 0.6770 0.6770 0.6790
4.482401 0.6790 0.6810 0.6820 0.6820 0.6840
4.516000 0.6860 0.6860 0.6870 0.6870 0.6890
4.549401 0.6920 0.6970 0.6970 0.6860 0.6860
4.582000 0.6910 0.6940 0.7040 0.7090 0.7090
4.615401 0.6970 0.6990 0.6990 0.7090 0.7150
4.649000 0.7150 0.7090 0.7090 0.7090 0.7100
4.682401 0.7120 0.7140 0.7150 0.7170 0.7200
4.716000 0.7240 0.7270 0.7340 0.7270 0.7250
4.749401 0.7190 0.7190 0.7170 0.7150 0.7190
4.783000 0.7240 0.7270 0.7350 0.7390 0.7490
4.816401 0.7470 0.7450 0.7440 0.7170 0.7170
4.850000 0.7270 0.7300 0.7400 0.7340 0.7420
4.883401 0.7540 0.7540 0.7320 0.7320 0.7350
4.916000 0.7390 0.7400 0.7440 0.7440 0.7440
4.949401 0.7440 0.7440 0.7440 0.7370 0.7370
4.983000 0.7390 0.7390 0.7470 0.7490 0.7500
5.016401 0.7500 0.7520 0.7520 0.7520 0.7520
5.050000 0.7520 0.7520 0.7540 0.7540 0.7540
5.083401 0.7550 0.7550 0.7570 0.7570 0.7570
5.117000 0.7590 0.7590 0.7590 0.7600 0.7600
5.150401 0.7600 0.7620 0.7620 0.7620 0.7640
5.183000 0.7640 0.7640 0.7650 0.7650 0.7650
5.216401 0.7650 0.7670 0.7670 0.7650 0.7550
5.250000 0.7490 0.7350 0.7190 0.7140 0.7140
5.283401 0.7150 0.7220 0.7240 0.7250 0.7300
5.317000 0.7440 0.7520 0.7570 0.7590 0.7620
5.350401 0.7640 0.7650 0.7690 0.7740 0.7800
5.384000 0.7900 0.7920 0.7800 0.7850 0.7900
5.417401 0.7920 0.7950 0.7990 0.7870 0.7720
5.450000 0.7450 0.7400 0.7470 0.7470 0.7640
5.483401 0.7450 0.7450 0.7620 0.7750 0.7800
5.517000 0.7840 0.7850 0.7850 0.7840 0.7800
5.550401 0.7790 0.7800 0.7850 0.7920 0.7950
5.584000 0.7990 0.8000 0.8070 0.8250 0.8250
5.617401 0.8070 0.8020 0.8000 0.7900 0.7890
5.651000 0.7850 0.7790 0.7690 0.7500 0.7440
5.684401 0.7400 0.7340 0.7400 0.7370 0.7350
5.718000 0.7300 0.7220 0.7150 0.6990 0.6890
5.751401 0.6910 0.7090 0.7320 0.7440 0.7490
5.784000 0.7550 0.7690 0.7800 0.7800 0.7820
5.817401 0.7790 0.7690 0.7620 0.7600 0.7620
5.851000 0.7650 0.7750 0.7900 0.8000 0.8080
5.884401 0.7690 0.7650 0.7690 0.7850 0.8000
5.918000 0.8000 0.7840 0.7790 0.7770 0.7800
5.951401 0.7840 0.7850 0.7850 0.7850 0.7840
5.985000 0.7790 0.7720 0.7650 0.7520 0.7500
6.018401 0.7490 0.7500 0.7540 0.7590 0.7600
6.051000 0.7620 0.7620 0.7670 0.7740 0.7840
6.084401 0.7950 0.7950 0.7920 0.7850 0.7700
6.118000 0.7550 0.7520 0.7520 0.7540 0.7740
6.151401 0.7800 0.7800 0.7700 0.7600 0.7590
6.185000 0.7500 0.7490 0.7470 0.7420 0.7120
6.218401 0.6110 0.4860 0.4680 0.3580 0.4030
6.252000 0.4460 0.4880 0.5360 0.5780 0.5930
6.285401 0.6060 0.6310 0.6470 0.6640 0.6810
6.318000 0.6970 0.7140 0.7300 0.7450 0.7620
6.351401 0.7750 0.7890 0.7950 0.8000 0.8030
6.385000 0.8030 0.8020 0.8000 0.7750 0.7650
6.418401 0.7620 0.7640 0.7720 0.7840 0.7990
6.452000 0.7990 0.7900 0.7800 0.7650 0.7590
6.485401 0.7550 0.7540 0.7550 0.7840 0.7970
6.519000 0.8080 0.8120 0.8120 0.8070 0.7700
6.552401 0.7570 0.7500 0.7440 0.7370 0.7350
6.586000 0.7340 0.7270 0.7120 0.7120 0.7290
6.619401 0.7390 0.7400 0.7420 0.7470 0.7520
6.652000 0.7620 0.7670 0.7670 0.7690 0.7690
6.685401 0.7670 0.7620 0.7570 0.7550 0.7540
6.719000 0.7520 0.7500 0.7490 0.7400 0.7340
6.752401 0.7140 0.7070 0.7020 0.7000 0.6940
6.786000 0.6590 0.6220 0.5000 0.4800 0.4560
6.819401 0.4530 0.4510 0.4500 0.4430 0.4310
6.853000 0.4210 0.3980 0.4180 0.4380 0.4950
6.886401 0.5080 0.5390 0.5580 0.5630 0.5630
6.919000 0.5540 0.5440 0.5380 0.5130 0.4730
6.952401 0.4580 0.4530 0.4530 0.4630 0.4850
6.986000 0.4980 0.5080 0.5140 0.5190 0.5240
7.019401 0.5290 0.5360 0.5440 0.5580 0.5730
7.053000 0.5930 0.6060 0.6190 0.6360 0.6490
7.086401 0.6660 0.6760 0.6790 0.6810 0.6820
7.120000 0.6890 0.7020 0.7120 0.7240 0.7320
7.153401 0.7390 0.7450 0.7470 0.7490 0.7450
7.186000 0.7420 0.7420 0.7400 0.7390 0.7370
7.219401 0.7370 0.7370 0.7390 0.7470 0.7500
7.253000 0.7570 0.7620 0.7650 0.7620 0.7600
7.286401 0.7590 0.7540 0.7520 0.7500 0.7500
7.320000 0.7450 0.7340 0.7190 0.7170 0.7190
7.353401 0.7270 0.7440 0.7500 0.7540 0.7600
7.387000 0.7650 0.7800 0.7920 0.7950 0.7970
7.420401 0.8000 0.8020 0.8080 0.8080 0.8100
7.454000 0.8100 0.8080 0.8050 0.7820 0.7600
7.487401 0.7590 0.7470 0.7400 0.7340 0.7340
7.520000 0.7490 0.7620 0.7750 0.7890 0.7950
7.553401 0.8020 0.8100 0.8170 0.8200 0.8230
7.587000 0.8270 0.8320 0.8370 0.8400 0.8430
7.620401 0.8500 0.8530 0.8550 0.8570 0.8570
7.654000 0.8580 0.8580 0.8580 0.8570 0.8550
7.687401 0.8530 0.8530 0.8520 0.8520 0.8480
7.721000 0.8470 0.8450 0.8430 0.8420 0.8420
7.754401 0.8430 0.8450 0.8480 0.8530 0.8570
7.787000 0.8620 0.8650 0.8720 0.8730 0.8750
7.820401 0.8750 0.8770 0.8780 0.8780 0.8800
7.854000 0.8800 0.8800 0.8800 0.8800 0.8800
7.887401 0.8820 0.8820 0.8830 0.8850 0.8870
7.921000 0.8880 0.8880 0.8880 0.8880 0.8870
7.954401 0.8850 0.8850 0.8830 0.8820 0.8820
7.988000 0.8780 0.8700 0.8580 0.8220 0.7390
8.021401 0.6790 0.6010 0.5460 0.5410 0.5060
8.054000 0.4850 0.4800 0.4800 0.4930 0.5290
8.087401 0.5790 0.5930 0.6170 0.6420 0.6940
8.121000 0.7290 0.7540 0.7700 0.7840 0.7950
8.154401 0.8000 0.8050 0.8180 0.8270 0.8330
8.188000 0.8400 0.8450 0.8500 0.8550 0.8580
8.221401 0.8620 0.8650 0.8670 0.8700 0.8700
8.255000 0.8720 0.8720 0.8720 0.8730 0.8750
8.288401 0.8750 0.8770 0.8770 0.8780 0.8780
8.322000 0.8770 0.8730 0.8700 0.8620 0.8500
8.355401 0.8080 0.7570 0.7540 0.7590 0.7920
8.388000 0.8000 0.8080 0.8330 0.8520 0.8580
8.421401 0.8650 0.8680 0.8720 0.8730 0.8750
8.455000 0.8770 0.8780 0.8780 0.8800 0.8820
8.488401 0.8850 0.8870 0.8880 0.8880 0.8900
8.522000 0.8900 0.8900 0.8880 0.8870 0.8830
8.555401 0.8780 0.8730 0.8700 0.8620 0.8580
8.589000 0.8450 0.8320 0.8280 0.8230 0.8200
8.622401 0.8130 0.8030 0.8000 0.7550 0.7300
8.655000 0.7200 0.7200 0.7290 0.7650 0.7840
8.688401 0.8020 0.8200 0.8300 0.8350 0.8420
8.722000 0.8530 0.8580 0.8600 0.8650 0.8750
8.755401 0.8800 0.8820 0.8830 0.8880 0.8880
8.789000 0.8900 0.8900 0.8920 0.8920 0.8930
8.822401 0.8950 0.8970 0.8980 0.8980 0.8980
8.856000 0.8980 0.8980 0.9000 0.9000 0.9000
8.889401 0.9000 0.9000 0.9010 0.9010 0.9010
8.922000 0.9010 0.9010 0.9010 0.9010 0.9010
8.955401 0.9010 0.9010 0.9010 0.9010 0.9010
8.989000 0.9030 0.9030 0.9030 0.9030 0.9030
9.022401 0.9050 0.9050 0.9050 0.9050 0.9050
9.056000 0.9030 0.9030 0.9030 0.9030 0.9010
9.089401 0.9010 0.9000 0.8980 0.8970 0.8930
9.123000 0.8900 0.8870 0.8880 0.8930 0.8980
9.156401 0.9000 0.9010 0.9030 0.9050 0.9050
9.190000 0.9050 0.9050 0.9050 0.9050 0.9050
9.223401 0.9050 0.9050 0.9050 0.9050 0.9050
9.256000 0.9050 0.9050 0.9050 0.9050 0.9050
9.289401 0.9050 0.9050 0.9050 0.9050 0.9050
9.323000 0.9050 0.9050 0.9050 0.9050 0.9050
9.356401 0.9050 0.9050 0.9050 0.9050 0.9030
9.390000 0.9030 0.9030 0.9030 0.9010 0.9010
9.423401 0.9010 0.9010 0.9010 0.9000 0.9000
9.457000 0.9000 0.9000 0.8980 0.8980 0.8980
9.490401 0.8970 0.8970 0.8950 0.8950 0.8930
9.523000 0.8920 0.8900 0.8880 0.8850 0.8820
9.556401 0.8780 0.8720 0.8680 0.8600 0.8500
9.590000 0.8470 0.8450 0.8350 0.8200 0.8120
9.623401 0.8100 0.8030 0.8020 0.8000 0.7320
9.657000 0.7140 0.7040 0.6940 0.6910 0.6920
9.690401 0.7040 0.7150 0.7270 0.7440 0.7540
9.724000 0.7640 0.7690 0.7790 0.7890 0.7950
9.757401 0.7990 0.8020 0.8080 0.8150 0.8200
9.790000 0.8250 0.8320 0.8370 0.8400 0.8450
9.823401 0.8500 0.8520 0.8530 0.8550 0.8580
9.857000 0.8630 0.8650 0.8650 0.8650 0.8670
9.890401 0.8670 0.8670 0.8670 0.8670 0.8670
9.924000 0.8670 0.8650 0.8620 0.8530 0.8400
9.957401 0.8320 0.8280 0.8230 0.8150 0.8120
9.991000 0.8100 0.8080 0.8100 0.8120 0.8150
10.024401 0.8180 0.8200 0.8230 0.8250 0.8280
10.058000 0.8300 0.8320 0.8370 0.8480 0.8680
10.091401 0.8830 0.8870 0.8880 0.8950 0.9080
10.124000 0.9160 0.9180 0.9200 0.9210 0.9210
10.157401 0.9230 0.9250 0.9260 0.9280 0.9300
10.191000 0.9300 0.9310 0.9310 0.9330 0.9330
10.224401 0.9350 0.9350 0.9360 0.9360 0.9360
10.258000 0.9360 0.9360 0.9360 0.9360 0.9360
10.291401 0.9360 0.9360 0.9360 0.9360 0.9360
10.325000 0.9360 0.9360 0.9360 0.9350 0.9350
10.358401 0.9330 0.9300 0.9250 0.9210 0.9200
10.391000 0.9110 0.9010 0.8980 0.8970 0.8900
10.424401 0.8870 0.8850 0.8850 0.8830 0.8830
10.458000 0.8830 0.8830 0.8830 0.8850 0.8850
10.491401 0.8870 0.8880 0.8900 0.8930 0.8980
10.525000 0.9030 0.9050 0.9050 0.9060 0.9100
10.558401 0.9180 0.9280 0.9350 0.9400 0.9410
10.592000 0.9430 0.9430 0.9450 0.9460 0.9460
10.625401 0.9460 0.9460 0.9460 0.9460 0.9460
10.658000 0.9480 0.9500 0.9500 0.9530 0.9550
10.691401 0.9560 0.9580 0.9580 0.9580 0.9580
10.725000 0.9560 0.9550 0.9550 0.9530 0.9510
10.758401 0.9510 0.9500 0.9480 0.9380 0.9280
10.792000 0.9260 0.9230 0.9210 0.9210 0.9200
10.825401 0.9200 0.9210 0.9230 0.9250 0.9280
10.859000 0.9300 0.9310 0.9330 0.9350 0.9380
10.892401 0.9380 0.9400 0.9410 0.9430 0.9480
10.926000 0.9510 0.9550 0.9550 0.9560 0.9580
10.959401 0.9580 0.9580 0.9580 0.9580 0.9580
10.992000 0.9580 0.9580 0.9580 0.9580 0.9560
11.025401 0.9560 0.9560 0.9560 0.9560 0.9560
11.059000 0.9550 0.9550 0.9530 0.9510 0.9500
11.092401 0.9500 0.9480 0.9460 0.9430 0.9410
11.126000 0.9400 0.9380 0.9360 0.9300 0.9260
11.159401 0.9200 0.9100 0.9050 0.8920 0.8800
11.193000 0.8680 0.8620 0.8130 0.7270 0.6720
11.226401 0.5190 0.4610 0.3700 0.3350 0.2800
11.259000 0.2250 0.1890 0.1910 0.2420 0.2940
11.292401 0.3600 0.4100 0.4580 0.5430 0.5740
11.326000 0.6040 0.6440 0.6770 0.7170 0.7340
11.359401 0.7720 0.7900 0.8080 0.8170 0.8170
11.393000 0.8150 0.8120 0.8030 0.7970 0.7670
11.426401 0.6490 0.4580 0.3670 0.3630 0.3680
11.460000 0.3880 0.4080 0.4980 0.5580 0.5860
11.493401 0.6140 0.6440 0.6990 0.7500 0.7950
11.526000 0.8130 0.8300 0.8500 0.8630 0.8780
11.559401 0.8970 0.9030 0.9100 0.9160 0.9230
11.593000 0.9280 0.9300 0.9310 0.9330 0.9350
11.626401 0.9360 0.9360 0.9410 0.9450 0.9460
11.660000 0.9480 0.9500 0.9510 0.9530 0.9550
11.693401 0.9580 0.9600 0.9600 0.9600 0.9610
11.727000 0.9610 0.9610 0.9610 0.9610 0.9610
11.760401 0.9630 0.9630 0.9630 0.9650 0.9660
11.794000 0.9680 0.9700 0.9710 0.9730 0.9750
11.827401 0.9750 0.9730 0.9730 0.9710 0.9710
11.860000 0.9730 0.9730 0.9730 0.9750 0.9730
11.893401 0.9700 0.9680 0.9660 0.9650 0.9650
11.927000 0.9650 0.9630 0.9630 0.9600 0.9580
11.960401 0.9480 0.9430 0.9410 0.9360 0.9280
11.994000 0.9100 0.9010 0.8830 0.8580 0.8430
12.027401 0.8270 0.8130 0.8080 0.8080 0.8070
12.061000 0.8050 0.7950 0.7940 0.7900 0.7900
12.094401 0.7920 0.7940 0.7970 0.7990 0.8000
12.127000 0.8020 0.8050 0.8080 0.8150 0.8170
12.160401 0.8150 0.8050 0.8000 0.7490 0.7340
12.194000 0.7040 0.6670 0.6340 0.5080 0.4480
12.227401 0.3130 0.2600 0.1410 0.1270 0.0910
12.261000 0.0760 0.0560 0.0480 0.0430 0.0210
12.294401 0.0190 0.0210 0.0560 0.0910 0.1240
12.328000 0.1460 0.1940 0.2320 0.2690 0.3280
12.361401 0.3800 0.4010 0.4230 0.4550 0.5010
12.394000 0.5390 0.5680 0.5860 0.6020 0.6440
12.427401 0.6590 0.6760 0.7070 0.7300 0.7390
12.461000 0.7420 0.7490 0.7550 0.7600 0.7740
12.494401 0.7820 0.7820 0.7870 0.7770 0.7550
12.528000 0.7270 0.7040 0.6670 0.6190 0.4780
12.561401 0.4280 0.3820 0.3820 0.3880 0.4180
12.595000 0.4480 0.4850 0.5190 0.5980 0.6270
12.628401 0.6570 0.6970 0.7400 0.7650 0.7900
12.662000 0.8000 0.8080 0.8250 0.8380 0.8520
12.695401 0.8630 0.8730 0.8820 0.8880 0.8950
12.728000 0.8980 0.9030 0.9050 0.9060 0.9160
12.761401 0.9260 0.9300 0.9310 0.9310 0.9310
12.795000 0.9310 0.9310 0.9310 0.9310 0.9330
12.828401 0.9350 0.9380 0.9400 0.9410 0.9460
12.862000 0.9480 0.9500 0.9510 0.9550 0.9560
12.895401 0.9560 0.9560 0.9560 0.9560 0.9560
12.929000 0.9560 0.9560 0.9560 0.9560 0.9560
12.962401 0.9550 0.9550 0.9510 0.9500 0.9480
12.995000 0.9450 0.9450 0.9450 0.9430 0.9430
13.028401 0.9430 0.9430 0.9450 0.9450 0.9500
13.062000 0.9530 0.9600 0.9600 0.9610 0.9630
13.095401 0.9630 0.9660 0.9660 0.9710 0.9730
13.129000 0.9730 0.9710 0.9710 0.9700 0.9660
13.162401 0.9660 0.9680 0.9680 0.9680 0.9700
13.196000 0.9700 0.9700 0.9700 0.9700 0.9700
13.229401 0.9680 0.9660 0.9610 0.9600 0.9600
13.262000 0.9580 0.9580 0.9580 0.9580 0.9580
13.295401 0.9560 0.9550 0.9550 0.9550 0.9530
13.329000 0.9530 0.9510 0.9500 0.9500 0.9460
13.362401 0.9400 0.9310 0.9280 0.9260 0.9260
13.396000 0.9260 0.9280 0.9330 0.9330 0.9360
13.429401 0.9460 0.9500 0.9510 0.9510 0.9530
13.463000 0.9530 0.9530 0.9550 0.9550 0.9560
13.496401 0.9560 0.9580 0.9600 0.9610 0.9630
13.530000 0.9650 0.9660 0.9700 0.9710 0.9750
13.563401 0.9750 0.9750 0.9760 0.9760 0.9750
13.596000 0.9750 0.9750 0.9730 0.9730 0.9730
13.629401 0.9710 0.9710 0.9710 0.9710 0.9710
13.663000 0.9750 0.9810 0.9850 0.9860 0.9880
13.696401 0.9900 0.9900 0.9900 0.9910 0.9910
13.730000 0.9910 0.9930 0.9930 0.9930 0.9950
13.763401 0.9950 0.9950 0.9960 0.9960 0.9980
13.797000 1.0000 1.0000 1.0000 1.0010 1.0010
13.830401 1.0010 1.0010 1.0010 1.0010 1.0010
13.863000 1.0010 1.0010 1.0010 1.0010 1.0010
13.896401 1.0010 1.0010 1.0010 1.0010 1.0010
13.930000 1.0030 1.0030 1.0030 1.0030 1.0030
13.963401 1.0010 1.0010 1.0010 1.0010 1.0010
13.997000 1.0010 1.0000 1.0000 1.0000 0.9980
14.030401 0.9960 0.9960 0.9960 0.9960 0.9950
14.064000 0.9950 0.9900 0.9830 0.9810 0.9730
14.097401 0.9600 0.9360 0.8980 0.8650 0.8380
14.130000 0.8020 0.6720 0.5080 0.4260 0.2970
14.163401 0.2740 0.2400 0.2390 0.2400 0.2670
14.197000 0.3030 0.3570 0.4100 0.4510 0.4910
14.230401 0.5290 0.5660 0.5840 0.6010 0.6340
14.264000 0.6660 0.6960 0.7240 0.7500 0.7750
14.297401 0.7970 0.8070 0.8170 0.8370 0.8520
14.331000 0.8670 0.8780 0.8880 0.8970 0.9010
14.364401 0.9030 0.9050 0.9060 0.9060 0.9060
14.398000 0.9060 0.9080 0.9080 0.9080 0.9100
14.431401 0.9100 0.9100 0.9110 0.9130 0.9150
14.464000 0.9160 0.9210 0.9230 0.9200 0.9150
14.497401 0.9130 0.9060 0.9050 0.9000 0.8850
14.531000 0.8650 0.8420 0.8180 0.7690 0.7550
14.564401 0.7420 0.7370 0.7340 0.7320 0.7340
14.598000 0.7400 0.7500 0.7740 0.7920 0.8020
14.631401 0.8100 0.8270 0.8430 0.8600 0.8800
14.665000 0.8880 0.9000 0.9030 0.9050 0.9110
14.698401 0.9150 0.9210 0.9280 0.9300 0.9330
14.731000 0.9360 0.9400 0.9430 0.9480 0.9510
14.764401 0.9530 0.9550 0.9560 0.9580 0.9580
14.798000 0.9560 0.9560 0.9560 0.9550 0.9530
14.831401 0.9530 0.9530 0.9530 0.9530 0.9510
14.865000 0.9450 0.9410 0.9380 0.9350 0.9350
14.898401 0.9330 0.9330 0.9310 0.9300 0.9300
14.932000 0.9280 0.9280 0.9260 0.9260 0.9260
14.965401 0.9250 0.9250 0.9250 0.9250 0.9260
14.998000 0.9300 0.9300 0.9310 0.9310 0.9310
15.031401 0.9310 0.9310 0.9300 0.9300 0.9280
15.065000 0.9260 0.9260 0.9260 0.9260 0.9250
15.098401 0.9230 0.9230 0.9250 0.9310 0.9360
15.132000 0.9450 0.9500 0.9510 0.9530 0.9550
15.165401 0.9580 0.9600 0.9610 0.9610 0.9650
15.199000 0.9660 0.9680 0.9700 0.9700 0.9700
15.232401 0.9700 0.9700 0.9700 0.9700 0.9700
15.266000 0.9680 0.9680 0.9680 0.9680 0.9680
15.299401 0.9680 0.9680 0.9680 0.9680 0.9680
15.332000 0.9660 0.9660 0.9650 0.9630 0.9610
15.365401 0.9610 0.9610 0.9610 0.9630 0.9630
15.399000 0.9630 0.9610 0.9610 0.9610 0.9580
15.432401 0.9560 0.9560 0.9560 0.9560 0.9560
15.466000 0.9560 0.9560 0.9560 0.9560 0.9580
15.499401 0.9580 0.9580 0.9560 0.9560 0.9550
15.533000 0.9550 0.9550 0.9560 0.9560 0.9560
15.566401 0.9560 0.9560 0.9550 0.9550 0.9550
15.599000 0.9550 0.9550 0.9560 0.9560 0.9580
15.632401 0.9600 0.9600 0.9600 0.9600 0.9600
15.666000 0.9580 0.9560 0.9560 0.9560 0.9560
15.699401 0.9560 0.9560 0.9560 0.9560 0.9550
15.733000 0.9550 0.9560 0.9560 0.9560 0.9560
15.766401 0.9560 0.9560 0.9550 0.9550 0.9550
15.800000 0.9530 0.9530 0.9510 0.9510 0.9510
15.833401 0.9530 0.9530 0.9530 0.9530 0.9550
15.866000 0.9550 0.9550 0.9550 0.9530 0.9530
15.899401 0.9530 0.9530 0.9510 0.9510 0.9510
15.933000 0.9510 0.9510 0.9500 0.9480 0.9460
##END=
