##TITLE=3,6-DIMETHYL-PHENANTHRENE
##JCAMP-DX=4.24
##DATA TYPE=INFRARED SPECTRUM
##CLASS=COBLENTZ
##ORIGIN=CENTRE D'ETUDES NUCLEAIRES DE GRENOBLE
##OWNER=COBLENTZ SOCIETY
Collection (C) 2018 copyright by the U.S. Secretary of Commerce
on behalf of the United States of America. All rights reserved.
##DATE=Not specified, most likely prior to 1970
##NAMES=3,6-dimethylphenanthrene
##CAS REGISTRY NO=1576-67-6
##MOLFORM=C16 H14
##SOURCE REFERENCE=COBLENTZ NO. 4238
##$NIST SOURCE=COBLENTZ
##$NIST IMAGE=cob4238
##SPECTROMETER/DATA SYSTEM=Not specified, most likely a prism, grating, or hybrid spectrometer.
##STATE=SOLID (1% IN KBr)
##PATH LENGTH=
$$PURITY 99.6%
##SAMPLING PROCEDURE=TRANSMISSION
##RESOLUTION=4
$$SPECTRAL CONTAMINATION DUE TO AN UNKNOWN AROUND 2300 CM^-^1
##DATA PROCESSING=DIGITIZED BY NIST FROM HARD COPY
##XUNITS=MICROMETERS
##YUNITS=TRANSMITTANCE
##XFACTOR=1.000000
##YFACTOR=1
##DELTAX=000.006674
##FIRSTX=1.986
##LASTX=15.953
##FIRSTY=0.03
##MAXX=15.953
##MINX=1.986
##MAXY=0.928
##MINY=0.001
##NPOINTS=2094
##XYDATA=(X++(Y..Y))
1.986000 0.0300 0.0300 0.0300 0.0300 0.0300
2.019383 0.0300 0.0310 0.0310 0.0310 0.0310
2.052000 0.0310 0.0310 0.0310 0.0330 0.0330
2.085383 0.0330 0.0330 0.0330 0.0350 0.0350
2.119000 0.0360 0.0360 0.0360 0.0360 0.0380
2.152383 0.0380 0.0380 0.0380 0.0380 0.0400
2.186000 0.0400 0.0410 0.0410 0.0410 0.0430
2.219383 0.0430 0.0450 0.0450 0.0450 0.0460
2.253000 0.0460 0.0460 0.0480 0.0500 0.0500
2.286383 0.0510 0.0510 0.0530 0.0530 0.0530
2.319000 0.0550 0.0560 0.0580 0.0580 0.0600
2.352383 0.0600 0.0610 0.0630 0.0630 0.0650
2.386000 0.0650 0.0660 0.0680 0.0680 0.0700
2.419383 0.0700 0.0710 0.0730 0.0730 0.0750
2.453000 0.0750 0.0760 0.0760 0.0780 0.0780
2.486383 0.0800 0.0800 0.0810 0.0810 0.0830
2.520000 0.0830 0.0850 0.0850 0.0850 0.0860
2.553383 0.0860 0.0880 0.0880 0.0880 0.0900
2.586000 0.0900 0.0910 0.0910 0.0930 0.0930
2.619383 0.0930 0.0950 0.0950 0.0950 0.0960
2.653000 0.0960 0.0960 0.0960 0.0980 0.0980
2.686383 0.1020 0.1020 0.1030 0.1050 0.1050
2.720000 0.1070 0.1080 0.1080 0.1100 0.1100
2.753383 0.1100 0.1120 0.1120 0.1130 0.1130
2.786000 0.1130 0.1130 0.1150 0.1150 0.1170
2.819383 0.1170 0.1170 0.1180 0.1200 0.1200
2.853000 0.1220 0.1230 0.1230 0.1250 0.1270
2.886383 0.1270 0.1270 0.1280 0.1280 0.1280
2.920000 0.1300 0.1300 0.1300 0.1300 0.1300
2.953383 0.1300 0.1320 0.1320 0.1320 0.1320
2.987000 0.1330 0.1330 0.1370 0.1380 0.1420
3.020383 0.1450 0.1480 0.1520 0.1570 0.1580
3.053000 0.1600 0.1620 0.1650 0.1700 0.1750
3.086383 0.1770 0.1800 0.1820 0.1850 0.1870
3.120000 0.1880 0.1900 0.1920 0.1930 0.1950
3.153383 0.1970 0.1980 0.2000 0.2040 0.2050
3.187000 0.2070 0.2090 0.2100 0.2140 0.2150
3.220383 0.2170 0.2190 0.2220 0.2240 0.2250
3.254000 0.2270 0.2290 0.2290 0.2320 0.2340
3.287383 0.2340 0.2340 0.2240 0.2120 0.2000
3.320000 0.1880 0.1770 0.1650 0.1580 0.1570
3.353383 0.1550 0.1550 0.1550 0.1570 0.1580
3.387000 0.1620 0.1820 0.1870 0.1870 0.1850
3.420383 0.1820 0.1780 0.1750 0.1720 0.1700
3.454000 0.1670 0.1630 0.1570 0.1530 0.1520
3.487383 0.1530 0.1570 0.1600 0.1670 0.1720
3.521000 0.1820 0.1900 0.1970 0.2000 0.2070
3.554383 0.2090 0.2090 0.2120 0.2150 0.2170
3.587000 0.2200 0.2290 0.2470 0.2650 0.2700
3.620383 0.2740 0.2790 0.2820 0.2850 0.2870
3.654000 0.2920 0.2940 0.2950 0.2950 0.2970
3.687383 0.2970 0.2990 0.2990 0.3010 0.3010
3.721000 0.3040 0.3060 0.3070 0.3090 0.3120
3.754383 0.3160 0.3170 0.3210 0.3240 0.3270
3.787000 0.3340 0.3360 0.3390 0.3410 0.3420
3.820383 0.3420 0.3440 0.3460 0.3470 0.3470
3.854000 0.3490 0.3510 0.3520 0.3520 0.3540
3.887383 0.3560 0.3570 0.3570 0.3590 0.3610
3.921000 0.3620 0.3620 0.3640 0.3660 0.3670
3.954383 0.3690 0.3710 0.3710 0.3720 0.3740
3.988000 0.3740 0.3760 0.3770 0.3790 0.3790
4.021383 0.3810 0.3810 0.3820 0.3820 0.3840
4.054000 0.3840 0.3860 0.3860 0.3870 0.3870
4.087383 0.3890 0.3890 0.3910 0.3920 0.3940
4.121000 0.3940 0.3960 0.3960 0.3970 0.3970
4.154383 0.3990 0.3990 0.4010 0.4010 0.4030
4.188000 0.4030 0.4040 0.4040 0.4040 0.4060
4.221383 0.4060 0.4060 0.4080 0.4090 0.4090
4.255000 0.4090 0.4080 0.4060 0.4030 0.3920
4.288383 0.3810 0.3710 0.3660 0.3610 0.3590
4.321000 0.3590 0.3610 0.3620 0.3660 0.3690
4.354383 0.3720 0.3740 0.3760 0.3790 0.3810
4.388000 0.3820 0.3860 0.3890 0.3970 0.4060
4.421383 0.4140 0.4230 0.4310 0.4390 0.4440
4.455000 0.4480 0.4480 0.4490 0.4510 0.4510
4.488383 0.4530 0.4530 0.4530 0.4540 0.4580
4.522000 0.4630 0.4640 0.4660 0.4660 0.4680
4.555383 0.4680 0.4690 0.4690 0.4690 0.4710
4.588000 0.4710 0.4710 0.4710 0.4730 0.4730
4.621383 0.4740 0.4740 0.4760 0.4760 0.4760
4.655000 0.4780 0.4790 0.4810 0.4830 0.4840
4.688383 0.4840 0.4840 0.4860 0.4860 0.4880
4.722000 0.4880 0.4880 0.4910 0.4890 0.4910
4.755383 0.4930 0.4930 0.4940 0.4960 0.4980
4.789000 0.5000 0.5000 0.5010 0.5010 0.5030
4.822383 0.5030 0.5050 0.5060 0.5060 0.5080
4.855000 0.5080 0.5100 0.5100 0.5110 0.5130
4.888383 0.5130 0.5150 0.5150 0.5160 0.5160
4.922000 0.5160 0.5180 0.5180 0.5180 0.5200
4.955383 0.5200 0.5200 0.5210 0.5210 0.5210
4.989000 0.5230 0.5230 0.5250 0.5260 0.5280
5.022383 0.5280 0.5310 0.5330 0.5330 0.5350
5.055000 0.5350 0.5360 0.5380 0.5380 0.5400
5.088383 0.5410 0.5410 0.5430 0.5450 0.5460
5.122000 0.5480 0.5510 0.5530 0.5550 0.5550
5.155383 0.5580 0.5600 0.5600 0.5600 0.5560
5.189000 0.5550 0.5500 0.5500 0.5480 0.5450
5.222383 0.5400 0.5350 0.5330 0.5300 0.5280
5.256000 0.5250 0.5230 0.5210 0.5200 0.5180
5.289383 0.5160 0.5160 0.5200 0.5250 0.5280
5.322000 0.5360 0.5430 0.5580 0.5630 0.5650
5.355383 0.5660 0.5680 0.5680 0.5680 0.5700
5.389000 0.5700 0.5710 0.5710 0.5730 0.5730
5.422383 0.5730 0.5730 0.5730 0.5750 0.5750
5.456000 0.5750 0.5750 0.5750 0.5750 0.5760
5.489383 0.5760 0.5760 0.5780 0.5780 0.5800
5.523000 0.5800 0.5810 0.5810 0.5850 0.5860
5.556383 0.5880 0.5880 0.5860 0.5810 0.5780
5.589000 0.5750 0.5710 0.5630 0.5610 0.5630
5.622383 0.5680 0.5710 0.5730 0.5750 0.5760
5.656000 0.5780 0.5800 0.5830 0.5850 0.5860
5.689383 0.5880 0.5900 0.5860 0.5850 0.5750
5.723000 0.5710 0.5700 0.5680 0.5660 0.5650
5.756383 0.5610 0.5550 0.5510 0.5500 0.5500
5.790000 0.5480 0.5550 0.5600 0.5700 0.5750
5.823383 0.5780 0.5800 0.5850 0.5900 0.5950
5.856000 0.6000 0.6000 0.6050 0.6100 0.6130
5.889383 0.6130 0.6120 0.6120 0.6080 0.6070
5.923000 0.6020 0.5980 0.5910 0.5850 0.5800
5.956383 0.5780 0.5800 0.5860 0.5980 0.6050
5.990000 0.6080 0.6080 0.6070 0.6050 0.6030
6.023383 0.6030 0.6000 0.5980 0.5950 0.5910
6.056000 0.5900 0.5910 0.5960 0.6030 0.6070
6.089383 0.6070 0.6070 0.6050 0.5980 0.5910
6.123000 0.5830 0.5810 0.5850 0.5850 0.5900
6.156383 0.5910 0.5910 0.5880 0.5800 0.5660
6.190000 0.5510 0.5300 0.5060 0.4860 0.4710
6.223383 0.4490 0.4260 0.4240 0.4190 0.4140
6.257000 0.4110 0.4090 0.2840 0.2840 0.3510
6.290383 0.3540 0.4190 0.4330 0.4560 0.4980
6.323000 0.5310 0.5660 0.5750 0.5850 0.5980
6.356383 0.6030 0.6080 0.6170 0.6200 0.6220
6.390000 0.6220 0.6220 0.6200 0.6180 0.6170
6.423383 0.6150 0.6130 0.6120 0.6100 0.6080
6.457000 0.6070 0.6050 0.6030 0.6020 0.6020
6.490383 0.6030 0.6080 0.6130 0.6250 0.6350
6.524000 0.6400 0.6420 0.6400 0.6370 0.6230
6.557383 0.6130 0.6150 0.6170 0.6200 0.6270
6.590000 0.6320 0.6330 0.6330 0.6320 0.6130
6.623383 0.6070 0.5730 0.5400 0.4510 0.3810
6.657000 0.3390 0.3040 0.3040 0.3210 0.3790
6.690383 0.3910 0.4090 0.4380 0.4690 0.5060
6.724000 0.5450 0.5480 0.5560 0.5650 0.5700
6.757383 0.5730 0.5750 0.5750 0.5780 0.5800
6.791000 0.5850 0.5880 0.5930 0.5960 0.5960
6.824383 0.5960 0.5930 0.5860 0.5810 0.5730
6.857000 0.5500 0.5410 0.5330 0.5280 0.4940
6.890383 0.4810 0.4760 0.4630 0.4580 0.4360
6.924000 0.3720 0.3560 0.3090 0.2590 0.2400
6.957383 0.2370 0.2400 0.2600 0.2820 0.3020
6.991000 0.3240 0.3470 0.3760 0.4060 0.4340
7.024383 0.4460 0.4530 0.4640 0.4760 0.4840
7.057000 0.5100 0.5230 0.5350 0.5430 0.5580
7.090383 0.5630 0.5680 0.5710 0.5760 0.5800
7.124000 0.5850 0.5900 0.5960 0.6030 0.6070
7.157383 0.6070 0.6080 0.6100 0.6100 0.6100
7.191000 0.6100 0.6120 0.6120 0.6130 0.6130
7.224383 0.6130 0.6150 0.6150 0.6150 0.6150
7.258000 0.6130 0.6130 0.6120 0.6080 0.6050
7.291383 0.6030 0.6000 0.5900 0.5680 0.5600
7.324000 0.5610 0.5700 0.6000 0.6100 0.6220
7.357383 0.6270 0.6330 0.6420 0.6470 0.6480
7.391000 0.6500 0.6500 0.6500 0.6480 0.6480
7.424383 0.6470 0.6470 0.6450 0.6450 0.6430
7.458000 0.6420 0.6420 0.6420 0.6430 0.6470
7.491383 0.6530 0.6620 0.6720 0.6800 0.6870
7.525000 0.6920 0.6920 0.6980 0.6980 0.7050
7.558383 0.7120 0.7150 0.7170 0.7190 0.7200
7.591000 0.7220 0.7240 0.7270 0.7290 0.7300
7.624383 0.7300 0.7320 0.7320 0.7320 0.7320
7.658000 0.7340 0.7340 0.7350 0.7390 0.7400
7.691383 0.7420 0.7420 0.7440 0.7440 0.7440
7.725000 0.7420 0.7420 0.7420 0.7400 0.7390
7.758383 0.7350 0.7300 0.7120 0.7020 0.6720
7.792000 0.6420 0.6330 0.6330 0.6400 0.6900
7.825383 0.7090 0.7200 0.7290 0.7320 0.7340
7.858000 0.7350 0.7370 0.7400 0.7450 0.7490
7.891383 0.7500 0.7520 0.7520 0.7540 0.7540
7.925000 0.7520 0.7520 0.7520 0.7500 0.7500
7.958383 0.7490 0.7490 0.7490 0.7490 0.7490
7.992000 0.7500 0.7500 0.7520 0.7520 0.7520
8.025383 0.7520 0.7520 0.7500 0.7500 0.7450
8.059000 0.7300 0.7120 0.6980 0.6850 0.6680
8.092383 0.6550 0.6530 0.6550 0.6870 0.7190
8.125000 0.7250 0.7300 0.7420 0.7420 0.7450
8.158383 0.7490 0.7500 0.7520 0.7520 0.7540
8.192000 0.7540 0.7570 0.7570 0.7590 0.7590
8.225383 0.7600 0.7600 0.7620 0.7620 0.7640
8.259000 0.7640 0.7640 0.7650 0.7670 0.7670
8.292383 0.7670 0.7670 0.7690 0.7690 0.7690
8.325000 0.7690 0.7690 0.7690 0.7670 0.7670
8.358383 0.7670 0.7650 0.7640 0.7640 0.7620
8.392000 0.7600 0.7570 0.7550 0.7520 0.7500
8.425383 0.7470 0.7400 0.7340 0.7240 0.6730
8.459000 0.5900 0.5710 0.5710 0.5780 0.6130
8.492383 0.6400 0.6600 0.6780 0.6930 0.7020
8.526000 0.7150 0.7220 0.7270 0.7350 0.7420
8.559383 0.7490 0.7540 0.7550 0.7570 0.7570
8.592000 0.7590 0.7600 0.7600 0.7620 0.7640
8.625383 0.7640 0.7650 0.7670 0.7670 0.7650
8.659000 0.7650 0.7590 0.7500 0.7320 0.6930
8.692383 0.6230 0.6020 0.5980 0.6020 0.6350
8.726000 0.6730 0.7070 0.7100 0.7190 0.7220
8.759383 0.7270 0.7340 0.7400 0.7470 0.7540
8.793000 0.7570 0.7570 0.7590 0.7600 0.7640
8.826383 0.7650 0.7650 0.7670 0.7670 0.7690
8.859000 0.7690 0.7700 0.7720 0.7720 0.7720
8.892383 0.7740 0.7740 0.7740 0.7740 0.7720
8.926000 0.7720 0.7720 0.7700 0.7700 0.7700
8.959383 0.7700 0.7700 0.7700 0.7720 0.7720
8.993000 0.7720 0.7720 0.7740 0.7740 0.7740
9.026383 0.7740 0.7750 0.7750 0.7740 0.7740
9.060000 0.7720 0.7720 0.7720 0.7720 0.7700
9.093383 0.7700 0.7670 0.7670 0.7650 0.7640
9.126000 0.7640 0.7620 0.7600 0.7600 0.7600
9.159383 0.7620 0.7620 0.7640 0.7640 0.7650
9.193000 0.7670 0.7700 0.7720 0.7740 0.7750
9.226383 0.7770 0.7790 0.7800 0.7820 0.7840
9.260000 0.7850 0.7870 0.7890 0.7890 0.7900
9.293383 0.7900 0.7920 0.7920 0.7940 0.7940
9.326000 0.7940 0.7940 0.7940 0.7940 0.7940
9.359383 0.7950 0.7950 0.7970 0.7970 0.7990
9.393000 0.7990 0.8010 0.8010 0.8010 0.8010
9.426383 0.7990 0.7990 0.7990 0.7970 0.7950
9.460000 0.7950 0.7940 0.7920 0.7900 0.7900
9.493383 0.7890 0.7850 0.7790 0.7720 0.7650
9.527000 0.7620 0.7590 0.7550 0.7500 0.7440
9.560383 0.7350 0.7220 0.7100 0.7040 0.6970
9.593000 0.6920 0.6870 0.6830 0.6780 0.6700
9.626383 0.6580 0.6500 0.6380 0.6080 0.5830
9.660000 0.5630 0.5480 0.5330 0.5080 0.4940
9.693383 0.4930 0.4940 0.5110 0.5410 0.5750
9.727000 0.6000 0.6230 0.6450 0.6600 0.6880
9.760383 0.6980 0.7000 0.7070 0.7100 0.7290
9.794000 0.7340 0.7390 0.7450 0.7500 0.7550
9.827383 0.7550 0.7590 0.7600 0.7620 0.7620
9.860000 0.7640 0.7650 0.7690 0.7740 0.7790
9.893383 0.7840 0.7890 0.7900 0.7920 0.7920
9.927000 0.7920 0.7920 0.7940 0.7940 0.7950
9.960383 0.7950 0.7970 0.7970 0.8010 0.8010
9.994000 0.8070 0.8110 0.8140 0.8160 0.8170
10.027383 0.8170 0.8170 0.8160 0.8140 0.8110
10.061000 0.8110 0.8090 0.8090 0.8070 0.8070
10.094383 0.8070 0.8060 0.8040 0.7970 0.7950
10.127000 0.7870 0.7870 0.7900 0.8010 0.8020
10.160383 0.8070 0.8110 0.8110 0.8120 0.8140
10.194000 0.8140 0.8160 0.8170 0.8170 0.8190
10.227383 0.8190 0.8190 0.8170 0.8170 0.8140
10.261000 0.8090 0.7970 0.7690 0.7500 0.7020
10.294383 0.6470 0.6270 0.6050 0.6050 0.6350
10.328000 0.6600 0.6970 0.7270 0.7440 0.7540
10.361383 0.7600 0.7670 0.7750 0.7800 0.7850
10.394000 0.7870 0.7850 0.7450 0.7340 0.7100
10.427383 0.6820 0.6770 0.6770 0.6820 0.6820
10.461000 0.6800 0.6770 0.6730 0.6700 0.6730
10.494383 0.6970 0.7200 0.7420 0.7590 0.7740
10.528000 0.7890 0.8010 0.8120 0.8220 0.8310
10.561383 0.8370 0.8420 0.8460 0.8470 0.8470
10.594000 0.8490 0.8490 0.8520 0.8520 0.8540
10.627383 0.8540 0.8560 0.8570 0.8590 0.8590
10.661000 0.8570 0.8560 0.8560 0.8570 0.8570
10.694383 0.8570 0.8570 0.8570 0.8570 0.8570
10.728000 0.8560 0.8560 0.8540 0.8510 0.8490
10.761383 0.8420 0.8320 0.8140 0.8060 0.7890
10.795000 0.7850 0.7850 0.7870 0.7900 0.7950
10.828383 0.8020 0.8090 0.8160 0.8220 0.8290
10.861000 0.8360 0.8390 0.8420 0.8490 0.8520
10.894383 0.8520 0.8540 0.8540 0.8560 0.8560
10.928000 0.8560 0.8560 0.8570 0.8590 0.8620
10.961383 0.8640 0.8670 0.8690 0.8710 0.8720
10.995000 0.8740 0.8740 0.8740 0.8740 0.8760
11.028383 0.8760 0.8770 0.8770 0.8770 0.8790
11.062000 0.8790 0.8790 0.8790 0.8790 0.8790
11.095383 0.8770 0.8770 0.8760 0.8760 0.8740
11.128000 0.8720 0.8740 0.8760 0.8770 0.8790
11.161383 0.8790 0.8810 0.8810 0.8810 0.8790
11.195000 0.8790 0.8760 0.8710 0.8670 0.8670
11.228383 0.8660 0.8590 0.8540 0.8510 0.8390
11.262000 0.8370 0.8270 0.8120 0.8090 0.8070
11.295383 0.7940 0.7540 0.7300 0.7000 0.6800
11.329000 0.6470 0.6230 0.6020 0.6020 0.6250
11.362383 0.6380 0.6630 0.6820 0.6850 0.6850
11.395000 0.6870 0.6870 0.6880 0.7000 0.7140
11.428383 0.7390 0.7540 0.7550 0.7550 0.7540
11.462000 0.7400 0.7320 0.7270 0.7220 0.7200
11.495383 0.7220 0.7270 0.7300 0.7350 0.7440
11.529000 0.7500 0.7590 0.7640 0.7650 0.7670
11.562383 0.7690 0.7690 0.7700 0.7720 0.7790
11.595000 0.7820 0.7850 0.7850 0.7890 0.7900
11.628383 0.7890 0.7870 0.7820 0.7740 0.7690
11.662000 0.7590 0.7550 0.7540 0.7500 0.7420
11.695383 0.7320 0.7200 0.7070 0.6930 0.6630
11.729000 0.6500 0.6170 0.5580 0.5430 0.5280
11.762383 0.4560 0.3860 0.3190 0.2590 0.2020
11.796000 0.1550 0.1150 0.1000 0.0850 0.0650
11.829383 0.0580 0.0550 0.0530 0.0510 0.0500
11.862000 0.0480 0.0430 0.0400 0.0350 0.0260
11.895383 0.0180 0.0130 0.0080 0.0060 0.0050
11.929000 0.0030 0.0010 0.0010 0.0010 0.0030
11.962383 0.0060 0.0160 0.0500 0.0760 0.1470
11.996000 0.1950 0.2470 0.2990 0.3470 0.3910
12.029383 0.4230 0.4390 0.4680 0.4810 0.5080
12.063000 0.5280 0.5480 0.5800 0.5950 0.6100
12.096383 0.6350 0.6470 0.6580 0.6650 0.6770
12.129000 0.6870 0.6930 0.7000 0.7070 0.7150
12.162383 0.7200 0.7220 0.7290 0.7370 0.7440
12.196000 0.7470 0.7490 0.7500 0.7520 0.7540
12.229383 0.7550 0.7570 0.7600 0.7640 0.7690
12.263000 0.7700 0.7720 0.7720 0.7740 0.7740
12.296383 0.7740 0.7740 0.7750 0.7770 0.7770
12.330000 0.7790 0.7800 0.7820 0.7850 0.7870
12.363383 0.7900 0.7950 0.7970 0.8010 0.8040
12.396000 0.8060 0.8070 0.8090 0.8120 0.8160
12.429383 0.8190 0.8190 0.8210 0.8240 0.8240
12.463000 0.8260 0.8270 0.8270 0.8290 0.8310
12.496383 0.8310 0.8310 0.8310 0.8310 0.8320
12.530000 0.8320 0.8320 0.8340 0.8340 0.8340
12.563383 0.8360 0.8360 0.8370 0.8390 0.8410
12.597000 0.8420 0.8440 0.8460 0.8460 0.8470
12.630383 0.8490 0.8510 0.8510 0.8510 0.8490
12.663000 0.8470 0.8470 0.8460 0.8420 0.8370
12.696383 0.8240 0.7990 0.7800 0.7500 0.6950
12.730000 0.6330 0.5960 0.5550 0.5350 0.5150
12.763383 0.4730 0.4710 0.4730 0.5000 0.5280
12.797000 0.6250 0.6630 0.7020 0.7490 0.7690
12.830383 0.7820 0.7990 0.8040 0.8070 0.8090
12.863000 0.8110 0.8110 0.8110 0.8120 0.8140
12.896383 0.8160 0.8190 0.8310 0.8460 0.8510
12.930000 0.8520 0.8520 0.8540 0.8560 0.8570
12.963383 0.8570 0.8590 0.8620 0.8640 0.8640
12.997000 0.8660 0.8670 0.8690 0.8690 0.8710
13.030383 0.8710 0.8720 0.8740 0.8770 0.8810
13.064000 0.8840 0.8860 0.8860 0.8860 0.8870
13.097383 0.8870 0.8870 0.8860 0.8860 0.8860
13.130000 0.8820 0.8810 0.8770 0.8760 0.8760
13.163383 0.8760 0.8770 0.8790 0.8790 0.8810
13.197000 0.8820 0.8820 0.8840 0.8840 0.8840
13.230383 0.8820 0.8810 0.8790 0.8790 0.8810
13.264000 0.8810 0.8810 0.8810 0.8820 0.8840
13.297383 0.8870 0.8890 0.8920 0.8940 0.8960
13.331000 0.8990 0.8990 0.8990 0.8970 0.8970
13.364383 0.8940 0.8940 0.8920 0.8890 0.8870
13.397000 0.8860 0.8840 0.8840 0.8860 0.8890
13.430383 0.8910 0.8940 0.8960 0.8970 0.8970
13.464000 0.8990 0.9010 0.9030 0.9030 0.9010
13.497383 0.9010 0.8990 0.8970 0.8970 0.8970
13.531000 0.8970 0.8990 0.9010 0.9040 0.9060
13.564383 0.9060 0.9080 0.9090 0.9090 0.9110
13.598000 0.9110 0.9110 0.9110 0.9090 0.9090
13.631383 0.9080 0.9080 0.9060 0.9060 0.9040
13.664000 0.9040 0.9040 0.9060 0.9080 0.9110
13.697383 0.9130 0.9140 0.9180 0.9230 0.9260
13.731000 0.9280 0.9280 0.9240 0.9210 0.9190
13.764383 0.9140 0.9110 0.9090 0.9090 0.9090
13.798000 0.9110 0.9130 0.9130 0.9140 0.9160
13.831383 0.9180 0.9190 0.9210 0.9230 0.9230
13.864000 0.9230 0.9240 0.9240 0.9240 0.9240
13.897383 0.9240 0.9240 0.9240 0.9240 0.9210
13.931000 0.9190 0.9190 0.9180 0.9160 0.9160
13.964383 0.9140 0.9140 0.9160 0.9180 0.9190
13.998000 0.9190 0.9190 0.9190 0.9160 0.9130
14.031383 0.9040 0.8970 0.8790 0.8620 0.8470
14.065000 0.8320 0.8170 0.8070 0.7950 0.7850
14.098383 0.7740 0.7720 0.7750 0.7850 0.7990
14.131000 0.8070 0.8160 0.8240 0.8420 0.8560
14.164383 0.8670 0.8720 0.8760 0.8760 0.8790
14.198000 0.8820 0.8840 0.8840 0.8870 0.8890
14.231383 0.8910 0.8920 0.8960 0.8970 0.9030
14.265000 0.9110 0.9130 0.9190 0.9230 0.9230
14.298383 0.9190 0.9140 0.9090 0.9080 0.9040
14.332000 0.9040 0.9010 0.8990 0.8970 0.8970
14.365383 0.8960 0.8940 0.8940 0.8940 0.8960
14.398000 0.8970 0.8990 0.8990 0.9010 0.9010
14.431383 0.9030 0.9040 0.9040 0.9060 0.9060
14.465000 0.9080 0.9080 0.9080 0.9060 0.9060
14.498383 0.9060 0.9060 0.9040 0.9040 0.9040
14.532000 0.9040 0.9060 0.9060 0.9060 0.9080
14.565383 0.9090 0.9140 0.9140 0.9160 0.9180
14.599000 0.9180 0.9180 0.9160 0.9160 0.9140
14.632383 0.9130 0.9060 0.9040 0.9030 0.9010
14.665000 0.8990 0.8990 0.8970 0.8960 0.8940
14.698383 0.8920 0.8910 0.8890 0.8840 0.8810
14.732000 0.8760 0.8740 0.8720 0.8720 0.8710
14.765383 0.8710 0.8690 0.8690 0.8690 0.8690
14.799000 0.8710 0.8710 0.8720 0.8720 0.8740
14.832383 0.8740 0.8760 0.8770 0.8820 0.8860
14.866000 0.8890 0.8940 0.8970 0.9010 0.9030
14.899383 0.9040 0.9040 0.9080 0.9080 0.9080
14.932000 0.9080 0.9060 0.9060 0.9060 0.9040
14.965383 0.8970 0.8960 0.8940 0.8910 0.8840
14.999000 0.8810 0.8770 0.8740 0.8720 0.8720
15.032383 0.8740 0.8760 0.8790 0.8810 0.8820
15.066000 0.8840 0.8860 0.8890 0.8920 0.8960
15.099383 0.8990 0.9030 0.9040 0.9060 0.9080
15.132000 0.9080 0.9080 0.9060 0.9040 0.8990
15.165383 0.8920 0.8860 0.8790 0.8760 0.8820
15.199000 0.8890 0.8960 0.9040 0.9080 0.9090
15.232383 0.9090 0.9080 0.9080 0.9060 0.9060
15.266000 0.9060 0.9040 0.9040 0.9030 0.9010
15.299383 0.8990 0.8940 0.8860 0.8790 0.8770
15.333000 0.8810 0.8860 0.8870 0.8940 0.8940
15.366383 0.8920 0.8910 0.8890 0.8910 0.8940
15.399000 0.8970 0.9010 0.9030 0.9060 0.9060
15.432383 0.9080 0.9090 0.9130 0.9140 0.9140
15.466000 0.9140 0.9130 0.9090 0.9080 0.9030
15.499383 0.8970 0.8910 0.8890 0.8870 0.8890
15.533000 0.8960 0.9030 0.9060 0.9090 0.9110
15.566383 0.9130 0.9160 0.9160 0.9130 0.9130
15.600000 0.9040 0.8970 0.8970 0.8990 0.9010
15.633383 0.9040 0.9060 0.9090 0.9090 0.9090
15.666000 0.9090 0.9090 0.9080 0.9060 0.9030
15.699383 0.9010 0.8990 0.8970 0.8970 0.8970
15.733000 0.8970 0.8970 0.8960 0.8940 0.8920
15.766383 0.8890 0.8840 0.8590 0.8310 0.8010
15.800000 0.7790 0.7570 0.7540 0.7520 0.7470
15.833383 0.7290 0.7200 0.7150 0.7020 0.6900
15.867000 0.6770 0.6720 0.6620 0.6520 0.6500
15.900383 0.6520 0.6680 0.6800 0.6830 0.6870
15.933000 0.6920 0.6980 0.7020 0.6980
##END=
