##TITLE=BENZENE, 1-BROMO-4-ETHYL-
##JCAMP-DX=4.24
##DATA TYPE=INFRARED SPECTRUM
##CLASS=COBLENTZ III
##ORIGIN=DOW CHEMICAL COMPANY
##OWNER=COBLENTZ SOCIETY
Collection (C) 2018 copyright by the U.S. Secretary of Commerce
on behalf of the United States of America. All rights reserved.
##DATE=1959/10/30
##NAMES=1-bromo-4-ethylbenzene
##CAS REGISTRY NO=1585-07-5
##MOLFORM=C8 H9 Br
##SOURCE REFERENCE=COBLENTZ NO. 10044
##$NIST SOURCE=COBLENTZ
##$NIST IMAGE=cob10044
##SPECTROMETER/DATA SYSTEM=DOW KBr FOREPRISM-GRATING
##INSTRUMENT PARAMETERS=BLAZED AT 3.5, 12.0, 20.0 MICRON, CHANGED AT 5.0, 7.5, 14.9 MICRON
##STATE=SOLUTION (10% IN CCl4 FOR 3800-1333 AND 10% IN CS2 FOR 1333-450 CM^-^1)
##PATH LENGTH=0.011, 0.011 CM
$$SPECTRAL CONTAMINATION DUE TO CCl4 AROUND 1550, AND CS2 AROUND 855, 655 CM^-^1
##SAMPLING PROCEDURE=TRANSMISSION
##RESOLUTION=4
##DATA PROCESSING=DIGITIZED BY NIST FROM HARD COPY (FROM TWO SEGMENTS)
##XUNITS=1/CM
##YUNITS=TRANSMITTANCE
##XFACTOR=1.000000
##YFACTOR=1
##DELTAX=0.869062
##FIRSTX=451.333
##LASTX=3791.14
##FIRSTY=0.944
##MAXX=3791.14
##MINX=451.333
##MAXY=1.05
##MINY=0.022
##NPOINTS=3844
##XYDATA=(X++(Y..Y))
451.333000 0.9440 0.9440 0.9440 0.9440 0.9440
455.678309 0.9440 0.9440 0.9440 0.9440 0.9440
460.023618 0.9440 0.9440 0.9440 0.9440 0.9440
464.368927 0.9440 0.9430 0.9430 0.9430 0.9430
468.714236 0.9430 0.9410 0.9390 0.9360 0.9360
473.059545 0.9350 0.9330 0.9330 0.9320 0.9310
477.404854 0.9290 0.9280 0.9250 0.9210 0.9160
481.750162 0.9120 0.9100 0.9100 0.9060 0.9050
486.095471 0.9040 0.8980 0.8950 0.8900 0.8850
490.440780 0.8780 0.8770 0.8720 0.8700 0.8640
494.786089 0.8620 0.8600 0.8550 0.8500 0.8470
499.131398 0.8440 0.8400 0.8310 0.8171 0.8041
503.476707 0.7970 0.7900 0.7670 0.7560 0.7400
507.822016 0.7141 0.6871 0.6631 0.6172 0.5831
512.167325 0.5540 0.5480 0.5430 0.5410 0.5500
516.512634 0.5590 0.5620 0.6397 0.6828 0.7447
520.857943 0.8060 0.8520 0.8950 0.9160 0.9330
525.203252 0.9580 0.9660 0.9700 0.9869 1.0019
529.548561 1.0060 1.0090 1.0120 1.0140 1.0200
533.893869 1.0210 1.0220 1.0240 1.0240 1.0250
538.239178 1.0280 1.0330 1.0350 1.0390 1.0400
542.584487 1.0400 1.0370 1.0350 1.0320 1.0310
546.929796 1.0290 1.0280 1.0250 1.0220 1.0120
551.275105 1.0000 0.9950 0.9910 0.9770 0.9740
555.620414 0.9740 0.9780 1.0010 1.0060 1.0220
559.965723 1.0290 1.0350 1.0360 1.0370 1.0400
564.311032 1.0400 1.0400 1.0400 1.0370 1.0360
568.656341 1.0360 1.0330 1.0330 1.0350 1.0350
573.001650 1.0350 1.0350 1.0350 1.0350 1.0350
577.346959 1.0350 1.0350 1.0350 1.0330 1.0320
581.692268 1.0310 1.0290 1.0240 1.0220 1.0210
586.037576 1.0210 1.0210 1.0210 1.0200 1.0091
590.382885 1.0000 0.9900 0.9790 0.9700 0.9400
594.728194 0.9130 0.8901 0.8401 0.7852 0.6476
599.073503 0.6470 0.6620 0.7290 0.7949 0.8858
603.418812 0.9209 0.9499 0.9709 1.0019 1.0090
607.764121 1.0160 1.0200 1.0310 1.0370 1.0410
612.109430 1.0430 1.0450 1.0470 1.0480 1.0500
616.454739 1.0500 1.0480 1.0480 1.0480 1.0480
620.800048 1.0480 1.0480 1.0470 1.0450 1.0440
625.145357 1.0430 1.0410 1.0400 1.0360 1.0360
629.490666 1.0330 1.0310 1.0310 1.0310 1.0310
633.835975 1.0310 1.0290 1.0280 1.0250 1.0250
638.181284 1.0250 1.0240 1.0210 1.0180 1.0180
642.526592 1.0170 1.0140 1.0100 1.0080 1.0040
646.871901 1.0010 1.0000 1.0000 1.0000 1.0000
651.217210 0.9980 0.9940 0.9900 0.9850 0.9820
655.562519 0.9790 0.9790 0.9810 0.9860 0.9999
659.907828 1.0010 1.0060 1.0090 1.0100 1.0100
664.253137 1.0120 1.0120 1.0120 1.0130 1.0170
668.598446 1.0240 1.0250 1.0250 1.0250 1.0240
672.943755 1.0240 1.0250 1.0250 1.0250 1.0250
677.289064 1.0250 1.0250 1.0270 1.0280 1.0310
681.634373 1.0310 1.0270 1.0240 1.0240 1.0240
685.979682 1.0220 1.0210 1.0170 1.0170 1.0160
690.324991 1.0160 1.0170 1.0180 1.0180 1.0170
694.670299 1.0170 1.0170 1.0170 1.0160 1.0160
699.015608 1.0140 1.0120 1.0090 1.0040 1.0000
703.360917 0.9980 0.9950 0.9930 0.9900 0.9850
707.706226 0.9780 0.9770 0.9740 0.9660 0.9620
712.051535 0.9620 0.9660 0.9710 0.9750 0.9770
716.396844 0.9780 0.9810 0.9830 0.9850 0.9870
720.742153 1.0000 1.0020 1.0040 1.0050 1.0060
725.087462 1.0080 1.0090 1.0090 1.0090 1.0130
729.432771 1.0140 1.0140 1.0140 1.0140 1.0140
733.778080 1.0140 1.0140 1.0140 1.0140 1.0140
738.123389 1.0140 1.0140 1.0130 1.0120 1.0120
742.468698 1.0100 1.0080 1.0060 1.0050 1.0050
746.814006 1.0040 1.0010 1.0000 0.9980 0.9970
751.159315 0.9910 0.9860 0.9860 0.9860 0.9850
755.504624 0.9810 0.9770 0.9750 0.9660 0.9620
759.849933 0.9590 0.9500 0.9440 0.9400 0.9350
764.195242 0.9310 0.9140 0.9050 0.8980 0.8900
768.540551 0.8790 0.8720 0.8501 0.8311 0.7942
772.885860 0.7790 0.7560 0.7100 0.5891 0.5720
777.231169 0.5720 0.5949 0.6538 0.7238 0.7937
781.576478 0.8350 0.8720 0.8790 0.8850 0.8900
785.921787 0.8950 0.8980 0.9010 0.9010 0.9020
790.267096 0.9060 0.9100 0.9120 0.9120 0.9130
794.612405 0.9130 0.9130 0.9140 0.9130 0.9130
798.957714 0.9130 0.9080 0.9040 0.9000 0.8930
803.303022 0.8900 0.8790 0.8720 0.8620 0.8510
807.648331 0.8360 0.8240 0.8140 0.7930 0.7740
811.993640 0.7431 0.7181 0.6752 0.6222 0.5792
816.338949 0.5550 0.5309 0.4130 0.3860 0.2452
820.684258 0.1631 0.0812 0.0601 0.0371 0.0360
825.029567 0.0360 0.0370 0.0510 0.1349 0.1939
829.374876 0.2439 0.3008 0.3887 0.4846 0.6015
833.720185 0.6590 0.6940 0.7290 0.7590 0.7810
838.065494 0.7950 0.8129 0.8240 0.8330 0.8410
842.410803 0.8480 0.8510 0.8510 0.8510 0.8510
846.756112 0.8480 0.8480 0.8470 0.8370 0.8320
851.101421 0.8290 0.8170 0.8140 0.8130 0.8120
855.446729 0.8120 0.8120 0.8120 0.8120 0.8120
859.792038 0.8130 0.8160 0.8170 0.8200 0.8290
864.137347 0.8320 0.8360 0.8410 0.8500 0.8560
868.482656 0.8590 0.8620 0.8680 0.8710 0.8820
872.827965 0.8830 0.8890 0.8900 0.8930 0.8950
877.173274 0.8980 0.8980 0.9000 0.9020 0.9050
881.518583 0.9180 0.9200 0.9220 0.9330 0.9410
885.863892 0.9470 0.9520 0.9540 0.9590 0.9620
890.209201 0.9640 0.9680 0.9780 0.9810 0.9830
894.554510 0.9860 0.9910 0.9940 0.9970 0.9980
898.899819 1.0010 1.0020 1.0040 1.0040 1.0040
903.245128 1.0040 1.0040 1.0040 1.0040 1.0050
907.590437 1.0050 1.0050 1.0050 1.0060 1.0080
911.935745 1.0080 1.0090 1.0100 1.0130 1.0140
916.281054 1.0160 1.0160 1.0160 1.0170 1.0170
920.626363 1.0170 1.0170 1.0160 1.0160 1.0160
924.971672 1.0140 1.0140 1.0140 1.0140 1.0130
929.316981 1.0120 1.0100 1.0090 1.0080 1.0050
933.662290 1.0000 1.0000 0.9980 0.9980 0.9980
938.007599 0.9980 1.0000 1.0000 1.0000 1.0000
942.352908 1.0000 0.9980 0.9980 0.9980 0.9980
946.698217 0.9980 0.9970 0.9950 0.9940 0.9910
951.043526 0.9890 0.9850 0.9820 0.9780 0.9770
955.388835 0.9750 0.9700 0.9680 0.9630 0.9600
959.734144 0.9580 0.9540 0.9500 0.9390 0.9310
964.079452 0.9240 0.9100 0.8970 0.8910 0.8900
968.424761 0.8910 0.8940 0.9010 0.9080 0.9170
972.770070 0.9210 0.9250 0.9310 0.9350 0.9390
977.115379 0.9400 0.9440 0.9550 0.9600 0.9630
981.460688 0.9670 0.9700 0.9700 0.9750 0.9750
985.805997 0.9770 0.9770 0.9770 0.9770 0.9770
990.151306 0.9750 0.9740 0.9700 0.9660 0.9600
994.496615 0.9550 0.9520 0.9450 0.9430 0.9410
998.841924 0.9410 0.9370 0.9330 0.9060 0.8830
1003.187233 0.8810 0.8790 0.8780 0.8720 0.8561
1007.532542 0.8170 0.7940 0.7640 0.6351 0.5701
1011.877851 0.5041 0.3434 0.1905 0.0366 0.2043
1016.223159 0.2212 0.3683 0.7100 0.8200 0.8740
1020.568468 0.9040 0.9280 0.9479 0.9520 0.9580
1024.913777 0.9640 0.9670 0.9680 0.9700 0.9700
1029.259086 0.9700 0.9680 0.9680 0.9680 0.9680
1033.604395 0.9670 0.9660 0.9660 0.9660 0.9630
1037.949704 0.9620 0.9590 0.9560 0.9480 0.9440
1042.295013 0.9400 0.9320 0.9290 0.9240 0.9120
1046.640322 0.9050 0.8910 0.8850 0.8780 0.8740
1050.985631 0.8720 0.8720 0.8710 0.8710 0.8700
1055.330940 0.8680 0.8640 0.8590 0.8540 0.8500
1059.676249 0.8440 0.8250 0.8060 0.8020 0.7930
1064.021558 0.7850 0.7770 0.7720 0.7630 0.7580
1068.366867 0.7400 0.7280 0.6740 0.6160 0.5671
1072.712175 0.5171 0.3783 0.1088 0.0811 0.0521
1077.057484 0.1411 0.2520 0.3639 0.5598 0.6938
1081.402793 0.7738 0.8179 0.8479 0.8789 0.8939
1085.748102 0.9100 0.9170 0.9250 0.9290 0.9320
1090.093411 0.9370 0.9400 0.9400 0.9370 0.9330
1094.438720 0.9310 0.9290 0.9290 0.9310 0.9360
1098.784029 0.9440 0.9450 0.9440 0.9410 0.9390
1103.129338 0.9350 0.9310 0.9200 0.9100 0.9060
1107.474647 0.9000 0.8930 0.8900 0.8900 0.8890
1111.819956 0.8890 0.8890 0.8890 0.8890 0.8890
1116.165265 0.8900 0.8940 0.9000 0.9120 0.9170
1120.510574 0.9330 0.9520 0.9680 0.9740 0.9750
1124.855882 0.9790 0.9830 0.9890 0.9900 0.9910
1129.201191 0.9930 0.9930 1.0000 1.0010 1.0020
1133.546500 1.0050 1.0080 1.0100 1.0130 1.0130
1137.891809 1.0130 1.0130 1.0120 1.0100 1.0090
1142.237118 1.0100 1.0100 1.0120 1.0130 1.0140
1146.582427 1.0160 1.0160 1.0160 1.0160 1.0170
1150.927736 1.0170 1.0170 1.0170 1.0170 1.0170
1155.273045 1.0170 1.0160 1.0160 1.0160 1.0160
1159.618354 1.0140 1.0140 1.0100 1.0090 1.0080
1163.963663 1.0050 1.0040 1.0040 1.0020 1.0010
1168.308972 1.0010 1.0000 0.9970 0.9930 0.9890
1172.654281 0.9830 0.9810 0.9780 0.9740 0.9630
1176.999589 0.9540 0.9440 0.9320 0.8952 0.8950
1181.344898 0.9020 0.9270 0.9330 0.9480 0.9560
1185.690207 0.9620 0.9640 0.9660 0.9660 0.9640
1190.035516 0.9630 0.9590 0.9580 0.9580 0.9590
1194.380825 0.9620 0.9640 0.9660 0.9660 0.9640
1198.726134 0.9630 0.9620 0.9600 0.9580 0.9550
1203.071443 0.9550 0.9540 0.9540 0.9550 0.9550
1207.416752 0.9590 0.9620 0.9640 0.9640 0.9680
1211.762061 0.9720 0.9770 0.9810 0.9900 1.0000
1216.107370 1.0010 1.0010 1.0000 1.0000 1.0000
1220.452679 0.9980 0.9970 0.9930 0.9900 0.9870
1224.797988 0.9850 0.9820 0.9770 0.9740 0.9670
1229.143297 0.9660 0.9670 0.9680 0.9710 0.9750
1233.488605 0.9770 0.9810 1.0000 1.0010 1.0040
1237.833914 1.0050 1.0050 1.0050 1.0050 1.0050
1242.179223 1.0040 1.0040 1.0040 1.0020 1.0010
1246.524532 1.0000 1.0000 1.0000 1.0000 1.0000
1250.869841 1.0000 0.9980 0.9980 0.9980 0.9970
1255.215150 0.9970 0.9950 0.9930 0.9910 0.9900
1259.560459 0.9890 0.9870 0.9850 0.9830 0.9790
1263.905768 0.9780 0.9780 0.9780 0.9780 0.9780
1268.251077 0.9780 0.9780 0.9780 0.9780 0.9770
1272.596386 0.9770 0.9770 0.9770 0.9770 0.9770
1276.941695 0.9750 0.9750 0.9750 0.9750 0.9740
1281.287004 0.9740 0.9740 0.9720 0.9710 0.9700
1285.632312 0.9700 0.9680 0.9660 0.9660 0.9640
1289.977621 0.9630 0.9580 0.9480 0.9440 0.9370
1294.322930 0.9320 0.9280 0.9240 0.9240 0.9220
1298.668239 0.9220 0.9240 0.9240 0.9270 0.9290
1303.013548 0.9290 0.9310 0.9310 0.9290 0.9280
1307.358857 0.9270 0.9240 0.9220 0.9220 0.9200
1311.704166 0.9170 0.9160 0.9140 0.9120 0.9100
1316.049475 0.9090 0.9040 0.9020 0.8980 0.8940
1320.394784 0.8890 0.8790 0.8740 0.8720 0.8720
1324.740093 0.8740 0.8740 0.8770 0.8770 0.8780
1329.085402 0.8780 0.8790 0.8820 0.8830 0.8890
1333.430711 0.8900 0.8910 0.8940 0.8940 0.8940
1337.776019 0.8940 0.8940 0.8950 0.9000 0.9010
1342.121328 0.9020 0.9040 0.9060 0.9090 0.9130
1346.466637 0.9170 0.9210 0.9270 0.9290 0.9290
1350.811946 0.9310 0.9310 0.9310 0.9310 0.9310
1355.157255 0.9310 0.9320 0.9330 0.9350 0.9360
1359.502564 0.9390 0.9390 0.9390 0.9370 0.9360
1363.847873 0.9350 0.9330 0.9310 0.9290 0.9270
1368.193182 0.9250 0.9240 0.9140 0.9040 0.8940
1372.538491 0.8890 0.8830 0.8770 0.8710 0.8640
1376.883800 0.8620 0.8620 0.8630 0.8670 0.8809
1381.229109 0.8930 0.9080 0.9100 0.9120 0.9130
1385.574418 0.9130 0.9120 0.9090 0.9090 0.9040
1389.919727 0.9010 0.8970 0.8900 0.8790 0.8720
1394.265035 0.8670 0.8560 0.8391 0.8290 0.8220
1398.610344 0.8160 0.8020 0.7870 0.7720 0.7550
1402.955653 0.7360 0.7210 0.7050 0.6721 0.6580
1407.300962 0.6560 0.6560 0.6580 0.6680 0.6950
1411.646271 0.7499 0.7710 0.7899 0.8020 0.8219
1415.991580 0.8500 0.8620 0.8710 0.8850 0.8890
1420.336889 0.8930 0.8940 0.8940 0.8940 0.8930
1424.682198 0.8910 0.8900 0.8900 0.8900 0.8900
1429.027507 0.8890 0.8890 0.8870 0.8810 0.8770
1433.372816 0.8710 0.8680 0.8670 0.8620 0.8550
1437.718125 0.8430 0.8330 0.8290 0.8210 0.8120
1442.063434 0.8080 0.8000 0.7910 0.7820 0.7770
1446.408742 0.7720 0.7710 0.7630 0.7560 0.7450
1450.754051 0.7370 0.7180 0.6980 0.6720 0.6510
1455.099360 0.6220 0.6140 0.6140 0.6309 0.6370
1459.444669 0.6430 0.6440 0.6440 0.6410 0.6250
1463.789978 0.6130 0.6130 0.6449 0.6789 0.6949
1468.135287 0.7240 0.7440 0.7550 0.7640 0.7720
1472.480596 0.7680 0.7630 0.7600 0.7550 0.7500
1476.825905 0.7400 0.7170 0.6970 0.6850 0.6361
1481.171214 0.6061 0.5671 0.5560 0.5450 0.5012
1485.516523 0.4240 0.3440 0.1661 0.1250 0.0831
1489.861832 0.0441 0.0221 0.0220 0.0439 0.1585
1494.207141 0.2411 0.3001 0.4040 0.4540 0.6408
1498.552450 0.6670 0.6820 0.6970 0.7279 0.7410
1502.897758 0.7520 0.7560 0.7580 0.7580 0.7580
1507.243067 0.7560 0.7550 0.7540 0.7540 0.7510
1511.588376 0.7480 0.7440 0.7400 0.7370 0.7360
1515.933685 0.7330 0.7280 0.7240 0.7220 0.7210
1520.278994 0.7140 0.7100 0.7080 0.7060 0.7050
1524.624303 0.7040 0.6980 0.6950 0.6900 0.6810
1528.969612 0.6720 0.6670 0.6620 0.6560 0.6470
1533.314921 0.6370 0.6220 0.6061 0.6000 0.5970
1537.660230 0.5890 0.5830 0.5700 0.5590 0.5470
1542.005539 0.5400 0.5320 0.5240 0.5210 0.5120
1546.350848 0.5050 0.5010 0.4980 0.4970 0.4970
1550.696157 0.4970 0.4980 0.5000 0.5000 0.5020
1555.041465 0.5120 0.5170 0.5200 0.5500 0.5660
1559.386774 0.5670 0.5700 0.5710 0.5740 0.5750
1563.732083 0.5860 0.5980 0.6040 0.6120 0.6140
1568.077392 0.6200 0.6290 0.6410 0.6470 0.6500
1572.422701 0.6520 0.6560 0.6580 0.6630 0.6710
1576.768010 0.6750 0.6770 0.6780 0.6790 0.6790
1581.113319 0.6810 0.6820 0.6820 0.6830 0.6830
1585.458628 0.6850 0.6850 0.6830 0.6830 0.6830
1589.803937 0.6830 0.6850 0.6860 0.6870 0.6890
1594.149246 0.6900 0.6940 0.7060 0.7269 0.7549
1598.494555 0.7740 0.7830 0.8040 0.8210 0.8400
1602.839864 0.8620 0.8660 0.8710 0.8790 0.8870
1607.185172 0.8950 0.9020 0.9080 0.9120 0.9170
1611.530481 0.9200 0.9240 0.9280 0.9280 0.9320
1615.875790 0.9390 0.9400 0.9430 0.9440 0.9440
1620.221099 0.9440 0.9450 0.9500 0.9520 0.9520
1624.566408 0.9540 0.9540 0.9540 0.9520 0.9520
1628.911717 0.9520 0.9510 0.9510 0.9510 0.9500
1633.257026 0.9470 0.9430 0.9410 0.9330 0.9310
1637.602335 0.9290 0.9250 0.9240 0.9200 0.9160
1641.947644 0.9090 0.8970 0.8930 0.8930 0.9040
1646.292953 0.9120 0.9140 0.9160 0.9170 0.9200
1650.638262 0.9290 0.9370 0.9470 0.9550 0.9550
1654.983571 0.9540 0.9550 0.9590 0.9630 0.9660
1659.328880 0.9670 0.9670 0.9680 0.9700 0.9740
1663.674188 0.9740 0.9740 0.9740 0.9740 0.9720
1668.019497 0.9720 0.9720 0.9710 0.9700 0.9700
1672.364806 0.9680 0.9670 0.9670 0.9740 0.9780
1676.710115 0.9790 0.9810 0.9810 0.9810 0.9810
1681.055424 0.9810 0.9820 0.9830 0.9820 0.9780
1685.400733 0.9770 0.9750 0.9740 0.9740 0.9680
1689.746042 0.9670 0.9660 0.9660 0.9660 0.9660
1694.091351 0.9680 0.9710 0.9720 0.9750 0.9830
1698.436660 0.9830 0.9830 0.9860 0.9860 0.9850
1702.781969 0.9850 0.9860 0.9870 0.9890 0.9890
1707.127278 0.9890 0.9900 0.9900 0.9900 0.9890
1711.472587 0.9890 0.9890 0.9890 0.9890 0.9900
1715.817895 0.9900 0.9970 0.9970 0.9930 0.9930
1720.163204 0.9910 0.9900 0.9900 0.9930 0.9930
1724.508513 0.9900 0.9890 0.9870 0.9870 0.9890
1728.853822 0.9890 0.9910 0.9910 0.9900 0.9900
1733.199131 0.9870 0.9870 0.9870 0.9860 0.9860
1737.544440 0.9850 0.9830 0.9820 0.9820 0.9850
1741.889749 0.9860 0.9860 0.9860 0.9860 0.9850
1746.235058 0.9820 0.9790 0.9790 0.9770 0.9770
1750.580367 0.9810 0.9810 0.9810 0.9790 0.9790
1754.925676 0.9790 0.9780 0.9780 0.9770 0.9770
1759.270985 0.9770 0.9780 0.9810 0.9820 0.9830
1763.616294 0.9830 0.9830 0.9830 0.9830 0.9830
1767.961602 0.9850 0.9860 0.9860 0.9810 0.9780
1772.306911 0.9700 0.9670 0.9630 0.9580 0.9550
1776.652220 0.9520 0.9500 0.9480 0.9510 0.9550
1780.997529 0.9620 0.9680 0.9700 0.9740 0.9780
1785.342838 0.9790 0.9850 0.9850 0.9850 0.9850
1789.688147 0.9850 0.9890 0.9910 0.9910 0.9930
1794.033456 0.9930 0.9930 0.9910 0.9910 0.9900
1798.378765 0.9890 0.9970 0.9980 0.9980 0.9950
1802.724074 0.9950 0.9950 0.9970 0.9970 0.9970
1807.069383 0.9950 0.9970 0.9970 0.9970 0.9970
1811.414692 0.9970 0.9970 0.9970 0.9950 0.9950
1815.760001 0.9940 0.9930 0.9930 0.9930 0.9930
1820.105310 0.9930 0.9910 0.9910 0.9910 0.9930
1824.450618 0.9940 0.9950 0.9950 0.9950 0.9940
1828.795927 0.9930 0.9930 0.9930 0.9910 0.9910
1833.141236 0.9900 0.9900 0.9900 0.9900 0.9900
1837.486545 0.9900 0.9900 0.9910 0.9930 0.9940
1841.831854 0.9940 0.9910 0.9910 0.9890 0.9890
1846.177163 0.9900 0.9910 0.9910 0.9910 0.9910
1850.522472 0.9930 0.9930 0.9930 0.9930 0.9930
1854.867781 0.9930 0.9930 0.9910 0.9910 0.9900
1859.213090 0.9900 0.9900 0.9900 0.9900 0.9900
1863.558399 0.9900 0.9900 0.9900 0.9890 0.9890
1867.903708 0.9890 0.9890 0.9870 0.9860 0.9850
1872.249017 0.9830 0.9830 0.9820 0.9810 0.9790
1876.594325 0.9780 0.9770 0.9770 0.9750 0.9740
1880.939634 0.9700 0.9630 0.9600 0.9540 0.9430
1885.284943 0.9370 0.9310 0.9200 0.9090 0.8950
1889.630252 0.8820 0.8630 0.8540 0.8430 0.8440
1893.975561 0.8550 0.8710 0.8900 0.8980 0.9160
1898.320870 0.9310 0.9430 0.9520 0.9600 0.9630
1902.666179 0.9670 0.9710 0.9750 0.9780 0.9810
1907.011488 0.9850 0.9860 0.9870 0.9890 0.9890
1911.356797 0.9900 0.9900 0.9900 0.9910 0.9910
1915.702106 0.9930 0.9940 0.9950 0.9950 0.9970
1920.047415 0.9970 1.0000 0.9980 0.9950 0.9950
1924.392724 0.9980 0.9980 0.9980 0.9980 0.9980
1928.738032 0.9980 1.0000 1.0000 1.0000 0.9980
1933.083341 0.9980 0.9980 0.9970 0.9970 0.9970
1937.428650 0.9970 0.9970 1.0000 1.0010 1.0010
1941.773959 1.0000 1.0000 1.0000 0.9980 0.9980
1946.119268 0.9970 0.9970 0.9970 0.9970 1.0000
1950.464577 1.0000 0.9980 0.9970 0.9970 0.9970
1954.809886 0.9970 0.9970 0.9970 0.9940 1.0060
1959.155195 1.0350 1.0350 1.0141 1.0011 1.0000
1963.500504 0.9980 0.9980 0.9970 0.9950 0.9950
1967.845813 0.9980 1.0000 0.9980 0.9970 0.9970
1972.191122 0.9980 0.9980 0.9980 0.9980 0.9980
1976.536431 0.9980 0.9970 0.9970 0.9970 1.0000
1980.881740 1.0000 1.0000 0.9980 0.9980 0.9980
1985.227048 0.9980 0.9980 0.9970 0.9970 0.9970
1989.572357 0.9970 0.9980 0.9980 0.9970 0.9970
1993.917666 0.9970 0.9950 0.9940 0.9970 0.9930
1998.262975 0.9620 0.9620 0.9640 0.9825 1.0010
2002.608284 1.0005 1.0000 0.9990 0.9980 0.9990
2006.953593 1.0000 1.0000 1.0000 1.0000 1.0000
2011.298902 0.9990 0.9980 0.9975 0.9970 0.9960
2015.644211 0.9950 0.9919 0.9890 0.9875 0.9860
2019.989520 0.9845 0.9829 0.9799 0.9771 0.9796
2024.334829 0.9822 0.9887 0.9950 0.9950 0.9950
2028.680138 0.9960 0.9970 0.9975 0.9980 0.9980
2033.025447 0.9980 0.9975 0.9970 0.9970 0.9969
2037.370755 0.9959 0.9951 0.9961 0.9971 0.9986
2041.716064 1.0000 1.0005 1.0010 1.0015 1.0020
2046.061373 1.0020 1.0021 1.0036 1.0050 1.0050
2050.406682 1.0049 1.0034 1.0020 1.0015 1.0010
2054.751991 1.0005 1.0000 1.0000 0.9999 0.9989
2059.097300 0.9980 0.9975 0.9971 0.9986 1.0000
2063.442609 1.0000 1.0000 1.0000 1.0000 1.0000
2067.787918 1.0000 1.0000 1.0000 1.0000 1.0000
2072.133227 1.0000 1.0001 1.0006 1.0012 1.0027
2076.478536 1.0041 1.0046 1.0051 1.0056 1.0060
2080.823845 1.0060 1.0060 1.0060 1.0060 1.0060
2085.169154 1.0060 1.0060 1.0060 1.0060 1.0060
2089.514462 1.0060 1.0060 1.0060 1.0060 1.0060
2093.859771 1.0060 1.0060 1.0060 1.0060 1.0060
2098.205080 1.0060 1.0059 1.0054 1.0049 1.0044
2102.550389 1.0040 1.0040 1.0038 1.0028 1.0018
2106.895698 1.0008 1.0000 1.0000 1.0003 1.0023
2111.241007 1.0041 1.0046 1.0050 1.0050 1.0051
2115.586316 1.0056 1.0060 1.0060 1.0060 1.0060
2119.931625 1.0060 1.0060 1.0060 1.0060 1.0060
2124.276934 1.0060 1.0060 1.0060 1.0060 1.0060
2128.622243 1.0059 1.0054 1.0050 1.0050 1.0050
2132.967552 1.0050 1.0050 1.0050 1.0050 1.0050
2137.312861 1.0050 1.0050 1.0049 1.0044 1.0040
2141.658170 1.0040 1.0040 1.0040 1.0038 1.0028
2146.003478 1.0020 1.0020 1.0020 1.0020 1.0020
2150.348787 1.0020 1.0020 1.0020 1.0020 1.0020
2154.694096 1.0020 1.0020 1.0020 1.0020 1.0020
2159.039405 1.0020 1.0020 1.0020 1.0020 1.0020
2163.384714 1.0020 1.0020 1.0019 1.0014 1.0010
2167.730023 1.0010 1.0010 1.0010 1.0010 1.0010
2172.075332 1.0010 1.0010 1.0010 1.0010 1.0010
2176.420641 1.0010 1.0010 1.0010 1.0010 1.0010
2180.765950 1.0010 1.0010 1.0010 1.0010 1.0010
2185.111259 1.0010 1.0011 1.0016 1.0020 1.0020
2189.456568 1.0020 1.0020 1.0020 1.0020 1.0023
2193.801877 1.0033 1.0040 1.0040 1.0040 1.0040
2198.147185 1.0040 1.0040 1.0040 1.0040 1.0037
2202.492494 1.0027 1.0020 1.0020 1.0020 1.0020
2206.837803 1.0020 1.0020 1.0020 1.0020 1.0020
2211.183112 1.0020 1.0018 1.0013 1.0010 1.0010
2215.528421 1.0010 1.0010 1.0010 1.0010 1.0010
2219.873730 1.0010 1.0008 1.0003 1.0000 1.0000
2224.219039 1.0000 1.0000 1.0000 1.0000 0.9996
2228.564348 0.9986 0.9980 0.9980 0.9978 0.9973
2232.909657 0.9970 0.9970 0.9970 0.9970 0.9966
2237.254966 0.9956 0.9950 0.9950 0.9948 0.9943
2241.600275 0.9938 0.9933 0.9930 0.9930 0.9930
2245.945584 0.9930 0.9926 0.9916 0.9910 0.9910
2250.290893 0.9908 0.9903 0.9898 0.9893 0.9890
2254.636201 0.9890 0.9890 0.9890 0.9886 0.9876
2258.981510 0.9868 0.9863 0.9858 0.9853 0.9846
2263.326819 0.9836 0.9830 0.9830 0.9828 0.9823
2267.672128 0.9818 0.9813 0.9806 0.9796 0.9788
2272.017437 0.9783 0.9778 0.9773 0.9766 0.9756
2276.362746 0.9750 0.9750 0.9750 0.9750 0.9748
2280.708055 0.9743 0.9733 0.9718 0.9703 0.9688
2285.053364 0.9678 0.9673 0.9670 0.9670 0.9668
2289.398673 0.9663 0.9656 0.9646 0.9636 0.9626
2293.743982 0.9620 0.9620 0.9615 0.9605 0.9595
2298.089291 0.9585 0.9575 0.9565 0.9558 0.9553
2302.434600 0.9552 0.9557 0.9565 0.9575 0.9589
2306.779908 0.9609 0.9629 0.9649 0.9669 0.9689
2311.125217 0.9702 0.9707 0.9703 0.9688 0.9687
2315.470526 0.9702 0.9720 0.9740 0.9750 0.9750
2319.815835 0.9743 0.9728 0.9725 0.9735 0.9740
2324.161144 0.9740 0.9735 0.9725 0.9690 0.9630
2328.506453 0.9672 0.9819 0.9851 0.9776 0.9722
2332.851762 0.9687 0.9688 0.9723 0.9771 0.9831
2337.197071 0.9868 0.9883 0.9851 0.9776 0.9724
2341.542380 0.9694 0.9719 0.9794 0.9830 0.9830
2345.887689 0.9814 0.9784 0.9770 0.9770 0.9765
2350.232998 0.9755 0.9766 0.9796 0.9783 0.9733
2354.578307 0.9710 0.9710 0.9729 0.9764 0.9783
2358.923615 0.9788 0.9798 0.9813 0.9823 0.9828
2363.268924 0.9836 0.9846 0.9853 0.9858 0.9860
2367.614233 0.9860 0.9860 0.9860 0.9869 0.9884
2371.959542 0.9779 0.9583 0.9594 0.9760 0.9882
2376.304851 0.9972 1.0013 1.0018 1.0000 0.9965
2380.650160 0.9933 0.9902 0.9893 0.9898 0.9897
2384.995469 0.9892 0.9890 0.9890 0.9908 0.9938
2389.340778 0.9950 0.9950 0.9947 0.9942 0.9937
2393.686087 0.9932 0.9930 0.9930 0.9930 0.9930
2398.031396 0.9930 0.9930 0.9930 0.9930 0.9930
2402.376705 0.9930 0.9924 0.9914 0.9910 0.9910
2406.722014 0.9907 0.9902 0.9900 0.9900 0.9900
2411.067323 0.9900 0.9897 0.9892 0.9884 0.9874
2415.412631 0.9870 0.9870 0.9867 0.9862 0.9863
2419.757940 0.9868 0.9877 0.9887 0.9890 0.9890
2424.103249 0.9890 0.9890 0.9890 0.9890 0.9883
2428.448558 0.9873 0.9870 0.9870 0.9880 0.9895
2432.793867 0.9910 0.9925 0.9930 0.9930 0.9933
2437.139176 0.9938 0.9940 0.9940 0.9943 0.9948
2441.484485 0.9950 0.9950 0.9957 0.9967 0.9970
2445.829794 0.9970 0.9970 0.9970 0.9970 0.9970
2450.175103 0.9970 0.9970 0.9970 0.9970 0.9974
2454.520412 0.9979 0.9980 0.9980 0.9976 0.9971
2458.865721 0.9970 0.9970 0.9970 0.9970 0.9970
2463.211030 0.9970 0.9963 0.9953 0.9950 0.9950
2467.556338 0.9950 0.9950 0.9950 0.9950 0.9950
2471.901647 0.9950 0.9946 0.9941 0.9940 0.9940
2476.246956 0.9940 0.9940 0.9940 0.9940 0.9940
2480.592265 0.9940 0.9936 0.9931 0.9930 0.9930
2484.937574 0.9930 0.9930 0.9930 0.9930 0.9930
2489.282883 0.9930 0.9922 0.9912 0.9910 0.9910
2493.628192 0.9910 0.9910 0.9910 0.9910 0.9910
2497.973501 0.9910 0.9906 0.9901 0.9900 0.9900
2502.318810 0.9904 0.9909 0.9910 0.9910 0.9910
2506.664119 0.9910 0.9910 0.9910 0.9910 0.9910
2511.009428 0.9906 0.9901 0.9900 0.9900 0.9900
2515.354737 0.9900 0.9900 0.9900 0.9896 0.9891
2519.700045 0.9890 0.9890 0.9882 0.9872 0.9870
2524.045354 0.9870 0.9866 0.9861 0.9860 0.9860
2528.390663 0.9860 0.9860 0.9864 0.9869 0.9870
2532.735972 0.9870 0.9870 0.9870 0.9870 0.9870
2537.081281 0.9870 0.9870 0.9866 0.9861 0.9860
2541.426590 0.9860 0.9860 0.9860 0.9856 0.9851
2545.771899 0.9850 0.9850 0.9850 0.9850 0.9850
2550.117208 0.9850 0.9842 0.9832 0.9830 0.9830
2554.462517 0.9830 0.9830 0.9830 0.9830 0.9830
2558.807826 0.9830 0.9839 0.9849 0.9850 0.9850
2563.153135 0.9850 0.9850 0.9850 0.9850 0.9841
2567.498444 0.9831 0.9830 0.9830 0.9830 0.9830
2571.843753 0.9830 0.9830 0.9830 0.9830 0.9830
2576.189061 0.9830 0.9826 0.9821 0.9820 0.9820
2580.534370 0.9816 0.9811 0.9810 0.9810 0.9810
2584.879679 0.9810 0.9810 0.9810 0.9810 0.9810
2589.224988 0.9810 0.9810 0.9810 0.9810 0.9810
2593.570297 0.9810 0.9810 0.9810 0.9810 0.9810
2597.915606 0.9810 0.9810 0.9801 0.9791 0.9785
2602.260915 0.9780 0.9780 0.9780 0.9780 0.9780
2606.606224 0.9780 0.9780 0.9780 0.9780 0.9780
2610.951533 0.9780 0.9785 0.9790 0.9799 0.9809
2615.296842 0.9810 0.9810 0.9810 0.9810 0.9800
2619.642151 0.9790 0.9785 0.9780 0.9780 0.9780
2623.987460 0.9780 0.9780 0.9780 0.9780 0.9780
2628.332768 0.9780 0.9785 0.9790 0.9790 0.9790
2632.678077 0.9785 0.9780 0.9785 0.9790 0.9790
2637.023386 0.9790 0.9790 0.9790 0.9790 0.9790
2641.368695 0.9800 0.9810 0.9810 0.9810 0.9810
2645.714004 0.9810 0.9815 0.9820 0.9820 0.9820
2650.059313 0.9815 0.9810 0.9810 0.9810 0.9800
2654.404622 0.9790 0.9785 0.9780 0.9780 0.9780
2658.749931 0.9780 0.9780 0.9780 0.9780 0.9780
2663.095240 0.9780 0.9780 0.9780 0.9780 0.9780
2667.440549 0.9785 0.9790 0.9790 0.9790 0.9800
2671.785858 0.9810 0.9820 0.9830 0.9840 0.9850
2676.131167 0.9850 0.9850 0.9850 0.9850 0.9850
2680.476475 0.9850 0.9850 0.9850 0.9850 0.9850
2684.821784 0.9850 0.9849 0.9839 0.9830 0.9830
2689.167093 0.9830 0.9830 0.9830 0.9825 0.9820
2693.512402 0.9820 0.9820 0.9825 0.9830 0.9830
2697.857711 0.9830 0.9830 0.9830 0.9830 0.9830
2702.203020 0.9830 0.9830 0.9830 0.9830 0.9830
2706.548329 0.9830 0.9830 0.9830 0.9830 0.9830
2710.893638 0.9830 0.9829 0.9824 0.9820 0.9820
2715.238947 0.9820 0.9820 0.9819 0.9814 0.9809
2719.584256 0.9799 0.9789 0.9784 0.9779 0.9774
2723.929565 0.9769 0.9759 0.9749 0.9744 0.9740
2728.274874 0.9740 0.9739 0.9729 0.9720 0.9720
2732.620183 0.9719 0.9709 0.9700 0.9700 0.9701
2736.965491 0.9711 0.9722 0.9737 0.9751 0.9761
2741.310800 0.9770 0.9770 0.9771 0.9776 0.9780
2745.656109 0.9780 0.9780 0.9780 0.9780 0.9780
2750.001418 0.9779 0.9774 0.9768 0.9758 0.9750
2754.346727 0.9750 0.9749 0.9744 0.9740 0.9740
2758.692036 0.9738 0.9728 0.9719 0.9714 0.9709
2763.037345 0.9704 0.9700 0.9700 0.9700 0.9700
2767.382654 0.9700 0.9700 0.9700 0.9700 0.9700
2771.727963 0.9700 0.9700 0.9700 0.9700 0.9700
2776.073272 0.9698 0.9688 0.9679 0.9674 0.9669
2780.418581 0.9664 0.9658 0.9648 0.9640 0.9640
2784.763890 0.9640 0.9640 0.9642 0.9652 0.9660
2789.109198 0.9660 0.9660 0.9660 0.9660 0.9660
2793.454507 0.9660 0.9660 0.9660 0.9660 0.9660
2797.799816 0.9660 0.9660 0.9660 0.9660 0.9660
2802.145125 0.9656 0.9641 0.9630 0.9630 0.9630
2806.490434 0.9630 0.9630 0.9630 0.9629 0.9624
2810.835743 0.9616 0.9601 0.9585 0.9565 0.9550
2815.181052 0.9550 0.9550 0.9550 0.9550 0.9550
2819.526361 0.9549 0.9544 0.9537 0.9527 0.9517
2823.871670 0.9507 0.9496 0.9481 0.9465 0.9444
2828.216979 0.9426 0.9411 0.9394 0.9374 0.9359
2832.562288 0.9354 0.9347 0.9337 0.9327 0.9317
2836.907597 0.9295 0.9245 0.9200 0.9165 0.9134
2841.252906 0.9114 0.9098 0.9093 0.9090 0.9090
2845.598214 0.9085 0.9070 0.9043 0.8988 0.8932
2849.943523 0.8871 0.8799 0.8704 0.8625 0.8580
2854.288832 0.8521 0.8431 0.8355 0.8310 0.8234
2858.634141 0.8094 0.7964 0.7854 0.7754 0.7674
2862.979450 0.7585 0.7480 0.7387 0.7317 0.7253
2867.324759 0.7203 0.7149 0.7089 0.7025 0.6955
2871.670068 0.6869 0.6754 0.6650 0.6565 0.6457
2876.015377 0.6307 0.6210 0.6210 0.6222 0.6257
2880.360686 0.6330 0.6470 0.6612 0.6757 0.6888
2884.705995 0.6994 0.7100 0.7205 0.7317 0.7442
2889.051304 0.7543 0.7603 0.7640 0.7640 0.7632
2893.396613 0.7612 0.7600 0.7600 0.7567 0.7482
2897.741921 0.7395 0.7305 0.7244 0.7229 0.7224
2902.087230 0.7234 0.7283 0.7388 0.7470 0.7520
2906.432539 0.7568 0.7613 0.7644 0.7654 0.7656
2910.777848 0.7646 0.7636 0.7626 0.7614 0.7599
2915.123157 0.7580 0.7555 0.7513 0.7448 0.7381
2919.468466 0.7310 0.7231 0.7141 0.7047 0.6947
2923.813775 0.6857 0.6782 0.6683 0.6553 0.6351
2928.159084 0.6056 0.5813 0.5638 0.5459 0.5274
2932.504393 0.5155 0.5120 0.5014 0.4819 0.4683
2936.849702 0.4623 0.4590 0.4590 0.4689 0.4904
2941.195011 0.5089 0.5239 0.5482 0.5832 0.6120
2945.540320 0.6335 0.6513 0.6648 0.6787 0.6932
2949.885628 0.7026 0.7061 0.7073 0.7058 0.7017
2954.230937 0.6946 0.6764 0.6464 0.6264 0.6169
2958.576246 0.6044 0.5889 0.5766 0.5676 0.5583
2962.921555 0.5488 0.5354 0.5179 0.4822 0.4277
2967.266864 0.3596 0.2776 0.2239 0.1994 0.1865
2971.612173 0.1855 0.1853 0.1858 0.1922 0.2042
2975.957482 0.2154 0.2259 0.2465 0.2765 0.2980
2980.302791 0.3115 0.3384 0.3780 0.4180 0.4585
2984.648100 0.5024 0.5494 0.5894 0.6229 0.6429
2988.993409 0.6505 0.6608 0.6733 0.6901 0.7106
2993.338718 0.7338 0.7593 0.7748 0.7818 0.7904
2997.684027 0.8004 0.8104 0.8204 0.8299 0.8389
3002.029336 0.8474 0.8554 0.8623 0.8683 0.8721
3006.374644 0.8741 0.8761 0.8781 0.8807 0.8837
3010.719953 0.8850 0.8850 0.8841 0.8826 0.8817
3015.065262 0.8812 0.8810 0.8810 0.8793 0.8763
3019.410571 0.8690 0.8585 0.8474 0.8359 0.8255
3023.755880 0.8159 0.8111 0.8096 0.8033 0.7938
3028.101189 0.7900 0.7900 0.7942 0.8012 0.8058
3032.446498 0.8088 0.8112 0.8132 0.8140 0.8140
3036.791807 0.8134 0.8124 0.8099 0.8064 0.8047
3041.137116 0.8042 0.8040 0.8040 0.8043 0.8048
3045.482425 0.8075 0.8115 0.8189 0.8284 0.8379
3049.827734 0.8474 0.8557 0.8632 0.8710 0.8790
3054.173043 0.8867 0.8942 0.8992 0.9027 0.9056
3058.518351 0.9081 0.9093 0.9098 0.9100 0.9100
3062.863660 0.9100 0.9100 0.9100 0.9100 0.9107
3067.208969 0.9117 0.9120 0.9120 0.9120 0.9120
3071.554278 0.9113 0.9103 0.9097 0.9092 0.9090
3075.899587 0.9090 0.9073 0.9048 0.9006 0.8956
3080.244896 0.8923 0.8898 0.8863 0.8823 0.8803
3084.590205 0.8793 0.8797 0.8807 0.8827 0.8852
3088.935514 0.8915 0.8995 0.9071 0.9146 0.9198
3093.280823 0.9238 0.9257 0.9267 0.9270 0.9270
3097.626132 0.9284 0.9304 0.9328 0.9353 0.9388
3101.971441 0.9428 0.9468 0.9508 0.9548 0.9588
3106.316750 0.9607 0.9617 0.9624 0.9629 0.9630
3110.662058 0.9630 0.9645 0.9665 0.9681 0.9696
3115.007367 0.9707 0.9717 0.9720 0.9720 0.9720
3119.352676 0.9720 0.9727 0.9737 0.9740 0.9740
3123.697985 0.9740 0.9740 0.9740 0.9740 0.9740
3128.043294 0.9740 0.9740 0.9740 0.9740 0.9740
3132.388603 0.9740 0.9740 0.9740 0.9740 0.9740
3136.733912 0.9740 0.9732 0.9722 0.9720 0.9720
3141.079221 0.9720 0.9720 0.9720 0.9720 0.9716
3145.424530 0.9711 0.9710 0.9710 0.9710 0.9710
3149.769839 0.9706 0.9701 0.9700 0.9700 0.9700
3154.115148 0.9700 0.9692 0.9682 0.9676 0.9671
3158.460457 0.9670 0.9670 0.9670 0.9670 0.9670
3162.805766 0.9670 0.9670 0.9670 0.9674 0.9679
3167.151074 0.9680 0.9680 0.9688 0.9698 0.9700
3171.496383 0.9700 0.9708 0.9718 0.9720 0.9720
3175.841692 0.9728 0.9738 0.9744 0.9749 0.9758
3180.187001 0.9768 0.9770 0.9770 0.9774 0.9779
3184.532310 0.9780 0.9780 0.9780 0.9780 0.9780
3188.877619 0.9780 0.9780 0.9780 0.9780 0.9780
3193.222928 0.9780 0.9780 0.9780 0.9780 0.9780
3197.568237 0.9780 0.9784 0.9789 0.9790 0.9790
3201.913546 0.9790 0.9790 0.9799 0.9809 0.9810
3206.258855 0.9810 0.9814 0.9819 0.9820 0.9820
3210.604164 0.9824 0.9829 0.9830 0.9830 0.9839
3214.949473 0.9849 0.9850 0.9850 0.9850 0.9850
3219.294781 0.9854 0.9859 0.9860 0.9860 0.9856
3223.640090 0.9851 0.9850 0.9850 0.9850 0.9850
3227.985399 0.9850 0.9850 0.9850 0.9850 0.9850
3232.330708 0.9850 0.9855 0.9860 0.9865 0.9870
3236.676017 0.9870 0.9870 0.9870 0.9870 0.9870
3241.021326 0.9870 0.9870 0.9870 0.9870 0.9870
3245.366635 0.9870 0.9870 0.9870 0.9870 0.9870
3249.711944 0.9870 0.9879 0.9889 0.9890 0.9890
3254.057253 0.9890 0.9890 0.9881 0.9871 0.9870
3258.402562 0.9870 0.9870 0.9870 0.9884 0.9899
3262.747871 0.9914 0.9929 0.9930 0.9930 0.9930
3267.093180 0.9930 0.9935 0.9940 0.9955 0.9970
3271.438488 0.9975 0.9980 0.9990 1.0000 1.0000
3275.783797 1.0000 0.9990 0.9980 0.9965 0.9950
3280.129106 0.9945 0.9940 0.9940 0.9940 0.9940
3284.474415 0.9940 0.9955 0.9970 0.9970 0.9970
3288.819724 0.9975 0.9980 0.9980 0.9980 0.9965
3293.165033 0.9950 0.9960 0.9970 0.9970 0.9970
3297.510342 0.9975 0.9980 0.9980 0.9980 0.9980
3301.855651 0.9980 0.9975 0.9970 0.9970 0.9970
3306.200960 0.9970 0.9970 0.9970 0.9970 0.9975
3310.546269 0.9980 0.9980 0.9980 0.9980 0.9980
3314.891578 0.9980 0.9980 0.9980 0.9980 0.9980
3319.236887 0.9980 0.9980 0.9980 0.9980 0.9980
3323.582196 0.9975 0.9970 0.9970 0.9969 0.9959
3327.927504 0.9951 0.9966 0.9980 0.9980 0.9980
3332.272813 0.9975 0.9969 0.9959 0.9950 0.9950
3336.618122 0.9950 0.9950 0.9950 0.9945 0.9940
3340.963431 0.9935 0.9929 0.9919 0.9910 0.9910
3345.308740 0.9910 0.9910 0.9910 0.9905 0.9900
3349.654049 0.9900 0.9900 0.9900 0.9900 0.9900
3353.999358 0.9900 0.9900 0.9901 0.9906 0.9911
3358.344667 0.9921 0.9930 0.9930 0.9929 0.9919
3362.689976 0.9910 0.9910 0.9910 0.9910 0.9910
3367.035285 0.9910 0.9910 0.9910 0.9909 0.9904
3371.380594 0.9898 0.9883 0.9870 0.9870 0.9870
3375.725903 0.9870 0.9870 0.9870 0.9870 0.9870
3380.071211 0.9870 0.9870 0.9871 0.9881 0.9891
3384.416520 0.9896 0.9900 0.9900 0.9899 0.9894
3388.761829 0.9890 0.9890 0.9891 0.9896 0.9900
3393.107138 0.9900 0.9900 0.9900 0.9900 0.9900
3397.452447 0.9900 0.9900 0.9899 0.9894 0.9888
3401.797756 0.9878 0.9870 0.9870 0.9870 0.9870
3406.143065 0.9870 0.9870 0.9872 0.9882 0.9891
3410.488374 0.9896 0.9900 0.9900 0.9900 0.9900
3414.833683 0.9900 0.9900 0.9900 0.9900 0.9900
3419.178992 0.9900 0.9901 0.9906 0.9910 0.9910
3423.524301 0.9910 0.9910 0.9910 0.9910 0.9910
3427.869610 0.9910 0.9910 0.9910 0.9909 0.9904
3432.214918 0.9900 0.9900 0.9900 0.9900 0.9900
3436.560227 0.9900 0.9899 0.9894 0.9890 0.9890
3440.905536 0.9888 0.9878 0.9870 0.9870 0.9870
3445.250845 0.9870 0.9870 0.9870 0.9870 0.9870
3449.596154 0.9872 0.9882 0.9890 0.9890 0.9890
3453.941463 0.9890 0.9891 0.9896 0.9900 0.9900
3458.286772 0.9899 0.9894 0.9890 0.9890 0.9890
3462.632081 0.9890 0.9890 0.9890 0.9890 0.9890
3466.977390 0.9891 0.9896 0.9899 0.9894 0.9890
3471.322699 0.9890 0.9890 0.9890 0.9890 0.9890
3475.668008 0.9890 0.9890 0.9890 0.9890 0.9893
3480.013317 0.9903 0.9910 0.9910 0.9909 0.9904
3484.358626 0.9900 0.9900 0.9900 0.9900 0.9900
3488.703934 0.9900 0.9900 0.9900 0.9898 0.9893
3493.049243 0.9890 0.9890 0.9890 0.9890 0.9890
3497.394552 0.9890 0.9890 0.9890 0.9890 0.9890
3501.739861 0.9890 0.9890 0.9885 0.9870 0.9860
3506.085170 0.9860 0.9860 0.9860 0.9858 0.9853
3510.430479 0.9846 0.9836 0.9828 0.9823 0.9820
3514.775788 0.9820 0.9815 0.9800 0.9788 0.9783
3519.121097 0.9778 0.9773 0.9765 0.9750 0.9733
3523.466406 0.9713 0.9696 0.9686 0.9678 0.9673
3527.811715 0.9670 0.9670 0.9662 0.9642 0.9628
3532.157024 0.9623 0.9614 0.9599 0.9588 0.9583
3536.502333 0.9580 0.9580 0.9580 0.9580 0.9576
3540.847641 0.9566 0.9560 0.9560 0.9558 0.9553
3545.192950 0.9550 0.9550 0.9550 0.9550 0.9552
3549.538259 0.9557 0.9568 0.9588 0.9606 0.9621
3553.883568 0.9632 0.9637 0.9644 0.9654 0.9670
3558.228877 0.9695 0.9716 0.9731 0.9746 0.9761
3562.574186 0.9772 0.9777 0.9786 0.9801 0.9827
3566.919495 0.9867 0.9894 0.9904 0.9914 0.9924
3571.264804 0.9934 0.9944 0.9950 0.9950 0.9954
3575.610113 0.9964 0.9972 0.9977 0.9980 0.9980
3579.955422 0.9980 0.9980 0.9980 0.9980 0.9978
3584.300731 0.9973 0.9970 0.9970 0.9970 0.9970
3588.646040 0.9972 0.9977 0.9980 0.9980 0.9978
3592.991349 0.9973 0.9965 0.9955 0.9948 0.9943
3597.336657 0.9940 0.9940 0.9940 0.9940 0.9940
3601.681966 0.9940 0.9938 0.9933 0.9930 0.9930
3606.027275 0.9925 0.9915 0.9910 0.9910 0.9915
3610.372584 0.9925 0.9930 0.9930 0.9930 0.9930
3614.717893 0.9925 0.9915 0.9910 0.9910 0.9910
3619.063202 0.9910 0.9907 0.9902 0.9897 0.9892
3623.408511 0.9890 0.9890 0.9890 0.9890 0.9903
3627.753820 0.9928 0.9948 0.9963 0.9970 0.9970
3632.099129 0.9962 0.9947 0.9932 0.9917 0.9910
3636.444438 0.9910 0.9910 0.9910 0.9910 0.9910
3640.789747 0.9907 0.9902 0.9900 0.9900 0.9900
3645.135056 0.9900 0.9922 0.9962 0.9980 0.9980
3649.480364 0.9971 0.9956 0.9936 0.9911 0.9897
3653.825673 0.9892 0.9890 0.9890 0.9890 0.9890
3658.170982 0.9890 0.9890 0.9890 0.9890 0.9893
3662.516291 0.9898 0.9900 0.9900 0.9903 0.9908
3666.861600 0.9910 0.9910 0.9910 0.9910 0.9916
3671.206909 0.9926 0.9921 0.9906 0.9900 0.9900
3675.552218 0.9903 0.9908 0.9910 0.9910 0.9907
3679.897527 0.9902 0.9897 0.9892 0.9890 0.9890
3684.242836 0.9890 0.9890 0.9893 0.9898 0.9900
3688.588145 0.9900 0.9909 0.9924 0.9930 0.9930
3692.933454 0.9930 0.9930 0.9924 0.9914 0.9910
3697.278763 0.9910 0.9910 0.9910 0.9916 0.9926
3701.624071 0.9933 0.9938 0.9950 0.9965 0.9973
3705.969380 0.9978 0.9980 0.9980 0.9957 0.9922
3710.314689 0.9894 0.9869 0.9860 0.9860 0.9870
3714.659998 0.9885 0.9890 0.9890 0.9916 0.9957
3719.005307 0.9973 0.9978 0.9980 0.9980 0.9970
3723.350616 0.9955 0.9950 0.9950 0.9947 0.9942
3727.695925 0.9960 0.9990 1.0000 1.0000 0.9990
3732.041234 0.9975 0.9960 0.9945 0.9940 0.9940
3736.386543 0.9936 0.9931 0.9923 0.9913 0.9892
3740.731852 0.9867 0.9888 0.9928 0.9944 0.9949
3745.077161 0.9968 0.9993 1.0004 1.0009 1.0010
3749.422470 1.0010 0.9999 0.9984 0.9969 0.9954
3753.767779 0.9950 0.9950 0.9972 1.0002 1.0010
3758.113087 1.0010 0.9995 0.9975 0.9955 0.9935
3762.458396 0.9930 0.9930 0.9930 0.9930 0.9934
3766.803705 0.9939 0.9944 0.9949 0.9957 0.9968
3771.149014 0.9974 0.9979 0.9988 0.9998 1.0000
3775.494323 1.0000 1.0000 1.0000 1.0000 1.0000
3779.839632 1.0000 1.0000 1.0000 1.0000 1.0000
3784.184941 1.0000 1.0000 1.0000 1.0000 1.0000
3788.530250 1.0000 1.0000 1.0000 1.0000
##END=
