##TITLE=Methyl tert-Butyl Ether
##JCAMP-DX=4.24
##DATA TYPE=INFRARED SPECTRUM
##CLASS=IUPAC A
##ORIGIN=NIST, Anayltical Chemistry Division, 301-975-3108
##OWNER=COPYRIGHT (C) 1998 by the U.S. Secretary of Commerce
##DATE=98/10/1
##$SPECTRA VERSION=1.00
##$UNCERTAINTY IN Y=2.1 % relative (B=1.1E-04,C=7.8E-10,D=2.7E-14)
##CAS NAME=tert-Butyl Methyl Ether
##CAS REGISTRY NO=1634-04-4
##MOLFORM=( C H3)3 C O C H3
##MP=-109 C
##BP=55.2 C
##$NIST SOURCE=QUANT-IR
##SPECTROMETER/DATA SYSTEM=IFS66V (Bruker)
##INSTRUMENT PARAMETERS=KBr Beam splitter; MCT Detector; Multipass cell
##STATE=gas
##SAMPLE DESCRIPTION=MTBE Primary Gas Standard
##PRESSURE=101.3 kPa
##TEMPERATURE=23 C
##SAMPLING PROCEDURE=1 L/min Flow
##RESOLUTION=0.9640
##DATA PROCESSING=Happ Genzel Apodization
##XUNITS=cm-1
##YUNITS=(micromol/mol)-1m-1 (base 10)
##XFACTOR=1.0
##YFACTOR=9.0949E-13
##DELTAX=0.4820
##FIRSTX=575.169
##LASTX=3975.077
##FIRSTY=0
##MAXX=3974.59
##MINX=575.17
##MAXY=.001184
##MINY=-4.32E-07
##NPOINTS=7053
##XYDATA=(X++(Y..Y))
575.17 15616-117634-203300 10096 239046 226004
577.58-100860-178234-14388 15736-151840-327232
580.47-226608-182148-215876-326686-356086-376574
583.37-73678 49236-100274-38712-199372-475698
586.26-253996-202052-391898-304820-132342-28098
589.15 102170 94708-13850 64974 100430-68752
592.04-47794-135878-124988 148766 257496 176188
594.94 102216 54096-99140-6888 119440 76818
597.83 50398 12214-211048-228142-62644 42516
600.72 84366 111132 40908 45788 65160 122006
603.61 115506 21864 33062 80330 23004 5692
606.51 31182 60704-8566-47372-10324 85746
609.40 240570 231962 63596-31242 54152 112030
612.29 114000 76216 7764 109474 177530 68596
615.18 2210-6100 16180 34202 73380 48806
618.08 90234 83256 49300 67776 61320 78150
620.97 39262 55314 111720 93972 79382 86586
623.86 97340 45188 132024 81148 16028 49106
626.76 142962 204708 148688 57894 74044 123968
629.65 136604 118032 153430 123320 73232 107730
632.54 121666 93492 86702 93284 125128 66582
635.43 42120 72928 79080 52052 52122 43166
638.33 123274 169118 128258 131288 192494 152784
641.22 90544 37532 29568 79808 129162 163454
644.11 108784 64046 86668 120248 194256 177616
647.00 46770 27824 80010 72882 72984 122226
649.90 100726 74640 89224 73166 114166 172198
652.79 163624 119686 124594 150360 121144 75480
655.68 71914 102554 90964 104714 135742 133474
658.58 151124 184384 164826 118974 45552 98578
661.47 160970 144818 144830 166362 166872 109822
664.36 82478 131338 180594 170992 71376-77862
667.25-260190-101882 146584 235590 150920 103244
670.15 194240 223742 216354 220818 239306 266272
673.04 302442 384230 447246 397744 288242 317104
675.93 444272 498982 469640 428192 433054 419814
678.82 444530 461404 478478 477656 476598 512404
681.72 556202 559090 568618 551762 551834 544260
684.61 452336 450386 599684 704566 626710 597032
687.50 590142 624372 690158 699314 679328 656446
690.40 744094 762354 723732 728910 819702 857666
693.29 843854 905726 981804 1063374 1126058 1187464
696.18 1296424 1444924 1535086 1552630 1673968 1879318
699.07 2076374 2236820 2458864 2726410 3005138 3292730
701.97 3693148 4067954 4415702 4923922 5476908 6022504
704.86 6559958 7233852 7957298 8593182 9374760 10195180
707.75 11066370 12040180 13009620 14044680 15064630 16038850
710.64 17135740 18173880 19186840 20210210 21142450 22073880
713.54 23007400 23786890 24461800 25113790 25697890 26086630
716.43 26411190 26733690 26967020 27070660 27217510 27427680
719.32 27591860 27903650 28616970 29773700 31370030 33551280
722.22 36492570 40381600 45035220 49998910 54589570 57236480
725.11 55715910 50165310 43412150 37936760 33993020 31176280
728.00 29184360 27864240 27181860 26877750 26921880 27343200
730.89 27905240 28524940 29078240 29555300 29840110 29901890
733.79 29772850 29368830 28727720 27945320 26956650 25804080
736.68 24555600 23211350 21827860 20406830 18974620 17531800
739.57 16057070 14702940 13511780 12322430 11133020 10029650
742.46 9046658 8135788 7358372 6679126 5966134 5312474
745.36 4791602 4311036 3873874 3489912 3185626 2947656
748.25 2728514 2525660 2315702 2088586 1952300 1872998
751.14 1751242 1664722 1579780 1503686 1487980 1462690
754.04 1396886 1334484 1308686 1274214 1260152 1257260
756.93 1227796 1197338 1246840 1284390 1262390 1269856
759.82 1217154 1214700 1251956 1237184 1204790 1236172
762.71 1317476 1284150 1241050 1270348 1282538 1251118
765.61 1174830 1175282 1210074 1255590 1241166 1215436
768.50 1249098 1280014 1299188 1297026 1283866 1279024
771.39 1317130 1335982 1281956 1230810 1246894 1270548
774.28 1308082 1262840 1228396 1245912 1233510 1232236
777.18 1267330 1266698 1223678 1194006 1152334 1130218
780.07 1119744 1153940 1175200 1172428 1180604 1177826
782.96 1162266 1147988 1118714 1091400 1123022 1113066
785.86 1079606 1109998 1159640 1150464 1114654 1113570
788.75 1124116 1108486 1117176 1102106 1068830 1095218
791.64 1171752 1199848 1178648 1167342 1121532 1097432
794.53 1122178 1144410 1149300 1099454 1100802 1131230
797.43 1189338 1251998 1218596 1160264 1212366 1229930
800.32 1207430 1215674 1231316 1281156 1322656 1307520
803.21 1293786 1349530 1388628 1407260 1384266 1389426
806.10 1441726 1502582 1492882 1499146 1482466 1502996
809.00 1575916 1564848 1562280 1622766 1685520 1687556
811.89 1714186 1768698 1793706 1794852 1791036 1806192
814.78 1845084 1899298 1967276 1994990 2031896 2043602
817.68 2112770 2192690 2272228 2345292 2416142 2473462
820.57 2592328 2758762 2903892 3035584 3158082 3361086
823.46 3600860 3784714 4009458 4270978 4585090 4922496
826.35 5322676 5776848 6230358 6676574 7207604 7836926
829.25 8574604 9359686 10183890 11073220 12115400 13251230
832.14 14458220 15771120 17282450 18900460 20599290 22382010
835.03 24294550 26368680 28629800 31013930 33562690 36225480
837.92 39000980 41925320 44904440 47996280 51079330 54202680
840.82 57330760 60445620 63621000 66755260 69764850 72643290
843.71 75307820 77767370 80026120 82118060 83969560 85566080
846.60 87018360 88392860 89559080 90595140 91595760 92756110
849.50 94316340 96570290 99626140 103753100 108868800 115254000
852.39 122810200 130992800 139707400 148793600 157632300 165269300
855.28 169700700 168199100 158354700 141798800 123082300 108687600
858.17 100095400 94450780 90860990 89047260 88248430 88395230
861.07 89662010 91359890 93092090 94523840 95663190 96186420
863.96 95993460 95009490 93372110 90925740 87605300 83852340
866.85 79796260 75382430 70691990 65841230 60963710 56066800
869.74 51254230 46564480 42144730 37976130 34035840 30390600
872.64 27074940 24018840 21266240 18749460 16482660 14480600
875.53 12746530 11171890 9811578 8642060 7576628 6672650
878.42 5877460 5189530 4639344 4139986 3671352 3254758
881.31 2948264 2701760 2434324 2256198 2138422 1978556
884.21 1844626 1745858 1665556 1578626 1534238 1475678
887.10 1458440 1394288 1322408 1322786 1318482 1306356
889.99 1324436 1313554 1308328 1310742 1326406 1290290
892.89 1261488 1291734 1346288 1336748 1311106 1318274
895.78 1324270 1333492 1342788 1299598 1282358 1295574
898.67 1303200 1297636 1297374 1346018 1428934 1444550
901.56 1477806 1522812 1574866 1659328 1717138 1740106
904.46 1825168 1904924 1926544 1933758 1896768 1828080
907.35 1768086 1694032 1631456 1545416 1503256 1451416
910.24 1394086 1411030 1434526 1452530 1452032 1431596
913.13 1451604 1461072 1473562 1504136 1517102 1532746
916.03 1536894 1511880 1538868 1543314 1526406 1526206
918.92 1530342 1501614 1490392 1471826 1420440 1372564
921.81 1383604 1365470 1353098 1330190 1312306 1284456
924.71 1267942 1248594 1240920 1244088 1224742 1214698
927.60 1212580 1193680 1179048 1197742 1197944 1189700
930.49 1191666 1181040 1169792 1147348 1142124 1175584
933.38 1179298 1154728 1145428 1136974 1132722 1114072
936.28 1132722 1134852 1084484 1086206 1128600 1131604
939.17 1121264 1117632 1106148 1094114 1108510 1118130
942.06 1112450 1154108 1205190 1196102 1173704 1168614
944.95 1200170 1204864 1192520 1191370 1183916 1159896
947.85 1178604 1195772 1186536 1176612 1184010 1182148
950.74 1181978 1210728 1240686 1222584 1218506 1216828
953.63 1232676 1224424 1246728 1292776 1297528 1283608
956.53 1288208 1290626 1308336 1304274 1296010 1307930
959.42 1362634 1380006 1379454 1394408 1419780 1411630
962.31 1418026 1458398 1488110 1487682 1512038 1538810
965.20 1540704 1554500 1602208 1665982 1701962 1717440
968.10 1735276 1731754 1752806 1767414 1809702 1878226
970.99 1942490 1975868 2002514 2031816 2058998 2086340
973.88 2156222 2204752 2244310 2288938 2356852 2429850
976.77 2475672 2474048 2522958 2574182 2610970 2660900
979.67 2755678 2825040 2899202 2954042 2987192 3016380
982.56 3066314 3111992 3141480 3178182 3261336 3346446
985.45 3401360 3441918 3502890 3561310 3648048 3702300
988.35 3756712 3851734 3930632 4007916 4101004 4192748
991.24 4306008 4389910 4487690 4605266 4729550 4845278
994.13 4969874 5093044 5277034 5471884 5673214 5893428
997.02 6136710 6367190 6624658 6912688 7237968 7581870
999.92 7979174 8390514 8803122 9239420 9722604 10244450
1002.81 10820700 11445060 12119560 12794760 13509910 14261170
1005.70 15051670 15918320 16848290 17815190 18866020 19922440
1008.59 20982730 22068450 23247540 24432550 25556300 26686720
1011.49 27820400 28932100 30037610 31142170 32187820 33142080
1014.38 34088320 34967260 35751860 36433960 37059210 37547810
1017.27 37874540 38071780 38092400 37852840 37453150 37113430
1020.17 37002660 37205520 37914530 39160880 40707600 42855580
1023.06 46513960 50698620 51166240 45765480 40291100 36566130
1025.95 34211880 32979590 32386150 32166760 32239590 32430760
1028.84 32646500 32778060 32837850 32792280 32613100 32232970
1031.74 31671570 30935680 30062850 29047480 27895560 26701440
1034.63 25485530 24171740 22829370 21487760 20209280 18922080
1037.52 17673070 16489280 15399250 14369240 13415100 12560230
1040.41 11767050 11082820 10499680 9949730 9509618 9125606
1043.31 8828658 8578382 8347028 8135662 8026404 7942278
1046.20 7859146 7818394 7825128 7864768 7942182 7990012
1049.09 8082902 8237574 8435786 8635310 8858804 9083838
1051.99 9320192 9583348 9900526 10207470 10568920 10929100
1054.88 11306830 11678900 12130690 12633060 13153320 13672620
1057.77 14241850 14863560 15588870 16379320 17211620 18067670
1060.66 19098300 20286960 21585080 22835750 24165060 25629880
1063.56 27190060 28836950 30647140 32601540 34674380 36929720
1066.45 39456830 42300890 45739340 49192050 52535590 56252220
1069.34 60417680 64995170 70012720 75373620 81122480 87265020
1072.23 94003830 101239100 108868300 116941500 125626700 134874400
1075.13 144740600 155366500 166880600 179339600 192781600 205879900
1078.02 218350100 231936100 246589600 261293800 276167300 291519400
1080.91 307486000 324250800 340614800 354525700 367601700 381431500
1083.81 395733000 410385200 424561200 437969700 451925500 466280200
1086.70 478975500 489799300 502312100 518144700 533146400 537923800
1089.59 539833000 546018600 552690900 558284000 563382000 568974100
1092.48 575886600 585063500 596442000 609223400 621998400 634090900
1095.38 646780700 660582800 669605700 669175600 659891800 644926300
1098.27 631432600 617558100 597924200 579286400 562863700 539490000
1101.16 519373300 510731000 506656600 504204100 504853500 497560800
1104.05 482239500 471122600 461661500 449911300 435246300 418856700
1106.95 400768700 381054100 360320600 339056900 317161600 295356000
1109.84 272646700 249466200 227530800 207212300 188061200 169997200
1112.73 153296200 138175800 124329900 112018700 101243700 91694360
1115.63 82792860 74846500 68098220 62374930 57346680 52961870
1118.52 49056450 45701720 42832050 40363010 38082340 35972070
1121.41 34063700 32454270 31034250 29784470 28637320 27589990
1124.30 26674020 25880810 25129170 24420870 23736960 23180200
1127.20 22674840 22221290 21761630 21365620 20977820 20614470
1130.09 20281740 20001630 19754310 19584270 19437090 19298670
1132.98 19175570 19164420 19160870 19144050 19069950 18982630
1135.87 18923190 18982930 19018070 19084420 19192800 19316750
1138.77 19480210 19672580 19856000 20055860 20243380 20462500
1141.66 20704030 21000890 21267480 21496920 21710260 21913470
1144.55 22103950 22321200 22511820 22694420 22880070 23108290
1147.45 23371810 23670520 23998110 24318560 24563580 24875680
1150.34 25249820 25708080 26258180 26880670 27511120 28147030
1153.23 28820910 29549050 30253650 30937770 31510500 31829290
1156.12 31907590 31883150 31816380 31816730 31857470 31891450
1159.02 32001230 32179990 32405200 32673720 32957950 33311230
1161.91 33661260 33941420 34261940 34711740 35249170 35784200
1164.80 36211060 36619820 37046390 37452870 37894450 38373560
1167.69 38820700 39297970 39565460 39672040 39873600 40200200
1170.59 40588360 41019500 41520700 42118910 42801830 43612640
1173.48 44400070 45134440 45942740 46824140 47840940 48974560
1176.37 50180860 51513980 52916190 54438980 56074140 57721720
1179.26 59328880 60922980 62498070 64026950 65467840 66875560
1182.16 68378700 70031060 71906470 74096540 76630130 79584380
1185.05 82994710 86858140 91238840 96102820 101402200 107166400
1187.94 113438500 120208000 127408800 135100100 143308200 152118800
1190.84 161373200 171089400 181376800 192243400 203628100 215436600
1193.73 227600600 239967400 252240700 264399800 276208400 287633000
1196.62 299288500 311193600 322978000 334539800 345731800 356401300
1199.51 366493400 376012100 385099800 393696000 401800900 409419600
1202.41 417027500 424642900 432108500 440543800 450890600 463453000
1205.30 478220100 495502900 516319400 541533800 569641000 598726900
1208.19 626423600 651506700 673489600 682981900 668020400 622293100
1211.08 557773300 510631400 492555000 491237200 497720200 506887900
1213.98 516269900 525387600 535618100 546582100 556111300 563089800
1216.87 567506700 569487600 568110300 563077300 557888000 547537000
1219.76 524449100 499427600 476328600 453411200 430598600 405201700
1222.66 378950300 354345200 331731400 311039300 292275300 275451900
1225.55 260441200 247427700 236173100 226233000 217336800 209384500
1228.44 202438400 196643600 191756400 187696500 184272500 181544400
1231.33 179570600 178253300 177594900 177544100 177861800 178743900
1234.23 180063100 180384100 179300200 177713500 175318000 172626000
1237.12 169753400 166370600 162518500 158327700 153823500 149120900
1240.01 144528800 140419900 136769200 133688800 131157500 129115000
1242.90 127601000 126510300 125036200 123353800 122193300 121435900
1245.80 120902100 120466100 120061400 119754700 119589000 119549000
1248.69 119609500 119758100 119507800 119000800 118683200 118551300
1251.58 118395000 118177900 117993100 117805200 117540600 117046200
1254.48 116253600 115363600 114462800 113403000 112212700 110969500
1257.37 109661400 108271800 107003700 105905000 104862900 104032600
1260.26 103530800 103381000 103561000 104061000 104808500 105701500
1263.15 106666700 107547300 108127400 108270900 107819400 106677000
1266.05 104514100 101235200 97606230 93480380 88302740 82799820
1268.94 78074420 74368620 71156840 68318370 65895960 63776880
1271.83 61874660 60037180 58161940 56433130 54772700 53178970
1274.72 51654950 50082550 48313590 46804750 45394070 43329590
1277.62 41073920 39038570 37064400 35204400 33453120 31825640
1280.51 30261210 28791240 27374380 25984930 24601270 23321550
1283.40 22145610 21053250 19984970 18923470 17900300 16907250
1286.30 15994550 15167280 14366970 13628720 12941170 12274260
1289.19 11649470 11067240 10535890 10064500 9604008 9176798
1292.08 8757620 8387464 8062698 7741640 7418102 7140554
1294.97 6887094 6634844 6416866 6198110 5962800 5767360
1297.87 5582234 5401608 5240452 5082802 4929410 4808212
1300.76 4694756 4582620 4482630 4381946 4299804 4222802
1303.65 4118446 4036510 3969662 3898358 3812308 3755022
1306.54 3717018 3671946 3617792 3583936 3542774 3503694
1309.44 3478272 3444348 3407494 3381096 3341706 3327830
1312.33 3319746 3298748 3253890 3229248 3229006 3221206
1315.22 3196618 3166176 3124902 3100932 3089956 3073062
1318.12 3058078 3039084 3020378 3012230 3006736 3029210
1321.01 3011622 2982548 2982106 2999294 2999246 3007950
1323.90 3039406 3059036 3053026 3053538 3073064 3077164
1326.79 3064638 3069102 3090402 3127434 3158802 3203526
1329.69 3255228 3291540 3321136 3408502 3484646 3542580
1332.58 3648264 3758412 3863724 3997718 4168326 4351324
1335.47 4535020 4776410 5052686 5343096 5660834 6066884
1338.36 6517332 6973810 7523506 8178426 8832270 9587496
1341.26 10488300 11497910 12628060 13912320 15336530 16948450
1344.15 18766270 20793420 23049710 25570690 28361380 31472920
1347.04 34878900 38615140 42685620 47118510 51935400 57107120
1349.94 62658520 68609460 74951300 81586980 88513120 95746400
1352.83 103193000 110844900 118625200 126461300 134262900 141855800
1355.72 149202700 156179700 162690300 168549500 173686300 178188100
1358.61 181864200 184619900 186637700 188062700 189104800 190109400
1361.51 191615400 194193000 198672600 205853100 216651900 232255400
1364.40 253253200 278599400 305766100 331490100 352998700 370002100
1367.29 383925100 393222800 391051600 375340200 353186200 332947400
1370.18 313706100 288938900 261036000 238182000 223511000 215689200
1373.08 212961000 213648900 216557700 220761900 225339800 229904200
1375.97 233917700 236885200 238643600 239011200 237870600 235415200
1378.86 231553900 226453800 220247300 213001700 204896200 196127100
1381.76 186790200 177061300 167105600 156973900 146779500 136826900
1384.65 127255400 118324200 110446000 104197500 100241600 99389640
1387.54 102510000 110142500 121192600 136049900 155378700 170522100
1390.43 165975900 138403300 103786200 77202840 61596240 53940950
1393.33 51125910 51344110 53136280 55930880 59439450 63007790
1396.22 66368830 69363820 71792970 73427230 74268020 74317400
1399.11 73328020 71517250 69087100 66048840 62523820 58661000
1402.00 54528140 50264740 46016520 41862080 37928510 34251350
1404.90 30737300 27476060 24579220 22028370 19747340 17767740
1407.79 16109960 14694060 13496710 12482410 11596840 10893490
1410.68 10343680 9870262 9489612 9199284 8964514 8800752
1413.58 8687080 8614796 8584772 8602646 8633294 8646194
1416.47 8716644 8838432 8888074 8980958 9259328 9650148
1419.36 9584586 9390944 9431816 9544220 9678032 9787042
1422.25 9895736 10009530 10169050 10279070 10332530 10449360
1425.15 10572300 10678650 10788280 10907670 11018310 11133440
1428.04 11245720 11357740 11527950 11732540 11820100 11934910
1430.93 12092540 12246180 12379720 12534050 12671790 12826500
1433.82 13037700 13290980 13542550 13852930 14396040 15000120
1436.72 15129450 15230340 15569880 15991470 16507370 17175200
1439.61 17833230 18298900 18638050 19034360 19602020 20345960
1442.50 21192520 22096460 23053070 24041760 25061130 26125410
1445.40 27230790 28346540 29464970 30644450 31863000 32933440
1448.29 33961800 35067740 36208410 37371110 38515120 39650360
1451.18 40800310 41949380 43086180 44260160 45447640 46662160
1454.07 47899020 49148390 50396450 51798690 53658550 55383420
1456.97 56649570 58469920 60762540 63205370 65917610 68907180
1459.86 72054030 75273370 78511590 81703640 84642820 87193360
1462.75 89292790 90970510 92255100 93255400 93734480 93780000
1465.64 93790070 93665100 93406300 93217280 93127340 93189070
1468.54 93448760 93984920 94924440 96253160 97985690 100250900
1471.43 102691500 104663200 106325900 107577700 108145800 108467400
1474.32 107951600 106527400 105173400 104278400 103780900 103141100
1477.21 101610700 99511710 97823800 96414020 94934920 93497070
1480.11 92175210 90893300 89669090 88505090 87454080 86469980
1483.00 85614620 84875990 84209090 83621380 83086050 82562790
1485.89 81931390 80815680 78748390 75091300 70336560 65782740
1488.79 61744240 58178910 55191630 52766710 50579120 48608630
1491.68 46949830 45431410 44057970 42747880 41460640 40183960
1494.57 38930820 37727730 36729960 35351400 33627150 32114530
1497.46 30677060 29368920 27998370 26416800 24898840 23507190
1500.36 22175590 20884080 19629730 18417160 17267890 16196340
1503.25 15193240 14253150 13425900 12943810 12474480 11495320
1506.14 10979550 10624470 9693372 8984392 8581178 8150346
1509.03 7809056 7489744 7143740 6853360 6614598 6521054
1511.93 6402144 6103576 5884416 5752230 5650114 5596836
1514.82 5498490 5375846 5354890 5351802 5360380 5261330
1517.71 5047206 4943858 4902596 4931784 5014400 5070904
1520.61 5382840 5261870 4855306 4892772 4825426 4676374
1523.50 4604378 4609508 4714694 4870576 4732216 4578880
1526.39 4588174 4644788 4603032 4599554 4577252 4529712
1529.28 4523698 4550776 4565774 4609922 4623258 4619098
1532.18 4670988 4799230 4919858 4901526 4715026 4686256
1535.07 4696998 4726062 4716480 4736536 4772398 4846352
1537.96 5100584 5639666 5507048 5338548 5469854 5144784
1540.85 5036846 5364120 5418918 5067010 4990108 4974676
1543.75 4963446 5083656 5201408 5050144 4940866 4940702
1546.64 4960636 5000248 5036726 5063704 5080582 5112468
1549.53 5161572 5162218 5114608 5107260 5120444 5136646
1552.43 5157352 5204686 5415196 5656808 5450328 5295842
1555.32 5290278 5335584 5430896 5714066 5942244 6278958
1558.21 6406096 6041578 6253846 6664676 6401822 5995404
1561.10 6022216 6105832 6210248 6278054 6388990 6478428
1564.00 6659684 6801810 6841732 6909886 7029782 7129504
1566.89 7230440 7314588 7439560 7579700 7800642 7982644
1569.78 7859350 7742514 7779892 7818382 7852598 7866320
1572.67 7905826 7923776 7973654 8049664 8150650 8490604
1575.57 9173652 9082114 8725534 8794270 8934638 9054702
1578.46 9134444 9164570 9124416 8931092 8550290 8054980
1581.35 7548034 7172686 6968244 6865662 6812100 6801750
1584.25 6829300 6840840 6847060 6866804 6872956 6845494
1587.14 6779772 6694568 6578100 6417264 6240490 6035518
1590.03 5797670 5530370 5231288 4929126 4643134 4350766
1592.92 4082992 3855714 3647842 3420086 3191734 3010158
1595.82 2868994 2721808 2584332 2477736 2386682 2296296
1598.71 2225006 2170936 2118620 2066502 2036604 1993944
1601.60 1951394 1944372 1942996 1918738 1892462 1870064
1604.49 1863036 1871310 1858146 1828818 1834408 1828494
1607.39 1813280 1804522 1825302 1859612 1843700 1812708
1610.28 1832736 1851412 1891946 1908892 1921196 1934594
1613.17 1945240 1953304 2000962 2019146 2066586 2305250
1616.07 2861798 2743932 2228834 2121822 2150088 2190708
1618.96 2209340 2222296 2250380 2283680 2312422 2331542
1621.85 2353486 2426466 2618944 2690918 2538436 2485274
1624.74 2482806 2525140 2573556 2630610 2688772 2821446
1627.64 2851102 2810766 2824582 2843238 2830360 2812640
1630.53 2798102 2779732 2739886 2713842 2677896 2681282
1633.42 2669450 2718070 2915632 3231896 3202506 2749512
1636.31 2608744 2689320 2710644 2615650 2570000 2556194
1639.21 2560834 2558056 2543336 2513540 2527288 2521194
1642.10 2490626 2426028 2390910 2372004 2351296 2319312
1644.99 2516074 2768416 2488076 2252124 2276610 2203864
1647.89 2166472 2043792 1966480 1912904 1888810 1871258
1650.78 1892804 2082048 2660534 2851526 2859590 2449078
1653.67 2055028 2030156 1784712 1661714 1617448 1612160
1656.56 1588062 1585680 1562630 1541576 1514056 1516700
1659.46 1500362 1482814 1450854 1458872 1468502 1584378
1662.35 1684516 1544176 1424032 1394528 1370276 1377870
1665.24 1375392 1385052 1363460 1383954 1400226 1430536
1668.13 1490192 1714368 1729992 1496174 1425230 1479156
1671.03 1555788 1487668 1415796 1408060 1417154 1435040
1673.92 1486758 1762422 1959640 1711284 1518090 1516360
1676.81 1520834 1531444 1545666 1568978 1603072 1659968
1679.71 1713750 1737092 1714006 1722112 1775458 1920630
1682.60 2114818 2186044 2293278 2848140 3029574 2406734
1685.49 2201944 2234310 2302844 2349528 2446530 2539484
1688.38 2592762 2646060 2771106 2846446 2912410 2996628
1691.28 3099918 3184066 3289982 3377716 3494158 3592294
1694.17 3719474 4031214 4763810 4906368 4308408 4181172
1697.06 4287022 4348846 4425928 4557764 4924578 5380296
1699.95 5461532 5266566 4945242 4858122 4902996 4964990
1702.85 5002260 5090824 5277388 5317630 5272656 5397804
1705.74 5576870 5605762 5575524 5609938 5623624 5630332
1708.63 5598612 5535376 5395236 5196172 4975170 4743534
1711.53 4505378 4384372 4351526 4378576 4447002 4480084
1714.42 4608042 4633780 4447646 4396406 4584480 5006908
1717.31 4700004 4300962 4188448 3874714 3633710 3481994
1720.20 3311870 3140812 2969616 2808676 2648420 2524482
1723.10 2405888 2228054 2087238 1981690 1888236 1799982
1725.99 1752310 1710430 1642410 1583880 1558254 1534852
1728.88 1541752 1581266 1555634 1469444 1470060 1472924
1731.77 1467416 1568114 1921846 1902498 1901136 2050734
1734.67 1656734 1413978 1392370 1408516 1428442 1447380
1737.56 1433358 1444344 1480096 1663842 1744600 1537436
1740.45 1434072 1434128 1426334 1446036 1498244 1524026
1743.34 1504164 1489288 1463194 1456452 1455964 1448484
1746.24 1469638 1507934 1485122 1507452 1574064 1562874
1749.13 1502230 1458818 1510302 1736654 1745502 1464432
1752.02 1359658 1371584 1367534 1352714 1341622 1337578
1754.92 1319582 1333570 1436288 1522252 1410100 1320242
1757.81 1321580 1328574 1306998 1291386 1273322 1258982
1760.70 1313822 1469242 1419794 1256522 1200286 1172988
1763.59 1165174 1144692 1123484 1099870 1104618 1111710
1766.49 1102650 1130072 1278608 1255982 1085020 1052966
1769.38 1051322 1075902 1169992 1258102 1187074 1354600
1772.27 1555046 1276446 1058186 1043698 1042512 1058748
1775.16 1069124 1022668 985650 970678 950552 942928
1778.06 945444 963056 956100 966386 1019724 1011020
1780.95 969272 975712 980544 981088 990088 1016516
1783.84 1046682 1141742 1122052 1057566 1064934 1090310
1786.74 1123474 1138826 1143408 1193626 1229370 1250090
1789.63 1286184 1391518 1469650 1445966 1546904 1821982
1792.52 1774450 1597156 1615370 1672836 1727880 1779038
1795.41 1846970 1901922 1956434 2035522 2120200 2199932
1798.31 2297526 2451352 2564998 2577524 2637740 2763670
1801.20 2844278 2924960 3028080 3060838 3119940 3204098
1804.09 3282974 3354682 3441424 3529746 3625582 3695042
1806.98 3787146 3873242 3942310 4004340 4094036 4194198
1809.88 4318060 4408600 4447084 4508866 4568260 4604550
1812.77 4670640 4722318 4737090 4743852 4743560 4737568
1815.66 4741052 4758972 4793328 4814414 4811378 4813388
1818.56 4813568 4813194 4829078 4844846 4856678 4853616
1821.45 4815354 4787144 4748112 4690444 4639410 4558390
1824.34 4510020 4416228 4177802 4017810 3933842 3857712
1827.23 3791342 3727428 3694088 3660492 3625000 3621316
1830.13 3444954 3262468 3140148 3049942 2962006 2854882
1833.02 2740428 2615198 2497300 2371158 2249308 2132350
1835.91 2015152 1915356 1828844 1724460 1636538 1576136
1838.80 1526218 1463634 1396536 1343958 1306784 1275536
1841.70 1249444 1212868 1194104 1292694 1500234 1388190
1844.59 1162022 1123028 1114184 1102608 1083640 1091990
1847.48 1101480 1075180 1062846 1046986 1038862 1036496
1850.38 1046224 1029040 1012992 1013958 1007388 989224
1853.27 976094 979130 972564 957282 954148 961002
1856.16 978512 984022 961124 959742 975582 991062
1859.05 973614 960662 968014 963966 954086 970220
1861.95 989828 993998 995444 990738 1014610 1024176
1864.84 1004910 1009976 1038644 1051730 1077356 1102840
1867.73 1086206 1107252 1206306 1166144 1071842 1077912
1870.62 1069758 1069104 1061160 1048624 1061324 1066968
1873.52 1073574 1080194 1075114 1086064 1097768 1098772
1876.41 1115880 1143178 1159520 1187274 1204778 1213692
1879.30 1213520 1176760 1140730 1119990 1106460 1099730
1882.20 1103310 1123960 1151324 1164414 1188844 1209972
1885.09 1207010 1219070 1216082 1223094 1252188 1262482
1887.98 1256492 1281738 1323612 1284492 1228970 1229030
1890.87 1239372 1234762 1219262 1230216 1237802 1253438
1893.77 1260806 1294090 1337272 1326676 1304984 1303642
1896.66 1303190 1291008 1272854 1264778 1279050 1292096
1899.55 1298554 1304052 1309738 1328358 1346824 1359810
1902.44 1357714 1374414 1418310 1452418 1457792 1486486
1905.34 1527634 1562946 1585896 1590736 1586790 1572730
1908.23 1583042 1601658 1616152 1638664 1655400 1688720
1911.12 1715964 1749390 1792420 1844434 1908862 1962306
1914.02 1995748 2039742 2109408 2197792 2271390 2330946
1916.91 2423262 2590840 2640600 2639392 2723808 2813166
1919.80 2903702 2994012 3100872 3214554 3340284 3465366
1922.69 3594916 3692304 3800840 3922310 4046106 4172718
1925.59 4310234 4454908 4603206 4753426 4900478 5068438
1928.48 5237054 5391576 5563164 5753882 5950406 6140060
1931.37 6338258 6543788 6753880 6948262 7078282 7158614
1934.26 7229864 7312616 7415650 7534090 7681892 7837474
1937.16 7989002 8134430 8271642 8402494 8531212 8681308
1940.05 8822416 8938186 9048662 9164684 9273766 9292354
1942.94 9285592 9304062 9316750 9283432 9210976 9144378
1945.84 9089796 9045460 8999988 8961790 8932518 8903454
1948.73 8878128 8854110 8818380 8778660 8706198 8567324
1951.62 8416356 8282092 8167306 8017102 7767198 7448162
1954.51 7164336 6951110 6788714 6631958 6467474 6331332
1957.41 6198370 6025184 5806554 5604180 5408266 5192302
1960.30 4960488 4723706 4470268 4231668 3984120 3724078
1963.19 3479336 3236760 2991688 2754736 2531984 2340090
1966.08 2156030 2000864 1847606 1699716 1604846 1502954
1968.98 1392816 1296850 1227152 1162304 1096340 1030716
1971.87 984002 950276 904568 884214 858906 829740
1974.76 814976 810184 798834 781870 772132 737888
1977.66 711532 706314 693858 685318 701858 700020
1980.55 686372 678932 664708 639158 642044 649300
1983.44 637886 625060 625808 625028 621920 624098
1986.33 617086 612644 639300 638708 620522 621888
1989.23 626170 622294 619960 625686 655172 665892
1992.12 637978 627498 610694 592718 598654 598252
1995.01 595820 611554 619392 618196 608610 587158
1997.90 582764 608436 625242 629830 618598 613526
2000.80 618976 633292 633784 622468 613472 617884
2003.69 619770 617894 612062 616964 635502 625028
2006.58 615120 630746 630592 634968 640014 644986
2009.48 663138 665460 659958 654812 640800 643568
2012.37 672748 670702 673824 681804 676636 676082
2015.26 681766 695182 710544 706508 716476 725060
2018.15 709910 695970 716314 727088 734766 762688
2021.05 799964 804406 799188 809856 825342 821676
2023.94 831090 856698 882630 896942 897162 900628
2026.83 906122 917824 953606 984152 976618 970646
2029.72 990894 1030974 1081068 1115418 1131530 1171060
2032.62 1204920 1231538 1269872 1326926 1389336 1425294
2035.51 1466578 1528482 1599430 1654186 1684742 1729420
2038.40 1778456 1835848 1911350 1985742 2054762 2139098
2041.29 2226566 2298372 2383624 2470052 2566456 2669590
2044.19 2772174 2868690 2933650 3010922 3109492 3204606
2047.08 3291148 3372620 3452382 3538098 3647590 3762178
2049.97 3854830 3917072 3986598 4055400 4112876 4190296
2052.87 4268340 4333722 4401090 4466858 4543156 4618900
2055.76 4701348 4782362 4853658 4966684 5041906 5092466
2058.65 5159508 5239216 5292958 5309350 5321166 5277906
2061.54 5192166 5038094 4823724 4632442 4490862 4411444
2064.44 4381278 4372068 4374920 4384026 4412614 4426350
2067.33 4422184 4422126 4408234 4314860 4190596 4070656
2070.22 3938488 3803112 3646826 3483968 3332642 3185810
2073.11 2998482 2818920 2675500 2550808 2465350 2371746
2076.01 2292166 2257978 2240666 2170092 2100664 2076436
2078.90 2051856 2050830 2060164 2066656 2090138 2165034
2081.79 2166248 2114962 2126608 2143010 2156698 2169840
2084.69 2189492 2247446 2356408 2366890 2332484 2383904
2087.58 2454260 2532298 2624598 2731840 2847940 3016776
2090.47 3056326 3005010 3007706 2983400 2945396 2886572
2093.36 2821320 2812414 2840034 2711476 2593498 2548092
2096.26 2526400 2526318 2541548 2560684 2683032 2804058
2099.15 2718526 2663966 2686774 2721036 2745938 2765852
2102.04 2793362 2911900 2913958 2755042 2682006 2652578
2104.93 2644206 2616238 2600594 2651664 2763180 2644162
2107.83 2496854 2451982 2458000 2455330 2454790 2487880
2110.72 2631032 2723028 2586346 2541742 2534752 2526304
2113.61 2514272 2487264 2507366 2613528 2485022 2337340
2116.51 2296054 2273758 2269348 2288452 2366272 2552770
2119.40 2592996 2412242 2341224 2326080 2306850 2280458
2122.29 2280594 2364600 2442600 2255854 2076556 2014462
2125.18 1989170 1946936 1904678 1949324 2052582 1935424
2128.08 1806836 1760262 1734226 1712100 1677644 1668224
2130.97 1729172 1673228 1542776 1490990 1466294 1449812
2133.86 1434838 1432422 1476326 1460620 1382406 1346894
2136.75 1326358 1327178 1329592 1329056 1357008 1369380
2139.65 1344862 1341238 1350724 1366460 1376606 1402310
2142.54 1439044 1471428 1491108 1517602 1564072 1621480
2145.43 1694952 1766862 1843078 1894214 1925286 1973146
2148.33 2031330 2103898 2172454 2262060 2404414 2477416
2151.22 2515940 2615674 2719532 2836320 2950656 3128944
2154.11 3367932 3448154 3508124 3663976 3830912 3985458
2157.00 4158994 4455576 4680706 4728206 4852198 5037392
2159.90 5253030 5452634 5731282 6125244 6288282 6353762
2162.79 6553674 6770780 7004446 7234900 7593302 7911794
2165.68 7971920 8095870 8310596 8534536 8760090 9043100
2168.57 9437536 9566936 9585764 9770302 9930614 10060140
2171.47 10234610 10584020 10794660 10691890 10705730 10838500
2174.36 11001470 11199710 11506620 11803470 11782550 11735370
2177.25 11774810 11786880 11785590 11860160 12024460 11895290
2180.15 11636240 11506000 11400610 11323350 11214370 11045950
2183.04 10636620 10202560 9980786 9805786 9658888 9556316
2185.93 9530054 9335242 8992968 8755432 8533618 8243842
2188.82 7930794 7710952 7365486 6883582 6513496 6154218
2191.72 5777728 5430662 5150078 4795548 4364432 4035808
2194.61 3771356 3540418 3364518 3269884 3057558 2806180
2197.50 2622158 2467404 2340624 2285624 2232356 2042536
2200.39 1893254 1804548 1725128 1660524 1633810 1572828
2203.29 1445452 1376700 1331716 1284776 1268310 1279048
2206.18 1242400 1161070 1119448 1110820 1108136 1131606
2209.07 1150456 1093494 1048732 1040320 1042306 1062132
2211.97 1095644 1083722 1060558 1051536 1064198 1093388
2214.86 1120410 1119348 1123214 1146834 1148480 1161472
2217.75 1192688 1219328 1241082 1267888 1286992 1302698
2220.64 1334892 1359268 1349354 1329502 1317316 1300818
2223.54 1297532 1322980 1347386 1362740 1370902 1357078
2226.43 1334710 1290008 1245722 1215926 1204122 1226910
2229.32 1233410 1234134 1262850 1292222 1311894 1303654
2232.21 1297770 1303480 1288564 1274998 1262872 1237210
2235.11 1210610 1191866 1167786 1153250 1137178 1103696
2238.00 1083092 1064612 1039390 1015788 1017304 1017576
2240.89 1006414 1015730 1031002 1051360 1062462 1062290
2243.79 1065178 1081602 1098460 1116794 1123864 1120358
2246.68 1110264 1094408 1093314 1126272 1156806 1158058
2249.57 1163274 1173166 1205990 1242792 1271756 1310104
2252.46 1352284 1364348 1373482 1418596 1488222 1513988
2255.36 1533714 1566028 1594436 1617034 1643714 1667814
2258.25 1684996 1706344 1742422 1799406 1832698 1848850
2261.14 1869786 1896870 1918082 1954860 2006146 2061102
2264.03 2096298 2146920 2228276 2327036 2405272 2472016
2266.93 2539294 2583950 2614142 2658840 2685150 2659540
2269.82 2625416 2595062 2557166 2529472 2546594 2569840
2272.71 2604044 2621504 2679450 2749268 2795860 2834160
2275.61 2863718 2875650 2876442 2874344 2855460 2835102
2278.50 2816408 2797622 2777520 2771850 2766664 2754478
2281.39 2751216 2740804 2741182 2736988 2723284 2702236
2284.28 2669400 2625686 2596098 2562744 2520064 2468192
2287.18 2426744 2384592 2338468 2316096 2303576 2281320
2290.07 2251738 2235346 2216868 2199844 2193428 2180996
2292.96 2188838 2173682 2152618 2146310 2124044 2073808
2295.85 2038974 1999508 1950100 1914758 1880446 1838790
2298.75 1819844 1794916 1753824 1730070 1720420 1711980
2301.64 1695172 1660224 1654694 1636054 1604254 1561844
2304.53 1546208 1527404 1490414 1443754 1385774 1363118
2307.43 1352986 1322974 1255252 1215326 1227446 1214732
2310.32 1166606 1152460 1190284 1177918 1105160 1047280
2313.21 1100512 1125590 1076806 965996 983380 1025848
2316.10 977982 842590 864024 923050 905690 784598
2319.00 779266 860666 842296 682712 677590 794300
2321.89 775330 595326 600760 779702 745404 539852
2324.78 569590 772902 738920 509538 542408 749746
2327.67 650396 439240 578286 803034 633336 439534
2330.57 651792 826542 597904 500064 775150 830192
2333.46 560480 618836 923694 835978 584806 768342
2336.35 1002980 802562 702378 1001344 1034150 791536
2339.24 912000 1153014 1018352 953618 1219358 1290520
2342.14 1131432 1251194 1413126 1312518 1312512 1502844
2345.03 1515506 1453046 1580220 1692556 1688494 1751392
2347.92 1841426 1879404 1888198 1898234 1944204 1966894
2350.82 1916450 1952376 1994904 1896056 1953856 2079060
2353.71 1949350 1982098 2141914 1982578 1982638 2155414
2356.60 1965540 1978822 2188910 1985350 2046656 2225578
2359.49 1996878 2143186 2265680 2025584 2201820 2220604
2362.39 2058484 2258590 2128056 2071150 2225512 2039612
2365.28 2134984 2179524 2051072 2210734 2112758 2126080
2368.17 2178856 2086192 2203522 2144120 2165142 2170240
2371.06 2098994 2146016 2090692 2130342 2092142 2066610
2373.96 2056610 2029890 2037164 2016142 2024090 1976082
2376.85 1958648 1929558 1924536 1924480 1941220 1925258
2379.74 1902370 1873798 1855620 1850734 1842200 1831350
2382.64 1831674 1845998 1838656 1821564 1824636 1837070
2385.53 1834832 1837538 1835196 1814684 1786304 1763450
2388.42 1743014 1712676 1682424 1662818 1637798 1616114
2391.31 1594374 1575612 1555564 1529618 1510900 1502774
2394.21 1514306 1489898 1458978 1452164 1451502 1432600
2397.10 1416194 1426416 1417748 1403752 1403268 1398664
2399.99 1379788 1372864 1373904 1356092 1351246 1350800
2402.88 1338532 1341232 1339002 1333364 1345294 1359494
2405.78 1355762 1374606 1382086 1362384 1337440 1356292
2408.67 1386542 1393700 1379456 1388926 1419010 1433568
2411.56 1431430 1432340 1442490 1448952 1456556 1464946
2414.46 1465148 1463870 1443934 1433216 1454314 1499040
2417.35 1499496 1468746 1449880 1428222 1400526 1378678
2420.24 1371588 1386122 1383444 1364006 1350084 1335652
2423.13 1332188 1329830 1323194 1300734 1282618 1254970
2426.03 1220740 1187306 1153646 1134620 1086714 1014254
2428.92 974858 952490 931588 887792 822086 781838
2431.81 764064 752466 723950 688118 653652 638342
2434.70 633308 601958 586166 593874 587490 566390
2437.60 548370 529216 529366 537402 539844 530804
2440.49 512640 508172 507908 483654 472516 478068
2443.38 455816 444684 459720 454590 445986 446040
2446.28 434604 442564 459818 454688 441982 444106
2449.17 461356 445934 431364 433732 439630 454918
2452.06 460278 469826 481068 486050 487874 494448
2454.95 522304 549046 546266 558210 564606 569684
2457.85 595908 606046 618330 632652 630224 640788
2460.74 672866 664292 672820 681336 695556 704812
2463.63 719986 740108 745684 734552 740304 762052
2466.52 796012 805336 795112 802394 802570 813410
2469.42 840094 863904 874056 860796 856538 867260
2472.31 876818 889752 898828 895516 913862 951970
2475.20 951556 959064 956184 933666 913916 908154
2478.10 910884 924796 920664 898492 885360 898204
2480.99 891624 880862 890830 896494 883652 878972
2483.88 865176 847012 836200 815918 802428 788104
2486.77 765414 775088 761236 753412 772756 770714
2489.67 756860 734900 695062 671010 662284 658638
2492.56 652126 651378 645058 640106 616216 593000
2495.45 595598 601960 586024 565394 555502 566688
2498.34 572246 572990 554358 536484 537780 540154
2501.24 529112 519754 522786 514046 505116 497538
2504.13 477800 450696 448624 464036 467286 443068
2507.02 427016 451824 454922 456042 443530 426484
2509.92 417634 404852 395664 403878 418564 414072
2512.81 397492 383588 364378 355064 358514 378264
2515.70 392670 395022 377262 359622 377492 399910
2518.59 407826 404028 401290 410072 410218 405768
2521.49 409968 400742 389952 396224 420240 412930
2524.38 395698 399588 433748 433118 407364 415486
2527.27 443892 467064 475186 464794 448112 447458
2530.16 458864 469556 506770 523482 501004 476210
2533.06 495682 521208 532384 532324 551528 577728
2535.95 608724 626318 623462 643102 687140 717372
2538.84 729292 720806 715636 747884 774532 787674
2541.74 818864 833000 853600 869170 871676 888952
2544.63 923354 953650 961492 972478 977888 1012520
2547.52 1048202 1050300 1055318 1076654 1076854 1079620
2550.41 1109984 1144520 1156460 1164806 1175624 1195436
2553.31 1231006 1260192 1287792 1308562 1326332 1351860
2556.20 1375208 1398642 1432280 1458436 1495052 1516182
2559.09 1545938 1577226 1592796 1605812 1644076 1689016
2561.98 1730754 1776464 1798904 1823856 1846524 1884484
2564.88 1928234 1980198 2012632 2049482 2095904 2135450
2567.77 2195536 2251676 2286498 2321962 2360540 2424710
2570.66 2492128 2540946 2557442 2570812 2626550 2688270
2573.56 2721726 2756706 2818376 2876654 2907732 2948508
2576.45 3007956 3081578 3152668 3206906 3263062 3350114
2579.34 3390382 3414534 3455412 3509534 3566730 3641456
2582.23 3739124 3827138 3914538 4015916 4101090 4140260
2585.13 4192376 4244268 4286334 4313588 4317772 4310388
2588.02 4306490 4300156 4282750 4272778 4256260 4227258
2590.91 4210768 4223952 4230980 4268248 4312286 4336732
2593.80 4383386 4436728 4461408 4501904 4528796 4547188
2596.70 4576664 4623950 4670252 4687088 4691448 4704198
2599.59 4700096 4690024 4709528 4719248 4717990 4734874
2602.48 4755742 4765378 4765660 4795340 4829258 4813236
2605.37 4824286 4874336 4907534 4925304 4945508 4978268
2608.27 5016262 5026062 5014890 5050806 5091362 5103152
2611.16 5124810 5131916 5131754 5152466 5191680 5221910
2614.05 5228150 5262016 5297980 5301344 5301320 5351038
2616.95 5386472 5404376 5430964 5450508 5484896 5477748
2619.84 5427926 5406612 5429096 5446756 5442018 5450442
2622.73 5483388 5473374 5470824 5466476 5441344 5412558
2625.62 5379390 5337084 5304432 5263708 5211676 5155952
2628.52 5132042 5124176 5057542 5005872 4989700 4961188
2631.41 4950106 4934030 4905946 4885780 4881780 4890976
2634.30 4869348 4838856 4800192 4765914 4738854 4700682
2637.19 4639886 4621154 4633284 4612006 4592582 4595050
2640.09 4623164 4658756 4647384 4637494 4631428 4642616
2642.98 4659152 4639464 4633514 4603288 4567516 4555514
2645.87 4534692 4508910 4465308 4430142 4400952 4357262
2648.77 4338152 4333916 4323684 4353430 4366476 4360278
2651.66 4344368 4346974 4347020 4326226 4323652 4331772
2654.55 4332072 4323840 4290398 4262136 4224332 4197460
2657.44 4173558 4136206 4107218 4104502 4104734 4102894
2660.34 4109446 4093282 4058902 4048500 4032040 4023016
2663.23 4008972 3969462 3931660 3916514 3901828 3860554
2666.12 3815284 3791938 3753836 3707980 3686606 3688326
2669.01 3677306 3663914 3644906 3607262 3607402 3599480
2671.91 3572424 3569690 3565138 3560802 3553862 3535412
2674.80 3484322 3453968 3485660 3506590 3477856 3445248
2677.69 3447588 3450838 3424816 3389278 3388418 3391682
2680.59 3364370 3343526 3322080 3310912 3329866 3331158
2683.48 3280316 3262552 3285632 3294364 3285974 3261872
2686.37 3223366 3208614 3210840 3205142 3204302 3219596
2689.26 3221746 3194014 3177966 3161552 3145974 3143140
2692.16 3158532 3180842 3175496 3167714 3170524 3169418
2695.05 3181322 3191888 3189022 3181674 3166400 3178438
2697.94 3205384 3229318 3250448 3264906 3289186 3320248
2700.83 3349788 3387246 3412600 3452140 3497490 3546682
2703.73 3584418 3633824 3696628 3767894 3817330 3879110
2706.62 3944214 4003478 4050352 4090252 4156950 4253136
2709.51 4300734 4366202 4462512 4564504 4656672 4722684
2712.41 4795844 4900382 5016230 5131194 5265164 5384882
2715.30 5527228 5687792 5821124 5936036 6046336 6154864
2718.19 6250218 6345596 6429880 6537976 6631726 6685484
2721.08 6759936 6848224 6896988 6940446 6972382 7019030
2723.98 7142936 7247426 7333344 7448226 7558388 7632996
2726.87 7675316 7665388 7658938 7678578 7682690 7668436
2729.76 7664986 7668666 7680224 7703450 7726810 7745948
2732.65 7726940 7708528 7713004 7719252 7693182 7690224
2735.55 7727320 7747770 7727188 7719572 7731916 7707986
2738.44 7641144 7553844 7510344 7466090 7396038 7345510
2741.33 7301170 7260446 7181120 7106630 7089744 7045760
2744.23 6961678 6924754 6940646 6938792 6924102 6893806
2747.12 6880596 6870954 6841372 6783886 6742988 6683764
2750.01 6599830 6512136 6413532 6299450 6208420 6152626
2752.90 6097628 6080024 6080858 6054600 6041014 6015264
2755.80 5989354 6005688 6010108 6018562 6045228 6075330
2758.69 6095638 6109816 6118520 6123332 6121204 6143736
2761.58 6151476 6140116 6145254 6172832 6197752 6170204
2764.47 6130458 6145260 6155870 6147754 6172788 6169258
2767.37 6165404 6222182 6274846 6301194 6319524 6344140
2770.26 6385522 6463442 6490590 6497120 6564622 6663278
2773.15 6717542 6740912 6784242 6812198 6838406 6867414
2776.05 6854622 6858692 6884810 6920550 6936508 6957526
2778.94 7005624 7073322 7140344 7205050 7277668 7398468
2781.83 7535340 7670942 7788888 7919306 8083880 8211460
2784.72 8308488 8421810 8535302 8651178 8765114 8882774
2787.62 9016734 9165174 9304256 9451314 9601716 9738286
2790.51 9892772 10056960 10229200 10414850 10601150 10793120
2793.40 11014720 11219900 11412680 11626340 11842920 12098050
2796.29 12387800 12653620 12926060 13282210 13661900 13968130
2799.19 14298260 14701280 15140940 15589410 16084720 16587020
2802.08 17118080 17728950 18322020 18929150 19576980 20249560
2804.97 20977890 21733130 22553880 23492260 24577220 25798850
2807.87 27175710 28709140 30382290 32203170 34170660 36245350
2810.76 38381640 40602910 42957880 45499100 48223930 51123540
2813.65 54204610 57489310 60936830 64475940 68150830 71883200
2816.54 75686700 79582460 83423310 87170760 90782090 94313400
2819.44 97777850 101031000 104127500 107240900 110365700 113488100
2822.33 116707000 120251900 124301300 129148900 135171100 142856300
2825.22 152288200 162463600 170719300 174938500 175100500 171900900
2828.11 166301500 159873100 154118300 149836800 147385700 146609700
2831.01 147599100 150654200 155958300 163601400 173258200 183891900
2833.90 194052700 202368900 207487500 207802700 202667900 193385500
2836.79 182197800 170894200 160414900 151471600 144421000 139141600
2839.69 135503200 133171300 131777000 131008900 130599700 130371900
2842.58 130114300 129554700 128523400 126953500 124841500 122160100
2845.47 118907500 115281900 111229200 106780400 102180900 97508100
2848.36 92837810 88213650 83705380 79317370 75141180 71278020
2851.26 67678940 64414260 61483960 58849790 56537840 54542620
2854.15 52866320 51470610 50367710 49502530 48848290 48398000
2857.04 48100300 48021150 48180200 48479180 48881590 49376930
2859.93 50029930 50844580 51728310 52637080 53648840 54772890
2862.83 55941720 57121330 58393440 59790560 61244030 62721650
2865.72 64286390 65942760 67630320 69420560 71330910 73276560
2868.61 75286660 77386860 79608200 81941790 84354630 86805150
2871.51 89282300 91793070 94397230 97072820 99819730 102629400
2874.40 105396200 108147800 110932900 113734000 116432400 118998000
2877.29 121615100 124346500 127028000 129637300 132289400 134963600
2880.18 137583600 140107400 142674600 145308900 147844900 150288800
2883.08 152760400 155164800 157519600 160055600 162654500 165263300
2885.97 167940800 170761300 173750600 176924400 180156500 183514200
2888.86 187237700 191155600 195171700 199484000 203879400 208128900
2891.75 212133100 215851600 219386800 222874400 226163600 229079300
2894.65 231821700 234634000 237495000 240453200 243510900 246440400
2897.54 249254400 252032600 254886700 257703000 260403600 263014100
2900.43 265623300 268205000 270680400 272946000 275240500 277618800
2903.32 280057900 282508800 284960100 287506200 289836500 291741700
2906.22 293138400 294035600 294681800 295030600 295191100 295311500
2909.11 295573100 296103700 297076300 298505400 300353500 302675500
2912.00 305103000 307588600 310381800 313270900 316008800 318404000
2914.90 320434300 322098200 323112800 323210800 322715600 321866800
2917.79 320593300 318865600 316722000 314364400 311699400 309139500
2920.68 306893200 304822700 303112700 302021100 301386100 301063000
2923.57 301207000 301649000 302070800 302477000 302722300 302685800
2926.47 302564500 302364100 302014700 301573500 301216800 301055700
2929.36 301154400 301333300 301758100 302411300 303134900 304156500
2932.25 305436900 306697300 307949200 309280600 310641800 312021300
2935.14 313452500 315013700 316477600 317842500 319281400 320779200
2938.04 322326900 323664300 324923600 326412500 327940700 329564400
2940.93 331190300 332586000 334184400 335690800 336830900 337718700
2943.82 338433100 339172600 339941700 340776200 341577600 342439300
2946.72 343709800 345025400 346199100 347213700 348029400 348399400
2949.61 348003300 346982300 345517000 343305100 340553300 337534600
2952.50 334413900 331210700 328074100 325395500 323245200 321498900
2955.39 320531500 320280800 320684400 321717600 323418100 325893700
2958.29 328958300 332691100 337416100 342774200 348982100 356297500
2961.18 365010800 375064000 385782200 397633000 410687100 424609000
2964.07 439691000 455174400 470886600 486936100 503359300 520512300
2966.96 538754400 557782800 577362600 597264000 617859100 638945900
2969.86 660230500 682053400 703828000 725800400 749131800 773785700
2972.75 798952700 824604600 852024100 882852200 919553600 962825100
2975.64 1010427000 1052630000 1069554000 1045687000 993918600 946656000
2978.54 926574700 936822100 970359600 1014854000 1048978000 1051098000
2981.43 1031543000 1020585000 1034777000 1074574000 1133763000 1202067000
2984.32 1258937000 1286842000 1298070000 1301928000 1277209000 1211576000
2987.21 1123740000 1038962000 966696300 906886100 857445000 818273600
2990.11 787775000 764081200 745062700 728877600 714405200 700660400
2993.00 685988200 670397100 653069100 633717800 612759900 590319900
2995.89 565955500 540610600 514437600 487411800 460364600 433028100
2998.78 405626800 378708300 352557200 327239200 302788300 279427800
3001.68 257293700 236426200 216895700 198759500 181987000 166602700
3004.57 152425300 139400300 127603700 116965700 107343300 98668950
3007.46 90803770 83743500 77426960 71789350 66785450 62325590
3010.36 58292390 54685060 51454220 48600400 46072940 43792730
3013.25 41728870 39907650 38267180 36756640 35361660 34111240
3016.14 32967590 31887980 30905740 30034610 29170620 28357450
3019.03 27639260 26943040 26287880 25679000 25078410 24527170
3021.93 24012480 23531570 23075040 22601070 22168320 21794280
3024.82 21420560 21037610 20645240 20238300 19868850 19561500
3027.71 19259100 18948830 18642230 18365010 18084850 17824410
3030.60 17560300 17295900 17041760 16813610 16604600 16381570
3033.50 16183680 16021770 15818270 15631490 15454150 15266730
3036.39 15058740 14881540 14716860 14554640 14399750 14259330
3039.28 14095690 13953720 13819370 13739160 13630820 13441710
3042.18 13245180 13150960 13072740 12959240 12813880 12703200
3045.07 12589530 12463710 12375350 12315440 12219460 12086580
3047.96 12018080 11948840 11885190 11814030 11742630 11650410
3050.85 11576380 11546950 11530860 11493380 11387220 11271080
3053.75 11226270 11211100 11169220 11115550 11078260 11031890
3056.64 11001570 10991970 10962550 10919950 10868280 10833690
3059.53 10816530 10811810 10798150 10774440 10741200 10720240
3062.42 10743260 10757780 10761630 10733470 10710690 10700370
3065.32 10686670 10693910 10702780 10695950 10648330 10604090
3068.21 10577090 10535790 10506440 10511470 10494160 10481880
3071.10 10452090 10389050 10344920 10329710 10295800 10257460
3074.00 10221530 10213070 10156820 10118230 10080560 10043560
3076.89 9980106 9925138 9883086 9822158 9754866 9682068
3079.78 9603494 9547166 9480424 9430246 9362476 9260858
3082.67 9188854 9118260 9033848 8972780 8898832 8809328
3085.57 8690704 8616058 8559790 8498090 8416454 8308416
3088.46 8200798 8137218 8058366 7962792 7889566 7800842
3091.35 7738836 7691610 7617886 7525780 7441682 7366372
3094.24 7297664 7239612 7174878 7114136 7056254 6998568
3097.14 6921078 6820392 6711022 6670870 6632112 6570806
3100.03 6522054 6475978 6413008 6372878 6320972 6286874
3102.92 6254706 6216034 6192628 6143236 6058460 5996022
3105.82 5978442 5953196 5913326 5916408 5920364 5861632
3108.71 5847134 5856174 5812552 5754522 5726492 5680532
3111.60 5640610 5630794 5634774 5611838 5607734 5672622
3114.49 5669844 5635180 5607140 5563518 5553302 5567330
3117.39 5547994 5555094 5566126 5561984 5571656 5552040
3120.28 5520526 5541364 5571564 5571604 5553126 5533610
3123.17 5503080 5526466 5575930 5581090 5560726 5558098
3126.06 5578682 5590670 5650930 5708748 5704812 5721214
3128.96 5711726 5727714 5766530 5763292 5790934 5811362
3131.85 5827222 5875696 5918402 5937622 5952176 5955922
3134.74 5971512 6039568 6103936 6146482 6168306 6195184
3137.64 6247214 6307956 6343104 6360114 6404600 6443578
3140.53 6464372 6499970 6536534 6602866 6639130 6677216
3143.42 6700170 6699406 6741746 6791050 6804600 6847754
3146.31 6855116 6821738 6845588 6890432 6874714 6885558
3149.21 6917234 6949322 6970282 6965858 6957464 6957832
3152.10 6965640 6933576 6872052 6839758 6851230 6866482
3154.99 6860332 6866856 6874280 6859428 6834628 6797002
3157.88 6757668 6769806 6764596 6746708 6713698 6630726
3160.78 6586948 6604638 6597982 6552432 6489904 6479404
3163.67 6465886 6454566 6421934 6340050 6329856 6337216
3166.56 6294252 6276134 6290594 6297454 6277434 6245860
3169.46 6228650 6214644 6222204 6237748 6237000 6265532
3172.35 6255976 6208876 6187960 6222126 6213148 6205364
3175.24 6236382 6240002 6238672 6207218 6191452 6264206
3178.13 6291704 6289120 6312070 6322218 6334822 6350868
3181.03 6353414 6347732 6350292 6375652 6376844 6398862
3183.92 6416512 6461520 6474542 6472154 6501652 6494836
3186.81 6485392 6518990 6539750 6533756 6531854 6538972
3189.70 6537282 6560092 6576474 6604064 6633406 6625002
3192.60 6611982 6624190 6588088 6574860 6611326 6666822
3195.49 6680628 6655504 6653332 6652070 6631114 6616910
3198.38 6599648 6551554 6547076 6608572 6581086 6553496
3201.27 6592506 6581852 6550368 6545932 6552942 6545812
3204.17 6529646 6508756 6486034 6497938 6509556 6480972
3207.06 6483288 6485496 6498908 6496098 6507686 6531374
3209.95 6526632 6520312 6480878 6468308 6497284 6509890
3212.85 6547218 6581070 6551720 6536216 6594826 6631286
3215.74 6669250 6719628 6740366 6763028 6772204 6793700
3218.63 6840250 6892096 6921602 6949178 7019672 7071206
3221.52 7073026 7150306 7177246 7172614 7234910 7289750
3224.42 7356830 7397242 7426940 7499534 7573968 7580364
3227.31 7593064 7571316 7585578 7656540 7656934 7648988
3230.20 7668014 7688098 7694578 7703628 7715068 7703008
3233.09 7722156 7790150 7780672 7710596 7680988 7665096
3235.99 7614420 7614850 7609324 7574606 7536720 7512454
3238.88 7490346 7448242 7404470 7345848 7286388 7226590
3241.77 7167120 7088672 7002840 6926614 6848968 6799438
3244.67 6726084 6648986 6573376 6491166 6402250 6332450
3247.56 6238544 6128650 6044320 5929626 5814556 5683756
3250.45 5624284 5526718 5398078 5324496 5236998 5087486
3253.34 5007156 4948640 4848608 4786494 4670916 4513490
3256.24 4391674 4279230 4197860 4123266 4019316 3914528
3259.13 3834962 3778226 3694320 3622146 3537674 3417414
3262.02 3318150 3269628 3201302 3103358 3034428 3009756
3264.91 2941462 2834326 2744800 2681486 2660044 2623572
3267.81 2548608 2483692 2427812 2345848 2276828 2237378
3270.70 2211100 2138870 2057420 2030378 2030904 1977162
3273.59 1935112 1920822 1909218 1858558 1812198 1810786
3276.49 1775802 1718016 1678390 1666308 1679554 1650952
3279.38 1601054 1599502 1617830 1547372 1499900 1498416
3282.27 1481724 1451628 1435696 1449406 1444260 1417894
3285.16 1418784 1440270 1441968 1350290 1305154 1313458
3288.06 1311820 1290518 1231564 1232084 1261288 1256548
3290.95 1259250 1257036 1276238 1258108 1251344 1248496
3293.84 1255834 1248376 1239154 1244388 1233478 1242674
3296.73 1274972 1277514 1257238 1284182 1291918 1282206
3299.63 1303326 1344040 1355724 1371720 1397866 1435742
3302.52 1474120 1516350 1549458 1554970 1594392 1618012
3305.41 1588564 1627140 1687834 1710966 1739504 1745094
3308.31 1787666 1844796 1852276 1911534 1959816 1946232
3311.20 1935306 1973606 2018108 2053536 2072728 2133158
3314.09 2213200 2255080 2262902 2282832 2335892 2400862
3316.98 2412222 2426194 2436512 2431878 2489030 2534902
3319.88 2469956 2420144 2450940 2490204 2471976 2446370
3322.77 2407722 2380258 2369334 2379818 2364976 2379598
3325.66 2413070 2419928 2401470 2419210 2458132 2471566
3328.55 2498920 2528608 2513446 2464574 2402432 2379768
3331.45 2358154 2334640 2336330 2328386 2289996 2273334
3334.34 2251680 2213458 2212460 2165226 2139436 2140222
3337.23 2119516 2098846 2087868 2104984 2108354 2085542
3340.13 2076626 2058588 2015408 1960858 1947344 1956028
3343.02 1992252 2067086 2083048 2079678 2050162 2031814
3345.91 2051404 2024066 2016244 2020590 1970706 1905930
3348.80 1847602 1796904 1793918 1805668 1752902 1691256
3351.70 1691664 1723988 1722192 1708500 1682008 1614012
3354.59 1592276 1634730 1623010 1594028 1545548 1507688
3357.48 1497522 1463478 1420598 1410328 1413240 1385634
3360.37 1406114 1428224 1373186 1293770 1330244 1337394
3363.27 1284114 1264486 1242878 1267704 1237582 1197244
3366.16 1188978 1180616 1172538 1185494 1207290 1181136
3369.05 1163232 1203808 1259348 1272170 1272314 1294806
3371.95 1334380 1351474 1330362 1299010 1331502 1387354
3374.84 1419332 1443252 1493678 1505350 1515364 1565976
3377.73 1665176 1678602 1657136 1686280 1743608 1783700
3380.62 1823396 1853052 1885222 1951736 1999018 2033752
3383.52 2095548 2123732 2185742 2271442 2352466 2354930
3386.41 2366458 2396144 2384504 2367268 2369496 2357302
3389.30 2390416 2381194 2346198 2372106 2370054 2343644
3392.19 2322790 2289610 2282964 2296866 2275884 2284618
3395.09 2312508 2318754 2317760 2272048 2216764 2182120
3397.98 2106930 2044250 2023654 2015832 1994244 1971906
3400.87 1923670 1869602 1814186 1761890 1769766 1798106
3403.77 1726676 1622968 1567976 1547298 1558038 1550504
3406.66 1495692 1482618 1456076 1430662 1427872 1354080
3409.55 1278064 1241110 1238530 1196694 1148324 1136914
3412.44 1121180 1113944 1098198 1086846 1055352 1047612
3415.34 1050640 1035534 1055648 1104020 1100782 1084428
3418.23 1089816 1103006 1127248 1120978 1111880 1102822
3421.12 1104382 1151188 1196720 1219102 1200362 1214136
3424.01 1249086 1259882 1281356 1298464 1295994 1336190
3426.91 1361282 1361344 1390100 1449316 1458506 1488838
3429.80 1544454 1597902 1594836 1565892 1595730 1612734
3432.69 1621972 1613456 1565644 1569844 1622698 1662892
3435.59 1673414 1659730 1682090 1721090 1713434 1742394
3438.48 1716756 1682464 1677304 1684498 1715484 1741154
3441.37 1676844 1629922 1634860 1654784 1652052 1607016
3444.26 1545916 1498142 1516182 1527546 1503448 1474474
3447.16 1431952 1405370 1366312 1312292 1296298 1276850
3450.05 1243442 1176570 1147488 1154440 1134830 1123180
3452.94 1124514 1115838 1094814 1047878 1031698 991842
3455.83 965570 955702 902984 859706 874456 872956
3458.73 872192 833470 794842 793546 794906 825740
3461.62 823076 832094 848874 836138 846226 838790
3464.51 785596 806948 814728 779958 745934 783634
3467.40 852130 831232 815942 841036 892944 908208
3470.30 909752 927634 907764 917376 941280 949480
3473.19 977174 1015038 1021082 995392 991674 1038148
3476.08 1101534 1113916 1144758 1221132 1248518 1224942
3478.98 1238954 1259434 1244232 1235928 1227360 1244720
3481.87 1254982 1263512 1251092 1208448 1195392 1226556
3484.76 1216450 1202198 1165422 1157822 1139584 1109032
3487.65 1136850 1165882 1122560 1074644 1069838 1030266
3490.55 1036222 1023536 1026008 1025192 997832 1016862
3493.44 1010432 947444 882524 860686 881848 845210
3496.33 794008 767320 746340 727616 718302 688324
3499.22 657470 657190 639902 598322 580026 556256
3502.12 535472 506008 469654 467994 451372 477026
3505.01 472664 402738 358878 339624 325468 330382
3507.90 351288 322764 308692 316670 293474 283620
3510.80 263352 257532 270266 254734 217566 223050
3513.69 195092 160776 145282 138580 156342 200558
3516.58 230164 198500 156014 140830 153486 165474
3519.47 156352 108070 116284 159282 152316 136098
3522.37 140152 174574 189902 169292 138854 108396
3525.26 76372 69496 112264 121832 100228 90708
3528.15 116574 136396 109680 87250 91062 129148
3531.04 133810 71960 28752 53032 82382 79120
3533.94 80246 84348 91116 118900 117804 118014
3536.83 116274 97196 111938 131016 126408 99462
3539.72 82916 82750 101474 110886 81660 82374
3542.62 84124 60284 66318 124660 142364 89984
3545.51 54930 132632 213146 160002 81538 115768
3548.40 102096 57792 51602 89336 128064 131162
3551.29 129752 139378 87384 43158 63470 96484
3554.19 101874 80216 88404 93456 78974 90092
3557.08 113994 88406 97184 118200 85164 60340
3559.97 56018 70006 97678 81760 64088 69570
3562.86 71590 81540 104088 83648 96410 155318
3565.76 188610 170344 136602 172162 203300 130342
3568.65 87016 78566 30632 31482 35944 46124
3571.54 71040 52530 8744 15766 68346 54486
3574.44 58274 85942 68108 58194 37394 17978
3577.33 51040 100444 124448 116212 92314 56222
3580.22 19356 47768 65614 54898 55386 43042
3583.11 37828 33296 72760 122500 138654 144242
3586.01 197510 168210 106070 117454 241666 261792
3588.90 133214 94524 74918 48078 58320 75898
3591.79 98228 117256 117420 83432 57596 70028
3594.68 131694 133262 86688 48326 43004 68262
3597.58 98762 90034 98246 120872 109160 123142
3600.47 156828 154108 129820 88170 95066 129868
3603.36 91340 64626 43288 84954 117112 149676
3606.26 205672 247054 166210 87780 183676 420826
3609.15 324674 134992 112950 97650 113966 230414
3612.04 324894 242640 151010 180658 242616 205806
3614.93 146976 132290 137486 134466 191342 219934
3617.83 143682 145856 334640 417962 199912 109548
3620.72 127098 125314 123428 108260 101368 99238
3623.61 81994 105352 97052 97286 110714 143486
3626.50 139978 146090 319306 490236 383454 551932
3629.40 520096 198026 128946 135702 125712 113362
3632.29 108102 131606 215094 175460 121286 72806
3635.18 56520 83428 82450 84934 78592 104950
3638.08 138964 125274 96456 78092 93668 116032
3640.97 88818 76162 92504 104752 97702 96476
3643.86 113980 111348 120256 118176 152802 247872
3646.75 362036 304740 179492 283708 612770 522806
3649.65 266858 304176 311132 240424 117346 107766
3652.54 91472 75736 67946 72682 117478 164154
3655.43 346464 448044 233674 124352 108114 100610
3658.32 100518 117940 78812 57234 96124 118582
3661.22 97196 100366 110616 138724 154652 156826
3664.11 145114 137050 147958 157082 155134 163904
3667.00 157402 172062 327296 427468 281930 251906
3669.90 587074 803588 420300 237672 182686 199548
3672.79 216572 249350 315312 541304 585274 671444
3675.68 717600 378998 254106 256902 259912 250006
3678.57 283918 370960 317970 236644 217638 227754
3681.47 241504 233222 227764 257262 271250 269090
3684.36 249710 274628 317102 347656 312476 314644
3687.25 474714 965398 949352 493222 373290 377284
3690.14 454580 580332 526606 366772 345226 335300
3693.04 352708 348426 374802 416474 411274 385840
3695.93 398276 393940 388968 399862 432890 428166
3698.82 436302 449940 427790 448358 579192 648772
3701.72 581700 530256 526232 495720 472572 481940
3704.61 497216 502768 514086 481102 482458 507400
3707.50 531940 555992 697304 805550 696456 609924
3710.39 588114 634922 910920 1058772 727184 536622
3713.29 514552 518660 537292 531880 505988 457460
3716.18 404376 395586 404294 444888 491254 469432
3719.07 408002 393874 351996 365034 426506 534002
3721.96 533888 431342 370618 354600 390662 409200
3724.86 413916 389356 462914 479278 374944 373196
3727.75 377312 322926 284460 302586 341206 347682
3730.64 340628 538074 802714 625900 379988 354042
3733.54 390856 494326 550994 524194 426812 618450
3736.43 725166 478200 403626 431306 377564 352502
3739.32 347988 340912 349354 368644 339940 311494
3742.21 337036 420792 592650 1070986 1497434 1026596
3745.11 489898 365280 323144 354428 422320 428156
3748.00 437858 784442 1098556 736124 425540 388034
3750.89 464070 867602 1130110 657006 345656 313456
3753.78 326700 328712 336670 344486 385794 438832
3756.68 384688 325906 325260 357500 434746 541650
3759.57 559560 412234 337784 355274 379714 379310
3762.46 404672 388646 382994 400040 389836 445306
3765.35 537184 432732 395708 434580 437390 427132
3768.25 420122 458420 645722 658872 503398 436980
3771.14 409714 425730 451826 435032 430496 475308
3774.03 486898 456296 474682 486656 513656 511902
3776.93 498138 495758 493016 544838 645474 645552
3779.82 579236 552030 532298 566480 579312 607196
3782.71 625698 586852 559302 594906 577098 573970
3785.60 611142 619956 644766 655840 624760 616962
3788.50 612580 617026 653976 650184 625068 578818
3791.39 559048 589914 610698 644144 630618 599834
3794.28 586806 619408 696658 801128 748864 678696
3797.17 685122 664814 668386 674070 683508 724230
3800.07 803186 1180530 1401034 959836 735976 765406
3802.96 732208 683812 650226 654968 659468 684058
3805.85 831360 1114408 1070726 734880 661806 678652
3808.75 746134 754686 713558 702318 697972 678346
3811.64 714054 744872 743138 709128 762252 776936
3814.53 812930 1049798 1511146 1320888 856510 791056
3817.42 827716 845072 862996 890568 896452 1028090
3820.32 1157812 1151982 1232666 1069186 883960 876176
3823.21 866466 902784 937582 967010 963790 974942
3826.10 1050464 1045656 984322 988978 994398 1000488
3828.99 1018306 982382 988452 1046072 1172084 1219416
3831.89 1097244 1063222 1053740 1063364 1114188 1276458
3834.78 1258816 1089138 1032778 1079300 1271682 1757944
3837.67 1695436 1208148 1085762 1124772 1167626 1166984
3840.57 1236468 1165732 1082066 1043164 1068520 1163248
3843.46 1190522 1086240 1024368 1011186 1022330 1008708
3846.35 989606 992638 984524 985584 1022316 997050
3849.24 972994 966164 1010258 1085984 1398632 1673206
3852.14 1346398 1171098 1557556 2111156 1866210 1172764
3855.03 960340 951888 1002922 1055986 1055796 969892
3857.92 926538 921796 942064 975852 996032 975212
3860.81 1065924 1139936 1050956 1003726 1074940 1086536
3863.71 1109780 1228374 1376996 1259038 1090822 1018426
3866.60 1077952 1113342 1143708 1183938 1255622 1322996
3869.49 1582384 1537634 1243256 1153690 1138466 1188788
3872.39 1249588 1344488 1439420 1498742 1426616 1321912
3875.28 1347340 1388512 1398996 1402104 1396030 1434844
3878.17 1487220 1548926 1624436 1715712 1668348 1597188
3881.06 1587774 1587890 1614000 1639252 1680288 1696288
3883.96 1709786 1746358 2011298 2138372 1903654 1768852
3886.85 1814042 1846788 1871964 1920024 1944588 1945218
3889.74 1971168 2068354 2264710 2217854 2042488 2025778
3892.63 2073442 2110964 2150540 2170798 2149970 2117608
3895.53 2109648 2125996 2138422 2179468 2224032 2244778
3898.42 2383188 2486930 2377670 2321742 2329230 2436384
3901.31 2624594 2587462 2477234 2430234 2556872 2771220
3904.21 2668132 2559678 2543368 2560514 2526588 2535934
3907.10 2565718 2592684 2611612 2612248 2667476 2685104
3909.99 2663688 2700382 2766554 2781180 2788906 2825670
3912.88 2861386 2872222 2869982 2897660 2938840 3004852
3915.78 3066706 3087728 3116378 3035720 2979210 3007828
3918.67 3017932 3068770 3132304 3134654 3094760 3055234
3921.56 3038274 3043164 3095712 3140044 3160786 3188070
3924.45 3231092 3195798 3137214 3126152 3108018 3127162
3927.35 3103858 3056222 3067452 3077088 3015890 2946990
3930.24 2866496 2853166 2901608 2901374 2841204 2779860
3933.13 2750488 2737154 2756340 2764628 2713468 2626784
3936.03 2581690 2630874 2631134 2526036 2440008 2416380
3938.92 2401458 2359516 2356280 2331594 2284534 2223206
3941.81 2221144 2273192 2202536 2130976 2100326 2067974
3944.70 2045512 2058198 2080744 2083730 2069608 2051704
3947.60 2063102 2051374 2043390 1988318 1955202 2010558
3950.49 2005332 2008506 2033014 2048714 2070330 2063986
3953.38 2075898 2064364 2042036 2060020 2095790 2102026
3956.27 2121312 2160670 2184076 2196804 2176950 2192634
3959.17 2190110 2174230 2182868 2228494 2257618 2251460
3962.06 2237698 2239074 2264642 2286836 2274860 2266188
3964.95 2260514 2275806 2300368 2330038 2352576 2377408
3967.85 2392878 2375644 2409576 2438192 2442722 2458628
3970.74 2479402 2471858 2469968 2487620 2480694 2497256
3973.63 2539452 2522534 2558024
##END=
