##TITLE=Methyl tert-Butyl Ether
##JCAMP-DX=4.24
##DATA TYPE=INFRARED SPECTRUM
##CLASS=IUPAC A
##ORIGIN=NIST, Anayltical Chemistry Division, 301-975-3108
##OWNER=COPYRIGHT (C) 1998 by the U.S. Secretary of Commerce
##DATE=98/10/1
##$SPECTRA VERSION=1.00
##$UNCERTAINTY IN Y=2.1 % relative (B=1.1E-04,C=7.8E-10,D=2.7E-14)
##CAS NAME=tert-Butyl Methyl Ether
##CAS REGISTRY NO=1634-04-4
##MOLFORM=( C H3)3 C O C H3
##MP=-109 C
##BP=55.2 C
##$NIST SOURCE=QUANT-IR
##SPECTROMETER/DATA SYSTEM=IFS66V (Bruker)
##INSTRUMENT PARAMETERS=KBr Beam splitter; MCT Detector; Multipass cell
##STATE=gas
##SAMPLE DESCRIPTION=MTBE Primary Gas Standard
##PRESSURE=101.3 kPa
##TEMPERATURE=23 C
##SAMPLING PROCEDURE=1 L/min Flow
##RESOLUTION=0.9640
##DATA PROCESSING=Triangular Apodization
##XUNITS=cm-1
##YUNITS=(micromol/mol)-1m-1 (base 10)
##XFACTOR=1.0
##YFACTOR=9.0949E-13
##DELTAX=0.4820
##FIRSTX=575.169
##LASTX=3975.077
##FIRSTY=0
##MAXX=3974.59
##MINX=575.17
##MAXY=.001159
##MINY=-4.03E-07
##NPOINTS=7053
##XYDATA=(X++(Y..Y))
575.17 13872-77814-177028 25028 214134 219584
577.58-90404-147482-6396 21508-136500-290900
580.47-203276-158786-204090-289242-311922-343498
583.37-69914 56146-122924-22242-169990-443956
586.26-217442-168418-364656-258794-110006-24774
589.15 97294 103344-12634 75740 111828-60184
592.04-13348-97826-101092 156798 248754 166446
594.94 111696 77412-70196 10208 136736 72248
597.83 61040 34062-169776-189164-26286 48378
600.72 93304 118904 57410 63338 82166 126862
603.61 133180 34942 54872 96684 42308 26170
606.51 49900 78500 15336-16684 20262 96330
609.40 238292 233146 81788-1678 80236 125460
612.29 124476 101760 26164 125724 186308 83398
615.18 26864 25180 38664 56232 92992 66106
618.08 107124 103300 66132 92560 76882 103076
620.97 59412 78420 127862 114734 94340 110552
623.86 117334 65068 149524 107250 39560 81884
626.76 152546 217906 161400 85720 97982 147572
629.65 153298 136202 169898 147248 92262 134416
632.54 139160 117658 108466 115234 144476 93234
635.43 65034 102608 99672 80468 81254 72198
638.33 141580 191072 144628 151788 208596 170190
641.22 115854 72198 61972 109208 147044 183430
644.11 132296 93262 118876 139796 208878 198140
647.00 74946 62108 113162 100840 98682 149482
649.90 126202 102662 122904 103166 140642 194564
652.79 186436 146012 152144 175832 150130 107684
655.68 106386 135408 123530 133902 168676 159688
658.58 179704 207516 191286 154254 85270 133910
661.47 194272 171356 177146 192820 199526 143470
664.36 123454 161094 208526 190774 109492-15168
667.25-185084-41156 182720 256388 188088 143022
670.15 238122 258598 255286 263216 282452 309944
673.04 341616 415074 475058 436642 337414 368148
675.93 482542 531502 504642 472196 480298 468536
678.82 491610 509630 524044 529530 525974 562752
681.72 603282 604626 618732 602216 603856 605354
684.61 524050 519388 658760 755796 680566 666488
687.50 662328 693662 756406 767698 755232 734760
690.40 820966 843084 809796 821156 909902 951980
693.29 940950 1011434 1084452 1168438 1235448 1302670
696.18 1409248 1558982 1655690 1686980 1814024 2021532
699.07 2216212 2385010 2609154 2881230 3162720 3448980
701.97 3850460 4229540 4576174 5086396 5627344 6174616
704.86 6705642 7373502 8092166 8717516 9498302 10308400
707.75 11157230 12121050 13058340 14077030 15077260 16028050
710.64 17105720 18119070 19103970 20115740 21022180 21935650
713.54 22847930 23616570 24283020 24932000 25515630 25916770
716.43 26256810 26599720 26860140 27000310 27187940 27447330
719.32 27669070 28035190 28785820 29942230 31514410 33622420
722.22 36413590 40031270 44306880 48766980 52842980 55191810
725.11 53828300 48839880 42778560 37813330 34134930 31431780
728.00 29496780 28170700 27468600 27109710 27088620 27426740
730.89 27895260 28425960 28900930 29308210 29544280 29563750
733.79 29420100 29010450 28379220 27618270 26656910 25539780
736.68 24334840 23030550 21691100 20310920 18918460 17524190
739.57 16091590 14771200 13602760 12434350 11270680 10192760
742.46 9228720 8327680 7550772 6877276 6167268 5521262
745.36 5002920 4519136 4081488 3696280 3383988 3137760
748.25 2906940 2697674 2488734 2258912 2118088 2032260
751.14 1900220 1812400 1724310 1641116 1618514 1586774
754.04 1517964 1455346 1427928 1389500 1370696 1365300
756.93 1336782 1300738 1346678 1376212 1348840 1361310
759.82 1308234 1303250 1339326 1322368 1292534 1315326
762.71 1394504 1357156 1318240 1345346 1354124 1326326
765.61 1256262 1257856 1286510 1326944 1314508 1288740
768.50 1322738 1348044 1364320 1364212 1352010 1347306
771.39 1378726 1399710 1346934 1303628 1318444 1335092
774.28 1371456 1328920 1295426 1317086 1301616 1297934
777.18 1331560 1328214 1288482 1263534 1225680 1206332
780.07 1194936 1225554 1244746 1239344 1248512 1246048
782.96 1229988 1219994 1193670 1166136 1197754 1189850
785.86 1155674 1186160 1229920 1222630 1188658 1191246
788.75 1201360 1184950 1195162 1185044 1153514 1178184
791.64 1248100 1273092 1251316 1248998 1205778 1186654
794.53 1208980 1228734 1236288 1191674 1196302 1226590
797.43 1273118 1337828 1307866 1254022 1309754 1325330
800.32 1304762 1319024 1333308 1378642 1422880 1409034
803.21 1401210 1454646 1492688 1511454 1497940 1502468
806.10 1555320 1613332 1604718 1619422 1607824 1626550
809.00 1702954 1693870 1695164 1757494 1818716 1824604
811.89 1852870 1911490 1935572 1947008 1947654 1972748
814.78 2011004 2069760 2136786 2171860 2215240 2237452
817.68 2308760 2396112 2475238 2558718 2637650 2706664
820.57 2829252 3001458 3147508 3295564 3424562 3637452
823.46 3882430 4077418 4314738 4590164 4911180 5261420
826.35 5663404 6129138 6590248 7057266 7600706 8242274
829.25 8979466 9774862 10605350 11507930 12550300 13692620
832.14 14898890 16214320 17714330 19322510 21007470 22787030
835.03 24687030 26744070 28980370 31328940 33843550 36462870
837.92 39192520 42065810 44986770 48020970 51046690 54109720
840.82 57188080 60234660 63350270 66410220 69358220 72179940
843.71 74806820 77234180 79478980 81555580 83422640 85034770
846.60 86527300 87937950 89173250 90287800 91409530 92670120
849.50 94335340 96633020 99685220 103728400 108681000 114764700
852.39 121954300 129630800 137793300 146168700 154220300 160989700
855.28 164803800 163253300 154255700 139314100 122298300 109056400
858.17 100981800 95365630 91709200 89788110 88807050 88748620
861.07 89748300 91156660 92607460 93810230 94740850 95116750
863.96 94817230 93787700 92137160 89753070 86519780 82900100
866.85 78965160 74688700 70141340 65444960 60710660 55959790
869.74 51281320 46721060 42403770 38335330 34467510 30895020
872.64 27626140 24611010 21883230 19392870 17135460 15140220
875.53 13400940 11818540 10442290 9261690 8172578 7255522
878.42 6439118 5729110 5155072 4633694 4148284 3716348
881.31 3387428 3126338 2835928 2642994 2504264 2330224
884.21 2181020 2073750 1976244 1880734 1823014 1753326
887.10 1723612 1657870 1573554 1573272 1553352 1535370
889.99 1543220 1528120 1513844 1512240 1519852 1485708
892.89 1451040 1476948 1519968 1508884 1478640 1488200
895.78 1485302 1491900 1498364 1457050 1437788 1451902
898.67 1452820 1452082 1446814 1491860 1567508 1579888
901.56 1610672 1657060 1698428 1780688 1832860 1852294
904.46 1929818 2003810 2015546 2026646 1988658 1926528
907.35 1869540 1799788 1741408 1658470 1618414 1572370
910.24 1511744 1530830 1544600 1560740 1559504 1539046
913.13 1558380 1567140 1573916 1606350 1611730 1629366
916.03 1632244 1607882 1632072 1638136 1616176 1619898
918.92 1619604 1593814 1578404 1566302 1513624 1471202
921.81 1479092 1461108 1445508 1426358 1406206 1381690
924.71 1364158 1346874 1335976 1340792 1319418 1310204
927.60 1308432 1290666 1274782 1293682 1291182 1282758
930.49 1285200 1274094 1264728 1245162 1236688 1269736
933.38 1269950 1247926 1239800 1232060 1228898 1209568
936.28 1225844 1232072 1181496 1185642 1224340 1225186
939.17 1215112 1214730 1204006 1193548 1206808 1219260
942.06 1209862 1250382 1296150 1288866 1269244 1266576
944.95 1294552 1300920 1286100 1289988 1282440 1261270
947.85 1277508 1296214 1284526 1279360 1284950 1287644
950.74 1283250 1313566 1339300 1324950 1321444 1323094
953.63 1337734 1333044 1349532 1398200 1397958 1390542
956.53 1394636 1399722 1414834 1416514 1407544 1421802
959.42 1471312 1490870 1488310 1507496 1531294 1527986
962.31 1532636 1574994 1602152 1604260 1628130 1658466
965.20 1660160 1678618 1721394 1784950 1816482 1836146
968.10 1855592 1856892 1879682 1898976 1936954 2006208
970.99 2064102 2101868 2126812 2163118 2189492 2220502
973.88 2286946 2338568 2375328 2426070 2486614 2562464
976.77 2606790 2612718 2660964 2718716 2752148 2807046
979.67 2896694 2966428 3036058 3096762 3129264 3166072
982.56 3214492 3266654 3297122 3339794 3418882 3506414
985.45 3559388 3607422 3669966 3730996 3818010 3878608
988.35 3931888 4034722 4110496 4194750 4288100 4383752
991.24 4497526 4588752 4686824 4812806 4935188 5060418
994.13 5188466 5320514 5504002 5705222 5903646 6131224
997.02 6373608 6612900 6871594 7167584 7491678 7839630
999.92 8232704 8648504 9059200 9503644 9985090 10510930
1002.81 11080880 11703200 12369340 13043460 13751890 14505720
1005.70 15285200 16148610 17062360 18015900 19045190 20087060
1008.59 21129020 22198930 23349460 24513840 25610320 26726970
1011.49 27836100 28930720 30007270 31092300 32111590 33050470
1014.38 33972880 34837940 35601110 36275800 36883510 37374190
1017.27 37694120 37912290 37954180 37782600 37448980 37201300
1020.17 37137140 37387550 38048700 39272840 40692060 42659330
1023.06 45764280 49500430 49929480 44995570 40167040 36882720
1025.95 34589980 33429290 32751990 32500220 32480600 32619860
1028.84 32757860 32854040 32861510 32795450 32584800 32206310
1031.74 31643270 30932170 30075600 29103310 27981210 26833630
1034.63 25650130 24384510 23082850 21790150 20546400 19304140
1037.52 18088570 16945850 15880880 14884220 13947620 13123230
1040.41 12340760 11677140 11101430 10564920 10129970 9756270
1043.31 9455280 9215384 8984994 8785458 8675310 8601418
1046.20 8517500 8492336 8498586 8547750 8628212 8691956
1049.09 8790170 8959096 9156244 9369612 9595956 9841760
1051.99 10084630 10369360 10693860 11021000 11390880 11775560
1054.88 12167650 12570770 13035420 13566050 14100110 14656340
1057.77 15248750 15908490 16650950 17477330 18334630 19234950
1060.66 20286130 21500020 22811690 24101940 25460670 26975110
1063.56 28564610 30264290 32107110 34121240 36232750 38556440
1066.45 41129400 43992210 47429270 50913040 54291910 58088800
1069.34 62279140 66884240 71903980 77282420 83035780 89189650
1072.23 95904040 103127000 110720900 118781800 127422600 136637400
1075.13 146427600 156973200 168335600 180547300 193728600 206674200
1078.02 219006500 232468900 246882000 261337400 275971700 291099100
1080.91 306670100 322993100 339019300 352793700 365832500 379631200
1083.81 393650700 408082700 422012500 435266600 448877100 463017600
1086.70 475499600 486400500 498484300 513473500 528029000 533035400
1089.59 535514800 542182600 548717600 554411100 559700100 565463300
1092.48 572375400 581294900 592139100 604212700 616284800 627631000
1095.38 639177300 651734500 659696700 659144500 650736400 636802200
1098.27 624008800 611101000 592107700 574317600 559056700 536927900
1101.16 517739900 509397800 504466800 500671200 500499900 493005200
1104.05 477962000 467267400 457603000 445618300 431165200 415010600
1106.95 397389700 378082800 357925100 337166000 315792600 294516500
1109.84 272472000 249927500 228644800 208764500 190023600 172283400
1112.73 155892200 140984000 127317500 115080000 104344300 94773800
1115.63 85890940 77918380 71139500 65302100 60179160 55677540
1118.52 51683570 48208140 45235220 42637290 40268660 38064940
1121.41 36090540 34392680 32899480 31562370 30357010 29234960
1124.30 28266850 27402260 26603980 25841390 25123020 24514960
1127.20 23973260 23471080 22983680 22547070 22139270 21740710
1130.09 21393880 21082050 20818250 20613330 20450400 20283230
1132.98 20145790 20100940 20077160 20029870 19954080 19853290
1135.87 19790100 19831050 19856150 19901630 20005650 20105650
1138.77 20260850 20430840 20604950 20788190 20970570 21174300
1141.66 21405410 21680250 21937610 22151030 22365320 22559280
1144.55 22750140 22959700 23153120 23332590 23525840 23748040
1147.45 24014270 24299340 24624790 24940960 25194310 25509800
1150.34 25889240 26333950 26873890 27471320 28087640 28700820
1153.23 29355770 30053100 30726830 31372980 31928260 32244540
1156.12 32350980 32363990 32332570 32357220 32423100 32470880
1159.02 32599680 32784240 33015330 33287590 33573420 33924040
1161.91 34282370 34570260 34905620 35350570 35877190 36402320
1164.80 36833720 37247140 37690480 38098050 38550420 39029830
1167.69 39473240 39956980 40255450 40400380 40651080 41000990
1170.59 41415200 41865920 42391500 43006210 43697000 44514040
1173.48 45317660 46072580 46917220 47819270 48857930 50005140
1176.37 51222810 52567360 53978200 55499630 57136040 58782470
1179.26 60403870 62018030 63624560 65197180 66705230 68191430
1182.16 69786370 71526360 73487730 75756260 78357240 81363500
1185.05 84816270 88698900 93090060 97946090 103236400 108975700
1187.94 115218800 121941200 129096600 136728300 144863100 153579400
1190.84 162735400 172332500 182491400 193185700 204382300 215967600
1193.73 227895200 240023600 252063600 264027100 275698200 286991700
1196.62 298509300 310231700 321809200 333185200 344212500 354754200
1199.51 364764700 374233300 383307700 391914600 400101700 407817100
1202.41 415569900 423377800 431079400 439710100 450146100 462599800
1205.30 477161900 494003700 514022200 537969100 564365700 591499100
1208.19 617207000 639810100 659475200 667347500 653775800 613264100
1211.08 555260500 513004000 496429600 493893000 498843400 506550000
1213.98 514856900 523036200 532328900 542270500 550852900 557071900
1216.87 560923100 562400400 560918800 555404100 549901300 539895400
1219.76 517727900 494192600 472236600 449812400 427824200 403255800
1222.66 378044000 354369200 332446900 312285300 293945600 277435900
1225.55 262647400 249739800 238532000 228571300 219684200 211715000
1228.44 204750700 198888500 193917200 189751300 186237200 183386000
1231.33 181296000 179809200 178971100 178706400 178789500 179327000
1234.23 180346300 180412200 179217200 177628400 175249600 172564100
1237.12 169740800 166380200 162629300 158542700 154201600 149660500
1240.01 145240800 141255200 137697100 134649000 132139300 130055700
1242.90 128464600 127304000 125813100 124136700 122991900 122178200
1245.80 121586400 121093300 120648200 120293000 120084300 119978000
1248.69 119958800 120043600 119768800 119255800 118935200 118762600
1251.58 118567000 118310000 118088100 117849100 117541000 117028400
1254.48 116236700 115355700 114465000 113416600 112249800 111037400
1257.37 109772600 108425100 107197600 106132900 105117400 104305500
1260.26 103800800 103613900 103731600 104138200 104773200 105527700
1263.15 106343400 107068400 107501200 107524900 106972900 105786900
1266.05 103676600 100489800 96997400 93057920 88142610 82934580
1268.94 78427050 74821100 71646280 68815970 66398150 64243870
1271.83 62317280 60455200 58570410 56829640 55159750 53537350
1274.72 51994240 50421010 48642350 47100430 45689120 43637570
1277.62 41450940 39473140 37527850 35690760 33959130 32337010
1280.51 30782130 29309950 27900630 26515140 25145230 23869690
1283.40 22695140 21594470 20526640 19463230 18449500 17458160
1286.30 16547990 15718200 14914360 14170650 13481520 12807680
1289.19 12183760 11595220 11059470 10579100 10112150 9678726
1292.08 9256668 8877116 8546868 8217322 7890068 7605492
1294.97 7347766 7085290 6863268 6638638 6399854 6200688
1297.87 6012150 5824966 5662044 5499868 5343656 5217510
1300.76 5100284 4981780 4880854 4773694 4688786 4607710
1303.65 4502468 4417326 4349464 4274658 4189884 4128522
1306.54 4089402 4039560 3985180 3948548 3907650 3864248
1309.44 3840388 3802562 3767150 3739884 3701382 3684458
1312.33 3676100 3653588 3612688 3586810 3587366 3576070
1315.22 3553838 3525584 3488648 3465404 3457590 3439312
1318.12 3429064 3410610 3397098 3390404 3386234 3409366
1321.01 3397288 3371828 3377816 3396176 3401102 3411376
1323.90 3446880 3468810 3470332 3475634 3502740 3512454
1326.79 3510642 3523270 3553244 3596126 3636704 3687134
1329.69 3750108 3797418 3838614 3936734 4026086 4094408
1332.58 4217040 4339286 4462302 4611278 4799418 4999174
1335.47 5203524 5462830 5760810 6072246 6415122 6840654
1338.36 7319334 7798526 8376842 9058964 9744614 10531000
1341.26 11466560 12501380 13663870 14976760 16432630 18069790
1344.15 19915840 21962010 24240140 26774130 29573750 32685490
1347.04 36085700 39807870 43857880 48256060 53030360 58145230
1349.94 63628620 69491300 75733030 82255000 89056250 96155470
1352.83 103449200 110941800 118548200 126202800 133824500 141241000
1355.72 148425900 155252500 161640000 167418700 172506700 177013900
1358.61 180749600 183640600 185871200 187579900 188969400 190373300
1361.51 192304500 195279900 200080000 207424100 218104000 233132700
1364.40 253015100 276734000 302060700 326062000 346233200 362084600
1367.29 374851800 383336500 381376400 367108600 346810000 327978400
1370.18 309983300 286836200 260951300 239800600 225908500 218100100
1373.08 215001000 215108400 217361400 220909400 224858900 228852400
1375.97 232383900 234942600 236417900 236591400 235354800 232886400
1378.86 229086700 224101200 218079100 211047600 203206800 194721100
1381.76 185698000 176287700 166678900 156904800 147095800 137540000
1384.65 128387000 119872800 112411900 106511000 102791400 101950000
1387.54 104700500 111624000 121511600 134414100 151060400 164096500
1390.43 159694000 134757200 103728700 79755350 65148370 57515530
1393.33 54293540 54005380 55269910 57559070 60604110 63737500
1396.22 66727020 69401900 71572380 73005350 73702000 73677000
1399.11 72671020 70898990 68550090 65609140 62210200 58487310
1402.00 54504680 50390540 46291410 42264550 38441450 34859250
1404.90 31430950 28242390 25400890 22884060 20625830 18654060
1407.79 16995570 15563120 14347890 13314570 12407490 11678240
1410.68 11103070 10599280 10195140 9878782 9620242 9431340
1413.58 9296850 9200162 9151008 9142728 9161370 9151942
1416.47 9210642 9311838 9358876 9429644 9667418 10029450
1419.36 9962706 9785594 9844302 9935452 10059130 10157150
1422.25 10261640 10363710 10516130 10621220 10672800 10788080
1425.15 10907420 11007050 11117510 11231500 11343500 11453740
1428.04 11573040 11678130 11845440 12043910 12134490 12249810
1430.93 12414160 12561980 12702860 12858050 13008040 13163340
1433.82 13384760 13633580 13901300 14193800 14708940 15297580
1436.72 15440240 15571020 15939710 16350730 16857120 17497680
1439.61 18140880 18610290 18980000 19402860 19980990 20716870
1442.50 21548610 22434980 23376990 24351180 25356580 26405870
1445.40 27494270 28597220 29699220 30856020 32060220 33122210
1448.29 34152980 35258500 36388400 37540960 38679820 39808230
1451.18 40957750 42103960 43242400 44416810 45606690 46821180
1454.07 48064900 49324060 50602010 51976870 53817640 55545240
1456.97 56830160 58670440 60937530 63307080 65960620 68851000
1459.86 71895870 74993850 78112100 81174350 84006380 86469340
1462.75 88523600 90178220 91452650 92468920 92999550 93107670
1465.64 93201990 93147770 92963540 92851490 92822590 92936110
1468.54 93237590 93789170 94717500 96001030 97629710 99735340
1471.43 102018700 103829600 105390800 106581800 107083300 107408000
1474.32 106961100 105653900 104431100 103562900 103011000 102357300
1477.21 100890000 98903490 97307680 95941770 94481040 93082190
1480.11 91780870 90519660 89308270 88157420 87108470 86121620
1483.00 85245830 84482800 83767620 83128000 82510020 81884370
1485.89 81133170 79914860 77869660 74393790 69912900 65637380
1488.79 61789760 58341820 55415270 53017320 50830110 48857050
1491.68 47186570 45645500 44243180 42917820 41605500 40324940
1494.57 39061030 37821130 36803270 35431320 33734030 32272040
1497.46 30832140 29522140 28166730 26607450 25125280 23754410
1500.36 22432850 21156070 19914600 18719130 17580690 16524330
1503.25 15526180 14610040 13760300 13247320 12782290 11786100
1506.14 11267150 10923510 9983872 9313056 8913260 8456782
1509.03 8111464 7784158 7432104 7145858 6889560 6777738
1511.93 6649460 6348296 6136130 6001966 5881552 5823228
1514.82 5717472 5590892 5563234 5541388 5536570 5445198
1517.71 5234110 5148612 5096786 5116046 5194900 5199910
1520.61 5505520 5386224 4991926 5052972 4979946 4824776
1523.50 4777870 4758462 4849800 4986112 4860476 4709946
1526.39 4731386 4769634 4729354 4719468 4707364 4651772
1529.28 4654638 4671578 4687082 4721656 4742784 4730070
1532.18 4786576 4886562 5004418 4983716 4819312 4793812
1535.07 4812952 4825572 4833506 4839174 4898370 4955244
1537.96 5161552 5685856 5538428 5374770 5549846 5228158
1540.85 5115874 5434806 5468090 5139338 5084532 5080564
1543.75 5043926 5159184 5263634 5123112 5025180 5035856
1546.64 5043304 5082994 5112618 5139472 5155112 5182088
1549.53 5230038 5230452 5190372 5184446 5204460 5213188
1552.43 5250488 5276776 5468326 5698504 5506858 5374802
1555.32 5394822 5431766 5518238 5792142 5976664 6287588
1558.21 6440882 6081094 6279892 6686104 6416984 6068886
1561.10 6110698 6185710 6271644 6345420 6446204 6535782
1564.00 6698190 6844964 6875320 6955190 7066612 7166330
1566.89 7263502 7348472 7470108 7598670 7792756 7977948
1569.78 7858546 7767408 7808666 7845840 7874404 7897040
1572.67 7930416 7963846 8001068 8102684 8183852 8469716
1575.57 9118154 9028268 8696622 8803658 8907210 9013776
1578.46 9076116 9092840 9045070 8859954 8505492 8054254
1581.35 7586856 7237550 7038710 6931272 6867820 6846794
1584.25 6863062 6865164 6861844 6873798 6869850 6837718
1587.14 6767358 6681306 6564440 6405474 6231464 6031280
1590.03 5797862 5541368 5251748 4961280 4684966 4402436
1592.92 4140428 3917368 3710808 3489826 3266258 3088852
1595.82 2947086 2801268 2663602 2558410 2465188 2375188
1598.71 2301342 2246862 2191872 2138618 2106924 2065198
1601.60 2019826 2012006 2005842 1981256 1954632 1934044
1604.49 1922370 1930900 1915520 1887580 1891844 1886864
1607.39 1870242 1864678 1877658 1914138 1895068 1870588
1610.28 1888552 1907210 1940468 1962268 1966996 1990678
1613.17 1993722 2012552 2051180 2087116 2125808 2314354
1616.07 2839514 2730666 2251002 2194810 2206406 2238776
1618.96 2255922 2265916 2294834 2324480 2354416 2373356
1621.85 2401296 2455328 2637272 2703488 2563582 2525430
1624.74 2529788 2561614 2613584 2662214 2714352 2836452
1627.64 2867786 2825280 2848052 2860932 2851588 2832854
1630.53 2822538 2803752 2768648 2746330 2712866 2721362
1633.42 2711508 2757758 2914786 3205858 3184950 2766488
1636.31 2650630 2728598 2730064 2646618 2599962 2592902
1639.21 2585970 2588590 2568122 2543054 2550010 2546158
1642.10 2513694 2457576 2422980 2406818 2394872 2354478
1644.99 2513624 2768730 2483902 2282382 2313790 2232204
1647.89 2195460 2090038 2005672 1976436 1933432 1947834
1650.78 1952616 2114428 2643638 2783120 2807352 2443160
1653.67 2068788 2080516 1825722 1714004 1675828 1654184
1656.56 1635492 1621792 1605918 1577900 1556762 1552588
1659.46 1540814 1521186 1493744 1503500 1506036 1602478
1662.35 1703962 1563264 1464244 1439072 1414296 1418150
1665.24 1417184 1423806 1407276 1423954 1444492 1473774
1668.13 1514014 1723650 1741432 1522880 1471900 1515750
1671.03 1585082 1521358 1456758 1458150 1463010 1492022
1673.92 1520584 1769414 1958848 1722232 1558796 1570166
1676.81 1564070 1576774 1589650 1613260 1645274 1698430
1679.71 1749170 1776450 1759196 1777536 1828736 1963330
1682.60 2146668 2233432 2287626 2816600 2992368 2408950
1685.49 2258208 2303004 2342454 2401282 2476718 2580968
1688.38 2621686 2683970 2798340 2879594 2937270 3030962
1691.28 3124356 3215014 3314168 3409150 3520520 3631028
1694.17 3761200 4011104 4697554 4843468 4283350 4216660
1697.06 4324628 4365420 4463892 4568536 4906054 5313912
1699.95 5388668 5224834 4948416 4875852 4923514 4972662
1702.85 5014458 5083578 5267718 5303682 5264116 5380354
1705.74 5549808 5568290 5545370 5578358 5589038 5587898
1708.63 5557004 5490238 5362532 5171216 4971674 4756724
1711.53 4536994 4421540 4389652 4398044 4469544 4471482
1714.42 4600712 4614438 4455742 4401804 4543800 4942974
1717.31 4637544 4257862 4192548 3866190 3647856 3499186
1720.20 3327156 3161688 2993122 2838528 2678760 2555762
1723.10 2440192 2267064 2131766 2029862 1935638 1848586
1725.99 1797082 1756258 1686526 1631954 1604682 1582354
1728.88 1578096 1618590 1589790 1513452 1513272 1525438
1731.77 1519508 1588330 1939278 1890734 1878140 2051328
1734.67 1667110 1456986 1452854 1443654 1468992 1477512
1737.56 1469308 1481466 1503842 1666978 1749760 1548410
1740.45 1467806 1470994 1457590 1473490 1520414 1541786
1743.34 1522964 1511244 1488238 1480398 1483864 1472744
1746.24 1492704 1530150 1507092 1524128 1589950 1574972
1749.13 1525966 1491128 1521542 1730288 1741022 1474864
1752.02 1394524 1404102 1392802 1378476 1367712 1363964
1754.92 1350966 1355838 1447570 1527638 1422602 1341312
1757.81 1349620 1348198 1330756 1313002 1302966 1286022
1760.70 1326264 1472372 1423258 1271694 1230456 1200552
1763.59 1190750 1171744 1150312 1129926 1131442 1141526
1766.49 1133314 1146496 1288948 1267072 1107536 1090412
1769.38 1090220 1105112 1189026 1283542 1198032 1346828
1772.27 1547590 1274116 1087292 1085916 1069622 1083666
1775.16 1091650 1046808 1013550 1001024 980930 974148
1778.06 974910 992278 986188 990754 1045020 1033838
1780.95 997554 1005022 1012668 1009650 1023626 1046794
1783.84 1070530 1161172 1145684 1084058 1102154 1119662
1786.74 1155276 1169340 1176210 1224362 1262166 1282456
1789.63 1319698 1414292 1500540 1474530 1560266 1826682
1792.52 1779996 1619734 1656576 1705466 1758020 1807838
1795.41 1874560 1930352 1983836 2063180 2145582 2225934
1798.31 2316124 2462996 2574734 2590834 2651868 2779350
1801.20 2851486 2931848 3034924 3069462 3128742 3216024
1804.09 3289214 3364228 3446372 3535002 3627066 3697276
1806.98 3785322 3873062 3939622 4004710 4091824 4187274
1809.88 4303466 4393848 4429450 4494522 4553158 4587312
1812.77 4651640 4701788 4715700 4726290 4728248 4725064
1815.66 4730080 4746308 4778068 4797890 4794560 4798030
1818.56 4799056 4797112 4812206 4823528 4832372 4828864
1821.45 4789936 4762676 4724906 4664546 4619338 4532042
1824.34 4483572 4397478 4170706 4023072 3944640 3861014
1827.23 3800052 3727982 3697672 3654564 3610924 3606078
1830.13 3436210 3263832 3151574 3055800 2969420 2860458
1833.02 2750160 2626560 2512454 2389208 2269884 2157410
1835.91 2041490 1943860 1858656 1757058 1670122 1610386
1838.80 1557660 1497358 1429986 1381096 1340962 1312226
1841.70 1283158 1255594 1231212 1306846 1502624 1394152
1844.59 1183836 1163270 1144768 1133302 1111468 1117880
1847.48 1125456 1098566 1087494 1072966 1063316 1060174
1850.38 1068194 1051872 1035188 1037050 1029320 1012720
1853.27 999398 1002430 995912 980972 979296 983280
1856.16 999282 1004500 983214 982210 996112 1010194
1859.05 994150 981732 990372 986550 976478 992530
1861.95 1009612 1013332 1016274 1010992 1033314 1044486
1864.84 1025042 1032222 1059212 1070484 1092324 1120990
1867.73 1104168 1117456 1215270 1175208 1087106 1101654
1870.62 1088726 1088312 1082806 1068508 1083204 1086082
1873.52 1092744 1100008 1094816 1105682 1118250 1118042
1876.41 1135210 1161014 1174532 1201140 1216432 1223432
1879.30 1225464 1191414 1159894 1142258 1129638 1124182
1882.20 1127208 1145616 1172160 1182172 1206032 1226628
1885.09 1222746 1237074 1234776 1240434 1268970 1278840
1887.98 1272848 1293734 1335644 1298140 1248976 1250914
1890.87 1260250 1255158 1241666 1252758 1259660 1275126
1893.77 1281766 1310184 1352568 1341018 1322902 1323194
1896.66 1322786 1312298 1297074 1289576 1304006 1315278
1899.55 1322296 1328302 1334778 1352314 1370630 1384038
1902.44 1384716 1399962 1442808 1475300 1481208 1509954
1905.34 1549224 1581530 1604798 1610386 1611184 1598904
1908.23 1612074 1630294 1645288 1668828 1686086 1719856
1911.12 1748282 1781270 1825850 1874592 1938838 1991078
1914.02 2028084 2072534 2142800 2226668 2302502 2362184
1916.91 2446908 2611508 2661200 2665230 2756128 2842384
1919.80 2931448 3023302 3127316 3241054 3362172 3485458
1922.69 3612928 3711662 3819970 3942868 4064468 4191390
1925.59 4326980 4470334 4616084 4766166 4910466 5076780
1928.48 5243292 5396458 5566128 5753100 5944926 6130342
1931.37 6323734 6522618 6723286 6912524 7041616 7127960
1934.26 7205788 7293218 7398074 7515196 7659366 7810208
1937.16 7956862 8099314 8233616 8363606 8487810 8634162
1940.05 8769128 8882206 8987920 9096958 9202554 9222300
1942.94 9218698 9238904 9249630 9219766 9153048 9092966
1945.84 9041200 8998482 8953708 8915224 8885134 8853752
1948.73 8825146 8798288 8756876 8713232 8640332 8505186
1951.62 8359580 8225814 8106070 7956764 7717450 7416326
1954.51 7148020 6939312 6776040 6617294 6451138 6310760
1957.41 6174852 6001410 5787294 5587420 5394612 5179018
1960.30 4952268 4720204 4471592 4237232 3995816 3739532
1963.19 3501846 3263098 3024548 2793394 2575096 2387338
1966.08 2203604 2050710 1899572 1750956 1655906 1552502
1968.98 1442490 1347682 1276350 1209844 1143896 1077760
1971.87 1030112 995752 947460 926460 899778 869364
1974.76 853086 846196 832604 814040 804572 771492
1977.66 744616 740970 726260 716600 730544 727686
1980.55 712232 706584 692634 668026 669538 676284
1983.44 663488 652084 651936 651332 646188 649802
1986.33 642532 636622 661906 660876 642574 645772
1989.23 648736 645044 643720 646624 673532 683450
1992.12 655644 648524 633680 615026 622516 620664
1995.01 617556 632090 638586 636370 630108 609734
1997.90 606316 629178 643740 647468 638536 633546
2000.80 639020 651038 652190 641410 633928 637938
2003.69 639466 638026 633112 635976 655202 644458
2006.58 635078 651922 649766 654978 660108 663600
2009.48 681092 683224 677354 676002 662000 664664
2012.37 692732 689546 692140 702342 695678 698068
2015.26 702016 715270 729624 726070 734572 745576
2018.15 730888 719752 739426 750908 756410 783690
2021.05 817736 823474 818644 831124 846384 844026
2023.94 853574 878452 901894 916892 917926 923674
2026.83 930970 941598 975510 1005552 1000298 997866
2029.72 1019884 1056512 1104868 1138762 1155044 1195706
2032.62 1229764 1257136 1295906 1350352 1412098 1447754
2035.51 1490216 1550320 1618660 1673494 1705128 1752530
2038.40 1802506 1858980 1933536 2007050 2074354 2157782
2041.29 2244102 2314670 2400352 2485174 2579548 2679860
2044.19 2778658 2875302 2940514 3018420 3115672 3208146
2047.08 3293634 3375502 3455514 3540106 3645530 3755734
2049.97 3846578 3908862 3979478 4049722 4106086 4183508
2052.87 4260036 4324158 4392552 4456656 4533228 4605518
2055.76 4686862 4766254 4832522 4942086 5013592 5062110
2058.65 5126162 5199946 5248694 5260486 5271250 5226620
2061.54 5145802 5005720 4807044 4633986 4500726 4423970
2064.44 4390500 4377200 4375136 4378982 4400978 4410522
2067.33 4400216 4394790 4378288 4286422 4167950 4054180
2070.22 3924706 3794054 3643394 3485670 3337860 3197304
2073.11 3016488 2846130 2709118 2585570 2501794 2410092
2076.01 2329874 2292576 2273564 2203752 2137768 2116008
2078.90 2089688 2086410 2095370 2099956 2116244 2187562
2081.79 2188208 2139844 2156082 2171010 2183092 2199794
2084.69 2218406 2268444 2373804 2384788 2355440 2410874
2087.58 2477530 2549348 2638848 2739544 2839914 3000712
2090.47 3036558 2989120 2999140 2976250 2938980 2891762
2093.36 2825064 2814426 2841678 2720222 2612604 2577296
2096.26 2551872 2551896 2569736 2579162 2688362 2804334
2099.15 2720826 2676412 2703738 2729590 2754610 2775096
2102.04 2789748 2901976 2903332 2755684 2694976 2670206
2104.93 2654950 2636522 2612722 2654596 2758752 2647292
2107.83 2512416 2480146 2480620 2477340 2480750 2500106
2110.72 2630868 2717284 2586014 2550880 2551372 2530640
2113.61 2531654 2496286 2509572 2611240 2489748 2352864
2116.51 2327348 2298456 2297630 2315306 2372758 2544688
2119.40 2581260 2411756 2354644 2344758 2317094 2301456
2122.29 2287022 2360642 2431368 2258456 2092550 2046490
2125.18 2009300 1978382 1926484 1963492 2057640 1945746
2128.08 1825318 1792292 1756408 1740624 1702812 1687970
2130.97 1743686 1691488 1566932 1527030 1498940 1482894
2133.86 1468160 1459642 1500756 1485272 1411458 1383776
2136.75 1363244 1363064 1366746 1362496 1390274 1401864
2139.65 1379762 1379038 1389440 1405110 1416266 1441350
2142.54 1477364 1509796 1531036 1559480 1606152 1661788
2145.43 1732972 1801350 1875788 1928566 1961506 2013768
2148.33 2071068 2145748 2214620 2298704 2439554 2512812
2151.22 2554044 2660176 2759732 2880550 2991868 3158454
2154.11 3394052 3473766 3541108 3702036 3863482 4021792
2157.00 4182796 4469314 4690658 4742484 4880340 5063368
2159.90 5277728 5474466 5730486 6117062 6274772 6351334
2162.79 6562198 6771296 7006546 7222848 7562510 7878402
2165.68 7938368 8079962 8293680 8513194 8734658 8992118
2168.57 9378220 9505130 9532954 9729672 9884174 10019060
2171.47 10176830 10506540 10715840 10622630 10661850 10794820
2174.36 10951110 11132330 11408880 11694670 11670790 11639750
2177.25 11686700 11698750 11696680 11749370 11906160 11777390
2180.15 11536770 11423180 11311610 11227120 11106150 10948910
2183.04 10564870 10156970 9951530 9771206 9619168 9498806
2185.93 9460598 9266210 8931582 8704426 8482654 8197468
2188.82 7882016 7665336 7328936 6859868 6509240 6156742
2191.72 5788192 5443552 5167098 4822168 4406406 4090642
2194.61 3832634 3598358 3414582 3314030 3102430 2857884
2197.50 2682894 2529274 2396328 2332260 2276656 2089220
2200.39 1947492 1861870 1778238 1709048 1677204 1617574
2203.29 1492042 1428184 1383108 1332968 1311944 1317958
2206.18 1281324 1203900 1165026 1156746 1147124 1165846
2209.07 1182332 1128134 1086616 1081918 1078772 1095552
2211.97 1125128 1113718 1092504 1086536 1096382 1122458
2214.86 1147564 1146280 1149742 1174354 1174896 1187492
2217.75 1217552 1241582 1261752 1287496 1305974 1319656
2220.64 1349278 1372124 1362742 1345588 1336442 1321818
2223.54 1317764 1341670 1361704 1374562 1381790 1367698
2226.43 1348378 1307438 1267620 1241684 1227928 1250130
2229.32 1254610 1254056 1281138 1305824 1324462 1316236
2232.21 1310310 1316866 1301102 1288134 1277248 1252304
2235.11 1227086 1210140 1185604 1171470 1156340 1123654
2238.00 1104544 1087236 1063800 1040794 1042584 1042648
2240.89 1031254 1040742 1054062 1072048 1083392 1083210
2243.79 1087102 1102612 1117760 1134734 1141676 1139150
2246.68 1131934 1119460 1117900 1149534 1177562 1179504
2249.57 1187008 1197956 1228644 1265424 1291170 1328966
2252.46 1369314 1384282 1393710 1437424 1503420 1527902
2255.36 1547832 1581594 1608832 1631722 1658668 1683068
2258.25 1701862 1723740 1758224 1812450 1845380 1861634
2261.14 1885444 1912812 1935878 1971574 2022012 2075564
2264.03 2111916 2161528 2239332 2332242 2406222 2469332
2266.93 2534928 2578936 2606840 2650496 2675752 2654054
2269.82 2623920 2601314 2566394 2543738 2559728 2581748
2272.71 2614578 2631308 2684478 2751124 2791524 2829098
2275.61 2856762 2868894 2869690 2869468 2851808 2833792
2278.50 2816532 2799852 2779654 2774922 2768684 2756500
2281.39 2753078 2742212 2740562 2736336 2720256 2701218
2284.28 2668936 2627626 2598234 2566076 2524408 2475132
2287.18 2435136 2395942 2350072 2328418 2314012 2292298
2290.07 2261920 2247532 2227434 2211112 2203718 2189540
2292.96 2195322 2180640 2156568 2151628 2128020 2080092
2295.85 2046366 2010084 1959976 1927852 1893484 1852662
2298.75 1832696 1809772 1767352 1746710 1732992 1724760
2301.64 1706540 1672624 1665234 1647156 1615140 1575000
2304.53 1557822 1539026 1500992 1459646 1402228 1380742
2307.43 1366770 1339930 1274402 1237280 1245006 1234648
2310.32 1184300 1173076 1200870 1194040 1121364 1072314
2313.21 1112534 1138950 1087728 991492 997184 1043646
2316.10 991110 871662 883712 942516 917986 813192
2319.00 797560 878922 856776 712720 701068 812720
2321.89 792570 628166 625758 796646 761910 572200
2324.78 596882 785682 754928 540238 569388 767282
2327.67 674576 474100 603270 816114 657668 473128
2330.57 675354 841214 624748 530220 794920 848444
2333.46 590970 645280 938194 854530 616430 792376
2336.35 1020770 825080 728588 1020796 1053610 815858
2339.24 938936 1173024 1040266 975932 1238190 1303410
2342.14 1146510 1268574 1429896 1326592 1330496 1518212
2345.03 1528618 1466940 1596894 1701176 1693456 1758034
2347.92 1843868 1877484 1891758 1900500 1944878 1972108
2350.82 1920894 1955530 2008282 1904938 1958582 2091900
2353.71 1954368 1983250 2155624 1986142 1983966 2175440
2356.60 1971776 1982650 2212980 1985266 2050910 2249992
2359.49 1990700 2149402 2283908 2013064 2217572 2232150
2362.39 2046092 2280250 2131208 2070554 2254162 2034612
2365.28 2150992 2196152 2045402 2233440 2112886 2133910
2368.17 2196708 2083328 2220264 2142914 2170568 2179734
2371.06 2101904 2160074 2094676 2138540 2100112 2074288
2373.96 2069412 2039344 2048018 2024822 2032600 1988102
2376.85 1970178 1946864 1936728 1938568 1949378 1936144
2379.74 1912506 1888990 1869208 1866182 1856246 1846484
2382.64 1844626 1858180 1850680 1834114 1837030 1847908
2385.53 1843644 1845238 1842608 1822492 1796076 1773806
2388.42 1754592 1725088 1695922 1677420 1652182 1631572
2391.31 1609640 1591626 1571760 1547608 1529234 1519174
2394.21 1529712 1505946 1476324 1470174 1468826 1450528
2397.10 1433646 1443924 1434426 1420098 1420064 1415342
2399.99 1397052 1389866 1392264 1373154 1369740 1369282
2402.88 1356826 1359462 1358780 1351076 1363910 1376168
2405.78 1371932 1388506 1397286 1378838 1357560 1374028
2408.67 1402404 1408164 1396378 1404676 1433496 1445510
2411.56 1444720 1445422 1456372 1460918 1468734 1475730
2414.46 1475970 1475400 1458652 1448122 1466132 1506010
2417.35 1505584 1475720 1460848 1439876 1414628 1394404
2420.24 1385626 1398540 1394114 1375334 1362768 1348430
2423.13 1343564 1339996 1332340 1309698 1292058 1265230
2426.03 1231638 1200382 1164868 1146648 1101064 1031598
2428.92 995228 970400 948362 906876 844414 806562
2431.81 787378 774126 745504 712128 678714 662620
2434.70 657940 626790 610434 617678 608960 589216
2437.60 573010 554528 553594 560000 560364 552688
2440.49 534580 529982 530532 506502 495318 502372
2443.38 479848 468760 484034 477214 468870 471062
2446.28 458572 466076 481746 476968 465296 466680
2449.17 483940 468726 456184 459916 463988 479176
2452.06 483572 492680 504086 508788 512534 517938
2454.95 544012 570190 565808 580224 586610 591024
2457.85 616956 626548 636630 654438 649672 661398
2460.74 692114 683952 692656 702894 714666 725836
2463.63 737680 758872 763806 755482 761874 781422
2466.52 812900 822418 812544 822876 822832 833152
2469.42 858096 878950 890120 878130 875906 886590
2472.31 895364 906670 918044 913234 930870 966628
2475.20 964356 971268 971220 948694 933480 926886
2478.10 929324 940272 937924 916326 904848 916546
2480.99 910738 898294 909110 912614 899912 895560
2483.88 883270 864166 856490 834552 823568 809932
2486.77 786746 797136 783396 772824 792940 786614
2489.67 774512 754370 717978 695020 687518 681648
2492.56 675498 673140 666706 661366 640624 616952
2495.45 620384 624054 609858 590242 581544 590560
2498.34 594408 594570 578136 560652 562256 563638
2501.24 552856 543322 546652 537172 528248 521442
2504.13 503910 478136 476502 488432 492546 469296
2507.02 454326 477952 478370 478864 468678 451342
2509.92 445288 432476 424256 430176 443872 438214
2512.81 423512 411536 394416 385996 388730 406100
2515.70 418214 421008 406246 389720 407042 426770
2518.59 433382 431194 427848 437716 436802 433092
2521.49 437256 430316 419486 425790 447540 441978
2524.38 426066 429906 461484 462326 437576 448156
2527.27 472686 493836 500966 494078 478584 480674
2530.16 491228 500234 533566 551292 530586 510682
2533.06 528892 553664 563490 565534 584188 609228
2535.95 637436 657114 654556 674732 715936 743486
2538.84 756328 752078 747118 780396 804912 816748
2541.74 848882 861498 882310 899202 902744 919880
2544.63 953024 981516 989994 1003292 1009106 1041120
2547.52 1077090 1078052 1085106 1107394 1109224 1112472
2550.41 1142400 1175104 1186822 1197398 1209630 1229082
2553.31 1263778 1291526 1318494 1340646 1357692 1385104
2556.20 1407374 1431634 1464626 1490100 1526604 1547916
2559.09 1576784 1609264 1626076 1640250 1679260 1721646
2561.98 1761814 1806636 1830174 1856224 1881298 1918172
2564.88 1961294 2011868 2044956 2081212 2129836 2166370
2567.77 2226342 2280430 2315954 2353348 2392022 2453574
2570.66 2518028 2566046 2586930 2601758 2657902 2717452
2573.56 2751800 2786686 2848208 2905060 2937956 2979588
2576.45 3039550 3108512 3179970 3232358 3287074 3372586
2579.34 3413498 3439874 3484566 3538624 3595988 3668044
2582.23 3762684 3847414 3929876 4027462 4110154 4148614
2585.13 4201488 4252274 4292166 4320360 4326566 4321670
2588.02 4320582 4316016 4301082 4292512 4280620 4254144
2590.91 4241432 4256026 4262558 4297084 4342004 4362098
2593.80 4409054 4459886 4482968 4523390 4551304 4569490
2596.70 4599672 4642946 4687812 4704012 4709400 4724346
2599.59 4722654 4713308 4734424 4744128 4743264 4760868
2602.48 4780624 4792138 4792198 4820548 4855768 4840502
2605.37 4852968 4901644 4931756 4950012 4970916 5001156
2608.27 5038370 5050378 5040086 5076288 5115268 5124334
2611.16 5148488 5156480 5158596 5178610 5216236 5245616
2614.05 5251824 5284066 5320364 5324632 5325038 5374228
2616.95 5406326 5422780 5450030 5465806 5498516 5494756
2619.84 5448790 5432480 5451898 5469480 5462516 5470396
2622.73 5501518 5489878 5486426 5484018 5457188 5431742
2625.62 5399598 5358996 5327572 5288336 5240092 5186376
2628.52 5160686 5154532 5088694 5040400 5026794 4994972
2631.41 4984722 4967776 4941088 4920920 4915040 4921646
2634.30 4899514 4870120 4834940 4800380 4775272 4740250
2637.19 4682796 4663766 4676232 4652662 4636712 4637414
2640.09 4660998 4694038 4681002 4674100 4667810 4676136
2642.98 4692500 4669690 4666738 4637722 4603110 4592420
2645.87 4570334 4546110 4505068 4470692 4446340 4401928
2648.77 4386300 4381290 4369044 4395610 4406712 4399458
2651.66 4385678 4386374 4388636 4365834 4365348 4369908
2654.55 4369152 4360372 4328790 4302646 4267490 4240374
2657.44 4219646 4182924 4156226 4152158 4151588 4145652
2660.34 4152576 4135954 4103138 4094100 4076808 4065730
2663.23 4053392 4014572 3979480 3962966 3948844 3908378
2666.12 3865282 3843450 3807564 3763586 3742738 3743254
2669.01 3729810 3716236 3700276 3661664 3663358 3654968
2671.91 3627480 3625880 3619928 3614052 3606542 3590738
2674.80 3544456 3514482 3543364 3560618 3533096 3503040
2677.69 3505056 3506930 3483120 3448810 3448390 3450704
2680.59 3423560 3405394 3386716 3372924 3390366 3392118
2683.48 3344276 3328116 3350140 3354294 3346742 3325880
2686.37 3290376 3277256 3279600 3273400 3271206 3285208
2689.26 3287382 3260850 3248204 3233750 3219856 3217536
2692.16 3230556 3252050 3246706 3240336 3245636 3243352
2695.05 3255998 3265732 3264202 3260150 3247548 3260046
2697.94 3286886 3308388 3331776 3345458 3372088 3401808
2700.83 3432224 3469198 3496534 3534786 3581608 3628726
2703.73 3669450 3716794 3780188 3848644 3899190 3959030
2706.62 4025722 4082276 4134652 4174246 4241436 4336886
2709.51 4385104 4451342 4547548 4644580 4737718 4805514
2712.41 4880608 4985384 5099096 5210804 5344314 5460630
2715.30 5598910 5754720 5884124 5997456 6108018 6215226
2718.19 6310664 6406760 6489938 6595496 6690444 6743478
2721.08 6818942 6907660 6955338 7004976 7042320 7088176
2723.98 7209862 7309744 7390048 7502344 7605052 7676326
2726.87 7721190 7716564 7713974 7736678 7742138 7730820
2729.76 7731416 7735898 7748184 7769624 7791170 7810220
2732.65 7794596 7777976 7784052 7791076 7767700 7764200
2735.55 7798784 7816980 7796414 7788804 7799054 7774988
2738.44 7714664 7632216 7592560 7550294 7481666 7435022
2741.33 7389364 7351866 7277030 7204628 7188860 7147928
2744.23 7066754 7033564 7045244 7040172 7024456 6996242
2747.12 6980410 6971004 6940568 6885116 6845396 6789248
2750.01 6707718 6626390 6534604 6428178 6342502 6291828
2752.90 6236516 6218068 6218854 6189764 6180070 6156626
2755.80 6131764 6149496 6153446 6160738 6187852 6214700
2758.69 6235662 6249042 6260096 6266614 6265522 6288502
2761.58 6298250 6288704 6296332 6320920 6347066 6324402
2764.47 6289044 6307816 6319880 6310772 6341234 6340262
2767.37 6338622 6395198 6446324 6472192 6496376 6523002
2770.26 6563606 6640942 6671936 6681018 6749570 6843506
2773.15 6897960 6922080 6971506 6999478 7028892 7062458
2776.05 7056036 7065564 7096580 7134026 7156956 7181736
2778.94 7235528 7303240 7374762 7443224 7519902 7640554
2781.83 7775696 7910546 8031214 8159602 8325270 8452944
2784.72 8554852 8673956 8791426 8911328 9031182 9153118
2787.62 9290850 9442888 9584868 9736222 9892364 10034250
2790.51 10195180 10365200 10541230 10732990 10924680 11120880
2793.40 11348020 11559660 11760200 11985920 12210170 12471830
2796.29 12768290 13044630 13324090 13685570 14070740 14388450
2799.19 14732580 15147190 15593870 16049180 16555180 17068320
2802.08 17605890 18228470 18829650 19452140 20117720 20806520
2804.97 21555890 22335050 23180020 24140510 25240330 26471390
2807.87 27851430 29384050 31050910 32860770 34813650 36874660
2810.76 39002970 41220980 43569990 46098080 48801010 51673000
2813.65 54715750 57953430 61348850 64827310 68446010 72115140
2816.54 75849790 79676200 83447170 87140790 90711220 94202380
2819.44 97646240 100890300 103999300 107128900 110279700 113435300
2822.33 116702600 120283200 124346700 129139300 134984900 142267100
2825.22 151022300 160398700 168012200 171961900 172298000 169612100
2828.11 164711600 159033500 153923000 150103600 147949700 147339700
2831.01 148370000 151329900 156333100 163446200 172346800 182086400
2833.90 191332000 198841600 203434200 203672800 198968300 190495200
2836.79 180240000 169803500 160020700 151583600 144848800 139707600
2839.69 136078500 133663100 132126300 131194900 130608000 130203000
2842.58 129781300 129086000 127965100 126346400 124228300 121583600
2845.47 118392600 114861800 110926300 106613400 102164300 97634940
2848.36 93103660 88612460 84234340 79970650 75905190 72144340
2851.26 68625500 65431180 62557100 59967480 57691080 55720230
2854.15 54058150 52666770 51561010 50689040 50022230 49566370
2857.04 49256550 49162620 49298010 49571270 49953770 50433170
2859.93 51062390 51852480 52711640 53603700 54597160 55702800
2862.83 56855290 58025540 59285610 60668360 62106680 63573090
2865.72 65125740 66773980 68448150 70226220 72121120 74051360
2868.61 76048900 78135850 80334340 82642220 85024320 87449470
2871.51 89905060 92394280 94975370 97620840 100330600 103106200
2874.40 105841000 108565400 111319800 114090600 116774300 119333700
2877.29 121940400 124654900 127316700 129913400 132552200 135208700
2880.18 137819800 140338900 142897300 145520800 148051800 150493900
2883.08 152979900 155400100 157770900 160318700 162923600 165537200
2885.97 168229300 171051600 174031500 177191200 180416000 183745000
2888.86 187433500 191292000 195229000 199449000 203737000 207887800
2891.75 211830300 215509100 219011600 222467100 225741100 228668800
2894.65 231435600 234272800 237127200 240065700 243092600 246000400
2897.54 248800700 251570400 254397400 257194100 259870900 262474900
2900.43 265061300 267626400 270092200 272361700 274657700 277023300
2903.32 279429800 281847300 284233200 286713700 288969200 290842600
2906.22 292253600 293199100 293920300 294362200 294626900 294862600
2909.11 295224200 295828700 296836300 298264800 300054600 302306900
2912.00 304648300 307037400 309718000 312465200 315066100 317349500
2914.90 319274600 320856400 321840500 321959900 321535800 320762100
2917.79 319579200 317963300 315956200 313765900 311276000 308876600
2920.68 306783800 304830800 303214100 302172400 301552900 301207900
2923.57 301307600 301689000 302040400 302405200 302632100 302601500
2926.47 302503000 302341700 302038200 301668000 301371200 301254100
2929.36 301385700 301582800 302015400 302680900 303391400 304392400
2932.25 305639100 306863100 308094800 309408700 310752400 312117500
2935.14 313521400 315061300 316505700 317863800 319298000 320769700
2938.04 322304300 323647700 324905500 326406800 327898000 329493300
2940.93 331101200 332462600 334031800 335510700 336637700 337567600
2943.82 338315200 339100900 339884500 340747100 341566800 342424300
2946.72 343657900 344914500 346018900 346985100 347734400 348097000
2949.61 347721600 346781900 345434300 343392200 340847600 338074600
2952.50 335189600 332261800 329372300 326945500 325010100 323459200
2955.39 322655800 322546300 323054500 324209700 325986200 328562800
2958.29 331702300 335508500 340302700 345719300 351984200 359323300
2961.18 367958700 377940500 388514900 400245000 413121000 426799600
2964.07 441625600 456867900 472356600 488275300 504536400 521528900
2966.96 539528300 558283400 577584300 597208300 617509600 638318700
2969.86 659272600 680850600 702393000 724150800 747169900 771459600
2972.75 796228000 821562700 848527600 878492800 913444400 953775000
2975.64 997158100 1035511000 1051591000 1031586000 986845600 946304300
2978.54 929386900 938833700 968343800 1007817000 1039119000 1042396000
2981.43 1026833000 1019576000 1034185000 1071017000 1124404000 1185911000
2984.32 1237645000 1262454000 1271716000 1274388000 1250670000 1189736000
2987.21 1109050000 1030718000 962877700 905704900 857848000 819354300
2990.11 788947500 764781900 745185900 728217400 713047700 698617200
2993.00 683420900 667432300 649953900 630539800 609724200 587519300
2995.89 563500400 538580900 512909700 486354100 459851300 433038400
2998.78 406184200 379799000 354129500 329256600 305218800 282230100
3001.68 260428600 239834700 220539000 202581000 185939300 170640000
3004.57 156525500 143524400 131733700 121056800 111379300 102632000
3007.46 94689460 87536020 81125660 75372680 70256340 65674270
3010.36 61528040 57807120 54468520 51497940 48862740 46472050
3013.25 44308240 42384110 40649070 39046130 37569450 36235450
3016.14 35018420 33864480 32813290 31875910 30951330 30078950
3019.03 29309560 28556710 27853030 27198150 26553160 25960620
3021.93 25404910 24881220 24390230 23880820 23415260 23005600
3024.82 22597290 22183220 21769140 21338880 20947830 20612390
3027.71 20285190 19949890 19623890 19324170 19024160 18741930
3030.60 18461710 18178380 17910800 17661460 17439540 17196220
3033.50 16983370 16802710 16584760 16380890 16193060 15989830
3036.39 15774970 15582970 15410510 15231060 15068260 14912980
3039.28 14742580 14588660 14443950 14343440 14228630 14032390
3042.18 13836340 13729610 13639200 13513960 13363620 13245960
3045.07 13126940 12993830 12895610 12826490 12723360 12585910
3047.96 12511890 12433860 12360130 12283050 12205530 12110890
3050.85 12030170 11992240 11961890 11918640 11812120 11696490
3053.75 11646890 11622690 11573130 11514400 11474230 11422030
3056.64 11385570 11369080 11333300 11287800 11234300 11196090
3059.53 11173160 11161870 11142030 11115780 11080390 11054720
3062.42 11070990 11076030 11075370 11044000 11019190 11006010
3065.32 10987240 10987850 10990050 10978280 10930740 10883610
3068.21 10858330 10812270 10780910 10780020 10757420 10738260
3071.10 10710530 10643150 10601590 10579170 10545200 10501020
3074.00 10464250 10449900 10393110 10349660 10311890 10269030
3076.89 10207320 10146850 10106020 10038800 9973786 9898916
3079.78 9820632 9762248 9692630 9637580 9571924 9466400
3082.67 9397986 9323442 9238506 9173468 9098878 9009250
3085.57 8893936 8816846 8758606 8689832 8610194 8503170
3088.46 8396506 8331998 8251754 8154098 8083762 7992300
3091.35 7928024 7877416 7802020 7710448 7628436 7551790
3094.24 7482374 7421482 7356272 7291896 7233708 7171384
3097.14 7096904 6999072 6893026 6850004 6810350 6743130
3100.03 6696866 6647810 6584918 6544228 6491338 6454394
3102.92 6421968 6378068 6353812 6304752 6223596 6162818
3105.82 6143522 6117490 6073550 6073704 6076142 6015524
3108.71 5999156 6006968 5960882 5905294 5879758 5834182
3111.60 5795500 5782796 5786816 5762188 5753118 5813328
3114.49 5806014 5770736 5750344 5705006 5695870 5708244
3117.39 5686298 5691912 5702542 5692932 5704692 5685390
3120.28 5655310 5673430 5700318 5696884 5680894 5665338
3123.17 5635910 5655860 5701388 5704062 5686842 5684954
3126.06 5707900 5714040 5770478 5824680 5816942 5838730
3128.96 5828916 5843356 5883838 5876378 5906342 5926418
3131.85 5939706 5986476 6026218 6043478 6061478 6067184
3134.74 6082552 6146702 6206120 6245988 6270138 6295996
3137.64 6346266 6402530 6438536 6453120 6499656 6535362
3140.53 6557508 6592392 6626822 6689622 6723606 6758474
3143.42 6786620 6782188 6826314 6871818 6882016 6923394
3146.31 6935346 6900504 6926784 6969066 6952574 6964130
3149.21 6994244 7020590 7041330 7035976 7029326 7027082
3152.10 7034776 7004946 6949370 6919194 6929204 6940790
3154.99 6932882 6936658 6943850 6925894 6904950 6869600
3157.88 6830648 6841222 6832756 6811076 6785336 6704350
3160.78 6664268 6677084 6667796 6624372 6564782 6555362
3163.67 6538318 6523880 6497736 6415740 6407988 6414290
3166.56 6370092 6353194 6365028 6368216 6349848 6318982
3169.46 6306012 6289448 6297214 6309906 6306200 6331500
3172.35 6325052 6279852 6261210 6294052 6284208 6273572
3175.24 6306788 6303880 6308002 6279960 6262646 6332902
3178.13 6356114 6350688 6377706 6383564 6397672 6410944
3181.03 6416482 6409662 6414552 6437870 6439530 6460460
3183.92 6476228 6517568 6532100 6525374 6559452 6550730
3186.81 6542928 6574272 6594446 6586654 6588382 6594904
3189.70 6593848 6614972 6630936 6652300 6683768 6672572
3192.60 6661906 6676026 6643256 6630550 6664448 6712036
3195.49 6725916 6700074 6700998 6698974 6678844 6664362
3198.38 6652670 6606246 6598576 6659626 6629626 6601494
3201.27 6642278 6628576 6599248 6596368 6601100 6593872
3204.17 6577874 6561552 6536964 6549346 6559554 6531374
3207.06 6535372 6536326 6549028 6545914 6555062 6578654
3209.95 6570620 6569718 6533004 6522052 6551880 6559848
3212.85 6593194 6628764 6601840 6588476 6647746 6678310
3215.74 6713590 6763192 6781734 6806474 6817958 6838644
3218.63 6884392 6932500 6964354 6987608 7057488 7108614
3221.52 7105734 7185986 7212272 7207564 7272558 7321110
3224.42 7384728 7427230 7452082 7522732 7592374 7596250
3227.31 7615480 7596772 7607736 7678560 7675276 7669456
3230.20 7689674 7706984 7713706 7720448 7734968 7721386
3233.09 7736164 7798104 7789170 7720608 7697496 7682266
3235.99 7630610 7630118 7622972 7586672 7550766 7524736
3238.88 7501812 7457998 7415474 7357328 7299132 7238782
3241.77 7180730 7102944 7020320 6946062 6867728 6817576
3244.67 6743624 6666090 6591798 6510734 6419870 6352508
3247.56 6257042 6149958 6065552 5954020 5842498 5713382
3250.45 5651960 5558058 5425346 5355710 5269236 5120838
3253.34 5042276 4983256 4875468 4815820 4701888 4548892
3256.24 4435438 4321974 4239936 4163916 4061694 3958572
3259.13 3878922 3820470 3734588 3661030 3580650 3462654
3262.02 3366200 3315718 3247604 3150818 3080818 3053616
3264.91 2984110 2881258 2797074 2732206 2706212 2668620
3267.81 2591932 2530170 2474684 2396080 2327260 2287242
3270.70 2257812 2190454 2109418 2083112 2079766 2026050
3273.59 1983868 1968586 1954398 1906300 1857804 1858116
3276.49 1820492 1767250 1728850 1714536 1723342 1697456
3279.38 1645918 1643602 1660336 1591840 1546480 1547380
3282.27 1526682 1500198 1480948 1495032 1486544 1462648
3285.16 1459640 1477012 1479936 1393214 1352204 1360894
3288.06 1352528 1338060 1278352 1281902 1306334 1300170
3290.95 1302044 1299498 1316994 1300230 1293256 1291588
3293.84 1297146 1291206 1281094 1288786 1277926 1284602
3296.73 1316724 1318456 1299136 1326322 1335590 1324628
3299.63 1347228 1384978 1396518 1412690 1439136 1474588
3302.52 1510950 1549718 1584876 1587338 1627416 1654194
3305.41 1624802 1664740 1722998 1740614 1775004 1778002
3308.31 1820496 1877130 1881210 1937726 1987270 1973492
3311.20 1969614 2005840 2049336 2083296 2103870 2158760
3314.09 2236352 2273712 2286614 2305534 2356382 2417342
3316.98 2427852 2441942 2458532 2448160 2503124 2546252
3319.88 2487816 2441622 2473748 2505130 2488288 2464322
3322.77 2432822 2405078 2396894 2405764 2392294 2402958
3325.66 2436178 2441016 2425294 2440706 2479272 2486594
3328.55 2512226 2537612 2523306 2479626 2422356 2402092
3331.45 2381742 2355950 2356850 2349210 2309266 2295922
3334.34 2274626 2234982 2237438 2190304 2164844 2167234
3337.23 2144084 2126586 2113150 2128508 2130008 2106378
3340.13 2098232 2080970 2042664 1991554 1982226 1988166
3343.02 2016846 2086460 2095914 2095370 2069166 2049016
3345.91 2071050 2040016 2030978 2035742 1985962 1927048
3348.80 1875348 1824894 1819274 1829076 1779202 1721108
3351.70 1721188 1748062 1742490 1726924 1707262 1641146
3354.59 1619750 1658846 1641642 1615636 1571120 1533614
3357.48 1524574 1492312 1449766 1440902 1442908 1413828
3360.37 1428834 1451076 1400304 1322490 1360574 1363382
3363.27 1310756 1297204 1271572 1296294 1267096 1228032
3366.16 1223708 1214386 1206146 1216670 1238450 1215404
3369.05 1198432 1237616 1287072 1300076 1299968 1323532
3371.95 1357700 1376898 1358812 1333884 1363172 1418758
3374.84 1444622 1470160 1517528 1533810 1542196 1590792
3377.73 1682922 1699146 1678910 1713818 1765664 1805004
3380.62 1842612 1876222 1903186 1972396 2014070 2049952
3383.52 2110446 2139762 2195900 2277456 2352036 2357002
3386.41 2366184 2401542 2386540 2374914 2379138 2364268
3389.30 2397156 2389832 2352544 2381378 2376216 2350374
3392.19 2335018 2301990 2295362 2309832 2286712 2293996
3395.09 2319384 2318710 2319884 2274720 2222338 2191938
3397.98 2121032 2060604 2041564 2029136 2005908 1982894
3400.87 1936962 1884746 1836148 1782008 1784940 1808962
3403.77 1740170 1643760 1596610 1570772 1578128 1569748
3406.66 1513134 1503894 1475424 1446334 1445702 1374116
3409.55 1304226 1267796 1264614 1222748 1176426 1166170
3412.44 1148836 1140274 1124620 1114096 1084568 1075876
3415.34 1082066 1064316 1082264 1127596 1122754 1108602
3418.23 1115980 1125384 1150060 1142330 1137322 1130454
3421.12 1132050 1174678 1216032 1237860 1222158 1234982
3424.01 1272042 1277376 1301882 1318430 1316520 1354458
3426.91 1382116 1379416 1409416 1465860 1474388 1503012
3429.80 1554836 1603918 1604726 1575958 1609646 1621532
3432.69 1630630 1627126 1583296 1588024 1637998 1670334
3435.59 1685228 1668856 1693368 1728794 1718206 1747218
3438.48 1725700 1690914 1692890 1692480 1720412 1744412
3441.37 1684412 1641752 1646884 1660304 1656590 1614410
3444.26 1560676 1513590 1529494 1536716 1510014 1485380
3447.16 1441794 1418296 1380534 1328160 1312066 1291276
3450.05 1259986 1197498 1167636 1176198 1151340 1141546
3452.94 1138882 1130042 1109258 1063914 1049554 1011752
3455.83 982166 977604 924476 884386 898280 891372
3458.73 891746 855436 819798 820508 817640 847390
3461.62 842984 848826 869000 850390 863494 858116
3464.51 805244 827822 834636 803668 772796 805530
3467.40 871234 848806 838038 861248 909598 922720
3470.30 923274 945228 924882 935868 960394 966034
3473.19 992138 1027718 1034686 1014132 1012330 1055028
3476.08 1115780 1126140 1153668 1226364 1252518 1228886
3478.98 1246268 1264912 1250904 1244758 1237426 1252176
3481.87 1261784 1266092 1259882 1216970 1206702 1234208
3484.76 1222146 1209924 1174970 1168170 1153310 1120804
3487.65 1144520 1172728 1127814 1085490 1083498 1042422
3490.55 1049352 1035366 1034198 1037134 1003600 1023686
3493.44 1014302 957064 896996 874332 892834 856092
3496.33 806542 783960 761014 741716 731854 703500
3499.22 671212 671386 653496 611882 596660 570730
3502.12 551796 523578 487670 488136 466444 488514
3505.01 485324 417238 379786 362010 346334 347318
3507.90 368550 337776 325130 333314 308760 300428
3510.80 282216 272182 286450 269368 233274 240208
3513.69 213440 180616 169172 161176 175580 213628
3516.58 240248 211218 173166 160850 169998 179684
3519.47 173788 127506 135038 175790 166284 153150
3522.37 155814 186516 199316 179734 152598 127040
3525.26 97740 89040 128752 135846 116256 107442
3528.15 130494 148866 123604 104810 106534 139532
3531.04 145480 88420 50302 72838 99196 93224
3533.94 96770 100600 105024 132560 129324 130052
3536.83 131128 111192 125736 142100 137930 113272
3539.72 100196 98050 114950 124146 95764 96870
3542.62 102114 77506 83340 134672 153430 105616
3545.51 74778 141202 218918 165944 94466 130990
3548.40 117632 74384 72926 102946 140160 139316
3551.29 137472 149742 102014 61650 81308 109358
3554.19 114126 93350 101612 108572 91972 102886
3557.08 127026 100138 107848 130624 96276 77542
3559.97 72832 83764 109944 94972 77914 86802
3562.86 86072 94910 118676 98870 109762 164498
3565.76 192626 179080 145354 177410 209440 136426
3568.65 100068 96402 46566 50750 53002 58694
3571.54 82808 67032 26316 31996 83610 65912
3574.44 69242 98434 77438 72120 55008 35598
3577.33 66732 109404 130394 122178 102310 72624
3580.22 35490 64586 78330 67536 69402 59424
3583.11 55194 52894 85426 135222 146292 150668
3586.01 201974 177830 121864 128604 241516 261732
3588.90 136636 112128 93436 65582 76518 90786
3591.79 108708 126622 126102 97954 74222 84030
3594.68 139542 140684 97394 67054 60748 83072
3597.58 111882 101812 109676 133628 120400 132626
3600.47 165698 158636 143258 100424 109680 140208
3603.36 105514 81736 65906 100188 135540 155276
3606.26 212318 246658 185104 107908 189344 411594
3609.15 318526 142746 142342 121592 131924 234396
3612.04 322558 246510 164192 193764 248944 213120
3614.93 160222 149622 156544 147220 201036 229748
3617.83 163896 154570 329946 407636 201442 127182
3620.72 150730 135122 141262 119428 119178 113500
3623.61 99688 119350 116334 111276 131556 155172
3626.50 169386 156408 322366 487278 359160 530346
3629.40 512080 197280 158854 158352 140502 134466
3632.29 124200 142162 220356 179638 132428 92386
3635.18 73052 101080 95182 100522 92906 115616
3638.08 148140 133296 110236 92816 106172 128564
3640.97 101410 91598 106378 118754 110670 111780
3643.86 127920 127184 136018 139620 166778 252786
3646.75 356784 315396 199866 281302 597238 502936
3649.65 265248 316414 314924 247282 136548 127796
3652.54 114632 93522 94440 90386 145290 167008
3655.43 336710 433054 230974 139174 133500 113840
3658.32 117698 129784 98518 71822 114492 129314
3661.22 112502 114672 126636 148818 166598 165714
3664.11 160238 149434 164496 169918 172062 178964
3667.00 184860 183024 334384 423886 307494 254170
3669.90 573168 767460 409558 256428 225702 217232
3672.79 251768 269986 327220 542234 565788 636108
3675.68 706428 374714 281450 283616 278490 269546
3678.57 291352 376582 323758 249956 239196 242236
3681.47 258752 247052 245370 269340 286366 281236
3684.36 270770 287586 334842 358404 340424 346182
3687.25 463674 923626 910166 481030 408918 404900
3690.14 456026 579862 522442 379352 365806 355358
3693.04 367274 366312 382936 428054 417358 397978
3695.93 408806 408068 400452 412898 442730 439254
3698.82 444720 464860 443318 459836 578182 643572
3701.72 577580 536812 535410 507700 484292 496344
3704.61 506784 512132 524620 494992 497434 522748
3707.50 549342 563538 691948 795422 692344 620962
3710.39 617740 633486 886182 1026522 712344 552498
3713.29 542324 528150 550126 535162 516306 468960
3716.18 423172 413514 422158 450886 498066 473018
3719.07 419526 410380 372522 383492 434660 530982
3721.96 531430 437408 388328 372846 403848 419062
3724.86 426624 396626 466232 485438 380556 386984
3727.75 391172 339128 306760 323832 358524 374000
3730.64 358280 526710 782940 609308 395744 386172
3733.54 410992 500036 551628 537470 432076 610820
3736.43 719252 472382 421302 450506 389862 371980
3739.32 366942 359906 365166 388268 361012 344640
3742.21 367844 463342 592324 1009960 1417866 975988
3745.11 499400 422174 358222 389660 443944 467310
3748.00 447658 761860 1058890 718070 446420 451916
3750.89 469416 838292 1082866 637474 368648 358940
3753.78 346752 354688 353422 364168 391920 449164
3756.68 392780 346554 346050 377566 437454 536734
3759.57 553220 421430 354168 377692 391110 392568
3762.46 413736 403786 391162 420586 398444 451260
3765.35 539826 440884 406202 453672 443756 445532
3768.25 437826 463792 637516 650294 501622 457064
3771.14 426774 440678 464446 449120 441434 486958
3774.03 495528 467270 487184 496694 521138 521802
3776.93 507910 511876 507780 550700 646218 642658
3779.82 584566 565184 545614 577864 588506 609522
3782.71 633040 594114 569798 606868 588174 583584
3785.60 622964 625012 649508 661624 630734 627770
3788.50 623710 624514 660722 653454 634654 592504
3791.39 575612 604296 620346 650700 641668 612712
3794.28 607214 633992 699356 799606 749342 685986
3797.17 701732 678092 684904 694412 700584 757296
3800.07 798454 1141524 1358804 936256 751436 793592
3802.96 741670 706072 669846 680132 683466 710020
3805.85 820598 1090850 1047610 740148 690568 703442
3808.75 752662 769468 718926 722826 710726 700130
3811.64 724004 763212 753748 733212 777514 810414
3814.53 830490 1026864 1461390 1287194 855564 833380
3817.42 850806 864902 877294 913788 905892 1033186
3820.32 1150576 1127534 1219384 1068690 896358 906608
3823.21 883946 920330 947820 976596 974918 980110
3826.10 1054110 1049396 990532 1002602 1004906 1008510
3828.99 1031338 995050 1008332 1051474 1168796 1212950
3831.89 1100608 1075264 1074994 1077532 1120550 1266274
3834.78 1260588 1097314 1070592 1112730 1251830 1712270
3837.67 1651070 1201182 1116628 1150038 1175530 1171410
3840.57 1234548 1172528 1091722 1068340 1075858 1167406
3843.46 1186544 1093092 1037730 1028964 1033796 1024620
3846.35 1001340 1011038 999102 1000578 1036630 1013514
3849.24 997320 992070 1048458 1098222 1377310 1649300
3852.14 1347968 1194430 1528444 2033248 1806116 1171194
3855.03 1013474 995688 1022340 1071964 1063786 990122
3857.92 947160 950038 958748 995296 1012640 992510
3860.81 1069588 1150704 1057354 1025664 1090248 1107484
3863.71 1116348 1227904 1359798 1258842 1103260 1053042
3866.60 1097360 1138916 1154736 1204352 1268870 1313432
3869.49 1558698 1522366 1245212 1189242 1168772 1214180
3872.39 1268128 1351092 1435012 1491818 1431846 1334534
3875.28 1367070 1400590 1410386 1416556 1412946 1449964
3878.17 1500892 1555382 1620774 1710552 1665910 1605470
3881.06 1602898 1603342 1626788 1653006 1689456 1710370
3883.96 1730060 1750948 1991914 2118998 1893902 1787776
3886.85 1834912 1860284 1879968 1929964 1950524 1958654
3889.74 1982796 2062126 2248282 2207048 2044880 2044580
3892.63 2084470 2115466 2151590 2171316 2154260 2127234
3895.53 2122110 2140340 2150992 2189818 2238904 2248160
3898.42 2377030 2479446 2373286 2338116 2347278 2432170
3901.31 2616434 2571802 2488832 2443582 2553360 2755570
3904.21 2654020 2558184 2554954 2565742 2536806 2544068
3907.10 2574796 2596112 2619400 2615108 2671124 2689518
3909.99 2668746 2705570 2768398 2781308 2790150 2826550
3912.88 2859996 2873206 2871662 2902684 2937656 3000108
3915.78 3056432 3071324 3106168 3032484 2981276 3016472
3918.67 3018004 3064988 3122426 3124252 3089332 3057306
3921.56 3043492 3047156 3094658 3135346 3152628 3174798
3924.45 3217996 3183508 3130608 3124290 3102340 3119792
3927.35 3100032 3049340 3062004 3067214 3008276 2948714
3930.24 2874272 2857244 2900388 2895058 2839216 2783332
3933.13 2757148 2740014 2754134 2758948 2711498 2633370
3936.03 2586282 2629922 2626674 2527788 2448912 2427436
3938.92 2410666 2366254 2363482 2336732 2295376 2236060
3941.81 2228508 2279126 2207514 2142086 2117672 2084474
3944.70 2062702 2072722 2090762 2092626 2079276 2061320
3947.60 2073362 2057750 2054846 2004560 1970196 2027734
3950.49 2016324 2020514 2044708 2056182 2078884 2070436
3953.38 2083982 2075544 2054254 2072048 2106940 2110080
3956.27 2130092 2165458 2187208 2200440 2182094 2198064
3959.17 2198926 2182788 2193034 2233002 2261120 2254322
3962.06 2245798 2245826 2270584 2290710 2280226 2274586
3964.95 2270738 2285658 2308068 2336626 2356150 2380544
3967.85 2397906 2380740 2414360 2442740 2444334 2461962
3970.74 2481686 2476674 2473444 2496398 2486382 2503750
3973.63 2546968 2528942 2564344
##END=
