##TITLE=Methyl tert-Butyl Ether
##JCAMP-DX=4.24
##DATA TYPE=INFRARED SPECTRUM
##CLASS=IUPAC A
##ORIGIN=NIST, Anayltical Chemistry Division, 301-975-3108
##OWNER=COPYRIGHT (C) 1998 by the U.S. Secretary of Commerce
##DATE=98/10/1
##$SPECTRA VERSION=1.00
##$UNCERTAINTY IN Y=2.1 % relative (B=1.1E-04,C=7.8E-10,D=2.7E-14)
##CAS NAME=tert-Butyl Methyl Ether
##CAS REGISTRY NO=1634-04-4
##MOLFORM=( C H3)3 C O C H3
##MP=-109 C
##BP=55.2 C
##$NIST SOURCE=QUANT-IR
##SPECTROMETER/DATA SYSTEM=IFS66V (Bruker)
##INSTRUMENT PARAMETERS=KBr Beam splitter; MCT Detector; Multipass cell
##STATE=gas
##SAMPLE DESCRIPTION=MTBE Primary Gas Standard
##PRESSURE=101.3 kPa
##TEMPERATURE=23 C
##SAMPLING PROCEDURE=1 L/min Flow
##RESOLUTION=1.9290
##DATA PROCESSING=NB Strong Apodization
##XUNITS=cm-1
##YUNITS=(micromol/mol)-1m-1 (base 10)
##XFACTOR=1.0
##YFACTOR=9.0949E-13
##DELTAX=0.9645
##FIRSTX=574.687
##LASTX=3974.595
##FIRSTY=0
##MAXX=3973.63
##MINX=574.69
##MAXY=.0011652
##MINY=-2.66E-07
##NPOINTS=3527
##XYDATA=(X++(Y..Y))
574.69 23130-61334 23596 76804-52274-91356
579.51-206740-231518-293482-245206-76794-130154
585.29-279530-296824-237932-44200 52966 43126
591.08-18202-66572 80204 153290 40374 18826
596.86 57432-48384-123634 2398 71316 66194
602.65 85728 63828 41536 29832 18194 1910
608.44 97768 147416 57872 79312 76396 93464
614.22 72384 17456 36788 65462 71638 64276
620.01 62332 70724 90096 84274 86336 71156
625.79 86512 140274 108034 108206 130774 116318
631.58 103904 99968 95914 78748 64542 60932
637.36 79002 131504 149564 131782 67402 85170
643.15 119832 99610 127640 127710 66662 76256
648.93 93106 90968 97162 140384 138588 126524
654.72 96000 91602 110958 141046 156100 119784
660.50 107642 146884 149418 129570 130070 114628
666.29-57394-34940 136288 165490 200704 230428
672.08 277742 365340 373452 371324 449454 445320
677.86 436312 457702 481080 515136 554510 553264
683.65 518004 524536 620188 616472 639014 677822
689.43 700468 733208 768386 836320 922894 1054972
695.22 1215148 1413304 1604636 1882152 2269602 2739130
701.00 3346672 4072500 4967006 6034974 7267354 8656626
706.79 10241570 12059400 14043020 16081710 18158060 20165270
712.57 22054460 23710000 25052910 26025290 26675840 27077720
718.36 27441210 28175770 30138020 34131170 40933430 49561750
724.14 54405720 49188510 38996010 31846240 28312860 27162870
729.93 27463350 28496850 29412830 29745280 29189080 27807290
735.71 25715810 23178390 20389710 17537310 14792970 12341550
741.50 10105860 8227880 6682542 5393660 4342770 3548892
747.29 2964582 2527016 2133258 1869498 1667928 1535556
753.07 1440212 1354522 1281202 1250514 1229644 1261458
758.86 1247816 1235632 1228614 1255806 1271984 1267096
764.64 1232282 1203562 1226316 1242662 1270412 1291992
770.43 1295618 1301676 1262550 1269720 1262344 1241964
776.21 1244302 1244598 1190946 1145310 1149402 1173952
782.00 1168996 1143338 1112452 1107540 1117388 1136844
787.78 1118218 1115606 1097042 1122156 1168988 1156710
793.57 1121394 1131174 1119524 1149982 1203486 1204994
799.35 1210530 1228572 1272740 1310998 1345814 1390274
805.14 1413566 1473916 1493090 1523462 1565576 1625820
810.93 1693894 1755800 1791286 1822742 1902884 1991814
816.71 2069562 2193990 2342142 2507548 2753294 3040548
822.50 3381932 3803498 4304944 4964488 5783344 6731692
828.28 7909022 9397354 11168100 13317010 15895940 18968710
834.07 22479790 26500060 31128060 36316660 41987680 48012090
839.85 54209710 60465600 66671870 72490350 77617980 81940010
845.64 85450350 88258620 90587000 93064390 97211280 104557000
851.42 116093400 131387300 148556500 162669400 162414700 140412400
857.21 112464300 96158340 89913340 89142470 91390110 94265780
862.99 95632780 94474890 90319660 83598030 75168930 65810350
868.78 56116920 46754670 38158910 30635170 24230890 18948780
874.57 14665190 11331290 8736648 6768866 5272738 4176588
880.35 3317210 2718862 2286092 1996318 1754184 1602750
886.14 1482268 1400076 1323832 1321592 1308588 1316768
891.92 1290374 1307480 1320518 1326808 1322994 1313412
897.71 1291178 1309990 1355678 1450956 1527244 1651962
903.49 1758806 1879400 1900930 1830620 1690734 1566826
909.28 1453468 1427534 1436258 1451212 1459590 1502638
915.06 1519864 1533948 1528938 1530326 1500220 1460684
920.85 1393290 1367936 1326114 1292554 1251058 1240280
926.63 1213040 1201982 1188122 1195838 1173500 1163488
932.42 1158466 1162712 1133364 1131862 1110838 1111054
938.21 1116934 1119018 1101666 1121176 1152206 1189084
943.99 1180070 1199844 1183008 1182786 1178454 1188362
949.78 1180904 1213946 1218702 1227836 1234216 1278792
955.56 1284876 1299556 1298442 1330466 1364872 1401216
961.35 1414666 1458366 1491436 1533424 1570024 1656406
967.13 1708976 1744318 1779892 1879736 1964814 2035646
972.92 2100058 2203020 2297324 2415940 2488030 2574550
978.70 2677054 2825538 2937052 3028650 3101688 3205030
984.49 3327330 3453356 3566768 3707486 3845454 4019186
990.27 4195400 4399800 4606294 4853086 5119846 5484076
996.06 5901716 6387192 6934362 7616190 8393484 9274510
1001.85 10279950 11480090 12816570 14299210 15962580 17864570
1007.63 19928270 22118980 24404170 26686600 28924870 31101670
1013.42 33116090 34897660 36374240 37429340 37934560 37743990
1019.20 37283490 37560190 39489380 43702420 48200340 45162220
1024.99 37611070 33530760 32350380 32475490 32692580 32707380
1030.77 32071300 30844470 28936220 26689360 24127700 21534950
1036.56 18932850 16569120 14412030 12635990 11135960 10033010
1042.34 9166412 8615010 8174490 7970016 7835258 7900916
1048.13 8000490 8284504 8631064 9110912 9595420 10250570
1053.91 10920500 11742060 12631110 13724000 14910680 16434290
1059.70 18157900 20377650 22866870 25729000 28927040 32728080
1065.48 37114200 42654810 49179260 56599490 65292380 75694940
1071.27 87652170 101594900 117350300 135394400 156011200 179922100
1077.06 205672600 232628400 261431900 292024600 323787200 353946900
1082.84 381735900 410178500 438090200 465370800 490751400 516838700
1088.63 535727500 546652800 557989000 569982800 586642800 609336700
1094.41 634406800 657064000 662861900 644646600 614969900 579458100
1100.20 541807000 514730300 504847900 493185900 472101800 447940200
1105.98 417561600 380241000 338681300 294864100 250229200 208153200
1111.77 171044900 139221300 113157600 92311430 75711930 62937420
1117.55 53374310 46057460 40546230 36125760 32619500 29865100
1123.34 27691430 25917330 24462650 23222130 22240290 21375170
1129.12 20645400 20029890 19611800 19317870 19184550 19109080
1134.91 19012330 18988690 19113750 19339210 19677070 20053820
1140.70 20486520 20986700 21483900 21907490 22311900 22699380
1146.48 23136930 23686760 24291240 24925460 25774070 26896140
1152.27 28172770 29542440 30843390 31664780 31854610 31846520
1158.05 31935460 32220100 32694950 33311460 33968160 34771780
1163.84 35728740 36623890 37470210 38367460 39176760 39714460
1169.62 40250540 41077710 42185360 43617740 45168570 46921540
1175.41 49038770 51587800 54504930 57709570 60897370 63981660
1181.19 66930380 70212840 74358690 79938240 87231900 96459100
1186.98 107537400 120568100 135492000 152496600 171500900 192649100
1192.76 215682400 239947500 264148800 287739200 311120000 334275800
1198.55 355944600 375677500 393296600 409371600 424684500 441948200
1204.34 465153800 498240700 543604900 597941200 647692200 665118800
1210.12 611481600 529111400 497984700 507313400 526016800 545593000
1215.91 561178800 567009200 561667800 540443500 500007200 453133100
1221.69 404715500 355761100 312555600 276855900 248774500 227035500
1227.48 210193500 197335300 188246500 182076800 178772700 177872600
1233.26 178902400 179483600 177215200 172403400 166041000 158085400
1239.05 149228200 140773500 134120300 129477400 126378100 123615600
1244.83 121629500 120499700 119864000 119613000 119555300 119068300
1250.62 118568100 118176400 117741100 116851500 115325800 113305500
1256.40 110925700 108336300 105992800 104265100 103640200 104242800
1262.19 105748100 107324000 107824000 105930600 100832800 92862780
1267.98 83268350 74798950 68625520 63922650 60060770 56483560
1273.76 53222820 50010080 46802230 43174630 39117610 35285320
1279.55 31890390 28829520 26010520 23392840 21082370 18943680
1285.33 16966070 15197400 13668660 12300050 11109820 10078740
1291.12 9195992 8412314 7751734 7154900 6655230 6192024
1296.90 5781942 5408474 5093438 4813138 4592228 4387870
1302.69 4216998 4042228 3898152 3763574 3672646 3580238
1308.47 3512398 3440030 3382716 3328710 3291528 3239274
1314.26 3214300 3159612 3111350 3070180 3042568 3015784
1320.04 3014548 2994296 2997128 3016094 3048250 3059282
1325.83 3071390 3079696 3130410 3204720 3295392 3407324
1331.61 3564926 3760132 4021904 4360688 4803598 5370310
1337.40 6102108 7033922 8207368 9687414 11592690 14029960
1343.19 17102410 20973650 25781490 31710110 38872240 47409590
1348.97 57394960 68901120 81808380 95926900 110937700 126429900
1354.76 141648100 155817000 168007800 177577500 184037500 187803100
1360.54 190486800 195668200 208655900 236170500 279846400 328684600
1366.33 367109600 385170500 370584500 332818400 287506400 243683800
1372.11 219694100 215337800 221180300 229435200 236004100 237848500
1377.90 234417200 225547300 212390000 195655200 176917400 156903700
1383.68 137187600 119103700 106040800 102314100 113083200 137945600
1389.47 157355800 132877800 84638280 57918420 52644460 56460800
1395.25 62838350 68950900 72794340 73605800 70995970 65693440
1401.04 58451550 50277740 42007540 34412560 27727900 22258740
1406.83 17994170 14865600 12592340 11007960 9935778 9251900
1412.61 8838192 8649914 8611884 8679154 8817506 9086016
1418.40 9430924 9492648 9562342 9787176 10022760 10256340
1424.18 10455910 10681020 10903590 11134810 11387260 11686770
1429.97 11955510 12240050 12530290 12862170 13306260 13975930
1435.75 14779550 15348190 16071070 17164660 18220810 19147990
1441.54 20429570 22134540 24068060 26152340 28359360 30649890
1447.32 32906080 35095340 37366630 39652970 41951430 44272230
1453.11 46680730 49173920 52016640 55227320 58788600 63399480
1458.89 69031950 75286420 81517700 86861840 90675460 92905100
1464.68 93679460 93593330 93295220 93346340 94273970 96579500
1470.47 100344000 104392000 107146800 107901900 106498900 104503300
1476.25 102628400 99656170 96434010 93560920 90938570 88576890
1482.04 86560540 84936290 83662440 82438550 80065090 74371280
1487.82 66115300 58607940 52990630 48813630 45528180 42773930
1493.61 40204280 37780520 35163610 32193170 29327920 26437170
1499.39 23558140 20916260 18462150 16251340 14362670 12935480
1505.18 11664850 10406630 9152856 8194134 7489938 6903868
1510.96 6505570 6129894 5784478 5581356 5422172 5346818
1516.75 5205136 4998798 4967754 5129372 5128256 4886340
1522.53 4714504 4668984 4739446 4653220 4613538 4588440
1528.32 4552922 4550826 4599280 4651782 4786906 4821956
1534.11 4726488 4714246 4753582 4968626 5354258 5410700
1539.89 5249558 5241338 5152736 5003422 5068640 5045294
1545.68 4971852 4997250 5062258 5112986 5140930 5119458
1551.46 5148292 5281780 5458630 5371724 5396262 5721980
1557.25 6136016 6267656 6362210 6183550 6125596 6292598
1563.03 6514072 6752648 6935280 7125490 7336642 7610492
1568.82 7835814 7811610 7819232 7870148 7942944 8101714
1574.60 8582164 8913154 8878624 9028514 9097562 8806962
1580.39 8048618 7289498 6908914 6825656 6836674 6858424
1586.17 6818332 6671448 6398420 6012238 5509924 4936102
1591.96 4367336 3868220 3424028 3034972 2730776 2489220
1597.74 2308686 2173928 2076214 1996688 1949498 1914648
1603.53 1880606 1860636 1842580 1823018 1822098 1834534
1609.32 1836780 1857064 1906562 1930716 1970686 2059502
1615.10 2389674 2522836 2236956 2185006 2225784 2284092
1620.89 2337722 2473824 2580180 2527140 2534888 2641374
1626.67 2772478 2826810 2828584 2812572 2770382 2715294
1632.46 2688874 2810156 3028910 2869988 2677928 2630460
1638.24 2565488 2553780 2526108 2506368 2434688 2378012
1644.03 2425894 2533308 2362030 2203210 2056350 1933756
1649.81 1918464 2241504 2659160 2447162 1989014 1719404
1655.60 1608790 1581090 1539472 1513530 1477746 1482236
1661.38 1555446 1537696 1409352 1383296 1371366 1394294
1667.17 1460944 1609120 1551780 1493800 1472108 1428772
1672.96 1480272 1697240 1701916 1547792 1534744 1578860
1678.74 1655904 1716452 1759008 1941410 2243808 2624466
1684.53 2531468 2284040 2375344 2515562 2679188 2833608
1690.31 3011214 3185320 3391248 3632942 4171994 4540810
1696.10 4340230 4365686 4683154 5178036 5193936 4955548
1701.88 4964132 5123798 5282256 5423870 5567322 5604990
1707.67 5607330 5483542 5176794 4753700 4452544 4402950
1713.45 4505998 4538720 4549948 4679326 4391856 3898422
1719.24 3486692 3141148 2815444 2524326 2243062 1993796
1725.02 1821048 1700466 1601448 1553846 1547402 1502320
1730.81 1489296 1654092 1878718 1829696 1540996 1414630
1736.60 1437038 1476068 1598350 1560416 1450670 1460908
1742.38 1499144 1486652 1461450 1462446 1488386 1522198
1748.17 1533036 1527038 1619474 1523854 1379804 1354870
1753.95 1335540 1377270 1427956 1366402 1316218 1292836
1759.74 1302950 1371152 1294162 1186218 1143220 1112670
1765.52 1112448 1166846 1183692 1086714 1111730 1212864
1771.31 1337448 1269594 1080228 1052306 1020302 975064
1777.09 949230 957978 978618 995552 978582 988708
1782.88 1025902 1091752 1085412 1096618 1135664 1191940
1788.66 1263190 1376278 1511068 1675924 1675730 1678488
1794.45 1785944 1902330 2041918 2214464 2426946 2594686
1800.24 2751532 2926448 3067388 3204982 3361010 3530772
1806.02 3701482 3864034 4018394 4202168 4382600 4507288
1811.81 4613818 4701480 4738652 4743134 4767228 4801494
1817.59 4813320 4820656 4840968 4835506 4780816 4687408
1823.38 4562358 4352068 4064296 3865130 3742416 3661988
1829.16 3541722 3292924 3053302 2847694 2615964 2373034
1834.95 2135444 1921690 1734366 1582710 1462804 1353138
1840.73 1278426 1237476 1316760 1317800 1159682 1104332
1846.52 1089252 1079030 1049358 1041664 1026478 1012838
1852.30 990468 977110 962046 966822 970798 971084
1858.09 975226 969838 962660 973906 989652 1001840
1863.88 1011994 1022594 1055060 1089446 1129350 1136510
1869.66 1083600 1067364 1057590 1068246 1075180 1088648
1875.45 1104852 1142276 1181128 1204452 1172972 1127868
1881.23 1106820 1129092 1165988 1201132 1213806 1233388
1887.02 1255744 1283718 1272638 1239862 1230388 1233318
1892.80 1253732 1295150 1316786 1305218 1288110 1276654
1898.59 1288812 1305748 1328848 1354900 1387760 1441270
1904.37 1493824 1554384 1582298 1584764 1601414 1639616
1910.16 1688078 1756886 1849162 1953854 2054794 2192590
1915.94 2352592 2539084 2672712 2815946 3003018 3221574
1921.73 3463348 3695374 3925660 4179622 4457570 4755352
1927.51 5069352 5401028 5758116 6144994 6543718 6908888
1933.30 7148120 7326754 7551298 7836196 8128444 8403510
1939.09 8676096 8933374 9149136 9272168 9296964 9260258
1944.87 9150750 9048658 8965976 8906490 8846938 8753942
1950.66 8554236 8288450 7955022 7465382 6985572 6634270
1956.44 6329428 6001348 5604846 5182438 4715416 4228904
1962.23 3728698 3238396 2765630 2353028 2005988 1725968
1968.01 1499894 1312966 1161964 1042356 948770 885574
1973.80 836386 808870 780366 742232 705674 696236
1979.58 691924 676232 650662 642222 629956 625422
1985.37 620192 624928 628756 625458 622646 635920
1991.15 646614 627056 602492 599714 608184 612024
1996.94 597026 607116 620784 620750 625868 624078
2002.73 617350 617744 620302 625588 626292 636776
2008.51 648170 660598 652246 655220 669062 677584
2014.30 680024 695376 709726 714722 710582 728170
2020.08 764778 798334 811078 828526 856582 889898
2025.87 902150 929962 965020 986654 1035580 1108496
2031.65 1169426 1239734 1327596 1428456 1531970 1643602
2037.44 1733150 1846764 1984096 2141812 2301990 2477202
2043.22 2668050 2855558 3020844 3200594 3371058 3551902
2049.01 3747554 3917020 4051648 4192450 4331932 4472742
2054.79 4620866 4783626 4949658 5099170 5222542 5295532
2060.58 5238762 5004480 4666272 4448494 4380830 4393502
2066.37 4415312 4405954 4288662 4065312 3790918 3489186
2072.15 3167670 2840714 2570772 2385384 2263876 2171082
2077.94 2084042 2060224 2078912 2131796 2136572 2144374
2083.72 2177974 2264026 2343944 2405356 2542268 2743730
2089.51 2950010 3013784 2970708 2889790 2815582 2707624
2095.29 2570902 2540758 2605948 2712792 2701746 2720564
2101.08 2777502 2849276 2778050 2668622 2629404 2658854
2106.86 2615172 2488342 2462974 2533952 2621522 2567034
2112.65 2525228 2514260 2512936 2383600 2291934 2331512
2118.43 2470552 2440036 2333544 2303522 2337806 2240582
2124.22 2045224 1959074 1957930 1914338 1779560 1713688
2130.01 1686190 1635886 1512288 1456890 1444992 1431454
2135.79 1359446 1333350 1337460 1354998 1348484 1368954
2141.58 1406912 1467754 1527976 1632446 1763824 1884898
2147.36 1980688 2108858 2279252 2461536 2625660 2847962
2153.15 3143376 3432906 3678012 4011620 4411514 4752758
2158.93 5056124 5506122 6013598 6410322 6779074 7293228
2164.72 7787274 8151294 8542518 9072006 9497600 9778794
2170.50 10097200 10501550 10720160 10877290 11252070 11646920
2176.29 11765830 11790500 11871520 11813730 11535220 11303620
2182.07 10917280 10308550 9832884 9577466 9254428 8767636
2187.86 8233410 7646488 6918422 6154504 5454908 4764514
2193.64 4083484 3582794 3218224 2837694 2493912 2280134
2199.43 2050632 1821638 1674180 1545750 1394024 1303952
2205.22 1253008 1179792 1120530 1124574 1092472 1054760
2211.00 1063416 1076048 1064532 1092656 1118670 1142234
2216.79 1169266 1218648 1263054 1310190 1339118 1332522
2222.57 1309084 1326710 1353578 1348350 1287900 1232364
2228.36 1222008 1248090 1282782 1303814 1293764 1275372
2234.14 1234312 1193244 1149938 1109356 1060804 1029256
2239.93 1013444 1023260 1044602 1065412 1082294 1111490
2245.71 1113490 1106778 1124442 1158460 1183778 1242866
2251.50 1307204 1366018 1427380 1509190 1562978 1619900
2257.28 1662682 1718662 1786434 1851472 1894934 1966284
2263.07 2052328 2167866 2316098 2469412 2573692 2646794
2268.86 2646674 2595742 2551568 2576582 2638522 2740752
2274.64 2824292 2868972 2863836 2837184 2797190 2774916
2280.43 2755336 2746200 2729158 2695878 2628690 2558522
2286.21 2470042 2387708 2320832 2279998 2234578 2206458
2292.00 2185124 2171788 2135080 2078514 1994254 1918352
2297.78 1845722 1791092 1737090 1708248 1668056 1629340
2303.57 1570658 1518946 1439858 1372188 1305114 1241166
2309.35 1199220 1174958 1145654 1098090 1080780 1021406
2315.14 977430 910292 880210 837338 807202 753966
2320.92 725222 685586 678126 653264 655618 633426
2326.71 610012 604336 621444 626202 645398 666876
2332.50 688844 728288 762956 793720 843590 893616
2338.28 940380 1003116 1091328 1193316 1273122 1349580
2344.07 1435334 1530416 1643922 1767044 1857062 1913134
2349.85 1939324 1950472 1956980 1992468 2019264 2038150
2355.64 2034358 2046068 2068162 2100544 2131784 2155448
2361.42 2159934 2160300 2134316 2125756 2125936 2139874
2367.21 2137532 2148638 2157296 2148882 2120558 2107638
2372.99 2070714 2043250 2017744 1984868 1938960 1931398
2378.78 1914936 1881962 1848490 1840204 1834160 1833108
2384.56 1829746 1835414 1806794 1766322 1710424 1664388
2390.35 1614506 1576950 1531820 1511058 1483472 1457836
2396.14 1432854 1422142 1406750 1394900 1374006 1362138
2401.92 1345982 1342262 1339484 1356138 1366122 1364126
2407.71 1361982 1386154 1397036 1426752 1433956 1451756
2413.49 1458018 1458726 1449660 1479684 1466816 1428442
2419.28 1386928 1380906 1362060 1343296 1323908 1301472
2425.06 1248528 1191064 1117452 1031290 950076 880384
2430.85 793796 746996 687694 645054 606668 590796
2436.63 563578 541642 532146 528936 506580 491004
2442.42 466574 458010 449174 446698 444008 452784
2448.20 446498 447008 436266 454590 467508 487270
2453.99 502130 539390 554626 580108 602680 629572
2459.77 644926 670158 681154 710314 729010 745482
2465.56 763888 797874 799720 824874 851030 866898
2471.35 866222 889944 903334 940272 948888 937232
2477.13 912462 918302 900424 895074 886302 891086
2482.92 872092 851582 814830 790970 766122 766998
2488.70 758128 730412 677844 661890 646170 634630
2494.49 602362 594654 569240 569144 560084 548688
2500.27 531354 527376 509420 494336 460770 460242
2506.06 445320 449396 445442 431992 405818 409490
2511.84 403148 385526 361780 378934 381212 379906
2517.63 389462 407224 403912 410482 397800 405784
2523.41 404536 414732 418800 431304 454096 464004
2529.20 453054 481856 499716 500208 511652 543802
2534.99 576220 621052 652564 707264 721376 751706
2540.77 789376 836106 861710 900972 939888 976748
2546.56 1009422 1052114 1066290 1096442 1130792 1169894
2552.34 1200166 1261086 1303910 1355240 1399484 1463926
2558.13 1515248 1573142 1615148 1692056 1762780 1828008
2563.91 1886914 1975798 2050586 2147004 2237942 2330062
2569.70 2423468 2526370 2587468 2680020 2765086 2868374
2575.48 2956910 3083570 3205736 3332902 3418398 3518794
2581.27 3650442 3830762 4000730 4143472 4234066 4302416
2587.05 4306210 4299104 4265252 4238964 4225594 4276686
2592.84 4341738 4429632 4492360 4557350 4618100 4681922
2598.63 4692676 4705882 4711468 4741400 4759538 4798600
2604.41 4821066 4873250 4922628 4981524 5015616 5058310
2610.20 5099180 5132496 5159708 5216028 5258800 5305034
2615.98 5345186 5408844 5447124 5459940 5426302 5441904
2621.77 5454178 5475126 5451814 5412694 5335240 5261244
2627.55 5168028 5104752 5018866 4971496 4925154 4899754
2633.34 4872816 4837928 4764008 4698538 4632678 4616360
2639.12 4606392 4641950 4636934 4647356 4633668 4605048
2644.91 4549092 4505136 4427768 4373636 4333936 4352270
2650.69 4350786 4349846 4329376 4332330 4306842 4263498
2656.48 4194340 4146190 4105236 4107552 4080454 4053738
2662.27 4013822 3974180 3911830 3862262 3782352 3726128
2668.05 3680472 3663494 3616794 3597754 3566976 3562282
2673.84 3516886 3488990 3477168 3465426 3431798 3409218
2679.62 3374006 3350288 3318802 3313930 3278888 3287414
2685.41 3250914 3223852 3203678 3216548 3190566 3168882
2691.19 3149392 3173238 3166934 3179892 3179680 3185894
2696.98 3183684 3232040 3264440 3326574 3379180 3462128
2702.76 3538238 3647636 3755150 3886278 3990902 4110568
2708.55 4231402 4388806 4551946 4732398 4904674 5144424
2714.33 5390550 5680604 5924848 6153710 6337524 6534574
2720.12 6685758 6835854 6931264 7060616 7235502 7449802
2725.91 7600318 7668506 7666894 7677640 7669404 7709924
2731.69 7721404 7724810 7701930 7715294 7722466 7730902
2737.48 7674770 7577146 7451010 7356522 7237938 7136128
2743.26 7024816 6959246 6923330 6905804 6852930 6790974
2749.05 6663266 6510072 6307136 6169170 6084506 6061476
2754.83 6013296 6012234 6022092 6076268 6099670 6128458
2760.62 6131350 6154618 6161082 6171136 6141646 6164040
2766.40 6167012 6231416 6287926 6363876 6435246 6533546
2772.19 6636048 6750856 6802212 6857392 6864670 6920858
2777.97 6966210 7082950 7207786 7419530 7657352 7939000
2783.76 8187300 8431060 8644134 8899976 9156776 9459352
2789.54 9739312 10071360 10411040 10812920 11207620 11643260
2795.33 12109130 12673300 13287100 13988570 14722180 15623480
2801.12 16603770 17742460 18945310 20293090 21777360 23607860
2806.90 25906910 28829060 32300750 36312170 40696810 45647860
2812.69 51256180 57619440 64554520 71947690 79545330 87090820
2818.47 94228110 100940400 107234900 113594600 120642200 130084200
2824.26 144007600 161084700 171930500 170154700 160276800 151172900
2830.04 147995200 152372300 165031300 183548300 199864800 203928100
2835.83 191840400 171495800 152848200 140379400 133894300 131304900
2841.61 130332300 129216600 126525000 121757600 114957200 106650100
2847.40 97496530 88303540 79471140 71507120 64655270 59103440
2853.18 54772140 51696530 49656690 48543230 48175210 48575200
2858.97 49477420 50916570 52695050 54823710 57174290 59850150
2864.76 62768980 65996780 69486650 73338040 77462430 82013140
2870.54 86817290 91865180 97113390 102628500 108149900 113682000
2876.33 119006500 124341300 129638400 134940000 140111600 145270500
2882.11 150267200 155168900 160099200 165331400 170874300 177013000
2887.90 183720300 191288300 199527700 207965900 215699700 222733000
2893.68 228939200 234694100 240482200 246379500 252042200 257646600
2899.47 262980300 268137800 272927700 277676400 282507800 287367000
2905.25 291353800 293814900 294879800 295427500 296404800 298852600
2911.04 302789100 307773200 313148100 318144000 321584200 322765200
2916.82 321522800 318589900 314177900 309350600 305088700 302396500
2922.61 301351900 301702100 302335700 302615800 302246100 301654000
2928.40 301196400 301522100 302494800 304345200 306676800 309335500
2934.18 312037700 314999700 317845100 320810200 323602300 326502400
2939.97 329522200 332666400 335438400 337632200 339163600 340816600
2945.75 342614100 344981500 346990600 347919200 346531700 342945500
2951.54 337391100 331342100 325727700 322084900 320739700 322291300
2957.32 326332000 333413600 343381200 357373700 375675600 398566600
2963.11 425279500 455473900 487189900 521335600 558122800 597811800
2968.89 639076100 682257400 726536300 774435000 825884900 887274900
2974.68 964780200 1034064000 1027215000 964551100 953785400 1007013000
2980.46 1037528000 1037366000 1088767000 1193903000 1273557000 1281183000
2986.25 1195742000 1046814000 915354400 824696400 767879600 730063200
2992.04 700312600 669017200 632543100 588937900 540040600 487151000
2997.82 433113800 379182500 328006700 280284100 237517200 199749300
3003.61 167608800 140264400 117811200 99256860 84364460 72220360
3009.39 62717380 54935260 48890500 43924850 40088460 36812060
3015.18 34230850 31922020 30097750 28378170 27007080 25663240
3020.96 24588690 23514370 22657980 21770800 21060090 20233350
3026.75 19600220 18925310 18397390 17798390 17330750 16798900
3032.53 16421780 15983960 15660710 15235390 14915790 14536570
3038.32 14276090 13944280 13743790 13419300 13188020 12923440
3044.10 12724540 12464190 12317150 12093700 11969730 11792270
3049.89 11680550 11538070 11474580 11289540 11218990 11103440
3055.67 11057980 10966840 10932410 10829560 10823920 10754680
3061.46 10757550 10732330 10748600 10688220 10709740 10660070
3067.25 10625060 10529890 10520010 10455520 10411000 10310430
3073.03 10274410 10182340 10133550 10018810 9942794 9802840
3078.82 9694148 9534358 9432184 9257978 9127510 8954654
3084.60 8811238 8617368 8496310 8298634 8145584 7957778
3090.39 7825154 7667400 7539400 7360874 7249694 7104616
3096.17 6996616 6811382 6688324 6563538 6481278 6362430
3101.96 6299244 6208718 6136314 6009058 5961496 5904458
3107.74 5887294 5822820 5774250 5675602 5648040 5616122
3113.53 5654670 5622188 5589544 5549534 5567164 5553488
3119.31 5558824 5539396 5567326 5526538 5548718 5557032
3125.10 5579522 5603532 5689814 5706102 5744766 5763694
3130.89 5821100 5865972 5938688 5959250 6049550 6126676
3136.67 6216230 6287542 6377084 6428938 6513112 6584988
3142.46 6674374 6710046 6786092 6821970 6852582 6861394
3148.24 6905450 6933594 6968986 6949634 6925834 6857388
3154.03 6866218 6858332 6856980 6793968 6773468 6724142
3159.81 6657848 6588988 6552738 6477424 6446200 6362108
3165.60 6327352 6285870 6289662 6244456 6233628 6227630
3171.38 6252894 6215906 6216432 6213410 6236880 6215768
3177.17 6256822 6288994 6328350 6337914 6359054 6363698
3182.95 6408476 6441902 6486192 6488806 6520952 6527094
3188.74 6544894 6556050 6606722 6614856 6613312 6597920
3194.53 6650226 6655440 6649250 6607106 6581426 6570506
3200.31 6582838 6564494 6558212 6533682 6517050 6492198
3206.10 6496014 6484006 6507808 6513128 6513480 6484010
3211.88 6524530 6547572 6575784 6625676 6712600 6752746
3217.67 6813184 6877212 6971388 7049338 7137208 7194200
3223.45 7296696 7389932 7501732 7565592 7595562 7625128
3229.24 7664498 7677708 7706862 7716020 7756544 7717894
3235.02 7661826 7610008 7575266 7508218 7447378 7338940
3240.81 7228662 7079244 6935082 6786650 6652276 6484900
3246.59 6325954 6130148 5929200 5706114 5519588 5312484
3252.38 5119726 4931788 4765114 4520862 4301708 4105426
3258.17 3933946 3764786 3617866 3424102 3268454 3113642
3263.95 2994652 2836516 2707526 2600486 2490012 2348528
3269.74 2245916 2131862 2047938 1975664 1924758 1857170
3275.52 1801554 1723626 1680148 1638804 1607084 1549618
3281.31 1499076 1457126 1444844 1427806 1424678 1364564
3287.09 1315688 1275580 1251026 1253682 1263976 1257850
3292.88 1253934 1245558 1243378 1249974 1270884 1276774
3298.66 1298942 1331336 1380710 1435752 1511614 1562260
3304.45 1602538 1638940 1708582 1758762 1832692 1901436
3310.23 1948456 1978856 2053376 2139126 2239046 2297626
3316.02 2380576 2419672 2459870 2480682 2463052 2460468
3321.80 2442806 2389164 2377680 2385368 2412414 2427782
3327.59 2478046 2499510 2461618 2382234 2348056 2312312
3333.38 2275034 2220070 2176436 2130556 2110116 2095520
3339.16 2090494 2040918 1985650 1973752 2044490 2062386
3344.95 2048548 2025694 1997338 1905094 1825068 1773712
3350.73 1725954 1707910 1698154 1635662 1617964 1580654
3356.52 1521318 1458714 1419682 1402154 1392196 1338868
3362.30 1312106 1270832 1248034 1208722 1186008 1184296
3368.09 1188896 1210952 1266022 1300058 1332054 1328508
3373.87 1381458 1447062 1508396 1580458 1660716 1701278
3379.66 1782954 1854470 1948542 2038106 2141992 2259800
3385.44 2353466 2375518 2377170 2368396 2374682 2360050
3391.23 2344540 2299800 2290678 2291184 2309680 2260472
3397.02 2170486 2064206 2013906 1955328 1871910 1790042
3402.80 1752346 1643324 1567006 1528656 1483846 1429698
3408.59 1352030 1255082 1196304 1137788 1114036 1077910
3414.37 1056576 1050572 1084470 1091204 1108032 1113356
3420.16 1116460 1150474 1203328 1222356 1263972 1291280
3425.94 1334056 1372216 1435376 1499558 1570524 1585874
3431.73 1607590 1597194 1600112 1642324 1677370 1703136
3437.51 1721638 1694368 1698264 1698050 1660064 1638382
3443.30 1598296 1527876 1511976 1466288 1402276 1325560
3449.08 1268458 1192416 1150350 1126536 1107818 1054086
3454.87 999462 937262 888624 864430 835896 800720
3460.66 817792 830570 842964 821894 806286 782338
3466.44 798034 826720 855726 897580 916476 924890
3472.23 958976 996052 1009764 1045096 1123582 1195458
3478.01 1238270 1242096 1242054 1241804 1251658 1221558
3483.80 1214096 1191906 1157198 1132942 1133524 1088368
3489.58 1047618 1026554 1019852 1000778 947152 877016
3495.37 836872 771062 732346 686544 652658 603036
3501.15 558284 503636 472938 457012 411934 346158
3506.94 336850 323266 308888 279766 266354 243820
3512.72 213730 167890 157406 186742 191242 155154
3518.51 153524 131354 141970 145496 166946 157196
3524.30 113882 89662 107520 105016 117086 101466
3530.08 111716 78292 62858 75014 90732 105698
3535.87 117290 109112 120284 101078 95050 92560
3541.65 85868 75296 105398 101722 132618 142994
3547.44 104642 76688 91776 124456 113248 75568
3553.22 82932 89346 88448 92428 100512 94296
3559.01 74810 71740 80152 70360 85254 98108
3564.79 144140 163464 166892 133580 72168 39290
3570.58 48490 41520 36306 56746 68788 53748
3576.36 45770 86048 102726 62178 48158 54288
3582.15 45860 55594 107832 153468 154284 164476
3587.94 191022 111636 68186 76978 105218 86652
3593.72 92144 102498 70564 68824 95880 108742
3599.51 132038 135828 113382 98658 77654 87360
3605.29 159134 186482 187786 267704 202868 126892
3611.08 212186 228834 200572 187502 148006 156620
3616.86 180296 225580 280690 170112 124860 107926
3622.65 100800 93074 109840 128648 226376 389382
3628.43 454826 286798 142566 120382 148318 153594
3634.22 95018 75710 86104 105044 115100 94070
3640.00 97968 88034 99206 100322 116842 139910
3645.79 244458 281498 365100 428160 314718 220606
3651.57 116762 83894 93992 217048 300206 181274
3657.36 107488 96314 85164 99148 109002 132776
3663.15 149476 145260 153960 161466 232784 322978
3668.93 416860 530368 327622 212674 285938 480986
3674.72 605970 448618 275170 276246 305604 267378
3680.50 228852 238708 249240 267362 283284 323346
3686.29 431304 712930 607242 438340 489572 417714
3692.07 350684 361522 394540 398198 394814 407478
3697.86 430128 440624 497068 578684 549888 501168
3703.64 487714 499252 494520 513120 604582 701800
3709.43 653634 731996 833934 633778 528650 514660
3715.21 459114 413384 443326 446038 395016 399502
3721.00 475942 442684 384414 398208 423378 428586
3726.79 380222 331090 314224 368260 534332 568522
3732.57 417074 473398 511332 574178 522108 415310
3738.36 362426 351484 344920 347560 512638 966644
3744.14 931548 468610 376210 465630 724464 708124
3749.93 523282 749102 671978 374528 331924 358974
3755.71 390722 355478 388788 480726 437836 368170
3761.50 384160 389806 401032 444576 450752 424946
3767.28 436972 508472 571070 469026 433800 438932
3773.07 463340 471378 491462 502334 506694 559704
3778.85 607528 565116 567364 594490 594366 578016
3784.64 593396 619584 639430 620476 630718 629794
3790.43 597812 590512 623512 609076 652058 724746
3796.21 711578 670380 683992 783256 1060840 1006868
3802.00 770544 694166 661908 762872 937534 834764
3807.78 706824 731854 702908 707166 721116 745868
3813.57 811074 1096646 1157894 888184 845208 896670
3819.35 1028990 1140878 1052762 903518 908202 951670
3825.14 997382 1016208 998686 998708 1004500 1072732
3830.92 1141090 1085732 1100984 1183056 1138854 1195602
3836.71 1483030 1340914 1149702 1176352 1147818 1089676
3842.49 1122860 1095896 1025866 1006926 990788 996696
3848.28 991646 1001952 1190542 1408946 1466552 1700990
3854.07 1363268 1013786 1021770 981554 943562 965584
3859.85 1020636 1066248 1057546 1098946 1219398 1214994
3865.64 1090028 1112896 1201416 1372922 1406288 1223190
3871.42 1207906 1342106 1428182 1380256 1376546 1402348
3877.21 1448404 1557658 1647868 1624492 1601754 1644726
3882.99 1697506 1837314 1963198 1863202 1846260 1908534
3888.78 1965704 2090962 2147876 2073756 2110160 2144852
3894.56 2132708 2129390 2185552 2288768 2390574 2369878
3900.35 2459872 2532632 2530264 2631364 2603244 2546854
3906.13 2551154 2586164 2631208 2669638 2715342 2774918
3911.92 2825572 2866602 2911320 3001360 3071260 3044380
3917.70 3016128 3071546 3106082 3069662 3067696 3129810
3923.49 3184872 3181196 3132490 3109894 3078722 3042972
3929.28 2948546 2885188 2866248 2797630 2752758 2730910
3935.06 2653220 2606536 2529096 2425880 2372180 2316534
3940.85 2256036 2221510 2149360 2077334 2065426 2072482
3946.63 2062604 2044036 2004108 1994252 2018548 2046548
3952.42 2066560 2061394 2070566 2106720 2154084 2183844
3958.20 2186460 2189066 2220504 2245732 2251158 2271332
3963.99 2269730 2284446 2326846 2370170 2394118 2429086
3969.77 2457520 2474092 2480974 2506302 2541726
##END=
