##TITLE=Methyl tert-Butyl Ether
##JCAMP-DX=4.24
##DATA TYPE=INFRARED SPECTRUM
##CLASS=IUPAC A
##ORIGIN=NIST, Anayltical Chemistry Division, 301-975-3108
##OWNER=COPYRIGHT (C) 1998 by the U.S. Secretary of Commerce
##DATE=98/10/1
##$SPECTRA VERSION=1.00
##$UNCERTAINTY IN Y=2.1 % relative (B=1.1E-04,C=7.8E-10,D=2.7E-14)
##CAS NAME=tert-Butyl Methyl Ether
##CAS REGISTRY NO=1634-04-4
##MOLFORM=( C H3)3 C O C H3
##MP=-109 C
##BP=55.2 C
##$NIST SOURCE=QUANT-IR
##SPECTROMETER/DATA SYSTEM=IFS66V (Bruker)
##INSTRUMENT PARAMETERS=KBr Beam splitter; MCT Detector; Multipass cell
##STATE=gas
##SAMPLE DESCRIPTION=MTBE Primary Gas Standard
##PRESSURE=101.3 kPa
##TEMPERATURE=23 C
##SAMPLING PROCEDURE=1 L/min Flow
##RESOLUTION=1.9290
##DATA PROCESSING=Triangular Apodization
##XUNITS=cm-1
##YUNITS=(micromol/mol)-1m-1 (base 10)
##XFACTOR=1.0
##YFACTOR=9.0949E-13
##DELTAX=0.9645
##FIRSTX=574.687
##LASTX=3974.595
##FIRSTY=5.66E-08
##MAXX=3973.63
##MINX=574.69
##MAXY=.0011276
##MINY=-1.94E-07
##NPOINTS=3527
##XYDATA=(X++(Y..Y))
574.69 62236-46508 44742 95732-33656-57760
579.51-165922-184728-239360-213910-39554-102182
585.29-231278-239754-191000-13938 73412 63696
591.08 19948-35898 107708 177274 63278 47042
596.86 96152-6968-80054 45074 102848 91872
602.65 117258 96042 76540 68232 62900 36970
608.44 132836 178444 89382 116942 113144 126290
614.22 113912 56716 80522 105128 109834 104504
620.01 103014 110844 130542 122770 129916 113240
625.79 126928 181262 147396 147574 173802 155956
631.58 147702 143124 142056 124562 115696 110258
637.36 128150 173744 192218 177666 118154 135220
643.15 173692 144000 177964 178132 120874 131218
648.93 152190 144332 153794 192342 192940 181294
654.72 158058 152528 173582 197474 218062 180990
660.50 173688 209752 216138 191326 196760 196170
666.29 30546 54924 224276 238996 278990 312894
672.08 352138 446100 450796 451674 533000 531892
677.86 524474 555982 575678 614828 651934 663736
683.65 631814 645976 744518 744524 772486 823298
689.43 850956 896900 943010 1022786 1121370 1263176
695.22 1434420 1648268 1855328 2150308 2551710 3030148
701.00 3644186 4372600 5258826 6315952 7524638 8888916
706.79 10426780 12190050 14097560 16060230 18052790 19987140
712.57 21802430 23416430 24733540 25734330 26436490 26952810
718.36 27434570 28281380 30199400 33884530 39861420 47537260
724.14 52032830 47277520 38092870 31865200 28642990 27421500
729.93 27541210 28311000 29016440 29190700 28596180 27239420
735.71 25257490 22842590 20214800 17497440 14889190 12537540
741.50 10386940 8555114 7052582 5770498 4733236 3923268
747.29 3329060 2866090 2459068 2172630 1958834 1799174
753.07 1695484 1587868 1510554 1462642 1433884 1449258
758.86 1431708 1408354 1400292 1415464 1428308 1417668
764.64 1386400 1353562 1377846 1384658 1411442 1425896
770.43 1429748 1434434 1397264 1402308 1399332 1372854
776.21 1378996 1377208 1330564 1285316 1293320 1311856
782.00 1310284 1284356 1261758 1254358 1268108 1284400
787.78 1270984 1270392 1257896 1277716 1330480 1316780
793.57 1289854 1306360 1298232 1328254 1386912 1388928
799.35 1403882 1424738 1475524 1514398 1556950 1605174
805.14 1635912 1701910 1732140 1769276 1824746 1890002
810.93 1969274 2041334 2094970 2141310 2240776 2347908
816.71 2445186 2593446 2767442 2956584 3232402 3547250
822.50 3921434 4379930 4918480 5612670 6473052 7455800
828.28 8671914 10188750 11982010 14138090 16709650 19754150
834.07 23219760 27164150 31686680 36727140 42216990 48041100
839.85 54021580 60052020 66037000 71667620 76661220 80940580
845.64 84483540 87434640 89980420 92688520 96890920 103928800
851.42 114587300 128413000 143525400 156072900 156170300 136255000
857.21 111055100 96677940 90734980 89387980 90934840 93032560
862.99 93859140 92426060 88338420 81889740 73917380 65046240
868.78 55863950 46943540 38732560 31475050 25270450 20087480
874.57 15861830 12514910 9896082 7858580 6306312 5128068
880.35 4209670 3532082 3046104 2684852 2401004 2190952
886.14 2041576 1912064 1814248 1771424 1740064 1715422
891.92 1677906 1667032 1672714 1653454 1648488 1621140
897.71 1601528 1602568 1646188 1718818 1789112 1888620
903.49 1985944 2080770 2104728 2026962 1906908 1785234
909.28 1685120 1648878 1660898 1660120 1670280 1699420
915.06 1718710 1720222 1720642 1711010 1689122 1643364
920.85 1585972 1553924 1521000 1479382 1446964 1427782
926.63 1408506 1388456 1381574 1380446 1366262 1347578
932.42 1350842 1347086 1325640 1318846 1306752 1298444
938.21 1313558 1308028 1300860 1311062 1348974 1375484
943.99 1374714 1388248 1383026 1375112 1383694 1385630
949.78 1388600 1413360 1429472 1430788 1448122 1484592
955.56 1500944 1510456 1522106 1546656 1591702 1621102
961.35 1646012 1684084 1729046 1765458 1811774 1890788
967.13 1954826 1986596 2035000 2128024 2223284 2287950
972.92 2365960 2463170 2566580 2680136 2765800 2849768
978.70 2963482 3105662 3227984 3319812 3410174 3513996
984.49 3651176 3777260 3906926 4051274 4206398 4383254
990.27 4578344 4787418 5016526 5272556 5562212 5932874
996.06 6370648 6861268 7426374 8109300 8898970 9776536
1001.85 10785370 11971320 13297450 14753680 16387100 18238720
1007.63 20242520 22357380 24566710 26767440 28922310 31022450
1013.42 32956290 34679100 36100730 37155150 37699220 37665620
1019.20 37315360 37701090 39337120 42934880 47186080 44372840
1024.99 37439360 33975050 32872130 32799010 32896770 32760450
1030.77 32124860 30893390 29111830 26960110 24580640 22107520
1036.56 19685570 17421930 15409130 13690780 12290580 11203720
1042.34 10402990 9845676 9460742 9248746 9172242 9234978
1048.13 9399670 9684140 10103110 10593020 11162100 11843100
1053.91 12616070 13477490 14491470 15643430 16972160 18571310
1059.70 20440330 22730940 25377880 28330350 31721360 35653180
1065.48 40227240 45859050 52553180 60031860 68864390 79269130
1071.27 91254300 105082400 120758800 138528000 158764500 182060800
1077.06 207181100 233320800 261365800 290815900 321653800 350817600
1082.84 377939500 405553200 432759600 459117400 483432400 508727600
1088.63 527365700 538367800 550344800 562275600 578091500 599145900
1094.41 621345000 641759700 646726800 629574300 602465300 570335100
1100.20 535049700 508839400 498521100 485841500 464133200 440511800
1105.98 410930200 374897400 335186300 293400600 250811200 210572400
1111.77 174932800 144067900 118560100 97964260 81328710 68387420
1117.55 58516860 50844440 44962320 40214690 36386000 33370040
1123.34 30926210 28939220 27274920 25870370 24725920 23738280
1129.12 22884900 22177260 21657370 21277220 21048680 20907380
1134.91 20741570 20672120 20740390 20912530 21192070 21520810
1140.70 21897930 22355190 22809390 23206770 23594910 23976710
1146.48 24402010 24944380 25541520 26164770 26989310 28065350
1152.27 29270510 30551810 31791070 32599600 32838300 32909920
1158.05 33075100 33400640 33903960 34539240 35211320 36018920
1163.84 36986780 37890080 38757200 39682290 40554520 41170340
1169.62 41816050 42732440 43914580 45405730 47036400 48852280
1175.41 51050730 53633960 56596070 59830580 63114520 66342000
1181.19 69536140 73073190 77495210 83250740 90667500 99887480
1186.98 110912000 123771900 138482100 155138800 173718900 194255100
1192.76 216587700 240052900 263555400 286443600 309221100 331752000
1198.55 352960000 372375400 390005700 406261000 422001500 439392000
1204.34 462240900 493349100 535142200 583851700 627991800 645892400
1210.12 598455200 523884700 497871400 506289400 521013800 537567400
1215.91 550537000 554434900 548405900 528254700 489970800 446292600
1221.69 401121800 354872000 313990100 279825800 252494500 231144500
1227.48 214296100 201346000 191956400 185417300 181538200 179932600
1233.26 180111100 180052300 177350500 172502200 166292500 158695800
1239.05 150234400 142208300 135743200 131151300 127952000 125101400
1244.83 122965300 121730300 120868300 120446600 120202200 119592000
1250.62 118956600 118460000 117880200 116925300 115359800 113395000
1256.40 111090000 108616800 106360800 104662600 103925800 104273800
1262.19 105381000 106509700 106650700 104629100 99733620 92302420
1267.98 83321470 75358890 69431730 64766910 60860900 57243940
1273.76 53929680 50682760 47457970 43897780 39921670 36204200
1279.55 32866650 29846870 27045860 24448620 22141900 20015840
1285.33 18032810 16271950 14728210 13353660 12138560 11095870
1291.12 10182500 9382686 8691644 8078212 7548918 7073202
1296.90 6637300 6256052 5917944 5629562 5385836 5174098
1302.69 4983498 4806148 4646616 4511100 4405470 4312610
1308.47 4231846 4162750 4094888 4046196 4001644 3955344
1314.26 3927108 3883270 3835052 3809120 3783568 3771792
1320.04 3776808 3774774 3786380 3825944 3870020 3907558
1325.83 3942404 3984682 4063054 4176026 4301276 4460744
1331.61 4664802 4917522 5237570 5645786 6160174 6808944
1337.40 7626370 8653956 9930192 11517970 13533610 16074620
1343.19 19242460 23186500 28040750 33966420 41077840 49486540
1348.97 59270330 70469060 82988340 96610620 111067000 125939400
1354.76 140570800 154221000 166111600 175643500 182490200 186999200
1360.54 190747800 196806700 209814000 235343300 275375700 319466400
1366.33 353729800 370502400 357311100 323639300 283539900 243688200
1372.11 221591900 217114400 221094000 227697600 232715400 233828100
1377.90 230019500 221513600 208891300 193195600 175462300 156832200
1383.68 138321900 121694500 109298500 105540300 113653100 134533200
1389.47 152248600 129564300 85225360 62076950 57001090 59369530
1395.25 64410300 69312430 72402370 72775100 70152080 65057600
1401.04 58249550 50524520 42725980 35495470 29103390 23796800
1406.83 19621640 16484900 14171280 12504260 11350590 10572720
1412.61 10073130 9801404 9685204 9688248 9755184 9955468
1418.40 10252330 10277630 10325440 10531840 10733990 10945940
1424.18 11129070 11340290 11555760 11776790 12023670 12318530
1429.97 12585720 12877670 13178120 13528290 13969340 14628580
1435.75 15431710 16008240 16727060 17828560 18882020 19823390
1441.54 21107450 22788990 24665210 26698300 28842710 31085670
1447.32 33298030 35458650 37704690 39973960 42256700 44574510
1453.11 46994830 49484270 52329030 55526080 59019190 63474760
1458.89 68842410 74721820 80592920 85637370 89302920 91541650
1464.68 92460490 92584660 92512620 92724860 93695130 95836580
1470.47 99277130 102938500 105401600 106132200 104819800 102980900
1476.25 101282900 98462820 95409200 92705530 90148150 87838890
1482.04 85799480 84100510 82640810 81193800 78800060 73393420
1487.82 65641620 58641890 53305470 49188490 45888080 43086150
1493.61 40457460 38001280 35393210 32448840 29653430 26826260
1499.39 24011640 21433510 19036180 16858490 14986000 13541340
1505.18 12257500 10993300 9748232 8785244 8069516 7444984
1510.96 7025556 6621340 6252962 6029202 5837500 5737932
1516.75 5584632 5366286 5305882 5442180 5413876 5180148
1522.53 5007218 4958772 5008350 4916540 4863544 4846958
1528.32 4793866 4795538 4829310 4868028 4986622 5023212
1534.11 4923436 4930660 4955672 5137548 5495894 5542376
1539.89 5374886 5395534 5307492 5160624 5228228 5207968
1545.68 5124964 5162348 5208928 5263446 5281702 5278052
1551.46 5289870 5425660 5589720 5526820 5530838 5856488
1557.25 6219028 6340958 6440918 6295960 6240650 6421760
1563.03 6610680 6845498 7008974 7200580 7387632 7648952
1568.82 7862998 7845664 7860768 7928292 8000016 8128088
1574.60 8577600 8879324 8818536 8953586 9011010 8736954
1580.39 8049118 7347712 7003628 6902726 6886266 6876998
1586.17 6818832 6660124 6390892 6017972 5541878 4998110
1591.96 4458720 3983312 3555944 3178150 2880828 2641290
1597.74 2458162 2320408 2217600 2133126 2080218 2041228
1603.53 2001702 1979340 1958470 1937130 1932800 1945292
1609.32 1943256 1962764 2009326 2032886 2077994 2135442
1615.10 2450506 2578326 2302198 2272752 2319908 2364970
1620.89 2414338 2536018 2643796 2589674 2602058 2702358
1626.67 2819690 2869470 2868536 2861204 2820400 2780908
1632.46 2745252 2847206 3060030 2898490 2723544 2691954
1638.24 2623618 2607738 2583078 2555660 2500124 2428948
1644.03 2474684 2570612 2406320 2259674 2138694 2026298
1649.81 1997498 2269980 2663852 2448840 2032796 1801846
1655.60 1696230 1663038 1618908 1589404 1558358 1546844
1661.38 1623770 1598516 1483940 1457942 1458828 1464316
1667.17 1529102 1663338 1613204 1552402 1556178 1503964
1672.96 1549384 1753504 1762410 1612006 1622880 1657804
1678.74 1739562 1797020 1846628 2012318 2279750 2649118
1684.53 2568022 2341860 2459046 2588318 2741058 2894868
1690.31 3066192 3238474 3450044 3650362 4167566 4522408
1696.10 4340472 4378994 4677484 5135138 5161454 4935156
1701.88 4974010 5120074 5261176 5386076 5518480 5543310
1707.67 5541584 5428130 5150706 4763848 4489494 4429016
1713.45 4522802 4524098 4509694 4627876 4351552 3880236
1719.24 3512690 3177740 2868400 2586078 2319230 2075670
1725.02 1909398 1788834 1687918 1634960 1627852 1582858
1730.81 1560440 1700274 1904752 1860488 1587136 1485512
1736.60 1505706 1525542 1641274 1605308 1495654 1514332
1742.38 1544816 1532870 1506244 1511722 1527998 1564674
1748.17 1568704 1555406 1648094 1558452 1419170 1410746
1753.95 1381124 1416872 1465990 1401590 1360346 1337496
1759.74 1338414 1406466 1330270 1230114 1196226 1167348
1765.52 1158856 1212058 1228918 1135638 1160638 1245428
1771.31 1361630 1299364 1119770 1104570 1075968 1027040
1777.09 1009668 1011234 1035190 1046850 1037546 1043044
1782.88 1082984 1143166 1143184 1152074 1200992 1249504
1788.66 1326116 1427562 1554800 1715916 1721612 1728924
1794.45 1845210 1955122 2091586 2255192 2461216 2621258
1800.24 2773254 2946514 3084836 3220532 3375046 3538728
1806.02 3705064 3863256 4011372 4187062 4360536 4478100
1811.81 4581360 4668478 4707214 4714266 4739608 4773140
1817.59 4782696 4786438 4802926 4792576 4737174 4642526
1823.38 4525286 4328888 4056376 3869232 3743754 3654404
1829.16 3536078 3291780 3063118 2866920 2640906 2408300
1834.95 2180262 1975552 1793216 1645776 1527534 1419394
1840.73 1347534 1292490 1365052 1361676 1206898 1157562
1846.52 1144890 1126092 1099572 1086548 1074320 1056320
1852.30 1037692 1022096 1008904 1010550 1015264 1012030
1858.09 1018034 1011696 1005632 1015784 1030898 1041332
1863.88 1052746 1060654 1093416 1120292 1159704 1166070
1869.66 1118472 1104860 1099148 1105852 1116142 1125540
1875.45 1143724 1174398 1212150 1232078 1207250 1165444
1881.23 1150870 1169302 1205236 1235648 1249458 1266676
1887.02 1288466 1314638 1307106 1276532 1272510 1275158
1892.80 1293468 1332308 1352990 1343338 1331090 1322120
1898.59 1336520 1352964 1377464 1403200 1436594 1488064
1904.37 1538562 1597056 1628792 1633728 1657558 1697162
1910.16 1749636 1816442 1911306 2013184 2116552 2249974
1915.94 2407260 2589464 2724826 2867532 3056600 3267584
1921.73 3506190 3733100 3961862 4212108 4486090 4776444
1927.51 5084672 5406184 5753222 6122436 6503956 6857408
1933.30 7096496 7278124 7504666 7780702 8061964 8322930
1939.09 8583564 8824022 9029830 9144942 9173034 9143802
1944.87 9045862 8949888 8871724 8804970 8738504 8639962
1950.66 8439754 8177944 7865928 7397096 6940730 6598648
1956.44 6294056 5964360 5575736 5162692 4712774 4240606
1962.23 3761948 3288776 2835730 2435144 2098468 1820090
1968.01 1596536 1406574 1255438 1131494 1035704 966846
1973.80 913694 879322 848998 806910 770258 755884
1979.58 750382 730614 705888 695200 683116 675730
1985.37 670530 671796 675772 670324 667172 677024
1991.15 688006 667742 646178 642334 650554 653354
1996.94 638508 647470 661300 658248 665082 662322
2002.73 657208 656860 660658 664478 666652 674920
2008.51 686960 698138 692014 693750 709786 716326
2014.30 720582 734276 750374 755200 754362 770304
2020.08 807256 838024 853028 869694 899478 932402
2025.87 946472 974382 1013770 1034188 1085408 1156618
2031.65 1218214 1286408 1375808 1471978 1575422 1684818
2037.44 1776574 1887852 2025560 2177010 2335596 2502696
2043.22 2690472 2870830 3033470 3208896 3377174 3549566
2049.01 3741874 3904914 4038638 4176980 4315568 4450920
2054.79 4595006 4747342 4904656 5039548 5152052 5214230
2060.58 5166186 4954382 4647748 4447972 4383452 4380072
2066.37 4387382 4366184 4250112 4034756 3778032 3493132
2072.15 3193628 2884242 2631052 2450024 2332536 2237948
2077.94 2153808 2124838 2139382 2184064 2188676 2195272
2083.72 2228146 2309224 2386964 2443164 2570230 2751726
2089.51 2941354 2997764 2961714 2888596 2828386 2730200
2095.29 2609138 2576716 2638706 2732130 2722162 2732966
2101.08 2788142 2851466 2788382 2685266 2649678 2678380
2106.86 2636902 2520528 2493158 2560144 2633888 2584750
2112.65 2537814 2534992 2529234 2417322 2323536 2361832
2118.43 2484302 2455270 2348500 2321764 2352670 2261568
2124.22 2077458 1996284 1996208 1948750 1822648 1755702
2130.01 1734636 1681108 1569528 1511890 1506922 1487810
2135.79 1425756 1397600 1409142 1421376 1422684 1440712
2141.58 1485290 1542944 1607474 1705558 1838518 1955194
2147.36 2056852 2182550 2355990 2535200 2703234 2918096
2153.15 3211784 3493844 3738176 4060436 4457076 4789662
2158.93 5090488 5524172 6023110 6404506 6767044 7263562
2164.72 7750228 8098478 8482114 8990812 9408330 9675874
2170.50 9989662 10384550 10604900 10746800 11108600 11475900
2176.29 11584000 11596570 11681920 11620010 11344830 11126790
2182.07 10772480 10185820 9733528 9475216 9147806 8660710
2187.86 8144388 7578108 6881220 6146540 5483314 4821100
2193.64 4164868 3674006 3318782 2935466 2594274 2379740
2199.43 2150700 1915684 1771724 1638506 1486568 1391118
2205.22 1341022 1260484 1199884 1198838 1166394 1121838
2211.00 1133000 1138906 1126772 1149860 1175874 1192818
2216.79 1220142 1262384 1304316 1343332 1373660 1365332
2222.57 1345440 1358906 1384688 1377470 1324476 1271878
2228.36 1265342 1284386 1316152 1331142 1322252 1303184
2234.14 1267100 1226260 1188678 1148766 1106130 1074890
2239.93 1062454 1067994 1090192 1106222 1123476 1150000
2245.71 1156272 1148008 1170746 1202042 1228852 1282914
2251.50 1348858 1400840 1463478 1539600 1594680 1648270
2257.28 1695646 1746610 1817708 1878900 1926290 1994852
2263.07 2082622 2187180 2329968 2469288 2568868 2636882
2268.86 2646646 2601356 2569968 2593540 2653138 2742548
2274.64 2821992 2859074 2859282 2833270 2800590 2777110
2280.43 2760814 2746326 2731552 2695332 2633890 2565182
2286.21 2485498 2403940 2343220 2299870 2257288 2224372
2292.00 2203958 2184064 2149848 2091644 2014910 1939376
2297.78 1873370 1816414 1765604 1732162 1693818 1651566
2303.57 1595652 1544314 1468708 1403478 1339628 1278012
2309.35 1233664 1211638 1177128 1132770 1111450 1057840
2315.14 1010554 952090 915932 880808 844130 799884
2320.92 766124 733634 720702 700200 697562 681934
2326.71 655128 654550 668342 674420 691526 715014
2332.50 733912 774522 807910 838254 888058 937614
2338.28 984422 1045448 1130368 1228114 1305774 1379898
2344.07 1465828 1555242 1664042 1778916 1866034 1918898
2349.85 1950274 1962348 1973384 2006516 2035228 2052188
2355.64 2053270 2063244 2088296 2114758 2147606 2166116
2361.42 2174042 2173152 2153140 2142696 2146758 2156086
2367.21 2156436 2161666 2173966 2161010 2137462 2122860
2372.99 2091114 2060310 2041072 2005974 1964740 1953828
2378.78 1941442 1905222 1877550 1865212 1861968 1854682
2384.56 1852846 1852874 1828224 1785758 1737608 1689846
2390.35 1646552 1606770 1566512 1542260 1519188 1489648
2396.14 1469324 1454272 1442486 1426816 1410466 1395490
2401.92 1383974 1376500 1376922 1387350 1401680 1394310
2407.71 1397376 1415802 1429140 1452142 1463248 1473510
2413.49 1486010 1480490 1475058 1498150 1490504 1448740
2419.28 1414950 1404258 1389166 1363918 1348274 1320832
2425.06 1272798 1213164 1148620 1060706 988980 918382
2430.85 838476 789818 736558 689772 656534 635344
2436.63 612956 585358 580054 571298 553048 534538
2442.42 515354 502648 498842 490874 492752 496006
2448.20 494916 491558 486524 499304 517208 530318
2453.99 549510 580496 599944 619050 646888 667182
2459.77 687624 707744 723438 746622 771134 780984
2465.56 804518 833152 839696 858294 890396 899220
2471.35 905322 923200 940232 968480 983480 966310
2477.13 949944 951002 939590 928106 925418 923118
2482.92 910544 885530 857330 829438 810788 803926
2488.70 801074 768792 725094 704348 695128 677010
2494.49 651830 639394 620016 613134 610684 592288
2500.27 582176 571610 560606 541006 514482 509420
2506.06 499768 496598 499206 480660 461240 459634
2511.84 459600 438130 420450 432968 440076 432320
2517.63 447614 459130 460556 463720 456642 461094
2523.41 464970 470844 480446 486806 514660 521190
2529.20 514498 540148 563216 559270 578136 604482
2534.99 641236 679434 714228 763880 783716 808840
2540.77 852478 892786 923858 957462 1002436 1032864
2546.56 1070980 1109412 1130190 1155824 1197684 1230996
2552.34 1267332 1322236 1370910 1415890 1467036 1524344
2558.13 1582310 1634782 1683566 1753430 1830730 1888938
2563.91 1954998 2037640 2117462 2205480 2303062 2385216
2569.70 2485036 2580578 2649128 2735396 2828410 2923512
2575.48 3018860 3135230 3261374 3379600 3473580 3567056
2581.27 3702278 3866298 4034050 4162422 4257126 4320280
2587.05 4335528 4328764 4311694 4286114 4285018 4329218
2592.84 4397594 4474012 4541744 4596422 4662728 4718518
2598.63 4738330 4747758 4764268 4788216 4814630 4847562
2604.41 4877300 4921706 4976122 5026958 5067202 5102754
2610.20 5151256 5178126 5211886 5260946 5309086 5346670
2615.98 5392104 5444170 5488654 5495188 5472070 5480706
2621.77 5498908 5508038 5493700 5448096 5385066 5308012
2627.55 5228716 5162450 5088166 5034910 4997914 4961846
2633.34 4943252 4900418 4839664 4770874 4718230 4693692
2639.12 4689380 4712752 4712728 4711382 4707452 4669886
2644.91 4626446 4578004 4514974 4456440 4426286 4433582
2650.69 4437776 4426600 4413696 4407024 4390526 4341312
2656.48 4285794 4233228 4200460 4193864 4173420 4138010
2662.27 4108418 4061670 4010282 3956374 3889610 3827688
2668.05 3792820 3767396 3730044 3703360 3680726 3668802
2673.84 3633442 3597820 3595954 3575056 3551450 3522206
2679.62 3498744 3467342 3447210 3434630 3408718 3409572
2685.41 3385702 3350694 3343010 3346266 3333102 3304680
2691.19 3297874 3313392 3317624 3322210 3336210 3335714
2696.98 3346756 3387802 3430760 3484224 3548062 3621978
2702.76 3708302 3807316 3922932 4043902 4158770 4270590
2708.55 4402784 4549096 4721956 4891234 5071850 5296652
2714.33 5543734 5812550 6059766 6272390 6464926 6649722
2720.12 6810638 6953762 7063732 7183362 7362320 7555534
2725.91 7710598 7770746 7787776 7798444 7804466 7838148
2731.69 7861748 7858772 7849722 7854712 7870050 7868396
2737.48 7826858 7728590 7622310 7528500 7427188 7325318
2743.26 7231392 7159508 7134090 7104512 7061654 6993442
2749.05 6885524 6737650 6563398 6427722 6361960 6331124
2754.83 6297516 6288052 6310348 6352296 6388422 6408368
2760.62 6428678 6443930 6469398 6475120 6466854 6487842
2766.40 6509522 6567584 6641864 6709488 6800198 6888538
2772.19 7007916 7114342 7188040 7244270 7281784 7341538
2777.97 7416666 7533696 7683530 7887932 8143738 8414492
2783.76 8684716 8927140 9170488 9429274 9716212 10022630
2789.54 10335600 10674560 11049300 11458940 11894420 12343500
2795.33 12856110 13433650 14095160 14814440 15600340 16522210
2801.12 17555580 18716900 19986920 21378070 22950080 24823470
2806.90 27180400 30088980 33555890 37513690 41871410 46739190
2812.69 52263920 58455160 65216280 72362820 79755100 87073560
2818.47 94089580 100705300 107029100 113396400 120439200 129383700
2824.26 142167500 157850500 168009100 166730700 158389600 150811700
2830.04 148462400 152521500 163803200 180152500 194608900 198152700
2835.83 187209700 168907200 152161600 140656400 134369300 131455000
2841.61 130033600 128500200 125618700 120865100 114339800 106418400
2847.40 97763230 89039080 80672980 73065070 66527990 61159060
2853.18 56972860 53931470 51923520 50760840 50366900 50680780
2858.97 51530320 52869260 54598410 56637540 58954700 61554480
2864.76 64449090 67602780 71065850 74837080 78914740 83358570
2870.54 88098100 93019350 98188200 103563800 108999300 114414400
2876.33 119692200 124939600 130209500 135433700 140590700 145697800
2882.11 150722300 155612900 160601700 165825200 171390600 177457300
2887.90 184089900 191433000 199443500 207583200 215127900 222013200
2893.68 228215100 233915700 239710800 245518600 251135600 256640700
2899.47 261938400 267013900 271789500 276439600 281178600 285867200
2905.25 289812500 292317800 293638800 294447400 295658800 298121100
2911.04 301938800 306585200 311612800 316212200 319458700 320579600
2916.82 319561400 316966100 313074900 308713200 304918900 302430700
2922.61 301477500 301707400 302291100 302505800 302270200 301781700
2928.40 301516800 301897100 302941700 304704900 307019800 309545400
2934.18 312224900 315074100 317909700 320782800 323596700 326398600
2939.97 329415400 332421700 335214900 337367800 339033500 340686900
2945.75 342539300 344742700 346720800 347575200 346499900 343333400
2951.54 338592000 333302800 328615000 325612000 324944400 326848400
2957.32 331333300 338589600 348832600 362700700 380890000 403152400
2963.11 429287200 458582900 489655200 522826100 558881600 597339000
2968.89 637696800 679577600 722869500 769184400 818870000 875503800
2974.68 946163300 1012329000 1009636000 953558800 946292900 998477000
2980.46 1027242000 1025514000 1072084000 1166808000 1234451000 1239894000
2986.25 1162236000 1026230000 906688400 822629700 766538900 728046700
2992.04 696301600 664105900 627034800 584239200 536373300 485361000
2997.82 433000600 381092200 331454600 285333900 243550200 206727700
3003.61 174949200 147950800 125381000 106784000 91503600 79113290
3009.39 69117980 61021140 54475250 49204020 44904420 41364980
3015.18 38385920 35869560 33711310 31832380 30180390 28717810
3020.96 27402670 26239450 25172440 24216590 23326950 22452970
3026.75 21663760 20955040 20282710 19660840 19065690 18518100
3032.53 18022040 17571160 17138380 16709830 16292020 15915100
3038.32 15561930 15229660 14944260 14625390 14314600 14061800
3044.10 13787410 13537240 13321950 13107550 12916340 12752170
3049.89 12573260 12442440 12319450 12147300 12021880 11920950
3055.67 11816420 11740430 11652840 11564040 11508850 11452940
3061.46 11403320 11390960 11357630 11309070 11284250 11248890
3067.25 11172210 11093960 11042580 10992920 10908450 10825000
3073.03 10750920 10673500 10587040 10488830 10377530 10257060
3078.82 10115750 9975032 9841476 9686628 9524820 9373948
3084.60 9200682 9026564 8877916 8700024 8520642 8354638
3090.39 8192638 8054380 7898982 7739860 7601886 7473454
3096.17 7341136 7176522 7030312 6924282 6815370 6712868
3101.96 6623060 6548750 6453666 6344748 6273868 6230750
3107.74 6185456 6137270 6067520 5988574 5939724 5919314
3113.53 5931448 5913384 5859478 5837054 5831284 5831966
3119.31 5814702 5809578 5818770 5792222 5794708 5819718
3125.10 5819230 5855394 5919566 5947210 5967218 6001882
3130.89 6038096 6095312 6149874 6181656 6252968 6339838
3136.67 6406958 6488832 6559318 6621964 6686882 6767802
3142.46 6838548 6882944 6941832 6989196 7003616 7025878
3148.24 7051836 7089772 7106282 7101306 7066246 7013780
3154.03 7006982 7009742 6991814 6942264 6907080 6874762
3159.81 6792914 6742378 6691708 6630756 6586982 6519554
3165.60 6470154 6443186 6429744 6399764 6371570 6378694
3171.38 6386632 6363590 6349094 6359656 6368270 6358728
3177.17 6384156 6425680 6447652 6469254 6477444 6493322
3182.95 6522948 6564586 6594366 6606758 6626428 6644178
3188.74 6648720 6669328 6704752 6723486 6710844 6705182
3194.53 6744198 6756328 6739792 6712018 6677170 6676264
3200.31 6677042 6666796 6651076 6637614 6611960 6598036
3206.10 6592296 6588878 6600268 6615496 6607310 6588426
3211.88 6619476 6652190 6666940 6724654 6798022 6844940
3217.67 6893874 6965576 7044514 7128164 7203582 7266414
3223.45 7355648 7450026 7545672 7615844 7634082 7673550
3229.24 7701606 7721890 7739638 7752108 7780808 7750780
3235.02 7685756 7645524 7598942 7538834 7468242 7369144
3240.81 7252252 7116094 6965198 6828306 6685354 6527894
3246.59 6361746 6179434 5974172 5765560 5573492 5379872
3252.38 5178290 5000764 4827912 4597882 4375100 4194424
3258.17 4012188 3853450 3698450 3516506 3354266 3209344
3263.95 3082046 2934464 2795768 2698908 2579312 2447734
3269.74 2340134 2235262 2142528 2077306 2015674 1954346
3275.52 1891658 1821122 1769680 1733632 1693154 1643600
3281.31 1586752 1551918 1530466 1515360 1506136 1452036
3287.09 1401230 1369422 1338428 1344238 1347476 1343858
3292.88 1336046 1332620 1326102 1336438 1352808 1362718
3298.66 1380050 1416520 1458014 1514192 1580842 1635124
3304.45 1669130 1710734 1773826 1826624 1890694 1964708
3310.23 2004326 2042178 2107712 2194858 2283244 2342062
3316.02 2417334 2458496 2491236 2519952 2495718 2502272
3321.80 2483180 2437802 2424110 2436152 2454780 2470600
3327.59 2509028 2534240 2492258 2423636 2387448 2358356
3333.38 2315730 2269422 2222200 2183972 2156676 2146040
3339.16 2134146 2094788 2036094 2027662 2086374 2103650
3344.95 2080436 2063802 2032784 1950190 1869826 1829376
3350.73 1773428 1759898 1744784 1685070 1663472 1632830
3356.52 1568970 1517270 1471824 1459528 1442994 1395498
3362.30 1365744 1331298 1304710 1273834 1245954 1252568
3368.09 1249310 1275420 1320950 1357940 1385642 1388620
3373.87 1434796 1505604 1554448 1631284 1703326 1747734
3379.66 1823036 1897434 1981366 2073194 2162440 2279054
3385.44 2360928 2388476 2386802 2387114 2387330 2380336
3391.23 2360284 2324788 2308186 2311648 2318854 2278176
3397.02 2186762 2093366 2037742 1988940 1899082 1825228
3402.80 1785770 1684184 1604170 1573626 1518598 1472706
3408.59 1392582 1306012 1245958 1194032 1164802 1136088
3414.37 1108340 1106876 1132574 1141772 1151878 1165096
3420.16 1160356 1199462 1243876 1265908 1301372 1333980
3425.94 1368968 1412122 1464422 1529596 1591444 1609626
3431.73 1629050 1626364 1623528 1670196 1695336 1722104
3437.51 1737988 1712758 1713394 1718290 1673142 1659452
3443.30 1617182 1551224 1532528 1492052 1424412 1357326
3449.08 1298938 1230558 1183620 1163326 1138250 1089676
3454.87 1034004 980226 927688 910316 877878 846648
3460.66 857974 871282 877496 861556 845430 826332
3466.44 838598 868358 890010 933182 949112 958856
3472.23 990350 1029534 1039824 1075588 1145782 1214144
3478.01 1250104 1258562 1255146 1259314 1265620 1239456
3483.80 1228488 1213444 1173878 1154456 1151144 1110814
3489.58 1067098 1050956 1035754 1021840 964302 902088
3495.37 860622 800508 757946 717718 678490 635042
3501.15 587244 539138 501836 491878 443036 383452
3506.94 370572 359612 339158 314922 296346 279090
3512.72 246618 208298 190340 223458 219726 189266
3518.51 185132 167868 171982 178594 191006 189984
3524.30 141518 126624 137236 138392 143800 132700
3530.08 139056 113104 92382 111256 117278 136558
3535.87 141830 137692 145068 131538 120132 125366
3541.65 112976 106840 132976 129228 153928 169392
3547.44 129000 107842 117460 151146 137528 103524
3553.22 110644 118292 113458 119628 124210 122208
3559.01 100040 101624 106944 100048 111800 124528
3564.79 163764 182378 182062 156974 97386 69868
3570.58 78154 71518 63414 84078 94284 81656
3576.36 70718 110546 125568 87032 74990 85154
3582.15 74244 84758 129526 176216 169164 181598
3587.94 208296 135902 93486 106834 129388 111812
3593.72 114230 130086 95186 96894 121902 131300
3599.51 152846 157752 135808 126584 108294 113048
3605.29 184488 207030 199300 286442 223142 147260
3611.08 236622 246590 215842 214026 169580 186616
3616.86 198456 241174 293646 190438 147676 142482
3622.65 126490 127540 139192 160892 237926 390194
3628.43 450046 295990 166168 152152 171424 178800
3634.22 118992 105958 112176 130824 137452 120132
3640.00 122196 117420 123718 131670 144028 164572
3645.79 265812 290644 366092 429776 320026 241048
3651.57 149742 120522 123468 231116 314374 194354
3657.36 134578 128262 114298 128318 136344 157338
3663.15 176386 169322 187204 185632 262884 333250
3668.93 417830 533530 346502 242382 317140 478788
3674.72 605214 451092 298124 303368 333096 289278
3680.50 260046 265398 282626 290828 320200 347286
3686.29 435580 710386 605418 439586 515150 436560
3692.07 375126 389272 417118 420158 417020 429404
3697.86 454302 459412 510986 588598 561564 516598
3703.64 510516 520604 520286 532086 615520 714916
3709.43 652562 727166 833690 635770 543148 542610
3715.21 480274 439168 464348 470892 416716 419890
3721.00 494716 460194 405066 420800 442006 445762
3726.79 404630 359176 352334 383596 550610 575924
3732.57 433852 491882 527238 575934 540108 431480
3738.36 398552 381636 389908 386230 511094 947608
3744.14 914716 477182 426100 486916 732812 717286
3749.93 513434 756716 679420 390818 372708 390044
3755.71 418396 381966 406002 500336 453284 390350
3761.50 410560 415502 419628 466498 467570 450292
3767.28 453214 523696 581068 486874 454282 467772
3773.07 482498 495148 508838 527138 522218 577242
3778.85 620614 581662 582158 614790 608884 599104
3784.64 609348 637914 653036 637892 644496 651934
3790.43 615654 614966 646004 633482 666090 745758
3796.21 723600 700092 708256 787924 1051424 1002076
3802.00 775114 733600 691044 775456 947830 841572
3807.78 725446 761760 730600 733458 754196 778974
3813.57 819674 1094012 1154658 895700 875960 923584
3819.35 1029108 1144716 1056582 924710 934640 974594
3825.14 1010938 1033454 1013358 1022764 1020958 1087506
3830.92 1153472 1101984 1108880 1209626 1149062 1193498
3836.71 1477280 1336392 1149980 1202054 1162746 1104514
3842.49 1141292 1113400 1048080 1033164 1021886 1022472
3848.28 1036618 1021362 1216348 1400756 1432330 1674014
3854.07 1362792 1025620 1073672 1012310 981316 997872
3859.85 1048946 1091116 1084180 1113808 1235752 1231168
3865.64 1115646 1147254 1219142 1377908 1417504 1244112
3871.42 1235594 1366276 1441098 1397684 1398910 1431688
3877.21 1466786 1572166 1657068 1638816 1619098 1673234
3882.99 1710108 1843182 1966850 1871262 1861204 1933590
3888.78 1969750 2097130 2149474 2080366 2118956 2161104
3894.56 2143724 2152630 2198880 2298848 2398162 2371392
3900.35 2464202 2536200 2523206 2630330 2604480 2552066
3906.13 2566346 2596196 2641866 2676648 2721828 2778046
3911.92 2827990 2867906 2909006 2991998 3061786 3036560
3917.70 3011274 3066290 3101206 3064384 3065258 3120338
3923.49 3171328 3164356 3120332 3098252 3068512 3035256
3929.28 2946372 2882778 2870654 2796714 2754556 2733448
3935.06 2654004 2610246 2539034 2435778 2389148 2332500
3940.85 2271954 2240264 2172374 2101362 2091554 2093958
3946.63 2082402 2065984 2028476 2019212 2041684 2065496
3952.42 2085210 2080562 2089930 2123720 2167130 2195362
3958.20 2199514 2201476 2234054 2256938 2262512 2283910
3963.99 2284844 2297382 2340604 2379534 2403556 2435926
3969.77 2466348 2481736 2492596 2517260 2552258
##END=
