##TITLE=Methyl tert-Butyl Ether
##JCAMP-DX=4.24
##DATA TYPE=INFRARED SPECTRUM
##CLASS=IUPAC A
##ORIGIN=NIST, Anayltical Chemistry Division, 301-975-3108
##OWNER=COPYRIGHT (C) 1998 by the U.S. Secretary of Commerce
##DATE=98/10/1
##$SPECTRA VERSION=1.00
##$UNCERTAINTY IN Y=2.1 % relative (B=1.1E-04,C=7.8E-10,D=2.7E-14)
##CAS NAME=tert-Butyl Methyl Ether
##CAS REGISTRY NO=1634-04-4
##MOLFORM=( C H3)3 C O C H3
##MP=-109 C
##BP=55.2 C
##$NIST SOURCE=QUANT-IR
##SPECTROMETER/DATA SYSTEM=IFS66V (Bruker)
##INSTRUMENT PARAMETERS=KBr Beam splitter; MCT Detector; Multipass cell
##STATE=gas
##SAMPLE DESCRIPTION=MTBE Primary Gas Standard
##PRESSURE=101.3 kPa
##TEMPERATURE=23 C
##SAMPLING PROCEDURE=1 L/min Flow
##RESOLUTION=0.9640
##DATA PROCESSING=Boxcar Apodization
##XUNITS=cm-1
##YUNITS=(micromol/mol)-1m-1 (base 10)
##XFACTOR=1.0
##YFACTOR=9.0949E-13
##DELTAX=0.4820
##FIRSTX=575.169
##LASTX=3975.077
##FIRSTY=5.92E-08
##MAXX=3974.59
##MINX=575.17
##MAXY=.0011913
##MINY=-7.58E-07
##NPOINTS=7053
##XYDATA=(X++(Y..Y))
575.17 65104-83518-380016 89458 214952 444858
577.58-273846-242752 67998 21648-50344-562254
580.47-55486-290414-56100-514298-159332-657158
583.37 61182 194976-302948 77612-46042-834290
586.26-68236-107344-556978-291068-84758-84696
589.15 160680 152444-106054 35106 305716-313464
592.04 128030-192564-267456 275182 269880 210886
594.94 1508 228630-300744 43710 168858 79792
597.83-22148 190350-369256-243124-52036 93058
600.72 19090 228050-69748 112078 6588 154968
603.61 160482-28956 1896 167834-45498 38086
606.51-18726 140782-46796-68678 1786 19758
609.40 323750 267196 57912-126726 102508 122150
612.29 97924 143374-102262 129016 275594-2876
615.18 28446-53932 71002-41668 174510-47638
618.08 148242 92694-3764 129788-5440 148698
620.97-2950 28376 176468 43920 128316 630
623.86 245500-151798 304718 12718 17310 16354
626.76 157352 235984 179046-9474 94006 110974
629.65 184258 50996 208292 127792 27908 124482
632.54 148444 56344 125254 27070 215880 11338
635.43 46246 63276 122132-5610 116578-40600
638.33 165300 189046 126408 71792 275054 120460
641.22 105960 24642-800 105396 100690 219390
644.11 95640 28864 114580 79318 221464 245674
647.00-25112 15670 109136 76350 28532 173384
649.90 96492 37948 138438 25616 118902 191668
652.79 180046 97246 111714 182006 115132 74316
655.68 38546 147400 61870 102440 152866 129070
658.58 124366 235636 124756 187546-46874 119328
661.47 195598 121766 147854 160836 197768 100780
664.36 42984 156372 161256 249944-3574 67762
667.25-492088-46794 159742 309236 139512 19236
670.15 263094 208508 219950 215804 233388 276624
673.04 274992 392340 474536 438438 225958 283450
675.93 486816 505776 495278 373656 488410 363230
678.82 483300 435330 500368 470524 471588 494368
681.72 595326 526704 598458 540872 530486 612628
684.61 398436 417866 578264 831498 534554 637048
687.50 566104 599350 741048 662166 744288 544856
690.40 829100 744898 736350 673122 851700 891582
693.29 784456 934786 959158 1081688 1124842 1173272
696.18 1283220 1450400 1593838 1482618 1674856 1863248
699.07 2121290 2184650 2474138 2697430 3046326 3216702
701.97 3716616 4114808 4309916 4963548 5445432 6063736
704.86 6503328 7188388 8070508 8461934 9422248 10176730
707.75 11011160 12084880 12964860 14038860 15138100 15918900
710.64 17219610 18156820 19167970 20260920 21134060 22043580
713.54 23084410 23791450 24478720 25092670 25798160 26069040
716.43 26416150 26741780 27032330 27039810 27181020 27480390
719.32 27551300 27798020 28502590 29702960 31209970 33410800
722.22 36220590 40209340 44944840 50072140 54882070 58424120
725.11 56818290 50434150 42884810 37621340 33725150 30990100
728.00 29062070 27664140 27133550 26812360 26774610 27375190
730.89 27837130 28594280 29050900 29626000 29894620 29926960
733.79 29850650 29437110 28727620 28018580 26992000 25812180
736.68 24597240 23201810 21847720 20407560 18964230 17565930
739.57 16019690 14635470 13543710 12313570 11121850 9978572
742.46 9056690 8091332 7318672 6718094 5948608 5255090
745.36 4810300 4284470 3873790 3463484 3167732 2949546
748.25 2723172 2519956 2341464 2051306 1922744 1922296
751.14 1708170 1680738 1583890 1469226 1503930 1469504
754.04 1405538 1304068 1334434 1253196 1263060 1260320
756.93 1244312 1156722 1245182 1340828 1191848 1348624
759.82 1163984 1209806 1276844 1236008 1200268 1184132
762.71 1393554 1273214 1200276 1304068 1261702 1309644
765.61 1103916 1205554 1175982 1294172 1245136 1178890
768.50 1271054 1268054 1316894 1288996 1295898 1250652
771.39 1328380 1357344 1293708 1179140 1288528 1217466
774.28 1376480 1239026 1204786 1272886 1224068 1216176
777.18 1277898 1293808 1192218 1226994 1118786 1155986
780.07 1081504 1172772 1182414 1160784 1189624 1179368
782.96 1162426 1144790 1141016 1040576 1160424 1118154
785.86 1053832 1101228 1186638 1155022 1103652 1099978
788.75 1155214 1075654 1138402 1109146 1049378 1073926
791.64 1190766 1225194 1149758 1199546 1109748 1071030
794.53 1146754 1115962 1208472 1044514 1118686 1115342
797.43 1180858 1283132 1250452 1079692 1258164 1238124
800.32 1182564 1234788 1204164 1291228 1334640 1326108
803.21 1237014 1393990 1358260 1454154 1346792 1401856
806.10 1403046 1571886 1440334 1536544 1470654 1455960
809.00 1645140 1534270 1555934 1605110 1730818 1660184
811.89 1708192 1782186 1797714 1795872 1789610 1789532
814.78 1861662 1861936 2024148 1939858 2094524 1977742
817.68 2146418 2169258 2293658 2325174 2443886 2442344
820.57 2575682 2781172 2889524 3060154 3124286 3334906
823.46 3659002 3731088 4035610 4226786 4609506 4886404
826.35 5319742 5765806 6259724 6626366 7210630 7781792
829.25 8591930 9326978 10203790 10994340 12126780 13209920
832.14 14472100 15674150 17296520 18857910 20603730 22330320
835.03 24280960 26290530 28638840 30947980 33542990 36223390
837.92 38912890 41984210 44800310 48067760 51025420 54216770
840.82 57347080 60406660 63635120 66802380 69765420 72725980
843.71 75328120 77842260 80031780 82196740 84020640 85623130
846.60 86978360 88506970 89541020 90653330 91513450 92730330
849.50 94058990 96503160 99238350 103654400 108498100 114948800
852.39 122722600 130876400 139535000 148941000 157708400 166145900
855.28 170783700 170726800 159713300 142811100 121521900 106996900
858.17 99800380 93882890 90427000 88852320 88122590 87938370
861.07 89734430 91216610 93319810 94435990 95932910 96260740
863.96 96266400 95088970 93567010 91200260 87643580 83920970
866.85 79900930 75427190 70759470 65799320 61020870 55994700
869.74 51281060 46451160 42112480 37913610 33985760 30275040
872.64 27065240 23897540 21255620 18659750 16452750 14375420
875.53 12754000 11100240 9757034 8650262 7507946 6663332
878.42 5859110 5134432 4648572 4122722 3671704 3219164
881.31 2920908 2741230 2390470 2229798 2183552 1941696
884.21 1859608 1712588 1709772 1515312 1595280 1410672
887.10 1507824 1390922 1288600 1332822 1333536 1269004
889.99 1366364 1281992 1334418 1273766 1373380 1269392
892.89 1255980 1266452 1386500 1332248 1297500 1321734
895.78 1330968 1311176 1388106 1268612 1283422 1293624
898.67 1312274 1291596 1297096 1303810 1493468 1403414
901.56 1491656 1519872 1560826 1662640 1750094 1694708
904.46 1836094 1930124 1914924 1950094 1914452 1802164
907.35 1802202 1654372 1678438 1498860 1521074 1466060
910.24 1347576 1430688 1428590 1452220 1477192 1393114
913.13 1475830 1453542 1463886 1516170 1516290 1519934
916.03 1579104 1455316 1576696 1534116 1531404 1507038
918.92 1565750 1470990 1508968 1466434 1447272 1311814
921.81 1439674 1324514 1386866 1302858 1337314 1263386
924.71 1280782 1242526 1230572 1263470 1212352 1214942
927.60 1216478 1201122 1153506 1216602 1197952 1179266
930.49 1205806 1171056 1179576 1145688 1118992 1192566
933.38 1192530 1135142 1162648 1115516 1161394 1082994
936.28 1139300 1167094 1055138 1070384 1154212 1127026
939.17 1119680 1119202 1111916 1079630 1110124 1133628
942.06 1089954 1143794 1242340 1179866 1187766 1134718
944.95 1228588 1199288 1194152 1181948 1210582 1123632
947.85 1193860 1197962 1192570 1161022 1197048 1176568
950.74 1180272 1191378 1286356 1183386 1250308 1179388
953.63 1270742 1197104 1241878 1307676 1308890 1260858
956.53 1311432 1261350 1338158 1285702 1313736 1264942
959.42 1402476 1367324 1387138 1373646 1450136 1395048
962.31 1411826 1455482 1511774 1465494 1515386 1550770
965.20 1534314 1545552 1595578 1674346 1716862 1694796
968.10 1770874 1692660 1783890 1740392 1814014 1868954
970.99 1964080 1965634 2011548 2018310 2083606 2042242
973.88 2192018 2186642 2259760 2265920 2371850 2412780
976.77 2527692 2417132 2553264 2558040 2632778 2612998
979.67 2800844 2792922 2924208 2947116 3000038 2997280
982.56 3077310 3109682 3152062 3148576 3273412 3345910
985.45 3420724 3411608 3533868 3521860 3680844 3697678
988.35 3734544 3867498 3932120 3990294 4124846 4156060
991.24 4346294 4361916 4498870 4587370 4753434 4815978
994.13 5005514 5040572 5303058 5452746 5685384 5865280
997.02 6167182 6337010 6637642 6881998 7259376 7543970
999.92 7992844 8382478 8806940 9214856 9729242 10214860
1002.81 10828730 11407810 12148340 12764120 13512690 14249200
1005.70 15037600 15887010 16872160 17753860 18901390 19895620
1008.59 21006090 22015310 23254860 24462700 25539880 26688260
1011.49 27829960 28930240 30038590 31142680 32244560 33100530
1014.38 34136620 34963380 35806960 36411720 37112860 37581440
1017.27 37904230 38098360 38177270 37888330 37445560 37035680
1020.17 36962790 37062710 37781650 39076590 40736850 42270380
1023.06 46340430 51162740 53973120 44617230 40238390 36088240
1025.95 34009490 32808070 32350070 32048480 32259560 32384090
1028.84 32710900 32758580 32890680 32793790 32690320 32252120
1031.74 31730910 30952510 30101170 29083740 27909170 26675650
1034.63 25553900 24135810 22873430 21420120 20260010 18880040
1037.52 17682310 16444550 15400680 14350630 13381260 12558590
1040.41 11743010 11031620 10542160 9868574 9546748 9063996
1043.31 8848284 8547520 8380524 8068356 8047920 7934230
1046.20 7855416 7792778 7841168 7820038 7992784 7946202
1049.09 8089510 8204186 8463574 8602524 8883578 9057252
1051.99 9346150 9522548 9962474 10133900 10624190 10874910
1054.88 11360500 11613500 12149960 12602920 13186490 13626280
1057.77 14266920 14798920 15611110 16326900 17269910 17960280
1060.66 19116130 20194730 21673100 22769950 24152020 25590640
1063.56 27199330 28767850 30635910 32552670 34681260 36780060
1066.45 39527540 41968570 45850030 49251750 52394710 56148370
1069.34 60352180 64839950 70000540 75214000 81119380 87038300
1072.23 93939990 101118500 108819700 116732000 125552500 134694800
1075.13 144615900 155077900 166791400 178891900 192933500 206317200
1078.02 217805600 231654400 246724800 261209900 276058900 291378100
1080.91 307310400 324004500 341766600 354536400 367260100 381465000
1083.81 395524900 410487100 425008000 437593000 451811400 466525200
1086.70 480177200 488620800 502172700 516329300 538355100 537804200
1089.59 537771500 546674300 552735300 558603800 563086600 568849700
1092.48 575152100 584638300 595968000 609352700 622177100 634227100
1095.38 645687300 661887000 672433800 670722100 662306600 643424600
1098.27 631052000 620329700 597594500 576289700 567974300 537508200
1101.16 515633600 509969700 507605800 501128000 507983300 501272400
1104.05 478474100 471997400 461729200 451167200 435161900 419522700
1106.95 400997600 381480800 360115400 339640500 316636800 295908800
1109.84 272785800 249060800 227094100 207021000 187778000 169763500
1112.73 152762400 138075300 123824500 111764900 100805500 91745420
1115.63 82464180 74607690 67786500 62316520 57099840 52953120
1118.52 48844410 45654810 42668610 40390840 37992490 35983610
1121.41 33924750 32468180 30951330 29793890 28595630 27578050
1124.30 26612240 25914220 25071410 24478920 23634820 23233410
1127.20 22601380 22287760 21686020 21411970 20937010 20638910
1130.09 20234890 20033920 19693000 19617810 19397250 19349360
1132.98 19081780 19220740 19115600 19206680 19026330 19035060
1135.87 18816540 19060300 18968690 19091080 19184620 19313590
1138.77 19456270 19702710 19818570 20096640 20197970 20496140
1141.66 20648520 21041490 21258480 21514480 21694360 21943140
1144.55 22063330 22359560 22489510 22716150 22848630 23117380
1147.45 23346740 23684760 23961080 24397920 24490790 24899160
1150.34 25205770 25703300 26221540 26898600 27497950 28154380
1153.23 28778930 29585410 30234290 30967080 31572860 31908320
1156.12 31901230 31921690 31775100 31807400 31880130 31854630
1159.02 31988730 32177000 32378220 32696390 32916290 33316730
1161.91 33693330 33930910 34214060 34704760 35225740 35848280
1164.80 36193080 36615780 37056000 37454580 37845730 38448040
1167.69 38727530 39410850 39604880 39628030 39841920 40193140
1170.59 40574960 41014840 41474950 42133340 42729210 43639850
1173.48 44432530 45084510 45952920 46777210 47804930 48988780
1176.37 50111010 51536000 52865550 54414610 56069280 57745010
1179.26 59319800 60933940 62500590 64056310 65484780 66839820
1182.16 68349770 69985150 71819530 74030770 76527130 79469960
1185.05 82908810 86720060 91129890 96012020 101287800 107059400
1187.94 113294700 120153400 127248900 135037400 143097800 152070300
1190.84 161253200 170956500 181236200 192125700 203525600 215370000
1193.73 227503200 240058700 252218600 264474700 276406500 287479800
1196.62 299217600 311263100 323007400 334624700 345874500 356506200
1199.51 366683300 376037800 385281200 393738700 402011100 409372500
1202.41 416938300 424890800 431769000 440118800 450311000 463015400
1205.30 477616800 494833900 514951700 540998700 569366800 598925300
1208.19 627625500 651117200 676298400 689305200 674903500 630668200
1211.08 550139900 502707800 489623500 489246500 497498200 506712300
1213.98 516687700 524852300 535337700 547038800 556760600 563668100
1216.87 568068800 570033000 569632800 562633200 557558700 553911000
1219.76 522636000 499221100 476702900 452563600 432099100 405131700
1222.66 378469100 353894000 331276200 310632400 291753300 275137800
1225.55 259884200 247045300 235864200 226022200 217094100 209218100
1228.44 202063500 196533800 191480100 187624000 184082400 181364700
1231.33 179425700 178114800 177404400 177519600 177741100 178485700
1234.23 180349600 180971500 179047200 178219700 175198200 172696100
1237.12 169890100 166491400 162568800 158428100 153852100 149152000
1240.01 144317100 140399700 136569800 133604100 131005600 129065400
1242.90 127340400 126745000 125132300 123103200 122160500 121360100
1245.80 120888400 120475900 120020600 119742100 119518300 119601000
1248.69 119458500 119970600 119561800 118919100 118630500 118570500
1251.58 118427400 118143800 118007900 117808000 117595800 117144100
1254.48 116268100 115329400 114538900 113418800 112230200 110965800
1257.37 109717600 108225700 106933800 105944800 104783300 103966700
1260.26 103435700 103316800 103476000 104003700 104779600 105680500
1263.15 106672400 107639700 108206700 108430000 107963500 106872600
1266.05 104933900 101175300 97676440 93873230 88367220 82581770
1268.94 77741530 74344260 71052630 68212720 65830770 63731390
1271.83 61829210 60124030 58042400 56478880 54717070 53196370
1274.72 51600260 50241220 48194430 46664120 45743330 43308650
1277.62 40964710 39094140 36982720 35225340 33377210 31858120
1280.51 30198250 28811300 27337400 26023800 24541730 23317740
1283.40 22110280 21055960 19989900 18902470 17906080 16884660
1286.30 15961140 15182420 14338090 13618940 12942200 12260990
1289.19 11637280 11066410 10499140 10091150 9567654 9201728
1292.08 8727748 8383244 8057040 7755358 7394224 7136586
1294.97 6896154 6616450 6416470 6218208 5932834 5777344
1297.87 5578582 5395648 5238546 5089704 4910948 4812212
1300.76 4696140 4574068 4489068 4376160 4288334 4250222
1303.65 4093262 4045460 3958874 3919048 3789548 3758696
1306.54 3711924 3687230 3596294 3598542 3537486 3499350
1309.44 3480042 3453058 3388322 3406680 3314148 3341064
1312.33 3310614 3319742 3237878 3225416 3229566 3231290
1315.22 3189308 3179006 3113096 3098360 3094774 3070302
1318.12 3057794 3046512 3003034 3034734 2968890 3067080
1321.01 3001124 2980664 2968374 3015608 2992132 2999486
1323.90 3043524 3069712 3049624 3044282 3079060 3087850
1326.79 3050322 3074846 3074480 3143124 3143762 3209582
1329.69 3249156 3315044 3279056 3425458 3498372 3511792
1332.58 3658660 3760470 3853354 3991180 4157344 4371112
1335.47 4499110 4782752 5038910 5354778 5620018 6062176
1338.36 6524742 6955192 7466350 8225250 8781200 9558504
1341.26 10461480 11480700 12574540 13900370 15277990 16909350
1344.15 18710210 20754080 22968490 25534950 28256360 31432980
1347.04 34782780 38549260 42601320 47018820 51868490 57008250
1349.94 62576660 68499960 74898020 81527130 88415810 95726420
1352.83 103123800 110821200 118621600 126437900 134355700 141871400
1355.72 149319500 156261600 162848800 168749200 173784000 178395200
1358.61 182108900 184761800 186799800 188135200 189156200 189954500
1361.51 191424400 193722100 198061000 205051100 215517800 230900900
1364.40 252156100 278167900 306051600 332699500 354106700 370711700
1367.29 384241500 396399800 394787100 376982600 352060000 332020200
1370.18 316000000 290037800 259314000 236056000 222014500 214460300
1373.08 212232800 213161800 216202100 220783900 225270100 230058400
1375.97 234178200 237169100 238929600 239450600 238066900 235832400
1378.86 231789800 226724500 220485800 213213400 205023500 196282000
1381.76 186869400 177113600 167131000 157038400 146666700 136784400
1384.65 127086600 118120500 110037600 103725000 99460740 98581340
1387.54 101205700 109483600 120617900 134243800 155699000 175766900
1390.43 173101100 139551500 101027200 74464320 59772740 52985590
1393.33 50339630 51101870 52914160 55689280 59511660 63021100
1396.22 66472840 69473770 71998160 73633160 74375560 74651810
1399.11 73478540 71652810 69239500 66165600 62585630 58737750
1402.00 54557220 50250690 46005080 41809080 37842870 34247920
1404.90 30667890 27388730 24488130 21982380 19676010 17678840
1407.79 16067010 14641370 13444140 12474770 11538530 10855030
1410.68 10338240 9845024 9461208 9200508 8934504 8798574
1413.58 8672084 8610588 8567334 8599662 8644924 8639768
1416.47 8662470 8919982 8824022 9005684 9080192 9931144
1419.36 9564132 9285760 9463316 9504336 9718228 9757898
1422.25 9923884 9967868 10192450 10315610 10280380 10471180
1425.15 10567390 10684880 10775350 10921860 11006870 11141450
1428.04 11241290 11360350 11468100 11835250 11757230 11951700
1430.93 12073390 12278060 12344540 12563510 12654790 12819770
1433.82 13013930 13311140 13520990 13824310 14251720 15304670
1436.72 15037560 15168720 15566970 15977850 16447780 17175990
1439.61 17900780 18332740 18617990 18990190 19553840 20326330
1442.50 21183890 22078850 23050150 24034090 25051270 26111210
1445.40 27232720 28345880 29461910 30591240 31951220 32928830
1448.29 33926420 35077340 36186660 37390240 38510880 39649900
1451.18 40790920 41972640 43053560 44275840 45430170 46660220
1454.07 47898650 49138700 50420740 51597500 53646360 55748060
1456.97 56269270 58438870 60743120 63131550 65839970 68884940
1459.86 72026320 75287820 78486700 81793470 84710900 87333200
1462.75 89349340 91120340 92241920 93420600 93883230 93701090
1465.64 93861010 93713470 93356260 93215960 93081380 93146030
1468.54 93397260 93871720 94836860 96181610 97836530 100138000
1471.43 102928800 104691100 106332700 107944900 107965300 108768100
1474.32 108267400 106398000 105089400 104145000 103778900 103421400
1477.21 101849000 99243860 97799750 96459900 94921190 93442010
1480.11 92201500 90847020 89693100 88435090 87480500 86411410
1483.00 85596220 84860830 84191180 83599140 83103470 82532290
1485.89 82093290 80952550 79218520 75446700 70134450 65698300
1488.79 61628220 58061070 55004740 52758510 50547830 48472780
1491.68 46986580 45341100 44087060 42706940 41504280 40112480
1494.57 39030510 37516490 36918080 35504300 33427780 32215430
1497.46 30565770 29398480 28103050 26353890 24877430 23493800
1500.36 22168200 20874620 19622060 18402740 17245950 16184290
1503.25 15174840 14245130 13350200 12783440 12911800 11144630
1506.14 10897520 11005990 9460794 8923696 8649702 8078694
1509.03 7818258 7517934 7095424 6882338 6543652 6512484
1511.93 6518464 6020262 5883176 5751470 5623054 5611936
1514.82 5535360 5298970 5395788 5315340 5392926 5329438
1517.71 4970734 4943502 4917810 4826184 5192266 4787414
1520.61 5611336 5444848 4485254 5129626 4747386 4703386
1523.50 4542322 4650228 4581656 5089714 4647938 4571444
1526.39 4527202 4747232 4523236 4645100 4569556 4527362
1529.28 4495364 4586172 4523568 4643898 4616966 4617294
1532.18 4625450 4830986 4898890 5057654 4539696 4781680
1535.07 4610080 4815204 4633962 4810370 4666774 4980980
1537.96 4711682 6128040 5427566 5071590 5872730 4927630
1540.85 4923760 5410092 5697132 4778278 5110908 4919958
1543.75 4966160 5000616 5394988 4950302 4938368 4937272
1546.64 4951038 5006408 5035078 5070892 5075552 5102012
1549.53 5173788 5192612 5079696 5118102 5109520 5148286
1552.43 5136608 5214832 5249104 6003272 5255722 5351660
1555.32 5205684 5426362 5253590 5849334 5858776 6230012
1558.21 6813386 5631386 6227340 6938208 6463428 5721628
1561.10 6166496 5986016 6324852 6166958 6490586 6373862
1564.00 6710362 6827208 6833956 6874412 7068626 7094480
1566.89 7272130 7269076 7463284 7554668 7754560 8154184
1569.78 7810274 7679084 7822836 7780456 7902458 7808356
1572.67 7965488 7864030 8021526 7971544 8260148 8074176
1575.57 9693168 9060350 8521844 8866240 8898690 9086950
1578.46 9135438 9179612 9158584 8989454 8567352 8071290
1581.35 7504534 7126332 6949058 6854954 6807266 6780532
1584.25 6845772 6839614 6838772 6873850 6878388 6859374
1587.14 6780200 6699174 6598180 6410154 6252948 6041742
1590.03 5803550 5539868 5235014 4914010 4658524 4336330
1592.92 4076710 3844324 3661302 3419938 3179210 2992766
1595.82 2881708 2715544 2576530 2471332 2393894 2285196
1598.71 2224614 2165734 2129400 2046348 2050658 1994050
1601.60 1936984 1942384 1956400 1912324 1896054 1864216
1604.49 1857724 1874254 1878020 1795640 1857066 1820290
1607.39 1819072 1792750 1817454 1876180 1863090 1765954
1610.28 1871466 1809112 1930100 1885720 1941772 1908648
1613.17 1987974 1882084 2084880 1923954 2175612 1954734
1616.07 3253138 2855298 1974732 2195576 2096748 2229116
1618.96 2195008 2223016 2247908 2283514 2319846 2324002
1621.85 2360846 2365792 2633730 2837568 2405760 2549020
1624.74 2415998 2572540 2523644 2691082 2596422 2902044
1627.64 2858322 2783300 2827334 2859442 2821318 2822384
1630.53 2781214 2813236 2700044 2759542 2620958 2729168
1633.42 2629826 2702234 2843292 3297906 3466380 2491104
1636.31 2635880 2663066 2804034 2540218 2603352 2521930
1639.21 2589014 2533966 2583332 2459346 2570256 2494926
1642.10 2533448 2386364 2411202 2348088 2388630 2267346
1644.99 2371316 3102724 2385080 2113860 2441940 2053420
1647.89 2316976 1928198 2040440 1832126 1973924 1746824
1650.78 2059052 1650730 3111904 2616674 3139356 2449414
1653.67 1758016 2354002 1546310 1771934 1519842 1690804
1656.56 1520900 1642098 1518768 1585548 1461740 1564686
1659.46 1459640 1531094 1393286 1504996 1416796 1552716
1662.35 1825874 1486320 1397536 1423602 1323652 1425784
1665.24 1320240 1453742 1289518 1445778 1334072 1509096
1668.13 1343618 1813454 1853806 1357482 1462306 1406440
1671.03 1665750 1448444 1401150 1417344 1393296 1472660
1673.92 1388968 1729154 2213532 1597424 1474832 1539752
1676.81 1503280 1542892 1532888 1578272 1583376 1673850
1679.71 1704162 1776032 1679116 1733428 1738698 1903308
1682.60 2143004 2260522 2055218 2881788 3562480 1933326
1685.49 2356118 2110694 2401048 2265764 2493532 2517586
1688.38 2636542 2565750 2843052 2808514 2938380 2955686
1691.28 3150446 3126200 3352758 3307224 3567220 3510548
1694.17 3808188 3721328 4977656 5307058 3899682 4263908
1697.06 4269548 4350912 4423328 4507010 4810704 5607966
1699.95 5418406 5415748 4766480 4892040 4870608 4989552
1702.85 5002032 5015498 5355468 5356996 5187888 5386208
1705.74 5634792 5632310 5514758 5660590 5586882 5672422
1708.63 5575526 5578682 5394130 5214364 4955756 4781290
1711.53 4443180 4374662 4348234 4336080 4508128 4415224
1714.42 4603454 4811552 4249114 4547176 4191780 5538494
1717.31 4581082 4139104 4398708 3746950 3648976 3484838
1720.20 3308376 3147060 2958666 2817732 2637546 2504494
1723.10 2458074 2185462 2097460 1965158 1904508 1773326
1725.99 1757680 1718762 1643724 1562990 1572798 1519564
1728.88 1532598 1585320 1620468 1374606 1539804 1402710
1731.77 1569938 1292812 2208962 1880620 1647108 2514652
1734.67 1371378 1464944 1337626 1447574 1388234 1503166
1737.56 1376308 1496724 1390108 1673542 1914932 1418020
1740.45 1438712 1439304 1417456 1434094 1502498 1552460
1743.34 1479174 1514200 1441254 1463406 1455418 1449792
1746.24 1438506 1562160 1450774 1488264 1608930 1578470
1749.13 1480410 1476922 1394968 1812924 1900286 1316740
1752.02 1373358 1370608 1372084 1353842 1330712 1354864
1754.92 1304090 1320460 1393660 1651618 1348842 1311576
1757.81 1311878 1354228 1285384 1310214 1253434 1282852
1760.70 1208816 1589920 1447944 1183946 1234524 1136704
1763.59 1196148 1121344 1147734 1069022 1124016 1094936
1766.49 1138552 1026556 1363248 1333072 968754 1108384
1769.38 1007820 1095812 1097524 1413342 1056284 1266134
1772.27 1859430 1133384 1027426 1054808 1034036 1050006
1775.16 1103862 1007146 977710 982688 935606 953302
1778.06 926038 982886 953782 934730 1052888 1027296
1780.95 931156 1000224 963044 1001716 950980 1069748
1783.84 957794 1231110 1117068 1024628 1074964 1081826
1786.74 1125464 1160476 1101654 1223806 1215146 1268136
1789.63 1242912 1405248 1508072 1444350 1387646 2021236
1792.52 1791170 1488622 1656518 1646068 1751636 1754236
1795.41 1864338 1899164 1945944 2038194 2118862 2205326
1798.31 2268412 2457694 2619484 2545104 2611248 2792224
1801.20 2849426 2884316 3095370 3014760 3133866 3192610
1804.09 3301142 3330930 3463662 3500008 3665246 3658566
1806.98 3809986 3862406 3961784 3976760 4111280 4171066
1809.88 4331118 4434572 4425444 4510116 4589372 4577122
1812.77 4683760 4733532 4734698 4746230 4747452 4731802
1815.66 4741140 4750094 4797522 4826766 4802474 4816780
1818.56 4816380 4803784 4831976 4847606 4851274 4878368
1821.45 4798176 4792436 4763760 4667258 4671254 4537220
1824.34 4494952 4517986 4099958 4019340 3932096 3852418
1827.23 3795692 3720110 3676256 3709692 3529886 3762336
1830.13 3383546 3270916 3121682 3052484 2972270 2847564
1833.02 2754576 2600262 2510682 2363092 2250460 2132830
1835.91 2013112 1902238 1848220 1710214 1633958 1568886
1838.80 1535238 1462498 1394686 1334894 1314394 1260914
1841.70 1270806 1188104 1212736 1156618 1690306 1400134
1844.59 1058176 1166336 1086782 1125998 1063836 1087516
1847.48 1130588 1047494 1084404 1027872 1054190 1014072
1850.38 1071146 1020200 1007572 1018438 1009888 990504
1853.27 965576 986238 976092 950652 953952 958102
1856.16 974820 1007542 938322 967934 962040 1014840
1859.05 964576 953486 973500 969736 940964 969072
1861.95 1002152 981814 1014280 965102 1027038 1035106
1864.84 995798 995984 1056818 1038878 1076644 1117498
1867.73 1094810 1034828 1288758 1185302 998806 1128886
1870.62 1038030 1084692 1063788 1031496 1073446 1062848
1873.52 1070106 1092400 1061792 1088930 1103648 1092880
1876.41 1107652 1158090 1143896 1197424 1206960 1207038
1879.30 1235958 1167624 1138892 1118128 1105438 1097178
1882.20 1099984 1117204 1163708 1156532 1183518 1233590
1885.09 1181290 1240474 1206882 1213164 1262492 1267160
1887.98 1251550 1257360 1368836 1284286 1200630 1239810
1890.87 1232266 1255516 1188808 1254102 1215866 1272710
1893.77 1246024 1283410 1367086 1321540 1298260 1304130
1896.66 1307886 1291286 1273480 1252960 1283662 1294374
1899.55 1295212 1310536 1297762 1336902 1339010 1374984
1902.44 1345186 1369690 1414678 1475406 1436494 1489900
1905.34 1528508 1563332 1596480 1583752 1601292 1555976
1908.23 1583280 1609554 1601606 1656706 1633602 1704980
1911.12 1705880 1750486 1790344 1839200 1910740 1974136
1914.02 1986254 2039524 2093746 2215852 2259680 2354256
1916.91 2347806 2668416 2652776 2584352 2754496 2791624
1919.80 2922118 2972792 3115444 3194934 3359462 3440866
1922.69 3628460 3670662 3806666 3917424 4049360 4167190
1925.59 4308978 4456210 4597798 4762828 4887104 5069346
1928.48 5247648 5380036 5562450 5747960 5959134 6132480
1931.37 6338684 6543044 6750626 6972310 7089754 7157468
1934.26 7230148 7301596 7420804 7517670 7685706 7837208
1937.16 7989864 8138780 8268842 8411040 8516194 8686442
1940.05 8834440 8930322 9060288 9139860 9327028 9283334
1942.94 9278738 9303858 9329862 9299030 9200588 9147170
1945.84 9081650 9051440 8995308 8959460 8933710 8902792
1948.73 8874748 8861352 8816562 8779652 8738438 8557484
1951.62 8419182 8268630 8176426 8044692 7793364 7428616
1954.51 7148586 6936822 6786994 6644624 6447358 6337278
1957.41 6201424 6052332 5785574 5609754 5409780 5203240
1960.30 4949290 4743876 4451036 4241554 3989226 3714764
1963.19 3480672 3240788 2983444 2761830 2509466 2354698
1966.08 2136612 2002690 1860850 1661602 1627560 1495072
1968.98 1396750 1281382 1233060 1159128 1098964 1027430
1971.87 970142 972924 877540 899308 855656 826090
1974.76 812346 810004 808446 765226 794148 727642
1977.66 705546 709400 699882 664252 719926 697286
1980.55 686490 675182 680124 618250 647002 654266
1983.44 640002 616572 629932 625420 619210 624746
1986.33 627476 585172 661946 640562 611144 622380
1989.23 631482 617556 624168 612538 657896 691446
1992.12 614238 639930 611740 579016 605688 601874
1995.01 582360 621182 618268 620222 613392 585838
1997.90 564006 623482 617746 644502 607668 618208
2000.80 608458 644292 632442 626408 603300 624286
2003.69 617520 620506 612168 603366 653504 625610
2006.58 595194 651146 618678 637852 644530 631632
2009.48 676612 663186 659616 657530 643664 617386
2012.37 704596 653766 676346 688000 672796 674238
2015.26 683670 684856 730800 688946 723212 728288
2018.15 719376 669440 734494 720750 734480 749454
2021.05 821796 799508 798450 800598 842878 809146
2023.94 829722 856234 884760 904060 892506 901132
2026.83 907572 907728 951650 1004056 970192 964184
2029.72 986192 1028584 1081334 1132924 1108632 1183588
2032.62 1204246 1227820 1267508 1317442 1408486 1416530
2035.51 1462558 1526006 1600180 1671102 1668706 1735816
2038.40 1775208 1828676 1913230 1989638 2049162 2132962
2041.29 2243364 2280956 2394038 2461984 2564902 2674552
2044.19 2762694 2891928 2920442 3006210 3112404 3205974
2047.08 3293612 3370572 3456414 3524782 3650870 3762742
2049.97 3872164 3906450 3986776 4066330 4098506 4192968
2052.87 4275846 4326188 4409184 4457102 4547304 4619522
2055.76 4689046 4811894 4806742 5004944 5037310 5089590
2058.65 5154336 5241496 5318774 5284156 5358736 5270468
2061.54 5214432 5061882 4806222 4626424 4472714 4397670
2064.44 4382324 4362442 4384280 4365546 4426912 4426304
2067.33 4425898 4409396 4448068 4314078 4183470 4083754
2070.22 3927270 3819410 3640914 3488046 3317502 3212584
2073.11 2991616 2800408 2689436 2518064 2488622 2358308
2076.01 2286236 2239866 2271996 2168324 2072316 2099176
2078.90 2027474 2061456 2049386 2084028 2043372 2205416
2081.79 2192420 2065984 2151842 2128334 2168440 2157654
2084.69 2199686 2197538 2411716 2386166 2277068 2408174
2087.58 2434090 2547430 2595186 2770426 2778426 3087728
2090.47 3089492 2947502 3054774 2958036 2971228 2872456
2093.36 2834862 2738574 2962334 2655998 2590124 2538884
2096.26 2527552 2511232 2560306 2528080 2637180 2945016
2099.15 2641874 2670970 2669716 2742398 2722496 2804200
2102.04 2719692 2954508 3004638 2661718 2723300 2605904
2104.93 2690804 2573732 2640888 2533408 2938492 2583704
2107.83 2490958 2423780 2478836 2443578 2459258 2455570
2110.72 2591942 2897742 2446256 2601972 2496636 2556502
2113.61 2485482 2539242 2367722 2801468 2420608 2318934
2116.51 2297052 2270842 2257274 2296036 2301926 2586722
2119.40 2724346 2292638 2379346 2300828 2331752 2254748
2122.29 2289172 2286424 2622518 2178770 2069130 1991692
2125.18 2012950 1931144 1917782 1847630 2218250 1870794
2128.08 1803468 1750750 1739254 1705968 1699258 1598870
2130.97 1799094 1696244 1493630 1504038 1457896 1448152
2133.86 1445600 1396402 1503332 1493202 1341844 1366302
2136.75 1306642 1332442 1335426 1313126 1359874 1394200
2139.65 1320946 1351350 1337924 1379974 1363450 1403952
2142.54 1437342 1478106 1489926 1506868 1570338 1606650
2145.43 1707244 1754560 1855198 1903306 1912004 1978268
2148.33 2022328 2105404 2181950 2217342 2446564 2493092
2151.22 2471678 2642120 2697938 2847348 2948958 3057936
2154.11 3474692 3428700 3467026 3683492 3815368 4014614
2157.00 4087490 4470304 4789280 4637650 4878532 5005282
2159.90 5271208 5458344 5620736 6262282 6309844 6263942
2162.79 6607358 6718094 7057188 7167684 7569532 8074404
2165.68 7874446 8096976 8314716 8514596 8800902 8910318
2168.57 9595272 9596528 9469518 9846374 9893502 10101480
2171.47 10130290 10611270 10974140 10559050 10719750 10819700
2174.36 11001150 11184000 11434950 11996530 11721320 11711480
2177.25 11805220 11767140 11814620 11736300 12194850 11914840
2180.15 11550090 11558750 11338780 11386810 11159790 11169330
2183.04 10644070 10086500 10032000 9755530 9696884 9473550
2185.93 9608960 9402352 8904854 8789280 8527002 8293390
2188.82 7845020 7768432 7442698 6782292 6560916 6134008
2191.72 5794694 5381846 5180588 4847084 4290204 4055060
2194.61 3736474 3569078 3277464 3363178 3044514 2782386
2197.50 2623402 2459022 2330974 2244758 2335668 1978774
2200.39 1898244 1796094 1730586 1641426 1635050 1623300
2203.29 1392782 1390558 1328268 1280920 1250286 1297772
2206.18 1264094 1136382 1115684 1111308 1104818 1112716
2209.07 1202488 1066732 1046970 1034852 1046430 1040134
2211.97 1129182 1072862 1063610 1041136 1063742 1088330
2214.86 1134842 1118798 1105140 1169818 1134874 1158900
2217.75 1194078 1223226 1235474 1272024 1290644 1293432
2220.64 1336384 1372868 1350396 1323408 1322832 1298348
2223.54 1284566 1326986 1352042 1356914 1387040 1347218
2226.43 1350134 1286194 1238788 1221434 1180206 1242640
2229.32 1236892 1216054 1273586 1284588 1328680 1300018
2232.21 1287120 1320386 1280372 1275862 1267606 1238828
2235.11 1203036 1200066 1161550 1150066 1152376 1088810
2238.00 1089764 1061804 1046014 1001514 1018888 1029396
2240.89 988674 1024848 1021506 1059326 1062618 1065234
2243.79 1055092 1088662 1091628 1124200 1124666 1121652
2246.68 1113036 1092410 1080444 1124266 1176782 1142710
2249.57 1175162 1156088 1211040 1244108 1271470 1300076
2252.46 1372146 1358120 1371082 1394452 1522472 1502040
2255.36 1533398 1566126 1598424 1613430 1644060 1673194
2258.25 1679006 1710780 1723332 1818632 1830602 1851652
2261.14 1860560 1909458 1903790 1960066 1993778 2081100
2264.03 2081744 2145470 2215480 2340956 2406098 2467660
2266.93 2548102 2590364 2604828 2659666 2710920 2650468
2269.82 2629338 2591210 2569776 2493690 2572694 2538574
2272.71 2639970 2585650 2686732 2756256 2795494 2836318
2275.61 2867786 2881622 2869572 2887300 2848872 2839004
2278.50 2812224 2803576 2769116 2771078 2776382 2739564
2281.39 2767394 2725102 2750864 2734662 2728542 2699638
2284.28 2681998 2609756 2606564 2558008 2529980 2458974
2287.18 2427926 2391754 2324540 2317694 2303920 2288658
2290.07 2241592 2238510 2221712 2183924 2215142 2152248
2292.96 2213956 2166790 2149500 2145724 2144488 2054638
2295.85 2047880 2002520 1944102 1911678 1892604 1820832
2298.75 1826898 1802392 1745480 1724736 1727110 1700490
2301.64 1723668 1623340 1682888 1620240 1626130 1537206
2304.53 1555072 1534516 1483132 1463312 1358718 1371400
2307.43 1348184 1345782 1244514 1189794 1245744 1222388
2310.32 1165844 1112608 1232104 1170340 1141412 955358
2313.21 1167730 1088760 1169410 848680 1036444 994218
2316.10 1089074 702422 923314 887230 1006394 689072
2319.00 785796 854232 950540 577674 660084 818388
2321.89 872274 505962 526996 867770 826806 433008
2324.78 502326 863206 832658 395806 451930 900228
2327.67 696260 293490 522480 993360 639270 259456
2330.57 660194 1024512 530728 328118 870808 998862
2333.46 395814 506512 1104080 919762 372282 745992
2336.35 1216580 761312 484846 1151268 1167842 604928
2339.24 850876 1361770 967810 792924 1314574 1423504
2342.14 956016 1248868 1551810 1253622 1210718 1609040
2345.03 1547060 1348308 1603540 1757696 1629504 1757002
2347.92 1860186 1882048 1892452 1884420 1936270 2022510
2350.82 1867680 1924244 2102744 1813818 1881354 2263146
2353.71 1847024 1874430 2368520 1880396 1835184 2429108
2356.60 1836716 1802714 2532040 1774086 1931846 2587244
2359.49 1675020 2157878 2577052 1646600 2358834 2390500
2362.39 1685762 2596564 2042440 1859412 2594148 1731056
2365.28 2205382 2374572 1698346 2550976 1928864 2103822
2368.17 2375252 1795418 2475918 1975748 2205368 2260632
2371.06 1924102 2345618 1901986 2276272 2018048 2080974
2373.96 2081646 1973798 2109074 1932668 2118068 1896132
2376.85 2020728 1876248 1962828 1883442 1981926 1903980
2379.74 1918262 1863664 1852994 1853708 1841532 1832256
2382.64 1819060 1860540 1838988 1815994 1817142 1850770
2385.53 1825016 1841808 1840090 1817162 1783496 1761998
2388.42 1746796 1715198 1672666 1672432 1630532 1620122
2391.31 1592338 1573380 1564096 1517832 1522654 1476528
2394.21 1544166 1482376 1453182 1449112 1458268 1438100
2397.10 1394096 1445872 1413324 1399954 1403052 1407088
2399.99 1374614 1364566 1390490 1344522 1348710 1363890
2402.88 1322334 1350990 1337350 1330866 1335212 1383258
2405.78 1328298 1392378 1379434 1377982 1308926 1363462
2408.67 1386924 1408728 1365400 1383000 1426286 1438034
2411.56 1430424 1427178 1446304 1448902 1451714 1475512
2414.46 1453512 1481948 1432032 1433708 1433252 1524088
2417.35 1506356 1458886 1454154 1430896 1396048 1380610
2420.24 1356800 1397084 1389850 1354848 1359536 1323252
2423.13 1340714 1321220 1339048 1288158 1291772 1255712
2426.03 1216434 1195820 1138302 1147290 1101360 991948
2428.92 979222 947586 937206 902470 804116 783652
2431.81 755334 764860 720668 690706 649526 626230
2434.70 655432 588736 579350 599512 595236 557386
2437.60 558556 515572 531728 537648 542496 535848
2440.49 507332 501822 523836 476810 459452 498718
2443.38 448480 430040 475078 453544 436542 460470
2446.28 421854 438500 472758 450926 445396 425066
2449.17 487266 437166 425066 440262 427154 468122
2452.06 451856 472090 482510 486678 488124 488488
2454.95 514692 573888 525406 567342 569694 549990
2457.85 615652 595734 620514 635836 637356 607968
2460.74 720828 625806 697592 662014 710182 694954
2463.63 722454 739260 759744 719290 744988 750386
2466.52 806350 817508 775906 817550 793506 808750
2469.42 844192 861870 888364 852842 851798 871302
2472.31 873286 890576 904290 894328 889512 990234
2475.20 925106 974618 956718 936506 903986 914506
2478.10 897490 938522 920064 904210 863576 917362
2480.99 888104 874104 889400 910892 869976 888332
2483.88 866120 839820 844696 812742 794554 810496
2486.77 729380 804444 752264 738974 788266 770334
2489.67 754054 749936 680640 673854 654746 668306
2492.56 639958 664348 632518 655038 612838 585280
2495.45 591190 616206 579472 571140 537906 580940
2498.34 562200 587002 551068 529390 538466 544566
2501.24 531538 507994 535420 508080 506592 498704
2504.13 485760 438316 444536 468478 473168 452362
2507.02 391270 485110 434672 472002 440154 422942
2509.92 421084 404270 389976 400342 426040 419334
2512.81 389822 393556 354086 359226 346330 386246
2515.70 391570 401660 382976 339526 383178 402188
2518.59 411320 405304 393762 414856 415214 393922
2521.49 423974 393316 394842 375178 446734 403456
2524.38 401234 375020 455290 442186 389780 413596
2527.27 445610 470178 481242 466056 445396 436514
2530.16 475072 443382 525138 527280 512950 446844
2533.06 508022 515714 547212 514444 559180 570748
2535.95 612570 637726 613434 632612 697254 718056
2538.84 735890 725126 695640 752832 788576 763454
2541.74 843308 817212 859544 876110 862594 888444
2544.63 916494 974274 942664 992658 955182 1016120
2547.52 1061452 1049354 1041354 1093876 1071748 1071746
2550.41 1105876 1157814 1152130 1165210 1176538 1183906
2553.31 1241250 1254192 1293144 1308900 1323194 1351088
2556.20 1382326 1382708 1452156 1435454 1518368 1500222
2559.09 1551250 1579254 1598466 1593104 1642826 1697968
2561.98 1714310 1801922 1779190 1841906 1826388 1898148
2564.88 1910690 1999274 2005176 2043396 2107994 2120182
2567.77 2198548 2263860 2276358 2332808 2342250 2430966
2570.66 2492572 2552250 2562928 2549828 2627684 2700624
2573.56 2720018 2746818 2816480 2894360 2895496 2949670
2576.45 2998808 3087596 3150300 3223268 3225316 3390972
2579.34 3379530 3415122 3448170 3512608 3563724 3627872
2582.23 3750896 3822896 3913280 4009114 4134424 4115250
2585.13 4204480 4241248 4291104 4320284 4320436 4309042
2588.02 4303484 4310956 4271614 4280534 4255834 4232976
2590.91 4185340 4247922 4206612 4270918 4323654 4327112
2593.80 4372266 4465620 4433746 4521768 4523690 4547746
2596.70 4569388 4622564 4681754 4691088 4683088 4711322
2599.59 4708670 4668854 4720792 4723904 4706834 4738116
2602.48 4755346 4774288 4754608 4782834 4865266 4791622
2605.37 4811666 4886414 4908808 4925678 4940926 4976040
2608.27 5020818 5045852 4985114 5053438 5110360 5084938
2611.16 5138464 5132806 5123290 5150462 5186324 5245398
2614.05 5202668 5270388 5301820 5316602 5265252 5370238
2616.95 5392008 5389784 5450808 5425820 5507842 5490408
2619.84 5418100 5388384 5437678 5449780 5448768 5418500
2622.73 5526676 5447226 5481108 5470414 5442650 5409224
2625.62 5390242 5324224 5313938 5262446 5216422 5149828
2628.52 5109778 5166228 5040412 4988850 5011068 4940670
2631.41 4959204 4938298 4898892 4890058 4862680 4918086
2634.30 4855986 4851804 4791506 4768856 4733450 4721464
2637.19 4619396 4606140 4657964 4602812 4587512 4594190
2640.09 4604596 4695480 4627188 4646428 4626942 4626904
2642.98 4694966 4607794 4657888 4602336 4550914 4571450
2645.87 4522908 4525436 4456326 4426144 4413296 4346946
2648.77 4325310 4359336 4283182 4382580 4355630 4375692
2651.66 4328944 4349048 4360162 4314316 4320094 4341298
2654.55 4321214 4348188 4269626 4281092 4210398 4200104
2657.44 4178350 4135828 4094940 4107264 4107618 4095470
2660.34 4115506 4109274 4033724 4067306 4019382 4026326
2663.23 4018922 3968394 3922494 3916326 3910972 3865986
2666.12 3797460 3806192 3753140 3703108 3674192 3699080
2669.01 3677352 3655424 3670296 3575114 3619278 3611966
2671.91 3550536 3583984 3555476 3568844 3547356 3554066
2674.80 3479924 3424846 3495998 3522346 3480400 3427426
2677.69 3451704 3458140 3432924 3372562 3384660 3413048
2680.59 3348830 3351966 3318522 3300498 3327612 3364494
2683.48 3256882 3250840 3295566 3297232 3286468 3273560
2686.37 3209986 3204406 3217066 3202740 3198824 3218656
2689.26 3242562 3176244 3186946 3158720 3142768 3140714
2692.16 3149178 3198184 3172024 3160912 3179286 3159686
2695.05 3182268 3200746 3180832 3196418 3148096 3179110
2697.94 3207212 3227388 3255934 3260706 3283686 3330506
2700.83 3332866 3408574 3391834 3465096 3482202 3565574
2703.73 3567062 3643780 3677350 3794472 3796400 3889048
2706.62 3938618 4012442 4047414 4095124 4121720 4301020
2709.51 4272774 4365720 4460760 4563388 4670852 4716850
2712.41 4788136 4892836 5030246 5106906 5288840 5368148
2715.30 5519988 5703208 5819610 5942568 6037212 6171402
2718.19 6233908 6367106 6407078 6545882 6650414 6673938
2721.08 6747510 6874946 6886552 6943394 6987456 6966182
2723.98 7173972 7247240 7321310 7447540 7576740 7626394
2726.87 7704660 7655736 7648646 7686168 7690794 7660294
2729.76 7665086 7669446 7670430 7713864 7712158 7773958
2732.65 7714352 7709308 7700884 7744986 7677542 7677892
2735.55 7731692 7766540 7720026 7704554 7754172 7707320
2738.44 7663352 7523124 7516046 7484252 7373738 7359886
2741.33 7283720 7283188 7184078 7072150 7109672 7060816
2744.23 6946696 6897518 6966396 6923662 6946502 6872252
2747.12 6891426 6863662 6867508 6758076 6760516 6686988
2750.01 6599486 6513472 6421664 6294608 6188544 6168636
2752.90 6079330 6069332 6105680 6034438 6050588 6025238
2755.80 5956656 6029806 5998418 6017696 6040728 6083268
2758.69 6091400 6117906 6109348 6140542 6097144 6158032
2761.58 6156960 6132122 6141936 6166130 6219368 6178912
2764.47 6100710 6151450 6175358 6114792 6197100 6174022
2767.37 6130288 6238764 6275362 6309722 6307122 6358274
2770.26 6348168 6499972 6493442 6474550 6553488 6680690
2773.15 6732416 6719672 6798988 6814392 6820290 6904706
2776.05 6827486 6867886 6868436 6939958 6927360 6954412
2778.94 6994964 7081722 7132076 7218264 7247184 7408238
2781.83 7526946 7682032 7789044 7895384 8105410 8222110
2784.72 8292642 8431858 8527518 8656918 8761442 8881880
2787.62 9006198 9176182 9298452 9445880 9616858 9722202
2790.51 9897264 10052860 10226250 10412430 10609080 10771340
2793.40 11028020 11227060 11395050 11639440 11827040 12083470
2796.29 12403090 12656420 12897600 13262140 13713670 13940810
2799.19 14286350 14683520 15157650 15559360 16091290 16594720
2802.08 17064760 17765920 18306850 18913520 19587940 20214870
2804.97 20992150 21707630 22533620 23447430 24555540 25757630
2807.87 27138410 28680910 30345820 32168840 34140660 36242540
2810.76 38356610 40579180 42904630 45460920 48182730 51083130
2813.65 54158680 57433350 60950620 64408140 68159570 71873150
2816.54 75630330 79631910 83419190 87224370 90797180 94304570
2819.44 97850250 101082200 104092200 107255300 110356100 113498600
2822.33 116595700 120175400 124086900 128927800 134727100 142451000
2825.22 151931900 162957200 171843100 175857900 175887200 172506400
2828.11 166501200 159630500 153811500 149322200 147063600 146201200
2831.01 147109200 150140700 155397900 163084400 173011900 184007300
2833.90 194502700 203047600 208650500 209212400 203663900 193798300
2836.79 182143400 170724500 160041500 150977200 144056200 138716600
2839.69 135219300 132952600 131633900 130935700 130554700 130368600
2842.58 130196700 129667600 128649000 127086000 124949000 122346200
2845.47 118937000 115399800 111351600 106772900 102226700 97482130
2848.36 92850200 88164600 83691630 79278300 75034350 71253450
2851.26 67579110 64337520 61428550 58759800 56481130 54448310
2854.15 52824280 51382450 50322730 49458000 48786310 48383300
2857.04 48044030 47948660 48167490 48441420 48879020 49327770
2859.93 49989620 50826210 51742400 52597520 53624110 54757890
2862.83 55956680 57090610 58357680 59779740 61248700 62697400
2865.72 64251220 65957490 67599910 69374140 71349580 73244110
2868.61 75279300 77346380 79588940 81915000 84357190 86788300
2871.51 89292440 91752610 94388140 97063080 99780280 102668500
2874.40 105387300 108144700 110915600 113761600 116487800 118974000
2877.29 121564300 124375100 127062000 129601300 132296600 134960700
2880.18 137637400 140080800 142639300 145350700 147880800 150255300
2883.08 152775100 155231200 157399600 160088200 162635300 165265600
2885.97 167886000 170743900 173677100 176928700 180161600 183372200
2888.86 187198200 191195200 195020700 199500800 203908000 208191400
2891.75 212204100 215909200 219364900 222915500 226287700 229122000
2894.65 231771500 234638800 237485200 240374200 243605700 246426600
2897.54 249307600 251958100 254931400 257711100 260455600 262974800
2900.43 265664100 268176700 270812100 272876500 275242300 277600300
2903.32 280038500 282560900 284857500 287598500 289939300 291834800
2906.22 293326900 294001800 294823100 295032000 295234800 295248200
2909.11 295535800 295985000 296948800 298465000 300156300 302702300
2912.00 305132300 307435400 310402300 313280300 316117500 318483600
2914.90 320504700 322220600 323406300 323319800 322760800 322005900
2917.79 320648200 319052700 316646100 314568500 311606300 309047500
2920.68 306887300 304752400 302922300 301917300 301361900 300911200
2923.57 301118500 301709500 302038300 302508100 302843000 302654700
2926.47 302601300 302388600 302069800 301511900 301220900 300912100
2929.36 301225900 301229800 301682200 302463700 303018200 304078800
2932.25 305476300 306703300 307904100 309300100 310611800 312053800
2935.14 313355200 315078600 316520900 317775600 319320100 320696800
2938.04 322430400 323715300 324779000 326469200 327913700 329475100
2940.93 331423500 332361400 334273000 335800600 336852300 337811200
2943.82 338369000 339204700 339901500 340772500 341659600 342191100
2946.72 343798300 345021900 346260800 347232200 348123400 348607300
2949.61 348190100 346963500 345818400 343367200 340646900 337521000
2952.50 334453900 331213200 327961400 325198000 323290700 321186300
2955.39 320437000 320097500 320552500 321579100 323205900 325752800
2958.29 328910500 332275600 337441600 342497400 348753200 356001300
2961.18 364533200 375135500 385428100 397255600 410719200 424044000
2964.07 439818000 455041800 470840600 486839200 503258200 520115900
2966.96 538692400 557538600 577444000 596997300 617707400 639075900
2969.86 659882000 682199700 703884500 725325400 748826100 773653000
2972.75 799056500 824011300 851539100 881170900 918092400 961351000
2975.64 1011003000 1058161000 1081347000 1053417000 991983400 938944400
2978.54 919334600 931108000 967651100 1015938000 1059529000 1057387000
2981.43 1027984000 1014007000 1028540000 1070109000 1131036000 1203793000
2984.32 1269078000 1290409000 1296281000 1309906000 1288948000 1217112000
2987.21 1121295000 1036091000 963344800 905134800 854522800 816581600
2990.11 785977200 763167200 744319800 728692900 713867100 701373900
2993.00 685788200 671069600 653436500 634211100 612848400 591102800
2995.89 565965200 540786600 514846400 487135600 460623400 432991000
2998.78 405521100 378511100 352357200 327071700 302513500 279147600
3001.68 256997200 236133000 216540700 198487900 181613100 166359600
3004.57 152160500 139109700 127318600 116763600 107085000 98526210
3007.46 90586350 83589020 77261430 71651420 66639340 62260640
3010.36 58163540 54624970 51346910 48533990 46008940 43761290
3013.25 41649920 39880790 38228120 36744750 35312940 34092300
3016.14 32953760 31875180 30852100 30061550 29154230 28317960
3019.03 27652870 26928770 26266520 25696850 25049830 24526710
3021.93 24005580 23514350 23097770 22582690 22147280 21803050
3024.82 21420800 21037490 20654690 20230920 19839110 19576210
3027.71 19249560 18964240 18612150 18390440 18058530 17840720
3030.60 17552220 17298730 17032980 16805280 16613680 16382740
3033.50 16146740 16070850 15782230 15649800 15438030 15296140
3036.39 15026780 14895960 14702650 14570920 14368660 14301180
3039.28 14052310 13991450 13767050 13769430 13640620 13469320
3042.18 13178350 13177070 13062630 12991990 12779400 12716250
3045.07 12596530 12446460 12371190 12313940 12263190 12022870
3047.96 12058690 11918460 11909910 11794200 11764440 11640150
3050.85 11560310 11550130 11526150 11522580 11392430 11239680
3053.75 11223020 11220440 11177350 11099010 11092360 11024600
3056.64 10988410 11009250 10955200 10933000 10854210 10836390
3059.53 10806890 10819170 10799560 10773820 10750730 10686320
3062.42 10768940 10740270 10787490 10722600 10704820 10712480
3065.32 10667660 10705240 10693690 10721550 10638440 10598170
3068.21 10583540 10540970 10475960 10543040 10473290 10494010
3071.10 10462140 10386710 10321420 10357990 10272000 10289180
3074.00 10168870 10276830 10108420 10149780 10054400 10072390
3076.89 9965432 9922074 9892004 9823278 9749702 9698508
3079.78 9576060 9572522 9459080 9438154 9382948 9239006
3082.67 9189780 9136534 9004078 9000658 8876410 8849348
3085.57 8648826 8629822 8551160 8509904 8417442 8320694
3088.46 8170724 8151112 8071276 7935484 7918054 7777140
3091.35 7738958 7700246 7624096 7521032 7438546 7369656
3094.24 7286536 7251648 7164596 7122108 7045074 7016496
3097.14 6910210 6851028 6659060 6692312 6632628 6570706
3100.03 6509222 6503354 6378832 6402444 6297906 6293348
3102.92 6260734 6201994 6204114 6156450 6051508 5976702
3105.82 5985644 5963366 5897006 5901388 5970876 5821420
3108.71 5846264 5874880 5822414 5727206 5750402 5669960
3111.60 5635340 5623564 5643130 5626474 5546378 5732224
3114.49 5659734 5631062 5620240 5552632 5532210 5603210
3117.39 5518698 5561166 5577322 5544952 5586408 5563928
3120.28 5489922 5548568 5575986 5584232 5537748 5557916
3123.17 5472736 5519080 5597438 5582572 5561278 5537596
3126.06 5602780 5563510 5641962 5759288 5657554 5760654
3128.96 5692806 5706968 5811050 5722162 5811552 5811580
3131.85 5810660 5881530 5927114 5934936 5954404 5964210
3134.74 5938090 6056834 6100742 6158486 6164196 6187720
3137.64 6243598 6315148 6355526 6342060 6406852 6461876
3140.53 6437590 6529388 6493676 6643724 6616682 6686936
3143.42 6715058 6678640 6732234 6827052 6765822 6872666
3146.31 6871534 6799236 6824470 6941236 6837796 6894372
3149.21 6912748 6950568 6982984 6960346 6961602 6944922
3152.10 6984198 6943034 6860872 6827170 6848030 6882764
3154.99 6846928 6869190 6881342 6862880 6829462 6818436
3157.88 6714512 6797644 6760118 6742000 6744288 6613984
3160.78 6556252 6631568 6590160 6582648 6444174 6503916
3163.67 6457414 6447638 6467890 6288950 6331498 6366930
3166.56 6273572 6269852 6293362 6304874 6284228 6234132
3169.46 6234874 6208642 6208428 6267924 6196630 6300314
3172.35 6253240 6218016 6143176 6262448 6206946 6178320
3175.24 6266914 6223170 6252382 6222168 6127150 6310846
3178.13 6292386 6270972 6328224 6315462 6331984 6360810
3181.03 6346546 6362050 6315496 6419754 6332854 6436618
3183.92 6376736 6489262 6481540 6443482 6529704 6494334
3186.81 6461142 6533064 6543986 6536542 6517024 6561782
3189.70 6507680 6581888 6561624 6605724 6642632 6639544
3192.60 6573430 6674410 6557718 6572654 6597154 6683078
3195.49 6698542 6636362 6657154 6661378 6625258 6614524
3198.38 6614130 6550960 6490368 6675574 6570364 6511624
3201.27 6634374 6575652 6543808 6540404 6560958 6546764
3204.17 6528442 6515344 6473692 6485542 6551116 6436554
3207.06 6514518 6457118 6522718 6485116 6495110 6559616
3209.95 6501714 6551816 6465370 6446142 6522990 6488414
3212.85 6546926 6606704 6555366 6488226 6629092 6621436
3215.74 6656472 6746896 6719132 6783404 6759362 6790980
3218.63 6834390 6903204 6923870 6934702 7008282 7131230
3221.52 6994006 7199284 7192274 7120126 7275484 7254976
3224.42 7385194 7392478 7420414 7476640 7632096 7535602
3227.31 7633124 7557008 7542914 7713748 7636616 7647546
3230.20 7664730 7696150 7692674 7697448 7729010 7700134
3233.09 7683716 7833916 7794416 7695338 7662404 7710022
3235.99 7562908 7639064 7610268 7577380 7532468 7505988
3238.88 7507532 7434582 7420840 7336150 7293492 7220040
3241.77 7174978 7095854 6985596 6950078 6812856 6832150
3244.67 6709652 6658374 6566402 6504654 6384446 6341414
3247.56 6259522 6086700 6095708 5881984 5874754 5606610
3250.45 5672850 5528586 5376220 5318604 5286524 5039782
3253.34 4999814 4991672 4797018 4825980 4683796 4485784
3256.24 4407862 4259780 4196006 4140274 4010828 3918174
3259.13 3809718 3810676 3670980 3632448 3549262 3415842
3262.02 3289240 3287948 3207246 3100774 3005504 3035604
3264.91 2953668 2818824 2751174 2655898 2671532 2637370
3267.81 2543396 2472010 2451260 2328878 2280048 2217266
3270.70 2241658 2133600 2048382 2002340 2077826 1949934
3273.59 1940058 1908750 1929768 1861712 1779988 1837880
3276.49 1778330 1707824 1681498 1641704 1708548 1649718
3279.38 1596238 1563638 1686480 1511758 1491396 1507894
3282.27 1483308 1451860 1419408 1457560 1460372 1393350
3285.16 1432708 1411714 1514486 1302934 1296638 1327256
3288.06 1298072 1328474 1194358 1221510 1294498 1223542
3290.95 1295644 1210008 1328208 1221148 1274282 1227994
3293.84 1270568 1249276 1224082 1264218 1218404 1237926
3296.73 1278032 1304876 1213126 1312570 1288968 1278146
3299.63 1284926 1371460 1339142 1378692 1388028 1440004
3302.52 1473508 1509662 1574804 1530086 1593224 1661418
3305.41 1541472 1625642 1716308 1683548 1769630 1725136
3308.31 1767150 1898088 1798036 1933082 1974732 1951728
3311.20 1904908 1989844 2004398 2078372 2044700 2132512
3314.09 2223130 2270704 2250562 2283902 2312610 2442226
3316.98 2392552 2428136 2455302 2401028 2480478 2596990
3319.88 2444384 2402614 2436832 2532200 2445542 2473458
3322.77 2383966 2397438 2336452 2417992 2334070 2384108
3325.66 2414602 2438454 2382010 2409914 2478112 2459710
3328.55 2492698 2552654 2508390 2486038 2370656 2393010
3331.45 2357976 2323716 2336806 2347836 2274558 2268194
3334.34 2284104 2159476 2268822 2133868 2134836 2155750
3337.23 2109358 2106992 2069314 2112056 2124148 2067780
3340.13 2088398 2057992 2030170 1938366 1944050 1964008
3343.02 1949378 2120584 2059912 2099516 2053132 1993876
3345.91 2099054 1997694 2010642 2047874 1966842 1902562
3348.80 1852884 1780318 1779646 1840830 1749600 1672680
3351.70 1676278 1746568 1718984 1705304 1705476 1603922
3354.59 1546104 1688416 1598030 1615914 1538934 1490620
3357.48 1516286 1460624 1417328 1388214 1454950 1340902
3360.37 1420738 1437190 1414778 1212086 1363452 1370882
3363.27 1233158 1316300 1174860 1328236 1219244 1189734
3366.16 1192782 1179346 1171414 1168356 1239576 1170852
3369.05 1146704 1194200 1283338 1268488 1269590 1282504
3371.95 1348736 1352746 1351234 1259256 1339582 1384890
3374.84 1440870 1403500 1538432 1479384 1532876 1510476
3377.73 1728632 1671744 1644576 1671856 1761658 1773222
3380.62 1830196 1857696 1865060 1959814 2019552 1990288
3383.52 2149410 2075076 2211638 2235964 2414060 2325184
3386.41 2365236 2410588 2393326 2337824 2409944 2306748
3389.30 2422668 2398796 2298630 2404646 2369616 2336482
3392.19 2334396 2282004 2262578 2331510 2250282 2280030
3395.09 2329672 2304916 2340136 2278366 2189216 2219466
3397.98 2087844 2038952 2013026 2033160 1978188 1992808
3400.87 1916828 1870500 1820280 1743646 1746096 1851138
3403.77 1726312 1603062 1566094 1537278 1551892 1593140
3406.66 1449590 1505866 1461372 1393918 1485726 1326764
3409.55 1286200 1210374 1267766 1198436 1121556 1160696
3412.44 1096758 1138674 1073404 1115596 1033178 1046870
3415.34 1063780 1023736 1034832 1136152 1098196 1071446
3418.23 1100966 1082156 1153720 1110542 1112600 1111536
3421.12 1072706 1171178 1183012 1254256 1173124 1210050
3424.01 1264690 1251696 1274182 1327758 1254364 1361410
3426.91 1359144 1366146 1352346 1502188 1422864 1498020
3429.80 1533378 1616748 1618430 1517848 1625512 1604092
3432.69 1620130 1644154 1535114 1558402 1631290 1666938
3435.59 1685046 1652732 1650758 1784586 1643198 1806236
3438.48 1692560 1683750 1669374 1689366 1688260 1805150
3441.37 1644660 1623672 1629782 1657904 1672498 1598474
3444.26 1561470 1457050 1530742 1541324 1492188 1491860
3447.16 1416178 1408868 1386396 1276872 1320870 1258368
3450.05 1275974 1152572 1133188 1175786 1125858 1114822
3452.94 1140016 1098022 1133248 1001890 1069864 972412
3455.83 959172 973664 910298 815232 912940 843846
3458.73 900922 833468 766028 823486 751174 868406
3461.62 800702 829978 868426 822122 836570 892868
3464.51 714768 843662 813422 788838 725760 750130
3467.40 919718 796352 824174 816322 915596 916686
3470.30 881030 969866 875652 920624 951522 938024
3473.19 974184 1023306 1036588 982660 983918 1018796
3476.08 1137552 1100188 1122324 1241700 1271918 1200702
3478.98 1234550 1287484 1218838 1260256 1196228 1267138
3481.87 1240878 1275748 1257580 1211280 1152710 1279138
3484.76 1177654 1244328 1128398 1172948 1151938 1077384
3487.65 1140012 1188936 1137928 1020316 1138182 959824
3490.55 1086788 994576 1027890 1053048 957468 1036846
3493.44 1029602 939264 884382 821448 928588 833140
3496.33 790004 764230 751850 715586 731464 690294
3499.22 640586 664060 657752 574074 595496 549864
3502.12 531936 529332 425636 512730 405916 496132
3505.01 503534 377124 361738 333960 330732 304688
3507.90 390012 307494 291166 350806 262482 308486
3510.80 246708 257068 269438 285386 168472 264348
3513.69 181222 158216 146308 129952 150990 195226
3516.58 262576 189440 155572 123628 166244 153562
3519.47 192504 74748 101428 192498 139596 141824
3522.37 119236 187308 200186 168488 140270 105914
3525.26 82318 32956 141978 122206 100814 76886
3528.15 112868 164914 93356 92552 68768 141610
3531.04 160438 63846 2426 55118 98770 71390
3533.94 77518 95474 65206 147244 106430 114912
3536.83 136842 69624 121916 130964 140232 89580
3539.72 81760 78952 92610 144686 50254 91946
3542.62 92148 57564 34768 148724 158380 98608
3545.51 1454 136090 255738 190770-7548 180278
3548.40 88496 55660 32064 93152 137698 140480
3551.29 102872 181772 76918 17424 69478 95492
3554.19 125798 52406 99550 98386 75848 66862
3557.08 158564 57084 91368 150864 68776 57722
3559.97 58016 49646 129522 71372 58242 70450
3562.86 78842 55806 144314 58462 81780 168516
3565.76 198042 186680 104516 161434 264850 101478
3568.65 63214 128118-21754 55442 28792 33138
3571.54 93776 55864 3500-26124 125826 28632
3574.44 43500 122402 43272 71794 41370-6288
3577.33 51240 107900 132244 122790 84818 79332
3580.22-26324 66020 79256 33358 80822 18032
3583.11 63642-2626 86808 115360 174850 77454
3586.01 269544 149416 110740 51830 277366 348152
3588.90 44608 125124 73014 29158 67308 66506
3591.79 106416 110840 143072 64122 68866 24764
3594.68 176854 133196 89820 32872 42906 53370
3597.58 128378 75018 86744 148328 90908 112602
3600.47 179988 146986 144850 77562 56258 203160
3603.36 32390 117128-25690 130468 89358 168544
3606.26 165958 335500 121686 100846 23396 640668
3609.15 305044 54490 152876 78204 87820 210770
3612.04 418856 219664 120058 154618 302042 191884
3614.93 142064 113542 166282 94210 196624 276142
3617.83 112030 85112 321496 614840 54832 123660
3620.72 131334 120642 130202 110400 81324 139122
3623.61 24054 160118 58804 123262 75134 181222
3626.50 123756 136594 190610 802428 61076 717040
3629.40 657360 2704 194666 101786 155904 79164
3632.29 150648 37724 331714 120224 148148 59650
3635.18 28180 119552 54346 110950 54790 101798
3638.08 162468 121262 97446 69334 79180 151824
3640.97 69328 71312 94320 109458 104198 70790
3643.86 148716 76088 156290 80306 168460 188754
3646.75 465284 294294 168572 90200 850574 580192
3649.65 61070 433928 244400 344106-5574 177534
3652.54 58250 82960 76356 33298 160952 100172
3655.43 316730 662150 79538 165012 74262 130230
3658.32 57814 170492 55394 41792 95126 152780
3661.22 62206 123292 85008 157718 148102 166874
3664.11 142096 130398 147538 166500 144640 168262
3667.00 172990 110150 315674 571560 202884 176820
3669.90 476246 1256018 74768 391182 42252 302002
3672.79 117692 361948 118176 728868 526578 578698
3675.68 1032810 120666 328232 214518 284504 247904
3678.57 220412 468178 294552 222426 211934 226162
3681.47 247288 243338 195540 287412 248604 307946
3684.36 198876 310140 267492 439870 212558 418322
3687.25 174724 1231410 1135076 233720 457164 317074
3690.14 437956 630902 604638 240152 424488 265280
3693.04 409560 307430 382992 423062 434568 345110
3695.93 432194 372270 406272 365274 474190 404092
3698.82 438338 463758 429278 388354 607510 703918
3701.72 561294 507126 553220 482336 469462 470068
3704.61 522134 466196 568772 434316 502644 483488
3707.50 567978 496266 683432 930720 635464 604574
3710.39 596884 551184 868462 1369750 523118 560986
3713.29 493264 517808 546050 536326 507328 472522
3716.18 372436 410788 383252 446916 501790 510990
3719.07 340060 463612 284898 397012 370526 586674
3721.96 574516 386250 393434 301728 439192 366310
3724.86 479328 308830 487366 559916 282942 404744
3727.75 389806 320702 261236 302436 344292 372772
3730.64 292500 420850 1057302 590252 277710 408492
3733.54 303276 577662 490844 664724 229490 649538
3736.43 934838 311324 411122 478440 341454 360988
3739.32 343738 344902 328770 401854 330992 298916
3742.21 321358 411762 541306 893422 2015156 892850
3745.11 350242 412992 268944 359820 427320 473144
3748.00 323968 668466 1515642 554976 379472 403672
3750.89 360084 767246 1609364 374178 364876 272300
3753.78 358098 307814 348110 338826 354070 506820
3756.68 364880 308796 326876 337954 433752 533866
3759.57 667712 332786 342220 332440 421624 329158
3762.46 454066 364882 378698 411134 395472 355388
3765.35 705040 327134 406934 438090 454028 397860
3768.25 468566 329310 749672 719470 426598 466608
3771.14 378198 426390 471718 430826 408164 482304
3774.03 526114 399944 518028 448236 544966 505984
3776.93 492652 503104 481720 509308 690906 675576
3779.82 530112 597570 467644 617948 545174 620360
3782.71 638488 601172 501792 651682 555480 552980
3785.60 641466 598520 648486 682326 601366 621806
3788.50 621252 583110 691978 636134 641186 576374
3791.39 522158 627842 569132 690582 610756 617018
3794.28 548806 645302 629566 904634 731060 634650
3797.17 729152 632808 675190 688082 640236 779948
3800.07 678154 1118322 1828108 686762 729024 801444
3802.96 717648 696962 619278 675738 642176 683568
3805.85 727092 1222560 1249232 502182 763744 583478
3808.75 815724 746342 713112 681816 739376 617480
3811.64 759394 704796 823892 592976 865508 690498
3814.53 890128 755180 1897222 1365836 639602 853562
3817.42 796604 874494 824856 940528 839646 984996
3820.32 1317126 958728 1437966 1027350 798064 941102
3823.21 802730 940616 914522 988374 969626 925586
3826.10 1095478 1070260 938398 1005590 1000782 968300
3828.99 1075330 935194 999596 1015704 1163442 1348628
3831.89 973754 1134134 987170 1128740 986952 1396648
3834.78 1285388 1058936 963404 1168566 986828 2039772
3837.67 1871140 940914 1169000 1036318 1287018 1020234
3840.57 1389516 1095430 1106050 1012726 1051336 1164440
3843.46 1272370 1025536 1041810 982490 1047546 1003312
3846.35 982460 992584 1002932 933496 1089830 953536
3849.24 1005848 915762 1044144 1025654 1268682 2074956
3852.14 1139868 1099954 1368450 2456606 2047402 852816
3855.03 1045032 870180 1049472 1027004 1130142 911036
3857.92 947034 894206 960964 945812 1060854 894930
3860.81 1076986 1211096 1036756 923970 1156878 1034644
3863.71 1137326 1120630 1570928 1180650 1130128 909254
3866.60 1161566 1051472 1209532 1082300 1395596 1102200
3869.49 1765824 1634336 1083688 1224680 1057984 1240128
3872.39 1199752 1375380 1417118 1555516 1447828 1248194
3875.28 1368086 1398054 1386662 1428730 1355394 1458192
3878.17 1459792 1580274 1564890 1807604 1652018 1567212
3881.06 1612334 1551006 1649550 1594010 1734560 1639874
3883.96 1789696 1593166 2060636 2314246 1805528 1722134
3886.85 1841242 1842452 1862454 1923676 1969062 1908372
3889.74 2007382 1949434 2406936 2247964 1958474 2033142
3892.63 2075892 2108018 2152912 2187526 2149630 2113208
3895.53 2095862 2138272 2127472 2164130 2267264 2183008
3898.42 2366494 2622332 2291280 2334678 2322008 2340646
3901.31 2774256 2559162 2466724 2419838 2418028 3018022
3904.21 2548272 2598032 2481566 2632964 2470344 2551508
3907.10 2565178 2581186 2647030 2559362 2700928 2697502
3909.99 2640334 2684398 2797748 2775892 2776954 2829822
3912.88 2864694 2885222 2849402 2902786 2933950 2986316
3915.78 3119020 3024976 3202920 3005754 2938472 3047772
3918.67 2983932 3067458 3156668 3140274 3099514 3038152
3921.56 3050826 3009092 3115036 3137220 3171636 3159020
3924.45 3272318 3206918 3093314 3169990 3056658 3165940
3927.35 3107148 3034094 3056960 3125304 2984660 2979378
3930.24 2833710 2830148 2926358 2915294 2843894 2760836
3933.13 2760232 2717398 2760198 2786272 2718530 2628844
3936.03 2530236 2654652 2676004 2502866 2430156 2400154
3938.92 2440480 2311668 2390246 2321604 2296262 2220080
3941.81 2157454 2370886 2160864 2131456 2099970 2070026
3944.70 2031188 2054436 2093992 2076128 2091206 2012672
3947.60 2103316 2019660 2073466 1996910 1883110 2081788
3950.49 1971732 2007314 2048062 2023584 2108028 2029074
3953.38 2101444 2063088 2030260 2048480 2116722 2094238
3956.27 2105510 2185274 2158398 2242814 2127806 2225808
3959.17 2180026 2177950 2159760 2241732 2266330 2253162
3962.06 2232614 2234102 2257144 2312688 2256178 2280644
3964.95 2242452 2282548 2293418 2334416 2356440 2361714
3967.85 2435004 2325706 2432862 2439094 2441418 2449394
3970.74 2497392 2467410 2456706 2503486 2481496 2456036
3973.63 2609234 2459968 2581890
##END=
