##TITLE=Methyl tert-Butyl Ether
##JCAMP-DX=4.24
##DATA TYPE=INFRARED SPECTRUM
##CLASS=IUPAC A
##ORIGIN=NIST, Anayltical Chemistry Division, 301-975-3108
##OWNER=COPYRIGHT (C) 1998 by the U.S. Secretary of Commerce
##DATE=98/10/1
##$SPECTRA VERSION=1.00
##$UNCERTAINTY IN Y=2.1 % relative (B=1.1E-04,C=7.8E-10,D=2.7E-14)
##CAS NAME=tert-Butyl Methyl Ether
##CAS REGISTRY NO=1634-04-4
##MOLFORM=( C H3)3 C O C H3
##MP=-109 C
##BP=55.2 C
##$NIST SOURCE=QUANT-IR
##SPECTROMETER/DATA SYSTEM=IFS66V (Bruker)
##INSTRUMENT PARAMETERS=KBr Beam splitter; MCT Detector; Multipass cell
##STATE=gas
##SAMPLE DESCRIPTION=MTBE Primary Gas Standard
##PRESSURE=101.3 kPa
##TEMPERATURE=23 C
##SAMPLING PROCEDURE=1 L/min Flow
##RESOLUTION=1.9290
##DATA PROCESSING=Happ Genzel Apodization
##XUNITS=cm-1
##YUNITS=(micromol/mol)-1m-1 (base 10)
##XFACTOR=1.0
##YFACTOR=9.0949E-13
##DELTAX=0.9645
##FIRSTX=574.687
##LASTX=3974.595
##FIRSTY=0
##MAXX=3973.63
##MINX=574.69
##MAXY=.0011668
##MINY=-2.55E-07
##NPOINTS=3527
##XYDATA=(X++(Y..Y))
574.69 22044-60356 23152 78210-50348-93752
579.51-205100-233142-294988-246218-74124-128338
585.29-280582-300298-238324-43944 55452 44618
591.08-19910-68420 80920 155888 39598 18002
596.86 59346-49280-125876 2182 72764 66520
602.65 85620 64476 40870 30464 17270 670
608.44 99028 147982 58546 77458 77472 93670
614.22 72648 16826 36062 66116 71738 64366
620.01 61862 70960 89984 84694 86326 70338
625.79 86812 140490 108422 107572 131198 116578
631.58 103572 100110 96022 78754 64428 60192
637.36 78962 131396 151122 131586 66724 84808
643.15 120106 99526 128060 128080 66418 75366
648.93 93884 90282 97316 140272 139598 126238
654.72 95930 90976 110730 141580 156708 119378
660.50 107128 146968 150342 128388 132178 114992
666.29-59412-37152 136966 167132 199944 230108
672.08 277580 366340 373220 371206 449484 446284
677.86 435534 457624 480840 515250 555006 554236
683.65 516332 524628 619974 617454 638152 678054
689.43 700622 732690 768304 835390 922630 1053782
695.22 1215210 1412616 1603436 1880226 2267440 2737252
701.00 3343728 4069778 4963446 6032016 7264224 8652900
706.79 10237170 12056580 14041250 16081860 18158560 20168230
712.57 22058350 23716440 25059380 26032020 26679850 27079450
718.36 27432290 28154320 30097390 34078230 40899240 49649400
724.14 54571600 49283220 38956580 31767300 28270800 27132910
729.93 27451790 28496780 29425700 29760460 29206150 27819640
735.71 25725210 23182500 20391670 17534030 14789280 12335470
741.50 10100470 8220936 6677898 5388786 4338370 3544304
747.29 2962750 2524776 2132208 1867230 1667294 1534472
753.07 1440316 1353806 1281182 1249230 1229972 1261038
758.86 1248766 1234786 1228602 1255556 1272642 1267596
764.64 1231904 1203174 1225830 1242800 1270548 1291882
770.43 1296460 1301328 1262846 1269250 1262844 1241444
776.21 1244634 1245170 1191054 1144310 1149164 1174242
782.00 1169648 1143136 1112348 1106776 1117898 1136646
787.78 1118896 1115052 1096716 1121728 1170016 1156788
793.57 1121390 1130668 1119204 1149738 1203848 1205518
799.35 1209850 1228416 1272710 1310856 1346250 1389666
805.14 1414110 1473526 1493702 1522762 1565502 1625522
810.93 1694114 1756284 1791156 1822122 1902666 1991726
816.71 2069012 2193528 2341396 2506614 2752094 3039564
822.50 3380678 3801530 4302252 4961534 5780610 6727228
828.28 7903774 9391058 11161750 13308020 15887420 18959710
834.07 22470140 26488850 31117130 36307590 41981030 48008760
839.85 54208210 60467280 66678940 72503330 77633420 81955400
845.64 85463520 88268660 90581800 93034300 97149010 104479300
851.42 116021600 131350000 148619400 162963900 162781000 140526400
857.21 112286800 95941900 89813290 89084660 91379630 94291430
862.99 95683210 94529720 90369200 83630250 75187520 65815500
868.78 56111880 46739080 38139660 30612810 24210710 18928440
874.57 14648550 11315900 8725908 6758620 5266596 4170424
880.35 3313804 2714334 2284704 1994028 1753756 1601006
886.14 1482678 1398622 1323958 1320262 1309656 1316000
891.92 1290760 1306738 1321132 1326630 1323550 1313016
897.71 1291194 1308532 1355950 1449844 1527890 1650758
903.49 1760024 1880060 1903590 1831034 1691462 1565540
909.28 1452810 1426148 1436714 1450616 1459830 1502232
915.06 1520710 1533564 1529602 1530096 1501308 1460132
920.85 1393674 1367168 1326890 1291794 1251432 1239656
926.63 1213592 1201194 1188614 1195510 1174042 1162690
932.42 1159126 1162300 1133954 1131236 1111190 1110402
938.21 1117540 1118694 1101746 1120156 1153082 1188662
943.99 1180968 1199182 1183824 1181900 1179168 1187548
949.78 1181388 1213308 1219650 1226828 1234718 1278256
955.56 1285856 1298838 1298702 1329674 1365568 1400786
961.35 1415034 1457666 1492162 1532484 1570252 1655994
967.13 1710156 1743404 1779716 1879108 1965792 2034998
972.92 2100304 2202044 2298116 2415576 2488830 2573266
978.70 2677214 2825292 2938160 3028386 3101632 3204280
984.49 3327674 3452990 3567022 3706680 3845650 4018286
990.27 4195714 4398860 4606522 4851586 5119124 5482092
996.06 5901282 6385094 6932732 7613624 8392126 9271392
1001.85 10277140 11476760 12814320 14295170 15958750 17861020
1007.63 19925940 22117370 24404070 26687300 28926400 31104490
1013.42 33120530 34903720 36381750 37440820 37946720 37749240
1019.20 37268160 37533520 39431200 43731550 48312060 45241860
1024.99 37573220 33457160 32334790 32466460 32702430 32714520
1030.77 32087210 30852880 28946970 26691430 24131940 21531630
1036.56 18931760 16561790 14408220 12627250 11131980 10024840
1042.34 9164278 8608860 8174062 7964642 7835454 7896372
1048.13 8000602 8279962 8631906 9107166 9595998 10246560
1053.91 10921170 11737180 12631180 13717680 14909320 16425060
1059.70 18153820 20367810 22863900 25718280 28920520 32711310
1065.48 37097230 42633390 49163420 56572700 65264910 75658650
1071.27 87621790 101552900 117314400 135335900 155959200 179881700
1077.06 205647600 232597900 261392700 292008100 323821500 353969700
1082.84 381755900 410155600 438141000 465354400 490795500 516949800
1088.63 535851600 546695600 557936000 569909900 586538400 609267300
1094.41 634482800 657389200 663260400 644917200 615068300 579492900
1100.20 541576100 514485900 504830100 493340900 472211400 448026700
1105.98 417701400 380320200 338729600 294871900 250183600 208063200
1111.77 170938500 139116000 113057600 92229320 75639260 62878610
1117.55 53327630 46027230 40521850 36110500 32604050 29854920
1123.34 27682830 25912450 24456980 23219030 22236340 21374080
1129.12 20641730 20027680 19608050 19315820 19183120 19109320
1134.91 19010850 18986460 19111030 19337900 19675670 20053050
1140.70 20485160 20987050 21484670 21908490 22311790 22698510
1146.48 23134920 23685950 24289970 24921790 25769150 26892790
1152.27 28171010 29544250 30852680 31675230 31859680 31844220
1158.05 31932100 32216050 32692970 33309840 33965580 34769600
1163.84 35729080 36624890 37469460 38369700 39180850 39714470
1169.62 40246320 41070560 42181270 43613700 45165570 46914130
1175.41 49031340 51579610 54501220 57707900 60901370 63981930
1181.19 66925780 70194790 74333260 79903700 87197470 96421260
1186.98 107503000 120529100 135455600 152455400 171462800 192611000
1192.76 215662100 239946400 264160400 287741700 311129800 334298000
1198.55 355986200 375712800 393331200 409381000 424648800 441833400
1204.34 464969000 497997500 543465100 597971600 648449900 666334600
1210.12 611898600 528410100 497104500 507120100 526012700 545676900
1215.91 561347800 567226800 562000000 540743400 500180400 453157600
1221.69 404701800 355678000 312398300 276719600 248649200 226945400
1227.48 210112400 197270700 188183500 182029000 178720500 177841700
1233.26 178911100 179533100 177263600 172437400 166067000 158105000
1239.05 149217300 140744100 134077300 129455200 126363100 123606200
1244.83 121611800 120490600 119855000 119613600 119557900 119072600
1250.62 118564000 118178800 117748900 116863500 115335200 113313100
1256.40 110928200 108333300 105979400 104245400 103616300 104226400
1262.19 105746500 107344800 107870200 105988800 100891100 92887540
1267.98 83250810 74758170 68593280 63910400 60051050 56481710
1273.76 53218240 50012970 46809100 43181280 39115120 35276700
1279.55 31883710 28825550 26005430 23388580 21077890 18941260
1285.33 16961550 15193620 13664760 12297340 11106200 10076610
1291.12 9193234 8410994 7749422 7154120 6653610 6191762
1296.90 5780578 5408034 5092052 4812792 4591102 4388058
1302.69 4216226 4042488 3897112 3763638 3671814 3580540
1308.47 3511816 3440334 3382054 3329114 3290922 3239742
1314.26 3213968 3160148 3110738 3070392 3041962 3016032
1320.04 3014142 2994494 2996324 3016338 3048108 3059810
1325.83 3070896 3079398 3129622 3204636 3294724 3406786
1331.61 3563866 3759160 4020200 4358904 4801066 5367296
1337.40 6098214 7029412 8201382 9679370 11582730 14017480
1343.19 17087710 20955220 25760830 31685950 38846780 47381240
1348.97 57366910 68873720 81786150 95908860 110930100 126433500
1354.76 141670000 155852500 168059900 177634300 184090600 187820200
1360.54 190442000 195514000 208379300 235873100 279766800 328834000
1366.33 367565000 385726100 371028500 333017900 287390900 243385800
1372.11 219292200 215152200 221122200 229478600 236082000 237959300
1377.90 234510400 225639100 212447600 195704000 176931200 156908800
1383.68 137145200 119018600 105847900 102057500 112773400 138183900
1389.47 158046800 133298600 84356850 57451690 52481000 56404190
1395.25 62850370 68987700 72857480 73665410 71051410 65727190
1401.04 58471900 50277080 41997710 34392490 27707090 22234060
1406.83 17974150 14848010 12580090 10997580 9928892 9246240
1412.61 8834344 8646738 8610064 8677838 8814100 9087078
1418.40 9433184 9494124 9559652 9786044 10023720 10256050
1424.18 10456290 10680390 10903970 11133740 11387290 11686350
1429.97 11956010 12239450 12529700 12860030 13301250 13975770
1435.75 14780900 15346510 16064920 17165030 18221610 19142970
1441.54 20421260 22129860 24065370 26149870 28357920 30650810
1447.32 32906270 35095210 37365200 39653610 41950030 44271840
1453.11 46677690 49167760 52011390 55216630 58772450 63378310
1458.89 69020830 75286820 81535080 86889310 90707280 92931100
1464.68 93696710 93597180 93288620 93329680 94247020 96553330
1470.47 100339900 104412900 107189100 107937800 106510200 104509800
1476.25 102638200 99667060 96426310 93555860 90933620 88570460
1482.04 86552850 84930120 83659940 82465940 80123880 74414670
1487.82 66108450 58570380 52963440 48795680 45519510 42768510
1493.61 40202940 37784700 35167320 32194730 29326500 26436730
1499.39 23554970 20911280 18458850 16243330 14356390 12930410
1505.18 11666200 10404670 9148718 8189280 7486486 6901800
1510.96 6504294 6128902 5783126 5578888 5422032 5347378
1516.75 5206106 4995566 4964894 5132170 5131480 4887040
1522.53 4709970 4669648 4739116 4654880 4611960 4589160
1528.32 4551820 4550736 4597876 4651582 4788342 4823522
1534.11 4726376 4712326 4749744 4967590 5358574 5414306
1539.89 5248720 5241908 5152408 5002334 5067930 5046952
1545.68 4970244 4996340 5062294 5113980 5141026 5119444
1551.46 5144888 5283720 5460080 5372086 5389004 5723154
1557.25 6136586 6273880 6362480 6184086 6120906 6290880
1563.03 6514662 6752736 6935904 7124648 7335296 7612894
1568.82 7837914 7813428 7816866 7871146 7939032 8098096
1574.60 8584990 8916540 8879694 9027050 9106460 8813730
1580.39 8049540 7282662 6903252 6823454 6836790 6859396
1586.17 6820512 6673646 6400814 6014242 5511384 4935866
1591.96 4366250 3867084 3422814 3033668 2729288 2488296
1597.74 2307608 2173450 2075600 1996298 1949184 1914560
1603.53 1880454 1860558 1842552 1822710 1821912 1834650
1609.32 1836248 1857138 1906034 1931818 1967672 2056922
1615.10 2394036 2526604 2237530 2179966 2227224 2282920
1620.89 2336896 2474814 2581744 2527310 2532360 2641412
1626.67 2773422 2828026 2828968 2813008 2770584 2715014
1632.46 2684762 2811590 3032124 2872590 2675730 2629140
1638.24 2566188 2552592 2527258 2506248 2435312 2374604
1644.03 2427716 2534662 2364998 2201176 2056904 1930858
1649.81 1911804 2242780 2666874 2453696 1985844 1715678
1655.60 1607918 1580508 1539922 1513250 1476952 1481332
1661.38 1557308 1538440 1409410 1381232 1372288 1391422
1667.17 1462374 1609828 1553866 1492430 1472724 1425980
1672.96 1479216 1699694 1704518 1546674 1532444 1578726
1678.74 1656502 1715564 1758284 1936434 2246182 2630186
1684.53 2534276 2280544 2371478 2517028 2678004 2834374
1690.31 3009968 3186464 3388122 3629190 4176868 4545992
1696.10 4342032 4355330 4684632 5183228 5199432 4952212
1701.88 4960368 5124156 5281930 5425048 5567818 5606994
1707.67 5608950 5487480 5178378 4751774 4447788 4400216
1713.45 4507588 4536924 4551994 4683098 4397580 3896772
1719.24 3485448 3140486 2815126 2523924 2242414 1992496
1725.02 1820054 1699916 1600458 1553398 1547812 1501518
1730.81 1486176 1653454 1883586 1833158 1539218 1411974
1736.60 1435118 1476726 1599676 1562026 1449054 1460000
1742.38 1500020 1486982 1460946 1462070 1487936 1523452
1748.17 1531526 1527902 1620706 1525386 1378422 1353600
1753.95 1334944 1377516 1429034 1366988 1315660 1291386
1759.74 1303470 1372238 1295486 1185150 1142624 1112252
1765.52 1111230 1168480 1183922 1086518 1108626 1213782
1771.31 1340532 1270760 1079376 1050612 1021422 974264
1777.09 948936 957372 979198 995486 978842 987340
1782.88 1026504 1091838 1086036 1095566 1135720 1191128
1788.66 1263204 1374600 1512374 1677154 1676512 1676848
1794.45 1785062 1902470 2040728 2214410 2427178 2595044
1800.24 2751506 2926652 3067712 3204544 3360808 3530674
1806.02 3701776 3863948 4018028 4202342 4383310 4507888
1811.81 4614156 4702406 4739152 4742924 4767048 4801816
1817.59 4813378 4820578 4841346 4836454 4781502 4688088
1823.38 4564230 4352700 4063568 3863150 3741696 3663228
1829.16 3543206 3293444 3052622 2847922 2616392 2372792
1834.95 2135100 1921140 1733616 1582388 1462084 1353256
1840.73 1276662 1236304 1318234 1319286 1159716 1102194
1846.52 1090024 1078634 1049658 1041220 1026914 1012588
1852.30 990700 976750 962004 966646 970888 971088
1858.09 975354 969814 962432 973756 989684 1001998
1863.88 1011762 1022470 1054774 1089418 1130292 1136842
1869.66 1083882 1066426 1057826 1067832 1075442 1088238
1875.45 1104798 1141918 1181812 1205066 1173528 1127190
1881.23 1106270 1128534 1166328 1201174 1214064 1232970
1887.02 1256016 1284198 1273026 1239620 1230006 1232976
1892.80 1253458 1295470 1317296 1305522 1287776 1276458
1898.59 1288516 1305734 1328804 1354610 1387674 1440900
1904.37 1494072 1554736 1582820 1584528 1601060 1639300
1910.16 1687800 1756312 1849196 1953442 2054702 2191466
1915.94 2352958 2539230 2673006 2815042 3002314 3221316
1921.73 3463374 3695422 3925274 4179122 4457216 4755024
1927.51 5069034 5400486 5757680 6144538 6544832 6910748
1933.30 7149424 7325948 7550224 7836000 8128660 8403720
1939.09 8676262 8934288 9150890 9273742 9298702 9260936
1944.87 9151222 9047884 8965848 8906176 8848014 8755534
1950.66 8555490 8290430 7957020 7465552 6983516 6632920
1956.44 6330312 6002044 5605986 5182740 4716204 4228824
1962.23 3728834 3237726 2764774 2351604 2004814 1724910
1968.01 1499140 1312274 1161428 1041722 948406 885050
1973.80 836220 808716 780668 742020 705400 695952
1979.58 692306 676144 650716 641920 630126 625172
1985.37 620200 624836 628944 625374 622410 636024
1991.15 647058 627168 602196 599346 608516 611996
1996.94 596912 606920 620938 620828 625896 624154
2002.73 617312 617574 620420 625450 626360 636486
2008.51 648482 660624 652302 654900 669238 677548
2014.30 679974 695236 710052 714694 710356 727700
2020.08 764972 798502 811214 828114 856782 889922
2025.87 902108 929848 965052 986280 1035236 1108462
2031.65 1169456 1239264 1327528 1428104 1532276 1643464
2037.44 1733166 1845996 1983962 2141532 2301866 2476784
2043.22 2668346 2855556 3021062 3200388 3371020 3551654
2049.01 3748064 3917462 4051826 4192268 4332018 4472524
2054.79 4620652 4783550 4949976 5099580 5223720 5297802
2060.58 5242406 5005712 4664796 4445296 4379502 4393032
2066.37 4416266 4407738 4290670 4066404 3791354 3489688
2072.15 3167568 2839754 2569216 2384036 2263628 2170388
2077.94 2083558 2058668 2079144 2131782 2137220 2143366
2083.72 2177382 2264100 2343820 2404582 2540412 2744482
2089.51 2951826 3016318 2971158 2889878 2816386 2707398
2095.29 2569930 2537830 2606744 2713010 2702940 2718448
2101.08 2778724 2850538 2779582 2666912 2628538 2660186
2106.86 2615936 2487566 2460080 2535110 2622270 2568524
2112.65 2523236 2515728 2513502 2384322 2288222 2331382
2118.43 2471972 2442364 2331676 2303052 2339754 2242030
2124.22 2043952 1957020 1959280 1914916 1779522 1712032
2130.01 1687578 1635962 1512276 1455132 1445938 1431424
2135.79 1359632 1332018 1337870 1354726 1348646 1368066
2141.58 1407020 1467192 1527598 1631678 1764250 1885018
2147.36 1980396 2107854 2279334 2461398 2624890 2846484
2153.15 3143798 3432976 3677002 4010236 4412756 4752684
2158.93 5054262 5504866 6015548 6410236 6777486 7293048
2164.72 7789648 8150330 8541224 9072922 9500578 9777602
2170.50 10097050 10503730 10721180 10874000 11252040 11650880
2176.29 11768130 11789780 11874560 11816000 11536610 11305710
2182.07 10920740 10306610 9829348 9578110 9257350 8768798
2187.86 8234752 7648548 6919300 6153484 5454850 4763588
2193.64 4080768 3580234 3218240 2836592 2492520 2279542
2199.43 2050752 1820354 1673852 1545694 1393346 1303092
2205.22 1253410 1179172 1120118 1124532 1092824 1053920
2211.00 1063512 1075928 1064510 1092122 1119094 1141822
2216.79 1169234 1218364 1263288 1310368 1339946 1332512
2222.57 1308730 1326240 1354446 1349072 1288004 1231472
2228.36 1221372 1247816 1283228 1304086 1294318 1275412
2234.14 1234644 1193010 1150172 1109190 1060778 1028708
2239.93 1013162 1022886 1044778 1065200 1082458 1111664
2245.71 1113800 1106234 1124398 1158138 1183656 1242396
2251.50 1307580 1365584 1427596 1509012 1563572 1619638
2257.28 1662812 1718164 1786830 1851374 1894936 1965602
2263.07 2052016 2167040 2316374 2469774 2574900 2647692
2268.86 2647966 2595212 2550850 2575250 2638342 2740644
2274.64 2825378 2869572 2864602 2837060 2797258 2774494
2280.43 2755460 2746056 2729808 2696080 2629230 2558436
2286.21 2470276 2387078 2320760 2279612 2234680 2205948
2292.00 2185358 2171840 2135854 2078594 1994558 1917834
2297.78 1845878 1790498 1737260 1707812 1668670 1629038
2303.57 1571252 1518774 1440158 1371918 1305084 1240832
2309.35 1198738 1175422 1145214 1098704 1080200 1022500
2315.14 976518 910874 879286 838186 806542 754624
2320.92 724282 686148 677300 653788 655292 633932
2326.71 609328 604320 621212 626284 645212 666802
2332.50 688674 728294 762940 793536 843482 893660
2338.28 940136 1002546 1091266 1193478 1273336 1349374
2344.07 1435148 1530012 1643934 1767428 1857902 1913512
2349.85 1939862 1950168 1956952 1992118 2019888 2038106
2355.64 2034472 2045588 2068170 2100378 2132166 2155452
2361.42 2160514 2160206 2134558 2125088 2126188 2139650
2367.21 2137724 2148372 2157928 2148778 2120922 2107428
2372.99 2071056 2042844 2018274 1984546 1938884 1931084
2378.78 1915528 1881698 1848362 1839808 1834408 1832734
2384.56 1830118 1835480 1807544 1766130 1710726 1663956
2390.35 1614820 1576488 1531960 1510688 1483808 1457490
2396.14 1432936 1421872 1407044 1394688 1374236 1361816
2401.92 1346150 1341836 1339502 1355962 1366610 1363722
2407.71 1362130 1385594 1397550 1426340 1434480 1451366
2413.49 1458744 1458092 1449926 1479596 1467942 1427916
2419.28 1386918 1380556 1362474 1342986 1324330 1301628
2425.06 1248988 1191124 1117858 1030934 950398 879856
2430.85 794042 746304 688128 644344 606812 590540
2436.63 563788 541170 532348 528848 506958 490672
2442.42 466730 457632 449396 446320 444270 452498
2448.20 447012 446504 436456 454020 467992 486702
2453.99 502460 539054 555066 579656 603072 629268
2459.77 645332 669788 681426 710006 729470 744956
2465.56 764294 797642 800026 824320 851692 866598
2471.35 866546 889266 903750 940072 949896 936764
2477.13 912778 917828 900994 894430 886738 890860
2482.92 872750 851286 815182 790392 766216 766674
2488.70 759008 730186 677962 661122 646846 634150
2494.49 602872 594016 569608 568668 560618 548324
2500.27 531652 527012 510098 493796 461130 459588
2506.06 445714 448986 446106 431662 405890 409124
2511.84 403854 385028 361738 378600 381652 379416
2517.63 389726 407008 404470 410044 398184 405290
2523.41 404848 414470 418858 430978 454604 463848
2529.20 452972 481602 500226 499862 511546 543334
2534.99 576628 620438 653184 706954 721940 750922
2540.77 789786 835916 861960 900608 940244 976416
2546.56 1009822 1051958 1066620 1095848 1131234 1169370
2552.34 1200422 1260588 1304506 1354654 1399838 1463428
2558.13 1515896 1572602 1615310 1691504 1763438 1827490
2563.91 1887134 1975238 2050900 2146544 2238386 2329478
2569.70 2424134 2526034 2588060 2679072 2765776 2867596
2575.48 2957222 3082710 3206548 3332822 3418816 3517614
2581.27 3650132 3830370 4001826 4143752 4235364 4302690
2587.05 4307308 4298838 4265828 4237922 4225272 4275534
2592.84 4342138 4429334 4492990 4556766 4618870 4681964
2598.63 4693560 4705162 4711896 4740692 4760108 4797938
2604.41 4821414 4872508 4923166 4981336 5015968 5057990
2610.20 5099654 5132130 5159804 5215614 5259370 5304470
2615.98 5345508 5408528 5448518 5459644 5426664 5440804
2621.77 5455054 5474990 5453034 5412500 5336154 5260524
2627.55 5168668 5103940 5019252 4970584 4925438 4899216
2633.34 4873582 4837908 4764708 4697570 4632870 4614952
2639.12 4606956 4641294 4637854 4646882 4634738 4604720
2644.91 4549860 4504698 4428376 4372288 4333996 4351538
2650.69 4351746 4349282 4329862 4332052 4307890 4263254
2656.48 4194758 4145132 4105460 4107106 4081258 4053310
2662.27 4014510 3973796 3912536 3861832 3782854 3725000
2668.05 3680992 3662838 3617524 3596736 3567722 3561930
2673.84 3517352 3488198 3477598 3465288 3432242 3408752
2679.62 3374578 3349462 3319552 3312966 3279722 3286758
2685.41 3251936 3222682 3204152 3216168 3191502 3167802
2691.19 3149770 3172562 3167684 3179186 3180488 3184962
2696.98 3184004 3231026 3265108 3325610 3379690 3461210
2702.76 3538616 3646690 3755694 3885804 3991502 4109726
2708.55 4231512 4387884 4552556 4731344 4904816 5142814
2714.33 5391218 5680052 5926440 6153254 6338662 6534036
2720.12 6687174 6835582 6931652 7058956 7235570 7450244
2725.91 7602570 7668932 7667852 7676638 7669894 7709204
2731.69 7722652 7724236 7702312 7714426 7723384 7731250
2737.48 7676346 7576802 7451488 7355862 7238660 7135354
2743.26 7024760 6958002 6923732 6905544 6854184 6791046
2749.05 6665016 6509636 6307236 6166944 6084668 6060458
2754.83 6013844 6010686 6022574 6075574 6100734 6127844
2760.62 6132054 6153826 6162296 6170298 6142474 6162570
2766.40 6167524 6230200 6288618 6363060 6435590 6532526
2772.19 6637030 6750534 6803866 6856424 6865698 6919108
2777.97 6966768 7080964 7207802 7417574 7657864 7938354
2783.76 8188610 8430346 8644704 8898524 9157442 9458160
2789.54 9739916 10069680 10411350 10811660 11208100 11641400
2795.33 12108650 12670840 13287210 13985780 14721400 15619580
2801.12 16603050 17739090 18944540 20288550 21772470 23597310
2806.90 25896920 28816620 32292790 36302530 40688140 45633540
2812.69 51243730 57606840 64547310 71942360 79548180 87096200
2818.47 94238780 100945300 107237000 113577900 120598700 129991300
2824.26 143967700 161196600 172158500 170307900 160269000 151062400
2830.04 147847700 152215300 164926300 183590600 200100700 204215900
2835.83 192003500 171468900 152732200 140265100 133820500 131272400
2841.61 130337000 129244000 126566000 121794600 114987500 106664100
2847.40 97500020 88294110 79456860 71484020 64632670 59077930
2853.18 54750560 51674660 49641250 48526350 48163790 48562280
2858.97 49470370 50907240 52691030 54816890 57170540 59843300
2864.76 62765220 65989500 69482380 73329900 77457270 82005820
2870.54 86814780 91858910 97111460 102624900 108153400 113682100
2876.33 119009700 124339200 129641100 134939600 140114700 145271200
2882.11 150270900 155166100 160096500 165321900 170866900 176998200
2887.90 183707600 191272200 199528600 207973700 215717700 222745400
2893.68 228949400 234692300 240483200 246379400 252048100 257647100
2899.47 262988200 268140400 272931900 277671700 282510900 287381400
2905.25 291383700 293839500 294892100 295416200 296380400 298822300
2911.04 302770600 307763900 313158100 318170500 321630400 322805800
2916.82 321561700 318611500 314190800 309335300 305063800 302360700
2922.61 301330500 301692200 302346000 302624000 302254800 301646200
2928.40 301187900 301503400 302484100 304330900 306675600 309328700
2934.18 312039600 314994800 317849700 320807500 323605000 326496300
2939.97 329524100 332669200 335454300 337637600 339170000 340804500
2945.75 342613200 344979400 347020300 347953500 346582700 342973100
2951.54 337410500 331323600 325700900 322030800 320695800 322232100
2957.32 326286200 333346400 343315400 357282100 375599500 398480000
2963.11 425231700 455424500 487160500 521270400 558085900 597759700
2968.89 639066700 682202800 726505200 774333000 825715800 886909600
2974.68 965132900 1035377000 1028094000 963742700 952722900 1007305000
2980.46 1037930000 1036566000 1087860000 1194212000 1275007000 1282957000
2986.25 1196757000 1046718000 914478800 824104100 767475900 729941600
2992.04 700311500 669139800 632655200 589060000 540096500 487193400
2997.82 433091600 379149700 327923700 280205800 237407300 199657100
3003.61 167503400 140184400 117725200 99198150 84301220 72181110
3009.39 62673740 54912400 48860340 43912530 40068920 36807380
3015.18 34217270 31921060 30087650 28379360 26999050 25665270
3020.96 24581820 23516920 22651840 21774390 21055180 20236530
3026.75 19594670 18928480 18392970 17801570 17326310 16801600
3032.53 16417400 15987250 15657240 15238630 14911770 14539550
3038.32 14272000 13947370 13740770 13422280 13184530 12926130
3044.10 12721540 12466470 12314130 12096060 11966860 11794660
3049.89 11677380 11540800 11472220 11291940 11215760 11105750
3055.67 11055410 10969270 10929980 10831560 10821450 10756650
3061.46 10755020 10734650 10746690 10690130 10707840 10662810
3067.25 10623140 10531390 10518100 10457900 10409260 10312140
3073.03 10272530 10184420 10131940 10020890 9941270 9804958
3078.82 9692322 9536198 9430618 9259906 9125732 8956700
3084.60 8809342 8619098 8494658 8300626 8143696 7959068
3090.39 7823414 7669104 7537886 7362202 7247716 7106592
3096.17 6995370 6812688 6686196 6564780 6479856 6363500
3101.96 6297690 6210518 6134996 6009950 5959448 5905796
3107.74 5886114 5824668 5772892 5676654 5645708 5617202
3113.53 5653806 5624004 5588042 5550162 5565998 5554902
3119.31 5557324 5540806 5566140 5527618 5547170 5558276
3125.10 5577850 5604366 5688978 5707640 5743420 5764582
3130.89 5819684 5867300 5937590 5959956 6048134 6127772
3136.67 6215342 6288514 6376370 6429772 6511896 6586248
3142.46 6673602 6711074 6785314 6823340 6851800 6861954
3148.24 6904512 6934774 6968564 6951378 6924744 6857988
3154.03 6864620 6860018 6856312 6794848 6772752 6725382
3159.81 6656914 6589758 6551646 6478724 6444974 6363280
3165.60 6325518 6286950 6288702 6245490 6231978 6228740
3171.38 6252212 6216970 6214876 6214594 6235882 6216360
3177.17 6255540 6290042 6327818 6338796 6358204 6364148
3182.95 6407480 6442966 6485594 6489648 6520172 6528026
3188.74 6543832 6556612 6606220 6616306 6612122 6598328
3194.53 6649528 6656926 6648918 6607612 6580422 6570886
3200.31 6582484 6565188 6557712 6534346 6516320 6492686
3206.10 6495160 6484506 6507032 6514406 6512616 6484220
3211.88 6523600 6548352 6574558 6626050 6712228 6753522
3217.67 6812100 6877644 6970638 7050314 7136472 7194698
3223.45 7295636 7390630 7501884 7566660 7595214 7625530
3229.24 7664118 7678520 7705888 7716982 7756596 7719264
3235.02 7660972 7610540 7574850 7509242 7447116 7340082
3240.81 7228410 7080004 6934362 6787276 6651894 6485790
3246.59 6325636 6131244 5928540 5706582 5518880 5313198
3252.38 5118578 4932742 4765064 4521630 4300420 4105690
3258.17 3933010 3765560 3617302 3424850 3267048 3114340
3263.95 2994112 2836918 2706476 2601208 2489658 2348914
3269.74 2245066 2132180 2046960 1976022 1924230 1857870
3275.52 1800990 1723910 1679308 1639338 1606894 1550090
3281.31 1498316 1457276 1444056 1428598 1424672 1365170
3287.09 1315088 1275436 1250466 1253664 1264034 1258088
3292.88 1253770 1245666 1242938 1250100 1270680 1276916
3298.66 1298366 1331398 1380128 1435938 1511496 1563020
3304.45 1601942 1639166 1708046 1759060 1832282 1902288
3310.23 1948146 1978828 2052280 2139902 2238558 2298498
3316.02 2380278 2420346 2460076 2481170 2463040 2460860
3321.80 2442910 2389128 2376610 2385720 2411802 2427948
3327.59 2477988 2501122 2461696 2382266 2347320 2312948
3333.38 2274796 2220434 2175898 2130652 2109408 2096014
3339.16 2090654 2041620 1984056 1973336 2044356 2063736
3344.95 2048152 2026518 1997748 1905376 1824440 1773548
3350.73 1725288 1708382 1698008 1636038 1617478 1581526
3356.52 1521072 1458582 1418866 1402702 1391992 1339500
3362.30 1311342 1271368 1247662 1208814 1185446 1184294
3368.09 1188246 1210948 1265576 1301100 1331578 1328480
3373.87 1380570 1447476 1507814 1581034 1660350 1701740
3379.66 1782054 1854886 1948036 2038178 2141512 2260622
3385.44 2354244 2376512 2376776 2368790 2374310 2360930
3391.23 2344114 2300124 2289530 2291860 2309994 2262060
3397.02 2169954 2064050 2013356 1956354 1871040 1790554
3402.80 1752212 1643700 1565960 1528774 1484024 1430344
3408.59 1351852 1255188 1195360 1138064 1113422 1078356
3414.37 1055538 1050708 1084072 1091724 1107838 1113566
3420.16 1115686 1150636 1203104 1222904 1263336 1291796
3425.94 1333388 1372486 1434562 1500400 1570454 1586810
3431.73 1607444 1597236 1599456 1642348 1677392 1703790
3437.51 1721740 1694420 1698192 1698474 1660068 1638866
3443.30 1598100 1527982 1511512 1467396 1401816 1325996
3449.08 1267962 1192502 1149446 1126974 1107906 1054598
3454.87 999274 937150 888118 864710 835450 800568
3460.66 817028 831368 842808 822558 805730 782142
3466.44 797544 826634 855734 897816 916658 924514
3472.23 958962 996318 1009378 1044508 1123422 1196290
3478.01 1238642 1242610 1241518 1242384 1251456 1222026
3483.80 1213758 1192532 1156554 1133176 1133608 1088824
3489.58 1046970 1026456 1019962 1001622 946962 877330
3495.37 836298 771558 731622 687046 652318 603500
3501.15 557996 503492 472538 457768 411724 345978
3506.94 336110 323932 308578 280018 266068 244366
3512.72 213638 167454 156610 187432 191272 155636
3518.51 152682 131868 141142 145912 167084 158028
3524.30 113218 89560 106908 105884 116354 102278
3530.08 111414 78644 62076 75044 90574 106134
3535.87 117026 109584 120010 101500 94506 93136
3541.65 85158 75658 104782 102066 132562 143888
3547.44 104542 75844 91556 125238 113424 75288
3553.22 82516 89664 88286 92426 100744 94512
3559.01 74454 71852 79862 70702 84402 98382
3564.79 143884 164278 167350 134126 71568 38796
3570.58 48462 41568 35946 56808 69338 53412
3576.36 45188 86450 103420 62084 47702 54440
3582.15 45522 54930 107920 154270 153744 165320
3587.94 191416 112276 66370 77370 105266 86746
3593.72 92086 102860 70326 68360 95786 108904
3599.51 132278 136172 113524 98588 76926 86594
3605.29 159954 185932 188230 268880 202968 125418
3611.08 211958 230156 200720 187190 147792 156166
3616.86 179168 227294 281126 171272 122860 108578
3622.65 100124 93338 109046 127670 224846 392074
3628.43 457698 287460 140096 119218 149182 154030
3634.22 95006 74806 85924 105556 114990 94518
3640.00 97264 88582 98436 101146 115186 140346
3645.79 243844 281530 366206 429486 316628 218850
3651.57 117028 81732 92638 218314 302348 181898
3657.36 105878 96026 85174 98774 109014 132930
3663.15 149530 145574 153356 160618 232874 321050
3668.93 420126 531908 329168 207748 283924 483090
3674.72 609834 449558 272342 275352 306760 267356
3680.50 228364 238104 249744 266522 284352 319046
3686.29 432778 715874 609580 436286 489078 419282
3692.07 348664 361368 394798 398520 394392 407512
3697.86 430082 439684 497356 579682 551002 500154
3703.64 487586 499166 494356 511272 605810 702552
3709.43 652204 733208 836112 634938 525822 515550
3715.21 458644 412572 443446 447052 393690 399176
3721.00 476860 443526 383412 397506 424204 429166
3726.79 380474 330560 312390 366730 537534 569008
3732.57 417418 469934 513684 574576 523800 414252
3738.36 361726 351104 345502 342128 511150 973762
3744.14 936984 466958 367914 465998 728708 707770
3749.93 521990 750106 676472 372036 328336 360530
3755.71 390668 354712 388316 482268 438556 367176
3761.50 383710 389834 400692 445068 451210 424602
3767.28 435170 510196 571794 469966 431652 439420
3773.07 462988 471612 491474 502332 505826 560356
3778.85 608092 565310 566418 595186 594372 577852
3784.64 592738 620274 639402 620640 630562 630482
3790.43 597036 590598 623276 608730 651508 726114
3796.21 711792 670588 679826 783678 1064024 1010706
3802.00 769088 691830 659514 763168 940530 835860
3807.78 705370 730734 704052 705636 722374 742832
3813.57 809456 1100418 1161346 887900 840586 896406
3819.35 1029376 1144266 1053436 901908 906396 952106
3825.14 997870 1016526 998932 998046 1003474 1073452
3830.92 1142076 1085208 1100108 1184994 1135150 1196110
3836.71 1485822 1344236 1146202 1176318 1148242 1089016
3842.49 1123148 1096674 1025552 1006164 990856 996818
3848.28 991010 998336 1192664 1405798 1471986 1703884
3854.07 1366776 1008324 1020214 982894 942030 964956
3859.85 1021096 1066828 1056636 1097964 1221756 1215846
3865.64 1089454 1109652 1201184 1375648 1408544 1222020
3871.42 1204134 1343732 1429430 1380682 1375404 1401926
3877.21 1447390 1558256 1649432 1624674 1600984 1643862
3882.99 1695906 1839026 1964846 1863752 1844190 1908078
3888.78 1965072 2092572 2148698 2073704 2108920 2146210
3894.56 2132212 2128782 2183816 2290398 2390528 2369820
3900.35 2459800 2532478 2531020 2631388 2604976 2545490
3906.13 2550508 2586064 2631236 2669504 2715208 2774912
3911.92 2825952 2866226 2910746 3001840 3072742 3044374
3917.70 3014992 3071774 3107088 3069282 3066578 3129774
3923.49 3186182 3181550 3132764 3109238 3079678 3043272
3929.28 2948266 2884772 2866470 2797466 2752834 2730894
3935.06 2653690 2606598 2529418 2425438 2371938 2316438
3940.85 2256064 2221764 2149414 2076400 2065008 2072600
3946.63 2063122 2044036 2003800 1993606 2018316 2046946
3952.42 2066730 2061342 2069966 2106572 2154378 2184358
3958.20 2186374 2188680 2220642 2245758 2251446 2271188
3963.99 2269762 2283780 2327002 2370210 2394276 2428928
3969.77 2457986 2473962 2481032 2505622 2541830
##END=
