##TITLE=Methyl tert-Butyl Ether
##JCAMP-DX=4.24
##DATA TYPE=INFRARED SPECTRUM
##CLASS=IUPAC A
##ORIGIN=NIST, Anayltical Chemistry Division, 301-975-3108
##OWNER=COPYRIGHT (C) 1998 by the U.S. Secretary of Commerce
##DATE=98/10/1
##$SPECTRA VERSION=1.00
##$UNCERTAINTY IN Y=2.1 % relative (B=1.1E-04,C=7.8E-10,D=2.7E-14)
##CAS NAME=tert-Butyl Methyl Ether
##CAS REGISTRY NO=1634-04-4
##MOLFORM=( C H3)3 C O C H3
##MP=-109 C
##BP=55.2 C
##$NIST SOURCE=QUANT-IR
##SPECTROMETER/DATA SYSTEM=IFS66V (Bruker)
##INSTRUMENT PARAMETERS=KBr Beam splitter; MCT Detector; Multipass cell
##STATE=gas
##SAMPLE DESCRIPTION=MTBE Primary Gas Standard
##PRESSURE=101.3 kPa
##TEMPERATURE=23 C
##SAMPLING PROCEDURE=1 L/min Flow
##RESOLUTION=0.9640
##DATA PROCESSING=NB Strong Apodization
##XUNITS=cm-1
##YUNITS=(micromol/mol)-1m-1 (base 10)
##XFACTOR=1.0
##YFACTOR=9.0949E-13
##DELTAX=0.4820
##FIRSTX=575.169
##LASTX=3975.077
##FIRSTY=0
##MAXX=3974.59
##MINX=575.17
##MAXY=.0011836
##MINY=-4.29E-07
##NPOINTS=7053
##XYDATA=(X++(Y..Y))
575.17 16038-115390-200254 12590 232206 223544
577.58-98858-173614-15830 10920-149634-325866
580.47-224012-186572-214136-329108-351092-375224
583.37-75130 46324-100288-41230-198522-472052
586.26-253670-205786-389170-302142-132964-28820
589.15 100062 93756-11540 63242 100354-70106
592.04-46154-134766-121924 147754 253042 177164
594.94 100480 55668-97818-4956 116624 77098
597.83 48466 11826-209652-224056-63722 41960
600.72 82522 111498 40132 47738 64762 121070
603.61 114568 23136 33304 79776 22352 7566
606.51 30072 60158-8742-46014-8486 85588
609.40 238486 228810 65312-29036 54662 110852
612.29 112526 77212 9274 109162 175444 67928
615.18 4288-6430 17326 32914 74250 48104
618.08 90428 82846 49252 68764 60168 78550
620.97 39560 55724 111368 92926 81014 84674
623.86 99320 43920 132708 79214 18374 50032
626.76 142342 202618 148470 59022 75326 122742
629.65 136956 117782 153080 123002 74154 107732
632.54 121162 93180 87958 92328 125018 66170
635.43 43510 72190 79188 51380 53434 43420
638.33 123344 167520 129242 131362 191962 151414
641.22 91146 38374 30250 80458 128038 162612
644.11 108714 64840 87702 120218 192640 176426
647.00 47820 29314 79240 73130 73120 121732
649.90 100488 74744 89690 73418 114714 171004
652.79 163126 120380 124820 149726 120596 76502
655.68 71966 102568 90916 105036 135400 133790
658.58 150936 184276 163176 119968 46488 99284
661.47 159884 144594 145530 165636 166226 110280
664.36 83522 131868 178768 170560 68328-75170
667.25-257262-98300 142930 232910 151700 104616
670.15 194442 222382 216750 221068 239344 266766
673.04 302932 383966 445056 397246 290186 318796
675.93 443448 497050 469942 428064 433924 419406
678.82 445244 460822 478490 477544 477350 512196
681.72 556128 558440 568724 551922 551110 543774
684.61 453326 453360 598072 703058 625640 598630
687.50 590580 624548 689970 697666 680850 656526
690.40 744388 760520 725112 729740 819114 857216
693.29 844262 906840 981360 1063336 1125988 1188338
696.18 1297078 1443594 1534662 1553556 1676066 1878746
699.07 2076470 2237144 2460336 2725972 3006374 3293672
701.97 3693058 4068420 4417090 4926070 5475848 6023342
704.86 6561976 7233944 7957900 8593540 9376906 10196030
707.75 11067450 12041300 13010050 14044190 15065290 16038950
710.64 17136340 18172870 19186550 20209280 21142180 22073260
713.54 23005400 23784440 24461660 25111650 25695430 26084650
716.43 26411280 26731680 26965360 27071020 27218180 27427760
719.32 27594490 27911000 28625210 29782710 31380550 33566600
722.22 36509550 40396290 45041050 49991920 54548800 57161450
725.11 55642280 50142150 43431790 37967420 34014310 31191880
728.00 29198050 27874980 27190060 26884680 26927660 27347460
730.89 27904970 28524960 29075730 29552200 29836000 29897730
733.79 29767990 29364620 28724250 27942030 26953450 25801900
736.68 24554290 23210130 21827440 20406600 18974040 17531850
739.57 16059150 14705380 13512570 12322170 11134880 10031400
742.46 9048672 8138048 7359788 6679240 5967132 5314396
745.36 4793060 4311428 3875176 3491270 3186808 2948188
748.25 2728774 2525308 2315922 2089932 1952996 1873154
751.14 1751026 1665164 1580108 1504346 1488132 1461838
754.04 1397168 1334672 1309086 1274222 1260492 1256646
756.93 1228208 1198312 1246532 1284272 1261372 1270302
759.82 1217120 1215560 1251274 1236670 1206338 1236108
762.71 1316492 1283594 1241912 1270746 1280922 1251406
765.61 1175040 1176884 1209514 1254994 1241008 1216012
768.50 1249592 1279420 1299068 1296572 1284348 1279458
771.39 1316866 1334724 1282260 1231276 1248104 1269582
774.28 1307666 1262560 1229086 1245854 1233542 1232746
777.18 1266724 1266268 1223266 1194502 1152008 1131130
780.07 1119944 1154052 1174794 1172400 1180562 1177558
782.96 1162276 1147546 1119314 1091634 1122874 1112616
785.86 1080554 1110310 1158782 1149932 1115244 1113546
788.75 1124216 1108294 1117084 1101828 1069848 1095966
791.64 1170994 1199246 1178160 1167310 1121750 1098042
794.53 1122710 1143270 1149368 1099404 1101938 1131608
797.43 1189166 1250388 1218742 1161062 1212642 1229108
800.32 1207570 1216354 1231524 1281150 1321572 1307960
803.21 1294196 1350166 1387408 1407290 1384136 1390858
806.10 1441036 1502490 1491984 1499492 1483142 1503122
809.00 1575518 1564302 1563706 1622416 1685068 1687530
811.89 1714720 1768332 1793148 1794806 1791424 1806436
814.78 1845816 1898782 1967608 1993908 2032752 2043488
817.68 2113798 2192172 2272526 2344776 2416448 2474266
820.57 2593088 2758810 2903124 3036012 3159236 3361388
823.46 3600848 3784424 4010996 4271240 4586194 4923246
826.35 5323878 5776608 6230804 6677506 7210072 7838336
829.25 8576112 9359892 10185910 11075170 12117920 13252010
832.14 14461110 15773750 17285370 18901450 20601380 22384010
835.03 24298180 26371400 28633070 31016350 33565050 36228180
837.92 39002520 41928110 44904680 47997780 51079050 54203060
840.82 57330930 60446100 63620420 66753270 69761660 72639980
843.71 75303280 77764190 80022250 82113930 83964580 85563830
846.60 87015600 88390380 89555500 90595480 91597840 92765170
849.50 94327350 96588360 99643190 103774900 108891400 115275300
852.39 122823800 131002800 139712900 148791100 157605400 165211600
855.28 169580500 168052900 158220300 141770000 123153100 108790900
858.17 100161300 94486800 90894040 89067660 88268380 88412080
861.07 89674300 91357280 93089960 94514710 95654380 96170650
863.96 95980460 94995490 93356700 90910910 87595460 83846740
866.85 79789910 75376700 70689650 65839630 60964560 56067160
869.74 51257850 46568500 42150040 37980320 34041800 30396010
872.64 27081040 24023430 21271710 18753500 16488430 14484690
875.53 12750610 11175460 9814916 8644874 7578876 6675134
878.42 5879658 5191590 4640832 4140276 3672648 3256656
881.31 2949030 2702228 2435430 2257096 2138428 1978324
884.21 1845824 1745566 1666400 1578182 1535352 1475154
887.10 1458406 1394090 1323298 1323002 1318582 1306240
889.99 1324702 1312956 1309128 1310214 1326198 1290008
892.89 1262804 1291764 1345614 1336272 1311552 1318386
895.78 1324480 1332962 1342566 1299510 1283122 1295436
898.67 1303014 1297676 1298564 1345862 1428808 1443994
901.56 1478406 1522980 1575278 1658766 1717058 1740566
904.46 1825294 1904126 1925848 1933114 1896372 1827696
907.35 1768562 1693346 1632022 1545380 1503418 1451674
910.24 1394752 1411730 1434202 1452058 1452162 1431658
913.13 1451930 1460986 1473728 1504054 1517096 1532174
916.03 1537180 1511822 1539196 1542602 1526888 1525908
918.92 1530328 1501370 1490596 1470936 1421122 1372610
921.81 1384202 1364648 1353614 1329696 1312628 1284254
924.71 1268160 1248764 1240914 1244012 1224670 1214898
927.60 1212260 1193966 1179256 1197746 1197728 1189694
930.49 1191718 1180762 1169746 1147762 1142504 1175278
933.38 1178886 1154648 1145874 1136542 1133068 1114262
936.28 1132436 1134352 1085048 1086862 1128232 1131148
939.17 1121396 1117480 1106270 1094432 1108404 1118150
942.06 1113064 1154122 1204566 1195378 1174480 1168732
944.95 1200154 1204340 1192802 1191016 1184124 1160106
947.85 1178914 1195192 1186628 1176708 1184048 1182102
950.74 1182618 1210330 1240556 1222008 1219324 1216376
953.63 1232960 1224576 1247146 1292168 1297276 1283564
956.53 1288694 1290328 1308470 1303754 1296912 1307996
959.42 1362626 1379284 1379996 1394202 1419638 1411624
962.31 1418700 1458080 1487910 1487778 1512168 1538492
965.20 1540814 1555170 1602416 1665522 1701780 1716972
968.10 1735598 1731428 1753374 1767484 1810420 1877942
970.99 1942188 1975504 2002754 2031476 2059564 2086366
973.88 2156520 2204126 2244750 2289042 2357282 2428800
976.77 2475704 2473982 2523698 2573486 2611764 2660912
979.67 2756100 2824418 2899282 2953380 2987358 3016488
982.56 3066432 3111558 3141882 3178668 3261638 3345712
985.45 3401430 3441720 3503576 3561062 3648006 3702232
988.35 3757132 3851778 3930568 4007916 4101534 4192408
991.24 4306222 4389616 4488402 4605064 4729850 4844826
994.13 4970662 5093328 5277880 5471630 5673918 5893374
997.02 6137072 6367168 6625688 6912904 7238906 7582316
999.92 7979806 8390384 8803746 9240034 9723674 10245110
1002.81 10822060 11445420 12120240 12795030 13510810 14261910
1005.70 15053150 15919180 16849740 17815810 18866980 19921880
1008.59 20983910 22069530 23247820 24431790 25556020 26686890
1011.49 27820050 28931950 30037580 31140750 32186900 33140930
1014.38 34087810 34964870 35750630 36432090 37057080 37544690
1017.27 37872030 38068140 38087910 37849780 37454360 37117320
1020.17 37009230 37214900 37924170 39166460 40722340 42880730
1023.06 46522880 50617220 51087560 45736060 40333950 36589610
1025.95 34233500 32991910 32393870 32171420 32242750 32430380
1028.84 32645820 32775940 32836450 32789110 32609930 32229020
1031.74 31668650 30932790 30060170 29045070 27894800 26700360
1034.63 25484700 24170190 22830430 21487750 20210230 18922040
1037.52 17674860 16490570 15400700 14370730 13416650 12561790
1040.41 11769090 11084120 10501480 9950498 9511862 9126332
1043.31 8830206 8578150 8348268 8136628 8027480 7942160
1046.20 7860016 7819032 7826278 7864654 7942612 7990116
1049.09 8084542 8237914 8436404 8635184 8859348 9083560
1051.99 9321398 9583294 9901692 10207110 10570140 10928290
1054.88 11307890 11679390 12132320 12632860 13153970 13672820
1057.77 14243660 14864670 15590910 16379160 17213480 18069500
1060.66 19102600 20287490 21585890 22836190 24168000 25631390
1063.56 27192270 28839450 30650260 32603420 34678860 36932830
1066.45 39466440 42307630 45742190 49190790 52541160 56261070
1069.34 60426120 65002340 70020780 75379330 81132020 87274380
1072.23 94014390 101245900 108877900 116951600 125638600 134885500
1075.13 144756200 155381400 166902100 179353200 192776300 205874800
1078.02 218364400 231956100 246593900 261295700 276176200 291531700
1080.91 307501800 324234700 340581400 354505100 367612100 381445000
1083.81 395736000 410376000 424552300 437975500 451932000 466245800
1086.70 478955500 489814700 502393300 518079400 533016900 537849800
1089.59 539889900 546049400 552662800 558279300 563387200 569003500
1092.48 575925200 585107600 596465700 609225400 621985200 634110500
1095.38 646782700 660497300 669439000 668991900 659810900 644929900
1098.27 631411800 617484300 597940600 579268700 562813200 539522800
1101.16 519567200 510827700 506719900 504205300 504731500 497450500
1104.05 482252900 471188200 461606000 449867400 435203400 418829800
1106.95 400735200 381038300 360303300 339055300 317151500 295346400
1109.84 272638500 249486700 227561000 207235900 188081200 170024800
1112.73 153322400 138204500 124355800 112050300 101263500 91711080
1115.63 82808600 74870110 68116260 62390350 57356660 52973270
1118.52 49065060 45712410 42838140 40368110 38084450 35977200
1121.41 34067850 32459180 31036530 29787080 28638880 27592820
1124.30 26675690 25882520 25128910 24422780 23737740 23182670
1127.20 22674420 22222630 21761480 21366830 20977540 20615700
1130.09 20282010 20003120 19754850 19585530 19436420 19300180
1132.98 19176190 19165880 19159550 19144010 19068670 18984520
1135.87 18923640 18984120 19017700 19085530 19193100 19317540
1138.77 19480430 19673020 19855550 20056490 20243110 20463830
1141.66 20704120 21001050 21266400 21496870 21709700 21913820
1144.55 22103680 22321420 22511120 22694960 22880440 23109310
1147.45 23372160 23671520 23997070 24318550 24563510 24877740
1150.34 25250900 25710160 26259160 26881210 27510980 28148110
1153.23 28821270 29549330 30252740 30935690 31505750 31825200
1156.12 31904910 31883070 31817070 31817470 31857880 31892380
1159.02 32002680 32181050 32405600 32674670 32958670 33311240
1161.91 33660310 33942110 34264060 34713750 35248530 35783020
1164.80 36210220 36620100 37046220 37453700 37894240 38374610
1167.69 38819200 39295440 39562440 39673270 39876070 40201470
1170.59 40589110 41021080 41521980 42121390 42803230 43612680
1173.48 44399540 45134990 45944870 46826310 47842970 48976690
1176.37 50182270 51516210 52917970 54441140 56074360 57721230
1179.26 59328350 60922790 62496990 64025440 65467420 66877020
1182.16 68381700 70035440 71912100 74103420 76637990 79592830
1185.05 83003820 86867520 91248140 96111280 101410900 107176300
1187.94 113447400 120217200 127417000 135111300 143318000 152128500
1190.84 161381700 171100200 181387800 192253200 203636100 215443700
1193.73 227603200 239967300 252237300 264392800 276203700 287635100
1196.62 299293100 311192400 322973100 334532900 345722300 356389600
1199.51 366483900 376002100 385092200 393684700 401794100 409418300
1202.41 417025400 424644900 432124100 440580700 450931500 463496200
1205.30 478267300 495574000 516395100 541593000 569658400 598696100
1208.19 626390800 651422000 673254100 682527600 667417300 622028400
1211.08 558022900 511165800 492901200 491376100 497780000 506887400
1213.98 516273000 525402800 535629900 546557900 556063400 563040600
1216.87 567461300 569415400 568059700 563063900 557751500 547375200
1219.76 524356000 499472500 476345100 453390500 430571700 405177700
1222.66 378979700 354384200 331767400 311077000 292310400 275488900
1225.55 260477000 247461700 236198100 226253300 217354200 209405200
1228.44 202457800 196663300 191770100 187710300 184285100 181558400
1231.33 179583400 178266200 177605200 177552400 177873300 178748400
1234.23 180045400 180363200 179281600 177706000 175308000 172623100
1237.12 169744400 166361600 162511600 158322200 153819300 149124200
1240.01 144535700 140430600 136778500 133700100 131166000 129127000
1242.90 127605100 126506200 125033300 123360600 122202800 121439500
1245.80 120904100 120467000 120062900 119757900 119590500 119552800
1248.69 119608000 119753300 119502700 119003500 118686700 118551100
1251.58 118394200 118177800 117993500 117803400 117536100 117041200
1254.48 116251600 115362600 114460700 113400100 112211800 110967800
1257.37 109660700 108273700 107006200 105907300 104866100 104039100
1260.26 103537200 103387500 103566900 104065700 104811400 105702800
1263.15 106664800 107542200 108118500 108260200 107805900 106656400
1266.05 104496700 101225300 97595760 93463640 88296040 82814020
1268.94 78091820 74380140 71163450 68325960 65902030 63781000
1271.83 61875170 60038260 58162710 56435870 54773090 53181100
1274.72 51652320 50081530 48317330 46803690 45386360 43324130
1277.62 41076860 39041530 37065160 35207580 33454390 31827900
1280.51 30262090 28792970 27374200 25985940 24602440 23324010
1283.40 22146860 21053860 19985280 18923860 17901220 16908670
1286.30 15995850 15168310 14367800 13629720 12941730 12274920
1289.19 11650260 11068450 10536500 10065400 9603948 9177574
1292.08 8758144 8388460 8062666 7741882 7418682 7141034
1294.97 6887370 6635218 6416848 6198178 5963060 5767858
1297.87 5582266 5401922 5240504 5083064 4929764 4808496
1300.76 4694834 4582684 4482798 4382248 4299664 4222772
1303.65 4118406 4037094 3969304 3898460 3812502 3755568
1306.54 3716738 3672068 3617794 3584090 3542726 3503892
1309.44 3478140 3444456 3407304 3381380 3341692 3328282
1312.33 3319216 3298634 3254034 3229744 3228856 3221010
1315.22 3196302 3166212 3125060 3101176 3089950 3073008
1318.12 3058002 3039242 3020236 3012840 3006522 3029110
1321.01 3011096 2983196 2982240 2999230 2999308 3008302
1323.90 3039224 3058634 3053126 3053778 3072840 3076986
1326.79 3064728 3069654 3090416 3127650 3158796 3203822
1329.69 3254700 3291944 3321556 3408622 3484540 3542988
1332.58 3648660 3758306 3864200 3998460 4168368 4351798
1335.47 4535598 4777410 5052702 5344026 5662078 6067806
1338.36 6517688 6975636 7524744 8179494 8833542 9590364
1341.26 10490380 11500410 12630590 13915440 15339770 16952540
1344.15 18770110 20798060 23054290 25576450 28366750 31479200
1347.04 34884710 38621760 42692530 47125540 51942520 57114060
1349.94 62666410 68616430 74957230 81592690 88518310 95751210
1352.83 103196300 110847500 118626500 126459800 134260000 141850100
1355.72 149196500 156170200 162678000 168536600 173673000 178172800
1358.61 181847300 184605200 186627000 188055000 189105000 190118000
1361.51 191637100 194228400 198724200 205922800 216743200 232356100
1364.40 253334600 278634000 305737200 331414000 352914300 369945200
1367.29 383820300 393015200 390804400 375221000 353210300 332951000
1370.18 313622900 288885600 261119600 238334800 223644200 215784500
1373.08 213027300 213691600 216580800 220771500 225337700 229894200
1375.97 233898400 236862100 238616400 238984600 237843000 235390700
1378.86 231529100 226433000 220227600 212985600 204883100 196116800
1381.76 186782500 177056900 167101900 156973900 146782800 136835100
1384.65 127267000 118345000 110476300 104242400 100299100 99468510
1387.54 102589500 110210200 121273700 136120800 155285000 170158300
1390.43 165573500 138256400 103922400 77411260 61748110 54036480
1393.33 51180960 51376730 53155450 55942530 59442710 63002850
1396.22 66362370 69352510 71778320 73412700 74251100 74299870
1399.11 73311400 71505270 69075890 66039620 62517020 58656190
1402.00 54525650 50264740 46018600 41866260 37932780 34255250
1404.90 30741830 27482950 24585570 22033870 19753050 17773500
1407.79 16114910 14698150 13499930 12485390 11599920 10896340
1410.68 10345440 9871900 9491168 9200672 8965542 8801920
1413.58 8687750 8615708 8585590 8602800 8633208 8647392
1416.47 8716704 8838458 8887664 8986250 9257770 9645538
1419.36 9580888 9394214 9434526 9543658 9678402 9786306
1422.25 9896574 10009660 10168370 10278560 10332830 10450060
1425.15 10571770 10678840 10788250 10907760 11018190 11133480
1428.04 11245680 11359210 11527380 11732080 11819280 11936340
1430.93 12092050 12246370 12379450 12534280 12671870 12827660
1433.82 13038280 13291230 13543630 13858050 14394050 14995610
1436.72 15126500 15234760 15571990 15993340 16509790 17174950
1439.61 17830060 18296510 18639010 19037570 19605230 20348000
1442.50 21193710 22097330 23053780 24042330 25061990 26126120
1445.40 27231050 28346610 29466450 30644120 31861450 32932250
1448.29 33962880 35068890 36208400 37371090 38514820 39650680
1451.18 40800080 41949620 43086320 44260880 45447890 46662660
1454.07 47899340 49147900 50401140 51805110 53654810 55380770
1456.97 56654060 58480980 60765850 63209970 65922780 68910410
1459.86 72055200 75274140 78509940 81699520 84634910 87185530
1462.75 89283780 90964520 92247790 93246450 93727420 93777190
1465.64 93788560 93662920 93406780 93219760 93129940 93192880
1468.54 93454340 93992140 94931850 96261460 97995400 100252400
1471.43 102685800 104656100 106315900 107569900 108135300 108453900
1474.32 107936700 106525800 105183100 104285300 103777200 103125600
1477.21 101602300 99515600 97830240 96413410 94935420 93498740
1480.11 92176760 90893620 89671110 88506220 87456330 86471790
1483.00 85617000 84877470 84210510 83622220 83086780 82559500
1485.89 81923580 80795350 78720180 75072660 70336760 65793700
1488.79 61753120 58190320 55200990 52772340 50583630 48613040
1491.68 46954180 45432830 44060120 42747580 41461810 40182820
1494.57 38934620 37727680 36725020 35346520 33627450 32119110
1497.46 30677510 29368000 27995710 26416770 24901550 23508350
1500.36 22176350 20884780 19630540 18418400 17269230 16197830
1503.25 15194110 14255970 13432670 12940010 12472540 11498320
1506.14 10981500 10619550 9692952 8990716 8582230 8150632
1509.03 7809912 7489744 7143860 6855448 6616474 6520182
1511.93 6400496 6103488 5886570 5753032 5650568 5596126
1514.82 5498742 5376506 5356382 5351212 5358394 5260228
1517.71 5047952 4945572 4904626 4930432 5018354 5070168
1520.61 5377656 5259212 4857322 4896054 4821482 4678700
1523.50 4605092 4612818 4712850 4868396 4729918 4582656
1526.39 4588038 4644670 4602140 4600098 4576548 4530574
1529.28 4523932 4551262 4565538 4609888 4622760 4620320
1532.18 4671980 4799670 4915972 4901004 4714836 4689450
1535.07 4695520 4726982 4715526 4738368 4770962 4854220
1537.96 5098068 5634868 5504262 5339382 5468442 5144882
1540.85 5044916 5358618 5415256 5067004 4994496 4973628
1543.75 4966588 5081736 5199266 5048828 4943482 4941230
1546.64 4960770 5000388 5036408 5063632 5080860 5112624
1549.53 5160680 5161714 5114816 5107970 5120380 5136804
1552.43 5157730 5208916 5412010 5653930 5446986 5300802
1555.32 5289658 5338910 5431206 5716142 5942922 6272322
1558.21 6403864 6046098 6258090 6654676 6399360 5999868
1561.10 6027090 6103458 6211960 6276568 6390802 6478322
1564.00 6659786 6800012 6842110 6910442 7030160 7128694
1566.89 7231032 7314466 7440540 7581192 7798448 7979268
1569.78 7858234 7744916 7780958 7817350 7853226 7865676
1572.67 7906556 7923370 7975124 8048562 8159352 8489006
1575.57 9166884 9074996 8731070 8798172 8932992 9054532
1578.46 9133278 9163186 9121478 8927830 8547846 8055094
1581.35 7550266 7175818 6970296 6866586 6813050 6802168
1584.25 6829296 6840676 6847196 6866656 6872236 6844896
1587.14 6779300 6693910 6577492 6416700 6240098 6034868
1590.03 5797062 5529830 5231294 4929170 4643338 4351032
1592.92 4083846 3855932 3647642 3420074 3192588 3010754
1595.82 2869130 2721898 2584900 2477980 2386850 2296514
1598.71 2225410 2170858 2118882 2066570 2036612 1993964
1601.60 1951916 1944482 1942734 1918536 1892634 1870336
1604.49 1863260 1870862 1858210 1828894 1834666 1828068
1607.39 1813548 1805034 1825390 1858808 1843742 1812888
1610.28 1833616 1850970 1892208 1908316 1921596 1934040
1613.17 1946052 1952754 2002028 2017626 2074156 2304628
1616.07 2854412 2736748 2232728 2127298 2148922 2191052
1618.96 2208904 2222644 2250496 2283528 2312390 2331340
1621.85 2355070 2427904 2616342 2688818 2537720 2488078
1624.74 2482388 2526302 2572650 2632054 2688448 2820764
1627.64 2849600 2811374 2824876 2842766 2830072 2812916
1630.53 2797644 2779966 2739290 2714692 2677492 2682046
1633.42 2669918 2721576 2916792 3224836 3198292 2751084
1636.31 2614978 2687268 2709806 2615194 2571510 2555936
1639.21 2561212 2557264 2543854 2513384 2527784 2519988
1642.10 2490768 2425836 2391830 2371264 2351972 2323894
1644.99 2513758 2763400 2486502 2255406 2278248 2201022
1647.89 2167920 2042316 1968576 1912054 1890582 1869510
1650.78 1900860 2081382 2661932 2841088 2855934 2449724
1653.67 2056828 2032732 1781812 1666318 1616224 1613368
1656.56 1587168 1586366 1561758 1542358 1513654 1517298
1659.46 1499408 1483584 1450442 1460042 1469964 1583122
1662.35 1682034 1543168 1425748 1395344 1369940 1378742
1665.24 1374410 1385860 1362804 1385264 1398970 1433240
1668.13 1490732 1711548 1726762 1496830 1429380 1477908
1671.03 1554798 1486650 1417010 1408794 1416608 1436952
1673.92 1489970 1759620 1954696 1709838 1521886 1517150
1676.81 1520444 1531846 1545580 1569456 1603192 1660210
1679.71 1712768 1736862 1713930 1723504 1776904 1921434
1682.60 2112174 2189132 2298498 2839730 3022336 2405652
1685.49 2211714 2232352 2304324 2349056 2447314 2538156
1688.38 2593666 2646040 2771494 2845398 2913370 2996248
1691.28 3100534 3183322 3290930 3376854 3495334 3590942
1694.17 3726510 4034128 4754204 4897644 4310126 4189228
1697.06 4285538 4348900 4427526 4562236 4924216 5376370
1699.95 5453588 5267014 4946874 4862180 4902682 4964812
1702.85 5003686 5091346 5275664 5316408 5274902 5398868
1705.74 5574544 5604864 5575726 5610648 5622578 5630366
1708.63 5597332 5534452 5393816 5196022 4974458 4744266
1711.53 4506788 4386306 4353008 4378388 4447834 4480660
1714.42 4605602 4632530 4446308 4406202 4580686 5001596
1717.31 4694894 4304010 4188900 3873114 3636432 3481628
1720.20 3311672 3141028 2969546 2808960 2649038 2524136
1723.10 2405664 2227946 2088356 1981608 1888720 1800384
1725.99 1752544 1710010 1642638 1584232 1558604 1535322
1728.88 1542252 1579826 1555584 1469440 1471676 1471016
1731.77 1472700 1567514 1919702 1902384 1898640 2048602
1734.67 1653444 1420728 1392206 1409258 1427630 1447794
1737.56 1432604 1446278 1481642 1661434 1741602 1537056
1740.45 1436844 1434064 1426748 1446588 1497680 1523572
1743.34 1503680 1489616 1463168 1456730 1455818 1449210
1746.24 1469310 1507712 1485444 1508062 1573028 1561944
1749.13 1502096 1461756 1511828 1733052 1742024 1465202
1752.02 1363008 1371142 1367312 1352870 1341532 1337596
1754.92 1320060 1335458 1434842 1520410 1409194 1322286
1757.81 1321570 1328378 1306704 1291696 1272964 1261326
1760.70 1313762 1467060 1417620 1257418 1201910 1172562
1763.59 1165578 1144144 1123960 1099894 1105084 1110892
1766.49 1104500 1130542 1276406 1254128 1085660 1055086
1769.38 1050940 1078124 1167970 1258000 1189882 1353218
1772.27 1550552 1274364 1062588 1044408 1042598 1058442
1775.16 1068530 1022528 986012 970848 950480 943452
1778.06 945334 962910 956514 966652 1019020 1010548
1780.95 969586 976238 980058 981730 989614 1017902
1783.84 1046148 1141020 1120850 1058494 1065734 1090214
1786.74 1123112 1139062 1143556 1193974 1228660 1250874
1789.63 1286960 1391038 1468088 1449086 1547362 1818780
1792.52 1771576 1599384 1617468 1672036 1728358 1778872
1795.41 1847046 1901862 1956776 2035742 2120006 2200542
1798.31 2298224 2450490 2563786 2577952 2638710 2763284
1801.20 2844354 2924554 3027950 3060392 3120870 3203746
1804.09 3283162 3354542 3441958 3529244 3625850 3694762
1806.98 3787510 3872592 3942566 4004386 4094710 4194248
1809.88 4317510 4407970 4447110 4508860 4568198 4604622
1812.77 4670608 4721678 4736816 4743754 4743504 4737660
1815.66 4741422 4759164 4793092 4814116 4811284 4813426
1818.56 4813630 4813356 4829164 4844812 4856166 4853358
1821.45 4815178 4787008 4748060 4689982 4639514 4558672
1824.34 4508510 4415098 4177854 4019748 3934050 3857710
1827.23 3791616 3727908 3693726 3661624 3623486 3620422
1830.13 3443320 3264150 3140578 3049986 2961816 2854492
1833.02 2740524 2615010 2497418 2371078 2249436 2132376
1835.91 2015522 1915376 1828854 1724530 1637154 1576240
1838.80 1526090 1463518 1396820 1344166 1307066 1275374
1841.70 1249594 1212752 1197548 1292070 1496866 1385624
1844.59 1164140 1124962 1113338 1103016 1083844 1091904
1847.48 1101298 1074850 1063280 1046728 1039366 1036266
1850.38 1046140 1028870 1013272 1013894 1007140 989392
1853.27 976240 979060 972434 957408 954418 961182
1856.16 978128 983872 961114 960376 975246 990800
1859.05 973524 960986 967868 963958 954410 970294
1861.95 989732 993626 995758 990836 1014534 1023740
1864.84 1005274 1010246 1038680 1051760 1077292 1102156
1867.73 1087394 1107406 1204856 1165240 1072556 1078862
1870.62 1069128 1069288 1061144 1048798 1061476 1066870
1873.52 1073492 1080206 1075190 1086144 1097656 1099016
1876.41 1115940 1143272 1159414 1187276 1204624 1213294
1879.30 1213164 1176552 1141068 1120134 1106588 1099932
1882.20 1103658 1123950 1151286 1164490 1188638 1209954
1885.09 1206744 1219222 1216112 1223400 1251966 1262180
1887.98 1257178 1281546 1322698 1284056 1229690 1229550
1890.87 1238820 1234978 1219196 1230710 1237464 1253692
1893.77 1261118 1294054 1336672 1326258 1305342 1303688
1896.66 1302996 1290864 1273126 1265044 1279140 1291974
1899.55 1298452 1304210 1309778 1328556 1346500 1359782
1902.44 1357902 1374966 1417984 1452248 1457858 1486888
1905.34 1527514 1562638 1585712 1590330 1586908 1572918
1908.23 1583268 1601738 1615994 1638962 1655284 1688956
1911.12 1715882 1749634 1792620 1844592 1908652 1962066
1914.02 1995802 2040356 2109534 2197810 2270762 2332364
1916.91 2423286 2589788 2639614 2640180 2724718 2812648
1919.80 2904118 2993946 3101354 3214414 3340706 3464902
1922.69 3594908 3692074 3801286 3922272 4046232 4172866
1925.59 4310374 4455036 4603108 4753588 4900666 5068478
1928.48 5236956 5391718 5563628 5753880 5950442 6140086
1931.37 6338454 6543902 6753404 6947252 7077312 7158372
1934.26 7230162 7312850 7416158 7534420 7682178 7837366
1937.16 7988866 8134338 8271404 8402666 8531368 8681228
1940.05 8822052 8937878 9049100 9163908 9272798 9291510
1942.94 9286066 9303942 9315900 9282840 9210870 9144756
1945.84 9089850 9045570 9000060 8961950 8932556 8903532
1948.73 8878070 8854012 8818236 8777874 8705324 8566782
1951.62 8416854 8282284 8166634 8015284 7766096 7448570
1954.51 7165736 6952020 6788798 6632060 6467708 6331552
1957.41 6197446 6024694 5806476 5604466 5407828 5192148
1960.30 4960108 4723780 4470178 4231672 3983952 3724208
1963.19 3479448 3236772 2991694 2755262 2532192 2340654
1966.08 2156258 2000950 1848066 1700104 1605226 1502550
1968.98 1393252 1297146 1227408 1162188 1096418 1031106
1971.87 983984 950532 904534 884458 858730 830006
1974.76 815164 810014 798930 781644 772050 737850
1977.66 711894 706230 694084 685444 701828 699672
1980.55 686512 678686 664790 639372 642266 648962
1983.44 637886 625208 625856 624996 621964 623894
1986.33 617404 612754 639166 638320 620770 621994
1989.23 626082 622208 620282 625954 654766 665556
1992.12 637826 627648 610702 592960 598684 598278
1995.01 595948 611592 619146 618014 608448 587538
1997.90 583076 608572 624758 629778 618502 613892
2000.80 618958 633196 633466 622614 613570 617974
2003.69 619618 617852 612352 616954 635226 625052
2006.58 615266 630866 630398 635058 640130 644982
2009.48 663072 665222 659934 654680 641278 643594
2012.37 672742 670422 673992 681654 676624 676220
2015.26 681990 694986 710542 706450 716584 724566
2018.15 710150 696202 716496 726870 735248 762624
2021.05 799648 804062 799558 809766 825276 821700
2023.94 831460 856704 882378 896772 897126 900686
2026.83 906322 918178 953430 983678 976500 971140
2029.72 991296 1031146 1080682 1115388 1131556 1171230
2032.62 1204716 1231734 1270296 1326816 1389146 1425202
2035.51 1467008 1528650 1599034 1653998 1684698 1729688
2038.40 1778588 1836118 1911364 1985706 2055000 2139032
2041.29 2226584 2298274 2383916 2470100 2566586 2669708
2044.19 2771778 2868474 2933634 3011342 3109482 3204418
2047.08 3291080 3372530 3452624 3538378 3647796 3761638
2049.97 3854494 3917000 3986580 4055396 4113010 4190386
2052.87 4268204 4333574 4401268 4466858 4543268 4619060
2055.76 4701016 4782848 4853554 4966674 5041174 5092810
2058.65 5159714 5238618 5292666 5308622 5320736 5276672
2061.54 5190992 5037192 4823848 4633562 4491952 4412336
2064.44 4381808 4372128 4375298 4384074 4412572 4425922
2067.33 4422380 4421478 4407224 4314068 4190542 4070690
2070.22 3938128 3802984 3646526 3484364 3332378 3185458
2073.11 2998492 2819374 2676316 2550976 2465696 2371772
2076.01 2293158 2257954 2240092 2170068 2101106 2076984
2078.90 2051852 2051324 2059832 2067522 2090272 2164176
2081.79 2165570 2115334 2127364 2142588 2156928 2169724
2084.69 2190718 2247488 2355296 2366224 2333286 2384976
2087.58 2453968 2532976 2624270 2733034 2847544 3015286
2090.47 3054864 3004958 3008212 2982462 2945422 2886154
2093.36 2823024 2811556 2839076 2710404 2595198 2548522
2096.26 2526920 2526292 2542152 2562464 2681880 2802314
2099.15 2717432 2666062 2686722 2721234 2745244 2767032
2102.04 2793818 2910046 2912114 2754932 2684100 2652040
2104.93 2644694 2615632 2603194 2650348 2761622 2642020
2107.83 2499228 2452660 2458222 2455042 2455824 2489810
2110.72 2628820 2721532 2585268 2544104 2533938 2526728
2113.61 2513362 2489642 2506162 2612190 2483014 2339478
2116.51 2296682 2274012 2269636 2290178 2367386 2549952
2119.40 2590644 2412090 2343558 2325438 2307100 2280648
2122.29 2282838 2362600 2440292 2254220 2079240 2014988
2125.18 1989114 1946680 1907120 1948354 2051058 1933598
2128.08 1808746 1760676 1734308 1711700 1678796 1668302
2130.97 1727936 1671940 1543506 1492056 1466248 1449788
2133.86 1435456 1432676 1475508 1459842 1382474 1347770
2136.75 1326406 1327314 1329698 1329348 1356712 1369044
2139.65 1344808 1341814 1350572 1366632 1376688 1402620
2142.54 1438896 1471268 1491246 1517842 1564496 1621514
2145.43 1695218 1766668 1842740 1893944 1925362 1973560
2148.33 2031440 2103828 2173242 2262262 2403718 2476932
2151.22 2516364 2616486 2719250 2836546 2952252 3128688
2154.11 3366586 3447142 3509530 3664778 3830116 3986726
2157.00 4160304 4454148 4678912 4727862 4854458 5037314
2159.90 5253024 5454856 5731382 6122868 6286312 6354936
2162.79 6555506 6769778 7005720 7236486 7591666 7909356
2165.68 7971046 8098274 8310888 8534022 8762646 9042564
2168.57 9434794 9564874 9587068 9771644 9928796 10062370
2171.47 10236460 10581170 10791220 10691490 10709160 10838730
2174.36 11002330 11202120 11504550 11800280 11780350 11737030
2177.25 11774870 11786000 11788310 11859330 12021310 11892480
2180.15 11637370 11507980 11399760 11324170 11211510 11042930
2183.04 10636190 10205040 9983240 9805178 9660970 9556206
2185.93 9527742 9333202 8993444 8756706 8531706 8244516
2188.82 7931030 7709214 7363968 6883882 6514978 6153252
2191.72 5778892 5431140 5148960 4794866 4365200 4037856
2194.61 3771356 3542468 3364440 3269188 3056266 2807268
2197.50 2622928 2467898 2342184 2284662 2231448 2041990
2200.39 1894892 1804590 1725608 1661024 1632962 1572408
2203.29 1445624 1377640 1331584 1285432 1268568 1278302
2206.18 1241806 1161470 1120170 1111004 1108688 1131040
2209.07 1149812 1093160 1049574 1040484 1042818 1061958
2211.97 1095308 1083184 1060972 1051848 1064592 1093206
2214.86 1120058 1119462 1123262 1146852 1148426 1161862
2217.75 1192616 1219290 1241076 1267790 1287002 1302886
2220.64 1334736 1358740 1349132 1329546 1317342 1301090
2223.54 1297926 1323064 1347262 1362422 1370756 1356618
2226.43 1334536 1289922 1245904 1216530 1204382 1226892
2229.32 1233342 1234390 1263148 1291774 1311610 1303632
2232.21 1297796 1303386 1288392 1275054 1262658 1237222
2235.11 1210618 1191942 1167866 1153134 1137114 1103654
2238.00 1083310 1064368 1039594 1016066 1017310 1017574
2240.89 1006490 1016106 1030904 1051308 1062198 1062426
2243.79 1065282 1081780 1098332 1116688 1123626 1120220
2246.68 1110182 1094740 1093844 1126172 1156548 1157782
2249.57 1163680 1173338 1206188 1242650 1271964 1309980
2252.46 1351984 1364140 1374318 1418632 1487946 1513552
2255.36 1534014 1565950 1594376 1617052 1643664 1667760
2258.25 1684958 1706820 1742490 1799268 1832232 1849020
2261.14 1869740 1897004 1918140 1955336 2005948 2061072
2264.03 2096340 2147648 2228410 2326848 2405016 2471920
2266.93 2538944 2583756 2614278 2658416 2684464 2659130
2269.82 2625584 2594812 2557690 2529748 2547362 2569354
2272.71 2604484 2621664 2679902 2748884 2795618 2834014
2275.61 2863376 2875522 2876206 2874242 2855266 2835238
2278.50 2816300 2797738 2777668 2771850 2766720 2754338
2281.39 2751430 2740700 2741290 2736718 2723208 2701898
2284.28 2669424 2625666 2596254 2562398 2520072 2468236
2287.18 2426746 2384672 2338716 2316388 2303330 2281324
2290.07 2251806 2235388 2217006 2199726 2193808 2180804
2292.96 2188858 2173394 2152886 2145922 2123826 2073740
2295.85 2039064 1999354 1950282 1914724 1880552 1838926
2298.75 1819852 1794712 1754020 1730332 1720582 1711506
2301.64 1695398 1660082 1655042 1635348 1604508 1561930
2304.53 1546338 1527130 1489974 1443960 1385994 1363648
2307.43 1352354 1322582 1255688 1216028 1227238 1214054
2310.32 1167398 1152870 1189962 1176282 1106332 1047948
2313.21 1101342 1122920 1077382 966520 985168 1022924
2316.10 978344 843262 866308 920356 905386 785340
2319.00 781502 858080 841274 684140 680186 791498
2321.89 773560 597906 603292 776496 743016 543226
2324.78 572346 769078 736274 513414 544604 745646
2327.67 648692 444540 579098 797676 632900 445392
2330.57 651060 821148 599602 505274 771930 826086
2333.46 564770 622310 918188 833878 590630 769050
2336.35 997232 804080 707136 998284 1030492 796092
2339.24 913582 1148618 1018890 957996 1216816 1287952
2342.14 1134164 1252204 1409936 1313562 1314842 1500972
2345.03 1514380 1455224 1580470 1691196 1688710 1752250
2347.92 1840588 1878686 1888386 1898804 1943388 1966456
2350.82 1917444 1951774 1994072 1897974 1953688 2077260
2353.71 1950916 1982548 2139586 1984054 1983226 2153208
2356.60 1967418 1979294 2187204 1986658 2046686 2224524
2359.49 1998134 2142954 2264496 2026360 2201930 2220350
2362.39 2058070 2258936 2127700 2071042 2226428 2038718
2365.28 2135590 2180096 2049326 2212960 2110832 2126520
2368.17 2180206 2084068 2206010 2141866 2165754 2170610
2371.06 2097564 2148446 2088394 2131962 2090692 2067284
2373.96 2056868 2029328 2038226 2014844 2024940 1974960
2376.85 1959788 1928948 1925510 1923976 1941332 1924616
2379.74 1902572 1873854 1855858 1850732 1842108 1831666
2382.64 1831714 1845804 1838424 1821926 1824696 1837032
2385.53 1834720 1837514 1834868 1814538 1786388 1763466
2388.42 1742864 1712734 1682454 1662922 1637694 1616218
2391.31 1594392 1575534 1555610 1529518 1511454 1502626
2394.21 1514126 1489554 1459440 1452250 1451198 1432804
2397.10 1416316 1426422 1417506 1403996 1403166 1398508
2399.99 1379968 1372850 1373852 1356118 1351302 1350824
2402.88 1338512 1341334 1338898 1333716 1345126 1359606
2405.78 1355678 1374738 1381356 1362608 1337870 1356736
2408.67 1385978 1393512 1379728 1389290 1418806 1433242
2411.56 1431496 1432436 1442504 1448964 1456470 1464992
2414.46 1464834 1463828 1443884 1434024 1454402 1498528
2417.35 1498894 1468792 1449940 1428118 1400560 1379106
2420.24 1371758 1385964 1383172 1363922 1350302 1335630
2423.13 1332416 1329520 1323182 1300540 1282604 1254830
2426.03 1220640 1187534 1153624 1134208 1086458 1014526
2428.92 975416 952396 931144 887602 822284 782452
2431.81 764004 752342 723680 688220 654038 638294
2434.70 633188 602028 586582 593676 587292 566252
2437.60 548590 529368 529618 537276 539604 530710
2440.49 512856 508116 507700 483818 472606 477884
2443.38 455912 444976 459604 454466 445964 446120
2446.28 434766 442708 459564 454404 442446 444016
2449.17 461174 445734 431634 433992 439546 454996
2452.06 460178 469918 480958 485964 488018 494828
2454.95 522086 548924 546108 558306 564698 569726
2457.85 595986 605866 618396 632356 630688 640552
2460.74 673000 663794 673406 681040 695746 704762
2463.63 720138 739748 745588 734610 740826 762072
2466.52 795640 805152 795068 802602 802608 813692
2469.42 840132 863498 873828 860824 856802 867328
2472.31 876824 889650 898676 896014 913772 951936
2475.20 951116 959170 955736 933770 914054 908502
2478.10 910856 924656 920214 898848 885494 898166
2480.99 891450 881198 890706 896372 883526 878968
2483.88 865106 846994 836204 815982 802226 788446
2486.77 765332 775214 761182 753712 772638 770382
2489.67 756604 734812 695114 671452 662242 658780
2492.56 651988 651546 644798 639976 616172 593440
2495.45 595610 601724 585758 565794 555612 566888
2498.34 571882 572836 554308 536788 537826 539920
2501.24 529214 519778 522800 513898 505184 497262
2504.13 477808 451016 448982 463814 466752 443492
2507.02 427174 452094 454376 456078 443360 426578
2509.92 417636 404910 395976 403944 418276 413888
2512.81 397380 383694 364376 355482 358628 378326
2515.70 392338 394672 377414 360016 377752 399598
2518.59 407606 404106 401380 409986 410214 405708
2521.49 409956 400536 390486 396174 420078 412458
2524.38 396362 399762 433380 432722 407768 415974
2527.27 443788 466768 474858 464686 448430 447504
2530.16 459232 469600 506684 522608 501212 476634
2533.06 496114 520724 532444 532386 551884 577692
2535.95 608460 626098 623772 643466 687044 716922
2538.84 728932 721018 716066 747878 774530 787524
2541.74 819050 832770 853616 869014 871826 889366
2544.63 923092 953582 961110 972830 978084 1012610
2547.52 1047706 1050330 1055400 1076534 1076796 1080116
2550.41 1109996 1144274 1156256 1164882 1175874 1195546
2553.31 1231098 1260008 1287740 1308516 1326426 1351810
2556.20 1375362 1398522 1432570 1458142 1495224 1516024
2559.09 1546090 1576890 1592866 1606128 1644226 1689142
2561.98 1730460 1776494 1798498 1824220 1846436 1884948
2564.88 1928020 1980162 2012574 2049550 2096054 2135568
2567.77 2195528 2251430 2286262 2322310 2360736 2424948
2570.66 2491674 2540394 2557514 2571356 2626736 2687846
2573.56 2721728 2757134 2818254 2876390 2907684 2948990
2576.45 3008118 3081624 3152212 3207344 3262926 3349932
2579.34 3389718 3414954 3455584 3509666 3567102 3641696
2582.23 3739158 3827034 3914846 4015356 4100746 4139980
2585.13 4192670 4243964 4286066 4313184 4317548 4310444
2588.02 4306362 4300136 4282678 4272784 4255954 4227694
2590.91 4210896 4224376 4231152 4268450 4312110 4337016
2593.80 4383306 4436710 4461130 4502046 4528468 4547462
2596.70 4576958 4623876 4669800 4686878 4691452 4703950
2599.59 4700162 4690240 4709564 4719082 4718166 4735070
2602.48 4755426 4765374 4766132 4795130 4828890 4813380
2605.37 4824960 4874218 4907160 4925374 4945730 4978338
2608.27 5015658 5026032 5015338 5050992 5091116 5102932
2611.16 5124798 5131740 5132080 5152878 5191322 5221874
2614.05 5228240 5262258 5297262 5301628 5301686 5351160
2616.95 5386160 5404224 5431300 5450276 5484404 5477004
2619.84 5428376 5407306 5429146 5446288 5442496 5450290
2622.73 5483364 5472932 5471012 5466088 5441252 5412392
2625.62 5379418 5337016 5304468 5263380 5211704 5156616
2628.52 5131878 5123746 5057486 5006340 4989938 4961090
2631.41 4950222 4933818 4905976 4886290 4881648 4890858
2634.30 4868810 4838954 4800118 4766152 4738444 4700616
2637.19 4640450 4621546 4633068 4611788 4593032 4595674
2640.09 4622884 4658490 4646904 4637828 4631756 4642348
2642.98 4659144 4639010 4633516 4603130 4567694 4555704
2645.87 4534262 4508868 4465316 4430164 4400928 4357586
2648.77 4338232 4334376 4323700 4353718 4365736 4360394
2651.66 4344486 4346930 4346850 4326358 4323866 4331792
2654.55 4331600 4323800 4290026 4262354 4224286 4197576
2657.44 4173354 4136388 4107588 4104628 4104772 4102902
2660.34 4109040 4093208 4058888 4048816 4031924 4022954
2663.23 4008594 3969462 3932028 3916508 3901390 3860584
2666.12 3815406 3791910 3753622 3708474 3686876 3688278
2669.01 3677240 3663556 3645082 3607404 3607498 3599306
2671.91 3572486 3570006 3564904 3560938 3553412 3535038
2674.80 3484746 3454812 3485646 3505716 3477816 3445708
2677.69 3447712 3450268 3424782 3389740 3388434 3391436
2680.59 3364146 3343708 3322272 3311400 3329370 3330656
2683.48 3280576 3263288 3285532 3293984 3285596 3261802
2686.37 3223634 3208938 3210784 3205210 3204570 3219248
2689.26 3221506 3193870 3178180 3161500 3146208 3143552
2692.16 3158462 3180578 3175348 3167808 3170658 3169488
2695.05 3181324 3191764 3188702 3181838 3166638 3178822
2697.94 3205364 3229176 3250440 3265026 3289242 3320444
2700.83 3349586 3387444 3412470 3452576 3497242 3546816
2703.73 3584322 3634374 3696394 3767968 3817154 3879408
2706.62 3943974 4003332 4050148 4091022 4156838 4253078
2709.51 4300498 4366956 4462638 4564202 4656366 4722724
2712.41 4796432 4900490 5016542 5131064 5265390 5385040
2715.30 5527506 5687492 5820624 5936078 6046088 6154928
2718.19 6249820 6345846 6429936 6537786 6631204 6685710
2721.08 6759986 6847910 6896568 6940236 6973130 7019662
2723.98 7143202 7246964 7333746 7448134 7557932 7632030
2726.87 7674726 7665256 7659336 7678386 7682420 7668502
2729.76 7665182 7668866 7680288 7703704 7726354 7745660
2732.65 7726668 7709112 7712762 7719048 7693394 7690926
2735.55 7727010 7747194 7727338 7719726 7731552 7706878
2738.44 7641194 7554190 7510468 7465886 7395964 7346048
2741.33 7300814 7260028 7181328 7107232 7089540 7045126
2744.23 6962468 6925446 6940806 6938104 6924236 6893746
2747.12 6880922 6870300 6841296 6783692 6742948 6683244
2750.01 6599716 6511904 6413336 6299916 6208798 6153048
2752.90 6098104 6080212 6080812 6054390 6040960 6015504
2755.80 5989604 6005980 6009924 6018978 6045234 6075250
2758.69 6095406 6109860 6118208 6123578 6121240 6143708
2761.58 6151136 6140320 6145764 6172586 6196956 6170128
2764.47 6131088 6145312 6155886 6147750 6172682 6169356
2767.37 6166068 6222486 6274206 6301170 6319402 6344904
2770.26 6385530 6463042 6490150 6498090 6565154 6662566
2773.15 6717148 6740870 6784256 6812190 6838038 6867274
2776.05 6854388 6859460 6884672 6920490 6936438 6958098
2778.94 7005886 7073476 7140092 7205556 7278138 7399106
2781.83 7535098 7670748 7789234 7919556 8083498 8210940
2784.72 8308512 8422070 8535170 8651258 8765126 8883156
2787.62 9016834 9165212 9304308 9451262 9601742 9738336
2790.51 9893120 10057080 10229440 10414810 10601480 10793330
2793.40 11014640 11219770 11412750 11626750 11843490 12098560
2796.29 12387540 12653860 12927450 13282310 13661290 13968060
2799.19 14299790 14701760 15141550 15589820 16085040 16587940
2802.08 17118740 17729440 18321960 18929780 19577880 20250070
2804.97 20978890 21734120 22556280 23494800 24580050 25801690
2807.87 27178660 28711900 30385050 32205960 34172580 36246770
2810.76 38383110 40605640 42961200 45502720 48227220 51127040
2813.65 54208520 57491960 60939440 64477610 68152470 71884720
2816.54 75687620 79582340 83420860 87168670 90780550 94311500
2819.44 97774400 101028300 104127100 107241500 110365400 113490600
2822.33 116712400 120262400 124315800 129172400 135201600 142890300
2825.22 152298400 162428000 170646300 174860100 175036500 171856400
2828.11 166285900 159884200 154147500 149869600 147419100 146643200
2831.01 147638000 150697300 156002600 163638800 173276500 183883100
2833.90 194018200 202306500 207396800 207701700 202589300 193348700
2836.79 182194000 170910700 160443900 151506400 144456000 139171800
2839.69 135528500 133189100 131788900 131015900 130603000 130371100
2842.58 130108800 129545700 128513200 126943400 124830100 122150600
2845.47 118899000 115274200 111222400 106776400 102180300 97507530
2848.36 92839260 88215300 83707980 79321660 75146280 71283970
2851.26 67684740 64420650 61489910 58855530 56544280 54548190
2854.15 52872210 51475690 50372470 49506670 48851760 48401420
2857.04 48104310 48025300 48183340 48480770 48883780 49379670
2859.93 50032940 50845840 51729210 52638690 53651020 54773620
2862.83 55942300 57122880 58395680 59791680 61244700 62723230
2865.72 64287770 65943900 67632100 69422420 71332220 73277340
2868.61 75288690 77388900 79610480 81943120 84355590 86805380
2871.51 89283380 91794380 94398780 97074370 99820300 102629300
2874.40 105395600 108148600 110932900 113732000 116430400 118998700
2877.29 121616800 124346000 127027000 129637500 132290200 134962100
2880.18 137582500 140107800 142675400 145307400 147843500 150288600
2883.08 152759100 155165200 157521300 160057900 162654300 165265000
2885.97 167943000 170765000 173753300 176925800 180159800 183519800
2888.86 187241600 191159000 195175400 199486500 203876500 208124300
2891.75 212127800 215848500 219385200 222870400 226157300 229076100
2894.65 231822200 234635400 237497200 240453800 243510000 246437200
2897.54 249254800 252032800 254886800 257700400 260402500 263013200
2900.43 265623600 268201700 270678300 272945100 275242700 277619900
2903.32 280057700 282510200 284959900 287503200 289828400 291731300
2906.22 293130600 294028600 294677900 295026000 295191100 295313400
2909.11 295578800 296111800 297084400 298514900 300360300 302678800
2912.00 305105100 307592500 310384800 313267300 316002900 318397100
2914.90 320427000 322085200 323097200 323198700 322708200 321859700
2917.79 320583500 318859900 316714900 314361700 311699800 309145000
2920.68 306897400 304829800 303123400 302029800 301393200 301070900
2923.57 301212200 301650000 302069600 302473800 302718200 302683000
2926.47 302563500 302361100 302013600 301574100 301221800 301058700
2929.36 301158100 301336900 301761900 302414400 303139500 304161100
2932.25 305437400 306697100 307950100 309281800 310641500 312023500
2935.14 313453400 315012900 316476200 317842700 319284000 320778300
2938.04 322324100 323663600 324925600 326415100 327942300 329562200
2940.93 331190400 332585600 334184300 335684400 336825000 337716800
2943.82 338432100 339174300 339942200 340775300 341581100 342443500
2946.72 343713100 345021800 346196500 347209500 348020500 348385600
2949.61 347992400 346971000 345505900 343293200 340548900 337531900
2952.50 334412500 331212500 328082600 325403800 323256200 321510600
2955.39 320546900 320292500 320696400 321730900 323431900 325904900
2958.29 328973600 332705400 337432400 342788300 349003800 356325100
2961.18 365031900 375082300 385801200 397653600 410709400 424623800
2964.07 439703800 455176800 470893300 486943200 503374600 520529800
2966.96 538772400 557790300 577372400 597274700 617867400 638954200
2969.86 660235000 682055700 703833900 725822800 749157100 773795100
2972.75 798966200 824633500 852096000 882957000 919681600 962901400
2975.64 1010311000 1052137000 1068822000 1045178000 993984800 947149300
2978.54 927152100 937262700 970567700 1014620000 1048432000 1050707000
2981.43 1031671000 1021055000 1035260000 1074948000 1133925000 1201821000
2984.32 1258461000 1286520000 1297853000 1301416000 1276473000 1211157000
2987.21 1123762000 1039206000 966923700 907097900 857627800 818445800
2990.11 787900000 764172900 745115100 728914500 714410400 700654200
2993.00 685961000 670369900 653028500 633689700 612725700 590291300
2995.89 565931600 540594400 514426700 487404300 460363900 433025400
2998.78 405636100 378722600 352572800 327256500 302808500 279451200
3001.68 257317700 236452000 216921400 198786500 182012200 166626500
3004.57 152447300 139423400 127625500 116985800 107360400 98685370
3007.46 90818360 83758020 77439740 71801570 66795360 62334470
3010.36 58299770 54692850 51460960 48606780 46077500 43797240
3013.25 41732980 39911430 38269440 36759160 35364090 34113370
3016.14 32968850 31890070 30907190 30035420 29171490 28358820
3019.03 27640170 26943680 26288500 25679650 25078920 24528070
3021.93 24013160 23531720 23075170 22601640 22169270 21794510
3024.82 21420320 21037350 20645120 20239030 19869700 19561960
3027.71 19258680 18949270 18642250 18365540 18084720 17824690
3030.60 17560120 17296190 17042240 16813820 16604510 16382190
3033.50 16183700 16021900 15817830 15632140 15453550 15266870
3036.39 15058790 14882150 14716630 14555150 14399420 14259710
3039.28 14095210 13954790 13819520 13739120 13629080 13442140
3042.18 13246180 13151970 13071620 12959210 12813930 12703430
3045.07 12589390 12464250 12375940 12314510 12219570 12086660
3047.96 12019040 11948260 11885570 11813570 11742610 11650630
3050.85 11577090 11547400 11530180 11492370 11387090 11272110
3053.75 11226930 11210650 11169120 11115550 11078390 11032100
3056.64 11001770 10991900 10962030 10920040 10868370 10834190
3059.53 10816600 10811780 10797920 10774190 10741730 10720520
3062.42 10743680 10757070 10761460 10733350 10710850 10700590
3065.32 10686730 10694230 10702170 10695530 10648200 10604340
3068.21 10576930 10536190 10506570 10511680 10493800 10481690
3071.10 10451550 10389410 10345130 10329870 10295160 10258250
3074.00 10220980 10213390 10156120 10118990 10079980 10043550
3076.89 9980014 9925340 9882884 9821978 9754634 9682312
3079.78 9603382 9547528 9480330 9429964 9362174 9261018
3082.67 9188956 9118326 9033730 8973124 8897908 8809552
3085.57 8690814 8616826 8559484 8497834 8415838 8308726
3088.46 8201166 8137178 8058264 7962664 7889892 7800928
3091.35 7739206 7691164 7617566 7525866 7441836 7366608
3094.24 7297666 7239722 7174748 7114376 7056026 6998474
3097.14 6920250 6820906 6711514 6671392 6631600 6571062
3100.03 6521856 6476196 6412752 6373302 6320864 6287056
3102.92 6254722 6216056 6192268 6142662 6058850 5996690
3105.82 5978396 5953100 5913988 5916068 5920020 5861770
3108.71 5847690 5855338 5812402 5754624 5726626 5680410
3111.60 5641256 5630938 5634304 5612672 5607960 5672390
3114.49 5668808 5635202 5607130 5564048 5553404 5567372
3117.39 5547932 5555332 5566054 5561876 5571306 5552016
3120.28 5521104 5541768 5570928 5571432 5552726 5533932
3123.17 5503694 5526938 5575344 5580470 5561204 5558152
3126.06 5579086 5591192 5650654 5708460 5704122 5721570
3128.96 5711900 5727754 5766602 5763026 5791268 5811264
3131.85 5827616 5875710 5918028 5937422 5951968 5956416
3134.74 5972012 6039900 6103308 6146238 6168350 6195628
3137.64 6247356 6307464 6342980 6360334 6404552 6443538
3140.53 6464102 6500710 6536236 6603102 6638654 6677024
3143.42 6700002 6699930 6741716 6791028 6804402 6847438
3146.31 6854540 6822584 6845628 6890140 6874468 6886302
3149.21 6917154 6949048 6969974 6965614 6957806 6957702
3152.10 6965092 6933060 6872518 6840552 6851242 6866332
3154.99 6860332 6866924 6873926 6859232 6834196 6797484
3157.88 6757900 6770056 6764190 6746166 6713238 6631264
3160.78 6587778 6604670 6596804 6552752 6490088 6479944
3163.67 6465740 6453820 6421866 6340574 6330342 6336686
3166.56 6294340 6276824 6290470 6296946 6277328 6245908
3169.46 6228916 6215008 6222080 6238070 6236766 6265400
3172.35 6254988 6209744 6188260 6222018 6213038 6205640
3175.24 6236506 6239406 6238266 6207994 6192080 6264224
3178.13 6290966 6289286 6312198 6322072 6334876 6350738
3181.03 6353072 6348258 6350042 6376096 6376300 6399670
3183.92 6416242 6461362 6474376 6472202 6501468 6494732
3186.81 6485896 6519004 6539194 6533902 6531744 6539292
3189.70 6537182 6560442 6576434 6604094 6632734 6625214
3192.60 6611690 6624192 6587920 6576046 6611484 6666136
3195.49 6680118 6655598 6653468 6651792 6631160 6616742
3198.38 6599242 6552648 6547320 6607994 6580814 6554130
3201.27 6592318 6581148 6550890 6546104 6552764 6545626
3204.17 6529466 6508914 6486568 6497650 6509548 6480662
3207.06 6484056 6485080 6499074 6496206 6507664 6531388
3209.95 6525944 6520274 6481172 6468790 6497518 6509986
3212.85 6547102 6580126 6552148 6536894 6595130 6631060
3215.74 6669248 6719572 6739878 6763188 6772212 6794242
3218.63 6840268 6891754 6921662 6949864 7018924 7071452
3221.52 7072948 7150270 7176818 7172982 7235754 7289196
3224.42 7356812 7396918 7427810 7499058 7573682 7579402
3227.31 7593194 7571894 7585924 7656200 7656200 7649636
3230.20 7667984 7687924 7694626 7703502 7714838 7703718
3233.09 7722460 7789252 7779518 7711208 7680914 7665306
3235.99 7614442 7615292 7608624 7574574 7536982 7512342
3238.88 7490272 7447862 7404504 7345588 7286562 7226430
3241.77 7166852 7088646 7002670 6927150 6848794 6799628
3244.67 6725606 6649236 6573048 6491344 6402266 6332102
3247.56 6238618 6128306 6044786 5928466 5815618 5683696
3250.45 5624454 5526054 5398866 5324034 5236648 5088042
3253.34 5007522 4948690 4848250 4786150 4670184 4513672
3256.24 4392350 4279504 4197996 4122930 4019094 3915248
3259.13 3834922 3778328 3694062 3622062 3537084 3417878
3262.02 3318744 3269554 3200702 3104026 3034838 3009296
3264.91 2940774 2834380 2745634 2681910 2659926 2622966
3267.81 2548708 2483664 2427706 2345772 2277638 2237242
3270.70 2210646 2138546 2058538 2030410 2030662 1976796
3273.59 1935932 1920606 1908712 1858774 1812514 1810638
3276.49 1775256 1718234 1679162 1666352 1679172 1650422
3279.38 1602134 1599138 1617266 1547084 1500834 1498300
3282.27 1481372 1452032 1436010 1449162 1444078 1418012
3285.16 1419642 1439066 1441398 1350300 1306286 1313586
3288.06 1310912 1290560 1232102 1232584 1261218 1255936
3290.95 1260008 1256446 1276544 1257514 1251980 1248278
3293.84 1255794 1248378 1239126 1244472 1233628 1243114
3296.73 1274320 1277594 1257360 1284374 1291430 1282848
3299.63 1303400 1343958 1355432 1372140 1397926 1435850
3302.52 1474216 1515928 1549422 1555200 1593952 1617768
3305.41 1589090 1627676 1687608 1710368 1739724 1745508
3308.31 1787524 1844866 1852250 1911772 1958662 1946382
3311.20 1935850 1974132 2017550 2053710 2073112 2133608
3314.09 2212520 2254560 2262942 2283682 2335626 2400524
3316.98 2411822 2426110 2436656 2432642 2488566 2533606
3319.88 2469732 2421722 2450854 2489734 2471182 2446668
3322.77 2407468 2381052 2369096 2380078 2364992 2380154
3325.66 2412462 2419718 2401930 2419488 2458010 2471596
3328.55 2498858 2528064 2512474 2464774 2402654 2380104
3331.45 2358116 2334992 2336094 2328124 2290128 2273110
3334.34 2252058 2213050 2212692 2164998 2139972 2140096
3337.23 2119222 2099322 2088104 2104816 2108082 2085458
3340.13 2076698 2057928 2015498 1961310 1947832 1956912
3343.02 1992154 2066948 2081968 2079516 2050548 2031798
3345.91 2051426 2023900 2016410 2019924 1970218 1906008
3348.80 1847938 1797690 1793940 1804892 1752598 1692360
3351.70 1692100 1723668 1721838 1708062 1681578 1614904
3354.59 1592768 1634696 1621942 1594078 1545676 1507954
3357.48 1497376 1463198 1421316 1410134 1413468 1385786
3360.37 1406482 1426510 1373602 1294664 1330356 1336668
3363.27 1283692 1265748 1242360 1267794 1236900 1197832
3366.16 1189102 1180564 1173056 1185288 1206864 1181100
3369.05 1164288 1203970 1258830 1271776 1272794 1294974
3371.95 1334134 1350564 1330586 1299684 1332238 1386736
3374.84 1419604 1443000 1493744 1504712 1516786 1565878
3377.73 1664526 1677594 1658060 1686688 1743578 1783450
3380.62 1823276 1853280 1885530 1951508 1999160 2033396
3383.52 2095988 2123428 2186940 2270496 2351952 2354494
3386.41 2366824 2395536 2384518 2367060 2370140 2357184
3389.30 2390136 2381006 2346526 2372238 2369424 2343580
3392.19 2322802 2290070 2282974 2296846 2275992 2284982
3395.09 2312422 2318190 2317222 2271958 2216612 2182014
3397.98 2106784 2045154 2023742 2015884 1993846 1971760
3400.87 1923378 1869550 1814446 1762948 1769708 1796890
3403.77 1725860 1623680 1568842 1547804 1557422 1550384
3406.66 1495576 1482882 1456234 1430318 1427518 1353342
3409.55 1279258 1241222 1238250 1196568 1148596 1137392
3412.44 1120794 1114328 1097710 1087030 1055432 1047824
3415.34 1050536 1036112 1055852 1103518 1100372 1084662
3418.23 1090304 1102750 1127150 1120632 1111906 1103296
3421.12 1104748 1151646 1195798 1218918 1200540 1214532
3424.01 1248912 1259896 1281102 1298672 1296068 1336390
3426.91 1360642 1362142 1389972 1449332 1458166 1489706
3429.80 1544142 1596916 1594798 1566162 1596178 1612316
3432.69 1621462 1613240 1566190 1570786 1622622 1662176
3435.59 1673156 1660416 1681776 1721462 1712644 1742564
3438.48 1715998 1683146 1677506 1685162 1714708 1740444
3441.37 1676500 1631072 1635136 1654272 1651498 1606388
3444.26 1546652 1498782 1516370 1527002 1503016 1474608
3447.16 1431936 1405162 1366416 1312386 1296820 1276040
3450.05 1243382 1176960 1148004 1154338 1134756 1123350
3452.94 1124616 1115108 1095100 1047534 1032018 991754
3455.83 965762 955122 903354 860092 875006 872232
3458.73 871954 833470 795066 794366 794552 825942
3461.62 822850 832180 848690 836306 845580 838962
3464.51 785728 807522 813604 780186 747268 783570
3467.40 851542 830498 817180 841106 892566 908086
3470.30 909436 927750 907702 917810 941150 949676
3473.19 977370 1014442 1020644 995644 992750 1038088
3476.08 1101122 1114056 1145352 1220406 1247818 1225276
3478.98 1239044 1259202 1243788 1236510 1227268 1245062
3481.87 1254642 1263220 1250554 1209210 1195500 1226784
3484.76 1215398 1202664 1165268 1157892 1139600 1109728
3487.65 1136934 1164668 1122776 1074430 1070638 1029672
3490.55 1036988 1023234 1025912 1025278 997956 1016762
3493.44 1009444 947204 883666 860804 881528 844558
3496.33 794504 767420 746510 727566 718090 688372
3499.22 657806 656942 639730 598292 580304 556142
3502.12 535182 506404 469428 468738 451318 476726
3505.01 471794 402744 359580 339612 326076 330136
3507.90 351016 322736 308824 316732 293040 283952
3510.80 263350 257936 269574 254918 217446 223218
3513.69 194602 161160 145544 138968 156884 200064
3516.58 229406 198020 156676 141138 153768 164638
3519.47 156260 108678 116790 158848 151742 136768
3522.37 140408 174402 189252 169032 138880 108300
3525.26 77150 69848 112156 121046 100550 91272
3528.15 116326 135924 109376 88054 91392 128594
3531.04 132796 72222 29822 53198 81970 79018
3533.94 80272 84692 90992 118888 117548 117884
3536.83 116356 97360 112302 130416 126182 99474
3539.72 83316 83126 101018 110744 81654 82612
3542.62 83698 60938 66902 124196 140998 90602
3545.51 56528 132726 210862 160092 82224 116136
3548.40 100996 58650 52296 89392 127438 131270
3551.29 129376 138872 87314 44156 63946 95746
3554.19 101778 80304 88572 93116 79520 89848
3557.08 113848 88508 97334 117676 84920 60822
3559.97 56524 69844 97358 81478 64496 69540
3562.86 71948 81224 103990 83868 97212 155020
3565.76 187496 170390 137574 171762 202230 130344
3568.65 87324 78810 30530 32178 35920 46164
3571.54 70502 51976 9904 15870 68096 54286
3574.44 58502 85734 67660 58264 37534 18680
3577.33 51480 99968 123846 115974 91818 56790
3580.22 19852 47970 65212 54658 55682 42620
3583.11 38440 33580 73292 121536 139236 143850
3586.01 197168 166916 108054 118706 239886 260206
3588.90 133258 95808 74676 48510 58746 75786
3591.79 98332 116654 117154 83188 58822 70180
3594.68 131262 132076 86934 48822 43748 68026
3597.58 98500 90100 98308 120704 109344 123378
3600.47 156520 153322 129820 89084 94866 129776
3603.36 90222 66000 43258 85714 116562 150616
3606.26 204472 245980 165278 92478 183322 417796
3609.15 321876 137174 114190 97892 115862 229396
3612.04 322712 241870 153298 180876 241532 204936
3614.93 147954 132334 137990 134980 190768 218598
3617.83 144970 149032 331686 415182 199576 112604
3620.72 126804 125040 123386 108426 101064 99784
3623.61 81644 105834 96404 98152 110480 143256
3626.50 140064 149898 316112 490998 382418 550948
3629.40 516282 199420 132624 134420 126262 112820
3632.29 109796 130860 214834 173756 122058 73356
3635.18 56848 83660 81800 85370 78840 105048
3638.08 138368 124758 96772 78732 93472 115670
3640.97 88690 76796 92426 104398 97980 96354
3643.86 114288 110818 120782 118246 154646 247006
3646.75 360110 302816 185082 284556 608104 519986
3649.65 269218 306674 307490 241594 117274 109236
3652.54 90736 76006 68588 72540 118768 165904
3655.43 343752 445334 232552 127668 107600 101384
3658.32 100010 117718 78760 58302 95756 118254
3661.22 96990 101086 110466 138852 154180 156688
3664.11 145170 137336 147924 157016 155174 163532
3667.00 158434 173988 325752 424548 283194 259068
3669.90 581570 799400 417022 244498 181354 201652
3672.79 214800 252818 314492 541394 584926 668070
3675.68 715814 377906 259210 255892 260046 251186
3678.57 283610 369876 316656 237850 218298 227726
3681.47 241142 233490 227912 257550 270356 269508
3684.36 249708 275802 315748 348074 310982 321276
3687.25 475632 959158 942912 495180 378636 377650
3690.14 455222 577214 525728 367230 347432 334300
3693.04 353464 348302 375280 415552 411256 385862
3695.93 398634 393436 389750 399608 432916 427946
3698.82 436436 449402 428884 449690 578318 646712
3701.72 581566 530932 526200 495594 473270 481850
3704.61 497538 502044 514284 480846 483526 506778
3707.50 532832 557488 696120 803170 695536 611294
3710.39 590262 638506 906716 1054318 725724 541462
3713.29 514802 518812 537040 531380 505514 457674
3716.18 404734 396354 404644 445002 489876 469394
3719.07 407570 394852 351736 367034 426310 532570
3721.96 532314 431286 372310 354630 391378 407784
3724.86 414814 389852 462044 478270 375218 374162
3727.75 376138 323232 285344 303120 340360 348008
3730.64 344652 536822 797938 623190 383074 356982
3733.54 390366 495164 547366 525938 429270 617002
3736.43 721526 478306 406494 430418 377312 353276
3739.32 347806 341402 349112 368272 339666 312630
3742.21 337880 422958 599128 1065296 1487610 1021666
3745.11 496800 368744 323390 355608 420648 429542
3748.00 443502 780812 1091746 733040 431040 391688
3750.89 469442 861742 1123288 654178 353126 313770
3753.78 326920 328482 336860 345274 385244 437860
3756.68 384034 326980 326088 358198 435436 539254
3759.57 558014 412176 340156 354958 380026 378790
3762.46 404776 388428 383310 399770 391540 444062
3765.35 536328 431888 397808 433910 437296 426566
3768.25 422460 459000 643882 656152 503684 438792
3771.14 409986 425982 451230 435254 431166 474674
3774.03 486768 456154 475592 486098 513672 511498
3776.93 498238 495952 494128 545162 644104 644574
3779.82 579042 553338 532068 567170 578916 607202
3782.71 624640 587450 559494 594950 576942 574430
3785.60 611230 619794 644520 655454 624736 617190
3788.50 613016 616994 653920 649264 624958 579408
3791.39 559428 590580 610018 644056 629760 600616
3794.28 587086 621148 695694 799720 748002 679500
3797.17 685610 664556 668614 674564 683006 726798
3800.07 807554 1175050 1394920 958554 742230 764830
3802.96 731244 684630 650382 655468 659460 687294
3805.85 832108 1108922 1067702 735800 666612 677628
3808.75 746188 753412 714130 702146 698456 678384
3811.64 714898 743218 744134 708678 763554 775486
3814.53 819890 1048246 1504174 1315176 861106 795390
3817.42 826284 845832 862230 891350 898124 1027024
3820.32 1158380 1149336 1231628 1067638 886222 877852
3823.21 865930 903720 936868 966682 964354 975312
3826.10 1049568 1044846 984816 989460 994550 999966
3828.99 1018396 982192 990122 1046988 1169934 1218274
3831.89 1096498 1065500 1052670 1065906 1114008 1274714
3834.78 1255836 1091020 1033744 1085266 1271974 1751124
3837.67 1689024 1210774 1091950 1122690 1169328 1165276
3840.57 1236590 1163796 1083622 1044220 1069696 1161680
3843.46 1189144 1085868 1025998 1011140 1022246 1008514
3846.35 989904 992426 985158 985232 1022404 995990
3849.24 974290 966036 1012042 1090428 1394502 1667840
3852.14 1345108 1183678 1557156 2099416 1859430 1176980
3855.03 967690 951324 1003962 1054072 1055342 969630
3857.92 927910 921856 942768 974814 996548 976136
3860.81 1065666 1137698 1051528 1004884 1075312 1085662
3863.71 1112760 1226632 1374900 1255988 1094048 1019276
3866.60 1079152 1111896 1145370 1182328 1258968 1322414
3869.49 1579220 1533788 1244394 1157432 1138070 1190250
3872.39 1249276 1345222 1438018 1496778 1426382 1323322
3875.28 1348312 1387914 1398516 1402514 1396190 1435706
3878.17 1486816 1550038 1623374 1714492 1667340 1598014
3881.06 1588620 1587646 1614800 1638608 1680924 1694814
3883.96 1712370 1748386 2008972 2133662 1903672 1772332
3886.85 1814374 1846460 1872276 1919590 1944500 1944978
3889.74 1973888 2067922 2262064 2215394 2044366 2027666
3892.63 2073190 2110934 2150132 2170166 2149678 2118122
3895.53 2109906 2126206 2138876 2179112 2224568 2246196
3898.42 2381898 2484952 2376788 2323712 2331618 2435962
3901.31 2622732 2584750 2478690 2434350 2555664 2769258
3904.21 2665094 2562884 2542816 2560876 2526366 2536782
3907.10 2565680 2592136 2612078 2612300 2667348 2684440
3909.99 2664556 2700756 2766010 2780870 2789352 2825758
3912.88 2860818 2872234 2870192 2898172 2939300 3004314
3915.78 3066984 3086354 3115770 3035610 2980300 3008402
3918.67 3018064 3069086 3131360 3133732 3094882 3055394
3921.56 3039114 3043538 3095954 3139388 3161230 3187742
3924.45 3230160 3195468 3137332 3127076 3107688 3127008
3927.35 3103384 3057106 3067214 3076466 3014922 2947492
3930.24 2867400 2854134 2901008 2900186 2841250 2780196
3933.13 2751138 2737482 2756170 2763658 2712676 2627918
3936.03 2582792 2630236 2629558 2525964 2441336 2416210
3938.92 2401720 2359310 2356602 2330748 2284476 2224640
3941.81 2220922 2272516 2201482 2132004 2100310 2068232
3944.70 2046052 2058364 2080558 2083124 2070040 2051480
3947.60 2063540 2050654 2042950 1989104 1955614 2010828
3950.49 2004674 2009022 2033184 2048216 2070578 2063586
3953.38 2075922 2064080 2042748 2060184 2095570 2102132
3956.27 2121464 2160854 2183186 2197106 2176664 2192960
3959.17 2189556 2174900 2183274 2228372 2256968 2251278
3962.06 2237992 2239540 2264390 2286598 2274490 2266616
3964.95 2260600 2276202 2300312 2329984 2352716 2376788
3967.85 2393094 2375712 2409998 2437636 2442944 2458556
3970.74 2479102 2471930 2470078 2487450 2481264 2496902
3973.63 2539676 2522308 2559096
##END=
