##TITLE=Methyl tert-Butyl Ether
##JCAMP-DX=4.24
##DATA TYPE=INFRARED SPECTRUM
##CLASS=IUPAC A
##ORIGIN=NIST, Anayltical Chemistry Division, 301-975-3108
##OWNER=COPYRIGHT (C) 1998 by the U.S. Secretary of Commerce
##DATE=98/10/1
##$SPECTRA VERSION=1.00
##$UNCERTAINTY IN Y=2.1 % relative (B=1.1E-04,C=7.8E-10,D=2.7E-14)
##CAS NAME=tert-Butyl Methyl Ether
##CAS REGISTRY NO=1634-04-4
##MOLFORM=( C H3)3 C O C H3
##MP=-109 C
##BP=55.2 C
##$NIST SOURCE=QUANT-IR
##SPECTROMETER/DATA SYSTEM=IFS66V (Bruker)
##INSTRUMENT PARAMETERS=KBr Beam splitter; MCT Detector; Multipass cell
##STATE=gas
##SAMPLE DESCRIPTION=MTBE Primary Gas Standard
##PRESSURE=101.3 kPa
##TEMPERATURE=23 C
##SAMPLING PROCEDURE=1 L/min Flow
##RESOLUTION=1.9290
##DATA PROCESSING=3-Term B-H Apodization
##XUNITS=cm-1
##YUNITS=(micromol/mol)-1m-1 (base 10)
##XFACTOR=1.0
##YFACTOR=9.0949E-13
##DELTAX=0.9645
##FIRSTX=574.687
##LASTX=3974.595
##FIRSTY=0
##MAXX=3973.63
##MINX=574.69
##MAXY=.0011516
##MINY=-2.61E-07
##NPOINTS=3527
##XYDATA=(X++(Y..Y))
574.69-21396-27666 17368 43986-32358-108808
579.51-187672-241112-274772-223430-115396-145856
585.29-255848-287444-213136-62052 36292 35448
591.08-18158-31834 67168 121176 57226 29462
596.86 32016-43868-88282-9060 59130 71680
602.65 77794 64542 42858 30420 15890 21756
608.44 90588 121740 80010 72276 81516 86600
614.22 66220 30726 37572 61942 69294 65404
620.01 63694 73078 85214 86356 82940 75916
625.79 94228 124138 114768 111752 124208 117070
631.58 105168 100090 93588 79298 66304 63980
637.36 85458 124978 144860 122670 82186 87778
643.15 109616 108868 122960 116462 79858 76434
648.93 90308 91702 104432 131724 138032 122694
654.72 100796 95180 112724 138942 147140 123836
660.50 116798 139942 146290 132352 129882 84974
666.29-23168-9736 109806 168948 198812 233244
672.08 285324 351450 371270 386626 433780 445658
677.86 441168 457844 482726 516454 547524 547952
683.65 523800 541528 600890 622772 641106 674946
689.43 702544 732952 774300 838466 930890 1058598
695.22 1222190 1410744 1618986 1899876 2281522 2761978
701.00 3364258 4099782 4994104 6061060 7291650 8687476
706.79 10278730 12086080 14050470 16088980 18146020 20147780
712.57 22016870 23661260 24993390 25975250 26635240 27071930
718.36 27495530 28371500 30455260 34582110 41243700 48985180
724.14 52741780 48391440 39529340 32413790 28689440 27387730
729.93 27582140 28474020 29322190 29601750 29060380 27693560
735.71 25646980 23138060 20380600 17552930 14842310 12372390
741.50 10164480 8279802 6722974 5430512 4384140 3581286
747.29 2988914 2531538 2155962 1877778 1679770 1540906
753.07 1441960 1355780 1289080 1250532 1240010 1252264
758.86 1249286 1235526 1235040 1253406 1268952 1262072
764.64 1232960 1212726 1224362 1244952 1269460 1288538
770.43 1297238 1292660 1271782 1266346 1260422 1245706
776.21 1244448 1235064 1192598 1153396 1152904 1168716
782.00 1166002 1142100 1117176 1109308 1119838 1129402
787.78 1122174 1111750 1104862 1125800 1159060 1152542
793.57 1130018 1126244 1127040 1154066 1194058 1206438
799.35 1212058 1233222 1271522 1310176 1348188 1385476
805.14 1421336 1465600 1495962 1524772 1568812 1626892
810.93 1693084 1751396 1790314 1831154 1904120 1989382
816.71 2077638 2197640 2344108 2521280 2759180 3049052
822.50 3394958 3815246 4330540 4989784 5802872 6767698
828.28 7959232 9440276 11228720 13383840 15975170 19036430
834.07 22559900 26596780 31216210 36392950 42043630 48039010
839.85 54218420 60459620 66610300 72380540 77490680 81811700
845.64 85339090 88182210 90603820 93329020 97715830 105225600
851.42 116690400 131694900 148111300 160410500 158832500 139468600
857.21 114433100 97730600 90768100 89616980 91490070 94019530
862.99 95235500 93996330 89914470 83329130 75024470 65755840
868.78 56171480 46874800 38330150 30810430 24409450 19104180
874.57 14817050 11445780 8836874 6841352 5337760 4211198
880.35 3360574 2743092 2310416 2001650 1770386 1606030
886.14 1489746 1399074 1337862 1317698 1313914 1309162
891.92 1299136 1305712 1320038 1324720 1322682 1310400
897.71 1298852 1313006 1365232 1445744 1537172 1647034
903.49 1763244 1861904 1887414 1818360 1694810 1566912
909.28 1468942 1432064 1437818 1449118 1466518 1497198
915.06 1520416 1529918 1531118 1524170 1499920 1454710
920.85 1401794 1363778 1328626 1290048 1257350 1236284
926.63 1216776 1200412 1192868 1189672 1176536 1163438
932.42 1161064 1155796 1139466 1127292 1115284 1111294
938.21 1116982 1114832 1108730 1122010 1154420 1179868
943.99 1186816 1192058 1187208 1180888 1182020 1183952
949.78 1189246 1207730 1220710 1226016 1242118 1270776
955.56 1287808 1295608 1305022 1329860 1366116 1396284
961.35 1420914 1455414 1493978 1531114 1579792 1649462
967.13 1707194 1743136 1791834 1876030 1963332 2033602
972.92 2107638 2200042 2302992 2406650 2491742 2575870
978.70 2685948 2818212 2934796 3024812 3107340 3207574
984.49 3328404 3450426 3572248 3705796 3852376 4018366
990.27 4201016 4398846 4613994 4854560 5136988 5491160
996.06 5913428 6395528 6957114 7630176 8410438 9293050
1001.85 10312180 11500440 12840040 14326920 16001540 17889320
1007.63 19948370 22134340 24403320 26679400 28915910 31075740
1013.42 33079350 34850210 36307270 37344170 37820870 37699420
1019.20 37398110 37826280 39846770 43810110 46930210 44421770
1024.99 38226930 33973600 32562960 32478000 32668150 32596730
1030.77 31984210 30730100 28889170 26634220 24128080 21528520
1036.56 18975510 16596920 14477140 12674530 11203740 10065060
1042.34 9221606 8626514 8217462 7975190 7872594 7900494
1048.13 8034804 8289734 8656730 9106232 9628014 10247400
1053.91 10949360 11747660 12668720 13732160 14971000 16457880
1059.70 18244300 20413380 22930810 25775730 29028710 32811340
1065.48 37304960 42806190 49319730 56796550 65569970 75929670
1071.27 87975580 101869200 117719500 135787300 156551200 180201700
1077.06 205854600 232926100 261711800 292223400 323530000 353531400
1082.84 381892700 410055200 438035300 464999300 490971500 515644300
1088.63 534403500 546806700 558034400 570745300 587625200 609692400
1094.41 634102100 654380600 658927400 642930300 614046800 579071000
1100.20 543469100 517643600 504460200 491611300 471714000 446918700
1105.98 416458800 379575000 338333800 294717000 250639400 208949100
1111.77 171869900 140136900 113980300 92976160 76315020 63447240
1117.55 53721420 46347400 40711690 36271980 32736650 29957650
1123.34 27752700 25969100 24493940 23265720 22256060 21398270
1129.12 20661300 20063360 19629340 19344920 19193140 19104810
1134.91 19023780 19013350 19128410 19358190 19682050 20062990
1140.70 20497430 20986560 21471050 21905400 22308460 22707390
1146.48 23155300 23695450 24294200 24960240 25818260 26919740
1152.27 28187910 29533320 30766850 31560950 31825470 31862250
1158.05 31967140 32249780 32718250 33315910 33992010 34797720
1163.84 35717080 36615820 37479640 38354380 39130790 39714040
1169.62 40299200 41119720 42239850 43633140 45200990 46978750
1175.41 49108300 51644490 54553170 57703770 60883040 63955490
1181.19 66984600 70346790 74587860 80206270 87540340 96746820
1186.98 107848500 120861700 135824200 152806900 171843200 192945100
1192.76 215882700 239931100 264048100 287706200 311096200 334031000
1198.55 355643600 375335700 393058500 409236600 424988300 442880600
1204.34 466721100 500187600 545093200 597232300 642801200 653406700
1210.12 606645300 537887600 504337400 508662500 526148500 544980900
1215.91 559604000 565272200 559190500 537275600 499081600 452903000
1221.69 404580500 356712700 313730300 278070300 249768500 227807700
1227.48 210811600 197939600 188694500 182536900 179144400 178191800
1233.26 178831800 179017700 176811200 172169200 165782000 157943200
1239.05 149287400 141068000 134434900 129731500 126414300 123745300
1244.83 121764700 120576900 119922900 119650100 119476900 119071900
1250.62 118584300 118172500 117667400 116749900 115247900 113249800
1256.40 110889600 108377200 106087400 104441800 103835000 104388000
1262.19 105760400 107155700 107445600 105418000 100379900 92593680
1267.98 83456740 75172820 68851650 64058470 60098450 56539130
1273.76 53225520 50015830 46732920 43102440 39156780 35355490
1279.55 31942500 28868030 26040220 23444020 21107550 18969470
1285.33 16998430 15236580 13692470 12329080 11134170 10103040
1291.12 9210294 8433196 7760156 7171792 6659602 6201374
1296.90 5786782 5418642 5097876 4823670 4593664 4394302
1302.69 4215122 4048244 3898452 3771790 3671142 3585212
1308.47 3510714 3443212 3382448 3332366 3287842 3245096
1314.26 3208216 3161516 3111900 3072936 3041870 3020932
1320.04 3010316 2998854 2999102 3018866 3044064 3060176
1325.83 3069940 3087232 3133694 3207498 3298354 3415032
1331.61 3570302 3771018 4033698 4377336 4822802 5396476
1337.40 6133486 7071948 8255254 9754466 11676670 14129270
1343.19 17228850 21120250 25959030 31903440 39089860 47636680
1348.97 57636270 69121150 82000560 96066520 111016800 126384900
1354.76 141485600 155501800 167596800 177081000 183610100 187619900
1360.54 190875400 196883300 210967300 238783100 280698200 326969000
1366.33 363982900 379862600 366908800 331718100 287606800 246973600
1372.11 222799100 216945100 221528300 229178700 235235100 237028000
1377.90 233543100 224885800 211810800 195355800 176700400 156964200
1383.68 137421600 119902900 107487800 104641200 115351700 137315000
1389.47 150020900 128985800 88371590 61294300 54054140 56838170
1395.25 62801840 68580570 72321560 73055760 70576660 65383280
1401.04 58308560 50259980 42119650 34552500 27923270 22446720
1406.83 18175790 14998280 12701840 11087650 9997478 9293534
1412.61 8874306 8673128 8628576 8689942 8837610 9102050
1418.40 9380074 9496236 9588426 9787314 10023440 10249610
1424.18 10461250 10679720 10905530 11137390 11396130 11680300
1429.97 11959090 12240260 12536850 12879620 13342040 14000780
1435.75 14735720 15374620 16133320 17156960 18196020 19207570
1441.54 20497200 22169640 24091680 26171650 28373000 30644390
1447.32 32893550 35110770 37367510 39655700 41953720 44287620
1453.11 46691390 49230620 52076560 55275000 58961200 63560230
1458.89 69131800 75283620 81377590 86616340 90427020 92672030
1464.68 93544670 93560150 93350460 93484330 94492150 96816680
1470.47 100391800 104180700 106833600 107548900 106409700 104540400
1476.25 102434500 99624210 96491180 93599750 90979010 88631780
1482.04 86622270 84993070 83673060 82267880 79524020 73950310
1487.82 66251020 58911410 53217920 48952000 45613280 42799610
1493.61 40230190 37749740 35102000 32216100 29321240 26437840
1499.39 23598180 20943890 18501710 16299810 14440040 12957200
1505.18 11667820 10403970 9202454 8234578 7506400 6936010
1510.96 6507518 6133710 5809260 5585970 5437756 5334948
1516.75 5193532 5027588 5000652 5102184 5087034 4900730
1522.53 4732492 4691456 4709068 4664350 4614388 4587102
1528.32 4557742 4560038 4597924 4667474 4769904 4799382
1534.11 4742196 4720690 4781342 5000102 5297506 5374724
1539.89 5278574 5226554 5140390 5043034 5050616 5037628
1545.68 4988614 5003404 5059438 5110178 5131570 5128662
1551.46 5163776 5292738 5410046 5392854 5443870 5739692
1557.25 6083600 6269852 6311092 6206916 6161772 6299982
1563.03 6517718 6742336 6937386 7128274 7347036 7604826
1568.82 7791496 7820414 7824640 7874578 7953366 8158268
1574.60 8557404 8848300 8916200 9012826 9042240 8728348
1580.39 8049936 7351570 6956352 6839434 6838686 6848330
1586.17 6801572 6651212 6380946 5993508 5498620 4936808
1591.96 4378922 3876700 3432398 3048898 2740238 2499138
1597.74 2315648 2180048 2078642 2002180 1951312 1914592
1603.53 1883052 1860864 1842158 1826140 1824334 1832628
1609.32 1839486 1862634 1901122 1934584 1975574 2102506
1615.10 2358284 2448398 2282688 2195978 2230082 2281496
1620.89 2352498 2469596 2551966 2538898 2550322 2645900
1626.67 2759232 2818756 2825982 2808366 2768088 2719742
1632.46 2711608 2830860 2961522 2867558 2702888 2624918
1638.24 2576258 2549292 2529160 2496348 2437970 2393582
1644.03 2439744 2482354 2368688 2203198 2060868 1948992
1649.81 1973842 2261766 2550462 2410020 2021360 1743958
1655.60 1622598 1577458 1542986 1511096 1484230 1494290
1661.38 1540672 1517706 1429028 1383082 1378596 1398882
1667.17 1478452 1571066 1554700 1499180 1468148 1442842
1672.96 1510656 1660096 1675370 1573356 1542320 1584566
1678.74 1653448 1711564 1783822 1957708 2262468 2542404
1684.53 2506206 2344086 2378824 2521188 2676038 2838810
1690.31 3009050 3192174 3393242 3685102 4146618 4439660
1696.10 4385508 4407642 4718644 5094334 5153372 4998578
1701.88 4987360 5123210 5278812 5426002 5548262 5601560
1707.67 5586520 5454628 5157018 4773780 4493328 4427672
1713.45 4493912 4532642 4576174 4605884 4360942 3912576
1719.24 3497354 3143594 2821484 2525402 2247978 2006316
1725.02 1829300 1703416 1609734 1561008 1540266 1506792
1730.81 1518826 1665070 1833506 1789132 1569844 1438804
1736.60 1437060 1492932 1569798 1548882 1471556 1464922
1742.38 1490452 1484788 1465714 1466606 1489334 1519256
1748.17 1527996 1547246 1585432 1516754 1400744 1353818
1753.95 1346196 1379444 1408070 1369494 1320444 1297202
1759.74 1314818 1345094 1290112 1197340 1144460 1117586
1765.52 1121408 1161816 1162304 1109408 1122086 1218714
1771.31 1305182 1248312 1110030 1049120 1018908 977724
1777.09 955290 959364 978688 988998 983980 992048
1782.88 1032116 1078114 1089590 1100506 1138802 1193546
1788.66 1270876 1378244 1518704 1646248 1677384 1696250
1794.45 1786128 1906554 2046578 2221896 2418708 2593152
1800.24 2755082 2920262 3067160 3207922 3363276 3530818
1806.02 3700296 3862318 4023558 4201846 4373038 4504870
1811.81 4610978 4693260 4733210 4746688 4768948 4797612
1817.59 4812586 4823138 4836728 4827588 4774700 4682792
1823.38 4548900 4338264 4080054 3876740 3749390 3656222
1829.16 3519448 3295604 3059032 2842954 2614392 2373746
1834.95 2139368 1925784 1739958 1588090 1463672 1359528
1840.73 1282214 1258878 1303884 1289526 1179444 1109138
1846.52 1090860 1074832 1053940 1039658 1027326 1010872
1852.30 992462 976264 965734 966398 970206 971856
1858.09 973582 969430 965850 974520 989014 1001628
1863.88 1011762 1026508 1055018 1090574 1124486 1125622
1869.66 1090992 1067322 1061646 1066972 1076704 1088572
1875.45 1108762 1142122 1179214 1194978 1171172 1131494
1881.23 1114172 1131026 1166066 1196946 1215464 1233410
1887.02 1257252 1276994 1269078 1243994 1232122 1236064
1892.80 1257376 1291854 1311234 1304628 1288740 1280800
1898.59 1289264 1306840 1329296 1355758 1391492 1440574
1904.37 1495736 1548734 1578192 1587170 1604974 1640982
1910.16 1691450 1760496 1851444 1952476 2061500 2195268
1915.94 2358060 2529196 2674862 2822978 3007870 3225512
1921.73 3461474 3695024 3929582 4183370 4460720 4757854
1927.51 5072136 5404970 5763050 6146750 6539152 6887760
1933.30 7138544 7334482 7561204 7837144 8125448 8403402
1939.09 8673638 8927064 9134324 9256190 9288102 9247630
1944.87 9152876 9051322 8970084 8906196 8842314 8736140
1950.66 8544054 8278904 7928244 7467490 7007172 6641036
1956.44 6326102 5989536 5601738 5174628 4712886 4226294
1962.23 3730686 3240628 2775590 2363172 2016728 1734422
1968.01 1506010 1318608 1166988 1046256 953882 887392
1973.80 840206 808460 778890 742208 710434 696810
1979.58 690230 674260 653988 641070 631602 624942
1985.37 622078 624640 627632 625408 625424 635602
1991.15 641476 626264 606230 601348 607694 608386
1996.94 601662 607522 618354 621874 624622 623222
2002.73 618662 617918 620952 624524 628212 636588
2008.51 648786 656680 654476 656874 668242 676360
2014.30 682430 695018 708376 712918 714368 731132
2020.08 764430 794604 812154 830028 857822 885888
2025.87 905086 931172 962402 991294 1039644 1106054
2031.65 1171192 1242404 1329870 1428474 1533906 1639178
2037.44 1737660 1850172 1987656 2141790 2304606 2479612
2043.22 2667778 2851348 3023926 3198518 3372944 3554466
2049.01 3743308 3911060 4053166 4191974 4332246 4473794
2054.79 4623340 4784150 4947024 5095010 5215118 5274740
2060.58 5210526 4986626 4687004 4472230 4393692 4394474
2066.37 4410968 4388304 4271714 4057538 3786620 3486150
2072.15 3166390 2849964 2584388 2395354 2268666 2170988
2077.94 2095124 2066078 2085568 2122626 2137912 2147884
2083.72 2187062 2262790 2340040 2418408 2552030 2745758
2089.51 2925798 2997302 2964612 2891452 2810244 2701642
2095.29 2589496 2554792 2614678 2690648 2708960 2725256
2101.08 2782062 2823978 2772866 2679808 2641338 2646658
2106.86 2600292 2506434 2477376 2538494 2595598 2571524
2112.65 2528766 2518110 2489332 2391418 2311886 2350168
2118.43 2440224 2428734 2345922 2315322 2315416 2223878
2124.22 2064356 1972492 1951442 1897764 1792668 1718886
2130.01 1683572 1622022 1525196 1462828 1445780 1420252
2135.79 1368392 1337282 1340406 1349990 1353760 1371028
2141.58 1411246 1466706 1535750 1636484 1762364 1880170
2147.36 1986376 2115468 2281464 2457642 2635488 2859810
2153.15 3142598 3424268 3693410 4022400 4401736 4745164
2158.93 5081508 5515352 5994828 6404814 6804842 7289180
2164.72 7765452 8155300 8567394 9053556 9474062 9784776
2170.50 10113820 10468980 10709620 10914670 11256110 11599800
2176.29 11751720 11801360 11849540 11775310 11547210 11277730
2182.07 10879480 10331330 9870064 9565202 9227448 8761012
2187.86 8225884 7622674 6913020 6165572 5456226 4764382
2193.64 4113662 3604748 3214458 2842858 2516652 2275958
2199.43 2050554 1835412 1677146 1540932 1404780 1310160
2205.22 1249032 1181544 1132042 1117494 1091764 1062526
2211.00 1064182 1071186 1072050 1091520 1118660 1142340
2216.79 1173434 1217282 1263940 1307112 1333532 1329322
2222.57 1316428 1327894 1348716 1338908 1288990 1239656
2228.36 1227914 1249284 1280820 1298388 1293048 1271210
2234.14 1234786 1192556 1150754 1107588 1063930 1031406
2239.93 1017824 1024886 1044666 1064390 1084926 1106560
2245.71 1112220 1110708 1127394 1156244 1189992 1243202
2251.50 1306550 1365948 1431562 1503646 1564398 1616888
2257.28 1665320 1720268 1786408 1847202 1900198 1968022
2263.07 2057312 2172916 2317436 2460734 2569732 2634426
2268.86 2638872 2596340 2563552 2581548 2645790 2737120
2274.64 2818518 2860556 2860940 2834558 2800638 2774824
2280.43 2757464 2744578 2727022 2689830 2628964 2554978
2286.21 2471468 2389764 2325590 2278510 2237924 2207052
2292.00 2186964 2167510 2132446 2073456 1996274 1918272
2297.78 1849252 1790362 1742038 1705528 1669136 1625248
2303.57 1572808 1513566 1442430 1371952 1305550 1244844
2309.35 1201916 1174528 1141642 1104688 1072084 1025754
2315.14 971872 918034 876570 840824 801968 759438
2320.92 721896 692350 673702 659126 650536 633796
2326.71 612476 608576 618700 629048 645542 666816
2332.50 691932 727352 762136 797114 843438 892970
2338.28 943002 1007140 1093818 1189294 1272786 1351064
2344.07 1436760 1533332 1645810 1761366 1851910 1908166
2349.85 1937256 1949206 1962436 1990372 2018596 2033818
2355.64 2037450 2047362 2070074 2100114 2130892 2151906
2361.42 2160002 2155202 2137922 2126526 2128822 2136446
2367.21 2140362 2147890 2154902 2145040 2124042 2102798
2372.99 2072964 2043158 2016996 1981928 1946166 1929284
2378.78 1912538 1881524 1853082 1840038 1835374 1832196
2384.56 1832016 1829072 1805622 1763226 1712698 1663090
2390.35 1617210 1574860 1536606 1509252 1484240 1457494
2396.14 1435650 1420876 1407808 1392908 1376016 1360878
2401.92 1348518 1341818 1343190 1354640 1364462 1363576
2407.71 1367142 1382850 1401280 1421952 1436680 1449132
2413.49 1457874 1456048 1457516 1471492 1463472 1427230
2419.28 1393654 1377944 1362600 1342842 1323956 1295944
2425.06 1248416 1188154 1115624 1031812 952646 876416
2430.85 801634 743660 691316 644900 611088 588244
2436.63 564814 543384 533594 525180 508394 488876
2442.42 469768 457430 450628 446146 446526 449558
2448.20 448454 444184 442000 452786 469370 485594
2453.99 506814 534742 557146 578990 604000 626998
2459.77 647348 666950 684978 707928 729150 745198
2465.56 767394 791416 804572 824386 849914 863388
2471.35 871280 887048 908382 934722 946390 934208
2477.13 918718 913140 903518 893606 889454 886314
2482.92 872722 848150 817722 789960 771114 764768
2488.70 755730 725412 684958 660904 647786 630092
2494.49 607692 590416 574514 566824 560322 547098
2500.27 534302 524268 510850 490126 467494 456598
2506.06 449418 447388 444498 429136 411612 407118
2511.84 401882 383696 369502 375600 381054 381364
2517.63 391354 402948 406552 406270 402210 403374
2523.41 407096 413188 420454 432872 452296 459798
2529.20 460562 479418 497036 501838 515400 543170
2534.99 579052 617738 657812 699156 725174 752110
2540.77 791594 831816 864662 900434 939934 975548
2546.56 1011898 1046474 1069766 1096474 1132198 1167496
2552.34 1206318 1256970 1306274 1353132 1403760 1460794
2558.13 1517324 1569382 1621978 1690146 1762540 1826132
2563.91 1892876 1972300 2055088 2145344 2238698 2329592
2569.70 2426174 2517980 2594228 2677362 2769352 2864498
2575.48 2964490 3081588 3207778 3324900 3421712 3523050
2581.27 3659160 3828266 3997130 4134222 4231856 4290770
2587.05 4305790 4293806 4267374 4239906 4237208 4277638
2592.84 4346516 4424456 4493628 4555876 4619792 4671986
2598.63 4694384 4703540 4716594 4738204 4764212 4794534
2604.41 4827104 4871732 4925134 4976570 5017760 5057586
2610.20 5098346 5130828 5165378 5212874 5260172 5303138
2615.98 5350108 5403740 5444206 5450806 5436148 5439818
2621.77 5456982 5466698 5450586 5405334 5337164 5256700
2627.55 5174524 5099320 5026606 4970404 4929422 4898780
2633.34 4872390 4830556 4766562 4697130 4642146 4615586
2639.12 4615682 4633358 4641134 4642298 4632304 4599552
2644.91 4552482 4498218 4432880 4374494 4344908 4347482
2650.69 4352120 4345448 4334536 4326648 4304912 4258356
2656.48 4198834 4146082 4113694 4101344 4081614 4050772
2662.27 4014816 3969426 3915256 3855924 3787442 3726626
2668.05 3686510 3656946 3622956 3594212 3572910 3554062
2673.84 3520810 3491024 3477722 3461078 3434552 3406206
2679.62 3376904 3347744 3324780 3306920 3288290 3278024
2685.41 3253976 3223654 3210564 3208650 3192582 3167882
2691.19 3158066 3166548 3171578 3176512 3181888 3183018
2696.98 3193632 3227574 3270860 3323452 3385514 3459534
2702.76 3544946 3645974 3760316 3880596 3994516 4109602
2708.55 4238382 4388594 4555892 4729312 4917482 5143358
2714.33 5399690 5671278 5924132 6144768 6341672 6525338
2720.12 6687562 6825146 6938108 7066972 7243092 7438482
2725.91 7587994 7656190 7670672 7672714 7679288 7703512
2731.69 7721512 7719114 7709306 7712996 7724054 7719340
2737.48 7669162 7571456 7457714 7351060 7242028 7133198
2743.26 7033264 6963116 6927274 6898824 6853082 6778882
2749.05 6660934 6500084 6319416 6176142 6096114 6055138
2754.83 6022796 6012166 6031030 6069492 6102130 6122780
2760.62 6136174 6150460 6163358 6162554 6152530 6158294
2766.40 6179202 6228222 6292422 6361856 6440732 6532988
2772.19 6639736 6738520 6805248 6847124 6875220 6916374
2777.97 6980206 7081566 7223948 7421656 7666194 7931826
2783.76 8188212 8424320 8652938 8898144 9166196 9453350
2789.54 9749812 10070420 10423060 10809690 11215760 11646210
2795.33 12126710 12679030 13303290 13990370 14752240 15632550
2801.12 16632010 17749400 18970750 20311430 21834180 23679650
2806.90 26008150 28913120 32388980 36366500 40788780 45749310
2812.69 51378480 57707190 64629000 71978220 79539690 87022300
2818.47 94163980 100869100 107248400 113693800 121019100 130797700
2824.26 144563000 160082600 169879500 168857600 160424100 152124300
2830.04 149184500 153690700 165986800 183211800 197909700 201309700
2835.83 190537200 171794100 153844500 141329100 134508900 131555100
2841.61 130310500 128961500 126197400 121433400 114721100 106513800
2847.40 97495140 88356980 79611520 71680320 64863560 59292550
2853.18 54973600 51856710 49805320 48656720 48300960 48649250
2858.97 49566480 50965910 52753750 54854710 57229090 59885230
2864.76 62820530 66034820 69547320 73376680 77534320 82049500
2870.54 86858220 91893460 97160390 102624400 108156700 113643100
2876.33 119013100 124331800 129643000 134915100 140114000 145241300
2882.11 150254200 155170100 160151300 165375100 170973800 177096600
2887.90 183862100 191391700 199566000 207844700 215595100 222596800
2893.68 228869500 234699700 240504700 246335200 252040000 257597600
2899.47 262958800 268072800 272925900 277686800 282520100 287226000
2905.25 291111000 293589300 294800800 295491300 296645000 299086900
2911.04 302956700 307833100 313093600 317893400 321229500 322373500
2916.82 321266300 318346000 314118300 309434500 305345600 302652500
2922.61 301581200 301739500 302282500 302505500 302216400 301668100
2928.40 301330300 301615300 302642500 304414100 306734400 309333400
2934.18 312088900 314970700 317873900 320773700 323625800 326516800
2939.97 329549000 332601600 335352400 337515900 339195700 340827300
2945.75 342720900 344914300 346832900 347537500 346195100 342619000
2951.54 337326800 331396400 326055600 322433900 321212900 322665800
2957.32 326827400 333848400 344031000 358041200 376415500 399150800
2963.11 425855200 455677400 487594100 521733900 558607300 598026800
2968.89 639412600 682377200 727160100 774923500 827467000 889896300
2974.68 963896700 1021517000 1017822000 973359900 964493200 1002912000
2980.46 1032080000 1046052000 1097726000 1189554000 1262173000 1266300000
2986.25 1185301000 1050070000 921813400 830110900 770803300 731364400
2992.04 700006700 668221800 631375500 588130800 539381200 486999500
2997.82 433100500 379646100 328526600 281088200 238284600 200658100
3003.61 168343800 141053900 118408400 99848740 84781300 72652170
3009.39 62971990 55223220 49046520 44115700 40163540 36933580
3015.18 34261530 32010190 30102410 28444300 27000460 25715930
3020.96 24578860 23558270 22643600 21808540 21031220 20273900
3026.75 19584690 18956930 18377850 17827210 17312460 16831500
3032.53 16404300 16009850 15636700 15259570 14899120 14562730
3038.32 14257080 13973190 13716180 13440810 13177150 12939220
3044.10 12708840 12488610 12298500 12115570 11955740 11807670
3049.89 11670590 11556600 11448320 11314390 11206150 11119570
3055.67 11045950 10980720 10916180 10850600 10808480 10770810
3061.46 10748940 10743180 10731530 10706370 10693850 10666450
3067.25 10611180 10548090 10507160 10462410 10398160 10324950
3073.03 10261320 10193320 10119010 10028970 9928782 9811580
3078.82 9682134 9547762 9416474 9268848 9117242 8962872
3084.60 8799216 8633500 8479600 8309700 8136512 7969862
3090.39 7818094 7675238 7527790 7375362 7240690 7114240
3096.17 6980308 6824852 6685160 6573086 6472364 6374372
3101.96 6292050 6214484 6124120 6025286 5956910 5913688
3107.74 5876844 5828298 5762958 5690332 5644028 5630864
3113.53 5640066 5624538 5586210 5561262 5559616 5558886
3119.31 5552228 5550238 5552650 5539908 5544044 5561146
3125.10 5577592 5616456 5675378 5712400 5739292 5772060
3130.89 5816874 5872948 5927264 5973396 6045140 6130378
3136.67 6211656 6292324 6368968 6436164 6509234 6589954
3142.46 6663196 6719170 6777540 6822792 6847462 6868832
3148.24 6901204 6936604 6958226 6951170 6915942 6872802
3154.03 6860968 6861748 6844460 6803344 6767114 6722528
3159.81 6656208 6596182 6543854 6487522 6434536 6372900
3165.60 6323654 6295806 6279034 6252262 6232402 6234990
3171.38 6240140 6224418 6213766 6219894 6227020 6228322
3177.17 6253422 6291692 6322058 6341298 6354764 6371868
3182.95 6405008 6445354 6477532 6495586 6515020 6530466
3188.74 6542230 6564322 6598044 6614886 6609156 6611324
3194.53 6640390 6655308 6642102 6610878 6582878 6575382
3200.31 6576514 6567758 6554134 6536032 6514522 6498230
3206.10 6491806 6491434 6503348 6513812 6506654 6497576
3211.88 6519882 6549392 6578288 6633168 6703144 6757606
3217.67 6812426 6883412 6967326 7052484 7130370 7203442
3223.45 7293518 7394446 7492948 7560678 7595164 7627574
3229.24 7659034 7681792 7701856 7723384 7741704 7716480
3235.02 7661668 7613948 7568626 7510876 7438150 7340248
3240.81 7221020 7081282 6933382 6790160 6645550 6487788
3246.59 6318672 6130662 5924174 5713690 5514702 5316038
3252.38 5119210 4937148 4750306 4526668 4304332 4110288
3258.17 3933108 3770020 3608194 3432260 3266756 3121284
3263.95 2986414 2842524 2710344 2600704 2483628 2356438
3269.74 2242524 2137864 2048800 1980102 1920888 1860362
3275.52 1796542 1730488 1679422 1641316 1601952 1551534
3281.31 1499668 1462842 1442904 1431538 1413898 1367542
3287.09 1316544 1278202 1255372 1255072 1260898 1258632
3292.88 1252870 1246828 1244440 1252830 1267702 1280008
3298.66 1300068 1334524 1380952 1439958 1506702 1561284
3304.45 1601060 1645518 1704088 1763660 1831244 1898420
3310.23 1944872 1987136 2054020 2142744 2230624 2303500
3316.02 2371940 2420912 2456588 2474096 2466042 2458208
3321.80 2436034 2397100 2379838 2389330 2409310 2434698
3327.59 2472690 2490474 2453984 2390946 2346758 2312810
3333.38 2271400 2222700 2175242 2135428 2110264 2098050
3339.16 2082282 2040628 1991694 1988822 2034214 2058186
3344.95 2046606 2025902 1985770 1907878 1829640 1773990
3350.73 1730706 1710086 1687890 1644770 1613670 1577594
3356.52 1520392 1462948 1422652 1404278 1383700 1344776
3362.30 1308372 1275010 1244360 1211944 1189180 1185346
3368.09 1191240 1217170 1261460 1301048 1324644 1339168
3373.87 1382602 1446640 1509720 1582770 1652660 1709690
3379.66 1779800 1859214 1946954 2040860 2144086 2256470
3385.44 2341072 2373172 2374800 2371806 2370282 2361080
3391.23 2338434 2306916 2290986 2295564 2297432 2254952
3397.02 2166770 2074666 2011582 1951834 1871172 1799176
3402.80 1738506 1650006 1572836 1527500 1482362 1426172
3408.59 1348136 1262438 1195002 1144650 1110822 1081154
3414.37 1058068 1058248 1078718 1093850 1105598 1113122
3420.16 1121296 1154218 1196548 1227400 1260430 1294830
3425.94 1332264 1377222 1434534 1501984 1559990 1588470
3431.73 1601322 1599728 1606684 1640914 1675698 1702734
3437.51 1713080 1700490 1697420 1691428 1663328 1635556
3443.30 1592234 1538462 1505748 1464240 1399394 1329858
3449.08 1264118 1198882 1152604 1128052 1101326 1054684
3454.87 997756 939640 892574 863864 833936 810390
3460.66 815936 831520 836518 823816 803926 789528
3466.44 799738 826594 858214 893550 914680 929342
3472.23 959496 991862 1013288 1052486 1122096 1191132
3478.01 1231512 1242118 1241408 1244498 1243816 1226552
3483.80 1210918 1190270 1158390 1138016 1124910 1089812
3489.58 1050496 1029144 1017702 995384 943862 883164
3495.37 831196 776806 730064 689426 649258 604586
3501.15 555960 507980 475260 452420 407692 356654
3506.94 335002 323916 305718 283104 264288 243128
3512.72 210520 173972 163912 182872 183618 162402
3518.51 148482 138152 139516 149502 161280 151916
3524.30 116654 97470 102776 108890 110950 107498
3530.08 103014 82134 67040 75642 90370 105662
3535.87 113220 113478 114146 104140 95060 92414
3541.65 84206 83456 98088 108802 128776 134908
3547.44 106462 83756 94804 117134 108476 83820
3553.22 82142 88298 89190 93264 98096 92064
3559.01 77484 74032 76264 75426 83712 104726
3564.79 138794 161666 160694 128966 76786 46586
3570.58 45224 41856 40748 55264 64292 54632
3576.36 54246 82104 92750 67210 51388 51556
3582.15 48740 62822 106660 145954 155590 168874
3587.94 171404 119264 75786 81000 96300 91472
3593.72 93044 94850 75986 73656 92946 111008
3599.51 128726 131348 115124 97218 82394 98190
3605.29 151514 180926 203688 241614 200820 155802
3611.08 198632 222056 203868 182026 156722 158698
3616.86 183010 229878 249870 184162 127690 110350
3622.65 99758 97986 108834 142096 237032 374780
3628.43 414574 292454 162428 128082 144998 142102
3634.22 102454 80128 87384 104040 109096 99420
3640.00 94410 92692 96324 104082 115904 155816
3645.79 230654 290620 363020 396642 321134 216600
3651.57 130080 88804 113686 211284 264752 190952
3657.36 117328 95600 89856 97834 111658 131634
3663.15 145648 148026 152846 172312 236138 321484
3668.93 425362 472482 346180 241676 306102 470738
3674.72 557794 447032 304806 280056 294076 267352
3680.50 237440 237866 251276 265858 288590 330674
3686.29 466690 643210 598682 478104 465134 420340
3692.07 363048 365278 389226 397300 397362 409344
3697.86 427554 448160 502372 559088 547682 506666
3703.64 492186 495856 498446 524704 607198 674880
3709.43 676322 738470 779290 653670 542494 507374
3715.21 460228 426826 438212 436950 403910 412850
3721.00 456204 439058 396886 399376 420690 419286
3726.79 380484 336138 324984 387772 513454 533994
3732.57 457162 465294 519060 553216 514050 424204
3738.36 369386 351586 346406 370932 566484 883440
3744.14 857952 537048 399216 497910 677468 675830
3749.93 600640 692854 635672 420174 340106 361326
3755.71 377854 367548 399510 457056 433784 383324
3761.50 381320 390782 406832 438170 445186 431574
3767.28 446040 509108 540812 483070 438680 442956
3773.07 459714 474062 489658 500990 514886 559640
3778.85 591066 573978 570924 590118 591278 583836
3784.64 594582 619270 632026 626366 628440 624686
3790.43 601538 598258 613914 619570 657092 710232
3796.21 706634 680568 694584 818100 1002288 977684
3802.00 799446 698674 683692 777586 888698 831742
3807.78 734266 719746 710472 707224 724132 749240
3813.57 851360 1059212 1099744 931248 856644 911128
3819.35 1026084 1107532 1042214 930712 912818 952488
3825.14 993006 1009858 1002296 998770 1015034 1073814
3830.92 1118640 1098732 1112706 1160760 1153352 1240714
3836.71 1404926 1336200 1187178 1165216 1142466 1106502
3842.49 1111714 1088686 1035282 1006286 995098 994446
3848.28 993250 1031102 1198270 1374754 1508566 1596490
3854.07 1365760 1074982 1009664 983088 953138 970824
3859.85 1019460 1056492 1065882 1113000 1198758 1193280
3865.64 1117228 1120754 1216974 1350596 1368114 1253582
3871.42 1231356 1334722 1404470 1389480 1380532 1405280
3877.21 1459108 1554996 1628346 1625078 1613104 1644992
3882.99 1712080 1837148 1922442 1879968 1858488 1906486
3888.78 1978016 2080240 2124040 2094976 2108234 2137530
3894.56 2133706 2139662 2192238 2290522 2367200 2391096
3900.35 2456414 2518086 2551256 2606982 2600056 2556740
3906.13 2555928 2587764 2629962 2670798 2717816 2773222
3911.92 2824192 2866728 2919274 2998334 3054840 3044174
3917.70 3030684 3067816 3093826 3075712 3078396 3128406
3923.49 3175526 3173306 3137904 3107520 3079168 3032198
3929.28 2954154 2893088 2856930 2801984 2757294 2720230
3935.06 2659888 2600838 2524550 2434760 2371380 2315402
3940.85 2261116 2214628 2149336 2087482 2068342 2069388
3946.63 2061698 2039958 2009334 1999796 2018882 2045562
3952.42 2062016 2064004 2074860 2108616 2151178 2179388
3958.20 2186372 2194064 2219452 2242020 2254408 2266970
3963.99 2272788 2288826 2327160 2366518 2396480 2427690
3969.77 2455886 2472100 2484488 2507272 2546476
##END=
