##TITLE=Methyl tert-Butyl Ether
##JCAMP-DX=4.24
##DATA TYPE=INFRARED SPECTRUM
##CLASS=IUPAC A
##ORIGIN=NIST, Anayltical Chemistry Division, 301-975-3108
##OWNER=COPYRIGHT (C) 1998 by the U.S. Secretary of Commerce
##DATE=98/10/1
##$SPECTRA VERSION=1.00
##$UNCERTAINTY IN Y=2.1 % relative (B=1.1E-04,C=7.8E-10,D=2.7E-14)
##CAS NAME=tert-Butyl Methyl Ether
##CAS REGISTRY NO=1634-04-4
##MOLFORM=( C H3)3 C O C H3
##MP=-109 C
##BP=55.2 C
##$NIST SOURCE=QUANT-IR
##SPECTROMETER/DATA SYSTEM=IFS66V (Bruker)
##INSTRUMENT PARAMETERS=KBr Beam splitter; MCT Detector; Multipass cell
##STATE=gas
##SAMPLE DESCRIPTION=MTBE Primary Gas Standard
##PRESSURE=101.3 kPa
##TEMPERATURE=23 C
##SAMPLING PROCEDURE=1 L/min Flow
##RESOLUTION=0.9640
##DATA PROCESSING=3-Term B-H Apodization
##XUNITS=cm-1
##YUNITS=(micromol/mol)-1m-1 (base 10)
##XFACTOR=1.0
##YFACTOR=9.0949E-13
##DELTAX=0.4820
##FIRSTX=575.169
##LASTX=3975.077
##FIRSTY=0
##MAXX=3974.59
##MINX=575.17
##MAXY=.0011794
##MINY=-3.26E-07
##NPOINTS=7053
##XYDATA=(X++(Y..Y))
575.17 10320-110178-148272 11110 198006 167562
577.58-54420-135478-39062-18324-155300-274942
580.47-239822-193310-232444-308794-358664-315202
583.37-107390-572-59808-79288-222428-382718
586.26-287016-245536-340912-290446-145048-22448
589.15 77304 76146 20240 58152 61014-31002
592.04-70182-117704-76888 117798 224614 176724
594.94 108756 32406-52790-2094 89406 79538
597.83 49894-23274-172354-196484-73224 30592
600.72 83140 92042 56110 46892 72816 110444
603.61 99608 40922 39904 60548 31302 12364
606.51 32916 42072-2538-33906-444 97210
609.40 210778 203802 76336 1690 48418 102220
612.29 107510 69550 39272 103290 145100 77392
615.18 11632 148 14304 39418 60326 62150
618.08 80712 78428 59410 62202 66710 67112
620.97 49576 62804 97640 95560 82102 88990
623.86 83448 73160 104778 80132 32858 60224
626.76 137150 183840 142084 77658 79426 117838
629.65 130252 128696 141038 119798 88698 103850
632.54 113878 97938 88192 99004 107718 73586
635.43 51522 68896 72486 57908 49228 60204
638.33 116514 153818 135832 142518 173446 149590
641.22 91806 45534 40194 79122 127170 147014
644.11 110764 76344 87966 128042 178126 156590
647.00 67480 40288 69220 74050 82346 109014
649.90 100026 82388 82936 83954 116992 160358
652.79 157210 128540 128444 140260 118446 82730
655.68 78482 94368 95920 107728 129670 136986
658.58 154362 174246 161148 112810 69188 99752
661.47 146764 148074 148460 162868 156346 115110
664.36 96384 130884 170894 153892 64422-86582
667.25-196874-87554 118936 204238 157508 128804
670.15 182246 217728 218314 223330 240886 267636
673.04 310846 380838 427360 386594 313294 334682
675.93 430944 484410 467026 437280 428790 427510
678.82 442374 461982 474948 477764 483030 514152
681.72 548362 560906 563466 554894 550966 528352
684.61 468906 477030 592506 670546 636904 600108
687.50 597702 630310 679374 695086 677476 677750
690.40 730408 752954 730988 744772 809964 848070
693.29 858086 907558 983220 1059750 1125864 1195924
696.18 1303486 1434794 1521394 1571910 1688370 1878230
699.07 2069152 2248484 2466356 2728934 3005800 3313686
701.97 3688260 4062330 4445458 4930780 5476296 6020246
704.86 6584562 7243308 7939904 8620932 9380436 10204280
707.75 11085140 12038500 13021820 14042210 15055250 16062410
710.64 17123900 18169910 19189020 20193510 21142490 22074870
713.54 22979350 23768840 24457520 25102580 25662260 26075980
716.43 26410730 26718210 26943400 27078720 27229140 27418690
719.32 27618050 27974780 28695480 29850640 31473780 33684680
722.22 36660940 40516450 45090330 49933340 54249780 56496280
725.11 55001080 49953250 43642500 38206270 34192080 31321760
728.00 29302240 27977890 27247800 26938890 26989710 27366690
730.89 27916560 28512090 29065720 29520820 29800690 29868610
733.79 29724020 29326710 28703470 27908380 26927770 25787450
736.68 24538290 23204810 21821000 20404890 18973010 17525610
739.57 16078550 14732330 13511430 12322610 11148030 10051380
742.46 9058830 8159626 7376052 6672518 5976684 5336466
745.36 4798132 4319042 3883010 3504142 3197384 2950850
748.25 2731422 2524560 2312218 2104958 1962700 1864680
751.14 1758190 1664660 1581212 1514772 1486002 1455592
754.04 1397288 1341402 1306660 1278156 1262008 1252634
756.93 1227280 1211912 1244824 1272990 1268920 1257882
759.82 1226890 1221618 1242506 1234184 1215832 1245828
762.71 1296208 1282700 1254328 1266706 1275486 1242194
765.61 1189484 1180544 1212626 1244496 1239142 1226394
768.50 1248168 1278248 1295156 1295306 1285042 1286988
771.39 1313590 1323024 1282206 1243430 1247324 1274038
774.28 1292444 1265190 1237808 1240212 1235618 1238814
777.18 1260976 1258856 1226626 1191256 1156392 1131680
780.07 1128210 1151326 1170924 1174550 1178536 1175600
782.96 1162482 1145480 1118584 1102578 1115104 1108926
785.86 1091106 1113486 1148978 1145798 1120846 1115850
788.75 1118972 1113346 1112654 1098834 1079478 1104270
791.64 1163040 1190856 1180950 1160746 1125506 1106368
794.53 1121234 1142026 1138670 1109390 1105420 1136314
797.43 1190296 1234858 1213652 1180904 1205480 1222882
800.32 1213228 1216544 1237754 1279514 1312684 1307374
803.21 1306898 1345744 1385750 1399136 1389882 1397258
806.10 1444002 1489024 1496720 1494426 1489100 1512972
809.00 1560052 1566946 1573236 1623524 1674152 1692350
811.89 1719098 1763352 1789526 1793980 1794324 1810614
814.78 1847368 1902440 1959176 1997718 2026262 2054840
817.68 2113914 2193114 2270668 2345332 2413240 2484676
820.57 2600840 2754636 2901886 3033492 3172608 3367944
823.46 3590046 3792852 4015226 4280928 4588580 4934026
826.35 5332006 5776964 6228494 6692182 7224414 7856678
829.25 8582380 9367084 10194650 11101110 12131240 13264310
832.14 14476110 15807210 17300470 18915220 20613600 22405370
835.03 24322570 26402410 28650730 31043560 33582670 36244870
837.92 39028360 41933490 44925960 47993280 51087370 54203200
840.82 57328150 60456820 63613640 66732870 69742320 72604840
843.71 75272210 77731330 79997370 82075140 83924720 85540130
846.60 87005840 88354730 89537110 90587850 91624900 92825300
849.50 94440800 96709350 99818100 103924900 109094500 115461400
852.39 122919600 131086600 139774800 148748000 157424400 164700700
855.28 168659600 166714100 157174100 141406700 123856700 109718900
858.17 100607500 94815370 91174940 89225540 88413380 88597030
861.07 89734500 91368770 93035760 94475480 95551800 96061930
863.96 95851970 94895660 93229160 90769950 87530250 83798860
866.85 79732660 75334010 70663060 65837500 60959180 56082780
869.74 51274740 46613190 42188510 38016620 34087530 30449590
872.64 27119700 24073470 21306940 18794250 16528730 14528800
875.53 12773740 11210180 9845468 8659756 7605776 6691520
878.42 5896256 5214326 4647878 4145620 3680278 3274400
881.31 2959132 2697342 2450570 2267108 2130254 1983778
884.21 1850350 1749722 1663496 1587252 1530530 1484128
887.10 1449354 1393030 1335518 1321772 1316826 1312320
889.99 1318588 1315184 1309094 1313788 1316536 1291982
892.89 1271740 1296434 1334446 1334078 1317022 1318000
895.78 1324684 1333970 1332832 1304700 1287564 1294654
898.67 1300746 1298672 1305776 1352782 1416034 1448438
901.56 1479534 1524084 1580722 1654684 1710470 1751714
904.46 1824030 1894418 1924314 1925828 1890958 1830114
907.35 1764960 1696830 1626446 1553920 1501222 1450168
910.24 1407808 1411744 1433708 1449360 1448084 1439342
913.13 1449288 1461748 1476868 1500862 1517578 1531040
916.03 1531006 1521988 1534208 1539840 1529170 1527350
918.92 1523962 1505258 1488744 1466304 1420482 1383946
921.81 1377426 1367314 1350584 1331622 1310074 1286842
924.71 1267188 1250726 1242998 1239818 1226598 1216054
927.60 1209618 1194256 1185302 1194174 1196494 1191670
930.49 1189210 1181142 1167666 1150338 1149248 1170122
933.38 1174166 1157758 1145214 1138144 1129652 1121124
936.28 1129748 1125168 1094040 1093518 1121304 1129408
939.17 1122448 1116252 1105934 1098954 1107656 1115180
942.06 1121046 1155942 1194086 1194156 1176382 1175612
944.95 1194966 1202056 1194408 1190484 1180514 1167988
947.85 1178022 1191194 1186292 1179912 1182148 1182556
950.74 1186978 1211340 1231482 1225810 1218254 1220618
953.63 1227744 1230240 1250906 1285376 1294086 1287262
956.53 1287350 1293862 1303976 1303940 1299104 1316172
959.42 1355394 1377194 1381954 1396628 1413392 1414472
962.31 1423988 1456628 1482442 1492400 1512384 1534290
965.20 1542880 1560508 1605104 1661036 1698132 1718316
968.10 1730866 1736788 1751050 1772730 1814116 1877688
970.99 1936738 1974926 2002782 2031734 2058512 2094564
973.88 2151810 2203590 2244858 2293416 2357412 2425542
976.77 2466442 2483910 2522722 2572042 2612772 2669600
979.67 2750372 2826534 2895364 2950462 2986244 3020340
982.56 3065354 3109260 3142498 3186774 3261420 3341274
985.45 3398492 3446056 3501806 3566996 3641786 3702424
988.35 3764146 3848636 3930324 4010996 4100276 4197208
991.24 4300128 4392876 4490854 4606790 4727582 4847412
994.13 4968884 5104580 5278354 5473396 5676202 5897976
997.02 6133876 6372452 6629632 6919724 7240718 7591830
999.92 7981298 8390900 8807110 9247982 9729102 10254410
1002.81 10828790 11454440 12119080 12802260 13516050 14268150
1005.70 15065040 15929850 16854130 17830880 18866240 19923660
1008.59 20986610 22085590 23248410 24421410 25557790 26687250
1011.49 27816430 28931080 30037420 31132050 32170950 33141570
1014.38 34075760 34951150 35733120 36424660 37034630 37519320
1017.27 37851690 38040910 38045970 37824610 37463600 37154350
1020.17 37057320 37295390 38009540 39214200 40810200 43127070
1023.06 46607920 50050840 50100250 45776810 40592510 36811410
1025.95 34408710 33092840 32451110 32219390 32259490 32435950
1028.84 32630700 32766150 32818660 32769310 32576990 32201450
1031.74 31640380 30911820 30037580 29023290 27888030 26698240
1034.63 25467300 24167580 22828580 21500010 20206730 18929520
1037.52 17684070 16506310 15409520 14382660 13432850 12570850
1040.41 11786250 11101240 10504490 9970278 9518474 9141838
1043.31 8836262 8582276 8349760 8154596 8030268 7942616
1046.20 7866500 7827080 7830442 7872186 7936046 7998662
1049.09 8093370 8245744 8435430 8640108 8858550 9086336
1051.99 9324252 9593890 9897476 10218360 10567540 10933240
1054.88 11304740 11693950 12138970 12636760 13152460 13682160
1057.77 14250340 14882700 15599590 16387600 17214480 18099880
1060.66 19125060 20307680 21575090 22850620 24188590 25647060
1063.56 27204750 28866430 30672130 32622890 34705560 36979500
1066.45 39509760 42409860 45739470 49172060 52602570 56331430
1069.34 60489770 65073940 70071900 75443540 81190110 87372100
1072.23 94090360 101309200 108945500 117050900 125724800 134984300
1075.13 144873600 155525000 167044600 179517700 192719400 205762900
1078.02 218552900 232125200 246595400 261324500 276251600 291627800
1080.91 307626600 324187000 340169500 354382000 367738200 381511700
1083.81 395797400 410301200 424420100 438071500 451996300 465990100
1086.70 478629100 490113800 502884800 518039900 531282500 537433900
1089.59 540610100 546088400 552504700 558192300 563473000 569203300
1092.48 576290600 585450300 596692700 609219500 621877400 634190600
1095.38 646994400 659735000 667923900 667623400 658866000 645210200
1098.27 631375200 616511500 598102000 579729100 561563600 540090300
1101.16 521421000 511531000 506915200 504800800 503424800 496105000
1104.05 483039800 471388500 461267100 449384600 434951900 418551100
1106.95 400484500 380870100 360233700 338936100 317187800 295189200
1109.84 272562700 249688200 227817300 207416500 188253600 170235900
1112.73 153578600 138396600 124603900 112287600 101463200 91804470
1115.63 82963660 75057140 68280660 62495450 57462280 53044340
1118.52 49155410 45785960 42904230 40394760 38113470 36006490
1121.41 34117920 32486490 31065200 29801890 28655320 27612790
1124.30 26696380 25887250 25137810 24423840 23760920 23187910
1127.20 22685270 22218850 21774130 21366060 20982870 20619220
1130.09 20291750 20006580 19768850 19587490 19439420 19300240
1132.98 19196750 19164550 19159540 19132910 19068590 18986320
1135.87 18945880 18977090 19024460 19091500 19195640 19323600
1138.77 19485670 19670410 19859600 20052890 20249750 20465640
1141.66 20714690 20994850 21261290 21493790 21708850 21910670
1144.55 22109390 22315830 22510910 22694490 22888030 23114160
1147.45 23378380 23675180 23997660 24303960 24576620 24885840
1150.34 25265180 25723940 26271370 26881660 27512330 28153390
1153.23 28831100 29544250 30250540 30918040 31465610 31786360
1156.12 31890090 31875080 31828760 31823860 31855830 31905230
1159.02 32013330 32188030 32413200 32675940 32970670 33310560
1161.91 33648600 33948570 34285140 34726930 35249250 35764290
1164.80 36208330 36622960 37042740 37458860 37901910 38366520
1167.69 38827820 39259600 39537010 39689260 39895730 40210910
1170.59 40596020 41031620 41538310 42133150 42825300 43608060
1173.48 44390280 45148180 45955080 46848360 47861750 48986740
1176.37 50204080 51525380 52937950 54458780 56076370 57714300
1179.26 59326830 60919490 62490080 64011230 65461790 66892680
1182.16 68404920 70070300 71962300 74156880 76704490 79665060
1185.05 83074280 86949820 91324060 96179440 101484400 107255800
1187.94 113526900 120283200 127496300 135190100 143416000 152196000
1190.84 161455000 171190200 181479200 192334800 203702900 215498900
1193.73 227637400 239949400 252221500 264338000 276138300 287675800
1196.62 299332800 311171400 322939200 334474500 345639100 356299900
1199.51 366391000 375937600 385011600 393610800 401713000 409418700
1202.41 417030700 424612000 432282000 440880800 451282900 463840500
1205.30 478664500 496123300 517102700 542041300 569814500 598484000
1208.19 625949600 650982500 671286700 678652000 662594900 618891200
1211.08 560914700 515785900 495493000 492617800 498185600 506928300
1213.98 516215800 525589800 535749900 546326300 555659900 562638000
1216.87 567076700 568899600 567450900 563059800 557008800 545217300
1219.76 524154800 499761800 476351800 453446700 430123400 405056300
1222.66 379242800 354696300 332070600 311378600 292619200 275769500
1225.55 260795600 247737600 236405200 226416600 217503900 209560700
1228.44 202643800 196801700 191904200 187807200 184395900 181677600
1231.33 179686300 178369300 177703200 177607900 177961200 178824400
1234.23 179885700 180130600 179219200 177564100 175269600 172593500
1237.12 169663000 166287500 162459300 158271800 153788800 149139200
1240.01 144616100 140498900 136871200 133784800 131244600 129206800
1242.90 127679100 126439600 124998400 123448600 122263200 121475900
1245.80 120919200 120471200 120079100 119779200 119612100 119565200
1248.69 119627800 119685200 119462600 119035000 118716200 118546700
1251.58 118383900 118184100 117992300 117792000 117500000 116993000
1254.48 116236600 115362500 114433900 113380300 112203300 110958500
1257.37 109646200 108293600 107034200 105913900 104900900 104090300
1260.26 103593200 103438900 103617700 104104700 104834100 105714400
1263.15 106652100 107493800 108050800 108165400 107697800 106497700
1266.05 104313700 101176400 97519470 93291610 88245540 82937830
1268.94 78256390 74453930 71223100 68391990 65949390 63815060
1271.83 61886720 60028880 58189570 56443910 54785310 53190570
1274.72 51647790 50045490 48360730 46824530 45274540 43297200
1277.62 41114020 39047910 37085700 35222620 33475960 31835780
1280.51 30278740 28799940 27379860 25985110 24620360 23339450
1283.40 22160700 21057330 19986030 18930490 17905350 16921510
1286.30 16009910 15171590 14378230 13637630 12944690 12281760
1289.19 11657030 11075990 10546950 10065810 9610480 9177656
1292.08 8766658 8395344 8063452 7740928 7426496 7144772
1294.97 6887112 6641110 6416742 6194850 5970270 5768922
1297.87 5583082 5405074 5241094 5083388 4935322 4809458
1300.76 4694954 4584884 4482376 4385250 4300926 4217534
1303.65 4122820 4038914 3969122 3895396 3817720 3758256
1306.54 3715912 3670068 3621726 3582378 3543242 3506130
1309.44 3476776 3443664 3409688 3378332 3346662 3328548
1312.33 3317720 3294214 3257694 3233516 3227698 3218114
1315.22 3195766 3164050 3128120 3103216 3088838 3073448
1318.12 3057396 3038978 3022552 3012216 3012326 3021542
1321.01 3009868 2987502 2985420 2995996 3000896 3012032
1323.90 3037290 3054412 3054216 3056996 3070292 3074086
1326.79 3067854 3071872 3093434 3126134 3161408 3204598
1329.69 3252712 3289896 3331930 3406222 3481234 3551420
1332.58 3648814 3757538 3868864 4004140 4170682 4351030
1335.47 4545672 4782266 5055400 5347544 5676846 6074604
1338.36 6518212 6990200 7542762 8177264 8850740 9613090
1341.26 10507540 11518960 12655630 13936590 15369980 16984610
1344.15 18803380 20833580 23096840 25617740 28418650 31524300
1347.04 34937600 38673880 42749590 47186500 51997700 57174360
1349.94 62728800 68678840 75002840 81638080 88567860 95783410
1352.83 103229600 110867400 118634800 126455800 134225100 141813200
1355.72 149136800 156097900 162575200 168421300 173575200 178042000
1358.61 181701100 184490300 186532500 187995500 189097300 190198700
1361.51 191803300 194529300 199149000 206491000 217500300 233209600
1364.40 254022400 278920600 305512300 330741100 352202000 369458400
1367.29 383124400 391187600 388649200 374199800 353538400 333137900
1370.18 312709500 288377400 261938400 239631000 224718000 216589200
1373.08 213562600 214040300 216787500 220825600 225338900 229806400
1375.97 233732700 236671700 238398900 238743100 237640800 235165200
1378.86 231336300 226258200 220064000 212849700 204779600 196026400
1381.76 186721200 177021200 167074800 156961800 146823300 136893200
1384.65 127368800 118509200 110734300 104600900 100790800 100088400
1387.54 103311800 110742900 121858100 136855100 154653400 167032600
1390.43 161874200 137169600 105222600 79144180 62999220 54791780
1393.33 51663020 51619360 53313000 56058490 59448200 62971920
1396.22 66303820 69264390 71652220 73286720 74129920 74132100
1399.11 73183870 71408090 68979530 65962840 62464540 58613040
1402.00 54505120 50267630 46032850 41901100 37974310 34279420
1404.90 30782140 27540430 24640510 22075650 19800570 17824840
1407.79 16152380 14732680 13529230 12504670 11629340 10920650
1410.68 10356910 9886712 9505710 9208794 8977330 8809396
1413.58 8694498 8622138 8593358 8604900 8630004 8656206
1416.47 8726588 8824344 8896834 9012284 9282372 9565938
1419.36 9563026 9433398 9443438 9548728 9672936 9787596
1422.25 9896024 10018250 10160070 10268600 10344490 10449950
1425.15 10569550 10679080 10790220 10905870 11019320 11132780
1428.04 11245770 11367670 11535100 11710310 11826090 11941910
1430.93 12092250 12242060 12384020 12530590 12675060 12836340
1433.82 13045420 13290270 13553100 13893480 14409520 14912260
1436.72 15126480 15272590 15584030 16007940 16534690 17173500
1439.61 17798800 18276470 18648280 19064700 19633290 20363980
1442.50 21202550 22105870 23058640 24047190 25069050 26132770
1445.40 27232530 28347010 29475520 30652270 31835740 32926310
1448.29 33975850 35073500 36212650 37367500 38513700 39652890
1451.18 40800360 41946790 43093240 44262150 45452650 46666030
1454.07 47901180 49148370 50422410 51881450 53635630 55297060
1456.97 56752650 58551640 60788730 63253150 65966840 68934640
1459.86 72067050 75276300 78504180 81658350 84574670 87112990
1462.75 89219220 90899900 92206570 93162470 93656950 93775570
1465.64 93765410 93641120 93419330 93234310 93154340 93223950
1468.54 93497300 94056530 94993080 96323970 98080240 100283300
1471.43 102606000 104609600 106255200 107452600 108107200 108317300
1474.32 107789100 106542100 105253900 104349400 103756500 102982400
1477.21 101508100 99587880 97872050 96401160 94942290 93518130
1480.11 92181510 90904160 89678920 88525940 87465020 86493300
1483.00 85635060 84888620 84223060 83630830 83087760 82544860
1485.89 81844870 80649460 78465660 74895450 70375260 65872960
1488.79 61827880 58280600 55292060 52807620 50617040 48664970
1491.68 46973160 45458180 44068240 42752660 41461540 40189490
1494.57 38937330 37767390 36660670 35288860 33667640 32125320
1497.46 30701580 29357590 27959960 26429040 24920970 23517780
1500.36 22182620 20890660 19637060 18428330 17281690 16208340
1503.25 15204440 14272690 13486740 12949350 12377830 11582190
1506.14 11008850 10517630 9736358 9038148 8575006 8167212
1509.03 7812636 7484574 7154298 6861616 6641008 6516880
1511.93 6368874 6118946 5899372 5757408 5659062 5588784
1514.82 5493548 5394906 5357104 5354566 5341224 5240154
1517.71 5067820 4954522 4914372 4943160 5006204 5120672
1520.61 5303756 5209024 4939256 4869834 4813028 4689038
1523.50 4618912 4625834 4726174 4815490 4731404 4606954
1526.39 4597570 4625764 4611270 4595372 4573080 4536890
1529.28 4529970 4547964 4571658 4603924 4620386 4628758
1532.18 4685046 4797260 4896440 4869398 4745762 4691048
1535.07 4701956 4717566 4723290 4737708 4781142 4874490
1537.96 5157602 5514162 5502548 5395588 5383100 5186592
1540.85 5113918 5316386 5343294 5120248 4998138 4976538
1543.75 4985954 5084968 5151186 5059436 4959650 4944224
1546.64 4964214 4999582 5035130 5061820 5083264 5115642
1549.53 5152998 5153300 5122248 5110558 5121190 5137176
1552.43 5162356 5232486 5424002 5572654 5463316 5320242
1555.32 5300776 5342274 5466846 5701802 5962618 6244004
1558.21 6313192 6149156 6288486 6543316 6375892 6075490
1561.10 6028956 6111904 6201570 6287776 6383178 6496372
1564.00 6651910 6783734 6846740 6919508 7025508 7130442
1566.89 7226686 7322546 7441668 7594094 7794920 7926654
1569.78 7861484 7770312 7779186 7818440 7848040 7871956
1572.67 7900880 7930504 7977140 8055582 8189386 8558194
1575.57 9029836 9037070 8802798 8805064 8931902 9047108
1578.46 9125906 9152192 9097408 8897690 8530276 8052642
1581.35 7571532 7202992 6986130 6874300 6819618 6808700
1584.25 6826208 6839952 6849554 6864324 6867072 6838636
1587.14 6776418 6689104 6570064 6414676 6235388 6029744
1590.03 5792492 5524716 5230680 4932216 4641718 4355290
1592.92 4090076 3859282 3644148 3419986 3200024 3017458
1595.82 2867694 2723606 2589796 2480538 2386646 2299806
1598.71 2227970 2171346 2118430 2070738 2034120 1993960
1601.60 1957794 1945382 1938788 1918526 1893052 1872824
1604.49 1865774 1867568 1854956 1835504 1831960 1827068
1607.39 1814268 1809838 1827788 1850644 1840706 1822442
1610.28 1831696 1856048 1887100 1908580 1920954 1934664
1613.17 1943906 1961588 1994150 2026154 2097136 2367138
1616.07 2737856 2673416 2304194 2143504 2153322 2186132
1618.96 2208664 2224878 2251326 2282902 2310616 2332184
1621.85 2362094 2448246 2597950 2649324 2558256 2492646
1624.74 2491892 2525194 2576082 2629538 2703492 2802078
1627.64 2838936 2820636 2825356 2837488 2829718 2812982
1630.53 2797796 2775346 2743088 2711188 2685836 2677670
1633.42 2680656 2743970 2937520 3171180 3124278 2808504
1636.31 2646176 2679696 2688728 2625696 2574770 2560076
1639.21 2558972 2556510 2539914 2522146 2522984 2517542
1642.10 2483890 2431916 2393268 2372194 2348580 2359664
1644.99 2528638 2669994 2497846 2299720 2256468 2213074
1647.89 2148690 2053994 1969010 1919652 1888156 1880568
1650.78 1918122 2157870 2584592 2825026 2781896 2451898
1653.67 2124604 1985530 1810708 1672930 1626176 1607288
1656.56 1593192 1580954 1563888 1539548 1520326 1512440
1659.46 1501004 1479332 1458918 1458186 1487820 1582338
1662.35 1640282 1548850 1440144 1394822 1376716 1375140
1665.24 1378628 1378254 1372228 1381938 1404016 1433934
1668.13 1521494 1676498 1684586 1527028 1445892 1484572
1671.03 1528644 1487844 1427112 1410756 1419162 1440062
1673.92 1527244 1749650 1877850 1723130 1551860 1516936
1676.81 1522254 1531826 1547494 1570636 1607398 1659144
1679.71 1708726 1728308 1720090 1729642 1791990 1929406
1682.60 2093122 2190670 2375090 2783332 2880384 2488382
1685.49 2239436 2243098 2297044 2359914 2444854 2533130
1688.38 2591852 2660054 2761072 2845628 2915002 3000756
1691.28 3095576 3189010 3285550 3384116 3489490 3598986
1694.17 3749306 4109930 4658056 4770882 4397748 4219458
1697.06 4279828 4351422 4435382 4599162 4942216 5311258
1699.95 5415018 5241760 4989178 4880074 4906610 4960232
1702.85 5011070 5109220 5250638 5302178 5303630 5407302
1705.74 5549882 5595058 5587892 5605322 5623192 5622856
1708.63 5593684 5521270 5385144 5192026 4973750 4741626
1711.53 4526786 4399708 4361878 4386566 4439658 4497724
1714.42 4590590 4593698 4474946 4434342 4632908 4870610
1717.31 4686670 4353528 4149516 3889866 3648718 3478774
1720.20 3311782 3140658 2971604 2808604 2654882 2525816
1723.10 2394630 2235298 2093078 1984110 1888788 1807504
1725.99 1753192 1705768 1644012 1589964 1558332 1540374
1728.88 1547542 1569998 1543884 1486324 1468990 1472952
1731.77 1483508 1617298 1851806 1906042 1932354 1947732
1734.67 1688654 1450878 1399992 1408350 1429112 1440558
1737.56 1438842 1447502 1507380 1645960 1691618 1557748
1740.45 1451730 1432672 1431240 1451866 1493618 1515596
1743.34 1505542 1486842 1466974 1457380 1454774 1453372
1746.24 1473230 1496312 1493588 1515454 1559980 1554060
1749.13 1505644 1474730 1542728 1697724 1692502 1497780
1752.02 1379406 1368862 1365590 1353330 1343060 1334822
1754.92 1325396 1349074 1434302 1485540 1415206 1336078
1757.81 1322754 1323134 1308472 1290572 1274376 1270360
1760.70 1333280 1431554 1399666 1276412 1204538 1177090
1763.59 1162352 1145054 1122566 1105382 1104616 1109286
1766.49 1108162 1153024 1247458 1228910 1111294 1057030
1769.38 1056732 1087420 1170478 1227542 1230756 1362098
1772.27 1466456 1289792 1093808 1045750 1045680 1057924
1775.16 1058642 1024612 989600 969542 953010 944452
1778.06 948440 958424 959108 974438 1008382 1005008
1780.95 978340 974924 980174 982108 993896 1016046
1783.84 1059678 1120178 1114466 1070590 1067816 1091824
1786.74 1120376 1136526 1152114 1190512 1227088 1252352
1789.63 1298974 1386562 1451370 1467392 1580122 1762442
1792.52 1751826 1632984 1621250 1672978 1726716 1782436
1795.41 1844380 1901904 1960872 2036426 2119378 2202886
1798.31 2307788 2444322 2546502 2586388 2649574 2755294
1801.20 2844184 2929660 3014596 3066322 3123950 3203430
1804.09 3281364 3357758 3441230 3531656 3620226 3699690
1806.98 3785638 3870544 3940696 4009666 4095474 4198750
1809.88 4312068 4399122 4451536 4508430 4563854 4610238
1812.77 4667892 4715748 4735764 4742592 4742500 4739314
1815.66 4743528 4761978 4790962 4810016 4812430 4813002
1818.56 4813414 4816182 4828998 4844112 4854234 4847056
1821.45 4817438 4785176 4744586 4692066 4633598 4564438
1824.34 4502536 4389274 4192892 4030828 3935224 3859498
1827.23 3791672 3732830 3694416 3659140 3632446 3588728
1830.13 3445184 3272620 3146046 3050278 2958496 2853776
1833.02 2738282 2616768 2495604 2372062 2250124 2132298
1835.91 2018182 1917910 1825372 1727584 1641316 1578086
1838.80 1523856 1462884 1399068 1346792 1307642 1276726
1841.70 1247198 1216442 1213860 1314238 1441404 1368348
1844.59 1196320 1127298 1114286 1100852 1088744 1092278
1847.48 1094728 1078156 1061790 1048714 1039530 1039040
1850.38 1041084 1029420 1016026 1012570 1005346 990062
1853.27 979088 977334 970994 959506 955866 962892
1856.16 976530 978654 965294 962528 975802 984914
1859.05 974574 964298 965942 962844 958826 970840
1861.95 986920 993784 993994 996178 1011894 1018998
1864.84 1009276 1014320 1035590 1054152 1077348 1095304
1867.73 1092494 1122154 1180686 1156450 1090598 1074406
1870.62 1071708 1067526 1060318 1053314 1059860 1067218
1873.52 1073650 1077932 1078144 1086134 1095808 1101660
1876.41 1117802 1140986 1161806 1185304 1203258 1212272
1879.30 1206772 1177076 1143394 1121268 1107650 1101554
1882.20 1106310 1125254 1148616 1166524 1188388 1205344
1885.09 1210126 1216040 1217990 1227092 1248746 1259590
1887.98 1261958 1285102 1308764 1281680 1239102 1230570
1890.87 1236952 1232458 1224440 1229140 1239642 1251616
1893.77 1265564 1296012 1327418 1324880 1308618 1303784
1896.66 1301078 1289976 1274570 1268860 1278744 1290918
1899.55 1298458 1303950 1312208 1328154 1346046 1356904
1902.44 1361202 1379182 1416706 1447006 1462240 1488552
1905.34 1526614 1560816 1582566 1589372 1584752 1577264
1908.23 1584462 1600786 1617832 1637296 1658702 1687338
1911.12 1717236 1751016 1794006 1846674 1906936 1958626
1914.02 1997758 2044154 2112948 2194876 2269224 2336084
1916.91 2437758 2568996 2631596 2655240 2724016 2813818
1919.80 2903278 2997296 3101738 3217032 3339772 3466644
1922.69 3588694 3694670 3802940 3922812 4046522 4174704
1925.59 4311490 4455504 4603650 4752686 4904346 5068532
1928.48 5234414 5394746 5566462 5755002 5949044 6141686
1931.37 6339508 6544586 6751250 6936712 7069512 7157080
1934.26 7231832 7316328 7418186 7539474 7683148 7836784
1937.16 7987936 8132930 8270610 8401948 8535194 8679658
1940.05 8817816 8937442 9049370 9164010 9257120 9288192
1942.94 9290068 9303074 9308578 9276388 9212198 9146382
1945.84 9091724 9045140 9001334 8963372 8932528 8904110
1948.73 8878422 8851948 8817734 8773018 8694124 8565454
1951.62 8419164 8285716 8161036 7999410 7754784 7454614
1954.51 7176784 6960134 6789718 6630368 6472758 6331754
1957.41 6191402 6016816 5809784 5605174 5404792 5189354
1960.30 4959870 4720426 4473216 4229926 3981868 3726898
1963.19 3479680 3236248 2993254 2757026 2537750 2341130
1966.08 2161396 2001152 1848250 1709614 1603168 1501704
1968.98 1395168 1301682 1227862 1162180 1096344 1034032
1971.87 986520 947746 909484 883048 858312 832288
1974.76 816742 809062 797670 783458 767466 739456
1977.66 715286 705008 694404 690062 698326 698048
1980.55 687434 677846 662442 644476 642690 645992
1983.44 637600 627568 625460 624620 622884 622508
1986.33 617310 618556 634150 635650 624074 622378
1989.23 624658 622658 621256 630038 651894 658726
1992.12 641466 626154 610470 597110 597420 597828
1995.01 599218 609996 617864 616712 606474 590114
1997.90 588318 606600 623302 626808 619884 615234
2000.80 620718 630688 631784 622784 615986 617316
2003.69 619170 617160 613902 619588 630146 625112
2006.58 619918 627612 631618 635024 639906 647526
2009.48 660138 664164 660026 653234 643620 648650
2012.37 666724 671944 674606 679418 677508 677190
2015.26 683054 695732 706792 709278 716098 720920
2018.15 709920 702408 714292 726690 738248 764570
2021.05 793872 802850 801932 810876 821688 824182
2023.94 833898 856764 880592 894374 897816 900966
2026.83 907158 922170 952748 977200 977022 975282
2029.72 994396 1032742 1078360 1111920 1136028 1169826
2032.62 1203690 1233626 1273134 1328044 1384396 1426390
2035.51 1470200 1530086 1596634 1649678 1687502 1730034
2038.40 1779958 1839106 1911120 1984738 2057508 2139764
2041.29 2223526 2301044 2383610 2471934 2567644 2669392
2044.19 2771330 2862788 2936040 3014676 3108838 3203106
2047.08 3290226 3372370 3453320 3542458 3648396 3758400
2049.97 3849248 3918544 3986470 4053228 4116600 4190346
2052.87 4266010 4334220 4400646 4468868 4542974 4620038
2055.76 4701360 4780078 4861802 4959396 5037768 5095354
2058.65 5161790 5234712 5286008 5309090 5310926 5270768
2061.54 5179972 5027246 4828054 4641100 4501912 4420186
2064.44 4384854 4374340 4375798 4387756 4409766 4423278
2067.33 4422812 4420016 4393758 4309572 4191488 4068284
2070.22 3938172 3799184 3645822 3485862 3333730 3178300
2073.11 2999958 2825510 2678424 2558228 2463466 2374434
2076.01 2300082 2261252 2230868 2170326 2109014 2075902
2078.90 2056410 2052388 2059902 2069210 2099940 2151542
2081.79 2156690 2126788 2126898 2142852 2156360 2171212
2084.69 2195854 2257244 2338348 2358782 2348374 2386648
2087.58 2456000 2534430 2627778 2732556 2858444 2993100
2090.47 3040036 3015482 3002088 2981578 2941284 2885764
2093.36 2830710 2820226 2810672 2714450 2606028 2552356
2096.26 2530086 2529262 2541828 2579082 2683762 2765656
2099.15 2725442 2677100 2689096 2718984 2745572 2766356
2102.04 2810526 2891014 2884430 2771732 2688630 2657166
2104.93 2639868 2619240 2611206 2664510 2719946 2640568
2107.83 2514562 2461306 2456074 2455942 2460470 2507450
2110.72 2623066 2680124 2605078 2546942 2535298 2525058
2113.61 2512302 2494266 2525054 2569320 2483074 2355990
2116.51 2299294 2276890 2273636 2298372 2386272 2526950
2119.40 2552318 2433578 2350020 2325906 2305102 2285548
2122.29 2294812 2365202 2393396 2258742 2096832 2021256
2125.18 1985766 1947262 1919322 1961508 2011286 1934812
2128.08 1820986 1763986 1734792 1710112 1681492 1681752
2130.97 1707646 1659958 1557306 1495368 1467878 1450104
2133.86 1436770 1441126 1465530 1449210 1390584 1349060
2136.75 1330436 1327342 1328964 1334278 1354274 1362528
2139.65 1348948 1343278 1352064 1365218 1379552 1404170
2142.54 1438332 1469108 1492302 1521256 1565818 1624548
2145.43 1694426 1767858 1838520 1890580 1928444 1974810
2148.33 2033986 2103178 2175870 2272048 2391630 2471170
2151.22 2527372 2615830 2722202 2835668 2961670 3140846
2154.11 3338448 3445084 3525442 3665470 3829108 3988108
2157.00 4181610 4443004 4647948 4743228 4862156 5043288
2159.90 5249898 5466084 5753386 6082742 6271084 6378714
2162.79 6555506 6774722 7002794 7258268 7586948 7864046
2165.68 7984910 8111430 8312090 8535228 8769102 9065000
2168.57 9388746 9547338 9616638 9764554 9926104 10066990
2171.47 10266820 10559630 10737110 10714680 10725850 10844080
2174.36 11007530 11218690 11506390 11744890 11779320 11750740
2177.25 11769470 11785000 11798010 11878150 11970520 11872580
2180.15 11660150 11509160 11406730 11316580 11205300 11002020
2183.04 10632220 10241430 9987746 9811658 9665704 9571144
2185.93 9499472 9308526 9012788 8757424 8522090 8238812
2188.82 7948584 7688188 7340452 6904892 6514362 6151684
2191.72 5782424 5443094 5136748 4781326 4383576 4046422
2194.61 3777838 3549268 3380286 3247732 3051126 2818240
2197.50 2627156 2472382 2353148 2286774 2206758 2050826
2200.39 1903548 1806318 1727558 1667428 1627902 1560378
2203.29 1456616 1380492 1331452 1290088 1273356 1270522
2206.18 1234276 1168402 1125192 1111830 1112696 1131206
2209.07 1136356 1096146 1055010 1042218 1045282 1064940
2211.97 1087144 1082018 1062922 1055476 1067046 1093122
2214.86 1115288 1120206 1126982 1142582 1150712 1164654
2217.75 1191872 1218408 1242066 1266480 1286332 1305722
2220.64 1333518 1353098 1347626 1330944 1316460 1303138
2223.54 1302736 1322718 1345734 1361628 1366790 1355816
2226.43 1330554 1290160 1248354 1218900 1210560 1223786
2229.32 1232346 1239318 1262738 1290716 1306752 1304134
2232.21 1299982 1299586 1288966 1275228 1260450 1237016
2235.11 1212116 1190778 1169554 1153052 1133872 1106218
2238.00 1083318 1063514 1039530 1020398 1017058 1015366
2240.89 1010300 1016562 1032074 1049604 1060524 1062754
2243.79 1067712 1081528 1098856 1114704 1122032 1119200
2246.68 1109218 1096984 1099428 1125898 1151362 1159058
2249.57 1163828 1177460 1206568 1241418 1273372 1310972
2252.46 1346698 1363974 1379710 1423308 1479978 1513202
2255.36 1535882 1565354 1593354 1617810 1643264 1666514
2258.25 1685836 1708780 1746410 1794938 1829798 1849614
2261.14 1871034 1895598 1921052 1957242 2007034 2057292
2264.03 2099250 2152226 2231532 2323222 2403282 2472198
2266.93 2535226 2581334 2616828 2655666 2675698 2658268
2269.82 2625982 2593848 2558654 2537912 2547100 2572374
2272.71 2600420 2629202 2681336 2745136 2794444 2832614
2275.61 2860608 2873614 2876090 2871192 2855346 2835306
2278.50 2816480 2797272 2780172 2771948 2765260 2756322
2281.39 2749650 2742984 2740196 2735404 2721914 2700268
2284.28 2667270 2628444 2595232 2561242 2518280 2470174
2287.18 2426598 2383760 2342836 2317754 2301898 2279910
2290.07 2254214 2234922 2217016 2201998 2191942 2185076
2292.96 2184366 2172812 2155216 2143582 2118816 2076852
2295.85 2037994 1997738 1952640 1915000 1878932 1843064
2298.75 1818670 1791984 1756974 1732602 1720488 1710784
2301.64 1691464 1666046 1651856 1634124 1601976 1566954
2304.53 1545478 1524134 1488906 1441402 1392402 1365096
2307.43 1349674 1316024 1260248 1224794 1222802 1208494
2310.32 1172454 1162212 1180796 1167708 1106956 1068272
2313.21 1094276 1113678 1064224 990452 986578 1011000
2316.10 960638 872438 869240 910686 885780 806464
2319.00 794018 843672 815794 711420 698870 770506
2321.89 745662 629024 632086 741258 714306 582474
2324.78 600792 730282 703420 556932 574246 693956
2327.67 630244 502400 594164 731348 629074 513000
2330.57 645178 753160 621760 567672 735378 770922
2333.46 620236 663496 852536 806170 663868 777580
2336.35 923836 820630 775440 952524 984080 857760
2339.24 933970 1084164 1031412 1013704 1183968 1248218
2342.14 1182964 1258482 1365162 1331018 1347312 1470128
2345.03 1501952 1487786 1577186 1671214 1701220 1755932
2347.92 1832098 1874340 1888324 1904692 1940374 1953178
2350.82 1932296 1954096 1968384 1924664 1966940 2031456
2353.71 1979374 2006160 2082396 2012076 2015366 2087446
2356.60 2003106 2016284 2110738 2035228 2069244 2148052
2359.49 2067974 2138792 2196936 2104966 2171512 2186002
2362.39 2128448 2194774 2142482 2111838 2159404 2094338
2365.28 2124788 2145756 2107894 2159404 2135704 2133316
2368.17 2149788 2128312 2167496 2161442 2161568 2155248
2371.06 2122948 2124280 2110934 2113932 2095864 2068976
2373.96 2053216 2036896 2030804 2022858 2012522 1983000
2376.85 1955350 1934802 1924590 1928220 1934758 1924514
2379.74 1901062 1875794 1857956 1850046 1841816 1833250
2382.64 1834340 1841974 1836974 1825142 1826398 1834266
2385.53 1835886 1836582 1831974 1813282 1787310 1763896
2388.42 1741234 1712638 1684456 1661688 1638522 1616020
2391.31 1594928 1575438 1554374 1531106 1512472 1506696
2394.21 1507512 1488936 1463238 1453284 1448230 1432914
2397.10 1421226 1422768 1416926 1406152 1402566 1396038
2399.99 1381948 1374404 1370322 1358560 1352054 1348498
2402.88 1341440 1340182 1338450 1336432 1345894 1355918
2405.78 1360210 1372284 1377474 1361158 1345554 1358098
2408.67 1382570 1389712 1383820 1392588 1416192 1430608
2411.56 1431974 1434034 1441778 1449148 1456792 1463320
2414.46 1465136 1460290 1445766 1438668 1458810 1490918
2417.35 1493996 1470992 1449312 1427130 1401624 1381172
2420.24 1375608 1382938 1380432 1365144 1349798 1337794
2423.13 1332200 1329276 1320146 1301742 1280790 1253824
2426.03 1220966 1187090 1156478 1129398 1082194 1020396
2428.92 977690 952844 927540 883724 826832 785658
2431.81 765308 749304 722764 688298 657026 640358
2434.70 628328 604906 590344 591338 584802 567106
2437.60 547962 532814 530670 536436 537818 529132
2440.49 515102 509026 503458 486050 475654 472864
2443.38 457878 449482 455938 454014 447668 443766
2446.28 438200 444244 455704 453466 444456 447100
2449.17 455208 446262 434402 434202 441502 452938
2452.06 461172 470070 479964 485494 488684 498226
2454.95 522272 543460 549230 557066 564274 573726
2457.85 592734 606630 618634 629710 632306 645166
2460.74 664886 668030 672302 682718 694398 706034
2463.63 720784 737630 742522 737770 742952 764392
2466.52 791568 801726 798518 800858 804590 816226
2469.42 839514 861602 869738 862508 859208 866976
2472.31 877472 889072 896588 899258 917762 944558
2475.20 953468 956956 952802 934082 916524 909478
2478.10 913082 921412 917580 899926 890274 894470
2480.99 890980 884562 890120 893016 885338 877212
2483.88 864406 848424 834396 817150 802450 786200
2486.77 771722 770436 762458 758378 768762 768694
2489.67 755528 731516 698074 673582 663314 657944
2492.56 653370 650150 645554 636544 616402 597594
2495.45 596336 597834 585356 567118 559488 565424
2498.34 571628 569370 554556 539924 537950 537758
2501.24 529350 522126 520500 514138 505318 495426
2504.13 476370 455252 451710 461856 462448 444276
2507.02 434776 447402 455004 453368 442822 427964
2509.92 416886 405480 398770 405064 415116 411886
2512.81 398112 382470 366292 357168 361566 377180
2515.70 390624 391430 377164 366138 378154 397372
2518.59 405742 404184 403426 408490 409326 407500
2521.49 407370 400628 392778 399710 414310 411424
2524.38 399208 405296 427326 428616 413548 419008
2527.27 442958 464414 471882 463688 450920 449758
2530.16 458404 474656 502868 516674 500358 484422
2533.06 496464 518858 530146 536004 552570 578698
2535.95 606344 622570 627534 647508 684558 714214
2538.84 725652 721286 722478 746818 771920 791278
2541.74 815426 834438 852612 866782 874402 891902
2544.63 922792 949366 962424 971098 983378 1012624
2547.52 1042160 1050820 1058410 1072666 1077400 1084522
2550.41 1110786 1140364 1155932 1165222 1177150 1198382
2553.31 1229696 1260046 1286508 1308040 1327728 1351502
2556.20 1375074 1400726 1430580 1460712 1491906 1517996
2559.09 1546090 1574486 1592240 1610412 1645248 1688280
2561.98 1731778 1771938 1799746 1823086 1849570 1885194
2564.88 1930010 1976446 2013546 2051252 2094470 2139296
2567.77 2194796 2247762 2286820 2322270 2365314 2425138
2570.66 2488926 2535162 2556790 2578522 2627552 2683160
2573.56 2722024 2761494 2817834 2871616 2909652 2951688
2576.45 3010580 3081018 3149826 3206894 3269154 3341230
2579.34 3387842 3417392 3457836 3509998 3569802 3645678
2582.23 3737220 3827120 3916964 4013276 4092496 4143006
2585.13 4192086 4242644 4283692 4309488 4315730 4311014
2588.02 4306134 4298030 4284258 4271492 4254126 4229288
2590.91 4216394 4222394 4236680 4269354 4308684 4340744
2593.80 4384766 4431206 4464700 4499154 4527444 4549080
2596.70 4579872 4623810 4664954 4684862 4693062 4701156
2599.59 4698892 4695542 4707612 4717266 4721336 4735490
2602.48 4753822 4763586 4770938 4796330 4819934 4818334
2605.37 4831244 4871190 4904858 4925714 4947760 4979214
2608.27 5011328 5022050 5023596 5051548 5086028 5105226
2611.16 5122026 5130650 5135514 5155684 5190250 5217302
2614.05 5233424 5262200 5292302 5300444 5310612 5348186
2616.95 5383348 5406172 5429340 5453572 5477288 5470158
2619.84 5433026 5414512 5428090 5442848 5444136 5455318
2622.73 5475110 5475200 5470300 5462826 5440690 5411876
2625.62 5377596 5339010 5302848 5261794 5210944 5161540
2628.52 5135260 5113210 5060468 5012320 4987136 4964608
2631.41 4949058 4931880 4907452 4888464 4884444 4885118
2634.30 4868106 4837184 4801126 4767092 4737058 4696364
2637.19 4647534 4626766 4627034 4612516 4596446 4599470
2640.09 4624834 4649928 4648060 4637964 4634484 4643862
2642.98 4652186 4642484 4628838 4602356 4571942 4553666
2645.87 4534086 4505506 4466944 4431252 4398206 4361698
2648.77 4340974 4332356 4331392 4349954 4363400 4358288
2651.66 4347868 4346492 4343168 4329602 4325562 4330230
2654.55 4330834 4319004 4291720 4260102 4226500 4197914
2657.44 4171150 4137648 4111984 4104950 4104318 4104490
2660.34 4105420 4089820 4063544 4047068 4033582 4022086
2663.23 4004394 3969778 3935740 3916596 3897072 3859754
2666.12 3819420 3789108 3752520 3712284 3690828 3685914
2669.01 3676898 3663128 3641176 3614420 3605770 3595934
2671.91 3577056 3569080 3565376 3560188 3552022 3529420
2674.80 3487974 3465228 3483598 3497736 3477138 3451620
2677.69 3447658 3445660 3423012 3395580 3389204 3385988
2680.59 3365804 3343246 3323918 3316300 3326882 3321512
2683.48 3286482 3269808 3282962 3291364 3283266 3259156
2686.37 3227722 3211616 3209350 3206026 3207186 3217360
2689.26 3216182 3196390 3177716 3161754 3148230 3146320
2692.16 3159914 3175732 3175150 3169674 3169670 3171854
2695.05 3181072 3189398 3188424 3180006 3171470 3180982
2697.94 3204828 3228878 3249188 3266680 3290466 3319772
2700.83 3351500 3384722 3415468 3452866 3498470 3544322
2703.73 3586784 3635916 3698482 3763592 3819886 3879472
2706.62 3943328 4001164 4049216 4094750 4162748 4243796
2709.51 4304386 4371508 4463524 4562840 4651886 4724032
2712.41 4801392 4902482 5015786 5134964 5262222 5389116
2715.30 5530506 5682796 5817994 5935108 6046222 6152256
2718.19 6250562 6343244 6434444 6535348 6624470 6689278
2721.08 6762572 6840880 6896296 6938406 6974592 7033396
2723.98 7138954 7244242 7338566 7447430 7551902 7627590
2726.87 7665734 7666186 7663632 7675754 7679368 7670462
2729.76 7666208 7670002 7682432 7703256 7726392 7738816
2732.65 7727306 7712440 7713560 7713166 7697476 7697356
2735.55 7724370 7740334 7729562 7723312 7725224 7700634
2738.44 7637168 7562004 7510094 7461282 7399856 7346272
2741.33 7302154 7253344 7181888 7117238 7084676 7038562
2744.23 6970086 6934390 6937062 6936904 6920954 6897188
2747.12 6880982 6867684 6836036 6787272 6739476 6679456
2750.01 6599192 6510236 6410706 6303508 6214884 6152428
2752.90 6104428 6083412 6075690 6057196 6038726 6015028
2755.80 5997288 6003140 6011044 6021706 6045912 6073482
2758.69 6094674 6108708 6118044 6121782 6125940 6140898
2761.58 6148084 6143114 6149174 6172516 6188294 6167928
2764.47 6140444 6144410 6152248 6154134 6167376 6169102
2767.37 6176546 6221130 6270318 6299640 6320862 6346724
2770.26 6392574 6453964 6486992 6508058 6570202 6655294
2773.15 6711928 6744782 6781296 6811852 6839264 6859460
2776.05 6858084 6862284 6886804 6916750 6937568 6962240
2778.94 7009212 7073032 7140120 7206134 7286576 7401022
2781.83 7535296 7667678 7791026 7925668 8077080 8205992
2784.72 8311616 8421628 8535874 8650726 8765830 8885590
2787.62 9019440 9163338 9305746 9452002 9599026 9741698
2790.51 9894344 10058430 10231560 10415010 10601950 10798660
2793.40 11011630 11217620 11416630 11626570 11849870 12104300
2796.29 12383370 12654690 12941020 13286670 13648210 13972800
2799.19 14311020 14707940 15142100 15598070 16085780 16591800
2802.08 17132900 17725120 18324750 18936460 19581000 20259850
2804.97 20982210 21744900 22574490 23518360 24601130 25826360
2807.87 27203370 28733720 30408410 32229050 34189690 36255980
2810.76 38396750 40626360 42990960 45531420 48254790 51155530
2813.65 54240520 57518430 60952260 64500660 68160510 71895620
2816.54 75703710 79572000 83407360 87146260 90768030 94302100
2819.44 97740060 101003000 104131100 107242600 110365500 113504500
2822.33 116765300 120340100 124442800 129355100 135465800 143164600
2825.22 152423200 162123700 170002900 174222800 174507000 171476300
2828.11 166155000 159993800 154377600 150161800 147680000 146921300
2831.01 147963900 151051000 156371500 163957800 173431000 183808300
2833.90 193726600 201805800 206638700 206837700 201935100 193049700
2836.79 182179000 171039200 160686400 151806800 144732700 139432200
2839.69 135733400 133336800 131887500 131072000 130631700 130366800
2842.58 130060700 129471400 128428300 126857700 124741500 122058200
2845.47 118842800 115206100 111158600 106754700 102167400 97509070
2848.36 92845460 88234550 83726300 79354540 75197140 71323860
2851.26 67738420 64473260 61535950 58906980 56593400 54599340
2854.15 52915360 51522710 50409460 49539670 48884600 48424500
2857.04 48138990 48063550 48204480 48497720 48897590 49405020
2859.93 50058520 50856820 51732310 52655580 53668630 54780890
2862.83 55943260 57137850 58415640 59800460 61248080 62737110
2865.72 64302850 65947800 67648580 69442140 71336580 73288300
2868.61 75302280 77408500 79627870 81955950 84361050 86810070
2871.51 89287860 91809940 94409680 97085260 99831320 102621200
2874.40 105393800 108153600 110936000 113715800 116408400 119007300
2877.29 121635800 124337400 127014900 129645400 132293000 134954400
2880.18 137566000 140115400 142686800 145291100 147828400 150294300
2883.08 152748600 155154900 157553200 160065700 162656600 165275000
2885.97 167966400 170790600 173783800 176934300 180177900 183579900
2888.86 187271900 191171600 195225700 199497900 203853800 208085500
2891.75 212082600 215818900 219379100 222839400 226096900 229048700
2894.65 231834800 234642300 237511900 240471900 243486900 246420900
2897.54 249247100 252047200 254879300 257683000 260387100 263014700
2900.43 265617800 268187400 270641600 272952400 275254800 277629600
2903.32 280060400 282507800 284978500 287467200 289761400 291652400
2906.22 293048700 293993200 294627800 294998200 295183300 295337000
2909.11 295620000 296182000 297157300 298578100 300439000 302693100
2912.00 305112400 307644600 310397800 313244700 315947700 318339700
2914.90 320369900 321984200 322949300 323106700 322654000 321791000
2917.79 320514200 318790300 316686800 314307400 311719400 309195200
2920.68 306923500 304886000 303222800 302101600 301440100 301146400
2923.57 301260000 301644300 302068800 302448700 302671400 302671900
2926.47 302550200 302338000 301997800 301589300 301250300 301103300
2929.36 301166700 301377700 301798900 302422300 303188500 304202600
2932.25 305432600 306695700 307963700 309285300 310645600 312029500
2935.14 313476900 314995700 316459700 317856600 319290700 320789500
2938.04 322288600 323649800 324966000 326418100 327957600 329566600
2940.93 331146000 332625500 334166700 335625600 336787100 337687000
2943.82 338438800 339177100 339953800 340770600 341586200 342514700
2946.72 343715700 345001100 346170500 347179200 347950900 348263600
2949.61 347892200 346906400 345382600 343211100 340505500 337517300
2952.50 334398800 331222000 328155000 325490300 323313600 321639100
2955.39 320656500 320396900 320795200 321835000 323555600 325997800
2958.29 329074000 332870100 337524300 342925900 349177000 356543600
2961.18 365250700 375176600 385983900 397847300 410835300 424819800
2964.07 439757100 455216400 470945400 487002200 503486600 520707400
2966.96 538890600 557882400 577415900 597388500 617946500 638977000
2969.86 660330100 682041900 703860600 726043400 749365000 773876400
2972.75 799033500 824920200 852619100 883895100 920711400 963598400
2975.64 1009487000 1048175000 1062305000 1040735000 994731600 951482600
2978.54 931932200 940939300 972296400 1013050000 1043263000 1047246000
2981.43 1033093000 1025039000 1039302000 1077995000 1135383000 1200067000
2984.32 1253752000 1283905000 1296842000 1296855000 1269939000 1207647000
2987.21 1124313000 1041168000 968903000 908701700 859268300 819797300
2990.11 788980400 764902700 745564400 729175400 714541200 700486100
2993.00 685834500 670084700 652713900 633431600 612503400 589973100
2995.89 565786800 540464600 514282400 487413600 460309300 433017500
2998.78 405711600 378843900 352704200 327391300 302981000 279644000
3001.68 257517100 236661700 217142300 198999200 182233000 166814900
3004.57 152628600 139617200 127808500 117144300 107511400 98810810
3007.46 90946460 83874380 77546950 71901010 66881890 62400180
3010.36 58368180 54750940 51521180 48657800 46116710 43830520
3013.25 41772170 39939240 38290300 36776720 35387490 34129960
3016.14 32978870 31904960 30925940 30035270 29179690 28374580
3019.03 27642750 26950390 26296270 25680050 25087480 24533450
3021.93 24018420 23536110 23071570 22608530 22178840 21794150
3024.82 21418970 21035990 20642540 20244890 19880130 19562040
3027.71 19257950 18949140 18647900 18363980 18088790 17823440
3030.60 17560420 17297600 17046400 16817070 16602000 16385860
3033.50 16190630 16013610 15821890 15632730 15452760 15262580
3036.39 15064700 14883390 14717580 14555560 14402890 14254470
3039.28 14100320 13954240 13829760 13733700 13616750 13439860
3042.18 13264140 13153160 13066890 12953090 12820550 12702410
3045.07 12587300 12470500 12380320 12309280 12212210 12098960
3047.96 12017100 11950440 11883390 11814410 11738600 11653740
3050.85 11584370 11549170 11527290 11480980 11385390 11283980
3053.75 11231420 11206320 11167020 11118710 11076410 11034790
3056.64 11005400 10988210 10960440 10918120 10871500 10836630
3059.53 10818870 10810120 10796400 10772810 10743110 10728500
3062.42 10741270 10756310 10755590 10734620 10712950 10699540
3065.32 10690660 10693950 10700280 10688410 10649110 10607170
3068.21 10574500 10537730 10512980 10506980 10495460 10478620
3071.10 10446170 10392340 10350370 10325910 10295540 10257210
3074.00 10227350 10203530 10160860 10117730 10081220 10038420
3076.89 9981868 9927420 9879660 9821042 9754030 9680734
3079.78 9607886 9544848 9483714 9427060 9356238 9266398
3082.67 9189076 9115506 9038478 8969988 8896630 8803494
3085.57 8699128 8618926 8559038 8494422 8411900 8308232
3088.46 8208986 8134306 8055226 7967198 7886310 7805924
3091.35 7741370 7686880 7614602 7527254 7443256 7367436
3094.24 7299726 7238214 7175778 7114462 7056520 6994794
3097.14 6917324 6818262 6723988 6670662 6628230 6572964
3100.03 6522782 6472506 6417642 6370240 6324512 6287070
3102.92 6253464 6218948 6187928 6136886 6062440 6004126
3105.82 5976976 5950474 5921040 5916872 5908548 5870066
3108.71 5851192 5846744 5809874 5760242 5722914 5681788
3111.60 5645888 5633314 5629978 5614764 5620858 5659762
3114.49 5664582 5636404 5604190 5569480 5557904 5560854
3117.39 5553144 5555642 5563288 5564712 5566320 5549750
3120.28 5530152 5542820 5566294 5568162 5553268 5531212
3123.17 5512968 5531096 5567876 5576678 5563760 5562512
3126.06 5576702 5599524 5650698 5697092 5709290 5715946
3128.96 5716494 5732066 5758382 5769452 5789266 5810574
3131.85 5833168 5874584 5914188 5936878 5950274 5957782
3134.74 5981216 6038574 6100256 6142674 6169260 6199658
3137.64 6248784 6303412 6339730 6365208 6403608 6440074
3140.53 6467474 6499522 6542538 6596852 6639912 6674416
3143.42 6695788 6707240 6743140 6784160 6810492 6841090
3146.31 6847780 6832032 6849632 6878974 6880044 6888950
3149.21 6917398 6947386 6965660 6965292 6958882 6959378
3152.10 6958408 6928322 6877302 6847534 6851946 6862468
3154.99 6862788 6866962 6870308 6857648 6832534 6796262
3157.88 6767406 6766246 6762512 6744210 6704482 6637804
3160.78 6598140 6599896 6591468 6548888 6499790 6478374
3163.67 6466440 6451052 6412520 6353422 6332834 6327958
3166.56 6298950 6281858 6289232 6292686 6275308 6248570
3169.46 6229070 6218472 6223862 6234322 6242870 6258268
3172.35 6249588 6213180 6198352 6213878 6213482 6212590
3175.24 6231042 6239504 6233214 6209598 6207990 6255464
3178.13 6286526 6293882 6309536 6322780 6335472 6348344
3181.03 6352146 6348848 6354932 6370582 6381336 6397324
3183.92 6422040 6455450 6471750 6478226 6494832 6494396
3186.81 6493288 6516492 6535068 6534400 6533712 6536984
3189.70 6542106 6558534 6578708 6604330 6626734 6623906
3192.60 6617118 6614848 6592648 6583436 6614888 6659326
3195.49 6673572 6659844 6653408 6648496 6632396 6616434
3198.38 6594052 6559054 6559586 6591898 6581292 6565802
3201.27 6583106 6578406 6555148 6548012 6550346 6544240
3204.17 6528860 6508304 6492236 6498148 6501788 6487204
3207.06 6482618 6488012 6495626 6498798 6510026 6525904
3209.95 6526882 6513970 6485814 6475902 6493938 6514582
3212.85 6546628 6569684 6554020 6549940 6590308 6631750
3215.74 6671648 6713972 6741140 6760288 6774586 6798058
3218.63 6841282 6888028 6921222 6956848 7016656 7061418
3221.52 7087628 7140642 7171514 7185200 7232782 7292578
3224.42 7351660 7395502 7434440 7500328 7561074 7582380
3227.31 7586314 7577796 7596202 7643232 7655926 7653648
3230.20 7668264 7685594 7695058 7704168 7710742 7708424
3233.09 7731344 7775938 7769982 7717862 7683730 7658186
3235.99 7624268 7613322 7604294 7574004 7539148 7512960
3238.88 7486554 7448240 7401580 7345906 7286182 7226782
3241.77 7163698 7087254 7004848 6925880 6854548 6794664
3244.67 6725784 6649046 6572388 6489734 6405904 6328124
3247.56 6235362 6133914 6038034 5930556 5810600 5697612
3250.45 5616730 5521344 5407986 5322230 5225318 5100358
3253.34 5011054 4940616 4856194 4776492 4663464 4520182
3256.24 4392946 4284970 4199062 4117872 4019350 3918782
3259.13 3839408 3772884 3696820 3619820 3531288 3421052
3262.02 3327464 3265846 3196092 3108392 3042630 3001728
3264.91 2934540 2837674 2749166 2689208 2657224 2616676
3267.81 2550442 2485488 2422846 2348424 2281838 2240058
3270.70 2202574 2137396 2066948 2035696 2020610 1979738
3273.59 1939774 1921536 1902084 1859230 1820586 1804458
3276.49 1771836 1721346 1683054 1671168 1671764 1647322
3279.38 1609454 1603662 1601154 1552060 1507972 1495608
3282.27 1479390 1454054 1441124 1446000 1440280 1423084
3285.16 1422028 1437468 1424424 1359268 1314504 1311464
3288.06 1308730 1283262 1242550 1237230 1254768 1258514
3290.95 1257646 1261694 1268744 1260830 1251536 1250672
3293.84 1252986 1248054 1241950 1241202 1237244 1246740
3296.73 1269800 1273026 1266264 1280292 1288984 1287584
3299.63 1307074 1338484 1356810 1373318 1400084 1435738
3302.52 1474794 1514924 1544192 1561310 1591702 1607996
3305.41 1601224 1630968 1680792 1712466 1734936 1751858
3308.31 1790594 1835160 1862296 1909200 1948884 1946574
3311.20 1944390 1974332 2016836 2050230 2080392 2136538
3314.09 2206442 2248908 2265238 2288498 2338422 2390796
3316.98 2413082 2425526 2433554 2443130 2487272 2514582
3319.88 2473088 2434348 2452688 2479458 2471262 2443566
3322.77 2410138 2382740 2373696 2374674 2370680 2382740
3325.66 2408470 2415196 2408090 2423040 2453340 2474202
3328.55 2499450 2520408 2507764 2461848 2409874 2379672
3331.45 2357832 2339194 2334666 2322754 2294048 2272584
3334.34 2248158 2220974 2203346 2169562 2144094 2136208
3337.23 2119734 2100340 2093078 2102478 2103530 2088298
3340.13 2074814 2054284 2013148 1968372 1951222 1960588
3343.02 1999776 2055864 2080212 2074776 2052018 2039118
3345.91 2042354 2027968 2018450 2010712 1968230 1907108
3348.80 1848802 1805440 1796746 1793858 1751446 1702296
3351.70 1697464 1717660 1720218 1706370 1674392 1622164
3354.59 1604260 1624310 1620568 1590224 1547508 1512798
3357.48 1493032 1462020 1426264 1413052 1407130 1394822
3360.37 1406088 1414794 1368132 1315370 1324516 1326320
3363.27 1290954 1263064 1252268 1257008 1236210 1202908
3366.16 1188882 1180692 1176172 1187368 1198384 1182768
3369.05 1173616 1206576 1251514 1270070 1276208 1297994
3371.95 1330222 1344888 1328168 1310800 1335344 1383306
3374.84 1417500 1448632 1486092 1505608 1521968 1575476
3377.73 1649126 1672756 1666086 1691420 1740272 1783850
3380.62 1821530 1853386 1891538 1948266 1996436 2039304
3383.52 2088654 2130556 2189268 2271380 2337694 2357106
3386.41 2369600 2388748 2383358 2371224 2366176 2366136
3389.30 2382476 2376402 2357646 2366626 2365882 2344748
3392.19 2320432 2294324 2286916 2290154 2281520 2288002
3395.09 2308434 2317800 2309616 2270274 2220882 2174380
3397.98 2109476 2051584 2026068 2013108 1994450 1967024
3400.87 1922810 1869352 1814594 1772600 1773774 1779872
3403.77 1721142 1631746 1573904 1552900 1555028 1541498
3406.66 1503820 1479820 1456158 1435312 1414476 1354268
3409.55 1284600 1247652 1231180 1195536 1155228 1135676
3412.44 1123150 1111968 1099470 1082788 1059892 1049476
3415.34 1047254 1041826 1060934 1094490 1098584 1088432
3418.23 1090922 1105338 1121458 1120710 1111872 1104464
3421.12 1112812 1150552 1193032 1211308 1206512 1217856
3424.01 1244614 1261886 1280756 1294492 1304186 1333070
3426.91 1357030 1366170 1396118 1439624 1462878 1492986
3429.80 1544314 1587808 1589902 1576986 1592906 1611582
3432.69 1618964 1606068 1575210 1578436 1620346 1657714
3435.59 1669016 1666064 1685600 1711756 1721186 1731688
3438.48 1715776 1687438 1679590 1688480 1715140 1724372
3441.37 1680502 1638956 1637538 1650830 1644364 1604436
3444.26 1547880 1510298 1514732 1521170 1502846 1471786
3447.16 1435018 1403156 1363324 1319558 1295192 1274840
3450.05 1237018 1183558 1153972 1149434 1136384 1125584
3452.94 1122472 1114090 1089564 1054118 1026836 994578
3455.83 968520 947972 904452 870596 870864 873690
3458.73 865076 833486 801852 793378 800878 819098
3461.62 825548 833470 843398 840348 843420 829806
3464.51 799870 803852 807450 779900 758668 789620
3467.40 835374 832924 822702 846156 886180 905676
3470.30 913156 920272 913496 919762 938370 953066
3473.19 978982 1009402 1015310 999430 1000452 1041456
3476.08 1092026 1117370 1153042 1212292 1239280 1231900
3478.98 1240156 1252722 1245946 1235374 1232460 1243034
3481.87 1254980 1259660 1245768 1213468 1203874 1218374
3484.76 1216548 1197452 1171204 1155680 1137212 1119714
3487.65 1136992 1152980 1121452 1083180 1062444 1039552
3490.55 1031966 1026742 1025404 1020054 1006638 1012074
3493.44 1000322 947284 889880 868886 870950 842962
3496.33 798300 768364 746612 729482 714480 688132
3499.22 663070 654126 635360 602824 578762 556902
3502.12 534056 504338 476528 464492 459578 471474
3505.01 460764 407748 363044 340618 328632 333664
3507.90 341994 325564 312844 310606 296410 281312
3510.80 266180 260726 265430 250380 225912 216446
3513.69 194290 164060 146770 142960 160994 198162
3516.58 218970 196832 160710 145968 153104 162098
3519.47 148876 118464 122566 150012 150992 139458
3522.37 145802 171030 183518 167622 138820 108180
3525.26 80566 78782 105944 116474 102290 97070
3528.15 115614 127812 110756 91644 97410 123150
3531.04 121836 75330 40888 53860 76442 80036
3533.94 80814 84574 95266 113350 118266 117744
3536.83 112868 103578 112474 126950 122284 101454
3539.72 85752 86072 100062 103548 87456 82352
3542.62 79564 65468 75956 117182 129998 92778
3545.51 75402 133042 189312 155014 102744 106198
3548.40 97122 64378 59550 89426 121746 130194
3551.29 132208 127916 88936 54774 65526 91762
3554.19 96730 85920 87634 90000 83434 92772
3557.08 104568 94960 99406 108238 86916 63914
3559.97 59118 72780 89530 81676 68184 68958
3562.86 72800 84240 95868 89874 104638 150644
3565.76 179562 167346 149170 171628 184146 136032
3568.65 93500 70754 40100 31602 37074 48926
3571.54 63110 48122 17576 24462 55740 58056
3574.44 62682 77370 69986 56042 37548 27492
3577.33 53840 95928 118750 113386 90376 55606
3580.22 31516 45574 60426 57272 52652 44788
3583.11 37406 41598 74232 116882 136084 153822
3586.01 181832 162964 118594 138194 223052 234462
3588.90 150496 97162 73716 54838 59392 76910
3591.79 97490 114152 111022 85234 63930 79424
3594.68 120434 125000 88032 54320 48256 69472
3597.58 91410 93256 100960 114404 113952 126746
3600.47 150094 150554 126526 96726 100668 115750
3603.36 94598 64452 55544 82372 117762 153306
3606.26 203992 224226 167554 117434 211272 359020
3609.15 309028 165450 113274 103484 131702 227052
3612.04 292594 241510 172476 186748 224420 202316
3614.93 154658 136096 135476 145588 186376 200762
3617.83 157806 179158 316810 362116 224860 127778
3620.72 123690 125394 121006 109636 102604 95812
3623.61 90174 98774 99314 99008 114778 136470
3626.50 141968 174974 321600 436044 437436 514098
3629.40 467408 245534 140594 133534 124678 115294
3632.29 112152 143862 191524 174118 121704 78608
3635.18 64528 77886 83630 82876 84702 106330
3638.08 130284 122760 98230 84100 95136 106774
3640.97 91724 81242 91764 101340 98566 100228
3643.86 109798 114066 117618 125268 162852 252384
3646.75 330448 293294 219112 326346 535874 493114
3649.65 321498 296256 299194 229270 139396 105158
3652.54 92262 76950 69920 80382 116894 188774
3655.43 333226 389336 254926 139482 110320 101264
3658.32 104416 107136 82314 67936 93324 110342
3661.22 102142 101102 114216 136238 152428 154232
3664.11 145804 140446 147662 154984 157192 161190
3667.00 160710 197486 318086 382280 303410 316164
3669.90 569018 691178 461960 256378 197952 197438
3672.79 221340 252696 346900 506140 593744 666512
3675.68 644970 421076 274478 257824 257182 257572
3678.57 294364 344892 313594 247640 222756 228410
3681.47 237600 233496 234438 253970 268950 265324
3684.36 258376 276902 316092 334446 320974 339586
3687.25 537732 872856 869928 556354 392812 391124
3690.14 463246 548466 506762 393154 345566 341454
3693.04 347798 354546 377258 408290 407314 393192
3695.93 394690 394284 391330 404384 425546 430876
3698.82 437204 443508 435092 468538 568084 624162
3701.72 584810 538880 521122 497264 478218 483202
3704.61 495026 504522 505340 487974 486086 507830
3707.50 531104 577368 691916 765628 701602 621146
3710.39 599710 676014 889808 969976 755654 565038
3713.29 519490 521172 532982 528272 502074 456364
3716.18 412646 398272 410206 445836 479328 461764
3719.07 417540 387654 362824 372680 435574 514430
3721.96 515456 439462 377816 364644 386640 407722
3724.86 407526 407880 452584 456874 394474 373544
3727.75 367008 325706 294660 306108 335624 344836
3730.64 376738 552056 721618 614782 419884 363680
3733.54 404126 484552 537920 509144 480546 603224
3736.43 660074 511278 421022 416344 383242 355852
3739.32 347636 343492 351646 359712 340170 321024
3742.21 347356 436104 646334 1065784 1332594 1018082
3745.11 563554 378444 336878 360598 411562 427880
3748.00 498068 781290 973708 748806 473380 407198
3750.89 522462 845488 993826 690678 393176 322116
3753.78 324118 330170 336406 350354 388470 419014
3756.68 384306 336242 330870 365634 439858 526536
3759.57 528938 426404 353474 356944 374574 384780
3762.46 396536 390924 386980 395130 400992 453434
3765.35 499976 446512 408502 428316 434800 428302
3768.25 426890 486694 613656 628660 520288 443082
3771.14 417802 427446 444048 437224 439434 469458
3774.03 478836 465882 472676 490036 508066 509964
3776.93 500208 495544 502620 553960 627262 633528
3779.82 586976 552362 542902 561740 582608 605310
3782.71 615586 588492 571344 584550 580068 581326
3785.60 605642 623150 642330 648050 629246 617448
3788.50 613914 623314 646190 646816 621104 583416
3791.39 568512 587392 613740 635112 628070 602524
3794.28 595432 626532 702732 772062 746162 692764
3797.17 679614 669582 668606 674422 689782 729630
3800.07 857020 1154904 1278526 1002846 779602 753902
3802.96 729902 686080 657452 654494 663278 705134
3805.85 856840 1056062 1016846 784848 675114 689330
3808.75 734564 746332 718698 703928 694484 689114
3811.64 712268 740120 735912 726512 753498 782398
3814.53 845802 1094484 1391228 1272892 929520 807282
3817.42 825052 844554 865448 885802 919226 1028660
3820.32 1131216 1170868 1186466 1066326 916214 874490
3823.21 875698 901732 937142 960960 966136 987022
3826.10 1035734 1035440 996608 988762 994380 1003172
3828.99 1007890 990576 997070 1058446 1158758 1187620
3831.89 1114954 1065954 1058410 1069072 1135976 1243064
3834.78 1232162 1109222 1051888 1102476 1328078 1657856
3837.67 1618848 1276368 1111730 1127278 1157666 1182086
3840.57 1209202 1164980 1089250 1054830 1080788 1151644
3843.46 1166230 1094788 1032362 1015960 1017552 1007880
3846.35 993554 990726 985714 992796 1010264 998166
3849.24 975266 975958 1014982 1127916 1394810 1561582
3852.14 1376718 1269018 1590196 1966860 1785434 1262018
3855.03 993586 963804 1002298 1047448 1039530 978426
3857.92 932740 926666 943992 974142 987640 996034
3860.81 1062826 1110470 1058420 1025724 1062996 1089620
3863.71 1125574 1235778 1327186 1252048 1106450 1043350
3866.60 1072064 1113770 1144028 1191460 1251960 1360568
3869.49 1526344 1492762 1281746 1164970 1151398 1189516
3872.39 1256482 1343850 1433772 1474992 1420580 1345790
3875.28 1349608 1383044 1397988 1399972 1404584 1436684
3878.17 1489394 1550642 1628386 1689994 1664604 1608412
3881.06 1588898 1593122 1613110 1642906 1674856 1697036
3883.96 1712078 1788758 1986600 2072594 1922856 1800726
3886.85 1811338 1845580 1876090 1915914 1939968 1950334
3889.74 1982640 2087862 2219990 2195164 2071478 2036674
3892.63 2071650 2111378 2147174 2163396 2147998 2121890
3895.53 2114108 2125066 2143564 2180392 2219040 2266266
3898.42 2377584 2447538 2388628 2332358 2346490 2452298
3901.31 2582786 2575504 2488306 2460260 2574828 2711574
3904.21 2669712 2574696 2550400 2550234 2535190 2539118
3907.10 2565246 2591544 2607734 2622724 2660324 2678142
3909.99 2674152 2705776 2757054 2780106 2794140 2825404
3912.88 2857046 2869706 2875548 2899870 2943206 3004526
3915.78 3058604 3090346 3095806 3040490 2994674 3003816
3918.67 3025634 3070976 3121292 3127284 3094724 3059464
3921.56 3041762 3052056 3093898 3136052 3161682 3191378
3924.45 3216786 3191568 3146288 3124022 3115490 3119066
3927.35 3099612 3066790 3067398 3063922 3015220 2944324
3930.24 2878710 2864250 2892736 2890794 2840946 2785746
3933.13 2753038 2743150 2754388 2753970 2707264 2633880
3936.03 2598948 2621980 2612110 2529794 2450926 2418214
3938.92 2396004 2367160 2351888 2327962 2281840 2233446
3941.81 2231762 2250088 2203250 2137988 2100042 2069628
3944.70 2051844 2059970 2077110 2080952 2068508 2057548
3947.60 2058294 2052680 2034678 1991908 1971894 1998672
3950.49 2007476 2012192 2031188 2050254 2064744 2067850
3953.38 2071340 2062538 2049202 2063314 2090284 2104428
3956.27 2125088 2157418 2182778 2190250 2184078 2188816
3959.17 2188028 2178362 2189700 2225386 2251380 2250118
3962.06 2240404 2243332 2264220 2280430 2275818 2266400
3964.95 2264490 2277256 2301390 2328722 2352888 2376128
3967.85 2386384 2385470 2408178 2434038 2444702 2459656
3970.74 2474164 2472922 2473600 2483070 2484710 2502516
3973.63 2527848 2532838 2560742
##END=
