##TITLE=4-HEPTANONE, (2,4-DINITROPHENYL)HYDRAZONE
##JCAMP-DX=4.24
##DATA TYPE=INFRARED SPECTRUM
##CLASS=COBLENTZ III
##ORIGIN=E. REGION RESEARCH LAB.
##OWNER=COBLENTZ SOCIETY
Collection (C) 2018 copyright by the U.S. Secretary of Commerce
on behalf of the United States of America. All rights reserved.
##DATE=1958/06/12
##NAMES=4-heptanone (2,5-dinitrophenyl)hydrazone
##CAS REGISTRY NO=1655-41-0
##MOLFORM=C13 H18 N4 O4
##SOURCE REFERENCE=COBLENTZ NO. 9697
##$NIST SOURCE=COBLENTZ
##$NIST IMAGE=cob9697
##SPECTROMETER/DATA SYSTEM=PERKIN-ELMER 21 (GRATING)
##INSTRUMENT PARAMETERS=NaCl PRISM
##STATE=SOLID (1.1 mg / 286 mg KBr DISC)
##PATH LENGTH=
$$SPECTRAL CONTAMINATION DUE TO H2O AROUND 3400 CM^-^1
$$ SEE SPECTRUM NO. 9696 FOR "SOLUTION (CS2)" RUN
##SAMPLING PROCEDURE=TRANSMISSION
##RESOLUTION=4
##DATA PROCESSING=DIGITIZED BY NIST FROM HARD COPY (FROM TWO SEGMENTS)
##XUNITS=1/CM
##YUNITS=TRANSMITTANCE
##XFACTOR=1.000000
##YFACTOR=1
##DELTAX=0.705756
##FIRSTX=598.371
##LASTX=4000.82
##FIRSTY=0.914
##MAXX=4000.82
##MINX=598.371
##MAXY=0.927995
##MINY=0.014
##NPOINTS=4822
##XYDATA=(X++(Y..Y))
598.371000 0.9140 0.9120 0.9110 0.9090 0.9080
601.899781 0.9070 0.9050 0.9050 0.9040 0.9020
605.428561 0.9000 0.9000 0.8980 0.8970 0.8970
608.957342 0.8950 0.8940 0.8920 0.8920 0.8910
612.486122 0.8910 0.8900 0.8900 0.8900 0.8900
616.014903 0.8900 0.8900 0.8900 0.8900 0.8900
619.543684 0.8900 0.8880 0.8880 0.8880 0.8870
623.072464 0.8870 0.8850 0.8850 0.8840 0.8840
626.601245 0.8850 0.8850 0.8870 0.8870 0.8880
630.130026 0.8880 0.8900 0.8900 0.8900 0.8910
633.658806 0.8910 0.8920 0.8920 0.8910 0.8910
637.187587 0.8900 0.8900 0.8880 0.8880 0.8870
640.716367 0.8870 0.8840 0.8810 0.8800 0.8740
644.245148 0.8700 0.8630 0.8520 0.8112 0.7951
647.773929 0.7800 0.7330 0.7320 0.7330 0.7450
651.302709 0.7540 0.7640 0.7710 0.7830 0.7979
654.831490 0.8120 0.8320 0.8420 0.8560 0.8710
658.360270 0.8740 0.8850 0.8979 0.9050 0.9120
661.889051 0.9150 0.9210 0.9220 0.9230 0.9260
665.417832 0.9280 0.9250 0.9250 0.9220 0.9190
668.946612 0.9180 0.9180 0.9160 0.9150 0.9150
672.475393 0.9140 0.9110 0.9080 0.9050 0.9010
676.004174 0.8950 0.8880 0.8810 0.8730 0.8630
679.532954 0.8520 0.8390 0.8290 0.8160 0.8070
683.061735 0.8070 0.8140 0.8160 0.8300 0.8420
686.590515 0.8530 0.8660 0.8770 0.8840 0.8900
690.119296 0.9000 0.9050 0.9080 0.9110 0.9110
693.648077 0.9120 0.9140 0.9140 0.9150 0.9150
697.176857 0.9150 0.9160 0.9160 0.9160 0.9140
700.705638 0.9120 0.9110 0.9090 0.9080 0.9040
704.234419 0.9010 0.8980 0.8970 0.8940 0.8920
707.763199 0.8850 0.8760 0.8670 0.8561 0.8500
711.291980 0.8460 0.8280 0.8090 0.7970 0.7840
714.820760 0.7690 0.7610 0.7530 0.7420 0.7291
718.349541 0.7220 0.7010 0.6800 0.6471 0.6151
721.878322 0.5701 0.5561 0.5560 0.5908 0.6318
725.407102 0.6570 0.6800 0.7080 0.7400 0.7699
728.935883 0.7700 0.7690 0.7640 0.7540 0.7460
732.464663 0.7300 0.7140 0.6940 0.6661 0.6421
735.993444 0.6231 0.6051 0.5851 0.5502 0.5072
739.522225 0.4400 0.3570 0.3180 0.2671 0.2161
743.051005 0.2160 0.2429 0.3148 0.4047 0.5494
746.579786 0.6210 0.6710 0.7139 0.7489 0.7739
750.108567 0.7969 0.8010 0.8110 0.8229 0.8290
753.637347 0.8330 0.8360 0.8390 0.8390 0.8380
757.166128 0.8320 0.8220 0.8070 0.7950 0.7830
760.694908 0.7540 0.7300 0.7000 0.7000 0.7848
764.223689 0.8319 0.8360 0.8360 0.8320 0.8300
767.752470 0.8280 0.8260 0.8230 0.8210 0.8180
771.281250 0.8190 0.8300 0.8420 0.8430 0.8460
774.810031 0.8540 0.8640 0.8690 0.8710 0.8710
778.338811 0.8730 0.8740 0.8740 0.8760 0.8760
781.867592 0.8770 0.8770 0.8770 0.8770 0.8780
785.396373 0.8780 0.8780 0.8780 0.8780 0.8770
788.925153 0.8770 0.8770 0.8760 0.8760 0.8740
792.453934 0.8740 0.8740 0.8730 0.8730 0.8710
795.982715 0.8710 0.8700 0.8700 0.8700 0.8690
799.511495 0.8690 0.8690 0.8690 0.8690 0.8690
803.040276 0.8690 0.8700 0.8700 0.8710 0.8730
806.569056 0.8730 0.8710 0.8710 0.8700 0.8700
810.097837 0.8690 0.8690 0.8670 0.8660 0.8640
813.626618 0.8640 0.8630 0.8610 0.8590 0.8590
817.155398 0.8530 0.8520 0.8490 0.8470 0.8400
820.684179 0.8320 0.8210 0.8090 0.8020 0.7970
824.212959 0.7870 0.7800 0.7730 0.7640 0.7590
827.741740 0.7500 0.7261 0.6981 0.6671 0.6192
831.270521 0.5470 0.5210 0.5190 0.5210 0.5639
834.799301 0.5969 0.6180 0.6350 0.6639 0.6660
838.328082 0.6360 0.6150 0.5980 0.5740 0.5421
841.856863 0.5091 0.4761 0.4541 0.4430 0.4191
845.385643 0.4020 0.3870 0.3850 0.3870 0.4220
848.914424 0.4450 0.5298 0.6696 0.7388 0.7759
852.443204 0.7980 0.8000 0.8040 0.8090 0.8160
855.971985 0.8220 0.8350 0.8400 0.8450 0.8460
859.500766 0.8490 0.8500 0.8560 0.8570 0.8590
863.029546 0.8600 0.8610 0.8630 0.8630 0.8640
866.558327 0.8660 0.8670 0.8690 0.8690 0.8690
870.087107 0.8690 0.8670 0.8670 0.8670 0.8670
873.615888 0.8660 0.8660 0.8640 0.8640 0.8630
877.144669 0.8630 0.8610 0.8610 0.8610 0.8610
880.673449 0.8610 0.8610 0.8610 0.8600 0.8600
884.202230 0.8590 0.8590 0.8570 0.8570 0.8560
887.731011 0.8560 0.8540 0.8540 0.8540 0.8530
891.259791 0.8530 0.8530 0.8520 0.8520 0.8500
894.788572 0.8500 0.8490 0.8460 0.8450 0.8420
898.317352 0.8400 0.8290 0.8230 0.8220 0.8160
901.846133 0.8110 0.8080 0.8050 0.8040 0.8010
905.374914 0.8010 0.7910 0.7810 0.7800 0.7700
908.903694 0.7570 0.7500 0.7360 0.7250 0.7110
912.432475 0.6920 0.6661 0.6181 0.5532 0.5291
915.961256 0.4940 0.4260 0.4230 0.4250 0.4500
919.490036 0.4759 0.5219 0.5250 0.5230 0.5160
923.018817 0.4850 0.4560 0.4260 0.4260 0.4520
926.547597 0.4730 0.4940 0.5179 0.5519 0.5978
930.076378 0.6610 0.7000 0.7260 0.7460 0.7690
933.605159 0.7850 0.7970 0.8070 0.8120 0.8180
937.133939 0.8210 0.8260 0.8300 0.8320 0.8350
940.662720 0.8380 0.8380 0.8390 0.8450 0.8500
944.191500 0.8500 0.8520 0.8530 0.8540 0.8560
947.720281 0.8570 0.8590 0.8600 0.8610 0.8630
951.249062 0.8630 0.8640 0.8660 0.8670 0.8690
954.777842 0.8690 0.8700 0.8710 0.8710 0.8710
958.306623 0.8710 0.8710 0.8710 0.8710 0.8710
961.835404 0.8710 0.8710 0.8700 0.8700 0.8700
965.364184 0.8700 0.8690 0.8690 0.8690 0.8670
968.892965 0.8670 0.8670 0.8660 0.8660 0.8660
972.421745 0.8640 0.8640 0.8630 0.8630 0.8610
975.950526 0.8610 0.8600 0.8600 0.8590 0.8590
979.479307 0.8570 0.8570 0.8560 0.8560 0.8560
983.008087 0.8540 0.8540 0.8530 0.8530 0.8520
986.536868 0.8520 0.8500 0.8500 0.8490 0.8460
990.065648 0.8460 0.8450 0.8450 0.8430 0.8420
993.594429 0.8400 0.8390 0.8390 0.8390 0.8400
997.123210 0.8400 0.8420 0.8420 0.8430 0.8430
1000.651990 0.8430 0.8420 0.8400 0.8400 0.8390
1004.180771 0.8380 0.8360 0.8360 0.8350 0.8330
1007.709552 0.8300 0.8290 0.8260 0.8260 0.8250
1011.238332 0.8250 0.8230 0.8210 0.8210 0.8190
1014.767113 0.8150 0.8110 0.8090 0.8050 0.8040
1018.295893 0.8010 0.7980 0.7940 0.7910 0.7870
1021.824674 0.7810 0.7760 0.7710 0.7690 0.7640
1025.353455 0.7590 0.7520 0.7460 0.7420 0.7390
1028.882235 0.7300 0.7250 0.7180 0.7140 0.7050
1032.411016 0.7010 0.6980 0.6910 0.6850 0.6770
1035.939796 0.6710 0.6660 0.6540 0.6300 0.6280
1039.468577 0.5970 0.5940 0.5910 0.5850 0.5701
1042.997358 0.5540 0.5450 0.5380 0.5360 0.5350
1046.526138 0.5330 0.5300 0.5280 0.5260 0.5250
1050.054919 0.5230 0.5220 0.5210 0.5180 0.5160
1053.583700 0.5150 0.5120 0.5090 0.5070 0.5000
1057.112480 0.4840 0.4800 0.4730 0.4730 0.4800
1060.641261 0.4850 0.4880 0.4880 0.4810 0.4760
1064.170041 0.4660 0.4540 0.4390 0.4230 0.4050
1067.698822 0.3970 0.3660 0.3520 0.3261 0.3021
1071.227603 0.2920 0.2730 0.2540 0.2520 0.2530
1074.756383 0.2829 0.2900 0.3109 0.3210 0.3399
1078.285164 0.3560 0.3770 0.3950 0.4120 0.4320
1081.813944 0.4430 0.4560 0.4670 0.4809 0.4969
1085.342725 0.5020 0.5120 0.5150 0.5180 0.5220
1088.871506 0.5250 0.5280 0.5280 0.5290 0.5300
1092.400286 0.5320 0.5320 0.5330 0.5330 0.5350
1095.929067 0.5360 0.5360 0.5380 0.5380 0.5380
1099.457848 0.5360 0.5350 0.5330 0.5330 0.5320
1102.986628 0.5300 0.5290 0.5280 0.5260 0.5250
1106.515409 0.5220 0.5210 0.5180 0.5150 0.5110
1110.044189 0.5090 0.5050 0.5020 0.5010 0.4980
1113.572970 0.4880 0.4800 0.4690 0.4570 0.4470
1117.101751 0.4290 0.4070 0.3970 0.3761 0.3571
1120.630531 0.3420 0.3230 0.3120 0.3040 0.2980
1124.159312 0.2940 0.2910 0.2900 0.2880 0.2850
1127.688093 0.2830 0.2780 0.2690 0.2540 0.2470
1131.216873 0.2300 0.2140 0.1980 0.1830 0.1690
1134.745654 0.1530 0.1450 0.1390 0.1380 0.1390
1138.274434 0.1390 0.1400 0.1470 0.1490 0.1590
1141.803215 0.1630 0.1710 0.1800 0.1950 0.2070
1145.331996 0.2220 0.2360 0.2530 0.2670 0.3039
1148.860776 0.3541 0.4140 0.4700 0.5150 0.5430
1152.389557 0.5430 0.5879 0.6179 0.6499 0.6799
1155.918337 0.7070 0.7220 0.7450 0.7530 0.7630
1159.447118 0.7770 0.7870 0.7950 0.8010 0.8070
1162.975899 0.8120 0.8140 0.8140 0.8140 0.8140
1166.504679 0.8140 0.8140 0.8120 0.8120 0.8110
1170.033460 0.8090 0.8080 0.8070 0.8050 0.8040
1173.562241 0.7980 0.7970 0.7910 0.7850 0.7810
1177.091021 0.7780 0.7690 0.7600 0.7540 0.7500
1180.619802 0.7430 0.7390 0.7330 0.7320 0.7300
1184.148582 0.7300 0.7290 0.7290 0.7300 0.7330
1187.677363 0.7360 0.7360 0.7360 0.7360 0.7330
1191.206144 0.7320 0.7300 0.7250 0.7220 0.7190
1194.734924 0.7140 0.7070 0.7040 0.6830 0.6780
1198.263705 0.6700 0.6630 0.6540 0.6460 0.6390
1201.792485 0.6300 0.6150 0.6050 0.5970 0.5880
1205.321266 0.5800 0.5710 0.5630 0.5540 0.5450
1208.850047 0.5290 0.5090 0.4920 0.4770 0.4610
1212.378827 0.4450 0.4260 0.4070 0.3810 0.3520
1215.907608 0.3330 0.3021 0.2771 0.2531 0.2291
1219.436389 0.2080 0.1880 0.1810 0.1740 0.1690
1222.965169 0.1670 0.1730 0.1850 0.2040 0.2140
1226.493950 0.2300 0.2530 0.2780 0.3080 0.3380
1230.022730 0.3700 0.3999 0.4259 0.4539 0.4779
1233.551511 0.4980 0.5110 0.5390 0.5570 0.5600
1237.080292 0.5590 0.5590 0.5540 0.5470 0.5380
1240.609072 0.5280 0.5150 0.5010 0.4830 0.4690
1244.137853 0.4560 0.4450 0.4230 0.4140 0.4090
1247.666633 0.4050 0.3900 0.3760 0.3190 0.3070
1251.195414 0.2900 0.2730 0.2560 0.2520 0.2251
1254.724195 0.1640 0.1400 0.1110 0.0980 0.0870
1258.252975 0.0660 0.0460 0.0320 0.0230 0.0210
1261.781756 0.0210 0.0180 0.0180 0.0160 0.0150
1265.310537 0.0140 0.0140 0.0140 0.0150 0.0180
1268.839317 0.0220 0.0260 0.0300 0.0350 0.0590
1272.368098 0.0640 0.0740 0.0850 0.0940 0.1090
1275.896878 0.1260 0.1390 0.1430 0.1530 0.1610
1279.425659 0.1670 0.1760 0.1800 0.1840 0.1900
1282.954440 0.1940 0.2010 0.2070 0.2110 0.2150
1286.483220 0.2210 0.2230 0.2280 0.2300 0.2350
1290.012001 0.2380 0.2400 0.2420 0.2360 0.2220
1293.540781 0.2110 0.2040 0.1840 0.1730 0.1630
1297.069562 0.1560 0.1470 0.1380 0.1260 0.1160
1300.598343 0.1090 0.1020 0.0970 0.0910 0.0840
1304.127123 0.0800 0.0570 0.0420 0.0390 0.0350
1307.655904 0.0320 0.0280 0.0250 0.0230 0.0230
1311.184685 0.0250 0.0320 0.0380 0.0430 0.0530
1314.713465 0.0640 0.0810 0.0950 0.1020 0.1230
1318.242246 0.1380 0.1530 0.1760 0.2050 0.2330
1321.771026 0.2690 0.2800 0.3000 0.3040 0.3080
1325.299807 0.3110 0.3080 0.2980 0.2660 0.2490
1328.828588 0.2230 0.2050 0.1801 0.1630 0.1451
1332.357368 0.1210 0.1010 0.0870 0.0710 0.0470
1335.886149 0.0390 0.0320 0.0280 0.0250 0.0190
1339.414930 0.0180 0.0160 0.0160 0.0160 0.0180
1342.943710 0.0180 0.0210 0.0230 0.0250 0.0280
1346.472491 0.0330 0.0380 0.0420 0.0500 0.0610
1350.001271 0.0740 0.0840 0.0970 0.1050 0.1210
1353.530052 0.1350 0.1450 0.1520 0.1560 0.1600
1357.058833 0.1610 0.1630 0.1600 0.1590 0.1590
1360.587613 0.1600 0.1660 0.1710 0.1800 0.1950
1364.116394 0.2090 0.2320 0.2610 0.2909 0.3110
1367.645174 0.3350 0.3530 0.3700 0.3850 0.4050
1371.173955 0.4220 0.4380 0.4520 0.4660 0.4780
1374.702736 0.4940 0.5050 0.5140 0.5190 0.5230
1378.231516 0.5260 0.5320 0.5350 0.5360 0.5380
1381.760297 0.5400 0.5420 0.5460 0.5490 0.5520
1385.289078 0.5560 0.5600 0.5630 0.5670 0.5700
1388.817858 0.5770 0.5800 0.5970 0.6080 0.6140
1392.346639 0.6180 0.6210 0.6220 0.6280 0.6280
1395.875419 0.6260 0.6250 0.6230 0.6190 0.6140
1399.404200 0.6070 0.5970 0.5880 0.5780 0.5690
1402.932981 0.5590 0.5490 0.5330 0.5180 0.5040
1406.461761 0.4880 0.4710 0.4471 0.4221 0.3941
1409.990542 0.3639 0.3360 0.3070 0.2760 0.2460
1413.519322 0.2160 0.1870 0.1560 0.1290 0.1001
1417.048103 0.0920 0.0870 0.0780 0.0740 0.0710
1420.576884 0.0710 0.0710 0.0730 0.0770 0.0830
1424.105664 0.0920 0.1040 0.1160 0.1280 0.1460
1427.634445 0.1520 0.1670 0.1870 0.2080 0.2329
1431.163226 0.2570 0.2800 0.3010 0.3160 0.3260
1434.692006 0.3470 0.3660 0.3830 0.3980 0.4140
1438.220787 0.4280 0.4400 0.4430 0.4430 0.4690
1441.749567 0.4940 0.5280 0.5300 0.5360 0.5380
1445.278348 0.5380 0.5360 0.5330 0.5300 0.5280
1448.807129 0.5250 0.5190 0.5150 0.5110 0.5050
1452.335909 0.5010 0.4920 0.4840 0.4800 0.4710
1455.864690 0.4640 0.4600 0.4530 0.4470 0.4400
1459.393470 0.4350 0.4260 0.4160 0.4140 0.4080
1462.922251 0.4040 0.4000 0.3950 0.3910 0.3870
1466.451032 0.3830 0.3780 0.3780 0.3760 0.3760
1469.979812 0.3770 0.3780 0.3810 0.3850 0.3910
1473.508593 0.4020 0.4160 0.4300 0.4470 0.4630
1477.037374 0.4770 0.4870 0.4980 0.5110 0.5150
1480.566154 0.5230 0.5250 0.5380 0.5470 0.5590
1484.094935 0.5660 0.5670 0.5670 0.5660 0.5570
1487.623715 0.5500 0.5450 0.5390 0.5320 0.5230
1491.152496 0.5090 0.4910 0.4730 0.4520 0.4251
1494.681277 0.3809 0.3300 0.3210 0.3050 0.2810
1498.210057 0.2590 0.2350 0.2260 0.1901 0.1900
1501.738838 0.2690 0.2690 0.2500 0.2380 0.2280
1505.267618 0.2180 0.2040 0.1910 0.1910 0.2000
1508.796399 0.2461 0.2833 0.4970 0.5430 0.6300
1512.325180 0.6710 0.6710 0.5562 0.4432 0.3502
1515.853960 0.2969 0.2710 0.2560 0.2460 0.2450
1519.382741 0.2460 0.2710 0.3499 0.3600 0.3690
1522.911522 0.3690 0.3900 0.4110 0.4320 0.4710
1526.440302 0.4730 0.4810 0.4900 0.5160 0.5180
1529.969083 0.5260 0.5350 0.5430 0.5520 0.5600
1533.497863 0.5690 0.5780 0.5880 0.5980 0.6080
1537.026644 0.6180 0.6190 0.6230 0.6280 0.6300
1540.555425 0.6350 0.6380 0.6420 0.6450 0.6470
1544.084205 0.6490 0.6520 0.6530 0.6530 0.6540
1547.612986 0.6540 0.6560 0.6560 0.6560 0.6560
1551.141767 0.6540 0.6540 0.6540 0.6530 0.6530
1554.670547 0.6530 0.6520 0.6520 0.6520 0.6490
1558.199328 0.6470 0.6460 0.6450 0.6430 0.6430
1561.728108 0.6420 0.6400 0.6390 0.6380 0.6360
1565.256889 0.6330 0.6300 0.6260 0.6210 0.6140
1568.785670 0.6050 0.5950 0.5830 0.5670 0.5490
1572.314450 0.5350 0.5120 0.4840 0.4540 0.4230
1575.843231 0.3940 0.3710 0.3570 0.3520 0.3301
1579.372011 0.2999 0.2569 0.2070 0.1870 0.1700
1582.900792 0.1540 0.1420 0.1300 0.1210 0.1120
1586.429573 0.1050 0.0980 0.0910 0.0840 0.0780
1589.958353 0.0700 0.0460 0.0380 0.0360 0.0290
1593.487134 0.0220 0.0210 0.0220 0.0250 0.0290
1597.015915 0.0400 0.0560 0.0730 0.0920 0.1150
1600.544695 0.1381 0.1600 0.1810 0.2040 0.2220
1604.073476 0.2400 0.2530 0.2630 0.2640 0.2630
1607.602256 0.2600 0.2570 0.2430 0.2260 0.2110
1611.131037 0.1950 0.1810 0.1730 0.1570 0.1400
1614.659818 0.1220 0.1070 0.0940 0.0880 0.0770
1618.188598 0.0640 0.0520 0.0390 0.0260 0.0260
1621.717379 0.0230 0.0230 0.0220 0.0220 0.0210
1625.246159 0.0210 0.0190 0.0190 0.0190 0.0250
1628.774940 0.0391 0.0640 0.0840 0.1020 0.1190
1632.303721 0.1380 0.1560 0.1880 0.2190 0.2470
1635.832501 0.2781 0.3141 0.3541 0.4010 0.4350
1639.361282 0.4610 0.4830 0.5000 0.5120 0.5230
1642.890063 0.5320 0.5390 0.5460 0.5540 0.5630
1646.418843 0.5730 0.5870 0.6050 0.6260 0.6330
1649.947624 0.6380 0.6390 0.6530 0.6610 0.6670
1653.476404 0.6730 0.6830 0.6940 0.6940 0.7040
1657.005185 0.7120 0.7140 0.7150 0.7160 0.7180
1660.533966 0.7190 0.7210 0.7260 0.7320 0.7380
1664.062746 0.7400 0.7430 0.7470 0.7530 0.7530
1667.591527 0.7560 0.7570 0.7590 0.7630 0.7690
1671.120307 0.7740 0.7770 0.7800 0.7810 0.7810
1674.649088 0.7840 0.7870 0.7880 0.7880 0.7900
1678.177869 0.7900 0.7900 0.7900 0.7900 0.7900
1681.706649 0.7900 0.7900 0.7910 0.7970 0.8020
1685.235430 0.8080 0.8110 0.8120 0.8120 0.8140
1688.764211 0.8140 0.8140 0.8140 0.8140 0.8140
1692.292991 0.8140 0.8140 0.8140 0.8140 0.8140
1695.821772 0.8150 0.8190 0.8230 0.8260 0.8260
1699.350552 0.8330 0.8380 0.8400 0.8420 0.8430
1702.879333 0.8450 0.8460 0.8470 0.8490 0.8500
1706.408114 0.8500 0.8520 0.8520 0.8520 0.8520
1709.936894 0.8520 0.8490 0.8470 0.8450 0.8430
1713.465675 0.8420 0.8430 0.8460 0.8520 0.8540
1716.994455 0.8560 0.8570 0.8610 0.8630 0.8630
1720.523236 0.8630 0.8630 0.8630 0.8630 0.8610
1724.052017 0.8610 0.8600 0.8590 0.8590 0.8570
1727.580797 0.8560 0.8560 0.8540 0.8530 0.8530
1731.109578 0.8540 0.8560 0.8570 0.8590 0.8600
1734.638359 0.8610 0.8630 0.8640 0.8640 0.8640
1738.167139 0.8640 0.8630 0.8630 0.8610 0.8610
1741.695920 0.8610 0.8610 0.8600 0.8600 0.8600
1745.224700 0.8600 0.8610 0.8610 0.8630 0.8630
1748.753481 0.8640 0.8660 0.8690 0.8700 0.8700
1752.282262 0.8700 0.8710 0.8700 0.8700 0.8700
1755.811042 0.8700 0.8700 0.8700 0.8700 0.8700
1759.339823 0.8700 0.8700 0.8700 0.8690 0.8690
1762.868604 0.8670 0.8670 0.8660 0.8660 0.8640
1766.397384 0.8640 0.8640 0.8660 0.8690 0.8700
1769.926165 0.8710 0.8730 0.8760 0.8770 0.8780
1773.454945 0.8800 0.8800 0.8800 0.8780 0.8780
1776.983726 0.8770 0.8770 0.8760 0.8760 0.8760
1780.512507 0.8740 0.8740 0.8740 0.8740 0.8740
1784.041287 0.8740 0.8740 0.8740 0.8740 0.8740
1787.570068 0.8740 0.8740 0.8740 0.8760 0.8770
1791.098848 0.8770 0.8770 0.8780 0.8780 0.8780
1794.627629 0.8800 0.8800 0.8810 0.8810 0.8810
1798.156410 0.8810 0.8810 0.8810 0.8810 0.8830
1801.685190 0.8830 0.8830 0.8830 0.8830 0.8830
1805.213971 0.8830 0.8830 0.8830 0.8830 0.8830
1808.742752 0.8830 0.8810 0.8810 0.8810 0.8810
1812.271532 0.8800 0.8780 0.8780 0.8770 0.8770
1815.800313 0.8740 0.8740 0.8710 0.8670 0.8660
1819.329093 0.8610 0.8590 0.8530 0.8500 0.8490
1822.857874 0.8470 0.8460 0.8450 0.8450 0.8430
1826.386655 0.8430 0.8430 0.8450 0.8450 0.8460
1829.915435 0.8470 0.8490 0.8500 0.8530 0.8540
1833.444216 0.8560 0.8560 0.8570 0.8590 0.8610
1836.972996 0.8630 0.8660 0.8670 0.8690 0.8700
1840.501777 0.8710 0.8730 0.8730 0.8740 0.8740
1844.030558 0.8760 0.8760 0.8760 0.8770 0.8770
1847.559338 0.8780 0.8780 0.8780 0.8780 0.8780
1851.088119 0.8780 0.8800 0.8800 0.8800 0.8800
1854.616900 0.8800 0.8800 0.8800 0.8810 0.8810
1858.145680 0.8810 0.8810 0.8810 0.8810 0.8810
1861.674461 0.8810 0.8810 0.8810 0.8810 0.8810
1865.203241 0.8810 0.8830 0.8830 0.8830 0.8840
1868.732022 0.8840 0.8870 0.8880 0.8900 0.8910
1872.260803 0.8920 0.8920 0.8920 0.8920 0.8920
1875.789583 0.8920 0.8920 0.8920 0.8920 0.8920
1879.318364 0.8920 0.8920 0.8920 0.8940 0.8940
1882.847144 0.8940 0.8940 0.8940 0.8940 0.8940
1886.375925 0.8940 0.8940 0.8940 0.8950 0.8950
1889.904706 0.8950 0.8950 0.8950 0.8950 0.8950
1893.433486 0.8950 0.8950 0.8950 0.8950 0.8970
1896.962267 0.8970 0.8970 0.8970 0.8970 0.8970
1900.491048 0.8970 0.8970 0.8970 0.8970 0.8970
1904.019828 0.8970 0.8970 0.8970 0.8970 0.8970
1907.548609 0.8970 0.8970 0.8970 0.8970 0.8970
1911.077389 0.8970 0.8970 0.8970 0.8970 0.8970
1914.606170 0.8970 0.8970 0.8970 0.8970 0.8970
1918.134951 0.8970 0.8970 0.8950 0.8950 0.8950
1921.663731 0.8950 0.8950 0.8940 0.8940 0.8940
1925.192512 0.8940 0.8940 0.8920 0.8920 0.8920
1928.721292 0.8920 0.8910 0.8910 0.8910 0.8910
1932.250073 0.8900 0.8900 0.8900 0.8900 0.8880
1935.778854 0.8880 0.8880 0.8880 0.8870 0.8870
1939.307634 0.8870 0.8850 0.8850 0.8850 0.8850
1942.836415 0.8840 0.8840 0.8840 0.8840 0.8830
1946.365196 0.8830 0.8830 0.8830 0.8810 0.8810
1949.893976 0.8810 0.8810 0.8810 0.8800 0.8800
1953.422757 0.8800 0.8800 0.8800 0.8800 0.8800
1956.951537 0.8800 0.8800 0.8800 0.8800 0.8780
1960.480318 0.8780 0.8780 0.8780 0.8780 0.8770
1964.009099 0.8760 0.8760 0.8760 0.8760 0.8740
1967.537879 0.8740 0.8740 0.8740 0.8740 0.8730
1971.066660 0.8730 0.8710 0.8710 0.8700 0.8700
1974.595441 0.8690 0.8670 0.8660 0.8640 0.8630
1978.124221 0.8630 0.8610 0.8600 0.8590 0.8570
1981.653002 0.8570 0.8570 0.8560 0.8560 0.8540
1985.181782 0.8540 0.8540 0.8540 0.8530 0.8530
1988.710563 0.8530 0.8530 0.8530 0.8540 0.8540
1992.239344 0.8560 0.8570 0.8590 0.8590 0.8610
1995.768124 0.8630 0.8640 0.8660 0.8670 0.8690
1999.296905 0.8700 0.8740 0.8747 0.8755 0.8762
2002.825685 0.8770 0.8777 0.8785 0.8792 0.8800
2006.354466 0.8810 0.8820 0.8829 0.8839 0.8849
2009.883247 0.8859 0.8869 0.8879 0.8880 0.8880
2013.412027 0.8880 0.8880 0.8884 0.8889 0.8894
2016.940808 0.8899 0.8900 0.8900 0.8900 0.8900
2020.469589 0.8900 0.8900 0.8900 0.8900 0.8900
2023.998369 0.8900 0.8900 0.8900 0.8900 0.8900
2027.527150 0.8900 0.8900 0.8900 0.8900 0.8900
2031.055930 0.8900 0.8896 0.8891 0.8886 0.8881
2034.584711 0.8878 0.8876 0.8873 0.8871 0.8870
2038.113492 0.8870 0.8870 0.8870 0.8866 0.8861
2041.642272 0.8856 0.8851 0.8848 0.8846 0.8843
2045.171053 0.8841 0.8838 0.8836 0.8833 0.8831
2048.699833 0.8830 0.8830 0.8830 0.8830 0.8827
2052.228614 0.8822 0.8817 0.8812 0.8810 0.8810
2055.757395 0.8810 0.8810 0.8810 0.8810 0.8810
2059.286175 0.8810 0.8810 0.8810 0.8810 0.8810
2062.814956 0.8813 0.8818 0.8823 0.8828 0.8832
2066.343737 0.8834 0.8837 0.8839 0.8840 0.8840
2069.872517 0.8840 0.8840 0.8841 0.8844 0.8846
2073.401298 0.8849 0.8853 0.8858 0.8863 0.8868
2076.930078 0.8870 0.8870 0.8870 0.8870 0.8871
2080.458859 0.8874 0.8876 0.8879 0.8880 0.8880
2083.987640 0.8880 0.8880 0.8883 0.8888 0.8893
2087.516420 0.8898 0.8900 0.8900 0.8900 0.8900
2091.045201 0.8901 0.8904 0.8906 0.8909 0.8910
2094.573981 0.8910 0.8910 0.8910 0.8910 0.8910
2098.102762 0.8910 0.8910 0.8911 0.8914 0.8916
2101.631543 0.8919 0.8920 0.8920 0.8920 0.8920
2105.160323 0.8920 0.8920 0.8920 0.8920 0.8920
2108.689104 0.8920 0.8920 0.8920 0.8920 0.8920
2112.217885 0.8920 0.8920 0.8920 0.8920 0.8920
2115.746665 0.8920 0.8920 0.8920 0.8920 0.8920
2119.275446 0.8920 0.8920 0.8920 0.8920 0.8920
2122.804226 0.8920 0.8920 0.8920 0.8920 0.8920
2126.333007 0.8920 0.8920 0.8920 0.8920 0.8920
2129.861788 0.8920 0.8920 0.8920 0.8920 0.8920
2133.390568 0.8920 0.8920 0.8920 0.8920 0.8920
2136.919349 0.8920 0.8920 0.8920 0.8920 0.8920
2140.448129 0.8920 0.8920 0.8919 0.8917 0.8914
2143.976910 0.8912 0.8910 0.8910 0.8910 0.8910
2147.505691 0.8910 0.8910 0.8910 0.8910 0.8910
2151.034471 0.8910 0.8910 0.8910 0.8910 0.8910
2154.563252 0.8910 0.8910 0.8910 0.8910 0.8910
2158.092033 0.8910 0.8910 0.8907 0.8905 0.8902
2161.620813 0.8900 0.8900 0.8900 0.8900 0.8900
2165.149594 0.8895 0.8890 0.8885 0.8880 0.8880
2168.678374 0.8880 0.8880 0.8880 0.8877 0.8875
2172.207155 0.8872 0.8870 0.8870 0.8870 0.8870
2175.735936 0.8870 0.8865 0.8860 0.8855 0.8850
2179.264716 0.8850 0.8850 0.8850 0.8850 0.8850
2182.793497 0.8850 0.8850 0.8850 0.8848 0.8845
2186.322278 0.8843 0.8840 0.8840 0.8840 0.8840
2189.851058 0.8840 0.8840 0.8840 0.8840 0.8840
2193.379839 0.8840 0.8840 0.8840 0.8840 0.8842
2196.908619 0.8845 0.8847 0.8850 0.8857 0.8864
2200.437400 0.8872 0.8879 0.8884 0.8889 0.8894
2203.966181 0.8899 0.8902 0.8905 0.8907 0.8910
2207.494961 0.8912 0.8915 0.8917 0.8920 0.8924
2211.023742 0.8929 0.8934 0.8939 0.8942 0.8944
2214.552522 0.8947 0.8949 0.8954 0.8959 0.8964
2218.081303 0.8969 0.8970 0.8970 0.8970 0.8970
2221.610084 0.8970 0.8970 0.8970 0.8970 0.8970
2225.138864 0.8970 0.8970 0.8970 0.8970 0.8970
2228.667645 0.8970 0.8970 0.8970 0.8970 0.8970
2232.196426 0.8970 0.8970 0.8970 0.8970 0.8970
2235.725206 0.8970 0.8970 0.8970 0.8970 0.8967
2239.253987 0.8962 0.8957 0.8952 0.8945 0.8938
2242.782767 0.8930 0.8923 0.8912 0.8900 0.8887
2246.311548 0.8875 0.8865 0.8858 0.8851 0.8843
2249.840329 0.8840 0.8840 0.8840 0.8840 0.8839
2253.369109 0.8836 0.8834 0.8831 0.8830 0.8830
2256.897890 0.8830 0.8830 0.8827 0.8822 0.8817
2260.426670 0.8812 0.8810 0.8810 0.8810 0.8810
2263.955451 0.8813 0.8818 0.8823 0.8828 0.8833
2267.484232 0.8838 0.8843 0.8848 0.8850 0.8850
2271.013012 0.8850 0.8850 0.8852 0.8857 0.8862
2274.541793 0.8867 0.8871 0.8874 0.8876 0.8879
2278.070574 0.8882 0.8887 0.8892 0.8897 0.8901
2281.599354 0.8904 0.8906 0.8909 0.8911 0.8914
2285.128135 0.8916 0.8919 0.8922 0.8927 0.8932
2288.656915 0.8937 0.8940 0.8940 0.8940 0.8940
2292.185696 0.8940 0.8940 0.8940 0.8940 0.8938
2295.714477 0.8933 0.8928 0.8923 0.8920 0.8920
2299.243257 0.8920 0.8920 0.8920 0.8920 0.8920
2302.772038 0.8920 0.8919 0.8917 0.8914 0.8912
2306.300818 0.8910 0.8910 0.8910 0.8910 0.8910
2309.829599 0.8910 0.8910 0.8910 0.8909 0.8907
2313.358380 0.8904 0.8902 0.8900 0.8900 0.8900
2316.887160 0.8900 0.8900 0.8900 0.8900 0.8900
2320.415941 0.8900 0.8900 0.8900 0.8900 0.8900
2323.944722 0.8900 0.8900 0.8900 0.8900 0.8900
2327.473502 0.8900 0.8900 0.8900 0.8900 0.8900
2331.002283 0.8900 0.8900 0.8900 0.8900 0.8900
2334.531063 0.8899 0.8894 0.8889 0.8884 0.8880
2338.059844 0.8880 0.8880 0.8880 0.8880 0.8877
2341.588625 0.8875 0.8872 0.8870 0.8870 0.8870
2345.117405 0.8870 0.8870 0.8870 0.8870 0.8870
2348.646186 0.8870 0.8870 0.8870 0.8870 0.8870
2352.174966 0.8873 0.8875 0.8878 0.8880 0.8880
2355.703747 0.8880 0.8880 0.8880 0.8885 0.8890
2359.232528 0.8895 0.8900 0.8900 0.8900 0.8900
2362.761308 0.8900 0.8900 0.8900 0.8900 0.8900
2366.290089 0.8905 0.8910 0.8915 0.8920 0.8920
2369.818870 0.8920 0.8920 0.8920 0.8918 0.8915
2373.347650 0.8913 0.8910 0.8908 0.8905 0.8903
2376.876431 0.8900 0.8900 0.8900 0.8900 0.8900
2380.405211 0.8896 0.8891 0.8886 0.8881 0.8880
2383.933992 0.8880 0.8880 0.8880 0.8878 0.8875
2387.462773 0.8873 0.8870 0.8870 0.8870 0.8870
2390.991553 0.8870 0.8870 0.8870 0.8870 0.8870
2394.520334 0.8870 0.8870 0.8870 0.8870 0.8870
2398.049115 0.8870 0.8870 0.8870 0.8870 0.8870
2401.577895 0.8870 0.8870 0.8872 0.8874 0.8877
2405.106676 0.8879 0.8880 0.8880 0.8880 0.8880
2408.635456 0.8884 0.8889 0.8894 0.8899 0.8900
2412.164237 0.8900 0.8900 0.8900 0.8900 0.8900
2415.693018 0.8900 0.8900 0.8900 0.8900 0.8900
2419.221798 0.8900 0.8900 0.8900 0.8900 0.8900
2422.750579 0.8900 0.8900 0.8900 0.8900 0.8900
2426.279359 0.8900 0.8900 0.8900 0.8900 0.8900
2429.808140 0.8900 0.8900 0.8900 0.8900 0.8900
2433.336921 0.8900 0.8900 0.8900 0.8900 0.8900
2436.865701 0.8901 0.8904 0.8906 0.8909 0.8910
2440.394482 0.8910 0.8910 0.8910 0.8910 0.8910
2443.923263 0.8910 0.8910 0.8910 0.8910 0.8910
2447.452043 0.8910 0.8910 0.8910 0.8910 0.8910
2450.980824 0.8911 0.8914 0.8916 0.8919 0.8920
2454.509604 0.8920 0.8920 0.8920 0.8922 0.8927
2458.038385 0.8932 0.8937 0.8941 0.8944 0.8946
2461.567166 0.8949 0.8950 0.8950 0.8950 0.8950
2465.095946 0.8952 0.8957 0.8962 0.8967 0.8970
2468.624727 0.8970 0.8970 0.8970 0.8971 0.8973
2472.153507 0.8976 0.8978 0.8982 0.8987 0.8992
2475.682288 0.8997 0.9001 0.9003 0.9006 0.9008
2479.211069 0.9012 0.9020 0.9028 0.9035 0.9041
2482.739849 0.9043 0.9046 0.9048 0.9050 0.9050
2486.268630 0.9050 0.9050 0.9050 0.9050 0.9050
2489.797411 0.9050 0.9051 0.9056 0.9061 0.9066
2493.326191 0.9070 0.9070 0.9070 0.9070 0.9070
2496.854972 0.9070 0.9070 0.9070 0.9070 0.9070
2500.383752 0.9070 0.9070 0.9069 0.9064 0.9059
2503.912533 0.9054 0.9050 0.9050 0.9050 0.9050
2507.441314 0.9050 0.9047 0.9045 0.9042 0.9039
2510.970094 0.9034 0.9029 0.9024 0.9020 0.9017
2514.498875 0.9015 0.9012 0.9010 0.9010 0.9010
2518.027655 0.9010 0.9010 0.9007 0.9005 0.9002
2521.556436 0.9000 0.9000 0.9000 0.9000 0.9000
2525.085217 0.9000 0.9000 0.9000 0.9000 0.9000
2528.613997 0.9000 0.9000 0.9000 0.9000 0.9000
2532.142778 0.9000 0.9000 0.9000 0.9000 0.9000
2535.671559 0.9000 0.9000 0.9000 0.9000 0.9000
2539.200339 0.9000 0.9000 0.9000 0.9000 0.9003
2542.729120 0.9005 0.9008 0.9010 0.9010 0.9010
2546.257900 0.9010 0.9010 0.9010 0.9010 0.9010
2549.786681 0.9010 0.9012 0.9015 0.9017 0.9020
2553.315462 0.9025 0.9030 0.9035 0.9040 0.9042
2556.844242 0.9045 0.9047 0.9050 0.9050 0.9050
2560.373023 0.9050 0.9050 0.9054 0.9059 0.9064
2563.901803 0.9069 0.9072 0.9075 0.9077 0.9080
2567.430584 0.9080 0.9080 0.9080 0.9080 0.9082
2570.959365 0.9085 0.9087 0.9090 0.9090 0.9090
2574.488145 0.9090 0.9090 0.9094 0.9099 0.9104
2578.016926 0.9109 0.9112 0.9114 0.9117 0.9119
2581.545707 0.9120 0.9120 0.9120 0.9120 0.9118
2585.074487 0.9116 0.9113 0.9111 0.9110 0.9110
2588.603268 0.9110 0.9110 0.9106 0.9101 0.9096
2592.132048 0.9092 0.9090 0.9090 0.9090 0.9090
2595.660829 0.9086 0.9081 0.9076 0.9071 0.9066
2599.189610 0.9061 0.9056 0.9052 0.9048 0.9046
2602.718390 0.9043 0.9041 0.9037 0.9032 0.9027
2606.247171 0.9022 0.9017 0.9012 0.9007 0.9002
2609.775952 0.8997 0.8992 0.8987 0.8982 0.8978
2613.304732 0.8976 0.8974 0.8971 0.8967 0.8962
2616.833513 0.8957 0.8952 0.8950 0.8950 0.8950
2620.362293 0.8950 0.8949 0.8946 0.8944 0.8941
2623.891074 0.8940 0.8940 0.8940 0.8940 0.8937
2627.419855 0.8932 0.8927 0.8922 0.8920 0.8920
2630.948635 0.8920 0.8920 0.8919 0.8916 0.8914
2634.477416 0.8911 0.8909 0.8906 0.8904 0.8901
2638.006196 0.8900 0.8900 0.8900 0.8900 0.8900
2641.534977 0.8900 0.8900 0.8900 0.8900 0.8900
2645.063758 0.8900 0.8900 0.8900 0.8900 0.8900
2648.592538 0.8900 0.8900 0.8900 0.8900 0.8900
2652.121319 0.8900 0.8900 0.8900 0.8900 0.8900
2655.650100 0.8900 0.8900 0.8900 0.8900 0.8900
2659.178880 0.8900 0.8900 0.8901 0.8903 0.8906
2662.707661 0.8908 0.8910 0.8910 0.8910 0.8910
2666.236441 0.8912 0.8920 0.8927 0.8935 0.8941
2669.765222 0.8943 0.8946 0.8948 0.8951 0.8956
2673.294003 0.8961 0.8966 0.8970 0.8970 0.8970
2676.822783 0.8970 0.8970 0.8970 0.8970 0.8970
2680.351564 0.8970 0.8970 0.8970 0.8970 0.8970
2683.880344 0.8970 0.8970 0.8970 0.8969 0.8964
2687.409125 0.8959 0.8954 0.8950 0.8950 0.8950
2690.937906 0.8950 0.8950 0.8947 0.8945 0.8942
2694.466686 0.8939 0.8934 0.8929 0.8924 0.8920
2697.995467 0.8917 0.8915 0.8912 0.8909 0.8902
2701.524248 0.8894 0.8887 0.8879 0.8869 0.8859
2705.053028 0.8849 0.8839 0.8832 0.8824 0.8817
2708.581809 0.8810 0.8810 0.8810 0.8810 0.8809
2712.110589 0.8802 0.8794 0.8787 0.8780 0.8780
2715.639370 0.8780 0.8780 0.8780 0.8777 0.8775
2719.168151 0.8772 0.8770 0.8770 0.8770 0.8770
2722.696931 0.8770 0.8768 0.8765 0.8763 0.8760
2726.225712 0.8760 0.8760 0.8760 0.8760 0.8760
2729.754492 0.8760 0.8760 0.8760 0.8755 0.8750
2733.283273 0.8745 0.8740 0.8740 0.8740 0.8740
2736.812054 0.8740 0.8740 0.8740 0.8740 0.8740
2740.340834 0.8740 0.8740 0.8740 0.8740 0.8733
2743.869615 0.8726 0.8718 0.8711 0.8710 0.8710
2747.398396 0.8710 0.8710 0.8708 0.8705 0.8703
2750.927176 0.8700 0.8694 0.8686 0.8679 0.8671
2754.455957 0.8664 0.8656 0.8649 0.8641 0.8638
2757.984737 0.8635 0.8633 0.8631 0.8622 0.8612
2761.513518 0.8602 0.8592 0.8578 0.8563 0.8548
2765.042299 0.8533 0.8522 0.8512 0.8502 0.8492
2768.571079 0.8478 0.8463 0.8449 0.8434 0.8422
2772.099860 0.8413 0.8403 0.8393 0.8377 0.8360
2775.628640 0.8342 0.8325 0.8313 0.8303 0.8293
2779.157421 0.8283 0.8263 0.8238 0.8213 0.8188
2782.686202 0.8173 0.8163 0.8153 0.8143 0.8135
2786.214982 0.8128 0.8120 0.8113 0.8105 0.8098
2789.743763 0.8090 0.8083 0.8074 0.8064 0.8054
2793.272544 0.8044 0.8035 0.8028 0.8020 0.8013
2796.801324 0.8005 0.7998 0.7990 0.7983 0.7975
2800.330105 0.7968 0.7961 0.7953 0.7943 0.7930
2803.858885 0.7918 0.7905 0.7893 0.7881 0.7868
2807.387666 0.7856 0.7841 0.7823 0.7806 0.7788
2810.916447 0.7771 0.7754 0.7736 0.7719 0.7698
2814.445227 0.7673 0.7648 0.7623 0.7602 0.7584
2817.974008 0.7567 0.7549 0.7508 0.7437 0.7367
2821.502789 0.7296 0.7218 0.7134 0.7049 0.6965
2825.031569 0.6883 0.6803 0.6723 0.6644 0.6570
2828.560350 0.6503 0.6436 0.6368 0.6303 0.6241
2832.089130 0.6179 0.6117 0.6069 0.6042 0.6014
2835.617911 0.5987 0.5937 0.5853 0.5768 0.5684
2839.146692 0.5609 0.5552 0.5495 0.5438 0.5362
2842.675472 0.5250 0.5138 0.5026 0.4948 0.4940
2846.204253 0.4933 0.4925 0.4920 0.4920 0.4920
2849.733033 0.4920 0.4922 0.4927 0.4932 0.4937
2853.261814 0.4949 0.4976 0.5003 0.5031 0.5060
2856.790595 0.5095 0.5130 0.5165 0.5204 0.5256
2860.319375 0.5309 0.5361 0.5406 0.5431 0.5456
2863.848156 0.5481 0.5505 0.5528 0.5550 0.5572
2867.376937 0.5599 0.5641 0.5683 0.5726 0.5765
2870.905717 0.5792 0.5820 0.5847 0.5874 0.5899
2874.434498 0.5924 0.5949 0.5971 0.5982 0.5992
2877.963278 0.6002 0.6010 0.6013 0.6015 0.6018
2881.492059 0.6020 0.6020 0.6020 0.6020 0.6020
2885.020840 0.6020 0.6020 0.6020 0.6019 0.6006
2888.549620 0.5994 0.5981 0.5968 0.5945 0.5923
2892.078401 0.5901 0.5870 0.5733 0.5596 0.5460
2895.607181 0.5327 0.5265 0.5202 0.5140 0.5078
2899.135962 0.5003 0.4928 0.4854 0.4779 0.4707
2902.664743 0.4635 0.4563 0.4491 0.4303 0.4114
2906.193523 0.3925 0.3740 0.3732 0.3725 0.3717
2909.722304 0.3710 0.3708 0.3705 0.3703 0.3700
2913.251085 0.3700 0.3700 0.3700 0.3700 0.3698
2916.779865 0.3695 0.3693 0.3690 0.3685 0.3680
2920.308646 0.3675 0.3670 0.3654 0.3637 0.3619
2923.837426 0.3602 0.3576 0.3548 0.3521 0.3493
2927.366207 0.3460 0.3425 0.3390 0.3355 0.3310
2930.894988 0.3262 0.3215 0.3168 0.3114 0.3058
2934.423768 0.3003 0.2947 0.2936 0.2931 0.2926
2937.952549 0.2921 0.2924 0.2929 0.2934 0.2939
2941.481329 0.3004 0.3081 0.3158 0.3235 0.3308
2945.010110 0.3380 0.3452 0.3524 0.3593 0.3660
2948.538891 0.3727 0.3794 0.4030 0.4318 0.4607
2952.067671 0.4895 0.5034 0.5121 0.5208 0.5296
2955.596452 0.5427 0.5576 0.5726 0.5875 0.6002
2959.125233 0.6118 0.6235 0.6352 0.6468 0.6585
2962.654013 0.6701 0.6817 0.6896 0.6961 0.7025
2966.182794 0.7090 0.7177 0.7274 0.7371 0.7468
2969.711574 0.7518 0.7546 0.7573 0.7600 0.7647
2973.240355 0.7704 0.7761 0.7819 0.7852 0.7872
2976.769136 0.7892 0.7912 0.7940 0.7972 0.8004
2980.297916 0.8037 0.8053 0.8058 0.8063 0.8068
2983.826697 0.8083 0.8105 0.8127 0.8150 0.8168
2987.355477 0.8183 0.8198 0.8213 0.8225 0.8235
2990.884258 0.8245 0.8256 0.8264 0.8272 0.8279
2994.413039 0.8287 0.8294 0.8301 0.8309 0.8316
2997.941819 0.8329 0.8346 0.8364 0.8381 0.8399
3001.470600 0.8416 0.8433 0.8451 0.8468 0.8486
3004.999381 0.8503 0.8520 0.8529 0.8526 0.8524
3008.528161 0.8521 0.8522 0.8527 0.8532 0.8537
3012.056942 0.8540 0.8540 0.8540 0.8540 0.8539
3015.585722 0.8537 0.8534 0.8532 0.8530 0.8530
3019.114503 0.8530 0.8530 0.8526 0.8516 0.8506
3022.643284 0.8496 0.8487 0.8480 0.8472 0.8465
3026.172064 0.8457 0.8450 0.8442 0.8435 0.8427
3029.700845 0.8420 0.8413 0.8405 0.8389 0.8354
3033.229626 0.8319 0.8285 0.8235 0.8151 0.8066
3036.758406 0.7981 0.7898 0.7815 0.7733 0.7651
3040.287187 0.7588 0.7581 0.7573 0.7566 0.7559
3043.815967 0.7554 0.7549 0.7544 0.7539 0.7537
3047.344748 0.7534 0.7532 0.7528 0.7521 0.7513
3050.873529 0.7506 0.7499 0.7497 0.7494 0.7492
3054.402309 0.7489 0.7484 0.7479 0.7474 0.7468
3057.931090 0.7455 0.7443 0.7430 0.7415 0.7385
3061.459870 0.7356 0.7326 0.7293 0.7246 0.7199
3064.988651 0.7152 0.7100 0.7018 0.6936 0.6854
3068.517432 0.6776 0.6734 0.6691 0.6649 0.6606
3072.046212 0.6551 0.6496 0.6442 0.6388 0.6353
3075.574993 0.6317 0.6282 0.6250 0.6245 0.6240
3079.103774 0.6235 0.6231 0.6238 0.6245 0.6253
3082.632554 0.6265 0.6364 0.6464 0.6563 0.6662
3086.161335 0.6724 0.6786 0.6848 0.6910 0.6980
3089.690115 0.7050 0.7119 0.7189 0.7266 0.7343
3093.218896 0.7420 0.7497 0.7567 0.7637 0.7706
3096.747677 0.7776 0.7836 0.7896 0.7956 0.8015
3100.276457 0.8059 0.8101 0.8143 0.8186 0.8206
3103.805238 0.8224 0.8241 0.8259 0.8281 0.8303
3107.334018 0.8326 0.8348 0.8361 0.8374 0.8386
3110.862799 0.8399 0.8411 0.8424 0.8436 0.8448
3114.391580 0.8454 0.8459 0.8464 0.8469 0.8474
3117.920360 0.8479 0.8484 0.8489 0.8490 0.8490
3121.449141 0.8490 0.8490 0.8496 0.8503 0.8511
3124.977922 0.8518 0.8520 0.8520 0.8520 0.8520
3128.506702 0.8522 0.8524 0.8527 0.8529 0.8530
3132.035483 0.8530 0.8530 0.8530 0.8530 0.8530
3135.564263 0.8530 0.8530 0.8530 0.8530 0.8530
3139.093044 0.8530 0.8530 0.8530 0.8530 0.8530
3142.621825 0.8528 0.8526 0.8523 0.8521 0.8520
3146.150605 0.8520 0.8520 0.8520 0.8520 0.8520
3149.679386 0.8520 0.8520 0.8517 0.8512 0.8507
3153.208166 0.8502 0.8500 0.8500 0.8500 0.8500
3156.736947 0.8500 0.8500 0.8500 0.8500 0.8500
3160.265728 0.8500 0.8500 0.8500 0.8500 0.8500
3163.794508 0.8500 0.8500 0.8500 0.8500 0.8500
3167.323289 0.8500 0.8500 0.8500 0.8500 0.8500
3170.852070 0.8499 0.8496 0.8494 0.8491 0.8490
3174.380850 0.8490 0.8490 0.8490 0.8490 0.8490
3177.909631 0.8490 0.8490 0.8488 0.8483 0.8478
3181.438411 0.8473 0.8470 0.8470 0.8470 0.8470
3184.967192 0.8469 0.8466 0.8464 0.8461 0.8459
3188.495973 0.8456 0.8454 0.8451 0.8450 0.8450
3192.024753 0.8450 0.8450 0.8448 0.8443 0.8438
3195.553534 0.8433 0.8429 0.8426 0.8424 0.8421
3199.082314 0.8420 0.8420 0.8420 0.8420 0.8418
3202.611095 0.8413 0.8408 0.8403 0.8399 0.8397
3206.139876 0.8394 0.8392 0.8389 0.8387 0.8384
3209.668656 0.8382 0.8378 0.8373 0.8368 0.8363
3213.197437 0.8359 0.8357 0.8354 0.8352 0.8349
3216.726218 0.8344 0.8339 0.8333 0.8330 0.8330
3220.254998 0.8330 0.8330 0.8329 0.8327 0.8324
3223.783779 0.8322 0.8319 0.8314 0.8309 0.8304
3227.312559 0.8299 0.8297 0.8294 0.8292 0.8289
3230.841340 0.8287 0.8284 0.8282 0.8279 0.8274
3234.370121 0.8269 0.8264 0.8259 0.8251 0.8244
3237.898901 0.8236 0.8228 0.8218 0.8208 0.8199
3241.427682 0.8189 0.8179 0.8169 0.8159 0.8149
3244.956463 0.8139 0.8129 0.8119 0.8108 0.8093
3248.485243 0.8078 0.8063 0.8049 0.8039 0.8029
3252.014024 0.8019 0.8007 0.7982 0.7957 0.7933
3255.542804 0.7907 0.7880 0.7853 0.7825 0.7797
3259.071585 0.7749 0.7702 0.7655 0.7608 0.7563
3262.600366 0.7518 0.7474 0.7428 0.7361 0.7294
3266.129146 0.7227 0.7159 0.7045 0.6930 0.6816
3269.657927 0.6702 0.6389 0.6073 0.5757 0.5441
3273.186707 0.5318 0.5202 0.5086 0.4970 0.4846
3276.715488 0.4721 0.4597 0.4473 0.4351 0.4229
3280.244269 0.4107 0.3985 0.3980 0.3980 0.3980
3283.773049 0.3980 0.4066 0.4158 0.4250 0.4342
3287.301830 0.4432 0.4521 0.4611 0.4700 0.4792
3290.830611 0.4884 0.4976 0.5068 0.5134 0.5196
3294.359391 0.5259 0.5321 0.5421 0.5528 0.5635
3297.888172 0.5742 0.5907 0.6083 0.6260 0.6436
3301.416952 0.6580 0.6716 0.6853 0.6989 0.7041
3304.945733 0.7079 0.7116 0.7153 0.7178 0.7201
3308.474514 0.7223 0.7246 0.7272 0.7299 0.7327
3312.003294 0.7354 0.7368 0.7378 0.7388 0.7398
3315.532075 0.7404 0.7409 0.7414 0.7419 0.7420
3319.060855 0.7420 0.7420 0.7420 0.7422 0.7424
3322.589636 0.7427 0.7429 0.7430 0.7430 0.7430
3326.118417 0.7430 0.7428 0.7426 0.7423 0.7421
3329.647197 0.7420 0.7420 0.7420 0.7420 0.7417
3333.175978 0.7412 0.7407 0.7402 0.7400 0.7400
3336.704759 0.7400 0.7400 0.7398 0.7396 0.7393
3340.233539 0.7391 0.7388 0.7386 0.7383 0.7381
3343.762320 0.7380 0.7380 0.7380 0.7380 0.7377
3347.291100 0.7372 0.7367 0.7362 0.7359 0.7356
3350.819881 0.7354 0.7351 0.7350 0.7350 0.7350
3354.348662 0.7350 0.7347 0.7342 0.7337 0.7333
3357.877442 0.7330 0.7330 0.7330 0.7330 0.7329
3361.406223 0.7326 0.7324 0.7321 0.7317 0.7312
3364.935003 0.7308 0.7303 0.7299 0.7296 0.7294
3368.463784 0.7291 0.7290 0.7290 0.7290 0.7290
3371.992565 0.7289 0.7286 0.7284 0.7281 0.7280
3375.521345 0.7280 0.7280 0.7280 0.7278 0.7273
3379.050126 0.7268 0.7263 0.7259 0.7257 0.7254
3382.578907 0.7252 0.7250 0.7250 0.7250 0.7250
3386.107687 0.7248 0.7243 0.7238 0.7233 0.7230
3389.636468 0.7230 0.7230 0.7230 0.7230 0.7230
3393.165248 0.7230 0.7230 0.7230 0.7230 0.7230
3396.694029 0.7230 0.7229 0.7227 0.7224 0.7222
3400.222810 0.7220 0.7220 0.7220 0.7220 0.7221
3403.751590 0.7223 0.7226 0.7228 0.7230 0.7230
3407.280371 0.7230 0.7230 0.7230 0.7230 0.7230
3410.809151 0.7230 0.7230 0.7230 0.7230 0.7230
3414.337932 0.7230 0.7230 0.7230 0.7230 0.7232
3417.866713 0.7239 0.7247 0.7254 0.7260 0.7260
3421.395493 0.7260 0.7260 0.7261 0.7266 0.7271
3424.924274 0.7276 0.7280 0.7280 0.7280 0.7280
3428.453055 0.7280 0.7283 0.7285 0.7288 0.7290
3431.981835 0.7293 0.7295 0.7298 0.7300 0.7305
3435.510616 0.7310 0.7315 0.7320 0.7323 0.7325
3439.039396 0.7328 0.7330 0.7338 0.7345 0.7353
3442.568177 0.7360 0.7365 0.7370 0.7375 0.7380
3446.096958 0.7383 0.7385 0.7388 0.7390 0.7390
3449.625738 0.7390 0.7390 0.7390 0.7393 0.7395
3453.154519 0.7398 0.7400 0.7400 0.7400 0.7400
3456.683300 0.7400 0.7407 0.7415 0.7422 0.7430
3460.212080 0.7430 0.7430 0.7430 0.7430 0.7435
3463.740861 0.7440 0.7445 0.7450 0.7450 0.7450
3467.269641 0.7450 0.7450 0.7452 0.7455 0.7457
3470.798422 0.7460 0.7467 0.7474 0.7482 0.7489
3474.327203 0.7497 0.7504 0.7512 0.7519 0.7524
3477.855983 0.7529 0.7534 0.7539 0.7546 0.7554
3481.384764 0.7561 0.7569 0.7578 0.7588 0.7598
3484.913544 0.7608 0.7614 0.7619 0.7624 0.7629
3488.442325 0.7632 0.7634 0.7637 0.7639 0.7644
3491.971106 0.7649 0.7654 0.7659 0.7662 0.7664
3495.499886 0.7667 0.7669 0.7674 0.7679 0.7684
3499.028667 0.7689 0.7692 0.7694 0.7697 0.7699
3502.557448 0.7702 0.7704 0.7707 0.7709 0.7715
3506.086228 0.7723 0.7730 0.7738 0.7740 0.7740
3509.615009 0.7740 0.7740 0.7745 0.7753 0.7760
3513.143789 0.7768 0.7772 0.7774 0.7777 0.7779
3516.672570 0.7783 0.7788 0.7793 0.7798 0.7802
3520.201351 0.7804 0.7807 0.7809 0.7813 0.7818
3523.730131 0.7823 0.7828 0.7831 0.7834 0.7836
3527.258912 0.7839 0.7841 0.7844 0.7846 0.7849
3530.787692 0.7853 0.7858 0.7863 0.7868 0.7871
3534.316473 0.7874 0.7876 0.7879 0.7883 0.7888
3537.845254 0.7893 0.7898 0.7901 0.7904 0.7906
3541.374034 0.7909 0.7910 0.7910 0.7910 0.7910
3544.902815 0.7917 0.7932 0.7947 0.7962 0.7974
3548.431596 0.7981 0.7988 0.7996 0.8004 0.8014
3551.960376 0.8024 0.8034 0.8043 0.8051 0.8058
3555.489157 0.8066 0.8075 0.8088 0.8100 0.8113
3559.017937 0.8123 0.8131 0.8138 0.8146 0.8153
3562.546718 0.8161 0.8168 0.8176 0.8181 0.8183
3566.075499 0.8186 0.8188 0.8196 0.8211 0.8226
3569.604279 0.8240 0.8254 0.8264 0.8273 0.8283
3573.133060 0.8293 0.8300 0.8307 0.8315 0.8322
3576.661840 0.8330 0.8337 0.8345 0.8352 0.8360
3580.190621 0.8367 0.8375 0.8381 0.8383 0.8386
3583.719402 0.8388 0.8391 0.8393 0.8396 0.8398
3587.248182 0.8401 0.8406 0.8411 0.8416 0.8421
3590.776963 0.8423 0.8426 0.8428 0.8431 0.8436
3594.305744 0.8441 0.8446 0.8451 0.8456 0.8461
3597.834524 0.8466 0.8472 0.8479 0.8486 0.8494
3601.363305 0.8501 0.8506 0.8511 0.8516 0.8521
3604.892085 0.8526 0.8531 0.8536 0.8541 0.8549
3608.420866 0.8556 0.8563 0.8571 0.8576 0.8581
3611.949647 0.8586 0.8590 0.8596 0.8601 0.8606
3615.478427 0.8611 0.8616 0.8621 0.8626 0.8630
3619.007208 0.8633 0.8635 0.8638 0.8640 0.8645
3622.535988 0.8650 0.8655 0.8660 0.8663 0.8665
3626.064769 0.8668 0.8670 0.8675 0.8680 0.8685
3629.593550 0.8690 0.8693 0.8695 0.8698 0.8700
3633.122330 0.8702 0.8705 0.8707 0.8710 0.8715
3636.651111 0.8720 0.8725 0.8730 0.8730 0.8730
3640.179892 0.8730 0.8730 0.8732 0.8735 0.8737
3643.708672 0.8740 0.8740 0.8740 0.8740 0.8740
3647.237453 0.8745 0.8750 0.8755 0.8760 0.8760
3650.766233 0.8760 0.8760 0.8760 0.8762 0.8765
3654.295014 0.8767 0.8770 0.8770 0.8770 0.8770
3657.823795 0.8770 0.8772 0.8775 0.8777 0.8780
3661.352575 0.8784 0.8789 0.8794 0.8799 0.8800
3664.881356 0.8800 0.8800 0.8800 0.8800 0.8800
3668.410137 0.8800 0.8800 0.8796 0.8791 0.8786
3671.938917 0.8781 0.8780 0.8780 0.8780 0.8780
3675.467698 0.8780 0.8780 0.8780 0.8780 0.8778
3678.996478 0.8776 0.8773 0.8771 0.8770 0.8770
3682.525259 0.8770 0.8770 0.8770 0.8770 0.8770
3686.054040 0.8770 0.8768 0.8766 0.8763 0.8761
3689.582820 0.8760 0.8760 0.8760 0.8760 0.8757
3693.111601 0.8752 0.8747 0.8742 0.8740 0.8740
3696.640381 0.8740 0.8740 0.8740 0.8740 0.8740
3700.169162 0.8740 0.8738 0.8736 0.8733 0.8731
3703.697943 0.8730 0.8730 0.8730 0.8730 0.8730
3707.226723 0.8730 0.8730 0.8730 0.8730 0.8730
3710.755504 0.8730 0.8730 0.8730 0.8730 0.8730
3714.284285 0.8730 0.8730 0.8730 0.8730 0.8730
3717.813065 0.8730 0.8730 0.8730 0.8730 0.8731
3721.341846 0.8734 0.8736 0.8739 0.8742 0.8747
3724.870626 0.8752 0.8757 0.8761 0.8764 0.8766
3728.399407 0.8769 0.8774 0.8781 0.8789 0.8796
3731.928188 0.8806 0.8819 0.8831 0.8843 0.8852
3735.456968 0.8857 0.8862 0.8867 0.8870 0.8870
3738.985749 0.8870 0.8870 0.8870 0.8870 0.8870
3742.514529 0.8870 0.8870 0.8870 0.8870 0.8870
3746.043310 0.8870 0.8870 0.8870 0.8870 0.8868
3749.572091 0.8863 0.8858 0.8853 0.8850 0.8850
3753.100871 0.8850 0.8850 0.8849 0.8847 0.8844
3756.629652 0.8842 0.8839 0.8837 0.8834 0.8832
3760.158433 0.8830 0.8830 0.8830 0.8830 0.8828
3763.687213 0.8823 0.8819 0.8814 0.8809 0.8807
3767.215994 0.8804 0.8802 0.8800 0.8800 0.8800
3770.744774 0.8800 0.8799 0.8794 0.8789 0.8784
3774.273555 0.8780 0.8780 0.8780 0.8780 0.8780
3777.802336 0.8780 0.8780 0.8780 0.8780 0.8777
3781.331116 0.8775 0.8772 0.8770 0.8770 0.8770
3784.859897 0.8770 0.8770 0.8770 0.8770 0.8770
3788.388677 0.8770 0.8770 0.8770 0.8770 0.8770
3791.917458 0.8770 0.8770 0.8770 0.8770 0.8770
3795.446239 0.8770 0.8770 0.8770 0.8770 0.8770
3798.975019 0.8770 0.8770 0.8770 0.8770 0.8770
3802.503800 0.8770 0.8770 0.8770 0.8770 0.8770
3806.032581 0.8773 0.8775 0.8778 0.8780 0.8780
3809.561361 0.8780 0.8780 0.8780 0.8785 0.8790
3813.090142 0.8795 0.8800 0.8800 0.8800 0.8800
3816.618922 0.8800 0.8800 0.8800 0.8800 0.8800
3820.147703 0.8800 0.8800 0.8800 0.8800 0.8800
3823.676484 0.8800 0.8800 0.8800 0.8800 0.8800
3827.205264 0.8800 0.8800 0.8800 0.8800 0.8800
3830.734045 0.8800 0.8800 0.8800 0.8800 0.8800
3834.262825 0.8800 0.8800 0.8800 0.8800 0.8796
3837.791606 0.8791 0.8786 0.8781 0.8780 0.8780
3841.320387 0.8780 0.8780 0.8780 0.8780 0.8780
3844.849167 0.8780 0.8780 0.8780 0.8780 0.8780
3848.377948 0.8780 0.8780 0.8780 0.8780 0.8778
3851.906729 0.8775 0.8773 0.8770 0.8770 0.8770
3855.435509 0.8770 0.8770 0.8770 0.8770 0.8770
3858.964290 0.8770 0.8770 0.8770 0.8770 0.8770
3862.493070 0.8770 0.8770 0.8770 0.8770 0.8770
3866.021851 0.8770 0.8770 0.8770 0.8770 0.8770
3869.550632 0.8770 0.8770 0.8770 0.8770 0.8770
3873.079412 0.8770 0.8770 0.8770 0.8770 0.8770
3876.608193 0.8768 0.8766 0.8763 0.8761 0.8760
3880.136974 0.8760 0.8760 0.8760 0.8760 0.8760
3883.665754 0.8760 0.8760 0.8760 0.8760 0.8760
3887.194535 0.8760 0.8760 0.8760 0.8760 0.8760
3890.723315 0.8757 0.8752 0.8747 0.8742 0.8740
3894.252096 0.8740 0.8740 0.8740 0.8740 0.8740
3897.780877 0.8740 0.8740 0.8740 0.8740 0.8740
3901.309657 0.8740 0.8739 0.8736 0.8734 0.8731
3904.838438 0.8730 0.8730 0.8730 0.8730 0.8730
3908.367218 0.8730 0.8730 0.8730 0.8730 0.8730
3911.895999 0.8730 0.8730 0.8730 0.8730 0.8730
3915.424780 0.8730 0.8730 0.8730 0.8730 0.8730
3918.953560 0.8730 0.8730 0.8730 0.8730 0.8730
3922.482341 0.8730 0.8730 0.8730 0.8730 0.8730
3926.011122 0.8730 0.8730 0.8730 0.8730 0.8730
3929.539902 0.8730 0.8730 0.8730 0.8730 0.8730
3933.068683 0.8730 0.8730 0.8730 0.8730 0.8728
3936.597463 0.8723 0.8718 0.8713 0.8710 0.8710
3940.126244 0.8710 0.8710 0.8710 0.8710 0.8710
3943.655025 0.8710 0.8710 0.8710 0.8710 0.8710
3947.183805 0.8710 0.8710 0.8710 0.8710 0.8710
3950.712586 0.8710 0.8710 0.8710 0.8710 0.8710
3954.241366 0.8710 0.8710 0.8710 0.8710 0.8710
3957.770147 0.8710 0.8709 0.8707 0.8704 0.8702
3961.298928 0.8700 0.8700 0.8700 0.8700 0.8700
3964.827708 0.8700 0.8700 0.8700 0.8700 0.8700
3968.356489 0.8700 0.8700 0.8700 0.8700 0.8700
3971.885270 0.8700 0.8700 0.8700 0.8700 0.8700
3975.414050 0.8700 0.8697 0.8695 0.8692 0.8690
3978.942831 0.8690 0.8690 0.8690 0.8690 0.8690
3982.471611 0.8690 0.8690 0.8690 0.8690 0.8690
3986.000392 0.8690 0.8690 0.8690 0.8690 0.8690
3989.529173 0.8690 0.8685 0.8680 0.8675 0.8670
3993.057953 0.8670 0.8670 0.8670 0.8670 0.8670
3996.586734 0.8670 0.8670 0.8670 0.8670 0.8670
4000.115514 0.8670 0.8670
##END=
