##TITLE=5-Chlorobenzo[b]thiophene-3-acetic acid
##JCAMP-DX=4.24
##DATA TYPE=INFRARED SPECTRUM
##ORIGIN=EPA-IR VAPOR PHASE LIBRARY
##OWNER=SRD/NIST
Collection (C) 2018 copyright by the U.S. Secretary of Commerce
on behalf of the United States of America. All rights reserved.
##CAS REGISTRY NO=17266-30-7
##MOLFORM=C10 H7 Cl O2 S
##$NIST SOURCE=MSDC-IR
##STATE=gas
##XUNITS=1/CM
##YUNITS=ABSORBANCE
##XFACTOR=1.
##YFACTOR=0.001
##DELTAX=1.92898
##FIRSTX=549.8
##LASTX=4000.7
##FIRSTY=2.852
##MAXX=4000.7
##MINX=549.759
##MAXY=0.042862
##MINY=0
##NPOINTS=1790
##XYDATA=(X++(Y..Y))
549.759 2.852 2.092 1.5663 2.582 3.232 3.602 3.822 3.292 3.952 4.822
569.049 5.752 7.332 8.282 9.402 9.762 9.602 9.752 9.312 8.922 8.612
588.339 8.452 8.982 9.362 9.842 11.242 12.812 14.702 17.262 19.662 21.462
607.628 22.562 22.802 22.372 20.912 18.442 16.382 14.852 13.832 13.372 12.852
626.918 12.482 12.312 11.732 11.132 11.002 10.182 8.872 8.452 7.862 7.252
646.208 7.162 7.192 6.722 6.042 5.432 5.262 5.242 4.912 4.652 4.412
665.498 4.212 3.742 3.172 3.052 3.202 2.932 2.902 2.692 2.242 2.612
684.787 2.812 2.752 2.882 2.822 2.702 2.592 2.442 2.352 2.242 2.162
704.077 2.242 2.332 2.172 1.912 2.062 2.202 2.072 2.172 2.302 1.872
723.367 1.832 1.982 2.102 2.162 1.882 1.722 1.762 1.982 2.182 2.042
742.657 2.172 2.692 2.752 2.622 2.692 3.292 4.002 4.222 4.402 4.572
761.947 4.532 4.752 5.272 5.842 6.442 6.812 7.442 8.372 8.762 8.492
781.236 7.832 7.262 6.652 6.302 6.412 6.332 6.412 6.772 7.292 8.212
800.526 8.782 7.452 5.552 4.922 4.272 3.802 3.742 3.432 3.302 3.762
819.816 4.482 4.552 5.082 6.962 9.102 11.262 13.932 16.422 17.472 17.362
839.106 16.692 15.222 12.852 10.272 7.962 6.672 6.392 6.322 6.102 6.212
858.395 6.742 7.012 7.462 7.722 7.442 7.072 6.332 5.392 4.892 4.552
877.685 3.952 3.532 3.252 3.132 3.092 2.762 2.322 2.242 2.152 2.112
896.975 2.302 2.262 2.132 2.382 2.372 1.962 1.932 1.902 1.882 1.772
916.265 1.892 1.982 1.832 1.712 1.912 2.032 2.252 2.782 2.482 2.262
935.555 2.702 2.752 2.412 2.342 2.292 2.152 1.702 1.4073 1.772 1.992
954.844 1.662 1.702 1.732 1.5083 1.5677 1.4746 1.4839 1.732 1.952 1.812
974.134 1.712 1.832 1.6296 1.5379 1.6513 1.822 1.5608 1.577 1.982 2.112
993.424 2.162 2.082 1.872 1.662 1.852 1.802 1.6338 1.5423 1.722 1.932
1012.714 1.732 1.5712 2.042 2.792 2.722 2.882 3.212 3.492 4.262 4.412
1032.003 4.302 4.632 5.102 5.952 5.972 5.112 4.142 3.632 3.932 3.812
1051.293 3.452 3.362 3.782 4.092 4.262 4.832 5.212 5.572 7.292 9.552
1070.583 12.062 15.382 18.982 22.672 24.322 25.162 26.092 25.782 23.912 21.522
1089.873 19.942 18.382 18.192 19.262 20.402 22.182 23.972 26.202 28.612 31.562
1109.163 35.122 37.662 39.642 40.562 41.052 40.492 38.152 34.412 30.942 28.122
1128.452 24.882 21.222 18.822 18.912 17.912 16.162 15.862 15.552 14.422 13.262
1147.742 12.452 11.782 11.382 10.502 9.122 8.432 7.952 7.452 7.052 6.292
1167.032 5.762 5.632 5.732 5.862 6.022 5.992 5.472 5.192 5.462 5.552
1186.322 5.512 5.042 4.972 5.802 5.692 5.122 5.412 6.602 6.792 6.502
1205.611 6.592 5.942 5.622 6.112 5.762 4.732 5.212 6.692 6.612 5.582
1224.901 4.482 3.722 4.022 3.822 3.712 4.012 4.302 3.952 3.652 3.822
1244.191 4.072 4.612 5.312 5.712 5.662 5.792 5.482 5.102 4.522 3.912
1263.481 3.812 3.252 2.612 2.572 2.732 2.802 2.722 2.602 2.412 2.592
1282.771 2.912 2.882 2.642 2.622 3.032 3.252 3.312 3.352 3.522 3.772
1302.060 3.672 3.432 3.412 3.322 3.232 3.342 3.412 3.412 3.522 3.752
1321.350 3.982 4.132 4.322 4.642 4.892 5.062 5.172 5.232 5.272 5.532
1340.640 5.992 6.232 6.322 6.462 6.802 7.062 7.132 7.382 7.502 7.482
1359.930 7.522 7.572 7.612 7.522 7.352 7.132 6.872 6.582 6.192 5.962
1379.219 5.712 5.302 5.072 4.812 4.392 4.182 3.952 3.682 3.682 3.662
1398.509 3.622 3.792 4.032 4.382 4.972 5.662 6.462 7.562 9.032 10.652
1417.799 12.142 13.552 14.792 15.542 15.762 15.602 15.032 14.192 13.212 12.112
1437.089 11.072 10.062 8.972 7.802 6.582 5.442 4.562 3.892 3.442 3.012
1456.378 2.612 2.472 2.332 2.052 1.862 1.852 1.802 1.702 1.772 1.872
1475.668 1.852 1.822 1.692 1.5975 1.6181 1.5471 1.4958 1.4528 1.4548 1.5778
1494.958 1.6022 1.712 1.882 1.902 1.882 1.952 2.142 2.452 2.832 3.002
1514.248 3.102 3.232 3.192 3.062 3.012 3.072 2.852 2.422 2.282 2.262
1533.538 2.042 1.962 2.102 2.212 2.412 2.512 2.632 2.982 3.222 3.352
1552.827 3.192 3.002 3.072 3.052 3.092 3.102 3.172 3.262 3.402 3.572
1572.117 3.792 4.102 4.312 4.662 4.922 4.972 5.032 5.152 5.212 5.132
1591.407 4.812 4.392 4.072 3.852 3.832 3.422 2.762 2.502 2.182 1.992
1610.697 1.822 1.702 1.652 1.4182 1.2115 1.0946 1.0859 1.1453 0.9788 0.8431
1629.986 0.8716 0.7829 0.8425 0.9153 0.8878 0.8454 0.7998 0.7974 0.7987 0.7765
1649.276 0.8343 0.897 0.7816 0.8428 0.8016 0.69998 0.6135 0.6361 0.852 0.8544
1668.566 0.9287 1.0452 1.1389 1.1366 1.055 0.9055 0.8903 0.9861 0.9883 1.1267
1687.856 1.1509 1.1966 1.2537 1.4435 1.752 1.762 1.732 1.902 2.002 2.122
1707.146 2.352 2.432 2.632 2.912 3.072 3.372 3.782 4.072 4.302 4.582
1726.435 4.992 5.282 5.722 6.322 6.722 7.152 7.692 8.392 9.172 9.962
1745.725 10.952 12.102 13.282 14.502 15.822 17.202 18.712 20.292 21.802 23.382
1765.015 25.142 27.112 29.332 31.712 34.212 36.872 39.362 41.172 42.472 42.862
1784.305 42.112 40.472 38.072 35.192 32.212 29.522 27.082 24.902 22.972 21.002
1803.594 19.082 17.282 15.512 13.812 12.142 10.602 9.292 7.972 6.812 5.912
1822.884 5.052 4.362 3.832 3.502 3.222 2.902 2.702 2.452 2.232 2.102
1842.174 1.822 1.5434 1.4996 1.662 1.752 1.662 1.4287 1.317 1.4376 1.551
1861.464 1.602 1.702 1.732 1.722 1.842 1.962 1.952 1.822 1.712 1.662
1880.754 1.5492 1.2952 1.1223 1.0457 0.9105 0.7998 0.7669 0.9107 0.9691 0.9715
1900.043 0.9851 0.9272 0.9197 0.8692 0.7554 0.852 0.9452 0.9716 1.0707 0.9275
1919.333 0.9027 0.9852 0.9118 0.74519 0.69199 0.68524 0.69597 0.7586 0.7748 0.7585
1938.623 0.72899 0.68317 0.73821 0.73564 0.68928 0.798 0.9576 1.0264 0.8839 0.785
1957.913 0.805 0.72638 0.72455 0.8781 0.794 0.69676 0.8043 0.8084 0.8152 0.8181
1977.202 0.7805 0.8369 0.8166 0.72961 0.7697 0.8284 0.9104 1.0516 1.047 0.941
1996.492 0.7571 0.7662 1.0578 1.0162 0.8786 0.9774 0.9606 0.9063 0.8621 0.69652
2015.782 0.67997 0.652358 0.66433 0.7971 0.9318 0.9282 0.7803 0.817 0.8202 0.8948
2035.072 0.8921 0.7629 0.7982 0.9072 0.9661 0.8529 0.69354 0.70256 0.8566 0.8898
2054.362 0.8142 0.7543 0.6213 0.532 0.74382 0.8665 0.74585 0.72061 0.72426 0.67438
2073.651 0.66539 0.71508 0.71515 0.72009 0.849 0.8471 0.7691 0.70355 0.68817 0.654607
2092.941 0.68428 0.8305 0.762 0.6308 0.654021 0.6986 0.66618 0.67676 0.795 0.8345
2112.231 0.75069 0.6256 0.6071 0.64573 0.548 0.6258 0.68135 0.72543 0.7799 0.67236
2131.521 0.7741 0.9035 0.8229 0.75199 0.775 0.8059 0.74663 0.70292 0.8456 0.8555
2150.810 0.71084 0.759 0.7983 0.74735 0.7955 0.8711 0.8418 0.67436 0.6206 0.73753
2170.100 0.71209 0.656517 0.802 0.9223 0.8036 0.7866 0.8636 0.8588 0.8018 0.70486
2189.390 0.7238 0.9202 1.0869 1.0594 0.8931 0.8588 0.8609 0.8104 0.7737 0.7563
2208.680 0.71326 0.631 0.70575 0.7793 0.8647 0.9156 0.8578 0.9144 0.8152 0.68814
2227.970 0.68759 0.8097 0.9681 0.9211 0.9357 0.9407 0.8698 0.8656 0.9324 0.8485
2247.259 0.8033 0.849 0.8441 0.8941 0.9526 0.8412 0.69563 0.67749 0.66711 0.70154
2266.549 0.7936 0.9385 0.75039 0.543 0.69023 0.8197 0.925 1.059 1.0237 0.8404
2285.839 0.72673 0.73199 0.74084 0.598 0.66811 0.8097 0.8387 0.8935 1.0307 1.157
2305.129 1.1148 1.0151 0.9144 0.9203 0.8451 0.9676 1.0689 1.0611 1.13 0.966
2324.418 1.0417 1.1686 1.0638 1.021 0.9766 1.0055 1.1517 1.1181 0.9744 0.9645
2343.708 1.0445 1.1756 1.1719 1.0255 0.8764 0.9732 1.1823 1.3024 1.1621 0.9184
2362.998 1.1373 1.2353 1.1474 1.0587 0.897 0.8754 0.8982 0.9272 0.9869 0.871
2382.288 0.67323 0.69831 0.8609 0.9908 0.8228 0.74833 0.7878 0.652473 0.5779 0.469
2401.578 0.513 0.7909 0.8247 0.7837 0.867 0.9197 0.9515 0.9219 0.8474 0.9253
2420.867 1.0405 0.95 0.8785 0.8897 0.9624 0.8287 0.7992 0.9197 0.8384 0.71992
2440.157 0.8554 0.9315 0.8237 0.916 0.8856 0.659288 0.5796 0.660195 0.71367 0.7635
2459.447 0.7937 0.8496 0.9971 1.0394 1.0593 0.9605 0.74182 0.814 0.8802 0.8946
2478.737 0.9024 0.7716 0.5786 0.64753 0.8249 0.819 0.8212 0.9526 0.8901 0.7634
2498.026 0.796 0.67138 0.66656 0.8248 0.7588 0.67164 0.7892 0.7593 0.69947 0.7429
2517.316 0.72172 0.5894 0.5838 0.71182 0.6022 0.528 0.6309 0.659223 0.64255 0.70464
2536.606 0.7983 0.7874 0.8753 0.9194 0.841 0.8128 0.796 0.7699 0.9138 1.0241
2555.896 0.8236 0.75189 0.7871 0.67251 0.529 0.72509 0.9993 0.9561 0.69535 0.6651
2575.186 0.772 0.7757 0.7866 0.7573 0.7861 0.7587 0.71523 0.68573 0.7516 0.9437
2594.475 0.9564 0.8849 0.8227 0.7868 0.8175 0.8211 0.7829 0.8772 0.8346 0.8519
2613.765 0.8463 0.5712 0.498 0.6193 0.8307 0.8825 0.8548 0.73136 0.6129 0.64431
2633.055 0.74859 0.7526 0.572 0.64853 0.66917 0.538 0.5801 0.6192 0.8802 0.9342
2652.345 0.74522 0.8055 0.9357 0.73166 0.6243 0.65004 0.48 0.439 0.6137 0.7658
2671.634 0.68695 0.9219 1.0948 0.9027 0.8628 0.9475 1.1531 1.1651 0.7334 0.7929
2690.924 1.015 1.097 1.0398 0.8381 0.8504 0.6397 0.346 0.66761 0.996 0.7835
2710.214 0.8515 0.73746 0.72831 0.981 0.7645 0.67044 0.7335 0.8732 0.8718 0.5925
2729.504 0.64419 0.7556 0.73649 0.661491 0.68043 0.6731 0.624 0.513 0.551 0.887
2748.794 0.8571 0.72436 0.73994 0.7742 0.6825 0.6062 0.67712 0.68374 0.5758 0.5636
2768.083 0.72917 0.6278 0.592 0.69597 0.7774 0.8315 0.7848 0.6804 0.5677 0.5616
2787.373 0.657621 0.9451 0.9655 0.9447 1.0233 1.1125 1.0736 0.8988 0.68955 0.6169
2806.663 0.8409 0.73959 0.73423 0.8583 0.8508 0.7638 0.8044 0.8575 0.56 0.6253
2825.953 0.73316 0.491 0.503 0.5733 0.69232 0.69759 0.8903 1.1109 1.0843 1.0312
2845.242 1.0736 1.0386 1.0193 1.2142 1.1383 0.9411 0.8024 0.968 1.0987 0.8341
2864.532 0.8055 0.8488 0.71278 0.9644 0.9942 0.9162 0.9653 0.8599 0.9081 0.8541
2883.822 0.7907 0.8275 0.8696 0.7566 0.6162 0.8838 1.0183 1.0418 1.1261 1.1811
2903.112 1.001 0.8994 1.1247 1.3415 1.2827 1.1321 1.0506 1.2562 1.6357 1.554
2922.401 1.467 1.742 1.872 1.792 2.092 2.252 2.032 2.082 2.372 2.372
2941.691 2.212 1.892 1.6016 1.752 1.912 1.6095 1.451 1.5086 1.2765 1.1761
2960.981 1.3414 1.5807 1.6363 1.536 1.3998 1.5139 1.732 1.672 1.4017 1.239
2980.271 0.9765 0.8844 0.9254 0.8094 1.0109 1.2229 1.2547 1.1878 1.0706 1.0387
2999.561 1.0909 0.9618 1.0646 1.0998 0.71516 0.5901 1.1549 1.3758 1.2041 1.1653
3018.850 0.7829 0.70529 0.9337 0.9062 0.6737 0.778 0.5932 0.72327 1.0843 0.9328
3038.140 0.74238 0.8857 1.1457 0.9523 0.8697 0.8312 0.9639 1.2495 1.3029 1.2505
3057.430 1.372 1.3277 1.5615 1.812 1.732 1.892 1.992 1.533 1.6106 2.152
3076.720 2.022 1.832 1.852 1.822 1.762 2.042 1.992 1.682 1.4918 1.2243
3096.009 1.0293 1.2404 1.2792 0.8649 0.7084 0.68395 0.8215 1.086 1.228 1.0395
3115.299 0.6864 0.529 0.473 0.475 0.6368 0.9324 1.1576 0.9719 0.6018 0.8591
3134.589 1.0781 0.9066 1.0956 0.74528 0.73558 1.1813 0.9876 0.8597 0.69222 0.5613
3153.879 0.512 0.533 0.584 0.5604 0.6403 0.7578 0.8251 0.69404 0.463 0.491
3173.169 0.54 0.7542 0.8876 0.42 0.537 0.9888 1.0426 1.0584 0.9453 0.9221
3192.458 1.0035 1.1764 0.70009 0.362 0.72983 0.8112 1.0679 1.1708 0.9205 0.862
3211.748 0.8811 0.7856 0.8564 0.7642 0.542 0.69739 0.772 0.9707 1.0703 0.7363
3231.038 0.73039 0.5779 0.387 0.333 0.439 0.495 0.501 0.7792 0.73481 0.464
3250.328 0.428 0.319 0.165 0.45 0.7778 0.8129 0.72748 0.67956 0.52 0.66368
3269.617 0.9397 0.70832 0.55 0.586 0.484 0.415 0.5807 0.73736 0.7681 0.6723
3288.907 0.479 0.365 0.5734 0.6085 0.52 0.544 0.64584 1.0476 1.0259 0.6295
3308.197 0.451 0.382 0.546 0.73008 0.66548 0.66926 0.82 0.511 0.448 0.7919
3327.487 0.7129 0.656046 0.72258 0.7529 0.65863 0.8053 0.71533 0.552 0.5619 0.483
3346.777 0.6062 0.5945 0.654776 0.8498 0.466 0.268 0.273 0.208 0.51 0.73031
3366.066 0.67523 0.6718 0.6002 0.513 0.297 0.294 0.413 0.464 0.69447 0.68857
3385.356 0.71923 0.8442 1.0037 0.9556 0.70121 0.506 0.66397 0.7621 0.574 0.8056
3404.646 0.7545 0.427 0.261 0.255 0.476 0.507 0.421 0.7785 0.66505 0.354
3423.936 0.502 0.488 0.547 0.5672 0.325 0.209 0.5756 0.67115 0.542 0.8202
3443.225 0.8511 0.407 0.314 0.328 0.6101 0.8829 0.7518 0.5959 0.74983 1.0108
3462.515 1.0025 0.8983 0.7105 0.7659 0.5715 0.508 0.67745 0.535 0.532 0.8041
3481.805 1.1016 1.1032 0.5818 0.345 0.6137 0.8293 0.89 0.74679 0.67352 0.785
3501.095 0.8531 0.5628 0.66795 1.0166 0.9476 0.68003 0.66605 0.8117 0.8841 0.8631
3520.385 1.1839 1.5788 1.4844 1.2638 1.1128 1.15 1.4147 1.672 1.772 1.852
3539.674 1.862 2.312 2.322 2.052 2.442 2.652 2.722 2.972 3.512 4.162
3558.964 5.452 7.402 9.752 12.722 16.382 20.232 22.852 24.232 24.432 22.892
3578.254 19.782 15.972 12.022 9.032 6.672 4.742 3.802 3.312 2.862 2.602
3597.544 2.432 2.192 1.812 1.5208 1.4807 1.3741 1.5763 1.2549 0.8168 0.8578
3616.833 0.5803 0.9472 1.1986 1.0302 1.0812 0.71938 0.5891 0.9426 1.1636 0.9692
3636.123 1.0245 0.8746 0.516 0.6273 0.8215 0.761 0.6241 0.67504 0.74747 0.8261
3655.413 0.911 0.68393 0.44 0.445 0.484 0.67275 0.7995 0.9276 0.9795 0.7936
3674.703 0.72043 0.8218 0.8335 0.8287 0.8281 0.438 0.378 0.526 0.502 0.68783
3693.993 0.67824 0.5905 0.68186 0.7621 0.5671 0.352 0.66672 0.8299 0.496 0.451
3713.282 0.278 0.309 0.462 0.6217 1.0083 0.8454 0.5576 0.496 0.52 0.393
3732.572 0.502 0.72536 0.8741 0.8529 0.5603 0.66733 0.752 0.5887 0.496 0.7585
3751.862 0.9671 0.8096 0.69074 0.8065 0.9036 0.469 0.279 0.536 0.7896 0.8201
3771.152 0.429 0.273 0.396 0.361 0.512 0.68837 0.66938 0.69458 0.9362 0.956
3790.441 0.71885 0.8895 1.0107 0.9374 0.7568 0.68211 0.8699 0.75118 0.7566 1.0547
3809.731 0.9047 0.5989 0.285 0 0.235 0.38 0.6332 1.0125 0.7971 0.502
3829.021 0.6222 0.8443 0.9149 0.8276 0.655036 1.0107 1.1989 0.7158 0.70067 0.69052
3848.311 0.365 0.109 0.074 0.6548 0.8053 0.73089 0.8729 0.8182 0.7226 0.6178
3867.601 0.7593 0.73498 0.6037 0.9386 1.0041 0.9746 0.8691 0.67165 0.68992 0.6402
3886.890 0.71942 0.9831 0.527 0.253 0.8827 0.8043 0.543 0.6104 0.325 0.197
3906.180 0.385 0.461 0.5888 0.9688 0.73692 0.8221 1.0856 1.1322 1.0606 0.5732
3925.470 0.541 0.6294 0.7857 0.5893 0.361 0.469 0.6144 0.66548 0.754 0.9679
3944.760 1.1772 1.1289 0.661745 0.5652 0.9283 0.7453 0.203 0.076 0.7608 1.4132
3964.049 1.3064 0.8611 0.511 0.651931 0.8013 0.7813 0.9482 1.0671 1.0355 0.8886
3983.339 0.8191 0.9344 1.0359 0.8909 0.6759 0.8383 0.9119 0.72487 0.6355 0.773
##END=
