##TITLE=Styrene, p-tert-butyl-
##JCAMP-DX=4.24
$$ By DXEDIT 1.05 (RS McDonald)
##DATA TYPE=INFRARED SPECTRUM
##CLASS=COBLENTZ III
##ORIGIN=DOW CHEMICAL COMPANY
##OWNER=COPYRIGHT (C) 1988 by COBLENTZ SOCIETY INC.
Collection (C) 2018 copyright by the U.S. Secretary of Commerce
on behalf of the United States of America. All rights reserved.
##DATE=1966/04/12
##NAMES=1-tert-butyl-4-vinylbenzene
##CAS REGISTRY NO=1746-23-2
##MOLFORM=C12 H16
##SOURCE REFERENCE=COBLENTZ NO. 9977
##$NIST SOURCE=COBLENTZ
##$NIST IMAGE=cob9977
##SPECTROMETER/DATA SYSTEM=DOW KBr FOREPRISM-GRATING
##INSTRUMENT PARAMETERS=BLAZED AT 3.5, 12.0, 20.0 MICRON AND CHANGED AT 5.0, 7.5, 14.9 MICRON
##STATE=SOLUTION (10% CCl4 FOR 3800-1330, 10% CS2 FOR 1330-400 CM^-^1)
##PATH LENGTH=0.010 CM, 0.010 CM
$$SPECTRAL CONTAMINATION DUE TO CS2 AROUND 850, AND CCl4 AROUND 1550 CM^-^1 HAVE BEEN SUBTRACTED
$$SPECTRAL CONTAMINATION DUE TO AN UNKNOWN AROUND 400 CM^-^1
$$ SEE SPECTRUM NO. 9976 FOR "NEAT" RUN
##SAMPLING PROCEDURE=TRANSMISSION
##RESOLUTION=2
##DATA PROCESSING=DIGITIZED BY COBLENTZ SOCIETY (BATCH I) FROM HARD COPY
##XUNITS=1/CM
##YUNITS=TRANSMITTANCE
##XFACTOR=1
##YFACTOR=1
##DELTAX=1
##FIRSTX=3800
##LASTX=386
##FIRSTY=0.9149
##MAXX=3800
##MINX=386
##MAXY=0.9256
##MINY=0.0002
##NPOINTS=3415
##XYDATA=(X++(Y..Y))
3800.000000 0.9149 0.9149 0.9149 0.9150 0.9156
3795.000000 0.9150 0.9157 0.9157 0.9157 0.9156
3790.000000 0.9156 0.9156 0.9156 0.9155 0.9155
3785.000000 0.9155 0.9149 0.9145 0.9145 0.9152
3780.000000 0.9154 0.9145 0.9152 0.9153 0.9153
3775.000000 0.9143 0.9152 0.9152 0.9152 0.9151
3770.000000 0.9151 0.9151 0.9151 0.9150 0.9150
3765.000000 0.9150 0.9150 0.9149 0.9149 0.9149
3760.000000 0.9153 0.9152 0.9148 0.9148 0.9148
3755.000000 0.9148 0.9148 0.9148 0.9149 0.9149
3750.000000 0.9149 0.9149 0.9149 0.9149 0.9149
3745.000000 0.9149 0.9149 0.9149 0.9150 0.9150
3740.000000 0.9150 0.9152 0.9159 0.9159 0.9159
3735.000000 0.9159 0.9154 0.9149 0.9155 0.9159
3730.000000 0.9160 0.9160 0.9161 0.9161 0.9162
3725.000000 0.9162 0.9163 0.9163 0.9163 0.9164
3720.000000 0.9165 0.9156 0.9157 0.9166 0.9167
3715.000000 0.9168 0.9169 0.9170 0.9175 0.9180
3710.000000 0.9179 0.9186 0.9189 0.9190 0.9192
3705.000000 0.9193 0.9194 0.9194 0.9195 0.9195
3700.000000 0.9196 0.9196 0.9197 0.9197 0.9190
3695.000000 0.9188 0.9189 0.9189 0.9189 0.9188
3690.000000 0.9187 0.9186 0.9185 0.9182 0.9174
3685.000000 0.9173 0.9172 0.9171 0.9170 0.9169
3680.000000 0.9168 0.9166 0.9165 0.9164 0.9163
3675.000000 0.9162 0.9162 0.9161 0.9160 0.9159
3670.000000 0.9166 0.9158 0.9157 0.9156 0.9155
3665.000000 0.9154 0.9154 0.9153 0.9152 0.9151
3660.000000 0.9150 0.9149 0.9149 0.9148 0.9147
3655.000000 0.9146 0.9146 0.9145 0.9144 0.9142
3650.000000 0.9142 0.9142 0.9140 0.9138 0.9138
3645.000000 0.9138 0.9138 0.9138 0.9138 0.9138
3640.000000 0.9138 0.9138 0.9138 0.9138 0.9138
3635.000000 0.9138 0.9138 0.9140 0.9148 0.9148
3630.000000 0.9145 0.9138 0.9142 0.9148 0.9148
3625.000000 0.9148 0.9150 0.9150 0.9150 0.9150
3620.000000 0.9150 0.9150 0.9150 0.9150 0.9150
3615.000000 0.9149 0.9149 0.9149 0.9149 0.9149
3610.000000 0.9149 0.9149 0.9141 0.9147 0.9147
3605.000000 0.9147 0.9147 0.9145 0.9141 0.9146
3600.000000 0.9142 0.9137 0.9141 0.9145 0.9145
3595.000000 0.9143 0.9143 0.9143 0.9143 0.9143
3590.000000 0.9143 0.9142 0.9142 0.9142 0.9142
3585.000000 0.9140 0.9140 0.9140 0.9140 0.9140
3580.000000 0.9140 0.9139 0.9139 0.9138 0.9135
3575.000000 0.9132 0.9138 0.9137 0.9133 0.9126
3570.000000 0.9126 0.9125 0.9125 0.9124 0.9123
3565.000000 0.9122 0.9122 0.9121 0.9121 0.9120
3560.000000 0.9120 0.9119 0.9119 0.9118 0.9117
3555.000000 0.9125 0.9116 0.9116 0.9124 0.9123
3550.000000 0.9121 0.9115 0.9121 0.9120 0.9120
3545.000000 0.9115 0.9114 0.9118 0.9118 0.9117
3540.000000 0.9111 0.9114 0.9110 0.9113 0.9116
3535.000000 0.9115 0.9115 0.9114 0.9114 0.9113
3530.000000 0.9113 0.9102 0.9102 0.9101 0.9101
3525.000000 0.9100 0.9100 0.9099 0.9099 0.9099
3520.000000 0.9099 0.9098 0.9098 0.9097 0.9097
3515.000000 0.9096 0.9096 0.9095 0.9095 0.9095
3510.000000 0.9095 0.9094 0.9094 0.9093 0.9093
3505.000000 0.9093 0.9093 0.9092 0.9092 0.9091
3500.000000 0.9091 0.9091 0.9091 0.9089 0.9089
3495.000000 0.9089 0.9089 0.9089 0.9089 0.9088
3490.000000 0.9088 0.9086 0.9086 0.9086 0.9086
3485.000000 0.9085 0.9085 0.9084 0.9084 0.9084
3480.000000 0.9084 0.9083 0.9083 0.9081 0.9081
3475.000000 0.9080 0.9078 0.9078 0.9077 0.9075
3470.000000 0.9074 0.9073 0.9072 0.9069 0.9067
3465.000000 0.9065 0.9063 0.9061 0.9059 0.9055
3460.000000 0.9053 0.9051 0.9049 0.9046 0.9044
3455.000000 0.9042 0.9040 0.9037 0.9036 0.9034
3450.000000 0.9033 0.9030 0.9030 0.9026 0.9026
3445.000000 0.9024 0.9023 0.9021 0.9019 0.9017
3440.000000 0.9016 0.9014 0.9013 0.9011 0.9010
3435.000000 0.9008 0.9007 0.9006 0.9005 0.9004
3430.000000 0.9004 0.9003 0.9003 0.9002 0.9002
3425.000000 0.8993 0.9000 0.9000 0.9000 0.8998
3420.000000 0.8998 0.8997 0.8997 0.8996 0.8996
3415.000000 0.8995 0.8995 0.8995 0.8995 0.8994
3410.000000 0.8994 0.8994 0.8994 0.8999 0.8999
3405.000000 0.8995 0.8996 0.8996 0.8997 0.8997
3400.000000 0.8998 0.8998 0.8999 0.8999 0.9000
3395.000000 0.9000 0.9000 0.9000 0.9001 0.9001
3390.000000 0.9002 0.9002 0.9003 0.9003 0.9003
3385.000000 0.9003 0.9003 0.9002 0.9002 0.9001
3380.000000 0.9001 0.9001 0.9001 0.9000 0.9000
3375.000000 0.8999 0.8999 0.8999 0.8999 0.8998
3370.000000 0.9006 0.8998 0.8997 0.8997 0.8997
3365.000000 0.8996 0.8996 0.8996 0.8996 0.8996
3360.000000 0.8996 0.8996 0.8996 0.8995 0.8995
3355.000000 0.8995 0.8995 0.8995 0.8995 0.8995
3350.000000 0.8995 0.8995 0.8995 0.8995 0.8995
3345.000000 0.9001 0.9003 0.8995 0.9002 0.8994
3340.000000 0.8994 0.8994 0.9003 0.9003 0.9002
3335.000000 0.8993 0.8993 0.8992 0.8992 0.8990
3330.000000 0.8990 0.8989 0.8988 0.8987 0.8987
3325.000000 0.8986 0.8986 0.8983 0.8980 0.8977
3320.000000 0.8974 0.8971 0.8968 0.8965 0.8962
3315.000000 0.8958 0.8956 0.8954 0.8962 0.8960
3310.000000 0.8958 0.8956 0.8954 0.8946 0.8952
3305.000000 0.8950 0.8946 0.8939 0.8938 0.8938
3300.000000 0.8938 0.8938 0.8938 0.8937 0.8937
3295.000000 0.8937 0.8937 0.8937 0.8937 0.8937
3290.000000 0.8937 0.8936 0.8936 0.8936 0.8936
3285.000000 0.8936 0.8936 0.8944 0.8942 0.8932
3280.000000 0.8934 0.8941 0.8939 0.8931 0.8934
3275.000000 0.8938 0.8938 0.8938 0.8938 0.8937
3270.000000 0.8936 0.8934 0.8934 0.8934 0.8934
3265.000000 0.8933 0.8933 0.8931 0.8931 0.8930
3260.000000 0.8929 0.8928 0.8927 0.8925 0.8916
3255.000000 0.8923 0.8922 0.8919 0.8917 0.8914
3250.000000 0.8912 0.8909 0.8906 0.8902 0.8899
3245.000000 0.8890 0.8887 0.8889 0.8886 0.8884
3240.000000 0.8882 0.8881 0.8879 0.8879 0.8878
3235.000000 0.8877 0.8876 0.8876 0.8876 0.8877
3230.000000 0.8878 0.8878 0.8879 0.8878 0.8872
3225.000000 0.8874 0.8881 0.8881 0.8881 0.8879
3220.000000 0.8879 0.8879 0.8879 0.8878 0.8877
3215.000000 0.8876 0.8876 0.8876 0.8876 0.8876
3210.000000 0.8876 0.8876 0.8868 0.8867 0.8867
3205.000000 0.8867 0.8867 0.8867 0.8868 0.8868
3200.000000 0.8869 0.8875 0.8870 0.8875 0.8870
3195.000000 0.8877 0.8877 0.8876 0.8876 0.8876
3190.000000 0.8871 0.8872 0.8876 0.8876 0.8870
3185.000000 0.8866 0.8866 0.8866 0.8866 0.8866
3180.000000 0.8866 0.8865 0.8865 0.8865 0.8865
3175.000000 0.8864 0.8864 0.8863 0.8863 0.8861
3170.000000 0.8861 0.8860 0.8860 0.8859 0.8859
3165.000000 0.8858 0.8862 0.8865 0.8860 0.8860
3160.000000 0.8864 0.8863 0.8857 0.8860 0.8854
3155.000000 0.8850 0.8857 0.8857 0.8856 0.8855
3150.000000 0.8854 0.8852 0.8841 0.8838 0.8835
3145.000000 0.8831 0.8828 0.8825 0.8823 0.8823
3140.000000 0.8826 0.8822 0.8818 0.8811 0.8806
3135.000000 0.8796 0.8786 0.8774 0.8764 0.8743
3130.000000 0.8724 0.8686 0.8648 0.8607 0.8567
3125.000000 0.8537 0.8507 0.8502 0.8498 0.8497
3120.000000 0.8497 0.8501 0.8506 0.8520 0.8533
3115.000000 0.8548 0.8563 0.8571 0.8579 0.8578
3110.000000 0.8578 0.8575 0.8572 0.8572 0.8570
3105.000000 0.8560 0.8552 0.8539 0.8526 0.8495
3100.000000 0.8473 0.8218 0.7964 0.7687 0.7411
3095.000000 0.7133 0.6848 0.6563 0.6276 0.5986
3090.000000 0.5700 0.5410 0.5122 0.5034 0.4945
3085.000000 0.4940 0.4935 0.5172 0.5408 0.5670
3080.000000 0.5932 0.6192 0.6459 0.6727 0.6992
3075.000000 0.7085 0.7185 0.7215 0.7235 0.7256
3070.000000 0.7280 0.7274 0.7318 0.7275 0.7276
3065.000000 0.7247 0.7219 0.7142 0.7074 0.7004
3060.000000 0.6937 0.6873 0.6806 0.6797 0.6786
3055.000000 0.6786 0.6784 0.6780 0.6777 0.6754
3050.000000 0.6729 0.6703 0.6676 0.6666 0.6662
3045.000000 0.6707 0.6758 0.6776 0.6796 0.6678
3040.000000 0.6561 0.6428 0.6296 0.6278 0.6273
3035.000000 0.6267 0.6284 0.6332 0.6381 0.6435
3030.000000 0.6486 0.6535 0.6590 0.6598 0.6607
3025.000000 0.6551 0.6496 0.6439 0.6382 0.6377
3020.000000 0.6373 0.6415 0.6454 0.6494 0.6528
3015.000000 0.6563 0.6599 0.6578 0.6559 0.6289
3010.000000 0.6020 0.5788 0.5554 0.5569 0.5591
3005.000000 0.5650 0.5705 0.5757 0.5808 0.5810
3000.000000 0.5816 0.5743 0.5669 0.5592 0.5516
2995.000000 0.5475 0.5437 0.5417 0.5394 0.5360
2990.000000 0.5326 0.5284 0.5240 0.5166 0.5093
2985.000000 0.4760 0.4430 0.4135 0.3840 0.3544
2980.000000 0.3250 0.2957 0.2661 0.2365 0.2071
2975.000000 0.1775 0.1480 0.1184 0.0889 0.0593
2970.000000 0.0298 0.0245 0.0195 0.0191 0.0191
2965.000000 0.0191 0.0195 0.0208 0.0219 0.0255
2960.000000 0.0292 0.0348 0.0405 0.0483 0.0564
2955.000000 0.0682 0.0800 0.0901 0.1002 0.1089
2950.000000 0.1176 0.1299 0.1424 0.1538 0.1653
2945.000000 0.1842 0.2033 0.2223 0.2414 0.2603
2940.000000 0.2794 0.2943 0.3090 0.3171 0.3252
2935.000000 0.3289 0.3328 0.3398 0.3468 0.3537
2930.000000 0.3606 0.3676 0.3745 0.3814 0.3883
2925.000000 0.3953 0.4022 0.4091 0.4159 0.4226
2920.000000 0.4295 0.4364 0.4433 0.4495 0.4556
2915.000000 0.4556 0.4562 0.4551 0.4545 0.4418
2910.000000 0.4291 0.4164 0.4041 0.3913 0.3783
2905.000000 0.3657 0.3529 0.3406 0.3193 0.3279
2900.000000 0.3276 0.3315 0.3356 0.3512 0.3668
2895.000000 0.3825 0.3982 0.4138 0.4295 0.4451
2890.000000 0.4608 0.4763 0.4920 0.5075 0.5233
2885.000000 0.5326 0.5420 0.5424 0.5423 0.5422
2880.000000 0.5416 0.5404 0.5393 0.5328 0.5276
2875.000000 0.5220 0.5166 0.4966 0.4768 0.4569
2870.000000 0.4371 0.4173 0.3974 0.3804 0.3517
2865.000000 0.3632 0.3630 0.3709 0.3785 0.3994
2860.000000 0.4203 0.4412 0.4622 0.4831 0.5039
2855.000000 0.5248 0.5452 0.5660 0.5868 0.6077
2850.000000 0.6286 0.6495 0.6703 0.7027 0.7357
2845.000000 0.7498 0.7641 0.7738 0.7845 0.7891
2840.000000 0.7933 0.7976 0.8025 0.8066 0.8106
2835.000000 0.8123 0.8145 0.8165 0.8188 0.8209
2830.000000 0.8229 0.8256 0.8270 0.8292 0.8311
2825.000000 0.8309 0.8316 0.8331 0.8331 0.8351
2820.000000 0.8363 0.8372 0.8378 0.8388 0.8400
2815.000000 0.8421 0.8442 0.8470 0.8497 0.8525
2810.000000 0.8554 0.8569 0.8588 0.8606 0.8621
2805.000000 0.8619 0.8617 0.8612 0.8609 0.8605
2800.000000 0.8602 0.8598 0.8595 0.8593 0.8592
2795.000000 0.8592 0.8593 0.8600 0.8606 0.8617
2790.000000 0.8638 0.8648 0.8665 0.8681 0.8696
2785.000000 0.8716 0.8737 0.8748 0.8759 0.8775
2780.000000 0.8789 0.8789 0.8790 0.8790 0.8791
2775.000000 0.8791 0.8792 0.8793 0.8794 0.8795
2770.000000 0.8796 0.8797 0.8798 0.8799 0.8799
2765.000000 0.8802 0.8806 0.8814 0.8822 0.8829
2760.000000 0.8836 0.8843 0.8851 0.8858 0.8866
2755.000000 0.8873 0.8882 0.8884 0.8886 0.8888
2750.000000 0.8890 0.8892 0.8894 0.8895 0.8897
2745.000000 0.8888 0.8880 0.8870 0.8861 0.8854
2740.000000 0.8846 0.8838 0.8830 0.8822 0.8814
2735.000000 0.8806 0.8799 0.8799 0.8801 0.8802
2730.000000 0.8805 0.8806 0.8808 0.8809 0.8812
2725.000000 0.8813 0.8815 0.8816 0.8818 0.8819
2720.000000 0.8821 0.8822 0.8825 0.8825 0.8825
2715.000000 0.8823 0.8819 0.8814 0.8809 0.8804
2710.000000 0.8799 0.8793 0.8788 0.8784 0.8780
2705.000000 0.8776 0.8773 0.8773 0.8774 0.8781
2700.000000 0.8788 0.8795 0.8802 0.8809 0.8817
2695.000000 0.8823 0.8831 0.8838 0.8845 0.8847
2690.000000 0.8850 0.8852 0.8855 0.8857 0.8859
2685.000000 0.8860 0.8865 0.8867 0.8869 0.8871
2680.000000 0.8874 0.8876 0.8879 0.8881 0.8883
2675.000000 0.8885 0.8886 0.8886 0.8886 0.8885
2670.000000 0.8885 0.8884 0.8884 0.8883 0.8883
2665.000000 0.8882 0.8882 0.8881 0.8881 0.8880
2660.000000 0.8880 0.8879 0.8880 0.8887 0.8887
2655.000000 0.8886 0.8886 0.8885 0.8885 0.8881
2650.000000 0.8876 0.8875 0.8879 0.8883 0.8883
2645.000000 0.8877 0.8873 0.8872 0.8879 0.8875
2640.000000 0.8872 0.8871 0.8871 0.8870 0.8870
2635.000000 0.8870 0.8879 0.8878 0.8878 0.8868
2630.000000 0.8869 0.8877 0.8877 0.8876 0.8876
2625.000000 0.8876 0.8877 0.8878 0.8879 0.8879
2620.000000 0.8880 0.8881 0.8882 0.8882 0.8883
2615.000000 0.8884 0.8885 0.8886 0.8887 0.8887
2610.000000 0.8888 0.8889 0.8890 0.8892 0.8893
2605.000000 0.8893 0.8894 0.8895 0.8896 0.8897
2600.000000 0.8898 0.8899 0.8900 0.8901 0.8902
2595.000000 0.8903 0.8904 0.8904 0.8905 0.8906
2590.000000 0.8907 0.8908 0.8909 0.8910 0.8910
2585.000000 0.8912 0.8913 0.8913 0.8913 0.8913
2580.000000 0.8912 0.8909 0.8906 0.8903 0.8901
2575.000000 0.8897 0.8895 0.8892 0.8890 0.8887
2570.000000 0.8885 0.8882 0.8879 0.8876 0.8874
2565.000000 0.8870 0.8868 0.8865 0.8865 0.8863
2560.000000 0.8861 0.8860 0.8858 0.8857 0.8856
2555.000000 0.8854 0.8853 0.8851 0.8850 0.8848
2550.000000 0.8847 0.8844 0.8843 0.8841 0.8840
2545.000000 0.8838 0.8838 0.8838 0.8839 0.8841
2540.000000 0.8843 0.8845 0.8847 0.8850 0.8853
2535.000000 0.8855 0.8857 0.8858 0.8861 0.8863
2530.000000 0.8865 0.8867 0.8868 0.8871 0.8873
2525.000000 0.8873 0.8874 0.8874 0.8875 0.8875
2520.000000 0.8875 0.8875 0.8876 0.8876 0.8876
2515.000000 0.8876 0.8877 0.8877 0.8877 0.8877
2510.000000 0.8878 0.8878 0.8878 0.8878 0.8879
2505.000000 0.8879 0.8879 0.8879 0.8879 0.8879
2500.000000 0.8880 0.8880 0.8880 0.8880 0.8881
2495.000000 0.8881 0.8881 0.8880 0.8880 0.8879
2490.000000 0.8879 0.8878 0.8878 0.8877 0.8877
2485.000000 0.8876 0.8876 0.8875 0.8874 0.8878
2480.000000 0.8882 0.8881 0.8881 0.8880 0.8880
2475.000000 0.8879 0.8879 0.8877 0.8877 0.8877
2470.000000 0.8877 0.8876 0.8876 0.8873 0.8873
2465.000000 0.8873 0.8872 0.8871 0.8871 0.8869
2460.000000 0.8869 0.8869 0.8865 0.8864 0.8863
2455.000000 0.8857 0.8857 0.8863 0.8866 0.8865
2450.000000 0.8858 0.8862 0.8864 0.8863 0.8862
2445.000000 0.8861 0.8861 0.8860 0.8860 0.8859
2440.000000 0.8859 0.8858 0.8858 0.8857 0.8857
2435.000000 0.8856 0.8856 0.8855 0.8855 0.8854
2430.000000 0.8854 0.8852 0.8851 0.8850 0.8850
2425.000000 0.8849 0.8849 0.8848 0.8848 0.8847
2420.000000 0.8846 0.8845 0.8845 0.8844 0.8844
2415.000000 0.8843 0.8843 0.8842 0.8841 0.8840
2410.000000 0.8840 0.8841 0.8845 0.8841 0.8847
2405.000000 0.8845 0.8844 0.8843 0.8842 0.8841
2400.000000 0.8839 0.8838 0.8837 0.8836 0.8835
2395.000000 0.8833 0.8833 0.8832 0.8830 0.8830
2390.000000 0.8830 0.8838 0.8838 0.8838 0.8838
2385.000000 0.8840 0.8851 0.8854 0.8861 0.8871
2380.000000 0.8875 0.8882 0.8892 0.8899 0.8908
2375.000000 0.8912 0.8921 0.8929 0.8932 0.8936
2370.000000 0.8941 0.8939 0.8941 0.8945 0.8950
2365.000000 0.8954 0.8958 0.8962 0.8967 0.8970
2360.000000 0.8983 0.8987 0.8997 0.9002 0.9016
2355.000000 0.9025 0.9028 0.9031 0.9035 0.9034
2350.000000 0.9033 0.9038 0.9048 0.9063 0.9072
2345.000000 0.9077 0.9077 0.9079 0.9085 0.9090
2340.000000 0.9095 0.9091 0.9102 0.9107 0.9102
2335.000000 0.9104 0.9116 0.9120 0.9123 0.9129
2330.000000 0.9141 0.9141 0.9141 0.9144 0.9148
2325.000000 0.9145 0.9148 0.9143 0.9139 0.9132
2320.000000 0.9127 0.9116 0.9104 0.9095 0.9086
2315.000000 0.9077 0.9067 0.9058 0.9048 0.9033
2310.000000 0.9017 0.9000 0.8983 0.8969 0.8953
2305.000000 0.8936 0.8920 0.8903 0.8886 0.8868
2300.000000 0.8851 0.8839 0.8832 0.8820 0.8810
2295.000000 0.8799 0.8790 0.8786 0.8782 0.8780
2290.000000 0.8778 0.8775 0.8766 0.8762 0.8734
2285.000000 0.8759 0.8759 0.8751 0.8750 0.8751
2280.000000 0.8752 0.8754 0.8749 0.8751 0.8753
2275.000000 0.8756 0.8766 0.8780 0.8791 0.8793
2270.000000 0.8803 0.8807 0.8810 0.8817 0.8824
2265.000000 0.8827 0.8831 0.8831 0.8834 0.8828
2260.000000 0.8828 0.8829 0.8824 0.8823 0.8825
2255.000000 0.8826 0.8819 0.8820 0.8822 0.8822
2250.000000 0.8816 0.8817 0.8818 0.8819 0.8821
2245.000000 0.8819 0.8815 0.8816 0.8817 0.8818
2240.000000 0.8820 0.8821 0.8822 0.8823 0.8824
2235.000000 0.8819 0.8817 0.8818 0.8819 0.8820
2230.000000 0.8821 0.8824 0.8825 0.8825 0.8827
2225.000000 0.8828 0.8829 0.8829 0.8829 0.8823
2220.000000 0.8825 0.8826 0.8826 0.8826 0.8826
2215.000000 0.8825 0.8825 0.8823 0.8823 0.8823
2210.000000 0.8822 0.8820 0.8820 0.8820 0.8819
2205.000000 0.8819 0.8822 0.8823 0.8823 0.8825
2200.000000 0.8826 0.8826 0.8827 0.8831 0.8834
2195.000000 0.8831 0.8843 0.8845 0.8843 0.8848
2190.000000 0.8852 0.8855 0.8861 0.8861 0.8861
2185.000000 0.8860 0.8863 0.8861 0.8857 0.8855
2180.000000 0.8855 0.8854 0.8860 0.8861 0.8860
2175.000000 0.8859 0.8859 0.8857 0.8857 0.8856
2170.000000 0.8856 0.8854 0.8846 0.8845 0.8845
2165.000000 0.8844 0.8843 0.8842 0.8841 0.8840
2160.000000 0.8839 0.8838 0.8838 0.8837 0.8836
2155.000000 0.8835 0.8834 0.8832 0.8831 0.8829
2150.000000 0.8827 0.8825 0.8822 0.8820 0.8819
2145.000000 0.8817 0.8815 0.8813 0.8810 0.8809
2140.000000 0.8806 0.8805 0.8803 0.8801 0.8800
2135.000000 0.8798 0.8796 0.8795 0.8795 0.8794
2130.000000 0.8794 0.8794 0.8794 0.8793 0.8793
2125.000000 0.8792 0.8792 0.8792 0.8785 0.8790
2120.000000 0.8791 0.8790 0.8790 0.8790 0.8790
2115.000000 0.8789 0.8789 0.8788 0.8788 0.8788
2110.000000 0.8789 0.8789 0.8790 0.8790 0.8791
2105.000000 0.8792 0.8793 0.8793 0.8794 0.8794
2100.000000 0.8795 0.8795 0.8790 0.8787 0.8795
2095.000000 0.8797 0.8790 0.8797 0.8799 0.8799
2090.000000 0.8800 0.8801 0.8802 0.8802 0.8802
2085.000000 0.8802 0.8804 0.8804 0.8805 0.8805
2080.000000 0.8805 0.8805 0.8807 0.8807 0.8808
2075.000000 0.8808 0.8808 0.8807 0.8807 0.8807
2070.000000 0.8807 0.8805 0.8805 0.8805 0.8805
2065.000000 0.8805 0.8805 0.8804 0.8804 0.8802
2060.000000 0.8802 0.8802 0.8802 0.8804 0.8811
2055.000000 0.8810 0.8810 0.8810 0.8806 0.8804
2050.000000 0.8809 0.8803 0.8799 0.8799 0.8799
2045.000000 0.8798 0.8798 0.8798 0.8798 0.8798
2040.000000 0.8798 0.8797 0.8797 0.8797 0.8797
2035.000000 0.8797 0.8797 0.8797 0.8797 0.8797
2030.000000 0.8797 0.8797 0.8799 0.8802 0.8797
2025.000000 0.8800 0.8806 0.8806 0.8806 0.8806
2020.000000 0.8805 0.8805 0.8805 0.8804 0.8804
2015.000000 0.8804 0.8804 0.8804 0.8804 0.8804
2010.000000 0.8804 0.8803 0.8803 0.8803 0.8803
2005.000000 0.8803 0.8803 0.8803 0.8803 0.8805
2000.000000 0.8807 0.8810 0.8810 0.8808 0.8811
1995.000000 0.8814 0.8817 0.8820 0.8823 0.8827
1990.000000 0.8827 0.8826 0.8823 0.8820 0.8809
1985.000000 0.8803 0.8796 0.8787 0.8779 0.8770
1980.000000 0.8760 0.8747 0.8724 0.8711 0.8708
1975.000000 0.8705 0.8702 0.8701 0.8701 0.8701
1970.000000 0.8701 0.8703 0.8705 0.8713 0.8727
1965.000000 0.8732 0.8737 0.8751 0.8764 0.8777
1960.000000 0.8790 0.8803 0.8803 0.8803 0.8802
1955.000000 0.8799 0.8790 0.8790 0.8790 0.8790
1950.000000 0.8791 0.8785 0.8785 0.8792 0.8798
1945.000000 0.8804 0.8810 0.8815 0.8818 0.8820
1940.000000 0.8822 0.8824 0.8825 0.8825 0.8825
1935.000000 0.8823 0.8822 0.8821 0.8820 0.8818
1930.000000 0.8814 0.8808 0.8803 0.8797 0.8791
1925.000000 0.8784 0.8780 0.8774 0.8769 0.8758
1920.000000 0.8745 0.8733 0.8719 0.8699 0.8678
1915.000000 0.8650 0.8617 0.8577 0.8531 0.8413
1910.000000 0.8249 0.8085 0.7921 0.7782 0.7821
1905.000000 0.7820 0.7831 0.7841 0.7874 0.7930
1900.000000 0.7986 0.8039 0.8094 0.8151 0.8226
1895.000000 0.8300 0.8352 0.8395 0.8438 0.8478
1890.000000 0.8515 0.8551 0.8575 0.8599 0.8621
1885.000000 0.8645 0.8670 0.8683 0.8694 0.8704
1880.000000 0.8715 0.8725 0.8734 0.8741 0.8746
1875.000000 0.8758 0.8763 0.8767 0.8770 0.8774
1870.000000 0.8778 0.8782 0.8783 0.8784 0.8785
1865.000000 0.8785 0.8786 0.8787 0.8787 0.8789
1860.000000 0.8790 0.8791 0.8791 0.8797 0.8790
1855.000000 0.8784 0.8781 0.8778 0.8775 0.8772
1850.000000 0.8769 0.8766 0.8762 0.8759 0.8755
1845.000000 0.8750 0.8743 0.8736 0.8729 0.8722
1840.000000 0.8716 0.8709 0.8701 0.8695 0.8685
1835.000000 0.8673 0.8658 0.8643 0.8628 0.8613
1830.000000 0.8595 0.8570 0.8545 0.8519 0.8495
1825.000000 0.8457 0.8418 0.8380 0.8336 0.8268
1820.000000 0.8201 0.8136 0.8061 0.7976 0.7900
1815.000000 0.7862 0.7838 0.7817 0.7806 0.7759
1810.000000 0.7788 0.7790 0.7847 0.7909 0.7964
1805.000000 0.8023 0.8075 0.8130 0.8188 0.8243
1800.000000 0.8292 0.8343 0.8375 0.8406 0.8427
1795.000000 0.8442 0.8450 0.8452 0.8454 0.8450
1790.000000 0.8445 0.8431 0.8420 0.8406 0.8397
1785.000000 0.8391 0.8387 0.8383 0.8383 0.8383
1780.000000 0.8386 0.8405 0.8430 0.8454 0.8473
1775.000000 0.8510 0.8553 0.8589 0.8619 0.8649
1770.000000 0.8680 0.8704 0.8716 0.8728 0.8739
1765.000000 0.8752 0.8763 0.8771 0.8778 0.8785
1760.000000 0.8793 0.8803 0.8817 0.8824 0.8830
1755.000000 0.8833 0.8837 0.8840 0.8842 0.8842
1750.000000 0.8842 0.8840 0.8838 0.8834 0.8827
1745.000000 0.8821 0.8818 0.8813 0.8810 0.8804
1740.000000 0.8790 0.8781 0.8778 0.8775 0.8777
1735.000000 0.8782 0.8791 0.8797 0.8806 0.8814
1730.000000 0.8823 0.8831 0.8835 0.8841 0.8845
1725.000000 0.8849 0.8853 0.8857 0.8862 0.8844
1720.000000 0.8865 0.8866 0.8867 0.8868 0.8869
1715.000000 0.8870 0.8871 0.8870 0.8869 0.8868
1710.000000 0.8868 0.8867 0.8866 0.8865 0.8864
1705.000000 0.8864 0.8863 0.8862 0.8859 0.8856
1700.000000 0.8854 0.8852 0.8850 0.8846 0.8845
1695.000000 0.8842 0.8839 0.8837 0.8834 0.8829
1690.000000 0.8824 0.8818 0.8813 0.8808 0.8801
1685.000000 0.8790 0.8781 0.8771 0.8761 0.8743
1680.000000 0.8726 0.8709 0.8688 0.8664 0.8637
1675.000000 0.8608 0.8571 0.8513 0.8382 0.8244
1670.000000 0.8077 0.8018 0.7997 0.8008 0.8007
1665.000000 0.8029 0.8073 0.8119 0.8167 0.8216
1660.000000 0.8274 0.8320 0.8371 0.8417 0.8450
1655.000000 0.8476 0.8496 0.8514 0.8520 0.8537
1650.000000 0.8541 0.8528 0.8545 0.8543 0.8539
1645.000000 0.8536 0.8523 0.8509 0.8499 0.8464
1640.000000 0.8347 0.8225 0.7667 0.6933 0.6203
1635.000000 0.5469 0.4732 0.3999 0.3261 0.3054
1630.000000 0.3352 0.4124 0.4893 0.5667 0.6435
1625.000000 0.7200 0.7591 0.7724 0.7918 0.7974
1620.000000 0.7977 0.7989 0.7998 0.8002 0.7936
1615.000000 0.7717 0.7440 0.7159 0.6893 0.6938
1610.000000 0.7128 0.7324 0.7521 0.7719 0.7858
1605.000000 0.7905 0.7968 0.8000 0.8045 0.8063
1600.000000 0.8092 0.8083 0.8066 0.8032 0.7993
1595.000000 0.7944 0.7896 0.7845 0.7828 0.7833
1590.000000 0.7815 0.7809 0.7792 0.7760 0.7711
1585.000000 0.7655 0.7622 0.7593 0.7573 0.7560
1580.000000 0.7544 0.7531 0.7508 0.7503 0.7490
1575.000000 0.7486 0.7479 0.7462 0.7435 0.7393
1570.000000 0.7336 0.7285 0.7187 0.7047 0.6871
1565.000000 0.6763 0.6669 0.6571 0.6473 0.6402
1560.000000 0.6359 0.6293 0.6238 0.6244 0.6254
1555.000000 0.6295 0.6321 0.6356 0.6406 0.6442
1550.000000 0.6464 0.6469 0.6471 0.6502 0.6540
1545.000000 0.6574 0.6622 0.6665 0.6717 0.6758
1540.000000 0.6801 0.6837 0.6874 0.6892 0.6935
1535.000000 0.6993 0.7033 0.7071 0.7128 0.7184
1530.000000 0.7222 0.7260 0.7282 0.7271 0.7254
1525.000000 0.7231 0.7189 0.7147 0.7075 0.6328
1520.000000 0.5379 0.4438 0.3499 0.2572 0.1651
1515.000000 0.0889 0.0890 0.1045 0.2175 0.3293
1510.000000 0.4403 0.4736 0.4977 0.5219 0.5458
1505.000000 0.5694 0.5932 0.6166 0.6397 0.6630
1500.000000 0.6862 0.7096 0.7290 0.7332 0.7355
1495.000000 0.7373 0.7380 0.7404 0.7389 0.7373
1490.000000 0.7344 0.7309 0.7249 0.7165 0.7024
1485.000000 0.6760 0.6332 0.5911 0.5493 0.5072
1480.000000 0.4668 0.4683 0.4815 0.4948 0.5085
1475.000000 0.5221 0.5358 0.5501 0.5523 0.5425
1470.000000 0.5276 0.5127 0.4991 0.4922 0.4879
1465.000000 0.4887 0.4849 0.4861 0.4897 0.4997
1460.000000 0.5227 0.5455 0.5679 0.5910 0.6033
1455.000000 0.6140 0.6277 0.6423 0.6582 0.6729
1450.000000 0.6835 0.6942 0.7045 0.7133 0.7227
1445.000000 0.7318 0.7410 0.7488 0.7561 0.7632
1440.000000 0.7687 0.7743 0.7799 0.7867 0.7902
1435.000000 0.7937 0.7954 0.7969 0.7980 0.7993
1430.000000 0.7983 0.7998 0.7992 0.7986 0.7970
1425.000000 0.7935 0.7890 0.7842 0.7784 0.7730
1420.000000 0.7724 0.7757 0.7803 0.7830 0.7830
1415.000000 0.7829 0.7812 0.7773 0.7693 0.7603
1410.000000 0.7426 0.6898 0.6370 0.5842 0.5313
1405.000000 0.4785 0.4257 0.3455 0.3465 0.3885
1400.000000 0.4774 0.5663 0.5959 0.5968 0.5676
1395.000000 0.5333 0.5233 0.5309 0.5883 0.6456
1390.000000 0.7036 0.7619 0.7904 0.7971 0.8017
1385.000000 0.8064 0.8091 0.8096 0.8100 0.8103
1380.000000 0.8109 0.8129 0.8094 0.8071 0.8034
1375.000000 0.7986 0.7915 0.7841 0.7458 0.6766
1370.000000 0.6074 0.5382 0.4690 0.3998 0.3306
1365.000000 0.2723 0.2777 0.3203 0.4042 0.4880
1360.000000 0.5718 0.6557 0.7061 0.7188 0.7384
1355.000000 0.7551 0.7651 0.7742 0.7797 0.7852
1350.000000 0.7903 0.7952 0.8002 0.8050 0.8093
1345.000000 0.8137 0.8179 0.8219 0.8249 0.8285
1340.000000 0.8310 0.8336 0.8361 0.8379 0.8393
1335.000000 0.8406 0.8412 0.8414 0.8420 0.8404
1330.000000 0.8393 0.8371 0.8343 0.8287 0.8235
1325.000000 0.8185 0.8147 0.8090 0.7906 0.7727
1320.000000 0.7550 0.7481 0.7562 0.7685 0.7811
1315.000000 0.7931 0.8052 0.8102 0.8126 0.8139
1310.000000 0.8153 0.8172 0.8165 0.8165 0.8165
1305.000000 0.8151 0.8124 0.8064 0.8000 0.7932
1300.000000 0.7863 0.7823 0.7784 0.7746 0.7716
1295.000000 0.7700 0.7690 0.7684 0.7679 0.7666
1290.000000 0.7645 0.7435 0.7192 0.6949 0.6705
1285.000000 0.6569 0.6559 0.6572 0.6623 0.6816
1280.000000 0.7021 0.7225 0.7317 0.7299 0.7302
1275.000000 0.7268 0.7228 0.6789 0.6045 0.5302
1270.000000 0.4559 0.3816 0.3191 0.3209 0.3378
1265.000000 0.3869 0.4362 0.4857 0.5349 0.5841
1260.000000 0.6332 0.6825 0.7350 0.7535 0.7634
1255.000000 0.7725 0.7797 0.7862 0.7928 0.7991
1250.000000 0.8057 0.8119 0.8146 0.8160 0.8177
1245.000000 0.8197 0.8216 0.8246 0.8275 0.8292
1240.000000 0.8295 0.8308 0.8307 0.8302 0.8286
1235.000000 0.8266 0.8245 0.8230 0.8212 0.8196
1230.000000 0.8179 0.8172 0.8175 0.8208 0.8267
1225.000000 0.8310 0.8330 0.8340 0.8340 0.8341
1220.000000 0.8339 0.8332 0.8318 0.8291 0.8217
1215.000000 0.7878 0.7396 0.6858 0.6852 0.6959
1210.000000 0.7260 0.7759 0.7731 0.7706 0.7672
1205.000000 0.7510 0.7155 0.6800 0.6519 0.6463
1200.000000 0.6528 0.6738 0.6943 0.7153 0.7364
1195.000000 0.7564 0.7657 0.7720 0.7775 0.7828
1190.000000 0.7875 0.7920 0.7967 0.8010 0.8053
1185.000000 0.8094 0.8136 0.8177 0.8198 0.8202
1180.000000 0.8217 0.8241 0.8297 0.8350 0.8398
1175.000000 0.8440 0.8466 0.8491 0.8516 0.8544
1170.000000 0.8573 0.8603 0.8636 0.8679 0.8710
1165.000000 0.8742 0.8772 0.8795 0.8804 0.8803
1160.000000 0.8803 0.8783 0.8772 0.8759 0.8745
1155.000000 0.8738 0.8734 0.8733 0.8731 0.8730
1150.000000 0.8735 0.8743 0.8740 0.8741 0.8745
1145.000000 0.8747 0.8747 0.8739 0.8729 0.8703
1140.000000 0.8647 0.8608 0.8609 0.8613 0.8611
1135.000000 0.8612 0.8604 0.8589 0.8579 0.8406
1130.000000 0.8004 0.7603 0.7199 0.6799 0.6399
1125.000000 0.5999 0.5602 0.5593 0.5783 0.6160
1120.000000 0.6536 0.6912 0.7289 0.7608 0.7675
1115.000000 0.7705 0.7711 0.7695 0.7576 0.6295
1110.000000 0.5145 0.3994 0.3754 0.3620 0.4109
1105.000000 0.4628 0.5146 0.5664 0.6182 0.6700
1100.000000 0.7219 0.7737 0.8114 0.8185 0.8247
1095.000000 0.8292 0.8338 0.8383 0.8429 0.8466
1090.000000 0.8505 0.8542 0.8577 0.8602 0.8627
1085.000000 0.8652 0.8676 0.8700 0.8716 0.8726
1080.000000 0.8742 0.8745 0.8737 0.8733 0.8724
1075.000000 0.8711 0.8700 0.8692 0.8688 0.8686
1070.000000 0.8684 0.8682 0.8679 0.8677 0.8675
1065.000000 0.8674 0.8673 0.8671 0.8679 0.8680
1060.000000 0.8681 0.8673 0.8682 0.8680 0.8671
1055.000000 0.8669 0.8666 0.8663 0.8661 0.8660
1050.000000 0.8658 0.8647 0.8637 0.8625 0.8614
1045.000000 0.8602 0.8586 0.8572 0.8556 0.8540
1040.000000 0.8525 0.8501 0.8477 0.8452 0.8427
1035.000000 0.8393 0.8362 0.8252 0.8096 0.7862
1030.000000 0.7778 0.7751 0.7739 0.7726 0.7712
1025.000000 0.7690 0.7673 0.7656 0.7618 0.7582
1020.000000 0.7521 0.7228 0.6904 0.6580 0.6255
1015.000000 0.5931 0.5607 0.5282 0.4957 0.4948
1010.000000 0.5541 0.6359 0.7172 0.7548 0.7605
1005.000000 0.7664 0.7719 0.7779 0.7826 0.7869
1000.000000 0.7878 0.7858 0.7860 0.7815 0.7775
995.000000 0.7721 0.7648 0.7578 0.7490 0.7385
990.000000 0.7026 0.6093 0.5162 0.4231 0.3298
985.000000 0.2367 0.1435 0.1106 0.1092 0.1732
980.000000 0.2792 0.3852 0.4912 0.5972 0.6943
975.000000 0.7137 0.7318 0.7492 0.7610 0.7722
970.000000 0.7828 0.7903 0.7981 0.8050 0.8101
965.000000 0.8153 0.8182 0.8204 0.8226 0.8235
960.000000 0.8243 0.8251 0.8255 0.8259 0.8266
955.000000 0.8270 0.8275 0.8280 0.8284 0.8284
950.000000 0.8285 0.8285 0.8292 0.8280 0.8272
945.000000 0.8265 0.8256 0.8249 0.8239 0.8231
940.000000 0.8225 0.8217 0.8211 0.8200 0.8189
935.000000 0.8176 0.8163 0.8137 0.8095 0.8040
930.000000 0.8005 0.7997 0.7988 0.7978 0.7968
925.000000 0.7956 0.7935 0.7911 0.7852 0.7769
920.000000 0.7695 0.7624 0.7564 0.7497 0.7436
915.000000 0.7369 0.7272 0.7131 0.6736 0.6426
910.000000 0.5843 0.5264 0.4686 0.4106 0.3523
905.000000 0.2944 0.2363 0.1780 0.1199 0.0582
900.000000 0.0547 0.0539 0.1053 0.1631 0.2211
895.000000 0.2792 0.3378 0.3963 0.4552 0.5145
890.000000 0.5740 0.6341 0.6713 0.7017 0.7250
885.000000 0.7410 0.7602 0.7683 0.7756 0.7823
880.000000 0.7874 0.7910 0.7944 0.7967 0.7991
875.000000 0.8018 0.8041 0.8056 0.8069 0.8068
870.000000 0.8068 0.8069 0.8057 0.8046 0.8027
865.000000 0.8005 0.7988 0.7972 0.7946 0.7924
860.000000 0.7901 0.7867 0.7829 0.7788 0.7740
855.000000 0.7675 0.7594 0.7506 0.7404 0.7273
850.000000 0.7139 0.6988 0.6826 0.6246 0.5613
845.000000 0.4993 0.4376 0.3771 0.3173 0.2580
840.000000 0.1998 0.1420 0.0847 0.0278 0.0002
835.000000 0.0038 0.0067 0.0495 0.1321 0.2146
830.000000 0.2969 0.3792 0.4611 0.5431 0.6065
825.000000 0.6830 0.7015 0.7212 0.7428 0.7606
820.000000 0.7755 0.7871 0.7952 0.8033 0.8122
815.000000 0.8184 0.8233 0.8282 0.8339 0.8393
810.000000 0.8433 0.8478 0.8516 0.8545 0.8574
805.000000 0.8606 0.8633 0.8659 0.8685 0.8699
800.000000 0.8714 0.8726 0.8740 0.8751 0.8766
795.000000 0.8779 0.8784 0.8794 0.8805 0.8824
790.000000 0.8830 0.8840 0.8852 0.8864 0.8877
785.000000 0.8890 0.8903 0.8907 0.8912 0.8923
780.000000 0.8929 0.8942 0.8953 0.8958 0.8967
775.000000 0.8975 0.8985 0.8988 0.8993 0.9001
770.000000 0.9010 0.9012 0.9014 0.9014 0.9014
765.000000 0.9007 0.9006 0.9006 0.9006 0.9006
760.000000 0.9005 0.9004 0.9002 0.8996 0.8986
755.000000 0.8975 0.8966 0.8963 0.8940 0.8925
750.000000 0.8926 0.8927 0.8940 0.8958 0.8973
745.000000 0.8989 0.9003 0.9013 0.9022 0.9033
740.000000 0.9043 0.9052 0.9062 0.9072 0.9082
735.000000 0.9087 0.9087 0.9089 0.9090 0.9091
730.000000 0.9101 0.9102 0.9103 0.9103 0.9105
725.000000 0.9111 0.9108 0.9112 0.9117 0.9119
720.000000 0.9120 0.9114 0.9107 0.9107 0.9103
715.000000 0.9099 0.9104 0.9106 0.9105 0.9102
710.000000 0.9098 0.9094 0.9088 0.9088 0.9091
705.000000 0.9093 0.9097 0.9110 0.9119 0.9131
700.000000 0.9149 0.9154 0.9158 0.9161 0.9165
695.000000 0.9172 0.9178 0.9180 0.9182 0.9184
690.000000 0.9184 0.9185 0.9192 0.9184 0.9174
685.000000 0.9165 0.9154 0.9155 0.9158 0.9168
680.000000 0.9183 0.9185 0.9204 0.9207 0.9217
675.000000 0.9216 0.9199 0.9187 0.9171 0.9159
670.000000 0.9162 0.9216 0.9256 0.9199 0.9149
665.000000 0.9152 0.9165 0.9173 0.9177 0.9177
660.000000 0.9173 0.9100 0.9003 0.8904 0.8797
655.000000 0.8682 0.8565 0.8449 0.8323 0.8205
650.000000 0.8080 0.7954 0.7829 0.7703 0.7574
645.000000 0.7534 0.7505 0.7405 0.7442 0.7411
640.000000 0.7400 0.7412 0.7473 0.7571 0.7692
635.000000 0.7804 0.7882 0.7966 0.8050 0.8121
630.000000 0.8198 0.8276 0.8343 0.8416 0.8482
625.000000 0.8549 0.8604 0.8652 0.8705 0.8743
620.000000 0.8782 0.8823 0.8855 0.8873 0.8886
615.000000 0.8905 0.8911 0.8915 0.8924 0.8928
610.000000 0.8932 0.8935 0.8938 0.8937 0.8937
605.000000 0.8941 0.8944 0.8948 0.8952 0.8954
600.000000 0.8958 0.8961 0.8964 0.8967 0.8970
595.000000 0.8973 0.9021 0.8979 0.8982 0.8985
590.000000 0.8986 0.8986 0.8987 0.8983 0.8984
585.000000 0.8985 0.8980 0.8981 0.8975 0.8970
580.000000 0.8965 0.8960 0.8955 0.8942 0.8935
575.000000 0.8930 0.8930 0.8922 0.8912 0.8903
570.000000 0.8893 0.8882 0.8872 0.8854 0.8838
565.000000 0.8828 0.8808 0.8782 0.8762 0.8744
560.000000 0.8726 0.8705 0.8679 0.8654 0.8628
555.000000 0.8598 0.8568 0.8543 0.8505 0.8461
550.000000 0.8416 0.8369 0.8319 0.8263 0.8206
545.000000 0.8149 0.8093 0.7995 0.7880 0.7766
540.000000 0.7606 0.7411 0.6952 0.6681 0.6413
535.000000 0.6138 0.5862 0.5594 0.5320 0.5047
530.000000 0.4774 0.4500 0.4227 0.3955 0.3931
525.000000 0.3929 0.3951 0.4301 0.4777 0.5253
520.000000 0.5729 0.6206 0.6681 0.6893 0.7043
515.000000 0.7203 0.7367 0.7503 0.7639 0.7736
510.000000 0.7816 0.7894 0.7977 0.8071 0.8165
505.000000 0.8237 0.8306 0.8375 0.8438 0.8501
500.000000 0.8545 0.8589 0.8620 0.8642 0.8663
495.000000 0.8679 0.8693 0.8707 0.8720 0.8724
490.000000 0.8727 0.8730 0.8733 0.8738 0.8738
485.000000 0.8738 0.8737 0.8737 0.8736 0.8736
480.000000 0.8735 0.8728 0.8721 0.8715 0.8709
475.000000 0.8703 0.8696 0.8689 0.8679 0.8668
470.000000 0.8656 0.8645 0.8635 0.8623 0.8612
465.000000 0.8601 0.8589 0.8574 0.8552 0.8532
460.000000 0.8511 0.8490 0.8469 0.8448 0.8428
455.000000 0.8402 0.8378 0.8353 0.8330 0.8305
450.000000 0.8281 0.8258 0.8235 0.8213 0.8191
445.000000 0.8169 0.8146 0.8124 0.8102 0.8079
440.000000 0.8058 0.8034 0.8010 0.7986 0.7959
435.000000 0.7935 0.7910 0.7884 0.7858 0.7833
430.000000 0.7808 0.7781 0.7746 0.7713 0.7679
425.000000 0.7644 0.7611 0.7577 0.7543 0.7500
420.000000 0.7447 0.7395 0.7341 0.7288 0.7235
415.000000 0.7179 0.7119 0.7059 0.6998 0.6916
410.000000 0.6323 0.6093 0.5831 0.5572 0.5310
405.000000 0.5050 0.4789 0.4528 0.4265 0.3988
400.000000 0.3696 0.3417 0.3158 0.2899 0.2636
395.000000 0.2366 0.2258 0.2159 0.2060 0.1997
390.000000 0.1955 0.1911 0.1869 0.1832 0.1796
##END=
