##TITLE=2-Amino-6-fluorobenzylamine
##JCAMP-DX=4.24
##DATA TYPE=INFRARED SPECTRUM
##ORIGIN=EPA-IR VAPOR PHASE LIBRARY
##OWNER=SRD/NIST
Collection (C) 2018 copyright by the U.S. Secretary of Commerce
on behalf of the United States of America. All rights reserved.
##CAS REGISTRY NO=175277-93-7
##MOLFORM=C 7 H 9 F N 2
##$NIST SOURCE=MSDC-IR
##STATE=gas
##XUNITS=1/CM
##YUNITS=ABSORBANCE
##XFACTOR=1.
##YFACTOR=0.001
##DELTAX=1.92898
##FIRSTX=549.8
##LASTX=4000.7
##FIRSTY=15.914
##MAXX=4000.7
##MINX=549.759
##MAXY=0.071194
##MINY=0
##NPOINTS=1790
##XYDATA=(X++(Y..Y))
549.759 15.914 16.264 15.464 15.694 16.524 17.574 18.354 18.984 18.754 17.184
569.049 16.174 15.944 16.654 16.284 15.424 15.074 14.104 13.374 13.244 13.624
588.339 13.444 12.784 12.774 13.084 12.744 12.574 12.684 12.254 11.774 11.254
607.628 11.264 11.924 12.334 12.694 12.814 12.674 12.374 12.374 12.244 11.634
626.918 11.584 12.364 12.764 12.424 11.784 11.664 12.274 12.644 12.894 12.864
646.208 12.364 12.234 12.484 12.374 12.234 12.124 12.514 13.324 13.474 13.514
665.498 13.824 14.144 14.384 14.794 15.254 15.334 15.574 15.194 15.334 15.874
684.787 15.534 15.024 15.344 15.344 14.984 15.564 15.534 15.394 16.004 17.444
704.077 18.744 19.404 20.744 22.254 23.074 24.384 26.084 27.414 29.204 30.694
723.367 30.714 28.864 26.804 25.464 23.784 22.174 20.514 19.094 17.634 16.464
742.657 15.834 15.204 15.004 14.524 14.384 14.634 14.984 16.224 18.044 19.884
761.947 21.354 22.604 24.274 26.404 28.374 30.494 33.014 34.934 35.244 34.014
781.236 32.274 31.584 31.194 30.124 28.984 27.724 26.444 25.524 24.474 23.304
800.526 22.404 21.784 21.544 21.584 21.574 21.474 21.794 22.374 22.854 23.664
819.816 24.614 23.804 23.604 26.564 27.754 27.044 27.054 26.574 25.974 25.094
839.106 23.924 22.684 21.164 20.104 19.444 18.554 17.454 16.194 15.204 14.764
858.395 14.444 13.904 13.294 12.904 12.704 12.664 12.744 12.384 11.754 11.704
877.685 11.584 11.354 11.174 10.894 11.154 11.234 11.024 11.104 11.064 11.354
896.975 11.824 12.014 12.404 12.934 13.354 13.854 14.584 15.234 15.794 16.544
916.265 17.264 17.624 17.514 17.204 16.964 16.574 16.314 15.804 15.284 14.504
935.555 13.134 12.234 11.924 11.264 10.164 9.234 9.224 9.664 9.304 8.464
954.844 8.544 9.254 9.404 8.864 8.244 8.444 9.044 9.254 8.904 8.764
974.134 8.994 9.314 9.654 9.904 10.004 10.334 10.704 10.764 11.124 11.404
993.424 11.774 11.984 11.974 13.024 14.034 14.394 15.334 16.024 16.154 16.844
1012.714 17.484 17.574 17.244 16.984 16.664 17.014 17.964 16.744 15.404 14.944
1032.003 14.764 14.864 13.794 12.494 12.324 12.384 11.934 11.854 12.394 12.924
1051.293 12.334 12.284 12.234 12.154 12.204 11.464 10.914 10.184 9.174 8.644
1070.583 7.614 6.354 6.354 5.964 5.104 4.744 4.464 4.124 4.454 4.024
1089.873 4.304 5.514 4.544 4.274 4.464 5.244 5.604 4.914 6.044 6.854
1109.163 7.554 7.724 7.954 8.744 9.904 10.674 10.044 10.254 11.514 12.644
1128.452 13.454 13.804 13.904 14.054 14.534 14.364 13.904 14.264 15.264 15.554
1147.742 14.964 15.074 14.634 13.444 12.904 12.674 12.234 12.024 11.474 10.254
1167.032 10.104 9.884 9.704 10.314 9.414 8.574 8.654 8.174 7.394 8.364
1186.322 8.594 7.224 6.884 7.024 7.074 7.254 7.154 7.414 7.714 7.674
1205.611 7.024 6.584 8.254 8.764 7.934 8.654 9.554 9.024 8.944 9.524
1224.901 10.324 11.074 11.954 13.064 14.964 17.034 18.194 19.574 21.474 23.254
1244.191 23.954 23.954 24.604 25.174 24.494 23.954 23.054 21.464 19.874 18.124
1263.481 16.294 14.914 14.104 13.114 11.914 11.324 11.224 10.854 10.854 11.174
1282.771 10.874 10.474 11.094 11.524 11.464 11.854 12.574 13.424 14.254 14.824
1302.060 15.474 15.864 15.954 15.944 15.694 15.304 14.904 14.424 13.664 12.884
1321.350 12.084 11.104 10.104 9.254 8.674 8.194 7.764 7.404 6.974 6.604
1340.640 6.424 6.304 6.064 5.934 5.974 5.984 6.174 6.344 6.534 6.634
1359.930 6.644 7.064 7.484 7.894 8.334 8.774 9.354 10.114 10.694 11.114
1379.219 11.734 12.214 12.534 12.654 12.564 12.284 11.734 11.184 10.644 10.024
1398.509 9.204 8.164 7.434 6.874 6.284 5.854 5.464 5.034 4.784 4.784
1417.799 4.794 4.824 4.684 4.644 4.694 4.834 5.054 5.274 5.704 6.064
1437.089 6.404 6.774 7.274 8.174 9.344 10.774 12.874 15.504 19.154 23.574
1456.378 28.534 34.294 39.954 45.354 50.234 54.124 56.554 58.094 58.814 58.244
1475.668 56.364 53.074 48.374 42.654 36.544 30.914 25.834 21.714 18.644 16.134
1494.958 14.274 12.674 11.234 10.024 9.124 8.554 7.894 7.284 6.914 6.914
1514.248 6.824 6.874 6.994 7.044 7.254 7.404 7.664 7.924 8.124 8.364
1533.538 8.964 9.804 10.254 10.504 11.114 11.824 12.734 13.634 14.284 14.704
1552.827 15.264 16.394 17.224 17.664 18.274 19.204 20.294 21.274 22.214 23.264
1572.117 24.444 25.834 27.434 28.814 30.104 31.344 32.514 33.404 33.814 34.704
1591.407 35.704 36.074 36.184 36.164 36.354 37.164 38.384 39.904 42.174 45.284
1610.697 48.644 52.304 56.114 60.434 64.364 67.364 69.744 71.094 71.194 70.114
1629.986 68.384 65.764 62.104 57.424 52.244 46.884 41.154 35.694 30.744 26.364
1649.276 22.614 19.804 17.164 15.204 13.844 12.344 11.214 10.294 9.404 8.574
1668.566 7.844 7.474 7.114 6.544 5.794 5.254 5.204 5.094 5.044 5.024
1687.856 4.694 4.404 4.304 4.404 4.514 4.564 4.454 4.154 4.144 4.104
1707.146 3.814 3.704 3.654 3.414 3.214 3.204 3.374 3.444 3.224 3.024
1726.435 2.964 2.994 2.924 2.974 2.924 2.764 2.684 2.714 2.834 2.744
1745.725 2.604 2.544 2.614 2.554 2.454 2.414 2.414 2.384 2.254 2.254
1765.015 2.214 2.114 2.064 2.194 2.264 2.094 2.134 2.274 2.314 2.384
1784.305 2.434 2.564 2.654 2.754 2.804 2.714 2.814 2.804 2.794 2.764
1803.594 2.614 2.624 2.464 2.274 2.264 2.054 2.054 2.134 2.044 1.984
1822.884 1.964 1.994 2.004 2.074 1.984 1.804 1.844 1.904 1.894 1.894
1842.174 1.954 1.934 1.954 1.904 1.794 1.824 1.834 1.944 1.984 1.684
1861.464 1.634 1.834 1.754 1.624 1.684 1.814 1.924 1.984 1.974 2.074
1880.754 2.124 2.304 2.644 2.774 2.864 2.944 3.044 3.174 3.164 3.044
1900.043 2.844 2.754 2.764 2.674 2.484 2.274 1.914 1.724 1.884 1.794
1919.333 1.534 1.4828 1.524 1.554 1.554 1.544 1.534 1.5051 1.4781 1.664
1938.623 1.844 1.744 1.654 1.704 1.754 1.624 1.534 1.4579 1.3248 1.3873
1957.913 1.4764 1.4743 1.4905 1.5069 1.554 1.4635 1.4031 1.476 1.4423 1.3496
1977.202 1.2902 1.2901 1.3003 1.3094 1.226 1.2406 1.3604 1.4212 1.5037 1.4311
1996.492 1.1564 0.9603 1.1253 1.338 1.1719 1.2271 1.4393 1.3561 1.4138 1.3471
2015.782 1.2126 1.3026 1.2924 1.212 1.2675 1.3563 1.3366 1.3297 1.29 1.3327
2035.072 1.3208 1.4072 1.534 1.3495 1.1143 1.0989 1.2333 1.2615 1.2584 1.3838
2054.362 1.481 1.3709 1.2956 1.1002 1.0966 1.1929 1.0516 1.0185 1.2579 1.4871
2073.651 1.3959 1.0891 1.0554 1.2609 1.2324 1.2224 1.3012 1.3796 1.3195 1.2178
2092.941 1.2228 1.1852 1.2021 1.27 1.1923 1.2558 1.394 1.2892 1.2417 1.2626
2112.231 1.3086 1.348 1.402 1.3933 1.3084 1.3725 1.3458 1.4255 1.5086 1.4675
2131.521 1.554 1.584 1.604 1.674 1.624 1.5155 1.4782 1.4679 1.45 1.4117
2150.810 1.534 1.634 1.524 1.3526 1.3266 1.244 1.1934 1.2674 1.2414 1.2627
2170.100 1.3182 1.2635 1.2174 1.244 1.2559 1.4713 1.4921 1.4022 1.3949 1.1423
2189.390 1.0528 1.2168 1.067 0.9869 1.3679 1.3743 1.2528 1.2186 1.1165 1.1525
2208.680 1.0931 1.046 1.1303 1.2616 1.3841 1.3016 1.1743 1.1727 1.0279 0.9687
2227.970 1.0668 1.199 1.3477 1.2259 1.1956 1.2121 1.2016 1.3455 1.3387 1.3572
2247.259 1.4041 1.3274 1.4934 1.554 1.5006 1.554 1.4715 1.3996 1.4198 1.3825
2266.549 1.3806 1.4853 1.4488 1.4232 1.3989 1.544 1.634 1.4447 1.4256 1.4062
2285.839 1.2921 1.4733 1.604 1.5182 1.4425 1.4134 1.2906 1.3905 1.594 1.3328
2305.129 1.2275 1.4375 1.654 1.534 1.2253 1.3642 1.3934 1.1747 1.3015 1.4938
2324.418 1.4437 1.2094 1.1861 1.2671 1.0518 0.9999 1.2478 1.1616 0.9722 1.1808
2343.708 1.2551 1.2142 1.2377 1.1945 1.1743 1.194 1.1558 1.1266 1.349 1.4397
2362.998 1.2331 1.2119 1.1485 0.942 1.0453 1.0834 1.2089 1.3924 1.0596 0.9892
2382.288 1.0864 1.1738 1.3831 1.4081 1.3419 1.0283 0.8113 0.9554 1.0732 0.992
2401.578 1.132 1.3397 1.1291 1.017 1.1029 1.0043 1.064 1.0424 0.9771 1.1547
2420.867 1.1674 0.9233 0.864 1.0816 1.2121 1.36 1.2809 1.1487 1.3353 1.2964
2440.157 1.3186 1.4569 1.1344 0.9703 1.148 1.0831 0.826 0.9923 1.2464 1.3491
2459.447 1.458 1.3384 1.2135 1.1678 1.2051 1.3641 1.3352 1.2017 1.1976 1.0955
2478.737 1.2871 1.3646 1.1286 1.1471 1.2129 1.1506 1.077 1.1939 1.2733 1.2652
2498.026 1.2669 1.2744 1.2895 1.1949 1.2229 1.3334 1.1963 1.1523 1.1932 1.1604
2517.316 1.1445 1.1643 1.1242 1.1021 1.0669 0.9904 1.0048 1.043 1.0189 1.0821
2536.606 1.0689 0.795 0.8129 1.0842 0.9927 0.8544 1.0443 0.9239 0.8429 1.1459
2555.896 1.2867 1.0601 0.8366 0.8283 0.8832 1.0607 1.0951 1.043 0.8485 0.897
2575.186 1.0652 0.9834 1.1387 1.2811 1.3242 1.1356 1.0651 1.3769 1.4416 1.2877
2594.475 1.1299 1.2423 1.3358 1.1479 1.1638 1.3055 1.3281 1.3249 1.366 1.3137
2613.765 1.0414 1.0739 1.0646 1.1225 1.4208 1.3288 1.4202 1.4961 1.3018 1.1898
2633.055 1.3686 1.4122 1.2805 1.3337 1.3956 1.4059 1.2811 1.2187 1.311 1.4139
2652.345 1.604 1.734 1.4747 1.3079 1.4849 1.2541 1.0627 1.3698 1.4938 1.3015
2671.634 1.3254 1.3193 1.3409 1.2768 0.9127 0.9197 1.1132 1.0627 1.0895 1.3252
2690.924 1.1784 0.9381 0.9924 1.119 0.8578 0.6761 0.8716 0.9802 1.0004 1.0241
2710.214 1.2155 1.3301 1.1565 0.9137 0.7849 0.862 1.0648 1.2839 1.3984 1.198
2729.504 1.0212 1.0207 1.2382 1.4633 1.694 1.644 1.5048 1.674 1.734 1.714
2748.794 1.794 1.904 1.854 1.814 2.114 2.254 2.184 2.134 1.884 2.024
2768.083 2.194 1.934 1.774 1.744 1.4215 1.4537 1.804 1.704 1.614 1.664
2787.373 1.704 1.944 1.894 1.624 1.604 1.864 1.824 1.604 1.4971 1.4269
2806.663 1.764 1.934 1.924 1.834 1.744 1.624 1.3561 1.694 2.274 2.394
2825.953 2.104 2.114 2.074 1.954 2.434 2.684 2.654 2.744 2.564 2.624
2845.242 2.904 2.914 3.094 3.284 3.194 3.514 4.154 4.224 4.194 4.534
2864.532 4.994 5.274 5.324 5.394 5.824 6.334 6.834 7.554 8.274 9.194
2883.822 9.824 10.174 11.024 11.604 11.974 11.944 11.054 10.234 9.674 8.694
2903.112 7.734 7.154 6.404 5.944 5.904 5.604 5.114 5.084 5.214 5.034
2922.401 4.884 5.204 5.614 5.644 5.904 6.454 6.654 6.804 7.194 7.324
2941.691 7.154 7.164 7.594 7.664 7.094 7.074 7.294 7.354 7.294 7.304
2960.981 7.344 7.034 7.034 7.004 6.804 6.524 5.824 5.434 5.334 4.744
2980.271 4.234 3.844 3.514 3.494 3.624 3.194 2.814 2.844 2.594 2.254
2999.561 2.194 2.414 2.574 2.374 2.524 2.864 2.794 3.014 3.304 3.554
3018.850 3.854 3.804 4.094 4.944 5.374 5.564 6.134 6.814 7.234 7.654
3038.140 8.044 8.314 8.724 8.654 8.424 7.964 7.524 7.914 7.734 7.174
3057.430 7.114 6.544 6.264 6.764 6.784 6.784 7.104 7.394 7.554 7.644
3076.720 7.804 7.864 7.864 7.444 6.734 6.384 6.024 5.464 4.474 3.914
3096.009 3.944 3.514 3.074 2.864 2.434 2.274 2.244 1.884 1.854 1.954
3115.299 1.754 1.574 1.5165 1.3333 1.0905 0.9954 1.1769 1.4119 1.4293 1.634
3134.589 1.804 1.724 1.664 1.624 1.684 1.894 1.774 1.584 1.714 1.774
3153.879 1.4718 1.0376 1.1536 1.4843 1.764 1.894 1.4291 0.9898 0.9039 1.3773
3173.169 1.584 1.3751 1.534 1.624 1.2629 1.5223 1.814 2.164 2.354 1.944
3192.458 1.954 1.834 1.744 1.594 1.3978 1.644 1.824 1.804 2.204 2.504
3211.748 2.384 2.564 2.554 2.414 2.594 2.054 1.614 1.924 2.214 2.184
3231.038 2.274 2.474 2.614 2.504 2.094 2.304 2.354 2.104 2.034 1.844
3250.328 1.734 1.874 2.104 2.494 2.404 2.334 2.254 1.824 1.684 1.884
3269.617 2.484 2.864 2.734 2.194 1.864 2.254 2.624 2.634 2.404 2.474
3288.907 2.554 2.194 2.514 2.754 2.684 2.934 2.914 3.114 3.424 3.214
3308.197 2.764 2.724 3.104 3.084 3.464 3.704 3.474 3.894 4.124 4.234
3327.487 4.944 5.404 5.334 5.804 6.764 7.564 8.414 9.634 10.594 10.824
3346.777 11.654 12.944 13.294 13.574 14.464 15.104 15.154 15.264 15.384 14.844
3366.066 14.214 13.884 13.444 12.924 12.254 11.234 10.564 10.044 8.764 8.274
3385.356 8.054 7.124 6.824 6.454 5.924 5.784 5.474 5.064 5.404 5.674
3404.646 5.234 4.864 4.344 3.884 3.944 4.324 3.984 3.454 3.784 3.764
3423.936 2.944 2.564 2.724 3.044 3.664 3.674 3.214 2.934 2.534 2.334
3443.225 2.674 2.744 2.574 2.784 3.204 3.594 3.834 4.234 4.784 5.304
3462.515 5.704 6.324 6.944 7.614 8.374 9.104 10.124 11.354 11.924 11.814
3481.805 11.994 11.784 11.344 11.024 10.184 9.234 8.574 7.764 7.224 6.364
3501.095 5.534 5.094 4.474 4.014 3.644 3.044 2.704 2.924 2.714 2.724
3520.385 2.534 1.804 1.794 1.834 1.1928 1.3508 1.734 1.564 1.1453 1.2491
3539.674 1.804 1.744 1.714 1.854 2.094 1.814 1.4301 1.3677 0.9592 0.8625
3558.964 1.2746 1.4624 1.4318 1.564 1.614 1.844 1.964 1.624 1.1225 1.3157
3578.254 1.604 1.4421 1.4583 1.2498 1.5014 1.524 1.3239 1.2515 1.4225 1.3764
3597.544 1.2794 1.2914 0.825 0.8826 1.2221 1.5054 1.3967 0.8264 0.6469 0.9663
3616.833 0.6488 0.278 0.5023 0.57494 0.8585 1.0054 0.5513 0.4615 0.7333 0.9184
3636.123 1.1746 1.3709 1.4694 1.234 1.088 0.821 0.6456 0.9395 0.9697 0.8341
3655.413 1.1306 1.3547 1.223 1.4922 1.3408 0.8749 0.9692 0.807 0.254 0.006
3674.703 0.143 0.4307 0.7415 0.251 0.224 0.9633 0.9879 0.8582 1.2531 1.4606
3693.993 1.1963 1.1272 0.9794 0.8955 1.0121 1.2865 1.378 1.39 1.3962 1.0025
3713.282 0.7312 0.9371 0.8461 0.7033 0.8288 1.2168 1.3449 1.3069 1.3631 0.8638
3732.572 0.355 0.4785 0.8026 0.8246 0.803 0.8599 1.3464 1.734 1.3369 0.8427
3751.862 1.0376 1.2022 1.1012 1.1109 0.9322 0.53728 0.7596 1.2321 0.9977 0.8736
3771.152 0.9389 0.9197 0.79 0.9624 0.9275 0.8975 1.3948 1.3785 1.1139 1.3071
3790.441 1.554 1.4088 1.3422 1.0554 0.9117 0.58871 0.57562 1.064 0.9839 0.8219
3809.731 1.004 1.4324 1.614 1.143 0.6833 0.6619 0.4632 0.56507 0.8232 0.8052
3829.021 0.6685 0.6377 0.8427 1.1546 0.8543 0.8474 1.2829 1.2 1.2652 1.2421
3848.311 0.8361 0.8561 0.9658 0.8319 0.479 0.4937 1.0795 1.3212 1.4452 1.2376
3867.601 1.1112 1.3504 1.2697 0.8449 0.7582 1.0553 1.3638 1.3791 0.8801 0.8268
3886.890 1.1037 0.9452 0.759 1.0408 1.1971 0.9905 1.0779 1.3696 1.1581 0.8835
3906.180 1.0377 1.3948 1.3627 1.1307 1.0102 1.4272 1.3188 0.9343 1.282 0.9429
3925.470 1.1245 1.654 1.704 1.614 0.55322 0.099 0.8068 0.58683 0.7711 1.3895
3944.760 0.8068 0.5096 0.9232 0.7398 0.355 0 0.131 0.8506 1.2564 0.9121
3964.049 0.6695 1.0551 1.3213 1.0512 0.7591 1.1784 1.3194 1.604 1.834 1.433
3983.339 1.3203 1.2849 0.7893 0.6756 0.7725 0.9067 1.2039 1.184 1.2541 1.2471
##END=
