##TITLE=SILANE, TRIMETHOXY-[3[N-(2-AMINOETHYL)]AMINOPROPYL]-
##JCAMP-DX=4.24
##DATA TYPE=INFRARED SPECTRUM
##CLASS=COBLENTZ III
##ORIGIN=DOW CORNING CORP.
##OWNER=COBLENTZ SOCIETY
Collection (C) 2018 copyright by the U.S. Secretary of Commerce
on behalf of the United States of America. All rights reserved.
##DATE=1965/02/16
##NAMES=N<1>-[3-(trimethoxysilyl)propyl]-1,2-ethanediamine
Z-6020 CURING AGENT - DOW CORNING
##CAS REGISTRY NO=1760-24-3
##MOLFORM=C8 H22 N2 O3 Si
##SOURCE REFERENCE=COBLENTZ NO. 10109
##$NIST SOURCE=COBLENTZ
##$NIST IMAGE=cob10109
##SPECTROMETER/DATA SYSTEM=PERKIN-ELMER 521 (GRATING)
##INSTRUMENT PARAMETERS=FILTERS AT 3150, 2500, 2000, 1150, 700, 410 AND GRATING CHANGES AT 2000, 630 CM^-^1
##STATE=SOLUTION (5% IN CCl4 FOR 3800-900, 2.8% IN CS2 FOR 900-600, AND 5% IN CCl4 FOR 600-250 CM^-^1) VS. SOLVENT
##PATH LENGTH=0.011, 0.011, AND 0.020 CM (CsBr CELL)
##SAMPLING PROCEDURE=TRANSMISSION
##RESOLUTION=4
##DATA PROCESSING=DIGITIZED BY NIST FROM HARD COPY (FROM TWO SEGMENTS)
##XUNITS=1/CM
##YUNITS=TRANSMITTANCE
##XFACTOR=1.000000
##YFACTOR=1
##DELTAX=0.921661
##FIRSTX=242.396
##LASTX=3796.32
##FIRSTY=0.649
##MAXX=3796.32
##MINX=242.396
##MAXY=0.912
##MINY=0.013
##NPOINTS=3857
##XYDATA=(X++(Y..Y))
242.396000 0.6490 0.6550 0.6570 0.6590 0.6620
247.004304 0.6630 0.6640 0.6660 0.6670 0.6700
251.612607 0.6720 0.6750 0.6790 0.6860 0.6910
256.220911 0.6940 0.6940 0.6950 0.6950 0.6960
260.829214 0.6960 0.6960 0.6960 0.6950 0.6950
265.437518 0.6960 0.6960 0.6970 0.7010 0.7030
270.045822 0.7040 0.7050 0.7090 0.7100 0.7110
274.654125 0.7120 0.7130 0.7140 0.7170 0.7180
279.262429 0.7210 0.7230 0.7290 0.7330 0.7340
283.870733 0.7370 0.7380 0.7380 0.7380 0.7370
288.479036 0.7370 0.7360 0.7360 0.7360 0.7350
293.087340 0.7340 0.7340 0.7340 0.7340 0.7350
297.695643 0.7350 0.7340 0.7340 0.7330 0.7330
302.303947 0.7310 0.7310 0.7310 0.7310 0.7330
306.912251 0.7330 0.7310 0.7300 0.7290 0.7280
311.520554 0.7250 0.7210 0.7190 0.7180 0.7190
316.128858 0.7190 0.7200 0.7200 0.7180 0.7130
320.737161 0.7130 0.7120 0.7100 0.7060 0.7040
325.345465 0.7030 0.6990 0.6960 0.6910 0.6890
329.953769 0.6870 0.6840 0.6820 0.6780 0.6740
334.562072 0.6720 0.6710 0.6680 0.6650 0.6640
339.170376 0.6570 0.6540 0.6510 0.6490 0.6470
343.778679 0.6440 0.6440 0.6430 0.6410 0.6400
348.386983 0.6410 0.6430 0.6470 0.6480 0.6480
352.995287 0.6490 0.6480 0.6470 0.6460 0.6410
357.603590 0.6380 0.6360 0.6380 0.6400 0.6420
362.211894 0.6420 0.6400 0.6360 0.6340 0.6330
366.820198 0.6330 0.6340 0.6350 0.6380 0.6400
371.428501 0.6410 0.6430 0.6430 0.6380 0.6380
376.036805 0.6350 0.6340 0.6340 0.6340 0.6340
380.645108 0.6330 0.6330 0.6340 0.6390 0.6420
385.253412 0.6470 0.6490 0.6500 0.6570 0.6580
389.861716 0.6580 0.6560 0.6560 0.6550 0.6550
394.470019 0.6550 0.6560 0.6570 0.6570 0.6590
399.078323 0.6600 0.6630 0.6640 0.6650 0.6660
403.686626 0.6660 0.6660 0.6660 0.6660 0.6670
408.294930 0.6670 0.6650 0.6630 0.6620 0.6600
412.903234 0.6590 0.6590 0.6570 0.6560 0.6490
417.511537 0.6440 0.6400 0.6340 0.6280 0.6210
422.119841 0.6160 0.6090 0.6030 0.6010 0.5930
426.728144 0.5840 0.5780 0.5750 0.5710 0.5670
431.336448 0.5620 0.5600 0.5550 0.5540 0.5550
435.944752 0.5550 0.5600 0.5610 0.5640 0.5680
440.553055 0.5710 0.5750 0.5780 0.5790 0.5840
445.161359 0.5870 0.5930 0.5990 0.6000 0.6010
449.769663 0.6020 0.6020 0.6010 0.6010 0.6010
454.377966 0.6020 0.6040 0.6040 0.6040 0.6040
458.986270 0.6030 0.6030 0.6040 0.6100 0.6110
463.594573 0.6160 0.6190 0.6230 0.6260 0.6330
468.202877 0.6360 0.6440 0.6520 0.6590 0.6660
472.811181 0.6730 0.6800 0.6870 0.6930 0.6970
477.419484 0.6980 0.6990 0.7010 0.7030 0.7090
482.027788 0.7100 0.7120 0.7130 0.7140 0.7150
486.636091 0.7150 0.7170 0.7180 0.7190 0.7190
491.244395 0.7200 0.7210 0.7210 0.7210 0.7200
495.852699 0.7200 0.7190 0.7190 0.7190 0.7200
500.461002 0.7270 0.7290 0.7300 0.7340 0.7410
505.069306 0.7420 0.7440 0.7460 0.7470 0.7510
509.677610 0.7520 0.7530 0.7530 0.7530 0.7540
514.285913 0.7580 0.7600 0.7620 0.7650 0.7680
518.894217 0.7700 0.7700 0.7740 0.7760 0.7770
523.502520 0.7780 0.7800 0.7820 0.7830 0.7830
528.110824 0.7840 0.7840 0.7860 0.7890 0.7900
532.719128 0.7910 0.7920 0.7940 0.7960 0.8020
537.327431 0.8060 0.8080 0.8100 0.8130 0.8140
541.935735 0.8150 0.8160 0.8170 0.8170 0.8190
546.544038 0.8210 0.8210 0.8210 0.8210 0.8210
551.152342 0.8210 0.8220 0.8220 0.8240 0.8250
555.760646 0.8270 0.8270 0.8280 0.8300 0.8320
560.368949 0.8330 0.8350 0.8350 0.8370 0.8370
564.977253 0.8320 0.8310 0.8320 0.8330 0.8330
569.585556 0.8350 0.8350 0.8360 0.8350 0.8330
574.193860 0.8330 0.8350 0.8360 0.8350 0.8350
578.802164 0.8350 0.8330 0.8330 0.8350 0.8360
583.410467 0.8370 0.8370 0.8360 0.8350 0.8330
588.018771 0.8320 0.8310 0.8280 0.8220 0.8210
592.627075 0.8200 0.8190 0.8160 0.8150 0.8130
597.235378 0.8120 0.8120 0.8100 0.8090 0.8080
601.843682 0.8060 0.8050 0.8040 0.8020 0.8000
606.451985 0.7990 0.7970 0.7940 0.7940 0.7960
611.060289 0.7970 0.7990 0.8000 0.8020 0.8040
615.668593 0.8040 0.8050 0.8050 0.8050 0.8050
620.276896 0.8050 0.8050 0.8050 0.8050 0.8050
624.885200 0.8050 0.8050 0.8050 0.8050 0.8050
629.493503 0.8050 0.8050 0.8050 0.8050 0.8050
634.101807 0.8050 0.8050 0.8050 0.8050 0.8050
638.710111 0.8050 0.8050 0.8050 0.8050 0.8050
643.318414 0.8050 0.8050 0.8040 0.8040 0.8040
647.926718 0.8040 0.8040 0.8040 0.8040 0.8040
652.535022 0.8040 0.8040 0.8040 0.8040 0.8040
657.143325 0.8040 0.8040 0.8040 0.8040 0.8040
661.751629 0.8040 0.8040 0.8040 0.8040 0.8040
666.359932 0.8020 0.8020 0.8020 0.8020 0.8020
670.968236 0.8020 0.8020 0.8020 0.8020 0.8020
675.576540 0.8020 0.8020 0.8020 0.8020 0.8020
680.184843 0.8020 0.8020 0.8020 0.8020 0.8020
684.793147 0.8020 0.8020 0.8020 0.8010 0.8000
689.401450 0.7970 0.7960 0.7940 0.7930 0.7920
694.009754 0.7910 0.7900 0.7890 0.7880 0.7880
698.618058 0.7880 0.7880 0.7860 0.7860 0.7860
703.226361 0.7850 0.7850 0.7850 0.7850 0.7840
707.834665 0.7840 0.7830 0.7830 0.7830 0.7820
712.442968 0.7820 0.7800 0.7780 0.7780 0.7770
717.051272 0.7760 0.7750 0.7740 0.7730 0.7720
721.659576 0.7690 0.7690 0.7690 0.7680 0.7650
726.267879 0.7610 0.7600 0.7590 0.7570 0.7530
730.876183 0.7520 0.7510 0.7490 0.7460 0.7440
735.484487 0.7390 0.7310 0.7250 0.7250 0.7210
740.092790 0.7130 0.7100 0.7090 0.7070 0.7040
744.701094 0.6940 0.6900 0.6810 0.6750 0.6660
749.309397 0.6600 0.6510 0.6420 0.6380 0.6300
753.917701 0.6210 0.6150 0.6040 0.5990 0.5930
758.526005 0.5870 0.5810 0.5770 0.5730 0.5690
763.134308 0.5640 0.5620 0.5560 0.5530 0.5480
767.742612 0.5380 0.5280 0.5160 0.5070 0.4990
772.350915 0.4920 0.4820 0.4760 0.4680 0.4670
776.959219 0.4650 0.4610 0.4600 0.4590 0.4590
781.567523 0.4580 0.4580 0.4580 0.4570 0.4570
786.175826 0.4550 0.4530 0.4520 0.4470 0.4450
790.784130 0.4450 0.4460 0.4460 0.4470 0.4490
795.392433 0.4490 0.4490 0.4460 0.4370 0.4340
800.000737 0.4270 0.4210 0.4140 0.4100 0.4050
804.609041 0.3970 0.3900 0.3820 0.3760 0.3710
809.217344 0.3660 0.3600 0.3570 0.3520 0.3480
813.825648 0.3440 0.3410 0.3400 0.3410 0.3420
818.433952 0.3440 0.3470 0.3490 0.3550 0.3550
823.042255 0.3610 0.3710 0.3810 0.3940 0.4050
827.650559 0.4110 0.4260 0.4380 0.4569 0.4709
832.258862 0.4890 0.5080 0.5520 0.5750 0.5950
836.867166 0.6150 0.6310 0.6460 0.6649 0.6859
841.475470 0.6890 0.7030 0.7120 0.7200 0.7250
846.083773 0.7250 0.7250 0.7250 0.7250 0.7250
850.692077 0.7250 0.7250 0.7250 0.7250 0.7250
855.300380 0.7250 0.7250 0.7250 0.7250 0.7250
859.908684 0.7250 0.7250 0.7250 0.7250 0.7250
864.516988 0.7250 0.7250 0.7250 0.7250 0.7250
869.125291 0.7250 0.7250 0.7250 0.7250 0.7250
873.733595 0.7250 0.7250 0.7250 0.7250 0.7250
878.341899 0.7250 0.7250 0.7250 0.7250 0.7250
882.950202 0.7250 0.7250 0.7250 0.7250 0.7250
887.558506 0.7250 0.7250 0.7250 0.7250 0.7250
892.166809 0.7250 0.7250 0.7250 0.7250 0.7250
896.775113 0.7250 0.7250 0.7250 0.7250 0.7250
901.383417 0.7250 0.7250 0.7250 0.7250 0.7250
905.991720 0.7250 0.7250 0.7250 0.7250 0.7250
910.600024 0.7250 0.7250 0.7250 0.7250 0.7250
915.208327 0.7250 0.7250 0.7250 0.7250 0.7250
919.816631 0.7250 0.7250 0.7250 0.7250 0.7250
924.424935 0.7250 0.7250 0.7250 0.7250 0.7250
929.033238 0.7250 0.7250 0.7250 0.7250 0.7250
933.641542 0.7250 0.7250 0.7250 0.7220 0.7210
938.249845 0.7200 0.7190 0.7170 0.7140 0.7120
942.858149 0.7120 0.7120 0.7120 0.7130 0.7130
947.466453 0.7140 0.7150 0.7150 0.7120 0.7100
952.074756 0.7100 0.7090 0.7070 0.7070 0.7020
956.683060 0.6990 0.6980 0.6960 0.6910 0.6900
961.291364 0.6890 0.6870 0.6820 0.6820 0.6820
965.899667 0.6800 0.6760 0.6750 0.6730 0.6710
970.507971 0.6670 0.6650 0.6630 0.6620 0.6600
975.116274 0.6570 0.6560 0.6560 0.6550 0.6540
979.724578 0.6520 0.6510 0.6490 0.6430 0.6380
984.332882 0.6350 0.6330 0.6310 0.6300 0.6240
988.941185 0.6210 0.6190 0.6150 0.6070 0.6030
993.549489 0.5990 0.5930 0.5890 0.5780 0.5730
998.157792 0.5700 0.5650 0.5570 0.5530 0.5480
1002.766096 0.5380 0.5300 0.5260 0.5220 0.5150
1007.374400 0.5080 0.5020 0.5010 0.5000 0.4990
1011.982703 0.4950 0.4920 0.4900 0.4900 0.4890
1016.591007 0.4840 0.4810 0.4810 0.4810 0.4790
1021.199311 0.4790 0.4780 0.4770 0.4730 0.4700
1025.807614 0.4690 0.4680 0.4670 0.4630 0.4580
1030.415918 0.4510 0.4460 0.4380 0.4360 0.4290
1035.024221 0.4260 0.4210 0.4160 0.4150 0.4100
1039.632525 0.4020 0.3970 0.3960 0.3910 0.3860
1044.240829 0.3810 0.3790 0.3750 0.3690 0.3670
1048.849132 0.3590 0.3550 0.3490 0.3410 0.3370
1053.457436 0.3260 0.3120 0.2980 0.2840 0.2710
1058.065739 0.2600 0.2480 0.2370 0.2250 0.2150
1062.674043 0.2020 0.1910 0.1790 0.1680 0.1550
1067.282347 0.1440 0.1310 0.1190 0.1060 0.0990
1071.890650 0.0920 0.0850 0.0760 0.0680 0.0590
1076.498954 0.0500 0.0400 0.0350 0.0300 0.0220
1081.107257 0.0200 0.0190 0.0170 0.0160 0.0140
1085.715561 0.0130 0.0130 0.0140 0.0170 0.0180
1090.323865 0.0180 0.0190 0.0220 0.0280 0.0300
1094.932168 0.0300 0.0320 0.0350 0.0430 0.0450
1099.540472 0.0490 0.0510 0.0520 0.0530 0.0540
1104.148776 0.0580 0.0640 0.0710 0.0760 0.0800
1108.757079 0.0820 0.0840 0.0910 0.1030 0.1170
1113.365383 0.1310 0.1420 0.1510 0.1600 0.1670
1117.973686 0.1710 0.1850 0.1950 0.2080 0.2170
1122.581990 0.2240 0.2300 0.2390 0.2500 0.2699
1127.190294 0.2820 0.2950 0.2970 0.3130 0.3230
1131.798597 0.3320 0.3420 0.3500 0.3590 0.3660
1136.406901 0.3690 0.3760 0.3810 0.3920 0.4030
1141.015204 0.4180 0.4200 0.4240 0.4270 0.4300
1145.623508 0.4370 0.4440 0.4500 0.4570 0.4620
1150.231812 0.4660 0.4690 0.4700 0.4710 0.4740
1154.840115 0.4750 0.4750 0.4750 0.4760 0.4760
1159.448419 0.4750 0.4730 0.4700 0.4670 0.4620
1164.056722 0.4580 0.4570 0.4520 0.4460 0.4440
1168.665026 0.4390 0.4350 0.4280 0.4190 0.4140
1173.273330 0.4060 0.3970 0.3890 0.3780 0.3660
1177.881633 0.3530 0.3400 0.3260 0.3120 0.2961
1182.489937 0.2810 0.2640 0.2540 0.2500 0.2430
1187.098241 0.2410 0.2410 0.2450 0.2470 0.2540
1191.706544 0.2640 0.2740 0.2850 0.2970 0.3100
1196.314848 0.3240 0.3400 0.3570 0.3750 0.3989
1200.923151 0.4200 0.4370 0.4520 0.4660 0.4770
1205.531455 0.4870 0.4970 0.5070 0.5160 0.5250
1210.139759 0.5360 0.5620 0.5720 0.5800 0.5890
1214.748062 0.6000 0.6070 0.6130 0.6190 0.6240
1219.356366 0.6280 0.6330 0.6390 0.6430 0.6480
1223.964669 0.6520 0.6590 0.6630 0.6670 0.6720
1228.572973 0.6730 0.6760 0.6780 0.6790 0.6790
1233.181277 0.6790 0.6800 0.6800 0.6800 0.6800
1237.789580 0.6810 0.6810 0.6800 0.6800 0.6780
1242.397884 0.6750 0.6720 0.6710 0.6700 0.6700
1247.006188 0.6660 0.6660 0.6640 0.6600 0.6590
1251.614491 0.6590 0.6600 0.6600 0.6620 0.6630
1256.222795 0.6640 0.6650 0.6720 0.6740 0.6840
1260.831098 0.6970 0.7030 0.7060 0.7100 0.7120
1265.439402 0.7130 0.7150 0.7220 0.7280 0.7300
1270.047706 0.7310 0.7330 0.7340 0.7350 0.7370
1274.656009 0.7370 0.7380 0.7420 0.7430 0.7430
1279.264313 0.7440 0.7440 0.7440 0.7440 0.7440
1283.872616 0.7440 0.7440 0.7440 0.7440 0.7450
1288.480920 0.7460 0.7470 0.7490 0.7490 0.7500
1293.089224 0.7500 0.7490 0.7460 0.7440 0.7410
1297.697527 0.7390 0.7380 0.7380 0.7380 0.7380
1302.305831 0.7390 0.7390 0.7410 0.7420 0.7450
1306.914134 0.7500 0.7560 0.7570 0.7580 0.7590
1311.522438 0.7620 0.7650 0.7670 0.7690 0.7720
1316.130742 0.7740 0.7760 0.7800 0.7830 0.7840
1320.739045 0.7840 0.7850 0.7850 0.7850 0.7850
1325.347349 0.7850 0.7840 0.7770 0.7750 0.7720
1329.955653 0.7650 0.7590 0.7560 0.7500 0.7460
1334.563956 0.7440 0.7440 0.7440 0.7430 0.7430
1339.172260 0.7430 0.7420 0.7410 0.7410 0.7410
1343.780563 0.7410 0.7420 0.7420 0.7430 0.7430
1348.388867 0.7440 0.7470 0.7470 0.7490 0.7510
1352.997171 0.7520 0.7530 0.7530 0.7540 0.7540
1357.605474 0.7560 0.7570 0.7570 0.7570 0.7580
1362.213778 0.7580 0.7590 0.7590 0.7590 0.7600
1366.822081 0.7610 0.7620 0.7640 0.7640 0.7650
1371.430385 0.7660 0.7660 0.7680 0.7680 0.7690
1376.038689 0.7690 0.7700 0.7720 0.7720 0.7720
1380.646992 0.7720 0.7730 0.7740 0.7740 0.7740
1385.255296 0.7750 0.7760 0.7770 0.7780 0.7780
1389.863599 0.7760 0.7750 0.7750 0.7730 0.7730
1394.471903 0.7720 0.7720 0.7700 0.7690 0.7670
1399.080207 0.7650 0.7610 0.7580 0.7520 0.7450
1403.688510 0.7350 0.7260 0.7140 0.7020 0.6990
1408.296814 0.7010 0.7100 0.7200 0.7280 0.7370
1412.905118 0.7450 0.7570 0.7600 0.7680 0.7700
1417.513421 0.7730 0.7730 0.7740 0.7730 0.7700
1422.121725 0.7690 0.7660 0.7590 0.7570 0.7490
1426.730028 0.7440 0.7410 0.7360 0.7280 0.7230
1431.338332 0.7020 0.6940 0.6790 0.6700 0.6590
1435.946636 0.6520 0.6440 0.6340 0.6310 0.6190
1440.554939 0.6130 0.6070 0.6030 0.6020 0.6010
1445.163243 0.5960 0.5910 0.5870 0.5850 0.5750
1449.771546 0.5640 0.5540 0.5490 0.5440 0.5370
1454.379850 0.5290 0.5240 0.5240 0.5260 0.5310
1458.988154 0.5360 0.5400 0.5530 0.5600 0.5640
1463.596457 0.5700 0.5760 0.5850 0.5920 0.6000
1468.204761 0.6070 0.6100 0.6260 0.6380 0.6480
1472.813065 0.6570 0.6650 0.6730 0.6820 0.6900
1477.421368 0.6990 0.7100 0.7130 0.7260 0.7360
1482.029672 0.7410 0.7460 0.7510 0.7540 0.7580
1486.637975 0.7600 0.7660 0.7680 0.7680 0.7690
1491.246279 0.7740 0.7760 0.7800 0.7840 0.7850
1495.854583 0.7860 0.7860 0.7860 0.7860 0.7880
1500.462886 0.7900 0.7910 0.7920 0.7930 0.7940
1505.071190 0.7960 0.7970 0.7980 0.7990 0.7990
1509.679493 0.8000 0.8010 0.8010 0.8010 0.8010
1514.287797 0.8010 0.8020 0.8020 0.8020 0.8020
1518.896101 0.8020 0.8020 0.8040 0.8040 0.8020
1523.504404 0.8040 0.8060 0.8080 0.8090 0.8120
1528.112708 0.8120 0.8090 0.8060 0.8060 0.8060
1532.721011 0.8080 0.8080 0.8080 0.8090 0.8090
1537.329315 0.8080 0.8080 0.8090 0.8090 0.8080
1541.937619 0.8050 0.8050 0.8040 0.8040 0.8020
1546.545922 0.8040 0.8050 0.8050 0.8050 0.8040
1551.154226 0.8040 0.8040 0.8020 0.8010 0.8000
1555.762530 0.8000 0.8010 0.8010 0.8020 0.8020
1560.370833 0.8000 0.7960 0.7940 0.7940 0.7940
1564.979137 0.7940 0.7940 0.7920 0.7920 0.7910
1569.587440 0.7900 0.7890 0.7880 0.7860 0.7860
1574.195744 0.7860 0.7860 0.7860 0.7860 0.7860
1578.804048 0.7860 0.7860 0.7860 0.7860 0.7860
1583.412351 0.7860 0.7860 0.7850 0.7850 0.7850
1588.020655 0.7850 0.7860 0.7860 0.7860 0.7860
1592.628958 0.7860 0.7850 0.7850 0.7850 0.7840
1597.237262 0.7820 0.7820 0.7810 0.7780 0.7770
1601.845566 0.7760 0.7750 0.7750 0.7750 0.7750
1606.453869 0.7750 0.7760 0.7770 0.7780 0.7800
1611.062173 0.7820 0.7840 0.7850 0.7850 0.7850
1615.670477 0.7860 0.7890 0.7920 0.7920 0.7970
1620.278780 0.8000 0.8020 0.8020 0.8040 0.8050
1624.887084 0.8080 0.8100 0.8120 0.8130 0.8140
1629.495387 0.8200 0.8220 0.8240 0.8250 0.8280
1634.103691 0.8280 0.8290 0.8300 0.8300 0.8310
1638.711995 0.8310 0.8310 0.8320 0.8330 0.8350
1643.320298 0.8360 0.8380 0.8410 0.8430 0.8440
1647.928602 0.8440 0.8450 0.8450 0.8440 0.8450
1652.536905 0.8450 0.8460 0.8470 0.8470 0.8490
1657.145209 0.8510 0.8510 0.8520 0.8520 0.8520
1661.753513 0.8520 0.8520 0.8520 0.8520 0.8540
1666.361816 0.8540 0.8540 0.8550 0.8550 0.8570
1670.970120 0.8590 0.8590 0.8590 0.8590 0.8590
1675.578423 0.8570 0.8560 0.8560 0.8560 0.8570
1680.186727 0.8600 0.8610 0.8610 0.8620 0.8620
1684.795031 0.8610 0.8610 0.8600 0.8600 0.8590
1689.403334 0.8590 0.8570 0.8540 0.8470 0.8470
1694.011638 0.8530 0.8550 0.8550 0.8550 0.8560
1698.619942 0.8570 0.8600 0.8620 0.8630 0.8630
1703.228245 0.8630 0.8630 0.8630 0.8620 0.8620
1707.836549 0.8630 0.8630 0.8640 0.8650 0.8670
1712.444852 0.8670 0.8670 0.8680 0.8670 0.8650
1717.053156 0.8650 0.8650 0.8640 0.8650 0.8640
1721.661460 0.8630 0.8600 0.8600 0.8590 0.8590
1726.269763 0.8600 0.8620 0.8640 0.8640 0.8620
1730.878067 0.8620 0.8610 0.8620 0.8620 0.8620
1735.486370 0.8630 0.8630 0.8630 0.8630 0.8630
1740.094674 0.8600 0.8600 0.8610 0.8650 0.8670
1744.702978 0.8680 0.8680 0.8690 0.8690 0.8700
1749.311281 0.8690 0.8690 0.8690 0.8690 0.8700
1753.919585 0.8710 0.8710 0.8720 0.8730 0.8730
1758.527888 0.8730 0.8750 0.8750 0.8710 0.8720
1763.136192 0.8720 0.8750 0.8760 0.8750 0.8710
1767.744496 0.8700 0.8690 0.8700 0.8750 0.8760
1772.352799 0.8760 0.8770 0.8770 0.8720 0.8710
1776.961103 0.8710 0.8720 0.8720 0.8720 0.8710
1781.569407 0.8720 0.8720 0.8720 0.8730 0.8730
1786.177710 0.8730 0.8710 0.8710 0.8720 0.8730
1790.786014 0.8750 0.8760 0.8750 0.8720 0.8760
1795.394317 0.8760 0.8770 0.8770 0.8770 0.8770
1800.002621 0.8770 0.8770 0.8770 0.8770 0.8770
1804.610925 0.8770 0.8770 0.8770 0.8780 0.8780
1809.219228 0.8780 0.8750 0.8720 0.8720 0.8720
1813.827532 0.8720 0.8730 0.8730 0.8720 0.8720
1818.435835 0.8720 0.8720 0.8710 0.8710 0.8710
1823.044139 0.8710 0.8710 0.8750 0.8750 0.8700
1827.652443 0.8700 0.8700 0.8690 0.8690 0.8690
1832.260746 0.8690 0.8690 0.8690 0.8690 0.8690
1836.869050 0.8700 0.8700 0.8700 0.8690 0.8690
1841.477354 0.8710 0.8700 0.8700 0.8700 0.8700
1846.085657 0.8690 0.8680 0.8670 0.8650 0.8640
1850.693961 0.8640 0.8640 0.8650 0.8650 0.8650
1855.302264 0.8670 0.8680 0.8670 0.8650 0.8640
1859.910568 0.8640 0.8640 0.8640 0.8630 0.8630
1864.518872 0.8620 0.8600 0.8590 0.8570 0.8560
1869.127175 0.8550 0.8550 0.8540 0.8540 0.8540
1873.735479 0.8540 0.8550 0.8550 0.8570 0.8590
1878.343782 0.8590 0.8570 0.8570 0.8570 0.8560
1882.952086 0.8550 0.8530 0.8510 0.8520 0.8550
1887.560390 0.8550 0.8560 0.8560 0.8560 0.8570
1892.168693 0.8570 0.8570 0.8570 0.8570 0.8570
1896.776997 0.8570 0.8590 0.8570 0.8570 0.8570
1901.385300 0.8570 0.8570 0.8570 0.8570 0.8570
1905.993604 0.8560 0.8560 0.8560 0.8560 0.8550
1910.601908 0.8540 0.8530 0.8530 0.8540 0.8550
1915.210211 0.8550 0.8570 0.8590 0.8600 0.8600
1919.818515 0.8570 0.8560 0.8570 0.8590 0.8600
1924.426819 0.8610 0.8620 0.8640 0.8640 0.8630
1929.035122 0.8620 0.8630 0.8650 0.8670 0.8670
1933.643426 0.8670 0.8680 0.8680 0.8690 0.8690
1938.251729 0.8690 0.8700 0.8690 0.8700 0.8700
1942.860033 0.8700 0.8700 0.8710 0.8700 0.8700
1947.468337 0.8690 0.8690 0.8700 0.8700 0.8720
1952.076640 0.8730 0.8730 0.8730 0.8730 0.8730
1956.684944 0.8730 0.8730 0.8750 0.8750 0.8750
1961.293247 0.8750 0.8730 0.8730 0.8720 0.8720
1965.901551 0.8720 0.8720 0.8720 0.8750 0.8760
1970.509855 0.8760 0.8760 0.8750 0.8760 0.8760
1975.118158 0.8770 0.8770 0.8770 0.8780 0.8790
1979.726462 0.8820 0.8820 0.8780 0.8730 0.8720
1984.334766 0.8730 0.8780 0.8790 0.8800 0.8800
1988.943069 0.8800 0.8800 0.8790 0.8770 0.8770
1993.551373 0.8770 0.8780 0.8770 0.8760 0.8700
1998.159676 0.8650 0.8560 0.8540 0.8540 0.8540
2002.767980 0.8545 0.8550 0.8550 0.8550 0.8550
2007.376284 0.8550 0.8555 0.8560 0.8560 0.8560
2011.984587 0.8565 0.8570 0.8570 0.8570 0.8570
2016.592891 0.8570 0.8570 0.8570 0.8580 0.8590
2021.201194 0.8595 0.8600 0.8600 0.8600 0.8600
2025.809498 0.8600 0.8595 0.8590 0.8590 0.8590
2030.417802 0.8590 0.8590 0.8595 0.8600 0.8605
2035.026105 0.8610 0.8615 0.8620 0.8620 0.8620
2039.634409 0.8615 0.8609 0.8599 0.8590 0.8590
2044.242712 0.8589 0.8579 0.8570 0.8570 0.8570
2048.851016 0.8570 0.8570 0.8570 0.8570 0.8570
2053.459320 0.8570 0.8570 0.8570 0.8565 0.8560
2058.067623 0.8560 0.8560 0.8560 0.8560 0.8565
2062.675927 0.8570 0.8570 0.8570 0.8570 0.8571
2067.284231 0.8581 0.8590 0.8590 0.8590 0.8590
2071.892534 0.8590 0.8590 0.8591 0.8596 0.8600
2076.500838 0.8600 0.8598 0.8583 0.8570 0.8570
2081.109141 0.8570 0.8570 0.8571 0.8581 0.8591
2085.717445 0.8596 0.8600 0.8600 0.8598 0.8583
2090.325749 0.8570 0.8570 0.8570 0.8570 0.8570
2094.934052 0.8570 0.8570 0.8570 0.8570 0.8570
2099.542356 0.8572 0.8587 0.8600 0.8600 0.8600
2104.150659 0.8600 0.8600 0.8600 0.8600 0.8600
2108.758963 0.8599 0.8594 0.8590 0.8590 0.8590
2113.367267 0.8590 0.8590 0.8590 0.8590 0.8590
2117.975570 0.8590 0.8590 0.8590 0.8590 0.8588
2122.583874 0.8578 0.8569 0.8564 0.8559 0.8554
2127.192177 0.8549 0.8544 0.8539 0.8534 0.8530
2131.800481 0.8530 0.8530 0.8530 0.8530 0.8530
2136.408785 0.8530 0.8530 0.8530 0.8530 0.8530
2141.017088 0.8530 0.8530 0.8530 0.8530 0.8530
2145.625392 0.8530 0.8530 0.8529 0.8524 0.8520
2150.233696 0.8520 0.8520 0.8520 0.8520 0.8520
2154.841999 0.8521 0.8526 0.8530 0.8530 0.8529
2159.450303 0.8524 0.8521 0.8526 0.8530 0.8530
2164.058606 0.8530 0.8530 0.8529 0.8524 0.8520
2168.666910 0.8520 0.8523 0.8533 0.8541 0.8546
2173.275214 0.8549 0.8544 0.8541 0.8546 0.8550
2177.883517 0.8550 0.8550 0.8550 0.8551 0.8556
2182.491821 0.8560 0.8560 0.8562 0.8567 0.8570
2187.100124 0.8570 0.8570 0.8570 0.8576 0.8596
2191.708428 0.8610 0.8610 0.8604 0.8584 0.8570
2196.316732 0.8570 0.8570 0.8570 0.8570 0.8570
2200.925035 0.8570 0.8570 0.8575 0.8590 0.8605
2205.533339 0.8620 0.8632 0.8637 0.8642 0.8647
2210.141643 0.8653 0.8663 0.8667 0.8657 0.8650
2214.749946 0.8650 0.8648 0.8643 0.8640 0.8640
2219.358250 0.8640 0.8640 0.8640 0.8640 0.8640
2223.966553 0.8640 0.8640 0.8640 0.8640 0.8640
2228.574857 0.8642 0.8647 0.8654 0.8664 0.8670
2233.183161 0.8670 0.8670 0.8670 0.8670 0.8670
2237.791464 0.8670 0.8670 0.8666 0.8656 0.8648
2242.399768 0.8643 0.8640 0.8640 0.8640 0.8640
2247.008071 0.8642 0.8647 0.8650 0.8650 0.8650
2251.616375 0.8650 0.8650 0.8650 0.8650 0.8650
2256.224679 0.8650 0.8650 0.8650 0.8650 0.8650
2260.832982 0.8650 0.8650 0.8650 0.8650 0.8650
2265.441286 0.8650 0.8650 0.8654 0.8664 0.8666
2270.049589 0.8656 0.8648 0.8643 0.8642 0.8647
2274.657893 0.8650 0.8650 0.8650 0.8650 0.8650
2279.266197 0.8650 0.8650 0.8650 0.8650 0.8650
2283.874500 0.8655 0.8665 0.8670 0.8670 0.8670
2288.482804 0.8670 0.8670 0.8670 0.8672 0.8677
2293.091108 0.8680 0.8680 0.8682 0.8687 0.8690
2297.699411 0.8690 0.8692 0.8697 0.8702 0.8707
2302.307715 0.8705 0.8695 0.8690 0.8690 0.8690
2306.916018 0.8690 0.8690 0.8690 0.8690 0.8690
2311.524322 0.8693 0.8698 0.8700 0.8700 0.8703
2316.132626 0.8708 0.8710 0.8710 0.8710 0.8710
2320.740929 0.8707 0.8702 0.8703 0.8708 0.8707
2325.349233 0.8702 0.8697 0.8692 0.8693 0.8698
2329.957536 0.8697 0.8692 0.8687 0.8682 0.8680
2334.565840 0.8680 0.8680 0.8680 0.8680 0.8680
2339.174144 0.8686 0.8696 0.8700 0.8700 0.8692
2343.782447 0.8677 0.8670 0.8670 0.8670 0.8670
2348.390751 0.8670 0.8670 0.8670 0.8670 0.8664
2352.999054 0.8654 0.8650 0.8650 0.8650 0.8650
2357.607358 0.8647 0.8642 0.8649 0.8664 0.8670
2362.215662 0.8670 0.8661 0.8646 0.8637 0.8632
2366.823965 0.8630 0.8630 0.8624 0.8614 0.8607
2371.432269 0.8602 0.8600 0.8600 0.8603 0.8608
2376.040573 0.8613 0.8618 0.8623 0.8628 0.8630
2380.648876 0.8630 0.8633 0.8638 0.8637 0.8632
2385.257180 0.8627 0.8622 0.8620 0.8620 0.8620
2389.865483 0.8620 0.8617 0.8612 0.8610 0.8610
2394.473787 0.8613 0.8618 0.8620 0.8620 0.8623
2399.082091 0.8628 0.8627 0.8622 0.8620 0.8620
2403.690394 0.8617 0.8612 0.8610 0.8610 0.8610
2408.298698 0.8610 0.8610 0.8610 0.8610 0.8610
2412.907001 0.8610 0.8610 0.8607 0.8602 0.8600
2417.515305 0.8600 0.8600 0.8600 0.8603 0.8608
2422.123609 0.8617 0.8627 0.8626 0.8621 0.8620
2426.731912 0.8620 0.8616 0.8611 0.8606 0.8601
2431.340216 0.8600 0.8600 0.8600 0.8600 0.8600
2435.948520 0.8600 0.8600 0.8600 0.8600 0.8600
2440.556823 0.8596 0.8591 0.8590 0.8590 0.8583
2445.165127 0.8573 0.8570 0.8570 0.8570 0.8570
2449.773430 0.8570 0.8570 0.8570 0.8570 0.8570
2454.381734 0.8570 0.8566 0.8561 0.8560 0.8560
2458.990038 0.8556 0.8551 0.8546 0.8541 0.8536
2463.598341 0.8531 0.8526 0.8521 0.8520 0.8520
2468.206645 0.8520 0.8520 0.8520 0.8520 0.8516
2472.814948 0.8511 0.8514 0.8519 0.8539 0.8565
2477.423252 0.8578 0.8588 0.8566 0.8536 0.8526
2482.031556 0.8521 0.8516 0.8511 0.8502 0.8492
2486.639859 0.8486 0.8481 0.8476 0.8471 0.8470
2491.248163 0.8470 0.8474 0.8479 0.8484 0.8489
2495.856466 0.8490 0.8490 0.8498 0.8508 0.8510
2500.464770 0.8510 0.8510 0.8510 0.8502 0.8492
2505.073074 0.8490 0.8490 0.8490 0.8490 0.8486
2509.681377 0.8481 0.8476 0.8471 0.8478 0.8488
2514.289681 0.8490 0.8490 0.8490 0.8490 0.8490
2518.897985 0.8490 0.8499 0.8509 0.8510 0.8510
2523.506288 0.8501 0.8491 0.8486 0.8481 0.8480
2528.114592 0.8480 0.8476 0.8471 0.8470 0.8470
2532.722895 0.8470 0.8470 0.8466 0.8461 0.8456
2537.331199 0.8451 0.8450 0.8450 0.8454 0.8459
2541.939503 0.8460 0.8460 0.8456 0.8450 0.8450
2546.547806 0.8450 0.8441 0.8431 0.8430 0.8430
2551.156110 0.8430 0.8430 0.8421 0.8411 0.8410
2555.764413 0.8410 0.8419 0.8429 0.8435 0.8440
2560.372717 0.8440 0.8440 0.8435 0.8430 0.8430
2564.981021 0.8430 0.8430 0.8430 0.8430 0.8430
2569.589324 0.8421 0.8410 0.8391 0.8371 0.8365
2574.197628 0.8360 0.8360 0.8360 0.8355 0.8350
2578.805932 0.8350 0.8350 0.8336 0.8321 0.8320
2583.414235 0.8320 0.8315 0.8310 0.8310 0.8310
2588.022539 0.8310 0.8310 0.8305 0.8300 0.8300
2592.630842 0.8300 0.8300 0.8300 0.8300 0.8300
2597.239146 0.8295 0.8290 0.8295 0.8300 0.8295
2601.847450 0.8290 0.8285 0.8280 0.8280 0.8280
2606.455753 0.8275 0.8270 0.8260 0.8250 0.8235
2611.064057 0.8220 0.8215 0.8210 0.8210 0.8210
2615.672360 0.8210 0.8210 0.8205 0.8200 0.8200
2620.280664 0.8200 0.8200 0.8200 0.8179 0.8160
2624.888968 0.8150 0.8140 0.8135 0.8129 0.8114
2629.497271 0.8100 0.8090 0.8080 0.8075 0.8070
2634.105575 0.8070 0.8070 0.8070 0.8070 0.8070
2638.713878 0.8069 0.8059 0.8050 0.8045 0.8039
2643.322182 0.8029 0.8020 0.8015 0.8010 0.8005
2647.930486 0.8000 0.8000 0.8000 0.7995 0.7990
2652.538789 0.7990 0.7990 0.7990 0.7990 0.7990
2657.147093 0.7990 0.7995 0.8000 0.7995 0.7990
2661.755397 0.7990 0.7990 0.7990 0.7989 0.7984
2666.363700 0.7980 0.7980 0.7980 0.7980 0.7979
2670.972004 0.7974 0.7969 0.7964 0.7959 0.7949
2675.580307 0.7939 0.7929 0.7919 0.7914 0.7909
2680.188611 0.7904 0.7901 0.7906 0.7909 0.7904
2684.796915 0.7899 0.7894 0.7889 0.7884 0.7879
2689.405218 0.7869 0.7859 0.7854 0.7850 0.7850
2694.013522 0.7851 0.7856 0.7860 0.7860 0.7859
2698.621825 0.7854 0.7849 0.7844 0.7837 0.7822
2703.230129 0.7809 0.7804 0.7798 0.7788 0.7779
2707.838433 0.7774 0.7769 0.7764 0.7756 0.7736
2712.446736 0.7717 0.7702 0.7688 0.7678 0.7669
2717.055040 0.7664 0.7659 0.7654 0.7649 0.7644
2721.663343 0.7635 0.7610 0.7588 0.7578 0.7565
2726.271647 0.7540 0.7511 0.7466 0.7426 0.7406
2730.879951 0.7387 0.7372 0.7352 0.7312 0.7277
2735.488254 0.7262 0.7248 0.7238 0.7229 0.7224
2740.096558 0.7220 0.7220 0.7220 0.7220 0.7220
2744.704862 0.7220 0.7220 0.7220 0.7220 0.7220
2749.313165 0.7221 0.7226 0.7230 0.7230 0.7230
2753.921469 0.7230 0.7230 0.7230 0.7226 0.7211
2758.529772 0.7193 0.7168 0.7143 0.7118 0.7093
2763.138076 0.7068 0.7049 0.7044 0.7031 0.6996
2767.746380 0.6962 0.6932 0.6903 0.6878 0.6846
2772.354683 0.6796 0.6748 0.6708 0.6668 0.6628
2776.962987 0.6593 0.6568 0.6529 0.6459 0.6389
2781.571290 0.6319 0.6245 0.6160 0.6091 0.6061
2786.179594 0.6022 0.5962 0.5897 0.5822 0.5749
2790.787898 0.5678 0.5617 0.5577 0.5535 0.5490
2795.396201 0.5432 0.5347 0.5264 0.5184 0.5099
2800.004505 0.5004 0.4919 0.4854 0.4802 0.4777
2804.612809 0.4748 0.4713 0.4683 0.4663 0.4638
2809.221112 0.4603 0.4573 0.4553 0.4538 0.4533
2813.829416 0.4528 0.4523 0.4520 0.4520 0.4515
2818.437719 0.4500 0.4485 0.4470 0.4453 0.4433
2823.046023 0.4406 0.4365 0.4331 0.4306 0.4281
2827.654327 0.4256 0.4217 0.4157 0.4087 0.4002
2832.262630 0.3911 0.3811 0.3686 0.3521 0.3342
2836.870934 0.3142 0.2850 0.2415 0.2019 0.1684
2841.479237 0.1480 0.1480 0.1494 0.1529 0.1705
2846.087541 0.2100 0.2488 0.2868 0.3215 0.3515
2850.695845 0.3749 0.3889 0.4001 0.4076 0.4135
2855.304148 0.4170 0.4196 0.4211 0.4228 0.4248
2859.912452 0.4264 0.4274 0.4284 0.4294 0.4304
2864.520755 0.4314 0.4327 0.4342 0.4350 0.4350
2869.129059 0.4352 0.4357 0.4358 0.4353 0.4348
2873.737363 0.4343 0.4326 0.4296 0.4269 0.4244
2878.345666 0.4214 0.4179 0.4140 0.4095 0.4052
2882.953970 0.4011 0.3985 0.3975 0.3968 0.3963
2887.562274 0.3960 0.3960 0.3960 0.3960 0.3960
2892.170577 0.3960 0.3960 0.3960 0.3958 0.3953
2896.778881 0.3948 0.3943 0.3928 0.3903 0.3870
2901.387184 0.3830 0.3787 0.3742 0.3679 0.3599
2905.995488 0.3532 0.3477 0.3437 0.3412 0.3377
2910.603792 0.3332 0.3279 0.3219 0.3172 0.3137
2915.212095 0.3102 0.3067 0.3037 0.3012 0.2974
2919.820399 0.2923 0.2876 0.2831 0.2783 0.2733
2924.428702 0.2683 0.2633 0.2580 0.2525 0.2473
2929.037006 0.2423 0.2373 0.2323 0.2267 0.2207
2933.645310 0.2144 0.2079 0.2012 0.1942 0.1863
2938.253613 0.1777 0.1652 0.1497 0.1393 0.1328
2942.861917 0.1306 0.1316 0.1337 0.1367 0.1460
2947.470221 0.1600 0.1726 0.1841 0.1971 0.2111
2952.078524 0.2245 0.2375 0.2497 0.2612 0.2716
2956.686828 0.2812 0.2886 0.2946 0.3036 0.3146
2961.295131 0.3217 0.3262 0.3352 0.3473 0.3556
2965.903435 0.3616 0.3667 0.3712 0.3760 0.3810
2970.511739 0.3863 0.3918 0.3974 0.4029 0.4090
2975.120042 0.4156 0.4224 0.4294 0.4367 0.4442
2979.728346 0.4530 0.4625 0.4723 0.4824 0.4936
2984.336649 0.5056 0.5240 0.5460 0.5581 0.5646
2988.944953 0.5724 0.5809 0.5891 0.5971 0.6039
2993.553257 0.6099 0.6156 0.6211 0.6283 0.6363
2998.161560 0.6423 0.6473 0.6513 0.6548 0.6580
3002.769864 0.6610 0.6633 0.6653 0.6673 0.6693
3007.378167 0.6717 0.6742 0.6777 0.6817 0.6871
3011.986471 0.6931 0.6974 0.7009 0.7034 0.7054
3016.594775 0.7074 0.7094 0.7114 0.7134 0.7154
3021.203078 0.7174 0.7208 0.7248 0.7270 0.7285
3025.811382 0.7294 0.7299 0.7325 0.7360 0.7402
3030.419686 0.7447 0.7474 0.7494 0.7522 0.7552
3035.027989 0.7567 0.7577 0.7587 0.7597 0.7604
3039.636293 0.7609 0.7628 0.7653 0.7671 0.7686
3044.244596 0.7701 0.7716 0.7724 0.7729 0.7741
3048.852900 0.7756 0.7768 0.7778 0.7795 0.7815
3053.461204 0.7828 0.7838 0.7844 0.7849 0.7854
3058.069507 0.7859 0.7879 0.7904 0.7929 0.7954
3062.677811 0.7983 0.8013 0.8031 0.8046 0.8050
3067.286114 0.8050 0.8054 0.8059 0.8064 0.8069
3071.894418 0.8082 0.8097 0.8108 0.8118 0.8124
3076.502722 0.8129 0.8138 0.8148 0.8166 0.8186
3081.111025 0.8206 0.8226 0.8238 0.8248 0.8250
3085.719329 0.8250 0.8250 0.8250 0.8258 0.8268
3090.327632 0.8274 0.8279 0.8280 0.8280 0.8284
3094.935936 0.8289 0.8298 0.8308 0.8310 0.8310
3099.544240 0.8318 0.8328 0.8330 0.8330 0.8338
3104.152543 0.8348 0.8350 0.8350 0.8350 0.8350
3108.760847 0.8350 0.8350 0.8354 0.8359 0.8360
3113.369151 0.8360 0.8364 0.8369 0.8370 0.8370
3117.977454 0.8374 0.8379 0.8380 0.8380 0.8384
3122.585758 0.8389 0.8421 0.8456 0.8464 0.8469
3127.194061 0.8492 0.8517 0.8529 0.8539 0.8549
3131.802365 0.8559 0.8560 0.8560 0.8564 0.8569
3136.410669 0.8570 0.8570 0.8570 0.8570 0.8579
3141.018972 0.8589 0.8590 0.8590 0.8595 0.8600
3145.627276 0.8600 0.8600 0.8600 0.8600 0.8600
3150.235579 0.8600 0.8600 0.8600 0.8595 0.8590
3154.843883 0.8590 0.8590 0.8581 0.8571 0.8565
3159.452187 0.8560 0.8560 0.8560 0.8565 0.8570
3164.060490 0.8570 0.8570 0.8570 0.8570 0.8565
3168.668794 0.8560 0.8560 0.8560 0.8565 0.8570
3173.277098 0.8570 0.8570 0.8579 0.8589 0.8590
3177.885401 0.8590 0.8595 0.8600 0.8600 0.8600
3182.493705 0.8605 0.8610 0.8610 0.8610 0.8610
3187.102008 0.8610 0.8610 0.8610 0.8610 0.8610
3191.710312 0.8610 0.8610 0.8605 0.8600 0.8600
3196.318616 0.8600 0.8600 0.8600 0.8605 0.8610
3200.926919 0.8605 0.8600 0.8595 0.8590 0.8590
3205.535223 0.8590 0.8580 0.8570 0.8580 0.8590
3210.143526 0.8590 0.8590 0.8590 0.8590 0.8580
3214.751830 0.8570 0.8570 0.8570 0.8570 0.8570
3219.360134 0.8570 0.8570 0.8570 0.8571 0.8591
3223.968437 0.8610 0.8605 0.8600 0.8595 0.8590
3228.576741 0.8590 0.8590 0.8580 0.8570 0.8565
3233.185044 0.8560 0.8560 0.8560 0.8555 0.8550
3237.793348 0.8550 0.8550 0.8550 0.8550 0.8550
3242.401652 0.8550 0.8550 0.8550 0.8555 0.8560
3247.009955 0.8560 0.8560 0.8565 0.8570 0.8565
3251.618259 0.8560 0.8555 0.8550 0.8555 0.8560
3256.226563 0.8560 0.8560 0.8565 0.8571 0.8581
3260.834866 0.8590 0.8590 0.8587 0.8557 0.8530
3265.443170 0.8530 0.8530 0.8530 0.8530 0.8530
3270.051473 0.8530 0.8530 0.8531 0.8536 0.8539
3274.659777 0.8534 0.8529 0.8524 0.8520 0.8520
3279.268081 0.8519 0.8514 0.8510 0.8510 0.8510
3283.876384 0.8510 0.8510 0.8510 0.8510 0.8510
3288.484688 0.8508 0.8498 0.8490 0.8490 0.8490
3293.092991 0.8490 0.8489 0.8484 0.8480 0.8480
3297.701295 0.8480 0.8480 0.8479 0.8474 0.8468
3302.309599 0.8458 0.8449 0.8444 0.8439 0.8434
3306.917902 0.8430 0.8430 0.8428 0.8418 0.8410
3311.526206 0.8410 0.8409 0.8404 0.8399 0.8394
3316.134510 0.8390 0.8390 0.8389 0.8384 0.8380
3320.742813 0.8380 0.8380 0.8380 0.8380 0.8380
3325.351117 0.8381 0.8386 0.8394 0.8414 0.8433
3329.959420 0.8448 0.8463 0.8478 0.8492 0.8502
3334.567724 0.8511 0.8516 0.8521 0.8526 0.8531
3339.176028 0.8536 0.8541 0.8546 0.8551 0.8556
3343.784331 0.8561 0.8566 0.8570 0.8570 0.8570
3348.392635 0.8570 0.8572 0.8582 0.8593 0.8603
3353.000938 0.8611 0.8616 0.8623 0.8633 0.8641
3357.609242 0.8646 0.8653 0.8663 0.8670 0.8670
3362.217546 0.8667 0.8657 0.8647 0.8637 0.8630
3366.825849 0.8630 0.8629 0.8624 0.8617 0.8607
3371.434153 0.8599 0.8594 0.8590 0.8590 0.8587
3376.042456 0.8577 0.8570 0.8570 0.8570 0.8570
3380.650760 0.8570 0.8570 0.8568 0.8563 0.8558
3385.259064 0.8553 0.8550 0.8550 0.8548 0.8543
3389.867367 0.8532 0.8507 0.8488 0.8483 0.8475
3394.475671 0.8460 0.8450 0.8450 0.8456 0.8477
3399.083975 0.8502 0.8537 0.8568 0.8593 0.8615
3403.692278 0.8630 0.8645 0.8660 0.8675 0.8690
3408.300582 0.8702 0.8707 0.8710 0.8710 0.8713
3412.908885 0.8723 0.8735 0.8750 0.8764 0.8774
3417.517189 0.8782 0.8787 0.8790 0.8790 0.8792
3422.125493 0.8797 0.8800 0.8800 0.8804 0.8814
3426.733796 0.8822 0.8827 0.8832 0.8837 0.8840
3431.342100 0.8840 0.8844 0.8854 0.8862 0.8867
3435.950403 0.8870 0.8870 0.8870 0.8870 0.8872
3440.558707 0.8877 0.8880 0.8880 0.8880 0.8880
3445.167011 0.8884 0.8894 0.8900 0.8900 0.8900
3449.775314 0.8900 0.8902 0.8907 0.8910 0.8910
3454.383618 0.8910 0.8910 0.8912 0.8917 0.8920
3458.991921 0.8920 0.8920 0.8920 0.8922 0.8927
3463.600225 0.8930 0.8930 0.8928 0.8923 0.8920
3468.208529 0.8920 0.8918 0.8913 0.8910 0.8910
3472.816832 0.8912 0.8917 0.8920 0.8920 0.8922
3477.425136 0.8927 0.8930 0.8930 0.8928 0.8923
3482.033440 0.8920 0.8920 0.8918 0.8913 0.8910
3486.641743 0.8910 0.8910 0.8910 0.8910 0.8910
3491.250047 0.8910 0.8910 0.8910 0.8910 0.8910
3495.858350 0.8910 0.8910 0.8910 0.8910 0.8910
3500.466654 0.8915 0.8925 0.8930 0.8930 0.8930
3505.074958 0.8930 0.8932 0.8938 0.8940 0.8940
3509.683261 0.8935 0.8925 0.8920 0.8920 0.8920
3514.291565 0.8920 0.8920 0.8920 0.8920 0.8920
3518.899868 0.8920 0.8920 0.8920 0.8920 0.8923
3523.508172 0.8928 0.8930 0.8930 0.8930 0.8930
3528.116476 0.8933 0.8938 0.8934 0.8924 0.8920
3532.724779 0.8920 0.8920 0.8920 0.8920 0.8920
3537.333083 0.8931 0.8951 0.8960 0.8960 0.8954
3541.941387 0.8944 0.8937 0.8932 0.8930 0.8930
3546.549690 0.8930 0.8930 0.8927 0.8922 0.8920
3551.157994 0.8920 0.8920 0.8920 0.8920 0.8920
3555.766297 0.8920 0.8920 0.8920 0.8920 0.8920
3560.374601 0.8920 0.8920 0.8920 0.8932 0.8952
3564.982905 0.8966 0.8976 0.8980 0.8980 0.8980
3569.591208 0.8980 0.8974 0.8964 0.8951 0.8936
3574.199512 0.8930 0.8930 0.8927 0.8922 0.8920
3578.807815 0.8920 0.8920 0.8920 0.8933 0.8953
3583.416119 0.8960 0.8960 0.8966 0.8976 0.8986
3588.024423 0.8996 0.9000 0.9000 0.8997 0.8992
3592.632726 0.8980 0.8965 0.8957 0.8952 0.8950
3597.241030 0.8950 0.8947 0.8942 0.8940 0.8940
3601.849333 0.8943 0.8948 0.8950 0.8950 0.8950
3606.457637 0.8950 0.8950 0.8950 0.8950 0.8950
3611.065941 0.8950 0.8950 0.8943 0.8933 0.8930
3615.674244 0.8930 0.8927 0.8922 0.8920 0.8920
3620.282548 0.8920 0.8920 0.8931 0.8946 0.8961
3624.890852 0.8976 0.8987 0.8997 0.9004 0.9009
3629.499155 0.9006 0.9001 0.8993 0.8983 0.8962
3634.107459 0.8937 0.8930 0.8930 0.8930 0.8930
3638.715762 0.8930 0.8930 0.8926 0.8921 0.8920
3643.324066 0.8920 0.8942 0.8972 0.8984 0.8989
3647.932370 0.8990 0.8990 0.8979 0.8964 0.8960
3652.540673 0.8960 0.8956 0.8951 0.8950 0.8950
3657.148977 0.8946 0.8941 0.8940 0.8940 0.8932
3661.757280 0.8922 0.8916 0.8911 0.8914 0.8919
3666.365584 0.8928 0.8938 0.8959 0.8984 0.8998
3670.973888 0.9008 0.9018 0.9028 0.9042 0.9057
3675.582191 0.9060 0.9060 0.9032 0.8997 0.8986
3680.190495 0.8981 0.8968 0.8953 0.8954 0.8959
3684.798798 0.8960 0.8960 0.8972 0.8987 0.8990
3689.407102 0.8990 0.8978 0.8963 0.8956 0.8951
3694.015406 0.8942 0.8932 0.8930 0.8930 0.8934
3698.623709 0.8939 0.8944 0.8949 0.8954 0.8959
3703.232013 0.8968 0.8978 0.8984 0.8989 0.8994
3707.840317 0.8999 0.9008 0.9018 0.9020 0.9020
3712.448620 0.9011 0.9001 0.8996 0.8991 0.8973
3717.056924 0.8953 0.8941 0.8931 0.8926 0.8921
3721.665227 0.8924 0.8929 0.8934 0.8939 0.8949
3726.273531 0.8959 0.8969 0.8979 0.8984 0.8989
3730.881835 0.8994 0.8999 0.9004 0.9009 0.9010
3735.490138 0.9010 0.9014 0.9019 0.9020 0.9020
3740.098442 0.9029 0.9039 0.9049 0.9059 0.9073
3744.706745 0.9088 0.9103 0.9119 0.9120 0.9120
3749.315049 0.9115 0.9110 0.9101 0.9091 0.9067
3753.923353 0.9042 0.9031 0.9021 0.9015 0.9010
3758.531656 0.9005 0.9000 0.9000 0.9000 0.8995
3763.139960 0.8990 0.8990 0.8990 0.8985 0.8980
3767.748264 0.8980 0.8980 0.8980 0.8980 0.8980
3772.356567 0.8980 0.8970 0.8960 0.8960 0.8960
3776.964871 0.8974 0.8989 0.8995 0.9000 0.9000
3781.573174 0.9000 0.8995 0.8990 0.8985 0.8980
3786.181478 0.8980 0.8980 0.8970 0.8960 0.8960
3790.789782 0.8960 0.8970 0.8980 0.8970 0.8960
3795.398085 0.8960 0.8960
##END=
