##TITLE=ETHENE, 1-BROMO-1-CHLORO-
##JCAMP-DX=4.24
##DATA TYPE=INFRARED SPECTRUM
##CLASS=COBLENTZ III
##ORIGIN=DOW CHEMICAL COMPANY
##OWNER=COBLENTZ SOCIETY
Collection (C) 2018 copyright by the U.S. Secretary of Commerce
on behalf of the United States of America. All rights reserved.
##DATE=1975/06/19
##NAMES=1-bromo-1-chloroethylene
##CAS REGISTRY NO=17759-85-2
##MOLFORM=C2 H2 Br Cl
##SOURCE REFERENCE=COBLENTZ NO. 10041
##$NIST SOURCE=COBLENTZ
##$NIST IMAGE=cob10041
##SPECTROMETER/DATA SYSTEM=BECKMAN IR-9 (GRATING)
##INSTRUMENT PARAMETERS=ORDER CHANGES AT 670, 1200, 2000 CM^-^1
##STATE=SOLUTION (5% IN CCl4 FOR 3800-1330 AND 5% IN CS2 FOR 1330-400 CM^-^1)
##PATH LENGTH=0.011, 0.011 CM
$$SPECTRAL CONTAMINATION DUE TO CCl4 AROUND 1550 CM^-^1
##SAMPLING PROCEDURE=TRANSMISSION
##RESOLUTION=4
##DATA PROCESSING=DIGITIZED BY NIST FROM HARD COPY (FROM TWO SEGMENTS)
##XUNITS=1/CM
##YUNITS=TRANSMITTANCE
##XFACTOR=1.000000
##YFACTOR=1
##DELTAX=0.869567
##FIRSTX=400.87
##LASTX=3797.4
##FIRSTY=0.014
##MAXX=3797.4
##MINX=400.87
##MAXY=0.982
##MINY=0.014
##NPOINTS=3907
##XYDATA=(X++(Y..Y))
400.870000 0.0140 0.0140 0.0140 0.0160 0.0170
405.217837 0.0200 0.0240 0.1097 0.1578 0.1978
409.565673 0.2320 0.2670 0.2990 0.3110 0.3320
413.913510 0.3619 0.3949 0.4080 0.4309 0.4420
418.261347 0.4530 0.4670 0.4780 0.4900 0.4950
422.609184 0.5010 0.5020 0.5050 0.5080 0.5090
426.957020 0.5100 0.5160 0.5620 0.6279 0.6320
431.304857 0.6440 0.6550 0.6660 0.6779 0.6889
435.652694 0.7000 0.7090 0.7200 0.7230 0.7350
440.000530 0.7490 0.7540 0.7580 0.7640 0.7670
444.348367 0.7720 0.7760 0.7830 0.7870 0.7910
448.696204 0.7950 0.8010 0.8060 0.8110 0.8130
453.044041 0.8140 0.8220 0.8250 0.8290 0.8310
457.391877 0.8330 0.8400 0.8460 0.8480 0.8500
461.739714 0.8510 0.8520 0.8520 0.8550 0.8580
466.087551 0.8610 0.8620 0.8690 0.8700 0.8710
470.435387 0.8710 0.8730 0.8760 0.8770 0.8800
474.783224 0.8840 0.8860 0.8880 0.8890 0.8920
479.131061 0.8950 0.8990 0.9000 0.9000 0.9000
483.478898 0.9010 0.9030 0.9040 0.9040 0.9050
487.826734 0.9050 0.9110 0.9120 0.9120 0.9110
492.174571 0.9110 0.9110 0.9120 0.9140 0.9150
496.522408 0.9150 0.9180 0.9190 0.9220 0.9250
500.870245 0.9260 0.9260 0.9260 0.9260 0.9260
505.218081 0.9270 0.9290 0.9290 0.9290 0.9300
509.565918 0.9300 0.9310 0.9310 0.9310 0.9310
513.913755 0.9310 0.9330 0.9330 0.9310 0.9310
518.261591 0.9290 0.9200 0.9160 0.9100 0.8961
522.609428 0.8810 0.8500 0.8290 0.7900 0.7501
526.957265 0.7241 0.7041 0.7040 0.7379 0.7539
531.305102 0.7871 0.8350 0.8690 0.8890 0.8930
535.652938 0.9100 0.9150 0.9180 0.9230 0.9310
540.000775 0.9370 0.9410 0.9420 0.9480 0.9490
544.348612 0.9500 0.9520 0.9530 0.9530 0.9530
548.696448 0.9530 0.9550 0.9550 0.9560 0.9560
553.044285 0.9570 0.9570 0.9590 0.9590 0.9590
557.392122 0.9590 0.9600 0.9630 0.9630 0.9640
561.739959 0.9640 0.9640 0.9640 0.9650 0.9650
566.087795 0.9650 0.9650 0.9650 0.9670 0.9670
570.435632 0.9650 0.9650 0.9650 0.9670 0.9670
574.783469 0.9650 0.9640 0.9640 0.9640 0.9640
579.131305 0.9640 0.9640 0.9640 0.9640 0.9640
583.479142 0.9640 0.9670 0.9680 0.9640 0.9640
587.826979 0.9650 0.9670 0.9710 0.9710 0.9700
592.174816 0.9700 0.9700 0.9680 0.9680 0.9680
596.522652 0.9680 0.9680 0.9670 0.9680 0.9670
600.870489 0.9670 0.9670 0.9670 0.9670 0.9650
605.218326 0.9650 0.9650 0.9640 0.9630 0.9610
609.566162 0.9610 0.9600 0.9590 0.9560 0.9550
613.913999 0.9500 0.9480 0.9460 0.9450 0.9440
618.261836 0.9440 0.9420 0.9410 0.9410 0.9420
622.609673 0.9440 0.9440 0.9440 0.9450 0.9440
626.957509 0.9420 0.9400 0.9380 0.9340 0.9380
631.305346 0.9400 0.9410 0.9420 0.9440 0.9420
635.653183 0.9400 0.9370 0.9350 0.9340 0.9340
640.001019 0.9330 0.9330 0.9290 0.9270 0.9230
644.348856 0.9190 0.9180 0.9140 0.9120 0.9110
648.696693 0.9080 0.9040 0.9000 0.8970 0.8930
653.044530 0.8920 0.8910 0.8880 0.8880 0.8860
657.392366 0.8880 0.8920 0.8950 0.8990 0.9030
661.740203 0.9070 0.9110 0.9150 0.9180 0.9230
666.088040 0.9260 0.9270 0.9290 0.9310 0.9330
670.435877 0.9340 0.9340 0.9340 0.9350 0.9370
674.783713 0.9370 0.9370 0.9350 0.9350 0.9370
679.131550 0.9370 0.9340 0.9330 0.9330 0.9340
683.479387 0.9340 0.9340 0.9340 0.9340 0.9340
687.827223 0.9340 0.9350 0.9350 0.9350 0.9350
692.175060 0.9350 0.9370 0.9370 0.9370 0.9350
696.522897 0.9350 0.9350 0.9350 0.9370 0.9370
700.870734 0.9370 0.9370 0.9370 0.9370 0.9370
705.218570 0.9370 0.9370 0.9370 0.9350 0.9340
709.566407 0.9330 0.9330 0.9310 0.9310 0.9290
713.914244 0.9270 0.9260 0.9260 0.9250 0.9250
718.262080 0.9250 0.9230 0.9200 0.9180 0.9160
722.609917 0.9150 0.9140 0.9140 0.9120 0.9040
726.957754 0.9000 0.8990 0.8930 0.8920 0.8890
731.305591 0.8820 0.8770 0.8700 0.8540 0.8410
735.653427 0.8240 0.8130 0.7980 0.7691 0.7461
740.001264 0.7089 0.6740 0.6380 0.6070 0.5510
744.349101 0.5230 0.4941 0.4222 0.3512 0.3161
748.696937 0.2529 0.2000 0.1600 0.1380 0.1380
753.044774 0.1640 0.1979 0.2239 0.3127 0.4266
757.392611 0.5641 0.6081 0.6830 0.7350 0.7580
761.740448 0.7760 0.8030 0.8140 0.8320 0.8430
766.088284 0.8540 0.8610 0.8670 0.8780 0.8910
770.436121 0.8950 0.8970 0.9050 0.9110 0.9140
774.783958 0.9160 0.9200 0.9230 0.9250 0.9260
779.131794 0.9270 0.9300 0.9330 0.9330 0.9340
783.479631 0.9340 0.9350 0.9350 0.9370 0.9380
787.827468 0.9410 0.9420 0.9420 0.9440 0.9450
792.175305 0.9450 0.9460 0.9460 0.9480 0.9490
796.523141 0.9490 0.9500 0.9500 0.9520 0.9530
800.870978 0.9530 0.9550 0.9550 0.9550 0.9560
805.218815 0.9560 0.9560 0.9560 0.9560 0.9560
809.566651 0.9560 0.9530 0.9520 0.9520 0.9530
813.914488 0.9550 0.9550 0.9560 0.9560 0.9560
818.262325 0.9570 0.9570 0.9590 0.9590 0.9590
822.610162 0.9590 0.9570 0.9570 0.9570 0.9570
826.957998 0.9570 0.9560 0.9550 0.9550 0.9530
831.305835 0.9500 0.9490 0.9480 0.9460 0.9420
835.653672 0.9370 0.9330 0.9300 0.9220 0.9150
840.001509 0.9080 0.8960 0.8910 0.8810 0.8690
844.349345 0.8330 0.8250 0.8170 0.8090 0.8010
848.697182 0.7920 0.7760 0.7670 0.7640 0.7530
853.045019 0.7430 0.7420 0.7410 0.7350 0.7310
857.392855 0.7260 0.7200 0.7120 0.6851 0.6641
861.740692 0.6480 0.6279 0.5910 0.5690 0.5470
866.088529 0.5010 0.4331 0.3551 0.2902 0.2541
870.436366 0.2159 0.1770 0.1770 0.2260 0.2610
874.784202 0.2970 0.3629 0.4678 0.5807 0.6019
879.132039 0.6681 0.7220 0.7420 0.7470 0.7720
883.479876 0.7950 0.8160 0.8310 0.8350 0.8480
887.827712 0.8550 0.8670 0.8760 0.8860 0.8950
892.175549 0.9000 0.9050 0.9110 0.9150 0.9180
896.523386 0.9190 0.9250 0.9270 0.9310 0.9340
900.871223 0.9370 0.9380 0.9410 0.9410 0.9420
905.219059 0.9480 0.9490 0.9490 0.9490 0.9500
909.566896 0.9520 0.9530 0.9560 0.9560 0.9570
913.914733 0.9600 0.9610 0.9630 0.9630 0.9630
918.262569 0.9640 0.9670 0.9680 0.9680 0.9700
922.610406 0.9680 0.9680 0.9680 0.9680 0.9680
926.958243 0.9680 0.9680 0.9680 0.9680 0.9680
931.306080 0.9680 0.9680 0.9680 0.9680 0.9680
935.653916 0.9680 0.9680 0.9680 0.9680 0.9680
940.001753 0.9680 0.9680 0.9680 0.9680 0.9680
944.349590 0.9680 0.9680 0.9680 0.9680 0.9680
948.697426 0.9680 0.9710 0.9710 0.9700 0.9700
953.045263 0.9700 0.9700 0.9680 0.9670 0.9680
957.393100 0.9700 0.9700 0.9710 0.9710 0.9700
961.740937 0.9700 0.9680 0.9680 0.9670 0.9650
966.088773 0.9640 0.9640 0.9640 0.9640 0.9650
970.436610 0.9670 0.9670 0.9670 0.9670 0.9680
974.784447 0.9700 0.9700 0.9700 0.9700 0.9700
979.132283 0.9680 0.9670 0.9670 0.9650 0.9640
983.480120 0.9630 0.9630 0.9610 0.9610 0.9600
987.827957 0.9590 0.9560 0.9550 0.9530 0.9530
992.175794 0.9520 0.9520 0.9500 0.9500 0.9520
996.523630 0.9530 0.9550 0.9560 0.9560 0.9570
1000.871467 0.9570 0.9570 0.9570 0.9570 0.9570
1005.219304 0.9560 0.9560 0.9560 0.9560 0.9550
1009.567141 0.9530 0.9520 0.9490 0.9480 0.9480
1013.914977 0.9460 0.9460 0.9440 0.9420 0.9420
1018.262814 0.9420 0.9420 0.9410 0.9410 0.9400
1022.610651 0.9380 0.9370 0.9350 0.9340 0.9340
1026.958487 0.9330 0.9310 0.9300 0.9290 0.9270
1031.306324 0.9250 0.9200 0.9190 0.9160 0.9140
1035.654161 0.9110 0.9070 0.9000 0.8960 0.8950
1040.001998 0.8920 0.8910 0.8850 0.8820 0.8820
1044.349834 0.8800 0.8740 0.8710 0.8690 0.8620
1048.697671 0.8480 0.8330 0.8110 0.7881 0.7720
1053.045508 0.7499 0.7269 0.6850 0.6670 0.6280
1057.393344 0.5890 0.5580 0.5210 0.4851 0.3662
1061.741181 0.3179 0.2818 0.1979 0.1320 0.1320
1066.089018 0.1590 0.2010 0.3428 0.3440 0.4039
1070.436855 0.4634 0.6370 0.6600 0.7010 0.7240
1074.784691 0.7450 0.7620 0.7800 0.7920 0.7980
1079.132528 0.8110 0.8160 0.8240 0.8250 0.8280
1083.480365 0.8320 0.8320 0.8320 0.8330 0.8330
1087.828201 0.8320 0.8290 0.8260 0.8220 0.8170
1092.176038 0.8140 0.8110 0.8060 0.7990 0.7970
1096.523875 0.7950 0.7920 0.7790 0.7750 0.7530
1100.871712 0.7190 0.6930 0.6750 0.6590 0.6440
1105.219548 0.6440 0.6510 0.6551 0.6940 0.7130
1109.567385 0.7320 0.7380 0.7860 0.7970 0.8259
1113.915222 0.8320 0.8360 0.8430 0.8510 0.8550
1118.263058 0.8620 0.8690 0.8710 0.8740 0.8740
1122.610895 0.8770 0.8800 0.8800 0.8820 0.8850
1126.958732 0.8890 0.8910 0.8920 0.8920 0.8930
1131.306569 0.8930 0.8930 0.8950 0.8950 0.8960
1135.654405 0.8960 0.8960 0.8990 0.8990 0.9000
1140.002242 0.9000 0.9010 0.9010 0.9010 0.9010
1144.350079 0.9030 0.9040 0.9040 0.9050 0.9050
1148.697915 0.9070 0.9070 0.9070 0.9070 0.9070
1153.045752 0.9080 0.9120 0.9120 0.9140 0.9140
1157.393589 0.9140 0.9140 0.9150 0.9150 0.9160
1161.741426 0.9180 0.9190 0.9190 0.9200 0.9200
1166.089262 0.9200 0.9220 0.9230 0.9250 0.9250
1170.437099 0.9260 0.9270 0.9270 0.9270 0.9290
1174.784936 0.9290 0.9290 0.9290 0.9300 0.9300
1179.132773 0.9300 0.9270 0.9230 0.9230 0.9260
1183.480609 0.9310 0.9330 0.9340 0.9350 0.9370
1187.828446 0.9370 0.9380 0.9400 0.9410 0.9400
1192.176283 0.9400 0.9400 0.9400 0.9410 0.9410
1196.524119 0.9420 0.9410 0.9410 0.9410 0.9400
1200.871956 0.9400 0.9410 0.9410 0.9420 0.9440
1205.219793 0.9450 0.9460 0.9490 0.9520 0.9520
1209.567630 0.9550 0.9550 0.9530 0.9550 0.9550
1213.915466 0.9550 0.9530 0.9530 0.9530 0.9530
1218.263303 0.9530 0.9530 0.9530 0.9550 0.9550
1222.611140 0.9550 0.9560 0.9560 0.9570 0.9570
1226.958976 0.9570 0.9590 0.9590 0.9590 0.9590
1231.306813 0.9570 0.9570 0.9560 0.9550 0.9550
1235.654650 0.9550 0.9550 0.9560 0.9560 0.9560
1240.002487 0.9570 0.9570 0.9570 0.9560 0.9560
1244.350323 0.9560 0.9550 0.9550 0.9550 0.9550
1248.698160 0.9550 0.9560 0.9570 0.9570 0.9560
1253.045997 0.9570 0.9570 0.9570 0.9590 0.9590
1257.393833 0.9570 0.9570 0.9570 0.9570 0.9570
1261.741670 0.9570 0.9560 0.9560 0.9560 0.9560
1266.089507 0.9560 0.9550 0.9550 0.9550 0.9530
1270.437344 0.9480 0.9440 0.9410 0.9400 0.9380
1274.785180 0.9380 0.9350 0.9350 0.9340 0.9340
1279.133017 0.9340 0.9350 0.9350 0.9380 0.9380
1283.480854 0.9410 0.9450 0.9480 0.9490 0.9500
1287.828690 0.9520 0.9520 0.9500 0.9490 0.9480
1292.176527 0.9460 0.9450 0.9450 0.9460 0.9460
1296.524364 0.9480 0.9500 0.9530 0.9560 0.9590
1300.872201 0.9610 0.9630 0.9630 0.9640 0.9640
1305.220037 0.9640 0.9640 0.9640 0.9640 0.9640
1309.567874 0.9640 0.9640 0.9640 0.9640 0.9640
1313.915711 0.9640 0.9640 0.9640 0.9630 0.9630
1318.263547 0.9630 0.9630 0.9630 0.9610 0.9610
1322.611384 0.9610 0.9600 0.9590 0.9570 0.9560
1326.959221 0.9560 0.9550 0.9490 0.9460 0.9450
1331.307058 0.9460 0.9480 0.9490 0.9500 0.9520
1335.654894 0.9530 0.9530 0.9530 0.9530 0.9520
1340.002731 0.9500 0.9490 0.9490 0.9460 0.9460
1344.350568 0.9460 0.9460 0.9450 0.9450 0.9450
1348.698405 0.9460 0.9460 0.9460 0.9450 0.9450
1353.046241 0.9440 0.9440 0.9420 0.9420 0.9420
1357.394078 0.9420 0.9420 0.9420 0.9440 0.9440
1361.741915 0.9440 0.9440 0.9440 0.9440 0.9440
1366.089751 0.9440 0.9440 0.9450 0.9450 0.9450
1370.437588 0.9460 0.9460 0.9460 0.9450 0.9450
1374.785425 0.9440 0.9420 0.9380 0.9380 0.9350
1379.133262 0.9350 0.9340 0.9340 0.9340 0.9350
1383.481098 0.9370 0.9370 0.9380 0.9400 0.9400
1387.828935 0.9410 0.9420 0.9420 0.9440 0.9420
1392.176772 0.9410 0.9400 0.9380 0.9380 0.9380
1396.524608 0.9380 0.9380 0.9400 0.9400 0.9410
1400.872445 0.9400 0.9400 0.9400 0.9380 0.9380
1405.220282 0.9370 0.9370 0.9370 0.9370 0.9370
1409.568119 0.9350 0.9340 0.9340 0.9340 0.9340
1413.915955 0.9330 0.9330 0.9330 0.9330 0.9330
1418.263792 0.9330 0.9330 0.9310 0.9310 0.9330
1422.611629 0.9330 0.9330 0.9340 0.9350 0.9380
1426.959465 0.9410 0.9440 0.9450 0.9460 0.9460
1431.307302 0.9480 0.9480 0.9480 0.9480 0.9490
1435.655139 0.9490 0.9480 0.9480 0.9490 0.9490
1440.002976 0.9490 0.9490 0.9490 0.9490 0.9500
1444.350812 0.9500 0.9500 0.9490 0.9480 0.9460
1448.698649 0.9460 0.9460 0.9480 0.9480 0.9480
1453.046486 0.9460 0.9450 0.9450 0.9450 0.9450
1457.394322 0.9450 0.9440 0.9440 0.9420 0.9410
1461.742159 0.9410 0.9410 0.9410 0.9410 0.9400
1466.089996 0.9350 0.9350 0.9340 0.9340 0.9340
1470.437833 0.9330 0.9310 0.9270 0.9260 0.9250
1474.785669 0.9200 0.9150 0.9140 0.9140 0.9120
1479.133506 0.9120 0.9100 0.9050 0.9030 0.9010
1483.481343 0.8970 0.8930 0.8910 0.8850 0.8820
1487.829179 0.8770 0.8740 0.8670 0.8590 0.8500
1492.177016 0.8400 0.8350 0.8310 0.8240 0.8180
1496.524853 0.8140 0.8110 0.8050 0.7980 0.7920
1500.872690 0.7860 0.7830 0.7790 0.7770 0.7770
1505.220526 0.7760 0.7750 0.7750 0.7710 0.7680
1509.568363 0.7610 0.7570 0.7500 0.7450 0.7410
1513.916200 0.7340 0.7310 0.7280 0.7230 0.7230
1518.264037 0.7130 0.7090 0.7070 0.7000 0.6920
1522.611873 0.6900 0.6830 0.6810 0.6780 0.6750
1526.959710 0.6700 0.6620 0.6580 0.6520 0.6440
1531.307547 0.6300 0.6290 0.6170 0.6080 0.6020
1535.655383 0.5870 0.5730 0.5660 0.5640 0.5570
1540.003220 0.5500 0.5419 0.5240 0.5090 0.5000
1544.351057 0.4890 0.4820 0.4750 0.4670 0.4600
1548.698894 0.4560 0.4550 0.4520 0.4500 0.4490
1553.046730 0.4490 0.4500 0.4550 0.4570 0.4650
1557.394567 0.4700 0.4760 0.4800 0.4910 0.5010
1561.742404 0.5160 0.5380 0.5400 0.5500 0.5640
1566.090240 0.5680 0.5730 0.5760 0.5850 0.5880
1570.438077 0.5950 0.6000 0.6020 0.6020 0.5990
1574.785914 0.5990 0.5980 0.5960 0.5950 0.5950
1579.133751 0.5980 0.6020 0.6020 0.6000 0.5990
1583.481587 0.5980 0.5920 0.5890 0.5770 0.5660
1587.829424 0.5620 0.5550 0.5490 0.5240 0.4890
1592.177261 0.4499 0.4349 0.3919 0.3499 0.3179
1596.525097 0.2750 0.2310 0.2090 0.1710 0.1071
1600.872934 0.0849 0.0620 0.0530 0.0390 0.0390
1605.220771 0.0681 0.1670 0.2540 0.3219 0.3889
1609.568608 0.4356 0.5772 0.6401 0.6581 0.6820
1613.916444 0.7070 0.7260 0.7460 0.7570 0.7690
1618.264281 0.7940 0.8030 0.8130 0.8220 0.8310
1622.612118 0.8320 0.8360 0.8500 0.8510 0.8620
1626.959954 0.8650 0.8700 0.8730 0.8780 0.8820
1631.307791 0.8850 0.8880 0.8890 0.8910 0.8910
1635.655628 0.8920 0.8920 0.8950 0.8960 0.8960
1640.003465 0.8990 0.8990 0.9030 0.9030 0.9040
1644.351301 0.9050 0.9070 0.9110 0.9110 0.9110
1648.699138 0.9120 0.9140 0.9190 0.9200 0.9220
1653.046975 0.9220 0.9220 0.9220 0.9230 0.9260
1657.394812 0.9270 0.9310 0.9310 0.9310 0.9330
1661.742648 0.9340 0.9350 0.9370 0.9370 0.9380
1666.090485 0.9400 0.9400 0.9400 0.9400 0.9400
1670.438322 0.9400 0.9410 0.9410 0.9420 0.9420
1674.786158 0.9420 0.9440 0.9440 0.9450 0.9460
1679.133995 0.9480 0.9490 0.9500 0.9520 0.9530
1683.481832 0.9550 0.9550 0.9550 0.9550 0.9530
1687.829669 0.9520 0.9520 0.9520 0.9520 0.9530
1692.177505 0.9530 0.9530 0.9550 0.9550 0.9550
1696.525342 0.9550 0.9550 0.9550 0.9560 0.9560
1700.873179 0.9560 0.9560 0.9550 0.9550 0.9550
1705.221015 0.9550 0.9560 0.9560 0.9550 0.9550
1709.568852 0.9550 0.9560 0.9560 0.9560 0.9560
1713.916689 0.9560 0.9550 0.9530 0.9500 0.9490
1718.264526 0.9490 0.9490 0.9480 0.9480 0.9480
1722.612362 0.9480 0.9480 0.9480 0.9480 0.9480
1726.960199 0.9490 0.9490 0.9490 0.9490 0.9490
1731.308036 0.9480 0.9480 0.9480 0.9480 0.9460
1735.655872 0.9450 0.9440 0.9420 0.9410 0.9410
1740.003709 0.9400 0.9380 0.9370 0.9350 0.9340
1744.351546 0.9330 0.9310 0.9290 0.9250 0.9230
1748.699383 0.9220 0.9160 0.9140 0.9100 0.9040
1753.047219 0.9010 0.8990 0.8970 0.8960 0.8950
1757.395056 0.8950 0.8950 0.8960 0.9040 0.9070
1761.742893 0.9140 0.9150 0.9200 0.9220 0.9230
1766.090729 0.9290 0.9300 0.9310 0.9330 0.9340
1770.438566 0.9350 0.9370 0.9380 0.9380 0.9380
1774.786403 0.9400 0.9420 0.9420 0.9440 0.9440
1779.134240 0.9440 0.9450 0.9450 0.9440 0.9410
1783.482076 0.9410 0.9400 0.9380 0.9380 0.9380
1787.829913 0.9370 0.9350 0.9350 0.9310 0.9290
1792.177750 0.9260 0.9250 0.9250 0.9250 0.9250
1796.525586 0.9250 0.9250 0.9230 0.9230 0.9200
1800.873423 0.9200 0.9190 0.9180 0.9150 0.9140
1805.221260 0.9120 0.9110 0.9100 0.9100 0.9080
1809.569097 0.9080 0.9070 0.9040 0.9030 0.9000
1813.916933 0.8990 0.8970 0.8930 0.8930 0.8920
1818.264770 0.8920 0.8930 0.8950 0.8970 0.9030
1822.612607 0.9100 0.9140 0.9150 0.9180 0.9220
1826.960444 0.9260 0.9310 0.9330 0.9340 0.9380
1831.308280 0.9420 0.9450 0.9450 0.9480 0.9490
1835.656117 0.9500 0.9530 0.9550 0.9550 0.9560
1840.003954 0.9550 0.9560 0.9560 0.9560 0.9560
1844.351790 0.9560 0.9560 0.9550 0.9560 0.9560
1848.699627 0.9570 0.9570 0.9570 0.9560 0.9570
1853.047464 0.9570 0.9570 0.9570 0.9570 0.9570
1857.395301 0.9570 0.9570 0.9570 0.9570 0.9590
1861.743137 0.9590 0.9570 0.9600 0.9600 0.9600
1866.090974 0.9600 0.9610 0.9630 0.9640 0.9640
1870.438811 0.9640 0.9640 0.9640 0.9640 0.9640
1874.786647 0.9650 0.9650 0.9670 0.9670 0.9670
1879.134484 0.9670 0.9680 0.9680 0.9680 0.9680
1883.482321 0.9680 0.9680 0.9640 0.9640 0.9670
1887.830158 0.9670 0.9670 0.9680 0.9680 0.9670
1892.177994 0.9670 0.9680 0.9680 0.9680 0.9680
1896.525831 0.9680 0.9680 0.9680 0.9680 0.9680
1900.873668 0.9650 0.9650 0.9650 0.9670 0.9670
1905.221504 0.9680 0.9680 0.9680 0.9680 0.9680
1909.569341 0.9680 0.9680 0.9700 0.9700 0.9650
1913.917178 0.9650 0.9670 0.9680 0.9680 0.9680
1918.265015 0.9700 0.9680 0.9700 0.9700 0.9700
1922.612851 0.9700 0.9700 0.9710 0.9710 0.9700
1926.960688 0.9700 0.9700 0.9700 0.9710 0.9710
1931.308525 0.9710 0.9710 0.9710 0.9710 0.9710
1935.656361 0.9710 0.9710 0.9710 0.9700 0.9700
1940.004198 0.9700 0.9700 0.9700 0.9700 0.9700
1944.352035 0.9700 0.9700 0.9700 0.9700 0.9700
1948.699872 0.9700 0.9700 0.9700 0.9700 0.9700
1953.047708 0.9710 0.9710 0.9710 0.9710 0.9710
1957.395545 0.9710 0.9710 0.9710 0.9710 0.9720
1961.743382 0.9710 0.9710 0.9710 0.9710 0.9710
1966.091218 0.9700 0.9700 0.9700 0.9700 0.9700
1970.439055 0.9700 0.9710 0.9710 0.9710 0.9710
1974.786892 0.9710 0.9710 0.9700 0.9700 0.9680
1979.134729 0.9680 0.9680 0.9680 0.9700 0.9700
1983.482565 0.9700 0.9700 0.9680 0.9680 0.9680
1987.830402 0.9680 0.9680 0.9680 0.9680 0.9670
1992.178239 0.9670 0.9670 0.9670 0.9670 0.9670
1996.526076 0.9650 0.9630 0.9490 0.9490 0.9520
2000.873912 0.9560 0.9600 0.9625 0.9650 0.9650
2005.221749 0.9650 0.9660 0.9670 0.9670 0.9670
2009.569586 0.9670 0.9670 0.9675 0.9680 0.9680
2013.917422 0.9680 0.9675 0.9670 0.9655 0.9640
2018.265259 0.9640 0.9640 0.9635 0.9630 0.9635
2022.613096 0.9640 0.9655 0.9670 0.9675 0.9680
2026.960933 0.9690 0.9700 0.9705 0.9710 0.9710
2031.308769 0.9710 0.9715 0.9720 0.9720 0.9720
2035.656606 0.9720 0.9720 0.9720 0.9720 0.9715
2040.004443 0.9710 0.9710 0.9710 0.9715 0.9720
2044.352279 0.9720 0.9720 0.9720 0.9720 0.9720
2048.700116 0.9720 0.9735 0.9750 0.9750 0.9750
2053.047953 0.9735 0.9720 0.9720 0.9720 0.9720
2057.395790 0.9720 0.9720 0.9720 0.9720 0.9720
2061.743626 0.9730 0.9740 0.9745 0.9750 0.9755
2066.091463 0.9760 0.9760 0.9760 0.9735 0.9710
2070.439300 0.9705 0.9700 0.9710 0.9720 0.9720
2074.787136 0.9720 0.9730 0.9740 0.9745 0.9750
2079.134973 0.9755 0.9760 0.9760 0.9760 0.9760
2083.482810 0.9760 0.9760 0.9760 0.9750 0.9740
2087.830647 0.9730 0.9720 0.9730 0.9740 0.9765
2092.178483 0.9790 0.9790 0.9790 0.9785 0.9780
2096.526320 0.9780 0.9780 0.9785 0.9790 0.9790
2100.874157 0.9790 0.9790 0.9790 0.9790 0.9790
2105.221993 0.9790 0.9790 0.9775 0.9760 0.9760
2109.569830 0.9760 0.9780 0.9800 0.9800 0.9800
2113.917667 0.9790 0.9780 0.9780 0.9780 0.9780
2118.265504 0.9780 0.9785 0.9790 0.9805 0.9820
2122.613340 0.9820 0.9820 0.9810 0.9800 0.9800
2126.961177 0.9800 0.9800 0.9800 0.9795 0.9790
2131.309014 0.9775 0.9760 0.9760 0.9760 0.9760
2135.656850 0.9760 0.9760 0.9760 0.9755 0.9750
2140.004687 0.9750 0.9750 0.9755 0.9760 0.9760
2144.352524 0.9760 0.9760 0.9760 0.9760 0.9760
2148.700361 0.9760 0.9760 0.9770 0.9780 0.9785
2153.048197 0.9790 0.9790 0.9790 0.9790 0.9790
2157.396034 0.9790 0.9790 0.9790 0.9790 0.9790
2161.743871 0.9790 0.9790 0.9790 0.9770 0.9750
2166.091708 0.9750 0.9750 0.9750 0.9750 0.9750
2170.439544 0.9750 0.9750 0.9750 0.9750 0.9750
2174.787381 0.9755 0.9760 0.9760 0.9760 0.9760
2179.135218 0.9760 0.9770 0.9780 0.9780 0.9780
2183.483054 0.9760 0.9740 0.9740 0.9740 0.9740
2187.830891 0.9740 0.9745 0.9750 0.9750 0.9750
2192.178728 0.9750 0.9750 0.9750 0.9750 0.9750
2196.526565 0.9750 0.9755 0.9760 0.9760 0.9760
2200.874401 0.9760 0.9760 0.9755 0.9750 0.9755
2205.222238 0.9760 0.9770 0.9780 0.9780 0.9780
2209.570075 0.9785 0.9790 0.9790 0.9790 0.9775
2213.917911 0.9760 0.9760 0.9760 0.9760 0.9760
2218.265748 0.9760 0.9760 0.9760 0.9760 0.9760
2222.613585 0.9760 0.9760 0.9760 0.9760 0.9760
2226.961422 0.9760 0.9760 0.9760 0.9760 0.9760
2231.309258 0.9760 0.9755 0.9750 0.9750 0.9750
2235.657095 0.9750 0.9750 0.9745 0.9740 0.9730
2240.004932 0.9720 0.9715 0.9710 0.9705 0.9700
2244.352768 0.9690 0.9680 0.9675 0.9670 0.9675
2248.700605 0.9680 0.9680 0.9680 0.9680 0.9680
2253.048442 0.9675 0.9670 0.9670 0.9670 0.9670
2257.396279 0.9670 0.9670 0.9670 0.9660 0.9650
2261.744115 0.9645 0.9640 0.9635 0.9630 0.9620
2266.091952 0.9610 0.9605 0.9600 0.9600 0.9600
2270.439789 0.9600 0.9600 0.9595 0.9590 0.9580
2274.787625 0.9570 0.9570 0.9570 0.9565 0.9560
2279.135462 0.9560 0.9560 0.9555 0.9550 0.9540
2283.483299 0.9530 0.9525 0.9520 0.9520 0.9520
2287.831136 0.9510 0.9500 0.9500 0.9500 0.9490
2292.178972 0.9480 0.9470 0.9460 0.9460 0.9460
2296.526809 0.9460 0.9460 0.9455 0.9450 0.9450
2300.874646 0.9450 0.9450 0.9450 0.9450 0.9450
2305.222482 0.9455 0.9460 0.9460 0.9460 0.9460
2309.570319 0.9460 0.9455 0.9450 0.9455 0.9460
2313.918156 0.9460 0.9460 0.9470 0.9480 0.9470
2318.265993 0.9460 0.9460 0.9460 0.9460 0.9460
2322.613829 0.9460 0.9460 0.9460 0.9460 0.9460
2326.961666 0.9460 0.9460 0.9460 0.9460 0.9460
2331.309503 0.9460 0.9460 0.9460 0.9460 0.9460
2335.657340 0.9460 0.9470 0.9480 0.9480 0.9480
2340.005176 0.9485 0.9490 0.9490 0.9490 0.9490
2344.353013 0.9490 0.9490 0.9490 0.9495 0.9500
2348.700850 0.9510 0.9520 0.9525 0.9530 0.9540
2353.048686 0.9550 0.9555 0.9560 0.9565 0.9570
2357.396523 0.9570 0.9570 0.9570 0.9570 0.9565
2361.744360 0.9560 0.9555 0.9550 0.9550 0.9550
2366.092197 0.9540 0.9530 0.9530 0.9530 0.9530
2370.440033 0.9530 0.9540 0.9550 0.9550 0.9550
2374.787870 0.9570 0.9590 0.9600 0.9610 0.9620
2379.135707 0.9630 0.9635 0.9640 0.9640 0.9640
2383.483543 0.9660 0.9680 0.9690 0.9700 0.9700
2387.831380 0.9700 0.9710 0.9720 0.9730 0.9740
2392.179217 0.9740 0.9740 0.9745 0.9750 0.9750
2396.527054 0.9750 0.9755 0.9760 0.9755 0.9750
2400.874890 0.9755 0.9760 0.9760 0.9760 0.9760
2405.222727 0.9760 0.9755 0.9750 0.9750 0.9750
2409.570564 0.9750 0.9750 0.9750 0.9750 0.9750
2413.918400 0.9750 0.9750 0.9750 0.9750 0.9750
2418.266237 0.9750 0.9750 0.9750 0.9750 0.9750
2422.614074 0.9750 0.9750 0.9750 0.9750 0.9750
2426.961911 0.9750 0.9750 0.9750 0.9750 0.9750
2431.309747 0.9750 0.9755 0.9760 0.9770 0.9780
2435.657584 0.9780 0.9780 0.9780 0.9780 0.9785
2440.005421 0.9790 0.9790 0.9790 0.9795 0.9800
2444.353257 0.9800 0.9800 0.9795 0.9790 0.9785
2448.701094 0.9780 0.9780 0.9780 0.9770 0.9760
2453.048931 0.9760 0.9760 0.9760 0.9760 0.9760
2457.396768 0.9760 0.9760 0.9760 0.9760 0.9760
2461.744604 0.9760 0.9760 0.9760 0.9760 0.9760
2466.092441 0.9760 0.9755 0.9750 0.9750 0.9750
2470.440278 0.9750 0.9750 0.9750 0.9750 0.9750
2474.788114 0.9750 0.9750 0.9750 0.9750 0.9750
2479.135951 0.9750 0.9750 0.9750 0.9750 0.9750
2483.483788 0.9750 0.9750 0.9750 0.9750 0.9750
2487.831625 0.9750 0.9750 0.9750 0.9750 0.9750
2492.179461 0.9750 0.9750 0.9750 0.9750 0.9750
2496.527298 0.9755 0.9760 0.9760 0.9760 0.9770
2500.875135 0.9780 0.9785 0.9790 0.9790 0.9790
2505.222972 0.9790 0.9790 0.9790 0.9790 0.9775
2509.570808 0.9760 0.9760 0.9760 0.9760 0.9760
2513.918645 0.9770 0.9780 0.9780 0.9780 0.9780
2518.266482 0.9780 0.9780 0.9780 0.9785 0.9790
2522.614318 0.9790 0.9790 0.9785 0.9780 0.9780
2526.962155 0.9780 0.9780 0.9780 0.9780 0.9780
2531.309992 0.9780 0.9780 0.9770 0.9760 0.9760
2535.657829 0.9760 0.9760 0.9760 0.9760 0.9760
2540.005665 0.9760 0.9760 0.9760 0.9760 0.9760
2544.353502 0.9760 0.9755 0.9750 0.9750 0.9750
2548.701339 0.9745 0.9740 0.9740 0.9740 0.9740
2553.049175 0.9740 0.9750 0.9760 0.9755 0.9750
2557.397012 0.9750 0.9750 0.9745 0.9740 0.9750
2561.744849 0.9760 0.9760 0.9760 0.9760 0.9760
2566.092686 0.9760 0.9760 0.9760 0.9760 0.9760
2570.440522 0.9760 0.9760 0.9760 0.9760 0.9760
2574.788359 0.9760 0.9760 0.9760 0.9760 0.9755
2579.136196 0.9750 0.9755 0.9760 0.9755 0.9750
2583.484032 0.9745 0.9740 0.9730 0.9720 0.9720
2587.831869 0.9720 0.9720 0.9720 0.9720 0.9720
2592.179706 0.9735 0.9750 0.9755 0.9760 0.9760
2596.527543 0.9760 0.9760 0.9760 0.9755 0.9750
2600.875379 0.9750 0.9750 0.9745 0.9740 0.9740
2605.223216 0.9740 0.9730 0.9720 0.9720 0.9720
2609.571053 0.9720 0.9720 0.9730 0.9740 0.9740
2613.918889 0.9740 0.9740 0.9740 0.9745 0.9750
2618.266726 0.9750 0.9750 0.9750 0.9750 0.9750
2622.614563 0.9750 0.9750 0.9750 0.9750 0.9750
2626.962400 0.9750 0.9750 0.9750 0.9750 0.9745
2631.310236 0.9740 0.9740 0.9740 0.9730 0.9720
2635.658073 0.9720 0.9720 0.9720 0.9720 0.9720
2640.005910 0.9720 0.9720 0.9720 0.9720 0.9720
2644.353746 0.9720 0.9720 0.9720 0.9720 0.9715
2648.701583 0.9710 0.9715 0.9720 0.9715 0.9710
2653.049420 0.9710 0.9710 0.9705 0.9700 0.9705
2657.397257 0.9710 0.9710 0.9710 0.9710 0.9710
2661.745093 0.9695 0.9680 0.9675 0.9670 0.9660
2666.092930 0.9650 0.9650 0.9650 0.9650 0.9650
2670.440767 0.9660 0.9670 0.9675 0.9680 0.9680
2674.788604 0.9680 0.9680 0.9680 0.9680 0.9680
2679.136440 0.9680 0.9680 0.9680 0.9680 0.9690
2683.484277 0.9700 0.9705 0.9710 0.9710 0.9710
2687.832114 0.9710 0.9710 0.9710 0.9710 0.9710
2692.179950 0.9710 0.9710 0.9710 0.9710 0.9710
2696.527787 0.9710 0.9710 0.9710 0.9710 0.9710
2700.875624 0.9710 0.9715 0.9720 0.9700 0.9680
2705.223461 0.9680 0.9680 0.9690 0.9700 0.9700
2709.571297 0.9700 0.9700 0.9700 0.9700 0.9700
2713.919134 0.9700 0.9700 0.9700 0.9700 0.9700
2718.266971 0.9700 0.9700 0.9700 0.9705 0.9710
2722.614807 0.9710 0.9710 0.9710 0.9710 0.9710
2726.962644 0.9710 0.9715 0.9720 0.9720 0.9720
2731.310481 0.9700 0.9680 0.9680 0.9680 0.9680
2735.658318 0.9680 0.9680 0.9680 0.9680 0.9680
2740.006154 0.9690 0.9700 0.9700 0.9700 0.9700
2744.353991 0.9700 0.9700 0.9700 0.9700 0.9700
2748.701828 0.9700 0.9700 0.9700 0.9700 0.9700
2753.049664 0.9700 0.9700 0.9700 0.9700 0.9700
2757.397501 0.9705 0.9710 0.9710 0.9710 0.9715
2761.745338 0.9720 0.9720 0.9720 0.9715 0.9710
2766.093175 0.9710 0.9710 0.9710 0.9710 0.9710
2770.441011 0.9710 0.9705 0.9700 0.9700 0.9700
2774.788848 0.9700 0.9700 0.9700 0.9700 0.9700
2779.136685 0.9700 0.9700 0.9700 0.9700 0.9700
2783.484521 0.9700 0.9700 0.9700 0.9700 0.9700
2787.832358 0.9700 0.9700 0.9700 0.9700 0.9700
2792.180195 0.9705 0.9710 0.9705 0.9700 0.9700
2796.528032 0.9700 0.9700 0.9700 0.9690 0.9680
2800.875868 0.9680 0.9680 0.9680 0.9680 0.9680
2805.223705 0.9680 0.9680 0.9680 0.9680 0.9680
2809.571542 0.9680 0.9680 0.9680 0.9680 0.9680
2813.919378 0.9680 0.9690 0.9700 0.9700 0.9700
2818.267215 0.9705 0.9710 0.9710 0.9710 0.9710
2822.615052 0.9710 0.9710 0.9710 0.9710 0.9710
2826.962889 0.9710 0.9710 0.9710 0.9710 0.9705
2831.310725 0.9700 0.9700 0.9700 0.9700 0.9700
2835.658562 0.9690 0.9680 0.9690 0.9700 0.9700
2840.006399 0.9700 0.9700 0.9700 0.9700 0.9700
2844.354236 0.9690 0.9680 0.9680 0.9680 0.9690
2848.702072 0.9700 0.9700 0.9700 0.9700 0.9700
2853.049909 0.9690 0.9680 0.9680 0.9680 0.9675
2857.397746 0.9670 0.9660 0.9650 0.9650 0.9650
2861.745582 0.9660 0.9670 0.9670 0.9670 0.9660
2866.093419 0.9650 0.9650 0.9650 0.9645 0.9640
2870.441256 0.9640 0.9640 0.9640 0.9640 0.9640
2874.789093 0.9640 0.9640 0.9640 0.9640 0.9640
2879.136929 0.9640 0.9640 0.9655 0.9670 0.9670
2883.484766 0.9670 0.9660 0.9650 0.9650 0.9650
2887.832603 0.9645 0.9640 0.9645 0.9650 0.9645
2892.180439 0.9640 0.9640 0.9640 0.9635 0.9630
2896.528276 0.9630 0.9630 0.9635 0.9640 0.9640
2900.876113 0.9640 0.9640 0.9640 0.9625 0.9610
2905.223950 0.9610 0.9610 0.9620 0.9630 0.9630
2909.571786 0.9630 0.9620 0.9610 0.9610 0.9610
2913.919623 0.9610 0.9610 0.9620 0.9630 0.9620
2918.267460 0.9610 0.9610 0.9610 0.9600 0.9590
2922.615296 0.9590 0.9590 0.9590 0.9590 0.9580
2926.963133 0.9570 0.9570 0.9570 0.9565 0.9560
2931.310970 0.9560 0.9560 0.9555 0.9550 0.9535
2935.658807 0.9520 0.9520 0.9520 0.9520 0.9520
2940.006643 0.9520 0.9520 0.9525 0.9530 0.9530
2944.354480 0.9530 0.9540 0.9550 0.9550 0.9550
2948.702317 0.9555 0.9560 0.9560 0.9560 0.9560
2953.050153 0.9560 0.9555 0.9550 0.9550 0.9550
2957.397990 0.9540 0.9530 0.9530 0.9530 0.9525
2961.745827 0.9520 0.9520 0.9520 0.9520 0.9520
2966.093664 0.9510 0.9500 0.9500 0.9500 0.9495
2970.441500 0.9490 0.9485 0.9480 0.9465 0.9450
2974.789337 0.9445 0.9440 0.9440 0.9440 0.9440
2979.137174 0.9440 0.9440 0.9440 0.9440 0.9440
2983.485010 0.9445 0.9450 0.9455 0.9460 0.9470
2987.832847 0.9480 0.9480 0.9480 0.9485 0.9490
2992.180684 0.9505 0.9520 0.9525 0.9530 0.9530
2996.528521 0.9530 0.9530 0.9530 0.9530 0.9530
3000.876357 0.9525 0.9520 0.9510 0.9500 0.9495
3005.224194 0.9490 0.9490 0.9490 0.9490 0.9490
3009.572031 0.9490 0.9490 0.9490 0.9490 0.9490
3013.919868 0.9490 0.9485 0.9480 0.9480 0.9480
3018.267704 0.9470 0.9460 0.9460 0.9460 0.9460
3022.615541 0.9460 0.9450 0.9440 0.9430 0.9420
3026.963378 0.9415 0.9410 0.9380 0.9350 0.9290
3031.311214 0.9230 0.9140 0.9050 0.9020 0.8990
3035.659051 0.8990 0.8990 0.9010 0.9030 0.9105
3040.006888 0.9179 0.9200 0.9220 0.9245 0.9270
3044.354725 0.9300 0.9330 0.9335 0.9340 0.9345
3048.702561 0.9350 0.9360 0.9370 0.9390 0.9410
3053.050398 0.9425 0.9440 0.9445 0.9450 0.9450
3057.398235 0.9450 0.9450 0.9450 0.9455 0.9460
3061.746071 0.9460 0.9460 0.9460 0.9460 0.9460
3066.093908 0.9460 0.9470 0.9480 0.9480 0.9480
3070.441745 0.9480 0.9480 0.9480 0.9480 0.9480
3074.789582 0.9480 0.9485 0.9490 0.9490 0.9490
3079.137418 0.9490 0.9490 0.9490 0.9490 0.9490
3083.485255 0.9490 0.9485 0.9480 0.9480 0.9480
3087.833092 0.9480 0.9480 0.9480 0.9480 0.9470
3092.180928 0.9460 0.9460 0.9460 0.9460 0.9460
3096.528765 0.9455 0.9450 0.9450 0.9450 0.9450
3100.876602 0.9450 0.9450 0.9450 0.9445 0.9440
3105.224439 0.9440 0.9440 0.9440 0.9440 0.9440
3109.572275 0.9440 0.9430 0.9420 0.9410 0.9400
3113.920112 0.9390 0.9380 0.9375 0.9370 0.9370
3118.267949 0.9370 0.9360 0.9350 0.9330 0.9310
3122.615785 0.9265 0.9220 0.9160 0.9100 0.9065
3126.963622 0.9030 0.9015 0.9000 0.9020 0.9040
3131.311459 0.9070 0.9100 0.9130 0.9160 0.9195
3135.659296 0.9230 0.9250 0.9270 0.9285 0.9300
3140.007132 0.9305 0.9310 0.9320 0.9330 0.9335
3144.354969 0.9340 0.9355 0.9370 0.9370 0.9370
3148.702806 0.9375 0.9380 0.9380 0.9380 0.9380
3153.050642 0.9380 0.9390 0.9400 0.9400 0.9400
3157.398479 0.9405 0.9410 0.9415 0.9420 0.9420
3161.746316 0.9420 0.9430 0.9440 0.9440 0.9440
3166.094153 0.9440 0.9440 0.9445 0.9450 0.9450
3170.441989 0.9450 0.9450 0.9450 0.9445 0.9440
3174.789826 0.9440 0.9440 0.9440 0.9440 0.9430
3179.137663 0.9420 0.9420 0.9420 0.9415 0.9410
3183.485500 0.9410 0.9410 0.9405 0.9400 0.9390
3187.833336 0.9380 0.9375 0.9370 0.9360 0.9350
3192.181173 0.9340 0.9330 0.9315 0.9300 0.9295
3196.529010 0.9290 0.9260 0.9230 0.9205 0.9180
3200.876846 0.9160 0.9140 0.9130 0.9120 0.9130
3205.224683 0.9140 0.9160 0.9180 0.9205 0.9230
3209.572520 0.9260 0.9290 0.9300 0.9310 0.9325
3213.920357 0.9340 0.9345 0.9350 0.9350 0.9350
3218.268193 0.9360 0.9370 0.9375 0.9380 0.9395
3222.616030 0.9410 0.9415 0.9420 0.9420 0.9420
3226.963867 0.9430 0.9440 0.9440 0.9440 0.9445
3231.311703 0.9450 0.9450 0.9450 0.9450 0.9450
3235.659540 0.9450 0.9450 0.9450 0.9450 0.9450
3240.007377 0.9450 0.9450 0.9450 0.9445 0.9440
3244.355214 0.9440 0.9440 0.9430 0.9420 0.9420
3248.703050 0.9420 0.9420 0.9420 0.9420 0.9420
3253.050887 0.9420 0.9420 0.9430 0.9440 0.9430
3257.398724 0.9420 0.9420 0.9420 0.9430 0.9440
3261.746560 0.9440 0.9440 0.9430 0.9420 0.9420
3266.094397 0.9420 0.9420 0.9420 0.9420 0.9420
3270.442234 0.9420 0.9420 0.9415 0.9410 0.9410
3274.790071 0.9410 0.9405 0.9400 0.9400 0.9400
3279.137907 0.9400 0.9400 0.9390 0.9380 0.9375
3283.485744 0.9370 0.9370 0.9370 0.9370 0.9370
3287.833581 0.9370 0.9370 0.9370 0.9370 0.9370
3292.181417 0.9370 0.9370 0.9370 0.9375 0.9380
3296.529254 0.9380 0.9380 0.9380 0.9380 0.9390
3300.877091 0.9400 0.9400 0.9400 0.9400 0.9400
3305.224928 0.9400 0.9400 0.9400 0.9400 0.9390
3309.572764 0.9380 0.9365 0.9350 0.9350 0.9350
3313.920601 0.9350 0.9350 0.9350 0.9350 0.9350
3318.268438 0.9350 0.9345 0.9340 0.9345 0.9350
3322.616274 0.9350 0.9350 0.9350 0.9350 0.9350
3326.964111 0.9350 0.9350 0.9350 0.9350 0.9350
3331.311948 0.9345 0.9340 0.9340 0.9340 0.9340
3335.659785 0.9340 0.9335 0.9330 0.9335 0.9340
3340.007621 0.9340 0.9340 0.9325 0.9310 0.9305
3344.355458 0.9300 0.9300 0.9300 0.9300 0.9300
3348.703295 0.9300 0.9300 0.9315 0.9330 0.9330
3353.051132 0.9330 0.9310 0.9290 0.9290 0.9290
3357.398968 0.9290 0.9290 0.9300 0.9310 0.9310
3361.746805 0.9310 0.9310 0.9310 0.9310 0.9310
3366.094642 0.9305 0.9300 0.9300 0.9300 0.9295
3370.442478 0.9290 0.9290 0.9290 0.9280 0.9270
3374.790315 0.9265 0.9260 0.9255 0.9250 0.9250
3379.138152 0.9250 0.9250 0.9250 0.9250 0.9250
3383.485989 0.9250 0.9250 0.9250 0.9250 0.9250
3387.833825 0.9250 0.9250 0.9250 0.9250 0.9250
3392.181662 0.9255 0.9260 0.9260 0.9260 0.9260
3396.529499 0.9260 0.9265 0.9270 0.9265 0.9260
3400.877335 0.9265 0.9270 0.9265 0.9260 0.9260
3405.225172 0.9260 0.9245 0.9230 0.9230 0.9230
3409.573009 0.9230 0.9230 0.9230 0.9230 0.9240
3413.920846 0.9250 0.9250 0.9250 0.9250 0.9250
3418.268682 0.9255 0.9260 0.9260 0.9260 0.9255
3422.616519 0.9250 0.9240 0.9230 0.9240 0.9250
3426.964356 0.9250 0.9250 0.9255 0.9260 0.9260
3431.312192 0.9260 0.9255 0.9250 0.9240 0.9230
3435.660029 0.9230 0.9230 0.9230 0.9230 0.9240
3440.007866 0.9250 0.9260 0.9270 0.9270 0.9270
3444.355703 0.9260 0.9250 0.9250 0.9250 0.9250
3448.703539 0.9250 0.9240 0.9230 0.9230 0.9230
3453.051376 0.9245 0.9260 0.9260 0.9260 0.9260
3457.399213 0.9260 0.9260 0.9260 0.9260 0.9260
3461.747049 0.9245 0.9230 0.9225 0.9220 0.9220
3466.094886 0.9220 0.9220 0.9220 0.9225 0.9230
3470.442723 0.9230 0.9230 0.9240 0.9250 0.9250
3474.790560 0.9250 0.9250 0.9250 0.9255 0.9260
3479.138396 0.9265 0.9270 0.9280 0.9290 0.9295
3483.486233 0.9300 0.9300 0.9300 0.9305 0.9310
3487.834070 0.9305 0.9300 0.9300 0.9300 0.9300
3492.181906 0.9300 0.9295 0.9290 0.9290 0.9290
3496.529743 0.9280 0.9270 0.9270 0.9270 0.9270
3500.877580 0.9270 0.9270 0.9270 0.9270 0.9270
3505.225417 0.9270 0.9270 0.9270 0.9270 0.9290
3509.573253 0.9310 0.9320 0.9330 0.9330 0.9330
3513.921090 0.9310 0.9290 0.9290 0.9290 0.9290
3518.268927 0.9290 0.9290 0.9290 0.9290 0.9290
3522.616764 0.9295 0.9300 0.9300 0.9300 0.9300
3526.964600 0.9300 0.9295 0.9290 0.9290 0.9290
3531.312437 0.9290 0.9290 0.9290 0.9290 0.9290
3535.660274 0.9290 0.9290 0.9290 0.9290 0.9290
3540.008110 0.9310 0.9330 0.9330 0.9330 0.9315
3544.355947 0.9300 0.9300 0.9300 0.9300 0.9300
3548.703784 0.9305 0.9310 0.9320 0.9330 0.9330
3553.051621 0.9330 0.9330 0.9330 0.9330 0.9330
3557.399457 0.9320 0.9310 0.9320 0.9330 0.9335
3561.747294 0.9340 0.9340 0.9340 0.9340 0.9340
3566.095131 0.9340 0.9340 0.9335 0.9330 0.9335
3570.442967 0.9340 0.9340 0.9340 0.9345 0.9350
3574.790804 0.9350 0.9350 0.9360 0.9370 0.9370
3579.138641 0.9370 0.9375 0.9380 0.9375 0.9370
3583.486478 0.9370 0.9370 0.9360 0.9350 0.9350
3587.834314 0.9350 0.9350 0.9350 0.9360 0.9370
3592.182151 0.9370 0.9370 0.9355 0.9340 0.9340
3596.529988 0.9340 0.9340 0.9340 0.9345 0.9350
3600.877824 0.9365 0.9380 0.9380 0.9380 0.9390
3605.225661 0.9400 0.9400 0.9400 0.9390 0.9380
3609.573498 0.9390 0.9400 0.9405 0.9410 0.9415
3613.921335 0.9420 0.9420 0.9420 0.9400 0.9380
3618.269171 0.9380 0.9380 0.9390 0.9400 0.9420
3622.617008 0.9440 0.9445 0.9450 0.9450 0.9450
3626.964845 0.9455 0.9460 0.9470 0.9480 0.9480
3631.312681 0.9480 0.9465 0.9450 0.9450 0.9450
3635.660518 0.9450 0.9450 0.9450 0.9450 0.9455
3640.008355 0.9460 0.9470 0.9480 0.9485 0.9490
3644.356192 0.9475 0.9460 0.9460 0.9460 0.9460
3648.704028 0.9460 0.9460 0.9460 0.9470 0.9480
3653.051865 0.9480 0.9480 0.9480 0.9480 0.9480
3657.399702 0.9480 0.9480 0.9480 0.9485 0.9490
3661.747538 0.9505 0.9520 0.9525 0.9530 0.9530
3666.095375 0.9530 0.9530 0.9530 0.9540 0.9550
3670.443212 0.9550 0.9550 0.9555 0.9560 0.9540
3674.791049 0.9520 0.9520 0.9520 0.9540 0.9560
3679.138885 0.9560 0.9560 0.9560 0.9560 0.9560
3683.486722 0.9560 0.9560 0.9560 0.9555 0.9550
3687.834559 0.9550 0.9550 0.9550 0.9550 0.9550
3692.182396 0.9550 0.9550 0.9550 0.9550 0.9550
3696.530232 0.9555 0.9560 0.9560 0.9560 0.9560
3700.878069 0.9560 0.9560 0.9560 0.9555 0.9550
3705.225906 0.9555 0.9560 0.9560 0.9560 0.9560
3709.573742 0.9560 0.9555 0.9550 0.9540 0.9530
3713.921579 0.9525 0.9520 0.9520 0.9520 0.9520
3718.269416 0.9520 0.9510 0.9500 0.9500 0.9500
3722.617253 0.9510 0.9520 0.9520 0.9520 0.9535
3726.965089 0.9550 0.9550 0.9550 0.9555 0.9560
3731.312926 0.9560 0.9560 0.9565 0.9570 0.9565
3735.660763 0.9560 0.9545 0.9530 0.9530 0.9530
3740.008599 0.9530 0.9530 0.9530 0.9530 0.9530
3744.356436 0.9530 0.9530 0.9530 0.9530 0.9530
3748.704273 0.9525 0.9520 0.9520 0.9520 0.9520
3753.052110 0.9520 0.9520 0.9520 0.9520 0.9520
3757.399946 0.9525 0.9530 0.9540 0.9550 0.9555
3761.747783 0.9560 0.9560 0.9560 0.9560 0.9560
3766.095620 0.9560 0.9560 0.9560 0.9560 0.9545
3770.443456 0.9530 0.9530 0.9530 0.9530 0.9530
3774.791293 0.9530 0.9530 0.9530 0.9530 0.9530
3779.139130 0.9530 0.9530 0.9530 0.9530 0.9530
3783.486967 0.9540 0.9550 0.9550 0.9550 0.9550
3787.834803 0.9550 0.9540 0.9530 0.9530 0.9530
3792.182640 0.9530 0.9530 0.9545 0.9560 0.9560
3796.530477 0.9560 0.9560
##END=
