##TITLE=Silane, ethoxytrimethyl-,
##JCAMP-DX=4.24
##DATA TYPE=INFRARED SPECTRUM
##CLASS=COBLENTZ III
##ORIGIN=DOW CORNING CORP.
##OWNER=Copyright (C) 1987 by the Coblentz Society
Collection (C) 2018 copyright by the U.S. Secretary of Commerce
on behalf of the United States of America. All rights reserved.
##DATE=1966/12/13
##NAMES=ethyl trimethylsilyl ether
ethoxy(trimethyl)silane
##CAS REGISTRY NO=1825-62-3
##MOLFORM=C5 H14 O Si
##BP=75 C
##SOURCE REFERENCE=COBLENTZ NO. 5588
##$NIST SOURCE=COBLENTZ
##$NIST IMAGE=cob5588
##SPECTROMETER/DATA SYSTEM=PERKIN-ELMER 521 (GRATING)
##INSTRUMENT PARAMETERS=FILTERS AT 3150, 2500, 2000, 1150, 700, 410. GRATING CHANGES: 2000, 630
##STATE=SOLUTION (10% CCl4 FOR 3800-1300, 2% CS2 FOR 1300-650, AND 10% CCl4 FOR 650-250)
##PATH LENGTH=0.012 CM, 0.011 CM, AND 0.011 CM
$$ SPECTRAL FEATURES AT 1302 AND 647 (SMALL) CM^-^1 ARE ARTIFACTS CAUSED BY CHANGES IN SOLVENTS
##RESOLUTION=2
##XUNITS=1/CM
##YUNITS=TRANSMITTANCE
##XFACTOR=1.0
##YFACTOR=1
##FIRSTX=245
##LASTX=3816
##FIRSTY=0.6656
##MAXX=3816
##MINX=245
##MAXY=0.9315
##MINY=0.0209
##NPOINTS=3572
##XYDATA=(X++(Y..Y))
245.000000 0.6656 0.6655 0.6654 0.6652 0.6651
250.000000 0.6649 0.6644 0.6639 0.6633 0.6628
255.000000 0.6617 0.6607 0.6596 0.6585 0.6575
260.000000 0.6564 0.6553 0.6539 0.6525 0.6511
265.000000 0.6496 0.6481 0.6464 0.6446 0.6428
270.000000 0.6411 0.6393 0.6376 0.6359 0.6346
275.000000 0.6332 0.6319 0.6306 0.6292 0.6279
280.000000 0.6263 0.6247 0.6231 0.6215 0.6199
285.000000 0.6183 0.6167 0.6151 0.6136 0.6158
290.000000 0.6109 0.6113 0.6123 0.6133 0.6142
295.000000 0.6151 0.6159 0.6169 0.6192 0.6215
300.000000 0.6231 0.6242 0.6253 0.6259 0.6261
305.000000 0.6264 0.6266 0.6269 0.6271 0.6274
310.000000 0.6276 0.6279 0.6281 0.6284 0.6287
315.000000 0.6289 0.6292 0.6321 0.6383 0.6448
320.000000 0.6537 0.6647 0.6788 0.6933 0.7019
325.000000 0.7105 0.7195 0.7286 0.7377 0.7465
330.000000 0.7538 0.7612 0.7686 0.7775 0.7877
335.000000 0.7981 0.8090 0.8195 0.8268 0.8340
340.000000 0.8383 0.8425 0.8467 0.8500 0.8523
345.000000 0.8545 0.8568 0.8589 0.8603 0.8617
350.000000 0.8631 0.8645 0.8658 0.8664 0.8670
355.000000 0.8676 0.8682 0.8688 0.8694 0.8699
360.000000 0.8701 0.8703 0.8718 0.8707 0.8709
365.000000 0.8711 0.8710 0.8710 0.8709 0.8709
370.000000 0.8709 0.8708 0.8708 0.8706 0.8703
375.000000 0.8700 0.8697 0.8694 0.8691 0.8688
380.000000 0.8685 0.8680 0.8675 0.8671 0.8666
385.000000 0.8661 0.8657 0.8652 0.8647 0.8639
390.000000 0.8630 0.8620 0.8610 0.8600 0.8590
395.000000 0.8581 0.8571 0.8558 0.8539 0.8519
400.000000 0.8499 0.8479 0.8460 0.8438 0.8414
405.000000 0.8390 0.8365 0.8341 0.8317 0.8293
410.000000 0.8269 0.8235 0.8198 0.8162 0.8126
415.000000 0.8080 0.8033 0.7998 0.7971 0.7944
420.000000 0.7918 0.7881 0.7852 0.7831 0.7834
425.000000 0.7828 0.7832 0.7836 0.7843 0.7855
430.000000 0.7875 0.7900 0.7925 0.7951 0.7976
435.000000 0.8002 0.8030 0.8063 0.8099 0.8130
440.000000 0.8159 0.8189 0.8219 0.8255 0.8290
445.000000 0.8326 0.8362 0.8397 0.8432 0.8467
450.000000 0.8504 0.8540 0.8576 0.8599 0.8621
455.000000 0.8644 0.8657 0.8659 0.8660 0.8679
460.000000 0.8664 0.8660 0.8652 0.8643 0.8633
465.000000 0.8616 0.8600 0.8583 0.8574 0.8567
470.000000 0.8560 0.8545 0.8558 0.8564 0.8587
475.000000 0.8619 0.8656 0.8698 0.8749 0.8801
480.000000 0.8857 0.8903 0.8948 0.8992 0.9034
485.000000 0.9069 0.9092 0.9114 0.9137 0.9159
490.000000 0.9171 0.9182 0.9194 0.9203 0.9212
495.000000 0.9220 0.9254 0.9237 0.9241 0.9244
500.000000 0.9246 0.9247 0.9247 0.9246 0.9246
505.000000 0.9245 0.9245 0.9244 0.9243 0.9243
510.000000 0.9242 0.9242 0.9241 0.9241 0.9240
515.000000 0.9240 0.9239 0.9239 0.9238 0.9237
520.000000 0.9237 0.9236 0.9236 0.9235 0.9234
525.000000 0.9233 0.9231 0.9230 0.9228 0.9226
530.000000 0.9225 0.9223 0.9222 0.9220 0.9219
535.000000 0.9217 0.9213 0.9209 0.9205 0.9200
540.000000 0.9197 0.9194 0.9191 0.9188 0.9185
545.000000 0.9185 0.9185 0.9186 0.9186 0.9187
550.000000 0.9187 0.9188 0.9188 0.9189 0.9189
555.000000 0.9190 0.9192 0.9193 0.9198 0.9202
560.000000 0.9207 0.9214 0.9222 0.9230 0.9238
565.000000 0.9246 0.9252 0.9257 0.9262 0.9266
570.000000 0.9267 0.9267 0.9268 0.9269 0.9269
575.000000 0.9270 0.9271 0.9269 0.9267 0.9265
580.000000 0.9264 0.9262 0.9260 0.9256 0.9252
585.000000 0.9248 0.9243 0.9239 0.9234 0.9230
590.000000 0.9225 0.9218 0.9207 0.9196 0.9185
595.000000 0.9175 0.9164 0.9153 0.9143 0.9134
600.000000 0.9126 0.9120 0.9125 0.9136 0.9153
605.000000 0.9171 0.9191 0.9210 0.9229 0.9240
610.000000 0.9250 0.9260 0.9269 0.9279 0.9285
615.000000 0.9281 0.9278 0.9267 0.9237 0.9202
620.000000 0.9187 0.9179 0.9171 0.9166 0.9161
625.000000 0.9156 0.9150 0.9143 0.9136 0.9130
630.000000 0.9123 0.9116 0.9107 0.9098 0.9089
635.000000 0.9080 0.9072 0.9063 0.9054 0.9045
640.000000 0.9037 0.9027 0.9017 0.9007 0.8999
645.000000 0.8997 0.8996 0.8994 0.8998 0.9048
650.000000 0.9099 0.9149 0.9199 0.9249 0.9299
655.000000 0.9315 0.9314 0.9311 0.9306 0.9300
660.000000 0.9294 0.9287 0.9280 0.9271 0.9262
665.000000 0.9243 0.9224 0.9207 0.9189 0.9172
670.000000 0.9153 0.9117 0.9082 0.9056 0.9029
675.000000 0.9003 0.8962 0.8915 0.8853 0.8790
680.000000 0.8717 0.8617 0.8485 0.8388 0.8320
685.000000 0.8259 0.8218 0.8212 0.8209 0.8208
690.000000 0.8181 0.8269 0.8295 0.8327 0.8358
695.000000 0.8386 0.8413 0.8449 0.8486 0.8523
700.000000 0.8556 0.8564 0.8569 0.8574 0.8558
705.000000 0.8549 0.8523 0.8494 0.8456 0.8418
710.000000 0.8380 0.8350 0.8319 0.8289 0.8260
715.000000 0.8236 0.8213 0.8189 0.8166 0.8143
720.000000 0.8120 0.8097 0.8074 0.8052 0.8046
725.000000 0.8039 0.8057 0.8100 0.8143 0.8178
730.000000 0.8177 0.8175 0.8148 0.8172 0.8166
735.000000 0.8134 0.8101 0.8072 0.8017 0.7947
740.000000 0.7880 0.7783 0.7657 0.7406 0.7073
745.000000 0.6762 0.6452 0.6141 0.6080 0.6082
750.000000 0.6102 0.6156 0.6299 0.6309 0.6316
755.000000 0.6257 0.6188 0.6119 0.6116 0.6099
760.000000 0.6478 0.6718 0.6958 0.7197 0.7487
765.000000 0.7825 0.7989 0.8087 0.8185 0.8266
770.000000 0.8338 0.8406 0.8458 0.8510 0.8558
775.000000 0.8595 0.8632 0.8663 0.8683 0.8703
780.000000 0.8720 0.8727 0.8735 0.8743 0.8748
785.000000 0.8748 0.8755 0.8748 0.8746 0.8743
790.000000 0.8733 0.8724 0.8715 0.8703 0.8690
795.000000 0.8676 0.8657 0.8632 0.8604 0.8568
800.000000 0.8532 0.8496 0.8459 0.8423 0.8387
805.000000 0.8350 0.8314 0.8275 0.8234 0.8194
810.000000 0.8153 0.8113 0.8064 0.8016 0.7967
815.000000 0.7919 0.7870 0.7808 0.7735 0.7663
820.000000 0.7590 0.7497 0.7385 0.7273 0.7115
825.000000 0.6923 0.6730 0.6537 0.6305 0.5958
830.000000 0.5692 0.5372 0.4945 0.4102 0.3619
835.000000 0.3136 0.2653 0.2170 0.1687 0.1204
840.000000 0.0960 0.0959 0.0985 0.1020 0.1172
845.000000 0.1283 0.1347 0.1554 0.1790 0.2026
850.000000 0.2262 0.2390 0.2396 0.2382 0.2342
855.000000 0.2284 0.2227 0.2170 0.2118 0.2122
860.000000 0.2142 0.2513 0.2921 0.3328 0.3736
865.000000 0.4143 0.4551 0.4958 0.5366 0.5621
870.000000 0.5762 0.5888 0.6000 0.6101 0.6359
875.000000 0.6589 0.6793 0.7181 0.7351 0.7494
880.000000 0.7639 0.7801 0.7957 0.8047 0.8137
885.000000 0.8226 0.8268 0.8306 0.8344 0.8380
890.000000 0.8414 0.8448 0.8467 0.8478 0.8485
895.000000 0.8489 0.8499 0.8522 0.8555 0.8577
900.000000 0.8597 0.8611 0.8616 0.8621 0.8625
905.000000 0.8621 0.8619 0.8616 0.8613 0.8604
910.000000 0.8587 0.8566 0.8540 0.8513 0.8486
915.000000 0.8447 0.8404 0.8358 0.8309 0.8255
920.000000 0.8185 0.8116 0.8045 0.7940 0.7835
925.000000 0.7738 0.7655 0.7572 0.7489 0.7372
930.000000 0.7186 0.7001 0.6815 0.6629 0.6443
935.000000 0.6257 0.6072 0.5886 0.5700 0.5514
940.000000 0.5328 0.5142 0.4957 0.4771 0.4679
945.000000 0.4661 0.4627 0.4655 0.4667 0.4687
950.000000 0.4829 0.5141 0.5454 0.5766 0.6079
955.000000 0.6391 0.6704 0.7071 0.7288 0.7727
960.000000 0.7919 0.8038 0.8153 0.8254 0.8354
965.000000 0.8441 0.8521 0.8595 0.8654 0.8713
970.000000 0.8757 0.8791 0.8825 0.8859 0.8893
975.000000 0.8913 0.8927 0.8941 0.8954 0.8968
980.000000 0.8979 0.8989 0.8999 0.9009 0.9018
985.000000 0.9028 0.9038 0.9048 0.9054 0.9060
990.000000 0.9066 0.9072 0.9078 0.9083 0.9086
995.000000 0.9089 0.9092 0.9095 0.9098 0.9099
1000.000000 0.9101 0.9103 0.9104 0.9106 0.9107
1005.000000 0.9064 0.9110 0.9110 0.9110 0.9110
1010.000000 0.9110 0.9110 0.9110 0.9108 0.9106
1015.000000 0.9105 0.9103 0.9095 0.9086 0.9078
1020.000000 0.9070 0.9062 0.9054 0.9041 0.9025
1025.000000 0.9010 0.8994 0.8979 0.8963 0.8946
1030.000000 0.8929 0.8912 0.8894 0.8869 0.8844
1035.000000 0.8819 0.8794 0.8772 0.8749 0.8727
1040.000000 0.8705 0.8686 0.8667 0.8649 0.8631
1045.000000 0.8614 0.8592 0.8552 0.8507 0.8454
1050.000000 0.8404 0.8355 0.8306 0.8255 0.8202
1055.000000 0.8149 0.8097 0.8043 0.7966 0.7890
1060.000000 0.7813 0.7712 0.7593 0.7456 0.7248
1065.000000 0.7064 0.6893 0.6693 0.6462 0.6237
1070.000000 0.5984 0.5687 0.5391 0.5095 0.4798
1075.000000 0.4502 0.4071 0.3973 0.3964 0.3969
1080.000000 0.3946 0.4059 0.4189 0.4319 0.4449
1085.000000 0.4579 0.4748 0.4898 0.5001 0.5137
1090.000000 0.5324 0.5511 0.5699 0.5898 0.5892
1095.000000 0.5889 0.5874 0.5791 0.5677 0.5563
1100.000000 0.5449 0.5059 0.4595 0.4132 0.3669
1105.000000 0.3205 0.2742 0.2278 0.2270 0.2246
1110.000000 0.2279 0.2535 0.2904 0.3273 0.3643
1115.000000 0.4012 0.4381 0.4751 0.5120 0.5489
1120.000000 0.5859 0.6181 0.6625 0.6798 0.6958
1125.000000 0.7094 0.7225 0.7335 0.7446 0.7553
1130.000000 0.7660 0.7765 0.7870 0.7962 0.8010
1135.000000 0.8058 0.8100 0.8123 0.8147 0.8162
1140.000000 0.8168 0.8162 0.8151 0.8136 0.8121
1145.000000 0.8100 0.8079 0.8027 0.7976 0.7924
1150.000000 0.7873 0.7821 0.7770 0.7718 0.7667
1155.000000 0.7615 0.7564 0.7512 0.7461 0.7397
1160.000000 0.7338 0.7332 0.7327 0.7339 0.7318
1165.000000 0.7374 0.7449 0.7571 0.7693 0.7815
1170.000000 0.7937 0.8059 0.8181 0.8304 0.8404
1175.000000 0.8501 0.8593 0.8654 0.8695 0.8722
1180.000000 0.8748 0.8765 0.8780 0.8795 0.8808
1185.000000 0.8821 0.8834 0.8847 0.8854 0.8859
1190.000000 0.8863 0.8868 0.8873 0.8877 0.8889
1195.000000 0.8882 0.8882 0.8882 0.8881 0.8874
1200.000000 0.8867 0.8861 0.8854 0.8847 0.8839
1205.000000 0.8830 0.8822 0.8813 0.8804 0.8795
1210.000000 0.8787 0.8778 0.8768 0.8756 0.8745
1215.000000 0.8734 0.8723 0.8711 0.8697 0.8684
1220.000000 0.8670 0.8657 0.8644 0.8630 0.8616
1225.000000 0.8586 0.8556 0.8526 0.8494 0.8462
1230.000000 0.8425 0.8366 0.8307 0.8223 0.8135
1235.000000 0.8037 0.7938 0.7876 0.7813 0.7711
1240.000000 0.7439 0.7128 0.6772 0.5227 0.4517
1245.000000 0.3807 0.3096 0.2386 0.1676 0.1530
1250.000000 0.1536 0.1572 0.3493 0.5413 0.5588
1255.000000 0.5565 0.5347 0.4833 0.4772 0.4776
1260.000000 0.4784 0.7208 0.7531 0.7686 0.7806
1265.000000 0.7925 0.8034 0.8131 0.8221 0.8298
1270.000000 0.8332 0.8363 0.8382 0.8383 0.8398
1275.000000 0.8375 0.8368 0.8349 0.8328 0.8304
1280.000000 0.8280 0.8257 0.8234 0.8211 0.8186
1285.000000 0.8160 0.8133 0.8115 0.8105 0.8117
1290.000000 0.8107 0.8123 0.8146 0.8204 0.8260
1295.000000 0.8313 0.8363 0.8405 0.8447 0.7875
1300.000000 0.7193 0.6512 0.6318 0.6382 0.6445
1305.000000 0.6533 0.6610 0.6692 0.6775 0.6835
1310.000000 0.6895 0.6956 0.7015 0.7075 0.7115
1315.000000 0.7145 0.7176 0.7189 0.7202 0.7215
1320.000000 0.7225 0.7234 0.7237 0.7231 0.7223
1325.000000 0.7208 0.7192 0.7177 0.7161 0.7145
1330.000000 0.7133 0.7120 0.7108 0.7097 0.7087
1335.000000 0.7078 0.7068 0.7059 0.7051 0.7043
1340.000000 0.7035 0.7028 0.7012 0.6992 0.6973
1345.000000 0.6945 0.6914 0.6882 0.6855 0.6829
1350.000000 0.6803 0.6778 0.6751 0.6724 0.6698
1355.000000 0.6667 0.6634 0.6600 0.6569 0.6542
1360.000000 0.6516 0.6489 0.6480 0.6489 0.6495
1365.000000 0.6501 0.6502 0.6502 0.6501 0.6495
1370.000000 0.6479 0.6436 0.6371 0.6272 0.6146
1375.000000 0.5997 0.5863 0.5741 0.5586 0.5371
1380.000000 0.5149 0.4428 0.3910 0.3392 0.2875
1385.000000 0.2357 0.1840 0.1397 0.1398 0.1382
1390.000000 0.1900 0.2653 0.3405 0.4158 0.4515
1395.000000 0.4611 0.4719 0.4833 0.4953 0.5071
1400.000000 0.5185 0.5309 0.5382 0.5426 0.5426
1405.000000 0.5425 0.5423 0.5417 0.5411 0.5409
1410.000000 0.5454 0.5533 0.5761 0.5860 0.5874
1415.000000 0.5891 0.5912 0.5936 0.5966 0.5956
1420.000000 0.5946 0.5898 0.5868 0.5818 0.5712
1425.000000 0.5606 0.5499 0.5393 0.5287 0.5181
1430.000000 0.5075 0.4969 0.4862 0.4756 0.4650
1435.000000 0.4544 0.4438 0.4332 0.4247 0.4241
1440.000000 0.4251 0.4370 0.4562 0.4754 0.4945
1445.000000 0.5137 0.5331 0.5364 0.5388 0.5407
1450.000000 0.5438 0.5482 0.5689 0.5901 0.6029
1455.000000 0.6142 0.6322 0.6474 0.6576 0.6664
1460.000000 0.6803 0.6925 0.7018 0.7095 0.7152
1465.000000 0.7194 0.7224 0.7249 0.7270 0.7306
1470.000000 0.7294 0.7246 0.7120 0.6995 0.6869
1475.000000 0.6744 0.6618 0.6493 0.6401 0.6401
1480.000000 0.6397 0.7395 0.7583 0.7734 0.7800
1485.000000 0.7859 0.7902 0.7929 0.7957 0.7985
1490.000000 0.8012 0.8040 0.8069 0.8098 0.8127
1495.000000 0.8153 0.8175 0.8197 0.8219 0.8241
1500.000000 0.8262 0.8276 0.8290 0.8305 0.8319
1505.000000 0.8333 0.8347 0.8362 0.8372 0.8380
1510.000000 0.8388 0.8397 0.8405 0.8413 0.8422
1515.000000 0.8430 0.8438 0.8447 0.8452 0.8458
1520.000000 0.8464 0.8469 0.8475 0.8481 0.8487
1525.000000 0.8466 0.8500 0.8508 0.8516 0.8523
1530.000000 0.8531 0.8537 0.8544 0.8551 0.8557
1535.000000 0.8564 0.8570 0.8577 0.8583 0.8590
1540.000000 0.8596 0.8601 0.8604 0.8606 0.8609
1545.000000 0.8612 0.8615 0.8618 0.8621 0.8624
1550.000000 0.8627 0.8630 0.8632 0.8635 0.8638
1555.000000 0.8640 0.8643 0.8645 0.8647 0.8650
1560.000000 0.8652 0.8654 0.8654 0.8654 0.8654
1565.000000 0.8654 0.8654 0.8654 0.8654 0.8655
1570.000000 0.8655 0.8655 0.8655 0.8655 0.8655
1575.000000 0.8654 0.8653 0.8653 0.8652 0.8652
1580.000000 0.8653 0.8654 0.8655 0.8656 0.8655
1585.000000 0.8654 0.8653 0.8654 0.8655 0.8655
1590.000000 0.8656 0.8656 0.8655 0.8654 0.8652
1595.000000 0.8651 0.8650 0.8646 0.8643 0.8640
1600.000000 0.8637 0.8633 0.8630 0.8627 0.8623
1605.000000 0.8619 0.8614 0.8610 0.8605 0.8601
1610.000000 0.8596 0.8592 0.8588 0.8585 0.8582
1615.000000 0.8579 0.8576 0.8573 0.8570 0.8567
1620.000000 0.8564 0.8561 0.8558 0.8555 0.8552
1625.000000 0.8548 0.8545 0.8541 0.8537 0.8534
1630.000000 0.8530 0.8526 0.8522 0.8519 0.8515
1635.000000 0.8512 0.8508 0.8505 0.8501 0.8498
1640.000000 0.8495 0.8491 0.8488 0.8484 0.8481
1645.000000 0.8477 0.8474 0.8470 0.8467 0.8464
1650.000000 0.8460 0.8456 0.8453 0.8449 0.8446
1655.000000 0.8442 0.8438 0.8435 0.8431 0.8427
1660.000000 0.8424 0.8420 0.8419 0.8418 0.8418
1665.000000 0.8417 0.8416 0.8402 0.8414 0.8413
1670.000000 0.8421 0.8429 0.8437 0.8446 0.8454
1675.000000 0.8462 0.8470 0.8481 0.8496 0.8510
1680.000000 0.8524 0.8538 0.8552 0.8567 0.8581
1685.000000 0.8595 0.8608 0.8617 0.8626 0.8634
1690.000000 0.8643 0.8652 0.8661 0.8669 0.8672
1695.000000 0.8673 0.8674 0.8674 0.8675 0.8676
1700.000000 0.8674 0.8672 0.8670 0.8668 0.8665
1705.000000 0.8663 0.8662 0.8663 0.8664 0.8665
1710.000000 0.8666 0.8667 0.8668 0.8669 0.8671
1715.000000 0.8675 0.8678 0.8682 0.8686 0.8689
1720.000000 0.8694 0.8699 0.8703 0.8709 0.8714
1725.000000 0.8720 0.8725 0.8731 0.8736 0.8738
1730.000000 0.8741 0.8743 0.8746 0.8748 0.8743
1735.000000 0.8754 0.8756 0.8759 0.8761 0.8764
1740.000000 0.8766 0.8768 0.8769 0.8770 0.8771
1745.000000 0.8772 0.8773 0.8775 0.8776 0.8777
1750.000000 0.8778 0.8779 0.8777 0.8775 0.8773
1755.000000 0.8771 0.8769 0.8767 0.8764 0.8762
1760.000000 0.8760 0.8758 0.8754 0.8750 0.8746
1765.000000 0.8741 0.8737 0.8732 0.8728 0.8723
1770.000000 0.8719 0.8715 0.8708 0.8700 0.8692
1775.000000 0.8684 0.8677 0.8669 0.8661 0.8649
1780.000000 0.8637 0.8626 0.8614 0.8602 0.8591
1785.000000 0.8579 0.8567 0.8557 0.8548 0.8540
1790.000000 0.8531 0.8522 0.8514 0.8505 0.8496
1795.000000 0.8488 0.8479 0.8470 0.8462 0.8453
1800.000000 0.8444 0.8436 0.8428 0.8420 0.8413
1805.000000 0.8406 0.8398 0.8391 0.8383 0.8376
1810.000000 0.8369 0.8361 0.8354 0.8347 0.8339
1815.000000 0.8330 0.8319 0.8308 0.8302 0.8304
1820.000000 0.8306 0.8328 0.8310 0.8312 0.8314
1825.000000 0.8316 0.8326 0.8338 0.8349 0.8360
1830.000000 0.8376 0.8392 0.8411 0.8432 0.8454
1835.000000 0.8456 0.8454 0.8453 0.8484 0.8449
1840.000000 0.8447 0.8445 0.8443 0.8441 0.8438
1845.000000 0.8431 0.8423 0.8415 0.8408 0.8400
1850.000000 0.8398 0.8409 0.8419 0.8432 0.8407
1855.000000 0.8458 0.8474 0.8497 0.8518 0.8534
1860.000000 0.8550 0.8566 0.8581 0.8595 0.8609
1865.000000 0.8624 0.8638 0.8653 0.8666 0.8676
1870.000000 0.8686 0.8696 0.8705 0.8715 0.8723
1875.000000 0.8729 0.8734 0.8739 0.8745 0.8750
1880.000000 0.8755 0.8761 0.8766 0.8770 0.8773
1885.000000 0.8776 0.8779 0.8782 0.8786 0.8789
1890.000000 0.8792 0.8794 0.8793 0.8793 0.8793
1895.000000 0.8792 0.8792 0.8791 0.8790 0.8787
1900.000000 0.8783 0.8780 0.8780 0.8774 0.8766
1905.000000 0.8756 0.8745 0.8735 0.8725 0.8714
1910.000000 0.8704 0.8694 0.8684 0.8674 0.8664
1915.000000 0.8654 0.8644 0.8634 0.8624 0.8614
1920.000000 0.8602 0.8587 0.8571 0.8556 0.8541
1925.000000 0.8526 0.8511 0.8496 0.8481 0.8467
1930.000000 0.8452 0.8437 0.8435 0.8433 0.8419
1935.000000 0.8434 0.8444 0.8453 0.8463 0.8472
1940.000000 0.8483 0.8494 0.8504 0.8515 0.8529
1945.000000 0.8549 0.8569 0.8589 0.8603 0.8614
1950.000000 0.8626 0.8638 0.8650 0.8662 0.8663
1955.000000 0.8664 0.8665 0.8667 0.8668 0.8669
1960.000000 0.8671 0.8673 0.8675 0.8676 0.8678
1965.000000 0.8680 0.8682 0.8684 0.8686 0.8688
1970.000000 0.8690 0.8692 0.8695 0.8699 0.8704
1975.000000 0.8709 0.8713 0.8718 0.8723 0.8727
1980.000000 0.8734 0.8740 0.8747 0.8753 0.8760
1985.000000 0.8767 0.8773 0.8773 0.8772 0.8772
1990.000000 0.8771 0.8767 0.8763 0.8760 0.8756
1995.000000 0.8753 0.8767 0.8781 0.8798 0.8816
2000.000000 0.8834 0.8851 0.8869 0.8877 0.8886
2005.000000 0.8894 0.8902 0.8910 0.8919 0.8927
2010.000000 0.8935 0.8942 0.8949 0.8956 0.8963
2015.000000 0.8970 0.8977 0.8983 0.8990 0.8997
2020.000000 0.9004 0.9011 0.9018 0.9021 0.9025
2025.000000 0.9027 0.9029 0.9031 0.9034 0.9036
2030.000000 0.9038 0.9040 0.9042 0.9044 0.9047
2035.000000 0.9049 0.9051 0.9051 0.9051 0.9050
2040.000000 0.9049 0.9048 0.9047 0.9046 0.9046
2045.000000 0.9045 0.9044 0.9043 0.9043 0.9041
2050.000000 0.9040 0.9037 0.9035 0.9032 0.9030
2055.000000 0.9027 0.9024 0.9021 0.9019 0.9016
2060.000000 0.9014 0.9011 0.9008 0.9005 0.9003
2065.000000 0.9000 0.8997 0.8993 0.8990 0.8987
2070.000000 0.8984 0.8981 0.8978 0.8975 0.8972
2075.000000 0.8969 0.8966 0.8962 0.8959 0.8955
2080.000000 0.8952 0.8947 0.8942 0.8937 0.8933
2085.000000 0.8928 0.8923 0.8918 0.8914 0.8900
2090.000000 0.8887 0.8871 0.8856 0.8840 0.8825
2095.000000 0.8816 0.8807 0.8807 0.8807 0.8807
2100.000000 0.8807 0.8811 0.8816 0.8820 0.8825
2105.000000 0.8830 0.8836 0.8843 0.8851 0.8859
2110.000000 0.8868 0.8876 0.8884 0.8891 0.8898
2115.000000 0.8903 0.8908 0.8914 0.8920 0.8928
2120.000000 0.8936 0.8941 0.8946 0.8948 0.8951
2125.000000 0.8950 0.8950 0.8949 0.8949 0.8948
2130.000000 0.8948 0.8947 0.8946 0.8945 0.8944
2135.000000 0.8943 0.8943 0.8942 0.8941 0.8940
2140.000000 0.8939 0.8937 0.8936 0.8935 0.8934
2145.000000 0.8932 0.8931 0.8930 0.8929 0.8928
2150.000000 0.8927 0.8925 0.8924 0.8922 0.8920
2155.000000 0.8916 0.8913 0.8910 0.8907 0.8903
2160.000000 0.8900 0.8896 0.8893 0.8890 0.8887
2165.000000 0.8884 0.8881 0.8878 0.8876 0.8874
2170.000000 0.8872 0.8869 0.8867 0.8865 0.8863
2175.000000 0.8861 0.8859 0.8856 0.8854 0.8852
2180.000000 0.8850 0.8848 0.8846 0.8849 0.8852
2185.000000 0.8855 0.8859 0.8862 0.8865 0.8868
2190.000000 0.8872 0.8875 0.8878 0.8883 0.8889
2195.000000 0.8895 0.8901 0.8906 0.8912 0.8918
2200.000000 0.8924 0.8929 0.8935 0.8941 0.8947
2205.000000 0.8952 0.8958 0.8961 0.8964 0.8966
2210.000000 0.8969 0.8971 0.8974 0.8976 0.8979
2215.000000 0.8981 0.8984 0.8986 0.8989 0.8991
2220.000000 0.8994 0.8996 0.8999 0.9001 0.9003
2225.000000 0.9004 0.9006 0.9008 0.9010 0.9011
2230.000000 0.9013 0.9014 0.9016 0.9017 0.9019
2235.000000 0.9021 0.9023 0.9024 0.9026 0.9027
2240.000000 0.9029 0.9030 0.9032 0.9033 0.9034
2245.000000 0.9035 0.9036 0.9037 0.9039 0.9040
2250.000000 0.9041 0.9042 0.9044 0.9045 0.9046
2255.000000 0.9047 0.9049 0.9050 0.9051 0.9052
2260.000000 0.9053 0.9054 0.9056 0.9057 0.9058
2265.000000 0.9058 0.9059 0.9060 0.9061 0.9062
2270.000000 0.9063 0.9064 0.9065 0.9065 0.9066
2275.000000 0.9067 0.9068 0.9069 0.9070 0.9070
2280.000000 0.9071 0.9072 0.9073 0.9074 0.9075
2285.000000 0.9075 0.9076 0.9077 0.9079 0.9080
2290.000000 0.9081 0.9082 0.9083 0.9084 0.9086
2295.000000 0.9087 0.9088 0.9089 0.9090 0.9091
2300.000000 0.9093 0.9094 0.9095 0.9096 0.9097
2305.000000 0.9098 0.9100 0.9101 0.9102 0.9103
2310.000000 0.9104 0.9105 0.9107 0.9107 0.9108
2315.000000 0.9108 0.9109 0.9109 0.9109 0.9109
2320.000000 0.9109 0.9109 0.9110 0.9110 0.9110
2325.000000 0.9110 0.9111 0.9111 0.9111 0.9111
2330.000000 0.9111 0.9111 0.9112 0.9112 0.9112
2335.000000 0.9112 0.9113 0.9113 0.9113 0.9112
2340.000000 0.9111 0.9110 0.9109 0.9108 0.9107
2345.000000 0.9105 0.9104 0.9103 0.9102 0.9101
2350.000000 0.9100 0.9099 0.9098 0.9096 0.9095
2355.000000 0.9094 0.9093 0.9092 0.9091 0.9089
2360.000000 0.9088 0.9087 0.9086 0.9085 0.9084
2365.000000 0.9083 0.9082 0.9080 0.9079 0.9078
2370.000000 0.9077 0.9076 0.9075 0.9073 0.9072
2375.000000 0.9070 0.9068 0.9066 0.9064 0.9061
2380.000000 0.9059 0.9057 0.9055 0.9053 0.9051
2385.000000 0.9049 0.9047 0.9045 0.9043 0.9041
2390.000000 0.9039 0.9037 0.9035 0.9033 0.9031
2395.000000 0.9029 0.9027 0.9024 0.9022 0.9020
2400.000000 0.9018 0.9016 0.9014 0.9011 0.9009
2405.000000 0.9007 0.9005 0.9003 0.9001 0.8999
2410.000000 0.8997 0.8994 0.8992 0.8990 0.8988
2415.000000 0.8986 0.8984 0.8981 0.8979 0.8977
2420.000000 0.8975 0.8973 0.8971 0.8968 0.8966
2425.000000 0.8964 0.8962 0.8959 0.8957 0.8954
2430.000000 0.8952 0.8949 0.8947 0.8944 0.8942
2435.000000 0.8939 0.8937 0.8934 0.8932 0.8929
2440.000000 0.8926 0.8924 0.8923 0.8922 0.8922
2445.000000 0.8921 0.8921 0.8921 0.8921 0.8920
2450.000000 0.8920 0.8924 0.8928 0.8932 0.8937
2455.000000 0.8941 0.8946 0.8948 0.8951 0.8953
2460.000000 0.8955 0.8954 0.8954 0.8949 0.8945
2465.000000 0.8939 0.8934 0.8927 0.8921 0.8915
2470.000000 0.8909 0.8903 0.8897 0.8890 0.8884
2475.000000 0.8877 0.8870 0.8863 0.8857 0.8852
2480.000000 0.8848 0.8846 0.8844 0.8842 0.8840
2485.000000 0.8838 0.8836 0.8837 0.8839 0.8841
2490.000000 0.8843 0.8846 0.8850 0.8862 0.8874
2495.000000 0.8886 0.8899 0.8915 0.8931 0.8945
2500.000000 0.8960 0.8971 0.8982 0.8993 0.9004
2505.000000 0.9011 0.9018 0.9023 0.9028 0.9032
2510.000000 0.9036 0.9037 0.9038 0.9038 0.9039
2515.000000 0.9040 0.9041 0.9042 0.9043 0.9043
2520.000000 0.9044 0.9044 0.9044 0.9044 0.9044
2525.000000 0.9044 0.9044 0.9044 0.9044 0.9044
2530.000000 0.9044 0.9042 0.9041 0.9039 0.9038
2535.000000 0.9036 0.9034 0.9032 0.9031 0.9029
2540.000000 0.9027 0.9025 0.9024 0.9022 0.9020
2545.000000 0.9017 0.9015 0.9012 0.9010 0.9007
2550.000000 0.9005 0.9002 0.9000 0.8997 0.8995
2555.000000 0.8992 0.8990 0.8987 0.8985 0.8982
2560.000000 0.8980 0.8977 0.8975 0.8972 0.8970
2565.000000 0.8967 0.8964 0.8961 0.8958 0.8955
2570.000000 0.8952 0.8949 0.8946 0.8943 0.8941
2575.000000 0.8938 0.8935 0.8932 0.8929 0.8926
2580.000000 0.8923 0.8920 0.8917 0.8914 0.8912
2585.000000 0.8909 0.8906 0.8904 0.8902 0.8899
2590.000000 0.8897 0.8894 0.8892 0.8889 0.8887
2595.000000 0.8885 0.8883 0.8880 0.8878 0.8875
2600.000000 0.8873 0.8869 0.8866 0.8862 0.8858
2605.000000 0.8854 0.8850 0.8846 0.8842 0.8837
2610.000000 0.8833 0.8822 0.8812 0.8797 0.8783
2615.000000 0.8770 0.8757 0.8745 0.8734 0.8724
2620.000000 0.8714 0.8710 0.8707 0.8705 0.8703
2625.000000 0.8702 0.8702 0.8701 0.8701 0.8701
2630.000000 0.8701 0.8702 0.8704 0.8705 0.8707
2635.000000 0.8709 0.8711 0.8712 0.8714 0.8716
2640.000000 0.8718 0.8720 0.8722 0.8724 0.8726
2645.000000 0.8728 0.8731 0.8732 0.8733 0.8734
2650.000000 0.8735 0.8735 0.8736 0.8737 0.8738
2655.000000 0.8739 0.8740 0.8741 0.8742 0.8742
2660.000000 0.8743 0.8742 0.8742 0.8742 0.8742
2665.000000 0.8741 0.8741 0.8740 0.8740 0.8739
2670.000000 0.8738 0.8736 0.8734 0.8732 0.8730
2675.000000 0.8728 0.8726 0.8724 0.8722 0.8719
2680.000000 0.8733 0.8713 0.8710 0.8707 0.8704
2685.000000 0.8700 0.8697 0.8694 0.8691 0.8688
2690.000000 0.8686 0.8683 0.8680 0.8677 0.8674
2695.000000 0.8669 0.8665 0.8654 0.8644 0.8632
2700.000000 0.8621 0.8606 0.8592 0.8562 0.8532
2705.000000 0.8491 0.8450 0.8405 0.8361 0.8318
2710.000000 0.8275 0.8233 0.8192 0.8160 0.8129
2715.000000 0.8102 0.8076 0.8060 0.8045 0.8035
2720.000000 0.8026 0.8009 0.7993 0.7917 0.7842
2725.000000 0.7758 0.7674 0.7590 0.7506 0.7422
2730.000000 0.7338 0.7254 0.7170 0.7152 0.7134
2735.000000 0.7132 0.7180 0.7160 0.7190 0.7306
2740.000000 0.7423 0.7540 0.7657 0.7773 0.7890
2745.000000 0.7975 0.8060 0.8067 0.8105 0.8079
2750.000000 0.8084 0.8089 0.8094 0.8060 0.8026
2755.000000 0.7991 0.7956 0.7921 0.7887 0.7852
2760.000000 0.7818 0.7783 0.7748 0.7713 0.7679
2765.000000 0.7670 0.7661 0.7680 0.7625 0.7746
2770.000000 0.7792 0.7837 0.7883 0.7929 0.7975
2775.000000 0.7993 0.8011 0.8010 0.8010 0.8008
2780.000000 0.8006 0.8004 0.8020 0.7998 0.7994
2785.000000 0.7979 0.7964 0.7941 0.7918 0.7895
2790.000000 0.7872 0.7849 0.7826 0.7802 0.7779
2795.000000 0.7754 0.7730 0.7703 0.7677 0.7647
2800.000000 0.7618 0.7588 0.7559 0.7532 0.7505
2805.000000 0.7477 0.7450 0.7423 0.7396 0.7366
2810.000000 0.7337 0.7303 0.7270 0.7237 0.7204
2815.000000 0.7177 0.7150 0.7125 0.7101 0.7075
2820.000000 0.7050 0.7017 0.6985 0.6943 0.6901
2825.000000 0.6860 0.6820 0.6776 0.6733 0.6685
2830.000000 0.6638 0.6574 0.6510 0.6426 0.6342
2835.000000 0.6293 0.6245 0.6196 0.6147 0.6091
2840.000000 0.6036 0.5979 0.5922 0.5865 0.5808
2845.000000 0.5731 0.5654 0.5571 0.5488 0.5399
2850.000000 0.5311 0.5217 0.5124 0.5043 0.4963
2855.000000 0.4898 0.4833 0.4739 0.4645 0.4500
2860.000000 0.4356 0.4175 0.3994 0.3813 0.3632
2865.000000 0.3451 0.3270 0.3088 0.2907 0.2726
2870.000000 0.2545 0.2364 0.2183 0.2002 0.1821
2875.000000 0.1785 0.1726 0.1753 0.1757 0.1762
2880.000000 0.1767 0.1806 0.1846 0.1885 0.1925
2885.000000 0.1964 0.2004 0.2043 0.2083 0.2111
2890.000000 0.2118 0.2138 0.2138 0.2139 0.2140
2895.000000 0.2088 0.2036 0.1937 0.1838 0.1739
2900.000000 0.1640 0.1580 0.1487 0.1522 0.1523
2905.000000 0.1544 0.1565 0.1669 0.1774 0.1878
2910.000000 0.1983 0.2087 0.2192 0.2296 0.2401
2915.000000 0.2506 0.2611 0.2715 0.2820 0.2845
2920.000000 0.2871 0.2874 0.2856 0.2821 0.2765
2925.000000 0.2558 0.2352 0.2241 0.2131 0.2129
2930.000000 0.2128 0.2166 0.2120 0.2274 0.2344
2935.000000 0.2414 0.2485 0.2555 0.2626 0.2682
2940.000000 0.2739 0.2738 0.2737 0.2624 0.2737
2945.000000 0.2489 0.2467 0.2369 0.2271 0.2148
2950.000000 0.2025 0.1901 0.1778 0.1654 0.1531
2955.000000 0.1407 0.1284 0.1161 0.1038 0.0914
2960.000000 0.0791 0.0667 0.0544 0.0420 0.0297
2965.000000 0.0260 0.0224 0.0229 0.0234 0.0239
2970.000000 0.0209 0.0249 0.0254 0.0258 0.0263
2975.000000 0.0267 0.0272 0.0276 0.0281 0.0286
2980.000000 0.0291 0.0377 0.0463 0.0665 0.0868
2985.000000 0.1070 0.1273 0.1475 0.1677 0.1879
2990.000000 0.2082 0.2284 0.2487 0.2689 0.2892
2995.000000 0.3094 0.3296 0.3498 0.3701 0.3903
3000.000000 0.4106 0.4176 0.4246 0.4751 0.5257
3005.000000 0.5348 0.5439 0.5702 0.5966 0.6067
3010.000000 0.6169 0.6300 0.6431 0.6551 0.6672
3015.000000 0.6772 0.6873 0.6921 0.6969 0.7016
3020.000000 0.7064 0.7112 0.7160 0.7208 0.7257
3025.000000 0.7305 0.7354 0.7403 0.7452 0.7486
3030.000000 0.7520 0.7553 0.7586 0.7614 0.7642
3035.000000 0.7669 0.7697 0.7724 0.7751 0.7778
3040.000000 0.7805 0.7822 0.7839 0.7856 0.7873
3045.000000 0.7890 0.7907 0.7924 0.7941 0.7957
3050.000000 0.7973 0.7985 0.7998 0.8010 0.8022
3055.000000 0.8034 0.8046 0.8057 0.8069 0.8078
3060.000000 0.8087 0.8095 0.8104 0.8112 0.8121
3065.000000 0.8129 0.8138 0.8147 0.8156 0.8164
3070.000000 0.8173 0.8181 0.8190 0.8198 0.8206
3075.000000 0.8213 0.8221 0.8228 0.8236 0.8243
3080.000000 0.8250 0.8257 0.8265 0.8271 0.8277
3085.000000 0.8283 0.8289 0.8295 0.8301 0.8306
3090.000000 0.8312 0.8318 0.8324 0.8329 0.8334
3095.000000 0.8338 0.8342 0.8346 0.8350 0.8354
3100.000000 0.8358 0.8362 0.8366 0.8370 0.8375
3105.000000 0.8381 0.8388 0.8394 0.8401 0.8407
3110.000000 0.8414 0.8421 0.8428 0.8440 0.8452
3115.000000 0.8464 0.8477 0.8494 0.8512 0.8529
3120.000000 0.8547 0.8561 0.8575 0.8589 0.8603
3125.000000 0.8616 0.8630 0.8639 0.8649 0.8657
3130.000000 0.8666 0.8674 0.8682 0.8690 0.8698
3135.000000 0.8704 0.8710 0.8711 0.8713 0.8715
3140.000000 0.8717 0.8718 0.8720 0.8722 0.8724
3145.000000 0.8725 0.8727 0.8727 0.8728 0.8728
3150.000000 0.8729 0.8729 0.8730 0.8730 0.8731
3155.000000 0.8731 0.8732 0.8732 0.8733 0.8733
3160.000000 0.8734 0.8734 0.8735 0.8735 0.8736
3165.000000 0.8738 0.8740 0.8741 0.8743 0.8745
3170.000000 0.8747 0.8748 0.8750 0.8752 0.8754
3175.000000 0.8755 0.8757 0.8758 0.8760 0.8761
3180.000000 0.8763 0.8764 0.8766 0.8767 0.8769
3185.000000 0.8770 0.8772 0.8773 0.8775 0.8776
3190.000000 0.8778 0.8779 0.8781 0.8783 0.8785
3195.000000 0.8788 0.8791 0.8794 0.8797 0.8799
3200.000000 0.8802 0.8805 0.8808 0.8811 0.8814
3205.000000 0.8817 0.8820 0.8823 0.8826 0.8828
3210.000000 0.8831 0.8834 0.8837 0.8840 0.8843
3215.000000 0.8846 0.8849 0.8852 0.8855 0.8858
3220.000000 0.8861 0.8864 0.8867 0.8870 0.8874
3225.000000 0.8877 0.8880 0.8883 0.8886 0.8888
3230.000000 0.8891 0.8894 0.8897 0.8900 0.8903
3235.000000 0.8906 0.8909 0.8912 0.8915 0.8917
3240.000000 0.8920 0.8924 0.8906 0.8931 0.8935
3245.000000 0.8939 0.8943 0.8945 0.8948 0.8951
3250.000000 0.8954 0.8956 0.8959 0.8962 0.8965
3255.000000 0.8967 0.8970 0.8972 0.8975 0.8978
3260.000000 0.8981 0.8983 0.8986 0.8988 0.8990
3265.000000 0.8991 0.8992 0.8993 0.8995 0.8996
3270.000000 0.8997 0.8998 0.8999 0.9000 0.9001
3275.000000 0.9002 0.9004 0.9005 0.9006 0.9007
3280.000000 0.9008 0.9009 0.9010 0.9011 0.9012
3285.000000 0.9013 0.9015 0.9016 0.9017 0.9018
3290.000000 0.9019 0.9020 0.9021 0.9022 0.9024
3295.000000 0.9025 0.9026 0.9027 0.9028 0.9029
3300.000000 0.9030 0.9031 0.9032 0.9032 0.9032
3305.000000 0.9032 0.9032 0.9031 0.9031 0.9030
3310.000000 0.9030 0.9030 0.9030 0.9030 0.9030
3315.000000 0.9030 0.9030 0.9029 0.9029 0.9028
3320.000000 0.9027 0.9026 0.9025 0.9023 0.9022
3325.000000 0.9021 0.9020 0.9019 0.9018 0.9017
3330.000000 0.9016 0.9015 0.9014 0.9012 0.9011
3335.000000 0.9009 0.9007 0.9005 0.9003 0.9001
3340.000000 0.8999 0.8997 0.8995 0.8993 0.8991
3345.000000 0.8989 0.8987 0.8985 0.8984 0.8983
3350.000000 0.8982 0.8981 0.8981 0.8980 0.8980
3355.000000 0.8980 0.8980 0.8979 0.8979 0.8978
3360.000000 0.8978 0.8977 0.8977 0.8977 0.8977
3365.000000 0.8976 0.8976 0.8976 0.8976 0.8976
3370.000000 0.8976 0.8976 0.8976 0.8976 0.8977
3375.000000 0.8977 0.8977 0.8977 0.8977 0.8977
3380.000000 0.8977 0.8977 0.8977 0.8977 0.8977
3385.000000 0.8977 0.8977 0.8977 0.8977 0.8977
3390.000000 0.8977 0.8977 0.8978 0.8978 0.8978
3395.000000 0.8979 0.8980 0.8980 0.8981 0.8982
3400.000000 0.8983 0.8983 0.8984 0.8984 0.8985
3405.000000 0.8986 0.8987 0.8987 0.8988 0.8989
3410.000000 0.8990 0.8990 0.8991 0.8991 0.8992
3415.000000 0.8993 0.8994 0.8994 0.8995 0.8995
3420.000000 0.8996 0.8997 0.8998 0.8998 0.8999
3425.000000 0.8999 0.9000 0.9001 0.9002 0.9002
3430.000000 0.9003 0.9003 0.9004 0.9005 0.9006
3435.000000 0.9006 0.9007 0.9007 0.9008 0.9008
3440.000000 0.9009 0.9010 0.9011 0.9011 0.9012
3445.000000 0.9012 0.9013 0.9013 0.9014 0.9015
3450.000000 0.9016 0.9016 0.9017 0.9017 0.9018
3455.000000 0.9019 0.9020 0.9020 0.9021 0.9021
3460.000000 0.9022 0.9023 0.9024 0.9025 0.9027
3465.000000 0.9028 0.9030 0.9031 0.9033 0.9034
3470.000000 0.9036 0.9036 0.9037 0.9035 0.9034
3475.000000 0.9032 0.9031 0.9030 0.9029 0.9027
3480.000000 0.9026 0.9024 0.9023 0.9021 0.9020
3485.000000 0.9018 0.9017 0.9016 0.9015 0.9013
3490.000000 0.9012 0.9010 0.9009 0.9007 0.9006
3495.000000 0.9003 0.9001 0.8998 0.8996 0.8993
3500.000000 0.8991 0.8989 0.8987 0.8985 0.8984
3505.000000 0.8983 0.8982 0.8981 0.8980 0.8981
3510.000000 0.8982 0.8983 0.8984 0.8984 0.8985
3515.000000 0.8986 0.8987 0.8988 0.8989 0.8990
3520.000000 0.8992 0.8993 0.8995 0.8996 0.8998
3525.000000 0.8999 0.9001 0.9002 0.9003 0.9001
3530.000000 0.8999 0.8997 0.8996 0.8994 0.8992
3535.000000 0.8990 0.8989 0.8986 0.8983 0.8980
3540.000000 0.8977 0.8974 0.8971 0.8968 0.8965
3545.000000 0.8963 0.8961 0.8959 0.8957 0.8955
3550.000000 0.8953 0.8951 0.8949 0.8947 0.8946
3555.000000 0.8944 0.8942 0.8940 0.8938 0.8936
3560.000000 0.8934 0.8932 0.8931 0.8929 0.8927
3565.000000 0.8925 0.8923 0.8921 0.8919 0.8917
3570.000000 0.8916 0.8914 0.8912 0.8910 0.8908
3575.000000 0.8906 0.8905 0.8903 0.8901 0.8899
3580.000000 0.8898 0.8896 0.8895 0.8893 0.8892
3585.000000 0.8890 0.8889 0.8887 0.8886 0.8884
3590.000000 0.8883 0.8885 0.8888 0.8891 0.8894
3595.000000 0.8896 0.8899 0.8903 0.8907 0.8911
3600.000000 0.8915 0.8919 0.8923 0.8925 0.8928
3605.000000 0.8927 0.8926 0.8925 0.8924 0.8923
3610.000000 0.8922 0.8917 0.8913 0.8908 0.8904
3615.000000 0.8899 0.8895 0.8890 0.8886 0.8881
3620.000000 0.8877 0.8872 0.8868 0.8863 0.8859
3625.000000 0.8854 0.8849 0.8844 0.8840 0.8835
3630.000000 0.8830 0.8825 0.8821 0.8816 0.8811
3635.000000 0.8806 0.8802 0.8797 0.8793 0.8788
3640.000000 0.8784 0.8780 0.8776 0.8772 0.8768
3645.000000 0.8764 0.8760 0.8756 0.8752 0.8748
3650.000000 0.8744 0.8743 0.8742 0.8741 0.8740
3655.000000 0.8744 0.8748 0.8754 0.8760 0.8767
3660.000000 0.8775 0.8783 0.8792 0.8800 0.8808
3665.000000 0.8813 0.8818 0.8822 0.8827 0.8832
3670.000000 0.8837 0.8841 0.8846 0.8848 0.8851
3675.000000 0.8852 0.8853 0.8854 0.8855 0.8856
3680.000000 0.8857 0.8858 0.8860 0.8860 0.8861
3685.000000 0.8858 0.8856 0.8853 0.8851 0.8849
3690.000000 0.8847 0.8844 0.8841 0.8836 0.8831
3695.000000 0.8826 0.8821 0.8816 0.8811 0.8806
3700.000000 0.8801 0.8795 0.8790 0.8786 0.8782
3705.000000 0.8778 0.8774 0.8769 0.8765 0.8761
3710.000000 0.8757 0.8753 0.8749 0.8750 0.8751
3715.000000 0.8754 0.8758 0.8761 0.8765 0.8768
3720.000000 0.8771 0.8774 0.8777 0.8776 0.8775
3725.000000 0.8774 0.8773 0.8772 0.8771 0.8766
3730.000000 0.8761 0.8754 0.8748 0.8737 0.8726
3735.000000 0.8713 0.8701 0.8695 0.8690 0.8686
3740.000000 0.8682 0.8678 0.8675 0.8670 0.8666
3745.000000 0.8660 0.8655 0.8650 0.8645 0.8639
3750.000000 0.8634 0.8630 0.8626 0.8636 0.8647
3755.000000 0.8657 0.8668 0.8679 0.8690 0.8701
3760.000000 0.8712 0.8723 0.8735 0.8746 0.8758
3765.000000 0.8768 0.8778 0.8788 0.8798 0.8803
3770.000000 0.8809 0.8813 0.8817 0.8821 0.8826
3775.000000 0.8829 0.8833 0.8833 0.8833 0.8833
3780.000000 0.8833 0.8833 0.8833 0.8833 0.8833
3785.000000 0.8832 0.8831 0.8829 0.8828 0.8827
3790.000000 0.8826 0.8825 0.8824 0.8822 0.8821
3795.000000 0.8820 0.8819 0.8817 0.8816 0.8814
3800.000000 0.8813 0.8812 0.8811 0.8809 0.8808
3805.000000 0.8807 0.8806 0.8804 0.8803 0.8801
3810.000000 0.8800 0.8798 0.8797 0.8796 0.8795
3815.000000 0.8794 0.8793
##END=
