##TITLE=Octadecanamine, hydrochloride
##JCAMP-DX=4.24
##DATA TYPE=INFRARED SPECTRUM
##CLASS=COBLENTZ
##ORIGIN=BRITISH PETROLEUM CO. LTD., ENGLAND
##OWNER=Copyright (C) 1987 by the Coblentz Society
Collection (C) 2018 copyright by the U.S. Secretary of Commerce
on behalf of the United States of America. All rights reserved.
##DATE=1972/05/09
##NAMES=1-octadecanamine hydrochloride
Octadecylamine, hydrochloride
##CAS REGISTRY NO=1838-08-0
##MOLFORM=C18 H40 Cl N
##SOURCE REFERENCE=COBLENTZ NO. 9320
##$NIST SOURCE=COBLENTZ
##$NIST IMAGE=cob9320
##SPECTROMETER/DATA SYSTEM=PERKIN-ELMER 157
##STATE=SOLID (KBr DISC)
$$ HCl RUN IN KBr MAY CONTAIN SOME HBr
$$ REF. Can. J. Spec., 18,4,101, '73 C. S. DOUSE and P. B. TOOKE
$$ SEE SPECTRUM NO. 8150 FOR "MULL" RUN
##SAMPLING PROCEDURE=TRANSMISSION
##RESOLUTION=2
##DATA PROCESSING=DIGITIZED BY COBLENTZ SOCIETY (BATCH II) FROM HARD COPY
##XUNITS=1/CM
##YUNITS=TRANSMITTANCE
##XFACTOR=1.0
##YFACTOR=1
##FIRSTX=668
##LASTX=4000
##FIRSTY=0.9391
##MAXX=4000
##MINX=668
##MAXY=0.7678
##MINY=0.0205
##NPOINTS=3333
##XYDATA=(X++(Y..Y))
668.000000 0.9391 0.9386 0.9382 0.9359 0.9323
673.000000 0.9284 0.9245 0.9211 0.9185 0.9158
678.000000 0.9125 0.9077 0.9041 0.9011 0.8980
683.000000 0.8949 0.8915 0.8880 0.8841 0.8800
688.000000 0.8757 0.8717 0.8679 0.8641 0.8600
693.000000 0.8549 0.8498 0.8448 0.8393 0.8338
698.000000 0.8283 0.8228 0.8159 0.8081 0.7980
703.000000 0.7894 0.7808 0.7711 0.7615 0.7490
708.000000 0.7310 0.7183 0.7003 0.6586 0.6090
713.000000 0.5904 0.5545 0.4790 0.3900 0.3304
718.000000 0.2710 0.2184 0.1859 0.2017 0.2419
723.000000 0.2820 0.3220 0.3591 0.3909 0.4129
728.000000 0.4304 0.4507 0.5125 0.5426 0.5675
733.000000 0.5994 0.6274 0.6479 0.6744 0.6900
738.000000 0.6989 0.7016 0.7108 0.7239 0.7372
743.000000 0.7491 0.7564 0.7621 0.7664 0.7666
748.000000 0.7672 0.7582 0.7516 0.7497 0.7409
753.000000 0.7287 0.7197 0.7190 0.7186 0.7186
758.000000 0.7193 0.7193 0.7137 0.7078 0.7033
763.000000 0.7112 0.7226 0.7288 0.7305 0.7263
768.000000 0.7203 0.7143 0.7070 0.6988 0.6895
773.000000 0.6818 0.6751 0.6593 0.6437 0.6420
778.000000 0.6403 0.6555 0.6621 0.6791 0.7038
783.000000 0.7231 0.7312 0.7336 0.7297 0.7247
788.000000 0.7182 0.7112 0.7034 0.6996 0.6971
793.000000 0.7012 0.7032 0.7102 0.7193 0.7271
798.000000 0.7340 0.7457 0.7552 0.7598 0.7644
803.000000 0.7667 0.7669 0.7672 0.7673 0.7678
808.000000 0.7670 0.7663 0.7639 0.7602 0.7580
813.000000 0.7563 0.7548 0.7541 0.7503 0.7445
818.000000 0.7388 0.7322 0.7245 0.7198 0.7195
823.000000 0.7195 0.7197 0.7211 0.7260 0.7334
828.000000 0.7438 0.7483 0.7492 0.7494 0.7494
833.000000 0.7495 0.7495 0.7496 0.7496 0.7494
838.000000 0.7471 0.7447 0.7427 0.7419 0.7416
843.000000 0.7414 0.7393 0.7324 0.7215 0.7135
848.000000 0.7051 0.6947 0.6853 0.6748 0.6676
853.000000 0.6642 0.6609 0.6656 0.6840 0.6945
858.000000 0.7019 0.7064 0.7149 0.7186 0.7198
863.000000 0.7200 0.7201 0.7201 0.7200 0.7207
868.000000 0.7190 0.7158 0.7124 0.7093 0.7075
873.000000 0.7061 0.7050 0.7040 0.7033 0.7027
878.000000 0.7013 0.6971 0.6912 0.6845 0.6759
883.000000 0.6661 0.6558 0.6395 0.6251 0.6149
888.000000 0.6110 0.6114 0.6088 0.6212 0.6247
893.000000 0.6277 0.6357 0.6409 0.6415 0.6357
898.000000 0.6318 0.6275 0.6233 0.6211 0.6201
903.000000 0.6215 0.6220 0.6229 0.6252 0.6284
908.000000 0.6339 0.6447 0.6538 0.6553 0.6553
913.000000 0.6479 0.6429 0.6367 0.6289 0.6192
918.000000 0.6043 0.5648 0.5389 0.5253 0.5148
923.000000 0.5127 0.5136 0.5135 0.5143 0.5150
928.000000 0.5159 0.5169 0.5190 0.5216 0.5277
933.000000 0.5420 0.5617 0.5864 0.6086 0.6240
938.000000 0.6348 0.6415 0.6461 0.6500 0.6535
943.000000 0.6529 0.6531 0.6524 0.6509 0.6492
948.000000 0.6468 0.6436 0.6378 0.6234 0.6126
953.000000 0.6039 0.5979 0.6012 0.6101 0.6238
958.000000 0.6340 0.6423 0.6465 0.6482 0.6429
963.000000 0.6359 0.6267 0.6224 0.6197 0.6163
968.000000 0.6111 0.6036 0.5953 0.5894 0.5857
973.000000 0.5840 0.5851 0.5878 0.5874 0.5856
978.000000 0.5804 0.5558 0.5373 0.5165 0.5004
983.000000 0.4911 0.4916 0.4910 0.5055 0.5191
988.000000 0.5366 0.5435 0.5484 0.5535 0.5620
993.000000 0.5827 0.5926 0.5969 0.5984 0.5995
998.000000 0.6001 0.5990 0.5969 0.5929 0.5862
1003.000000 0.5771 0.5666 0.5463 0.5275 0.5169
1008.000000 0.5080 0.4961 0.4841 0.4826 0.4800
1013.000000 0.4906 0.4975 0.5038 0.5088 0.5132
1018.000000 0.5174 0.5241 0.5342 0.5527 0.5779
1023.000000 0.5862 0.5889 0.5891 0.5882 0.5873
1028.000000 0.5846 0.5817 0.5792 0.5776 0.5777
1033.000000 0.5799 0.5839 0.5876 0.5899 0.5905
1038.000000 0.5917 0.5894 0.5876 0.5855 0.5828
1043.000000 0.5800 0.5767 0.5742 0.5726 0.5758
1048.000000 0.5794 0.5851 0.5920 0.5971 0.6006
1053.000000 0.6006 0.6033 0.5965 0.5894 0.5832
1058.000000 0.5794 0.5759 0.5727 0.5696 0.5666
1063.000000 0.5640 0.5622 0.5614 0.5607 0.5612
1068.000000 0.5681 0.5730 0.5840 0.5946 0.6006
1073.000000 0.6041 0.6015 0.6000 0.5976 0.5938
1078.000000 0.5909 0.5918 0.5938 0.5964 0.5982
1083.000000 0.5985 0.5975 0.5941 0.5858 0.5746
1088.000000 0.5634 0.5522 0.5413 0.5301 0.5223
1093.000000 0.5214 0.5198 0.5292 0.5465 0.5641
1098.000000 0.5817 0.5993 0.6188 0.6325 0.6352
1103.000000 0.6358 0.6363 0.6367 0.6362 0.6358
1108.000000 0.6353 0.6346 0.6328 0.6298 0.6268
1113.000000 0.6237 0.6206 0.6176 0.6145 0.6093
1118.000000 0.6015 0.5915 0.5816 0.5716 0.5617
1123.000000 0.5524 0.5433 0.5386 0.5374 0.5414
1128.000000 0.5528 0.5650 0.5772 0.5869 0.5894
1133.000000 0.5862 0.5846 0.5798 0.5748 0.5695
1138.000000 0.5259 0.5023 0.4734 0.4473 0.4212
1143.000000 0.3951 0.3691 0.3432 0.3265 0.3246
1148.000000 0.3250 0.3427 0.3958 0.4489 0.5013
1153.000000 0.5162 0.5308 0.5440 0.5529 0.5604
1158.000000 0.5680 0.5735 0.5766 0.5796 0.5827
1163.000000 0.5856 0.5885 0.5902 0.5909 0.5914
1168.000000 0.5935 0.5917 0.5918 0.5920 0.5920
1173.000000 0.5920 0.5921 0.5921 0.5920 0.5919
1178.000000 0.5917 0.5915 0.5915 0.5923 0.5934
1183.000000 0.5957 0.5976 0.5982 0.5974 0.5928
1188.000000 0.5856 0.5806 0.5761 0.5717 0.5676
1193.000000 0.5640 0.5625 0.5637 0.5676 0.5722
1198.000000 0.5781 0.5833 0.5919 0.5973 0.6008
1203.000000 0.6023 0.6035 0.6041 0.6072 0.6025
1208.000000 0.5998 0.5964 0.5928 0.5889 0.5845
1213.000000 0.5801 0.5750 0.5744 0.5763 0.5792
1218.000000 0.5836 0.5882 0.5939 0.5998 0.6025
1223.000000 0.6037 0.6034 0.6055 0.6019 0.6003
1228.000000 0.5981 0.5958 0.5933 0.5908 0.5884
1233.000000 0.5859 0.5837 0.5824 0.5826 0.5834
1238.000000 0.5853 0.5873 0.5892 0.5911 0.5928
1243.000000 0.5931 0.5931 0.5927 0.5917 0.5900
1248.000000 0.5884 0.5866 0.5849 0.5833 0.5817
1253.000000 0.5809 0.5806 0.5806 0.5809 0.5811
1258.000000 0.5813 0.5815 0.5817 0.5819 0.5821
1263.000000 0.5822 0.5825 0.5826 0.5818 0.5789
1268.000000 0.5753 0.5714 0.5678 0.5657 0.5651
1273.000000 0.5655 0.5666 0.5679 0.5699 0.5715
1278.000000 0.5723 0.5724 0.5724 0.5712 0.5678
1283.000000 0.5636 0.5603 0.5579 0.5572 0.5569
1288.000000 0.5566 0.5566 0.5564 0.5560 0.5547
1293.000000 0.5531 0.5511 0.5492 0.5457 0.5413
1298.000000 0.5362 0.5312 0.5275 0.5242 0.5208
1303.000000 0.5163 0.5108 0.5084 0.5082 0.5089
1308.000000 0.5104 0.5149 0.5193 0.5233 0.5272
1313.000000 0.5311 0.5350 0.5389 0.5427 0.5467
1318.000000 0.5480 0.5483 0.5484 0.5485 0.5486
1323.000000 0.5487 0.5488 0.5489 0.5489 0.5487
1328.000000 0.5486 0.5485 0.5483 0.5481 0.5479
1333.000000 0.5474 0.5467 0.5460 0.5453 0.5435
1338.000000 0.5413 0.5398 0.5415 0.5403 0.5414
1343.000000 0.5427 0.5445 0.5461 0.5469 0.5477
1348.000000 0.5482 0.5482 0.5481 0.5478 0.5475
1353.000000 0.5471 0.5464 0.5454 0.5418 0.5383
1358.000000 0.5348 0.5314 0.5280 0.5247 0.5213
1363.000000 0.5179 0.5144 0.5087 0.5021 0.4956
1368.000000 0.4901 0.4848 0.4795 0.4742 0.4688
1373.000000 0.4637 0.4606 0.4583 0.4579 0.4580
1378.000000 0.4586 0.4594 0.4613 0.4645 0.4667
1383.000000 0.4685 0.4694 0.4692 0.4688 0.4676
1388.000000 0.4639 0.4582 0.4516 0.4448 0.4380
1393.000000 0.4276 0.4163 0.4090 0.4064 0.4054
1398.000000 0.4048 0.4051 0.4024 0.4082 0.4185
1403.000000 0.4307 0.4426 0.4544 0.4663 0.4780
1408.000000 0.4899 0.5002 0.5123 0.5167 0.5201
1413.000000 0.5219 0.5235 0.5220 0.5231 0.5227
1418.000000 0.5223 0.5207 0.5184 0.5152 0.5124
1423.000000 0.5095 0.5067 0.5039 0.5012 0.4981
1428.000000 0.4947 0.4915 0.4882 0.4830 0.4762
1433.000000 0.4694 0.4624 0.4554 0.4483 0.4417
1438.000000 0.4364 0.4312 0.4259 0.4208 0.4161
1443.000000 0.4115 0.4068 0.4012 0.3940 0.3862
1448.000000 0.3767 0.3551 0.3323 0.3123 0.2923
1453.000000 0.2724 0.2525 0.2326 0.2127 0.2038
1458.000000 0.1868 0.1673 0.1616 0.1561 0.1528
1463.000000 0.1499 0.1443 0.1279 0.1058 0.0838
1468.000000 0.0618 0.0459 0.0459 0.0447 0.0509
1473.000000 0.0679 0.0890 0.1101 0.1312 0.1487
1478.000000 0.1565 0.1622 0.1699 0.1835 0.1963
1483.000000 0.2046 0.2128 0.2209 0.2305 0.2408
1488.000000 0.2493 0.2548 0.2584 0.2617 0.2633
1493.000000 0.2645 0.2657 0.2667 0.2676 0.2683
1498.000000 0.2668 0.2675 0.2663 0.2650 0.2629
1503.000000 0.2549 0.2415 0.2275 0.2134 0.1993
1508.000000 0.1852 0.1712 0.1571 0.1475 0.1441
1513.000000 0.1408 0.1377 0.1358 0.1342 0.1329
1518.000000 0.1328 0.1324 0.1331 0.1336 0.1380
1523.000000 0.1501 0.1645 0.1787 0.1930 0.2071
1528.000000 0.2214 0.2356 0.2497 0.2639 0.2781
1533.000000 0.2922 0.3063 0.3204 0.3344 0.3460
1538.000000 0.3532 0.3594 0.3641 0.3672 0.3702
1543.000000 0.3717 0.3727 0.3736 0.3744 0.3745
1548.000000 0.3743 0.3742 0.3738 0.3734 0.3723
1553.000000 0.3676 0.3629 0.3583 0.3536 0.3490
1558.000000 0.3443 0.3397 0.3351 0.3305 0.3259
1563.000000 0.3212 0.3166 0.3120 0.3075 0.3029
1568.000000 0.2983 0.2937 0.2892 0.2846 0.2800
1573.000000 0.2755 0.2709 0.2664 0.2619 0.2580
1578.000000 0.2557 0.2540 0.2525 0.2515 0.2508
1583.000000 0.2501 0.2492 0.2482 0.2467 0.2446
1588.000000 0.2424 0.2397 0.2370 0.2348 0.2336
1593.000000 0.2327 0.2319 0.2311 0.2306 0.2301
1598.000000 0.2297 0.2292 0.2288 0.2284 0.2279
1603.000000 0.2275 0.2271 0.2264 0.2251 0.2234
1608.000000 0.2217 0.2204 0.2193 0.2182 0.2172
1613.000000 0.2167 0.2163 0.2161 0.2235 0.2536
1618.000000 0.2843 0.3149 0.3455 0.3753 0.3871
1623.000000 0.3924 0.3967 0.4003 0.4035 0.4056
1628.000000 0.4070 0.4084 0.4097 0.4111 0.4126
1633.000000 0.4140 0.4153 0.4168 0.4183 0.4198
1638.000000 0.4213 0.4228 0.4243 0.4264 0.4293
1643.000000 0.4325 0.4358 0.4391 0.4428 0.4472
1648.000000 0.4516 0.4553 0.4578 0.4601 0.4620
1653.000000 0.4634 0.4647 0.4659 0.4673 0.4684
1658.000000 0.4692 0.4699 0.4706 0.4714 0.4720
1663.000000 0.4727 0.4734 0.4739 0.4743 0.4747
1668.000000 0.4751 0.4755 0.4759 0.4763 0.4766
1673.000000 0.4769 0.4771 0.4773 0.4776 0.4778
1678.000000 0.4781 0.4784 0.4784 0.4785 0.4786
1683.000000 0.4788 0.4789 0.4790 0.4791 0.4792
1688.000000 0.4792 0.4792 0.4792 0.4791 0.4791
1693.000000 0.4790 0.4790 0.4789 0.4789 0.4789
1698.000000 0.4788 0.4788 0.4787 0.4787 0.4786
1703.000000 0.4786 0.4786 0.4785 0.4785 0.4784
1708.000000 0.4784 0.4783 0.4783 0.4783 0.4782
1713.000000 0.4782 0.4781 0.4781 0.4780 0.4780
1718.000000 0.4780 0.4779 0.4779 0.4779 0.4779
1723.000000 0.4778 0.4778 0.4778 0.4778 0.4778
1728.000000 0.4778 0.4785 0.4777 0.4777 0.4777
1733.000000 0.4777 0.4776 0.4776 0.4776 0.4776
1738.000000 0.4776 0.4776 0.4775 0.4775 0.4775
1743.000000 0.4775 0.4775 0.4775 0.4774 0.4774
1748.000000 0.4774 0.4773 0.4772 0.4771 0.4771
1753.000000 0.4771 0.4770 0.4769 0.4768 0.4768
1758.000000 0.4768 0.4767 0.4766 0.4765 0.4765
1763.000000 0.4765 0.4764 0.4763 0.4762 0.4762
1768.000000 0.4762 0.4761 0.4760 0.4759 0.4759
1773.000000 0.4759 0.4758 0.4757 0.4756 0.4756
1778.000000 0.4756 0.4755 0.4754 0.4753 0.4752
1783.000000 0.4751 0.4749 0.4748 0.4747 0.4745
1788.000000 0.4744 0.4742 0.4741 0.4740 0.4739
1793.000000 0.4737 0.4736 0.4734 0.4733 0.4732
1798.000000 0.4730 0.4728 0.4726 0.4724 0.4722
1803.000000 0.4719 0.4717 0.4715 0.4712 0.4710
1808.000000 0.4708 0.4705 0.4702 0.4699 0.4696
1813.000000 0.4692 0.4689 0.4686 0.4682 0.4678
1818.000000 0.4675 0.4671 0.4668 0.4665 0.4661
1823.000000 0.4657 0.4653 0.4648 0.4642 0.4636
1828.000000 0.4631 0.4626 0.4620 0.4616 0.4612
1833.000000 0.4609 0.4605 0.4602 0.4599 0.4596
1838.000000 0.4592 0.4589 0.4586 0.4581 0.4575
1843.000000 0.4569 0.4563 0.4558 0.4552 0.4546
1848.000000 0.4541 0.4536 0.4531 0.4526 0.4521
1853.000000 0.4516 0.4511 0.4506 0.4501 0.4496
1858.000000 0.4492 0.4487 0.4482 0.4478 0.4475
1863.000000 0.4474 0.4474 0.4473 0.4473 0.4473
1868.000000 0.4470 0.4467 0.4464 0.4460 0.4457
1873.000000 0.4452 0.4445 0.4439 0.4431 0.4424
1878.000000 0.4416 0.4407 0.4399 0.4391 0.4383
1883.000000 0.4375 0.4366 0.4358 0.4349 0.4341
1888.000000 0.4333 0.4325 0.4317 0.4308 0.4302
1893.000000 0.4296 0.4292 0.4288 0.4284 0.4280
1898.000000 0.4277 0.4275 0.4274 0.4273 0.4271
1903.000000 0.4270 0.4269 0.4267 0.4267 0.4268
1908.000000 0.4268 0.4269 0.4270 0.4270 0.4271
1913.000000 0.4273 0.4273 0.4274 0.4275 0.4275
1918.000000 0.4276 0.4277 0.4277 0.4277 0.4276
1923.000000 0.4276 0.4274 0.4273 0.4273 0.4271
1928.000000 0.4270 0.4270 0.4268 0.4265 0.4262
1933.000000 0.4260 0.4258 0.4256 0.4254 0.4252
1938.000000 0.4250 0.4248 0.4246 0.4244 0.4242
1943.000000 0.4241 0.4239 0.4236 0.4233 0.4230
1948.000000 0.4226 0.4222 0.4219 0.4215 0.4212
1953.000000 0.4208 0.4205 0.4201 0.4196 0.4191
1958.000000 0.4186 0.4181 0.4175 0.4169 0.4164
1963.000000 0.4159 0.4154 0.4149 0.4143 0.4138
1968.000000 0.4132 0.4125 0.4119 0.4112 0.4106
1973.000000 0.4099 0.4092 0.4086 0.4079 0.4072
1978.000000 0.4065 0.4058 0.4052 0.4045 0.4039
1983.000000 0.4033 0.4028 0.4024 0.4019 0.4015
1988.000000 0.4010 0.4006 0.4001 0.3996 0.3992
1993.000000 0.3984 0.3972 0.3952 0.3931 0.3910
1998.000000 0.3890 0.3870 0.3850 0.3830 0.3809
2003.000000 0.3789 0.3769 0.3749 0.3728 0.3705
2008.000000 0.3681 0.3657 0.3633 0.3608 0.3584
2013.000000 0.3559 0.3529 0.3499 0.3468 0.3437
2018.000000 0.3408 0.3384 0.3364 0.3347 0.3329
2023.000000 0.3312 0.3294 0.3277 0.3258 0.3238
2028.000000 0.3218 0.3198 0.3178 0.3158 0.3141
2033.000000 0.3125 0.3110 0.3096 0.3081 0.3067
2038.000000 0.3052 0.3038 0.3024 0.3011 0.3003
2043.000000 0.2994 0.2985 0.2976 0.2967 0.2961
2048.000000 0.2959 0.2959 0.2959 0.2961 0.2962
2053.000000 0.2946 0.2969 0.2976 0.2984 0.2994
2058.000000 0.3004 0.3016 0.3032 0.3049 0.3107
2063.000000 0.3161 0.3206 0.3251 0.3295 0.3338
2068.000000 0.3381 0.3422 0.3463 0.3504 0.3547
2073.000000 0.3590 0.3645 0.3692 0.3724 0.3754
2078.000000 0.3783 0.3809 0.3835 0.3859 0.3883
2083.000000 0.3907 0.3933 0.3960 0.3979 0.3995
2088.000000 0.4006 0.4015 0.4022 0.4026 0.4028
2093.000000 0.4030 0.4032 0.4034 0.4035 0.4037
2098.000000 0.4038 0.4039 0.4041 0.4042 0.4042
2103.000000 0.4043 0.4043 0.4044 0.4045 0.4046
2108.000000 0.4047 0.4047 0.4048 0.4048 0.4049
2113.000000 0.4050 0.4051 0.4051 0.4052 0.4053
2118.000000 0.4053 0.4054 0.4054 0.4055 0.4055
2123.000000 0.4056 0.4056 0.4057 0.4058 0.4058
2128.000000 0.4059 0.4059 0.4060 0.4060 0.4061
2133.000000 0.4061 0.4062 0.4064 0.4065 0.4066
2138.000000 0.4066 0.4067 0.4068 0.4069 0.4070
2143.000000 0.4071 0.4071 0.4072 0.4074 0.4075
2148.000000 0.4076 0.4076 0.4077 0.4079 0.4082
2153.000000 0.4084 0.4086 0.4088 0.4090 0.4092
2158.000000 0.4094 0.4096 0.4098 0.4100 0.4103
2163.000000 0.4105 0.4107 0.4109 0.4109 0.4110
2168.000000 0.4111 0.4112 0.4112 0.4123 0.4113
2173.000000 0.4112 0.4111 0.4110 0.4109 0.4106
2178.000000 0.4104 0.4100 0.4097 0.4094 0.4091
2183.000000 0.4088 0.4085 0.4082 0.4080 0.4078
2188.000000 0.4076 0.4075 0.4073 0.4072 0.4070
2193.000000 0.4068 0.4067 0.4066 0.4066 0.4066
2198.000000 0.4066 0.4066 0.4066 0.4066 0.4066
2203.000000 0.4066 0.4066 0.4067 0.4067 0.4067
2208.000000 0.4067 0.4067 0.4068 0.4069 0.4070
2213.000000 0.4071 0.4073 0.4074 0.4074 0.4073
2218.000000 0.4073 0.4072 0.4072 0.4071 0.4071
2223.000000 0.4070 0.4069 0.4065 0.4060 0.4056
2228.000000 0.4052 0.4048 0.4044 0.4040 0.4035
2233.000000 0.4030 0.4024 0.4018 0.4012 0.4007
2238.000000 0.4001 0.3995 0.3989 0.3984 0.3978
2243.000000 0.3972 0.3966 0.3963 0.3959 0.3956
2248.000000 0.3952 0.3949 0.3945 0.3943 0.3942
2253.000000 0.3941 0.3940 0.3939 0.3938 0.3937
2258.000000 0.3936 0.3935 0.3933 0.3931 0.3929
2263.000000 0.3926 0.3924 0.3921 0.3919 0.3916
2268.000000 0.3913 0.3908 0.3902 0.3897 0.3891
2273.000000 0.3884 0.3877 0.3868 0.3858 0.3848
2278.000000 0.3839 0.3829 0.3820 0.3811 0.3802
2283.000000 0.3792 0.3783 0.3774 0.3771 0.3768
2288.000000 0.3766 0.3763 0.3761 0.3759 0.3755
2293.000000 0.3750 0.3745 0.3739 0.3734 0.3728
2298.000000 0.3722 0.3716 0.3709 0.3701 0.3693
2303.000000 0.3685 0.3677 0.3669 0.3661 0.3653
2308.000000 0.3646 0.3640 0.3633 0.3626 0.3620
2313.000000 0.3613 0.3607 0.3600 0.3594 0.3587
2318.000000 0.3581 0.3575 0.3569 0.3563 0.3557
2323.000000 0.3552 0.3546 0.3540 0.3534 0.3529
2328.000000 0.3523 0.3518 0.3512 0.3506 0.3500
2333.000000 0.3494 0.3488 0.3481 0.3475 0.3468
2338.000000 0.3462 0.3455 0.3448 0.3441 0.3434
2343.000000 0.3428 0.3423 0.3419 0.3417 0.3415
2348.000000 0.3413 0.3412 0.3410 0.3409 0.3407
2353.000000 0.3405 0.3404 0.3402 0.3400 0.3399
2358.000000 0.3397 0.3396 0.3394 0.3393 0.3393
2363.000000 0.3392 0.3392 0.3391 0.3390 0.3389
2368.000000 0.3388 0.3387 0.3386 0.3385 0.3384
2373.000000 0.3384 0.3383 0.3381 0.3378 0.3376
2378.000000 0.3375 0.3373 0.3371 0.3369 0.3363
2383.000000 0.3357 0.3348 0.3338 0.3326 0.3312
2388.000000 0.3298 0.3284 0.3269 0.3254 0.3239
2393.000000 0.3224 0.3210 0.3197 0.3189 0.3180
2398.000000 0.3171 0.3162 0.3153 0.3144 0.3135
2403.000000 0.3126 0.3117 0.3109 0.3100 0.3092
2408.000000 0.3085 0.3078 0.3070 0.3063 0.3057
2413.000000 0.3051 0.3049 0.3048 0.3047 0.3046
2418.000000 0.3044 0.3043 0.3042 0.3040 0.3039
2423.000000 0.3038 0.3037 0.3036 0.3036 0.3036
2428.000000 0.3035 0.3035 0.3034 0.3034 0.3034
2433.000000 0.3034 0.3034 0.3034 0.3034 0.3034
2438.000000 0.3034 0.3034 0.3032 0.3030 0.3029
2443.000000 0.3027 0.3025 0.3020 0.3016 0.3010
2448.000000 0.3003 0.2996 0.2989 0.2981 0.2974
2453.000000 0.2966 0.2959 0.2951 0.2944 0.2936
2458.000000 0.2928 0.2916 0.2904 0.2891 0.2878
2463.000000 0.2865 0.2852 0.2840 0.2826 0.2813
2468.000000 0.2799 0.2784 0.2768 0.2752 0.2737
2473.000000 0.2721 0.2706 0.2690 0.2674 0.2658
2478.000000 0.2642 0.2625 0.2609 0.2593 0.2577
2483.000000 0.2560 0.2544 0.2527 0.2514 0.2501
2488.000000 0.2488 0.2476 0.2464 0.2452 0.2441
2493.000000 0.2429 0.2417 0.2406 0.2394 0.2382
2498.000000 0.2371 0.2360 0.2349 0.2338 0.2328
2503.000000 0.2317 0.2306 0.2296 0.2286 0.2276
2508.000000 0.2271 0.2269 0.2268 0.2266 0.2264
2513.000000 0.2262 0.2260 0.2259 0.2258 0.2257
2518.000000 0.2257 0.2257 0.2257 0.2257 0.2257
2523.000000 0.2257 0.2257 0.2257 0.2258 0.2258
2528.000000 0.2258 0.2258 0.2259 0.2260 0.2260
2533.000000 0.2261 0.2261 0.2261 0.2260 0.2258
2538.000000 0.2256 0.2254 0.2252 0.2250 0.2248
2543.000000 0.2246 0.2244 0.2241 0.2239 0.2236
2548.000000 0.2233 0.2227 0.2221 0.2214 0.2207
2553.000000 0.2201 0.2194 0.2187 0.2179 0.2172
2558.000000 0.2164 0.2156 0.2149 0.2141 0.2134
2563.000000 0.2126 0.2119 0.2112 0.2104 0.2096
2568.000000 0.2085 0.2074 0.2063 0.2052 0.2041
2573.000000 0.2029 0.2018 0.2007 0.1995 0.1983
2578.000000 0.1974 0.1967 0.1959 0.1952 0.1944
2583.000000 0.1937 0.1929 0.1922 0.1914 0.1907
2588.000000 0.1899 0.1892 0.1885 0.1877 0.1868
2593.000000 0.1860 0.1851 0.1843 0.1835 0.1826
2598.000000 0.1818 0.1809 0.1801 0.1793 0.1785
2603.000000 0.1776 0.1768 0.1760 0.1752 0.1744
2608.000000 0.1735 0.1727 0.1718 0.1709 0.1700
2613.000000 0.1692 0.1683 0.1674 0.1666 0.1657
2618.000000 0.1649 0.1640 0.1631 0.1623 0.1614
2623.000000 0.1605 0.1597 0.1588 0.1580 0.1571
2628.000000 0.1563 0.1554 0.1545 0.1537 0.1528
2633.000000 0.1520 0.1511 0.1506 0.1503 0.1499
2638.000000 0.1495 0.1492 0.1488 0.1485 0.1482
2643.000000 0.1478 0.1475 0.1471 0.1469 0.1467
2648.000000 0.1465 0.1464 0.1462 0.1461 0.1459
2653.000000 0.1458 0.1456 0.1455 0.1453 0.1451
2658.000000 0.1450 0.1448 0.1447 0.1445 0.1443
2663.000000 0.1441 0.1439 0.1436 0.1434 0.1431
2668.000000 0.1429 0.1424 0.1420 0.1415 0.1405
2673.000000 0.1396 0.1387 0.1377 0.1368 0.1358
2678.000000 0.1347 0.1337 0.1326 0.1316 0.1305
2683.000000 0.1294 0.1283 0.1272 0.1261 0.1250
2688.000000 0.1239 0.1228 0.1217 0.1206 0.1196
2693.000000 0.1185 0.1174 0.1163 0.1153 0.1142
2698.000000 0.1130 0.1119 0.1107 0.1094 0.1081
2703.000000 0.1069 0.1057 0.1044 0.1032 0.1020
2708.000000 0.1007 0.0996 0.0984 0.0973 0.0962
2713.000000 0.0951 0.0940 0.0929 0.0919 0.0908
2718.000000 0.0897 0.0886 0.0875 0.0864 0.0853
2723.000000 0.0842 0.0832 0.0824 0.0815 0.0807
2728.000000 0.0800 0.0792 0.0785 0.0778 0.0770
2733.000000 0.0763 0.0756 0.0749 0.0742 0.0735
2738.000000 0.0727 0.0720 0.0712 0.0705 0.0698
2743.000000 0.0691 0.0683 0.0676 0.0669 0.0661
2748.000000 0.0654 0.0646 0.0639 0.0631 0.0623
2753.000000 0.0615 0.0607 0.0599 0.0591 0.0583
2758.000000 0.0575 0.0567 0.0559 0.0551 0.0543
2763.000000 0.0535 0.0527 0.0519 0.0511 0.0503
2768.000000 0.0495 0.0487 0.0479 0.0471 0.0463
2773.000000 0.0455 0.0447 0.0439 0.0431 0.0423
2778.000000 0.0415 0.0407 0.0399 0.0390 0.0382
2783.000000 0.0374 0.0366 0.0358 0.0349 0.0341
2788.000000 0.0332 0.0324 0.0315 0.0307 0.0298
2793.000000 0.0290 0.0281 0.0272 0.0263 0.0253
2798.000000 0.0243 0.0232 0.0225 0.0221 0.0216
2803.000000 0.0213 0.0213 0.0212 0.0211 0.0210
2808.000000 0.0209 0.0209 0.0209 0.0209 0.0209
2813.000000 0.0208 0.0208 0.0208 0.0207 0.0207
2818.000000 0.0207 0.0207 0.0207 0.0207 0.0206
2823.000000 0.0206 0.0206 0.0206 0.0206 0.0206
2828.000000 0.0206 0.0206 0.0206 0.0206 0.0206
2833.000000 0.0206 0.0206 0.0206 0.0206 0.0206
2838.000000 0.0205 0.0205 0.0205 0.0205 0.0205
2843.000000 0.0205 0.0205 0.0205 0.0205 0.0205
2848.000000 0.0205 0.0205 0.0205 0.0205 0.0205
2853.000000 0.0205 0.0205 0.0205 0.0205 0.0205
2858.000000 0.0205 0.0205 0.0205 0.0205 0.0205
2863.000000 0.0205 0.0206 0.0206 0.0206 0.0206
2868.000000 0.0206 0.0206 0.0206 0.0206 0.0206
2873.000000 0.0206 0.0207 0.0207 0.0207 0.0207
2878.000000 0.0207 0.0207 0.0207 0.0208 0.0208
2883.000000 0.0208 0.0208 0.0208 0.0208 0.0208
2888.000000 0.0208 0.0208 0.0208 0.0209 0.0209
2893.000000 0.0209 0.0209 0.0209 0.0209 0.0210
2898.000000 0.0210 0.0210 0.0210 0.0210 0.0210
2903.000000 0.0210 0.0211 0.0211 0.0211 0.0211
2908.000000 0.0211 0.0211 0.0211 0.0212 0.0212
2913.000000 0.0212 0.0213 0.0213 0.0213 0.0213
2918.000000 0.0213 0.0213 0.0213 0.0214 0.0214
2923.000000 0.0214 0.0214 0.0214 0.0214 0.0214
2928.000000 0.0211 0.0215 0.0215 0.0215 0.0215
2933.000000 0.0215 0.0215 0.0216 0.0216 0.0216
2938.000000 0.0217 0.0217 0.0217 0.0217 0.0218
2943.000000 0.0218 0.0218 0.0219 0.0219 0.0219
2948.000000 0.0219 0.0220 0.0220 0.0220 0.0221
2953.000000 0.0221 0.0221 0.0221 0.0222 0.0222
2958.000000 0.0222 0.0223 0.0223 0.0223 0.0223
2963.000000 0.0224 0.0224 0.0224 0.0225 0.0225
2968.000000 0.0225 0.0225 0.0226 0.0227 0.0227
2973.000000 0.0228 0.0228 0.0228 0.0228 0.0229
2978.000000 0.0229 0.0229 0.0230 0.0230 0.0230
2983.000000 0.0230 0.0231 0.0231 0.0231 0.0232
2988.000000 0.0232 0.0232 0.0232 0.0233 0.0233
2993.000000 0.0233 0.0233 0.0234 0.0234 0.0234
2998.000000 0.0235 0.0235 0.0235 0.0235 0.0236
3003.000000 0.0236 0.0236 0.0237 0.0237 0.0237
3008.000000 0.0237 0.0238 0.0238 0.0238 0.0238
3013.000000 0.0239 0.0239 0.0239 0.0239 0.0239
3018.000000 0.0239 0.0239 0.0239 0.0239 0.0239
3023.000000 0.0239 0.0239 0.0239 0.0239 0.0240
3028.000000 0.0240 0.0240 0.0240 0.0240 0.0240
3033.000000 0.0240 0.0240 0.0240 0.0241 0.0242
3038.000000 0.0243 0.0246 0.0249 0.0252 0.0254
3043.000000 0.0257 0.0260 0.0263 0.0267 0.0271
3048.000000 0.0275 0.0279 0.0283 0.0287 0.0291
3053.000000 0.0295 0.0299 0.0303 0.0307 0.0310
3058.000000 0.0314 0.0318 0.0322 0.0324 0.0326
3063.000000 0.0328 0.0330 0.0333 0.0335 0.0337
3068.000000 0.0340 0.0342 0.0345 0.0347 0.0349
3073.000000 0.0351 0.0353 0.0354 0.0356 0.0358
3078.000000 0.0359 0.0361 0.0363 0.0365 0.0366
3083.000000 0.0368 0.0370 0.0372 0.0374 0.0375
3088.000000 0.0377 0.0378 0.0379 0.0380 0.0381
3093.000000 0.0382 0.0382 0.0383 0.0384 0.0385
3098.000000 0.0386 0.0386 0.0387 0.0388 0.0389
3103.000000 0.0389 0.0390 0.0391 0.0392 0.0393
3108.000000 0.0393 0.0394 0.0395 0.0396 0.0398
3113.000000 0.0399 0.0401 0.0404 0.0406 0.0409
3118.000000 0.0416 0.0423 0.0431 0.0439 0.0446
3123.000000 0.0454 0.0462 0.0470 0.0474 0.0479
3128.000000 0.0483 0.0488 0.0492 0.0496 0.0500
3133.000000 0.0504 0.0507 0.0510 0.0512 0.0515
3138.000000 0.0518 0.0521 0.0524 0.0527 0.0529
3143.000000 0.0532 0.0534 0.0536 0.0538 0.0540
3148.000000 0.0542 0.0544 0.0546 0.0547 0.0549
3153.000000 0.0550 0.0551 0.0551 0.0552 0.0553
3158.000000 0.0554 0.0554 0.0555 0.0556 0.0557
3163.000000 0.0558 0.0559 0.0560 0.0560 0.0561
3168.000000 0.0561 0.0562 0.0562 0.0563 0.0563
3173.000000 0.0564 0.0565 0.0565 0.0566 0.0567
3178.000000 0.0568 0.0569 0.0571 0.0573 0.0577
3183.000000 0.0581 0.0586 0.0590 0.0594 0.0598
3188.000000 0.0602 0.0610 0.0628 0.0646 0.0665
3193.000000 0.0683 0.0703 0.0722 0.0741 0.0759
3198.000000 0.0766 0.0772 0.0779 0.0785 0.0790
3203.000000 0.0796 0.0801 0.0806 0.0811 0.0816
3208.000000 0.0821 0.0826 0.0831 0.0836 0.0841
3213.000000 0.0846 0.0851 0.0856 0.0861 0.0866
3218.000000 0.0871 0.0876 0.0881 0.0886 0.0892
3223.000000 0.0898 0.0904 0.0910 0.0917 0.0923
3228.000000 0.0929 0.0935 0.0941 0.0947 0.0953
3233.000000 0.0959 0.0966 0.0972 0.0978 0.0983
3238.000000 0.0989 0.0996 0.1004 0.1011 0.1018
3243.000000 0.1027 0.1038 0.1048 0.1059 0.1068
3248.000000 0.1076 0.1084 0.1092 0.1100 0.1106
3253.000000 0.1112 0.1118 0.1124 0.1130 0.1136
3258.000000 0.1143 0.1149 0.1154 0.1158 0.1162
3263.000000 0.1167 0.1170 0.1173 0.1176 0.1180
3268.000000 0.1183 0.1186 0.1189 0.1192 0.1196
3273.000000 0.1199 0.1202 0.1205 0.1208 0.1211
3278.000000 0.1214 0.1216 0.1219 0.1222 0.1223
3283.000000 0.1225 0.1227 0.1228 0.1230 0.1232
3288.000000 0.1234 0.1236 0.1237 0.1238 0.1239
3293.000000 0.1241 0.1242 0.1242 0.1243 0.1243
3298.000000 0.1243 0.1244 0.1244 0.1245 0.1245
3303.000000 0.1246 0.1246 0.1247 0.1247 0.1248
3308.000000 0.1248 0.1248 0.1249 0.1249 0.1250
3313.000000 0.1251 0.1251 0.1252 0.1253 0.1253
3318.000000 0.1254 0.1254 0.1254 0.1255 0.1255
3323.000000 0.1256 0.1256 0.1257 0.1257 0.1258
3328.000000 0.1258 0.1259 0.1259 0.1259 0.1259
3333.000000 0.1259 0.1260 0.1260 0.1260 0.1260
3338.000000 0.1261 0.1261 0.1261 0.1261 0.1261
3343.000000 0.1262 0.1262 0.1262 0.1262 0.1263
3348.000000 0.1263 0.1263 0.1263 0.1263 0.1264
3353.000000 0.1264 0.1264 0.1264 0.1265 0.1265
3358.000000 0.1265 0.1265 0.1265 0.1265 0.1265
3363.000000 0.1265 0.1265 0.1266 0.1266 0.1266
3368.000000 0.1266 0.1266 0.1267 0.1267 0.1267
3373.000000 0.1267 0.1268 0.1268 0.1268 0.1268
3378.000000 0.1268 0.1269 0.1269 0.1269 0.1269
3383.000000 0.1270 0.1270 0.1270 0.1270 0.1270
3388.000000 0.1271 0.1271 0.1271 0.1271 0.1271
3393.000000 0.1272 0.1272 0.1272 0.1272 0.1272
3398.000000 0.1272 0.1272 0.1272 0.1272 0.1273
3403.000000 0.1273 0.1273 0.1273 0.1274 0.1274
3408.000000 0.1274 0.1274 0.1274 0.1275 0.1275
3413.000000 0.1275 0.1275 0.1275 0.1275 0.1275
3418.000000 0.1275 0.1275 0.1276 0.1276 0.1276
3423.000000 0.1276 0.1276 0.1277 0.1277 0.1277
3428.000000 0.1277 0.1277 0.1278 0.1278 0.1278
3433.000000 0.1278 0.1278 0.1278 0.1278 0.1278
3438.000000 0.1278 0.1279 0.1279 0.1279 0.1279
3443.000000 0.1279 0.1280 0.1280 0.1280 0.1280
3448.000000 0.1280 0.1281 0.1281 0.1282 0.1282
3453.000000 0.1282 0.1283 0.1283 0.1284 0.1284
3458.000000 0.1285 0.1285 0.1285 0.1286 0.1286
3463.000000 0.1287 0.1287 0.1287 0.1288 0.1288
3468.000000 0.1289 0.1289 0.1290 0.1290 0.1290
3473.000000 0.1291 0.1292 0.1293 0.1294 0.1295
3478.000000 0.1298 0.1301 0.1303 0.1306 0.1309
3483.000000 0.1312 0.1315 0.1318 0.1321 0.1325
3488.000000 0.1330 0.1335 0.1340 0.1345 0.1350
3493.000000 0.1354 0.1359 0.1363 0.1367 0.1371
3498.000000 0.1373 0.1376 0.1379 0.1381 0.1384
3503.000000 0.1387 0.1389 0.1392 0.1395 0.1397
3508.000000 0.1400 0.1403 0.1405 0.1408 0.1409
3513.000000 0.1410 0.1411 0.1412 0.1412 0.1413
3518.000000 0.1413 0.1414 0.1414 0.1414 0.1415
3523.000000 0.1415 0.1415 0.1415 0.1415 0.1416
3528.000000 0.1416 0.1417 0.1417 0.1417 0.1418
3533.000000 0.1418 0.1418 0.1418 0.1418 0.1419
3538.000000 0.1419 0.1420 0.1420 0.1420 0.1421
3543.000000 0.1421 0.1421 0.1421 0.1421 0.1422
3548.000000 0.1422 0.1423 0.1423 0.1423 0.1424
3553.000000 0.1424 0.1424 0.1424 0.1424 0.1425
3558.000000 0.1425 0.1425 0.1425 0.1425 0.1426
3563.000000 0.1426 0.1426 0.1426 0.1426 0.1427
3568.000000 0.1427 0.1427 0.1427 0.1427 0.1428
3573.000000 0.1428 0.1428 0.1428 0.1428 0.1429
3578.000000 0.1429 0.1429 0.1429 0.1429 0.1429
3583.000000 0.1429 0.1429 0.1429 0.1429 0.1430
3588.000000 0.1430 0.1430 0.1430 0.1430 0.1431
3593.000000 0.1431 0.1431 0.1431 0.1431 0.1431
3598.000000 0.1432 0.1432 0.1432 0.1432 0.1432
3603.000000 0.1433 0.1433 0.1433 0.1433 0.1433
3608.000000 0.1433 0.1433 0.1433 0.1433 0.1433
3613.000000 0.1434 0.1434 0.1434 0.1434 0.1434
3618.000000 0.1435 0.1435 0.1435 0.1435 0.1435
3623.000000 0.1435 0.1436 0.1436 0.1436 0.1436
3628.000000 0.1436 0.1437 0.1437 0.1437 0.1437
3633.000000 0.1437 0.1437 0.1437 0.1437 0.1437
3638.000000 0.1437 0.1437 0.1438 0.1438 0.1438
3643.000000 0.1438 0.1438 0.1419 0.1438 0.1438
3648.000000 0.1438 0.1438 0.1439 0.1439 0.1439
3653.000000 0.1439 0.1439 0.1439 0.1439 0.1439
3658.000000 0.1439 0.1439 0.1439 0.1439 0.1439
3663.000000 0.1439 0.1439 0.1439 0.1440 0.1440
3668.000000 0.1440 0.1440 0.1440 0.1440 0.1440
3673.000000 0.1440 0.1440 0.1440 0.1440 0.1440
3678.000000 0.1440 0.1440 0.1440 0.1440 0.1441
3683.000000 0.1441 0.1441 0.1441 0.1441 0.1441
3688.000000 0.1441 0.1441 0.1441 0.1441 0.1441
3693.000000 0.1442 0.1442 0.1442 0.1442 0.1442
3698.000000 0.1442 0.1441 0.1441 0.1440 0.1439
3703.000000 0.1439 0.1438 0.1438 0.1437 0.1437
3708.000000 0.1436 0.1436 0.1435 0.1434 0.1433
3713.000000 0.1433 0.1432 0.1431 0.1431 0.1430
3718.000000 0.1430 0.1429 0.1429 0.1428 0.1428
3723.000000 0.1427 0.1426 0.1426 0.1425 0.1425
3728.000000 0.1424 0.1423 0.1422 0.1422 0.1421
3733.000000 0.1421 0.1420 0.1420 0.1419 0.1418
3738.000000 0.1417 0.1416 0.1414 0.1413 0.1411
3743.000000 0.1410 0.1408 0.1406 0.1404 0.1403
3748.000000 0.1401 0.1399 0.1398 0.1396 0.1394
3753.000000 0.1393 0.1391 0.1389 0.1388 0.1386
3758.000000 0.1384 0.1382 0.1380 0.1379 0.1377
3763.000000 0.1375 0.1373 0.1372 0.1369 0.1366
3768.000000 0.1363 0.1360 0.1357 0.1354 0.1350
3773.000000 0.1346 0.1342 0.1339 0.1335 0.1331
3778.000000 0.1327 0.1324 0.1320 0.1316 0.1312
3783.000000 0.1310 0.1307 0.1305 0.1303 0.1300
3788.000000 0.1298 0.1296 0.1294 0.1291 0.1289
3793.000000 0.1287 0.1285 0.1284 0.1282 0.1281
3798.000000 0.1279 0.1278 0.1277 0.1276 0.1275
3803.000000 0.1274 0.1274 0.1273 0.1272 0.1271
3808.000000 0.1270 0.1269 0.1268 0.1267 0.1267
3813.000000 0.1267 0.1267 0.1267 0.1267 0.1266
3818.000000 0.1266 0.1266 0.1265 0.1265 0.1265
3823.000000 0.1264 0.1264 0.1264 0.1264 0.1264
3828.000000 0.1264 0.1263 0.1263 0.1263 0.1263
3833.000000 0.1263 0.1263 0.1262 0.1262 0.1262
3838.000000 0.1262 0.1262 0.1262 0.1261 0.1261
3843.000000 0.1261 0.1261 0.1261 0.1261 0.1260
3848.000000 0.1260 0.1260 0.1260 0.1260 0.1260
3853.000000 0.1259 0.1259 0.1259 0.1259 0.1259
3858.000000 0.1259 0.1258 0.1258 0.1258 0.1258
3863.000000 0.1258 0.1257 0.1257 0.1257 0.1257
3868.000000 0.1257 0.1257 0.1257 0.1257 0.1257
3873.000000 0.1257 0.1257 0.1257 0.1257 0.1257
3878.000000 0.1257 0.1257 0.1257 0.1257 0.1256
3883.000000 0.1256 0.1256 0.1256 0.1256 0.1256
3888.000000 0.1256 0.1256 0.1256 0.1256 0.1256
3893.000000 0.1256 0.1256 0.1256 0.1256 0.1256
3898.000000 0.1256 0.1256 0.1256 0.1255 0.1255
3903.000000 0.1255 0.1255 0.1255 0.1255 0.1255
3908.000000 0.1255 0.1255 0.1255 0.1255 0.1255
3913.000000 0.1255 0.1255 0.1255 0.1255 0.1255
3918.000000 0.1255 0.1255 0.1255 0.1255 0.1255
3923.000000 0.1255 0.1255 0.1255 0.1255 0.1255
3928.000000 0.1255 0.1255 0.1255 0.1256 0.1256
3933.000000 0.1256 0.1256 0.1256 0.1256 0.1256
3938.000000 0.1256 0.1256 0.1256 0.1256 0.1256
3943.000000 0.1256 0.1256 0.1256 0.1256 0.1256
3948.000000 0.1256 0.1256 0.1257 0.1257 0.1257
3953.000000 0.1257 0.1257 0.1257 0.1257 0.1257
3958.000000 0.1257 0.1257 0.1257 0.1257 0.1257
3963.000000 0.1257 0.1257 0.1257 0.1257 0.1257
3968.000000 0.1257 0.1258 0.1258 0.1258 0.1258
3973.000000 0.1258 0.1258 0.1258 0.1258 0.1258
3978.000000 0.1258 0.1258 0.1258 0.1258 0.1258
3983.000000 0.1258 0.1258 0.1258 0.1258 0.1258
3988.000000 0.1259 0.1259 0.1259 0.1259 0.1259
3993.000000 0.1259 0.1259 0.1259 0.1259 0.1259
3998.000000 0.1259 0.1259 0.1259
##END=
