##TITLE=3-Fluoro-5-(trifluoromethyl)benzyl alcohol
##JCAMP-DX=4.24
##DATA TYPE=INFRARED SPECTRUM
##ORIGIN=EPA-IR VAPOR PHASE LIBRARY
##OWNER=SRD/NIST
Collection (C) 2018 copyright by the U.S. Secretary of Commerce
on behalf of the United States of America. All rights reserved.
##CAS REGISTRY NO=184970-29-4
##MOLFORM=C 8 H 6 F 4 O
##$NIST SOURCE=MSDC-IR
##STATE=gas
##XUNITS=1/CM
##YUNITS=ABSORBANCE
##XFACTOR=1.
##YFACTOR=0.001
##DELTAX=1.92898
##FIRSTX=549.8
##LASTX=4000.7
##FIRSTY=4.426
##MAXX=4000.7
##MINX=549.759
##MAXY=0.385986
##MINY=0
##NPOINTS=1790
##XYDATA=(X++(Y..Y))
549.759 4.426 3.706 3.516 3.476 3.636 3.456 3.716 4.036 4.126 4.266
569.049 4.416 5.016 5.066 4.136 2.846 2.246 3.106 3.796 3.956 4.196
588.339 4.216 3.846 2.916 3.416 3.676 3.236 3.626 4.266 4.266 3.936
607.628 3.996 4.746 5.356 5.356 5.526 5.456 5.996 6.676 7.546 8.036
626.918 8.226 8.756 8.776 8.666 8.416 8.676 8.876 8.456 8.616 9.056
646.208 8.686 8.536 8.546 8.366 8.646 8.396 8.146 7.886 7.336 7.156
665.498 6.906 6.416 6.196 6.226 6.246 5.986 5.936 6.516 7.576 9.236
684.787 11.056 13.006 15.376 17.736 20.286 23.846 27.406 30.506 32.326 31.296
704.077 29.286 29.056 30.906 34.316 38.246 40.636 41.006 41.526 41.016 38.196
723.367 33.906 26.806 18.846 12.896 9.436 7.136 5.116 3.726 3.126 3.386
742.657 3.126 2.886 3.376 3.506 3.176 3.036 2.886 2.316 1.906 2.026
761.947 2.306 2.416 2.316 2.016 2.266 2.466 1.946 1.6526 1.7005 1.7382
781.236 1.946 1.966 1.1346 0.7695 1.201 1.4178 1.5724 1.796 2.326 2.186
800.526 1.886 2.136 1.976 2.096 2.566 2.896 2.906 3.296 3.996 3.866
819.816 3.156 3.536 4.156 4.396 4.836 4.736 4.806 5.636 6.376 6.286
839.106 6.256 7.016 8.326 9.366 10.726 12.566 15.536 18.556 21.886 27.046
858.395 32.576 39.266 47.146 55.506 65.056 74.446 82.286 89.126 94.966 100.796
877.685 103.306 94.496 79.876 68.426 58.816 49.716 41.416 33.966 27.706 23.436
896.975 20.406 18.356 16.646 15.236 14.236 13.066 12.426 11.816 11.616 11.556
916.265 10.996 10.796 11.186 11.546 12.196 12.896 13.586 14.656 15.776 16.656
935.555 17.386 19.276 21.746 24.376 27.496 30.666 34.396 38.346 41.846 44.856
954.844 47.926 50.156 51.726 53.106 53.046 52.156 50.756 49.496 48.396 46.726
974.134 45.146 43.576 41.746 39.726 37.946 35.716 33.776 32.156 29.856 27.926
993.424 25.756 23.606 22.316 21.816 21.576 21.636 21.416 20.806 21.606 22.496
1012.714 22.716 23.216 23.176 24.106 25.586 25.606 25.976 27.186 27.456 28.036
1032.003 29.956 30.816 31.236 31.336 31.426 32.206 32.396 31.786 30.986 30.096
1051.293 28.406 26.336 25.386 24.626 23.426 22.996 21.736 20.356 20.106 20.046
1070.583 20.896 20.356 20.016 21.446 23.326 26.546 30.706 36.356 44.456 53.806
1089.873 60.286 64.866 69.916 72.246 70.776 66.446 58.356 49.566 41.666 36.786
1109.163 34.066 31.786 32.266 32.926 33.576 34.716 36.996 41.576 47.866 56.536
1128.452 68.116 83.236 102.006 123.876 151.096 182.156 215.906 251.286 287.556 326.116
1147.742 361.126 385.986 385.856 354.396 310.216 270.916 236.926 204.356 176.666 162.436
1167.032 167.446 190.366 223.756 260.796 294.356 311.386 308.356 290.476 264.576 234.036
1186.322 201.926 169.106 136.056 108.836 88.876 76.446 68.566 62.886 58.006 53.276
1205.611 52.166 52.886 53.526 56.436 61.116 66.696 74.086 85.816 103.696 123.556
1224.901 145.016 165.276 178.626 184.536 183.346 175.636 161.796 143.656 122.426 102.236
1244.191 85.796 73.096 64.296 57.916 52.946 48.976 45.176 41.076 37.486 35.236
1263.481 33.126 30.306 28.166 26.926 25.936 24.906 23.656 22.776 21.776 20.866
1282.771 20.276 20.036 19.956 19.986 20.026 19.796 19.716 20.216 21.076 21.716
1302.060 22.356 23.146 23.896 24.406 25.256 26.706 28.246 29.956 32.416 35.776
1321.350 40.376 46.836 55.816 67.846 83.536 103.666 129.326 160.666 196.736 236.086
1340.640 276.036 312.316 341.426 359.726 364.846 356.236 333.686 299.476 258.256 214.976
1359.930 174.716 140.916 114.936 96.926 84.626 76.096 69.866 64.906 60.776 57.006
1379.219 53.596 50.446 47.216 44.266 41.446 38.816 36.656 34.766 33.316 32.166
1398.509 31.006 29.976 29.016 28.246 27.646 26.766 25.916 25.126 24.546 24.026
1417.799 23.456 23.076 23.076 23.526 24.066 24.996 26.526 28.336 30.406 33.086
1437.089 36.826 41.026 46.166 52.336 59.316 66.786 74.256 80.746 85.716 88.646
1456.378 89.486 89.086 87.016 82.026 74.496 66.136 58.326 51.096 44.816 38.906
1475.668 33.726 29.266 25.236 21.836 19.096 16.696 14.746 13.226 12.056 11.316
1494.958 10.546 9.646 8.866 8.346 8.046 7.636 7.196 6.926 6.696 6.626
1514.248 6.726 6.476 6.296 6.206 6.056 6.116 6.226 6.136 6.096 5.916
1533.538 5.646 5.356 5.216 5.436 5.366 5.216 5.226 5.276 5.206 5.366
1552.827 5.776 5.876 6.066 6.516 6.666 6.796 7.106 7.486 8.146 8.746
1572.117 9.506 10.286 10.916 11.836 12.916 14.506 16.446 18.396 20.746 23.576
1591.407 26.696 30.166 33.876 37.636 41.386 44.476 46.966 48.846 49.686 49.676
1610.697 48.966 47.256 44.566 41.146 37.546 34.086 30.626 27.206 23.846 20.716
1629.986 17.766 15.236 13.066 10.846 8.996 7.846 7.006 6.266 5.526 5.046
1649.276 4.796 4.626 4.436 4.246 3.966 3.786 3.826 3.826 3.676 3.546
1668.566 3.416 3.286 3.436 3.396 3.046 3.056 3.106 3.116 3.116 2.806
1687.856 2.636 2.606 2.586 2.556 2.516 2.496 2.516 2.356 2.196 2.236
1707.146 2.176 2.056 1.946 1.956 2.086 2.386 2.316 2.206 2.456 2.736
1726.435 2.756 2.616 2.886 3.236 3.476 3.856 4.476 5.146 5.936 6.686
1745.725 7.276 7.926 8.406 8.566 8.666 8.656 8.386 7.806 7.096 6.576
1765.015 6.076 5.356 4.806 4.516 4.206 3.986 3.766 3.566 3.356 3.256
1784.305 3.206 3.156 3.056 2.826 2.756 2.756 2.566 2.516 2.516 2.366
1803.594 2.226 2.166 1.996 1.846 1.886 1.876 1.786 1.7298 1.7619 1.6705
1822.884 1.5098 1.5158 1.6068 1.6244 1.5853 1.5868 1.5941 1.6277 1.5817 1.5135
1842.174 1.5308 1.584 1.5026 1.5001 1.6319 1.6253 1.6963 1.826 1.866 1.786
1861.464 1.6928 1.7288 1.816 1.6663 1.4375 1.5153 1.5898 1.5549 1.5357 1.5874
1880.754 1.627 1.4367 1.3623 1.4675 1.5068 1.5192 1.4844 1.4737 1.4151 1.2114
1900.043 1.137 1.1535 1.1891 1.1835 1.0252 0.9457 1.0668 1.2615 1.2843 1.1694
1919.333 0.9694 0.9493 1.1646 1.1865 1.1048 1.0348 1.0283 1.105 1.1903 1.2019
1938.623 1.196 1.1557 1.0358 1.1107 1.276 1.2274 1.0453 1.0988 1.1907 1.0973
1957.913 1.1174 1.075 0.9874 0.9883 1.0109 1.0945 1.0838 1.0763 1.1501 1.0724
1977.202 1.1046 1.1692 1.0438 1.0112 1.1107 1.2172 1.2592 1.1976 1.1508 1.2726
1996.492 1.3299 1.433 1.4158 1.2503 1.2369 1.2973 1.2347 1.2335 1.3881 1.5296
2015.782 1.6692 1.6694 1.6518 1.747 1.846 1.7423 1.6287 1.7271 1.7077 1.6601
2035.072 1.6252 1.6092 1.6557 1.726 1.682 1.5635 1.6923 1.71 1.5948 1.7361
2054.362 1.806 1.796 1.826 1.876 1.826 1.6677 1.7487 1.7721 1.7578 1.7419
2073.651 1.6367 1.5174 1.4651 1.5497 1.6777 1.7043 1.6953 1.6915 1.613 1.7099
2092.941 1.806 1.806 1.926 1.976 1.946 2.026 1.986 1.816 1.719 1.5877
2112.231 1.7336 1.7607 1.6821 1.6673 1.4656 1.4201 1.3469 1.2339 1.0965 1.0264
2131.521 1.1145 1.08 0.9716 1.0156 1.2453 1.2472 0.9936 1.0191 1.1648 0.9513
2150.810 0.84198 1.0161 1.1773 1.244 1.0875 1.0505 1.0304 0.87695 0.9455 1.1112
2170.100 1.0341 0.9281 1.1214 1.2535 1.2873 1.2614 1.2818 1.5849 1.6444 1.4448
2189.390 1.3106 1.3199 1.291 1.2613 1.4847 1.5971 1.4772 1.2671 1.2163 1.3112
2208.680 1.4376 1.5379 1.6531 1.6611 1.6603 1.7733 1.796 1.694 1.586 1.5298
2227.970 1.6659 1.7395 1.5854 1.529 1.5175 1.4532 1.5237 1.5675 1.597 1.5489
2247.259 1.3783 1.477 1.4214 1.3523 1.2603 1.2968 1.5991 1.6404 1.5974 1.5325
2266.549 1.6257 1.826 1.796 1.7487 1.786 1.806 1.936 2.036 2.086 2.136
2285.839 2.116 2.196 2.286 2.326 2.276 1.976 1.816 1.966 1.906 1.7331
2305.129 1.6815 1.826 1.936 1.976 1.886 1.936 1.936 1.876 2.136 2.236
2324.418 2.106 1.926 1.836 1.926 2.006 1.906 1.7536 1.6356 1.946 2.056
2343.708 1.906 1.986 2.076 1.976 1.846 1.906 1.936 2.116 1.916 1.665
2362.998 1.6986 1.5842 1.5154 1.4122 1.597 1.916 1.7517 1.5422 1.5485 1.5458
2382.288 1.5579 1.6532 1.6442 1.4951 1.5051 1.5679 1.5244 1.5589 1.4197 1.4075
2401.578 1.4545 1.5059 1.7536 1.6466 1.4508 1.3699 1.474 1.5366 1.5609 1.504
2420.867 1.39 1.3855 1.3066 1.2587 1.3709 1.3531 1.1149 0.9983 0.9717 1.0121
2440.157 1.2031 1.2302 1.1141 1.181 1.2287 1.2075 1.0304 1.0031 1.0897 1.2629
2459.447 1.5585 1.535 1.5567 1.4229 1.33 1.6193 1.6453 1.56 1.6084 1.796
2478.737 1.786 1.5494 1.4357 1.2984 1.1788 1.3559 1.6362 1.5792 1.5007 1.3563
2498.026 1.1647 1.2948 1.573 1.806 1.6782 1.1638 0.9789 0.9875 0.9627 1.2104
2517.316 1.4115 1.3476 1.2653 1.2903 1.1957 0.9807 1.0072 1.2462 1.225 1.0164
2536.606 1.0932 1.1647 1.1093 1.157 1.1367 1.1877 1.2522 1.1559 1.0717 0.86251
2555.896 0.8586 1.278 1.2066 1.0345 1.1669 1.304 1.3942 1.4289 1.1974 1.2665
2575.186 1.3777 1.2088 1.2616 1.193 1.3089 1.5891 1.4943 1.2236 1.3687 1.367
2594.475 1.2268 1.4062 1.4465 1.2242 0.9806 0.9867 1.1233 1.4125 1.3306 0.9352
2613.765 0.9742 0.86742 0.8896 1.1296 1.2542 1.4726 1.3251 1.2622 1.2162 1.1039
2633.055 1.2103 1.1473 0.9385 0.9444 0.85636 0.85745 1.1443 1.2986 1.1005 0.9052
2652.345 1.0598 0.9719 0.9324 1.2386 1.2614 1.0173 1.1509 0.965 0.669 1.1589
2671.634 1.3136 1.1673 1.3525 1.2743 1.1759 1.1667 1.0609 1.0794 1.1064 1.2342
2690.924 1.3908 1.2588 1.3326 1.5659 1.3507 0.9343 0.9948 1.0812 1.03 1.1127
2710.214 1.2436 1.1279 1.0423 0.9662 0.9633 1.166 1.1468 1.3526 1.2992 1.0842
2729.504 1.0773 0.9265 1.0248 1.4403 1.4403 1.3593 1.425 1.3068 1.2207 1.1989
2748.794 1.4079 1.6746 1.446 1.5287 1.806 1.5221 1.431 1.4344 1.3808 1.5003
2768.083 1.4789 1.6316 1.796 1.5668 1.497 1.4728 1.6198 1.846 1.866 1.976
2787.373 2.076 2.236 2.226 2.186 2.346 2.326 2.256 2.036 2.256 2.616
2806.663 2.376 2.286 2.726 2.966 2.696 2.846 3.106 3.166 3.246 3.326
2825.953 3.366 3.626 3.976 4.236 4.586 4.686 4.796 4.836 4.946 5.376
2845.242 5.846 5.926 6.156 6.806 7.166 7.246 7.536 7.936 8.286 8.676
2864.532 9.416 10.206 10.406 10.886 11.466 12.146 13.246 14.376 15.276 15.856
2883.822 16.026 16.246 16.756 17.276 17.106 16.676 16.346 15.566 15.196 15.176
2903.112 14.906 14.736 14.616 14.356 14.306 14.106 14.076 14.076 14.026 14.256
2922.401 14.586 14.416 14.296 14.606 14.546 14.476 14.196 13.926 13.966 14.056
2941.691 14.246 13.706 12.966 12.946 12.656 12.366 11.956 11.526 11.086 10.476
2960.981 10.106 9.566 9.166 8.916 8.166 7.416 7.226 6.646 6.266 5.936
2980.271 5.226 4.866 4.796 4.456 4.046 3.616 3.246 3.046 2.686 2.246
2999.561 2.086 2.196 2.426 2.406 1.7199 1.4563 1.732 1.6901 1.4512 1.1198
3018.850 0.9493 0.9855 1.0736 1.2672 1.0192 0.85441 1.3539 1.6661 1.4323 1.7112
3038.140 2.226 1.906 1.637 1.796 1.7709 1.956 1.956 2.046 2.236 2.136
3057.430 2.176 2.496 2.656 2.656 2.406 2.066 2.036 2.196 2.316 2.176
3076.720 2.526 2.596 2.326 2.296 2.146 2.316 2.906 2.546 2.056 2.736
3096.009 3.216 2.816 2.256 2.436 2.656 1.986 1.405 1.3168 1.3551 1.1996
3115.299 1.1389 0.9773 0.9626 1.1525 0.9826 1.1536 1.1674 0.658 0.7043 0.80529
3134.589 0.446 0.631 0.943 1.1111 0.81488 0.38 0.638 0.568 0.549 0.9053
3153.879 0.9324 0.87015 1.1025 1.2263 1.2735 0.9313 0.675 0.81236 0.318 0.37
3173.169 0.552 0.517 0.6867 0.523 0.479 0.519 0.639 0.594 0.436 0.238
3192.458 0.281 0.329 0.454 0.496 0.198 0.199 0.018 0.402 0.7122 0.583
3211.748 0.81524 0.747 0.396 0.414 0.348 0.546 0.8429 0.603 0.441 0.45
3231.038 0.87882 0.9532 0.668 0.81068 0.599 0.152 0.355 0.647 0.613 0.555
3250.328 0.128 0.259 0.9398 0.937 1.1592 1.1317 0.614 0.605 0.6951 0.9071
3269.617 1.0518 0.8371 0.38 0.407 0.9311 0.555 0.177 0.382 0.7522 0.8677
3288.907 0.516 0.1 0.477 0.9074 0.7191 0.614 0.402 0.285 0.656 1.1081
3308.197 1.0153 0.9839 0.8332 0.542 0.78132 0.9215 0.509 0.07 0.258 0.506
3327.487 0.364 0.145 0.625 0.77834 0.579 0.557 0.461 0.531 0.383 0.302
3346.777 0.314 0.393 0.624 0.688 0.7721 0.591 0.633 1.0343 1.2341 1.219
3366.066 0.9119 0.9254 0.987 0.605 0.603 0.84708 0.563 0.737 1.1172 1.143
3385.356 0.8922 0.651 0.83495 0.578 0 0.125 0.633 1.2741 1.2723 0.84634
3404.646 0.793409 0.683 0.488 0.636 0.9802 0.85737 0.618 1.1997 1.866 1.5689
3423.936 0.83788 0.624 0.8879 1.1436 1.2256 1.3089 1.5811 1.6315 1.2347 1.0011
3443.225 0.84822 1.0978 1.2354 1.0648 1.153 0.87509 0.8948 1.2173 1.3572 1.258
3462.515 1.1027 1.1369 1.0778 1.0681 1.2343 1.5331 1.5372 1.2304 1.3167 1.1903
3481.805 1.1017 1.0029 0.913 1.1581 0.9314 0.7307 1.1269 1.1191 0.9834 1.408
3501.095 1.4532 1.0679 1.1653 1.453 1.0739 0.87794 0.9691 0.7576 0.7472 1.026
3520.385 1.0168 0.83413 1.0879 1.411 1.2411 1.1998 1.2404 1.307 1.5211 1.5774
3539.674 1.5057 1.1345 0.81645 1.1016 1.2341 1.1137 1.3277 1.1731 1.0348 1.1314
3558.964 1.0324 0.627 0.675 0.9689 0.88521 1.3703 1.916 1.806 1.4874 1.5313
3578.254 1.5079 1.2969 1.4643 1.6516 1.896 1.816 1.5662 1.7783 1.826 1.916
3597.544 1.996 2.136 2.006 1.6524 1.976 2.506 2.726 2.846 2.926 3.176
3616.833 3.186 3.536 4.146 3.946 4.136 4.736 4.616 5.126 5.666 5.716
3636.123 6.476 7.406 8.096 8.616 9.706 10.866 11.596 12.356 12.876 13.986
3655.413 15.236 15.866 16.686 17.026 16.936 16.156 15.576 15.526 15.326 14.626
3674.703 13.186 12.156 11.776 11.356 10.456 9.676 8.956 8.346 7.496 6.296
3693.993 5.456 5.036 4.626 4.456 4.026 3.436 3.156 2.746 2.626 2.386
3713.282 1.906 1.936 1.866 1.7565 1.986 2.016 2.296 2.096 1.926 2.076
3732.572 1.5653 1.3107 1.2601 1.1717 0.9476 1.1502 1.553 1.5657 1.7217 1.6302
3751.862 1.5989 1.2927 0.9455 1.556 2.026 1.5237 1.0966 1.4009 1.2308 0.689
3771.152 0.79675 0.9254 0.785082 1.0858 1.0029 0.8307 0.7425 0.583 0.81054 0.9746
3790.441 1.1529 0.8182 0.56 0.499 1.1761 1.786 1.2416 1.2559 1.173 1.2979
3809.731 1.1925 0.7383 0.9641 0.83107 0.7119 1.1875 1.4088 0.8709 1.0369 1.5956
3829.021 1.2353 0.9007 0.85992 0.604 0.84554 1.7527 1.866 1.3558 1.1391 1.2279
3848.311 1.419 1.3097 1.578 1.6968 0.83154 0.505 0.8884 1.3067 1.6402 1.5213
3867.601 1.4395 1.2338 0.649 0.648 1.2793 1.6415 1.5505 1.4883 1.5392 1.5125
3886.890 1.3074 0.9811 0.8998 1.2414 1.4536 1.3473 1.0019 1.0929 1.6694 1.3441
3906.180 0.8893 1.2075 1.1666 1.0758 1.2985 1.2527 0.9986 0.8977 1.2594 1.33
3925.470 1.0158 1.0249 1.3205 1.0857 0.653 0.7211 0.9443 0.85897 0.716 0.676
3944.760 0.624 0.6955 1.0257 1.3014 1.183 1.0537 0.7747 0.87755 1.1119 0.9924
3964.049 0.78168 0.639 0.478 0.474 0.446 0.642 0.655 0.7791 1.0433 0.517
3983.339 0.503 0.86798 0.88382 0.664 1.0005 0.9472 0.334 0.255 0.61 0.6867
##END=
