##TITLE=DIBROMO FLUORO METHANE
##JCAMP-DX=4.24
##DATA TYPE=INFRARED SPECTRUM
##CLASS=COBLENTZ
##ORIGIN=DOW CHEMICAL COMPANY
##OWNER=COBLENTZ SOCIETY
Collection (C) 2018 copyright by the U.S. Secretary of Commerce
on behalf of the United States of America. All rights reserved.
##DATE=Not specified, most likely prior to 1970
##NAMES=dibromo(fluoro)methane
##CAS REGISTRY NO=1868-53-7
##MOLFORM=C H Br2 F
##SOURCE REFERENCE=COBLENTZ NO. 1919
##$NIST SOURCE=COBLENTZ
##$NIST IMAGE=cob1919
##SPECTROMETER/DATA SYSTEM=Not specified, most likely a prism, grating, or hybrid spectrometer.
##STATE=SOLUTION (10% CCl4 FOR 5000-1330, 10% CS2 FOR 1330-625 CM^-^1)
##PATH LENGTH=0.0122 CM, 0.0120 CM
##SAMPLING PROCEDURE=TRANSMISSION
##RESOLUTION=4
##DATA PROCESSING=DIGITIZED BY NIST FROM HARD COPY
##XUNITS=MICROMETERS
##YUNITS=TRANSMITTANCE
##XFACTOR=1.000000
##YFACTOR=1
##DELTAX=000.006843
##FIRSTX=2.027
##LASTX=15.8289
##FIRSTY=0.851
##MAXX=15.8289
##MINX=2.027
##MAXY=0.947
##MINY=0.003
##NPOINTS=2018
##XYDATA=(X++(Y..Y))
2.027000 0.8510 0.8490 0.8510 0.8490 0.8480
2.061230 0.8480 0.8460 0.8440 0.8440 0.8430
2.096000 0.8430 0.8410 0.8410 0.8390 0.8390
2.130230 0.8390 0.8390 0.8390 0.8370 0.8370
2.164000 0.8360 0.8340 0.8320 0.8320 0.8310
2.198230 0.8290 0.8290 0.8270 0.8270 0.8250
2.233000 0.8240 0.8240 0.8220 0.8200 0.8200
2.267230 0.8190 0.8190 0.8170 0.8170 0.8170
2.301000 0.8150 0.8150 0.8150 0.8150 0.8150
2.335230 0.8150 0.8150 0.8150 0.8150 0.8170
2.370000 0.8190 0.8190 0.8200 0.8200 0.8220
2.404230 0.8240 0.8250 0.8270 0.8290 0.8310
2.438000 0.8320 0.8360 0.8370 0.8390 0.8430
2.472230 0.8440 0.8460 0.8490 0.8530 0.8560
2.506000 0.8600 0.8630 0.8660 0.8680 0.8680
2.540230 0.8700 0.8700 0.8700 0.8660 0.8660
2.575000 0.8630 0.8610 0.8560 0.8530 0.8510
2.609230 0.8480 0.8480 0.8490 0.8530 0.8540
2.643000 0.8560 0.8560 0.8540 0.8530 0.8490
2.677230 0.8440 0.8410 0.8410 0.8390 0.8390
2.712000 0.8390 0.8390 0.8410 0.8410 0.8410
2.746230 0.8410 0.8410 0.8410 0.8410 0.8390
2.780000 0.8390 0.8390 0.8390 0.8410 0.8440
2.814230 0.8460 0.8490 0.8510 0.8530 0.8540
2.848000 0.8540 0.8560 0.8580 0.8580 0.8600
2.882230 0.8600 0.8610 0.8630 0.8630 0.8630
2.917000 0.8630 0.8630 0.8630 0.8610 0.8610
2.951230 0.8580 0.8580 0.8580 0.8580 0.8580
2.985000 0.8580 0.8580 0.8580 0.8580 0.8580
3.019230 0.8600 0.8600 0.8610 0.8610 0.8600
3.054000 0.8600 0.8580 0.8580 0.8580 0.8580
3.088230 0.8580 0.8580 0.8580 0.8580 0.8600
3.122000 0.8600 0.8600 0.8610 0.8610 0.8630
3.156230 0.8650 0.8660 0.8660 0.8660 0.8660
3.191000 0.8660 0.8680 0.8680 0.8700 0.8700
3.225230 0.8700 0.8700 0.8680 0.8680 0.8680
3.259000 0.8650 0.8630 0.8630 0.8610 0.8600
3.293230 0.8560 0.8510 0.8410 0.8340 0.8220
3.327000 0.8120 0.8020 0.7980 0.7960 0.8000
3.361230 0.8050 0.8150 0.8220 0.8310 0.8360
3.396000 0.8360 0.8360 0.8320 0.8310 0.8310
3.430230 0.8340 0.8440 0.8490 0.8540 0.8560
3.464000 0.8580 0.8580 0.8600 0.8630 0.8630
3.498230 0.8630 0.8650 0.8660 0.8700 0.8700
3.533000 0.8700 0.8700 0.8700 0.8660 0.8650
3.567230 0.8650 0.8650 0.8650 0.8650 0.8650
3.601000 0.8650 0.8630 0.8610 0.8610 0.8610
3.635230 0.8610 0.8610 0.8610 0.8610 0.8630
3.670000 0.8630 0.8650 0.8650 0.8650 0.8650
3.704230 0.8650 0.8650 0.8630 0.8630 0.8630
3.738000 0.8610 0.8610 0.8610 0.8600 0.8600
3.772230 0.8580 0.8580 0.8580 0.8580 0.8580
3.806000 0.8560 0.8560 0.8560 0.8560 0.8560
3.840230 0.8560 0.8560 0.8540 0.8540 0.8540
3.875000 0.8540 0.8530 0.8530 0.8530 0.8530
3.909230 0.8530 0.8540 0.8560 0.8560 0.8580
3.943000 0.8580 0.8600 0.8600 0.8600 0.8600
3.977230 0.8600 0.8600 0.8600 0.8600 0.8600
4.012000 0.8600 0.8600 0.8600 0.8600 0.8600
4.046230 0.8600 0.8600 0.8600 0.8600 0.8600
4.080000 0.8600 0.8600 0.8610 0.8610 0.8610
4.114230 0.8610 0.8610 0.8630 0.8650 0.8700
4.149000 0.8720 0.8730 0.8750 0.8780 0.8780
4.183230 0.8770 0.8730 0.8700 0.8650 0.8610
4.217000 0.8600 0.8580 0.8540 0.8530 0.8490
4.251230 0.8480 0.8440 0.8430 0.8430 0.8430
4.285000 0.8430 0.8440 0.8460 0.8510 0.8580
4.319230 0.8630 0.8660 0.8680 0.8700 0.8720
4.354000 0.8720 0.8720 0.8720 0.8720 0.8720
4.388230 0.8700 0.8660 0.8650 0.8630 0.8630
4.422000 0.8630 0.8630 0.8630 0.8630 0.8630
4.456230 0.8630 0.8650 0.8650 0.8660 0.8660
4.491000 0.8650 0.8650 0.8650 0.8630 0.8630
4.525230 0.8630 0.8630 0.8630 0.8650 0.8660
4.559000 0.8660 0.8660 0.8660 0.8650 0.8650
4.593230 0.8650 0.8650 0.8650 0.8650 0.8630
4.628000 0.8630 0.8630 0.8630 0.8630 0.8610
4.662230 0.8610 0.8560 0.8540 0.8530 0.8530
4.696000 0.8490 0.8440 0.8390 0.8340 0.8320
4.730230 0.8250 0.8250 0.8240 0.8240 0.8240
4.764000 0.8250 0.8310 0.8340 0.8370 0.8430
4.798230 0.8510 0.8540 0.8580 0.8600 0.8610
4.833000 0.8630 0.8630 0.8680 0.8680 0.8680
4.867230 0.8680 0.8700 0.8700 0.8700 0.8700
4.901000 0.8700 0.8720 0.8720 0.8720 0.8730
4.935230 0.8730 0.8750 0.8750 0.8770 0.8770
4.970000 0.8770 0.8770 0.8770 0.8770 0.8750
5.004230 0.8750 0.8750 0.8730 0.8730 0.8730
5.038000 0.8730 0.8730 0.8730 0.8730 0.8730
5.072230 0.8730 0.8770 0.8770 0.8770 0.8770
5.107000 0.8770 0.8770 0.8750 0.8750 0.8730
5.141230 0.8730 0.8730 0.8730 0.8750 0.8750
5.175000 0.8750 0.8730 0.8720 0.8720 0.8720
5.209230 0.8700 0.8700 0.8700 0.8700 0.8680
5.243000 0.8680 0.8660 0.8660 0.8660 0.8660
5.277230 0.8680 0.8680 0.8680 0.8700 0.8700
5.312000 0.8720 0.8730 0.8730 0.8730 0.8720
5.346230 0.8700 0.8680 0.8680 0.8700 0.8720
5.380000 0.8720 0.8730 0.8730 0.8750 0.8750
5.414230 0.8750 0.8750 0.8750 0.8730 0.8730
5.449000 0.8730 0.8730 0.8720 0.8720 0.8730
5.483230 0.8750 0.8780 0.8820 0.8820 0.8830
5.517000 0.8830 0.8830 0.8830 0.8830 0.8820
5.551230 0.8820 0.8780 0.8750 0.8750 0.8750
5.586000 0.8750 0.8780 0.8830 0.8850 0.8850
5.620230 0.8850 0.8830 0.8830 0.8820 0.8820
5.654000 0.8820 0.8830 0.8890 0.8920 0.8920
5.688230 0.8920 0.8920 0.8920 0.8920 0.8920
5.722000 0.8920 0.8920 0.8920 0.8920 0.8900
5.756230 0.8920 0.8920 0.8970 0.9020 0.9060
5.791000 0.9110 0.9120 0.9120 0.9110 0.9110
5.825230 0.9110 0.9090 0.9090 0.9070 0.9060
5.859000 0.9040 0.9020 0.9010 0.8990 0.8940
5.893230 0.8920 0.8920 0.8920 0.8920 0.8920
5.928000 0.8940 0.8940 0.8950 0.8950 0.8950
5.962230 0.8970 0.8970 0.8990 0.9010 0.9040
5.996000 0.9070 0.9110 0.9140 0.9140 0.9120
6.030230 0.9120 0.9070 0.9040 0.9010 0.8990
6.065000 0.8940 0.8920 0.8900 0.8850 0.8830
6.099230 0.8800 0.8780 0.8780 0.8780 0.8780
6.133000 0.8780 0.8800 0.8830 0.8850 0.8940
6.167230 0.9020 0.9090 0.9140 0.9190 0.9240
6.201000 0.9280 0.9310 0.9350 0.9360 0.9360
6.235230 0.9360 0.9360 0.9380 0.9380 0.9400
6.270000 0.9410 0.9410 0.9450 0.9450 0.9430
6.304230 0.9430 0.9430 0.9430 0.9430 0.9410
6.338000 0.9410 0.9400 0.9400 0.9400 0.9400
6.372230 0.9400 0.9380 0.9380 0.9380 0.9380
6.407000 0.9360 0.9350 0.9350 0.9350 0.9350
6.441230 0.9330 0.9330 0.9310 0.9310 0.9300
6.475000 0.9260 0.9260 0.9260 0.9260 0.9280
6.509230 0.9280 0.9300 0.9310 0.9310 0.9310
6.543000 0.9310 0.9310 0.9310 0.9310 0.9280
6.577230 0.9260 0.9240 0.9240 0.9240 0.9230
6.612000 0.9230 0.9210 0.9190 0.9190 0.9190
6.646230 0.9190 0.9210 0.9210 0.9230 0.9230
6.680000 0.9230 0.9160 0.9140 0.9120 0.9120
6.714230 0.9120 0.9140 0.9140 0.9110 0.9040
6.749000 0.8970 0.8920 0.8920 0.8820 0.8730
6.783230 0.8720 0.8720 0.8720 0.8700 0.8680
6.817000 0.8660 0.8650 0.8630 0.8630 0.8650
6.851230 0.8660 0.8680 0.8700 0.8720 0.8730
6.886000 0.8770 0.8770 0.8770 0.8770 0.8750
6.920230 0.8750 0.8730 0.8730 0.8730 0.8750
6.954000 0.8830 0.8900 0.8940 0.8950 0.8970
6.988230 0.8970 0.9010 0.9010 0.9010 0.9020
7.022000 0.9020 0.9040 0.9040 0.9040 0.9040
7.056230 0.9060 0.9060 0.9070 0.9070 0.9060
7.091000 0.9040 0.9020 0.9010 0.8990 0.8940
7.125230 0.8900 0.8850 0.8830 0.8830 0.8820
7.159000 0.8820 0.8800 0.8770 0.8730 0.8720
7.193230 0.8700 0.8660 0.8660 0.8650 0.8650
7.228000 0.8630 0.8610 0.8610 0.8540 0.8530
7.262230 0.8510 0.8510 0.8510 0.8530 0.8650
7.296000 0.8730 0.8820 0.8890 0.8920 0.8940
7.330230 0.8940 0.8950 0.8990 0.9010 0.9020
7.365000 0.9040 0.9040 0.9060 0.9060 0.9070
7.399230 0.9090 0.9090 0.9090 0.9070 0.9060
7.433000 0.9040 0.9020 0.8990 0.8990 0.8970
7.467230 0.8990 0.9010 0.9020 0.9060 0.9060
7.501000 0.9070 0.9070 0.9090 0.9090 0.9070
7.535230 0.9060 0.9040 0.9020 0.9010 0.8970
7.570000 0.8950 0.8920 0.8890 0.8850 0.8780
7.604230 0.8730 0.8650 0.8540 0.8430 0.8290
7.638000 0.8070 0.7930 0.7780 0.7570 0.7440
7.672230 0.7280 0.7180 0.7060 0.6960 0.6770
7.707000 0.6480 0.6330 0.6220 0.6210 0.6190
7.741230 0.6220 0.6460 0.6670 0.6860 0.7440
7.775000 0.8050 0.8340 0.8480 0.8580 0.8700
7.809230 0.8870 0.8870 0.8920 0.8940 0.8990
7.844000 0.9010 0.9020 0.9040 0.9070 0.9110
7.878230 0.9110 0.9120 0.9120 0.9120 0.9140
7.912000 0.9140 0.9160 0.9180 0.9190 0.9190
7.946230 0.9190 0.9210 0.9210 0.9210 0.9210
7.980000 0.9210 0.9210 0.9190 0.9160 0.9120
8.014230 0.9070 0.9020 0.8920 0.8850 0.8800
8.049000 0.8750 0.8730 0.8680 0.8630 0.8540
8.083230 0.8480 0.8340 0.8190 0.8000 0.7860
8.117000 0.7780 0.7570 0.7470 0.7350 0.7250
8.151230 0.7230 0.7230 0.7230 0.7320 0.7590
8.186000 0.7880 0.8120 0.8320 0.8480 0.8610
8.220230 0.8700 0.8730 0.8750 0.8820 0.8830
8.254000 0.8890 0.8920 0.8940 0.8950 0.8970
8.288230 0.9010 0.9010 0.9020 0.9020 0.9020
8.323000 0.9020 0.9020 0.9020 0.9020 0.9020
8.357230 0.9010 0.8990 0.8950 0.8940 0.8890
8.391000 0.8850 0.8800 0.8730 0.8660 0.8610
8.425230 0.8540 0.8480 0.8390 0.8290 0.8100
8.459000 0.7960 0.7790 0.7610 0.7420 0.7180
8.493230 0.6940 0.6340 0.5980 0.5540 0.5180
8.528000 0.4670 0.4230 0.3750 0.2670 0.2040
8.562230 0.1510 0.1220 0.1220 0.1240 0.1270
8.596000 0.1560 0.1960 0.2660 0.3360 0.3820
8.630230 0.4140 0.4470 0.4790 0.5100 0.6360
8.665000 0.6630 0.6750 0.6870 0.7110 0.7330
8.699230 0.7570 0.7790 0.7980 0.8080 0.8240
8.733000 0.8320 0.8360 0.8440 0.8490 0.8540
8.767230 0.8610 0.8700 0.8820 0.8830 0.8850
8.802000 0.8870 0.8900 0.8920 0.8940 0.8950
8.836230 0.8990 0.9020 0.9020 0.9040 0.9060
8.870000 0.9070 0.9070 0.9090 0.9110 0.9120
8.904230 0.9120 0.9120 0.9120 0.9120 0.9120
8.938000 0.9120 0.9140 0.9140 0.9140 0.9160
8.972230 0.9210 0.9210 0.9210 0.9210 0.9230
9.007000 0.9230 0.9230 0.9210 0.9210 0.9180
9.041230 0.9180 0.9160 0.9140 0.9120 0.9060
9.075000 0.9040 0.9020 0.8990 0.8940 0.8920
9.109230 0.8890 0.8850 0.8820 0.8780 0.8730
9.144000 0.8680 0.8650 0.8610 0.8540 0.8530
9.178230 0.8440 0.8430 0.8370 0.8310 0.8200
9.212000 0.8070 0.7950 0.7840 0.7740 0.7620
9.246230 0.7520 0.7380 0.7260 0.7110 0.6940
9.281000 0.6700 0.6330 0.6120 0.5880 0.5630
9.315230 0.5370 0.5100 0.4810 0.4480 0.4160
9.349000 0.3820 0.3510 0.2830 0.2520 0.2080
9.383230 0.1770 0.1620 0.1340 0.1040 0.0830
9.417000 0.0710 0.0580 0.0540 0.0490 0.0440
9.451230 0.0440 0.0440 0.0440 0.0420 0.0490
9.486000 0.0520 0.0630 0.0780 0.1020 0.1170
9.520230 0.1460 0.1870 0.2350 0.2710 0.3020
9.554000 0.3220 0.3430 0.3720 0.4020 0.4210
9.588230 0.4380 0.4570 0.4770 0.5000 0.5270
9.623000 0.5580 0.5580 0.5760 0.5930 0.6120
9.657230 0.6290 0.6500 0.6580 0.6670 0.6860
9.691000 0.7030 0.7180 0.7320 0.7440 0.7640
9.725230 0.7780 0.7880 0.7930 0.8020 0.8070
9.760000 0.8190 0.8310 0.8390 0.8430 0.8440
9.794230 0.8460 0.8490 0.8530 0.8580 0.8630
9.828000 0.8720 0.8720 0.8750 0.8780 0.8820
9.862230 0.8830 0.8850 0.8870 0.8870 0.8890
9.896000 0.8900 0.8920 0.8920 0.8940 0.8940
9.930230 0.8940 0.8950 0.8990 0.9010 0.9020
9.965000 0.9020 0.9020 0.9020 0.9020 0.9020
9.999230 0.9040 0.9040 0.9040 0.9020 0.8970
10.033000 0.8950 0.8950 0.8950 0.8950 0.8950
10.067230 0.8950 0.8990 0.9040 0.9040 0.9060
10.102000 0.9090 0.9120 0.9120 0.9140 0.9140
10.136230 0.9140 0.9140 0.9160 0.9180 0.9180
10.170000 0.9180 0.9180 0.9180 0.9180 0.9180
10.204230 0.9180 0.9180 0.9180 0.9180 0.9180
10.239000 0.9180 0.9160 0.9160 0.9160 0.9160
10.273230 0.9160 0.9160 0.9160 0.9180 0.9190
10.307000 0.9210 0.9230 0.9240 0.9240 0.9240
10.341230 0.9240 0.9240 0.9240 0.9240 0.9240
10.375000 0.9240 0.9240 0.9240 0.9260 0.9260
10.409230 0.9260 0.9240 0.9240 0.9240 0.9240
10.444000 0.9240 0.9240 0.9240 0.9230 0.9230
10.478230 0.9230 0.9210 0.9190 0.9190 0.9210
10.512000 0.9210 0.9210 0.9210 0.9210 0.9210
10.546230 0.9210 0.9210 0.9180 0.9140 0.9120
10.581000 0.9120 0.9110 0.9090 0.9090 0.9060
10.615230 0.9060 0.9040 0.9040 0.9040 0.9020
10.649000 0.9010 0.8990 0.8970 0.8950 0.8940
10.683230 0.8920 0.8870 0.8830 0.8820 0.8780
10.717000 0.8770 0.8750 0.8750 0.8750 0.8730
10.751230 0.8730 0.8720 0.8720 0.8720 0.8730
10.786000 0.8730 0.8750 0.8820 0.8830 0.8870
10.820230 0.8890 0.8890 0.8900 0.8920 0.8950
10.854000 0.8970 0.8990 0.9010 0.9010 0.9020
10.888230 0.9020 0.9020 0.9020 0.9020 0.9020
10.923000 0.9040 0.9040 0.9040 0.9040 0.9060
10.957230 0.9060 0.9090 0.9120 0.9120 0.9140
10.991000 0.9160 0.9160 0.9180 0.9190 0.9210
11.025230 0.9210 0.9230 0.9230 0.9230 0.9240
11.060000 0.9240 0.9240 0.9240 0.9240 0.9240
11.094230 0.9240 0.9240 0.9240 0.9240 0.9240
11.128000 0.9240 0.9240 0.9240 0.9230 0.9210
11.162230 0.9210 0.9190 0.9190 0.9180 0.9160
11.196000 0.9160 0.9160 0.9160 0.9160 0.9160
11.230230 0.9140 0.9140 0.9120 0.9120 0.9090
11.265000 0.9070 0.9040 0.9010 0.8970 0.8940
11.299230 0.8900 0.8850 0.8830 0.8750 0.8730
11.333000 0.8720 0.8660 0.8650 0.8610 0.8610
11.367230 0.8610 0.8630 0.8630 0.8650 0.8660
11.402000 0.8730 0.8800 0.8890 0.8900 0.8900
11.436230 0.8920 0.8920 0.8950 0.8950 0.8970
11.470000 0.8990 0.8990 0.9010 0.9020 0.9020
11.504230 0.9040 0.9040 0.9060 0.9060 0.9090
11.539000 0.9090 0.9110 0.9120 0.9120 0.9140
11.573230 0.9160 0.9180 0.9190 0.9190 0.9190
11.607000 0.9210 0.9210 0.9210 0.9230 0.9230
11.641230 0.9230 0.9230 0.9230 0.9230 0.9230
11.675000 0.9230 0.9230 0.9230 0.9240 0.9350
11.709230 0.9450 0.9470 0.9470 0.9470 0.9450
11.744000 0.9430 0.9430 0.9430 0.9410 0.9360
11.778230 0.9350 0.9330 0.9330 0.9310 0.9310
11.812000 0.9310 0.9310 0.9310 0.9330 0.9330
11.846230 0.9330 0.9330 0.9330 0.9330 0.9330
11.881000 0.9330 0.9330 0.9310 0.9310 0.9300
11.915230 0.9280 0.9280 0.9260 0.9260 0.9260
11.949000 0.9260 0.9280 0.9280 0.9280 0.9280
11.983230 0.9300 0.9300 0.9300 0.9300 0.9300
12.018000 0.9280 0.9280 0.9280 0.9280 0.9280
12.052230 0.9280 0.9280 0.9280 0.9280 0.9280
12.086000 0.9280 0.9280 0.9280 0.9260 0.9240
12.120230 0.9240 0.9240 0.9230 0.9230 0.9230
12.154000 0.9230 0.9210 0.9210 0.9210 0.9190
12.188230 0.9190 0.9190 0.9180 0.9160 0.9160
12.223000 0.9140 0.9140 0.9110 0.9110 0.9070
12.257230 0.9070 0.9060 0.9040 0.9020 0.8990
12.291000 0.8970 0.8950 0.8940 0.8940 0.8940
12.325230 0.8940 0.8940 0.8940 0.8940 0.8950
12.360000 0.8950 0.8950 0.8970 0.8990 0.8990
12.394230 0.9010 0.9010 0.9040 0.9070 0.9070
12.428000 0.9090 0.9110 0.9110 0.9110 0.9120
12.462230 0.9120 0.9140 0.9140 0.9140 0.9160
12.497000 0.9160 0.9140 0.9140 0.9140 0.9140
12.531230 0.9110 0.9110 0.9070 0.9040 0.9040
12.565000 0.9020 0.9010 0.8990 0.8990 0.8970
12.599230 0.8970 0.8950 0.8950 0.8950 0.8950
12.633000 0.8950 0.8950 0.8950 0.8950 0.8950
12.667230 0.8950 0.8970 0.8970 0.8990 0.8990
12.702000 0.8990 0.8990 0.9010 0.9010 0.9040
12.736230 0.9040 0.9060 0.9070 0.9070 0.9090
12.770000 0.9090 0.9110 0.9120 0.9120 0.9120
12.804230 0.9120 0.9140 0.9140 0.9140 0.9140
12.839000 0.9160 0.9180 0.9190 0.9190 0.9190
12.873230 0.9190 0.9190 0.9190 0.9190 0.9190
12.907000 0.9190 0.9190 0.9180 0.9180 0.9180
12.941230 0.9180 0.9160 0.9160 0.9160 0.9160
12.976000 0.9140 0.9140 0.9140 0.9120 0.9120
13.010230 0.9120 0.9120 0.9120 0.9120 0.9120
13.044000 0.9120 0.9110 0.9110 0.9110 0.9060
13.078230 0.9060 0.9040 0.9010 0.9010 0.8990
13.112000 0.8990 0.8990 0.8990 0.8990 0.9010
13.146230 0.9010 0.9010 0.9010 0.9010 0.9020
13.181000 0.9040 0.9040 0.9040 0.9040 0.9060
13.215230 0.9040 0.9040 0.9060 0.9060 0.9060
13.249000 0.9060 0.9060 0.9060 0.9060 0.9060
13.283230 0.9060 0.9060 0.9040 0.9040 0.9040
13.318000 0.9020 0.9020 0.9010 0.9010 0.8990
13.352230 0.8970 0.8950 0.8950 0.8940 0.8920
13.386000 0.8900 0.8900 0.8850 0.8830 0.8820
13.420230 0.8800 0.8800 0.8730 0.8720 0.8720
13.455000 0.8700 0.8660 0.8630 0.8610 0.8600
13.489230 0.8600 0.8560 0.8560 0.8560 0.8560
13.523000 0.8560 0.8560 0.8540 0.8540 0.8540
13.557230 0.8540 0.8540 0.8540 0.8540 0.8540
13.591000 0.8530 0.8530 0.8510 0.8510 0.8490
13.625230 0.8460 0.8440 0.8430 0.8430 0.8410
13.660000 0.8390 0.8370 0.8360 0.8360 0.8360
13.694230 0.8360 0.8340 0.8320 0.8320 0.8320
13.728000 0.8320 0.8310 0.8310 0.8310 0.8270
13.762230 0.8250 0.8200 0.8200 0.8170 0.8150
13.797000 0.8130 0.8120 0.8070 0.8050 0.7980
13.831230 0.7950 0.7930 0.7910 0.7840 0.7810
13.865000 0.7760 0.7730 0.7640 0.7620 0.7610
13.899230 0.7550 0.7520 0.7450 0.7400 0.7330
13.934000 0.7280 0.7230 0.7150 0.7080 0.7030
13.968230 0.6910 0.6820 0.6740 0.6550 0.6430
14.002000 0.6330 0.6190 0.6070 0.5920 0.5750
14.036230 0.5660 0.5490 0.5340 0.5130 0.4940
14.070000 0.4670 0.4550 0.4310 0.4090 0.3940
14.104230 0.3700 0.3480 0.2980 0.2690 0.2440
14.139000 0.2180 0.1970 0.1770 0.1580 0.1380
14.173230 0.1310 0.1020 0.0900 0.0830 0.0750
14.207000 0.0580 0.0370 0.0270 0.0220 0.0200
14.241230 0.0150 0.0110 0.0100 0.0080 0.0080
14.276000 0.0060 0.0050 0.0050 0.0030 0.0030
14.310230 0.0050 0.0060 0.0080 0.0110 0.0170
14.344000 0.0220 0.0250 0.0270 0.0340 0.0420
14.378230 0.0560 0.0680 0.0760 0.0880 0.1050
14.413000 0.1220 0.1380 0.1560 0.1670 0.1820
14.447230 0.2030 0.2230 0.2470 0.2670 0.2810
14.481000 0.3000 0.3240 0.3360 0.3460 0.3660
14.515230 0.3780 0.4040 0.4240 0.4430 0.4450
14.549000 0.4640 0.4840 0.4940 0.5060 0.5230
14.583230 0.5350 0.5440 0.5490 0.5560 0.5640
14.618000 0.5730 0.5780 0.5810 0.5830 0.5870
14.652230 0.5900 0.5920 0.5920 0.5930 0.5930
14.686000 0.5950 0.5950 0.5970 0.5980 0.5980
14.720230 0.6000 0.6000 0.6000 0.6020 0.6020
14.755000 0.6040 0.6040 0.6040 0.6050 0.6050
14.789230 0.6050 0.6070 0.6070 0.6090 0.6090
14.823000 0.6100 0.6100 0.6120 0.6140 0.6140
14.857230 0.6140 0.6160 0.6170 0.6210 0.6220
14.891000 0.6220 0.6220 0.6220 0.6240 0.6240
14.925230 0.6260 0.6310 0.6330 0.6340 0.6410
14.960000 0.6430 0.6500 0.6580 0.6630 0.6670
14.994230 0.6680 0.6740 0.6790 0.6820 0.6870
15.028000 0.6920 0.6990 0.7040 0.7090 0.7150
15.062230 0.7160 0.7210 0.7230 0.7230 0.7250
15.097000 0.7250 0.7280 0.7300 0.7320 0.7320
15.131230 0.7330 0.7330 0.7350 0.7370 0.7370
15.165000 0.7370 0.7370 0.7370 0.7380 0.7380
15.199230 0.7380 0.7380 0.7380 0.7380 0.7370
15.234000 0.7370 0.7350 0.7350 0.7330 0.7330
15.268230 0.7320 0.7300 0.7300 0.7250 0.7230
15.302000 0.7200 0.7200 0.7130 0.7110 0.7090
15.336230 0.7040 0.7010 0.6970 0.6920 0.6910
15.370000 0.6860 0.6820 0.6800 0.6750 0.6740
15.404230 0.6740 0.6720 0.6700 0.6630 0.6620
15.439000 0.6620 0.6600 0.6580 0.6580 0.6580
15.473230 0.6580 0.6580 0.6600 0.6600 0.6600
15.507000 0.6600 0.6600 0.6600 0.6600 0.6620
15.541230 0.6620 0.6620 0.6620 0.6630 0.6630
15.576000 0.6630 0.6650 0.6670 0.6670 0.6680
15.610230 0.6700 0.6720 0.6740 0.6770 0.6790
15.644000 0.6800 0.6800 0.6820 0.6840 0.6840
15.678230 0.6840 0.6840 0.6840 0.6860 0.6860
15.713000 0.6870 0.6890 0.6910 0.6910 0.6910
15.747230 0.6910 0.6910 0.6890 0.6890 0.6890
15.781000 0.6890 0.6890 0.6920 0.6940 0.6960
15.815230 0.6970 0.7010 0.7010
##END=
