##TITLE=3-Fluoro-5-(trifluoromethyl)benzaldehyde
##JCAMP-DX=4.24
##DATA TYPE=INFRARED SPECTRUM
##ORIGIN=EPA-IR VAPOR PHASE LIBRARY
##OWNER=SRD/NIST
Collection (C) 2018 copyright by the U.S. Secretary of Commerce
on behalf of the United States of America. All rights reserved.
##CAS REGISTRY NO=188815-30-7
##MOLFORM=C 8 H 4 F 4 O
##$NIST SOURCE=MSDC-IR
##STATE=gas
##XUNITS=1/CM
##YUNITS=ABSORBANCE
##XFACTOR=1.
##YFACTOR=0.001
##DELTAX=1.92898
##FIRSTX=549.8
##LASTX=4000.7
##FIRSTY=1.1951
##MAXX=4000.7
##MINX=549.759
##MAXY=0.414547
##MINY=0
##NPOINTS=1790
##XYDATA=(X++(Y..Y))
549.759 1.1951 1.4774 0.8256 0.596 0.56 0.439 0.895 1.2023 1.5879 1.7262
569.049 1.8332 1.4357 1.4711 1.6263 1.947 3.637 4.997 6.227 7.247 8.457
588.339 8.927 9.057 8.807 7.797 6.507 4.747 3.667 2.687 2.097 2.137
607.628 2.047 2.057 2.017 2.327 2.617 3.357 4.747 4.807 5.337 5.677
626.918 5.947 7.667 8.487 8.247 8.237 8.127 7.377 6.677 5.927 5.277
646.208 5.597 5.357 4.647 4.457 4.987 6.047 6.617 7.977 10.417 12.617
665.498 14.687 17.117 20.567 24.207 28.467 35.257 44.307 54.047 61.027 64.337
684.787 67.797 68.417 67.027 66.877 68.307 63.747 48.007 36.437 31.417 26.897
704.077 22.677 18.297 14.827 12.747 12.147 12.437 13.407 16.207 20.367 25.607
723.367 30.887 34.377 35.627 36.627 38.427 39.567 37.557 32.047 26.147 21.427
742.657 17.707 14.057 11.227 8.857 7.227 6.627 5.267 4.167 4.087 3.947
761.947 3.637 3.617 3.167 2.567 2.667 3.147 3.267 2.837 2.547 2.267
781.236 2.057 1.6826 1.7384 2.427 2.827 2.847 2.527 2.507 2.507 2.127
800.526 1.8346 2.007 2.187 2.467 2.647 2.667 2.357 2.017 2.827 3.497
819.816 2.937 2.977 3.257 3.077 3.567 3.927 3.777 3.387 3.147 3.387
839.106 3.707 3.577 3.687 3.997 4.547 5.147 5.497 5.957 6.637 8.517
858.395 10.957 13.887 18.327 24.527 32.117 41.107 52.337 65.507 78.837 88.167
877.685 91.657 93.697 94.197 89.037 80.487 73.537 70.077 67.657 62.907 56.777
896.975 51.057 46.507 42.647 38.317 33.727 27.997 22.137 17.987 14.727 11.597
916.265 9.307 7.927 6.987 6.227 5.577 4.857 4.517 4.737 4.767 4.667
935.555 4.247 4.077 4.447 4.827 5.027 5.027 5.307 6.387 8.307 10.797
954.844 13.987 17.677 21.217 25.367 29.177 31.297 32.507 33.027 32.827 31.977
974.134 30.527 29.317 29.167 30.177 31.437 32.557 33.157 32.997 31.777 29.727
993.424 27.027 22.867 19.407 16.097 12.837 10.877 9.667 9.667 9.167 8.057
1012.714 6.827 5.717 5.327 4.637 4.557 4.907 4.697 4.657 4.697 4.517
1032.003 4.207 4.587 5.357 5.377 5.557 5.137 4.177 4.437 5.017 5.027
1051.293 4.947 5.017 4.927 4.477 4.427 4.567 4.597 5.317 5.567 6.387
1070.583 8.477 10.037 12.127 15.327 18.977 24.507 31.887 40.197 48.767 56.417
1089.873 62.597 65.967 65.837 62.517 55.627 46.077 36.767 29.017 23.667 21.257
1109.163 21.947 24.937 28.047 32.237 37.547 45.387 56.847 69.997 83.317 95.507
1128.452 105.717 113.977 120.767 127.137 133.297 140.227 151.437 170.507 197.427 229.297
1147.742 267.357 310.347 354.707 394.987 414.547 406.677 372.907 327.927 288.987 254.337
1167.032 223.567 202.427 197.337 211.837 241.427 276.277 305.367 319.917 316.597 295.027
1186.322 263.937 231.157 198.057 162.927 128.387 100.017 78.177 64.257 56.757 53.677
1205.611 53.137 53.457 57.117 63.807 75.207 91.727 114.147 144.747 182.987 228.147
1224.901 271.227 301.677 315.287 314.917 302.587 279.007 246.707 207.047 164.287 129.237
1244.191 106.317 91.177 80.187 70.007 59.067 48.587 40.407 34.217 29.287 25.837
1263.481 23.147 20.197 17.837 15.897 14.027 13.147 12.237 11.767 11.897 11.437
1282.771 11.457 11.767 12.167 12.687 13.207 14.007 14.447 15.087 15.757 16.597
1302.060 17.877 19.027 20.437 21.867 23.267 25.017 26.697 28.487 30.587 32.947
1321.350 36.527 41.947 50.027 61.867 78.877 102.747 134.497 174.877 222.567 274.097
1340.640 323.927 365.967 395.367 407.867 401.507 376.867 334.947 279.487 218.227 158.457
1359.930 108.467 74.467 55.167 45.467 41.537 41.667 44.847 50.837 58.487 65.057
1379.219 67.977 68.327 70.147 72.627 70.917 64.377 56.297 48.987 42.537 36.987
1398.509 32.627 29.357 27.577 26.727 26.577 27.157 28.077 29.147 30.297 31.197
1417.799 31.687 32.177 32.677 32.597 32.437 32.267 31.707 31.217 31.217 31.667
1437.089 32.917 34.997 38.077 42.567 48.477 55.797 64.177 72.637 80.867 87.747
1456.378 93.617 99.027 101.997 101.057 94.717 83.847 71.707 60.237 50.227 41.397
1475.668 33.677 27.277 22.447 18.557 15.567 13.407 11.797 10.557 9.537 8.517
1494.958 7.917 7.487 7.057 6.737 6.437 6.537 6.587 6.517 6.617 6.597
1514.248 6.577 6.697 6.757 6.907 7.087 6.957 6.657 6.347 6.297 6.277
1533.538 6.177 5.977 5.547 5.227 5.087 4.897 4.567 4.317 4.207 4.267
1552.827 4.387 4.497 4.777 5.077 5.037 5.117 5.737 6.267 6.817 7.657
1572.117 8.667 9.687 11.147 12.767 14.127 15.917 18.377 21.187 24.377 28.137
1591.407 32.167 36.427 40.857 45.227 48.967 51.487 52.837 52.837 51.687 49.307
1610.697 45.707 41.917 38.267 34.687 31.847 29.657 27.747 26.027 24.137 22.057
1629.986 19.727 17.477 15.727 14.007 12.457 11.527 11.027 10.617 10.407 10.327
1649.276 10.307 10.257 9.987 9.677 9.427 9.307 9.087 8.267 7.687 7.467
1668.566 6.877 6.607 6.667 6.737 6.897 7.437 7.987 8.607 9.557 10.277
1687.856 11.167 12.257 13.347 14.577 16.427 18.547 21.367 25.437 30.467 37.187
1707.146 45.237 54.507 65.267 78.327 95.247 117.847 147.387 180.827 214.177 239.127
1726.435 249.577 249.437 243.667 230.667 203.227 160.257 114.277 76.827 52.577 37.247
1745.725 27.717 21.877 18.167 15.617 13.877 12.647 11.817 11.327 10.927 10.497
1765.015 10.237 10.227 10.357 10.657 11.047 11.307 11.627 11.767 11.577 11.307
1784.305 10.897 10.257 9.397 8.557 7.767 6.957 6.537 6.497 6.497 6.487
1803.594 6.547 6.627 6.797 6.967 6.877 6.607 6.447 6.277 5.927 5.527
1822.884 5.017 4.647 4.317 3.927 3.547 3.267 3.147 3.087 3.187 3.187
1842.174 3.077 3.037 3.267 3.567 3.737 3.827 3.947 4.097 4.217 4.367
1861.464 4.437 4.387 4.307 4.087 3.907 3.587 3.287 3.037 2.727 2.537
1880.754 2.457 2.377 2.207 2.117 2.177 2.187 2.277 2.267 2.047 2.097
1900.043 2.187 2.137 2.147 2.227 2.087 1.977 2.137 2.167 2.007 1.977
1919.333 2.127 2.117 1.927 1.8818 1.957 2.117 2.107 1.8293 1.8576 1.9124
1938.623 1.7842 1.7455 1.7153 1.7144 1.7444 1.8872 1.8897 1.8786 1.927 1.8718
1957.913 1.7622 1.6055 1.7754 1.8478 1.7027 1.6498 1.5919 1.4659 1.5599 1.7192
1977.202 1.6056 1.5867 1.6393 1.5795 1.4227 1.3036 1.36 1.3947 1.3699 1.3675
1996.492 1.3283 1.3532 1.3091 1.254 1.3058 1.2886 1.2711 1.3838 1.397 1.5124
2015.782 1.4595 1.2282 1.2491 1.3384 1.4402 1.4091 1.3523 1.3728 1.4708 1.5877
2035.072 1.5122 1.555 1.6036 1.522 1.6453 1.6003 1.5836 1.6356 1.6868 1.8523
2054.362 1.8095 1.7556 1.7996 1.8491 1.854 1.7365 1.7493 1.9061 2.107 2.117
2073.651 2.037 2.057 2.157 2.117 2.047 2.167 2.077 2.007 2.077 2.157
2092.941 2.197 2.127 2.157 2.277 2.327 2.317 2.297 2.327 2.277 2.257
2112.231 2.237 2.227 2.227 2.137 2.117 1.937 1.8433 1.917 1.8224 1.8157
2131.521 1.7656 1.508 1.5397 1.5953 1.4163 1.374 1.3292 1.2431 1.2534 1.1584
2150.810 1.1039 1.3018 1.2919 1.1747 1.2531 1.1279 1.1414 1.3113 1.1788 1.0238
2170.100 1.1535 1.1921 1.0951 1.3331 1.3691 1.2599 1.4868 1.5349 1.5082 1.5162
2189.390 1.477 1.7364 1.8311 1.6899 1.7025 1.8494 1.927 1.957 2.047 2.037
2208.680 2.027 2.027 2.077 2.317 2.397 2.377 2.357 2.397 2.477 2.417
2227.970 2.377 2.307 2.407 2.457 2.417 2.427 2.337 2.167 2.137 2.257
2247.259 2.247 2.197 2.297 2.317 2.177 2.207 2.297 2.107 1.977 1.9108
2266.549 1.835 1.8608 1.8652 1.9135 1.8308 1.7506 1.6457 1.6276 1.8772 2.077
2285.839 2.177 2.187 2.147 2.127 2.117 2.187 2.087 1.977 2.107 2.177
2305.129 2.317 2.207 1.927 1.967 2.027 2.157 2.247 2.377 2.527 2.377
2324.418 2.297 2.307 2.197 2.317 2.357 2.207 2.287 2.347 2.417 2.427
2343.708 2.187 2.207 2.177 2.017 2.207 2.347 2.397 2.347 2.197 2.147
2362.998 2.297 2.417 2.307 2.087 1.977 1.957 1.8863 1.8025 1.8399 1.6208
2382.288 1.5914 1.7272 1.4446 1.4496 1.5998 1.5571 1.4096 1.245 1.2417 1.2622
2401.578 1.2844 1.3077 1.4826 1.6561 1.5862 1.5163 1.6663 1.5982 1.2955 1.1972
2420.867 1.2587 1.3536 1.4249 1.2196 1.2596 1.4344 1.3641 1.4011 1.6085 1.8195
2440.157 1.7438 1.4439 1.3233 1.427 1.606 1.6063 1.5192 1.4963 1.5938 1.7734
2459.447 1.5922 1.5643 1.7718 1.7523 1.8641 1.947 1.8426 1.947 1.7937 1.7014
2478.737 1.7569 1.6044 1.8188 1.8387 1.7171 1.6387 1.5266 1.5665 1.6373 1.5621
2498.026 1.42 1.6117 1.6284 1.4364 1.2901 1.3392 1.5211 1.5061 1.5826 1.503
2517.316 1.4346 1.5702 1.5127 1.278 1.1765 1.2171 1.4249 1.5538 1.6008 1.6017
2536.606 1.4835 1.3855 1.5405 1.8196 1.8976 1.937 1.8591 1.7634 1.7722 1.967
2555.896 1.9016 1.8899 2.057 2.087 2.227 2.377 2.537 2.677 2.647 2.397
2575.186 2.307 2.447 2.627 2.587 2.307 2.087 2.047 2.067 2.137 2.097
2594.475 2.007 2.057 2.067 2.117 2.077 2.087 2.207 2.147 2.147 2.407
2613.765 2.557 2.417 2.537 2.667 2.647 2.757 2.877 2.767 2.687 2.357
2633.055 2.057 2.327 2.527 2.457 2.357 2.327 2.237 2.197 2.187 2.127
2652.345 2.067 2.177 2.097 1.967 2.137 2.237 2.067 1.977 2.357 2.667
2671.634 2.987 3.307 3.347 3.537 3.847 3.977 4.107 4.397 4.527 4.897
2690.924 5.447 5.637 6.157 6.827 7.407 8.567 10.147 11.917 13.977 16.507
2710.214 18.987 21.007 22.617 23.387 23.617 23.477 22.757 21.987 20.717 19.187
2729.504 18.027 17.377 17.387 17.397 17.427 17.497 17.487 17.187 16.317 15.087
2748.794 13.887 12.297 10.377 8.967 7.847 6.987 6.317 5.907 5.567 5.407
2768.083 5.587 5.447 5.407 5.667 5.897 5.877 5.967 6.347 6.887 7.957
2787.373 8.937 9.797 11.307 13.607 16.567 20.237 24.727 29.987 36.277 42.917
2806.663 48.927 53.967 57.077 57.937 57.237 54.837 50.747 45.267 38.837 32.257
2825.953 26.757 22.897 20.047 18.007 16.557 15.647 15.067 14.587 14.087 13.827
2845.242 13.657 13.357 13.197 12.227 11.167 10.477 9.197 8.047 7.127 6.197
2864.532 5.397 4.597 3.867 3.637 3.357 3.007 3.177 3.137 2.797 2.597
2883.822 2.617 2.707 2.467 2.117 2.397 2.727 2.957 2.957 2.657 2.987
2903.112 3.057 2.887 2.617 2.287 2.657 2.847 2.827 2.967 3.187 3.027
2922.401 2.797 2.957 2.947 2.847 2.657 2.297 2.367 2.717 2.657 2.537
2941.691 2.447 2.217 2.107 2.197 2.277 2.207 2.067 2.287 2.387 2.287
2960.981 2.297 2.397 2.397 2.197 2.087 2.007 1.9144 2.147 2.047 1.4765
2980.271 1.3802 1.3067 1.3095 1.3881 1.4269 1.555 1.3053 1.2387 1.5973 1.655
2999.561 1.6306 1.7206 1.8725 1.7646 1.2365 0.8395 0.96305 1.393 1.5618 1.5101
3018.850 1.6173 1.782 2.037 2.107 1.7501 1.6749 1.8639 1.8095 1.873 1.8797
3038.140 1.5412 1.7685 1.9148 1.6719 1.7868 2.007 2.377 2.557 2.447 2.257
3057.430 2.607 3.077 2.827 2.647 3.047 3.457 3.377 3.407 4.017 4.127
3076.720 4.427 5.317 5.657 6.027 6.557 6.907 7.017 6.927 6.667 6.647
3096.009 6.317 5.557 5.217 4.727 4.257 3.617 2.857 2.277 2.037 2.137
3115.299 2.157 1.967 1.649 1.6394 1.5393 1.1278 0.55 0.35 0.542 0.554
3134.589 0.703 0.8642 0.94731 1.2852 0.99633 0.599 0.8597 0.794 0.566 0.532
3153.879 0.579 0.763 0.656 0.606 0.739 1.1891 1.1855 0.642 0.764 1.1079
3173.169 1.4831 1.2605 0.8373 0.478 0.347 0.98955 1.1496 0.784 0.8951 0.8851
3192.458 0.8211 1.0323 1.0788 1.2516 1.1273 0.93007 1.1029 1.1562 1.2116 1.0756
3211.748 0.96765 1.0753 0.8445 0.424 0.649 1.087 1.3645 1.3025 1.1735 1.0764
3231.038 0.94536 0.94764 0.98431 1.0671 1.0613 1.3115 1.2254 0.813 0.7 0.8829
3250.328 0.807 0.763 0.717 0.567 0.94305 0.735 0.25 0.425 0.641 0.849
3269.617 0.604 0.539 0.866 0.8208 0.634 0.75 0.859 1.0973 1.4607 1.3692
3288.907 1.069 1.00937 0.9913 0.509 0.231 0.419 0.544 0.561 0.741 1.0452
3308.197 1.2442 1.1254 1.0771 1.067 0.604 0.248 0.624 1.01419 1.0565 1.3213
3327.487 0.8807 0.729 1.3096 1.1189 1.2714 1.3608 0.8692 0.604 0.471 0.625
3346.777 0.8525 0.814 0.811 0.71 0.525 0.715 0.95324 0.94558 0.8742 0.8329
3366.066 0.706 1.00346 1.0878 0.8478 1.2422 1.1465 0.618 0.591 0.8589 0.94677
3385.356 1.1679 1.2599 1.3341 1.6814 1.6429 1.1087 1.1175 1.5902 1.8506 1.6212
3404.646 1.1578 1.5539 2.197 2.357 2.317 2.297 2.817 3.787 4.147 4.567
3423.936 5.267 5.317 5.307 5.337 5.477 5.847 5.657 5.007 4.327 4.157
3443.225 3.567 3.187 3.137 2.867 2.507 2.447 2.457 1.8479 1.6223 1.6208
3462.515 1.7653 1.8882 1.6011 1.4569 1.3523 0.808 0.588 0.91436 1.2072 1.1042
3481.805 1.0729 1.3619 1.195 1.0495 1.2562 1.1475 0.8198 0.728 1.0624 1.4339
3501.095 1.5899 1.3891 0.778 0.463 0.773 1.1967 1.0733 0.8615 0.615 0.296
3520.385 0.759 0.94881 0.619 0.466 0.518 0.71 0.573 0.593 0.678 0.606
3539.674 0.579 0.8347 1.218 1.1581 0.712 0.492 0.548 0.519 0.741 1.1466
3558.964 0.96587 0.7 1.0474 1.0332 0.581 0.8862 1.3116 0.813 0.631 0.95948
3578.254 1.1076 0.94858 1.0552 1.1954 0.812 0.596 0.652 0.317 0.373 0.701
3597.544 0.796 0.8281 0.8498 1.01417 0.90874 0.763 1.158 1.5715 1.01686 0.172
3616.833 0.196 0.615 0.617 0.479 0.092 0.319 1.0497 0.8867 0.658 0.74
3636.123 0.875 1.01681 0.668 0.399 0.789 0.8833 0.749 0.589 0.36 0.052
3655.413 0.029 0.286 0.379 0.569 0.286 0.388 0.8309 0.628 0.293 0.285
3674.703 0.39 0.433 0.545 0.61 0.397 0.145 0.279 0.44 0.732 0.94162
3693.993 0.793 1.1957 1.1488 0.716 0.636 0.433 0.549 0.733 1.1758 1.0879
3713.282 0.763 1.1871 0.8823 0.357 0.492 0.7 0.535 0.314 0.644 1.2134
3732.572 1.2498 1.00216 0.622 0.591 1.1295 1.089 0.609 0.737 0.97195 0.728
3751.862 0.745 0.8827 0.727 0.722 0.744 0.618 0.534 0.67 0.923282 0.76
3771.152 0.529 0.95954 0.799 0.577 0.8983 0.433 0.545 0.8527 0.768 0.65
3790.441 0.349 0.464 0.837 0.654 0.501 0.472 0.429 0.728 0.8364 0.8441
3809.731 1.1358 1.1794 0.737 0.569 0.407 0.304 0.418 0.548 0.725 0.90805
3829.021 1.1919 1.3502 0.762 0.543 0.98433 0.736 0.553 0.776 0.651 0.549
3848.311 0.742 0.526 0.5 0.92921 1.1073 0.747 0.573 0.8623 0.8348 0.63
3867.601 0.482 0.536 0.465 0.308 0.751 0.8911 0.783 0.94263 0.448 0.027
3886.890 0.417 1.204 1.2384 0.753 1.2626 1.00717 0.8958 1.321 0.94139 0.8371
3906.180 0.706 0.537 0.407 0.57 0.275 0.154 0.612 0.94947 1.1517 0.8492
3925.470 0.55 0.606 0.712 0.613 0.501 0.345 0.53 0.8305 0.576 0.778
3944.760 0.8693 0.8696 1.0269 0.78 1.3849 1.957 1.00321 0.48 0.544 0
3964.049 0.333 0.96572 0.761 0.636 0.679 0.8346 0.98401 0.918852 0.8505 0.696
3983.339 0.584 0.63 0.57 0.91911 1.5317 1.3504 0.96479 0.807 0.511 0.582
##END=
