##TITLE=2,3,6-Trifluorobenzoyl chloride
##JCAMP-DX=4.24
##DATA TYPE=INFRARED SPECTRUM
##ORIGIN=EPA-IR VAPOR PHASE LIBRARY
##OWNER=SRD/NIST
Collection (C) 2018 copyright by the U.S. Secretary of Commerce
on behalf of the United States of America. All rights reserved.
##CAS REGISTRY NO=189807-20-3
##MOLFORM=C 7 H 2 Cl F 3 O
##$NIST SOURCE=MSDC-IR
##STATE=gas
##XUNITS=1/CM
##YUNITS=ABSORBANCE
##XFACTOR=1.
##YFACTOR=0.001
##DELTAX=1.92898
##FIRSTX=549.8
##LASTX=4000.7
##FIRSTY=4.894
##MAXX=4000.7
##MINX=549.759
##MAXY=0.182994
##MINY=0
##NPOINTS=1790
##XYDATA=(X++(Y..Y))
549.759 4.894 2.834 2.694 3.714 3.624 3.284 2.864 2.654 2.194 2.064
569.049 1.934 1.934 2.744 3.404 3.444 3.644 4.364 5.374 6.584 6.884
588.339 7.674 9.864 12.464 14.014 14.644 15.544 16.294 16.534 15.604 14.454
607.628 13.294 11.954 10.844 10.074 9.644 8.804 8.664 9.344 9.434 9.044
626.918 8.434 7.264 6.564 6.334 5.504 5.014 5.574 5.754 4.894 5.354
646.208 6.174 6.054 6.284 6.884 7.214 7.304 7.694 8.094 8.374 7.804
665.498 7.494 7.274 6.344 5.484 3.964 3.134 3.514 3.104 2.894 3.074
684.787 3.224 3.184 2.754 2.854 3.014 3.374 3.604 3.974 4.164 4.124
704.077 4.444 4.544 4.944 4.874 4.984 6.024 6.654 7.444 8.354 8.944
723.367 10.124 11.244 11.534 11.534 11.604 11.324 10.704 10.274 10.214 10.504
742.657 10.664 11.194 11.854 11.714 11.504 11.114 10.304 9.524 8.414 7.404
761.947 7.424 7.484 7.414 7.994 8.654 9.454 10.624 12.174 13.754 15.834
781.236 17.994 20.674 24.234 27.494 30.704 34.804 38.414 41.874 46.284 50.444
800.526 55.244 60.074 64.824 69.824 74.634 79.864 85.924 91.534 93.044 89.424
819.816 84.984 82.274 78.934 73.884 68.424 62.654 56.044 49.244 42.764 36.574
839.106 30.774 24.994 19.704 15.484 12.404 10.494 9.124 7.904 6.474 5.384
858.395 5.014 5.064 4.554 3.884 4.014 3.974 3.714 3.524 3.284 3.574
877.685 3.814 3.154 2.664 3.074 3.144 2.804 3.004 2.884 2.604 2.614
896.975 2.784 2.614 2.204 2.404 2.594 2.674 2.764 2.734 2.664 2.564
916.265 2.464 2.714 3.044 2.644 2.474 2.904 3.404 3.364 3.354 3.844
935.555 5.094 5.974 6.564 7.604 8.424 10.254 11.864 13.324 15.274 17.044
954.844 19.084 20.924 22.634 24.874 26.954 28.344 29.754 31.344 32.544 33.494
974.134 34.294 35.454 35.534 34.674 34.094 32.954 31.594 29.824 27.434 25.234
993.424 22.894 19.994 17.674 16.134 14.434 12.514 11.044 10.354 9.434 8.594
1012.714 8.174 7.604 7.454 7.314 6.994 7.404 8.234 8.594 10.474 13.274
1032.003 15.654 18.794 21.894 23.534 24.084 24.754 23.964 22.474 19.704 14.934
1051.293 11.164 8.834 6.804 5.564 4.404 3.434 3.884 3.154 2.214 2.194
1070.583 3.074 3.574 2.814 1.934 1.2476 1.2148 0.9513 0.7502 1.804 1.5739
1089.873 0.7285 1.3658 2.114 2.394 1.5157 0.949 1.2984 1.7684 1.418 1.0238
1109.163 1.2167 1.1558 1.4939 0.7605 0.036 0.563 1.1502 1.824 2.804 3.684
1128.452 3.944 2.654 2.684 4.564 5.164 5.964 7.264 7.814 9.344 11.864
1147.742 14.004 15.394 15.234 15.124 15.464 14.044 11.434 9.074 6.764 5.554
1167.032 4.474 3.414 3.564 3.174 2.604 3.044 2.864 3.524 4.244 3.394
1186.322 3.124 4.704 5.294 5.274 6.574 6.404 5.524 6.064 8.534 9.714
1205.611 9.934 11.954 15.494 19.824 23.764 27.474 30.794 32.874 33.644 33.754
1224.901 33.344 32.554 31.294 27.634 23.474 20.074 18.004 16.634 15.904 17.374
1244.191 19.204 21.334 25.344 32.044 40.574 50.234 60.654 70.784 79.484 85.874
1263.481 89.594 89.374 84.944 77.714 67.184 54.224 42.464 32.844 25.194 20.324
1282.771 17.024 13.794 11.474 10.224 9.114 7.974 7.274 6.974 7.044 7.024
1302.060 6.924 7.084 7.464 8.014 8.584 8.814 8.734 8.514 8.314 8.194
1321.350 7.804 7.344 6.544 5.484 4.894 4.564 4.194 3.894 3.664 3.484
1340.640 3.444 3.614 3.554 3.304 3.254 3.084 2.884 2.724 2.614 2.604
1359.930 2.544 2.424 2.384 2.424 2.314 2.014 1.864 2.004 2.094 2.144
1379.219 2.134 1.994 1.924 2.024 2.154 2.094 2.214 2.384 2.184 2.054
1398.509 2.204 2.394 2.434 2.554 2.604 2.734 3.004 3.114 3.274 3.304
1417.799 3.164 3.154 3.344 3.454 3.604 3.874 4.054 4.374 4.884 5.524
1437.089 6.174 6.844 7.644 8.574 9.664 10.584 11.364 12.224 12.624 12.554
1456.378 12.724 12.604 11.844 11.134 10.894 11.024 11.334 12.184 13.844 16.054
1475.668 19.274 23.994 30.194 38.774 50.324 65.264 83.684 105.184 128.864 150.924
1494.958 168.464 179.664 182.994 178.894 168.524 152.994 130.874 104.674 78.634 55.564
1514.248 38.364 26.774 19.804 15.694 12.974 11.214 9.874 8.764 8.014 7.304
1533.538 6.704 6.154 5.554 5.364 5.034 4.624 4.434 4.364 4.214 3.964
1552.827 3.944 3.874 3.694 3.714 3.784 3.624 3.584 3.704 3.604 3.534
1572.117 3.764 3.854 3.824 3.934 4.214 4.604 5.134 5.624 6.124 6.794
1591.407 7.394 8.004 8.524 8.944 9.414 9.494 9.644 10.074 9.964 10.104
1610.697 10.564 11.114 11.784 12.244 13.344 14.884 16.044 17.044 17.744 18.034
1629.986 17.974 17.454 16.554 15.124 13.614 12.164 10.514 8.904 7.594 6.424
1649.276 5.414 4.904 4.374 3.754 3.424 3.154 2.834 2.584 2.614 2.604
1668.566 2.344 2.054 2.024 1.994 1.904 2.134 2.274 2.194 2.324 2.344
1687.856 2.344 2.304 2.204 2.354 2.484 2.564 2.674 2.984 3.234 3.154
1707.146 3.104 3.224 3.404 3.764 3.984 4.114 4.314 4.484 4.574 4.774
1726.435 5.104 5.544 5.874 6.004 6.534 7.034 7.394 8.064 8.994 9.854
1745.725 10.754 11.734 12.874 14.154 15.364 16.854 18.524 20.384 22.734 25.294
1765.015 28.114 31.274 34.614 37.994 41.554 44.934 47.974 50.734 53.224 55.064
1784.305 55.894 56.244 56.934 57.904 58.934 60.314 61.894 63.444 64.844 65.594
1803.594 65.304 63.634 60.024 55.024 49.464 43.864 38.294 33.044 28.484 24.344
1822.884 20.714 18.034 16.194 14.624 13.154 12.134 11.414 10.624 9.974 9.524
1842.174 8.944 8.474 8.234 8.074 8.014 7.834 7.644 7.294 6.874 6.464
1861.464 6.064 5.754 5.364 4.914 4.644 4.474 4.274 4.024 3.694 3.544
1880.754 3.444 3.304 3.294 3.134 2.744 2.454 2.364 2.324 2.284 2.254
1900.043 2.124 2.024 1.814 1.6975 1.804 1.824 1.874 1.794 1.6075 1.5618
1919.333 1.5412 1.4964 1.6005 1.5452 1.5018 1.5758 1.5968 1.6366 1.7595 1.844
1938.623 1.6894 1.6205 1.6202 1.629 1.741 1.7835 1.7183 1.7611 1.6125 1.4519
1957.913 1.4806 1.5599 1.5026 1.4249 1.5765 1.7364 1.6247 1.4564 1.4132 1.5522
1977.202 1.5656 1.5048 1.656 1.4333 1.3747 1.5768 1.5422 1.5722 1.6244 1.5504
1996.492 1.4907 1.3468 1.5062 1.7025 1.5773 1.5088 1.5983 1.585 1.5838 1.6373
2015.782 1.573 1.6451 1.5001 1.5574 1.56 1.376 1.4506 1.3952 1.1844 1.1188
2035.072 1.2343 1.2358 1.2307 1.1941 1.169 1.2034 1.0239 0.9404 1.2421 1.2812
2054.362 1.1446 1.1812 1.1688 1.2141 1.3238 1.1168 0.8743 0.9941 1.1108 1.1026
2073.651 1.2339 1.3738 1.3199 1.1001 1.0882 1.0854 0.9763 1.0888 1.0215 1.0614
2092.941 1.1375 1.0433 0.85591 0.9945 1.266 1.1655 1.0013 1.1306 1.2823 1.3448
2112.231 1.345 1.1893 1.3076 1.2979 1.1063 1.1275 1.3727 1.3294 1.1663 1.0603
2131.521 0.9298 1.0741 1.0575 0.9607 1.146 1.2878 1.114 0.9271 0.9718 1.064
2150.810 1.1035 1.1473 1.1428 1.125 0.9994 0.85139 0.9555 0.82804 0.80384 0.85897
2170.100 0.77862 0.9032 0.702 0.7449 1.0975 1.1086 1.0624 1.1195 1.2654 1.2186
2189.390 1.1186 1.0117 0.9316 0.9367 0.9498 1.1193 1.2493 1.1536 0.9366 0.9864
2208.680 1.1102 0.9941 0.959 1.129 1.2081 1.2925 1.263 1.224 1.2557 1.148
2227.970 1.1242 1.1865 1.3296 1.3262 1.3451 1.3432 1.1869 1.0142 1.0592 1.1062
2247.259 1.0117 0.8963 1.1209 1.2846 1.0984 1.0824 1.0713 1.3375 1.5044 1.4524
2266.549 1.2227 1.1792 1.3563 1.2754 1.1946 0.9558 0.7544 0.9053 1.232 1.4577
2285.839 1.5239 1.5313 1.5698 1.718 1.6002 1.6056 1.7422 1.6311 1.6453 1.7614
2305.129 1.637 1.6993 1.914 1.7032 1.4491 1.3074 1.1797 1.1066 1.0524 1.1193
2324.418 1.1899 1.1625 1.2026 1.1902 1.1409 1.2496 1.164 1.0215 1.0058 1.0027
2343.708 1.1552 1.0519 1.0039 1.1895 0.9959 1.0537 1.2296 1.2091 1.1823 1.1796
2362.998 1.2816 1.2204 1.1314 1.1979 1.3483 1.6111 1.4553 1.1662 1.2329 1.1772
2382.288 1.0998 0.9562 0.9974 1.0372 1.013 1.2745 1.1687 0.7271 0.8904 1.1931
2401.578 1.0121 0.84096 0.764 0.79674 0.80876 0.773 0.87204 0.9523 1.1861 1.1792
2420.867 1.1351 1.0352 0.9875 1.0677 0.8907 0.9693 1.0727 1.0691 1.1432 1.0803
2440.157 1.0482 1.0834 1.2449 1.4039 1.284 1.168 1.1454 1.2811 1.3802 1.0836
2459.447 1.068 1.2672 1.1152 1.0801 0.9301 0.9565 1.2206 1.0546 1.0903 1.4123
2478.737 1.2873 1.2438 1.4339 1.4724 1.4952 1.2729 1.2641 1.5354 1.4117 1.1994
2498.026 1.2371 1.2026 1.1503 1.1801 0.9368 0.7694 1.1463 1.3945 1.056 0.84411
2517.316 1.007 1.2076 1.4854 1.6892 1.5832 1.5142 1.4626 1.3973 1.461 1.541
2536.606 1.7014 1.6037 1.4476 1.258 1.1042 1.2277 1.169 1.331 1.3324 1.2139
2555.896 1.1426 0.791844 0.674 0.80716 0.85448 0.85571 1.1209 1.1178 1.0762 1.3497
2575.186 1.4023 1.2967 1.1855 1.1661 1.3239 1.3965 1.4805 1.4161 1.3598 1.4499
2594.475 1.3381 1.1688 1.2186 1.1493 1.0003 1.0206 0.9616 1.1414 1.2217 1.0756
2613.765 0.87536 0.87727 0.792951 0.7353 1.0109 1.0852 1.0341 1.1653 1.1492 0.81519
2633.055 0.664 0.8939 1.2134 1.0418 0.9063 1.182 1.2158 0.9241 0.7256 0.80732
2652.345 0.7066 0.6876 0.9248 1.0279 1.026 0.9195 0.8998 1.0181 1.0549 1.104
2671.634 0.9221 0.7153 0.789473 0.604 0.506 0.788064 1.005 1.0478 0.792792 0.572
2690.924 0.79817 0.9785 1.0638 1.2052 1.0995 0.83457 0.9494 1.0271 0.81575 0.87108
2710.214 0.9085 0.82198 0.9465 1.0246 1.0881 1.0789 1.0746 1.0898 1.0323 1.0328
2729.504 1.0271 1.2997 1.2577 1.1615 1.2576 0.9875 0.79869 0.79777 0.607 0.617
2748.794 0.85505 1.1609 1.1383 0.8971 0.923 1.0397 1.2015 1.1526 1.1058 1.2794
2768.083 1.3704 1.2032 1.2478 1.0488 0.7287 0.9528 1.0641 1.166 1.366 1.1648
2787.373 0.7477 0.584 0.613 0.644 0.97 1.0885 0.9107 0.9916 1.337 1.2394
2806.663 0.83415 0.9553 1.2413 1.3615 1.3793 1.3081 0.9955 0.611 0.86915 0.9881
2825.953 0.9554 1.0402 0.785833 0.84044 0.9914 1.0524 1.2321 1.0446 0.9427 0.9561
2845.242 0.7383 1.0689 1.4347 1.2928 0.6986 0.7464 1.0056 0.7368 1.1651 1.2817
2864.532 1.0636 1.1446 1.0389 1.0164 1.1749 1.3722 1.2564 0.9414 1.214 1.4426
2883.822 1.3635 1.1477 1.0778 1.246 1.0665 0.84518 1.0262 1.1637 0.9606 0.488
2903.112 0.535 0.7629 0.7621 1.2495 1.3585 0.87325 0.671 0.80298 0.88322 0.84625
2922.401 1.0093 1.1526 0.84636 0.77689 1.0149 1.1166 0.9308 0.77477 0.8925 0.964
2941.691 0.9574 1.0467 1.0365 0.88257 0.53 0.558 0.506 0.679 0.8912 0.643
2960.981 0.9252 0.7718 0.83602 0.945 0.48 0.56 0.648 0.7734 0.80688 0.633
2980.271 0.83893 0.7727 0.195 0.28 0.7958 0.83663 0.8818 0.85312 0.7095 0.491
2999.561 0.586 0.7427 0.604 0.572 0.80364 1.3377 1.6403 1.3217 1.3933 1.3172
3018.850 0.78055 0.9164 0.7299 0.613 1.0602 1.2935 1.124 0.547 0.662 1.1735
3038.140 1.0716 0.81856 1.0108 1.2769 1.1423 0.77978 0.7062 1.2149 1.3937 1.071
3057.430 1.0022 1.2102 1.4891 1.6471 1.7615 1.7003 1.5128 1.7465 1.814 1.6704
3076.720 1.4784 1.5119 1.5305 1.4292 1.3638 1.3918 1.4265 1.1463 0.9037 1.0833
3096.009 1.4371 1.0695 0.642 1.0222 1.4143 0.9479 0.607 0.4 0.281 0.595
3115.299 0.561 0.7365 1.0082 1.1264 1.0008 0.7467 0.9491 0.83786 0.629 0.637
3134.589 0.79875 1.0179 0.96 1.0512 1.202 0.7142 0.505 1.0053 1.1364 1.4153
3153.879 1.6613 1.2239 0.928 0.8985 0.80369 1.0037 1.2928 1.5493 0.9472 0.215
3173.169 0.605 0.7166 0.79436 1.0769 0.8793 0.7312 0.87544 0.9518 1.1008 1.254
3192.458 0.7165 0.82258 0.9791 0.569 0.464 0 0.18 0.7489 0.574 0.676
3211.748 0.569 0.105 0.85911 1.4348 1.0828 0.9135 1.0181 1.2114 1.1175 1.0082
3231.038 0.83223 0.8916 0.9828 0.8955 1.3977 1.1282 1.0009 1.1869 1.0749 1.2453
3250.328 1.3833 1.331 0.9509 1.4377 1.3224 0.9199 1.1011 1.1282 1.4197 1.3073
3269.617 1.1062 1.5517 1.3529 0.81998 1.3952 1.1837 0.6988 0.9445 1.1517 1.4149
3288.907 1.401 1.067 0.9687 1.4666 1.4421 1.6645 1.824 1.0831 1.0644 1.1864
3308.197 0.498 0.225 0.86984 1.0439 0.79572 0.73 1.2458 1.5976 1.1425 1.2299
3327.487 0.907 0.037 0.252 0.86409 1.0603 1.0146 0.9033 0.9296 0.8952 0.522
3346.777 0.514 0.9434 1.0503 1.0327 1.2606 1.225 0.81816 0.80067 0.949 0.9113
3366.066 0.847 1.0932 1.2618 0.9191 0.599 0.615 1.0498 1.4258 1.1787 1.1128
3385.356 1.077 0.666 0.676 1.1807 1.3253 1.4068 1.1477 0.565 0.663 0.9055
3404.646 0.87695 1.2165 0.9545 0.68 0.9224 0.7295 1.2392 1.6906 1.5789 1.3273
3423.936 1.1718 1.1184 1.3808 1.5333 1.1244 1.2044 1.2741 0.8441 1.1392 1.2021
3443.225 1.0764 1.2729 1.0901 0.77586 0.6984 0.83337 1.1321 1.4367 1.3883 0.949
3462.515 1.1058 1.5777 1.2373 1.0657 1.0416 1.1794 1.578 1.3573 1.0241 1.5012
3481.805 1.6551 1.2953 1.3141 1.2486 1.0401 1.5603 1.844 1.2128 0.9401 1.2667
3501.095 1.623 1.5124 1.6097 1.3842 1.3767 1.4521 1.5689 1.974 2.004 1.934
3520.385 1.7094 1.5698 1.4911 1.5935 1.3471 1.1336 1.2051 1.3792 1.7406 1.904
3539.674 1.894 1.994 1.6353 1.7489 1.814 1.7171 1.884 1.7652 1.5979 2.024
3558.964 2.264 1.994 2.304 2.154 2.334 2.344 1.954 2.054 2.244 1.7144
3578.254 1.2516 1.7329 1.794 1.7431 2.204 2.034 1.5937 1.7024 1.834 1.854
3597.544 1.4987 1.287 1.7675 2.134 1.914 1.7273 1.7785 1.6418 1.4085 1.3072
3616.833 1.3999 1.7047 1.7086 1.4083 1.7447 1.6827 1.2672 1.814 1.6227 1.3922
3636.123 1.2171 1.2962 1.3719 0.7333 0.428 0.415 0.82588 0.87705 0.47 0.347
3655.413 0.9271 1.5241 1.237 1.1367 1.3344 1.27 1.0088 1.1765 1.5756 1.1713
3674.703 0.6946 0.87697 1.3883 1.3186 1.0037 1.0673 1.3738 1.1747 1.2106 1.4774
3693.993 1.7053 1.3709 0.7484 0.8951 1.2914 1.3617 0.86656 0.682 1.0577 1.3722
3713.282 0.9417 0.81302 1.0393 1.1007 1.5258 1.3082 0.81931 0.84376 1.0772 1.6417
3732.572 1.4059 1.3572 1.5695 0.635 0.538 0.82375 0.531 0.524 0.9297 0.9391
3751.862 1.4842 2.274 1.4216 0.84722 1.2515 1.1301 0.79882 0.88034 1.2596 1.5674
3771.152 1.4 1.4918 1.4934 1.4774 1.7614 1.5294 1.5432 1.5893 0.8845 0.361
3790.441 0.369 0.623 1.1007 1.0158 1.0223 1.4137 1.2789 1.1712 1.1144 1.0568
3809.731 1.3324 1.465 1.3127 0.9515 0.80313 0.7694 0.301 0.413 0.9171 0.86746
3829.021 0.6944 0.78188 0.602 0.672 1.5648 2.004 1.5365 1.4176 1.1799 0.771
3848.311 1.288 2.234 2.124 1.2816 1.2808 1.7545 1.659 1.2491 1.2318 0.888
3867.601 0.206 0.395 0.494 0.7385 1.814 1.7705 1.33 1.1355 1.2723 2.084
3886.890 1.904 1.864 1.6185 1.3584 1.6839 1.4765 1.3512 0.9223 1.0048 1.1734
3906.180 0.7362 0.7606 0.787203 0.787614 0.624 0.018 0.674 1.2959 1.1075 0.85876
3925.470 0.9081 0.744 0.81751 1.4954 1.2443 0.9596 1.1462 1.4917 1.6133 1.5908
3944.760 1.6745 1.5281 1.3099 1.13 0.9364 0.77463 0.80925 1.4603 1.2679 0.477
3964.049 0.79927 1.2867 1.6277 1.3558 1.2366 1.59 1.3492 0.7461 0.9156 1.4044
3983.339 1.6773 1.5099 1.1516 1.272 1.3257 1.1166 0.583 0.584 0.8985 1.1109
##END=
