##TITLE=4-Fluoro-2-(trifluoromethyl)benzoyl chloride
##JCAMP-DX=4.24
##DATA TYPE=INFRARED SPECTRUM
##ORIGIN=EPA-IR VAPOR PHASE LIBRARY
##OWNER=SRD/NIST
Collection (C) 2018 copyright by the U.S. Secretary of Commerce
on behalf of the United States of America. All rights reserved.
##CAS REGISTRY NO=189807-21-4
##MOLFORM=C 8 H 3 Cl F 4 O
##$NIST SOURCE=MSDC-IR
##STATE=gas
##XUNITS=1/CM
##YUNITS=ABSORBANCE
##XFACTOR=1.
##YFACTOR=0.001
##DELTAX=1.92898
##FIRSTX=549.8
##LASTX=4000.7
##FIRSTY=2.322
##MAXX=4000.7
##MINX=549.759
##MAXY=0.02453
##MINY=0
##NPOINTS=1790
##XYDATA=(X++(Y..Y))
549.759 2.322 2.816 2.19 2.04 1.9 1.41 2.299 3.27586 2.81 1.79
569.049 2.86 3.5242 2.959 3.059 2.926 2.04 1.73 2.321 3.113 2.08
588.339 1.13 1.68 2.443 3.8732 3.5284 2.318 2.462 3.4088 3.9554 3.4988
607.628 3.5545 3.9761 4.0708 4.39 4.51 5.38 6.41 6.9 7.61 8.21
626.918 7.67 7.35 7.26 6.47 6.23 6.3 5.76 4.47 3.648 3.972
646.208 4.0236 3.7857 3.5334 2.867 3.30795 3.8966 3.9132 4.58 4.94 4.1524
665.498 3.3302 3.084 3.33696 2.854 2.315 2.954 3.2341 3.1989 3.2531 3.3711
684.787 3.5909 4.1604 4.0637 3.1975 3.33084 3.2065 3.4288 3.4867 3.2354 3.4721
704.077 3.099 2.768 2.6 2.858 2.801 2.424 2.727 2.618 2.297 3.058
723.367 2.935 2.687 3.33402 3.34248 3.598 3.8014 3.8453 3.9916 3.5761 3.8867
742.657 4.29 4.1667 4.1051 4.2229 4.1465 3.5515 3.4525 3.2562 2.798 2.24
761.947 2.537 3.6068 3.378 2.892 3.35617 3.8831 3.65 3.053 2.933 3.08
781.236 2.844 2.48 2.644 3.27435 3.4454 3.1911 3.035 3.5607 3.6862 2.714
800.526 2.478 2.886 3.2079 3.5916 3.9458 4.2269 4.87 5.56 6.41 7
819.816 7.31 7.38 6.93 7.5 8.75 8.49 7.85 7.66 7.14 7.31
839.106 7.94 7.88 7.94 8 8.06 8.45 8.45 8.13 7.42 6.72
858.395 6.8 6.09 5.23 5.35 4.84 4.1579 4.3 4.2348 3.7377 3.3866
877.685 3.758 4.2294 4.43 4.96 5.65 6 5.74 5.94 5.74 5.34
896.975 4.8 5.05 5.61 5.15 4.73 4.82 5.48 5.62 5.78 6.19
916.265 6.91 8.17 8.67 8.81 9.02 9.11 8.99 8.42 7.94 7.6
935.555 6.89 5.8 5.18 4.72 4.2605 4.47 4.72 4.46 3.8548 3.8029
954.844 3.8957 3.566 3.447 4.1605 4.49 3.5864 3.631 3.379 2.812 3.30505
974.134 3.4677 3.31494 2.901 2.99 2.668 2.409 3.4026 3.2099 2.505 2.939
993.424 3.2128 3.125 3.419 3.3456 3.186 3.102 3.094 3.2359 3.1937 3.27529
1012.714 3.982 3.6694 2.97 3.107 3.2092 3.7524 3.34657 3.069 3.421 4.0773
1032.003 4.44 3.9332 4.76 5.57 5.24 4.0088 3.8702 5.03 5.26 5.94
1051.293 6.45 6.03 5.2 4.58 4.1777 4.45 4.59 4.45 5.25 4.52
1070.583 3.36959 3.7182 4.2043 3.4592 1.98 3.04 5.24 4.6 2.844 2.22
1089.873 2.868 3.3986 4.1134 4.9 3.9052 2.06 1.69 4.1224 5.38 3.4569
1109.163 2.955 3.33178 3.32894 4.2123 3.057 1.22 2.56 3.9216 3.31632 4.28
1128.452 5.24 4.83 6 5.99 5.53 4.82 4.2652 4.61 5.82 6.33
1147.742 5.55 6.11 7.63 8.08 9.69 11.82 12.04 12.9 15.23 17.55
1167.032 18.64 20.77 22.43 23.5 24.53 24.49 23.89 22.1 19.73 17.89
1186.322 15.97 15.4 14.37 11.96 11.88 10.58 6.87 5.03 4.46 3.1997
1205.611 2.292 3.029 3.4868 4.206 4.0791 1.83 2.11 1.77 0.42 0.29
1224.901 0 0.82 2 2.457 2.25 1.27 1.03 1.86 1.99 2.1
1244.191 2.425 2.389 2.641 2.524 2.53 2.453 3.33905 4.8 5.19 5.14
1263.481 4.95 5.25 5.55 5.41 5.28 4.88 4.55 4.54 4.43 4.74
1282.771 5.07 5.5 5.77 5.93 6.33 6.04 5.51 6.11 7.08 7.85
1302.060 8.74 9.91 11.33 12.71 14.26 15.54 16.09 15.99 15.23 14.22
1321.350 12.85 11.08 9.18 7.59 6.59 5.7 5.02 4.47 4.1893 4.0301
1340.640 3.7193 3.4954 3.5501 3.5048 3.4215 3.5102 3.4818 3.4098 3.28569 3.1786
1359.930 3.2462 3.4606 3.29975 3.3577 3.6179 3.4849 3.46 3.31363 3.157 3.30262
1379.219 3.4003 3.33821 3.139 3.2172 3.32333 3.4484 3.517 3.3646 3.4812 3.4184
1398.509 3.417 3.8555 4.1739 4.31 4.59 4.94 5.19 5.47 5.75 6.27
1417.799 6.8 7.06 7.41 7.63 7.48 7.09 6.43 5.67 4.95 4.39
1437.089 4.163 4.0103 3.5505 3.28382 3.5266 3.6079 3.481 3.5497 3.5703 3.34403
1456.378 3.598 4.0472 3.9692 3.9936 4.0065 3.8471 3.7693 3.5891 3.7436 3.9303
1475.668 3.594 3.6359 4.0174 4.28 4.43 4.86 5.32 5.18 5.22 5.56
1494.958 5.58 5.57 5.55 5.43 5.09 4.73 4.56 4.4 4.0541 3.7692
1514.248 3.8479 3.8399 3.707 3.581 3.6927 3.6397 3.35101 3.2295 3.2245 3.5165
1533.538 3.7372 3.5736 3.4502 3.3984 3.162 3.4758 3.7656 3.6056 3.4313 3.4553
1552.827 3.5983 3.6235 3.5085 3.444 3.4757 3.3522 3.4925 3.7952 3.9606 3.8891
1572.117 4.0937 4.33 4.1872 4.0538 4.104 4.29 4.66 4.82 4.9 5.13
1591.407 5.11 5.21 5.53 5.49 5.11 5.24 5.41 5.59 5.87 5.61
1610.697 5.5 5.52 5.64 5.56 5.21 4.86 4.64 4.46 4.1126 4.1792
1629.986 3.9345 3.4447 3.4907 3.4806 3.7948 3.8986 3.628 3.4414 3.34355 3.2581
1649.276 3.30372 3.6882 3.6174 3.4101 3.2341 3.33528 3.3891 3.074 3.003 3.055
1668.566 3.049 3.053 3.051 3.041 3.041 3.143 3.28574 3.2182 2.986 2.957
1687.856 3.163 3.2157 3.26469 3.26938 2.844 2.952 3.4423 3.33541 3.1717 3.4111
1707.146 3.5444 3.34819 3.2392 3.1919 3.1735 3.2591 3.21 3.2198 3.30048 3.26126
1726.435 3.2524 2.931 3.162 3.4542 3.2387 3.5317 3.537 3.3893 3.28763 3.231
1745.725 3.4118 3.5741 3.8392 3.7463 3.7903 3.8269 3.9434 4.1861 4.0404 4.2113
1765.015 4.47 4.59 4.71 4.62 4.69 4.9 5.01 5.24 5.34 5.48
1784.305 5.65 5.56 5.85 6.58 7.08 7.94 9.19 10.2 11.31 12.17
1803.594 12.85 13.56 13.42 12.61 11.75 10.64 9.3 7.96 7 6.47
1822.884 6.05 5.51 4.79 4.53 4.49 4.2309 4.35 4.28 3.9492 3.7504
1842.174 3.7295 3.8304 3.8456 3.817 3.7511 3.6517 3.5366 3.5793 3.5472 3.5602
1861.464 3.5525 3.4235 3.2214 3.164 3.27645 3.2063 2.993 2.958 3.21 3.34956
1880.754 3.2086 3.34169 3.4337 3.30714 3.4546 3.5457 3.5405 3.5413 3.2877 3.32785
1900.043 3.6025 3.34789 3.249 3.3721 3.38 3.4806 3.4208 3.33038 3.36565 3.5093
1919.333 3.5426 3.1 2.874 3.113 3.32453 3.2412 3.035 3.041 3.096 3.26631
1938.623 3.34718 3.2921 3.3623 3.3932 3.32673 3.4806 3.5013 3.4633 3.5113 3.5024
1957.913 3.4267 3.1906 3.31686 3.3802 3.4377 3.5731 3.5091 3.31579 3.2093 3.29145
1977.202 3.27539 3.1839 3.017 3.143 3.31849 3.3879 3.3756 3.2331 3.29436 3.4092
1996.492 3.4905 3.3717 3.28214 3.31608 3.3767 3.5093 3.2277 3.089 3.2097 3.2562
2015.782 3.4343 3.30493 3.2066 3.2464 3.34738 3.525 3.6065 3.6633 3.6271 3.4711
2035.072 3.1839 3.061 3.29617 3.4522 3.4715 3.4994 3.5268 3.5533 3.585 3.5425
2054.362 3.5161 3.7875 3.7652 3.5157 3.4432 3.29892 3.3771 3.4546 3.161 3.137
2073.651 3.3911 3.4491 3.4083 3.27187 3.2553 3.4209 3.4145 3.211 3.4119 3.71
2092.941 3.6628 3.6275 3.5228 3.586 3.6192 3.5239 3.4894 3.5826 3.5898 3.4299
2112.231 3.36724 3.32611 3.4854 3.5876 3.4728 3.35837 3.35094 3.4194 3.5396 3.5904
2131.521 3.7387 3.9529 3.7979 3.6187 3.4988 3.26205 3.26706 3.4613 3.5078 3.3899
2150.810 3.3736 3.496 3.6936 3.7964 3.6434 3.7373 3.8882 3.5859 3.28763 3.3904
2170.100 3.5838 3.5111 3.4928 3.4584 3.3899 3.4838 3.3705 3.4732 3.792 3.649
2189.390 3.28655 3.36858 3.6706 3.796 3.6522 3.6087 3.5964 3.4407 3.5397 3.6262
2208.680 3.6849 3.6251 3.5027 3.7415 3.9577 3.7557 3.6011 3.4817 3.5549 3.6521
2227.970 3.6915 3.7693 3.7406 4.0184 3.9952 3.5628 3.6502 4.1015 4.2216 3.7367
2247.259 3.4787 3.5272 3.5601 3.4879 3.36833 3.4021 3.4381 3.4034 3.5559 3.6436
2266.549 3.5297 3.5556 3.4766 3.3855 3.36089 3.5785 3.8536 3.5879 3.2451 3.4823
2285.839 3.51 3.4598 3.6397 3.7243 3.8352 3.9498 3.6901 3.5233 3.5897 3.6819
2305.129 3.543 3.4674 3.532 3.6227 3.6237 3.161 3.1882 3.5982 3.7147 3.814
2324.418 3.7082 3.3756 3.7467 3.8441 3.5197 3.4971 3.7518 4.0917 3.7101 3.6893
2343.708 3.8334 3.6627 3.6547 3.7365 3.7564 3.6108 3.732 3.7587 3.5477 3.4722
2362.998 3.5763 3.6295 3.6735 3.7649 3.7558 3.683 3.67 3.7325 3.9129 4.1036
2382.288 3.8033 3.4783 3.2386 3.2802 3.6116 3.5665 3.5781 3.7715 3.4159 3.2281
2401.578 3.523 3.5187 3.4862 3.4856 3.5642 3.6424 3.706 3.7305 3.8091 3.6739
2420.867 3.6808 3.8202 3.7087 3.5237 3.4255 3.515 3.5601 3.6373 3.513 3.2585
2440.157 3.4522 3.4564 3.4408 3.6701 3.35281 3.28101 3.5383 3.8465 3.7476 3.6064
2459.447 3.8035 4.0182 4.0246 3.8324 3.4845 3.3922 3.6052 3.3901 3.4009 3.5014
2478.737 3.5917 3.6135 3.5033 3.4244 3.3591 3.3755 3.608 3.8925 3.8137 3.5313
2498.026 3.3876 3.33628 3.26305 3.30242 3.4377 3.36595 3.7084 4.0728 3.9305 3.824
2517.316 3.6805 3.7412 3.9005 3.7515 3.6739 3.7724 3.5865 3.3886 3.47 3.7249
2536.606 3.9252 3.7506 3.9107 4.0087 3.7676 3.8624 3.9678 3.9608 3.8842 3.7823
2555.896 3.7256 3.7746 3.5643 3.4982 3.6758 3.7243 3.9441 3.9625 3.834 3.9926
2575.186 3.9507 3.7714 3.9158 3.8239 3.7003 4.0369 3.8992 3.6981 3.7251 3.9174
2594.475 3.9828 3.8555 3.7012 3.6248 3.7389 3.5888 3.32708 3.372 3.8806 4.1129
2613.765 3.8382 3.8663 3.8289 3.6276 3.4614 3.4984 3.35978 3.3996 3.5329 3.6715
2633.055 3.7214 3.4935 3.6242 3.648 3.7288 3.6596 3.6946 3.8618 3.5301 3.3893
2652.345 3.7851 3.6308 3.4447 3.5098 3.33707 3.4592 3.6865 3.4418 3.32947 3.8459
2671.634 4.1105 3.6934 3.564 3.5562 3.5668 3.7248 3.8601 3.9779 4.0757 4.0597
2690.924 3.8247 3.6215 3.4998 3.4049 3.3756 3.8769 4.1955 3.8482 3.9021 3.8268
2710.214 3.7032 4.102 4.0308 3.5062 3.7137 4.27 3.9399 3.2713 3.31063 3.5949
2729.504 3.727 3.5484 3.4743 3.7889 3.6014 3.5035 3.8535 4.0301 4.1056 3.9502
2748.794 3.5811 3.35104 3.004 3.4775 3.9821 3.7856 3.5775 3.6791 3.9574 4.2452
2768.083 4.146 3.631 3.7381 4.0443 3.9146 4.0469 4.34 3.7551 3.26956 3.4132
2787.373 3.7963 3.6738 3.5353 3.6937 3.36673 3.3959 4.129 4.0464 3.6801 4.1295
2806.663 3.8429 3.6383 4.2381 4.1862 3.6752 3.7615 3.822 3.9113 4.1567 3.6228
2825.953 3.5697 3.9676 3.9771 3.9446 3.8162 3.6046 3.768 3.6011 3.3842 3.6215
2845.242 3.4994 3.3717 3.7645 3.8868 3.8248 3.76 3.6457 3.7001 3.6548 3.8754
2864.532 4.0493 4.011 4.0347 3.782 3.7789 3.9197 3.6581 3.7933 4.0313 3.7156
2883.822 3.4511 3.7562 3.8936 3.4469 3.232 3.9043 4.0916 3.677 3.6908 3.694
2903.112 3.5982 4.0145 3.8402 3.8862 4.41 3.9658 3.7756 3.8536 3.6622 3.7584
2922.401 3.8574 3.7837 4.0426 4.32 4.46 4.1778 3.8075 3.5495 3.34739 3.4682
2941.691 3.6166 3.683 3.779 4.248 4.2046 3.8534 3.6259 3.5132 3.7413 4.1744
2960.981 4.4 4.1824 3.7625 3.6863 4.31 4.39 3.943 3.7646 3.8994 3.6606
2980.271 3.574 3.9051 3.6171 3.5437 4.0152 4.1838 4.0176 3.6898 3.7566 4.05
2999.561 4.1109 4.0844 3.9981 3.7612 3.585 3.7644 3.9466 3.9073 3.5135 3.6522
3018.850 3.756 3.5431 3.8948 4.0039 3.7468 3.5361 3.4644 3.2153 2.934 2.822
3038.140 2.981 3.5217 4.0067 4.0357 3.8162 4.0605 4.39 3.9999 3.4743 3.143
3057.430 3.35847 3.9035 3.9099 3.8026 3.6557 3.5118 3.6889 4.1445 4.71 4.42
3076.720 4.1624 4.36 4.1494 4.1451 3.7571 3.33354 3.6469 4.0347 3.8912 3.8617
3096.009 4.1527 4.1458 4.0479 3.7734 3.5592 3.042 2.964 3.28196 3.669 4.0639
3115.299 3.9478 3.9893 3.7579 3.6232 3.7555 3.5592 3.4454 3.4367 3.35961 3.4817
3134.589 3.8149 4.1419 4.1304 3.5174 3.4344 4.1435 4.24 3.663 3.2078 3.28411
3153.879 3.6967 4.1413 4.1558 3.4903 3.089 3.2858 3.5914 3.7223 3.7177 3.906
3173.169 3.6918 3.5993 3.7481 3.044 3.07 3.5177 3.29246 3.2004 3.27425 3.5681
3192.458 3.5212 3.4136 3.733 3.6505 3.3894 3.27045 3.3185 3.6676 4.1697 4.0611
3211.748 3.7682 3.7828 3.2073 3.118 3.5993 3.9482 3.7922 3.716 3.9925 4.0003
3231.038 4.45 4.54 3.926 3.7743 3.618 3.6898 4.0568 4.1176 3.7976 3.968
3250.328 4.2143 3.8188 3.3758 3.5509 3.7593 3.7065 4.0455 4.1343 3.9201 3.8468
3269.617 4.0574 3.6798 3.4852 3.7065 3.6517 3.30314 3.36976 3.9984 3.5599 3.2011
3288.907 3.5753 4.0064 3.5024 2.853 2.875 3.1778 3.7258 3.6969 3.5049 3.7398
3308.197 3.5907 2.902 3.33299 3.6868 3.4512 3.658 3.7843 3.6287 3.4623 3.4839
3327.487 3.8431 4.0669 3.8242 4.0305 3.9724 3.7065 3.9248 4.33 4.1964 3.9819
3346.777 4.49 3.8851 3.2448 3.6112 3.9515 4.0612 3.5097 3.204 3.2152 3.35461
3366.066 3.7714 3.2308 3.3947 3.9155 3.8482 4.098 3.8313 3.31877 3.6412 4.1806
3385.356 3.34981 2.666 3.158 3.6046 3.7803 4.0605 3.5818 3.2165 3.6773 3.055
3404.646 2.69 3.13 3.1712 3.107 3.014 3.097 3.4049 3.4137 3.4189 3.6612
3423.936 4.0526 4.0426 3.7481 3.8782 3.8612 3.35472 2.934 3.32485 3.711 3.7734
3443.225 3.7454 3.074 2.964 3.5015 3.8382 3.27972 3.043 4.1305 4.2571 3.8539
3462.515 3.8408 4.0615 3.7936 3.33436 3.5794 4.0131 3.6183 3.35785 3.5988 3.5488
3481.805 3.9223 3.939 3.6859 3.9517 4.0036 3.5716 3.6231 4.0902 4.178 3.7676
3501.095 3.6022 3.7018 3.76 3.7715 3.4982 3.5039 3.5727 3.7931 4.0502 3.5549
3520.385 3.561 4.1206 4.2433 3.9552 3.8674 4.28 3.9991 3.8436 3.6406 3.3802
3539.674 3.2057 3.2331 3.4526 3.068 2.785 3.1915 3.3752 3.34389 3.9332 4.2078
3558.964 3.8046 3.31612 3.4667 3.8251 3.5776 3.5274 4.0796 3.5409 2.774 2.706
3578.254 3.33958 4.2588 3.8372 3.5208 3.8017 3.9053 4.0788 4.2673 4.0189 3.6803
3597.544 4.0024 4.1952 4.0337 3.9542 3.4958 3.063 3.5397 4.83 4.76 3.4936
3616.833 3.1828 3.8891 4.48 3.3855 2.443 2.995 3.188 3.5385 3.8887 3.7392
3636.123 4.1927 3.9709 3.1778 3.5229 4.0277 3.7966 3.9872 3.9208 3.4074 3.1905
3655.413 3.249 3.9171 4.0528 3.9887 3.7633 3.009 3.2564 3.6799 3.2515 2.603
3674.703 2.525 3.4179 3.6112 2.991 3.2143 3.29646 3.021 3.27454 4.0011 4.42
3693.993 4.2572 3.8217 3.105 2.91 3.8363 3.9885 3.8083 3.9109 3.8478 3.5705
3713.282 3.4501 3.6992 3.164 2.967 3.237 3.7368 4.2473 4.1297 3.4216 3.153
3732.572 2.922 3.086 2.968 3.099 3.4841 3.4554 4.3 4.225 4.1899 4.73
3751.862 4.66 4.53 4.1723 4.1373 3.9661 3.7978 3.4502 3.055 3.4912 3.3871
3771.152 3.6556 3.5385 3.35019 3.4461 3.222 3.8529 4.52 3.9717 3.108 2.948
3790.441 3.051 3.29809 3.2027 3.4109 3.5343 3.7198 3.7958 3.2559 2.857 3.004
3809.731 3.5793 3.9861 3.7962 3.5349 3.9819 4.0469 3.4705 3.3855 3.8511 3.3826
3829.021 2.946 3.6263 3.5645 3.34147 3.6797 3.31846 3.7425 4.1889 4.1721 4.1218
3848.311 3.6767 3.35236 3.2556 3.6263 3.906 4.46 4.0271 3.26685 4.32 4.34
3867.601 3.8916 4.67 4.71 3.7908 3.372 3.6824 4.029 3.9291 3.8305 3.8025
3886.890 3.4067 3.3776 3.068 3.3847 3.3988 3.28949 3.7199 2.935 3.025 3.7658
3906.180 3.4612 3.8498 3.9605 3.32919 3.7582 4.0248 3.5947 3.5452 3.8569 3.5005
3925.470 2.931 3.3856 3.875 3.7363 3.4685 3.6861 3.9202 3.5603 2.927 3.097
3944.760 4.005 4.0843 3.8423 3.4289 2.745 3.001 3.7273 3.4692 3.735 3.9045
3964.049 3.4815 3.2325 3.8853 4.59 4.0349 3.9686 4.29 3.8666 3.14 3.3477
3983.339 3.8069 3.7759 3.28428 2.934 3.005 2.949 2.938 3.2463 3.661 3.8917
##END=
