##TITLE=2-Methoxy-4-nitrophenyl isothiocyanate
##JCAMP-DX=4.24
##DATA TYPE=INFRARED SPECTRUM
##ORIGIN=EPA-IR VAPOR PHASE LIBRARY
##OWNER=SRD/NIST
Collection (C) 2018 copyright by the U.S. Secretary of Commerce
on behalf of the United States of America. All rights reserved.
##CAS REGISTRY NO=190774-55-1
##MOLFORM=C 8 H 6 N 2 O 3 S
##$NIST SOURCE=MSDC-IR
##STATE=gas
##XUNITS=1/CM
##YUNITS=ABSORBANCE
##XFACTOR=1.
##YFACTOR=0.001
##DELTAX=1.92898
##FIRSTX=549.8
##LASTX=4000.7
##FIRSTY=3.019
##MAXX=4000.7
##MINX=549.759
##MAXY=0.098929
##MINY=0
##NPOINTS=1790
##XYDATA=(X++(Y..Y))
549.759 3.019 2.649 2.699 2.389 2.169 2.559 2.949 2.899 2.739 2.789
569.049 2.649 2.349 2.409 2.799 2.739 2.399 2.219 2.299 2.439 2.379
588.339 2.539 2.429 2.149 2.329 2.689 2.689 2.489 2.569 2.539 2.459
607.628 2.469 2.359 2.409 2.589 2.539 2.499 2.369 2.319 2.519 2.479
626.918 2.329 2.419 2.499 2.409 2.339 2.519 2.799 2.879 3.049 3.299
646.208 3.279 3.219 3.229 3.219 3.239 3.109 3.019 2.949 2.939 2.879
665.498 3.219 4.879 4.599 2.919 2.519 2.409 2.389 2.469 2.539 2.509
684.787 2.469 2.489 2.479 2.219 2.089 2.199 2.079 2.029 1.889 1.649
704.077 1.469 1.174 1.0632 1.0979 0.8764 0.7623 0.8847 0.8167 0.7739 0.7462
723.367 0.8289 1.0204 1.0505 0.7954 0.8394 0.9361 0.8849 1.0142 1.0049 1.1647
742.657 1.1661 1.218 1.296 1.2392 1.3088 1.3075 1.368 1.4387 1.4341 1.4483
761.947 1.3364 1.1798 1.1071 1.0666 1.0064 1.2145 1.3495 1.2885 1.387 1.4577
781.236 1.609 1.919 2.309 2.679 3.039 3.809 4.999 6.099 7.099 8.049
800.526 8.889 9.219 9.439 9.589 9.139 8.859 8.829 8.779 8.769 8.789
819.816 8.709 8.759 8.769 8.609 7.929 6.779 5.699 4.869 4.209 3.439
839.106 2.919 2.759 2.499 2.349 2.469 2.699 2.899 2.989 3.289 3.419
858.395 3.429 3.379 3.199 3.209 3.179 3.289 3.219 2.989 3.039 3.199
877.685 3.359 3.439 3.499 3.449 3.409 3.329 3.239 3.229 3.219 3.109
896.975 2.839 2.549 2.379 2.459 2.419 2.319 2.299 2.249 2.239 2.249
916.265 2.129 1.879 1.779 1.839 1.829 1.869 2.109 2.409 2.519 2.739
935.555 3.129 3.569 4.129 4.769 5.519 6.219 6.899 7.339 7.419 7.289
954.844 6.989 6.469 5.769 5.259 4.559 3.899 3.599 3.229 3.009 2.899
974.134 2.669 2.399 2.269 2.189 2.039 1.869 1.839 1.889 1.929 1.939
993.424 1.909 1.919 1.789 1.769 1.869 1.919 2.309 2.559 2.619 2.859
1012.714 3.109 3.579 4.079 4.479 5.039 5.899 6.839 7.519 8.449 9.729
1032.003 10.579 10.919 11.009 11.029 10.619 9.789 8.649 7.439 6.299 5.289
1051.293 4.349 3.989 3.919 3.469 3.419 3.519 3.799 4.159 4.689 5.199
1070.583 5.699 6.369 6.719 6.959 6.689 5.829 5.109 5.029 4.569 4.169
1089.873 3.579 2.439 2.059 2.379 2.609 2.489 2.469 2.229 2.239 2.519
1109.163 2.289 1.939 2.019 1.929 1.809 1.869 2.059 2.449 2.429 2.069
1128.452 2.389 2.799 2.889 3.239 3.399 3.639 3.759 3.719 3.859 3.579
1147.742 3.389 3.619 3.559 3.349 3.369 3.749 4.199 4.459 4.459 4.399
1167.032 4.669 4.969 5.059 5.169 5.339 5.159 5.059 5.289 5.189 4.859
1186.322 4.749 4.379 4.089 4.259 4.169 4.109 4.159 4.389 4.859 5.149
1205.611 5.609 6.409 7.369 8.439 10.129 12.229 14.749 17.699 20.439 23.169
1224.901 24.899 25.869 25.739 24.299 21.959 18.539 15.249 12.599 10.599 9.549
1244.191 8.959 8.739 9.189 9.869 10.539 11.649 12.989 14.139 15.479 16.739
1263.481 17.869 19.189 20.709 22.459 24.299 25.789 26.829 27.119 26.459 25.219
1282.771 23.679 21.919 20.379 19.559 19.269 19.279 19.409 19.519 19.519 19.529
1302.060 19.549 19.669 19.859 19.929 19.909 19.729 19.269 18.459 17.439 16.209
1321.350 14.899 13.719 12.649 11.899 11.449 11.259 11.379 11.769 12.389 13.099
1340.640 13.869 14.699 15.489 16.119 16.429 16.459 16.149 15.479 14.559 13.349
1359.930 11.949 10.499 9.179 8.099 7.149 6.379 5.799 5.329 4.899 4.579
1379.219 4.349 4.159 3.989 3.839 3.699 3.599 3.519 3.489 3.449 3.449
1398.509 3.489 3.599 3.639 3.669 3.889 4.099 4.289 4.509 4.699 4.879
1417.799 5.079 5.269 5.419 5.549 5.679 5.819 6.009 6.179 6.449 6.829
1437.089 7.319 7.959 8.609 9.279 9.809 9.919 9.669 9.369 8.839 8.199
1456.378 7.839 7.849 8.159 8.599 9.209 9.789 10.109 10.369 10.659 10.949
1475.668 11.239 11.719 12.669 14.209 16.309 18.979 22.399 26.399 30.609 34.489
1494.958 37.509 39.369 39.669 38.389 35.819 32.429 28.709 25.409 22.969 21.319
1514.248 20.189 19.439 19.099 18.969 19.019 19.249 19.579 20.099 20.879 21.829
1533.538 23.049 24.819 27.019 29.769 33.009 36.459 39.849 42.559 44.079 44.179
1552.827 42.879 40.399 37.139 33.549 30.449 28.459 27.259 26.589 26.229 25.779
1572.117 25.009 23.829 22.029 19.929 17.769 15.669 13.809 12.209 10.959 9.859
1591.407 8.899 8.039 7.309 6.779 6.379 6.009 5.769 5.649 5.649 5.659
1610.697 5.609 5.629 5.569 5.499 5.399 5.219 4.949 4.689 4.399 3.999
1629.986 3.619 3.299 3.029 2.819 2.749 2.579 2.329 2.269 2.259 2.159
1649.276 1.969 1.749 1.649 1.589 1.519 1.4179 1.3474 1.2293 1.1481 1.1768
1668.566 1.1404 1.059 0.9933 0.9667 0.906 0.8094 0.8381 0.8962 0.8726 0.8554
1687.856 0.8482 0.8778 0.8833 0.9037 0.9239 0.8955 0.8999 0.924 0.9652 0.9589
1707.146 0.8917 0.8636 0.844 0.7504 0.6637 0.6042 0.6143 0.6617 0.6748 0.6992
1726.435 0.6875 0.6107 0.614 0.6696 0.7175 0.8012 0.8526 0.908 1.0043 1.0875
1745.725 1.1412 1.2051 1.2586 1.292 1.3944 1.4323 1.479 1.609 1.709 1.869
1765.015 2.099 2.329 2.579 2.889 3.169 3.329 3.409 3.399 3.339 3.199
1784.305 2.989 2.769 2.669 2.679 2.719 2.849 2.979 3.059 3.069 2.979
1803.594 2.839 2.589 2.289 1.969 1.669 1.489 1.3909 1.3616 1.3757 1.3594
1822.884 1.3739 1.3542 1.2841 1.2688 1.2946 1.3076 1.3181 1.3638 1.4512 1.499
1842.174 1.499 1.539 1.529 1.469 1.539 1.609 1.599 1.559 1.579 1.639
1861.464 1.689 1.749 1.779 1.789 1.789 1.809 1.879 1.939 1.969 2.049
1880.754 2.109 2.159 2.229 2.339 2.409 2.509 2.599 2.709 2.879 2.969
1900.043 2.989 3.039 3.139 3.179 3.239 3.339 3.409 3.499 3.589 3.629
1919.333 3.729 3.899 4.109 4.259 4.429 4.659 4.839 4.989 5.229 5.469
1938.623 5.719 6.069 6.369 6.709 7.109 7.459 7.839 8.259 8.699 9.209
1957.913 9.779 10.379 11.059 11.719 12.399 13.219 14.059 14.909 15.859 16.829
1977.202 17.749 18.839 19.979 21.049 22.299 23.639 24.959 26.429 27.969 29.529
1996.492 31.199 32.929 34.819 36.829 38.899 41.099 43.439 45.829 48.269 50.739
2015.782 53.269 55.949 58.629 61.249 63.979 66.839 69.769 72.889 76.149 79.439
2035.072 82.799 86.249 89.639 92.709 95.349 97.509 98.799 98.929 98.049 96.119
2054.362 93.389 90.239 86.569 82.649 78.829 75.369 72.189 69.219 66.579 64.209
2073.651 62.229 60.679 59.499 58.629 58.049 57.779 57.749 57.779 57.689 57.429
2092.941 56.949 56.119 54.879 53.219 51.149 48.799 46.259 43.449 40.689 38.049
2112.231 35.569 33.389 31.279 29.369 27.869 26.489 25.339 24.519 23.819 23.239
2131.521 22.749 22.299 21.899 21.469 20.989 20.429 19.769 19.059 18.299 17.429
2150.810 16.519 15.709 14.909 14.059 13.279 12.539 11.779 11.099 10.529 9.939
2170.100 9.459 9.059 8.619 8.279 7.989 7.659 7.329 7.039 6.829 6.589
2189.390 6.379 6.249 6.169 6.159 6.079 6.009 6.019 5.999 5.969 5.989
2208.680 6.079 6.099 6.099 6.029 5.959 5.959 5.939 5.989 6.049 6.069
2227.970 6.149 6.259 6.309 6.419 6.709 7.139 7.529 7.899 8.359 8.909
2247.259 9.479 10.069 10.589 11.069 11.539 11.779 11.869 11.969 11.959 11.949
2266.549 11.939 11.769 11.539 11.329 11.119 10.869 10.569 10.169 9.709 9.249
2285.839 8.849 8.459 8.009 7.519 7.129 6.779 6.519 6.339 6.129 6.059
2305.129 6.039 5.939 5.969 6.089 6.129 6.219 6.329 6.399 6.459 6.589
2324.418 6.619 6.479 6.479 6.419 6.299 6.159 5.999 5.929 5.939 5.859
2343.708 5.629 5.359 4.979 4.939 5.409 5.989 6.559 7.009 7.279 7.499
2362.998 7.629 7.529 7.249 6.929 6.479 5.959 5.339 4.729 4.109 3.459
2382.288 2.879 2.449 2.029 1.689 1.539 1.3817 1.2739 1.2699 1.2382 1.2612
2401.578 1.3014 1.2687 1.1484 1.0386 1.0517 1.0996 1.0362 1.0205 1.0374 0.9792
2420.867 1.0473 1.1296 1.1153 1.0894 1.0074 0.9535 1.0237 1.0815 1.0351 1.0327
2440.157 1.037 1.043 1.0451 1.0306 1.0768 1.0487 1.071 1.0871 1.0283 1.0028
2459.447 0.9031 0.8606 0.9507 0.9806 0.9044 0.8775 0.8895 0.9148 0.9809 0.9349
2478.737 0.9128 0.9076 0.931 1.0409 1.0308 1.032 1.0501 1.0424 0.9844 0.9546
2498.026 1.0899 1.08 1.0922 1.2226 1.2942 1.4588 1.509 1.4393 1.479 1.459
2517.316 1.4401 1.416 1.4458 1.499 1.489 1.479 1.4036 1.4026 1.499 1.509
2536.606 1.559 1.599 1.499 1.459 1.539 1.559 1.509 1.509 1.479 1.4538
2555.896 1.4156 1.3914 1.3431 1.2878 1.347 1.4104 1.3744 1.3403 1.3535 1.3225
2575.186 1.3369 1.3975 1.3561 1.3242 1.3261 1.2575 1.1614 1.0754 0.9588 0.9353
2594.475 0.9853 1.0481 1.1106 1.0875 1.0089 0.9125 0.8818 0.9449 0.9169 0.8354
2613.765 0.8575 0.9288 0.9503 0.8823 0.8675 0.8902 0.927 0.9122 0.8604 0.923
2633.055 0.9172 0.8765 0.9652 1.0052 1.0344 1.0324 1.0909 1.1058 1.0389 1.0568
2652.345 1.0412 1.0516 1.0134 0.9393 0.905 0.9534 1.0586 1.102 1.0752 1.0445
2671.634 1.022 1.0652 1.1301 1.2018 1.1933 1.1608 1.1872 1.1847 1.2491 1.3446
2690.924 1.3938 1.4298 1.4344 1.3486 1.3819 1.469 1.4301 1.4325 1.4157 1.3917
2710.214 1.469 1.4478 1.3922 1.3288 1.2543 1.2769 1.1892 1.2114 1.2921 1.1626
2729.504 1.0899 1.0886 1.1277 1.0891 0.9982 1.0672 1.141 1.0476 1.0009 1.0142
2748.794 0.9918 0.9504 0.8764 0.8958 0.9588 0.9501 0.9649 0.9445 0.9225 0.9377
2768.083 0.9227 0.947 0.8822 0.864 0.8818 0.834 0.9104 0.9063 0.8061 0.878
2787.373 0.9295 0.9329 0.9464 1.0082 1.0613 0.9948 0.9509 0.9953 1.0895 1.1625
2806.663 1.0654 1.0427 1.0947 1.0768 1.0906 1.1543 1.2812 1.3508 1.3215 1.3233
2825.953 1.4069 1.519 1.619 1.739 1.799 1.899 2.249 2.669 2.929 3.239
2845.242 3.589 3.889 4.119 4.179 4.139 3.959 3.689 3.249 2.839 2.529
2864.532 2.389 2.359 2.189 2.009 1.919 1.889 1.969 1.889 1.799 1.799
2883.822 1.819 1.889 1.909 2.009 2.019 2.009 2.119 2.179 2.269 2.349
2903.112 2.459 2.609 2.769 2.829 2.859 3.039 3.139 3.069 3.039 3.199
2922.401 3.259 3.139 3.099 3.249 3.179 3.119 3.319 3.549 3.849 4.229
2941.691 4.669 4.979 5.259 5.519 5.719 5.759 5.739 5.689 5.409 5.179
2960.981 4.999 4.889 4.809 4.649 4.509 4.409 4.209 3.869 3.549 3.319
2980.271 3.039 2.829 2.679 2.429 2.359 2.359 2.249 2.099 2.049 2.169
2999.561 2.259 2.359 2.539 2.679 2.959 3.289 3.569 3.919 4.399 4.719
3018.850 4.779 4.599 4.189 3.769 3.259 2.689 2.259 1.919 1.649 1.539
3038.140 1.469 1.4578 1.3942 1.3454 1.3629 1.267 1.2914 1.3449 1.2875 1.2714
3057.430 1.3011 1.2514 1.2544 1.1616 1.196 1.3673 1.2801 1.2005 1.1935 1.1642
3076.720 1.2332 1.2803 1.2805 1.3086 1.3103 1.4239 1.499 1.376 1.3495 1.4141
3096.009 1.402 1.3135 1.1502 1.0689 1.0244 0.9661 0.9267 0.8023 0.7029 0.74
3115.299 0.6096 0.6192 0.6806 0.55713 0.6218 0.6908 0.7254 0.7634 0.6441 0.55779
3134.589 0.47423 0.321 0.291 0.255 0.296 0.4206 0.322 0.286 0.315 0.3816
3153.879 0.299 0.163 0.263 0.297 0.246 0.291 0.458305 0.458382 0.333 0.31
3173.169 0.309 0.199 0.283 0.3979 0.342 0.233 0.187 0.296 0.376 0.305
3192.458 0.186 0.153 0.16 0.176 0.164 0.236 0.244 0.127 0.126 0.208
3211.748 0.15 0.042 0.102 0.177 0.107 0.074 0.114 0.186 0.296 0.291
3231.038 0.217 0.148 0.155 0.143 0.294 0.4041 0.241 0.254 0.275 0.181
3250.328 0.207 0.144 0.053 0.147 0.107 0.072 0.086 0.023 0.059 0.05
3269.617 0.141 0.095 0.109 0.216 0.109 0.023 0.063 0.233 0.198 0.089
3288.907 0.18 0.281 0.169 0.146 0.227 0.231 0.263 0.237 0.118 0.118
3308.197 0.161 0.191 0.181 0.154 0.099 0.064 0.083 0.118 0.207 0.304
3327.487 0.27 0.194 0.196 0.19 0.249 0.146 0.058 0.256 0.3629 0.229
3346.777 0.124 0.047 0.073 0.232 0.149 0.046 0.133 0.145 0.159 0.17
3366.066 0.284 0.292 0.193 0.262 0.202 0.12 0.132 0 0.024 0.16
3385.356 0.219 0.239 0.164 0.122 0.092 0.084 0.186 0.315 0.351 0.35
3404.646 0.339 0.48611 0.50716 0.239 0.134 0.262 0.343 0.167 0.028 0.226
3423.936 0.321 0.342 0.308 0.183 0.311 0.276 0.158 0.251 0.223 0.108
3443.225 0.222 0.4259 0.47917 0.48912 0.301 0.175 0.168 0.035 0.009 0.241
3462.515 0.49674 0.348 0.083 0.08 0.309 0.351 0.268 0.235 0.126 0.202
3481.805 0.212 0.147 0.169 0.142 0.15 0.27 0.271 0.324 0.467257 0.52619
3501.095 0.459323 0.3652 0.3982 0.4187 0.4352 0.49378 0.48962 0.3795 0.3884 0.282
3520.385 0.244 0.38 0.3774 0.302 0.262 0.31 0.202 0.095 0.143 0.185
3539.674 0.271 0.378 0.345 0.18 0.205 0.252 0.151 0.215 0.244 0.201
3558.964 0.284 0.3817 0.251 0.283 0.348 0.222 0.182 0.269 0.49225 0.4164
3578.254 0.175 0.1 0.188 0.259 0.248 0.288 0.227 0.241 0.292 0.27
3597.544 0.286 0.257 0.3 0.4362 0.4295 0.283 0.32 0.3658 0.285 0.322
3616.833 0.319 0.31 0.359 0.247 0.194 0.318 0.314 0.332 0.328 0.242
3636.123 0.265 0.2 0.227 0.288 0.343 0.422 0.346 0.221 0.169 0.231
3655.413 0.23 0.173 0.246 0.317 0.35 0.324 0.245 0.127 0.114 0.355
3674.703 0.326 0.107 0.074 0.216 0.334 0.429 0.3833 0.314 0.356 0.4489
3693.993 0.4374 0.307 0.3691 0.4206 0.303 0.329 0.4155 0.334 0.317 0.3901
3713.282 0.4242 0.345 0.3894 0.4182 0.4078 0.4059 0.3989 0.50772 0.5665 0.5631
3732.572 0.5626 0.4085 0.327 0.3614 0.3954 0.4052 0.296 0.3713 0.3885 0.3874
3751.862 0.3683 0.289 0.3729 0.3789 0.4428 0.51207 0.3797 0.342 0.48636 0.4325
3771.152 0.291 0.287 0.3644 0.275 0.3945 0.4467 0.237 0.194 0.321 0.460268
3790.441 0.48594 0.3699 0.32 0.48082 0.4421 0.4355 0.4975 0.50831 0.4343 0.3793
3809.731 0.395 0.282 0.171 0.156 0.217 0.153 0.108 0.138 0.098 0.102
3829.021 0.122 0.098 0.147 0.276 0.321 0.321 0.297 0.341 0.299 0.294
3848.311 0.3734 0.4049 0.3636 0.237 0.207 0.183 0.253 0.318 0.3761 0.47639
3867.601 0.4321 0.322 0.322 0.347 0.4307 0.354 0.206 0.3662 0.4313 0.274
3886.890 0.309 0.334 0.342 0.463579 0.4445 0.32 0.234 0.34 0.321 0.338
3906.180 0.3608 0.304 0.277 0.251 0.358 0.45029 0.4181 0.353 0.4429 0.5586
3925.470 0.3873 0.255 0.338 0.3805 0.4309 0.52612 0.567 0.357 0.184 0.332
3944.760 0.5798 0.5841 0.467525 0.45719 0.47214 0.3949 0.4323 0.47366 0.347 0.3623
3964.049 0.4146 0.468591 0.4464 0.3843 0.4297 0.462061 0.48942 0.6012 0.53069 0.51359
3983.339 0.6713 0.7105 0.6663 0.5947 0.5776 0.7215 0.858 0.6605 0.51137 0.564
##END=
