##TITLE=N-n-Butyl-p-Toluenesulfonamide
##JCAMP-DX=4.24
$$ By DXEDIT 1.05 (RS McDonald)
##DATA TYPE=INFRARED SPECTRUM
##CLASS=COBLENTZ II
##ORIGIN=DOW CHEMICAL COMPANY
##OWNER=COPYRIGHT (C) 1988 by COBLENTZ SOCIETY INC.
Collection (C) 2018 copyright by the U.S. Secretary of Commerce
on behalf of the United States of America. All rights reserved.
##DATE=1964/05/13
##NAMES=1-([(butylamino)oxy]sulfinyl)-4-methylbenzene
##CAS REGISTRY NO=1907-65-9
##MOLFORM=C11 H17 N O2 S
##MP=41 C
##SOURCE REFERENCE=COBLENTZ NO. 06069
##$NIST SOURCE=COBLENTZ
##$NIST IMAGE=cob6069
##SPECTROMETER/DATA SYSTEM=DOW KBr FOREPRISM-GRATING
##INSTRUMENT PARAMETERS=BLAZED AT 3.5, 12.0, 20.0 MICRON AND CHANGED AT 5.0, 7.5, 14.9 MICRON
##STATE=SOLID (SPLIT MULL)
##SAMPLING PROCEDURE=TRANSMISSION
##RESOLUTION=2
##DATA PROCESSING=DIGITIZED BY COBLENTZ SOCIETY (BATCH I) FROM HARD COPY
##XUNITS=1/CM
##YUNITS=TRANSMITTANCE
##XFACTOR=1
##YFACTOR=1
##DELTAX=1
##FIRSTX=3800
##LASTX=453
##FIRSTY=0.71
##MAXX=3800
##MINX=453
##MAXY=0.9123
##MINY=0.1196
##NPOINTS=3348
##XYDATA=(X++(Y..Y))
3800.000000 0.7100 0.7101 0.7101 0.7104 0.7106
3795.000000 0.7108 0.7110 0.7111 0.7114 0.7115
3790.000000 0.7118 0.7121 0.7122 0.7125 0.7126
3785.000000 0.7128 0.7131 0.7133 0.7135 0.7137
3780.000000 0.7140 0.7142 0.7144 0.7146 0.7148
3775.000000 0.7150 0.7151 0.7154 0.7157 0.7158
3770.000000 0.7161 0.7162 0.7165 0.7167 0.7168
3765.000000 0.7171 0.7172 0.7175 0.7178 0.7180
3760.000000 0.7182 0.7183 0.7185 0.7186 0.7188
3755.000000 0.7190 0.7192 0.7193 0.7195 0.7196
3750.000000 0.7198 0.7199 0.7201 0.7203 0.7205
3745.000000 0.7206 0.7208 0.7208 0.7211 0.7211
3740.000000 0.7214 0.7215 0.7217 0.7218 0.7219
3735.000000 0.7219 0.7221 0.7221 0.7221 0.7221
3730.000000 0.7221 0.7221 0.7221 0.7221 0.7221
3725.000000 0.7221 0.7221 0.7221 0.7221 0.7221
3720.000000 0.7222 0.7224 0.7225 0.7226 0.7228
3715.000000 0.7231 0.7234 0.7237 0.7241 0.7245
3710.000000 0.7249 0.7251 0.7256 0.7258 0.7262
3705.000000 0.7267 0.7271 0.7274 0.7278 0.7278
3700.000000 0.7278 0.7278 0.7275 0.7271 0.7265
3695.000000 0.7258 0.7251 0.7244 0.7237 0.7231
3690.000000 0.7225 0.7221 0.7215 0.7215 0.7217
3685.000000 0.7221 0.7226 0.7234 0.7242 0.7249
3680.000000 0.7257 0.7264 0.7271 0.7278 0.7287
3675.000000 0.7294 0.7301 0.7307 0.7311 0.7315
3670.000000 0.7321 0.7325 0.7330 0.7334 0.7339
3665.000000 0.7338 0.7338 0.7337 0.7337 0.7337
3660.000000 0.7337 0.7336 0.7336 0.7335 0.7335
3655.000000 0.7335 0.7335 0.7333 0.7331 0.7328
3650.000000 0.7325 0.7324 0.7321 0.7318 0.7317
3645.000000 0.7314 0.7311 0.7310 0.7308 0.7305
3640.000000 0.7303 0.7300 0.7298 0.7298 0.7298
3635.000000 0.7300 0.7301 0.7303 0.7305 0.7307
3630.000000 0.7308 0.7310 0.7311 0.7312 0.7315
3625.000000 0.7317 0.7318 0.7321 0.7324 0.7326
3620.000000 0.7331 0.7334 0.7337 0.7340 0.7344
3615.000000 0.7347 0.7351 0.7354 0.7358 0.7361
3610.000000 0.7365 0.7365 0.7368 0.7368 0.7371
3605.000000 0.7371 0.7374 0.7375 0.7376 0.7378
3600.000000 0.7380 0.7381 0.7383 0.7384 0.7385
3595.000000 0.7386 0.7388 0.7389 0.7391 0.7392
3590.000000 0.7394 0.7395 0.7396 0.7397 0.7398
3585.000000 0.7399 0.7400 0.7401 0.7401 0.7401
3580.000000 0.7403 0.7404 0.7405 0.7406 0.7407
3575.000000 0.7408 0.7408 0.7410 0.7411 0.7411
3570.000000 0.7414 0.7415 0.7417 0.7418 0.7418
3565.000000 0.7419 0.7421 0.7421 0.7422 0.7422
3560.000000 0.7421 0.7421 0.7419 0.7418 0.7418
3555.000000 0.7417 0.7415 0.7414 0.7412 0.7411
3550.000000 0.7410 0.7408 0.7406 0.7404 0.7401
3545.000000 0.7400 0.7398 0.7396 0.7396 0.7395
3540.000000 0.7397 0.7400 0.7403 0.7405 0.7408
3535.000000 0.7411 0.7414 0.7417 0.7419 0.7421
3530.000000 0.7425 0.7425 0.7425 0.7425 0.7425
3525.000000 0.7424 0.7424 0.7422 0.7422 0.7422
3520.000000 0.7422 0.7421 0.7421 0.7421 0.7421
3515.000000 0.7421 0.7421 0.7421 0.7421 0.7421
3510.000000 0.7421 0.7421 0.7422 0.7422 0.7424
3505.000000 0.7424 0.7425 0.7425 0.7425 0.7426
3500.000000 0.7428 0.7428 0.7428 0.7428 0.7430
3495.000000 0.7430 0.7431 0.7432 0.7433 0.7434
3490.000000 0.7435 0.7435 0.7436 0.7437 0.7438
3485.000000 0.7439 0.7440 0.7441 0.7442 0.7442
3480.000000 0.7443 0.7444 0.7445 0.7446 0.7447
3475.000000 0.7448 0.7449 0.7449 0.7450 0.7451
3470.000000 0.7451 0.7451 0.7453 0.7453 0.7454
3465.000000 0.7454 0.7455 0.7455 0.7456 0.7456
3460.000000 0.7457 0.7458 0.7460 0.7480 0.7501
3455.000000 0.7510 0.7519 0.7525 0.7530 0.7531
3450.000000 0.7533 0.7533 0.7534 0.7534 0.7534
3445.000000 0.7533 0.7533 0.7532 0.7532 0.7532
3440.000000 0.7532 0.7531 0.7531 0.7530 0.7530
3435.000000 0.7530 0.7531 0.7531 0.7531 0.7531
3430.000000 0.7532 0.7532 0.7532 0.7532 0.7533
3425.000000 0.7533 0.7533 0.7532 0.7531 0.7530
3420.000000 0.7530 0.7528 0.7528 0.7530 0.7532
3415.000000 0.7534 0.7536 0.7538 0.7540 0.7542
3410.000000 0.7544 0.7546 0.7548 0.7550 0.7551
3405.000000 0.7553 0.7555 0.7556 0.7557 0.7558
3400.000000 0.7558 0.7560 0.7561 0.7561 0.7562
3395.000000 0.7564 0.7565 0.7565 0.7565 0.7567
3390.000000 0.7568 0.7568 0.7569 0.7571 0.7574
3385.000000 0.7575 0.7578 0.7581 0.7584 0.7586
3380.000000 0.7589 0.7591 0.7594 0.7597 0.7600
3375.000000 0.7603 0.7606 0.7608 0.7611 0.7615
3370.000000 0.7618 0.7621 0.7625 0.7628 0.7631
3365.000000 0.7634 0.7637 0.7638 0.7639 0.7640
3360.000000 0.7641 0.7642 0.7643 0.7644 0.7645
3355.000000 0.7645 0.7646 0.7646 0.7646 0.7646
3350.000000 0.7646 0.7646 0.7646 0.7646 0.7646
3345.000000 0.7650 0.7655 0.7658 0.7664 0.7668
3340.000000 0.7672 0.7676 0.7682 0.7686 0.7691
3335.000000 0.7696 0.7701 0.7705 0.7708 0.7712
3330.000000 0.7718 0.7721 0.7726 0.7731 0.7736
3325.000000 0.7737 0.7739 0.7740 0.7742 0.7743
3320.000000 0.7745 0.7746 0.7746 0.7746 0.7745
3315.000000 0.7743 0.7751 0.7740 0.7739 0.7737
3310.000000 0.7736 0.7728 0.7722 0.7715 0.7710
3305.000000 0.7703 0.7697 0.7689 0.7681 0.7671
3300.000000 0.7664 0.7655 0.7646 0.7637 0.7628
3295.000000 0.7615 0.7601 0.7586 0.7571 0.7557
3290.000000 0.7542 0.7517 0.7493 0.7468 0.7444
3285.000000 0.7408 0.7371 0.7158 0.6944 0.6781
3280.000000 0.6618 0.6548 0.6476 0.6421 0.6368
3275.000000 0.6302 0.6237 0.6206 0.6176 0.6149
3270.000000 0.6123 0.6106 0.6090 0.6067 0.6045
3265.000000 0.5858 0.5671 0.5326 0.4982 0.4637
3260.000000 0.4293 0.3948 0.3604 0.3259 0.2914
3255.000000 0.2569 0.2225 0.1968 0.1711 0.1711
3250.000000 0.1706 0.1739 0.1767 0.1957 0.2147
3245.000000 0.2335 0.2526 0.2715 0.2905 0.3095
3240.000000 0.3284 0.3474 0.3664 0.3853 0.4043
3235.000000 0.4233 0.4423 0.4810 0.5198 0.5288
3230.000000 0.5378 0.5439 0.5501 0.5562 0.5623
3225.000000 0.5683 0.5743 0.5801 0.5860 0.5910
3220.000000 0.5960 0.5997 0.6033 0.6068 0.6104
3215.000000 0.6140 0.6176 0.6210 0.6247 0.6280
3210.000000 0.6312 0.6341 0.6369 0.6397 0.6425
3205.000000 0.6453 0.6481 0.6507 0.6533 0.6554
3200.000000 0.6575 0.6597 0.6618 0.6639 0.6660
3195.000000 0.6681 0.6701 0.6719 0.6739 0.6757
3190.000000 0.6775 0.6794 0.6812 0.6831 0.6849
3185.000000 0.6867 0.6885 0.6903 0.6921 0.6935
3180.000000 0.6949 0.6957 0.6965 0.6974 0.6982
3175.000000 0.6990 0.6998 0.7005 0.7012 0.7017
3170.000000 0.7021 0.7024 0.7028 0.7031 0.7035
3165.000000 0.7035 0.7035 0.7032 0.7030 0.7028
3160.000000 0.7025 0.7024 0.7022 0.7021 0.7018
3155.000000 0.7017 0.7015 0.7012 0.7011 0.7017
3150.000000 0.7022 0.7033 0.7043 0.7051 0.7061
3145.000000 0.7074 0.7086 0.7099 0.7111 0.7125
3140.000000 0.7138 0.7151 0.7164 0.7176 0.7190
3135.000000 0.7201 0.7211 0.7222 0.7234 0.7245
3130.000000 0.7256 0.7265 0.7276 0.7288 0.7299
3125.000000 0.7310 0.7321 0.7331 0.7342 0.7349
3120.000000 0.7357 0.7364 0.7371 0.7378 0.7385
3115.000000 0.7391 0.7398 0.7405 0.7411 0.7418
3110.000000 0.7425 0.7433 0.7440 0.7444 0.7449
3105.000000 0.7453 0.7457 0.7461 0.7465 0.7469
3100.000000 0.7475 0.7478 0.7483 0.7486 0.7489
3095.000000 0.7492 0.7495 0.7497 0.7500 0.7503
3090.000000 0.7506 0.7508 0.7511 0.7512 0.7515
3085.000000 0.7518 0.7519 0.7521 0.7524 0.7525
3080.000000 0.7528 0.7528 0.7531 0.7531 0.7531
3075.000000 0.7531 0.7531 0.7531 0.7531 0.7528
3070.000000 0.7526 0.7518 0.7511 0.7498 0.7485
3065.000000 0.7471 0.7458 0.7448 0.7438 0.7432
3060.000000 0.7426 0.7428 0.7428 0.7428 0.7430
3055.000000 0.7430 0.7430 0.7425 0.7421 0.7415
3050.000000 0.7410 0.7408 0.7408 0.7408 0.7408
3045.000000 0.7421 0.7433 0.7447 0.7461 0.7475
3040.000000 0.7491 0.7501 0.7514 0.7522 0.7533
3035.000000 0.7543 0.7553 0.7556 0.7560 0.7562
3030.000000 0.7565 0.7568 0.7572 0.7575 0.7578
3025.000000 0.7583 0.7587 0.7591 0.7596 0.7600
3020.000000 0.7605 0.7608 0.7614 0.7618 0.7622
3015.000000 0.7626 0.7632 0.7638 0.7644 0.7650
3010.000000 0.7656 0.7661 0.7668 0.7674 0.7681
3005.000000 0.7686 0.7692 0.7696 0.7701 0.7705
3000.000000 0.7710 0.7714 0.7718 0.7718 0.7718
2995.000000 0.7732 0.7736 0.7728 0.7721 0.7715
2990.000000 0.7708 0.7696 0.7685 0.7667 0.7649
2985.000000 0.7608 0.7568 0.6748 0.5928 0.5920
2980.000000 0.5912 0.5903 0.5895 0.5884 0.5873
2975.000000 0.5862 0.5852 0.5843 0.5835 0.5759
2970.000000 0.5683 0.5585 0.5452 0.5474 0.5460
2965.000000 0.5572 0.5683 0.5831 0.5979 0.6127
2960.000000 0.6275 0.6314 0.6354 0.6360 0.6366
2955.000000 0.6371 0.6408 0.6326 0.6277 0.6127
2950.000000 0.5977 0.5827 0.5678 0.5585 0.5492
2945.000000 0.5419 0.5347 0.5296 0.5245 0.5238
2940.000000 0.5191 0.5228 0.5224 0.5222 0.5221
2935.000000 0.5351 0.5482 0.5607 0.5733 0.5788
2930.000000 0.5843 0.5896 0.5950 0.6004 0.6058
2925.000000 0.6106 0.6154 0.6201 0.6248 0.6294
2920.000000 0.6341 0.6376 0.6411 0.6446 0.6481
2915.000000 0.6515 0.6551 0.6578 0.6606 0.6633
2910.000000 0.6660 0.6687 0.6714 0.6736 0.6758
2905.000000 0.6780 0.6801 0.6825 0.6849 0.6868
2900.000000 0.6889 0.6907 0.6925 0.6941 0.6956
2895.000000 0.6957 0.6958 0.6960 0.6961 0.6962
2890.000000 0.6997 0.6965 0.6967 0.6968 0.6968
2885.000000 0.6950 0.6931 0.6894 0.6858 0.6369
2880.000000 0.5880 0.5842 0.5804 0.5785 0.5766
2875.000000 0.5750 0.5735 0.5722 0.5709 0.5695
2870.000000 0.5660 0.5679 0.5677 0.5676 0.5676
2865.000000 0.5724 0.5773 0.5869 0.5965 0.6048
2860.000000 0.6132 0.6210 0.6290 0.6360 0.6431
2855.000000 0.6484 0.6538 0.6592 0.6646 0.6697
2850.000000 0.6749 0.6800 0.6851 0.6886 0.6921
2845.000000 0.6953 0.6984 0.7015 0.7046 0.7076
2840.000000 0.7108 0.7130 0.7151 0.7168 0.7186
2835.000000 0.7203 0.7219 0.7237 0.7255 0.7271
2830.000000 0.7289 0.7306 0.7322 0.7340 0.7358
2825.000000 0.7374 0.7391 0.7407 0.7422 0.7439
2820.000000 0.7456 0.7471 0.7489 0.7498 0.7508
2815.000000 0.7515 0.7522 0.7531 0.7539 0.7547
2810.000000 0.7555 0.7561 0.7569 0.7578 0.7586
2805.000000 0.7594 0.7601 0.7608 0.7617 0.7625
2800.000000 0.7633 0.7640 0.7647 0.7650 0.7654
2795.000000 0.7657 0.7661 0.7665 0.7668 0.7671
2790.000000 0.7675 0.7678 0.7683 0.7687 0.7691
2785.000000 0.7694 0.7698 0.7701 0.7705 0.7708
2780.000000 0.7712 0.7715 0.7719 0.7722 0.7726
2775.000000 0.7730 0.7734 0.7738 0.7742 0.7745
2770.000000 0.7749 0.7751 0.7756 0.7758 0.7762
2765.000000 0.7765 0.7769 0.7772 0.7776 0.7781
2760.000000 0.7785 0.7788 0.7792 0.7795 0.7799
2755.000000 0.7801 0.7806 0.7808 0.7812 0.7815
2750.000000 0.7818 0.7821 0.7825 0.7828 0.7832
2745.000000 0.7835 0.7839 0.7842 0.7845 0.7848
2740.000000 0.7851 0.7855 0.7858 0.7861 0.7864
2735.000000 0.7867 0.7871 0.7874 0.7876 0.7880
2730.000000 0.7884 0.7887 0.7890 0.7893 0.7897
2725.000000 0.7900 0.7903 0.7906 0.7908 0.7911
2720.000000 0.7915 0.7918 0.7921 0.7924 0.7926
2715.000000 0.7930 0.7933 0.7936 0.7939 0.7942
2710.000000 0.7945 0.7948 0.7951 0.7954 0.7957
2705.000000 0.7960 0.7964 0.7967 0.7969 0.7972
2700.000000 0.7975 0.7978 0.7982 0.7985 0.7988
2695.000000 0.7991 0.7994 0.7997 0.8000 0.8001
2690.000000 0.8005 0.8007 0.8010 0.8011 0.8015
2685.000000 0.8017 0.8019 0.8021 0.8025 0.8026
2680.000000 0.8030 0.8032 0.8035 0.8037 0.8040
2675.000000 0.8042 0.8045 0.8047 0.8050 0.8051
2670.000000 0.8055 0.8057 0.8060 0.8061 0.8065
2665.000000 0.8067 0.8069 0.8071 0.8074 0.8075
2660.000000 0.8075 0.8076 0.8078 0.8078 0.8081
2655.000000 0.8082 0.8083 0.8084 0.8085 0.8086
2650.000000 0.8088 0.8089 0.8090 0.8091 0.8093
2645.000000 0.8094 0.8095 0.8096 0.8097 0.8098
2640.000000 0.8100 0.8100 0.8101 0.8101 0.8101
2635.000000 0.8101 0.8101 0.8101 0.8101 0.8101
2630.000000 0.8103 0.8103 0.8104 0.8104 0.8104
2625.000000 0.8104 0.8105 0.8105 0.8105 0.8105
2620.000000 0.8105 0.8105 0.8104 0.8103 0.8101
2615.000000 0.8101 0.8100 0.8099 0.8098 0.8097
2610.000000 0.8096 0.8095 0.8095 0.8095 0.8096
2605.000000 0.8096 0.8097 0.8097 0.8098 0.8099
2600.000000 0.8100 0.8100 0.8101 0.8101 0.8101
2595.000000 0.8101 0.8103 0.8104 0.8106 0.8108
2590.000000 0.8110 0.8111 0.8114 0.8115 0.8118
2585.000000 0.8118 0.8121 0.8121 0.8124 0.8125
2580.000000 0.8125 0.8126 0.8128 0.8128 0.8128
2575.000000 0.8128 0.8128 0.8132 0.8135 0.8140
2570.000000 0.8146 0.8151 0.8157 0.8162 0.8168
2565.000000 0.8174 0.8180 0.8185 0.8191 0.8196
2560.000000 0.8202 0.8207 0.8212 0.8217 0.8223
2555.000000 0.8227 0.8231 0.8231 0.8231 0.8231
2550.000000 0.8231 0.8231 0.8232 0.8232 0.8232
2545.000000 0.8232 0.8232 0.8232 0.8232 0.8232
2540.000000 0.8232 0.8232 0.8233 0.8233 0.8233
2535.000000 0.8233 0.8233 0.8233 0.8233 0.8233
2530.000000 0.8234 0.8234 0.8235 0.8235 0.8236
2525.000000 0.8236 0.8237 0.8237 0.8237 0.8237
2520.000000 0.8238 0.8238 0.8239 0.8239 0.8240
2515.000000 0.8240 0.8241 0.8241 0.8241 0.8241
2510.000000 0.8242 0.8242 0.8243 0.8243 0.8244
2505.000000 0.8244 0.8245 0.8245 0.8246 0.8246
2500.000000 0.8247 0.8248 0.8250 0.8251 0.8252
2495.000000 0.8253 0.8255 0.8256 0.8257 0.8258
2490.000000 0.8260 0.8261 0.8262 0.8263 0.8265
2485.000000 0.8266 0.8267 0.8268 0.8270 0.8271
2480.000000 0.8271 0.8273 0.8275 0.8275 0.8277
2475.000000 0.8278 0.8280 0.8281 0.8282 0.8282
2470.000000 0.8283 0.8283 0.8284 0.8284 0.8285
2465.000000 0.8285 0.8286 0.8286 0.8287 0.8287
2460.000000 0.8287 0.8286 0.8285 0.8284 0.8284
2455.000000 0.8283 0.8283 0.8282 0.8282 0.8281
2450.000000 0.8281 0.8280 0.8280 0.8278 0.8278
2445.000000 0.8277 0.8277 0.8275 0.8275 0.8275
2440.000000 0.8275 0.8274 0.8274 0.8273 0.8271
2435.000000 0.8271 0.8271 0.8270 0.8270 0.8268
2430.000000 0.8268 0.8268 0.8268 0.8267 0.8267
2425.000000 0.8267 0.8267 0.8266 0.8266 0.8265
2420.000000 0.8265 0.8264 0.8264 0.8263 0.8263
2415.000000 0.8262 0.8262 0.8261 0.8261 0.8260
2410.000000 0.8259 0.8258 0.8258 0.8257 0.8257
2405.000000 0.8256 0.8256 0.8255 0.8255 0.8255
2400.000000 0.8256 0.8257 0.8259 0.8261 0.8263
2395.000000 0.8265 0.8267 0.8268 0.8271 0.8273
2390.000000 0.8275 0.8283 0.8291 0.8300 0.8309
2385.000000 0.8317 0.8325 0.8334 0.8343 0.8349
2380.000000 0.8356 0.8362 0.8368 0.8374 0.8380
2375.000000 0.8386 0.8392 0.8395 0.8399 0.8401
2370.000000 0.8403 0.8405 0.8407 0.8409 0.8411
2365.000000 0.8413 0.8415 0.8416 0.8418 0.8420
2360.000000 0.8421 0.8421 0.8421 0.8417 0.8412
2355.000000 0.8407 0.8402 0.8397 0.8392 0.8387
2350.000000 0.8383 0.8378 0.8373 0.8368 0.8363
2345.000000 0.8358 0.8353 0.8347 0.8342 0.8337
2340.000000 0.8332 0.8325 0.8321 0.8315 0.8310
2335.000000 0.8305 0.8300 0.8294 0.8289 0.8284
2330.000000 0.8278 0.8275 0.8271 0.8268 0.8264
2325.000000 0.8260 0.8257 0.8253 0.8249 0.8245
2320.000000 0.8242 0.8240 0.8239 0.8238 0.8238
2315.000000 0.8237 0.8237 0.8236 0.8235 0.8234
2310.000000 0.8234 0.8233 0.8233 0.8237 0.8242
2305.000000 0.8247 0.8253 0.8258 0.8264 0.8268
2300.000000 0.8275 0.8278 0.8283 0.8285 0.8288
2295.000000 0.8290 0.8293 0.8295 0.8298 0.8300
2290.000000 0.8303 0.8305 0.8308 0.8310 0.8313
2285.000000 0.8315 0.8318 0.8320 0.8323 0.8325
2280.000000 0.8327 0.8328 0.8332 0.8335 0.8338
2275.000000 0.8340 0.8343 0.8346 0.8349 0.8351
2270.000000 0.8354 0.8357 0.8360 0.8362 0.8365
2265.000000 0.8368 0.8371 0.8374 0.8377 0.8378
2260.000000 0.8382 0.8385 0.8388 0.8391 0.8395
2255.000000 0.8399 0.8403 0.8407 0.8411 0.8415
2250.000000 0.8418 0.8423 0.8427 0.8430 0.8434
2245.000000 0.8438 0.8442 0.8446 0.8451 0.8456
2240.000000 0.8462 0.8467 0.8473 0.8478 0.8484
2235.000000 0.8489 0.8494 0.8499 0.8505 0.8510
2230.000000 0.8516 0.8520 0.8525 0.8528 0.8534
2225.000000 0.8538 0.8542 0.8546 0.8550 0.8554
2220.000000 0.8558 0.8562 0.8567 0.8571 0.8575
2215.000000 0.8575 0.8575 0.8575 0.8575 0.8574
2210.000000 0.8574 0.8573 0.8571 0.8571 0.8571
2205.000000 0.8570 0.8568 0.8568 0.8568 0.8567
2200.000000 0.8566 0.8565 0.8565 0.8564 0.8564
2195.000000 0.8563 0.8562 0.8561 0.8561 0.8561
2190.000000 0.8561 0.8561 0.8561 0.8561 0.8561
2185.000000 0.8561 0.8561 0.8560 0.8560 0.8560
2180.000000 0.8560 0.8560 0.8560 0.8564 0.8568
2175.000000 0.8574 0.8578 0.8584 0.8589 0.8593
2170.000000 0.8598 0.8603 0.8608 0.8612 0.8616
2165.000000 0.8618 0.8621 0.8625 0.8628 0.8632
2160.000000 0.8636 0.8639 0.8643 0.8646 0.8649
2155.000000 0.8651 0.8654 0.8656 0.8659 0.8661
2150.000000 0.8663 0.8665 0.8667 0.8668 0.8671
2145.000000 0.8673 0.8675 0.8675 0.8678 0.8680
2140.000000 0.8682 0.8684 0.8686 0.8687 0.8689
2135.000000 0.8690 0.8692 0.8692 0.8693 0.8694
2130.000000 0.8695 0.8696 0.8697 0.8697 0.8698
2125.000000 0.8699 0.8700 0.8701 0.8702 0.8703
2120.000000 0.8704 0.8704 0.8705 0.8706 0.8707
2115.000000 0.8708 0.8709 0.8710 0.8712 0.8713
2110.000000 0.8714 0.8715 0.8717 0.8718 0.8718
2105.000000 0.8720 0.8721 0.8723 0.8724 0.8725
2100.000000 0.8725 0.8727 0.8728 0.8730 0.8731
2095.000000 0.8732 0.8734 0.8735 0.8737 0.8739
2090.000000 0.8741 0.8743 0.8745 0.8746 0.8748
2085.000000 0.8750 0.8752 0.8754 0.8756 0.8758
2080.000000 0.8760 0.8762 0.8764 0.8766 0.8768
2075.000000 0.8770 0.8771 0.8773 0.8775 0.8777
2070.000000 0.8778 0.8781 0.8783 0.8784 0.8786
2065.000000 0.8787 0.8788 0.8789 0.8790 0.8791
2060.000000 0.8792 0.8792 0.8793 0.8794 0.8795
2055.000000 0.8796 0.8797 0.8798 0.8799 0.8800
2050.000000 0.8801 0.8801 0.8802 0.8804 0.8806
2045.000000 0.8807 0.8809 0.8810 0.8812 0.8814
2040.000000 0.8816 0.8817 0.8818 0.8820 0.8821
2035.000000 0.8824 0.8825 0.8828 0.8830 0.8832
2030.000000 0.8834 0.8836 0.8838 0.8840 0.8842
2025.000000 0.8844 0.8846 0.8848 0.8851 0.8856
2020.000000 0.8862 0.8867 0.8871 0.8877 0.8882
2015.000000 0.8883 0.8884 0.8884 0.8911 0.8882
2010.000000 0.8881 0.8878 0.8877 0.8871 0.8865
2005.000000 0.8859 0.8854 0.8847 0.8841 0.8827
2000.000000 0.8814 0.8800 0.8787 0.8773 0.8755
1995.000000 0.8736 0.8724 0.8727 0.8734 0.8742
1990.000000 0.8749 0.8757 0.8764 0.8768 0.8773
1985.000000 0.8777 0.8778 0.8778 0.8778 0.8778
1980.000000 0.8778 0.8778 0.8778 0.8777 0.8780
1975.000000 0.8782 0.8784 0.8786 0.8789 0.8791
1970.000000 0.8767 0.8762 0.8761 0.8761 0.8761
1965.000000 0.8762 0.8763 0.8764 0.8765 0.8766
1960.000000 0.8767 0.8768 0.8768 0.8770 0.8771
1955.000000 0.8773 0.8775 0.8783 0.8790 0.8796
1950.000000 0.8802 0.8799 0.8794 0.8789 0.8783
1945.000000 0.8777 0.8771 0.8766 0.8764 0.8762
1940.000000 0.8762 0.8766 0.8768 0.8771 0.8774
1935.000000 0.8775 0.8777 0.8778 0.8778 0.8778
1930.000000 0.8777 0.8775 0.8750 0.8721 0.8691
1925.000000 0.8659 0.8625 0.8594 0.8571 0.8559
1920.000000 0.8548 0.8541 0.8525 0.8546 0.8566
1915.000000 0.8591 0.8620 0.8652 0.8675 0.8698
1910.000000 0.8714 0.8721 0.8731 0.8740 0.8748
1905.000000 0.8754 0.8758 0.8762 0.8765 0.8768
1900.000000 0.8771 0.8775 0.8778 0.8783 0.8786
1895.000000 0.8789 0.8790 0.8792 0.8793 0.8794
1890.000000 0.8796 0.8797 0.8797 0.8797 0.8795
1885.000000 0.8793 0.8792 0.8790 0.8788 0.8787
1880.000000 0.8785 0.8783 0.8783 0.8783 0.8784
1875.000000 0.8784 0.8785 0.8786 0.8786 0.8787
1870.000000 0.8788 0.8789 0.8791 0.8794 0.8796
1865.000000 0.8799 0.8801 0.8804 0.8807 0.8809
1860.000000 0.8811 0.8813 0.8815 0.8816 0.8818
1855.000000 0.8820 0.8821 0.8823 0.8825 0.8827
1850.000000 0.8828 0.8830 0.8832 0.8833 0.8835
1845.000000 0.8836 0.8838 0.8839 0.8841 0.8842
1840.000000 0.8844 0.8845 0.8846 0.8848 0.8849
1835.000000 0.8851 0.8852 0.8854 0.8855 0.8857
1830.000000 0.8858 0.8860 0.8861 0.8862 0.8863
1825.000000 0.8863 0.8862 0.8862 0.8861 0.8860
1820.000000 0.8859 0.8859 0.8859 0.8859 0.8859
1815.000000 0.8857 0.8852 0.8839 0.8820 0.8803
1810.000000 0.8786 0.8770 0.8752 0.8735 0.8702
1805.000000 0.8732 0.8734 0.8738 0.8744 0.8750
1800.000000 0.8755 0.8762 0.8771 0.8780 0.8790
1795.000000 0.8798 0.8804 0.8811 0.8817 0.8818
1790.000000 0.8820 0.8821 0.8821 0.8823 0.8824
1785.000000 0.8825 0.8825 0.8827 0.8828 0.8828
1780.000000 0.8830 0.8831 0.8831 0.8831 0.8831
1775.000000 0.8831 0.8831 0.8830 0.8827 0.8823
1770.000000 0.8820 0.8817 0.8814 0.8811 0.8808
1765.000000 0.8805 0.8802 0.8799 0.8797 0.8796
1760.000000 0.8794 0.8792 0.8791 0.8790 0.8788
1755.000000 0.8787 0.8787 0.8787 0.8787 0.8787
1750.000000 0.8788 0.8790 0.8791 0.8793 0.8795
1745.000000 0.8797 0.8799 0.8801 0.8802 0.8802
1740.000000 0.8802 0.8800 0.8797 0.8787 0.8764
1735.000000 0.8728 0.8697 0.8670 0.8642 0.8614
1730.000000 0.8583 0.8553 0.8528 0.8505 0.8481
1725.000000 0.8446 0.8411 0.8378 0.8344 0.8334
1720.000000 0.8332 0.8313 0.8461 0.8523 0.8563
1715.000000 0.8589 0.8616 0.8641 0.8664 0.8687
1710.000000 0.8710 0.8734 0.8758 0.8775 0.8792
1705.000000 0.8810 0.8824 0.8832 0.8840 0.8847
1700.000000 0.8855 0.8862 0.8870 0.8877 0.8885
1695.000000 0.8892 0.8900 0.8907 0.8915 0.8921
1690.000000 0.8928 0.8933 0.8937 0.8942 0.8946
1685.000000 0.8946 0.8940 0.8934 0.8928 0.8921
1680.000000 0.8918 0.8916 0.8914 0.8918 0.8925
1675.000000 0.8930 0.8936 0.8941 0.8946 0.8950
1670.000000 0.8950 0.8951 0.8951 0.8952 0.8952
1665.000000 0.8952 0.8952 0.8952 0.8952 0.8940
1660.000000 0.8928 0.8913 0.8898 0.8883 0.8868
1655.000000 0.8853 0.8836 0.8821 0.8806 0.8794
1650.000000 0.8775 0.8807 0.8817 0.8828 0.8840
1645.000000 0.8853 0.8866 0.8877 0.8887 0.8898
1640.000000 0.8907 0.8915 0.8923 0.8931 0.8928
1635.000000 0.8918 0.8909 0.8902 0.8900 0.8897
1630.000000 0.8894 0.8891 0.8888 0.8885 0.8885
1625.000000 0.8885 0.8886 0.8887 0.8890 0.8896
1620.000000 0.8903 0.8909 0.8913 0.8917 0.8921
1615.000000 0.8920 0.8918 0.8916 0.8904 0.8891
1610.000000 0.8877 0.8841 0.8805 0.8742 0.8686
1605.000000 0.8637 0.8597 0.8242 0.7851 0.7028
1600.000000 0.7071 0.7071 0.7086 0.7190 0.7528
1595.000000 0.7868 0.8172 0.8328 0.8395 0.8460
1590.000000 0.8520 0.8563 0.8605 0.8648 0.8684
1585.000000 0.8718 0.8752 0.8783 0.8803 0.8815
1580.000000 0.8820 0.8818 0.8818 0.8816 0.8815
1575.000000 0.8814 0.8815 0.8823 0.8832 0.8841
1570.000000 0.8850 0.8858 0.8866 0.8874 0.8881
1565.000000 0.8889 0.8896 0.8904 0.8906 0.8906
1560.000000 0.8907 0.8908 0.8901 0.8892 0.8884
1555.000000 0.8875 0.8875 0.8875 0.8875 0.8875
1550.000000 0.8875 0.8875 0.8875 0.8875 0.8875
1545.000000 0.8875 0.8877 0.8878 0.8878 0.8878
1540.000000 0.8878 0.8878 0.8878 0.8878 0.8877
1535.000000 0.8877 0.8875 0.8875 0.8874 0.8874
1530.000000 0.8873 0.8871 0.8871 0.8871 0.8865
1525.000000 0.8857 0.8848 0.8840 0.8833 0.8828
1520.000000 0.8828 0.8828 0.8828 0.8828 0.8828
1515.000000 0.8828 0.8825 0.8824 0.8823 0.8821
1510.000000 0.8816 0.8806 0.8796 0.8783 0.8768
1505.000000 0.8753 0.8728 0.8402 0.8018 0.7387
1500.000000 0.7375 0.7375 0.7544 0.7774 0.8005
1495.000000 0.8235 0.8354 0.8414 0.8525 0.8497
1490.000000 0.8506 0.8510 0.8510 0.8491 0.8461
1485.000000 0.8357 0.7162 0.7354 0.7681 0.8007
1480.000000 0.8193 0.8230 0.8258 0.8271 0.8284
1475.000000 0.8286 0.8286 0.8268 0.8190 0.8081
1470.000000 0.7814 0.7337 0.7275 0.7262 0.7285
1465.000000 0.7322 0.7361 0.7408 0.7457 0.7498
1460.000000 0.7531 0.7564 0.7598 0.7624 0.7651
1455.000000 0.7625 0.7591 0.7540 0.7488 0.7434
1450.000000 0.7383 0.7339 0.7296 0.7251 0.7200
1445.000000 0.7167 0.7145 0.7108 0.6989 0.6768
1440.000000 0.6077 0.5886 0.5710 0.5535 0.5359
1435.000000 0.5184 0.5035 0.5033 0.5348 0.5626
1430.000000 0.5869 0.5952 0.6035 0.6119 0.6212
1425.000000 0.6310 0.6407 0.6499 0.6562 0.6628
1420.000000 0.6693 0.6771 0.6858 0.6947 0.7060
1415.000000 0.7203 0.7306 0.7408 0.7480 0.7538
1410.000000 0.7594 0.7644 0.7694 0.7722 0.7731
1405.000000 0.7739 0.7747 0.7751 0.7751 0.7751
1400.000000 0.7755 0.7765 0.7808 0.7861 0.7917
1395.000000 0.7960 0.7998 0.8032 0.8060 0.8090
1390.000000 0.8131 0.8186 0.8176 0.8175 0.8171
1385.000000 0.8161 0.8062 0.7996 0.7996 0.8004
1380.000000 0.8042 0.8081 0.8117 0.8147 0.8178
1375.000000 0.8213 0.8246 0.8263 0.8278 0.8278
1370.000000 0.8278 0.8278 0.8278 0.8273 0.8265
1365.000000 0.8257 0.8250 0.8241 0.8231 0.8221
1360.000000 0.8211 0.8202 0.8192 0.8175 0.8150
1355.000000 0.8124 0.8098 0.8071 0.8015 0.7956
1350.000000 0.7898 0.7772 0.7649 0.7536 0.7376
1345.000000 0.7208 0.7047 0.6571 0.5737 0.5676
1340.000000 0.5615 0.5566 0.5525 0.5441 0.5329
1335.000000 0.5138 0.4439 0.4128 0.3874 0.3620
1330.000000 0.3366 0.3112 0.2858 0.2604 0.2350
1325.000000 0.2095 0.1841 0.1787 0.1812 0.1984
1320.000000 0.2339 0.2694 0.3049 0.3404 0.3759
1315.000000 0.4114 0.4364 0.4481 0.4576 0.4662
1310.000000 0.4766 0.4937 0.5217 0.5444 0.5651
1305.000000 0.5816 0.5928 0.6073 0.6227 0.6382
1300.000000 0.6537 0.6691 0.6846 0.6867 0.6850
1295.000000 0.6686 0.6521 0.6358 0.6195 0.6031
1290.000000 0.5919 0.5923 0.6114 0.6306 0.6498
1285.000000 0.6690 0.6882 0.7072 0.7265 0.7475
1280.000000 0.7662 0.7781 0.7864 0.7931 0.7987
1275.000000 0.8036 0.8071 0.8090 0.8104 0.8108
1270.000000 0.8114 0.8099 0.8068 0.8030 0.7996
1265.000000 0.7995 0.8007 0.8041 0.8122 0.8200
1260.000000 0.8275 0.8337 0.8391 0.8445 0.8474
1255.000000 0.8501 0.8528 0.8555 0.8577 0.8599
1250.000000 0.8621 0.8639 0.8657 0.8675 0.8693
1245.000000 0.8711 0.8725 0.8741 0.8756 0.8770
1240.000000 0.8784 0.8798 0.8811 0.8823 0.8834
1235.000000 0.8845 0.8852 0.8851 0.8830 0.8783
1230.000000 0.8727 0.8673 0.8624 0.8583 0.8551
1225.000000 0.8562 0.8555 0.8578 0.8612 0.8674
1220.000000 0.8723 0.8749 0.8775 0.8799 0.8809
1215.000000 0.8818 0.8828 0.8834 0.8840 0.8846
1210.000000 0.8853 0.8860 0.8868 0.8875 0.8883
1205.000000 0.8890 0.8944 0.8906 0.8910 0.8914
1200.000000 0.8916 0.8906 0.8896 0.8885 0.8868
1195.000000 0.8845 0.8813 0.8768 0.8696 0.8567
1190.000000 0.8308 0.8236 0.8235 0.8258 0.8336
1185.000000 0.8423 0.8484 0.8488 0.8481 0.8410
1180.000000 0.8196 0.8103 0.7880 0.7685 0.7496
1175.000000 0.7322 0.7232 0.7140 0.7065 0.6991
1170.000000 0.6775 0.5544 0.4445 0.3345 0.2246
1165.000000 0.1602 0.1499 0.1394 0.1283 0.1217
1160.000000 0.1200 0.1196 0.1226 0.1270 0.1396
1155.000000 0.1479 0.1629 0.2058 0.2487 0.2916
1150.000000 0.3345 0.3774 0.4203 0.4632 0.5060
1145.000000 0.5490 0.6184 0.6400 0.6578 0.6736
1140.000000 0.6893 0.7051 0.7208 0.7367 0.7525
1135.000000 0.7683 0.7719 0.7736 0.7741 0.7476
1130.000000 0.7055 0.6633 0.6333 0.6362 0.6501
1125.000000 0.6674 0.6846 0.7018 0.7191 0.7296
1120.000000 0.7358 0.7542 0.7724 0.7906 0.8038
1115.000000 0.8097 0.8124 0.8146 0.8162 0.8161
1110.000000 0.8161 0.8148 0.8098 0.8047 0.7981
1105.000000 0.7906 0.7833 0.7761 0.7688 0.7572
1100.000000 0.7449 0.6949 0.6411 0.5874 0.5337
1095.000000 0.4799 0.4262 0.3625 0.3639 0.3755
1090.000000 0.4190 0.4624 0.5059 0.5494 0.5928
1085.000000 0.6362 0.6797 0.7232 0.7611 0.7712
1080.000000 0.7771 0.7781 0.7788 0.7808 0.7743
1075.000000 0.7668 0.7586 0.7475 0.7148 0.6304
1070.000000 0.5460 0.4618 0.4176 0.4183 0.4676
1065.000000 0.5107 0.5539 0.5971 0.6403 0.6778
1060.000000 0.6939 0.7126 0.7330 0.7617 0.7889
1055.000000 0.8051 0.8190 0.8315 0.8381 0.8411
1050.000000 0.8441 0.8478 0.8501 0.8521 0.8534
1045.000000 0.8546 0.8560 0.8570 0.8573 0.8575
1040.000000 0.8575 0.8571 0.8564 0.8556 0.8548
1035.000000 0.8543 0.8541 0.8549 0.8575 0.8601
1030.000000 0.8635 0.8670 0.8703 0.8735 0.8767
1025.000000 0.8800 0.8835 0.8849 0.8825 0.8846
1020.000000 0.8828 0.8788 0.7819 0.8064 0.8327
1015.000000 0.8589 0.8724 0.8788 0.8825 0.8861
1010.000000 0.8887 0.8913 0.8928 0.8940 0.8951
1005.000000 0.8959 0.8966 0.8973 0.8980 0.8986
1000.000000 0.8992 0.8999 0.9005 0.9012 0.9016
995.000000 0.9020 0.9024 0.9028 0.9032 0.9036
990.000000 0.9036 0.9036 0.9028 0.9020 0.9007
985.000000 0.8991 0.8968 0.8945 0.8927 0.8909
980.000000 0.8895 0.8902 0.8902 0.8902 0.8915
975.000000 0.8928 0.8941 0.8954 0.8968 0.8985
970.000000 0.8994 0.8999 0.8989 0.8977 0.8957
965.000000 0.8937 0.8920 0.8906 0.8909 0.8920
960.000000 0.8930 0.8938 0.8945 0.8952 0.8959
955.000000 0.8960 0.8961 0.8950 0.8918 0.8852
950.000000 0.8751 0.8703 0.8675 0.8653 0.8635
945.000000 0.8620 0.8607 0.8586 0.8547 0.8490
940.000000 0.8403 0.8299 0.8193 0.8103 0.8008
935.000000 0.7783 0.7519 0.7257 0.6994 0.6731
930.000000 0.6468 0.6435 0.6435 0.6434 0.6461
925.000000 0.6550 0.6694 0.6965 0.7238 0.7508
920.000000 0.7781 0.7941 0.8092 0.8332 0.8423
915.000000 0.8480 0.8533 0.8578 0.8623 0.8668
910.000000 0.8715 0.8762 0.8801 0.8834 0.8867
905.000000 0.8900 0.8933 0.8967 0.9000 0.9028
900.000000 0.9053 0.9067 0.9081 0.9094 0.9106
895.000000 0.9115 0.9121 0.9121 0.9123 0.9109
890.000000 0.9091 0.9048 0.9002 0.8956 0.8824
885.000000 0.8683 0.8547 0.8363 0.8015 0.7667
880.000000 0.7318 0.6969 0.6621 0.6447 0.6408
875.000000 0.6465 0.6553 0.6701 0.6917 0.7134
870.000000 0.7351 0.7567 0.7681 0.7765 0.7850
865.000000 0.7921 0.7993 0.8061 0.8121 0.8180
860.000000 0.8239 0.8301 0.8364 0.8432 0.8515
855.000000 0.8575 0.8615 0.8644 0.8671 0.8693
850.000000 0.8714 0.8735 0.8757 0.8780 0.8807
845.000000 0.8825 0.8843 0.8858 0.8868 0.8883
840.000000 0.8884 0.8886 0.8780 0.8616 0.8452
835.000000 0.8337 0.8338 0.8574 0.8731 0.8888
830.000000 0.8885 0.8914 0.8855 0.8823 0.8737
825.000000 0.8688 0.8660 0.8650 0.8640 0.8627
820.000000 0.8603 0.8490 0.8361 0.8249 0.8004
815.000000 0.6875 0.5749 0.4621 0.3234 0.3223
810.000000 0.3716 0.4853 0.5988 0.7124 0.7921
805.000000 0.8172 0.8278 0.8383 0.8512 0.8605
800.000000 0.8644 0.8658 0.8637 0.8610 0.8611
795.000000 0.8612 0.8677 0.8741 0.8797 0.8835
790.000000 0.8871 0.8901 0.8912 0.8921 0.8921
785.000000 0.8921 0.8921 0.8920 0.8925 0.8913
780.000000 0.8907 0.8900 0.8894 0.8887 0.8881
775.000000 0.8874 0.8868 0.8858 0.8848 0.8838
770.000000 0.8828 0.8818 0.8808 0.8797 0.8787
765.000000 0.8774 0.8758 0.8742 0.8725 0.8710
760.000000 0.8692 0.8668 0.8647 0.8624 0.8602
755.000000 0.8578 0.8551 0.8521 0.8493 0.8464
750.000000 0.8436 0.8406 0.8375 0.8346 0.8309
745.000000 0.8268 0.8071 0.7750 0.7571 0.7534
740.000000 0.7533 0.7551 0.7608 0.7661 0.7712
735.000000 0.7744 0.7761 0.7761 0.7760 0.7756
730.000000 0.7690 0.7624 0.7558 0.7484 0.7408
725.000000 0.7336 0.7261 0.7114 0.7053 0.7000
720.000000 0.6951 0.6915 0.6882 0.6848 0.6814
715.000000 0.6778 0.6735 0.6534 0.6205 0.5877
710.000000 0.5548 0.5219 0.4958 0.4958 0.5446
705.000000 0.6221 0.6995 0.7199 0.7240 0.7192
700.000000 0.7054 0.6886 0.6718 0.6551 0.6384
695.000000 0.6192 0.5993 0.5648 0.5366 0.5251
690.000000 0.5137 0.5038 0.4948 0.4873 0.4819
685.000000 0.4764 0.4712 0.4664 0.4616 0.4567
680.000000 0.4510 0.4457 0.4412 0.4374 0.4358
675.000000 0.4342 0.4321 0.4325 0.4340 0.4384
670.000000 0.4460 0.4535 0.4660 0.4809 0.4983
665.000000 0.5167 0.5439 0.5675 0.5866 0.6054
660.000000 0.6233 0.6411 0.6535 0.6651 0.6799
655.000000 0.6918 0.7000 0.7287 0.7574 0.7861
650.000000 0.8148 0.8435 0.8715 0.8794 0.8816
645.000000 0.8833 0.8843 0.8851 0.8852 0.8853
640.000000 0.8852 0.8855 0.8860 0.8868 0.8875
635.000000 0.8880 0.8835 0.8785 0.8736 0.8687
630.000000 0.8637 0.8588 0.8593 0.8604 0.8614
625.000000 0.8625 0.8636 0.8648 0.8660 0.8671
620.000000 0.8684 0.8696 0.8708 0.8716 0.8789
615.000000 0.8732 0.8740 0.8748 0.8756 0.8764
610.000000 0.8771 0.8778 0.8787 0.8792 0.8796
605.000000 0.8800 0.8803 0.8806 0.8809 0.8810
600.000000 0.8810 0.8805 0.8786 0.8767 0.8744
595.000000 0.8718 0.8691 0.8656 0.8613 0.8564
590.000000 0.8494 0.8411 0.8268 0.7925 0.7436
585.000000 0.6946 0.6457 0.5968 0.5496 0.5447
580.000000 0.5640 0.5954 0.6269 0.6583 0.6897
575.000000 0.7211 0.7525 0.7841 0.8155 0.8468
570.000000 0.8605 0.8708 0.8756 0.8812 0.8786
565.000000 0.8792 0.8790 0.8770 0.8727 0.8656
560.000000 0.6348 0.3628 0.1985 0.1993 0.2438
555.000000 0.3266 0.4095 0.4924 0.5753 0.6582
550.000000 0.7394 0.7953 0.8171 0.8324 0.8454
545.000000 0.8559 0.8657 0.8728 0.8785 0.8831
540.000000 0.8870 0.8899 0.8928 0.8952 0.8975
535.000000 0.8988 0.9002 0.9012 0.9017 0.9023
530.000000 0.9028 0.9032 0.9035 0.9083 0.9033
525.000000 0.9025 0.9018 0.9010 0.8985 0.8961
520.000000 0.8921 0.8868 0.8794 0.8659 0.7856
515.000000 0.7054 0.6253 0.5701 0.5825 0.6309
510.000000 0.6793 0.7276 0.7761 0.8245 0.8487
505.000000 0.8561 0.8671 0.8760 0.8789 0.8801
500.000000 0.8806 0.8806 0.8806 0.8795 0.8771
495.000000 0.8677 0.7351 0.7351 0.7351 0.7417
490.000000 0.7626 0.7836 0.8046 0.8256 0.8466
485.000000 0.8675 0.8848 0.8848 0.8851 0.8857
480.000000 0.8862 0.8868 0.8880 0.8896 0.8908
475.000000 0.8918 0.8930 0.8941 0.8953 0.8966
470.000000 0.8978 0.8991 0.8999 0.9008 0.9016
465.000000 0.9024 0.9032 0.9036 0.9041 0.9045
460.000000 0.9050 0.9056 0.9061 0.9067 0.9073
455.000000 0.9062 0.9084 0.9090
##END=
