##TITLE=2-Methoxy-5-methylphenyl isothiocyanate
##JCAMP-DX=4.24
##DATA TYPE=INFRARED SPECTRUM
##ORIGIN=EPA-IR VAPOR PHASE LIBRARY
##OWNER=SRD/NIST
Collection (C) 2018 copyright by the U.S. Secretary of Commerce
on behalf of the United States of America. All rights reserved.
##CAS REGISTRY NO=190774-56-2
##MOLFORM=C 9 H 9 N O S
##$NIST SOURCE=MSDC-IR
##STATE=gas
##XUNITS=1/CM
##YUNITS=ABSORBANCE
##XFACTOR=1.
##YFACTOR=0.001
##DELTAX=1.92898
##FIRSTX=549.8
##LASTX=4000.7
##FIRSTY=9.076
##MAXX=4000.7
##MINX=549.759
##MAXY=0.377756
##MINY=0
##NPOINTS=1790
##XYDATA=(X++(Y..Y))
549.759 9.076 8.996 9.286 9.296 9.106 9.096 9.166 9.386 9.876 10.466
569.049 11.036 11.726 12.246 12.646 12.906 12.776 11.806 10.976 10.506 9.836
588.339 9.256 8.656 7.936 7.406 7.156 6.626 6.276 5.806 5.386 4.806
607.628 4.276 4.186 4.136 4.126 4.316 4.636 4.766 4.756 4.836 4.886
626.918 4.726 4.556 4.286 4.046 3.726 3.376 3.096 2.936 2.646 2.406
646.208 2.426 2.576 2.716 2.546 2.356 2.406 2.526 2.656 2.966 3.366
665.498 3.786 4.336 4.776 5.246 5.896 6.326 6.856 7.536 7.836 7.866
684.787 7.746 7.256 6.556 5.846 5.066 4.336 3.626 3.026 2.526 2.296
704.077 2.366 2.376 2.656 3.036 3.306 3.616 3.996 4.426 5.036 6.176
723.367 7.406 8.926 10.956 13.256 15.516 17.286 18.656 19.456 19.516 18.726
742.657 16.996 14.836 12.636 10.646 8.926 7.576 6.796 6.076 5.676 5.416
761.947 5.196 4.936 4.766 4.616 4.236 4.146 4.226 4.306 4.446 4.696
781.236 5.046 5.926 6.936 8.036 9.766 11.676 13.736 16.146 18.816 21.396
800.526 22.766 23.106 23.696 24.206 24.566 25.106 25.656 26.176 26.586 27.366
819.816 28.686 29.756 30.326 30.596 30.116 28.636 26.546 23.936 20.826 17.396
839.106 14.126 11.476 9.316 7.626 6.606 6.116 5.606 5.276 5.476 5.756
858.395 6.236 6.936 7.596 8.336 9.276 10.276 11.096 10.846 9.546 8.416
877.685 7.596 6.826 5.896 4.746 3.966 3.676 3.476 3.426 3.196 3.056
896.975 3.076 3.046 3.176 3.276 3.496 3.716 3.656 3.636 3.856 4.036
916.265 3.916 3.856 3.936 3.886 3.816 3.626 3.356 3.116 3.096 3.156
935.555 3.116 2.976 2.976 3.116 3.046 3.156 3.406 3.656 4.126 4.726
954.844 5.456 6.246 7.186 8.556 10.046 11.656 13.206 14.336 15.206 15.626
974.134 15.616 15.456 14.886 13.906 12.906 11.876 11.356 11.236 10.976 11.006
993.424 11.626 12.366 13.206 14.066 14.766 15.996 17.306 18.496 19.956 21.546
1012.714 23.106 24.476 25.836 26.856 27.606 28.396 28.936 29.366 29.826 29.946
1032.003 29.266 28.516 27.956 26.886 25.606 24.316 22.426 20.206 17.936 15.716
1051.293 13.426 11.276 9.336 7.916 7.046 6.366 6.106 5.716 5.006 4.406
1070.583 4.026 3.656 3.436 3.196 2.866 2.866 2.536 2.406 2.396 2.266
1089.873 2.596 2.486 2.336 2.136 2.376 3.006 3.186 3.226 3.406 3.396
1109.163 3.466 4.326 5.396 6.146 7.056 8.816 11.056 13.516 16.496 19.176
1128.452 21.396 23.416 25.216 26.736 27.126 26.146 24.626 23.266 21.646 19.746
1147.742 17.506 15.506 14.416 13.756 13.176 12.846 12.596 12.136 11.726 11.166
1167.032 10.386 9.636 8.776 7.946 7.356 7.306 7.586 7.336 7.106 7.346
1186.322 7.396 7.396 7.446 7.156 7.006 7.316 7.376 7.236 7.556 7.796
1205.611 8.276 9.476 10.746 11.826 13.186 15.186 17.306 19.906 23.416 27.426
1224.901 31.926 36.596 41.166 45.916 49.306 51.266 52.406 52.006 50.296 47.406
1244.191 43.486 38.906 34.706 31.316 29.316 29.046 30.046 32.436 35.856 40.066
1263.481 44.996 50.016 54.406 57.796 60.216 61.556 61.836 61.306 59.976 58.106
1282.771 55.996 54.036 52.376 50.756 48.756 46.226 43.186 39.826 36.286 32.686
1302.060 29.206 25.976 22.796 19.796 17.046 14.536 12.516 10.876 9.566 8.476
1321.350 7.536 6.856 6.316 5.836 5.416 5.026 4.766 4.526 4.216 3.976
1340.640 3.826 3.726 3.626 3.526 3.476 3.376 3.326 3.346 3.356 3.336
1359.930 3.296 3.296 3.336 3.376 3.386 3.376 3.436 3.556 3.596 3.586
1379.219 3.676 3.856 4.006 4.036 4.036 4.136 4.206 4.276 4.416 4.486
1398.509 4.616 4.916 5.296 5.736 6.156 6.676 7.356 8.106 8.826 9.486
1417.799 10.206 10.816 11.306 11.786 12.186 12.576 12.986 13.506 14.186 14.966
1437.089 15.806 16.496 16.996 17.246 17.276 17.166 16.956 16.516 16.086 15.956
1456.378 16.186 16.846 17.796 18.656 19.066 19.136 18.966 18.716 18.456 17.986
1475.668 17.346 16.906 16.946 17.686 19.326 22.116 26.166 31.676 38.856 47.526
1494.958 57.466 68.066 78.306 87.026 93.336 96.636 96.866 93.986 87.876 79.016
1514.248 68.576 57.976 48.246 39.986 33.076 27.706 23.526 20.206 17.666 15.606
1533.538 13.956 12.736 11.836 11.126 10.506 10.006 9.486 9.076 8.746 8.426
1552.827 8.246 8.096 7.946 7.786 7.746 7.836 8.036 8.316 8.626 9.006
1572.117 9.456 9.946 10.426 10.886 11.386 11.876 12.236 12.656 13.166 13.796
1591.407 14.556 15.436 16.576 17.806 19.196 20.646 21.936 22.816 23.296 23.226
1610.697 22.516 21.156 19.096 16.766 14.336 11.966 9.776 7.956 6.606 5.686
1629.986 5.046 4.656 4.376 4.076 3.806 3.546 3.426 3.356 3.226 3.106
1649.276 2.976 2.906 2.806 2.596 2.546 2.586 2.556 2.536 2.446 2.326
1668.566 2.286 2.216 2.206 2.286 2.256 2.176 2.126 2.116 2.046 1.956
1687.856 1.926 1.976 2.016 2.006 1.966 1.956 2.016 2.026 2.036 2.116
1707.146 2.186 2.196 2.216 2.296 2.446 2.586 2.676 2.766 2.856 2.946
1726.435 3.006 3.096 3.166 3.276 3.386 3.416 3.386 3.336 3.286 3.256
1745.725 3.226 3.106 2.986 2.916 2.836 2.716 2.656 2.616 2.556 2.516
1765.015 2.476 2.426 2.446 2.496 2.536 2.556 2.576 2.596 2.616 2.666
1784.305 2.756 2.876 2.986 3.126 3.236 3.376 3.566 3.696 3.766 3.766
1803.594 3.736 3.716 3.666 3.566 3.536 3.536 3.486 3.466 3.416 3.406
1822.884 3.496 3.496 3.536 3.676 3.776 3.786 3.906 4.056 4.126 4.286
1842.174 4.466 4.596 4.766 4.896 4.926 4.976 5.106 5.086 5.056 5.096
1861.464 5.146 5.236 5.316 5.416 5.506 5.556 5.606 5.746 5.796 5.796
1880.754 5.846 5.896 5.956 6.006 6.086 6.206 6.346 6.596 6.816 6.936
1900.043 7.126 7.466 7.866 8.266 8.676 9.126 9.676 10.296 10.946 11.636
1919.333 12.436 13.366 14.366 15.396 16.546 17.796 19.046 20.386 21.856 23.426
1938.623 25.016 26.666 28.466 30.326 32.266 34.246 36.296 38.586 40.966 43.506
1957.913 46.316 49.346 52.546 55.946 59.636 63.586 67.856 72.376 77.036 82.036
1977.202 87.116 92.336 97.566 102.626 107.516 112.126 116.516 120.656 124.666 128.646
1996.492 132.756 136.986 141.406 146.296 151.536 157.286 163.826 171.226 179.596 189.036
2015.782 199.786 212.066 226.076 241.726 258.896 277.556 297.106 316.826 335.826 352.776
2035.072 365.946 374.276 377.756 376.306 370.096 359.726 346.156 330.906 315.256 299.816
2054.362 285.016 271.286 258.646 246.966 236.156 226.136 216.666 207.806 199.676 192.136
2073.651 185.406 179.796 175.266 171.846 169.786 169.206 170.186 172.506 176.136 181.076
2092.941 186.996 193.386 200.026 206.676 212.636 217.486 221.106 223.186 223.226 221.286
2112.231 217.466 211.516 203.906 194.976 184.916 174.206 163.316 152.586 142.256 132.486
2131.521 123.616 115.656 108.416 101.856 96.076 90.836 86.086 81.786 77.886 74.416
2150.810 71.226 68.366 65.806 63.466 61.216 58.976 56.756 54.476 52.076 49.486
2170.100 46.846 44.116 41.296 38.466 35.616 32.916 30.406 28.046 25.916 23.876
2189.390 21.976 20.406 19.066 17.906 16.786 15.726 14.836 14.006 13.226 12.586
2208.680 11.976 11.396 10.876 10.366 9.846 9.316 8.926 8.576 8.206 7.886
2227.970 7.736 7.586 7.336 7.186 7.176 7.136 7.046 7.056 7.016 6.926
2247.259 6.896 6.866 6.856 6.836 6.746 6.686 6.586 6.296 6.106 6.026
2266.549 5.766 5.546 5.406 5.266 5.056 4.896 4.846 4.776 4.666 4.586
2285.839 4.536 4.446 4.366 4.236 4.196 4.176 4.056 3.956 3.796 3.716
2305.129 3.566 3.426 3.346 3.236 3.266 3.296 3.246 3.226 3.276 3.246
2324.418 3.206 3.206 3.166 3.106 3.086 3.016 2.826 2.706 2.656 2.616
2343.708 2.566 2.486 2.426 2.376 2.266 2.246 2.266 2.256 2.246 2.166
2362.998 2.106 2.066 2.126 2.196 2.176 2.136 2.136 2.256 2.396 2.366
2382.288 2.326 2.386 2.506 2.596 2.616 2.756 2.856 2.856 2.866 2.876
2401.578 2.946 2.976 3.016 3.096 3.116 3.126 3.186 3.186 3.286 3.396
2420.867 3.326 3.376 3.426 3.446 3.436 3.386 3.426 3.416 3.416 3.456
2440.157 3.436 3.396 3.336 3.246 3.186 3.196 3.176 3.116 3.006 2.976
2459.447 2.956 2.916 2.856 2.746 2.776 2.886 2.866 2.886 2.916 2.886
2478.737 2.956 3.116 3.156 3.126 3.176 3.216 3.316 3.416 3.486 3.576
2498.026 3.666 3.796 3.796 3.846 4.056 4.076 4.186 4.346 4.286 4.296
2517.316 4.346 4.386 4.346 4.376 4.506 4.516 4.556 4.646 4.626 4.556
2536.606 4.546 4.686 4.886 4.926 4.926 4.986 5.036 4.966 4.946 4.976
2555.896 4.876 4.836 4.786 4.766 4.716 4.616 4.646 4.636 4.516 4.446
2575.186 4.386 4.286 4.226 4.096 4.106 4.256 4.246 4.196 4.096 4.116
2594.475 4.186 3.956 3.836 3.816 3.726 3.646 3.496 3.416 3.386 3.226
2613.765 3.066 2.976 2.946 2.866 2.866 2.846 2.736 2.636 2.506 2.516
2633.055 2.576 2.596 2.536 2.426 2.376 2.326 2.286 2.256 2.136 2.026
2652.345 2.036 2.006 1.896 1.876 1.796 1.656 1.646 1.646 1.596 1.656
2671.634 1.756 1.806 1.856 1.816 1.796 1.836 1.916 2.016 2.026 1.986
2690.924 1.926 1.936 2.076 2.186 2.156 2.146 2.206 2.256 2.296 2.296
2710.214 2.296 2.286 2.286 2.416 2.486 2.496 2.656 2.866 2.936 3.036
2729.504 3.136 3.196 3.196 3.286 3.476 3.496 3.426 3.486 3.586 3.546
2748.794 3.436 3.426 3.276 3.096 2.946 2.696 2.526 2.406 2.466 2.386
2768.083 2.306 2.396 2.356 2.346 2.416 2.376 2.436 2.486 2.456 2.496
2787.373 2.586 2.716 2.846 2.946 3.056 3.046 3.106 3.286 3.466 3.576
2806.663 3.676 3.696 3.786 3.986 4.176 4.336 4.566 4.916 5.246 5.736
2825.953 6.256 6.716 7.416 8.346 9.326 10.546 11.766 12.776 13.886 14.776
2845.242 15.366 15.676 15.666 15.426 14.876 14.166 13.486 13.066 12.836 12.656
2864.532 12.716 12.926 13.186 13.626 13.966 14.156 14.436 14.446 14.186 14.016
2883.822 13.846 13.656 13.556 13.486 13.346 13.306 13.566 13.916 14.266 14.696
2903.112 15.296 15.896 16.476 17.056 17.656 18.446 19.266 20.196 21.106 21.966
2922.401 23.206 24.636 26.356 28.206 29.856 31.546 32.906 33.866 34.606 34.836
2941.691 34.506 33.796 32.776 31.676 30.616 29.646 28.596 27.446 26.386 25.356
2960.981 24.406 23.356 22.076 20.596 19.046 17.646 16.416 15.156 14.186 13.546
2980.271 12.956 12.536 12.346 12.286 12.326 12.426 12.796 13.346 13.776 14.316
2999.561 14.946 15.756 16.636 17.436 18.256 18.936 19.246 19.226 18.866 18.246
3018.850 17.416 16.466 15.476 14.746 14.356 14.126 14.166 14.306 14.626 15.066
3038.140 15.376 15.606 15.646 15.546 15.246 14.766 14.246 13.456 12.556 11.606
3057.430 10.576 9.676 8.876 8.146 7.556 7.256 7.316 7.356 7.186 7.136
3076.720 7.086 6.986 6.756 6.576 6.326 5.996 5.786 5.406 5.096 4.926
3096.009 4.466 3.946 3.716 3.606 3.376 3.186 3.016 2.776 2.586 2.556
3115.299 2.656 2.516 2.366 2.296 2.156 1.996 1.786 1.696 1.626 1.4042
3134.589 1.3072 1.2397 1.2394 1.253 1.0639 0.9329 0.917 0.9289 0.8515 0.7097
3153.879 0.5863 0.551 0.7076 0.7495 0.6809 0.7064 0.5461 0.50767 0.49329 0.52215
3173.169 0.5557 0.47809 0.52601 0.50786 0.51875 0.49532 0.4252 0.3468 0.52891 0.6193
3192.458 0.417 0.3987 0.4106 0.439762 0.45748 0.275 0.219 0.206 0.264 0.3768
3211.748 0.285 0.219 0.24 0.299 0.263 0.175 0.128 0.2 0.49166 0.5611
3231.038 0.297 0.176 0.257 0.219 0.221 0.306 0.208 0.136 0.119 0.152
3250.328 0.316 0.4162 0.3383 0.077 0.086 0.19 0.069 0.188 0.256 0.177
3269.617 0.197 0.207 0.208 0.26 0.201 0.037 0.094 0.074 0.01 0.183
3288.907 0.303 0.298 0.199 0.116 0.225 0.299 0.161 0.198 0.204 0.107
3308.197 0.197 0.236 0.215 0.313 0.242 0.156 0.293 0.333 0.341 0.315
3327.487 0.3666 0.328 0.211 0.245 0.233 0.043 0.097 0.212 0.217 0.284
3346.777 0.032 0.168 0.4015 0.184 0.007 0.086 0.196 0.232 0.208 0.054
3366.066 0.056 0.13 0.164 0.123 0.097 0.177 0.254 0.227 0.287 0.42678
3385.356 0.3731 0.232 0.082 0.231 0.4064 0.46753 0.3694 0.251 0.316 0.258
3404.646 0.265 0.267 0.201 0.249 0.27 0.208 0.229 0.154 0.117 0.15
3423.936 0.172 0.155 0.209 0.3692 0.4173 0.335 0.298 0.265 0.24 0.281
3443.225 0.3486 0.4061 0.354 0.243 0.174 0.197 0.3367 0.405 0.297 0.222
3462.515 0.181 0.238 0.293 0.4212 0.3858 0.231 0.187 0.109 0.3476 0.3665
3481.805 0.197 0.353 0.45404 0.323 0.42 0.5618 0.313 0.197 0.219 0.289
3501.095 0.171 0.034 0.037 0.192 0.288 0.247 0.366 0.3386 0.237 0.233
3520.385 0.237 0.277 0.203 0.227 0.367 0.4247 0.49015 0.49617 0.3484 0.261
3539.674 0.3379 0.214 0.139 0.177 0.246 0.3645 0.305 0.116 0.117 0.202
3558.964 0.156 0.249 0.25 0.261 0.296 0.168 0.279 0.3388 0.21 0.169
3578.254 0.158 0.086 0.115 0.2 0.199 0.124 0.053 0.011 0 0.173
3597.544 0.26 0.144 0.22 0.305 0.261 0.283 0.255 0.192 0.218 0.143
3616.833 0.074 0.195 0.225 0.219 0.295 0.32 0.326 0.311 0.255 0.141
3636.123 0.175 0.3633 0.313 0.184 0.149 0.151 0.287 0.3909 0.4078 0.443375
3655.413 0.3846 0.209 0.075 0.109 0.178 0.229 0.282 0.178 0.11 0.23
3674.703 0.303 0.3446 0.267 0.239 0.49963 0.51524 0.48931 0.50031 0.3412 0.305
3693.993 0.325 0.4068 0.49741 0.4934 0.3571 0.302 0.191 0.161 0.3611 0.321
3713.282 0.44402 0.52297 0.3831 0.5617 0.5636 0.53225 0.613 0.49164 0.3547 0.306
3732.572 0.28 0.257 0.44797 0.5755 0.42751 0.356 0.4246 0.48148 0.52475 0.5824
3751.862 0.713 0.6425 0.6226 0.7604 0.6086 0.46414 0.5498 0.6292 0.6385 0.6323
3771.152 0.53319 0.438051 0.412 0.3462 0.3509 0.3505 0.44809 0.47451 0.45329 0.5386
3790.441 0.4084 0.3836 0.4095 0.3752 0.4226 0.42897 0.46095 0.43187 0.43037 0.3983
3809.731 0.47569 0.51474 0.51283 0.51608 0.46401 0.41 0.4027 0.51736 0.52693 0.47553
3829.021 0.45014 0.53193 0.4704 0.43263 0.441916 0.5584 0.7105 0.6986 0.6465 0.5266
3848.311 0.6076 0.716 0.7159 0.7014 0.5436 0.52489 0.7708 0.7551 0.6467 0.7298
3867.601 0.7642 0.8389 0.8631 0.7446 0.7134 0.8855 0.9078 0.8113 0.825 0.8452
3886.890 0.7063 0.7412 0.9653 0.9548 0.8898 0.7613 0.6726 0.7741 0.912 0.8831
3906.180 0.8893 1.0095 1.056 1.0081 0.868 1.0333 1.0347 0.7725 0.846 1.027
3925.470 0.975 0.9932 1.0463 0.8251 0.8219 1.0448 1.1226 1.1862 1.2658 1.3565
3944.760 1.3021 1.312 1.436 1.2445 1.2132 1.2268 1.1564 1.3448 1.4131 1.2302
3964.049 1.2343 1.3662 1.486 1.526 1.4022 1.4206 1.506 1.666 1.676 1.676
3983.339 1.586 1.526 1.676 1.646 1.626 1.4248 1.506 1.666 1.546 1.706
##END=
