##TITLE=4-Fluoro-2-(trifluoromethyl)benzonitrile
##JCAMP-DX=4.24
##DATA TYPE=INFRARED SPECTRUM
##ORIGIN=EPA-IR VAPOR PHASE LIBRARY
##OWNER=SRD/NIST
Collection (C) 2018 copyright by the U.S. Secretary of Commerce
on behalf of the United States of America. All rights reserved.
##CAS REGISTRY NO=194853-86-6
##MOLFORM=C 8 H 3 F 4 N
##$NIST SOURCE=MSDC-IR
##STATE=gas
##XUNITS=1/CM
##YUNITS=ABSORBANCE
##XFACTOR=1.
##YFACTOR=0.001
##DELTAX=1.92898
##FIRSTX=549.8
##LASTX=4000.7
##FIRSTY=16.55
##MAXX=4000.7
##MINX=549.759
##MAXY=0.3125
##MINY=0
##NPOINTS=1790
##XYDATA=(X++(Y..Y))
549.759 16.55 19.35 18.58 15.05 13.2 12.18 11.45 9.64 7.6 6.38
569.049 6.06 5.72 3.96 3.56 4.36 3.75 3.75 2.98 1.8622 2.2388
588.339 2.8 2.3874 2.1984 2.93 3.72 4.02 4.03 4.49 3.95 3.26
607.628 3.82 4.18 3.82 3.38 2.78 2.5613 2.65 2.3392 2.76 2.88
626.918 2.4161 2.4718 2.4629 2.77 3.5 3.33 2.81 2.68 2.82 3.27
646.208 3.11 3.02 3.19 3.12 3.34 3.97 4.94 6.32 7.83 9.34
665.498 11.08 11.94 11.7 12.15 12.69 12.84 11.74 10.24 9.65 9.61
684.787 9.7 9.61 9.54 9.26 8.97 8.05 7.22 6.83 6.64 6.93
704.077 7.38 8.46 10.37 12.81 14.94 16.92 19.07 20.15 20.43 20.22
723.367 19.44 18.07 15.99 13.3 10.63 9.58 9.11 8.67 8.82 9.86
742.657 11.76 13.8 14.66 15.24 16.09 14.99 14.2 13.2 10.56 7.55
761.947 4.81 3.13 2.61 2.4782 2.0566 2.114 2.228 1.7633 1.63288 1.64279
781.236 1.5254 1.6453 1.5228 1.57398 1.62576 1.476 1.6871 2.0425 2.1939 2.3512
800.526 2.0444 2.0275 2.3583 2.4761 2.96 3.89 4.69 6.04 7.66 9.02
819.816 11.58 15.11 18.76 22.4 26.07 30.24 35.63 40.82 39.75 32.06
839.106 25.96 22.54 19.43 16.22 13 9.85 7.06 5.65 4.98 4.29
858.395 4.25 4.48 4.37 4.28 4.49 5.54 6.48 7.8 9.95 12.38
877.685 16 19.76 23.03 27.03 31.89 38.38 45.91 47.44 38.84 31.26
896.975 29.68 29.2 29.1 29.46 32.12 37.68 44.51 50.86 54.13 55.58
916.265 56.61 53.94 49.54 44.25 35.14 24.77 17.03 12.34 9.47 7.77
935.555 6.31 4.94 4.34 4.3 3.43 2.82 3.19 2.99 2.4341 2.419
954.844 2.8 3.15 3.28 2.93 2.69 2.91 2.99 2.96 2.5353 1.8875
974.134 2.0304 2.86 3.14 2.79 2.96 3.27 2.72 2.1 2.3203 2.4599
993.424 2.4686 2.78 3 2.95 3.05 3.16 3.28 3.53 3.26 3.45
1012.714 3.9 3.91 4.24 4.65 5.23 4.9 4.89 5.23 5.97 8.09
1032.003 11.3 15.67 20.27 25.82 32.54 39.05 43.78 47.21 49.63 49.85
1051.293 47.4 43.4 36.37 28.22 22 17.86 14.66 11.7 10.03 8.43
1070.583 7.59 7.34 7.01 6.28 5.4 4.98 4.57 4.59 4.57 5.12
1089.873 6.06 4.98 5.29 5.73 4.14 4.51 5.83 6.41 6.01 6.81
1109.163 8.99 11.23 13.3 16.09 20.18 23.84 27.04 31.3 33.7 33.65
1128.452 33.87 33.57 33 33.37 35.5 38.88 44.19 51.35 60.37 72.11
1147.742 85.74 100.18 115.97 133.09 151.32 169.27 185.73 201.12 217.31 234.64
1167.032 252.2 268.43 282.66 295.07 303.53 309.34 312.5 311.83 305.32 292.01
1186.322 273.51 254.78 235.33 212.07 186.14 160.05 137.85 119.14 102.78 89.45
1205.611 77.07 67.79 62.03 59.33 58.31 58.46 61 63.26 62.76 60.9
1224.901 58.37 55.29 53.19 48.35 41.35 34.93 29.98 26.68 25.4 26.31
1244.191 27.65 29.53 32.43 35.97 39.56 43.16 46.51 50.24 54.23 56.88
1263.481 59.83 61.91 62.26 62.73 62.52 61.69 60.04 59.56 59.78 58
1282.771 55.76 54.41 53.48 52.95 52.21 50.66 49.82 51.24 55.8 64.37
1302.060 77.88 97.92 124.79 157.88 195.84 233.97 265.06 284.94 293.64 288.74
1321.350 271.09 242.01 201.19 153.9 108.22 70.63 44.13 27.89 18.8 13.86
1340.640 10.85 9 7.94 7.03 6.28 5.84 5.62 5.52 5.31 5.09
1359.930 5.1 5.29 5.35 5.39 5.68 6.32 7.07 7.86 9.09 10.54
1379.219 11.89 13.18 14.3 14.77 14.86 14.82 14.27 13.47 12.62 11.83
1398.509 11.48 11.61 12.21 13.32 14.75 16.8 19.19 22.13 26.19 31.76
1417.799 39.46 49.73 61.79 74.62 86.14 94.56 99.65 100.54 96.93 89.19
1437.089 76.69 60.98 44.12 29.41 19.12 13.11 10.09 8.35 7.22 6.52
1456.378 5.93 5.6 5.78 5.82 5.75 6.02 6.71 7.68 9.04 10.77
1475.668 13.03 16.33 20.49 25.88 33.3 42.63 53.38 64.92 76.35 85.4
1494.958 90.49 92.48 91.96 88.22 81.08 71.17 58.67 46.12 35.92 27.8
1514.248 21.5 16.83 13.34 11.03 9.66 8.52 7.59 6.85 6.1 5.78
1533.538 5.49 4.88 4.63 4.45 4.22 3.93 3.75 4.19 4.45 4.73
1552.827 5.11 5.25 5.67 6.32 6.91 7.44 7.94 8.35 9.26 10.14
1572.117 10.4 11.13 12.21 12.87 13.55 14.58 15.64 17.06 18.64 20.02
1591.407 21.17 22.36 23.87 25.19 26.53 28.39 30.91 34.01 37.48 41.16
1610.697 44.35 46.54 47.36 46.67 44.77 41.33 36.54 30.89 25.11 19.97
1629.986 15.75 12.91 10.9 9.08 7.6 6.33 5.2 4.68 4.2 3.79
1649.276 3.65 3.65 3.71 3.64 3.98 4.17 4.23 4.3 4.37 4.47
1668.566 4.3 4.21 4 3.66 3.3 2.9 2.74 2.7 2.4647 2.13
1687.856 1.9473 1.972 1.9164 1.8543 1.847 1.7776 1.9104 1.9153 1.7607 1.7991
1707.146 1.8204 1.8483 1.9708 2.0606 2.1854 2.1446 1.9854 1.974 2.0265 2.0691
1726.435 2.1375 2.0955 1.8634 1.7739 1.8743 1.8169 1.8271 1.928 1.8257 1.7035
1745.725 1.58175 1.5803 1.65424 1.7253 1.8234 1.803 1.9236 2.2599 2.59 2.97
1765.015 3.41 3.74 3.91 4.39 4.94 5.14 5.18 5.11 4.96 4.79
1784.305 4.58 4.24 3.82 3.36 2.94 2.5151 2.2437 2.1321 1.9639 1.7307
1803.594 1.60163 1.5108 1.5054 1.5561 1.408 1.336 1.349 1.182 1.144 1.31
1822.884 1.311 1.168 1.106 1.159 1.25 1.203 1.094 1.168 1.351 1.5047
1842.174 1.427 1.328 1.291 1.325 1.4835 1.435 1.266 1.35 1.46 1.415
1861.464 1.5276 1.59787 1.5188 1.59753 1.6881 1.7363 1.6923 1.4852 1.418 1.57606
1880.754 1.57596 1.5656 1.62405 1.8274 1.9969 2.034 2.2393 2.61 2.91 3
1900.043 3.46 3.87 3.97 4.19 4.34 4.23 4.06 3.86 3.66 3.45
1919.333 3.22 2.94 2.63 2.4244 2.3129 2.2879 2.2024 2.1274 2.1364 2.0365
1938.623 2.1254 2.1595 2.0032 2.0043 1.8359 1.7942 1.9109 1.7588 1.659 1.762
1957.913 1.8276 1.7531 1.7249 1.58938 1.344 1.263 1.401 1.5545 1.429 1.23
1977.202 1.162 1.139 1.215 1.283 1.206 1.313 1.431 1.368 1.333 1.209
1996.492 1.131 1.137 1.148 1.131 1.066 1.062 1.114 1.256 1.259 1.188
2015.782 1.239 1.214 1.227 1.125 1.09 1.38 1.379 1.317 1.297 1.286
2035.072 1.316 1.389 1.58813 1.424 1.258 1.298 1.191 1.282 1.35 1.381
2054.362 1.5006 1.509 1.5056 1.4907 1.5173 1.7348 1.7926 1.7287 1.6823 1.6237
2073.651 1.59517 1.64439 1.64732 1.5213 1.5261 1.5747 1.45 1.27 1.297 1.348
2092.941 1.273 1.268 1.221 1.209 1.29 1.283 1.251 1.171 1.274 1.5627
2112.231 1.5287 1.442 1.57677 1.58466 1.5443 1.66072 1.6967 1.7844 2.0839 2.1412
2131.521 2.2518 2.4156 2.4052 2.4865 2.4846 2.3733 2.3662 2.3803 2.142 1.9848
2150.810 1.7634 1.46 1.412 1.475 1.476 1.16 1.083 1.245 1.253 1.259
2170.100 1.247 1.194 1.097 1.166 1.196 1.246 1.306 1.226 1.318 1.329
2189.390 1.254 1.458 1.394 1.084 1.296 1.442 1.454 1.388 1.386 1.374
2208.680 1.203 1.179 1.323 1.58903 1.8145 1.8417 1.9262 2.0396 2.1356 2.3495
2227.970 2.5686 3.08 3.42 3.53 3.73 3.79 3.75 3.67 3.56 3.18
2247.259 2.62 2.1838 2.0229 1.9726 1.8139 1.63416 1.5482 1.61582 1.5218 1.425
2266.549 1.5368 1.58203 1.5317 1.329 1.248 1.289 1.294 1.391 1.442 1.359
2285.839 1.479 1.5419 1.376 1.392 1.5648 1.5208 1.5233 1.5644 1.269 1.312
2305.129 1.57 1.465 1.478 1.6935 1.7656 1.7502 1.64194 1.431 1.454 1.7139
2324.418 1.8823 1.8563 1.7602 1.9202 1.9609 1.926 2.0125 1.853 1.8023 1.7916
2343.708 1.8448 2.1491 2.1083 2.0619 2.1605 2.1919 2.1069 2.1312 2.2001 2.2836
2362.998 2.3907 2.2717 2.1113 2.105 2.2582 2.1522 2.056 2.0934 2.0334 1.8209
2382.288 1.712 1.7031 1.63667 1.6308 1.5361 1.458 1.60837 1.60261 1.5801 1.8311
2401.578 1.8696 1.6926 1.7202 1.8592 1.7524 1.7425 1.8841 1.8886 1.7852 1.6873
2420.867 1.8305 1.7827 1.64282 1.5697 1.4995 1.5374 1.4952 1.437 1.4809 1.5282
2440.157 1.5248 1.66865 1.8975 1.8047 1.5917 1.5449 1.64049 1.61265 1.5632 1.369
2459.447 1.125 1.285 1.361 1.069 1.093 1.449 1.217 1.262 1.5114 1.5513
2478.737 1.61744 1.60374 1.58834 1.444 1.516 1.8437 1.9092 1.7681 1.7602 1.9477
2498.026 2.1143 2.1543 2.1493 2.1074 2.1234 2.2165 2.2179 2.2201 2.1823 2.0586
2517.316 1.831 1.63569 1.8346 2.0978 2.1774 2.2642 2.3903 2.3917 2.67 2.76
2536.606 2.5115 2.4814 2.2442 2.0058 2.1492 2.16 2.0564 1.6963 1.65211 1.8149
2555.896 1.7429 1.7536 1.462 1.376 1.451 1.522 1.4 1.235 1.317 1.4912
2575.186 1.4838 1.431 1.416 1.073 1.078 1.45 1.395 1.115 1.105 1.058
2594.475 1.245 1.6519 1.7077 1.7188 1.5448 1.179 1.167 1.293 1.291 1.172
2613.765 1.2 1.232 1.052 1.094 1.001 0.893 1.032 1.01 0.975 1.046
2633.055 0.931 1.116 1.262 0.983 0.865 0.791 0.785 0.918 1.029 0.935
2652.345 1.027 1.022 0.647 0.53 0.959 1.219 0.982 0.883 1.152 1.283
2671.634 1.208 0.827 0.736 1.03 1.209 1.217 1.238 1.257 0.946 0.729
2690.924 0.921 1.231 1.255 1.208 1.177 1.108 1.012 0.939 1.03 1.275
2710.214 1.204 1.189 1.146 1.088 0.973 0.652 0.686 0.799 0.991 1.279
2729.504 1.361 1.312 1.345 1.294 1.02 0.927 0.849 0.803 1.014 0.917
2748.794 0.917 1.057 1.125 1.361 1.306 0.918 0.584 0.684 0.772 0.39
2768.083 0.38 0.592 0.625 0.688 0.681 0.732 1.007 1.171 1.073 0.809
2787.373 0.674 0.771 0.762 0.847 1.163 1.134 0.996 1.011 1.076 0.983
2806.663 0.761 0.914 1.034 0.886 0.49 0.617 1.029 1.104 1.24 1.096
2825.953 0.87 0.979 1.392 1.34 0.855 0.944 1.262 1.115 1.022 1.243
2845.242 1.061 0.86 0.864 0.859 0.836 0.928 1.133 1.321 1.55 1.352
2864.532 1.159 1.171 1.046 1.027 1.297 1.229 0.813 1.082 1.219 1.042
2883.822 0.941 0.56 0.665 0.921 1.051 1.451 1.399 1.237 1.126 0.808
2903.112 0.774 0.837 0.654 0.721 0.715 0.724 0.827 0.921 0.947 0.797
2922.401 0.689 0.603 0.49 0.53 0.651 0.28 0.24 0.46 0.777 0.916
2941.691 0.51 0.27 0.5 0.589 0.738 1.066 0.743 0.44 0.24 0.31
2960.981 0.56 0.51 0.11 0 0.48 0.42 0.54 0.989 1.156 0.921
2980.271 0.717 0.804 0.655 0.775 1.044 0.996 1.144 1.065 0.893 0.866
2999.561 0.899 1.106 0.835 0.92 1.013 0.764 0.806 1.037 1.054 0.724
3018.850 0.893 1.031 0.843 0.9 0.844 0.606 0.657 0.775 0.968 1.042
3038.140 0.943 0.787 0.48 0.51 0.782 0.766 0.695 1.065 1.107 0.837
3057.430 1.029 1.172 1.128 1.313 1.60299 1.329 1.419 1.565 1.3 1.5422
3076.720 2.0375 2.3254 2.4193 2.63 3.35 3.8 3.7 3.78 3.65 4.04
3096.009 4.23 3.96 3.86 3.58 3.12 2.69 2.4118 1.7273 1.034 1.372
3115.299 1.64015 1.415 1.221 1.227 1.288 1.264 1.538 1.356 0.952 0.87
3134.589 0.615 0.45 0.53 0.38 0.35 0.52 0.984 1.191 1.195 1.286
3153.879 0.872 0.755 0.688 0.52 0.689 0.759 1.007 1.107 0.952 0.51
3173.169 0.49 0.933 0.603 0.26 0.835 1.363 1.31 1.274 1.027 0.884
3192.458 1.267 1.49 0.969 0.653 1.003 1.306 1.368 1.403 1.085 0.69
3211.748 0.836 1.082 0.963 1.104 1.051 1.295 1.6488 0.924 0.54 0.45
3231.038 0.716 1.246 1.088 0.614 0.42 0.46 0.624 0.712 0.14 0.15
3250.328 0.644 0.95 1.129 0.822 0.901 1.013 0.875 0.624 0.722 0.609
3269.617 0.642 1.288 1.011 1.099 1.202 0.623 0.646 0.748 0.7 0.42
3288.907 0.26 0.594 0.832 0.891 0.661 0.799 1.192 1.086 0.85 0.707
3308.197 0.657 0.705 0.778 0.847 1.093 1.183 0.871 0.55 0.79 1.074
3327.487 0.892 0.802 0.943 0.779 0.718 0.777 0.55 0.814 0.853 0.624
3346.777 0.73 0.968 0.882 0.717 0.53 0.43 0.45 0.48 0.696 1.166
3366.066 1.414 1.131 1.098 1.048 1.049 1.098 1.318 1.252 0.42 0.13
3385.356 0.53 0.52 0.43 0.629 0.732 0.968 0.842 0.73 1.158 1.407
3404.646 1.136 0.791 0.93 0.775 0.99 1.4949 1.295 1.17 1.158 0.791
3423.936 0.609 1.006 0.854 0.679 1.165 1.052 0.2 0.03 0.46 0.8
3443.225 0.912 0.694 0.759 0.789 0.614 0.955 1.394 1.069 1.252 1.417
3462.515 1.387 1.278 0.745 0.586 0.664 0.998 0.849 1.12 1.204 0.5
3481.805 0.895 0.867 0.735 1.015 1.192 1.032 0.871 1 0.752 0.5
3501.095 0.57 1.029 1.274 1.295 1.075 0.921 0.898 0.846 0.673 0.723
3520.385 0.903 0.852 0.807 0.752 1.09 0.926 1.045 1.424 1.134 1.132
3539.674 1.116 1.267 1.5065 1.258 0.866 0.889 0.925 0.627 0.602 0.789
3558.964 0.35 0.42 1.018 1.111 1.049 0.822 0.588 1.204 1.352 1.236
3578.254 1.5242 1.045 0.57 0.693 0.929 0.969 0.814 0.818 0.842 0.699
3597.544 0.775 0.839 0.956 1.229 1.27 0.691 0.57 0.673 0.593 0.753
3616.833 1.014 1.247 1.093 0.95 0.846 0.622 0.54 0.39 0.33 0.49
3636.123 0.759 0.978 1.057 1.102 1.032 0.857 1.013 1.26 0.836 0.641
3655.413 0.937 0.77 0.41 0.46 0.582 0.33 0.52 1.224 1.222 1.094
3674.703 1.046 0.813 0.653 0.805 0.56 0.35 1.082 1.64645 1.116 0.55
3693.993 0.719 1.027 1.362 1.31 1.106 0.964 0.965 0.822 0.685 0.5
3713.282 0.42 0.804 1.206 1.448 1.405 1.356 1.202 0.941 1.022 0.765
3732.572 0.626 0.965 0.927 0.601 0.602 0.935 1.229 1.138 1.078 1.121
3751.862 1.072 1.102 1.015 1.127 0.877 0.676 0.672 1.057 1.421 1.328
3771.152 1.63949 1.476 0.83 0.73 0.75 0.711 0.856 0.959 1.095 1.048
3790.441 0.802 0.618 0.931 0.965 0.993 1.31 1.249 0.713 0.72 1.042
3809.731 0.62 0.57 1.244 1.5114 1.242 1.001 1.014 1.154 1.222 1.5015
3829.021 1.466 1.391 1.5403 1.59196 1.5057 1.225 1.324 1.447 1.121 0.771
3848.311 0.811 1 1.355 1.5251 1.467 1.238 0.879 0.928 0.876 0.813
3867.601 0.761 0.59 1.017 0.912 0.42 0.58 0.38 0.48 0.774 0.857
3886.890 1.045 1.142 0.785 0.943 1.172 0.91 0.879 0.765 0.57 0.954
3906.180 1.019 0.811 1.026 0.804 0.47 0.47 0.865 1.246 1.175 0.584
3925.470 0.38 0.682 1.115 1.16 0.9 0.67 0.772 1.276 0.974 0.48
3944.760 0.645 0.801 0.55 0.598 0.799 0.36 0.45 0.909 0.916 0.89
3964.049 0.756 0.684 0.964 1.042 0.842 1.21 1.5862 1.341 0.991 1.216
3983.339 1.128 0.866 0.742 0.673 0.34 0 0.2 0.51 0.846 1.03
##END=
