##TITLE=ANILINE, N-BENZOYL-4-NITRO-3-PHENYLSULFONYL-
##JCAMP-DX=4.24
##DATA TYPE=INFRARED SPECTRUM
##CLASS=COBLENTZ II
##ORIGIN=EASTMAN KODAK COMPANY
##OWNER=COBLENTZ SOCIETY
Collection (C) 2018 copyright by the U.S. Secretary of Commerce
on behalf of the United States of America. All rights reserved.
##DATE=1970/05/22
##NAMES=N-[4-nitro-3-(phenylsulfonyl)phenyl]benzamide
BENZAMIDE, N-[3-(PHENYLSULFONYL)-4-NITROPHENYL]-
##CAS REGISTRY NO=19770-93-5
##MOLFORM=C19 H14 N2 O5 S
##MP=255 C
##SOURCE REFERENCE=COBLENTZ NO. 10268
##$NIST SOURCE=COBLENTZ
##$NIST IMAGE=cob10268
##SPECTROMETER/DATA SYSTEM=BECKMAN IR-12 (GRATING)
##INSTRUMENT PARAMETERS=GRATING CHANGES AT 300, 650, 2000 CM^-^1
##STATE=SOLID (1.5% IN KBr DISC)
##PATH LENGTH=
$$ SEE J. ORG. CHEM. 34, 2083, 1969
##SAMPLING PROCEDURE=TRANSMISSION
##RESOLUTION=4
##DATA PROCESSING=DIGITIZED BY NIST FROM HARD COPY (FROM TWO SEGMENTS)
##XUNITS=1/CM
##YUNITS=TRANSMITTANCE
##XFACTOR=1.000000
##YFACTOR=1
##DELTAX=0.989448
##FIRSTX=302.111
##LASTX=4000.67
##FIRSTY=0.729
##MAXX=4000.67
##MINX=302.111
##MAXY=0.981
##MINY=0.024
##NPOINTS=3739
##XYDATA=(X++(Y..Y))
302.111000 0.7290 0.7270 0.7250 0.7240 0.7210
307.058238 0.7120 0.7080 0.6960 0.6811 0.6691
312.005476 0.6670 0.6650 0.6650 0.6650 0.6660
316.952714 0.6670 0.6690 0.6720 0.6750 0.6760
321.899953 0.6790 0.6830 0.6860 0.6880 0.6900
326.847191 0.6920 0.6930 0.6970 0.6970 0.6980
331.794429 0.6990 0.6970 0.6940 0.6930 0.6930
336.741667 0.6970 0.6980 0.7080 0.7080 0.7070
341.688905 0.7060 0.7050 0.7040 0.7030 0.6980
346.636143 0.6920 0.6780 0.6611 0.6610 0.6640
351.583382 0.6670 0.6700 0.6710 0.6760 0.6820
356.530620 0.6870 0.6920 0.6950 0.7020 0.7090
361.477858 0.7100 0.7150 0.7150 0.7180 0.7190
366.425096 0.7190 0.7190 0.7190 0.7190 0.7190
371.372334 0.7160 0.7150 0.7150 0.7150 0.7160
376.319572 0.7160 0.7170 0.7200 0.7200 0.7210
381.266811 0.7200 0.7190 0.7160 0.7080 0.7040
386.214049 0.7040 0.7070 0.7080 0.7080 0.7130
391.161287 0.7140 0.7140 0.7140 0.7140 0.7140
396.108525 0.7130 0.7120 0.7110 0.7090 0.7080
401.055763 0.7070 0.7010 0.7010 0.7050 0.7050
406.003001 0.7090 0.7110 0.7130 0.7140 0.7140
410.950240 0.7210 0.7240 0.7250 0.7250 0.7260
415.897478 0.7260 0.7230 0.7190 0.7150 0.7140
420.844716 0.7140 0.7160 0.7170 0.7170 0.7170
425.791954 0.7190 0.7190 0.7200 0.7230 0.7240
430.739192 0.7260 0.7260 0.7250 0.7250 0.7220
435.686430 0.7150 0.7040 0.7020 0.6841 0.6840
440.633669 0.6920 0.7020 0.7040 0.7220 0.7240
445.580907 0.7300 0.7310 0.7440 0.7450 0.7450
450.528145 0.7450 0.7450 0.7470 0.7550 0.7660
455.475383 0.7760 0.7820 0.7870 0.7970 0.8000
460.422621 0.8030 0.8050 0.8100 0.8180 0.8250
465.369859 0.8310 0.8330 0.8350 0.8350 0.8380
470.317097 0.8390 0.8410 0.8440 0.8450 0.8460
475.264336 0.8460 0.8430 0.8390 0.8350 0.8310
480.211574 0.8250 0.8250 0.8280 0.8340 0.8420
485.158812 0.8420 0.8430 0.8480 0.8550 0.8630
490.106050 0.8670 0.8710 0.8770 0.8780 0.8790
495.053288 0.8790 0.8790 0.8790 0.8780 0.8760
500.000526 0.8710 0.8630 0.8510 0.8380 0.8290
504.947765 0.8210 0.8100 0.7990 0.7970 0.7960
509.895003 0.7970 0.8150 0.8280 0.8430 0.8520
514.842241 0.8530 0.8590 0.8620 0.8620 0.8650
519.789479 0.8690 0.8700 0.8680 0.8670 0.8650
524.736717 0.8630 0.8431 0.8251 0.8101 0.7752
529.683955 0.7510 0.7130 0.6480 0.6140 0.5930
534.631194 0.5930 0.6010 0.6090 0.6459 0.6848
539.578432 0.7220 0.7430 0.7880 0.8230 0.8320
544.525670 0.8430 0.8480 0.8619 0.8640 0.8690
549.472908 0.8720 0.8730 0.8720 0.8700 0.8680
554.420146 0.8650 0.8600 0.8530 0.8420 0.8111
559.367384 0.8030 0.7730 0.6571 0.6220 0.6030
564.314623 0.5721 0.5541 0.5540 0.5958 0.6448
569.261861 0.6650 0.6980 0.7330 0.7690 0.7910
574.209099 0.7990 0.8140 0.8180 0.8160 0.8140
579.156337 0.8010 0.7880 0.7670 0.7390 0.7081
584.103575 0.6721 0.6341 0.5951 0.5572 0.5202
589.050813 0.4130 0.3870 0.2770 0.2700 0.2700
593.998052 0.3468 0.4378 0.4998 0.5578 0.5899
598.945290 0.6170 0.6430 0.6550 0.6840 0.6920
603.892528 0.6920 0.6860 0.6760 0.6700 0.6551
608.839766 0.6420 0.6310 0.6020 0.5590 0.5450
613.787004 0.5230 0.4691 0.4690 0.5059 0.5647
618.734242 0.6040 0.6350 0.6710 0.6870 0.7040
623.681481 0.7180 0.7320 0.7430 0.7540 0.7630
628.628719 0.7770 0.7810 0.7920 0.7980 0.8070
633.575957 0.8140 0.8220 0.8260 0.8330 0.8350
638.523195 0.8350 0.8300 0.8140 0.7920 0.7850
643.470433 0.7850 0.7900 0.8050 0.8170 0.8250
648.417671 0.8340 0.8430 0.8460 0.8450 0.8430
653.364909 0.8420 0.8400 0.8380 0.8370 0.8380
658.312148 0.8390 0.8390 0.8370 0.8270 0.7960
663.259386 0.7850 0.7700 0.7451 0.7091 0.7070
668.206624 0.7090 0.7240 0.7330 0.7430 0.7490
673.153862 0.7520 0.7550 0.7590 0.7570 0.7500
678.101100 0.7309 0.6720 0.6170 0.4161 0.2622
683.048338 0.2410 0.2410 0.3098 0.3628 0.4148
687.995577 0.4170 0.4170 0.4180 0.4270 0.4679
692.942815 0.4939 0.5119 0.5170 0.5180 0.5130
697.890053 0.4850 0.4450 0.3890 0.3270 0.3320
702.837291 0.3749 0.4957 0.5309 0.5559 0.5789
707.784529 0.6050 0.6300 0.6550 0.6780 0.7249
712.731767 0.7499 0.7630 0.7690 0.7790 0.7989
717.679006 0.8130 0.8250 0.8310 0.8400 0.8490
722.626244 0.8500 0.8490 0.8470 0.8360 0.8081
727.573482 0.7790 0.7450 0.6331 0.5082 0.4172
732.520720 0.3611 0.3052 0.2572 0.2560 0.3048
737.467958 0.4040 0.4081 0.5770 0.6619 0.7419
742.415196 0.7420 0.6343 0.5961 0.5422 0.5420
747.362435 0.5990 0.5990 0.4881 0.4261 0.3861
752.309673 0.3860 0.4697 0.5756 0.7552 0.7729
757.256911 0.7950 0.8220 0.8470 0.8670 0.8780
762.204149 0.8890 0.8940 0.9040 0.9140 0.9200
767.151387 0.9280 0.9360 0.9390 0.9440 0.9480
772.098625 0.9520 0.9570 0.9580 0.9580 0.9580
777.045864 0.9580 0.9600 0.9630 0.9650 0.9670
781.993102 0.9670 0.9680 0.9680 0.9670 0.9650
786.940340 0.9620 0.9610 0.9590 0.9590 0.9590
791.887578 0.9570 0.9520 0.9390 0.9290 0.9121
796.834816 0.8520 0.8520 0.8670 0.8900 0.9220
801.782054 0.9360 0.9460 0.9470 0.9480 0.9530
806.729292 0.9570 0.9630 0.9640 0.9640 0.9640
811.676531 0.9640 0.9640 0.9640 0.9640 0.9630
816.623769 0.9630 0.9630 0.9610 0.9600 0.9590
821.571007 0.9580 0.9540 0.9460 0.9450 0.9400
826.518245 0.9340 0.9280 0.9200 0.9100 0.8960
831.465483 0.8750 0.8231 0.7512 0.6683 0.5853
836.412721 0.5120 0.4430 0.3900 0.3900 0.4709
841.359960 0.5778 0.6907 0.7050 0.7219 0.7220
846.307198 0.6529 0.5779 0.4960 0.4450 0.4450
851.254436 0.6057 0.7207 0.8157 0.8469 0.8679
856.201674 0.8830 0.8940 0.9030 0.9090 0.9170
861.148912 0.9270 0.9400 0.9470 0.9490 0.9530
866.096150 0.9560 0.9560 0.9590 0.9610 0.9630
871.043389 0.9630 0.9620 0.9610 0.9600 0.9590
875.990627 0.9590 0.9560 0.9540 0.9520 0.9480
880.937865 0.9470 0.9440 0.9370 0.9300 0.9280
885.885103 0.9190 0.9140 0.9060 0.8600 0.8530
890.832341 0.8171 0.7931 0.7661 0.7371 0.7370
895.779579 0.7410 0.7410 0.7390 0.7180 0.7000
900.726818 0.6611 0.6311 0.6310 0.6649 0.6849
905.674056 0.7100 0.7300 0.7530 0.7900 0.8200
910.621294 0.8549 0.8769 0.8910 0.9010 0.9080
915.568532 0.9160 0.9270 0.9340 0.9340 0.9340
920.515770 0.9310 0.9260 0.9210 0.9120 0.9080
925.463008 0.9070 0.9050 0.8980 0.8710 0.8390
930.410247 0.8390 0.8669 0.8969 0.9189 0.9280
935.357485 0.9370 0.9390 0.9410 0.9460 0.9510
940.304723 0.9570 0.9630 0.9660 0.9660 0.9670
945.251961 0.9670 0.9680 0.9710 0.9730 0.9690
950.199199 0.9710 0.9720 0.9740 0.9750 0.9760
955.146437 0.9740 0.9690 0.9680 0.9680 0.9710
960.093676 0.9690 0.9680 0.9680 0.9680 0.9670
965.040914 0.9660 0.9630 0.9580 0.9560 0.9530
969.988152 0.9500 0.9390 0.9240 0.9150 0.9140
974.935390 0.9140 0.9130 0.9110 0.9130 0.9230
979.882628 0.9300 0.9460 0.9520 0.9520 0.9460
984.829866 0.9440 0.9350 0.9310 0.9310 0.9290
989.777104 0.9300 0.9240 0.9150 0.9140 0.9140
994.724343 0.9180 0.9180 0.9140 0.8890 0.8351
999.671581 0.8350 0.8470 0.8699 0.8760 0.8890
1004.618819 0.9080 0.9170 0.9280 0.9310 0.9310
1009.566057 0.9290 0.9280 0.9280 0.9240 0.9051
1014.513295 0.9020 0.8950 0.8930 0.8870 0.8730
1019.460533 0.8610 0.8390 0.8280 0.8150 0.7742
1024.407772 0.7370 0.7260 0.7240 0.7240 0.7240
1029.355010 0.7150 0.7150 0.7240 0.8247 0.8619
1034.302248 0.8760 0.8770 0.8770 0.8750 0.8600
1039.249486 0.8320 0.8001 0.7821 0.7601 0.7391
1044.196724 0.7390 0.7480 0.7610 0.7700 0.7770
1049.143962 0.7780 0.7770 0.7491 0.7490 0.7779
1054.091201 0.8150 0.8350 0.8480 0.8610 0.8730
1059.038439 0.8770 0.8770 0.8730 0.8660 0.8540
1063.985677 0.8320 0.8240 0.8050 0.7800 0.7520
1068.932915 0.6941 0.6591 0.6460 0.6031 0.5980
1073.880153 0.6000 0.6310 0.6540 0.6690 0.6930
1078.827391 0.7010 0.7030 0.6841 0.6601 0.6052
1083.774630 0.5589 0.5130 0.4910 0.4910 0.5220
1088.721868 0.5510 0.6029 0.6110 0.6379 0.6420
1093.669106 0.6450 0.6420 0.6390 0.6430 0.6560
1098.616344 0.6700 0.6780 0.6940 0.7109 0.7299
1103.563582 0.7370 0.7490 0.7600 0.7720 0.7790
1108.510820 0.7880 0.7940 0.7970 0.8040 0.8130
1113.458059 0.8150 0.8150 0.8130 0.8110 0.8090
1118.405297 0.8050 0.7980 0.7940 0.7870 0.7770
1123.352535 0.7610 0.7460 0.7350 0.7110 0.6890
1128.299773 0.6560 0.6350 0.6141 0.5821 0.5292
1133.247011 0.4419 0.3909 0.3500 0.3010 0.2450
1138.194249 0.2180 0.1910 0.1910 0.2349 0.3516
1143.141487 0.3840 0.4100 0.4310 0.4470 0.4520
1148.088726 0.4490 0.4310 0.3961 0.3332 0.2852
1153.035964 0.2329 0.1810 0.1610 0.1420 0.1220
1157.983202 0.1020 0.1020 0.1289 0.1739 0.4072
1162.930440 0.5370 0.5600 0.5840 0.6250 0.6849
1167.877678 0.7090 0.7200 0.7300 0.7440 0.7570
1172.824916 0.7660 0.7710 0.7760 0.7760 0.7740
1177.772155 0.7730 0.7680 0.7500 0.7340 0.7210
1182.719393 0.7240 0.7560 0.7680 0.7800 0.7860
1187.666631 0.7960 0.7960 0.7930 0.7930 0.7940
1192.613869 0.7960 0.8040 0.8140 0.8230 0.8280
1197.561107 0.8320 0.8320 0.8340 0.8350 0.8350
1202.508345 0.8360 0.8350 0.8330 0.8320 0.8270
1207.455584 0.8250 0.8200 0.8170 0.8160 0.8120
1212.402822 0.8060 0.7970 0.7930 0.7850 0.7770
1217.350060 0.7690 0.7630 0.7490 0.7420 0.7290
1222.297298 0.7150 0.6930 0.6690 0.6490 0.6200
1227.244536 0.5930 0.5641 0.5251 0.4991 0.4512
1232.191774 0.4189 0.3840 0.3560 0.3270 0.2890
1237.139013 0.2680 0.2400 0.2230 0.2051 0.1831
1242.086251 0.1580 0.1500 0.1440 0.1440 0.1510
1247.033489 0.1910 0.2180 0.2769 0.3259 0.3619
1251.980727 0.3790 0.3790 0.3720 0.3570 0.3460
1256.927965 0.3380 0.3380 0.3590 0.3859 0.4259
1261.875203 0.4711 0.5190 0.5380 0.5560 0.5750
1266.822442 0.5940 0.6050 0.6200 0.6320 0.6360
1271.769680 0.6380 0.6380 0.6310 0.6060 0.5920
1276.716918 0.5431 0.5121 0.4621 0.4221 0.3981
1281.664156 0.3309 0.2660 0.2400 0.2190 0.1920
1286.611394 0.1580 0.1380 0.1300 0.1300 0.1569
1291.558632 0.1891 0.2300 0.2660 0.2800 0.3160
1296.505871 0.3470 0.3700 0.3730 0.3750 0.3531
1301.453109 0.2699 0.2380 0.2120 0.1910 0.1730
1306.400347 0.1700 0.1720 0.1840 0.2119 0.2319
1311.347585 0.2791 0.3140 0.3310 0.3470 0.3540
1316.294823 0.3470 0.3380 0.3220 0.3021 0.2900
1321.242061 0.2780 0.2640 0.2580 0.2550 0.2470
1326.189299 0.2310 0.1990 0.1641 0.1480 0.1181
1331.136538 0.1000 0.0820 0.0510 0.0400 0.0310
1336.083776 0.0250 0.0250 0.0290 0.0410 0.0450
1341.031014 0.0682 0.1621 0.2120 0.2380 0.2550
1345.978252 0.2690 0.2690 0.2630 0.2560 0.2560
1350.925490 0.2610 0.2761 0.3030 0.3260 0.3670
1355.872728 0.4070 0.4430 0.4670 0.4900 0.5070
1360.819967 0.5251 0.5520 0.5750 0.5920 0.6060
1365.767205 0.6180 0.6340 0.6490 0.6630 0.6710
1370.714443 0.6750 0.6810 0.6910 0.6920 0.6930
1375.661681 0.6890 0.6770 0.6590 0.6430 0.6081
1380.608919 0.5759 0.5440 0.5400 0.5400 0.5500
1385.556157 0.5730 0.5950 0.6160 0.6340 0.6420
1390.503396 0.6500 0.6630 0.6760 0.6850 0.6950
1395.450634 0.7070 0.7190 0.7250 0.7260 0.7270
1400.397872 0.7280 0.7400 0.7450 0.7460 0.7540
1405.345110 0.7610 0.7680 0.7760 0.7830 0.7890
1410.292348 0.7940 0.8040 0.8100 0.8140 0.8230
1415.239586 0.8240 0.8280 0.8320 0.8360 0.8390
1420.186825 0.8410 0.8440 0.8460 0.8480 0.8500
1425.134063 0.8530 0.8550 0.8570 0.8590 0.8600
1430.081301 0.8600 0.8590 0.8590 0.8570 0.8570
1435.028539 0.8560 0.8550 0.8510 0.8450 0.8400
1439.975777 0.8320 0.8190 0.7970 0.7730 0.7230
1444.923015 0.6571 0.5971 0.4982 0.4142 0.4140
1449.870254 0.5602 0.6361 0.6931 0.7620 0.7880
1454.817492 0.8050 0.8130 0.8220 0.8240 0.8310
1459.764730 0.8340 0.8350 0.8340 0.8310 0.8240
1464.711968 0.8140 0.8070 0.7920 0.7810 0.7651
1469.659206 0.7490 0.7420 0.7300 0.7110 0.6860
1474.606444 0.6560 0.6260 0.5951 0.5132 0.4941
1479.553682 0.4720 0.4500 0.4280 0.4280 0.4590
1484.500921 0.4790 0.5070 0.5070 0.5000 0.4263
1489.448159 0.3799 0.3349 0.2729 0.2170 0.1800
1494.395397 0.1680 0.1680 0.1949 0.3037 0.3449
1499.342635 0.3821 0.4340 0.4370 0.4370 0.4270
1504.289873 0.4200 0.4060 0.3900 0.3680 0.3351
1509.237111 0.2880 0.2689 0.1990 0.1810 0.1540
1514.184350 0.1140 0.1020 0.0900 0.0671 0.0491
1519.131588 0.0440 0.0370 0.0300 0.0260 0.0240
1524.078826 0.0250 0.0380 0.0500 0.0630 0.1059
1529.026064 0.1281 0.1830 0.2090 0.2220 0.2220
1533.973302 0.2090 0.1910 0.1641 0.1261 0.0991
1538.920540 0.0850 0.0709 0.0420 0.0340 0.0240
1543.867779 0.0240 0.0270 0.0320 0.0410 0.0580
1548.815017 0.1931 0.2420 0.2730 0.3220 0.4050
1553.762255 0.4350 0.4729 0.5119 0.5489 0.5929
1558.709493 0.6190 0.6350 0.6510 0.6770 0.7000
1563.656731 0.7150 0.7250 0.7300 0.7350 0.7350
1568.603969 0.7360 0.7360 0.7360 0.7320 0.7260
1573.551208 0.7170 0.7070 0.6850 0.6720 0.6541
1578.498446 0.6059 0.5699 0.5289 0.4750 0.4190
1583.445684 0.3890 0.3600 0.3281 0.3180 0.2891
1588.392922 0.2700 0.2510 0.2230 0.2070 0.2070
1593.340160 0.2390 0.2690 0.3309 0.3809 0.4468
1598.287398 0.4901 0.5311 0.5610 0.5860 0.6030
1603.234637 0.6100 0.6150 0.6260 0.6450 0.6629
1608.181875 0.7030 0.7141 0.7360 0.7550 0.7720
1613.129113 0.7880 0.8060 0.8130 0.8240 0.8370
1618.076351 0.8430 0.8520 0.8570 0.8620 0.8660
1623.023589 0.8700 0.8770 0.8820 0.8850 0.8870
1627.970827 0.8890 0.8910 0.8920 0.8930 0.8930
1632.918066 0.8940 0.8940 0.8930 0.8930 0.8940
1637.865304 0.8950 0.8970 0.8980 0.9020 0.9020
1642.812542 0.9000 0.8990 0.8980 0.8980 0.8960
1647.759780 0.8940 0.8930 0.8890 0.8860 0.8760
1652.707018 0.8730 0.8730 0.8820 0.8830 0.8830
1657.654256 0.8810 0.8810 0.8770 0.8740 0.8690
1662.601494 0.8640 0.8600 0.8550 0.8530 0.8450
1667.548733 0.8410 0.8310 0.8210 0.8150 0.8100
1672.495971 0.7990 0.7830 0.7640 0.7490 0.7320
1677.443209 0.6939 0.6439 0.6060 0.5780 0.4790
1682.390447 0.3911 0.2941 0.2591 0.2051 0.1751
1687.337685 0.1320 0.1260 0.1261 0.1731 0.3050
1692.284923 0.3570 0.4449 0.4790 0.5239 0.5709
1697.232162 0.6091 0.6421 0.6730 0.7000 0.7230
1702.179400 0.7450 0.7650 0.7810 0.7950 0.8060
1707.126638 0.8150 0.8230 0.8310 0.8370 0.8410
1712.073876 0.8440 0.8520 0.8550 0.8590 0.8650
1717.021114 0.8700 0.8710 0.8730 0.8780 0.8800
1721.968352 0.8860 0.8910 0.8920 0.8930 0.8950
1726.915591 0.9010 0.9010 0.9020 0.9030 0.9030
1731.862829 0.9040 0.9060 0.9090 0.9120 0.9130
1736.810067 0.9130 0.9150 0.9160 0.9170 0.9230
1741.757305 0.9230 0.9260 0.9290 0.9330 0.9340
1746.704543 0.9370 0.9390 0.9420 0.9440 0.9450
1751.651781 0.9460 0.9460 0.9470 0.9480 0.9480
1756.599020 0.9480 0.9470 0.9470 0.9450 0.9450
1761.546258 0.9440 0.9450 0.9450 0.9440 0.9440
1766.493496 0.9430 0.9440 0.9450 0.9480 0.9510
1771.440734 0.9510 0.9520 0.9550 0.9560 0.9560
1776.387972 0.9560 0.9570 0.9570 0.9580 0.9590
1781.335210 0.9590 0.9600 0.9620 0.9620 0.9630
1786.282449 0.9630 0.9640 0.9640 0.9630 0.9630
1791.229687 0.9630 0.9620 0.9610 0.9610 0.9600
1796.176925 0.9600 0.9570 0.9570 0.9570 0.9570
1801.124163 0.9580 0.9570 0.9570 0.9560 0.9550
1806.071401 0.9550 0.9550 0.9530 0.9500 0.9490
1811.018639 0.9490 0.9480 0.9460 0.9450 0.9460
1815.965877 0.9470 0.9530 0.9550 0.9550 0.9550
1820.913116 0.9560 0.9560 0.9570 0.9580 0.9580
1825.860354 0.9590 0.9590 0.9620 0.9660 0.9660
1830.807592 0.9660 0.9660 0.9650 0.9670 0.9690
1835.754830 0.9700 0.9690 0.9680 0.9700 0.9710
1840.702068 0.9720 0.9740 0.9750 0.9750 0.9750
1845.649306 0.9750 0.9750 0.9770 0.9770 0.9770
1850.596545 0.9750 0.9750 0.9760 0.9790 0.9800
1855.543783 0.9790 0.9790 0.9790 0.9800 0.9780
1860.491021 0.9780 0.9780 0.9810 0.9810 0.9800
1865.438259 0.9810 0.9810 0.9790 0.9760 0.9750
1870.385497 0.9760 0.9760 0.9760 0.9750 0.9750
1875.332735 0.9750 0.9750 0.9770 0.9770 0.9770
1880.279974 0.9740 0.9730 0.9720 0.9710 0.9710
1885.227212 0.9710 0.9700 0.9700 0.9700 0.9690
1890.174450 0.9670 0.9640 0.9620 0.9610 0.9600
1895.121688 0.9580 0.9570 0.9570 0.9570 0.9570
1900.068926 0.9570 0.9580 0.9610 0.9660 0.9660
1905.016164 0.9670 0.9670 0.9660 0.9660 0.9660
1909.963403 0.9630 0.9630 0.9630 0.9630 0.9630
1914.910641 0.9620 0.9620 0.9630 0.9640 0.9670
1919.857879 0.9680 0.9680 0.9690 0.9690 0.9680
1924.805117 0.9680 0.9680 0.9680 0.9700 0.9710
1929.752355 0.9720 0.9720 0.9720 0.9720 0.9720
1934.699593 0.9710 0.9700 0.9690 0.9690 0.9680
1939.646832 0.9680 0.9680 0.9680 0.9670 0.9650
1944.594070 0.9630 0.9620 0.9580 0.9570 0.9570
1949.541308 0.9550 0.9540 0.9520 0.9520 0.9530
1954.488546 0.9530 0.9550 0.9550 0.9550 0.9550
1959.435784 0.9550 0.9550 0.9550 0.9500 0.9500
1964.383022 0.9520 0.9520 0.9530 0.9540 0.9570
1969.330261 0.9580 0.9580 0.9580 0.9590 0.9580
1974.277499 0.9570 0.9590 0.9590 0.9590 0.9590
1979.224737 0.9590 0.9620 0.9630 0.9630 0.9610
1984.171975 0.9610 0.9610 0.9610 0.9620 0.9640
1989.119213 0.9660 0.9660 0.9660 0.9660 0.9640
1994.066451 0.9650 0.9660 0.9680 0.9690 0.9690
1999.013689 0.9690 0.9700 0.9710 0.9720 0.9720
2003.960928 0.9720 0.9715 0.9710 0.9705 0.9700
2008.908166 0.9700 0.9700 0.9700 0.9700 0.9705
2013.855404 0.9710 0.9710 0.9710 0.9705 0.9700
2018.802642 0.9700 0.9700 0.9705 0.9710 0.9696
2023.749880 0.9681 0.9675 0.9670 0.9670 0.9670
2028.697118 0.9670 0.9670 0.9675 0.9680 0.9685
2033.644357 0.9690 0.9690 0.9690 0.9690 0.9690
2038.591595 0.9695 0.9700 0.9700 0.9700 0.9700
2043.538833 0.9700 0.9696 0.9691 0.9686 0.9681
2048.486071 0.9680 0.9680 0.9680 0.9680 0.9680
2053.433309 0.9680 0.9684 0.9689 0.9690 0.9690
2058.380547 0.9690 0.9690 0.9694 0.9699 0.9700
2063.327786 0.9700 0.9704 0.9709 0.9697 0.9682
2068.275024 0.9684 0.9689 0.9690 0.9690 0.9690
2073.222262 0.9690 0.9686 0.9681 0.9680 0.9680
2078.169500 0.9680 0.9680 0.9680 0.9680 0.9680
2083.116738 0.9680 0.9676 0.9671 0.9678 0.9688
2088.063976 0.9690 0.9690 0.9690 0.9690 0.9690
2093.011215 0.9690 0.9690 0.9690 0.9690 0.9690
2097.958453 0.9690 0.9690 0.9690 0.9690 0.9690
2102.905691 0.9690 0.9694 0.9699 0.9689 0.9674
2107.852929 0.9670 0.9670 0.9677 0.9687 0.9690
2112.800167 0.9690 0.9690 0.9690 0.9690 0.9690
2117.747405 0.9690 0.9690 0.9690 0.9690 0.9690
2122.694644 0.9690 0.9686 0.9681 0.9673 0.9663
2127.641882 0.9660 0.9660 0.9657 0.9652 0.9650
2132.589120 0.9650 0.9650 0.9650 0.9647 0.9642
2137.536358 0.9643 0.9648 0.9653 0.9658 0.9660
2142.483596 0.9660 0.9653 0.9643 0.9633 0.9623
2147.430834 0.9620 0.9620 0.9620 0.9620 0.9614
2152.378072 0.9604 0.9594 0.9584 0.9580 0.9580
2157.325311 0.9577 0.9572 0.9573 0.9578 0.9583
2162.272549 0.9588 0.9590 0.9590 0.9596 0.9606
2167.219787 0.9610 0.9610 0.9607 0.9602 0.9600
2172.167025 0.9600 0.9600 0.9600 0.9600 0.9600
2177.114263 0.9597 0.9592 0.9590 0.9590 0.9590
2182.061501 0.9590 0.9590 0.9590 0.9590 0.9590
2187.008740 0.9590 0.9590 0.9590 0.9590 0.9587
2191.955978 0.9582 0.9577 0.9572 0.9570 0.9570
2196.903216 0.9570 0.9570 0.9573 0.9578 0.9580
2201.850454 0.9580 0.9583 0.9588 0.9590 0.9590
2206.797692 0.9590 0.9590 0.9590 0.9590 0.9590
2211.744930 0.9590 0.9588 0.9583 0.9580 0.9580
2216.692169 0.9578 0.9573 0.9565 0.9555 0.9550
2221.639407 0.9550 0.9550 0.9550 0.9550 0.9550
2226.586645 0.9550 0.9550 0.9550 0.9550 0.9550
2231.533883 0.9550 0.9550 0.9550 0.9550 0.9550
2236.481121 0.9552 0.9557 0.9560 0.9560 0.9560
2241.428359 0.9560 0.9560 0.9560 0.9560 0.9560
2246.375598 0.9560 0.9560 0.9560 0.9560 0.9560
2251.322836 0.9560 0.9560 0.9560 0.9562 0.9567
2256.270074 0.9572 0.9577 0.9584 0.9594 0.9602
2261.217312 0.9607 0.9618 0.9638 0.9650 0.9650
2266.164550 0.9646 0.9636 0.9624 0.9610 0.9598
2271.111788 0.9593 0.9588 0.9583 0.9580 0.9580
2276.059027 0.9582 0.9587 0.9595 0.9610 0.9620
2281.006265 0.9620 0.9617 0.9607 0.9598 0.9593
2285.953503 0.9592 0.9597 0.9600 0.9600 0.9600
2290.900741 0.9600 0.9602 0.9607 0.9612 0.9616
2295.847979 0.9621 0.9627 0.9632 0.9637 0.9642
2300.795217 0.9646 0.9651 0.9656 0.9660 0.9660
2305.742456 0.9656 0.9641 0.9629 0.9624 0.9620
2310.689694 0.9620 0.9616 0.9601 0.9589 0.9584
2315.636932 0.9579 0.9574 0.9570 0.9570 0.9574
2320.584170 0.9589 0.9600 0.9600 0.9598 0.9588
2325.531408 0.9576 0.9561 0.9547 0.9532 0.9519
2330.478646 0.9514 0.9511 0.9516 0.9520 0.9520
2335.425884 0.9520 0.9520 0.9522 0.9532 0.9540
2340.373123 0.9540 0.9540 0.9540 0.9541 0.9546
2345.320361 0.9550 0.9550 0.9549 0.9544 0.9540
2350.267599 0.9540 0.9539 0.9534 0.9530 0.9530
2355.214837 0.9531 0.9536 0.9540 0.9540 0.9540
2360.162075 0.9540 0.9541 0.9546 0.9550 0.9550
2365.109313 0.9549 0.9544 0.9540 0.9540 0.9540
2370.056552 0.9540 0.9540 0.9540 0.9540 0.9540
2375.003790 0.9540 0.9540 0.9540 0.9540 0.9540
2379.951028 0.9540 0.9541 0.9546 0.9550 0.9550
2384.898266 0.9550 0.9545 0.9540 0.9535 0.9530
2389.845504 0.9535 0.9540 0.9540 0.9540 0.9540
2394.792742 0.9539 0.9529 0.9520 0.9520 0.9520
2399.739981 0.9525 0.9530 0.9530 0.9530 0.9535
2404.687219 0.9540 0.9545 0.9550 0.9550 0.9550
2409.634457 0.9550 0.9550 0.9550 0.9550 0.9550
2414.581695 0.9550 0.9550 0.9550 0.9550 0.9550
2419.528933 0.9550 0.9550 0.9535 0.9520 0.9515
2424.476171 0.9510 0.9515 0.9520 0.9520 0.9520
2429.423410 0.9520 0.9520 0.9520 0.9520 0.9520
2434.370648 0.9520 0.9530 0.9540 0.9540 0.9540
2439.317886 0.9525 0.9510 0.9500 0.9490 0.9485
2444.265124 0.9480 0.9475 0.9470 0.9475 0.9480
2449.212362 0.9480 0.9480 0.9485 0.9490 0.9504
2454.159600 0.9519 0.9529 0.9539 0.9540 0.9540
2459.106839 0.9545 0.9550 0.9550 0.9550 0.9545
2464.054077 0.9540 0.9540 0.9540 0.9540 0.9540
2469.001315 0.9540 0.9540 0.9540 0.9540 0.9527
2473.948553 0.9512 0.9506 0.9501 0.9500 0.9500
2478.895791 0.9504 0.9509 0.9514 0.9519 0.9516
2483.843029 0.9511 0.9510 0.9510 0.9510 0.9510
2488.790267 0.9506 0.9501 0.9496 0.9491 0.9486
2493.737506 0.9481 0.9480 0.9480 0.9472 0.9462
2498.684744 0.9460 0.9460 0.9460 0.9460 0.9460
2503.631982 0.9460 0.9456 0.9451 0.9450 0.9450
2508.579220 0.9450 0.9450 0.9450 0.9450 0.9454
2513.526458 0.9459 0.9468 0.9478 0.9484 0.9489
2518.473696 0.9490 0.9490 0.9494 0.9499 0.9504
2523.420935 0.9509 0.9510 0.9510 0.9510 0.9510
2528.368173 0.9510 0.9510 0.9510 0.9510 0.9503
2533.315411 0.9493 0.9490 0.9490 0.9490 0.9490
2538.262649 0.9490 0.9490 0.9497 0.9507 0.9510
2543.209887 0.9510 0.9499 0.9484 0.9480 0.9480
2548.157125 0.9473 0.9463 0.9467 0.9477 0.9487
2553.104364 0.9497 0.9500 0.9500 0.9493 0.9483
2558.051602 0.9473 0.9463 0.9446 0.9426 0.9406
2562.998840 0.9386 0.9377 0.9372 0.9363 0.9353
2567.946078 0.9350 0.9350 0.9347 0.9342 0.9340
2572.893316 0.9340 0.9337 0.9332 0.9323 0.9313
2577.840554 0.9297 0.9277 0.9251 0.9221 0.9207
2582.787793 0.9202 0.9200 0.9200 0.9209 0.9224
2587.735031 0.9233 0.9238 0.9249 0.9264 0.9285
2592.682269 0.9310 0.9323 0.9328 0.9333 0.9338
2597.629507 0.9343 0.9348 0.9359 0.9374 0.9383
2602.576745 0.9388 0.9390 0.9390 0.9390 0.9390
2607.523983 0.9390 0.9390 0.9384 0.9374 0.9364
2612.471222 0.9354 0.9344 0.9334 0.9330 0.9330
2617.418460 0.9330 0.9330 0.9330 0.9330 0.9322
2622.365698 0.9307 0.9292 0.9277 0.9262 0.9247
2627.312936 0.9237 0.9232 0.9227 0.9222 0.9223
2632.260174 0.9228 0.9230 0.9230 0.9235 0.9245
2637.207412 0.9263 0.9288 0.9305 0.9315 0.9325
2642.154651 0.9335 0.9340 0.9340 0.9340 0.9340
2647.101889 0.9342 0.9347 0.9357 0.9372 0.9382
2652.049127 0.9387 0.9390 0.9390 0.9388 0.9383
2656.996365 0.9380 0.9380 0.9380 0.9380 0.9382
2661.943603 0.9387 0.9390 0.9390 0.9390 0.9390
2666.890841 0.9388 0.9383 0.9378 0.9373 0.9370
2671.838079 0.9370 0.9370 0.9370 0.9370 0.9370
2676.785318 0.9370 0.9370 0.9376 0.9391 0.9400
2681.732556 0.9400 0.9396 0.9386 0.9380 0.9380
2686.679794 0.9380 0.9380 0.9380 0.9380 0.9380
2691.627032 0.9380 0.9380 0.9380 0.9376 0.9366
2696.574270 0.9360 0.9360 0.9362 0.9367 0.9372
2701.521508 0.9377 0.9382 0.9387 0.9390 0.9390
2706.468747 0.9390 0.9390 0.9392 0.9397 0.9400
2711.415985 0.9400 0.9400 0.9400 0.9400 0.9400
2716.363223 0.9400 0.9400 0.9398 0.9393 0.9388
2721.310461 0.9383 0.9380 0.9380 0.9380 0.9380
2726.257699 0.9380 0.9380 0.9380 0.9380 0.9380
2731.204937 0.9380 0.9380 0.9380 0.9379 0.9374
2736.152176 0.9370 0.9370 0.9369 0.9364 0.9360
2741.099414 0.9360 0.9360 0.9360 0.9360 0.9360
2746.046652 0.9359 0.9354 0.9350 0.9350 0.9350
2750.993890 0.9350 0.9350 0.9350 0.9349 0.9344
2755.941128 0.9340 0.9340 0.9337 0.9322 0.9308
2760.888366 0.9298 0.9290 0.9290 0.9290 0.9290
2765.835605 0.9290 0.9290 0.9290 0.9290 0.9290
2770.782843 0.9290 0.9290 0.9290 0.9290 0.9290
2775.730081 0.9290 0.9290 0.9291 0.9296 0.9299
2780.677319 0.9294 0.9290 0.9290 0.9289 0.9284
2785.624557 0.9281 0.9286 0.9289 0.9284 0.9280
2790.571795 0.9280 0.9280 0.9280 0.9279 0.9274
2795.519034 0.9269 0.9264 0.9259 0.9254 0.9251
2800.466272 0.9256 0.9260 0.9260 0.9260 0.9260
2805.413510 0.9261 0.9266 0.9271 0.9276 0.9280
2810.360748 0.9280 0.9280 0.9280 0.9280 0.9280
2815.307986 0.9279 0.9269 0.9260 0.9255 0.9249
2820.255224 0.9239 0.9230 0.9225 0.9220 0.9215
2825.202462 0.9210 0.9205 0.9200 0.9195 0.9190
2830.149701 0.9185 0.9180 0.9169 0.9160 0.9155
2835.096939 0.9149 0.9139 0.9130 0.9125 0.9120
2840.044177 0.9115 0.9109 0.9095 0.9080 0.9075
2844.991415 0.9069 0.9045 0.9020 0.9010 0.9000
2849.938653 0.8990 0.8980 0.8970 0.8960 0.8945
2854.885891 0.8930 0.8920 0.8910 0.8910 0.8910
2859.833130 0.8910 0.8910 0.8915 0.8920 0.8920
2864.780368 0.8920 0.8920 0.8920 0.8925 0.8930
2869.727606 0.8930 0.8930 0.8935 0.8940 0.8940
2874.674844 0.8940 0.8945 0.8950 0.8950 0.8950
2879.622082 0.8950 0.8950 0.8950 0.8950 0.8955
2884.569320 0.8960 0.8960 0.8960 0.8955 0.8950
2889.516559 0.8945 0.8940 0.8940 0.8940 0.8940
2894.463797 0.8940 0.8935 0.8930 0.8925 0.8920
2899.411035 0.8915 0.8911 0.8901 0.8891 0.8881
2904.358273 0.8871 0.8857 0.8842 0.8823 0.8803
2909.305511 0.8783 0.8763 0.8751 0.8741 0.8714
2914.252749 0.8684 0.8663 0.8643 0.8636 0.8631
2919.199988 0.8592 0.8547 0.8519 0.8494 0.8482
2924.147226 0.8472 0.8470 0.8470 0.8474 0.8479
2929.094464 0.8484 0.8489 0.8498 0.8508 0.8518
2934.041702 0.8528 0.8555 0.8585 0.8594 0.8599
2938.988940 0.8612 0.8627 0.8638 0.8648 0.8662
2943.936178 0.8677 0.8696 0.8716 0.8724 0.8729
2948.883417 0.8742 0.8757 0.8764 0.8769 0.8770
2953.830655 0.8770 0.8770 0.8770 0.8770 0.8770
2958.777893 0.8774 0.8779 0.8780 0.8780 0.8780
2963.725131 0.8780 0.8776 0.8771 0.8770 0.8770
2968.672369 0.8770 0.8770 0.8766 0.8761 0.8756
2973.619607 0.8751 0.8750 0.8750 0.8746 0.8741
2978.566846 0.8736 0.8731 0.8730 0.8730 0.8726
2983.514084 0.8722 0.8720 0.8720 0.8717 0.8712
2988.461322 0.8710 0.8710 0.8710 0.8710 0.8707
2993.408560 0.8702 0.8700 0.8700 0.8683 0.8658
2998.355798 0.8637 0.8617 0.8597 0.8577 0.8550
3003.303036 0.8520 0.8487 0.8452 0.8427 0.8407
3008.250274 0.8397 0.8392 0.8390 0.8390 0.8393
3013.197513 0.8398 0.8400 0.8400 0.8400 0.8400
3018.144751 0.8397 0.8392 0.8381 0.8366 0.8345
3023.091989 0.8320 0.8286 0.8246 0.8215 0.8190
3028.039227 0.8159 0.8124 0.8069 0.7998 0.7946
3032.986465 0.7906 0.7869 0.7834 0.7797 0.7757
3037.933703 0.7734 0.7724 0.7700 0.7665 0.7599
3042.880942 0.7510 0.7406 0.7291 0.7237 0.7232
3047.828180 0.7252 0.7292 0.7334 0.7380 0.7428
3052.775418 0.7477 0.7511 0.7531 0.7532 0.7517
3057.722656 0.7518 0.7533 0.7548 0.7563 0.7573
3062.669894 0.7578 0.7580 0.7580 0.7577 0.7572
3067.617132 0.7553 0.7518 0.7490 0.7470 0.7447
3072.564371 0.7422 0.7408 0.7403 0.7400 0.7400
3077.511609 0.7415 0.7444 0.7474 0.7504 0.7525
3082.458847 0.7535 0.7547 0.7562 0.7572 0.7577
3087.406085 0.7585 0.7594 0.7600 0.7600 0.7600
3092.353323 0.7600 0.7595 0.7586 0.7573 0.7558
3097.300561 0.7543 0.7528 0.7509 0.7484 0.7455
3102.247800 0.7420 0.7385 0.7350 0.7311 0.7267
3107.195038 0.7220 0.7170 0.7114 0.7048 0.6985
3112.142276 0.6925 0.6858 0.6778 0.6704 0.6639
3117.089514 0.6598 0.6593 0.6621 0.6701 0.6759
3122.036752 0.6784 0.6822 0.6882 0.6953 0.7043
3126.983990 0.7107 0.7127 0.7151 0.7181 0.7207
3131.931229 0.7227 0.7254 0.7294 0.7325 0.7340
3136.878467 0.7355 0.7370 0.7394 0.7433 0.7468
3141.825705 0.7493 0.7517 0.7536 0.7558 0.7583
3146.772943 0.7613 0.7652 0.7692 0.7733 0.7763
3151.720181 0.7773 0.7786 0.7806 0.7825 0.7840
3156.667419 0.7853 0.7863 0.7873 0.7883 0.7890
3161.614657 0.7890 0.7884 0.7864 0.7850 0.7850
3166.561896 0.7850 0.7850 0.7850 0.7850 0.7851
3171.509134 0.7856 0.7860 0.7860 0.7869 0.7904
3176.456372 0.7930 0.7930 0.7926 0.7911 0.7895
3181.403610 0.7875 0.7860 0.7860 0.7859 0.7854
3186.350848 0.7850 0.7850 0.7850 0.7850 0.7848
3191.298086 0.7838 0.7830 0.7830 0.7832 0.7842
3196.245325 0.7851 0.7856 0.7862 0.7872 0.7882
3201.192563 0.7892 0.7901 0.7906 0.7911 0.7916
3206.139801 0.7922 0.7932 0.7941 0.7946 0.7951
3211.087039 0.7956 0.7964 0.7989 0.8013 0.8033
3216.034277 0.8051 0.8056 0.8061 0.8066 0.8071
3220.981515 0.8076 0.8081 0.8086 0.8091 0.8101
3225.928754 0.8111 0.8116 0.8119 0.8114 0.8109
3230.875992 0.8104 0.8101 0.8111 0.8121 0.8126
3235.823230 0.8131 0.8136 0.8139 0.8129 0.8120
3240.770468 0.8120 0.8120 0.8125 0.8131 0.8141
3245.717706 0.8150 0.8155 0.8160 0.8160 0.8161
3250.664944 0.8171 0.8180 0.8180 0.8179 0.8169
3255.612183 0.8160 0.8160 0.8160 0.8160 0.8160
3260.559421 0.8165 0.8170 0.8170 0.8170 0.8160
3265.506659 0.8150 0.8150 0.8150 0.8145 0.8140
3270.453897 0.8130 0.8120 0.8115 0.8110 0.8110
3275.401135 0.8110 0.8105 0.8100 0.8100 0.8100
3280.348373 0.8095 0.8090 0.8090 0.8090 0.8090
3285.295612 0.8090 0.8090 0.8090 0.8090 0.8090
3290.242850 0.8090 0.8090 0.8095 0.8100 0.8095
3295.190088 0.8090 0.8090 0.8090 0.8085 0.8080
3300.137326 0.8070 0.8060 0.8050 0.8040 0.8035
3305.084564 0.8030 0.8016 0.8001 0.7991 0.7980
3310.031802 0.7975 0.7970 0.7961 0.7951 0.7945
3314.979041 0.7940 0.7940 0.7940 0.7931 0.7921
3319.926279 0.7906 0.7891 0.7885 0.7880 0.7880
3324.873517 0.7880 0.7876 0.7871 0.7866 0.7860
3329.820755 0.7860 0.7860 0.7856 0.7851 0.7850
3334.767993 0.7850 0.7850 0.7850 0.7850 0.7850
3339.715231 0.7837 0.7822 0.7798 0.7774 0.7761
3344.662469 0.7751 0.7729 0.7704 0.7679 0.7654
3349.609708 0.7624 0.7594 0.7548 0.7498 0.7452
3354.556946 0.7407 0.7337 0.7263 0.7246 0.7241
3359.504184 0.7232 0.7222 0.7208 0.7193 0.7178
3364.451422 0.7163 0.7156 0.7151 0.7146 0.7141
3369.398660 0.7112 0.7077 0.7018 0.6953 0.6896
3374.345898 0.6841 0.6735 0.6616 0.6437 0.6243
3379.293137 0.6076 0.5916 0.5672 0.5403 0.5184
3384.240375 0.4979 0.4790 0.4606 0.4450 0.4304
3389.187613 0.4224 0.4164 0.4150 0.4150 0.4300
3394.134851 0.4499 0.4762 0.5046 0.5301 0.5545
3399.082089 0.5825 0.6119 0.6348 0.6553 0.6746
3404.029327 0.6936 0.7097 0.7246 0.7393 0.7539
3408.976566 0.7616 0.7666 0.7726 0.7791 0.7856
3413.923804 0.7921 0.7968 0.8008 0.8030 0.8045
3418.871042 0.8071 0.8100 0.8130 0.8160 0.8194
3423.818280 0.8228 0.8253 0.8273 0.8280 0.8280
3428.765518 0.8290 0.8305 0.8317 0.8327 0.8340
3433.712756 0.8355 0.8373 0.8393 0.8403 0.8408
3438.659995 0.8410 0.8410 0.8413 0.8418 0.8433
3443.607233 0.8452 0.8463 0.8468 0.8476 0.8486
3448.554471 0.8493 0.8498 0.8500 0.8500 0.8500
3453.501709 0.8500 0.8506 0.8516 0.8523 0.8528
3458.448947 0.8533 0.8538 0.8543 0.8548 0.8556
3463.396185 0.8566 0.8570 0.8570 0.8576 0.8586
3468.343424 0.8590 0.8590 0.8593 0.8598 0.8600
3473.290662 0.8600 0.8600 0.8600 0.8603 0.8608
3478.237900 0.8613 0.8618 0.8625 0.8635 0.8640
3483.185138 0.8640 0.8643 0.8648 0.8650 0.8650
3488.132376 0.8650 0.8650 0.8647 0.8642 0.8643
3493.079614 0.8648 0.8653 0.8658 0.8660 0.8660
3498.026852 0.8660 0.8660 0.8660 0.8660 0.8658
3502.974091 0.8653 0.8650 0.8650 0.8652 0.8657
3507.921329 0.8662 0.8667 0.8670 0.8670 0.8672
3512.868567 0.8677 0.8685 0.8695 0.8700 0.8700
3517.815805 0.8700 0.8700 0.8700 0.8700 0.8700
3522.763043 0.8700 0.8693 0.8679 0.8670 0.8670
3527.710281 0.8679 0.8699 0.8710 0.8710 0.8712
3532.657520 0.8717 0.8720 0.8720 0.8722 0.8727
3537.604758 0.8732 0.8737 0.8738 0.8733 0.8730
3542.551996 0.8730 0.8730 0.8730 0.8730 0.8730
3547.499234 0.8732 0.8737 0.8740 0.8740 0.8744
3552.446472 0.8754 0.8764 0.8774 0.8780 0.8780
3557.393710 0.8780 0.8780 0.8782 0.8787 0.8792
3562.340949 0.8797 0.8800 0.8800 0.8802 0.8807
3567.288187 0.8812 0.8817 0.8822 0.8827 0.8830
3572.235425 0.8830 0.8832 0.8837 0.8840 0.8840
3577.182663 0.8840 0.8840 0.8840 0.8840 0.8840
3582.129901 0.8840 0.8841 0.8846 0.8851 0.8856
3587.077139 0.8863 0.8873 0.8881 0.8886 0.8891
3592.024378 0.8896 0.8900 0.8900 0.8900 0.8900
3596.971616 0.8901 0.8906 0.8910 0.8910 0.8910
3601.918854 0.8910 0.8910 0.8910 0.8910 0.8910
3606.866092 0.8911 0.8916 0.8922 0.8932 0.8940
3611.813330 0.8940 0.8941 0.8946 0.8950 0.8950
3616.760568 0.8950 0.8950 0.8951 0.8956 0.8961
3621.707807 0.8966 0.8971 0.8976 0.8980 0.8980
3626.655045 0.8979 0.8974 0.8969 0.8964 0.8960
3631.602283 0.8960 0.8959 0.8954 0.8951 0.8956
3636.549521 0.8960 0.8960 0.8961 0.8966 0.8971
3641.496759 0.8976 0.8980 0.8980 0.8980 0.8980
3646.443997 0.8980 0.8980 0.8980 0.8980 0.8980
3651.391236 0.8980 0.8981 0.8986 0.8990 0.8990
3656.338474 0.8991 0.8996 0.9000 0.9000 0.9001
3661.285712 0.9006 0.9010 0.9010 0.9010 0.9010
3666.232950 0.9010 0.9010 0.9010 0.9010 0.9010
3671.180188 0.9010 0.9010 0.9015 0.9021 0.9036
3676.127426 0.9050 0.9055 0.9060 0.9060 0.9060
3681.074664 0.9060 0.9061 0.9071 0.9080 0.9080
3686.021903 0.9080 0.9075 0.9070 0.9065 0.9059
3690.969141 0.9049 0.9040 0.9035 0.9030 0.9025
3695.916379 0.9020 0.9015 0.9010 0.9010 0.9010
3700.863617 0.9000 0.8990 0.8990 0.8990 0.8990
3705.810855 0.8990 0.8995 0.9000 0.9005 0.9010
3710.758093 0.9010 0.9010 0.9015 0.9020 0.9020
3715.705332 0.9020 0.9035 0.9050 0.9070 0.9090
3720.652570 0.9090 0.9090 0.9080 0.9070 0.9065
3725.599808 0.9060 0.9050 0.9040 0.9025 0.9011
3730.547046 0.9005 0.9000 0.9000 0.9000 0.9005
3735.494284 0.9010 0.9024 0.9039 0.9040 0.9040
3740.441522 0.9040 0.9040 0.9049 0.9059 0.9060
3745.388761 0.9060 0.9041 0.9021 0.9020 0.9020
3750.335999 0.9020 0.9020 0.9020 0.9020 0.9025
3755.283237 0.9030 0.9030 0.9030 0.9034 0.9039
3760.230475 0.9031 0.9021 0.9011 0.9001 0.9000
3765.177713 0.9000 0.9000 0.9000 0.9000 0.9000
3770.124951 0.9000 0.9000 0.9000 0.9000 0.9004
3775.072190 0.9009 0.9010 0.9010 0.9010 0.9010
3780.019428 0.9010 0.9010 0.9014 0.9019 0.9016
3784.966666 0.9011 0.9010 0.9010 0.9014 0.9019
3789.913904 0.9020 0.9020 0.9016 0.9011 0.9010
3794.861142 0.9010 0.9006 0.9001 0.8992 0.8982
3799.808380 0.8984 0.8989 0.8990 0.8990 0.8990
3804.755619 0.8990 0.8986 0.8981 0.8976 0.8971
3809.702857 0.8970 0.8970 0.8985 0.9005 0.9014
3814.650095 0.9019 0.9005 0.8985 0.8980 0.8980
3819.597333 0.8984 0.8989 0.8997 0.9007 0.9014
3824.544571 0.9019 0.9016 0.9011 0.9010 0.9010
3829.491809 0.9006 0.9001 0.8996 0.8991 0.8986
3834.439047 0.8981 0.8976 0.8971 0.8970 0.8970
3839.386286 0.8970 0.8970 0.8987 0.9012 0.9027
3844.333524 0.9037 0.9040 0.9040 0.9026 0.9006
3849.280762 0.8997 0.8992 0.8990 0.8990 0.8990
3854.228000 0.8990 0.8990 0.8990 0.8993 0.8998
3859.175238 0.9003 0.9008 0.9010 0.9010 0.9007
3864.122476 0.9002 0.9000 0.9000 0.8997 0.8992
3869.069715 0.8987 0.8982 0.8980 0.8980 0.8977
3874.016953 0.8972 0.8970 0.8970 0.8973 0.8978
3878.964191 0.8977 0.8972 0.8970 0.8970 0.8970
3883.911429 0.8970 0.8970 0.8970 0.8970 0.8970
3888.858667 0.8970 0.8970 0.8967 0.8962 0.8960
3893.805905 0.8960 0.8960 0.8960 0.8960 0.8960
3898.753144 0.8960 0.8960 0.8960 0.8960 0.8960
3903.700382 0.8960 0.8960 0.8960 0.8960 0.8960
3908.647620 0.8957 0.8952 0.8950 0.8950 0.8950
3913.594858 0.8950 0.8950 0.8950 0.8950 0.8950
3918.542096 0.8950 0.8950 0.8950 0.8950 0.8947
3923.489334 0.8942 0.8940 0.8940 0.8940 0.8940
3928.436573 0.8940 0.8940 0.8940 0.8940 0.8938
3933.383811 0.8933 0.8930 0.8930 0.8930 0.8930
3938.331049 0.8930 0.8930 0.8930 0.8930 0.8930
3943.278287 0.8930 0.8930 0.8930 0.8930 0.8930
3948.225525 0.8930 0.8930 0.8930 0.8930 0.8930
3953.172763 0.8930 0.8930 0.8930 0.8928 0.8923
3958.120002 0.8920 0.8920 0.8920 0.8920 0.8920
3963.067240 0.8920 0.8920 0.8920 0.8920 0.8920
3968.014478 0.8918 0.8913 0.8910 0.8910 0.8910
3972.961716 0.8910 0.8910 0.8910 0.8910 0.8910
3977.908954 0.8910 0.8910 0.8910 0.8910 0.8910
3982.856192 0.8910 0.8910 0.8910 0.8908 0.8903
3987.803431 0.8900 0.8900 0.8900 0.8900 0.8900
3992.750669 0.8900 0.8898 0.8893 0.8888 0.8883
3997.697907 0.8880 0.8880 0.8878 0.8873
##END=
