##TITLE=2-Fluoro-5-(trifluoromethyl)benzylamine
##JCAMP-DX=4.24
##DATA TYPE=INFRARED SPECTRUM
##ORIGIN=EPA-IR VAPOR PHASE LIBRARY
##OWNER=SRD/NIST
Collection (C) 2018 copyright by the U.S. Secretary of Commerce
on behalf of the United States of America. All rights reserved.
##CAS REGISTRY NO=199296-61-2
##MOLFORM=C 8 H 7 F 4 N
##$NIST SOURCE=MSDC-IR
##STATE=gas
##XUNITS=1/CM
##YUNITS=ABSORBANCE
##XFACTOR=1.
##YFACTOR=0.001
##DELTAX=1.92898
##FIRSTX=549.8
##LASTX=4000.7
##FIRSTY=5.27
##MAXX=4000.7
##MINX=549.759
##MAXY=0.2097
##MINY=0
##NPOINTS=1790
##XYDATA=(X++(Y..Y))
549.759 5.27 5.61 4.85 4.33 4.01 3.91 4.77 5.63 6.24 6.03
569.049 6.5 7.34 6.37 5.54 5.48 5.01 5.31 5.34 5 5.13
588.339 5.89 6.11 6.26 6.8 6.36 6.23 7.07 7.78 7.72 8.24
607.628 9.93 12.27 15.85 20.2 23.06 24.13 25 25.01 23.81 21.22
626.918 17.4 13.89 10.99 9.04 7.97 7.13 6.65 6.91 6.95 6.02
646.208 5.65 6.36 6.52 6.18 6.64 6.46 6.69 6.89 6.6 7.13
665.498 7.32 7.44 7.47 6.82 6.67 7.01 6.34 6.15 6.47 6.73
684.787 7.04 7.19 7.51 7.56 7.41 7.74 8.25 8.66 8.93 9.08
704.077 9.39 9.55 10.17 10.55 10.82 11.58 12.17 12.57 12.97 13.49
723.367 14.34 15.38 16.66 17.86 18.83 19.07 18.77 18.56 17.89 17.24
742.657 16.37 15.66 15.25 15.28 15.09 14.79 15 14.91 15.11 15.03
761.947 14.97 15.3 14.85 14.17 13.84 13.38 12.88 13.05 13.26 12.58
781.236 12.43 12.76 13 13.31 13.52 13.92 14.12 13.65 13.52 14.38
800.526 14.54 14.76 15.36 15.63 16.74 17.84 18.89 20.32 21.54 23.32
819.816 25.01 26.86 29.32 30.47 29.36 26.49 23.75 20.88 18.66 16.47
839.106 14.03 12.4 10.7 9.21 7.68 6.93 7.03 6.81 6.3 5.72
858.395 5.2 5.67 6.11 5.78 5.48 5.24 5.39 5.57 5.97 6.49
877.685 6.71 7.46 7.92 7.76 8.64 9.1 8.81 9.77 10.19 10.72
896.975 11.33 11.4 11.45 11.34 11.58 10.83 10.41 10.38 9.74 9.23
916.265 8.2 7.12 6.34 5.65 5.43 4.98 4.37 4.2 3.77 3.41
935.555 3.45 3.35 3.14 2.83 2.54 2.56 2.66 2.62 2.23 2.38
954.844 2.87 3.12 2.84 2.22 2.45 2.92 2.45 2.04 2.13 2.25
974.134 2.45 2.48 2.14 2.05 2.28 2.64 2.67 1.817 1.8274 2.2
993.424 2.17 2.32 2.14 2.21 2.69 2.64 2.45 2.99 3.28 3.32
1012.714 2.92 1.8919 2.05 2.33 2.76 3.49 3.5 3.92 4 4.16
1032.003 4.85 5.23 5.57 5.67 5.1 5.72 6.67 6.74 6.3 6.59
1051.293 7.28 8.89 10.56 10.6 11.16 12.84 16.78 20.16 23.09 27.26
1070.583 30.08 31.63 33.23 32.79 31.22 27.9 22.68 19.67 17.99 17.48
1089.873 17.46 17.18 17.68 19.89 20.62 20.33 22.72 25.3 28.2 31.68
1109.163 33.98 34.51 33.48 34.41 35.96 36.89 38.23 40.25 43.91 49.05
1128.452 56.34 64.56 74.8 87.2 101.04 116.33 132.04 146.43 157.32 161.58
1147.742 158.49 148.43 135.95 124.79 114.77 105.98 101.54 106.47 117.57 132.38
1167.032 149.35 163.44 169.98 168.62 158.88 144.6 128.28 109.07 90.74 73.76
1186.322 58.68 46.87 38.5 32.58 26.82 22.97 20.96 18.9 18.29 17.87
1205.611 17.51 16.73 15.18 14.69 14.65 14.54 14.84 15.19 15.73 16.99
1224.901 17.55 17.45 18.53 21.13 22.53 22.75 22.7 22.78 23.24 23.75
1244.191 24.33 25.61 26.82 27.82 28.61 29.72 31.81 33.41 34.65 36.25
1263.481 37.5 38.52 38.49 37.71 36.63 34.64 32.4 29.98 26.95 23.79
1282.771 21.06 19 17.31 15.68 14.88 14.73 15.02 15.76 16.63 17.94
1302.060 19.71 21.78 24.7 28.76 34.2 41.5 51.66 65.65 84.38 108.15
1321.350 135.14 162.78 187.04 203.32 209.7 205.68 191.05 167.09 135.53 101.21
1340.640 71.27 50.1 36.74 28.83 24.15 21.13 19.2 18.04 17.26 16.35
1359.930 15.57 14.98 14.3 13.53 12.85 12.11 11.37 10.92 10.51 10.01
1379.219 9.57 9.39 9.2 8.79 8.58 8.35 8.05 7.82 7.48 7.2
1398.509 7.21 7.12 6.77 6.69 6.69 6.64 6.83 7.21 7.68 7.95
1417.799 8.15 8.52 8.5 8.27 7.96 7.7 7.25 6.72 6.24 5.5
1437.089 4.85 4.38 4.1 3.84 3.69 3.62 3.51 3.47 3.59 3.7
1456.378 3.85 4.09 4.25 4.26 4.32 4.54 4.58 4.51 4.49 4.72
1475.668 4.92 5.09 5.43 5.63 6.03 6.83 7.78 9.24 11.24 13.42
1494.958 16.23 19.24 22.08 24.54 25.79 25.87 24.94 23.03 20.27 16.95
1514.248 13.31 9.89 7.52 6.01 4.97 4.12 3.6 3.44 3.23 3.14
1533.538 3.21 3.1 3.1 3.38 3.32 3.31 3.3 3.16 3.19 3.18
1552.827 3.04 3.09 3.31 3.53 3.46 3.27 3.55 3.83 3.93 4.25
1572.117 4.64 4.95 5.33 6.18 6.56 6.75 7.47 8.19 9 10.24
1591.407 11.91 13.35 14.35 15.41 16.53 17.26 17.67 17.89 17.8 17.46
1610.697 17.27 17.04 17.15 17.23 16.66 16.41 16.21 15.65 14.93 13.99
1629.986 13.07 12.29 11.55 10.64 9.9 9.37 8.62 8.02 7.43 6.85
1649.276 6.46 6.3 5.93 5.23 5 4.87 4.38 4.13 3.81 3.46
1668.566 3.48 3.14 2.85 2.7 2.57 2.54 2.57 2.7 2.55 2.47
1687.856 2.4 2.4 2.5 2.39 2.34 2.31 2.15 2.09 2.17 2.12
1707.146 2.06 2.08 1.8608 1.7488 1.8435 1.9865 1.9829 1.8889 1.9368 2.05
1726.435 2.009 1.9387 2.05 2.2 2.32 2.13 2.17 2.09 1.991 2.14
1745.725 2.11 2.25 2.49 2.45 2.31 2.47 2.7 2.74 2.67 2.74
1765.015 2.85 3.06 3.07 2.89 2.88 2.81 2.65 2.44 2.42 2.42
1784.305 2.33 2.37 2.34 2.17 2.23 2.26 2.2 2.33 2.44 2.35
1803.594 2.21 2.36 2.29 1.9308 1.8543 1.9094 1.8712 1.8319 1.8879 1.8678
1822.884 1.6388 1.5604 1.6058 1.477 1.2953 1.3768 1.5324 1.5134 1.5582 1.5301
1842.174 1.5935 1.657 1.5905 1.6639 1.5792 1.5975 1.6423 1.5189 1.6186 1.7399
1861.464 1.6686 1.6488 1.6419 1.6585 1.7364 1.6528 1.8568 2.1 2.19 2.29
1880.754 2.36 2.55 2.69 2.6 2.51 2.69 2.82 2.75 2.61 2.34
1900.043 2.09 2.04 2.1 2.07 1.9154 1.6703 1.4868 1.4024 1.3186 1.3363
1919.333 1.429 1.3424 1.1641 1.1228 1.2189 1.1913 1.02961 1.08958 1.07064 1.05044
1938.623 1.1664 1.14 1.1839 1.1881 1.2133 0.9659 0.844 0.999 1.05831 1.0052
1957.913 0.9273 1.1515 1.03737 0.792 0.841 1.05747 1.0909 0.9997 1.02668 1.06724
1977.202 1.1365 1.1979 1.3094 1.2717 1.1264 1.1765 1.2432 1.1603 1.1286 1.2595
1996.492 1.4661 1.3589 1.05093 1.02397 1.1626 1.2687 1.1555 1.08043 1.2631 1.3761
2015.782 1.2143 1.01954 1.07118 1.2313 1.2111 1.10442 1.2432 1.1572 1.10542 1.1697
2035.072 1.0878 0.9745 0.9893 1.2996 1.2726 1.07113 1.10154 1.09229 1.1261 1.352
2054.362 1.4398 1.2636 1.3099 1.4622 1.4229 1.3577 1.3277 1.276 1.2385 1.2688
2073.651 1.3736 1.3868 1.2947 1.3575 1.266 1.08146 1.05707 0.9599 0.872 0.9858
2092.941 0.9929 0.82 0.98 1.2031 0.9236 0.734 0.92 0.867 0.708 0.799
2112.231 0.884 0.852 0.816 0.813 0.9288 1.05061 0.9494 0.803 0.735 0.797
2131.521 0.899 0.9532 0.9491 0.9528 0.9916 0.916 0.789 0.752 0.88 0.794
2150.810 0.666 0.711 0.767 0.831 0.888 0.838 0.851 0.742 0.609 0.815
2170.100 0.894 0.897 0.9892 1.1299 0.9446 0.809 0.9228 0.874 0.838 0.739
2189.390 0.837 0.912 0.785 0.908 1.1007 1.04313 0.902 1.08041 1.2679 1.3085
2208.680 1.4008 1.3462 1.3405 1.2964 1.3333 1.1973 1.1944 1.5206 1.5215 1.4538
2227.970 1.3222 1.3721 1.3845 1.2937 1.3604 1.2151 1.08709 1.1911 1.2092 1.3903
2247.259 1.3494 1.3324 1.414 1.2177 1.2302 1.2511 1.2486 1.3539 1.3547 1.3187
2266.549 1.4763 1.439 1.3572 1.483 1.7811 1.6506 1.09767 1.09373 1.1444 1.0044
2285.839 1.1338 1.09181 1.05357 1.2695 1.2394 1.06385 1.04185 1.03882 0.9631 0.863
2305.129 0.812 0.9943 1.1463 1.1564 1.2199 1.1378 0.723 0.76 1.1454 1.1455
2324.418 1.05634 0.9795 1.03754 1.1813 1.07544 0.9911 1.2871 1.3765 1.1851 1.2101
2343.708 1.3565 1.3305 1.4193 1.5576 1.5108 1.4788 1.5339 1.3188 1.04742 1.01426
2362.998 0.808 1.2244 1.4943 1.1011 1.03451 1.10321 0.9861 0.867 0.783 0.885
2382.288 0.9384 0.821 0.75 0.634 0.783 0.87 0.857 0.9677 0.9543 0.911
2401.578 1.08268 1.2602 1.2047 1.09691 1.1986 1.1312 1.03181 1.1499 1.0551 0.9404
2420.867 0.816 0.736 0.659 0.523 0.524 0.745 0.869 0.892 1.03245 0.9921
2440.157 0.829 0.727 0.684 0.707 0.837 0.834 0.835 0.94 1.02414 1.0708
2459.447 1.10182 1.2234 1.2119 1.2996 1.2806 1.02923 1.03034 1.07893 1.05149 1.1647
2478.737 1.1844 0.9798 0.898 1.09864 0.9908 0.79 0.9603 0.866 1.0047 0.9994
2498.026 0.757 0.75 0.737 0.802 0.68 0.696 0.9572 0.848 0.74 0.815
2517.316 0.794 0.765 0.854 0.875 0.739 0.668 0.587 0.617 0.753 0.896
2536.606 0.729 0.636 0.87 0.9 0.74 0.697 0.703 0.886 0.9757 0.818
2555.896 0.735 0.838 1.0005 0.9491 0.9963 1.01212 0.764 0.809 0.893 0.636
2575.186 0.561 0.752 1.07333 1.08559 0.9594 0.849 0.815 0.756 0.687 0.9267
2594.475 1.06304 1.254 0.9555 0.498 0.6 0.816 1.07394 0.869 0.739 0.9
2613.765 0.9632 0.9625 0.945 0.878 0.76 0.84 0.822 0.859 0.758 0.613
2633.055 0.8 0.9226 1.05112 0.9823 1.0044 1.2946 1.1535 0.9686 0.9916 1.02131
2652.345 1.03201 1.0075 1.2232 1.4627 1.01954 0.762 1.02205 1.01029 1.0041 1.05699
2671.634 0.9414 0.786 0.9354 1.0841 1.2142 1.1399 0.723 0.714 0.9292 0.997
2690.924 0.9832 0.9381 0.883 0.906 0.722 0.539 0.847 1.09875 0.761 0.464
2710.214 0.735 0.802 0.636 0.616 0.9371 1.1818 0.9494 0.792 0.81 0.834
2729.504 0.9237 1.1822 1.1295 0.799 0.797 0.92 0.916 0.864 0.9878 1.1539
2748.794 1.2373 1.394 1.5041 1.6065 1.3765 1.2365 1.155 0.9625 1.2055 1.09469
2768.083 0.723 0.844 1.08512 1.2129 1.2322 1.08807 0.88 0.859 1.133 1.3753
2787.373 1.4657 1.2044 0.9872 0.831 0.799 1.09066 1.364 1.5102 1.5059 1.4784
2806.663 1.2937 1.2089 1.4205 1.5933 1.5566 1.5818 1.5605 1.4251 1.4615 1.5773
2825.953 1.7548 1.714 1.7568 1.7906 1.6454 1.8203 1.9129 2.19 2.46 2.51
2845.242 2.75 3.06 3.07 3.27 3.56 3.36 3.46 3.46 3.58 4.33
2864.532 4.58 4.5 4.92 4.97 4.77 5.26 5.26 5.14 5.41 5.44
2883.822 5.46 5.33 5.06 4.92 4.85 5.02 5.11 4.56 4.35 4.68
2903.112 4.66 4.29 4.15 4.28 4.21 4.36 4.77 4.94 5.35 5.54
2922.401 5.53 5.59 5.37 5.2 5.49 5.94 6.04 6.02 6.07 6.22
2941.691 6.05 6.14 6.06 5.86 5.8 5.46 5.35 5.18 5.02 5.14
2960.981 5.29 4.65 4.07 3.77 3.75 3.62 3.33 3.08 2.86 2.96
2980.271 2.79 2.46 2.11 1.9928 1.8604 1.9496 2.28 2.33 2.02 1.6791
2999.561 1.67 1.4061 1.08817 1.04663 1.2851 1.5751 1.3633 1.10196 0.787 0.786
3018.850 1.02948 0.9345 0.847 0.9678 0.852 0.698 0.805 1.2039 1.02376 0.655
3038.140 0.9902 1.1297 0.881 0.9642 0.833 0.723 1.03756 1.07365 1.10856 0.9275
3057.430 0.9712 1.3773 1.2856 1.1712 1.2883 1.1832 1.3499 1.6089 1.8121 1.7843
3076.720 1.3254 1.11532 1.1973 1.641 1.8513 1.703 1.5468 1.5086 1.5585 1.613
3096.009 1.7963 1.5549 1.08291 0.783 0.624 0.385 0.237 0.101 0.29 0.747
3115.299 0.9952 1.02684 1.1225 1.2624 1.05916 0.811 0.606 0.747 1.1796 1.3413
3134.589 0.9328 0.786 0.892 0.8 0.439 0.482 0.888 1.031 1.1712 0.903
3153.879 0.9209 0.789 0.404 0.542 0.74 0.321 0.082 0.478 0.767 0.822
3173.169 0.596 0.62 0.865 1.01394 0.9585 1.11873 1.1403 0.9785 0.9574 0.939
3192.458 1.06057 1.0075 1.02903 0.9812 1.1549 1.0013 0.94 0.885 0.766 1.0063
3211.748 0.915 1.03957 1.08277 1.4203 1.575 1.309 1.3499 1.144 0.9921 0.777
3231.038 0.638 0.79 0.818 1.0795 1.4749 1.4275 1.04242 0.455 0.372 0.827
3250.328 0.919 0.752 0.9608 0.9715 0.451 0.403 0.275 0.486 0.809 1.08815
3269.617 1.6048 1.02301 0.697 0.607 0.394 0.761 1.03864 1.09178 1.1176 1.04569
3288.907 0.672 0.767 0.887 1.04314 1.3459 1.02307 0.399 0 0.453 0.547
3308.197 0.242 0.816 1.01788 0.639 0.699 0.809 0.654 0.423 0.665 0.884
3327.487 0.625 0.193 0.337 0.736 0.9533 1.1213 0.9879 0.635 0.644 0.926
3346.777 0.857 0.825 0.9806 1.04961 0.74 0.776 0.9342 0.845 1.06019 1.09533
3366.066 0.517 0.616 1.2421 1.5656 1.5985 1.4196 1.0064 0.615 0.172 0.326
3385.356 1.1749 1.4621 1.10004 0.574 0.589 0.9296 0.781 0.604 0.713 1.01885
3404.646 1.3923 1.2743 1.09033 1.2164 1.4638 1.3554 1.10789 1.3943 1.2283 1.144
3423.936 1.8712 1.6266 1.2927 1.446 1.1212 0.9621 0.9592 1.135 1.5003 1.4107
3443.225 1.3113 1.4498 1.1765 1.1461 1.1881 1.08062 1.06869 0.9963 0.809 1.05366
3462.515 1.5638 1.3392 1.05569 1.3534 1.255 1.08587 1.2933 1.01433 1.2677 1.3441
3481.805 1.1636 1.7435 1.7423 0.9728 0.88 1.6331 1.6707 1.3377 1.3462 1.2703
3501.095 1.469 1.4038 1.08131 1.405 1.3673 0.881 1.2409 1.4276 1.2664 1.0686
3520.385 1.01656 0.918 0.592 0.682 1.1892 1.4153 1.1801 1.1957 0.815 0.355
3539.674 0.611 0.759 0.525 0.751 1.03795 1.3351 1.4603 0.907 0.525 0.572
3558.964 0.744 0.489 0.181 0.559 0.817 0.837 1.1373 0.874 0.173 0.543
3578.254 1.02107 0.9243 1.1374 1.2082 0.9917 1.01108 1.2246 1.06699 0.831 0.731
3597.544 0.632 0.655 0.842 0.715 0.649 1.01892 1.0083 0.304 0.18 0.869
3616.833 0.736 0.726 1.1302 0.9725 0.65 0.633 0.913 0.913 0.708 0.9405
3636.123 0.878 1.127 1.2776 0.84 0.775 0.9538 1.1958 1.0967 0.887 0.845
3655.413 1.3749 1.2665 0.672 0.825 0.833 0.592 0.848 1.08304 1.5816 1.4976
3674.703 1.02311 0.976 1.06522 1.01334 0.9523 1.09612 1.01682 1.1382 1.2364 0.87
3693.993 0.676 0.687 0.465 0.641 0.9391 1.1248 0.9418 0.595 0.693 0.754
3713.282 0.651 1.01443 1.03505 0.944 1.321 1.2061 0.772 0.591 0.87 1.1368
3732.572 1.07378 0.65 0.313 0.569 0.628 1.01674 1.1927 0.815 1.01126 1.3294
3751.862 1.05154 0.728 1.3649 1.2821 0.714 0.752 0.549 0.567 0.584 0.712
3771.152 0.9428 0.9951 0.9987 1.08213 0.857 0.697 0.913 0.802 0.432 0.444
3790.441 0.645 0.579 0.595 0.73 1.1406 1.3505 0.594 0.157 0.262 0.427
3809.731 0.787 0.85 0.769 0.597 0.587 0.885 1.3712 1.1496 0.426 0.334
3829.021 0.268 0.056 0.419 0.9516 1.04054 0.84 0.629 0.595 1.1539 1.1703
3848.311 0.9974 0.9292 1.09546 1.2035 0.564 0.393 0.658 0.528 0.309 0.471
3867.601 0.187 0.315 0.9647 1.05772 0.73 0.556 1.09479 1.4598 1.1476 1.1658
3886.890 0.821 0.207 0.204 0.716 1.01248 0.805 0.787 0.87 0.9335 0.915
3906.180 0.749 0.9914 1.3503 1.3006 1.4074 1.2413 0.9717 1.1792 0.9714 0.634
3925.470 0.862 1.1648 0.9673 0.676 0.432 0.273 0.399 0.908 1.07305 0.789
3944.760 0.681 1.1202 1.3534 1.03601 1.1603 1.4501 1.9231 1.1613 0.461 0.634
3964.049 0.315 0.649 0.891 1.2329 1.5618 1.3489 1.2597 0.9247 0.896 0.817
3983.339 0.879 1.07295 1.1293 0.712 0.335 0.876 0.793 0.563 0.551 0.666
##END=
