##TITLE=2-Fluoro-5-(trifluoromethyl)benzophenone
##JCAMP-DX=4.24
##DATA TYPE=INFRARED SPECTRUM
##ORIGIN=EPA-IR VAPOR PHASE LIBRARY
##OWNER=SRD/NIST
Collection (C) 2018 copyright by the U.S. Secretary of Commerce
on behalf of the United States of America. All rights reserved.
##CAS REGISTRY NO=199292-40-5
##MOLFORM=C 14 H 8 F 4 O
##$NIST SOURCE=MSDC-IR
##STATE=gas
##XUNITS=1/CM
##YUNITS=ABSORBANCE
##XFACTOR=1.
##YFACTOR=0.001
##DELTAX=1.92898
##FIRSTX=549.8
##LASTX=4000.7
##FIRSTY=2.194
##MAXX=4000.7
##MINX=549.759
##MAXY=0.169744
##MINY=0
##NPOINTS=1790
##XYDATA=(X++(Y..Y))
549.759 2.194 2.124 1.6063 1.7568 2.184 2.204 2.654 2.214 2.054 2.374
569.049 2.244 2.834 2.914 2.574 3.304 4.234 4.934 5.824 6.464 6.714
588.339 7.494 8.014 8.724 10.664 14.584 20.664 28.794 37.174 41.734 42.004
607.628 39.304 32.974 23.964 17.164 13.464 11.154 9.884 9.044 9.294 10.504
626.918 12.714 16.434 20.404 23.754 26.034 26.154 24.104 20.674 17.274 14.214
646.208 11.444 10.084 9.444 8.594 8.274 7.954 7.794 7.744 7.434 7.814
665.498 8.374 8.674 8.914 8.924 8.494 7.944 8.034 8.544 9.344 11.114
684.787 12.914 14.034 15.224 15.894 16.434 17.514 19.594 22.144 23.554 23.644
704.077 22.504 20.534 17.784 15.024 12.704 10.934 9.844 8.854 7.944 7.294
723.367 6.494 5.884 5.704 5.714 6.104 6.314 6.764 7.354 7.704 8.414
742.657 9.144 9.494 9.584 9.144 8.394 7.844 7.204 6.464 5.694 5.244
761.947 4.844 4.324 4.014 3.734 3.664 3.774 3.554 2.874 2.244 2.564
781.236 3.104 3.094 3.254 3.394 3.894 4.964 5.904 7.204 8.584 9.894
800.526 11.174 11.284 9.834 8.104 6.864 5.934 5.374 5.464 5.814 6.964
819.816 8.984 11.814 15.774 19.874 23.884 26.834 28.124 27.444 25.974 25.234
839.106 24.474 23.104 21.694 19.854 17.054 14.054 11.194 8.484 6.414 5.144
858.395 4.514 4.274 3.804 3.254 2.994 3.094 3.124 2.824 2.474 2.134
877.685 2.314 2.744 2.664 2.754 3.364 3.354 3.464 4.074 4.044 4.244
896.975 5.004 6.054 7.464 8.434 9.944 12.094 13.224 13.524 13.144 12.084
916.265 10.534 8.514 6.864 5.964 5.204 4.934 4.644 4.644 4.994 5.054
935.555 5.544 6.234 6.954 8.204 9.654 10.914 12.874 15.204 17.174 19.134
954.844 19.914 19.034 17.774 15.864 13.514 10.814 8.064 6.214 5.164 4.184
974.134 3.524 2.954 2.184 2.214 2.014 1.914 2.414 2.384 2.334 2.324
993.424 2.174 2.374 2.984 3.634 3.654 3.654 3.264 2.344 1.954 1.7008
1012.714 2.074 2.444 3.134 3.784 3.074 3.294 4.434 4.914 4.834 4.834
1032.003 4.424 3.894 3.384 3.234 3.264 2.924 3.154 2.824 2.644 3.424
1051.293 4.614 4.944 5.274 6.584 7.684 9.754 12.374 15.744 20.454 26.604
1070.583 31.864 34.364 34.884 32.334 27.374 20.894 15.324 11.664 9.604 9.104
1089.873 9.184 9.104 8.974 10.964 13.084 14.144 16.744 21.754 27.704 33.454
1109.163 39.864 45.804 48.604 48.014 45.534 41.894 38.284 33.944 30.434 29.944
1128.452 31.554 35.694 41.854 49.624 60.824 75.284 92.984 113.494 135.224 154.814
1147.742 166.954 169.744 158.704 138.154 115.164 92.864 76.574 65.844 62.404 66.444
1167.032 75.344 88.564 103.594 117.664 126.144 127.054 121.624 110.204 94.054 76.434
1186.322 60.054 45.084 33.394 26.784 23.044 19.884 17.474 16.544 15.934 15.124
1205.611 15.264 15.934 16.454 17.194 17.844 19.404 21.184 23.474 27.584 33.644
1224.901 41.494 49.374 57.554 66.294 74.554 80.584 84.154 86.394 86.374 86.304
1244.191 88.314 92.104 97.944 104.354 109.784 112.864 114.044 113.444 111.054 110.294
1263.481 114.344 122.764 132.724 140.674 142.464 135.774 120.634 100.214 79.734 63.154
1282.771 52.074 45.114 40.714 38.504 37.704 37.134 36.464 36.044 35.364 33.964
1302.060 32.284 31.574 32.364 34.484 37.984 42.064 45.294 47.694 50.304 54.364
1321.350 61.604 73.364 89.454 107.954 125.204 136.974 140.104 133.094 116.884 94.664
1340.640 71.434 51.954 38.004 28.984 23.254 19.824 17.974 16.894 15.884 14.904
1359.930 13.884 12.714 11.554 10.464 9.554 8.944 8.284 7.734 7.424 7.214
1379.219 7.024 6.714 6.404 6.104 5.804 5.514 5.304 5.194 5.074 4.964
1398.509 5.034 5.184 5.254 5.264 5.294 5.304 5.474 5.674 5.584 5.624
1417.799 5.634 5.494 5.414 5.334 5.144 4.884 4.714 4.774 4.924 5.124
1437.089 5.344 5.844 6.964 8.434 10.214 12.224 13.664 13.984 13.184 11.564
1456.378 9.224 7.014 5.794 5.154 4.834 4.754 4.724 4.784 4.984 5.224
1475.668 5.604 6.044 6.634 7.454 8.574 9.974 11.614 13.654 16.074 18.364
1494.958 20.254 21.514 21.794 20.994 19.144 16.574 13.844 11.384 9.274 7.564
1514.248 6.254 5.364 4.914 4.414 3.874 3.704 3.494 3.254 3.364 3.534
1533.538 3.524 3.584 3.804 3.814 3.764 3.944 3.964 3.974 3.954 3.924
1552.827 4.014 4.074 4.134 4.314 4.794 5.004 5.264 5.824 6.224 6.724
1572.117 7.244 7.704 8.614 9.674 10.654 11.724 12.904 14.364 15.734 17.164
1591.407 18.684 20.424 22.194 23.554 24.644 25.464 26.104 26.744 27.294 28.144
1610.697 29.604 30.994 31.774 31.984 31.344 29.434 26.594 23.304 20.044 17.114
1629.986 14.704 12.754 11.404 10.294 9.664 9.294 8.734 8.504 8.394 8.294
1649.276 8.224 8.164 8.634 9.554 10.174 10.624 11.204 11.804 12.844 14.094
1668.566 15.354 17.144 19.784 23.254 27.624 32.514 38.464 44.944 51.584 58.004
1687.856 63.074 66.294 67.084 65.484 61.294 55.854 49.924 43.634 38.064 32.594
1707.146 27.824 23.424 19.644 16.654 14.054 11.974 10.454 8.994 8.004 7.424
1726.435 6.744 6.124 5.534 4.954 4.584 4.354 4.094 3.804 3.714 3.714
1745.725 3.534 3.524 3.644 3.524 3.464 3.584 3.504 3.334 3.474 3.354
1765.015 3.214 3.244 3.094 3.034 3.134 3.194 3.094 3.174 3.054 2.814
1784.305 2.764 2.674 2.704 2.654 2.564 2.704 2.834 2.924 3.004 3.104
1803.594 3.204 3.444 3.604 3.464 3.414 3.494 3.474 3.364 3.174 2.904
1822.884 2.694 2.544 2.454 2.324 2.144 2.024 1.914 1.834 1.834 1.824
1842.174 1.864 1.794 1.7018 1.7329 1.7713 1.844 1.844 1.884 1.914 1.984
1861.464 2.084 2.014 1.914 1.954 1.944 1.904 1.934 1.984 2.034 1.984
1880.754 1.934 2.054 2.304 2.534 2.624 2.714 3.054 3.344 3.564 3.824
1900.043 3.924 4.044 4.234 4.134 3.824 3.594 3.324 3.114 2.854 2.544
1919.333 2.404 2.204 1.994 1.944 1.864 1.7647 1.6376 1.5699 1.6276 1.834
1938.623 1.804 1.6617 1.794 1.884 1.944 2.054 2.124 2.194 2.444 2.634
1957.913 2.604 2.494 2.194 2.084 2.314 2.284 2.124 2.044 1.904 1.884
1977.202 1.884 1.6706 1.5832 1.5599 1.3963 1.3761 1.4583 1.4365 1.4185 1.3984
1996.492 1.3189 1.2369 1.1659 1.1703 1.222 1.2771 1.3029 1.351 1.4475 1.3229
2015.782 1.1756 1.1621 1.156 1.243 1.3823 1.3891 1.3441 1.2778 1.184 1.1574
2035.072 1.0787 1.1649 1.261 1.1673 1.1751 1.1587 1.1454 1.2394 1.0985 1.0102
2054.362 1.1646 1.1699 1.2898 1.3998 1.3655 1.3333 1.3011 1.3604 1.3701 1.3113
2073.651 1.3196 1.4148 1.4666 1.3836 1.3926 1.4939 1.5846 1.4241 1.2489 1.4687
2092.941 1.5461 1.3878 1.3434 1.3022 1.3161 1.3914 1.2946 1.3322 1.4711 1.3335
2112.231 1.2891 1.3627 1.2639 1.2265 1.179 1.1166 1.164 1.2281 1.1603 1.067
2131.521 1.1222 1.2377 1.1177 0.9566 1.137 1.1998 1.0921 1.0963 1.1837 1.2053
2150.810 1.2379 1.1643 1.0636 1.2518 1.3549 1.2025 1.0773 1.1937 1.2905 1.2579
2170.100 1.2018 1.1795 1.2934 1.3749 1.2524 1.2989 1.4271 1.3941 1.3057 1.2561
2189.390 1.1818 1.1217 1.2125 1.1956 1.1773 1.2844 1.3747 1.2984 1.1781 1.37
2208.680 1.4745 1.3367 1.2216 1.2167 1.4279 1.551 1.5387 1.5153 1.4257 1.4086
2227.970 1.4532 1.3007 1.0135 0.9929 1.1521 1.3446 1.4649 1.5992 1.7182 1.6691
2247.259 1.6505 1.4258 1.4627 1.6733 1.4556 1.19 1.4272 1.5738 1.3914 1.4055
2266.549 1.5981 1.6659 1.7019 1.7564 1.6349 1.6658 1.6795 1.7358 1.864 1.894
2285.839 1.894 1.894 2.034 2.004 1.814 1.7137 1.5421 1.5051 1.4873 1.4407
2305.129 1.5846 1.6297 1.747 1.7827 1.676 1.7232 1.874 1.814 1.7174 1.6334
2324.418 1.6294 1.864 1.914 1.954 1.804 1.6221 1.6602 1.814 1.814 1.844
2343.708 2.064 1.924 1.6787 1.6233 1.6935 1.7269 1.5284 1.419 1.3804 1.1599
2362.998 1.239 1.4844 1.547 1.6448 1.2966 1.0152 1.1743 1.2697 1.3509 1.336
2382.288 1.1162 1.031 1.2857 1.5489 1.784 1.7427 1.5857 1.5367 1.4344 1.4034
2401.578 1.5412 1.6408 1.6528 1.6473 1.3943 1.3773 1.3453 1.1585 1.3118 1.4763
2420.867 1.4874 1.3633 1.2244 1.2985 1.4504 1.4659 1.2817 1.2853 1.5108 1.4585
2440.157 1.3132 1.3712 1.3589 1.3201 1.5332 1.5714 1.4563 1.4551 1.591 1.7515
2459.447 1.6268 1.4117 1.4897 1.582 1.4249 1.5161 1.814 1.729 1.6459 1.7637
2478.737 1.6402 1.4902 1.3898 1.5501 1.6868 1.5614 1.5743 1.6382 1.7558 1.874
2498.026 1.6771 1.3023 1.4429 1.7642 1.6451 1.4276 1.4598 1.4565 1.4657 1.4541
2517.316 1.3017 1.1759 1.0622 0.86276 0.80223 1.1316 1.2874 1.3461 1.3997 1.2405
2536.606 1.1787 1.1898 1.2677 1.2951 1.2229 1.206 1.2153 1.4599 1.556 1.2399
2555.896 1.162 1.3127 1.4094 1.4677 1.4467 1.2687 1.3198 1.5248 1.3001 1.2061
2575.186 1.3003 1.3344 1.2547 1.1847 1.3958 1.5957 1.5094 1.4518 1.526 1.6359
2594.475 1.6801 1.606 1.6804 1.7613 1.7224 1.4135 1.2794 1.2936 1.1085 0.9415
2613.765 0.995 1.3758 1.4081 1.3498 1.3851 1.6593 1.7359 1.3669 1.2475 1.2481
2633.055 1.3237 1.2705 1.2802 1.2696 1.3784 1.5058 1.1876 1.1617 1.3056 1.1316
2652.345 1.1113 1.3183 1.3638 1.0564 0.9726 1.2837 1.2905 1.0858 1.0713 1.1093
2671.634 1.096 1.0779 0.889 0.9583 1.2615 1.1284 0.9047 0.9187 1.0561 1.1199
2690.924 1.2035 1.24 0.9823 0.77644 0.9374 1.2093 1.4311 1.436 1.2815 1.3059
2710.214 1.2211 1.1744 1.2355 1.2115 1.2377 1.0938 1.0936 1.314 1.5177 1.6198
2729.504 1.5193 1.3358 1.2057 1.1682 1.2587 1.3855 1.4116 1.3491 1.2474 1.2958
2748.794 1.431 1.4601 1.2605 1.1194 1.204 1.1821 1.2208 1.3273 1.0649 1.1335
2768.083 1.3135 1.179 1.1631 1.2417 1.1801 0.985 1.1838 1.2894 1.1322 1.1823
2787.373 1.044 0.9293 1.2614 1.3699 1.1537 1.016 1.0103 1.2639 1.3083 1.1145
2806.663 0.9731 1.1736 1.3565 1.2477 1.195 1.0908 1.0112 1.066 1.1488 1.3551
2825.953 1.5546 1.3033 1.1368 1.105 0.7265 0.661 0.9681 1.1477 1.1289 1.2299
2845.242 1.5875 1.4575 1.2495 1.2783 1.2287 1.2739 1.3382 1.3366 1.4015 1.3365
2864.532 1.1565 1.1368 1.3503 1.3557 1.301 1.329 1.2322 1.2448 1.3001 1.4627
2883.822 1.5077 1.4408 1.3515 1.5323 1.6235 1.5941 1.6979 1.063 1.0064 1.4065
2903.112 1.2526 1.1921 1.1146 1.0571 1.1257 1.447 1.5339 1.3157 1.2519 1.3527
2922.401 1.4467 1.5312 1.4031 1.3844 1.4869 1.236 1.0735 1.1207 1.522 1.3624
2941.691 0.9471 1.0142 0.9205 1.0097 1.2244 1.202 1.3925 1.6041 1.244 0.7611
2960.981 0.9147 1.2727 1.3244 1.3228 1.2359 1.2681 1.2089 1.0582 1.1995 1.1179
2980.271 1.0879 1.1678 1.2589 1.2193 1.1064 1.2434 1.2778 1.2282 0.88181 1.1828
2999.561 1.7425 1.459 1.3799 1.5674 1.6908 1.761 1.6606 1.7628 1.894 2.174
3018.850 2.844 3.184 3.254 3.384 3.494 3.964 4.814 5.164 5.054 5.004
3038.140 5.164 5.394 5.524 5.224 4.814 4.584 4.314 4.474 4.694 4.904
3057.430 5.264 5.754 6.404 7.474 8.624 9.684 11.094 12.274 12.924 12.714
3076.720 12.014 11.074 10.314 9.914 9.354 9.064 8.814 8.904 8.604 7.544
3096.009 6.724 6.074 5.644 5.054 4.474 3.894 3.304 3.164 2.994 2.524
3115.299 1.964 1.834 2.114 2.164 1.874 1.984 2.084 1.663 1.3285 1.7186
3134.589 2.104 1.7255 1.4594 1.3783 1.1887 0.966 1.2411 1.5411 1.5388 1.4758
3153.879 1.3671 0.9793 0.8896 1.1843 1.1379 1.1749 1.2079 0.9589 0.9069 1.4545
3173.169 1.2478 0.9624 1.3288 1.5092 1.2009 0.757 0.7699 1.0431 1.3023 1.3622
3192.458 1.4372 1.5418 1.2676 1.0724 0.9254 0.82736 1.1143 1.1143 1.2682 1.5127
3211.748 1.438 1.2043 1.0001 0.9825 1.1805 1.2137 0.9791 0.9288 0.9148 0.9237
3231.038 1.1431 1.1327 1.2921 1.2729 0.8847 1.0751 1.1309 0.8967 0.7287 0.566
3250.328 0.679 0.7617 1.0973 1.2774 0.9461 0.9976 0.79677 0.663 1.113 1.1172
3269.617 0.87926 0.7702 0.7611 0.9577 1.14 0.9296 0.9744 0.9546 0.7715 1.2976
3288.907 1.4463 1.0776 0.7643 0.56 0.7676 0.9365 0.9999 1.0878 0.85089 0.637
3308.197 0.784358 1.0771 1.334 1.5225 1.285 1.0034 0.8999 1.2187 1.4698 1.2378
3327.487 0.7528 0.7567 0.972 1.0827 1.32 1.2677 1.016 0.9622 1.1733 1.0793
3346.777 1.1642 1.656 1.7033 1.4132 1.2218 1.4176 1.6982 1.775 2.064 2.194
3366.066 2.184 1.924 1.5841 1.814 2.164 1.864 1.5551 1.4965 1.4343 1.5581
3385.356 1.6577 1.7644 1.5667 1.2201 1.1247 1.2021 1.1213 1.1284 1.3213 1.1681
3404.646 0.80734 0.7673 1.0507 1.0367 0.7464 0.7148 0.65 0.664 1.0817 1.0897
3423.936 0.87354 1.0058 1.1562 1.1174 0.9504 1.0664 0.9779 0.454 0.678 1.12
3443.225 0.9296 0.86313 0.7099 0.376 0.473 0.83056 1.0612 1.0497 0.9818 1.2234
3462.515 1.4527 1.0471 0.9349 1.1407 1.2832 0.9278 0.627 0.9028 1.4074 1.6641
3481.805 1.2858 1.0819 1.0212 0.85814 0.9235 1.1506 1.0696 1.0594 1.2066 1.4502
3501.095 1.1526 0.676 1.19 1.1571 0.7071 1.1255 1.1093 0.7111 1.018 1.1463
3520.385 0.998 1.3239 1.3781 1.0349 0.7184 0.471 0.371 0.609 0.85948 0.9135
3539.674 0.6973 0.427 0.458 0.659 0.7047 0.6859 0.9284 0.9183 0.663 0.671
3558.964 0.9119 1.143 0.8843 0.77769 0.82453 0.578 0.9298 1.2084 1.1237 1.0511
3578.254 0.86851 0.7476 0.87798 0.9629 0.68 0.767 1.0032 1.1304 1.3735 1.151
3597.544 0.7264 0.495 0.59 0.645 0.793522 1.2151 0.9948 1.0103 0.9855 0.639
3616.833 0.793458 0.617 0.607 0.87995 0.87969 0.8971 0.81435 1.0517 1.3104 0.88224
3636.123 0.9833 0.932 0.7458 0.996 1.186 1.1826 0.664 0.601 0.9924 1.003
3655.413 0.653 0.7 0.84615 0.81751 1.0145 1.0687 1.1906 1.1455 0.84605 0.86442
3674.703 0.8847 1.2836 1.5654 1.2882 1.0708 1.1889 1.221 0.787016 0.55 0.7094
3693.993 1.0837 1.3834 1.2061 0.786686 0.7348 0.86073 1.0001 1.0647 1.3536 1.3572
3713.282 1.0638 0.9972 1.022 1.0694 0.88229 0.9565 1.0106 1.044 1.0319 1.0321
3732.572 1.0535 0.7656 0.512 0.532 0.673 0.519 0.551 0.649 0.79914 1.0967
3751.862 1.1847 1.1336 0.81255 0.654 0.557 0.232 0.399 1.0883 1.0837 0.513
3771.152 0.426 0.8859 0.86811 0.83868 0.83488 0.85803 1.1481 1.0385 0.77939 0.766
3790.441 0.9796 1.1539 1.4334 1.3684 0.8982 0.653 0.575 0.486 1.1675 1.1614
3809.731 0.483 0.6976 1.0908 0.7287 0 0.229 0.565 0.671 0.672 0.507
3829.021 0.7278 1.1321 1.1667 1.0992 1.0395 0.789264 0.77879 0.81537 0.44 0.514
3848.311 1.1666 1.0385 0.441 0.9213 1.3513 1.0596 0.80305 0.652 0.9634 1.1959
3867.601 0.9151 0.86904 0.8029 0.85616 0.8108 0.6936 1.081 1.1087 1.085 1.0858
3886.890 0.77724 0.7032 0.9734 1.0018 0.8895 0.7133 0.603 0.672 0.642 0.7396
3906.180 1.0552 1.0178 0.57 0.7686 0.7678 0.61 0.85735 0.83137 1.0201 0.81988
3925.470 0.435 0.81667 0.86242 1.0829 1.293 0.68 0.439 0.7465 0.86738 0.9307
3944.760 1.022 0.7246 1.2755 1.5071 1.1303 1.5298 1.2892 1.3414 1.5935 0.509
3964.049 0.15 0.363 0.279 0.7341 1.0308 0.81293 0.7332 0.83606 0.7637 0.9097
3983.339 0.9432 1.075 1.3319 0.9449 0.984 1.0441 0.9035 0.9313 0.869 1.1561
##END=
