##TITLE=3-Methyl-2-butylisothiocyanate
##JCAMP-DX=4.24
##DATA TYPE=INFRARED SPECTRUM
##ORIGIN=EPA-IR VAPOR PHASE LIBRARY
##OWNER=SRD/NIST
Collection (C) 2018 copyright by the U.S. Secretary of Commerce
on behalf of the United States of America. All rights reserved.
##CAS REGISTRY NO=201224-92-2
##MOLFORM=C 6 H 11 N S
##$NIST SOURCE=MSDC-IR
##STATE=gas
##XUNITS=1/CM
##YUNITS=ABSORBANCE
##XFACTOR=1.
##YFACTOR=0.001
##DELTAX=1.92898
##FIRSTX=549.8
##LASTX=4000.7
##FIRSTY=11.805
##MAXX=4000.7
##MINX=549.759
##MAXY=0.452935
##MINY=0
##NPOINTS=1790
##XYDATA=(X++(Y..Y))
549.759 11.805 11.755 11.075 10.845 10.875 10.575 10.335 10.225 10.305 10.405
569.049 10.125 9.715 9.875 9.845 9.295 9.105 8.985 8.945 8.755 8.255
588.339 8.075 7.795 7.385 7.205 6.985 6.445 6.035 5.875 5.725 5.575
607.628 5.235 5.085 5.035 4.805 4.485 4.355 4.325 4.115 4.175 4.265
626.918 4.095 3.975 3.865 3.875 4.075 4.115 4.095 4.155 4.195 4.275
646.208 4.375 4.495 4.855 4.915 4.905 5.175 5.565 5.835 5.975 6.355
665.498 6.665 6.965 7.345 7.405 7.545 7.965 8.265 8.425 8.465 8.635
684.787 8.705 8.635 8.485 8.395 8.355 7.995 7.635 7.415 7.215 6.895
704.077 6.405 5.975 5.535 5.015 4.615 4.145 3.675 3.395 3.085 2.655
723.367 2.435 2.455 2.255 2.135 2.165 1.905 1.755 1.775 1.895 2.055
742.657 2.205 2.265 2.415 2.665 2.795 3.045 3.595 4.225 4.915 5.725
761.947 6.555 7.505 8.295 8.875 9.445 9.935 9.915 9.505 9.185 8.875
781.236 8.325 7.835 7.235 6.395 5.855 5.355 4.815 4.575 4.135 3.565
800.526 3.445 3.125 2.805 2.635 2.065 1.775 1.705 1.615 1.605 1.415
819.816 1.215 1.175 1.145 1.0305 0.8107 0.8355 0.9246 0.9335 0.8284 0.6772
839.106 0.7313 0.6878 0.7861 0.8715 0.7842 0.6233 0.6205 0.6649 0.6479 0.6763
858.395 0.637 0.6357 0.5575 0.4865 0.6142 0.7936 0.8659 0.955 1.0014 1.215
877.685 1.465 1.605 2.005 2.535 3.295 4.125 4.915 5.835 6.645 7.265
896.975 7.865 8.285 8.355 8.335 8.085 7.705 7.115 6.445 5.955 5.335
916.265 4.725 4.425 4.375 4.285 4.135 3.985 3.815 3.825 3.975 4.065
935.555 4.115 4.015 4.065 4.275 4.635 5.145 5.675 6.195 6.835 7.465
954.844 8.165 8.975 9.735 10.415 10.905 11.535 11.935 12.025 12.015 11.765
974.134 11.615 11.615 11.305 10.845 10.685 10.595 10.625 10.705 10.405 10.265
993.424 10.285 10.185 10.235 10.115 9.945 9.755 9.455 9.125 8.795 8.635
1012.714 8.455 8.525 8.795 8.795 8.615 8.635 8.765 8.855 8.735 8.505
1032.003 8.315 8.095 8.205 8.315 8.165 7.905 7.895 7.995 7.745 7.635
1051.293 7.625 7.565 7.585 7.675 7.745 7.825 8.035 8.355 8.905 9.825
1070.583 10.335 10.585 11.195 11.735 11.965 12.235 12.895 13.285 13.185 13.065
1089.873 12.755 12.615 12.545 12.275 12.305 12.315 12.665 13.105 13.425 14.055
1109.163 14.575 14.885 15.345 15.695 15.765 15.285 14.815 14.385 13.775 12.885
1128.452 11.895 11.195 10.435 10.185 10.075 9.935 10.065 10.885 11.695 11.835
1147.742 11.805 11.635 11.515 11.535 11.275 10.655 10.085 9.315 8.205 7.275
1167.032 6.545 5.735 5.045 4.525 4.175 3.895 3.765 3.735 3.955 4.165
1186.322 3.805 3.385 3.355 3.315 2.975 2.905 2.895 2.925 3.035 2.975
1205.611 2.945 2.895 2.745 2.655 3.015 3.175 2.915 3.035 3.315 3.275
1224.901 3.115 2.975 3.295 3.425 3.545 3.795 3.845 3.985 4.015 4.065
1244.191 4.325 4.555 4.715 4.925 5.165 5.505 5.975 6.495 7.085 7.885
1263.481 8.895 9.925 10.915 11.975 12.985 13.975 14.825 15.565 16.165 16.875
1282.771 17.575 17.915 18.225 18.725 19.625 21.015 22.615 24.455 26.475 28.385
1302.060 30.145 31.645 33.065 34.465 35.835 37.165 38.195 38.955 39.445 39.785
1321.350 40.265 40.985 41.965 43.245 44.695 46.265 48.125 50.545 53.895 57.845
1340.640 61.415 63.445 63.445 62.125 60.285 57.805 54.295 50.095 45.335 39.905
1359.930 34.365 29.475 25.715 23.415 22.305 22.085 22.675 23.895 25.475 26.785
1379.219 27.635 28.425 29.475 30.795 31.975 32.415 31.815 30.345 28.455 26.195
1398.509 23.805 21.495 18.905 16.005 13.285 11.085 9.485 8.385 7.665 7.205
1417.799 6.905 6.695 6.595 6.585 6.685 6.835 7.025 7.315 7.725 8.225
1437.089 8.815 9.515 10.275 11.145 12.135 13.215 14.385 15.525 16.705 17.835
1456.378 18.795 19.605 20.265 20.715 20.845 20.735 20.435 19.885 19.165 18.215
1475.668 17.045 15.755 14.395 13.025 11.635 10.295 9.085 8.095 7.115 6.235
1494.958 5.615 5.105 4.615 4.205 3.885 3.625 3.425 3.185 3.025 2.895
1514.248 2.745 2.615 2.465 2.395 2.335 2.245 2.175 2.085 1.965 1.995
1533.538 1.965 1.845 1.865 1.945 1.945 1.885 1.825 1.775 1.765 1.765
1552.827 1.735 1.695 1.755 1.765 1.705 1.725 1.725 1.675 1.685 1.665
1572.117 1.625 1.685 1.685 1.665 1.645 1.665 1.675 1.615 1.535 1.555
1591.407 1.585 1.545 1.605 1.595 1.615 1.645 1.575 1.525 1.575 1.595
1610.697 1.665 1.725 1.685 1.735 1.785 1.665 1.575 1.655 1.715 1.665
1629.986 1.625 1.655 1.705 1.695 1.705 1.695 1.705 1.745 1.745 1.735
1649.276 1.745 1.775 1.775 1.715 1.725 1.775 1.835 1.815 1.775 1.835
1668.566 1.885 1.895 1.865 1.895 1.915 1.905 1.915 1.885 1.885 1.875
1687.856 1.845 1.845 1.845 1.875 1.905 1.895 1.965 1.975 1.975 2.065
1707.146 2.215 2.305 2.455 2.685 2.795 2.925 2.955 2.915 3.005 2.995
1726.435 2.905 2.795 2.625 2.475 2.305 2.115 1.945 1.755 1.605 1.525
1745.725 1.505 1.445 1.385 1.325 1.255 1.215 1.145 1.1279 1.155 1.155
1765.015 1.1071 1.018 0.9625 0.9341 0.9192 0.8671 0.8132 0.767 0.6996 0.6876
1784.305 0.7475 0.7655 0.7224 0.7605 0.8069 0.8198 0.8372 0.8257 0.8705 0.9487
1803.594 0.9932 1.0093 1.0779 1.155 1.1336 1.155 1.225 1.265 1.275 1.315
1822.884 1.365 1.325 1.325 1.425 1.545 1.635 1.685 1.765 1.855 1.925
1842.174 2.055 2.205 2.315 2.385 2.475 2.615 2.705 2.775 2.905 3.035
1861.464 3.165 3.335 3.495 3.685 3.855 3.985 4.135 4.355 4.485 4.675
1880.754 4.975 5.205 5.475 5.765 6.085 6.425 6.755 7.165 7.585 8.035
1900.043 8.525 9.055 9.655 10.295 10.925 11.595 12.315 13.085 13.905 14.795
1919.333 15.725 16.645 17.665 18.795 19.925 21.095 22.375 23.725 25.005 26.365
1938.623 27.875 29.445 31.075 32.725 34.485 36.315 38.165 40.095 42.135 44.245
1957.913 46.435 48.695 51.095 53.665 56.325 59.205 62.365 65.675 69.115 72.875
1977.202 76.895 81.145 85.675 90.325 95.125 100.265 105.655 111.325 117.385 123.755
1996.492 130.505 137.745 145.445 153.685 162.415 171.545 181.225 191.345 201.755 212.445
2015.782 223.395 234.545 245.865 257.445 269.205 281.085 293.135 305.575 318.295 331.115
2035.072 344.125 357.285 370.355 383.225 395.575 407.275 418.105 427.705 435.895 442.485
2054.362 447.535 450.975 452.765 452.935 451.705 448.885 444.615 439.335 432.665 424.595
2073.651 415.345 404.655 392.635 379.445 365.205 350.075 334.405 318.495 302.775 287.795
2092.941 273.765 260.825 249.265 239.065 230.085 222.055 214.845 208.335 202.335 196.685
2112.231 191.305 186.215 181.195 176.305 171.555 167.045 162.795 158.745 154.985 151.385
2131.521 148.025 144.775 141.375 137.895 134.285 130.485 126.515 122.445 118.315 114.155
2150.810 110.115 106.145 102.175 98.385 94.745 91.325 88.095 84.975 82.035 79.205
2170.100 76.485 73.895 71.385 68.895 66.555 64.245 61.875 59.495 57.115 54.835
2189.390 52.595 50.325 48.095 45.935 43.905 41.845 39.785 37.855 35.945 34.155
2208.680 32.415 30.635 28.885 27.235 25.685 24.195 22.815 21.575 20.465 19.415
2227.970 18.535 17.735 16.955 16.235 15.535 14.925 14.445 13.915 13.345 12.845
2247.259 12.385 11.885 11.415 10.925 10.495 10.115 9.695 9.325 9.005 8.645
2266.549 8.325 8.055 7.755 7.465 7.225 6.975 6.705 6.475 6.205 5.925
2285.839 5.665 5.455 5.255 4.995 4.805 4.625 4.435 4.285 4.145 3.965
2305.129 3.755 3.575 3.465 3.385 3.275 3.165 3.085 2.975 2.855 2.815
2324.418 2.795 2.715 2.625 2.605 2.535 2.505 2.515 2.405 2.295 2.235
2343.708 2.195 2.195 2.135 2.075 2.065 2.055 2.055 1.995 1.945 1.925
2362.998 1.915 1.935 1.915 1.895 1.835 1.815 1.855 1.865 1.805 1.775
2382.288 1.845 1.865 1.885 1.905 1.885 1.835 1.805 1.785 1.775 1.855
2401.578 1.875 1.875 1.845 1.815 1.825 1.855 1.855 1.895 2.005 2.005
2420.867 1.965 1.965 1.985 1.955 1.975 2.035 2.055 2.005 1.985 2.015
2440.157 2.005 1.975 1.965 1.955 1.935 1.915 1.845 1.845 1.895 1.915
2459.447 1.955 1.905 1.885 1.945 1.905 1.825 1.845 1.855 1.795 1.835
2478.737 1.865 1.805 1.775 1.845 1.855 1.865 1.895 1.885 1.975 2.015
2498.026 1.965 2.005 1.995 1.895 1.915 1.925 1.915 1.895 1.935 1.945
2517.316 1.915 1.945 1.995 2.005 2.045 2.065 2.065 2.085 2.085 2.195
2536.606 2.235 2.205 2.305 2.365 2.415 2.495 2.545 2.575 2.625 2.715
2555.896 2.755 2.835 2.935 2.995 3.105 3.125 3.185 3.365 3.445 3.515
2575.186 3.585 3.685 3.645 3.645 3.725 3.725 3.875 3.935 3.895 3.985
2594.475 4.025 3.975 3.975 4.065 4.095 4.165 4.185 4.145 4.045 3.945
2613.765 3.925 3.845 3.795 3.855 3.915 3.835 3.815 3.825 3.755 3.725
2633.055 3.775 3.775 3.755 3.725 3.665 3.755 3.865 3.845 3.805 3.795
2652.345 3.825 3.785 3.785 3.775 3.655 3.715 3.755 3.665 3.605 3.515
2671.634 3.465 3.425 3.365 3.305 3.275 3.255 3.165 3.165 3.145 3.035
2690.924 2.945 2.975 2.975 3.015 3.105 3.115 3.055 3.005 3.005 3.125
2710.214 3.285 3.315 3.395 3.625 3.725 3.805 3.955 4.015 4.285 4.545
2729.504 4.685 4.925 5.195 5.395 5.465 5.595 5.835 5.895 5.945 6.035
2748.794 6.005 6.085 6.135 6.075 5.985 5.895 5.805 5.735 5.705 5.605
2768.083 5.525 5.445 5.375 5.365 5.285 5.275 5.185 5.135 5.065 4.855
2787.373 4.805 4.745 4.645 4.655 4.635 4.495 4.435 4.415 4.315 4.335
2806.663 4.445 4.505 4.505 4.505 4.555 4.625 4.745 4.855 4.855 4.965
2825.953 5.125 5.165 5.205 5.365 5.545 5.655 5.705 5.775 5.925 6.095
2845.242 6.265 6.425 6.705 7.005 7.325 7.715 8.265 8.785 9.555 10.605
2864.532 11.765 13.195 14.965 17.005 19.245 21.855 24.705 27.565 30.305 32.845
2883.822 35.265 37.735 40.275 42.655 44.815 46.785 48.615 50.565 52.685 54.935
2903.112 57.315 59.315 60.595 61.245 61.425 61.025 59.835 58.075 56.255 54.545
2922.401 52.955 51.675 50.765 50.365 50.525 51.005 51.845 52.875 53.955 55.035
2941.691 55.745 56.095 56.255 56.375 56.575 57.145 58.145 59.665 62.145 65.835
2960.981 70.835 77.625 85.895 94.965 103.675 110.265 114.915 118.695 121.665 123.195
2980.271 123.305 121.215 116.415 110.025 102.515 94.425 87.225 80.245 71.325 61.445
2999.561 52.435 44.485 37.695 31.845 26.555 21.855 17.945 15.175 13.045 11.325
3018.850 10.145 9.165 8.445 7.745 7.085 6.605 6.235 5.925 5.565 5.155
3038.140 4.865 4.715 4.555 4.395 4.185 3.985 3.955 3.885 3.695 3.565
3057.430 3.645 3.785 3.775 3.755 3.755 3.705 3.645 3.625 3.605 3.525
3076.720 3.375 3.285 3.295 3.205 3.135 3.165 2.995 2.905 2.995 2.905
3096.009 2.855 2.915 2.865 2.855 2.815 2.685 2.675 2.745 2.745 2.505
3115.299 2.385 2.475 2.525 2.495 2.455 2.385 2.255 2.235 2.265 2.255
3134.589 2.295 2.325 2.205 2.215 2.165 1.995 1.995 1.995 2.035 2.105
3153.879 2.085 2.085 2.195 2.305 2.365 2.285 2.105 2.105 2.235 2.215
3173.169 2.175 2.225 2.215 2.155 2.185 2.295 2.225 2.125 2.045 2.005
3192.458 2.025 2.075 2.065 1.915 1.925 1.855 1.875 1.805 1.585 1.515
3211.748 1.575 1.675 1.585 1.355 1.0837 1.0178 1.0435 1.0542 1.0472 0.997
3231.038 0.8775 0.7487 0.6521 0.6423 0.6729 0.6925 0.6786 0.5502 0.5605 0.5701
3250.328 0.4995 0.514 0.4567 0.4079 0.5011 0.4958 0.4659 0.4349 0.3693 0.315
3269.617 0.3026 0.3449 0.23079 0.2653 0.3945 0.3742 0.3287 0.2673 0.21295 0.29
3288.907 0.4071 0.3404 0.2515 0.2765 0.2685 0.2639 0.22183 0.2456 0.237 0.2797
3308.197 0.3732 0.21026 0.134129 0.20254 0.21242 0.136065 0.0973 0.1004 0.14861 0.18474
3327.487 0.20085 0.2363 0.18119 0.20323 0.2835 0.21515 0.140929 0.2778 0.3088 0.20635
3346.777 0.20627 0.17013 0.20349 0.2751 0.348 0.364 0.3431 0.2895 0.23146 0.23301
3366.066 0.3896 0.5115 0.4146 0.3213 0.3289 0.3126 0.302 0.3924 0.4846 0.3424
3385.356 0.313 0.3867 0.342 0.2566 0.2571 0.4486 0.5415 0.4786 0.3145 0.22225
3404.646 0.2542 0.18433 0.138328 0.2357 0.2625 0.2717 0.2689 0.2707 0.21266 0.0954
3423.936 0.17154 0.2685 0.19064 0.15641 0.2492 0.3021 0.2979 0.16281 0.2376 0.4829
3443.225 0.4126 0.285 0.202 0.21342 0.2459 0.22779 0.2471 0.2857 0.3166 0.3321
3462.515 0.3323 0.289 0.2998 0.3253 0.3746 0.4184 0.3562 0.2614 0.2533 0.3153
3481.805 0.268 0.3248 0.3591 0.16981 0.20053 0.18995 0.0507 0.14457 0.16861 0.2386
3501.095 0.2658 0.15217 0.0974 0.12775 0.21076 0.2485 0.2393 0.254 0.22598 0.1116
3520.385 0.0599 0.1 0.15693 0.2813 0.4235 0.446 0.4156 0.2998 0.2898 0.284
3539.674 0.137325 0.12757 0.12621 0.1066 0.21675 0.2417 0.0929 0.005 0.143168 0.21992
3558.964 0.12914 0.1092 0.20847 0.23093 0.14702 0.15768 0.19027 0.20749 0.19895 0.16393
3578.254 0.19181 0.1203 0.0589 0.16613 0.19911 0.1171 0 0.0831 0.2593 0.16178
3597.544 0.0744 0.2618 0.4141 0.3682 0.3118 0.2532 0.23312 0.20588 0.22603 0.21743
3616.833 0.1111 0.19421 0.2968 0.2686 0.18361 0.1674 0.18924 0.19244 0.2426 0.23382
3636.123 0.21949 0.23016 0.13328 0.137536 0.1199 0.03 0.18433 0.2744 0.25 0.19712
3655.413 0.16042 0.1186 0.0523 0.0569 0.0781 0.0575 0.028 0.0494 0.2573 0.2959
3674.703 0.23402 0.3789 0.3171 0.19006 0.2451 0.3258 0.141762 0.021 0.108 0.0977
3693.993 0.16313 0.3177 0.2856 0.15233 0.14797 0.2098 0.19318 0.16354 0.12617 0.17799
3713.282 0.15838 0.0435 0.13313 0.21209 0.22538 0.2735 0.3329 0.3379 0.21769 0.16791
3732.572 0.3696 0.3319 0.16638 0.3399 0.4911 0.3351 0.18035 0.2456 0.3006 0.21886
3751.862 0.0942 0.16595 0.20036 0.1062 0.1081 0.21709 0.3995 0.4052 0.2911 0.2983
3771.152 0.3272 0.3157 0.4196 0.5133 0.4056 0.2729 0.2974 0.3935 0.3206 0.2779
3790.441 0.2251 0.14821 0.3221 0.449 0.2903 0.346 0.4509 0.3749 0.336 0.3616
3809.731 0.3567 0.3421 0.4678 0.5191 0.5331 0.5154 0.4139 0.3521 0.3484 0.4783
3829.021 0.5848 0.4732 0.4468 0.5436 0.6045 0.6542 0.5778 0.6021 0.7229 0.72
3848.311 0.5845 0.6242 0.8726 0.8497 0.7663 0.7132 0.7694 0.8943 0.8553 0.6683
3867.601 0.631 0.7001 0.6924 0.7049 0.7053 0.841 1.0236 0.9782 0.7058 0.6789
3886.890 0.8645 0.9041 0.9383 1.0045 0.9933 0.9638 1.0018 0.943 0.9112 0.9499
3906.180 1.0094 1.006 1.0407 1.0713 1.0225 1.0583 1.175 1.175 0.9248 0.8491
3925.470 0.994 1.1214 1.205 1.155 1.1103 1.145 1.1238 1.155 1.185 1.155
3944.760 1.195 1.275 1.255 1.0287 1.1284 1.245 1.185 1.235 1.285 1.385
3964.049 1.495 1.485 1.315 1.245 1.435 1.445 1.465 1.525 1.495 1.515
3983.339 1.525 1.665 1.765 1.675 1.505 1.695 1.755 1.725 1.885 2.005
##END=
