##TITLE=2-Bromo-6-chloro-4-fluoroaniline
##JCAMP-DX=4.24
##DATA TYPE=INFRARED SPECTRUM
##ORIGIN=EPA-IR VAPOR PHASE LIBRARY
##OWNER=SRD/NIST
Collection (C) 2018 copyright by the U.S. Secretary of Commerce
on behalf of the United States of America. All rights reserved.
##CAS REGISTRY NO=201849-14-1
##MOLFORM=C 6 H 4 Br Cl F N
##$NIST SOURCE=MSDC-IR
##STATE=gas
##XUNITS=1/CM
##YUNITS=ABSORBANCE
##XFACTOR=1.
##YFACTOR=0.001
##DELTAX=1.92898
##FIRSTX=549.8
##LASTX=4000.7
##FIRSTY=8.808
##MAXX=4000.7
##MINX=549.759
##MAXY=0.426388
##MINY=0
##NPOINTS=1790
##XYDATA=(X++(Y..Y))
549.759 8.808 8.498 8.788 9.448 9.908 10.288 11.108 12.668 13.048 13.818
569.049 15.058 16.468 19.198 19.888 16.758 14.038 13.378 13.038 11.988 10.298
588.339 9.728 9.678 9.508 10.008 10.108 9.628 9.648 9.968 10.008 10.028
607.628 9.958 10.018 10.298 10.398 11.128 11.838 11.708 12.118 12.358 12.758
626.918 13.778 14.568 15.388 15.858 16.388 16.918 17.468 18.338 18.688 19.188
646.208 19.548 20.358 21.248 21.018 20.928 21.288 21.768 22.228 22.278 22.038
665.498 22.098 22.278 22.798 23.298 23.328 23.518 23.828 24.348 24.558 24.978
684.787 25.858 26.448 27.528 29.198 31.078 33.038 34.878 36.658 38.258 39.688
704.077 40.818 40.568 39.268 38.148 37.068 36.338 35.728 35.178 35.048 35.008
723.367 34.968 34.568 34.168 33.638 33.308 33.268 33.438 33.848 34.378 35.758
742.657 37.688 40.678 45.188 51.498 59.848 69.658 80.108 90.488 100.068 107.498
761.947 112.468 115.078 114.698 112.338 108.958 104.448 99.578 94.428 89.098 83.828
781.236 78.548 72.848 66.678 61.498 57.568 54.128 49.258 43.868 39.768 35.178
800.526 28.998 22.728 17.738 13.968 11.618 10.398 9.288 8.378 8.088 8.218
819.816 8.428 8.268 8.168 8.398 8.898 9.128 9.608 10.678 12.228 14.088
839.106 16.548 20.968 27.738 36.078 45.108 53.528 61.718 72.008 88.438 103.128
858.395 92.018 70.108 58.938 51.158 42.338 32.678 23.948 16.848 12.748 10.358
877.685 8.338 7.448 7.308 6.858 6.358 6.708 6.798 6.968 7.508 7.988
896.975 8.458 8.578 8.968 9.488 9.818 10.478 11.098 11.818 13.878 17.158
916.265 21.798 28.898 39.048 52.408 68.318 85.168 100.298 110.088 115.068 118.298
935.555 118.538 112.378 98.568 80.268 61.928 47.108 36.448 28.528 22.968 19.108
954.844 16.298 14.578 13.338 11.978 10.828 10.288 9.758 8.998 8.598 8.078
974.134 7.728 7.848 7.578 7.398 7.298 6.898 6.978 7.088 7.108 7.188
993.424 6.908 6.788 6.828 6.718 6.918 7.218 7.298 6.928 7.058 7.498
1012.714 7.788 8.138 8.498 8.948 8.878 8.938 9.428 9.978 10.638 11.428
1032.003 12.138 12.798 13.888 15.198 16.978 19.088 21.268 24.038 26.058 28.648
1051.293 30.898 32.038 32.848 32.458 31.788 30.428 28.338 25.798 23.668 23.598
1070.583 24.378 25.868 30.168 35.168 40.598 47.628 54.148 59.798 64.218 66.498
1089.873 67.048 65.228 61.368 55.618 48.638 42.248 35.828 30.188 25.878 22.038
1109.163 18.198 14.608 11.788 10.168 9.448 8.928 8.308 7.748 7.078 6.078
1128.452 6.218 6.338 4.968 4.678 4.898 4.528 4.988 5.228 4.888 4.818
1147.742 4.788 4.788 4.948 5.178 5.478 5.428 5.378 5.598 5.408 5.528
1167.032 6.238 6.148 6.708 8.378 9.808 12.458 16.558 22.248 30.038 38.738
1186.322 47.088 55.198 62.068 66.118 68.428 69.038 67.448 64.378 60.308 55.658
1205.611 50.908 46.938 43.048 38.668 35.258 31.908 29.288 27.628 27.428 27.118
1224.901 25.118 22.778 20.528 18.038 15.448 13.278 11.118 9.288 7.998 7.068
1244.191 6.238 6.028 5.608 5.188 4.778 4.588 4.888 4.958 4.988 5.138
1263.481 5.408 5.738 6.108 6.698 7.568 8.298 9.358 10.908 12.848 15.388
1282.771 18.848 23.298 27.828 32.268 36.368 39.338 40.698 40.088 37.638 33.398
1302.060 27.478 21.428 16.868 13.518 10.818 8.638 6.898 5.588 4.708 4.228
1321.350 3.858 3.608 3.608 3.628 3.628 3.778 4.028 4.238 4.598 5.058
1340.640 5.478 5.878 6.268 6.788 7.108 7.258 7.248 7.018 6.748 6.378
1359.930 5.888 5.488 5.138 4.898 4.768 4.698 4.858 5.148 5.428 5.728
1379.219 6.218 6.858 7.628 8.528 9.678 11.128 12.988 15.558 18.838 22.838
1398.509 27.278 31.538 34.968 36.738 36.728 35.418 33.228 30.568 27.938 25.748
1417.799 24.748 25.728 28.278 31.448 33.888 34.908 34.948 34.748 34.008 31.898
1437.089 28.578 25.288 23.118 22.468 23.408 25.938 30.208 36.238 44.648 56.308
1456.378 72.218 93.298 120.828 156.158 198.908 248.188 300.588 350.968 392.328 418.568
1475.668 426.388 417.508 395.558 359.928 308.658 247.268 187.068 136.858 98.628 71.028
1494.958 51.578 37.938 28.648 22.478 18.498 15.818 14.078 12.988 12.368 12.158
1514.248 12.098 12.298 12.678 13.058 13.468 13.908 14.078 14.248 14.448 14.428
1533.538 14.468 14.638 14.868 15.018 15.448 16.298 17.608 19.568 22.008 25.098
1552.827 28.938 34.048 40.458 48.508 58.778 70.978 85.738 103.508 123.968 146.208
1572.117 169.298 192.348 213.658 231.098 242.368 245.038 238.878 226.688 211.448 194.418
1591.407 174.258 151.088 127.038 103.868 83.388 66.688 54.148 45.678 40.758 38.388
1610.697 37.908 38.548 39.478 40.138 40.278 39.608 38.078 35.588 32.208 28.608
1629.986 25.308 22.608 20.348 18.708 17.618 16.648 15.878 15.278 14.668 14.038
1649.276 13.368 12.618 11.888 11.108 10.208 9.538 8.928 8.358 7.948 7.738
1668.566 7.518 7.208 7.098 7.178 7.198 7.248 7.478 7.708 7.998 8.368
1687.856 8.828 9.438 10.288 11.238 12.378 13.648 14.868 15.688 15.928 15.698
1707.146 14.988 13.998 12.688 10.988 9.248 7.878 6.768 5.708 4.888 4.368
1726.435 4.068 3.758 3.408 3.328 3.168 2.948 2.988 2.878 2.748 2.638
1745.725 2.558 2.718 2.838 2.658 2.518 2.718 2.768 2.768 2.788 2.628
1765.015 2.608 2.648 2.608 2.538 2.438 2.388 2.408 2.388 2.308 2.278
1784.305 2.248 2.148 2.138 2.178 2.208 2.198 2.148 2.128 2.158 2.198
1803.594 2.278 2.308 2.278 2.248 2.228 2.268 2.258 2.258 2.138 2.098
1822.884 2.178 2.158 2.158 2.028 1.998 2.038 1.998 2.008 2.058 2.098
1842.174 1.968 1.928 1.988 1.998 2.018 2.018 2.048 2.048 2.018 1.998
1861.464 1.938 1.888 1.798 1.808 1.908 1.858 1.818 1.818 1.828 1.848
1880.754 1.798 1.758 1.748 1.668 1.548 1.608 1.708 1.728 1.798 1.788
1900.043 1.828 1.938 1.888 1.908 1.978 1.888 1.898 1.888 1.858 1.918
1919.333 1.918 1.878 1.918 1.898 1.958 2.098 2.128 2.028 1.928 1.958
1938.623 2.108 2.108 1.988 2.088 2.188 2.158 2.058 2.018 1.958 1.868
1957.913 1.878 1.898 1.838 1.918 1.928 1.788 1.778 1.778 1.808 1.888
1977.202 1.918 2.008 2.038 2.008 2.068 2.078 2.008 1.978 2.008 1.958
1996.492 1.868 1.968 2.038 1.888 1.678 1.558 1.648 1.688 1.598 1.608
2015.782 1.608 1.508 1.538 1.588 1.528 1.418 1.408 1.458 1.498 1.608
2035.072 1.738 1.788 1.778 1.738 1.828 1.958 1.978 2.068 2.138 2.088
2054.362 2.088 2.178 2.258 2.348 2.268 2.168 2.138 2.108 2.208 2.158
2073.651 2.128 2.228 2.258 2.218 2.278 2.378 2.388 2.488 2.478 2.308
2092.941 2.198 2.218 2.258 2.138 1.978 1.858 1.718 1.638 1.538 1.468
2112.231 1.468 1.518 1.608 1.618 1.668 1.848 1.968 2.018 2.048 2.048
2131.521 2.148 2.248 2.208 2.178 2.258 2.248 2.198 2.058 1.978 1.898
2150.810 1.728 1.688 1.688 1.598 1.478 1.458 1.498 1.508 1.448 1.508
2170.100 1.598 1.408 1.298 1.408 1.418 1.368 1.368 1.298 1.258 1.2165
2189.390 1.1411 1.133 1.268 1.338 1.298 1.418 1.368 1.1897 1.1766 1.2169
2208.680 1.166 1.1188 1.1937 1.241 1.2005 1.2157 1.368 1.418 1.478 1.518
2227.970 1.498 1.698 1.828 1.768 1.878 1.958 1.838 1.668 1.648 1.708
2247.259 1.598 1.458 1.488 1.438 1.338 1.398 1.328 1.348 1.428 1.388
2266.549 1.498 1.528 1.348 1.388 1.398 1.2264 1.258 1.338 1.288 1.2393
2285.839 1.288 1.328 1.258 1.1769 1.0464 0.9884 1.0365 1.0966 1.1107 1.0668
2305.129 1.0966 1.036 0.9505 1.032 1.0155 0.9815 1.0064 0.964 1.1088 1.0771
2324.418 1.0267 1.1013 1.1095 1.1649 1.2358 1.2381 1.258 1.328 1.278 1.328
2343.708 1.478 1.438 1.448 1.458 1.338 1.308 1.2418 1.1137 1.0606 1.1652
2362.998 1.1833 1.1872 1.368 1.318 1.2182 1.225 1.408 1.558 1.578 1.638
2382.288 1.618 1.788 1.888 1.938 2.138 2.258 2.358 2.428 2.488 2.598
2401.578 2.748 2.728 2.678 2.718 2.518 2.388 2.318 2.168 2.038 1.828
2420.867 1.538 1.328 1.2252 1.075 0.9298 0.9545 1.0419 1.0008 0.7375 0.7161
2440.157 0.7499 0.8208 0.9283 0.813 0.8167 0.8072 0.7866 0.7592 0.6388 0.6246
2459.447 0.741 0.7955 0.7904 0.9889 1.1203 1.1812 1.288 1.318 1.448 1.638
2478.737 1.898 2.148 2.258 2.328 2.408 2.468 2.498 2.518 2.608 2.548
2498.026 2.478 2.458 2.378 2.398 2.358 2.248 2.268 2.188 2.018 1.868
2517.316 1.838 1.768 1.638 1.508 1.478 1.418 1.1687 1.1152 1.0751 1.0119
2536.606 0.9394 0.8165 0.8126 0.8737 0.7729 0.7068 0.7127 0.6795 0.7441 0.7537
2555.896 0.7293 0.7209 0.822 0.9026 0.7589 0.7465 0.8797 0.8595 0.8935 1.0133
2575.186 1.0022 1.1719 1.318 1.288 1.368 1.428 1.438 1.448 1.368 1.538
2594.475 1.668 1.538 1.538 1.578 1.508 1.288 1.2114 1.2127 1.173 1.2152
2613.765 1.1365 1.1726 1.217 1.0807 0.9905 0.9973 1.1275 1.1124 0.9133 0.8498
2633.055 0.9356 0.9736 0.9313 0.8869 0.8385 0.7991 0.8362 0.9588 1.049 0.9722
2652.345 0.7774 0.6673 0.7006 0.8275 0.8667 0.88 0.8601 0.8725 1.0227 0.9141
2671.634 0.8936 0.9527 0.9038 0.8013 0.7417 0.7377 0.7117 0.8555 0.8639 0.8225
2690.924 0.8423 0.7964 0.7516 0.7383 0.6982 0.7976 0.8014 0.6109 0.5835 0.6013
2710.214 0.4984 0.4284 0.5661 0.6024 0.615 0.7069 0.6352 0.5338 0.4482 0.4526
2729.504 0.5978 0.5502 0.5483 0.6398 0.6346 0.5543 0.5728 0.765 0.6998 0.6846
2748.794 0.8712 0.9327 0.9275 0.8966 0.996 1.258 1.358 1.288 1.1749 1.21
2768.083 1.388 1.498 1.618 1.558 1.538 1.588 1.388 1.268 1.288 1.308
2787.373 1.348 1.1247 0.9103 0.9429 0.9733 0.8738 0.7661 0.8007 0.8982 0.9677
2806.663 0.9902 0.8744 0.7706 0.8886 0.9244 0.886 0.8848 0.6797 0.5927 0.7113
2825.953 0.8555 0.901 0.9642 1.0539 0.9522 0.971 0.9733 1.0452 1.2388 1.328
2845.242 1.298 1.348 1.488 1.478 1.538 1.718 1.848 1.898 1.918 1.958
2864.532 1.828 1.768 1.798 1.738 1.518 1.398 1.398 1.2172 1.2061 1.1523
2883.822 0.966 1.0108 1.1121 0.9612 0.821 0.8896 0.8854 0.7076 0.6663 0.6926
2903.112 0.6754 0.7698 0.998 0.9948 0.7973 0.8283 0.9324 0.9366 0.8671 0.6896
2922.401 0.55 0.5669 0.7068 0.7906 0.7798 0.7886 0.7799 0.7732 0.7164 0.5531
2941.691 0.6648 0.9479 0.7658 0.6118 0.5549 0.6578 0.7938 0.7101 0.5939 0.4519
2960.981 0.1725 0.134 0.257943 0.2124 0.1874 0.250967 0.477 0.5702 0.5747 0.4459
2980.271 0.3928 0.6672 0.8369 0.8415 0.7464 0.6847 0.6802 0.8411 0.7304 0.4975
2999.561 0.5537 0.5742 0.4756 0.32367 0.4169 0.5474 0.5604 0.4716 0.492 0.5319
3018.850 0.4394 0.4543 0.6517 0.7521 0.7214 0.6488 0.7333 0.936 0.7723 0.605
3038.140 0.6392 0.763 0.9409 1.258 1.2365 0.9973 0.9786 0.9767 1.308 1.458
3057.430 1.338 1.288 1.2457 1.2454 1.388 1.428 1.196 1.1497 1.458 1.528
3076.720 1.598 1.798 1.968 2.338 2.828 3.388 3.918 4.278 4.448 4.698
3096.009 4.578 3.848 3.408 2.998 2.158 1.478 1.0976 0.8362 0.7562 0.8433
3115.299 0.8185 0.8559 0.9372 0.85 0.6551 0.6525 0.6838 0.6687 0.8733 0.9082
3134.589 0.703 0.6928 0.673 0.7147 1.1252 1.2049 1.278 1.398 1.448 1.758
3153.879 1.948 1.878 2.088 2.138 1.908 1.898 1.828 2.078 2.268 2.108
3173.169 2.058 2.088 1.928 1.688 1.598 1.518 1.358 1.1947 1.2064 1.388
3192.458 1.328 1.1584 1.388 1.438 1.0782 1.1458 1.1392 0.9982 0.916 0.7182
3211.748 0.671 0.5981 0.7555 0.9023 0.7496 0.6832 0.809 0.9386 0.7159 0.395
3231.038 0.526 0.7371 0.8093 0.7207 0.7051 0.7594 0.6282 0.6044 0.5664 0.4562
3250.328 0.31963 0.32125 0.255273 0.127 0.24621 0.3752 0.4511 0.5016 0.4788 0.30767
3269.617 0.1524 0.23979 0.32565 0.4334 0.4147 0.3711 0.4815 0.4556 0.5821 0.5489
3288.907 0.5298 0.5155 0.27879 0.2039 0.4142 0.6426 0.7432 0.6141 0.27585 0.2192
3308.197 0.3813 0.6248 0.7831 0.8411 0.7451 0.4667 0.28363 0.31682 0.3758 0.4951
3327.487 0.5245 0.5469 0.3683 0.26007 0.3584 0.147 0.1971 0.4428 0.4799 0.5879
3346.777 0.6293 0.5815 0.8219 0.8389 0.7667 1.0102 0.9752 0.8343 1.0602 1.2197
3366.066 1.388 1.698 1.998 2.378 2.778 3.248 3.568 4.218 4.948 5.818
3385.356 7.148 8.398 9.898 11.938 14.268 17.068 19.998 22.998 26.328 29.758
3404.646 32.658 34.478 35.158 34.738 33.298 31.028 27.978 24.278 20.328 16.128
3423.936 12.658 10.218 8.248 6.928 6.008 5.208 4.398 3.758 3.538 3.188
3443.225 3.288 3.678 3.428 3.288 3.658 3.918 3.948 4.418 4.878 5.038
3462.515 5.408 5.938 6.448 7.048 7.788 8.658 9.788 11.128 12.488 13.938
3481.805 15.498 17.478 19.968 22.788 26.038 29.488 33.388 37.798 42.388 46.808
3501.095 50.498 52.858 53.998 53.448 51.088 47.168 41.828 35.898 30.038 24.878
3520.385 20.438 16.658 13.728 11.808 10.328 8.828 7.418 6.208 5.108 4.208
3539.674 3.568 3.128 2.948 2.778 2.758 2.428 2.108 2.358 2.078 1.888
3558.964 2.108 1.928 1.698 1.488 1.2473 0.9755 0.9738 1.0119 1.0997 1.2097
3578.254 1.1237 1.0938 0.88 0.763 0.6667 0.5886 0.5547 0.5312 0.6723 0.7215
3597.544 0.4162 0.23833 0.2127 0.3369 0.4232 0.222 0.255122 0.3492 0.34627 0.5051
3616.833 0.4453 0.33507 0.5753 0.6313 0.642 0.5688 0.4819 0.6745 0.4123 0.002
3636.123 0 0.13 0.38 0.4979 0.4585 0.32995 0.33628 0.5704 0.646 0.5652
3655.413 0.3627 0.32738 0.5451 0.6406 0.5336 0.5112 0.5438 0.5939 0.6265 0.5713
3674.703 0.7182 0.7757 0.611 0.5584 0.4889 0.6267 0.6125 0.6865 0.9356 0.8942
3693.993 0.9371 0.8596 0.6574 0.6778 0.8878 0.8023 0.5777 0.463 0.4434 0.643
3713.282 0.6601 0.5381 0.4288 0.4243 0.28358 0.067 0.129 0.34231 0.608 0.26598
3732.572 0.098 0.26663 0.1602 0.34753 0.686 0.6838 0.5522 0.6192 0.5584 0.6128
3751.862 0.9286 0.8005 0.7069 0.8885 0.7435 0.7537 0.9077 0.7496 0.429 0.3856
3771.152 0.6835 0.6342 0.4469 0.30066 0.039 0.1517 0.5432 0.5686 0.29395 0.5967
3790.441 0.8822 0.817 0.8275 0.9971 1.0371 0.7115 0.7364 0.8915 0.8724 0.9264
3809.731 0.9783 0.9962 1.0298 0.901 1.056 1.0987 0.9864 1.075 1.039 0.993
3829.021 0.9864 1.1667 1.368 1.2435 1.268 1.368 1.508 1.768 1.558 1.538
3848.311 1.748 1.628 1.498 1.598 1.658 1.548 1.788 1.958 1.858 1.988
3867.601 2.068 2.058 1.918 1.838 1.938 1.828 1.548 1.538 1.648 1.428
3886.890 1.398 1.768 1.718 1.175 0.956 0.9914 1.076 1.1924 1.0229 0.8829
3906.180 0.9734 0.8219 0.6742 0.5369 0.5217 0.5739 0.816 0.9265 0.8767 0.9903
3925.470 0.8829 0.8007 0.7474 0.7691 0.751 0.74 0.8835 0.9422 0.8092 0.7236
3944.760 0.5956 0.6818 0.6497 0.5873 0.9178 0.9988 1.0466 1.0044 1.016 1.095
3964.049 1.0407 1.0973 1.1131 0.9366 0.9553 1.037 0.9528 1.0148 0.9448 0.8742
3983.339 0.938 0.8447 0.781 0.6227 0.6987 1.0656 1.1518 1.2239 1.0935 0.7453
##END=
