##TITLE=3-Pentane isothiocyanate
##JCAMP-DX=4.24
##DATA TYPE=INFRARED SPECTRUM
##ORIGIN=EPA-IR VAPOR PHASE LIBRARY
##OWNER=SRD/NIST
Collection (C) 2018 copyright by the U.S. Secretary of Commerce
on behalf of the United States of America. All rights reserved.
##CAS REGISTRY NO=201224-89-7
##MOLFORM=C 6 H 11 N S
##$NIST SOURCE=MSDC-IR
##STATE=gas
##XUNITS=1/CM
##YUNITS=ABSORBANCE
##XFACTOR=1.
##YFACTOR=0.001
##DELTAX=1.92898
##FIRSTX=549.8
##LASTX=4000.7
##FIRSTY=9.883
##MAXX=4000.7
##MINX=549.759
##MAXY=0.293713
##MINY=0
##NPOINTS=1790
##XYDATA=(X++(Y..Y))
549.759 9.883 9.573 9.553 9.233 8.943 8.423 7.953 7.943 7.493 7.133
569.049 6.813 6.563 6.263 5.823 5.383 5.043 4.793 4.613 4.423 4.213
588.339 4.033 3.873 3.823 3.523 3.503 3.663 3.533 3.143 3.033 2.973
607.628 2.743 2.843 2.893 2.713 2.623 2.613 2.553 2.353 2.353 2.303
626.918 2.003 1.973 2.313 2.443 2.303 2.283 2.333 2.143 1.933 1.853
646.208 2.023 2.303 2.433 2.453 2.373 2.513 2.603 2.373 2.223 2.283
665.498 2.343 2.523 2.743 2.633 2.613 2.733 2.773 2.783 2.733 2.743
684.787 2.703 2.663 2.703 2.593 2.423 2.193 1.893 1.893 1.763 1.643
704.077 1.643 1.4519 1.2049 1.0507 1.0446 0.95 0.9246 0.9987 0.9834 0.9377
723.367 0.8682 0.9667 1.0779 1.043 1.1034 1.3352 1.3013 1.1783 1.2887 1.2462
742.657 1.0801 1.1568 1.2121 1.2961 1.3688 1.4057 1.5527 1.703 1.793 1.873
761.947 2.143 2.343 2.283 2.373 2.483 2.643 2.753 2.673 2.883 3.023
781.236 2.873 2.883 3.143 3.423 3.793 4.273 4.763 5.293 6.003 6.813
800.526 7.863 9.053 10.093 11.243 12.303 13.083 13.883 14.773 15.413 16.103
819.816 16.753 17.143 17.273 17.423 17.723 17.933 17.803 17.533 16.933 15.883
839.106 14.863 13.993 13.183 12.313 11.253 10.163 9.323 8.613 8.143 8.013
858.395 8.093 7.913 7.673 7.643 7.363 7.073 6.703 6.233 6.023 5.703
877.685 5.513 5.363 4.983 4.693 4.553 4.433 4.323 4.353 4.653 4.923
896.975 5.273 5.823 6.063 6.283 6.773 7.153 7.283 7.593 7.903 8.043
916.265 8.113 8.023 7.903 7.653 7.133 6.623 6.333 6.063 5.713 5.323
935.555 4.873 4.363 3.963 3.593 3.193 2.993 2.893 2.713 2.553 2.613
954.844 2.503 2.123 2.073 2.083 2.013 1.953 1.943 1.813 1.683 1.993
974.134 1.943 1.653 1.653 1.763 1.593 1.4734 1.663 1.813 1.923 1.883
993.424 1.883 2.113 2.373 2.573 2.613 2.763 2.983 3.083 2.963 2.973
1012.714 3.393 3.493 3.373 3.193 3.153 3.303 3.393 3.433 3.273 2.953
1032.003 3.033 3.293 3.313 3.193 3.133 3.373 3.403 3.373 3.383 3.423
1051.293 3.563 3.413 3.363 3.353 3.073 2.873 2.813 2.713 2.533 2.583
1070.583 2.793 2.883 2.763 2.923 3.153 3.193 3.663 4.303 4.633 4.513
1089.873 4.493 4.543 4.463 4.513 4.383 4.553 5.013 4.943 4.673 4.603
1109.163 4.613 4.763 4.913 5.063 5.423 5.663 5.763 6.043 6.063 5.973
1128.452 6.283 6.463 6.273 6.353 6.443 6.343 6.423 6.553 6.383 6.263
1147.742 6.383 6.313 6.033 5.793 5.503 5.233 4.993 4.533 4.123 3.483
1167.032 3.063 2.933 2.773 2.393 2.053 1.943 2.193 2.413 2.313 1.983
1186.322 1.863 1.823 1.3719 1.5104 1.773 1.703 1.4871 1.643 1.853 1.663
1205.611 1.3761 1.4513 1.633 1.903 1.883 1.793 1.933 1.913 1.923 1.983
1224.901 2.223 2.443 2.443 2.533 2.733 2.823 2.943 3.303 3.563 3.593
1244.191 3.723 3.763 3.853 4.023 4.253 4.393 4.583 5.083 5.393 5.623
1263.481 6.093 6.553 6.993 7.373 7.663 7.943 8.233 8.373 8.543 8.913
1282.771 9.263 9.223 9.363 9.943 10.643 11.383 12.363 13.343 14.273 15.483
1302.060 16.813 18.033 19.283 20.423 21.153 21.643 22.263 22.923 23.613 24.483
1321.350 25.373 26.253 27.213 28.473 30.133 32.143 34.383 36.973 39.983 43.173
1340.640 46.103 48.453 50.113 50.913 50.773 49.713 47.743 45.053 41.553 37.013
1359.930 31.733 26.653 22.403 19.003 16.353 14.293 12.783 11.803 11.273 11.093
1379.219 11.183 11.473 11.763 11.953 12.013 12.043 12.003 11.733 11.153 10.343
1398.509 9.303 8.203 7.203 6.333 5.623 5.033 4.533 4.223 4.033 3.843
1417.799 3.793 3.783 3.753 3.773 3.853 4.033 4.213 4.473 4.813 5.153
1437.089 5.563 6.143 6.703 7.453 8.453 9.463 10.483 11.433 12.393 13.383
1456.378 14.203 14.863 15.363 15.513 15.393 15.193 14.863 14.213 13.213 12.063
1475.668 10.973 9.923 8.833 7.783 6.833 6.013 5.373 4.763 4.183 3.813
1494.958 3.553 3.293 3.103 2.923 2.753 2.633 2.553 2.523 2.453 2.373
1514.248 2.323 2.233 2.133 2.063 2.043 1.993 1.923 1.933 1.903 1.813
1533.538 1.833 1.823 1.743 1.793 1.843 1.863 1.883 1.903 1.933 1.953
1552.827 1.963 2.063 2.083 1.983 1.943 1.963 2.033 1.993 1.903 1.903
1572.117 1.893 1.873 1.863 1.773 1.753 1.733 1.693 1.643 1.613 1.623
1591.407 1.593 1.623 1.603 1.623 1.653 1.5303 1.4489 1.4609 1.4175 1.4121
1610.697 1.4428 1.4533 1.4535 1.4707 1.4657 1.418 1.4923 1.5016 1.4131 1.4066
1629.986 1.4827 1.5439 1.4525 1.3764 1.46 1.4582 1.4349 1.4583 1.4565 1.4395
1649.276 1.4608 1.4919 1.4313 1.4064 1.4131 1.4562 1.4388 1.3532 1.3742 1.4139
1668.566 1.3444 1.261 1.3123 1.2975 1.2251 1.2461 1.254 1.2772 1.3018 1.2811
1687.856 1.2883 1.2691 1.1878 1.2119 1.2213 1.196 1.2294 1.2178 1.137 1.1636
1707.146 1.2145 1.199 1.1776 1.1921 1.1674 1.0728 1.0305 1.045 1.032 1.0096
1726.435 1.0495 1.0145 0.9812 1.0077 1.0078 0.9329 0.9224 0.9605 0.9686 0.9532
1745.725 0.8917 0.8751 0.9506 0.9882 0.9843 0.9777 0.9191 0.9822 1.0127 1.0175
1765.015 1.0336 1.0145 1.0619 1.1352 1.1146 1.0826 1.0733 1.0378 1.0914 1.1528
1784.305 1.1719 1.1774 1.1889 1.2366 1.2818 1.2779 1.2719 1.2898 1.3324 1.4098
1803.594 1.4354 1.4542 1.4959 1.5222 1.613 1.673 1.643 1.683 1.723 1.763
1822.884 1.843 1.903 1.923 1.923 1.933 2.003 2.073 2.123 2.143 2.173
1842.174 2.193 2.173 2.253 2.323 2.353 2.433 2.463 2.543 2.643 2.683
1861.464 2.743 2.903 3.033 3.083 3.233 3.343 3.463 3.563 3.663 3.773
1880.754 3.913 4.113 4.303 4.473 4.623 4.843 5.043 5.243 5.523 5.773
1900.043 6.053 6.383 6.693 6.973 7.333 7.643 8.023 8.503 8.943 9.423
1919.333 9.903 10.403 10.943 11.603 12.253 12.843 13.483 14.233 14.983 15.773
1938.623 16.643 17.553 18.533 19.573 20.633 21.833 23.183 24.463 25.763 27.283
1957.913 28.863 30.493 32.313 34.273 36.363 38.523 40.863 43.443 46.143 48.993
1977.202 52.043 55.313 58.823 62.603 66.543 70.733 75.213 79.933 84.963 90.213
1996.492 95.663 101.383 107.403 113.653 120.143 126.923 133.953 141.173 148.643 156.423
2015.782 164.393 172.613 181.013 189.483 198.143 207.033 215.813 224.533 233.033 241.373
2035.072 249.563 257.173 264.273 270.813 276.623 281.543 285.593 288.723 291.063 292.733
2054.362 293.563 293.713 293.473 292.923 292.043 290.863 289.533 287.833 285.643 282.893
2073.651 279.343 275.033 269.753 263.403 256.093 247.973 239.233 229.853 220.153 210.463
2092.941 200.853 191.463 182.443 173.833 165.833 158.453 151.583 145.263 139.343 133.853
2112.231 128.693 123.803 119.203 114.753 110.543 106.683 102.983 99.533 96.453 93.743
2131.521 91.303 89.183 87.413 85.903 84.603 83.393 82.413 81.413 80.353 79.333
2150.810 78.213 77.013 75.683 74.223 72.643 70.793 68.803 66.723 64.433 62.093
2170.100 59.773 57.383 55.073 52.843 50.663 48.503 46.373 44.383 42.473 40.593
2189.390 38.763 36.993 35.153 33.253 31.433 29.563 27.713 26.003 24.393 22.823
2208.680 21.293 19.883 18.563 17.433 16.483 15.513 14.593 13.723 12.933 12.293
2227.970 11.643 11.123 10.713 10.293 9.913 9.553 9.213 8.893 8.613 8.363
2247.259 8.143 7.993 7.843 7.613 7.403 7.173 6.933 6.713 6.533 6.353
2266.549 6.163 6.003 5.823 5.593 5.383 5.243 5.143 4.963 4.713 4.543
2285.839 4.403 4.233 3.973 3.703 3.563 3.393 3.183 3.013 2.853 2.703
2305.129 2.573 2.473 2.383 2.313 2.223 2.123 2.043 2.013 1.983 1.883
2324.418 1.793 1.783 1.763 1.723 1.663 1.603 1.583 1.633 1.593 1.5363
2343.708 1.5203 1.4663 1.5104 1.5031 1.4665 1.5171 1.503 1.4594 1.4598 1.4917
2362.998 1.4349 1.4295 1.4555 1.4835 1.5208 1.5093 1.5112 1.3835 1.3893 1.4731
2382.288 1.4723 1.4904 1.5003 1.4914 1.4916 1.5338 1.593 1.603 1.5144 1.5026
2401.578 1.5585 1.5493 1.5253 1.5622 1.5724 1.517 1.5042 1.5168 1.5067 1.4738
2420.867 1.458 1.5102 1.4843 1.4407 1.4345 1.4594 1.4454 1.4827 1.5186 1.4888
2440.157 1.5012 1.4513 1.4266 1.39 1.3899 1.4664 1.509 1.4844 1.4479 1.4532
2459.447 1.4241 1.4076 1.4777 1.5488 1.573 1.603 1.593 1.5486 1.4878 1.4991
2478.737 1.544 1.5724 1.544 1.5697 1.683 1.673 1.573 1.5528 1.583 1.573
2498.026 1.5506 1.583 1.5289 1.5327 1.5319 1.4104 1.4423 1.5336 1.5246 1.4981
2517.316 1.5556 1.623 1.673 1.673 1.643 1.653 1.573 1.623 1.693 1.633
2536.606 1.653 1.703 1.783 1.893 1.913 1.893 1.963 1.983 2.013 2.043
2555.896 2.033 2.033 2.073 2.213 2.303 2.263 2.213 2.253 2.303 2.333
2575.186 2.403 2.443 2.503 2.533 2.413 2.373 2.403 2.473 2.503 2.443
2594.475 2.523 2.603 2.563 2.603 2.573 2.473 2.483 2.493 2.403 2.383
2613.765 2.403 2.363 2.413 2.483 2.403 2.343 2.393 2.343 2.293 2.273
2633.055 2.283 2.363 2.373 2.353 2.353 2.323 2.393 2.393 2.323 2.333
2652.345 2.373 2.503 2.613 2.613 2.633 2.713 2.773 2.833 2.833 2.773
2671.634 2.843 2.953 2.973 3.063 3.183 3.293 3.293 3.343 3.433 3.363
2690.924 3.373 3.403 3.473 3.583 3.633 3.673 3.613 3.673 3.803 3.913
2710.214 3.983 3.943 4.013 4.103 4.033 4.023 4.133 4.173 4.143 4.093
2729.504 4.063 4.063 4.083 4.093 4.033 4.023 4.103 4.183 4.163 4.113
2748.794 4.123 4.163 4.173 4.213 4.143 4.053 4.023 3.953 3.853 3.713
2768.083 3.633 3.553 3.363 3.243 3.213 3.213 3.243 3.223 3.203 3.243
2787.373 3.233 3.153 3.213 3.243 3.183 3.193 3.233 3.223 3.263 3.413
2806.663 3.503 3.543 3.513 3.483 3.443 3.473 3.593 3.673 3.833 3.933
2825.953 4.033 4.113 4.213 4.383 4.443 4.673 4.993 5.143 5.493 5.823
2845.242 5.963 6.403 6.983 7.583 8.213 9.023 9.963 10.903 11.903 12.853
2864.532 13.803 14.763 15.813 16.963 18.073 19.393 20.903 22.603 24.583 26.703
2883.822 28.913 30.883 32.533 34.033 35.503 36.613 37.233 37.213 36.423 35.243
2903.112 34.103 32.923 31.493 30.113 28.953 28.133 27.893 28.123 28.623 29.803
2922.401 31.623 34.043 37.183 40.923 45.163 49.873 55.073 60.193 64.323 67.443
2941.691 70.203 72.353 72.983 72.023 70.063 67.503 64.533 61.383 58.453 56.213
2960.981 55.053 55.183 56.633 59.343 63.583 69.373 76.393 83.393 86.923 86.013
2980.271 83.533 80.953 77.523 72.283 65.913 58.603 49.703 40.483 32.333 25.633
2999.561 20.593 17.123 14.593 12.723 11.503 10.463 9.543 8.903 8.353 7.913
3018.850 7.543 7.193 6.923 6.683 6.373 6.053 5.763 5.553 5.263 5.023
3038.140 4.833 4.583 4.383 4.173 4.163 4.193 4.093 3.963 3.883 3.803
3057.430 3.683 3.603 3.603 3.723 3.673 3.533 3.533 3.523 3.553 3.633
3076.720 3.603 3.493 3.453 3.393 3.383 3.393 3.323 3.233 3.043 2.943
3096.009 3.023 2.993 2.773 2.623 2.633 2.573 2.523 2.473 2.243 2.053
3115.299 2.053 2.143 2.153 2.073 1.903 1.803 1.843 1.843 1.803 1.873
3134.589 1.853 1.803 1.813 1.653 1.583 1.663 1.5582 1.4595 1.4461 1.5219
3153.879 1.653 1.623 1.5369 1.5349 1.4818 1.4431 1.5213 1.5312 1.4629 1.377
3173.169 1.3621 1.3316 1.4046 1.583 1.4614 1.2499 1.2134 1.1103 1.1299 1.1965
3192.458 1.2111 1.2209 1.1599 1.0572 1.0591 1.0597 0.8121 0.7554 0.7926 0.7236
3211.748 0.8376 1.0012 0.8299 0.64919 0.6077 0.5212 0.5034 0.418 0.422 0.645
3231.038 0.6815 0.5362 0.5468 0.5124 0.383 0.4806 0.5159 0.429 0.39 0.4854
3250.328 0.5431 0.393 0.415 0.473 0.376 0.273 0.213 0.212 0.215 0.277
3269.617 0.359 0.364 0.274 0.259 0.409 0.385 0.426 0.436 0.367 0.271
3288.907 0.184 0.286 0.406 0.377 0.342 0.328 0.298 0.282 0.209 0.199
3308.197 0.101 0.145 0.36 0.421 0.276 0.187 0.178 0.175 0.165 0.15
3327.487 0.063 0 0.058 0.21 0.353 0.5042 0.429 0.169 0.2 0.257
3346.777 0.275 0.429 0.5128 0.419 0.309 0.316 0.273 0.205 0.307 0.403
3366.066 0.4945 0.444 0.326 0.355 0.44 0.305 0.251 0.337 0.33 0.272
3385.356 0.335 0.434 0.419 0.365 0.218 0.265 0.388 0.293 0.153 0.251
3404.646 0.355 0.247 0.174 0.23 0.275 0.274 0.364 0.386 0.357 0.394
3423.936 0.315 0.247 0.264 0.221 0.244 0.317 0.278 0.244 0.28 0.262
3443.225 0.318 0.399 0.43 0.437 0.386 0.416 0.438 0.241 0.15 0.289
3462.515 0.388 0.411 0.369 0.315 0.198 0.241 0.437 0.4899 0.357 0.269
3481.805 0.412 0.357 0.264 0.447 0.457 0.305 0.181 0.24 0.391 0.385
3501.095 0.292 0.275 0.333 0.462 0.5359 0.328 0.233 0.34 0.276 0.231
3520.385 0.282 0.218 0.175 0.17 0.177 0.199 0.185 0.265 0.276 0.331
3539.674 0.385 0.234 0.214 0.26 0.21 0.116 0.181 0.397 0.423 0.245
3558.964 0.176 0.209 0.176 0.163 0.197 0.327 0.421 0.346 0.286 0.352
3578.254 0.274 0.287 0.359 0.334 0.284 0.24 0.185 0.251 0.366 0.307
3597.544 0.349 0.301 0.336 0.453 0.295 0.23 0.413 0.456 0.447 0.428
3616.833 0.372 0.301 0.238 0.118 0.196 0.374 0.333 0.257 0.306 0.29
3636.123 0.348 0.396 0.329 0.435 0.308 0.272 0.351 0.321 0.252 0.27
3655.413 0.261 0.175 0.286 0.241 0.121 0.12 0.307 0.449 0.4733 0.427
3674.703 0.285 0.214 0.25 0.369 0.435 0.385 0.364 0.406 0.39 0.415
3693.993 0.302 0.185 0.264 0.354 0.304 0.387 0.345 0.216 0.273 0.311
3713.282 0.403 0.4854 0.578288 0.6701 0.578646 0.344 0.344 0.4825 0.5048 0.415
3732.572 0.386 0.433 0.56442 0.65414 0.5446 0.56987 0.6852 0.5481 0.399 0.422
3751.862 0.5428 0.5095 0.471 0.60555 0.7633 0.7379 0.61973 0.6779 0.4933 0.357
3771.152 0.437 0.56497 0.5598 0.464 0.439 0.366 0.424 0.479 0.454 0.358
3790.441 0.402 0.434 0.4767 0.64784 0.63912 0.5251 0.5074 0.466 0.466 0.5644
3809.731 0.4792 0.416 0.4825 0.63454 0.7285 0.5379 0.5076 0.6764 0.5572 0.5229
3829.021 0.65521 0.539 0.413 0.426 0.56325 0.5986 0.5619 0.5071 0.452 0.5537
3848.311 0.61982 0.578236 0.62467 0.7939 0.7593 0.62566 0.61243 0.5508 0.5135 0.58695
3867.601 0.5514 0.61971 0.65658 0.58971 0.419 0.396 0.60614 0.64023 0.7834 0.8212
3886.890 0.66506 0.7005 0.7853 0.7462 0.7869 0.8072 0.72 0.7261 0.684 0.7141
3906.180 0.7593 0.7595 0.8059 0.9203 0.9809 0.8496 0.8626 0.9309 0.8757 0.8367
3925.470 0.9388 1.0293 1.0749 1.1025 1.0425 1.0601 0.8713 0.8398 1.0052 0.9796
3944.760 1.1823 1.173 1.0398 1.1878 1.1585 1.1322 1.1939 1.2787 1.3783 1.4163
3964.049 1.305 1.208 1.417 1.5026 1.5015 1.4948 1.4919 1.623 1.5477 1.3785
3983.339 1.5634 1.4885 1.2673 1.4616 1.5398 1.5129 1.593 1.5721 1.613 1.673
##END=
