##TITLE=2-Pentane isothiocyanate
##JCAMP-DX=4.24
##DATA TYPE=INFRARED SPECTRUM
##ORIGIN=EPA-IR VAPOR PHASE LIBRARY
##OWNER=SRD/NIST
Collection (C) 2018 copyright by the U.S. Secretary of Commerce
on behalf of the United States of America. All rights reserved.
##CAS REGISTRY NO=201224-94-4
##MOLFORM=C 6 H 11 N S
##$NIST SOURCE=MSDC-IR
##STATE=gas
##XUNITS=1/CM
##YUNITS=ABSORBANCE
##XFACTOR=1.
##YFACTOR=0.001
##DELTAX=1.92898
##FIRSTX=549.8
##LASTX=4000.7
##FIRSTY=17.232
##MAXX=4000.7
##MINX=549.759
##MAXY=0.358762
##MINY=0
##NPOINTS=1790
##XYDATA=(X++(Y..Y))
549.759 17.232 17.022 16.312 15.502 14.912 14.282 13.772 13.202 12.472 11.662
569.049 11.262 11.062 10.402 9.412 8.652 8.202 7.742 7.132 6.922 6.452
588.339 5.602 5.222 4.922 4.762 4.632 4.462 4.332 4.072 3.932 3.852
607.628 3.902 3.942 3.922 3.992 3.822 3.502 3.362 3.392 3.302 3.112
626.918 2.942 2.842 3.092 3.282 2.952 2.662 2.802 2.952 2.822 2.772
646.208 2.892 2.952 2.802 2.642 2.702 2.812 2.722 2.682 2.692 2.642
665.498 2.582 2.542 2.742 2.692 2.462 2.502 2.432 2.482 2.752 2.832
684.787 2.992 3.102 3.092 3.132 3.152 3.232 3.192 3.132 2.942 2.682
704.077 2.592 2.522 2.342 2.132 2.052 2.092 2.022 1.862 1.792 1.742
723.367 1.832 1.872 2.022 2.232 2.462 2.742 3.032 3.292 3.562 4.152
742.657 4.772 5.172 5.482 5.962 6.472 6.752 6.902 6.822 6.542 6.262
761.947 5.812 5.382 5.032 4.452 3.722 3.102 2.672 2.462 2.352 2.162
781.236 2.082 1.862 1.502 1.3321 1.2779 1.2464 1.1522 1.0745 1.1895 1.3529
800.526 1.442 1.3803 1.3183 1.3183 1.3543 1.2561 1.1282 1.0654 1.082 1.153
819.816 1.1856 1.2659 1.2415 1.4011 1.542 1.632 1.922 2.012 1.982 1.992
839.106 2.152 2.412 2.502 2.552 2.712 2.712 2.732 2.812 2.802 2.872
858.395 2.892 2.952 3.012 3.252 3.792 3.802 3.542 3.652 3.842 3.982
877.685 4.032 3.982 3.672 3.412 3.432 3.492 3.432 3.242 3.352 3.552
896.975 3.662 3.952 4.202 4.362 4.572 4.862 5.052 4.902 4.912 4.942
916.265 4.792 4.572 4.412 4.252 3.832 3.582 3.382 2.902 2.672 2.712
935.555 2.642 2.422 2.342 2.292 2.192 2.292 2.362 2.432 2.542 2.772
954.844 3.302 3.662 3.962 4.682 5.612 6.732 8.002 9.032 9.982 10.812
974.134 11.472 11.942 11.942 11.832 11.342 10.652 10.092 9.242 8.242 7.182
993.424 6.412 5.842 5.382 5.062 4.882 4.852 4.822 4.802 4.852 5.132
1012.714 5.322 5.582 5.582 5.412 5.172 5.012 5.132 4.832 4.702 4.512
1032.003 4.182 4.102 4.062 4.082 4.102 3.892 3.832 3.892 3.992 4.192
1051.293 4.152 3.892 3.452 3.502 3.572 3.462 3.422 3.522 3.422 3.312
1070.583 3.532 3.432 3.372 3.472 3.192 3.332 3.672 3.732 3.982 3.802
1089.873 4.022 4.392 4.382 4.422 5.222 6.072 5.922 6.372 6.882 7.092
1109.163 7.922 8.372 9.132 10.112 10.582 11.032 11.822 12.712 13.242 13.582
1128.452 13.872 14.332 14.732 14.932 14.942 15.072 15.752 16.132 16.542 17.342
1147.742 17.722 18.002 18.052 17.642 16.492 15.312 14.192 12.872 11.932 10.552
1167.032 9.242 8.302 7.272 6.332 5.582 5.182 5.142 4.822 4.202 3.972
1186.322 4.012 3.852 3.522 3.432 3.312 3.122 3.062 3.352 3.012 2.472
1205.611 2.482 2.322 2.432 2.562 2.842 2.832 2.902 3.342 3.492 3.682
1224.901 4.002 4.212 4.072 4.492 5.142 5.282 5.172 5.162 5.202 5.192
1244.191 5.152 5.132 4.942 4.642 4.432 4.562 4.842 5.142 5.272 5.502
1263.481 6.122 6.482 6.692 6.822 7.012 7.292 7.692 8.042 8.162 8.242
1282.771 8.452 8.652 8.732 9.012 9.492 10.012 10.602 11.302 12.192 13.152
1302.060 14.242 15.562 17.102 18.932 21.152 23.662 26.492 29.782 33.542 37.722
1321.350 42.262 47.082 52.122 57.202 61.972 65.962 68.672 69.712 69.212 67.532
1340.640 64.862 61.372 57.222 52.612 47.692 42.642 37.852 33.552 29.812 26.712
1359.930 24.212 22.162 20.532 19.322 18.492 17.882 17.502 17.472 17.582 17.812
1379.219 18.002 17.952 17.832 17.712 17.522 17.092 16.172 14.932 13.572 12.152
1398.509 10.772 9.522 8.412 7.442 6.722 6.152 5.722 5.462 5.272 5.062
1417.799 5.002 5.102 5.232 5.362 5.522 5.752 6.042 6.452 6.902 7.422
1437.089 8.052 8.712 9.422 10.182 10.912 11.602 12.332 13.052 13.752 14.282
1456.378 14.542 14.662 14.752 14.692 14.422 13.972 13.382 12.722 11.972 10.992
1475.668 10.022 9.102 8.172 7.342 6.482 5.752 5.192 4.682 4.262 3.892
1494.958 3.582 3.322 3.152 2.982 2.862 2.792 2.652 2.592 2.562 2.472
1514.248 2.382 2.312 2.162 2.092 2.062 1.912 1.882 1.892 1.862 1.802
1533.538 1.712 1.672 1.562 1.482 1.522 1.492 1.432 1.432 1.4014 1.3654
1552.827 1.432 1.442 1.3368 1.2948 1.3927 1.422 1.3768 1.3736 1.402 1.442
1572.117 1.422 1.442 1.492 1.432 1.432 1.442 1.442 1.522 1.482 1.422
1591.407 1.442 1.3618 1.2986 1.3161 1.3147 1.3173 1.3732 1.3657 1.2647 1.2445
1610.697 1.3548 1.3696 1.2537 1.3639 1.442 1.3641 1.3693 1.3264 1.3197 1.3287
1629.986 1.2853 1.309 1.3459 1.2899 1.2852 1.3094 1.2344 1.2166 1.3008 1.2888
1649.276 1.2517 1.2882 1.3165 1.2752 1.2363 1.3119 1.3284 1.3043 1.2888 1.3227
1668.566 1.3707 1.3532 1.402 1.432 1.3509 1.3198 1.412 1.3522 1.31 1.3438
1687.856 1.3216 1.3752 1.394 1.3267 1.2844 1.3035 1.3238 1.3664 1.3576 1.3012
1707.146 1.3414 1.3617 1.355 1.368 1.3495 1.3027 1.2429 1.2577 1.2812 1.3096
1726.435 1.3514 1.3671 1.412 1.3665 1.3585 1.412 1.3419 1.3561 1.3595 1.3321
1745.725 1.3272 1.288 1.3337 1.3507 1.2628 1.2777 1.3296 1.3144 1.3448 1.347
1765.015 1.375 1.3977 1.3654 1.3759 1.422 1.412 1.422 1.512 1.532 1.532
1784.305 1.542 1.552 1.582 1.582 1.592 1.622 1.642 1.652 1.692 1.732
1803.594 1.772 1.802 1.782 1.822 1.892 1.832 1.812 1.802 1.852 1.892
1822.884 1.872 1.882 1.892 1.932 1.992 2.012 2.042 2.102 2.182 2.242
1842.174 2.262 2.312 2.382 2.482 2.532 2.562 2.632 2.702 2.802 2.972
1861.464 3.172 3.332 3.502 3.612 3.722 3.922 4.092 4.272 4.562 4.792
1880.754 4.992 5.272 5.562 5.842 6.142 6.472 6.862 7.162 7.522 7.932
1900.043 8.332 8.812 9.292 9.782 10.362 11.052 11.682 12.312 13.012 13.782
1919.333 14.632 15.432 16.272 17.252 18.262 19.252 20.312 21.442 22.552 23.692
1938.623 24.972 26.322 27.712 29.092 30.512 32.022 33.552 35.202 36.952 38.742
1957.913 40.662 42.692 44.852 47.162 49.702 52.432 55.282 58.312 61.562 65.052
1977.202 68.762 72.702 76.772 81.072 85.662 90.412 95.412 100.622 106.092 111.902
1996.492 117.902 124.162 130.702 137.552 144.672 152.032 159.632 167.492 175.572 183.892
2015.782 192.542 201.442 210.722 220.292 230.112 240.322 250.772 261.352 272.072 282.812
2035.072 293.352 303.472 313.152 322.372 330.932 338.422 344.722 349.982 354.002 356.892
2054.362 358.572 358.762 357.632 355.202 351.452 346.462 340.442 333.232 324.952 315.772
2073.651 305.692 294.972 283.822 272.432 260.862 249.262 237.722 226.342 215.302 204.602
2092.941 194.362 184.612 175.382 166.762 158.772 151.502 144.802 138.722 133.312 128.522
2112.231 124.312 120.562 117.302 114.382 111.922 109.762 107.772 105.992 104.252 102.692
2131.521 101.072 99.332 97.652 95.892 94.062 92.152 90.052 87.932 85.692 83.362
2150.810 81.052 78.712 76.342 73.892 71.572 69.302 66.942 64.642 62.392 60.132
2170.100 57.882 55.602 53.282 51.072 48.902 46.822 44.912 43.112 41.392 39.732
2189.390 38.152 36.572 35.112 33.682 32.242 30.832 29.472 28.192 26.962 25.682
2208.680 24.442 23.222 21.942 20.712 19.612 18.582 17.522 16.472 15.562 14.712
2227.970 13.842 13.142 12.462 11.772 11.262 10.732 10.192 9.702 9.312 9.022
2247.259 8.682 8.372 8.122 7.872 7.602 7.332 7.182 6.992 6.762 6.582
2266.549 6.342 6.162 6.032 5.782 5.522 5.382 5.322 5.252 5.162 5.062
2285.839 4.892 4.752 4.632 4.462 4.272 4.132 4.062 3.912 3.712 3.522
2305.129 3.362 3.222 3.032 2.832 2.782 2.732 2.632 2.532 2.442 2.392
2324.418 2.322 2.232 2.122 2.022 1.992 1.982 1.992 1.952 1.962 1.852
2343.708 1.832 1.842 1.782 1.762 1.672 1.722 1.742 1.712 1.752 1.692
2362.998 1.682 1.712 1.712 1.762 1.792 1.712 1.672 1.752 1.702 1.602
2382.288 1.652 1.692 1.722 1.792 1.812 1.802 1.742 1.732 1.792 1.722
2401.578 1.742 1.772 1.822 1.872 1.782 1.732 1.742 1.772 1.812 1.832
2420.867 1.822 1.782 1.782 1.832 1.782 1.752 1.732 1.722 1.662 1.562
2440.157 1.582 1.622 1.572 1.562 1.552 1.542 1.582 1.562 1.572 1.612
2459.447 1.542 1.532 1.632 1.622 1.572 1.582 1.642 1.652 1.712 1.792
2478.737 1.752 1.722 1.652 1.632 1.712 1.662 1.622 1.652 1.702 1.702
2498.026 1.702 1.752 1.762 1.792 1.822 1.772 1.662 1.672 1.692 1.742
2517.316 1.792 1.752 1.722 1.732 1.792 1.822 1.812 1.782 1.792 1.892
2536.606 1.942 1.882 1.922 1.912 1.942 2.042 2.072 2.132 2.162 2.122
2555.896 2.122 2.222 2.282 2.332 2.392 2.402 2.442 2.442 2.442 2.542
2575.186 2.602 2.592 2.592 2.622 2.602 2.562 2.582 2.632 2.702 2.692
2594.475 2.712 2.702 2.662 2.672 2.622 2.562 2.512 2.492 2.452 2.412
2613.765 2.402 2.372 2.362 2.432 2.412 2.322 2.292 2.282 2.282 2.312
2633.055 2.342 2.362 2.352 2.392 2.462 2.452 2.402 2.432 2.482 2.562
2652.345 2.652 2.652 2.742 2.772 2.772 2.922 2.972 2.882 2.932 3.182
2671.634 3.402 3.332 3.272 3.482 3.562 3.622 3.762 3.892 4.032 4.142
2690.924 4.282 4.402 4.492 4.702 4.942 5.022 5.072 5.202 5.362 5.562
2710.214 5.662 5.722 5.862 5.852 5.812 5.942 6.072 6.112 6.072 6.012
2729.504 6.072 6.062 5.852 5.752 5.852 5.792 5.662 5.662 5.612 5.492
2748.794 5.372 5.262 5.102 4.942 4.762 4.582 4.482 4.342 4.232 4.122
2768.083 4.052 4.002 3.892 3.892 3.782 3.612 3.632 3.622 3.592 3.632
2787.373 3.702 3.692 3.662 3.702 3.702 3.732 3.742 3.772 3.772 3.822
2806.663 4.002 4.112 4.142 4.122 4.282 4.442 4.462 4.592 4.772 4.882
2825.953 4.972 5.022 5.122 5.482 5.742 5.942 6.422 6.912 7.202 7.752
2845.242 8.512 9.152 9.942 10.802 11.552 12.402 13.212 14.012 14.962 15.962
2864.532 17.012 18.162 19.362 20.832 22.582 24.482 26.472 28.462 30.262 31.452
2883.822 32.042 32.312 32.472 32.462 32.182 31.622 30.922 30.322 29.892 29.942
2903.112 30.522 31.602 33.282 35.212 37.262 39.502 41.742 44.022 46.512 49.122
2922.401 51.772 54.622 57.492 60.392 63.522 66.942 70.722 74.522 77.582 79.342
2941.691 79.582 78.812 77.662 75.952 73.722 71.192 68.582 66.072 64.182 63.612
2960.981 64.392 66.272 69.102 72.562 75.882 78.342 79.942 80.982 81.742 81.912
2980.271 81.682 81.102 78.972 74.232 68.832 64.162 58.522 52.112 45.972 39.712
2999.561 33.072 26.802 21.882 18.252 15.562 13.572 12.092 10.972 10.092 9.352
3018.850 8.712 8.112 7.532 7.122 6.712 6.342 6.172 5.882 5.562 5.402
3038.140 5.142 4.952 4.802 4.612 4.432 4.292 4.122 3.902 3.862 3.732
3057.430 3.652 3.522 3.242 3.182 3.152 3.102 3.102 3.022 3.032 3.012
3076.720 2.852 2.732 2.682 2.632 2.602 2.742 2.742 2.602 2.612 2.592
3096.009 2.512 2.512 2.452 2.302 2.332 2.322 2.342 2.392 2.222 2.062
3115.299 2.012 2.052 1.922 1.842 1.932 1.862 1.772 1.722 1.542 1.462
3134.589 1.602 1.652 1.542 1.562 1.592 1.592 1.612 1.622 1.572 1.522
3153.879 1.512 1.522 1.552 1.492 1.3269 1.251 1.2145 1.1313 1.1715 1.3181
3173.169 1.3225 1.1687 1.2302 1.183 1.012 1.1748 1.2989 1.1901 1.0584 1.1414
3192.458 1.2452 1.1416 1.0886 1.1229 1.0689 1.0063 1.1235 1.23 1.0665 0.8556
3211.748 1.0132 1.1593 0.9764 0.9617 1.0342 1.0744 1.026 0.9453 0.9138 0.9045
3231.038 0.8266 0.8137 0.9566 0.9572 0.7802 0.5573 0.49619 0.6432 0.5959 0.5476
3250.328 0.5837 0.4231 0.43705 0.49518 0.404268 0.281 0.31 0.46503 0.43663 0.3743
3269.617 0.43029 0.3807 0.302 0.39577 0.49252 0.401238 0.3236 0.233 0.229 0.3298
3288.907 0.372 0.3618 0.3459 0.3907 0.288 0.3234 0.3311 0.3316 0.41237 0.3836
3308.197 0.3275 0.299 0.295 0.196 0.236 0.3441 0.3092 0.271 0.3431 0.44757
3327.487 0.43282 0.267 0.196 0.3388 0.45509 0.41459 0.404051 0.48625 0.5171 0.3707
3346.777 0.39761 0.50147 0.3408 0.349 0.44778 0.49803 0.46695 0.3348 0.299 0.25
3366.066 0.21 0.213 0.3566 0.40836 0.3841 0.3825 0.21 0.163 0.375 0.3771
3385.356 0.263 0.3222 0.44275 0.43583 0.3024 0.3173 0.41915 0.3775 0.3699 0.45385
3404.646 0.45319 0.411863 0.3522 0.285 0.241 0.356 0.3508 0.317 0.3703 0.3131
3423.936 0.228 0.244 0.293 0.15 0.194 0.184 0.06 0.129 0.203 0.3025
3443.225 0.402644 0.39973 0.3444 0.42956 0.43373 0.42071 0.299 0.107 0.184 0.3174
3462.515 0.3177 0.3344 0.274 0.187 0.283 0.297 0.158 0.139 0.241 0.251
3481.805 0.184 0.252 0.294 0.129 0.062 0.09 0.177 0.224 0.269 0.285
3501.095 0.204 0.133 0.098 0.19 0.251 0.146 0.207 0.274 0.3046 0.247
3520.385 0.194 0.263 0.157 0.004 0.012 0.13 0.255 0.244 0.096 0.109
3539.674 0.14 0.3087 0.235 0.167 0.269 0.129 0.02 0.075 0.202 0.236
3558.964 0.167 0.132 0.168 0.093 0 0.173 0.411227 0.49149 0.3846 0.243
3578.254 0.17 0.097 0.006 0.102 0.133 0.049 0.188 0.361 0.3762 0.201
3597.544 0.183 0.3102 0.3172 0.262 0.24 0.247 0.292 0.3 0.184 0.145
3616.833 0.232 0.208 0.105 0.217 0.3712 0.273 0.138 0.209 0.3058 0.287
3636.123 0.181 0.24 0.3338 0.204 0.267 0.29 0.115 0.048 0.189 0.3185
3655.413 0.277 0.243 0.259 0.247 0.237 0.297 0.3399 0.3023 0.255 0.227
3674.703 0.279 0.29 0.236 0.265 0.254 0.3118 0.3058 0.144 0.167 0.275
3693.993 0.3906 0.337 0.242 0.3236 0.282 0.226 0.239 0.278 0.323 0.43588
3713.282 0.5126 0.5045 0.507 0.5576 0.46964 0.192 0.154 0.3155 0.3894 0.43075
3732.572 0.269 0.217 0.40725 0.48196 0.46669 0.39782 0.405562 0.44372 0.43501 0.44033
3751.862 0.3789 0.3409 0.47569 0.42424 0.3319 0.45308 0.549 0.5876 0.5341 0.5993
3771.152 0.5789 0.5194 0.49973 0.49623 0.5841 0.46052 0.47295 0.5224 0.39362 0.3298
3790.441 0.5258 0.6584 0.5328 0.45313 0.42757 0.46527 0.49497 0.49014 0.405754 0.3773
3809.731 0.5148 0.5203 0.5231 0.5673 0.47657 0.41818 0.46163 0.403454 0.45607 0.5344
3829.021 0.5076 0.5887 0.5588 0.46544 0.43266 0.3758 0.3658 0.43036 0.44539 0.44509
3848.311 0.5093 0.5714 0.6528 0.6498 0.614 0.5274 0.5332 0.7422 0.5955 0.45737
3867.601 0.5898 0.5363 0.5243 0.6814 0.6615 0.6373 0.6991 0.7448 0.9045 0.9576
3886.890 0.9158 0.8351 0.6248 0.6625 0.7671 0.7275 0.8404 0.8794 0.7657 0.8246
3906.180 0.9913 0.9339 0.8762 0.905 0.8614 0.9505 0.9298 0.9046 0.9277 0.795
3925.470 0.8378 1.0448 1.1378 1.1274 1.0869 1.0158 0.8786 0.8724 1.0685 1.1365
3944.760 1.0779 1.0663 0.9983 1.0134 1.1729 1.2214 1.1683 1.1291 1.1378 1.2389
3964.049 1.2368 1.18 1.2717 1.3051 1.322 1.2829 1.1999 1.3033 1.2903 1.3841
3983.339 1.702 1.822 1.732 1.752 1.672 1.712 1.982 1.922 1.842 1.932
##END=
