##TITLE=4H-Cyclopenta[def]phenanthrene
##JCAMP-DX=4.24
$$ By DXEDIT 1.05 (RS McDonald)
##DATA TYPE=INFRARED SPECTRUM
##CLASS=COBLENTZ III
##ORIGIN=DOW CHEMICAL COMPANY
##OWNER=COPYRIGHT (C) 1988 by COBLENTZ SOCIETY INC.
Collection (C) 2018 copyright by the U.S. Secretary of Commerce
on behalf of the United States of America. All rights reserved.
##DATE=1964/03/12
##CAS REGISTRY NO=203-64-5
##MOLFORM=C15 H10
##SOURCE REFERENCE=COBLENTZ NO. 8631
##$NIST SOURCE=COBLENTZ
##$NIST IMAGE=cob8631
##SPECTROMETER/DATA SYSTEM=BECKMAN IR-9 (GRATING)
##INSTRUMENT PARAMETERS=ORDER CHANGES: 670, 1200, 2000 CM^-^1
##STATE=SOLUTION (10% CCl4 FOR 3800-1330, 10% CS2 FOR 1330-400 CM^-^1)
##PATH LENGTH=0.011 CM, 0.011 CM
$$SPECTRAL CONTAMINATION DUE TO CS2 AROUND 850, CCl4 AROUND 1550 CM^-^1 HAVE BEEN SUBTRACTED
$$SPECTRAL CONTAMINATION DUE TO UNKNOWN AROUND 400 CM^-^1
##SAMPLING PROCEDURE=TRANSMISSION
##RESOLUTION=2
##DATA PROCESSING=DIGITIZED BY COBLENTZ SOCIETY (BATCH I) FROM HARD COPY
##XUNITS=1/CM
##YUNITS=TRANSMITTANCE
##XFACTOR=1
##YFACTOR=1
##DELTAX=1
##FIRSTX=3800
##LASTX=405
##FIRSTY=0.9068
##MAXX=3800
##MINX=405
##MAXY=0.9293
##MINY=0.0029
##NPOINTS=3396
##XYDATA=(X++(Y..Y))
3800.000000 0.9068 0.9067 0.9067 0.9068 0.9077
3795.000000 0.9068 0.9078 0.9077 0.9077 0.9076
3790.000000 0.9075 0.9072 0.9072 0.9071 0.9069
3785.000000 0.9069 0.9059 0.9051 0.9051 0.9060
3780.000000 0.9062 0.9050 0.9059 0.9060 0.9059
3775.000000 0.9044 0.9057 0.9056 0.9054 0.9053
3770.000000 0.9052 0.9051 0.9050 0.9049 0.9049
3765.000000 0.9048 0.9048 0.9047 0.9047 0.9046
3760.000000 0.9053 0.9051 0.9045 0.9044 0.9044
3755.000000 0.9043 0.9043 0.9042 0.9042 0.9042
3750.000000 0.9042 0.9042 0.9043 0.9043 0.9043
3745.000000 0.9043 0.9043 0.9043 0.9044 0.9044
3740.000000 0.9044 0.9048 0.9058 0.9058 0.9059
3735.000000 0.9059 0.9052 0.9045 0.9052 0.9057
3730.000000 0.9057 0.9057 0.9057 0.9056 0.9056
3725.000000 0.9056 0.9056 0.9056 0.9056 0.9055
3720.000000 0.9055 0.9041 0.9042 0.9054 0.9054
3715.000000 0.9054 0.9054 0.9054 0.9058 0.9064
3710.000000 0.9059 0.9068 0.9069 0.9069 0.9070
3705.000000 0.9070 0.9070 0.9070 0.9071 0.9071
3700.000000 0.9072 0.9072 0.9073 0.9073 0.9062
3695.000000 0.9060 0.9061 0.9061 0.9061 0.9061
3690.000000 0.9062 0.9062 0.9063 0.9060 0.9050
3685.000000 0.9050 0.9050 0.9050 0.9051 0.9051
3680.000000 0.9051 0.9051 0.9052 0.9052 0.9052
3675.000000 0.9052 0.9053 0.9053 0.9054 0.9054
3670.000000 0.9066 0.9056 0.9055 0.9055 0.9055
3665.000000 0.9055 0.9056 0.9056 0.9056 0.9056
3660.000000 0.9057 0.9057 0.9057 0.9057 0.9058
3655.000000 0.9058 0.9058 0.9058 0.9059 0.9059
3650.000000 0.9059 0.9058 0.9058 0.9058 0.9058
3645.000000 0.9057 0.9057 0.9056 0.9056 0.9055
3640.000000 0.9055 0.9055 0.9055 0.9054 0.9054
3635.000000 0.9053 0.9053 0.9055 0.9067 0.9066
3630.000000 0.9061 0.9050 0.9056 0.9064 0.9064
3625.000000 0.9063 0.9063 0.9062 0.9062 0.9062
3620.000000 0.9062 0.9061 0.9061 0.9060 0.9060
3615.000000 0.9060 0.9060 0.9059 0.9059 0.9058
3610.000000 0.9058 0.9057 0.9046 0.9057 0.9057
3605.000000 0.9057 0.9057 0.9052 0.9046 0.9056
3600.000000 0.9050 0.9041 0.9047 0.9054 0.9054
3595.000000 0.9054 0.9054 0.9052 0.9052 0.9052
3590.000000 0.9052 0.9051 0.9051 0.9051 0.9051
3585.000000 0.9051 0.9051 0.9050 0.9050 0.9050
3580.000000 0.9050 0.9050 0.9050 0.9049 0.9045
3575.000000 0.9040 0.9049 0.9049 0.9043 0.9034
3570.000000 0.9034 0.9034 0.9034 0.9034 0.9034
3565.000000 0.9034 0.9034 0.9033 0.9033 0.9033
3560.000000 0.9033 0.9033 0.9033 0.9032 0.9032
3555.000000 0.9045 0.9032 0.9034 0.9046 0.9045
3550.000000 0.9041 0.9035 0.9045 0.9043 0.9043
3545.000000 0.9037 0.9036 0.9042 0.9042 0.9042
3540.000000 0.9034 0.9038 0.9033 0.9037 0.9041
3535.000000 0.9041 0.9041 0.9040 0.9040 0.9040
3530.000000 0.9040 0.9025 0.9025 0.9025 0.9025
3525.000000 0.9024 0.9024 0.9024 0.9024 0.9023
3520.000000 0.9023 0.9023 0.9023 0.9023 0.9023
3515.000000 0.9023 0.9023 0.9023 0.9023 0.9022
3510.000000 0.9022 0.9022 0.9022 0.9022 0.9022
3505.000000 0.9022 0.9022 0.9022 0.9022 0.9022
3500.000000 0.9022 0.9022 0.9022 0.9022 0.9022
3495.000000 0.9022 0.9022 0.9022 0.9022 0.9022
3490.000000 0.9021 0.9020 0.9020 0.9020 0.9020
3485.000000 0.9020 0.9020 0.9019 0.9019 0.9019
3480.000000 0.9019 0.9019 0.9019 0.9018 0.9018
3475.000000 0.9018 0.9018 0.9018 0.9018 0.9016
3470.000000 0.9016 0.9016 0.9016 0.9016 0.9016
3465.000000 0.9016 0.9016 0.9016 0.9016 0.9016
3460.000000 0.9016 0.9015 0.9015 0.9015 0.9015
3455.000000 0.9013 0.9013 0.9013 0.9013 0.9013
3450.000000 0.9013 0.9013 0.9013 0.9013 0.9013
3445.000000 0.9012 0.9011 0.9011 0.9011 0.9011
3440.000000 0.9011 0.9011 0.9011 0.9011 0.9011
3435.000000 0.9011 0.9011 0.9011 0.9011 0.9010
3430.000000 0.9010 0.9010 0.9010 0.9010 0.9010
3425.000000 0.8998 0.9009 0.9010 0.9010 0.9010
3420.000000 0.9010 0.9010 0.9010 0.9008 0.9008
3415.000000 0.9008 0.9008 0.9007 0.9007 0.9005
3410.000000 0.9003 0.9001 0.8998 0.9000 0.8995
3405.000000 0.8984 0.8979 0.8973 0.8968 0.8963
3400.000000 0.8958 0.8952 0.8947 0.8943 0.8940
3395.000000 0.8939 0.8939 0.8939 0.8941 0.8942
3390.000000 0.8944 0.8946 0.8948 0.8950 0.8952
3385.000000 0.8952 0.8955 0.8957 0.8959 0.8959
3380.000000 0.8963 0.8963 0.8966 0.8967 0.8968
3375.000000 0.8969 0.8970 0.8971 0.8972 0.8973
3370.000000 0.8987 0.8977 0.8977 0.8978 0.8979
3365.000000 0.8980 0.8981 0.8982 0.8984 0.8985
3360.000000 0.8986 0.8987 0.8988 0.8989 0.8990
3355.000000 0.8992 0.8993 0.8993 0.8994 0.8994
3350.000000 0.8995 0.8995 0.8996 0.8996 0.8997
3345.000000 0.9008 0.9012 0.8999 0.9011 0.8999
3340.000000 0.9000 0.9001 0.9016 0.9016 0.9015
3335.000000 0.9003 0.9004 0.9004 0.9004 0.9004
3330.000000 0.9006 0.9006 0.9006 0.9006 0.9006
3325.000000 0.9006 0.9006 0.9006 0.9006 0.9006
3320.000000 0.9006 0.9006 0.9006 0.9006 0.9006
3315.000000 0.9004 0.9004 0.9004 0.9017 0.9017
3310.000000 0.9017 0.9016 0.9014 0.9004 0.9015
3305.000000 0.9014 0.9010 0.8999 0.8999 0.8999
3300.000000 0.8999 0.8998 0.8998 0.8997 0.8997
3295.000000 0.8996 0.8996 0.8996 0.8996 0.8996
3290.000000 0.8996 0.8995 0.8995 0.8995 0.8995
3285.000000 0.8995 0.8995 0.9008 0.9006 0.8994
3280.000000 0.8996 0.9008 0.9004 0.8993 0.8997
3275.000000 0.9006 0.9006 0.9006 0.9006 0.9005
3270.000000 0.9005 0.9004 0.9004 0.9003 0.9002
3265.000000 0.9001 0.9001 0.9000 0.8999 0.8998
3260.000000 0.8998 0.8997 0.8997 0.8995 0.8982
3255.000000 0.8994 0.8994 0.8993 0.8993 0.8993
3250.000000 0.8992 0.8991 0.8991 0.8991 0.8991
3245.000000 0.8984 0.8984 0.8990 0.8990 0.8989
3240.000000 0.8989 0.8988 0.8988 0.8987 0.8987
3235.000000 0.8986 0.8986 0.8985 0.8985 0.8984
3230.000000 0.8984 0.8983 0.8983 0.8980 0.8968
3225.000000 0.8970 0.8981 0.8980 0.8980 0.8979
3220.000000 0.8977 0.8974 0.8974 0.8973 0.8971
3215.000000 0.8970 0.8969 0.8967 0.8967 0.8964
3210.000000 0.8964 0.8963 0.8950 0.8946 0.8945
3205.000000 0.8943 0.8940 0.8938 0.8937 0.8935
3200.000000 0.8936 0.8943 0.8933 0.8938 0.8930
3195.000000 0.8937 0.8935 0.8933 0.8931 0.8929
3190.000000 0.8920 0.8919 0.8922 0.8921 0.8909
3185.000000 0.8904 0.8903 0.8900 0.8900 0.8900
3180.000000 0.8900 0.8900 0.8900 0.8903 0.8905
3175.000000 0.8905 0.8907 0.8908 0.8912 0.8914
3170.000000 0.8917 0.8919 0.8922 0.8925 0.8928
3165.000000 0.8932 0.8941 0.8952 0.8947 0.8950
3160.000000 0.8957 0.8958 0.8950 0.8957 0.8951
3155.000000 0.8948 0.8960 0.8961 0.8960 0.8950
3150.000000 0.8941 0.8931 0.8909 0.8902 0.8895
3145.000000 0.8887 0.8880 0.8873 0.8865 0.8865
3140.000000 0.8869 0.8866 0.8864 0.8863 0.8861
3135.000000 0.8861 0.8860 0.8860 0.8858 0.8860
3130.000000 0.8861 0.8864 0.8865 0.8868 0.8871
3125.000000 0.8872 0.8872 0.8872 0.8872 0.8871
3120.000000 0.8870 0.8868 0.8868 0.8868 0.8868
3115.000000 0.8867 0.8865 0.8865 0.8864 0.8863
3110.000000 0.8861 0.8858 0.8855 0.8857 0.8859
3105.000000 0.8854 0.8849 0.8839 0.8829 0.8802
3100.000000 0.8787 0.8758 0.8727 0.8702 0.8680
3095.000000 0.8662 0.8629 0.8604 0.8579 0.8543
3090.000000 0.8516 0.8484 0.8457 0.8442 0.8429
3085.000000 0.8395 0.8367 0.8343 0.8320 0.8292
3080.000000 0.8267 0.8225 0.8191 0.8146 0.8092
3075.000000 0.7766 0.7449 0.7426 0.7392 0.7368
3070.000000 0.7348 0.7317 0.7309 0.7271 0.7245
3065.000000 0.7213 0.7180 0.7134 0.7097 0.7020
3060.000000 0.6946 0.6691 0.6426 0.6011 0.5595
3055.000000 0.5510 0.5421 0.5235 0.5052 0.4673
3050.000000 0.2309 0.4207 0.4123 0.3219 0.2318
3045.000000 0.2345 0.2375 0.2421 0.2467 0.2532
3040.000000 0.2598 0.2751 0.2906 0.3021 0.3133
3035.000000 0.3208 0.3287 0.3362 0.3439 0.3696
3030.000000 0.3950 0.4233 0.4520 0.4802 0.5085
3025.000000 0.5371 0.5657 0.5942 0.6229 0.6405
3020.000000 0.6582 0.6602 0.6616 0.6625 0.6625
3015.000000 0.6636 0.6647 0.6684 0.6722 0.6766
3010.000000 0.6811 0.6870 0.6926 0.7048 0.7184
3005.000000 0.7408 0.7624 0.7685 0.7745 0.7819
3000.000000 0.7901 0.7978 0.8052 0.8098 0.8144
2995.000000 0.8190 0.8238 0.8286 0.8327 0.8362
2990.000000 0.8401 0.8444 0.8488 0.8527 0.8566
2985.000000 0.8588 0.8611 0.8628 0.8644 0.8657
2980.000000 0.8674 0.8690 0.8692 0.8694 0.8710
2975.000000 0.8712 0.8715 0.8716 0.8717 0.8718
2970.000000 0.8721 0.8731 0.8756 0.8739 0.8741
2965.000000 0.8743 0.8745 0.8748 0.8750 0.8753
2960.000000 0.8756 0.8773 0.8775 0.8763 0.8767
2955.000000 0.8771 0.8776 0.8787 0.8787 0.8779
2950.000000 0.8769 0.8756 0.8742 0.8715 0.8686
2945.000000 0.8665 0.8652 0.8613 0.8580 0.8533
2940.000000 0.8495 0.8468 0.8437 0.8405 0.8372
2935.000000 0.8320 0.8279 0.8234 0.8188 0.8098
2930.000000 0.8007 0.7897 0.7787 0.7732 0.7676
2925.000000 0.7592 0.7511 0.7500 0.7488 0.7502
2920.000000 0.7523 0.7568 0.7614 0.7652 0.7691
2915.000000 0.7691 0.7691 0.7687 0.7682 0.7674
2910.000000 0.7666 0.7629 0.7604 0.7388 0.7163
2905.000000 0.7123 0.7084 0.6945 0.6449 0.6626
2900.000000 0.6445 0.6565 0.6686 0.6864 0.7043
2895.000000 0.7221 0.7400 0.7579 0.7757 0.7936
2890.000000 0.8114 0.8210 0.8308 0.8358 0.8408
2885.000000 0.8453 0.8498 0.8536 0.8577 0.8615
2880.000000 0.8654 0.8678 0.8703 0.8710 0.8743
2875.000000 0.8763 0.8783 0.8798 0.8813 0.8823
2870.000000 0.8835 0.8845 0.8856 0.8864 0.8874
2865.000000 0.8880 0.8887 0.8894 0.8901 0.8906
2860.000000 0.8913 0.8918 0.8923 0.8927 0.8932
2855.000000 0.8936 0.8930 0.8932 0.8936 0.8941
2850.000000 0.8945 0.8950 0.8955 0.8961 0.8978
2845.000000 0.8980 0.8980 0.8975 0.9011 0.8988
2840.000000 0.8984 0.8983 0.8993 0.8994 0.8987
2835.000000 0.8981 0.8982 0.8982 0.8983 0.8983
2830.000000 0.8984 0.8995 0.8986 0.8994 0.8995
2825.000000 0.8980 0.8978 0.8989 0.8975 0.8985
2820.000000 0.8984 0.8978 0.8963 0.8959 0.8955
2815.000000 0.8949 0.8944 0.8941 0.8937 0.8928
2810.000000 0.8921 0.8912 0.8911 0.8909 0.8900
2805.000000 0.8884 0.8870 0.8853 0.8838 0.8821
2800.000000 0.8806 0.8789 0.8772 0.8759 0.8747
2795.000000 0.8736 0.8700 0.8723 0.8719 0.8708
2790.000000 0.8714 0.8704 0.8705 0.8714 0.8724
2785.000000 0.8747 0.8772 0.8793 0.8816 0.8841
2780.000000 0.8865 0.8882 0.8900 0.8918 0.8935
2775.000000 0.8952 0.8970 0.8990 0.9010 0.9032
2770.000000 0.9052 0.9062 0.9072 0.9078 0.9086
2765.000000 0.9088 0.9090 0.9092 0.9094 0.9096
2760.000000 0.9098 0.9099 0.9100 0.9101 0.9102
2755.000000 0.9103 0.9104 0.9106 0.9107 0.9107
2750.000000 0.9109 0.9111 0.9112 0.9112 0.9114
2745.000000 0.9115 0.9115 0.9115 0.9117 0.9117
2740.000000 0.9118 0.9118 0.9119 0.9119 0.9120
2735.000000 0.9120 0.9120 0.9120 0.9121 0.9121
2730.000000 0.9122 0.9122 0.9123 0.9123 0.9123
2725.000000 0.9123 0.9124 0.9124 0.9125 0.9125
2720.000000 0.9126 0.9126 0.9126 0.9126 0.9127
2715.000000 0.9127 0.9127 0.9126 0.9126 0.9126
2710.000000 0.9126 0.9126 0.9126 0.9125 0.9125
2705.000000 0.9125 0.9125 0.9125 0.9125 0.9124
2700.000000 0.9124 0.9123 0.9123 0.9123 0.9123
2695.000000 0.9123 0.9123 0.9122 0.9122 0.9122
2690.000000 0.9122 0.9122 0.9122 0.9121 0.9121
2685.000000 0.9121 0.9121 0.9120 0.9120 0.9119
2680.000000 0.9119 0.9118 0.9118 0.9118 0.9118
2675.000000 0.9117 0.9117 0.9116 0.9116 0.9114
2670.000000 0.9114 0.9114 0.9114 0.9114 0.9114
2665.000000 0.9113 0.9113 0.9113 0.9112 0.9110
2660.000000 0.9110 0.9110 0.9112 0.9123 0.9123
2655.000000 0.9123 0.9123 0.9122 0.9120 0.9115
2650.000000 0.9106 0.9105 0.9112 0.9117 0.9117
2645.000000 0.9109 0.9102 0.9101 0.9110 0.9103
2640.000000 0.9100 0.9099 0.9097 0.9096 0.9096
2635.000000 0.9095 0.9109 0.9108 0.9107 0.9093
2630.000000 0.9094 0.9105 0.9105 0.9104 0.9104
2625.000000 0.9103 0.9102 0.9101 0.9101 0.9100
2620.000000 0.9100 0.9099 0.9098 0.9098 0.9098
2615.000000 0.9098 0.9097 0.9096 0.9096 0.9096
2610.000000 0.9096 0.9096 0.9096 0.9095 0.9095
2605.000000 0.9095 0.9095 0.9095 0.9095 0.9094
2600.000000 0.9094 0.9094 0.9094 0.9094 0.9094
2595.000000 0.9093 0.9093 0.9093 0.9093 0.9093
2590.000000 0.9094 0.9094 0.9095 0.9095 0.9096
2585.000000 0.9096 0.9097 0.9097 0.9098 0.9099
2580.000000 0.9100 0.9100 0.9101 0.9101 0.9102
2575.000000 0.9102 0.9103 0.9103 0.9104 0.9105
2570.000000 0.9106 0.9106 0.9107 0.9107 0.9107
2565.000000 0.9107 0.9108 0.9108 0.9108 0.9108
2560.000000 0.9109 0.9109 0.9109 0.9109 0.9110
2555.000000 0.9110 0.9110 0.9110 0.9111 0.9111
2550.000000 0.9111 0.9111 0.9111 0.9111 0.9112
2545.000000 0.9112 0.9112 0.9112 0.9113 0.9113
2540.000000 0.9113 0.9113 0.9113 0.9113 0.9113
2535.000000 0.9113 0.9113 0.9113 0.9113 0.9113
2530.000000 0.9114 0.9114 0.9115 0.9115 0.9115
2525.000000 0.9115 0.9115 0.9115 0.9117 0.9117
2520.000000 0.9117 0.9117 0.9118 0.9118 0.9118
2515.000000 0.9118 0.9118 0.9118 0.9120 0.9120
2510.000000 0.9121 0.9121 0.9121 0.9121 0.9122
2505.000000 0.9122 0.9122 0.9122 0.9122 0.9122
2500.000000 0.9122 0.9122 0.9122 0.9122 0.9122
2495.000000 0.9122 0.9122 0.9122 0.9122 0.9122
2490.000000 0.9122 0.9122 0.9122 0.9122 0.9122
2485.000000 0.9122 0.9122 0.9122 0.9122 0.9131
2480.000000 0.9136 0.9136 0.9136 0.9136 0.9136
2475.000000 0.9136 0.9136 0.9136 0.9136 0.9136
2470.000000 0.9136 0.9136 0.9136 0.9136 0.9138
2465.000000 0.9138 0.9138 0.9138 0.9138 0.9138
2460.000000 0.9139 0.9139 0.9132 0.9132 0.9131
2455.000000 0.9125 0.9125 0.9134 0.9139 0.9139
2450.000000 0.9128 0.9136 0.9139 0.9139 0.9141
2445.000000 0.9141 0.9141 0.9141 0.9141 0.9141
2440.000000 0.9141 0.9141 0.9141 0.9141 0.9141
2435.000000 0.9141 0.9141 0.9139 0.9139 0.9139
2430.000000 0.9139 0.9139 0.9139 0.9139 0.9138
2425.000000 0.9138 0.9138 0.9138 0.9138 0.9137
2420.000000 0.9137 0.9137 0.9137 0.9137 0.9137
2415.000000 0.9135 0.9135 0.9135 0.9135 0.9134
2410.000000 0.9134 0.9137 0.9141 0.9136 0.9145
2405.000000 0.9144 0.9144 0.9142 0.9142 0.9141
2400.000000 0.9141 0.9140 0.9140 0.9138 0.9137
2395.000000 0.9136 0.9136 0.9135 0.9134 0.9133
2390.000000 0.9132 0.9145 0.9145 0.9144 0.9143
2385.000000 0.9144 0.9156 0.9155 0.9158 0.9167
2380.000000 0.9166 0.9170 0.9179 0.9183 0.9190
2375.000000 0.9188 0.9195 0.9200 0.9199 0.9197
2370.000000 0.9195 0.9184 0.9179 0.9177 0.9176
2365.000000 0.9175 0.9174 0.9169 0.9168 0.9166
2360.000000 0.9176 0.9175 0.9185 0.9184 0.9197
2355.000000 0.9205 0.9202 0.9197 0.9193 0.9182
2350.000000 0.9169 0.9165 0.9168 0.9177 0.9179
2345.000000 0.9175 0.9161 0.9150 0.9144 0.9136
2340.000000 0.9130 0.9110 0.9114 0.9108 0.9088
2335.000000 0.9080 0.9088 0.9081 0.9074 0.9068
2330.000000 0.9074 0.9069 0.9063 0.9062 0.9067
2325.000000 0.9067 0.9070 0.9065 0.9060 0.9056
2320.000000 0.9057 0.9057 0.9062 0.9067 0.9072
2315.000000 0.9076 0.9081 0.9084 0.9088 0.9092
2310.000000 0.9097 0.9099 0.9100 0.9100 0.9100
2305.000000 0.9097 0.9097 0.9094 0.9092 0.9090
2300.000000 0.9088 0.9090 0.9098 0.9096 0.9093
2295.000000 0.9092 0.9091 0.9090 0.9090 0.9089
2290.000000 0.9089 0.9088 0.9078 0.9075 0.9076
2285.000000 0.9077 0.9079 0.9068 0.9069 0.9070
2280.000000 0.9073 0.9073 0.9062 0.9063 0.9062
2275.000000 0.9053 0.9054 0.9059 0.9059 0.9053
2270.000000 0.9057 0.9054 0.9051 0.9055 0.9060
2265.000000 0.9059 0.9061 0.9068 0.9076 0.9072
2260.000000 0.9076 0.9083 0.9079 0.9084 0.9090
2255.000000 0.9095 0.9087 0.9091 0.9095 0.9098
2250.000000 0.9090 0.9094 0.9098 0.9100 0.9102
2245.000000 0.9100 0.9093 0.9096 0.9099 0.9101
2240.000000 0.9103 0.9104 0.9107 0.9108 0.9108
2235.000000 0.9101 0.9097 0.9097 0.9100 0.9101
2230.000000 0.9102 0.9104 0.9105 0.9106 0.9107
2225.000000 0.9108 0.9110 0.9111 0.9110 0.9099
2220.000000 0.9100 0.9100 0.9100 0.9100 0.9101
2215.000000 0.9101 0.9101 0.9101 0.9101 0.9101
2210.000000 0.9101 0.9101 0.9102 0.9102 0.9102
2205.000000 0.9102 0.9102 0.9102 0.9102 0.9102
2200.000000 0.9103 0.9103 0.9103 0.9103 0.9101
2195.000000 0.9091 0.9104 0.9101 0.9091 0.9091
2190.000000 0.9092 0.9092 0.9092 0.9092 0.9093
2185.000000 0.9093 0.9102 0.9099 0.9095 0.9095
2180.000000 0.9096 0.9096 0.9107 0.9110 0.9110
2175.000000 0.9110 0.9110 0.9109 0.9109 0.9109
2170.000000 0.9109 0.9107 0.9095 0.9095 0.9095
2165.000000 0.9096 0.9098 0.9099 0.9100 0.9101
2160.000000 0.9102 0.9103 0.9104 0.9105 0.9106
2155.000000 0.9107 0.9108 0.9109 0.9110 0.9112
2150.000000 0.9113 0.9115 0.9118 0.9120 0.9121
2145.000000 0.9123 0.9125 0.9127 0.9129 0.9131
2140.000000 0.9134 0.9136 0.9138 0.9141 0.9143
2135.000000 0.9145 0.9147 0.9149 0.9150 0.9150
2130.000000 0.9150 0.9150 0.9150 0.9150 0.9150
2125.000000 0.9150 0.9150 0.9150 0.9138 0.9148
2120.000000 0.9150 0.9150 0.9150 0.9150 0.9150
2115.000000 0.9149 0.9149 0.9148 0.9148 0.9148
2110.000000 0.9148 0.9146 0.9146 0.9145 0.9145
2105.000000 0.9144 0.9144 0.9143 0.9143 0.9142
2100.000000 0.9142 0.9141 0.9131 0.9126 0.9137
2095.000000 0.9139 0.9127 0.9137 0.9138 0.9138
2090.000000 0.9138 0.9137 0.9137 0.9136 0.9136
2085.000000 0.9136 0.9136 0.9135 0.9135 0.9135
2080.000000 0.9135 0.9133 0.9133 0.9133 0.9133
2075.000000 0.9132 0.9132 0.9131 0.9131 0.9130
2070.000000 0.9129 0.9128 0.9127 0.9126 0.9125
2065.000000 0.9124 0.9124 0.9123 0.9122 0.9120
2060.000000 0.9120 0.9120 0.9119 0.9123 0.9134
2055.000000 0.9134 0.9133 0.9133 0.9128 0.9126
2050.000000 0.9133 0.9126 0.9119 0.9119 0.9119
2045.000000 0.9119 0.9119 0.9119 0.9119 0.9119
2040.000000 0.9119 0.9118 0.9118 0.9116 0.9116
2035.000000 0.9116 0.9116 0.9116 0.9116 0.9116
2030.000000 0.9116 0.9115 0.9119 0.9124 0.9115
2025.000000 0.9121 0.9130 0.9130 0.9130 0.9130
2020.000000 0.9132 0.9132 0.9132 0.9130 0.9130
2015.000000 0.9130 0.9130 0.9129 0.9129 0.9128
2010.000000 0.9128 0.9126 0.9126 0.9125 0.9124
2005.000000 0.9122 0.9122 0.9122 0.9121 0.9114
2000.000000 0.9108 0.9053 0.8986 0.8916 0.8855
1995.000000 0.8809 0.8836 0.8878 0.8916 0.8954
1990.000000 0.8992 0.9030 0.9049 0.9056 0.9051
1985.000000 0.9052 0.9054 0.9057 0.9059 0.9062
1980.000000 0.9064 0.9063 0.9051 0.9051 0.9052
1975.000000 0.9052 0.9053 0.9053 0.9053 0.9054
1970.000000 0.9054 0.9054 0.9054 0.9055 0.9063
1965.000000 0.9060 0.9056 0.9065 0.9070 0.9069
1960.000000 0.9069 0.9067 0.9067 0.9066 0.9066
1955.000000 0.9065 0.9049 0.9045 0.9041 0.9037
1950.000000 0.9030 0.9013 0.9003 0.8991 0.8980
1945.000000 0.8968 0.8958 0.8946 0.8936 0.8925
1940.000000 0.8912 0.8896 0.8880 0.8866 0.8842
1935.000000 0.8810 0.8780 0.8720 0.8660 0.8568
1930.000000 0.8470 0.8367 0.8215 0.8036 0.7856
1925.000000 0.7727 0.7710 0.7703 0.7695 0.7716
1920.000000 0.7766 0.7883 0.7899 0.7904 0.7911
1915.000000 0.7915 0.7918 0.7995 0.8082 0.8169
1910.000000 0.8256 0.8319 0.8329 0.8347 0.8360
1905.000000 0.8375 0.8395 0.8417 0.8439 0.8463
1900.000000 0.8491 0.8521 0.8551 0.8586 0.8618
1895.000000 0.8654 0.8688 0.8725 0.8765 0.8801
1890.000000 0.8825 0.8858 0.8891 0.8918 0.8941
1885.000000 0.8953 0.8972 0.8989 0.8999 0.9011
1880.000000 0.9016 0.9017 0.9018 0.9025 0.9009
1875.000000 0.9017 0.9013 0.9009 0.9002 0.8994
1870.000000 0.8984 0.8976 0.8968 0.8954 0.8938
1865.000000 0.8924 0.8909 0.8872 0.8832 0.8788
1860.000000 0.8743 0.8703 0.8664 0.8634 0.8605
1855.000000 0.8594 0.8595 0.8602 0.8609 0.8612
1850.000000 0.8615 0.8602 0.8565 0.8528 0.8485
1845.000000 0.8442 0.8398 0.8359 0.8343 0.8337
1840.000000 0.8337 0.8350 0.8377 0.8413 0.8440
1835.000000 0.8449 0.8447 0.8447 0.8432 0.8415
1830.000000 0.8398 0.8389 0.8384 0.8416 0.8454
1825.000000 0.8509 0.8571 0.8620 0.8662 0.8706
1820.000000 0.8749 0.8798 0.8832 0.8864 0.8898
1815.000000 0.8913 0.8928 0.8944 0.8955 0.8965
1810.000000 0.8975 0.8976 0.8970 0.8971 0.8973
1805.000000 0.8975 0.9001 0.8965 0.8965 0.8965
1800.000000 0.8962 0.8958 0.8955 0.8951 0.8948
1795.000000 0.8943 0.8939 0.8935 0.8931 0.8926
1790.000000 0.8921 0.8912 0.8901 0.8888 0.8864
1785.000000 0.8841 0.8816 0.8780 0.8745 0.8689
1780.000000 0.8620 0.8527 0.8420 0.8323 0.8216
1775.000000 0.8047 0.7877 0.7706 0.7725 0.7712
1770.000000 0.7712 0.7713 0.7751 0.7865 0.7940
1765.000000 0.8035 0.8140 0.8245 0.8332 0.8423
1760.000000 0.8524 0.8616 0.8685 0.8734 0.8739
1755.000000 0.8738 0.8738 0.8737 0.8738 0.8744
1750.000000 0.8757 0.8768 0.8781 0.8794 0.8809
1745.000000 0.8824 0.8829 0.8833 0.8837 0.8841
1740.000000 0.8843 0.8845 0.8845 0.8845 0.8847
1735.000000 0.8847 0.8849 0.8850 0.8850 0.8852
1730.000000 0.8853 0.8854 0.8855 0.8856 0.8858
1725.000000 0.8858 0.8852 0.8847 0.8839 0.8825
1720.000000 0.8804 0.8779 0.8754 0.8718 0.8668
1715.000000 0.8597 0.8536 0.8495 0.8437 0.8417
1710.000000 0.8430 0.8464 0.8498 0.8528 0.8545
1705.000000 0.8560 0.8562 0.8563 0.8566 0.8566
1700.000000 0.8564 0.8570 0.8584 0.8606 0.8628
1695.000000 0.8656 0.8684 0.8708 0.8729 0.8746
1690.000000 0.8752 0.8753 0.8748 0.8741 0.8721
1685.000000 0.8705 0.8688 0.8680 0.8681 0.8683
1680.000000 0.8692 0.8696 0.8698 0.8699 0.8697
1675.000000 0.8696 0.8684 0.8675 0.8658 0.8612
1670.000000 0.8573 0.8538 0.8503 0.8468 0.8434
1665.000000 0.8406 0.8375 0.8356 0.8351 0.8355
1660.000000 0.8384 0.8396 0.8408 0.8433 0.8436
1655.000000 0.8428 0.8417 0.8406 0.8390 0.8427
1650.000000 0.8464 0.8501 0.8528 0.8533 0.8540
1645.000000 0.8550 0.8542 0.8530 0.8509 0.8347
1640.000000 0.8330 0.8336 0.8362 0.8419 0.8495
1635.000000 0.8541 0.8560 0.8578 0.8581 0.8592
1630.000000 0.8589 0.8591 0.8583 0.8601 0.8617
1625.000000 0.8630 0.8670 0.8704 0.8747 0.8776
1620.000000 0.8789 0.8807 0.8822 0.8833 0.8856
1615.000000 0.8880 0.8897 0.8910 0.8927 0.8949
1610.000000 0.8936 0.8938 0.8930 0.8899 0.8887
1605.000000 0.8841 0.8821 0.8709 0.8341 0.8317
1600.000000 0.8333 0.8335 0.8350 0.8362 0.8336
1595.000000 0.8144 0.7849 0.7589 0.7532 0.7411
1590.000000 0.6939 0.6474 0.6510 0.6555 0.6803
1585.000000 0.7145 0.7496 0.7807 0.7911 0.8001
1580.000000 0.8027 0.8053 0.8054 0.8071 0.8075
1575.000000 0.8091 0.8108 0.8110 0.8088 0.8092
1570.000000 0.8053 0.8025 0.7988 0.7962 0.7926
1565.000000 0.7838 0.7784 0.7734 0.7713 0.7706
1560.000000 0.7719 0.7718 0.7698 0.7657 0.7653
1555.000000 0.7688 0.7707 0.7748 0.7827 0.7883
1550.000000 0.7908 0.7888 0.7857 0.7819 0.7808
1545.000000 0.7832 0.7890 0.7948 0.8001 0.8033
1540.000000 0.8066 0.8081 0.8088 0.8082 0.8125
1535.000000 0.8191 0.8241 0.8288 0.8284 0.8252
1530.000000 0.8259 0.8225 0.8195 0.8147 0.8109
1525.000000 0.8072 0.8047 0.8015 0.7993 0.7963
1520.000000 0.7950 0.7940 0.7929 0.7932 0.7937
1515.000000 0.7932 0.7961 0.7995 0.8024 0.8026
1510.000000 0.7993 0.7923 0.7845 0.7773 0.7727
1505.000000 0.7705 0.7834 0.7925 0.7917 0.7912
1500.000000 0.7915 0.7931 0.7963 0.8119 0.8225
1495.000000 0.8342 0.8446 0.8561 0.8668 0.8656
1490.000000 0.8474 0.8232 0.7992 0.7554 0.7551
1485.000000 0.7549 0.7876 0.8313 0.8649 0.8765
1480.000000 0.8853 0.8906 0.8921 0.8909 0.8907
1475.000000 0.8906 0.8897 0.8901 0.8900 0.8894
1470.000000 0.8888 0.8878 0.8864 0.8852 0.8816
1465.000000 0.8780 0.8723 0.8659 0.8584 0.8520
1460.000000 0.8455 0.8386 0.8331 0.8288 0.8257
1455.000000 0.8239 0.8240 0.8260 0.8281 0.8299
1450.000000 0.8291 0.8277 0.8232 0.7694 0.6581
1445.000000 0.5471 0.4362 0.3251 0.2667 0.3021
1440.000000 0.3843 0.4668 0.5494 0.6319 0.7144
1435.000000 0.7971 0.8313 0.8303 0.8286 0.8235
1430.000000 0.8107 0.7471 0.6818 0.6170 0.5526
1425.000000 0.4878 0.4226 0.3574 0.3082 0.3072
1420.000000 0.4187 0.5370 0.6172 0.6318 0.6659
1415.000000 0.7087 0.7517 0.7947 0.8181 0.8192
1410.000000 0.7747 0.7054 0.6361 0.5668 0.5384
1405.000000 0.5751 0.6173 0.6596 0.6920 0.6876
1400.000000 0.6464 0.6052 0.5645 0.5252 0.5241
1395.000000 0.5244 0.5673 0.6135 0.6596 0.7059
1390.000000 0.7529 0.8007 0.8376 0.8531 0.8654
1385.000000 0.8770 0.8829 0.8801 0.8772 0.8753
1380.000000 0.8748 0.8754 0.8774 0.8795 0.8810
1375.000000 0.8821 0.8840 0.8859 0.8879 0.8897
1370.000000 0.8912 0.8925 0.8948 0.8940 0.8939
1365.000000 0.8938 0.8912 0.8891 0.8881 0.8880
1360.000000 0.8886 0.8893 0.8900 0.8907 0.8897
1355.000000 0.8901 0.8902 0.8888 0.8853 0.8737
1350.000000 0.8466 0.8194 0.7921 0.7644 0.7423
1345.000000 0.7402 0.7536 0.7852 0.8159 0.8473
1340.000000 0.8784 0.8813 0.8831 0.8845 0.8852
1335.000000 0.8859 0.8863 0.8868 0.8869 0.8870
1330.000000 0.8898 0.8914 0.9006 0.8972 0.8989
1325.000000 0.8981 0.8972 0.8957 0.8929 0.8885
1320.000000 0.8684 0.8443 0.8201 0.7963 0.7936
1315.000000 0.8050 0.8281 0.8514 0.8586 0.8417
1310.000000 0.8129 0.7843 0.7557 0.7453 0.7441
1305.000000 0.7649 0.7913 0.8191 0.8467 0.8745
1300.000000 0.8957 0.9014 0.9077 0.9125 0.9157
1295.000000 0.9179 0.9191 0.9194 0.9196 0.9191
1290.000000 0.9185 0.9188 0.9212 0.9193 0.9194
1285.000000 0.9196 0.9196 0.9197 0.9198 0.9198
1280.000000 0.9199 0.9199 0.9197 0.9194 0.9207
1275.000000 0.9204 0.9201 0.9189 0.9174 0.9155
1270.000000 0.9135 0.9116 0.9096 0.9081 0.9074
1265.000000 0.9072 0.9076 0.9082 0.9078 0.9078
1260.000000 0.9077 0.9078 0.9079 0.9080 0.9081
1255.000000 0.9082 0.9083 0.9072 0.9072 0.9073
1250.000000 0.9074 0.9075 0.9076 0.9078 0.9079
1245.000000 0.9078 0.9067 0.9067 0.9068 0.9069
1240.000000 0.9070 0.9077 0.9087 0.9087 0.9088
1235.000000 0.9087 0.9083 0.9090 0.9092 0.9090
1230.000000 0.9087 0.9076 0.9066 0.9046 0.9016
1225.000000 0.8975 0.8929 0.8859 0.8761 0.8583
1220.000000 0.8341 0.8111 0.7928 0.7929 0.7967
1215.000000 0.8055 0.8145 0.8226 0.8240 0.7977
1210.000000 0.7668 0.7595 0.7664 0.7778 0.7890
1205.000000 0.7979 0.8037 0.8116 0.8481 0.8662
1200.000000 0.8750 0.8841 0.8871 0.8864 0.8858
1195.000000 0.8843 0.8837 0.8848 0.8848 0.8847
1190.000000 0.8857 0.8866 0.8874 0.8883 0.8887
1185.000000 0.8889 0.8904 0.8869 0.8823 0.8675
1180.000000 0.8604 0.8608 0.8616 0.8648 0.8689
1175.000000 0.8723 0.8743 0.8748 0.8751 0.8739
1170.000000 0.8728 0.8715 0.8690 0.8679 0.8631
1165.000000 0.8569 0.8499 0.8411 0.8247 0.7997
1160.000000 0.7748 0.7704 0.7730 0.7771 0.7884
1155.000000 0.8024 0.8159 0.8315 0.8459 0.8550
1150.000000 0.8613 0.8676 0.8720 0.8741 0.8757
1145.000000 0.8754 0.8769 0.8754 0.8759 0.8749
1140.000000 0.8732 0.8715 0.8694 0.8666 0.8608
1135.000000 0.8424 0.8381 0.8385 0.8362 0.8432
1130.000000 0.8539 0.8648 0.8721 0.8770 0.8819
1125.000000 0.8861 0.8903 0.8938 0.8980 0.9018
1120.000000 0.9053 0.9089 0.9106 0.9113 0.9133
1115.000000 0.9141 0.9148 0.9155 0.9159 0.9163
1110.000000 0.9167 0.9168 0.9163 0.9174 0.9168
1105.000000 0.9171 0.9173 0.9175 0.9177 0.9179
1100.000000 0.9182 0.9184 0.9186 0.9188 0.9190
1095.000000 0.9192 0.9194 0.9196 0.9197 0.9203
1090.000000 0.9203 0.9202 0.9204 0.9204 0.9207
1085.000000 0.9209 0.9209 0.9207 0.9201 0.9188
1080.000000 0.9186 0.9180 0.9167 0.9158 0.9144
1075.000000 0.9141 0.9136 0.9139 0.9142 0.9139
1070.000000 0.9135 0.9131 0.9127 0.9121 0.9116
1065.000000 0.9109 0.8873 0.8631 0.8399 0.8159
1060.000000 0.7916 0.7824 0.7926 0.8069 0.8204
1055.000000 0.8339 0.8330 0.7963 0.7595 0.7233
1050.000000 0.6980 0.6977 0.7056 0.7404 0.7754
1045.000000 0.8103 0.8452 0.8676 0.8864 0.8846
1040.000000 0.8854 0.8854 0.8832 0.8797 0.8765
1035.000000 0.8740 0.8735 0.8731 0.8730 0.8728
1030.000000 0.8734 0.8760 0.8761 0.8753 0.8741
1025.000000 0.8714 0.8694 0.8674 0.8651 0.8586
1020.000000 0.7986 0.7430 0.7463 0.7603 0.8021
1015.000000 0.8440 0.8718 0.8791 0.8859 0.8926
1010.000000 0.8972 0.9019 0.9026 0.9032 0.9038
1005.000000 0.9038 0.9015 0.9001 0.8982 0.8980
1000.000000 0.8996 0.9010 0.9017 0.9014 0.9022
995.000000 0.9028 0.9032 0.9035 0.9043 0.9051
990.000000 0.9024 0.8979 0.8903 0.8840 0.8809
985.000000 0.8808 0.8808 0.8811 0.8814 0.8818
980.000000 0.8818 0.8818 0.8818 0.8818 0.8818
975.000000 0.8818 0.8807 0.8783 0.8745 0.8697
970.000000 0.8642 0.8588 0.8536 0.8488 0.8436
965.000000 0.8231 0.7782 0.7333 0.6822 0.6843
960.000000 0.7012 0.7519 0.8026 0.8342 0.8451
955.000000 0.8540 0.8610 0.8682 0.8726 0.8764
950.000000 0.8796 0.8819 0.8842 0.8850 0.8849
945.000000 0.8848 0.8845 0.8842 0.8826 0.8804
940.000000 0.8766 0.8671 0.8476 0.8285 0.7860
935.000000 0.7899 0.7979 0.8197 0.8412 0.8629
930.000000 0.8845 0.8943 0.8972 0.9000 0.9020
925.000000 0.9041 0.9051 0.9056 0.9062 0.9068
920.000000 0.9071 0.9076 0.9085 0.9077 0.9083
915.000000 0.9078 0.9071 0.9060 0.9057 0.9055
910.000000 0.9044 0.9035 0.9032 0.9022 0.9005
905.000000 0.8998 0.8986 0.8962 0.8945 0.8921
900.000000 0.8894 0.8857 0.8830 0.8801 0.8766
895.000000 0.8730 0.8707 0.8674 0.8653 0.8634
890.000000 0.8614 0.8597 0.8586 0.8567 0.8547
885.000000 0.8518 0.8453 0.7993 0.6658 0.4758
880.000000 0.4732 0.4921 0.5623 0.6330 0.7042
875.000000 0.7757 0.8314 0.8445 0.8513 0.8543
870.000000 0.8578 0.8604 0.8619 0.8642 0.8652
865.000000 0.8659 0.8681 0.8702 0.8715 0.8732
860.000000 0.8760 0.8780 0.8804 0.8819 0.8842
855.000000 0.8860 0.8875 0.8878 0.8878 0.8879
850.000000 0.8922 0.8925 0.8932 0.8943 0.8949
845.000000 0.8957 0.8953 0.8955 0.8955 0.8929
840.000000 0.8922 0.8912 0.8876 0.8855 0.8814
835.000000 0.8789 0.8748 0.8675 0.8585 0.8475
830.000000 0.8349 0.8210 0.8059 0.7922 0.7787
825.000000 0.7615 0.7308 0.7022 0.6505 0.4355
820.000000 0.1725 0.0085 0.0055 0.0029 0.0037
815.000000 0.0057 0.0142 0.0291 0.0423 0.1636
810.000000 0.2830 0.4030 0.5155 0.5445 0.5854
805.000000 0.6266 0.6672 0.7078 0.7483 0.7890
800.000000 0.7954 0.7982 0.8083 0.8208 0.8332
795.000000 0.8459 0.8572 0.8695 0.8776 0.8808
790.000000 0.8814 0.8823 0.8824 0.8825 0.8821
785.000000 0.8812 0.8795 0.8757 0.8723 0.8678
780.000000 0.8611 0.8535 0.8436 0.8270 0.8081
775.000000 0.7822 0.7607 0.6652 0.5265 0.4278
770.000000 0.4447 0.5058 0.5671 0.6288 0.6903
765.000000 0.7515 0.7479 0.7449 0.7418 0.7379
760.000000 0.7331 0.7271 0.7177 0.7057 0.6894
755.000000 0.6041 0.4787 0.3536 0.2279 0.1022
750.000000 0.0077 0.0054 0.0058 0.0148 0.0410
745.000000 0.0950 0.1647 0.2344 0.3042 0.3739
740.000000 0.4436 0.7916 0.8028 0.8169 0.8309
735.000000 0.8447 0.8535 0.8620 0.8671 0.8716
730.000000 0.8769 0.8805 0.8837 0.8862 0.8891
725.000000 0.8925 0.8947 0.8969 0.8988 0.8995
720.000000 0.8996 0.8989 0.8980 0.8970 0.8957
715.000000 0.8940 0.8932 0.8917 0.8899 0.8876
710.000000 0.8852 0.8827 0.8799 0.8770 0.8729
705.000000 0.8648 0.8481 0.8129 0.7914 0.6785
700.000000 0.3205 0.1370 0.1383 0.1394 0.2509
695.000000 0.3748 0.4990 0.6229 0.7468 0.7973
690.000000 0.8174 0.8679 0.8783 0.8871 0.8948
685.000000 0.9004 0.9035 0.9064 0.9074 0.9082
680.000000 0.9096 0.9097 0.9127 0.9142 0.9167
675.000000 0.9175 0.9161 0.9154 0.9135 0.9126
670.000000 0.9141 0.9233 0.9293 0.9199 0.9115
665.000000 0.9108 0.9116 0.9117 0.9106 0.9102
660.000000 0.9091 0.9046 0.8954 0.8632 0.8281
655.000000 0.7916 0.7877 0.7978 0.8213 0.8461
650.000000 0.8695 0.8910 0.8987 0.9027 0.9059
645.000000 0.9092 0.9116 0.9131 0.9144 0.9149
640.000000 0.9152 0.9163 0.9165 0.9167 0.9177
635.000000 0.9182 0.9174 0.9179 0.9183 0.9176
630.000000 0.9182 0.9191 0.9182 0.9184 0.9174
625.000000 0.9177 0.9178 0.9164 0.9164 0.9164
620.000000 0.9163 0.9177 0.9168 0.9158 0.9148
615.000000 0.9148 0.9142 0.9133 0.9132 0.9132
610.000000 0.9132 0.9132 0.9130 0.9120 0.9113
605.000000 0.9113 0.9112 0.9111 0.9112 0.9111
600.000000 0.9105 0.9096 0.9082 0.9056 0.9031
595.000000 0.8968 0.8892 0.8773 0.8501 0.8231
590.000000 0.7911 0.7913 0.7994 0.8268 0.8543
585.000000 0.8879 0.8952 0.9009 0.9036 0.9059
580.000000 0.9074 0.9081 0.9088 0.9084 0.9084
575.000000 0.9089 0.9106 0.9112 0.9115 0.9120
570.000000 0.9122 0.9125 0.9128 0.9119 0.9124
565.000000 0.9139 0.9138 0.9130 0.9132 0.9132
560.000000 0.9132 0.9131 0.9129 0.9126 0.9121
555.000000 0.9110 0.9122 0.9092 0.9074 0.9071
550.000000 0.9066 0.9057 0.9049 0.9039 0.9036
545.000000 0.9031 0.9028 0.9026 0.9025 0.9023
540.000000 0.9022 0.9022 0.9032 0.9034 0.9043
535.000000 0.9037 0.9030 0.9037 0.9031 0.9027
530.000000 0.9021 0.9018 0.9016 0.9014 0.9022
525.000000 0.9024 0.9016 0.8990 0.8937 0.8895
520.000000 0.8864 0.8848 0.8855 0.8865 0.8875
515.000000 0.8883 0.8880 0.8877 0.8874 0.8864
510.000000 0.8853 0.8840 0.8828 0.8812 0.8798
505.000000 0.8784 0.8769 0.8752 0.8729 0.8706
500.000000 0.8678 0.8642 0.8599 0.8470 0.8353
495.000000 0.8067 0.7605 0.7144 0.6541 0.6545
490.000000 0.6771 0.7348 0.7925 0.8035 0.7935
485.000000 0.7805 0.7676 0.7581 0.7632 0.7824
480.000000 0.8016 0.8209 0.8261 0.8264 0.8266
475.000000 0.8258 0.8239 0.8216 0.8195 0.8167
470.000000 0.8122 0.8067 0.7925 0.7874 0.7879
465.000000 0.7883 0.7883 0.7884 0.7880 0.7876
460.000000 0.7865 0.7849 0.7832 0.7812 0.7784
455.000000 0.7753 0.7724 0.7693 0.7645 0.7592
450.000000 0.7539 0.7484 0.7420 0.7348 0.7278
445.000000 0.7200 0.7116 0.7031 0.6947 0.6860
440.000000 0.6775 0.6698 0.6621 0.6544 0.6457
435.000000 0.6370 0.6282 0.6192 0.6102 0.6017
430.000000 0.5939 0.5861 0.5759 0.5655 0.5552
425.000000 0.5388 0.5225 0.5062 0.4897 0.4734
420.000000 0.4570 0.4407 0.4235 0.4018 0.3816
415.000000 0.3641 0.3463 0.3258 0.3052 0.2680
410.000000 0.2631 0.2618 0.2614 0.2610 0.2606
405.000000 0.2601
##END=
