##TITLE=4,4'-DIBROMO DIPHENYL ETHER
$$ E.K. (W.L.)
##JCAMP-DX=4.24
##DATA TYPE=INFRARED SPECTRUM
##CLASS=COBLENTZ
##ORIGIN=WYANDOTTE CHEMICALS CORP., WYANDOTTE, MICHIGAN, USA
##OWNER=COBLENTZ SOCIETY
Collection (C) 2018 copyright by the U.S. Secretary of Commerce
on behalf of the United States of America. All rights reserved.
##DATE=Not specified, most likely prior to 1970
##NAMES=bis(4-bromophenyl) ether
1-bromo-4-(4-bromophenoxy)benzene
##CAS REGISTRY NO=2050-47-7
##MOLFORM=C12 H8 Br2 O
##SOURCE REFERENCE=COBLENTZ NO. 1327
##$NIST SOURCE=COBLENTZ
##$NIST IMAGE=cob1327
##SPECTROMETER/DATA SYSTEM=Not specified, most likely a prism, grating, or hybrid spectrometer.
##STATE=SOLID (MINERAL OIL MULL)
##SAMPLING PROCEDURE=TRANSMISSION
##RESOLUTION=4
##DATA PROCESSING=DIGITIZED BY NIST FROM HARD COPY
##XUNITS=MICROMETERS
##YUNITS=TRANSMITTANCE
##XFACTOR=1.000000
##YFACTOR=1
##DELTAX=000.006796
##FIRSTX=2.02
##LASTX=15.9792
##FIRSTY=0.254
##MAXX=15.9792
##MINX=2.02
##MAXY=0.971
##MINY=0.04
##NPOINTS=2055
##XYDATA=(X++(Y..Y))
2.020000 0.2540 0.2540 0.2540 0.2560 0.2560
2.053997 0.2580 0.2590 0.2590 0.2590 0.2610
2.088000 0.2630 0.2630 0.2630 0.2640 0.2630
2.121997 0.2630 0.2630 0.2630 0.2630 0.2630
2.156000 0.2640 0.2630 0.2610 0.2590 0.2590
2.189997 0.2590 0.2610 0.2630 0.2630 0.2630
2.224000 0.2630 0.2630 0.2640 0.2660 0.2660
2.257997 0.2660 0.2660 0.2660 0.2660 0.2680
2.292000 0.2680 0.2680 0.2660 0.2660 0.2680
2.325997 0.2690 0.2710 0.2730 0.2750 0.2760
2.360000 0.2760 0.2760 0.2760 0.2760 0.2760
2.393997 0.2760 0.2760 0.2760 0.2760 0.2760
2.428000 0.2760 0.2760 0.2780 0.2780 0.2800
2.461997 0.2810 0.2810 0.2830 0.2830 0.2850
2.496000 0.2850 0.2850 0.2880 0.2880 0.2900
2.529997 0.2920 0.2930 0.2930 0.2950 0.2980
2.564000 0.2970 0.2980 0.2980 0.3000 0.3020
2.597997 0.3030 0.3080 0.3080 0.3080 0.3080
2.632000 0.3100 0.3100 0.3100 0.3080 0.3080
2.665997 0.3100 0.3100 0.3080 0.3070 0.3080
2.700000 0.3080 0.3100 0.3120 0.3140 0.3170
2.733997 0.3190 0.3190 0.3190 0.3200 0.3190
2.768000 0.3170 0.3170 0.3200 0.3200 0.3200
2.801997 0.3220 0.3200 0.3200 0.3200 0.3200
2.836000 0.3190 0.3190 0.3190 0.3190 0.3190
2.869997 0.3200 0.3220 0.3240 0.3270 0.3290
2.904000 0.3290 0.3290 0.3310 0.3320 0.3340
2.937997 0.3340 0.3340 0.3340 0.3340 0.3340
2.972000 0.3320 0.3320 0.3320 0.3320 0.3320
3.005997 0.3320 0.3320 0.3320 0.3320 0.3320
3.040000 0.3320 0.3320 0.3320 0.3320 0.3320
3.073997 0.3320 0.3320 0.3320 0.3320 0.3320
3.108000 0.3320 0.3320 0.3320 0.3320 0.3320
3.141997 0.3320 0.3310 0.3310 0.3270 0.3200
3.176000 0.3190 0.3170 0.3170 0.3150 0.3080
3.209997 0.2970 0.2900 0.2760 0.2680 0.2590
3.244000 0.2580 0.2610 0.2640 0.2660 0.2630
3.277997 0.2590 0.2540 0.2460 0.2340 0.2100
3.312000 0.1950 0.1660 0.1400 0.1000 0.0690
3.345997 0.0560 0.0420 0.0400 0.0400 0.0420
3.380000 0.0420 0.0420 0.0420 0.0420 0.0440
3.413997 0.0440 0.0470 0.0490 0.0500 0.0590
3.448000 0.0620 0.0640 0.0640 0.0640 0.0620
3.481997 0.0620 0.0670 0.0760 0.0960 0.1340
3.516000 0.1860 0.2440 0.3100 0.3610 0.3950
3.549997 0.4150 0.4380 0.4490 0.4610 0.4700
3.583000 0.4710 0.4730 0.4750 0.4770 0.4780
3.616997 0.4800 0.4820 0.4820 0.4820 0.4800
3.651000 0.4800 0.4750 0.4730 0.4710 0.4710
3.684997 0.4730 0.4730 0.4730 0.4750 0.4750
3.719000 0.4770 0.4780 0.4780 0.4800 0.4800
3.752997 0.4800 0.4820 0.4820 0.4830 0.4830
3.787000 0.4850 0.4850 0.4870 0.4870 0.4880
3.820997 0.4880 0.4880 0.4900 0.5020 0.5020
3.855000 0.5020 0.5000 0.5020 0.5020 0.5070
3.888997 0.5070 0.5090 0.5090 0.5090 0.5090
3.923000 0.5090 0.5090 0.5110 0.5140 0.5160
3.956997 0.5160 0.5170 0.5190 0.5210 0.5240
3.991000 0.5280 0.5310 0.5340 0.5380 0.5380
4.024997 0.5290 0.5290 0.5310 0.5340 0.5380
4.059000 0.5390 0.5390 0.5390 0.5380 0.5340
4.092997 0.5310 0.5310 0.5310 0.5340 0.5340
4.127000 0.5360 0.5360 0.5360 0.5360 0.5310
4.160997 0.5310 0.5310 0.5310 0.5340 0.5410
4.195000 0.5430 0.5410 0.5380 0.5380 0.5410
4.228997 0.5410 0.5390 0.5360 0.5340 0.5310
4.263000 0.5310 0.5310 0.5310 0.5340 0.5360
4.296997 0.5360 0.5360 0.5360 0.5380 0.5390
4.331000 0.5410 0.5440 0.5480 0.5550 0.5600
4.364997 0.5630 0.5680 0.5720 0.5750 0.5770
4.399000 0.5780 0.5780 0.5780 0.5780 0.5780
4.432997 0.5780 0.5800 0.5800 0.5780 0.5770
4.467000 0.5700 0.5700 0.5700 0.5750 0.5800
4.500997 0.5820 0.5840 0.5870 0.5890 0.5900
4.535000 0.5920 0.5940 0.5950 0.5970 0.5990
4.568997 0.5990 0.5990 0.5990 0.6010 0.6010
4.603000 0.6010 0.6010 0.6010 0.6020 0.6020
4.636997 0.6060 0.6070 0.6070 0.6090 0.6110
4.671000 0.6120 0.6120 0.6140 0.6160 0.6170
4.704997 0.6170 0.6190 0.6210 0.6230 0.6240
4.739000 0.6260 0.6280 0.6280 0.6290 0.6310
4.772997 0.6310 0.6330 0.6360 0.6380 0.6380
4.807000 0.6380 0.6380 0.6380 0.6380 0.6380
4.840997 0.6380 0.6380 0.6380 0.6380 0.6380
4.875000 0.6400 0.6410 0.6430 0.6430 0.6450
4.908997 0.6450 0.6450 0.6460 0.6480 0.6530
4.943000 0.6530 0.6570 0.6570 0.6570 0.6570
4.976997 0.6570 0.6570 0.6580 0.6580 0.6570
5.011000 0.6570 0.6510 0.6460 0.6460 0.6500
5.044997 0.6510 0.6550 0.6570 0.6570 0.6570
5.079000 0.6580 0.6650 0.6680 0.6740 0.6770
5.112997 0.6770 0.6790 0.6800 0.6800 0.6820
5.147000 0.6820 0.6840 0.6850 0.6850 0.6870
5.180997 0.6890 0.6890 0.6890 0.6890 0.6890
5.215000 0.6890 0.6910 0.6910 0.6910 0.6920
5.248997 0.6960 0.7010 0.7020 0.7020 0.7020
5.283000 0.7010 0.6890 0.6550 0.6140 0.5550
5.316997 0.5500 0.5550 0.5770 0.6140 0.6380
5.350000 0.6580 0.6740 0.6840 0.6910 0.6970
5.383997 0.6990 0.7020 0.7040 0.7060 0.7070
5.418000 0.7090 0.7110 0.7140 0.7160 0.7180
5.451997 0.7180 0.7210 0.7210 0.7240 0.7240
5.486000 0.7300 0.7310 0.7330 0.7350 0.7360
5.519997 0.7380 0.7380 0.7400 0.7410 0.7410
5.554000 0.7430 0.7430 0.7450 0.7470 0.7470
5.587997 0.7480 0.7500 0.7500 0.7500 0.7520
5.622000 0.7520 0.7520 0.7520 0.7520 0.7520
5.655997 0.7520 0.7520 0.7500 0.7480 0.7470
5.690000 0.7430 0.7400 0.7400 0.7400 0.7410
5.723997 0.7470 0.7500 0.7550 0.7620 0.7690
5.758000 0.7690 0.7700 0.7720 0.7740 0.7750
5.791997 0.7750 0.7770 0.7790 0.7790 0.7800
5.826000 0.7820 0.7820 0.7840 0.7840 0.7840
5.859997 0.7840 0.7860 0.7910 0.7970 0.8060
5.894000 0.8130 0.8140 0.8140 0.8140 0.8140
5.927997 0.8200 0.8210 0.8210 0.8200 0.8160
5.962000 0.8130 0.8090 0.8040 0.7940 0.7820
5.995997 0.7700 0.7580 0.7500 0.7350 0.7350
6.030000 0.7380 0.7410 0.7520 0.7620 0.7690
6.063997 0.7750 0.7820 0.7910 0.7970 0.8060
6.098000 0.8160 0.8260 0.8280 0.8300 0.8310
6.131997 0.8350 0.8380 0.8450 0.8550 0.8650
6.166000 0.8720 0.8740 0.8790 0.8820 0.8860
6.199997 0.8890 0.8890 0.8890 0.8820 0.8700
6.234000 0.8470 0.8060 0.7530 0.6160 0.5160
6.267997 0.4700 0.4220 0.4210 0.4310 0.5750
6.302000 0.6240 0.6650 0.6910 0.7300 0.7550
6.335997 0.7720 0.7860 0.7960 0.8040 0.8180
6.370000 0.8380 0.8650 0.8770 0.8810 0.8910
6.403997 0.8960 0.8980 0.9010 0.9080 0.9080
6.438000 0.9100 0.9110 0.9160 0.9230 0.9280
6.471997 0.9300 0.9330 0.9380 0.9380 0.9350
6.506000 0.9300 0.9230 0.9160 0.9060 0.9040
6.539997 0.8990 0.8980 0.8930 0.8820 0.8690
6.574000 0.8520 0.8310 0.8040 0.7720 0.7360
6.607997 0.6940 0.6460 0.5900 0.5360 0.5110
6.642000 0.4850 0.4360 0.3850 0.3340 0.2800
6.675997 0.2240 0.1610 0.0890 0.0660 0.0560
6.710000 0.0520 0.0500 0.0500 0.0590 0.0740
6.743997 0.0890 0.1030 0.1180 0.1200 0.1200
6.778000 0.1120 0.1120 0.1120 0.1120 0.1200
6.811997 0.1320 0.1370 0.1470 0.1620 0.1830
6.846000 0.2070 0.2290 0.2470 0.2660 0.2850
6.879997 0.3000 0.3170 0.3310 0.3460 0.3610
6.914000 0.3750 0.3880 0.4040 0.4170 0.4320
6.947997 0.4490 0.4660 0.4900 0.5330 0.5550
6.982000 0.5770 0.5990 0.6190 0.6380 0.6510
7.015997 0.6620 0.6650 0.6820 0.6910 0.6910
7.050000 0.6890 0.6700 0.6510 0.6290 0.5820
7.083997 0.5360 0.5000 0.4880 0.4750 0.4410
7.117000 0.4390 0.4390 0.4490 0.4800 0.4950
7.150997 0.5140 0.5210 0.5310 0.5330 0.5380
7.185000 0.5340 0.5210 0.5110 0.4990 0.4780
7.218997 0.4600 0.4390 0.4140 0.3800 0.3780
7.253000 0.3780 0.3900 0.4490 0.4940 0.5480
7.286997 0.5630 0.5770 0.5870 0.5990 0.6140
7.321000 0.6410 0.6580 0.6770 0.6910 0.6970
7.354997 0.7010 0.7020 0.7020 0.7040 0.7090
7.389000 0.7190 0.7330 0.7410 0.7500 0.7570
7.422997 0.7620 0.7690 0.7740 0.7800 0.7870
7.457000 0.7940 0.7960 0.8030 0.8110 0.8200
7.490997 0.8260 0.8280 0.8310 0.8310 0.8310
7.525000 0.8300 0.8300 0.8280 0.8280 0.8280
7.558997 0.8280 0.8280 0.8300 0.8300 0.8280
7.593000 0.8250 0.8200 0.8180 0.8180 0.8140
7.626997 0.8130 0.8030 0.7800 0.7640 0.7190
7.661000 0.6700 0.6140 0.5610 0.5310 0.5290
7.694997 0.5340 0.5380 0.5390 0.5530 0.5700
7.729000 0.5940 0.6210 0.6400 0.6570 0.6600
7.762997 0.6600 0.6380 0.6120 0.5970 0.5800
7.797000 0.5340 0.5120 0.4880 0.4290 0.3780
7.830997 0.3390 0.3080 0.2980 0.3050 0.3340
7.865000 0.3630 0.3950 0.4310 0.4630 0.4990
7.898997 0.5090 0.5070 0.4850 0.4630 0.4290
7.933000 0.3880 0.3310 0.2860 0.2490 0.2250
7.966997 0.2050 0.1900 0.1790 0.1690 0.1590
8.001000 0.1490 0.1370 0.1180 0.1080 0.0980
8.034997 0.0950 0.0960 0.0960 0.1000 0.1100
8.069000 0.1230 0.1400 0.1590 0.1740 0.2050
8.102997 0.2350 0.2640 0.2950 0.3220 0.3510
8.137000 0.3760 0.4020 0.4260 0.4480 0.4700
8.170997 0.4870 0.5170 0.5280 0.5430 0.5580
8.205000 0.5750 0.5870 0.5950 0.5940 0.5990
8.238997 0.6020 0.6110 0.6170 0.6230 0.6280
8.273000 0.6290 0.6360 0.6380 0.6380 0.6380
8.306997 0.6380 0.6290 0.6190 0.6010 0.5890
8.341000 0.5730 0.5530 0.5220 0.5050 0.4880
8.374997 0.4390 0.4310 0.4310 0.4430 0.4730
8.409000 0.5410 0.5730 0.6040 0.6280 0.6460
8.442997 0.6580 0.6870 0.6970 0.7090 0.7230
8.477000 0.7330 0.7430 0.7480 0.7580 0.7740
8.510997 0.7990 0.8080 0.8080 0.8080 0.7890
8.545000 0.6340 0.5170 0.4750 0.4310 0.3050
8.578997 0.3030 0.3050 0.4320 0.4900 0.5720
8.613000 0.5990 0.6210 0.6360 0.6500 0.6580
8.646997 0.6680 0.6790 0.6890 0.7040 0.7160
8.681000 0.7240 0.7300 0.7360 0.7410 0.7450
8.714997 0.7520 0.7580 0.7670 0.7740 0.7770
8.749000 0.7790 0.7800 0.7840 0.7910 0.7990
8.782997 0.8030 0.8040 0.8080 0.8110 0.8140
8.817000 0.8160 0.8180 0.8180 0.8180 0.8180
8.850997 0.8160 0.8160 0.8160 0.8160 0.8160
8.884000 0.8160 0.8140 0.8130 0.8110 0.8110
8.917997 0.8080 0.8030 0.7940 0.7790 0.7620
8.952000 0.7260 0.6990 0.6870 0.6430 0.6160
8.985997 0.6060 0.6040 0.6070 0.6140 0.6280
9.020000 0.6280 0.5850 0.5840 0.5020 0.4870
9.053997 0.4710 0.3980 0.3610 0.3170 0.3000
9.088000 0.3000 0.3070 0.3540 0.4100 0.4700
9.121997 0.5950 0.6500 0.6850 0.7140 0.7400
9.156000 0.7530 0.7690 0.7700 0.7700 0.7530
9.189997 0.7230 0.6960 0.6630 0.6290 0.5990
9.224000 0.5720 0.5410 0.5110 0.4940 0.4750
9.257997 0.4260 0.3760 0.3360 0.3050 0.3000
9.292000 0.3070 0.3150 0.3190 0.3190 0.3190
9.325997 0.3120 0.3120 0.3150 0.3320 0.3490
9.360000 0.3680 0.3880 0.4100 0.4340 0.4580
9.393997 0.4830 0.5380 0.5670 0.5950 0.6240
9.428000 0.6340 0.6430 0.6550 0.6650 0.6770
9.461997 0.6890 0.6990 0.7010 0.7070 0.7130
9.496000 0.7180 0.7190 0.7260 0.7350 0.7380
9.529997 0.7410 0.7410 0.7450 0.7480 0.7570
9.564000 0.7650 0.7690 0.7690 0.7740 0.7770
9.597997 0.7800 0.7860 0.7870 0.7910 0.7920
9.632000 0.7960 0.7990 0.8030 0.8060 0.8090
9.665997 0.8180 0.8200 0.8230 0.8250 0.8250
9.700000 0.8260 0.8280 0.8300 0.8310 0.8370
9.733997 0.8400 0.8470 0.8520 0.8570 0.8620
9.768000 0.8690 0.8740 0.8770 0.8820 0.8860
9.801997 0.8910 0.8940 0.8980 0.8980 0.8980
9.836000 0.8980 0.8910 0.8300 0.7890 0.7190
9.869997 0.6240 0.5000 0.4550 0.4070 0.3410
9.904000 0.2320 0.2300 0.2320 0.3140 0.3590
9.937997 0.4000 0.4360 0.4700 0.4990 0.5480
9.972000 0.5680 0.5840 0.5940 0.6040 0.6170
10.005997 0.6310 0.6460 0.6620 0.6770 0.6910
10.040000 0.7020 0.7110 0.7180 0.7230 0.7280
10.073997 0.7310 0.7360 0.7400 0.7430 0.7470
10.108000 0.7500 0.7580 0.7600 0.7620 0.7640
10.141997 0.7650 0.7650 0.7690 0.7700 0.7700
10.176000 0.7720 0.7720 0.7720 0.7720 0.7740
10.209997 0.7740 0.7740 0.7740 0.7740 0.7740
10.244000 0.7750 0.7750 0.7750 0.7750 0.7770
10.277997 0.7770 0.7770 0.7770 0.7790 0.7790
10.312000 0.7790 0.7800 0.7820 0.7860 0.7870
10.345997 0.7870 0.7910 0.7920 0.7940 0.7960
10.380000 0.7970 0.7990 0.7990 0.8010 0.8010
10.413997 0.8040 0.8060 0.8080 0.8090 0.8110
10.448000 0.8110 0.8110 0.8090 0.7960 0.7840
10.481997 0.7650 0.7580 0.7570 0.7570 0.7600
10.516000 0.7650 0.7690 0.7690 0.7690 0.7700
10.549997 0.7720 0.7750 0.7790 0.7820 0.7870
10.583000 0.7920 0.7960 0.7990 0.7990 0.8010
10.616997 0.8040 0.8040 0.8080 0.8090 0.8110
10.651000 0.8110 0.8110 0.8110 0.8110 0.8110
10.684997 0.8110 0.8110 0.8110 0.8110 0.8110
10.719000 0.8110 0.8110 0.8110 0.8110 0.8130
10.752997 0.8130 0.8140 0.8140 0.8160 0.8160
10.787000 0.8200 0.8230 0.8230 0.8250 0.8250
10.820997 0.8260 0.8280 0.8280 0.8280 0.8280
10.855000 0.8300 0.8300 0.8310 0.8350 0.8350
10.888997 0.8370 0.8370 0.8370 0.8370 0.8370
10.923000 0.8380 0.8380 0.8380 0.8400 0.8400
10.956997 0.8420 0.8430 0.8430 0.8450 0.8470
10.991000 0.8500 0.8500 0.8500 0.8520 0.8520
11.024997 0.8520 0.8530 0.8530 0.8530 0.8530
11.059000 0.8530 0.8530 0.8550 0.8550 0.8570
11.092997 0.8570 0.8590 0.8570 0.8590 0.8590
11.127000 0.8590 0.8590 0.8600 0.8600 0.8600
11.160997 0.8600 0.8600 0.8620 0.8620 0.8620
11.195000 0.8620 0.8620 0.8640 0.8640 0.8640
11.228997 0.8640 0.8640 0.8640 0.8640 0.8640
11.263000 0.8640 0.8640 0.8640 0.8640 0.8640
11.296997 0.8640 0.8640 0.8640 0.8640 0.8640
11.331000 0.8640 0.8640 0.8640 0.8620 0.8620
11.364997 0.8620 0.8620 0.8600 0.8590 0.8590
11.399000 0.8550 0.8500 0.8470 0.8430 0.8350
11.432997 0.8280 0.8250 0.8180 0.8090 0.7910
11.467000 0.7600 0.7230 0.6970 0.6530 0.6290
11.500997 0.5950 0.5940 0.5950 0.5970 0.6230
11.535000 0.6450 0.6650 0.6840 0.6990 0.7140
11.568997 0.7260 0.7380 0.7480 0.7550 0.7640
11.603000 0.7700 0.7750 0.7800 0.7840 0.7860
11.636997 0.7860 0.7870 0.7840 0.7800 0.7790
11.671000 0.7750 0.7700 0.7700 0.7670 0.7640
11.704997 0.7600 0.7570 0.7520 0.7470 0.7430
11.739000 0.7330 0.7300 0.7210 0.7110 0.7020
11.772997 0.6940 0.6840 0.6720 0.6550 0.6340
11.807000 0.6090 0.5970 0.5840 0.5720 0.5560
11.840997 0.5410 0.5240 0.5170 0.5090 0.4990
11.875000 0.4880 0.4750 0.4580 0.4410 0.4210
11.908997 0.3970 0.3710 0.3410 0.3070 0.2710
11.943000 0.2390 0.2130 0.1900 0.1710 0.1560
11.976997 0.1460 0.1390 0.1340 0.1270 0.1270
12.011000 0.1270 0.1270 0.1270 0.1270 0.1270
12.044997 0.1270 0.1270 0.1250 0.1250 0.1220
12.079000 0.1170 0.1120 0.1060 0.1010 0.1000
12.112997 0.1000 0.1000 0.1100 0.1390 0.1590
12.147000 0.1780 0.2000 0.2190 0.2240 0.2240
12.180997 0.2240 0.2130 0.1930 0.1620 0.1420
12.215000 0.1130 0.0960 0.0840 0.0810 0.0790
12.248997 0.0780 0.0790 0.0950 0.1060 0.1180
12.283000 0.1290 0.1420 0.1560 0.1710 0.1900
12.316997 0.2120 0.2370 0.2470 0.2680 0.2880
12.350000 0.3070 0.3270 0.3480 0.3660 0.3830
12.383997 0.4000 0.4150 0.4320 0.4460 0.4610
12.418000 0.4750 0.4880 0.5120 0.5260 0.5380
12.451997 0.5480 0.5600 0.5720 0.5820 0.5920
12.486000 0.6040 0.6170 0.6280 0.6380 0.6450
12.519997 0.6480 0.6530 0.6600 0.6680 0.6770
12.554000 0.6850 0.6940 0.6970 0.7020 0.7070
12.587997 0.7140 0.7230 0.7310 0.7380 0.7430
12.622000 0.7480 0.7500 0.7520 0.7550 0.7580
12.655997 0.7640 0.7690 0.7720 0.7770 0.7800
12.690000 0.7800 0.7820 0.7860 0.7910 0.7960
12.723997 0.7990 0.8030 0.8040 0.8130 0.8180
12.758000 0.8180 0.8180 0.8130 0.8110 0.8080
12.791997 0.8040 0.7990 0.7910 0.7740 0.7650
12.826000 0.7600 0.7500 0.7480 0.7480 0.7480
12.859997 0.7580 0.7690 0.7750 0.7820 0.7940
12.894000 0.8090 0.8230 0.8300 0.8330 0.8370
12.927997 0.8430 0.8520 0.8600 0.8620 0.8620
12.962000 0.8640 0.8650 0.8690 0.8720 0.8760
12.995997 0.8790 0.8820 0.8860 0.8890 0.8930
13.030000 0.8960 0.8980 0.8990 0.8990 0.9010
13.063997 0.9030 0.9040 0.9040 0.9060 0.9080
13.098000 0.9100 0.9110 0.9110 0.9150 0.9150
13.131997 0.9160 0.9200 0.9200 0.9200 0.9200
13.166000 0.9180 0.9180 0.9180 0.9180 0.9180
13.199997 0.9180 0.9200 0.9200 0.9210 0.9210
13.234000 0.9210 0.9210 0.9230 0.9230 0.9230
13.267997 0.9210 0.9210 0.9210 0.9210 0.9210
13.302000 0.9210 0.9210 0.9210 0.9210 0.9210
13.335997 0.9210 0.9210 0.9210 0.9210 0.9210
13.370000 0.9210 0.9210 0.9210 0.9210 0.9210
13.403997 0.9210 0.9210 0.9200 0.9200 0.9200
13.438000 0.9180 0.9180 0.9180 0.9160 0.9180
13.471997 0.9160 0.9150 0.9150 0.9130 0.9130
13.506000 0.9110 0.9110 0.9100 0.9100 0.9080
13.539997 0.9080 0.9060 0.9060 0.9060 0.9040
13.574000 0.9030 0.9030 0.9010 0.9010 0.9010
13.607997 0.9010 0.9010 0.8990 0.8990 0.8980
13.642000 0.8980 0.8960 0.8960 0.8940 0.8940
13.675997 0.8940 0.8930 0.8930 0.8910 0.8890
13.710000 0.8890 0.8870 0.8870 0.8860 0.8840
13.743997 0.8820 0.8820 0.8810 0.8810 0.8810
13.778000 0.8790 0.8770 0.8760 0.8740 0.8700
13.811997 0.8690 0.8670 0.8650 0.8640 0.8620
13.846000 0.8620 0.8600 0.8600 0.8590 0.8550
13.879997 0.8550 0.8530 0.8530 0.8550 0.8590
13.914000 0.8620 0.8650 0.8670 0.8700 0.8740
13.947997 0.8810 0.8860 0.8930 0.8990 0.8990
13.982000 0.9010 0.9040 0.9080 0.9110 0.9160
14.015997 0.9180 0.9180 0.9210 0.9250 0.9260
14.050000 0.9260 0.9280 0.9280 0.9300 0.9320
14.083997 0.9350 0.9380 0.9400 0.9420 0.9430
14.117000 0.9430 0.9450 0.9470 0.9490 0.9490
14.150997 0.9500 0.9540 0.9550 0.9590 0.9620
14.185000 0.9620 0.9620 0.9640 0.9640 0.9660
14.218997 0.9660 0.9660 0.9640 0.9640 0.9640
14.253000 0.9640 0.9640 0.9640 0.9660 0.9690
14.286997 0.9690 0.9690 0.9690 0.9710 0.9690
14.321000 0.9670 0.9660 0.9620 0.9590 0.9570
14.354997 0.9540 0.9490 0.9470 0.9420 0.9350
14.389000 0.9300 0.9230 0.9160 0.9130 0.9100
14.422997 0.9080 0.9060 0.8990 0.8980 0.8940
14.457000 0.8910 0.8870 0.8860 0.8840 0.8820
14.490997 0.8820 0.8820 0.8860 0.8890 0.8910
14.525000 0.8940 0.8960 0.8960 0.8980 0.8980
14.558997 0.8980 0.8990 0.8990 0.9010 0.9010
14.593000 0.9030 0.9040 0.9040 0.9040 0.9060
14.626997 0.9080 0.9080 0.9080 0.9040 0.9030
14.661000 0.9030 0.9030 0.9030 0.9010 0.9010
14.694997 0.9010 0.8990 0.8980 0.8960 0.8940
14.729000 0.8930 0.8910 0.8870 0.8870 0.8860
14.762997 0.8860 0.8840 0.8840 0.8840 0.8810
14.797000 0.8790 0.8770 0.8770 0.8760 0.8760
14.830997 0.8720 0.8700 0.8690 0.8670 0.8650
14.865000 0.8640 0.8620 0.8590 0.8590 0.8570
14.898997 0.8570 0.8550 0.8530 0.8520 0.8520
14.933000 0.8530 0.8530 0.8520 0.8500 0.8470
14.966997 0.8450 0.8400 0.8370 0.8300 0.8200
15.001000 0.8060 0.7870 0.7720 0.7580 0.7480
15.034997 0.7380 0.7300 0.7190 0.7130 0.7090
15.069000 0.7090 0.7090 0.7130 0.7240 0.7330
15.102997 0.7450 0.7550 0.7670 0.7740 0.7820
15.137000 0.7940 0.7990 0.8010 0.8030 0.8040
15.170997 0.8060 0.8060 0.8060 0.8030 0.7990
15.205000 0.7940 0.7890 0.7820 0.7750 0.7720
15.238997 0.7690 0.7670 0.7620 0.7570 0.7520
15.273000 0.7480 0.7450 0.7410 0.7330 0.7300
15.306997 0.7230 0.7180 0.7010 0.6960 0.6870
15.341000 0.6770 0.6680 0.6600 0.6510 0.6400
15.374997 0.6280 0.6120 0.5990 0.5870 0.5750
15.409000 0.5680 0.5630 0.5530 0.5430 0.5360
15.442997 0.5280 0.5210 0.5140 0.5070 0.5020
15.477000 0.5000 0.4970 0.4900 0.4880 0.4880
15.510997 0.4870 0.4850 0.4850 0.4850 0.4850
15.545000 0.4850 0.4880 0.4990 0.5070 0.5110
15.578997 0.5120 0.5160 0.5190 0.5220 0.5220
15.613000 0.5260 0.5280 0.5310 0.5340 0.5360
15.646997 0.5360 0.5380 0.5390 0.5390 0.5390
15.681000 0.5390 0.5390 0.5390 0.5390 0.5390
15.714997 0.5380 0.5380 0.5360 0.5360 0.5360
15.749000 0.5360 0.5360 0.5360 0.5340 0.5330
15.782997 0.5310 0.5290 0.5280 0.5260 0.5240
15.817000 0.5240 0.5210 0.5190 0.5170 0.5160
15.850997 0.5120 0.5090 0.5070 0.5050 0.5050
15.884000 0.5040 0.5020 0.5000 0.4990 0.4950
15.917997 0.4920 0.4920 0.4900 0.4880 0.4880
15.952000 0.4870 0.4870 0.4850 0.4830 0.4820
##END=
