##TITLE=4-Chloro-3-methylphenacyl bromide
##JCAMP-DX=4.24
##DATA TYPE=INFRARED SPECTRUM
##ORIGIN=EPA-IR VAPOR PHASE LIBRARY
##OWNER=SRD/NIST
Collection (C) 2018 copyright by the U.S. Secretary of Commerce
on behalf of the United States of America. All rights reserved.
##CAS REGISTRY NO=205178-80-9
##MOLFORM=C 9 H 8 Br Cl O
##$NIST SOURCE=MSDC-IR
##STATE=gas
##XUNITS=1/CM
##YUNITS=ABSORBANCE
##XFACTOR=1.
##YFACTOR=0.001
##DELTAX=1.92898
##FIRSTX=549.8
##LASTX=4000.7
##FIRSTY=10.779
##MAXX=4000.7
##MINX=549.759
##MAXY=0.200039
##MINY=0
##NPOINTS=1790
##XYDATA=(X++(Y..Y))
549.759 10.779 11.279 11.319 11.199 11.659 12.239 12.389 12.739 13.339 14.779
569.049 16.269 17.479 19.189 19.839 19.669 18.489 16.419 14.539 12.399 10.359
588.339 8.879 7.809 7.219 7.209 7.349 7.349 8.089 9.229 9.759 10.339
607.628 11.229 11.599 11.809 12.099 12.479 12.859 12.659 12.649 13.779 15.509
626.918 17.669 21.179 25.149 28.349 29.949 29.629 28.029 25.209 21.669 18.189
646.208 15.339 13.679 12.509 11.739 11.709 11.879 11.959 12.189 12.469 13.019
665.498 13.799 14.209 14.469 14.909 14.899 14.159 13.039 11.959 10.839 9.659
684.787 8.899 8.299 7.909 8.139 8.449 9.649 11.989 14.979 19.659 25.579
704.077 30.959 34.499 35.199 32.829 28.379 22.489 16.809 12.789 10.029 8.319
723.367 7.259 6.359 5.999 5.929 5.999 6.029 5.779 6.029 6.419 6.709
742.657 7.179 7.719 8.529 8.979 9.299 9.369 8.799 8.159 7.579 7.029
761.947 6.759 6.269 5.519 5.289 5.169 5.239 5.519 5.559 5.539 5.329
781.236 5.099 5.439 5.679 5.649 5.749 5.969 6.399 6.959 7.409 7.749
800.526 8.399 9.299 10.429 12.139 13.789 15.629 17.919 20.149 22.299 23.799
819.816 24.939 25.379 25.029 24.589 23.989 23.369 22.329 20.769 19.089 17.269
839.106 15.669 14.489 13.329 11.929 10.509 9.459 8.889 8.339 7.539 7.059
858.395 6.819 6.939 7.489 7.689 7.729 8.299 9.049 9.649 10.249 10.659
877.685 11.139 11.719 11.469 10.859 10.419 9.709 9.139 8.699 8.329 8.049
896.975 7.989 8.429 8.549 8.169 8.139 8.639 8.749 8.089 7.469 6.839
916.265 5.969 5.209 4.669 4.069 3.889 3.609 3.159 3.129 3.089 2.779
935.555 2.779 3.019 3.049 3.149 3.329 3.329 3.079 3.239 3.429 3.579
954.844 3.969 4.109 4.289 4.369 4.629 4.939 5.369 5.899 6.539 7.119
974.134 7.399 8.369 9.469 10.449 11.659 13.009 14.409 16.289 17.809 18.639
993.424 19.849 20.609 20.589 20.619 20.429 20.359 21.099 22.309 23.219 23.979
1012.714 25.269 26.629 28.239 30.369 32.589 35.149 37.679 40.239 42.329 44.289
1032.003 46.149 47.279 50.269 54.999 61.719 72.549 87.969 106.729 127.609 148.199
1051.293 164.559 172.999 169.899 156.359 134.249 107.929 83.049 62.369 47.159 36.399
1070.583 29.079 24.179 20.479 18.029 16.229 14.469 13.189 11.939 11.149 10.869
1089.873 10.449 9.639 8.689 8.519 8.899 9.429 10.009 9.849 8.969 9.579
1109.163 10.689 10.889 11.479 11.709 12.379 12.939 12.399 12.449 12.359 11.669
1128.452 11.579 11.389 10.509 10.459 10.599 10.739 10.929 10.469 11.309 12.659
1147.742 13.309 13.849 13.609 13.559 14.599 15.659 16.229 17.149 17.729 18.129
1167.032 18.379 18.209 18.609 19.269 19.819 20.769 21.289 22.399 25.029 27.259
1186.322 28.869 30.459 31.059 30.989 31.249 30.689 29.759 29.849 30.319 30.349
1205.611 31.769 32.489 31.479 30.989 29.239 27.119 25.789 24.239 23.519 23.159
1224.901 23.499 23.809 23.869 24.169 24.479 26.669 29.959 32.849 37.179 44.349
1244.191 53.409 65.639 82.399 102.409 122.859 140.039 152.059 158.069 156.409 146.409
1263.481 130.949 114.199 97.949 82.609 69.019 59.189 54.119 53.189 56.009 62.119
1282.771 70.699 80.999 91.979 102.469 110.659 114.299 112.799 106.329 95.219 81.549
1302.060 67.559 54.429 43.049 33.959 27.349 22.609 19.099 16.499 14.489 13.029
1321.350 11.919 11.029 10.169 9.349 8.679 8.149 7.689 7.199 6.819 6.479
1340.640 6.209 5.999 5.839 5.739 5.609 5.549 5.659 5.639 5.629 5.829
1359.930 6.149 6.579 7.009 7.599 8.549 9.609 10.729 11.989 13.449 15.009
1379.219 16.819 18.809 20.649 22.319 23.799 25.149 26.209 26.869 27.319 27.399
1398.509 26.959 26.229 25.379 24.439 23.589 23.179 23.319 24.159 25.549 27.689
1417.799 30.869 34.939 40.009 45.749 50.999 54.149 54.559 52.329 47.969 42.469
1437.089 36.819 32.149 28.889 26.959 25.899 25.119 24.309 23.539 22.659 21.639
1456.378 20.659 19.829 19.339 19.239 19.689 20.689 22.149 24.109 26.489 28.719
1475.668 30.449 31.539 31.459 30.179 27.829 24.839 21.569 18.309 15.679 13.649
1494.958 12.009 10.629 9.679 8.839 7.989 7.529 7.209 6.959 6.699 6.599
1514.248 6.559 6.409 6.349 6.329 6.409 6.569 6.659 6.779 7.019 7.269
1533.538 7.549 7.969 8.329 8.899 9.679 10.469 11.599 12.829 14.189 15.719
1552.827 17.479 19.609 21.869 24.389 27.229 30.229 33.069 35.469 37.469 38.619
1572.117 38.719 38.139 37.359 36.529 36.059 36.629 38.469 41.539 45.539 49.889
1591.407 53.709 56.029 56.189 53.849 49.309 43.229 36.359 29.679 24.059 19.779
1610.697 16.419 13.979 12.389 11.299 10.589 9.959 9.419 9.049 8.839 8.739
1629.986 8.729 8.789 8.959 9.029 9.019 9.129 9.209 9.179 9.189 9.409
1649.276 9.639 9.869 10.279 10.939 11.579 12.129 12.779 13.489 14.249 15.079
1668.566 16.239 17.739 19.629 21.949 25.039 29.089 34.619 42.209 52.339 65.599
1687.856 82.299 102.859 126.469 150.689 172.639 189.279 198.529 200.039 192.869 177.169
1707.146 155.999 133.039 111.649 93.789 79.399 68.139 59.239 52.249 46.559 41.489
1726.435 36.789 32.339 28.199 24.679 21.789 19.279 17.089 15.319 13.999 13.029
1745.725 12.139 11.429 10.949 10.529 10.139 9.729 9.349 8.879 8.329 7.759
1765.015 7.239 6.749 6.349 5.999 5.719 5.439 5.189 5.089 4.979 4.849
1784.305 4.699 4.739 4.639 4.399 4.249 4.109 3.949 3.709 3.519 3.379
1803.594 3.289 3.229 3.189 3.139 3.069 2.989 3.019 2.999 2.889 2.779
1822.884 2.759 2.789 2.639 2.499 2.369 2.199 2.129 2.099 1.939 1.849
1842.174 1.949 1.999 1.929 1.879 1.909 1.939 1.959 1.989 2.039 1.959
1861.464 1.899 1.949 2.019 2.119 2.139 2.219 2.369 2.409 2.489 2.699
1880.754 2.929 3.059 3.119 3.169 3.189 3.079 2.979 2.839 2.759 2.689
1900.043 2.419 2.399 2.529 2.549 2.509 2.499 2.559 2.509 2.569 2.689
1919.333 2.699 2.719 2.729 2.719 2.609 2.459 2.369 2.239 2.079 1.939
1938.623 1.839 1.819 1.639 1.509 1.529 1.399 1.3463 1.379 1.409 1.429
1957.913 1.369 1.3037 1.223 1.2088 1.173 1.0974 1.0912 1.1011 1.1528 1.1076
1977.202 1.1122 1.226 1.1818 1.0353 1.131 1.1785 1.1239 1.2468 1.2515 1.1778
1996.492 1.2861 1.3474 1.3443 1.3302 1.369 1.499 1.459 1.349 1.2445 1.1925
2015.782 1.1584 0.9998 0.99 0.9452 0.8666 0.9325 0.866 0.8303 0.8013 0.8744
2035.072 0.9672 0.947 0.9339 0.8401 0.726 0.7837 0.8835 0.7581 0.7041 0.7279
2054.362 0.7625 0.7563 0.8019 0.9426 0.9299 0.9 0.8772 0.851 0.9066 0.9195
2073.651 0.9495 0.9424 0.9303 0.9359 0.9014 0.8905 1.0044 1.1022 1.1078 1.0946
2092.941 1.1247 1.1734 1.1147 1.1729 1.1407 0.9466 0.9434 1.0446 1.0567 0.9811
2112.231 0.9037 0.9604 0.9398 0.9294 0.9408 0.9079 1.0551 1.0785 1.1175 1.2384
2131.521 1.1073 1.0165 1.1562 1.1905 1.0728 1.1108 1.1513 1.1119 1.0934 1.092
2150.810 1.1186 1.1536 1.1712 1.0483 0.9477 0.956 0.9471 0.9454 0.9982 1.0049
2170.100 0.9724 0.8095 0.7568 0.8922 1.0034 1.0106 0.9292 0.8813 0.7994 0.7928
2189.390 0.8788 0.9579 0.9831 0.9225 0.8374 0.8378 0.8492 0.7861 0.7402 0.7952
2208.680 0.8645 0.8981 0.9273 0.8275 0.7064 0.7136 0.7829 0.8684 0.8812 0.9227
2227.970 0.9009 0.9176 1.0194 1.1146 1.0559 0.8928 0.8933 0.9252 0.8444 0.7937
2247.259 0.8831 0.9 0.9037 1.0315 1.0813 1.0702 1.0098 0.9097 0.9558 1.0051
2266.549 0.979 0.9545 1.0863 1.1326 1.0057 1.05 1.2278 1.2817 1.2337 1.1583
2285.839 1.1721 1.2612 1.2367 1.2783 1.2986 1.181 1.1369 1.2138 1.1575 1.125
2305.129 1.178 1.1127 1.1222 1.1868 1.1488 1.1614 1.2286 1.1562 1.0443 1.0864
2324.418 1.0376 0.9607 1.0527 1.042 0.9881 0.9701 1.0817 1.0384 0.8125 0.84
2343.708 0.8927 0.9037 1.0107 0.9089 0.9059 0.9327 0.9106 0.98 0.903 0.9491
2362.998 0.9531 1.0402 1.2276 1.2794 1.2733 1.2725 1.2316 1.1677 1.1917 1.2537
2382.288 1.2647 1.1838 1.2379 1.369 1.3328 1.2489 1.2821 1.3342 1.3395 1.429
2401.578 1.509 1.509 1.459 1.409 1.429 1.449 1.429 1.3305 1.2957 1.306
2420.867 1.2634 1.1806 1.0946 1.1837 1.2525 1.3143 1.419 1.449 1.379 1.359
2440.157 1.379 1.519 1.529 1.3288 1.2034 1.2067 1.409 1.499 1.499 1.419
2459.447 1.3221 1.285 1.2893 1.359 1.359 1.3272 1.2706 1.2309 1.2907 1.2857
2478.737 1.2786 1.2678 1.2506 1.2957 1.399 1.369 1.2462 1.1223 1.094 1.0873
2498.026 1.0513 1.0969 1.123 1.1109 1.0496 1.1445 1.2164 1.1069 1.0288 1.0799
2517.316 1.2203 1.2635 1.1894 1.2628 1.3082 1.369 1.419 1.3186 1.369 1.459
2536.606 1.559 1.709 1.709 1.839 2.009 1.979 2.039 2.169 2.239 2.149
2555.896 2.119 2.279 2.439 2.479 2.649 2.879 2.769 2.639 2.509 2.249
2575.186 2.159 2.179 2.059 1.799 1.659 1.729 1.679 1.579 1.459 1.369
2594.475 1.349 1.3115 1.349 1.3042 1.1496 1.2253 1.3282 1.1981 1.1355 1.1369
2613.765 1.2003 1.2238 1.2086 1.2573 1.2466 1.1538 1.1338 1.2092 1.2341 1.2328
2633.055 1.1936 1.1618 1.2252 1.1936 1.0455 0.9612 0.9744 0.8838 0.9932 1.1204
2652.345 0.996 1.0157 1.1221 1.1551 1.0421 1.1006 1.2359 1.0905 1.0557 1.0781
2671.634 1.0087 0.9506 0.8756 1.0217 1.0807 1.0126 0.8961 0.8061 0.9145 1.0226
2690.924 1.0278 0.9713 1.0429 1.1408 1.0205 0.9239 1.0746 1.0838 0.9342 0.9805
2710.214 1.065 0.9952 0.9627 1.0265 1.0783 1.1037 1.1648 1.332 1.3285 1.1726
2729.504 1.0643 1.1344 1.2924 1.2522 1.0344 1.2369 1.549 1.439 1.419 1.589
2748.794 1.659 1.629 1.629 1.569 1.409 1.2621 1.2411 1.3396 1.419 1.2971
2768.083 1.1126 1.1801 1.279 1.0469 0.9798 1.1068 1.1739 1.1527 1.1399 1.0961
2787.373 0.9704 0.996 1.0661 1.169 1.2355 1.2273 1.2648 1.389 1.369 1.2815
2806.663 1.3 1.369 1.489 1.599 1.559 1.479 1.549 1.509 1.719 1.989
2825.953 1.909 1.779 1.889 2.089 2.349 2.429 2.479 2.669 2.759 2.779
2845.242 2.809 3.019 3.239 3.329 3.449 3.549 3.719 3.979 4.339 4.679
2864.532 4.909 5.229 5.439 5.729 6.019 6.119 6.139 6.059 5.989 5.739
2883.822 5.599 5.619 5.389 5.119 5.139 5.099 4.939 4.949 4.969 4.989
2903.112 5.019 5.219 5.289 5.339 5.619 5.989 6.319 6.759 7.359 7.849
2922.401 8.699 9.599 10.569 11.989 13.459 14.849 16.509 17.919 18.459 18.679
2941.691 18.559 17.909 16.979 15.789 14.769 14.229 14.029 13.869 13.699 13.639
2960.981 13.829 13.949 13.839 13.949 14.229 14.519 14.719 14.969 15.329 15.869
2980.271 16.429 16.689 16.469 16.089 15.569 14.529 13.329 12.369 11.349 10.269
2999.561 9.259 8.299 7.459 6.809 6.469 6.309 5.999 5.929 5.809 5.739
3018.850 5.949 6.019 6.079 6.499 6.899 7.029 7.399 7.709 7.959 8.169
3038.140 8.199 8.309 8.109 7.769 7.469 7.109 6.899 6.789 6.979 7.179
3057.430 7.659 8.179 8.099 8.129 8.379 8.299 8.019 7.629 7.289 7.379
3076.720 7.429 7.179 7.019 6.789 6.539 6.449 6.159 5.719 5.439 5.309
3096.009 5.069 4.499 4.039 3.749 3.469 3.249 2.849 2.529 2.329 2.299
3115.299 2.179 2.039 1.949 1.879 2.019 1.899 1.599 1.449 1.409 1.569
3134.589 1.589 1.399 1.369 1.449 1.3126 1.1272 1.1655 1.0408 1.1341 1.3354
3153.879 1.322 1.2222 1.0832 1.0789 1.1279 1.1216 1.0834 1.0157 0.9855 0.9011
3173.169 0.8639 0.807 0.8733 0.9413 0.8524 0.7197 0.7204 0.9988 0.9501 0.7013
3192.458 0.6023 0.5478 0.4727 0.5789 0.7919 0.6887 0.5851 0.7044 0.7242 0.532
3211.748 0.44362 0.5391 0.44628 0.4578 0.4647 0.4624 0.5173 0.579 0.6541 0.5916
3231.038 0.4997 0.4743 0.5082 0.43129 0.42931 0.51 0.604 0.6745 0.75 0.6861
3250.328 0.6191 0.66 0.7317 0.6612 0.5823 0.7109 0.7569 0.7768 0.8119 0.6853
3269.617 0.4781 0.4781 0.558 0.4537 0.526 0.8118 0.7266 0.5597 0.5016 0.41651
3288.907 0.4875 0.5836 0.5881 0.5681 0.5991 0.7341 0.9279 0.9001 0.9316 0.807
3308.197 0.571 0.4566 0.36789 0.5649 0.7652 0.5847 0.36088 0.39953 0.37929 0.39635
3327.487 0.4856 0.4561 0.528 0.6863 0.7761 0.747 0.6675 0.7458 1.0103 1.1206
3346.777 1.1613 1.2039 1.078 1.2651 1.2897 1.1453 1.2258 1.379 1.549 1.809
3366.066 2.019 2.279 2.839 3.119 3.229 3.219 3.299 3.349 3.409 3.369
3385.356 3.049 2.879 2.499 2.419 2.259 1.899 1.799 1.749 1.579 1.519
3404.646 1.509 1.369 1.399 1.449 1.449 1.1564 0.9083 1.1392 1.2059 1.232
3423.936 1.1351 0.8158 0.8524 1.0762 1.1378 1.003 0.8425 0.5892 0.43821 0.6652
3443.225 0.634 0.6676 0.6344 0.5132 0.6751 0.7527 0.7283 0.8685 0.8768 0.56
3462.515 0.518 0.6011 0.5025 0.34033 0.34774 0.39046 0.3264 0.2646 0.4876 0.6225
3481.805 0.4689 0.41245 0.5019 0.42402 0.3936 0.6391 0.5351 0.3054 0.39318 0.5852
3501.095 0.4947 0.3075 0.4641 0.55 0.3004 0.204 0.235 0.3094 0.3363 0.41156
3520.385 0.5994 0.4764 0.239 0.2558 0.5552 0.7751 0.6152 0.5327 0.39744 0.245
3539.674 0.3122 0.36139 0.4879 0.4842 0.42923 0.40727 0.2681 0.237 0.36346 0.299
3558.964 0.37726 0.4593 0.113 0 0.162 0.166 0.203 0.216 0.233 0.36416
3578.254 0.3366 0.196 0.187 0.182 0.021 0.038 0.187 0.2962 0.3294 0.39925
3597.544 0.4656 0.40566 0.40642 0.3102 0.149 0.181 0.276 0.3129 0.257 0.2822
3616.833 0.34438 0.2559 0.2828 0.35096 0.34531 0.38424 0.5451 0.4893 0.5054 0.4947
3636.123 0.3064 0.36901 0.4794 0.4969 0.5109 0.6496 0.5847 0.37214 0.44168 0.5317
3655.413 0.37855 0.2571 0.2702 0.36488 0.4339 0.166 0.062 0.39975 0.42832 0.39179
3674.703 0.3857 0.3381 0.4804 0.517 0.39576 0.3185 0.40282 0.36998 0.3247 0.2709
3693.993 0.247 0.36894 0.4789 0.41575 0.2881 0.199 0.3122 0.5478 0.4498 0.355453
3713.282 0.5112 0.6341 0.5945 0.4975 0.4737 0.4646 0.3332 0.2754 0.2797 0.084
3732.572 0.223 0.6248 0.5268 0.146 0.139 0.5169 0.7206 0.6332 0.43583 0.4824
3751.862 0.5335 0.36718 0.3342 0.4845 0.328 0.2757 0.37361 0.204 0.018 0.037
3771.152 0.163 0.136 0.24 0.4769 0.5658 0.4776 0.5233 0.5159 0.5741 0.751
3790.441 0.7717 0.5912 0.6492 0.7806 0.6227 0.5583 0.5072 0.5453 0.7166 0.7113
3809.731 0.6685 0.575 0.4814 0.5015 0.5049 0.38689 0.285 0.37754 0.4892 0.5796
3829.021 0.6102 0.5588 0.37512 0.5202 0.5589 0.181 0.123 0.3323 0.44067 0.38997
3848.311 0.2495 0.46 0.6212 0.2853 0.3253 0.4817 0.5148 0.5106 0.36855 0.3105
3867.601 0.3097 0.386 0.4865 0.4518 0.4523 0.5094 0.5723 0.5775 0.6658 0.5482
3886.890 0.2811 0.44485 0.4714 0.5096 0.4705 0.34266 0.358672 0.44708 0.2777 0.2529
3906.180 0.5778 0.5776 0.6049 0.6602 0.5907 0.637 0.6015 0.4979 0.5022 0.43086
3925.470 0.6013 0.633 0.5375 0.6226 0.7918 0.8852 0.8684 0.8693 0.6771 0.5728
3944.760 0.6836 0.501 0.2576 0.43068 0.5193 0.4602 0.4812 0.5011 0.39016 0.4644
3964.049 0.5053 0.42999 0.4901 0.6008 0.7541 0.6538 0.6195 0.5979 0.34572 0.3131
3983.339 0.5798 0.5486 0.39825 0.5597 0.6731 0.5189 0.356216 0.519 0.4889 0.36862
##END=
