##TITLE=2-Methyl-5-isopropylaniline
##JCAMP-DX=4.24
$$ By DXEDIT 1.05 (RS McDonald)
##DATA TYPE=INFRARED SPECTRUM
##CLASS=COBLENTZ III
##ORIGIN=DOW CHEMICAL COMPANY
##OWNER=COPYRIGHT (C) 1988 by COBLENTZ SOCIETY INC.
Collection (C) 2018 copyright by the U.S. Secretary of Commerce
on behalf of the United States of America. All rights reserved.
##DATE=1962/03/08
##NAMES=5-isopropyl-2-methylphenylamine
5-isopropyl-2-methylaniline
2-Amino-p-cymene
##CAS REGISTRY NO=2051-53-8
##MOLFORM=C10 H15 N
##SOURCE REFERENCE=COBLENTZ NO. 6760
##$NIST SOURCE=COBLENTZ
##$NIST IMAGE=cob6760
##SPECTROMETER/DATA SYSTEM=DOW KBr FOREPRISM-GRATING
##INSTRUMENT PARAMETERS=BLAZED AT 3.5, 12.0, 20.0 MICRON AND CHANGED AT 5.0, 7.5, 14.9 MICRON
##STATE=SOLUTION (10% CCl4 FOR 3800-1340, 10% CS2 FOR 1340-400 CM^-^1)
##PATH LENGTH=0.011 CM, 0.010 CM
$$SPECTRAL CONTAMINATION DUE TO CCl4 AROUND 1540 CM^-^1
##SAMPLING PROCEDURE=TRANSMISSION
##RESOLUTION=2
##DATA PROCESSING=DIGITIZED BY COBLENTZ SOCIETY (BATCH I) FROM HARD COPY
##XUNITS=1/CM
##YUNITS=TRANSMITTANCE
##XFACTOR=1
##YFACTOR=1
##DELTAX=1
##FIRSTX=3800
##LASTX=384
##FIRSTY=0.9677
##MAXX=3800
##MINX=384
##MAXY=0.9674
##MINY=-0.0036
##NPOINTS=3417
##XYDATA=(X++(Y..Y))
3800.000000 0.9677 0.9676 0.9674 0.9671 0.9674
3795.000000 0.9664 0.9667 0.9663 0.9659 0.9655
3790.000000 0.9651 0.9647 0.9643 0.9638 0.9634
3785.000000 0.9630 0.9620 0.9613 0.9609 0.9611
3780.000000 0.9610 0.9597 0.9598 0.9594 0.9589
3775.000000 0.9576 0.9582 0.9578 0.9575 0.9571
3770.000000 0.9567 0.9564 0.9562 0.9559 0.9557
3765.000000 0.9555 0.9553 0.9552 0.9551 0.9550
3760.000000 0.9554 0.9552 0.9548 0.9548 0.9549
3755.000000 0.9550 0.9551 0.9551 0.9552 0.9553
3750.000000 0.9554 0.9556 0.9558 0.9560 0.9563
3745.000000 0.9565 0.9567 0.9570 0.9572 0.9575
3740.000000 0.9580 0.9585 0.9595 0.9598 0.9602
3735.000000 0.9604 0.9602 0.9599 0.9606 0.9611
3730.000000 0.9613 0.9615 0.9617 0.9618 0.9618
3725.000000 0.9618 0.9618 0.9618 0.9618 0.9618
3720.000000 0.9618 0.9609 0.9610 0.9615 0.9613
3715.000000 0.9611 0.9609 0.9607 0.9607 0.9609
3710.000000 0.9604 0.9606 0.9604 0.9600 0.9599
3705.000000 0.9596 0.9593 0.9592 0.9590 0.9587
3700.000000 0.9585 0.9583 0.9581 0.9580 0.9571
3695.000000 0.9569 0.9568 0.9567 0.9565 0.9564
3690.000000 0.9563 0.9561 0.9560 0.9556 0.9547
3685.000000 0.9545 0.9543 0.9541 0.9540 0.9537
3680.000000 0.9535 0.9533 0.9531 0.9528 0.9526
3675.000000 0.9524 0.9520 0.9518 0.9516 0.9516
3670.000000 0.9524 0.9516 0.9515 0.9515 0.9515
3665.000000 0.9519 0.9523 0.9534 0.9543 0.9556
3660.000000 0.9570 0.9570 0.9570 0.9565 0.9562
3655.000000 0.9558 0.9554 0.9549 0.9545 0.9540
3650.000000 0.9536 0.9535 0.9534 0.9534 0.9534
3645.000000 0.9533 0.9533 0.9539 0.9546 0.9552
3640.000000 0.9559 0.9565 0.9571 0.9578 0.9584
3635.000000 0.9585 0.9587 0.9583 0.9586 0.9578
3630.000000 0.9568 0.9554 0.9550 0.9546 0.9538
3625.000000 0.9535 0.9532 0.9532 0.9532 0.9534
3620.000000 0.9536 0.9543 0.9551 0.9566 0.9580
3615.000000 0.9598 0.9615 0.9614 0.9613 0.9603
3610.000000 0.9594 0.9586 0.9571 0.9575 0.9572
3605.000000 0.9568 0.9564 0.9558 0.9553 0.9556
3600.000000 0.9551 0.9543 0.9547 0.9549 0.9547
3595.000000 0.9545 0.9564 0.9541 0.9539 0.9538
3590.000000 0.9536 0.9535 0.9532 0.9531 0.9529
3585.000000 0.9528 0.9527 0.9525 0.9522 0.9520
3580.000000 0.9519 0.9517 0.9516 0.9514 0.9510
3575.000000 0.9504 0.9509 0.9507 0.9501 0.9493
3570.000000 0.9491 0.9488 0.9485 0.9482 0.9479
3565.000000 0.9475 0.9473 0.9470 0.9468 0.9465
3560.000000 0.9462 0.9459 0.9457 0.9453 0.9450
3555.000000 0.9454 0.9443 0.9441 0.9445 0.9441
3550.000000 0.9436 0.9429 0.9432 0.9428 0.9425
3545.000000 0.9417 0.9413 0.9414 0.9411 0.9406
3540.000000 0.9396 0.9392 0.9384 0.9382 0.9379
3535.000000 0.9374 0.9369 0.9363 0.9357 0.9351
3530.000000 0.9344 0.9328 0.9321 0.9316 0.9310
3525.000000 0.9304 0.9298 0.9292 0.9285 0.9279
3520.000000 0.9273 0.9268 0.9263 0.9257 0.9251
3515.000000 0.9244 0.9237 0.9229 0.9221 0.9209
3510.000000 0.9199 0.9188 0.9177 0.9163 0.9153
3505.000000 0.9139 0.9124 0.9104 0.9084 0.9061
3500.000000 0.9040 0.9013 0.8989 0.8961 0.8933
3495.000000 0.8884 0.8836 0.8787 0.8738 0.8684
3490.000000 0.8630 0.8552 0.8476 0.8300 0.8125
3485.000000 0.7916 0.7707 0.7582 0.7457 0.7334
3480.000000 0.7211 0.7087 0.6963 0.6840 0.6717
3475.000000 0.6593 0.6468 0.6429 0.6372 0.6383
3470.000000 0.6377 0.6380 0.6383 0.6391 0.6401
3465.000000 0.6422 0.6443 0.6475 0.6506 0.6575
3460.000000 0.6644 0.6732 0.6819 0.6893 0.6970
3455.000000 0.7034 0.7098 0.7163 0.7229 0.7294
3450.000000 0.7359 0.7423 0.7489 0.7552 0.7618
3445.000000 0.7683 0.7749 0.7814 0.7879 0.7944
3440.000000 0.8009 0.8073 0.8139 0.8204 0.8269
3435.000000 0.8334 0.8397 0.8463 0.8529 0.8593
3430.000000 0.8659 0.8724 0.8789 0.8840 0.8892
3425.000000 0.8898 0.8917 0.8926 0.8934 0.8938
3420.000000 0.8928 0.8945 0.8944 0.8944 0.8940
3415.000000 0.8930 0.8920 0.8905 0.8891 0.8871
3410.000000 0.8852 0.8815 0.8778 0.8729 0.8675
3405.000000 0.8602 0.8536 0.8274 0.8014 0.7781
3400.000000 0.7549 0.7316 0.7084 0.6852 0.6620
3395.000000 0.6383 0.6147 0.6103 0.6060 0.6043
3390.000000 0.5990 0.6022 0.6017 0.6038 0.6061
3385.000000 0.6106 0.6151 0.6235 0.6319 0.6398
3380.000000 0.6480 0.6547 0.6616 0.6683 0.6750
3375.000000 0.6818 0.6885 0.6953 0.7021 0.7088
3370.000000 0.7162 0.7223 0.7290 0.7357 0.7426
3365.000000 0.7492 0.7559 0.7628 0.7695 0.7763
3360.000000 0.7830 0.7897 0.7965 0.8033 0.8100
3355.000000 0.8168 0.8236 0.8302 0.8370 0.8438
3350.000000 0.8506 0.8573 0.8641 0.8700 0.8763
3345.000000 0.8808 0.8849 0.8872 0.8909 0.8922
3340.000000 0.8943 0.8964 0.8993 0.9010 0.9028
3335.000000 0.9034 0.9048 0.9062 0.9077 0.9090
3330.000000 0.9104 0.9118 0.9132 0.9144 0.9157
3325.000000 0.9168 0.9179 0.9190 0.9202 0.9213
3320.000000 0.9224 0.9233 0.9243 0.9251 0.9259
3315.000000 0.9267 0.9276 0.9284 0.9299 0.9306
3310.000000 0.9312 0.9318 0.9323 0.9323 0.9336
3305.000000 0.9343 0.9346 0.9346 0.9352 0.9355
3300.000000 0.9359 0.9364 0.9367 0.9371 0.9376
3295.000000 0.9380 0.9384 0.9387 0.9391 0.9394
3290.000000 0.9397 0.9400 0.9404 0.9408 0.9411
3285.000000 0.9411 0.9411 0.9419 0.9418 0.9411
3280.000000 0.9412 0.9419 0.9417 0.9409 0.9412
3275.000000 0.9416 0.9415 0.9413 0.9412 0.9410
3270.000000 0.9408 0.9406 0.9405 0.9403 0.9401
3265.000000 0.9397 0.9394 0.9389 0.9385 0.9379
3260.000000 0.9375 0.9371 0.9367 0.9362 0.9351
3255.000000 0.9353 0.9349 0.9344 0.9339 0.9334
3250.000000 0.9330 0.9324 0.9321 0.9315 0.9310
3245.000000 0.9301 0.9297 0.9294 0.9288 0.9279
3240.000000 0.9272 0.9266 0.9259 0.9251 0.9243
3235.000000 0.9236 0.9228 0.9221 0.9216 0.9209
3230.000000 0.9201 0.9193 0.9186 0.9175 0.9158
3225.000000 0.9151 0.9149 0.9139 0.9128 0.9117
3220.000000 0.9107 0.9096 0.9085 0.9074 0.9064
3215.000000 0.9052 0.9042 0.9031 0.9020 0.9008
3210.000000 0.8997 0.8984 0.8964 0.8952 0.8940
3205.000000 0.8931 0.8922 0.8914 0.8888 0.8901
3200.000000 0.8899 0.8905 0.8901 0.8906 0.8904
3195.000000 0.8915 0.8920 0.8928 0.8936 0.8944
3190.000000 0.8949 0.8957 0.8971 0.8981 0.8987
3185.000000 0.8994 0.9006 0.9017 0.9028 0.9039
3180.000000 0.9049 0.9057 0.9065 0.9073 0.9082
3175.000000 0.9090 0.9098 0.9106 0.9113 0.9121
3170.000000 0.9129 0.9135 0.9141 0.9147 0.9154
3165.000000 0.9159 0.9168 0.9178 0.9178 0.9183
3160.000000 0.9192 0.9194 0.9190 0.9193 0.9190
3155.000000 0.9188 0.9196 0.9198 0.9199 0.9199
3150.000000 0.9199 0.9198 0.9190 0.9186 0.9183
3145.000000 0.9178 0.9174 0.9167 0.9163 0.9160
3140.000000 0.9161 0.9153 0.9146 0.9139 0.9132
3135.000000 0.9125 0.9119 0.9114 0.9109 0.9103
3130.000000 0.9098 0.9094 0.9091 0.9089 0.9087
3125.000000 0.9084 0.9082 0.9080 0.9079 0.9078
3120.000000 0.9078 0.9077 0.9077 0.9076 0.9076
3115.000000 0.9075 0.9075 0.9073 0.9073 0.9070
3110.000000 0.9069 0.9066 0.9065 0.9067 0.9068
3105.000000 0.9061 0.9055 0.9048 0.9040 0.9033
3100.000000 0.9034 0.9028 0.9022 0.9019 0.9017
3095.000000 0.9015 0.9002 0.8992 0.8980 0.8961
3090.000000 0.8948 0.8925 0.8905 0.8891 0.8878
3085.000000 0.8853 0.8833 0.8816 0.8801 0.8784
3080.000000 0.8768 0.8749 0.8735 0.8724 0.8708
3075.000000 0.8687 0.8674 0.8649 0.8615 0.8587
3070.000000 0.8560 0.8514 0.8486 0.8431 0.8383
3065.000000 0.8308 0.8235 0.8171 0.8114 0.8070
3060.000000 0.8030 0.7974 0.7915 0.7827 0.7739
3055.000000 0.7668 0.7593 0.7517 0.7443 0.7359
3050.000000 0.7273 0.7266 0.7258 0.7255 0.7259
3045.000000 0.7259 0.7268 0.7277 0.7287 0.7297
3040.000000 0.7308 0.7315 0.7322 0.7322 0.7317
3035.000000 0.7311 0.7307 0.7287 0.7267 0.7222
3030.000000 0.7174 0.7114 0.7060 0.6994 0.6929
3025.000000 0.6822 0.6715 0.6585 0.6455 0.6323
3020.000000 0.6192 0.6067 0.5937 0.5805 0.5670
3015.000000 0.5539 0.5408 0.5276 0.5146 0.5015
3010.000000 0.4885 0.4777 0.4651 0.4661 0.4660
3005.000000 0.4757 0.4852 0.4956 0.5059 0.5164
3000.000000 0.5274 0.5379 0.5483 0.5589 0.5695
2995.000000 0.5801 0.5907 0.5977 0.6045 0.6068
2990.000000 0.6090 0.6101 0.6114 0.6108 0.6108
2985.000000 0.6108 0.6108 0.6101 0.6091 0.5989
2980.000000 0.5887 0.5498 0.5103 0.4707 0.4317
2975.000000 0.3923 0.3529 0.3136 0.2743 0.2349
2970.000000 0.1956 0.1563 0.1170 0.0776 0.0383
2965.000000 0.0282 0.0182 0.0096 0.0012 -0.0032
2960.000000 -0.0036 -0.0036 -0.0036 -0.0036 -0.0036
2955.000000 -0.0035 0.0020 0.0231 0.0441 0.0650
2950.000000 0.0861 0.1071 0.1281 0.1490 0.1699
2945.000000 0.1910 0.2121 0.2331 0.2542 0.2751
2940.000000 0.2961 0.3015 0.3079 0.3068 0.3068
2935.000000 0.3005 0.2943 0.2776 0.2610 0.2443
2930.000000 0.2277 0.2109 0.1945 0.1895 0.1847
2925.000000 0.1842 0.1843 0.1843 0.1848 0.1873
2920.000000 0.1898 0.1952 0.2004 0.2128 0.2251
2915.000000 0.2416 0.2581 0.2747 0.2912 0.3077
2910.000000 0.3638 0.3409 0.3576 0.3613 0.3644
2905.000000 0.3642 0.3641 0.3615 0.3590 0.3508
2900.000000 0.3428 0.3347 0.3264 0.3226 0.3176
2895.000000 0.3191 0.3196 0.3203 0.3211 0.3222
2890.000000 0.3235 0.3253 0.3272 0.3297 0.3323
2885.000000 0.3364 0.3406 0.3465 0.3525 0.3582
2880.000000 0.3643 0.3702 0.3846 0.3803 0.3851
2875.000000 0.3767 0.3683 0.3503 0.3321 0.3140
2870.000000 0.2959 0.2777 0.2370 0.2490 0.2384
2865.000000 0.2400 0.2417 0.2580 0.2744 0.2825
2860.000000 0.2907 0.2949 0.2990 0.3157 0.3325
2855.000000 0.3618 0.3908 0.4200 0.4493 0.4786
2850.000000 0.5079 0.5371 0.5666 0.5960 0.6257
2845.000000 0.6529 0.6798 0.6917 0.7045 0.7135
2840.000000 0.7221 0.7314 0.7411 0.7499 0.7584
2835.000000 0.7658 0.7734 0.7792 0.7848 0.7906
2830.000000 0.7963 0.8024 0.8075 0.8132 0.8186
2825.000000 0.8211 0.8247 0.8282 0.8304 0.8331
2820.000000 0.8351 0.8370 0.8383 0.8399 0.8416
2815.000000 0.8430 0.8444 0.8456 0.8467 0.8477
2810.000000 0.8487 0.8497 0.8512 0.8523 0.8530
2805.000000 0.8534 0.8538 0.8541 0.8544 0.8549
2800.000000 0.8554 0.8560 0.8566 0.8579 0.8591
2795.000000 0.8609 0.8628 0.8650 0.8670 0.8687
2790.000000 0.8714 0.8731 0.8753 0.8776 0.8800
2785.000000 0.8823 0.8847 0.8857 0.8867 0.8878
2780.000000 0.8887 0.8890 0.8895 0.8898 0.8901
2775.000000 0.8905 0.8908 0.8911 0.8914 0.8917
2770.000000 0.8920 0.8922 0.8925 0.8927 0.8930
2765.000000 0.8931 0.8933 0.8934 0.8937 0.8938
2760.000000 0.8944 0.8944 0.8944 0.8943 0.8945
2755.000000 0.8945 0.8946 0.8946 0.8947 0.8948
2750.000000 0.8949 0.8950 0.8952 0.8953 0.8954
2745.000000 0.8954 0.8954 0.8954 0.8954 0.8954
2740.000000 0.8954 0.8944 0.8934 0.8912 0.8890
2735.000000 0.8827 0.8763 0.8711 0.8659 0.8618
2730.000000 0.8578 0.8543 0.8508 0.8497 0.8478
2725.000000 0.8487 0.8489 0.8494 0.8500 0.8505
2720.000000 0.8511 0.8519 0.8529 0.8540 0.8551
2715.000000 0.8563 0.8574 0.8590 0.8606 0.8621
2710.000000 0.8638 0.8653 0.8669 0.8686 0.8702
2705.000000 0.8720 0.8737 0.8755 0.8772 0.8792
2700.000000 0.8812 0.8834 0.8856 0.8877 0.8899
2695.000000 0.8918 0.8938 0.8953 0.8969 0.8975
2690.000000 0.8981 0.8982 0.8985 0.8985 0.8988
2685.000000 0.8989 0.8991 0.8992 0.8994 0.8995
2680.000000 0.8997 0.8998 0.8999 0.9000 0.9001
2675.000000 0.9003 0.9004 0.9005 0.9006 0.9007
2670.000000 0.9009 0.9009 0.9009 0.9009 0.9008
2665.000000 0.9007 0.9006 0.9004 0.9003 0.9002
2660.000000 0.9001 0.9000 0.9000 0.9007 0.9006
2655.000000 0.9005 0.9005 0.9004 0.9003 0.8997
2650.000000 0.8992 0.8992 0.8996 0.9000 0.9000
2645.000000 0.8994 0.8991 0.8989 0.8995 0.8991
2640.000000 0.8989 0.8989 0.8989 0.8988 0.8988
2635.000000 0.8985 0.8993 0.8990 0.8988 0.8978
2630.000000 0.8978 0.8983 0.8981 0.8979 0.8978
2625.000000 0.8976 0.8975 0.8973 0.8972 0.8971
2620.000000 0.8970 0.8969 0.8968 0.8967 0.8966
2615.000000 0.8964 0.8963 0.8962 0.8961 0.8960
2610.000000 0.8959 0.8958 0.8957 0.8955 0.8954
2605.000000 0.8953 0.8952 0.8951 0.8949 0.8949
2600.000000 0.8948 0.8944 0.8941 0.8937 0.8934
2595.000000 0.8931 0.8928 0.8916 0.8904 0.8890
2590.000000 0.8876 0.8864 0.8852 0.8842 0.8842
2585.000000 0.8842 0.8851 0.8859 0.8867 0.8874
2580.000000 0.8883 0.8885 0.8887 0.8890 0.8892
2575.000000 0.8894 0.8896 0.8897 0.8900 0.8894
2570.000000 0.8890 0.8884 0.8878 0.8873 0.8869
2565.000000 0.8868 0.8868 0.8867 0.8866 0.8866
2560.000000 0.8866 0.8870 0.8875 0.8879 0.8884
2555.000000 0.8889 0.8894 0.8897 0.8902 0.8904
2550.000000 0.8906 0.8908 0.8910 0.8912 0.8914
2545.000000 0.8915 0.8917 0.8919 0.8921 0.8923
2540.000000 0.8925 0.8929 0.8933 0.8936 0.8940
2535.000000 0.8943 0.8947 0.8950 0.8954 0.8957
2530.000000 0.8961 0.8964 0.8969 0.8972 0.8976
2525.000000 0.8978 0.8980 0.8981 0.8982 0.8983
2520.000000 0.8983 0.8983 0.8983 0.8979 0.8975
2515.000000 0.8971 0.8967 0.8967 0.8967 0.8967
2510.000000 0.8967 0.8967 0.8967 0.8967 0.8968
2505.000000 0.8969 0.8971 0.8974 0.8976 0.8978
2500.000000 0.8980 0.8981 0.8983 0.8983 0.8984
2495.000000 0.8984 0.8983 0.8982 0.8980 0.8972
2490.000000 0.8966 0.8958 0.8951 0.8945 0.8939
2485.000000 0.8935 0.8932 0.8928 0.8924 0.8925
2480.000000 0.8925 0.8922 0.8919 0.8917 0.8915
2475.000000 0.8913 0.8911 0.8909 0.8906 0.8904
2470.000000 0.8901 0.8900 0.8897 0.8896 0.8894
2465.000000 0.8892 0.8890 0.8889 0.8888 0.8886
2460.000000 0.8885 0.8884 0.8879 0.8877 0.8875
2455.000000 0.8869 0.8868 0.8873 0.8874 0.8872
2450.000000 0.8865 0.8868 0.8868 0.8867 0.8866
2445.000000 0.8864 0.8863 0.8862 0.8861 0.8860
2440.000000 0.8859 0.8858 0.8857 0.8856 0.8855
2435.000000 0.8853 0.8853 0.8852 0.8850 0.8848
2430.000000 0.8847 0.8845 0.8845 0.8845 0.8844
2425.000000 0.8842 0.8842 0.8842 0.8841 0.8840
2420.000000 0.8840 0.8839 0.8838 0.8837 0.8836
2415.000000 0.8834 0.8833 0.8831 0.8830 0.8828
2410.000000 0.8827 0.8827 0.8829 0.8824 0.8829
2405.000000 0.8826 0.8824 0.8820 0.8818 0.8815
2400.000000 0.8813 0.8809 0.8808 0.8805 0.8802
2395.000000 0.8799 0.8798 0.8795 0.8793 0.8790
2390.000000 0.8788 0.8795 0.8794 0.8792 0.8791
2385.000000 0.8791 0.8797 0.8795 0.8796 0.8802
2380.000000 0.8802 0.8806 0.8812 0.8817 0.8823
2375.000000 0.8826 0.8833 0.8841 0.8845 0.8859
2370.000000 0.8875 0.8883 0.8895 0.8906 0.8917
2365.000000 0.8925 0.8933 0.8941 0.8951 0.8958
2360.000000 0.8974 0.8980 0.8993 0.8999 0.9013
2355.000000 0.9022 0.9025 0.9015 0.9005 0.8987
2350.000000 0.8968 0.8951 0.8940 0.8939 0.8933
2345.000000 0.8930 0.8922 0.8917 0.8916 0.8914
2340.000000 0.8913 0.8903 0.8909 0.8906 0.8895
2335.000000 0.8891 0.8896 0.8892 0.8888 0.8885
2330.000000 0.8888 0.8880 0.8874 0.8867 0.8864
2325.000000 0.8857 0.8853 0.8844 0.8834 0.8823
2320.000000 0.8813 0.8801 0.8790 0.8778 0.8767
2315.000000 0.8755 0.8745 0.8735 0.8726 0.8716
2310.000000 0.8706 0.8697 0.8687 0.8679 0.8671
2305.000000 0.8664 0.8658 0.8651 0.8645 0.8637
2300.000000 0.8632 0.8629 0.8628 0.8623 0.8618
2295.000000 0.8613 0.8609 0.8604 0.8600 0.8593
2290.000000 0.8590 0.8585 0.8575 0.8571 0.8568
2285.000000 0.8566 0.8553 0.8555 0.8553 0.8551
2280.000000 0.8550 0.8547 0.8539 0.8537 0.8534
2275.000000 0.8525 0.8525 0.8525 0.8524 0.8521
2270.000000 0.8526 0.8525 0.8525 0.8528 0.8532
2265.000000 0.8531 0.8531 0.8534 0.8536 0.8534
2260.000000 0.8536 0.8539 0.8537 0.8539 0.8543
2255.000000 0.8546 0.8542 0.8545 0.8550 0.8552
2250.000000 0.8548 0.8550 0.8553 0.8555 0.8558
2245.000000 0.8556 0.8555 0.8557 0.8558 0.8561
2240.000000 0.8564 0.8566 0.8569 0.8572 0.8575
2235.000000 0.8571 0.8572 0.8575 0.8578 0.8581
2230.000000 0.8584 0.8587 0.8590 0.8593 0.8596
2225.000000 0.8598 0.8601 0.8604 0.8604 0.8600
2220.000000 0.8602 0.8604 0.8606 0.8608 0.8610
2215.000000 0.8611 0.8613 0.8615 0.8617 0.8618
2210.000000 0.8620 0.8620 0.8621 0.8621 0.8622
2205.000000 0.8622 0.8623 0.8623 0.8624 0.8624
2200.000000 0.8625 0.8625 0.8625 0.8625 0.8625
2195.000000 0.8620 0.8628 0.8626 0.8621 0.8621
2190.000000 0.8622 0.8622 0.8623 0.8624 0.8625
2185.000000 0.8625 0.8630 0.8628 0.8626 0.8626
2180.000000 0.8626 0.8626 0.8633 0.8634 0.8634
2175.000000 0.8634 0.8634 0.8634 0.8636 0.8636
2170.000000 0.8637 0.8636 0.8631 0.8631 0.8632
2165.000000 0.8632 0.8633 0.8633 0.8633 0.8635
2160.000000 0.8636 0.8636 0.8638 0.8639 0.8640
2155.000000 0.8641 0.8642 0.8643 0.8644 0.8646
2150.000000 0.8648 0.8648 0.8648 0.8643 0.8639
2145.000000 0.8633 0.8626 0.8618 0.8609 0.8599
2140.000000 0.8589 0.8582 0.8576 0.8570 0.8565
2135.000000 0.8560 0.8556 0.8554 0.8553 0.8551
2130.000000 0.8550 0.8549 0.8549 0.8551 0.8554
2125.000000 0.8556 0.8559 0.8561 0.8556 0.8564
2120.000000 0.8568 0.8570 0.8573 0.8574 0.8577
2115.000000 0.8581 0.8587 0.8591 0.8595 0.8599
2110.000000 0.8603 0.8607 0.8611 0.8613 0.8615
2105.000000 0.8616 0.8618 0.8620 0.8623 0.8624
2100.000000 0.8626 0.8626 0.8623 0.8623 0.8631
2095.000000 0.8633 0.8629 0.8635 0.8638 0.8639
2090.000000 0.8641 0.8642 0.8643 0.8644 0.8645
2085.000000 0.8646 0.8680 0.8649 0.8650 0.8650
2080.000000 0.8650 0.8650 0.8650 0.8650 0.8650
2075.000000 0.8650 0.8650 0.8649 0.8649 0.8649
2070.000000 0.8649 0.8649 0.8649 0.8648 0.8648
2065.000000 0.8648 0.8648 0.8648 0.8648 0.8648
2060.000000 0.8648 0.8648 0.8648 0.8650 0.8656
2055.000000 0.8656 0.8656 0.8656 0.8653 0.8652
2050.000000 0.8656 0.8652 0.8648 0.8648 0.8648
2045.000000 0.8648 0.8648 0.8648 0.8648 0.8648
2040.000000 0.8648 0.8648 0.8648 0.8647 0.8647
2035.000000 0.8646 0.8646 0.8645 0.8645 0.8644
2030.000000 0.8644 0.8643 0.8645 0.8649 0.8645
2025.000000 0.8649 0.8656 0.8657 0.8658 0.8658
2020.000000 0.8659 0.8659 0.8659 0.8659 0.8659
2015.000000 0.8659 0.8660 0.8660 0.8660 0.8660
2010.000000 0.8661 0.8662 0.8663 0.8664 0.8665
2005.000000 0.8666 0.8667 0.8675 0.8684 0.8706
2000.000000 0.8728 0.8746 0.8761 0.8770 0.8779
1995.000000 0.8789 0.8788 0.8788 0.8788 0.8784
1990.000000 0.8779 0.8764 0.8735 0.8669 0.8563
1985.000000 0.8453 0.8360 0.8277 0.8154 0.8057
1980.000000 0.7959 0.7861 0.7805 0.7781 0.7752
1975.000000 0.7685 0.7691 0.7683 0.7681 0.7703
1970.000000 0.7738 0.7784 0.7848 0.7935 0.8041
1965.000000 0.8124 0.8193 0.8237 0.8270 0.8292
1960.000000 0.8303 0.8308 0.8307 0.8305 0.8286
1955.000000 0.8267 0.8240 0.8228 0.8230 0.8247
1950.000000 0.8273 0.8299 0.8332 0.8367 0.8402
1945.000000 0.8442 0.8483 0.8525 0.8568 0.8599
1940.000000 0.8620 0.8636 0.8644 0.8651 0.8658
1935.000000 0.8659 0.8659 0.8659 0.8659 0.8659
1930.000000 0.8659 0.8661 0.8662 0.8664 0.8671
1925.000000 0.8677 0.8684 0.8697 0.8712 0.8729
1920.000000 0.8753 0.8760 0.8763 0.8764 0.8753
1915.000000 0.8742 0.8713 0.8687 0.8664 0.8643
1910.000000 0.8625 0.8610 0.8610 0.8626 0.8644
1905.000000 0.8685 0.8725 0.8768 0.8812 0.8856
1900.000000 0.8900 0.8941 0.8983 0.9019 0.9055
1895.000000 0.9091 0.9117 0.9143 0.9170 0.9192
1890.000000 0.9211 0.9234 0.9256 0.9279 0.9290
1885.000000 0.9302 0.9311 0.9315 0.9319 0.9317
1880.000000 0.9316 0.9314 0.9306 0.9297 0.9288
1875.000000 0.9281 0.9265 0.9250 0.9236 0.9220
1870.000000 0.9204 0.9184 0.9165 0.9145 0.9126
1865.000000 0.9102 0.9076 0.9050 0.9023 0.8990
1860.000000 0.8958 0.8924 0.8865 0.8905 0.8904
1855.000000 0.8917 0.8944 0.8973 0.9002 0.9039
1850.000000 0.9081 0.9123 0.9150 0.9178 0.9205
1845.000000 0.9231 0.9256 0.9280 0.9301 0.9314
1840.000000 0.9328 0.9340 0.9341 0.9342 0.9338
1835.000000 0.9329 0.9323 0.9310 0.9296 0.9282
1830.000000 0.9275 0.9268 0.9263 0.9262 0.9259
1825.000000 0.9265 0.9275 0.9285 0.9296 0.9307
1820.000000 0.9316 0.9335 0.9344 0.9349 0.9347
1815.000000 0.9344 0.9342 0.9342 0.9342 0.9345
1810.000000 0.9349 0.9348 0.9346 0.9349 0.9352
1805.000000 0.9355 0.9354 0.9353 0.9356 0.9360
1800.000000 0.9363 0.9368 0.9371 0.9376 0.9379
1795.000000 0.9385 0.9389 0.9394 0.9398 0.9403
1790.000000 0.9408 0.9413 0.9416 0.9419 0.9422
1785.000000 0.9425 0.9427 0.9430 0.9433 0.9436
1780.000000 0.9439 0.9442 0.9445 0.9448 0.9446
1775.000000 0.9446 0.9448 0.9450 0.9452 0.9454
1770.000000 0.9455 0.9457 0.9458 0.9458 0.9459
1765.000000 0.9459 0.9459 0.9458 0.9455 0.9437
1760.000000 0.9448 0.9444 0.9444 0.9437 0.9429
1755.000000 0.9422 0.9412 0.9401 0.9391 0.9381
1750.000000 0.9368 0.9359 0.9349 0.9338 0.9327
1745.000000 0.9317 0.9309 0.9295 0.9281 0.9266
1740.000000 0.9254 0.9240 0.9226 0.9212 0.9196
1735.000000 0.9180 0.9166 0.9155 0.9143 0.9134
1730.000000 0.9139 0.9142 0.9149 0.9155 0.9148
1725.000000 0.9135 0.9120 0.9105 0.9091 0.9076
1720.000000 0.9061 0.9043 0.9025 0.9008 0.8991
1715.000000 0.8975 0.8961 0.8945 0.8928 0.8910
1710.000000 0.8892 0.8870 0.8849 0.8827 0.8802
1705.000000 0.8778 0.8758 0.8744 0.8732 0.8728
1700.000000 0.8724 0.8724 0.8724 0.8733 0.8751
1695.000000 0.8771 0.8785 0.8800 0.8815 0.8819
1690.000000 0.8786 0.8757 0.8739 0.8723 0.8707
1685.000000 0.8698 0.8690 0.8684 0.8684 0.8700
1680.000000 0.8736 0.8780 0.8833 0.8901 0.8939
1675.000000 0.8921 0.8893 0.8873 0.8870 0.8873
1670.000000 0.8874 0.8880 0.8886 0.8874 0.8859
1665.000000 0.8844 0.8801 0.8758 0.8718 0.8679
1660.000000 0.8642 0.8592 0.8546 0.8489 0.8423
1655.000000 0.8359 0.8300 0.8268 0.8230 0.8200
1650.000000 0.8163 0.8119 0.8023 0.7673 0.7560
1645.000000 0.7488 0.7425 0.7337 0.7161 0.6840
1640.000000 0.6516 0.6192 0.5871 0.5548 0.5228
1635.000000 0.4904 0.4578 0.4258 0.3933 0.3611
1630.000000 0.3286 0.2964 0.2637 0.2314 0.1988
1625.000000 0.1661 0.1435 0.0912 0.0692 0.0526
1620.000000 0.0460 0.0495 0.0513 0.0562 0.0639
1615.000000 0.0730 0.0826 0.0960 0.1090 0.1211
1610.000000 0.1372 0.1540 0.1746 0.1950 0.2161
1605.000000 0.2367 0.2584 0.2799 0.3019 0.3233
1600.000000 0.3461 0.3687 0.3921 0.4152 0.4387
1595.000000 0.4615 0.4847 0.5055 0.5126 0.5195
1590.000000 0.5242 0.5306 0.5311 0.5289 0.5182
1585.000000 0.5058 0.4709 0.4300 0.3875 0.3453
1580.000000 0.3026 0.2598 0.2419 0.2438 0.2455
1575.000000 0.2589 0.2727 0.2863 0.2999 0.3142
1570.000000 0.3280 0.3424 0.3568 0.3721 0.3875
1565.000000 0.4037 0.4201 0.4370 0.4535 0.4709
1560.000000 0.4899 0.5092 0.5283 0.5466 0.5654
1555.000000 0.5789 0.5873 0.5932 0.5981 0.6016
1550.000000 0.5995 0.5964 0.5937 0.5920 0.5902
1545.000000 0.5882 0.5875 0.5861 0.5843 0.5829
1540.000000 0.5820 0.5810 0.5845 0.5849 0.5874
1535.000000 0.5912 0.5935 0.5958 0.5984 0.6008
1530.000000 0.6038 0.6074 0.6112 0.6026 0.5930
1525.000000 0.5751 0.5546 0.5290 0.4734 0.4339
1520.000000 0.3950 0.3563 0.3177 0.2797 0.2418
1515.000000 0.2040 0.1797 0.1802 0.1770 0.1801
1510.000000 0.1900 0.2120 0.2368 0.2613 0.2858
1505.000000 0.3099 0.3341 0.3581 0.3818 0.4056
1500.000000 0.4294 0.4529 0.4619 0.4683 0.4737
1495.000000 0.4791 0.4836 0.4885 0.4940 0.4999
1490.000000 0.5060 0.5146 0.5353 0.5561 0.5772
1485.000000 0.5984 0.6196 0.6415 0.6639 0.6861
1480.000000 0.6936 0.6948 0.6954 0.6954 0.6960
1475.000000 0.6948 0.6928 0.6906 0.6859 0.6801
1470.000000 0.6664 0.6512 0.6340 0.5614 0.4928
1465.000000 0.4248 0.3565 0.2885 0.2556 0.2479
1460.000000 0.2423 0.2359 0.1653 0.1472 0.1426
1455.000000 0.1491 0.1641 0.2044 0.2446 0.2848
1450.000000 0.3249 0.3647 0.4000 0.4039 0.4072
1445.000000 0.4103 0.4134 0.4165 0.4220 0.4283
1440.000000 0.4384 0.4531 0.4676 0.4823 0.4969
1435.000000 0.5115 0.5357 0.5361 0.5367 0.5238
1430.000000 0.4730 0.4222 0.3711 0.3203 0.2695
1425.000000 0.2187 0.2079 0.2080 0.2312 0.2806
1420.000000 0.3300 0.3793 0.4288 0.4781 0.5271
1415.000000 0.5764 0.6115 0.6305 0.6498 0.6712
1410.000000 0.6959 0.7154 0.7339 0.7519 0.7663
1405.000000 0.7770 0.7856 0.7918 0.7972 0.8009
1400.000000 0.8047 0.8078 0.8095 0.8111 0.8117
1395.000000 0.8122 0.8124 0.8124 0.8121 0.8110
1390.000000 0.8100 0.8094 0.8071 0.8061 0.8053
1385.000000 0.8026 0.7982 0.7875 0.7704 0.7134
1380.000000 0.5880 0.5856 0.6044 0.6388 0.6733
1375.000000 0.6866 0.6988 0.7167 0.7374 0.7579
1370.000000 0.7784 0.7990 0.8185 0.8179 0.8170
1365.000000 0.8145 0.8097 0.8031 0.7932 0.6839
1360.000000 0.5625 0.5613 0.6079 0.6530 0.6975
1355.000000 0.7425 0.7864 0.7963 0.8026 0.8073
1350.000000 0.8093 0.8105 0.8112 0.8099 0.8082
1345.000000 0.8050 0.7979 0.7851 0.7597 0.7423
1340.000000 0.7300 0.7172 0.7140 0.7118 0.7097
1335.000000 0.7068 0.7035 0.6986 0.6885 0.6638
1330.000000 0.6658 0.6653 0.6655 0.6894 0.7091
1325.000000 0.7294 0.7449 0.7600 0.7685 0.7745
1320.000000 0.7749 0.7764 0.7741 0.7712 0.7657
1315.000000 0.7571 0.7228 0.6859 0.6661 0.6324
1310.000000 0.5986 0.5650 0.5311 0.4975 0.4637
1305.000000 0.4300 0.4285 0.4263 0.4320 0.4470
1300.000000 0.4621 0.4823 0.4831 0.4802 0.4750
1295.000000 0.4699 0.4687 0.4682 0.4682 0.4699
1290.000000 0.4750 0.4829 0.4941 0.5064 0.5254
1285.000000 0.5380 0.5455 0.5533 0.5681 0.5880
1280.000000 0.6078 0.6278 0.6495 0.6267 0.5998
1275.000000 0.5723 0.5449 0.5165 0.5200 0.5338
1270.000000 0.5509 0.5681 0.5852 0.6026 0.6166
1265.000000 0.6185 0.6199 0.6211 0.6157 0.5871
1260.000000 0.5586 0.5303 0.5261 0.5281 0.5303
1255.000000 0.5362 0.5604 0.5913 0.6226 0.6539
1250.000000 0.6852 0.7165 0.7479 0.7792 0.8106
1245.000000 0.8212 0.8293 0.8383 0.8466 0.8547
1240.000000 0.8627 0.8710 0.8786 0.8836 0.8886
1235.000000 0.8924 0.8953 0.8985 0.9019 0.9038
1230.000000 0.9058 0.9076 0.9095 0.9115 0.9136
1225.000000 0.9156 0.9178 0.9194 0.9210 0.9224
1220.000000 0.9237 0.9241 0.9265 0.9249 0.9247
1215.000000 0.9243 0.9210 0.9181 0.9147 0.9090
1210.000000 0.9035 0.8533 0.8763 0.8625 0.8602
1205.000000 0.8656 0.8724 0.8796 0.8893 0.8985
1200.000000 0.9051 0.9111 0.9141 0.9178 0.9207
1195.000000 0.9226 0.9245 0.9265 0.9275 0.9290
1190.000000 0.9280 0.9281 0.9269 0.9244 0.9204
1185.000000 0.9146 0.9089 0.8403 0.8156 0.8008
1180.000000 0.7820 0.7749 0.7781 0.7830 0.7929
1175.000000 0.8045 0.8197 0.8429 0.8597 0.8737
1170.000000 0.8826 0.8899 0.8953 0.8983 0.8991
1165.000000 0.8998 0.9004 0.9025 0.9011 0.9009
1160.000000 0.8988 0.8967 0.8921 0.8870 0.8828
1155.000000 0.8786 0.8731 0.8652 0.8538 0.8353
1150.000000 0.8106 0.7957 0.7788 0.7631 0.7484
1145.000000 0.7360 0.7299 0.7261 0.7267 0.7288
1140.000000 0.7364 0.7505 0.7654 0.8153 0.8175
1135.000000 0.8205 0.8232 0.8254 0.8309 0.8368
1130.000000 0.8428 0.8491 0.8552 0.8615 0.8676
1125.000000 0.8732 0.8767 0.8803 0.8838 0.8866
1120.000000 0.8892 0.8918 0.8939 0.8955 0.8978
1115.000000 0.8997 0.9012 0.9023 0.9037 0.9050
1110.000000 0.9093 0.9057 0.9027 0.9007 0.8957
1105.000000 0.8889 0.8819 0.8752 0.8685 0.8620
1100.000000 0.8578 0.8542 0.8533 0.8524 0.8498
1095.000000 0.8510 0.8507 0.8514 0.8544 0.8597
1090.000000 0.8650 0.8699 0.8749 0.8797 0.8840
1085.000000 0.8870 0.8899 0.8928 0.8957 0.8976
1080.000000 0.9001 0.9024 0.9043 0.9061 0.9075
1075.000000 0.9067 0.9089 0.9098 0.9069 0.9035
1070.000000 0.8966 0.8897 0.8821 0.8744 0.8679
1065.000000 0.8623 0.8584 0.8568 0.8561 0.8561
1060.000000 0.8581 0.8595 0.8630 0.8650 0.8635
1055.000000 0.8597 0.8471 0.8226 0.7900 0.7577
1050.000000 0.7256 0.6931 0.6626 0.6615 0.6596
1045.000000 0.6681 0.6784 0.6888 0.6991 0.7255
1040.000000 0.7503 0.7751 0.7999 0.8248 0.8469
1035.000000 0.8557 0.8627 0.8691 0.8717 0.8736
1030.000000 0.8719 0.8696 0.8597 0.8469 0.8340
1025.000000 0.8205 0.8083 0.8118 0.8115 0.8248
1020.000000 0.8413 0.8580 0.8745 0.8840 0.8897
1015.000000 0.8946 0.8982 0.9018 0.9044 0.9067
1010.000000 0.9092 0.9108 0.9116 0.9136 0.9137
1005.000000 0.9137 0.9132 0.9118 0.9105 0.9082
1000.000000 0.9047 0.9011 0.8921 0.8780 0.8615
995.000000 0.8377 0.7760 0.6870 0.5983 0.5096
990.000000 0.4206 0.3590 0.3830 0.4392 0.4954
985.000000 0.5515 0.6077 0.6638 0.7199 0.7760
980.000000 0.8142 0.8324 0.8457 0.8588 0.8706
975.000000 0.8822 0.8925 0.9013 0.9068 0.9126
970.000000 0.9157 0.9188 0.9213 0.9230 0.9247
965.000000 0.9261 0.9271 0.9281 0.9288 0.9292
960.000000 0.9312 0.9298 0.9297 0.9297 0.9293
955.000000 0.9288 0.9278 0.9261 0.9243 0.9225
950.000000 0.9197 0.9168 0.9139 0.9106 0.9074
945.000000 0.9021 0.8954 0.8855 0.8704 0.8517
940.000000 0.8332 0.8148 0.8021 0.7965 0.7938
935.000000 0.7924 0.7906 0.7881 0.7679 0.7729
930.000000 0.7720 0.7782 0.7872 0.7967 0.8063
925.000000 0.8160 0.8258 0.8362 0.8469 0.8566
920.000000 0.8646 0.8681 0.8702 0.8704 0.8713
915.000000 0.8703 0.8628 0.8549 0.8526 0.8525
910.000000 0.8526 0.8561 0.8766 0.8871 0.8948
905.000000 0.9007 0.9046 0.9071 0.9100 0.9114
900.000000 0.9132 0.9143 0.9125 0.9154 0.9159
895.000000 0.9151 0.9153 0.9137 0.9129 0.9118
890.000000 0.9093 0.9068 0.9046 0.9021 0.8987
885.000000 0.8950 0.8917 0.8844 0.8764 0.8669
880.000000 0.8537 0.8420 0.8342 0.8266 0.8185
875.000000 0.8099 0.8014 0.7925 0.7833 0.7740
870.000000 0.7616 0.7441 0.7082 0.6849 0.6748
865.000000 0.6655 0.6601 0.6547 0.6361 0.6104
860.000000 0.5749 0.5229 0.4705 0.4177 0.3645
855.000000 0.3111 0.2575 0.2434 0.2424 0.2412
850.000000 0.2421 0.2611 0.3144 0.3668 0.4186
845.000000 0.4703 0.5209 0.5716 0.6218 0.6713
840.000000 0.7214 0.7717 0.7957 0.8045 0.8149
835.000000 0.8240 0.8285 0.8327 0.8354 0.8373
830.000000 0.8394 0.8413 0.8428 0.8493 0.8457
825.000000 0.8469 0.8469 0.8454 0.8430 0.8393
820.000000 0.8344 0.8297 0.8236 0.8143 0.8057
815.000000 0.7943 0.7825 0.7603 0.7281 0.6783
810.000000 0.6539 0.6342 0.6113 0.5332 0.4537
805.000000 0.3743 0.2945 0.2149 0.1351 0.0659
800.000000 0.0666 0.0684 0.1266 0.2034 0.2801
795.000000 0.3569 0.4334 0.5099 0.5866 0.6637
790.000000 0.7120 0.7340 0.7545 0.7641 0.7706
785.000000 0.7757 0.7805 0.7847 0.7878 0.7912
780.000000 0.7941 0.7974 0.7991 0.8004 0.8023
775.000000 0.8040 0.8048 0.8051 0.8054 0.8055
770.000000 0.8058 0.8053 0.8050 0.8050 0.8050
765.000000 0.8041 0.8030 0.8021 0.8011 0.7999
760.000000 0.7984 0.7970 0.7956 0.7944 0.7931
755.000000 0.7919 0.7907 0.7903 0.7892 0.7881
750.000000 0.7870 0.7858 0.7844 0.7834 0.7822
745.000000 0.7807 0.7793 0.7779 0.7765 0.7751
740.000000 0.7738 0.7724 0.7712 0.7700 0.7690
735.000000 0.7678 0.7668 0.7658 0.7645 0.7632
730.000000 0.7625 0.7612 0.7598 0.7584 0.7571
725.000000 0.7561 0.7543 0.7523 0.7504 0.7484
720.000000 0.7437 0.7375 0.7275 0.7102 0.6947
715.000000 0.6809 0.6241 0.5600 0.5513 0.5537
710.000000 0.5605 0.5721 0.5900 0.6079 0.6257
705.000000 0.6436 0.6532 0.6567 0.6589 0.6608
700.000000 0.6630 0.6640 0.6651 0.6663 0.6671
695.000000 0.6680 0.6691 0.6695 0.6698 0.6707
690.000000 0.6716 0.6723 0.6733 0.6735 0.6735
685.000000 0.6742 0.6731 0.6724 0.6704 0.6686
680.000000 0.6668 0.6644 0.6630 0.6614 0.6604
675.000000 0.6585 0.6550 0.6520 0.6487 0.6497
670.000000 0.6549 0.6618 0.6649 0.6611 0.6567
665.000000 0.6562 0.6573 0.6581 0.6586 0.6581
660.000000 0.6561 0.6528 0.6483 0.6442 0.6286
655.000000 0.6183 0.6063 0.5972 0.5885 0.5824
650.000000 0.5789 0.5768 0.5752 0.5736 0.5715
645.000000 0.5692 0.5653 0.5605 0.5511 0.5415
640.000000 0.5318 0.5224 0.5128 0.5032 0.4942
635.000000 0.4851 0.4755 0.4619 0.4630 0.4627
630.000000 0.4642 0.4877 0.5112 0.5349 0.5583
625.000000 0.5820 0.6059 0.6291 0.6529 0.6741
620.000000 0.6837 0.6887 0.6927 0.6951 0.7007
615.000000 0.6974 0.6981 0.6978 0.6971 0.6964
610.000000 0.6958 0.6945 0.6928 0.6905 0.6885
605.000000 0.6868 0.6845 0.6822 0.6798 0.6776
600.000000 0.6753 0.6731 0.6709 0.6688 0.6667
595.000000 0.6644 0.6624 0.6601 0.6581 0.6560
590.000000 0.6539 0.6521 0.6503 0.6485 0.6468
585.000000 0.6453 0.6459 0.6473 0.6487 0.6507
580.000000 0.6526 0.6544 0.6565 0.6585 0.6607
575.000000 0.6631 0.6660 0.6681 0.6699 0.6716
570.000000 0.6728 0.6728 0.6727 0.6668 0.6604
565.000000 0.6542 0.6485 0.6429 0.6393 0.6358
560.000000 0.6338 0.6321 0.6304 0.6296 0.6285
555.000000 0.6279 0.6273 0.6273 0.6266 0.6267
550.000000 0.6265 0.6264 0.6262 0.6255 0.6245
545.000000 0.6236 0.6224 0.6203 0.6183 0.6154
540.000000 0.6122 0.6081 0.6046 0.6017 0.5998
535.000000 0.5993 0.5990 0.5992 0.5939 0.5986
530.000000 0.5983 0.5980 0.5977 0.5974 0.5973
525.000000 0.5973 0.5973 0.5975 0.5977 0.5980
520.000000 0.5982 0.5984 0.5986 0.5988 0.5992
515.000000 0.6001 0.6010 0.6019 0.6027 0.6038
510.000000 0.6048 0.6062 0.6077 0.6091 0.6106
505.000000 0.6121 0.6135 0.6150 0.6165 0.6179
500.000000 0.6194 0.6207 0.6221 0.6235 0.6249
495.000000 0.6262 0.6277 0.6290 0.6304 0.6318
490.000000 0.6334 0.6357 0.6377 0.6399 0.6420
485.000000 0.6441 0.6464 0.6487 0.6511 0.6534
480.000000 0.6554 0.6568 0.6583 0.6597 0.6608
475.000000 0.6618 0.6630 0.6641 0.6650 0.6656
470.000000 0.6656 0.6656 0.6656 0.6642 0.6628
465.000000 0.6613 0.6580 0.6543 0.6473 0.6324
460.000000 0.6079 0.5834 0.5588 0.5343 0.5098
455.000000 0.4946 0.4828 0.4887 0.4871 0.4866
450.000000 0.4877 0.4926 0.4992 0.5061 0.5133
445.000000 0.5216 0.5266 0.5315 0.5365 0.5415
440.000000 0.5463 0.5512 0.5563 0.5613 0.5662
435.000000 0.5711 0.5761 0.5811 0.5860 0.5894
430.000000 0.5909 0.5925 0.5941 0.5951 0.5958
425.000000 0.5965 0.5972 0.5978 0.5984 0.5961
420.000000 0.5997 0.5997 0.5995 0.5992 0.5990
415.000000 0.5982 0.5974 0.5967 0.5953 0.5937
410.000000 0.5922 0.5903 0.5878 0.5853 0.5827
405.000000 0.5794 0.5757 0.5720 0.5680 0.5623
400.000000 0.5539 0.5468 0.5423 0.5390 0.5354
395.000000 0.5301 0.5247 0.5199 0.5151 0.5103
390.000000 0.5057 0.5006 0.4958 0.4917 0.4872
385.000000 0.4812 0.4726
##END=
