##TITLE=3-Ethoxy-4-hydroxyphenylacetonitrile
##JCAMP-DX=4.24
##DATA TYPE=INFRARED SPECTRUM
##ORIGIN=EPA-IR VAPOR PHASE LIBRARY
##OWNER=SRD/NIST
Collection (C) 2018 copyright by the U.S. Secretary of Commerce
on behalf of the United States of America. All rights reserved.
##CAS REGISTRY NO=205748-01-2
##MOLFORM=C 10 H 11 N O 2
##$NIST SOURCE=MSDC-IR
##STATE=gas
##XUNITS=1/CM
##YUNITS=ABSORBANCE
##XFACTOR=1.
##YFACTOR=0.001
##DELTAX=1.92898
##FIRSTX=549.8
##LASTX=4000.7
##FIRSTY=3.098
##MAXX=4000.7
##MINX=549.759
##MAXY=0.124108
##MINY=0
##NPOINTS=1790
##XYDATA=(X++(Y..Y))
549.759 3.098 3.098 3.378 3.608 3.208 3.478 3.628 3.298 3.328 3.308
569.049 3.408 3.658 3.788 3.688 3.718 3.848 3.488 3.508 4.048 4.118
588.339 4.038 4.148 4.228 4.298 4.298 4.108 4.058 4.108 4.048 4.038
607.628 3.978 3.748 3.458 3.278 3.108 3.118 3.178 3.228 3.218 3.048
626.918 3.028 3.018 2.828 2.578 2.438 2.358 2.238 1.898 1.888 1.808
646.208 1.448 1.428 1.538 1.518 1.348 1.248 1.328 1.428 1.328 1.1956
665.498 1.268 1.1829 1.1248 1.238 1.288 1.338 1.358 1.468 1.558 1.598
684.787 1.728 1.648 1.658 1.728 1.768 1.968 2.048 1.948 1.828 1.958
704.077 2.118 2.358 2.488 2.608 2.808 2.888 2.978 3.048 3.088 3.338
723.367 3.648 3.818 4.068 4.028 3.998 4.068 4.208 4.368 4.258 4.278
742.657 4.268 3.938 3.968 3.948 3.808 3.998 4.208 4.208 3.858 3.968
761.947 4.158 4.328 4.658 4.678 5.108 5.898 6.328 7.158 7.938 8.828
781.236 10.168 11.388 12.578 13.408 14.298 15.688 16.908 17.698 18.698 19.968
800.526 21.008 21.708 22.268 22.778 23.308 23.428 22.958 21.918 20.248 18.418
819.816 16.298 14.018 12.088 10.278 8.818 7.968 7.268 6.868 6.608 6.198
839.106 6.128 6.378 6.688 6.988 7.148 7.178 7.128 7.028 7.038 6.928
858.395 6.718 6.688 6.778 6.628 6.488 6.278 6.188 6.068 5.718 5.678
877.685 5.698 5.618 5.498 5.448 5.298 4.988 4.858 4.708 4.488 4.448
896.975 4.498 4.388 4.338 4.508 4.638 4.628 4.638 5.068 5.378 5.508
916.265 5.898 6.168 6.298 6.348 6.228 6.178 6.158 5.978 5.678 5.458
935.555 5.298 4.948 4.568 4.408 4.408 4.458 4.338 4.598 5.058 5.378
954.844 5.798 6.298 6.908 7.398 8.028 8.648 9.098 9.368 9.588 9.608
974.134 9.218 8.648 8.148 7.578 6.748 6.048 5.428 4.938 4.608 4.428
993.424 4.458 4.418 4.488 4.588 4.688 5.128 5.858 6.548 7.398 8.208
1012.714 9.108 10.538 12.058 14.098 16.548 18.868 21.448 23.948 26.628 29.418
1032.003 31.768 33.658 35.038 35.768 35.038 33.628 31.998 29.488 27.198 24.958
1051.293 22.008 19.068 16.688 14.748 12.778 11.378 10.308 9.168 8.558 7.918
1070.583 7.218 7.248 7.198 6.998 7.208 7.668 7.818 8.118 8.368 8.128
1089.873 7.888 7.608 7.598 7.538 7.668 8.638 10.018 11.238 12.718 14.688
1109.163 17.248 20.078 23.368 26.828 30.048 32.928 34.578 35.188 35.328 34.588
1128.452 32.968 31.358 30.348 29.668 29.548 30.298 31.078 32.498 33.828 34.588
1147.742 34.918 34.158 32.878 31.308 29.878 28.458 26.668 25.168 24.048 23.298
1167.032 22.668 21.748 21.408 21.328 21.278 21.258 21.428 21.878 22.388 23.538
1186.322 25.328 26.958 28.168 30.308 32.498 33.758 35.428 36.408 35.828 35.528
1205.611 34.668 33.138 31.938 30.638 29.938 29.828 30.508 32.418 35.318 39.168
1224.901 43.828 48.948 54.058 59.438 64.478 68.228 70.908 72.278 72.088 70.678
1244.191 68.218 64.838 61.218 58.268 56.628 56.418 57.978 61.508 66.828 73.758
1263.481 81.908 90.488 98.878 106.248 111.058 112.528 110.468 105.148 96.678 85.788
1282.771 73.958 62.388 52.128 43.708 37.078 31.998 28.318 25.488 23.198 21.508
1302.060 20.358 19.408 18.658 18.108 17.518 16.788 16.028 15.218 14.308 13.368
1321.350 12.448 11.638 10.968 10.498 10.188 10.048 10.178 10.478 10.858 11.428
1340.640 12.228 13.168 14.288 15.588 16.888 18.148 19.308 20.198 20.858 21.298
1359.930 21.508 21.558 21.528 21.508 21.608 21.888 22.428 23.018 23.398 23.608
1379.219 23.638 23.408 22.908 22.178 21.218 20.068 18.968 18.078 17.378 16.788
1398.509 16.278 15.718 15.048 14.408 13.748 13.018 12.388 11.898 11.578 11.618
1417.799 12.088 13.028 14.518 16.488 18.748 21.428 24.618 27.978 31.258 33.758
1437.089 35.048 35.188 34.228 32.208 29.168 25.198 20.858 17.018 14.128 12.168
1456.378 10.858 9.998 9.498 9.188 9.008 9.018 9.158 9.468 10.108 11.078
1475.668 12.308 13.698 15.078 16.378 17.628 19.008 20.498 22.278 24.588 27.648
1494.958 32.188 38.688 47.278 58.058 70.718 84.508 98.538 110.808 119.598 124.108
1514.248 123.588 118.048 107.958 94.378 78.688 63.448 49.958 39.318 31.438 25.738
1533.538 21.668 18.508 16.118 14.158 12.418 11.108 10.028 9.038 8.258 7.608
1552.827 7.028 6.528 6.178 5.908 5.598 5.328 5.138 4.898 4.798 4.778
1572.117 4.728 4.738 4.808 4.988 5.148 5.398 5.838 6.488 7.238 8.158
1591.407 9.318 10.598 11.968 13.218 14.298 15.318 16.188 16.778 16.998 16.938
1610.697 16.598 15.898 14.948 13.928 12.848 11.618 10.448 9.158 7.798 6.678
1629.986 5.718 4.948 4.298 3.848 3.628 3.338 3.018 2.868 2.748 2.538
1649.276 2.428 2.408 2.338 2.268 2.198 2.108 2.038 2.038 2.078 2.038
1668.566 1.968 2.038 2.028 1.998 1.998 1.968 1.998 2.008 1.938 1.918
1687.856 1.868 1.838 1.848 1.808 1.718 1.738 1.778 1.738 1.678 1.678
1707.146 1.658 1.558 1.588 1.608 1.568 1.528 1.568 1.668 1.598 1.518
1726.435 1.598 1.628 1.618 1.598 1.668 1.728 1.728 1.738 1.698 1.668
1745.725 1.678 1.678 1.688 1.658 1.628 1.598 1.548 1.538 1.538 1.498
1765.015 1.498 1.518 1.528 1.508 1.498 1.568 1.518 1.468 1.508 1.458
1784.305 1.428 1.398 1.358 1.398 1.368 1.258 1.1619 1.176 1.1706 1.0699
1803.594 1.053 1.1087 1.0659 0.9986 1.01 1.0578 1.0851 1.0827 1.1562 1.1302
1822.884 1.1449 1.238 1.208 1.228 1.298 1.328 1.398 1.478 1.548 1.598
1842.174 1.638 1.788 1.918 1.988 2.058 2.158 2.228 2.268 2.318 2.338
1861.464 2.348 2.298 2.218 2.218 2.248 2.128 1.988 1.958 1.978 1.888
1880.754 1.838 1.798 1.728 1.718 1.678 1.668 1.598 1.528 1.518 1.478
1900.043 1.458 1.428 1.478 1.518 1.488 1.478 1.448 1.448 1.458 1.418
1919.333 1.398 1.448 1.468 1.448 1.358 1.308 1.328 1.298 1.238 1.1655
1938.623 1.0961 1.0645 1.1145 1.1247 1.117 1.1213 1.1063 1.065 1.0972 1.1408
1957.913 1.0853 1.075 1.1347 1.1564 1.1007 1.0528 1.0956 1.1035 1.1058 1.1517
1977.202 1.1607 1.1774 1.238 1.248 1.248 1.228 1.1951 1.1648 1.0779 1.0452
1996.492 1.0164 1.0481 1.1723 1.1801 1.1533 1.1215 1.0747 1.1241 1.1505 1.1566
2015.782 1.228 1.1929 1.133 1.1705 1.1953 1.218 1.218 1.1683 1.181 1.2031
2035.072 1.1526 1.1191 1.1617 1.228 1.258 1.318 1.358 1.348 1.368 1.398
2054.362 1.398 1.408 1.428 1.438 1.478 1.508 1.468 1.448 1.418 1.388
2073.651 1.418 1.438 1.338 1.268 1.278 1.298 1.268 1.278 1.278 1.1545
2092.941 1.1103 1.0894 1.0908 1.1414 1.1157 1.0586 1.0359 1.0173 0.983 0.9824
2112.231 0.9706 1.0276 1.0601 1.0233 1.0489 1.0077 0.92 0.9131 0.929 0.9583
2131.521 0.969 0.9104 0.9035 0.9541 0.9201 0.8728 0.8737 0.9396 0.9604 0.8721
2150.810 0.9043 0.9336 0.9496 0.96 0.9327 0.893 0.8491 0.8588 0.9 0.9036
2170.100 0.8585 0.8636 0.8669 0.8371 0.8125 0.8478 0.8695 0.8443 0.873 0.8275
2189.390 0.7925 0.8095 0.7735 0.7996 0.8382 0.774 0.7557 0.7924 0.8481 0.8881
2208.680 0.94 1.0547 0.9372 0.8036 0.814 0.8768 0.9023 0.9121 0.9485 0.9061
2227.970 0.9668 1.0637 1.0838 1.151 1.238 1.258 1.338 1.478 1.588 1.708
2247.259 1.848 1.898 2.008 2.078 1.968 1.938 1.988 1.958 1.838 1.768
2266.549 1.628 1.448 1.378 1.308 1.228 1.228 1.228 1.228 1.218 1.238
2285.839 1.228 1.1662 1.1559 1.1196 1.1696 1.248 1.208 1.288 1.318 1.288
2305.129 1.268 1.248 1.298 1.288 1.268 1.258 1.258 1.308 1.308 1.328
2324.418 1.298 1.258 1.258 1.2026 1.1681 1.1531 1.1671 1.228 1.258 1.228
2343.708 1.1833 1.1959 1.268 1.298 1.268 1.318 1.388 1.258 1.1662 1.184
2362.998 1.1644 1.0995 1.0689 1.1537 1.1521 1.1632 1.218 1.238 1.298 1.298
2382.288 1.298 1.268 1.278 1.318 1.318 1.328 1.348 1.358 1.328 1.338
2401.578 1.308 1.248 1.228 1.338 1.418 1.278 1.318 1.418 1.298 1.238
2420.867 1.218 1.2025 1.238 1.2066 1.1119 1.1322 1.1734 1.1601 1.1919 1.1445
2440.157 1.1616 1.1855 1.0566 1.0516 1.2028 1.2071 1.1363 1.218 1.208 1.1201
2459.447 1.1621 1.258 1.278 1.288 1.348 1.408 1.458 1.368 1.298 1.358
2478.737 1.348 1.368 1.508 1.508 1.518 1.518 1.408 1.328 1.418 1.508
2498.026 1.448 1.488 1.588 1.608 1.668 1.718 1.708 1.698 1.718 1.658
2517.316 1.598 1.598 1.578 1.588 1.578 1.628 1.568 1.478 1.498 1.568
2536.606 1.588 1.598 1.698 1.718 1.628 1.528 1.488 1.528 1.518 1.548
2555.896 1.588 1.498 1.458 1.388 1.378 1.398 1.408 1.428 1.358 1.418
2575.186 1.488 1.408 1.228 1.1938 1.218 1.1683 1.1889 1.1658 1.1547 1.174
2594.475 1.2044 1.1535 1.0833 1.1815 1.238 1.1375 1.0913 1.1356 1.1668 1.0958
2613.765 1.0999 1.208 1.248 1.238 1.238 1.288 1.328 1.268 1.268 1.328
2633.055 1.248 1.278 1.288 1.258 1.258 1.201 1.2053 1.208 1.268 1.208
2652.345 1.1207 1.1518 1.1012 1.0418 1.0485 1.11 1.16 1.1173 1.0415 1.0642
2671.634 1.0334 1.0497 1.1474 1.238 1.258 1.228 1.1571 0.9887 0.946 0.987
2690.924 0.9846 0.8793 0.9233 1.0457 1.1109 1.0529 1.0032 1.1205 1.1648 1.1919
2710.214 1.248 1.218 1.119 1.0948 1.157 1.258 1.358 1.398 1.328 1.288
2729.504 1.338 1.448 1.628 1.638 1.578 1.628 1.558 1.548 1.588 1.548
2748.794 1.478 1.448 1.488 1.558 1.608 1.578 1.548 1.518 1.478 1.498
2768.083 1.548 1.518 1.478 1.488 1.578 1.598 1.638 1.618 1.588 1.608
2787.373 1.588 1.548 1.598 1.578 1.468 1.588 1.658 1.658 1.758 1.698
2806.663 1.648 1.618 1.698 1.768 1.788 1.838 1.828 1.918 2.038 2.058
2825.953 2.078 2.258 2.378 2.378 2.498 2.688 2.878 2.898 2.828 2.848
2845.242 2.928 2.888 2.768 2.858 3.048 3.048 3.138 3.358 3.448 3.698
2864.532 3.918 4.108 4.428 4.698 4.978 5.308 5.658 6.108 6.688 7.038
2883.822 7.248 7.768 8.318 8.638 8.968 9.278 9.568 9.888 10.158 10.328
2903.112 10.498 10.728 11.058 11.438 11.848 12.078 12.238 12.538 12.968 13.348
2922.401 13.568 13.998 14.548 14.848 15.188 15.558 15.748 16.008 16.198 16.198
2941.691 16.078 15.658 15.198 14.888 14.248 13.548 12.968 12.298 11.688 11.338
2960.981 11.258 11.138 11.278 11.658 12.048 12.698 13.538 14.518 15.778 17.268
2980.271 18.848 20.588 22.018 22.908 23.638 24.048 23.948 22.768 20.488 18.098
2999.561 15.718 13.598 11.948 10.438 9.008 8.028 7.438 6.918 6.478 6.238
3018.850 6.158 6.098 6.118 6.058 6.008 6.118 6.128 6.098 6.228 6.348
3038.140 6.458 6.528 6.618 6.648 6.728 6.818 6.828 7.058 7.158 7.118
3057.430 7.108 7.048 7.028 6.838 6.478 6.218 5.808 5.278 4.898 4.498
3076.720 4.108 3.718 3.398 3.098 2.758 2.468 2.128 1.958 1.858 1.708
3096.009 1.538 1.478 1.668 1.668 1.548 1.578 1.508 1.378 1.368 1.498
3115.299 1.638 1.548 1.348 1.218 1.208 1.328 1.308 1.1994 1.228 1.348
3134.589 1.298 1.278 1.238 1.1251 1.0172 0.9548 1.0674 1.1844 1.1331 0.9412
3153.879 0.8824 0.9466 0.9177 0.8604 0.9047 0.873 0.8495 0.8835 0.9533 1.0192
3173.169 1.0927 1.218 1.0769 0.8962 0.8847 0.9676 0.8959 0.843 0.9292 1.0364
3192.458 1.1751 1.1077 1.0301 1.0154 0.9493 0.9284 0.8514 0.8329 0.902 0.9081
3211.748 1.0261 1.046 0.9473 0.8826 0.8526 1.0244 1.1224 1.1176 1.0431 0.8433
3231.038 0.7071 0.6731 0.6812 0.7127 0.7557 0.8469 0.8365 0.7217 0.575 0.4857
3250.328 0.4146 0.4265 0.4854 0.4817 0.4993 0.5801 0.6963 0.5978 0.5027 0.6104
3269.617 0.6179 0.7138 0.7292 0.4788 0.5221 0.655 0.4964 0.4947 0.5215 0.5287
3288.907 0.5614 0.4794 0.6305 0.562 0.4625 0.5429 0.4694 0.558 0.8008 0.7146
3308.197 0.5534 0.5993 0.6134 0.6176 0.5929 0.5445 0.647 0.7336 0.7192 0.5565
3327.487 0.4542 0.4709 0.4468 0.6258 0.5926 0.4763 0.3799 0.20341 0.3291 0.5095
3346.777 0.4271 0.27856 0.343 0.29045 0.24969 0.26655 0.29099 0.3115 0.1936 0.27238
3366.066 0.30388 0.3547 0.5131 0.5443 0.4089 0.1769 0.22235 0.3215 0.22354 0.25608
3385.356 0.215509 0.077 0.1669 0.23715 0.27085 0.1942 0.1808 0.29744 0.28888 0.24833
3404.646 0.2596 0.3869 0.41 0.3208 0.415 0.4426 0.207759 0 0.071 0.3418
3423.936 0.4194 0.3779 0.3444 0.084 0.1087 0.4343 0.5154 0.4786 0.5989 0.6604
3443.225 0.4161 0.406 0.3945 0.23027 0.3081 0.3323 0.1549 0.1196 0.209465 0.2623
3462.515 0.3107 0.3827 0.3996 0.30104 0.26675 0.29117 0.3719 0.2599 0.1394 0.22614
3481.805 0.3568 0.24513 0.27042 0.4396 0.3675 0.3739 0.4302 0.4621 0.4024 0.4169
3501.095 0.4718 0.4148 0.4361 0.5915 0.6041 0.621 0.5736 0.5989 0.6824 0.6131
3520.385 0.6544 0.714 0.8216 0.971 1.0463 1.1351 1.2003 1.228 1.378 1.618
3539.674 1.808 1.958 2.168 2.578 2.928 3.278 3.748 4.278 5.208 6.428
3558.964 7.978 10.128 12.828 16.408 20.838 26.058 31.928 37.798 43.368 47.948
3578.254 51.408 53.528 53.568 51.458 47.518 42.458 36.898 31.248 25.628 20.218
3597.544 15.468 11.808 9.098 6.998 5.608 4.678 3.968 3.378 2.838 2.538
3616.833 2.448 2.188 1.918 1.688 1.598 1.558 1.388 1.268 1.258 1.418
3636.123 1.528 1.548 1.568 1.738 2.048 2.278 2.328 2.268 2.218 2.228
3655.413 2.038 1.548 1.1294 0.9012 0.7119 0.614 0.5417 0.4836 0.4606 0.26464
3674.703 0.166 0.23806 0.24465 0.22568 0.26917 0.2886 0.3643 0.2956 0.1941 0.27205
3693.993 0.3259 0.20183 0.2721 0.4751 0.4162 0.28855 0.30328 0.3462 0.30799 0.28071
3713.282 0.3401 0.3798 0.24245 0.29713 0.3686 0.1644 0.1251 0.23495 0.3248 0.3399
3732.572 0.22097 0.1441 0.019 0.055 0.208844 0.3109 0.4823 0.4373 0.3352 0.3074
3751.862 0.2589 0.1343 0.21328 0.20087 0.192 0.3915 0.3209 0.209715 0.29625 0.417
3771.152 0.3881 0.3494 0.3329 0.393 0.28372 0.25792 0.2936 0.22994 0.23645 0.24795
3790.441 0.30534 0.3543 0.3128 0.21815 0.27641 0.28448 0.1575 0.3298 0.25609 0.1352
3809.731 0.213836 0.24226 0.26302 0.062 0.1338 0.20264 0.24471 0.23882 0.1429 0.1467
3829.021 0.1741 0.216194 0.1872 0.21095 0.22726 0.29489 0.1847 0.20387 0.27598 0.30331
3848.311 0.5165 0.4858 0.3822 0.4327 0.533 0.4863 0.4178 0.4925 0.4534 0.3183
3867.601 0.3115 0.4392 0.5821 0.5794 0.4678 0.3902 0.5598 0.6087 0.4918 0.3134
3886.890 0.1645 0.23382 0.27797 0.210337 0.1451 0.23582 0.214335 0.27711 0.3859 0.22447
3906.180 0.209621 0.369 0.3866 0.3881 0.30605 0.217168 0.3184 0.3874 0.26093 0.091
3925.470 0.1582 0.29161 0.4101 0.4107 0.4419 0.4392 0.3202 0.3163 0.3585 0.5026
3944.760 0.4861 0.30619 0.096 0.1431 0.5221 0.6049 0.4484 0.3435 0.1182 0.173
3964.049 0.4089 0.3771 0.3721 0.4457 0.4499 0.3793 0.24721 0.23058 0.351 0.4715
3983.339 0.4584 0.3314 0.4779 0.5821 0.3652 0.26197 0.3683 0.4279 0.3642 0.3697
##END=
