##TITLE=4-Bromo-2-trifluoromethylphenyl isothiocyanate
##JCAMP-DX=4.24
##DATA TYPE=INFRARED SPECTRUM
##ORIGIN=EPA-IR VAPOR PHASE LIBRARY
##OWNER=SRD/NIST
Collection (C) 2018 copyright by the U.S. Secretary of Commerce
on behalf of the United States of America. All rights reserved.
##CAS REGISTRY NO=206559-46-8
##MOLFORM=C 8 H 3 Br F 3 N S
##$NIST SOURCE=MSDC-IR
##STATE=gas
##XUNITS=1/CM
##YUNITS=ABSORBANCE
##XFACTOR=1.
##YFACTOR=0.001
##DELTAX=1.92898
##FIRSTX=549.8
##LASTX=4000.7
##FIRSTY=2.944
##MAXX=4000.7
##MINX=549.759
##MAXY=0.524474
##MINY=0
##NPOINTS=1790
##XYDATA=(X++(Y..Y))
549.759 2.944 3.064 3.374 3.824 3.834 4.084 4.344 4.404 4.834 5.384
569.049 5.844 6.074 6.564 7.364 8.294 9.064 9.394 9.864 10.594 11.034
588.339 11.344 12.004 12.724 13.514 14.144 14.644 14.764 14.264 13.214 11.524
607.628 9.774 8.194 6.874 5.974 5.464 5.204 4.884 4.654 4.544 4.324
626.918 4.234 4.124 4.034 3.974 3.914 4.004 3.934 3.804 3.954 4.084
646.208 3.964 4.114 5.024 6.504 8.614 11.284 13.814 15.204 15.364 14.484
665.498 12.534 9.884 7.284 5.284 3.914 3.084 2.634 2.364 1.914 1.684
684.787 1.724 1.924 2.254 2.434 2.694 3.014 3.324 3.834 4.334 4.574
704.077 4.674 4.784 5.024 5.444 6.174 7.604 9.634 11.734 13.104 13.874
723.367 14.204 13.514 11.854 9.774 7.744 6.174 5.004 4.184 3.474 2.874
742.657 2.544 2.214 1.804 1.5375 1.3951 1.3978 1.614 1.904 2.214 2.564
761.947 2.904 3.094 3.304 3.454 3.324 2.884 2.614 2.404 2.214 2.034
781.236 1.974 2.084 2.134 2.364 2.754 2.974 3.174 3.644 3.944 4.264
800.526 4.874 5.564 6.464 7.564 8.884 11.574 15.834 21.354 28.384 36.044
819.816 43.344 50.284 51.824 44.664 35.844 28.274 20.494 13.864 8.964 5.904
839.106 4.574 4.024 3.724 3.754 4.114 4.354 4.324 4.374 4.324 4.034
858.395 3.604 3.084 2.734 2.644 2.514 2.384 2.494 2.734 3.044 3.484
877.685 4.124 5.084 6.414 8.364 11.124 14.424 18.114 21.834 25.344 27.994
896.975 27.444 24.194 21.204 18.634 16.544 15.174 14.574 14.884 15.754 16.814
916.265 17.794 18.444 18.964 19.594 20.124 20.674 21.544 22.844 24.554 27.104
935.555 30.124 33.854 38.554 43.684 48.814 53.224 56.314 57.314 56.024 52.474
954.844 47.104 40.974 34.754 29.194 24.624 20.924 18.024 15.564 13.504 11.884
974.134 10.564 9.494 8.754 8.114 7.214 6.514 6.084 5.654 5.224 4.744
993.424 4.264 3.814 3.614 3.524 3.414 3.354 3.364 3.414 3.584 3.724
1012.714 3.554 3.604 3.884 4.084 4.034 3.954 4.064 4.524 4.904 5.034
1032.003 5.824 6.824 8.104 9.874 12.404 16.284 21.754 29.114 38.014 47.754
1051.293 58.374 69.254 77.904 82.964 84.234 81.614 75.364 66.304 56.814 48.514
1070.583 41.964 37.304 33.924 31.914 31.424 31.754 32.904 35.344 38.254 41.024
1089.873 42.524 41.644 38.324 33.414 27.754 21.904 17.204 14.434 12.784 11.904
1109.163 11.354 11.454 12.644 14.054 15.724 18.294 21.694 25.944 31.904 39.834
1128.452 49.154 59.514 69.684 78.304 84.424 88.244 91.784 97.284 106.764 120.584
1147.742 138.374 158.834 180.724 203.064 223.424 239.404 249.684 252.254 245.474 231.134
1167.032 215.444 203.264 196.694 196.084 198.914 201.504 199.694 192.084 180.134 164.924
1186.322 148.484 132.654 117.974 104.164 90.774 77.584 65.394 54.994 45.644 38.104
1205.611 32.224 27.324 23.774 21.174 19.064 17.764 17.474 17.424 17.674 18.344
1224.901 19.334 20.534 22.024 24.044 26.434 29.014 31.754 34.974 38.454 41.444
1244.191 43.704 45.024 45.184 44.454 43.084 41.314 39.204 36.854 34.684 32.664
1263.481 30.854 30.014 30.544 32.764 37.174 44.074 53.424 63.864 73.434 80.854
1282.771 85.394 87.714 89.444 93.434 102.784 118.544 140.074 165.844 193.554 220.574
1302.060 244.374 262.234 270.474 265.934 248.514 220.924 186.064 146.864 108.604 76.844
1321.350 53.644 37.884 27.654 21.174 16.964 14.164 12.254 10.914 9.954 9.254
1340.640 8.814 8.514 8.194 7.964 7.824 7.664 7.524 7.354 7.154 6.984
1359.930 6.744 6.534 6.424 6.374 6.474 6.724 7.004 7.444 8.104 8.904
1379.219 9.864 11.004 12.434 14.174 16.344 19.094 22.494 26.744 31.934 38.044
1398.509 44.754 51.654 58.194 63.584 66.994 67.934 66.194 61.984 55.874 48.604
1417.799 41.134 34.214 28.094 22.844 18.494 14.924 12.154 10.244 9.014 8.224
1437.089 7.704 7.454 7.434 7.614 8.044 8.714 9.624 10.894 12.544 14.644
1456.378 17.374 20.924 25.294 30.464 36.354 42.844 49.994 57.844 66.414 76.044
1475.668 87.234 100.274 114.444 127.384 135.234 134.414 124.294 106.454 83.794 61.294
1494.958 43.634 32.204 25.484 21.654 19.614 18.554 17.744 16.704 15.344 13.694
1514.248 11.804 9.954 8.504 7.534 6.844 6.354 6.054 5.844 5.664 5.554
1533.538 5.534 5.604 5.734 5.864 6.014 6.314 6.704 7.264 7.964 8.754
1552.827 9.764 11.034 12.584 14.344 16.304 18.404 20.474 22.434 24.024 25.064
1572.117 25.534 25.314 24.574 23.534 22.434 21.594 20.984 20.764 20.754 20.624
1591.407 20.144 19.034 17.324 15.264 13.214 11.294 9.754 8.734 7.974 7.404
1610.697 7.014 6.714 6.404 6.154 6.004 5.824 5.624 5.494 5.394 5.254
1629.986 5.164 5.094 4.994 4.924 4.884 4.864 4.804 4.684 4.454 4.124
1649.276 3.714 3.304 2.864 2.494 2.194 1.974 1.844 1.714 1.634 1.594
1668.566 1.624 1.624 1.604 1.604 1.594 1.594 1.614 1.694 1.734 1.724
1687.856 1.774 1.794 1.784 1.824 1.894 1.934 1.974 2.074 2.134 2.204
1707.146 2.264 2.324 2.414 2.524 2.534 2.504 2.594 2.674 2.754 2.814
1726.435 2.784 2.774 2.784 2.784 2.844 2.894 2.924 2.904 2.894 2.924
1745.725 2.954 3.014 3.114 3.174 3.234 3.344 3.434 3.524 3.624 3.744
1765.015 3.904 4.094 4.324 4.544 4.724 5.004 5.324 5.624 5.964 6.234
1784.305 6.384 6.434 6.274 5.934 5.554 5.114 4.624 4.264 4.064 3.924
1803.594 3.844 3.874 3.954 3.964 4.074 4.204 4.304 4.454 4.574 4.664
1822.884 4.744 4.884 5.024 5.184 5.434 5.674 5.874 6.114 6.384 6.654
1842.174 6.994 7.244 7.484 7.724 7.874 8.064 8.244 8.404 8.584 8.804
1861.464 8.984 9.244 9.584 9.844 10.084 10.334 10.614 10.804 10.984 11.244
1880.754 11.484 11.744 12.124 12.524 12.974 13.454 13.924 14.404 14.864 15.244
1900.043 15.514 15.684 15.734 15.804 15.914 15.954 16.084 16.314 16.644 17.214
1919.333 17.824 18.474 19.304 20.204 21.174 22.334 23.594 24.964 26.514 28.234
1938.623 30.104 32.124 34.304 36.674 39.224 41.974 44.944 48.174 51.674 55.414
1957.913 59.354 63.594 68.094 72.874 77.954 83.214 88.774 94.594 100.644 106.974
1977.202 113.594 120.634 128.144 136.124 144.694 153.864 163.534 173.624 184.064 194.884
1996.492 205.854 216.764 227.664 238.364 248.714 258.944 269.124 279.114 289.094 299.294
2015.782 309.824 320.994 333.374 347.284 362.964 380.714 400.554 422.014 443.854 463.964
2035.072 479.854 489.154 490.854 484.664 471.604 454.274 435.164 416.754 400.884 388.944
2054.362 381.804 379.914 383.054 390.874 402.954 418.254 435.904 455.134 474.644 492.894
2073.651 508.414 519.574 524.474 521.834 511.784 494.374 470.764 442.484 411.344 379.064
2092.941 346.704 315.504 286.474 260.254 237.174 217.504 201.284 188.354 178.394 171.204
2112.231 166.554 163.904 162.924 163.214 164.224 165.554 166.684 167.054 166.264 163.934
2131.521 159.804 153.864 146.224 137.304 127.554 117.424 107.574 98.294 89.734 82.094
2150.810 75.454 69.714 64.874 60.804 57.224 54.134 51.444 49.014 46.854 44.904
2170.100 43.104 41.464 39.894 38.384 37.014 35.734 34.564 33.504 32.454 31.564
2189.390 30.814 30.154 29.654 29.254 28.954 28.694 28.384 28.084 27.734 27.354
2208.680 26.784 26.034 25.274 24.444 23.534 22.584 21.764 21.034 20.304 19.644
2227.970 18.944 18.174 17.304 16.264 15.114 13.934 12.814 11.764 10.704 9.784
2247.259 9.114 8.464 7.904 7.464 7.044 6.684 6.384 6.144 5.954 5.814
2266.549 5.624 5.454 5.404 5.334 5.264 5.274 5.314 5.384 5.424 5.544
2285.839 5.674 5.774 5.874 5.974 6.104 6.184 6.264 6.344 6.424 6.564
2305.129 6.634 6.574 6.624 6.644 6.504 6.434 6.374 6.244 6.174 6.104
2324.418 6.024 6.004 6.044 6.144 6.234 6.334 6.324 6.264 6.284 6.234
2343.708 6.094 5.884 5.664 5.524 5.324 5.094 4.954 4.864 4.704 4.534
2362.998 4.414 4.284 4.054 3.944 4.034 4.064 4.034 4.044 3.994 3.964
2382.288 3.994 3.964 3.954 3.994 3.934 3.854 3.764 3.684 3.644 3.554
2401.578 3.474 3.424 3.344 3.214 3.114 3.054 2.974 2.964 2.934 2.834
2420.867 2.754 2.774 2.764 2.744 2.794 2.714 2.594 2.614 2.604 2.594
2440.157 2.574 2.544 2.564 2.544 2.564 2.624 2.624 2.644 2.694 2.714
2459.447 2.764 2.804 2.804 2.844 2.914 2.904 2.924 2.954 2.924 3.014
2478.737 3.044 3.014 3.024 3.084 3.214 3.324 3.374 3.384 3.464 3.544
2498.026 3.634 3.764 3.824 3.954 4.084 4.154 4.224 4.314 4.404 4.494
2517.316 4.584 4.644 4.734 4.834 4.884 5.014 5.164 5.204 5.344 5.524
2536.606 5.584 5.624 5.644 5.584 5.464 5.414 5.354 5.304 5.274 5.214
2555.896 5.224 5.274 5.294 5.324 5.324 5.224 5.134 5.034 4.984 4.994
2575.186 4.964 5.004 5.074 5.164 5.274 5.444 5.644 5.814 6.084 6.384
2594.475 6.604 6.854 7.164 7.504 7.644 7.794 8.114 8.404 8.474 8.594
2613.765 8.764 8.794 8.834 8.944 9.034 8.994 8.904 8.724 8.534 8.374
2633.055 8.164 7.874 7.534 7.224 6.794 6.394 6.054 5.704 5.294 4.954
2652.345 4.734 4.434 4.194 4.134 3.934 3.734 3.624 3.524 3.464 3.414
2671.634 3.344 3.294 3.204 3.104 3.184 3.164 3.064 3.034 2.944 2.874
2690.924 2.824 2.714 2.704 2.634 2.544 2.524 2.394 2.284 2.354 2.374
2710.214 2.294 2.304 2.344 2.394 2.434 2.424 2.474 2.514 2.594 2.594
2729.504 2.584 2.744 2.834 2.934 2.944 2.944 3.004 2.894 2.834 2.854
2748.794 2.874 2.924 2.984 2.954 3.024 3.054 3.084 3.214 3.214 3.154
2768.083 3.114 3.114 3.144 3.084 2.954 2.964 2.944 2.854 2.844 2.844
2787.373 2.964 3.014 3.074 3.184 3.184 3.194 3.204 3.244 3.274 3.214
2806.663 3.114 3.004 2.974 2.924 2.794 2.734 2.574 2.394 2.324 2.334
2825.953 2.264 2.124 1.994 1.964 2.024 1.994 1.994 2.044 2.014 1.984
2845.242 1.904 1.814 1.874 1.794 1.704 1.714 1.541 1.4015 1.4499 1.4945
2864.532 1.4467 1.4308 1.4252 1.4363 1.4793 1.3827 1.3891 1.4199 1.3974 1.4705
2883.822 1.5629 1.5627 1.5213 1.5007 1.4641 1.5393 1.634 1.5581 1.4218 1.4539
2903.112 1.4021 1.2972 1.2591 1.1892 1.1721 1.1553 1.175 1.2012 1.2993 1.3625
2922.401 1.3843 1.4161 1.3908 1.3794 1.4852 1.5136 1.4552 1.5341 1.654 1.734
2941.691 1.774 1.834 1.774 1.774 1.934 2.094 2.064 1.944 1.924 1.964
2960.981 2.044 2.214 2.184 2.094 2.194 2.214 2.204 2.244 2.274 2.324
2980.271 2.384 2.444 2.524 2.574 2.574 2.604 2.594 2.434 2.414 2.454
2999.561 2.444 2.344 2.244 2.324 2.304 2.264 2.394 2.384 2.334 2.364
3018.850 2.384 2.444 2.434 2.424 2.424 2.334 2.334 2.394 2.334 2.304
3038.140 2.254 2.234 2.244 2.084 1.894 1.774 1.664 1.634 1.674 1.5302
3057.430 1.4342 1.5392 1.5272 1.515 1.5504 1.614 1.784 1.994 2.224 2.384
3076.720 2.564 2.784 2.964 3.064 3.074 2.834 2.464 2.244 1.914 1.614
3096.009 1.5341 1.4835 1.4342 1.4521 1.4885 1.4997 1.3434 1.1738 1.1684 1.0198
3115.299 0.7818 0.66623 0.7596 0.7875 0.63598 0.4894 0.427 0.402 0.383 0.434
3134.589 0.4776 0.457 0.374 0.278 0.309 0.38 0.404 0.388 0.341 0.382
3153.879 0.391 0.32 0.355 0.42 0.362 0.3 0.343 0.415 0.381 0.27
3173.169 0.175 0.137 0.208 0.245 0.265 0.267 0.219 0.27 0.229 0.193
3192.458 0.184 0.147 0.165 0.162 0.218 0.28 0.338 0.362 0.263 0.11
3211.748 0.109 0.166 0.135 0.115 0.099 0.154 0.199 0.091 0 0.055
3231.038 0.07 0.164 0.23 0.241 0.214 0.171 0.199 0.195 0.195 0.265
3250.328 0.334 0.266 0.274 0.277 0.257 0.322 0.361 0.356 0.373 0.324
3269.617 0.329 0.301 0.261 0.251 0.204 0.287 0.19 0.015 0.097 0.126
3288.907 0.085 0.079 0.25 0.404 0.373 0.365 0.374 0.325 0.245 0.21
3308.197 0.233 0.137 0.06 0.197 0.309 0.182 0.132 0.274 0.327 0.319
3327.487 0.34 0.279 0.155 0.143 0.194 0.224 0.219 0.329 0.4764 0.383
3346.777 0.222 0.219 0.29 0.203 0.247 0.351 0.208 0.106 0.055 0.139
3366.066 0.141 0.179 0.279 0.332 0.443 0.363 0.291 0.238 0.203 0.259
3385.356 0.33 0.361 0.327 0.293 0.256 0.301 0.281 0.209 0.244 0.254
3404.646 0.325 0.41 0.322 0.381 0.305 0.253 0.336 0.367 0.333 0.35
3423.936 0.385 0.245 0.253 0.379 0.369 0.278 0.367 0.345 0.207 0.271
3443.225 0.338 0.456 0.436 0.38 0.433 0.299 0.271 0.212 0.222 0.258
3462.515 0.272 0.272 0.226 0.334 0.197 0.121 0.204 0.307 0.362 0.346
3481.805 0.327 0.319 0.406 0.467 0.348 0.254 0.394 0.43 0.334 0.352
3501.095 0.332 0.201 0.314 0.387 0.333 0.344 0.43 0.459 0.391 0.429
3520.385 0.429 0.359 0.333 0.451 0.4796 0.5316 0.5328 0.407 0.378 0.392
3539.674 0.437 0.264 0.251 0.5034 0.5547 0.5394 0.442 0.283 0.358 0.445
3558.964 0.346 0.349 0.4817 0.392 0.272 0.325 0.37 0.327 0.303 0.296
3578.254 0.293 0.31 0.242 0.177 0.228 0.308 0.295 0.334 0.351 0.32
3597.544 0.372 0.396 0.373 0.371 0.401 0.359 0.322 0.25 0.202 0.239
3616.833 0.307 0.277 0.285 0.447 0.504 0.43 0.396 0.423 0.4972 0.60412
3636.123 0.4864 0.376 0.4889 0.58986 0.60312 0.5199 0.408 0.401 0.429 0.42
3655.413 0.327 0.439 0.5311 0.395 0.43 0.453 0.433 0.41 0.357 0.367
3674.703 0.4 0.399 0.41 0.4 0.389 0.4974 0.4986 0.444 0.5317 0.5606
3693.993 0.4897 0.4762 0.5636 0.457 0.378 0.4985 0.61322 0.5194 0.323 0.4803
3713.282 0.56957 0.393 0.374 0.5032 0.512 0.4859 0.455 0.411 0.5519 0.574383
3732.572 0.398 0.4851 0.5272 0.4761 0.63385 0.63713 0.5086 0.5665 0.63792 0.63378
3751.862 0.5598 0.5121 0.579544 0.7151 0.67362 0.5072 0.577864 0.7218 0.7676 0.7902
3771.152 0.7603 0.7589 0.60281 0.5061 0.5637 0.5426 0.57016 0.472 0.5637 0.5271
3790.441 0.36 0.5131 0.66367 0.64324 0.5384 0.60687 0.6804 0.62772 0.59404 0.576606
3809.731 0.6801 0.757 0.7417 0.6998 0.5401 0.542 0.65932 0.7487 0.7674 0.62998
3829.021 0.61179 0.59694 0.7019 0.7678 0.60646 0.5189 0.5092 0.64516 0.7338 0.7283
3848.311 0.7181 0.7398 0.7027 0.6957 0.7732 0.7921 0.7809 0.8045 0.7305 0.65613
3867.601 0.7596 0.8476 0.832 0.8475 0.7547 0.578561 0.7568 0.9286 0.8872 0.928
3886.890 0.9358 0.8811 0.9439 1.014 1.0511 1.0444 0.8586 0.8722 0.8929 0.8482
3906.180 0.981 0.9283 0.8854 1.0426 1.0843 1.0315 0.9915 1.0038 1.0912 1.1542
3925.470 1.2446 1.2943 1.2289 1.24 1.2325 1.2453 1.3654 1.2658 1.2022 1.3261
3944.760 1.3315 1.2763 1.2192 1.0937 1.1592 1.3832 1.4303 1.4457 1.5133 1.634
3964.049 1.644 1.614 1.5528 1.614 1.604 1.4726 1.5733 1.574 1.5576 1.634
3983.339 1.634 1.664 1.784 1.834 1.934 2.124 2.064 1.854 1.954 2.194
##END=
