##TITLE=(2-Methoxy-5-phenyl)phenylisothiocyanate
##JCAMP-DX=4.24
##DATA TYPE=INFRARED SPECTRUM
##ORIGIN=EPA-IR VAPOR PHASE LIBRARY
##OWNER=SRD/NIST
Collection (C) 2018 copyright by the U.S. Secretary of Commerce
on behalf of the United States of America. All rights reserved.
##CAS REGISTRY NO=206761-68-4
##MOLFORM=C 14 H 11 N O S
##$NIST SOURCE=MSDC-IR
##STATE=gas
##XUNITS=1/CM
##YUNITS=ABSORBANCE
##XFACTOR=1.
##YFACTOR=0.001
##DELTAX=1.92898
##FIRSTX=549.8
##LASTX=4000.7
##FIRSTY=5.588
##MAXX=4000.7
##MINX=549.759
##MAXY=0.298118
##MINY=0
##NPOINTS=1790
##XYDATA=(X++(Y..Y))
549.759 5.588 5.618 5.958 6.198 6.718 7.378 7.908 8.808 9.488 10.138
569.049 11.408 13.548 16.328 19.198 21.608 23.068 23.648 23.528 22.478 20.738
588.339 18.828 16.558 14.818 13.328 11.628 10.258 9.208 8.458 8.038 7.858
607.628 7.568 7.538 7.508 7.148 6.768 6.358 6.168 6.138 6.098 6.138
626.918 6.168 6.008 5.698 5.328 5.128 5.318 5.368 5.098 4.938 4.888
646.208 4.998 5.008 4.778 4.818 4.878 5.038 5.458 5.848 6.498 7.348
665.498 7.768 8.188 8.778 9.558 10.878 12.248 13.368 14.428 15.648 16.768
684.787 17.888 19.518 21.368 23.568 26.178 28.138 29.068 28.788 27.158 24.578
704.077 21.578 18.918 17.108 16.418 16.748 17.928 19.628 21.008 21.888 21.868
723.367 20.538 18.688 16.508 14.208 12.378 10.968 9.988 9.198 8.618 8.768
742.657 9.418 10.508 12.078 14.178 16.888 20.228 23.538 26.478 28.688 29.008
761.947 27.188 24.148 20.568 16.878 13.578 10.758 8.828 7.608 6.598 6.098
781.236 5.808 5.458 5.288 5.378 5.428 5.308 5.368 5.868 6.868 8.108
800.526 9.628 11.838 14.678 17.598 20.328 22.368 23.058 22.358 20.578 18.108
819.816 15.478 12.858 10.848 9.488 8.158 6.868 6.038 5.318 4.768 4.248
839.106 3.648 3.308 3.048 2.828 2.678 2.628 2.528 2.568 2.528 2.278
858.395 2.268 2.288 2.398 2.358 2.448 2.868 3.488 4.368 5.428 6.758
877.685 8.188 9.678 11.088 11.838 11.688 10.628 9.038 7.588 6.118 4.548
896.975 3.468 3.068 2.798 2.458 2.158 2.088 2.078 2.098 1.918 1.688
916.265 1.798 1.888 1.988 2.048 2.138 2.308 2.428 2.608 2.988 3.318
935.555 3.448 3.828 4.308 4.738 5.538 6.518 7.558 9.078 10.728 12.508
954.844 14.598 16.258 17.408 17.938 17.498 16.608 15.298 13.638 11.888 10.318
974.134 9.118 8.168 7.508 7.008 6.768 6.688 6.698 6.748 6.938 7.308
993.424 7.698 8.118 8.558 9.178 10.008 10.938 12.218 13.678 15.348 17.328
1012.714 19.388 21.338 23.208 24.528 25.268 25.258 24.148 22.718 21.178 19.338
1032.003 17.528 16.048 15.048 14.638 14.528 14.518 15.468 17.098 18.598 19.598
1051.293 19.498 18.558 16.788 14.578 12.808 10.918 9.138 8.078 7.198 6.128
1070.583 5.808 5.838 5.078 4.338 4.188 3.938 3.498 3.418 2.998 2.568
1089.873 2.438 2.368 2.268 2.448 2.918 3.028 3.018 3.138 2.878 2.888
1109.163 3.638 3.988 4.258 5.378 6.648 7.888 9.168 10.618 13.458 16.698
1128.452 19.438 22.118 24.508 26.498 27.698 27.468 26.248 24.258 21.318 18.188
1147.742 15.128 12.138 10.018 8.968 8.238 7.278 6.648 6.368 6.138 6.088
1167.032 6.238 6.698 7.188 7.838 8.708 9.408 9.718 10.078 10.488 10.538
1186.322 9.818 9.238 9.278 9.458 9.418 9.568 10.628 11.548 12.008 12.768
1205.611 13.888 14.568 14.388 13.808 12.648 11.448 10.808 10.638 11.008 11.438
1224.901 12.568 13.998 15.388 17.458 19.688 22.278 25.118 27.888 31.248 34.698
1244.191 37.688 40.648 42.858 43.588 43.348 42.348 40.828 39.048 37.818 37.178
1263.481 37.418 38.848 40.798 43.768 47.208 50.288 52.798 54.558 55.448 55.708
1282.771 55.428 54.358 52.488 49.838 46.268 42.008 37.558 33.418 29.908 27.188
1302.060 25.398 24.298 23.518 22.568 21.218 19.398 17.088 14.718 12.608 10.928
1321.350 9.718 8.708 7.908 7.358 6.878 6.418 6.028 5.658 5.308 5.048
1340.640 4.818 4.598 4.408 4.308 4.288 4.168 3.958 3.828 3.748 3.678
1359.930 3.568 3.398 3.318 3.358 3.348 3.358 3.458 3.498 3.538 3.588
1379.219 3.678 3.798 3.898 4.008 4.118 4.428 4.908 5.348 5.858 6.468
1398.509 7.098 7.708 8.238 8.668 8.938 8.928 8.628 8.158 7.608 7.038
1417.799 6.548 6.168 6.028 5.978 6.028 6.368 6.818 7.398 8.308 9.348
1437.089 10.788 12.528 14.218 15.608 16.338 16.438 15.968 15.128 14.428 14.148
1456.378 14.418 15.378 16.818 18.558 20.458 22.538 24.678 27.118 30.248 34.508
1475.668 40.328 48.388 58.468 69.878 80.858 89.138 92.678 90.398 82.478 71.018
1494.958 58.288 46.628 38.158 32.878 30.468 30.328 31.878 34.448 37.168 39.498
1514.248 40.588 39.948 37.628 34.088 29.688 25.378 21.448 18.308 16.068 14.378
1533.538 13.098 12.158 11.488 10.848 10.388 10.088 9.828 9.708 9.668 9.708
1552.827 9.898 10.328 10.768 11.118 11.648 12.178 12.608 12.898 12.908 12.768
1572.117 12.678 12.448 12.038 11.788 11.678 11.728 11.958 12.498 13.398 14.698
1591.407 16.378 18.318 20.508 22.578 24.138 24.948 24.918 23.948 22.208 20.188
1610.697 17.928 15.478 13.188 11.108 9.358 7.938 6.758 5.768 5.038 4.558
1629.986 4.128 3.818 3.518 3.278 3.218 3.128 2.978 2.768 2.608 2.578
1649.276 2.528 2.408 2.418 2.518 2.508 2.458 2.438 2.488 2.608 2.678
1668.566 2.658 2.548 2.518 2.458 2.308 2.248 2.148 2.008 1.928 1.858
1687.856 1.768 1.718 1.758 1.798 1.768 1.738 1.698 1.718 1.768 1.758
1707.146 1.788 1.818 1.888 1.918 1.908 2.038 2.158 2.198 2.248 2.308
1726.435 2.398 2.438 2.478 2.598 2.738 2.938 3.078 3.138 3.168 3.188
1745.725 3.248 3.248 3.198 3.188 3.248 3.208 3.228 3.448 3.618 3.678
1765.015 3.738 3.688 3.698 3.738 3.658 3.548 3.388 3.258 3.188 3.188
1784.305 3.248 3.308 3.488 3.668 3.788 3.938 3.948 3.848 3.658 3.428
1803.594 3.288 3.198 3.068 2.998 3.068 3.168 3.208 3.208 3.238 3.228
1822.884 3.188 3.138 3.028 2.898 2.848 2.918 2.958 3.028 3.108 3.198
1842.174 3.288 3.408 3.568 3.708 3.928 4.168 4.388 4.628 4.878 5.158
1861.464 5.338 5.478 5.628 5.738 5.858 5.998 6.038 6.048 6.138 6.288
1880.754 6.518 6.718 6.878 7.078 7.278 7.428 7.528 7.688 7.918 8.178
1900.043 8.488 8.918 9.438 10.008 10.648 11.338 12.028 12.718 13.398 14.008
1919.333 14.568 15.188 15.788 16.328 16.908 17.458 18.098 18.868 19.718 20.638
1938.623 21.558 22.618 23.748 24.898 26.188 27.608 29.118 30.798 32.578 34.388
1957.913 36.318 38.278 40.318 42.468 44.858 47.598 50.628 54.058 57.878 62.038
1977.202 66.628 71.558 76.918 82.738 88.668 94.638 100.658 106.658 112.438 117.928
1996.492 123.238 128.328 133.398 138.478 143.638 149.058 154.698 160.658 167.228 174.588
2015.782 182.798 192.238 202.968 215.028 228.508 243.178 258.468 273.258 285.848 294.538
2035.072 298.118 295.898 288.318 276.658 262.378 247.178 231.868 217.438 204.338 192.538
2054.362 182.268 173.348 165.818 159.648 154.638 150.748 148.018 146.338 145.718 146.198
2073.651 147.858 150.768 154.648 159.398 164.818 170.428 175.868 180.738 184.648 187.388
2092.941 188.568 188.108 186.028 182.268 177.108 170.678 163.298 155.288 146.968 138.818
2112.231 130.958 123.708 117.268 111.668 106.848 102.668 99.078 95.868 92.808 89.788
2131.521 86.838 83.698 80.308 76.888 73.348 69.678 65.918 62.198 58.598 55.258
2150.810 52.408 49.928 47.758 46.028 44.678 43.578 42.718 41.898 40.998 39.978
2170.100 38.698 37.158 35.298 33.148 30.878 28.608 26.388 24.218 22.248 20.488
2189.390 18.918 17.548 16.318 15.198 14.288 13.428 12.598 11.958 11.408 10.838
2208.680 10.348 9.828 9.308 8.928 8.498 8.118 7.778 7.408 7.118 6.738
2227.970 6.398 6.118 5.908 5.718 5.508 5.298 5.088 4.988 4.818 4.648
2247.259 4.608 4.588 4.448 4.398 4.428 4.378 4.418 4.358 4.298 4.288
2266.549 4.238 4.138 3.968 3.778 3.638 3.548 3.418 3.328 3.218 3.148
2285.839 3.078 2.988 3.008 2.948 2.828 2.758 2.768 2.668 2.618 2.748
2305.129 2.718 2.668 2.708 2.678 2.688 2.748 2.718 2.598 2.598 2.668
2324.418 2.568 2.508 2.538 2.578 2.628 2.658 2.678 2.648 2.638 2.678
2343.708 2.728 2.668 2.568 2.558 2.618 2.578 2.508 2.538 2.558 2.538
2362.998 2.558 2.508 2.518 2.488 2.328 2.298 2.278 2.248 2.288 2.348
2382.288 2.408 2.448 2.418 2.478 2.598 2.598 2.568 2.568 2.628 2.628
2401.578 2.738 2.858 2.858 2.918 2.958 2.968 2.958 2.998 3.028 2.988
2420.867 2.908 2.808 2.778 2.738 2.618 2.508 2.478 2.418 2.338 2.318
2440.157 2.258 2.138 2.128 2.158 2.178 2.168 2.138 2.178 2.178 2.228
2459.447 2.288 2.248 2.258 2.308 2.278 2.328 2.458 2.498 2.538 2.588
2478.737 2.618 2.628 2.648 2.698 2.718 2.738 2.728 2.788 2.898 2.898
2498.026 2.898 2.968 3.138 3.288 3.328 3.458 3.598 3.728 3.758 3.678
2517.316 3.698 3.798 3.828 3.798 3.808 3.808 3.908 4.038 4.108 4.228
2536.606 4.228 4.238 4.308 4.328 4.368 4.398 4.438 4.478 4.438 4.478
2555.896 4.418 4.408 4.398 4.238 4.068 4.008 3.998 3.848 3.718 3.638
2575.186 3.548 3.518 3.488 3.378 3.318 3.218 3.148 3.118 3.078 3.058
2594.475 2.998 2.988 2.958 2.818 2.808 2.758 2.708 2.768 2.668 2.618
2613.765 2.658 2.658 2.658 2.568 2.408 2.378 2.428 2.308 2.198 2.258
2633.055 2.178 2.058 2.028 1.878 1.828 1.848 1.818 1.748 1.738 1.758
2652.345 1.738 1.748 1.678 1.658 1.638 1.628 1.638 1.588 1.538 1.498
2671.634 1.538 1.618 1.618 1.718 1.788 1.798 1.788 1.718 1.678 1.648
2690.924 1.728 1.788 1.748 1.708 1.698 1.748 1.868 1.848 1.858 1.958
2710.214 2.048 2.158 2.148 2.198 2.248 2.298 2.328 2.318 2.458 2.538
2729.504 2.548 2.488 2.488 2.488 2.428 2.438 2.418 2.388 2.368 2.268
2748.794 2.178 2.328 2.388 2.418 2.448 2.328 2.348 2.298 2.218 2.298
2768.083 2.298 2.188 2.208 2.238 2.198 2.238 2.268 2.268 2.238 2.258
2787.373 2.278 2.308 2.408 2.418 2.418 2.488 2.458 2.448 2.508 2.638
2806.663 2.728 2.908 3.068 3.098 3.198 3.358 3.428 3.558 3.738 3.908
2825.953 4.188 4.478 4.858 5.318 5.868 6.648 7.638 8.758 9.958 10.928
2845.242 11.668 12.148 12.088 11.648 10.838 9.768 8.708 7.758 6.948 6.268
2864.532 5.728 5.328 5.188 4.948 4.698 4.658 4.558 4.538 4.518 4.658
2883.822 4.828 4.868 4.908 5.098 5.348 5.468 5.758 6.038 6.178 6.478
2903.112 6.888 7.268 7.488 7.668 7.908 8.138 8.328 8.388 8.478 8.408
2922.401 8.368 8.468 8.518 8.688 9.058 9.618 10.448 11.638 12.908 14.238
2941.691 15.588 16.618 17.278 17.438 17.258 16.728 15.958 15.268 14.728 14.438
2960.981 14.118 13.698 13.278 12.788 12.058 11.148 10.448 9.638 8.748 8.148
2980.271 7.828 7.508 7.088 6.968 6.948 7.058 7.168 7.208 7.378 7.658
2999.561 8.008 8.468 9.158 9.858 10.678 11.698 12.628 13.238 13.408 13.398
3018.850 13.048 12.318 11.818 11.778 12.208 13.018 14.178 15.748 17.248 18.348
3038.140 18.858 18.548 17.598 16.278 14.778 13.438 12.478 12.058 12.088 12.318
3057.430 12.968 14.128 15.728 17.768 20.458 23.288 24.948 25.228 24.298 22.108
3076.720 19.438 17.208 15.738 14.908 14.258 13.568 12.748 11.868 10.928 9.978
3096.009 9.028 8.078 7.388 6.878 6.368 5.918 5.488 5.068 4.678 4.408
3115.299 4.128 3.798 3.448 3.068 2.748 2.458 2.178 2.038 1.938 1.818
3134.589 1.548 1.388 1.388 1.3429 1.3177 1.2854 1.104 0.8917 0.8355 0.9403
3153.879 1.0514 1.0781 1.0341 1.0294 1.1072 0.9821 0.8124 0.7606 0.7907 0.7938
3173.169 0.7452 0.6899 0.5356 0.6343 0.77 0.6863 0.6429 0.5985 0.5272 0.5212
3192.458 0.5312 0.4673 0.536 0.585 0.37375 0.201 0.249 0.2811 0.3238 0.3527
3211.748 0.2971 0.2633 0.3288 0.361756 0.34885 0.36801 0.226 0.217 0.2587 0.165
3231.038 0.235 0.3024 0.3307 0.41171 0.3362 0.258 0.155 0.086 0.156 0.247
3250.328 0.39006 0.41424 0.2793 0.177 0.3073 0.365976 0.357075 0.344 0.366575 0.2908
3269.617 0.155 0.2788 0.3195 0.245 0.172 0.129 0.201 0.215 0.134 0.064
3288.907 0.088 0.195 0.248 0.2684 0.186 0.183 0.228 0.213 0.2666 0.363302
3308.197 0.3098 0.176 0.2628 0.3375 0.257 0.178 0.163 0.109 0.078 0.134
3327.487 0.06 0.066 0.152 0.104 0.056 0.11 0.133 0.24 0.4602 0.40254
3346.777 0.256 0.176 0.16 0.217 0.136 0.058 0.045 0.129 0.195 0.246
3366.066 0.2851 0.2688 0.37345 0.36344 0.255 0.2645 0.3371 0.44301 0.5494 0.5254
3385.356 0.40314 0.3813 0.247 0.116 0.2997 0.39595 0.5029 0.513 0.3847 0.3131
3404.646 0.242 0.2827 0.316 0.2894 0.2593 0.39191 0.43344 0.3354 0.3095 0.256
3423.936 0.2874 0.35145 0.39409 0.162 0 0.112 0.091 0.176 0.239 0.2647
3443.225 0.3072 0.3092 0.3152 0.38261 0.495 0.44872 0.360864 0.2766 0.156 0.238
3462.515 0.4835 0.5035 0.42993 0.3206 0.363421 0.5757 0.44812 0.3976 0.34898 0.2719
3481.805 0.3344 0.242 0.221 0.277 0.366021 0.5171 0.38592 0.2992 0.3356 0.3006
3501.095 0.2862 0.136 0.175 0.2874 0.3108 0.3292 0.226 0.2773 0.365228 0.359088
3520.385 0.4664 0.3749 0.199 0.2926 0.45109 0.4329 0.3217 0.252 0.19 0.026
3539.674 0.089 0.3298 0.232 0.124 0.13 0.252 0.5227 0.4848 0.3236 0.2704
3558.964 0.2631 0.35054 0.4892 0.361752 0.148 0.167 0.216 0.21 0.219 0.39556
3578.254 0.44066 0.3006 0.2933 0.365614 0.3344 0.365477 0.4378 0.2623 0.121 0.2958
3597.544 0.44384 0.366776 0.214 0.243 0.35308 0.247 0.144 0.3198 0.4196 0.41368
3616.833 0.41942 0.38191 0.38227 0.38791 0.36674 0.3303 0.257 0.22 0.3275 0.5064
3636.123 0.5135 0.37085 0.193 0.176 0.342 0.3395 0.314 0.2909 0.485 0.6403
3655.413 0.5757 0.5912 0.5241 0.5172 0.5761 0.5491 0.4759 0.4794 0.4839 0.43485
3674.703 0.37779 0.43064 0.4589 0.42259 0.364695 0.39617 0.38011 0.242 0.3168 0.367066
3693.993 0.40744 0.37369 0.197 0.35369 0.5417 0.4031 0.39426 0.2645 0.18 0.2986
3713.282 0.40441 0.5192 0.5892 0.4611 0.3106 0.3399 0.3081 0.3012 0.5604 0.5979
3732.572 0.34958 0.2806 0.34812 0.41615 0.4528 0.5989 0.579 0.43808 0.42839 0.4977
3751.862 0.45591 0.4847 0.6688 0.6678 0.41614 0.45346 0.535 0.4998 0.4934 0.37868
3771.152 0.4619 0.5412 0.4924 0.5721 0.5292 0.319 0.362193 0.4868 0.5076 0.5234
3790.441 0.5579 0.6113 0.5544 0.41215 0.43778 0.562 0.6424 0.608 0.554 0.4793
3809.731 0.5185 0.5926 0.39868 0.37319 0.41633 0.38862 0.4888 0.40263 0.3195 0.38529
3829.021 0.44843 0.58 0.5969 0.43077 0.43949 0.4858 0.5813 0.6453 0.635 0.6242
3848.311 0.5192 0.5418 0.5217 0.6604 0.7593 0.6488 0.691 0.6808 0.6735 0.6885
3867.601 0.628 0.6004 0.7757 0.8385 0.603 0.5433 0.5714 0.6369 0.7817 0.7973
3886.890 0.6691 0.5037 0.4892 0.7381 0.7758 0.4952 0.551 0.6661 0.7036 0.8078
3906.180 0.7602 0.7693 0.7063 0.7297 0.7957 0.6739 0.8871 0.9193 0.6122 0.6657
3925.470 0.8425 0.8291 0.8501 0.8531 0.885 1.0999 1.0127 0.8934 0.9411 0.91
3944.760 1.0442 1.3366 1.378 1.2469 1.2198 1.1444 1.0707 1.1062 1.0916 1.0306
3964.049 1.0246 1.1731 1.3398 1.1381 1.1163 1.3317 1.2154 1.1863 1.3144 1.3348
3983.339 1.418 1.498 1.438 1.418 1.608 1.648 1.578 1.498 1.388 1.448
##END=
