##TITLE=2,4,6-Trifluorophenyl isothiocyanate
##JCAMP-DX=4.24
##DATA TYPE=INFRARED SPECTRUM
##ORIGIN=EPA-IR VAPOR PHASE LIBRARY
##OWNER=SRD/NIST
Collection (C) 2018 copyright by the U.S. Secretary of Commerce
on behalf of the United States of America. All rights reserved.
##CAS REGISTRY NO=206761-91-3
##MOLFORM=C 7 H 2 F 3 N S
##$NIST SOURCE=MSDC-IR
##STATE=gas
##XUNITS=1/CM
##YUNITS=ABSORBANCE
##XFACTOR=1.
##YFACTOR=0.001
##DELTAX=1.92898
##FIRSTX=549.8
##LASTX=4000.7
##FIRSTY=5.466
##MAXX=4000.7
##MINX=549.759
##MAXY=0.677076
##MINY=0
##NPOINTS=1790
##XYDATA=(X++(Y..Y))
549.759 5.466 4.656 4.266 4.066 3.886 3.476 2.996 2.666 2.696 2.826
569.049 3.286 3.706 3.426 3.616 4.216 4.616 4.926 5.196 5.546 6.186
588.339 7.316 8.096 8.386 9.086 10.086 11.296 13.076 15.506 17.866 20.676
607.628 24.796 30.266 35.206 37.416 39.406 42.016 42.556 40.466 36.336 31.426
626.918 26.786 21.496 16.026 12.296 10.276 9.006 8.266 8.196 8.456 8.676
646.208 8.876 8.946 9.196 9.686 10.026 10.246 10.426 10.376 10.266 10.486
665.498 10.626 10.466 10.066 9.566 8.796 7.706 6.756 5.866 4.756 3.696
684.787 2.976 2.546 2.246 1.846 1.676 1.816 2.126 2.596 3.076 3.696
704.077 4.306 4.686 5.306 6.146 7.306 7.806 6.546 5.176 4.586 4.096
723.367 3.396 2.686 2.076 1.666 1.466 1.346 1.2348 1.2507 1.426 1.596
742.657 2.076 2.836 3.286 3.726 3.946 3.736 3.506 3.066 2.556 2.116
761.947 1.556 1.1081 1.0576 0.7227 0.5132 0.5807 0.4921 0.4367 0.4316 0.459
781.236 0.498 0.5008 0.3912 0.3806 0.4954 0.7309 0.9872 1.0897 1.1204 1.296
800.526 1.516 1.596 1.716 1.856 1.786 1.756 1.666 1.606 1.706 1.906
819.816 2.476 3.356 4.696 7.416 11.746 17.336 24.446 32.386 40.106 46.446
839.106 53.466 67.046 87.796 83.466 58.506 48.986 45.056 38.126 29.996 21.586
858.395 14.726 9.386 5.866 3.756 2.666 2.136 1.846 1.796 1.776 1.746
877.685 1.846 1.916 1.836 1.906 2.066 2.016 2.076 2.196 2.346 2.396
896.975 2.356 2.376 2.566 2.696 2.806 2.796 2.776 3.106 3.356 3.556
916.265 3.836 4.286 4.946 5.586 6.236 6.956 7.976 9.396 10.806 12.446
935.555 14.206 15.596 16.756 17.636 18.146 18.266 17.806 16.796 15.616 14.496
954.844 13.226 12.096 11.326 10.596 9.836 9.156 8.676 8.056 7.546 7.376
974.134 7.246 7.286 7.546 8.066 8.736 9.706 11.386 14.286 19.016 26.436
993.424 36.206 45.186 49.726 50.676 50.076 47.416 42.476 33.756 23.526 16.086
1012.714 11.606 9.616 9.006 9.066 9.656 10.616 12.106 14.296 17.816 22.486
1032.003 28.406 36.516 47.176 60.276 75.276 91.826 108.786 122.996 130.106 130.276
1051.293 129.286 129.186 123.566 107.006 84.806 64.846 49.476 37.906 28.766 22.396
1070.583 18.306 14.886 12.596 11.076 9.776 8.716 7.916 7.526 7.406 7.296
1089.873 7.086 6.786 6.386 5.976 5.446 5.366 5.296 5.076 5.696 6.906
1109.163 8.606 11.246 16.126 25.816 41.286 64.826 96.276 127.366 147.166 155.076
1128.452 157.946 154.186 140.546 113.216 77.726 49.766 33.666 23.746 16.616 11.766
1147.742 8.666 7.046 6.446 6.586 7.046 8.086 9.856 12.046 14.366 16.936
1167.032 19.356 20.426 20.106 19.906 20.526 20.386 18.616 16.246 14.476 13.096
1186.322 11.806 11.156 10.746 10.586 10.616 10.226 9.866 9.496 8.686 7.596
1205.611 6.066 4.316 3.516 3.326 2.806 2.306 2.276 2.406 2.526 2.546
1224.901 2.616 2.476 2.306 2.156 1.836 1.786 1.736 1.626 2.086 2.656
1244.191 3.096 3.476 3.896 4.656 5.506 6.296 6.946 7.436 7.776 8.416
1263.481 9.176 9.566 9.736 9.946 10.026 10.056 10.026 9.796 9.396 8.936
1282.771 8.546 7.756 6.946 6.486 6.006 5.416 4.876 4.366 3.926 3.716
1302.060 3.576 3.436 3.326 3.176 3.086 3.006 2.936 2.956 2.936 2.876
1321.350 2.896 2.976 3.106 3.196 3.216 3.226 3.256 3.286 3.276 3.186
1340.640 3.106 3.146 3.256 3.526 4.046 4.796 5.856 7.336 9.446 12.456
1359.930 16.776 22.896 30.956 40.506 50.436 58.866 64.076 65.176 62.436 56.716
1379.219 48.306 37.676 26.306 16.956 11.236 8.476 7.206 6.496 5.956 5.456
1398.509 5.126 5.126 5.446 5.916 6.406 6.776 7.086 7.306 7.536 7.806
1417.799 8.186 8.976 10.156 11.666 13.646 15.986 18.646 21.586 24.806 28.376
1437.089 32.446 36.896 41.816 46.816 51.686 56.866 62.206 66.466 68.546 68.026
1456.378 64.946 60.396 55.956 51.466 45.496 37.946 30.696 24.856 20.486 17.276
1475.668 15.186 13.996 13.716 14.356 16.106 19.196 24.086 31.306 41.636 55.526
1494.958 73.296 95.046 118.626 141.096 159.076 169.706 172.106 166.496 153.156 133.246
1514.248 109.716 85.816 64.916 49.116 37.266 28.706 22.446 17.936 14.986 13.136
1533.538 12.016 11.576 11.556 11.716 11.956 12.266 12.636 12.986 13.466 14.106
1552.827 14.906 15.836 16.816 17.776 18.706 19.596 20.536 21.536 22.526 23.626
1572.117 24.976 26.606 28.456 30.476 32.606 34.976 37.696 40.736 44.316 48.556
1591.407 53.386 58.676 64.216 69.756 75.016 79.586 83.166 85.516 86.366 85.896
1610.697 84.026 81.106 77.746 73.986 70.526 68.046 66.816 67.146 68.716 71.066
1629.986 73.256 74.116 72.676 68.736 62.576 54.766 46.146 37.636 29.626 22.976
1649.276 18.226 15.156 13.336 12.336 11.706 11.186 10.766 10.646 10.526 10.336
1668.566 10.236 10.176 10.076 9.886 9.566 9.076 8.546 7.986 7.316 6.676
1687.856 6.136 5.756 5.646 5.846 6.236 6.696 7.136 7.396 7.366 7.196
1707.146 6.766 6.106 5.246 4.356 3.636 3.106 2.776 2.586 2.466 2.356
1726.435 2.336 2.366 2.316 2.216 2.216 2.296 2.406 2.546 2.616 2.556
1745.725 2.556 2.656 2.756 2.756 2.756 2.806 2.836 2.886 2.986 3.066
1765.015 3.126 3.196 3.326 3.436 3.516 3.566 3.666 3.796 3.816 3.836
1784.305 3.886 3.866 3.856 3.836 3.736 3.556 3.406 3.316 3.166 2.976
1803.594 2.916 2.956 2.906 2.836 2.756 2.776 2.836 2.876 2.976 3.056
1822.884 3.156 3.236 3.366 3.626 3.786 3.896 4.096 4.286 4.536 4.846
1842.174 5.066 5.266 5.566 5.886 6.156 6.356 6.586 6.846 7.026 7.226
1861.464 7.386 7.516 7.666 7.916 8.196 8.416 8.656 8.946 9.276 9.586
1880.754 9.916 10.266 10.566 10.806 11.126 11.486 11.876 12.316 12.756 13.286
1900.043 13.826 14.416 15.206 16.126 17.116 18.116 19.186 20.436 21.776 23.156
1919.333 24.776 26.486 28.306 30.236 32.116 34.026 35.886 37.666 39.366 41.046
1938.623 42.836 44.696 46.616 48.706 50.936 53.356 55.996 58.826 61.926 65.266
1957.913 68.856 72.646 76.636 80.946 85.786 91.206 97.146 103.696 111.036 119.216
1977.202 128.046 137.346 146.926 156.796 166.836 176.726 186.356 195.676 204.806 213.676
1996.492 222.406 230.816 238.706 246.226 253.736 261.816 270.816 281.426 294.376 310.496
2015.782 330.706 355.756 386.366 423.356 466.316 513.496 563.156 612.406 652.266 674.126
2035.072 677.076 663.166 633.506 590.266 537.796 482.186 428.216 378.536 334.466 296.146
2054.362 263.426 236.096 213.776 195.876 181.886 171.696 164.596 160.026 157.986 157.986
2073.651 159.716 163.346 169.126 177.236 187.736 200.136 214.066 228.906 243.546 256.946
2092.941 268.316 276.716 281.416 282.256 279.056 272.076 261.886 248.926 233.666 216.776
2112.231 198.946 180.836 163.106 146.396 131.006 117.076 104.886 94.406 85.586 78.286
2131.521 72.346 67.806 64.356 61.806 60.076 59.046 58.616 58.586 58.766 59.026
2150.810 59.316 59.546 59.546 59.076 58.256 57.046 55.426 53.516 51.346 48.976
2170.100 46.526 44.106 41.746 39.536 37.446 35.506 33.856 32.296 30.836 29.676
2189.390 28.776 27.996 27.456 27.176 26.936 26.756 26.656 26.326 25.806 25.166
2208.680 24.316 23.246 21.966 20.516 19.026 17.466 15.956 14.646 13.426 12.406
2227.970 11.516 10.646 9.886 9.236 8.696 8.176 7.706 7.406 7.206 6.956
2247.259 6.726 6.586 6.446 6.366 6.236 6.006 5.656 5.336 5.156 4.916
2266.549 4.666 4.536 4.436 4.266 4.146 4.066 3.936 3.856 3.806 3.736
2285.839 3.646 3.556 3.486 3.416 3.336 3.326 3.266 3.206 3.196 3.236
2305.129 3.296 3.306 3.316 3.326 3.336 3.326 3.276 3.286 3.326 3.366
2324.418 3.336 3.356 3.466 3.446 3.576 3.786 3.876 4.036 4.166 4.226
2343.708 4.336 4.406 4.406 4.306 4.046 3.836 3.686 3.556 3.466 3.366
2362.998 3.226 3.196 3.166 3.066 3.016 3.036 2.966 2.856 2.856 2.856
2382.288 2.826 2.836 2.826 2.916 3.096 3.166 3.276 3.496 3.606 3.606
2401.578 3.696 3.886 3.966 4.086 4.146 4.166 4.266 4.296 4.326 4.306
2420.867 4.246 4.186 4.086 3.936 3.786 3.596 3.456 3.306 3.106 2.986
2440.157 2.896 2.816 2.776 2.626 2.536 2.586 2.526 2.446 2.436 2.406
2459.447 2.326 2.296 2.266 2.286 2.356 2.426 2.556 2.696 2.896 3.096
2478.737 3.286 3.556 3.826 4.186 4.716 5.246 5.696 6.126 6.506 6.756
2498.026 6.926 6.926 6.876 6.856 6.706 6.666 6.746 6.716 6.766 6.926
2517.316 7.076 7.196 7.446 7.716 7.916 8.126 8.286 8.486 8.626 8.586
2536.606 8.506 8.346 8.056 7.686 7.186 6.576 5.986 5.386 4.806 4.366
2555.896 3.986 3.556 3.266 3.046 2.776 2.646 2.646 2.576 2.516 2.486
2575.186 2.456 2.476 2.496 2.536 2.596 2.616 2.606 2.666 2.636 2.496
2594.475 2.366 2.336 2.346 2.316 2.276 2.176 2.136 2.186 2.126 2.116
2613.765 2.236 2.236 2.296 2.386 2.446 2.506 2.596 2.656 2.646 2.666
2633.055 2.686 2.736 2.776 2.826 2.846 2.886 2.966 2.996 3.056 3.286
2652.345 3.566 3.686 3.816 3.976 4.086 4.186 4.166 4.206 4.276 4.316
2671.634 4.356 4.576 4.836 5.006 5.216 5.436 5.686 5.986 6.316 6.656
2690.924 7.086 7.576 8.156 8.796 9.466 10.206 10.946 11.546 12.156 12.766
2710.214 13.066 13.166 13.026 12.576 11.936 11.116 10.106 9.096 8.096 7.066
2729.504 6.146 5.476 4.896 4.336 3.976 3.666 3.376 3.226 3.016 2.856
2748.794 2.716 2.566 2.536 2.486 2.456 2.376 2.236 2.306 2.346 2.256
2768.083 2.156 2.066 2.026 1.996 1.876 1.686 1.566 1.496 1.376 1.2471
2787.373 1.286 1.2278 1.0812 1.0621 1.0112 0.9319 0.9236 0.9567 0.9414 0.8705
2806.663 0.9548 0.9996 0.8972 0.9557 1.039 0.9935 0.9866 1.0982 1.0743 0.9504
2825.953 0.9994 1.15 1.0727 0.8537 0.8893 1.0072 1.0391 1.0214 0.9945 1.0133
2845.242 0.9713 0.9214 0.9765 0.9648 0.9134 0.9431 0.9678 0.9893 1.168 1.1814
2864.532 0.9919 1.0263 1.0249 0.9553 1.0221 1.0779 1.0803 1.0891 1.1385 1.1791
2883.822 1.2224 1.1974 1.1726 1.286 1.306 1.2228 1.1628 1.2175 1.2372 1.2424
2903.112 1.2693 1.326 1.2743 1.1893 1.2481 1.2591 1.2538 1.2656 1.2668 1.2549
2922.401 1.2397 1.2137 1.2666 1.296 1.286 1.276 1.274 1.396 1.506 1.596
2941.691 1.656 1.626 1.576 1.666 1.886 2.016 2.096 2.176 2.376 2.646
2960.981 2.836 2.916 2.996 3.206 3.386 3.406 3.316 3.296 3.266 3.086
2980.271 2.896 2.726 2.586 2.316 2.016 1.916 1.776 1.626 1.516 1.446
2999.561 1.376 1.296 1.326 1.286 1.2438 1.2111 1.1654 1.2618 1.2584 1.316
3018.850 1.426 1.316 1.296 1.426 1.476 1.516 1.526 1.596 1.656 1.726
3038.140 1.846 1.816 1.786 1.816 1.786 1.716 1.646 1.406 1.246 1.163
3057.430 1.1712 1.286 1.356 1.306 1.1609 1.1607 1.2031 1.1028 1.1254 1.202
3076.720 1.2286 1.296 1.436 1.476 1.436 1.376 1.486 1.806 2.016 2.226
3096.009 2.386 2.446 2.556 2.756 2.866 2.986 2.956 2.766 2.656 2.546
3115.299 2.366 2.096 1.956 1.856 1.656 1.356 1.1204 1.0438 0.9982 0.8169
3134.589 0.5495 0.4162 0.4359 0.4655 0.5644 0.6562 0.592 0.4022 0.33664 0.285737
3153.879 0.166 0.2557 0.31278 0.27314 0.32681 0.32573 0.1786 0.1874 0.30732 0.280295
3173.169 0.175 0.077 0.16 0.28831 0.1901 0.17 0.2128 0.2147 0.2405 0.2428
3192.458 0.121 0.117 0.115 0.081 0.1835 0.30243 0.35771 0.2625 0.053 0.052
3211.748 0.2045 0.3605 0.37354 0.2079 0.282169 0.2673 0.2404 0.36897 0.32536 0.26997
3231.038 0.36241 0.3798 0.32001 0.26724 0.279062 0.29098 0.275948 0.3789 0.3932 0.2109
3250.328 0.148 0.2044 0.26618 0.37164 0.313 0.117 0.132 0.173 0.118 0.152
3269.617 0.2091 0.157 0.138 0.29019 0.4879 0.4456 0.164 0.051 0.058 0.143
3288.907 0.067 0.085 0.217 0.065 0.108 0.103 0 0.042 0.109 0.28975
3308.197 0.29377 0.2369 0.2384 0.135 0.112 0.118 0.280352 0.276598 0.195 0.1767
3327.487 0.103 0.2366 0.2481 0.1771 0.2099 0.162 0.081 0.103 0.2659 0.1947
3346.777 0.117 0.2121 0.2522 0.32065 0.29347 0.284 0.35698 0.30512 0.223 0.31986
3366.066 0.36797 0.29371 0.2097 0.2363 0.3725 0.279101 0.31461 0.4358 0.2556 0.2312
3385.356 0.2006 0.141 0.35377 0.4332 0.29302 0.089 0.161 0.30217 0.2259 0.2531
3404.646 0.2202 0.2019 0.2403 0.2436 0.31837 0.4599 0.3885 0.278135 0.31702 0.4031
3423.936 0.35955 0.26916 0.32813 0.3955 0.3962 0.26947 0.2035 0.2259 0.2298 0.2663
3443.225 0.2386 0.2992 0.31479 0.275651 0.34503 0.275562 0.27234 0.2413 0.2021 0.280794
3462.515 0.30419 0.1765 0.1 0.1836 0.136 0.30995 0.34433 0.162 0.2016 0.284222
3481.805 0.4172 0.33041 0.2125 0.34453 0.4283 0.4717 0.4989 0.36679 0.36767 0.3916
3501.095 0.2985 0.2278 0.17 0.2404 0.27214 0.2184 0.30208 0.2391 0.14 0.205
3520.385 0.1821 0.154 0.2082 0.27405 0.31419 0.35088 0.33699 0.32167 0.28867 0.33648
3539.674 0.4276 0.4188 0.31032 0.3862 0.32288 0.29687 0.4991 0.5667 0.5406 0.4215
3558.964 0.3811 0.31452 0.1949 0.182 0.207 0.2085 0.34302 0.283879 0.173 0.35381
3578.254 0.5413 0.4161 0.2961 0.284611 0.33254 0.4484 0.3896 0.37097 0.3947 0.487
3597.544 0.5393 0.5584 0.5399 0.4102 0.4994 0.5716 0.5257 0.5026 0.3947 0.34527
3616.833 0.4096 0.3988 0.37032 0.37188 0.3837 0.4014 0.3826 0.4418 0.4681 0.5023
3636.123 0.4512 0.35231 0.3006 0.26704 0.3775 0.4767 0.482 0.4349 0.4785 0.5593
3655.413 0.5387 0.4949 0.3793 0.4075 0.6187 0.5235 0.37231 0.4429 0.4686 0.473
3674.703 0.4224 0.4106 0.34151 0.2089 0.391 0.557 0.4706 0.34172 0.4166 0.6026
3693.993 0.5378 0.46 0.4415 0.5253 0.5655 0.4986 0.5915 0.5019 0.4496 0.4782
3713.282 0.4482 0.5523 0.592 0.5363 0.4691 0.33447 0.30093 0.4023 0.531 0.4899
3732.572 0.5793 0.7504 0.6256 0.4888 0.489 0.554 0.4674 0.3572 0.5044 0.6302
3751.862 0.5426 0.6298 0.6848 0.5168 0.5327 0.6104 0.603 0.4827 0.4533 0.4902
3771.152 0.5392 0.6948 0.6598 0.5641 0.4094 0.3984 0.5206 0.6194 0.6374 0.5053
3790.441 0.3959 0.4443 0.5735 0.4899 0.4551 0.5765 0.5502 0.4667 0.4614 0.5151
3809.731 0.5682 0.6301 0.7128 0.6883 0.568 0.4909 0.4872 0.5101 0.602 0.6748
3829.021 0.6338 0.7075 0.7301 0.5948 0.5113 0.4721 0.5809 0.7024 0.6224 0.491
3848.311 0.5836 0.8455 0.8875 0.8612 0.7288 0.5761 0.6637 0.7388 0.7771 0.8155
3867.601 0.8044 0.7995 0.8007 0.8163 0.8745 0.7594 0.6882 0.7151 0.8347 0.8898
3886.890 0.9552 1.0227 1.0193 0.9174 0.8513 0.8642 0.7935 0.8182 0.8736 1.028
3906.180 1.114 1.0553 1.0752 1.1391 1.0603 1.132 1.296 1.2032 1.1216 1.2392
3925.470 1.286 1.326 1.2403 1.167 1.2751 1.286 1.286 1.2488 1.2519 1.2515
3944.760 1.2345 1.326 1.456 1.426 1.416 1.606 1.716 1.716 1.646 1.546
3964.049 1.666 1.666 1.676 1.776 1.646 1.656 1.756 1.906 1.896 1.766
3983.339 1.876 1.946 1.876 1.866 1.916 1.956 1.936 2.046 2.046 2.056
##END=
