##TITLE=3-Methylhexyl isothiocyanate
##JCAMP-DX=4.24
##DATA TYPE=INFRARED SPECTRUM
##ORIGIN=EPA-IR VAPOR PHASE LIBRARY
##OWNER=SRD/NIST
Collection (C) 2018 copyright by the U.S. Secretary of Commerce
on behalf of the United States of America. All rights reserved.
##CAS REGISTRY NO=206761-72-0
##MOLFORM=C 8 H 15 N S
##$NIST SOURCE=MSDC-IR
##STATE=gas
##XUNITS=1/CM
##YUNITS=ABSORBANCE
##XFACTOR=1.
##YFACTOR=0.001
##DELTAX=1.92898
##FIRSTX=549.8
##LASTX=4000.7
##FIRSTY=7.864
##MAXX=4000.7
##MINX=549.759
##MAXY=0.289354
##MINY=0
##NPOINTS=1790
##XYDATA=(X++(Y..Y))
549.759 7.864 7.944 8.264 8.074 7.864 8.064 7.904 7.564 7.324 6.784
569.049 6.804 7.174 7.014 6.774 6.434 6.184 6.034 5.874 5.984 5.804
588.339 5.554 5.354 4.884 4.414 4.114 4.204 4.104 3.904 3.734 3.584
607.628 3.554 3.274 3.094 3.054 2.634 2.314 2.284 2.404 2.194 1.924
626.918 2.184 2.354 2.204 2.054 2.164 2.304 2.364 2.454 2.504 2.654
646.208 2.804 2.834 2.974 3.194 3.334 3.444 3.414 3.324 3.214 3.184
665.498 3.264 3.334 3.384 3.314 3.174 3.114 3.034 3.094 3.294 3.354
684.787 3.484 3.644 3.764 4.004 4.344 4.704 4.974 5.304 5.534 5.494
704.077 5.374 5.174 5.124 5.074 4.754 4.534 4.294 3.844 3.414 3.204
723.367 3.054 2.734 2.544 2.434 2.264 2.114 2.174 2.184 1.934 1.744
742.657 1.734 1.854 1.844 1.684 1.584 1.494 1.424 1.464 1.364 1.234
761.947 1.244 1.2166 1.374 1.424 1.394 1.504 1.514 1.504 1.614 1.524
781.236 1.364 1.504 1.494 1.304 1.1416 1.109 1.1957 1.494 1.664 1.404
800.526 1.0746 1.264 1.424 1.264 1.254 1.2311 1.0634 0.9232 0.9385 1.0281
819.816 1.0589 0.9284 0.7856 0.7469 0.9353 1.0807 1.0517 1.0341 1.0191 0.9548
839.106 1.244 1.684 1.674 1.654 1.934 2.214 2.304 2.264 2.424 2.624
858.395 2.654 2.644 2.654 2.614 2.514 2.434 2.424 2.424 2.354 2.354
877.685 2.264 2.274 2.404 2.454 2.514 2.434 2.384 2.404 2.474 2.554
896.975 2.574 2.514 2.484 2.674 2.684 2.784 3.144 3.254 3.194 3.234
916.265 3.284 3.354 3.544 3.664 3.554 3.314 3.344 3.444 3.344 3.214
935.555 3.034 3.004 3.124 3.184 3.294 3.124 2.804 2.854 2.714 2.574
954.844 2.744 2.684 2.614 2.674 2.664 2.634 2.664 2.614 2.604 2.514
974.134 2.424 2.344 2.494 2.564 2.534 2.764 2.724 2.614 2.584 2.434
993.424 2.364 2.324 2.414 2.484 2.184 2.214 2.384 2.244 2.044 2.204
1012.714 2.334 2.324 2.324 2.414 2.434 2.364 2.524 2.624 2.504 2.384
1032.003 2.594 2.764 2.714 2.784 2.814 2.634 2.384 2.304 2.564 2.834
1051.293 2.614 2.434 2.744 2.964 3.054 2.924 2.924 3.064 2.934 2.814
1070.583 2.924 3.234 3.354 3.024 2.784 3.194 3.134 2.904 2.994 3.154
1089.873 3.314 3.404 3.354 3.284 3.774 3.794 3.654 3.884 4.154 4.184
1109.163 3.974 4.414 4.714 4.444 4.484 4.734 4.654 5.024 5.224 5.084
1128.452 5.374 5.484 5.454 5.244 5.174 5.164 4.944 4.934 5.174 5.414
1147.742 5.424 5.394 5.444 5.464 5.604 5.454 4.974 4.704 4.514 4.074
1167.032 3.644 3.394 3.134 2.984 2.894 2.694 2.564 2.674 2.774 2.574
1186.322 2.584 2.674 2.674 2.724 2.714 2.964 3.014 2.964 3.034 3.024
1205.611 2.974 3.224 3.604 3.634 3.604 3.274 3.014 3.034 2.964 3.094
1224.901 3.094 3.214 3.694 3.774 3.864 4.074 4.134 3.914 3.904 4.294
1244.191 4.414 4.314 4.144 4.224 4.564 4.744 4.734 4.874 4.784 4.684
1263.481 4.814 4.924 5.104 5.204 5.434 5.664 5.634 5.634 5.584 5.574
1282.771 5.794 5.984 6.164 6.274 6.384 6.584 6.784 6.954 7.204 7.594
1302.060 8.024 8.364 8.764 9.274 9.844 10.574 11.434 12.334 13.364 14.524
1321.350 15.834 17.354 19.094 20.924 22.884 24.924 26.764 28.524 30.214 31.824
1340.640 33.284 34.524 35.524 36.254 36.694 36.774 36.444 35.754 34.814 33.734
1359.930 32.534 31.294 30.064 28.854 27.664 26.434 25.244 24.084 22.884 21.694
1379.219 20.584 19.534 18.554 17.534 16.384 15.084 13.664 12.204 10.774 9.424
1398.509 8.234 7.264 6.524 5.914 5.404 5.044 4.834 4.674 4.554 4.574
1417.799 4.714 4.834 4.974 5.194 5.584 6.074 6.664 7.344 8.064 9.014
1437.089 10.114 11.234 12.594 14.124 15.764 17.664 19.734 21.914 24.204 26.434
1456.378 28.534 30.294 31.564 32.324 32.224 31.184 29.404 26.904 23.924 20.764
1475.668 17.734 15.064 12.834 10.994 9.424 8.104 7.004 6.114 5.424 4.884
1494.958 4.444 3.984 3.584 3.274 3.014 2.814 2.624 2.494 2.374 2.194
1514.248 2.024 1.934 1.874 1.814 1.804 1.764 1.664 1.574 1.534 1.484
1533.538 1.464 1.504 1.464 1.464 1.424 1.354 1.324 1.314 1.314 1.244
1552.827 1.1745 1.1354 1.1209 1.1533 1.1394 1.1029 1.0274 0.9888 0.9951 0.9357
1572.117 0.9359 1.0199 1.0425 0.9235 0.8493 0.8777 0.9312 0.9767 0.9654 0.8775
1591.407 0.8399 0.9377 0.9405 0.8646 0.8175 0.8249 0.8114 0.8262 0.8267 0.853
1610.697 0.9317 0.9126 0.8814 0.8323 0.8336 0.8275 0.7786 0.7496 0.7763 0.7675
1629.986 0.7201 0.7369 0.7921 0.8042 0.8032 0.7498 0.7024 0.743 0.7203 0.6832
1649.276 0.7188 0.7497 0.7386 0.7013 0.717 0.7497 0.7082 0.6806 0.6573 0.6968
1668.566 0.7666 0.7164 0.6569 0.6532 0.7234 0.7823 0.685 0.6563 0.7548 0.6954
1687.856 0.6012 0.6359 0.6441 0.6967 0.7473 0.7097 0.7392 0.7689 0.7354 0.6701
1707.146 0.6366 0.6175 0.5826 0.5743 0.5952 0.5658 0.5907 0.6465 0.5928 0.599
1726.435 0.621 0.6531 0.6774 0.6617 0.6468 0.6545 0.6809 0.6639 0.6289 0.6347
1745.725 0.6549 0.6165 0.5992 0.6706 0.704 0.719 0.74 0.7331 0.7072 0.6508
1765.015 0.7226 0.7362 0.717 0.7388 0.7381 0.7617 0.7674 0.7563 0.7496 0.7837
1784.305 0.8248 0.8083 0.7745 0.8115 0.8559 0.8354 0.8283 0.832 0.8011 0.8153
1803.594 0.8643 0.9118 0.8876 0.8786 0.8965 0.917 0.95 1.0085 1.0211 0.9832
1822.884 1.007 1.0695 1.0899 1.0951 1.1155 1.1085 1.145 1.2049 1.23 1.2202
1842.174 1.304 1.414 1.424 1.434 1.474 1.564 1.634 1.654 1.664 1.754
1861.464 1.834 1.884 1.964 2.084 2.234 2.344 2.454 2.534 2.654 2.774
1880.754 2.884 3.014 3.094 3.214 3.404 3.594 3.774 3.934 4.124 4.314
1900.043 4.574 4.814 5.004 5.194 5.454 5.754 6.054 6.314 6.634 7.014
1919.333 7.334 7.664 8.054 8.474 8.864 9.264 9.784 10.314 10.794 11.304
1938.623 11.844 12.454 13.124 13.834 14.524 15.234 15.964 16.784 17.614 18.494
1957.913 19.484 20.474 21.544 22.704 23.914 25.144 26.394 27.814 29.384 31.014
1977.202 32.744 34.584 36.614 38.744 40.954 43.374 45.994 48.754 51.664 54.754
1996.492 58.104 61.764 65.674 69.854 74.244 78.964 84.054 89.444 95.224 101.384
2015.782 107.984 114.994 122.474 130.384 138.724 147.604 156.904 166.664 176.804 187.224
2035.072 197.894 208.654 219.494 230.114 240.344 250.094 259.164 267.394 274.504 280.374
2054.362 284.904 287.964 289.354 289.174 287.354 284.134 279.584 273.674 266.794 259.204
2073.651 250.924 242.014 232.714 223.124 213.304 203.494 193.854 184.364 175.134 166.334
2092.941 158.044 150.224 142.874 136.024 129.834 124.254 119.054 114.204 109.694 105.424
2112.231 101.294 97.314 93.484 89.764 86.174 82.644 79.244 76.034 72.984 70.124
2131.521 67.464 64.984 62.734 60.674 58.774 57.074 55.524 54.054 52.754 51.654
2150.810 50.584 49.604 48.814 48.134 47.474 46.924 46.524 46.184 45.964 45.744
2170.100 45.604 45.624 45.594 45.534 45.484 45.394 45.194 44.884 44.464 44.024
2189.390 43.464 42.624 41.634 40.574 39.424 38.114 36.794 35.514 34.114 32.684
2208.680 31.314 30.034 28.794 27.464 26.174 25.004 23.804 22.654 21.594 20.474
2227.970 19.414 18.424 17.424 16.474 15.624 14.754 13.944 13.254 12.554 11.864
2247.259 11.274 10.704 10.134 9.624 9.124 8.604 8.134 7.774 7.464 7.164
2266.549 6.824 6.444 6.164 5.944 5.664 5.454 5.284 5.094 4.874 4.694
2285.839 4.534 4.324 4.154 4.004 3.894 3.774 3.614 3.514 3.464 3.384
2305.129 3.274 3.204 3.114 2.984 2.864 2.794 2.744 2.634 2.564 2.494
2324.418 2.374 2.294 2.224 2.184 2.144 2.184 2.184 2.074 2.034 2.004
2343.708 1.954 1.874 1.834 1.784 1.684 1.704 1.714 1.664 1.624 1.614
2362.998 1.584 1.514 1.414 1.364 1.384 1.374 1.414 1.394 1.314 1.294
2382.288 1.274 1.274 1.284 1.274 1.1717 1.1258 1.2113 1.1367 1.0832 1.0952
2401.578 1.0463 1.0405 1.0777 1.113 1.0579 1.0843 1.152 1.1065 1.0424 1.0329
2420.867 0.9956 0.9729 1.0062 0.9759 0.9739 1.0187 1.0178 1.0187 0.9626 0.9554
2440.157 0.9648 0.9695 1.0274 1.0236 0.9918 0.9342 0.9605 0.9913 1.0195 1.055
2459.447 0.9984 0.9877 1.0416 1.0191 1.0209 1.0021 0.8856 0.8692 0.9228 0.9648
2478.737 1.0075 1.0206 1.0491 1.0608 1.0548 1.0391 1.0384 1.0922 1.0964 1.0737
2498.026 1.1013 1.1584 1.1122 1.1096 1.1978 1.2265 1.2322 1.2307 1.2271 1.2099
2517.316 1.1818 1.177 1.174 1.14 1.1804 1.254 1.274 1.2024 1.187 1.304
2536.606 1.314 1.254 1.284 1.374 1.424 1.384 1.424 1.444 1.374 1.434
2555.896 1.514 1.534 1.544 1.554 1.624 1.654 1.644 1.704 1.764 1.714
2575.186 1.754 1.834 1.764 1.704 1.724 1.724 1.764 1.794 1.764 1.734
2594.475 1.664 1.664 1.714 1.704 1.704 1.694 1.654 1.604 1.604 1.644
2613.765 1.644 1.644 1.664 1.704 1.664 1.604 1.524 1.534 1.564 1.574
2633.055 1.604 1.624 1.584 1.464 1.444 1.484 1.604 1.664 1.614 1.634
2652.345 1.674 1.694 1.774 1.824 1.764 1.774 1.924 2.054 2.144 2.234
2671.634 2.254 2.214 2.284 2.364 2.424 2.504 2.614 2.664 2.774 2.844
2690.924 2.884 2.954 2.964 3.074 3.204 3.344 3.514 3.634 3.784 3.954
2710.214 4.004 4.094 4.354 4.554 4.664 4.874 5.104 5.244 5.394 5.594
2729.504 5.714 5.814 5.974 6.084 6.124 6.174 6.254 6.274 6.214 6.104
2748.794 6.064 6.034 5.934 5.764 5.564 5.434 5.244 5.014 4.954 4.974
2768.083 4.824 4.634 4.614 4.564 4.474 4.514 4.574 4.474 4.444 4.444
2787.373 4.494 4.594 4.584 4.594 4.674 4.764 4.804 4.894 4.984 5.084
2806.663 5.224 5.314 5.364 5.464 5.564 5.714 5.924 6.114 6.354 6.704
2825.953 6.984 7.164 7.564 7.984 8.404 8.934 9.534 10.394 11.374 12.474
2845.242 13.884 15.334 16.894 18.594 20.094 21.524 22.934 24.174 25.264 26.314
2864.532 27.574 29.184 31.054 33.354 36.094 38.904 41.814 44.774 47.224 48.894
2883.822 49.964 50.474 50.334 49.544 48.274 46.894 45.774 45.144 45.144 45.664
2903.112 46.704 48.264 50.264 52.674 55.234 57.724 60.234 62.764 65.324 67.904
2922.401 70.494 72.984 75.364 77.884 80.284 82.684 84.854 86.334 87.464 88.164
2941.691 88.344 88.194 87.944 87.904 88.094 88.804 90.294 92.604 95.914 100.034
2960.981 104.484 108.704 111.824 112.764 111.144 106.994 100.424 92.024 81.994 70.894
2980.271 60.074 50.234 41.644 34.484 28.874 24.434 20.854 18.094 15.924 14.274
2999.561 12.964 11.814 10.784 9.984 9.274 8.504 7.884 7.374 6.964 6.684
3018.850 6.384 6.064 5.804 5.624 5.374 5.134 5.024 4.914 4.724 4.454
3038.140 4.244 4.124 4.014 3.804 3.564 3.464 3.404 3.344 3.304 3.224
3057.430 3.044 3.004 2.864 2.694 2.744 2.744 2.624 2.614 2.544 2.524
3076.720 2.544 2.384 2.364 2.284 2.234 2.244 2.164 2.124 2.124 2.194
3096.009 2.244 2.054 1.904 1.904 1.914 1.914 1.944 1.854 1.634 1.674
3115.299 1.834 1.734 1.594 1.694 1.694 1.564 1.534 1.584 1.644 1.544
3134.589 1.504 1.524 1.404 1.304 1.254 1.344 1.334 1.264 1.234 1.284
3153.879 1.424 1.464 1.314 1.244 1.294 1.264 1.254 1.1805 1.1214 1.254
3173.169 1.344 1.334 1.234 1.1677 1.0812 1.019 1.113 1.2096 1.0956 0.9797
3192.458 0.8824 0.8392 0.9223 0.8484 0.8416 0.8384 0.8233 0.8236 0.8305 0.8498
3211.748 0.8112 0.7334 0.7005 0.5588 0.5024 0.5935 0.5375 0.4664 0.4042 0.3872
3231.038 0.3719 0.26372 0.339 0.3356 0.1897 0.22639 0.25768 0.237998 0.178 0.1952
3250.328 0.22466 0.2084 0.1763 0.2003 0.31637 0.24534 0.1698 0.2546 0.3474 0.33206
3269.617 0.24637 0.1835 0.3395 0.4072 0.28529 0.32213 0.3887 0.4033 0.29963 0.26918
3288.907 0.3808 0.4584 0.4607 0.4393 0.3611 0.25265 0.238184 0.1772 0.2151 0.31036
3308.197 0.26879 0.1712 0.2175 0.30566 0.2119 0.27592 0.31553 0.1931 0.2167 0.3444
3327.487 0.3248 0.30311 0.369 0.3612 0.31919 0.30218 0.33272 0.30177 0.1766 0.161
3346.777 0.25328 0.31544 0.22467 0.1418 0.32567 0.3637 0.1994 0.113 0.22822 0.3602
3366.066 0.29843 0.1843 0.1898 0.28594 0.31559 0.29528 0.1983 0.1915 0.30949 0.3698
3385.356 0.3779 0.3529 0.3547 0.32456 0.26981 0.30553 0.371 0.30141 0.28377 0.4136
3404.646 0.4003 0.3823 0.4651 0.383 0.4185 0.5421 0.54 0.4291 0.28844 0.29406
3423.936 0.28039 0.28327 0.26482 0.25994 0.26951 0.3441 0.3876 0.24925 0.27797 0.3906
3443.225 0.4701 0.32974 0.112 0.1901 0.32636 0.3876 0.3392 0.30982 0.2516 0.1878
3462.515 0.092 0.1798 0.3465 0.27381 0.2178 0.240287 0.26063 0.3406 0.3584 0.33261
3481.805 0.27634 0.089 0.046 0.2147 0.29196 0.2189 0.1493 0.1499 0.1472 0.049
3501.095 0.049 0.076 0.046 0 0.083 0.1675 0.128 0.128 0.112 0.2068
3520.385 0.22656 0.1361 0.091 0.106 0.1977 0.2875 0.238958 0.1556 0.1467 0.25033
3539.674 0.28407 0.25632 0.1491 0.086 0.1449 0.124 0.1357 0.065 0.029 0.1589
3558.964 0.2173 0.107 0.1425 0.28447 0.238525 0.09 0.1448 0.239249 0.126 0.1973
3578.254 0.2017 0.1497 0.243248 0.1518 0.238014 0.4592 0.4175 0.3167 0.30479 0.211
3597.544 0.2056 0.26472 0.29509 0.32927 0.2201 0.2128 0.2973 0.30856 0.094 0.046
3616.833 0.28716 0.3427 0.2143 0.126 0.27267 0.3965 0.4536 0.32773 0.2214 0.29638
3636.123 0.31986 0.3364 0.26683 0.2066 0.3398 0.5192 0.4812 0.3934 0.3443 0.27136
3655.413 0.32222 0.31584 0.335 0.3489 0.26302 0.31143 0.30039 0.241839 0.23273 0.1512
3674.703 0.208 0.3715 0.3483 0.29568 0.25256 0.22781 0.3418 0.4642 0.439 0.4138
3693.993 0.4269 0.29761 0.237315 0.22735 0.113 0.1627 0.3698 0.3812 0.25295 0.3655
3713.282 0.387 0.31496 0.4516 0.5304 0.4325 0.31833 0.29642 0.4084 0.5789 0.4546
3732.572 0.32653 0.29718 0.1503 0.3124 0.5974 0.5762 0.5825 0.5924 0.3427 0.31366
3751.862 0.4845 0.4946 0.423 0.4109 0.4808 0.5002 0.596 0.5506 0.4583 0.5363
3771.152 0.5122 0.4059 0.3541 0.3366 0.31135 0.31038 0.3814 0.5434 0.5443 0.4906
3790.441 0.5401 0.4257 0.26009 0.29468 0.4483 0.5229 0.4023 0.3875 0.4068 0.4698
3809.731 0.5626 0.4379 0.3417 0.3485 0.3702 0.4229 0.458 0.4472 0.4409 0.4201
3829.021 0.4346 0.5066 0.5434 0.509 0.586 0.6449 0.5095 0.4473 0.51 0.5349
3848.311 0.5798 0.6588 0.7224 0.6204 0.4865 0.5319 0.6675 0.6763 0.5947 0.5392
3867.601 0.5736 0.8005 0.8525 0.705 0.7684 0.7205 0.7626 0.8901 0.8405 0.7936
3886.890 0.7509 0.7624 0.6709 0.5822 0.4838 0.5417 0.6359 0.6153 0.4637 0.33367
3906.180 0.5595 0.7069 0.611 0.7191 0.8461 0.7191 0.6357 0.6362 0.6874 0.7105
3925.470 0.6516 0.6286 0.6646 0.7253 0.794 0.7273 0.7172 0.8708 0.878 0.7805
3944.760 0.914 0.9815 0.842 0.7753 0.7166 0.7972 0.8729 0.8264 0.8602 0.8871
3964.049 0.9805 1.0763 1.0668 1.0969 1.0296 1.0133 1.0909 1.0682 0.9487 0.8399
3983.339 0.9723 1.0018 1.0033 1.0546 1.0641 1.264 1.334 1.314 1.344 1.464
##END=
