##TITLE=Ethyl 3-isothiocyanatobutyrate
##JCAMP-DX=4.24
##DATA TYPE=INFRARED SPECTRUM
##ORIGIN=EPA-IR VAPOR PHASE LIBRARY
##OWNER=SRD/NIST
Collection (C) 2018 copyright by the U.S. Secretary of Commerce
on behalf of the United States of America. All rights reserved.
##CAS REGISTRY NO=206750-29-0
##MOLFORM=C 7 H 11 N O 2 S
##$NIST SOURCE=MSDC-IR
##STATE=gas
##XUNITS=1/CM
##YUNITS=ABSORBANCE
##XFACTOR=1.
##YFACTOR=0.001
##DELTAX=1.92898
##FIRSTX=549.8
##LASTX=4000.7
##FIRSTY=12.462
##MAXX=4000.7
##MINX=549.759
##MAXY=0.244302
##MINY=0
##NPOINTS=1790
##XYDATA=(X++(Y..Y))
549.759 12.462 12.192 11.662 11.282 10.882 10.362 9.952 9.402 8.592 7.782
569.049 7.422 7.082 6.902 6.402 5.602 5.602 5.642 5.002 4.392 4.202
588.339 3.892 3.682 3.952 3.972 3.632 3.672 3.662 3.462 3.462 3.412
607.628 3.132 3.042 3.062 3.012 2.992 2.842 2.552 2.612 2.702 2.702
626.918 2.842 2.752 2.882 3.062 3.012 3.072 3.192 3.262 3.082 2.982
646.208 3.122 3.392 3.602 3.722 3.742 3.902 4.272 4.212 4.012 4.022
665.498 4.002 3.812 3.752 3.632 3.312 3.022 2.742 2.402 2.052 1.762
684.787 1.652 1.532 1.3094 1.1752 1.1622 1.1626 1.0961 1.0162 0.9878 0.8182
704.077 0.8005 0.9729 0.8798 0.9279 1.0553 1.0307 0.8289 0.8013 1.1 1.0775
723.367 1.0023 1.138 1.1755 1.1962 1.1326 1.0663 1.024 1.184 1.2876 1.2859
742.657 1.492 1.462 1.2649 1.0244 1.1116 1.372 1.267 1.2647 1.2377 1.2475
761.947 1.2942 1.3019 1.422 1.432 1.432 1.332 1.295 1.472 1.492 1.492
781.236 1.612 1.852 1.912 1.672 1.582 1.702 1.712 1.452 1.432 1.582
800.526 1.642 1.802 1.722 1.712 1.862 1.782 1.632 1.732 1.942 1.992
819.816 1.922 1.962 2.152 2.392 2.442 2.522 2.742 3.022 3.352 3.572
839.106 3.872 4.232 4.642 5.262 5.912 6.152 6.432 6.732 6.652 6.512
858.395 6.072 5.422 4.892 4.322 3.932 3.752 3.432 3.162 3.032 2.892
877.685 3.032 3.122 2.922 2.832 2.782 2.682 2.812 3.192 3.452 3.602
896.975 3.752 3.922 4.002 4.052 4.292 4.542 4.752 5.072 5.512 6.012
916.265 6.332 6.572 6.962 7.302 7.372 7.422 7.682 7.662 7.612 7.682
935.555 7.582 7.452 7.272 7.062 6.582 6.072 5.842 5.512 5.122 4.692
954.844 4.502 4.472 4.282 4.172 4.122 4.162 4.192 4.142 4.422 4.852
974.134 4.962 5.222 5.802 6.292 6.902 7.772 8.652 9.572 10.592 11.432
993.424 11.942 12.302 12.792 13.072 13.182 13.362 13.412 13.902 14.632 15.062
1012.714 16.262 17.992 19.852 22.462 25.532 28.152 30.452 32.702 34.352 35.162
1032.003 34.882 33.822 32.362 30.312 27.682 24.792 22.522 20.662 18.932 18.012
1051.293 17.342 16.822 16.982 17.162 17.182 17.532 18.022 18.622 19.312 20.072
1070.583 21.002 21.732 22.322 23.562 24.822 25.502 26.002 26.702 27.642 28.392
1089.873 28.842 29.532 30.252 30.422 30.232 29.952 29.232 28.892 28.672 27.632
1109.163 26.392 25.642 25.202 24.102 23.582 23.802 23.952 24.612 25.502 26.552
1128.452 28.002 29.852 31.302 32.492 33.652 33.922 33.882 34.092 33.882 33.642
1147.742 34.082 34.642 35.342 37.042 39.752 42.862 46.312 50.302 55.392 61.032
1167.032 67.132 73.532 80.102 86.872 93.262 98.532 102.652 105.202 105.392 103.922
1186.322 100.822 96.122 90.182 83.672 77.542 71.492 65.762 61.432 57.482 53.572
1205.611 50.072 46.962 44.072 41.912 40.372 38.672 37.472 36.962 36.612 36.772
1224.901 37.442 38.082 38.792 39.582 40.522 41.722 42.872 43.802 45.092 46.132
1244.191 46.422 46.532 46.412 45.532 44.152 42.532 40.452 38.192 35.882 33.582
1263.481 31.502 30.022 28.912 27.732 27.052 27.052 27.632 28.622 29.732 31.422
1282.771 33.442 35.312 37.172 38.722 39.862 40.592 40.862 40.582 39.802 38.622
1302.060 37.092 35.672 34.372 33.212 32.242 31.492 31.032 30.862 31.162 31.992
1321.350 33.372 35.282 37.652 40.472 43.512 46.552 49.572 52.362 54.922 57.192
1340.640 59.062 60.592 61.632 62.092 61.762 60.382 57.812 54.192 49.962 45.842
1359.930 42.102 39.142 37.352 37.042 38.182 39.902 41.442 42.382 42.602 42.042
1379.219 40.482 37.912 34.662 31.402 28.622 26.272 24.172 22.222 20.422 18.822
1398.509 17.402 16.072 14.932 13.872 13.002 12.352 11.862 11.602 11.532 11.612
1417.799 11.752 11.952 12.202 12.392 12.562 12.552 12.422 12.272 12.002 11.702
1437.089 11.402 11.202 11.082 11.072 11.152 11.262 11.442 11.652 11.862 11.922
1456.378 11.842 11.782 11.742 11.692 11.602 11.432 11.172 10.842 10.452 9.922
1475.668 9.332 8.732 8.082 7.342 6.642 6.022 5.452 4.982 4.562 4.172
1494.958 3.842 3.602 3.392 3.222 3.042 2.822 2.742 2.602 2.412 2.362
1514.248 2.352 2.242 2.232 2.282 2.212 2.142 2.022 1.962 1.932 1.912
1533.538 1.912 1.932 2.002 1.962 1.902 1.892 1.832 1.762 1.782 1.762
1552.827 1.712 1.702 1.702 1.742 1.742 1.712 1.702 1.662 1.652 1.702
1572.117 1.802 1.822 1.732 1.692 1.722 1.712 1.732 1.772 1.742 1.742
1591.407 1.822 1.842 1.692 1.662 1.772 1.812 1.792 1.722 1.752 1.782
1610.697 1.792 1.832 1.872 1.952 1.892 1.732 1.782 1.872 1.842 1.802
1629.986 1.792 1.832 1.812 1.842 1.852 1.882 1.972 1.992 2.022 2.032
1649.276 2.002 1.992 2.062 2.122 2.202 2.322 2.342 2.362 2.402 2.462
1668.566 2.652 2.762 2.802 2.902 3.042 3.152 3.262 3.472 3.632 3.772
1687.856 3.962 4.222 4.572 4.842 5.122 5.512 5.982 6.522 7.112 7.652
1707.146 8.242 9.032 9.862 10.752 11.792 12.952 14.252 15.642 17.312 19.302
1726.435 21.532 24.302 27.702 31.752 36.942 43.332 50.742 59.332 68.612 78.442
1745.725 88.182 97.362 105.592 112.652 117.852 120.022 117.942 112.422 105.102 96.092
1765.015 85.462 74.212 63.352 53.582 44.792 37.402 31.442 26.532 22.602 19.462
1784.305 16.932 14.852 13.082 11.572 10.302 9.242 8.382 7.582 6.872 6.352
1803.594 5.932 5.522 5.182 4.872 4.562 4.312 4.092 3.922 3.822 3.682
1822.884 3.572 3.502 3.382 3.242 3.192 3.182 3.172 3.192 3.172 3.132
1842.174 3.102 3.122 3.172 3.172 3.252 3.252 3.272 3.392 3.432 3.512
1861.464 3.622 3.682 3.752 3.842 3.892 4.032 4.262 4.322 4.362 4.532
1880.754 4.672 4.782 4.942 5.122 5.272 5.502 5.772 5.962 6.142 6.392
1900.043 6.652 6.922 7.282 7.662 8.002 8.372 8.852 9.302 9.742 10.242
1919.333 10.792 11.342 11.882 12.482 13.172 13.862 14.512 15.252 16.082 16.882
1938.623 17.772 18.682 19.652 20.732 21.852 23.072 24.362 25.682 27.152 28.762
1957.913 30.432 32.132 33.932 35.902 38.022 40.232 42.502 44.982 47.502 50.012
1977.202 52.682 55.392 58.172 61.092 64.092 67.132 70.322 73.642 77.122 80.822
1996.492 84.702 88.852 93.242 97.952 103.052 108.592 114.512 120.782 127.462 134.512
2015.782 142.002 149.972 158.242 166.802 175.672 184.652 193.572 202.462 211.072 219.002
2035.072 226.262 232.622 237.742 241.452 243.632 244.302 243.252 240.602 236.532 231.012
2054.362 224.092 216.172 207.612 198.722 189.692 180.862 172.312 164.162 156.712 149.872
2073.651 143.532 137.642 132.242 127.152 122.372 117.912 113.642 109.562 105.732 102.142
2092.941 98.742 95.602 92.742 89.952 87.332 84.912 82.502 80.182 77.952 75.762
2112.231 73.622 71.522 69.602 67.852 66.192 64.702 63.432 62.282 61.222 60.292
2131.521 59.302 58.262 57.252 56.172 55.002 53.752 52.322 50.852 49.352 47.662
2150.810 45.912 44.292 42.592 40.762 39.002 37.262 35.522 33.902 32.382 30.842
2170.100 29.272 27.832 26.542 25.292 24.182 23.042 21.872 20.972 20.072 19.082
2189.390 18.242 17.432 16.732 16.142 15.552 14.992 14.472 14.002 13.582 13.152
2208.680 12.752 12.482 12.172 11.862 11.642 11.492 11.302 11.022 10.762 10.452
2227.970 10.182 9.942 9.722 9.392 8.952 8.592 8.292 7.922 7.572 7.232
2247.259 6.872 6.552 6.272 5.962 5.642 5.382 5.172 4.912 4.622 4.482
2266.549 4.352 4.252 4.102 3.912 3.772 3.642 3.562 3.462 3.342 3.232
2285.839 3.122 2.972 2.832 2.802 2.762 2.722 2.652 2.512 2.432 2.392
2305.129 2.402 2.362 2.232 2.172 2.172 2.112 2.082 2.082 2.002 1.932
2324.418 1.912 1.962 1.962 1.912 1.872 1.852 1.762 1.712 1.742 1.722
2343.708 1.682 1.632 1.632 1.622 1.562 1.552 1.592 1.592 1.562 1.472
2362.998 1.422 1.472 1.482 1.392 1.342 1.352 1.352 1.342 1.322 1.2638
2382.288 1.2984 1.3012 1.227 1.1727 1.1405 1.1703 1.1599 1.13 1.2054 1.1849
2401.578 1.0941 1.0919 1.0638 1.0387 1.0458 1.0508 1.0371 1.0436 0.9951 0.9692
2420.867 1.0635 1.1699 1.2229 1.1555 1.0627 1.0682 1.0388 1.0045 1.0183 0.9681
2440.157 0.9747 1.0018 0.9475 0.9775 1.0113 0.9918 1.0076 0.9788 0.9799 1.014
2459.447 1.0332 1.0503 1.1125 1.112 1.0465 1.127 1.1045 1.0298 1.0202 0.9749
2478.737 1.0421 1.0392 0.9861 1.0691 1.1755 1.111 1.0347 1.0606 1.0246 1.0282
2498.026 1.0578 1.0415 1.0162 1.0468 1.0334 1.0568 1.1328 1.139 1.0773 1.0407
2517.316 1.0502 1.0603 1.1543 1.1757 1.089 1.0462 1.014 1.0715 1.1219 1.1233
2536.606 1.1648 1.2122 1.2069 1.1757 1.2704 1.2716 1.248 1.276 1.3037 1.332
2555.896 1.342 1.412 1.432 1.422 1.402 1.432 1.462 1.392 1.342 1.352
2575.186 1.352 1.372 1.342 1.2634 1.2591 1.362 1.342 1.2468 1.2467 1.2175
2594.475 1.1734 1.2147 1.2339 1.1786 1.071 1.0376 1.0525 1.0108 1.0949 1.1549
2613.765 1.0949 1.1089 1.1031 1.0922 1.1539 1.2196 1.246 1.1721 1.1301 1.2368
2633.055 1.2133 1.2098 1.372 1.352 1.322 1.352 1.3167 1.362 1.402 1.392
2652.345 1.392 1.482 1.552 1.552 1.652 1.712 1.742 1.672 1.602 1.702
2671.634 1.772 1.832 1.872 1.992 2.092 2.072 2.092 2.212 2.312 2.382
2690.924 2.562 2.662 2.702 2.802 2.832 2.902 3.052 3.202 3.242 3.342
2710.214 3.492 3.532 3.482 3.472 3.522 3.562 3.602 3.662 3.682 3.622
2729.504 3.562 3.512 3.502 3.422 3.312 3.222 3.122 3.032 2.862 2.732
2748.794 2.782 2.742 2.572 2.532 2.502 2.382 2.362 2.342 2.312 2.262
2768.083 2.172 2.072 2.102 2.182 2.102 2.032 2.002 1.972 1.962 1.992
2787.373 2.052 2.042 1.912 1.812 1.762 1.682 1.702 1.692 1.712 1.722
2806.663 1.622 1.622 1.672 1.642 1.702 1.722 1.802 1.892 1.932 2.062
2825.953 2.002 2.022 2.152 2.152 2.062 2.022 2.052 2.132 2.282 2.292
2845.242 2.182 2.162 2.292 2.362 2.382 2.412 2.492 2.692 2.942 3.182
2864.532 3.282 3.472 3.772 4.082 4.432 4.892 5.432 5.872 6.342 6.752
2883.822 7.152 7.502 7.672 7.812 7.862 7.962 7.942 7.812 7.792 7.982
2903.112 8.312 8.622 9.052 9.502 9.952 10.462 10.942 11.392 11.842 12.232
2922.401 12.632 13.142 13.652 14.312 15.442 16.802 18.302 19.892 21.472 22.912
2941.691 23.862 24.342 24.352 23.842 23.052 22.002 20.752 19.492 18.372 17.662
2960.981 17.302 17.312 17.622 18.342 19.522 20.952 22.922 25.382 28.442 32.092
2980.271 35.952 39.912 43.232 45.942 47.662 47.622 46.322 43.992 40.482 36.242
2999.561 32.002 28.062 24.422 21.212 18.562 16.222 14.252 12.602 11.182 10.052
3018.850 9.132 8.272 7.432 6.742 6.202 5.632 5.082 4.682 4.272 3.952
3038.140 3.722 3.492 3.302 3.062 2.902 2.712 2.552 2.402 2.272 2.172
3057.430 2.012 2.042 1.942 1.752 1.662 1.552 1.512 1.522 1.522 1.562
3076.720 1.502 1.3106 1.1823 1.1763 1.206 1.2268 1.2633 1.1564 1.2407 1.2742
3096.009 1.2345 1.1845 1.1018 1.2198 1.342 1.322 1.2316 1.322 1.3031 1.0329
3115.299 1.0175 1.1566 1.1212 1.1031 1.0972 1.1182 1.1983 1.0557 0.9683 1.0566
3134.589 1.0206 0.8814 0.8751 0.9293 0.9703 0.9223 0.8384 0.8666 0.8979 0.8825
3153.879 0.7843 0.7045 0.7247 0.783 0.7609 0.6901 0.6718 0.7108 0.6698 0.642
3173.169 0.8564 0.8503 0.7595 0.7513 0.5326 0.5259 0.5979 0.4942 0.5378 0.6942
3192.458 0.7877 0.8474 0.8025 0.6189 0.5305 0.5748 0.6079 0.6793 0.6371 0.5621
3211.748 0.6226 0.6784 0.6471 0.4916 0.5548 0.6249 0.4959 0.4717 0.36199 0.41533
3231.038 0.4634 0.2443 0.167 0.196 0.2845 0.33816 0.219 0.2801 0.207 0.065
3250.328 0.2306 0.2631 0.221 0.148 0.121 0.174 0.33293 0.2983 0.102 0.242
3269.617 0.2676 0.205 0.2973 0.24 0.088 0.022 0.064 0.116 0.187 0.2782
3288.907 0.31304 0.144 0.029 0.2282 0.2913 0.181 0.141 0.185 0.149 0.09
3308.197 0.124 0.145 0.074 0.114 0.209 0.188 0.176 0.094 0.101 0.154
3327.487 0.201 0.206 0.2313 0.3067 0.217 0.144 0.134 0.2467 0.2573 0.2684
3346.777 0.3079 0.3011 0.2858 0.31611 0.33333 0.3011 0.3866 0.41736 0.213 0.101
3366.066 0.199 0.174 0.2277 0.33211 0.326804 0.33656 0.2654 0.2577 0.35375 0.283
3385.356 0.331098 0.41526 0.3022 0.2275 0.2755 0.3654 0.33231 0.3009 0.36742 0.40302
3404.646 0.4225 0.4475 0.452 0.498 0.5022 0.39231 0.2939 0.3572 0.41318 0.2348
3423.936 0.129 0.2383 0.3107 0.2857 0.482 0.4795 0.37878 0.4754 0.4738 0.4889
3443.225 0.5902 0.6139 0.4877 0.4739 0.44 0.442 0.5137 0.4723 0.5417 0.532
3462.515 0.6017 0.7735 0.7532 0.7641 0.8484 0.9565 1.0356 1.1507 1.1279 1.0951
3481.805 1.2887 1.482 1.442 1.462 1.492 1.442 1.592 1.482 1.2364 1.1363
3501.095 1.0562 1.0546 1.0429 0.984 0.8959 0.9656 1.0089 0.6993 0.6105 0.774
3520.385 0.7568 0.6834 0.5985 0.562 0.6144 0.5908 0.4721 0.39062 0.35932 0.36714
3539.674 0.4842 0.5038 0.39737 0.2766 0.218 0.321272 0.4591 0.5891 0.5299 0.4287
3558.964 0.2593 0.151 0.2628 0.2948 0.3077 0.2856 0.2245 0.2433 0.2483 0.3066
3578.254 0.2398 0.024 0 0.168 0.31968 0.2867 0.2326 0.193 0.199 0.2681
3597.544 0.2937 0.33559 0.37402 0.31502 0.2643 0.31925 0.38147 0.31868 0.249 0.34255
3616.833 0.2452 0.149 0.41131 0.4844 0.3373 0.285 0.168 0.109 0.2686 0.42062
3636.123 0.40886 0.33295 0.343 0.39752 0.331939 0.2618 0.203 0.144 0.221 0.328151
3655.413 0.38372 0.35669 0.36191 0.4234 0.40327 0.2696 0.2324 0.33424 0.4491 0.4545
3674.703 0.38702 0.33252 0.179 0.2653 0.38767 0.2762 0.2797 0.2852 0.2391 0.135
3693.993 0.185 0.34709 0.29 0.2861 0.31738 0.2528 0.209 0.181 0.2256 0.40049
3713.282 0.35487 0.2509 0.2464 0.3428 0.4607 0.40138 0.40974 0.4491 0.323867 0.2989
3732.572 0.40866 0.4919 0.36805 0.2703 0.34149 0.36424 0.34151 0.219 0.35118 0.5115
3751.862 0.5385 0.5407 0.4628 0.33721 0.2452 0.21 0.2557 0.2637 0.35198 0.3021
3771.152 0.183 0.2719 0.36103 0.4849 0.458 0.41493 0.5483 0.5008 0.34716 0.5127
3790.441 0.7068 0.5318 0.2753 0.2281 0.2903 0.2734 0.42117 0.5333 0.5162 0.4353
3809.731 0.39697 0.42174 0.298 0.39684 0.5362 0.5221 0.4765 0.2454 0.2399 0.4753
3829.021 0.4281 0.36754 0.40027 0.39465 0.4436 0.5793 0.5842 0.4603 0.39619 0.4326
3848.311 0.4731 0.427 0.4927 0.5466 0.5122 0.513 0.36706 0.4235 0.6641 0.7385
3867.601 0.7447 0.6711 0.4939 0.4394 0.508 0.4886 0.519 0.649 0.6358 0.5094
3886.890 0.4659 0.589 0.533 0.4836 0.5288 0.5205 0.5026 0.4973 0.5658 0.631
3906.180 0.7089 0.6978 0.5951 0.5481 0.6385 0.7717 0.8002 0.8441 0.8669 0.8475
3925.470 1.064 0.9596 0.7907 0.8888 0.842 0.7983 0.9353 0.9443 0.8463 0.8856
3944.760 0.9358 0.8692 0.7746 0.8783 1.007 1.0508 0.927 0.895 0.8057 0.8187
3964.049 1.0851 1.1679 1.1974 1.1689 1.0243 0.899 1.1677 1.2554 1.1493 1.3015
3983.339 1.402 1.432 1.422 1.462 1.402 1.472 1.552 1.442 1.392 1.422
##END=
