##TITLE=4-Decylphenyl isothiocyanate
##JCAMP-DX=4.24
##DATA TYPE=INFRARED SPECTRUM
##ORIGIN=EPA-IR VAPOR PHASE LIBRARY
##OWNER=SRD/NIST
Collection (C) 2018 copyright by the U.S. Secretary of Commerce
on behalf of the United States of America. All rights reserved.
##CAS REGISTRY NO=206559-54-8
##MOLFORM=C 17 H 25 N S
##$NIST SOURCE=MSDC-IR
##STATE=gas
##XUNITS=1/CM
##YUNITS=ABSORBANCE
##XFACTOR=1.
##YFACTOR=0.001
##DELTAX=1.92898
##FIRSTX=549.8
##LASTX=4000.7
##FIRSTY=27.537
##MAXX=4000.7
##MINX=549.759
##MAXY=0.738007
##MINY=0
##NPOINTS=1790
##XYDATA=(X++(Y..Y))
549.759 27.537 26.837 25.607 24.347 22.957 21.417 19.887 18.797 17.607 16.427
569.049 15.207 13.767 12.867 12.317 11.517 11.067 10.797 10.257 9.717 9.177
588.339 8.807 8.307 7.937 7.527 7.247 6.937 6.677 6.937 7.077 7.187
607.628 7.167 6.757 6.677 6.927 6.967 6.727 6.617 6.637 6.407 6.197
626.918 6.187 5.957 5.517 5.247 5.167 5.267 5.127 4.897 4.567 4.337
646.208 4.407 4.287 3.977 3.967 4.167 3.977 3.847 3.917 3.927 3.937
665.498 3.767 3.657 3.797 3.677 3.427 3.487 3.527 3.467 3.607 3.577
684.787 3.617 3.987 4.167 4.227 4.347 4.427 4.497 4.797 5.147 5.597
704.077 6.077 6.467 7.057 7.877 8.587 9.137 9.557 9.657 9.647 9.717
723.367 9.527 9.157 9.047 9.047 8.917 8.647 8.437 8.507 8.507 8.307
742.657 8.457 8.577 8.677 8.917 9.117 9.347 9.587 9.997 10.437 10.927
761.947 11.557 12.287 13.067 13.547 13.987 14.647 15.027 15.427 16.147 16.767
781.236 17.197 18.057 19.177 20.287 21.517 22.647 23.687 24.597 25.947 27.607
800.526 28.887 29.997 31.647 33.537 35.587 38.007 40.107 41.887 43.257 43.997
819.816 44.097 44.217 44.717 45.037 45.307 45.787 46.157 45.677 44.367 42.447
839.106 39.717 36.597 33.437 30.377 27.387 24.627 22.277 20.107 18.177 16.457
858.395 14.947 13.627 12.497 11.617 10.897 10.367 9.847 9.347 9.087 8.977
877.685 8.727 8.807 9.177 9.277 9.577 10.117 10.927 11.697 12.487 13.657
896.975 14.877 16.097 17.377 18.647 19.797 20.837 21.597 22.367 23.237 24.197
916.265 25.127 26.097 27.327 28.987 31.137 33.657 36.267 38.997 42.307 45.527
935.555 48.367 50.727 52.077 52.137 50.697 48.097 44.707 40.887 36.887 32.927
954.844 29.277 26.097 23.367 20.877 18.667 16.717 15.117 13.687 12.437 11.357
974.134 10.237 9.337 8.667 8.117 7.457 7.047 6.787 6.387 6.107 5.747
993.424 5.367 4.967 4.577 4.537 4.427 4.277 4.397 4.597 4.987 5.837
1012.714 6.987 8.357 9.987 10.837 10.027 8.037 5.837 4.297 3.807 3.807
1032.003 3.437 3.217 3.407 3.407 3.587 3.797 3.737 3.687 3.687 3.787
1051.293 4.097 4.087 3.627 3.777 3.987 3.837 3.817 3.797 3.637 3.877
1070.583 4.197 4.227 4.157 4.297 4.487 4.357 4.797 5.237 5.587 6.337
1089.873 6.737 6.587 6.937 7.177 7.667 7.777 7.677 8.227 8.327 8.377
1109.163 8.487 9.287 9.637 9.287 9.367 8.907 7.947 7.157 6.337 5.567
1128.452 4.727 4.327 4.067 3.567 3.267 2.837 2.587 2.547 2.767 2.667
1147.742 2.427 2.557 2.707 2.837 2.967 2.987 3.137 3.287 3.277 3.327
1167.032 3.377 3.597 4.127 4.657 4.967 4.917 4.837 5.037 5.027 5.207
1186.322 5.347 5.677 6.687 7.437 8.417 9.467 10.107 10.127 9.467 8.657
1205.611 8.117 7.647 6.707 6.187 6.117 5.797 6.067 6.747 6.847 7.107
1224.901 7.447 7.657 8.367 9.167 9.797 10.937 12.447 14.357 16.597 19.147
1244.191 22.007 24.207 25.567 25.937 24.937 23.117 20.997 18.847 17.347 16.077
1263.481 14.587 13.527 13.117 12.877 12.487 12.347 12.267 11.977 11.897 12.027
1282.771 12.067 12.177 12.327 12.277 12.237 12.337 12.367 12.487 12.657 12.787
1302.060 13.117 13.377 13.537 13.647 13.627 13.417 13.107 12.837 12.577 12.297
1321.350 12.127 12.117 12.217 12.407 12.827 13.347 13.967 14.627 15.327 16.047
1340.640 16.707 17.377 18.007 18.567 19.067 19.457 19.537 19.247 18.717 18.087
1359.930 17.457 16.947 16.457 15.907 15.237 14.427 13.597 12.797 12.167 11.887
1379.219 11.787 11.697 11.567 11.207 10.597 9.887 9.267 8.807 8.417 8.197
1398.509 8.077 7.927 7.957 8.137 8.427 8.747 9.027 9.357 9.717 9.957
1417.799 10.107 10.267 10.437 10.617 10.927 11.427 12.127 13.077 14.247 15.637
1437.089 17.527 19.767 22.417 25.427 28.507 31.457 34.117 36.437 38.517 40.177
1456.378 41.667 43.007 43.657 43.557 42.647 40.947 38.687 36.137 33.357 30.507
1475.668 28.057 26.237 25.197 24.827 25.397 26.967 29.787 34.187 40.877 50.367
1494.958 63.787 82.677 107.097 136.357 166.007 185.337 183.987 160.117 122.377 84.057
1514.248 56.537 39.517 29.107 22.787 18.647 15.917 14.027 12.767 11.887 11.247
1533.538 10.877 10.577 10.367 10.297 10.237 10.177 10.197 10.197 10.157 10.187
1552.827 10.257 10.397 10.767 11.217 11.567 11.917 12.277 12.537 12.817 13.107
1572.117 13.377 13.427 13.387 13.367 13.287 13.297 13.427 13.697 14.117 14.857
1591.407 15.887 17.187 19.007 21.077 23.297 25.787 28.087 29.507 29.797 28.667
1610.697 26.247 22.957 19.427 16.237 13.717 11.967 10.637 9.657 8.997 8.447
1629.986 8.027 7.697 7.447 7.217 7.017 6.887 6.647 6.437 6.337 6.137
1649.276 5.927 5.807 5.667 5.557 5.437 5.287 5.057 4.857 4.807 4.637
1668.566 4.447 4.357 4.227 4.107 3.977 3.887 3.847 3.747 3.617 3.597
1687.856 3.547 3.497 3.487 3.407 3.257 3.197 3.207 3.237 3.267 3.227
1707.146 3.197 3.207 3.227 3.237 3.307 3.417 3.477 3.477 3.537 3.587
1726.435 3.567 3.607 3.657 3.667 3.767 3.837 3.817 3.857 3.997 4.077
1745.725 4.117 4.197 4.237 4.327 4.507 4.647 4.837 4.997 5.227 5.557
1765.015 5.857 6.187 6.517 6.707 6.557 6.257 5.847 5.447 5.237 5.037
1784.305 5.007 5.107 5.067 4.997 5.027 5.097 5.177 5.247 5.237 5.207
1803.594 5.307 5.347 5.347 5.397 5.397 5.427 5.477 5.487 5.527 5.567
1822.884 5.717 5.847 5.907 6.107 6.307 6.447 6.677 6.927 7.227 7.597
1842.174 7.917 8.217 8.577 8.967 9.327 9.717 10.187 10.617 10.947 11.237
1861.464 11.597 11.917 12.187 12.577 12.967 13.377 13.847 14.347 14.897 15.437
1880.754 16.067 16.767 17.427 18.077 18.737 19.287 19.547 19.617 19.617 19.447
1900.043 19.297 19.367 19.607 19.997 20.447 20.957 21.527 22.117 22.847 23.767
1919.333 24.797 25.867 27.067 28.397 29.897 31.557 33.397 35.397 37.607 40.017
1938.623 42.607 45.437 48.487 51.687 55.067 58.787 62.707 66.867 71.357 75.967
1957.913 80.897 86.167 91.567 97.187 103.097 109.377 116.017 122.997 130.327 138.097
1977.202 146.387 155.067 164.137 173.667 183.817 194.527 205.767 217.507 229.957 243.167
1996.492 256.987 271.487 286.657 302.557 319.407 337.107 355.337 374.357 394.167 414.697
2015.782 435.887 457.607 480.117 503.367 527.037 550.867 574.867 599.057 622.907 646.097
2035.072 667.827 687.737 705.467 720.747 732.007 737.857 738.007 731.727 718.397 698.117
2054.362 671.567 640.287 605.727 569.837 534.707 501.617 472.117 446.817 425.597 408.737
2073.651 396.357 388.157 383.717 382.827 385.187 390.327 398.057 407.677 418.417 429.567
2092.941 440.337 449.597 455.907 458.697 457.147 450.727 439.347 423.647 404.397 382.767
2112.231 360.107 336.987 314.377 292.847 272.637 253.997 236.987 221.697 208.147 196.377
2131.521 186.167 177.557 170.407 164.367 159.387 155.357 151.847 148.897 146.227 143.547
2150.810 140.777 137.787 134.577 130.967 127.007 122.807 118.357 113.837 109.377 104.847
2170.100 100.507 96.477 92.727 89.367 86.327 83.537 80.967 78.567 76.247 73.867
2189.390 71.267 68.487 65.507 62.177 58.577 54.887 51.187 47.537 44.087 40.867
2208.680 37.877 35.187 32.747 30.517 28.427 26.527 24.887 23.327 21.817 20.437
2227.970 19.267 18.237 17.177 16.187 15.287 14.417 13.597 12.847 12.117 11.457
2247.259 10.877 10.377 9.817 9.317 8.937 8.547 8.227 8.017 7.747 7.487
2266.549 7.367 7.227 6.927 6.637 6.397 6.127 5.887 5.657 5.397 5.207
2285.839 5.057 4.957 4.877 4.757 4.657 4.547 4.457 4.377 4.237 4.027
2305.129 3.857 3.747 3.697 3.677 3.597 3.557 3.447 3.447 3.517 3.497
2324.418 3.477 3.477 3.487 3.427 3.337 3.387 3.427 3.317 3.377 3.477
2343.708 3.437 3.447 3.477 3.457 3.457 3.517 3.577 3.607 3.547 3.577
2362.998 3.687 3.677 3.757 3.867 4.027 4.077 4.027 4.117 4.257 4.467
2382.288 4.617 4.647 4.767 4.927 5.027 5.187 5.367 5.467 5.597 5.637
2401.578 5.677 5.767 5.827 5.877 5.927 6.037 6.107 6.187 6.337 6.407
2420.867 6.377 6.317 6.247 6.097 5.957 5.877 5.767 5.677 5.547 5.537
2440.157 5.587 5.497 5.397 5.277 5.287 5.407 5.457 5.407 5.407 5.477
2459.447 5.587 5.697 5.757 5.897 5.957 6.057 6.227 6.317 6.407 6.557
2478.737 6.697 6.817 6.887 6.907 7.097 7.317 7.497 7.547 7.527 7.527
2498.026 7.457 7.407 7.247 7.077 6.977 6.937 6.927 6.857 6.867 6.867
2517.316 6.827 6.837 6.897 6.997 7.037 7.197 7.267 7.307 7.457 7.557
2536.606 7.577 7.647 7.777 7.837 7.897 8.047 8.177 8.307 8.447 8.527
2555.896 8.637 8.707 8.827 8.937 8.957 8.957 9.027 9.157 9.247 9.217
2575.186 9.207 9.177 9.197 9.187 9.057 8.927 8.807 8.707 8.517 8.237
2594.475 7.997 7.837 7.567 7.267 7.157 7.037 6.867 6.737 6.607 6.437
2613.765 6.347 6.357 6.307 6.217 6.207 6.287 6.387 6.537 6.627 6.737
2633.055 6.907 7.057 7.137 7.197 7.357 7.437 7.657 7.897 8.007 8.227
2652.345 8.367 8.437 8.647 8.817 8.887 9.047 9.277 9.487 9.647 9.847
2671.634 10.107 10.257 10.477 10.787 10.987 11.107 11.227 11.357 11.437 11.487
2690.924 11.537 11.557 11.597 11.617 11.597 11.567 11.547 11.497 11.377 11.257
2710.214 11.167 11.087 11.007 10.897 10.827 10.627 10.447 10.347 10.187 10.077
2729.504 9.907 9.637 9.577 9.617 9.447 9.257 9.207 9.047 8.927 8.907
2748.794 8.877 8.837 8.777 8.647 8.567 8.517 8.457 8.567 8.577 8.487
2768.083 8.517 8.737 8.977 9.107 9.167 9.247 9.427 9.627 9.957 10.367
2787.373 10.637 10.937 11.317 11.707 12.047 12.307 12.657 13.057 13.557 14.087
2806.663 14.647 15.167 15.817 16.607 17.237 17.967 18.877 19.777 20.817 21.967
2825.953 23.177 24.477 25.977 27.707 29.597 31.907 34.637 37.887 41.877 46.787
2845.242 53.097 61.067 71.087 83.657 98.947 116.837 136.327 155.307 170.957 180.647
2864.532 183.237 179.347 170.557 158.797 146.177 134.137 123.747 115.717 109.797 105.287
2883.822 101.567 98.307 95.497 93.387 92.417 92.867 94.777 98.397 103.577 110.157
2903.112 118.277 127.947 138.927 151.137 164.707 180.227 198.067 219.027 243.937 273.197
2922.401 307.417 346.257 387.927 428.427 463.217 486.717 495.427 489.307 469.207 438.437
2941.691 400.477 358.467 316.177 276.207 240.757 211.477 188.517 171.617 160.107 153.227
2960.981 149.877 148.377 147.217 144.927 140.127 132.087 120.887 107.667 94.377 82.557
2980.271 72.757 64.757 58.047 52.487 47.967 44.127 40.877 38.127 35.757 33.847
2999.561 32.107 30.407 28.967 27.617 26.427 25.407 24.387 23.677 23.227 22.997
3018.850 23.207 23.697 24.517 25.897 28.047 30.787 33.787 36.927 39.477 40.317
3038.140 38.867 35.707 31.877 28.317 25.387 23.067 21.227 19.437 17.817 16.577
3057.430 15.697 15.127 14.717 14.437 13.967 13.547 13.317 13.127 13.057 12.777
3076.720 12.737 12.827 12.817 13.057 13.127 13.007 12.797 12.487 12.147 11.667
3096.009 11.007 10.317 9.857 9.367 8.807 8.477 8.247 8.087 7.987 7.797
3115.299 7.487 7.217 6.927 6.557 6.157 5.657 5.187 4.697 4.287 3.967
3134.589 3.557 3.417 3.257 3.007 2.917 2.847 2.707 2.637 2.597 2.507
3153.879 2.497 2.477 2.497 2.457 2.277 2.157 2.117 2.027 1.957 1.957
3173.169 2.027 2.077 1.997 1.927 1.847 1.637 1.557 1.547 1.507 1.497
3192.458 1.427 1.467 1.427 1.297 1.327 1.317 1.237 1.287 1.2082 1.0996
3211.748 0.9845 0.8862 0.9625 0.9389 0.809 0.7499 0.721 0.6853 0.7492 0.87
3231.038 0.7936 0.6324 0.5994 0.6026 0.6494 0.7273 0.6486 0.5022 0.5834 0.6723
3250.328 0.6209 0.514 0.4197 0.4774 0.4273 0.3717 0.4348 0.434 0.43 0.4004
3269.617 0.4298 0.4432 0.3617 0.338 0.3621 0.27371 0.1807 0.31294 0.3925 0.3903
3288.907 0.3298 0.161 0.105 0.075 0.124 0.27384 0.3466 0.4055 0.25581 0.075
3308.197 0.2002 0.31363 0.3275 0.3909 0.4604 0.421 0.3391 0.3759 0.3622 0.3706
3327.487 0.4361 0.29536 0.2004 0.29127 0.4461 0.586 0.6021 0.4542 0.3427 0.32264
3346.777 0.4196 0.5535 0.5665 0.3855 0.32263 0.32489 0.3278 0.32507 0.30244 0.32076
3366.066 0.3887 0.5153 0.4799 0.447 0.4094 0.32494 0.4368 0.555 0.4755 0.3462
3385.356 0.28343 0.3429 0.3637 0.4366 0.3649 0.29942 0.3838 0.5085 0.5652 0.4215
3404.646 0.1734 0.113 0.3746 0.4244 0.3728 0.28777 0.212 0.26471 0.217 0.1631
3423.936 0.1564 0.29763 0.3349 0.4964 0.4828 0.2146 0.1956 0.25004 0.23383 0.29806
3443.225 0.3883 0.26501 0.24199 0.27978 0.1815 0.1915 0.1803 0.2088 0.24513 0.23823
3462.515 0.28611 0.25914 0.25341 0.3402 0.361 0.3342 0.3456 0.31872 0.31913 0.25767
3481.805 0.22026 0.23815 0.1822 0.21905 0.24226 0.107 0.103 0.1728 0.091 0.1298
3501.095 0.142 0.1338 0.121 0.105 0.1394 0.08 0.059 0.1285 0.112 0.007
3520.385 0 0.1866 0.23898 0.216 0.27351 0.077 0.048 0.1447 0.079 0.053
3539.674 0.1564 0.1524 0.1868 0.3449 0.31412 0.2183 0.26197 0.30872 0.26055 0.31728
3558.964 0.3299 0.1938 0.28724 0.3384 0.1959 0.2105 0.2157 0.23903 0.2019 0.1385
3578.254 0.2135 0.24057 0.2919 0.26934 0.28563 0.3534 0.32233 0.30836 0.4008 0.4758
3597.544 0.5 0.4681 0.4336 0.3958 0.4192 0.492 0.5375 0.6233 0.6167 0.5617
3616.833 0.6546 0.8151 0.8908 0.8229 0.8437 0.9458 0.8384 0.8475 0.9334 0.8411
3636.123 0.7129 0.736 0.7999 0.8974 0.8623 0.7159 0.7596 0.7711 0.673 0.7418
3655.413 0.7993 0.9142 0.9244 0.923 1.0721 1.0089 0.905 0.9794 1.0193 0.9772
3674.703 1.0051 0.9994 1.093 1.1193 0.9166 0.8535 0.9466 0.991 1.0013 0.8577
3693.993 0.7503 0.8605 0.7363 0.8057 1.0078 0.9829 0.9452 0.9847 0.8714 0.7913
3713.282 0.9498 0.7885 0.7308 0.8184 0.8676 0.9771 0.9114 0.9588 1.0178 0.9621
3732.572 0.9187 0.8898 0.9484 1.0715 1.1119 1.1325 1.1532 1.1021 1.067 0.9928
3751.862 0.9463 0.9993 1.0589 1.0834 1.0914 1.0223 1.0117 1.03 1.0001 0.9668
3771.152 0.9708 0.9994 0.9033 0.8121 0.9245 0.8854 0.7836 1.0362 1.317 1.317
3790.441 1.1247 1.0309 0.9715 0.9247 0.9565 0.9944 1.1382 1.18 1.194 1.1941
3809.731 1.0906 1.0469 1.0467 1.092 1.0561 0.9466 1.0121 1.2108 1.287 1.267
3829.021 1.287 1.267 1.2119 1.367 1.327 1.227 1.357 1.357 1.337 1.377
3848.311 1.357 1.257 1.347 1.457 1.367 1.417 1.597 1.497 1.357 1.367
3867.601 1.357 1.377 1.367 1.357 1.527 1.597 1.597 1.617 1.577 1.437
3886.890 1.507 1.557 1.277 1.457 1.727 1.637 1.687 1.847 1.867 1.907
3906.180 1.947 1.977 2.037 1.937 1.757 1.787 1.837 2.017 2.167 2.057
3925.470 1.987 2.177 2.277 2.177 2.287 2.247 2.057 2.147 2.177 2.167
3944.760 2.197 2.227 2.337 2.347 2.367 2.387 2.397 2.517 2.707 2.727
3964.049 2.707 2.727 2.777 2.807 2.877 2.837 2.687 2.927 3.067 3.047
3983.339 3.107 3.347 3.417 3.107 3.167 3.277 3.157 3.257 3.457 3.507
##END=
