##TITLE=3,4-Dimethylbenzyl isothiocyanate
##JCAMP-DX=4.24
##DATA TYPE=INFRARED SPECTRUM
##ORIGIN=EPA-IR VAPOR PHASE LIBRARY
##OWNER=SRD/NIST
Collection (C) 2018 copyright by the U.S. Secretary of Commerce
on behalf of the United States of America. All rights reserved.
##CAS REGISTRY NO=206559-59-3
##MOLFORM=C 10 H 11 N S
##$NIST SOURCE=MSDC-IR
##STATE=gas
##XUNITS=1/CM
##YUNITS=ABSORBANCE
##XFACTOR=1.
##YFACTOR=0.001
##DELTAX=1.92898
##FIRSTX=549.8
##LASTX=4000.7
##FIRSTY=4.369
##MAXX=4000.7
##MINX=549.759
##MAXY=0.135389
##MINY=0
##NPOINTS=1790
##XYDATA=(X++(Y..Y))
549.759 4.369 4.419 4.699 4.689 4.449 4.459 4.199 3.989 3.859 3.749
569.049 3.559 3.329 3.459 3.369 3.129 3.289 3.219 2.999 2.829 2.999
588.339 3.109 2.949 3.059 3.019 2.949 3.079 2.959 2.769 2.879 2.889
607.628 2.559 2.249 2.269 2.359 2.259 2.219 2.169 2.079 1.909 1.919
626.918 1.949 1.699 1.679 1.719 1.519 1.479 1.459 1.439 1.399 1.409
646.208 1.389 1.439 1.689 1.649 1.689 1.629 1.659 2.089 2.479 2.709
665.498 2.579 2.539 2.769 3.009 3.299 3.549 3.939 4.219 4.349 4.649
684.787 4.869 5.099 5.219 5.319 5.479 5.279 5.029 4.959 5.049 5.219
704.077 5.539 5.889 6.059 6.489 7.089 7.789 8.389 8.929 9.629 10.129
723.367 10.589 10.699 10.599 10.609 10.349 9.969 9.549 9.079 8.549 8.039
742.657 7.789 7.609 7.229 6.659 6.179 6.029 5.629 5.139 4.849 4.569
761.947 4.509 4.309 3.819 3.509 3.429 3.379 3.089 2.939 3.089 3.029
781.236 2.929 3.049 3.029 2.999 3.089 3.039 3.059 3.229 3.439 3.779
800.526 4.029 4.219 4.489 4.579 4.579 4.569 4.519 4.419 4.329 4.259
819.816 3.849 3.289 3.049 2.579 2.039 2.049 1.759 1.399 1.449 1.309
839.106 1.1115 1.1073 1.1837 1.289 1.1237 0.8286 0.7975 0.9262 1.122 1.309
858.395 1.379 1.369 1.439 1.399 1.469 1.719 1.969 2.029 2.109 2.289
877.685 2.409 2.329 2.089 1.949 1.789 1.669 1.559 1.429 1.449 1.619
896.975 1.509 1.339 1.379 1.429 1.529 1.589 1.439 1.459 1.639 1.569
916.265 1.439 1.489 1.509 1.459 1.449 1.319 1.359 1.359 1.349 1.569
935.555 1.699 1.699 1.709 1.749 1.719 1.689 1.579 1.399 1.539 1.669
954.844 1.379 1.419 1.579 1.499 1.529 1.449 1.309 1.469 1.649 1.499
974.134 1.449 1.519 1.409 1.379 1.409 1.359 1.379 1.579 1.789 2.039
993.424 2.299 2.459 2.469 2.489 2.749 2.629 2.209 2.089 2.109 2.129
1012.714 1.979 1.749 1.899 2.089 1.999 1.689 1.639 1.609 1.609 1.729
1032.003 1.649 1.479 1.279 1.1582 1.0479 1.1349 1.319 1.1495 1.1138 1.539
1051.293 1.509 1.319 1.469 1.559 1.379 1.269 1.519 1.669 1.489 1.349
1070.583 1.349 1.1702 1.2143 1.389 1.479 1.389 1.339 1.206 0.7711 0.6276
1089.873 1.1681 1.749 1.919 1.909 1.799 2.079 2.279 2.179 1.889 1.669
1109.163 1.909 2.259 2.379 2.339 2.369 2.549 2.609 2.869 3.269 3.319
1128.452 3.239 3.059 2.799 2.569 2.679 2.559 2.069 1.889 2.299 2.409
1147.742 2.179 2.289 2.489 2.479 2.389 2.399 2.529 2.599 2.589 2.599
1167.032 2.549 2.279 2.119 1.979 1.709 1.729 1.969 2.329 2.119 2.019
1186.322 2.289 2.179 2.049 2.079 2.189 2.469 2.379 2.219 2.189 1.959
1205.611 2.119 2.149 1.959 1.759 1.839 2.049 2.189 2.519 2.549 2.649
1224.901 2.689 2.429 2.509 2.869 3.379 3.429 3.269 3.309 3.349 3.359
1244.191 3.469 3.449 3.469 3.619 3.289 3.049 3.149 3.339 3.429 3.439
1263.481 3.469 3.539 3.709 3.729 4.009 4.349 4.539 4.709 4.879 5.049
1282.771 5.219 5.349 5.449 5.609 5.569 5.629 5.789 5.849 5.939 6.119
1302.060 6.349 6.729 7.139 7.519 7.989 8.549 9.279 10.169 11.359 12.919
1321.350 14.809 17.189 20.169 23.659 27.319 30.699 33.179 34.119 33.459 31.519
1340.640 28.619 24.949 20.889 16.979 13.659 11.149 9.389 8.289 7.569 7.019
1359.930 6.569 6.129 5.779 5.459 5.119 4.859 4.609 4.359 4.209 4.039
1379.219 3.949 4.019 4.079 4.119 4.189 4.289 4.359 4.399 4.459 4.449
1398.509 4.409 4.429 4.469 4.549 4.659 4.719 4.749 4.799 4.889 4.999
1417.799 5.099 5.159 5.219 5.349 5.459 5.609 5.799 5.979 6.199 6.549
1437.089 7.069 7.699 8.509 9.599 10.889 12.219 13.519 14.659 15.379 15.669
1456.378 15.579 14.769 13.299 11.689 10.259 9.169 8.389 7.669 6.999 6.409
1475.668 5.989 5.599 5.289 5.089 4.899 4.709 4.619 4.629 4.679 4.939
1494.958 5.379 5.849 6.359 6.849 7.119 7.189 7.039 6.609 6.039 5.349
1514.248 4.639 3.969 3.409 2.999 2.699 2.479 2.189 2.019 1.909 1.829
1533.538 1.889 1.829 1.719 1.759 1.779 1.729 1.749 1.789 1.729 1.739
1552.827 1.769 1.749 1.759 1.679 1.659 1.689 1.649 1.689 1.779 1.769
1572.117 1.749 1.849 1.959 1.979 1.909 1.899 1.989 1.999 1.969 1.959
1591.407 2.009 2.089 2.099 1.999 1.969 2.029 2.099 2.009 1.869 1.929
1610.697 2.059 2.059 1.969 1.869 1.799 1.839 1.789 1.599 1.529 1.539
1629.986 1.389 1.339 1.2528 1.1081 1.0985 1.087 1.0446 1.0111 1.0295 0.9708
1649.276 0.924 0.8533 0.8011 0.8622 0.9187 0.9192 0.9044 0.887 0.8751 0.9056
1668.566 0.9651 0.9531 0.8815 0.8707 0.8477 0.862 0.9069 0.9014 0.911 0.9167
1687.856 0.903 0.8708 0.862 0.9032 0.8421 0.845 0.8643 0.8013 0.7887 0.7759
1707.146 0.7854 0.7992 0.7671 0.7566 0.8486 0.8062 0.7986 0.9364 0.9536 0.979
1726.435 1.0064 0.9181 0.9093 1.0271 1.1066 1.1138 1.0836 1.1528 1.299 1.359
1745.725 1.359 1.329 1.339 1.379 1.279 1.2037 1.226 1.1856 1.1224 1.0077
1765.015 0.9391 0.948 0.9716 0.9512 0.9398 0.9968 0.9754 0.9098 0.9155 0.9678
1784.305 0.9739 0.9952 0.9942 0.9405 0.9458 0.9575 0.985 0.9789 0.9405 0.9231
1803.594 0.8551 0.8341 0.9178 0.9623 0.9304 0.9407 0.9997 1.035 1.0356 1.0242
1822.884 0.9951 0.9603 0.9723 1.0034 1.0065 1.0541 1.1101 1.1371 1.1838 1.2168
1842.174 1.1865 1.2092 1.259 1.319 1.429 1.459 1.479 1.499 1.579 1.659
1861.464 1.689 1.759 1.819 1.929 1.989 2.009 2.089 2.189 2.249 2.289
1880.754 2.389 2.489 2.559 2.629 2.699 2.779 2.859 2.959 2.989 3.049
1900.043 3.149 3.209 3.339 3.449 3.549 3.709 3.889 4.049 4.199 4.429
1919.333 4.609 4.709 4.879 5.079 5.309 5.469 5.679 5.949 6.229 6.539
1938.623 6.839 7.169 7.469 7.819 8.239 8.619 9.079 9.649 10.189 10.719
1957.913 11.339 12.079 12.839 13.599 14.419 15.329 16.299 17.409 18.539 19.719
1977.202 21.049 22.439 23.969 25.589 27.309 29.179 31.159 33.249 35.459 37.829
1996.492 40.349 42.969 45.789 48.829 51.919 55.099 58.519 62.109 65.809 69.589
2015.782 73.439 77.419 81.399 85.389 89.419 93.409 97.369 101.169 104.839 108.509
2035.072 112.149 115.719 119.119 122.219 125.159 127.879 130.309 132.369 133.849 134.879
2054.362 135.389 135.319 134.749 133.679 132.299 130.489 128.369 126.169 123.749 121.029
2073.651 117.989 114.599 110.849 106.689 102.099 97.039 91.639 86.139 80.659 75.209
2092.941 69.979 65.109 60.589 56.429 52.619 49.099 45.929 42.939 40.179 37.729
2112.231 35.479 33.419 31.559 29.879 28.359 27.019 25.819 24.779 23.819 22.949
2131.521 22.279 21.769 21.339 20.909 20.609 20.389 20.159 20.119 20.099 20.149
2150.810 20.339 20.389 20.469 20.589 20.779 21.079 21.419 21.819 22.239 22.629
2170.100 23.049 23.479 23.819 24.149 24.479 24.599 24.519 24.349 23.949 23.459
2189.390 22.869 22.089 21.239 20.359 19.519 18.649 17.759 16.869 15.979 15.079
2208.680 14.289 13.579 12.819 12.179 11.539 10.819 10.199 9.709 9.259 8.759
2227.970 8.309 7.939 7.629 7.249 6.809 6.439 6.109 5.799 5.569 5.379
2247.259 5.149 4.879 4.629 4.459 4.289 4.119 3.949 3.769 3.569 3.479
2266.549 3.389 3.249 3.119 2.999 2.899 2.829 2.699 2.609 2.539 2.449
2285.839 2.399 2.329 2.299 2.299 2.199 2.089 2.059 1.989 1.989 1.989
2305.129 1.959 1.949 1.879 1.789 1.709 1.679 1.619 1.559 1.559 1.549
2324.418 1.529 1.479 1.459 1.449 1.379 1.339 1.379 1.319 1.2487 1.2225
2343.708 1.1919 1.1352 1.051 1.0949 1.1354 1.0756 1.0293 1.0183 1.0302 0.9856
2362.998 0.9309 0.9503 0.9691 1.0232 1.075 1.0314 1.0256 1.0005 0.9297 0.8766
2382.288 0.8093 0.7957 0.862 0.931 0.9192 0.8591 0.8254 0.8857 0.9179 0.9479
2401.578 0.8987 0.8401 0.9564 1.0068 0.909 0.8462 0.8534 0.7939 0.7622 0.7736
2420.867 0.7808 0.754 0.7101 0.7265 0.7403 0.7202 0.7041 0.7261 0.7246 0.7493
2440.157 0.7937 0.7697 0.7144 0.7483 0.7663 0.6977 0.6726 0.6949 0.7396 0.7298
2459.447 0.8083 0.852 0.7929 0.8408 0.828 0.7819 0.8545 0.8924 0.908 0.8537
2478.737 0.7782 0.7894 0.8396 0.9092 0.8763 0.8309 0.8484 0.8715 0.8817 0.9028
2498.026 0.8615 0.8084 0.813 0.863 0.9386 0.9628 0.9164 0.9096 0.8903 0.8639
2517.316 0.8797 0.8786 0.8688 0.814 0.8718 0.9219 0.819 0.8034 0.929 0.8988
2536.606 0.8526 0.8252 0.8235 0.9049 0.9368 0.9236 0.8882 0.8757 0.8722 0.8488
2555.896 0.9052 0.9258 0.8755 0.939 0.923 0.9586 1.0039 0.9491 0.9474 0.9274
2575.186 0.926 0.9298 0.9336 0.902 0.9531 0.9602 0.8921 0.891 0.8986 0.9187
2594.475 0.9163 0.9704 1.0325 1.0165 0.9181 0.8963 0.861 0.8581 0.8909 0.8596
2613.765 0.9164 0.9447 0.9163 0.8759 0.881 0.9307 0.9128 0.8817 0.9349 1.016
2633.055 1.0176 0.9183 0.8784 0.9366 1.0601 1.0449 0.9487 1.0071 0.9911 1.0264
2652.345 1.0491 0.9936 0.9659 0.9135 0.961 0.9492 0.9686 0.9489 0.8196 0.7577
2671.634 0.7559 0.8508 0.8955 0.8476 0.8336 0.7876 0.776 0.8709 0.8749 0.8482
2690.924 0.8899 0.9456 1.0249 1.0473 1.1228 1.1706 1.1409 1.1423 1.1765 1.2272
2710.214 1.1742 1.2006 1.309 1.269 1.319 1.459 1.419 1.449 1.549 1.509
2729.504 1.489 1.559 1.629 1.839 2.009 1.969 1.939 2.069 2.149 2.109
2748.794 2.069 2.129 2.179 2.069 2.019 2.009 1.979 2.009 2.039 2.119
2768.083 2.159 2.039 2.069 2.149 2.179 2.259 2.179 2.059 2.019 2.069
2787.373 2.059 2.039 2.039 2.039 2.019 1.989 1.929 1.829 1.889 1.879
2806.663 1.819 1.899 1.929 1.939 1.999 1.979 1.889 1.809 1.869 1.989
2825.953 2.009 2.049 2.119 2.169 2.229 2.279 2.359 2.499 2.629 2.709
2845.242 2.739 2.939 3.149 3.249 3.579 4.029 4.449 4.879 5.349 5.919
2864.532 6.429 6.909 7.419 7.849 8.199 8.489 8.669 8.779 9.019 9.069
2883.822 9.039 9.099 9.049 8.969 8.829 8.609 8.409 8.229 8.089 8.069
2903.112 8.049 8.009 8.029 8.189 8.269 8.459 9.039 9.589 10.179 10.979
2922.401 11.779 12.619 13.779 15.079 16.179 17.049 17.709 18.089 18.089 17.819
2941.691 17.299 16.539 15.789 15.169 14.679 14.369 14.049 13.619 13.109 12.549
2960.981 11.989 11.499 10.999 10.419 9.899 9.669 9.519 9.329 9.119 8.969
2980.271 8.799 8.549 8.349 7.969 7.699 7.459 6.989 6.569 6.419 6.529
2999.561 6.599 6.599 6.669 6.939 7.289 7.589 7.949 8.269 8.489 8.719
3018.850 8.739 8.629 8.619 8.629 8.509 8.179 7.789 7.519 7.349 7.039
3038.140 6.799 6.719 6.609 6.559 6.579 6.639 6.579 6.429 6.409 6.449
3057.430 6.309 6.059 5.919 5.759 5.639 5.609 5.499 5.179 4.819 4.589
3076.720 4.259 3.959 3.729 3.399 3.179 3.009 2.839 2.639 2.349 2.169
3096.009 1.879 1.709 1.659 1.519 1.489 1.499 1.499 1.469 1.489 1.339
3115.299 1.1813 1.1514 1.1632 1.1905 1.0825 1.1261 1.1652 1.139 1.0458 0.892
3134.589 0.9397 0.9252 0.777 0.7763 0.872 0.7592 0.6173 0.5736 0.4745 0.4857
3153.879 0.5418 0.6046 0.7191 0.7569 0.6793 0.562 0.4451 0.4187 0.4591 0.4788
3173.169 0.4094 0.2999 0.27449 0.32791 0.3953 0.32733 0.32685 0.3944 0.31295 0.397
3192.458 0.4331 0.31738 0.3749 0.4601 0.4485 0.3597 0.268167 0.267065 0.24929 0.2102
3211.748 0.139 0.124 0.122 0.2108 0.426 0.5007 0.4974 0.4131 0.30999 0.3992
3231.038 0.3947 0.31771 0.258522 0.26919 0.29636 0.261687 0.35317 0.27535 0.1664 0.1877
3250.328 0.2137 0.2337 0.29314 0.2484 0.2326 0.2179 0.135 0.1879 0.263227 0.27888
3269.617 0.28699 0.33628 0.30776 0.2318 0.1906 0.15 0.2311 0.35395 0.4343 0.3967
3288.907 0.2473 0.2324 0.27693 0.2485 0.29426 0.261212 0.2285 0.233 0.2181 0.266459
3308.197 0.27949 0.27375 0.27727 0.2036 0.1609 0.2354 0.2066 0.26821 0.2379 0.1757
3327.487 0.1635 0.2127 0.29355 0.31189 0.3991 0.133 0 0.2011 0.2309 0.25672
3346.777 0.28701 0.224 0.2325 0.2412 0.33809 0.29878 0.1668 0.4014 0.4096 0.157
3366.066 0.32534 0.3668 0.30257 0.3642 0.147 0.157 0.258057 0.2028 0.1831 0.097
3385.356 0.08 0.1842 0.27364 0.34553 0.368 0.258862 0.2154 0.116 0.109 0.27495
3404.646 0.3537 0.3793 0.3789 0.3656 0.31249 0.34044 0.30077 0.3095 0.2372 0.267367
3423.936 0.35541 0.2432 0.1825 0.2446 0.33242 0.1855 0.1722 0.3591 0.3727 0.30582
3443.225 0.29284 0.26906 0.2174 0.2362 0.137 0.036 0.091 0.259301 0.33697 0.1732
3462.515 0.143 0.31193 0.442 0.4717 0.4512 0.29389 0.1723 0.1882 0.14 0.268406
3481.805 0.4197 0.4333 0.3935 0.27173 0.260602 0.35614 0.4107 0.3785 0.27669 0.158
3501.095 0.2555 0.4633 0.4641 0.4074 0.32028 0.35892 0.4181 0.27576 0.30113 0.25276
3520.385 0.28736 0.32382 0.30762 0.4921 0.4317 0.32738 0.3681 0.4254 0.448 0.30306
3539.674 0.25196 0.29911 0.32188 0.30861 0.195 0.2078 0.29113 0.30981 0.28532 0.264772
3558.964 0.1798 0.146 0.32094 0.34708 0.30828 0.29198 0.33814 0.31635 0.267988 0.33338
3578.254 0.3135 0.29323 0.35181 0.27985 0.2343 0.2199 0.2309 0.29299 0.262391 0.30262
3597.544 0.3762 0.364 0.1702 0.226 0.3965 0.4357 0.4611 0.29436 0.1654 0.102
3616.833 0.143 0.1848 0.125 0.2021 0.3806 0.35229 0.129 0.1912 0.1983 0.153
3636.123 0.223 0.215 0.260092 0.264147 0.2313 0.25114 0.219 0.1944 0.1937 0.2351
3655.413 0.1874 0.1781 0.32498 0.3931 0.33223 0.1983 0.29218 0.4512 0.4407 0.35522
3674.703 0.2305 0.32041 0.33069 0.33461 0.4476 0.4258 0.3156 0.2423 0.29261 0.25591
3693.993 0.27807 0.34663 0.35659 0.2427 0.3012 0.4508 0.3838 0.34501 0.3772 0.3619
3713.282 0.29972 0.34253 0.3885 0.2746 0.189 0.217 0.2249 0.142 0.098 0.1755
3732.572 0.29222 0.3661 0.32141 0.4608 0.498 0.3884 0.396 0.3752 0.31532 0.27488
3751.862 0.32884 0.2458 0.1862 0.264886 0.3763 0.4484 0.4715 0.4006 0.27178 0.266803
3771.152 0.31575 0.30185 0.32904 0.4486 0.4858 0.3759 0.27689 0.27276 0.34887 0.4664
3790.441 0.4103 0.4973 0.4984 0.3687 0.4419 0.35872 0.31481 0.458 0.5818 0.494
3809.731 0.507 0.431 0.2371 0.266043 0.25118 0.4674 0.4604 0.31193 0.4431 0.4741
3829.021 0.3597 0.34919 0.4644 0.399 0.3632 0.405 0.3955 0.4126 0.4299 0.3634
3848.311 0.3108 0.35773 0.4119 0.4625 0.3432 0.161 0.1625 0.234 0.3171 0.4058
3867.601 0.4768 0.5175 0.564 0.5188 0.30087 0.371 0.6363 0.7132 0.7041 0.6704
3886.890 0.6753 0.5533 0.3874 0.5211 0.6615 0.6247 0.6729 0.7229 0.6242 0.4385
3906.180 0.3976 0.4422 0.4564 0.6325 0.7295 0.6863 0.7304 0.7635 0.7063 0.6052
3925.470 0.5493 0.4525 0.4553 0.5054 0.438 0.5039 0.6105 0.6304 0.6217 0.6806
3944.760 0.7664 0.684 0.7285 0.7508 0.5891 0.5829 0.4932 0.5715 0.731 0.5733
3964.049 0.5709 0.7098 0.7647 0.7488 0.7434 0.688 0.5709 0.6359 0.7918 0.903
3983.339 0.8528 0.6278 0.5104 0.6433 0.7085 0.7594 0.7922 0.6942 0.6922 0.8261
##END=
