##TITLE=3-Phenoxybenzhydrazide
##JCAMP-DX=4.24
##DATA TYPE=INFRARED SPECTRUM
##ORIGIN=EPA-IR VAPOR PHASE LIBRARY
##OWNER=SRD/NIST
Collection (C) 2018 copyright by the U.S. Secretary of Commerce
on behalf of the United States of America. All rights reserved.
##CAS REGISTRY NO=206761-84-4
##MOLFORM=C 13 H 12 N 2 O 2
##$NIST SOURCE=MSDC-IR
##STATE=gas
##XUNITS=1/CM
##YUNITS=ABSORBANCE
##XFACTOR=1.
##YFACTOR=0.001
##DELTAX=1.92898
##FIRSTX=549.8
##LASTX=4000.7
##FIRSTY=2.0165
##MAXX=4000.7
##MINX=549.759
##MAXY=0.0585565
##MINY=0
##NPOINTS=1790
##XYDATA=(X++(Y..Y))
549.759 2.0165 1.9565 1.9365 1.8365 1.8265 1.7265 1.5565 1.8265 2.1065 1.8865
569.049 1.5265 1.5765 1.9265 1.8265 1.7565 1.9665 1.8465 1.5065 1.4365 1.7365
588.339 1.7465 1.8265 1.7965 1.4465 1.3765 1.3765 1.4265 1.7065 1.7865 1.7965
607.628 2.0165 1.8465 1.5365 1.2765 1.2565 1.4765 1.6065 1.7965 1.6565 1.3765
626.918 1.2665 1.3065 1.5565 1.5665 1.5565 1.3465 1.3165 1.5165 1.5365 1.7265
646.208 1.8065 1.8165 1.8565 1.9765 1.9065 2.0165 2.3565 2.5065 2.9065 3.1665
665.498 3.1865 3.2065 3.4065 3.7565 3.9065 4.4265 5.1665 6.0165 7.0165 8.2365
684.787 9.5065 10.6265 11.6665 12.0965 12.1265 11.6165 10.4365 8.8665 7.5765 6.5365
704.077 5.3865 4.6065 4.2265 4.0165 3.7665 3.6065 3.6165 3.5165 3.4765 3.5865
723.367 3.6065 3.8665 4.1465 4.3765 4.7765 5.2065 5.6665 6.1465 7.0665 8.3465
742.657 9.3065 10.0965 11.0865 11.8365 12.1265 12.2565 11.9965 11.1365 10.1965 9.1765
761.947 7.9765 6.8465 5.8965 5.3165 5.0265 4.8265 4.8165 4.8165 4.6665 4.6865
781.236 4.8065 4.9465 5.0165 5.2365 5.6965 6.0665 6.2865 6.3765 6.6865 7.0665
800.526 6.9465 6.6965 6.7065 6.6065 6.0865 5.4065 4.9365 4.6965 4.4665 4.2965
819.816 4.0165 3.6665 3.5465 3.5865 3.6465 3.4465 3.4365 3.6365 3.6065 3.8265
839.106 4.2665 4.7365 5.1765 5.8265 6.5365 7.0465 7.6665 8.2165 8.3965 8.4465
858.395 8.6065 8.7165 8.4965 8.2465 8.3365 8.4065 8.3565 8.3565 8.4565 8.6365
877.685 8.9165 9.2865 9.4865 9.7665 10.2265 10.5465 10.9565 11.3765 11.8065 12.3265
896.975 12.7765 13.1565 13.5065 13.8265 13.9865 14.2465 14.3265 14.1665 13.9165 13.4265
916.265 12.9365 12.2465 11.4165 10.6965 10.1265 9.5065 8.6165 7.9165 7.2865 6.6565
935.555 6.1465 5.7265 5.2365 4.9265 4.7765 4.7165 4.7365 4.7865 4.9265 5.2265
954.844 5.7765 6.0665 6.2965 6.5265 6.6865 6.8665 6.8365 6.6665 6.0765 5.2665
974.134 4.7765 4.3065 3.8765 3.6965 3.2665 2.8365 2.5765 2.2765 2.1265 1.9665
993.424 2.0265 2.3265 2.2865 2.1665 2.2165 2.1265 2.0265 1.9365 1.9665 2.0265
1012.714 1.9265 2.2065 2.7265 3.1365 3.3665 3.1865 2.7965 2.7565 2.4865 2.0665
1032.003 1.5765 1.052 1.1765 1.3365 1.4165 1.2865 0.9233 0.8986 1.3265 1.3465
1051.293 1.1465 1.1365 1.5065 1.7165 1.6665 1.9865 2.1965 2.6065 2.9565 2.9365
1070.583 2.5965 2.2465 2.3565 2.6465 2.4665 2.0165 1.8365 2.4265 2.8465 2.3865
1089.873 1.9365 1.9665 2.1765 2.1265 1.9765 2.2465 2.4665 2.0965 1.8065 1.3865
1109.163 0.9903 1.0536 1.0965 1.2565 1.5065 1.0427 0.8506 1.2365 1.5265 1.8165
1128.452 1.8765 1.8565 1.7765 1.9965 2.2165 2.3265 2.7265 3.0965 3.2865 3.4065
1147.742 3.2665 3.4565 3.9265 4.4065 4.9665 5.5165 6.1565 6.5965 6.7865 6.6365
1167.032 6.2565 5.6065 4.8965 4.3665 4.3365 4.2765 4.2765 4.3465 4.2365 4.6365
1186.322 5.3265 5.8465 6.5665 7.5465 8.6065 9.9365 11.5765 12.9465 13.7465 14.5765
1205.611 14.9265 14.6465 14.3565 14.4065 15.2665 16.6765 18.6665 21.5565 24.8665 28.8365
1224.901 33.2665 38.1465 43.5265 48.7765 53.5565 57.0665 58.5565 57.8265 54.8565 50.3265
1244.191 44.9365 39.1265 33.6865 29.1665 25.8965 23.5465 21.9765 21.3165 21.5365 22.6965
1263.481 24.4965 27.0765 30.2265 33.7465 37.2565 40.3865 42.4665 43.5565 43.8365 43.2065
1282.771 42.0965 40.5165 38.3765 35.5865 32.6065 29.3165 25.9365 22.9665 20.4765 18.5565
1302.060 17.0965 16.0165 15.1365 14.3565 13.6465 12.9465 12.2665 11.6165 10.9265 10.0565
1321.350 9.2365 8.5165 7.7365 7.0565 6.3965 5.9065 5.5665 5.1965 4.9465 4.7565
1340.640 4.5565 4.3065 4.0465 3.8665 3.6965 3.5465 3.4265 3.2565 3.0965 2.9865
1359.930 2.9265 2.8865 2.8365 2.7865 2.7265 2.6465 2.6565 2.7065 2.7265 2.7065
1379.219 2.7065 2.7165 2.7365 2.7765 2.7965 2.7965 2.8265 2.9565 3.1765 3.4065
1398.509 3.6165 3.8765 4.2365 4.5765 5.0565 5.7365 6.4265 7.1865 8.0065 9.0165
1417.799 10.2165 11.5765 13.0665 14.6465 16.3265 18.0165 19.6265 21.1765 22.7265 24.2065
1437.089 25.7265 27.3965 29.2365 31.1065 32.8565 34.4265 35.5265 36.0365 35.9265 35.1565
1456.378 33.8965 32.2965 30.6365 29.1565 27.9165 27.0365 26.6265 26.5365 26.7365 27.2165
1475.668 27.9565 28.9865 30.4565 32.5665 35.3165 38.5465 41.7765 43.7365 43.3865 40.8665
1494.958 36.7165 31.0765 24.9565 19.8765 16.2665 13.8265 11.9865 10.4265 9.3065 8.4765
1514.248 7.7265 7.0565 6.5165 6.0865 5.7565 5.4265 5.1765 4.9965 4.7965 4.6765
1533.538 4.6165 4.4865 4.4565 4.4565 4.4765 4.6165 4.7365 4.9065 5.2365 5.6865
1552.827 6.1965 6.7865 7.7265 9.0565 10.6365 12.4965 14.7065 17.2065 19.9665 22.9165
1572.117 25.9265 28.9865 32.0265 34.6065 36.0865 36.3565 35.3965 33.3165 30.5565 27.5765
1591.407 24.7965 22.4665 20.4265 18.3165 16.3065 14.4665 12.7965 11.3865 10.3165 9.4665
1610.697 8.8565 8.4465 8.1165 7.9865 7.8565 7.7965 7.8365 7.9565 8.2265 8.5065
1629.986 8.8665 9.2765 9.6165 9.7665 9.5765 9.1965 8.6265 7.9565 7.3165 6.7465
1649.276 6.2865 5.8965 5.5465 5.3965 5.3465 5.2965 5.3365 5.4165 5.5065 5.6965
1668.566 6.0065 6.3265 6.7265 7.2965 7.9065 8.4365 9.0665 9.8565 10.7765 11.9065
1687.856 13.3665 15.3465 17.9665 21.4565 25.9065 30.5465 34.2565 36.5565 36.9465 35.1365
1707.146 31.2065 25.9965 20.9665 17.1865 14.4565 12.5365 11.2165 10.2765 9.5765 8.9665
1726.435 8.4165 7.8565 7.2765 6.6965 5.9965 5.3665 4.7465 4.1765 3.7265 3.3365
1745.725 2.9765 2.6565 2.4065 2.2165 2.1565 2.0865 1.9765 1.9465 1.8865 1.8365
1765.015 1.7965 1.7465 1.7165 1.7165 1.6765 1.6665 1.6665 1.6065 1.4965 1.4565
1784.305 1.4165 1.3265 1.2665 1.2465 1.1765 1.0965 1.095 1.0936 1.0379 0.9934
1803.594 0.9896 0.9514 0.9586 0.9644 0.933 0.9567 1.0017 0.9944 0.9644 0.9577
1822.884 0.9148 0.9044 0.8967 0.9037 0.9418 0.9538 0.9773 1.0186 1.0423 0.9812
1842.174 0.9569 0.9397 0.9646 1.0651 1.1065 1.0625 1.0697 1.0796 1.0222 1.0197
1861.464 1.0646 1.093 1.002 0.952 0.9947 0.9932 0.9284 0.8835 0.9042 0.9005
1880.754 0.8361 0.7984 0.8115 0.7842 0.7221 0.7044 0.6723 0.6367 0.6379 0.6813
1900.043 0.7083 0.7144 0.7348 0.7428 0.8145 0.8408 0.8382 0.9072 1.0061 1.0953
1919.333 1.1065 1.1765 1.2565 1.2365 1.2765 1.3265 1.3065 1.3065 1.2865 1.2865
1938.623 1.2865 1.1865 1.1765 1.2065 1.1565 1.0693 0.981 0.9594 0.9361 0.8869
1957.913 0.7641 0.6943 0.7118 0.7156 0.7184 0.6345 0.6148 0.627 0.5789 0.5657
1977.202 0.5731 0.5646 0.573 0.6087 0.5964 0.5943 0.6771 0.7095 0.694 0.7532
1996.492 0.7543 0.7251 0.7452 0.7777 0.7505 0.6891 0.6979 0.7751 0.8275 0.806
2015.782 0.8008 0.8262 0.8743 0.9308 0.9131 0.9035 0.9248 0.9261 0.9434 0.9492
2035.072 0.9023 0.8563 0.8708 0.9233 0.9096 0.9102 0.928 0.8959 0.8652 0.8429
2054.362 0.8026 0.6823 0.635 0.7164 0.7297 0.6759 0.6628 0.634 0.5807 0.5505
2073.651 0.6084 0.6296 0.5055 0.53 0.6011 0.513 0.4558 0.4795 0.4896 0.4748
2092.941 0.4511 0.3702 0.3825 0.4229 0.3881 0.4154 0.4533 0.4789 0.4642 0.3802
2112.231 0.3326 0.3315 0.3429 0.2923 0.331 0.3368 0.2585 0.3078 0.331 0.3666
2131.521 0.3545 0.2629 0.2332 0.25 0.2454 0.2414 0.2613 0.308 0.3646 0.292
2150.810 0.2347 0.2664 0.3023 0.2976 0.2835 0.3235 0.3296 0.3497 0.3978 0.3753
2170.100 0.3711 0.3451 0.3004 0.293 0.3354 0.366 0.3101 0.2343 0.231 0.2989
2189.390 0.2971 0.2153 0.2158 0.2801 0.3018 0.2761 0.3436 0.4222 0.367 0.3322
2208.680 0.3233 0.2795 0.2595 0.2958 0.3574 0.3827 0.2724 0.216 0.3183 0.346
2227.970 0.2831 0.2818 0.358 0.3555 0.2992 0.2813 0.2715 0.3469 0.4336 0.4311
2247.259 0.4085 0.3927 0.3584 0.3352 0.3286 0.3615 0.3601 0.3832 0.3193 0.3077
2266.549 0.4124 0.3461 0.3103 0.3626 0.3613 0.3834 0.3166 0.2795 0.4202 0.4604
2285.839 0.4248 0.4293 0.4068 0.3897 0.4015 0.4155 0.44 0.4169 0.3863 0.3869
2305.129 0.4392 0.4583 0.4234 0.5154 0.5397 0.4618 0.517 0.5823 0.5432 0.5373
2324.418 0.5146 0.45 0.4569 0.4271 0.4087 0.4783 0.4885 0.4191 0.3483 0.3586
2343.708 0.4003 0.4132 0.4601 0.4732 0.4802 0.5321 0.4887 0.4484 0.5563 0.572
2362.998 0.5661 0.5982 0.5315 0.5484 0.6401 0.6351 0.6659 0.716 0.6961 0.664
2382.288 0.6599 0.6777 0.6776 0.6397 0.6196 0.6512 0.7003 0.6586 0.5894 0.5961
2401.578 0.5381 0.5356 0.5681 0.5575 0.5786 0.5819 0.6355 0.6227 0.5545 0.6784
2420.867 0.7942 0.7713 0.734 0.7824 0.8275 0.7532 0.6814 0.7245 0.8218 0.838
2440.157 0.7689 0.8001 0.793 0.7173 0.6809 0.6489 0.6473 0.6628 0.6143 0.479
2459.447 0.4581 0.4761 0.5943 0.619 0.4675 0.4107 0.4729 0.4785 0.4446 0.4861
2478.737 0.4666 0.4838 0.5252 0.4302 0.4274 0.5329 0.5119 0.4918 0.5429 0.5018
2498.026 0.4536 0.4945 0.5191 0.533 0.5205 0.5144 0.4625 0.4986 0.5581 0.51
2517.316 0.4492 0.37 0.3672 0.3737 0.407 0.4328 0.3664 0.2662 0.2409 0.2786
2536.606 0.399 0.4368 0.3511 0.4171 0.4662 0.4648 0.5238 0.5326 0.4865 0.4654
2555.896 0.4623 0.3777 0.3838 0.5033 0.5045 0.4436 0.4587 0.5172 0.5435 0.5806
2575.186 0.5374 0.4967 0.4463 0.4105 0.4471 0.486 0.4429 0.3818 0.3691 0.3204
2594.475 0.331 0.3564 0.3582 0.2741 0.3102 0.4055 0.3516 0.2655 0.2218 0.2719
2613.765 0.2175 0.16723 0.2396 0.245 0.24 0.3288 0.3521 0.3492 0.2908 0.2031
2633.055 0.2029 0.285 0.3616 0.2907 0.2199 0.2199 0.2636 0.2962 0.3279 0.3238
2652.345 0.2468 0.2456 0.3394 0.3419 0.2647 0.1823 0.102805 0.13198 0.2615 0.3153
2671.634 0.2804 0.2414 0.2149 0.2556 0.2904 0.3579 0.4446 0.369 0.312 0.3531
2690.924 0.3321 0.3436 0.3934 0.3426 0.2781 0.2802 0.3205 0.3735 0.3361 0.2549
2710.214 0.3066 0.4135 0.3763 0.2848 0.3406 0.4158 0.3911 0.3171 0.2628 0.2213
2729.504 0.2865 0.3178 0.3506 0.3387 0.2234 0.2297 0.2133 0.2072 0.298 0.3963
2748.794 0.3187 0.2435 0.2712 0.272 0.2163 0.2341 0.2557 0.2103 0.1984 0.2265
2768.083 0.344 0.3747 0.3116 0.2927 0.2681 0.2226 0.1723 0.1956 0.3427 0.392
2787.373 0.3098 0.3193 0.3226 0.2877 0.2008 0.11179 0.2036 0.3645 0.419 0.4789
2806.663 0.4931 0.3473 0.2474 0.2484 0.3277 0.3356 0.3002 0.2969 0.2338 0.2089
2825.953 0.2594 0.3548 0.3113 0.17651 0.2909 0.3747 0.3873 0.4536 0.381 0.2275
2845.242 0.17506 0.2324 0.252 0.2251 0.101995 0.10731 0.2277 0.2743 0.2338 0.1736
2864.532 0.2151 0.3099 0.3198 0.2752 0.3107 0.3535 0.3836 0.3236 0.2652 0.2773
2883.822 0.3661 0.3817 0.308 0.3485 0.4326 0.4319 0.3323 0.2405 0.2783 0.3436
2903.112 0.358 0.3368 0.3094 0.3144 0.3187 0.3203 0.2995 0.3033 0.3358 0.3507
2922.401 0.4051 0.3505 0.3617 0.3909 0.4486 0.3223 0.09309 0.12657 0.1914 0.3507
2941.691 0.389 0.3267 0.3154 0.2558 0.2393 0.2542 0.12269 0.0429 0.16008 0.2181
2960.981 0.2161 0.2489 0.25 0.2759 0.2377 0.2489 0.2952 0.17388 0.16166 0.2949
2980.271 0.3724 0.3395 0.2508 0.2298 0.2468 0.2436 0.258 0.3471 0.4082 0.4355
2999.561 0.5361 0.5848 0.6276 0.6631 0.6882 0.7748 0.8851 1.0872 1.2565 1.3865
3018.850 1.4865 1.5365 1.7165 1.9465 2.1265 2.4665 2.7465 2.8865 3.1165 3.4465
3038.140 3.8065 4.0965 4.2465 4.4465 4.6165 4.5865 4.4665 4.3465 4.3165 4.2365
3057.430 4.0865 4.1765 4.5065 4.6865 4.9965 5.4265 5.6865 6.1765 6.8065 7.2665
3076.720 7.6065 7.7865 7.5465 7.0465 6.5665 5.9565 5.2165 4.5565 4.1665 3.8465
3096.009 3.5165 3.1865 2.9465 2.8265 2.4665 2.0365 1.8065 1.6865 1.5265 1.3765
3115.299 1.2065 0.9839 0.8349 0.6607 0.6234 0.5717 0.453 0.4157 0.4744 0.6001
3134.589 0.5577 0.4816 0.4631 0.3327 0.3524 0.4059 0.3145 0.3508 0.5024 0.5782
3153.879 0.4003 0.2118 0.14212 0.2337 0.3415 0.3955 0.4432 0.4318 0.4525 0.3834
3173.169 0.2952 0.3156 0.4768 0.5345 0.4358 0.5473 0.6008 0.3698 0.3578 0.4467
3192.458 0.5225 0.6313 0.6446 0.6685 0.6633 0.5129 0.3647 0.5005 0.6366 0.523
3211.748 0.467 0.5551 0.5682 0.5156 0.5628 0.6114 0.3982 0.3764 0.5462 0.4743
3231.038 0.3569 0.2633 0.2575 0.3761 0.3746 0.3125 0.3202 0.2683 0.2936 0.2562
3250.328 0.32 0.3523 0.243 0.2766 0.3293 0.3118 0.3599 0.4632 0.3675 0.19438
3269.617 0.11121 0.16931 0.3409 0.4761 0.3602 0.3668 0.4283 0.3466 0.2678 0.3303
3288.907 0.4716 0.4816 0.4423 0.3849 0.365 0.3898 0.4005 0.4943 0.4975 0.407
3308.197 0.4497 0.4443 0.4745 0.4455 0.3479 0.4593 0.6074 0.4668 0.3002 0.3311
3327.487 0.4003 0.5026 0.4748 0.5258 0.7502 0.8824 0.7288 0.6364 0.6915 0.5004
3346.777 0.5083 0.6688 0.6646 0.5813 0.5069 0.4479 0.2983 0.3872 0.4789 0.4786
3366.066 0.4344 0.5389 0.6463 0.4936 0.5394 0.6365 0.6951 0.7197 0.712 0.6276
3385.356 0.6306 0.6716 0.6328 0.6478 0.6777 0.6495 0.5818 0.5718 0.6005 0.7161
3404.646 0.6876 0.5807 0.5265 0.4279 0.4903 0.4858 0.5444 0.633 0.7169 0.7803
3423.936 0.6703 0.7498 0.8635 0.8897 0.9897 1.0864 1.0892 1.1765 1.3265 1.5765
3443.225 1.7565 1.8265 1.9065 2.0465 2.1465 2.2065 2.5765 2.9565 3.0965 3.2965
3462.515 3.6265 3.9065 4.2665 4.7265 4.9065 4.9065 5.1165 5.0765 4.7265 4.2265
3481.805 3.7165 3.2865 2.8165 2.4165 2.0165 1.8565 1.8165 1.6665 1.5365 1.3165
3501.095 1.1165 1.0355 0.9616 0.8892 0.8924 0.8227 0.655 0.5733 0.5276 0.5803
3520.385 0.5679 0.4862 0.4408 0.5011 0.5653 0.5051 0.4776 0.4887 0.4513 0.4512
3539.674 0.3948 0.2077 0.2038 0.2601 0.3124 0.4047 0.3283 0.17248 0.2226 0.3234
3558.964 0.3385 0.3766 0.3259 0.2494 0.2641 0.2709 0.2515 0.2691 0.2089 0.3374
3578.254 0.3562 0.17595 0.3694 0.3827 0.2516 0.3069 0.3299 0.448 0.3494 0.19059
3597.544 0.2078 0.18338 0.2201 0.3034 0.2563 0.0486 0.12397 0.3452 0.2888 0.2285
3616.833 0.308 0.2295 0.18591 0.2463 0.2018 0.2311 0.2915 0.273 0.2777 0.207
3636.123 0.037 0.0072 0.16476 0.17833 0.14172 0.2752 0.3364 0.392 0.3805 0.4508
3655.413 0.4007 0.19389 0.19536 0.3078 0.3959 0.311 0.3038 0.2636 0.2108 0.2383
3674.703 0.15327 0.18508 0.2978 0.2647 0.15788 0.2619 0.3381 0.3283 0.2544 0.1969
3693.993 0.3673 0.3886 0.3188 0.278 0.2831 0.2962 0.3201 0.3805 0.3283 0.2738
3713.282 0.3003 0.2985 0.3119 0.2478 0.1427 0.0774 0.0577 0.17398 0.2054 0.2518
3732.572 0.239 0.2005 0.2482 0.23 0.18819 0.3066 0.2878 0.10857 0.0773 0.0583
3751.862 0.2438 0.3748 0.2541 0.104172 0.08731 0.08676 0.2758 0.3875 0.3651 0.3243
3771.152 0.0968864 0.17627 0.2146 0.13357 0.204 0.2128 0.13331 0.11821 0.15276 0.11499
3790.441 0.15895 0.17756 0.1805 0.2058 0.2066 0.10931 0.0571 0.201 0.2552 0.2625
3809.731 0.3449 0.2145 0.2044 0.4146 0.3531 0.14962 0.13849 0.3604 0.3634 0.15008
3829.021 0.15932 0.3105 0.18896 0.0193 0.12421 0.2608 0.3282 0.3686 0.2173 0.1967
3848.311 0.3086 0.2342 0.14347 0.0456 0.12608 0.2012 0.2063 0.2852 0.2917 0.2709
3867.601 0.3504 0.3373 0.2205 0.2657 0.2554 0.2424 0.18984 0 0.0309 0.1774
3886.890 0.0205 0.0762 0.4272 0.3199 0.0247 0.12658 0.2079 0.0316 0.16237 0.2744
3906.180 0.2297 0.2951 0.2491 0.12655 0.2086 0.12032 0.0743 0.21 0.3119 0.2691
3925.470 0.14791 0.3534 0.3752 0.3992 0.4622 0.3595 0.2554 0.12621 0.095855 0.0539
3944.760 0.13181 0.2946 0.2469 0.2586 0.3129 0.3558 0.3482 0.2619 0.19041 0.13849
3964.049 0.2066 0.1268 0.09435 0.11544 0.032 0.2678 0.4827 0.3115 0.2859 0.4663
3983.339 0.597 0.5647 0.3512 0.2398 0.4455 0.5069 0.14904 0.0421 0.16189 0.19453
##END=
