##TITLE=2,5-Difluorophenyl isothiocyanate
##JCAMP-DX=4.24
##DATA TYPE=INFRARED SPECTRUM
##ORIGIN=EPA-IR VAPOR PHASE LIBRARY
##OWNER=SRD/NIST
Collection (C) 2018 copyright by the U.S. Secretary of Commerce
on behalf of the United States of America. All rights reserved.
##CAS REGISTRY NO=206559-57-1
##MOLFORM=C 7 H 3 F 2 N S
##$NIST SOURCE=MSDC-IR
##STATE=gas
##XUNITS=1/CM
##YUNITS=ABSORBANCE
##XFACTOR=1.
##YFACTOR=0.001
##DELTAX=1.92898
##FIRSTX=549.8
##LASTX=4000.7
##FIRSTY=7.376
##MAXX=4000.7
##MINX=549.759
##MAXY=0.499716
##MINY=0
##NPOINTS=1790
##XYDATA=(X++(Y..Y))
549.759 7.376 6.516 5.826 5.146 4.746 4.816 4.466 4.276 4.446 4.616
569.049 4.976 5.546 6.616 7.916 9.506 11.026 12.396 13.716 14.456 15.216
588.339 16.476 17.166 15.726 13.116 11.476 10.556 9.446 8.326 7.386 6.476
607.628 5.876 5.346 4.846 4.366 3.906 3.946 3.996 4.116 4.316 4.416
626.918 4.546 5.086 5.986 6.556 6.806 7.036 6.996 6.666 6.256 5.866
646.208 5.326 4.736 4.246 3.706 3.406 3.166 2.676 2.216 2.006 2.086
665.498 2.306 2.696 3.126 3.426 3.786 4.236 4.606 5.036 5.396 5.686
684.787 5.926 5.906 5.606 5.226 4.996 4.736 4.486 3.996 3.406 2.896
704.077 2.416 2.106 1.976 1.836 1.646 1.466 1.366 1.436 1.656 1.886
723.367 2.096 2.476 2.776 3.336 4.406 5.406 6.556 7.926 9.256 10.336
742.657 11.526 13.016 14.866 17.596 21.696 27.826 37.436 51.156 66.236 77.006
761.947 81.736 84.026 85.936 84.826 76.706 63.986 50.286 37.776 27.926 20.716
781.236 15.996 13.106 11.066 9.826 9.426 9.896 11.146 12.866 15.206 18.026
800.526 20.826 23.406 26.306 29.996 34.086 36.276 33.656 28.986 26.026 23.866
819.816 21.416 18.636 15.756 13.406 12.096 11.786 12.486 14.306 17.396 21.566
839.106 26.736 32.696 38.646 44.246 49.166 53.176 55.966 57.236 56.976 55.616
858.395 55.206 56.606 56.296 50.516 41.856 34.626 29.956 26.286 22.106 17.566
877.685 13.646 10.636 8.216 6.586 5.796 5.346 5.186 5.376 5.426 5.376
896.975 5.646 6.276 6.756 7.146 7.546 7.776 7.926 8.166 8.366 8.376
916.265 8.266 8.146 8.056 7.736 7.426 7.246 7.106 6.836 6.376 5.916
935.555 5.526 5.176 4.756 4.426 4.016 3.616 3.276 2.986 2.926 2.746
954.844 2.516 2.446 2.386 2.336 2.296 2.286 2.186 2.076 2.096 2.236
974.134 2.246 2.206 2.356 2.736 3.386 3.966 4.676 5.396 5.916 6.116
993.424 5.896 5.746 5.606 5.156 4.486 3.866 3.336 2.786 2.366 2.156
1012.714 1.846 1.416 1.2925 1.1982 1.0428 0.9405 0.9064 1.009 1.2219 1.456
1032.003 1.2215 0.9463 0.9511 1.0762 0.8844 0.8853 0.961 0.6625 0.7886 0.8784
1051.293 0.8381 0.9152 0.9149 0.7981 0.8549 0.879 0.8198 0.9318 0.8513 0.7055
1070.583 0.737 0.8477 0.9265 1.0198 1.386 1.606 1.596 1.886 2.186 2.876
1089.873 3.696 4.476 6.386 8.306 9.246 9.526 9.586 9.766 9.846 9.186
1109.163 7.356 5.656 4.166 2.966 2.636 2.266 1.766 1.546 1.496 1.766
1128.452 1.966 2.246 2.576 2.856 3.266 3.756 4.766 5.476 5.656 6.486
1147.742 8.096 10.166 12.786 16.356 21.536 28.336 36.146 44.526 51.986 56.316
1167.032 57.666 57.516 56.756 53.646 46.216 35.576 25.326 18.036 13.436 10.606
1186.322 9.006 8.186 7.956 8.856 10.426 12.506 15.286 18.886 23.346 27.976
1205.611 31.846 34.586 36.156 36.976 37.816 37.476 34.956 31.076 27.236 24.116
1224.901 21.236 19.376 18.786 18.686 19.276 20.846 23.386 27.376 32.866 39.446
1244.191 46.456 51.706 53.416 53.216 53.796 54.866 53.096 46.386 37.466 29.796
1263.481 24.076 19.836 16.456 13.646 11.656 10.566 9.846 9.336 8.906 8.586
1282.771 8.346 8.156 8.156 8.246 8.426 8.586 8.796 9.066 9.176 9.266
1302.060 9.466 9.596 9.496 9.016 8.446 8.066 7.636 7.046 6.236 5.236
1321.350 4.376 3.716 3.146 2.726 2.386 2.136 1.976 1.896 1.846 1.846
1340.640 1.826 1.756 1.776 1.726 1.686 1.656 1.606 1.646 1.656 1.586
1359.930 1.506 1.466 1.456 1.466 1.516 1.556 1.636 1.776 1.876 1.986
1379.219 2.166 2.366 2.546 2.806 3.046 3.226 3.386 3.546 3.646 3.736
1398.509 3.846 3.856 3.786 3.796 3.826 3.886 4.046 4.386 4.926 5.686
1417.799 6.636 7.646 8.706 9.686 10.486 11.096 11.556 11.816 11.856 11.776
1437.089 11.726 11.896 12.226 12.686 13.516 14.526 15.446 16.026 16.166 15.936
1456.378 15.316 14.326 12.956 11.356 9.886 8.776 8.236 8.176 8.536 9.306
1475.668 10.416 12.046 14.406 17.676 22.166 28.486 37.146 48.766 63.866 82.486
1494.958 103.976 126.576 147.886 166.186 180.526 189.936 192.836 187.866 176.056 159.796
1514.248 141.046 120.666 99.556 80.126 64.126 51.526 41.296 32.736 25.906 21.026
1533.538 17.756 15.506 13.976 12.876 12.086 11.566 11.166 10.876 10.706 10.596
1552.827 10.656 10.766 10.846 11.136 11.406 11.586 11.766 11.886 11.976 12.176
1572.117 12.496 12.896 13.416 14.106 14.926 15.956 17.146 18.446 20.046 21.776
1591.407 23.636 25.686 28.076 30.836 33.966 37.936 43.026 49.316 56.756 65.026
1610.697 73.456 80.996 86.516 89.126 88.616 85.146 78.676 69.676 59.186 48.596
1629.986 39.156 31.156 24.526 19.166 14.966 11.846 9.556 7.896 6.626 5.726
1649.276 5.086 4.496 4.086 3.816 3.606 3.496 3.426 3.346 3.296 3.296
1668.566 3.216 3.206 3.186 3.066 2.966 2.866 2.746 2.586 2.426 2.306
1687.856 2.266 2.236 2.196 2.186 2.126 2.176 2.286 2.366 2.496 2.646
1707.146 2.816 3.026 3.296 3.546 3.796 4.006 4.156 4.356 4.546 4.726
1726.435 4.896 5.006 4.996 4.876 4.676 4.426 4.156 3.896 3.676 3.336
1745.725 3.096 2.936 2.856 2.836 2.806 2.726 2.666 2.646 2.656 2.656
1765.015 2.586 2.516 2.476 2.526 2.606 2.656 2.696 2.716 2.756 2.786
1784.305 2.806 2.846 2.916 2.946 2.906 2.876 2.896 2.986 2.946 2.876
1803.594 2.886 2.886 2.896 2.906 2.956 3.006 3.046 3.146 3.286 3.526
1822.884 3.806 4.086 4.486 4.986 5.566 6.216 6.916 7.666 8.356 9.006
1842.174 9.546 9.966 10.336 10.576 10.586 10.306 9.806 9.316 8.856 8.376
1861.464 7.826 7.236 6.796 6.536 6.416 6.336 6.426 6.636 6.856 7.086
1880.754 7.386 7.826 8.246 8.676 9.146 9.696 10.246 10.776 11.376 11.886
1900.043 12.476 13.166 13.806 14.456 15.216 16.036 16.996 18.036 19.156 20.456
1919.333 21.876 23.406 25.016 26.846 28.796 30.786 33.006 35.366 37.756 40.216
1938.623 42.816 45.506 48.256 51.226 54.316 57.556 61.066 64.906 69.186 73.906
1957.913 79.136 85.076 91.706 99.166 107.446 116.346 125.656 135.176 144.736 153.976
1977.202 162.576 170.406 177.466 183.876 189.986 196.066 202.146 208.516 215.536 223.266
1996.492 231.876 241.516 252.276 264.176 277.156 291.446 307.036 323.756 341.366 359.786
2015.782 379.596 400.986 423.446 445.776 466.226 482.846 494.116 499.716 499.526 492.986
2035.072 479.966 461.506 438.646 412.396 384.436 356.366 328.986 302.796 278.166 255.766
2054.362 235.866 218.526 203.926 192.216 183.206 176.766 172.796 171.056 171.576 174.126
2073.651 178.516 184.716 192.366 201.176 210.776 220.746 230.576 239.606 247.356 253.246
2092.941 256.866 257.746 255.336 249.636 241.006 230.136 217.456 203.496 188.806 173.886
2112.231 159.356 145.626 132.996 121.576 111.416 102.596 95.046 88.616 83.186 78.736
2131.521 75.106 71.986 69.366 67.136 65.196 63.606 62.216 61.036 60.246 59.676
2150.810 59.226 58.976 58.776 58.386 57.766 56.796 55.216 53.026 50.176 46.806
2170.100 43.106 39.216 35.316 31.676 28.486 25.666 23.236 21.346 19.766 18.396
2189.390 17.376 16.626 16.086 15.716 15.416 15.206 15.076 14.826 14.486 14.016
2208.680 13.366 12.586 11.656 10.616 9.546 8.516 7.576 6.846 6.256 5.786
2227.970 5.426 5.026 4.736 4.546 4.366 4.216 4.026 3.846 3.706 3.586
2247.259 3.486 3.446 3.416 3.366 3.306 3.256 3.346 3.456 3.556 3.606
2266.549 3.696 3.746 3.776 3.796 3.706 3.706 3.726 3.746 3.846 3.946
2285.839 4.056 4.166 4.336 4.566 4.726 4.886 5.046 5.126 5.176 5.196
2305.129 5.166 5.066 4.916 4.716 4.486 4.226 3.966 3.756 3.626 3.646
2324.418 3.686 3.706 3.786 3.876 3.986 4.116 4.286 4.376 4.386 4.366
2343.708 4.386 4.386 4.346 4.296 4.256 4.186 4.026 3.956 3.916 3.886
2362.998 3.856 3.936 4.106 4.216 4.396 4.466 4.536 4.636 4.666 4.676
2382.288 4.606 4.476 4.246 3.986 3.746 3.566 3.426 3.366 3.316 3.296
2401.578 3.376 3.456 3.536 3.626 3.776 3.866 3.906 3.946 3.936 3.956
2420.867 3.946 3.816 3.596 3.446 3.296 3.116 3.036 2.966 2.836 2.746
2440.157 2.726 2.796 2.826 2.826 2.946 3.076 3.266 3.436 3.576 3.806
2459.447 4.016 4.156 4.376 4.586 4.636 4.636 4.706 4.786 4.786 4.696
2478.737 4.496 4.376 4.196 3.966 3.876 3.706 3.556 3.566 3.626 3.666
2498.026 3.756 3.906 4.056 4.196 4.256 4.316 4.406 4.436 4.536 4.616
2517.316 4.636 4.756 4.916 5.016 5.016 5.046 5.106 5.056 4.956 4.846
2536.606 4.626 4.416 4.256 4.066 3.926 3.826 3.866 3.956 3.966 4.036
2555.896 4.066 4.176 4.406 4.616 4.816 4.946 4.986 5.146 5.376 5.536
2575.186 5.676 5.816 5.926 6.006 6.056 6.076 6.096 6.036 5.986 5.896
2594.475 5.736 5.546 5.356 5.226 5.126 5.006 4.876 4.696 4.446 4.316
2613.765 4.216 4.156 4.056 3.906 3.976 4.056 3.926 3.766 3.616 3.586
2633.055 3.636 3.576 3.466 3.356 3.256 3.196 3.076 2.906 2.846 2.686
2652.345 2.466 2.396 2.416 2.366 2.326 2.386 2.356 2.366 2.486 2.596
2671.634 2.646 2.606 2.616 2.666 2.656 2.716 2.816 2.866 2.866 2.916
2690.924 2.966 2.956 3.016 3.156 3.136 3.146 3.286 3.356 3.476 3.566
2710.214 3.596 3.676 3.826 3.966 4.086 4.226 4.256 4.206 4.276 4.306
2729.504 4.096 3.826 3.626 3.466 3.216 2.916 2.796 2.746 2.466 2.266
2748.794 2.246 2.156 2.056 2.026 2.006 1.936 1.936 1.886 1.816 1.866
2768.083 1.956 2.016 2.046 2.036 1.966 1.936 1.966 1.966 1.936 1.906
2787.373 1.876 1.896 1.916 1.846 1.806 1.746 1.736 1.736 1.706 1.706
2806.663 1.606 1.556 1.626 1.696 1.766 1.716 1.696 1.756 1.796 1.776
2825.953 1.806 1.796 1.736 1.796 1.726 1.616 1.666 1.756 1.926 1.996
2845.242 1.906 1.856 1.976 2.096 2.186 2.286 2.346 2.406 2.506 2.516
2864.532 2.616 2.766 2.796 2.806 2.786 2.806 2.816 2.776 2.696 2.636
2883.822 2.646 2.696 2.686 2.546 2.416 2.366 2.296 2.176 2.156 2.146
2903.112 2.216 2.206 2.086 2.026 2.016 2.046 2.006 2.006 2.086 2.206
2922.401 2.216 2.126 2.156 2.146 2.096 2.166 2.266 2.316 2.296 2.316
2941.691 2.336 2.326 2.286 2.146 2.036 1.976 1.956 1.916 1.756 1.736
2960.981 1.706 1.596 1.506 1.486 1.426 1.366 1.2942 1.306 1.446 1.426
2980.271 1.2719 1.2778 1.426 1.406 1.426 1.466 1.436 1.486 1.386 1.346
2999.561 1.456 1.396 1.2806 1.366 1.426 1.356 1.316 1.336 1.2979 1.2731
3018.850 1.336 1.3018 1.2768 1.2789 1.2659 1.2654 1.2062 1.0911 1.0287 1
3038.140 0.9552 0.9572 0.8515 0.7121 0.6712 0.721 0.7309 0.773 0.7902 0.7379
3057.430 0.8218 0.8386 0.7836 0.8097 0.8525 0.9265 1.0317 1.0644 1.0159 1.0725
3076.720 1.1711 1.211 1.2647 1.316 1.2748 1.2379 1.2834 1.2544 1.1986 1.1941
3096.009 1.0246 0.7709 0.6663 0.5595 0.5636 0.6533 0.6224 0.5127 0.36714 0.2959
3115.299 0.3628 0.30152 0.314053 0.38536 0.2947 0.2517 0.2937 0.32014 0.2553 0.2085
3134.589 0.2415 0.2231 0.17 0.2393 0.34959 0.36087 0.202 0.104 0.2493 0.32221
3153.879 0.18 0.144 0.2503 0.2127 0.1 0.093 0.177 0.2321 0.169 0.129
3173.169 0.115 0.076 0.13 0.197 0.203 0.2177 0.232 0.183 0.201 0.2401
3192.458 0.203 0.123 0.078 0.14 0.2266 0.30143 0.31226 0.277 0.2354 0.161
3211.748 0.146 0.138 0.209 0.2479 0.137 0.054 0.069 0.13 0.187 0.143
3231.038 0.031 0.136 0.2699 0.167 0.066 0.119 0.2688 0.2551 0.062 0
3250.328 0.052 0.065 0.042 0.138 0.2492 0.2128 0.2247 0.2342 0.2155 0.213
3269.617 0.237 0.2695 0.235 0.2367 0.175 0.064 0.194 0.2119 0.095 0.048
3288.907 0.041 0.2448 0.178 0.029 0.161 0.169 0.101 0.188 0.18 0.147
3308.197 0.161 0.14 0.178 0.151 0.193 0.2894 0.31152 0.203 0.15 0.089
3327.487 0.103 0.2228 0.107 0.018 0.088 0.309658 0.39831 0.2936 0.123 0.034
3346.777 0.13 0.174 0.2065 0.29851 0.2084 0.084 0.144 0.182 0.144 0.158
3366.066 0.156 0.056 0.138 0.2651 0.30388 0.35996 0.2914 0.2419 0.2787 0.309939
3385.356 0.2322 0.145 0.249 0.4103 0.4204 0.374 0.39514 0.4571 0.35219 0.2837
3404.646 0.2548 0.181 0.176 0.112 0.113 0.147 0.165 0.2788 0.2838 0.2211
3423.936 0.2403 0.2106 0.2782 0.2794 0.2847 0.451 0.3829 0.30332 0.315449 0.2742
3443.225 0.2388 0.179 0.183 0.33225 0.40002 0.191 0.149 0.284 0.36561 0.37267
3462.515 0.38261 0.39954 0.33108 0.2371 0.2066 0.2295 0.2504 0.35525 0.4282 0.4088
3481.805 0.314822 0.2589 0.38366 0.4686 0.40347 0.34659 0.38469 0.2654 0.191 0.2553
3501.095 0.2318 0.2082 0.31896 0.36609 0.30102 0.3942 0.3413 0.32889 0.3873 0.4349
3520.385 0.5912 0.4824 0.238 0.2173 0.34844 0.4515 0.34425 0.2312 0.2326 0.246
3539.674 0.2546 0.2608 0.2441 0.30385 0.4288 0.4195 0.4353 0.4118 0.33331 0.34786
3558.964 0.4407 0.443 0.35635 0.336 0.4258 0.4724 0.4608 0.5385 0.39144 0.2537
3578.254 0.3407 0.339 0.2767 0.18 0.263 0.36294 0.34799 0.281 0.2531 0.33497
3597.544 0.4204 0.38485 0.30125 0.2644 0.2159 0.2306 0.31767 0.2928 0.2084 0.30154
3616.833 0.33826 0.5599 0.6067 0.36752 0.3384 0.417 0.4104 0.32169 0.30806 0.4128
3636.123 0.6174 0.6147 0.5561 0.4869 0.38935 0.36348 0.4098 0.5432 0.542 0.37536
3655.413 0.347 0.5093 0.5447 0.4849 0.36846 0.4105 0.4761 0.4245 0.38765 0.2915
3674.703 0.2611 0.37778 0.4116 0.37541 0.4628 0.5741 0.6194 0.5798 0.4381 0.412
3693.993 0.5148 0.417 0.4098 0.5045 0.4576 0.39124 0.5595 0.6055 0.4324 0.38786
3713.282 0.3766 0.39132 0.4393 0.5108 0.4739 0.4734 0.4627 0.453 0.4971 0.4386
3732.572 0.36901 0.39267 0.40402 0.4604 0.5697 0.6836 0.8201 0.7255 0.6406 0.5829
3751.862 0.5943 0.722 0.6663 0.6599 0.7265 0.6721 0.5673 0.4897 0.5629 0.6774
3771.152 0.644 0.6175 0.6101 0.5638 0.6633 0.6577 0.5805 0.6889 0.5613 0.4834
3790.441 0.6116 0.606 0.5539 0.6634 0.7179 0.4715 0.5358 0.6958 0.6556 0.626
3809.731 0.6325 0.684 0.6202 0.6475 0.7496 0.5705 0.4655 0.4974 0.519 0.5725
3829.021 0.5604 0.5181 0.5528 0.6864 0.7643 0.793 0.7593 0.7346 0.8903 1.0472
3848.311 1.0531 1.0095 0.8909 0.9263 0.9384 0.8017 0.7873 0.7453 0.8289 0.8362
3867.601 0.7506 0.8562 0.8271 0.8011 0.7733 0.7431 0.9001 0.8931 0.7889 0.7273
3886.890 0.8015 0.9456 0.9513 0.9253 1.0023 1.105 1.1062 0.9485 0.9806 1.0541
3906.180 0.9441 0.9932 1.0728 1.0632 0.9901 1.0438 1.1342 1.1015 1.1482 1.2495
3925.470 1.2783 1.2757 1.2593 1.316 1.476 1.416 1.336 1.536 1.506 1.386
3944.760 1.346 1.376 1.496 1.466 1.506 1.436 1.496 1.696 1.626 1.766
3964.049 1.816 1.796 1.736 1.596 1.646 1.586 1.536 1.526 1.606 1.836
3983.339 1.846 1.876 1.856 1.776 1.856 1.876 2.026 2.136 2.056 2.046
##END=
