##TITLE=3-Heptyl isothiocyanate
##JCAMP-DX=4.24
##DATA TYPE=INFRARED SPECTRUM
##ORIGIN=EPA-IR VAPOR PHASE LIBRARY
##OWNER=SRD/NIST
Collection (C) 2018 copyright by the U.S. Secretary of Commerce
on behalf of the United States of America. All rights reserved.
##CAS REGISTRY NO=206761-66-2
##MOLFORM=C 8 H 15 N S
##$NIST SOURCE=MSDC-IR
##STATE=gas
##XUNITS=1/CM
##YUNITS=ABSORBANCE
##XFACTOR=1.
##YFACTOR=0.001
##DELTAX=1.92898
##FIRSTX=549.8
##LASTX=4000.7
##FIRSTY=12.453
##MAXX=4000.7
##MINX=549.759
##MAXY=0.318293
##MINY=0
##NPOINTS=1790
##XYDATA=(X++(Y..Y))
549.759 12.453 12.473 11.953 11.423 11.283 10.803 10.293 9.873 9.623 9.073
569.049 8.573 8.153 7.653 7.503 7.203 6.503 6.053 5.883 5.823 5.713
588.339 5.413 5.173 4.823 4.683 4.573 4.323 4.333 4.333 3.973 3.813
607.628 3.783 3.643 3.403 3.233 3.203 3.073 3.053 2.923 2.733 2.683
626.918 2.793 2.743 2.513 2.613 2.883 2.853 2.823 2.793 2.743 2.833
646.208 2.673 2.653 2.793 2.823 2.763 2.693 2.873 3.083 3.153 3.023
665.498 2.983 2.883 2.993 3.213 3.183 3.273 3.463 3.573 3.493 3.573
684.787 3.563 3.393 3.333 3.233 3.043 2.773 2.603 2.553 2.483 2.483
704.077 2.413 2.323 2.433 2.463 2.323 2.083 2.013 2.253 2.603 2.823
723.367 3.063 3.383 3.643 3.943 4.193 4.493 4.703 4.723 4.653 4.623
742.657 4.703 4.663 4.513 4.353 4.313 4.263 4.093 4.023 4.003 3.833
761.947 3.743 3.493 3.253 3.513 3.663 3.613 3.883 4.083 4.153 4.503
781.236 4.813 5.223 5.493 5.663 5.963 6.183 6.573 7.113 7.453 7.953
800.526 8.853 9.703 10.253 10.663 11.153 11.673 11.953 12.093 11.733 11.243
819.816 11.163 10.863 10.183 9.663 9.233 8.653 8.193 7.813 7.463 7.103
839.106 6.803 6.583 6.233 5.893 5.863 5.693 5.403 5.233 5.023 4.963
858.395 5.013 4.823 4.583 4.363 4.213 4.183 4.263 4.313 4.273 4.153
877.685 4.173 4.083 3.883 4.023 4.163 4.183 4.243 4.473 4.723 4.823
896.975 4.863 5.073 5.493 5.713 5.823 6.033 6.223 6.203 6.233 6.413
916.265 6.593 6.913 7.323 7.873 8.333 8.493 8.723 9.003 8.983 8.943
935.555 8.923 8.773 8.423 8.053 7.813 7.523 7.233 6.923 6.693 6.473
954.844 6.213 5.973 5.703 5.503 5.163 4.853 4.763 4.613 4.393 4.153
974.134 3.923 3.803 3.743 3.693 3.703 3.693 3.483 3.423 3.683 3.783
993.424 3.743 3.693 3.733 3.993 4.273 4.283 4.043 3.903 3.943 3.673
1012.714 3.433 3.533 3.673 3.503 3.203 3.383 3.623 3.583 3.503 3.613
1032.003 3.743 3.763 3.793 3.463 3.403 3.733 3.733 3.873 4.083 3.833
1051.293 3.763 3.623 3.373 3.383 3.463 3.653 3.613 3.483 3.633 3.783
1070.583 3.723 3.633 3.433 3.523 3.863 3.913 3.953 3.453 3.343 3.893
1089.873 3.953 4.273 4.523 4.293 4.383 4.753 4.583 5.013 5.633 5.963
1109.163 6.353 6.403 6.763 7.013 7.113 7.203 6.993 7.163 7.793 7.873
1128.452 7.433 7.433 7.753 7.843 8.073 7.983 7.693 7.863 7.463 6.793
1147.742 6.873 7.043 6.453 5.453 5.033 5.013 4.773 4.473 4.113 3.723
1167.032 3.183 2.993 3.233 3.123 3.113 3.283 3.233 3.403 3.433 3.203
1186.322 2.933 2.993 3.253 3.113 3.233 3.313 3.273 3.223 2.863 3.213
1205.611 3.563 3.153 3.253 3.643 3.723 3.903 4.073 4.223 4.153 4.243
1224.901 4.003 3.953 4.133 4.193 4.383 4.173 4.233 4.593 4.623 4.823
1244.191 4.903 4.823 5.183 5.403 5.533 6.003 6.453 6.693 7.063 7.323
1263.481 7.443 7.683 7.893 8.113 8.383 8.423 8.513 8.733 8.953 9.363
1282.771 9.913 10.583 11.313 11.993 12.913 13.863 14.743 15.743 16.703 17.593
1302.060 18.453 19.273 20.103 20.883 21.673 22.553 23.373 24.143 24.943 25.893
1321.350 27.043 28.433 30.133 32.143 34.513 37.223 40.123 43.283 46.593 49.743
1340.640 52.553 54.773 56.053 56.293 55.503 53.663 50.873 47.173 42.813 38.263
1359.930 33.933 30.033 26.633 23.673 21.103 19.003 17.453 16.313 15.493 15.023
1379.219 14.863 14.853 14.873 14.833 14.683 14.393 13.823 12.933 11.773 10.503
1398.509 9.283 8.213 7.363 6.613 6.043 5.663 5.423 5.233 5.063 4.963
1417.799 4.943 4.953 4.953 5.023 5.163 5.393 5.713 6.133 6.663 7.263
1437.089 7.923 8.633 9.463 10.343 11.303 12.383 13.493 14.533 15.673 16.903
1456.378 18.013 18.983 19.723 20.213 20.383 20.113 19.413 18.423 17.183 15.623
1475.668 13.893 12.223 10.663 9.203 7.923 6.893 6.063 5.463 4.903 4.503
1494.958 4.263 3.973 3.693 3.433 3.343 3.223 3.073 2.953 2.873 2.763
1514.248 2.593 2.443 2.413 2.433 2.343 2.283 2.273 2.183 2.133 2.103
1533.538 2.063 2.083 2.073 2.023 2.053 2.053 2.013 1.973 1.853 1.803
1552.827 1.793 1.783 1.823 1.843 1.833 1.813 1.813 1.773 1.743 1.713
1572.117 1.653 1.683 1.703 1.673 1.623 1.683 1.753 1.693 1.633 1.633
1591.407 1.603 1.503 1.513 1.523 1.433 1.473 1.573 1.493 1.403 1.443
1610.697 1.483 1.463 1.383 1.333 1.353 1.353 1.383 1.393 1.373 1.333
1629.986 1.283 1.343 1.383 1.333 1.273 1.263 1.303 1.323 1.323 1.253
1649.276 1.243 1.293 1.303 1.293 1.243 1.273 1.283 1.253 1.233 1.243
1668.566 1.243 1.213 1.203 1.273 1.273 1.223 1.193 1.203 1.233 1.163
1687.856 1.1527 1.183 1.1371 1.1245 1.193 1.203 1.1355 1.1159 1.1383 1.163
1707.146 1.1516 1.173 1.108 1.0218 1.0649 1.1356 1.1046 1.0659 1.0792 1.0892
1726.435 1.1447 1.1188 1.0781 1.1081 1.1141 1.1116 1.1098 1.0733 1.071 1.088
1745.725 1.064 1.0657 1.1437 1.1482 1.102 1.1012 1.0872 1.1234 1.1204 1.0807
1765.015 1.0941 1.163 1.1527 1.1255 1.1314 1.163 1.263 1.283 1.213 1.213
1784.305 1.273 1.273 1.233 1.263 1.293 1.313 1.303 1.263 1.293 1.333
1803.594 1.373 1.403 1.403 1.433 1.463 1.533 1.583 1.553 1.563 1.603
1822.884 1.673 1.713 1.703 1.773 1.803 1.813 1.883 1.933 1.943 1.963
1842.174 1.963 1.993 2.093 2.183 2.253 2.283 2.353 2.463 2.503 2.603
1861.464 2.683 2.763 2.883 2.973 3.063 3.173 3.323 3.493 3.623 3.713
1880.754 3.853 4.073 4.283 4.493 4.723 4.913 5.143 5.393 5.643 5.983
1900.043 6.293 6.603 7.013 7.403 7.813 8.223 8.723 9.203 9.623 10.193
1919.333 10.803 11.433 12.113 12.763 13.443 14.153 14.933 15.833 16.733 17.613
1938.623 18.573 19.613 20.733 21.833 23.043 24.323 25.633 27.023 28.463 30.023
1957.913 31.673 33.393 35.233 37.213 39.313 41.553 43.863 46.193 48.733 51.523
1977.202 54.433 57.443 60.653 64.133 67.853 71.703 75.743 80.083 84.673 89.543
1996.492 94.693 100.183 105.983 112.103 118.603 125.533 132.773 140.413 148.543 157.073
2015.782 165.863 174.983 184.593 194.383 204.333 214.573 224.913 235.123 245.213 255.053
2035.072 264.303 273.153 281.543 288.983 295.583 301.423 306.373 310.543 313.713 316.033
2054.362 317.623 318.293 318.163 317.233 315.283 312.363 308.623 303.993 298.413 291.783
2073.651 284.423 276.643 268.403 259.903 251.153 242.403 233.823 225.313 217.003 208.923
2092.941 201.173 193.803 186.753 179.953 173.533 167.603 161.873 156.483 151.513 146.863
2112.231 142.533 138.493 134.753 131.223 127.813 124.513 121.353 118.213 115.103 112.093
2131.521 109.083 106.133 103.103 100.073 97.223 94.403 91.633 88.943 86.303 83.753
2150.810 81.393 79.023 76.693 74.423 72.153 69.933 67.673 65.463 63.273 61.073
2170.100 58.943 56.853 54.813 52.813 50.813 48.833 46.863 44.963 43.113 41.243
2189.390 39.433 37.603 35.853 34.173 32.463 30.803 29.183 27.633 26.153 24.743
2208.680 23.423 22.213 21.043 19.913 18.863 17.793 16.793 15.873 14.993 14.243
2227.970 13.543 12.893 12.203 11.563 11.053 10.573 10.143 9.713 9.353 8.983
2247.259 8.593 8.323 8.093 7.833 7.543 7.293 7.103 6.813 6.533 6.303
2266.549 6.093 5.913 5.723 5.503 5.253 5.083 4.893 4.703 4.523 4.333
2285.839 4.143 3.913 3.713 3.543 3.403 3.283 3.183 3.113 2.943 2.723
2305.129 2.673 2.623 2.513 2.373 2.343 2.363 2.263 2.163 2.103 2.053
2324.418 2.013 1.953 1.873 1.833 1.873 1.913 1.853 1.773 1.783 1.823
2343.708 1.763 1.693 1.723 1.753 1.653 1.623 1.613 1.613 1.633 1.653
2362.998 1.683 1.643 1.553 1.533 1.583 1.563 1.603 1.573 1.513 1.573
2382.288 1.603 1.533 1.493 1.523 1.563 1.533 1.553 1.593 1.563 1.553
2401.578 1.503 1.463 1.453 1.473 1.503 1.473 1.473 1.543 1.553 1.513
2420.867 1.523 1.503 1.423 1.403 1.453 1.443 1.393 1.433 1.453 1.413
2440.157 1.403 1.383 1.383 1.383 1.383 1.413 1.423 1.443 1.433 1.413
2459.447 1.393 1.343 1.383 1.433 1.373 1.313 1.383 1.443 1.393 1.433
2478.737 1.443 1.393 1.433 1.473 1.523 1.553 1.523 1.483 1.503 1.533
2498.026 1.563 1.563 1.553 1.633 1.613 1.553 1.593 1.643 1.703 1.723
2517.316 1.613 1.573 1.613 1.673 1.703 1.723 1.793 1.813 1.793 1.793
2536.606 1.823 1.913 2.043 2.053 1.913 1.863 2.023 2.123 2.003 2.043
2555.896 2.213 2.213 2.223 2.203 2.163 2.263 2.323 2.373 2.403 2.423
2575.186 2.443 2.453 2.443 2.473 2.543 2.603 2.613 2.513 2.433 2.473
2594.475 2.523 2.543 2.553 2.463 2.463 2.523 2.423 2.463 2.503 2.413
2613.765 2.393 2.393 2.403 2.433 2.393 2.383 2.383 2.283 2.293 2.343
2633.055 2.383 2.493 2.543 2.533 2.583 2.603 2.543 2.503 2.523 2.523
2652.345 2.613 2.753 2.813 2.893 3.013 3.083 3.073 3.073 3.163 3.313
2671.634 3.483 3.553 3.553 3.653 3.723 3.743 3.813 3.843 3.873 4.063
2690.924 4.093 4.023 4.123 4.163 4.213 4.393 4.433 4.423 4.393 4.453
2710.214 4.613 4.603 4.583 4.633 4.603 4.583 4.723 4.813 4.753 4.793
2729.504 4.833 4.873 4.993 4.963 4.963 5.073 5.083 5.013 5.013 5.013
2748.794 4.933 4.883 4.883 4.923 4.773 4.593 4.563 4.523 4.343 4.293
2768.083 4.373 4.323 4.213 4.173 4.173 4.133 4.143 4.153 4.263 4.323
2787.373 4.253 4.333 4.563 4.693 4.763 4.833 4.833 4.883 4.993 5.093
2806.663 5.093 5.173 5.333 5.473 5.593 5.813 5.983 6.083 6.373 6.553
2825.953 6.743 7.123 7.453 7.853 8.283 8.693 9.263 9.813 10.523 11.433
2845.242 12.413 13.523 14.903 16.483 18.243 20.453 22.963 25.533 28.293 31.253
2864.532 34.243 36.943 39.213 41.193 42.803 44.223 45.613 46.933 48.193 49.113
2883.822 49.813 50.173 50.403 50.363 49.893 49.413 48.643 47.673 47.043 46.733
2903.112 46.643 46.763 47.213 47.953 48.883 50.333 52.263 54.743 57.813 61.493
2922.401 65.943 71.123 76.963 83.383 90.543 98.543 107.033 115.463 123.583 130.843
2941.691 136.063 138.643 138.453 135.243 129.763 122.803 114.823 106.793 100.203 96.093
2960.981 94.923 96.523 100.253 104.763 108.403 111.103 112.793 112.203 108.143 101.113
2980.271 92.143 82.143 72.293 63.093 54.223 45.743 38.163 31.843 26.973 23.243
2999.561 20.403 18.223 16.503 15.183 14.033 12.873 12.063 11.303 10.513 9.953
3018.850 9.503 9.123 8.593 8.193 7.853 7.483 7.233 6.983 6.683 6.463
3038.140 6.203 5.983 5.833 5.603 5.463 5.183 5.013 4.813 4.653 4.693
3057.430 4.493 4.323 4.293 4.253 4.153 4.013 3.973 3.983 3.973 3.833
3076.720 3.743 3.783 3.613 3.503 3.533 3.563 3.443 3.293 3.273 3.133
3096.009 3.083 3.063 3.043 3.013 2.903 2.883 2.713 2.553 2.623 2.593
3115.299 2.403 2.293 2.233 2.143 2.183 2.213 2.193 2.033 1.943 2.073
3134.589 2.003 1.863 1.753 1.753 1.813 1.703 1.713 1.763 1.733 1.693
3153.879 1.633 1.603 1.463 1.413 1.503 1.513 1.493 1.383 1.383 1.433
3173.169 1.343 1.353 1.393 1.303 1.413 1.333 1.153 1.173 1.1162 1.303
3192.458 1.393 1.243 1.183 1.0554 1.064 1.203 1.1292 1.0044 0.9052 0.7906
3211.748 0.7176 0.7541 0.8715 0.7206 0.6305 0.661 0.643 0.7079 0.6216 0.5903
3231.038 0.6196 0.6415 0.5442 0.3593 0.3447 0.4225 0.3855 0.3067 0.2757 0.4154
3250.328 0.4366 0.2853 0.4195 0.4073 0.14997 0.1027 0.3884 0.3581 0.17264 0.3162
3269.617 0.2855 0.2733 0.2999 0.25107 0.2996 0.3199 0.19022 0.23237 0.3068 0.18994
3288.907 0.160669 0.1829 0.19433 0.154387 0.20417 0.3505 0.25022 0.14745 0.1 0.1033
3308.197 0.3621 0.5192 0.4818 0.46 0.2883 0.0736 0.1391 0.2734 0.21098 0.23897
3327.487 0.3749 0.3782 0.3999 0.296 0.1239 0.17278 0.3339 0.3686 0.3198 0.2795
3346.777 0.3562 0.451 0.4222 0.4088 0.391 0.2835 0.2577 0.3385 0.3426 0.3477
3366.066 0.3577 0.3995 0.3889 0.2606 0.24157 0.3927 0.4655 0.3233 0.2652 0.3424
3385.356 0.2796 0.3657 0.5548 0.3494 0.24333 0.3249 0.3165 0.302 0.3358 0.3342
3404.646 0.25082 0.22931 0.19735 0.2616 0.3289 0.3073 0.23101 0.3433 0.5057 0.4016
3423.936 0.3758 0.3829 0.3741 0.3652 0.312 0.17288 0 0.1424 0.21465 0.24851
3443.225 0.3348 0.3634 0.3438 0.3774 0.3316 0.3603 0.4803 0.3431 0.2814 0.2909
3462.515 0.4205 0.3385 0.2648 0.2752 0.3233 0.3842 0.3284 0.3282 0.18212 0.2906
3481.805 0.3293 0.1732 0.22474 0.19629 0.2684 0.3722 0.2782 0.3501 0.3296 0.1166
3501.095 0.16824 0.24308 0.2782 0.24714 0.3027 0.3454 0.2913 0.3081 0.3724 0.4003
3520.385 0.2649 0.3179 0.386 0.3011 0.3227 0.4226 0.3807 0.4185 0.3743 0.157107
3539.674 0.23282 0.4163 0.3276 0.1183 0.1333 0.1004 0.213 0.3893 0.4402 0.314
3558.964 0.0841 0.1394 0.1089 0.029 0.18062 0.2745 0.1232 0.18977 0.22496 0.16843
3578.254 0.24542 0.2665 0.2727 0.255 0.24139 0.0958 0.1219 0.24447 0.3289 0.3705
3597.544 0.2945 0.2844 0.3774 0.4846 0.4191 0.4383 0.4924 0.3874 0.3826 0.4716
3616.833 0.4861 0.3838 0.3308 0.3199 0.2708 0.22237 0.2771 0.3333 0.2435 0.22901
3636.123 0.2967 0.3609 0.2717 0.2152 0.24514 0.2592 0.4017 0.5672 0.6593 0.5926
3655.413 0.4712 0.43 0.4224 0.6226 0.5965 0.5132 0.4962 0.464 0.5325 0.4578
3674.703 0.5752 0.6177 0.3456 0.4494 0.5064 0.4103 0.5467 0.4893 0.4758 0.5714
3693.993 0.6223 0.5576 0.4244 0.4666 0.6367 0.603 0.503 0.5648 0.5577 0.5467
3713.282 0.583 0.5614 0.6076 0.6346 0.6354 0.731 0.7249 0.7122 0.7235 0.5722
3732.572 0.5118 0.5934 0.6163 0.515 0.4758 0.6228 0.6864 0.6422 0.7772 0.8606
3751.862 0.6766 0.5419 0.4753 0.347 0.4487 0.6587 0.6287 0.5853 0.4812 0.5115
3771.152 0.6165 0.6531 0.6406 0.6184 0.5832 0.5907 0.6644 0.646 0.6665 0.5147
3790.441 0.4393 0.6099 0.6874 0.6214 0.4341 0.3732 0.4478 0.4477 0.5032 0.4951
3809.731 0.5583 0.645 0.6702 0.6788 0.7494 0.788 0.769 0.6262 0.4903 0.5494
3829.021 0.6399 0.7392 0.8298 0.9045 0.8722 0.7547 0.6395 0.6584 0.7597 0.8014
3848.311 0.7694 0.7503 0.8089 0.7559 0.6322 0.6605 0.707 0.7347 0.6384 0.6007
3867.601 0.7138 0.7041 0.7606 0.9 0.8468 0.7434 0.6611 0.6714 0.6397 0.645
3886.890 0.7871 0.8783 0.919 0.844 0.8385 0.9152 0.8136 0.6625 0.8335 1.0278
3906.180 0.8581 0.8502 0.9052 0.9254 0.9294 0.8919 0.9738 0.969 0.9517 0.9576
3925.470 1.0283 0.993 0.9697 0.9615 0.9986 1.0896 1.0468 0.976 1.0174 1.035
3944.760 1.0123 1.0994 1.0718 1.0893 1.273 1.293 1.253 1.1367 1.153 1.173
3964.049 1.203 1.363 1.353 1.273 1.313 1.433 1.393 1.553 1.663 1.623
3983.339 1.573 1.493 1.523 1.493 1.673 1.893 1.853 1.783 1.833 1.913
##END=
