##TITLE=2-Fluoro-5-(trifluoromethyl)propiophenone
##JCAMP-DX=4.24
##DATA TYPE=INFRARED SPECTRUM
##ORIGIN=EPA-IR VAPOR PHASE LIBRARY
##OWNER=SRD/NIST
Collection (C) 2018 copyright by the U.S. Secretary of Commerce
on behalf of the United States of America. All rights reserved.
##CAS REGISTRY NO=207974-18-3
##MOLFORM=C 10 H 8 F 4 O
##$NIST SOURCE=MSDC-IR
##STATE=gas
##XUNITS=1/CM
##YUNITS=ABSORBANCE
##XFACTOR=1.
##YFACTOR=0.001
##DELTAX=1.92898
##FIRSTX=549.8
##LASTX=4000.7
##FIRSTY=5.259
##MAXX=4000.7
##MINX=549.759
##MAXY=0.146919
##MINY=0
##NPOINTS=1790
##XYDATA=(X++(Y..Y))
549.759 5.259 5.249 5.639 5.429 5.829 6.149 6.039 6.529 6.599 6.529
569.049 6.479 6.529 6.649 6.419 6.389 6.589 6.849 6.999 7.089 6.759
588.339 6.199 6.439 6.579 6.219 5.909 6.039 6.109 6.389 7.319 8.339
607.628 9.769 11.839 14.449 16.369 18.129 19.729 19.459 18.529 17.129 14.569
626.918 12.229 9.839 7.549 7.009 6.609 6.059 6.299 6.649 6.669 6.509
646.208 6.689 7.399 7.429 7.149 6.889 6.369 6.239 5.739 4.799 4.239
665.498 4.199 4.329 3.739 2.819 2.889 3.079 2.979 2.809 2.649 2.839
684.787 2.989 2.769 2.369 2.559 2.989 2.739 2.299 2.349 2.669 2.519
704.077 2.059 2.089 2.199 1.969 1.849 2.179 2.499 2.289 1.989 1.899
723.367 1.699 2.059 2.599 2.439 2.229 2.639 2.699 1.929 1.919 2.189
742.657 2.199 2.009 1.759 1.989 2.489 2.689 2.469 2.559 2.779 2.699
761.947 2.189 2.159 2.539 2.499 2.179 1.889 1.829 1.829 1.529 1.3641
781.236 1.26 1.3802 1.959 1.809 1.4237 1.1804 1.1238 1.3449 1.488 1.689
800.526 1.659 1.749 2.209 2.529 2.799 2.689 3.119 4.249 5.769 7.459
819.816 9.089 11.779 14.709 17.769 21.539 24.339 25.319 23.499 20.209 17.549
839.106 14.779 12.679 10.639 8.389 6.709 5.899 5.829 5.899 5.619 5.099
858.395 4.669 4.039 3.469 3.089 3.029 2.399 1.819 2.009 1.819 1.659
877.685 1.519 1.609 2.129 2.009 1.749 2.179 2.369 2.009 2.429 3.199
896.975 3.409 3.749 4.129 4.459 5.079 5.669 5.829 6.089 6.519 6.949
916.265 7.789 8.219 7.979 7.709 7.529 7.139 6.639 6.259 5.679 5.309
935.555 5.069 4.409 4.449 4.869 5.039 5.109 5.009 5.459 6.179 6.419
954.844 6.299 6.129 6.099 6.019 5.729 5.899 5.849 4.939 4.559 4.679
974.134 4.459 4.159 3.709 3.039 2.409 2.459 3.129 3.119 2.619 2.589
993.424 2.629 2.599 2.589 2.289 2.199 2.769 3.379 4.099 4.449 4.549
1012.714 4.599 4.549 5.079 5.979 6.349 5.519 5.269 5.459 5.389 5.709
1032.003 5.739 5.149 4.739 5.059 4.719 4.289 4.949 4.909 4.789 5.369
1051.293 6.289 6.579 6.869 7.819 8.329 10.099 12.029 12.819 15.299 19.059
1070.583 21.599 23.369 25.689 27.719 28.869 30.119 30.529 29.369 28.179 26.799
1089.873 24.319 21.419 20.049 19.889 19.659 18.059 15.349 13.929 14.479 15.139
1109.163 14.079 14.149 17.079 20.999 25.109 29.039 32.279 35.219 36.749 39.359
1128.452 43.289 46.539 50.609 56.749 64.569 73.719 85.129 98.739 112.719 127.439
1147.742 140.289 146.919 145.029 134.589 120.849 105.619 90.929 79.609 73.909 73.159
1167.032 76.529 85.049 95.359 105.859 115.119 121.659 127.529 131.829 132.629 130.379
1186.322 126.559 120.219 112.319 103.699 93.149 82.369 72.239 63.849 56.129 49.239
1205.611 43.589 38.659 34.349 30.449 27.229 25.709 24.859 23.929 24.159 25.399
1224.901 25.719 25.499 27.089 27.619 26.779 26.449 26.489 26.249 24.679 23.209
1244.191 22.989 22.889 23.439 24.789 26.529 30.139 35.679 43.179 54.599 67.849
1263.481 79.749 89.219 94.579 94.319 87.889 76.819 63.109 49.349 38.119 30.199
1282.771 24.819 21.539 19.759 18.719 18.279 18.529 18.859 19.499 20.599 21.679
1302.060 23.289 25.669 28.649 32.609 38.049 45.369 54.979 67.099 81.729 97.959
1321.350 114.339 128.669 138.439 142.089 139.029 129.249 114.049 96.039 77.989 62.319
1340.640 49.729 40.169 33.119 27.849 24.059 21.159 18.869 17.229 15.809 14.609
1359.930 13.409 12.369 11.699 11.079 10.519 10.219 10.029 9.769 9.479 9.239
1379.219 9.059 8.889 8.479 7.999 7.619 7.199 6.729 6.199 5.909 5.829
1398.509 5.729 5.639 5.819 6.049 6.439 6.959 7.479 8.039 8.459 8.609
1417.799 8.459 8.109 7.629 7.059 6.549 6.129 5.839 5.729 5.619 5.539
1437.089 5.729 5.799 5.739 5.739 5.749 5.779 5.779 6.039 6.329 6.519
1456.378 6.649 6.889 7.329 7.679 7.849 8.159 8.449 8.359 8.149 8.049
1475.668 8.059 8.159 8.429 8.799 9.469 10.689 12.209 13.949 15.989 18.169
1494.958 19.809 20.839 20.899 19.769 18.009 15.589 12.579 9.789 7.739 6.219
1514.248 5.089 4.289 3.679 3.369 3.239 2.859 2.419 2.589 2.679 2.379
1533.538 2.419 2.589 2.639 2.649 2.699 2.559 2.469 2.609 2.729 2.789
1552.827 2.849 3.019 3.089 3.119 3.369 3.349 3.489 3.839 4.189 4.729
1572.117 5.119 5.239 5.509 5.949 6.369 7.119 8.159 9.149 9.889 10.699
1591.407 11.819 12.879 13.529 14.479 15.679 16.729 18.009 19.399 20.879 22.959
1610.697 25.199 27.129 28.859 29.769 29.419 28.229 26.439 24.229 21.439 18.059
1629.986 14.939 12.249 10.129 8.579 7.399 6.429 5.669 5.129 4.909 4.849
1649.276 4.729 4.779 4.769 4.959 5.279 5.479 5.509 5.319 5.249 5.439
1668.566 5.619 5.779 5.869 6.159 6.509 6.909 7.479 8.199 9.279 10.569
1687.856 12.009 13.639 15.569 17.889 20.979 24.249 27.809 32.069 35.979 39.769
1707.146 42.969 45.239 46.229 46.299 45.449 43.619 40.709 37.079 33.189 29.379
1726.435 25.709 22.509 19.529 17.029 14.899 13.329 11.949 10.439 9.249 8.209
1745.725 7.219 6.449 5.919 5.239 4.569 4.069 3.709 3.559 3.289 2.929
1765.015 2.779 2.789 2.739 2.529 2.499 2.499 2.389 2.389 2.479 2.539
1784.305 2.299 2.129 1.959 1.769 1.749 1.509 1.4584 1.4815 1.4122 1.519
1803.594 1.4722 1.4163 1.4196 1.3028 1.3522 1.4819 1.4277 1.3404 1.396 1.3478
1822.884 1.3926 1.5027 1.4184 1.3166 1.3313 1.3823 1.4738 1.5001 1.4114 1.3912
1842.174 1.2127 1.0462 1.1717 1.266 1.2093 1.1141 1.1436 1.1035 1.0983 1.1202
1861.464 1.0063 0.9877 1.0732 1.093 1.0591 1.1928 1.3143 1.2654 1.3036 1.3495
1880.754 1.3158 1.3609 1.4218 1.4728 1.619 1.679 1.679 1.789 1.809 1.789
1900.043 1.969 2.069 2.219 2.359 2.309 2.269 2.159 1.909 1.579 1.4207
1919.333 1.4586 1.4086 1.1599 1.0569 1.0214 0.8189 0.8069 0.907 0.8271 0.7579
1938.623 0.7682 0.8278 0.8704 0.8182 0.74 0.7166 0.798 0.8169 0.6414 0.6133
1957.913 0.8079 0.8641 0.7643 0.6521 0.7229 0.8118 0.7664 0.7691 0.7295 0.7424
1977.202 0.7293 0.7905 0.7992 0.6315 0.7351 0.7767 0.7584 0.7878 0.6887 0.6905
1996.492 0.7041 0.7799 0.9075 0.871 0.823 0.7917 0.7943 0.7512 0.6362 0.6719
2015.782 0.804 0.9038 0.9326 0.8897 0.7607 0.59629 0.55447 0.7433 0.8369 0.8027
2035.072 0.8202 0.8825 0.829 0.819 0.8833 0.8087 0.7516 0.6876 0.7482 0.8195
2054.362 0.7073 0.7098 0.7191 0.7227 0.7348 0.6809 0.6645 0.7689 0.8236 0.8262
2073.651 0.9549 1.0108 1.0533 1.045 0.9767 0.8483 0.7937 0.8564 0.8284 0.7334
2092.941 0.7258 0.6611 0.55353 0.5845 0.6775 0.7107 0.6437 0.6525 0.802 0.8171
2112.231 0.8296 0.7923 0.52587 0.4431 0.58028 0.6621 0.6462 0.7083 0.7894 0.8218
2131.521 0.7063 0.60106 0.6891 0.7096 0.7117 0.7943 0.8278 0.8144 0.7414 0.7013
2150.810 0.7361 0.6953 0.6311 0.769 0.8276 0.6152 0.6179 0.7038 0.6093 0.6818
2170.100 0.6498 0.58421 0.6854 0.7836 0.9241 0.9616 0.8965 0.8557 0.881 0.8584
2189.390 0.8512 0.8118 0.831 0.8091 0.55097 0.59414 0.7333 0.7739 0.732 0.6437
2208.680 0.798 0.8748 0.8857 0.9027 0.9314 0.8343 0.7611 0.911 0.8745 0.7727
2227.970 0.8405 0.8861 0.7952 0.7411 0.8124 0.9043 0.8823 0.8565 0.9973 1.0558
2247.259 0.9154 0.8443 0.9362 0.9182 0.9607 1.015 0.8808 0.9219 0.9068 0.9254
2266.549 1.1092 1.0027 0.8863 0.9238 0.8821 0.7905 0.7086 0.8806 1.033 0.9189
2285.839 1.041 1.2278 1.2694 1.3422 1.2954 1.3062 1.23 1.1693 1.1002 0.8823
2305.129 0.8916 0.8982 0.8744 0.8948 0.8264 0.9855 1.1036 0.9982 0.9649 0.9585
2324.418 1.0272 1.0244 0.9416 0.9527 0.9425 0.9435 1.045 1.1088 1.1808 1.2623
2343.708 1.2796 1.1873 1.0683 1.0679 1.2069 1.2335 1.0082 0.9436 1.0387 0.8534
2362.998 0.8321 0.8594 0.7399 0.715 0.53628 0.4853 0.6523 0.7557 0.6963 0.59142
2382.288 0.7031 0.7576 0.7768 0.9573 0.8757 0.58419 0.6574 0.6991 0.4145 0.439
2401.578 0.7688 0.7775 0.7589 0.8745 0.8501 0.9036 0.8219 0.7068 0.725 0.6134
2420.867 0.6224 0.7255 0.55747 0.50246 0.4124 0.369 0.6045 0.8563 0.9805 0.9535
2440.157 0.9432 0.967 1.04 1.22 1.4591 1.3841 1.0277 0.9993 0.9601 0.7895
2459.447 0.9534 0.9411 0.755 0.9325 1.1227 0.9749 0.6996 0.7083 0.8881 0.8754
2478.737 0.8743 1.0166 0.8659 0.6816 0.8219 0.9524 1.0186 0.9627 0.7571 0.7648
2498.026 0.861 0.8217 0.7804 0.7982 0.8892 0.7877 0.7455 0.759 0.8059 0.7668
2517.316 0.7012 0.7863 0.7935 0.7686 0.8091 0.6634 0.50034 0.4939 0.517584 0.6166
2536.606 0.58852 0.4738 0.402 0.4452 0.5355 0.59329 0.513072 0.489 0.6718 0.7313
2555.896 0.58698 0.612 0.8053 0.9573 1.0769 0.9876 0.7793 0.6929 0.6619 0.53583
2575.186 0.58306 0.59145 0.517594 0.54606 0.57531 0.56091 0.52285 0.6153 0.7754 0.8288
2594.475 0.8754 0.8901 0.8619 0.6866 0.686 0.8829 0.726 0.8043 0.8506 0.55627
2613.765 0.6993 0.9983 0.9381 0.7466 0.8017 0.9391 0.8572 0.6346 0.58548 0.58539
2633.055 0.52767 0.4179 0.4981 0.6827 0.514307 0.324 0.396 0.54203 0.522 0.55931
2652.345 0.56684 0.7241 0.7137 0.57095 0.6237 0.6589 0.4854 0.4525 0.6704 0.6995
2671.634 0.59718 0.4912 0.5958 0.59059 0.58468 0.6529 0.60859 0.7048 0.6819 0.53934
2690.924 0.6896 0.6837 0.347 0.323 0.53199 0.58187 0.4641 0.298 0.403 0.6261
2710.214 0.52849 0.4414 0.58154 0.7616 0.7212 0.7583 0.7696 0.394 0.50452 0.7589
2729.504 0.59001 0.58496 0.6174 0.669 0.7249 0.777 0.779 0.54181 0.7232 0.9378
2748.794 0.8859 0.898 0.7955 0.7695 0.8003 0.8019 0.7257 0.6733 0.8571 1.0834
2768.083 1.0649 1.1011 0.975 0.9329 1.1045 0.9616 0.8785 0.7994 0.9229 1.0562
2787.373 1.0064 1.3158 1.0513 0.745 0.9428 1.0443 1.2715 1.0697 0.857 0.8479
2806.663 0.7498 0.8383 1.0444 1.1907 1.1676 1.2192 1.3306 1.1685 1.1018 1.2988
2825.953 1.3032 1.2514 1.5003 1.2627 0.7044 0.9488 1.2483 1.1819 1.3585 1.3755
2845.242 1.2878 1.2617 1.4965 1.709 1.639 1.819 1.739 1.559 1.709 2.009
2864.532 2.109 2.239 2.379 2.429 2.519 2.479 2.669 3.129 3.289 3.539
2883.822 3.879 3.999 4.369 4.849 4.809 4.599 5.019 5.199 4.889 4.789
2903.112 4.989 5.119 4.949 4.969 5.219 5.049 4.899 5.169 5.469 5.709
2922.401 5.839 5.629 5.479 5.639 5.859 5.849 5.859 6.229 6.399 6.859
2941.691 7.539 7.999 8.909 9.799 10.199 10.749 10.849 10.259 9.689 8.769
2960.981 7.839 7.059 6.599 6.569 6.539 6.549 6.759 7.299 7.709 8.279
2980.271 9.419 10.239 11.189 12.269 12.459 12.649 12.509 11.619 10.549 9.119
2999.561 7.919 7.199 6.479 5.869 5.089 4.519 4.409 3.889 3.609 3.549
3018.850 2.969 2.739 2.789 2.589 2.749 2.729 2.199 1.789 1.869 2.269
3038.140 2.069 1.759 1.759 1.4608 1.1502 1.2086 1.2806 1.3632 1.529 1.589
3057.430 1.5073 1.579 1.779 1.889 1.769 1.709 1.959 2.269 2.409 2.499
3076.720 2.379 2.179 2.209 2.159 1.969 1.719 1.959 2.039 2.049 1.779
3096.009 1.4142 1.4915 1.453 1.519 1.559 1.609 1.4019 1.314 1.4092 1.421
3115.299 1.539 1.403 1.3138 1.559 1.4129 1.0046 0.9343 0.6574 0.53837 0.7198
3134.589 0.8842 0.6908 0.9037 1.3616 1.2762 1.1334 1.0325 0.9585 0.59813 0.50652
3153.879 0.60343 0.55382 0.6591 0.8936 0.56676 0.58346 1.1567 1.0076 1.0354 1.2142
3173.169 0.8716 0.7479 0.9386 0.9875 1.0116 0.8295 0.4416 0.278 0.289 0.6292
3192.458 0.8287 0.54646 0.7533 0.58331 0.4221 0.9397 1.1118 0.8531 0.7018 0.661
3211.748 0.6874 0.8011 0.56109 0.60787 0.6847 0.57935 0.6532 0.9177 0.921 0.9745
3231.038 0.53941 0.118 0.49942 0.6869 0.8026 0.646 0.52062 0.4379 0.374 0.50859
3250.328 0.7399 0.5743 0.36 0.57752 0.6565 0.8383 0.8596 0.705 0.493 0.4365
3269.617 0.60214 0.60172 0.963 1.0149 0.57131 0.4448 0.5772 0.206 0.043 0.53567
3288.907 0.24 0.161 0.4846 0.54574 0.8414 0.9805 0.59297 0.59929 0.9923 1.0507
3308.197 0.7624 0.467 0.4823 0.9213 1.1697 0.6364 0.178 0.2 0.158 0.01
3327.487 0.234 0.38 0.4754 0.50411 0.6664 1.1305 1.0045 0.4339 0.081 0.4793
3346.777 0.9167 0.6989 0.7469 0.9755 1.0069 0.9285 1.0306 1.1218 0.7505 0.516377
3366.066 0.8622 1.1013 0.7824 0.381 0.332 0.50593 0.6813 1.1208 1.2143 1.2983
3385.356 1.3699 1.144 1.215 1.4249 1.3617 1.2103 1.2195 1.3274 1.4005 1.5086
3404.646 1.2356 1.1162 1.1155 1.0342 0.7519 0.7033 1.569 1.4174 0.8546 0.8739
3423.936 0.9253 0.7739 0.6935 0.9901 1.1913 1.0136 0.7774 0.6937 0.7544 0.7345
3443.225 0.6125 0.6668 0.8307 0.7053 0.7406 0.8118 0.4631 0.264 0.446 0.4469
3462.515 0.4187 0.4842 0.4898 0.4307 0.6686 0.7246 0.8067 0.891 0.56407 0.4772
3481.805 0.6781 0.9519 0.8717 0.8767 1.0247 1.0744 0.7439 0.6326 0.7681 0.6375
3501.095 0.54921 0.6336 0.51348 0.323 0.383 0.257 0.52168 0.8556 0.4857 0.384
3520.385 0.6666 0.7756 0.6496 0.354 0.58253 0.8664 0.8016 0.50214 0.157 0.265
3539.674 0.362 0.258 0.035 0.128 0.6219 0.8772 0.687 0.679 0.6165 0.7102
3558.964 0.6956 0.4291 0.6798 0.6793 0.53709 0.7425 0.8594 0.8117 0.7924 0.54879
3578.254 0.6472 0.9097 0.6562 0.55731 0.6933 0.937 0.8127 0.202 0.321 0.6617
3597.544 0.59307 0.8961 0.9953 0.6639 0.8393 0.8435 0.7083 0.58469 0.7537 0.9032
3616.833 0.52643 0.396 0.347 0.262 0.07 0.007 0.258 0.4689 0.55607 0.49913
3636.123 0.359 0.60374 0.50583 0.191 0.384 0.765 1.0663 0.7615 0.54596 0.7184
3655.413 0.7067 0.4732 0.2 0.188 0 0.101 0.8083 1.1635 1.0863 0.8053
3674.703 0.7076 0.6995 0.233 0.339 1.1096 1.2425 1.0714 1.0382 0.974 1.0526
3693.993 1.2057 1.0776 0.8736 0.9308 0.406 0.232 0.454 0.266 0.6107 0.9283
3713.282 0.473 0.4837 0.6041 0.4956 0.7418 0.7412 0.6573 1.1711 1.1817 0.8387
3732.572 0.7062 0.4715 0.57501 0.7844 0.8061 0.8999 1.0686 0.9136 0.7027 0.50137
3751.862 0.8505 0.9295 0.4827 0.4688 0.348 0.4406 1.0438 0.985 0.4809 0.315
3771.152 0.358 0.6262 0.508598 0.50029 0.8035 0.8637 0.9494 0.895 1.0052 1.0854
3790.441 0.8725 0.7627 0.7809 0.511662 0.023 0.268 0.278 0.32 0.6646 0.616
3809.731 0.6568 0.52083 0.4489 0.55589 0.59524 0.6687 0.6081 0.7923 0.6584 0.244
3829.021 0.53005 0.9332 1.0632 0.7963 0.58985 0.7215 0.6565 0.54223 0.53654 0.57963
3848.311 0.8226 0.9165 1.2653 1.1116 0.56749 0.55351 0.8321 0.8993 0.5331 0.7234
3867.601 1.0141 0.9846 1.2782 1.179 0.8702 0.8504 0.9277 1.0145 1.0112 0.6769
3886.890 0.398 0.60289 0.8192 0.8819 0.8615 0.9171 0.9067 0.8951 0.8906 0.4744
3906.180 0.181 0.55947 0.9408 0.876 0.7229 0.7419 0.895 0.8959 0.55746 0.7287
3925.470 1.1617 0.9701 0.50592 0.6151 1.0146 1.3165 1.4661 1.1235 1.0271 0.7519
3944.760 0.60361 0.58522 0.8372 0.9126 0.9554 1.1106 0.6958 0.6301 0.50195 0.4877
3964.049 0.58351 0.6218 0.5406 0.4281 0.9502 0.9068 0.4444 0.7287 0.8837 0.7485
3983.339 0.9865 0.9498 0.9805 1.2472 0.55566 0.185 0.7303 0.9426 1.076 1.0392
##END=
