##TITLE=2,6-Difluoromandelic acid
##JCAMP-DX=4.24
##DATA TYPE=INFRARED SPECTRUM
##ORIGIN=EPA-IR VAPOR PHASE LIBRARY
##OWNER=SRD/NIST
Collection (C) 2018 copyright by the U.S. Secretary of Commerce
on behalf of the United States of America. All rights reserved.
##CAS REGISTRY NO=207981-50-8
##MOLFORM=C 8 H 6 F 2 O 3
##$NIST SOURCE=MSDC-IR
##STATE=gas
##XUNITS=1/CM
##YUNITS=ABSORBANCE
##XFACTOR=1.
##YFACTOR=0.001
##DELTAX=1.92898
##FIRSTX=549.8
##LASTX=4000.7
##FIRSTY=29.3
##MAXX=4000.7
##MINX=549.759
##MAXY=0.12212
##MINY=0
##NPOINTS=1790
##XYDATA=(X++(Y..Y))
549.759 29.3 29.05 28.32 27.99 27.75 26.4 26.14 25.58 24.41 24.04
569.049 23.3 22.56 22.11 21.15 19.7 17.72 15.98 15.79 15.68 14
588.339 12.4 11.68 11.93 12.19 11.17 10.71 11.09 11.78 11.67 11.41
607.628 11.59 11.42 11.74 12.9 14.07 14.72 15.61 15.64 15.69 16.58
626.918 16.63 16.41 16.1 15.55 15.14 14.66 14.29 14.11 13.78 12.69
646.208 11.78 11.15 10.53 10.38 10.22 9.97 9.84 10.34 11.37 12.49
665.498 13.79 15.54 17.24 18.37 19.45 20.33 20.47 19.44 18.13 16.79
684.787 14.55 12.75 11.61 10.01 8.74 7.57 6.69 6.63 5.97 5.36
704.077 5.83 6.05 6.18 6.44 6.58 7.07 7.92 8.99 10.07 10.77
723.367 11.41 11.89 12.54 13.06 12.05 10.62 9.62 8.99 8.86 8.5
742.657 8.6 9.33 9.71 10.09 9.83 9.63 9.9 9.85 9.38 8.52
761.947 8.51 8.81 8.83 9.58 11.15 13.5 16.83 20.93 25.21 29.05
781.236 32.53 36.3 40.51 41.03 35.5 29.8 26.05 22.13 18.04 14.11
800.526 10.04 7.22 5.42 3.87 2.96 2.66 2.3 1.7433 1.7312 2.0719
819.816 2.45 2.0295 1.8647 2.77 3.07 3.29 3.64 3.3 3.19 3.71
839.106 4.4 4.38 4.09 3.83 3.77 3.9 3.93 3.51 2.95 3.38
858.395 3.82 3.61 3.89 4.39 4.31 4 3.7 3.3 3.17 2.97
877.685 2.93 2.92 3.08 3.41 3.68 4.41 5.37 5.88 6.26 7.76
896.975 8.44 8.51 9.85 10.71 10.56 10.56 10.36 9.34 8.47 7.49
916.265 5.92 4.95 4.37 3.53 2.54 1.6272 0.773 0.2 0 0.21
935.555 0.549 0.477 0.472 0.976 1.5485 2.51 3.45 4.13 4.23 3.87
954.844 4.17 4.94 5.53 5.07 4.66 5.19 5.04 4.79 5.49 6.19
974.134 6.34 6.5 7 7.74 8.33 8.59 9.56 11.54 13.57 15.84
993.424 19.82 24.97 31.01 37.52 44.22 50.92 55.71 59.29 60.77 59.83
1012.714 57.1 52.32 45.89 38.66 31.61 24.97 20.28 17.87 15.86 14.51
1032.003 13.57 12.89 13.17 13.11 12.84 13.35 14.06 14.83 16.42 17.96
1051.293 19.78 21.35 23.01 25.45 28.17 30.48 31.93 34.77 39.1 44.11
1070.583 49.28 54.48 59.2 63.1 66.29 68.67 69.89 70.4 69.7 65.53
1089.873 59.43 53.72 49.28 44.5 38.24 33.33 31.07 28.84 27.27 26.62
1109.163 26.34 27.43 28.32 29.73 31.8 33.49 36.08 39.65 41.89 43.47
1128.452 47.27 50.49 51.93 54.11 55.01 54.29 53.2 51.43 48.96 46.26
1147.742 42.24 38.36 36.56 34.49 30.94 28.89 27.12 25.05 23.89 22.88
1167.032 21.87 20.34 18.51 17.3 17.2 16.89 17.56 17.96 18.13 20.32
1186.322 22.67 24.41 25.2 25.9 26.38 26.14 25.76 24.75 23.53 21.69
1205.611 21.22 20.41 19.5 19.56 19.67 20.7 21.8 23.7 26.68 29.75
1224.901 32.75 36.15 38.67 40.9 42.88 43.05 42.47 41.87 40.61 37.6
1244.191 33.79 31.15 28.48 25.95 23.74 22.23 22.26 22.55 22.6 22.67
1263.481 23.25 24.47 26.26 28.16 29.6 31.78 34.15 35.75 36.05 35.41
1282.771 34.64 32.83 30.47 28.72 26.91 25.11 23.96 23.1 22.63 22.34
1302.060 22.11 22.07 22.16 22.54 23.05 23.53 24.29 25.23 26.29 27.34
1321.350 28.42 29.63 30.86 32.11 33.31 34.33 34.95 35.23 35.1 34.65
1340.640 33.98 32.91 31.77 30.79 29.57 28.27 26.98 25.62 24.43 23.23
1359.930 21.91 20.52 19.28 18.17 16.96 16.1 15.26 14.51 13.94 13.45
1379.219 13.02 12.61 12.43 12.17 11.93 11.63 11.43 11.26 11.08 11.06
1398.509 10.87 10.53 10.39 10.22 9.89 9.51 9.28 9.02 8.59 8.36
1417.799 8.16 8 7.77 7.5 7.43 7.39 7.21 7.16 7.34 7.42
1437.089 7.49 7.67 7.95 8.23 8.78 9.6 10.69 12.2 14.1 16.5
1456.378 19.89 24.05 28.81 34.58 41.05 47.47 53.06 57.86 61 62.46
1475.668 61.87 58.62 53.03 46.04 38.81 32.07 26 20.7 16.42 12.94
1494.958 10.24 8.57 7.49 6.6 6.13 5.86 5.57 5.25 5.03 4.86
1514.248 4.79 4.69 4.36 4.34 4.47 4.41 4.08 4.1 4.4 4.63
1533.538 4.96 5.24 5.77 6.26 6.7 7.41 7.84 8.01 8.49 9.02
1552.827 9.46 10.12 10.56 10.92 11.36 11.72 12.23 12.63 13.1 13.84
1572.117 14.52 15.11 16.21 17.51 18.89 20.57 22.29 24.24 25.89 27.36
1591.407 28.66 29.22 29.34 29.36 28.85 27.88 26.81 26.18 26.26 26.71
1610.697 27.89 29.95 32.65 35.73 38.23 39.91 40.21 39.26 37.46 34.15
1629.986 29.79 25.28 20.71 16.46 13.01 10.24 8.41 7.26 6.48 6.01
1649.276 5.6 5.4 5.21 4.79 4.6 4.53 4.39 4.32 4.11 3.9
1668.566 3.93 4.15 4.12 4.02 4.03 4.07 4.08 4.13 4.32 4.35
1687.856 4.36 4.21 4.2 4.48 4.6 4.7 4.84 4.98 5.12 5.24
1707.146 5.53 5.75 5.86 6.02 6.19 6.5 6.81 7.07 7.46 7.86
1726.435 8.2 8.68 9.22 9.88 10.59 11.14 11.76 12.49 13.28 14
1745.725 14.89 15.84 16.66 17.63 18.86 20.14 21.69 23.65 26.37 30.03
1765.015 34.68 41.1 49.41 59.32 71.46 84.2 96.54 107.32 115.6 120.94
1784.305 122.12 118.78 111.51 101.48 89.18 76.18 64.78 55.36 48.26 43.15
1803.594 39.25 36.13 33.66 31.66 29.76 27.72 25.67 23.56 21.4 19.39
1822.884 17.48 15.8 14.36 13.11 12.04 10.86 9.96 9.37 8.61 8.04
1842.174 7.62 7.09 6.83 6.54 6.19 5.69 5.24 5.14 4.99 4.77
1861.464 4.51 4.32 4.1 3.86 3.67 3.57 3.47 3.32 3.18 2.99
1880.754 2.83 2.82 2.88 2.92 2.82 2.63 2.6 2.7 2.8 2.82
1900.043 2.81 3.09 3.37 3.38 3.61 3.95 4.1 4.13 4.09 4.16
1919.333 4.06 3.68 3.39 3.07 2.73 2.64 2.54 2.32 2.1247 2.0701
1938.623 2.06 2.0147 2.097 2.0991 2.0671 2.1655 2.1547 2.1333 2.1824 2.1222
1957.913 2.147 2.2127 2.1233 1.9756 1.8782 1.8961 1.9255 2.0676 2.1859 1.9452
1977.202 2.0249 2.1506 2.1587 2.32 2.162 2.0367 2.0043 2.1154 2.29 2.0945
1996.492 1.9285 1.9894 1.9638 1.9775 2.0254 1.9895 2.117 2.2127 2.2187 2.25
2015.782 2.1836 2.25 2.26 2.0147 1.9475 2.079 2.1964 2.2017 2.0164 1.9468
2035.072 1.9548 1.8809 1.8161 1.8829 1.9957 1.8618 1.8468 1.9231 1.888 1.9098
2054.362 1.8691 1.8483 1.9059 1.9089 1.9294 1.93 1.7407 1.621 1.7467 1.9404
2073.651 1.9829 1.9918 1.8916 1.8206 1.8549 1.8211 1.8151 1.7805 1.7861 1.7474
2092.941 1.7728 1.7391 1.6816 1.6966 1.8112 1.8805 1.9256 1.9303 1.848 1.9201
2112.231 1.9468 2.1357 2.129 2.0716 2.0827 1.9649 1.9373 1.967 2.0547 2.1009
2131.521 1.9766 1.8746 1.9205 1.811 1.8194 1.864 1.7969 1.9146 2.0505 2.1029
2150.810 2.0546 2.0604 1.964 1.8754 2.0047 2.067 2.0902 1.9832 1.7379 1.7142
2170.100 1.8586 1.817 1.6882 1.7477 1.8683 1.8871 1.8693 1.8727 1.8723 1.8723
2189.390 1.8304 1.8068 1.9585 2.0081 1.9645 1.8951 1.9409 1.9778 1.9415 1.9353
2208.680 1.8924 2.0386 2.0575 2.0824 2.1991 2.0759 1.9783 1.9768 2.0861 2.31
2227.970 2.48 2.44 2.24 2.2048 2.1956 2.23 2.26 2.1951 2.4 2.37
2247.259 2.1025 2.1531 2.1928 2.1857 2.23 2.34 2.39 2.36 2.43 2.47
2266.549 2.42 2.41 2.55 2.64 2.55 2.39 2.43 2.58 2.49 2.48
2285.839 2.59 2.57 2.57 2.68 2.56 2.45 2.68 2.76 2.57 2.43
2305.129 2.36 2.32 2.1968 2.1934 2.36 2.27 2.1242 2.0643 2.062 1.9637
2324.418 1.9301 2.1807 2.32 2.0846 1.722 1.708 2.0078 2.1301 2.1322 2.0878
2343.708 2.1347 2.1147 2.0971 2.1389 2.1682 2.0435 1.9583 2.29 2.43 2.27
2362.998 2.202 2.1241 2.0403 2.22 2.1987 2.1849 2.22 2.1132 2.0788 2.26
2382.288 2.25 2.1018 2.0812 1.9527 1.8575 1.9735 1.9319 1.9402 1.934 1.7756
2401.578 1.8082 1.9061 1.8745 1.9263 1.9384 1.7863 1.9694 2.0541 2.08 2.0772
2420.867 1.915 2.0033 2.0347 1.8707 1.9005 1.9424 1.9531 1.9805 2.0532 2.2082
2440.157 2.1978 2.0931 2.1887 2.218 2.23 2.29 2.1005 2.1566 2.2129 2.26
2459.447 2.1968 2.27 2.59 2.46 2.34 2.39 2.31 2.32 2.44 2.25
2478.737 2.3 2.53 2.49 2.6 2.66 2.52 2.41 2.49 2.45 2.28
2498.026 2.181 2.1595 2.1627 2.2084 2.1731 2.1563 2.1916 2.32 2.28 2.2088
2517.316 2.48 2.4 2.1432 2.2025 2.2171 2.1001 2.05 2.121 2.0858 2.0521
2536.606 2.0871 2.0319 2.0956 1.8215 1.6947 2.0197 2.0744 1.8744 1.5923 1.7026
2555.896 1.8793 1.7377 1.6672 1.6519 1.9591 2.114 1.8346 1.6677 1.7932 1.7495
2575.186 1.7028 1.8631 1.8277 1.5544 1.4437 1.7697 1.8091 1.6356 1.4713 1.4431
2594.475 1.5349 1.5158 1.7336 2.0699 1.9906 1.7754 1.831 1.8021 1.6117 1.5068
2613.765 1.6981 1.8657 1.9018 2.0609 2.13 2.0887 2.0668 1.8471 1.7286 1.7682
2633.055 1.8355 1.9745 2.1702 2.1733 1.9123 1.7234 1.6769 1.8489 1.728 1.6102
2652.345 1.6908 1.7964 1.9014 1.8731 1.8424 1.994 1.9849 1.8201 1.7556 1.4583
2671.634 1.22801 1.3623 1.639 1.8441 1.9227 1.953 1.8471 1.4915 1.5544 1.8538
2690.924 1.6608 1.5776 1.699 1.7026 1.6688 1.4893 1.4984 1.7109 2.0251 1.9344
2710.214 1.7777 1.9971 1.855 1.8005 1.828 1.6641 1.7412 1.8186 1.8616 2.1201
2729.504 2.0826 1.8255 1.9507 1.9272 1.5323 1.5155 1.7716 1.7503 1.7977 1.8281
2748.794 1.8401 1.9146 1.9445 1.8722 1.8554 1.972 1.8127 1.5557 1.4935 1.6341
2768.083 1.6143 1.63 1.5999 1.6542 1.8414 1.7174 1.4681 1.5438 1.7723 1.6666
2787.373 1.6769 1.7043 1.3756 1.6372 1.9273 1.7078 1.6173 1.5968 1.6284 1.796
2806.663 1.8946 1.7863 1.6084 1.5328 1.7805 1.7669 1.6732 1.689 1.5151 1.3798
2825.953 1.529 1.5832 1.7357 1.759 1.7001 1.787 1.7961 2.0095 1.8906 1.6812
2845.242 1.7113 1.5328 1.6901 1.755 1.6179 1.6438 1.5047 1.6502 1.7121 1.7315
2864.532 1.8477 1.6598 1.8796 2.0724 1.9031 1.924 1.8174 1.7504 2.0303 1.9043
2883.822 1.7631 1.9087 1.9024 1.9917 2.1769 2.23 2.24 2.41 2.51 2.34
2903.112 2.31 2.55 2.58 2.78 2.83 2.95 3.04 3.05 3.17 2.97
2922.401 2.9 3.07 3.3 3.58 3.83 3.7 3.84 3.85 3.52 3.59
2941.691 3.64 3.49 3.02 2.92 3.05 2.95 3.04 2.89 2.77 2.59
2960.981 2.35 2.24 2.24 2.35 2.22 1.9785 1.6787 1.8366 1.9829 1.7842
2980.271 1.7618 1.9275 1.6258 1.4948 1.4364 1.4094 1.7855 1.9662 1.6526 1.4661
2999.561 1.6829 1.6876 1.6479 1.6992 1.6348 1.6237 1.738 1.6172 1.5374 1.5844
3018.850 1.913 2.0841 1.9516 2.1298 2.34 2.49 2.45 2.1766 2.28 2.6
3038.140 2.6 2.6 2.59 2.46 2.44 2.46 2.5 2.52 2.186 1.9306
3057.430 1.8748 2.2146 2.52 2.64 2.94 2.72 2.39 2.44 2.76 3.18
3076.720 3.15 3.01 2.97 3.12 3.71 3.93 3.92 4.38 4.31 3.66
3096.009 3.7 3.26 2.88 2.94 2.88 2.94 2.65 2.33 2.31 2.35
3115.299 2.2074 1.921 1.9842 2.0411 1.8036 1.6124 1.5476 1.632 1.5252 1.1649
3134.589 1.117 1.4493 1.5787 1.8299 1.7825 1.8762 2.0934 1.7865 1.6107 1.6789
3153.879 1.8609 1.8515 1.7482 1.624 1.8228 1.7724 1.1787 1.24331 1.4145 1.5853
3173.169 1.7275 1.4916 1.5283 1.5125 1.5419 1.7514 1.8147 1.9805 2.162 1.9341
3192.458 1.5288 1.6837 1.93 2.0482 1.9507 1.9079 1.9027 1.5121 1.3711 1.5146
3211.748 1.7807 1.8981 1.8122 1.4372 1.6374 2.1577 2.1481 1.9373 1.876 2.0447
3231.038 1.6454 1.31651 1.5396 1.8327 1.7011 1.4718 1.7415 1.6768 1.9395 2.68
3250.328 2.51 2.0123 1.8676 1.3208 1.1615 1.5578 1.8767 1.6678 1.51 1.7396
3269.617 1.7181 1.709 1.6603 1.7797 1.9398 1.9237 2.0493 2.0172 1.7407 1.4435
3288.907 1.6883 2.0646 1.8238 1.7712 1.7718 2.0326 1.8955 1.6907 2.25 2.27
3308.197 2.1574 2.1494 2.1244 2.1885 2.1491 2.0134 1.7917 2.1044 2.47 2.31
3327.487 1.9412 1.7388 1.6926 1.7183 1.937 2.216 2.1563 1.9952 2.26 2.35
3346.777 2.0504 1.7922 1.8202 2.1791 2.27 2.16 2.28 2.35 2.33 2.0794
3366.066 1.8432 2.0127 2.1274 1.8911 1.8404 2.0177 1.5272 1.6753 2.3 2.27
3385.356 2.35 2.54 2.46 2.1698 2.2063 2.58 2.62 2.0968 1.8681 2.0704
3404.646 1.8721 2.034 2.53 2.78 2.72 2.0836 1.5539 1.8081 2.1045 2.0584
3423.936 1.9175 2.23 2.69 2.2124 2.0268 2.0754 1.7309 2.0117 2.0939 1.7799
3443.225 2.0036 1.9981 1.8686 1.9641 2.1689 2.1047 2.1529 2.171 1.8771 1.6472
3462.515 2.3 2.89 2.87 2.86 2.76 2.73 2.46 2.56 2.96 3.02
3481.805 3.47 4.05 4.04 4.55 5.11 5.47 5.65 5.78 6.14 6.24
3501.095 6.51 7.14 7.9 8.28 7.71 7 6.93 7.22 7.18 6.84
3520.385 6.67 6.65 6.83 6.82 6.72 6.52 6.44 6.62 6.99 7.1
3539.674 7.22 7.9 8.44 8.87 8.92 9.28 10.15 10.99 11.79 13.1
3558.964 15.59 18.96 22.68 27.96 35.21 42.72 49.52 55.53 60.96 64.9
3578.254 65.2 61.04 54.37 47.61 41.2 33.97 27.36 22.05 17.73 15.35
3597.544 13.7 12 10.5 9.19 8.8 8.81 8.14 7.3 6.8 6.12
3616.833 5.82 6.15 6.14 5.77 5.57 5.43 5.69 6.28 6.76 7.49
3636.123 7.9 7.91 8.42 8.58 8.21 7.99 7.72 7.18 6.56 6.14
3655.413 5.72 5.28 4.95 4.75 4.71 4.39 3.85 3.78 3.64 3.45
3674.703 3.49 3.34 2.75 2.59 3.22 3.13 2.56 2.99 2.85 2.22
3693.993 2.1863 2.0027 1.7938 1.7698 2.25 2.54 2.37 2.57 2.55 2.32
3713.282 2.46 2.25 1.4565 1.8232 2.37 1.8707 1.6448 1.8826 2.1244 2.1333
3732.572 2.34 2.51 2.33 2.0579 1.5497 1.5796 1.9343 1.8729 1.9941 1.8937
3751.862 1.7635 2.1387 2.23 1.7182 1.5592 1.4844 1.4433 1.9102 2.0227 1.7714
3771.152 1.7806 1.9559 1.922 2.2004 2.4 1.829 2.1947 2.48 2.27 2.32
3790.441 2.39 2.49 2.42 2.43 2.37 2.67 2.67 2.2071 2.0359 2.0284
3809.731 2.28 2.49 2.39 2.51 2.27 2.27 2.51 2.45 2.57 2.7
3829.021 2.51 1.969 1.9995 2.1336 2.1654 2.61 2.67 2.37 2.29 1.9191
3848.311 1.6464 1.9821 2.07 1.6924 1.9082 2.27 2.24 2.1442 2.0665 2.1117
3867.601 2.0399 2.35 2.82 2.4 2.3 2.3 2.0872 2.1452 1.9672 1.9617
3886.890 1.8487 1.6079 2.0181 2.3 1.9778 1.8217 1.6304 2.0037 2.37 2.43
3906.180 2.36 2.27 2.23 2.1708 2.1486 1.9946 1.9719 1.8487 2.0628 2.45
3925.470 2.55 2.41 2.41 2.43 2.38 2.042 1.7857 1.7957 1.7714 1.7441
3944.760 1.6413 1.7265 1.5547 1.26016 1.22684 1.6577 2.002 1.8238 1.4719 1.683
3964.049 2.27 2.27 1.8209 1.4766 1.6725 1.5768 1.4359 1.711 1.691 1.7705
3983.339 1.7336 1.6182 2.0282 2.0553 1.7342 1.7054 1.9241 1.8482 1.8238 2.1185
##END=
