##TITLE=2,3,4-Trifluorobenzamide
##JCAMP-DX=4.24
##DATA TYPE=INFRARED SPECTRUM
##ORIGIN=EPA-IR VAPOR PHASE LIBRARY
##OWNER=SRD/NIST
Collection (C) 2018 copyright by the U.S. Secretary of Commerce
on behalf of the United States of America. All rights reserved.
##CAS REGISTRY NO=207919-09-3
##MOLFORM=C 7 H 4 F 3 N O
##$NIST SOURCE=MSDC-IR
##STATE=gas
##XUNITS=1/CM
##YUNITS=ABSORBANCE
##XFACTOR=1.
##YFACTOR=0.001
##DELTAX=1.92898
##FIRSTX=549.8
##LASTX=4000.7
##FIRSTY=8.956
##MAXX=4000.7
##MINX=549.759
##MAXY=0.080006
##MINY=0
##NPOINTS=1790
##XYDATA=(X++(Y..Y))
549.759 8.956 10.026 10.116 9.306 8.206 7.326 6.436 5.876 5.346 4.866
569.049 4.186 3.326 2.706 2.136 1.8973 1.4288 0.9123 0.699 1.1458 1.5311
588.339 1.4974 1.1024 1.5353 2.126 1.8654 1.6785 1.5617 1.3071 1.7925 2.336
607.628 2.026 1.986 1.8862 2.036 2.166 2.266 2.436 2.856 3.436 3.496
626.918 3.056 2.976 2.986 2.656 2.646 2.756 2.396 2.026 2.116 1.9176
646.208 1.5943 1.7294 2.326 2.736 2.266 2.196 3.066 3.676 3.856 4.446
665.498 4.776 4.656 5.186 5.786 6.496 7.256 7.786 8.336 8.516 8.806
684.787 9.266 9.006 8.406 8.076 7.896 7.406 6.826 6.366 6.156 5.876
704.077 6.096 6.496 6.746 7.246 6.886 6.686 6.576 6.466 6.466 6.016
723.367 6.026 6.126 5.666 4.996 4.446 3.986 3.656 3.746 4.056 3.676
742.657 2.956 3.396 3.696 3.546 3.996 4.446 5.016 5.736 6.446 6.766
761.947 7.196 8.466 9.516 10.216 10.766 10.386 9.406 9.136 8.746 7.926
781.236 7.136 6.136 5.296 4.736 4.386 4.276 4.566 4.146 3.826 4.086
800.526 4.506 4.896 5.156 5.156 5.496 5.996 6.346 6.956 7.636 8.376
819.816 9.156 10.226 11.196 11.436 11.396 11.426 10.866 9.786 8.836 8.296
839.106 7.706 7.326 6.556 5.796 5.716 5.346 4.826 4.406 4.106 3.676
858.395 3.676 3.696 3.136 3.626 3.936 3.536 3.526 3.666 4.166 4.486
877.685 4.716 4.726 4.676 4.996 4.896 4.996 5.156 5.256 5.586 5.356
896.975 5.246 5.346 5.386 5.676 5.716 6.046 6.996 7.726 8.756 9.376
916.265 10.056 10.916 10.986 10.836 10.606 10.306 9.646 8.726 7.596 6.146
935.555 5.096 4.706 4.506 4.166 4.106 3.646 3.166 3.336 3.126 2.916
954.844 3.016 2.876 2.756 3.116 3.076 2.886 2.836 2.716 2.836 3.006
974.134 3.136 3.366 3.316 2.746 3.126 3.506 3.066 3.686 3.856 3.736
993.424 3.936 3.416 3.206 3.496 3.676 4.326 4.636 4.486 4.896 5.216
1012.714 5.896 6.816 8.416 10.106 11.896 14.816 18.256 21.996 25.876 30.246
1032.003 33.496 35.016 35.536 35.726 36.016 34.286 30.756 26.106 20.986 16.736
1051.293 12.666 9.626 8.406 7.686 6.996 6.436 5.696 4.846 4.626 5.116
1070.583 4.856 4.016 3.426 4.126 4.316 4.516 5.166 4.756 4.366 5.056
1089.873 4.526 3.216 3.196 2.016 2.866 4.596 3.996 3.336 3.126 2.006
1109.163 1.3977 1.3479 1.2551 0.9209 0.583 1.8164 2.126 2.126 2.386 2.266
1128.452 2.366 2.616 2.336 2.606 3.336 3.026 2.816 2.426 2.126 2.886
1147.742 3.316 2.166 2.126 2.466 2.006 2.106 2.006 2.496 2.326 1.889
1167.032 2.656 2.656 2.096 2.346 3.016 2.856 2.676 2.366 2.296 2.906
1186.322 2.986 2.886 3.266 4.446 4.816 4.416 4.646 5.586 6.766 7.936
1205.611 9.726 10.356 9.226 10.086 10.796 10.636 11.716 10.816 10.686 11.466
1224.901 10.856 10.116 9.356 8.526 7.276 6.386 6.236 6.176 5.886 5.106
1244.191 4.716 4.196 3.386 2.716 2.606 2.926 3.106 3.556 3.456 3.616
1263.481 4.376 4.736 5.136 6.116 7.476 9.186 10.136 10.436 11.156 11.616
1282.771 12.336 13.236 13.746 14.716 16.066 17.356 19.076 20.626 21.596 21.976
1302.060 21.976 21.506 20.436 19.146 17.346 15.396 13.516 11.986 11.256 10.966
1321.350 10.846 11.116 11.716 12.176 12.776 13.856 14.996 16.136 17.606 19.696
1340.640 22.526 26.036 30.096 35.046 40.746 46.746 53.036 58.796 63.296 66.356
1359.930 67.556 66.616 63.676 59.106 52.936 45.616 38.066 31.036 24.976 20.256
1379.219 16.886 14.376 12.326 10.776 9.546 8.426 7.556 6.836 6.316 5.966
1398.509 5.626 5.616 5.606 5.386 5.346 5.316 5.256 5.026 4.786 4.746
1417.799 4.726 4.516 4.286 4.246 4.256 4.276 4.326 4.406 4.426 4.736
1437.089 5.096 5.116 5.456 6.096 6.896 8.096 9.676 11.456 13.766 16.686
1456.378 20.076 24.166 28.476 32.146 34.746 36.376 36.936 37.186 37.036 35.956
1475.668 33.486 29.376 24.896 20.956 17.576 15.076 13.376 12.136 11.386 11.546
1494.958 12.626 14.656 17.456 20.686 24.456 28.276 31.756 33.976 34.876 35.206
1514.248 34.656 32.936 29.886 25.656 20.896 16.786 13.676 11.306 9.666 8.726
1533.538 7.886 7.146 6.776 6.566 6.206 6.066 6.226 6.496 6.836 7.386
1552.827 7.926 8.206 8.376 8.846 9.326 9.336 9.466 10.106 10.976 11.946
1572.117 13.176 14.946 17.686 20.876 24.666 29.156 33.466 37.536 40.806 42.986
1591.407 44.176 44.396 43.476 41.356 38.446 35.206 31.546 28.056 25.366 23.126
1610.697 21.286 20.116 19.246 18.816 18.826 18.546 18.476 18.236 17.856 17.776
1629.986 17.156 16.206 15.286 13.976 12.306 10.986 9.706 8.706 8.146 7.806
1649.276 7.466 7.036 6.766 6.286 6.046 5.966 5.766 5.836 5.976 5.906
1668.566 5.986 6.166 6.876 7.696 8.236 8.866 9.346 9.666 9.706 9.606
1687.856 9.676 10.036 10.446 11.086 12.276 13.786 15.796 18.846 23.066 28.826
1707.146 35.916 44.236 53.466 62.566 70.226 75.676 78.686 80.006 79.896 77.996
1726.435 73.286 65.456 55.386 45.276 36.156 28.976 23.526 19.056 15.896 13.796
1745.725 12.506 11.706 11.116 10.666 10.566 10.586 10.646 10.726 10.606 10.096
1765.015 9.376 8.666 7.866 7.036 6.376 5.706 5.036 4.506 3.956 3.336
1784.305 2.936 2.666 2.496 2.286 2.096 2.066 1.976 1.8766 1.661 1.5733
1803.594 1.5625 1.4485 1.5027 1.6026 1.6314 1.6199 1.4897 1.5418 1.5759 1.4789
1822.884 1.5456 1.4926 1.4587 1.3993 1.4278 1.5707 1.5708 1.4261 1.3215 1.4356
1842.174 1.4863 1.4188 1.3857 1.4117 1.5447 1.6757 1.5678 1.4312 1.3829 1.3838
1861.464 1.2693 1.1449 1.1557 1.2771 1.3194 1.2545 1.3035 1.3263 1.3217 1.3717
1880.754 1.4074 1.3035 1.2589 1.321 1.2697 1.2091 1.3414 1.5142 1.5423 1.4789
1900.043 1.5352 1.6266 1.7208 1.6832 1.528 1.4951 1.6538 1.7097 1.6383 1.7917
1919.333 1.8149 1.603 1.4689 1.4681 1.4973 1.478 1.2735 1.1941 1.3586 1.2652
1938.623 1.1157 1.088 1.1785 1.2574 1.2668 1.3543 1.3823 1.2047 1.0383 1.1345
1957.913 1.1463 1.0755 1.1676 1.2708 1.2314 1.0738 1.1188 1.1389 1.1194 1.1917
1977.202 1.0887 1.1986 1.1877 1.0888 1.1398 1.206 1.2124 1.2568 1.2537 1.1192
1996.492 1.0896 1.0841 1.119 1.1105 1.1651 1.3578 1.3621 1.1813 1.0616 1.1041
2015.782 1.1574 0.97661 0.98238 1.1307 1.02177 1.0444 1.1911 1.1957 1.1462 1.0297
2035.072 1.1043 1.2907 1.2878 1.0853 0.96336 1.1685 1.2713 1.04875 0.975288 1.1627
2054.362 1.193 1.04132 1.00789 1.0846 1.1482 1.0763 1.0989 1.2496 1.3024 1.2771
2073.651 1.1521 1.171 1.1876 1.05838 0.9201 0.9082 1.03669 1.1008 1.04684 1.04295
2092.941 1.04761 0.97621 0.96363 0.79 0.784 0.9379 0.863 0.97745 0.9921 0.771
2112.231 0.9517 1.2014 1.153 1.1531 1.0326 1.0145 1.2545 1.244 1.1165 1.05042
2131.521 0.99308 0.99959 1.06062 1.1513 1.2501 1.2168 1.2099 1.2774 1.1935 1.2739
2150.810 1.3536 1.1826 1.1861 1.2121 1.2341 1.2748 1.143 0.98071 1.0638 1.198
2170.100 1.01411 1.0713 1.3194 1.2572 1.2563 1.2313 1.1163 1.109 1.0935 1.03404
2189.390 1.0723 1.286 1.4009 1.2494 1.1275 1.1399 1.05616 0.95917 1.01221 1.03755
2208.680 0.9374 0.974936 1.00819 1.1018 1.0707 0.9427 1.0739 1.0852 0.9246 0.99169
2227.970 1.03954 1.2583 1.4325 1.2438 1.1921 1.1302 1.0975 1.1272 1.2048 1.1568
2247.259 1.178 1.1817 0.828 0.786 1.02769 1.2474 1.4053 1.2577 0.9112 0.821
2266.549 1.0918 1.1951 1.1608 1.271 1.2173 1.0965 1.1132 1.1308 1.1206 1.1153
2285.839 1.1695 1.1771 1.0745 1.1155 1.2334 1.2466 1.22 1.1873 1.3322 1.3288
2305.129 0.8846 0.697 0.95752 1.1042 1.05291 1.1177 1.2389 1.2823 1.281 1.4827
2324.418 1.5745 1.4946 1.5149 1.3476 1.3495 1.4434 1.4846 1.4099 1.1502 0.99248
2343.708 0.98105 1.0691 1.05775 0.942 0.9784 1.1042 1.02887 0.856 0.8694 0.8851
2362.998 1.01275 1.04904 0.817 0.68 0.79 0.9232 0.834 0.769 0.9577 1.071
2382.288 0.835 0.747 0.862 0.8957 0.9378 0.775 0.664 0.8943 0.96468 0.8708
2401.578 0.8961 0.9443 1.01028 0.8771 0.789 0.95648 0.968785 0.9597 1.1794 1.3615
2420.867 1.3924 1.4299 1.4199 1.2377 1.1059 1.2293 1.3912 1.4624 1.4739 1.4949
2440.157 1.4162 1.3378 1.4692 1.6337 1.6779 1.5935 1.3627 1.1484 1.3303 1.5178
2459.447 1.23 1.1147 1.4027 1.4395 1.2558 1.3162 1.3679 1.3414 1.1468 1.0853
2478.737 1.2612 1.1768 1.0854 1.0949 1.0905 1.102 1.1085 1.1302 1.1756 1.3334
2498.026 1.3259 1.3476 1.3369 1.2165 1.2376 1.2246 1.1946 1.2767 1.5173 1.5155
2517.316 1.3802 1.6243 1.609 1.3407 1.3209 1.2767 1.3126 1.2282 1.1292 1.0491
2536.606 1.1944 1.287 1.2465 1.207 1.1362 1.2879 1.3262 1.3562 1.3059 1.2506
2555.896 1.3301 1.3023 1.3777 1.3959 1.2429 1.2863 1.1998 1.2194 1.4267 1.2582
2575.186 0.99895 1.1125 1.4471 1.594 1.392 1.1143 1.184 1.3077 1.1788 1.04048
2594.475 0.9515 0.99315 1.2165 1.177 1.01903 1.0758 1.02227 1.05947 1.1399 1.164
2613.765 1.2469 1.168 0.9608 0.806 0.9261 1.1586 1.1724 1.0954 0.96412 0.829
2633.055 0.8729 1.03629 1.0923 0.98294 0.98982 1.2244 1.4308 1.2144 1.19 1.4426
2652.345 1.507 1.2621 1.1381 1.1407 0.99641 0.8827 0.567 0.572 0.762 0.8678
2671.634 0.97977 0.946 0.846 0.9551 1.2589 1.4023 1.2032 0.9003 0.99287 1.4044
2690.924 1.4019 1.0258 1.1874 1.1446 0.864 1.1972 1.1429 0.95785 0.811 0.794
2710.214 0.9202 0.79 0.99207 1.0901 1.01072 1.01726 1.181 1.193 0.858 0.803
2729.504 1.1028 1.4127 1.2344 0.845 0.714 0.799 0.9187 1.0676 1.3636 1.074
2748.794 0.855 1.1159 1.1565 1.1886 0.96313 0.811 0.9508 0.9242 0.9364 1.02984
2768.083 1.1076 1.2061 1.1174 1.01599 1.1968 1.4159 1.191 1.2961 1.2917 1.2493
2787.373 1.5401 1.1471 0.9445 1.1813 1.1607 0.9387 1.1775 1.3475 1.2142 1.1717
2806.663 1.1724 1.1781 1.3934 1.4591 1.2028 1.247 1.2512 1.0832 0.85 1.04236
2825.953 1.2725 1.0702 1.1422 1.234 1.1134 1.06557 1.03973 1.2012 1.1399 0.938
2845.242 1.0524 1.05449 0.9533 0.861 0.9029 1.06592 1.2734 1.06094 0.8903 0.9375
2864.532 0.896 1.1769 1.3478 1.1618 0.75 0.595 0.844 0.98603 1.02864 0.99254
2883.822 1.1041 1.2021 1.2411 1.2023 1.02432 1.1474 1.4685 1.1418 0.78 1.0725
2903.112 1.0976 1.04369 1.1838 1.0787 1.1814 1.3376 1.1219 0.861 1.04645 1.5126
2922.401 1.4697 1.1791 1.00162 1.02551 1.06563 1.1241 1.1544 1.0662 1.1111 1.2945
2941.691 1.3468 1.1923 1.1647 1.3704 1.2892 1.1381 1.3701 1.2232 1.121 1.3144
2960.981 1.0832 1.00274 1.01781 1.04419 1.05485 1.1871 1.0688 0.533 0.742 1.2472
2980.271 1.1177 1.04674 1.0761 0.767 0.8928 0.83 0.9023 1.0809 0.8668 0.844
2999.561 0.692 0.571 0.768 0.493 0.552 1.04218 0.864 0.85 0.721 0.8761
3018.850 1.1771 1.2188 1.1282 1.1722 1.6235 1.4965 1.1702 1.1856 0.8832 0.574
3038.140 0.801 0.97851 0.773 0.731 0.9161 1.2623 1.4728 1.466 1.06066 0.95881
3057.430 1.2478 1.2156 1.4119 1.2985 0.9538 0.69 0.63 0.8684 1.066 1.2581
3076.720 1.4783 1.5862 1.577 1.515 1.4124 1.4296 1.5085 1.6464 1.7248 1.6012
3096.009 1.6147 2.076 2.066 1.6158 1.4648 1.4119 1.601 1.6622 1.2316 1.2404
3115.299 1.523 1.3533 0.98423 0.76 1.02914 1.4228 1.1162 0.731 0.644 0.678
3134.589 0.95931 0.844 0.722 0.818 0.9525 1.01589 1.0721 1.0775 0.96057 1.04072
3153.879 1.186 1.02722 0.751 0.765 0.85 0.623 0.709 1.1622 1.2325 0.579
3173.169 0.617 1.2599 1.2306 1.0669 0.755 0.677 0.736 1.2324 1.396 1.1746
3192.458 1.2589 1.5229 1.6736 1.3089 0.972033 0.96279 1.1479 1.0948 1.1081 1.0915
3211.748 0.788 0.813 0.757 0.627 0.736 0.614 0.805 1.3131 1.4087 1.1431
3231.038 1.00135 1.0495 1.2008 1.2621 1.19 1.3062 1.5079 1.4782 1.3319 1.5341
3250.328 1.3283 0.778 0.808 0.812 0.696 0.758 0.8956 0.786 0.734 0.823
3269.617 0.9119 0.864 1.1836 1.4354 0.9382 1.1097 1.4344 1.0902 0.8819 1.05684
3288.907 0.767 0.139 0.388 0.859 0.618 0.628 0.8 0.897 1.0899 1.0807
3308.197 0.99505 0.8677 0.9195 1.1803 1.3045 0.649 0.561 1.2125 1.0707 0.8773
3327.487 0.95813 0.9457 1.4144 1.5635 1.2304 1.2223 1.0155 0.737 0.965839 0.971266
3346.777 0.9048 1.2073 1.0673 0.9254 1.1917 1.1318 0.8932 0.95638 0.9282 0.8661
3366.066 0.799 0.414 0.499 0.81 1.1106 1.1818 0.717 0.761 1.3402 1.529
3385.356 1.5427 1.7605 2.026 2.226 1.7398 1.435 1.908 2.196 2.676 2.936
3404.646 2.646 2.986 3.566 3.796 3.686 3.856 4.246 4.876 5.336 5.596
3423.936 6.456 6.936 6.896 7.176 7.646 7.636 8.146 8.916 9.446 9.946
3443.225 9.846 9.446 9.066 8.216 7.226 6.976 6.276 5.146 4.006 2.886
3462.515 2.616 2.486 2.196 2.276 2.106 1.6316 1.6642 2.106 1.9057 1.447
3481.805 1.3414 0.9863 1.2115 1.6768 1.5271 1.472 1.4212 1.7519 1.976 1.8532
3501.095 1.8387 1.879 1.8661 2.006 2.296 2.216 2.476 2.866 2.926 3.026
3520.385 3.226 3.596 3.586 4.016 4.596 4.686 4.676 4.956 5.366 5.306
3539.674 5.276 5.636 6.016 6.436 6.856 6.816 6.836 7.476 8.156 8.666
3558.964 9.686 10.776 11.756 12.256 12.266 12.116 11.336 10.266 9.276 8.046
3578.254 6.686 5.066 3.596 2.836 2.536 2.396 2.146 1.8356 1.3303 1.05377
3597.544 1.251 1.1901 0.766 1.1559 1.6035 1.486 1.5705 1.6995 1.9254 1.4224
3616.833 0.8913 1.3068 1.2004 0.827 1.1087 1.147 0.862 0.833 0.723 0.427
3636.123 0.681 0.970605 1.02868 1.1691 1.1887 0.693 0.8731 1.1197 0.717 0.724
3655.413 0.838 1.3474 1.7451 1.7783 1.4306 1.159 0.689 0.283 0.722 0.984
3674.703 1.04875 0.787 0.479 0.9483 1.188 0.9412 0.6 0.814 0.9347 0.591
3693.993 0.615 1.1084 1.5805 1.5201 1.2097 1.0776 1.4521 1.87 1.1905 0.616
3713.282 0.96095 1.06407 0.9364 0.8681 1.1179 1.0984 0.612 0.581 1.271 1.6916
3732.572 1.4443 1.0898 0.734 0.402 0.431 0.9214 0.9242 0.817 1.3731 1.4421
3751.862 1.5464 1.5442 0.751 0.716 1.3904 1.6964 1.4907 0.98218 0.485 0.57
3771.152 1.1052 1.4763 1.5006 1.5344 1.2588 0.819 0.853 0.957 0.8 0.99585
3790.441 1.2383 1.0695 0.97811 0.81 1.02084 0.9218 0.723 0.766 1.05929 1.4912
3809.731 1.1922 0.9186 1.1 1.2529 0.97753 0.616 0.541 1.154 1.4235 0.863
3829.021 0.712 0.8719 1.03247 0.98911 0.9393 1.2165 1.184 1.1103 1.1471 1.0846
3848.311 1.2675 1.3338 0.8923 1.1977 1.4426 0.838 0.752 0.705 0.772 1.2769
3867.601 1.4738 1.4189 1.1255 0.99942 0.843 0.644 0.785 0.347 0.381 0.8956
3886.890 0.752 0.786 1.00183 1.02328 1.01187 1.2673 1.1858 0.74 0.63 0.701
3906.180 0.88 0.781 0.592 0.833 1.0857 0.853 0.673 0.533 0.496 0.761
3925.470 1.2692 1.6399 1.4764 1.3034 0.9517 0.54 0.161 0 0.561 0.821
3944.760 0.807 0.716 0.691 0.9139 0.9296 0.97779 0.98883 0.9279 0.611 0.745
3964.049 0.852 1.0041 1.4419 0.9522 0.524 0.684 0.828 0.8976 1.137 1.01481
3983.339 1.144 1.3225 1.1016 0.8743 0.697 1.01857 1.4453 1.1456 1.2877 1.922
##END=
