##TITLE=2,3,6-Trifluorobenzamide
##JCAMP-DX=4.24
##DATA TYPE=INFRARED SPECTRUM
##ORIGIN=EPA-IR VAPOR PHASE LIBRARY
##OWNER=SRD/NIST
Collection (C) 2018 copyright by the U.S. Secretary of Commerce
on behalf of the United States of America. All rights reserved.
##CAS REGISTRY NO=207986-22-9
##MOLFORM=C 7 H 4 F 3 N O
##$NIST SOURCE=MSDC-IR
##STATE=gas
##XUNITS=1/CM
##YUNITS=ABSORBANCE
##XFACTOR=1.
##YFACTOR=0.001
##DELTAX=1.92898
##FIRSTX=549.8
##LASTX=4000.7
##FIRSTY=13.4314
##MAXX=4000.7
##MINX=549.759
##MAXY=0.23202
##MINY=0
##NPOINTS=1790
##XYDATA=(X++(Y..Y))
549.759 13.4314 11.55 10.78 9.77 8.7 7.2 5.56 5.13 4.69 4.79
569.049 5.21 5.11 5.39 5.75 6.21 6.47 6.28 6.59 7.34 7.51
588.339 7.69 8.71 10 10.97 11.36 12.286 13.1803 13.8758 14.4 14.1037
607.628 13.7239 13.2981 12.684 11.92 11.14 9.87 9.48 9.16 8.44 8.02
626.918 7.36 6.61 6.25 5.97 5.51 5.51 5.27 5.34 6.36 6.58
646.208 6.28 7.16 8.31 9.55 11 12.593 14.47 16.13 17.19 17.58
665.498 17.43 17.48 17.42 16.39 14.92 13.667 12.504 10.92 9.9 9.73
684.787 9.63 9.69 9.57 9.55 10.12 10.97 11.66 12.681 13.3826 14.0869
704.077 15.24 15.41 15.58 16.45 16.16 15.37 15.03 14.18 13.7404 13.3083
723.367 12.813 13.1646 13.8741 14.58 15.33 16.48 18 19.37 20.64 21.36
742.657 21.59 21.88 22.09 21.83 20.6 19.13 18.16 17.03 15.85 14.98
761.947 14.64 14.57 14.66 15.2 15.64 15.83 16.22 16.41 16.43 16.38
781.236 16.37 16.59 16.39 16.2 16.09 16.79 17.72 19.2 21.82 24.28
800.526 27 30.38 33.83 37.98 43.76 49.24 50.25 44.84 39.45 37.1
819.816 33.19 28.54 25.74 22.85 19.53 17.14 15.27 13.7123 13.3041 13.6215
839.106 13.2341 12.784 12.963 12.919 12.6 12.459 12.612 12.624 12.411 12.227
858.395 11.95 11.83 12.13 12.04 11.85 12.1 11.86 11.27 11.11 11.12
877.685 10.78 10.55 11.01 11.32 11.42 11.9 12.316 12.509 12.935 13.3282
896.975 14.1439 15.14 16.21 18.33 20.69 23.43 26.66 30.4 34.64 38.26
916.265 40.48 41.62 42 41.56 39.92 37.19 33.58 29.14 24.41 20.17
935.555 16.92 14.89 13.5249 12.588 11.82 11.57 11.4 10.89 10.74 10.11
954.844 9.37 8.93 8.99 9.12 9.06 8.8 8.63 8.61 8.76 8.85
974.134 8.31 8.02 8.27 8.33 8.01 8.03 8.17 8.43 8.43 8.43
993.424 9.35 10.07 11.09 12.727 14.29 16.45 20.05 24.38 29.15 34.7
1012.714 39.86 44.31 47.63 48.91 48.74 48.72 47.69 44.12 39.19 32.86
1032.003 26.07 20.21 15.42 13.0875 11.6 9.51 8.18 7.76 6.79 5.68
1051.293 5.65 6.19 5.85 5.31 5.54 5.61 5.1 4.96 5.08 5.25
1070.583 5.17 4.75 5.47 4.92 4.9 5.72 5.31 5.19 5.79 6.02
1089.873 5.09 5.49 6.35 6.23 6.25 6.35 6.38 6.48 6.67 5.34
1109.163 4.82 5.38 4.91 4.36 4.45 4.67 4.03 5.27 5.93 5.91
1128.452 6.46 5.61 5.8 5.94 5.56 5.93 6.15 6.43 6.49 6.7
1147.742 6.46 5.84 5.53 5.84 5.24 4.97 6.02 6.52 6.54 6.63
1167.032 6.92 6.49 7.1 7.66 7.49 8.4 8.95 9.5 9.9 10.69
1186.322 11.43 12.436 13.04 13.3933 14.64 15.01 15.36 15.58 15.58 14.94
1205.611 14.98 14.21 13.3611 13.729 13.9331 14.88 15.61 15.67 16.18 17.06
1224.901 17.81 20.13 22.87 26.4 31.1 36.58 42.04 47.86 53.03 55.87
1244.191 58.49 59.41 58.92 57.52 54.31 50.12 45.01 39.08 33.6 29.18
1263.481 26 23.34 20.81 19.11 18.07 17.47 16.84 16.35 15.82 15.22
1282.771 15.11 15.14 15.47 16.24 16.94 18.17 19.99 21.87 23.96 25.97
1302.060 28.01 30.15 32.32 34.28 35.91 37.45 39.06 40.38 41.73 43.71
1321.350 46.03 49.05 53.17 58.59 65.78 74.83 85.71 98.15 111.19 123.52
1340.640 133.53 140.11 142.77 140.78 134.22 123.72 109.8 93.38 75.79 59.05
1359.930 45.21 34.95 27.91 23.2 19.68 17.06 15.4 14.0832 13.05 12.271
1379.219 11.36 10.64 10.04 9.29 8.84 8.55 8.27 8.1 7.87 7.68
1398.509 7.47 7.41 7.43 7.27 7.22 7.18 7.12 7.13 7.07 7.1
1417.799 7.2 7.24 7.43 7.65 7.91 8.28 8.82 9.59 10.54 11.8
1437.089 13.4126 14.91 16.44 18.18 19.55 20.59 21.68 22.37 22.6 22.48
1456.378 21.91 20.99 20.28 19.91 20.31 21.84 24.45 28.33 34.01 42.08
1475.668 53 67.64 86.59 110.7 138.78 168.45 195.7 216.37 228.52 232.02
1494.958 228.04 218.14 201.94 177.9 146.77 112.79 80.2 54.97 38.33 27.91
1514.248 21.65 17.74 15.39 13.9031 12.753 11.85 11.2 10.8 10.35 9.83
1533.538 9.46 9.15 9.08 9.23 9.17 8.9 8.74 8.9 9.23 9.42
1552.827 9.47 9.78 10.46 11.15 11.66 12.526 13.798 15.12 16.73 18.69
1572.117 21.57 25.45 30.44 36.49 43.07 50.07 56.52 62.17 66.88 69.83
1591.407 70.33 69 66.51 62.1 56.07 49.93 44.06 38.99 34.98 31.55
1610.697 28.88 27.15 25.99 25.23 25.34 26.13 27.19 28.45 29.36 30.25
1629.986 30.77 30.46 29.97 28.96 27.33 25.42 23.14 20.65 18.02 15.7
1649.276 13.9958 12.624 11.59 10.88 10.24 9.65 9.25 8.91 8.62 8.64
1668.566 8.65 8.82 9.36 9.83 10.22 10.76 11.6 12.58 13.5731 14.78
1687.856 16.31 17.93 19.84 22.23 25.14 28.29 31.55 35.21 38.8 42.48
1707.146 45.97 49.21 52.32 55.31 58.21 61.62 66.18 72.31 80.7 91.3
1726.435 104.08 118.26 132.88 147.33 162.57 178.06 191.45 196.75 187.49 169.09
1745.725 151.13 136.03 121.84 106.86 91.93 78.67 67.31 58.61 51.92 46.24
1765.015 41.52 37.16 32.65 28.73 25.08 21.79 18.96 16.52 14.62 12.956
1784.305 11.48 10.3 9.29 8.44 7.83 7.26 6.65 6.15 5.72 5.43
1803.594 5.29 5.15 4.91 4.66 4.45 4.37 4.43 4.44 4.51 4.65
1822.884 4.81 5.03 5.18 5.29 5.38 5.51 5.63 5.74 5.97 6.09
1842.174 6.2 6.31 6.24 6.08 5.92 5.74 5.5 5.12 4.68 4.33
1861.464 4.07 3.8 3.48 3.16 2.96 2.91 2.95 2.95 2.82 2.7
1880.754 2.65 2.58 2.69 2.79 2.76 2.72 2.67 2.62 2.68 2.74
1900.043 2.64 2.58 2.58 2.66 2.76 2.81 2.71 2.62 2.64 2.66
1919.333 2.66 2.61 2.5 2.55 2.73 2.79 2.72 2.6 2.62 2.71
1938.623 2.81 2.86 2.76 2.65 2.67 2.62 2.6 2.62 2.5 2.55
1957.913 2.67 2.54 2.38 2.34 2.48 2.33 2.12 2.2 2.19 2.21
1977.202 2.29 2.28 2.28 2.28 2.2 2.19 2.1 2.03 2.1 2.09
1996.492 2.04 2.27 2.38 2.27 2.27 2.21 2.32 2.47 2.51 2.45
2015.782 2.47 2.48 2.36 2.41 2.33 2.24 2.21 2.12 2.17 2.21
2035.072 2.17 2.06 2.05 2.2 2.32 2.2 2.09 2.08 2.2 2.23
2054.362 1.99 1.82 1.75 1.79 1.93 1.96 1.86 1.77 1.67 1.56
2073.651 1.56 1.66 1.59 1.6 1.62 1.63 1.74 1.66 1.54 1.6
2092.941 1.66 1.68 1.81 1.9 1.78 1.62 1.72 1.75 1.69 1.78
2112.231 1.87 1.76 1.62 1.56 1.6 1.82 1.93 1.78 1.61 1.5
2131.521 1.68 1.93 1.85 1.75 1.74 1.87 1.9 1.8 1.84 1.97
2150.810 2.05 2.18 2.18 1.98 1.97 2.2 2.26 2.11 1.99 1.88
2170.100 1.73 1.66 1.59 1.57 1.54 1.44 1.5 1.54 1.43 1.45
2189.390 1.55 1.48 1.45 1.53 1.58 1.52 1.53 1.59 1.6 1.68
2208.680 1.73 1.63 1.57 1.59 1.8 1.95 1.94 1.95 1.93 2.02
2227.970 2.03 2.11 2.22 2.17 2.06 2.04 2.06 2.03 2.04 1.94
2247.259 1.9 1.94 1.99 1.95 1.98 1.99 2.23 2.35 2.18 2.22
2266.549 2.13 2 2.03 2.06 1.92 1.76 1.77 1.85 1.76 1.74
2285.839 1.78 1.77 1.71 1.54 1.39 1.44 1.65 1.72 1.68 1.68
2305.129 1.72 1.61 1.46 1.55 1.66 1.62 1.5 1.42 1.42 1.59
2324.418 1.72 1.56 1.54 1.7 1.88 1.98 1.82 1.73 1.77 1.73
2343.708 1.65 1.59 1.55 1.71 1.92 1.97 1.87 1.7 1.67 1.59
2362.998 1.44 1.61 1.76 1.66 1.71 1.69 1.54 1.47 1.49 1.43
2382.288 1.28 1.3 1.51 1.61 1.54 1.49 1.6 1.62 1.73 1.69
2401.578 1.58 1.76 1.78 1.63 1.73 1.97 2 1.94 1.9 1.96
2420.867 1.87 1.78 1.83 1.87 1.84 1.82 1.76 1.78 1.83 1.77
2440.157 1.84 1.74 1.84 1.86 1.74 1.72 1.78 1.89 1.83 1.65
2459.447 1.57 1.61 1.68 1.8 1.72 1.72 1.9 2.02 1.97 1.72
2478.737 1.44 1.41 1.54 1.59 1.59 1.53 1.53 1.51 1.43 1.45
2498.026 1.6 1.66 1.54 1.63 1.72 1.68 1.75 1.83 1.75 1.9
2517.316 1.89 1.68 1.74 1.62 1.49 1.53 1.53 1.51 1.5 1.57
2536.606 1.78 1.91 1.86 1.71 1.78 1.93 1.73 1.56 1.7 1.85
2555.896 1.85 1.72 1.56 1.37 1.24 1.51 1.79 1.82 1.63 1.34
2575.186 1.43 1.43 1.33 1.29 1.12 1.04 1.07 1.13 1.09 0.9
2594.475 0.8 1.11 1.27 1.11 0.99 0.97 1.28 1.42 1.26 1.3
2613.765 1.39 1.47 1.31 1.05 1.09 1.19 1.27 1.28 1.38 1.47
2633.055 1.39 1.3 1.27 1.34 1.28 1.23 1.28 1.2 1.29 1.44
2652.345 1.24 1.2 1.34 1.22 1.05 1.01 1.05 1.01 0.93 1.01
2671.634 1.14 1.23 1.24 1.12 1.11 1.29 1.21 1.14 1.13 0.84
2690.924 0.79 0.8 0.81 0.9 0.81 0.95 1.11 1.05 0.88 0.82
2710.214 0.87 0.88 1.04 0.96 1.12 1.1 0.96 1.22 1.23 1.14
2729.504 1.21 1.29 1.2 1.17 1.2 1.25 1.36 1.25 1.01 0.78
2748.794 0.72 0.81 0.84 1.08 1.28 1.41 1.57 1.48 1.28 1.13
2768.083 1.08 1.04 1.23 1.36 1.4 1.56 1.28 1.24 1.14 1.05
2787.373 1.47 1.64 1.58 1.51 1.67 1.71 1.47 1.51 1.57 1.48
2806.663 1.43 1.39 1.4 1.4 1.34 1.25 1.25 1.25 1.36 1.42
2825.953 1.52 1.76 1.49 1.38 1.56 1.65 1.63 1.54 1.49 1.42
2845.242 1.29 1.21 1.04 0.79 0.9 0.83 0.86 1.06 1.09 1.02
2864.532 1.07 1.16 1.14 1.29 1.22 1.03 1.02 0.8 0.74 0.94
2883.822 1.23 1.33 1.21 1.33 1.49 1.64 1.41 1.05 1.1 1.16
2903.112 1.1 1.13 1.43 1.53 1.36 1.04 0.98 1.08 1.23 1.32
2922.401 1.1 1.12 1.43 1.64 1.58 1.34 1.22 1.1 1 1.21
2941.691 1.4 1.31 1.09 1.02 1.21 1.18 1.14 0.99 0.76 0.73
2960.981 0.87 0.91 0.93 0.94 0.98 0.98 0.75 0.73 0.65 0.69
2980.271 0.7 0.68 0.68 0.76 1.01 0.68 0.65 1.16 1.16 1.1
2999.561 1.07 0.77 0.75 0.93 1.01 0.78 0.71 1.11 1.17 1.03
3018.850 0.91 0.77 0.91 1.21 1.1 0.87 0.76 0.57 0.65 0.89
3038.140 1.17 1.16 1.16 1.04 0.88 1 1.03 0.79 0.93 1.44
3057.430 1.28 1.11 1.59 1.49 1.07 1.16 1.61 1.72 1.56 1.72
3076.720 1.52 1.26 1.15 1.04 1.02 1.06 1.17 1 0.77 0.78
3096.009 0.8 1.15 1.09 0.94 1.26 1.17 1.04 1.18 1.24 1.11
3115.299 1.05 1.23 1.1 0.82 0.98 0.99 1.02 1.05 0.79 1.06
3134.589 1.28 0.9 0.98 1.23 1.25 1.3 1.08 1.18 1.25 1.1
3153.879 1.47 1.74 1.64 1.81 2 1.77 1.25 1.11 1.21 1.2
3173.169 1.21 1.34 1.54 1.46 1.39 1.22 1.29 1.16 0.78 0.54
3192.458 0.39 0.91 0.97 1.03 1.14 0.98 1.23 1.25 1.04 1.04
3211.748 1.25 1.22 0.72 0.68 0.85 0.68 0.86 1.16 0.91 0.88
3231.038 1.16 1.13 0.86 0.55 0.32 0.08 0.3 0.66 0.89 0.97
3250.328 0.81 0.68 0.6 0.42 0.45 0.81 0.92 0.64 0.5 0.54
3269.617 0.67 0.74 0.73 0.75 0.87 0.81 0.44 0.4 0.61 0.42
3288.907 0.53 1.03 1.07 0.98 0.87 0.84 0.84 0.71 0.85 1.03
3308.197 0.97 1.01 0.96 0.96 0.84 0.93 0.92 0.9 1.25 1.31
3327.487 1.25 1.43 1.72 1.48 1.2 1.06 0.95 1.09 1.3 1.14
3346.777 1.12 1.42 1.19 1.11 1.34 1.37 1.46 1.47 1.5 1.69
3366.066 1.18 1 1.55 1.65 1.78 1.74 1.87 2.36 2.32 2.16
3385.356 2.42 2.96 3.39 3.73 4.24 4.51 4.88 5.87 6.5 6.88
3404.646 7.37 8.13 9.13 10.27 11.62 12.244 12.734 13.8111 14.6 15.38
3423.936 16.37 17.45 19.02 20 20.2 20.42 20.8 21.01 20.28 18.86
3443.225 17.36 15.55 13.7425 11.94 10.04 8.75 7.88 7.12 6.73 6.4
3462.515 6.04 5.65 5.33 5.05 4.77 4.53 4.29 4.38 3.97 3.37
3481.805 3.33 3.24 3.11 3.28 3.13 3.1 3.26 3.25 3.22 3.03
3501.095 3.51 4.08 4.21 4.44 5.09 5.39 5.32 5.49 6.18 6.78
3520.385 7.04 7.69 8.08 8.6 9.18 9.46 9.8 10.38 10.4 10.22
3539.674 10.62 11.37 11.94 12.419 13.3641 14.6 15.81 17.11 18.25 18.48
3558.964 18.55 18.12 16.98 15.8 14.3 12.307 10.33 8.67 6.72 5.24
3578.254 4.57 4.18 3.77 2.9 2.73 2.82 2.48 2.8 2.78 2.3
3597.544 2.18 2.03 1.62 1.81 2 1.52 1.38 1.53 1.59 1.24
3616.833 1.2 1.37 1.3 1.18 0.85 0.82 1 1.19 1.55 1.57
3636.123 1.38 1.26 0.68 0.53 0.87 0.88 0.87 0.87 1.22 1.43
3655.413 1.47 1.64 1.39 0.78 0.63 0.65 0.86 0.99 0.97 0.9
3674.703 0.53 0.56 0.8 1.07 1.05 1 1.16 1.04 0.93 0.71
3693.993 0.62 0.9 1.03 0.99 0.62 0.47 0.93 1.17 0.99 1.07
3713.282 0.92 0.85 0.79 0.74 1.04 0.94 0.53 0.54 0.66 0.56
3732.572 0.58 0.44 0.4 0.77 1 0.83 0.65 0.74 0.93 1.24
3751.862 0.89 0.8 0.92 0.62 0.61 0.39 0.64 0.91 0.95 1.04
3771.152 1.13 1.05 0.71 0.63 0.92 1.35 1.09 0.66 0.66 0.83
3790.441 1.02 0.72 0.53 0.76 0.54 0.38 0.7 1.08 1.15 1.37
3809.731 1.45 1.52 1.39 1.18 1.03 0.77 1.09 0.87 0.98 1.17
3829.021 0.91 0.85 0.81 0.77 0.46 0.5 0.9 0.69 0.73 1.15
3848.311 1.1 0.69 0.36 0.27 0.31 0.39 0.24 0.34 0.4 0.53
3867.601 0.69 0.91 0.96 0.68 0.61 0.43 0.47 0.85 0.81 0.85
3886.890 1 0.7 0.62 0.62 0.39 0.7 0.74 0.43 0.91 1.02
3906.180 0.81 0.72 0.7 0.44 0.28 0.81 1.14 0.93 0.89 0.51
3925.470 0 0.34 0.68 0.74 0.25 0.23 0.88 0.81 0.87 1.14
3944.760 1.07 0.7 0.43 0.74 0.89 1.03 0.89 0.72 0.99 0.9
3964.049 0.65 0.62 0.73 1.1 1.25 1.12 0.7 0.52 0.91 1.04
3983.339 1.1 0.81 0.6 1.3 1.34 1.04 1.01 0.72 0.7 0.95
##END=
