##TITLE=2-(2-Chloro-1,1,2-trifluoroethylthio)phenyl isothiocyanate
##JCAMP-DX=4.24
##DATA TYPE=INFRARED SPECTRUM
##ORIGIN=EPA-IR VAPOR PHASE LIBRARY
##OWNER=SRD/NIST
Collection (C) 2018 copyright by the U.S. Secretary of Commerce
on behalf of the United States of America. All rights reserved.
##CAS REGISTRY NO=207919-07-1
##MOLFORM=C 9 H 5 Cl F 3 N S 2
##$NIST SOURCE=MSDC-IR
##STATE=gas
##XUNITS=1/CM
##YUNITS=ABSORBANCE
##XFACTOR=1.
##YFACTOR=0.001
##DELTAX=1.92898
##FIRSTX=549.8
##LASTX=4000.7
##FIRSTY=23.42
##MAXX=4000.7
##MINX=549.759
##MAXY=0.87613
##MINY=0
##NPOINTS=1790
##XYDATA=(X++(Y..Y))
549.759 23.42 24.42 25.4 25.42 25.22 25.63 25.89 25.41 25.03 24.66
569.049 24.24 23.63 23.36 22.81 22.09 22.03 22.11 21.75 20.82 20.09
588.339 20.68 21.23 22.46 24.85 27.9 31.95 36.73 42.24 46.76 49.93
607.628 51.26 50.15 46.93 42.06 37.15 33.46 30.1 27.69 26.23 24.04
626.918 21.54 19.29 17.22 15.3 13.85 12.52 11.78 11.44 10.85 10.76
646.208 10.73 10.55 10.92 11.85 13.58 15.04 15.98 17.47 18.09 17.56
665.498 16.66 14.75 12.39 10.65 9.23 8.5 8.36 8.08 8.02 8.43
684.787 8.56 8.76 9.37 9.92 10.66 11.79 12.88 13.55 14.26 15.1
704.077 16.22 17.28 18.31 20.25 22.71 25.2 27.43 30.33 33.3 36.19
723.367 39.84 43.5 46.75 48.8 49.44 49.19 47.79 46.58 48.12 53.54
742.657 65.61 86.11 114.82 148.54 184.03 220.65 239.89 229.39 212.06 196.97
761.947 178.97 161.07 145.11 130.06 114.28 98.17 84.07 72.95 65.28 60.98
781.236 58.82 58.65 60.15 63.38 68.29 74.75 81.81 88.03 91.31 90.6
800.526 85.62 76.37 65.81 56.01 47.41 41.17 38.18 37.03 37.43 39.47
819.816 41.12 43.44 46.98 52.98 61.21 67.5 73.13 78.93 84.18 88.45
839.106 91.56 94.29 96.02 96.18 94.67 91.42 86.15 78.67 70.18 61.64
858.395 52.85 44.07 36.58 30.46 24.92 20.62 17.28 14.64 12.95 11.71
877.685 10.52 9.76 9.51 9.37 9.67 9.88 9.84 10.06 10.35 10.9
896.975 11.3 11.75 12.47 13.08 14.13 15.19 15.97 16.76 17.61 18.83
916.265 20.13 21.78 23.63 25.67 28.04 30.64 33.95 37.86 42.42 47.1
935.555 52.54 59.17 65.37 70.97 76.41 79.65 80.76 80.25 77.52 73.81
954.844 69.38 65.2 61.97 59.94 60.02 61.92 66.53 73.92 83.27 94.59
974.134 106.89 118.99 129.72 138.46 143.39 144.43 141.92 135.55 127.34 117.03
993.424 104.84 91.87 79.23 67.41 56.99 49.31 43.89 39.92 37.13 36.32
1012.714 36.23 36.56 37.84 38.67 40.24 43.01 45.12 47.76 51.08 54.22
1032.003 57.3 60.65 63.41 66.84 71.4 75.99 80.64 86.01 91.52 94.24
1051.293 95.52 95.8 94.18 91.75 89.81 87.47 87.1 89.66 93.37 98.6
1070.583 106.25 115.27 124.5 134.89 145.6 156.18 169.14 183.12 196.15 207.33
1089.873 215.46 220 222.62 223.21 219.47 213.98 206.99 197.25 187.82 179.6
1109.163 170.25 160.84 152.6 144.93 136.49 127.17 117.32 106.66 97.05 87.9
1128.452 78.86 71.09 63.95 58.54 54.12 50.36 47.42 44.6 43.29 43.35
1147.742 42.89 41.9 42.79 44.27 45.22 46.98 48.59 49.04 48.75 47.7
1167.032 46.63 46.19 46.15 46.86 48.68 51.48 55.81 61.55 67.78 75.42
1186.322 84.48 93.61 101.1 105.27 105.49 101.62 94.73 86.05 75 63.56
1205.611 52.52 42.63 35.85 30.44 26.38 23.75 22.1 20.89 19.18 17.43
1224.901 16.76 16.91 16.64 15.59 14.88 15.3 16.25 17.17 17.83 18.47
1244.191 19.39 21.11 21.96 22.16 22.73 24.02 25.43 27.13 30.36 33.53
1263.481 36.01 38.15 39.91 40.57 40.15 39.13 37.68 35.79 33.31 30.48
1282.771 27.57 24.77 22.28 20.07 17.53 15.11 13.11 11.42 10.18 8.96
1302.060 8.08 7.52 7.11 6.87 6.85 7.18 7.76 8.41 9.15 10.2
1321.350 11.79 13.91 16.74 20.79 25.64 30.22 33.68 35.34 34.22 30.78
1340.640 26.18 21.22 16.9 13.68 11.32 9.56 8.33 7.21 6.25 5.73
1359.930 5.23 4.89 4.83 4.64 4.44 4.44 4.43 4.41 4.53 4.54
1379.219 4.67 5.02 5.45 5.73 5.95 6.3 6.55 6.67 6.62 6.44
1398.509 6.36 6.2 5.97 5.91 5.98 6.06 6.14 6.37 6.85 7.47
1417.799 8.14 9.16 10.72 12.55 14.83 17.94 21.9 26.31 30.95 35.27
1437.089 38.57 40.14 39.85 38.05 35.13 31.94 29.76 29.41 31.76 37.23
1456.378 46.01 58.81 75.09 94.27 113.7 129.7 138.8 139.21 131.22 115.98
1475.668 95.76 74.55 56.23 42.1 32.03 25.2 20.61 17.35 15.05 13.54
1494.958 12.6 12.01 11.81 11.92 12.1 12.35 12.34 11.68 10.91 10.13
1514.248 9.23 8.25 7.51 6.97 6.66 6.54 6.54 6.64 6.63 6.78
1533.538 7.06 7.32 7.57 8.13 8.83 9.48 10.22 11.26 12.79 14.79
1552.827 17.14 20.06 23.99 28.72 33.93 39 43.75 48.06 51.91 55.68
1572.117 59.96 65.17 71.15 76.98 80.37 79.75 75.16 67.23 56.96 45.94
1591.407 35.7 27.79 22.4 18.66 16 14.15 13.31 12.74 12.21 11.72
1610.697 11.46 11.23 10.74 10.36 9.74 8.81 7.87 6.83 5.89 5.5
1629.986 5.44 5.25 4.96 4.73 4.43 4.2 4.22 4.31 4.12 3.94
1649.276 3.99 4.05 4.06 3.98 4.03 4.03 3.98 3.98 4.06 4.09
1668.566 4 4.15 4.33 4.3 4.32 4.48 4.55 4.79 5.23 5.52
1687.856 5.85 6.36 6.89 7.4 7.79 7.85 8.04 8.08 7.59 7.14
1707.146 6.82 6.65 6.57 6.61 6.76 6.78 6.95 7.28 7.31 7.26
1726.435 7.19 6.91 6.57 6.21 5.76 5.42 5.14 4.89 4.79 4.7
1745.725 4.64 4.52 4.54 4.58 4.64 4.72 4.63 4.58 4.55 4.47
1765.015 4.47 4.53 4.71 4.81 4.82 4.95 4.84 4.8 4.89 4.93
1784.305 5.03 5.22 5.5 5.75 6.11 6.42 6.85 7.3 7.68 8.09
1803.594 8.41 8.71 8.9 8.76 8.27 7.89 7.74 7.73 7.88 8.05
1822.884 8.22 8.3 8.62 9.08 9.47 9.8 10.04 10.27 10.46 10.67
1842.174 10.76 10.78 10.83 10.87 11.05 11.19 11.36 11.85 12.18 12.36
1861.464 12.88 13.35 13.65 14.1 14.63 15.16 15.79 16.53 17.19 18.01
1880.754 18.93 19.73 20.67 21.7 22.51 23.09 23.63 24.1 24.25 24.28
1900.043 24.42 24.57 24.74 25.28 26.2 27.3 28.42 29.75 31.73 33.56
1919.333 35.05 36.62 38.25 39.74 41.13 42.77 44.7 46.9 49.37 52.28
1938.623 55.78 59.53 63.51 67.72 72.02 76.75 81.63 86.45 91.27 96.28
1957.913 101.4 106.56 112.12 118.08 124.67 131.92 139.75 148.26 157.37 166.87
1977.202 176.91 187.63 198.7 210.31 222.76 235.72 249.12 263.31 278.35 293.75
1996.492 309.6 326.12 343.35 361.14 379.16 397.73 416.86 436.43 456.61 477.72
2015.782 499.36 521.79 546.21 571.91 598.45 626.11 654.42 683.03 712.05 740.93
2035.072 768.14 793.74 817.42 838.32 855.07 868.15 875.45 876.13 873.06 863.68
2054.362 848.83 829.91 806.29 779.42 750.52 720.4 689.25 657.85 627.79 599.42
2073.651 572.24 547.31 525.03 505.04 487.79 473.18 460.76 450.55 442.65 436.17
2092.941 430.82 426.14 421.49 416.77 411.18 404.76 397.56 388.85 378.84 368.05
2112.231 356.2 343.75 330.78 317.13 303.43 289.96 276.49 263.36 251.01 238.79
2131.521 226.68 215.04 203.4 191.91 180.89 170.24 160.13 150.34 140.92 132.18
2150.810 124.08 116.38 109.4 103.22 97.4 92.31 87.88 83.77 80.18 77.02
2170.100 74.05 71.43 69.19 67.08 65.31 63.74 62.37 61.12 59.83 58.63
2189.390 57.44 56.05 54.35 52.84 51.07 48.85 46.75 44.71 42.76 40.95
2208.680 39.24 37.59 36.23 35.19 34.14 33.15 32.21 31.26 30.22 29.04
2227.970 27.77 26.54 25.2 23.82 22.47 21.03 19.56 18.15 16.75 15.44
2247.259 14.34 13.38 12.48 11.79 11.05 10.13 9.65 9.5 9.06 8.66
2266.549 8.41 8.26 8.13 7.74 7.44 7.37 7.32 7.27 7.12 7.03
2285.839 7.04 6.96 6.93 6.94 6.84 6.71 6.74 6.86 6.96 6.98
2305.129 6.92 6.87 6.85 6.97 6.98 7.03 7.05 6.96 7.23 7.37
2324.418 7.25 7.11 6.82 6.65 6.62 6.39 6.36 6.44 6.46 6.31
2343.708 6.02 6 5.9 5.87 5.91 5.72 5.67 5.67 5.46 5.41
2362.998 5.37 5.21 5.14 4.96 4.96 5.16 5.16 5.13 5.08 5.14
2382.288 5.23 5.17 5.21 5.34 5.28 5.25 5.35 5.52 5.71 5.83
2401.578 5.82 5.9 6.06 6.11 6.04 5.94 6.02 5.89 5.73 5.83
2420.867 5.73 5.55 5.54 5.54 5.51 5.54 5.69 5.64 5.62 5.72
2440.157 5.62 5.53 5.66 5.84 6.08 6.17 6.22 6.29 6.37 6.5
2459.447 6.49 6.55 6.71 6.88 6.93 7.11 7.48 7.55 7.46 7.64
2478.737 7.88 7.97 8.05 8.38 8.56 8.35 8.31 8.39 8.39 8.46
2498.026 8.41 8.35 8.35 8.58 8.89 9.13 9.56 9.72 10.02 10.42
2517.316 10.45 10.54 10.95 11.16 11.05 11.32 11.59 11.53 11.46 11.54
2536.606 11.46 11.32 11.43 11.54 11.54 11.55 11.6 11.65 11.94 12.26
2555.896 12.42 12.35 12.42 12.76 12.96 13.2 13.29 13.35 13.31 13.18
2575.186 13.31 13.22 12.94 12.98 12.84 12.47 12.14 11.76 11.39 10.95
2594.475 10.54 10.04 9.67 9.39 8.84 8.25 7.86 7.48 7.09 6.73
2613.765 6.29 6.14 5.9 5.57 5.3 5 4.94 4.73 4.54 4.65
2633.055 4.52 4.27 4.05 4.19 4.33 4.19 3.99 4.02 4.17 4.05
2652.345 3.97 4.12 4.28 4.28 4.32 4.32 4.32 4.31 4.16 4.08
2671.634 4.29 4.19 4.05 4.36 4.41 4.36 4.47 4.56 4.57 4.6
2690.924 4.76 4.78 4.84 5.08 5.42 5.62 5.67 5.7 5.79 6.09
2710.214 6.41 6.57 6.55 6.39 6.43 6.6 6.65 6.73 6.74 6.79
2729.504 6.91 6.83 6.68 6.72 6.58 6.36 6.65 6.95 6.91 6.84
2748.794 6.83 6.84 6.95 6.88 6.74 7.17 7.49 7.4 7.46 7.56
2768.083 7.69 7.69 7.66 7.59 7.39 7.22 7.09 7.02 6.77 6.36
2787.373 6.31 6.11 5.75 5.43 5.22 5.11 4.84 4.74 4.46 4.17
2806.663 3.83 3.61 3.78 3.54 3.27 3.4 3.52 3.36 3.17 3.36
2825.953 3.36 3.33 3.22 2.93 2.96 2.85 2.77 2.68 2.6136 2.75
2845.242 2.6148 2.5538 2.4456 2.3245 2.2727 2.5361 2.68 2.19 2.2046 2.3191
2864.532 1.9404 1.69891 1.7658 1.66058 1.5519 1.8383 1.888 1.8338 2.0924 2.105
2883.822 1.7605 1.5811 1.5862 1.5962 1.65489 1.519 1.5425 1.71102 1.855 2.0528
2903.112 2.04 2.087 2.1201 1.8658 1.9842 2.1521 2.321 2.5939 2.73 2.79
2922.401 2.89 2.9 2.81 3.06 2.79 2.75 3.05 3.05 3.19 3.11
2941.691 2.98 3.37 3.6 3.26 3.24 3.33 3.38 3.71 3.94 4.1
2960.981 4.2 4.3 4.69 5.14 5.48 5.76 6.13 7.24 8.24 8.97
2980.271 9.95 10.7 11.38 11.98 12.4 12.64 12.97 13.23 12.82 12.06
2999.561 11.21 10.2 9.32 8.64 7.55 6.84 6.72 6.55 6.51 6.48
3018.850 6.64 6.41 5.84 5.65 5.77 5.66 5.79 5.35 4.57 4.46
3038.140 4.48 4.71 4.8 4.73 5.04 5.4 5.64 5.89 6.66 7.86
3057.430 8.94 10.48 12.92 16.18 19.98 23.58 27.5 31.07 32.83 33.2
3076.720 31.83 28.57 24.36 19.96 15.89 12.71 10.68 9.5 8.59 7.54
3096.009 6.58 5.79 5.32 4.75 3.84 3.52 3.48 3.1 2.99 3.02
3115.299 2.89 3.07 3.68 3.92 3.94 4.22 4.36 4.27 3.92 3.58
3134.589 3.69 4.04 3.73 2.75 2.1855 1.8779 1.7761 1.66805 1.72213 2.046
3153.879 1.68111 1.282 1.444 1.5495 1.5471 1.393 1.142 0.987 1.188 1.442
3173.169 1.345 0.96 0.57 0.56 0.778 0.954 0.994 0.779 0.774 0.978
3192.458 0.839 0.741 0.733 0.867 0.61 0.31 0.753 0.852 0.49 0.705
3211.748 0.941 0.662 0.793 0.935 0.41 0.24 0.46 0.2 0.34 0.782
3231.038 0.741 0.48 0.5 0.959 0.998 1.042 0.667 0 0.15 0.54
3250.328 0.815 0.63 0.4 0.796 0.889 0.53 0.55 0.46 0.6 0.782
3269.617 0.37 0.24 0.41 0.48 0.674 0.673 0.684 0.751 0.957 1.081
3288.907 0.971 0.832 0.753 0.997 1.001 0.98 0.918 0.877 0.976 0.69
3308.197 0.56 0.692 0.63 0.59 0.51 0.59 0.966 0.872 0.844 0.86
3327.487 0.834 0.924 1.068 1.252 1.281 0.945 0.714 0.902 0.45 0.61
3346.777 1.258 1.284 1.057 0.956 0.793 0.62 0.76 0.892 0.968 1.124
3366.066 0.773 0.37 0.5 0.855 0.975 0.62 0.46 0.48 0.641 0.871
3385.356 0.82 0.879 0.918 0.53 0.39 0.33 0.12 0.46 0.797 0.53
3404.646 0.65 1.055 1.163 0.966 0.48 0.905 1.164 0.784 0.719 0.638
3423.936 0.42 0.52 0.822 1.039 1.157 0.971 0.986 0.921 1.158 1.284
3443.225 0.988 1.033 0.977 0.798 1.209 0.986 0.799 1.291 1.463 1.399
3462.515 0.98 0.56 0.47 0.75 0.916 1.013 0.969 0.61 0.696 0.997
3481.805 0.772 0.86 1.1 0.745 0.677 0.866 0.842 0.75 0.776 1.191
3501.095 1.373 0.72 0.29 0.42 0.62 0.912 0.793 0.644 0.733 0.64
3520.385 0.895 1.167 0.884 0.54 0.33 0.932 1.28 0.97 0.774 0.863
3539.674 0.905 0.914 0.928 0.35 0.25 0.894 1.079 0.669 0.37 0.54
3558.964 0.806 0.802 0.715 0.53 0.52 0.57 0.79 0.64 0.5 0.671
3578.254 0.52 0.883 1.363 1.094 0.714 0.61 0.39 0.49 0.924 1.177
3597.544 0.778 0.61 0.809 0.78 0.61 0.35 0.23 0.6 0.918 0.679
3616.833 0.701 0.61 0.62 0.831 0.638 0.661 0.78 0.29 0.49 0.729
3636.123 0.834 1.069 0.911 0.935 1.107 1.208 0.711 0.25 0.42 0.914
3655.413 1.159 0.732 0.39 0.61 0.673 0.56 0.6 0.682 0.833 0.666
3674.703 0.5 0.985 1.173 0.811 0.59 0.6 0.61 0.874 0.921 0.62
3693.993 0.874 1.125 1.053 0.899 0.946 0.94 1.06 1.241 1.29 1.028
3713.282 0.668 0.736 1.162 1.5599 1.5427 1.103 1.014 1.408 1.239 1.092
3732.572 0.86 0.766 1.055 1.12 1.004 1.242 1.578 1.276 0.999 1.095
3751.862 1.34 1.25 1.39 1.5512 1.387 1.551 1.70449 1.5452 1.5892 1.167
3771.152 0.778 1.148 1.436 1.13 0.698 0.853 1.153 1.168 1.102 1.404
3790.441 1.357 1.045 1.189 1.65126 1.496 1.331 1.8238 1.65199 1.5321 1.47
3809.731 1.092 1.364 1.375 1.149 1.267 1.07 0.689 1.13 1.335 1.035
3829.021 1.239 1.274 1.124 0.955 1.064 1.309 1.5471 1.7745 2.0018 1.5586
3848.311 0.936 1.043 1.6008 1.71484 1.236 1.201 1.21 1.431 1.364 1.061
3867.601 1.176 1.357 1.136 1.102 1.5947 1.504 1.5846 1.64983 1.63881 1.7661
3886.890 1.417 1.313 1.438 1.69437 1.618 1.288 1.305 1.109 1.287 1.519
3906.180 1.5547 1.7825 1.464 1.427 2.0016 2.3733 2.1006 1.8545 1.9699 1.961
3925.470 2.1569 2.0081 1.69878 1.9288 2.2845 2.4533 2.1607 2.2002 2.2269 2.2575
3944.760 2.13 1.9028 2.0878 2.2684 2.4107 2.3398 2.4792 2.4059 2.73 3.1
3964.049 2.94 2.69 2.95 3.34 2.94 2.72 2.69 2.77 3.1 3
3983.339 3.07 3.36 3.26 3.3 3.31 3.04 3.59 3.84 3.51 3.71
##END=
