##TITLE=3-Ethyl-5-methyl-1-heptyn-3-ol
##JCAMP-DX=4.24
##DATA TYPE=INFRARED SPECTRUM
##ORIGIN=EPA-IR VAPOR PHASE LIBRARY
##OWNER=SRD/NIST
Collection (C) 2018 copyright by the U.S. Secretary of Commerce
on behalf of the United States of America. All rights reserved.
##CAS REGISTRY NO=207974-16-1
##MOLFORM=C 10 H 18 O
##$NIST SOURCE=MSDC-IR
##STATE=gas
##XUNITS=1/CM
##YUNITS=ABSORBANCE
##XFACTOR=1.
##YFACTOR=0.001
##DELTAX=1.92898
##FIRSTX=549.8
##LASTX=4000.7
##FIRSTY=2.9228
##MAXX=4000.7
##MINX=549.759
##MAXY=0.0561328
##MINY=0
##NPOINTS=1790
##XYDATA=(X++(Y..Y))
549.759 2.9228 3.1928 3.3628 3.5528 4.1028 4.1628 3.4028 3.5528 4.0228 3.4328
569.049 3.3728 3.9028 3.7128 2.9528 2.6528 3.0928 4.0328 3.3728 2.9328 3.4228
588.339 3.1028 2.9928 2.9428 2.7328 2.2628 1.9928 2.3128 2.4028 2.5128 1.9328
607.628 1.9028 3.2628 4.3128 5.0528 6.1128 8.0928 11.1428 14.7028 17.5828 20.2028
626.918 23.3728 26.5428 27.1728 27.7828 28.7228 26.0728 21.5328 18.3928 18.0728 18.4928
646.208 19.2328 20.6128 21.5228 22.5828 21.9528 19.0628 16.5328 14.5628 12.8828 11.0128
665.498 8.9528 7.3128 6.3528 5.5428 4.5728 3.6828 2.6228 2.0128 2.1628 2.0728
684.787 1.8028 1.4128 1.3028 1.7028 1.9528 1.8428 1.5428 1.4628 1.9128 2.2428
704.077 2.0228 2.1828 2.2928 2.5328 2.7528 2.6928 2.5728 2.3528 2.3328 2.0628
723.367 1.9528 1.8128 1.5128 1.4528 1.5328 1.5628 1.6628 1.7728 1.6228 1.0847
742.657 0.9273 1.2728 1.3828 1.2328 1.0644 1.2128 1.1928 0.9408 0.7346 1.1328
761.947 1.8428 2.0728 2.2728 2.3828 2.1828 2.0628 2.1028 2.3928 2.0128 1.8428
781.236 2.4828 2.5428 2.3028 2.3328 2.6828 2.7128 2.2028 1.6328 1.4128 1.5228
800.526 1.9028 1.8728 1.4628 1.6828 1.7128 1.3528 1.3128 1.3828 1.5828 1.4628
819.816 1.4828 1.5028 1.3828 1.7928 1.7228 1.3628 1.1428 1.2828 1.2828 1.3428
839.106 1.8328 1.6928 1.5428 1.6928 1.7228 1.8928 1.9928 2.1728 2.4928 2.1928
858.395 2.2028 2.1328 1.8328 2.3028 2.5528 2.3128 2.3928 2.3928 2.3528 2.6528
877.685 2.3728 2.0728 1.8728 1.7328 1.8528 1.8028 1.6028 1.6828 2.2228 2.6528
896.975 3.0228 3.1328 3.0928 3.3628 3.6728 3.7828 3.6128 3.5728 3.7828 3.5128
916.265 3.2028 2.9628 2.6128 2.7928 3.1028 3.1028 3.1028 3.3528 3.3628 3.4828
935.555 4.0628 4.7628 5.2928 5.6628 6.0828 6.7328 7.5428 8.4828 9.3828 9.8128
954.844 10.3628 11.2928 11.9428 12.3728 12.8628 13.4428 14.1528 14.5028 14.2828 14.0828
974.134 13.8828 13.4628 13.0928 12.6028 12.1128 11.3928 10.9228 10.6528 10.3528 10.4028
993.424 10.4528 10.6928 10.7028 10.4728 10.5928 10.2728 9.9828 10.3928 10.4728 10.2528
1012.714 10.1128 9.6228 8.8928 8.6128 8.3628 8.3128 8.0128 7.8928 7.5628 7.2828
1032.003 6.8628 6.2328 6.4628 6.1228 5.5628 5.8428 5.6028 5.5428 5.5928 5.7728
1051.293 6.3428 5.9628 5.0328 4.6628 5.2428 5.1328 5.0028 5.2328 4.8528 4.5528
1070.583 4.4628 3.9328 3.8828 3.6928 3.3428 2.9828 2.9228 3.2828 3.9228 4.5428
1089.873 4.5228 4.8428 5.0828 4.6328 4.4728 5.2428 5.7028 5.2428 5.3928 6.1828
1109.163 6.3528 5.9028 5.6628 6.2128 6.6028 6.9928 7.4428 8.1528 8.9228 8.5228
1128.452 8.6728 9.0128 9.1328 9.9428 10.2128 10.5628 11.6228 12.1928 11.2028 11.3428
1147.742 12.2028 11.5928 11.0628 10.2728 9.9128 10.2328 9.5128 8.4728 8.4728 8.4828
1167.032 7.7828 6.7928 6.1728 6.1328 5.4328 5.0428 5.5328 5.6528 4.9528 4.3028
1186.322 4.5528 4.5928 4.5328 4.8928 4.5828 3.8228 4.3728 5.1128 4.7828 4.8628
1205.611 5.9228 5.7628 4.7628 5.0628 6.9628 6.7828 5.5628 6.6128 7.7328 7.5528
1224.901 6.5428 6.2228 6.2528 6.8528 7.3128 7.2728 8.2328 8.8028 9.1228 9.9428
1244.191 10.6628 11.7028 12.7528 13.4828 13.8528 14.2228 14.4928 14.4728 14.3928 14.0228
1263.481 13.1328 12.2828 11.7028 11.0728 10.2128 10.1128 9.8528 9.0028 8.9128 9.0328
1282.771 9.1528 9.4928 9.5028 9.2028 9.0528 9.0028 8.9928 9.0028 9.1828 9.5528
1302.060 9.6928 9.7428 9.9228 10.1928 10.2228 10.1828 10.1528 10.0128 9.9728 9.9528
1321.350 9.9028 9.8028 9.7028 9.6028 9.5328 9.5228 9.3028 9.1228 9.1828 9.1628
1340.640 9.0928 9.1028 9.1228 9.0528 8.9828 8.9828 8.9928 9.0628 9.2228 9.1728
1359.930 9.1128 9.2028 9.1728 9.0728 9.0728 9.1828 9.3328 9.4728 9.7128 10.0428
1379.219 10.2428 10.3628 10.2728 10.1628 10.0828 9.4828 8.5428 7.6828 6.8528 6.0728
1398.509 5.3628 4.7928 4.4528 4.1328 3.8728 3.6528 3.4828 3.3628 3.3428 3.3728
1417.799 3.3928 3.3928 3.3728 3.5928 3.8528 3.9428 4.1228 4.4128 4.6928 4.9028
1437.089 5.2228 5.6028 5.9328 6.4328 6.8228 7.1428 7.6628 8.0828 8.5728 9.1128
1456.378 9.6728 10.1828 10.4528 10.5928 10.6128 10.5028 10.1628 9.7128 8.9928 8.1528
1475.668 7.4728 6.6428 5.8628 5.1928 4.5128 3.9628 3.4428 3.2328 3.0028 2.5928
1494.958 2.3528 2.1128 1.8928 1.7628 1.7928 1.7528 1.6328 1.5928 1.4828 1.4328
1514.248 1.4628 1.3428 1.3828 1.4528 1.2828 1.2028 1.2428 1.1128 1.2128 1.1828
1533.538 0.8388 0.7475 0.8419 0.9221 0.8846 0.97 1.0225 1.0223 0.9377 0.9043
1552.827 1.0278 1.1428 1.1128 1.2928 1.3728 1.0792 1.0928 1.2328 1.0183 0.9021
1572.117 1.1128 1.3228 1.3528 1.1128 1.0522 1.1428 1.1628 1.2028 1.0586 0.9539
1591.407 1.2028 1.1928 0.9965 1.0204 1.0094 1.0459 1.2728 1.2828 1.1828 1.1828
1610.697 1.2328 1.0643 1.1028 1.2728 1.1228 1.1228 1.1528 1.0597 1.0352 1.1828
1629.986 1.0279 0.8869 0.9788 0.9696 1.0178 1.0365 1.0724 1.0928 1.0664 0.994
1649.276 1.0262 1.041 0.9163 0.9596 0.9303 0.7773 0.8131 1.0831 1.0928 0.9169
1668.566 0.9938 1.0701 1.0887 1.1128 0.98 0.8923 0.9203 0.9401 0.9118 0.9668
1687.856 0.8975 0.8775 0.8687 0.7562 0.8529 0.914 0.7618 0.7068 0.8574 0.8423
1707.146 0.7616 0.825 0.881 0.9723 1.0573 0.9995 0.9192 0.9452 1.0071 0.9712
1726.435 0.7935 0.7489 0.8002 0.9029 0.8908 0.7556 0.8741 0.9442 0.9423 0.9287
1745.725 0.7665 0.8259 0.9052 0.8429 0.8492 0.7902 0.785 0.8549 0.8781 0.8122
1765.015 0.6962 0.7191 0.7117 0.7694 0.9378 0.9601 0.8778 0.8623 0.8486 0.6884
1784.305 0.7311 0.76 0.593 0.6715 0.8451 0.9004 0.8386 0.6698 0.6919 0.7782
1803.594 0.7054 0.7361 0.834 0.7402 0.6919 0.6882 0.6151 0.6623 0.7157 0.6797
1822.884 0.6498 0.6066 0.6747 0.6641 0.6168 0.5809 0.5179 0.6447 0.7785 0.7851
1842.174 0.6665 0.6603 0.7268 0.7104 0.7034 0.7083 0.7122 0.7545 0.6882 0.5703
1861.464 0.536 0.5124 0.5487 0.5857 0.6646 0.7444 0.7335 0.7838 0.7791 0.691
1880.754 0.6613 0.6549 0.6074 0.6394 0.7615 0.6843 0.6918 0.8238 0.8788 0.7614
1900.043 0.6656 0.7233 0.7887 0.7307 0.6761 0.7202 0.6986 0.6865 0.7408 0.6816
1919.333 0.6519 0.8365 0.7802 0.6408 0.5238 0.5025 0.6444 0.6353 0.5429 0.4369
1938.623 0.5436 0.7246 0.5588 0.5538 0.6707 0.702 0.7448 0.5946 0.522 0.5736
1957.913 0.5721 0.6493 0.7032 0.6167 0.6685 0.6304 0.5487 0.5418 0.5282 0.6561
1977.202 0.6614 0.5943 0.6233 0.6107 0.5319 0.5143 0.4398 0.4228 0.6114 0.6745
1996.492 0.6619 0.5994 0.5393 0.7043 0.7546 0.6731 0.7405 0.7201 0.6532 0.7201
2015.782 0.7594 0.6889 0.7376 0.724 0.7242 0.7805 0.6218 0.5602 0.5913 0.7145
2035.072 0.7675 0.6294 0.6168 0.7247 0.6859 0.6141 0.5989 0.4812 0.401 0.5166
2054.362 0.565 0.5183 0.5902 0.6958 0.6824 0.5449 0.5611 0.6578 0.6109 0.6413
2073.651 0.7056 0.8378 0.9363 0.7981 0.7248 0.7151 0.6229 0.5486 0.605 0.6525
2092.941 0.6929 0.8481 0.8669 0.8075 0.7668 0.6722 0.6387 0.7322 0.8858 0.9201
2112.231 0.8032 0.7074 0.6893 0.6819 0.7363 0.7879 0.7396 0.7126 0.6904 0.6266
2131.521 0.6635 0.7055 0.6833 0.722 0.5609 0.5633 0.754 0.6804 0.6493 0.7369
2150.810 0.6657 0.4999 0.4886 0.5608 0.5391 0.5333 0.5953 0.6881 0.6562 0.5311
2170.100 0.5644 0.5094 0.526 0.6252 0.5269 0.4444 0.6009 0.7103 0.7807 0.7979
2189.390 0.6766 0.4288 0.3055 0.5475 0.7123 0.6156 0.5885 0.5859 0.6774 0.6895
2208.680 0.5893 0.5632 0.6164 0.7382 0.6174 0.6196 0.7039 0.7103 0.8455 0.8539
2227.970 0.693 0.656 0.7009 0.7843 0.7115 0.6678 0.8295 0.8833 0.8759 0.8108
2247.259 0.7925 0.9562 0.9378 0.8067 0.7729 0.685 0.7137 0.7932 0.7345 0.7289
2266.549 0.7518 0.7639 0.7188 0.6521 0.6033 0.5152 0.744 0.8542 0.7406 0.7635
2285.839 0.7871 0.7633 0.7519 0.7523 0.5818 0.5146 0.6484 0.6659 0.6093 0.5468
2305.129 0.6976 0.9655 0.9509 0.7748 0.7289 0.8595 0.9289 0.7898 0.7082 0.7073
2324.418 0.7158 0.5274 0.358 0.5649 0.7646 0.7221 0.7052 0.728 0.752 0.8021
2343.708 0.7699 0.7624 0.8149 0.8502 0.7698 0.7029 0.575 0.6524 0.8291 0.6873
2362.998 0.8392 1.0503 0.948 0.9756 0.9597 0.9159 1.0469 0.9238 0.7563 0.9336
2382.288 0.9365 0.7667 0.626 0.5372 0.5433 0.5887 0.6938 0.8221 0.7955 0.6713
2401.578 0.733 0.9475 0.82 0.7444 0.9448 0.8939 0.9115 1 0.9744 0.8669
2420.867 0.7655 0.7755 0.8072 0.7976 0.6448 0.6271 0.6785 0.6811 0.8376 0.7804
2440.157 0.6751 0.7512 0.6085 0.5251 0.4656 0.6904 0.9285 0.6864 0.6175 0.7209
2459.447 0.7618 0.7228 0.614 0.5514 0.5171 0.5731 0.6848 0.6884 0.6856 0.6415
2478.737 0.4794 0.5233 0.7817 0.8756 0.873 0.6491 0.6043 0.6757 0.5581 0.6202
2498.026 0.5603 0.3832 0.4962 0.4098 0.4456 0.7416 0.7537 0.6999 0.7271 0.897
2517.316 0.7925 0.5325 0.4795 0.5267 0.5814 0.751 0.8125 0.6205 0.5684 0.7528
2536.606 0.8664 0.7398 0.6578 0.5641 0.4478 0.606 0.8604 0.8544 0.7843 0.6544
2555.896 0.5916 0.8527 0.9624 0.9234 0.9116 0.8024 0.6904 0.6726 0.9235 0.9736
2575.186 0.9399 0.9146 0.9757 1.1328 1.0483 1.1328 1.0239 0.97 1.1428 1.2328
2594.475 1.2728 1.1828 1.0403 0.8103 0.8421 1.1328 1.0197 0.9023 1.0021 1.0239
2613.765 1.1128 1.1428 0.9911 1.0311 1.2928 1.3828 1.2928 1.2928 1.3028 1.0503
2633.055 0.838 1.0205 1.0792 1.0556 1.0732 0.9261 0.9143 0.9331 0.8691 0.9309
2652.345 1.0148 1.0795 1.0319 1.0686 1.1328 1.0565 1.3028 1.4728 1.4828 1.4528
2671.634 1.2628 1.1828 1.3428 1.4028 1.4628 1.5528 1.3828 1.0627 1.1028 1.3528
2690.924 1.3728 1.4228 1.4528 1.3828 1.3728 1.1128 1.1028 1.1228 0.9897 1.1328
2710.214 1.2128 1.5528 1.5328 1.3528 1.2728 1.1728 1.2428 1.4928 1.4428 1.2828
2729.504 1.7428 1.7728 1.7228 1.9828 2.0628 1.9928 2.1528 2.0928 1.9128 2.0528
2748.794 1.8128 1.8328 2.0728 1.8228 1.6128 1.7428 1.8528 1.9128 1.7628 1.6928
2768.083 1.8428 1.9028 1.7428 1.6528 1.7928 1.9128 1.9728 1.9428 1.8628 1.9628
2787.373 2.2728 2.1528 1.9828 2.1328 2.2428 2.2728 2.2028 2.4028 2.4928 2.3328
2806.663 2.4328 2.4528 2.4828 2.5828 2.6128 2.8228 2.9028 2.9128 2.9728 3.1528
2825.953 3.6328 3.8428 3.9928 3.8428 3.9928 4.5328 4.5928 4.5328 4.9228 5.5228
2845.242 5.8428 6.3028 7.0928 8.0728 8.6428 9.4228 10.7328 11.5828 12.4228 13.2828
2864.532 14.1028 14.9528 15.6028 16.3728 17.5328 18.6728 19.7928 20.7028 21.3728 22.3028
2883.822 22.8428 23.1028 23.2828 23.2928 23.2928 22.7928 22.3528 22.0328 21.9528 22.1528
2903.112 22.2528 22.6928 23.4328 24.4628 25.8028 27.2728 28.9928 30.8728 32.2728 33.6228
2922.401 35.5528 37.3228 38.7828 40.4328 42.0428 43.4228 44.7728 45.8828 46.7028 47.4628
2941.691 47.8528 47.7728 47.4028 46.9328 46.4428 45.9128 45.5128 45.3028 45.6828 46.9728
2960.981 48.7228 50.5628 52.2628 53.7428 55.2728 56.1328 55.9528 54.6828 52.3728 49.3428
2980.271 45.8928 41.8328 36.9128 32.4528 28.5628 24.4128 20.8228 18.0528 15.5228 13.3628
2999.561 11.4428 9.8428 8.7828 7.8428 6.7928 6.1528 6.0628 5.5428 4.9828 4.7228
3018.850 4.2928 3.9128 3.5528 3.6728 3.7228 3.5428 3.3828 2.9228 3.0128 3.2028
3038.140 2.9828 2.6628 2.6228 2.9328 2.9328 2.8528 2.8128 2.6928 2.7528 2.8528
3057.430 2.9628 2.5028 2.1128 2.5228 2.5728 2.5828 2.5828 2.3928 2.3528 2.7028
3076.720 2.7728 2.7328 2.7728 2.7028 2.7428 2.6028 2.5628 2.5828 2.5028 2.6628
3096.009 2.7228 2.5128 2.4328 2.2828 2.4328 2.1528 1.9928 2.0828 1.6728 1.6328
3115.299 1.7028 1.8828 2.1628 2.0228 2.0428 2.1728 2.2728 2.0728 1.7628 1.9628
3134.589 1.9328 2.0328 2.0228 1.8628 1.7328 1.2928 1.5328 2.0328 1.9928 1.7728
3153.879 1.3928 1.5828 1.7028 1.5128 1.4528 1.4228 1.5328 1.4128 1.5628 1.5128
3173.169 1.4628 1.6328 1.4528 1.2028 1.3828 1.7128 1.2428 0.9162 1.0764 1.1628
3192.458 1.4028 1.4428 1.6328 1.6028 1.4128 1.2028 1.0077 1.3728 1.4128 1.0541
3211.748 1.0851 1.2528 1.2528 1.2628 1.0928 0.7509 0.6902 0.8227 1.2128 1.1828
3231.038 0.7095 0.7867 1.0614 1.2328 1.4828 1.2128 0.7387 0.8357 0.6118 0.7612
3250.328 1.3228 1.3528 1.0014 0.8916 0.8357 0.9367 1.2728 1.3928 1.5528 1.7328
3269.617 1.8328 1.8028 1.9928 2.1428 2.0528 2.3328 2.7628 3.0728 3.7328 4.0628
3288.907 4.4228 4.7328 4.6628 5.4728 6.3528 6.9228 7.4228 8.0128 8.8328 9.4228
3308.197 10.1028 10.9228 12.1328 14.0128 15.9428 17.5528 18.6528 19.0928 19.3328 18.8028
3327.487 17.1528 15.3728 13.5328 10.9928 8.1928 6.2128 4.8028 3.8428 3.3928 3.0928
3346.777 2.5828 2.4128 2.5528 2.4028 2.0228 1.7228 1.5428 1.1328 0.8751 0.8457
3366.066 1.4028 1.8328 1.5128 1.037 0.8607 1.1828 1.3828 1.2128 0.9604 1.2228
3385.356 1.7228 1.5328 1.4428 1.4928 1.2128 0.9569 0.9131 1.2528 1.3828 1.3228
3404.646 1.2228 1.1828 1.0092 0.9036 1.0464 0.9673 0.649 0.781 0.8818 0.9621
3423.936 1.1428 1.0683 1.1128 1.0928 0.8452 0.4319 0.7604 1.1128 0.7098 0.7083
3443.225 1.3328 1.1828 0.751 1.1028 1.3628 1.3828 1.2828 1.0775 0.9258 0.9941
3462.515 0.9411 0.7275 0.6257 0.4993 0.9416 1.4028 1.2828 1.1328 0.7975 0.7812
3481.805 0.8291 0.8239 0.9766 1.1028 1.0434 0.9223 0.8864 0.8375 1.2228 1.0327
3501.095 0.4747 0.5893 1.1228 1.3528 1.1828 0.941 0.6504 0.6523 0.8051 0.6818
3520.385 0.49 0.5354 0.761 0.6614 0.5239 0.8025 0.7356 0.3634 0.4127 0.6192
3539.674 0.7196 0.8178 0.9593 0.7689 0.5106 0.502 0.5633 0.3388 0.4369 0.6371
3558.964 0.7318 1.2628 1.2728 0.6296 0.3387 0.4273 0.3778 0.8009 1.0145 0.7273
3578.254 0.699 0.878 0.7771 0.6964 0.8675 0.8237 0.8526 1.1528 1.3328 1.0582
3597.544 1.2328 1.5028 1.0132 0.857 0.8224 0.8968 1.1228 1.2428 1.6128 1.6828
3616.833 1.7728 1.7628 1.9628 2.4628 2.9328 3.8728 4.7028 5.3328 5.8128 6.2628
3636.123 7.0028 7.5928 7.7328 7.5728 7.3728 6.9528 6.0928 5.2328 4.4028 3.6528
3655.413 3.0728 2.8828 3.0628 2.7628 2.2928 1.7328 1.0757 0.9661 1.2528 1.3028
3674.703 1.4828 1.5428 1.1728 0.6434 0.5166 0.9896 1.4728 1.3028 0.7662 0.6157
3693.993 0.844 0.6453 0.5833 0.4683 0 0.6577 1.0289 0.9495 0.837 0.6664
3713.282 0.7861 1.1528 1.2428 1.0627 1.0892 0.8622 0.949 1.1228 0.7 0.3837
3732.572 0.5706 0.5795 0.5711 0.6595 0.5471 0.4689 0.4843 0.6268 0.7103 0.6469
3751.862 0.6779 1.1228 1.4228 1.2828 1.2928 1.0338 0.7264 0.9212 0.7616 0.573
3771.152 0.5088 0.6182 0.6705 0.6301 0.7019 0.9073 1.4028 1.2628 1.1328 1.1628
3790.441 1.0805 1.0147 1.1028 0.9008 0.8994 1.4028 1.2428 1.0233 0.8417 0.583
3809.731 0.966 1.1328 0.8732 0.7794 0.8053 0.6796 0.5818 0.5289 0.2254 0.3327
3829.021 0.873 1.2428 1.0772 0.9152 1.1128 1.0913 0.8219 0.5112 0.4864 0.8743
3848.311 0.7447 0.4915 0.8862 1.1428 0.7035 0.688 0.9646 0.5876 0.4409 0.488
3867.601 0.5812 0.9957 1.2128 1.2428 1.0202 0.6404 0.4754 0.6069 1.0364 1.2228
3886.890 0.7905 0.4402 0.7949 1.0298 0.8574 0.8368 0.9122 1.0777 0.8336 0.4964
3906.180 0.8014 0.9421 1.0365 1.2828 1.1428 1.3628 1.3528 0.7496 0.6837 0.7938
3925.470 0.8653 1.0409 1.2128 1.2828 1.0649 0.9227 1.003 1.0058 0.9281 0.8102
3944.760 0.6198 0.5337 1.0852 1.5528 1.1928 1.0051 1.1128 0.8763 0.5947 0.8301
3964.049 1.1328 0.9189 0.6993 0.6415 0.5535 0.6556 0.475 0.4476 0.3385 0.2555
3983.339 0.099475 0.08909 0.6596 0.6004 0.8458 1.2728 1.0392 0.9137 0.8369 0.8242
##END=
