##TITLE=2-Fluoro-4-(trifluoromethyl)benzophenone
##JCAMP-DX=4.24
##DATA TYPE=INFRARED SPECTRUM
##ORIGIN=EPA-IR VAPOR PHASE LIBRARY
##OWNER=SRD/NIST
Collection (C) 2018 copyright by the U.S. Secretary of Commerce
on behalf of the United States of America. All rights reserved.
##CAS REGISTRY NO=207974-08-1
##MOLFORM=C 14 H 8 F 4 O
##$NIST SOURCE=MSDC-IR
##STATE=gas
##XUNITS=1/CM
##YUNITS=ABSORBANCE
##XFACTOR=1.
##YFACTOR=0.001
##DELTAX=1.92898
##FIRSTX=549.8
##LASTX=4000.7
##FIRSTY=8.306
##MAXX=4000.7
##MINX=549.759
##MAXY=0.306606
##MINY=0
##NPOINTS=1790
##XYDATA=(X++(Y..Y))
549.759 8.306 7.336 6.366 6.026 6.106 7.106 7.276 6.866 6.466 5.646
569.049 5.446 4.376 3.296 2.846 2.646 2.946 3.256 3.356 3.486 3.696
588.339 3.896 4.606 5.296 6.026 6.616 6.736 6.766 6.016 4.866 4.126
607.628 3.306 2.706 3.026 3.786 3.896 3.386 3.006 2.436 2.116 2.046
626.918 2.116 2.186 1.996 2.256 2.696 2.496 2.826 3.336 3.826 4.546
646.208 5.686 6.776 7.036 7.686 8.536 8.446 8.666 9.526 11.046 12.766
665.498 13.586 14.486 14.986 14.736 14.376 14.016 14.356 15.776 17.256 18.776
684.787 20.546 22.716 25.456 28.956 33.086 37.746 42.656 48.026 53.306 56.256
704.077 55.736 52.146 46.396 38.806 31.176 24.696 20.106 16.996 14.186 12.436
723.367 11.376 10.796 10.556 10.596 10.876 11.166 11.876 13.356 16.256 21.816
742.657 29.116 33.876 34.816 32.696 26.596 18.246 11.986 9.066 7.706 6.846
761.947 6.456 6.046 5.456 4.806 4.706 4.706 4.116 4.206 4.456 4.386
781.236 4.486 4.546 4.856 5.246 5.526 6.186 6.946 6.926 6.946 6.976
800.526 6.456 6.096 5.826 5.816 5.516 5.146 5.326 5.426 6.046 6.596
819.816 7.856 11.056 13.986 14.876 16.106 19.186 21.716 23.906 24.786 23.696
839.106 21.356 17.916 14.956 12.386 9.646 8.086 7.046 6.196 5.866 5.616
858.395 5.916 5.666 5.476 6.266 7.746 8.806 10.136 12.886 16.606 21.416
877.685 26.176 30.316 33.086 34.186 34.006 31.836 28.876 25.976 23.426 21.766
896.975 20.486 19.496 18.496 17.446 16.676 16.036 15.646 15.646 15.796 16.116
916.265 17.676 19.786 22.176 25.826 30.016 35.106 42.756 54.176 71.816 96.806
935.555 123.996 144.176 150.036 140.516 116.706 84.816 57.016 38.566 27.696 21.476
954.844 18.286 16.726 15.246 13.796 12.276 10.526 8.686 7.666 6.806 5.876
974.134 5.406 4.916 4.516 4.096 4.276 4.486 4.096 3.846 4.276 4.506
993.424 4.186 4.666 5.706 6.766 7.016 6.276 5.466 4.206 3.266 2.846
1012.714 2.686 3.236 3.666 3.806 4.406 5.756 6.686 6.596 6.466 6.136
1032.003 5.036 4.566 4.646 5.006 5.356 5.976 6.706 6.626 8.196 10.696
1051.293 12.996 16.666 22.546 31.466 41.976 53.486 63.496 67.206 64.106 54.986
1070.583 41.666 29.406 21.606 16.496 13.996 13.376 12.046 12.236 13.126 12.716
1089.873 12.636 11.966 11.636 12.106 11.616 12.306 14.506 15.796 17.316 19.636
1109.163 23.016 27.296 31.176 36.166 42.006 46.546 48.706 48.586 46.876 45.256
1128.452 44.396 45.156 49.026 54.486 62.436 73.956 88.986 108.016 131.416 158.686
1147.742 187.846 215.576 235.636 243.306 237.416 217.596 189.426 160.896 136.796 121.226
1167.032 115.266 117.206 125.516 139.756 156.386 172.116 182.126 182.806 173.346 154.346
1186.322 130.936 107.716 85.966 67.816 54.546 45.836 40.746 37.036 36.656 39.836
1205.611 45.136 52.126 60.386 69.116 74.696 74.716 69.456 61.026 52.826 46.876
1224.901 44.516 44.786 48.006 53.436 59.096 63.796 68.476 74.586 78.786 82.086
1244.191 82.846 79.236 71.876 61.956 51.796 42.326 35.576 32.456 31.756 32.976
1263.481 36.086 40.466 46.706 53.926 60.846 67.036 71.816 74.816 75.966 76.196
1282.771 76.246 75.786 75.626 75.216 73.286 69.866 66.246 63.216 60.756 58.686
1302.060 56.626 55.086 54.896 56.826 61.606 68.676 77.226 86.986 99.296 116.936
1321.350 142.516 178.326 222.796 267.776 299.586 306.606 284.866 238.016 178.496 123.546
1340.640 83.536 58.326 42.796 32.726 26.226 21.736 18.356 15.916 14.036 12.466
1359.930 11.416 10.556 9.816 9.396 9.176 9.196 9.246 9.306 9.266 9.296
1379.219 9.456 9.746 10.226 10.766 11.536 12.826 14.646 16.886 19.766 23.046
1398.509 26.536 30.586 34.876 39.396 44.346 49.986 56.266 63.526 72.256 82.986
1417.799 94.926 106.906 115.606 117.946 112.666 100.326 83.416 66.356 52.446 42.736
1437.089 36.126 31.946 29.936 30.176 31.906 33.856 34.366 32.616 29.056 24.176
1456.378 18.606 14.146 11.606 10.076 9.096 8.476 8.166 8.036 8.026 8.266
1475.668 8.646 9.046 9.446 9.746 10.356 11.086 12.126 13.626 15.496 17.966
1494.958 20.666 23.436 26.036 28.076 29.116 28.686 26.806 24.096 20.916 17.366
1514.248 14.266 11.926 10.116 8.886 7.936 7.226 6.636 6.286 6.126 5.936
1533.538 6.006 6.036 5.966 5.846 6.036 6.436 6.826 7.066 7.086 7.166
1552.827 7.246 7.316 7.506 7.866 8.146 8.736 9.486 10.486 11.836 13.096
1572.117 14.486 15.926 17.616 18.916 19.156 19.206 19.066 18.666 17.926 17.206
1591.407 17.146 17.246 17.256 17.086 16.966 16.166 14.736 13.286 11.856 10.756
1610.697 10.226 10.236 10.666 11.306 12.136 12.936 13.396 13.266 12.836 12.366
1629.986 11.666 11.126 10.746 10.236 9.806 9.626 9.676 9.636 9.736 10.056
1649.276 10.176 10.236 10.466 10.936 11.436 11.936 12.776 13.816 15.096 16.706
1668.566 19.046 21.966 25.496 30.346 37.016 45.466 56.486 69.376 83.556 96.806
1687.856 105.956 110.376 108.966 102.376 91.216 78.226 65.686 53.796 44.416 36.696
1707.146 30.786 26.316 22.846 19.866 17.506 15.766 14.366 13.126 12.156 11.236
1726.435 10.366 9.546 8.836 8.126 7.306 6.546 5.926 5.446 5.096 4.926
1745.725 4.836 4.716 4.836 4.946 5.166 5.526 5.846 6.276 6.326 6.246
1765.015 6.186 5.746 5.126 4.666 4.676 4.536 4.056 3.846 3.746 3.686
1784.305 3.636 3.616 3.706 3.566 3.346 3.286 3.366 3.476 3.486 3.586
1803.594 3.766 3.806 3.796 3.836 3.846 3.546 3.316 3.186 2.866 2.746
1822.884 2.626 2.396 2.246 2.146 2.136 2.086 2.076 1.996 1.7664 1.5845
1842.174 1.572 1.6181 1.5642 1.5588 1.6994 1.7174 1.6213 1.7 1.6663 1.6095
1861.464 1.6287 1.5387 1.5967 1.7427 1.6259 1.509 1.6405 1.7645 1.866 1.836
1880.754 1.846 1.956 1.966 2.096 2.366 2.536 2.726 2.956 3.086 3.156
1900.043 3.206 3.276 3.376 3.456 3.526 3.546 3.536 3.606 3.526 3.356
1919.333 3.106 2.926 2.676 2.396 2.266 2.086 2.056 1.916 1.7324 1.886
1938.623 2.016 1.956 1.926 2.046 2.096 2.186 2.416 2.596 2.726 2.736
1957.913 2.736 2.696 2.626 2.566 2.406 2.356 2.436 2.476 2.356 2.246
1977.202 2.226 2.046 1.796 1.6038 1.4702 1.44 1.4494 1.4279 1.4471 1.4859
1996.492 1.3893 1.3911 1.4531 1.4021 1.3273 1.0935 1.0514 1.2114 1.171 1.0385
2015.782 0.9972 1.0652 1.0825 1.0139 1.0039 1.0905 1.051 0.9214 1.092 1.2138
2035.072 1.1691 1.1596 1.1522 1.1143 1.0388 1.1538 1.1627 1.1097 1.1804 1.2878
2054.362 1.3251 1.2334 1.1051 1.108 1.2611 1.4079 1.6287 1.6428 1.5573 1.7114
2073.651 1.886 1.916 1.976 1.816 1.4207 1.3666 1.3835 1.4126 1.4024 1.299
2092.941 1.2592 1.2883 1.3287 1.348 1.4369 1.4266 1.3635 1.4181 1.489 1.4333
2112.231 1.3385 1.41 1.4379 1.3372 1.3157 1.2181 1.1321 1.2768 1.2851 1.1124
2131.521 1.0475 1.0177 1.0767 1.0844 1.1275 1.1819 1.1312 1.0512 1.129 1.1939
2150.810 1.1505 1.1921 1.0008 1.0739 1.2689 1.0754 0.9849 1.0785 1.1813 1.1284
2170.100 1.1404 1.091 1.0504 1.1482 1.1182 1.1765 1.0704 0.9836 1.0983 1.1116
2189.390 1.1363 1.077 0.9463 1.0595 1.1984 1.2235 1.126 1.2246 1.3487 1.2383
2208.680 1.3388 1.4022 1.3705 1.5099 1.4806 1.2828 1.3532 1.5751 1.488 1.4201
2227.970 1.323 1.2809 1.2805 1.2041 1.4232 1.3454 1.2654 1.3212 1.3477 1.3171
2247.259 1.3488 1.4664 1.3984 1.3591 1.3946 1.3495 1.2957 1.3682 1.4893 1.4559
2266.549 1.4225 1.7072 1.7435 1.5634 1.5159 1.5509 1.5673 1.4531 1.6047 1.6738
2285.839 1.7109 1.806 1.6986 1.7156 1.6497 1.4837 1.5994 1.7532 1.6148 1.4762
2305.129 1.4415 1.3581 1.5775 1.7613 1.7565 1.936 2.046 1.936 1.866 1.816
2324.418 1.866 1.986 1.886 1.906 1.836 1.6583 1.846 1.946 1.782 1.6424
2343.708 1.727 1.886 1.6948 1.5562 1.5863 1.796 1.956 1.926 1.786 1.6325
2362.998 1.566 1.4923 1.3995 1.3045 1.3147 1.2143 1.1155 1.2267 1.2948 1.1483
2382.288 1.1441 1.3772 1.4468 1.5514 1.6778 1.6412 1.4594 1.5109 1.5312 1.4338
2401.578 1.5334 1.3676 1.2255 1.456 1.394 1.2012 1.238 1.1691 1.1217 1.3452
2420.867 1.4143 1.3174 1.3468 1.3502 1.3047 1.2069 1.2523 1.3145 1.3959 1.535
2440.157 1.4059 1.236 1.2012 1.3148 1.3878 1.2502 1.0357 0.9644 1.1279 1.2398
2459.447 1.0501 1.2069 1.5212 1.4602 1.4788 1.2342 1.1952 1.4535 1.505 1.2657
2478.737 0.9945 1.0592 1.2434 1.1327 1.0454 1.2419 1.3797 1.2966 1.4481 1.375
2498.026 1.1506 1.1789 1.4001 1.4997 1.1478 1.0922 1.2723 1.3247 1.436 1.5792
2517.316 1.5843 1.6329 1.5925 1.2959 1.3422 1.5271 1.3575 1.2084 1.1567 1.2077
2536.606 1.1658 1.0861 1.1018 1.0019 0.9341 1.0228 1.0727 1.2477 1.4479 1.2602
2555.896 1.0214 1.0556 1.1639 1.2322 1.3421 1.4814 1.4636 1.1988 1.1628 1.3387
2575.186 1.0997 1.0408 1.344 1.4569 1.3635 1.3064 1.5376 1.5754 1.2539 1.2471
2594.475 1.2056 1.1313 1.3159 1.1575 1.1871 1.3034 1.3412 1.4024 1.0653 0.80283
2613.765 0.85856 1.0496 1.1995 1.2061 1.1565 1.2635 1.2092 0.9975 1.1352 1.281
2633.055 1.2809 1.2438 1.0886 1.0603 1.2249 1.2895 1.1588 1.1023 1.287 1.458
2652.345 1.3019 1.2016 1.3201 1.2104 1.0596 1.0031 0.8601 0.79829 0.9589 0.82333
2671.634 0.7332 0.7154 0.422 0.654 0.792091 0.508 0.52 0.61 0.591 0.44
2690.924 0.7249 1.1593 0.81053 0.7065 0.79609 0.791187 0.9612 0.87621 0.87893 1.0271
2710.214 1.1429 1.1543 0.9773 1.1422 1.4422 1.1937 0.8863 1.0609 1.2579 1.2943
2729.504 1.3523 1.2483 1.128 1.2315 1.2512 1.2362 1.122 1.0227 1.0403 1.0966
2748.794 1.301 1.3408 1.3608 1.5013 1.3096 1.09 1.1497 0.9924 0.88166 0.87926
2768.083 0.7462 0.8165 0.9918 1.0777 0.9318 0.80044 0.79905 0.87258 0.86238 0.7626
2787.373 0.87882 0.81368 0.7065 0.7606 0.86048 0.7103 0.609 0.578 0.613 0.7672
2806.663 0.790762 0.7361 0.7276 0.8991 0.7685 0.87854 1.0402 1.1133 1.2157 1.0019
2825.953 0.8349 0.597 0.574 0.86725 1.0442 1.1848 0.96 0.7161 1.0828 1.1906
2845.242 1.103 1.1784 1.2468 1.246 1.3491 1.3776 1.3161 1.2484 1.0629 1.1341
2864.532 1.1145 1.1947 1.2812 1.0154 1.2989 1.5918 1.3395 1.2543 1.501 1.533
2883.822 1.3981 1.4159 1.3227 1.2599 1.1728 1.131 1.0372 0.83494 0.9184 1.0521
2903.112 1.0278 0.9761 1.0577 1.2651 1.3536 1.2666 0.983 0.9228 0.9881 0.7634
2922.401 0.81083 0.9819 0.9505 0.9442 0.87028 1.0622 1.2398 1.0416 0.9654 1.2094
2941.691 1.3944 1.4771 1.4902 1.2985 1.4278 1.569 1.4824 1.441 1.4126 1.4111
2960.981 1.3782 1.2919 1.1885 0.9054 0.81525 0.9034 1.0158 0.9322 1.1413 1.2658
2980.271 0.80388 0.88367 1.1021 0.9948 1.024 1.148 1.2915 1.5296 1.5958 1.5922
2999.561 1.4917 1.55 1.806 1.7293 1.7117 1.956 1.7514 1.7106 2.216 2.386
3018.850 2.706 3.456 4.146 4.606 4.916 5.376 5.826 6.126 6.536 6.846
3038.140 7.086 7.076 6.796 6.686 6.226 5.886 5.876 5.646 5.986 6.676
3057.430 7.336 8.216 9.406 10.736 12.326 14.256 15.696 17.206 18.416 18.466
3076.720 17.466 15.696 14.606 13.976 13.496 13.626 13.616 13.376 12.586 11.146
3096.009 9.866 8.656 7.866 7.156 6.116 5.356 4.776 3.986 3.306 2.836
3115.299 2.556 2.206 1.727 1.7479 1.782 1.4134 1.0304 1.0829 1.3555 0.9923
3134.589 0.7622 0.9859 1.0524 1.0202 1.2978 1.2584 1.052 1.0924 1.0625 1.1978
3153.879 1.4427 1.4448 1.3042 1.4028 1.303 1.2186 1.5208 1.4741 1.2555 1.0355
3173.169 0.8716 0.86171 0.8793 1.1787 0.82012 0.513 0.87017 1.2724 1.4661 1.2186
3192.458 1.0083 1.0769 1.135 0.9629 0.667 0.471 0.8142 0.9815 0.5 0.362
3211.748 0.7001 0.87912 0.84318 0.6875 0.638 0.552 0.235 0.238 0.583 0.7581
3231.038 0.81886 0.84038 0.9028 0.9021 0.617 0.586 0.788431 0.8144 0.84266 0.9117
3250.328 0.66 0.493 0.603 0.506 0.462 1.0854 1.0723 0.57 0.579 0.88437
3269.617 1.4579 1.2186 0.793437 0.8888 0.80311 0.9149 1.2148 1.0949 0.594 0.429
3288.907 0.9326 1.0299 0.906 1.3572 1.244 0.85902 0.8914 0.792184 0.664 0.83949
3308.197 0.9716 1.1879 1.267 0.555 0.249 0.67 0.87862 0.766 0.80406 1.1282
3327.487 1.2678 0.9953 1.1558 0.85734 0.653 1.2797 1.3648 0.80084 1.0739 1.796
3346.777 1.4648 1.6752 2.086 1.7821 1.5696 1.6525 1.786 1.976 2.346 2.576
3366.066 2.436 2.456 2.486 1.846 1.5139 1.5168 1.4416 1.4296 1.5916 1.4874
3385.356 1.1437 1.189 1.2 0.88176 0.80133 0.8868 0.8876 0.9013 0.9072 0.83741
3404.646 0.7045 0.7597 0.7416 0.597 0.80278 1.0893 0.9107 0.558 0.565 0.9439
3423.936 1.1428 0.942 0.769 1.0242 0.9073 0.636 0.751 0.88552 0.791782 0.7224
3443.225 0.87102 0.63 0.319 0.147 0.124 0.7203 1.4167 1.3537 1.0708 0.8879
3462.515 0.642 0.586 0.531 0.528 0.555 0.549 0.9869 1.2294 0.734 0.412
3481.805 0.644 0.86126 0.7467 0.478 0.488 0.609 0.312 0.152 0.7538 0.7039
3501.095 0.48 0.7227 0.571 0.651 0.81342 0.7742 0.678 0.379 0.187 0.544
3520.385 1.3354 1.3305 0.9198 0.86272 0.636 0.7112 0.9623 1.0123 0.7089 0.359
3539.674 0.164 0.398 0.498 0.5 0.7662 0.428 0.525 0.8744 0.386 0.005
3558.964 0.595 1.3288 1.4802 0.9967 0.43 0.436 0.6985 0.527 0.567 0.676
3578.254 0.274 0.175 0.541 0.643 0.7207 0.88466 0.7279 0.83724 0.9819 0.81902
3597.544 0.454 0.79939 0.87045 0.365 0.134 0.194 0.617 0.507 0.512 0.589
3616.833 0.407 0.7787 0.7552 0.618 0.603 0.558 0.7482 0.4 0.168 0.363
3636.123 0 0.204 0.6914 0.578 0.195 0.463 0.649 0.284 0.486 0.9687
3655.413 0.99 0.8807 0.601 0.093 0.195 0.237 0.599 1.077 1.0534 0.9542
3674.703 0.85466 0.9349 0.9968 0.921 0.86409 1.0214 0.9283 0.676 0.6913 0.528
3693.993 0.458 0.584 0.82386 0.87604 0.82365 0.84356 0.7691 0.790077 0.668 0.85606
3713.282 0.9315 0.81028 0.561 0.546 1.1332 1.2004 0.8225 1.0799 1.2556 1.0769
3732.572 1.0671 0.8072 0.7056 0.367 0.185 0.47 0.597 0.7022 0.84138 0.8607
3751.862 1.0445 1.3577 1.1981 0.86453 0.7243 0.58 0.63 0.9322 1.1231 1.1067
3771.152 1.102 0.8919 0.348 0.186 0.724 1.1932 1.2117 1.0934 0.9119 1.1629
3790.441 1.4461 1.0261 0.651 0.681 0.67 0.661 1.0584 1.161 1.1324 0.82525
3809.731 0.6964 0.7229 0.7007 1.0763 1.0996 0.363 0.436 0.968 0.84225 0.9967
3829.021 1.0868 1.1115 0.9883 0.468 0.408 0.9492 1.1782 0.7535 0.87112 1.3221
3848.311 1.1202 0.534 0.447 1.1176 0.8449 0.488 0.61 0.514 0.386 0.585
3867.601 0.7745 0.77998 0.679 0.657 0.85946 0.454 0.316 0.7276 0.7428 0.7384
3886.890 0.382 0.337 0.756 0.625 0.578 0.682 0.444 0.666 0.9045 0.9208
3906.180 1.1478 0.87097 0.467 0.465 0.785676 0.80829 0.418 0.131 0.482 0.9616
3925.470 0.926 0.6897 0.287 0.425 0.8965 0.9839 0.7138 0.667 1.001 0.7378
3944.760 0.391 0.7609 1.0192 0.9259 1.3338 1.1457 0.6914 0.7384 1.0435 1.446
3964.049 1.2904 1.2102 1.0917 0.80596 0.9633 0.9071 0.471 0.543 0.80769 0.79674
3983.339 1.0714 1.1916 1.2383 1.0218 0.83482 1.086 1.2705 1.3619 1.2451 1.2169
##END=
