##TITLE=2-Fluoro-3-(trifluoromethyl)benzyl alcohol
##JCAMP-DX=4.24
##DATA TYPE=INFRARED SPECTRUM
##ORIGIN=EPA-IR VAPOR PHASE LIBRARY
##OWNER=SRD/NIST
Collection (C) 2018 copyright by the U.S. Secretary of Commerce
on behalf of the United States of America. All rights reserved.
##CAS REGISTRY NO=207981-45-1
##MOLFORM=C 8 H 6 F 4 O
##$NIST SOURCE=MSDC-IR
##STATE=gas
##XUNITS=1/CM
##YUNITS=ABSORBANCE
##XFACTOR=1.
##YFACTOR=0.001
##DELTAX=1.92898
##FIRSTX=549.8
##LASTX=4000.7
##FIRSTY=5.808
##MAXX=4000.7
##MINX=549.759
##MAXY=0.351218
##MINY=0
##NPOINTS=1790
##XYDATA=(X++(Y..Y))
549.759 5.808 6.098 5.198 3.938 4.818 4.948 5.228 5.678 5.688 5.758
569.049 5.068 5.018 5.278 5.838 6.528 5.648 4.978 5.458 6.038 5.768
588.339 5.038 5.148 5.678 5.418 5.178 5.528 5.468 6.018 6.738 6.948
607.628 7.618 8.878 9.518 9.458 9.798 10.048 10.768 11.538 11.478 11.358
626.918 11.638 11.728 11.618 11.818 12.358 12.628 12.928 13.608 14.258 14.578
646.208 15.448 16.568 16.538 16.968 17.458 16.428 14.818 13.388 11.898 10.128
665.498 8.048 6.648 5.678 4.808 4.428 4.238 3.838 3.658 3.598 3.318
684.787 2.868 2.618 2.988 3.288 3.378 3.408 3.428 3.258 3.248 3.688
704.077 3.478 3.178 3.448 3.418 3.058 3.428 4.028 4.338 5.268 6.218
723.367 7.398 9.338 11.628 13.998 16.888 19.798 22.738 25.518 27.938 30.558
742.657 33.418 35.518 35.028 32.688 29.558 26.648 24.088 20.558 17.158 14.468
761.947 11.798 10.268 9.488 8.638 8.448 8.738 9.248 10.238 11.958 13.958
781.236 16.438 19.238 22.148 25.128 27.728 29.918 31.558 32.178 30.498 27.698
800.526 24.758 21.918 19.358 16.368 14.088 12.658 10.778 9.728 10.618 11.858
819.816 12.638 14.678 17.538 19.758 20.978 20.958 20.558 21.148 21.288 19.208
839.106 16.358 13.488 11.098 9.268 7.708 7.248 7.678 7.888 8.288 8.908
858.395 9.948 10.878 11.068 11.798 12.788 13.258 12.978 12.418 11.998 11.528
877.685 10.928 10.008 9.448 8.788 7.828 7.278 6.698 6.268 5.898 5.238
896.975 4.948 4.888 4.858 4.848 4.418 4.698 5.178 4.918 4.878 5.098
916.265 5.358 5.318 5.168 5.318 5.538 5.518 5.478 6.078 6.568 6.668
935.555 6.728 7.218 8.208 8.888 9.768 10.638 11.018 11.328 11.898 12.798
954.844 13.318 13.728 14.288 14.308 14.088 14.288 14.108 13.418 13.568 13.688
974.134 12.548 12.058 12.148 11.508 11.228 11.238 11.008 11.028 11.258 11.518
993.424 12.058 12.938 14.078 14.788 15.978 17.718 18.898 20.708 22.918 24.478
1012.714 26.498 29.148 30.898 32.148 33.828 34.648 35.168 36.228 36.588 36.788
1032.003 36.178 34.618 32.908 31.178 30.668 30.288 29.198 29.018 28.358 27.368
1051.293 27.658 28.208 28.278 28.158 28.748 29.338 30.018 30.568 30.288 30.278
1070.583 29.408 29.578 31.218 31.588 32.308 32.858 32.308 32.848 32.698 32.208
1089.873 32.588 33.298 33.478 33.048 34.208 35.948 38.608 43.268 49.318 57.018
1109.163 69.328 84.238 99.468 114.308 127.128 136.398 141.258 144.708 142.398 133.878
1128.452 123.838 113.488 106.208 103.708 105.798 111.648 119.878 129.868 141.938 157.448
1147.742 174.408 191.058 209.298 230.658 253.678 277.988 304.678 329.008 345.418 351.218
1167.032 346.298 332.578 311.498 286.328 259.938 232.228 205.108 180.588 157.548 137.888
1186.322 121.638 105.898 91.538 78.398 67.328 60.038 52.968 46.178 43.208 41.258
1205.611 39.108 36.758 35.358 36.088 37.238 40.358 44.288 47.488 53.018 60.098
1224.901 65.888 71.288 75.538 78.318 79.558 77.578 74.048 69.038 61.768 53.718
1244.191 46.298 40.428 35.358 31.798 29.228 27.248 26.718 27.078 27.058 27.638
1263.481 27.728 27.038 26.798 26.878 26.908 26.058 25.668 25.338 24.958 25.588
1282.771 26.218 26.078 26.658 27.648 28.368 29.488 31.038 33.008 35.568 38.798
1302.060 43.318 48.818 55.608 65.028 77.468 93.768 115.328 142.338 175.238 213.058
1321.350 251.518 285.868 311.528 325.168 325.658 312.598 285.698 247.218 200.968 153.598
1340.640 113.048 83.638 64.078 51.588 43.358 37.628 33.758 30.918 28.568 26.858
1359.930 25.618 24.708 24.328 24.188 24.198 24.438 24.678 25.078 25.338 25.628
1379.219 25.828 25.898 26.008 25.808 25.308 24.538 23.738 22.688 21.748 20.738
1398.509 19.588 18.488 17.448 16.668 15.958 15.268 14.668 14.178 13.608 13.128
1417.799 12.668 12.118 11.728 11.548 11.498 11.458 11.508 11.648 11.998 12.488
1437.089 13.368 14.658 16.308 18.628 21.618 25.308 30.268 36.008 42.848 50.148
1456.378 57.958 66.388 73.158 79.028 84.528 89.288 92.738 94.228 93.088 90.268
1475.668 86.098 80.268 73.248 65.458 57.228 48.908 40.918 33.678 27.298 22.238
1494.958 18.398 15.288 13.008 11.418 10.338 9.318 8.588 7.998 7.188 6.548
1514.248 6.348 6.128 5.528 4.998 4.608 4.298 4.208 4.058 3.868 3.818
1533.538 3.708 3.498 3.348 3.108 2.898 3.018 3.148 3.108 3.148 3.258
1552.827 3.258 3.238 3.258 3.288 3.558 4.128 4.418 4.818 5.548 6.068
1572.117 6.978 8.018 8.928 10.328 11.938 13.638 15.118 16.808 18.948 21.158
1591.407 22.678 23.858 25.048 25.558 25.838 25.998 25.798 25.398 25.118 24.858
1610.697 24.748 25.068 25.848 26.358 26.398 26.158 25.718 25.118 24.038 22.308
1629.986 20.528 18.668 16.768 15.348 14.138 12.868 11.558 10.588 9.568 8.508
1649.276 7.908 7.358 6.918 6.618 6.238 6.098 5.908 5.478 4.948 4.728
1668.566 4.658 4.448 4.248 4.058 3.728 3.498 3.258 2.918 2.658 2.748
1687.856 2.948 2.868 2.768 2.788 2.748 2.788 2.998 3.308 3.478 3.598
1707.146 3.618 3.688 3.698 3.608 3.468 3.188 3.038 2.818 2.578 2.548
1726.435 2.328 1.968 1.918 1.958 2.068 2.058 1.918 1.738 1.778 1.958
1745.725 1.888 1.968 1.978 2.058 2.218 1.828 1.668 1.798 1.638 1.648
1765.015 1.708 1.838 1.928 1.798 1.858 1.758 1.648 1.808 1.918 1.738
1784.305 1.608 1.488 1.568 1.608 1.618 1.728 1.698 1.728 1.698 1.658
1803.594 1.738 1.838 1.838 1.748 1.678 1.658 1.718 1.768 1.738 1.868
1822.884 2.028 1.978 1.948 2.028 1.998 1.848 1.918 1.928 1.748 1.598
1842.174 1.518 1.448 1.418 1.378 1.398 1.578 1.578 1.568 1.658 1.638
1861.464 1.748 1.998 1.808 1.768 2.078 2.028 2.178 2.558 2.798 3.208
1880.754 3.468 3.558 3.698 3.828 3.698 3.478 3.428 3.278 2.958 2.728
1900.043 2.538 2.288 2.258 2.088 1.878 1.748 1.688 1.688 1.638 1.668
1919.333 1.578 1.618 1.708 1.818 1.858 1.948 2.188 2.288 2.418 2.448
1938.623 2.388 2.568 2.768 2.658 2.628 2.588 2.328 2.258 2.388 2.288
1957.913 2.008 1.848 1.698 1.528 1.448 1.558 1.488 1.388 1.538 1.428
1977.202 1.418 1.508 1.3417 1.2916 1.3182 1.3389 1.438 1.388 1.3056 1.438
1996.492 1.548 1.668 1.728 1.568 1.518 1.588 1.488 1.3295 1.3487 1.388
2015.782 1.498 1.688 1.668 1.668 1.638 1.658 1.728 1.698 1.798 1.918
2035.072 2.098 2.148 1.978 2.128 2.178 2.018 2.078 2.168 2.078 2.048
2054.362 2.168 2.258 2.318 2.278 2.098 2.078 2.168 2.178 2.068 1.878
2073.651 1.938 1.938 1.678 1.668 1.678 1.538 1.458 1.608 1.558 1.3429
2092.941 1.358 1.2336 1.3248 1.508 1.388 1.332 1.2271 1.1923 1.2044 1.0978
2112.231 1.138 0.9618 0.9581 1.0759 0.9464 0.963 1.0226 1.0214 1.0025 1.103
2131.521 1.2324 1.2264 1.2516 1.1819 1.1539 1.0511 0.9259 1.1846 1.3432 1.209
2150.810 1.1263 1.1753 1.1965 1.1168 1.086 1.2594 1.2745 1.245 1.326 1.3105
2170.100 1.418 1.398 1.2341 1.1912 1.286 1.3399 1.3436 1.3003 1.478 1.638
2189.390 1.588 1.738 1.858 1.808 1.648 1.738 1.828 1.718 1.538 1.508
2208.680 1.568 1.658 1.518 1.588 1.648 1.478 1.538 1.478 1.588 1.538
2227.970 1.518 1.678 1.638 1.658 1.738 1.788 1.708 1.678 1.828 1.778
2247.259 1.708 1.898 2.038 2.048 2.138 2.008 1.838 1.768 1.708 1.788
2266.549 1.898 1.838 1.798 1.848 1.918 2.088 2.088 1.958 1.928 2.078
2285.839 2.098 2.328 2.308 2.058 2.138 2.108 1.938 1.968 2.128 2.058
2305.129 2.018 1.988 1.938 1.928 2.148 2.168 2.058 2.078 2.308 2.458
2324.418 2.358 2.298 2.118 2.198 2.258 2.158 2.228 2.188 2.248 2.318
2343.708 2.128 1.968 2.108 2.218 2.268 2.098 1.688 1.628 1.668 1.608
2362.998 1.718 1.748 1.838 1.818 1.578 1.548 1.608 1.738 1.568 1.202
2382.288 1.2683 1.578 1.538 1.508 1.748 1.698 1.488 1.378 1.3382 1.249
2401.578 1.28 1.358 1.1719 1.1075 1.2134 1.3393 1.478 1.598 1.578 1.528
2420.867 1.528 1.378 1.1668 1.3416 1.478 1.438 1.498 1.528 1.588 1.568
2440.157 1.538 1.648 1.748 1.798 2.048 1.978 1.788 1.778 1.588 1.798
2459.447 1.758 1.618 1.788 1.718 1.778 1.738 1.718 1.798 1.748 1.708
2478.737 1.628 1.438 1.488 1.748 1.658 1.378 1.3201 1.598 1.738 1.508
2498.026 1.257 1.1245 1.418 1.558 1.408 1.448 1.378 1.3143 1.2728 1.1814
2517.316 1.0664 1.0244 1.3198 1.418 1.3142 1.408 1.408 1.388 1.3278 1.3575
2536.606 1.518 1.438 1.2158 1.428 1.398 1.1214 1.0904 1.1698 1.1943 1.1068
2555.896 1.0857 1.1398 1.358 1.1549 1.0062 1.0401 0.9286 1.1474 1.2606 1.267
2575.186 1.2721 1.2058 1.0155 0.965 0.9822 0.9855 0.9841 1.0969 1.2885 1.0763
2594.475 0.892 0.9018 0.9074 0.7755 0.8389 0.9271 1.0686 1.1955 0.9577 0.8554
2613.765 1.013 1.1447 1.1527 0.9073 0.9542 1.1852 1.1479 1.0243 1.1399 1.193
2633.055 1.2652 1.3076 1.1497 0.9925 0.9599 1.438 1.458 1.1203 1.2373 1.378
2652.345 1.628 1.638 1.528 1.608 1.3351 1.3312 1.418 1.1226 0.9893 1.018
2671.634 0.766 0.7156 0.9555 0.8093 0.7824 0.7991 0.6615 0.9611 1.2748 1.1779
2690.924 1.0672 1.1548 1.418 1.458 1.2268 1.1949 1.1593 1.3068 1.618 1.598
2710.214 1.648 1.748 1.588 1.608 1.578 1.608 1.518 1.2931 1.378 1.528
2729.504 1.488 1.2423 1.468 1.728 1.758 1.628 1.638 1.738 1.548 1.448
2748.794 1.2914 1.2616 1.3166 1.378 1.3397 1.418 1.418 1.608 1.858 1.938
2768.083 2.068 1.818 1.528 1.708 1.618 1.468 1.708 1.848 1.668 1.678
2787.373 1.548 1.538 1.888 1.878 2.038 2.168 2.078 2.028 2.068 1.928
2806.663 2.058 2.408 2.258 2.128 2.308 2.348 2.108 2.068 2.088 2.208
2825.953 2.358 2.388 2.648 2.658 2.588 2.588 2.808 2.928 3.118 3.458
2845.242 3.558 3.428 3.348 3.628 3.798 3.928 4.258 4.758 4.858 4.908
2864.532 5.438 6.028 6.438 6.858 7.268 7.728 8.268 8.828 9.398 9.838
2883.822 10.238 10.988 11.628 12.178 12.598 12.528 12.448 12.368 12.648 12.698
2903.112 12.228 11.588 11.258 11.098 10.548 9.748 9.308 9.268 9.758 9.888
2922.401 9.508 9.678 9.828 9.678 9.748 10.248 10.668 10.828 10.928 11.198
2941.691 11.238 11.058 11.258 11.308 10.808 10.488 10.458 10.318 10.078 9.818
2960.981 9.808 9.898 9.578 9.078 8.988 8.878 8.348 8.008 7.848 7.628
2980.271 7.248 6.788 6.328 5.938 5.678 5.128 4.658 4.258 3.808 3.778
2999.561 3.538 3.288 3.228 3.128 2.938 2.808 3.108 2.948 2.688 2.438
3018.850 2.248 2.748 2.778 2.818 3.278 3.298 3.278 3.508 3.308 2.978
3038.140 3.008 3.008 3.108 3.218 3.468 3.668 3.458 3.928 4.348 4.308
3057.430 4.878 5.108 5.148 5.698 5.568 5.498 6.038 5.698 5.508 5.708
3076.720 5.318 5.028 4.908 4.868 5.028 4.838 4.698 5.038 5.208 4.968
3096.009 4.398 4.128 3.898 3.828 3.808 3.518 3.168 2.808 2.758 2.248
3115.299 1.528 1.2525 1.3385 1.968 1.448 0.905 0.9746 0.8426 0.7074 0.6194
3134.589 0.7939 0.6688 0.7371 1.0733 1.1603 1.1604 0.982 0.8696 0.6025 0.3134
3153.879 0.7457 0.9907 1.0183 1.061 0.8465 0.7175 0.7347 1.0139 1.2597 0.8968
3173.169 0.7652 0.7717 0.818 0.7287 0.7542 0.9891 1.01 0.9916 0.8599 0.8916
3192.458 0.8317 0.87 1.0898 1.1362 0.8295 0.925 1.2304 0.9612 0.6624 0.8217
3211.748 1.0922 0.9111 0.9322 1.1599 0.9542 1.0047 1.1346 0.8588 0.8702 0.9455
3231.038 0.7909 0.9509 0.9885 0.9301 1.0444 1.0573 0.9485 1.1686 1.066 0.8145
3250.328 1.2384 1.398 1.0836 1.0416 0.782 0.4929 0.5535 0.6257 0.5431 0.5344
3269.617 0.646 0.3318 0.5025 0.7467 0.5666 1.0009 1.1059 0.7032 0.9849 1.1507
3288.907 1.0595 0.6744 0.629 0.9352 1.1018 0.9217 0.5498 0.5479 0.6165 0.8078
3308.197 0.9322 0.9298 0.8585 0.9182 0.5814 0.321 0.7056 0.5846 0.111 0
3327.487 0.127 0.2911 0.5135 0.6156 0.162 0.40177 0.9362 0.6297 0.7459 1.067
3346.777 0.7956 0.6244 0.9894 1.1388 0.7324 0.805 1.3213 1.3412 1.1439 0.9071
3366.066 1.0222 1.2196 0.8504 0.7329 0.7221 0.6057 0.5744 0.7775 0.758 0.9672
3385.356 1.2279 0.8202 0.39424 0.4795 0.7504 0.7722 1.1218 1.448 0.9931 0.364529
3404.646 0.37579 0.8592 0.8519 0.7401 1.0784 1.2302 1.187 1.0467 1.378 2.028
3423.936 1.618 0.6912 0.96 1.3113 1.1874 1.418 1.358 1.408 1.488 1.478
3443.225 1.958 1.498 0.6826 0.9979 1.2409 1.1923 1.0625 1.0225 1.3016 1.468
3462.515 1.1957 1.2152 1.538 1.2596 1.2945 1.2324 1.3274 1.15 0.9187 1.2132
3481.805 0.804 0.5142 0.6836 1.0657 1.0761 0.5232 0.7033 1.438 1.488 1.1828
3501.095 1.107 1.152 1.488 1.788 1.678 1.418 1.358 1.478 1.2775 0.8745
3520.385 0.7271 0.4663 0.5847 1.1734 1.3178 1.1317 1.1053 1.295 1.588 1.798
3539.674 1.688 1.3558 1.3228 1.3474 1.508 1.548 1.0627 1.135 1.488 1.2214
3558.964 1.089 1.1495 1.057 1.368 1.478 1.0946 1.1719 1.368 1.1232 1.182
3578.254 1.508 1.728 1.748 1.668 1.488 1.2216 1.3126 1.478 1.378 1.718
3597.544 1.888 1.968 2.428 2.038 1.968 2.398 2.698 2.608 2.718 2.958
3616.833 2.998 3.158 3.288 3.368 3.348 3.588 3.688 3.998 4.418 4.748
3636.123 5.718 6.388 6.408 7.258 7.938 9.018 10.778 11.778 12.468 13.268
3655.413 14.708 15.748 16.198 16.948 16.968 16.378 15.758 14.798 13.998 13.218
3674.703 12.678 12.198 11.118 10.408 9.958 9.018 8.438 7.838 7.098 6.098
3693.993 5.148 5.138 4.738 3.998 3.728 3.948 3.948 3.338 2.938 2.828
3713.282 2.768 2.638 2.278 2.008 1.818 1.838 1.828 1.798 1.558 1.0218
3732.572 1.0688 1.668 1.768 1.2244 1.398 1.388 1.0581 1.0028 0.7908 1.0647
3751.862 1.608 1.408 1.0121 1.1973 1.214 1.588 1.978 1.738 1.408 0.6927
3771.152 0.099 0.8188 1.668 1.458 1.2029 1.378 1.718 1.808 1.398 1.358
3790.441 1.518 1.2441 0.5231 0.4831 0.8846 0.5801 0.5722 0.362512 0.51 0.7346
3809.731 0.7882 0.9928 1.0317 1.0653 0.8572 0.39825 0.5183 0.7091 0.6494 0.7127
3829.021 1.0974 1.748 1.438 1.378 1.488 1.438 1.2899 1.2144 1.2089 0.8889
3848.311 0.9445 0.9307 1.1699 1.458 1.478 1.458 1.618 1.688 1.388 1.1212
3867.601 1.0977 1.438 1.638 1.768 1.598 1.358 1.428 1.1701 0.7136 1.2577
3886.890 1.748 1.3058 1.2927 1.0024 1.2456 1.998 1.728 1.3515 1.3066 1.3221
3906.180 1.3446 1.227 1.2443 1.498 1.408 1.508 1.578 1.448 1.638 1.488
3925.470 1.2877 1.2096 1.2249 1.558 1.818 1.738 1.768 1.618 1.2355 1.458
3944.760 1.918 2.048 1.808 1.548 1.3376 1.009 1.2901 1.468 0.8475 0.6685
3964.049 1.1663 1.448 1.2873 1.448 1.558 1.1172 0.7499 0.6304 0.9971 1.0987
3983.339 0.8383 0.9715 0.8621 0.8325 0.9721 1.0944 1.1148 0.9648 0.8933 1.0831
##END=
