##TITLE=2-Fluoro-3-(trifluoromethyl)benzamide
##JCAMP-DX=4.24
##DATA TYPE=INFRARED SPECTRUM
##ORIGIN=EPA-IR VAPOR PHASE LIBRARY
##OWNER=SRD/NIST
Collection (C) 2018 copyright by the U.S. Secretary of Commerce
on behalf of the United States of America. All rights reserved.
##CAS REGISTRY NO=207853-60-9
##MOLFORM=C 8 H 5 F 4 N O
##$NIST SOURCE=MSDC-IR
##STATE=gas
##XUNITS=1/CM
##YUNITS=ABSORBANCE
##XFACTOR=1.
##YFACTOR=0.001
##DELTAX=1.92898
##FIRSTX=549.8
##LASTX=4000.7
##FIRSTY=15.155
##MAXX=4000.7
##MINX=549.759
##MAXY=0.318015
##MINY=0
##NPOINTS=1790
##XYDATA=(X++(Y..Y))
549.759 15.155 18.105 21.045 23.315 25.035 25.675 25.895 25.465 24.805 23.515
569.049 21.085 18.955 16.215 13.275 11.635 10.275 8.905 7.745 7.575 8.045
588.339 7.735 7.335 7.775 7.955 7.975 7.725 7.835 8.105 7.935 7.775
607.628 7.785 8.105 8.235 8.245 8.745 9.315 9.745 10.855 12.845 15.685
626.918 20.205 25.835 31.055 34.735 36.795 37.745 36.755 33.755 28.995 23.395
646.208 18.705 15.135 12.895 11.865 10.975 9.955 8.925 8.235 7.465 6.395
665.498 5.575 5.535 5.365 4.815 4.795 4.645 4.305 4.505 4.515 4.475
684.787 4.785 5.095 4.905 4.805 5.005 5.105 4.975 4.975 5.095 5.515
704.077 5.885 6.385 7.145 7.795 9.195 10.995 12.895 14.385 15.125 15.265
723.367 15.295 14.855 13.705 12.925 12.355 12.225 12.975 14.105 15.805 18.055
742.657 21.465 25.975 30.835 36.095 41.605 47.495 53.695 61.075 65.255 60.035
761.947 52.035 46.425 41.075 35.555 30.155 24.995 20.585 17.585 15.545 14.095
781.236 12.895 12.085 11.945 11.675 11.525 11.965 12.315 12.595 12.925 13.395
800.526 14.265 15.145 15.835 16.685 17.585 19.015 20.535 21.945 23.965 25.535
819.816 26.175 28.025 30.375 31.035 32.945 33.695 32.355 31.245 29.875 27.755
839.106 24.615 21.625 18.645 15.905 14.025 12.845 11.955 11.515 11.305 11.115
858.395 10.945 10.795 10.755 10.765 10.625 10.645 10.555 10.695 10.745 10.635
877.685 10.945 11.045 10.735 10.175 10.165 10.225 10.085 9.915 9.485 9.335
896.975 9.095 8.405 8.225 8.285 7.965 8.025 8.105 7.775 7.445 7.395
916.265 7.575 7.605 7.375 7.545 8.055 8.435 8.485 8.585 8.425 8.155
935.555 8.275 8.775 9.025 9.275 9.255 8.755 8.785 8.725 8.615 8.325
954.844 8.215 7.905 7.325 7.495 7.655 7.375 7.285 7.765 8.405 8.375
974.134 8.115 8.085 7.885 7.855 8.075 8.265 7.875 7.225 7.305 7.135
993.424 6.675 6.935 6.865 6.885 6.665 6.225 6.435 6.735 6.395 6.235
1012.714 6.435 5.995 5.885 5.735 6.025 6.375 6.385 6.565 6.775 6.715
1032.003 6.225 6.355 7.095 7.925 8.205 8.795 9.625 10.745 12.265 13.785
1051.293 15.655 17.395 19.715 21.525 23.465 26.635 28.895 31.535 34.375 36.125
1070.583 37.805 39.585 40.675 41.035 40.435 39.635 40.055 40.685 41.825 45.615
1089.873 51.825 62.055 73.195 83.815 95.205 104.155 110.285 111.695 108.545 99.975
1109.163 85.985 70.345 57.125 48.105 40.995 35.795 32.775 31.395 31.955 33.785
1128.452 35.785 39.005 43.695 47.815 53.125 61.655 72.265 84.075 97.905 114.505
1147.742 133.475 155.155 179.095 203.885 230.365 255.065 276.285 292.605 300.665 301.075
1167.032 293.275 278.505 256.345 225.815 191.585 159.895 132.145 106.235 84.915 68.615
1186.322 56.305 48.125 41.845 37.705 34.735 33.115 32.675 32.755 34.475 37.185
1205.611 41.945 48.305 55.245 62.575 69.005 73.975 78.365 82.645 84.685 84.535
1224.901 84.415 83.735 80.895 78.145 74.975 69.925 64.575 58.565 51.405 44.565
1244.191 38.745 32.995 28.175 24.935 22.165 19.745 17.635 16.575 15.825 14.915
1263.481 14.935 15.035 15.595 16.745 18.335 20.375 22.135 24.225 27.095 29.795
1282.771 32.465 35.375 38.125 40.915 44.305 48.725 54.295 62.285 73.975 90.085
1302.060 112.055 140.975 176.375 216.675 257.035 290.845 312.315 318.015 308.325 284.185
1321.350 247.335 201.035 152.415 111.485 83.405 66.395 56.545 51.105 48.415 47.865
1340.640 49.135 51.805 55.715 61.115 68.165 76.495 86.005 96.595 107.655 118.445
1359.930 127.965 135.615 140.855 143.565 143.295 139.355 131.865 121.325 108.875 95.825
1379.219 82.445 69.585 57.925 47.995 40.145 33.925 29.035 25.435 22.705 20.365
1398.509 18.385 16.695 15.255 13.955 12.765 11.835 11.085 10.415 9.925 9.685
1417.799 9.585 9.625 9.905 10.285 10.885 11.685 12.965 14.815 17.235 20.185
1437.089 24.065 29.055 35.215 42.625 51.265 61.175 72.055 82.645 92.335 99.935
1456.378 105.325 108.795 109.835 107.755 102.225 94.335 85.685 77.095 68.305 58.915
1475.668 49.885 41.495 34.135 27.645 22.185 17.825 14.495 12.085 10.475 9.325
1494.958 8.515 7.885 7.405 7.005 6.845 6.625 6.355 6.205 6.045 5.935
1514.248 5.755 5.605 5.415 5.335 5.185 4.975 5.015 4.945 4.795 4.825
1533.538 4.895 4.935 5.075 5.235 5.585 6.005 6.315 6.835 7.405 8.005
1552.827 8.735 9.515 10.495 11.555 12.855 14.585 16.685 19.215 22.465 26.705
1572.117 32.205 39.005 47.825 58.135 69.275 81.325 92.455 101.565 108.255 112.575
1591.407 113.635 111.065 104.825 95.895 86.245 76.985 68.845 62.305 57.955 55.675
1610.697 54.945 55.595 56.415 56.635 55.905 53.575 49.815 44.865 39.115 32.915
1629.986 26.935 22.135 18.705 16.195 14.505 13.295 12.475 11.955 11.615 11.665
1649.276 11.775 11.935 12.225 12.405 12.675 13.225 13.745 14.415 15.425 16.435
1668.566 17.655 19.235 20.985 22.865 25.105 27.405 29.465 31.345 33.495 35.125
1687.856 35.845 36.355 37.075 38.125 40.035 42.755 46.935 54.055 64.155 79.065
1707.146 99.635 126.355 158.505 192.885 224.945 250.785 266.755 270.325 261.705 242.445
1726.435 212.635 175.225 136.665 104.605 80.115 64.015 54.035 47.745 44.555 43.305
1745.725 43.195 43.555 44.035 44.285 44.075 43.255 41.665 39.185 35.675 31.485
1765.015 27.225 23.085 19.125 15.925 12.965 10.505 8.915 7.675 6.685 5.825
1784.305 5.175 4.855 4.585 4.205 3.805 3.445 3.295 3.135 2.945 2.725
1803.594 2.665 2.755 2.725 2.655 2.545 2.375 2.305 2.435 2.585 2.605
1822.884 2.645 2.715 2.595 2.465 2.465 2.415 2.315 2.255 2.275 2.245
1842.174 2.175 2.175 2.105 2.055 2.035 2.015 2.195 2.275 2.215 2.315
1861.464 2.455 2.405 2.305 2.435 2.475 2.455 2.465 2.405 2.455 2.435
1880.754 2.295 2.105 2.185 2.235 2.175 2.175 2.105 2.115 2.185 2.235
1900.043 2.305 2.485 2.525 2.635 2.785 2.935 3.095 3.235 3.365 3.435
1919.333 3.475 3.455 3.435 3.335 3.165 3.095 2.885 2.625 2.545 2.455
1938.623 2.305 2.205 2.295 2.365 2.325 2.265 2.275 2.405 2.475 2.375
1957.913 2.265 2.345 2.365 2.255 2.225 2.205 2.145 2.025 1.925 1.865
1977.202 1.875 1.875 1.785 1.705 1.665 1.795 1.785 1.835 1.845 1.685
1996.492 1.665 1.665 1.775 1.835 1.775 1.695 1.545 1.495 1.555 1.495
2015.782 1.3299 1.2775 1.2439 1.2248 1.1859 1.1063 1.136 1.1018 1.178 1.3471
2035.072 1.1766 1.1837 1.465 1.455 1.2781 1.2392 1.3234 1.2684 1.2792 1.3107
2054.362 1.2515 1.2472 1.3206 1.385 1.345 1.445 1.585 1.455 1.2259 1.1937
2073.651 1.2159 1.2346 1.0997 0.9232 0.9108 0.9944 0.9371 0.9196 1.0555 1.1218
2092.941 1.0925 0.8659 0.6974 0.745 0.8806 0.9645 0.9812 0.8432 0.6754 0.6405
2112.231 0.7382 0.9129 0.9032 0.998 1.0276 0.7473 0.7959 0.8428 0.8195 0.9314
2131.521 0.9689 1.0122 1.1907 1.2458 1.2316 1.3459 1.3292 1.1278 1.151 1.3233
2150.810 1.3553 1.3431 1.3073 1.3221 1.3338 1.3168 1.2622 1.0759 0.9138 1.0061
2170.100 1.018 0.9068 0.8954 0.9176 1.0124 1.1643 1.2665 1.3074 1.3748 1.445
2189.390 1.3529 1.2432 1.1822 1.2052 1.1385 1.1564 1.236 1.0419 1.1661 1.3362
2208.680 1.2407 1.2459 1.1756 1.0763 1.1063 1.1756 1.1612 1.0946 0.9798 0.9467
2227.970 1.0979 1.1689 0.9694 0.9399 1.1289 1.1806 1.3103 1.445 1.475 1.475
2247.259 1.3827 1.395 1.445 1.545 1.685 1.805 1.825 1.655 1.715 1.835
2266.549 1.745 1.695 1.655 1.535 1.555 1.645 1.605 1.575 1.455 1.3813
2285.839 1.555 1.595 1.535 1.485 1.575 1.825 1.945 1.935 1.895 1.925
2305.129 1.865 1.755 1.695 1.625 1.795 2.045 2.005 1.855 1.805 1.695
2324.418 1.665 1.705 1.605 1.595 1.655 1.535 1.445 1.505 1.3637 1.3217
2343.708 1.415 1.425 1.465 1.3369 1.1357 1.0278 0.9845 1.0205 1.0637 1.1281
2362.998 1.1534 1.0833 0.9619 0.9202 0.9723 1.0325 0.9919 0.995 0.9866 0.9518
2382.288 1.0679 0.9004 0.7006 0.8712 0.9413 0.8804 0.9511 1.1021 0.96 0.7118
2401.578 0.7811 0.8994 1.075 1.1653 0.9402 1.0103 1.1886 1.0716 1.0147 1.1574
2420.867 1.2394 1.2557 1.2203 1.2722 1.545 1.575 1.505 1.505 1.3698 1.2772
2440.157 1.465 1.465 1.505 1.465 1.3388 1.505 1.565 1.665 1.755 1.545
2459.447 1.3302 1.2952 1.3261 1.505 1.575 1.3532 1.2042 1.2968 1.3738 1.2631
2478.737 1.1102 1.1301 1.2441 1.0942 0.8601 0.7385 0.8514 1.0426 0.86 0.7637
2498.026 0.7667 0.7164 0.8171 0.5894 0.6456 0.9482 0.7081 0.6146 0.6646 0.6219
2517.316 0.6101 0.5559 0.6071 0.6216 0.5456 0.6544 0.7347 0.7852 0.8018 0.5643
2536.606 0.3617 0.3409 0.4226 0.5705 0.7784 0.7481 0.599 0.7402 0.7959 0.8319
2555.896 0.8042 0.8104 0.8127 0.7835 0.7814 0.689 0.748 0.6105 0.5335 0.7317
2575.186 0.8348 0.7646 0.573 0.6216 0.5879 0.5248 0.5422 0.5126 0.6849 0.8002
2594.475 0.6501 0.40649 0.3236 0.5145 0.7936 0.6858 0.6481 0.7661 0.6063 0.46989
2613.765 0.48293 0.5152 0.388213 0.3296 0.7136 0.9654 0.7834 0.6445 0.6772 0.6082
2633.055 0.6547 0.7102 0.6674 0.5798 0.41121 0.3549 0.47074 0.4886 0.41432 0.601
2652.345 0.5914 0.43609 0.3216 0.3292 0.6515 0.8986 0.9006 0.8542 0.8739 0.8611
2671.634 1.0015 1.3363 1.495 1.415 1.2569 1.1158 1.2029 1.1098 0.9769 1.0752
2690.924 0.8668 0.5765 0.6021 0.6406 0.5672 0.5542 0.44666 0.40939 0.6223 0.7172
2710.214 0.6672 0.8031 0.6836 0.46969 0.41185 0.6755 0.7956 0.625 0.5076 0.6107
2729.504 0.8835 0.6829 0.5873 0.8854 0.9192 0.8289 1.1836 1.3808 1.3327 1.3623
2748.794 1.3075 1.3267 1.333 1.1015 1.0789 1.1195 0.9379 0.7539 0.7813 0.7996
2768.083 0.6061 0.5333 0.8858 1.1425 1.1063 1.1094 0.8556 0.8423 0.7067 0.4759
2787.373 0.5736 0.5584 0.8407 1.1793 1.1459 0.9329 0.969 1.2026 1.2841 1.435
2806.663 1.505 1.3794 1.475 1.745 1.785 1.665 1.535 1.405 1.3816 1.32
2825.953 1.1115 0.94 1.0723 1.1193 0.85 0.5684 0.7105 1.0226 1.0355 0.8287
2845.242 0.5452 0.38355 0.206 0.235 0.40518 0.5859 0.8391 0.9077 0.9166 0.6815
2864.532 0.42119 0.339 0.45678 0.569 0.6003 0.4932 0.44309 0.275 0.27 0.8412
2883.822 0.8767 0.6769 0.666 0.6469 0.416 0.5972 0.6448 0.389064 0.5104 0.7235
2903.112 0.9771 0.9745 1.0511 0.8224 0.6013 0.8034 0.8395 0.7127 0.6159 0.8662
2922.401 0.8378 0.7629 0.9429 0.8779 0.9696 1.0423 0.9655 1.061 1.1333 1.2176
2941.691 1.1633 1.0153 1.3029 1.395 1.1517 1.0821 1.0084 0.8233 0.9216 0.9746
2960.981 0.7977 0.811 0.7489 0.9367 1.3146 1.2341 0.9174 0.8235 0.8019 0.5714
2980.271 0.223 0.3605 0.8182 0.6659 0.6327 0.7161 0.5802 0.6702 0.4871 0.5064
2999.561 0.6794 0.643 0.5886 0.6801 0.6369 0.6975 0.9129 0.9782 1.0187 1.0327
3018.850 1.0286 0.6733 0.45885 0.7922 0.946 0.9237 0.9043 0.9795 1.0033 0.9372
3038.140 0.987 1.3332 1.715 1.465 1.2121 1.3623 1.955 2.265 2.075 2.175
3057.430 2.215 2.205 2.405 2.485 2.525 2.525 2.575 2.635 2.675 2.805
3076.720 3.225 3.605 4.195 4.885 5.115 5.245 5.135 5.085 5.115 5.065
3096.009 4.675 4.205 3.955 3.345 2.955 3.115 3.075 2.495 2.095 2.085
3115.299 1.835 1.575 1.425 1.1692 1.2145 1.1392 0.8814 0.6478 0.654 1.0859
3134.589 1.1882 0.8246 0.6076 0.5954 0.5466 0.6595 0.9218 1.098 0.9298 0.8821
3153.879 0.9018 0.9351 1.0727 1.2701 1.485 1.2052 1.1886 1.3196 1.1754 1.3468
3173.169 1.193 0.6887 0.9804 1.1522 1.176 1.3593 1.1402 1.0607 1.0194 0.9985
3192.458 1.144 1.385 1.2519 0.9193 1.1969 1.344 0.7962 0.6057 0.7771 0.8982
3211.748 0.8356 0.9397 1.2498 1.0535 0.7779 0.6326 0.6361 0.7803 0.8433 1.001
3231.038 0.9083 0.40297 0.195 0.6261 0.9105 0.636 0.6303 0.8265 0.6175 0.218
3250.328 0.229 0.5671 0.2954 0.3164 0.6237 0.6546 0.8559 0.5907 0.5444 0.5708
3269.617 0.5574 0.46646 0.175 0.6075 0.6452 0.238 0.4966 0.7241 0.264 0.076
3288.907 0.5249 0.94 1.146 1.128 0.9835 0.6954 0.7825 1.3727 1.805 1.485
3308.197 1.1235 1.0421 0.9155 0.8477 0.9462 1.0456 0.7498 0.9041 1.1792 1.0269
3327.487 0.9139 0.9136 0.973 1.1644 1.395 1.2956 1.0338 0.8356 0.8526 0.7613
3346.777 0.7595 0.8686 0.7331 0.9656 1.0577 0.8917 0.7831 0.8544 1.1192 0.9701
3366.066 0.9473 1.2958 1.0992 1.1491 1.655 1.685 1.755 2.105 2.145 1.845
3385.356 1.745 2.035 2.445 2.905 3.525 4.015 4.305 4.685 5.165 5.495
3404.646 5.695 6.605 7.785 8.465 9.295 10.405 11.775 12.865 14.095 15.385
3423.936 16.255 17.295 18.425 19.755 21.095 22.595 24.345 25.935 27.105 27.355
3443.225 26.825 26.445 24.875 22.525 20.675 17.955 14.775 11.545 8.855 7.015
3462.515 5.725 4.615 3.915 3.685 3.515 3.495 3.255 3.035 2.905 2.755
3481.805 2.865 2.985 2.905 2.565 2.515 2.665 2.835 3.405 3.545 3.385
3501.095 3.605 3.845 4.225 4.595 4.625 5.305 6.365 6.685 6.685 7.185
3520.385 8.105 8.185 8.275 9.005 9.525 10.215 11.345 12.885 14.185 15.235
3539.674 16.065 16.745 17.555 18.155 18.525 19.025 19.675 20.745 22.465 25.075
3558.964 28.035 31.345 34.835 37.135 38.155 37.865 35.695 31.955 27.275 22.335
3578.254 17.325 12.405 8.645 6.575 5.315 4.195 3.855 3.255 2.475 2.425
3597.544 2.325 2.085 1.895 1.705 1.405 1.0583 1.2213 1.3289 1.505 1.535
3616.833 1.2883 1.425 1.2958 1.2083 1.1829 1.0565 1.1561 1.385 1.2094 1.0262
3636.123 1.2458 1.405 1.3356 1.2221 1.0955 0.8948 0.834 0.9174 0.9207 0.7882
3655.413 0.8484 1.124 1.0051 0.6253 0.7996 0.9647 0.8983 0.9803 0.6666 0.385807
3674.703 0.7223 1.0024 0.7293 0.8951 1.108 1.0557 0.8555 0.6958 0.8715 1.0407
3693.993 0.951 0.8156 0.7494 0.7485 0.9663 0.7743 0.7114 0.9697 1.0922 0.9226
3713.282 0.8245 0.9333 0.7994 0.6073 0.6627 0.7024 0.5548 0.8212 1.1118 1.105
3732.572 0.9834 0.7432 0.85 1.0007 0.8236 0.6257 0.5599 0.5605 0.7888 0.9577
3751.862 0.7946 0.9938 1.1776 0.7805 0.9316 1.0938 1.0395 1.2642 1.125 0.8068
3771.152 0.6994 0.792 0.8257 0.6782 0.618 0.6711 0.48457 0.5525 0.7827 0.8499
3790.441 1.0879 0.8338 0.5324 0.9136 1.0164 0.7041 0.45143 0.3461 0.4957 0.6576
3809.731 0.37956 0.5231 0.8439 0.8167 0.7349 0.6633 0.8676 0.8428 0.8283 1.1274
3829.021 0.8794 0.43646 0.384855 0.323 0.5973 0.854 0.44555 0.43321 0.818 0.7448
3848.311 0.314 0.171 0.40337 0.301 0.5282 0.6759 0.231 0.211 0.5653 0.6341
3867.601 0.8012 1.12 0.7976 0.6323 0.9403 0.8981 0.969 0.7948 0.5495 0.8654
3886.890 0.45859 0.237 0.9598 1.0096 0.5499 0.8349 1.1566 1.0026 0.7242 0.3597
3906.180 0.5575 0.8443 1.1205 1.1447 0.7646 0.6559 0.391782 0.6806 0.8883 0.6407
3925.470 0.8708 0.5435 0.252 0.41094 0.766 0.7019 0.3468 0.389646 0.39904 0.6758
3944.760 0.9179 0.9762 1.2717 1.645 1.3678 0.5899 0.278 0.174 0 0.072
3964.049 0.5736 0.5682 0.078 0.5244 0.802 0.7233 1.0245 0.8518 0.5882 0.6273
3983.339 0.6743 0.277 0.3403 0.8953 0.5043 0.6127 0.9496 0.6422 0.5114 0.5596
##END=
