##TITLE=4-Fluoro-2-(trifluoromethyl)benzamide
##JCAMP-DX=4.24
##DATA TYPE=INFRARED SPECTRUM
##ORIGIN=EPA-IR VAPOR PHASE LIBRARY
##OWNER=SRD/NIST
Collection (C) 2018 copyright by the U.S. Secretary of Commerce
on behalf of the United States of America. All rights reserved.
##CAS REGISTRY NO=207919-06-0
##MOLFORM=C 8 H 5 F 4 N O
##$NIST SOURCE=MSDC-IR
##STATE=gas
##XUNITS=1/CM
##YUNITS=ABSORBANCE
##XFACTOR=1.
##YFACTOR=0.001
##DELTAX=1.92898
##FIRSTX=549.8
##LASTX=4000.7
##FIRSTY=3.974
##MAXX=4000.7
##MINX=549.759
##MAXY=0.053364
##MINY=0
##NPOINTS=1790
##XYDATA=(X++(Y..Y))
549.759 3.974 4.614 5.074 4.534 3.854 4.104 3.634 2.624 2.564 2.604
569.049 2.704 2.744 3.554 3.684 2.764 2.974 3.424 2.714 3.304 3.534
588.339 3.024 3.574 3.564 4.104 4.744 4.904 4.724 4.364 3.924 3.314
607.628 3.044 3.814 4.014 3.604 3.464 2.994 3.004 2.284 1.594 1.444
626.918 1.604 1.724 1.281 0.7861 0.9576 1.0139 1.043 1.3286 1.0098 1.3332
646.208 1.854 1.784 1.714 1.824 1.994 2.204 2.514 3.314 3.534 2.974
665.498 3.394 3.884 3.314 2.764 2.374 2.154 1.864 1.644 1.974 2.284
684.787 2.164 2.534 3.014 2.624 2.114 2.374 3.004 3.254 3.224 3.214
704.077 2.954 2.724 3.154 3.274 2.704 2.104 2.184 2.164 1.934 2.014
723.367 2.004 2.034 2.344 2.374 2.354 2.644 2.454 2.804 3.474 3.564
742.657 3.984 4.544 5.204 5.414 5.044 5.244 5.294 4.534 3.674 3.354
761.947 3.134 3.194 3.574 3.674 3.974 4.264 4.074 4.174 4.184 4.204
781.236 3.924 3.564 3.824 3.774 3.614 3.164 3.044 3.154 2.894 3.114
800.526 3.254 3.504 3.744 3.664 3.734 3.604 3.264 3.074 3.104 3.484
819.816 3.884 4.234 4.424 4.724 5.264 5.164 5.314 5.734 6.314 7.014
839.106 6.554 6.014 5.664 4.934 4.554 4.244 3.784 3.004 2.574 2.624
858.395 2.594 2.834 3.094 2.954 2.934 3.404 4.004 4.414 4.864 5.634
877.685 6.414 6.964 8.434 10.504 11.244 9.944 8.264 7.704 7.274 7.054
896.975 7.744 8.774 10.044 10.934 12.264 14.114 14.884 15.474 15.634 14.664
916.265 12.674 10.424 8.334 6.534 5.354 4.304 3.554 3.324 3.204 3.134
935.555 2.304 2.014 2.784 2.734 2.624 2.664 2.824 2.694 2.284 2.624
954.844 2.464 2.204 2.404 2.554 2.664 2.564 2.274 1.754 2.254 2.524
974.134 2.044 1.634 1.624 1.714 1.714 1.884 1.804 2.364 2.194 1.504
993.424 1.564 1.584 1.824 2.044 1.934 1.634 1.784 2.274 1.964 1.674
1012.714 1.514 1.534 2.594 3.084 2.584 2.664 2.584 2.674 3.214 3.844
1032.003 4.904 5.464 6.254 7.544 8.884 9.644 10.054 9.964 9.504 8.794
1051.293 7.094 5.784 4.474 3.264 2.644 2.734 2.824 2.254 2.864 2.954
1070.583 1.824 2.954 3.134 2.254 2.364 3.154 4.134 3.364 3.264 3.694
1089.873 3.854 3.054 2.034 1.674 2.364 3.674 4.044 4.324 4.744 6.264
1109.163 7.194 7.154 8.104 9.054 10.194 11.304 11.514 13.754 15.714 16.114
1128.452 17.584 19.454 21.904 24.514 26.394 27.224 29.774 32.644 31.444 29.834
1147.742 29.404 28.584 27.344 25.864 25.414 24.904 24.654 25.534 27.474 29.494
1167.032 31.414 34.234 38.354 41.424 43.224 45.364 46.074 45.684 44.084 41.364
1186.322 38.184 34.294 30.484 26.854 22.634 19.314 17.114 14.894 13.564 12.334
1205.611 10.744 10.514 12.954 14.464 13.344 12.894 13.294 12.574 11.794 9.994
1224.901 8.344 8.564 7.354 6.104 6.154 6.124 6.404 6.714 7.474 8.394
1244.191 8.914 9.954 11.334 12.214 12.654 14.044 15.724 15.994 16.414 17.194
1263.481 17.164 16.974 15.854 15.744 16.434 16.854 17.374 17.374 16.564 16.254
1282.771 15.504 14.294 14.084 13.214 12.264 11.544 11.894 13.084 14.464 16.974
1302.060 20.454 24.494 29.334 34.264 38.374 41.564 43.514 44.134 43.294 40.874
1321.350 37.144 33.064 29.124 25.814 23.764 23.404 24.454 26.644 29.714 33.284
1340.640 37.184 40.854 43.704 45.484 46.244 45.304 42.804 39.094 34.574 29.804
1359.930 24.814 20.114 16.304 13.254 11.154 9.744 8.594 7.794 7.304 7.094
1379.219 6.634 6.124 5.894 5.704 5.444 5.224 5.154 5.164 5.084 5.134
1398.509 5.544 5.874 6.334 6.714 7.104 7.744 8.294 9.244 10.194 11.154
1417.799 12.054 12.484 12.474 12.044 11.284 10.084 8.514 6.924 5.454 4.234
1437.089 3.244 2.674 2.414 2.194 2.054 2.044 2.204 2.204 1.924 1.874
1456.378 2.164 2.334 2.224 2.184 2.334 2.644 2.974 3.014 3.084 3.364
1475.668 3.514 3.714 3.944 4.174 4.424 4.714 5.304 6.024 6.654 7.264
1494.958 7.964 8.424 8.334 8.104 7.614 6.974 6.354 5.494 4.544 3.984
1514.248 3.504 2.854 2.474 2.234 1.954 1.904 1.824 1.664 1.694 1.744
1533.538 1.634 1.574 1.714 1.754 1.804 1.694 1.574 1.824 1.944 1.984
1552.827 2.214 2.334 2.284 2.314 2.544 2.954 3.414 3.814 4.304 4.874
1572.117 5.544 6.754 8.454 10.184 12.024 13.984 16.104 18.324 20.074 21.094
1591.407 21.744 22.044 21.484 20.294 18.844 17.224 15.894 14.684 13.664 13.164
1610.697 12.724 11.954 11.164 10.464 9.904 8.914 8.044 7.254 6.284 5.774
1629.986 5.474 5.184 4.764 4.444 4.314 3.984 3.784 3.664 3.384 3.234
1649.276 3.064 3.064 2.954 2.824 2.904 2.884 2.704 2.824 2.954 3.024
1668.566 3.434 3.804 3.964 4.044 4.284 4.604 4.684 4.874 5.174 5.434
1687.856 5.834 5.954 6.064 6.214 6.124 6.214 6.314 6.584 7.404 8.364
1707.146 9.594 11.494 14.034 17.464 21.644 26.464 32.224 38.034 43.794 49.004
1726.435 52.474 53.364 51.424 47.294 42.084 36.654 30.984 25.394 20.674 16.734
1745.725 13.614 11.114 9.364 8.244 7.464 6.874 6.464 6.274 6.094 5.934
1765.015 5.754 5.384 5.044 4.744 4.234 3.854 3.534 3.144 2.844 2.634
1784.305 2.474 2.344 2.214 2.094 2.064 2.014 1.784 1.814 1.754 1.554
1803.594 1.714 1.834 1.744 1.434 1.3552 1.337 1.374 1.424 1.364 1.3614
1822.884 1.394 1.3385 1.2214 1.1656 1.1265 1.1466 0.9944 0.9183 0.9382 0.9077
1842.174 1.0056 0.9819 0.9004 0.8992 0.8238 0.7906 0.7828 0.7949 0.8436 0.7924
1861.464 0.9526 0.9537 0.8646 0.9406 0.9279 0.8815 0.7503 0.701 0.92 0.9843
1880.754 0.9987 0.984 0.8094 0.8174 0.993 1.184 1.0763 1.0248 1.0275 1.0344
1900.043 0.9894 1.1454 1.2614 1.0567 1.1209 1.1879 1.0952 0.9703 0.9285 1.0502
1919.333 1.1515 1.0627 0.9363 0.9005 0.9297 1.0237 0.9731 0.9458 0.9014 0.8595
1938.623 0.9552 0.9226 0.8435 0.7366 0.702 0.7229 0.7138 0.6448 0.6983 0.8078
1957.913 0.6539 0.5596 0.632 0.7273 0.7588 0.7522 0.8661 0.7455 0.74 0.8265
1977.202 0.7262 0.5954 0.5727 0.6448 0.686 0.6971 0.4931 0.41501 0.5645 0.6916
1996.492 0.669 0.5607 0.45537 0.41934 0.5799 0.7706 0.9192 1.0148 0.9188 0.6886
2015.782 0.5972 0.5717 0.45857 0.512 0.5813 0.5961 0.7671 0.8413 0.7559 0.7317
2035.072 0.6371 0.618 0.7596 0.7418 0.6471 0.6143 0.6607 0.7373 0.7177 0.8751
2054.362 0.9393 0.8174 0.8626 0.7515 0.6878 0.7236 0.8603 0.9003 0.7604 0.8513
2073.651 0.9695 0.9095 0.6283 0.6325 0.7512 0.6578 0.6523 0.6172 0.5327 0.7122
2092.941 0.794 0.6084 0.6491 0.6356 0.6157 0.6863 0.6397 0.5594 0.45507 0.6888
2112.231 0.9204 0.8856 0.9267 0.9086 1.0384 1.128 0.8784 0.7604 0.7563 0.7245
2131.521 0.8773 0.9213 0.8003 0.8801 0.7324 0.517 0.7145 0.7813 0.6864 0.6306
2150.810 0.5936 0.6727 0.824 0.7937 0.7372 0.7635 1.0043 0.9482 0.748 0.7779
2170.100 0.6972 0.7962 0.8886 0.8486 0.8162 0.7697 0.8037 0.8879 0.829 0.7859
2189.390 0.7678 0.8342 0.8944 0.8727 0.6713 0.592 0.6827 0.6186 0.736 0.9341
2208.680 1.1326 0.9496 0.665 0.8108 0.6857 0.7119 1.0876 1.045 0.9365 0.866
2227.970 0.9224 0.7718 0.7161 0.8408 0.6284 0.6596 0.7474 0.8433 1.0055 1.1476
2247.259 1.1657 1.0331 0.8682 0.6632 0.5965 0.7366 0.6531 0.6558 0.9247 1.0133
2266.549 0.8663 0.7607 0.8765 0.8611 0.8839 0.9205 0.7348 0.7553 0.6181 0.5278
2285.839 0.7814 0.9786 1.0024 0.8203 0.7111 0.8086 0.8164 0.86 0.8227 0.6053
2305.129 0.563 0.676 0.9018 0.9673 0.816 0.8347 0.7601 0.6528 0.6443 0.5183
2324.418 0.5987 0.7795 0.7786 0.8532 0.926 0.8366 0.7982 0.7217 0.6233 0.4699
2343.708 0.5292 0.6691 0.7826 0.8379 0.7141 0.5976 0.7741 0.9358 0.8422 0.88
2362.998 0.9188 0.8606 0.7739 0.7121 0.6892 0.4942 0.6532 0.8261 0.5868 0.7245
2382.288 0.8931 0.8684 1.0368 1.0013 0.8656 0.8743 1.0568 1.319 1.1479 0.9309
2401.578 0.8878 0.9705 1.014 0.8602 0.9137 0.8663 0.7724 0.6861 0.7039 0.7545
2420.867 0.7708 0.8318 0.7762 0.7668 0.802 0.8916 0.8075 0.6738 0.7599 0.7992
2440.157 0.7614 0.999 1.1238 1.0986 1.0976 0.9517 0.8354 0.7512 0.6909 0.8216
2459.447 0.6315 0.40431 0.6574 0.7902 0.6481 0.5254 0.8107 1.0616 1.0512 1.1447
2478.737 0.9712 0.7364 0.7908 0.7794 0.7285 0.9261 1.0413 0.8727 0.9854 1.1169
2498.026 0.9887 0.8537 0.7636 0.6346 0.7044 0.8282 0.8849 0.8176 0.6155 0.7746
2517.316 0.8472 0.7584 0.696 0.7845 0.8908 0.6622 0.7108 0.8796 0.6215 0.4813
2536.606 0.8319 0.8682 0.5719 0.5443 0.42035 0.40733 0.7159 0.7348 0.7396 0.8899
2555.896 0.8051 0.5562 0.43707 0.6635 0.7311 0.6506 0.6754 0.6599 0.8294 0.7596
2575.186 0.6448 0.8247 0.7978 0.7862 0.5722 0.4687 0.6646 0.6581 0.7397 0.9663
2594.475 1.0518 0.9763 0.9525 0.9272 0.8358 0.7459 0.5806 0.5093 0.6716 0.9396
2613.765 0.6538 0.35598 0.6671 0.5542 0.2937 0.4 0.5759 0.6271 0.5012 0.4993
2633.055 0.2999 0.3234 0.5768 0.8536 1.0302 1.0092 0.7891 0.42286 0.4935 0.5785
2652.345 0.6156 0.5972 0.7626 0.6985 0.42204 0.674 0.8836 0.736 0.6844 0.7409
2671.634 0.8035 0.7611 0.6544 0.8769 0.9885 0.8802 0.9914 1.0781 1.0174 0.9761
2690.924 0.74 0.5772 0.6347 0.699 0.7023 0.44105 0.3183 0.503 0.732 0.6888
2710.214 0.6145 0.6659 0.6287 0.715 0.6777 1.0232 1.384 1.0357 0.8204 1.0089
2729.504 0.8336 0.5738 0.6857 0.6488 0.4678 0.41456 0.2725 0.3166 0.5742 0.5272
2748.794 0.5149 0.7806 1.0155 0.5609 0.43303 0.8939 0.7427 0.5672 0.5544 0.217
2768.083 0.3242 0.715 0.5581 0.4957 0.9631 0.8872 0.5619 0.6675 0.7686 0.8751
2787.373 0.7601 0.6493 0.7589 0.8316 0.9247 0.9609 0.8288 0.7319 0.9557 0.884
2806.663 0.5226 0.6511 0.7471 0.5402 0.4796 0.5552 0.45114 0.261 0.43284 0.7338
2825.953 0.6096 0.367053 0.46223 0.8378 0.8809 0.7803 0.6615 0.8088 0.904 0.6438
2845.242 1.0609 1.404 1.0938 1.0816 0.9397 0.5841 0.6909 0.8253 0.5366 0.7602
2864.532 1.2553 0.8211 0.6517 0.5851 0.4943 0.9976 1.3296 1.2275 0.9876 0.7903
2883.822 0.7285 0.5139 0.4882 0.5537 0.5885 0.7699 0.7083 0.6499 0.717 0.7066
2903.112 0.5143 0.6631 0.9427 0.8334 0.8558 0.7182 0.336 0.4748 0.7768 0.9944
2922.401 1.1481 0.9675 0.8467 0.7797 0.6489 0.6354 0.5244 0.6647 0.9645 1.0856
2941.691 1.1223 0.9941 0.7388 0.4657 0.5172 0.5648 0.6001 0.8814 0.654 0.174
2960.981 0.5895 0.7948 0.40343 0.632 0.6541 0.5999 0.7625 0.8251 0.722 0.8098
2980.271 0.6794 0.189 0.38167 0.8355 1.0999 1.0265 1.0161 1.0816 0.8319 0.8924
2999.561 1.0399 0.7603 0.8 0.7712 0.682 1.0191 0.8429 0.7875 0.7971 0.614
3018.850 0.6617 1.0434 1.0277 0.8209 0.9987 0.7478 0.8128 1.1258 1.0634 1.2675
3038.140 1.444 1.1073 0.5925 0.3298 0.41696 0.4872 0.6568 0.8312 0.8481 1.239
3057.430 1.2473 0.8297 0.958 0.8277 0.5687 0.8517 0.7703 0.7551 0.9173 1.0039
3076.720 1.3484 1.2511 1.0057 1.3429 1.594 1.414 1.2135 1.1014 1.2709 1.0031
3096.009 0.9081 1.374 1.3635 1.0118 0.7429 0.367544 0.3243 0.6103 0.7448 0.6764
3115.299 0.5997 0.741 0.6418 0.722 0.9941 0.8719 0.6711 0.7387 0.9145 0.44915
3134.589 0.5237 1.1346 0.8092 1.0465 1.394 0.974 1.0724 0.7587 0.4662 0.363216
3153.879 0.183 0.509 0.8349 0.9479 1.1475 0.8743 0.092 0.2934 0.5576 0.5107
3173.169 0.5544 0.7779 1.1046 1.0209 0.9772 0.9663 0.8004 0.7786 0.8115 0.805
3192.458 0.5436 0.15 0.4782 0.863 0.7085 0.6476 0.5984 0.6824 0.3099 0.07
3211.748 0.5824 0.7769 0.8017 0.6735 0.257 0.3481 1.0331 1.1962 0.982 0.6288
3231.038 0.119 0.173 0.7073 0.9106 0.8243 1.0228 1.031 1.0995 0.9556 0.231
3250.328 0.268 0.8164 0.9026 0.5486 0.2841 0.6685 0.9685 0.9813 0.9134 0.7416
3269.617 0.6898 1.0063 1.2082 0.9932 0.9573 0.9619 1.0136 0.8878 0.8591 0.763
3288.907 0.203 0.6314 0.7817 0.5701 0.7056 0.7868 0.9224 0.7637 0.8836 0.9195
3308.197 0.8345 0.9545 0.983 1.0285 1.0892 0.5918 0.6437 0.9162 0.7465 0.7498
3327.487 0.6394 0.4355 0.44063 0.7973 0.8362 0.7291 0.9753 0.6488 0.6754 1.0432
3346.777 1.0916 0.6006 0.38761 0.7719 1.0466 1.534 1.2377 1.2405 1.584 1.454
3366.066 1.3023 0.9698 1.0144 1.2836 0.8169 0.40183 0.6601 0.7842 0.741 1.0284
3385.356 1.454 1.854 1.864 1.404 1.634 1.794 1.734 1.954 1.954 2.194
3404.646 2.504 2.534 2.844 3.334 3.764 4.174 4.474 5.024 5.464 5.664
3423.936 6.114 6.754 6.924 6.874 6.904 6.964 6.964 6.854 6.104 5.104
3443.225 4.414 3.754 3.184 2.734 2.454 2.114 1.984 2.034 1.814 1.404
3462.515 1.434 1.574 1.474 1.604 1.2186 1.1233 1.3452 1.1522 0.9989 0.8673
3481.805 0.618 0.5341 0.7094 0.7354 0.6763 1.2584 1.494 0.9534 1.0185 1.1008
3501.095 1.1434 1.3402 1.464 1.434 1.1545 1.2104 1.844 2.194 1.634 1.574
3520.385 2.064 2.454 2.724 2.694 2.574 2.904 3.184 3.234 3.434 3.684
3539.674 4.014 4.284 4.394 4.734 5.134 5.294 5.624 6.004 5.844 5.304
3558.964 4.954 4.194 3.684 3.464 2.974 2.934 2.844 1.864 1.3455 1.2573
3578.254 1.1232 1.3072 1.1756 0.8106 0.8753 1.2132 1.1955 1.14 1.0295 1.1408
3597.544 1.494 1.3252 1.2931 1.0399 0.8816 1.394 1.504 0.971 0.719 0.6398
3616.833 0.4077 0.8795 1.1483 0.5913 0.149 0.35412 0.8957 0.9906 1.1387 1.2004
3636.123 0.9114 0.8073 0.8429 0.9704 0.7962 0.6387 1.0226 0.7089 0.174 0.6283
3655.413 0.7634 0.6156 0.8427 0.859 0.8508 0.6969 0.536 0.4749 0.8623 1.21
3674.703 1.19 1.0132 0.7093 0.7982 0.9716 0.5698 0.40643 0.5522 0.563 0.7228
3693.993 1.0351 0.9236 0.6667 0.7452 0.6726 0.7638 0.9296 0.5997 0.4227 0.7332
3713.282 0.7947 0.886 0.7774 1.0481 1.3272 1.0463 1.1768 1.1331 0.7546 0.9708
3732.572 0.9519 0.8821 0.809 1.0562 1.404 1.2375 0.8426 0.5633 0.7648 0.43346
3751.862 0.365322 0.43393 0.6361 0.9588 0.7222 0.8141 0.8374 0.7692 0.8388 0.8678
3771.152 0.6905 0.565 0.7933 0.7456 0.5106 0.43739 0.8018 0.84 0.8509 1.045
3790.441 0.5511 0.6101 0.9892 1.005 0.9857 0.6071 0.43342 0.9814 1.1177 1.2762
3809.731 1.2712 1.0681 1.2884 1.0547 0.6964 0.106 0.106 0.5432 0.9345 1.3617
3829.021 1.0119 0.8452 1.1059 0.9471 0.7759 0.7705 0.691 0.9782 0.8577 0.5811
3848.311 0.6907 0.6915 0.8162 0.507 0.5764 1.404 1.714 1.864 1.3056 0.5749
3867.601 0.5729 0.5094 0.936 0.9811 0.7459 1.1295 1.2818 1.1462 0.5416 0.3504
3886.890 1.154 1.0671 0.164 0.207 0.4696 0.2666 0.7202 0.8112 1.0619 1.0059
3906.180 0.5676 1.374 1.434 0.894 0.8833 0.838 0.7385 1.1867 1.374 1.0118
3925.470 0.25 0.2952 0.9485 0.613 0.6705 1.1793 1.1846 0.8824 0.8325 0.4922
3944.760 0 0.215 0.254 0.7211 0.957 0.40697 0.7003 0.7286 0.6261 1.0156
3964.049 0.6591 0.368662 0.6863 0.5259 0.6995 1.404 1.3484 0.9338 0.7637 0.5284
3983.339 0.5304 0.6708 0.9029 1.215 0.7528 0.3356 0.40976 0.5763 0.95 0.8046
##END=
