##TITLE=3-Amino-4-(methylthio)benzotrifluoride
##JCAMP-DX=4.24
##DATA TYPE=INFRARED SPECTRUM
##ORIGIN=EPA-IR VAPOR PHASE LIBRARY
##OWNER=SRD/NIST
Collection (C) 2018 copyright by the U.S. Secretary of Commerce
on behalf of the United States of America. All rights reserved.
##CAS REGISTRY NO=207974-07-0
##MOLFORM=C 8 H 8 F 3 N S
##$NIST SOURCE=MSDC-IR
##STATE=gas
##XUNITS=1/CM
##YUNITS=ABSORBANCE
##XFACTOR=1.
##YFACTOR=0.001
##DELTAX=1.92898
##FIRSTX=549.8
##LASTX=4000.7
##FIRSTY=14.324
##MAXX=4000.7
##MINX=549.759
##MAXY=0.369294
##MINY=0
##NPOINTS=1790
##XYDATA=(X++(Y..Y))
549.759 14.324 14.744 14.534 14.834 15.184 15.114 15.544 16.914 17.904 17.274
569.049 16.594 16.694 16.304 14.874 13.824 13.634 13.414 13.624 13.684 13.314
588.339 13.194 13.494 13.744 13.674 14.014 14.064 14.054 14.634 14.644 13.984
607.628 13.864 13.454 13.254 13.454 13.494 13.454 13.364 13.264 13.644 13.754
626.918 13.104 13.274 13.264 13.264 13.434 13.064 12.974 13.404 13.814 14.194
646.208 14.864 15.434 15.654 16.394 17.134 17.934 18.844 18.854 18.764 18.754
665.498 18.184 18.114 18.014 16.724 16.204 16.314 16.154 16.314 16.774 17.134
684.787 17.344 17.514 17.404 16.914 16.254 15.874 15.304 14.814 14.564 13.984
704.077 13.654 13.574 13.664 14.034 14.204 14.174 14.164 14.174 14.654 15.014
723.367 14.934 14.654 14.814 15.394 15.574 16.574 17.274 18.654 21.994 25.744
742.657 29.074 30.664 30.814 29.874 28.104 24.384 19.094 14.864 12.264 10.794
761.947 10.284 10.114 9.944 9.874 10.164 10.634 10.824 10.744 10.714 11.614
781.236 12.304 12.304 12.124 12.884 14.134 15.024 16.554 18.524 20.364 22.294
800.526 25.034 27.284 29.444 32.024 34.354 35.364 34.254 32.424 29.854 26.924
819.816 24.374 21.674 19.074 17.164 15.324 14.354 13.254 12.084 12.034 11.684
839.106 11.594 12.294 12.444 12.494 13.014 14.064 15.434 16.524 18.814 21.614
858.395 23.984 26.474 28.884 31.984 34.284 34.394 33.304 31.394 29.514 27.204
877.685 24.824 22.914 20.584 18.234 16.794 16.064 15.404 15.334 15.844 16.694
896.975 17.594 18.824 20.854 23.094 26.214 30.414 34.914 38.604 41.704 43.714
916.265 43.794 41.804 38.454 34.324 29.224 24.244 19.914 16.594 14.414 13.114
935.555 11.944 10.894 10.274 9.814 9.594 9.294 9.354 9.704 9.844 9.714
954.844 10.074 10.974 11.634 12.264 13.174 14.764 15.854 16.454 17.094 17.664
974.134 17.154 15.864 14.334 12.364 11.194 10.514 9.284 8.534 8.244 8.044
993.424 7.874 7.564 7.174 6.764 7.454 8.064 8.144 8.034 7.624 7.484
1012.714 7.604 7.364 6.964 7.484 8.194 8.104 7.714 7.784 7.954 7.904
1032.003 8.094 8.744 9.554 9.844 9.554 9.934 10.314 9.414 8.744 9.224
1051.293 9.784 9.944 10.414 11.564 12.964 14.344 16.574 19.364 22.544 26.634
1070.583 31.874 39.944 51.984 66.264 82.764 102.304 119.784 130.164 133.934 132.064
1089.873 123.174 106.754 86.284 66.674 53.394 45.364 41.434 38.214 36.314 36.104
1109.163 35.194 36.214 38.204 40.824 43.514 48.104 52.524 59.704 71.874 86.684
1128.452 102.224 118.944 140.494 167.384 195.884 224.034 254.034 281.364 300.264 308.424
1147.742 303.904 285.304 256.994 225.714 194.754 169.714 153.614 149.584 157.924 174.834
1167.032 197.194 219.804 234.244 236.034 227.134 208.364 184.324 160.504 138.454 115.594
1186.322 92.304 72.724 60.034 49.794 41.464 36.214 31.874 29.304 26.874 23.524
1205.611 21.514 22.524 22.754 21.384 20.354 19.774 19.734 22.644 23.674 24.294
1224.901 28.404 31.844 37.304 46.524 57.214 70.414 84.754 97.784 105.824 106.844
1244.191 103.504 94.184 79.894 64.464 49.874 38.964 32.174 28.734 27.034 25.774
1263.481 26.044 28.284 32.174 37.884 46.254 56.744 66.414 72.444 73.424 70.984
1282.771 66.194 57.714 46.094 35.384 28.174 23.834 21.714 20.714 20.614 21.124
1302.060 22.084 23.614 25.614 28.394 32.184 37.364 44.854 55.074 69.474 90.274
1321.350 119.284 158.274 206.744 260.304 310.804 349.294 369.294 367.914 344.854 300.864
1340.640 241.654 180.944 130.894 95.024 70.344 53.534 42.064 34.344 29.064 25.124
1359.930 22.324 20.284 18.544 16.894 15.814 15.034 13.984 13.284 12.944 12.704
1379.219 12.754 12.864 13.014 13.244 13.594 14.064 14.714 15.554 16.624 17.854
1398.509 19.174 20.964 23.044 25.414 28.684 32.834 37.814 43.844 51.234 60.204
1417.799 70.464 82.174 93.764 104.714 113.894 120.244 122.704 120.954 115.194 105.654
1437.089 93.174 79.954 67.034 55.364 45.564 37.544 31.094 25.754 21.594 18.464
1456.378 15.924 14.174 12.864 11.784 11.264 10.894 10.864 11.184 11.654 12.294
1475.668 13.264 14.304 15.154 16.124 17.074 17.754 17.984 17.834 17.534 16.904
1494.958 16.034 14.844 13.274 11.584 10.144 8.924 7.634 6.914 6.374 5.764
1514.248 5.594 5.574 5.404 5.324 5.434 5.364 5.184 5.234 5.514 5.534
1533.538 5.294 5.554 5.744 5.764 5.894 6.114 6.444 6.654 7.124 7.804
1552.827 8.384 9.084 9.764 10.724 12.034 13.104 14.234 15.204 16.144 17.184
1572.117 18.074 18.814 19.854 21.284 22.644 24.504 26.844 29.324 32.274 36.014
1591.407 40.154 44.384 49.054 53.914 58.704 63.754 68.604 73.274 77.654 81.284
1610.697 83.784 85.434 86.094 84.924 82.524 78.954 73.984 68.114 61.914 55.294
1629.986 48.644 42.794 37.354 32.264 27.904 24.494 21.544 19.014 17.144 15.484
1649.276 13.984 12.694 11.594 10.864 10.084 9.294 8.604 8.114 7.534 7.014
1668.566 6.854 6.384 5.754 5.594 5.464 5.164 4.884 4.774 4.704 4.474
1687.856 4.354 4.314 4.284 4.174 4.034 3.794 3.534 3.394 3.374 3.464
1707.146 3.464 3.484 3.534 3.534 3.644 3.704 3.914 4.334 4.604 4.854
1726.435 5.044 5.204 5.474 5.624 5.514 5.334 5.314 5.364 5.354 5.224
1745.725 5.054 5.134 5.084 4.684 4.524 4.564 4.364 3.944 3.704 3.514
1765.015 3.274 3.134 3.124 3.064 2.974 2.974 2.844 2.774 2.694 2.674
1784.305 2.564 2.474 2.544 2.474 2.374 2.334 2.294 2.244 2.244 2.304
1803.594 2.344 2.194 2.094 1.964 1.844 2.084 2.104 2.094 2.144 2.144
1822.884 2.234 2.134 2.054 2.144 2.324 2.344 2.254 2.244 2.304 2.274
1842.174 2.274 2.294 2.334 2.374 2.474 2.464 2.344 2.474 2.574 2.584
1861.464 2.614 2.694 2.764 2.804 2.914 2.934 3.184 3.324 3.304 3.374
1880.754 3.404 3.524 3.594 3.564 3.444 3.374 3.294 3.054 2.844 2.814
1900.043 2.704 2.294 2.284 2.394 2.124 2.074 2.034 1.984 1.944 1.854
1919.333 1.944 2.184 2.214 2.004 1.824 1.814 1.834 1.794 1.854 1.784
1938.623 1.714 1.734 1.694 1.584 1.464 1.3875 1.379 1.584 1.684 1.574
1957.913 1.614 1.744 1.724 1.624 1.464 1.4511 1.534 1.534 1.594 1.484
1977.202 1.484 1.524 1.544 1.624 1.524 1.3854 1.3998 1.464 1.564 1.654
1996.492 1.604 1.574 1.714 1.834 1.674 1.684 1.814 1.764 1.774 1.774
2015.782 1.634 1.584 1.784 1.774 1.4231 1.3362 1.494 1.504 1.504 1.4366
2035.072 1.3878 1.2869 1.1786 1.248 1.3901 1.4253 1.484 1.604 1.584 1.584
2054.362 1.684 1.724 1.754 1.754 1.784 1.774 1.644 1.664 1.674 1.924
2073.651 2.274 2.294 2.454 2.504 2.304 2.254 2.254 2.144 1.984 1.924
2092.941 1.944 1.804 1.644 1.604 1.494 1.4385 1.474 1.4441 1.3093 1.2491
2112.231 1.3859 1.3937 1.3381 1.504 1.3625 1.2456 1.3892 1.321 1.2754 1.4052
2131.521 1.464 1.4281 1.3996 1.346 1.3355 1.4619 1.664 1.564 1.3543 1.524
2150.810 1.824 1.854 1.884 1.814 1.644 1.694 1.714 1.724 1.744 1.674
2170.100 1.694 1.824 1.934 1.844 1.754 1.984 2.204 2.104 2.024 1.884
2189.390 1.744 1.684 1.594 1.554 1.554 1.744 1.694 1.504 1.694 1.744
2208.680 1.744 1.694 1.504 1.4633 1.734 1.674 1.3966 1.574 1.564 1.4414
2227.970 1.4352 1.684 1.924 1.854 1.744 1.804 1.964 1.914 1.994 2.074
2247.259 1.894 1.964 2.024 1.964 1.904 1.884 2.004 2.134 2.294 2.104
2266.549 1.944 2.084 2.144 2.134 2.324 2.444 2.484 2.514 2.224 1.974
2285.839 2.004 1.874 1.774 1.854 1.744 1.794 1.684 1.634 2.014 2.054
2305.129 1.814 1.834 1.984 1.804 1.654 1.734 1.844 1.884 1.754 1.774
2324.418 1.844 1.964 2.234 2.064 2.044 1.984 1.744 1.804 2.024 2.214
2343.708 2.094 2.004 2.154 2.174 1.784 1.774 1.994 1.784 1.724 1.714
2362.998 1.544 1.4534 1.3618 1.2138 1.2699 1.564 1.504 1.2024 1.2361 1.2472
2382.288 1.1418 1.2501 1.3779 1.3693 1.3309 1.4113 1.554 1.664 1.624 1.4556
2401.578 1.0822 1.0628 1.1246 0.8969 0.834 1.021 1.4573 1.514 1.287 1.2811
2420.867 1.1752 1.1811 1.3035 1.2157 1.2689 1.3163 1.0831 0.8506 0.9234 1.0031
2440.157 1.066 1.3112 1.3929 1.2412 1.0564 1.0344 1.0919 1.2525 1.1518 1.0769
2459.447 1.2459 1.0478 0.8491 0.9246 1.3731 1.464 1.288 1.504 1.484 1.4093
2478.737 1.614 1.714 1.4387 1.4127 1.624 1.534 1.2525 1.0347 1.1051 1.2389
2498.026 1.1707 1.0165 1.1002 1.3546 1.494 1.584 1.4543 1.2199 1.3948 1.734
2517.316 1.614 1.3451 1.4236 1.504 1.4508 1.4638 1.504 1.4231 1.524 1.704
2536.606 1.794 1.734 1.704 1.784 1.864 1.824 1.754 1.784 1.684 1.734
2555.896 1.694 1.564 1.644 1.574 1.3365 1.1981 1.3119 1.564 1.4464 1.1868
2575.186 1.2924 1.309 1.2502 1.423 1.534 1.3352 1.0232 0.7848 0.7667 1.0655
2594.475 1.2007 1.1981 1.594 1.644 1.3287 1.4518 1.3491 1.2604 1.654 1.874
2613.765 1.924 1.764 1.594 1.774 1.884 1.694 1.34 1.3523 1.311 1.3072
2633.055 1.3573 1.2264 1.2033 1.1989 1.303 1.2933 1.2046 1.3496 1.484 1.458
2652.345 1.2703 0.9923 0.9771 1.1867 1.2089 1.2307 1.254 1.232 1.2445 1.1869
2671.634 1.0208 0.6815 0.9761 1.2848 0.9192 0.8688 1.0671 1.0999 1.0338 1.1421
2690.924 0.8958 0.52374 0.6376 0.8631 1.2527 1.1452 0.9025 0.8758 0.9794 0.9611
2710.214 1.0492 1.1746 0.8058 0.7117 0.7539 0.7213 0.5772 0.7085 1.0673 1.0857
2729.504 1.0541 1.1287 1.0984 0.9725 0.9332 0.8609 0.8402 0.8947 1.0152 0.8095
2748.794 0.5926 0.9255 1.3694 1.212 0.9656 1.0983 1.2045 1.2113 1.2131 1.3939
2768.083 1.464 1.3479 1.1096 0.8158 0.7115 0.8578 0.7798 0.8995 1.1591 1.0432
2787.373 0.9591 1.0522 1.0484 1.1961 1.1869 1.1926 1.2818 1.0579 0.8719 1.1522
2806.663 1.3728 1.2634 1.3156 1.3086 1.704 1.704 1.1995 1.3876 1.714 1.934
2825.953 2.194 2.304 2.384 2.614 2.764 2.854 3.074 3.464 3.924 4.004
2845.242 4.344 4.604 4.764 4.704 4.384 4.174 3.944 3.794 3.514 3.464
2864.532 3.554 3.424 3.314 3.434 3.524 3.554 3.374 3.124 3.084 3.154
2883.822 3.354 3.214 3.074 3.024 2.764 2.804 3.014 3.084 3.124 3.384
2903.112 3.294 3.454 4.094 4.324 4.534 5.334 5.814 6.724 8.294 9.434
2922.401 11.144 13.314 15.634 18.594 21.794 23.844 24.314 23.644 22.414 20.174
2941.691 16.654 13.164 10.394 8.594 7.334 6.024 5.124 4.434 3.844 3.634
2960.981 3.294 2.944 3.334 3.504 3.354 3.354 2.954 3.204 3.524 3.444
2980.271 3.704 4.114 4.504 4.914 5.444 6.054 6.524 7.294 8.014 8.084
2999.561 8.244 8.404 8.004 7.144 6.754 6.204 5.074 4.704 4.354 3.904
3018.850 3.614 3.654 3.754 3.574 3.824 4.044 4.264 4.574 4.894 4.974
3038.140 4.734 4.824 4.994 5.164 5.084 4.884 4.784 4.624 4.494 4.384
3057.430 3.984 3.754 3.734 3.614 3.934 3.764 3.514 3.704 3.684 3.714
3076.720 3.864 4.294 4.764 5.064 5.204 5.054 5.134 5.234 5.074 4.784
3096.009 4.504 3.934 3.454 3.024 2.624 2.754 2.714 2.714 2.714 2.344
3115.299 2.384 2.494 2.184 2.004 2.274 2.304 2.364 2.504 2.104 2.044
3134.589 1.944 1.594 1.814 1.884 1.674 1.464 1.398 1.644 1.764 1.514
3153.879 0.8623 1.2698 1.954 1.674 1.504 1.4052 1.2551 0.9729 0.8902 1.0988
3173.169 1.3594 1.504 1.644 2.104 2.244 2.134 2.244 2.104 1.704 1.504
3192.458 1.4511 1.524 1.674 1.3897 1.2449 1.4559 1.4235 1.704 1.684 1.2465
3211.748 1.3901 1.2922 1.093 1.3555 1.464 1.634 1.804 1.484 1.2052 1.1246
3231.038 0.7708 0.7839 0.791 0.5654 0.9609 1.1563 1.1872 1.1205 0.50006 0.341
3250.328 0.3732 0.302 0.6525 0.9067 0.9678 0.9117 0.8184 0.7074 0.8651 1.0413
3269.617 0.902 1.1499 1.2452 0.7728 0.7663 0.6424 0.5783 0.8081 0.6166 0.314
3288.907 0.339 0.8176 1.0211 1.2143 1.0648 0.5817 0.7558 0.9081 1.0342 1.2211
3308.197 1.1109 0.9072 1.0555 1.2085 0.8458 0.78 1.0428 0.9792 0.9855 0.9599
3327.487 0.8528 1.1353 1.2502 1.027 1.0061 1.0094 1.3187 1.484 1.1879 1.564
3346.777 2.054 1.764 1.3703 1.914 2.404 2.374 2.454 3.044 3.594 3.674
3366.066 4.294 5.254 6.344 7.524 9.104 10.824 12.744 15.034 17.174 19.534
3385.356 21.274 22.624 23.084 21.914 20.484 18.544 15.844 13.814 11.854 9.704
3404.646 8.174 7.284 6.644 5.324 4.384 4.054 3.084 2.704 2.944 2.804
3423.936 2.914 2.864 2.634 2.884 2.884 2.784 2.874 2.614 2.544 2.894
3443.225 2.534 2.264 2.494 2.644 3.064 3.684 3.624 3.324 3.584 3.994
3462.515 3.984 4.014 4.764 5.254 5.604 6.804 8.014 8.644 9.584 11.134
3481.805 12.764 14.404 15.884 18.074 20.104 20.664 21.344 21.494 20.534 19.644
3501.095 18.404 16.674 14.904 12.604 10.644 9.534 8.204 7.004 6.124 5.164
3520.385 4.624 4.084 3.374 2.924 2.594 2.164 2.014 2.474 2.494 2.354
3539.674 2.514 2.534 2.124 1.734 1.794 1.814 1.2447 1.1558 1.684 1.604
3558.964 1.744 1.514 1.2372 1.4286 1.2965 1.4291 1.654 1.534 1.514 1.494
3578.254 1.2707 0.9848 1.2895 1.2798 0.8326 0.8235 0.7486 0.7796 0.9357 1.0938
3597.544 1.1381 1.2577 1.3078 0.7489 0.743 0.9585 1.0126 0.8207 0.6297 1.0605
3616.833 1.0747 0.9165 0.869 0.852 1.0317 0.9431 0.6926 0.785 1.3218 1.4562
3636.123 1.1911 1.3061 1.3077 1.2482 1.3409 1.874 2.034 1.584 1.2429 1.0516
3655.413 0.8636 0.8747 1.3404 1.1725 0.7687 0.6141 0.6421 0.973 1.0853 1.187
3674.703 1.2312 1.1084 1.266 1.1088 0.8726 1.1184 1.0504 0.9192 0.8352 0.51858
3693.993 0.4148 1.0468 1.4435 1.1378 0.6761 0.53974 0.5808 0.76 0.9849 0.9177
3713.282 0.6505 0.6131 0.85 1.1468 1.3395 1.0519 0.9967 1.3113 1.584 1.3183
3732.572 0.9477 1.1213 1.0726 0.9335 0.7366 0.8844 1.1171 1.2232 0.6915 0
3751.862 0.7055 1.1597 0.9517 0.9183 0.8594 1.0263 1.0457 0.7343 0.786 0.7736
3771.152 0.55521 0.9436 1.3899 1.1217 0.9783 0.856 0.52387 0.45687 0.5758 0.7116
3790.441 1.0844 1.484 1.794 1.644 1.3145 1.554 1.2907 0.9121 1.3478 1.3894
3809.731 1.1482 1.3438 1.4533 1.244 1.1282 1.4223 1.474 1.3883 1.714 1.4577
3829.021 0.6967 0.458 0.8097 1.311 1.3714 1.2236 0.9632 0.8425 0.8578 0.97
3848.311 1.3573 1.1419 0.9016 1.1867 0.9337 0.7376 0.7867 0.796 0.8871 0.8035
3867.601 1.0652 1.3439 1.484 1.4142 0.9428 1.0591 0.7831 0.6781 1.1309 0.9935
3886.890 0.844 1.13 1.534 1.1864 1.2097 1.2013 0.6082 0.7781 1.3965 1.3903
3906.180 1.1589 1.534 1.964 1.584 1.2638 1.313 1.494 1.704 1.684 1.554
3925.470 1.2772 1.534 1.774 1.904 1.724 1.1699 1.0061 0.9579 0.7885 0.6843
3944.760 1.0058 1.0568 0.8541 0.9734 1.2372 1.3082 1.3826 1.824 1.864 1.3798
3964.049 1.4251 1.594 1.4117 1.464 1.514 1.4025 1.2514 1.554 2.024 2.004
3983.339 1.824 1.654 1.654 1.4158 1.624 1.744 1.554 1.3926 1.0405 1.0964
##END=
