##TITLE=3-Fluoro-5-(trifluoromethyl)propiophenone
##JCAMP-DX=4.24
##DATA TYPE=INFRARED SPECTRUM
##ORIGIN=EPA-IR VAPOR PHASE LIBRARY
##OWNER=SRD/NIST
Collection (C) 2018 copyright by the U.S. Secretary of Commerce
on behalf of the United States of America. All rights reserved.
##CAS REGISTRY NO=207974-20-7
##MOLFORM=C 10 H 8 F 4 O
##$NIST SOURCE=MSDC-IR
##STATE=gas
##XUNITS=1/CM
##YUNITS=ABSORBANCE
##XFACTOR=1.
##YFACTOR=0.001
##DELTAX=1.92898
##FIRSTX=549.8
##LASTX=4000.7
##FIRSTY=2.521
##MAXX=4000.7
##MINX=549.759
##MAXY=0.144541
##MINY=0
##NPOINTS=1790
##XYDATA=(X++(Y..Y))
549.759 2.521 2.231 2.591 2.731 2.431 2.181 2.131 2.541 2.491 2.701
569.049 2.831 2.801 3.291 3.681 3.201 3.041 3.031 2.761 2.661 2.381
588.339 2.381 2.361 2.261 2.301 1.861 1.6358 2.141 2.201 1.851 1.7322
607.628 1.7821 2.071 2.071 1.6147 1.921 2.171 2.511 2.651 2.171 1.821
626.918 2.271 2.541 2.561 2.871 2.761 2.941 3.331 3.101 2.611 2.911
646.208 3.001 3.261 3.651 3.251 3.621 4.021 3.901 4.251 4.481 4.441
665.498 4.591 4.851 4.911 4.921 4.991 5.391 6.351 6.891 7.081 8.091
684.787 9.071 9.621 10.601 12.051 14.461 15.871 15.241 14.881 14.591 14.141
704.077 14.121 13.581 12.451 11.401 10.251 9.221 8.061 7.581 7.611 6.991
723.367 6.261 5.221 4.591 4.631 4.261 3.771 3.231 2.741 2.991 3.031
742.657 2.691 2.861 2.641 2.311 2.671 2.721 2.821 2.661 2.061 1.791
761.947 1.811 2.021 2.111 2.281 2.291 2.161 2.011 1.981 2.031 1.851
781.236 2.061 1.851 1.951 2.701 2.621 2.591 3.111 3.261 3.401 4.201
800.526 4.611 4.561 4.981 5.471 6.161 6.771 7.251 7.991 8.641 8.991
819.816 8.901 9.301 9.561 9.141 8.681 7.791 6.711 5.521 4.751 4.321
839.106 4.071 4.021 3.391 2.691 2.571 2.891 2.891 2.701 2.861 2.721
858.395 2.641 3.031 3.291 3.191 3.581 4.251 5.251 6.811 8.581 10.591
877.685 13.131 16.161 19.461 22.601 24.581 25.161 23.061 20.531 19.841 19.481
896.975 19.871 21.221 23.571 26.161 28.021 29.211 29.991 29.801 27.661 24.821
916.265 22.231 20.141 19.001 18.881 18.911 18.191 17.031 16.171 15.461 14.201
935.555 11.921 9.721 8.271 6.591 5.631 4.781 4.181 4.281 3.911 3.781
954.844 4.231 4.531 4.481 4.701 4.851 4.961 5.341 5.401 5.091 4.961
974.134 5.211 5.161 4.831 4.451 4.361 4.631 4.411 3.871 4.101 4.061
993.424 3.681 4.151 4.281 3.971 3.771 3.321 3.031 3.331 3.261 3.541
1012.714 3.541 3.331 3.941 4.161 3.941 4.111 4.781 4.681 4.281 4.431
1032.003 4.211 3.551 3.421 3.951 3.811 3.461 3.801 4.591 4.541 3.461
1051.293 3.231 3.431 3.781 3.581 3.121 4.011 4.891 5.081 5.011 5.801
1070.583 6.961 7.631 8.601 8.701 9.831 11.351 12.401 13.541 14.261 15.441
1089.873 16.331 17.871 18.511 16.891 15.281 14.771 13.361 10.481 9.211 8.831
1109.163 7.631 8.121 9.371 8.231 7.671 9.481 10.491 11.911 12.651 13.931
1128.452 16.521 19.551 23.801 28.401 35.571 44.641 54.591 66.451 80.791 97.091
1147.742 114.201 129.141 139.761 144.541 139.761 128.081 113.301 98.711 86.251 76.191
1167.032 71.291 71.861 76.271 85.381 97.411 107.441 113.601 114.021 107.761 96.391
1186.322 83.681 70.401 56.721 45.571 36.991 31.461 27.571 25.051 24.651 23.411
1205.611 23.441 25.451 28.001 32.591 36.021 39.901 47.031 57.561 70.991 83.091
1224.901 95.191 105.301 107.661 104.071 96.831 84.021 70.921 59.021 49.681 44.451
1244.191 41.311 39.931 38.721 36.951 34.831 33.341 31.931 30.521 30.021 30.081
1263.481 29.631 28.321 26.841 24.791 22.601 21.181 19.361 17.531 15.741 14.431
1282.771 13.851 13.041 12.401 12.201 12.161 12.211 12.391 12.671 13.411 14.311
1302.060 15.301 16.541 17.871 19.191 20.631 22.111 23.471 25.241 27.611 30.551
1321.350 34.061 38.161 42.751 47.371 51.631 55.171 57.541 58.941 59.761 60.161
1340.640 60.591 61.881 64.381 67.811 71.661 75.251 78.121 79.811 79.981 78.221
1359.930 74.591 69.641 63.571 56.911 50.021 43.231 37.061 31.481 26.771 23.031
1379.219 20.041 17.751 15.901 14.511 13.381 12.511 11.601 10.671 9.981 9.221
1398.509 8.741 8.621 8.481 8.521 8.641 8.701 8.891 9.201 9.621 10.001
1417.799 10.371 10.841 11.571 12.501 13.481 14.861 16.651 18.771 21.331 24.251
1437.089 27.341 30.221 32.771 34.791 36.121 36.421 35.771 34.471 32.811 30.991
1456.378 29.261 27.871 26.381 25.021 23.721 21.871 19.611 17.361 15.151 12.931
1475.668 11.011 9.371 8.261 7.241 6.521 6.131 5.611 5.261 5.031 4.741
1494.958 4.451 4.271 4.031 3.751 3.791 3.731 3.601 3.491 3.381 3.361
1514.248 3.361 3.291 2.891 2.611 2.781 2.831 2.791 2.871 2.841 2.791
1533.538 2.861 2.761 2.561 2.421 2.451 2.521 2.591 2.571 2.561 2.751
1552.827 2.841 2.871 2.961 2.981 2.951 3.171 3.431 3.521 3.631 4.001
1572.117 4.411 4.721 5.221 5.691 6.211 6.861 7.811 8.681 9.521 10.901
1591.407 12.441 14.111 15.571 16.981 18.261 19.151 19.781 19.911 19.401 18.491
1610.697 17.341 15.721 13.971 12.251 10.721 9.661 8.931 8.191 7.411 6.881
1629.986 6.531 5.981 5.491 5.081 4.881 4.761 4.541 4.191 4.001 3.851
1649.276 3.721 3.961 3.971 3.811 3.781 3.621 3.591 3.791 4.011 4.341
1668.566 4.441 4.571 5.001 5.341 5.661 6.131 6.761 7.461 8.001 8.611
1687.856 9.411 10.211 11.411 13.061 15.491 18.851 23.131 28.621 34.151 39.931
1707.146 44.991 48.621 49.961 49.051 45.901 40.911 34.961 29.091 23.421 18.651
1726.435 15.151 12.481 10.671 9.671 8.951 8.341 7.981 7.781 7.521 7.051
1745.725 6.671 6.311 5.861 5.601 5.281 4.871 4.621 4.581 4.641 4.641
1765.015 4.691 4.711 4.681 4.671 4.641 4.481 4.241 3.851 3.441 3.311
1784.305 3.081 2.741 2.651 2.581 2.501 2.451 2.461 2.401 2.261 2.281
1803.594 2.331 2.251 2.231 2.301 2.371 2.421 2.261 2.161 2.101 2.031
1822.884 2.081 2.041 1.951 2.001 2.031 1.831 1.7384 1.861 1.801 1.6654
1842.174 1.6733 1.6975 1.6335 1.5781 1.6371 1.714 1.6519 1.5465 1.5377 1.5753
1861.464 1.5609 1.475 1.5549 1.4977 1.5068 1.4964 1.423 1.5009 1.3837 1.2634
1880.754 1.34 1.3799 1.3895 1.4332 1.4374 1.3952 1.3002 1.3289 1.3575 1.2566
1900.043 1.2579 1.312 1.2517 1.2749 1.2835 1.2583 1.2786 1.2607 1.2584 1.2771
1919.333 1.2994 1.2939 1.23 1.207 1.1647 1.239 1.3388 1.3459 1.2114 1.0039
1938.623 1.0253 1.1631 1.2856 1.216 1.1279 1.1463 1.1539 1.2223 1.2805 1.2936
1957.913 1.1938 1.2556 1.3861 1.2612 1.1374 1.1847 1.2259 1.2508 1.242 1.1593
1977.202 1.2012 1.3078 1.2884 1.2107 1.2573 1.2896 1.3119 1.437 1.2899 1.0833
1996.492 1.1685 1.1492 1.1554 1.2897 1.4359 1.4264 1.2094 1.1369 1.2665 1.3386
2015.782 1.2218 1.072 1.0457 1.0134 1.0603 1.1845 1.1218 1.0861 1.2024 1.3209
2035.072 1.3031 1.1941 1.1635 1.3183 1.4368 1.3462 1.2054 1.1114 1.1068 1.2052
2054.362 1.396 1.4079 1.3048 1.2203 1.2674 1.3368 1.1673 1.278 1.4471 1.4181
2073.651 1.3231 1.1681 1.2031 1.3026 1.2426 1.1448 1.3061 1.4562 1.3422 1.3415
2092.941 1.3358 1.2736 1.3439 1.1615 1.0795 1.1754 1.1467 1.2263 1.2107 1.1346
2112.231 1.0203 1.0033 1.152 1.2088 1.1633 1.2525 1.272 1.1473 1.1959 1.1634
2131.521 1.2196 1.2708 1.1928 1.2725 1.4184 1.4138 1.313 1.2405 1.1439 0.9739
2150.810 0.9668 1.1034 1.1988 1.2978 1.3072 1.216 1.2175 1.5325 1.6086 1.3544
2170.100 1.1885 1.2546 1.3928 1.2802 1.1828 1.2051 1.3767 1.4807 1.2165 1.2089
2189.390 1.1902 1.193 1.3775 1.2709 1.1818 1.2464 1.3474 1.4009 1.134 1.0188
2208.680 1.2028 1.1791 1.0849 1.1235 1.1892 1.1364 1.0596 1.0707 1.1698 1.2456
2227.970 1.1283 1.062 1.1858 1.1051 1.0908 1.1519 0.9716 1.0947 1.5244 1.5967
2247.259 1.4185 1.3167 1.3093 1.4598 1.525 1.3212 1.332 1.5955 1.6873 1.4947
2266.549 1.3281 1.3002 1.3121 1.1964 1.312 1.4761 1.3397 1.2619 1.3465 1.4836
2285.839 1.5982 1.5079 1.448 1.4923 1.4391 1.4875 1.5624 1.5182 1.3042 1.0994
2305.129 1.1488 1.4254 1.4712 1.2868 1.317 1.4237 1.4603 1.4502 1.3907 1.249
2324.418 1.2518 1.4123 1.5097 1.6568 1.3728 1.2144 1.3104 1.2092 1.2721 1.4423
2343.708 1.5855 1.5013 1.3015 1.427 1.4449 1.3876 1.4956 1.5018 1.5666 1.4793
2362.998 1.4134 1.4383 1.5515 1.546 1.4819 1.5069 1.3425 1.2657 1.2964 1.3594
2382.288 1.4256 1.2932 1.3387 1.4285 1.2452 1.2481 1.4146 1.518 1.4421 1.2617
2401.578 1.1059 1.1497 1.0826 0.9553 1.1648 1.2931 1.2124 1.1898 1.1132 1.0409
2420.867 1.091 1.1533 1.01 1.0438 1.1349 1.0099 1.1162 1.2288 1.197 1.1132
2440.157 1.2413 1.2518 0.9977 0.80252 0.8264 1.143 1.1772 1.0799 1.0759 0.954
2459.447 1.0537 1.1897 1.2552 1.2464 1.0947 1.2529 1.3961 1.2006 1.0875 1.1792
2478.737 1.349 1.2275 1.1044 1.2303 1.1412 1.135 1.0336 0.9562 1.2447 1.2303
2498.026 1.0076 0.9712 1.0478 1.0201 1.0352 1.0969 1.0971 1.0817 0.9384 1.1701
2517.316 1.2629 0.87479 0.83694 0.7611 0.7065 0.9631 1.066 1.1077 1.2287 1.2308
2536.606 1.1758 1.0914 1.2145 1.3283 1.3974 1.3451 1.1156 1.1699 1.1815 1.1348
2555.896 1.0807 0.9999 1.1048 1.1845 1.337 1.4642 1.2826 1.1583 1.0567 0.88898
2575.186 0.9185 0.9865 1.1163 0.9945 1.001 1.4192 1.3562 1.2251 1.2696 1.1206
2594.475 1.1835 1.4243 1.4474 1.3537 1.2045 0.9531 1.0146 1.0349 0.86535 0.9525
2613.765 0.9728 1.1231 1.2318 1.1735 1.1292 1.1564 1.0598 1.1558 1.2951 0.9316
2633.055 0.85227 1.1597 1.3377 1.1805 1.0145 1.1033 0.9573 0.84725 1.0212 1.2535
2652.345 1.3153 1.28 1.1204 0.7778 0.93 1.1339 1.0543 1.1173 1.3126 1.3825
2671.634 1.2982 1.159 1.0072 0.9373 1.0151 1.0817 1.194 1.366 1.1901 0.9739
2690.924 1.0221 1.175 1.0772 0.87364 0.84814 0.86891 0.80954 0.9535 1.0354 0.9662
2710.214 1.1502 0.9875 0.87323 1.0135 0.9932 0.918 0.9258 1.0482 1.246 1.1855
2729.504 0.9144 0.81713 0.9039 0.9629 0.9418 0.9914 1.1347 1.1348 1.0531 1.0852
2748.794 1.0349 1.2955 1.3582 1.0925 1.2009 1.2546 1.2237 1.1771 1.0997 0.9804
2768.083 1.106 1.263 1.0757 0.9656 0.82918 0.82976 0.985 1.09 1.0554 1.0533
2787.373 1.1416 1.3274 1.2636 1.2249 1.3235 1.1254 0.9082 1.0642 1.076 0.9113
2806.663 1.2114 1.203 0.9297 1.196 1.4695 1.5823 1.7188 1.5872 1.4831 1.559
2825.953 1.5477 1.4895 1.5204 1.7489 2.011 2.031 1.981 2.061 2.081 1.841
2845.242 1.725 1.7142 1.841 1.961 1.891 2.121 2.201 1.891 2.051 2.171
2864.532 2.091 2.511 2.721 2.761 3.331 3.401 3.241 3.331 3.411 3.771
2883.822 4.051 4.121 4.211 4.361 4.781 4.911 4.691 4.891 4.811 4.711
2903.112 5.081 5.421 5.751 6.101 6.501 6.981 7.261 7.391 7.501 7.271
2922.401 6.941 6.811 6.551 6.471 6.221 5.871 5.791 5.651 5.521 6.001
2941.691 6.991 7.741 8.181 8.891 9.661 9.681 9.721 9.291 8.571 8.301
2960.981 7.381 6.581 6.141 5.831 6.031 6.401 6.691 6.851 7.361 8.321
2980.271 9.301 10.131 11.081 12.051 12.561 12.911 12.661 11.901 11.121 9.861
2999.561 8.471 6.951 5.541 5.011 4.451 3.911 3.701 3.701 3.721 3.491
3018.850 3.471 3.461 3.031 2.801 2.771 2.591 2.221 1.981 2.171 2.281
3038.140 2.181 1.821 1.6852 1.635 1.596 1.841 1.791 1.881 2.061 2.001
3057.430 1.861 1.821 1.941 2.161 2.411 2.271 1.951 2.041 2.181 1.921
3076.720 2.011 2.641 2.911 3.051 3.211 3.581 3.861 3.881 4.021 4.101
3096.009 3.651 3.151 3.091 2.471 1.881 1.5962 1.4437 1.5585 1.6868 1.7452
3115.299 1.3653 1.5118 1.473 1.0214 1.2312 1.4654 1.5261 1.4221 1.2903 1.2334
3134.589 1.1682 1.1837 1.1129 1.1992 1.4008 1.5526 1.2387 0.7219 1.2845 1.5723
3153.879 1.36 1.4182 1.1962 0.9905 1.2609 1.2159 1.2728 1.4299 1.3262 1.0512
3173.169 0.7112 0.9399 1.0265 0.82267 0.9489 1.2989 1.4198 1.1122 0.746 0.81581
3192.458 0.673 0.85709 1.2003 1.0476 1.198 1.2494 0.9024 0.9587 1.2458 1.1588
3211.748 0.9969 0.965 1.0836 0.9308 0.7394 1.1915 1.4355 1.3544 1.2607 0.9852
3231.038 1.1515 1.2143 1.2451 0.9527 0.515 0.9876 1.3056 1.0699 1.1079 1.2585
3250.328 1.1344 0.8209 0.82929 1.1317 0.83721 0.800071 0.87339 0.59 0.7011 0.9812
3269.617 1.0777 0.797891 0.80455 0.88613 0.9884 1.3811 0.87163 0.80525 0.9862 0.7181
3288.907 0.8065 0.901 1.3107 1.5074 1.2925 1.038 1.1171 0.88895 0.7477 1.4231
3308.197 1.2827 0.49 0.472 0.6974 1.0738 1.426 1.0876 1.0213 0.9753 0.7743
3327.487 0.6987 0.472 0.513 0.7551 1.1852 1.5026 1.4337 1.3797 1.2118 0.7382
3346.777 0.483 0.82782 1.0548 0.85494 0.7476 0.9645 1.2448 1.4032 1.5032 1.2652
3366.066 1.0358 1.4357 1.1614 0.755 1.3503 1.6324 1.6294 1.3527 1.1037 1.2033
3385.356 1.1487 0.8973 1.001 1.6138 1.6716 1.6339 1.7903 1.821 2.221 2.001
3404.646 1.52 1.527 1.861 2.341 2.011 1.5391 1.5345 1.5964 1.4425 1.219
3423.936 1.3123 1.339 1.1686 1.1954 1.4789 1.2928 1.0021 1.09 0.9772 0.88599
3443.225 0.7382 0.85796 1.2069 1.3246 1.1063 0.9741 0.88269 1.3668 1.6256 1.1997
3462.515 1.3821 1.3476 1.0335 0.7715 0.88351 1.1643 1.395 1.285 0.684 0.53
3481.805 0.85974 0.7734 0.657 0.7033 0.675 1.4393 1.5463 0.9032 0.673 0.6927
3501.095 0.88367 0.80692 0.87856 1.4396 1.7193 1.821 1.7186 1.202 0.7686 0.549
3520.385 0.78633 0.8973 0.9474 0.9848 1.0712 1.143 1.0757 0.593 0.159 0.368
3539.674 0.82146 0.9924 0.86518 1.2101 1.0539 0.665 0.78528 1.1561 1.7345 1.6889
3558.964 1.2128 1.1884 1.2664 1.2143 1.5649 1.5981 1.4058 1.2604 0.9415 1.0649
3578.254 1.0944 1.1345 1.3829 1.5804 1.1254 0.737 0.9664 1.0709 0.88862 1.078
3597.544 1.2068 0.6957 0.80215 1.2314 1.5833 1.2357 0.78263 1.1992 1.3544 1.157
3616.833 1.1561 1.3338 1.605 1.3856 1.4823 1.6232 1.4813 1.314 0.9937 0.9768
3636.123 1.1244 1.22 0.9132 0.796379 0.80786 0.9298 1.0496 1.0443 1.0818 1.1024
3655.413 1.3753 1.4543 1.1001 0.9582 1.0215 0.9306 0.9936 1.2294 1.3923 1.2492
3674.703 1.1519 0.81209 0.612 0.88805 0.6919 0.617 0.621 0.298 0.82231 1.2677
3693.993 1.2992 1.0188 0.9072 1.1758 0.9205 0.9085 1.2405 1.2201 1.2079 0.9431
3713.282 0.7603 1.0173 1.1074 1.071 0.7579 0.8694 0.9962 0.9114 0.927 0.918
3732.572 0.9794 0.9355 0.86333 0.7161 0.8914 1.1473 1.3453 1.6413 1.6983 1.4657
3751.862 1.1198 0.7207 0.912 1.5716 1.501 1.0656 0.8845 0.934 1.1903 1.498
3771.152 1.1789 0.8678 0.9002 0.8257 0.622 0.619 1.0911 1.2085 1.0011 0.88022
3790.441 0.84549 0.9304 0.80482 0.80694 0.7165 0.9319 0.9681 0.698 0.7032 0.9572
3809.731 1.3895 1.1336 0.85837 0.7144 0.399 0.275 0.083 0.312 0.88938 0.86293
3829.021 0.87006 1.3733 1.1786 0.85275 1.0362 0.493 0 0.7455 1.0799 0.633
3848.311 0.82713 1.1739 1.1361 1.2696 1.0459 0.9909 1.3172 1.0564 0.647 0.9131
3867.601 1.2226 1.0329 0.82659 0.681 0.633 0.8069 0.81412 0.625 0.336 0.5
3886.890 1.1507 0.9453 0.88114 0.9464 0.6971 0.504 0.592 0.6 0.496 0.591
3906.180 0.511 0.9271 0.9226 0.83257 1.2186 1.0134 0.541 0.605 0.65 0.618
3925.470 0.83631 1.0177 1.2471 1.5931 1.821 1.2449 0.571 0.7741 1.068 1.0496
3944.760 1.0275 0.9539 0.9739 1.0531 1.0722 1.3296 1.3796 1.191 1.1778 0.8997
3964.049 0.7417 0.9898 1.0319 0.691 0.7321 0.9867 0.9804 0.9567 1.0919 1.1874
3983.339 0.9751 0.517 0.612 1.0227 1.1749 1.1022 0.7726 0.687 1.1645 1.474
##END=
