##TITLE=2,6-Dichlorophenyl ethyl sulphide
##JCAMP-DX=4.24
##DATA TYPE=INFRARED SPECTRUM
##ORIGIN=EPA-IR VAPOR PHASE LIBRARY
##OWNER=SRD/NIST
Collection (C) 2018 copyright by the U.S. Secretary of Commerce
on behalf of the United States of America. All rights reserved.
##CAS REGISTRY NO=207853-62-1
##MOLFORM=C 8 H 8 Cl 2 S
##$NIST SOURCE=MSDC-IR
##STATE=gas
##XUNITS=1/CM
##YUNITS=ABSORBANCE
##XFACTOR=1.
##YFACTOR=0.001
##DELTAX=1.92898
##FIRSTX=549.8
##LASTX=4000.7
##FIRSTY=1.689
##MAXX=4000.7
##MINX=549.759
##MAXY=0.098079
##MINY=0
##NPOINTS=1790
##XYDATA=(X++(Y..Y))
549.759 1.689 1.4257 1.0094 0.65364 1.0843 1.1616 0.9471 1.1343 0.9143 0.7682
569.049 1.0377 0.64798 0.236 0.303 0.363 0.62571 1.34 1.5727 1.2556 0.9867
588.339 1.2292 1.5405 1.3128 1.2838 1.3423 1.1064 1.2997 1.5099 0.8765 0.446
607.628 0.937 0.853 0.5887 1.0744 0.8505 0.7779 1.4391 1.1987 0.64019 0.62214
626.918 1.1654 1.1939 1.4528 1.809 1.2123 0.909 1.3862 1.659 1.849 2.709
646.208 2.999 2.749 2.689 2.499 2.369 1.969 1.949 2.319 1.959 1.679
665.498 1.669 1.3486 1.2918 1.619 2.179 1.989 1.879 2.259 1.709 1.659
684.787 1.889 1.759 1.879 2.219 2.939 3.549 4.079 4.879 5.289 5.729
704.077 6.849 8.319 9.579 9.499 8.699 7.999 7.239 6.659 5.759 5.179
723.367 4.779 4.189 4.099 3.759 3.449 3.649 3.599 3.589 3.589 3.519
742.657 3.609 3.869 4.229 4.419 5.339 6.469 8.029 10.429 14.019 18.809
761.947 25.169 33.869 44.359 55.189 66.799 80.909 93.979 98.079 90.699 81.419
781.236 73.249 62.309 50.009 38.689 29.009 21.759 17.039 13.329 10.379 8.889
800.526 7.859 6.809 6.229 6.019 5.869 5.639 5.329 4.969 4.319 3.839
819.816 4.199 4.279 4.019 3.389 2.839 2.869 2.459 2.319 2.529 2.219
839.106 1.939 1.979 1.929 1.5015 1.1586 1.5606 1.849 1.4962 1.2198 1.1927
858.395 1.1516 1.1247 0.9447 0.9973 1.135 1.0277 0.60646 0.444 0.618404 0.7649
877.685 1.1308 1.2444 1.327 1.0016 1.0042 1.3007 1.2363 1.1326 1.4146 1.5281
896.975 1.4238 1.3149 1.0472 1.333 1.769 1.799 1.679 1.4721 1.2237 1.0222
916.265 1.0997 1.226 0.8245 0.8139 0.8704 0.9719 1.047 1.0165 1.3109 1.2301
935.555 1.1746 1.5244 1.759 1.919 1.689 1.3703 1.869 2.019 2.059 2.439
954.844 2.689 3.349 3.839 4.159 4.739 5.159 5.339 5.599 5.539 5.229
974.134 5.259 5.019 4.539 4.029 3.539 3.459 3.069 2.469 2.239 1.769
993.424 1.709 1.859 1.689 1.939 1.769 1.739 2.269 2.209 2.109 1.899
1012.714 2.029 2.239 1.869 2.199 2.539 2.919 2.949 2.699 2.819 3.509
1032.003 4.239 4.099 3.999 4.129 4.599 4.929 4.719 4.529 4.129 3.889
1051.293 4.029 3.649 3.319 3.039 2.499 2.519 2.749 2.549 2.439 2.479
1070.583 2.309 3.029 3.869 4.279 5.089 6.219 6.439 6.399 5.979 5.069
1089.873 6.059 6.279 5.549 5.039 4.129 3.409 2.459 2.099 2.159 1.689
1109.163 1.909 2.569 1.799 1.3552 1.554 0.9061 1.3105 1.889 3.019 4.319
1128.452 4.619 6.209 6.859 6.619 7.899 8.809 9.039 9.739 11.019 10.839
1147.742 10.719 11.419 11.769 12.169 12.369 12.359 11.809 10.539 9.579 9.529
1167.032 8.489 7.799 8.909 10.359 12.579 14.519 17.549 21.349 23.669 25.049
1186.322 25.029 23.919 21.419 19.189 16.329 11.999 8.919 6.479 3.809 2.909
1205.611 3.469 3.159 2.359 2.249 3.269 3.429 1.689 1.579 2.139 3.029
1224.901 3.949 3.469 3.969 4.779 4.639 4.569 4.879 5.619 6.469 6.589
1244.191 6.699 7.159 7.889 8.559 9.529 10.739 11.659 12.739 13.109 13.349
1263.481 13.619 12.999 12.499 11.739 10.539 9.589 8.379 6.869 5.589 5.069
1282.771 4.899 4.419 4.179 3.769 3.619 3.659 3.499 3.429 3.229 3.149
1302.060 3.309 3.279 2.949 2.649 2.389 2.089 1.909 1.839 1.889 1.919
1321.350 1.729 1.729 1.719 1.639 1.679 1.629 1.679 1.799 1.709 1.629
1340.640 1.699 1.679 1.5649 1.639 1.699 1.779 1.959 2.049 2.049 2.059
1359.930 2.169 2.239 2.369 2.549 2.759 3.119 3.589 4.269 5.009 5.709
1379.219 6.519 7.389 8.479 9.769 11.379 13.219 15.169 17.189 18.859 20.169
1398.509 21.019 21.399 21.389 20.999 20.809 21.189 22.349 25.569 30.909 38.069
1417.799 46.429 54.049 58.969 61.089 60.779 57.709 52.609 45.969 36.729 26.899
1437.089 19.179 14.519 11.919 10.389 9.379 8.729 8.229 7.879 7.689 7.489
1456.378 7.219 6.989 6.649 6.309 5.919 5.469 5.309 5.029 4.769 4.629
1475.668 4.459 4.499 4.649 4.729 4.829 4.959 5.029 4.939 4.739 4.489
1494.958 4.329 4.239 3.929 3.619 3.199 2.819 2.769 2.749 2.649 2.389
1514.248 2.299 2.249 2.229 2.339 2.499 2.679 2.669 2.749 3.149 3.709
1533.538 4.359 5.059 6.209 8.109 10.229 12.819 16.179 19.649 23.019 26.089
1552.827 28.179 29.199 28.959 27.299 23.869 19.379 14.759 10.929 8.209 6.389
1572.117 5.219 4.159 3.279 2.679 2.189 2.109 2.159 1.989 1.859 1.769
1591.407 1.739 1.669 1.4661 1.4137 1.4587 1.4355 1.3297 1.3153 1.4317 1.5356
1610.697 1.5413 1.5054 1.4404 1.5366 1.5041 1.4767 1.6078 1.629 1.5619 1.669
1629.986 1.829 1.739 1.699 1.605 1.5741 1.689 1.639 1.5328 1.669 1.889
1649.276 1.969 2.039 2.209 2.339 2.379 2.539 2.519 2.289 2.419 2.599
1668.566 2.489 2.349 1.979 1.719 1.779 1.649 1.4023 1.2193 1.2257 1.2817
1687.856 0.966 0.8818 0.9503 0.8498 0.8966 1.0177 1.0682 0.9904 1.1 1.0255
1707.146 0.9423 1.0208 1.0587 0.9667 0.9132 1.0536 0.9617 0.9858 1.1225 1.1105
1726.435 0.9675 1.0417 1.239 1.2571 1.1369 0.9746 0.9501 1.0468 1.1176 1.0158
1745.725 1.0374 1.0951 1.0451 0.9093 0.9651 1.2026 1.0659 0.9066 1.0675 1.342
1765.015 1.5091 1.679 1.819 1.969 2.039 2.039 2.049 1.959 1.849 1.5801
1784.305 1.4384 1.4169 1.212 1.1409 1.12 0.9583 0.8406 0.9357 0.8958 0.7359
1803.594 0.8247 0.7935 0.7383 0.847 0.7261 0.617601 0.7158 0.8091 0.9143 0.8858
1822.884 0.9133 1.0532 1.0967 1.0213 0.9278 1.1164 1.4167 1.4685 1.5665 1.749
1842.174 1.939 1.979 1.919 1.989 2.109 2.109 2.059 1.919 1.649 1.4668
1861.464 1.3404 1.3045 1.1375 0.8888 0.9082 1.0566 1.0165 0.8484 0.9524 1.0358
1880.754 0.8002 0.7611 0.8127 0.8222 0.8769 0.95 0.9724 0.905 0.9913 1.1316
1900.043 1.2637 1.3907 1.4136 1.4746 1.649 1.819 1.969 2.219 2.509 2.719
1919.333 2.839 2.949 2.959 2.919 2.809 2.519 2.239 2.039 1.729 1.5169
1938.623 1.3552 1.0314 0.8601 0.778 0.7617 0.885 0.9198 0.7382 0.7263 0.755
1957.913 0.8535 0.938 0.7515 0.7698 0.8204 0.68423 0.5834 0.7138 0.7397 0.69696
1977.202 0.8117 0.7284 0.609042 0.608933 0.69466 0.616707 0.5403 0.7161 0.7787 0.65844
1996.492 0.7459 0.8336 0.7231 0.69792 0.7539 0.67851 0.5973 0.7236 0.68822 0.63367
2015.782 0.7278 0.67771 0.66998 0.7415 0.66187 0.7928 0.8137 0.5977 0.69178 0.7332
2035.072 0.6946 0.7101 0.7268 0.8719 0.8132 0.66095 0.7209 0.8122 0.8925 0.8949
2054.362 0.8236 0.7538 0.7172 0.69549 0.5892 0.5195 0.5738 0.62943 0.7674 0.834
2073.651 0.82 0.9092 0.9201 0.8208 0.5762 0.5563 0.68743 0.5714 0.618961 0.772
2092.941 0.7554 0.7221 0.7642 0.8232 0.7907 0.7892 0.8312 0.8053 0.70603 0.7433
2112.231 0.68772 0.5805 0.63353 0.67497 0.7387 0.828 0.8403 0.6636 0.66996 0.8177
2131.521 0.7965 0.7352 0.7201 0.802 0.7631 0.7014 0.8377 0.8749 0.9244 0.9282
2150.810 0.8536 0.7464 0.59935 0.578 0.5905 0.7226 0.8409 0.7694 0.7159 0.63117
2170.100 0.5432 0.5797 0.63379 0.785 0.7248 0.64135 0.7855 0.8323 0.8634 0.9581
2189.390 0.9818 0.7939 0.69541 0.8275 0.9051 0.8664 0.7239 0.777 0.8625 0.821
2208.680 0.8205 0.7361 0.68011 0.5546 0.5681 0.7115 0.7292 0.8505 0.8665 0.7817
2227.970 0.70425 0.5658 0.68766 0.8091 0.8306 0.68427 0.5408 0.5366 0.69851 0.7987
2247.259 0.7279 0.7681 0.5968 0.465 0.60718 0.67715 0.7808 0.8343 0.8645 0.8709
2266.549 0.807 0.843 0.8444 0.8469 0.8832 0.8081 0.68754 0.8588 0.827 0.5813
2285.839 0.7367 1.0819 1.0197 0.8087 0.8841 0.9782 1.0979 1.0446 0.9549 1.0355
2305.129 1.0676 1.0443 1.0333 0.943 0.9304 1.0341 0.9354 0.70799 0.6905 0.9164
2324.418 0.9376 0.8257 0.8445 0.8413 0.8347 0.9235 0.8054 0.7649 0.8099 0.67105
2343.708 0.68584 0.8477 0.949 0.9012 0.9274 0.954 0.9012 0.9555 0.8025 0.7833
2362.998 1.0146 0.8637 0.5771 0.5493 0.7311 1.0389 1.116 0.9789 0.8203 0.8345
2382.288 0.8933 0.7815 0.67702 0.66853 0.5905 0.67745 0.8039 0.7901 0.8026 0.8525
2401.578 0.9692 0.8371 0.62053 0.65473 0.7944 0.7372 0.69157 0.8521 0.8416 0.9094
2420.867 0.9746 0.862 0.9192 0.9601 1.07 1.0524 0.8291 0.8123 1.019 1.1148
2440.157 0.9841 0.9951 0.8757 0.7945 0.9455 0.9644 0.8732 0.8559 0.9937 0.9165
2459.447 0.8457 0.8389 0.7205 0.8315 1.0065 0.8463 0.727 0.63191 0.5715 0.7477
2478.737 1.0028 0.8866 0.7095 0.8308 0.8324 0.9008 1.0124 1.0585 1.1618 0.7832
2498.026 0.482 0.7734 0.9187 0.873 0.9945 0.9151 0.65793 0.63689 0.532 0.65503
2517.316 0.433 0.269 0.5383 0.69739 0.6778 0.66934 0.7494 0.7155 0.67544 0.455
2536.606 0.5444 0.7318 0.63676 0.66623 0.7716 0.5774 0.467 0.5753 0.7401 0.7705
2555.896 0.62568 0.7638 0.7777 0.66479 0.7576 0.8851 0.69186 0.469 0.5903 0.7735
2575.186 0.70739 0.514 0.5532 0.47 0.462 0.60236 0.5152 0.5143 0.5606 0.62503
2594.475 0.7244 0.712 0.9098 0.9218 0.8863 0.8311 0.67119 0.63759 0.7885 0.8303
2613.765 0.68167 0.8459 0.8822 0.68117 0.8138 0.9082 0.8685 0.9241 0.7981 0.873
2633.055 1.1502 1.2468 1.0454 0.9135 1.0889 0.9771 0.9271 0.9638 0.8624 0.9598
2652.345 0.7781 0.62183 0.7107 0.7834 0.7311 0.60704 0.65637 0.68475 0.8695 1.0336
2671.634 0.856 0.8392 0.9359 0.8104 0.9042 1.1901 1.0667 0.8651 0.9342 0.962
2690.924 1.1128 1.1547 1.0347 1.1897 1.1696 1.1334 0.9191 0.7577 1.1338 1.1584
2710.214 1.0324 1.1333 1.249 1.195 0.9918 0.8355 0.8856 1.0088 0.9338 0.8824
2729.504 0.9907 0.9375 0.7298 0.64433 0.8285 1.2353 1.2911 1.0402 1.0354 1.2271
2748.794 1.1627 1.0555 0.9725 0.8386 0.8747 0.7157 0.7406 0.9626 0.8877 0.7454
2768.083 0.9086 1.2823 1.1375 0.9112 0.9043 0.9226 1.0147 0.7606 0.7566 1.0139
2787.373 1.0403 1.115 1.2927 1.4507 1.379 1.062 1.105 1.2952 1.0542 1.2054
2806.663 1.4123 1.3626 1.4558 1.4192 1.436 1.5562 1.4622 1.619 1.689 1.4341
2825.953 1.759 2.099 1.819 1.669 1.749 1.909 2.009 2.099 2.269 2.449
2845.242 2.619 2.799 2.829 2.759 2.959 3.079 3.129 3.399 3.609 3.819
2864.532 4.099 4.279 4.719 5.369 5.909 6.179 6.769 7.679 7.909 8.149
2883.822 8.679 8.909 8.769 8.539 8.409 8.079 7.329 6.529 6.209 6.089
2903.112 5.939 5.639 5.389 5.599 6.049 6.559 6.599 6.529 7.249 8.189
2922.401 9.089 10.619 12.469 14.499 16.739 19.309 21.839 23.569 24.559 24.509
2941.691 23.289 21.499 19.459 17.169 14.739 12.499 11.219 10.669 10.529 11.189
2960.981 12.249 13.429 14.789 15.939 17.129 18.329 19.289 19.979 20.229 19.889
2980.271 18.999 17.799 16.879 15.579 14.269 13.579 12.689 11.429 9.889 8.769
2999.561 7.969 7.119 6.449 6.329 5.759 4.959 4.869 4.729 4.269 3.989
3018.850 4.219 4.289 3.879 3.509 3.539 3.459 3.109 3.189 3.099 2.899
3038.140 3.039 2.929 3.179 3.739 3.599 3.729 4.089 4.039 4.319 4.269
3057.430 4.169 4.449 4.369 4.079 4.189 4.309 4.299 4.549 4.729 4.589
3076.720 4.779 4.609 3.929 3.699 3.489 2.979 2.389 2.289 2.249 2.169
3096.009 2.609 2.829 2.479 2.669 2.989 3.049 3.039 3.209 3.729 3.879
3115.299 3.539 3.389 3.229 2.609 2.119 1.889 1.6086 1.4507 1.3092 1.4076
3134.589 1.558 1.3958 1.3271 1.5718 1.2797 0.8756 1.0096 1.0348 1.0255 1.2797
3153.879 1.247 0.8659 0.8686 0.7189 0.8976 1.3749 1.5817 1.5261 1.118 0.9723
3173.169 0.8155 0.8034 0.9954 0.9936 0.9871 0.9653 1.1068 1.0637 0.9677 1.1657
3192.458 1.3553 1.2549 0.7531 0.66843 0.8903 1.1313 1.1838 1.0521 0.9953 1.1015
3211.748 1.1042 0.8585 1.0307 0.9646 0.5421 0.5586 1.0239 1.2167 0.9624 0.7142
3231.038 0.64217 0.5569 0.158 0.086 0.5887 0.62588 0.65908 0.9134 1.2393 1.2309
3250.328 1.0473 0.7913 0.422 0.7329 0.70489 0.7167 0.8455 0.7305 0.9588 0.9802
3269.617 0.8735 0.864 0.62363 0.5533 0.5868 0.736 0.9797 0.7979 0.8165 0.8902
3288.907 0.7845 0.407 0.5509 0.9015 0.613079 0.69252 0.7484 0.6393 0.492 0.501
3308.197 0.69433 0.5405 0.5427 0.9518 0.68067 0.364 0.9077 0.9677 0.8097 0.67167
3327.487 0.6266 0.682 0.344 0.5158 1.1922 1.2734 0.8663 0.9063 0.909 0.5451
3346.777 0.64179 0.8334 0.9168 0.8318 0.743 0.5544 0.375 0.5836 0.492 0.49
3366.066 0.5723 0.378 0.70515 0.9175 0.5674 0.5222 0.66407 0.624 0.488 0.5239
3385.356 0.297 0.336 0.481 0.453 0.5091 0.70527 0.8599 0.8605 0.8257 0.5547
3404.646 0.5211 0.70101 0.8616 0.584 0.337 0.448 0.242 0.103 0.5259 0.5188
3423.936 0.152 0.724 0.9482 0.8854 1.0476 0.917 0.8139 0.8061 0.8708 0.9472
3443.225 0.9154 0.8628 0.9779 1.203 1.0518 0.8607 1.2109 0.8513 0.7592 1.1765
3462.515 0.8907 0.69895 0.60229 0.5252 0.69816 0.9291 0.825 0.8439 0.8918 0.8047
3481.805 1.0088 0.9123 0.7531 0.68406 0.6947 0.7789 0.7543 0.7705 0.7282 0.432
3501.095 0.455 0.67121 0.65315 0.7759 0.7268 0.564 0.63425 0.947 0.8458 0.67225
3520.385 1.0041 1.2102 0.897 0.62452 0.5099 0.458 0.384 0.331 0.59907 0.8398
3539.674 0.8378 0.7219 0.69926 0.505 0.5771 0.9327 0.9765 0.9327 0.8116 0.5609
3558.964 0.7687 0.9669 0.9089 1.1165 1.0024 0.68546 0.7837 0.7485 0.5378 0.215
3578.254 0.33 0.7459 0.362 0.364 0.5808 0.308 0.454 0.8122 0.8024 0.7893
3597.544 0.8873 0.9419 0.9654 1.006 0.8468 0.64616 0.9531 1.2528 1.1674 0.5342
3616.833 0.5096 1.0263 1.0552 1.0037 1.0327 0.8551 0.7641 0.7917 0.5326 0.287
3636.123 0.435 0.64238 0.503 0.451 0.319 0.418 0.8574 1.0692 1.0059 0.62735
3655.413 0.412 0.5982 0.9118 0.8807 0.814 0.8043 0.64884 0.9639 1.1622 0.9283
3674.703 0.68678 0.7129 0.8369 1.0083 0.9903 0.66761 0.437 0.62183 0.9125 0.9325
3693.993 0.9482 0.6518 0.441 0.5945 0.70188 0.60174 0.727 0.7386 0.434 0.033
3713.282 0 0.438 0.744 1.0709 0.7718 0.205 0.255 0.5202 0.9457 1.2261
3732.572 1.0208 0.9578 0.9972 0.7211 0.469 0.8503 0.8479 0.392 0.66227 0.9779
3751.862 0.5467 0.347 0.69963 1.0345 0.9083 0.8288 0.66736 0.325 0.62269 0.8331
3771.152 0.7473 0.499 0.66944 0.7742 0.8776 0.9241 0.988 1.0726 0.8482 1.0758
3790.441 1.2023 1.0573 1.0369 1.2552 0.8226 0.5981 0.7941 0.8065 0.70534 0.5207
3809.731 0.437 0.63674 0.9668 0.8397 0.8001 0.8862 0.7093 0.8905 1.0259 0.7457
3829.021 0.882 1.1415 1.5201 1.3361 0.67092 0.60522 0.7158 0.745 0.7372 1.2978
3848.311 1.729 1.4875 1.2915 1.2119 1.629 1.3392 0.65806 0.8091 0.7649 0.457
3867.601 0.449 0.5742 0.7544 0.8979 0.59917 0.338 0.7945 0.7436 0.5518 0.610209
3886.890 0.5815 0.5342 0.7993 1.2971 1.159 1.2136 1.1442 0.63557 0.67189 0.7554
3906.180 0.9055 0.65941 0.5815 0.8589 0.8613 0.926 0.8803 0.8296 0.68743 0.8385
3925.470 0.8029 0.7145 1.0367 0.9411 0.5263 0.66826 0.7457 0.5641 0.5317 0.60794
3944.760 1.1271 1.2945 0.8618 0.361 0.065 0.46 0.962 0.9418 0.8249 0.9305
3964.049 0.8264 0.61201 0.611541 0.905 1.0003 0.7882 0.64613 0.9711 1.0991 0.8196
3983.339 0.9212 1.1123 0.9023 0.8661 0.9917 1.0028 1.2193 1.1058 0.9501 1.2647
##END=
