##TITLE=2-Fluoro-5-(trifluoromethyl)benzyl alcohol
##JCAMP-DX=4.24
##DATA TYPE=INFRARED SPECTRUM
##ORIGIN=EPA-IR VAPOR PHASE LIBRARY
##OWNER=SRD/NIST
Collection (C) 2018 copyright by the U.S. Secretary of Commerce
on behalf of the United States of America. All rights reserved.
##CAS REGISTRY NO=207974-09-2
##MOLFORM=C 8 H 6 F 4 O
##$NIST SOURCE=MSDC-IR
##STATE=gas
##XUNITS=1/CM
##YUNITS=ABSORBANCE
##XFACTOR=1.
##YFACTOR=0.001
##DELTAX=1.92898
##FIRSTX=549.8
##LASTX=4000.7
##FIRSTY=10.589
##MAXX=4000.7
##MINX=549.759
##MAXY=0.400479
##MINY=0
##NPOINTS=1790
##XYDATA=(X++(Y..Y))
549.759 10.589 10.839 11.459 11.099 10.849 11.139 10.479 9.719 10.349 11.239
569.049 11.609 10.959 10.629 11.619 11.239 10.009 9.869 9.719 9.359 8.899
588.339 7.849 7.609 7.779 7.659 7.809 8.589 9.379 9.589 10.209 11.919
607.628 14.439 18.229 22.949 28.399 33.549 36.309 37.019 36.879 36.049 33.479
626.918 28.379 21.989 16.909 13.489 11.079 9.259 8.169 7.419 6.939 6.229
646.208 5.789 5.889 5.659 5.219 5.379 6.059 6.409 6.659 6.559 6.569
665.498 6.709 6.849 6.719 6.379 6.009 5.309 4.659 4.239 3.939 3.779
684.787 3.409 2.989 2.829 2.799 2.519 2.209 2.399 2.619 2.529 2.579
704.077 2.879 2.919 2.919 2.989 3.019 3.229 3.429 3.679 4.109 4.579
723.367 4.719 5.129 5.709 6.039 6.689 7.139 7.449 7.709 7.659 7.239
742.657 6.459 6.059 5.989 6.019 5.709 4.959 5.199 5.699 5.839 6.539
761.947 6.909 6.859 7.179 8.139 9.079 9.369 9.719 9.829 9.209 8.749
781.236 9.119 8.919 8.439 8.539 8.419 8.239 7.949 7.389 6.799 6.529
800.526 6.289 6.179 6.219 6.969 8.819 11.029 13.959 17.649 21.759 26.229
819.816 31.059 35.129 39.749 45.669 47.239 43.389 38.219 33.579 29.079 24.979
839.106 21.179 16.959 12.889 9.779 8.239 7.149 5.999 5.289 4.739 4.639
858.395 4.879 4.829 4.879 4.729 4.399 4.769 5.189 5.369 6.199 7.349
877.685 8.319 8.919 10.119 12.169 14.179 16.359 18.849 21.439 23.589 25.279
896.975 26.949 28.239 28.289 27.449 25.359 22.989 21.629 19.409 16.729 14.849
916.265 13.119 11.659 10.369 8.959 8.479 7.899 7.329 7.309 7.159 7.439
935.555 7.479 7.499 8.009 8.389 8.479 8.489 8.669 8.939 9.319 9.739
954.844 10.029 10.199 10.299 10.689 10.889 10.689 10.599 10.459 10.529 10.489
974.134 9.879 9.589 9.989 10.479 10.869 11.279 11.349 11.539 12.159 12.919
993.424 14.069 14.689 14.979 15.199 16.379 18.609 20.559 21.979 23.219 25.429
1012.714 27.839 30.529 33.659 36.569 39.669 42.369 44.479 46.249 48.249 49.929
1032.003 50.769 51.919 51.409 49.459 47.659 45.199 42.049 39.589 37.089 34.299
1051.293 32.679 30.829 29.059 28.219 29.159 31.539 35.209 42.439 52.219 62.579
1070.583 72.069 79.359 82.869 83.679 82.779 77.229 66.369 53.449 42.619 34.619
1089.873 30.099 27.659 25.159 24.299 25.309 26.709 29.069 34.139 40.179 47.489
1109.163 54.749 62.839 72.099 78.769 83.199 86.739 90.929 94.009 97.179 101.529
1128.452 108.619 121.409 137.729 156.619 179.099 205.599 235.509 265.599 292.879 313.179
1147.742 320.169 311.829 291.759 268.449 247.429 229.639 216.899 214.649 227.209 252.869
1167.032 286.069 317.619 340.959 351.219 343.579 321.369 290.479 255.189 218.169 180.479
1186.322 145.989 118.409 96.299 79.739 67.769 58.919 51.379 46.429 42.469 38.349
1205.611 36.639 35.629 34.279 33.389 33.329 33.059 33.079 33.019 32.049 32.179
1224.901 33.559 34.239 34.889 35.749 36.749 38.879 40.719 42.069 43.909 45.049
1244.191 46.179 48.049 49.089 49.589 50.419 51.599 53.089 55.449 59.209 63.399
1263.481 67.809 72.939 77.659 80.449 81.349 80.669 77.189 71.869 65.509 58.089
1282.771 51.119 44.189 38.289 33.819 30.709 29.599 29.339 29.989 31.399 33.549
1302.060 36.669 40.499 45.579 52.129 60.999 73.309 90.489 114.369 146.519 187.999
1321.350 237.339 290.149 339.659 377.819 398.819 400.479 381.479 342.519 287.369 223.309
1340.640 162.199 114.819 83.459 64.179 52.209 44.809 40.239 37.539 35.849 34.599
1359.930 33.539 32.629 31.829 31.099 30.429 29.589 28.709 27.809 26.779 25.959
1379.219 25.109 24.119 23.139 22.259 21.409 20.329 19.379 18.519 17.619 16.829
1398.509 16.399 15.999 15.639 15.459 15.269 15.279 15.409 15.569 15.719 15.919
1417.799 16.099 16.209 16.289 16.079 15.559 14.869 13.939 12.999 11.879 10.729
1437.089 9.629 8.539 7.689 6.949 6.399 6.259 6.099 5.859 5.909 6.029
1456.378 6.329 6.769 7.179 7.569 8.069 8.529 8.829 9.099 9.229 9.349
1475.668 9.409 9.439 9.629 9.809 10.399 11.429 12.809 15.059 18.109 21.959
1494.958 27.039 33.159 39.539 45.409 49.339 51.149 50.929 48.379 43.909 37.589
1514.248 30.159 22.969 17.009 12.929 10.159 8.209 7.099 6.449 5.809 5.399
1533.538 5.199 4.969 4.769 4.499 4.369 4.589 4.699 4.519 4.479 4.519
1552.827 4.459 4.529 4.499 4.549 4.669 4.529 4.559 4.789 5.159 5.469
1572.117 5.779 6.249 6.789 7.659 8.599 9.669 11.059 12.369 13.689 15.549
1591.407 17.639 20.129 22.739 25.009 27.089 28.829 29.789 29.979 30.009 29.609
1610.697 28.889 28.239 27.709 27.239 26.949 27.039 26.919 26.249 24.999 23.429
1629.986 21.599 19.639 17.559 15.489 13.849 12.429 11.009 9.879 9.019 8.129
1649.276 7.499 7.299 6.739 6.169 6.059 5.639 4.999 4.479 3.849 3.559
1668.566 3.549 3.309 2.879 2.569 2.549 2.549 2.589 2.519 2.479 2.479
1687.856 2.479 2.209 1.919 1.779 1.729 1.889 1.769 1.709 1.729 1.809
1707.146 1.759 1.689 1.689 1.629 1.589 1.619 1.719 1.699 1.679 1.609
1726.435 1.4577 1.4628 1.5074 1.4263 1.4208 1.619 1.659 1.629 1.649 1.649
1745.725 1.739 1.909 1.869 1.879 2.239 2.319 2.349 2.699 2.979 3.119
1765.015 3.429 3.709 3.619 3.529 3.379 3.279 3.219 3.009 3.029 2.959
1784.305 2.669 2.549 2.549 2.469 2.399 2.529 2.629 2.589 2.489 2.519
1803.594 2.599 2.509 2.409 2.389 2.349 2.179 1.979 1.929 1.869 1.729
1822.884 1.719 1.739 1.639 1.434 1.2902 1.3179 1.4804 1.4739 1.3311 1.3421
1842.174 1.3369 1.3288 1.2706 1.3294 1.4551 1.4485 1.4524 1.559 1.619 1.559
1861.464 1.619 1.689 1.669 1.759 1.999 2.009 2.069 2.359 2.559 2.829
1880.754 3.159 3.349 3.549 3.849 4.129 4.249 4.309 4.329 4.269 3.969
1900.043 3.669 3.419 3.089 2.739 2.389 2.299 2.269 2.109 1.899 1.709
1919.333 1.609 1.5261 1.3436 1.2332 1.2335 1.1556 1.1817 1.1796 1.1233 1.1511
1938.623 1.1057 0.9264 0.9075 0.9975 0.9166 0.879 0.8655 0.9142 0.8914 1.021
1957.913 1.0742 0.8391 0.8018 0.8602 0.9533 0.9486 0.8141 0.8342 0.8601 1.0031
1977.202 1.0744 1.0353 1.0743 1.0602 1.1246 1.1811 1.2097 1.1948 1.3203 1.4579
1996.492 1.3751 1.2319 1.3308 1.4528 1.4231 1.3569 1.388 1.4993 1.569 1.639
2015.782 1.609 1.589 1.709 1.779 1.809 1.809 1.799 1.829 1.829 1.819
2035.072 1.949 1.869 1.869 2.029 1.969 1.899 1.799 1.789 1.769 1.809
2054.362 1.819 1.809 1.929 1.979 2.039 2.099 2.139 2.109 1.919 1.919
2073.651 2.009 1.969 1.909 1.899 1.859 1.689 1.5014 1.446 1.4009 1.3693
2092.941 1.4845 1.4653 1.4216 1.418 1.2308 1.0375 0.9512 0.9526 0.9049 0.9331
2112.231 0.92 0.8372 0.776 0.9351 1.2317 1.1737 1.0062 0.9298 0.8926 0.9663
2131.521 1.1059 1.1572 1.2076 1.0715 0.8941 0.947 1.0719 1.0466 0.9094 0.9254
2150.810 0.9104 0.8662 0.8708 0.848 0.7852 0.7712 0.8987 0.9531 1.0073 1.1289
2170.100 1.097 1.0138 0.9202 0.7457 0.8917 1.1132 1.1463 1.2765 1.0491 0.8541
2189.390 1.0646 1.1124 1.0239 1.0035 0.9611 1.059 1.1687 1.0282 1.1077 1.3515
2208.680 1.4898 1.5108 1.492 1.539 1.579 1.719 1.729 1.789 1.929 1.979
2227.970 1.859 1.819 1.919 1.919 1.849 1.689 1.749 1.679 1.619 1.749
2247.259 1.739 1.549 1.5226 1.769 1.849 1.799 1.749 1.629 1.659 1.789
2266.549 1.899 1.849 1.729 1.859 1.929 1.859 1.799 1.919 2.099 2.069
2285.839 2.049 1.859 1.879 2.089 1.899 1.649 1.539 1.569 1.699 1.689
2305.129 1.649 1.669 1.589 1.679 1.779 1.669 1.589 1.639 1.679 1.609
2324.418 1.689 1.739 1.729 1.779 1.869 1.849 1.629 1.609 1.659 1.649
2343.708 1.659 1.649 1.789 1.829 1.959 1.949 1.689 1.609 1.559 1.639
2362.998 1.629 1.3452 1.2354 1.38 1.3228 1.1841 1.239 1.3528 1.4701 1.2926
2382.288 1.1471 1.4153 1.569 1.4126 1.2042 1.2793 1.4145 1.3695 1.3412 1.2373
2401.578 1.1703 1.2498 1.1239 0.8438 1.0277 1.0909 0.9687 1.1245 1.2355 1.2659
2420.867 1.3169 1.1796 1.1455 1.1134 0.8752 0.9388 1.0858 1.1132 1.093 1.0503
2440.157 1.0669 1.1755 1.2804 1.2798 1.3851 1.479 1.2555 1.323 1.3864 1.3615
2459.447 1.253 1.1926 1.3671 1.4001 1.3776 1.4119 1.629 1.5329 1.3791 1.3984
2478.737 1.559 1.759 1.719 1.669 1.589 1.3881 1.549 1.609 1.4062 1.589
2498.026 1.739 1.639 1.4617 1.5169 1.5022 1.3652 1.3512 1.3857 1.3839 1.2232
2517.316 1.2035 1.2377 1.1449 1.1727 1.3811 1.2377 1.1569 1.2228 1.0363 0.7883
2536.606 0.7523 1.017 0.9888 0.8768 0.9923 0.7963 0.676 0.8346 0.7427 0.8174
2555.896 0.9629 0.9236 0.7956 0.7495 0.8275 0.9647 0.8452 0.6838 0.8585 0.9402
2575.186 0.8225 0.8255 0.8909 0.8684 0.9838 1.0409 0.8802 0.8009 0.9363 0.9894
2594.475 1.0958 1.2077 0.9718 0.9934 1.1776 1.1624 1.1124 0.9302 1.151 1.4091
2613.765 1.3765 1.2006 1.0562 1.152 1.052 0.9805 0.975 0.9392 1.0226 1.0259
2633.055 0.9617 0.9779 1.1468 1.2677 1.3627 1.1492 0.9318 1.1123 1.2205 1.3396
2652.345 1.2268 1.0763 1.3101 1.5001 1.3625 1.1195 1.1146 0.981 0.7862 0.6782
2671.634 0.9181 1.1843 1.0748 1.1613 1.128 0.9503 0.7916 0.5225 0.5221 0.8617
2690.924 1.0293 0.9438 0.8615 0.784 0.53635 0.61503 1.001 0.8768 0.7542 1.0097
2710.214 0.8473 0.7305 0.9575 0.8323 0.61486 0.63195 0.6748 0.9056 1.2614 1.2962
2729.504 1.2582 1.3952 1.2829 0.963 1.0222 1.1605 1.0582 1.2736 1.579 1.4568
2748.794 1.0946 1.2346 1.2242 1.1146 1.4051 1.2249 1.1426 1.3464 1.4606 1.4747
2768.083 1.2963 1.2951 1.4005 1.3216 1.0949 1.0411 1.2576 1.4235 1.4783 1.3242
2787.373 1.2375 1.4083 1.4782 1.4334 1.4367 1.689 1.699 1.539 1.619 1.649
2806.663 1.719 1.689 1.659 1.789 1.669 1.589 1.829 2.109 2.369 2.109
2825.953 2.079 2.309 2.109 2.239 2.579 2.799 2.619 2.709 2.949 3.009
2845.242 3.259 3.289 3.369 3.559 3.879 4.219 4.319 4.519 4.929 5.049
2864.532 5.059 5.309 5.939 6.509 6.829 7.239 7.979 8.779 9.419 10.049
2883.822 11.019 11.779 12.319 12.589 12.659 12.989 13.069 12.829 12.709 12.639
2903.112 12.219 11.849 11.629 11.299 10.999 10.599 10.439 10.139 10.049 10.199
2922.401 9.779 9.579 9.469 9.559 9.559 9.569 10.319 10.649 10.809 11.539
2941.691 11.749 11.579 11.709 11.729 11.389 10.829 10.619 10.599 10.129 9.549
2960.981 9.249 8.959 8.609 8.209 7.829 7.579 7.609 7.379 6.599 6.509
2980.271 6.749 6.279 5.749 5.439 5.499 5.359 4.819 4.169 3.719 3.809
2999.561 3.629 3.109 2.599 2.469 2.389 2.419 2.529 2.229 1.889 1.759
3018.850 1.819 1.869 1.549 1.2375 1.3966 1.4468 1.3325 1.1241 0.9515 0.9976
3038.140 1.1614 1.1916 0.8571 0.7686 0.9406 0.7606 0.7063 1.0982 1.2085 1.2387
3057.430 1.1292 0.9615 1.0029 1.0686 1.5101 1.2658 1.2053 1.799 1.859 1.699
3076.720 1.779 1.869 2.189 2.559 2.429 2.339 2.129 1.779 1.689 1.739
3096.009 1.549 1.22 1.2204 1.1609 1.0561 1.2085 1.4141 0.9995 0.540141 1.0122
3115.299 1.0427 0.62809 0.8682 0.8269 0.7278 1.1076 0.8375 0.328 0.53147 0.7938
3134.589 0.829 1.3065 1.3744 0.6623 0.60407 0.6778 0.431 0.507 0.109 0
3153.879 0.61169 0.56053 0.143 0.4599 0.8455 0.931 0.9054 0.58165 0.57942 0.8562
3173.169 0.7075 0.4742 0.57306 0.7645 0.7976 0.9495 1.0971 0.9806 0.538144 0.383
3192.458 0.7958 0.9238 0.8016 0.8226 0.8944 0.4911 0.183 0.57705 0.9945 1.0702
3211.748 0.7496 0.5087 0.9373 0.8716 0.8732 1.1208 0.7971 0.55989 0.7754 0.7152
3231.038 0.547014 0.6796 1 1.3487 1.1382 1.0601 1.098 0.8304 0.9407 0.9551
3250.328 0.60908 0.788 0.9043 0.957 0.7776 0.59304 0.57905 0.4997 0.61508 0.9014
3269.617 1.0388 0.7147 0.4971 0.4745 0.6432 0.58472 0.59095 0.7271 0.66 0.8188
3288.907 1.2273 1.3088 0.6826 0.313 0.163 0.18 0.228 0.064 0.43 0.5264
3308.197 0.337 0.389 0.59299 0.6693 0.382 0.4394 0.9017 1.0253 0.56764 0.301
3327.487 0.31 0.335 0.9127 1.121 0.8005 0.8538 0.8861 0.7606 0.7134 0.6402
3346.777 0.5279 0.56249 0.9546 0.8095 0.60332 0.6437 0.4752 0.6392 0.6397 0.6755
3366.066 0.438 0.323 0.546946 0.56814 0.9507 0.9669 0.8709 1.0645 1.1161 1.0959
3385.356 0.963 1.0196 1.1754 1.2444 1.3191 1.3161 0.9632 0.8769 0.9641 0.8111
3404.646 0.7582 0.63327 0.6418 0.671 0.8176 1.2226 1.3793 1.386 1.0186 1.1831
3423.936 1.549 1.789 1.729 1.1603 0.9578 1.0114 1.2425 1.1813 0.9189 0.8914
3443.225 1.1511 1.3467 1.2271 1.2913 1.3161 1.1071 1.2399 1.3266 1.314 1.559
3462.515 1.3386 1.0181 1.4038 1.639 1.4442 1.245 0.9706 0.8325 0.8758 1.0885
3481.805 1.128 0.8979 1.2984 1.4334 0.692 0.56153 0.8677 0.7209 0.8541 1.2358
3501.095 1.4097 1.0535 0.387 0.4461 1.146 1.2746 0.738 0.8382 1.2897 1.0834
3520.385 0.8715 1.24 1.4827 1.1153 1.2426 1.4644 1.1499 0.9975 0.8937 0.6679
3539.674 0.712 1.0974 1.2336 1.222 1.2198 1.3409 1.2482 1.0917 1.2212 1.4406
3558.964 1.5072 1.609 1.619 1.3548 1.0642 0.9518 1.2916 1.4591 1.1963 1.1404
3578.254 1.689 1.759 1.3348 1.4951 1.5321 1.4256 1.2282 1.3544 1.749 1.829
3597.544 2.329 2.549 2.259 2.249 2.259 2.199 2.309 2.169 2.079 2.499
3616.833 3.259 3.739 3.449 3.159 3.679 4.049 3.929 4.099 4.249 4.819
3636.123 5.279 5.869 6.569 6.779 7.689 8.839 9.949 11.169 12.439 14.269
3655.413 15.939 16.919 17.499 17.489 17.449 17.649 17.109 16.099 15.299 14.059
3674.703 12.439 11.299 10.629 9.959 9.139 8.279 7.529 7.149 6.759 6.249
3693.993 5.799 4.939 4.259 4.119 3.789 3.679 3.469 3.389 3.069 2.469
3713.282 2.429 2.269 2.289 2.479 2.619 2.339 2.029 2.069 2.109 1.589
3732.572 1.5355 1.5205 1.1108 1.4636 1.659 1.529 1.3278 1.3646 1.218 1.2522
3751.862 1.3818 1.1195 1.168 1.105 0.9356 0.9218 1.1621 1.3229 1.2668 1.629
3771.152 1.889 1.265 0.9252 1.3533 1.5189 1.669 1.719 1.432 1.0549 1.2664
3790.441 1.5309 1.689 1.669 1.249 1.3636 1.4292 1.4511 1.5173 1.4139 1.809
3809.731 1.799 1.4596 1.1355 0.8783 0.6856 1.0821 1.4996 1.2325 1.1515 0.9825
3829.021 0.889 0.957 1.2562 1.1647 1.1596 1.619 1.629 1.1147 1.3508 1.539
3848.311 1.0419 0.8762 1.3523 1.1836 0.8407 1.2296 1.0925 1.2449 1.579 1.4961
3867.601 1.4905 1.719 1.589 0.8006 0.61949 1.0226 1.3626 1.3184 1.4847 1.569
3886.890 1.0776 1.1138 1.291 1.4622 1.589 1.4709 1.4917 1.2462 0.9096 1.2103
3906.180 1.1086 1.0424 1.3696 1.055 0.9379 1.0738 0.9141 1.3427 1.3456 0.9277
3925.470 1.0604 1.1687 0.9275 1.1661 1.022 0.7913 1.1514 0.9388 0.7897 1.1494
3944.760 0.9342 0.7016 0.9913 0.7283 0.4436 0.6955 1.0733 0.8397 1.24 1.659
3964.049 1.3113 1.0105 0.9166 1.3333 1.1287 0.8672 1.0313 0.9892 1.0846 0.8756
3983.339 1.0974 1.4649 1.579 1.4054 0.9052 0.9624 1.0368 0.7723 0.62858 0.6837
##END=
