##TITLE=2-Fluoro-3-(trifluoromethyl)propiophenone
##JCAMP-DX=4.24
##DATA TYPE=INFRARED SPECTRUM
##ORIGIN=EPA-IR VAPOR PHASE LIBRARY
##OWNER=SRD/NIST
Collection (C) 2018 copyright by the U.S. Secretary of Commerce
on behalf of the United States of America. All rights reserved.
##CAS REGISTRY NO=207986-23-0
##MOLFORM=C 10 H 8 F 4 O
##$NIST SOURCE=MSDC-IR
##STATE=gas
##XUNITS=1/CM
##YUNITS=ABSORBANCE
##XFACTOR=1.
##YFACTOR=0.001
##DELTAX=1.92898
##FIRSTX=549.8
##LASTX=4000.7
##FIRSTY=5.433
##MAXX=4000.7
##MINX=549.759
##MAXY=0.166273
##MINY=0
##NPOINTS=1790
##XYDATA=(X++(Y..Y))
549.759 5.433 4.753 4.283 3.993 4.093 4.303 4.013 3.503 3.953 4.723
569.049 4.843 5.373 5.483 4.753 4.203 4.473 4.523 3.873 3.543 3.773
588.339 3.873 3.123 2.803 3.593 3.633 3.903 4.023 3.953 4.303 3.813
607.628 3.303 3.703 3.593 3.513 3.753 3.373 3.353 3.293 3.283 2.723
626.918 1.953 2.013 2.283 2.053 2.133 2.363 2.473 2.693 2.633 2.743
646.208 3.003 2.933 2.593 2.753 3.713 4.383 4.913 5.453 6.053 7.003
665.498 7.503 7.583 7.543 7.193 7.143 7.103 6.643 6.383 5.723 5.083
684.787 4.993 4.743 4.613 4.753 4.873 5.083 5.213 5.723 6.273 6.333
704.077 6.173 6.113 5.873 4.933 3.993 3.903 3.653 3.103 3.153 3.373
723.367 2.963 2.863 3.293 3.903 4.613 5.623 6.843 8.323 10.463 12.343
742.657 14.063 15.373 15.633 14.743 13.713 12.443 10.833 9.133 7.643 7.033
761.947 6.333 5.053 4.513 4.733 4.713 4.773 5.163 5.813 6.743 7.613
781.236 8.163 9.133 10.093 10.633 11.153 11.243 11.493 11.773 11.183 10.463
800.526 9.513 8.553 8.303 7.883 7.383 7.333 7.603 8.003 7.583 7.363
819.816 8.223 8.163 8.293 9.653 10.943 11.733 11.553 10.653 10.063 9.263
839.106 7.623 5.973 4.693 3.823 2.803 2.213 2.693 2.623 2.233 2.073
858.395 1.903 1.793 1.4602 1.1224 1.1914 1.2078 0.9544 0.9303 1.2389 1.3123
877.685 1.2861 1.533 1.0487 0.5939 0.8096 1.1003 1.4325 1.2902 1.2209 1.2527
896.975 1.0429 0.8571 1.0767 1.4021 1.2237 1.3768 1.3621 1.3586 1.493 1.3677
916.265 1.523 2.163 2.773 2.623 2.623 2.863 2.973 3.353 3.643 3.903
935.555 4.553 5.323 6.093 6.643 7.153 7.233 7.623 8.483 8.663 8.943
954.844 9.333 9.433 9.823 10.083 9.863 9.173 7.913 7.173 6.753 5.903
974.134 5.313 4.973 4.243 3.963 4.273 3.483 3.023 3.393 3.143 3.033
993.424 2.573 2.543 3.283 3.123 3.083 3.303 3.823 4.603 4.603 5.023
1012.714 5.533 6.173 7.083 6.983 6.743 6.993 7.043 6.593 6.213 5.453
1032.003 5.183 5.053 4.523 4.273 4.413 4.703 4.693 4.833 4.933 5.413
1051.293 5.883 6.003 6.633 7.113 7.193 8.083 9.283 10.783 11.433 11.953
1070.583 13.973 15.733 16.793 18.523 21.173 23.293 24.783 26.093 27.603 29.623
1089.873 30.003 29.213 28.163 27.533 27.563 26.223 23.943 22.733 23.383 23.833
1109.163 23.703 24.733 27.813 30.643 34.273 40.193 43.893 45.373 47.543 50.303
1128.452 51.283 51.653 52.523 51.933 52.403 53.233 54.913 58.993 62.563 67.323
1147.742 73.213 80.403 89.763 99.483 110.753 122.633 134.263 146.653 157.073 163.873
1167.032 166.273 163.823 155.153 140.993 125.973 112.463 102.873 96.693 90.853 86.653
1186.322 82.813 77.813 70.513 61.443 51.813 42.023 35.043 28.853 23.733 21.053
1205.611 19.523 16.673 14.423 13.803 13.013 13.833 14.933 15.383 16.173 18.103
1224.901 20.743 23.943 26.013 28.263 31.613 34.093 35.393 36.403 36.653 35.243
1244.191 33.693 31.943 30.783 30.163 28.443 26.953 25.913 24.143 22.363 21.053
1263.481 20.083 19.633 19.953 20.093 20.573 21.073 21.103 21.303 21.353 21.183
1282.771 20.633 20.193 19.643 19.283 19.293 19.483 20.163 20.913 21.673 22.993
1302.060 24.833 27.213 30.683 35.333 41.483 49.393 59.423 71.543 85.173 99.453
1321.350 112.483 122.193 127.413 127.513 121.963 111.453 97.253 81.493 66.943 54.783
1340.640 44.883 37.433 32.103 28.113 25.183 22.973 21.263 19.873 18.573 17.123
1359.930 15.943 14.973 13.913 12.923 12.033 11.073 10.033 9.333 8.823 8.413
1379.219 8.143 8.033 7.983 7.953 7.753 7.273 6.923 6.543 6.043 5.633
1398.509 5.463 5.503 5.503 5.533 5.733 5.873 5.823 6.043 6.683 7.003
1417.799 7.163 7.353 7.523 7.763 8.093 8.503 9.263 10.473 11.843 13.253
1437.089 15.083 17.153 19.373 22.503 26.103 30.093 34.803 39.693 44.863 49.613
1456.378 53.583 56.273 57.333 57.073 55.183 51.733 46.973 41.153 34.833 28.723
1475.668 23.443 18.743 15.073 12.233 10.093 8.583 7.323 6.413 5.713 5.173
1494.958 4.963 4.683 4.313 4.123 3.893 3.673 3.623 3.533 3.493 3.313
1514.248 3.153 3.283 3.173 2.853 2.863 2.743 2.513 2.553 2.713 2.703
1533.538 2.483 2.393 2.533 2.683 2.603 2.393 2.313 2.373 2.733 2.703
1552.827 2.493 2.813 3.043 3.263 3.573 3.803 4.203 4.743 5.323 5.893
1572.117 6.563 7.563 8.763 9.673 10.773 12.063 13.123 14.363 15.333 15.943
1591.407 16.383 16.643 16.893 17.233 17.883 18.923 20.243 22.153 24.503 26.993
1610.697 29.153 30.473 30.753 29.273 26.603 23.383 19.353 15.603 12.613 10.263
1629.986 8.513 7.313 6.663 6.123 5.673 5.273 4.913 4.763 4.793 4.693
1649.276 4.423 4.523 4.553 4.593 4.853 4.943 5.063 5.493 5.863 5.993
1668.566 6.253 6.653 7.133 7.383 7.323 7.563 8.133 8.923 10.043 11.053
1687.856 12.113 13.523 15.433 17.813 20.903 24.943 30.063 36.243 42.143 47.833
1707.146 52.153 54.293 53.883 51.403 47.033 40.983 34.463 29.003 24.973 22.113
1726.435 19.803 17.933 16.413 15.093 13.683 12.403 11.283 10.173 8.993 7.923
1745.725 7.183 6.503 5.833 5.183 4.683 4.203 3.753 3.513 3.233 2.973
1765.015 2.643 2.323 2.133 2.073 2.033 1.923 1.833 1.713 1.663 1.673
1784.305 1.613 1.603 1.613 1.573 1.503 1.4211 1.46 1.3879 1.3086 1.3243
1803.594 1.2463 1.2798 1.3735 1.2776 1.1055 1.1105 1.0748 0.9579 1.0104 1.1125
1822.884 1.2292 1.1888 1.133 1.0819 1.0718 1.0661 1.0139 1.1825 1.2653 1.1049
1842.174 1.1232 1.2504 1.2398 1.1361 1.1173 1.2269 1.4144 1.4493 1.4316 1.493
1861.464 1.4216 1.3893 1.3692 1.2765 1.3594 1.4835 1.4812 1.4056 1.3169 1.3836
1880.754 1.2849 1.1185 1.3693 1.563 1.603 1.733 1.683 1.693 1.763 1.743
1900.043 1.763 1.773 1.853 1.993 2.023 1.993 1.853 1.773 1.723 1.693
1919.333 1.713 1.603 1.4353 1.3789 1.4107 1.3885 1.2435 1.1246 1.0529 1.1364
1938.623 1.2568 1.238 1.268 1.358 1.523 1.523 1.4441 1.437 1.493 1.593
1957.913 1.513 1.4711 1.533 1.4832 1.4094 1.3359 1.201 1.1227 1.0909 1.1339
1977.202 1.0244 0.8743 0.9189 1.0048 1.0491 0.9868 0.9538 0.8702 0.8915 1.0356
1996.492 1.0248 1.0242 1.08 1.0587 0.9882 1.04 1.0748 0.9952 0.9719 0.8791
2015.782 0.828 0.8134 0.7331 0.9094 1.0822 0.9063 0.8406 0.6724 0.57271 0.8087
2035.072 0.7539 0.8205 0.8476 0.7649 0.9111 0.8966 0.9127 1.0323 0.9877 0.9376
2054.362 0.8247 0.9237 1.0213 1.0385 1.0999 0.9939 0.8983 1.021 1.0729 0.9004
2073.651 0.8849 0.9586 1.012 0.9714 0.9429 0.9524 0.9579 0.9287 0.8225 0.6855
2092.941 0.6301 0.8093 0.8616 0.666 0.6177 0.7964 0.8617 0.7845 0.7025 0.7514
2112.231 0.7964 0.7788 0.9196 0.8888 0.7259 0.7038 0.8344 1.1093 1.2834 1.1795
2131.521 0.9935 1.0552 1.174 1.2238 1.2633 1.0854 1.0594 1.1684 1.2163 1.2424
2150.810 1.2414 1.2355 1.1371 0.9217 0.8202 0.9861 0.9423 0.832 0.9606 0.8984
2170.100 0.8226 0.935 0.8891 0.9021 0.9207 0.9387 1.0867 0.9838 0.9255 0.9235
2189.390 0.8026 0.6571 0.6263 0.6827 0.8721 1.001 0.85 0.8779 0.918 0.9179
2208.680 0.8928 0.7651 0.6516 0.7505 0.935 0.9934 1.0127 0.9781 0.9596 1.0362
2227.970 0.9616 0.8728 0.9704 1.0268 1.0989 1.16 1.0692 0.9891 1.0681 1.126
2247.259 0.9659 0.951 1.0288 1.0245 1.1211 1.1626 1.1841 1.1834 1.2224 1.2753
2266.549 1.2434 1.2569 1.2609 1.2052 1.271 1.4686 1.673 1.523 1.2322 1.3027
2285.839 1.3005 1.2166 1.2034 1.1725 1.224 1.2133 1.379 1.4227 1.3927 1.4612
2305.129 1.3053 1.1334 1.0607 1.029 1.0914 1.1105 1.1439 1.3672 1.3904 1.386
2324.418 1.4082 1.3083 1.2225 1.2698 1.3408 1.2723 1.2712 1.3301 1.503 1.3985
2343.708 1.1916 1.1758 1.2451 1.3669 1.3699 1.211 1.1708 1.2123 1.1943 1.2098
2362.998 1.0662 1.1385 1.0341 0.9128 1.0348 1.1364 1.1529 0.9844 1.0055 1.2397
2382.288 1.0639 0.8847 0.9637 0.732 0.8945 1.0305 0.8213 0.8702 0.8059 0.8309
2401.578 1.016 0.9349 0.8388 0.6915 0.6405 0.7534 0.8452 0.9865 0.9348 0.8678
2420.867 0.9463 0.9252 0.8652 1.024 0.9913 0.9937 1.0615 0.9682 1.0617 1.1238
2440.157 1.0348 1.0064 1.0627 1.1565 1.1087 1.0024 1.0569 1.0938 1.1527 1.2217
2459.447 1.1753 0.9458 0.9924 1.1647 1.1535 1.1223 1.0072 1.1268 1.2404 1.1896
2478.737 1.0543 1.105 1.026 0.9596 0.8855 0.6597 0.7156 0.9966 1.2454 1.0943
2498.026 0.9252 0.9934 0.913 0.773 0.7312 0.8188 0.9814 0.8905 1.0219 0.8935
2517.316 0.7195 0.9317 1.0471 0.9632 0.8765 0.938 0.9662 0.7497 0.55312 0.7281
2536.606 0.8602 0.9422 1.0039 0.9683 0.816 0.8242 0.8979 0.7984 0.5641 0.54636
2555.896 0.685 0.7877 0.7282 0.6788 0.9003 0.8852 0.8906 1.0161 1.0578 0.9197
2575.186 0.8596 0.7276 0.6097 0.7114 0.6787 0.57513 0.659 0.6519 0.6313 0.7386
2594.475 0.7236 0.8488 0.8971 0.9341 0.8369 0.7324 0.717 0.53778 0.665 0.7743
2613.765 0.55979 0.50451 0.6484 0.7106 0.7333 0.7709 0.8252 0.8695 0.8275 0.8497
2633.055 0.7175 0.335 0.4661 0.9812 1.0119 0.7692 0.9639 1.0804 0.9044 0.6643
2652.345 0.494714 0.51036 0.55059 0.6717 0.6255 0.7869 1.0461 1.1015 1.1314 1.0099
2671.634 0.7857 0.7769 0.8889 0.868 0.9133 0.8871 0.8458 0.8561 0.8901 0.8425
2690.924 0.6175 0.52551 0.57841 0.7837 0.756 0.6983 0.7187 0.57073 0.51179 0.8304
2710.214 0.9404 0.6741 0.7394 0.9583 0.9672 0.7401 0.7531 0.7971 0.9477 1.1708
2729.504 1.0348 0.9497 0.8906 1.003 1.0886 1.4169 1.613 1.226 1.2569 1.4895
2748.794 1.4053 1.2409 1.3688 1.563 1.4635 1.4315 1.4028 1.2845 1.1538 1.0341
2768.083 1.1676 1.2897 1.1257 1.1228 1.1863 1.0122 0.97 0.9136 1.0594 1.179
2787.373 1.0666 0.974 1.0082 1.0818 1.2106 1.2709 1.1202 1.1839 0.9941 0.7282
2806.663 1.0229 1.4714 1.3994 1.3973 1.3835 1.1278 1.1258 1.192 1.3232 1.4538
2825.953 1.3073 1.3066 1.3096 1.141 1.3189 1.3855 1.533 1.683 1.643 1.603
2845.242 1.573 1.603 1.1661 1.0236 1.4266 1.623 1.863 1.783 1.583 1.923
2864.532 2.033 2.193 2.603 2.513 2.393 2.543 2.973 3.113 3.133 3.513
2883.822 3.763 4.183 4.603 4.813 5.003 4.973 4.933 4.823 4.743 4.533
2903.112 4.713 5.123 5.063 5.093 5.123 5.283 5.393 5.523 5.553 5.523
2922.401 5.613 5.613 5.743 5.883 5.723 5.563 5.763 6.053 6.623 6.863
2941.691 6.893 7.733 8.913 9.853 10.353 10.583 10.253 9.673 9.453 8.723
2960.981 8.053 7.333 6.893 6.803 6.603 6.733 7.163 7.643 7.933 8.693
2980.271 9.613 10.513 11.233 11.583 11.663 11.943 11.973 11.073 10.223 9.703
2999.561 8.583 7.283 6.293 5.273 5.033 4.843 4.473 4.173 3.803 3.483
3018.850 2.773 2.763 2.743 2.603 2.773 2.803 2.843 2.553 2.543 2.523
3038.140 2.223 2.493 2.623 2.433 2.253 2.093 2.243 2.113 1.673 1.693
3057.430 2.263 2.323 1.953 2.063 2.003 1.983 2.273 2.273 2.333 2.433
3076.720 2.723 2.723 2.763 3.263 3.353 3.313 3.333 3.323 3.513 3.293
3096.009 3.193 3.223 3.293 3.403 2.803 2.473 2.313 2.243 2.243 2.063
3115.299 1.833 1.583 1.543 1.723 1.593 0.9707 0.9299 1.2958 1.2885 0.9929
3134.589 0.5944 0.9408 1.4661 1.533 1.0801 0.7526 0.8809 0.9137 1.1449 1.2475
3153.879 1.0241 0.9317 0.9714 0.8317 1.0655 1.2068 1.2017 1.3021 1.4292 1.1859
3173.169 0.8485 0.9053 1.0247 1.0844 1.1181 1.2117 1.1058 0.7825 0.721 0.9969
3192.458 1.1613 1.0473 1.1489 1.1671 0.8354 1.0161 0.9534 0.7735 0.8428 0.7536
3211.748 0.7157 0.9576 1.1193 1.1027 1.1209 1.0777 0.9605 0.9759 0.9652 1.0454
3231.038 0.9539 0.386 0.315 0.6343 0.6023 0.53631 0.7505 0.9896 1.0762 1.199
3250.328 1.3875 1.3071 1.077 0.693 0.52208 0.6088 0.6283 0.677 0.5745 0.7887
3269.617 0.9003 0.5948 0.8658 0.7599 0.7897 1.027 0.8556 0.8337 0.8762 0.8202
3288.907 0.58314 0.4108 0.387 0.58071 0.9685 0.9686 0.7284 0.7878 0.5983 0.236
3308.197 0.047 0.36 0.7815 0.596 0.57896 0.7289 0.8247 0.6361 0.4353 0.6382
3327.487 0.4589 0.4354 0.4161 0.231 0.4222 0.58932 0.6195 0.297 0.076 0.6324
3346.777 0.9744 0.6582 0.57775 0.4427 0.7205 1.513 1.4397 1.0244 1.0072 1.0864
3366.066 0.8336 0.53622 0.9891 1.513 1.4715 0.8844 0.8733 1.533 1.2814 0.9704
3385.356 0.6944 0.7768 1.0108 1.1619 1.653 1.583 1.823 1.693 1.4208 1.4161
3404.646 1.182 1.047 1.3448 1.813 1.563 1.723 1.593 0.821 0.5233 0.7444
3423.936 1.2496 1.4303 1.4065 1.2296 0.9724 1.0031 1.057 0.8944 0.716 0.8008
3443.225 0.6187 0.321 0.7739 1.0043 1.2407 1.1796 0.9209 1.3901 0.8577 0.229
3462.515 0.55587 0.8284 0.57687 0.4533 0.914 0.994 0.8234 0.8666 0.7797 0.9614
3481.805 0.9092 0.4606 0.309 0.3 0.7412 0.7778 0.6996 0.7852 0.9505 1.0288
3501.095 0.58475 0.65 0.688 0.54172 0.6411 0.9216 1.1242 0.8211 0.236 0.25
3520.385 0.5329 0.58048 0.7629 0.769 0.57123 0.6187 0.7176 0.9002 1.3165 1.1321
3539.674 1.1623 1.0509 0.359 0.51851 0.57704 0.52997 0.8158 0.8458 0.7672 0.6306
3558.964 0.498934 0.8063 0.9121 0.7347 0.314 0.158 0.6292 0.6294 0.48833 0.9317
3578.254 0.8863 0.249 0.076 0.184 0.379 0.7549 0.9499 0.6439 0.273 0
3597.544 0.499993 0.8403 0.9801 1.1044 1.0429 0.7644 0.354 0.9331 1.195 0.7332
3616.833 0.9562 1.4019 1.1987 0.8901 0.500527 0.7298 0.8309 0.58234 0.8613 0.499989
3636.123 0.16 0.57657 0.8678 0.303 0.4031 1.1988 1.0495 0.8468 1.096 0.6872
3655.413 0.259 0.6409 0.9578 1.1069 0.8282 0.8706 1.2192 1.0566 0.8087 0.9013
3674.703 1.2148 1.1481 1.0037 0.9731 1.2266 1.1804 0.7973 0.6046 0.7042 0.7982
3693.993 0.8567 1.0493 0.9896 0.57712 0.7003 0.944 0.59245 0.361 0.57507 0.8252
3713.282 0.697 0.56967 0.67 0.367 0.135 0.357 0.4526 0.4539 0.4354 0.7357
3732.572 0.8013 1.0025 1.1153 0.6254 0.52688 0.50623 0.117 0.113 0.6364 0.8625
3751.862 0.779 0.7242 0.4722 1.0147 1.3062 0.7579 0.727 0.7747 0.8571 0.9307
3771.152 0.8828 0.8425 0.8457 1.2148 1.4581 0.9721 0.7697 0.8752 1.0363 1.1856
3790.441 0.6918 0.265 0.6647 0.9708 0.6407 0.53591 0.6132 0.6206 0.682 0.8037
3809.731 0.6631 0.7534 0.8519 0.7541 0.8139 0.56643 0.6049 0.8456 0.8802 0.8833
3829.021 0.4644 0.58001 0.9736 0.8332 0.7576 0.9122 0.8104 0.7958 0.9316 0.7936
3848.311 1.0501 0.8885 0.6225 0.9418 0.53404 0.245 0.344 0.471 0.8501 1.0318
3867.601 1.3054 1.593 1.0809 0.49023 0.50506 0.8492 0.7728 0.50483 0.8708 0.8554
3886.890 0.322 0.6785 0.7685 0.497263 0.9256 1.081 0.8051 0.53959 0.6235 0.8542
3906.180 0.7328 0.56647 0.7043 0.961 1.0825 1.0647 1.1394 1.2949 1.3201 1.493
3925.470 1.763 1.168 0.384 0.4371 0.6705 1.0058 1.2282 1.2233 1.1703 0.9837
3944.760 1.0721 1.4603 1.3732 1.2387 1.082 0.6078 0.4518 0.4232 0.6553 0.8045
3964.049 0.9245 1.3338 1.4083 1.1362 1.1015 1.0319 0.8333 0.8494 0.9275 0.8717
3983.339 0.50707 0.283 0.6681 0.7026 0.6566 0.8054 0.6627 0.6115 0.9756 0.8107
##END=
