##TITLE=2-Fluoro-4-(trifluoromethyl)benzamide
##JCAMP-DX=4.24
##DATA TYPE=INFRARED SPECTRUM
##ORIGIN=EPA-IR VAPOR PHASE LIBRARY
##OWNER=SRD/NIST
Collection (C) 2018 copyright by the U.S. Secretary of Commerce
on behalf of the United States of America. All rights reserved.
##CAS REGISTRY NO=207853-64-3
##MOLFORM=C 8 H 5 F 4 N O
##$NIST SOURCE=MSDC-IR
##STATE=gas
##XUNITS=1/CM
##YUNITS=ABSORBANCE
##XFACTOR=1.
##YFACTOR=0.001
##DELTAX=1.92898
##FIRSTX=549.8
##LASTX=4000.7
##FIRSTY=9.751
##MAXX=4000.7
##MINX=549.759
##MAXY=0.149551
##MINY=0
##NPOINTS=1790
##XYDATA=(X++(Y..Y))
549.759 9.751 9.131 7.601 6.551 6.151 6.011 5.251 4.231 4.371 4.211
569.049 3.491 3.911 3.701 3.231 2.901 2.301 2.261 2.311 2.211 2.121
588.339 2.811 3.071 2.271 2.171 2.181 2.431 2.851 2.701 3.071 2.941
607.628 2.311 2.381 2.581 1.861 1.4121 1.941 1.961 1.8008 1.5626 1.2307
626.918 1.5322 1.7122 1.777 2.131 2.301 2.191 1.4153 1.4931 1.871 1.6979
646.208 1.7645 1.7879 2.151 2.481 2.441 2.391 2.331 2.301 2.111 2.141
665.498 2.391 2.471 2.521 2.521 2.801 3.041 3.281 3.641 3.701 3.871
684.787 4.691 5.341 5.761 6.441 7.101 7.751 8.311 8.521 8.731 9.061
704.077 8.861 8.411 7.921 7.261 7.591 8.031 8.241 8.801 9.151 8.951
723.367 9.491 9.491 8.311 7.431 6.831 6.871 6.781 7.351 8.861 10.511
742.657 11.541 12.271 12.611 12.021 11.201 9.631 7.241 5.921 5.641 5.181
761.947 4.931 5.061 5.501 6.091 6.641 6.971 6.931 6.521 6.461 6.431
781.236 6.021 5.791 5.341 5.021 4.931 4.751 4.711 4.371 4.091 4.311
800.526 4.401 4.191 4.241 4.281 4.201 4.301 4.391 4.271 4.461 4.551
819.816 4.551 5.071 6.101 6.421 5.931 6.321 6.961 7.371 7.721 8.151
839.106 8.751 9.151 9.481 9.691 9.641 9.801 10.081 9.911 9.301 8.731
858.395 8.531 8.531 8.481 8.691 9.311 10.341 11.221 11.821 12.841 13.821
877.685 14.991 16.641 16.771 15.471 14.291 13.321 12.561 11.671 11.091 10.751
896.975 10.981 12.041 13.961 17.561 22.741 27.761 31.691 34.401 35.231 34.811
916.265 32.571 26.941 20.041 14.831 11.071 8.811 7.761 6.821 6.041 5.521
935.555 5.291 5.151 5.321 5.131 4.661 4.811 4.591 4.311 4.111 3.741
954.844 3.441 3.381 3.781 3.951 3.681 3.351 3.301 3.621 3.771 3.831
974.134 3.681 3.491 3.471 3.581 3.751 3.801 3.571 3.301 3.221 3.201
993.424 2.991 2.601 2.391 2.861 3.071 2.881 3.151 2.941 2.981 3.341
1012.714 2.791 2.171 2.511 2.341 1.901 2.231 2.551 2.521 2.581 2.671
1032.003 2.731 3.461 3.161 2.491 2.831 3.121 3.141 3.401 3.711 4.641
1051.293 5.791 6.561 7.761 9.341 10.201 11.131 11.731 10.911 9.881 8.651
1070.583 8.001 7.811 7.021 6.571 7.351 7.441 8.211 9.881 9.981 10.141
1089.873 12.501 14.891 15.811 17.881 18.501 18.071 18.671 18.451 17.131 15.711
1109.163 15.261 15.071 14.441 13.461 12.591 12.351 12.631 12.821 13.811 15.091
1128.452 16.421 18.011 20.261 22.871 28.141 34.351 40.491 49.791 60.011 70.701
1147.742 81.491 92.281 102.711 109.011 110.611 107.041 97.081 86.481 77.241 68.661
1167.032 62.921 61.181 64.271 70.191 77.101 82.941 83.961 80.761 74.691 67.061
1186.322 60.591 54.771 47.911 41.331 37.631 36.401 34.801 31.441 28.181 25.631
1205.611 22.881 19.531 16.591 15.811 16.071 15.611 14.611 13.391 13.031 12.821
1224.901 11.641 10.761 10.421 9.591 9.151 8.851 8.491 8.991 9.341 9.761
1244.191 10.831 11.551 11.511 11.711 11.661 10.731 9.711 8.651 7.981 7.631
1263.481 6.991 6.531 6.261 6.301 6.261 6.341 6.951 7.151 7.141 7.351
1282.771 7.961 8.701 9.221 9.931 11.481 13.631 15.941 18.601 21.701 25.281
1302.060 28.981 32.631 35.971 38.761 41.451 44.411 48.411 54.731 64.631 78.801
1321.350 96.471 115.961 133.521 145.581 149.551 144.411 131.341 111.231 86.791 63.511
1340.640 45.641 34.621 29.121 26.821 25.901 25.491 25.211 24.551 23.381 21.781
1359.930 19.871 17.731 15.471 13.341 11.651 10.281 9.061 8.131 7.421 7.061
1379.219 6.921 6.921 7.051 7.191 7.531 7.971 8.491 9.021 9.671 10.691
1398.509 11.831 13.111 14.631 16.601 19.071 22.191 26.151 30.981 36.711 43.181
1417.799 49.811 56.321 61.291 64.181 64.901 63.391 59.421 53.181 45.271 37.561
1437.089 30.361 24.331 19.721 16.241 13.541 11.611 10.161 8.911 8.051 7.291
1456.378 6.811 6.351 5.771 5.291 4.961 4.731 4.451 4.301 4.191 3.961
1475.668 3.731 3.711 4.011 4.191 4.431 4.951 5.541 6.161 6.821 7.641
1494.958 8.411 9.001 9.371 9.421 9.441 9.201 8.491 7.811 7.151 6.231
1514.248 5.311 4.551 3.911 3.511 3.461 3.381 3.211 3.111 3.191 3.271
1533.538 3.221 3.211 3.271 3.411 3.641 3.841 3.771 3.791 3.941 4.111
1552.827 4.301 4.481 4.801 5.191 5.631 6.371 7.301 8.171 9.301 10.821
1572.117 12.321 13.951 16.071 18.121 20.551 23.841 27.051 30.461 33.671 35.921
1591.407 37.021 36.861 35.081 31.831 28.011 24.241 20.681 17.501 14.781 12.541
1610.697 11.001 9.861 8.991 8.481 8.071 7.681 7.371 7.201 7.121 6.741
1629.986 6.491 6.641 6.521 6.221 5.821 5.401 5.111 4.891 4.661 4.621
1649.276 4.731 4.671 4.761 4.621 4.251 4.221 4.521 4.751 4.951 5.041
1668.566 5.311 5.841 6.371 6.931 7.351 7.881 8.531 9.261 9.991 10.191
1687.856 10.371 11.011 11.811 12.651 14.111 15.791 18.111 21.491 25.451 30.721
1707.146 36.971 44.251 52.501 61.581 70.531 77.801 82.231 83.791 83.941 83.361
1726.435 80.251 73.281 63.581 53.711 43.821 35.411 28.991 23.661 19.871 17.341
1745.725 15.731 14.711 14.101 13.661 13.481 13.301 12.941 12.411 11.881 11.301
1765.015 10.161 9.091 8.121 7.151 6.251 5.461 4.701 3.971 3.421 3.071
1784.305 2.981 2.821 2.591 2.491 2.521 2.461 2.381 2.401 2.311 2.221
1803.594 2.251 2.221 2.311 2.381 2.261 2.261 2.271 2.231 2.311 2.451
1822.884 2.261 2.131 2.081 1.971 1.931 1.6882 1.4441 1.2948 1.3298 1.4675
1842.174 1.4481 1.2973 1.2823 1.2737 1.2053 1.2444 1.4064 1.4712 1.4241 1.3717
1861.464 1.3549 1.2587 1.2888 1.3986 1.3852 1.3084 1.1861 1.1853 1.1526 1.1327
1880.754 1.1859 1.2394 1.1572 1.1323 1.1939 1.2319 1.2435 1.2545 1.1551 1.1653
1900.043 1.3077 1.3556 1.3484 1.2611 1.3347 1.4212 1.3841 1.4277 1.4557 1.5348
1919.333 1.6246 1.525 1.5131 1.5831 1.4823 1.4283 1.5499 1.5009 1.4284 1.4065
1938.623 1.4548 1.4897 1.5712 1.6132 1.5885 1.5654 1.407 1.294 1.3449 1.4992
1957.913 1.3634 1.2374 1.228 1.2529 1.2753 1.2233 1.1191 0.9422 0.83736 0.9928
1977.202 1.1641 1.066 1.0811 1.147 1.1584 1.1639 1.0858 1.012 0.96 0.9462
1996.492 1.0562 1.1448 1.108 0.9487 1.0969 1.2655 1.1112 0.9519 0.9278 1.0365
2015.782 0.9904 0.9473 0.9845 0.953 0.9447 1.0386 1.047 0.89037 0.9367 0.9552
2035.072 0.9913 1.1389 1.1419 1.0707 0.9969 0.9412 1.0489 1.129 0.9924 1.0188
2054.362 1.0422 0.9958 1.0721 1.1225 1.139 1.3765 1.4924 1.4666 1.3721 1.2468
2073.651 1.3179 1.3221 1.2389 1.146 1.172 1.1473 1.1156 1.2103 1.2142 1.1034
2092.941 1.0255 1.0879 1.1452 1.128 1.0961 1.0714 1.0851 1.1397 1.2588 1.337
2112.231 1.224 1.1007 0.9217 0.9083 1.0285 0.9579 0.9031 0.84147 0.83933 0.7872
2131.521 0.7908 0.9129 0.9094 0.809804 0.9081 0.9557 0.83128 0.8638 0.9088 0.7887
2150.810 0.7293 0.678 0.714 0.7169 0.638 0.9017 0.8423 0.82086 0.9043 0.82765
2170.100 0.8397 0.79385 0.7955 0.7619 0.9479 1.0197 0.82061 0.7787 0.7 0.803724
2189.390 0.9439 0.9264 0.89145 0.8173 0.84454 1.0545 1.1964 1.0136 0.85377 0.87806
2208.680 0.9778 1.124 0.9888 0.7447 0.79898 0.9734 1.0979 1.0288 0.87183 0.82731
2227.970 0.9944 1.1423 1.1872 1.0964 0.9276 0.9779 1.084 1.0772 1.0259 0.9662
2247.259 1.014 1.0574 0.9726 1.0943 1.1893 1.014 1.0105 1.0398 0.9267 0.9954
2266.549 0.9771 0.9284 0.9535 0.9526 1.0093 1.074 1.1591 1.0637 0.895 0.81968
2285.839 0.82544 0.9526 1.0685 1.1894 1.1328 1.1988 1.3167 1.1477 1.0582 0.9787
2305.129 1.0339 1.1613 1.0842 0.9766 0.9225 0.9345 1.1199 1.1432 1.2083 1.2811
2324.418 1.1089 1.0621 1.0268 1.0788 1.1657 1.1676 1.1204 1.0824 1.0334 1.1663
2343.708 1.3984 1.3334 1.1114 1.152 1.2983 1.1127 1.0739 1.1525 1.1154 1.1462
2362.998 1.2512 1.1741 1.0527 1.1906 1.3151 1.3452 1.1989 0.9818 1.0232 1.0223
2382.288 0.9892 0.90015 0.89213 1.0073 0.87022 0.9411 0.9734 0.9736 1.1384 1.2412
2401.578 1.1592 1.0252 1.0505 0.9398 0.87969 0.994 1.0933 0.93 0.7428 0.7269
2420.867 0.9521 1.052 0.82898 0.86398 0.9424 0.7547 0.66 0.7734 0.9898 1.0177
2440.157 0.9018 0.991 1.0894 1.1733 1.1166 1.0892 1.1802 1.1804 1.0779 0.9491
2459.447 0.9463 1.0629 1.0191 0.9359 0.9852 1.1834 1.1751 0.9766 1.0117 1.0479
2478.737 0.9403 0.9569 0.9449 0.7761 0.83618 1.1206 1.0958 0.9118 1.0582 1.0184
2498.026 0.9994 1.0314 0.87789 0.87167 0.84677 0.83985 0.7851 0.7652 0.9054 0.9827
2517.316 1.0791 1.0904 1.0832 0.9232 0.79274 0.9341 0.773 0.62 0.671 0.86367
2536.606 0.89288 0.784 0.87038 0.9421 0.9139 0.82921 0.82078 0.646 0.606 0.81336
2555.896 0.7905 0.672 0.661 0.7624 0.81289 1.043 1.1066 0.805992 0.7483 0.7792
2575.186 0.8345 0.7511 0.518 0.392 0.566 0.82234 0.7675 0.7127 0.567 0.477
2594.475 0.571 0.668 0.693 0.816 1.0593 0.9678 0.694 0.627 0.7049 0.82734
2613.765 0.628 0.499 0.676 0.686 0.83088 0.9916 0.7018 0.59 0.634 0.618
2633.055 0.9102 0.83118 0.513 0.522 0.7263 0.726 0.687 0.7103 0.7914 0.809873
2652.345 0.81932 1.0074 1.0831 0.9486 0.9924 1.0068 0.7572 0.8575 0.9828 0.789
2671.634 0.89309 0.9463 0.645 0.696 0.907 0.9907 0.9049 0.7872 0.86831 0.8219
2690.924 0.88562 1.0449 0.83437 0.514 0.681 0.83907 0.81618 0.9058 0.9264 0.86679
2710.214 0.737 0.7142 0.88743 0.85705 0.7166 0.9139 1.1881 1.0384 0.800441 0.802446
2729.504 0.624 0.631 0.7521 0.685 0.7231 0.9774 0.9433 0.9912 1.0863 0.976
2748.794 0.9108 0.9373 0.89632 0.62 0.7152 0.7695 0.7696 0.7367 0.7592 0.7111
2768.083 0.461 0.611 0.7595 0.75 0.9408 1.0116 0.82146 0.7162 0.472 0.439
2787.373 0.706 0.655 0.403 0.7182 0.9852 0.661 0.606 0.7747 0.79588 0.7554
2806.663 0.7609 0.9859 1.127 1.0128 0.9984 0.7653 0.613 0.802742 0.7091 0.926
2825.953 1.0896 0.79451 0.7698 0.682 0.69 0.586 0.42 0.588 0.741 0.7256
2845.242 0.672 0.685 0.642 0.548 0.652 0.7635 0.738 0.7324 0.932 0.9736
2864.532 0.672 0.7646 0.82489 0.406 0.451 0.65 0.7332 0.668 0.804852 0.9206
2883.822 0.79831 0.88289 0.575 0.535 0.587 0.664 0.936 0.9953 0.7898 0.667
2903.112 0.668 0.7551 1.0754 1.2523 1.0723 0.9388 0.84217 0.7329 0.7604 0.687
2922.401 0.804908 0.7026 0.571 0.7633 1.0165 0.86962 0.774 1.1178 1.0728 0.947
2941.691 1.2643 1.2698 0.7292 0.7468 0.9676 1.084 1.0723 1.0315 1.1775 1.0448
2960.981 0.89061 0.669 0.79997 1.2648 1.1617 0.85617 0.742 0.7266 0.67 0.683
2980.271 0.81353 1.0618 0.927 0.525 0.7303 0.7983 0.559 0.79657 1.0992 1.1322
2999.561 1.0505 1.0189 0.9699 0.89503 1.1286 1.0704 1.1105 1.3117 1.2037 0.88755
3018.850 0.686 0.9887 1.0526 0.762 0.7747 1.1205 1.3011 1.2698 1.0351 1.0836
3038.140 1.0059 0.672 0.523 0.395 0.458 0.571 1.0559 1.1846 0.9386 0.9677
3057.430 1.2271 1.4744 1.2989 1.1341 1.63 1.8001 1.7887 1.811 1.5635 1.5312
3076.720 1.2266 1.1113 1.1552 1.1382 1.0601 0.84194 0.9315 1.0541 0.9649 1.2382
3096.009 1.6182 1.683 1.5908 1.4551 1.2177 1.2898 1.1721 0.86755 0.83 0.7493
3115.299 0.9043 0.693 0.646 0.9021 0.85126 0.9601 0.7647 0.407 0.686 0.9774
3134.589 1.0266 0.86867 0.807938 0.804943 0.802943 1.0316 0.83652 0.634 0.661 0.599
3153.879 0.5 0.7695 1.1474 1.3107 1.4095 1.303 1.4648 1.4834 1.2073 0.84638
3173.169 0.283 0.28 0.463 0.548 0.89258 1.0619 0.88171 0.9169 0.9586 0.784
3192.458 0.709 0.9628 1.0728 0.94 0.9456 0.81648 0.663 0.441 0.346 0.406
3211.748 0.453 0.45 0.463 0.666 0.512 0.571 0.9021 0.699 0.698 0.691
3231.038 0.414 0.54 1.0094 0.88899 0.317 0.484 0.7584 0.8755 1.2955 1.0923
3250.328 0.9245 1.0486 0.86906 0.9419 1.162 0.9856 0.7275 0.9775 0.9777 0.463
3269.617 0.55 0.85734 1.1296 1.2141 0.7511 0.582 0.82438 0.87734 0.636 0.605
3288.907 0.85559 0.8379 0.683 0.83721 0.9202 0.85694 0.8992 0.7064 0.7339 1.1032
3308.197 1.3215 1.2815 1.0686 1.1621 1.1377 0.7589 0.89412 0.8666 0.343 0.374
3327.487 0.512 0.549 0.88665 1.0173 1.2004 1.2043 0.90027 0.9279 0.83825 0.673
3346.777 0.7415 0.87216 0.88932 0.85737 0.7879 0.7065 0.9807 1.333 1.1409 1.2161
3366.066 1.0277 0.524 0.429 0.593 0.7169 1.1081 1.408 1.2599 1.4894 1.3946
3385.356 0.942 0.9446 1.1245 1.4549 1.7442 1.841 2.331 2.681 2.791 2.611
3404.646 2.241 2.661 3.351 3.601 4.241 4.541 4.531 5.171 5.761 5.891
3423.936 6.271 6.771 6.961 7.311 8.111 8.521 9.171 10.101 10.711 11.041
3443.225 10.761 10.681 9.971 8.971 8.011 6.881 5.541 4.251 3.221 2.461
3462.515 2.081 1.7276 1.624 1.529 1.6639 1.7801 1.7563 1.7525 1.5309 1.4442
3481.805 1.3507 0.9775 1.1756 1.851 1.911 1.4687 1.3155 1.5068 1.871 1.921
3501.095 1.4886 1.4848 1.941 2.451 2.721 2.641 2.781 2.921 2.871 3.011
3520.385 3.141 3.501 3.691 3.321 3.531 4.361 4.911 5.371 5.951 6.261
3539.674 6.251 6.531 7.271 7.441 7.031 7.251 7.911 8.171 8.701 9.351
3558.964 10.291 11.421 12.531 13.481 13.741 13.281 12.431 11.251 9.561 7.631
3578.254 5.751 4.171 3.181 2.801 2.201 1.5979 1.3792 1.4627 1.5334 1.4641
3597.544 1.5267 1.4421 1.352 1.2036 1.0721 0.9115 0.84332 0.9663 0.9686 0.84726
3616.833 0.528 0.567 0.97 1.3581 0.9547 0.654 0.9737 0.9439 0.8585 1.1533
3636.123 1.0979 0.766 1.0128 1.0303 0.68 0.809171 0.578 0.56 0.9692 0.9556
3655.413 0.81529 0.495 0.645 1.0604 1.1151 0.82673 0.668 0.629 0.727 1.0074
3674.703 1.127 0.9437 0.7488 0.546 0.629 0.585 0.84523 1.1098 0.7886 0.774
3693.993 0.68 0.507 0.485 0.367 0.425 0.524 0.393 0.484 0.82759 1.0806
3713.282 1.1563 0.87683 0.634 0.682 0.810802 1.3155 0.976 0.095 0.146 0.659
3732.572 0.802901 0.546 0.656 0.9732 1.0669 0.88773 0.506 0.527 0.489 0.613
3751.862 0.9987 0.87691 0.88683 0.761 0.654 0.7065 0.398 0.264 0.142 0.352
3771.152 0.559 0.652 0.696 0.5 0.83272 1.1262 0.681 0.59 0.9641 1.2
3790.441 1.2325 0.9202 1.0233 1.242 1.1446 1.1429 1.1938 0.88031 0.9861 1.3466
3809.731 1.0146 0.9127 0.646 0.503 0.800858 0.9378 0.84994 0.391 0.405 0.692
3829.021 0.348 0.299 0.468 0.55 0.9031 0.97 0.84887 1.0739 1.1777 0.79342
3848.311 0.7072 0.56 0.247 0.7094 1.1497 0.87376 0.88043 1.0308 0.7686 0.9196
3867.601 0.9906 0.807371 0.81383 0.82863 0.9211 0.84852 0.805339 0.810154 0.483 0.556
3886.890 0.7806 0.79676 0.661 0.89714 1.048 0.481 0.28 0.634 0.9697 0.667
3906.180 0.656 0.800514 0.9689 0.83552 0.657 0.622 0.337 0.539 0.84333 0.636
3925.470 0.41 0.193 0.317 0.604 0.9012 1.2296 1.0472 0.697 0.525 0.536
3944.760 0.569 0.613 0.46 0.474 0.689 0.7417 0.7061 0.7134 0.7302 0.451
3964.049 0.095 0.201 0.283 0.451 0.597 0.305 0.226 0.84206 1.0095 0.367
3983.339 0 0.227 0.557 0.655 0.7127 0.508 0.414 0.573 0.404 0.5
##END=
