##TITLE=2-Fluoro-6-(trifluoromethyl)benzophenone
##JCAMP-DX=4.24
##DATA TYPE=INFRARED SPECTRUM
##ORIGIN=EPA-IR VAPOR PHASE LIBRARY
##OWNER=SRD/NIST
Collection (C) 2018 copyright by the U.S. Secretary of Commerce
on behalf of the United States of America. All rights reserved.
##CAS REGISTRY NO=208173-18-6
##MOLFORM=C 14 H 8 F 4 O
##$NIST SOURCE=MSDC-IR
##STATE=gas
##XUNITS=1/CM
##YUNITS=ABSORBANCE
##XFACTOR=1.
##YFACTOR=0.001
##DELTAX=1.92898
##FIRSTX=549.8
##LASTX=4000.7
##FIRSTY=1.809
##MAXX=4000.7
##MINX=549.759
##MAXY=0.166829
##MINY=0
##NPOINTS=1790
##XYDATA=(X++(Y..Y))
549.759 1.809 1.3851 1.889 1.779 2.249 1.969 0.9067 1.2755 1.2604 0.8838
569.049 1.1258 1.446 1.809 2.539 2.229 1.849 2.059 2.559 2.999 2.889
588.339 2.739 2.629 2.329 1.759 1.699 1.2745 0.454 0 0.426 1.251
607.628 1.3165 1.659 2.149 2.429 1.533 0.977 0.9986 1.0044 1.4253 1.829
626.918 1.949 2.149 3.019 2.599 2.659 3.939 4.619 4.929 5.299 5.929
646.208 6.969 9.469 13.309 17.879 21.559 23.979 24.349 22.219 18.959 14.089
665.498 10.109 7.929 6.999 6.859 6.609 7.089 7.889 8.949 10.849 12.079
684.787 13.379 14.709 15.499 16.759 18.609 21.729 25.409 29.699 34.229 36.959
704.077 37.699 36.719 34.219 30.389 25.659 21.669 18.209 14.549 12.049 10.779
723.367 10.019 9.369 9.059 8.989 8.809 9.139 10.569 12.239 13.669 15.279
742.657 17.439 18.579 17.469 15.459 13.609 11.689 10.249 10.409 11.129 11.559
761.947 12.579 14.019 14.079 12.379 10.669 9.009 6.519 5.279 5.219 5.159
781.236 5.129 5.269 5.629 6.149 7.079 8.619 10.489 13.099 16.239 18.859
800.526 21.269 23.139 22.299 18.459 14.769 11.129 7.459 5.259 4.379 3.479
819.816 2.389 2.579 2.959 2.609 2.479 2.619 2.709 2.749 2.429 2.189
839.106 1.859 1.729 2.229 2.479 2.169 1.799 1.859 2.129 2.229 2.019
858.395 2.119 2.329 2.789 2.969 2.849 2.649 2.429 2.909 3.099 3.409
877.685 3.879 3.989 4.259 5.149 5.669 6.379 7.399 8.019 9.629 12.069
896.975 15.099 18.219 21.239 25.249 29.759 33.399 35.919 37.629 38.119 37.699
916.265 37.709 39.449 43.549 50.739 59.549 66.539 70.239 69.289 63.319 53.439
935.555 41.169 30.019 21.529 15.209 11.349 9.209 7.879 6.969 6.059 5.349
954.844 4.709 4.479 4.279 3.659 3.989 4.459 4.669 4.719 4.469 4.319
974.134 3.949 3.389 3.249 3.399 3.099 3.259 3.499 3.059 2.989 3.469
993.424 3.739 4.079 3.769 3.589 4.329 4.489 4.419 4.149 3.699 3.529
1012.714 3.709 3.819 3.719 3.329 3.399 4.069 5.069 5.399 4.369 3.999
1032.003 4.589 4.359 3.639 3.239 2.749 3.429 3.629 3.069 3.589 4.119
1051.293 3.839 3.959 4.499 4.749 6.259 7.669 7.759 8.749 9.999 10.299
1070.583 10.029 8.989 8.509 7.499 6.509 5.949 4.509 4.379 4.579 4.959
1089.873 5.609 4.819 4.749 5.059 5.729 6.759 6.979 8.719 10.139 10.469
1109.163 11.809 14.549 18.359 22.069 27.339 34.169 39.729 45.289 49.299 49.119
1128.452 46.469 42.469 39.699 39.879 42.719 48.649 56.779 66.029 76.589 87.539
1147.742 96.909 104.639 110.939 113.939 112.069 107.429 103.509 99.699 97.029 96.339
1167.032 99.459 108.149 118.499 128.109 134.689 137.589 135.979 130.109 120.769 107.929
1186.322 94.839 81.469 67.849 54.669 42.729 34.039 26.609 21.939 18.979 15.689
1205.611 13.659 12.219 11.839 11.049 9.239 8.779 9.229 10.779 12.239 11.829
1224.901 11.369 12.559 14.429 16.069 18.439 20.119 21.109 22.629 24.729 27.659
1244.191 31.889 37.369 44.749 54.259 66.889 82.099 98.869 116.179 131.439 142.239
1263.481 145.829 140.179 125.959 106.069 84.639 65.469 50.289 40.139 33.879 29.309
1282.771 25.999 24.549 24.189 23.599 23.329 23.809 25.059 27.049 29.789 33.769
1302.060 39.609 47.659 58.109 71.739 88.249 106.289 124.889 142.479 156.679 165.299
1321.350 166.829 160.709 147.219 127.699 104.809 81.609 60.839 44.479 32.809 24.769
1340.640 19.319 15.639 12.939 10.939 9.389 8.329 7.729 6.989 6.289 5.929
1359.930 5.499 5.209 5.239 5.119 4.829 4.719 4.669 4.639 4.669 4.569
1379.219 4.429 4.349 4.319 4.239 4.039 3.929 3.919 3.829 3.649 3.559
1398.509 3.629 3.799 3.659 3.479 3.419 3.579 3.839 3.879 3.859 3.949
1417.799 4.249 4.659 5.069 5.309 5.569 5.979 6.739 7.609 8.749 10.379
1437.089 12.569 15.149 18.429 22.759 27.609 32.329 36.799 40.219 42.079 42.529
1456.378 41.689 39.709 36.839 33.379 29.659 25.999 22.999 21.149 20.219 19.399
1475.668 18.459 17.129 15.639 13.789 11.689 9.819 8.559 7.499 6.459 5.729
1494.958 5.329 5.119 5.039 5.009 4.989 4.799 4.419 4.379 4.449 4.239
1514.248 3.939 3.759 3.669 3.499 3.479 3.649 3.539 3.359 3.309 3.379
1533.538 3.649 3.849 3.749 3.679 3.939 4.279 4.489 4.419 4.309 4.489
1552.827 4.489 4.249 4.359 4.659 4.999 5.449 6.219 6.889 7.839 9.149
1572.117 10.389 11.579 13.019 14.499 15.469 16.209 16.209 15.519 14.489 13.479
1591.407 13.049 12.599 12.709 13.779 14.549 14.829 14.669 14.219 14.159 14.059
1610.697 14.069 13.769 12.809 11.689 10.229 8.969 7.849 6.639 5.509 4.989
1629.986 5.039 5.019 5.009 4.779 4.669 4.879 4.959 4.899 4.899 4.889
1649.276 4.689 4.329 4.379 4.799 5.069 5.409 5.829 6.299 6.779 7.219
1668.566 7.769 8.489 9.069 9.209 9.839 10.669 11.909 13.709 16.539 21.299
1687.856 27.909 36.879 48.349 60.869 74.069 85.769 91.619 90.339 82.479 70.629
1707.146 57.769 45.199 34.359 26.479 20.969 17.099 14.439 12.729 11.549 10.639
1726.435 9.729 8.849 8.119 7.229 6.449 5.979 5.469 4.829 4.509 4.359
1745.725 4.189 4.059 4.119 4.109 4.139 4.139 3.999 3.759 3.509 3.329
1765.015 3.259 3.219 3.009 2.739 2.589 2.739 2.709 2.509 2.449 2.279
1784.305 2.169 2.299 2.449 2.509 2.569 2.789 2.959 3.229 3.579 3.809
1803.594 3.909 3.769 3.699 3.499 3.189 2.899 2.559 2.449 2.319 2.079
1822.884 1.999 1.879 1.819 1.859 1.779 1.759 1.779 1.789 1.799 1.929
1842.174 1.949 1.939 1.959 1.889 1.929 2.049 2.149 2.319 2.399 2.449
1861.464 2.639 2.769 2.899 3.059 3.129 2.939 2.669 2.599 2.659 2.379
1880.754 2.059 2.129 2.119 1.969 1.859 1.889 1.919 2.079 2.289 2.339
1900.043 2.489 2.529 2.459 2.429 2.369 2.299 2.379 2.439 2.269 2.129
1919.333 2.259 2.259 2.299 2.479 2.429 2.409 2.549 2.899 3.379 3.499
1938.623 3.439 3.409 3.149 2.909 2.779 2.789 2.809 2.749 2.729 2.619
1957.913 2.599 2.519 2.229 2.219 2.489 2.559 2.469 2.339 2.459 2.409
1977.202 2.119 2.049 2.159 1.969 1.649 1.719 1.719 1.5659 1.5136 1.459
1996.492 1.5226 1.3804 1.3728 1.452 1.4497 1.609 1.669 1.699 1.829 1.709
2015.782 1.5003 1.609 1.629 1.419 1.3765 1.649 1.599 1.3861 1.278 1.2409
2035.072 1.4582 1.5588 1.579 1.4603 1.4038 1.3999 1.4687 1.639 1.4989 1.5111
2054.362 1.528 1.5354 1.619 1.649 1.769 1.839 1.739 1.5721 1.609 1.829
2073.651 1.969 1.859 1.699 1.649 1.849 1.939 1.829 1.859 1.899 1.869
2092.941 1.809 1.739 1.739 1.779 1.629 1.639 1.629 1.4846 1.5315 1.679
2112.231 1.779 1.619 1.3869 1.4562 1.4319 1.1988 1.2119 1.3217 1.3398 1.3936
2131.521 1.4821 1.4157 1.3747 1.4461 1.4989 1.4785 1.3297 1.3455 1.425 1.5153
2150.810 1.619 1.579 1.599 1.5204 1.4192 1.5014 1.649 1.729 1.709 1.729
2170.100 1.649 1.659 1.689 1.599 1.5513 1.579 1.458 1.2917 1.5407 1.899
2189.390 1.949 1.759 1.639 1.5456 1.639 1.759 1.4578 1.2798 1.5023 1.679
2208.680 1.679 1.789 1.839 1.789 1.919 1.889 1.639 1.5768 1.5635 1.659
2227.970 1.769 1.819 1.879 1.769 1.809 1.919 1.869 1.849 1.809 1.859
2247.259 2.009 1.949 1.939 2.049 1.859 1.679 1.959 2.029 1.829 1.769
2266.549 1.869 2.019 1.859 1.809 1.899 1.969 2.009 1.969 1.849 1.759
2285.839 1.889 1.959 2.019 1.999 1.829 1.869 1.809 1.669 1.919 2.089
2305.129 1.809 1.839 2.069 2.109 2.219 2.489 2.449 2.229 2.289 2.339
2324.418 2.329 2.259 2.069 2.029 1.899 1.769 1.829 1.919 1.939 2.039
2343.708 2.099 2.019 1.929 2.049 2.169 1.949 2.029 2.079 1.839 1.859
2362.998 1.859 1.869 2.069 1.859 1.759 1.869 1.909 1.999 2.039 1.999
2382.288 1.929 1.899 1.869 1.789 1.799 1.849 1.829 1.859 1.959 1.949
2401.578 1.959 1.799 1.749 2.009 1.929 1.989 2.129 1.949 1.719 1.719
2420.867 1.849 1.779 1.579 1.629 1.679 1.659 1.709 1.859 1.879 1.759
2440.157 1.719 1.579 1.519 1.46 1.4322 1.5341 1.639 1.709 1.649 1.649
2459.447 1.859 1.709 1.4796 1.5704 1.619 1.649 1.849 1.859 1.679 1.5694
2478.737 1.4082 1.4918 1.619 1.5505 1.689 1.879 1.879 2.059 2.189 1.969
2498.026 1.859 2.009 2.179 2.209 2.259 2.129 1.819 1.649 1.769 1.979
2517.316 1.879 1.819 1.819 1.809 1.799 1.709 1.989 2.139 1.999 1.899
2536.606 1.879 2.119 2.069 1.839 1.779 1.839 2.009 1.739 1.3399 1.609
2555.896 1.799 1.819 1.899 1.739 1.689 1.699 1.669 1.799 1.969 1.739
2575.186 1.719 2.019 1.829 1.839 2.219 2.049 1.809 1.949 1.959 1.609
2594.475 1.719 1.929 1.959 1.889 1.809 1.929 1.689 1.809 2.139 2.209
2613.765 2.179 2.019 1.929 1.989 1.979 1.729 1.5275 1.629 1.759 1.899
2633.055 1.879 1.779 1.4296 1.3182 1.649 1.739 1.749 1.849 1.729 1.4686
2652.345 1.4226 1.609 1.649 1.629 1.679 1.4803 1.417 1.579 1.609 1.609
2671.634 1.699 1.556 1.629 1.629 1.3995 1.2763 1.3363 1.364 1.3758 1.2692
2690.924 1.1482 1.599 1.929 1.799 1.3172 1.3874 1.739 1.749 1.559 1.4735
2710.214 1.609 1.5692 1.739 1.969 1.949 1.809 1.739 1.829 1.799 1.729
2729.504 1.919 2.099 2.069 1.959 1.919 1.969 1.769 1.5555 1.589 1.659
2748.794 1.809 1.959 1.979 1.789 1.699 1.769 1.989 2.009 1.919 1.849
2768.083 1.739 1.809 1.689 1.5661 1.659 1.779 1.709 1.819 1.869 1.659
2787.373 1.799 1.849 1.819 1.869 1.699 1.5055 1.849 1.999 1.599 1.5686
2806.663 1.849 1.709 1.579 1.699 1.4985 1.4297 1.759 2.019 1.739 1.709
2825.953 1.809 1.659 1.979 1.879 1.5291 1.579 1.5563 1.4901 1.649 1.839
2845.242 1.839 1.989 1.899 1.729 1.619 1.5584 1.719 2.149 2.559 2.239
2864.532 2.159 2.269 1.869 1.5564 1.849 1.949 1.909 1.999 1.959 1.959
2883.822 1.899 1.689 1.679 1.829 1.669 1.5652 1.809 1.789 1.5772 1.699
2903.112 1.859 2.119 1.729 1.2505 1.4441 1.969 1.969 1.3511 1.4496 1.679
2922.401 1.809 2.199 2.179 1.919 1.879 1.899 1.839 1.629 1.839 2.279
2941.691 2.029 1.779 2.019 1.679 1.472 1.699 1.679 1.699 1.3896 1.669
2960.981 1.769 1.3031 1.4898 1.769 1.929 1.949 1.989 2.029 2.089 1.969
2980.271 1.699 1.619 1.5667 1.659 1.5082 1.619 2.049 2.079 2.229 2.059
2999.561 1.829 2.089 2.339 2.299 2.139 2.219 2.659 2.779 2.539 2.539
3018.850 2.799 3.339 3.839 4.109 4.379 5.079 5.909 6.149 6.209 6.469
3038.140 6.659 7.039 7.119 6.629 6.469 6.299 6.009 6.049 5.929 6.059
3057.430 6.469 6.719 7.449 8.489 9.849 11.629 13.169 13.769 14.199 14.619
3076.720 14.189 13.459 12.659 11.899 11.689 11.599 11.669 11.469 10.629 9.589
3096.009 8.359 7.089 6.259 5.839 5.239 4.709 4.469 4.169 3.629 2.859
3115.299 2.429 2.359 2.059 1.839 1.849 1.889 1.849 1.959 2.029 1.789
3134.589 1.789 1.849 1.5754 1.689 2.319 2.419 2.109 1.939 1.749 1.699
3153.879 1.689 1.5001 1.589 2.029 2.079 1.719 1.639 1.649 1.719 2.059
3173.169 2.049 1.849 1.779 1.749 1.859 1.5719 1.4718 1.859 1.929 1.869
3192.458 1.879 1.759 1.589 1.699 1.839 1.799 1.969 1.889 1.4544 1.659
3211.748 1.689 1.1255 1.3121 1.699 1.629 1.5449 1.4455 1.5334 1.599 1.0471
3231.038 0.8262 1.0214 1.0834 1.0164 1.1168 1.2801 1.4202 1.789 1.759 1.5033
3250.328 1.2785 1.2937 1.2711 0.9948 1.2197 1.4719 1.0742 1.0221 1.2632 1.3151
3269.617 1.522 1.5059 1.3487 0.9562 0.7702 0.7746 1.0118 1.4868 1.659 1.849
3288.907 1.5093 1.3039 1.4915 1.2276 1.2836 1.5518 1.819 1.799 1.4875 1.619
3308.197 1.3718 1.0513 1.4575 1.619 1.609 1.699 1.689 1.5375 1.1378 1.3483
3327.487 1.679 1.4397 1.5672 1.5617 1.549 2.029 1.889 1.589 1.3125 1.1541
3346.777 1.3942 1.769 1.639 1.4187 2.009 1.929 1.659 1.3937 1.1459 1.5396
3366.066 1.789 2.039 2.189 2.179 2.289 2.379 2.409 2.459 2.479 2.549
3385.356 2.579 2.639 2.499 2.469 2.339 1.769 1.5769 1.639 1.819 1.619
3404.646 1.5629 1.799 1.569 1.4429 1.5018 1.929 2.289 1.819 1.1693 1.0051
3423.936 1.4522 1.829 1.829 1.599 1.649 1.759 1.619 1.5245 1.334 1.438
3443.225 1.3704 0.9737 1.5751 1.819 1.4395 1.3053 1.2378 1.1264 0.9368 1.1341
3462.515 1.769 1.869 1.4915 1.5441 1.579 1.5556 1.2263 0.9271 0.9471 1.1715
3481.805 1.0432 1.2831 1.599 1.1575 1.0278 1.2364 0.9996 0.8744 1.0109 1.1861
3501.095 1.423 1.5754 1.5713 1.1606 1.0472 1.2459 1.5104 1.619 1.4806 1.1117
3520.385 1.1376 1.2708 1.0641 1.2078 1.4816 1.5532 1.3589 1.3156 1.649 1.4761
3539.674 1.0516 0.874 1.0585 1.3773 0.9364 0.9639 1.4323 1.1238 1.4176 1.689
3558.964 1.382 1.2664 1.2796 1.2346 1.3417 1.619 1.1313 0.5068 0.65764 0.9484
3578.254 1.0572 1.5759 1.689 1.2651 1.3903 1.2807 1.0393 1.3823 1.3109 0.937
3597.544 1.0942 1.3759 1.2906 1.1918 1.1378 0.931 1.1672 1.679 1.799 1.709
3616.833 1.512 1.5035 1.4962 1.3961 1.4874 1.15 0.7487 1.0972 1.2407 1.0302
3636.123 1.3371 1.4251 1.4989 1.939 2.019 1.5492 1.1183 1.1475 1.4671 1.669
3655.413 1.659 1.5115 1.1162 0.948 0.8832 1.1427 1.493 1.2113 1.3548 1.5331
3674.703 1.2726 1.2599 1.2628 1.2693 1.3405 1.3144 1.4651 1.609 1.4113 1.509
3693.993 1.729 1.533 1.5507 1.3117 0.9929 1.1635 1.3452 1.5422 1.5011 1.679
3713.282 1.899 1.799 1.649 1.659 1.639 1.5762 1.5694 1.4621 1.3715 1.5163
3732.572 1.4592 1.0371 1.1895 1.4888 1.1458 0.6279 0.8336 1.1732 1.1713 1.4079
3751.862 1.2937 1.2589 1.3792 1.3558 1.5143 1.599 1.4777 1.4988 1.649 1.679
3771.152 1.619 1.4983 1.2898 1.2235 1.2147 1.5159 1.619 1.1149 1.0457 1.2171
3790.441 1.2092 1.3257 1.789 1.589 1.3644 1.2975 1.1569 1.1919 1.3905 1.749
3809.731 1.589 1.3395 1.669 2.109 2.019 1.709 1.3499 1.2206 1.4044 1.829
3829.021 1.789 1.254 0.9649 1.2677 1.3298 0.9209 0.9111 1.131 1.4019 1.739
3848.311 1.659 1.2068 1.0376 1.2079 1.3125 1.5403 1.1434 1.1236 1.1179 1.1975
3867.601 1.3274 0.9853 1.4036 1.4452 1.3587 1.4479 1.4408 1.315 0.9912 0.8517
3886.890 0.9479 1.0391 1.3104 1.3834 1.4293 1.4308 1.3141 0.9775 1.0983 1.175
3906.180 0.861 0.8977 0.8896 1.1496 1.3471 1.2732 1.3948 1.1791 1.2024 1.709
3925.470 1.619 1.3538 1.5499 1.799 1.3715 0.8009 0.7305 0.8153 1.0476 0.9592
3944.760 0.9311 1.4022 1.779 1.649 1.759 1.909 1.4702 1.3332 1.2062 1.4752
3964.049 1.3505 1.2854 1.819 1.919 1.679 1.5239 1.639 1.829 2.069 2.089
3983.339 1.879 1.839 1.759 1.4423 1.609 1.689 1.879 2.039 1.919 1.809
##END=
