##TITLE=2,3-Difluorobenzophenone
##JCAMP-DX=4.24
##DATA TYPE=INFRARED SPECTRUM
##ORIGIN=EPA-IR VAPOR PHASE LIBRARY
##OWNER=SRD/NIST
Collection (C) 2018 copyright by the U.S. Secretary of Commerce
on behalf of the United States of America. All rights reserved.
##CAS REGISTRY NO=208173-20-0
##MOLFORM=C 13 H 8 F 2 O
##$NIST SOURCE=MSDC-IR
##STATE=gas
##XUNITS=1/CM
##YUNITS=ABSORBANCE
##XFACTOR=1.
##YFACTOR=0.001
##DELTAX=1.92898
##FIRSTX=549.8
##LASTX=4000.7
##FIRSTY=14.678
##MAXX=4000.7
##MINX=549.759
##MAXY=0.308268
##MINY=0
##NPOINTS=1790
##XYDATA=(X++(Y..Y))
549.759 14.678 13.528 11.288 9.338 8.138 7.708 7.868 8.188 8.538 9.248
569.049 10.218 11.548 12.628 12.988 14.368 16.468 18.948 22.458 26.278 29.618
588.339 31.178 31.028 29.238 25.468 21.268 16.698 13.008 11.008 9.688 9.168
607.628 9.588 10.878 12.318 14.238 17.428 20.978 23.838 25.118 24.788 23.678
626.918 21.848 18.518 15.348 12.418 10.078 8.968 8.318 8.148 7.688 7.818
646.208 7.808 7.708 8.618 9.658 9.788 10.238 11.918 13.858 15.908 19.078
665.498 23.978 30.168 37.568 46.488 56.448 65.958 73.958 79.998 85.268 89.208
684.787 91.098 92.238 93.278 93.188 91.978 90.778 88.408 85.358 82.068 77.458
704.077 72.388 67.058 61.888 57.318 54.388 53.268 53.408 55.998 59.848 64.878
723.367 71.608 78.818 85.698 89.448 88.418 83.558 75.668 66.058 56.088 46.808
742.657 38.648 32.228 27.598 24.648 22.648 21.348 21.158 20.958 21.908 23.938
761.947 26.948 31.338 36.458 42.238 48.238 53.988 57.678 59.438 59.388 57.068
781.236 53.438 49.508 46.608 44.548 42.868 41.248 39.368 37.338 35.168 33.528
800.526 32.378 31.098 29.438 28.228 28.608 29.638 30.798 32.458 34.148 35.158
819.816 35.968 35.868 34.558 32.978 30.518 28.088 26.308 24.668 23.408 22.228
839.106 21.558 21.548 22.478 23.738 25.608 28.818 32.918 38.848 48.218 61.998
858.395 80.738 104.748 129.648 150.518 163.658 166.328 158.108 138.738 112.198 84.928
877.685 60.728 42.978 31.868 25.078 21.188 19.338 19.268 20.508 22.338 23.798
896.975 23.718 22.638 21.378 19.088 15.618 12.558 10.258 8.658 8.288 7.978
916.265 7.638 7.428 7.018 6.498 6.038 6.498 6.738 6.318 6.018 5.558
935.555 5.478 5.288 4.838 4.678 4.808 4.968 4.988 5.078 4.988 5.318
954.844 6.148 6.778 7.258 7.398 7.398 8.018 8.778 9.188 9.378 9.758
974.134 10.548 11.508 12.418 13.858 15.718 17.558 20.148 23.188 26.038 28.648
993.424 31.568 34.738 38.298 40.988 42.768 43.038 41.398 39.438 36.478 31.748
1012.714 26.578 22.898 19.538 16.428 14.488 12.628 11.328 11.138 10.208 8.768
1032.003 7.918 7.898 7.448 6.378 6.088 6.818 8.198 8.778 10.028 11.878
1051.293 13.668 16.068 18.698 21.378 23.558 25.328 26.508 26.438 25.098 23.228
1070.583 21.578 19.388 16.298 13.438 11.468 10.208 8.988 7.728 5.938 5.108
1089.873 5.788 6.318 6.358 6.288 6.718 6.198 5.998 7.188 6.278 5.468
1109.163 5.218 3.888 3.758 3.808 4.868 6.168 5.888 5.628 6.098 5.748
1128.452 5.378 6.508 7.308 7.028 6.808 7.858 9.028 9.598 11.128 12.848
1147.742 14.778 17.478 18.958 19.878 20.788 20.678 19.358 18.348 17.778 17.758
1167.032 19.968 23.268 28.048 34.978 42.958 48.818 51.058 52.108 51.698 48.648
1186.322 43.318 37.888 34.948 33.428 32.128 30.698 29.388 28.618 28.388 27.608
1205.611 25.808 25.888 27.758 30.188 33.588 36.808 42.198 50.368 59.838 70.368
1224.901 78.628 87.688 93.338 93.298 92.158 88.088 83.148 79.778 77.458 77.178
1244.191 79.188 84.298 92.948 103.448 116.258 132.308 151.588 173.048 196.058 219.748
1263.481 240.818 259.728 276.718 287.578 293.098 294.568 290.418 280.118 265.178 248.318
1282.771 230.748 215.068 205.788 205.088 212.488 225.328 239.868 249.788 250.678 242.838
1302.060 227.188 205.818 183.318 164.758 152.808 147.058 143.208 138.038 130.138 118.218
1321.350 102.598 85.498 70.098 58.338 50.158 43.988 39.158 35.428 31.898 28.638
1340.640 25.678 22.908 20.458 18.208 16.448 15.078 13.918 13.098 12.358 11.768
1359.930 11.398 11.108 10.788 10.488 10.288 9.838 9.618 9.588 9.328 9.368
1379.219 9.468 9.328 9.158 8.778 8.388 8.028 7.668 7.458 7.218 6.988
1398.509 6.928 6.958 6.968 7.028 7.258 7.428 7.608 7.868 8.148 8.438
1417.799 8.788 9.248 9.578 9.888 10.518 11.298 12.158 13.338 15.138 17.418
1437.089 20.718 25.128 30.898 38.258 46.208 53.068 57.668 60.228 61.768 62.578
1456.378 62.658 64.298 69.818 79.688 93.968 112.748 135.898 163.478 194.628 228.598
1475.668 260.358 286.558 302.968 308.268 301.518 283.698 256.498 223.258 187.168 153.348
1494.958 123.848 99.198 80.338 65.968 55.408 47.568 41.248 36.478 32.868 29.808
1514.248 27.148 24.888 22.718 20.738 19.078 17.468 16.188 15.308 14.528 13.958
1533.538 13.578 13.048 12.708 12.638 12.658 12.668 12.668 12.788 13.098 13.508
1552.827 13.778 13.988 14.438 15.368 16.478 17.488 18.818 20.498 22.838 25.678
1572.117 28.948 32.888 37.398 42.798 48.508 54.088 60.088 66.188 71.068 74.238
1591.407 75.358 74.738 72.418 68.298 62.708 56.218 50.008 44.978 40.998 38.058
1610.697 36.728 36.718 37.588 38.738 39.528 39.678 38.778 37.108 34.628 31.438
1629.986 28.298 25.458 23.068 21.178 20.098 19.588 19.458 19.558 20.118 21.108
1649.276 22.018 22.998 24.338 25.678 27.748 30.518 33.588 37.408 42.098 47.748
1668.566 54.998 64.058 75.058 88.798 106.328 126.398 149.748 173.958 197.968 219.518
1687.856 234.258 241.338 238.348 225.628 203.798 178.278 152.098 125.618 104.168 85.668
1707.146 71.198 60.258 52.168 45.858 40.918 36.558 32.868 30.008 27.688 25.608
1726.435 23.808 22.408 21.118 19.778 18.518 17.358 16.158 15.188 14.338 13.308
1745.725 12.458 11.798 11.228 10.738 10.328 9.848 9.338 9.038 8.858 8.628
1765.015 8.538 8.248 7.908 7.798 7.648 7.408 7.018 6.708 6.618 6.638
1784.305 6.658 6.558 6.578 6.898 7.168 7.188 7.298 7.558 7.868 8.068
1803.594 8.258 8.338 8.198 8.038 7.678 7.188 6.678 6.148 5.698 5.318
1822.884 5.028 4.808 4.548 4.188 4.068 4.018 3.878 3.708 3.648 3.898
1842.174 4.098 4.408 4.888 5.358 5.798 6.098 6.448 6.638 6.608 6.468
1861.464 5.918 5.348 4.798 4.258 4.038 3.838 3.768 3.658 3.588 3.788
1880.754 3.978 4.078 4.258 4.568 5.008 5.158 5.278 5.658 5.888 6.088
1900.043 6.298 6.298 6.368 6.528 6.588 6.658 6.818 6.838 6.858 6.998
1919.333 6.838 6.478 6.108 5.668 5.158 4.518 3.958 3.618 3.338 3.448
1938.623 3.608 3.548 3.728 4.038 4.448 4.848 5.228 5.548 5.788 6.028
1957.913 5.888 5.708 5.598 5.508 5.478 5.328 5.068 4.738 4.408 4.028
1977.202 3.588 3.088 2.918 2.758 2.458 2.528 2.558 2.358 2.168 1.988
1996.492 1.938 2.058 2.038 1.968 1.938 1.898 1.938 1.878 1.868 1.8346
2015.782 1.7374 1.7192 1.7261 1.868 1.918 1.8608 1.7926 1.878 2.108 2.068
2035.072 1.988 2.048 2.188 2.248 2.318 2.498 2.498 2.498 2.628 2.588
2054.362 2.378 2.298 2.428 2.398 2.258 2.118 2.078 1.908 1.7702 1.6957
2073.651 1.6241 1.4915 1.4395 1.5168 1.5882 1.7418 1.6649 1.6084 1.7131 1.7719
2092.941 1.813 1.7431 1.7546 1.898 1.8067 1.5411 1.3733 1.4642 1.4346 1.4526
2112.231 1.6009 1.4911 1.3869 1.4118 1.5142 1.5402 1.5945 1.5824 1.6393 1.7646
2131.521 1.713 1.7489 1.791 1.918 1.958 1.8623 1.8006 1.7953 1.8532 1.8001
2150.810 1.878 1.8581 1.695 1.8276 1.948 1.888 1.7706 1.6913 1.7614 1.8512
2170.100 1.7603 1.5778 1.582 1.6808 1.7378 1.7381 1.6504 1.5706 1.471 1.3015
2189.390 1.2037 1.2481 1.3551 1.4064 1.3012 1.1202 1.164 1.3134 1.4239 1.3028
2208.680 1.1175 1.0821 1.0645 1.3309 1.3908 1.2813 1.2737 1.224 1.2655 1.1941
2227.970 1.1315 1.0974 1.205 1.4667 1.5232 1.4509 1.5485 1.5639 1.4088 1.4187
2247.259 1.483 1.715 1.7879 1.7641 1.8578 1.868 1.938 2.058 2.108 2.058
2266.549 2.048 2.068 2.008 2.118 2.238 2.228 2.318 2.358 2.278 2.238
2285.839 2.168 2.218 2.268 2.248 2.398 2.538 2.398 2.188 2.428 2.598
2305.129 2.528 2.578 2.688 2.848 3.018 2.888 2.588 2.618 2.828 2.778
2324.418 2.538 2.508 2.338 2.048 2.108 2.198 2.228 2.208 2.068 2.168
2343.708 2.048 1.888 2.038 2.128 1.928 1.6094 1.4867 1.4843 1.3689 1.3081
2362.998 1.4975 1.8588 1.908 1.5933 1.6034 1.5282 1.508 1.5904 1.5251 1.6003
2382.288 1.6147 1.6337 1.5215 1.4831 1.5241 1.3908 1.3467 1.4601 1.4572 1.3949
2401.578 1.5051 1.5781 1.5119 1.4612 1.5858 1.5516 1.5124 1.4876 1.3668 1.5656
2420.867 1.834 1.7459 1.7127 1.7214 1.7427 1.7983 1.7375 2.078 2.268 2.288
2440.157 2.378 2.528 2.988 3.098 3.058 3.018 2.988 3.058 3.158 3.188
2459.447 3.158 3.228 3.138 2.848 2.658 2.588 2.438 2.438 2.638 2.688
2478.737 2.668 2.808 2.688 2.468 2.358 2.248 2.198 2.228 2.138 2.058
2498.026 2.008 1.948 1.928 2.108 2.088 1.6654 1.5662 1.5123 1.5453 1.6633
2517.316 1.7246 1.5146 1.3104 1.4604 1.6284 1.878 2.028 1.938 1.7699 2.018
2536.606 2.208 2.088 2.198 2.238 2.048 1.998 1.998 1.968 2.048 2.278
2555.896 2.418 2.298 2.228 2.148 2.348 2.468 2.248 2.448 2.708 2.548
2575.186 2.508 2.558 2.498 2.528 2.558 2.738 2.748 2.758 2.688 2.438
2594.475 2.578 2.648 2.448 2.278 1.998 1.7331 1.6567 1.888 1.968 1.7843
2613.765 1.8005 1.7731 1.7179 1.6648 1.5919 1.4017 1.3818 1.524 1.6167 1.6397
2633.055 1.5882 1.3742 1.1599 1.0354 1.036 1.0546 1.2023 1.3416 1.1563 1.2859
2652.345 1.2456 1.053 0.92083 0.91626 1.0194 0.8552 0.7715 0.8118 0.7826 0.7765
2671.634 0.91361 1.1289 1.2037 1.0051 0.8242 0.9523 1.0769 1.2109 1.4776 1.4074
2690.924 1.3582 1.3286 1.2365 1.1195 1.101 1.3986 1.4058 1.3661 1.3402 1.1063
2710.214 1.0643 1.0995 0.94067 1.0413 1.2065 1.2294 1.2587 1.0563 1.2071 1.253
2729.504 1.2218 1.3114 1.2597 1.3994 1.6329 1.5157 1.2904 1.3275 1.676 2.108
2748.794 2.188 2.188 2.048 1.918 1.998 1.928 1.7515 1.7887 1.918 1.7557
2768.083 1.6437 1.8025 1.6627 1.466 1.5014 1.5633 1.7017 1.8101 1.6739 1.4964
2787.373 1.6052 1.625 1.3837 1.4348 1.4404 1.3526 1.3732 1.227 1.1239 0.9963
2806.663 0.658 0.95513 1.1914 1.2067 1.0827 0.8065 0.9 0.95214 0.9786 0.8579
2825.953 0.7701 0.85955 0.7981 0.71 0.9417 1.0505 1.0585 0.9717 0.9749 1.2408
2845.242 1.1745 1.2574 1.5389 1.5385 1.6586 1.868 2.078 2.178 1.878 1.7778
2864.532 1.878 1.948 2.168 2.248 2.108 2.048 2.088 2.048 2.068 2.158
2883.822 2.058 1.978 2.208 2.298 2.208 2.198 2.118 1.938 1.868 1.7166
2903.112 1.4114 1.2956 1.241 1.5023 1.8055 1.595 1.5436 1.5509 1.7194 1.7546
2922.401 1.5147 1.403 1.4495 1.5797 1.8333 1.731 1.5903 1.968 1.948 1.7705
2941.691 1.7133 1.6568 1.4421 1.1806 1.397 1.8153 1.5077 1.0795 0.88779 0.9739
2960.981 1.3384 1.2778 1.2615 1.5334 1.637 1.6762 1.928 1.978 1.6672 1.4901
2980.271 1.6525 1.679 1.5925 1.8002 1.958 1.8679 1.6763 1.8187 2.028 2.058
2999.561 2.118 2.338 2.618 2.958 3.338 3.328 3.558 4.178 4.498 5.188
3018.850 6.388 7.538 8.558 9.858 11.358 12.928 14.548 15.908 17.588 18.568
3038.140 18.728 19.378 19.498 18.858 18.478 18.438 18.478 19.078 19.868 21.108
3057.430 23.448 25.908 28.578 31.558 35.548 40.468 44.848 48.048 49.198 48.648
3076.720 47.578 45.808 42.888 39.828 37.898 36.588 35.108 33.238 31.008 27.968
3096.009 24.948 22.248 19.698 17.828 15.698 13.678 12.188 10.718 9.488 7.998
3115.299 6.398 5.218 4.468 3.678 3.378 3.038 2.358 2.778 2.838 2.498
3134.589 2.598 2.608 2.268 1.847 1.7853 1.7699 1.5688 1.7918 2.038 2.128
3153.879 2.478 2.648 2.558 2.528 2.388 2.038 2.348 2.428 1.7752 1.3237
3173.169 1.1959 1.368 1.285 1.1888 1.2477 1.1595 1.0786 1.2488 1.2807 0.8121
3192.458 0.88228 0.95233 0.7706 0.693 0.604 0.72 0.92715 0.91344 0.553 0.647
3211.748 1.0059 0.89803 0.656 0.533 0.622 0.874967 0.7985 0.725 0.9981 1.0912
3231.038 1.0494 0.86206 0.8095 0.89991 0.545 0.384 0.91869 1.3614 1.0202 0.657
3250.328 0.664 0.656 0.548 0.8218 1.2076 1.2184 0.9749 0.675 0.506 0.114
3269.617 0.123 0.743 1.064 1.0188 0.872956 0.94239 1.1227 1.0821 0.873931 0.688
3288.907 0.624 0.665 0.695 0.7973 1.2214 1.4469 1.3192 1.1813 1.2272 1.404
3308.197 1.3415 1.134 1.2222 1.2574 1.1175 0.96175 0.975 1.1131 1.5571 1.7172
3327.487 1.4599 1.6706 1.958 1.8232 1.7461 1.968 2.758 3.008 2.678 3.108
3346.777 3.228 3.368 3.488 3.638 3.918 4.188 4.578 4.658 4.498 4.518
3366.066 4.258 3.448 3.108 3.198 2.998 2.828 2.898 2.758 2.288 2.208
3385.356 2.288 1.8589 1.8672 2.008 1.898 1.7938 1.8222 2.068 1.6851 1.4094
3404.646 1.3012 1.031 1.3167 1.5846 1.4297 1.6208 1.6155 1.3371 1.111 0.8542
3423.936 0.709 0.94934 1.3246 1.0678 1.006 1.1004 1.0186 0.95146 1.2563 1.3363
3443.225 1.0601 0.521 0.603 1.0957 0.674 0.54 1.0247 1.1587 1.0584 1.143
3462.515 0.91776 0.695 0.75 0.93739 0.91056 0.499 0.454 0.646 0.416 0.571
3481.805 0.747 0.548 0.616 0.7929 1.1137 1.2048 1.0566 1.0578 1.1146 1.0027
3501.095 1.0098 1.0901 1.2741 1.3361 0.89788 0.631 0.877442 0.94393 0.639 0.7
3520.385 0.8246 0.543 0.183 0.404 0.709 0.738 0.65 0.9899 0.9777 0.387
3539.674 0.524 0.561 0.202 0.179 0.455 0.8257 1.2993 1.2206 1.0243 1.0775
3558.964 0.75 0.7709 0.548 0.221 0.603 0.8307 0.673 0.8011 1 0.766
3578.254 0.525 0.514 0.434 0.515 1.0151 1.0734 0.479 0 0.34 0.8265
3597.544 1.1192 0.9269 0.506 0.422 0.374 0.631 0.90101 0.657 0.517 0.8332
3616.833 1.2063 1.2275 0.742 0.442 1.0228 1.2939 0.91575 0.92301 1.1476 1.5174
3636.123 1.397 0.9825 0.743 0.7717 0.758 0.7894 1.0159 1.3588 1.464 1.2091
3655.413 1.3137 1.5484 1.8007 1.6469 1.2074 1.0442 1.0416 0.92009 1.0256 1.3408
3674.703 1.2128 1.1444 1.0478 0.8159 1.1617 1.3427 1.2446 1.1565 1.2927 1.381
3693.993 0.95014 0.93292 1.2221 1.2541 1.05 1.093 1.4444 1.7792 1.958 1.6235
3713.282 1.6607 1.4204 0.9869 1.0747 1.1247 1.1708 0.766 0.586 0.639 0.89458
3732.572 1.1027 0.87856 0.397 0.182 0.431 0.868362 1.0273 0.703 0.765 0.951
3751.862 0.91938 1.0983 1.1794 0.88515 0.91426 1.0585 1.1543 1.4221 1.1624 0.494
3771.152 0.599 1.2224 1.4192 1.0151 0.7848 0.653 0.59 0.754 0.478 0.256
3790.441 0.305 0.431 0.737 0.94355 0.873833 1.0593 1.1869 1.2778 1.1516 0.751
3809.731 0.9727 0.86611 0.8036 1.0421 0.8545 0.86683 0.9785 0.685 0.71 0.7976
3829.021 0.867958 1.1342 1.3322 1.3682 1.138 0.8414 0.56 0.448 0.512 0.495
3848.311 0.671 0.772 0.603 0.873969 0.762 0.582 0.91824 0.96679 1.1256 1.2591
3867.601 1.1225 1.0549 1.1266 1.2627 1.183 0.8564 0.9739 1.1874 0.8424 0.756
3886.890 1.1063 1.0087 0.95895 1.4154 1.3539 1.2681 1.4834 1.5929 1.391 1.4563
3906.180 1.5508 1.4777 1.2188 1.0005 1.4033 1.3871 1.3065 1.3734 1.1093 1.2763
3925.470 1.0749 0.8405 1.0069 0.95564 1.356 1.5107 1.3134 1.4469 1.3493 1.5399
3944.760 1.6768 1.5258 1.1153 1.1222 1.2398 0.8157 0.9846 1.2946 1.4925 1.4048
3964.049 1.0061 1.1208 1.2482 1.0251 0.576 0.677 1.0608 1.1009 1.1424 0.9691
3983.339 1.3017 1.4774 1.1965 0.8016 0.901 1.0749 0.868011 0.758 1.0098 0.9795
##END=
