##TITLE=Pentamethylbenzenesulphonamide
##JCAMP-DX=4.24
##DATA TYPE=INFRARED SPECTRUM
##ORIGIN=EPA-IR VAPOR PHASE LIBRARY
##OWNER=SRD/NIST
Collection (C) 2018 copyright by the U.S. Secretary of Commerce
on behalf of the United States of America. All rights reserved.
##CAS REGISTRY NO=208173-25-5
##MOLFORM=C 11 H 17 N O 2 S
##$NIST SOURCE=MSDC-IR
##STATE=gas
##XUNITS=1/CM
##YUNITS=ABSORBANCE
##XFACTOR=1.
##YFACTOR=0.001
##DELTAX=1.92898
##FIRSTX=549.8
##LASTX=4000.7
##FIRSTY=7.94
##MAXX=4000.7
##MINX=549.759
##MAXY=0.04874
##MINY=0
##NPOINTS=1790
##XYDATA=(X++(Y..Y))
549.759 7.94 7.87 8.04 9.14 8.99 9.38 10.48 9.75 9.11 9.32
569.049 11.1 11.43 9.8 10.05 10.27 10.8 12.4 13.72 15.83 17.91
588.339 19.03 20.99 23.99 26.63 28.13 29.22 29.58 29.87 29.73 28.95
607.628 27.96 26.06 23.83 21.44 18.92 17.18 15.53 14.15 13.5 12.94
626.918 11.78 10.64 9.94 9.16 8.81 8.76 8.64 8.17 7.66 7.41
646.208 7.06 6.8 6.68 6.8 6.79 7.04 6.78 6.33 6.4 6.26
665.498 6.39 6.46 6.58 6.6 6.44 6.52 6.61 6.48 6.17 5.6
684.787 5.83 6.25 5.74 5.55 5.53 5.64 6.16 5.91 5.79 5.95
704.077 5.69 5.34 5.28 5.69 5.82 5.59 5.51 6.16 7.08 7.25
723.367 6.82 7.03 8.09 8.85 9.51 10.81 10.96 10.52 10.54 9.88
742.657 9.23 8.32 7.38 7.48 7.47 6.61 5.75 5.81 6.68 6.96
761.947 6.83 6.74 6.43 6.34 6.41 7.28 7.32 6.77 6.7 6.87
781.236 7.48 7.56 7.28 7.3 7.8 8.07 7.81 7.85 7.94 8.69
800.526 9.53 9.61 10.02 11.2 12 12.47 13.79 14.2 15.88 18.91
819.816 18.9 17.37 18.41 19.43 19.94 20.89 20.7 20.2 20.04 19.37
839.106 18.36 17.46 16.31 15.27 13.61 11.96 10.79 9.72 9.29 8.73
858.395 7.4 6.32 6.07 6.11 5.57 5.23 5.2 4.85 4.31 4
877.685 4.16 4 3.59 3.68 3.63 3.63 4.06 3.63 3.29 3.31
896.975 3.22 3.41 3.48 3.01 2.46 2.91 3.09 2.21 2.66 3.62
916.265 3.48 3.2 3.3 3.76 4.07 4.2 4.1 4.21 4.59 4.59
935.555 4.69 4.75 4.17 4.14 4.31 4.22 4.11 3.37 3.03 3.54
954.844 3.87 3.96 3.61 3.44 3.51 3.02 3.34 3.98 3.64 3.18
974.134 3.01 2.86 2.66 2.73 2.6 2.71 2.96 3.2 3.57 3.27
993.424 3.15 2.98 2.87 3.51 4.07 4.23 4.24 3.99 4.05 4.44
1012.714 4.52 4.34 3.55 3.08 3.24 3.44 3.18 2.62 2.54 2.97
1032.003 3.42 3.85 4.17 4.06 4.85 4.09 3.4 4.39 4.18 3.54
1051.293 3.34 3.54 4.89 5.39 5.85 6.67 6.46 6.82 6.72 6.13
1070.583 5.9 6.02 6.82 6.44 4.18 3.24 3.11 2.54 2.43 2.09
1089.873 2.75 3.6 2.73 2.55 3.26 3.21 2.44 1.6174 1.94 1.5445
1109.163 1.82 2.87 1.463 2.55 3.95 4 3.75 3.28 2.72 2.01
1128.452 2.6 3.89 4.99 4.59 5.59 7.24 8.29 10.29 11.11 12.21
1147.742 15.37 19.02 24.76 30.97 36.68 41.91 45.54 48.41 48.74 45.22
1167.032 40.8 35.75 29.26 23.22 18.23 14.45 10.68 7.82 7.35 6.58
1186.322 4.44 4.22 5.81 6.09 5.74 3.87 2.95 4.07 5.3 6.15
1205.611 5.33 6.7 9.16 10.68 12.22 12.45 11.53 10.81 10.76 10.57
1224.901 10.64 8.71 7.57 5.95 4.8 5.15 4.25 4.58 4.72 4.22
1244.191 3.92 3.89 4.03 4.34 4.98 4.88 4.06 4.3 4.49 3.21
1263.481 2.64 2.91 3.4 3.49 3.26 3.81 3.95 3.58 3.51 4
1282.771 3.87 3.27 3.1 3.06 3.21 3.26 3.11 3.29 3.58 3.74
1302.060 4.02 4.12 3.94 3.93 4.04 4.15 4.31 4.44 4.61 5.03
1321.350 5.6 6.11 6.49 7.16 7.98 8.79 10.15 11.55 13.18 15.17
1340.640 17.09 19.68 23.03 26.75 30.95 35.45 39.66 43.15 45.53 46.29
1359.930 45.4 42.97 39.21 34.48 29.46 25.04 21.43 18.46 16.13 14.5
1379.219 13.2 12.36 11.96 11.22 10.63 10.57 10.86 11.39 12.18 13.32
1398.509 14.52 15.72 16.84 17.79 18.24 18.23 17.88 17.21 16.26 14.98
1417.799 13.84 13 12 11.04 10.35 9.97 9.79 9.5 9.4 9.25
1437.089 8.75 8.72 8.98 9.07 9.03 8.95 9.24 9.39 9.11 8.91
1456.378 8.87 8.86 8.92 8.87 8.67 8.34 7.95 7.86 7.76 7.67
1475.668 7.45 7 6.86 6.65 6.38 6.41 6.23 5.84 5.79 5.98
1494.958 5.8 5.38 5.39 5.44 5.34 5.34 5.2 5.29 5.55 5.65
1514.248 5.41 5.17 5.64 6.01 6.06 6.02 6.01 6.46 6.69 6.97
1533.538 7.82 8.4 8.92 9.53 10.13 10.69 11.34 11.94 12.32 12.44
1552.827 12.1 11.73 11.1 10.31 9.88 9.01 7.74 6.87 6.38 6.06
1572.117 5.56 4.91 4.19 3.79 3.79 3.77 3.63 3.36 3.28 3.35
1591.407 3.29 3.11 2.78 2.52 2.43 2.42 2.37 2.49 2.52 2.06
1610.697 2.16 2.47 2.29 2.03 2.14 2.27 2 2.21 2.22 2.01
1629.986 1.98 1.714 1.6454 1.7932 1.88 1.99 1.8029 1.6547 1.6772 1.4206
1649.276 1.6939 1.7422 1.4106 1.5262 1.6101 1.4158 1.4953 1.84 1.7786 1.5048
1668.566 1.2276 1.3846 1.6018 1.4025 1.1791 1.1922 1.2479 1.2205 1.2828 1.2504
1687.856 1.3957 1.3873 1.1662 1.1967 1.3111 1.1948 1.0086 1.1412 1.1189 1.1457
1707.146 1.3533 1.3134 1.0441 1.0268 1.0438 1.0062 1.0418 1.2272 1.1841 1.0602
1726.435 1.1811 1.1407 1.192 1.198 1.2471 1.1579 0.9872 1.0895 1.2511 1.1195
1745.725 0.84082 0.993 1.1063 1.0449 1.1887 1.263 1.2876 1.3409 1.2701 1.3098
1765.015 1.4913 1.4533 1.401 1.4414 1.2923 1.2557 1.2667 1.1825 1.3107 1.3601
1784.305 1.1187 0.90981 0.9899 1.0212 0.9095 1.0279 1.0886 1.1241 1.0378 1.0198
1803.594 1.1161 1.0362 0.986 0.87234 0.89782 1.0397 1.0271 1.0468 1.0509 1.0695
1822.884 1.1675 1.0787 1.0715 1.0692 0.91187 0.89931 1.1842 1.3565 1.316 1.2142
1842.174 1.2122 1.2521 1.035 1.0524 1.3208 1.4082 1.3368 1.2194 1.0691 1.0511
1861.464 1.0133 1.0021 1.1522 1.2286 1.328 1.2516 1.0748 0.997 1.1005 1.1839
1880.754 0.9636 0.9381 0.9222 0.9927 0.9771 0.84944 1.0489 1.1825 1.0141 0.938
1900.043 1.0346 0.9317 0.9963 1.1971 1.1835 1.0049 1.0132 0.9992 0.90627 0.90726
1919.333 1.0017 1.1932 1.0957 0.9728 1.0954 1.1287 1.183 1.1217 1.1039 1.3173
1938.623 1.26 1.2379 1.2181 1.1773 1.0351 1.1045 1.2572 1.1222 1.1893 1.2353
1957.913 1.261 1.2312 1.2144 1.2167 1.2807 1.2752 1.0526 1.1229 1.3345 1.2601
1977.202 1.1912 1.2071 1.0869 1.1932 1.3783 1.2165 1.0902 0.9082 1.0249 1.3097
1996.492 1.188 1.3436 1.3405 1.1856 1.2436 1.2614 1.0891 1.0257 1.1626 1.2824
2015.782 1.3224 1.1425 1.0052 1.0183 1.1654 1.2125 1.14 1.0691 1.1786 1.2681
2035.072 1.2113 1.1194 0.9943 1.0711 1.2345 1.159 1.2719 1.3528 1.1614 1.1701
2054.362 1.0648 1.1566 1.191 1.1853 1.3989 1.3177 1.2279 1.2819 1.3776 1.3161
2073.651 1.275 1.4124 1.2609 1.032 1.1025 1.233 1.285 1.2149 1.2531 1.331
2092.941 1.3371 1.1473 1.0783 1.2242 1.2091 1.2275 1.3173 1.4363 1.2713 1.2387
2112.231 1.4443 1.3008 1.3179 1.4582 1.5136 1.4018 1.2642 1.1521 1.1478 1.4144
2131.521 1.4406 1.3054 1.3692 1.3759 1.1721 1.252 1.2672 1.1284 0.9855 1.0804
2150.810 1.3099 1.2083 1.2524 1.3355 1.3491 1.2381 1.2247 1.6368 1.5506 1.3393
2170.100 1.4567 1.3297 1.0711 1.0174 1.1323 1.1294 1.1081 1.1746 1.1939 1.1413
2189.390 1.0093 0.9908 1.2458 1.2359 1.0932 1.0708 1.1956 1.3794 1.351 1.4011
2208.680 1.2283 1.0916 1.2161 1.2947 1.4005 1.3501 1.2566 1.1142 1.2547 1.5031
2227.970 1.3456 1.2183 1.3975 1.5275 1.4982 1.5149 1.5608 1.2608 0.996 1.2801
2247.259 1.3678 1.1834 1.1009 1.0246 1.1227 1.3317 1.3805 1.1502 1.0344 1.0452
2266.549 0.9899 1.0059 0.9349 1.1376 1.1044 0.9662 1.1848 1.1499 0.9949 0.9909
2285.839 1.2835 1.3938 1.3073 1.5199 1.5508 1.4115 1.4996 1.5091 1.3407 1.2811
2305.129 1.3071 1.3745 1.4536 1.4425 1.3405 1.1652 1.3089 1.3188 1.1827 1.1408
2324.418 1.08 0.9546 1.04 1.1137 0.87818 1.0955 1.3195 1.4841 1.3143 1.2702
2343.708 1.388 1.1816 1.2817 1.3329 1.2109 1.2817 1.3869 1.5112 1.5284 1.4366
2362.998 1.3091 1.0701 1.2521 1.47 1.3855 1.295 1.3015 1.4692 1.4807 1.4126
2382.288 1.428 1.3111 1.2715 1.231 1.3611 1.414 1.2354 1.2171 1.3155 1.3459
2401.578 1.2169 1.3105 1.5249 1.5876 1.5412 1.4515 1.5079 1.6896 1.7749 1.693
2420.867 1.7343 1.5958 1.3193 1.4213 1.3554 1.428 1.5448 1.3998 1.2936 1.3573
2440.157 1.3051 1.4243 1.7158 1.6295 1.7396 1.6774 1.4543 1.4535 1.6242 1.5113
2459.447 1.2832 1.4252 1.5887 1.5035 1.3534 1.4227 1.7932 1.98 1.5975 1.6488
2478.737 1.7572 1.4018 1.2757 1.1907 1.3334 1.531 1.4614 1.47 1.7052 1.9
2498.026 1.7745 1.563 1.6108 1.6661 1.463 1.244 1.0529 1.4565 1.82 1.6942
2517.316 1.4234 1.0453 1.1016 1.3937 1.441 1.2217 1.1518 1.4347 1.6382 1.6378
2536.606 1.6746 1.5701 1.4936 1.4281 1.4298 1.4557 1.3633 1.4532 1.4737 1.2902
2555.896 1.143 1.3449 1.5516 1.4173 1.1742 1.2806 1.4031 1.3245 1.7144 1.6154
2575.186 1.2768 1.5511 1.6263 1.6383 1.7228 1.89 1.7463 1.4296 1.3683 1.4131
2594.475 1.3741 1.3244 1.3754 1.7 1.93 1.7368 1.5558 1.4659 1.4418 1.2978
2613.765 1.3791 1.487 1.3805 1.5595 1.6474 1.3582 1.3106 1.4421 1.5938 1.5202
2633.055 1.5473 1.6607 1.5288 1.5239 1.4177 1.39 1.4924 1.4415 1.3573 1.6377
2652.345 1.7284 1.612 1.4917 1.4038 1.3495 1.4603 1.92 2.03 1.7689 1.5849
2671.634 1.379 1.1083 0.9895 1.1637 1.3841 1.4942 1.4014 1.3413 1.4107 1.3467
2690.924 1.2981 1.2084 1.2875 1.5153 1.6238 1.6738 1.5432 1.1412 1.3246 1.371
2710.214 1.3557 1.5736 1.3842 1.4477 1.3988 1.2523 1.2547 1.3074 1.7683 1.769
2729.504 1.85 1.7793 1.6019 2.07 2 1.7635 1.9 2.3 2.29 1.96
2748.794 1.7403 1.7054 1.89 1.9 1.6155 1.644 2.08 2.37 2.48 2.49
2768.083 2.11 1.9 2.14 1.93 1.7935 1.9 1.7865 2.01 2.41 2.2
2787.373 2.06 1.94 1.7985 1.95 2.25 2.06 1.6119 1.86 2.09 2.09
2806.663 1.89 1.88 2.15 2.34 2.57 2.43 2.17 2.41 2.34 2.15
2825.953 2.31 2.19 2.33 2.35 2.26 2.5 2.4 2.54 2.85 3
2845.242 3.03 3.35 3.72 3.74 3.81 3.87 4.07 4.57 5.04 4.99
2864.532 5.37 6.07 6.69 7.03 7.07 7.55 8.11 8.59 8.95 9.24
2883.822 9.58 9.69 9.73 9.73 9.56 9.53 9.59 9.85 9.94 10.1
2903.112 10.13 10.25 10.67 10.79 10.73 10.89 11.44 11.94 12.52 12.99
2922.401 12.98 13.62 14.29 14.68 15.51 15.28 15.42 16.33 16.59 16.65
2941.691 16.98 17.02 17.24 17.39 16.84 16.03 15.5 15.01 14.51 14.48
2960.981 13.79 13.01 12.98 12.96 12.72 12.2 11.47 11.3 11.21 10.98
2980.271 10.64 10.47 10.3 10.08 9.9 9.37 9.29 9.11 9 8.7
2999.561 8.61 8.78 8.52 8.59 8.16 7.94 8.01 7.99 8.06 7.75
3018.850 7.71 7.6 7.21 7.11 7.13 7.13 7.15 6.93 6.91 6.45
3038.140 5.86 5.91 5.9 5.43 5.2 5.45 5.42 5.65 5.42 4.87
3057.430 5 4.85 4.41 4.21 4.2 4.29 4.22 4.21 3.8 3.64
3076.720 3.71 3.46 3.8 3.96 4.21 3.98 3.5 3.44 3.15 3.12
3096.009 3.29 3.51 2.91 1.91 2.45 3.21 2.76 2.23 2.2 2.39
3115.299 2.2 2.33 2.69 2.52 2.44 2.51 2.41 2.05 1.6195 1.5594
3134.589 1.97 2.25 2.49 2.48 2.08 2.14 2.09 1.87 1.7245 1.1919
3153.879 1.6053 1.91 1.6642 1.778 1.95 1.5037 1.3421 1.3211 1.724 2.22
3173.169 1.5225 1.3986 1.5316 1.4995 1.6272 2.04 1.7778 1.6408 1.82 1.5843
3192.458 2.09 2.34 1.93 1.6442 1.3895 1.5712 1.5654 1.4666 1.4668 1.2792
3211.748 1.2458 1.6415 2.28 1.96 1.7402 1.7802 1.6234 1.7075 1.5671 1.7278
3231.038 1.6238 1.3034 1.2374 1.3333 1.6944 1.3113 1.2093 1.7844 1.84 1.161
3250.328 0.826685 1.0026 0.87391 1.3298 1.589 1.3091 1.5533 1.83 1.89 1.82
3269.617 1.7497 1.626 1.3402 1.0093 1.1418 1.6114 1.95 1.94 1.664 1.97
3288.907 1.7917 1.6134 2.01 2.09 1.7637 1.5068 1.5957 1.6539 1.5102 1.287
3308.197 1.1133 1.117 1.5907 2.27 2.62 2.35 2.39 2.5 2.32 2.74
3327.487 2.79 2.84 2.85 2.86 3.14 2.96 2.88 2.98 3.38 4.08
3346.777 4.88 4.93 5 5.78 6.13 6.31 6.51 6.47 6.73 7
3366.066 6.57 6.34 5.86 5.3 5.44 5.44 5.07 4.19 3.41 3.24
3385.356 3.26 2.83 2.26 2.09 1.89 1.93 1.6917 1.5095 1.7921 1.5843
3404.646 1.6113 1.96 1.96 1.7069 1.652 2.04 2.29 2.07 2.47 2.58
3423.936 2.4 2.62 2.5 2.59 2.45 2.19 2.77 3.2 3.27 3.44
3443.225 3.72 3.65 3.2 3.43 3.66 3.55 3.71 3.65 3.79 4.27
3462.515 4.29 4.26 4.44 4.06 3.82 3.64 3.53 3.59 3.78 3.86
3481.805 3.63 3.61 2.77 1.86 2.13 2.58 2.48 2.67 3.07 2.75
3501.095 2.39 2.24 1.89 1.301 1.3555 1.6674 1.86 1.99 1.4505 1.4544
3520.385 1.8076 1.6133 1.6426 1.86 1.2751 0.9838 0.981 1.1901 1.5521 1.323
3539.674 0.9892 1.2536 1.6106 1.4168 1.2328 1.362 1.0521 0.664 1.0335 1.184
3558.964 1.1352 1.2014 1.4226 1.85 2.02 1.7833 1.7495 1.87 1.83 1.85
3578.254 1.6906 1.0991 1.1061 1.7119 1.88 1.4465 0.9422 1.3928 1.6734 1.0574
3597.544 1.1083 1.3227 0.7781 1.0821 1.6091 1.2824 1.0688 1.0604 1.0004 0.9332
3616.833 1.2494 1.7199 1.1778 0.89037 1.1108 1.3884 1.4467 0.9997 0.7927 0.59
3636.123 0.828411 1.2713 0.9399 0.81473 1.3532 1.4952 1.3676 1.4564 1.696 1.7185
3655.413 1.5545 1.2432 1.3854 1.442 1.4225 1.1426 0.375 1.0005 1.95 1.5982
3674.703 0.592 0.667 1.469 1.413 1.2852 0.9461 0.81136 1.1631 1.0387 0.84887
3693.993 1.1645 1.2728 0.669 0.301 0.819656 1.3486 1.547 1.5658 1.5805 1.4875
3713.282 1.4519 1.7954 1.7529 1.3497 1.4235 1.4411 1.042 1.1119 1.8145 1.86
3732.572 1.7083 1.6451 1.1518 0.9472 0.683 0.7729 0.496 0.404 0.7343 0.661
3751.862 1.1115 1.3274 0.9976 0.521 0.574 1.1178 0.7637 0.596 1.099 1.2495
3771.152 1.195 1.2201 1.5336 1.7801 1.2838 1.1825 1.3481 1.328 1.269 1.3682
3790.441 1.6621 1.94 1.99 1.1977 1.394 1.6414 1.2385 1.2376 0.7988 0.9278
3809.731 0.9461 0.627 0.512 0.244 0.7555 0.88949 0.8215 1.0856 1.1993 1.3628
3829.021 1.199 1.0824 0.979 1.1324 1.5665 1.2369 0.67 0.83941 0.9965 1.1257
3848.311 1.1733 1.4333 1.439 1.1583 1.2042 1.0201 0.9278 1.0584 1.2287 0.85765
3867.601 0.7574 0.90405 1.5484 2.11 1.89 1.4226 0.7285 1.1946 1.6456 0.7645
3886.890 0.407 0.7348 1.1413 1.4187 1.229 0.9347 0.692 1.1066 1.1741 1.2064
3906.180 1.035 0.481 1.1451 1.687 1.5553 1.1658 1.328 1.5275 1.0088 1.0809
3925.470 1.5881 1.5704 1.4134 1.5 1.0826 0.84114 1.0868 1.182 1.5201 1.6333
3944.760 1.5621 1.6347 1.4525 1.1811 0.87328 0.635 1.1769 1.4503 0.9674 0.9785
3964.049 1.1657 1.0755 0.9379 0.644 0.437 0 0.598 1.3203 1.452 1.7045
3983.339 1.6042 1.6247 1.14 1.0358 1.3157 1.2661 0.90624 0.662 1.0189 1.0246
##END=
