##TITLE=4-Fluoro-3-(trifluoromethyl)acetophenone
##JCAMP-DX=4.24
##DATA TYPE=INFRARED SPECTRUM
##ORIGIN=EPA-IR VAPOR PHASE LIBRARY
##OWNER=SRD/NIST
Collection (C) 2018 copyright by the U.S. Secretary of Commerce
on behalf of the United States of America. All rights reserved.
##CAS REGISTRY NO=208173-24-4
##MOLFORM=C 9 H 6 F 4 O
##$NIST SOURCE=MSDC-IR
##STATE=gas
##XUNITS=1/CM
##YUNITS=ABSORBANCE
##XFACTOR=1.
##YFACTOR=0.001
##DELTAX=1.92898
##FIRSTX=549.8
##LASTX=4000.7
##FIRSTY=14.52
##MAXX=4000.7
##MINX=549.759
##MAXY=0.2995
##MINY=0
##NPOINTS=1790
##XYDATA=(X++(Y..Y))
549.759 14.52 15.15 17.96 20.91 22.36 23.99 25.94 28.24 31.37 33.91
569.049 33.64 31.95 29.32 25.77 21.46 17.41 14.9 13.16 11.25 9.61
588.339 9.26 9.87 10.71 10.5 10.7 10.85 10.58 11.08 11.51 10.44
607.628 8.8 8.34 7.44 6.86 7 6.75 5.65 4.31 4.22 3.89
626.918 3.25 2.5688 2.96 3.88 4.13 4.24 4.61 6.1 8.07 9.82
646.208 11.74 15.1 19.1 20.6 20.9 20.91 19.6 17.58 14.45 10.76
665.498 7.55 5.32 4.36 3.42 2.71 2.75 3.03 2.96 3.24 3.97
684.787 3.99 3.79 4.25 5.38 7.69 10.73 13.42 16.32 18.32 18.35
704.077 17.76 16.92 14.84 11.28 8.29 6.77 5.16 4.19 3.72 3.27
723.367 3.4 3 2.4815 2.4272 2.81 3.24 2.4174 2.1789 2.4529 2.1185
742.657 2.0792 2.69 3.01 2.6694 2.3766 2.79 2.95 2.94 3.83 4.48
761.947 5.12 5.97 6.82 7.49 7.6 7.46 7.11 6.07 5.31 4.21
781.236 3.12 3.18 2.93 2.669 2.77 2.71 2.3971 3.09 3.1 2.3623
800.526 2.3491 2.73 3.2 3.19 3.64 4.57 5.73 6.96 8.87 11.23
819.816 13.77 16.82 19.73 23.5 26.58 27.05 27.4 27.79 27.82 27.52
839.106 26.68 23.88 19.75 15.69 12.95 11.98 10.9 9.11 8 7.93
858.395 7.89 8.5 9.01 9.03 8.61 7.98 7.3 6.42 5.56 4.84
877.685 4.45 4.29 4.2 3.76 3.76 4.37 5.26 6.47 7.18 8.56
896.975 10.11 11.18 12.72 12.88 11.86 11.31 10.39 9.46 9.05 9.16
916.265 9.51 8.71 8.34 8.9 8.78 8.29 8.11 7.84 7.22 7.24
935.555 7.21 6.94 6.66 7.09 7.72 8.54 10.23 11.63 12.57 12.96
954.844 13.31 14.13 14.04 13.26 13.09 12.16 10.53 9.2 8.2 7.79
974.134 6.91 5.29 4.86 5.02 4.54 4.48 4.39 4.1 4.01 3.7
993.424 3.96 3.64 2.91 3.58 4.1 3.87 4.1 4.49 4.37 4.69
1012.714 4.92 3.67 3.62 4.77 4.86 5.02 5.45 5.68 6.23 5.83
1032.003 5.16 6.21 7.13 8.95 12.23 15.09 18.08 22.23 27.97 35.13
1051.293 43.86 51.88 56.93 58.66 60.6 60.71 56.66 50.82 42.24 34.14
1070.583 28.97 26.65 25.12 24 24.19 24.1 22.58 20.9 21.35 19.97
1089.873 18 17.52 15.28 12.67 12.21 13.37 13.65 13.51 14.06 14
1109.163 13.8 14.46 19.19 26.2 33.84 43.97 54.29 62.47 70.32 78.82
1128.452 85.63 89.72 90.01 87.45 84.51 83.68 85.15 88.96 95.08 104.01
1147.742 115.03 128.02 143.88 157.38 171.83 188.84 205.91 223.47 239.57 250.52
1167.032 252.66 244.63 226.74 202.37 173.21 144.74 120.63 102.64 88.6 76.85
1186.322 68.93 62.36 55.86 50.57 46.39 42.33 40.64 39.01 37.45 36.67
1205.611 36.9 37.02 39.33 44.52 48.58 52.67 57.38 64.76 74.58 86.22
1224.901 105.33 131.58 158.92 191.29 226.62 255.79 276.46 291.19 298.48 299.5
1244.191 293.29 278.4 262.51 252.43 244.95 232.36 213.01 187.79 161.09 139.83
1263.481 125.26 115.31 109.19 105.39 101.4 97.07 90.98 81.87 71.21 61.22
1282.771 53.47 48.07 45.14 44.16 43.73 42.8 41.87 41.57 41.43 41.61
1302.060 42.72 44.81 47.36 51.27 57.66 65.95 75.68 87.16 99.29 110.09
1321.350 118.1 123.12 124.47 121.76 114.15 101.72 87.51 73.69 61.12 50.4
1340.640 41.86 35.62 31.69 29.91 30.52 33.4 37.83 43.88 50.38 56.44
1359.930 61.55 64.6 65.15 63.39 59.58 54.14 47.62 40.57 33.92 28.39
1379.219 23.85 20.39 18.02 16.41 15.49 14.86 14.55 14.71 15.06 15.86
1398.509 16.78 17.87 19.66 22.07 25.67 30.33 35.73 41.79 47.43 51.96
1417.799 54.82 55.6 54.03 50.53 44.94 38.45 32.23 27.41 23.86 21.07
1437.089 19.12 17.59 16.3 14.93 13.75 12.92 11.88 10.88 10.11 9.72
1456.378 9.48 9.21 9.22 9.44 9.57 9.77 10.24 10.95 11.95 13.13
1475.668 13.93 14.7 15.88 17.25 18.99 21.35 24.43 28.3 33.17 38.99
1494.958 45.93 53.12 59.03 62.84 63.73 61.97 57.58 50.99 42.71 33.55
1514.248 25.39 19.47 15.34 12.44 10.31 8.98 8.21 7.89 7.81 7.69
1533.538 7.56 7.34 7.6 7.85 8.02 8.31 8.28 8.43 8.76 8.98
1552.827 9.34 10.09 10.56 11.03 11.48 11.48 11.96 12.99 14.53 15.93
1572.117 17.05 18.73 20.56 22.44 25.07 27.98 31.12 34.99 39 42.97
1591.407 46.44 49.35 51.92 53.78 55.29 56.85 57.79 59.17 61.56 63.96
1610.697 66.33 67.99 68.14 66.26 62.97 58.61 52.72 46.31 40.34 35.04
1629.986 30.77 27.47 24.87 22.53 20.27 18.14 15.91 14.12 12.88 11.67
1649.276 10.45 10.01 9.93 9.78 9.59 9.56 10.02 10.78 11.55 12.4
1668.566 13.37 13.86 13.81 13.81 13.49 13.22 13.34 13.21 13.63 14.67
1687.856 16.04 18.25 21.91 27.28 35.66 47.25 62.87 83.79 103.69 121.68
1707.146 133.19 138.09 136.74 129.45 114.25 92.65 69.45 51.11 37.62 28.59
1726.435 22.75 18.9 16.24 14.35 13.12 12.3 12.02 11.86 11.67 11.64
1745.725 11.89 12.1 11.86 11.64 11.12 10.05 8.94 7.97 6.92 6.23
1765.015 5.7 5.21 4.9 4.78 4.54 4.14 4.06 4.08 4.12 4.02
1784.305 3.78 3.73 3.91 4.05 4.11 4.3 4.36 4.3 4.45 4.55
1803.594 4.25 3.95 3.87 3.79 3.46 3.37 3.42 3.39 3.24 3.03
1822.884 2.85 2.76 2.77 2.6545 2.73 2.76 2.81 2.86 2.6513 2.5098
1842.174 2.5677 2.75 2.76 2.4395 2.3957 2.5656 2.3717 2.1577 2.3797 2.6176
1861.464 2.516 2.5354 2.68 2.83 2.86 2.71 2.84 2.9 2.88 2.92
1880.754 2.79 2.75 2.6024 2.5542 2.5343 2.3784 2.4957 2.67 2.74 3.06
1900.043 3.25 3.19 3.11 3.02 3.03 2.85 2.75 2.95 2.85 2.76
1919.333 2.97 3.12 3.26 3.1 3.01 3.34 3.55 3.45 3.24 3.16
1938.623 3.21 3.1 2.79 2.6658 2.6515 2.4967 2.3116 2.2676 2.1463 2.0004
1957.913 1.7909 1.6347 1.66162 1.6066 1.576 1.72806 1.9742 1.8037 1.599 1.532
1977.202 1.456 1.424 1.438 1.6523 1.6509 1.47 1.6659 1.75077 1.6277 1.71768
1996.492 1.73012 1.74143 1.73463 1.72383 1.87 2.0296 1.9831 2.0638 2.1629 2.0436
2015.782 1.9552 1.934 2.1338 2.2089 2.0671 2.1065 2.1721 2.0934 2.1781 2.117
2035.072 2.016 2.1877 2.2785 2.313 2.1862 2.133 2.0619 2.0185 2.1036 2.0055
2054.362 1.7856 1.6612 1.66402 1.6414 1.69519 1.7962 1.9368 1.9413 1.869 1.8259
2073.651 1.7868 1.76477 1.7001 1.6457 1.705 1.6574 1.6141 1.69561 1.5825 1.509
2092.941 1.68067 1.8304 1.68171 1.69702 1.8114 1.66247 1.6435 1.75536 1.8234 1.8813
2112.231 1.8275 2.0799 2.2593 1.9134 1.9583 1.9293 1.5772 1.611 1.9107 2.062
2131.521 2.1721 2.1918 1.8995 1.7989 1.7721 1.67454 1.52 1.469 1.648 1.766
2150.810 1.552 1.283 1.429 1.484 1.529 1.566 1.381 1.285 1.459 1.601
2170.100 1.73209 1.805 1.792 1.66335 1.512 1.5895 1.68051 1.7915 1.898 1.9311
2189.390 1.9703 1.8917 1.772 1.72759 1.8896 2.0215 1.9613 1.8849 1.9556 1.8584
2208.680 1.5874 1.7243 2.0027 2.1031 1.9485 1.7944 1.8738 2.0988 2.0481 2.0265
2227.970 2.1103 2.0235 1.8593 1.9482 1.9493 1.882 1.76421 1.6244 1.70708 1.8925
2247.259 2.032 1.72442 1.6447 1.69297 1.72657 1.76508 1.8569 1.9573 1.971 2.0376
2266.549 2.105 2.1025 2.1391 2.058 1.76034 1.68281 1.7363 1.8056 2.1282 2.1482
2285.839 2.1306 2.1795 2.065 2.0469 1.71806 1.568 1.778 1.8123 2.1097 2.1815
2305.129 1.8953 1.8144 1.9204 2.187 2.3357 2.3512 2.4744 2.73 2.89 2.84
2324.418 2.68 2.5841 2.4305 2.4511 2.5796 2.4514 2.5389 2.5306 2.3938 2.4356
2343.708 2.2684 2.1052 2.0138 2.4024 2.5126 2.0786 2.2586 2.609 2.2463 1.74598
2362.998 1.8595 2.1479 2.0953 2.2038 2.2763 1.9288 1.8745 2.0656 2.0232 2.0417
2382.288 1.9743 2.0889 2.206 2.0362 1.8854 1.624 1.8209 1.7715 1.634 1.74848
2401.578 1.6117 1.5992 1.5919 1.535 1.381 1.247 1.217 1.309 1.508 1.6562
2420.867 1.74119 1.443 1.415 1.563 1.74576 1.9268 1.555 1.328 1.337 1.376
2440.157 1.5868 1.8352 1.9055 1.72694 1.821 2.0165 1.5942 1.238 1.522 1.855
2459.447 1.72421 1.7859 2.0906 1.8776 1.643 1.8058 2.1067 2.1827 2.0031 1.9053
2478.737 1.7396 1.7913 2.0587 2.0353 1.9645 2.0657 2.0252 2.0151 1.9971 2.073
2498.026 2.2558 2.3258 2.2183 2.0103 2.076 2.0303 2.1061 2.2501 2.0929 2.0305
2517.316 1.7844 1.7906 1.9361 1.9702 2.1542 2.1151 2.0098 2.1987 2.3462 1.8924
2536.606 1.545 1.431 1.6153 1.9703 1.9094 1.907 1.7982 1.336 1.519 1.8074
2555.896 1.8479 1.69325 1.439 1.466 1.292 1.505 1.67139 1.5796 1.537 1.553
2575.186 1.7921 1.557 1.395 1.515 1.6379 1.70762 1.71191 1.5739 1.343 1.448
2594.475 1.6593 1.7796 1.8068 1.534 1.754 2.1722 1.6137 1.169 1.479 1.838
2613.765 1.9461 1.8336 1.504 1.5 1.509 1.412 1.207 1.2 1.481 1.70888
2633.055 1.6203 1.474 1.241 1.23 1.394 1.277 1.266 1.233 1.25 1.285
2652.345 1.5853 1.6003 1.606 1.8187 1.74012 1.352 1.273 1.495 1.6119 1.553
2671.634 1.356 1.529 1.465 1.336 1.28 0.944 1.058 1.407 1.35 1.472
2690.924 1.9087 1.5959 1.13 1.171 1.352 1.435 1.254 1.066 1.07 1.125
2710.214 0.917 1.089 1.55 1.42 1.19 1.177 1.198 1.254 1.373 1.414
2729.504 1.187 1.316 1.555 1.431 1.163 1.148 1.76472 2.0906 2.0735 1.8582
2748.794 1.276 1.344 1.67617 1.7816 1.8532 1.69329 1.5785 1.8182 1.554 1.397
2768.083 1.338 1.184 1.286 1.436 1.6144 1.497 1.17 0.909 0.866 0.957
2787.373 1.04 1.147 1.69413 1.829 1.526 1.319 1.188 1.242 1.245 0.855
2806.663 0.803 1.142 1.281 1.489 1.5954 1.215 1.218 1.70341 1.474 1.372
2825.953 1.233 1.047 1.499 1.5745 1.212 1.349 1.5764 1.5719 1.7801 1.71079
2845.242 1.70317 1.8555 1.8491 1.8747 2.0124 1.9274 1.395 1.132 1.095 1.113
2864.532 1.475 1.6355 1.328 1.172 1.125 1.066 1.431 1.482 1.034 1.156
2883.822 1.184 1.057 1.162 1.024 1.042 1.255 1.7833 1.925 1.68539 1.551
2903.112 1.69476 1.76092 1.618 1.495 1.66708 1.954 1.8715 2.3631 2.6446 2.71
2922.401 2.72 2.6105 2.4383 2.0697 2.6641 2.95 2.9 3.23 2.86 2.5353
2941.691 2.4187 2.77 3.02 2.87 2.77 2.6453 2.5828 2.5004 2.6325 2.7
2960.981 2.83 2.94 2.93 3.12 3.39 3.09 3.19 3.54 3.53 3.55
2980.271 3.43 3.41 3.42 3.16 2.82 2.95 3.17 3.32 3.44 3.27
2999.561 3.22 3.29 3.53 4.09 4.26 4.64 5.01 5.21 5.69 5.94
3018.850 5.56 5.29 5.18 4.68 4.3 4.05 3.69 3.07 2.98 2.93
3038.140 2.6283 2.6303 2.6176 2.68 2.4745 2.1983 2.488 2.5917 2.78 2.6365
3057.430 2.85 3.54 3.47 3.3 3.4 3.46 3.29 2.84 3.09 4
3076.720 4.23 4.43 5.08 5.07 5.17 5.24 4.74 4.33 4.1 3.97
3096.009 3.9 3.66 2.8 2.3469 2.2266 1.8905 1.8751 2.133 1.8715 1.71293
3115.299 1.9381 1.8044 1.69388 1.8881 1.8327 1.401 1.262 1.133 1.49 1.6274
3134.589 1.36 1.482 1.235 1.048 1.7068 2.0728 1.76392 1.361 1.129 1.339
3153.879 1.406 1.528 1.458 1.228 1.6142 1.8061 1.483 1.194 0.983 0.897
3173.169 1.237 1.5745 1.419 1.66739 1.474 1.321 1.66901 1.6506 1.208 1.409
3192.458 1.66145 1.314 1.58 1.7789 1.66786 1.609 1.538 1.214 1.183 1.6469
3211.748 1.569 1.301 1.202 0.887 1.142 1.446 1.411 1.336 1.38 1.461
3231.038 1.35 1.161 1.052 1.163 1.155 1.419 1.6046 1.256 1.029 0.903
3250.328 0.882 1.215 1.313 1.475 1.5825 0.933 0.951 1.127 0.6 0.52
3269.617 0.769 0.78 1.137 1.439 1.315 0.93 0.993 1.566 2.0747 1.9715
3288.907 1.443 1.326 1.028 1.127 1.68625 1.8142 1.389 1.047 1.064 1.793
3308.197 2.5762 2.0672 1.48 1.617 1.7952 1.8097 1.5793 1.303 1.099 1.374
3327.487 1.7834 1.284 1.33 2.1871 2.1567 1.772 1.464 1.447 1.519 1.6078
3346.777 1.514 1.5735 1.8216 1.355 1.045 1.262 1.485 1.6251 2.0525 1.411
3366.066 0.756 0.9 0.882 1.077 1.095 0.82 0.739 1.102 0.934 1.033
3385.356 2.1625 2.6147 2.4661 2.3355 2.5657 3.44 3.96 3.54 3.57 3.91
3404.646 3.07 2.5752 2.96 2.89 2.3174 2.3062 2.4784 2.0642 1.8553 2.1238
3423.936 2.0108 1.484 1.57 1.6166 1.154 1.401 1.567 1.205 1.123 1.518
3443.225 2.1608 2.1402 1.558 1.6298 1.47 0.842 1.128 1.183 1.07 1.397
3462.515 1.5954 1.5898 1.497 1.069 0.59 0.799 1.73716 1.8679 1.157 1.061
3481.805 1.238 0.992 0.703 0.57 0.739 1.224 0.907 0.66 0.822 0.917
3501.095 0.985 0.845 0.91 1.331 1.278 0.986 0.951 0.989 0.56 0.38
3520.385 0.906 0.99 0.956 0.711 0.852 1.164 0.739 0.869 0.954 0.59
3539.674 0.48 0.43 0.694 0.868 1.167 1.212 0.935 0.85 0.61 0.54
3558.964 1.167 1.431 1.199 1.396 1.32 1.22 1.08 0.817 0.65 0.684
3578.254 1.13 0.45 0.04 0.826 1.083 1.078 0.775 0.4 0.738 1.292
3597.544 1.302 1.327 1.303 1.266 1.398 1.42 1.66909 1.059 0.61 0.884
3616.833 1 1.478 1.5932 1.457 1.365 1.336 1.305 1.344 0.949 0.998
3636.123 1.67415 1.67841 1.104 0.873 0.914 0.933 1.052 0.902 1.058 1.253
3655.413 1.273 1.262 1.107 0.807 0.754 0.56 0.59 0.981 1.022 1.122
3674.703 1.175 1.125 0.691 0.25 0.57 0.63 0.806 1.561 1.67561 1.461
3693.993 1.284 1.093 1.376 1.6049 1.409 1.239 1.317 1.024 1.086 1.316
3713.282 0.899 0.962 1.149 1.71366 2.0673 1.6322 1.159 1.046 1.128 1.052
3732.572 0.99 1.013 1.334 1.217 0.997 1.292 1.378 1.058 0.832 1.39
3751.862 1.54 0.755 0.723 0.858 0.701 0.64 0.53 1.189 1.128 0
3771.152 0.08 0.56 0.827 0.948 0.979 0.706 0.712 1.261 1.34 1.337
3790.441 1.343 0.927 1.072 1.568 1.546 1.5786 1.69623 1.8912 1.7188 1.406
3809.731 1.505 1.425 1.221 1.439 1.405 1.091 0.965 0.55 1.006 2.0323
3829.021 1.8498 1.7889 1.8958 1.75782 1.27 0.697 1.102 1.537 1.491 1.5805
3848.311 1.6221 1.333 1.55 1.289 0.757 0.755 0.57 0.82 0.961 1.08
3867.601 1.254 1.386 1.302 1.272 1.7882 1.469 1.2 1.565 1.512 1.173
3886.890 0.66 0.66 0.89 0.3 0.34 0.779 0.952 0.9 0.57 0.49
3906.180 0.64 0.896 1.082 0.95 0.729 0.945 0.912 0.698 0.675 1.16
3925.470 0.815 1.229 2.0395 1.7991 2.1112 1.74997 1.472 1.5931 1.282 1.6037
3944.760 1.449 0.54 0.41 1.052 1.229 1.214 1.448 1.059 0.56 0.64
3964.049 1.015 1.537 2.059 1.5995 0.911 0.804 1.5839 2.0816 1.486 1.326
3983.339 1.082 0.817 0.854 0.912 1.048 0.89 0.898 0.947 1.177 1.334
##END=
