##TITLE=2,3,6-Trifluoroacetophenone
##JCAMP-DX=4.24
##DATA TYPE=INFRARED SPECTRUM
##ORIGIN=EPA-IR VAPOR PHASE LIBRARY
##OWNER=SRD/NIST
Collection (C) 2018 copyright by the U.S. Secretary of Commerce
on behalf of the United States of America. All rights reserved.
##CAS REGISTRY NO=208173-22-2
##MOLFORM=C 8 H 5 F 3 O
##$NIST SOURCE=MSDC-IR
##STATE=gas
##XUNITS=1/CM
##YUNITS=ABSORBANCE
##XFACTOR=1.
##YFACTOR=0.001
##DELTAX=1.92898
##FIRSTX=549.8
##LASTX=4000.7
##FIRSTY=11.953
##MAXX=4000.7
##MINX=549.759
##MAXY=0.419033
##MINY=0
##NPOINTS=1790
##XYDATA=(X++(Y..Y))
549.759 11.953 11.313 10.933 10.673 10.673 10.463 11.043 12.483 13.783 15.323
569.049 16.593 17.483 18.113 18.973 19.323 18.783 17.773 15.303 12.663 11.443
588.339 10.453 8.633 7.423 7.563 7.203 6.703 6.793 7.363 8.173 8.593
607.628 9.333 10.983 11.983 12.773 13.713 14.093 14.343 14.393 14.333 14.063
626.918 14.023 13.733 13.153 13.803 14.683 14.963 15.453 15.333 14.583 13.843
646.208 13.033 12.663 11.403 8.923 7.053 5.703 4.443 3.583 3.453 3.333
665.498 2.893 1.923 1.583 1.833 1.673 1.723 1.683 1.563 1.4055 1.3466
684.787 1.603 1.4991 1.4308 1.763 1.753 1.633 1.963 1.993 1.953 2.393
704.077 2.363 2.283 2.213 2.323 2.553 2.923 3.313 3.583 4.783 6.093
723.367 7.353 9.283 12.943 19.183 26.783 33.803 38.363 40.033 42.573 42.903
742.657 39.393 37.793 34.663 27.493 19.443 13.213 9.443 7.163 5.783 4.373
761.947 3.543 3.193 2.863 2.663 2.563 2.763 3.143 3.173 3.413 4.323
781.236 4.663 4.783 5.163 5.963 7.623 10.273 13.703 18.313 23.863 30.023
800.526 36.333 41.833 48.193 57.603 70.663 80.593 73.003 56.313 47.713 43.303
819.816 38.163 32.063 25.163 19.003 14.533 11.113 8.323 6.843 5.893 5.523
839.106 5.763 5.563 6.053 7.233 7.463 7.813 8.493 9.023 10.003 11.733
858.395 13.553 15.463 18.063 21.153 24.863 28.703 33.163 38.623 44.163 49.083
877.685 53.253 56.733 59.013 60.023 59.503 57.203 54.123 49.863 44.503 39.203
896.975 34.493 30.323 26.803 24.403 21.993 19.633 17.813 16.253 14.723 13.323
916.265 12.343 11.343 10.483 9.853 9.203 8.773 8.603 8.383 8.563 8.653
935.555 9.203 9.853 10.243 11.243 12.593 13.983 15.303 16.733 18.613 20.083
954.844 20.623 21.583 22.783 23.233 23.473 23.403 23.043 23.043 22.913 22.923
974.134 22.753 22.233 21.483 20.863 20.753 20.873 20.903 21.293 21.953 22.993
993.424 24.343 25.413 26.853 28.113 29.063 30.043 31.003 31.863 31.563 30.933
1012.714 30.963 31.093 30.993 30.633 31.053 32.913 34.823 36.893 39.553 43.043
1032.003 46.243 47.363 47.043 46.283 45.123 42.233 39.053 35.453 30.733 26.003
1051.293 21.473 17.733 14.373 11.863 9.803 8.053 6.943 6.763 7.203 6.273
1070.583 5.303 5.933 5.223 4.123 4.343 4.473 4.183 3.633 4.373 4.503
1089.873 4.503 5.593 5.993 6.033 6.593 7.283 7.353 7.613 7.893 8.263
1109.163 9.463 9.043 8.633 7.763 7.013 7.713 7.433 5.863 4.043 4.003
1128.452 4.823 4.483 3.513 3.863 4.643 4.513 4.783 5.083 6.043 6.633
1147.742 6.213 7.713 9.223 9.473 10.373 12.763 15.683 18.243 20.253 21.833
1167.032 23.913 25.203 25.173 24.123 22.993 21.583 19.153 16.173 12.933 12.333
1186.322 12.583 11.593 11.713 11.723 11.463 11.403 12.303 13.613 14.273 15.563
1205.611 18.953 23.573 26.913 31.613 39.083 48.023 58.023 68.123 77.463 84.613
1224.901 87.663 87.613 87.203 87.613 83.743 76.153 67.653 59.163 52.893 48.513
1244.191 47.713 51.683 60.053 73.163 90.733 112.913 139.763 169.063 199.543 228.393
1263.481 252.733 270.853 280.073 278.073 263.853 238.803 205.193 167.383 131.353 101.513
1282.771 79.083 63.223 52.093 44.073 38.103 33.943 31.283 29.873 29.573 29.973
1302.060 30.443 30.833 30.913 29.893 28.463 27.333 25.873 23.893 21.523 19.103
1321.350 16.983 15.363 14.243 13.433 12.803 12.243 12.173 12.513 12.833 13.353
1340.640 14.373 15.713 17.493 19.943 23.063 27.093 31.713 36.663 41.663 46.223
1359.930 50.133 52.903 53.513 52.013 49.163 45.133 39.963 34.393 29.283 25.023
1379.219 21.633 19.153 17.503 16.233 15.373 14.823 14.273 13.673 13.253 13.073
1398.509 13.023 12.953 12.933 13.203 13.663 14.113 14.883 16.053 17.283 18.733
1417.799 20.313 22.143 24.303 26.453 28.713 31.123 33.663 36.163 38.553 40.733
1437.089 42.733 44.283 45.183 45.543 45.303 44.433 42.893 40.903 38.723 36.223
1456.378 34.123 33.363 33.703 35.153 38.233 43.363 51.273 62.533 78.713 101.533
1475.668 131.083 169.373 215.143 266.963 319.203 365.613 399.413 416.743 419.033 409.043
1494.958 386.633 351.713 304.363 247.083 187.223 134.613 92.563 63.853 46.293 34.883
1514.248 27.603 23.053 20.103 17.763 16.083 15.033 14.003 13.223 12.963 12.553
1533.538 12.083 11.983 11.843 11.683 11.553 11.303 11.083 10.873 10.653 10.293
1552.827 10.173 10.143 9.733 9.483 9.653 9.793 9.953 10.173 10.033 9.843
1572.117 10.003 10.033 10.393 11.113 11.903 12.563 13.333 14.733 16.303 17.973
1591.407 19.613 21.333 22.853 24.073 25.213 26.053 26.793 27.123 27.263 27.803
1610.697 28.363 29.023 30.093 31.443 33.273 35.343 37.583 39.853 41.633 42.783
1629.986 43.103 42.553 41.153 39.003 36.613 33.963 30.623 26.873 23.233 19.853
1649.276 16.823 14.413 12.663 11.613 10.873 10.273 9.693 9.223 9.143 9.173
1668.566 9.493 9.843 10.313 11.003 11.883 12.973 14.303 15.823 17.493 19.423
1687.856 21.323 23.333 25.443 27.293 29.343 31.533 33.223 35.323 37.843 40.703
1707.146 44.363 48.813 54.483 61.973 71.253 82.403 95.793 109.713 123.733 137.103
1726.435 148.833 158.523 165.323 166.783 160.973 149.623 135.413 120.023 105.123 90.443
1745.725 76.913 65.123 55.423 47.343 41.133 36.423 32.483 29.253 26.113 23.383
1765.015 21.233 19.123 17.173 15.493 13.923 12.763 11.953 11.043 10.053 9.353
1784.305 8.853 8.243 7.623 7.023 6.503 6.123 5.813 5.563 5.333 5.053
1803.594 4.893 4.883 4.803 4.653 4.593 4.673 4.693 4.733 4.733 4.673
1822.884 4.643 4.613 4.563 4.663 4.953 5.113 5.413 5.893 6.313 6.753
1842.174 7.123 7.213 7.323 7.343 7.183 6.943 6.493 5.853 5.263 4.753
1861.464 4.233 3.793 3.463 3.233 3.073 3.003 2.923 2.693 2.603 2.683
1880.754 2.773 2.753 2.663 2.563 2.573 2.583 2.593 2.683 2.813 3.053
1900.043 3.153 3.283 3.273 3.273 3.453 3.413 3.443 3.513 3.403 3.323
1919.333 3.203 2.973 2.853 2.713 2.533 2.613 2.683 2.583 2.493 2.493
1938.623 2.413 2.323 2.303 2.413 2.433 2.323 2.273 2.153 2.073 2.013
1957.913 1.903 2.033 2.043 1.913 1.903 2.033 2.173 2.083 1.973 1.993
1977.202 1.903 1.873 2.103 2.053 1.893 1.883 2.053 2.003 1.793 1.953
1996.492 1.993 1.973 1.953 1.993 2.103 2.053 1.923 1.903 2.013 2.043
2015.782 1.943 1.863 1.943 1.993 1.853 1.743 1.863 2.023 2.123 2.213
2035.072 2.273 2.353 2.313 2.233 2.423 2.563 2.433 2.303 2.383 2.433
2054.362 2.183 2.043 1.963 1.903 1.873 1.683 1.663 1.793 1.913 1.893
2073.651 1.883 1.873 1.623 1.603 1.693 1.563 1.5527 1.693 1.813 1.763
2092.941 1.603 1.633 1.663 1.613 1.693 1.633 1.653 1.813 1.823 1.843
2112.231 1.903 1.973 1.963 2.023 1.913 1.913 2.293 2.393 2.183 2.073
2131.521 2.243 2.363 2.293 2.303 2.353 2.183 2.023 1.983 2.053 2.153
2150.810 2.103 1.893 1.793 1.973 2.113 1.993 1.933 1.973 1.933 1.913
2170.100 1.943 1.953 1.983 2.023 1.943 1.903 2.053 2.123 2.093 2.163
2189.390 2.203 2.253 2.323 2.203 1.973 1.863 1.923 1.893 1.823 1.863
2208.680 1.843 1.933 2.063 2.023 1.923 1.923 2.093 2.113 2.253 2.243
2227.970 2.033 2.043 1.953 2.033 2.113 2.093 2.213 2.173 2.033 1.853
2247.259 1.913 1.923 2.023 2.223 2.083 1.853 1.853 1.983 2.023 2.173
2266.549 2.193 2.073 2.023 2.083 2.133 2.103 2.143 2.163 2.193 2.153
2285.839 2.023 2.083 2.143 2.203 2.053 2.023 2.143 2.103 2.063 2.143
2305.129 2.333 2.373 2.403 2.513 2.493 2.133 1.903 2.133 2.373 2.423
2324.418 2.423 2.553 2.723 2.573 2.403 2.413 2.343 2.373 2.373 2.373
2343.708 2.313 2.183 2.253 2.373 2.533 2.513 2.453 2.333 2.183 2.263
2362.998 2.373 2.263 2.053 2.343 2.473 2.443 2.413 2.153 2.313 2.403
2382.288 2.223 2.283 2.413 2.433 2.153 2.043 2.173 2.223 2.213 2.113
2401.578 1.973 1.853 1.973 1.903 1.833 1.953 2.033 1.923 1.763 1.863
2420.867 1.963 2.133 2.003 1.823 2.073 1.973 1.973 2.453 2.543 2.343
2440.157 2.253 2.293 2.383 2.373 2.303 2.203 2.303 2.433 2.263 2.083
2459.447 2.153 2.303 2.283 2.243 2.263 2.393 2.453 2.423 2.503 2.353
2478.737 2.103 2.003 2.133 2.273 2.273 2.233 2.263 2.473 2.553 2.613
2498.026 2.343 2.083 2.283 2.293 2.203 2.203 2.193 2.293 2.553 2.623
2517.316 2.473 2.373 2.483 2.553 2.563 2.503 2.623 3.023 2.893 2.773
2536.606 2.763 2.603 2.513 2.513 2.553 2.383 2.273 2.243 2.103 2.073
2555.896 2.163 2.283 2.313 2.103 2.043 2.223 2.243 2.093 2.013 2.053
2575.186 1.873 1.863 1.993 1.773 1.583 1.603 1.783 1.753 1.873 1.853
2594.475 1.643 1.753 1.783 1.673 1.613 1.643 1.763 1.833 1.883 2.023
2613.765 1.983 1.943 1.823 1.4858 1.3929 1.4796 1.5037 1.563 1.563 1.3248
2633.055 1.5432 1.793 1.4665 1.4639 1.4121 1.2582 1.4342 1.633 1.4979 1.496
2652.345 1.793 1.893 1.833 1.743 1.4927 1.573 1.853 1.793 1.733 1.623
2671.634 1.753 1.733 1.693 1.793 1.733 1.673 1.763 1.793 1.673 1.573
2690.924 1.723 1.903 1.703 1.673 1.853 1.843 1.993 2.253 2.303 2.113
2710.214 1.833 1.883 1.893 1.733 1.803 1.763 1.703 1.793 1.693 1.763
2729.504 1.823 1.963 2.213 2.013 1.873 1.963 1.993 1.973 1.693 1.643
2748.794 1.743 1.753 2.213 2.323 2.023 1.953 2.123 2.023 1.823 2.063
2768.083 2.133 1.673 1.5124 1.703 1.5152 1.643 1.923 2.143 2.353 2.193
2787.373 2.063 1.983 1.993 2.143 2.133 2.043 1.773 1.713 1.903 1.943
2806.663 1.883 1.773 1.803 1.783 1.783 1.753 1.903 2.113 1.783 1.723
2825.953 1.793 1.5534 1.403 1.573 1.803 1.893 1.973 1.913 1.763 1.603
2845.242 1.793 1.903 1.963 2.213 2.393 2.363 2.153 2.283 2.183 2.013
2864.532 2.163 2.213 2.403 2.543 2.543 2.723 2.603 2.123 2.033 2.243
2883.822 2.353 2.503 2.243 2.203 2.563 2.863 2.983 2.533 2.393 2.433
2903.112 2.463 2.693 2.563 2.603 2.753 2.643 2.583 2.383 2.473 2.983
2922.401 3.193 3.243 3.353 3.473 3.513 3.613 3.733 3.593 3.443 3.363
2941.691 3.193 2.843 2.863 3.093 3.363 3.123 2.773 2.753 2.803 2.783
2960.981 2.713 2.903 2.603 2.443 2.803 2.893 2.823 3.053 3.333 3.473
2980.271 3.233 3.453 3.873 3.713 3.673 3.723 3.733 3.723 4.033 4.323
2999.561 4.593 4.903 5.163 5.683 6.173 6.403 6.613 6.633 7.023 7.373
3018.850 6.573 6.003 5.733 5.353 4.923 4.383 4.423 4.133 3.773 3.853
3038.140 3.453 3.273 3.383 3.113 2.883 2.983 3.153 3.143 2.963 3.043
3057.430 3.313 3.233 3.223 3.623 3.743 3.763 3.623 3.363 3.533 3.503
3076.720 3.153 3.133 3.463 3.583 3.263 2.973 2.853 2.673 2.693 2.833
3096.009 2.653 2.373 2.103 2.203 2.353 2.213 2.413 2.543 2.323 1.853
3115.299 1.4535 1.763 2.213 2.363 2.003 1.5263 1.663 1.563 1.643 1.5452
3134.589 1.5196 1.4476 1.4999 1.733 1.4505 1.4691 1.4127 1.0495 0.9688 1.3949
3153.879 1.5627 1.4212 1.309 1.2825 1.1636 1.2318 1.5161 1.703 1.4791 1.3532
3173.169 1.833 1.713 1.0281 0.9474 1.3753 1.763 1.573 1.2698 1.2064 1.0647
3192.458 0.919 0.9274 1.2277 1.2312 0.9693 0.8533 0.9458 1.2142 1.1632 0.8395
3211.748 0.8177 0.9746 1.0693 1.2852 1.4774 1.2553 1.1415 1.5277 1.4795 1.1584
3231.038 1.0699 1.0357 1.2671 1.5319 1.623 1.633 1.943 2.283 1.873 1.803
3250.328 1.843 1.4431 1.2174 1.2341 1.4551 1.3538 1.653 1.803 1.4812 1.4281
3269.617 1.5245 1.4281 1.2098 1.0303 0.936 0.9193 1.0812 0.8785 0.7403 0.9392
3288.907 0.8081 0.8995 1.1254 1.2402 1.3644 1.0721 1.0231 1.2585 1.803 1.833
3308.197 1.4843 1.603 1.2893 1.419 1.4072 0.9 0.9707 1.0989 0.992 0.9807
3327.487 0.9765 1.1663 1.0767 0.9201 1.217 1.2204 1.1455 1.2981 1.733 2.003
3346.777 1.753 1.673 1.5198 1.4103 1.4452 1.683 1.5421 1.3651 1.4029 1.3712
3366.066 1.5097 1.3663 0.8488 0.789 1.5416 2.003 1.853 1.703 1.843 1.933
3385.356 1.723 1.2973 1.5578 1.933 1.713 1.713 1.623 1.703 1.853 1.793
3404.646 1.773 1.933 2.263 2.473 2.493 2.203 2.133 2.543 2.703 2.883
3423.936 3.423 3.323 3.213 3.593 3.513 3.543 3.883 3.933 4.103 4.183
3443.225 4.423 4.513 4.123 3.763 3.433 3.353 3.143 2.883 2.543 2.743
3462.515 3.093 2.983 2.733 2.233 2.073 2.383 2.263 2.333 2.623 2.283
3481.805 1.793 1.593 1.713 1.518 1.255 1.1581 1.3992 1.5436 1.3927 1.5096
3501.095 1.833 1.5573 1.1019 1.174 1.2455 1.713 2.113 1.5431 1.2438 1.613
3520.385 1.753 1.703 1.3409 1.046 0.735 0.7241 1.3101 1.4308 1.1646 1.4281
3539.674 1.2793 0.9264 1.3949 1.4919 1.2846 1.0866 0.9502 1.0355 1.4887 1.703
3558.964 1.5504 1.4489 1.673 1.4865 0.9241 1.0997 1.068 1.0042 0.9761 0.8045
3578.254 1.3479 1.515 1.0377 0.8913 0.863 0.982 1.3035 1.2831 1.0929 0.8908
3597.544 1.0349 1.5338 1.3414 1.2043 1.395 1.016 0.9957 0.8882 0.8345 0.9157
3616.833 0.968 1.5354 1.4467 1.2789 1.2409 1.289 1.0206 0.9317 1.2492 1.3585
3636.123 1.813 1.743 1.2376 1.2748 1.5195 1.1823 0.9309 1.215 1.3217 1.129
3655.413 0.9314 1.2208 1.1709 0.887 1.0084 1.046 1.0833 1.3273 1.4729 1.5178
3674.703 1.603 1.0955 0.7781 1.2803 1.733 1.4298 0.904 0.8448 0.7803 0.7105
3693.993 0.9554 1.2249 1.2482 1.0206 1.1739 1.2996 1.0353 1.0049 1.1737 1.1493
3713.282 1.1762 1.2182 1.0897 1.2454 1.3841 1.3476 1.2527 0.9318 0.832 0.60968
3732.572 0.57959 0.8509 0.79 0.9992 0.9105 0.346 0 0.454 1.2003 0.9722
3751.862 0.4912 0.8913 1.0259 0.9576 0.9652 1.2919 1.4763 1.3547 1.0052 0.9045
3771.152 1.1194 1.0836 1.3872 1.623 1.813 1.833 1.673 1.683 1.4366 1.2959
3790.441 1.583 1.4971 1.1227 0.8433 0.8122 0.9841 1.2052 1.4677 1.2445 1.4139
3809.731 1.623 1.3958 1.3683 1.643 1.953 1.703 1.5448 1.853 1.763 1.5458
3829.021 1.603 1.3509 1.2019 1.2324 1.1939 1.3103 1.683 1.753 1.833 1.843
3848.311 1.683 1.4934 1.025 1.204 1.5023 1.285 1.4059 1.5141 0.9253 0.7288
3867.601 0.9471 0.7585 0.7679 0.9729 1.0771 1.1428 1.3026 1.583 1.2014 0.6016
3886.890 0.4812 1.0449 1.261 1.0751 1.3525 1.3127 0.9477 0.5228 1.0626 1.583
3906.180 1.2242 1.2641 1.2117 1.189 1.1985 1.5542 1.743 1.3339 0.918 0.9801
3925.470 1.2457 0.8153 1.0297 1.433 0.8916 0.61945 1.152 1.5083 1.395 1.5493
3944.760 1.5521 1.5388 1.3879 1.033 1.1279 0.8831 0.7699 0.9312 1.071 1.0603
3964.049 0.9612 0.9994 0.8911 1.3481 1.653 1.4766 1.3158 1.082 1.1108 1.4442
3983.339 1.963 2.203 2.083 2.113 1.913 1.703 1.623 1.763 1.853 1.773
##END=
