##TITLE=p-Methoxybenzylidene p-decylaniline
##JCAMP-DX=4.24
##DATA TYPE=INFRARED SPECTRUM
##ORIGIN=EPA-IR VAPOR PHASE LIBRARY
##OWNER=SRD/NIST
Collection (C) 2018 copyright by the U.S. Secretary of Commerce
on behalf of the United States of America. All rights reserved.
##CAS REGISTRY NO=209683-41-0
##MOLFORM=C 24 H 33 N O
##$NIST SOURCE=MSDC-IR
##STATE=gas
##XUNITS=1/CM
##YUNITS=ABSORBANCE
##XFACTOR=1.
##YFACTOR=0.001
##DELTAX=1.92898
##FIRSTX=549.8
##LASTX=4000.7
##FIRSTY=2.133
##MAXX=4000.7
##MINX=549.759
##MAXY=0.029323
##MINY=0
##NPOINTS=1790
##XYDATA=(X++(Y..Y))
549.759 2.133 2.103 2.113 1.933 1.693 1.613 1.503 1.623 1.413 0.955
569.049 0.9006 0.9158 0.8288 0.7269 0.6625 0.5808 0.6199 0.761 1.0151 1.0889
588.339 1.1187 1.0932 0.9414 0.8834 0.9764 1.1393 1.223 1.283 1.0325 0.8938
607.628 0.9398 0.762 0.6466 0.7703 0.8454 0.6252 0.3848 0.4076 0.496 0.42
626.918 0.3554 0.3712 0.3515 0.3711 0.4369 0.15459 0.031 0.17625 0.2886 0.3415
646.208 0.1648 0.027 0.04 0.20833 0.22874 0.115 0.18979 0.20599 0.1237 0.16131
665.498 0.164342 0.23619 0.3272 0.1403 0.02 0.079 0.047 0.0892 0.1932 0.2997
684.787 0.3267 0.3725 0.3331 0.3722 0.4601 0.2924 0.3106 0.5061 0.6548 0.7307
704.077 0.7567 0.5432 0.6427 1.0239 0.9537 0.926 1.0849 0.9965 0.8118 0.7977
723.367 0.7947 0.7497 0.7583 0.6625 0.6775 0.7748 0.7881 0.7935 0.8276 0.857
742.657 0.7955 0.6035 0.4588 0.5438 0.6128 0.7795 0.8089 0.6089 0.5301 0.6628
761.947 0.7128 0.6598 0.7582 0.7496 0.6218 0.6393 0.6891 0.616 0.6121 0.6494
781.236 0.734 0.8466 0.8559 0.8899 0.891 1.0053 1.0995 1.125 1.173 1.343
800.526 1.653 1.783 1.873 1.963 2.113 2.183 2.183 2.453 2.733 3.113
819.816 3.423 3.553 3.793 4.153 4.363 4.533 4.823 4.923 4.863 4.763
839.106 4.703 4.423 4.043 3.553 3.043 2.903 2.683 2.353 2.143 1.973
858.395 1.743 1.573 1.573 1.523 1.433 1.413 1.683 1.973 2.013 2.113
877.685 2.333 2.633 2.923 3.183 3.283 3.133 2.903 2.653 2.243 1.763
896.975 1.363 1.1362 1.1147 0.9942 0.7716 0.6731 0.7303 0.7692 0.6213 0.6497
916.265 0.6665 0.3414 0.3712 0.6312 0.642 0.5221 0.6113 0.8012 0.6844 0.7118
935.555 0.7196 0.492 0.6615 0.7192 0.5482 0.588 0.6743 0.6752 0.6386 0.6765
954.844 0.7253 0.8242 0.8598 0.9057 0.9945 0.8888 0.748 0.8057 0.9988 0.9735
974.134 0.9891 1.0879 0.967 0.9946 1.109 1.0472 0.8801 0.8753 0.9304 0.899
993.424 0.7764 0.8205 1.1174 1.1113 1.068 1.1425 1.253 1.423 1.633 1.963
1012.714 2.343 2.683 2.603 2.293 2.213 2.473 2.713 3.053 3.483 3.523
1032.003 3.823 4.473 4.743 4.703 4.623 4.493 4.133 3.663 3.303 2.843
1051.293 2.213 1.783 1.513 1.553 1.753 1.523 1.183 0.9706 1.0191 1.1453
1070.583 1.0926 1.203 1.253 0.9211 0.6622 0.9494 0.9548 1.0097 1.147 0.8247
1089.873 0.5588 0.8853 1.273 1.353 1.533 1.693 1.743 1.963 2.033 1.933
1109.163 1.963 1.803 1.653 1.733 1.693 1.1539 1.0351 1.423 1.313 0.955
1128.452 0.879 0.988 0.9277 0.8646 0.9841 1.1159 1.203 1.363 1.633 1.813
1147.742 1.983 2.513 3.303 4.013 5.413 7.883 11.613 16.823 21.923 23.623
1167.032 20.583 14.933 9.903 6.963 5.263 4.443 4.233 4.163 4.113 4.303
1186.322 4.463 4.493 4.703 4.783 4.693 4.423 4.083 4.103 4.073 3.783
1205.611 3.453 3.283 3.413 3.233 3.043 3.443 3.873 4.073 4.303 4.513
1224.901 4.943 5.423 5.903 6.673 7.593 8.673 9.803 11.343 13.243 15.293
1244.191 17.593 19.753 21.403 22.153 21.753 20.323 18.203 15.803 13.233 10.713
1263.481 8.623 7.303 6.463 5.753 5.143 4.693 4.513 4.413 4.353 4.453
1282.771 4.633 4.793 5.063 5.383 5.583 5.793 6.063 6.343 6.783 7.303
1302.060 7.593 7.443 6.783 5.853 4.993 4.193 3.543 3.053 2.773 2.543
1321.350 2.273 2.053 1.923 1.863 1.823 1.823 1.843 1.863 1.873 1.943
1340.640 1.993 1.943 1.933 1.983 1.993 1.993 1.923 1.853 1.833 1.813
1359.930 1.793 1.783 1.773 1.773 1.743 1.663 1.623 1.523 1.373 1.303
1379.219 1.303 1.343 1.333 1.293 1.223 1.1264 1.0654 1.0673 1.1 1.1144
1398.509 1.0835 1.0849 1.183 1.303 1.383 1.483 1.703 2.073 2.463 2.833
1417.799 3.203 3.273 3.033 2.683 2.273 1.943 1.763 1.713 1.783 1.913
1437.089 2.103 2.343 2.663 3.063 3.453 3.683 3.753 3.703 3.633 3.673
1456.378 3.813 3.973 4.103 4.293 4.453 4.563 4.643 4.563 4.323 3.983
1475.668 3.653 3.343 3.173 3.093 3.033 3.093 3.233 3.463 3.773 4.203
1494.958 4.813 5.633 6.733 8.223 10.163 12.573 15.703 19.013 21.443 21.973
1514.248 19.933 15.993 11.763 8.663 6.493 5.073 4.113 3.433 2.893 2.523
1533.538 2.303 2.103 1.923 1.853 1.823 1.753 1.693 1.673 1.663 1.703
1552.827 1.753 1.793 1.883 2.043 2.213 2.383 2.693 3.093 3.623 4.393
1572.117 5.303 6.263 7.123 7.503 7.213 6.473 5.933 5.993 6.543 7.563
1591.407 8.943 10.653 12.503 14.243 15.553 16.153 15.893 14.833 13.383 11.783
1610.697 10.223 8.753 7.553 6.723 6.213 6.063 6.313 6.993 7.953 9.233
1629.986 10.443 10.953 10.683 9.583 8.013 6.563 5.403 4.563 3.973 3.453
1649.276 2.983 2.713 2.483 2.233 2.053 1.923 1.843 1.713 1.563 1.503
1668.566 1.413 1.283 1.253 1.183 1.0918 1.05 1.0024 0.9583 0.9392 0.8809
1687.856 0.8594 0.8865 0.8108 0.7729 0.7389 0.6693 0.6783 0.6648 0.6831 0.6596
1707.146 0.588 0.6091 0.6019 0.5371 0.5479 0.5572 0.569 0.5464 0.474 0.4719
1726.435 0.51 0.5089 0.5145 0.5098 0.4999 0.5114 0.5145 0.5206 0.5154 0.5064
1745.725 0.4895 0.4737 0.4816 0.5461 0.5922 0.554 0.5562 0.5749 0.6153 0.6978
1765.015 0.7026 0.7021 0.6763 0.6571 0.6529 0.5793 0.5032 0.4923 0.5165 0.5287
1784.305 0.4787 0.4064 0.4054 0.4041 0.443 0.4737 0.4146 0.37 0.3978 0.4378
1803.594 0.4447 0.4288 0.4042 0.4311 0.428 0.3883 0.3931 0.4189 0.3784 0.3403
1822.884 0.3894 0.4026 0.3399 0.3292 0.3468 0.3411 0.3393 0.3443 0.3487 0.3643
1842.174 0.4177 0.4185 0.3798 0.3788 0.3842 0.404 0.4245 0.3899 0.3815 0.385
1861.464 0.3847 0.3912 0.3634 0.388 0.4452 0.4582 0.4748 0.5038 0.4826 0.5351
1880.754 0.6442 0.6279 0.6353 0.6808 0.6614 0.6185 0.5786 0.5378 0.5298 0.5388
1900.043 0.5328 0.5053 0.4654 0.4691 0.4283 0.4009 0.4571 0.481 0.432 0.407
1919.333 0.4417 0.4713 0.4929 0.4621 0.4362 0.4898 0.4957 0.4705 0.4656 0.5049
1938.623 0.5341 0.5228 0.4835 0.3559 0.3179 0.3277 0.3197 0.3388 0.3111 0.3308
1957.913 0.3967 0.4231 0.3779 0.339 0.3394 0.3252 0.3268 0.3263 0.3538 0.3795
1977.202 0.3959 0.4441 0.3922 0.3492 0.3485 0.347 0.3542 0.3301 0.3994 0.4599
1996.492 0.4694 0.4905 0.484 0.4965 0.487 0.4395 0.426 0.438 0.4961 0.5696
2015.782 0.5651 0.5623 0.5898 0.571 0.569 0.6316 0.6105 0.5504 0.5619 0.5615
2035.072 0.5647 0.5657 0.5157 0.5462 0.5947 0.6015 0.6248 0.5925 0.5836 0.6248
2054.362 0.6427 0.6195 0.6042 0.5817 0.5509 0.5412 0.5721 0.5846 0.5507 0.537
2073.651 0.5753 0.5769 0.5382 0.5291 0.5097 0.4653 0.4626 0.4684 0.4401 0.3745
2092.941 0.3483 0.3513 0.3783 0.4051 0.314 0.2793 0.3486 0.3807 0.3961 0.3579
2112.231 0.3227 0.3574 0.3487 0.3303 0.3553 0.3153 0.23511 0.2705 0.2802 0.24115
2131.521 0.21862 0.2175 0.23978 0.21128 0.22094 0.25469 0.23417 0.24695 0.2325 0.20772
2150.810 0.22862 0.23477 0.24968 0.2847 0.2972 0.2995 0.2956 0.2863 0.2939 0.2656
2170.100 0.2797 0.2778 0.2426 0.2761 0.23635 0.18816 0.21443 0.21565 0.22722 0.20066
2189.390 0.21523 0.22962 0.23442 0.2745 0.269 0.2644 0.25685 0.21852 0.22725 0.2661
2208.680 0.2522 0.24587 0.22162 0.22006 0.25862 0.2703 0.2663 0.24732 0.25587 0.25115
2227.970 0.22035 0.24495 0.22987 0.20517 0.22665 0.22598 0.20659 0.18408 0.23481 0.2693
2247.259 0.22385 0.25009 0.24733 0.23996 0.2745 0.3056 0.3017 0.3582 0.3756 0.3321
2266.549 0.3948 0.3791 0.3261 0.3637 0.3555 0.3002 0.2708 0.2884 0.345 0.3402
2285.839 0.3051 0.2978 0.3164 0.3057 0.3031 0.3094 0.3275 0.3493 0.3474 0.3138
2305.129 0.3024 0.3269 0.3194 0.2818 0.2993 0.2691 0.20008 0.26289 0.3233 0.3081
2324.418 0.3155 0.3303 0.3445 0.3042 0.2926 0.3469 0.3753 0.3446 0.21814 0.21886
2343.708 0.2978 0.3269 0.3357 0.3461 0.3408 0.338 0.3405 0.3268 0.356 0.4162
2362.998 0.3801 0.3692 0.3424 0.25206 0.21849 0.25894 0.3292 0.2858 0.2958 0.3494
2382.288 0.337 0.2957 0.2881 0.2929 0.2824 0.2973 0.2942 0.2801 0.2941 0.3129
2401.578 0.3392 0.2948 0.2693 0.3064 0.3482 0.3766 0.2835 0.24531 0.2969 0.3336
2420.867 0.3377 0.2835 0.279 0.2641 0.24182 0.2777 0.2953 0.2959 0.2724 0.22592
2440.157 0.23954 0.23943 0.2718 0.34 0.3907 0.3669 0.24885 0.22728 0.2874 0.3492
2459.447 0.3363 0.3064 0.3306 0.3488 0.3353 0.3274 0.3181 0.3211 0.33 0.3426
2478.737 0.3235 0.2959 0.3134 0.3701 0.4539 0.4374 0.4571 0.468 0.3814 0.4168
2498.026 0.4684 0.431 0.4405 0.4563 0.3975 0.3566 0.3963 0.4285 0.4114 0.4237
2517.316 0.4311 0.403 0.3999 0.4335 0.4156 0.3763 0.3878 0.4619 0.5417 0.4837
2536.606 0.4137 0.4529 0.5324 0.5671 0.5331 0.5561 0.5646 0.556 0.568 0.5179
2555.896 0.477 0.4862 0.4908 0.4679 0.4346 0.4453 0.493 0.4959 0.4936 0.4795
2575.186 0.4725 0.4876 0.4744 0.4534 0.4048 0.398 0.411 0.4785 0.4696 0.4115
2594.475 0.4172 0.3868 0.3718 0.3664 0.368 0.3368 0.3338 0.4234 0.4814 0.4983
2613.765 0.4907 0.3913 0.338 0.3598 0.3612 0.3466 0.3867 0.455 0.4596 0.4141
2633.055 0.3775 0.3498 0.3258 0.3853 0.4685 0.4278 0.3948 0.4307 0.4346 0.3877
2652.345 0.3713 0.3592 0.3929 0.4287 0.3841 0.3845 0.4463 0.5184 0.4611 0.359
2671.634 0.3798 0.3956 0.4258 0.4076 0.4314 0.4875 0.4378 0.4489 0.475 0.506
2690.924 0.4617 0.4265 0.4095 0.3547 0.4367 0.5239 0.4369 0.3728 0.4287 0.4365
2710.214 0.4475 0.5054 0.4918 0.5295 0.5295 0.4894 0.4775 0.4682 0.4553 0.4955
2729.504 0.4959 0.4358 0.4924 0.5369 0.4662 0.4072 0.4303 0.4782 0.5613 0.6134
2748.794 0.624 0.6293 0.652 0.6246 0.5427 0.5582 0.6542 0.6694 0.638 0.6338
2768.083 0.6294 0.6844 0.7415 0.6678 0.6699 0.705 0.6449 0.6989 0.7315 0.6831
2787.373 0.7065 0.7792 0.8933 1.005 1.0179 1.0077 1.0413 1.0683 1.1477 1.1591
2806.663 1.1444 1.263 1.363 1.393 1.453 1.543 1.653 1.743 1.923 2.073
2825.953 2.163 2.273 2.393 2.643 2.823 3.073 3.493 3.923 4.483 5.283
2845.242 6.093 6.693 7.273 7.833 8.533 9.463 10.393 11.343 12.123 12.413
2864.532 12.203 11.703 10.943 10.113 9.383 8.823 8.353 7.893 7.593 7.323
2883.822 7.043 6.813 6.593 6.413 6.423 6.453 6.463 6.733 7.223 7.673
2903.112 8.143 8.793 9.613 10.413 11.183 12.013 13.103 14.443 15.803 17.363
2922.401 19.263 21.503 23.893 26.143 27.983 29.113 29.323 28.553 27.093 25.153
2941.691 22.963 20.713 18.393 16.193 14.393 12.943 11.863 11.043 10.413 10.183
2960.981 10.043 9.913 9.803 9.453 8.933 8.373 7.693 6.893 6.223 5.633
2980.271 4.993 4.613 4.333 4.113 3.953 3.693 3.553 3.513 3.483 3.553
2999.561 3.653 3.713 3.863 4.083 4.273 4.443 4.523 4.383 4.103 3.893
3018.850 3.743 3.823 4.103 4.273 4.383 4.313 4.023 3.653 3.423 3.243
3038.140 2.983 2.743 2.503 2.313 2.153 2.023 2.043 2.063 1.923 1.763
3057.430 1.683 1.693 1.723 1.783 1.823 1.853 1.973 2.263 2.443 2.503
3076.720 2.543 2.453 2.293 2.063 1.913 1.723 1.463 1.323 1.343 1.273
3096.009 1.223 1.283 1.303 1.283 1.183 1.1013 1.0953 1.0782 0.9988 0.8713
3115.299 0.8922 0.9417 0.8887 0.7398 0.6276 0.6539 0.6063 0.5707 0.5421 0.5671
3134.589 0.4999 0.4314 0.4604 0.3804 0.4097 0.4347 0.4302 0.5872 0.5315 0.4333
3153.879 0.5164 0.3904 0.3015 0.3237 0.2701 0.3788 0.4354 0.382 0.4431 0.4233
3173.169 0.4514 0.5274 0.443 0.402 0.3194 0.3176 0.2974 0.2835 0.3192 0.25369
3192.458 0.2117 0.23195 0.3097 0.2738 0.21156 0.2667 0.3763 0.3539 0.1767 0.0811
3211.748 0.19741 0.2976 0.368 0.4491 0.363 0.3825 0.3941 0.2951 0.3489 0.3178
3231.038 0.25616 0.3603 0.3492 0.2863 0.3062 0.2787 0.2928 0.2917 0.3128 0.2872
3250.328 0.25511 0.2982 0.3094 0.3252 0.24385 0.2674 0.4114 0.3929 0.3937 0.3472
3269.617 0.171399 0.1017 0.149 0.19331 0.25402 0.274 0.2954 0.3596 0.21742 0.166063
3288.907 0.26299 0.2624 0.2729 0.25485 0.19592 0.17719 0.25191 0.267 0.19038 0.114
3308.197 0.15636 0.18375 0.15575 0.1427 0.1262 0.24698 0.2733 0.2645 0.3737 0.3422
3327.487 0.24508 0.2735 0.21581 0.19288 0.24945 0.22724 0.20978 0.18804 0.1481 0.21213
3346.777 0.23009 0.17768 0.15721 0.1443 0.1419 0.0983 0.0648 0.166447 0.3296 0.3036
3366.066 0.3001 0.3371 0.1766 0.172202 0.2653 0.2975 0.24232 0.16172 0.23486 0.2674
3385.356 0.20161 0.23773 0.32 0.2658 0.0922 0.1239 0.3302 0.3452 0.2885 0.23412
3404.646 0.16099 0.1327 0.1999 0.2659 0.22944 0.19443 0.23457 0.26171 0.2741 0.21854
3423.936 0.22041 0.170349 0.067 0.088 0.0992 0.21219 0.2734 0.26166 0.2109 0.1282
3443.225 0.20173 0.22412 0.18274 0.24395 0.3249 0.265 0.1085 0.024 0.0676 0.0956
3462.515 0.172292 0.2911 0.21317 0.1328 0.1466 0.18225 0.25603 0.25244 0.1106 0.059
3481.805 0.0751 0.0668 0.17897 0.1254 0.047 0.1106 0.059 0.0854 0.1054 0.1175
3501.095 0.20898 0.2791 0.25467 0.2653 0.19012 0.172471 0.3017 0.2881 0.3216 0.3615
3520.385 0.2859 0.23918 0.2787 0.25811 0.2961 0.18411 0.0978 0.2181 0.24216 0.1502
3539.674 0.0699 0.033 0.0907 0.1291 0.0716 0.1034 0.0842 0.119 0.26124 0.2971
3558.964 0.2884 0.277 0.25485 0.2973 0.2656 0.1496 0.0887 0.0781 0.1267 0.1225
3578.254 0.21705 0.2353 0.18876 0.23321 0.23267 0.2729 0.22923 0.3428 0.4456 0.26087
3597.544 0.19906 0.17149 0.19119 0.3306 0.2996 0.1951 0.19275 0.2823 0.2313 0.15454
3616.833 0.1259 0.1083 0.22537 0.2811 0.24182 0.3085 0.3281 0.19787 0.26244 0.3544
3636.123 0.3338 0.23823 0.2689 0.3061 0.2678 0.2634 0.22689 0.3916 0.4436 0.3023
3655.413 0.3179 0.278 0.089 0.0842 0.21582 0.21174 0.166608 0.2772 0.3389 0.2779
3674.703 0.2981 0.23166 0.16169 0.22849 0.18948 0.063 0.055 0.21713 0.25962 0.2877
3693.993 0.3332 0.3139 0.2835 0.22141 0.1345 0.19993 0.2731 0.24472 0.24928 0.24776
3713.282 0.23244 0.23569 0.22414 0.22695 0.21183 0.1548 0.24702 0.25237 0.21897 0.19571
3732.572 0.17888 0.2797 0.2863 0.1431 0.0855 0.26148 0.3283 0.2747 0.3082 0.2765
3751.862 0.23282 0.20664 0.17545 0.17482 0.123 0.1411 0.25116 0.168431 0.1501 0.15518
3771.152 0.0645 0.17624 0.25897 0.21544 0.18631 0.1075 0.0811 0.21278 0.25057 0.20308
3790.441 0.25926 0.3004 0.3526 0.4137 0.3942 0.3502 0.3598 0.2911 0.22103 0.3265
3809.731 0.3328 0.23985 0.24434 0.2796 0.2498 0.24287 0.3414 0.3195 0.16098 0.1275
3829.021 0.19144 0.21904 0.23761 0.1433 0.0881 0.1153 0.1231 0.21839 0.18181 0.171151
3848.311 0.20773 0.1335 0.043 0 0.063 0.1473 0.22443 0.17715 0.1138 0.1781
3867.601 0.2217 0.2842 0.24475 0.3122 0.4375 0.2816 0.25454 0.4291 0.4812 0.377
3886.890 0.38 0.3077 0.1008 0.062 0.1029 0.2724 0.4078 0.2885 0.17596 0.3249
3906.180 0.3157 0.1379 0.2636 0.3433 0.3235 0.3425 0.2795 0.3022 0.3261 0.25801
3925.470 0.21501 0.3053 0.3782 0.4832 0.4012 0.18441 0.22963 0.2766 0.2219 0.20221
3944.760 0.169747 0.22269 0.23437 0.264 0.3691 0.2897 0.3305 0.4251 0.278 0.12
3964.049 0.3048 0.3465 0.2684 0.2816 0.24859 0.24827 0.24786 0.20679 0.3541 0.4328
3983.339 0.3025 0.3537 0.2911 0.2859 0.3763 0.3319 0.3166 0.3386 0.434 0.4322
##END=
