##TITLE=Methyl 4-(p-chlorophenoxy)butyrate
##JCAMP-DX=4.24
##DATA TYPE=INFRARED SPECTRUM
##ORIGIN=EPA-IR VAPOR PHASE LIBRARY
##OWNER=SRD/NIST
Collection (C) 2018 copyright by the U.S. Secretary of Commerce
on behalf of the United States of America. All rights reserved.
##CAS REGISTRY NO=209052-80-2
##MOLFORM=C 11 H 13 Cl O 3
##$NIST SOURCE=MSDC-IR
##STATE=gas
##XUNITS=1/CM
##YUNITS=ABSORBANCE
##XFACTOR=1.
##YFACTOR=0.001
##DELTAX=1.92898
##FIRSTX=549.8
##LASTX=4000.7
##FIRSTY=1.0061
##MAXX=4000.7
##MINX=549.759
##MAXY=0.104726
##MINY=0
##NPOINTS=1790
##XYDATA=(X++(Y..Y))
549.759 1.0061 1.0604 0.7517 0.6385 0.7269 0.8762 0.9093 0.824 0.7999 0.8251
569.049 0.8338 1.0604 1.059 0.8415 0.8034 1.0463 1.1556 1.0394 1.0741 1.019
588.339 0.9449 1.1787 1.366 1.366 1.486 1.526 1.736 1.876 1.636 1.616
607.628 1.886 2.156 2.406 2.676 3.036 3.406 3.846 4.426 4.986 5.316
626.918 5.646 6.166 6.696 7.076 7.316 7.556 7.666 7.696 7.616 7.616
646.208 7.716 7.696 7.906 8.176 8.636 9.336 9.816 10.106 10.406 10.376
665.498 9.956 9.426 8.666 7.906 6.946 5.946 5.146 4.426 4.026 3.556
684.787 3.096 2.836 2.556 2.466 2.276 2.006 1.936 1.906 1.826 1.816
704.077 1.836 1.716 1.616 1.626 1.526 1.476 1.506 1.546 1.516 1.416
723.367 1.486 1.426 1.306 1.316 1.1151 1.1529 1.286 1.0653 1.0003 1.105
742.657 1.1888 1.316 1.2031 1.0938 1.1102 1.0943 1.276 1.396 1.356 1.306
761.947 1.386 1.516 1.476 1.536 1.726 1.926 2.046 2.166 2.256 2.436
781.236 2.906 3.316 3.516 3.786 4.046 4.316 4.856 5.216 5.446 5.706
800.526 5.946 6.346 6.846 7.386 8.256 9.416 10.826 12.566 14.566 16.786
819.816 18.736 20.146 20.866 20.936 20.186 18.756 17.116 15.316 13.656 12.046
839.106 10.706 9.676 8.726 7.776 6.906 6.436 5.916 5.366 4.926 4.636
858.395 4.556 4.616 4.626 4.496 4.496 4.646 4.606 4.536 4.596 4.526
877.685 4.526 4.496 4.226 4.036 3.916 3.816 3.656 3.306 2.986 2.876
896.975 2.786 2.806 2.976 2.886 2.636 2.376 2.466 2.666 2.706 2.676
916.265 2.666 2.956 3.286 3.506 3.836 4.216 4.556 5.216 5.776 6.236
935.555 6.866 7.516 8.106 8.636 8.966 8.926 8.796 8.666 8.426 8.026
954.844 7.506 6.936 6.266 5.826 5.516 5.116 4.846 4.946 5.056 5.056
974.134 5.116 5.476 5.876 5.986 6.276 6.566 6.916 7.366 7.956 8.586
993.424 9.126 9.976 11.176 12.626 14.776 17.346 19.286 20.126 20.106 19.486
1012.714 17.886 15.846 14.536 14.316 14.756 15.536 16.376 17.426 18.546 19.606
1032.003 21.166 22.916 24.726 26.516 28.256 29.716 30.666 31.186 31.666 31.516
1051.293 30.366 29.106 27.566 25.736 24.176 22.396 20.556 19.186 18.006 16.986
1070.583 16.126 15.656 15.516 15.746 16.406 17.206 18.476 19.996 22.516 26.306
1089.873 30.266 33.746 35.616 35.546 33.236 29.336 25.456 21.616 18.476 16.616
1109.163 15.156 13.786 12.976 12.086 11.096 10.816 10.606 10.336 10.206 10.016
1128.452 10.316 10.936 11.496 11.936 12.696 13.796 14.686 15.806 17.526 19.406
1147.742 21.586 24.376 27.446 30.826 35.116 40.506 46.726 54.266 62.296 68.696
1167.032 72.446 73.806 72.486 68.986 65.046 61.436 58.246 55.306 52.476 50.356
1186.322 48.636 46.966 45.826 45.116 45.116 45.316 45.136 45.076 45.596 46.056
1205.611 46.356 47.106 48.206 49.646 51.516 53.896 56.736 60.126 63.916 68.156
1224.901 72.986 78.406 84.066 89.596 95.056 99.856 103.416 104.726 103.236 98.896
1244.191 92.126 84.086 75.626 67.956 61.616 56.646 52.996 50.396 48.596 47.186
1263.481 46.306 45.886 45.616 45.216 44.706 44.006 42.866 41.396 39.516 37.146
1282.771 34.606 31.896 29.326 27.126 25.136 23.656 22.596 21.596 20.706 19.946
1302.060 19.236 18.446 17.696 17.006 16.356 15.736 15.246 14.926 14.626 14.296
1321.350 13.966 13.686 13.456 13.196 12.906 12.666 12.436 12.286 12.246 12.266
1340.640 12.296 12.416 12.636 12.896 13.206 13.566 13.946 14.266 14.596 14.896
1359.930 15.076 15.086 15.006 14.786 14.346 13.866 13.356 12.866 12.466 12.136
1379.219 11.866 11.746 11.736 11.706 11.526 11.176 10.666 9.956 9.236 8.526
1398.509 7.796 7.216 6.826 6.586 6.396 6.306 6.396 6.536 6.736 7.136
1417.799 7.636 8.236 8.936 9.726 10.796 11.976 13.326 14.926 16.726 18.536
1437.089 20.036 20.806 20.976 20.546 19.506 18.326 17.216 16.176 15.166 14.336
1456.378 13.816 13.706 14.136 15.056 16.626 19.216 23.016 27.876 33.086 37.796
1475.668 41.286 43.866 46.326 50.186 57.096 67.906 81.766 94.886 102.476 101.756
1494.958 92.866 77.186 58.636 42.046 30.316 22.906 17.936 14.466 12.116 10.476
1514.248 9.286 8.306 7.586 7.006 6.526 6.136 5.696 5.376 5.096 4.776
1533.538 4.596 4.406 4.206 4.026 3.906 3.846 3.766 3.826 3.896 3.916
1552.827 3.936 3.976 4.036 4.126 4.356 4.556 4.756 5.116 5.636 6.226
1572.117 6.886 7.676 8.586 9.466 10.256 11.106 11.876 12.456 12.996 13.556
1591.407 14.056 14.266 14.136 13.756 13.076 11.896 10.386 8.906 7.536 6.286
1610.697 5.256 4.486 3.986 3.686 3.446 3.176 2.936 2.826 2.746 2.606
1629.986 2.456 2.356 2.226 2.156 2.166 2.106 2.026 2.036 2.006 1.966
1649.276 1.926 1.876 1.876 1.866 1.866 1.756 1.716 1.746 1.726 1.786
1668.566 1.886 1.826 1.756 1.826 1.936 1.956 1.966 2.006 2.146 2.276
1687.856 2.356 2.476 2.606 2.786 3.006 3.186 3.366 3.726 4.126 4.496
1707.146 4.906 5.356 5.896 6.516 7.256 8.096 9.036 10.036 11.156 12.446
1726.435 13.886 15.536 17.376 19.366 21.746 24.336 27.006 30.136 33.436 37.086
1745.725 41.086 45.126 49.266 53.456 57.256 60.346 62.426 63.116 62.206 59.686
1765.015 55.936 51.486 46.826 42.486 38.226 34.276 30.706 27.326 24.086 21.076
1784.305 18.316 15.806 13.596 11.676 10.006 8.626 7.446 6.436 5.626 4.946
1803.594 4.416 3.936 3.506 3.166 2.936 2.736 2.516 2.346 2.216 2.106
1822.884 2.006 1.906 1.896 1.896 1.886 1.866 1.836 1.866 1.866 1.866
1842.174 1.886 1.866 1.896 1.926 1.946 1.996 2.016 2.086 2.116 2.176
1861.464 2.246 2.276 2.386 2.386 2.296 2.256 2.256 2.146 2.056 1.976
1880.754 1.926 1.896 1.816 1.776 1.746 1.686 1.636 1.596 1.536 1.466
1900.043 1.366 1.366 1.346 1.326 1.316 1.276 1.286 1.276 1.2371 1.2374
1919.333 1.2529 1.2133 1.1693 1.215 1.2531 1.2256 1.266 1.286 1.2294 1.227
1938.623 1.2529 1.2305 1.2398 1.201 1.1575 1.1862 1.2237 1.266 1.2497 1.1972
1957.913 1.1693 1.2033 1.276 1.2646 1.256 1.286 1.316 1.336 1.306 1.316
1977.202 1.356 1.356 1.426 1.456 1.426 1.446 1.526 1.626 1.626 1.656
1996.492 1.686 1.686 1.706 1.726 1.746 1.746 1.736 1.706 1.676 1.706
2015.782 1.746 1.746 1.766 1.746 1.686 1.696 1.756 1.816 1.806 1.776
2035.072 1.816 1.816 1.776 1.836 1.836 1.756 1.766 1.786 1.756 1.716
2054.362 1.716 1.756 1.726 1.666 1.716 1.746 1.746 1.746 1.756 1.746
2073.651 1.676 1.616 1.646 1.656 1.596 1.546 1.476 1.436 1.446 1.366
2092.941 1.276 1.276 1.2584 1.2414 1.2227 1.1722 1.1159 1.0847 1.0829 1.0996
2112.231 1.0698 1.0147 0.9756 0.902 0.8874 0.8976 0.8428 0.823 0.8029 0.7944
2131.521 0.7924 0.7102 0.6472 0.6222 0.6515 0.7167 0.7138 0.6938 0.6723 0.641
2150.810 0.6661 0.6609 0.6487 0.6355 0.6159 0.6159 0.5646 0.5103 0.5333 0.5236
2170.100 0.5056 0.5945 0.6332 0.5783 0.523 0.5127 0.59 0.6238 0.6022 0.5833
2189.390 0.5298 0.4987 0.4852 0.5245 0.5461 0.5491 0.5499 0.5158 0.5516 0.5644
2208.680 0.5064 0.4916 0.4931 0.5026 0.5175 0.5407 0.549 0.5581 0.5429 0.5008
2227.970 0.5072 0.5285 0.5823 0.6028 0.5834 0.5709 0.5972 0.6355 0.6257 0.6092
2247.259 0.6335 0.6301 0.5776 0.6176 0.6754 0.6531 0.6748 0.6709 0.6472 0.7048
2266.549 0.7186 0.7224 0.7279 0.7205 0.731 0.7216 0.6707 0.7253 0.7892 0.7747
2285.839 0.7833 0.7928 0.777 0.7486 0.7554 0.7342 0.7324 0.7043 0.7091 0.7544
2305.129 0.6612 0.6558 0.7338 0.7088 0.6772 0.6759 0.6866 0.7098 0.7439 0.7307
2324.418 0.6901 0.715 0.717 0.6779 0.7105 0.711 0.6753 0.7041 0.7203 0.6825
2343.708 0.5835 0.55 0.5929 0.556 0.5674 0.6363 0.663 0.5985 0.5539 0.5847
2362.998 0.5564 0.5156 0.5847 0.6406 0.6173 0.6303 0.678 0.7426 0.7926 0.777
2382.288 0.8124 0.8204 0.7805 0.8125 0.8389 0.8127 0.7888 0.8214 0.8341 0.8128
2401.578 0.7931 0.8111 0.834 0.8309 0.8369 0.8644 0.862 0.8051 0.7746 0.821
2420.867 0.8613 0.8456 0.8093 0.7915 0.7813 0.8335 0.8326 0.8183 0.8269 0.7667
2440.157 0.7466 0.7401 0.7447 0.8506 0.8827 0.8689 0.8859 0.8413 0.8261 0.8571
2459.447 0.8396 0.8412 0.9154 0.9283 0.8806 0.8634 0.8947 0.8755 0.865 0.8774
2478.737 0.8387 0.8445 0.8945 0.8998 0.8805 0.8104 0.8389 0.9219 0.8919 0.8885
2498.026 0.9283 0.9358 0.9476 0.9564 0.9779 1.0132 0.9739 0.9919 1.0695 1.0556
2517.316 1.0531 1.1103 1.1089 1.0502 1.0412 1.0078 0.8891 0.747 0.7362 0.7811
2536.606 0.8227 0.8881 0.834 0.7438 0.6872 0.6595 0.6677 0.7386 0.7243 0.6594
2555.896 0.6652 0.64 0.664 0.6901 0.6524 0.6043 0.5884 0.6082 0.6823 0.6696
2575.186 0.5756 0.6096 0.6839 0.6993 0.6738 0.6716 0.6192 0.5748 0.6098 0.6311
2594.475 0.641 0.6313 0.6511 0.5857 0.5106 0.5548 0.5216 0.4794 0.5636 0.6372
2613.765 0.5858 0.585 0.639 0.619 0.5518 0.5168 0.5367 0.5774 0.5456 0.5765
2633.055 0.6357 0.6406 0.5901 0.5623 0.6265 0.6053 0.5824 0.5668 0.5028 0.5303
2652.345 0.5586 0.5047 0.5568 0.628 0.6255 0.6088 0.6226 0.608 0.5303 0.5526
2671.634 0.6503 0.6064 0.5555 0.6196 0.6368 0.5722 0.4905 0.4936 0.6235 0.6476
2690.924 0.6567 0.6518 0.6778 0.6668 0.5845 0.6613 0.7002 0.7074 0.7212 0.662
2710.214 0.6273 0.66 0.7022 0.755 0.7398 0.7082 0.637 0.6806 0.8456 0.8291
2729.504 0.8209 0.8065 0.7925 0.8881 0.9215 0.9611 1.0049 0.9499 0.8642 0.8738
2748.794 0.9691 1.025 1.0139 0.9921 1.0179 1.0144 0.9783 0.9406 0.9539 1.0156
2768.083 1.0335 1.0442 1.0184 1.0254 0.9545 0.9501 0.9847 0.9872 1.0588 1.0292
2787.373 1.0481 1.1195 1.1683 1.116 1.0591 1.1144 1.1248 1.1352 1.2413 1.396
2806.663 1.466 1.446 1.446 1.576 1.596 1.606 1.756 1.826 1.846 1.826
2825.953 1.876 2.006 2.116 2.196 2.396 2.626 2.806 3.096 3.366 3.586
2845.242 3.936 4.316 4.676 4.976 5.136 5.186 5.276 5.326 5.286 5.306
2864.532 5.486 5.656 5.826 6.126 6.366 6.676 7.036 7.296 7.586 8.006
2883.822 8.366 8.576 8.716 8.806 9.016 9.186 9.186 9.186 9.096 9.066
2903.112 9.096 9.136 9.236 9.296 9.346 9.426 9.616 9.866 10.146 10.426
2922.401 10.656 10.946 11.416 12.006 12.606 13.256 14.006 14.816 15.656 16.356
2941.691 16.906 17.446 18.146 18.906 19.846 20.996 22.186 23.666 25.226 26.296
2960.981 26.736 26.566 25.486 23.726 21.746 19.786 18.066 16.526 15.206 14.026
2980.271 12.946 11.956 11.006 10.136 9.456 8.866 8.356 7.946 7.556 7.186
2999.561 6.886 6.666 6.376 6.136 5.836 5.516 5.406 5.226 5.006 4.916
3018.850 4.816 4.716 4.636 4.646 4.716 4.736 4.696 4.736 4.826 4.806
3038.140 4.886 4.976 5.046 5.136 5.076 4.856 4.636 4.346 3.966 3.676
3057.430 3.446 3.256 3.126 3.006 2.886 2.896 2.936 2.946 3.026 3.126
3076.720 3.176 3.186 3.106 3.126 3.236 3.306 3.276 3.316 3.496 3.596
3096.009 3.586 3.616 3.576 3.506 3.466 3.156 2.866 2.556 2.136 1.906
3115.299 1.686 1.576 1.536 1.346 1.1845 1.0988 1.0116 1.015 0.9517 0.875
3134.589 0.8241 0.7879 0.908 0.8121 0.8186 0.9442 0.9254 0.872 0.7847 0.7642
3153.879 0.6762 0.6395 0.6815 0.6363 0.6995 0.8199 0.8253 0.6518 0.5508 0.5392
3173.169 0.5346 0.5263 0.5844 0.6431 0.6117 0.5659 0.5318 0.5202 0.456 0.5102
3192.458 0.578 0.4919 0.4451 0.4524 0.32839 0.29105 0.385 0.3876 0.35443 0.4337
3211.748 0.4769 0.4052 0.3675 0.29058 0.267679 0.31662 0.32741 0.35682 0.30704 0.2309
3231.038 0.25852 0.272532 0.26168 0.274233 0.270871 0.31793 0.31096 0.26408 0.2845 0.34699
3250.328 0.31048 0.30876 0.34489 0.35726 0.3835 0.3958 0.32901 0.30442 0.31158 0.28049
3269.617 0.223 0.1786 0.218 0.238 0.30486 0.25874 0.2472 0.2364 0.2815 0.34352
3288.907 0.2002 0.2065 0.33247 0.36053 0.28444 0.142 0.091 0.127 0.2039 0.1966
3308.197 0.1961 0.148 0.048 0.196 0.3747 0.3988 0.3836 0.36423 0.26395 0.27997
3327.487 0.27472 0.2144 0.30399 0.33586 0.28916 0.1755 0.2102 0.31785 0.2107 0.148
3346.777 0.2249 0.31367 0.2551 0.132 0.127 0.1736 0.232 0.29804 0.2397 0.172
3366.066 0.2083 0.2135 0.31747 0.34248 0.173 0.135 0.192 0.274901 0.35668 0.3676
3385.356 0.29729 0.1961 0.27868 0.34405 0.26922 0.271107 0.33822 0.31908 0.32919 0.30967
3404.646 0.301 0.31913 0.191 0.2009 0.30354 0.34443 0.32587 0.31372 0.2982 0.28681
3423.936 0.3838 0.3741 0.27631 0.31758 0.2831 0.2171 0.2423 0.2763 0.31993 0.32463
3443.225 0.31181 0.2548 0.2423 0.33375 0.3763 0.3752 0.4101 0.4469 0.4651 0.4078
3462.515 0.418 0.5536 0.5557 0.4966 0.4091 0.4304 0.6338 0.6325 0.6298 0.9347
3481.805 1.0034 0.7282 0.7204 0.8964 0.9077 0.7945 0.7483 0.8125 0.9015 0.9513
3501.095 0.8894 0.9195 0.8943 0.7927 0.7666 0.6938 0.6063 0.5613 0.6621 0.7329
3520.385 0.6128 0.5873 0.6075 0.6289 0.6165 0.5225 0.4712 0.4979 0.4579 0.30965
3539.674 0.4837 0.5886 0.4245 0.4768 0.4658 0.31103 0.32198 0.26289 0.111 0.165
3558.964 0.33466 0.4277 0.4183 0.4225 0.32851 0.1881 0.2445 0.2538 0.26074 0.3239
3578.254 0.33242 0.28228 0.273645 0.2373 0.1993 0.2526 0.27972 0.31037 0.35725 0.3879
3597.544 0.4356 0.4359 0.31626 0.25811 0.35422 0.32383 0.195 0.154 0.147 0.158
3616.833 0.11 0.102 0.1737 0.31823 0.30736 0.2298 0.26309 0.30522 0.34983 0.2177
3636.123 0.13 0.176 0.081 0.173 0.31704 0.25687 0.26449 0.27805 0.2346 0.2083
3655.413 0.28846 0.3735 0.31466 0.152 0.1821 0.3674 0.32891 0.2043 0.162 0.30754
3674.703 0.5028 0.4584 0.3759 0.3877 0.3881 0.34605 0.31817 0.31417 0.36065 0.34688
3693.993 0.28185 0.2536 0.30784 0.30322 0.2122 0.2282 0.30556 0.28869 0.28605 0.34623
3713.282 0.4096 0.36582 0.34328 0.35843 0.33358 0.36467 0.3918 0.34585 0.2555 0.30722
3732.572 0.30991 0.28369 0.2512 0.2119 0.1926 0.117 0 0.2383 0.4368 0.34983
3751.862 0.2685 0.27685 0.3952 0.4117 0.4402 0.3891 0.30473 0.3718 0.4526 0.33639
3771.152 0.2327 0.2405 0.33909 0.35836 0.2021 0.29331 0.33613 0.32257 0.3805 0.31321
3790.441 0.31897 0.32897 0.28406 0.28723 0.219 0.147 0.2419 0.2833 0.29192 0.30797
3809.731 0.394 0.4284 0.32113 0.34933 0.36028 0.3378 0.4267 0.4166 0.31544 0.35893
3829.021 0.4412 0.443 0.4213 0.31488 0.2442 0.30475 0.31794 0.33684 0.4063 0.4401
3848.311 0.3959 0.34434 0.4557 0.4616 0.35453 0.4268 0.452 0.443 0.4797 0.4357
3867.601 0.32594 0.32255 0.3388 0.33138 0.3708 0.4213 0.33468 0.274252 0.31674 0.3694
3886.890 0.4451 0.4434 0.4141 0.3846 0.4485 0.5036 0.4168 0.36069 0.4268 0.4972
3906.180 0.4216 0.4376 0.3789 0.2545 0.4228 0.4471 0.35513 0.36178 0.4193 0.4968
3925.470 0.3956 0.2216 0.32237 0.4145 0.31892 0.4146 0.4831 0.4913 0.4804 0.3662
3944.760 0.34351 0.3682 0.3864 0.35521 0.34411 0.4714 0.5295 0.4191 0.4594 0.5289
3964.049 0.3885 0.3759 0.5159 0.5718 0.5123 0.5093 0.5853 0.4644 0.33062 0.27693
3983.339 0.29276 0.34522 0.1969 0.32895 0.388 0.36299 0.5816 0.5045 0.4738 0.4793
##END=
