##TITLE=5'-Chloro-2'-methoxy-2-methylvaleranilide
##JCAMP-DX=4.24
##DATA TYPE=INFRARED SPECTRUM
##ORIGIN=EPA-IR VAPOR PHASE LIBRARY
##OWNER=SRD/NIST
Collection (C) 2018 copyright by the U.S. Secretary of Commerce
on behalf of the United States of America. All rights reserved.
##CAS REGISTRY NO=209683-34-1
##MOLFORM=C 13 H 18 Cl N O 2
##$NIST SOURCE=MSDC-IR
##STATE=gas
##XUNITS=1/CM
##YUNITS=ABSORBANCE
##XFACTOR=1.
##YFACTOR=0.001
##DELTAX=3.85796
##FIRSTX=551.7
##LASTX=4000.7
##FIRSTY=5.88
##MAXX=4000.7
##MINX=551.688
##MAXY=0.22062
##MINY=0.00002133
##NPOINTS=895
##XYDATA=(X++(Y..Y))
551.688 5.88 6.42 7.26 8.15 9.02 10.35 12.18 14.46 17.07 18.93
590.268 19.34 18.42 16.43 14.08 11.95 10.22 8.98 8.06 7.54 7.55
628.847 8.38 10.96 16.27 22.9 26.06 22.74 15.89 10.47 7.65 5.98
667.427 4.84 4.07 3.54 3.15 2.84 2.67 2.58 2.56 2.55 2.59
706.006 2.61 2.57 2.59 2.76 2.93 3.06 3.23 3.5 3.65 3.67
744.586 3.71 3.71 3.73 3.81 3.86 3.93 4.02 4.18 4.68 5.71
783.165 7.65 10.87 15.15 18.58 19.28 17.15 13.5 9.89 7.01 5.15
821.745 4.09 3.46 3.13 2.96 2.95 3.08 3.19 3.3 3.54 3.89
860.324 4.52 5.55 7.17 9.33 11.83 14.22 15.65 15.8 15.78 16.6
898.904 18.42 20.89 23.33 24.84 23.82 20.01 15.32 11.83 10.13 9.72
937.484 9.72 9.7 9.24 8.08 6.65 5.45 4.75 4.47 4.43 4.57
976.063 4.93 5.47 6.08 6.73 7.53 8.6 9.81 11.29 13.23 15.78
1014.643 19.23 22.86 26.15 28.8 30.18 29.97 27.83 23.93 19.52 15.8
1053.222 13.05 11.57 11.18 11.51 11.96 11.97 12.07 12.55 13.5 14.94
1091.802 16.05 16.76 17.62 19.15 21.87 26.02 31.73 38.51 44.79 48.76
1130.381 50.05 49.88 48.72 45.55 40.1 34.88 32.93 34.84 39.2 43.92
1168.961 47.06 47.6 45.4 41.09 36.56 33.34 32.52 34.87 40.09 46.93
1207.540 53 55.36 53.15 48.03 43.14 41.24 43.29 48.92 56.61 63.23
1246.120 64.45 58.3 48.53 40.82 36.48 33.38 29.78 26.12 23.65 22.69
1284.699 22.86 23.77 24.83 25.44 25.39 24.67 23.33 21.41 18.98 16.35
1323.279 14.11 12.58 11.71 11.34 11.32 11.5 11.68 11.83 12.09 12.56
1361.859 13.17 13.96 14.95 16.36 18.45 21.05 23.74 26.9 31.95 41.1
1400.438 56.08 76.84 98.13 108.84 101.43 80.08 58.43 44.73 38.85 38.46
1439.018 40.82 43.41 45.35 48.69 56.7 71.4 89.08 104.94 113.44 111.87
1477.597 102.02 89.37 80.04 78.29 85.74 103.28 130.75 164.89 200.22 220.62
1516.177 215.39 184.23 139.98 99.17 69.22 49.96 37.78 29.7 24.44 20.95
1554.756 18.73 17.39 16.83 17.36 19.29 23.16 30.19 41.1 55.62 68.89
1593.336 72.2 61.25 42.71 27.23 18.26 13.61 10.99 9.36 8.27 7.51
1631.915 7.01 6.61 6.29 6.14 6.13 6.24 6.44 6.76 7.24 7.84
1670.495 8.58 9.42 10.39 11.57 13.14 15.26 18.32 22.73 29.38 39.19
1709.075 53.21 69.88 83.21 84.66 71.33 50.55 33.21 22.69 17.23 14.02
1747.654 11.82 10.05 8.68 7.62 6.83 6.2 5.65 5.15 4.68 4.26
1786.234 3.93 3.74 3.63 3.51 3.35 3.16 2.99 2.89 2.88 2.85
1824.813 2.79 2.7 2.6 2.47 2.3 2.16 2.01 1.84 1.73 1.6
1863.393 1.48 1.38 1.3 1.26 1.24 1.24 1.22 1.18 1.12 1.09
1901.972 1.07 1.03 1.02 1.02 0.9998 1.02 1.07 1.09 1.12 1.18
1940.552 1.19 1.16 1.12 1.11 1.1 1.07 1.07 1.09 1.09 1.1
1979.131 1.15 1.18 1.21 1.25 1.29 1.33 1.38 1.41 1.45 1.5
2017.711 1.52 1.56 1.6 1.59 1.54 1.54 1.54 1.51 1.51 1.53
2056.291 1.52 1.48 1.42 1.37 1.3 1.2 1.12 1.04 0.9313 0.8576
2094.870 0.8357 0.8212 0.82 0.8106 0.7815 0.7575 0.7755 0.7998 0.8045 0.7775
2133.450 0.745 0.7467 0.7483 0.7296 0.7098 0.7486 0.7826 0.7717 0.8071 0.8433
2172.029 0.8134 0.796 0.7809 0.7616 0.7514 0.7654 0.7858 0.7985 0.8511 0.8631
2210.609 0.8444 0.8786 0.9203 0.9573 0.9818 1.01 1.06 1.09 1.1 1.11
2249.188 1.06 1.02 1.01 0.9662 0.9425 0.9001 0.8855 0.9087 0.9114 0.8912
2287.768 0.8623 0.8633 0.861 0.8642 0.8762 0.9058 0.9236 0.9756 1.03 0.9919
2326.347 0.9286 0.879 0.8641 0.8057 0.7755 0.7689 0.7447 0.7723 0.8058 0.778
2364.927 0.7584 0.7727 0.7583 0.7584 0.7688 0.7848 0.8388 0.8749 0.8755 0.8683
2403.507 0.8845 0.9299 0.9798 1.02 1.04 1.07 1.04 0.9831 0.9448 0.9023
2442.086 0.8475 0.7604 0.7575 0.8028 0.8057 0.8099 0.8311 0.8784 0.9047 0.9343
2480.666 0.9725 0.999 1.05 1.07 1.08 1.11 1.09 1.09 1.12 1.15
2519.245 1.22 1.22 1.2 1.27 1.36 1.39 1.35 1.31 1.27 1.21
2557.825 1.18 1.18 1.11 1.02 0.9629 0.9649 0.969 0.9657 0.9857 1.01
2596.404 1.03 1.06 1.09 1.08 1.06 1.07 1.11 1.14 1.1 1.02
2634.984 1 1.02 1.04 1.05 1.07 1.11 1.15 1.15 1.16 1.18
2673.563 1.19 1.26 1.28 1.22 1.21 1.22 1.23 1.23 1.22 1.23
2712.143 1.26 1.29 1.33 1.42 1.5 1.55 1.63 1.73 1.85 1.95
2750.722 1.97 1.95 1.95 2 2.03 2.04 2.1 2.15 2.2 2.32
2789.302 2.51 2.74 3 3.24 3.53 3.92 4.33 4.87 5.5 6.22
2827.882 7.19 8.54 10.36 12.55 14.64 16.2 17.26 18.16 19.01 19.83
2866.461 20.88 22.33 24.57 27.64 30.45 31.67 31.14 30.05 29.46 29.64
2905.041 30.56 32.11 33.85 35.52 37.35 39.62 42.71 47.1 52.65 57.94
2943.620 60.73 59.95 57.35 56.09 58.48 64.37 70.64 71.97 65.53 53.92
2982.200 41.92 32.3 25.33 20.89 18.59 17.99 18.09 17.44 15.29 12.2
3020.779 9.51 7.83 6.79 6 5.45 4.97 4.56 4.29 4.1 4.02
3059.359 3.98 4.06 4.26 4.48 4.77 5.15 5.66 6.18 6.5 6.41
3097.938 5.99 5.4 4.68 4.12 3.91 3.85 3.79 3.64 3.35 2.93
3136.518 2.5 2.12 1.8 1.63 1.55 1.5 1.46 1.47 1.53 1.61
3175.098 1.66 1.61 1.57 1.56 1.51 1.39 1.26 1.12 1.01 0.9033
3213.677 0.7837 0.7094 0.6626 0.6165 0.5085 0.449 0.4684 0.483 0.469 0.3638
3252.257 0.2631 0.2611 0.2637 0.2889 0.273 0.2746 0.3176 0.2464 0.1707 0.1942
3290.836 0.2055 0.1699 0.1771 0.2414 0.2767 0.2974 0.2633 0.2539 0.3059 0.2886
3329.416 0.2838 0.2522 0.2253 0.2101 0.2207 0.2824 0.327 0.388 0.4785 0.5225
3367.995 0.5268 0.5897 0.6336 0.7506 0.9028 1.02 1.24 1.47 1.75 2.09
3406.575 2.45 2.79 3.23 3.95 4.93 6.19 8.03 10.92 15.21 20.37
3445.154 24.43 24.95 21.34 15.54 10.26 6.58 4.36 3.08 2.28 1.72
3483.734 1.31 1.06 0.9131 0.7592 0.6518 0.6229 0.4823 0.4081 0.4094 0.3746
3522.314 0.2964 0.2085 0.2239 0.1971 0.1518 0.1557 0.1738 0.2007 0.1527 0.1443
3560.893 0.1073 0.08989 0.1631 0.08176 0.02133 0.05345 0.08425 0.09461 0.09741 0.1043
3599.473 0.1341 0.177 0.1156 0.05733 0.09582 0.0993 0.07699 0.1172 0.1213 0.07927
3638.052 0.1142 0.1401 0.1514 0.1933 0.1921 0.177 0.1925 0.2246 0.1925 0.1493
3676.632 0.2234 0.2552 0.2055 0.1891 0.18 0.17 0.1788 0.215 0.2357 0.1684
3715.211 0.1774 0.204 0.1524 0.2124 0.2368 0.1834 0.1963 0.2254 0.3044 0.3181
3753.791 0.249 0.1787 0.1693 0.2384 0.241 0.1732 0.1611 0.1707 0.1582 0.188
3792.370 0.2358 0.215 0.1741 0.1575 0.119 0.08946 0.1053 0.1556 0.1267 0.1365
3830.950 0.1708 0.1742 0.1977 0.1882 0.2356 0.2945 0.2655 0.2989 0.3027 0.1727
3869.530 0.1431 0.2298 0.2594 0.2976 0.3348 0.2938 0.2702 0.3272 0.3529 0.284
3908.109 0.238 0.2787 0.3048 0.2258 0.2343 0.3131 0.3075 0.2737 0.3049 0.3638
3946.689 0.4327 0.4658 0.4568 0.4492 0.4812 0.5098 0.5099 0.5134 0.6057 0.627
3985.268 0.5664 0.5545 0.548 0.6203 0.5643
##END=
