##TITLE=Ethyl 3-Chloro-4-methylthiolcarbanilate
##JCAMP-DX=4.24
##DATA TYPE=INFRARED SPECTRUM
##ORIGIN=EPA-IR VAPOR PHASE LIBRARY
##OWNER=SRD/NIST
Collection (C) 2018 copyright by the U.S. Secretary of Commerce
on behalf of the United States of America. All rights reserved.
##CAS REGISTRY NO=209683-36-3
##MOLFORM=C 10 H 12 Cl N O S
##$NIST SOURCE=MSDC-IR
##STATE=gas
##XUNITS=1/CM
##YUNITS=ABSORBANCE
##XFACTOR=1.
##YFACTOR=0.001
##DELTAX=3.85796
##FIRSTX=551.7
##LASTX=4000.7
##FIRSTY=3.06726
##MAXX=4000.7
##MINX=551.688
##MAXY=0.112907
##MINY=0
##NPOINTS=895
##XYDATA=(X++(Y..Y))
551.688 3.06726 3.10726 3.17726 3.13726 3.04726 3.20726 3.68726 3.91726 3.88726 3.69726
590.268 3.53726 3.52726 3.53726 3.35726 3.30726 3.61726 3.82726 3.92726 3.84726 3.47726
628.847 3.26726 3.21726 3.16726 3.09726 2.90726 2.71726 2.66726 2.68726 2.67726 2.71726
667.427 2.76726 2.89726 3.02726 3.47726 4.70726 6.99726 9.83726 11.3473 10.4773 8.29726
706.006 6.28726 4.92726 4.04726 3.51726 3.21726 2.92726 2.69726 2.47726 2.32726 2.36726
744.586 2.80726 3.76726 4.82726 5.32726 4.95726 4.07726 3.39726 3.08726 2.97726 3.10726
783.165 3.36726 4.09726 5.30726 6.82726 8.23726 9.00726 9.67726 10.2173 10.0873 9.27726
821.745 7.83726 6.29726 5.22726 4.83726 5.17726 6.21726 7.96726 10.2073 12.4673 14.4473
860.324 16.2973 17.4073 17.4373 16.6373 15.2873 13.9973 12.9473 11.8373 10.6173 9.47726
898.904 8.44726 7.78726 7.71726 7.76726 7.60726 7.30726 6.68726 6.00726 5.46726 4.95726
937.484 4.56726 4.32726 4.05726 3.85726 3.92726 4.14726 4.54726 5.11726 5.70726 5.97726
976.063 5.81726 5.47726 5.21726 5.13726 5.31726 5.68726 5.76726 5.40726 4.89726 4.46726
1014.643 4.16726 4.05726 4.00726 4.11726 4.68726 5.72726 7.52726 10.4673 14.2473 17.2473
1053.222 17.7273 15.4773 11.7973 8.67726 6.97726 6.44726 6.50726 6.57726 6.90726 7.71726
1091.802 8.84726 10.8173 13.7173 17.8473 23.8373 32.7673 45.2573 59.6473 71.6273 76.5173
1130.381 71.5373 57.3973 39.7773 25.9073 18.9473 15.9473 13.8873 12.3473 10.8673 9.41726
1168.961 8.20726 7.40726 7.13726 7.11726 7.19726 7.55726 8.32726 9.70726 11.0573 11.5773
1207.540 11.0073 9.78726 8.76726 8.59726 9.71726 12.1373 15.0773 16.9073 16.5773 15.0773
1246.120 14.2873 15.1673 17.2473 19.7573 22.3773 24.0673 23.6673 21.8073 20.7573 21.8373
1284.699 23.4073 22.5173 18.6573 13.9273 10.4073 8.36726 7.23726 6.60726 6.25726 6.02726
1323.279 5.70726 5.19726 4.60726 4.10726 3.80726 3.75726 3.93726 4.30726 4.98726 6.19726
1361.859 8.06726 10.8473 14.4573 18.0473 20.3373 20.7273 20.3973 20.4273 19.7673 17.2673
1400.438 13.6673 10.7773 9.25726 8.75726 8.82726 9.20726 9.76726 10.5673 11.7773 13.4473
1439.018 15.5173 17.6673 19.5273 20.9273 21.9573 22.9273 24.0273 25.5173 27.4473 30.2273
1477.597 34.0573 39.0873 46.1673 57.5873 74.0273 90.7773 98.3273 91.5273 75.1273 58.1673
1516.177 43.9073 33.2073 25.8573 20.9473 17.2473 14.5573 12.8173 11.8673 11.5273 11.6273
1554.756 12.0373 12.7473 13.7873 15.0273 16.5273 17.9173 18.7873 18.8873 18.4573 18.1573
1593.336 18.6973 20.6973 24.4073 28.7073 30.7773 28.1773 21.4173 14.2073 9.42726 6.85726
1631.915 5.48726 4.71726 4.35726 4.15726 4.05726 4.07726 4.21726 4.47726 4.84726 5.33726
1670.495 6.04726 7.07726 8.62726 11.1773 15.6773 21.7673 27.6073 30.6673 30.1873 29.2373
1709.075 31.4873 36.3273 39.7073 38.9373 33.5973 25.8373 18.8473 13.5373 9.89726 7.34726
1747.654 5.72726 4.71726 4.14726 3.77726 3.48726 3.17726 2.84726 2.53726 2.33726 2.16726
1786.234 1.97726 1.77726 1.59726 1.42726 1.32726 1.23726 1.11726 1.05726 1.01726 0.95086
1824.813 0.87886 0.85116 0.84616 0.83646 0.83626 0.83546 0.87836 0.91416 0.93856 1.00066
1863.393 1.03726 1.04726 1.06726 1.11726 1.13726 1.09726 1.06726 1.02726 0.95786 0.90306
1901.972 0.82606 0.74236 0.66806 0.60946 0.57096 0.57246 0.59846 0.57526 0.54126 0.52406
1940.552 0.54866 0.56566 0.55276 0.55676 0.57636 0.57866 0.58406 0.64076 0.65596 0.61816
1979.131 0.65086 0.69996 0.66686 0.64826 0.63626 0.61146 0.62246 0.63326 0.63886 0.62776
2017.711 0.65036 0.63186 0.60486 0.61276 0.61126 0.62736 0.60086 0.57396 0.57756 0.60736
2056.291 0.63836 0.62946 0.63656 0.67126 0.67406 0.70446 0.77826 0.79236 0.82406 0.86846
2094.870 0.89916 0.92766 0.99196 1.11726 1.15726 1.19726 1.35726 1.51726 1.69726 1.86726
2133.450 2.00726 2.18726 2.36726 2.53726 2.72726 2.93726 3.07726 3.20726 3.39726 3.65726
2172.029 3.95726 4.39726 4.92726 5.49726 6.13726 6.86726 7.66726 8.53726 9.52726 10.5173
2210.609 11.5673 12.6873 13.9673 15.4673 17.1373 19.0673 21.2073 23.5873 26.3473 29.7173
2249.188 34.2773 40.8173 50.3873 64.1273 81.9473 100.197 112.187 112.907 101.597 82.2373
2287.768 62.0873 46.1573 35.2273 28.0773 23.3073 19.9173 17.2773 15.1873 13.5773 12.4073
2326.347 11.6173 11.1373 10.8473 10.6173 10.4173 10.2873 10.2973 10.4073 10.2773 9.67726
2364.927 8.59726 7.17726 5.82726 4.75726 3.90726 3.29726 2.91726 2.64726 2.40726 2.21726
2403.507 2.04726 1.90726 1.80726 1.75726 1.69726 1.56726 1.45726 1.42726 1.39726 1.36726
2442.086 1.28726 1.17726 1.05726 0.95746 0.89656 0.86476 0.82686 0.78676 0.79416 0.74176
2480.666 0.69026 0.68276 0.70666 0.72766 0.68026 0.71006 0.75356 0.70216 0.67836 0.70286
2519.245 0.71336 0.68376 0.61596 0.54756 0.49066 0.47036 0.48586 0.51236 0.49586 0.49296
2557.825 0.51236 0.51276 0.50016 0.53976 0.59886 0.62446 0.68146 0.67396 0.65386 0.67886
2596.404 0.72476 0.74276 0.72096 0.72496 0.70876 0.72176 0.72666 0.70476 0.69166 0.62986
2634.984 0.56066 0.52166 0.50256 0.51416 0.57526 0.61106 0.55086 0.51266 0.58076 0.64536
2673.563 0.69036 0.74416 0.74336 0.74146 0.78416 0.82376 0.84176 0.81706 0.76096 0.72096
2712.143 0.73456 0.72726 0.67296 0.67166 0.69316 0.73566 0.77316 0.82616 0.91826 0.93746
2750.722 0.89176 0.84756 0.79866 0.74946 0.69116 0.62336 0.59986 0.58766 0.59106 0.59406
2789.302 0.61126 0.65076 0.67286 0.72916 0.83016 0.92896 1.03726 1.12726 1.19726 1.33726
2827.882 1.50726 1.58726 1.64726 1.76726 1.91726 2.10726 2.31726 2.58726 3.06726 3.62726
2866.461 4.24726 4.86726 5.39726 5.79726 6.12726 6.42726 6.43726 6.08726 5.70726 5.59726
2905.041 5.68726 5.84726 6.20726 6.85726 7.72726 8.91726 10.7373 13.3173 16.2873 18.3673
2943.620 18.2173 15.9173 13.1373 11.3973 10.7673 10.7973 11.2173 11.7873 12.2573 12.4373
2982.200 12.2273 11.7073 10.7873 9.71726 8.73726 7.67726 6.61726 5.79726 5.21726 4.88726
3020.779 4.89726 5.16726 5.47726 5.56726 5.36726 4.99726 4.62726 4.26726 3.94726 3.67726
3059.359 3.44726 3.22726 3.06726 2.86726 2.64726 2.45726 2.29726 2.12726 1.93726 1.81726
3097.938 1.75726 1.75726 1.71726 1.55726 1.42726 1.35726 1.26726 1.16726 1.08726 1.08726
3136.518 1.10726 0.99196 0.87856 0.85826 0.76716 0.69316 0.69696 0.68026 0.60926 0.59186
3175.098 0.58076 0.56246 0.61036 0.62866 0.52396 0.42776 0.42296 0.39656 0.35036 0.32746
3213.677 0.34066 0.38466 0.35326 0.19786 0.15116 0.21716 0.20826 0.22496 0.19266 0.19196
3252.257 0.22166 0.14726 0.10406 0.10109 0.15246 0.11856 0.10846 0.20156 0.24066 0.23916
3290.836 0.25846 0.25736 0.16866 0.14066 0.18156 0.17506 0.18216 0.24566 0.23196 0.18326
3329.416 0.24196 0.32156 0.31736 0.26206 0.24276 0.34276 0.40346 0.36206 0.36486 0.36826
3367.995 0.41466 0.51696 0.59236 0.69656 0.79646 0.90136 1.08726 1.24726 1.48726 1.77726
3406.575 2.02726 2.49726 3.05726 3.51726 3.98726 4.38726 4.68726 5.06726 5.49726 5.61726
3445.154 5.23726 4.41726 3.36726 2.40726 1.70726 1.34726 1.08726 0.83416 0.66866 0.54846
3483.734 0.45126 0.37916 0.36406 0.37386 0.35666 0.26316 0.20306 0.25956 0.24456 0.17496
3522.314 0.16276 0.17566 0.12026 0.09509 0.16166 0.13876 0.10856 0.14006 0.10956 0.05633
3560.893 0.04084 0.0721 0.05598 0.07255 0.11946 0.04625 0.03374 0.06924 0.06429 0.05599
3599.473 0.09506 0.16186 0.25116 0.25986 0.24586 0.23946 0.22136 0.26556 0.24686 0.24246
3638.052 0.21486 0.25296 0.28656 0.28796 0.35496 0.35076 0.38856 0.44806 0.43576 0.43596
3676.632 0.42256 0.44166 0.39416 0.36756 0.46626 0.48976 0.47646 0.49376 0.47986 0.38876
3715.211 0.36096 0.36796 0.33416 0.32446 0.29616 0.23286 0.27866 0.30446 0.21076 0.16636
3753.791 0.23816 0.27726 0.20576 0.12636 0.15156 0.19566 0.24966 0.24256 0.17196 0.24726
3792.370 0.33666 0.32086 0.30216 0.22736 0.21706 0.31326 0.26196 0.14946 0.17616 0.20586
3830.950 0.15036 0.07305 0.06293 0.13336 0.16126 0.13546 0.0956 0.10183 0.09593 0.08602
3869.530 0.03945 0.02887 0.09768 0.07743 0.05494 0.01788 0 0.09084 0.12386 0.0987
3908.109 0.08815 0.08476 0.11006 0.10197 0.07383 0.11596 0.12726 0.15576 0.14526 0.10475
3946.689 0.14826 0.14056 0.20336 0.22236 0.11856 0.12556 0.12306 0.08608 0.08285 0.14786
3985.268 0.20626 0.22956 0.27416 0.21606 0.12806
##END=
