##TITLE=4,4'-Methylenebis(3-chlorophenyl)diisothiocyanate
##JCAMP-DX=4.24
##DATA TYPE=INFRARED SPECTRUM
##ORIGIN=EPA-IR VAPOR PHASE LIBRARY
##OWNER=SRD/NIST
Collection (C) 2018 copyright by the U.S. Secretary of Commerce
on behalf of the United States of America. All rights reserved.
##CAS REGISTRY NO=210101-80-7
##MOLFORM=C 15 H 8 Cl 2 N 2 S 2
##$NIST SOURCE=MSDC-IR
##STATE=gas
##XUNITS=1/CM
##YUNITS=ABSORBANCE
##XFACTOR=1.
##YFACTOR=0.001
##DELTAX=1.92898
##FIRSTX=549.8
##LASTX=4000.7
##FIRSTY=2.14
##MAXX=4000.7
##MINX=549.759
##MAXY=0.08898
##MINY=0
##NPOINTS=1790
##XYDATA=(X++(Y..Y))
549.759 2.14 2.02 2.18 2.17 2.11 1.83 1.47 1.5 1.61 1.45
569.049 1.35 1.0884 0.7459 1.1371 1.33 1.0801 1.0669 1.1868 1.0202 0.6926
588.339 0.4404 0.4945 0.671 0.641 0.9361 0.8449 0.6558 0.8235 0.7271 0.6105
607.628 0.6223 0.5547 0.6408 0.7629 0.6089 0.4435 0.5714 0.7569 0.9399 0.7875
626.918 0.37402 0.4393 0.6676 0.6297 0.537 0.6236 0.6111 0.4951 0.4041 0.2405
646.208 0.36666 0.6946 0.8466 0.8289 0.7574 0.7407 0.789 0.8846 0.9828 0.9802
665.498 1.1218 1.0673 0.7808 0.782 0.9528 0.8572 0.8265 1.2572 1.39 1.37
684.787 1.56 1.76 1.84 1.63 1.32 1.1791 1.1149 1.1812 1.2564 1.2136
704.077 1.13 1.0216 0.9721 1.0478 0.8847 0.6913 0.6935 0.6012 0.6363 0.8252
723.367 0.8737 0.8668 1.0784 1.169 1.0828 1.0558 1.1343 1.0992 0.8194 0.7455
742.657 0.955 0.9883 0.8051 0.5228 0.32264 0.4733 0.564 0.4507 0.4708 0.6166
761.947 0.6581 0.6165 0.6136 0.5217 0.416 0.4648 0.4417 0.5167 0.6242 0.549
781.236 0.5221 0.5474 0.8159 0.9812 0.9032 0.9256 0.8487 0.9275 1.1962 1.42
800.526 1.78 2.19 2.71 3.4 4.2 5.15 5.9 6.38 6.69 6.58
819.816 5.96 5.07 4.21 3.35 2.56 1.93 1.67 1.57 1.45 1.33
839.106 1.34 1.45 1.49 1.58 1.44 1.31 1.42 1.4 1.51 1.76
858.395 1.62 1.66 2 2.2 2.34 2.35 2.47 2.42 2.25 2.26
877.685 2.22 2.32 2.4 2.03 1.57 1.64 1.74 1.52 1.41 1.46
896.975 1.49 1.37 1.1657 1.1486 1.1856 1.0491 0.993 1.0042 1.0828 1.2408
916.265 1.31 1.39 1.47 1.73 1.94 2.13 2.62 2.88 3.03 3.43
935.555 3.77 4.13 4.77 5.67 6.6 7.36 7.91 8.1 7.94 7.32
954.844 6.3 5.09 4.28 3.67 3.09 2.61 2.05 1.73 1.62 1.53
974.134 1.33 1.1681 0.9727 0.9209 0.8968 0.8276 0.7485 0.682 0.6721 0.6048
993.424 0.6677 0.7688 0.64 0.4878 0.5645 0.6668 0.5102 0.149 0.168 0.6552
1012.714 0.7381 0.6374 0.6363 0.36091 0.4151 0.5491 0.36012 0.39201 0.32181 0.32807
1032.003 0.2875 0.01 0.163 0.5208 0.6951 0.7636 0.5645 0.38678 0.2792 0.39036
1051.293 0.7039 0.7513 1.0612 1.65 2.1 2.58 3.3 3.69 3.86 3.59
1070.583 3.07 2.68 2.06 1.7 1.0589 0.4453 0.5555 0.6323 0.5077 0.112
1089.873 0.018 0.2431 0.154 0.2291 0.7619 0.7648 0.32441 0.2737 0.2112 0.183
1109.163 0.303284 0.2833 0.33824 0.2731 0.021 0.089 0.37194 0.4712 0.4493 0.5157
1128.452 0.49 0.33045 0.2432 0.4981 0.5912 0.461 0.6404 0.9134 1.022 1.008
1147.742 1.0824 0.9772 0.7786 0.6369 0.7135 0.6506 0.5542 0.5165 0.31846 0.453
1167.032 0.426 0.2735 0.2661 0.37786 0.5735 0.814 0.8144 0.519 0.3557 0.4331
1186.322 0.623 1.012 1.1403 0.8957 0.7188 0.7611 0.9373 1.0086 1.2768 1.2195
1205.611 1.0465 0.9594 0.672 0.4503 0.6145 0.9113 0.8557 0.7078 0.591 0.4188
1224.901 0.6865 0.7761 0.4559 0.3585 0.6218 0.7854 0.6601 0.6871 0.597 0.7601
1244.191 1.0601 1.0023 0.9171 0.9898 1.0731 1.1139 1.0787 1.0012 1.1942 1.1919
1263.481 0.9159 0.7853 0.8419 1.1397 1.41 1.51 1.75 1.99 2.15 2.25
1282.771 2.14 2.14 2.18 1.96 1.71 1.64 1.49 1.31 1.36 1.2875
1302.060 1.2801 1.47 1.56 1.61 1.58 1.49 1.28 1.0598 0.9788 0.8509
1321.350 0.7874 0.7915 0.7299 0.6833 0.674 0.6525 0.6287 0.5943 0.5875 0.5806
1340.640 0.4961 0.4868 0.4925 0.4837 0.4612 0.4218 0.4663 0.4838 0.4629 0.52
1359.930 0.5447 0.5288 0.5873 0.6373 0.6432 0.646 0.6717 0.7235 0.8 0.9043
1379.219 0.9728 1.0291 1.1151 1.2246 1.37 1.54 1.73 1.87 2.07 2.33
1398.509 2.51 2.6 2.61 2.5 2.31 2.08 1.87 1.67 1.48 1.36
1417.799 1.2499 1.1696 1.1272 1.0946 1.1487 1.1774 1.248 1.36 1.43 1.53
1437.089 1.65 1.72 1.76 1.76 1.74 1.66 1.58 1.52 1.46 1.44
1456.378 1.5 1.55 1.62 1.75 1.88 2.05 2.32 2.72 3.22 3.85
1475.668 4.81 6.1 7.69 9.88 12.65 15.46 17.59 18.33 17.08 14.35
1494.958 11.27 8.54 6.52 5.12 4.16 3.51 3.02 2.66 2.36 2.09
1514.248 1.91 1.7 1.57 1.57 1.51 1.38 1.34 1.39 1.33 1.2444
1533.538 1.1932 1.2498 1.2273 1.1793 1.2451 1.2771 1.33 1.4 1.51 1.58
1552.827 1.65 1.72 1.7 1.71 1.7 1.73 1.62 1.45 1.37 1.32
1572.117 1.2713 1.196 1.1462 1.1208 1.1198 1.1556 1.2501 1.2358 1.2586 1.34
1591.407 1.38 1.45 1.57 1.67 1.68 1.73 1.69 1.58 1.4 1.2048
1610.697 1.0615 0.9652 0.9413 0.9002 0.7923 0.6691 0.6371 0.647 0.6242 0.6846
1629.986 0.6796 0.6201 0.6498 0.615 0.5507 0.546 0.618 0.6273 0.5359 0.4307
1649.276 0.37156 0.4426 0.5264 0.5613 0.5101 0.4705 0.5181 0.5021 0.4792 0.4898
1668.566 0.4677 0.4146 0.4339 0.4337 0.4087 0.4505 0.4856 0.4724 0.4505 0.4639
1687.856 0.5031 0.5011 0.4721 0.4544 0.403 0.4373 0.5054 0.4809 0.4588 0.484
1707.146 0.54 0.5514 0.5097 0.5155 0.5575 0.5877 0.5799 0.5559 0.5668 0.6037
1726.435 0.6486 0.6657 0.6642 0.6472 0.7151 0.7733 0.6849 0.703 0.7025 0.6673
1745.725 0.7012 0.6737 0.7354 0.7637 0.7665 0.7986 0.8153 0.8544 0.816 0.8073
1765.015 0.8257 0.7879 0.7719 0.7495 0.7501 0.7765 0.7844 0.7901 0.8323 0.7781
1784.305 0.7595 0.8516 0.8454 0.8777 0.8696 0.8736 0.9262 0.9142 0.9146 0.8927
1803.594 0.9039 0.9584 0.9665 0.9653 0.9609 1.0247 1.0551 1.054 1.0194 0.9662
1822.884 1.0186 1.0718 1.0229 1.0283 1.0521 1.0252 1.0568 1.0434 1.0416 1.0766
1842.174 1.0999 1.1165 1.0817 1.0409 1.0616 1.1022 1.1037 1.0977 1.1461 1.1788
1861.464 1.1959 1.2728 1.34 1.35 1.41 1.43 1.46 1.56 1.65 1.77
1880.754 1.86 1.9 2.01 2.1 2.19 2.33 2.35 2.37 2.43 2.47
1900.043 2.51 2.51 2.52 2.56 2.56 2.56 2.63 2.72 2.85 2.94
1919.333 2.99 3.11 3.22 3.37 3.56 3.72 3.92 4.12 4.32 4.56
1938.623 4.9 5.25 5.58 5.92 6.29 6.6 6.87 7.22 7.64 8.15
1957.913 8.63 9.12 9.69 10.28 10.89 11.62 12.44 13.3 14.14 15.02
1977.202 16.01 17.07 18.15 19.36 20.7 22.06 23.47 24.91 26.42 28.07
1996.492 29.8 31.48 33.18 35 36.81 38.64 40.48 42.23 44.04 45.74
2015.782 47.34 49.09 51.01 53.14 55.66 58.48 61.53 64.94 68.62 72.58
2035.072 76.58 80.48 84.02 86.82 88.64 88.98 87.66 84.77 80.67 75.72
2054.362 70.4 65.14 60.18 55.73 51.77 48.26 45.19 42.67 40.66 38.98
2073.651 37.71 36.75 35.98 35.48 35.25 35.22 35.39 35.66 36.03 36.49
2092.941 36.9 37.29 37.61 37.78 37.71 37.44 36.92 36.15 35.12 33.74
2112.231 32.24 30.68 29 27.38 25.86 24.39 23.01 21.75 20.65 19.61
2131.521 18.59 17.62 16.62 15.66 14.72 13.74 12.85 12.05 11.25 10.48
2150.810 9.85 9.26 8.7 8.29 7.88 7.53 7.25 6.84 6.46 6.17
2170.100 5.93 5.63 5.32 5.15 4.98 4.77 4.6 4.48 4.39 4.24
2189.390 4.11 4.05 4 4 3.92 3.83 3.78 3.7 3.59 3.56
2208.680 3.55 3.41 3.27 3.22 3.17 3.11 3.08 2.99 2.91 2.87
2227.970 2.83 2.73 2.62 2.48 2.38 2.27 2.11 1.98 1.85 1.81
2247.259 1.64 1.51 1.5 1.45 1.42 1.42 1.37 1.2588 1.1935 1.1966
2266.549 1.1319 1.0951 1.0925 1.077 1.0523 0.9883 0.9806 0.9907 1.0289 0.9506
2285.839 0.8802 0.9061 0.9095 0.8707 0.8325 0.8591 0.8526 0.8165 0.7856 0.809
2305.129 0.8346 0.8113 0.8738 0.8759 0.8336 0.8322 0.7789 0.8056 0.8401 0.8329
2324.418 0.8746 0.876 0.7753 0.7725 0.8384 0.8826 0.9727 1.0115 0.9526 0.9683
2343.708 0.9791 0.9351 1.0006 1.0354 1.0138 0.933 0.8562 0.8079 0.7859 0.7624
2362.998 0.7419 0.7934 0.7824 0.7325 0.7512 0.7678 0.7572 0.7242 0.7202 0.7292
2382.288 0.6967 0.7299 0.732 0.7376 0.8178 0.861 0.8633 0.8341 0.8094 0.9044
2401.578 0.8788 0.826 0.7962 0.7384 0.7777 0.8051 0.8091 0.7883 0.7602 0.7611
2420.867 0.8269 0.8039 0.7669 0.7381 0.7645 0.7867 0.7764 0.7434 0.7574 0.7803
2440.157 0.7066 0.6612 0.6641 0.7116 0.74 0.7267 0.6794 0.6998 0.7602 0.753
2459.447 0.7787 0.8604 0.8198 0.7094 0.7397 0.8389 0.8608 0.8669 0.9 0.9022
2478.737 0.8547 0.7997 0.801 0.8031 0.7907 0.8614 0.9267 0.9219 0.876 0.8933
2498.026 0.9516 0.9505 0.9096 0.9256 0.9492 0.9323 0.9271 0.9145 0.9782 0.9941
2517.316 0.9649 0.9971 1.0179 1.0176 0.984 1.035 1.0997 1.1577 1.1981 1.1747
2536.606 1.1883 1.1957 1.1693 1.1696 1.1628 1.176 1.1177 1.1174 1.1362 1.1714
2555.896 1.2503 1.2047 1.1467 1.128 1.1518 1.1405 1.1376 1.1607 1.1432 1.1361
2575.186 1.1346 1.0224 0.9895 0.9932 0.9596 0.9354 0.8999 0.8531 0.8468 0.7827
2594.475 0.8158 0.8985 0.879 0.8404 0.853 0.9058 0.8152 0.7852 0.8584 0.8885
2613.765 0.9254 0.8991 0.8655 0.9414 0.9435 0.8914 0.8021 0.8007 0.8476 0.8578
2633.055 0.85 0.8571 0.8481 0.8337 0.8271 0.7483 0.7706 0.8042 0.7756 0.7971
2652.345 0.7929 0.8263 0.8407 0.8003 0.8883 0.9407 0.8955 0.9847 1.0516 0.9304
2671.634 0.9204 0.8977 0.8769 0.9379 0.9712 1.0279 1.0282 1.0347 1.083 1.1075
2690.924 1.1443 1.1392 1.0902 1.1064 1.1342 1.1364 1.2369 1.35 1.36 1.33
2710.214 1.2123 1.1716 1.2323 1.2758 1.31 1.199 1.161 1.1989 1.1971 1.1464
2729.504 1.0062 0.9756 0.952 0.9244 0.9568 0.9418 0.8479 0.7662 0.7065 0.6989
2748.794 0.7617 0.8651 0.8356 0.6714 0.6507 0.6569 0.6711 0.6751 0.596 0.5967
2768.083 0.6039 0.7045 0.7408 0.642 0.6716 0.7037 0.6597 0.5728 0.5354 0.531
2787.373 0.5133 0.5617 0.5085 0.4637 0.442 0.4309 0.555 0.5677 0.4814 0.5495
2806.663 0.5956 0.5185 0.5601 0.5635 0.5119 0.5449 0.5012 0.434 0.39093 0.4065
2825.953 0.5038 0.5224 0.5434 0.602 0.5628 0.4858 0.469 0.6371 0.7583 0.7019
2845.242 0.6253 0.5457 0.5649 0.729 0.8376 0.7757 0.7696 0.7769 0.7669 0.7789
2864.532 0.7792 0.7804 0.7123 0.6916 0.6718 0.6127 0.6891 0.7214 0.7335 0.7546
2883.822 0.7686 0.695 0.5942 0.5936 0.6118 0.6287 0.5619 0.5364 0.6169 0.7581
2903.112 0.7947 0.7725 0.8769 1.0138 1.1793 1.1923 1.1617 1.2152 1.2926 1.37
2922.401 1.49 1.5 1.45 1.51 1.51 1.4 1.2794 1.2806 1.32 1.1785
2941.691 1.0701 1.1033 1.0274 1.0224 0.9285 0.811 0.8069 0.7368 0.6618 0.7246
2960.981 0.8128 0.7996 0.8303 0.77 0.7194 0.7949 0.725 0.667 0.7023 0.7375
2980.271 0.6265 0.5555 0.738 0.7549 0.6825 0.708 0.6851 0.6612 0.6689 0.6924
2999.561 0.7254 0.7435 0.785 0.7715 0.6864 0.6433 0.659 0.6233 0.6037 0.6717
3018.850 0.7578 0.6891 0.7032 0.7736 0.8375 0.9788 1.0672 1.1836 1.2617 1.35
3038.140 1.46 1.37 1.196 1.1306 1.0437 1.0582 1.1108 1.0551 1.0267 1.0241
3057.430 0.8836 0.7525 0.925 1.0443 1.0065 0.9096 0.8923 0.9199 0.9032 0.8351
3076.720 0.6909 0.6226 0.5637 0.6543 0.6218 0.5328 0.5372 0.5358 0.5998 0.6446
3096.009 0.5745 0.4694 0.4427 0.5297 0.4805 0.37268 0.4657 0.37232 0.38362 0.4564
3115.299 0.35526 0.4116 0.34683 0.2 0.184 0.2672 0.31742 0.2542 0.34771 0.36795
3134.589 0.37268 0.4773 0.34426 0.187 0.2293 0.36287 0.39821 0.304028 0.246 0.304232
3153.879 0.34766 0.4343 0.4814 0.4195 0.2866 0.2729 0.3362 0.2778 0.2452 0.31999
3173.169 0.4157 0.4226 0.34795 0.31615 0.31432 0.2123 0.152 0.2156 0.204 0.126
3192.458 0.2124 0.2714 0.305241 0.35458 0.35352 0.33143 0.2812 0.2444 0.296 0.32398
3211.748 0.2686 0.2753 0.198 0.181 0.2098 0.2228 0.307148 0.4225 0.4049 0.32424
3231.038 0.34197 0.4366 0.4636 0.2813 0.31143 0.3873 0.316 0.32217 0.39241 0.33456
3250.328 0.2258 0.2632 0.2352 0.2033 0.163 0.191 0.2361 0.082 0.166 0.35429
3269.617 0.4125 0.4962 0.39133 0.29571 0.33688 0.452 0.39893 0.29122 0.32517 0.35467
3288.907 0.36242 0.2844 0.2952 0.4193 0.5214 0.5386 0.39319 0.32523 0.4218 0.428
3308.197 0.37664 0.32118 0.39412 0.33674 0.299233 0.4078 0.27 0.2229 0.2771 0.14
3327.487 0.2031 0.31336 0.302642 0.3176 0.2546 0.189 0.2737 0.2853 0.172 0.162
3346.777 0.199 0.300374 0.2818 0.35198 0.4196 0.31352 0.32046 0.303934 0.306354 0.36743
3366.066 0.34116 0.33357 0.33896 0.29424 0.2785 0.4035 0.4674 0.4096 0.4112 0.2873
3385.356 0.153 0.2287 0.34756 0.4087 0.4538 0.4689 0.37261 0.2538 0.34529 0.39991
3404.646 0.32204 0.35874 0.37974 0.2268 0.115 0.2432 0.2737 0.2071 0.223 0.2563
3423.936 0.2248 0.2097 0.32376 0.35909 0.2888 0.2325 0.3138 0.4307 0.39774 0.2575
3443.225 0.2597 0.2893 0.18 0.2504 0.4325 0.34776 0.28 0.33851 0.32494 0.4072
3462.515 0.4237 0.33348 0.177 0.159 0.2566 0.32273 0.29786 0.166 0.142 0.2713
3481.805 0.35753 0.35626 0.37449 0.3438 0.3508 0.34154 0.2485 0.2565 0.2813 0.198
3501.095 0.2023 0.142 0 0.072 0.2105 0.2726 0.193 0.102 0.209 0.31514
3520.385 0.2837 0.186 0.169 0.2817 0.35852 0.4075 0.39882 0.2428 0.2244 0.36651
3539.674 0.423 0.33579 0.29581 0.4324 0.4272 0.2039 0.194 0.33733 0.30132 0.31859
3558.964 0.33919 0.191 0.156 0.2462 0.2361 0.112 0.197 0.2667 0.157 0.12
3578.254 0.182 0.2242 0.2526 0.31908 0.2753 0.185 0.2037 0.14 0.184 0.309446
3597.544 0.2619 0.236 0.2153 0.2796 0.33754 0.34423 0.31579 0.2735 0.31386 0.4798
3616.833 0.4937 0.2655 0.227 0.34962 0.33903 0.2199 0.135 0.166 0.17 0.2139
3636.123 0.303725 0.36407 0.36822 0.31136 0.31249 0.2038 0.2145 0.2794 0.2367 0.139
3655.413 0.183 0.2186 0.091 0.153 0.2798 0.34208 0.35215 0.31302 0.36945 0.39016
3674.703 0.34211 0.301946 0.2395 0.11 0.124 0.29749 0.2788 0.2828 0.2786 0.248
3693.993 0.2757 0.34478 0.33483 0.2648 0.2724 0.2698 0.2491 0.36618 0.5524 0.5767
3713.282 0.5025 0.38868 0.2045 0.125 0.218 0.31096 0.37377 0.36037 0.35073 0.2471
3732.572 0.2527 0.38162 0.32761 0.32733 0.412 0.4009 0.2812 0.2799 0.2461 0.139
3751.862 0.2032 0.36693 0.4258 0.34184 0.31966 0.37591 0.4117 0.39723 0.37895 0.36173
3771.152 0.32254 0.32912 0.305271 0.301934 0.35139 0.38813 0.31307 0.31763 0.3801 0.2813
3790.441 0.211 0.146 0.032 0.184 0.4028 0.4041 0.33623 0.2841 0.34239 0.36458
3809.731 0.32466 0.33603 0.29111 0.2381 0.221 0.36629 0.4755 0.4096 0.5079 0.435
3829.021 0.29725 0.32653 0.2892 0.2127 0.2734 0.3102 0.2145 0.159 0.2143 0.4164
3848.311 0.37008 0.2587 0.4382 0.4188 0.265 0.2761 0.2707 0.2115 0.129 0.14
3867.601 0.2267 0.2271 0.136 0.163 0.2461 0.2101 0.2404 0.2 0.2042 0.2372
3886.890 0.255 0.3864 0.299552 0.2776 0.4716 0.4649 0.31938 0.2825 0.32478 0.2663
3906.180 0.169 0.2296 0.31233 0.2394 0.2432 0.29036 0.34039 0.4819 0.4553 0.4046
3925.470 0.4919 0.4185 0.31368 0.33641 0.38116 0.5506 0.477 0.2548 0.33694 0.467
3944.760 0.4022 0.4176 0.4097 0.35849 0.479 0.4271 0.36614 0.5199 0.5579 0.37944
3964.049 0.2382 0.2306 0.4549 0.5816 0.4638 0.37907 0.4627 0.4517 0.36985 0.4543
3983.339 0.4655 0.5526 0.6438 0.6388 0.7458 0.7773 0.5714 0.5799 0.5589 0.441
##END=
