##TITLE=3-Nitrobiphenyl
##JCAMP-DX=4.24
$$ By DXEDIT 1.05 (RS McDonald)
##DATA TYPE=INFRARED SPECTRUM
##CLASS=COBLENTZ III
##ORIGIN=DOW CHEMICAL COMPANY
##OWNER=COPYRIGHT (C) 1988 by COBLENTZ SOCIETY INC.
Collection (C) 2018 copyright by the U.S. Secretary of Commerce
on behalf of the United States of America. All rights reserved.
##DATE=1961/08/23
##NAMES=3-nitro-1,1'-biphenyl
##CAS REGISTRY NO=2113-58-8
##MOLFORM=C12 H9 N O2
##SOURCE REFERENCE=COBLENTZ NO. 8545
##$NIST SOURCE=COBLENTZ
##$NIST IMAGE=cob8545
##SPECTROMETER/DATA SYSTEM=DOW KBr FOREPRISM-GRATING
##INSTRUMENT PARAMETERS=BLAZED AT 3.5, 12.0, 20.0 MICRON AND CHANGED AT 5.0, 7.5, 14.9 MICRON
##STATE=SOLUTION (10% CCl4 FOR 3800-1330, 10% CS2 FOR 1330-440 CM^-^1)
##PATH LENGTH=0.011 CM, 0.011 CM
$$SPECTRAL CONTAMINATION DUE TO CS2 AROUND 850 AND CCl4 AROUND 1550 CM^-^1 HAVE BEEN SUBTRACTED
##SAMPLING PROCEDURE=TRANSMISSION
##RESOLUTION=2
##DATA PROCESSING=DIGITIZED BY COBLENTZ SOCIETY (BATCH I) FROM HARD COPY
##XUNITS=1/CM
##YUNITS=TRANSMITTANCE
##XFACTOR=1
##YFACTOR=1
##DELTAX=1
##FIRSTX=3786
##LASTX=442
##FIRSTY=0.9307
##MAXX=3786
##MINX=442
##MAXY=0.9673
##MINY=0.0004
##NPOINTS=3345
##XYDATA=(X++(Y..Y))
3786.000000 0.9307 0.9306 0.9294 0.9286 0.9284
3781.000000 0.9294 0.9297 0.9282 0.9292 0.9292
3776.000000 0.9291 0.9273 0.9288 0.9286 0.9284
3771.000000 0.9281 0.9281 0.9278 0.9278 0.9276
3766.000000 0.9274 0.9274 0.9274 0.9273 0.9273
3761.000000 0.9271 0.9279 0.9278 0.9271 0.9271
3756.000000 0.9271 0.9273 0.9274 0.9274 0.9274
3751.000000 0.9276 0.9277 0.9281 0.9285 0.9290
3746.000000 0.9296 0.9301 0.9306 0.9311 0.9317
3741.000000 0.9318 0.9320 0.9324 0.9336 0.9336
3736.000000 0.9337 0.9337 0.9330 0.9319 0.9325
3731.000000 0.9328 0.9324 0.9320 0.9316 0.9312
3726.000000 0.9307 0.9303 0.9299 0.9294 0.9289
3721.000000 0.9286 0.9283 0.9263 0.9259 0.9270
3716.000000 0.9267 0.9265 0.9264 0.9263 0.9266
3711.000000 0.9271 0.9264 0.9274 0.9273 0.9270
3706.000000 0.9269 0.9268 0.9268 0.9270 0.9274
3701.000000 0.9276 0.9279 0.9281 0.9283 0.9285
3696.000000 0.9274 0.9274 0.9277 0.9279 0.9283
3691.000000 0.9288 0.9293 0.9299 0.9305 0.9307
3686.000000 0.9300 0.9301 0.9301 0.9301 0.9300
3681.000000 0.9299 0.9298 0.9297 0.9297 0.9296
3676.000000 0.9295 0.9295 0.9296 0.9296 0.9297
3671.000000 0.9297 0.9311 0.9300 0.9299 0.9299
3666.000000 0.9300 0.9301 0.9302 0.9302 0.9302
3661.000000 0.9302 0.9303 0.9303 0.9304 0.9304
3656.000000 0.9305 0.9305 0.9306 0.9306 0.9307
3651.000000 0.9307 0.9307 0.9307 0.9307 0.9306
3646.000000 0.9306 0.9306 0.9306 0.9305 0.9305
3641.000000 0.9304 0.9303 0.9302 0.9302 0.9301
3636.000000 0.9300 0.9299 0.9299 0.9304 0.9321
3631.000000 0.9324 0.9322 0.9313 0.9322 0.9333
3626.000000 0.9334 0.9335 0.9336 0.9336 0.9337
3621.000000 0.9337 0.9337 0.9339 0.9339 0.9339
3616.000000 0.9339 0.9337 0.9337 0.9336 0.9335
3611.000000 0.9334 0.9333 0.9326 0.9309 0.9312
3606.000000 0.9300 0.9288 0.9277 0.9269 0.9262
3601.000000 0.9273 0.9268 0.9259 0.9266 0.9275
3596.000000 0.9276 0.9276 0.9277 0.9277 0.9278
3591.000000 0.9279 0.9280 0.9280 0.9281 0.9268
3586.000000 0.9256 0.9235 0.9217 0.9198 0.9179
3581.000000 0.9162 0.9145 0.9164 0.9182 0.9191
3576.000000 0.9195 0.9197 0.9217 0.9225 0.9226
3571.000000 0.9223 0.9228 0.9231 0.9235 0.9238
3566.000000 0.9241 0.9245 0.9249 0.9252 0.9255
3561.000000 0.9258 0.9261 0.9264 0.9268 0.9271
3556.000000 0.9275 0.9293 0.9281 0.9282 0.9296
3551.000000 0.9296 0.9292 0.9283 0.9294 0.9294
3546.000000 0.9294 0.9287 0.9285 0.9294 0.9294
3541.000000 0.9294 0.9284 0.9288 0.9283 0.9288
3536.000000 0.9293 0.9293 0.9293 0.9291 0.9291
3531.000000 0.9291 0.9291 0.9274 0.9274 0.9274
3526.000000 0.9274 0.9274 0.9274 0.9274 0.9276
3521.000000 0.9276 0.9277 0.9277 0.9277 0.9277
3516.000000 0.9277 0.9277 0.9280 0.9279 0.9281
3511.000000 0.9281 0.9280 0.9280 0.9282 0.9282
3506.000000 0.9283 0.9283 0.9283 0.9282 0.9284
3501.000000 0.9284 0.9285 0.9285 0.9286 0.9286
3496.000000 0.9286 0.9286 0.9287 0.9287 0.9288
3491.000000 0.9288 0.9288 0.9288 0.9289 0.9289
3486.000000 0.9290 0.9290 0.9290 0.9291 0.9292
3481.000000 0.9293 0.9295 0.9296 0.9298 0.9299
3476.000000 0.9300 0.9301 0.9303 0.9304 0.9306
3471.000000 0.9307 0.9309 0.9310 0.9312 0.9313
3466.000000 0.9315 0.9316 0.9318 0.9319 0.9321
3461.000000 0.9322 0.9324 0.9325 0.9326 0.9328
3456.000000 0.9329 0.9329 0.9332 0.9333 0.9335
3451.000000 0.9336 0.9338 0.9339 0.9341 0.9342
3446.000000 0.9344 0.9345 0.9347 0.9348 0.9350
3441.000000 0.9351 0.9352 0.9353 0.9354 0.9355
3436.000000 0.9356 0.9357 0.9358 0.9359 0.9360
3431.000000 0.9361 0.9362 0.9363 0.9365 0.9366
3426.000000 0.9367 0.9355 0.9368 0.9371 0.9371
3421.000000 0.9373 0.9374 0.9374 0.9376 0.9377
3416.000000 0.9378 0.9380 0.9380 0.9380 0.9380
3411.000000 0.9380 0.9380 0.9380 0.9380 0.9386
3406.000000 0.9385 0.9378 0.9378 0.9378 0.9378
3401.000000 0.9378 0.9378 0.9378 0.9378 0.9378
3396.000000 0.9378 0.9376 0.9376 0.9376 0.9376
3391.000000 0.9375 0.9375 0.9375 0.9375 0.9375
3386.000000 0.9375 0.9373 0.9373 0.9373 0.9373
3381.000000 0.9373 0.9373 0.9372 0.9372 0.9370
3376.000000 0.9370 0.9370 0.9370 0.9370 0.9370
3371.000000 0.9369 0.9383 0.9369 0.9368 0.9367
3366.000000 0.9367 0.9367 0.9367 0.9365 0.9365
3361.000000 0.9365 0.9365 0.9365 0.9365 0.9365
3356.000000 0.9365 0.9365 0.9366 0.9366 0.9366
3351.000000 0.9366 0.9366 0.9366 0.9366 0.9366
3346.000000 0.9367 0.9380 0.9384 0.9369 0.9382
3341.000000 0.9368 0.9367 0.9368 0.9385 0.9384
3336.000000 0.9382 0.9368 0.9368 0.9368 0.9369
3331.000000 0.9369 0.9369 0.9369 0.9369 0.9369
3326.000000 0.9369 0.9369 0.9369 0.9369 0.9369
3321.000000 0.9369 0.9369 0.9369 0.9369 0.9369
3316.000000 0.9371 0.9371 0.9371 0.9371 0.9387
3311.000000 0.9387 0.9388 0.9388 0.9386 0.9375
3306.000000 0.9388 0.9388 0.9383 0.9372 0.9372
3301.000000 0.9372 0.9372 0.9372 0.9372 0.9372
3296.000000 0.9374 0.9374 0.9374 0.9374 0.9374
3291.000000 0.9374 0.9374 0.9374 0.9374 0.9374
3286.000000 0.9374 0.9374 0.9374 0.9388 0.9386
3281.000000 0.9372 0.9375 0.9388 0.9383 0.9372
3276.000000 0.9377 0.9388 0.9388 0.9387 0.9387
3271.000000 0.9387 0.9387 0.9385 0.9384 0.9384
3266.000000 0.9384 0.9382 0.9381 0.9380 0.9379
3261.000000 0.9377 0.9376 0.9374 0.9373 0.9370
3256.000000 0.9355 0.9369 0.9367 0.9365 0.9364
3251.000000 0.9362 0.9361 0.9359 0.9358 0.9356
3246.000000 0.9355 0.9346 0.9345 0.9350 0.9349
3241.000000 0.9346 0.9342 0.9339 0.9335 0.9331
3236.000000 0.9328 0.9325 0.9322 0.9318 0.9314
3231.000000 0.9310 0.9307 0.9303 0.9300 0.9294
3226.000000 0.9277 0.9277 0.9286 0.9282 0.9279
3221.000000 0.9276 0.9275 0.9274 0.9273 0.9272
3216.000000 0.9271 0.9269 0.9268 0.9267 0.9266
3211.000000 0.9264 0.9263 0.9262 0.9247 0.9242
3206.000000 0.9241 0.9240 0.9239 0.9237 0.9236
3201.000000 0.9235 0.9236 0.9246 0.9235 0.9243
3196.000000 0.9234 0.9246 0.9246 0.9245 0.9245
3191.000000 0.9245 0.9237 0.9237 0.9244 0.9244
3186.000000 0.9234 0.9228 0.9228 0.9228 0.9228
3181.000000 0.9228 0.9228 0.9228 0.9228 0.9227
3176.000000 0.9226 0.9224 0.9223 0.9220 0.9220
3171.000000 0.9219 0.9217 0.9215 0.9214 0.9212
3166.000000 0.9211 0.9209 0.9215 0.9222 0.9212
3161.000000 0.9212 0.9218 0.9214 0.9201 0.9205
3156.000000 0.9195 0.9188 0.9199 0.9198 0.9194
3151.000000 0.9191 0.9188 0.9185 0.9166 0.9162
3146.000000 0.9158 0.9154 0.9151 0.9146 0.9142
3141.000000 0.9142 0.9149 0.9145 0.9141 0.9135
3136.000000 0.9130 0.9123 0.9117 0.9110 0.9104
3131.000000 0.9095 0.9088 0.9079 0.9070 0.9062
3126.000000 0.9054 0.9046 0.9037 0.9011 0.8985
3121.000000 0.8949 0.8912 0.8874 0.8835 0.8791
3116.000000 0.8747 0.8698 0.8653 0.8606 0.8558
3111.000000 0.8507 0.8456 0.8409 0.8363 0.8328
3106.000000 0.8292 0.8250 0.8208 0.8153 0.8097
3101.000000 0.8025 0.7967 0.7864 0.7758 0.7654
3096.000000 0.7551 0.7427 0.7289 0.7244 0.7198
3091.000000 0.7173 0.7159 0.7133 0.7112 0.7089
3086.000000 0.7069 0.6985 0.6906 0.6787 0.6667
3081.000000 0.6441 0.6214 0.6207 0.6198 0.6212
3076.000000 0.6209 0.6212 0.6222 0.6227 0.6219
3071.000000 0.6225 0.6233 0.6254 0.6297 0.6318
3066.000000 0.6350 0.6381 0.6412 0.6509 0.6616
3061.000000 0.6735 0.6858 0.6986 0.7107 0.7223
3056.000000 0.7335 0.7462 0.7582 0.7641 0.7756
3051.000000 0.7765 0.7770 0.7766 0.7760 0.7746
3046.000000 0.7742 0.7717 0.7700 0.7556 0.7414
3041.000000 0.7203 0.6993 0.6770 0.6547 0.6342
3036.000000 0.6130 0.6118 0.6115 0.6885 0.7656
3031.000000 0.7755 0.7846 0.7874 0.7911 0.7941
3026.000000 0.7970 0.8007 0.8044 0.8083 0.8125
3021.000000 0.8165 0.8204 0.8257 0.8304 0.8354
3016.000000 0.8394 0.8444 0.8495 0.8539 0.8585
3011.000000 0.8613 0.8643 0.8656 0.8668 0.8667
3006.000000 0.8684 0.8703 0.8712 0.8716 0.8715
3001.000000 0.8729 0.8749 0.8773 0.8793 0.8819
2996.000000 0.8846 0.8870 0.8897 0.8934 0.8965
2991.000000 0.8985 0.9005 0.9023 0.9042 0.9058
2986.000000 0.9075 0.9090 0.9106 0.9118 0.9131
2981.000000 0.9134 0.9142 0.9155 0.9151 0.9147
2976.000000 0.9158 0.9159 0.9160 0.9161 0.9162
2971.000000 0.9162 0.9163 0.9175 0.9180 0.9180
2966.000000 0.9183 0.9184 0.9184 0.9184 0.9186
2961.000000 0.9187 0.9188 0.9204 0.9203 0.9190
2956.000000 0.9191 0.9193 0.9212 0.9213 0.9216
2951.000000 0.9218 0.9221 0.9223 0.9224 0.9216
2946.000000 0.9207 0.9204 0.9213 0.9209 0.9212
2941.000000 0.9196 0.9194 0.9185 0.9174 0.9160
2936.000000 0.9146 0.9116 0.9097 0.9079 0.9062
2931.000000 0.9045 0.9028 0.9003 0.8979 0.8949
2926.000000 0.8920 0.8890 0.8859 0.8831 0.8799
2921.000000 0.8776 0.8763 0.8757 0.8750 0.8748
2916.000000 0.8731 0.8758 0.8767 0.8797 0.8827
2911.000000 0.8853 0.8879 0.8899 0.8934 0.8954
2906.000000 0.8956 0.8971 0.8986 0.9000 0.9014
2901.000000 0.9025 0.9036 0.9041 0.9047 0.9052
2896.000000 0.9058 0.9060 0.9063 0.9064 0.9064
2891.000000 0.9064 0.9063 0.9061 0.9058 0.9042
2886.000000 0.9025 0.8990 0.8955 0.8898 0.8840
2881.000000 0.8765 0.8690 0.8590 0.8494 0.8382
2876.000000 0.8298 0.8200 0.8103 0.8059 0.8016
2871.000000 0.8073 0.8129 0.8238 0.8348 0.8457
2866.000000 0.8567 0.8656 0.8745 0.8780 0.8815
2861.000000 0.8826 0.8837 0.8837 0.8838 0.8837
2856.000000 0.8836 0.8803 0.8757 0.8701 0.8647
2851.000000 0.8639 0.8632 0.8630 0.8630 0.8632
2846.000000 0.8647 0.8674 0.8698 0.8731 0.8782
2841.000000 0.8816 0.8845 0.8885 0.8937 0.9007
2836.000000 0.9068 0.9086 0.9112 0.9129 0.9147
2831.000000 0.9152 0.9157 0.9175 0.9170 0.9187
2826.000000 0.9194 0.9181 0.9183 0.9200 0.9188
2821.000000 0.9204 0.9205 0.9203 0.9191 0.9192
2816.000000 0.9192 0.9192 0.9192 0.9191 0.9190
2811.000000 0.9188 0.9187 0.9186 0.9194 0.9200
2806.000000 0.9199 0.9198 0.9197 0.9200 0.9203
2801.000000 0.9206 0.9210 0.9213 0.9217 0.9222
2796.000000 0.9229 0.9237 0.9246 0.9255 0.9261
2791.000000 0.9257 0.9271 0.9265 0.9271 0.9277
2786.000000 0.9282 0.9293 0.9308 0.9301 0.9294
2781.000000 0.9304 0.9312 0.9313 0.9314 0.9303
2776.000000 0.9294 0.9283 0.9273 0.9266 0.9260
2771.000000 0.9259 0.9259 0.9259 0.9262 0.9267
2766.000000 0.9272 0.9278 0.9283 0.9288 0.9294
2761.000000 0.9298 0.9303 0.9307 0.9311 0.9316
2756.000000 0.9320 0.9323 0.9327 0.9332 0.9337
2751.000000 0.9339 0.9342 0.9344 0.9347 0.9349
2746.000000 0.9351 0.9352 0.9353 0.9355 0.9355
2741.000000 0.9356 0.9356 0.9354 0.9353 0.9352
2736.000000 0.9351 0.9350 0.9349 0.9348 0.9348
2731.000000 0.9347 0.9346 0.9345 0.9344 0.9343
2726.000000 0.9343 0.9342 0.9340 0.9339 0.9339
2721.000000 0.9338 0.9337 0.9336 0.9335 0.9333
2716.000000 0.9330 0.9329 0.9327 0.9324 0.9322
2711.000000 0.9319 0.9318 0.9316 0.9314 0.9311
2706.000000 0.9309 0.9305 0.9303 0.9300 0.9298
2701.000000 0.9295 0.9292 0.9287 0.9284 0.9279
2696.000000 0.9273 0.9266 0.9258 0.9248 0.9239
2691.000000 0.9234 0.9231 0.9231 0.9232 0.9232
2686.000000 0.9233 0.9237 0.9242 0.9246 0.9250
2681.000000 0.9253 0.9257 0.9262 0.9266 0.9269
2676.000000 0.9273 0.9278 0.9283 0.9286 0.9289
2671.000000 0.9290 0.9292 0.9293 0.9295 0.9297
2666.000000 0.9299 0.9300 0.9303 0.9304 0.9306
2661.000000 0.9308 0.9310 0.9310 0.9312 0.9326
2656.000000 0.9325 0.9323 0.9321 0.9319 0.9316
2651.000000 0.9307 0.9294 0.9289 0.9291 0.9294
2646.000000 0.9289 0.9275 0.9265 0.9261 0.9269
2641.000000 0.9258 0.9249 0.9245 0.9241 0.9239
2636.000000 0.9238 0.9236 0.9249 0.9247 0.9246
2631.000000 0.9231 0.9234 0.9249 0.9252 0.9253
2626.000000 0.9255 0.9256 0.9257 0.9258 0.9260
2621.000000 0.9261 0.9263 0.9264 0.9266 0.9267
2616.000000 0.9268 0.9269 0.9271 0.9272 0.9275
2611.000000 0.9276 0.9277 0.9278 0.9279 0.9280
2606.000000 0.9281 0.9281 0.9283 0.9284 0.9284
2601.000000 0.9286 0.9287 0.9288 0.9288 0.9290
2596.000000 0.9291 0.9291 0.9294 0.9295 0.9296
2591.000000 0.9298 0.9299 0.9300 0.9301 0.9303
2586.000000 0.9306 0.9308 0.9310 0.9312 0.9314
2581.000000 0.9316 0.9319 0.9321 0.9323 0.9325
2576.000000 0.9327 0.9329 0.9331 0.9333 0.9335
2571.000000 0.9336 0.9341 0.9343 0.9344 0.9344
2566.000000 0.9344 0.9344 0.9346 0.9346 0.9347
2561.000000 0.9347 0.9347 0.9346 0.9344 0.9340
2556.000000 0.9339 0.9336 0.9333 0.9331 0.9329
2551.000000 0.9329 0.9329 0.9330 0.9331 0.9332
2546.000000 0.9333 0.9333 0.9335 0.9336 0.9338
2541.000000 0.9339 0.9340 0.9340 0.9342 0.9343
2536.000000 0.9345 0.9346 0.9347 0.9348 0.9350
2531.000000 0.9351 0.9353 0.9353 0.9353 0.9353
2526.000000 0.9354 0.9354 0.9354 0.9354 0.9354
2521.000000 0.9354 0.9355 0.9355 0.9355 0.9355
2516.000000 0.9355 0.9355 0.9355 0.9355 0.9354
2511.000000 0.9354 0.9354 0.9354 0.9354 0.9353
2506.000000 0.9353 0.9352 0.9352 0.9352 0.9352
2501.000000 0.9351 0.9351 0.9350 0.9350 0.9350
2496.000000 0.9351 0.9352 0.9353 0.9353 0.9354
2491.000000 0.9354 0.9355 0.9355 0.9356 0.9356
2486.000000 0.9357 0.9357 0.9357 0.9357 0.9357
2481.000000 0.9366 0.9372 0.9371 0.9370 0.9367
2476.000000 0.9365 0.9362 0.9359 0.9355 0.9353
2471.000000 0.9350 0.9347 0.9341 0.9337 0.9332
2466.000000 0.9327 0.9321 0.9316 0.9302 0.9292
2461.000000 0.9280 0.9268 0.9252 0.9232 0.9215
2456.000000 0.9198 0.9171 0.9150 0.9143 0.9131
2451.000000 0.9119 0.9094 0.9096 0.9093 0.9086
2446.000000 0.9080 0.9096 0.9112 0.9139 0.9165
2441.000000 0.9180 0.9196 0.9211 0.9225 0.9240
2436.000000 0.9255 0.9267 0.9278 0.9288 0.9297
2431.000000 0.9307 0.9316 0.9326 0.9337 0.9344
2426.000000 0.9350 0.9358 0.9366 0.9373 0.9380
2421.000000 0.9381 0.9381 0.9381 0.9379 0.9374
2416.000000 0.9369 0.9364 0.9360 0.9349 0.9340
2411.000000 0.9326 0.9312 0.9294 0.9278 0.9242
2406.000000 0.9222 0.9206 0.9190 0.9188 0.9187
2401.000000 0.9201 0.9214 0.9238 0.9260 0.9274
2396.000000 0.9289 0.9296 0.9303 0.9310 0.9317
2391.000000 0.9320 0.9326 0.9345 0.9349 0.9352
2386.000000 0.9356 0.9359 0.9373 0.9373 0.9374
2381.000000 0.9374 0.9361 0.9357 0.9356 0.9353
2376.000000 0.9351 0.9351 0.9361 0.9372 0.9376
2371.000000 0.9380 0.9385 0.9377 0.9377 0.9381
2366.000000 0.9386 0.9391 0.9397 0.9401 0.9407
2361.000000 0.9412 0.9433 0.9439 0.9459 0.9467
2356.000000 0.9491 0.9509 0.9513 0.9520 0.9525
2351.000000 0.9524 0.9520 0.9526 0.9540 0.9562
2346.000000 0.9575 0.9581 0.9576 0.9575 0.9581
2341.000000 0.9585 0.9590 0.9578 0.9592 0.9595
2336.000000 0.9581 0.9583 0.9601 0.9604 0.9606
2331.000000 0.9610 0.9627 0.9629 0.9631 0.9638
2326.000000 0.9651 0.9661 0.9673 0.9673 0.9673
2321.000000 0.9673 0.9673 0.9673 0.9673 0.9671
2316.000000 0.9671 0.9670 0.9668 0.9667 0.9666
2311.000000 0.9649 0.9634 0.9610 0.9586 0.9567
2306.000000 0.9548 0.9533 0.9519 0.9505 0.9493
2301.000000 0.9481 0.9469 0.9464 0.9466 0.9460
2296.000000 0.9453 0.9449 0.9444 0.9440 0.9437
2291.000000 0.9437 0.9437 0.9438 0.9428 0.9426
2286.000000 0.9429 0.9433 0.9437 0.9426 0.9429
2281.000000 0.9433 0.9437 0.9440 0.9428 0.9433
2276.000000 0.9434 0.9424 0.9428 0.9430 0.9428
2271.000000 0.9419 0.9422 0.9418 0.9412 0.9414
2266.000000 0.9418 0.9410 0.9405 0.9409 0.9412
2261.000000 0.9401 0.9400 0.9403 0.9392 0.9392
2256.000000 0.9395 0.9397 0.9384 0.9386 0.9389
2251.000000 0.9390 0.9377 0.9379 0.9383 0.9385
2246.000000 0.9388 0.9385 0.9376 0.9377 0.9380
2241.000000 0.9383 0.9384 0.9387 0.9391 0.9391
2236.000000 0.9392 0.9382 0.9377 0.9378 0.9379
2231.000000 0.9381 0.9382 0.9383 0.9384 0.9385
2226.000000 0.9386 0.9387 0.9388 0.9390 0.9389
2221.000000 0.9379 0.9382 0.9384 0.9387 0.9389
2216.000000 0.9393 0.9396 0.9399 0.9400 0.9403
2211.000000 0.9404 0.9407 0.9409 0.9412 0.9413
2206.000000 0.9415 0.9417 0.9419 0.9421 0.9423
2201.000000 0.9424 0.9426 0.9428 0.9431 0.9433
2196.000000 0.9433 0.9423 0.9439 0.9437 0.9428
2191.000000 0.9430 0.9432 0.9433 0.9436 0.9439
2186.000000 0.9440 0.9444 0.9455 0.9454 0.9451
2181.000000 0.9453 0.9455 0.9457 0.9473 0.9479
2176.000000 0.9482 0.9484 0.9486 0.9488 0.9492
2171.000000 0.9494 0.9497 0.9497 0.9485 0.9486
2166.000000 0.9489 0.9492 0.9493 0.9496 0.9499
2161.000000 0.9502 0.9506 0.9508 0.9511 0.9514
2156.000000 0.9517 0.9520 0.9523 0.9527 0.9530
2151.000000 0.9533 0.9536 0.9538 0.9541 0.9546
2146.000000 0.9549 0.9549 0.9551 0.9552 0.9553
2141.000000 0.9554 0.9555 0.9556 0.9557 0.9557
2136.000000 0.9558 0.9559 0.9560 0.9561 0.9562
2131.000000 0.9562 0.9563 0.9563 0.9564 0.9564
2126.000000 0.9564 0.9564 0.9565 0.9565 0.9551
2121.000000 0.9563 0.9566 0.9566 0.9566 0.9565
2116.000000 0.9565 0.9564 0.9563 0.9562 0.9562
2111.000000 0.9561 0.9560 0.9559 0.9559 0.9550
2106.000000 0.9543 0.9529 0.9515 0.9504 0.9492
2101.000000 0.9491 0.9491 0.9491 0.9480 0.9479
2096.000000 0.9494 0.9498 0.9486 0.9501 0.9505
2091.000000 0.9507 0.9510 0.9512 0.9515 0.9518
2086.000000 0.9521 0.9520 0.9520 0.9519 0.9518
2081.000000 0.9517 0.9516 0.9515 0.9514 0.9513
2076.000000 0.9512 0.9511 0.9511 0.9510 0.9509
2071.000000 0.9513 0.9517 0.9522 0.9527 0.9533
2066.000000 0.9537 0.9543 0.9547 0.9554 0.9559
2061.000000 0.9564 0.9570 0.9574 0.9579 0.9587
2056.000000 0.9604 0.9606 0.9612 0.9616 0.9613
2051.000000 0.9615 0.9628 0.9624 0.9620 0.9622
2046.000000 0.9624 0.9625 0.9627 0.9629 0.9630
2041.000000 0.9630 0.9630 0.9621 0.9614 0.9605
2036.000000 0.9597 0.9589 0.9582 0.9572 0.9563
2031.000000 0.9551 0.9540 0.9528 0.9522 0.9523
2026.000000 0.9507 0.9512 0.9521 0.9524 0.9528
2021.000000 0.9533 0.9537 0.9540 0.9544 0.9547
2016.000000 0.9552 0.9555 0.9559 0.9563 0.9567
2011.000000 0.9571 0.9575 0.9578 0.9581 0.9583
2006.000000 0.9585 0.9587 0.9591 0.9593 0.9595
2001.000000 0.9598 0.9602 0.9605 0.9602 0.9596
1996.000000 0.9599 0.9603 0.9606 0.9614 0.9601
1991.000000 0.9598 0.9592 0.9584 0.9574 0.9549
1986.000000 0.9379 0.9042 0.8994 0.8986 0.8978
1981.000000 0.8969 0.8961 0.8947 0.8917 0.8900
1976.000000 0.8878 0.8842 0.8806 0.8755 0.8700
1971.000000 0.8644 0.8595 0.8557 0.8512 0.8514
1966.000000 0.8524 0.8515 0.8519 0.8607 0.8700
1961.000000 0.8787 0.8713 0.8597 0.8482 0.8463
1956.000000 0.8456 0.8450 0.8428 0.8413 0.8378
1951.000000 0.8364 0.8340 0.8332 0.8402 0.8499
1946.000000 0.8598 0.8689 0.8770 0.8830 0.8868
1941.000000 0.8905 0.8943 0.8952 0.8962 0.8970
1936.000000 0.8981 0.8986 0.8991 0.8996 0.9000
1931.000000 0.9005 0.9007 0.9009 0.9012 0.9014
1926.000000 0.9052 0.9011 0.9010 0.9008 0.9005
1921.000000 0.8994 0.8970 0.8947 0.8917 0.8889
1916.000000 0.8834 0.8710 0.8649 0.8604 0.8561
1911.000000 0.8521 0.8486 0.8451 0.8423 0.8371
1906.000000 0.8406 0.8398 0.8392 0.8388 0.8451
1901.000000 0.8500 0.8552 0.8603 0.8681 0.8744
1896.000000 0.8776 0.8795 0.8813 0.8809 0.8799
1891.000000 0.8749 0.8682 0.8621 0.8558 0.8493
1886.000000 0.8481 0.8471 0.8503 0.8535 0.8590
1881.000000 0.8642 0.8693 0.8743 0.8792 0.8839
1876.000000 0.8869 0.8913 0.8925 0.8923 0.8912
1871.000000 0.8876 0.8842 0.8837 0.8834 0.8834
1866.000000 0.8846 0.8863 0.8881 0.8890 0.8900
1861.000000 0.8900 0.8901 0.8893 0.8883 0.8882
1856.000000 0.8866 0.8850 0.8842 0.8834 0.8834
1851.000000 0.8833 0.8838 0.8854 0.8870 0.8880
1846.000000 0.8884 0.8890 0.8896 0.8902 0.8904
1841.000000 0.8906 0.8917 0.8897 0.8893 0.8886
1836.000000 0.8870 0.8842 0.8808 0.8763 0.8729
1831.000000 0.8694 0.8664 0.8640 0.8615 0.8596
1826.000000 0.8570 0.8580 0.8580 0.8590 0.8598
1821.000000 0.8608 0.8618 0.8642 0.8650 0.8659
1816.000000 0.8667 0.8667 0.8667 0.8690 0.8698
1811.000000 0.8685 0.8666 0.8631 0.8578 0.8552
1806.000000 0.8534 0.8507 0.8499 0.8492 0.8506
1801.000000 0.8545 0.8585 0.8626 0.8667 0.8704
1796.000000 0.8739 0.8773 0.8806 0.8834 0.8863
1791.000000 0.8885 0.8896 0.8908 0.8921 0.8925
1786.000000 0.8929 0.8932 0.8936 0.8939 0.8943
1781.000000 0.8946 0.8949 0.8960 0.8981 0.9005
1776.000000 0.9019 0.9035 0.9035 0.9034 0.9021
1771.000000 0.9008 0.8991 0.8973 0.8956 0.8937
1766.000000 0.8920 0.8910 0.8900 0.8889 0.8863
1761.000000 0.8811 0.8767 0.8753 0.8747 0.8744
1756.000000 0.8750 0.8756 0.8767 0.8782 0.8797
1751.000000 0.8813 0.8830 0.8847 0.8864 0.8881
1746.000000 0.8886 0.8892 0.8899 0.8899 0.8895
1741.000000 0.8879 0.8823 0.8762 0.8731 0.8712
1736.000000 0.8695 0.8687 0.8680 0.8642 0.8665
1731.000000 0.8665 0.8685 0.8707 0.8727 0.8750
1726.000000 0.8771 0.8794 0.8815 0.8843 0.8868
1721.000000 0.8902 0.8939 0.8975 0.9012 0.9031
1716.000000 0.9029 0.9022 0.9011 0.8989 0.8969
1711.000000 0.8950 0.8931 0.8915 0.8926 0.8938
1706.000000 0.8950 0.8962 0.8974 0.8988 0.9008
1701.000000 0.9015 0.9019 0.9018 0.9018 0.9018
1696.000000 0.9013 0.8996 0.8975 0.8961 0.8952
1691.000000 0.8947 0.8947 0.8947 0.8955 0.8964
1686.000000 0.8973 0.8981 0.8977 0.8957 0.8936
1681.000000 0.8924 0.8924 0.8926 0.8930 0.8935
1676.000000 0.8942 0.8949 0.8955 0.8968 0.8979
1671.000000 0.8981 0.8980 0.8977 0.8948 0.8919
1666.000000 0.8897 0.8880 0.8862 0.8844 0.8827
1661.000000 0.8806 0.8802 0.8774 0.8762 0.8775
1656.000000 0.8790 0.8805 0.8821 0.8836 0.8841
1651.000000 0.8871 0.8883 0.8891 0.8899 0.8894
1646.000000 0.8893 0.8895 0.8876 0.8846 0.8827
1641.000000 0.8811 0.8808 0.8815 0.8834 0.8841
1636.000000 0.8853 0.8829 0.8791 0.8762 0.8736
1631.000000 0.8731 0.8710 0.8697 0.8674 0.8669
1626.000000 0.8649 0.8623 0.8625 0.8605 0.8600
1621.000000 0.8564 0.8407 0.8176 0.8163 0.8173
1616.000000 0.8195 0.8213 0.8173 0.8140 0.8111
1611.000000 0.8083 0.8035 0.7985 0.7916 0.7836
1606.000000 0.7781 0.7706 0.7689 0.7643 0.7615
1601.000000 0.7565 0.7583 0.7602 0.7629 0.7638
1596.000000 0.7637 0.7588 0.7513 0.7382 0.7250
1591.000000 0.7044 0.6772 0.6267 0.5954 0.5999
1586.000000 0.6078 0.6184 0.6316 0.6452 0.6468
1581.000000 0.6463 0.6440 0.6389 0.6343 0.6310
1576.000000 0.4884 0.4893 0.4869 0.4912 0.4991
1571.000000 0.5133 0.5255 0.5395 0.5541 0.5695
1566.000000 0.5800 0.5905 0.6009 0.6116 0.6213
1561.000000 0.6295 0.6380 0.6313 0.6233 0.6129
1556.000000 0.6023 0.5934 0.5822 0.5694 0.5665
1551.000000 0.5352 0.5152 0.4873 0.3870 0.3625
1546.000000 0.3426 0.3304 0.3200 0.3119 0.3039
1541.000000 0.0406 0.0230 0.0240 0.0274 0.0297
1536.000000 0.0307 0.0298 0.0264 0.0226 0.0203
1531.000000 0.0191 0.0207 0.0228 0.0288 0.0369
1526.000000 0.0455 0.0601 0.0793 0.1654 0.3747
1521.000000 0.4879 0.5065 0.5316 0.5513 0.5610
1516.000000 0.5719 0.5765 0.5744 0.5702 0.5665
1511.000000 0.5617 0.5572 0.5502 0.5404 0.1012
1506.000000 0.0932 0.0931 0.0931 0.0962 0.1053
1501.000000 0.4664 0.4775 0.4966 0.5310 0.5591
1496.000000 0.5837 0.6217 0.6417 0.6558 0.6767
1491.000000 0.7100 0.7244 0.7299 0.7299 0.7303
1486.000000 0.7276 0.7256 0.7226 0.7173 0.7027
1481.000000 0.6562 0.5995 0.5414 0.4833 0.4413
1476.000000 0.4405 0.4395 0.4412 0.4478 0.4579
1471.000000 0.5454 0.5976 0.6113 0.6319 0.6514
1466.000000 0.6757 0.6938 0.6995 0.7026 0.7033
1461.000000 0.7067 0.7052 0.7053 0.7044 0.6963
1456.000000 0.5884 0.5925 0.5916 0.6188 0.6704
1451.000000 0.7220 0.7581 0.7797 0.7989 0.8096
1446.000000 0.8203 0.8275 0.8348 0.8411 0.8469
1441.000000 0.8511 0.8531 0.8549 0.8566 0.8577
1436.000000 0.8591 0.8598 0.8618 0.8604 0.8599
1431.000000 0.8599 0.8505 0.7935 0.7401 0.6870
1426.000000 0.6830 0.6961 0.7245 0.7529 0.7818
1421.000000 0.7995 0.8090 0.8182 0.8263 0.8341
1416.000000 0.8381 0.8431 0.8462 0.8487 0.8512
1411.000000 0.8535 0.8546 0.8558 0.8578 0.8572
1406.000000 0.8576 0.8579 0.8572 0.8554 0.8536
1401.000000 0.8517 0.8505 0.8500 0.8507 0.8513
1396.000000 0.8513 0.8500 0.8485 0.8470 0.8449
1391.000000 0.8428 0.8421 0.8426 0.8418 0.8435
1386.000000 0.8459 0.8483 0.8472 0.8431 0.8389
1381.000000 0.8345 0.8313 0.8284 0.8265 0.8214
1376.000000 0.8149 0.8058 0.7969 0.7869 0.7769
1371.000000 0.7508 0.7348 0.7160 0.6960 0.6763
1366.000000 0.6454 0.4316 0.3719 0.3435 0.3207
1361.000000 0.2389 0.1892 0.1396 0.0898 0.0401
1356.000000 0.0162 0.0055 0.0004 0.0034 0.0031
1351.000000 0.0036 0.0041 0.0060 0.0098 0.0171
1346.000000 0.0268 0.2125 0.2302 0.2457 0.2622
1341.000000 0.2810 0.3017 0.3277 0.3547 0.3832
1336.000000 0.4650 0.5576 0.5745 0.5914 0.6084
1331.000000 0.6234 0.6298 0.6334 0.6387 0.6442
1326.000000 0.6506 0.6565 0.6640 0.6722 0.6792
1321.000000 0.6843 0.6895 0.6956 0.7020 0.7089
1316.000000 0.7160 0.7227 0.7287 0.7337 0.7324
1311.000000 0.7315 0.7176 0.6847 0.6519 0.6190
1306.000000 0.5861 0.5739 0.5735 0.5748 0.6005
1301.000000 0.6615 0.6892 0.6936 0.6925 0.6905
1296.000000 0.6713 0.6438 0.6251 0.6220 0.6239
1291.000000 0.6236 0.6272 0.6766 0.6898 0.6970
1286.000000 0.7029 0.7083 0.7138 0.7203 0.7263
1281.000000 0.7309 0.7397 0.7486 0.7576 0.7665
1276.000000 0.7768 0.7856 0.7912 0.7960 0.7951
1271.000000 0.7949 0.7948 0.7688 0.6977 0.6270
1266.000000 0.5786 0.5757 0.5796 0.5896 0.6209
1261.000000 0.6910 0.7814 0.8049 0.8356 0.8487
1256.000000 0.8593 0.8679 0.8779 0.8859 0.8904
1251.000000 0.8952 0.8986 0.9006 0.9013 0.9019
1246.000000 0.9025 0.9029 0.9023 0.9032 0.9041
1241.000000 0.9050 0.9058 0.9078 0.9102 0.9114
1236.000000 0.9128 0.9140 0.9147 0.9160 0.9174
1231.000000 0.9175 0.9176 0.9175 0.9174 0.9174
1226.000000 0.9173 0.9178 0.9187 0.9195 0.9209
1221.000000 0.9226 0.9244 0.9260 0.9264 0.9271
1216.000000 0.9275 0.9281 0.9285 0.9284 0.9288
1211.000000 0.9317 0.9275 0.9250 0.9227 0.9226
1206.000000 0.9225 0.9224 0.9223 0.9220 0.9219
1201.000000 0.9218 0.9218 0.9218 0.9204 0.9199
1196.000000 0.9181 0.9162 0.9144 0.9141 0.9112
1191.000000 0.9082 0.9054 0.9029 0.9002 0.8977
1186.000000 0.8951 0.8926 0.8900 0.8829 0.8739
1181.000000 0.8673 0.8680 0.8691 0.8703 0.8708
1176.000000 0.8706 0.8698 0.8591 0.8504 0.8407
1171.000000 0.8307 0.8235 0.8203 0.8194 0.8207
1166.000000 0.8218 0.8242 0.8321 0.8430 0.8479
1161.000000 0.8494 0.8499 0.8499 0.8499 0.8499
1156.000000 0.8533 0.8592 0.8657 0.8722 0.8776
1151.000000 0.8816 0.8870 0.8924 0.8960 0.8999
1146.000000 0.9045 0.9080 0.9103 0.9109 0.9147
1141.000000 0.9171 0.9191 0.9223 0.9256 0.9287
1136.000000 0.9306 0.9336 0.9347 0.9349 0.9365
1131.000000 0.9379 0.9388 0.9387 0.9384 0.9389
1126.000000 0.9375 0.9380 0.9370 0.9352 0.9346
1121.000000 0.9289 0.9208 0.9121 0.9020 0.8898
1116.000000 0.8793 0.8685 0.8576 0.8430 0.8271
1111.000000 0.7536 0.7261 0.6983 0.6699 0.6431
1106.000000 0.6146 0.5890 0.5873 0.5873 0.5874
1101.000000 0.6039 0.6297 0.6556 0.6815 0.7074
1096.000000 0.7333 0.7493 0.7537 0.7556 0.7570
1091.000000 0.7574 0.7583 0.7583 0.7583 0.7553
1086.000000 0.7347 0.7046 0.6746 0.6446 0.6456
1081.000000 0.6454 0.6608 0.6761 0.6907 0.6944
1076.000000 0.6972 0.7057 0.7314 0.7497 0.7680
1071.000000 0.7857 0.8033 0.8250 0.8409 0.8507
1066.000000 0.8585 0.8663 0.8793 0.8882 0.8947
1061.000000 0.8986 0.9016 0.9010 0.9037 0.9039
1056.000000 0.9017 0.9012 0.8998 0.8971 0.8918
1051.000000 0.8819 0.8529 0.8189 0.7851 0.7797
1046.000000 0.7844 0.7963 0.8090 0.8218 0.8346
1041.000000 0.8473 0.8601 0.8797 0.8857 0.8913
1036.000000 0.8943 0.8974 0.9000 0.9007 0.9008
1031.000000 0.9008 0.8984 0.8975 0.8933 0.8850
1026.000000 0.8490 0.8012 0.7545 0.7354 0.7491
1021.000000 0.7945 0.8400 0.8736 0.8809 0.8880
1016.000000 0.8936 0.8986 0.9017 0.9026 0.9033
1011.000000 0.9040 0.9047 0.9053 0.9040 0.9034
1006.000000 0.9025 0.8937 0.8813 0.8716 0.8716
1001.000000 0.8795 0.8867 0.8880 0.8876 0.8850
996.000000 0.8835 0.8835 0.8836 0.8857 0.8880
991.000000 0.8904 0.8902 0.8890 0.8877 0.8854
986.000000 0.8830 0.8805 0.8783 0.8764 0.8746
981.000000 0.8727 0.8711 0.8700 0.8686 0.8683
976.000000 0.8682 0.8693 0.8739 0.8781 0.8812
971.000000 0.8864 0.8897 0.8913 0.8917 0.8924
966.000000 0.8921 0.8919 0.8917 0.8923 0.8935
961.000000 0.8948 0.8961 0.8973 0.8986 0.8997
956.000000 0.9010 0.9021 0.9032 0.9042 0.9052
951.000000 0.9062 0.9072 0.9077 0.9080 0.9083
946.000000 0.9086 0.9088 0.9115 0.9091 0.9090
941.000000 0.9090 0.9089 0.9087 0.9076 0.9062
936.000000 0.9048 0.9032 0.9002 0.8971 0.8943
931.000000 0.8881 0.8809 0.8661 0.8208 0.8049
926.000000 0.7066 0.7374 0.7070 0.7072 0.7241
921.000000 0.7598 0.7602 0.7604 0.7455 0.7038
916.000000 0.7036 0.7285 0.7951 0.8037 0.8193
911.000000 0.8367 0.8409 0.8469 0.8456 0.8468
906.000000 0.8461 0.8385 0.8213 0.8054 0.7106
901.000000 0.5331 0.2747 0.2780 0.3124 0.3801
896.000000 0.4480 0.5162 0.5857 0.6545 0.7249
891.000000 0.8094 0.8227 0.8328 0.8386 0.8431
886.000000 0.8476 0.8530 0.8533 0.8517 0.8361
881.000000 0.7568 0.5362 0.3130 0.1517 0.1523
876.000000 0.1529 0.2731 0.4422 0.6126 0.7272
871.000000 0.7927 0.8113 0.8226 0.8306 0.8393
866.000000 0.8453 0.8502 0.8560 0.8606 0.8633
861.000000 0.8663 0.8694 0.8711 0.8724 0.8729
856.000000 0.8733 0.8730 0.8730 0.8730 0.8756
851.000000 0.8773 0.8781 0.8765 0.8749 0.8725
846.000000 0.8694 0.8677 0.8647 0.8630 0.8615
841.000000 0.8600 0.8602 0.8616 0.8620 0.8655
836.000000 0.8686 0.8735 0.8769 0.8783 0.8808
831.000000 0.8830 0.8840 0.8853 0.8844 0.8843
826.000000 0.8841 0.8842 0.8866 0.8834 0.8829
821.000000 0.8799 0.8770 0.8743 0.8688 0.8631
816.000000 0.8560 0.8474 0.8356 0.8230 0.8050
811.000000 0.7857 0.7650 0.4651 0.2777 0.2792
806.000000 0.2894 0.4045 0.5193 0.6340 0.7487
801.000000 0.7784 0.7986 0.8145 0.8264 0.8366
796.000000 0.8470 0.8560 0.8606 0.8622 0.8640
791.000000 0.8670 0.8666 0.8673 0.8677 0.8675
786.000000 0.8675 0.8674 0.8662 0.8626 0.8566
781.000000 0.8488 0.8381 0.8247 0.8109 0.7912
776.000000 0.7701 0.7450 0.7184 0.6894 0.6612
771.000000 0.2482 0.2566 0.2667 0.2768 0.2774
766.000000 0.1340 0.0299 0.0298 0.0300 0.1820
761.000000 0.3083 0.4348 0.5611 0.6391 0.7097
756.000000 0.7331 0.7546 0.7722 0.7842 0.7942
751.000000 0.8009 0.8035 0.8047 0.8064 0.8042
746.000000 0.8030 0.7983 0.7869 0.7736 0.7589
741.000000 0.7437 0.7131 0.6674 0.5126 0.4094
736.000000 0.3060 0.2027 0.0993 0.0092 0.0024
731.000000 0.0038 0.0051 0.0865 0.2523 0.4007
726.000000 0.4604 0.4887 0.5352 0.5929 0.6509
721.000000 0.6955 0.7193 0.7438 0.7541 0.7615
716.000000 0.7681 0.7739 0.7788 0.7819 0.7848
711.000000 0.7825 0.7822 0.7716 0.7391 0.7145
706.000000 0.6934 0.6731 0.6522 0.6192 0.3791
701.000000 0.2853 0.1915 0.0976 0.0287 0.0338
696.000000 0.0344 0.0915 0.1506 0.2095 0.2685
691.000000 0.3275 0.3865 0.4177 0.4181 0.3959
686.000000 0.3605 0.3251 0.2957 0.2962 0.3645
681.000000 0.4446 0.5255 0.6056 0.6223 0.6223
676.000000 0.5110 0.3979 0.2838 0.1942 0.1966
671.000000 0.4115 0.6555 0.6795 0.6877 0.6830
666.000000 0.8165 0.8493 0.8644 0.8748 0.8839
661.000000 0.8925 0.9019 0.9075 0.9112 0.9150
656.000000 0.9180 0.9155 0.9122 0.9081 0.9023
651.000000 0.9008 0.8992 0.9004 0.9042 0.9079
646.000000 0.9095 0.9121 0.9143 0.9158 0.9184
641.000000 0.9203 0.9221 0.9249 0.9266 0.9286
636.000000 0.9322 0.9344 0.9348 0.9368 0.9388
631.000000 0.9401 0.9419 0.9440 0.9447 0.9452
626.000000 0.9443 0.9443 0.9444 0.9425 0.9404
621.000000 0.9362 0.9181 0.8837 0.8582 0.8701
616.000000 0.8849 0.8986 0.8980 0.7727 0.4753
611.000000 0.4750 0.5596 0.6584 0.7570 0.8545
606.000000 0.8899 0.9054 0.9221 0.9366 0.9460
601.000000 0.9492 0.9523 0.9539 0.9556 0.9572
596.000000 0.9588 0.9604 0.9608 0.9612 0.9617
591.000000 0.9620 0.9624 0.9629 0.9629 0.9623
586.000000 0.9620 0.9623 0.9614 0.9614 0.9615
581.000000 0.9614 0.9614 0.9613 0.9612 0.9598
576.000000 0.9593 0.9592 0.9601 0.9597 0.9590
571.000000 0.9587 0.9580 0.9567 0.9542 0.9503
566.000000 0.9482 0.9472 0.9441 0.9395 0.9361
561.000000 0.9329 0.9297 0.9280 0.9266 0.9252
556.000000 0.9238 0.9215 0.9195 0.9189 0.9174
551.000000 0.9177 0.9179 0.9177 0.9173 0.9170
546.000000 0.9168 0.9168 0.9195 0.9177 0.9181
541.000000 0.9185 0.9189 0.9197 0.9222 0.9237
536.000000 0.9261 0.9267 0.9274 0.9296 0.9307
531.000000 0.9318 0.9330 0.9341 0.9352 0.9363
526.000000 0.9382 0.9394 0.9400 0.9406 0.9411
521.000000 0.9417 0.9423 0.9429 0.9434 0.9436
516.000000 0.9437 0.9436 0.9437 0.9437 0.9437
511.000000 0.9433 0.9421 0.9409 0.9397 0.9380
506.000000 0.9351 0.9322 0.9288 0.9234 0.9182
501.000000 0.9128 0.9074 0.9023 0.8971 0.8920
496.000000 0.8868 0.8824 0.8785 0.8746 0.8710
491.000000 0.8673 0.8644 0.8617 0.8589 0.8561
486.000000 0.8549 0.8543 0.8536 0.8550 0.8529
481.000000 0.8539 0.8550 0.8560 0.8576 0.8596
476.000000 0.8618 0.8638 0.8659 0.8677 0.8694
471.000000 0.8713 0.8730 0.8746 0.8765 0.8782
466.000000 0.8799 0.8818 0.8835 0.8852 0.8871
461.000000 0.8890 0.8910 0.8930 0.8951 0.8971
456.000000 0.8992 0.9012 0.9033 0.9053 0.9069
451.000000 0.9083 0.9097 0.9109 0.9122 0.9135
446.000000 0.9150 0.9200 0.9181 0.9195 0.9210
##END=
