##TITLE=N-(2-Bromopropyl)phthalimide
##JCAMP-DX=4.24
##DATA TYPE=INFRARED SPECTRUM
##ORIGIN=EPA-IR VAPOR PHASE LIBRARY
##OWNER=SRD/NIST
Collection (C) 2018 copyright by the U.S. Secretary of Commerce
on behalf of the United States of America. All rights reserved.
##CAS REGISTRY NO=21134-25-8
##MOLFORM=C11 H10 Br N O2
##$NIST SOURCE=MSDC-IR
##STATE=gas
##XUNITS=1/CM
##YUNITS=ABSORBANCE
##XFACTOR=1.
##YFACTOR=0.001
##DELTAX=1.92898
##FIRSTX=549.8
##LASTX=4000.7
##FIRSTY=7.689
##MAXX=4000.7
##MINX=549.759
##MAXY=0.422469
##MINY=0
##NPOINTS=1790
##XYDATA=(X++(Y..Y))
549.759 7.689 7.809 7.339 6.379 5.169 4.439 4.089 3.039 1.989 1.2873
569.049 0.9956 0.9488 1.0219 1.1038 0.7863 0.7696 1.0584 1.539 2.569 3.569
588.339 4.139 5.099 6.139 6.459 6.649 6.839 6.899 6.639 6.019 5.019
607.628 3.999 3.669 3.829 4.079 4.669 5.399 5.429 5.149 5.039 4.729
626.918 4.139 3.389 2.609 2.049 1.629 1.489 1.639 1.909 2.449 2.649
646.208 2.629 2.759 2.519 2.119 1.989 1.949 1.939 1.989 1.649 1.2572
665.498 1.2954 1.539 1.409 1.399 1.549 1.379 1.274 1.539 1.839 1.929
684.787 1.999 2.539 3.239 3.929 4.869 5.969 7.239 9.079 11.799 15.869
704.077 21.169 27.439 34.629 42.489 49.489 53.319 55.869 58.039 58.739 57.819
723.367 55.229 49.619 41.759 34.169 27.109 20.699 15.159 10.959 8.119 6.069
742.657 5.069 4.249 3.419 3.219 3.059 2.829 2.799 2.749 2.419 2.249
761.947 2.139 1.949 1.889 1.699 1.499 1.629 1.939 2.329 2.659 3.239
781.236 4.019 4.709 5.449 5.869 5.609 4.759 3.989 3.279 2.499 1.869
800.526 1.499 1.2585 1.0177 0.9664 0.9179 0.9025 0.9434 0.8683 0.8269 0.9039
819.816 0.9807 1.0917 1.2277 1.2441 1.2628 1.3234 1.409 1.559 1.549 1.469
839.106 1.599 1.739 1.769 1.899 1.919 1.949 1.869 1.749 1.869 2.019
858.395 2.129 2.289 2.669 2.909 3.009 3.309 3.579 3.699 3.849 3.789
877.685 3.689 3.709 3.669 3.659 3.439 3.269 3.429 3.699 4.059 4.509
896.975 5.029 5.809 6.829 7.969 9.269 10.939 13.129 15.669 18.459 20.929
916.265 22.559 23.009 22.779 21.769 19.429 16.629 13.899 11.339 9.209 7.719
935.555 6.619 5.819 5.109 4.629 4.599 4.399 4.469 4.879 5.279 5.649
954.844 6.169 6.699 7.249 8.019 8.569 8.849 9.099 9.259 9.179 8.839
974.134 8.409 7.969 7.639 7.459 7.319 7.129 6.969 7.089 7.379 8.089
993.424 9.149 10.709 12.769 15.089 17.309 18.979 20.229 20.819 20.499 19.429
1012.714 17.939 16.539 15.469 14.719 14.349 14.409 14.679 15.249 16.679 18.459
1032.003 20.869 24.149 27.649 30.989 34.349 37.429 39.309 40.239 39.849 38.149
1051.293 35.799 33.019 30.619 28.349 25.919 23.569 21.689 20.099 18.249 16.969
1070.583 16.169 15.349 14.989 15.319 15.599 15.629 15.629 15.669 15.679 14.969
1089.873 13.789 12.739 11.619 10.579 9.569 8.679 8.169 7.599 7.099 7.199
1109.163 7.119 6.729 6.739 6.719 6.239 6.029 5.869 5.669 6.079 6.799
1128.452 7.509 7.609 8.269 9.809 11.309 12.919 14.509 16.219 18.029 19.269
1147.742 19.599 20.039 20.089 18.959 17.339 15.759 13.979 12.229 10.579 9.429
1167.032 9.449 9.529 9.799 10.119 10.289 10.799 11.389 12.439 13.709 14.639
1186.322 15.299 15.499 15.209 14.249 13.199 12.159 11.229 10.619 9.979 10.009
1205.611 10.519 10.949 11.889 13.249 14.549 15.719 16.459 16.999 17.199 16.379
1224.901 15.139 13.999 12.829 11.539 10.689 10.089 9.449 8.999 8.299 7.609
1244.191 7.049 6.539 6.089 5.719 5.509 5.479 5.459 5.369 5.279 5.129
1263.481 5.159 5.499 5.879 6.219 6.489 6.689 6.989 7.469 8.109 8.659
1282.771 9.269 10.099 10.989 11.969 13.049 14.319 15.909 17.799 19.779 21.939
1302.060 24.319 26.869 29.629 32.629 36.059 39.469 42.679 45.469 47.599 49.249
1321.350 50.539 51.439 51.909 51.929 51.399 50.379 49.179 48.109 47.339 46.979
1340.640 47.119 47.869 49.439 52.239 56.589 62.749 70.709 79.789 88.949 96.579
1359.930 101.319 102.889 101.829 99.209 96.649 96.319 99.719 107.499 119.579 133.919
1379.219 146.879 155.299 159.719 161.539 160.259 156.149 150.239 142.059 129.639 112.419
1398.509 93.299 76.139 63.179 53.569 46.669 41.569 37.449 33.969 31.099 28.789
1417.799 27.229 26.499 26.689 27.819 29.819 32.359 34.969 37.259 39.199 40.159
1437.089 39.679 37.989 35.549 32.719 29.969 27.669 25.649 23.779 22.019 20.369
1456.378 18.979 17.899 17.309 17.259 17.529 17.679 17.359 16.469 15.269 13.659
1475.668 11.569 9.549 7.899 6.589 5.729 5.169 4.749 4.469 4.269 4.069
1494.958 3.949 3.869 3.769 3.639 3.509 3.459 3.449 3.419 3.409 3.449
1514.248 3.519 3.569 3.619 3.649 3.699 3.719 3.609 3.559 3.519 3.379
1533.538 3.309 3.279 3.259 3.229 3.199 3.129 3.129 3.219 3.259 3.249
1552.827 3.269 3.359 3.389 3.479 3.499 3.519 3.569 3.549 3.629 3.779
1572.117 3.839 3.829 3.909 3.999 4.129 4.329 4.459 4.559 4.759 5.009
1591.407 5.129 5.219 5.379 5.479 5.609 5.889 6.259 6.729 7.209 7.599
1610.697 7.889 7.859 7.649 7.229 6.689 6.079 5.369 4.789 4.289 3.789
1629.986 3.379 3.139 2.979 2.849 2.729 2.649 2.709 2.749 2.729 2.769
1649.276 2.899 3.099 3.309 3.439 3.569 3.709 3.989 4.269 4.499 4.849
1668.566 5.229 5.529 5.929 6.279 6.589 7.029 7.479 7.879 8.379 8.889
1687.856 9.339 10.019 11.019 12.279 13.829 15.539 17.509 19.699 21.749 23.889
1707.146 26.179 28.799 31.909 35.809 41.309 49.429 61.619 78.819 104.009 138.489
1726.435 183.279 237.299 297.539 353.939 398.239 421.949 422.469 400.639 354.279 289.269
1745.725 222.049 162.899 116.399 82.719 60.449 46.729 38.069 32.639 29.139 26.819
1765.015 25.279 24.489 24.319 24.769 25.959 27.949 31.119 35.869 42.069 48.939
1784.305 55.069 58.869 59.229 55.879 49.329 41.219 32.869 25.149 19.139 14.979
1803.594 12.259 10.389 9.139 8.329 7.669 7.059 6.579 6.269 6.019 5.759
1822.884 5.659 5.589 5.539 5.539 5.479 5.399 5.409 5.399 5.309 5.219
1842.174 5.059 4.819 4.509 4.179 3.879 3.659 3.439 3.209 3.079 3.029
1861.464 3.069 3.109 3.179 3.369 3.479 3.589 3.629 3.589 3.539 3.339
1880.754 3.109 2.979 2.889 2.799 2.809 2.779 2.729 2.749 2.759 2.789
1900.043 2.739 2.729 2.729 2.739 2.769 2.759 2.729 2.609 2.489 2.359
1919.333 2.239 2.149 2.109 2.029 2.049 2.249 2.369 2.409 2.489 2.689
1938.623 2.779 2.709 2.609 2.449 2.319 2.149 1.899 1.689 1.509 1.439
1957.913 1.499 1.629 1.719 1.779 1.929 2.119 2.289 2.389 2.309 2.139
1977.202 1.959 1.759 1.529 1.3358 1.2197 1.1149 1.0807 1.0469 1.0159 0.9674
1996.492 0.9601 1.0024 1.0273 1.0548 1.0291 1.0201 1.0255 1.0134 0.9303 0.9046
2015.782 0.9356 0.8953 0.8499 0.8182 0.859 0.8177 0.8208 0.8784 0.8422 0.8448
2035.072 0.8483 0.8312 0.7981 0.7742 0.7992 0.8442 0.8178 0.8065 0.7956 0.7396
2054.362 0.7066 0.6644 0.7219 0.7711 0.6912 0.6833 0.7374 0.742 0.7227 0.695
2073.651 0.6815 0.7581 0.7708 0.7141 0.7041 0.68 0.6553 0.5964 0.6031 0.6418
2092.941 0.6376 0.6149 0.6188 0.6495 0.6323 0.676 0.7298 0.7042 0.648 0.6425
2112.231 0.6564 0.6259 0.5996 0.5739 0.5901 0.6063 0.6128 0.6387 0.6333 0.6953
2131.521 0.7374 0.6931 0.7239 0.7724 0.7605 0.7931 0.8095 0.8448 0.9403 0.8804
2150.810 0.829 0.8592 0.8716 0.8838 0.8825 0.8632 0.8544 0.8617 0.8387 0.8236
2170.100 0.8352 0.7913 0.7582 0.8281 0.8475 0.8024 0.8093 0.8082 0.7607 0.8355
2189.390 0.8626 0.7755 0.7709 0.7741 0.7753 0.7922 0.8317 0.8229 0.7347 0.7295
2208.680 0.7354 0.695 0.713 0.7495 0.7535 0.7353 0.688 0.6313 0.6008 0.6441
2227.970 0.7385 0.7245 0.7461 0.7434 0.718 0.7287 0.7766 0.8491 0.8342 0.8588
2247.259 0.8673 0.8688 0.9324 0.9807 0.9886 1.0031 1.0296 1.0476 1.0367 1.028
2266.549 1.0428 0.9815 0.952 0.9565 0.9407 0.9971 0.9924 0.9444 1.0288 1.062
2285.839 1.0223 0.9566 0.952 0.9806 0.9506 0.9926 1.0437 1.0402 1.0313 1.0889
2305.129 1.0501 1.0104 1.0212 1.0362 1.1046 1.2234 1.3156 1.3114 1.3039 1.2576
2324.418 1.1673 1.1369 1.1065 1.0474 0.9664 1.0021 1.1044 1.1219 1.0343 0.9339
2343.708 0.979 1.0388 1.021 1.056 1.0785 1.0505 1.0764 1.1734 1.1907 1.1384
2362.998 1.0897 1.0587 1.1054 1.1149 1.1146 1.09 0.9581 0.9066 0.9856 0.9892
2382.288 0.9772 0.9688 0.9307 0.8535 0.8501 0.9107 0.923 0.9527 0.8821 0.8483
2401.578 0.8401 0.8634 0.9401 0.9673 0.9575 0.9276 0.974 0.9847 0.9673 0.9866
2420.867 1.0126 0.9967 1.028 1.0544 1.0327 1.0417 1.0116 0.9811 1.0214 1.0269
2440.157 1.0412 1.1493 1.2453 1.2356 1.1677 1.1544 1.1773 1.1999 1.1477 1.0902
2459.447 1.0868 0.9831 0.8723 0.8491 0.8216 0.8936 0.9085 0.8108 0.8444 0.8267
2478.737 0.7221 0.6789 0.6258 0.6152 0.5952 0.5932 0.6534 0.7 0.6382 0.6869
2498.026 0.6864 0.6322 0.6752 0.5859 0.5979 0.6306 0.6265 0.637 0.6167 0.5894
2517.316 0.618 0.7 0.7137 0.6874 0.646 0.6184 0.6524 0.7438 0.7518 0.6917
2536.606 0.7006 0.6624 0.616 0.6198 0.6753 0.7163 0.651 0.5724 0.5165 0.536
2555.896 0.57 0.524 0.5007 0.5425 0.5777 0.5177 0.42707 0.4798 0.5076 0.4521
2575.186 0.43444 0.40028 0.44092 0.4451 0.37019 0.3423 0.41685 0.4965 0.5428 0.5692
2594.475 0.5501 0.5809 0.5978 0.4998 0.42661 0.4565 0.5308 0.5097 0.44214 0.4698
2613.765 0.5397 0.5968 0.6265 0.6982 0.7165 0.7172 0.6861 0.7068 0.7261 0.6536
2633.055 0.7421 0.7722 0.7806 0.8504 0.797 0.7725 0.6373 0.6156 0.7273 0.7052
2652.345 0.725 0.7105 0.7232 0.6977 0.5868 0.6186 0.6096 0.6304 0.7361 0.6168
2671.634 0.6356 0.7855 0.7509 0.771 0.8168 0.8694 0.9124 0.8891 0.9056 0.9199
2690.924 0.888 0.8921 0.9423 0.9572 0.896 0.8584 0.8227 0.7423 0.7344 0.8327
2710.214 0.7622 0.6887 0.7504 0.707 0.5954 0.5531 0.5423 0.5664 0.6494 0.5777
2729.504 0.5613 0.6222 0.6388 0.6332 0.6129 0.7471 0.7818 0.7621 0.8597 0.9122
2748.794 0.9223 0.7998 0.7283 0.8019 0.7932 0.7012 0.6661 0.7776 0.8312 0.8413
2768.083 0.8924 0.9663 1.064 1.1549 1.1556 1.1031 1.1202 1.1395 1.0758 1.0534
2787.373 1.103 1.1122 1.1179 1.0334 0.8826 0.8687 0.9899 0.9536 0.814 0.7971
2806.663 0.8855 0.9377 0.8749 0.9312 1.0465 1.1339 1.1253 0.9996 0.8908 0.9649
2825.953 1.0572 1.0141 1.0669 1.0492 1.0609 1.0881 1.1431 1.1822 1.1691 1.1823
2845.242 1.1259 1.1374 1.1431 1.1963 1.3311 1.409 1.589 1.749 1.779 1.949
2864.532 2.239 2.379 2.589 2.879 3.149 3.399 3.479 3.579 3.679 3.619
2883.822 3.539 3.599 3.579 3.519 3.439 3.439 3.529 3.519 3.689 3.939
2903.112 4.179 4.429 4.739 5.249 5.989 6.869 7.809 8.699 9.699 10.669
2922.401 11.349 11.939 12.429 12.869 13.229 13.499 13.509 12.829 11.799 10.589
2941.691 9.279 8.039 7.079 6.609 6.529 6.669 6.779 6.869 6.969 6.979
2960.981 6.809 6.749 7.119 7.809 8.499 9.029 9.499 9.799 9.929 9.809
2980.271 9.539 9.609 9.829 9.999 10.339 10.729 10.959 10.949 10.669 10.209
2999.561 9.359 8.239 7.159 6.059 4.969 3.979 3.139 2.509 2.129 1.759
3018.850 1.519 1.559 1.549 1.449 1.629 1.749 1.789 1.979 2.139 2.239
3038.140 2.389 2.479 2.659 2.749 2.939 3.309 3.569 3.909 4.299 4.899
3057.430 5.549 6.009 6.409 6.669 6.699 6.419 6.079 5.839 5.699 5.979
3076.720 6.579 7.259 8.149 9.099 9.759 10.209 10.229 9.729 8.779 7.569
3096.009 6.159 4.739 3.689 3.009 2.399 1.909 1.629 1.379 1.1815 1.0223
3115.299 0.9868 0.9131 0.8443 0.7239 0.5302 0.4913 0.4582 0.44836 0.5127 0.572
3134.589 0.4791 0.40162 0.41654 0.3341 0.298 0.34584 0.36446 0.3292 0.2646 0.2585
3153.879 0.4043 0.44655 0.3164 0.289 0.41933 0.4538 0.37958 0.3304 0.40548 0.5282
3173.169 0.5418 0.5572 0.4982 0.4607 0.5286 0.5095 0.42197 0.4518 0.4792 0.5854
3192.458 0.5246 0.41033 0.475 0.54 0.751 0.8558 0.8219 0.7302 0.6992 0.7054
3211.748 0.7354 0.8114 0.7613 0.6304 0.7309 0.7942 0.5936 0.5669 0.616 0.6897
3231.038 0.7556 0.6591 0.5805 0.5013 0.528 0.4578 0.39955 0.5475 0.5288 0.41353
3250.328 0.357236 0.4542 0.5552 0.4674 0.3305 0.41758 0.511 0.4864 0.39446 0.3388
3269.617 0.4663 0.43694 0.40381 0.38136 0.2502 0.179 0.17 0.225 0.181 0.241
3288.907 0.243 0.222 0.223 0.068 0.028 0.15 0.205 0.141 0.118 0.163
3308.197 0.228 0.044 0 0.178 0.161 0.062 0.041 0.118 0.3134 0.44864
3327.487 0.358343 0.36124 0.4645 0.5243 0.2718 0.159 0.36835 0.338 0.238 0.225
3346.777 0.318 0.257 0.195 0.248 0.2793 0.357028 0.247 0.139 0.3047 0.3257
3366.066 0.211 0.2538 0.2635 0.2735 0.3065 0.2766 0.3301 0.2746 0.2732 0.42495
3385.356 0.37615 0.3109 0.3211 0.2814 0.244 0.172 0.2 0.2888 0.232 0.165
3404.646 0.223 0.245 0.174 0.213 0.2536 0.3169 0.3357 0.34068 0.43002 0.41896
3423.936 0.3073 0.2902 0.38617 0.4932 0.6174 0.6094 0.6318 0.6968 0.6852 0.658
3443.225 0.6343 0.781 0.7735 0.6129 0.7395 0.924 1.0392 1.1051 1.1338 1.3139
3462.515 1.479 1.529 1.449 1.3325 1.399 1.519 1.609 1.559 1.549 1.609
3481.805 1.559 1.729 1.949 2.069 2.349 2.489 2.509 2.939 3.259 3.339
3501.095 3.629 3.809 4.039 4.189 4.019 3.979 3.919 3.499 2.999 2.609
3520.385 2.189 1.849 1.529 1.2281 1.1063 1.0487 0.9158 0.8566 0.8413 0.7414
3539.674 0.6818 0.6328 0.5811 0.5841 0.6029 0.5709 0.6007 0.6623 0.6311 0.6563
3558.964 0.7686 0.7461 0.6053 0.4827 0.4571 0.6853 0.7895 0.6536 0.6953 0.602
3578.254 0.521 0.44158 0.3075 0.4506 0.4754 0.4733 0.5164 0.4862 0.38675 0.248
3597.544 0.39486 0.4566 0.38586 0.353949 0.249 0.36474 0.43594 0.3122 0.2786 0.2631
3616.833 0.43617 0.6328 0.542 0.4107 0.2916 0.38705 0.40171 0.2548 0.3093 0.351205
3636.123 0.3292 0.39073 0.36934 0.34265 0.40515 0.355892 0.2531 0.229 0.16 0.05
3655.413 0.148 0.2642 0.34207 0.39975 0.28 0.077 0.124 0.2953 0.221 0.194
3674.703 0.225 0.177 0.18 0.213 0.228 0.123 0.086 0.107 0.023 0.124
3693.993 0.147 0.06 0.106 0.024 0.035 0.11 0.215 0.36439 0.40171 0.3377
3713.282 0.172 0.208 0.227 0.012 0.024 0.24 0.2724 0.204 0.097 0.103
3732.572 0.355638 0.2969 0.125 0.249 0.2779 0.2497 0.3629 0.464 0.4618 0.40837
3751.862 0.39637 0.3312 0.323 0.3023 0.2886 0.3222 0.244 0.211 0.214 0.3225
3771.152 0.43731 0.3933 0.305 0.204 0.242 0.3206 0.327 0.37227 0.3743 0.2917
3790.441 0.354478 0.44125 0.3268 0.34189 0.3332 0.34716 0.4823 0.5382 0.5154 0.5183
3809.731 0.5586 0.5743 0.5001 0.2605 0.2632 0.38838 0.3042 0.2788 0.34532 0.35035
3829.021 0.3352 0.358072 0.3239 0.243 0.172 0.098 0.204 0.331 0.40356 0.3015
3848.311 0.222 0.243 0.175 0.3366 0.39012 0.2658 0.237 0.178 0.179 0.174
3867.601 0.236 0.38169 0.355559 0.42997 0.4599 0.37139 0.2761 0.3316 0.41994 0.353924
3886.890 0.2595 0.25 0.244 0.3327 0.3009 0.162 0.34143 0.41589 0.36547 0.44449
3906.180 0.5103 0.5063 0.5857 0.4779 0.37472 0.4839 0.42843 0.38021 0.4945 0.4721
3925.470 0.36176 0.2696 0.183 0.2723 0.40027 0.532 0.5242 0.44775 0.43778 0.39422
3944.760 0.42249 0.39943 0.38747 0.2829 0.2754 0.3382 0.348229 0.2778 0.168 0.3012
3964.049 0.40542 0.36734 0.3388 0.34625 0.3041 0.275 0.356569 0.36641 0.2524 0.2718
3983.339 0.233 0.181 0.241 0.40935 0.5391 0.464 0.44415 0.40359 0.42839 0.24
##END=
