##TITLE=CYCLOHEXANE, 1,2-DIMETHYL-, CIS-,
##JCAMP-DX=4.24
##DATA TYPE=INFRARED SPECTRUM
##CLASS=COBLENTZ III
##ORIGIN=DOW CHEMICAL COMPANY
##OWNER=COBLENTZ SOC.
Collection (C) 2018 copyright by the U.S. Secretary of Commerce
on behalf of the United States of America. All rights reserved.
##DATE=1963/12/03
##NAMES=1,2-dimethylcyclohexane
##CAS REGISTRY NO=2207-01-4
##MOLFORM=C8 H16
##SOURCE REFERENCE=COBLENTZ NO. 09213
##$NIST SOURCE=COBLENTZ
##$NIST IMAGE=cob9213
##SPECTROMETER/DATA SYSTEM=BECKMAN IR-9 (GRATING)
##INSTRUMENT PARAMETERS=ORDER CHANGES: 670, 1200, 2000 CM^-^1
##STATE=SOLUTION (10% CCl4 FOR 3800-1330, 10% CS2 FOR 1330-400 CM^-^1)
##PATH LENGTH=0.011 CM, 0.011 CM
$$SPECTRAL CONTAMINATION DUE TO CS2 AROUND 860, CCl4 AROUND 1550, AND AN UNKNOWN AROUND 400 CM^-^1
$$ SPECTRAL FEATURE AT 1324 CM^-^1 IS AN ARTIFACT CAUSED BY A CHANGE IN SOLVENT
$$ SPECTRAL FEATURE AT 1998 CM^-^1 IS AN ARTIFACT CAUSED BY GRATING CHANGE
$$ SEE SPECTRUM NO. 6013 FOR "NEAT" RUN
##SAMPLING PROCEDURE=TRANSMISSION
##RESOLUTION=2
##DATA PROCESSING=DIGITIZED BY COBLENTZ SOCIETY (BATCH I) FROM HARD COPY
##XUNITS=1/CM
##YUNITS=TRANSMITTANCE
##XLABEL=Wavenumbers (cm-1)
##YLABEL=% Transmission
##XFACTOR=1
##YFACTOR=1
##DELTAX=1
##FIRSTX=422
##LASTX=3800
##FIRSTY=0.4677
##MAXX=3800
##MINX=422
##MAXY=0.8935
##MINY=0.0013
##NPOINTS=3379
##XYDATA=(X++(Y..Y))
422.000000 0.4677 0.4723 0.4760 0.4829 0.4964
427.000000 0.5092 0.5235 0.5372 0.5479 0.5586
432.000000 0.5655 0.5715 0.5775 0.5834 0.5894
437.000000 0.5968 0.6045 0.6122 0.6200 0.6277
442.000000 0.6362 0.6446 0.6530 0.6611 0.6686
447.000000 0.6760 0.6835 0.6910 0.6983 0.7055
452.000000 0.7101 0.7132 0.7164 0.7195 0.7225
457.000000 0.7257 0.7299 0.7345 0.7391 0.7417
462.000000 0.7441 0.7465 0.7490 0.7504 0.7515
467.000000 0.7526 0.7539 0.7551 0.7561 0.7571
472.000000 0.7581 0.7591 0.7612 0.7638 0.7658
477.000000 0.7678 0.7711 0.7746 0.7778 0.7825
482.000000 0.7892 0.7958 0.8026 0.8087 0.8135
487.000000 0.8168 0.8196 0.8218 0.8234 0.8248
492.000000 0.8262 0.8275 0.8291 0.8304 0.8316
497.000000 0.8328 0.8341 0.8353 0.8365 0.8375
502.000000 0.8386 0.8396 0.8406 0.8417 0.8427
507.000000 0.8437 0.8446 0.8453 0.8461 0.8468
512.000000 0.8475 0.8484 0.8491 0.8499 0.8506
517.000000 0.8514 0.8518 0.8524 0.8528 0.8534
522.000000 0.8539 0.8544 0.8546 0.8548 0.8551
527.000000 0.8553 0.8555 0.8557 0.8559 0.8555
532.000000 0.8551 0.8547 0.8543 0.8534 0.8524
537.000000 0.8513 0.8539 0.8497 0.8497 0.8506
542.000000 0.8518 0.8537 0.8557 0.8575 0.8592
547.000000 0.8606 0.8617 0.8625 0.8633 0.8640
552.000000 0.8646 0.8653 0.8659 0.8665 0.8671
557.000000 0.8677 0.8682 0.8685 0.8687 0.8690
562.000000 0.8693 0.8696 0.8698 0.8701 0.8703
567.000000 0.8706 0.8708 0.8710 0.8712 0.8714
572.000000 0.8717 0.8718 0.8721 0.8723 0.8723
577.000000 0.8721 0.8718 0.8716 0.8714 0.8708
582.000000 0.8702 0.8696 0.8690 0.8677 0.8652
587.000000 0.8613 0.8545 0.8406 0.8242 0.8078
592.000000 0.7915 0.7751 0.7587 0.7518 0.7515
597.000000 0.7489 0.7683 0.8071 0.8258 0.8308
602.000000 0.8375 0.8446 0.8500 0.8536 0.8557
607.000000 0.8578 0.8601 0.8617 0.8631 0.8644
612.000000 0.8658 0.8668 0.8677 0.8685 0.8693
617.000000 0.8701 0.8709 0.8711 0.8713 0.8715
622.000000 0.8718 0.8718 0.8718 0.8716 0.8713
627.000000 0.8710 0.8707 0.8701 0.8693 0.8685
632.000000 0.8675 0.8668 0.8660 0.8646 0.8630
637.000000 0.8614 0.8598 0.8575 0.8555 0.8534
642.000000 0.8514 0.8495 0.8477 0.8459 0.8441
647.000000 0.8423 0.8409 0.8396 0.8383 0.8370
652.000000 0.8357 0.8344 0.8334 0.8335 0.8336
657.000000 0.8324 0.8330 0.8342 0.8353 0.8366
662.000000 0.8378 0.8393 0.8406 0.8418 0.8432
667.000000 0.8445 0.8461 0.8478 0.8495 0.8512
672.000000 0.8528 0.8546 0.8565 0.8584 0.8603
677.000000 0.8621 0.8637 0.8650 0.8666 0.8681
682.000000 0.8693 0.8703 0.8714 0.8724 0.8727
687.000000 0.8728 0.8730 0.8732 0.8733 0.8734
692.000000 0.8736 0.8737 0.8739 0.8739 0.8739
697.000000 0.8739 0.8739 0.8739 0.8739 0.8740
702.000000 0.8741 0.8742 0.8743 0.8744 0.8745
707.000000 0.8746 0.8747 0.8748 0.8749 0.8750
712.000000 0.8751 0.8752 0.8753 0.8754 0.8754
717.000000 0.8755 0.8756 0.8757 0.8757 0.8755
722.000000 0.8754 0.8734 0.8713 0.8692 0.8658
727.000000 0.8631 0.8616 0.8604 0.8604 0.8605
732.000000 0.8607 0.8635 0.8692 0.8740 0.8771
737.000000 0.8791 0.8810 0.8816 0.8821 0.8825
742.000000 0.8831 0.8837 0.8843 0.8849 0.8855
747.000000 0.8860 0.8866 0.8871 0.8877 0.8882
752.000000 0.8887 0.8893 0.8898 0.8900 0.8902
757.000000 0.8904 0.8906 0.8908 0.8910 0.8910
762.000000 0.8910 0.8909 0.8909 0.8908 0.8908
767.000000 0.8906 0.8900 0.8894 0.8889 0.8883
772.000000 0.8877 0.8868 0.8860 0.8851 0.8843
777.000000 0.8833 0.8821 0.8811 0.8800 0.8789
782.000000 0.8778 0.8768 0.8759 0.8750 0.8741
787.000000 0.8734 0.8727 0.8720 0.8713 0.8705
792.000000 0.8698 0.8686 0.8675 0.8663 0.8638
797.000000 0.8611 0.8584 0.8556 0.8527 0.8499
802.000000 0.8450 0.8406 0.8392 0.8397 0.8418
807.000000 0.8447 0.8475 0.8507 0.8534 0.8559
812.000000 0.8575 0.8590 0.8593 0.8594 0.8595
817.000000 0.8574 0.8577 0.8559 0.8536 0.8507
822.000000 0.8466 0.8417 0.8256 0.8095 0.7934
827.000000 0.7818 0.7787 0.7793 0.7911 0.8032
832.000000 0.8151 0.8196 0.8194 0.8182 0.8161
837.000000 0.8099 0.8025 0.7622 0.7199 0.7024
842.000000 0.7065 0.7211 0.7358 0.7504 0.7549
847.000000 0.7547 0.7541 0.7526 0.7505 0.7478
852.000000 0.7430 0.7384 0.7337 0.7287 0.7231
857.000000 0.7190 0.7168 0.7168 0.7167 0.7174
862.000000 0.7183 0.7201 0.7221 0.7244 0.7268
867.000000 0.7293 0.7324 0.7356 0.7387 0.7415
872.000000 0.7444 0.7455 0.7462 0.7467 0.7468
877.000000 0.7461 0.7424 0.7304 0.7185 0.7069
882.000000 0.7069 0.7264 0.7461 0.7661 0.7808
887.000000 0.7861 0.7986 0.8069 0.8143 0.8209
892.000000 0.8257 0.8302 0.8328 0.8351 0.8373
897.000000 0.8394 0.8409 0.8425 0.8440 0.8453
902.000000 0.8460 0.8467 0.8474 0.8481 0.8482
907.000000 0.8477 0.8474 0.8471 0.8468 0.8466
912.000000 0.8504 0.8458 0.8452 0.8446 0.8425
917.000000 0.8393 0.8356 0.8325 0.8302 0.8288
922.000000 0.8289 0.8299 0.8321 0.8366 0.8408
927.000000 0.8428 0.8448 0.8455 0.8456 0.8456
932.000000 0.8449 0.8434 0.8409 0.8385 0.8359
937.000000 0.8328 0.8259 0.8100 0.7940 0.7780
942.000000 0.7601 0.7519 0.7495 0.7506 0.7515
947.000000 0.7632 0.7841 0.8050 0.8208 0.8274
952.000000 0.8328 0.8361 0.8389 0.8403 0.8413
957.000000 0.8417 0.8421 0.8425 0.8425 0.8425
962.000000 0.8425 0.8415 0.8404 0.8375 0.8339
967.000000 0.8304 0.8261 0.8216 0.8169 0.8108
972.000000 0.8041 0.7846 0.7621 0.7397 0.7171
977.000000 0.6948 0.6883 0.6883 0.6931 0.7207
982.000000 0.7483 0.7571 0.7719 0.7801 0.7875
987.000000 0.7941 0.7991 0.8024 0.8044 0.8058
992.000000 0.8058 0.8055 0.8049 0.8090 0.8028
997.000000 0.8006 0.7982 0.7936 0.7585 0.7181
1002.000000 0.6778 0.6374 0.6212 0.6058 0.6001
1007.000000 0.6019 0.6277 0.6736 0.7195 0.7442
1012.000000 0.7555 0.7593 0.7603 0.7634 0.7565
1017.000000 0.7503 0.7440 0.7376 0.7318 0.7315
1022.000000 0.7333 0.7492 0.7655 0.7815 0.7934
1027.000000 0.8028 0.8108 0.8161 0.8206 0.8223
1032.000000 0.8240 0.8248 0.8250 0.8250 0.8251
1037.000000 0.8251 0.8253 0.8295 0.8258 0.8259
1042.000000 0.8260 0.8253 0.8246 0.8236 0.8216
1047.000000 0.8195 0.8165 0.8128 0.8078 0.8004
1052.000000 0.7937 0.7912 0.7904 0.7908 0.7925
1057.000000 0.7971 0.8014 0.8128 0.8186 0.8225
1062.000000 0.8254 0.8268 0.8282 0.8293 0.8301
1067.000000 0.8308 0.8315 0.8318 0.8320 0.8321
1072.000000 0.8321 0.8315 0.8316 0.8312 0.8299
1077.000000 0.8287 0.8274 0.8252 0.8230 0.8206
1082.000000 0.8171 0.8137 0.8096 0.8051 0.7990
1087.000000 0.7892 0.7700 0.7505 0.7289 0.7105
1092.000000 0.7097 0.7097 0.7080 0.7161 0.7241
1097.000000 0.7325 0.7401 0.7485 0.7571 0.7681
1102.000000 0.7846 0.7978 0.8080 0.8165 0.8213
1107.000000 0.8252 0.8285 0.8305 0.8325 0.8337
1112.000000 0.8345 0.8353 0.8361 0.8367 0.8370
1117.000000 0.8373 0.8375 0.8377 0.8377 0.8377
1122.000000 0.8378 0.8378 0.8378 0.8378 0.8380
1127.000000 0.8381 0.8382 0.8382 0.8381 0.8381
1132.000000 0.8380 0.8378 0.8371 0.8363 0.8355
1137.000000 0.8346 0.8337 0.8325 0.8310 0.8295
1142.000000 0.8275 0.8247 0.8215 0.8178 0.8125
1147.000000 0.8069 0.7983 0.7887 0.7744 0.7594
1152.000000 0.7265 0.7103 0.7011 0.6997 0.6975
1157.000000 0.7019 0.7032 0.7018 0.7042 0.6892
1162.000000 0.6888 0.6928 0.7322 0.7485 0.7637
1167.000000 0.7748 0.7865 0.7950 0.8010 0.8055
1172.000000 0.8097 0.8136 0.8175 0.8209 0.8241
1177.000000 0.8266 0.8288 0.8310 0.8321 0.8331
1182.000000 0.8341 0.8351 0.8360 0.8365 0.8368
1187.000000 0.8371 0.8375 0.8378 0.8383 0.8385
1192.000000 0.8385 0.8386 0.8370 0.8388 0.8387
1197.000000 0.8387 0.8385 0.8382 0.8378 0.8375
1202.000000 0.8374 0.8370 0.8364 0.8357 0.8351
1207.000000 0.8344 0.8338 0.8325 0.8311 0.8296
1212.000000 0.8275 0.8252 0.8228 0.8204 0.8178
1217.000000 0.8153 0.8128 0.8069 0.8035 0.8043
1222.000000 0.8051 0.8060 0.8068 0.8075 0.8081
1227.000000 0.8087 0.8096 0.8093 0.8090 0.8085
1232.000000 0.8076 0.8068 0.8060 0.8044 0.8024
1237.000000 0.8001 0.7975 0.7946 0.7907 0.7868
1242.000000 0.7819 0.7765 0.7712 0.7661 0.7599
1247.000000 0.7615 0.7621 0.7628 0.7628 0.7628
1252.000000 0.7624 0.7612 0.7598 0.7576 0.7615
1257.000000 0.7611 0.7648 0.7690 0.7735 0.7775
1262.000000 0.7812 0.7845 0.7868 0.7893 0.7917
1267.000000 0.7937 0.7957 0.7974 0.7990 0.8005
1272.000000 0.8018 0.8025 0.8034 0.8042 0.8042
1277.000000 0.8042 0.8038 0.8067 0.8021 0.8011
1282.000000 0.7999 0.7985 0.7971 0.7956 0.7942
1287.000000 0.7925 0.7901 0.7878 0.7854 0.7822
1292.000000 0.7775 0.7726 0.7678 0.7635 0.7594
1297.000000 0.7551 0.7514 0.7488 0.7461 0.7441
1302.000000 0.7436 0.7430 0.7425 0.7422 0.7421
1307.000000 0.7418 0.7410 0.7401 0.7394 0.7386
1312.000000 0.7368 0.7351 0.7334 0.7317 0.7298
1317.000000 0.7278 0.7267 0.7275 0.7275 0.7306
1322.000000 0.7325 0.7339 0.7354 0.7368 0.7441
1327.000000 0.7598 0.7755 0.7912 0.8069 0.8227
1332.000000 0.8384 0.8439 0.8435 0.8418 0.8390
1337.000000 0.8370 0.8366 0.8361 0.8363 0.8370
1342.000000 0.8375 0.8378 0.8378 0.8378 0.8371
1347.000000 0.8363 0.8353 0.8337 0.8318 0.8300
1352.000000 0.8249 0.8091 0.7934 0.7776 0.7618
1357.000000 0.7512 0.7485 0.7541 0.7611 0.7607
1362.000000 0.7430 0.7061 0.6694 0.6325 0.6108
1367.000000 0.6194 0.6444 0.6694 0.6943 0.7041
1372.000000 0.7042 0.6472 0.5722 0.4971 0.4219
1377.000000 0.4010 0.3880 0.3395 0.2910 0.2539
1382.000000 0.2535 0.3427 0.4186 0.4946 0.5725
1387.000000 0.5996 0.6951 0.7095 0.7218 0.7424
1392.000000 0.7598 0.7754 0.7860 0.7928 0.7961
1397.000000 0.7994 0.8015 0.8030 0.8045 0.8061
1402.000000 0.8081 0.8101 0.8133 0.8182 0.8225
1407.000000 0.8256 0.8266 0.8274 0.8260 0.8253
1412.000000 0.8245 0.8236 0.8225 0.8216 0.8204
1417.000000 0.8192 0.8178 0.8165 0.8149 0.8128
1422.000000 0.8110 0.8091 0.8071 0.8046 0.8021
1427.000000 0.7995 0.7969 0.7934 0.7895 0.7828
1432.000000 0.7758 0.7678 0.7538 0.7001 0.6664
1437.000000 0.6205 0.5745 0.5286 0.4826 0.4367
1442.000000 0.3907 0.3448 0.2734 0.2556 0.2443
1447.000000 0.2387 0.2357 0.2346 0.2334 0.2310
1452.000000 0.2173 0.1958 0.1826 0.1743 0.1699
1457.000000 0.1684 0.1669 0.1683 0.2435 0.3107
1462.000000 0.3110 0.3117 0.2935 0.2746 0.2582
1467.000000 0.2593 0.3106 0.3746 0.4386 0.5026
1472.000000 0.5168 0.5374 0.5584 0.5776 0.5965
1477.000000 0.6347 0.6483 0.6618 0.6754 0.6889
1482.000000 0.7004 0.7112 0.7208 0.7300 0.7392
1487.000000 0.7455 0.7503 0.7548 0.7571 0.7594
1492.000000 0.7618 0.7633 0.7648 0.7639 0.7638
1497.000000 0.7631 0.7622 0.7611 0.7599 0.7584
1502.000000 0.7562 0.7543 0.7521 0.7492 0.7457
1507.000000 0.7415 0.7374 0.7334 0.7301 0.7267
1512.000000 0.7233 0.7187 0.7141 0.7095 0.7048
1517.000000 0.6999 0.6951 0.6903 0.6856 0.6808
1522.000000 0.6762 0.6715 0.6668 0.6611 0.6556
1527.000000 0.6500 0.6444 0.6388 0.6331 0.6273
1532.000000 0.6215 0.6156 0.6096 0.6036 0.5950
1537.000000 0.5837 0.5685 0.5555 0.5440 0.5338
1542.000000 0.5237 0.5144 0.5051 0.4959 0.4872
1547.000000 0.4788 0.4725 0.4668 0.4636 0.4626
1552.000000 0.4619 0.4620 0.4626 0.4635 0.4649
1557.000000 0.4664 0.4704 0.4779 0.4937 0.5132
1562.000000 0.5212 0.5289 0.5355 0.5417 0.5478
1567.000000 0.5542 0.5623 0.5704 0.5784 0.5865
1572.000000 0.5945 0.6024 0.6081 0.6125 0.6146
1577.000000 0.6168 0.6190 0.6212 0.6233 0.6254
1582.000000 0.6275 0.6298 0.6328 0.6364 0.6408
1587.000000 0.6449 0.6498 0.6541 0.6618 0.6717
1592.000000 0.6807 0.6900 0.6995 0.7101 0.7215
1597.000000 0.7298 0.7381 0.7461 0.7530 0.7599
1602.000000 0.7668 0.7735 0.7801 0.7858 0.7899
1607.000000 0.7940 0.7981 0.8021 0.8058 0.8095
1612.000000 0.8132 0.8162 0.8189 0.8215 0.8240
1617.000000 0.8264 0.8286 0.8309 0.8331 0.8353
1622.000000 0.8370 0.8387 0.8404 0.8421 0.8438
1627.000000 0.8455 0.8471 0.8486 0.8500 0.8514
1632.000000 0.8528 0.8543 0.8557 0.8571 0.8584
1637.000000 0.8596 0.8609 0.8621 0.8634 0.8646
1642.000000 0.8655 0.8661 0.8667 0.8673 0.8678
1647.000000 0.8685 0.8692 0.8698 0.8704 0.8708
1652.000000 0.8713 0.8718 0.8723 0.8727 0.8732
1657.000000 0.8737 0.8741 0.8746 0.8751 0.8756
1662.000000 0.8760 0.8763 0.8767 0.8771 0.8775
1667.000000 0.8778 0.8782 0.8786 0.8790 0.8794
1672.000000 0.8799 0.8803 0.8807 0.8811 0.8815
1677.000000 0.8818 0.8823 0.8827 0.8831 0.8836
1682.000000 0.8840 0.8842 0.8844 0.8845 0.8847
1687.000000 0.8848 0.8850 0.8851 0.8853 0.8854
1692.000000 0.8856 0.8857 0.8859 0.8860 0.8861
1697.000000 0.8863 0.8864 0.8866 0.8867 0.8868
1702.000000 0.8871 0.8871 0.8874 0.8875 0.8877
1707.000000 0.8878 0.8881 0.8882 0.8884 0.8886
1712.000000 0.8887 0.8889 0.8891 0.8892 0.8894
1717.000000 0.8895 0.8897 0.8899 0.8900 0.8902
1722.000000 0.8903 0.8905 0.8906 0.8907 0.8909
1727.000000 0.8910 0.8912 0.8913 0.8914 0.8916
1732.000000 0.8917 0.8918 0.8920 0.8921 0.8921
1737.000000 0.8923 0.8924 0.8924 0.8924 0.8925
1742.000000 0.8925 0.8925 0.8925 0.8925 0.8927
1747.000000 0.8927 0.8928 0.8928 0.8928 0.8928
1752.000000 0.8928 0.8930 0.8930 0.8930 0.8931
1757.000000 0.8931 0.8931 0.8932 0.8932 0.8932
1762.000000 0.8933 0.8933 0.8933 0.8934 0.8934
1767.000000 0.8934 0.8935 0.8935 0.8935 0.8934
1772.000000 0.8934 0.8933 0.8933 0.8933 0.8932
1777.000000 0.8932 0.8932 0.8931 0.8931 0.8930
1782.000000 0.8930 0.8930 0.8928 0.8928 0.8928
1787.000000 0.8928 0.8928 0.8927 0.8927 0.8927
1792.000000 0.8925 0.8925 0.8925 0.8925 0.8925
1797.000000 0.8924 0.8924 0.8924 0.8923 0.8923
1802.000000 0.8923 0.8921 0.8921 0.8921 0.8921
1807.000000 0.8921 0.8920 0.8920 0.8920 0.8918
1812.000000 0.8918 0.8918 0.8918 0.8918 0.8918
1817.000000 0.8917 0.8917 0.8916 0.8915 0.8913
1822.000000 0.8912 0.8911 0.8910 0.8909 0.8907
1827.000000 0.8906 0.8905 0.8904 0.8902 0.8901
1832.000000 0.8900 0.8899 0.8897 0.8896 0.8895
1837.000000 0.8894 0.8892 0.8891 0.8890 0.8889
1842.000000 0.8887 0.8886 0.8885 0.8884 0.8884
1847.000000 0.8883 0.8883 0.8883 0.8882 0.8882
1852.000000 0.8882 0.8881 0.8881 0.8880 0.8880
1857.000000 0.8878 0.8878 0.8875 0.8874 0.8873
1862.000000 0.8871 0.8870 0.8870 0.8870 0.8870
1867.000000 0.8871 0.8871 0.8873 0.8873 0.8874
1872.000000 0.8875 0.8875 0.8875 0.8877 0.8878
1877.000000 0.8878 0.8878 0.8880 0.8881 0.8881
1882.000000 0.8882 0.8883 0.8884 0.8884 0.8885
1887.000000 0.8886 0.8887 0.8887 0.8888 0.8889
1892.000000 0.8890 0.8890 0.8891 0.8892 0.8893
1897.000000 0.8893 0.8894 0.8895 0.8895 0.8896
1902.000000 0.8897 0.8897 0.8898 0.8898 0.8899
1907.000000 0.8899 0.8900 0.8900 0.8900 0.8901
1912.000000 0.8901 0.8902 0.8902 0.8903 0.8903
1917.000000 0.8904 0.8904 0.8905 0.8905 0.8906
1922.000000 0.8906 0.8907 0.8907 0.8907 0.8908
1927.000000 0.8908 0.8908 0.8909 0.8909 0.8909
1932.000000 0.8910 0.8910 0.8910 0.8911 0.8911
1937.000000 0.8911 0.8912 0.8912 0.8912 0.8913
1942.000000 0.8913 0.8913 0.8914 0.8914 0.8914
1947.000000 0.8914 0.8914 0.8914 0.8914 0.8914
1952.000000 0.8913 0.8913 0.8913 0.8913 0.8913
1957.000000 0.8913 0.8913 0.8913 0.8912 0.8912
1962.000000 0.8912 0.8912 0.8912 0.8912 0.8912
1967.000000 0.8912 0.8912 0.8911 0.8911 0.8911
1972.000000 0.8911 0.8910 0.8909 0.8908 0.8907
1977.000000 0.8905 0.8904 0.8903 0.8902 0.8901
1982.000000 0.8899 0.8898 0.8897 0.8896 0.8894
1987.000000 0.8893 0.8892 0.8891 0.8890 0.8888
1992.000000 0.8887 0.8885 0.8866 0.8839 0.8804
1997.000000 0.8767 0.8749 0.8746 0.8751 0.8765
2002.000000 0.8780 0.8791 0.8802 0.8817 0.8832
2007.000000 0.8851 0.8870 0.8877 0.8885 0.8888
2012.000000 0.8891 0.8894 0.8898 0.8901 0.8904
2017.000000 0.8907 0.8910 0.8912 0.8914 0.8914
2022.000000 0.8915 0.8915 0.8916 0.8916 0.8916
2027.000000 0.8915 0.8914 0.8913 0.8912 0.8911
2032.000000 0.8910 0.8909 0.8909 0.8908 0.8907
2037.000000 0.8906 0.8905 0.8904 0.8903 0.8902
2042.000000 0.8901 0.8900 0.8899 0.8898 0.8898
2047.000000 0.8897 0.8897 0.8896 0.8896 0.8895
2052.000000 0.8895 0.8894 0.8894 0.8894 0.8895
2057.000000 0.8895 0.8896 0.8896 0.8897 0.8897
2062.000000 0.8898 0.8898 0.8899 0.8900 0.8901
2067.000000 0.8901 0.8902 0.8902 0.8903 0.8903
2072.000000 0.8904 0.8904 0.8905 0.8905 0.8906
2077.000000 0.8906 0.8906 0.8906 0.8906 0.8906
2082.000000 0.8906 0.8905 0.8905 0.8905 0.8905
2087.000000 0.8905 0.8905 0.8905 0.8905 0.8904
2092.000000 0.8904 0.8904 0.8904 0.8904 0.8904
2097.000000 0.8904 0.8904 0.8903 0.8903 0.8903
2102.000000 0.8903 0.8903 0.8903 0.8902 0.8902
2107.000000 0.8902 0.8902 0.8902 0.8902 0.8902
2112.000000 0.8902 0.8901 0.8901 0.8901 0.8901
2117.000000 0.8901 0.8901 0.8900 0.8900 0.8900
2122.000000 0.8900 0.8900 0.8900 0.8900 0.8900
2127.000000 0.8899 0.8899 0.8899 0.8899 0.8898
2132.000000 0.8898 0.8898 0.8898 0.8897 0.8897
2137.000000 0.8897 0.8897 0.8897 0.8897 0.8896
2142.000000 0.8896 0.8896 0.8896 0.8895 0.8895
2147.000000 0.8895 0.8895 0.8894 0.8894 0.8894
2152.000000 0.8894 0.8892 0.8891 0.8889 0.8888
2157.000000 0.8887 0.8886 0.8884 0.8883 0.8881
2162.000000 0.8880 0.8878 0.8877 0.8875 0.8874
2167.000000 0.8871 0.8871 0.8868 0.8868 0.8867
2172.000000 0.8866 0.8864 0.8862 0.8860 0.8859
2177.000000 0.8857 0.8856 0.8854 0.8853 0.8851
2182.000000 0.8850 0.8848 0.8847 0.8845 0.8844
2187.000000 0.8842 0.8840 0.8838 0.8837 0.8835
2192.000000 0.8834 0.8834 0.8835 0.8835 0.8835
2197.000000 0.8835 0.8835 0.8836 0.8837 0.8839
2202.000000 0.8841 0.8843 0.8846 0.8848 0.8850
2207.000000 0.8850 0.8850 0.8850 0.8850 0.8850
2212.000000 0.8851 0.8851 0.8851 0.8851 0.8851
2217.000000 0.8851 0.8851 0.8850 0.8850 0.8850
2222.000000 0.8850 0.8849 0.8849 0.8849 0.8849
2227.000000 0.8848 0.8848 0.8847 0.8847 0.8845
2232.000000 0.8844 0.8843 0.8842 0.8840 0.8839
2237.000000 0.8837 0.8836 0.8834 0.8833 0.8831
2242.000000 0.8830 0.8825 0.8823 0.8818 0.8816
2247.000000 0.8812 0.8809 0.8805 0.8802 0.8797
2252.000000 0.8793 0.8788 0.8783 0.8778 0.8774
2257.000000 0.8768 0.8764 0.8759 0.8754 0.8749
2262.000000 0.8744 0.8739 0.8734 0.8728 0.8724
2267.000000 0.8718 0.8715 0.8710 0.8705 0.8698
2272.000000 0.8691 0.8684 0.8678 0.8671 0.8664
2277.000000 0.8657 0.8650 0.8643 0.8637 0.8630
2282.000000 0.8623 0.8616 0.8609 0.8604 0.8599
2287.000000 0.8595 0.8592 0.8588 0.8585 0.8581
2292.000000 0.8578 0.8574 0.8570 0.8568 0.8567
2297.000000 0.8566 0.8566 0.8566 0.8566 0.8566
2302.000000 0.8566 0.8566 0.8566 0.8565 0.8565
2307.000000 0.8565 0.8565 0.8565 0.8565 0.8565
2312.000000 0.8565 0.8564 0.8564 0.8565 0.8567
2317.000000 0.8568 0.8568 0.8570 0.8571 0.8571
2322.000000 0.8574 0.8575 0.8575 0.8577 0.8578
2327.000000 0.8578 0.8581 0.8582 0.8583 0.8584
2332.000000 0.8585 0.8586 0.8587 0.8588 0.8590
2337.000000 0.8591 0.8593 0.8594 0.8596 0.8597
2342.000000 0.8599 0.8600 0.8602 0.8603 0.8604
2347.000000 0.8605 0.8607 0.8608 0.8610 0.8611
2352.000000 0.8612 0.8613 0.8614 0.8615 0.8616
2357.000000 0.8617 0.8618 0.8618 0.8620 0.8621
2362.000000 0.8621 0.8623 0.8624 0.8625 0.8625
2367.000000 0.8628 0.8630 0.8632 0.8635 0.8638
2372.000000 0.8641 0.8643 0.8646 0.8649 0.8652
2377.000000 0.8654 0.8657 0.8661 0.8666 0.8671
2382.000000 0.8675 0.8681 0.8686 0.8691 0.8696
2387.000000 0.8697 0.8698 0.8698 0.8698 0.8697
2392.000000 0.8697 0.8697 0.8697 0.8696 0.8696
2397.000000 0.8694 0.8693 0.8691 0.8689 0.8686
2402.000000 0.8684 0.8681 0.8678 0.8677 0.8675
2407.000000 0.8673 0.8671 0.8670 0.8670 0.8668
2412.000000 0.8668 0.8668 0.8668 0.8668 0.8668
2417.000000 0.8667 0.8667 0.8666 0.8666 0.8665
2422.000000 0.8665 0.8665 0.8665 0.8665 0.8665
2427.000000 0.8665 0.8666 0.8666 0.8667 0.8667
2432.000000 0.8668 0.8668 0.8668 0.8668 0.8668
2437.000000 0.8668 0.8670 0.8670 0.8671 0.8671
2442.000000 0.8671 0.8671 0.8673 0.8673 0.8673
2447.000000 0.8673 0.8673 0.8673 0.8673 0.8673
2452.000000 0.8673 0.8673 0.8673 0.8671 0.8671
2457.000000 0.8671 0.8671 0.8671 0.8671 0.8671
2462.000000 0.8671 0.8671 0.8671 0.8671 0.8671
2467.000000 0.8671 0.8671 0.8671 0.8673 0.8673
2472.000000 0.8673 0.8673 0.8674 0.8674 0.8674
2477.000000 0.8674 0.8675 0.8675 0.8675 0.8675
2482.000000 0.8675 0.8675 0.8675 0.8675 0.8675
2487.000000 0.8675 0.8675 0.8675 0.8674 0.8673
2492.000000 0.8671 0.8671 0.8670 0.8668 0.8668
2497.000000 0.8667 0.8666 0.8664 0.8663 0.8661
2502.000000 0.8660 0.8659 0.8658 0.8656 0.8655
2507.000000 0.8654 0.8654 0.8656 0.8658 0.8660
2512.000000 0.8662 0.8664 0.8666 0.8667 0.8668
2517.000000 0.8670 0.8670 0.8670 0.8668 0.8664
2522.000000 0.8660 0.8655 0.8650 0.8645 0.8641
2527.000000 0.8636 0.8631 0.8625 0.8621 0.8618
2532.000000 0.8614 0.8613 0.8613 0.8612 0.8612
2537.000000 0.8612 0.8613 0.8615 0.8618 0.8618
2542.000000 0.8618 0.8617 0.8614 0.8607 0.8601
2547.000000 0.8595 0.8589 0.8584 0.8580 0.8575
2552.000000 0.8570 0.8566 0.8563 0.8559 0.8556
2557.000000 0.8553 0.8550 0.8549 0.8549 0.8548
2562.000000 0.8548 0.8547 0.8547 0.8545 0.8544
2567.000000 0.8543 0.8542 0.8541 0.8540 0.8534
2572.000000 0.8528 0.8523 0.8517 0.8504 0.8492
2577.000000 0.8478 0.8466 0.8452 0.8439 0.8425
2582.000000 0.8411 0.8397 0.8383 0.8368 0.8355
2587.000000 0.8339 0.8324 0.8305 0.8286 0.8267
2592.000000 0.8248 0.8228 0.8209 0.8193 0.8178
2597.000000 0.8162 0.8149 0.8134 0.8119 0.8105
2602.000000 0.8091 0.8081 0.8071 0.8069 0.8071
2607.000000 0.8071 0.8075 0.8078 0.8083 0.8088
2612.000000 0.8093 0.8098 0.8103 0.8108 0.8112
2617.000000 0.8117 0.8121 0.8126 0.8132 0.8134
2622.000000 0.8137 0.8137 0.8138 0.8138 0.8137
2627.000000 0.8137 0.8136 0.8128 0.8121 0.8107
2632.000000 0.8094 0.8075 0.8056 0.8041 0.8026
2637.000000 0.8025 0.8022 0.8017 0.8011 0.7992
2642.000000 0.7974 0.7958 0.7945 0.7926 0.7910
2647.000000 0.7888 0.7867 0.7840 0.7812 0.7784
2652.000000 0.7756 0.7725 0.7695 0.7662 0.7631
2657.000000 0.7593 0.7555 0.7467 0.7378 0.7315
2662.000000 0.7251 0.7233 0.7214 0.7206 0.7192
2667.000000 0.7200 0.7201 0.7206 0.7211 0.7232
2672.000000 0.7254 0.7300 0.7346 0.7384 0.7421
2677.000000 0.7462 0.7505 0.7548 0.7592 0.7640
2682.000000 0.7689 0.7740 0.7791 0.7819 0.7850
2687.000000 0.7862 0.7876 0.7883 0.7889 0.7895
2692.000000 0.7901 0.7907 0.7914 0.7915 0.7918
2697.000000 0.7921 0.7925 0.7926 0.7930 0.7930
2702.000000 0.7930 0.7928 0.7925 0.7921 0.7918
2707.000000 0.7908 0.7899 0.7887 0.7875 0.7858
2712.000000 0.7842 0.7817 0.7793 0.7778 0.7764
2717.000000 0.7762 0.7761 0.7761 0.7761 0.7761
2722.000000 0.7761 0.7761 0.7760 0.7757 0.7754
2727.000000 0.7761 0.7769 0.7799 0.7828 0.7861
2732.000000 0.7894 0.7925 0.7957 0.7997 0.8037
2737.000000 0.8056 0.8075 0.8085 0.8095 0.8099
2742.000000 0.8103 0.8105 0.8105 0.8104 0.8101
2747.000000 0.8096 0.8091 0.8082 0.8074 0.8061
2752.000000 0.8048 0.8028 0.8008 0.7998 0.7987
2757.000000 0.7989 0.7992 0.7993 0.7995 0.7997
2762.000000 0.7999 0.8001 0.8003 0.8003 0.8004
2767.000000 0.8004 0.8004 0.8001 0.7999 0.7995
2772.000000 0.7992 0.7984 0.7975 0.7955 0.7935
2777.000000 0.7908 0.7883 0.7851 0.7821 0.7790
2782.000000 0.7758 0.7722 0.7687 0.7651 0.7615
2787.000000 0.7603 0.7592 0.7580 0.7568 0.7556
2792.000000 0.7544 0.7532 0.7519 0.7508 0.7497
2797.000000 0.7485 0.7472 0.7451 0.7432 0.7405
2802.000000 0.7378 0.7350 0.7321 0.7293 0.7264
2807.000000 0.7234 0.7205 0.7172 0.7142 0.7110
2812.000000 0.7078 0.7047 0.7015 0.6981 0.6946
2817.000000 0.6911 0.6875 0.6840 0.6805 0.6768
2822.000000 0.6734 0.6691 0.6648 0.6605 0.6561
2827.000000 0.6518 0.6475 0.6403 0.6330 0.6212
2832.000000 0.6096 0.5927 0.5758 0.5580 0.5403
2837.000000 0.5112 0.4824 0.4501 0.4178 0.3872
2842.000000 0.3566 0.3259 0.2951 0.2643 0.2334
2847.000000 0.2027 0.1719 0.1410 0.1102 0.0835
2852.000000 0.0568 0.0448 0.0328 0.0283 0.0237
2857.000000 0.0221 0.0205 0.0188 0.0172 0.0167
2862.000000 0.0163 0.0162 0.0172 0.0165 0.0168
2867.000000 0.0172 0.0177 0.0185 0.0195 0.0204
2872.000000 0.0212 0.0217 0.0224 0.0224 0.0224
2877.000000 0.0224 0.0224 0.0224 0.0225 0.0225
2882.000000 0.0225 0.0235 0.0247 0.0273 0.0299
2887.000000 0.0349 0.0399 0.0433 0.0467 0.0484
2892.000000 0.0502 0.0505 0.0509 0.0510 0.0510
2897.000000 0.0510 0.0510 0.0504 0.0499 0.0486
2902.000000 0.0473 0.0448 0.0423 0.0363 0.0304
2907.000000 0.0261 0.0218 0.0189 0.0160 0.0144
2912.000000 0.0128 0.0119 0.0111 0.0102 0.0094
2917.000000 0.0086 0.0079 0.0075 0.0071 0.0066
2922.000000 0.0062 0.0058 0.0054 0.0050 0.0046
2927.000000 0.0042 0.0039 0.0036 0.0034 0.0032
2932.000000 0.0030 0.0028 0.0026 0.0024 0.0023
2937.000000 0.0023 0.0023 0.0023 0.0023 0.0023
2942.000000 0.0024 0.0026 0.0013 0.0031 0.0035
2947.000000 0.0044 0.0052 0.0076 0.0099 0.0102
2952.000000 0.0103 0.0104 0.0104 0.0103 0.0102
2957.000000 0.0101 0.0101 0.0100 0.0099 0.0098
2962.000000 0.0097 0.0096 0.0095 0.0095 0.0095
2967.000000 0.0095 0.0099 0.0099 0.0099 0.0116
2972.000000 0.0133 0.0208 0.0283 0.0346 0.0410
2977.000000 0.0691 0.0972 0.1531 0.2089 0.2647
2982.000000 0.3205 0.3722 0.4239 0.4340 0.4442
2987.000000 0.4538 0.4634 0.4727 0.4821 0.4915
2992.000000 0.5009 0.5105 0.5201 0.5298 0.5396
2997.000000 0.5497 0.5598 0.5870 0.6142 0.6314
3002.000000 0.6487 0.6551 0.6618 0.6684 0.6750
3007.000000 0.6835 0.6921 0.7018 0.7115 0.7184
3012.000000 0.7253 0.7321 0.7392 0.7428 0.7465
3017.000000 0.7497 0.7528 0.7561 0.7593 0.7624
3022.000000 0.7655 0.7684 0.7714 0.7743 0.7771
3027.000000 0.7801 0.7831 0.7858 0.7885 0.7907
3032.000000 0.7928 0.7951 0.7972 0.7995 0.8018
3037.000000 0.8038 0.8058 0.8075 0.8092 0.8108
3042.000000 0.8125 0.8142 0.8158 0.8172 0.8187
3047.000000 0.8197 0.8207 0.8216 0.8225 0.8235
3052.000000 0.8245 0.8250 0.8256 0.8260 0.8264
3057.000000 0.8268 0.8273 0.8277 0.8281 0.8285
3062.000000 0.8289 0.8292 0.8295 0.8298 0.8301
3067.000000 0.8304 0.8307 0.8309 0.8312 0.8315
3072.000000 0.8318 0.8320 0.8323 0.8324 0.8325
3077.000000 0.8327 0.8328 0.8328 0.8330 0.8331
3082.000000 0.8332 0.8333 0.8334 0.8335 0.8336
3087.000000 0.8337 0.8338 0.8339 0.8341 0.8342
3092.000000 0.8343 0.8344 0.8346 0.8347 0.8348
3097.000000 0.8349 0.8351 0.8352 0.8353 0.8353
3102.000000 0.8353 0.8353 0.8354 0.8354 0.8354
3107.000000 0.8354 0.8355 0.8355 0.8356 0.8356
3112.000000 0.8356 0.8356 0.8357 0.8357 0.8357
3117.000000 0.8356 0.8356 0.8355 0.8354 0.8353
3122.000000 0.8353 0.8352 0.8352 0.8351 0.8351
3127.000000 0.8350 0.8349 0.8348 0.8348 0.8347
3132.000000 0.8347 0.8346 0.8345 0.8344 0.8344
3137.000000 0.8343 0.8343 0.8342 0.8342 0.8341
3142.000000 0.8340 0.8339 0.8339 0.8338 0.8338
3147.000000 0.8337 0.8337 0.8336 0.8336 0.8335
3152.000000 0.8334 0.8333 0.8333 0.8332 0.8332
3157.000000 0.8331 0.8331 0.8331 0.8332 0.8332
3162.000000 0.8332 0.8332 0.8333 0.8333 0.8333
3167.000000 0.8333 0.8334 0.8334 0.8334 0.8334
3172.000000 0.8335 0.8335 0.8336 0.8336 0.8336
3177.000000 0.8338 0.8340 0.8342 0.8345 0.8347
3182.000000 0.8349 0.8351 0.8354 0.8356 0.8358
3187.000000 0.8360 0.8362 0.8364 0.8367 0.8368
3192.000000 0.8371 0.8373 0.8375 0.8378 0.8381
3197.000000 0.8384 0.8387 0.8390 0.8394 0.8397
3202.000000 0.8400 0.8403 0.8406 0.8408 0.8411
3207.000000 0.8414 0.8417 0.8420 0.8423 0.8425
3212.000000 0.8428 0.8431 0.8434 0.8437 0.8440
3217.000000 0.8442 0.8445 0.8448 0.8451 0.8453
3222.000000 0.8456 0.8457 0.8458 0.8459 0.8460
3227.000000 0.8460 0.8461 0.8461 0.8462 0.8463
3232.000000 0.8464 0.8464 0.8465 0.8465 0.8466
3237.000000 0.8466 0.8466 0.8466 0.8467 0.8467
3242.000000 0.8468 0.8468 0.8468 0.8468 0.8468
3247.000000 0.8468 0.8470 0.8470 0.8470 0.8471
3252.000000 0.8471 0.8471 0.8473 0.8474 0.8475
3257.000000 0.8475 0.8475 0.8477 0.8478 0.8478
3262.000000 0.8478 0.8478 0.8480 0.8481 0.8482
3267.000000 0.8482 0.8483 0.8483 0.8483 0.8483
3272.000000 0.8484 0.8484 0.8485 0.8485 0.8485
3277.000000 0.8485 0.8486 0.8486 0.8486 0.8486
3282.000000 0.8487 0.8487 0.8487 0.8487 0.8488
3287.000000 0.8488 0.8489 0.8489 0.8489 0.8489
3292.000000 0.8490 0.8490 0.8491 0.8491 0.8491
3297.000000 0.8491 0.8492 0.8492 0.8493 0.8493
3302.000000 0.8494 0.8494 0.8494 0.8494 0.8495
3307.000000 0.8495 0.8496 0.8496 0.8496 0.8496
3312.000000 0.8497 0.8498 0.8499 0.8499 0.8500
3317.000000 0.8501 0.8502 0.8502 0.8503 0.8504
3322.000000 0.8505 0.8505 0.8506 0.8507 0.8508
3327.000000 0.8508 0.8509 0.8510 0.8511 0.8511
3332.000000 0.8512 0.8513 0.8514 0.8514 0.8515
3337.000000 0.8516 0.8517 0.8517 0.8517 0.8517
3342.000000 0.8517 0.8517 0.8517 0.8517 0.8517
3347.000000 0.8517 0.8517 0.8516 0.8516 0.8516
3352.000000 0.8516 0.8516 0.8516 0.8516 0.8516
3357.000000 0.8515 0.8515 0.8515 0.8516 0.8516
3362.000000 0.8516 0.8516 0.8516 0.8516 0.8517
3367.000000 0.8517 0.8517 0.8517 0.8518 0.8518
3372.000000 0.8518 0.8518 0.8518 0.8518 0.8518
3377.000000 0.8518 0.8518 0.8518 0.8520 0.8520
3382.000000 0.8520 0.8520 0.8521 0.8521 0.8521
3387.000000 0.8521 0.8521 0.8521 0.8521 0.8521
3392.000000 0.8521 0.8521 0.8523 0.8523 0.8523
3397.000000 0.8523 0.8523 0.8523 0.8524 0.8524
3402.000000 0.8524 0.8524 0.8524 0.8524 0.8525
3407.000000 0.8525 0.8525 0.8525 0.8525 0.8525
3412.000000 0.8525 0.8525 0.8525 0.8525 0.8525
3417.000000 0.8525 0.8527 0.8527 0.8527 0.8527
3422.000000 0.8527 0.8527 0.8528 0.8528 0.8528
3427.000000 0.8528 0.8528 0.8528 0.8530 0.8530
3432.000000 0.8530 0.8530 0.8531 0.8531 0.8531
3437.000000 0.8531 0.8532 0.8532 0.8533 0.8533
3442.000000 0.8533 0.8533 0.8534 0.8534 0.8534
3447.000000 0.8534 0.8535 0.8535 0.8535 0.8535
3452.000000 0.8536 0.8536 0.8536 0.8536 0.8537
3457.000000 0.8537 0.8537 0.8537 0.8537 0.8537
3462.000000 0.8537 0.8537 0.8537 0.8537 0.8537
3467.000000 0.8537 0.8537 0.8537 0.8537 0.8537
3472.000000 0.8537 0.8536 0.8536 0.8536 0.8536
3477.000000 0.8536 0.8536 0.8536 0.8536 0.8536
3482.000000 0.8536 0.8536 0.8537 0.8537 0.8538
3487.000000 0.8538 0.8539 0.8539 0.8540 0.8541
3492.000000 0.8542 0.8542 0.8543 0.8543 0.8544
3497.000000 0.8544 0.8545 0.8545 0.8546 0.8547
3502.000000 0.8548 0.8548 0.8549 0.8549 0.8550
3507.000000 0.8550 0.8551 0.8552 0.8553 0.8553
3512.000000 0.8554 0.8554 0.8555 0.8555 0.8556
3517.000000 0.8557 0.8558 0.8559 0.8561 0.8562
3522.000000 0.8564 0.8565 0.8567 0.8568 0.8570
3527.000000 0.8571 0.8571 0.8573 0.8575 0.8575
3532.000000 0.8578 0.8578 0.8581 0.8582 0.8583
3537.000000 0.8584 0.8585 0.8585 0.8586 0.8586
3542.000000 0.8586 0.8586 0.8587 0.8587 0.8586
3547.000000 0.8586 0.8585 0.8583 0.8582 0.8580
3552.000000 0.8578 0.8575 0.8575 0.8571 0.8567
3557.000000 0.8562 0.8558 0.8553 0.8549 0.8545
3562.000000 0.8541 0.8539 0.8539 0.8539 0.8539
3567.000000 0.8545 0.8552 0.8558 0.8564 0.8568
3572.000000 0.8574 0.8577 0.8581 0.8585 0.8589
3577.000000 0.8592 0.8596 0.8598 0.8601 0.8602
3582.000000 0.8601 0.8601 0.8598 0.8593 0.8588
3587.000000 0.8581 0.8575 0.8568 0.8563 0.8553
3592.000000 0.8543 0.8542 0.8541 0.8545 0.8550
3597.000000 0.8557 0.8565 0.8574 0.8584 0.8596
3602.000000 0.8609 0.8621 0.8634 0.8644 0.8655
3607.000000 0.8655 0.8654 0.8653 0.8651 0.8646
3612.000000 0.8642 0.8631 0.8620 0.8612 0.8604
3617.000000 0.8602 0.8601 0.8604 0.8608 0.8611
3622.000000 0.8614 0.8617 0.8621 0.8625 0.8631
3627.000000 0.8636 0.8642 0.8648 0.8654 0.8660
3632.000000 0.8666 0.8671 0.8677 0.8683 0.8689
3637.000000 0.8690 0.8692 0.8693 0.8694 0.8694
3642.000000 0.8694 0.8693 0.8693 0.8693 0.8693
3647.000000 0.8692 0.8692 0.8691 0.8691 0.8690
3652.000000 0.8690 0.8689 0.8689 0.8688 0.8688
3657.000000 0.8688 0.8688 0.8687 0.8687 0.8687
3662.000000 0.8687 0.8686 0.8686 0.8686 0.8686
3667.000000 0.8685 0.8685 0.8685 0.8685 0.8684
3672.000000 0.8684 0.8684 0.8684 0.8683 0.8683
3677.000000 0.8683 0.8683 0.8683 0.8683 0.8683
3682.000000 0.8683 0.8683 0.8683 0.8683 0.8683
3687.000000 0.8683 0.8684 0.8684 0.8684 0.8684
3692.000000 0.8684 0.8684 0.8684 0.8684 0.8684
3697.000000 0.8684 0.8684 0.8684 0.8685 0.8685
3702.000000 0.8685 0.8685 0.8685 0.8684 0.8684
3707.000000 0.8683 0.8683 0.8682 0.8682 0.8681
3712.000000 0.8681 0.8680 0.8680 0.8678 0.8678
3717.000000 0.8678 0.8678 0.8677 0.8677 0.8675
3722.000000 0.8675 0.8675 0.8675 0.8673 0.8670
3727.000000 0.8666 0.8662 0.8658 0.8655 0.8651
3732.000000 0.8648 0.8644 0.8641 0.8637 0.8634
3737.000000 0.8631 0.8628 0.8625 0.8621 0.8618
3742.000000 0.8625 0.8613 0.8610 0.8608 0.8607
3747.000000 0.8607 0.8607 0.8607 0.8608 0.8608
3752.000000 0.8608 0.8608 0.8608 0.8608 0.8608
3757.000000 0.8608 0.8608 0.8609 0.8610 0.8611
3762.000000 0.8612 0.8613 0.8614 0.8615 0.8616
3767.000000 0.8617 0.8618 0.8618 0.8621 0.8621
3772.000000 0.8624 0.8625 0.8627 0.8628 0.8628
3777.000000 0.8630 0.8632 0.8632 0.8633 0.8633
3782.000000 0.8634 0.8634 0.8635 0.8636 0.8637
3787.000000 0.8637 0.8638 0.8638 0.8639 0.8639
3792.000000 0.8640 0.8640 0.8641 0.8642 0.8643
3797.000000 0.8643 0.8644 0.8644 0.8644
##END=
