##TITLE=Dimethyl sulfoxide- d6
##JCAMP-DX=4.24
$$ By DXEDIT 1.05 (RS McDonald)
##DATA TYPE=INFRARED SPECTRUM
##CLASS=COBLENTZ III
##ORIGIN=DOW CHEMICAL COMPANY
##OWNER=COPYRIGHT (C) 1988 by COBLENTZ SOCIETY INC.
Collection (C) 2018 copyright by the U.S. Secretary of Commerce
on behalf of the United States of America. All rights reserved.
##DATE=1970/01/06
##NAMES=(methylsulfinyl)methane
##CAS REGISTRY NO=2206-27-1
##MOLFORM=C2 O S D6
##SOURCE REFERENCE=COBLENTZ NO. 09974
##$NIST SOURCE=COBLENTZ
##$NIST IMAGE=cob9974
##SPECTROMETER/DATA SYSTEM=BECKMAN IR-9 (GRATING)
##INSTRUMENT PARAMETERS=ORDER CHANGES: 670, 1200, 2000 CM^-^1
##STATE=SOLUTION (5% CCl4 FOR 3800-1330, 5% CS2 FOR 1330-400 CM^-^1)
##PATH LENGTH=0.011 CM, 0.010 CM
##SAMPLING PROCEDURE=TRANSMISSION
##RESOLUTION=2
##DATA PROCESSING=DIGITIZED BY COBLENTZ SOCIETY (BATCH I) FROM HARD COPY
##XUNITS=1/CM
##YUNITS=TRANSMITTANCE
##XFACTOR=1
##YFACTOR=1
##DELTAX=1
##FIRSTX=3800
##LASTX=399
##FIRSTY=0.8691
##MAXX=3800
##MINX=399
##MAXY=0.9021
##MINY=0.0087
##NPOINTS=3402
##XYDATA=(X++(Y..Y))
3800.000000 0.8691 0.8690 0.8690 0.8689 0.8688
3795.000000 0.8686 0.8685 0.8684 0.8683 0.8682
3790.000000 0.8681 0.8680 0.8678 0.8678 0.8677
3785.000000 0.8675 0.8675 0.8674 0.8673 0.8671
3780.000000 0.8671 0.8670 0.8670 0.8668 0.8668
3775.000000 0.8667 0.8666 0.8666 0.8666 0.8665
3770.000000 0.8665 0.8665 0.8665 0.8664 0.8664
3765.000000 0.8664 0.8664 0.8663 0.8663 0.8663
3760.000000 0.8663 0.8662 0.8662 0.8662 0.8662
3755.000000 0.8661 0.8661 0.8661 0.8661 0.8661
3750.000000 0.8662 0.8662 0.8662 0.8662 0.8663
3745.000000 0.8663 0.8663 0.8663 0.8664 0.8664
3740.000000 0.8664 0.8664 0.8664 0.8664 0.8665
3735.000000 0.8665 0.8665 0.8665 0.8666 0.8666
3730.000000 0.8666 0.8665 0.8665 0.8665 0.8665
3725.000000 0.8664 0.8664 0.8664 0.8664 0.8663
3720.000000 0.8663 0.8663 0.8662 0.8662 0.8662
3715.000000 0.8662 0.8662 0.8657 0.8653 0.8649
3710.000000 0.8645 0.8639 0.8634 0.8628 0.8621
3705.000000 0.8616 0.8610 0.8604 0.8598 0.8592
3700.000000 0.8586 0.8583 0.8581 0.8578 0.8578
3695.000000 0.8578 0.8578 0.8580 0.8581 0.8582
3690.000000 0.8583 0.8584 0.8586 0.8591 0.8597
3685.000000 0.8602 0.8608 0.8613 0.8618 0.8624
3680.000000 0.8630 0.8635 0.8641 0.8643 0.8646
3675.000000 0.8647 0.8648 0.8649 0.8651 0.8652
3670.000000 0.8653 0.8654 0.8655 0.8656 0.8658
3665.000000 0.8659 0.8660 0.8661 0.8662 0.8663
3660.000000 0.8664 0.8664 0.8664 0.8662 0.8661
3655.000000 0.8660 0.8659 0.8658 0.8657 0.8656
3650.000000 0.8655 0.8653 0.8652 0.8651 0.8650
3645.000000 0.8649 0.8648 0.8646 0.8645 0.8644
3640.000000 0.8643 0.8642 0.8641 0.8639 0.8638
3635.000000 0.8637 0.8636 0.8635 0.8634 0.8633
3630.000000 0.8632 0.8631 0.8630 0.8628 0.8628
3625.000000 0.8627 0.8625 0.8625 0.8625 0.8624
3620.000000 0.8623 0.8621 0.8621 0.8620 0.8618
3615.000000 0.8618 0.8618 0.8617 0.8616 0.8615
3610.000000 0.8614 0.8613 0.8613 0.8612 0.8611
3605.000000 0.8610 0.8609 0.8608 0.8607 0.8606
3600.000000 0.8606 0.8605 0.8604 0.8603 0.8602
3595.000000 0.8601 0.8600 0.8599 0.8598 0.8597
3590.000000 0.8596 0.8595 0.8594 0.8593 0.8592
3585.000000 0.8591 0.8590 0.8589 0.8588 0.8587
3580.000000 0.8586 0.8585 0.8584 0.8583 0.8583
3575.000000 0.8582 0.8581 0.8580 0.8578 0.8578
3570.000000 0.8577 0.8575 0.8575 0.8574 0.8574
3565.000000 0.8573 0.8571 0.8571 0.8571 0.8570
3560.000000 0.8570 0.8568 0.8568 0.8567 0.8567
3555.000000 0.8566 0.8566 0.8565 0.8564 0.8563
3550.000000 0.8563 0.8562 0.8562 0.8561 0.8560
3545.000000 0.8559 0.8559 0.8558 0.8558 0.8557
3540.000000 0.8556 0.8555 0.8555 0.8554 0.8554
3535.000000 0.8553 0.8552 0.8551 0.8551 0.8550
3530.000000 0.8549 0.8548 0.8548 0.8547 0.8546
3525.000000 0.8545 0.8544 0.8543 0.8542 0.8541
3520.000000 0.8541 0.8540 0.8539 0.8538 0.8537
3515.000000 0.8536 0.8536 0.8535 0.8534 0.8533
3510.000000 0.8532 0.8531 0.8531 0.8530 0.8528
3505.000000 0.8528 0.8527 0.8525 0.8525 0.8525
3500.000000 0.8524 0.8523 0.8521 0.8521 0.8521
3495.000000 0.8520 0.8518 0.8518 0.8517 0.8516
3490.000000 0.8516 0.8515 0.8514 0.8513 0.8513
3485.000000 0.8512 0.8511 0.8510 0.8509 0.8508
3480.000000 0.8508 0.8507 0.8506 0.8505 0.8505
3475.000000 0.8504 0.8503 0.8502 0.8502 0.8501
3470.000000 0.8500 0.8499 0.8498 0.8498 0.8498
3465.000000 0.8498 0.8499 0.8499 0.8499 0.8499
3460.000000 0.8500 0.8500 0.8501 0.8501 0.8501
3455.000000 0.8501 0.8502 0.8502 0.8503 0.8503
3450.000000 0.8503 0.8503 0.8504 0.8504 0.8505
3445.000000 0.8505 0.8506 0.8506 0.8506 0.8506
3440.000000 0.8507 0.8507 0.8508 0.8508 0.8508
3435.000000 0.8508 0.8509 0.8509 0.8510 0.8510
3430.000000 0.8510 0.8510 0.8511 0.8511 0.8512
3425.000000 0.8512 0.8513 0.8513 0.8513 0.8513
3420.000000 0.8514 0.8514 0.8515 0.8515 0.8515
3415.000000 0.8515 0.8516 0.8516 0.8517 0.8517
3410.000000 0.8518 0.8518 0.8518 0.8518 0.8518
3405.000000 0.8518 0.8520 0.8520 0.8520 0.8520
3400.000000 0.8521 0.8521 0.8521 0.8521 0.8523
3395.000000 0.8523 0.8524 0.8525 0.8525 0.8527
3390.000000 0.8528 0.8528 0.8528 0.8530 0.8531
3385.000000 0.8532 0.8533 0.8533 0.8534 0.8535
3380.000000 0.8536 0.8537 0.8538 0.8538 0.8539
3375.000000 0.8540 0.8541 0.8542 0.8543 0.8544
3370.000000 0.8545 0.8545 0.8546 0.8547 0.8548
3365.000000 0.8548 0.8548 0.8548 0.8549 0.8549
3360.000000 0.8550 0.8550 0.8550 0.8550 0.8551
3355.000000 0.8551 0.8552 0.8552 0.8552 0.8552
3350.000000 0.8553 0.8553 0.8554 0.8554 0.8555
3345.000000 0.8555 0.8555 0.8555 0.8555 0.8555
3340.000000 0.8555 0.8555 0.8555 0.8554 0.8554
3335.000000 0.8554 0.8554 0.8553 0.8553 0.8553
3330.000000 0.8553 0.8552 0.8552 0.8552 0.8552
3325.000000 0.8551 0.8551 0.8550 0.8549 0.8547
3320.000000 0.8546 0.8544 0.8543 0.8541 0.8539
3315.000000 0.8537 0.8536 0.8534 0.8533 0.8531
3310.000000 0.8528 0.8525 0.8521 0.8516 0.8511
3305.000000 0.8502 0.8494 0.8485 0.8475 0.8466
3300.000000 0.8457 0.8450 0.8444 0.8438 0.8433
3295.000000 0.8427 0.8421 0.8418 0.8414 0.8410
3290.000000 0.8407 0.8403 0.8400 0.8396 0.8393
3285.000000 0.8389 0.8386 0.8383 0.8380 0.8375
3280.000000 0.8373 0.8368 0.8366 0.8362 0.8359
3275.000000 0.8358 0.8357 0.8356 0.8356 0.8356
3270.000000 0.8358 0.8360 0.8363 0.8365 0.8368
3265.000000 0.8370 0.8371 0.8378 0.8385 0.8393
3260.000000 0.8401 0.8409 0.8418 0.8425 0.8434
3255.000000 0.8441 0.8448 0.8454 0.8461 0.8467
3250.000000 0.8474 0.8480 0.8487 0.8493 0.8500
3245.000000 0.8505 0.8510 0.8513 0.8517 0.8520
3240.000000 0.8523 0.8525 0.8528 0.8530 0.8531
3235.000000 0.8532 0.8533 0.8534 0.8535 0.8536
3230.000000 0.8538 0.8539 0.8540 0.8541 0.8542
3225.000000 0.8543 0.8544 0.8545 0.8546 0.8547
3220.000000 0.8548 0.8548 0.8549 0.8549 0.8550
3215.000000 0.8550 0.8551 0.8551 0.8552 0.8552
3210.000000 0.8553 0.8553 0.8554 0.8555 0.8556
3205.000000 0.8556 0.8557 0.8557 0.8558 0.8558
3200.000000 0.8559 0.8559 0.8560 0.8560 0.8561
3195.000000 0.8561 0.8562 0.8563 0.8564 0.8564
3190.000000 0.8565 0.8565 0.8566 0.8566 0.8566
3185.000000 0.8566 0.8566 0.8566 0.8566 0.8566
3180.000000 0.8566 0.8565 0.8565 0.8565 0.8565
3175.000000 0.8565 0.8565 0.8565 0.8565 0.8565
3170.000000 0.8565 0.8565 0.8565 0.8565 0.8565
3165.000000 0.8565 0.8565 0.8565 0.8565 0.8565
3160.000000 0.8565 0.8565 0.8565 0.8565 0.8565
3155.000000 0.8565 0.8565 0.8565 0.8565 0.8565
3150.000000 0.8565 0.8565 0.8565 0.8565 0.8565
3145.000000 0.8565 0.8565 0.8565 0.8565 0.8565
3140.000000 0.8565 0.8565 0.8565 0.8565 0.8566
3135.000000 0.8566 0.8566 0.8566 0.8566 0.8566
3130.000000 0.8567 0.8567 0.8567 0.8567 0.8567
3125.000000 0.8567 0.8567 0.8567 0.8567 0.8566
3120.000000 0.8566 0.8566 0.8566 0.8565 0.8565
3115.000000 0.8565 0.8565 0.8564 0.8564 0.8564
3110.000000 0.8564 0.8563 0.8563 0.8561 0.8559
3105.000000 0.8555 0.8551 0.8547 0.8544 0.8540
3100.000000 0.8537 0.8532 0.8528 0.8523 0.8518
3095.000000 0.8515 0.8511 0.8507 0.8504 0.8501
3090.000000 0.8498 0.8498 0.8498 0.8499 0.8500
3085.000000 0.8501 0.8503 0.8504 0.8505 0.8506
3080.000000 0.8507 0.8510 0.8513 0.8516 0.8520
3075.000000 0.8523 0.8527 0.8530 0.8534 0.8536
3070.000000 0.8538 0.8539 0.8541 0.8542 0.8544
3065.000000 0.8545 0.8547 0.8549 0.8550 0.8550
3060.000000 0.8550 0.8549 0.8549 0.8548 0.8548
3055.000000 0.8547 0.8546 0.8545 0.8545 0.8544
3050.000000 0.8543 0.8540 0.8538 0.8535 0.8533
3045.000000 0.8530 0.8528 0.8525 0.8523 0.8520
3040.000000 0.8518 0.8514 0.8510 0.8506 0.8502
3035.000000 0.8497 0.8493 0.8488 0.8484 0.8481
3030.000000 0.8478 0.8475 0.8473 0.8470 0.8468
3025.000000 0.8466 0.8465 0.8465 0.8466 0.8466
3020.000000 0.8467 0.8467 0.8468 0.8468 0.8468
3015.000000 0.8473 0.8477 0.8481 0.8486 0.8490
3010.000000 0.8495 0.8497 0.8499 0.8500 0.8502
3005.000000 0.8503 0.8504 0.8505 0.8507 0.8508
3000.000000 0.8510 0.8511 0.8512 0.8512 0.8513
2995.000000 0.8513 0.8514 0.8514 0.8515 0.8515
2990.000000 0.8516 0.8516 0.8517 0.8517 0.8518
2985.000000 0.8518 0.8518 0.8518 0.8520 0.8520
2980.000000 0.8521 0.8521 0.8521 0.8523 0.8525
2975.000000 0.8525 0.8527 0.8528 0.8528 0.8530
2970.000000 0.8532 0.8533 0.8534 0.8535 0.8537
2965.000000 0.8538 0.8539 0.8540 0.8542 0.8543
2960.000000 0.8544 0.8545 0.8547 0.8548 0.8549
2955.000000 0.8550 0.8551 0.8552 0.8553 0.8554
2950.000000 0.8555 0.8556 0.8557 0.8558 0.8559
2945.000000 0.8560 0.8561 0.8562 0.8563 0.8563
2940.000000 0.8564 0.8565 0.8566 0.8567 0.8568
2935.000000 0.8568 0.8570 0.8570 0.8571 0.8571
2930.000000 0.8573 0.8573 0.8574 0.8575 0.8575
2925.000000 0.8575 0.8577 0.8577 0.8578 0.8578
2920.000000 0.8578 0.8577 0.8575 0.8571 0.8568
2915.000000 0.8565 0.8562 0.8558 0.8555 0.8551
2910.000000 0.8548 0.8544 0.8541 0.8538 0.8535
2905.000000 0.8534 0.8534 0.8533 0.8532 0.8531
2900.000000 0.8531 0.8531 0.8531 0.8532 0.8533
2895.000000 0.8534 0.8535 0.8536 0.8538 0.8539
2890.000000 0.8540 0.8541 0.8542 0.8543 0.8544
2885.000000 0.8545 0.8547 0.8548 0.8549 0.8550
2880.000000 0.8551 0.8552 0.8553 0.8554 0.8555
2875.000000 0.8556 0.8558 0.8559 0.8560 0.8561
2870.000000 0.8562 0.8563 0.8564 0.8565 0.8567
2865.000000 0.8567 0.8568 0.8568 0.8568 0.8568
2860.000000 0.8568 0.8568 0.8568 0.8568 0.8570
2855.000000 0.8570 0.8570 0.8570 0.8570 0.8570
2850.000000 0.8571 0.8571 0.8571 0.8571 0.8571
2845.000000 0.8571 0.8571 0.8571 0.8571 0.8571
2840.000000 0.8573 0.8573 0.8573 0.8573 0.8573
2835.000000 0.8573 0.8574 0.8574 0.8574 0.8574
2830.000000 0.8574 0.8574 0.8574 0.8574 0.8574
2825.000000 0.8573 0.8573 0.8573 0.8573 0.8573
2820.000000 0.8573 0.8573 0.8573 0.8573 0.8573
2815.000000 0.8573 0.8573 0.8573 0.8573 0.8571
2810.000000 0.8571 0.8571 0.8571 0.8571 0.8571
2805.000000 0.8571 0.8571 0.8571 0.8571 0.8571
2800.000000 0.8571 0.8571 0.8571 0.8571 0.8571
2795.000000 0.8571 0.8571 0.8571 0.8571 0.8571
2790.000000 0.8571 0.8571 0.8571 0.8571 0.8571
2785.000000 0.8571 0.8571 0.8571 0.8573 0.8573
2780.000000 0.8573 0.8573 0.8573 0.8573 0.8574
2775.000000 0.8574 0.8574 0.8574 0.8575 0.8575
2770.000000 0.8575 0.8575 0.8575 0.8575 0.8575
2765.000000 0.8575 0.8575 0.8575 0.8575 0.8575
2760.000000 0.8577 0.8577 0.8577 0.8577 0.8577
2755.000000 0.8577 0.8578 0.8578 0.8578 0.8578
2750.000000 0.8578 0.8578 0.8578 0.8578 0.8578
2745.000000 0.8578 0.8578 0.8578 0.8578 0.8578
2740.000000 0.8578 0.8578 0.8578 0.8578 0.8578
2735.000000 0.8577 0.8577 0.8577 0.8577 0.8575
2730.000000 0.8575 0.8575 0.8575 0.8575 0.8575
2725.000000 0.8575 0.8575 0.8574 0.8574 0.8574
2720.000000 0.8574 0.8573 0.8573 0.8573 0.8573
2715.000000 0.8571 0.8571 0.8571 0.8571 0.8571
2710.000000 0.8571 0.8571 0.8571 0.8570 0.8570
2705.000000 0.8570 0.8570 0.8568 0.8568 0.8568
2700.000000 0.8568 0.8568 0.8568 0.8567 0.8567
2695.000000 0.8567 0.8567 0.8566 0.8566 0.8566
2690.000000 0.8566 0.8566 0.8566 0.8565 0.8565
2685.000000 0.8565 0.8565 0.8565 0.8565 0.8564
2680.000000 0.8564 0.8564 0.8564 0.8563 0.8563
2675.000000 0.8563 0.8563 0.8563 0.8563 0.8562
2670.000000 0.8562 0.8562 0.8562 0.8562 0.8562
2665.000000 0.8561 0.8561 0.8561 0.8561 0.8560
2660.000000 0.8560 0.8560 0.8560 0.8560 0.8560
2655.000000 0.8559 0.8559 0.8559 0.8559 0.8559
2650.000000 0.8559 0.8558 0.8558 0.8558 0.8558
2645.000000 0.8557 0.8557 0.8556 0.8556 0.8556
2640.000000 0.8556 0.8555 0.8555 0.8554 0.8554
2635.000000 0.8554 0.8554 0.8553 0.8553 0.8552
2630.000000 0.8552 0.8551 0.8551 0.8551 0.8551
2625.000000 0.8550 0.8550 0.8549 0.8549 0.8549
2620.000000 0.8549 0.8548 0.8548 0.8547 0.8547
2615.000000 0.8546 0.8546 0.8546 0.8546 0.8545
2610.000000 0.8545 0.8544 0.8544 0.8544 0.8544
2605.000000 0.8543 0.8543 0.8543 0.8543 0.8542
2600.000000 0.8542 0.8542 0.8542 0.8542 0.8542
2595.000000 0.8541 0.8541 0.8541 0.8541 0.8541
2590.000000 0.8541 0.8540 0.8540 0.8540 0.8540
2585.000000 0.8539 0.8539 0.8539 0.8539 0.8539
2580.000000 0.8539 0.8538 0.8538 0.8538 0.8538
2575.000000 0.8537 0.8537 0.8537 0.8537 0.8537
2570.000000 0.8537 0.8536 0.8536 0.8536 0.8536
2565.000000 0.8536 0.8536 0.8535 0.8535 0.8535
2560.000000 0.8535 0.8534 0.8534 0.8534 0.8534
2555.000000 0.8534 0.8534 0.8534 0.8534 0.8534
2550.000000 0.8534 0.8534 0.8534 0.8533 0.8533
2545.000000 0.8533 0.8533 0.8533 0.8533 0.8533
2540.000000 0.8533 0.8533 0.8533 0.8532 0.8532
2535.000000 0.8532 0.8532 0.8531 0.8531 0.8531
2530.000000 0.8531 0.8530 0.8530 0.8530 0.8530
2525.000000 0.8528 0.8528 0.8528 0.8528 0.8528
2520.000000 0.8528 0.8528 0.8528 0.8527 0.8527
2515.000000 0.8527 0.8527 0.8525 0.8525 0.8525
2510.000000 0.8525 0.8525 0.8525 0.8524 0.8524
2505.000000 0.8524 0.8524 0.8523 0.8523 0.8523
2500.000000 0.8523 0.8521 0.8521 0.8520 0.8520
2495.000000 0.8518 0.8518 0.8518 0.8518 0.8517
2490.000000 0.8517 0.8516 0.8516 0.8515 0.8515
2485.000000 0.8514 0.8514 0.8513 0.8513 0.8512
2480.000000 0.8512 0.8511 0.8511 0.8510 0.8510
2475.000000 0.8509 0.8509 0.8508 0.8508 0.8507
2470.000000 0.8507 0.8506 0.8506 0.8505 0.8505
2465.000000 0.8505 0.8505 0.8504 0.8504 0.8503
2460.000000 0.8503 0.8502 0.8502 0.8502 0.8502
2455.000000 0.8501 0.8501 0.8500 0.8500 0.8499
2450.000000 0.8499 0.8498 0.8498 0.8498 0.8498
2445.000000 0.8497 0.8496 0.8495 0.8495 0.8494
2440.000000 0.8493 0.8492 0.8492 0.8491 0.8491
2435.000000 0.8490 0.8489 0.8488 0.8488 0.8487
2430.000000 0.8486 0.8485 0.8485 0.8484 0.8484
2425.000000 0.8483 0.8482 0.8481 0.8481 0.8480
2420.000000 0.8478 0.8478 0.8478 0.8477 0.8477
2415.000000 0.8475 0.8475 0.8474 0.8474 0.8473
2410.000000 0.8473 0.8471 0.8471 0.8470 0.8470
2405.000000 0.8468 0.8468 0.8464 0.8460 0.8453
2400.000000 0.8447 0.8441 0.8435 0.8428 0.8423
2395.000000 0.8417 0.8412 0.8407 0.8402 0.8397
2390.000000 0.8392 0.8387 0.8382 0.8380 0.8378
2385.000000 0.8377 0.8375 0.8375 0.8374 0.8373
2380.000000 0.8371 0.8371 0.8370 0.8368 0.8368
2375.000000 0.8367 0.8366 0.8365 0.8364 0.8363
2370.000000 0.8362 0.8361 0.8360 0.8360 0.8361
2365.000000 0.8361 0.8362 0.8362 0.8363 0.8363
2360.000000 0.8364 0.8364 0.8365 0.8365 0.8366
2355.000000 0.8367 0.8368 0.8368 0.8368 0.8368
2350.000000 0.8370 0.8370 0.8371 0.8371 0.8371
2345.000000 0.8371 0.8373 0.8373 0.8374 0.8374
2340.000000 0.8375 0.8375 0.8375 0.8375 0.8377
2335.000000 0.8377 0.8377 0.8375 0.8375 0.8375
2330.000000 0.8375 0.8375 0.8375 0.8375 0.8375
2325.000000 0.8374 0.8374 0.8374 0.8374 0.8373
2320.000000 0.8373 0.8371 0.8371 0.8371 0.8371
2315.000000 0.8370 0.8368 0.8367 0.8365 0.8363
2310.000000 0.8362 0.8360 0.8359 0.8357 0.8356
2305.000000 0.8354 0.8353 0.8351 0.8349 0.8345
2300.000000 0.8341 0.8336 0.8332 0.8327 0.8323
2295.000000 0.8318 0.8314 0.8309 0.8305 0.8298
2290.000000 0.8292 0.8286 0.8280 0.8273 0.8267
2285.000000 0.8261 0.8255 0.8245 0.8236 0.8225
2280.000000 0.8215 0.8196 0.8178 0.8148 0.8118
2275.000000 0.8086 0.8053 0.8017 0.7982 0.7951
2270.000000 0.7919 0.7890 0.7860 0.7821 0.7785
2265.000000 0.7744 0.7704 0.7662 0.7622 0.7583
2260.000000 0.7543 0.7501 0.7365 0.7421 0.7381
2255.000000 0.7372 0.7365 0.7469 0.7575 0.7683
2250.000000 0.7790 0.7897 0.8005 0.8042 0.8078
2245.000000 0.8097 0.8115 0.8133 0.8151 0.8168
2240.000000 0.8187 0.8196 0.8205 0.8213 0.8221
2235.000000 0.8230 0.8239 0.8248 0.8257 0.8265
2230.000000 0.8274 0.8282 0.8291 0.8297 0.8303
2225.000000 0.8307 0.8311 0.8315 0.8318 0.8323
2220.000000 0.8327 0.8331 0.8335 0.8339 0.8343
2215.000000 0.8347 0.8351 0.8355 0.8359 0.8363
2210.000000 0.8367 0.8370 0.8373 0.8374 0.8375
2205.000000 0.8377 0.8378 0.8378 0.8380 0.8381
2200.000000 0.8383 0.8384 0.8385 0.8386 0.8388
2195.000000 0.8389 0.8405 0.8391 0.8392 0.8392
2190.000000 0.8392 0.8390 0.8389 0.8387 0.8386
2185.000000 0.8384 0.8383 0.8381 0.8380 0.8378
2180.000000 0.8377 0.8375 0.8374 0.8371 0.8371
2175.000000 0.8368 0.8368 0.8364 0.8360 0.8354
2170.000000 0.8349 0.8343 0.8338 0.8333 0.8328
2165.000000 0.8321 0.8317 0.8311 0.8306 0.8298
2160.000000 0.8291 0.8282 0.8273 0.8263 0.8254
2155.000000 0.8245 0.8236 0.8225 0.8217 0.8208
2150.000000 0.8199 0.8189 0.8178 0.8158 0.8140
2145.000000 0.8119 0.8101 0.8065 0.8030 0.7941
2140.000000 0.7853 0.7741 0.7630 0.7518 0.7407
2135.000000 0.7368 0.7414 0.7335 0.7340 0.7396
2130.000000 0.7451 0.7507 0.7562 0.7618 0.7674
2125.000000 0.7728 0.7785 0.7840 0.7896 0.7930
2120.000000 0.7964 0.7975 0.7989 0.8001 0.8015
2115.000000 0.8026 0.8040 0.8051 0.8065 0.8078
2110.000000 0.8091 0.8101 0.8111 0.8118 0.8126
2105.000000 0.8134 0.8142 0.8150 0.8158 0.8165
2100.000000 0.8174 0.8175 0.8176 0.8176 0.8178
2095.000000 0.8178 0.8178 0.8178 0.8180 0.8180
2090.000000 0.8181 0.8181 0.8182 0.8182 0.8183
2085.000000 0.8186 0.8189 0.8193 0.8197 0.8201
2080.000000 0.8205 0.8209 0.8213 0.8217 0.8221
2075.000000 0.8225 0.8230 0.8238 0.8247 0.8255
2070.000000 0.8264 0.8270 0.8275 0.8278 0.8281
2065.000000 0.8283 0.8286 0.8289 0.8292 0.8294
2060.000000 0.8297 0.8299 0.8302 0.8304 0.8307
2055.000000 0.8309 0.8312 0.8317 0.8321 0.8328
2050.000000 0.8335 0.8341 0.8348 0.8354 0.8361
2045.000000 0.8367 0.8373 0.8377 0.8382 0.8386
2040.000000 0.8390 0.8394 0.8399 0.8403 0.8407
2035.000000 0.8408 0.8410 0.8411 0.8413 0.8414
2030.000000 0.8416 0.8417 0.8418 0.8420 0.8421
2025.000000 0.8423 0.8425 0.8425 0.8425 0.8424
2020.000000 0.8424 0.8423 0.8423 0.8421 0.8421
2015.000000 0.8420 0.8420 0.8416 0.8413 0.8406
2010.000000 0.8400 0.8388 0.8377 0.8365 0.8353
2005.000000 0.8341 0.8328 0.8320 0.8311 0.8309
2000.000000 0.8307 0.8317 0.8328 0.8340 0.8353
1995.000000 0.8367 0.8380 0.8394 0.8402 0.8408
1990.000000 0.8415 0.8421 0.8427 0.8434 0.8439
1985.000000 0.8444 0.8449 0.8454 0.8460 0.8465
1980.000000 0.8470 0.8475 0.8480 0.8486 0.8491
1975.000000 0.8497 0.8502 0.8508 0.8513 0.8518
1970.000000 0.8523 0.8525 0.8530 0.8533 0.8535
1965.000000 0.8537 0.8539 0.8541 0.8543 0.8545
1960.000000 0.8547 0.8548 0.8549 0.8550 0.8552
1955.000000 0.8553 0.8554 0.8555 0.8556 0.8557
1950.000000 0.8558 0.8559 0.8560 0.8562 0.8563
1945.000000 0.8564 0.8565 0.8565 0.8565 0.8566
1940.000000 0.8566 0.8566 0.8566 0.8567 0.8567
1935.000000 0.8567 0.8568 0.8568 0.8568 0.8568
1930.000000 0.8568 0.8568 0.8568 0.8568 0.8570
1925.000000 0.8570 0.8570 0.8570 0.8571 0.8571
1920.000000 0.8571 0.8571 0.8571 0.8571 0.8571
1915.000000 0.8573 0.8574 0.8574 0.8575 0.8575
1910.000000 0.8575 0.8577 0.8577 0.8578 0.8578
1905.000000 0.8578 0.8578 0.8580 0.8581 0.8581
1900.000000 0.8582 0.8582 0.8583 0.8583 0.8584
1895.000000 0.8585 0.8585 0.8586 0.8586 0.8587
1890.000000 0.8587 0.8586 0.8585 0.8584 0.8583
1885.000000 0.8581 0.8580 0.8578 0.8578 0.8577
1880.000000 0.8575 0.8574 0.8573 0.8571 0.8571
1875.000000 0.8568 0.8568 0.8567 0.8566 0.8565
1870.000000 0.8564 0.8562 0.8561 0.8560 0.8558
1865.000000 0.8557 0.8555 0.8554 0.8552 0.8551
1860.000000 0.8549 0.8548 0.8546 0.8545 0.8543
1855.000000 0.8542 0.8540 0.8539 0.8534 0.8530
1850.000000 0.8525 0.8521 0.8516 0.8512 0.8507
1845.000000 0.8503 0.8499 0.8495 0.8491 0.8487
1840.000000 0.8483 0.8478 0.8475 0.8471 0.8467
1835.000000 0.8463 0.8459 0.8458 0.8458 0.8457
1830.000000 0.8456 0.8455 0.8454 0.8453 0.8453
1825.000000 0.8452 0.8451 0.8450 0.8450 0.8450
1820.000000 0.8453 0.8456 0.8460 0.8463 0.8466
1815.000000 0.8468 0.8471 0.8475 0.8478 0.8482
1810.000000 0.8485 0.8486 0.8487 0.8487 0.8487
1805.000000 0.8488 0.8488 0.8488 0.8489 0.8489
1800.000000 0.8489 0.8490 0.8490 0.8490 0.8489
1795.000000 0.8488 0.8486 0.8484 0.8482 0.8481
1790.000000 0.8478 0.8477 0.8475 0.8474 0.8471
1785.000000 0.8470 0.8468 0.8467 0.8465 0.8464
1780.000000 0.8463 0.8463 0.8462 0.8462 0.8461
1775.000000 0.8461 0.8460 0.8460 0.8460 0.8460
1770.000000 0.8461 0.8461 0.8462 0.8463 0.8464
1765.000000 0.8465 0.8466 0.8470 0.8475 0.8480
1760.000000 0.8485 0.8490 0.8495 0.8500 0.8505
1755.000000 0.8510 0.8515 0.8520 0.8525 0.8528
1750.000000 0.8533 0.8537 0.8541 0.8545 0.8549
1745.000000 0.8553 0.8557 0.8561 0.8564 0.8566
1740.000000 0.8568 0.8568 0.8571 0.8571 0.8574
1735.000000 0.8575 0.8577 0.8578 0.8580 0.8577
1730.000000 0.8574 0.8571 0.8567 0.8563 0.8560
1725.000000 0.8556 0.8552 0.8550 0.8550 0.8550
1720.000000 0.8550 0.8550 0.8550 0.8550 0.8550
1715.000000 0.8549 0.8549 0.8549 0.8549 0.8549
1710.000000 0.8549 0.8549 0.8549 0.8548 0.8548
1705.000000 0.8546 0.8543 0.8540 0.8537 0.8533
1700.000000 0.8530 0.8527 0.8523 0.8520 0.8517
1695.000000 0.8514 0.8510 0.8508 0.8506 0.8504
1690.000000 0.8502 0.8500 0.8498 0.8495 0.8493
1685.000000 0.8491 0.8489 0.8487 0.8485 0.8484
1680.000000 0.8483 0.8482 0.8481 0.8480 0.8478
1675.000000 0.8478 0.8477 0.8475 0.8475 0.8474
1670.000000 0.8473 0.8471 0.8471 0.8470 0.8468
1665.000000 0.8468 0.8467 0.8465 0.8462 0.8460
1660.000000 0.8458 0.8455 0.8453 0.8451 0.8449
1655.000000 0.8446 0.8444 0.8442 0.8439 0.8436
1650.000000 0.8433 0.8430 0.8427 0.8424 0.8421
1645.000000 0.8418 0.8415 0.8412 0.8408 0.8405
1640.000000 0.8388 0.8368 0.8348 0.8327 0.8306
1635.000000 0.8285 0.8268 0.8256 0.8243 0.8231
1630.000000 0.8218 0.8205 0.8192 0.8185 0.8178
1625.000000 0.8172 0.8165 0.8160 0.8154 0.8149
1620.000000 0.8145 0.8144 0.8143 0.8145 0.8146
1615.000000 0.8149 0.8156 0.8164 0.8171 0.8181
1610.000000 0.8189 0.8197 0.8206 0.8214 0.8223
1605.000000 0.8231 0.8240 0.8248 0.8253 0.8257
1600.000000 0.8261 0.8265 0.8268 0.8271 0.8273
1595.000000 0.8275 0.8278 0.8280 0.8282 0.8284
1590.000000 0.8287 0.8289 0.8291 0.8293 0.8295
1585.000000 0.8296 0.8297 0.8297 0.8298 0.8298
1580.000000 0.8299 0.8300 0.8300 0.8301 0.8302
1575.000000 0.8302 0.8303 0.8304 0.8304 0.8305
1570.000000 0.8306 0.8306 0.8307 0.8309 0.8312
1565.000000 0.8315 0.8318 0.8320 0.8323 0.8325
1560.000000 0.8327 0.8328 0.8331 0.8333 0.8334
1555.000000 0.8336 0.8338 0.8340 0.8342 0.8343
1550.000000 0.8344 0.8345 0.8346 0.8347 0.8348
1545.000000 0.8349 0.8352 0.8356 0.8361 0.8365
1540.000000 0.8368 0.8373 0.8380 0.8388 0.8397
1535.000000 0.8405 0.8414 0.8423 0.8433 0.8442
1530.000000 0.8451 0.8458 0.8464 0.8470 0.8475
1525.000000 0.8475 0.8475 0.8468 0.8461 0.8454
1520.000000 0.8447 0.8440 0.8434 0.8434 0.8434
1515.000000 0.8437 0.8440 0.8447 0.8454 0.8460
1510.000000 0.8467 0.8474 0.8480 0.8487 0.8493
1505.000000 0.8500 0.8507 0.8513 0.8515 0.8516
1500.000000 0.8517 0.8518 0.8518 0.8518 0.8520
1495.000000 0.8521 0.8521 0.8523 0.8525 0.8525
1490.000000 0.8528 0.8530 0.8531 0.8533 0.8534
1485.000000 0.8536 0.8538 0.8539 0.8541 0.8542
1480.000000 0.8544 0.8546 0.8548 0.8550 0.8553
1475.000000 0.8555 0.8557 0.8560 0.8562 0.8564
1470.000000 0.8566 0.8568 0.8570 0.8571 0.8573
1465.000000 0.8575 0.8575 0.8578 0.8578 0.8578
1460.000000 0.8575 0.8571 0.8568 0.8566 0.8564
1455.000000 0.8562 0.8562 0.8563 0.8565 0.8566
1450.000000 0.8568 0.8570 0.8571 0.8573 0.8574
1445.000000 0.8574 0.8573 0.8571 0.8571 0.8571
1440.000000 0.8570 0.8568 0.8568 0.8567 0.8566
1435.000000 0.8566 0.8565 0.8564 0.8563 0.8562
1430.000000 0.8561 0.8560 0.8559 0.8558 0.8558
1425.000000 0.8556 0.8554 0.8551 0.8548 0.8546
1420.000000 0.8543 0.8541 0.8538 0.8535 0.8534
1415.000000 0.8533 0.8533 0.8532 0.8532 0.8531
1410.000000 0.8531 0.8530 0.8528 0.8528 0.8527
1405.000000 0.8525 0.8524 0.8521 0.8520 0.8518
1400.000000 0.8516 0.8514 0.8512 0.8510 0.8508
1395.000000 0.8507 0.8505 0.8504 0.8502 0.8501
1390.000000 0.8499 0.8498 0.8496 0.8493 0.8490
1385.000000 0.8488 0.8485 0.8482 0.8480 0.8477
1380.000000 0.8475 0.8471 0.8468 0.8468 0.8466
1375.000000 0.8464 0.8462 0.8460 0.8459 0.8459
1370.000000 0.8458 0.8458 0.8457 0.8457 0.8456
1365.000000 0.8456 0.8457 0.8462 0.8466 0.8471
1360.000000 0.8475 0.8478 0.8481 0.8484 0.8486
1355.000000 0.8488 0.8490 0.8493 0.8495 0.8497
1350.000000 0.8500 0.8502 0.8502 0.8501 0.8501
1345.000000 0.8501 0.8501 0.8501 0.8500 0.8500
1340.000000 0.8500 0.8500 0.8499 0.8499 0.8500
1335.000000 0.8501 0.8502 0.8502 0.8503 0.8504
1330.000000 0.8505 0.8506 0.8507 0.8508 0.8509
1325.000000 0.8510 0.8511 0.8513 0.8514 0.8516
1320.000000 0.8518 0.8520 0.8521 0.8524 0.8525
1315.000000 0.8527 0.8528 0.8531 0.8533 0.8535
1310.000000 0.8537 0.8538 0.8539 0.8540 0.8540
1305.000000 0.8541 0.8542 0.8542 0.8543 0.8543
1300.000000 0.8544 0.8544 0.8545 0.8546 0.8547
1295.000000 0.8547 0.8548 0.8549 0.8550 0.8551
1290.000000 0.8551 0.8548 0.8546 0.8544 0.8542
1285.000000 0.8540 0.8537 0.8530 0.8521 0.8514
1280.000000 0.8506 0.8498 0.8490 0.8482 0.8471
1275.000000 0.8462 0.8451 0.8441 0.8430 0.8420
1270.000000 0.8410 0.8408 0.8406 0.8405 0.8403
1265.000000 0.8402 0.8400 0.8399 0.8399 0.8403
1260.000000 0.8406 0.8410 0.8413 0.8417 0.8421
1255.000000 0.8424 0.8428 0.8432 0.8436 0.8440
1250.000000 0.8444 0.8448 0.8449 0.8449 0.8450
1245.000000 0.8450 0.8450 0.8450 0.8451 0.8451
1240.000000 0.8451 0.8450 0.8447 0.8444 0.8441
1235.000000 0.8438 0.8435 0.8432 0.8428 0.8420
1230.000000 0.8409 0.8398 0.8387 0.8375 0.8366
1225.000000 0.8356 0.8346 0.8336 0.8327 0.8317
1220.000000 0.8307 0.8298 0.8295 0.8292 0.8290
1215.000000 0.8288 0.8286 0.8285 0.8283 0.8282
1210.000000 0.8280 0.8280 0.8280 0.8284 0.8288
1205.000000 0.8292 0.8296 0.8300 0.8304 0.8308
1200.000000 0.8312 0.8316 0.8321 0.8325 0.8330
1195.000000 0.8335 0.8340 0.8345 0.8350 0.8355
1190.000000 0.8359 0.8364 0.8367 0.8368 0.8368
1185.000000 0.8368 0.8370 0.8368 0.8367 0.8364
1180.000000 0.8360 0.8356 0.8352 0.8348 0.8344
1175.000000 0.8341 0.8337 0.8333 0.8327 0.8320
1170.000000 0.8312 0.8305 0.8298 0.8291 0.8283
1165.000000 0.8275 0.8268 0.8260 0.8251 0.8242
1160.000000 0.8234 0.8230 0.8230 0.8231 0.8231
1155.000000 0.8231 0.8230 0.8228 0.8228 0.8227
1150.000000 0.8225 0.8225 0.8224 0.8220 0.8216
1145.000000 0.8212 0.8208 0.8204 0.8200 0.8196
1140.000000 0.8190 0.8181 0.8171 0.8161 0.8150
1135.000000 0.8138 0.8125 0.8114 0.8100 0.8084
1130.000000 0.8068 0.8053 0.8037 0.8015 0.7995
1125.000000 0.7972 0.7951 0.7930 0.7908 0.7887
1120.000000 0.7860 0.7832 0.7804 0.7775 0.7748
1115.000000 0.7718 0.7681 0.7643 0.7606 0.7568
1110.000000 0.7528 0.7471 0.7414 0.7356 0.7299
1105.000000 0.7242 0.7186 0.7128 0.7072 0.7017
1100.000000 0.6961 0.6908 0.6853 0.6797 0.6742
1095.000000 0.6686 0.6631 0.6572 0.6514 0.6454
1090.000000 0.6395 0.6335 0.6253 0.6168 0.6084
1085.000000 0.5916 0.5581 0.5205 0.5028 0.4525
1080.000000 0.4060 0.3597 0.3132 0.2668 0.2204
1075.000000 0.1739 0.1275 0.0811 0.0346 0.0147
1070.000000 0.0107 0.0092 0.0087 0.0087 0.0087
1065.000000 0.0103 0.0121 0.0150 0.0179 0.0207
1060.000000 0.0278 0.0356 0.0435 0.0561 0.0692
1055.000000 0.1046 0.1358 0.1669 0.1979 0.2292
1050.000000 0.2603 0.2914 0.3175 0.3192 0.3103
1045.000000 0.2811 0.2519 0.2228 0.1935 0.1644
1040.000000 0.1352 0.1061 0.1006 0.0981 0.1114
1035.000000 0.1275 0.1436 0.1584 0.1617 0.1650
1030.000000 0.1679 0.1721 0.1784 0.2023 0.2304
1025.000000 0.2584 0.2866 0.3147 0.3427 0.3708
1020.000000 0.3989 0.4270 0.4551 0.4742 0.4742
1015.000000 0.4712 0.4605 0.4498 0.4390 0.4283
1010.000000 0.4176 0.4183 0.4445 0.4743 0.5041
1005.000000 0.5339 0.5638 0.5936 0.6234 0.6532
1000.000000 0.6753 0.6840 0.6928 0.7015 0.7089
995.000000 0.7161 0.7234 0.7307 0.7365 0.7415
990.000000 0.7465 0.7515 0.7565 0.7598 0.7631
985.000000 0.7662 0.7696 0.7728 0.7761 0.7786
980.000000 0.7808 0.7831 0.7853 0.7875 0.7897
975.000000 0.7918 0.7941 0.7960 0.7978 0.7996
970.000000 0.8014 0.8031 0.8049 0.8067 0.8081
965.000000 0.8092 0.8101 0.8112 0.8122 0.8134
960.000000 0.8144 0.8155 0.8165 0.8175 0.8186
955.000000 0.8197 0.8205 0.8212 0.8220 0.8228
950.000000 0.8235 0.8243 0.8250 0.8258 0.8266
945.000000 0.8273 0.8281 0.8289 0.8296 0.8304
940.000000 0.8311 0.8315 0.8318 0.8323 0.8327
935.000000 0.8331 0.8335 0.8339 0.8343 0.8347
930.000000 0.8351 0.8355 0.8359 0.8363 0.8367
925.000000 0.8370 0.8374 0.8377 0.8380 0.8384
920.000000 0.8387 0.8391 0.8394 0.8398 0.8401
915.000000 0.8405 0.8408 0.8411 0.8415 0.8418
910.000000 0.8420 0.8421 0.8423 0.8425 0.8425
905.000000 0.8427 0.8428 0.8430 0.8431 0.8432
900.000000 0.8433 0.8434 0.8435 0.8435 0.8436
895.000000 0.8437 0.8437 0.8438 0.8438 0.8438
890.000000 0.8438 0.8437 0.8437 0.8436 0.8436
885.000000 0.8427 0.8418 0.8409 0.8390 0.8363
880.000000 0.8337 0.8323 0.8317 0.8311 0.8306
875.000000 0.8305 0.8304 0.8303 0.8302 0.8301
870.000000 0.8299 0.8298 0.8297 0.8296 0.8295
865.000000 0.8294 0.8293 0.8291 0.8290 0.8289
860.000000 0.8287 0.8286 0.8284 0.8283 0.8282
855.000000 0.8280 0.8278 0.8277 0.8275 0.8274
850.000000 0.8271 0.8270 0.8264 0.8257 0.8250
845.000000 0.8242 0.8235 0.8225 0.8215 0.8204
840.000000 0.8192 0.8181 0.8168 0.8158 0.8130
835.000000 0.8101 0.8074 0.8047 0.7981 0.7908
830.000000 0.7762 0.7583 0.7418 0.7267 0.6843
825.000000 0.6526 0.6210 0.5895 0.5580 0.5264
820.000000 0.4948 0.4632 0.4195 0.4195 0.4191
815.000000 0.4398 0.4762 0.5128 0.5494 0.5859
810.000000 0.6224 0.6590 0.6955 0.7267 0.7425
805.000000 0.7512 0.7587 0.7656 0.7712 0.7771
800.000000 0.7828 0.7875 0.7918 0.7951 0.7976
795.000000 0.8004 0.8030 0.8044 0.8058 0.8072
790.000000 0.8088 0.8099 0.8099 0.8100 0.8103
785.000000 0.8105 0.8107 0.8103 0.8098 0.8093
780.000000 0.8074 0.8049 0.8024 0.8000 0.7975
775.000000 0.7950 0.7924 0.7878 0.7833 0.7788
770.000000 0.7743 0.7693 0.7619 0.7547 0.7471
765.000000 0.7365 0.7261 0.7134 0.6941 0.6481
760.000000 0.6159 0.5837 0.5516 0.5194 0.4873
755.000000 0.4551 0.4406 0.4427 0.4474 0.4812
750.000000 0.5149 0.5487 0.5825 0.6162 0.6500
745.000000 0.6849 0.7145 0.7375 0.7526 0.7678
740.000000 0.7787 0.7882 0.7976 0.8035 0.8092
735.000000 0.8148 0.8205 0.8250 0.8287 0.8325
730.000000 0.8363 0.8393 0.8416 0.8438 0.8461
725.000000 0.8483 0.8503 0.8523 0.8542 0.8561
720.000000 0.8581 0.8599 0.8618 0.8637 0.8655
715.000000 0.8671 0.8686 0.8702 0.8714 0.8720
710.000000 0.8721 0.8721 0.8716 0.8711 0.8706
705.000000 0.8703 0.8701 0.8699 0.8696 0.8694
700.000000 0.8692 0.8697 0.8703 0.8708 0.8714
695.000000 0.8718 0.8723 0.8728 0.8733 0.8738
690.000000 0.8737 0.8737 0.8736 0.8736 0.8725
685.000000 0.8714 0.8702 0.8690 0.8677 0.8664
680.000000 0.8658 0.8651 0.8646 0.8644 0.8643
675.000000 0.8643 0.8644 0.8645 0.8650 0.8654
670.000000 0.8659 0.8667 0.8675 0.8684 0.8693
665.000000 0.8698 0.8703 0.8700 0.8684 0.8656
660.000000 0.8600 0.8532 0.8433 0.8367 0.8281
655.000000 0.8325 0.8321 0.8332 0.8355 0.8378
650.000000 0.8403 0.8431 0.8460 0.8489 0.8517
645.000000 0.8546 0.8563 0.8580 0.8597 0.8614
640.000000 0.8625 0.8638 0.8649 0.8660 0.8639
635.000000 0.8663 0.8662 0.8660 0.8649 0.8632
630.000000 0.8616 0.8599 0.8571 0.8535 0.8499
625.000000 0.8464 0.8387 0.8273 0.8160 0.8041
620.000000 0.7921 0.7801 0.7683 0.7564 0.7445
615.000000 0.7325 0.7261 0.7221 0.7245 0.7242
610.000000 0.7271 0.7301 0.7349 0.7403 0.7457
605.000000 0.7511 0.7565 0.7632 0.7698 0.7765
600.000000 0.7831 0.7903 0.7978 0.8056 0.8140
595.000000 0.8244 0.8334 0.8405 0.8471 0.8521
590.000000 0.8570 0.8609 0.8635 0.8645 0.8654
585.000000 0.8663 0.8671 0.8678 0.8678 0.8678
580.000000 0.8678 0.8680 0.8680 0.8681 0.8681
575.000000 0.8680 0.8680 0.8678 0.8678 0.8678
570.000000 0.8678 0.8677 0.8677 0.8675 0.8675
565.000000 0.8675 0.8675 0.8677 0.8678 0.8681
560.000000 0.8683 0.8685 0.8686 0.8688 0.8690
555.000000 0.8692 0.8694 0.8696 0.8698 0.8700
550.000000 0.8702 0.8703 0.8705 0.8708 0.8712
545.000000 0.8716 0.8718 0.8723 0.8725 0.8730
540.000000 0.8734 0.8737 0.8741 0.8745 0.8748
535.000000 0.8752 0.8756 0.8759 0.8763 0.8766
530.000000 0.8770 0.8774 0.8778 0.8782 0.8786
525.000000 0.8790 0.8793 0.8797 0.8801 0.8805
520.000000 0.8809 0.8813 0.8817 0.8821 0.8824
515.000000 0.8828 0.8832 0.8835 0.8839 0.8843
510.000000 0.8847 0.8850 0.8854 0.8858 0.8861
505.000000 0.8865 0.8868 0.8871 0.8875 0.8880
500.000000 0.8884 0.8888 0.8892 0.8897 0.8901
495.000000 0.8906 0.8910 0.8915 0.8918 0.8923
490.000000 0.8928 0.8932 0.8937 0.8941 0.8945
485.000000 0.8968 0.8954 0.8958 0.8961 0.8964
480.000000 0.8966 0.8968 0.8971 0.8975 0.8978
475.000000 0.8980 0.8983 0.8986 0.8989 0.8991
470.000000 0.8994 0.8997 0.8999 0.9001 0.9003
465.000000 0.9004 0.9006 0.9008 0.9010 0.9012
460.000000 0.9014 0.9016 0.9017 0.9018 0.9021
455.000000 0.9021 0.9018 0.9016 0.9013 0.9011
450.000000 0.9008 0.9005 0.9003 0.9000 0.8997
445.000000 0.8989 0.8964 0.8939 0.8914 0.8889
440.000000 0.8864 0.8839 0.8810 0.8780 0.8751
435.000000 0.8721 0.8691 0.8662 0.8632 0.8605
430.000000 0.8583 0.8561 0.8538 0.8516 0.8494
425.000000 0.8471 0.8450 0.8434 0.8418 0.8404
420.000000 0.8389 0.8375 0.8366 0.8355 0.8345
415.000000 0.8335 0.8324 0.8320 0.8318 0.8316
410.000000 0.8315 0.8315 0.8314 0.8314 0.8314
405.000000 0.8318 0.8324 0.8328 0.8334 0.8338
400.000000 0.8350 0.8362
##END=
