##TITLE=Ethylenediamine, N-[3-(dimethoxymethylsilyl)-2-methylpropyl]-
##JCAMP-DX=4.24
$$ By DXEDIT 1.05 (RS McDonald)
##DATA TYPE=INFRARED SPECTRUM
##CLASS=COBLENTZ III
##ORIGIN=DOW CHEMICAL COMPANY
##OWNER=COPYRIGHT (C) 1988 by COBLENTZ SOCIETY INC.
Collection (C) 2018 copyright by the U.S. Secretary of Commerce
on behalf of the United States of America. All rights reserved.
##DATE=1968/09/20
##NAMES=N<1>-(3-[dimethoxy(methyl)silyl]-2-methylpropyl)-1,2-ethanediamine
##CAS REGISTRY NO=23410-40-4
##MOLFORM=C9 H24 N2 O2 Si
##SOURCE REFERENCE=COBLENTZ NO. 07113
##$NIST SOURCE=COBLENTZ
##$NIST IMAGE=cob7113
##SPECTROMETER/DATA SYSTEM=DOW KBr FOREPRISM-GRATING
##INSTRUMENT PARAMETERS=BLAZED AT 3.5, 12.0, 20.0 MICRON AND CHANGED AT 5.0, 7.5, 14.9 MICRON
##STATE=LIQUID (NEAT)
##PATH LENGTH=CAPILLARY
##SAMPLING PROCEDURE=TRANSMISSION
##RESOLUTION=2
##DATA PROCESSING=DIGITIZED BY COBLENTZ SOCIETY (BATCH I) FROM HARD COPY
##XUNITS=1/CM
##YUNITS=TRANSMITTANCE
##XFACTOR=1
##YFACTOR=1
##DELTAX=1
##FIRSTX=3800
##LASTX=393
##FIRSTY=0.8914
##MAXX=3800
##MINX=393
##MAXY=0.8914
##MINY=0.1308
##NPOINTS=3408
##XYDATA=(X++(Y..Y))
3800.000000 0.8914 0.8914 0.8914 0.8913 0.8913
3795.000000 0.8912 0.8912 0.8911 0.8911 0.8910
3790.000000 0.8910 0.8909 0.8909 0.8908 0.8908
3785.000000 0.8908 0.8908 0.8907 0.8907 0.8906
3780.000000 0.8906 0.8905 0.8905 0.8904 0.8903
3775.000000 0.8902 0.8902 0.8901 0.8900 0.8899
3770.000000 0.8899 0.8898 0.8897 0.8896 0.8896
3765.000000 0.8895 0.8894 0.8893 0.8893 0.8892
3760.000000 0.8891 0.8890 0.8890 0.8889 0.8889
3755.000000 0.8888 0.8887 0.8886 0.8886 0.8885
3750.000000 0.8884 0.8883 0.8883 0.8882 0.8882
3745.000000 0.8881 0.8880 0.8878 0.8878 0.8877
3740.000000 0.8877 0.8875 0.8888 0.8874 0.8873
3735.000000 0.8871 0.8871 0.8870 0.8868 0.8868
3730.000000 0.8868 0.8867 0.8866 0.8865 0.8864
3725.000000 0.8863 0.8862 0.8861 0.8860 0.8859
3720.000000 0.8859 0.8858 0.8857 0.8855 0.8854
3715.000000 0.8853 0.8852 0.8850 0.8849 0.8848
3710.000000 0.8847 0.8846 0.8845 0.8843 0.8842
3705.000000 0.8841 0.8840 0.8839 0.8838 0.8836
3700.000000 0.8835 0.8834 0.8833 0.8832 0.8831
3695.000000 0.8828 0.8828 0.8827 0.8825 0.8824
3690.000000 0.8823 0.8821 0.8821 0.8820 0.8818
3685.000000 0.8816 0.8814 0.8812 0.8810 0.8808
3680.000000 0.8806 0.8804 0.8802 0.8799 0.8797
3675.000000 0.8795 0.8793 0.8791 0.8789 0.8787
3670.000000 0.8785 0.8783 0.8781 0.8778 0.8775
3665.000000 0.8774 0.8771 0.8770 0.8768 0.8766
3660.000000 0.8764 0.8762 0.8760 0.8757 0.8755
3655.000000 0.8753 0.8751 0.8748 0.8746 0.8743
3650.000000 0.8741 0.8738 0.8736 0.8733 0.8731
3645.000000 0.8728 0.8725 0.8723 0.8721 0.8718
3640.000000 0.8716 0.8713 0.8711 0.8707 0.8704
3635.000000 0.8700 0.8696 0.8692 0.8689 0.8685
3630.000000 0.8681 0.8677 0.8673 0.8668 0.8665
3625.000000 0.8661 0.8657 0.8653 0.8649 0.8645
3620.000000 0.8641 0.8637 0.8633 0.8628 0.8625
3615.000000 0.8618 0.8611 0.8604 0.8597 0.8590
3610.000000 0.8583 0.8575 0.8568 0.8562 0.8555
3605.000000 0.8548 0.8541 0.8533 0.8525 0.8518
3600.000000 0.8510 0.8502 0.8494 0.8485 0.8477
3595.000000 0.8468 0.8461 0.8453 0.8445 0.8433
3590.000000 0.8421 0.8409 0.8397 0.8389 0.8381
3585.000000 0.8373 0.8365 0.8357 0.8349 0.8341
3580.000000 0.8333 0.8325 0.8317 0.8309 0.8301
3575.000000 0.8293 0.8285 0.8277 0.8268 0.8261
3570.000000 0.8253 0.8244 0.8236 0.8223 0.8210
3565.000000 0.8187 0.8164 0.8153 0.8143 0.8133
3560.000000 0.8124 0.8115 0.8106 0.8097 0.8089
3555.000000 0.8080 0.8071 0.8061 0.8053 0.8041
3550.000000 0.8030 0.8018 0.8007 0.7995 0.7983
3545.000000 0.7971 0.7960 0.7948 0.7937 0.7925
3540.000000 0.7914 0.7901 0.7891 0.7878 0.7868
3535.000000 0.7856 0.7845 0.7833 0.7821 0.7808
3530.000000 0.7798 0.7786 0.7774 0.7761 0.7750
3525.000000 0.7738 0.7726 0.7715 0.7703 0.7691
3520.000000 0.7678 0.7667 0.7656 0.7644 0.7632
3515.000000 0.7619 0.7608 0.7596 0.7585 0.7571
3510.000000 0.7558 0.7544 0.7530 0.7515 0.7501
3505.000000 0.7487 0.7472 0.7458 0.7444 0.7428
3500.000000 0.7415 0.7400 0.7386 0.7371 0.7357
3495.000000 0.7342 0.7326 0.7311 0.7295 0.7278
3490.000000 0.7261 0.7246 0.7230 0.7214 0.7198
3485.000000 0.7182 0.7165 0.7149 0.7133 0.7117
3480.000000 0.7101 0.7085 0.7069 0.7055 0.7040
3475.000000 0.7024 0.7008 0.6994 0.6978 0.6964
3470.000000 0.6949 0.6933 0.6918 0.6903 0.6888
3465.000000 0.6872 0.6858 0.6843 0.6828 0.6811
3460.000000 0.6797 0.6781 0.6765 0.6750 0.6734
3455.000000 0.6718 0.6701 0.6685 0.6668 0.6653
3450.000000 0.6637 0.6621 0.6605 0.6589 0.6572
3445.000000 0.6556 0.6540 0.6524 0.6508 0.6492
3440.000000 0.6475 0.6460 0.6444 0.6426 0.6410
3435.000000 0.6392 0.6375 0.6358 0.6341 0.6323
3430.000000 0.6306 0.6288 0.6271 0.6254 0.6237
3425.000000 0.6219 0.6202 0.6184 0.6167 0.6150
3420.000000 0.6133 0.6116 0.6100 0.6083 0.6066
3415.000000 0.6049 0.6033 0.6016 0.6000 0.5983
3410.000000 0.5966 0.5949 0.5933 0.5916 0.5899
3405.000000 0.5882 0.5866 0.5850 0.5835 0.5820
3400.000000 0.5805 0.5789 0.5774 0.5759 0.5744
3395.000000 0.5728 0.5712 0.5698 0.5683 0.5668
3390.000000 0.5653 0.5637 0.5621 0.5605 0.5589
3385.000000 0.5572 0.5556 0.5540 0.5524 0.5508
3380.000000 0.5492 0.5474 0.5456 0.5437 0.5419
3375.000000 0.5400 0.5382 0.5365 0.5348 0.5332
3370.000000 0.5316 0.5299 0.5283 0.5273 0.5262
3365.000000 0.5254 0.5246 0.5237 0.5228 0.5222
3360.000000 0.5216 0.5212 0.5210 0.5208 0.5205
3355.000000 0.5202 0.5200 0.5197 0.5195 0.5192
3350.000000 0.5190 0.5188 0.5186 0.5184 0.5182
3345.000000 0.5180 0.5178 0.5173 0.5169 0.5164
3340.000000 0.5159 0.5154 0.5149 0.5144 0.5139
3335.000000 0.5132 0.5126 0.5116 0.5106 0.5096
3330.000000 0.5087 0.5077 0.5067 0.5057 0.5047
3325.000000 0.5037 0.5027 0.5016 0.5006 0.4996
3320.000000 0.4986 0.4974 0.4962 0.4948 0.4933
3315.000000 0.4918 0.4903 0.4891 0.4880 0.4870
3310.000000 0.4860 0.4849 0.4838 0.4823 0.4808
3305.000000 0.4802 0.4797 0.4798 0.4799 0.4799
3300.000000 0.4798 0.4797 0.4797 0.4796 0.4795
3295.000000 0.4794 0.4793 0.4802 0.4812 0.4823
3290.000000 0.4835 0.4843 0.4851 0.4859 0.4868
3285.000000 0.4876 0.4884 0.4892 0.4900 0.4908
3280.000000 0.4917 0.4922 0.4928 0.4934 0.4940
3275.000000 0.4946 0.4952 0.4957 0.4962 0.4969
3270.000000 0.4975 0.4981 0.4987 0.4992 0.4998
3265.000000 0.5003 0.5008 0.5012 0.5016 0.5020
3260.000000 0.5025 0.5029 0.5034 0.5038 0.5043
3255.000000 0.5047 0.5052 0.5056 0.5060 0.5065
3250.000000 0.5070 0.5073 0.5077 0.5078 0.5080
3245.000000 0.5082 0.5084 0.5085 0.5087 0.5089
3240.000000 0.5091 0.5092 0.5094 0.5095 0.5097
3235.000000 0.5099 0.5101 0.5102 0.5104 0.5106
3230.000000 0.5108 0.5109 0.5110 0.5112 0.5114
3225.000000 0.5116 0.5118 0.5119 0.5121 0.5123
3220.000000 0.5126 0.5128 0.5130 0.5132 0.5135
3215.000000 0.5137 0.5139 0.5141 0.5144 0.5146
3210.000000 0.5148 0.5150 0.5153 0.5155 0.5157
3205.000000 0.5159 0.5162 0.5164 0.5166 0.5168
3200.000000 0.5171 0.5176 0.5181 0.5187 0.5193
3195.000000 0.5198 0.5204 0.5210 0.5216 0.5222
3190.000000 0.5228 0.5235 0.5242 0.5250 0.5259
3185.000000 0.5267 0.5276 0.5284 0.5293 0.5301
3180.000000 0.5310 0.5319 0.5328 0.5336 0.5345
3175.000000 0.5353 0.5362 0.5370 0.5379 0.5386
3170.000000 0.5394 0.5402 0.5410 0.5417 0.5425
3165.000000 0.5433 0.5441 0.5449 0.5457 0.5464
3160.000000 0.5472 0.5480 0.5488 0.5495 0.5503
3155.000000 0.5510 0.5519 0.5526 0.5533 0.5539
3150.000000 0.5545 0.5551 0.5557 0.5562 0.5569
3145.000000 0.5575 0.5581 0.5587 0.5594 0.5600
3140.000000 0.5606 0.5612 0.5618 0.5624 0.5630
3135.000000 0.5636 0.5642 0.5648 0.5654 0.5660
3130.000000 0.5666 0.5672 0.5678 0.5684 0.5690
3125.000000 0.5696 0.5702 0.5708 0.5714 0.5720
3120.000000 0.5726 0.5731 0.5737 0.5742 0.5747
3115.000000 0.5750 0.5754 0.5758 0.5762 0.5766
3110.000000 0.5770 0.5774 0.5778 0.5781 0.5785
3105.000000 0.5789 0.5793 0.5797 0.5801 0.5804
3100.000000 0.5808 0.5810 0.5815 0.5818 0.5821
3095.000000 0.5824 0.5828 0.5831 0.5835 0.5838
3090.000000 0.5842 0.5845 0.5849 0.5852 0.5855
3085.000000 0.5858 0.5862 0.5865 0.5868 0.5870
3080.000000 0.5872 0.5873 0.5875 0.5876 0.5878
3075.000000 0.5879 0.5881 0.5882 0.5884 0.5885
3070.000000 0.5887 0.5888 0.5890 0.5892 0.5894
3065.000000 0.5895 0.5895 0.5895 0.5895 0.5894
3060.000000 0.5894 0.5893 0.5893 0.5892 0.5885
3055.000000 0.5890 0.5889 0.5887 0.5885 0.5883
3050.000000 0.5881 0.5879 0.5877 0.5875 0.5873
3045.000000 0.5871 0.5869 0.5866 0.5864 0.5860
3040.000000 0.5857 0.5853 0.5850 0.5846 0.5843
3035.000000 0.5839 0.5836 0.5832 0.5829 0.5822
3030.000000 0.5816 0.5809 0.5802 0.5795 0.5789
3025.000000 0.5782 0.5775 0.5768 0.5762 0.5755
3020.000000 0.5748 0.5735 0.5723 0.5710 0.5697
3015.000000 0.5684 0.5671 0.5653 0.5636 0.5614
3010.000000 0.5593 0.5571 0.5550 0.5522 0.5494
3005.000000 0.5464 0.5434 0.5399 0.5365 0.5310
3000.000000 0.5255 0.5203 0.5151 0.5100 0.5049
2995.000000 0.4994 0.4939 0.4870 0.4801 0.4688
2990.000000 0.4576 0.4417 0.4259 0.4147 0.4034
2985.000000 0.3924 0.3812 0.3612 0.3414 0.3158
2980.000000 0.2902 0.2806 0.2710 0.2691 0.2672
2975.000000 0.2644 0.2616 0.2567 0.2519 0.2466
2970.000000 0.2414 0.2353 0.2293 0.2230 0.2168
2965.000000 0.2152 0.2108 0.2130 0.2124 0.2121
2960.000000 0.2118 0.2115 0.2113 0.2112 0.2112
2955.000000 0.2113 0.2115 0.2117 0.2119 0.2120
2950.000000 0.2122 0.2123 0.2125 0.2131 0.2138
2945.000000 0.2144 0.2151 0.2157 0.2163 0.2169
2940.000000 0.2176 0.2185 0.2196 0.2207 0.2219
2935.000000 0.2229 0.2240 0.2248 0.2257 0.2266
2930.000000 0.2275 0.2284 0.2293 0.2296 0.2303
2925.000000 0.2299 0.2299 0.2299 0.2299 0.2299
2920.000000 0.2299 0.2289 0.2280 0.2270 0.2260
2915.000000 0.2249 0.2239 0.2237 0.2235 0.2235
2910.000000 0.2235 0.2235 0.2203 0.2249 0.2262
2905.000000 0.2285 0.2310 0.2334 0.2358 0.2380
2900.000000 0.2403 0.2424 0.2445 0.2459 0.2473
2895.000000 0.2484 0.2497 0.2509 0.2521 0.2530
2890.000000 0.2540 0.2547 0.2555 0.2562 0.2570
2885.000000 0.2579 0.2588 0.2601 0.2614 0.2627
2880.000000 0.2640 0.2660 0.2680 0.2701 0.2722
2875.000000 0.2759 0.2797 0.2851 0.2906 0.2944
2870.000000 0.2983 0.3016 0.3049 0.3075 0.3102
2865.000000 0.3118 0.3134 0.3152 0.3169 0.3189
2860.000000 0.3209 0.3221 0.3234 0.3234 0.3234
2855.000000 0.3234 0.3252 0.3230 0.3224 0.3173
2850.000000 0.3123 0.3061 0.2999 0.2942 0.2885
2845.000000 0.2819 0.2752 0.2658 0.2467 0.2563
2840.000000 0.2562 0.2560 0.2559 0.2557 0.2556
2835.000000 0.2615 0.2675 0.2757 0.2839 0.2898
2830.000000 0.2958 0.2982 0.3007 0.3010 0.3014
2825.000000 0.3020 0.3026 0.3037 0.3049 0.3060
2820.000000 0.3071 0.3096 0.3122 0.3148 0.3175
2815.000000 0.3202 0.3229 0.3255 0.3282 0.3309
2810.000000 0.3336 0.3386 0.3436 0.3487 0.3538
2805.000000 0.3600 0.3662 0.3724 0.3786 0.3852
2800.000000 0.3918 0.3986 0.4054 0.4125 0.4197
2795.000000 0.4268 0.4339 0.4406 0.4473 0.4521
2790.000000 0.4569 0.4601 0.4633 0.4665 0.4697
2785.000000 0.4725 0.4753 0.4780 0.4807 0.4834
2780.000000 0.4862 0.4889 0.4916 0.4943 0.4970
2775.000000 0.5008 0.5046 0.5085 0.5125 0.5162
2770.000000 0.5200 0.5233 0.5267 0.5301 0.5335
2765.000000 0.5360 0.5387 0.5408 0.5430 0.5451
2760.000000 0.5473 0.5494 0.5515 0.5536 0.5558
2755.000000 0.5579 0.5601 0.5623 0.5645 0.5667
2750.000000 0.5689 0.5710 0.5733 0.5756 0.5780
2745.000000 0.5815 0.5850 0.5885 0.5920 0.5955
2740.000000 0.5990 0.6024 0.6058 0.6092 0.6126
2735.000000 0.6153 0.6180 0.6196 0.6212 0.6227
2730.000000 0.6243 0.6259 0.6275 0.6290 0.6306
2725.000000 0.6322 0.6338 0.6353 0.6369 0.6385
2720.000000 0.6401 0.6419 0.6439 0.6458 0.6478
2715.000000 0.6496 0.6515 0.6532 0.6550 0.6567
2710.000000 0.6585 0.6601 0.6619 0.6637 0.6654
2705.000000 0.6665 0.6678 0.6690 0.6703 0.6715
2700.000000 0.6728 0.6740 0.6753 0.6765 0.6778
2695.000000 0.6790 0.6803 0.6815 0.6828 0.6840
2690.000000 0.6853 0.6865 0.6878 0.6888 0.6899
2685.000000 0.6907 0.6915 0.6924 0.6933 0.6941
2680.000000 0.6949 0.6957 0.6965 0.6974 0.6983
2675.000000 0.6991 0.6999 0.7007 0.7015 0.7024
2670.000000 0.7032 0.7040 0.7049 0.7056 0.7062
2665.000000 0.7068 0.7075 0.7081 0.7088 0.7094
2660.000000 0.7100 0.7106 0.7112 0.7118 0.7125
2655.000000 0.7130 0.7136 0.7141 0.7147 0.7151
2650.000000 0.7158 0.7162 0.7168 0.7172 0.7178
2645.000000 0.7184 0.7190 0.7194 0.7198 0.7201
2640.000000 0.7205 0.7208 0.7212 0.7215 0.7219
2635.000000 0.7222 0.7226 0.7231 0.7235 0.7238
2630.000000 0.7242 0.7245 0.7248 0.7250 0.7253
2625.000000 0.7255 0.7258 0.7260 0.7261 0.7264
2620.000000 0.7267 0.7268 0.7271 0.7274 0.7276
2615.000000 0.7278 0.7282 0.7284 0.7287 0.7289
2610.000000 0.7292 0.7294 0.7297 0.7299 0.7301
2605.000000 0.7304 0.7307 0.7308 0.7311 0.7315
2600.000000 0.7318 0.7322 0.7326 0.7330 0.7334
2595.000000 0.7338 0.7342 0.7345 0.7349 0.7353
2590.000000 0.7357 0.7360 0.7364 0.7368 0.7371
2585.000000 0.7375 0.7380 0.7384 0.7389 0.7394
2580.000000 0.7399 0.7404 0.7408 0.7414 0.7418
2575.000000 0.7424 0.7428 0.7433 0.7438 0.7443
2570.000000 0.7448 0.7453 0.7458 0.7462 0.7468
2565.000000 0.7472 0.7478 0.7482 0.7487 0.7491
2560.000000 0.7495 0.7499 0.7504 0.7508 0.7512
2555.000000 0.7517 0.7521 0.7525 0.7531 0.7535
2550.000000 0.7540 0.7544 0.7549 0.7553 0.7558
2545.000000 0.7561 0.7565 0.7569 0.7575 0.7578
2540.000000 0.7584 0.7588 0.7593 0.7597 0.7601
2535.000000 0.7606 0.7611 0.7615 0.7619 0.7624
2530.000000 0.7628 0.7633 0.7638 0.7643 0.7649
2525.000000 0.7654 0.7658 0.7664 0.7668 0.7674
2520.000000 0.7680 0.7685 0.7690 0.7695 0.7700
2515.000000 0.7705 0.7711 0.7715 0.7721 0.7725
2510.000000 0.7732 0.7737 0.7742 0.7747 0.7751
2505.000000 0.7757 0.7762 0.7768 0.7772 0.7778
2500.000000 0.7783 0.7788 0.7794 0.7799 0.7804
2495.000000 0.7808 0.7814 0.7818 0.7824 0.7828
2490.000000 0.7833 0.7838 0.7843 0.7848 0.7853
2485.000000 0.7858 0.7862 0.7867 0.7871 0.7876
2480.000000 0.7882 0.7887 0.7892 0.7897 0.7901
2475.000000 0.7906 0.7911 0.7915 0.7921 0.7925
2470.000000 0.7931 0.7935 0.7940 0.7945 0.7950
2465.000000 0.7955 0.7960 0.7965 0.7969 0.7975
2460.000000 0.7980 0.7985 0.7990 0.7995 0.8000
2455.000000 0.8005 0.8010 0.8015 0.8019 0.8025
2450.000000 0.8030 0.8035 0.8040 0.8045 0.8050
2445.000000 0.8055 0.8060 0.8065 0.8069 0.8075
2440.000000 0.8080 0.8085 0.8090 0.8095 0.8100
2435.000000 0.8105 0.8110 0.8115 0.8119 0.8125
2430.000000 0.8130 0.8135 0.8140 0.8143 0.8147
2425.000000 0.8150 0.8153 0.8156 0.8158 0.8161
2420.000000 0.8165 0.8168 0.8171 0.8174 0.8176
2415.000000 0.8180 0.8183 0.8186 0.8189 0.8192
2410.000000 0.8195 0.8198 0.8201 0.8204 0.8207
2405.000000 0.8210 0.8213 0.8216 0.8218 0.8221
2400.000000 0.8225 0.8227 0.8230 0.8233 0.8236
2395.000000 0.8239 0.8242 0.8244 0.8247 0.8250
2390.000000 0.8253 0.8255 0.8258 0.8261 0.8264
2385.000000 0.8266 0.8268 0.8271 0.8275 0.8278
2380.000000 0.8281 0.8283 0.8286 0.8288 0.8291
2375.000000 0.8293 0.8296 0.8299 0.8302 0.8304
2370.000000 0.8307 0.8309 0.8312 0.8315 0.8318
2365.000000 0.8320 0.8323 0.8325 0.8328 0.8330
2360.000000 0.8333 0.8336 0.8339 0.8341 0.8344
2355.000000 0.8346 0.8349 0.8351 0.8354 0.8356
2350.000000 0.8359 0.8361 0.8364 0.8366 0.8368
2345.000000 0.8371 0.8373 0.8375 0.8377 0.8378
2340.000000 0.8380 0.8382 0.8384 0.8386 0.8388
2335.000000 0.8390 0.8392 0.8394 0.8396 0.8398
2330.000000 0.8400 0.8402 0.8404 0.8406 0.8408
2325.000000 0.8410 0.8412 0.8413 0.8415 0.8417
2320.000000 0.8418 0.8421 0.8423 0.8425 0.8427
2315.000000 0.8428 0.8430 0.8432 0.8434 0.8436
2310.000000 0.8438 0.8439 0.8440 0.8441 0.8443
2305.000000 0.8444 0.8445 0.8446 0.8448 0.8449
2300.000000 0.8451 0.8452 0.8453 0.8454 0.8456
2295.000000 0.8457 0.8458 0.8458 0.8459 0.8459
2290.000000 0.8459 0.8459 0.8459 0.8459 0.8460
2285.000000 0.8460 0.8460 0.8460 0.8461 0.8461
2280.000000 0.8461 0.8461 0.8461 0.8461 0.8462
2275.000000 0.8462 0.8462 0.8462 0.8462 0.8462
2270.000000 0.8463 0.8463 0.8463 0.8463 0.8463
2265.000000 0.8463 0.8463 0.8463 0.8463 0.8463
2260.000000 0.8463 0.8462 0.8462 0.8462 0.8462
2255.000000 0.8461 0.8461 0.8461 0.8461 0.8460
2250.000000 0.8460 0.8460 0.8460 0.8459 0.8459
2245.000000 0.8459 0.8459 0.8458 0.8457 0.8456
2240.000000 0.8456 0.8455 0.8455 0.8454 0.8454
2235.000000 0.8453 0.8453 0.8452 0.8451 0.8450
2230.000000 0.8450 0.8449 0.8449 0.8448 0.8448
2225.000000 0.8447 0.8447 0.8447 0.8448 0.8448
2220.000000 0.8448 0.8448 0.8449 0.8449 0.8449
2215.000000 0.8449 0.8450 0.8450 0.8450 0.8450
2210.000000 0.8451 0.8451 0.8452 0.8452 0.8452
2205.000000 0.8452 0.8452 0.8452 0.8452 0.8451
2200.000000 0.8451 0.8450 0.8450 0.8449 0.8449
2195.000000 0.8448 0.8448 0.8447 0.8447 0.8447
2190.000000 0.8447 0.8446 0.8446 0.8445 0.8445
2185.000000 0.8444 0.8444 0.8443 0.8443 0.8442
2180.000000 0.8442 0.8441 0.8441 0.8440 0.8440
2175.000000 0.8441 0.8442 0.8442 0.8443 0.8443
2170.000000 0.8444 0.8445 0.8446 0.8446 0.8447
2165.000000 0.8448 0.8449 0.8450 0.8451 0.8452
2160.000000 0.8453 0.8454 0.8455 0.8455 0.8456
2155.000000 0.8457 0.8458 0.8459 0.8460 0.8461
2150.000000 0.8462 0.8463 0.8464 0.8464 0.8465
2145.000000 0.8466 0.8467 0.8468 0.8468 0.8470
2140.000000 0.8471 0.8471 0.8473 0.8474 0.8475
2135.000000 0.8475 0.8477 0.8478 0.8480 0.8481
2130.000000 0.8482 0.8483 0.8485 0.8486 0.8488
2125.000000 0.8489 0.8490 0.8491 0.8493 0.8494
2120.000000 0.8495 0.8496 0.8498 0.8500 0.8502
2115.000000 0.8504 0.8507 0.8509 0.8511 0.8513
2110.000000 0.8516 0.8518 0.8521 0.8523 0.8525
2105.000000 0.8527 0.8530 0.8530 0.8530 0.8530
2100.000000 0.8530 0.8528 0.8528 0.8528 0.8528
2095.000000 0.8528 0.8528 0.8527 0.8527 0.8525
2090.000000 0.8525 0.8524 0.8523 0.8523 0.8524
2085.000000 0.8524 0.8525 0.8525 0.8525 0.8525
2080.000000 0.8527 0.8527 0.8528 0.8528 0.8528
2075.000000 0.8528 0.8528 0.8528 0.8530 0.8530
2070.000000 0.8531 0.8531 0.8532 0.8532 0.8533
2065.000000 0.8533 0.8534 0.8534 0.8535 0.8535
2060.000000 0.8536 0.8538 0.8540 0.8542 0.8544
2055.000000 0.8546 0.8548 0.8550 0.8552 0.8553
2050.000000 0.8555 0.8557 0.8559 0.8561 0.8563
2045.000000 0.8565 0.8567 0.8568 0.8571 0.8571
2040.000000 0.8574 0.8577 0.8580 0.8582 0.8585
2035.000000 0.8588 0.8591 0.8594 0.8597 0.8599
2030.000000 0.8602 0.8605 0.8608 0.8610 0.8613
2025.000000 0.8615 0.8618 0.8618 0.8621 0.8621
2020.000000 0.8624 0.8625 0.8627 0.8628 0.8630
2015.000000 0.8631 0.8633 0.8634 0.8636 0.8637
2010.000000 0.8639 0.8640 0.8642 0.8643 0.8645
2005.000000 0.8646 0.8648 0.8649 0.8651 0.8654
2000.000000 0.8657 0.8660 0.8663 0.8667 0.8670
1995.000000 0.8673 0.8675 0.8678 0.8680 0.8681
1990.000000 0.8683 0.8684 0.8686 0.8687 0.8689
1985.000000 0.8692 0.8695 0.8697 0.8700 0.8703
1980.000000 0.8706 0.8708 0.8711 0.8714 0.8716
1975.000000 0.8718 0.8721 0.8724 0.8725 0.8725
1970.000000 0.8725 0.8724 0.8723 0.8723 0.8721
1965.000000 0.8721 0.8721 0.8718 0.8715 0.8708
1960.000000 0.8696 0.8685 0.8675 0.8666 0.8656
1955.000000 0.8647 0.8653 0.8658 0.8663 0.8668
1950.000000 0.8673 0.8674 0.8675 0.8675 0.8675
1945.000000 0.8675 0.8675 0.8675 0.8675 0.8675
1940.000000 0.8675 0.8675 0.8674 0.8673 0.8673
1935.000000 0.8671 0.8671 0.8671 0.8670 0.8670
1930.000000 0.8668 0.8668 0.8668 0.8667 0.8667
1925.000000 0.8666 0.8665 0.8662 0.8659 0.8655
1920.000000 0.8651 0.8651 0.8651 0.8652 0.8653
1915.000000 0.8654 0.8654 0.8655 0.8656 0.8657
1910.000000 0.8657 0.8658 0.8659 0.8659 0.8660
1905.000000 0.8661 0.8662 0.8662 0.8663 0.8664
1900.000000 0.8665 0.8665 0.8666 0.8667 0.8667
1895.000000 0.8668 0.8668 0.8670 0.8671 0.8671
1890.000000 0.8673 0.8675 0.8675 0.8677 0.8678
1885.000000 0.8678 0.8680 0.8680 0.8681 0.8682
1880.000000 0.8683 0.8683 0.8684 0.8685 0.8685
1875.000000 0.8686 0.8687 0.8687 0.8688 0.8688
1870.000000 0.8687 0.8687 0.8686 0.8685 0.8685
1865.000000 0.8684 0.8684 0.8683 0.8682 0.8682
1860.000000 0.8681 0.8681 0.8680 0.8678 0.8678
1855.000000 0.8678 0.8678 0.8677 0.8675 0.8675
1850.000000 0.8675 0.8675 0.8675 0.8675 0.8675
1845.000000 0.8675 0.8675 0.8675 0.8675 0.8675
1840.000000 0.8675 0.8675 0.8675 0.8675 0.8675
1835.000000 0.8675 0.8675 0.8675 0.8675 0.8675
1830.000000 0.8675 0.8675 0.8675 0.8675 0.8675
1825.000000 0.8675 0.8675 0.8674 0.8674 0.8673
1820.000000 0.8673 0.8671 0.8671 0.8671 0.8671
1815.000000 0.8671 0.8670 0.8670 0.8670 0.8670
1810.000000 0.8670 0.8670 0.8668 0.8668 0.8668
1805.000000 0.8668 0.8668 0.8670 0.8671 0.8674
1800.000000 0.8675 0.8678 0.8681 0.8683 0.8685
1795.000000 0.8687 0.8689 0.8691 0.8693 0.8695
1790.000000 0.8697 0.8699 0.8701 0.8703 0.8705
1785.000000 0.8707 0.8709 0.8710 0.8711 0.8711
1780.000000 0.8711 0.8711 0.8711 0.8711 0.8711
1775.000000 0.8711 0.8712 0.8712 0.8712 0.8712
1770.000000 0.8712 0.8712 0.8712 0.8712 0.8712
1765.000000 0.8712 0.8712 0.8712 0.8711 0.8711
1760.000000 0.8711 0.8711 0.8711 0.8711 0.8711
1755.000000 0.8711 0.8710 0.8710 0.8710 0.8710
1750.000000 0.8710 0.8709 0.8708 0.8707 0.8707
1745.000000 0.8706 0.8705 0.8704 0.8703 0.8702
1740.000000 0.8701 0.8700 0.8699 0.8698 0.8698
1735.000000 0.8697 0.8695 0.8694 0.8693 0.8692
1730.000000 0.8691 0.8690 0.8689 0.8688 0.8687
1725.000000 0.8686 0.8685 0.8684 0.8684 0.8683
1720.000000 0.8682 0.8682 0.8681 0.8680 0.8675
1715.000000 0.8668 0.8661 0.8655 0.8648 0.8641
1710.000000 0.8634 0.8627 0.8621 0.8614 0.8607
1705.000000 0.8592 0.8575 0.8559 0.8542 0.8525
1700.000000 0.8510 0.8493 0.8477 0.8461 0.8445
1695.000000 0.8428 0.8411 0.8393 0.8375 0.8356
1690.000000 0.8325 0.8294 0.8267 0.8247 0.8228
1685.000000 0.8208 0.8189 0.8169 0.8145 0.8118
1680.000000 0.8094 0.8068 0.8044 0.8018 0.7995
1675.000000 0.7969 0.7946 0.7922 0.7900 0.7878
1670.000000 0.7855 0.7833 0.7815 0.7798 0.7780
1665.000000 0.7762 0.7748 0.7735 0.7721 0.7708
1660.000000 0.7701 0.7695 0.7688 0.7681 0.7674
1655.000000 0.7667 0.7658 0.7651 0.7646 0.7641
1650.000000 0.7636 0.7631 0.7621 0.7612 0.7604
1645.000000 0.7595 0.7586 0.7576 0.7568 0.7558
1640.000000 0.7548 0.7538 0.7526 0.7515 0.7505
1635.000000 0.7492 0.7478 0.7464 0.7450 0.7436
1630.000000 0.7421 0.7405 0.7385 0.7364 0.7344
1625.000000 0.7321 0.7294 0.7265 0.7221 0.7176
1620.000000 0.7131 0.7084 0.7036 0.6972 0.6893
1615.000000 0.6818 0.6764 0.6692 0.6565 0.6430
1610.000000 0.6247 0.6062 0.5989 0.5943 0.5922
1605.000000 0.5910 0.5907 0.5901 0.5897 0.5912
1600.000000 0.5940 0.5969 0.5997 0.6027 0.6056
1595.000000 0.6086 0.6115 0.6144 0.6174 0.6201
1590.000000 0.6226 0.6252 0.6278 0.6303 0.6329
1585.000000 0.6355 0.6380 0.6406 0.6431 0.6456
1580.000000 0.6480 0.6505 0.6528 0.6554 0.6578
1575.000000 0.6603 0.6626 0.6649 0.6669 0.6692
1570.000000 0.6712 0.6735 0.6757 0.6778 0.6803
1565.000000 0.6825 0.6849 0.6871 0.6895 0.6918
1560.000000 0.6940 0.6960 0.6980 0.6999 0.7018
1555.000000 0.7038 0.7058 0.7076 0.7097 0.7115
1550.000000 0.7136 0.7156 0.7175 0.7194 0.7211
1545.000000 0.7231 0.7249 0.7267 0.7286 0.7304
1540.000000 0.7317 0.7328 0.7340 0.7351 0.7364
1535.000000 0.7375 0.7380 0.7386 0.7391 0.7396
1530.000000 0.7397 0.7397 0.7398 0.7398 0.7399
1525.000000 0.7399 0.7398 0.7396 0.7394 0.7414
1520.000000 0.7387 0.7382 0.7376 0.7365 0.7354
1515.000000 0.7343 0.7331 0.7318 0.7304 0.7290
1510.000000 0.7265 0.7241 0.7217 0.7180 0.7139
1505.000000 0.7099 0.7044 0.6982 0.6934 0.6893
1500.000000 0.6853 0.6810 0.6764 0.6718 0.6618
1495.000000 0.6550 0.6480 0.6411 0.6342 0.6272
1490.000000 0.6203 0.6133 0.6064 0.5995 0.5925
1485.000000 0.5856 0.5787 0.5717 0.5648 0.5579
1480.000000 0.5509 0.5440 0.5370 0.5301 0.5232
1475.000000 0.5162 0.5093 0.5024 0.4954 0.4885
1470.000000 0.4815 0.4746 0.4677 0.4607 0.4538
1465.000000 0.4469 0.4388 0.4346 0.4329 0.4287
1460.000000 0.4319 0.4326 0.4360 0.4421 0.4477
1455.000000 0.4532 0.4585 0.4639 0.4690 0.4739
1450.000000 0.4789 0.4839 0.4889 0.4945 0.5001
1445.000000 0.5056 0.5112 0.5168 0.5228 0.5288
1440.000000 0.5349 0.5409 0.5471 0.5532 0.5594
1435.000000 0.5655 0.5710 0.5765 0.5818 0.5872
1430.000000 0.5927 0.5983 0.6039 0.6109 0.6158
1425.000000 0.6199 0.6245 0.6260 0.6274 0.6273
1420.000000 0.6273 0.6256 0.6220 0.6177 0.6138
1415.000000 0.6100 0.6067 0.6043 0.6034 0.6024
1410.000000 0.6021 0.6020 0.6018 0.6018 0.6018
1405.000000 0.6021 0.6062 0.6104 0.6138 0.6170
1400.000000 0.6203 0.6234 0.6260 0.6285 0.6310
1395.000000 0.6336 0.6371 0.6408 0.6418 0.6433
1390.000000 0.6431 0.6415 0.6191 0.6084 0.6049
1385.000000 0.6020 0.5994 0.5968 0.5941 0.5897
1380.000000 0.5896 0.5875 0.5904 0.5985 0.6066
1375.000000 0.6100 0.6131 0.6162 0.6195 0.6225
1370.000000 0.6255 0.6282 0.6303 0.6323 0.6340
1365.000000 0.6353 0.6367 0.6381 0.6397 0.6418
1360.000000 0.6441 0.6461 0.6482 0.6500 0.6515
1355.000000 0.6525 0.6525 0.6546 0.6503 0.6472
1350.000000 0.6439 0.6406 0.6378 0.6350 0.6323
1345.000000 0.6302 0.6288 0.6278 0.6265 0.6259
1340.000000 0.6286 0.6226 0.6386 0.6439 0.6493
1335.000000 0.6548 0.6601 0.6665 0.6738 0.6801
1330.000000 0.6856 0.6891 0.6903 0.6905 0.6906
1325.000000 0.6906 0.6906 0.6906 0.6875 0.6834
1320.000000 0.6783 0.6730 0.6678 0.6625 0.6572
1315.000000 0.6521 0.6480 0.6448 0.6415 0.6383
1310.000000 0.6354 0.6331 0.6325 0.6318 0.6310
1305.000000 0.6310 0.6273 0.6341 0.6378 0.6405
1300.000000 0.6422 0.6440 0.6458 0.6475 0.6492
1295.000000 0.6510 0.6521 0.6533 0.6544 0.6557
1290.000000 0.6568 0.6581 0.6593 0.6601 0.6607
1285.000000 0.6612 0.6624 0.6636 0.6647 0.6655
1280.000000 0.6655 0.6672 0.6621 0.6583 0.6535
1275.000000 0.6482 0.6403 0.6275 0.5958 0.5641
1270.000000 0.5324 0.5007 0.4690 0.4374 0.4057
1265.000000 0.3740 0.3423 0.3053 0.3024 0.3193
1260.000000 0.3430 0.3668 0.3906 0.4144 0.4382
1255.000000 0.4619 0.4857 0.5095 0.5332 0.5570
1250.000000 0.5808 0.5992 0.6055 0.6118 0.6183
1245.000000 0.6269 0.6329 0.6408 0.6461 0.6485
1240.000000 0.6480 0.6478 0.6471 0.6455 0.6421
1235.000000 0.6347 0.6259 0.6133 0.5999 0.5871
1230.000000 0.5783 0.5694 0.5606 0.5517 0.5410
1225.000000 0.5336 0.5296 0.5270 0.5233 0.5258
1220.000000 0.5264 0.5292 0.5337 0.5380 0.5422
1215.000000 0.5464 0.5501 0.5531 0.5555 0.5569
1210.000000 0.5581 0.5583 0.5594 0.5571 0.5555
1205.000000 0.5519 0.5473 0.5427 0.5357 0.5288
1200.000000 0.5226 0.5162 0.5075 0.4982 0.4910
1195.000000 0.4855 0.4804 0.4758 0.4683 0.4729
1190.000000 0.4756 0.4810 0.4868 0.4927 0.4990
1185.000000 0.5053 0.5122 0.5210 0.5303 0.5389
1180.000000 0.5460 0.5515 0.5562 0.5608 0.5635
1175.000000 0.5654 0.5672 0.5684 0.5690 0.5693
1170.000000 0.5695 0.5698 0.5736 0.5695 0.5693
1165.000000 0.5689 0.5679 0.5668 0.5648 0.5628
1160.000000 0.5609 0.5581 0.5551 0.5520 0.5490
1155.000000 0.5462 0.5435 0.5407 0.5380 0.5343
1150.000000 0.5292 0.5242 0.5188 0.5129 0.5067
1145.000000 0.4969 0.4872 0.4781 0.4692 0.4606
1140.000000 0.4521 0.4446 0.4372 0.4299 0.4225
1135.000000 0.4151 0.4078 0.4004 0.3930 0.3857
1130.000000 0.3782 0.3709 0.3636 0.3562 0.3488
1125.000000 0.3414 0.3341 0.3266 0.3194 0.3120
1120.000000 0.3013 0.2902 0.2826 0.2750 0.2659
1115.000000 0.2521 0.2384 0.2278 0.2172 0.2065
1110.000000 0.1958 0.1851 0.1763 0.1679 0.1629
1105.000000 0.1587 0.1544 0.1499 0.1451 0.1406
1100.000000 0.1375 0.1342 0.1323 0.1310 0.1308
1095.000000 0.1308 0.1308 0.1310 0.1318 0.1332
1090.000000 0.1346 0.1359 0.1373 0.1388 0.1404
1085.000000 0.1419 0.1435 0.1451 0.1466 0.1480
1080.000000 0.1495 0.1509 0.1523 0.1538 0.1546
1075.000000 0.1554 0.1561 0.1569 0.1577 0.1585
1070.000000 0.1592 0.1600 0.1607 0.1615 0.1622
1065.000000 0.1628 0.1632 0.1635 0.1651 0.1643
1060.000000 0.1642 0.1641 0.1637 0.1629 0.1620
1055.000000 0.1609 0.1598 0.1587 0.1575 0.1562
1050.000000 0.1549 0.1536 0.1523 0.1510 0.1496
1045.000000 0.1480 0.1476 0.1476 0.1476 0.1476
1040.000000 0.1494 0.1523 0.1556 0.1590 0.1623
1035.000000 0.1667 0.1711 0.1754 0.1799 0.1873
1030.000000 0.1949 0.2037 0.2189 0.2334 0.2448
1025.000000 0.2561 0.2675 0.2775 0.2875 0.2984
1020.000000 0.3132 0.3271 0.3400 0.3530 0.3660
1015.000000 0.3790 0.3920 0.4050 0.4180 0.4310
1010.000000 0.4439 0.4569 0.4699 0.4829 0.4958
1005.000000 0.5088 0.5218 0.5348 0.5478 0.5568
1000.000000 0.5637 0.5707 0.5777 0.5847 0.5916
995.000000 0.5984 0.6047 0.6110 0.6170 0.6224
990.000000 0.6278 0.6331 0.6371 0.6410 0.6450
985.000000 0.6484 0.6512 0.6540 0.6568 0.6587
980.000000 0.6604 0.6610 0.6608 0.6608 0.6607
975.000000 0.6606 0.6601 0.6598 0.6594 0.6589
970.000000 0.6585 0.6581 0.6576 0.6571 0.6568
965.000000 0.6564 0.6557 0.6545 0.6534 0.6522
960.000000 0.6511 0.6500 0.6489 0.6476 0.6465
955.000000 0.6455 0.6443 0.6426 0.6411 0.6394
950.000000 0.6378 0.6362 0.6345 0.6329 0.6312
945.000000 0.6296 0.6279 0.6262 0.6246 0.6228
940.000000 0.6198 0.6169 0.6140 0.6110 0.6082
935.000000 0.6049 0.6017 0.5984 0.5951 0.5919
930.000000 0.5886 0.5853 0.5820 0.5788 0.5760
925.000000 0.5732 0.5703 0.5679 0.5665 0.5651
920.000000 0.5637 0.5625 0.5569 0.5609 0.5609
915.000000 0.5610 0.5619 0.5627 0.5636 0.5647
910.000000 0.5659 0.5671 0.5683 0.5695 0.5706
905.000000 0.5718 0.5729 0.5740 0.5750 0.5760
900.000000 0.5770 0.5779 0.5789 0.5796 0.5801
895.000000 0.5807 0.5812 0.5817 0.5808 0.5823
890.000000 0.5822 0.5822 0.5822 0.5822 0.5810
885.000000 0.5790 0.5770 0.5737 0.5691 0.5640
880.000000 0.5573 0.5507 0.5449 0.5389 0.5316
875.000000 0.5243 0.5170 0.5096 0.5023 0.4950
870.000000 0.4877 0.4803 0.4730 0.4657 0.4584
865.000000 0.4510 0.4437 0.4364 0.4291 0.4217
860.000000 0.4144 0.4071 0.3998 0.3924 0.3850
855.000000 0.3778 0.3704 0.3630 0.3558 0.3484
850.000000 0.3410 0.3338 0.3271 0.3232 0.3196
845.000000 0.3161 0.3131 0.3102 0.3072 0.3038
840.000000 0.3018 0.3003 0.2987 0.3001 0.3007
835.000000 0.3014 0.3020 0.3027 0.3040 0.3053
830.000000 0.3065 0.3078 0.3092 0.3106 0.3119
825.000000 0.3133 0.3145 0.3158 0.3170 0.3183
820.000000 0.3195 0.3207 0.3216 0.3227 0.3238
815.000000 0.3247 0.3256 0.3295 0.3268 0.3275
810.000000 0.3252 0.3208 0.3160 0.3106 0.3045
805.000000 0.2984 0.2914 0.2831 0.2748 0.2680
800.000000 0.2621 0.2548 0.2454 0.2375 0.2343
795.000000 0.2318 0.2309 0.2309 0.2309 0.2319
790.000000 0.2375 0.2432 0.2490 0.2548 0.2621
785.000000 0.2673 0.2742 0.2817 0.2891 0.2966
780.000000 0.3040 0.3114 0.3189 0.3262 0.3338
775.000000 0.3424 0.3510 0.3580 0.3641 0.3702
770.000000 0.3768 0.3842 0.3914 0.3986 0.4050
765.000000 0.4114 0.4181 0.4272 0.4362 0.4450
760.000000 0.4535 0.4619 0.4717 0.4818 0.4912
755.000000 0.4989 0.5065 0.5150 0.5267 0.5368
750.000000 0.5427 0.5485 0.5543 0.5592 0.5624
745.000000 0.5642 0.5652 0.5662 0.5662 0.5665
740.000000 0.5658 0.5651 0.5645 0.5638 0.5631
735.000000 0.5631 0.5631 0.5631 0.5635 0.5688
730.000000 0.5738 0.5788 0.5832 0.5877 0.5929
725.000000 0.5996 0.6062 0.6127 0.6191 0.6250
720.000000 0.6285 0.6320 0.6354 0.6389 0.6417
715.000000 0.6428 0.6441 0.6453 0.6465 0.6478
710.000000 0.6491 0.6503 0.6515 0.6528 0.6542
705.000000 0.6555 0.6567 0.6583 0.6607 0.6630
700.000000 0.6654 0.6676 0.6705 0.6737 0.6768
695.000000 0.6801 0.6833 0.6865 0.6899 0.6934
690.000000 0.6968 0.7003 0.7038 0.7072 0.7098
685.000000 0.7122 0.7147 0.7171 0.7195 0.7215
680.000000 0.7237 0.7258 0.7280 0.7301 0.7318
675.000000 0.7334 0.7351 0.7361 0.7371 0.7380
670.000000 0.7389 0.7391 0.7387 0.7384 0.7382
665.000000 0.7380 0.7378 0.7369 0.7361 0.7354
660.000000 0.7346 0.7339 0.7325 0.7308 0.7294
655.000000 0.7285 0.7280 0.7274 0.7269 0.7271
650.000000 0.7271 0.7271 0.7272 0.7272 0.7292
645.000000 0.7311 0.7354 0.7396 0.7422 0.7451
640.000000 0.7478 0.7505 0.7521 0.7538 0.7555
635.000000 0.7571 0.7587 0.7601 0.7611 0.7622
630.000000 0.7633 0.7644 0.7655 0.7665 0.7675
625.000000 0.7684 0.7693 0.7701 0.7710 0.7718
620.000000 0.7726 0.7736 0.7747 0.7758 0.7771
615.000000 0.7782 0.7794 0.7803 0.7811 0.7818
610.000000 0.7826 0.7835 0.7843 0.7846 0.7848
605.000000 0.7850 0.7851 0.7854 0.7856 0.7857
600.000000 0.7858 0.7858 0.7861 0.7861 0.7862
595.000000 0.7864 0.7865 0.7867 0.7868 0.7868
590.000000 0.7869 0.7871 0.7872 0.7874 0.7875
585.000000 0.7876 0.7878 0.7878 0.7881 0.7882
580.000000 0.7884 0.7885 0.7887 0.7888 0.7890
575.000000 0.7891 0.7893 0.7894 0.7896 0.7897
570.000000 0.7899 0.7900 0.7901 0.7903 0.7904
565.000000 0.7906 0.7907 0.7908 0.7910 0.7911
560.000000 0.7911 0.7912 0.7912 0.7914 0.7915
555.000000 0.7915 0.7915 0.7917 0.7917 0.7918
550.000000 0.7918 0.7918 0.7919 0.7919 0.7921
545.000000 0.7921 0.7921 0.7922 0.7924 0.7924
540.000000 0.7925 0.7925 0.7925 0.7926 0.7934
535.000000 0.7928 0.7928 0.7930 0.7931 0.7931
530.000000 0.7932 0.7933 0.7933 0.7932 0.7932
525.000000 0.7931 0.7931 0.7930 0.7930 0.7928
520.000000 0.7928 0.7926 0.7925 0.7925 0.7924
515.000000 0.7922 0.7921 0.7921 0.7918 0.7914
510.000000 0.7908 0.7905 0.7900 0.7895 0.7890
505.000000 0.7885 0.7880 0.7875 0.7869 0.7865
500.000000 0.7864 0.7861 0.7858 0.7857 0.7854
495.000000 0.7848 0.7843 0.7838 0.7833 0.7828
490.000000 0.7822 0.7817 0.7811 0.7807 0.7798
485.000000 0.7788 0.7778 0.7769 0.7761 0.7751
480.000000 0.7742 0.7733 0.7722 0.7711 0.7697
475.000000 0.7684 0.7671 0.7657 0.7644 0.7631
470.000000 0.7617 0.7604 0.7586 0.7567 0.7549
465.000000 0.7530 0.7511 0.7493 0.7471 0.7437
460.000000 0.7403 0.7368 0.7335 0.7301 0.7265
455.000000 0.7224 0.7176 0.7131 0.7084 0.7035
450.000000 0.6985 0.6935 0.6886 0.6836 0.6785
445.000000 0.6732 0.6678 0.6633 0.6594 0.6556
440.000000 0.6518 0.6480 0.6441 0.6403 0.6349
435.000000 0.6300 0.6265 0.6229 0.6195 0.6162
430.000000 0.6130 0.6106 0.6083 0.6059 0.6037
425.000000 0.6018 0.5999 0.5981 0.5962 0.5944
420.000000 0.5925 0.5906 0.5888 0.5869 0.5848
415.000000 0.5826 0.5805 0.5786 0.5769 0.5753
410.000000 0.5737 0.5720 0.5704 0.5687 0.5676
405.000000 0.5665 0.5655 0.5644 0.5633 0.5624
400.000000 0.5616 0.5608 0.5600 0.5593 0.5585
395.000000 0.5577 0.5569 0.5560
##END=
