##TITLE=ETHYLENEDIAMINE, N-[3-(DIMETHOXYMETHYLSILYL)-2-METHYLPROPYL]-
##JCAMP-DX=4.24
##DATA TYPE=INFRARED SPECTRUM
##CLASS=COBLENTZ
##ORIGIN=DOW CHEMICAL COMPANY
##OWNER=COBLENTZ SOC.
Collection (C) 2018 copyright by the U.S. Secretary of Commerce
on behalf of the United States of America. All rights reserved.
##DATE=1968/09/20
##NAMES=N<1>-(3-[dimethoxy(methyl)silyl]-2-methylpropyl)-1,2-ethanediamine
##CAS REGISTRY NO=23410-40-4
##MOLFORM=C9 H24 N2 O2 Si
##SOURCE REFERENCE=COBLENTZ NO. 07112
##$NIST SOURCE=COBLENTZ
##$NIST IMAGE=cob7112
##SPECTROMETER/DATA SYSTEM=DOW KBr FOREPRISM-GRATING
##INSTRUMENT PARAMETERS=BLAZED AT 3.5, 12.0, 20.0 MICRON AND CHANGED AT 5.0, 7.5, 14.9 MICRON
##STATE=SOLUTION (10% CCl4 FOR 3800-400 CM^-^1)
##PATH LENGTH=0.011 CM
$$SPECTRAL CONTAMINATION DUE TO CCl4 AROUND 1560, 1210-1280, 980 (SHOULDER), 700-900 CM^-^1
##SAMPLING PROCEDURE=TRANSMISSION
##RESOLUTION=2
##DATA PROCESSING=DIGITIZED BY COBLENTZ SOCIETY (BATCH I) FROM HARD COPY
##XUNITS=1/CM
##YUNITS=TRANSMITTANCE
##XLABEL=Wavenumbers (cm-1)
##YLABEL=% Transmission
##XFACTOR=1
##YFACTOR=1
##DELTAX=1
##FIRSTX=392
##LASTX=3798
##FIRSTY=0.5452
##MAXX=3798
##MINX=392
##MAXY=0.9425
##MINY=0.0002
##NPOINTS=3407
##XYDATA=(X++(Y..Y))
392.000000 0.5452 0.5451 0.5451 0.5451 0.5451
397.000000 0.5454 0.5460 0.5467 0.5479 0.5491
402.000000 0.5503 0.5515 0.5529 0.5547 0.5564
407.000000 0.5581 0.5598 0.5620 0.5643 0.5665
412.000000 0.5687 0.5709 0.5731 0.5755 0.5781
417.000000 0.5807 0.5833 0.5859 0.5885 0.5910
422.000000 0.5937 0.5962 0.5987 0.6012 0.6037
427.000000 0.6062 0.6088 0.6116 0.6145 0.6173
432.000000 0.6202 0.6230 0.6262 0.6297 0.6332
437.000000 0.6367 0.6414 0.6462 0.6511 0.6561
442.000000 0.6611 0.6654 0.6691 0.6726 0.6764
447.000000 0.6800 0.6842 0.6883 0.6924 0.6965
452.000000 0.7006 0.7048 0.7089 0.7137 0.7189
457.000000 0.7225 0.7246 0.7267 0.7288 0.7308
462.000000 0.7325 0.7342 0.7357 0.7365 0.7374
467.000000 0.7382 0.7388 0.7393 0.7393 0.7394
472.000000 0.7386 0.7381 0.7375 0.7371 0.7383
477.000000 0.7405 0.7430 0.7458 0.7495 0.7532
482.000000 0.7578 0.7624 0.7671 0.7722 0.7774
487.000000 0.7844 0.7935 0.8021 0.8091 0.8160
492.000000 0.8233 0.8323 0.8408 0.8455 0.8492
497.000000 0.8512 0.8532 0.8553 0.8573 0.8593
502.000000 0.8610 0.8627 0.8644 0.8661 0.8678
507.000000 0.8697 0.8716 0.8736 0.8755 0.8775
512.000000 0.8794 0.8806 0.8813 0.8814 0.8816
517.000000 0.8817 0.8817 0.8818 0.8810 0.8797
522.000000 0.8781 0.8766 0.8737 0.8707 0.8687
527.000000 0.8666 0.8645 0.8625 0.8604 0.8585
532.000000 0.8565 0.8548 0.8552 0.8557 0.8571
537.000000 0.8564 0.8618 0.8646 0.8677 0.8707
542.000000 0.8732 0.8757 0.8775 0.8793 0.8809
547.000000 0.8825 0.8838 0.8848 0.8858 0.8864
552.000000 0.8867 0.8870 0.8873 0.8875 0.8878
557.000000 0.8883 0.8886 0.8886 0.8883 0.8880
562.000000 0.8875 0.8873 0.8870 0.8868 0.8868
567.000000 0.8868 0.8868 0.8868 0.8868 0.8870
572.000000 0.8877 0.8884 0.8891 0.8898 0.8905
577.000000 0.8912 0.8924 0.8940 0.8954 0.8958
582.000000 0.8963 0.8964 0.8963 0.8962 0.8961
587.000000 0.8956 0.8957 0.8957 0.8957 0.8957
592.000000 0.8958 0.8958 0.8958 0.8955 0.8953
597.000000 0.8951 0.8948 0.8946 0.8944 0.8941
602.000000 0.8939 0.8932 0.8925 0.8918 0.8913
607.000000 0.8898 0.8881 0.8864 0.8848 0.8814
612.000000 0.8773 0.8735 0.8698 0.8660 0.8621
617.000000 0.8581 0.8542 0.8503 0.8409 0.8347
622.000000 0.8301 0.8252 0.8204 0.8151 0.8067
627.000000 0.7976 0.7884 0.7860 0.7858 0.7843
632.000000 0.7938 0.8191 0.8334 0.8353 0.8337
637.000000 0.8349 0.8345 0.8309 0.8263 0.8211
642.000000 0.8156 0.8098 0.8037 0.7975 0.7926
647.000000 0.7884 0.7836 0.7825 0.7815 0.7807
652.000000 0.7798 0.7794 0.7790 0.7786 0.7782
657.000000 0.7778 0.7772 0.7768 0.7762 0.7757
662.000000 0.7751 0.7731 0.7704 0.7678 0.7645
667.000000 0.7605 0.7578 0.7568 0.7560 0.7553
672.000000 0.7546 0.7521 0.7478 0.7442 0.7399
677.000000 0.7351 0.7296 0.7221 0.7147 0.7069
682.000000 0.6995 0.6919 0.6842 0.6760 0.6678
687.000000 0.6605 0.6543 0.6482 0.6419 0.6359
692.000000 0.6297 0.6234 0.6172 0.6109 0.6047
697.000000 0.5983 0.5919 0.5854 0.5789 0.5725
702.000000 0.5667 0.5609 0.5551 0.5475 0.5392
707.000000 0.5309 0.5225 0.5140 0.5053 0.4966
712.000000 0.4880 0.4796 0.4712 0.4609 0.4484
717.000000 0.4340 0.3722 0.3620 0.3518 0.3414
722.000000 0.3312 0.3003 0.2309 0.2175 0.2041
727.000000 0.1891 0.1694 0.1527 0.1372 0.1246
732.000000 0.1127 0.1007 0.0872 0.0737 0.0635
737.000000 0.0542 0.0434 0.0279 0.0168 0.0116
742.000000 0.0064 0.0043 0.0028 0.0021 0.0018
747.000000 0.0018 0.0018 0.0019 0.0020 0.0021
752.000000 0.0021 0.0020 0.0020 0.0018 0.0016
757.000000 0.0014 0.0012 0.0010 0.0008 0.0007
762.000000 0.0006 0.0005 0.0004 0.0003 0.0002
767.000000 0.0002 0.0002 0.0002 0.0003 0.0003
772.000000 0.0003 0.0004 0.0004 0.0004 0.0005
777.000000 0.0005 0.0005 0.0005 0.0005 0.0006
782.000000 0.0007 0.0007 0.0007 0.0008 0.0008
787.000000 0.0008 0.0009 0.0010 0.0010 0.0011
792.000000 0.0012 0.0012 0.0013 0.0014 0.0014
797.000000 0.0015 0.0016 0.0017 0.0019 0.0020
802.000000 0.0022 0.0024 0.0026 0.0028 0.0028
807.000000 0.0029 0.0029 0.0028 0.0028 0.0029
812.000000 0.0031 0.0032 0.0034 0.0036 0.0049
817.000000 0.0069 0.0091 0.0118 0.0149 0.0192
822.000000 0.0240 0.0291 0.0357 0.0438 0.0529
827.000000 0.0616 0.0693 0.0773 0.0868 0.0962
832.000000 0.1032 0.1068 0.1087 0.1106 0.1118
837.000000 0.1127 0.1138 0.1149 0.1163 0.1181
842.000000 0.1199 0.1217 0.1235 0.1275 0.1315
847.000000 0.1372 0.1448 0.1542 0.1645 0.1768
852.000000 0.1894 0.2029 0.2184 0.2419 0.2550
857.000000 0.2681 0.2765 0.2846 0.2927 0.3019
862.000000 0.3123 0.3252 0.3550 0.3660 0.3764
867.000000 0.3852 0.4003 0.4275 0.4394 0.4481
872.000000 0.4568 0.4655 0.4749 0.4844 0.4938
877.000000 0.5045 0.5247 0.5460 0.5624 0.5710
882.000000 0.5797 0.5884 0.5955 0.5994 0.6034
887.000000 0.6073 0.6112 0.6152 0.6191 0.6238
892.000000 0.6285 0.6332 0.6379 0.6425 0.6482
897.000000 0.6543 0.6605 0.6624 0.6641 0.6658
902.000000 0.6674 0.6689 0.6703 0.6706 0.6708
907.000000 0.6711 0.6715 0.6717 0.6718 0.6721
912.000000 0.6721 0.6722 0.6718 0.6712 0.6714
917.000000 0.6736 0.6774 0.6811 0.6865 0.6921
922.000000 0.6965 0.6984 0.7003 0.7011 0.7018
927.000000 0.7024 0.7028 0.7033 0.7038 0.7038
932.000000 0.7037 0.7037 0.7036 0.7036 0.7035
937.000000 0.7035 0.7035 0.7035 0.7036 0.7036
942.000000 0.7037 0.7038 0.7039 0.7040 0.7057
947.000000 0.7078 0.7100 0.7122 0.7146 0.7151
952.000000 0.7153 0.7153 0.7142 0.7128 0.7108
957.000000 0.7091 0.7071 0.7053 0.7025 0.7000
962.000000 0.6974 0.6928 0.6878 0.6828 0.6776
967.000000 0.6712 0.6649 0.6585 0.6504 0.6407
972.000000 0.6314 0.6232 0.6151 0.6059 0.5964
977.000000 0.5914 0.5868 0.5823 0.5792 0.5779
982.000000 0.5766 0.5752 0.5739 0.5718 0.5693
987.000000 0.5668 0.5642 0.5609 0.5574 0.5539
992.000000 0.5495 0.5451 0.5402 0.5351 0.5299
997.000000 0.5242 0.4997 0.4837 0.4695 0.4553
1002.000000 0.4200 0.3949 0.3794 0.3679 0.3564
1007.000000 0.3456 0.3349 0.3160 0.2868 0.2790
1012.000000 0.2712 0.2634 0.2557 0.2474 0.2384
1017.000000 0.2297 0.2208 0.2119 0.2023 0.1926
1022.000000 0.1829 0.1734 0.1658 0.1592 0.1529
1027.000000 0.1464 0.1400 0.1337 0.1276 0.1215
1032.000000 0.1154 0.1092 0.1038 0.0985 0.0932
1037.000000 0.0879 0.0825 0.0772 0.0726 0.0680
1042.000000 0.0634 0.0587 0.0530 0.0541 0.0541
1047.000000 0.0542 0.0553 0.0566 0.0579 0.0595
1052.000000 0.0611 0.0624 0.0631 0.0637 0.0638
1057.000000 0.0689 0.0628 0.0623 0.0618 0.0613
1062.000000 0.0608 0.0603 0.0596 0.0590 0.0584
1067.000000 0.0578 0.0572 0.0558 0.0545 0.0532
1072.000000 0.0517 0.0502 0.0486 0.0471 0.0455
1077.000000 0.0439 0.0423 0.0404 0.0386 0.0366
1082.000000 0.0348 0.0329 0.0310 0.0292 0.0273
1087.000000 0.0254 0.0234 0.0216 0.0198 0.0181
1092.000000 0.0171 0.0172 0.0172 0.0155 0.0155
1097.000000 0.0158 0.0161 0.0173 0.0207 0.0241
1102.000000 0.0285 0.0326 0.0366 0.0406 0.0455
1107.000000 0.0491 0.0525 0.0560 0.0620 0.0701
1112.000000 0.0800 0.0899 0.0989 0.1074 0.1159
1117.000000 0.1242 0.1328 0.1424 0.1520 0.1628
1122.000000 0.1766 0.1904 0.2027 0.2149 0.2271
1127.000000 0.2394 0.2516 0.2639 0.2738 0.2834
1132.000000 0.2932 0.3029 0.3108 0.3184 0.3259
1137.000000 0.3337 0.3421 0.3505 0.3591 0.3680
1142.000000 0.3768 0.3858 0.3955 0.4053 0.4151
1147.000000 0.4258 0.4366 0.4474 0.4579 0.4683
1152.000000 0.4787 0.4892 0.4993 0.5060 0.5127
1157.000000 0.5194 0.5257 0.5316 0.5375 0.5422
1162.000000 0.5450 0.5479 0.5502 0.5518 0.5535
1167.000000 0.5551 0.5564 0.5568 0.5571 0.5573
1172.000000 0.5567 0.5579 0.5531 0.5502 0.5458
1177.000000 0.5399 0.5335 0.5273 0.5200 0.5071
1182.000000 0.4929 0.4782 0.4624 0.4460 0.4325
1187.000000 0.4197 0.4040 0.3840 0.3634 0.3502
1192.000000 0.3432 0.3436 0.3450 0.3480 0.3518
1197.000000 0.3571 0.3640 0.3700 0.3759 0.3870
1202.000000 0.4041 0.4177 0.4314 0.4431 0.4459
1207.000000 0.4459 0.4458 0.4500 0.4443 0.4427
1212.000000 0.4410 0.4381 0.4341 0.4293 0.4236
1217.000000 0.4151 0.4050 0.3964 0.3943 0.3946
1222.000000 0.3949 0.3959 0.3994 0.4010 0.4059
1227.000000 0.4186 0.4340 0.4490 0.4639 0.4917
1232.000000 0.5156 0.5341 0.5467 0.5536 0.5551
1237.000000 0.5566 0.5575 0.5573 0.5571 0.5587
1242.000000 0.5562 0.5534 0.5485 0.5402 0.5251
1247.000000 0.5160 0.5032 0.4826 0.4684 0.4505
1252.000000 0.4191 0.3845 0.3499 0.3154 0.2808
1257.000000 0.2462 0.2117 0.1771 0.1425 0.1186
1262.000000 0.1186 0.1186 0.1175 0.2180 0.2772
1267.000000 0.3364 0.3957 0.4550 0.5142 0.5735
1272.000000 0.6327 0.6525 0.6880 0.7012 0.7085
1277.000000 0.7149 0.7205 0.7254 0.7300 0.7317
1282.000000 0.7335 0.7351 0.7369 0.7375 0.7382
1287.000000 0.7388 0.7394 0.7396 0.7422 0.7391
1292.000000 0.7384 0.7374 0.7362 0.7345 0.7291
1297.000000 0.7207 0.7106 0.7051 0.7048 0.7044
1302.000000 0.7044 0.7045 0.7115 0.7147 0.7180
1307.000000 0.7215 0.7260 0.7303 0.7347 0.7390
1312.000000 0.7439 0.7487 0.7536 0.7584 0.7622
1317.000000 0.7661 0.7700 0.7738 0.7767 0.7790
1322.000000 0.7811 0.7835 0.7857 0.7811 0.7789
1327.000000 0.7765 0.7688 0.7504 0.7365 0.7161
1332.000000 0.7057 0.7042 0.7051 0.7072 0.7106
1337.000000 0.7181 0.7075 0.6821 0.6610 0.6651
1342.000000 0.6691 0.6732 0.6781 0.6840 0.6897
1347.000000 0.6944 0.6985 0.7014 0.7014 0.7014
1352.000000 0.7015 0.7010 0.7004 0.6996 0.6980
1357.000000 0.6953 0.6921 0.6888 0.6845 0.6801
1362.000000 0.6765 0.6730 0.6694 0.6665 0.6642
1367.000000 0.6618 0.6597 0.6575 0.6560 0.6544
1372.000000 0.6526 0.6478 0.6344 0.6150 0.5995
1377.000000 0.5845 0.5834 0.5828 0.5846 0.5849
1382.000000 0.5938 0.6023 0.6110 0.6262 0.6377
1387.000000 0.6461 0.6560 0.6544 0.6550 0.6547
1392.000000 0.6538 0.6503 0.6469 0.6437 0.6392
1397.000000 0.6343 0.6273 0.6203 0.6131 0.6055
1402.000000 0.5979 0.5758 0.5674 0.5660 0.5645
1407.000000 0.5647 0.5649 0.5651 0.5653 0.5665
1412.000000 0.5690 0.5717 0.5754 0.5791 0.5859
1417.000000 0.5959 0.6093 0.6365 0.6478 0.6501
1422.000000 0.6501 0.6501 0.6497 0.6489 0.6480
1427.000000 0.6447 0.6394 0.6348 0.6296 0.6242
1432.000000 0.6179 0.6101 0.6034 0.5967 0.5839
1437.000000 0.5709 0.5624 0.5539 0.5454 0.5323
1442.000000 0.5187 0.5056 0.4953 0.4850 0.4776
1447.000000 0.4705 0.4634 0.4576 0.4527 0.4477
1452.000000 0.4429 0.4380 0.4329 0.4112 0.3905
1457.000000 0.3796 0.3630 0.3576 0.3579 0.3606
1462.000000 0.3656 0.3766 0.3878 0.3988 0.4099
1467.000000 0.4210 0.4293 0.4352 0.4423 0.4570
1472.000000 0.4657 0.4736 0.4815 0.4954 0.5100
1477.000000 0.5223 0.5339 0.5462 0.5594 0.5779
1482.000000 0.6028 0.6291 0.6404 0.6517 0.6642
1487.000000 0.6800 0.6925 0.7006 0.7028 0.7061
1492.000000 0.7035 0.7035 0.7035 0.7028 0.7021
1497.000000 0.7011 0.6996 0.6978 0.6957 0.6926
1502.000000 0.6894 0.6849 0.6805 0.6768 0.6732
1507.000000 0.6696 0.6662 0.6630 0.6596 0.6562
1512.000000 0.6528 0.6495 0.6461 0.6425 0.6365
1517.000000 0.6303 0.6241 0.6178 0.6115 0.6053
1522.000000 0.5998 0.5944 0.5889 0.5835 0.5780
1527.000000 0.5716 0.5644 0.5572 0.5502 0.5434
1532.000000 0.5367 0.5299 0.5236 0.5175 0.5114
1537.000000 0.5053 0.4986 0.4900 0.4814 0.4728
1542.000000 0.4602 0.4467 0.4376 0.4299 0.4221
1547.000000 0.4151 0.4091 0.4032 0.3972 0.3918
1552.000000 0.3868 0.3816 0.3773 0.3742 0.3710
1557.000000 0.3680 0.3650 0.3623 0.3618 0.3629
1562.000000 0.3646 0.3673 0.3709 0.3798 0.3897
1567.000000 0.4003 0.4126 0.4197 0.4267 0.4368
1572.000000 0.4515 0.4603 0.4668 0.4733 0.4790
1577.000000 0.4842 0.4895 0.4947 0.4999 0.5044
1582.000000 0.5075 0.5118 0.5148 0.5173 0.5190
1587.000000 0.5203 0.5216 0.5223 0.5229 0.5236
1592.000000 0.5246 0.5256 0.5266 0.5321 0.5436
1597.000000 0.5546 0.5616 0.5655 0.5685 0.5714
1602.000000 0.5742 0.5760 0.5776 0.5780 0.5784
1607.000000 0.5788 0.5794 0.5860 0.6379 0.6644
1612.000000 0.6842 0.6957 0.7036 0.7115 0.7203
1617.000000 0.7293 0.7361 0.7425 0.7488 0.7549
1622.000000 0.7610 0.7671 0.7714 0.7755 0.7796
1627.000000 0.7837 0.7878 0.7918 0.7954 0.7987
1632.000000 0.8018 0.8051 0.8085 0.8118 0.8149
1637.000000 0.8176 0.8206 0.8234 0.8262 0.8291
1642.000000 0.8321 0.8353 0.8383 0.8416 0.8450
1647.000000 0.8468 0.8485 0.8501 0.8505 0.8505
1652.000000 0.8504 0.8504 0.8503 0.8502 0.8502
1657.000000 0.8501 0.8499 0.8497 0.8495 0.8494
1662.000000 0.8492 0.8496 0.8500 0.8506 0.8516
1667.000000 0.8527 0.8537 0.8548 0.8560 0.8573
1672.000000 0.8587 0.8600 0.8613 0.8627 0.8648
1677.000000 0.8668 0.8689 0.8709 0.8731 0.8753
1682.000000 0.8775 0.8797 0.8818 0.8841 0.8867
1687.000000 0.8893 0.8918 0.8945 0.8968 0.8992
1692.000000 0.9015 0.9038 0.9062 0.9085 0.9102
1697.000000 0.9118 0.9136 0.9153 0.9170 0.9187
1702.000000 0.9202 0.9215 0.9228 0.9241 0.9253
1707.000000 0.9266 0.9278 0.9292 0.9304 0.9317
1712.000000 0.9325 0.9334 0.9342 0.9350 0.9357
1717.000000 0.9364 0.9368 0.9375 0.9381 0.9386
1722.000000 0.9392 0.9398 0.9403 0.9409 0.9414
1727.000000 0.9418 0.9421 0.9425 0.9425 0.9425
1732.000000 0.9425 0.9424 0.9424 0.9423 0.9423
1737.000000 0.9421 0.9421 0.9420 0.9417 0.9414
1742.000000 0.9412 0.9409 0.9406 0.9404 0.9402
1747.000000 0.9399 0.9397 0.9395 0.9393 0.9391
1752.000000 0.9388 0.9386 0.9384 0.9382 0.9380
1757.000000 0.9378 0.9375 0.9374 0.9373 0.9371
1762.000000 0.9370 0.9368 0.9368 0.9367 0.9366
1767.000000 0.9365 0.9363 0.9362 0.9360 0.9357
1772.000000 0.9355 0.9352 0.9350 0.9347 0.9344
1777.000000 0.9341 0.9337 0.9333 0.9330 0.9325
1782.000000 0.9321 0.9318 0.9314 0.9310 0.9306
1787.000000 0.9302 0.9297 0.9288 0.9280 0.9271
1792.000000 0.9264 0.9255 0.9247 0.9239 0.9230
1797.000000 0.9224 0.9218 0.9213 0.9207 0.9201
1802.000000 0.9196 0.9190 0.9184 0.9178 0.9171
1807.000000 0.9165 0.9159 0.9151 0.9143 0.9136
1812.000000 0.9128 0.9120 0.9112 0.9109 0.9109
1817.000000 0.9108 0.9107 0.9106 0.9106 0.9105
1822.000000 0.9104 0.9103 0.9103 0.9103 0.9104
1827.000000 0.9105 0.9106 0.9107 0.9108 0.9109
1832.000000 0.9111 0.9112 0.9113 0.9114 0.9115
1837.000000 0.9116 0.9116 0.9117 0.9118 0.9118
1842.000000 0.9120 0.9121 0.9121 0.9123 0.9124
1847.000000 0.9124 0.9124 0.9123 0.9121 0.9121
1852.000000 0.9120 0.9118 0.9118 0.9117 0.9116
1857.000000 0.9115 0.9114 0.9113 0.9112 0.9112
1862.000000 0.9112 0.9112 0.9112 0.9112 0.9112
1867.000000 0.9112 0.9112 0.9112 0.9112 0.9112
1872.000000 0.9113 0.9113 0.9113 0.9113 0.9113
1877.000000 0.9112 0.9111 0.9111 0.9110 0.9109
1882.000000 0.9108 0.9107 0.9106 0.9105 0.9104
1887.000000 0.9103 0.9102 0.9101 0.9100 0.9098
1892.000000 0.9097 0.9095 0.9093 0.9091 0.9089
1897.000000 0.9087 0.9085 0.9084 0.9082 0.9080
1902.000000 0.9078 0.9075 0.9074 0.9073 0.9071
1907.000000 0.9068 0.9067 0.9065 0.9064 0.9062
1912.000000 0.9061 0.9060 0.9058 0.9057 0.9056
1917.000000 0.9054 0.9053 0.9052 0.9052 0.9052
1922.000000 0.9053 0.9053 0.9054 0.9055 0.9056
1927.000000 0.9057 0.9057 0.9058 0.9059 0.9060
1932.000000 0.9061 0.9062 0.9062 0.9063 0.9064
1937.000000 0.9065 0.9066 0.9067 0.9067 0.9068
1942.000000 0.9068 0.9070 0.9071 0.9071 0.9071
1947.000000 0.9073 0.9074 0.9075 0.9075 0.9078
1952.000000 0.9081 0.9083 0.9086 0.9086 0.9086
1957.000000 0.9088 0.9091 0.9093 0.9095 0.9097
1962.000000 0.9097 0.9097 0.9097 0.9097 0.9096
1967.000000 0.9094 0.9091 0.9087 0.9083 0.9078
1972.000000 0.9075 0.9071 0.9067 0.9064 0.9060
1977.000000 0.9056 0.9053 0.9049 0.9045 0.9041
1982.000000 0.9038 0.9035 0.9033 0.9030 0.9028
1987.000000 0.9025 0.9023 0.9020 0.9018 0.9015
1992.000000 0.9013 0.9012 0.9011 0.9010 0.9008
1997.000000 0.9007 0.9006 0.9005 0.8993 0.8975
2002.000000 0.8958 0.8948 0.8939 0.8928 0.8918
2007.000000 0.8913 0.8908 0.8904 0.8900 0.8895
2012.000000 0.8891 0.8888 0.8886 0.8884 0.8882
2017.000000 0.8880 0.8878 0.8875 0.8874 0.8871
2022.000000 0.8870 0.8868 0.8867 0.8865 0.8863
2027.000000 0.8861 0.8859 0.8857 0.8855 0.8853
2032.000000 0.8852 0.8850 0.8848 0.8846 0.8844
2037.000000 0.8842 0.8840 0.8838 0.8837 0.8835
2042.000000 0.8834 0.8832 0.8831 0.8830 0.8828
2047.000000 0.8828 0.8827 0.8825 0.8824 0.8823
2052.000000 0.8821 0.8820 0.8818 0.8818 0.8817
2057.000000 0.8815 0.8813 0.8811 0.8810 0.8808
2062.000000 0.8806 0.8804 0.8802 0.8801 0.8800
2067.000000 0.8800 0.8800 0.8800 0.8800 0.8800
2072.000000 0.8801 0.8801 0.8801 0.8801 0.8801
2077.000000 0.8801 0.8802 0.8802 0.8802 0.8802
2082.000000 0.8802 0.8802 0.8803 0.8803 0.8803
2087.000000 0.8803 0.8804 0.8804 0.8804 0.8804
2092.000000 0.8804 0.8804 0.8805 0.8805 0.8805
2097.000000 0.8804 0.8803 0.8802 0.8801 0.8800
2102.000000 0.8799 0.8798 0.8797 0.8796 0.8795
2107.000000 0.8794 0.8793 0.8792 0.8791 0.8790
2112.000000 0.8790 0.8787 0.8785 0.8783 0.8781
2117.000000 0.8778 0.8777 0.8774 0.8771 0.8770
2122.000000 0.8768 0.8765 0.8763 0.8761 0.8759
2127.000000 0.8756 0.8754 0.8751 0.8749 0.8746
2132.000000 0.8744 0.8741 0.8739 0.8736 0.8734
2137.000000 0.8731 0.8728 0.8725 0.8724 0.8721
2142.000000 0.8718 0.8716 0.8713 0.8710 0.8708
2147.000000 0.8705 0.8703 0.8701 0.8700 0.8698
2152.000000 0.8696 0.8694 0.8692 0.8690 0.8688
2157.000000 0.8686 0.8685 0.8683 0.8681 0.8678
2162.000000 0.8677 0.8675 0.8673 0.8671 0.8670
2167.000000 0.8668 0.8666 0.8664 0.8662 0.8660
2172.000000 0.8659 0.8658 0.8657 0.8656 0.8655
2177.000000 0.8654 0.8653 0.8652 0.8651 0.8650
2182.000000 0.8649 0.8647 0.8646 0.8645 0.8644
2187.000000 0.8643 0.8642 0.8641 0.8640 0.8639
2192.000000 0.8639 0.8640 0.8640 0.8641 0.8642
2197.000000 0.8643 0.8644 0.8645 0.8646 0.8647
2202.000000 0.8648 0.8649 0.8650 0.8651 0.8652
2207.000000 0.8652 0.8653 0.8653 0.8654 0.8654
2212.000000 0.8655 0.8655 0.8655 0.8654 0.8653
2217.000000 0.8652 0.8651 0.8650 0.8649 0.8647
2222.000000 0.8646 0.8645 0.8644 0.8642 0.8641
2227.000000 0.8640 0.8639 0.8638 0.8637 0.8636
2232.000000 0.8635 0.8634 0.8633 0.8632 0.8632
2237.000000 0.8631 0.8630 0.8628 0.8628 0.8627
2242.000000 0.8625 0.8624 0.8623 0.8620 0.8618
2247.000000 0.8615 0.8613 0.8610 0.8608 0.8605
2252.000000 0.8603 0.8600 0.8597 0.8594 0.8592
2257.000000 0.8589 0.8587 0.8584 0.8582 0.8578
2262.000000 0.8577 0.8574 0.8571 0.8568 0.8565
2267.000000 0.8561 0.8558 0.8554 0.8551 0.8547
2272.000000 0.8544 0.8540 0.8537 0.8533 0.8530
2277.000000 0.8525 0.8520 0.8515 0.8511 0.8506
2282.000000 0.8501 0.8496 0.8491 0.8486 0.8481
2287.000000 0.8475 0.8471 0.8466 0.8461 0.8456
2292.000000 0.8452 0.8447 0.8442 0.8441 0.8441
2297.000000 0.8441 0.8442 0.8443 0.8444 0.8446
2302.000000 0.8448 0.8450 0.8452 0.8453 0.8455
2307.000000 0.8457 0.8459 0.8461 0.8463 0.8464
2312.000000 0.8466 0.8467 0.8468 0.8468 0.8468
2317.000000 0.8468 0.8468 0.8468 0.8468 0.8468
2322.000000 0.8468 0.8467 0.8467 0.8466 0.8465
2327.000000 0.8464 0.8464 0.8463 0.8462 0.8461
2332.000000 0.8460 0.8459 0.8459 0.8458 0.8457
2337.000000 0.8456 0.8455 0.8454 0.8453 0.8452
2342.000000 0.8451 0.8450 0.8449 0.8447 0.8446
2347.000000 0.8445 0.8444 0.8443 0.8442 0.8440
2352.000000 0.8439 0.8437 0.8436 0.8434 0.8432
2357.000000 0.8430 0.8428 0.8427 0.8425 0.8423
2362.000000 0.8421 0.8420 0.8418 0.8416 0.8415
2367.000000 0.8413 0.8411 0.8409 0.8408 0.8406
2372.000000 0.8404 0.8402 0.8400 0.8398 0.8396
2377.000000 0.8394 0.8392 0.8390 0.8388 0.8386
2382.000000 0.8384 0.8382 0.8380 0.8378 0.8375
2387.000000 0.8374 0.8371 0.8370 0.8368 0.8366
2392.000000 0.8364 0.8362 0.8360 0.8357 0.8354
2397.000000 0.8351 0.8348 0.8345 0.8342 0.8339
2402.000000 0.8336 0.8333 0.8330 0.8327 0.8324
2407.000000 0.8321 0.8318 0.8315 0.8313 0.8310
2412.000000 0.8307 0.8304 0.8301 0.8298 0.8295
2417.000000 0.8292 0.8289 0.8286 0.8283 0.8280
2422.000000 0.8277 0.8273 0.8268 0.8264 0.8260
2427.000000 0.8256 0.8252 0.8248 0.8244 0.8239
2432.000000 0.8235 0.8231 0.8227 0.8221 0.8218
2437.000000 0.8214 0.8210 0.8206 0.8202 0.8197
2442.000000 0.8193 0.8189 0.8185 0.8180 0.8175
2447.000000 0.8171 0.8168 0.8164 0.8160 0.8155
2452.000000 0.8151 0.8147 0.8143 0.8138 0.8134
2457.000000 0.8128 0.8125 0.8119 0.8115 0.8110
2462.000000 0.8105 0.8099 0.8094 0.8089 0.8084
2467.000000 0.8078 0.8072 0.8068 0.8062 0.8058
2472.000000 0.8053 0.8047 0.8042 0.8037 0.8032
2477.000000 0.8026 0.8021 0.8015 0.8011 0.8006
2482.000000 0.8001 0.7995 0.7990 0.7985 0.7980
2487.000000 0.7975 0.7969 0.7964 0.7958 0.7954
2492.000000 0.7949 0.7943 0.7938 0.7933 0.7928
2497.000000 0.7925 0.7921 0.7915 0.7911 0.7907
2502.000000 0.7903 0.7899 0.7895 0.7890 0.7886
2507.000000 0.7881 0.7876 0.7872 0.7868 0.7864
2512.000000 0.7860 0.7855 0.7851 0.7847 0.7843
2517.000000 0.7838 0.7834 0.7828 0.7825 0.7821
2522.000000 0.7817 0.7811 0.7808 0.7803 0.7799
2527.000000 0.7795 0.7791 0.7786 0.7782 0.7776
2532.000000 0.7772 0.7768 0.7765 0.7761 0.7757
2537.000000 0.7753 0.7749 0.7745 0.7741 0.7737
2542.000000 0.7733 0.7728 0.7725 0.7721 0.7717
2547.000000 0.7712 0.7708 0.7705 0.7701 0.7696
2552.000000 0.7692 0.7688 0.7684 0.7680 0.7675
2557.000000 0.7671 0.7668 0.7661 0.7655 0.7648
2562.000000 0.7642 0.7636 0.7630 0.7622 0.7617
2567.000000 0.7610 0.7604 0.7597 0.7591 0.7584
2572.000000 0.7578 0.7571 0.7565 0.7558 0.7554
2577.000000 0.7548 0.7543 0.7537 0.7532 0.7525
2582.000000 0.7519 0.7514 0.7508 0.7503 0.7498
2587.000000 0.7492 0.7487 0.7481 0.7475 0.7469
2592.000000 0.7465 0.7458 0.7454 0.7448 0.7443
2597.000000 0.7437 0.7432 0.7425 0.7421 0.7415
2602.000000 0.7410 0.7404 0.7399 0.7393 0.7387
2607.000000 0.7381 0.7375 0.7368 0.7362 0.7357
2612.000000 0.7351 0.7345 0.7339 0.7333 0.7326
2617.000000 0.7321 0.7315 0.7308 0.7303 0.7297
2622.000000 0.7291 0.7285 0.7278 0.7272 0.7267
2627.000000 0.7261 0.7255 0.7249 0.7244 0.7238
2632.000000 0.7233 0.7226 0.7221 0.7215 0.7210
2637.000000 0.7204 0.7199 0.7193 0.7188 0.7182
2642.000000 0.7175 0.7169 0.7165 0.7158 0.7154
2647.000000 0.7148 0.7142 0.7136 0.7131 0.7125
2652.000000 0.7119 0.7114 0.7108 0.7101 0.7094
2657.000000 0.7085 0.7076 0.7068 0.7060 0.7051
2662.000000 0.7043 0.7034 0.7025 0.7017 0.7008
2667.000000 0.7000 0.6992 0.6983 0.6975 0.6965
2672.000000 0.6958 0.6949 0.6940 0.6931 0.6921
2677.000000 0.6911 0.6903 0.6893 0.6884 0.6875
2682.000000 0.6865 0.6856 0.6847 0.6837 0.6828
2687.000000 0.6818 0.6808 0.6800 0.6791 0.6781
2692.000000 0.6771 0.6761 0.6753 0.6739 0.6725
2697.000000 0.6707 0.6688 0.6668 0.6651 0.6632
2702.000000 0.6612 0.6594 0.6575 0.6557 0.6538
2707.000000 0.6519 0.6503 0.6485 0.6467 0.6449
2712.000000 0.6432 0.6414 0.6397 0.6379 0.6362
2717.000000 0.6344 0.6327 0.6309 0.6292 0.6274
2722.000000 0.6256 0.6234 0.6212 0.6189 0.6167
2727.000000 0.6145 0.6123 0.6100 0.6078 0.6055
2732.000000 0.6033 0.6010 0.5989 0.5966 0.5943
2737.000000 0.5920 0.5897 0.5874 0.5852 0.5830
2742.000000 0.5808 0.5787 0.5767 0.5747 0.5727
2747.000000 0.5707 0.5687 0.5667 0.5647 0.5628
2752.000000 0.5609 0.5590 0.5571 0.5552 0.5533
2757.000000 0.5512 0.5494 0.5475 0.5456 0.5437
2762.000000 0.5418 0.5395 0.5373 0.5347 0.5322
2767.000000 0.5296 0.5271 0.5245 0.5220 0.5194
2772.000000 0.5169 0.5143 0.5118 0.5084 0.5051
2777.000000 0.5007 0.4964 0.4920 0.4877 0.4830
2782.000000 0.4784 0.4730 0.4676 0.4624 0.4572
2787.000000 0.4522 0.4472 0.4422 0.4372 0.4297
2792.000000 0.4223 0.4124 0.4026 0.3948 0.3871
2797.000000 0.3796 0.3721 0.3582 0.3443 0.3312
2802.000000 0.3181 0.3075 0.2969 0.2912 0.2856
2807.000000 0.2809 0.2762 0.2715 0.2668 0.2618
2812.000000 0.2568 0.2474 0.2381 0.2315 0.2249
2817.000000 0.2237 0.2225 0.2213 0.2202 0.2190
2822.000000 0.2178 0.2166 0.2154 0.2143 0.2133
2827.000000 0.2122 0.2111 0.2100 0.2090 0.2079
2832.000000 0.2068 0.2031 0.1994 0.1907 0.1820
2837.000000 0.1716 0.1272 0.1509 0.1406 0.1342
2842.000000 0.1280 0.1354 0.1428 0.1653 0.1878
2847.000000 0.2102 0.2327 0.2397 0.2483 0.2466
2852.000000 0.2465 0.2462 0.2459 0.2455 0.2451
2857.000000 0.2447 0.2444 0.2434 0.2424 0.2412
2862.000000 0.2400 0.2384 0.2369 0.2349 0.2330
2867.000000 0.2305 0.2281 0.2253 0.2226 0.2184
2872.000000 0.2145 0.2008 0.1871 0.1829 0.1789
2877.000000 0.1773 0.1757 0.1743 0.1729 0.1723
2882.000000 0.1717 0.1710 0.1704 0.1698 0.1692
2887.000000 0.1685 0.1681 0.1674 0.1668 0.1649
2892.000000 0.1631 0.1612 0.1592 0.1570 0.1546
2897.000000 0.1511 0.1475 0.1438 0.1402 0.1355
2902.000000 0.1309 0.1309 0.1309 0.1309 0.1309
2907.000000 0.1309 0.1310 0.1310 0.1310 0.1311
2912.000000 0.1313 0.1314 0.1315 0.1316 0.1318
2917.000000 0.1319 0.1320 0.1321 0.1323 0.1324
2922.000000 0.1325 0.1316 0.1308 0.1287 0.1266
2927.000000 0.1246 0.1227 0.1209 0.1192 0.1175
2932.000000 0.1159 0.1142 0.1126 0.1109 0.1092
2937.000000 0.1087 0.1082 0.1077 0.1076 0.1077
2942.000000 0.1078 0.1080 0.1082 0.1084 0.1087
2947.000000 0.1091 0.1059 0.1100 0.1105 0.1110
2952.000000 0.1115 0.1119 0.1124 0.1128 0.1133
2957.000000 0.1137 0.1142 0.1146 0.1151 0.1155
2962.000000 0.1160 0.1164 0.1169 0.1175 0.1182
2967.000000 0.1190 0.1199 0.1237 0.1275 0.1317
2972.000000 0.1360 0.1402 0.1444 0.1491 0.1539
2977.000000 0.1592 0.1644 0.1685 0.1727 0.2104
2982.000000 0.2482 0.2633 0.2784 0.3030 0.3277
2987.000000 0.3358 0.3440 0.3672 0.3905 0.3988
2992.000000 0.4071 0.4141 0.4212 0.4262 0.4312
2997.000000 0.4364 0.4415 0.4466 0.4517 0.4572
3002.000000 0.4628 0.4683 0.4739 0.4795 0.4851
3007.000000 0.4910 0.4969 0.5028 0.5088 0.5151
3012.000000 0.5214 0.5251 0.5288 0.5323 0.5358
3017.000000 0.5393 0.5429 0.5454 0.5479 0.5502
3022.000000 0.5526 0.5549 0.5573 0.5597 0.5621
3027.000000 0.5635 0.5650 0.5660 0.5673 0.5684
3032.000000 0.5696 0.5707 0.5719 0.5730 0.5742
3037.000000 0.5753 0.5765 0.5775 0.5785 0.5793
3042.000000 0.5801 0.5809 0.5817 0.5825 0.5833
3047.000000 0.5841 0.5849 0.5857 0.5866 0.5874
3052.000000 0.5882 0.5890 0.5898 0.5902 0.5907
3057.000000 0.5910 0.5915 0.5918 0.5922 0.5924
3062.000000 0.5926 0.5926 0.5926 0.5926 0.5927
3067.000000 0.5927 0.5928 0.5928 0.5929 0.5929
3072.000000 0.5929 0.5930 0.5930 0.5929 0.5929
3077.000000 0.5928 0.5928 0.5927 0.5927 0.5926
3082.000000 0.5926 0.5926 0.5926 0.5922 0.5919
3087.000000 0.5915 0.5910 0.5907 0.5904 0.5900
3092.000000 0.5896 0.5892 0.5888 0.5884 0.5880
3097.000000 0.5876 0.5872 0.5868 0.5864 0.5860
3102.000000 0.5856 0.5852 0.5848 0.5844 0.5840
3107.000000 0.5836 0.5832 0.5828 0.5825 0.5821
3112.000000 0.5817 0.5812 0.5807 0.5801 0.5796
3117.000000 0.5790 0.5785 0.5780 0.5775 0.5769
3122.000000 0.5764 0.5758 0.5752 0.5745 0.5739
3127.000000 0.5733 0.5727 0.5720 0.5714 0.5707
3132.000000 0.5701 0.5694 0.5688 0.5681 0.5675
3137.000000 0.5669 0.5662 0.5656 0.5649 0.5642
3142.000000 0.5635 0.5628 0.5621 0.5614 0.5608
3147.000000 0.5601 0.5594 0.5587 0.5580 0.5573
3152.000000 0.5566 0.5559 0.5552 0.5543 0.5534
3157.000000 0.5525 0.5517 0.5508 0.5499 0.5490
3162.000000 0.5482 0.5473 0.5464 0.5455 0.5447
3167.000000 0.5438 0.5429 0.5420 0.5412 0.5403
3172.000000 0.5394 0.5385 0.5377 0.5368 0.5360
3177.000000 0.5351 0.5343 0.5334 0.5326 0.5317
3182.000000 0.5309 0.5300 0.5292 0.5283 0.5275
3187.000000 0.5266 0.5258 0.5249 0.5241 0.5232
3192.000000 0.5224 0.5216 0.5209 0.5204 0.5200
3197.000000 0.5195 0.5190 0.5185 0.5180 0.5175
3202.000000 0.5171 0.5166 0.5160 0.5156 0.5151
3207.000000 0.5146 0.5141 0.5136 0.5132 0.5127
3212.000000 0.5122 0.5117 0.5112 0.5107 0.5102
3217.000000 0.5097 0.5093 0.5088 0.5083 0.5079
3222.000000 0.5075 0.5071 0.5067 0.5062 0.5059
3227.000000 0.5055 0.5051 0.5047 0.5043 0.5039
3232.000000 0.5035 0.5031 0.5028 0.5024 0.5020
3237.000000 0.5016 0.5012 0.5008 0.5004 0.4999
3242.000000 0.4995 0.4991 0.4987 0.4982 0.4978
3247.000000 0.4973 0.4969 0.4965 0.4960 0.4956
3252.000000 0.4952 0.4948 0.4944 0.4939 0.4935
3257.000000 0.4931 0.4927 0.4922 0.4918 0.4914
3262.000000 0.4910 0.4906 0.4902 0.4899 0.4897
3267.000000 0.4894 0.4892 0.4890 0.4888 0.4885
3272.000000 0.4883 0.4881 0.4879 0.4876 0.4874
3277.000000 0.4872 0.4870 0.4867 0.4865 0.4862
3282.000000 0.4860 0.4860 0.4859 0.4858 0.4858
3287.000000 0.4857 0.4856 0.4855 0.4854 0.4853
3292.000000 0.4853 0.4852 0.4851 0.4850 0.4850
3297.000000 0.4850 0.4851 0.4851 0.4852 0.4853
3302.000000 0.4855 0.4856 0.4857 0.4858 0.4860
3307.000000 0.4860 0.4862 0.4862 0.4865 0.4867
3312.000000 0.4869 0.4872 0.4876 0.4879 0.4882
3317.000000 0.4885 0.4888 0.4891 0.4894 0.4900
3322.000000 0.4907 0.4912 0.4917 0.4922 0.4927
3327.000000 0.4932 0.4938 0.4943 0.4948 0.4954
3332.000000 0.4960 0.4969 0.4978 0.4986 0.4995
3337.000000 0.5003 0.5010 0.5021 0.5031 0.5041
3342.000000 0.5052 0.5062 0.5072 0.5081 0.5091
3347.000000 0.5100 0.5110 0.5116 0.5122 0.5125
3352.000000 0.5129 0.5132 0.5136 0.5139 0.5142
3357.000000 0.5143 0.5144 0.5144 0.5145 0.5146
3362.000000 0.5147 0.5148 0.5149 0.5149 0.5150
3367.000000 0.5151 0.5152 0.5153 0.5155 0.5156
3372.000000 0.5157 0.5158 0.5160 0.5160 0.5162
3377.000000 0.5162 0.5164 0.5165 0.5167 0.5173
3382.000000 0.5179 0.5189 0.5199 0.5209 0.5220
3387.000000 0.5230 0.5240 0.5251 0.5262 0.5272
3392.000000 0.5283 0.5294 0.5305 0.5315 0.5326
3397.000000 0.5337 0.5348 0.5358 0.5369 0.5379
3402.000000 0.5389 0.5398 0.5407 0.5416 0.5426
3407.000000 0.5435 0.5444 0.5453 0.5462 0.5472
3412.000000 0.5482 0.5491 0.5500 0.5508 0.5517
3417.000000 0.5526 0.5535 0.5544 0.5553 0.5562
3422.000000 0.5571 0.5580 0.5589 0.5597 0.5606
3427.000000 0.5615 0.5624 0.5633 0.5643 0.5653
3432.000000 0.5664 0.5674 0.5684 0.5694 0.5705
3437.000000 0.5715 0.5726 0.5736 0.5746 0.5756
3442.000000 0.5767 0.5777 0.5787 0.5797 0.5808
3447.000000 0.5818 0.5829 0.5839 0.5849 0.5858
3452.000000 0.5868 0.5878 0.5888 0.5898 0.5908
3457.000000 0.5918 0.5928 0.5937 0.5947 0.5957
3462.000000 0.5967 0.5977 0.5987 0.5996 0.6006
3467.000000 0.6016 0.6026 0.6036 0.6046 0.6057
3472.000000 0.6068 0.6079 0.6090 0.6101 0.6112
3477.000000 0.6123 0.6134 0.6145 0.6157 0.6168
3482.000000 0.6179 0.6190 0.6201 0.6212 0.6223
3487.000000 0.6234 0.6245 0.6256 0.6268 0.6279
3492.000000 0.6290 0.6301 0.6312 0.6325 0.6338
3497.000000 0.6350 0.6362 0.6375 0.6388 0.6400
3502.000000 0.6412 0.6425 0.6437 0.6449 0.6461
3507.000000 0.6474 0.6487 0.6499 0.6511 0.6524
3512.000000 0.6537 0.6549 0.6561 0.6572 0.6584
3517.000000 0.6595 0.6606 0.6617 0.6628 0.6640
3522.000000 0.6651 0.6661 0.6674 0.6685 0.6696
3527.000000 0.6707 0.6718 0.6728 0.6740 0.6751
3532.000000 0.6761 0.6771 0.6783 0.6793 0.6804
3537.000000 0.6815 0.6825 0.6836 0.6847 0.6857
3542.000000 0.6868 0.6878 0.6889 0.6899 0.6910
3547.000000 0.6919 0.6930 0.6940 0.6951 0.6961
3552.000000 0.6971 0.6981 0.6991 0.7001 0.7011
3557.000000 0.7021 0.7032 0.7042 0.7051 0.7061
3562.000000 0.7071 0.7082 0.7092 0.7101 0.7111
3567.000000 0.7119 0.7130 0.7139 0.7149 0.7158
3572.000000 0.7168 0.7178 0.7188 0.7195 0.7203
3577.000000 0.7208 0.7215 0.7221 0.7226 0.7228
3582.000000 0.7232 0.7233 0.7234 0.7235 0.7236
3587.000000 0.7237 0.7239 0.7240 0.7241 0.7242
3592.000000 0.7243 0.7243 0.7243 0.7242 0.7241
3597.000000 0.7240 0.7239 0.7237 0.7236 0.7234
3602.000000 0.7233 0.7231 0.7228 0.7222 0.7217
3607.000000 0.7210 0.7204 0.7198 0.7192 0.7185
3612.000000 0.7178 0.7171 0.7162 0.7154 0.7145
3617.000000 0.7136 0.7126 0.7117 0.7108 0.7092
3622.000000 0.7076 0.7061 0.7046 0.7030 0.7015
3627.000000 0.6995 0.6975 0.6956 0.6936 0.6915
3632.000000 0.6896 0.6875 0.6856 0.6835 0.6814
3637.000000 0.6787 0.6761 0.6761 0.6734 0.6765
3642.000000 0.6769 0.6778 0.6789 0.6811 0.6833
3647.000000 0.6871 0.6910 0.6951 0.6992 0.7039
3652.000000 0.7087 0.7114 0.7142 0.7158 0.7175
3657.000000 0.7180 0.7185 0.7189 0.7193 0.7196
3662.000000 0.7200 0.7201 0.7205 0.7207 0.7210
3667.000000 0.7211 0.7215 0.7217 0.7219 0.7221
3672.000000 0.7225 0.7226 0.7230 0.7232 0.7234
3677.000000 0.7235 0.7237 0.7238 0.7240 0.7244
3682.000000 0.7248 0.7251 0.7256 0.7258 0.7262
3687.000000 0.7267 0.7271 0.7275 0.7278 0.7281
3692.000000 0.7284 0.7285 0.7286 0.7287 0.7289
3697.000000 0.7290 0.7291 0.7292 0.7294 0.7295
3702.000000 0.7296 0.7297 0.7298 0.7298 0.7298
3707.000000 0.7297 0.7297 0.7296 0.7296 0.7295
3712.000000 0.7294 0.7293 0.7293 0.7292 0.7291
3717.000000 0.7290 0.7290 0.7289 0.7288 0.7287
3722.000000 0.7287 0.7286 0.7285 0.7284 0.7283
3727.000000 0.7282 0.7282 0.7281 0.7280 0.7278
3732.000000 0.7278 0.7276 0.7276 0.7275 0.7275
3737.000000 0.7274 0.7272 0.7271 0.7271 0.7269
3742.000000 0.7269 0.7268 0.7268 0.7267 0.7265
3747.000000 0.7265 0.7265 0.7265 0.7265 0.7265
3752.000000 0.7265 0.7265 0.7265 0.7265 0.7265
3757.000000 0.7265 0.7265 0.7265 0.7265 0.7265
3762.000000 0.7265 0.7265 0.7265 0.7265 0.7265
3767.000000 0.7265 0.7265 0.7265 0.7265 0.7265
3772.000000 0.7265 0.7265 0.7265 0.7265 0.7265
3777.000000 0.7265 0.7265 0.7265 0.7265 0.7265
3782.000000 0.7265 0.7265 0.7265 0.7265 0.7265
3787.000000 0.7265 0.7265 0.7265 0.7265 0.7265
3792.000000 0.7265 0.7264 0.7264 0.7264 0.7264
3797.000000 0.7264 0.7264
##END=
