##TITLE=8-Azabicyclo[3.2.1]octane, N-methyl-, hydrochloride
##JCAMP-DX=4.24
##DATA TYPE=INFRARED SPECTRUM
##CLASS=COBLENTZ III
##ORIGIN=BRITISH PETROLEUM CO. LTD., ENGLAND
##OWNER=Copyright (C) 1987 by the Coblentz Society
Collection (C) 2018 copyright by the U.S. Secretary of Commerce
on behalf of the United States of America. All rights reserved.
##DATE=1972/08/01
##NAMES=8-methyl-8-azabicyclo[3.2.1]octane hydrochloride
8-Azabicyclo[3.2.1]octane, 8-methyl-, hydrochloride; TROPANE HYDROCHLORIDE
##CAS REGISTRY NO=23555-06-8
##MOLFORM=C8 H16 Cl N
##SOURCE REFERENCE=COBLENTZ NO. 9347
##$NIST SOURCE=COBLENTZ
##$NIST IMAGE=cob9347
##SPECTROMETER/DATA SYSTEM=PERKIN-ELMER 157
##STATE=SOLID (KBr DISC, 1% WT.)
$$ HCl RUN IN KBr MAY CONTAIN SOME HBr
$$ REF. Can. J. Spec., 18,4,101, '73 C. S. DOUSE and P. B. TOOKE
##SAMPLING PROCEDURE=TRANSMISSION
##RESOLUTION=2
##DATA PROCESSING=DIGITIZED BY COBLENTZ SOCIETY (BATCH II) FROM HARD COPY
##XUNITS=1/CM
##YUNITS=TRANSMITTANCE
##XFACTOR=1.0
##YFACTOR=1
##FIRSTX=667
##LASTX=4000
##FIRSTY=0.9257
##MAXX=4000
##MINX=667
##MAXY=0.8907
##MINY=0.0215
##NPOINTS=3334
##XYDATA=(X++(Y..Y))
667.000000 0.9257 0.9255 0.9254 0.9248 0.9231
672.000000 0.9173 0.9096 0.9056 0.9010 0.8951
677.000000 0.8882 0.8814 0.8785 0.8781 0.8787
682.000000 0.8811 0.8854 0.8900 0.8907 0.8906
687.000000 0.8902 0.8896 0.8890 0.8882 0.8873
692.000000 0.8864 0.8854 0.8842 0.8831 0.8852
697.000000 0.8811 0.8802 0.8803 0.8805 0.8802
702.000000 0.8796 0.8763 0.8703 0.8680 0.8671
707.000000 0.8666 0.8650 0.8630 0.8564 0.8528
712.000000 0.8491 0.8396 0.8307 0.8228 0.8160
717.000000 0.8098 0.8025 0.7914 0.7655 0.7279
722.000000 0.6929 0.6793 0.6713 0.6574 0.6356
727.000000 0.6205 0.6123 0.6110 0.6430 0.7060
732.000000 0.7688 0.8207 0.8409 0.8457 0.8480
737.000000 0.8487 0.8490 0.8491 0.8498 0.8492
742.000000 0.8492 0.8492 0.8490 0.8488 0.8486
747.000000 0.8474 0.8457 0.8406 0.8403 0.8402
752.000000 0.8404 0.8406 0.8411 0.8408 0.8405
757.000000 0.8402 0.8396 0.8389 0.8380 0.8370
762.000000 0.8348 0.8308 0.8267 0.8217 0.8149
767.000000 0.8083 0.8072 0.7971 0.7835 0.7726
772.000000 0.7603 0.7148 0.6643 0.6139 0.5933
777.000000 0.6289 0.6988 0.7686 0.8053 0.8188
782.000000 0.8219 0.8229 0.8214 0.8216 0.8214
787.000000 0.8207 0.8198 0.8183 0.8166 0.8140
792.000000 0.8109 0.8072 0.8032 0.7988 0.7938
797.000000 0.7884 0.7861 0.7851 0.7851 0.7895
802.000000 0.8013 0.8072 0.8087 0.8090 0.8106
807.000000 0.8087 0.8079 0.8049 0.7978 0.7888
812.000000 0.7864 0.7865 0.7853 0.8046 0.8087
817.000000 0.8111 0.8124 0.8132 0.8135 0.8127
822.000000 0.8136 0.8136 0.8132 0.8129 0.8122
827.000000 0.8111 0.8100 0.8090 0.8076 0.8055
832.000000 0.8033 0.8013 0.8005 0.7983 0.7956
837.000000 0.7926 0.7886 0.7841 0.7780 0.7717
842.000000 0.7697 0.7579 0.7369 0.7202 0.7051
847.000000 0.6905 0.6688 0.6367 0.6087 0.5843
852.000000 0.5438 0.4973 0.4034 0.3390 0.2748
857.000000 0.2107 0.1837 0.2795 0.4117 0.5435
862.000000 0.6584 0.6667 0.6686 0.6675 0.6668
867.000000 0.6668 0.6716 0.6945 0.7544 0.7691
872.000000 0.7727 0.7727 0.7728 0.7730 0.7704
877.000000 0.7628 0.7515 0.7392 0.7286 0.7193
882.000000 0.7079 0.6930 0.6652 0.6325 0.5877
887.000000 0.5093 0.4531 0.4800 0.5608 0.6417
892.000000 0.7222 0.7730 0.7751 0.7763 0.7768
897.000000 0.7772 0.7776 0.7773 0.7770 0.7766
902.000000 0.7759 0.7753 0.7741 0.7728 0.7694
907.000000 0.7652 0.7612 0.7577 0.7542 0.7516
912.000000 0.7490 0.7463 0.7431 0.7385 0.7318
917.000000 0.7252 0.7193 0.7131 0.7082 0.7030
922.000000 0.6960 0.6889 0.6816 0.6742 0.6656
927.000000 0.6567 0.6475 0.6384 0.6292 0.6086
932.000000 0.5832 0.5522 0.5356 0.5134 0.4657
937.000000 0.4444 0.4231 0.3157 0.2585 0.1963
942.000000 0.1344 0.0824 0.0647 0.0638 0.0666
947.000000 0.0732 0.0782 0.0692 0.0643 0.0644
952.000000 0.0623 0.2919 0.4207 0.4560 0.5376
957.000000 0.5945 0.6205 0.6467 0.6713 0.6869
962.000000 0.6951 0.6976 0.6979 0.6996 0.6915
967.000000 0.6815 0.6702 0.6356 0.5971 0.5666
972.000000 0.5649 0.6161 0.6672 0.6896 0.6893
977.000000 0.6913 0.6648 0.6451 0.6255 0.6086
982.000000 0.6060 0.6885 0.7271 0.7294 0.7299
987.000000 0.7303 0.7304 0.7306 0.7306 0.7304
992.000000 0.7302 0.7310 0.7265 0.7217 0.7182
997.000000 0.7165 0.7156 0.7145 0.7102 0.7019
1002.000000 0.6990 0.6976 0.6962 0.6900 0.6843
1007.000000 0.6812 0.6789 0.6759 0.6705 0.6636
1012.000000 0.6568 0.6496 0.6423 0.6326 0.6220
1017.000000 0.6009 0.5492 0.5271 0.4673 0.3852
1022.000000 0.3364 0.2876 0.2390 0.1905 0.1378
1027.000000 0.1027 0.0863 0.0809 0.0796 0.0796
1032.000000 0.0792 0.1637 0.2753 0.3868 0.4981
1037.000000 0.5801 0.6013 0.6206 0.6388 0.6536
1042.000000 0.6647 0.6723 0.6755 0.6773 0.6777
1047.000000 0.6804 0.6756 0.6714 0.6660 0.6596
1052.000000 0.6525 0.6458 0.6392 0.6318 0.6227
1057.000000 0.6132 0.6032 0.5926 0.4809 0.4212
1062.000000 0.3675 0.3253 0.2832 0.2411 0.1992
1067.000000 0.1923 0.1912 0.2752 0.3400 0.4046
1072.000000 0.4691 0.5330 0.5548 0.5406 0.4969
1077.000000 0.4533 0.4097 0.3661 0.3228 0.2794
1082.000000 0.2362 0.1930 0.1500 0.1069 0.0842
1087.000000 0.0814 0.1498 0.2118 0.2738 0.3356
1092.000000 0.3973 0.4588 0.5203 0.5687 0.6198
1097.000000 0.6437 0.6583 0.6711 0.6839 0.6934
1102.000000 0.6992 0.7009 0.7026 0.7036 0.7039
1107.000000 0.7041 0.7036 0.7039 0.7024 0.7007
1112.000000 0.6984 0.6944 0.6883 0.6797 0.6696
1117.000000 0.6618 0.6542 0.6480 0.6418 0.6356
1122.000000 0.6264 0.6159 0.5852 0.5345 0.4837
1127.000000 0.4570 0.4548 0.4526 0.5017 0.5608
1132.000000 0.6197 0.6364 0.6382 0.6362 0.6320
1137.000000 0.6209 0.6099 0.5988 0.5879 0.5778
1142.000000 0.5689 0.5616 0.5533 0.5438 0.5273
1147.000000 0.5101 0.4992 0.4862 0.4474 0.4081
1152.000000 0.3689 0.3454 0.3472 0.3459 0.4295
1157.000000 0.4747 0.5197 0.5647 0.5854 0.6041
1162.000000 0.6106 0.6149 0.6174 0.6182 0.6180
1167.000000 0.6196 0.6165 0.6143 0.6091 0.5947
1172.000000 0.5725 0.5505 0.5285 0.5064 0.4844
1177.000000 0.4626 0.4407 0.4373 0.4357 0.4964
1182.000000 0.5458 0.5578 0.5590 0.5600 0.5658
1187.000000 0.6215 0.6361 0.6503 0.6641 0.6717
1192.000000 0.6743 0.6757 0.6766 0.6768 0.6775
1197.000000 0.6767 0.6761 0.6754 0.6742 0.6729
1202.000000 0.6713 0.6695 0.6655 0.6606 0.6552
1207.000000 0.6495 0.6429 0.6341 0.6247 0.6149
1212.000000 0.6048 0.5950 0.5852 0.5758 0.5652
1217.000000 0.5203 0.4659 0.4480 0.4473 0.4855
1222.000000 0.5407 0.5885 0.5958 0.5963 0.5957
1227.000000 0.5977 0.5795 0.5566 0.5337 0.5109
1232.000000 0.4881 0.4653 0.4563 0.4566 0.4848
1237.000000 0.5194 0.5539 0.5752 0.5808 0.5822
1242.000000 0.5829 0.5813 0.5770 0.5691 0.5600
1247.000000 0.5539 0.5465 0.5321 0.5009 0.4685
1252.000000 0.4372 0.4261 0.4305 0.4419 0.4532
1257.000000 0.4641 0.4676 0.4507 0.4084 0.3662
1262.000000 0.3241 0.2820 0.2400 0.1981 0.1836
1267.000000 0.1837 0.3986 0.5366 0.5889 0.5944
1272.000000 0.5968 0.5985 0.5985 0.5994 0.5980
1277.000000 0.5972 0.5954 0.5934 0.5916 0.5906
1282.000000 0.5905 0.5887 0.5947 0.5972 0.5989
1287.000000 0.6003 0.6013 0.6006 0.6014 0.5959
1292.000000 0.5923 0.5863 0.5804 0.5758 0.5711
1297.000000 0.5670 0.5646 0.5641 0.5652 0.5708
1302.000000 0.5767 0.5824 0.5878 0.5881 0.5878
1307.000000 0.5869 0.5844 0.5810 0.5777 0.5743
1312.000000 0.5703 0.5663 0.5621 0.5579 0.5533
1317.000000 0.5474 0.5414 0.5352 0.5290 0.5230
1322.000000 0.5170 0.5086 0.5057 0.5057 0.5059
1327.000000 0.5074 0.5131 0.5192 0.5237 0.5249
1332.000000 0.5255 0.5239 0.5229 0.5212 0.5188
1337.000000 0.5151 0.5080 0.4975 0.4826 0.4705
1342.000000 0.4578 0.4523 0.4476 0.4133 0.3504
1347.000000 0.3066 0.2628 0.2191 0.2035 0.2048
1352.000000 0.2126 0.2218 0.2308 0.2395 0.2402
1357.000000 0.2238 0.2036 0.1985 0.1950 0.3230
1362.000000 0.3997 0.4764 0.5231 0.5246 0.5253
1367.000000 0.5263 0.5247 0.5240 0.5229 0.5217
1372.000000 0.5200 0.5171 0.5125 0.5071 0.5003
1377.000000 0.4927 0.4849 0.4681 0.4485 0.4288
1382.000000 0.3852 0.3556 0.3277 0.2999 0.2721
1387.000000 0.2443 0.2166 0.1889 0.1613 0.1337
1392.000000 0.1210 0.1293 0.1527 0.1761 0.1994
1397.000000 0.2228 0.2461 0.2693 0.2925 0.3156
1402.000000 0.3388 0.3619 0.3850 0.3976 0.3991
1407.000000 0.3993 0.3994 0.3991 0.3977 0.4011
1412.000000 0.3918 0.3869 0.3786 0.3652 0.3384
1417.000000 0.3116 0.2848 0.2581 0.2314 0.2047
1422.000000 0.1781 0.1625 0.1606 0.1601 0.1604
1427.000000 0.1573 0.1887 0.2040 0.2191 0.2343
1432.000000 0.2494 0.2645 0.2776 0.2823 0.2810
1437.000000 0.2784 0.2660 0.2523 0.2385 0.2247
1442.000000 0.2110 0.1972 0.1835 0.1698 0.1562
1447.000000 0.1425 0.1289 0.1153 0.1016 0.0881
1452.000000 0.0764 0.0740 0.0708 0.0824 0.0878
1457.000000 0.0932 0.0986 0.1022 0.1038 0.1056
1462.000000 0.1075 0.1105 0.1142 0.1174 0.1190
1467.000000 0.1197 0.1203 0.1236 0.1177 0.1070
1472.000000 0.0964 0.0857 0.0751 0.0648 0.0597
1477.000000 0.0582 0.0575 0.0573 0.0573 0.0575
1482.000000 0.0583 0.0550 0.1081 0.1486 0.1891
1487.000000 0.2295 0.2699 0.3102 0.3508 0.3889
1492.000000 0.4143 0.4396 0.4649 0.4901 0.5154
1497.000000 0.5406 0.5639 0.5699 0.5740 0.5787
1502.000000 0.6146 0.6516 0.6619 0.6698 0.6752
1507.000000 0.6778 0.6802 0.6823 0.6835 0.6847
1512.000000 0.6859 0.6870 0.6880 0.6891 0.6901
1517.000000 0.6906 0.6910 0.6914 0.6919 0.6922
1522.000000 0.6924 0.6925 0.6926 0.6928 0.6929
1527.000000 0.6930 0.6931 0.6932 0.6934 0.6934
1532.000000 0.6935 0.6935 0.6936 0.6936 0.6937
1537.000000 0.6937 0.6938 0.6939 0.6940 0.6941
1542.000000 0.6942 0.6943 0.6944 0.6944 0.6945
1547.000000 0.6946 0.6948 0.6948 0.6957 0.6948
1552.000000 0.6948 0.6948 0.6948 0.6948 0.6948
1557.000000 0.6948 0.6948 0.6948 0.6947 0.6946
1562.000000 0.6945 0.6944 0.6943 0.6942 0.6941
1567.000000 0.6940 0.6939 0.6938 0.6937 0.6936
1572.000000 0.6935 0.6935 0.6934 0.6933 0.6932
1577.000000 0.6931 0.6931 0.6930 0.6929 0.6928
1582.000000 0.6927 0.6926 0.6919 0.6908 0.6891
1587.000000 0.6872 0.6853 0.6827 0.6797 0.6763
1592.000000 0.6727 0.6697 0.6673 0.6650 0.6626
1597.000000 0.6601 0.6573 0.6546 0.6520 0.6499
1602.000000 0.6482 0.6465 0.6447 0.6429 0.6408
1607.000000 0.6384 0.6356 0.6324 0.6278 0.6215
1612.000000 0.6195 0.6175 0.6154 0.6133 0.6111
1617.000000 0.6087 0.6063 0.6043 0.6032 0.6026
1622.000000 0.6021 0.6016 0.6014 0.6014 0.6015
1627.000000 0.5999 0.6029 0.6040 0.6052 0.6065
1632.000000 0.6080 0.6095 0.6108 0.6120 0.6129
1637.000000 0.6131 0.6133 0.6134 0.6136 0.6138
1642.000000 0.6143 0.6152 0.6168 0.6195 0.6220
1647.000000 0.6245 0.6287 0.6340 0.6374 0.6393
1652.000000 0.6405 0.6418 0.6434 0.6446 0.6451
1657.000000 0.6456 0.6460 0.6463 0.6464 0.6471
1662.000000 0.6501 0.6550 0.6614 0.6675 0.6718
1667.000000 0.6747 0.6774 0.6801 0.6826 0.6849
1672.000000 0.6865 0.6879 0.6894 0.6906 0.6915
1677.000000 0.6923 0.6931 0.6938 0.6942 0.6944
1682.000000 0.6947 0.6949 0.6951 0.6953 0.6956
1687.000000 0.6964 0.6973 0.6986 0.7001 0.7016
1692.000000 0.7035 0.7055 0.7071 0.7078 0.7084
1697.000000 0.7091 0.7093 0.7093 0.7093 0.7093
1702.000000 0.7093 0.7093 0.7093 0.7094 0.7095
1707.000000 0.7096 0.7098 0.7100 0.7102 0.7102
1712.000000 0.7104 0.7106 0.7108 0.7111 0.7114
1717.000000 0.7118 0.7122 0.7125 0.7130 0.7136
1722.000000 0.7145 0.7154 0.7156 0.7157 0.7159
1727.000000 0.7160 0.7161 0.7161 0.7161 0.7161
1732.000000 0.7160 0.7160 0.7159 0.7158 0.7158
1737.000000 0.7158 0.7157 0.7157 0.7156 0.7155
1742.000000 0.7155 0.7154 0.7153 0.7152 0.7151
1747.000000 0.7151 0.7151 0.7153 0.7155 0.7157
1752.000000 0.7159 0.7165 0.7175 0.7184 0.7195
1757.000000 0.7205 0.7213 0.7221 0.7229 0.7238
1762.000000 0.7248 0.7260 0.7273 0.7283 0.7291
1767.000000 0.7298 0.7305 0.7313 0.7318 0.7321
1772.000000 0.7323 0.7324 0.7327 0.7328 0.7329
1777.000000 0.7329 0.7329 0.7330 0.7330 0.7330
1782.000000 0.7330 0.7330 0.7330 0.7330 0.7331
1787.000000 0.7331 0.7331 0.7331 0.7331 0.7331
1792.000000 0.7331 0.7331 0.7332 0.7332 0.7332
1797.000000 0.7332 0.7332 0.7332 0.7323 0.7332
1802.000000 0.7332 0.7333 0.7333 0.7333 0.7333
1807.000000 0.7333 0.7333 0.7333 0.7333 0.7334
1812.000000 0.7334 0.7334 0.7334 0.7334 0.7333
1817.000000 0.7332 0.7332 0.7332 0.7331 0.7330
1822.000000 0.7330 0.7330 0.7329 0.7328 0.7327
1827.000000 0.7323 0.7318 0.7314 0.7308 0.7304
1832.000000 0.7299 0.7294 0.7287 0.7280 0.7273
1837.000000 0.7267 0.7259 0.7252 0.7245 0.7238
1842.000000 0.7231 0.7225 0.7218 0.7212 0.7205
1847.000000 0.7198 0.7192 0.7185 0.7179 0.7175
1852.000000 0.7171 0.7167 0.7164 0.7160 0.7156
1857.000000 0.7154 0.7151 0.7149 0.7146 0.7143
1862.000000 0.7140 0.7137 0.7135 0.7132 0.7130
1867.000000 0.7127 0.7124 0.7121 0.7119 0.7116
1872.000000 0.7113 0.7111 0.7111 0.7110 0.7109
1877.000000 0.7108 0.7108 0.7108 0.7109 0.7109
1882.000000 0.7110 0.7111 0.7112 0.7112 0.7113
1887.000000 0.7114 0.7114 0.7115 0.7115 0.7115
1892.000000 0.7114 0.7113 0.7112 0.7112 0.7111
1897.000000 0.7109 0.7107 0.7105 0.7104 0.7102
1902.000000 0.7100 0.7097 0.7092 0.7086 0.7081
1907.000000 0.7076 0.7071 0.7064 0.7057 0.7050
1912.000000 0.7042 0.7034 0.7026 0.7018 0.7011
1917.000000 0.7005 0.7000 0.6995 0.6991 0.6986
1922.000000 0.6982 0.6978 0.6973 0.6968 0.6964
1927.000000 0.6958 0.6952 0.6945 0.6937 0.6930
1932.000000 0.6922 0.6911 0.6899 0.6887 0.6875
1937.000000 0.6865 0.6856 0.6850 0.6845 0.6841
1942.000000 0.6839 0.6838 0.6836 0.6834 0.6832
1947.000000 0.6830 0.6828 0.6826 0.6824 0.6823
1952.000000 0.6822 0.6822 0.6821 0.6820 0.6819
1957.000000 0.6819 0.6819 0.6819 0.6819 0.6820
1962.000000 0.6820 0.6820 0.6821 0.6821 0.6821
1967.000000 0.6821 0.6821 0.6822 0.6822 0.6822
1972.000000 0.6822 0.6822 0.6821 0.6821 0.6821
1977.000000 0.6821 0.6820 0.6818 0.6816 0.6813
1982.000000 0.6810 0.6807 0.6804 0.6801 0.6798
1987.000000 0.6795 0.6792 0.6789 0.6786 0.6783
1992.000000 0.6780 0.6773 0.6767 0.6759 0.6752
1997.000000 0.6744 0.6737 0.6729 0.6722 0.6713
2002.000000 0.6703 0.6690 0.6678 0.6666 0.6654
2007.000000 0.6642 0.6630 0.6618 0.6604 0.6590
2012.000000 0.6575 0.6559 0.6543 0.6527 0.6511
2017.000000 0.6505 0.6500 0.6495 0.6492 0.6491
2022.000000 0.6488 0.6486 0.6483 0.6481 0.6478
2027.000000 0.6477 0.6475 0.6473 0.6471 0.6469
2032.000000 0.6467 0.6466 0.6464 0.6461 0.6458
2037.000000 0.6455 0.6452 0.6449 0.6446 0.6443
2042.000000 0.6440 0.6437 0.6434 0.6431 0.6428
2047.000000 0.6425 0.6422 0.6419 0.6414 0.6409
2052.000000 0.6403 0.6398 0.6392 0.6386 0.6381
2057.000000 0.6376 0.6370 0.6363 0.6357 0.6351
2062.000000 0.6343 0.6336 0.6329 0.6322 0.6315
2067.000000 0.6306 0.6297 0.6296 0.6295 0.6293
2072.000000 0.6292 0.6290 0.6289 0.6288 0.6287
2077.000000 0.6286 0.6285 0.6284 0.6282 0.6281
2082.000000 0.6280 0.6279 0.6278 0.6277 0.6275
2087.000000 0.6274 0.6274 0.6273 0.6273 0.6272
2092.000000 0.6272 0.6270 0.6269 0.6266 0.6263
2097.000000 0.6260 0.6256 0.6252 0.6246 0.6239
2102.000000 0.6233 0.6226 0.6220 0.6208 0.6192
2107.000000 0.6161 0.6128 0.6098 0.6076 0.6071
2112.000000 0.6066 0.6060 0.6055 0.6050 0.6045
2117.000000 0.6041 0.6039 0.6037 0.6034 0.6032
2122.000000 0.6030 0.6028 0.6026 0.6023 0.6020
2127.000000 0.6017 0.6015 0.6012 0.6009 0.6006
2132.000000 0.6001 0.5995 0.5987 0.5978 0.5969
2137.000000 0.5960 0.5951 0.5941 0.5932 0.5922
2142.000000 0.5912 0.5902 0.5892 0.5883 0.5874
2147.000000 0.5864 0.5854 0.5844 0.5832 0.5818
2152.000000 0.5804 0.5791 0.5779 0.5768 0.5759
2157.000000 0.5750 0.5741 0.5731 0.5722 0.5712
2162.000000 0.5703 0.5695 0.5687 0.5679 0.5671
2167.000000 0.5662 0.5654 0.5646 0.5639 0.5631
2172.000000 0.5624 0.5617 0.5610 0.5602 0.5595
2177.000000 0.5588 0.5581 0.5576 0.5572 0.5568
2182.000000 0.5564 0.5560 0.5556 0.5553 0.5549
2187.000000 0.5545 0.5542 0.5538 0.5534 0.5531
2192.000000 0.5527 0.5523 0.5520 0.5516 0.5512
2197.000000 0.5508 0.5504 0.5500 0.5495 0.5491
2202.000000 0.5487 0.5483 0.5479 0.5475 0.5471
2207.000000 0.5468 0.5466 0.5464 0.5462 0.5460
2212.000000 0.5458 0.5457 0.5455 0.5453 0.5451
2217.000000 0.5449 0.5448 0.5446 0.5444 0.5442
2222.000000 0.5441 0.5439 0.5438 0.5437 0.5436
2227.000000 0.5434 0.5433 0.5432 0.5431 0.5429
2232.000000 0.5428 0.5426 0.5424 0.5418 0.5412
2237.000000 0.5405 0.5398 0.5387 0.5375 0.5357
2242.000000 0.5338 0.5323 0.5308 0.5294 0.5280
2247.000000 0.5267 0.5253 0.5240 0.5227 0.5214
2252.000000 0.5201 0.5188 0.5174 0.5161 0.5147
2257.000000 0.5133 0.5120 0.5107 0.5093 0.5080
2262.000000 0.5066 0.5053 0.5039 0.5026 0.5013
2267.000000 0.5000 0.4986 0.4974 0.4962 0.4949
2272.000000 0.4937 0.4924 0.4912 0.4900 0.4888
2277.000000 0.4876 0.4867 0.4858 0.4849 0.4840
2282.000000 0.4824 0.4809 0.4793 0.4778 0.4764
2287.000000 0.4752 0.4740 0.4728 0.4715 0.4701
2292.000000 0.4687 0.4673 0.4658 0.4643 0.4627
2297.000000 0.4610 0.4593 0.4576 0.4558 0.4536
2302.000000 0.4513 0.4485 0.4458 0.4430 0.4402
2307.000000 0.4374 0.4346 0.4317 0.4287 0.4258
2312.000000 0.4228 0.4188 0.4124 0.4061 0.4007
2317.000000 0.3953 0.3923 0.3892 0.3867 0.3843
2322.000000 0.3819 0.3795 0.3771 0.3748 0.3725
2327.000000 0.3702 0.3666 0.3590 0.3518 0.3498
2332.000000 0.3478 0.3463 0.3448 0.3434 0.3420
2337.000000 0.3406 0.3394 0.3382 0.3373 0.3364
2342.000000 0.3355 0.3346 0.3337 0.3327 0.3318
2347.000000 0.3308 0.3300 0.3292 0.3284 0.3276
2352.000000 0.3268 0.3261 0.3253 0.3245 0.3238
2357.000000 0.3231 0.3225 0.3220 0.3216 0.3213
2362.000000 0.3209 0.3206 0.3203 0.3199 0.3197
2367.000000 0.3194 0.3192 0.3190 0.3188 0.3187
2372.000000 0.3185 0.3185 0.3184 0.3183 0.3182
2377.000000 0.3181 0.3180 0.3179 0.3178 0.3176
2382.000000 0.3175 0.3174 0.3172 0.3171 0.3167
2387.000000 0.3159 0.3151 0.3140 0.3128 0.3117
2392.000000 0.3105 0.3093 0.3081 0.3068 0.3053
2397.000000 0.3037 0.3022 0.3007 0.2989 0.2969
2402.000000 0.2948 0.2925 0.2902 0.2882 0.2861
2407.000000 0.2841 0.2822 0.2802 0.2783 0.2762
2412.000000 0.2735 0.2708 0.2680 0.2652 0.2621
2417.000000 0.2585 0.2541 0.2460 0.2378 0.2293
2422.000000 0.2208 0.2143 0.2099 0.2056 0.2025
2427.000000 0.1993 0.1963 0.1933 0.1908 0.1889
2432.000000 0.1870 0.1851 0.1833 0.1814 0.1795
2437.000000 0.1777 0.1760 0.1743 0.1727 0.1710
2442.000000 0.1694 0.1677 0.1661 0.1643 0.1626
2447.000000 0.1607 0.1588 0.1570 0.1551 0.1532
2452.000000 0.1496 0.1461 0.1420 0.1374 0.1306
2457.000000 0.1144 0.0983 0.0927 0.0898 0.0877
2462.000000 0.0870 0.0864 0.0857 0.0851 0.0844
2467.000000 0.0838 0.0831 0.0828 0.0825 0.0823
2472.000000 0.0821 0.0820 0.0820 0.0819 0.0818
2477.000000 0.0818 0.0818 0.0818 0.0818 0.0817
2482.000000 0.0817 0.0816 0.0815 0.0814 0.0812
2487.000000 0.0811 0.0810 0.0809 0.0808 0.0806
2492.000000 0.0804 0.0800 0.0795 0.0791 0.0785
2497.000000 0.0780 0.0775 0.0770 0.0766 0.0760
2502.000000 0.0754 0.0748 0.0740 0.0732 0.0722
2507.000000 0.0712 0.0700 0.0684 0.0668 0.0655
2512.000000 0.0641 0.0628 0.0617 0.0606 0.0594
2517.000000 0.0583 0.0572 0.0564 0.0556 0.0548
2522.000000 0.0539 0.0531 0.0522 0.0514 0.0503
2527.000000 0.0492 0.0480 0.0469 0.0458 0.0447
2532.000000 0.0438 0.0428 0.0418 0.0409 0.0401
2537.000000 0.0395 0.0388 0.0381 0.0374 0.0367
2542.000000 0.0361 0.0355 0.0349 0.0344 0.0339
2547.000000 0.0333 0.0328 0.0324 0.0322 0.0320
2552.000000 0.0318 0.0316 0.0314 0.0311 0.0309
2557.000000 0.0307 0.0305 0.0303 0.0303 0.0303
2562.000000 0.0302 0.0302 0.0302 0.0301 0.0301
2567.000000 0.0300 0.0300 0.0300 0.0298 0.0298
2572.000000 0.0298 0.0298 0.0298 0.0299 0.0299
2577.000000 0.0299 0.0300 0.0301 0.0302 0.0302
2582.000000 0.0302 0.0303 0.0304 0.0304 0.0306
2587.000000 0.0309 0.0312 0.0317 0.0323 0.0329
2592.000000 0.0335 0.0342 0.0349 0.0357 0.0365
2597.000000 0.0373 0.0381 0.0389 0.0393 0.0397
2602.000000 0.0401 0.0405 0.0408 0.0411 0.0415
2607.000000 0.0418 0.0419 0.0420 0.0421 0.0423
2612.000000 0.0424 0.0425 0.0426 0.0427 0.0427
2617.000000 0.0427 0.0426 0.0426 0.0426 0.0426
2622.000000 0.0426 0.0426 0.0425 0.0425 0.0425
2627.000000 0.0425 0.0425 0.0426 0.0424 0.0424
2632.000000 0.0424 0.0424 0.0424 0.0424 0.0424
2637.000000 0.0424 0.0424 0.0424 0.0425 0.0425
2642.000000 0.0425 0.0424 0.0423 0.0422 0.0420
2647.000000 0.0417 0.0413 0.0408 0.0400 0.0393
2652.000000 0.0370 0.0344 0.0318 0.0301 0.0284
2657.000000 0.0269 0.0258 0.0247 0.0239 0.0236
2662.000000 0.0233 0.0230 0.0227 0.0224 0.0222
2667.000000 0.0220 0.0219 0.0218 0.0217 0.0216
2672.000000 0.0216 0.0216 0.0215 0.0215 0.0215
2677.000000 0.0215 0.0215 0.0215 0.0215 0.0215
2682.000000 0.0215 0.0216 0.0216 0.0216 0.0216
2687.000000 0.0216 0.0216 0.0216 0.0216 0.0216
2692.000000 0.0217 0.0218 0.0219 0.0219 0.0220
2697.000000 0.0221 0.0221 0.0222 0.0223 0.0223
2702.000000 0.0224 0.0225 0.0227 0.0229 0.0231
2707.000000 0.0234 0.0236 0.0240 0.0246 0.0252
2712.000000 0.0260 0.0271 0.0282 0.0302 0.0329
2717.000000 0.0356 0.0371 0.0378 0.0386 0.0390
2722.000000 0.0394 0.0397 0.0399 0.0400 0.0402
2727.000000 0.0404 0.0406 0.0408 0.0409 0.0411
2732.000000 0.0412 0.0413 0.0414 0.0414 0.0415
2737.000000 0.0416 0.0416 0.0417 0.0418 0.0419
2742.000000 0.0428 0.0440 0.0452 0.0464 0.0476
2747.000000 0.0487 0.0500 0.0512 0.0524 0.0536
2752.000000 0.0549 0.0561 0.0570 0.0579 0.0588
2757.000000 0.0594 0.0599 0.0604 0.0606 0.0608
2762.000000 0.0609 0.0609 0.0608 0.0607 0.0606
2767.000000 0.0605 0.0604 0.0618 0.0599 0.0596
2772.000000 0.0593 0.0588 0.0584 0.0576 0.0563
2777.000000 0.0549 0.0536 0.0526 0.0516 0.0506
2782.000000 0.0496 0.0486 0.0476 0.0465 0.0455
2787.000000 0.0444 0.0441 0.0437 0.0434 0.0432
2792.000000 0.0431 0.0429 0.0428 0.0426 0.0425
2797.000000 0.0424 0.0423 0.0423 0.0422 0.0422
2802.000000 0.0422 0.0422 0.0422 0.0422 0.0422
2807.000000 0.0422 0.0422 0.0423 0.0423 0.0423
2812.000000 0.0423 0.0424 0.0424 0.0424 0.0425
2817.000000 0.0426 0.0426 0.0427 0.0427 0.0428
2822.000000 0.0429 0.0429 0.0430 0.0431 0.0432
2827.000000 0.0433 0.0433 0.0434 0.0434 0.0434
2832.000000 0.0435 0.0435 0.0435 0.0435 0.0435
2837.000000 0.0435 0.0435 0.0435 0.0435 0.0435
2842.000000 0.0435 0.0435 0.0435 0.0436 0.0436
2847.000000 0.0436 0.0435 0.0435 0.0435 0.0435
2852.000000 0.0435 0.0435 0.0435 0.0435 0.0435
2857.000000 0.0435 0.0434 0.0434 0.0434 0.0434
2862.000000 0.0434 0.0434 0.0433 0.0433 0.0433
2867.000000 0.0432 0.0432 0.0432 0.0432 0.0431
2872.000000 0.0431 0.0431 0.0430 0.0430 0.0430
2877.000000 0.0429 0.0427 0.0426 0.0424 0.0422
2882.000000 0.0419 0.0417 0.0414 0.0412 0.0410
2887.000000 0.0408 0.0406 0.0403 0.0401 0.0399
2892.000000 0.0396 0.0394 0.0391 0.0389 0.0387
2897.000000 0.0384 0.0382 0.0380 0.0378 0.0376
2902.000000 0.0374 0.0372 0.0370 0.0368 0.0366
2907.000000 0.0363 0.0361 0.0359 0.0357 0.0355
2912.000000 0.0354 0.0352 0.0350 0.0349 0.0347
2917.000000 0.0346 0.0345 0.0343 0.0342 0.0341
2922.000000 0.0341 0.0341 0.0341 0.0341 0.0341
2927.000000 0.0341 0.0340 0.0340 0.0340 0.0340
2932.000000 0.0340 0.0340 0.0340 0.0341 0.0342
2937.000000 0.0342 0.0343 0.0343 0.0343 0.0343
2942.000000 0.0346 0.0349 0.0352 0.0320 0.0372
2947.000000 0.0384 0.0397 0.0414 0.0432 0.0449
2952.000000 0.0490 0.0565 0.0640 0.0715 0.0754
2957.000000 0.0788 0.0823 0.0855 0.0881 0.0907
2962.000000 0.0933 0.0951 0.0969 0.0986 0.1003
2967.000000 0.1020 0.1037 0.1054 0.1094 0.1137
2972.000000 0.1180 0.1225 0.1271 0.1318 0.1365
2977.000000 0.1411 0.1458 0.1504 0.1551 0.1597
2982.000000 0.1643 0.1690 0.1736 0.1782 0.1828
2987.000000 0.1874 0.1920 0.1966 0.2013 0.2059
2992.000000 0.2105 0.2151 0.2197 0.2243 0.2289
2997.000000 0.2335 0.2381 0.2426 0.2472 0.2517
3002.000000 0.2563 0.2609 0.2655 0.2726 0.2907
3007.000000 0.3089 0.3270 0.3357 0.3376 0.3395
3012.000000 0.3414 0.3432 0.3450 0.3469 0.3487
3017.000000 0.3506 0.3525 0.3543 0.3571 0.3602
3022.000000 0.3633 0.3664 0.3703 0.3742 0.3780
3027.000000 0.3831 0.3905 0.3978 0.4051 0.4120
3032.000000 0.4186 0.4252 0.4318 0.4360 0.4402
3037.000000 0.4444 0.4484 0.4519 0.4555 0.4590
3042.000000 0.4614 0.4633 0.4651 0.4669 0.4688
3047.000000 0.4706 0.4724 0.4743 0.4761 0.4779
3052.000000 0.4797 0.4813 0.4827 0.4841 0.4854
3057.000000 0.4868 0.4881 0.4894 0.4907 0.4920
3062.000000 0.4933 0.4946 0.4959 0.4970 0.4982
3067.000000 0.4994 0.5005 0.5015 0.5026 0.5036
3072.000000 0.5046 0.5057 0.5067 0.5077 0.5085
3077.000000 0.5093 0.5101 0.5109 0.5114 0.5120
3082.000000 0.5125 0.5131 0.5136 0.5142 0.5147
3087.000000 0.5153 0.5158 0.5163 0.5168 0.5171
3092.000000 0.5173 0.5175 0.5177 0.5179 0.5181
3097.000000 0.5183 0.5185 0.5186 0.5187 0.5189
3102.000000 0.5190 0.5190 0.5191 0.5192 0.5211
3107.000000 0.5194 0.5194 0.5195 0.5196 0.5196
3112.000000 0.5196 0.5196 0.5196 0.5195 0.5194
3117.000000 0.5194 0.5193 0.5192 0.5191 0.5191
3122.000000 0.5189 0.5188 0.5186 0.5185 0.5183
3127.000000 0.5181 0.5180 0.5178 0.5177 0.5175
3132.000000 0.5174 0.5172 0.5168 0.5164 0.5160
3137.000000 0.5155 0.5150 0.5145 0.5140 0.5135
3142.000000 0.5129 0.5124 0.5118 0.5112 0.5107
3147.000000 0.5101 0.5095 0.5089 0.5082 0.5076
3152.000000 0.5069 0.5063 0.5056 0.5049 0.5042
3157.000000 0.5036 0.5029 0.5022 0.5015 0.5008
3162.000000 0.5000 0.4991 0.4983 0.4975 0.4967
3167.000000 0.4959 0.4951 0.4943 0.4935 0.4927
3172.000000 0.4918 0.4910 0.4901 0.4893 0.4884
3177.000000 0.4875 0.4866 0.4857 0.4848 0.4840
3182.000000 0.4832 0.4825 0.4817 0.4809 0.4802
3187.000000 0.4794 0.4786 0.4779 0.4771 0.4764
3192.000000 0.4756 0.4748 0.4741 0.4733 0.4726
3197.000000 0.4718 0.4709 0.4701 0.4692 0.4684
3202.000000 0.4674 0.4664 0.4654 0.4644 0.4634
3207.000000 0.4623 0.4613 0.4603 0.4594 0.4586
3212.000000 0.4577 0.4569 0.4560 0.4551 0.4543
3217.000000 0.4534 0.4525 0.4517 0.4508 0.4499
3222.000000 0.4491 0.4482 0.4474 0.4465 0.4457
3227.000000 0.4446 0.4436 0.4426 0.4416 0.4406
3232.000000 0.4396 0.4386 0.4376 0.4366 0.4356
3237.000000 0.4345 0.4335 0.4325 0.4315 0.4305
3242.000000 0.4295 0.4285 0.4276 0.4267 0.4257
3247.000000 0.4248 0.4239 0.4229 0.4220 0.4210
3252.000000 0.4201 0.4191 0.4182 0.4172 0.4163
3257.000000 0.4154 0.4144 0.4135 0.4124 0.4112
3262.000000 0.4100 0.4088 0.4076 0.4064 0.4052
3267.000000 0.4040 0.4028 0.4017 0.4005 0.3993
3272.000000 0.3981 0.3972 0.3963 0.3954 0.3944
3277.000000 0.3935 0.3926 0.3917 0.3908 0.3899
3282.000000 0.3890 0.3881 0.3872 0.3863 0.3854
3287.000000 0.3844 0.3835 0.3826 0.3817 0.3807
3292.000000 0.3798 0.3789 0.3779 0.3768 0.3756
3297.000000 0.3745 0.3733 0.3722 0.3711 0.3699
3302.000000 0.3688 0.3677 0.3665 0.3654 0.3643
3307.000000 0.3631 0.3619 0.3607 0.3595 0.3583
3312.000000 0.3570 0.3558 0.3545 0.3533 0.3520
3317.000000 0.3507 0.3495 0.3482 0.3469 0.3458
3322.000000 0.3448 0.3437 0.3426 0.3417 0.3408
3327.000000 0.3399 0.3390 0.3382 0.3373 0.3364
3332.000000 0.3355 0.3346 0.3338 0.3329 0.3320
3337.000000 0.3311 0.3303 0.3293 0.3284 0.3275
3342.000000 0.3266 0.3254 0.3241 0.3228 0.3216
3347.000000 0.3203 0.3190 0.3178 0.3165 0.3152
3352.000000 0.3139 0.3126 0.3113 0.3101 0.3088
3357.000000 0.3078 0.3067 0.3056 0.3046 0.3039
3362.000000 0.3034 0.3028 0.3023 0.3017 0.3011
3367.000000 0.3006 0.3000 0.2994 0.2990 0.2987
3372.000000 0.2984 0.2980 0.2977 0.2974 0.2971
3377.000000 0.2968 0.2965 0.2962 0.2959 0.2955
3382.000000 0.2952 0.2949 0.2947 0.2945 0.2944
3387.000000 0.2942 0.2940 0.2939 0.2937 0.2936
3392.000000 0.2935 0.2934 0.2932 0.2931 0.2930
3397.000000 0.2929 0.2928 0.2927 0.2926 0.2925
3402.000000 0.2924 0.2924 0.2924 0.2924 0.2923
3407.000000 0.2923 0.2923 0.2923 0.2923 0.2922
3412.000000 0.2922 0.2922 0.2922 0.2922 0.2921
3417.000000 0.2921 0.2921 0.2921 0.2920 0.2920
3422.000000 0.2920 0.2920 0.2920 0.2919 0.2920
3427.000000 0.2920 0.2920 0.2920 0.2920 0.2920
3432.000000 0.2921 0.2921 0.2921 0.2924 0.2926
3437.000000 0.2929 0.2931 0.2934 0.2936 0.2939
3442.000000 0.2941 0.2943 0.2946 0.2949 0.2952
3447.000000 0.2955 0.2959 0.2962 0.2966 0.2970
3452.000000 0.2974 0.2977 0.2983 0.2988 0.2993
3457.000000 0.2998 0.3005 0.3018 0.3031 0.3044
3462.000000 0.3057 0.3068 0.3078 0.3087 0.3096
3467.000000 0.3106 0.3116 0.3126 0.3136 0.3146
3472.000000 0.3156 0.3169 0.3182 0.3195 0.3208
3477.000000 0.3221 0.3234 0.3247 0.3260 0.3273
3482.000000 0.3286 0.3299 0.3312 0.3325 0.3339
3487.000000 0.3352 0.3365 0.3378 0.3391 0.3403
3492.000000 0.3416 0.3429 0.3442 0.3455 0.3468
3497.000000 0.3481 0.3494 0.3507 0.3520 0.3533
3502.000000 0.3546 0.3559 0.3572 0.3585 0.3598
3507.000000 0.3612 0.3628 0.3644 0.3659 0.3675
3512.000000 0.3689 0.3703 0.3717 0.3730 0.3744
3517.000000 0.3754 0.3762 0.3771 0.3780 0.3788
3522.000000 0.3797 0.3806 0.3815 0.3824 0.3833
3527.000000 0.3840 0.3847 0.3855 0.3862 0.3869
3532.000000 0.3876 0.3883 0.3890 0.3897 0.3904
3537.000000 0.3911 0.3918 0.3925 0.3932 0.3939
3542.000000 0.3948 0.3957 0.3966 0.3975 0.3985
3547.000000 0.3994 0.4004 0.4014 0.4024 0.4034
3552.000000 0.4104 0.4183 0.4263 0.4342 0.4422
3557.000000 0.4446 0.4458 0.4469 0.4481 0.4493
3562.000000 0.4504 0.4516 0.4527 0.4539 0.4551
3567.000000 0.4582 0.4623 0.4664 0.4706 0.4747
3572.000000 0.4774 0.4791 0.4808 0.4825 0.4842
3577.000000 0.4870 0.4909 0.4948 0.4987 0.5026
3582.000000 0.5057 0.5073 0.5090 0.5106 0.5122
3587.000000 0.5138 0.5150 0.5162 0.5173 0.5185
3592.000000 0.5197 0.5213 0.5228 0.5244 0.5259
3597.000000 0.5275 0.5288 0.5302 0.5315 0.5329
3602.000000 0.5342 0.5354 0.5364 0.5374 0.5385
3607.000000 0.5395 0.5404 0.5410 0.5417 0.5423
3612.000000 0.5430 0.5436 0.5443 0.5449 0.5456
3617.000000 0.5462 0.5469 0.5475 0.5481 0.5487
3622.000000 0.5493 0.5499 0.5505 0.5512 0.5518
3627.000000 0.5524 0.5530 0.5535 0.5540 0.5545
3632.000000 0.5550 0.5555 0.5560 0.5564 0.5568
3637.000000 0.5573 0.5577 0.5581 0.5586 0.5590
3642.000000 0.5594 0.5599 0.5603 0.5606 0.5608
3647.000000 0.5611 0.5613 0.5615 0.5617 0.5620
3652.000000 0.5622 0.5624 0.5626 0.5629 0.5631
3657.000000 0.5633 0.5635 0.5638 0.5640 0.5642
3662.000000 0.5644 0.5646 0.5648 0.5650 0.5652
3667.000000 0.5653 0.5654 0.5655 0.5656 0.5657
3672.000000 0.5658 0.5658 0.5658 0.5658 0.5658
3677.000000 0.5663 0.5659 0.5659 0.5659 0.5659
3682.000000 0.5660 0.5660 0.5660 0.5660 0.5660
3687.000000 0.5660 0.5661 0.5661 0.5661 0.5661
3692.000000 0.5661 0.5660 0.5660 0.5660 0.5660
3697.000000 0.5660 0.5660 0.5659 0.5659 0.5659
3702.000000 0.5659 0.5659 0.5658 0.5658 0.5658
3707.000000 0.5657 0.5657 0.5657 0.5655 0.5653
3712.000000 0.5651 0.5650 0.5648 0.5645 0.5641
3717.000000 0.5637 0.5632 0.5628 0.5624 0.5618
3722.000000 0.5612 0.5606 0.5599 0.5593 0.5588
3727.000000 0.5588 0.5587 0.5587 0.5586 0.5586
3732.000000 0.5585 0.5584 0.5584 0.5583 0.5582
3737.000000 0.5581 0.5581 0.5580 0.5580 0.5579
3742.000000 0.5579 0.5579 0.5579 0.5579 0.5579
3747.000000 0.5579 0.5579 0.5580 0.5580 0.5581
3752.000000 0.5581 0.5581 0.5582 0.5582 0.5582
3757.000000 0.5582 0.5582 0.5582 0.5583 0.5583
3762.000000 0.5583 0.5584 0.5584 0.5584 0.5585
3767.000000 0.5586 0.5587 0.5587 0.5588 0.5589
3772.000000 0.5589 0.5590 0.5591 0.5591 0.5592
3777.000000 0.5593 0.5594 0.5594 0.5595 0.5596
3782.000000 0.5596 0.5597 0.5597 0.5597 0.5597
3787.000000 0.5597 0.5597 0.5597 0.5597 0.5596
3792.000000 0.5596 0.5596 0.5595 0.5595 0.5595
3797.000000 0.5595 0.5595 0.5595 0.5594 0.5594
3802.000000 0.5593 0.5593 0.5592 0.5592 0.5589
3807.000000 0.5586 0.5584 0.5581 0.5578 0.5575
3812.000000 0.5572 0.5569 0.5565 0.5562 0.5558
3817.000000 0.5555 0.5551 0.5546 0.5542 0.5538
3822.000000 0.5534 0.5530 0.5526 0.5522 0.5518
3827.000000 0.5514 0.5510 0.5507 0.5504 0.5500
3832.000000 0.5497 0.5494 0.5491 0.5487 0.5484
3837.000000 0.5481 0.5477 0.5474 0.5470 0.5467
3842.000000 0.5464 0.5460 0.5457 0.5453 0.5450
3847.000000 0.5447 0.5444 0.5440 0.5437 0.5434
3852.000000 0.5431 0.5427 0.5424 0.5421 0.5417
3857.000000 0.5414 0.5411 0.5408 0.5406 0.5403
3862.000000 0.5400 0.5398 0.5395 0.5393 0.5390
3867.000000 0.5388 0.5385 0.5383 0.5380 0.5378
3872.000000 0.5375 0.5373 0.5370 0.5368 0.5365
3877.000000 0.5363 0.5360 0.5358 0.5355 0.5353
3882.000000 0.5350 0.5348 0.5346 0.5344 0.5342
3887.000000 0.5340 0.5338 0.5336 0.5335 0.5333
3892.000000 0.5332 0.5330 0.5329 0.5327 0.5326
3897.000000 0.5324 0.5323 0.5321 0.5320 0.5318
3902.000000 0.5316 0.5315 0.5313 0.5312 0.5310
3907.000000 0.5309 0.5309 0.5308 0.5308 0.5307
3912.000000 0.5307 0.5306 0.5306 0.5306 0.5305
3917.000000 0.5305 0.5305 0.5304 0.5304 0.5304
3922.000000 0.5303 0.5303 0.5303 0.5303 0.5303
3927.000000 0.5303 0.5303 0.5303 0.5303 0.5303
3932.000000 0.5303 0.5303 0.5303 0.5303 0.5303
3937.000000 0.5303 0.5303 0.5303 0.5303 0.5303
3942.000000 0.5303 0.5303 0.5304 0.5304 0.5304
3947.000000 0.5304 0.5304 0.5304 0.5305 0.5305
3952.000000 0.5305 0.5305 0.5305 0.5305 0.5306
3957.000000 0.5306 0.5306 0.5307 0.5307 0.5307
3962.000000 0.5308 0.5308 0.5308 0.5308 0.5308
3967.000000 0.5308 0.5308 0.5309 0.5309 0.5309
3972.000000 0.5310 0.5310 0.5310 0.5311 0.5311
3977.000000 0.5311 0.5312 0.5312 0.5312 0.5313
3982.000000 0.5313 0.5313 0.5313 0.5314 0.5314
3987.000000 0.5314 0.5315 0.5315 0.5315 0.5315
3992.000000 0.5315 0.5315 0.5316 0.5316 0.5316
3997.000000 0.5317 0.5317 0.5317 0.5318
##END=
