##TITLE=AZODICARBOXYLIC ACID, DIMETHYL ESTER
##JCAMP-DX=4.24
##DATA TYPE=INFRARED SPECTRUM
##CLASS=COBLENTZ III
##ORIGIN=STANDARD OIL OF OHIO
##OWNER=COBLENTZ SOCIETY
Collection (C) 2018 copyright by the U.S. Secretary of Commerce
on behalf of the United States of America. All rights reserved.
##DATE=1969/04/08
##NAMES=dimethyl (E)-1,2-diazenedicarboxylate
##CAS REGISTRY NO=2446-84-6
##MOLFORM=C4 H6 N2 O4
##SOURCE REFERENCE=COBLENTZ NO. 10288
##$NIST SOURCE=COBLENTZ
##$NIST IMAGE=cob10288
##SPECTROMETER/DATA SYSTEM=PERKIN-ELMER 521 (GRATING)
##STATE=LIQUID (NEAT)
##PATH LENGTH=CAPILLARY
##SAMPLING PROCEDURE=TRANSMISSION
##RESOLUTION=4
##DATA PROCESSING=DIGITIZED BY NIST FROM HARD COPY (FROM TWO SEGMENTS)
##XUNITS=1/CM
##YUNITS=TRANSMITTANCE
##XFACTOR=1.000000
##YFACTOR=1
##DELTAX=1.006292
##FIRSTX=201.761
##LASTX=4000.51
##FIRSTY=0
##MAXX=4000.51
##MINX=201.761
##MAXY=0.976
##MINY=0
##NPOINTS=3776
##XYDATA=(X++(Y..Y))
201.761000 0.0000 0.0000 0.0000 0.0000 0.0000
206.792458 0.0000 0.0000 0.0000 0.0000 0.0000
211.823915 0.0000 0.0000 0.0000 0.0000 0.0000
216.855373 0.0000 0.0000 0.0000 0.0000 0.0000
221.886831 0.0000 0.0000 0.0000 0.0000 0.0000
226.918288 0.0000 0.0000 0.0000 0.0000 0.0000
231.949746 0.0000 0.0000 0.0000 0.0000 0.0000
236.981204 0.0000 0.0000 0.0000 0.0000 0.0000
242.012661 0.0000 0.0000 0.0000 0.0000 0.0000
247.044119 0.0000 0.0000 0.0000 0.0000 0.0000
252.075577 0.0000 0.0000 0.0000 0.0000 0.0000
257.107034 0.0000 0.0000 0.0000 0.0000 0.0000
262.138492 0.0000 0.0000 0.0000 0.0000 0.0000
267.169950 0.0000 0.0000 0.0000 0.0000 0.0000
272.201407 0.0000 0.0000 0.0000 0.0000 0.0000
277.232865 0.0000 0.0000 0.0030 0.0100 0.0110
282.264323 0.0110 0.0110 0.0110 0.0110 0.0110
287.295780 0.0110 0.0110 0.0110 0.0110 0.0110
292.327238 0.0110 0.0120 0.0120 0.0120 0.0130
297.358696 0.0130 0.0150 0.0150 0.0150 0.0160
302.390153 0.0160 0.0160 0.0160 0.0170 0.0170
307.421611 0.0170 0.0160 0.0160 0.0160 0.0160
312.453069 0.0160 0.0160 0.0160 0.0160 0.0170
317.484526 0.0170 0.0170 0.0160 0.0160 0.0170
322.515984 0.0180 0.0180 0.0180 0.0180 0.0200
327.547442 0.0200 0.0210 0.0220 0.0230 0.0210
332.578899 0.0200 0.0180 0.0180 0.0180 0.0180
337.610357 0.0180 0.0180 0.0180 0.0200 0.0200
342.641815 0.0200 0.0210 0.0220 0.0220 0.0220
347.673272 0.0210 0.0210 0.0220 0.0250 0.0300
352.704730 0.0320 0.0320 0.0320 0.0320 0.0310
357.736188 0.0280 0.0220 0.0130 0.0080 0.0020
362.767645 0.0000 0.0000 0.0000 0.0000 0.0000
367.799103 0.0000 0.0000 0.0000 0.0000 0.0000
372.830561 0.0000 0.0000 0.0000 0.0000 0.0000
377.862018 0.0000 0.0000 0.0000 0.0000 0.0000
382.893476 0.0000 0.0000 0.0000 0.0000 0.0000
387.924934 0.0000 0.0000 0.0000 0.0000 0.0000
392.956391 0.0000 0.0000 0.0000 0.0000 0.0000
397.987849 0.0000 0.0000 0.0000 0.0000 0.0000
403.019307 0.0000 0.0000 0.0000 0.0000 0.0000
408.050764 0.0000 0.0000 0.0000 0.0000 0.0000
413.082222 0.0000 0.0000 0.0020 0.0080 0.0130
418.113680 0.0170 0.0320 0.0430 0.0480 0.0520
423.145137 0.0480 0.0310 0.0270 0.0260 0.0260
428.176595 0.0260 0.0230 0.0220 0.0200 0.0180
433.208053 0.0180 0.0180 0.0180 0.0180 0.0180
438.239510 0.0180 0.0200 0.0210 0.0230 0.0260
443.270968 0.0330 0.0380 0.0380 0.0450 0.0460
448.302426 0.0470 0.0480 0.0500 0.0510 0.0520
453.333883 0.0560 0.0580 0.0580 0.0610 0.0620
458.365341 0.0630 0.0650 0.0660 0.0680 0.0680
463.396799 0.0680 0.0700 0.0700 0.0700 0.0710
468.428256 0.0730 0.0750 0.0770 0.0810 0.0820
473.459714 0.0830 0.0830 0.0830 0.0830 0.0830
478.491172 0.0830 0.0830 0.0830 0.0850 0.0850
483.522629 0.0860 0.0860 0.0860 0.0870 0.0870
488.554087 0.0880 0.0900 0.0910 0.0920 0.0930
493.585545 0.0930 0.0950 0.0960 0.0970 0.0980
498.617002 0.1000 0.1050 0.1070 0.1110 0.1160
503.648460 0.1200 0.1230 0.1270 0.1280 0.1320
508.679918 0.1350 0.1430 0.1470 0.1510 0.1550
513.711375 0.1570 0.1630 0.1680 0.1710 0.1770
518.742833 0.1850 0.1950 0.2010 0.2070 0.2090
523.774291 0.2100 0.2140 0.2210 0.2290 0.2340
528.805748 0.2390 0.2420 0.2500 0.2560 0.2590
533.837206 0.2640 0.2710 0.2760 0.2810 0.2870
538.868664 0.2910 0.2970 0.3020 0.3140 0.3200
543.900121 0.3250 0.3390 0.3460 0.3510 0.3560
548.931579 0.3690 0.3740 0.3770 0.3840 0.3900
553.963036 0.3970 0.4050 0.4130 0.4180 0.4280
558.994494 0.4300 0.4350 0.4390 0.4440 0.4490
564.025952 0.4510 0.4560 0.4600 0.4690 0.4750
569.057409 0.4830 0.4900 0.4960 0.4990 0.5010
574.088867 0.5080 0.5100 0.5180 0.5240 0.5290
579.120325 0.5340 0.5400 0.5480 0.5560 0.5590
584.151782 0.5630 0.5780 0.5830 0.5880 0.5910
589.183240 0.5980 0.6000 0.6050 0.6120 0.6150
594.214698 0.6230 0.6290 0.6340 0.6380 0.6440
599.246155 0.6490 0.6550 0.6690 0.6700 0.6740
604.277613 0.6780 0.6800 0.6840 0.6880 0.6900
609.309071 0.6980 0.7000 0.7020 0.7070 0.7080
614.340528 0.7120 0.7130 0.7140 0.7150 0.7180
619.371986 0.7200 0.7230 0.7250 0.7280 0.7340
624.403444 0.7380 0.7400 0.7440 0.7480 0.7520
629.434901 0.7550 0.7580 0.7620 0.7650 0.7690
634.466359 0.7730 0.7770 0.7790 0.7830 0.7870
639.497817 0.7900 0.7940 0.7970 0.8010 0.8040
644.529274 0.8080 0.8120 0.8160 0.8180 0.8210
649.560732 0.8260 0.8340 0.8390 0.8430 0.8440
654.592190 0.8480 0.8490 0.8510 0.8520 0.8520
659.623647 0.8540 0.8580 0.8590 0.8630 0.8670
664.655105 0.8720 0.8760 0.8770 0.8770 0.8780
669.686563 0.8780 0.8790 0.8790 0.8810 0.8810
674.718020 0.8820 0.8820 0.8830 0.8830 0.8830
679.749478 0.8830 0.8830 0.8830 0.8840 0.8840
684.780936 0.8870 0.8880 0.8880 0.8910 0.8910
689.812393 0.8940 0.8980 0.8990 0.9010 0.9010
694.843851 0.9020 0.9020 0.9020 0.9030 0.9030
699.875309 0.9040 0.9040 0.9070 0.9090 0.9090
704.906766 0.9110 0.9110 0.9120 0.9120 0.9120
709.938224 0.9120 0.9120 0.9120 0.9120 0.9120
714.969682 0.9130 0.9140 0.9140 0.9140 0.9140
720.001139 0.9160 0.9160 0.9160 0.9160 0.9160
725.032597 0.9160 0.9160 0.9160 0.9160 0.9160
730.064055 0.9160 0.9140 0.9140 0.9140 0.9140
735.095512 0.9130 0.9130 0.9130 0.9130 0.9130
740.126970 0.9120 0.9120 0.9110 0.9110 0.9110
745.158428 0.9110 0.9110 0.9110 0.9090 0.9090
750.189885 0.9090 0.9090 0.9070 0.9060 0.9030
755.221343 0.9020 0.9010 0.9010 0.8990 0.8990
760.252801 0.8990 0.8980 0.8940 0.8930 0.8920
765.284258 0.8910 0.8880 0.8870 0.8860 0.8830
770.315716 0.8810 0.8780 0.8760 0.8730 0.8690
775.347174 0.8660 0.8580 0.8510 0.8480 0.8430
780.378631 0.8420 0.8410 0.8360 0.8230 0.8110
785.410089 0.8020 0.7990 0.7890 0.7750 0.7590
790.441547 0.7500 0.7400 0.7280 0.7190 0.7041
795.473004 0.6970 0.6750 0.6700 0.6640 0.6470
800.504462 0.6300 0.6071 0.5741 0.5501 0.5341
805.535920 0.5110 0.4990 0.4980 0.4990 0.5080
810.567377 0.5240 0.5549 0.5779 0.5989 0.6299
815.598835 0.6880 0.6930 0.6970 0.6980 0.6970
820.630293 0.6950 0.6930 0.6870 0.6850 0.6870
825.661750 0.6880 0.6950 0.7020 0.7130 0.7390
830.693208 0.7750 0.7970 0.8229 0.8330 0.8529
835.724666 0.8620 0.8670 0.8680 0.8680 0.8690
840.756123 0.8690 0.8690 0.8680 0.8680 0.8660
845.787581 0.8660 0.8640 0.8620 0.8620 0.8590
850.819039 0.8540 0.8490 0.8440 0.8360 0.8240
855.850496 0.8120 0.7950 0.7680 0.7520 0.7220
860.881954 0.7020 0.6800 0.6630 0.6451 0.6171
865.913412 0.5709 0.5310 0.4940 0.4640 0.4160
870.944869 0.3890 0.3760 0.3750 0.3750 0.3760
875.976327 0.3770 0.3790 0.3800 0.3910 0.4160
881.007785 0.4340 0.4789 0.5039 0.5409 0.5948
886.039242 0.6720 0.6990 0.7220 0.7390 0.7570
891.070700 0.7730 0.7920 0.8080 0.8210 0.8280
896.102158 0.8330 0.8390 0.8460 0.8510 0.8540
901.133615 0.8610 0.8660 0.8670 0.8710 0.8770
906.165073 0.8790 0.8820 0.8840 0.8880 0.8980
911.196531 0.9010 0.9010 0.9020 0.9020 0.9040
916.227988 0.9040 0.9070 0.9090 0.9090 0.9110
921.259446 0.9110 0.9120 0.9120 0.9120 0.9120
926.290904 0.9120 0.9130 0.9130 0.9140 0.9160
931.322361 0.9170 0.9170 0.9180 0.9190 0.9190
936.353819 0.9210 0.9220 0.9220 0.9220 0.9230
941.385277 0.9230 0.9240 0.9260 0.9280 0.9280
946.416734 0.9280 0.9290 0.9290 0.9290 0.9290
951.448192 0.9290 0.9280 0.9280 0.9280 0.9290
956.479650 0.9290 0.9290 0.9280 0.9260 0.9240
961.511107 0.9220 0.9210 0.9190 0.9180 0.9170
966.542565 0.9170 0.9160 0.9140 0.9130 0.9090
971.574023 0.9020 0.8980 0.8930 0.8890 0.8880
976.605480 0.8830 0.8760 0.8660 0.8580 0.8420
981.636938 0.8320 0.8230 0.7971 0.7701 0.7491
986.668396 0.7300 0.7090 0.6880 0.6740 0.6600
991.699853 0.6290 0.6040 0.5781 0.5561 0.5361
996.731311 0.5190 0.5040 0.4930 0.4840 0.4780
1001.762769 0.4760 0.4790 0.4830 0.4890 0.4930
1006.794226 0.5040 0.5140 0.5210 0.5280 0.5400
1011.825684 0.5530 0.5580 0.5660 0.5860 0.5980
1016.857142 0.6090 0.6200 0.6340 0.6720 0.6880
1021.888599 0.6980 0.7120 0.7370 0.7480 0.7590
1026.920057 0.7780 0.8010 0.8070 0.8210 0.8310
1031.951515 0.8480 0.8520 0.8620 0.8680 0.8720
1036.982972 0.8730 0.8740 0.8880 0.9010 0.9020
1042.014430 0.9070 0.9080 0.9080 0.9090 0.9110
1047.045888 0.9120 0.9130 0.9130 0.9130 0.9140
1052.077345 0.9140 0.9140 0.9140 0.9140 0.9140
1057.108803 0.9140 0.9140 0.9140 0.9140 0.9140
1062.140261 0.9140 0.9140 0.9140 0.9140 0.9140
1067.171718 0.9140 0.9140 0.9140 0.9140 0.9140
1072.203176 0.9140 0.9140 0.9140 0.9130 0.9130
1077.234634 0.9130 0.9130 0.9130 0.9120 0.9120
1082.266091 0.9120 0.9120 0.9130 0.9130 0.9130
1087.297549 0.9120 0.9120 0.9120 0.9120 0.9120
1092.329007 0.9120 0.9120 0.9120 0.9120 0.9120
1097.360464 0.9120 0.9120 0.9110 0.9090 0.9090
1102.391922 0.9080 0.9080 0.9080 0.9070 0.9040
1107.423380 0.9010 0.8990 0.8980 0.8980 0.8970
1112.454837 0.8940 0.8920 0.8910 0.8890 0.8880
1117.486295 0.8880 0.8860 0.8860 0.8830 0.8810
1122.517753 0.8790 0.8780 0.8760 0.8690 0.8610
1127.549210 0.8580 0.8570 0.8480 0.8410 0.8390
1132.580668 0.8380 0.8280 0.8160 0.8080 0.7990
1137.612126 0.7950 0.7850 0.7780 0.7730 0.7690
1142.643583 0.7670 0.7650 0.7640 0.7640 0.7630
1147.675041 0.7620 0.7600 0.7530 0.7500 0.7490
1152.706499 0.7470 0.7450 0.7430 0.7420 0.7400
1157.737956 0.7340 0.7300 0.7280 0.7240 0.7240
1162.769414 0.7200 0.7170 0.7120 0.7080 0.7000
1167.800872 0.6980 0.6950 0.6780 0.6720 0.6670
1172.832329 0.6620 0.6480 0.6330 0.6240 0.6200
1177.863787 0.6030 0.5890 0.5750 0.5480 0.5160
1182.895245 0.5030 0.4790 0.4610 0.4301 0.4081
1187.926702 0.4060 0.4080 0.4090 0.4110 0.4190
1192.958160 0.4230 0.4290 0.4400 0.4510 0.4650
1197.989618 0.4700 0.4780 0.4790 0.4790 0.4780
1203.021075 0.4740 0.4690 0.4640 0.4560 0.4500
1208.052533 0.4410 0.4360 0.4210 0.4110 0.3940
1213.083991 0.3820 0.3690 0.3570 0.3440 0.3370
1218.115448 0.3309 0.3100 0.3020 0.2670 0.2420
1223.146906 0.2290 0.2090 0.1970 0.1870 0.1621
1228.178364 0.1500 0.1410 0.1370 0.1180 0.1030
1233.209821 0.1000 0.0930 0.0850 0.0780 0.0730
1238.241279 0.0710 0.0680 0.0660 0.0630 0.0620
1243.272736 0.0610 0.0610 0.0620 0.0630 0.0650
1248.304194 0.0660 0.0670 0.0670 0.0700 0.0710
1253.335652 0.0750 0.0770 0.0780 0.0810 0.0820
1258.367109 0.0880 0.0900 0.0910 0.0980 0.1000
1263.398567 0.1010 0.1070 0.1110 0.1120 0.1130
1268.430025 0.1170 0.1180 0.1230 0.1270 0.1320
1273.461482 0.1370 0.1410 0.1420 0.1430 0.1470
1278.492940 0.1500 0.1530 0.1580 0.1610 0.1670
1283.524398 0.1700 0.1760 0.1770 0.1880 0.1970
1288.555855 0.2010 0.2090 0.2210 0.2270 0.2360
1293.587313 0.2460 0.2560 0.2670 0.2790 0.2910
1298.618771 0.3050 0.3171 0.3450 0.3600 0.3750
1303.650228 0.3900 0.4050 0.4190 0.4330 0.4400
1308.681686 0.4530 0.4710 0.4760 0.4840 0.4940
1313.713144 0.5150 0.5250 0.5380 0.5410 0.5530
1318.744601 0.5640 0.5700 0.5850 0.6000 0.6040
1323.776059 0.6120 0.6200 0.6330 0.6380 0.6500
1328.807517 0.6600 0.6690 0.6820 0.6890 0.6980
1333.838974 0.7030 0.7090 0.7190 0.7200 0.7290
1338.870432 0.7370 0.7490 0.7570 0.7600 0.7650
1343.901890 0.7770 0.7880 0.7920 0.7980 0.8020
1348.933347 0.8040 0.8120 0.8210 0.8270 0.8330
1353.964805 0.8370 0.8390 0.8410 0.8440 0.8490
1358.996263 0.8490 0.8510 0.8570 0.8580 0.8580
1364.027720 0.8590 0.8590 0.8620 0.8640 0.8660
1369.059178 0.8670 0.8710 0.8720 0.8730 0.8730
1374.090636 0.8740 0.8760 0.8760 0.8770 0.8780
1379.122093 0.8780 0.8780 0.8780 0.8780 0.8780
1384.153551 0.8780 0.8780 0.8780 0.8780 0.8780
1389.185009 0.8780 0.8780 0.8770 0.8770 0.8760
1394.216466 0.8760 0.8760 0.8760 0.8740 0.8740
1399.247924 0.8740 0.8740 0.8740 0.8730 0.8720
1404.279382 0.8690 0.8680 0.8680 0.8640 0.8620
1409.310839 0.8590 0.8530 0.8510 0.8480 0.8430
1414.342297 0.8390 0.8330 0.8240 0.8140 0.7891
1419.373755 0.7820 0.7680 0.7500 0.7390 0.7240
1424.405212 0.7070 0.6930 0.6770 0.6590 0.6420
1429.436670 0.6139 0.5629 0.5079 0.4529 0.3990
1434.468128 0.3490 0.3260 0.3020 0.2561 0.2360
1439.499585 0.2350 0.2360 0.2520 0.2770 0.3070
1444.531043 0.3670 0.4000 0.4290 0.4500 0.4650
1449.562501 0.4690 0.4780 0.4880 0.4930 0.4960
1454.593958 0.5030 0.5110 0.5240 0.5380 0.5410
1459.625416 0.5410 0.5480 0.5560 0.5650 0.5730
1464.656874 0.5860 0.6080 0.6240 0.6320 0.6430
1469.688331 0.6730 0.6850 0.7070 0.7180 0.7220
1474.719789 0.7270 0.7390 0.7480 0.7490 0.7500
1479.751247 0.7580 0.7650 0.7840 0.7920 0.7980
1484.782704 0.7980 0.8020 0.8080 0.8090 0.8090
1489.814162 0.8110 0.8110 0.8120 0.8140 0.8160
1494.845620 0.8220 0.8240 0.8270 0.8320 0.8360
1499.877077 0.8390 0.8440 0.8470 0.8470 0.8510
1504.908535 0.8530 0.8530 0.8570 0.8610 0.8620
1509.939993 0.8630 0.8660 0.8670 0.8680 0.8680
1514.971450 0.8690 0.8710 0.8720 0.8730 0.8740
1520.002908 0.8760 0.8770 0.8780 0.8810 0.8810
1525.034366 0.8810 0.8810 0.8820 0.8830 0.8830
1530.065823 0.8860 0.8870 0.8880 0.8880 0.8880
1535.097281 0.8890 0.8890 0.8910 0.8910 0.8910
1540.128739 0.8920 0.8920 0.8920 0.8920 0.8920
1545.160196 0.8920 0.8930 0.8940 0.8940 0.8940
1550.191654 0.8960 0.8970 0.8980 0.8980 0.8980
1555.223112 0.8980 0.8980 0.8980 0.8990 0.8990
1560.254569 0.8990 0.9010 0.9010 0.9010 0.9030
1565.286027 0.9030 0.9040 0.9040 0.9040 0.9060
1570.317485 0.9060 0.9070 0.9070 0.9080 0.9080
1575.348942 0.9090 0.9080 0.9080 0.9080 0.9080
1580.380400 0.9080 0.9090 0.9090 0.9090 0.9110
1585.411858 0.9110 0.9110 0.9110 0.9110 0.9120
1590.443315 0.9120 0.9120 0.9120 0.9120 0.9120
1595.474773 0.9120 0.9120 0.9120 0.9120 0.9120
1600.506231 0.9120 0.9120 0.9120 0.9120 0.9120
1605.537688 0.9120 0.9120 0.9110 0.9110 0.9090
1610.569146 0.9080 0.9070 0.9060 0.9060 0.9040
1615.600604 0.9040 0.9040 0.9040 0.9040 0.9040
1620.632061 0.9040 0.9060 0.9060 0.9060 0.9060
1625.663519 0.9060 0.9060 0.9070 0.9080 0.9080
1630.694977 0.9080 0.9080 0.9080 0.9090 0.9090
1635.726434 0.9090 0.9090 0.9090 0.9090 0.9090
1640.757892 0.9110 0.9110 0.9110 0.9110 0.9120
1645.789350 0.9120 0.9120 0.9120 0.9120 0.9120
1650.820807 0.9110 0.9120 0.9130 0.9130 0.9130
1655.852265 0.9140 0.9130 0.9130 0.9130 0.9130
1660.883723 0.9140 0.9140 0.9140 0.9140 0.9140
1665.915180 0.9140 0.9130 0.9130 0.9130 0.9120
1670.946638 0.9110 0.9090 0.9090 0.9080 0.9080
1675.978096 0.9080 0.9080 0.9080 0.9070 0.9060
1681.009553 0.9040 0.9030 0.9020 0.9010 0.8990
1686.041011 0.8990 0.8980 0.8980 0.8970 0.8930
1691.072469 0.8910 0.8880 0.8830 0.8830 0.8810
1696.103926 0.8780 0.8780 0.8770 0.8760 0.8740
1701.135384 0.8720 0.8710 0.8680 0.8660 0.8620
1706.166842 0.8580 0.8570 0.8520 0.8520 0.8490
1711.198299 0.8440 0.8420 0.8390 0.8320 0.8280
1716.229757 0.8230 0.8140 0.8120 0.8110 0.8020
1721.261215 0.7820 0.7740 0.7630 0.7470 0.7340
1726.292672 0.7220 0.7090 0.6980 0.6800 0.6680
1731.324130 0.6590 0.6490 0.6440 0.6350 0.6340
1736.355588 0.6330 0.6320 0.6290 0.6270 0.6230
1741.387045 0.6190 0.6140 0.6090 0.6040 0.5980
1746.418503 0.5860 0.5740 0.5640 0.5500 0.5260
1751.449961 0.5090 0.4930 0.4790 0.4630 0.4460
1756.481418 0.4050 0.3900 0.3700 0.3500 0.3300
1761.512876 0.3039 0.2640 0.2460 0.2190 0.1900
1766.544334 0.1610 0.1400 0.1280 0.1150 0.1000
1771.575791 0.0860 0.0730 0.0660 0.0620 0.0580
1776.607249 0.0530 0.0470 0.0460 0.0450 0.0450
1781.638707 0.0460 0.0470 0.0470 0.0480 0.0500
1786.670164 0.0500 0.0510 0.0530 0.0570 0.0620
1791.701622 0.0760 0.0830 0.0880 0.0880 0.0960
1796.733080 0.1100 0.1260 0.1450 0.1660 0.1910
1801.764537 0.2171 0.2441 0.2711 0.2961 0.3490
1806.795995 0.3700 0.3960 0.4130 0.4310 0.4550
1811.827453 0.4740 0.4840 0.4900 0.5010 0.5160
1816.858910 0.5240 0.5340 0.5440 0.5490 0.5580
1821.890368 0.5680 0.5760 0.5830 0.5880 0.6020
1826.921826 0.6080 0.6190 0.6270 0.6300 0.6490
1831.953283 0.6581 0.6770 0.6880 0.6970 0.7030
1836.984741 0.7170 0.7290 0.7340 0.7470 0.7570
1842.016199 0.7680 0.7780 0.7940 0.8010 0.8040
1847.047656 0.8080 0.8140 0.8190 0.8220 0.8270
1852.079114 0.8320 0.8360 0.8380 0.8410 0.8420
1857.110572 0.8440 0.8460 0.8470 0.8490 0.8490
1862.142029 0.8530 0.8540 0.8560 0.8570 0.8580
1867.173487 0.8620 0.8660 0.8670 0.8680 0.8710
1872.204945 0.8710 0.8730 0.8740 0.8760 0.8790
1877.236402 0.8820 0.8840 0.8870 0.8880 0.8910
1882.267860 0.8910 0.8920 0.8980 0.8990 0.9010
1887.299318 0.9020 0.9060 0.9070 0.9080 0.9090
1892.330775 0.9110 0.9110 0.9120 0.9130 0.9140
1897.362233 0.9160 0.9180 0.9210 0.9220 0.9240
1902.393691 0.9260 0.9280 0.9280 0.9290 0.9310
1907.425148 0.9320 0.9330 0.9330 0.9360 0.9360
1912.456606 0.9360 0.9360 0.9370 0.9380 0.9380
1917.488064 0.9390 0.9390 0.9390 0.9410 0.9410
1922.519521 0.9410 0.9410 0.9410 0.9410 0.9410
1927.550979 0.9420 0.9420 0.9420 0.9420 0.9410
1932.582436 0.9420 0.9420 0.9420 0.9430 0.9430
1937.613894 0.9430 0.9430 0.9440 0.9440 0.9440
1942.645352 0.9440 0.9440 0.9430 0.9430 0.9430
1947.676809 0.9430 0.9430 0.9440 0.9430 0.9440
1952.708267 0.9460 0.9470 0.9470 0.9470 0.9470
1957.739725 0.9470 0.9470 0.9470 0.9470 0.9470
1962.771182 0.9470 0.9470 0.9480 0.9480 0.9480
1967.802640 0.9480 0.9480 0.9460 0.9460 0.9460
1972.834098 0.9460 0.9460 0.9460 0.9460 0.9460
1977.865555 0.9460 0.9460 0.9470 0.9470 0.9470
1982.897013 0.9470 0.9460 0.9440 0.9430 0.9430
1987.928471 0.9420 0.9420 0.9410 0.9410 0.9410
1992.959928 0.9410 0.9410 0.9410 0.9410 0.9410
1997.991386 0.9410 0.9410 0.9410 0.9410 0.9410
2003.022844 0.9410 0.9410 0.9410 0.9410 0.9410
2008.054301 0.9410 0.9410 0.9410 0.9410 0.9410
2013.085759 0.9410 0.9410 0.9415 0.9420 0.9425
2018.117217 0.9430 0.9430 0.9430 0.9435 0.9440
2023.148674 0.9440 0.9440 0.9450 0.9460 0.9460
2028.180132 0.9460 0.9450 0.9440 0.9440 0.9440
2033.211590 0.9440 0.9440 0.9440 0.9440 0.9435
2038.243047 0.9430 0.9430 0.9430 0.9425 0.9420
2043.274505 0.9415 0.9410 0.9410 0.9410 0.9395
2048.305963 0.9380 0.9380 0.9380 0.9370 0.9360
2053.337420 0.9345 0.9330 0.9330 0.9330 0.9330
2058.368878 0.9330 0.9325 0.9320 0.9320 0.9320
2063.400336 0.9320 0.9320 0.9320 0.9320 0.9325
2068.431793 0.9330 0.9330 0.9330 0.9330 0.9330
2073.463251 0.9330 0.9330 0.9330 0.9330 0.9330
2078.494709 0.9330 0.9330 0.9330 0.9335 0.9340
2083.526166 0.9340 0.9340 0.9340 0.9340 0.9340
2088.557624 0.9340 0.9340 0.9340 0.9340 0.9340
2093.589082 0.9340 0.9340 0.9340 0.9340 0.9335
2098.620539 0.9330 0.9330 0.9330 0.9330 0.9330
2103.651997 0.9330 0.9330 0.9330 0.9330 0.9330
2108.683455 0.9330 0.9330 0.9330 0.9330 0.9330
2113.714912 0.9330 0.9330 0.9330 0.9330 0.9325
2118.746370 0.9320 0.9320 0.9320 0.9320 0.9320
2123.777828 0.9320 0.9320 0.9315 0.9310 0.9310
2128.809285 0.9310 0.9310 0.9310 0.9301 0.9291
2133.840743 0.9285 0.9280 0.9280 0.9280 0.9275
2138.872201 0.9270 0.9265 0.9260 0.9260 0.9260
2143.903658 0.9265 0.9270 0.9270 0.9270 0.9270
2148.935116 0.9270 0.9275 0.9280 0.9285 0.9290
2153.966574 0.9299 0.9309 0.9319 0.9329 0.9335
2158.998031 0.9340 0.9359 0.9379 0.9394 0.9409
2164.029489 0.9410 0.9410 0.9415 0.9420 0.9425
2169.060947 0.9430 0.9430 0.9430 0.9444 0.9459
2174.092404 0.9465 0.9470 0.9470 0.9470 0.9475
2179.123862 0.9480 0.9480 0.9480 0.9480 0.9480
2184.155320 0.9480 0.9480 0.9485 0.9490 0.9490
2189.186777 0.9490 0.9499 0.9509 0.9510 0.9510
2194.218235 0.9510 0.9510 0.9510 0.9510 0.9510
2199.249693 0.9510 0.9515 0.9520 0.9520 0.9520
2204.281150 0.9525 0.9530 0.9525 0.9520 0.9520
2209.312608 0.9520 0.9520 0.9520 0.9520 0.9520
2214.344066 0.9520 0.9520 0.9520 0.9520 0.9520
2219.375523 0.9520 0.9520 0.9520 0.9520 0.9520
2224.406981 0.9520 0.9520 0.9520 0.9520 0.9525
2229.438439 0.9530 0.9530 0.9530 0.9534 0.9539
2234.469896 0.9540 0.9540 0.9540 0.9540 0.9540
2239.501354 0.9540 0.9549 0.9559 0.9560 0.9560
2244.532812 0.9560 0.9560 0.9560 0.9560 0.9560
2249.564269 0.9560 0.9560 0.9560 0.9560 0.9560
2254.595727 0.9560 0.9560 0.9560 0.9560 0.9560
2259.627185 0.9560 0.9560 0.9560 0.9560 0.9560
2264.658642 0.9560 0.9560 0.9560 0.9560 0.9560
2269.690100 0.9560 0.9560 0.9560 0.9560 0.9560
2274.721558 0.9560 0.9560 0.9560 0.9560 0.9560
2279.753015 0.9560 0.9560 0.9560 0.9560 0.9560
2284.784473 0.9560 0.9560 0.9560 0.9560 0.9560
2289.815931 0.9560 0.9564 0.9569 0.9570 0.9570
2294.847388 0.9570 0.9570 0.9566 0.9561 0.9560
2299.878846 0.9560 0.9560 0.9560 0.9560 0.9560
2304.910304 0.9560 0.9560 0.9560 0.9560 0.9560
2309.941761 0.9560 0.9560 0.9560 0.9560 0.9560
2314.973219 0.9560 0.9560 0.9560 0.9560 0.9560
2320.004677 0.9560 0.9560 0.9560 0.9560 0.9560
2325.036134 0.9560 0.9560 0.9560 0.9560 0.9560
2330.067592 0.9560 0.9560 0.9560 0.9560 0.9560
2335.099050 0.9560 0.9560 0.9560 0.9560 0.9564
2340.130507 0.9569 0.9570 0.9570 0.9566 0.9561
2345.161965 0.9560 0.9560 0.9560 0.9560 0.9551
2350.193423 0.9541 0.9540 0.9540 0.9548 0.9558
2355.224880 0.9552 0.9542 0.9540 0.9540 0.9540
2360.256338 0.9540 0.9540 0.9540 0.9549 0.9559
2365.287796 0.9560 0.9560 0.9560 0.9560 0.9560
2370.319253 0.9560 0.9560 0.9560 0.9560 0.9560
2375.350711 0.9564 0.9569 0.9566 0.9561 0.9560
2380.382169 0.9560 0.9560 0.9560 0.9560 0.9560
2385.413626 0.9564 0.9569 0.9570 0.9570 0.9570
2390.445084 0.9570 0.9570 0.9570 0.9570 0.9570
2395.476542 0.9570 0.9570 0.9570 0.9570 0.9570
2400.507999 0.9570 0.9570 0.9570 0.9570 0.9570
2405.539457 0.9570 0.9570 0.9566 0.9561 0.9560
2410.570915 0.9560 0.9560 0.9560 0.9560 0.9560
2415.602372 0.9552 0.9542 0.9540 0.9540 0.9540
2420.633830 0.9540 0.9540 0.9540 0.9536 0.9531
2425.665288 0.9530 0.9530 0.9526 0.9521 0.9516
2430.696745 0.9511 0.9510 0.9510 0.9510 0.9510
2435.728203 0.9510 0.9510 0.9510 0.9510 0.9510
2440.759661 0.9510 0.9502 0.9492 0.9490 0.9490
2445.791118 0.9490 0.9490 0.9486 0.9481 0.9480
2450.822576 0.9480 0.9480 0.9480 0.9476 0.9471
2455.854034 0.9470 0.9470 0.9466 0.9461 0.9452
2460.885491 0.9442 0.9432 0.9422 0.9420 0.9420
2465.916949 0.9416 0.9411 0.9410 0.9410 0.9410
2470.948407 0.9410 0.9402 0.9392 0.9390 0.9390
2475.979864 0.9386 0.9381 0.9380 0.9380 0.9380
2481.011322 0.9380 0.9376 0.9371 0.9370 0.9370
2486.042780 0.9370 0.9370 0.9374 0.9379 0.9384
2491.074237 0.9389 0.9398 0.9408 0.9410 0.9410
2496.105695 0.9414 0.9419 0.9420 0.9420 0.9420
2501.137153 0.9420 0.9420 0.9420 0.9420 0.9420
2506.168610 0.9420 0.9420 0.9424 0.9429 0.9430
2511.200068 0.9430 0.9430 0.9430 0.9434 0.9439
2516.231526 0.9440 0.9440 0.9452 0.9467 0.9474
2521.262983 0.9479 0.9480 0.9480 0.9484 0.9489
2526.294441 0.9490 0.9490 0.9490 0.9490 0.9490
2531.325899 0.9490 0.9490 0.9490 0.9490 0.9490
2536.357356 0.9490 0.9490 0.9490 0.9490 0.9498
2541.388814 0.9508 0.9510 0.9510 0.9510 0.9510
2546.420272 0.9510 0.9510 0.9510 0.9510 0.9514
2551.451729 0.9519 0.9520 0.9520 0.9520 0.9520
2556.483187 0.9520 0.9520 0.9520 0.9520 0.9520
2561.514645 0.9520 0.9520 0.9520 0.9524 0.9529
2566.546102 0.9530 0.9530 0.9526 0.9521 0.9520
2571.577560 0.9520 0.9520 0.9520 0.9520 0.9520
2576.609018 0.9520 0.9520 0.9520 0.9520 0.9520
2581.640475 0.9520 0.9520 0.9520 0.9520 0.9520
2586.671933 0.9516 0.9511 0.9510 0.9510 0.9510
2591.703391 0.9510 0.9510 0.9510 0.9510 0.9510
2596.734848 0.9503 0.9493 0.9490 0.9490 0.9490
2601.766306 0.9490 0.9490 0.9490 0.9490 0.9490
2606.797764 0.9490 0.9490 0.9490 0.9490 0.9490
2611.829221 0.9490 0.9490 0.9490 0.9497 0.9507
2616.860679 0.9510 0.9510 0.9510 0.9510 0.9510
2621.892136 0.9510 0.9514 0.9519 0.9520 0.9520
2626.923594 0.9520 0.9520 0.9520 0.9520 0.9520
2631.955052 0.9520 0.9520 0.9520 0.9524 0.9529
2636.986509 0.9530 0.9530 0.9530 0.9530 0.9530
2642.017967 0.9530 0.9534 0.9539 0.9540 0.9540
2647.049425 0.9540 0.9540 0.9540 0.9540 0.9540
2652.080882 0.9540 0.9540 0.9540 0.9540 0.9540
2657.112340 0.9547 0.9557 0.9564 0.9569 0.9574
2662.143798 0.9579 0.9580 0.9580 0.9580 0.9580
2667.175255 0.9580 0.9580 0.9580 0.9580 0.9580
2672.206713 0.9580 0.9580 0.9580 0.9580 0.9580
2677.238171 0.9580 0.9580 0.9580 0.9580 0.9580
2682.269628 0.9580 0.9580 0.9580 0.9580 0.9580
2687.301086 0.9580 0.9580 0.9580 0.9580 0.9580
2692.332544 0.9580 0.9580 0.9580 0.9580 0.9580
2697.364001 0.9580 0.9580 0.9584 0.9588 0.9590
2702.395459 0.9590 0.9587 0.9581 0.9580 0.9580
2707.426917 0.9580 0.9580 0.9580 0.9580 0.9580
2712.458374 0.9580 0.9580 0.9580 0.9580 0.9580
2717.489832 0.9580 0.9580 0.9580 0.9580 0.9577
2722.521290 0.9572 0.9570 0.9570 0.9570 0.9570
2727.552747 0.9574 0.9578 0.9580 0.9580 0.9580
2732.584205 0.9580 0.9580 0.9580 0.9580 0.9580
2737.615663 0.9580 0.9580 0.9580 0.9580 0.9580
2742.647120 0.9580 0.9580 0.9580 0.9580 0.9580
2747.678578 0.9580 0.9580 0.9580 0.9580 0.9580
2752.710036 0.9580 0.9580 0.9580 0.9580 0.9580
2757.741493 0.9580 0.9580 0.9577 0.9572 0.9570
2762.772951 0.9570 0.9573 0.9578 0.9580 0.9580
2767.804409 0.9580 0.9580 0.9580 0.9580 0.9580
2772.835866 0.9580 0.9580 0.9580 0.9580 0.9580
2777.867324 0.9580 0.9580 0.9580 0.9580 0.9580
2782.898782 0.9580 0.9580 0.9580 0.9577 0.9572
2787.930239 0.9570 0.9570 0.9570 0.9570 0.9570
2792.961697 0.9570 0.9570 0.9570 0.9570 0.9570
2797.993155 0.9570 0.9570 0.9573 0.9578 0.9580
2803.024612 0.9580 0.9577 0.9572 0.9570 0.9570
2808.056070 0.9567 0.9562 0.9560 0.9560 0.9560
2813.087528 0.9560 0.9560 0.9560 0.9560 0.9560
2818.118985 0.9560 0.9560 0.9554 0.9544 0.9540
2823.150443 0.9540 0.9537 0.9532 0.9530 0.9530
2828.181901 0.9527 0.9522 0.9520 0.9520 0.9517
2833.213358 0.9512 0.9504 0.9494 0.9487 0.9482
2838.244816 0.9448 0.9398 0.9361 0.9331 0.9288
2843.276274 0.9238 0.9188 0.9137 0.9104 0.9079
2848.307731 0.9060 0.9045 0.9040 0.9040 0.9046
2853.339189 0.9056 0.9076 0.9101 0.9129 0.9159
2858.370647 0.9208 0.9268 0.9306 0.9331 0.9353
2863.402104 0.9373 0.9383 0.9388 0.9396 0.9406
2868.433562 0.9410 0.9410 0.9410 0.9410 0.9404
2873.465020 0.9394 0.9390 0.9390 0.9387 0.9382
2878.496477 0.9380 0.9380 0.9361 0.9331 0.9311
2883.527935 0.9296 0.9287 0.9282 0.9280 0.9280
2888.559393 0.9267 0.9247 0.9240 0.9240 0.9240
2893.590850 0.9240 0.9240 0.9240 0.9246 0.9256
2898.622308 0.9260 0.9260 0.9266 0.9276 0.9289
2903.653766 0.9304 0.9313 0.9318 0.9320 0.9320
2908.685223 0.9323 0.9328 0.9330 0.9330 0.9330
2913.716681 0.9330 0.9333 0.9338 0.9337 0.9332
2918.748139 0.9330 0.9330 0.9327 0.9322 0.9317
2923.779596 0.9312 0.9304 0.9294 0.9287 0.9282
2928.811054 0.9277 0.9272 0.9267 0.9262 0.9251
2933.842512 0.9236 0.9218 0.9198 0.9187 0.9182
2938.873969 0.9165 0.9140 0.9115 0.9090 0.9050
2943.905427 0.9000 0.8953 0.8908 0.8850 0.8785
2948.936885 0.8736 0.8696 0.8620 0.8520 0.8408
2953.968342 0.8288 0.8153 0.8008 0.7652 0.7153
2958.999800 0.6903 0.6823 0.6743 0.6663 0.6568
2964.031258 0.6463 0.6376 0.6300 0.6270 0.6270
2969.062715 0.6435 0.6710 0.6972 0.7227 0.7505
2974.094173 0.7800 0.8029 0.8214 0.8340 0.8425
2979.125631 0.8551 0.8706 0.8828 0.8928 0.8982
2984.157088 0.9002 0.9019 0.9034 0.9046 0.9056
2989.188546 0.9060 0.9060 0.9054 0.9044 0.9037
2994.220004 0.9032 0.9027 0.9022 0.9008 0.8988
2999.251461 0.8974 0.8964 0.8940 0.8905 0.8873
3004.282919 0.8843 0.8819 0.8798 0.8772 0.8742
3009.314377 0.8712 0.8683 0.8653 0.8623 0.8601
3014.345834 0.8586 0.8580 0.8580 0.8580 0.8580
3019.377292 0.8583 0.8588 0.8590 0.8590 0.8596
3024.408750 0.8606 0.8616 0.8626 0.8633 0.8638
3029.440207 0.8660 0.8695 0.8730 0.8765 0.8791
3034.471665 0.8811 0.8826 0.8836 0.8851 0.8871
3039.503123 0.8891 0.8911 0.8937 0.8967 0.8980
3044.534580 0.8980 0.8988 0.9003 0.9013 0.9018
3049.566038 0.9026 0.9036 0.9054 0.9079 0.9098
3054.597496 0.9113 0.9126 0.9136 0.9154 0.9179
3059.628953 0.9209 0.9244 0.9276 0.9306 0.9323
3064.660411 0.9328 0.9344 0.9369 0.9388 0.9403
3069.691869 0.9410 0.9410 0.9413 0.9418 0.9423
3074.723326 0.9428 0.9433 0.9438 0.9448 0.9463
3079.754784 0.9473 0.9478 0.9480 0.9480 0.9480
3084.786242 0.9480 0.9483 0.9488 0.9496 0.9506
3089.817699 0.9513 0.9518 0.9520 0.9520 0.9523
3094.849157 0.9528 0.9538 0.9553 0.9563 0.9568
3099.880615 0.9570 0.9570 0.9573 0.9578 0.9580
3104.912072 0.9580 0.9583 0.9588 0.9590 0.9590
3109.943530 0.9587 0.9582 0.9580 0.9580 0.9580
3114.974988 0.9580 0.9580 0.9580 0.9583 0.9588
3120.006445 0.9590 0.9590 0.9590 0.9590 0.9590
3125.037903 0.9590 0.9590 0.9590 0.9595 0.9605
3130.069361 0.9610 0.9610 0.9613 0.9618 0.9623
3135.100818 0.9628 0.9630 0.9630 0.9630 0.9630
3140.132276 0.9630 0.9630 0.9633 0.9638 0.9640
3145.163734 0.9640 0.9640 0.9640 0.9640 0.9640
3150.195191 0.9640 0.9640 0.9640 0.9640 0.9645
3155.226649 0.9655 0.9655 0.9645 0.9640 0.9640
3160.258107 0.9640 0.9640 0.9645 0.9655 0.9660
3165.289564 0.9660 0.9660 0.9660 0.9660 0.9660
3170.321022 0.9660 0.9660 0.9660 0.9660 0.9660
3175.352480 0.9660 0.9660 0.9660 0.9660 0.9660
3180.383937 0.9660 0.9660 0.9660 0.9660 0.9660
3185.415395 0.9660 0.9660 0.9660 0.9660 0.9660
3190.446853 0.9660 0.9660 0.9660 0.9660 0.9660
3195.478310 0.9660 0.9660 0.9660 0.9655 0.9645
3200.509768 0.9640 0.9640 0.9635 0.9625 0.9618
3205.541226 0.9613 0.9610 0.9610 0.9610 0.9610
3210.572683 0.9613 0.9617 0.9620 0.9620 0.9622
3215.604141 0.9627 0.9630 0.9630 0.9632 0.9637
3220.635599 0.9640 0.9640 0.9640 0.9640 0.9645
3225.667056 0.9655 0.9660 0.9660 0.9660 0.9660
3230.698514 0.9660 0.9660 0.9660 0.9660 0.9662
3235.729972 0.9667 0.9672 0.9677 0.9678 0.9673
3240.761429 0.9672 0.9677 0.9680 0.9680 0.9680
3245.792887 0.9680 0.9680 0.9680 0.9680 0.9680
3250.824345 0.9680 0.9680 0.9680 0.9680 0.9680
3255.855802 0.9680 0.9680 0.9680 0.9680 0.9680
3260.887260 0.9682 0.9687 0.9690 0.9690 0.9690
3265.918718 0.9690 0.9695 0.9705 0.9710 0.9710
3270.950175 0.9710 0.9710 0.9710 0.9710 0.9710
3275.981633 0.9710 0.9710 0.9710 0.9710 0.9710
3281.013091 0.9710 0.9710 0.9710 0.9710 0.9710
3286.044548 0.9710 0.9710 0.9710 0.9710 0.9710
3291.076006 0.9710 0.9710 0.9710 0.9710 0.9710
3296.107464 0.9710 0.9710 0.9710 0.9710 0.9710
3301.138921 0.9710 0.9710 0.9710 0.9710 0.9710
3306.170379 0.9710 0.9710 0.9710 0.9710 0.9710
3311.201836 0.9710 0.9710 0.9710 0.9710 0.9712
3316.233294 0.9717 0.9720 0.9720 0.9718 0.9713
3321.264752 0.9710 0.9710 0.9710 0.9710 0.9710
3326.296209 0.9710 0.9710 0.9710 0.9710 0.9710
3331.327667 0.9710 0.9710 0.9710 0.9710 0.9710
3336.359125 0.9710 0.9710 0.9710 0.9710 0.9710
3341.390582 0.9710 0.9710 0.9710 0.9710 0.9712
3346.422040 0.9717 0.9720 0.9720 0.9718 0.9713
3351.453498 0.9710 0.9710 0.9710 0.9710 0.9710
3356.484955 0.9710 0.9710 0.9710 0.9710 0.9710
3361.516413 0.9710 0.9710 0.9710 0.9710 0.9710
3366.547871 0.9710 0.9710 0.9710 0.9710 0.9710
3371.579328 0.9710 0.9710 0.9710 0.9710 0.9710
3376.610786 0.9710 0.9710 0.9710 0.9710 0.9710
3381.642244 0.9710 0.9710 0.9710 0.9710 0.9710
3386.673701 0.9710 0.9706 0.9696 0.9690 0.9690
3391.705159 0.9690 0.9690 0.9690 0.9690 0.9690
3396.736617 0.9690 0.9690 0.9690 0.9690 0.9690
3401.768074 0.9690 0.9690 0.9690 0.9690 0.9690
3406.799532 0.9690 0.9690 0.9690 0.9690 0.9690
3411.830990 0.9690 0.9690 0.9690 0.9690 0.9690
3416.862447 0.9690 0.9690 0.9690 0.9690 0.9690
3421.893905 0.9690 0.9690 0.9690 0.9690 0.9690
3426.925363 0.9690 0.9694 0.9704 0.9710 0.9710
3431.956820 0.9706 0.9696 0.9690 0.9690 0.9688
3436.988278 0.9683 0.9682 0.9687 0.9690 0.9690
3442.019736 0.9690 0.9690 0.9690 0.9690 0.9690
3447.051193 0.9690 0.9690 0.9690 0.9690 0.9690
3452.082651 0.9690 0.9690 0.9690 0.9690 0.9690
3457.114109 0.9690 0.9690 0.9690 0.9690 0.9690
3462.145566 0.9690 0.9690 0.9688 0.9683 0.9680
3467.177024 0.9680 0.9678 0.9673 0.9670 0.9670
3472.208482 0.9670 0.9670 0.9670 0.9670 0.9668
3477.239939 0.9663 0.9660 0.9660 0.9660 0.9660
3482.271397 0.9660 0.9660 0.9656 0.9646 0.9640
3487.302855 0.9640 0.9640 0.9640 0.9640 0.9640
3492.334312 0.9640 0.9640 0.9638 0.9633 0.9628
3497.365770 0.9623 0.9614 0.9599 0.9588 0.9583
3502.397228 0.9576 0.9566 0.9556 0.9546 0.9536
3507.428685 0.9526 0.9515 0.9499 0.9486 0.9476
3512.460143 0.9459 0.9429 0.9406 0.9396 0.9386
3517.491601 0.9376 0.9361 0.9336 0.9311 0.9286
3522.523058 0.9265 0.9250 0.9236 0.9226 0.9215
3527.554516 0.9200 0.9188 0.9183 0.9178 0.9173
3532.585974 0.9172 0.9177 0.9182 0.9187 0.9194
3537.617431 0.9204 0.9214 0.9224 0.9235 0.9250
3542.648889 0.9271 0.9301 0.9329 0.9354 0.9373
3547.680347 0.9383 0.9395 0.9410 0.9422 0.9427
3552.711804 0.9439 0.9464 0.9480 0.9480 0.9482
3557.743262 0.9487 0.9494 0.9503 0.9512 0.9517
3562.774720 0.9520 0.9520 0.9520 0.9520 0.9520
3567.806177 0.9520 0.9520 0.9520 0.9520 0.9520
3572.837635 0.9518 0.9513 0.9507 0.9497 0.9490
3577.869093 0.9490 0.9490 0.9490 0.9493 0.9503
3582.900550 0.9513 0.9523 0.9537 0.9557 0.9577
3587.932008 0.9597 0.9612 0.9617 0.9622 0.9627
3592.963466 0.9632 0.9637 0.9640 0.9640 0.9640
3597.994923 0.9640 0.9640 0.9640 0.9640 0.9640
3603.026381 0.9640 0.9640 0.9640 0.9640 0.9643
3608.057839 0.9653 0.9660 0.9660 0.9660 0.9660
3613.089296 0.9660 0.9660 0.9660 0.9660 0.9657
3618.120754 0.9647 0.9640 0.9640 0.9640 0.9640
3623.152212 0.9640 0.9640 0.9640 0.9640 0.9640
3628.183669 0.9640 0.9640 0.9640 0.9640 0.9640
3633.215127 0.9640 0.9640 0.9640 0.9640 0.9640
3638.246585 0.9640 0.9640 0.9640 0.9640 0.9640
3643.278042 0.9640 0.9640 0.9640 0.9640 0.9640
3648.309500 0.9640 0.9638 0.9633 0.9627 0.9617
3653.340958 0.9610 0.9610 0.9607 0.9597 0.9590
3658.372415 0.9590 0.9593 0.9603 0.9610 0.9610
3663.403873 0.9610 0.9610 0.9611 0.9616 0.9620
3668.435331 0.9620 0.9621 0.9627 0.9632 0.9637
3673.466788 0.9640 0.9640 0.9640 0.9640 0.9640
3678.498246 0.9640 0.9643 0.9653 0.9661 0.9666
3683.529704 0.9670 0.9670 0.9670 0.9670 0.9676
3688.561161 0.9696 0.9711 0.9716 0.9722 0.9727
3693.592619 0.9730 0.9730 0.9730 0.9730 0.9730
3698.624077 0.9730 0.9731 0.9736 0.9740 0.9740
3703.655534 0.9740 0.9740 0.9740 0.9740 0.9740
3708.686992 0.9740 0.9740 0.9740 0.9740 0.9740
3713.718450 0.9740 0.9740 0.9740 0.9740 0.9740
3718.749907 0.9740 0.9740 0.9740 0.9740 0.9740
3723.781365 0.9740 0.9740 0.9740 0.9740 0.9740
3728.812823 0.9740 0.9740 0.9740 0.9740 0.9740
3733.844280 0.9740 0.9740 0.9740 0.9740 0.9740
3738.875738 0.9740 0.9740 0.9740 0.9740 0.9740
3743.907196 0.9740 0.9740 0.9743 0.9753 0.9757
3748.938653 0.9747 0.9740 0.9740 0.9740 0.9740
3753.970111 0.9740 0.9740 0.9740 0.9740 0.9740
3759.001569 0.9740 0.9740 0.9740 0.9740 0.9740
3764.033026 0.9740 0.9740 0.9740 0.9740 0.9740
3769.064484 0.9740 0.9740 0.9740 0.9740 0.9740
3774.095942 0.9740 0.9740 0.9740 0.9740 0.9740
3779.127399 0.9740 0.9740 0.9740 0.9740 0.9740
3784.158857 0.9740 0.9740 0.9740 0.9740 0.9740
3789.190315 0.9740 0.9740 0.9740 0.9740 0.9740
3794.221772 0.9740 0.9740 0.9740 0.9740 0.9740
3799.253230 0.9740 0.9740 0.9740 0.9740 0.9740
3804.284688 0.9740 0.9740 0.9740 0.9740 0.9740
3809.316145 0.9740 0.9742 0.9752 0.9760 0.9760
3814.347603 0.9760 0.9760 0.9760 0.9760 0.9760
3819.379061 0.9760 0.9758 0.9748 0.9740 0.9740
3824.410518 0.9740 0.9740 0.9740 0.9740 0.9740
3829.441976 0.9740 0.9740 0.9740 0.9740 0.9740
3834.473434 0.9740 0.9740 0.9740 0.9740 0.9740
3839.504891 0.9740 0.9740 0.9740 0.9739 0.9734
3844.536349 0.9731 0.9736 0.9739 0.9734 0.9730
3849.567807 0.9730 0.9730 0.9730 0.9731 0.9736
3854.599264 0.9740 0.9740 0.9739 0.9734 0.9730
3859.630722 0.9730 0.9730 0.9730 0.9731 0.9736
3864.662180 0.9740 0.9740 0.9740 0.9740 0.9740
3869.693637 0.9740 0.9740 0.9740 0.9740 0.9740
3874.725095 0.9740 0.9740 0.9740 0.9740 0.9739
3879.756553 0.9734 0.9730 0.9730 0.9730 0.9730
3884.788010 0.9730 0.9730 0.9731 0.9736 0.9740
3889.819468 0.9740 0.9740 0.9740 0.9740 0.9740
3894.850926 0.9740 0.9740 0.9740 0.9740 0.9740
3899.882383 0.9740 0.9740 0.9740 0.9740 0.9740
3904.913841 0.9740 0.9740 0.9740 0.9740 0.9739
3909.945299 0.9734 0.9730 0.9730 0.9730 0.9730
3914.976756 0.9730 0.9730 0.9730 0.9730 0.9730
3920.008214 0.9730 0.9730 0.9730 0.9730 0.9730
3925.039672 0.9730 0.9730 0.9731 0.9736 0.9739
3930.071129 0.9734 0.9730 0.9730 0.9730 0.9730
3935.102587 0.9730 0.9730 0.9730 0.9730 0.9729
3940.134045 0.9724 0.9720 0.9720 0.9721 0.9726
3945.165502 0.9730 0.9730 0.9730 0.9730 0.9730
3950.196960 0.9730 0.9730 0.9730 0.9730 0.9730
3955.228418 0.9729 0.9724 0.9720 0.9720 0.9720
3960.259875 0.9720 0.9720 0.9720 0.9720 0.9720
3965.291333 0.9720 0.9720 0.9720 0.9720 0.9720
3970.322791 0.9720 0.9720 0.9720 0.9720 0.9720
3975.354248 0.9720 0.9720 0.9720 0.9720 0.9720
3980.385706 0.9720 0.9720 0.9720 0.9720 0.9720
3985.417164 0.9720 0.9720 0.9720 0.9720 0.9720
3990.448621 0.9720 0.9719 0.9714 0.9710 0.9710
3995.480079 0.9708 0.9698 0.9692 0.9702 0.9708
4000.511536 0.9698
##END=
