##TITLE=Coumarin, 8-methoxy-
##JCAMP-DX=4.24
##DATA TYPE=INFRARED SPECTRUM
##CLASS=COBLENTZ III
##ORIGIN=WESTERN REGIONAL RES. USDA
##OWNER=Copyright (C) 1987 by the Coblentz Society
Collection (C) 2018 copyright by the U.S. Secretary of Commerce
on behalf of the United States of America. All rights reserved.
##DATE=1965/10/21
##NAMES=8-methoxy-2H-chromen-2-one
##CAS REGISTRY NO=2445-81-0
##MOLFORM=C10 H8 O3
##SOURCE REFERENCE=COBLENTZ NO. 7287
##$NIST SOURCE=COBLENTZ
##$NIST IMAGE=cob7287
##SPECTROMETER/DATA SYSTEM=CARY 90 (GRATING)
##INSTRUMENT PARAMETERS=GRATING CHANGES: 3000, 2000, 1200 CM^-^1
##STATE=SOLID (OIL MULL)
$$SPECTRAL CONTAMINATION DUE TO OIL AROUND 3000, 1450, 1380 CM^-^1
##SAMPLING PROCEDURE=TRANSMISSION
##RESOLUTION=2
##DATA PROCESSING=DIGITIZED BY COBLENTZ SOCIETY (BATCH II) FROM HARD COPY
##XUNITS=1/CM
##YUNITS=TRANSMITTANCE
##XFACTOR=1.0
##YFACTOR=1
##FIRSTX=454
##LASTX=4000
##FIRSTY=0.9314
##MAXX=4000
##MINX=454
##MAXY=0.9894
##MINY=0.0571
##NPOINTS=3547
##XYDATA=(X++(Y..Y))
454.000000 0.9314 0.9331 0.9348 0.9365 0.9382
459.000000 0.9400 0.9413 0.9425 0.9437 0.9450
464.000000 0.9462 0.9474 0.9487 0.9499 0.9511
469.000000 0.9524 0.9536 0.9548 0.9561 0.9573
474.000000 0.9580 0.9584 0.9587 0.9591 0.9594
479.000000 0.9598 0.9601 0.9605 0.9608 0.9612
484.000000 0.9615 0.9619 0.9623 0.9626 0.9628
489.000000 0.9625 0.9621 0.9618 0.9614 0.9611
494.000000 0.9608 0.9604 0.9601 0.9597 0.9594
499.000000 0.9590 0.9578 0.9563 0.9547 0.9532
504.000000 0.9516 0.9501 0.9485 0.9470 0.9374
509.000000 0.9200 0.9026 0.8852 0.8678 0.8504
514.000000 0.8330 0.8097 0.8097 0.8162 0.8422
519.000000 0.8683 0.8944 0.9204 0.9465 0.9538
524.000000 0.9561 0.9572 0.9584 0.9593 0.9598
529.000000 0.9603 0.9607 0.9610 0.9612 0.9614
534.000000 0.9615 0.9612 0.9602 0.9592 0.9582
539.000000 0.9572 0.9547 0.9513 0.9456 0.9350
544.000000 0.9173 0.9060 0.9063 0.9067 0.9052
549.000000 0.9069 0.9259 0.9376 0.9507 0.9639
554.000000 0.9699 0.9742 0.9784 0.9827 0.9844
559.000000 0.9847 0.9813 0.9779 0.9744 0.9710
564.000000 0.9676 0.9643 0.9625 0.9658 0.9693
569.000000 0.9728 0.9763 0.9798 0.9817 0.9832
574.000000 0.9848 0.9864 0.9878 0.9883 0.9889
579.000000 0.9894 0.9888 0.9880 0.9872 0.9864
584.000000 0.9856 0.9849 0.9844 0.9840 0.9835
589.000000 0.9830 0.9825 0.9820 0.9816 0.9811
594.000000 0.9806 0.9808 0.9819 0.9829 0.9839
599.000000 0.9849 0.9860 0.9860 0.9860 0.9861
604.000000 0.9861 0.9861 0.9861 0.9859 0.9857
609.000000 0.9854 0.9852 0.9849 0.9847 0.9844
614.000000 0.9840 0.9837 0.9831 0.9829 0.9826
619.000000 0.9822 0.9818 0.9814 0.9811 0.9807
624.000000 0.9803 0.9800 0.9796 0.9792 0.9789
629.000000 0.9785 0.9782 0.9778 0.9775 0.9774
634.000000 0.9772 0.9771 0.9770 0.9769 0.9768
639.000000 0.9767 0.9765 0.9764 0.9763 0.9761
644.000000 0.9758 0.9755 0.9752 0.9750 0.9747
649.000000 0.9744 0.9742 0.9739 0.9736 0.9734
654.000000 0.9731 0.9729 0.9727 0.9725 0.9723
659.000000 0.9720 0.9718 0.9716 0.9714 0.9713
664.000000 0.9712 0.9711 0.9710 0.9709 0.9708
669.000000 0.9706 0.9705 0.9697 0.9685 0.9673
674.000000 0.9661 0.9648 0.9636 0.9623 0.9609
679.000000 0.9595 0.9581 0.9567 0.9553 0.9539
684.000000 0.9522 0.9500 0.9478 0.9456 0.9434
689.000000 0.9355 0.8825 0.8002 0.7179 0.7105
694.000000 0.7205 0.7725 0.8244 0.8764 0.9283
699.000000 0.9307 0.9260 0.9203 0.9147 0.9091
704.000000 0.9034 0.8978 0.8922 0.8961 0.9175
709.000000 0.9369 0.9506 0.9523 0.9536 0.9539
714.000000 0.9542 0.9594 0.9535 0.9527 0.9518
719.000000 0.9510 0.9499 0.9487 0.9475 0.9463
724.000000 0.9446 0.9429 0.9412 0.9395 0.9378
729.000000 0.9360 0.9340 0.9321 0.9293 0.9258
734.000000 0.9223 0.9180 0.9120 0.9060 0.8965
739.000000 0.8872 0.8782 0.8700 0.8185 0.7546
744.000000 0.6908 0.6270 0.5632 0.5033 0.5029
749.000000 0.5036 0.6233 0.7689 0.8814 0.8978
754.000000 0.9129 0.9270 0.9388 0.9442 0.9485
759.000000 0.9529 0.9557 0.9577 0.9596 0.9611
764.000000 0.9623 0.9634 0.9645 0.9647 0.9650
769.000000 0.9652 0.9654 0.9656 0.9614 0.9649
774.000000 0.9646 0.9641 0.9637 0.9632 0.9627
779.000000 0.9623 0.9610 0.9598 0.9582 0.9549
784.000000 0.9516 0.9284 0.9001 0.8718 0.8435
789.000000 0.8177 0.8171 0.8239 0.9086 0.9250
794.000000 0.9236 0.9229 0.8969 0.8709 0.8449
799.000000 0.8225 0.8218 0.8769 0.9494 0.9494
804.000000 0.9493 0.9491 0.9483 0.9474 0.9463
809.000000 0.9439 0.9413 0.9385 0.9345 0.9299
814.000000 0.9230 0.9149 0.8992 0.8778 0.8364
819.000000 0.7608 0.6852 0.6096 0.5340 0.5113
824.000000 0.5084 0.5242 0.5316 0.5400 0.5452
829.000000 0.5493 0.6308 0.6309 0.6302 0.5851
834.000000 0.5620 0.5390 0.5197 0.5203 0.5211
839.000000 0.7002 0.8205 0.9054 0.9134 0.9180
844.000000 0.9227 0.9260 0.9292 0.9320 0.9337
849.000000 0.9353 0.9370 0.9387 0.9397 0.9406
854.000000 0.9415 0.9425 0.9434 0.9439 0.9444
859.000000 0.9448 0.9453 0.9473 0.9458 0.9456
864.000000 0.9453 0.9451 0.9449 0.9447 0.9444
869.000000 0.9441 0.9437 0.9433 0.9429 0.9425
874.000000 0.9421 0.9417 0.9413 0.9409 0.9401
879.000000 0.9393 0.9385 0.9377 0.9369 0.9361
884.000000 0.9353 0.9345 0.9337 0.9329 0.9321
889.000000 0.9313 0.9305 0.9297 0.9289 0.9282
894.000000 0.9277 0.9272 0.9267 0.9261 0.9256
899.000000 0.9251 0.9246 0.9242 0.9240 0.9238
904.000000 0.9235 0.9235 0.9240 0.9244 0.9092
909.000000 0.8910 0.8727 0.8545 0.8362 0.8179
914.000000 0.7997 0.7814 0.7632 0.7449 0.7344
919.000000 0.7337 0.7325 0.7646 0.7910 0.8175
924.000000 0.8439 0.8519 0.8535 0.8551 0.8555
929.000000 0.8556 0.8554 0.8620 0.8717 0.8869
934.000000 0.8997 0.9120 0.9206 0.9239 0.9264
939.000000 0.9289 0.9306 0.9322 0.9331 0.9337
944.000000 0.9343 0.9348 0.9349 0.9338 0.9346
949.000000 0.9341 0.9336 0.9331 0.9327 0.9322
954.000000 0.9305 0.9288 0.9271 0.9253 0.9234
959.000000 0.9195 0.9153 0.9061 0.8969 0.8938
964.000000 0.8937 0.8935 0.8934 0.8932 0.8872
969.000000 0.8769 0.8692 0.8628 0.8608 0.8606
974.000000 0.8637 0.8634 0.8819 0.9099 0.9221
979.000000 0.9255 0.9285 0.9299 0.9313 0.9311
984.000000 0.9307 0.9278 0.9292 0.9278 0.9238
989.000000 0.8993 0.8729 0.8466 0.8265 0.8262
994.000000 0.8273 0.8255 0.8615 0.8787 0.8958
999.000000 0.9129 0.9191 0.9189 0.9186 0.9191
1004.000000 0.9178 0.9174 0.9171 0.9168 0.9156
1009.000000 0.9140 0.9114 0.9092 0.9074 0.9057
1014.000000 0.9040 0.9025 0.9010 0.8995 0.8981
1019.000000 0.8969 0.8957 0.8945 0.8933 0.8926
1024.000000 0.8918 0.8911 0.8904 0.8896 0.8888
1029.000000 0.8880 0.8873 0.8865 0.8858 0.8854
1034.000000 0.8850 0.8847 0.8843 0.8839 0.8835
1039.000000 0.8827 0.8820 0.8812 0.8800 0.8783
1044.000000 0.8765 0.8747 0.8730 0.8712 0.8693
1049.000000 0.8674 0.8655 0.8636 0.8606 0.8572
1054.000000 0.8539 0.8505 0.8463 0.8418 0.8372
1059.000000 0.8310 0.8234 0.8158 0.8071 0.7982
1064.000000 0.7892 0.7760 0.7614 0.7331 0.7104
1069.000000 0.6508 0.5817 0.5126 0.4648 0.4351
1074.000000 0.4211 0.3993 0.3714 0.3595 0.3472
1079.000000 0.3404 0.3403 0.3407 0.3829 0.4115
1084.000000 0.4400 0.4686 0.4972 0.5258 0.5544
1089.000000 0.5829 0.6115 0.6401 0.6687 0.6973
1094.000000 0.7258 0.7544 0.7830 0.8116 0.8401
1099.000000 0.8687 0.8973 0.9101 0.9098 0.9135
1104.000000 0.9084 0.9062 0.9038 0.9024 0.9015
1109.000000 0.9001 0.9047 0.9142 0.9205 0.9230
1114.000000 0.9245 0.9261 0.9271 0.9279 0.9288
1119.000000 0.9291 0.9291 0.9256 0.9291 0.9289
1124.000000 0.9287 0.9284 0.9282 0.9268 0.9251
1129.000000 0.9234 0.9189 0.9143 0.9080 0.9006
1134.000000 0.8935 0.8866 0.8798 0.8739 0.8681
1139.000000 0.8622 0.8544 0.8503 0.8493 0.8502
1144.000000 0.8513 0.8629 0.8750 0.8839 0.8898
1149.000000 0.8948 0.9028 0.8990 0.8994 0.8994
1154.000000 0.8990 0.8967 0.8917 0.8830 0.8763
1159.000000 0.8673 0.8356 0.8287 0.8219 0.8151
1164.000000 0.8017 0.7846 0.7644 0.7362 0.6736
1169.000000 0.6111 0.5485 0.5285 0.5267 0.5481
1174.000000 0.5786 0.6092 0.6397 0.6703 0.7008
1179.000000 0.7314 0.7619 0.7925 0.8140 0.8345
1184.000000 0.8468 0.8597 0.8734 0.8903 0.8974
1189.000000 0.9013 0.9050 0.9057 0.9095 0.9058
1194.000000 0.9044 0.9023 0.8997 0.8966 0.8933
1199.000000 0.8899 0.8764 0.8594 0.8423 0.8253
1204.000000 0.8082 0.7912 0.7742 0.7676 0.7669
1209.000000 0.7979 0.8328 0.8677 0.8729 0.8731
1214.000000 0.8734 0.8737 0.8733 0.8762 0.8723
1219.000000 0.8717 0.8706 0.8695 0.8681 0.8667
1224.000000 0.8653 0.8635 0.8611 0.8586 0.8562
1229.000000 0.8528 0.8493 0.8447 0.8381 0.8315
1234.000000 0.8230 0.8135 0.7986 0.7796 0.7410
1239.000000 0.7024 0.6638 0.6176 0.6190 0.6203
1244.000000 0.6499 0.6827 0.7155 0.7482 0.7810
1249.000000 0.7955 0.7964 0.7950 0.7808 0.7532
1254.000000 0.7256 0.6980 0.6704 0.6428 0.6203
1259.000000 0.6194 0.6380 0.7341 0.7503 0.7501
1264.000000 0.7511 0.7491 0.7450 0.7322 0.6934
1269.000000 0.6517 0.6100 0.5683 0.5267 0.4850
1274.000000 0.4433 0.4016 0.3599 0.3186 0.3189
1279.000000 0.3172 0.3689 0.4154 0.4620 0.5086
1284.000000 0.5551 0.6017 0.6482 0.6908 0.7818
1289.000000 0.8086 0.8301 0.8450 0.8527 0.8638
1294.000000 0.8765 0.8891 0.8978 0.8994 0.9008
1299.000000 0.9015 0.9019 0.9018 0.9016 0.9015
1304.000000 0.9013 0.9008 0.9002 0.8996 0.8991
1309.000000 0.8984 0.8977 0.8970 0.8963 0.8956
1314.000000 0.8949 0.8942 0.8936 0.8932 0.8927
1319.000000 0.8922 0.8918 0.8909 0.8895 0.8881
1324.000000 0.8866 0.8852 0.8831 0.8804 0.8778
1329.000000 0.8751 0.8716 0.8680 0.8645 0.8610
1334.000000 0.8575 0.8537 0.8495 0.8452 0.8410
1339.000000 0.8363 0.8304 0.8246 0.8135 0.8070
1344.000000 0.8018 0.8020 0.8099 0.8265 0.8431
1349.000000 0.8564 0.8556 0.8545 0.8533 0.8559
1354.000000 0.8485 0.8461 0.8439 0.8416 0.8394
1359.000000 0.8368 0.8340 0.8302 0.8251 0.8164
1364.000000 0.8057 0.7763 0.7698 0.7680 0.7674
1369.000000 0.7668 0.7590 0.7424 0.7258 0.7091
1374.000000 0.6925 0.6759 0.6593 0.6474 0.6477
1379.000000 0.6464 0.6492 0.6640 0.6789 0.6939
1384.000000 0.7089 0.7238 0.7388 0.7538 0.7687
1389.000000 0.7837 0.7986 0.8136 0.8167 0.8169
1394.000000 0.8140 0.8104 0.8032 0.7928 0.7834
1399.000000 0.7684 0.7205 0.6725 0.6243 0.5763
1404.000000 0.5684 0.5683 0.5892 0.6527 0.7161
1409.000000 0.7795 0.8429 0.8709 0.8705 0.8712
1414.000000 0.8691 0.8681 0.8671 0.8629 0.8574
1419.000000 0.8520 0.8483 0.8453 0.8423 0.8393
1424.000000 0.8361 0.8310 0.8260 0.8198 0.8077
1429.000000 0.7901 0.7684 0.7517 0.7352 0.7188
1434.000000 0.7020 0.6853 0.6214 0.6070 0.5875
1439.000000 0.5786 0.5673 0.5400 0.5128 0.4856
1444.000000 0.4584 0.4518 0.4920 0.5351 0.5408
1449.000000 0.5396 0.5183 0.4940 0.4698 0.4466
1454.000000 0.4413 0.4348 0.4281 0.4185 0.4060
1459.000000 0.3710 0.2880 0.2757 0.2713 0.2716
1464.000000 0.2718 0.2724 0.2747 0.2802 0.2882
1469.000000 0.2955 0.3420 0.3771 0.4088 0.4337
1474.000000 0.4552 0.5759 0.6269 0.6341 0.6387
1479.000000 0.6422 0.6608 0.6908 0.7209 0.7510
1484.000000 0.7976 0.8125 0.8321 0.8426 0.8476
1489.000000 0.8525 0.8571 0.8610 0.8649 0.8687
1494.000000 0.8712 0.8737 0.8762 0.8787 0.8809
1499.000000 0.8823 0.8836 0.8850 0.8864 0.8872
1504.000000 0.8894 0.8880 0.8883 0.8880 0.8877
1509.000000 0.8875 0.8866 0.8854 0.8842 0.8829
1514.000000 0.8815 0.8802 0.8786 0.8769 0.8752
1519.000000 0.8736 0.8718 0.8700 0.8681 0.8663
1524.000000 0.8645 0.8627 0.8614 0.8604 0.8593
1529.000000 0.8582 0.8572 0.8564 0.8557 0.8550
1534.000000 0.8542 0.8535 0.8527 0.8518 0.8509
1539.000000 0.8499 0.8490 0.8481 0.8468 0.8452
1544.000000 0.8435 0.8419 0.8402 0.8385 0.8366
1549.000000 0.8337 0.8308 0.8279 0.8251 0.8191
1554.000000 0.8127 0.8051 0.7975 0.7899 0.7822
1559.000000 0.7725 0.7611 0.7478 0.7311 0.7148
1564.000000 0.6992 0.6837 0.6566 0.5803 0.5198
1569.000000 0.4592 0.3987 0.3893 0.3900 0.4533
1574.000000 0.5219 0.5904 0.6590 0.7276 0.7897
1579.000000 0.8000 0.8079 0.8127 0.8171 0.8208
1584.000000 0.8230 0.8243 0.8241 0.8254 0.8230
1589.000000 0.8219 0.8135 0.8041 0.7923 0.7755
1594.000000 0.7606 0.7510 0.7413 0.7308 0.7196
1599.000000 0.7064 0.6854 0.6561 0.6268 0.5975
1604.000000 0.5682 0.5389 0.5097 0.4804 0.4669
1609.000000 0.4667 0.4664 0.5503 0.5947 0.6392
1614.000000 0.6837 0.7282 0.7727 0.8091 0.8085
1619.000000 0.8046 0.7973 0.7901 0.7828 0.7819
1624.000000 0.8023 0.8295 0.8509 0.8576 0.8616
1629.000000 0.8641 0.8662 0.8668 0.8673 0.8678
1634.000000 0.8673 0.8660 0.8631 0.8589 0.8558
1639.000000 0.8526 0.8494 0.8455 0.8416 0.8380
1644.000000 0.8344 0.8301 0.8258 0.8214 0.8160
1649.000000 0.8107 0.8053 0.8003 0.7954 0.7905
1654.000000 0.7866 0.7827 0.7788 0.7749 0.7710
1659.000000 0.7665 0.7618 0.7571 0.7525 0.7478
1664.000000 0.7431 0.7380 0.7325 0.7271 0.7217
1669.000000 0.7164 0.7111 0.7058 0.7005 0.6953
1674.000000 0.6900 0.6840 0.6779 0.6719 0.6658
1679.000000 0.6549 0.6429 0.6341 0.6253 0.6164
1684.000000 0.6073 0.5961 0.5850 0.5741 0.5635
1689.000000 0.5529 0.5403 0.5162 0.4829 0.4612
1694.000000 0.4468 0.4322 0.4176 0.4018 0.3842
1699.000000 0.3608 0.3347 0.3085 0.2824 0.2453
1704.000000 0.2287 0.2100 0.1980 0.1851 0.1806
1709.000000 0.1799 0.1806 0.1803 0.1890 0.1969
1714.000000 0.2029 0.2082 0.2112 0.2123 0.2083
1719.000000 0.2010 0.2011 0.2021 0.2064 0.2150
1724.000000 0.2283 0.2410 0.2533 0.2697 0.2903
1729.000000 0.3714 0.4081 0.4449 0.4816 0.5183
1734.000000 0.5550 0.5917 0.6284 0.6651 0.7018
1739.000000 0.7342 0.7421 0.7468 0.7470 0.7460
1744.000000 0.7448 0.7426 0.7387 0.7343 0.7335
1749.000000 0.7333 0.7336 0.7361 0.7450 0.7615
1754.000000 0.7694 0.7795 0.7915 0.8044 0.8148
1759.000000 0.8253 0.8351 0.8448 0.8526 0.8601
1764.000000 0.8676 0.8751 0.8830 0.8910 0.8986
1769.000000 0.9057 0.9127 0.9176 0.9219 0.9244
1774.000000 0.9269 0.9294 0.9306 0.9313 0.9321
1779.000000 0.9328 0.9334 0.9339 0.9344 0.9348
1784.000000 0.9350 0.9352 0.9354 0.9356 0.9357
1789.000000 0.9359 0.9356 0.9354 0.9351 0.9349
1794.000000 0.9346 0.9341 0.9350 0.9328 0.9320
1799.000000 0.9310 0.9299 0.9294 0.9289 0.9284
1804.000000 0.9279 0.9275 0.9279 0.9284 0.9298
1809.000000 0.9315 0.9333 0.9350 0.9367 0.9386
1814.000000 0.9403 0.9416 0.9420 0.9424 0.9427
1819.000000 0.9427 0.9427 0.9427 0.9425 0.9423
1824.000000 0.9421 0.9419 0.9416 0.9413 0.9410
1829.000000 0.9406 0.9403 0.9401 0.9398 0.9395
1834.000000 0.9392 0.9387 0.9380 0.9373 0.9367
1839.000000 0.9363 0.9358 0.9354 0.9352 0.9350
1844.000000 0.9348 0.9346 0.9344 0.9342 0.9340
1849.000000 0.9339 0.9337 0.9335 0.9335 0.9334
1854.000000 0.9334 0.9334 0.9334 0.9334 0.9334
1859.000000 0.9334 0.9334 0.9333 0.9333 0.9333
1864.000000 0.9332 0.9331 0.9330 0.9331 0.9331
1869.000000 0.9331 0.9331 0.9331 0.9331 0.9332
1874.000000 0.9332 0.9332 0.9332 0.9332 0.9334
1879.000000 0.9335 0.9337 0.9338 0.9340 0.9341
1884.000000 0.9343 0.9344 0.9346 0.9347 0.9347
1889.000000 0.9345 0.9343 0.9341 0.9339 0.9337
1894.000000 0.9335 0.9333 0.9331 0.9329 0.9324
1899.000000 0.9318 0.9312 0.9306 0.9300 0.9294
1904.000000 0.9288 0.9282 0.9275 0.9270 0.9267
1909.000000 0.9265 0.9262 0.9259 0.9256 0.9253
1914.000000 0.9250 0.9247 0.9245 0.9242 0.9239
1919.000000 0.9235 0.9232 0.9228 0.9225 0.9221
1924.000000 0.9218 0.9214 0.9211 0.9207 0.9204
1929.000000 0.9200 0.9197 0.9192 0.9187 0.9182
1934.000000 0.9177 0.9171 0.9166 0.9161 0.9156
1939.000000 0.9150 0.9145 0.9140 0.9135 0.9129
1944.000000 0.9124 0.9119 0.9114 0.9111 0.9108
1949.000000 0.9106 0.9103 0.9100 0.9097 0.9094
1954.000000 0.9091 0.9089 0.9086 0.9083 0.9080
1959.000000 0.9077 0.9074 0.9072 0.9071 0.9071
1964.000000 0.9071 0.9070 0.9070 0.9069 0.9069
1969.000000 0.9068 0.9068 0.9068 0.9067 0.9067
1974.000000 0.9064 0.9062 0.9060 0.9057 0.9055
1979.000000 0.9053 0.9050 0.9048 0.9046 0.9043
1984.000000 0.9041 0.9036 0.9031 0.9026 0.9021
1989.000000 0.9016 0.9011 0.9006 0.9001 0.8995
1994.000000 0.8989 0.8982 0.8976 0.8969 0.8963
1999.000000 0.8956 0.8950 0.8943 0.8937 0.8933
2004.000000 0.8930 0.8927 0.8924 0.8921 0.8918
2009.000000 0.8915 0.8912 0.8909 0.8906 0.8903
2014.000000 0.8900 0.8897 0.8894 0.8891 0.8888
2019.000000 0.8885 0.8882 0.8879 0.8876 0.8873
2024.000000 0.8870 0.8867 0.8864 0.8861 0.8859
2029.000000 0.8856 0.8854 0.8851 0.8849 0.8846
2034.000000 0.8843 0.8840 0.8838 0.8835 0.8832
2039.000000 0.8828 0.8825 0.8821 0.8818 0.8814
2044.000000 0.8811 0.8807 0.8804 0.8801 0.8798
2049.000000 0.8799 0.8801 0.8802 0.8804 0.8806
2054.000000 0.8808 0.8809 0.8811 0.8814 0.8817
2059.000000 0.8821 0.8826 0.8830 0.8834 0.8838
2064.000000 0.8842 0.8845 0.8848 0.8851 0.8854
2069.000000 0.8856 0.8859 0.8860 0.8861 0.8860
2074.000000 0.8860 0.8859 0.8858 0.8857 0.8856
2079.000000 0.8855 0.8854 0.8853 0.8852 0.8850
2084.000000 0.8848 0.8846 0.8844 0.8842 0.8840
2089.000000 0.8838 0.8836 0.8833 0.8831 0.8828
2094.000000 0.8825 0.8822 0.8820 0.8817 0.8814
2099.000000 0.8811 0.8809 0.8806 0.8803 0.8800
2104.000000 0.8798 0.8796 0.8795 0.8793 0.8791
2109.000000 0.8789 0.8788 0.8786 0.8784 0.8782
2114.000000 0.8781 0.8779 0.8777 0.8776 0.8775
2119.000000 0.8774 0.8774 0.8774 0.8774 0.8773
2124.000000 0.8773 0.8772 0.8772 0.8771 0.8771
2129.000000 0.8770 0.8770 0.8768 0.8767 0.8765
2134.000000 0.8763 0.8762 0.8761 0.8759 0.8758
2139.000000 0.8757 0.8756 0.8755 0.8754 0.8752
2144.000000 0.8751 0.8750 0.8749 0.8748 0.8747
2149.000000 0.8745 0.8744 0.8743 0.8742 0.8740
2154.000000 0.8739 0.8738 0.8737 0.8735 0.8734
2159.000000 0.8733 0.8732 0.8730 0.8729 0.8728
2164.000000 0.8727 0.8725 0.8724 0.8723 0.8722
2169.000000 0.8720 0.8719 0.8718 0.8717 0.8715
2174.000000 0.8714 0.8713 0.8712 0.8710 0.8709
2179.000000 0.8708 0.8707 0.8705 0.8704 0.8702
2184.000000 0.8701 0.8699 0.8698 0.8696 0.8695
2189.000000 0.8693 0.8692 0.8690 0.8689 0.8687
2194.000000 0.8686 0.8684 0.8683 0.8681 0.8680
2199.000000 0.8678 0.8677 0.8675 0.8674 0.8672
2204.000000 0.8671 0.8669 0.8668 0.8666 0.8665
2209.000000 0.8663 0.8662 0.8660 0.8659 0.8657
2214.000000 0.8655 0.8653 0.8652 0.8650 0.8649
2219.000000 0.8647 0.8645 0.8643 0.8642 0.8640
2224.000000 0.8639 0.8637 0.8636 0.8634 0.8632
2229.000000 0.8630 0.8629 0.8627 0.8626 0.8624
2234.000000 0.8622 0.8620 0.8619 0.8617 0.8616
2239.000000 0.8613 0.8611 0.8609 0.8607 0.8604
2244.000000 0.8602 0.8599 0.8597 0.8595 0.8593
2249.000000 0.8590 0.8588 0.8586 0.8584 0.8581
2254.000000 0.8579 0.8576 0.8574 0.8572 0.8570
2259.000000 0.8567 0.8565 0.8562 0.8560 0.8558
2264.000000 0.8556 0.8553 0.8551 0.8548 0.8546
2269.000000 0.8544 0.8542 0.8539 0.8537 0.8535
2274.000000 0.8533 0.8530 0.8528 0.8525 0.8523
2279.000000 0.8521 0.8519 0.8516 0.8514 0.8512
2284.000000 0.8510 0.8508 0.8506 0.8503 0.8501
2289.000000 0.8499 0.8497 0.8495 0.8493 0.8490
2294.000000 0.8488 0.8486 0.8484 0.8482 0.8480
2299.000000 0.8477 0.8475 0.8473 0.8471 0.8469
2304.000000 0.8467 0.8464 0.8462 0.8460 0.8458
2309.000000 0.8456 0.8454 0.8451 0.8449 0.8447
2314.000000 0.8446 0.8444 0.8442 0.8440 0.8439
2319.000000 0.8437 0.8435 0.8433 0.8432 0.8430
2324.000000 0.8428 0.8426 0.8425 0.8423 0.8421
2329.000000 0.8419 0.8418 0.8416 0.8415 0.8413
2334.000000 0.8411 0.8409 0.8408 0.8406 0.8404
2339.000000 0.8402 0.8401 0.8399 0.8397 0.8395
2344.000000 0.8394 0.8392 0.8391 0.8390 0.8389
2349.000000 0.8387 0.8386 0.8384 0.8383 0.8381
2354.000000 0.8380 0.8379 0.8378 0.8376 0.8375
2359.000000 0.8373 0.8372 0.8373 0.8374 0.8374
2364.000000 0.8375 0.8375 0.8376 0.8377 0.8378
2369.000000 0.8378 0.8379 0.8379 0.8379 0.8378
2374.000000 0.8377 0.8376 0.8375 0.8373 0.8372
2379.000000 0.8371 0.8370 0.8369 0.8368 0.8366
2384.000000 0.8365 0.8364 0.8363 0.8362 0.8361
2389.000000 0.8359 0.8358 0.8356 0.8354 0.8351
2394.000000 0.8348 0.8345 0.8343 0.8340 0.8337
2399.000000 0.8334 0.8331 0.8328 0.8326 0.8323
2404.000000 0.8320 0.8317 0.8315 0.8312 0.8309
2409.000000 0.8306 0.8303 0.8300 0.8298 0.8295
2414.000000 0.8292 0.8290 0.8289 0.8288 0.8287
2419.000000 0.8285 0.8284 0.8283 0.8282 0.8281
2424.000000 0.8280 0.8279 0.8278 0.8277 0.8276
2429.000000 0.8275 0.8274 0.8273 0.8272 0.8272
2434.000000 0.8273 0.8275 0.8277 0.8279 0.8282
2439.000000 0.8284 0.8287 0.8289 0.8291 0.8293
2444.000000 0.8296 0.8297 0.8299 0.8299 0.8300
2449.000000 0.8300 0.8300 0.8300 0.8300 0.8300
2454.000000 0.8300 0.8299 0.8299 0.8297 0.8296
2459.000000 0.8295 0.8294 0.8292 0.8291 0.8289
2464.000000 0.8288 0.8287 0.8286 0.8284 0.8283
2469.000000 0.8282 0.8281 0.8279 0.8278 0.8276
2474.000000 0.8275 0.8273 0.8272 0.8270 0.8269
2479.000000 0.8267 0.8266 0.8265 0.8264 0.8262
2484.000000 0.8261 0.8259 0.8258 0.8256 0.8255
2489.000000 0.8253 0.8252 0.8250 0.8249 0.8247
2494.000000 0.8245 0.8243 0.8242 0.8240 0.8239
2499.000000 0.8237 0.8236 0.8234 0.8232 0.8230
2504.000000 0.8229 0.8227 0.8226 0.8224 0.8223
2509.000000 0.8221 0.8219 0.8217 0.8216 0.8213
2514.000000 0.8211 0.8208 0.8205 0.8201 0.8198
2519.000000 0.8195 0.8192 0.8188 0.8185 0.8182
2524.000000 0.8179 0.8175 0.8172 0.8169 0.8166
2529.000000 0.8162 0.8159 0.8156 0.8153 0.8150
2534.000000 0.8147 0.8143 0.8140 0.8136 0.8133
2539.000000 0.8129 0.8126 0.8122 0.8119 0.8115
2544.000000 0.8112 0.8108 0.8105 0.8101 0.8098
2549.000000 0.8096 0.8094 0.8095 0.8096 0.8097
2554.000000 0.8098 0.8099 0.8101 0.8102 0.8103
2559.000000 0.8104 0.8106 0.8108 0.8110 0.8114
2564.000000 0.8119 0.8124 0.8129 0.8127 0.8126
2569.000000 0.8124 0.8123 0.8121 0.8119 0.8117
2574.000000 0.8116 0.8112 0.8109 0.8105 0.8102
2579.000000 0.8098 0.8094 0.8090 0.8086 0.8082
2584.000000 0.8078 0.8076 0.8075 0.8073 0.8071
2589.000000 0.8069 0.8067 0.8065 0.8064 0.8062
2594.000000 0.8060 0.8058 0.8056 0.8054 0.8053
2599.000000 0.8050 0.8048 0.8045 0.8042 0.8039
2604.000000 0.8037 0.8034 0.8031 0.8028 0.8026
2609.000000 0.8023 0.8021 0.8018 0.8015 0.8012
2614.000000 0.8010 0.8007 0.8005 0.8002 0.7999
2619.000000 0.7996 0.7994 0.7992 0.7990 0.7988
2624.000000 0.7986 0.7983 0.7981 0.7979 0.7977
2629.000000 0.7975 0.7973 0.7971 0.7969 0.7967
2634.000000 0.7965 0.7962 0.7960 0.7958 0.7956
2639.000000 0.7954 0.7952 0.7950 0.7948 0.7946
2644.000000 0.7944 0.7942 0.7940 0.7938 0.7936
2649.000000 0.7934 0.7932 0.7930 0.7928 0.7925
2654.000000 0.7923 0.7921 0.7919 0.7917 0.7915
2659.000000 0.7913 0.7911 0.7909 0.7907 0.7905
2664.000000 0.7903 0.7901 0.7899 0.7897 0.7896
2669.000000 0.7894 0.7893 0.7891 0.7890 0.7888
2674.000000 0.7887 0.7885 0.7884 0.7882 0.7881
2679.000000 0.7879 0.7878 0.7876 0.7875 0.7873
2684.000000 0.7872 0.7870 0.7869 0.7867 0.7866
2689.000000 0.7865 0.7864 0.7863 0.7863 0.7862
2694.000000 0.7861 0.7860 0.7860 0.7859 0.7858
2699.000000 0.7857 0.7857 0.7856 0.7855 0.7854
2704.000000 0.7854 0.7853 0.7853 0.7850 0.7847
2709.000000 0.7844 0.7841 0.7837 0.7834 0.7831
2714.000000 0.7828 0.7825 0.7822 0.7818 0.7815
2719.000000 0.7813 0.7812 0.7810 0.7809 0.7807
2724.000000 0.7806 0.7804 0.7803 0.7801 0.7800
2729.000000 0.7798 0.7797 0.7797 0.7797 0.7798
2734.000000 0.7799 0.7800 0.7802 0.7803 0.7805
2739.000000 0.7807 0.7809 0.7813 0.7817 0.7820
2744.000000 0.7824 0.7828 0.7832 0.7835 0.7839
2749.000000 0.7843 0.7847 0.7850 0.7854 0.7854
2754.000000 0.7854 0.7852 0.7851 0.7849 0.7847
2759.000000 0.7845 0.7844 0.7842 0.7841 0.7839
2764.000000 0.7837 0.7835 0.7834 0.7830 0.7826
2769.000000 0.7821 0.7816 0.7811 0.7806 0.7801
2774.000000 0.7796 0.7791 0.7786 0.7778 0.7770
2779.000000 0.7762 0.7755 0.7747 0.7740 0.7732
2784.000000 0.7724 0.7716 0.7709 0.7698 0.7687
2789.000000 0.7674 0.7661 0.7648 0.7635 0.7622
2794.000000 0.7609 0.7596 0.7583 0.7570 0.7557
2799.000000 0.7544 0.7531 0.7516 0.7501 0.7485
2804.000000 0.7470 0.7454 0.7438 0.7422 0.7407
2809.000000 0.7390 0.7373 0.7354 0.7335 0.7316
2814.000000 0.7297 0.7278 0.7259 0.7238 0.7218
2819.000000 0.7161 0.7105 0.7048 0.6991 0.6944
2824.000000 0.6898 0.6853 0.6809 0.6765 0.6721
2829.000000 0.6585 0.6450 0.6201 0.5952 0.5662
2834.000000 0.5372 0.5082 0.4792 0.4502 0.4212
2839.000000 0.3922 0.3632 0.3342 0.3053 0.2931
2844.000000 0.2809 0.2633 0.2457 0.2379 0.2302
2849.000000 0.2162 0.2023 0.1997 0.1971 0.1952
2854.000000 0.1934 0.1932 0.1930 0.1929 0.1929
2859.000000 0.1931 0.1933 0.1935 0.1937 0.1952
2864.000000 0.1968 0.1992 0.2017 0.2043 0.2070
2869.000000 0.2096 0.2123 0.2155 0.2188 0.2233
2874.000000 0.2279 0.2342 0.2405 0.2596 0.2788
2879.000000 0.2821 0.2854 0.2858 0.2863 0.2867
2884.000000 0.2872 0.2869 0.2867 0.2815 0.2763
2889.000000 0.2698 0.2634 0.2570 0.2506 0.2441
2894.000000 0.2377 0.2312 0.2248 0.2183 0.2119
2899.000000 0.2055 0.1991 0.1926 0.1862 0.1797
2904.000000 0.1733 0.1668 0.1604 0.1540 0.1476
2909.000000 0.1380 0.1285 0.1223 0.1162 0.1072
2914.000000 0.0983 0.0907 0.0831 0.0775 0.0720
2919.000000 0.0682 0.0645 0.0614 0.0584 0.0577
2924.000000 0.0571 0.0587 0.0603 0.0654 0.0706
2929.000000 0.0743 0.0780 0.0814 0.0848 0.0892
2934.000000 0.0936 0.0997 0.1058 0.1075 0.1092
2939.000000 0.1090 0.1088 0.1083 0.1079 0.1067
2944.000000 0.1055 0.1035 0.1015 0.0993 0.0972
2949.000000 0.0946 0.0920 0.0906 0.0893 0.0888
2954.000000 0.0884 0.0882 0.0881 0.0991 0.1101
2959.000000 0.1316 0.1532 0.1560 0.1589 0.1617
2964.000000 0.1645 0.1675 0.1705 0.1752 0.1799
2969.000000 0.1877 0.1956 0.2272 0.2589 0.2682
2974.000000 0.2775 0.2849 0.2924 0.3018 0.3113
2979.000000 0.3265 0.3418 0.3609 0.3800 0.4180
2984.000000 0.4560 0.4709 0.4859 0.4941 0.5023
2989.000000 0.5087 0.5151 0.5200 0.5250 0.5272
2994.000000 0.5295 0.5312 0.5329 0.5337 0.5346
2999.000000 0.5354 0.5363 0.5371 0.5379 0.5383
3004.000000 0.5387 0.5391 0.5395 0.5399 0.5403
3009.000000 0.5407 0.5411 0.5444 0.5477 0.5539
3014.000000 0.5602 0.5675 0.5748 0.5824 0.5901
3019.000000 0.6061 0.6221 0.6299 0.6378 0.6427
3024.000000 0.6477 0.6507 0.6538 0.6536 0.6535
3029.000000 0.6532 0.6530 0.6527 0.6525 0.6516
3034.000000 0.6507 0.6497 0.6488 0.6478 0.6469
3039.000000 0.6459 0.6449 0.6439 0.6430 0.6424
3044.000000 0.6419 0.6419 0.6420 0.6422 0.6425
3049.000000 0.6431 0.6437 0.6458 0.6479 0.6504
3054.000000 0.6529 0.6557 0.6586 0.6611 0.6637
3059.000000 0.6660 0.6683 0.6697 0.6712 0.6713
3064.000000 0.6715 0.6716 0.6717 0.6718 0.6720
3069.000000 0.6721 0.6723 0.6724 0.6725 0.6726
3074.000000 0.6727 0.6728 0.6729 0.6730 0.6732
3079.000000 0.6733 0.6734 0.6735 0.6736 0.6740
3084.000000 0.6744 0.6750 0.6757 0.6763 0.6770
3089.000000 0.6786 0.6803 0.6822 0.6841 0.6855
3094.000000 0.6870 0.6877 0.6885 0.6893 0.6901
3099.000000 0.6903 0.6905 0.6906 0.6908 0.6909
3104.000000 0.6911 0.6913 0.6915 0.6916 0.6917
3109.000000 0.6917 0.6918 0.6918 0.6919 0.6919
3114.000000 0.6920 0.6921 0.6922 0.6922 0.6923
3119.000000 0.6923 0.6924 0.6924 0.6925 0.6925
3124.000000 0.6926 0.6926 0.6926 0.6926 0.6927
3129.000000 0.6927 0.6928 0.6928 0.6928 0.6928
3134.000000 0.6929 0.6929 0.6930 0.6930 0.6930
3139.000000 0.6930 0.6931 0.6931 0.6932 0.6932
3144.000000 0.6932 0.6932 0.6933 0.6933 0.6934
3149.000000 0.6934 0.6934 0.6934 0.6935 0.6935
3154.000000 0.6936 0.6936 0.6936 0.6936 0.6937
3159.000000 0.6937 0.6938 0.6938 0.6938 0.6938
3164.000000 0.6939 0.6939 0.6940 0.6940 0.6940
3169.000000 0.6940 0.6941 0.6941 0.6942 0.6942
3174.000000 0.6942 0.6942 0.6943 0.6943 0.6943
3179.000000 0.6943 0.6944 0.6944 0.6944 0.6944
3184.000000 0.6945 0.6945 0.6945 0.6945 0.6946
3189.000000 0.6946 0.6946 0.6946 0.6946 0.6946
3194.000000 0.6947 0.6947 0.6947 0.6947 0.6948
3199.000000 0.6948 0.6948 0.6948 0.6949 0.6949
3204.000000 0.6949 0.6949 0.6949 0.6949 0.6950
3209.000000 0.6950 0.6950 0.6950 0.6951 0.6951
3214.000000 0.6951 0.6951 0.6952 0.6952 0.6952
3219.000000 0.6952 0.6952 0.6952 0.6953 0.6953
3224.000000 0.6953 0.6953 0.6954 0.6954 0.6954
3229.000000 0.6954 0.6955 0.6954 0.6953 0.6952
3234.000000 0.6951 0.6950 0.6949 0.6948 0.6947
3239.000000 0.6946 0.6945 0.6944 0.6943 0.6942
3244.000000 0.6942 0.6941 0.6940 0.6939 0.6938
3249.000000 0.6937 0.6936 0.6935 0.6934 0.6933
3254.000000 0.6932 0.6931 0.6930 0.6929 0.6928
3259.000000 0.6927 0.6926 0.6925 0.6924 0.6923
3264.000000 0.6922 0.6921 0.6920 0.6919 0.6918
3269.000000 0.6917 0.6916 0.6915 0.6914 0.6913
3274.000000 0.6912 0.6911 0.6910 0.6909 0.6908
3279.000000 0.6907 0.6906 0.6905 0.6905 0.6904
3284.000000 0.6903 0.6902 0.6901 0.6899 0.6898
3289.000000 0.6896 0.6895 0.6894 0.6893 0.6891
3294.000000 0.6890 0.6888 0.6887 0.6886 0.6885
3299.000000 0.6883 0.6882 0.6881 0.6880 0.6878
3304.000000 0.6877 0.6875 0.6874 0.6873 0.6872
3309.000000 0.6870 0.6869 0.6867 0.6866 0.6865
3314.000000 0.6864 0.6862 0.6861 0.6859 0.6858
3319.000000 0.6857 0.6856 0.6854 0.6853 0.6851
3324.000000 0.6850 0.6849 0.6848 0.6846 0.6845
3329.000000 0.6843 0.6842 0.6841 0.6840 0.6838
3334.000000 0.6837 0.6836 0.6835 0.6833 0.6832
3339.000000 0.6830 0.6828 0.6826 0.6825 0.6823
3344.000000 0.6821 0.6819 0.6817 0.6815 0.6813
3349.000000 0.6811 0.6810 0.6808 0.6806 0.6804
3354.000000 0.6802 0.6800 0.6798 0.6796 0.6795
3359.000000 0.6793 0.6791 0.6789 0.6787 0.6785
3364.000000 0.6783 0.6781 0.6780 0.6778 0.6776
3369.000000 0.6774 0.6772 0.6770 0.6769 0.6767
3374.000000 0.6765 0.6763 0.6761 0.6758 0.6756
3379.000000 0.6753 0.6750 0.6747 0.6744 0.6741
3384.000000 0.6738 0.6734 0.6731 0.6728 0.6725
3389.000000 0.6722 0.6719 0.6716 0.6713 0.6709
3394.000000 0.6706 0.6703 0.6700 0.6697 0.6694
3399.000000 0.6691 0.6688 0.6684 0.6681 0.6678
3404.000000 0.6675 0.6672 0.6669 0.6666 0.6663
3409.000000 0.6662 0.6662 0.6661 0.6660 0.6659
3414.000000 0.6658 0.6659 0.6660 0.6662 0.6664
3419.000000 0.6665 0.6667 0.6669 0.6671 0.6673
3424.000000 0.6675 0.6677 0.6679 0.6681 0.6683
3429.000000 0.6685 0.6687 0.6689 0.6691 0.6693
3434.000000 0.6695 0.6697 0.6699 0.6700 0.6702
3439.000000 0.6703 0.6705 0.6707 0.6709 0.6710
3444.000000 0.6712 0.6714 0.6716 0.6717 0.6719
3449.000000 0.6720 0.6722 0.6724 0.6726 0.6726
3454.000000 0.6726 0.6726 0.6726 0.6726 0.6726
3459.000000 0.6725 0.6725 0.6725 0.6725 0.6725
3464.000000 0.6725 0.6724 0.6724 0.6724 0.6724
3469.000000 0.6723 0.6723 0.6723 0.6723 0.6723
3474.000000 0.6723 0.6722 0.6722 0.6721 0.6721
3479.000000 0.6720 0.6719 0.6717 0.6716 0.6714
3484.000000 0.6713 0.6711 0.6710 0.6708 0.6707
3489.000000 0.6705 0.6704 0.6703 0.6702 0.6700
3494.000000 0.6699 0.6697 0.6696 0.6694 0.6693
3499.000000 0.6691 0.6690 0.6689 0.6688 0.6686
3504.000000 0.6685 0.6683 0.6682 0.6680 0.6679
3509.000000 0.6677 0.6676 0.6675 0.6674 0.6672
3514.000000 0.6671 0.6669 0.6668 0.6667 0.6666
3519.000000 0.6665 0.6664 0.6663 0.6662 0.6660
3524.000000 0.6659 0.6658 0.6657 0.6656 0.6655
3529.000000 0.6654 0.6653 0.6652 0.6651 0.6649
3534.000000 0.6648 0.6647 0.6646 0.6645 0.6644
3539.000000 0.6643 0.6642 0.6640 0.6639 0.6638
3544.000000 0.6637 0.6636 0.6635 0.6634 0.6633
3549.000000 0.6632 0.6631 0.6629 0.6628 0.6627
3554.000000 0.6626 0.6625 0.6624 0.6623 0.6622
3559.000000 0.6621 0.6620 0.6618 0.6617 0.6616
3564.000000 0.6615 0.6614 0.6613 0.6612 0.6611
3569.000000 0.6609 0.6608 0.6607 0.6606 0.6605
3574.000000 0.6604 0.6602 0.6601 0.6600 0.6599
3579.000000 0.6598 0.6597 0.6595 0.6594 0.6593
3584.000000 0.6592 0.6591 0.6590 0.6588 0.6587
3589.000000 0.6586 0.6585 0.6584 0.6583 0.6581
3594.000000 0.6580 0.6579 0.6578 0.6577 0.6576
3599.000000 0.6575 0.6574 0.6572 0.6571 0.6570
3604.000000 0.6569 0.6568 0.6567 0.6565 0.6564
3609.000000 0.6563 0.6562 0.6561 0.6560 0.6558
3614.000000 0.6557 0.6556 0.6555 0.6554 0.6553
3619.000000 0.6551 0.6550 0.6549 0.6548 0.6547
3624.000000 0.6546 0.6545 0.6545 0.6544 0.6543
3629.000000 0.6542 0.6542 0.6541 0.6541 0.6540
3634.000000 0.6539 0.6538 0.6538 0.6537 0.6537
3639.000000 0.6536 0.6535 0.6534 0.6534 0.6533
3644.000000 0.6532 0.6531 0.6531 0.6530 0.6530
3649.000000 0.6529 0.6528 0.6527 0.6527 0.6526
3654.000000 0.6526 0.6525 0.6524 0.6523 0.6523
3659.000000 0.6522 0.6522 0.6521 0.6520 0.6519
3664.000000 0.6519 0.6518 0.6518 0.6517 0.6516
3669.000000 0.6515 0.6514 0.6512 0.6511 0.6509
3674.000000 0.6508 0.6506 0.6504 0.6502 0.6501
3679.000000 0.6499 0.6498 0.6496 0.6495 0.6493
3684.000000 0.6492 0.6490 0.6488 0.6486 0.6485
3689.000000 0.6483 0.6482 0.6480 0.6479 0.6477
3694.000000 0.6476 0.6474 0.6473 0.6471 0.6469
3699.000000 0.6467 0.6466 0.6464 0.6463 0.6461
3704.000000 0.6460 0.6458 0.6457 0.6455 0.6453
3709.000000 0.6451 0.6450 0.6448 0.6447 0.6445
3714.000000 0.6444 0.6442 0.6441 0.6439 0.6437
3719.000000 0.6435 0.6434 0.6432 0.6431 0.6429
3724.000000 0.6428 0.6426 0.6424 0.6422 0.6421
3729.000000 0.6419 0.6417 0.6415 0.6414 0.6412
3734.000000 0.6410 0.6408 0.6406 0.6404 0.6403
3739.000000 0.6401 0.6399 0.6397 0.6396 0.6394
3744.000000 0.6392 0.6390 0.6388 0.6386 0.6385
3749.000000 0.6383 0.6381 0.6379 0.6377 0.6375
3754.000000 0.6374 0.6372 0.6370 0.6368 0.6367
3759.000000 0.6365 0.6363 0.6361 0.6359 0.6357
3764.000000 0.6356 0.6354 0.6352 0.6350 0.6349
3769.000000 0.6347 0.6345 0.6343 0.6341 0.6339
3774.000000 0.6338 0.6336 0.6334 0.6332 0.6330
3779.000000 0.6328 0.6327 0.6325 0.6323 0.6321
3784.000000 0.6320 0.6318 0.6316 0.6314 0.6312
3789.000000 0.6310 0.6309 0.6307 0.6305 0.6303
3794.000000 0.6302 0.6300 0.6298 0.6296 0.6294
3799.000000 0.6292 0.6291 0.6289 0.6287 0.6285
3804.000000 0.6284 0.6282 0.6280 0.6278 0.6276
3809.000000 0.6274 0.6273 0.6271 0.6269 0.6267
3814.000000 0.6266 0.6264 0.6262 0.6260 0.6258
3819.000000 0.6256 0.6255 0.6253 0.6251 0.6249
3824.000000 0.6248 0.6246 0.6244 0.6242 0.6240
3829.000000 0.6238 0.6237 0.6235 0.6233 0.6231
3834.000000 0.6230 0.6228 0.6226 0.6224 0.6222
3839.000000 0.6220 0.6219 0.6217 0.6215 0.6213
3844.000000 0.6212 0.6210 0.6208 0.6206 0.6205
3849.000000 0.6203 0.6202 0.6200 0.6199 0.6197
3854.000000 0.6196 0.6194 0.6192 0.6190 0.6189
3859.000000 0.6187 0.6186 0.6184 0.6183 0.6181
3864.000000 0.6180 0.6178 0.6177 0.6175 0.6173
3869.000000 0.6171 0.6170 0.6168 0.6167 0.6165
3874.000000 0.6164 0.6162 0.6161 0.6159 0.6157
3879.000000 0.6155 0.6154 0.6152 0.6151 0.6149
3884.000000 0.6148 0.6146 0.6145 0.6143 0.6142
3889.000000 0.6140 0.6138 0.6136 0.6135 0.6133
3894.000000 0.6132 0.6130 0.6129 0.6127 0.6126
3899.000000 0.6124 0.6123 0.6121 0.6119 0.6117
3904.000000 0.6116 0.6114 0.6113 0.6111 0.6109
3909.000000 0.6107 0.6106 0.6104 0.6102 0.6100
3914.000000 0.6099 0.6097 0.6095 0.6093 0.6092
3919.000000 0.6090 0.6089 0.6087 0.6085 0.6083
3924.000000 0.6082 0.6080 0.6078 0.6076 0.6075
3929.000000 0.6073 0.6071 0.6069 0.6068 0.6066
3934.000000 0.6064 0.6062 0.6061 0.6059 0.6057
3939.000000 0.6055 0.6054 0.6052 0.6050 0.6048
3944.000000 0.6047 0.6045 0.6043 0.6041 0.6040
3949.000000 0.6038 0.6037 0.6035 0.6033 0.6031
3954.000000 0.6029 0.6027 0.6026 0.6024 0.6022
3959.000000 0.6020 0.6018 0.6016 0.6015 0.6013
3964.000000 0.6011 0.6009 0.6007 0.6005 0.6003
3969.000000 0.6001 0.6000 0.5998 0.5996 0.5994
3974.000000 0.5992 0.5991 0.5991 0.5990 0.5990
3979.000000 0.5989 0.5988 0.5987 0.5987 0.5986
3984.000000 0.5986 0.5985 0.5985 0.5984 0.5983
3989.000000 0.5982 0.5982 0.5981 0.5981 0.5980
3994.000000 0.5979 0.5978 0.5978 0.5977 0.5977
3999.000000 0.5977 0.5977
##END=
