##TITLE=FUMARIC ACID, MONOETHYL ESTER
##JCAMP-DX=4.24
##DATA TYPE=INFRARED SPECTRUM
##CLASS=COBLENTZ III
##ORIGIN=DOW CHEMICAL COMPANY
##OWNER=COBLENTZ SOC.
Collection (C) 2018 copyright by the U.S. Secretary of Commerce
on behalf of the United States of America. All rights reserved.
##DATE=1965/06/25
##NAMES=(2E)-4-ethoxy-4-oxo-2-butenoic acid
##CAS REGISTRY NO=2459-05-4
##MOLFORM=C6 H8 O4
##SOURCE REFERENCE=COBLENTZ NO. 07583
##$NIST SOURCE=COBLENTZ
##$NIST IMAGE=cob7583
##SPECTROMETER/DATA SYSTEM=DOW KBr FOREPRISM-GRATING
##INSTRUMENT PARAMETERS=BLAZED AT 3.5, 12.0, 20.0 MICRON AND CHANGED AT 5.0, 7.5, 14.9 MICRON
##STATE=SOLID (SPLIT MULL BETWEEN NaCl PLATES), FLUOROLUBE FOR 3800-1330 CM^-^1, NUJOL FOR 1330-500 CM^-^1
$$SPECTRAL CONTAMINATION DUE TO AN UNKNOWN AROUND 500 CM^-^1
$$ SPECTRAL FEATURE AT 1989 CM^-^1 IS AN ARTIFACT CAUSED BY GRATING CHANGE
##SAMPLING PROCEDURE=TRANSMISSION
##RESOLUTION=2
##DATA PROCESSING=DIGITIZED BY COBLENTZ SOCIETY (BATCH I) FROM HARD COPY
##XUNITS=1/CM
##YUNITS=TRANSMITTANCE
##XLABEL=Wavenumbers (cm-1)
##YLABEL=% Transmission
##XFACTOR=1
##YFACTOR=1
##DELTAX=1
##FIRSTX=579
##LASTX=3796
##FIRSTY=0.1829
##MAXX=3796
##MINX=579
##MAXY=0.9228
##MINY=0.0924
##NPOINTS=3218
##XYDATA=(X++(Y..Y))
579.000000 0.1829 0.1873 0.1919 0.1976 0.2033
584.000000 0.2090 0.2147 0.2205 0.2262 0.2319
589.000000 0.2377 0.2431 0.2484 0.2538 0.2592
594.000000 0.2645 0.2699 0.2752 0.2808 0.2864
599.000000 0.2919 0.2975 0.3030 0.3085 0.3142
604.000000 0.3197 0.3253 0.3308 0.3362 0.3416
609.000000 0.3472 0.3527 0.3580 0.3636 0.3691
614.000000 0.3747 0.3807 0.3866 0.3926 0.3984
619.000000 0.4045 0.4104 0.4149 0.4193 0.4238
624.000000 0.4283 0.4328 0.4373 0.4422 0.4533
629.000000 0.4644 0.4739 0.4822 0.4865 0.4873
634.000000 0.4878 0.4877 0.4860 0.4844 0.4824
639.000000 0.4788 0.4740 0.4620 0.4437 0.4255
644.000000 0.4072 0.3890 0.3708 0.3525 0.3514
649.000000 0.3542 0.4785 0.5490 0.5490 0.5488
654.000000 0.5470 0.5434 0.5399 0.5364 0.5328
659.000000 0.5312 0.5393 0.5624 0.5819 0.6072
664.000000 0.6293 0.6430 0.6545 0.6650 0.6751
669.000000 0.6828 0.6905 0.6949 0.6990 0.7030
674.000000 0.7071 0.7111 0.7146 0.7176 0.7208
679.000000 0.7238 0.7268 0.7300 0.7330 0.7360
684.000000 0.7391 0.7421 0.7451 0.7478 0.7501
689.000000 0.7525 0.7549 0.7572 0.7596 0.7619
694.000000 0.7640 0.7660 0.7681 0.7701 0.7721
699.000000 0.7735 0.7742 0.7748 0.7754 0.7760
704.000000 0.7765 0.7778 0.7756 0.7749 0.7743
709.000000 0.7736 0.7728 0.7710 0.7692 0.7674
714.000000 0.7636 0.7583 0.7498 0.7394 0.7232
719.000000 0.7201 0.7206 0.7206 0.7230 0.7287
724.000000 0.7347 0.7401 0.7449 0.7496 0.7543
729.000000 0.7589 0.7626 0.7662 0.7696 0.7718
734.000000 0.7740 0.7761 0.7784 0.7811 0.7845
739.000000 0.7895 0.7965 0.8026 0.8072 0.8119
744.000000 0.8165 0.8197 0.8228 0.8259 0.8290
749.000000 0.8311 0.8325 0.8340 0.8355 0.8370
754.000000 0.8381 0.8389 0.8397 0.8405 0.8408
759.000000 0.8409 0.8409 0.8453 0.8406 0.8401
764.000000 0.8397 0.8388 0.8367 0.8346 0.8318
769.000000 0.8283 0.8247 0.8101 0.7787 0.7471
774.000000 0.7157 0.6842 0.6528 0.6253 0.6250
779.000000 0.6235 0.8006 0.8108 0.8153 0.8198
784.000000 0.8242 0.8264 0.8286 0.8308 0.8330
789.000000 0.8339 0.8342 0.8345 0.8368 0.8339
794.000000 0.8334 0.8318 0.8305 0.8289 0.8263
799.000000 0.8237 0.8205 0.8161 0.8101 0.8033
804.000000 0.7956 0.7875 0.7821 0.7819 0.7826
809.000000 0.7850 0.8150 0.8201 0.8233 0.8262
814.000000 0.8285 0.8307 0.8328 0.8349 0.8359
819.000000 0.8370 0.8377 0.8377 0.8377 0.8378
824.000000 0.8378 0.8375 0.8371 0.8367 0.8363
829.000000 0.8358 0.8348 0.8338 0.8327 0.8317
834.000000 0.8304 0.8291 0.8271 0.8243 0.8215
839.000000 0.8184 0.8147 0.8110 0.8072 0.8031
844.000000 0.7978 0.7925 0.7867 0.7807 0.7718
849.000000 0.7528 0.7234 0.7048 0.6728 0.6347
854.000000 0.5965 0.5654 0.5648 0.6075 0.6540
859.000000 0.7006 0.7471 0.7846 0.7991 0.8028
864.000000 0.8065 0.8074 0.8078 0.8121 0.8071
869.000000 0.8050 0.7987 0.7893 0.7842 0.7830
874.000000 0.7830 0.7840 0.7861 0.7878 0.7898
879.000000 0.7892 0.7878 0.7850 0.7815 0.7768
884.000000 0.7721 0.7664 0.7603 0.7544 0.7485
889.000000 0.7425 0.7347 0.7256 0.7164 0.7072
894.000000 0.6982 0.6891 0.6800 0.6708 0.6621
899.000000 0.6630 0.6606 0.6483 0.6359 0.6236
904.000000 0.6112 0.5989 0.5866 0.5742 0.5619
909.000000 0.5519 0.5436 0.5367 0.5341 0.5329
914.000000 0.5357 0.5332 0.5349 0.5378 0.5427
919.000000 0.5506 0.5645 0.5784 0.5923 0.5993
924.000000 0.6055 0.6130 0.6204 0.6268 0.6329
929.000000 0.6386 0.6442 0.6475 0.6508 0.6525
934.000000 0.6539 0.6541 0.6541 0.6541 0.6533
939.000000 0.6524 0.6512 0.6489 0.6451 0.6426
944.000000 0.6410 0.6408 0.6412 0.6421 0.6396
949.000000 0.6455 0.6494 0.6551 0.6648 0.6730
954.000000 0.6797 0.6841 0.6881 0.6910 0.6922
959.000000 0.6918 0.6751 0.6593 0.6434 0.6276
964.000000 0.6117 0.6091 0.6521 0.6919 0.7282
969.000000 0.7372 0.7406 0.7418 0.7428 0.7432
974.000000 0.7425 0.7411 0.7383 0.7357 0.7325
979.000000 0.7269 0.7186 0.7098 0.7005 0.6888
984.000000 0.6753 0.6576 0.6358 0.6189 0.5895
989.000000 0.5027 0.4431 0.3836 0.3352 0.3360
994.000000 0.3556 0.4062 0.4571 0.5078 0.5586
999.000000 0.6093 0.6601 0.6822 0.6815 0.6804
1004.000000 0.6806 0.6721 0.6510 0.6298 0.6087
1009.000000 0.5875 0.5662 0.5451 0.5239 0.5028
1014.000000 0.4816 0.4604 0.4392 0.4242 0.4267
1019.000000 0.4279 0.4486 0.4867 0.5247 0.5627
1024.000000 0.6007 0.6388 0.6893 0.7110 0.7314
1029.000000 0.7443 0.7568 0.7662 0.7743 0.7822
1034.000000 0.7895 0.7950 0.8005 0.8060 0.8103
1039.000000 0.8125 0.8149 0.8171 0.8194 0.8217
1044.000000 0.8240 0.8252 0.8257 0.8263 0.8268
1049.000000 0.8273 0.8278 0.8284 0.8289 0.8291
1054.000000 0.8285 0.8282 0.8271 0.8266 0.8257
1059.000000 0.8245 0.8233 0.8221 0.8209 0.8197
1064.000000 0.8185 0.8172 0.8161 0.8147 0.8128
1069.000000 0.8111 0.8092 0.8074 0.8056 0.8038
1074.000000 0.8011 0.7971 0.7933 0.7894 0.7855
1079.000000 0.7814 0.7764 0.7714 0.7662 0.7612
1084.000000 0.7562 0.7500 0.7406 0.7311 0.7217
1089.000000 0.7092 0.6887 0.5925 0.5423 0.5425
1094.000000 0.5438 0.5564 0.5932 0.6299 0.6667
1099.000000 0.7034 0.7401 0.7669 0.7768 0.7854
1104.000000 0.7918 0.7969 0.7992 0.8001 0.8011
1109.000000 0.8015 0.8015 0.8015 0.8014 0.8004
1114.000000 0.7994 0.7984 0.7972 0.7958 0.7944
1119.000000 0.7930 0.7901 0.7871 0.7841 0.7811
1124.000000 0.7781 0.7748 0.7707 0.7665 0.7624
1129.000000 0.7582 0.7521 0.7451 0.7380 0.7308
1134.000000 0.7238 0.7167 0.7095 0.7025 0.6956
1139.000000 0.6898 0.6839 0.6780 0.6721 0.6667
1144.000000 0.6621 0.6575 0.6531 0.6485 0.6438
1149.000000 0.6343 0.6248 0.6150 0.5960 0.5772
1154.000000 0.5592 0.5392 0.5057 0.4887 0.4705
1159.000000 0.4497 0.4198 0.3878 0.3558 0.3238
1164.000000 0.2917 0.2591 0.2282 0.2073 0.1919
1169.000000 0.1766 0.1610 0.1473 0.1383 0.1292
1174.000000 0.1190 0.1059 0.0983 0.0936 0.0931
1179.000000 0.0931 0.0924 0.0992 0.1257 0.1589
1184.000000 0.1921 0.2253 0.2584 0.2917 0.3249
1189.000000 0.3595 0.3814 0.4177 0.4681 0.4930
1194.000000 0.5290 0.6215 0.6449 0.6731 0.7142
1199.000000 0.7330 0.7436 0.7474 0.7508 0.7535
1204.000000 0.7560 0.7585 0.7600 0.7614 0.7625
1209.000000 0.7633 0.7640 0.7669 0.7645 0.7646
1214.000000 0.7646 0.7606 0.7569 0.7544 0.7518
1219.000000 0.7510 0.7501 0.7493 0.7491 0.7491
1224.000000 0.7490 0.7490 0.7458 0.7404 0.7344
1229.000000 0.7275 0.7205 0.7126 0.7007 0.6849
1234.000000 0.6600 0.6565 0.6532 0.6506 0.6490
1239.000000 0.6472 0.6453 0.6433 0.6412 0.6366
1244.000000 0.6307 0.6239 0.6152 0.6029 0.5899
1249.000000 0.5740 0.5556 0.5227 0.4301 0.3950
1254.000000 0.3600 0.3250 0.2900 0.2550 0.2200
1259.000000 0.1850 0.1499 0.1149 0.1085 0.1092
1264.000000 0.1118 0.1434 0.1841 0.2247 0.2654
1269.000000 0.3061 0.3466 0.3828 0.3826 0.3808
1274.000000 0.3818 0.3354 0.3129 0.2903 0.2678
1279.000000 0.2452 0.2246 0.2217 0.2222 0.2214
1284.000000 0.2504 0.2638 0.2772 0.2907 0.3041
1289.000000 0.3175 0.3309 0.3444 0.3578 0.3607
1294.000000 0.3590 0.3572 0.3436 0.3216 0.2997
1299.000000 0.2778 0.2559 0.2339 0.2120 0.1979
1304.000000 0.1912 0.1858 0.1804 0.1749 0.1693
1309.000000 0.1626 0.1541 0.1056 0.1037 0.1039
1314.000000 0.1042 0.1045 0.1122 0.1314 0.1683
1319.000000 0.1941 0.2463 0.2985 0.3508 0.4030
1324.000000 0.5393 0.5868 0.6091 0.6233 0.6349
1329.000000 0.6434 0.6518 0.6600 0.6675 0.6746
1334.000000 0.6782 0.6817 0.6828 0.6838 0.6847
1339.000000 0.6851 0.6850 0.6849 0.6834 0.6817
1344.000000 0.6801 0.6811 0.6856 0.6910 0.6962
1349.000000 0.7014 0.7045 0.7071 0.7090 0.7094
1354.000000 0.7097 0.7101 0.7090 0.7093 0.7084
1359.000000 0.7061 0.7028 0.6982 0.6921 0.6835
1364.000000 0.6740 0.6643 0.6543 0.6223 0.5277
1369.000000 0.4331 0.4133 0.4180 0.5073 0.5704
1374.000000 0.6335 0.6965 0.7540 0.7543 0.7558
1379.000000 0.7536 0.7532 0.7525 0.7500 0.7464
1384.000000 0.7426 0.7387 0.7332 0.7275 0.7219
1389.000000 0.7165 0.7108 0.7053 0.6998 0.6942
1394.000000 0.6887 0.6831 0.6775 0.6719 0.6675
1399.000000 0.6636 0.6597 0.6558 0.6518 0.6468
1404.000000 0.6418 0.6358 0.6269 0.5939 0.5704
1409.000000 0.5680 0.5672 0.5664 0.5657 0.5651
1414.000000 0.5634 0.5612 0.5583 0.5545 0.5409
1419.000000 0.5250 0.5091 0.4932 0.4773 0.4614
1424.000000 0.4455 0.4296 0.4137 0.3978 0.3818
1429.000000 0.3659 0.3502 0.3375 0.3275 0.3252
1434.000000 0.3255 0.3238 0.3318 0.3614 0.3982
1439.000000 0.4349 0.4716 0.5082 0.5449 0.5816
1444.000000 0.6183 0.6550 0.6917 0.7128 0.7126
1449.000000 0.7119 0.7145 0.6981 0.6724 0.6465
1454.000000 0.6208 0.6122 0.6128 0.6170 0.6237
1459.000000 0.6303 0.6330 0.6318 0.5706 0.5704
1464.000000 0.5704 0.5721 0.6283 0.6844 0.7406
1469.000000 0.7885 0.7956 0.8012 0.8060 0.8088
1474.000000 0.8115 0.8137 0.8156 0.8175 0.8193
1479.000000 0.8212 0.8228 0.8245 0.8261 0.8277
1484.000000 0.8293 0.8309 0.8321 0.8328 0.8336
1489.000000 0.8336 0.8335 0.8333 0.8320 0.8325
1494.000000 0.8323 0.8318 0.8314 0.8308 0.8302
1499.000000 0.8295 0.8289 0.8283 0.8277 0.8268
1504.000000 0.8261 0.8252 0.8244 0.8236 0.8228
1509.000000 0.8220 0.8212 0.8203 0.8193 0.8183
1514.000000 0.8172 0.8164 0.8154 0.8144 0.8134
1519.000000 0.8124 0.8112 0.8101 0.8091 0.8080
1524.000000 0.8068 0.8058 0.8047 0.8032 0.8017
1529.000000 0.8001 0.7987 0.7971 0.7957 0.7942
1534.000000 0.7922 0.7904 0.7884 0.7864 0.7845
1539.000000 0.7825 0.7806 0.7784 0.7761 0.7737
1544.000000 0.7714 0.7691 0.7668 0.7644 0.7598
1549.000000 0.7550 0.7501 0.7490 0.7480 0.7482
1554.000000 0.7485 0.7487 0.7489 0.7489 0.7490
1559.000000 0.7490 0.7478 0.7457 0.7418 0.7381
1564.000000 0.7354 0.7330 0.7312 0.7311 0.7311
1569.000000 0.7311 0.7314 0.7319 0.7325 0.7333
1574.000000 0.7341 0.7350 0.7358 0.7365 0.7362
1579.000000 0.7336 0.7285 0.7237 0.7191 0.7151
1584.000000 0.7111 0.7078 0.7051 0.7025 0.7000
1589.000000 0.6978 0.6958 0.6937 0.6922 0.6911
1594.000000 0.6900 0.6888 0.6878 0.6871 0.6862
1599.000000 0.6855 0.6848 0.6838 0.6828 0.6818
1604.000000 0.6800 0.6774 0.6743 0.6712 0.6668
1609.000000 0.6615 0.6561 0.6500 0.6438 0.6380
1614.000000 0.6321 0.6256 0.6183 0.6110 0.6037
1619.000000 0.5942 0.5847 0.5757 0.5678 0.5599
1624.000000 0.5514 0.5391 0.5269 0.5025 0.4769
1629.000000 0.4562 0.4297 0.3318 0.3062 0.2843
1634.000000 0.2495 0.2254 0.2179 0.2149 0.2134
1639.000000 0.2139 0.2151 0.2881 0.3373 0.3864
1644.000000 0.4357 0.4849 0.5341 0.5833 0.6414
1649.000000 0.6753 0.6787 0.6787 0.6792 0.6760
1654.000000 0.6653 0.6601 0.6546 0.6482 0.6390
1659.000000 0.6283 0.6023 0.5939 0.5906 0.5870
1664.000000 0.5817 0.5755 0.5690 0.5632 0.5583
1669.000000 0.5471 0.5272 0.5073 0.4874 0.4676
1674.000000 0.4477 0.4278 0.4079 0.3880 0.3680
1679.000000 0.3482 0.3282 0.3084 0.2884 0.2685
1684.000000 0.2487 0.2206 0.1992 0.1819 0.1676
1689.000000 0.1491 0.1348 0.1238 0.1199 0.1167
1694.000000 0.1138 0.1136 0.1134 0.1133 0.1158
1699.000000 0.1163 0.1248 0.1365 0.1454 0.1563
1704.000000 0.1678 0.1783 0.1877 0.2015 0.2153
1709.000000 0.2291 0.2429 0.2567 0.2652 0.2650
1714.000000 0.2664 0.2318 0.2103 0.1887 0.1673
1719.000000 0.1458 0.1242 0.1238 0.1261 0.1649
1724.000000 0.1941 0.2233 0.2525 0.2817 0.2987
1729.000000 0.3091 0.3639 0.4543 0.4785 0.5027
1734.000000 0.5269 0.5490 0.5734 0.6054 0.6268
1739.000000 0.6480 0.6665 0.6851 0.7025 0.7165
1744.000000 0.7304 0.7424 0.7517 0.7611 0.7699
1749.000000 0.7761 0.7825 0.7889 0.7951 0.8008
1754.000000 0.8061 0.8112 0.8158 0.8200 0.8239
1759.000000 0.8268 0.8292 0.8310 0.8328 0.8346
1764.000000 0.8364 0.8382 0.8400 0.8413 0.8418
1769.000000 0.8424 0.8430 0.8436 0.8441 0.8447
1774.000000 0.8453 0.8458 0.8464 0.8470 0.8475
1779.000000 0.8480 0.8485 0.8490 0.8495 0.8500
1784.000000 0.8505 0.8510 0.8516 0.8528 0.8549
1789.000000 0.8570 0.8591 0.8610 0.8625 0.8641
1794.000000 0.8657 0.8671 0.8687 0.8698 0.8709
1799.000000 0.8720 0.8730 0.8737 0.8743 0.8749
1804.000000 0.8756 0.8761 0.8764 0.8767 0.8771
1809.000000 0.8774 0.8777 0.8780 0.8783 0.8787
1814.000000 0.8791 0.8795 0.8799 0.8803 0.8807
1819.000000 0.8811 0.8814 0.8818 0.8821 0.8825
1824.000000 0.8828 0.8831 0.8834 0.8837 0.8839
1829.000000 0.8842 0.8844 0.8844 0.8844 0.8843
1834.000000 0.8842 0.8841 0.8840 0.8839 0.8859
1839.000000 0.8834 0.8832 0.8828 0.8827 0.8825
1844.000000 0.8821 0.8818 0.8815 0.8812 0.8809
1849.000000 0.8801 0.8794 0.8787 0.8780 0.8771
1854.000000 0.8765 0.8755 0.8744 0.8734 0.8723
1859.000000 0.8713 0.8702 0.8686 0.8671 0.8656
1864.000000 0.8641 0.8625 0.8611 0.8596 0.8596
1869.000000 0.8596 0.8597 0.8609 0.8621 0.8635
1874.000000 0.8648 0.8658 0.8662 0.8661 0.8660
1879.000000 0.8658 0.8655 0.8653 0.8649 0.8640
1884.000000 0.8632 0.8623 0.8640 0.8657 0.8673
1889.000000 0.8687 0.8701 0.8714 0.8721 0.8728
1894.000000 0.8735 0.8738 0.8740 0.8743 0.8745
1899.000000 0.8747 0.8749 0.8753 0.8756 0.8760
1904.000000 0.8764 0.8767 0.8771 0.8775 0.8778
1909.000000 0.8782 0.8786 0.8789 0.8792 0.8795
1914.000000 0.8798 0.8802 0.8805 0.8808 0.8811
1919.000000 0.8814 0.8817 0.8820 0.8821 0.8823
1924.000000 0.8824 0.8825 0.8825 0.8827 0.8827
1929.000000 0.8828 0.8828 0.8828 0.8828 0.8827
1934.000000 0.8827 0.8825 0.8825 0.8825 0.8825
1939.000000 0.8825 0.8825 0.8825 0.8827 0.8827
1944.000000 0.8825 0.8825 0.8823 0.8821 0.8818
1949.000000 0.8816 0.8802 0.8786 0.8773 0.8783
1954.000000 0.8813 0.8840 0.8860 0.8875 0.8881
1959.000000 0.8885 0.8885 0.8884 0.8883 0.8882
1964.000000 0.8880 0.8878 0.8875 0.8874 0.8871
1969.000000 0.8871 0.8870 0.8870 0.8868 0.8868
1974.000000 0.8868 0.8867 0.8866 0.8866 0.8865
1979.000000 0.8863 0.8859 0.8855 0.8851 0.8847
1984.000000 0.8843 0.8838 0.8832 0.8825 0.8820
1989.000000 0.8847 0.8894 0.8941 0.8988 0.9035
1994.000000 0.9082 0.9128 0.9175 0.9223 0.9228
1999.000000 0.9225 0.9223 0.9220 0.9218 0.9217
2004.000000 0.9216 0.9213 0.9211 0.9209 0.9207
2009.000000 0.9205 0.9203 0.9199 0.9195 0.9191
2014.000000 0.9188 0.9184 0.9180 0.9175 0.9171
2019.000000 0.9166 0.9162 0.9157 0.9153 0.9148
2024.000000 0.9144 0.9139 0.9135 0.9131 0.9127
2029.000000 0.9123 0.9120 0.9116 0.9112 0.9109
2034.000000 0.9091 0.9104 0.9102 0.9099 0.9096
2039.000000 0.9093 0.9091 0.9088 0.9085 0.9084
2044.000000 0.9083 0.9082 0.9081 0.9080 0.9078
2049.000000 0.9078 0.9077 0.9075 0.9074 0.9073
2054.000000 0.9071 0.9071 0.9071 0.9070 0.9068
2059.000000 0.9068 0.9067 0.9066 0.9066 0.9064
2064.000000 0.9063 0.9060 0.9058 0.9055 0.9052
2069.000000 0.9049 0.9046 0.9043 0.9040 0.9037
2074.000000 0.9034 0.9031 0.9028 0.9024 0.9020
2079.000000 0.9016 0.9012 0.9008 0.9005 0.9001
2084.000000 0.8997 0.8993 0.8989 0.8985 0.8982
2089.000000 0.8978 0.8974 0.8968 0.8965 0.8961
2094.000000 0.8957 0.8952 0.8948 0.8943 0.8939
2099.000000 0.8934 0.8930 0.8925 0.8921 0.8917
2104.000000 0.8913 0.8908 0.8904 0.8900 0.8896
2109.000000 0.8891 0.8887 0.8882 0.8878 0.8874
2114.000000 0.8870 0.8866 0.8862 0.8858 0.8855
2119.000000 0.8851 0.8847 0.8843 0.8840 0.8836
2124.000000 0.8832 0.8828 0.8825 0.8821 0.8817
2129.000000 0.8813 0.8810 0.8806 0.8802 0.8798
2134.000000 0.8795 0.8791 0.8787 0.8783 0.8780
2139.000000 0.8775 0.8771 0.8766 0.8762 0.8758
2144.000000 0.8754 0.8749 0.8745 0.8740 0.8736
2149.000000 0.8732 0.8728 0.8723 0.8718 0.8714
2154.000000 0.8710 0.8706 0.8702 0.8697 0.8693
2159.000000 0.8689 0.8685 0.8681 0.8677 0.8671
2164.000000 0.8668 0.8664 0.8660 0.8656 0.8652
2169.000000 0.8647 0.8643 0.8639 0.8635 0.8631
2174.000000 0.8627 0.8621 0.8618 0.8614 0.8610
2179.000000 0.8606 0.8602 0.8598 0.8595 0.8592
2184.000000 0.8590 0.8588 0.8586 0.8583 0.8581
2189.000000 0.8578 0.8575 0.8573 0.8571 0.8571
2194.000000 0.8571 0.8571 0.8571 0.8571 0.8571
2199.000000 0.8571 0.8571 0.8567 0.8563 0.8556
2204.000000 0.8549 0.8541 0.8534 0.8525 0.8517
2209.000000 0.8507 0.8497 0.8487 0.8477 0.8466
2214.000000 0.8456 0.8447 0.8438 0.8430 0.8423
2219.000000 0.8415 0.8408 0.8400 0.8393 0.8385
2224.000000 0.8378 0.8370 0.8362 0.8354 0.8347
2229.000000 0.8339 0.8331 0.8323 0.8316 0.8308
2234.000000 0.8300 0.8292 0.8285 0.8278 0.8271
2239.000000 0.8265 0.8260 0.8254 0.8249 0.8243
2244.000000 0.8238 0.8232 0.8227 0.8221 0.8215
2249.000000 0.8210 0.8206 0.8201 0.8197 0.8192
2254.000000 0.8188 0.8183 0.8178 0.8174 0.8169
2259.000000 0.8165 0.8161 0.8156 0.8151 0.8148
2264.000000 0.8145 0.8141 0.8138 0.8135 0.8132
2269.000000 0.8128 0.8125 0.8121 0.8118 0.8114
2274.000000 0.8111 0.8107 0.8104 0.8100 0.8097
2279.000000 0.8094 0.8091 0.8087 0.8083 0.8078
2284.000000 0.8075 0.8071 0.8068 0.8064 0.8060
2289.000000 0.8056 0.8053 0.8049 0.8045 0.8039
2294.000000 0.8033 0.8024 0.8015 0.8006 0.7997
2299.000000 0.7990 0.7984 0.7985 0.7987 0.7989
2304.000000 0.7991 0.7992 0.7994 0.7996 0.7998
2309.000000 0.8001 0.8005 0.8012 0.8021 0.8028
2314.000000 0.8037 0.8046 0.8056 0.8065 0.8074
2319.000000 0.8083 0.8093 0.8101 0.8111 0.8118
2324.000000 0.8124 0.8121 0.8121 0.8118 0.8117
2329.000000 0.8114 0.8111 0.8108 0.8104 0.8100
2334.000000 0.8096 0.8092 0.8088 0.8082 0.8076
2339.000000 0.8071 0.8065 0.8058 0.8051 0.8045
2344.000000 0.8038 0.8031 0.8025 0.8022 0.8021
2349.000000 0.8019 0.8018 0.8018 0.8017 0.8012
2354.000000 0.8008 0.8003 0.7997 0.7986 0.7975
2359.000000 0.7965 0.7956 0.7945 0.7935 0.7925
2364.000000 0.7915 0.7907 0.7898 0.7889 0.7880
2369.000000 0.7871 0.7861 0.7853 0.7844 0.7835
2374.000000 0.7826 0.7818 0.7811 0.7803 0.7796
2379.000000 0.7788 0.7780 0.7771 0.7764 0.7758
2384.000000 0.7755 0.7751 0.7747 0.7743 0.7739
2389.000000 0.7734 0.7730 0.7725 0.7721 0.7718
2394.000000 0.7714 0.7710 0.7706 0.7701 0.7698
2399.000000 0.7693 0.7689 0.7685 0.7681 0.7676
2404.000000 0.7672 0.7668 0.7665 0.7661 0.7657
2409.000000 0.7653 0.7649 0.7645 0.7641 0.7637
2414.000000 0.7633 0.7626 0.7621 0.7615 0.7608
2419.000000 0.7603 0.7598 0.7592 0.7586 0.7580
2424.000000 0.7574 0.7568 0.7561 0.7556 0.7551
2429.000000 0.7545 0.7539 0.7532 0.7525 0.7518
2434.000000 0.7511 0.7505 0.7498 0.7491 0.7485
2439.000000 0.7478 0.7471 0.7465 0.7458 0.7451
2444.000000 0.7445 0.7438 0.7431 0.7424 0.7418
2449.000000 0.7411 0.7405 0.7398 0.7391 0.7384
2454.000000 0.7378 0.7369 0.7362 0.7353 0.7344
2459.000000 0.7334 0.7324 0.7314 0.7305 0.7295
2464.000000 0.7285 0.7275 0.7265 0.7255 0.7246
2469.000000 0.7236 0.7225 0.7215 0.7207 0.7197
2474.000000 0.7187 0.7175 0.7165 0.7155 0.7145
2479.000000 0.7134 0.7122 0.7111 0.7101 0.7091
2484.000000 0.7081 0.7069 0.7060 0.7049 0.7038
2489.000000 0.7026 0.7017 0.7006 0.6996 0.6985
2494.000000 0.6975 0.6964 0.6953 0.6942 0.6932
2499.000000 0.6921 0.6911 0.6899 0.6888 0.6875
2504.000000 0.6862 0.6850 0.6837 0.6824 0.6811
2509.000000 0.6798 0.6786 0.6772 0.6760 0.6747
2514.000000 0.6735 0.6721 0.6708 0.6696 0.6684
2519.000000 0.6671 0.6658 0.6639 0.6621 0.6588
2524.000000 0.6555 0.6521 0.6488 0.6464 0.6440
2529.000000 0.6418 0.6397 0.6389 0.6389 0.6389
2534.000000 0.6388 0.6405 0.6412 0.6424 0.6435
2539.000000 0.6447 0.6458 0.6471 0.6484 0.6515
2544.000000 0.6549 0.6590 0.6632 0.6669 0.6708
2549.000000 0.6741 0.6774 0.6803 0.6832 0.6860
2554.000000 0.6889 0.6898 0.6908 0.6908 0.6910
2559.000000 0.6911 0.6911 0.6911 0.6911 0.6908
2564.000000 0.6907 0.6905 0.6903 0.6897 0.6892
2569.000000 0.6886 0.6880 0.6874 0.6868 0.6862
2574.000000 0.6857 0.6850 0.6843 0.6835 0.6826
2579.000000 0.6818 0.6811 0.6803 0.6795 0.6787
2584.000000 0.6780 0.6774 0.6774 0.6772 0.6776
2589.000000 0.6781 0.6785 0.6789 0.6793 0.6797
2594.000000 0.6801 0.6806 0.6811 0.6815 0.6818
2599.000000 0.6822 0.6828 0.6832 0.6837 0.6841
2604.000000 0.6845 0.6849 0.6854 0.6858 0.6862
2609.000000 0.6867 0.6871 0.6871 0.6869 0.6868
2614.000000 0.6868 0.6867 0.6872 0.6862 0.6860
2619.000000 0.6855 0.6851 0.6846 0.6841 0.6836
2624.000000 0.6832 0.6825 0.6821 0.6815 0.6808
2629.000000 0.6803 0.6797 0.6788 0.6778 0.6768
2634.000000 0.6757 0.6746 0.6736 0.6722 0.6711
2639.000000 0.6695 0.6678 0.6661 0.6646 0.6630
2644.000000 0.6615 0.6601 0.6590 0.6576 0.6564
2649.000000 0.6551 0.6539 0.6525 0.6514 0.6501
2654.000000 0.6489 0.6475 0.6461 0.6447 0.6433
2659.000000 0.6418 0.6405 0.6395 0.6386 0.6378
2664.000000 0.6371 0.6362 0.6355 0.6354 0.6354
2669.000000 0.6356 0.6356 0.6360 0.6362 0.6365
2674.000000 0.6367 0.6369 0.6371 0.6373 0.6375
2679.000000 0.6380 0.6385 0.6391 0.6398 0.6404
2684.000000 0.6410 0.6417 0.6424 0.6431 0.6438
2689.000000 0.6444 0.6451 0.6458 0.6465 0.6471
2694.000000 0.6480 0.6487 0.6495 0.6503 0.6511
2699.000000 0.6518 0.6526 0.6534 0.6542 0.6550
2704.000000 0.6558 0.6565 0.6575 0.6584 0.6593
2709.000000 0.6601 0.6611 0.6618 0.6628 0.6635
2714.000000 0.6643 0.6648 0.6658 0.6654 0.6654
2719.000000 0.6654 0.6653 0.6651 0.6650 0.6646
2724.000000 0.6642 0.6638 0.6635 0.6631 0.6626
2729.000000 0.6619 0.6612 0.6605 0.6597 0.6589
2734.000000 0.6581 0.6572 0.6565 0.6556 0.6548
2739.000000 0.6540 0.6532 0.6524 0.6515 0.6508
2744.000000 0.6500 0.6491 0.6483 0.6475 0.6467
2749.000000 0.6458 0.6450 0.6442 0.6434 0.6425
2754.000000 0.6417 0.6408 0.6400 0.6392 0.6384
2759.000000 0.6375 0.6367 0.6358 0.6350 0.6341
2764.000000 0.6332 0.6322 0.6312 0.6302 0.6292
2769.000000 0.6282 0.6272 0.6260 0.6251 0.6241
2774.000000 0.6231 0.6221 0.6210 0.6200 0.6189
2779.000000 0.6176 0.6162 0.6150 0.6137 0.6124
2784.000000 0.6110 0.6098 0.6085 0.6072 0.6060
2789.000000 0.6047 0.6034 0.6022 0.6010 0.5999
2794.000000 0.5988 0.5976 0.5965 0.5954 0.5943
2799.000000 0.5931 0.5920 0.5909 0.5898 0.5886
2804.000000 0.5875 0.5865 0.5855 0.5847 0.5839
2809.000000 0.5831 0.5823 0.5815 0.5807 0.5798
2814.000000 0.5790 0.5782 0.5774 0.5766 0.5758
2819.000000 0.5750 0.5742 0.5734 0.5726 0.5718
2824.000000 0.5710 0.5703 0.5695 0.5687 0.5680
2829.000000 0.5672 0.5665 0.5657 0.5649 0.5641
2834.000000 0.5634 0.5626 0.5619 0.5610 0.5604
2839.000000 0.5596 0.5588 0.5580 0.5573 0.5566
2844.000000 0.5559 0.5551 0.5544 0.5536 0.5529
2849.000000 0.5521 0.5514 0.5506 0.5499 0.5492
2854.000000 0.5485 0.5477 0.5470 0.5462 0.5455
2859.000000 0.5448 0.5442 0.5435 0.5429 0.5422
2864.000000 0.5416 0.5409 0.5403 0.5396 0.5390
2869.000000 0.5383 0.5377 0.5370 0.5337 0.5357
2874.000000 0.5350 0.5348 0.5349 0.5349 0.5352
2879.000000 0.5357 0.5362 0.5368 0.5374 0.5379
2884.000000 0.5385 0.5391 0.5398 0.5405 0.5412
2889.000000 0.5419 0.5427 0.5434 0.5441 0.5448
2894.000000 0.5455 0.5462 0.5469 0.5476 0.5484
2899.000000 0.5491 0.5499 0.5506 0.5514 0.5521
2904.000000 0.5529 0.5532 0.5535 0.5536 0.5538
2909.000000 0.5539 0.5541 0.5542 0.5544 0.5545
2914.000000 0.5547 0.5548 0.5549 0.5549 0.5550
2919.000000 0.5550 0.5550 0.5550 0.5550 0.5550
2924.000000 0.5551 0.5551 0.5551 0.5541 0.5532
2929.000000 0.5512 0.5492 0.5466 0.5440 0.5417
2934.000000 0.5394 0.5384 0.5375 0.5365 0.5356
2939.000000 0.5348 0.5341 0.5341 0.5342 0.5342
2944.000000 0.5343 0.5345 0.5347 0.5349 0.5352
2949.000000 0.5354 0.5356 0.5349 0.5342 0.5322
2954.000000 0.5303 0.5280 0.5257 0.5234 0.5212
2959.000000 0.5191 0.5171 0.5152 0.5133 0.5112
2964.000000 0.5094 0.5074 0.5055 0.5037 0.5020
2969.000000 0.5016 0.5012 0.5010 0.5009 0.4992
2974.000000 0.4976 0.4923 0.4871 0.4719 0.4568
2979.000000 0.4506 0.4444 0.4420 0.4396 0.4396
2984.000000 0.4414 0.4407 0.4418 0.4482 0.4546
2989.000000 0.4575 0.4605 0.4634 0.4664 0.4712
2994.000000 0.4760 0.4899 0.5038 0.5188 0.5339
2999.000000 0.5355 0.5372 0.5377 0.5382 0.5383
3004.000000 0.5383 0.5383 0.5383 0.5382 0.5381
3009.000000 0.5380 0.5379 0.5379 0.5380 0.5380
3014.000000 0.5381 0.5382 0.5383 0.5391 0.5399
3019.000000 0.5410 0.5424 0.5437 0.5451 0.5481
3024.000000 0.5510 0.5540 0.5569 0.5586 0.5603
3029.000000 0.5612 0.5624 0.5630 0.5637 0.5639
3034.000000 0.5639 0.5639 0.5638 0.5636 0.5635
3039.000000 0.5631 0.5645 0.5622 0.5617 0.5610
3044.000000 0.5604 0.5597 0.5591 0.5578 0.5566
3049.000000 0.5552 0.5539 0.5525 0.5512 0.5499
3054.000000 0.5486 0.5473 0.5460 0.5447 0.5434
3059.000000 0.5426 0.5419 0.5419 0.5419 0.5414
3064.000000 0.5409 0.5402 0.5396 0.5373 0.5351
3069.000000 0.5269 0.5187 0.5105 0.5024 0.4942
3074.000000 0.4860 0.4805 0.4750 0.4754 0.4769
3079.000000 0.4978 0.5197 0.5416 0.5635 0.5702
3084.000000 0.5770 0.5787 0.5805 0.5870 0.5936
3089.000000 0.6001 0.6066 0.6091 0.6116 0.6127
3094.000000 0.6139 0.6146 0.6154 0.6160 0.6168
3099.000000 0.6175 0.6183 0.6190 0.6197 0.6204
3104.000000 0.6210 0.6217 0.6224 0.6231 0.6238
3109.000000 0.6244 0.6251 0.6258 0.6265 0.6272
3114.000000 0.6280 0.6287 0.6294 0.6301 0.6309
3119.000000 0.6316 0.6324 0.6332 0.6340 0.6350
3124.000000 0.6360 0.6371 0.6382 0.6392 0.6403
3129.000000 0.6412 0.6424 0.6434 0.6445 0.6455
3134.000000 0.6465 0.6476 0.6488 0.6498 0.6508
3139.000000 0.6518 0.6530 0.6540 0.6551 0.6561
3144.000000 0.6571 0.6582 0.6593 0.6604 0.6615
3149.000000 0.6625 0.6636 0.6646 0.6657 0.6667
3154.000000 0.6678 0.6689 0.6700 0.6710 0.6721
3159.000000 0.6732 0.6743 0.6754 0.6765 0.6775
3164.000000 0.6786 0.6797 0.6808 0.6818 0.6830
3169.000000 0.6840 0.6851 0.6861 0.6872 0.6883
3174.000000 0.6894 0.6905 0.6917 0.6928 0.6940
3179.000000 0.6951 0.6961 0.6972 0.6985 0.6996
3184.000000 0.7007 0.7018 0.7030 0.7041 0.7053
3189.000000 0.7062 0.7072 0.7082 0.7092 0.7101
3194.000000 0.7111 0.7121 0.7131 0.7140 0.7150
3199.000000 0.7158 0.7168 0.7178 0.7189 0.7198
3204.000000 0.7208 0.7217 0.7225 0.7235 0.7244
3209.000000 0.7253 0.7261 0.7271 0.7280 0.7289
3214.000000 0.7298 0.7307 0.7315 0.7325 0.7334
3219.000000 0.7343 0.7353 0.7364 0.7375 0.7387
3224.000000 0.7399 0.7410 0.7421 0.7433 0.7445
3229.000000 0.7456 0.7468 0.7478 0.7491 0.7501
3234.000000 0.7512 0.7524 0.7536 0.7546 0.7557
3239.000000 0.7565 0.7574 0.7582 0.7590 0.7598
3244.000000 0.7607 0.7615 0.7624 0.7632 0.7641
3249.000000 0.7649 0.7658 0.7665 0.7675 0.7682
3254.000000 0.7689 0.7696 0.7704 0.7711 0.7718
3259.000000 0.7725 0.7732 0.7739 0.7746 0.7753
3264.000000 0.7761 0.7767 0.7772 0.7778 0.7784
3269.000000 0.7790 0.7796 0.7801 0.7807 0.7811
3274.000000 0.7817 0.7818 0.7821 0.7824 0.7826
3279.000000 0.7828 0.7832 0.7834 0.7837 0.7839
3284.000000 0.7841 0.7843 0.7846 0.7847 0.7849
3289.000000 0.7850 0.7851 0.7851 0.7853 0.7857
3294.000000 0.7861 0.7864 0.7868 0.7871 0.7875
3299.000000 0.7880 0.7885 0.7890 0.7896 0.7901
3304.000000 0.7907 0.7911 0.7918 0.7922 0.7928
3309.000000 0.7933 0.7938 0.7943 0.7948 0.7953
3314.000000 0.7958 0.7962 0.7968 0.7972 0.7978
3319.000000 0.7983 0.7988 0.7993 0.7999 0.8001
3324.000000 0.8005 0.8007 0.8010 0.8011 0.8014
3329.000000 0.8015 0.8018 0.8021 0.8022 0.8025
3334.000000 0.8026 0.8026 0.8028 0.8028 0.8030
3339.000000 0.8030 0.8031 0.8031 0.8032 0.8032
3344.000000 0.8033 0.8033 0.8033 0.8033 0.8034
3349.000000 0.8034 0.8034 0.8033 0.8033 0.8033
3354.000000 0.8033 0.8032 0.8032 0.8033 0.8035
3359.000000 0.8037 0.8040 0.8043 0.8046 0.8048
3364.000000 0.8051 0.8054 0.8057 0.8058 0.8061
3369.000000 0.8061 0.8062 0.8062 0.8061 0.8061
3374.000000 0.8060 0.8057 0.8054 0.8050 0.8047
3379.000000 0.8043 0.8039 0.8035 0.8032 0.8028
3384.000000 0.8024 0.8019 0.8017 0.8012 0.8008
3389.000000 0.8005 0.8001 0.7997 0.7993 0.7989
3394.000000 0.7985 0.7981 0.7976 0.7972 0.7968
3399.000000 0.7965 0.7961 0.7957 0.7951 0.7944
3404.000000 0.7936 0.7926 0.7918 0.7908 0.7900
3409.000000 0.7891 0.7882 0.7876 0.7876 0.7876
3414.000000 0.7882 0.7895 0.7908 0.7925 0.7942
3419.000000 0.7955 0.7968 0.7982 0.7995 0.8001
3424.000000 0.8008 0.8011 0.8015 0.8018 0.8021
3429.000000 0.8025 0.8028 0.8032 0.8035 0.8037
3434.000000 0.8040 0.8042 0.8045 0.8044 0.8043
3439.000000 0.8042 0.8041 0.8039 0.8037 0.8032
3444.000000 0.8028 0.8022 0.8018 0.8011 0.8007
3449.000000 0.8005 0.8004 0.8001 0.8001 0.8000
3454.000000 0.7999 0.7998 0.7998 0.7997 0.7997
3459.000000 0.7996 0.7995 0.7995 0.7996 0.7996
3464.000000 0.7996 0.7996 0.7997 0.7997 0.7997
3469.000000 0.7997 0.7997 0.7997 0.7997 0.7994
3474.000000 0.7992 0.7989 0.7987 0.7984 0.7982
3479.000000 0.7978 0.7976 0.7974 0.7971 0.7969
3484.000000 0.7968 0.7965 0.7965 0.7962 0.7961
3489.000000 0.7960 0.7958 0.7956 0.7955 0.7953
3494.000000 0.7951 0.7951 0.7950 0.7949 0.7948
3499.000000 0.7947 0.7947 0.7946 0.7945 0.7944
3504.000000 0.7943 0.7942 0.7941 0.7940 0.7940
3509.000000 0.7939 0.7938 0.7937 0.7936 0.7935
3514.000000 0.7934 0.7933 0.7932 0.7931 0.7930
3519.000000 0.7928 0.7928 0.7926 0.7926 0.7925
3524.000000 0.7925 0.7924 0.7922 0.7921 0.7921
3529.000000 0.7919 0.7918 0.7918 0.7917 0.7915
3534.000000 0.7915 0.7914 0.7912 0.7911 0.7911
3539.000000 0.7910 0.7908 0.7908 0.7907 0.7906
3544.000000 0.7905 0.7904 0.7903 0.7901 0.7901
3549.000000 0.7900 0.7900 0.7899 0.7899 0.7899
3554.000000 0.7899 0.7898 0.7898 0.7897 0.7897
3559.000000 0.7896 0.7896 0.7895 0.7895 0.7895
3564.000000 0.7895 0.7894 0.7894 0.7893 0.7893
3569.000000 0.7892 0.7892 0.7892 0.7892 0.7891
3574.000000 0.7890 0.7888 0.7887 0.7886 0.7885
3579.000000 0.7883 0.7882 0.7880 0.7878 0.7876
3584.000000 0.7875 0.7874 0.7872 0.7871 0.7868
3589.000000 0.7867 0.7865 0.7864 0.7861 0.7860
3594.000000 0.7858 0.7856 0.7854 0.7851 0.7851
3599.000000 0.7849 0.7847 0.7845 0.7843 0.7841
3604.000000 0.7839 0.7837 0.7836 0.7834 0.7832
3609.000000 0.7830 0.7828 0.7825 0.7824 0.7821
3614.000000 0.7819 0.7818 0.7817 0.7815 0.7815
3619.000000 0.7812 0.7811 0.7810 0.7808 0.7808
3624.000000 0.7807 0.7805 0.7804 0.7801 0.7801
3629.000000 0.7800 0.7799 0.7797 0.7796 0.7794
3634.000000 0.7793 0.7792 0.7791 0.7789 0.7788
3639.000000 0.7786 0.7785 0.7783 0.7782 0.7780
3644.000000 0.7778 0.7775 0.7774 0.7771 0.7769
3649.000000 0.7767 0.7765 0.7762 0.7761 0.7758
3654.000000 0.7757 0.7755 0.7753 0.7751 0.7749
3659.000000 0.7747 0.7745 0.7743 0.7741 0.7739
3664.000000 0.7737 0.7735 0.7733 0.7731 0.7728
3669.000000 0.7726 0.7725 0.7722 0.7721 0.7718
3674.000000 0.7718 0.7715 0.7715 0.7712 0.7711
3679.000000 0.7710 0.7708 0.7707 0.7706 0.7704
3684.000000 0.7703 0.7701 0.7700 0.7698 0.7697
3689.000000 0.7695 0.7694 0.7692 0.7691 0.7690
3694.000000 0.7689 0.7688 0.7687 0.7686 0.7685
3699.000000 0.7684 0.7683 0.7682 0.7681 0.7680
3704.000000 0.7678 0.7676 0.7675 0.7672 0.7671
3709.000000 0.7668 0.7665 0.7664 0.7661 0.7658
3714.000000 0.7657 0.7654 0.7651 0.7650 0.7648
3719.000000 0.7645 0.7643 0.7640 0.7638 0.7636
3724.000000 0.7634 0.7631 0.7628 0.7625 0.7624
3729.000000 0.7621 0.7618 0.7615 0.7612 0.7610
3734.000000 0.7608 0.7605 0.7603 0.7600 0.7598
3739.000000 0.7595 0.7593 0.7590 0.7588 0.7585
3744.000000 0.7582 0.7578 0.7576 0.7575 0.7572
3749.000000 0.7569 0.7568 0.7565 0.7562 0.7560
3754.000000 0.7558 0.7556 0.7554 0.7551 0.7549
3759.000000 0.7546 0.7544 0.7541 0.7539 0.7537
3764.000000 0.7535 0.7532 0.7530 0.7526 0.7525
3769.000000 0.7521 0.7519 0.7517 0.7515 0.7512
3774.000000 0.7511 0.7508 0.7506 0.7503 0.7501
3779.000000 0.7498 0.7496 0.7494 0.7492 0.7489
3784.000000 0.7487 0.7484 0.7482 0.7478 0.7476
3789.000000 0.7475 0.7472 0.7469 0.7468 0.7465
3794.000000 0.7462 0.7461 0.7461
##END=
