##TITLE=POLYPROPYLENE GLYCOL 425
$$COMMERCIAL PRODUCT
##JCAMP-DX=4.24
##DATA TYPE=INFRARED SPECTRUM
##CLASS=COBLENTZ
##OWNER=COBLENTZ SOCIETY
Collection (C) 2018 copyright by the U.S. Secretary of Commerce
on behalf of the United States of America. All rights reserved.
##DATE=Not specified, most likely prior to 1970
##CAS REGISTRY NO=25322-69-4
##MOLFORM=C3 H8 O2
##SOURCE REFERENCE=COBLENTZ NO. 3679
##$NIST SOURCE=COBLENTZ
##$NIST IMAGE=cob3679
##SPECTROMETER/DATA SYSTEM=PERKIN-ELMER
##STATE=LIQUID
##PATH LENGTH=SMEAR
##SAMPLING PROCEDURE=TRANSMISSION
##RESOLUTION=4
##DATA PROCESSING=DIGITIZED BY NIST FROM HARD COPY
##XUNITS=MICROMETERS
##YUNITS=TRANSMITTANCE
##XFACTOR=1.000000
##YFACTOR=1
##DELTAX=000.006125
##FIRSTX=2.025
##LASTX=15.1016
##FIRSTY=0.909
##MAXX=15.1016
##MINX=2.025
##MAXY=0.935
##MINY=0.056
##NPOINTS=2136
##XYDATA=(X++(Y..Y))
2.025000 0.9090 0.9090 0.9100 0.9090 0.9090
2.055640 0.9090 0.9090 0.9100 0.9100 0.9100
2.086000 0.9100 0.9100 0.9100 0.9090 0.9090
2.116640 0.9090 0.9090 0.9090 0.9090 0.9090
2.147000 0.9090 0.9090 0.9070 0.9070 0.9090
2.177640 0.9100 0.9100 0.9120 0.9120 0.9120
2.208000 0.9120 0.9120 0.9100 0.9100 0.9100
2.238640 0.9100 0.9100 0.9100 0.9100 0.9090
2.270000 0.9060 0.9030 0.9010 0.9000 0.9000
2.300640 0.8980 0.8950 0.8950 0.8950 0.8930
2.331000 0.8890 0.8860 0.8840 0.8870 0.8890
2.361640 0.8900 0.8930 0.8950 0.8960 0.8980
2.392000 0.9000 0.9000 0.9000 0.9010 0.9010
2.422640 0.9010 0.9010 0.9010 0.9000 0.8980
2.453000 0.8980 0.8960 0.8960 0.8950 0.8930
2.483640 0.8920 0.8900 0.8900 0.8890 0.8870
2.515000 0.8870 0.8890 0.8900 0.8920 0.8930
2.545640 0.8960 0.9000 0.9010 0.9010 0.9030
2.576000 0.9040 0.9060 0.9060 0.9070 0.9100
2.606640 0.9100 0.9090 0.9070 0.9070 0.9070
2.637000 0.9070 0.9070 0.9090 0.9100 0.9130
2.667640 0.9160 0.9180 0.9180 0.9160 0.9150
2.698000 0.9130 0.9120 0.9120 0.9120 0.9100
2.728640 0.9100 0.9100 0.9090 0.9040 0.8980
2.760000 0.8930 0.8870 0.8730 0.8560 0.8350
2.790640 0.8120 0.7840 0.7630 0.7440 0.7330
2.821000 0.7060 0.6890 0.6560 0.6270 0.6010
2.851640 0.5760 0.5430 0.5290 0.5180 0.5000
2.882000 0.4890 0.4830 0.4810 0.4800 0.4780
2.912640 0.4780 0.4800 0.4870 0.4920 0.5000
2.943000 0.5030 0.5160 0.5290 0.5430 0.5580
2.973640 0.5690 0.5860 0.5920 0.6060 0.6150
3.005000 0.6320 0.6460 0.6550 0.6670 0.6780
3.035640 0.6860 0.6930 0.7060 0.7230 0.7290
3.066000 0.7400 0.7520 0.7580 0.7660 0.7780
3.096640 0.7860 0.7930 0.8010 0.8060 0.8120
3.127000 0.8150 0.8180 0.8230 0.8240 0.8300
3.157640 0.8430 0.8440 0.8490 0.8500 0.8520
3.188000 0.8530 0.8550 0.8630 0.8690 0.8690
3.218640 0.8690 0.8730 0.8780 0.8800 0.8800
3.250000 0.8800 0.8810 0.8830 0.8840 0.8860
3.280640 0.8860 0.8860 0.8860 0.8860 0.8840
3.311000 0.8830 0.8780 0.8750 0.8730 0.8630
3.341640 0.8460 0.8330 0.7900 0.6530 0.5230
3.372000 0.3870 0.3030 0.2600 0.2600 0.3010
3.402640 0.3980 0.4180 0.4180 0.3780 0.3200
3.433000 0.3000 0.2900 0.2870 0.2810 0.2730
3.463640 0.2660 0.2520 0.2490 0.2410 0.2400
3.495000 0.2350 0.2350 0.2360 0.2600 0.3070
3.525640 0.3580 0.4260 0.4810 0.5290 0.5730
3.556000 0.6200 0.6660 0.6750 0.6890 0.7000
3.586640 0.7060 0.7090 0.7150 0.7230 0.7410
3.617000 0.7530 0.7560 0.7610 0.7750 0.7780
3.647640 0.7810 0.7920 0.8000 0.8040 0.8100
3.678000 0.8150 0.8200 0.8240 0.8290 0.8320
3.708640 0.8380 0.8400 0.8440 0.8490 0.8520
3.740000 0.8530 0.8560 0.8580 0.8610 0.8630
3.770640 0.8640 0.8660 0.8690 0.8690 0.8700
3.801000 0.8700 0.8720 0.8730 0.8800 0.8800
3.831640 0.8810 0.8890 0.8930 0.8960 0.8980
3.862000 0.9000 0.9000 0.9000 0.9000 0.9000
3.892640 0.9010 0.9030 0.9060 0.9070 0.9090
3.923000 0.9100 0.9100 0.9130 0.9150 0.9150
3.953640 0.9160 0.9160 0.9160 0.9150 0.9150
3.985000 0.9150 0.9150 0.9150 0.9150 0.9150
4.015640 0.9160 0.9160 0.9160 0.9230 0.9240
4.046000 0.9240 0.9240 0.9240 0.9240 0.9240
4.076640 0.9230 0.9230 0.9230 0.9240 0.9260
4.107000 0.9270 0.9270 0.9270 0.9240 0.9230
4.137640 0.9210 0.9210 0.9230 0.9260 0.9260
4.168000 0.9270 0.9300 0.9300 0.9300 0.9290
4.198640 0.9270 0.9270 0.9260 0.9270 0.9300
4.230000 0.9300 0.9300 0.9320 0.9350 0.9350
4.260640 0.9330 0.9330 0.9330 0.9320 0.9320
4.291000 0.9320 0.9320 0.9300 0.9300 0.9300
4.321640 0.9300 0.9300 0.9300 0.9300 0.9320
4.352000 0.9320 0.9290 0.9290 0.9260 0.9260
4.382640 0.9260 0.9260 0.9240 0.9240 0.9240
4.413000 0.9240 0.9240 0.9230 0.9230 0.9230
4.443640 0.9230 0.9230 0.9210 0.9200 0.9180
4.475000 0.9180 0.9160 0.9160 0.9160 0.9150
4.505640 0.9130 0.9130 0.9130 0.9150 0.9160
4.536000 0.9180 0.9180 0.9160 0.9160 0.9160
4.566640 0.9160 0.9160 0.9160 0.9160 0.9160
4.597000 0.9160 0.9160 0.9180 0.9180 0.9180
4.627640 0.9180 0.9180 0.9180 0.9180 0.9160
4.658000 0.9160 0.9160 0.9160 0.9160 0.9160
4.688640 0.9180 0.9180 0.9210 0.9210 0.9200
4.720000 0.9180 0.9160 0.9160 0.9160 0.9150
4.750640 0.9150 0.9130 0.9130 0.9150 0.9130
4.781000 0.9130 0.9130 0.9130 0.9130 0.9130
4.811640 0.9130 0.9130 0.9130 0.9130 0.9120
4.842000 0.9120 0.9090 0.9130 0.9130 0.9120
4.872640 0.9090 0.9060 0.9090 0.9090 0.9090
4.903000 0.9090 0.9090 0.9090 0.9090 0.9090
4.933640 0.9090 0.9070 0.9070 0.9070 0.9070
4.965000 0.9070 0.9070 0.9070 0.9070 0.9070
4.995640 0.9070 0.9090 0.9060 0.9040 0.9100
5.026000 0.9100 0.9090 0.9090 0.9090 0.9070
5.056640 0.9060 0.9040 0.9040 0.9070 0.9090
5.087000 0.9090 0.9090 0.9090 0.9100 0.9100
5.117640 0.9100 0.9100 0.9120 0.9120 0.9130
5.148000 0.9130 0.9130 0.9130 0.9160 0.9180
5.178640 0.9160 0.9160 0.9160 0.9130 0.9130
5.210000 0.9130 0.9130 0.9130 0.9130 0.9130
5.240640 0.9130 0.9130 0.9130 0.9130 0.9130
5.271000 0.9130 0.9160 0.9180 0.9200 0.9200
5.301640 0.9180 0.9180 0.9200 0.9200 0.9200
5.332000 0.9210 0.9210 0.9210 0.9210 0.9210
5.362640 0.9210 0.9210 0.9210 0.9210 0.9210
5.393000 0.9210 0.9210 0.9210 0.9210 0.9210
5.423640 0.9240 0.9240 0.9240 0.9240 0.9230
5.455000 0.9230 0.9230 0.9230 0.9230 0.9230
5.485640 0.9230 0.9230 0.9230 0.9230 0.9230
5.516000 0.9230 0.9230 0.9230 0.9230 0.9240
5.546640 0.9240 0.9240 0.9240 0.9240 0.9230
5.577000 0.9210 0.9200 0.9200 0.9180 0.9180
5.607640 0.9200 0.9200 0.9210 0.9230 0.9230
5.638000 0.9230 0.9230 0.9230 0.9230 0.9230
5.668640 0.9230 0.9230 0.9230 0.9230 0.9230
5.700000 0.9230 0.9230 0.9210 0.9210 0.9240
5.730640 0.9260 0.9260 0.9240 0.9230 0.9230
5.761000 0.9210 0.9200 0.9200 0.9200 0.9200
5.791640 0.9180 0.9180 0.9180 0.9180 0.9200
5.822000 0.9200 0.9210 0.9230 0.9230 0.9230
5.852640 0.9230 0.9240 0.9240 0.9260 0.9260
5.883000 0.9260 0.9240 0.9210 0.9200 0.9180
5.913640 0.9180 0.9180 0.9160 0.9160 0.9160
5.945000 0.9160 0.9130 0.9130 0.9120 0.9120
5.975640 0.9100 0.9070 0.9070 0.9070 0.9040
6.006000 0.9030 0.9030 0.9010 0.9000 0.9000
6.036640 0.9000 0.9000 0.9000 0.9010 0.9010
6.067000 0.9000 0.8980 0.8980 0.8960 0.8960
6.097640 0.8960 0.8960 0.8980 0.8980 0.8960
6.128000 0.8960 0.8960 0.8980 0.9000 0.9010
6.158640 0.9030 0.9040 0.9060 0.9060 0.9060
6.190000 0.9060 0.9060 0.9060 0.9060 0.9060
6.220640 0.9070 0.9090 0.9090 0.9090 0.9090
6.251000 0.9090 0.9090 0.9090 0.9100 0.9100
6.281640 0.9100 0.9100 0.9100 0.9090 0.9090
6.312000 0.9100 0.9100 0.9100 0.9120 0.9120
6.342640 0.9120 0.9120 0.9130 0.9130 0.9130
6.373000 0.9130 0.9120 0.9120 0.9130 0.9130
6.403640 0.9130 0.9130 0.9150 0.9150 0.9130
6.435000 0.9120 0.9100 0.9130 0.9130 0.9130
6.465640 0.9130 0.9130 0.9130 0.9150 0.9150
6.496000 0.9150 0.9150 0.9150 0.9130 0.9120
6.526640 0.9100 0.9090 0.9090 0.9070 0.9070
6.557000 0.9070 0.9070 0.9060 0.9060 0.9040
6.587640 0.9030 0.9000 0.9000 0.9000 0.9000
6.618000 0.9010 0.9060 0.9060 0.9030 0.8950
6.648640 0.8900 0.8840 0.8830 0.8810 0.8780
6.680000 0.8690 0.8660 0.8610 0.8520 0.8360
6.710640 0.8200 0.7980 0.7780 0.7580 0.7410
6.741000 0.7270 0.7100 0.7000 0.6800 0.6730
6.771640 0.6670 0.6500 0.6320 0.6210 0.5950
6.802000 0.5730 0.5640 0.5500 0.5330 0.5240
6.832640 0.5160 0.5150 0.5150 0.5130 0.5070
6.863000 0.5000 0.4980 0.4980 0.5000 0.5070
6.893640 0.5330 0.5610 0.5690 0.6000 0.6150
6.925000 0.6360 0.6460 0.6580 0.6840 0.7010
6.955640 0.7070 0.7100 0.7210 0.7240 0.7260
6.986000 0.7300 0.7300 0.7270 0.7210 0.7210
7.016640 0.7160 0.7130 0.7090 0.7030 0.6930
7.047000 0.6900 0.6730 0.6660 0.6580 0.6500
7.077640 0.6490 0.6460 0.6380 0.6350 0.6320
7.108000 0.6300 0.6290 0.6240 0.6230 0.6210
7.138640 0.6200 0.6150 0.6090 0.6030 0.5930
7.170000 0.5840 0.5730 0.5630 0.5580 0.5430
7.200640 0.5040 0.4890 0.4630 0.4440 0.4200
7.231000 0.3920 0.3720 0.3550 0.3350 0.3180
7.261640 0.3070 0.3060 0.3070 0.3150 0.3260
7.292000 0.3630 0.4030 0.4400 0.4600 0.4950
7.322640 0.5090 0.5210 0.5400 0.5750 0.5800
7.353000 0.5890 0.5920 0.5960 0.5960 0.5860
7.383640 0.5760 0.5630 0.5600 0.5430 0.5350
7.415000 0.5330 0.5300 0.5290 0.5270 0.5290
7.445640 0.5330 0.5440 0.5500 0.5700 0.5730
7.476000 0.5730 0.5800 0.5860 0.5920 0.5980
7.506640 0.5980 0.6000 0.6000 0.6000 0.6000
7.537000 0.6000 0.6000 0.6000 0.5980 0.5980
7.567640 0.5980 0.5980 0.6000 0.6000 0.6030
7.598000 0.6060 0.6070 0.6070 0.6090 0.6090
7.628640 0.6090 0.6070 0.6060 0.6000 0.5930
7.660000 0.5840 0.5750 0.5720 0.5640 0.5610
7.690640 0.5580 0.5560 0.5560 0.5580 0.5580
7.721000 0.5610 0.5670 0.5730 0.5760 0.5810
7.751640 0.5830 0.5890 0.5890 0.5870 0.5860
7.782000 0.5860 0.5860 0.5860 0.5840 0.5810
7.812640 0.5810 0.5810 0.5810 0.5810 0.5810
7.843000 0.5800 0.5800 0.5800 0.5780 0.5780
7.873640 0.5780 0.5780 0.5780 0.5780 0.5760
7.905000 0.5760 0.5750 0.5750 0.5750 0.5750
7.935640 0.5750 0.5750 0.5750 0.5760 0.5840
7.966000 0.5890 0.5920 0.5950 0.6010 0.6030
7.996640 0.6120 0.6200 0.6210 0.6270 0.6300
8.027000 0.6350 0.6380 0.6410 0.6430 0.6490
8.057640 0.6600 0.6640 0.6690 0.6750 0.6780
8.088000 0.6800 0.6930 0.7060 0.7130 0.7150
8.118640 0.7150 0.7230 0.7380 0.7400 0.7530
8.150000 0.7580 0.7640 0.7670 0.7700 0.7730
8.180640 0.7750 0.7750 0.7750 0.7780 0.7860
8.211000 0.7870 0.7890 0.7890 0.7900 0.7900
8.241640 0.7900 0.7920 0.7920 0.7960 0.7960
8.272000 0.7930 0.7930 0.7900 0.7860 0.7830
8.302640 0.7810 0.7800 0.7780 0.7780 0.7780
8.333000 0.7760 0.7750 0.7670 0.7610 0.7580
8.363640 0.7520 0.7460 0.7410 0.7260 0.7240
8.395000 0.7100 0.6900 0.6830 0.6690 0.6630
8.425640 0.6460 0.6380 0.6320 0.6150 0.5840
8.456000 0.5560 0.5440 0.5300 0.5130 0.5090
8.486640 0.5010 0.4760 0.4660 0.4500 0.4380
8.517000 0.4240 0.4070 0.4000 0.3890 0.3730
8.547640 0.3670 0.3500 0.3440 0.3330 0.3200
8.578000 0.3060 0.3000 0.2920 0.2860 0.2720
8.608640 0.2660 0.2610 0.2520 0.2430 0.2360
8.640000 0.2300 0.2200 0.2150 0.2100 0.2070
8.670640 0.2010 0.1980 0.1980 0.1950 0.1900
8.701000 0.1870 0.1830 0.1760 0.1750 0.1720
8.731640 0.1700 0.1670 0.1630 0.1600 0.1490
8.762000 0.1410 0.1350 0.1270 0.1260 0.1260
8.792640 0.1260 0.1240 0.1240 0.1230 0.1180
8.823000 0.1160 0.1130 0.1130 0.1120 0.1100
8.853640 0.1100 0.1090 0.1070 0.1060 0.1030
8.885000 0.1010 0.1010 0.1000 0.0980 0.0980
8.915640 0.0960 0.0930 0.0900 0.0860 0.0780
8.946000 0.0730 0.0630 0.0610 0.0610 0.0610
8.976640 0.0610 0.0610 0.0610 0.0610 0.0610
9.007000 0.0600 0.0600 0.0600 0.0600 0.0600
9.037640 0.0580 0.0560 0.0560 0.0560 0.0600
9.068000 0.0600 0.0600 0.0600 0.0600 0.0600
9.098640 0.0610 0.0630 0.0640 0.0640 0.0640
9.130000 0.0630 0.0630 0.0660 0.0670 0.0670
9.160640 0.0660 0.0660 0.0660 0.0660 0.0690
9.191000 0.0760 0.0900 0.0920 0.0980 0.1090
9.221640 0.1090 0.1100 0.1120 0.1130 0.1160
9.252000 0.1200 0.1230 0.1240 0.1260 0.1270
9.282640 0.1320 0.1380 0.1460 0.1550 0.1640
9.313000 0.1750 0.1840 0.1900 0.1980 0.2010
9.343640 0.2060 0.2100 0.2160 0.2260 0.2270
9.375000 0.2300 0.2360 0.2400 0.2490 0.2520
9.405640 0.2600 0.2610 0.2690 0.2730 0.2780
9.436000 0.2830 0.2860 0.2930 0.3060 0.3150
9.466640 0.3160 0.3180 0.3200 0.3240 0.3350
9.497000 0.3440 0.3560 0.3670 0.3700 0.3810
9.527640 0.3950 0.4070 0.4230 0.4360 0.4550
9.558000 0.4730 0.4810 0.4930 0.5060 0.5200
9.588640 0.5270 0.5380 0.5550 0.5730 0.5870
9.620000 0.5920 0.5960 0.6070 0.6120 0.6160
9.650640 0.6290 0.6300 0.6320 0.6320 0.6330
9.681000 0.6360 0.6360 0.6360 0.6350 0.6330
9.711640 0.6320 0.6320 0.6300 0.6290 0.6240
9.742000 0.6180 0.6120 0.6010 0.6000 0.5980
9.772640 0.5930 0.5870 0.5840 0.5780 0.5660
9.803000 0.5610 0.5610 0.5550 0.5530 0.5500
9.833640 0.5470 0.5440 0.5430 0.5430 0.5460
9.865000 0.5490 0.5470 0.5460 0.5470 0.5500
9.895640 0.5600 0.5720 0.5870 0.5900 0.6030
9.926000 0.6070 0.6130 0.6240 0.6410 0.6530
9.956640 0.6580 0.6630 0.6750 0.6780 0.6870
9.987000 0.6890 0.6960 0.7030 0.7060 0.7090
10.017640 0.7100 0.7130 0.7180 0.7260 0.7320
10.048000 0.7350 0.7400 0.7430 0.7440 0.7460
10.078640 0.7460 0.7490 0.7500 0.7530 0.7560
10.110000 0.7560 0.7560 0.7580 0.7580 0.7580
10.140640 0.7580 0.7600 0.7600 0.7600 0.7610
10.171000 0.7610 0.7610 0.7610 0.7610 0.7610
10.201640 0.7600 0.7600 0.7600 0.7610 0.7610
10.232000 0.7600 0.7600 0.7560 0.7560 0.7560
10.262640 0.7530 0.7520 0.7500 0.7460 0.7460
10.293000 0.7400 0.7380 0.7380 0.7380 0.7360
10.323640 0.7350 0.7350 0.7330 0.7320 0.7260
10.355000 0.7230 0.7200 0.7180 0.7150 0.7090
10.385640 0.7060 0.6950 0.6830 0.6750 0.6690
10.416000 0.6630 0.6490 0.6440 0.6440 0.6400
10.446640 0.6380 0.6380 0.6360 0.6330 0.6320
10.477000 0.6320 0.6290 0.6260 0.6230 0.6230
10.507640 0.6200 0.6180 0.6150 0.6100 0.6070
10.538000 0.6040 0.6010 0.5950 0.5950 0.5930
10.568640 0.5890 0.5840 0.5800 0.5800 0.5760
10.600000 0.5760 0.5750 0.5750 0.5750 0.5750
10.630640 0.5780 0.5800 0.5830 0.5840 0.5860
10.661000 0.5860 0.5870 0.5890 0.5890 0.5900
10.691640 0.5920 0.5930 0.5950 0.5950 0.5960
10.722000 0.5980 0.5980 0.6000 0.6010 0.6010
10.752640 0.6010 0.6000 0.6000 0.6000 0.6000
10.783000 0.6000 0.6010 0.6040 0.6060 0.6060
10.813640 0.6090 0.6160 0.6180 0.6210 0.6260
10.845000 0.6300 0.6320 0.6320 0.6330 0.6350
10.875640 0.6380 0.6410 0.6440 0.6490 0.6580
10.906000 0.6600 0.6600 0.6630 0.6670 0.6700
10.936640 0.6750 0.6760 0.6800 0.6800 0.6810
10.967000 0.6810 0.6810 0.6810 0.6830 0.6870
10.997640 0.6890 0.6900 0.6920 0.6960 0.7000
11.028000 0.7010 0.7030 0.7070 0.7100 0.7180
11.058640 0.7180 0.7260 0.7290 0.7320 0.7400
11.090000 0.7460 0.7500 0.7690 0.7730 0.7760
11.120640 0.7800 0.7830 0.7890 0.7930 0.7950
11.151000 0.8060 0.8090 0.8120 0.8150 0.8130
11.181640 0.8150 0.8230 0.8350 0.8380 0.8380
11.212000 0.8380 0.8380 0.8380 0.8400 0.8410
11.242640 0.8490 0.8520 0.8520 0.8520 0.8520
11.273000 0.8520 0.8520 0.8520 0.8530 0.8530
11.303640 0.8530 0.8530 0.8530 0.8520 0.8520
11.335000 0.8520 0.8470 0.8460 0.8440 0.8410
11.365640 0.8380 0.8350 0.8300 0.8260 0.8210
11.396000 0.8130 0.8120 0.8060 0.8030 0.7980
11.426640 0.7950 0.7870 0.7810 0.7760 0.7750
11.457000 0.7700 0.7630 0.7560 0.7550 0.7490
11.487640 0.7430 0.7360 0.7330 0.7320 0.7300
11.518000 0.7290 0.7270 0.7260 0.7240 0.7230
11.548640 0.7230 0.7200 0.7150 0.7150 0.7150
11.580000 0.7150 0.7150 0.7160 0.7200 0.7210
11.610640 0.7210 0.7210 0.7230 0.7230 0.7240
11.641000 0.7320 0.7330 0.7330 0.7330 0.7330
11.671640 0.7350 0.7400 0.7400 0.7400 0.7410
11.702000 0.7410 0.7440 0.7460 0.7460 0.7460
11.732640 0.7470 0.7470 0.7490 0.7490 0.7490
11.763000 0.7490 0.7470 0.7460 0.7430 0.7430
11.793640 0.7410 0.7410 0.7430 0.7470 0.7470
11.825000 0.7440 0.7410 0.7400 0.7400 0.7320
11.855640 0.7300 0.7270 0.7230 0.7230 0.7180
11.886000 0.7180 0.7150 0.7130 0.7130 0.7130
11.916640 0.7150 0.7160 0.7160 0.7160 0.7180
11.947000 0.7240 0.7270 0.7290 0.7350 0.7400
11.977640 0.7440 0.7470 0.7470 0.7530 0.7580
12.008000 0.7610 0.7630 0.7660 0.7660 0.7660
12.038640 0.7670 0.7690 0.7690 0.7690 0.7700
12.070000 0.7720 0.7720 0.7720 0.7720 0.7720
12.100640 0.7720 0.7700 0.7700 0.7720 0.7730
12.131000 0.7730 0.7730 0.7730 0.7750 0.7760
12.161640 0.7800 0.7810 0.7840 0.7860 0.7870
12.192000 0.7920 0.7920 0.7930 0.7930 0.7950
12.222640 0.7980 0.8010 0.8030 0.8040 0.8040
12.253000 0.8070 0.8100 0.8120 0.8150 0.8150
12.283640 0.8160 0.8210 0.8240 0.8260 0.8270
12.315000 0.8290 0.8320 0.8350 0.8360 0.8380
12.345640 0.8380 0.8380 0.8380 0.8410 0.8470
12.376000 0.8500 0.8500 0.8500 0.8500 0.8500
12.406640 0.8520 0.8520 0.8530 0.8550 0.8550
12.437000 0.8560 0.8580 0.8600 0.8610 0.8630
12.467640 0.8630 0.8640 0.8640 0.8640 0.8660
12.498000 0.8670 0.8690 0.8720 0.8700 0.8700
12.528640 0.8700 0.8720 0.8730 0.8730 0.8750
12.560000 0.8750 0.8750 0.8750 0.8750 0.8750
12.590640 0.8780 0.8800 0.8810 0.8810 0.8830
12.621000 0.8830 0.8810 0.8830 0.8830 0.8830
12.651640 0.8830 0.8830 0.8830 0.8840 0.8840
12.682000 0.8840 0.8840 0.8840 0.8860 0.8860
12.712640 0.8870 0.8870 0.8840 0.8830 0.8830
12.743000 0.8860 0.8860 0.8860 0.8860 0.8860
12.773640 0.8890 0.8870 0.8890 0.8890 0.8900
12.805000 0.8900 0.8920 0.8890 0.8870 0.8890
12.835640 0.8890 0.8890 0.8870 0.8870 0.8860
12.866000 0.8840 0.8840 0.8870 0.8870 0.8870
12.896640 0.8860 0.8860 0.8890 0.8890 0.8870
12.927000 0.8860 0.8830 0.8830 0.8830 0.8830
12.957640 0.8830 0.8840 0.8860 0.8860 0.8860
12.988000 0.8860 0.8840 0.8840 0.8830 0.8810
13.018640 0.8810 0.8800 0.8800 0.8800 0.8800
13.050000 0.8780 0.8780 0.8780 0.8800 0.8810
13.080640 0.8810 0.8810 0.8810 0.8800 0.8800
13.111000 0.8780 0.8760 0.8760 0.8760 0.8750
13.141640 0.8750 0.8730 0.8730 0.8730 0.8730
13.172000 0.8750 0.8760 0.8780 0.8760 0.8750
13.202640 0.8750 0.8750 0.8730 0.8720 0.8720
13.233000 0.8700 0.8700 0.8700 0.8700 0.8700
13.263640 0.8700 0.8700 0.8700 0.8690 0.8690
13.295000 0.8690 0.8690 0.8690 0.8690 0.8670
13.325640 0.8640 0.8630 0.8630 0.8630 0.8630
13.356000 0.8640 0.8660 0.8660 0.8640 0.8630
13.386640 0.8630 0.8610 0.8610 0.8610 0.8610
13.417000 0.8610 0.8600 0.8600 0.8580 0.8580
13.447640 0.8580 0.8560 0.8560 0.8580 0.8560
13.478000 0.8550 0.8530 0.8530 0.8520 0.8520
13.508640 0.8520 0.8520 0.8530 0.8530 0.8520
13.540000 0.8500 0.8490 0.8490 0.8490 0.8470
13.570640 0.8460 0.8460 0.8460 0.8460 0.8440
13.601000 0.8440 0.8430 0.8430 0.8440 0.8440
13.631640 0.8430 0.8400 0.8400 0.8380 0.8380
13.662000 0.8380 0.8400 0.8400 0.8380 0.8380
13.692640 0.8360 0.8360 0.8360 0.8360 0.8360
13.723000 0.8360 0.8360 0.8350 0.8330 0.8320
13.753640 0.8300 0.8290 0.8290 0.8290 0.8290
13.785000 0.8290 0.8290 0.8290 0.8290 0.8270
13.815640 0.8270 0.8260 0.8260 0.8260 0.8260
13.846000 0.8240 0.8240 0.8240 0.8230 0.8200
13.876640 0.8180 0.8180 0.8180 0.8180 0.8180
13.907000 0.8160 0.8160 0.8160 0.8160 0.8160
13.937640 0.8160 0.8160 0.8150 0.8130 0.8120
13.968000 0.8100 0.8100 0.8090 0.8090 0.8070
13.998640 0.8070 0.8070 0.8070 0.8070 0.8070
14.030000 0.8070 0.8060 0.8060 0.8060 0.8040
14.060640 0.8040 0.8010 0.8000 0.8000 0.8000
14.091000 0.7980 0.7980 0.8000 0.8000 0.7960
14.121640 0.7950 0.7950 0.7960 0.7950 0.7950
14.152000 0.7960 0.7960 0.7960 0.7950 0.7930
14.182640 0.7930 0.7920 0.7900 0.7900 0.7890
14.213000 0.7890 0.7870 0.7870 0.7860 0.7860
14.243640 0.7860 0.7860 0.7860 0.7860 0.7840
14.275000 0.7860 0.7860 0.7860 0.7840 0.7840
14.305640 0.7840 0.7830 0.7810 0.7780 0.7780
14.336000 0.7760 0.7760 0.7760 0.7760 0.7760
14.366640 0.7750 0.7750 0.7730 0.7730 0.7720
14.397000 0.7720 0.7720 0.7700 0.7690 0.7670
14.427640 0.7640 0.7640 0.7630 0.7630 0.7610
14.458000 0.7600 0.7580 0.7560 0.7560 0.7560
14.488640 0.7550 0.7530 0.7530 0.7530 0.7530
14.520000 0.7530 0.7530 0.7530 0.7530 0.7520
14.550640 0.7520 0.7490 0.7470 0.7460 0.7440
14.581000 0.7440 0.7440 0.7430 0.7430 0.7410
14.611640 0.7360 0.7350 0.7350 0.7350 0.7330
14.642000 0.7330 0.7330 0.7330 0.7320 0.7320
14.672640 0.7300 0.7290 0.7290 0.7270 0.7270
14.703000 0.7260 0.7240 0.7230 0.7230 0.7210
14.733640 0.7200 0.7180 0.7150 0.7150 0.7150
14.765000 0.7130 0.7130 0.7130 0.7130 0.7120
14.795640 0.7120 0.7100 0.7070 0.7060 0.7030
14.826000 0.7000 0.6980 0.6960 0.6960 0.6960
14.856640 0.6950 0.6950 0.6950 0.6950 0.6950
14.887000 0.6960 0.6950 0.6950 0.6950 0.6950
14.917640 0.6950 0.6950 0.6950 0.6930 0.6930
14.948000 0.6930 0.6930 0.6930 0.6920 0.6900
14.978640 0.6870 0.6860 0.6830 0.6800 0.6800
15.010000 0.6750 0.6750 0.6750 0.6730 0.6730
15.040640 0.6730 0.6720 0.6720 0.6690 0.6690
15.071000 0.6670 0.6670 0.6670 0.6670 0.6670
15.101640 0.6690
##END=
