##TITLE=2-METHYL-PHENANTHRENE
##JCAMP-DX=4.24
##DATA TYPE=INFRARED SPECTRUM
##CLASS=COBLENTZ
##ORIGIN=CENTRE D'ETUDES NUCLEAIRES DE GRENOBLE
##OWNER=COBLENTZ SOCIETY
Collection (C) 2018 copyright by the U.S. Secretary of Commerce
on behalf of the United States of America. All rights reserved.
##DATE=Not specified, most likely prior to 1970
##NAMES=2-methylphenanthrene
##CAS REGISTRY NO=2531-84-2
##MOLFORM=C15 H12
##SOURCE REFERENCE=COBLENTZ NO. 4230
##$NIST SOURCE=COBLENTZ
##$NIST IMAGE=cob4230
##SPECTROMETER/DATA SYSTEM=Not specified, most likely a prism, grating, or hybrid spectrometer.
##STATE=SOLID (1% IN KI)
##PATH LENGTH=
$$PURITY 99.9%
##SAMPLING PROCEDURE=TRANSMISSION
##RESOLUTION=4
##DATA PROCESSING=DIGITIZED BY NIST FROM HARD COPY
##XUNITS=MICROMETERS
##YUNITS=TRANSMITTANCE
##XFACTOR=1.000000
##YFACTOR=1
##DELTAX=000.006698
##FIRSTX=1.982
##LASTX=15.9197
##FIRSTY=0.267
##MAXX=15.9197
##MINX=1.982
##MAXY=0.996
##MINY=0.031
##NPOINTS=2082
##XYDATA=(X++(Y..Y))
1.982000 0.2670 0.2690 0.2710 0.2710 0.2740
2.015504 0.2760 0.2790 0.2810 0.2840 0.2870
2.049000 0.2910 0.2920 0.2960 0.2970 0.3010
2.082504 0.3020 0.3040 0.3040 0.3060 0.3070
2.116000 0.3120 0.3140 0.3160 0.3170 0.3190
2.149504 0.3210 0.3220 0.3240 0.3260 0.3270
2.183000 0.3310 0.3320 0.3340 0.3340 0.3360
2.216504 0.3370 0.3390 0.3410 0.3420 0.3460
2.250000 0.3470 0.3490 0.3510 0.3510 0.3520
2.283504 0.3540 0.3560 0.3570 0.3590 0.3610
2.317000 0.3610 0.3620 0.3640 0.3660 0.3690
2.350504 0.3710 0.3720 0.3760 0.3770 0.3790
2.384000 0.3820 0.3840 0.3860 0.3860 0.3870
2.417504 0.3890 0.3910 0.3920 0.3940 0.3970
2.451000 0.3990 0.4000 0.4020 0.4040 0.4070
2.484504 0.4090 0.4100 0.4120 0.4140 0.4150
2.518000 0.4150 0.4170 0.4190 0.4220 0.4250
2.551504 0.4290 0.4300 0.4300 0.4320 0.4320
2.585000 0.4340 0.4350 0.4420 0.4450 0.4450
2.618504 0.4470 0.4470 0.4490 0.4490 0.4500
2.652000 0.4520 0.4540 0.4550 0.4570 0.4590
2.685504 0.4600 0.4620 0.4640 0.4670 0.4690
2.719000 0.4700 0.4700 0.4720 0.4740 0.4750
2.752504 0.4790 0.4800 0.4820 0.4840 0.4870
2.786000 0.4890 0.4890 0.4890 0.4870 0.4850
2.819504 0.4820 0.4790 0.4740 0.4700 0.4690
2.853000 0.4690 0.4650 0.4640 0.4640 0.4620
2.886504 0.4620 0.4620 0.4620 0.4620 0.4640
2.920000 0.4640 0.4640 0.4650 0.4670 0.4690
2.953504 0.4700 0.4740 0.4750 0.4790 0.4840
2.987000 0.4870 0.4890 0.4900 0.4920 0.4940
3.020504 0.4970 0.5000 0.5040 0.5050 0.5070
3.054000 0.5090 0.5100 0.5140 0.5150 0.5170
3.087504 0.5190 0.5200 0.5220 0.5250 0.5270
3.121000 0.5290 0.5300 0.5320 0.5340 0.5350
3.154504 0.5370 0.5390 0.5400 0.5420 0.5440
3.188000 0.5450 0.5470 0.5490 0.5500 0.5520
3.221504 0.5540 0.5540 0.5550 0.5550 0.5550
3.255000 0.5540 0.5490 0.5420 0.5340 0.5200
3.288504 0.4990 0.4700 0.4490 0.4290 0.4070
3.321000 0.4040 0.3890 0.3860 0.3870 0.3910
3.354504 0.4020 0.4090 0.4190 0.4300 0.4390
3.388000 0.4520 0.4640 0.4640 0.4620 0.4600
3.421504 0.4570 0.4550 0.4520 0.4490 0.4450
3.455000 0.4340 0.4240 0.4200 0.4090 0.3960
3.488504 0.3960 0.4340 0.4500 0.4690 0.4890
3.522000 0.4920 0.4920 0.4900 0.4700 0.4690
3.555504 0.4750 0.5090 0.5300 0.5500 0.5690
3.589000 0.5870 0.6050 0.6150 0.6230 0.6300
3.622504 0.6380 0.6470 0.6500 0.6600 0.6620
3.656000 0.6630 0.6650 0.6650 0.6670 0.6670
3.689504 0.6670 0.6670 0.6680 0.6700 0.6700
3.723000 0.6720 0.6720 0.6750 0.6770 0.6800
3.756504 0.6850 0.6900 0.6950 0.6970 0.6980
3.790000 0.6980 0.7000 0.7020 0.7020 0.7030
3.823504 0.7030 0.7050 0.7070 0.7080 0.7100
3.857000 0.7120 0.7130 0.7150 0.7170 0.7180
3.890504 0.7200 0.7220 0.7230 0.7250 0.7270
3.924000 0.7280 0.7300 0.7320 0.7330 0.7330
3.957504 0.7350 0.7370 0.7370 0.7380 0.7380
3.991000 0.7400 0.7400 0.7420 0.7420 0.7430
4.024504 0.7430 0.7450 0.7450 0.7450 0.7470
4.058000 0.7470 0.7480 0.7480 0.7500 0.7500
4.091504 0.7530 0.7550 0.7550 0.7570 0.7580
4.125000 0.7580 0.7600 0.7620 0.7620 0.7630
4.158504 0.7650 0.7670 0.7670 0.7670 0.7680
4.192000 0.7700 0.7720 0.7730 0.7750 0.7750
4.225504 0.7770 0.7770 0.7780 0.7820 0.7850
4.259000 0.7880 0.7920 0.7950 0.7970 0.7980
4.292504 0.8000 0.8010 0.8030 0.8050 0.8050
4.326000 0.8060 0.8060 0.8060 0.8060 0.8050
4.359504 0.8030 0.8010 0.8000 0.7980 0.7970
4.393000 0.7950 0.7950 0.7930 0.7930 0.7950
4.426504 0.7950 0.7950 0.7970 0.7980 0.7980
4.460000 0.8000 0.8000 0.8010 0.8010 0.8030
4.493504 0.8030 0.8050 0.8060 0.8080 0.8080
4.527000 0.8100 0.8100 0.8110 0.8130 0.8130
4.560504 0.8150 0.8150 0.8150 0.8160 0.8160
4.594000 0.8180 0.8180 0.8200 0.8200 0.8210
4.627504 0.8210 0.8230 0.8230 0.8250 0.8250
4.661000 0.8260 0.8260 0.8280 0.8280 0.8280
4.694504 0.8280 0.8300 0.8300 0.8300 0.8310
4.728000 0.8310 0.8310 0.8310 0.8310 0.8310
4.761504 0.8310 0.8330 0.8330 0.8350 0.8360
4.795000 0.8380 0.8400 0.8410 0.8430 0.8450
4.828504 0.8450 0.8450 0.8460 0.8460 0.8460
4.862000 0.8460 0.8460 0.8460 0.8460 0.8480
4.895504 0.8480 0.8480 0.8500 0.8500 0.8500
4.929000 0.8510 0.8510 0.8510 0.8530 0.8530
4.962504 0.8550 0.8560 0.8580 0.8600 0.8600
4.996000 0.8600 0.8610 0.8610 0.8610 0.8610
5.029504 0.8610 0.8610 0.8610 0.8630 0.8630
5.063000 0.8630 0.8650 0.8650 0.8650 0.8650
5.096504 0.8650 0.8650 0.8650 0.8650 0.8650
5.130000 0.8630 0.8630 0.8610 0.8600 0.8560
5.163504 0.8530 0.8510 0.8500 0.8480 0.8460
5.197000 0.8450 0.8430 0.8410 0.8400 0.8380
5.230504 0.8360 0.8350 0.8330 0.8310 0.8300
5.264000 0.8280 0.8260 0.8250 0.8250 0.8260
5.297504 0.8300 0.8330 0.8380 0.8430 0.8500
5.331000 0.8530 0.8580 0.8600 0.8650 0.8700
5.364504 0.8710 0.8730 0.8780 0.8810 0.8830
5.398000 0.8850 0.8850 0.8850 0.8830 0.8830
5.431504 0.8830 0.8830 0.8830 0.8810 0.8800
5.465000 0.8780 0.8730 0.8660 0.8610 0.8600
5.498504 0.8610 0.8630 0.8650 0.8680 0.8710
5.532000 0.8750 0.8760 0.8780 0.8800 0.8800
5.565504 0.8760 0.8710 0.8650 0.8630 0.8650
5.599000 0.8680 0.8750 0.8800 0.8810 0.8810
5.632504 0.8800 0.8680 0.8580 0.8530 0.8480
5.666000 0.8400 0.8230 0.8130 0.8050 0.8000
5.699504 0.7950 0.7930 0.7950 0.8010 0.8060
5.733000 0.8150 0.8230 0.8310 0.8380 0.8460
5.766504 0.8530 0.8580 0.8630 0.8680 0.8730
5.800000 0.8750 0.8760 0.8780 0.8800 0.8800
5.833504 0.8810 0.8830 0.8830 0.8850 0.8850
5.867000 0.8850 0.8850 0.8850 0.8850 0.8850
5.900504 0.8850 0.8850 0.8850 0.8850 0.8830
5.934000 0.8830 0.8830 0.8810 0.8810 0.8810
5.967504 0.8780 0.8780 0.8780 0.8760 0.8760
6.001000 0.8780 0.8780 0.8780 0.8800 0.8800
6.034504 0.8800 0.8800 0.8810 0.8810 0.8810
6.067000 0.8810 0.8830 0.8830 0.8850 0.8860
6.100504 0.8900 0.8900 0.8910 0.8900 0.8850
6.134000 0.8730 0.8660 0.8560 0.8550 0.8530
6.167504 0.8500 0.8430 0.8310 0.8200 0.8060
6.201000 0.7900 0.7680 0.7250 0.6720 0.5770
6.234504 0.5770 0.5850 0.6030 0.6580 0.6830
6.268000 0.7070 0.7220 0.7320 0.7470 0.7470
6.301504 0.7150 0.7050 0.7050 0.7300 0.7830
6.335000 0.7950 0.8060 0.8250 0.8350 0.8460
6.368504 0.8550 0.8600 0.8630 0.8650 0.8630
6.402000 0.8630 0.8600 0.8550 0.8450 0.8430
6.435504 0.8430 0.8460 0.8550 0.8600 0.8630
6.469000 0.8650 0.8660 0.8660 0.8660 0.8660
6.502504 0.8660 0.8630 0.8630 0.8650 0.8730
6.536000 0.8760 0.8800 0.8830 0.8850 0.8830
6.569504 0.8810 0.8780 0.8710 0.8660 0.8560
6.603000 0.8550 0.8580 0.8630 0.8650 0.8650
6.636504 0.8660 0.8660 0.8660 0.8660 0.8660
6.670000 0.8650 0.8650 0.8650 0.8610 0.8560
6.703504 0.8500 0.8380 0.8260 0.8110 0.7930
6.737000 0.7720 0.7470 0.7230 0.6920 0.6900
6.770504 0.6950 0.7470 0.7700 0.7830 0.7900
6.804000 0.7920 0.7930 0.7950 0.8010 0.8060
6.837504 0.8110 0.8110 0.8100 0.7980 0.7830
6.871000 0.7480 0.6900 0.6300 0.6000 0.5690
6.904504 0.5070 0.5070 0.5570 0.6280 0.6480
6.938000 0.6670 0.6730 0.6870 0.6970 0.7000
6.971504 0.6970 0.6970 0.6830 0.6830 0.7080
7.005000 0.7180 0.7220 0.7320 0.7450 0.7480
7.038504 0.7500 0.7500 0.7470 0.7450 0.7450
7.072000 0.7430 0.7420 0.7420 0.7400 0.7420
7.105504 0.7430 0.7630 0.7870 0.8060 0.8330
7.139000 0.8430 0.8460 0.8530 0.8580 0.8630
7.172504 0.8630 0.8660 0.8680 0.8680 0.8710
7.206000 0.8710 0.8700 0.8700 0.8680 0.8650
7.239504 0.8630 0.8580 0.8580 0.8560 0.8530
7.273000 0.8480 0.8410 0.8310 0.8160 0.8000
7.306504 0.7770 0.7430 0.6980 0.6950 0.6980
7.340000 0.7330 0.7720 0.8060 0.8360 0.8500
7.373504 0.8600 0.8660 0.8730 0.8800 0.8830
7.407000 0.8880 0.8910 0.8950 0.8950 0.8930
7.440504 0.8880 0.8880 0.8810 0.8730 0.8630
7.474000 0.8500 0.8410 0.8400 0.8430 0.8510
7.507504 0.8660 0.8760 0.8850 0.8900 0.8950
7.541000 0.8960 0.8980 0.9000 0.9030 0.9060
7.574504 0.9100 0.9160 0.9180 0.9200 0.9210
7.608000 0.9210 0.9200 0.9200 0.9160 0.9150
7.641504 0.9110 0.9100 0.9100 0.9060 0.9050
7.675000 0.9000 0.8910 0.8810 0.8630 0.8380
7.708504 0.8160 0.7720 0.7430 0.7420 0.7430
7.742000 0.8130 0.8430 0.8710 0.8880 0.8950
7.775504 0.8960 0.8980 0.9030 0.9130 0.9150
7.809000 0.9160 0.9200 0.9210 0.9210 0.9210
7.842504 0.9210 0.9200 0.9180 0.9180 0.9160
7.876000 0.9160 0.9160 0.9160 0.9180 0.9200
7.909504 0.9200 0.9180 0.9160 0.9160 0.9110
7.943000 0.9060 0.9000 0.8930 0.8860 0.8780
7.976504 0.8700 0.8560 0.8410 0.8230 0.8110
8.010000 0.7720 0.7350 0.6930 0.5740 0.4990
8.043504 0.4850 0.4570 0.4550 0.4570 0.4600
8.077000 0.4950 0.5300 0.5650 0.6030 0.6450
8.110504 0.6700 0.6950 0.7500 0.7730 0.7770
8.144000 0.7750 0.7580 0.7520 0.7470 0.7370
8.177504 0.7220 0.7100 0.7120 0.7300 0.7400
8.211000 0.7580 0.7820 0.8030 0.8200 0.8250
8.244504 0.8400 0.8510 0.8600 0.8680 0.8750
8.278000 0.8800 0.8850 0.8880 0.8930 0.8960
8.311504 0.9010 0.9080 0.9110 0.9150 0.9150
8.345000 0.9130 0.9110 0.9030 0.8760 0.8630
8.378504 0.8510 0.8380 0.8230 0.8100 0.8080
8.412000 0.8100 0.8130 0.8180 0.8230 0.8330
8.445504 0.8410 0.8510 0.8600 0.8710 0.8830
8.479000 0.8950 0.9000 0.9060 0.9150 0.9180
8.512504 0.9200 0.9210 0.9200 0.9180 0.9130
8.546000 0.9060 0.8950 0.8700 0.8500 0.8380
8.579504 0.8380 0.8530 0.8630 0.8650 0.8650
8.613000 0.8610 0.8580 0.8480 0.8060 0.8050
8.646504 0.8060 0.8230 0.8350 0.8400 0.8430
8.680000 0.8450 0.8430 0.8380 0.8380 0.8400
8.713504 0.8610 0.8930 0.9010 0.9100 0.9130
8.747000 0.9130 0.9110 0.8880 0.8500 0.8180
8.780504 0.7850 0.7650 0.7630 0.7670 0.8000
8.813000 0.8330 0.8700 0.8850 0.8980 0.9080
8.846504 0.9160 0.9230 0.9300 0.9330 0.9380
8.880000 0.9400 0.9430 0.9450 0.9460 0.9480
8.913504 0.9510 0.9530 0.9560 0.9580 0.9580
8.947000 0.9600 0.9600 0.9600 0.9600 0.9600
8.980504 0.9610 0.9610 0.9610 0.9610 0.9630
9.014000 0.9630 0.9630 0.9650 0.9650 0.9650
9.047504 0.9630 0.9630 0.9630 0.9610 0.9610
9.081000 0.9610 0.9610 0.9600 0.9580 0.9560
9.114504 0.9550 0.9510 0.9430 0.9250 0.8980
9.148000 0.8860 0.8850 0.8860 0.9000 0.9200
9.181504 0.9300 0.9350 0.9400 0.9430 0.9480
9.215000 0.9550 0.9560 0.9580 0.9580 0.9580
9.248504 0.9580 0.9580 0.9580 0.9560 0.9550
9.282000 0.9500 0.9430 0.9410 0.9400 0.9410
9.315504 0.9450 0.9460 0.9500 0.9530 0.9550
9.349000 0.9560 0.9560 0.9580 0.9580 0.9600
9.382504 0.9610 0.9610 0.9610 0.9610 0.9610
9.416000 0.9600 0.9600 0.9600 0.9600 0.9600
9.449504 0.9610 0.9610 0.9610 0.9610 0.9610
9.483000 0.9610 0.9630 0.9630 0.9630 0.9610
9.516504 0.9610 0.9610 0.9600 0.9580 0.9580
9.550000 0.9560 0.9530 0.9500 0.9460 0.9450
9.583504 0.9410 0.9380 0.9350 0.9300 0.9250
9.617000 0.9180 0.9100 0.9010 0.8900 0.8760
9.650504 0.8600 0.8400 0.8160 0.8100 0.8060
9.684000 0.8080 0.8130 0.8210 0.8280 0.8330
9.717504 0.8400 0.8450 0.8480 0.8530 0.8580
9.751000 0.8630 0.8660 0.8710 0.8780 0.8830
9.784504 0.8900 0.8960 0.9050 0.9130 0.9180
9.818000 0.9200 0.9200 0.9200 0.9180 0.9160
9.851504 0.9150 0.9150 0.9130 0.9110 0.9100
9.885000 0.9100 0.9100 0.9100 0.9110 0.9130
9.918504 0.9150 0.9160 0.9180 0.9180 0.9200
9.952000 0.9200 0.9180 0.9150 0.9110 0.9060
9.985504 0.8980 0.8900 0.8800 0.8660 0.8600
10.019000 0.8350 0.8230 0.8230 0.8260 0.8510
10.052504 0.8750 0.8900 0.9010 0.9100 0.9230
10.086000 0.9410 0.9460 0.9480 0.9510 0.9560
10.119504 0.9630 0.9680 0.9680 0.9700 0.9730
10.153000 0.9750 0.9750 0.9760 0.9780 0.9810
10.186504 0.9830 0.9850 0.9850 0.9850 0.9860
10.220000 0.9860 0.9860 0.9850 0.9850 0.9850
10.253504 0.9830 0.9800 0.9800 0.9780 0.9750
10.287000 0.9750 0.9730 0.9730 0.9710 0.9710
10.320504 0.9660 0.9650 0.9650 0.9660 0.9660
10.354000 0.9680 0.9680 0.9660 0.9660 0.9610
10.387504 0.9580 0.9530 0.9510 0.9500 0.9500
10.421000 0.9510 0.9530 0.9550 0.9550 0.9550
10.454504 0.9530 0.9380 0.9210 0.9100 0.9000
10.488000 0.8860 0.8710 0.8460 0.8280 0.8230
10.521504 0.8230 0.8300 0.8360 0.8630 0.8730
10.555000 0.8830 0.8930 0.8980 0.8980 0.8960
10.588504 0.8910 0.8850 0.8780 0.8680 0.8580
10.622000 0.8350 0.8260 0.8260 0.8300 0.8450
10.655504 0.8600 0.8750 0.8900 0.9050 0.9180
10.689000 0.9310 0.9450 0.9550 0.9630 0.9680
10.722504 0.9710 0.9780 0.9810 0.9830 0.9880
10.756000 0.9900 0.9900 0.9900 0.9880 0.9880
10.789504 0.9860 0.9850 0.9830 0.9830 0.9810
10.823000 0.9810 0.9810 0.9810 0.9830 0.9830
10.856504 0.9830 0.9830 0.9850 0.9850 0.9860
10.890000 0.9860 0.9880 0.9880 0.9880 0.9900
10.923504 0.9900 0.9900 0.9910 0.9910 0.9910
10.957000 0.9910 0.9910 0.9910 0.9930 0.9930
10.990504 0.9930 0.9950 0.9950 0.9960 0.9960
11.024000 0.9960 0.9960 0.9960 0.9960 0.9960
11.057504 0.9960 0.9950 0.9950 0.9930 0.9930
11.091000 0.9930 0.9910 0.9900 0.9880 0.9860
11.124504 0.9850 0.9800 0.9750 0.9710 0.9700
11.158000 0.9660 0.9650 0.9610 0.9560 0.9510
11.191504 0.9410 0.9310 0.9160 0.8980 0.8760
11.225000 0.8480 0.8110 0.7730 0.7000 0.5220
11.258504 0.4420 0.4020 0.3710 0.3670 0.3710
11.292000 0.3940 0.4140 0.4400 0.4740 0.5020
11.325504 0.5240 0.5440 0.5540 0.5600 0.5640
11.359000 0.5690 0.5750 0.5820 0.5950 0.6120
11.392504 0.6350 0.6550 0.6720 0.6880 0.7320
11.426000 0.7730 0.8060 0.8210 0.8430 0.8580
11.459504 0.8760 0.8880 0.8960 0.9060 0.9160
11.493000 0.9180 0.9200 0.9200 0.9200 0.9180
11.526504 0.9060 0.9030 0.8930 0.8800 0.8600
11.560000 0.8360 0.8060 0.7870 0.7780 0.7720
11.593504 0.7700 0.7700 0.7720 0.7820 0.8010
11.626000 0.8230 0.8500 0.8730 0.8950 0.9080
11.659504 0.9260 0.9360 0.9430 0.9530 0.9580
11.693000 0.9610 0.9650 0.9660 0.9700 0.9710
11.726504 0.9750 0.9760 0.9780 0.9780 0.9800
11.760000 0.9800 0.9810 0.9810 0.9810 0.9810
11.793504 0.9810 0.9810 0.9810 0.9810 0.9810
11.827000 0.9810 0.9800 0.9800 0.9780 0.9760
11.860504 0.9750 0.9750 0.9730 0.9730 0.9710
11.894000 0.9710 0.9710 0.9710 0.9710 0.9710
11.927504 0.9700 0.9680 0.9660 0.9650 0.9630
11.961000 0.9610 0.9580 0.9530 0.9510 0.9500
11.994504 0.9500 0.9460 0.9450 0.9430 0.9380
12.028000 0.9350 0.9280 0.9200 0.9150 0.9100
12.061504 0.9030 0.9000 0.8910 0.8850 0.8810
12.095000 0.8710 0.8600 0.8500 0.8410 0.8250
12.128504 0.7920 0.7630 0.7330 0.6880 0.5490
12.162000 0.4850 0.4300 0.3870 0.3490 0.2840
12.195504 0.2520 0.2190 0.2140 0.2060 0.2040
12.229000 0.2060 0.2090 0.2090 0.2070 0.1740
12.262504 0.1590 0.1430 0.1260 0.1030 0.0780
12.296000 0.0660 0.0440 0.0390 0.0330 0.0310
12.329504 0.0330 0.0440 0.0630 0.0930 0.1280
12.363000 0.1810 0.2160 0.3010 0.3260 0.3490
12.396504 0.4020 0.4470 0.4870 0.5200 0.5540
12.430000 0.5840 0.6170 0.6500 0.6700 0.6880
12.463504 0.7080 0.7300 0.7530 0.7650 0.7800
12.497000 0.7920 0.8030 0.8200 0.8460 0.8530
12.530504 0.8680 0.8760 0.8860 0.8960 0.9050
12.564000 0.9110 0.9160 0.9210 0.9250 0.9280
12.597504 0.9310 0.9350 0.9380 0.9410 0.9460
12.631000 0.9500 0.9550 0.9560 0.9580 0.9600
12.664504 0.9610 0.9630 0.9650 0.9660 0.9680
12.698000 0.9700 0.9700 0.9730 0.9750 0.9760
12.731504 0.9760 0.9760 0.9750 0.9710 0.9680
12.765000 0.9660 0.9650 0.9610 0.9610 0.9600
12.798504 0.9580 0.9580 0.9580 0.9560 0.9530
12.832000 0.9400 0.9260 0.9130 0.9030 0.8760
12.865504 0.8380 0.7920 0.7370 0.6780 0.5550
12.899000 0.4970 0.4820 0.4590 0.4570 0.4590
12.932504 0.4940 0.5340 0.5720 0.6080 0.6430
12.966000 0.6600 0.6770 0.7080 0.7370 0.7630
12.999504 0.7870 0.8060 0.8230 0.8360 0.8450
13.033000 0.8630 0.8750 0.8860 0.8900 0.8980
13.066504 0.8980 0.9000 0.9010 0.9050 0.9050
13.100000 0.9080 0.9100 0.9100 0.9110 0.9110
13.133504 0.9110 0.9130 0.9130 0.9130 0.9130
13.167000 0.9130 0.9130 0.9110 0.9100 0.9060
13.200504 0.9010 0.8950 0.8830 0.8810 0.8800
13.234000 0.8760 0.8750 0.8730 0.8710 0.8660
13.267504 0.8610 0.8550 0.8450 0.8230 0.8130
13.301000 0.8030 0.7900 0.7780 0.7450 0.6950
13.334504 0.5740 0.5100 0.4540 0.4070 0.3760
13.368000 0.2890 0.2490 0.2110 0.1790 0.1510
13.401504 0.1290 0.1140 0.1060 0.1030 0.0960
13.435000 0.0860 0.0780 0.0680 0.0580 0.0510
13.468504 0.0480 0.0460 0.0460 0.0480 0.0840
13.502000 0.1130 0.1360 0.1590 0.1880 0.2260
13.535504 0.2820 0.3210 0.3590 0.4020 0.4390
13.569000 0.4700 0.5020 0.5300 0.5600 0.5920
13.602504 0.6270 0.6650 0.6870 0.7080 0.7450
13.636000 0.7680 0.7800 0.7950 0.8030 0.8180
13.669504 0.8280 0.8450 0.8560 0.8630 0.8730
13.703000 0.8800 0.8850 0.8880 0.8910 0.8980
13.736504 0.9080 0.9160 0.9180 0.9200 0.9230
13.770000 0.9260 0.9300 0.9310 0.9310 0.9330
13.803504 0.9350 0.9360 0.9380 0.9400 0.9400
13.837000 0.9410 0.9410 0.9400 0.9380 0.9300
13.870504 0.9260 0.9250 0.9180 0.9160 0.9160
13.904000 0.9150 0.9150 0.9150 0.9160 0.9180
13.937504 0.9210 0.9250 0.9280 0.9300 0.9310
13.971000 0.9330 0.9350 0.9360 0.9360 0.9330
14.004504 0.9310 0.9280 0.9250 0.9160 0.9000
14.038000 0.8810 0.8560 0.8260 0.7880 0.7370
14.071504 0.6730 0.4900 0.3970 0.3590 0.3390
14.105000 0.2960 0.2940 0.2960 0.3240 0.3470
14.138504 0.3690 0.4000 0.4290 0.4570 0.4850
14.172000 0.5150 0.5470 0.5820 0.6200 0.6620
14.205504 0.6870 0.7100 0.7430 0.7720 0.8010
14.239000 0.8260 0.8460 0.8630 0.8780 0.8880
14.272504 0.8980 0.9050 0.9130 0.9180 0.9250
14.306000 0.9310 0.9350 0.9400 0.9450 0.9460
14.339504 0.9500 0.9550 0.9560 0.9560 0.9580
14.372000 0.9610 0.9630 0.9650 0.9680 0.9700
14.405504 0.9700 0.9710 0.9730 0.9750 0.9760
14.439000 0.9760 0.9780 0.9780 0.9760 0.9730
14.472504 0.9710 0.9730 0.9760 0.9800 0.9810
14.506000 0.9830 0.9850 0.9860 0.9860 0.9860
14.539504 0.9860 0.9860 0.9850 0.9850 0.9830
14.573000 0.9830 0.9810 0.9810 0.9810 0.9810
14.606504 0.9830 0.9830 0.9830 0.9830 0.9850
14.640000 0.9850 0.9860 0.9860 0.9860 0.9880
14.673504 0.9880 0.9880 0.9880 0.9880 0.9880
14.707000 0.9880 0.9860 0.9850 0.9850 0.9830
14.740504 0.9800 0.9760 0.9750 0.9710 0.9660
14.774000 0.9650 0.9600 0.9530 0.9430 0.9330
14.807504 0.9210 0.9180 0.9110 0.8950 0.8660
14.841000 0.8500 0.8400 0.8250 0.8060 0.7980
14.874504 0.7880 0.7800 0.7730 0.7700 0.7700
14.908000 0.7720 0.7820 0.7920 0.8000 0.8100
14.941504 0.8300 0.8380 0.8460 0.8580 0.8680
14.975000 0.8800 0.8900 0.8960 0.9050 0.9130
15.008504 0.9160 0.9200 0.9210 0.9230 0.9250
15.042000 0.9260 0.9280 0.9300 0.9310 0.9330
15.075504 0.9350 0.9360 0.9430 0.9460 0.9500
15.109000 0.9510 0.9530 0.9560 0.9580 0.9600
15.142504 0.9610 0.9630 0.9650 0.9660 0.9700
15.176000 0.9710 0.9750 0.9760 0.9780 0.9800
15.209504 0.9800 0.9800 0.9800 0.9800 0.9800
15.243000 0.9780 0.9780 0.9780 0.9780 0.9780
15.276504 0.9760 0.9760 0.9750 0.9750 0.9750
15.310000 0.9760 0.9760 0.9760 0.9760 0.9780
15.343504 0.9780 0.9800 0.9800 0.9800 0.9780
15.377000 0.9780 0.9760 0.9760 0.9750 0.9730
15.410504 0.9700 0.9680 0.9680 0.9660 0.9660
15.444000 0.9660 0.9660 0.9680 0.9700 0.9700
15.477504 0.9700 0.9700 0.9700 0.9710 0.9710
15.511000 0.9710 0.9710 0.9710 0.9710 0.9710
15.544504 0.9710 0.9710 0.9710 0.9710 0.9710
15.578000 0.9710 0.9710 0.9700 0.9680 0.9680
15.611504 0.9680 0.9660 0.9650 0.9650 0.9630
15.645000 0.9630 0.9650 0.9660 0.9680 0.9680
15.678504 0.9680 0.9700 0.9710 0.9710 0.9710
15.712000 0.9710 0.9710 0.9710 0.9710 0.9710
15.745504 0.9710 0.9700 0.9700 0.9700 0.9680
15.779000 0.9680 0.9660 0.9660 0.9660 0.9650
15.812504 0.9650 0.9630 0.9630 0.9610 0.9610
15.846000 0.9610 0.9610 0.9630 0.9630 0.9650
15.879504 0.9650 0.9650 0.9630 0.9600 0.9600
15.913000 0.9580 0.9580
##END=
