##TITLE=2-Methylphenanthrene
##JCAMP-DX=4.24
$$ By DXEDIT 1.05 (RS McDonald)
##DATA TYPE=INFRARED SPECTRUM
##CLASS=COBLENTZ III
##ORIGIN=DOW CHEMICAL COMPANY
##OWNER=COPYRIGHT (C) 1988 by COBLENTZ SOCIETY INC.
Collection (C) 2018 copyright by the U.S. Secretary of Commerce
on behalf of the United States of America. All rights reserved.
##DATE=1963/10/17
##CAS REGISTRY NO=2531-84-2
##MOLFORM=C15 H12
##SOURCE REFERENCE=COBLENTZ NO. 8537
##$NIST SOURCE=COBLENTZ
##$NIST IMAGE=cob8537
##SPECTROMETER/DATA SYSTEM=BECKMAN IR-9 (GRATING)
##INSTRUMENT PARAMETERS=ORDER CHANGES: 670, 1200, 2000 CM^-^1
##STATE=SOLUTION (10% CCl4 FOR 3800-1330, 10% CS2 FOR 1330-400 CM^-^1)
##PATH LENGTH=0.011 CM, 0.011 CM
$$SPECTRAL CONTAMINATION DUE TO CS2 AROUND 650, 850, CCl4 AROUND 1550 CM^-^1 HAVE BEEN SUBTRACTED
##SAMPLING PROCEDURE=TRANSMISSION
##RESOLUTION=2
##DATA PROCESSING=DIGITIZED BY COBLENTZ SOCIETY (BATCH I) FROM HARD COPY
##XUNITS=1/CM
##YUNITS=TRANSMITTANCE
##XFACTOR=1
##YFACTOR=1
##DELTAX=1
##FIRSTX=3812
##LASTX=403
##FIRSTY=0.9065
##MAXX=3812
##MINX=403
##MAXY=0.9418
##MINY=0.0191
##NPOINTS=3410
##XYDATA=(X++(Y..Y))
3812.000000 0.9065 0.9073 0.9078 0.9071 0.9068
3807.000000 0.9079 0.9082 0.9083 0.9084 0.9085
3802.000000 0.9075 0.9075 0.9077 0.9078 0.9079
3797.000000 0.9080 0.9089 0.9083 0.9094 0.9095
3792.000000 0.9096 0.9097 0.9098 0.9099 0.9100
3787.000000 0.9101 0.9102 0.9103 0.9096 0.9093
3782.000000 0.9094 0.9104 0.9108 0.9099 0.9107
3777.000000 0.9111 0.9112 0.9101 0.9112 0.9114
3772.000000 0.9115 0.9116 0.9116 0.9118 0.9119
3767.000000 0.9119 0.9121 0.9121 0.9122 0.9123
3762.000000 0.9124 0.9125 0.9133 0.9133 0.9129
3757.000000 0.9130 0.9131 0.9131 0.9132 0.9133
3752.000000 0.9134 0.9135 0.9136 0.9137 0.9105
3747.000000 0.9139 0.9140 0.9140 0.9141 0.9141
3742.000000 0.9142 0.9142 0.9142 0.9145 0.9154
3737.000000 0.9154 0.9154 0.9154 0.9148 0.9142
3732.000000 0.9148 0.9154 0.9154 0.9154 0.9154
3727.000000 0.9154 0.9154 0.9154 0.9154 0.9153
3722.000000 0.9153 0.9153 0.9153 0.9141 0.9141
3717.000000 0.9153 0.9153 0.9153 0.9153 0.9153
3712.000000 0.9156 0.9161 0.9157 0.9165 0.9165
3707.000000 0.9165 0.9165 0.9165 0.9165 0.9164
3702.000000 0.9164 0.9164 0.9164 0.9164 0.9164
3697.000000 0.9164 0.9153 0.9151 0.9151 0.9151
3692.000000 0.9151 0.9151 0.9151 0.9151 0.9152
3687.000000 0.9150 0.9140 0.9140 0.9140 0.9140
3682.000000 0.9140 0.9140 0.9140 0.9140 0.9140
3677.000000 0.9140 0.9140 0.9140 0.9140 0.9140
3672.000000 0.9141 0.9141 0.9151 0.9143 0.9141
3667.000000 0.9141 0.9141 0.9141 0.9141 0.9141
3662.000000 0.9141 0.9141 0.9141 0.9141 0.9142
3657.000000 0.9142 0.9142 0.9142 0.9142 0.9142
3652.000000 0.9142 0.9142 0.9142 0.9142 0.9142
3647.000000 0.9142 0.9142 0.9142 0.9143 0.9143
3642.000000 0.9143 0.9143 0.9143 0.9143 0.9143
3637.000000 0.9143 0.9143 0.9143 0.9143 0.9145
3632.000000 0.9155 0.9155 0.9152 0.9144 0.9148
3627.000000 0.9156 0.9157 0.9157 0.9157 0.9157
3622.000000 0.9158 0.9158 0.9158 0.9158 0.9159
3617.000000 0.9159 0.9159 0.9159 0.9160 0.9160
3612.000000 0.9160 0.9160 0.9161 0.9160 0.9150
3607.000000 0.9161 0.9162 0.9162 0.9162 0.9158
3602.000000 0.9155 0.9163 0.9158 0.9151 0.9158
3597.000000 0.9164 0.9164 0.9164 0.9165 0.9165
3592.000000 0.9165 0.9165 0.9166 0.9166 0.9166
3587.000000 0.9166 0.9167 0.9167 0.9167 0.9167
3582.000000 0.9168 0.9168 0.9168 0.9168 0.9169
3577.000000 0.9169 0.9165 0.9161 0.9170 0.9170
3572.000000 0.9164 0.9158 0.9159 0.9159 0.9159
3567.000000 0.9159 0.9159 0.9159 0.9159 0.9159
3562.000000 0.9161 0.9161 0.9161 0.9161 0.9161
3557.000000 0.9161 0.9161 0.9172 0.9161 0.9160
3552.000000 0.9171 0.9171 0.9167 0.9162 0.9170
3547.000000 0.9169 0.9169 0.9163 0.9162 0.9167
3542.000000 0.9167 0.9167 0.9160 0.9162 0.9158
3537.000000 0.9162 0.9165 0.9165 0.9165 0.9164
3532.000000 0.9164 0.9163 0.9163 0.9150 0.9150
3527.000000 0.9150 0.9150 0.9149 0.9149 0.9148
3522.000000 0.9148 0.9147 0.9147 0.9147 0.9147
3517.000000 0.9146 0.9146 0.9144 0.9144 0.9144
3512.000000 0.9144 0.9143 0.9143 0.9142 0.9142
3507.000000 0.9141 0.9141 0.9141 0.9141 0.9140
3502.000000 0.9140 0.9139 0.9139 0.9138 0.9138
3497.000000 0.9138 0.9138 0.9137 0.9137 0.9136
3492.000000 0.9136 0.9136 0.9136 0.9135 0.9135
3487.000000 0.9135 0.9135 0.9135 0.9135 0.9135
3482.000000 0.9135 0.9135 0.9136 0.9136 0.9136
3477.000000 0.9136 0.9136 0.9136 0.9137 0.9137
3472.000000 0.9137 0.9137 0.9137 0.9137 0.9138
3467.000000 0.9138 0.9138 0.9138 0.9138 0.9138
3462.000000 0.9139 0.9139 0.9139 0.9139 0.9140
3457.000000 0.9140 0.9140 0.9140 0.9140 0.9140
3452.000000 0.9141 0.9141 0.9141 0.9141 0.9141
3447.000000 0.9141 0.9142 0.9142 0.9142 0.9142
3442.000000 0.9142 0.9142 0.9143 0.9143 0.9143
3437.000000 0.9143 0.9143 0.9143 0.9144 0.9144
3432.000000 0.9144 0.9144 0.9144 0.9144 0.9145
3427.000000 0.9145 0.9145 0.9134 0.9143 0.9144
3422.000000 0.9144 0.9144 0.9144 0.9144 0.9144
3417.000000 0.9143 0.9143 0.9142 0.9142 0.9141
3412.000000 0.9141 0.9141 0.9141 0.9140 0.9140
3407.000000 0.9145 0.9144 0.9138 0.9138 0.9138
3402.000000 0.9138 0.9137 0.9137 0.9136 0.9136
3397.000000 0.9135 0.9135 0.9135 0.9135 0.9134
3392.000000 0.9134 0.9133 0.9133 0.9132 0.9132
3387.000000 0.9132 0.9132 0.9131 0.9131 0.9129
3382.000000 0.9129 0.9128 0.9128 0.9128 0.9128
3377.000000 0.9127 0.9127 0.9126 0.9126 0.9125
3372.000000 0.9125 0.9125 0.9136 0.9125 0.9124
3367.000000 0.9123 0.9123 0.9122 0.9122 0.9122
3362.000000 0.9122 0.9121 0.9121 0.9120 0.9120
3357.000000 0.9119 0.9119 0.9118 0.9118 0.9118
3352.000000 0.9118 0.9117 0.9117 0.9115 0.9115
3347.000000 0.9115 0.9115 0.9123 0.9126 0.9115
3342.000000 0.9124 0.9112 0.9111 0.9112 0.9123
3337.000000 0.9122 0.9121 0.9109 0.9109 0.9109
3332.000000 0.9109 0.9107 0.9107 0.9107 0.9107
3327.000000 0.9106 0.9106 0.9104 0.9104 0.9104
3322.000000 0.9104 0.9104 0.9104 0.9103 0.9103
3317.000000 0.9102 0.9102 0.9101 0.9101 0.9100
3312.000000 0.9112 0.9111 0.9111 0.9110 0.9108
3307.000000 0.9099 0.9108 0.9107 0.9104 0.9094
3302.000000 0.9094 0.9094 0.9094 0.9093 0.9093
3297.000000 0.9092 0.9092 0.9091 0.9091 0.9090
3292.000000 0.9090 0.9089 0.9089 0.9088 0.9088
3287.000000 0.9087 0.9087 0.9086 0.9086 0.9097
3282.000000 0.9095 0.9084 0.9086 0.9095 0.9091
3277.000000 0.9082 0.9086 0.9093 0.9092 0.9091
3272.000000 0.9090 0.9089 0.9089 0.9088 0.9087
3267.000000 0.9086 0.9086 0.9085 0.9084 0.9083
3262.000000 0.9083 0.9082 0.9081 0.9080 0.9080
3257.000000 0.9078 0.9067 0.9077 0.9077 0.9076
3252.000000 0.9074 0.9074 0.9074 0.9072 0.9070
3247.000000 0.9070 0.9070 0.9063 0.9064 0.9068
3242.000000 0.9066 0.9066 0.9066 0.9065 0.9063
3237.000000 0.9063 0.9063 0.9062 0.9061 0.9060
3232.000000 0.9060 0.9059 0.9058 0.9057 0.9057
3227.000000 0.9054 0.9044 0.9045 0.9053 0.9052
3222.000000 0.9052 0.9051 0.9050 0.9049 0.9049
3217.000000 0.9048 0.9048 0.9047 0.9047 0.9046
3212.000000 0.9046 0.9045 0.9045 0.9044 0.9034
3207.000000 0.9031 0.9031 0.9030 0.9030 0.9029
3202.000000 0.9029 0.9028 0.9029 0.9037 0.9029
3197.000000 0.9035 0.9029 0.9037 0.9036 0.9035
3192.000000 0.9035 0.9035 0.9029 0.9030 0.9035
3187.000000 0.9034 0.9025 0.9017 0.9013 0.9009
3182.000000 0.9005 0.9001 0.8996 0.8992 0.8989
3177.000000 0.8985 0.8981 0.8979 0.8978 0.8976
3172.000000 0.8974 0.8972 0.8971 0.8969 0.8968
3167.000000 0.8962 0.8956 0.8949 0.8949 0.8948
3162.000000 0.8935 0.8930 0.8929 0.8923 0.8908
3157.000000 0.8906 0.8894 0.8885 0.8889 0.8884
3152.000000 0.8878 0.8872 0.8867 0.8859 0.8840
3147.000000 0.8829 0.8817 0.8806 0.8794 0.8783
3142.000000 0.8772 0.8764 0.8760 0.8750 0.8739
3137.000000 0.8718 0.8697 0.8675 0.8653 0.8631
3132.000000 0.8610 0.8588 0.8566 0.8541 0.8517
3127.000000 0.8489 0.8462 0.8434 0.8407 0.8379
3122.000000 0.8353 0.8324 0.8297 0.8261 0.8226
3117.000000 0.8191 0.8155 0.8119 0.8085 0.8054
3112.000000 0.8023 0.7999 0.7973 0.7952 0.7932
3107.000000 0.7923 0.7913 0.7894 0.7876 0.7847
3102.000000 0.7818 0.7772 0.7733 0.7682 0.7627
3097.000000 0.7557 0.7486 0.7414 0.7332 0.7194
3092.000000 0.7057 0.6912 0.6773 0.6547 0.6324
3087.000000 0.6042 0.5760 0.5424 0.5091 0.5084
3082.000000 0.5078 0.5141 0.5205 0.5268 0.5336
3077.000000 0.5407 0.5473 0.5508 0.5517 0.5521
3072.000000 0.5486 0.5407 0.5331 0.5248 0.5178
3067.000000 0.5095 0.5019 0.4942 0.4865 0.4783
3062.000000 0.4707 0.4703 0.4729 0.4731 0.4757
3057.000000 0.4834 0.4909 0.4991 0.5071 0.5147
3052.000000 0.5226 0.5310 0.5392 0.5390 0.5389
3047.000000 0.5386 0.5378 0.5341 0.5299 0.5224
3042.000000 0.5150 0.5075 0.5000 0.4918 0.4836
3037.000000 0.4786 0.4730 0.4723 0.4732 0.4771
3032.000000 0.4828 0.4940 0.5050 0.5158 0.5270
3027.000000 0.5379 0.5488 0.5600 0.5712 0.5824
3022.000000 0.5937 0.6048 0.6161 0.6279 0.6393
3017.000000 0.6505 0.6609 0.6695 0.6785 0.6807
3012.000000 0.6829 0.6838 0.6847 0.6850 0.6850
3007.000000 0.6845 0.6852 0.6869 0.6880 0.6940
3002.000000 0.6998 0.7040 0.7087 0.7102 0.7116
2997.000000 0.7124 0.7134 0.7140 0.7147 0.7157
2992.000000 0.7164 0.7167 0.7170 0.7173 0.7176
2987.000000 0.7178 0.7182 0.7184 0.7187 0.7190
2982.000000 0.7194 0.7198 0.7207 0.7218 0.7218
2977.000000 0.7219 0.7228 0.7217 0.7204 0.7176
2972.000000 0.7148 0.7109 0.7072 0.7042 0.7011
2967.000000 0.6985 0.6959 0.6939 0.6917 0.6904
2962.000000 0.6892 0.6880 0.6868 0.6872 0.6870
2957.000000 0.6862 0.6865 0.6879 0.6895 0.6920
2952.000000 0.6938 0.6972 0.7010 0.7017 0.7025
2947.000000 0.7024 0.7025 0.7015 0.7011 0.6987
2942.000000 0.6968 0.6932 0.6903 0.6846 0.6786
2937.000000 0.6586 0.6386 0.6177 0.5978 0.5782
2932.000000 0.5588 0.5582 0.5569 0.5577 0.5577
2927.000000 0.5636 0.5696 0.5835 0.5973 0.6112
2922.000000 0.6249 0.6383 0.6522 0.6660 0.6800
2917.000000 0.6939 0.7078 0.7216 0.7356 0.7495
2912.000000 0.7634 0.7694 0.7758 0.7791 0.7834
2907.000000 0.7857 0.7869 0.7884 0.7899 0.7909
2902.000000 0.7919 0.7926 0.7932 0.7937 0.7941
2897.000000 0.7944 0.7944 0.7946 0.7944 0.7940
2892.000000 0.7937 0.7930 0.7926 0.7910 0.7894
2887.000000 0.7872 0.7850 0.7818 0.7787 0.7721
2882.000000 0.7658 0.7598 0.7537 0.7474 0.7408
2877.000000 0.7353 0.7315 0.7303 0.7289 0.7289
2872.000000 0.7288 0.7289 0.7291 0.7308 0.7324
2867.000000 0.7363 0.7403 0.7460 0.7519 0.7617
2862.000000 0.7712 0.7808 0.7905 0.8000 0.8096
2857.000000 0.8193 0.8289 0.8385 0.8471 0.8530
2852.000000 0.8592 0.8613 0.8635 0.8655 0.8676
2847.000000 0.8700 0.8729 0.8749 0.8765 0.8773
2842.000000 0.8797 0.8812 0.8823 0.8834 0.8857
2837.000000 0.8866 0.8869 0.8870 0.8876 0.8881
2832.000000 0.8889 0.8895 0.8901 0.8917 0.8915
2827.000000 0.8930 0.8938 0.8930 0.8935 0.8950
2822.000000 0.8942 0.8957 0.8960 0.8961 0.8954
2817.000000 0.8957 0.8960 0.8963 0.8967 0.8970
2812.000000 0.8973 0.8976 0.8978 0.8980 0.8988
2807.000000 0.8995 0.8996 0.8997 0.8999 0.9000
2802.000000 0.9002 0.9003 0.9005 0.9006 0.9007
2797.000000 0.9009 0.9013 0.9015 0.9058 0.9019
2792.000000 0.9020 0.9015 0.9023 0.9016 0.9019
2787.000000 0.9020 0.9022 0.9029 0.9036 0.9032
2782.000000 0.9028 0.9036 0.9042 0.9044 0.9045
2777.000000 0.9047 0.9048 0.9048 0.9048 0.9048
2772.000000 0.9047 0.9045 0.9045 0.9044 0.9041
2767.000000 0.9040 0.9039 0.9036 0.9033 0.9030
2762.000000 0.9028 0.9025 0.9023 0.9014 0.9006
2757.000000 0.8989 0.8975 0.8957 0.8940 0.8912
2752.000000 0.8885 0.8862 0.8840 0.8823 0.8808
2747.000000 0.8801 0.8795 0.8791 0.8790 0.8788
2742.000000 0.8774 0.8795 0.8804 0.8818 0.8832
2737.000000 0.8845 0.8859 0.8872 0.8885 0.8895
2732.000000 0.8908 0.8918 0.8928 0.8939 0.8949
2727.000000 0.8957 0.8964 0.8970 0.8977 0.8985
2722.000000 0.8992 0.8999 0.9007 0.9011 0.9016
2717.000000 0.9019 0.9022 0.9025 0.9029 0.9033
2712.000000 0.9036 0.9039 0.9043 0.9046 0.9050
2707.000000 0.9053 0.9056 0.9059 0.9062 0.9062
2702.000000 0.9063 0.9063 0.9064 0.9065 0.9066
2697.000000 0.9066 0.9067 0.9067 0.9068 0.9069
2692.000000 0.9070 0.9070 0.9071 0.9071 0.9072
2687.000000 0.9073 0.9074 0.9074 0.9075 0.9075
2682.000000 0.9075 0.9075 0.9075 0.9074 0.9074
2677.000000 0.9074 0.9074 0.9074 0.9074 0.9074
2672.000000 0.9074 0.9074 0.9074 0.9074 0.9074
2667.000000 0.9074 0.9074 0.9074 0.9074 0.9074
2662.000000 0.9074 0.9074 0.9074 0.9074 0.9075
2657.000000 0.9085 0.9085 0.9085 0.9085 0.9085
2652.000000 0.9085 0.9080 0.9072 0.9072 0.9078
2647.000000 0.9083 0.9083 0.9075 0.9070 0.9069
2642.000000 0.9077 0.9067 0.9061 0.9056 0.9050
2637.000000 0.9046 0.9040 0.9036 0.9043 0.9040
2632.000000 0.9038 0.9024 0.9026 0.9035 0.9036
2627.000000 0.9038 0.9040 0.9042 0.9045 0.9047
2622.000000 0.9049 0.9051 0.9052 0.9055 0.9057
2617.000000 0.9059 0.9062 0.9064 0.9066 0.9068
2612.000000 0.9070 0.9073 0.9075 0.9077 0.9079
2607.000000 0.9081 0.9083 0.9085 0.9087 0.9089
2602.000000 0.9092 0.9092 0.9093 0.9093 0.9093
2597.000000 0.9093 0.9093 0.9093 0.9094 0.9094
2592.000000 0.9094 0.9094 0.9094 0.9094 0.9094
2587.000000 0.9094 0.9095 0.9095 0.9095 0.9095
2582.000000 0.9095 0.9095 0.9095 0.9095 0.9096
2577.000000 0.9096 0.9096 0.9096 0.9096 0.9096
2572.000000 0.9096 0.9096 0.9096 0.9096 0.9097
2567.000000 0.9097 0.9097 0.9097 0.9097 0.9097
2562.000000 0.9097 0.9097 0.9098 0.9098 0.9098
2557.000000 0.9098 0.9098 0.9098 0.9098 0.9098
2552.000000 0.9099 0.9099 0.9099 0.9099 0.9099
2547.000000 0.9099 0.9100 0.9100 0.9100 0.9100
2542.000000 0.9100 0.9100 0.9100 0.9100 0.9101
2537.000000 0.9101 0.9101 0.9101 0.9101 0.9101
2532.000000 0.9102 0.9102 0.9102 0.9102 0.9102
2527.000000 0.9102 0.9103 0.9103 0.9103 0.9103
2522.000000 0.9103 0.9103 0.9103 0.9103 0.9103
2517.000000 0.9103 0.9103 0.9102 0.9102 0.9102
2512.000000 0.9102 0.9101 0.9101 0.9101 0.9101
2507.000000 0.9100 0.9100 0.9100 0.9100 0.9098
2502.000000 0.9098 0.9098 0.9098 0.9097 0.9097
2497.000000 0.9097 0.9097 0.9096 0.9096 0.9096
2492.000000 0.9096 0.9095 0.9095 0.9095 0.9095
2487.000000 0.9095 0.9095 0.9094 0.9094 0.9094
2482.000000 0.9094 0.9100 0.9105 0.9105 0.9105
2477.000000 0.9105 0.9105 0.9105 0.9105 0.9105
2472.000000 0.9105 0.9105 0.9105 0.9105 0.9105
2467.000000 0.9105 0.9105 0.9104 0.9104 0.9104
2462.000000 0.9104 0.9104 0.9104 0.9104 0.9098
2457.000000 0.9098 0.9097 0.9092 0.9092 0.9100
2452.000000 0.9104 0.9104 0.9094 0.9101 0.9104
2447.000000 0.9104 0.9104 0.9104 0.9104 0.9104
2442.000000 0.9105 0.9105 0.9105 0.9105 0.9105
2437.000000 0.9105 0.9105 0.9105 0.9104 0.9104
2432.000000 0.9104 0.9104 0.9105 0.9105 0.9105
2427.000000 0.9105 0.9105 0.9105 0.9105 0.9105
2422.000000 0.9105 0.9104 0.9104 0.9103 0.9103
2417.000000 0.9102 0.9102 0.9101 0.9101 0.9100
2412.000000 0.9100 0.9099 0.9099 0.9101 0.9106
2407.000000 0.9101 0.9109 0.9108 0.9108 0.9107
2402.000000 0.9107 0.9106 0.9106 0.9105 0.9105
2397.000000 0.9106 0.9108 0.9110 0.9112 0.9113
2392.000000 0.9115 0.9117 0.9119 0.9133 0.9135
2387.000000 0.9136 0.9138 0.9139 0.9150 0.9150
2382.000000 0.9153 0.9162 0.9162 0.9166 0.9174
2377.000000 0.9179 0.9186 0.9184 0.9188 0.9190
2372.000000 0.9186 0.9182 0.9179 0.9167 0.9161
2367.000000 0.9158 0.9156 0.9154 0.9152 0.9149
2362.000000 0.9147 0.9144 0.9155 0.9154 0.9163
2357.000000 0.9163 0.9172 0.9181 0.9178 0.9175
2352.000000 0.9173 0.9164 0.9154 0.9149 0.9152
2347.000000 0.9161 0.9163 0.9159 0.9147 0.9138
2342.000000 0.9132 0.9126 0.9121 0.9105 0.9110
2337.000000 0.9108 0.9094 0.9090 0.9099 0.9096
2332.000000 0.9092 0.9091 0.9098 0.9095 0.9091
2327.000000 0.9091 0.9097 0.9099 0.9103 0.9100
2322.000000 0.9097 0.9094 0.9090 0.9088 0.9087
2317.000000 0.9085 0.9083 0.9082 0.9082 0.9082
2312.000000 0.9083 0.9086 0.9088 0.9096 0.9101
2307.000000 0.9105 0.9110 0.9115 0.9121 0.9125
2302.000000 0.9131 0.9135 0.9140 0.9148 0.9161
2297.000000 0.9165 0.9170 0.9175 0.9179 0.9183
2292.000000 0.9187 0.9193 0.9198 0.9202 0.9197
2287.000000 0.9197 0.9202 0.9206 0.9210 0.9202
2282.000000 0.9205 0.9208 0.9213 0.9217 0.9210
2277.000000 0.9213 0.9215 0.9209 0.9215 0.9219
2272.000000 0.9219 0.9215 0.9219 0.9218 0.9215
2267.000000 0.9220 0.9225 0.9222 0.9221 0.9225
2262.000000 0.9229 0.9225 0.9227 0.9231 0.9225
2257.000000 0.9227 0.9232 0.9235 0.9230 0.9234
2252.000000 0.9239 0.9242 0.9236 0.9238 0.9240
2247.000000 0.9242 0.9246 0.9244 0.9237 0.9240
2242.000000 0.9243 0.9244 0.9248 0.9250 0.9251
2237.000000 0.9254 0.9257 0.9251 0.9249 0.9250
2232.000000 0.9251 0.9251 0.9252 0.9253 0.9254
2227.000000 0.9255 0.9256 0.9258 0.9259 0.9259
2222.000000 0.9258 0.9248 0.9249 0.9250 0.9251
2217.000000 0.9252 0.9254 0.9255 0.9256 0.9256
2212.000000 0.9257 0.9258 0.9259 0.9260 0.9261
2207.000000 0.9262 0.9263 0.9263 0.9264 0.9264
2202.000000 0.9265 0.9266 0.9267 0.9267 0.9268
2197.000000 0.9268 0.9269 0.9260 0.9271 0.9268
2192.000000 0.9259 0.9261 0.9262 0.9262 0.9263
2187.000000 0.9263 0.9265 0.9265 0.9273 0.9271
2182.000000 0.9268 0.9268 0.9269 0.9269 0.9280
2177.000000 0.9283 0.9284 0.9284 0.9285 0.9286
2172.000000 0.9287 0.9287 0.9287 0.9286 0.9276
2167.000000 0.9276 0.9277 0.9277 0.9278 0.9278
2162.000000 0.9278 0.9278 0.9279 0.9279 0.9280
2157.000000 0.9280 0.9281 0.9281 0.9281 0.9281
2152.000000 0.9282 0.9282 0.9283 0.9283 0.9284
2147.000000 0.9284 0.9285 0.9285 0.9285 0.9285
2142.000000 0.9286 0.9286 0.9287 0.9287 0.9288
2137.000000 0.9288 0.9288 0.9288 0.9288 0.9288
2132.000000 0.9288 0.9288 0.9288 0.9288 0.9289
2127.000000 0.9289 0.9289 0.9289 0.9289 0.9289
2122.000000 0.9279 0.9288 0.9289 0.9289 0.9289
2117.000000 0.9289 0.9290 0.9290 0.9290 0.9290
2112.000000 0.9290 0.9290 0.9290 0.9290 0.9290
2107.000000 0.9290 0.9290 0.9290 0.9290 0.9290
2102.000000 0.9290 0.9289 0.9289 0.9289 0.9280
2097.000000 0.9277 0.9287 0.9288 0.9276 0.9285
2092.000000 0.9285 0.9284 0.9283 0.9282 0.9281
2087.000000 0.9278 0.9277 0.9274 0.9272 0.9269
2082.000000 0.9265 0.9262 0.9260 0.9256 0.9253
2077.000000 0.9249 0.9246 0.9242 0.9269 0.9233
2072.000000 0.9230 0.9230 0.9230 0.9229 0.9229
2067.000000 0.9231 0.9233 0.9234 0.9236 0.9238
2062.000000 0.9241 0.9242 0.9244 0.9246 0.9248
2057.000000 0.9252 0.9263 0.9264 0.9266 0.9266
2052.000000 0.9263 0.9263 0.9269 0.9265 0.9260
2047.000000 0.9261 0.9261 0.9261 0.9263 0.9263
2042.000000 0.9264 0.9264 0.9264 0.9264 0.9264
2037.000000 0.9264 0.9266 0.9261 0.9257 0.9252
2032.000000 0.9248 0.9242 0.9238 0.9233 0.9231
2027.000000 0.9230 0.9217 0.9217 0.9219 0.9214
2022.000000 0.9211 0.9207 0.9205 0.9202 0.9199
2017.000000 0.9197 0.9196 0.9195 0.9195 0.9194
2012.000000 0.9193 0.9192 0.9192 0.9188 0.9186
2007.000000 0.9183 0.9180 0.9177 0.9174 0.9167
2002.000000 0.9161 0.9127 0.9092 0.9001 0.8906
1997.000000 0.8883 0.8884 0.8902 0.8942 0.8982
1992.000000 0.9023 0.9063 0.9104 0.9144 0.9181
1987.000000 0.9183 0.9176 0.9176 0.9178 0.9178
1982.000000 0.9178 0.9177 0.9176 0.9173 0.9161
1977.000000 0.9160 0.9159 0.9157 0.9156 0.9155
1972.000000 0.9154 0.9153 0.9153 0.9152 0.9151
1967.000000 0.9150 0.9156 0.9153 0.9147 0.9151
1962.000000 0.9146 0.9139 0.9129 0.9107 0.9084
1957.000000 0.9049 0.8997 0.8946 0.8883 0.8833
1952.000000 0.8782 0.8705 0.8605 0.8527 0.8497
1947.000000 0.8483 0.8501 0.8520 0.8561 0.8606
1942.000000 0.8652 0.8691 0.8727 0.8762 0.8787
1937.000000 0.8793 0.8792 0.8791 0.8790 0.8824
1932.000000 0.8783 0.8774 0.8767 0.8751 0.8735
1927.000000 0.8718 0.8699 0.8680 0.8658 0.8636
1922.000000 0.8612 0.8544 0.8462 0.8374 0.8226
1917.000000 0.8266 0.8261 0.8259 0.8274 0.8381
1912.000000 0.8440 0.8491 0.8502 0.8529 0.8466
1907.000000 0.8442 0.8428 0.8413 0.8403 0.8409
1902.000000 0.8417 0.8448 0.8486 0.8514 0.8539
1897.000000 0.8565 0.8590 0.8614 0.8644 0.8675
1892.000000 0.8705 0.8734 0.8747 0.8764 0.8771
1887.000000 0.8777 0.8780 0.8815 0.8861 0.8902
1882.000000 0.8931 0.8961 0.8991 0.9023 0.9053
1877.000000 0.9077 0.9101 0.9119 0.9164 0.9132
1872.000000 0.9136 0.9135 0.9134 0.9132 0.9131
1867.000000 0.9130 0.9128 0.9124 0.9120 0.9116
1862.000000 0.9111 0.9107 0.9101 0.9094 0.9086
1857.000000 0.9085 0.9071 0.9054 0.9042 0.9031
1852.000000 0.9020 0.9007 0.8995 0.8982 0.8927
1847.000000 0.8882 0.8837 0.8797 0.8757 0.8717
1842.000000 0.8657 0.8592 0.8530 0.8495 0.8486
1837.000000 0.8479 0.8484 0.8514 0.8574 0.8646
1832.000000 0.8700 0.8741 0.8775 0.8787 0.8788
1827.000000 0.8793 0.8800 0.8808 0.8827 0.8853
1822.000000 0.8879 0.8902 0.8925 0.8961 0.8967
1817.000000 0.8973 0.8977 0.8959 0.8919 0.8881
1812.000000 0.8840 0.8789 0.8737 0.8689 0.8698
1807.000000 0.8671 0.8674 0.8735 0.8778 0.8825
1802.000000 0.8903 0.8969 0.8991 0.9010 0.9016
1797.000000 0.9021 0.9025 0.9028 0.9032 0.9036
1792.000000 0.9039 0.9038 0.9037 0.9038 0.9032
1787.000000 0.9030 0.9023 0.9013 0.8997 0.8981
1782.000000 0.8962 0.8940 0.8909 0.8876 0.8831
1777.000000 0.8784 0.8728 0.8670 0.8615 0.8268
1772.000000 0.8194 0.8111 0.8106 0.8104 0.8104
1767.000000 0.8102 0.8125 0.8157 0.8188 0.8237
1762.000000 0.8301 0.8327 0.8335 0.8333 0.8328
1757.000000 0.8313 0.8309 0.8305 0.8316 0.8383
1752.000000 0.8462 0.8544 0.8613 0.8682 0.8722
1747.000000 0.8763 0.8804 0.8844 0.8886 0.8926
1742.000000 0.8962 0.8984 0.9000 0.9015 0.9027
1737.000000 0.9019 0.9006 0.8990 0.8973 0.8955
1732.000000 0.8933 0.8916 0.8902 0.8888 0.8873
1727.000000 0.8875 0.8875 0.8896 0.8918 0.8939
1722.000000 0.8961 0.8986 0.9006 0.9020 0.9035
1717.000000 0.9042 0.9049 0.9052 0.9053 0.9056
1712.000000 0.9048 0.9033 0.9003 0.8973 0.8942
1707.000000 0.8909 0.8887 0.8869 0.8852 0.8840
1702.000000 0.8850 0.8863 0.8878 0.8901 0.8924
1697.000000 0.8939 0.8946 0.8948 0.8956 0.8929
1692.000000 0.8913 0.8883 0.8844 0.8782 0.8745
1687.000000 0.8709 0.8696 0.8696 0.8696 0.8733
1682.000000 0.8765 0.8792 0.8815 0.8822 0.8828
1677.000000 0.8827 0.8825 0.8817 0.8804 0.8786
1672.000000 0.8770 0.8745 0.8725 0.8705 0.8692
1667.000000 0.8702 0.8762 0.8882 0.8908 0.8933
1662.000000 0.8953 0.8960 0.8974 0.8966 0.8967
1657.000000 0.8974 0.8964 0.8953 0.8922 0.8889
1652.000000 0.8851 0.8851 0.8841 0.8833 0.8823
1647.000000 0.8814 0.8800 0.8785 0.8762 0.8739
1642.000000 0.8712 0.8685 0.8644 0.8540 0.8368
1637.000000 0.8243 0.8172 0.8076 0.7974 0.7880
1632.000000 0.7778 0.7696 0.7604 0.7519 0.7184
1627.000000 0.6861 0.6526 0.6189 0.5867 0.5542
1622.000000 0.5512 0.5551 0.5782 0.6171 0.6564
1617.000000 0.6958 0.7200 0.7330 0.7451 0.7582
1612.000000 0.7787 0.7910 0.7968 0.7970 0.7974
1607.000000 0.7919 0.7734 0.7441 0.7184 0.6905
1602.000000 0.6741 0.6787 0.7041 0.7292 0.7552
1597.000000 0.7760 0.7814 0.7844 0.7849 0.7828
1592.000000 0.7814 0.7841 0.7846 0.7888 0.7918
1587.000000 0.7933 0.7954 0.7967 0.7984 0.8006
1582.000000 0.7994 0.7990 0.7972 0.7957 0.7927
1577.000000 0.7907 0.7870 0.7848 0.7837 0.7812
1572.000000 0.7788 0.7780 0.7722 0.7677 0.7619
1567.000000 0.7555 0.7508 0.7495 0.7386 0.7345
1562.000000 0.7295 0.7195 0.6980 0.6860 0.6758
1557.000000 0.6730 0.6732 0.6782 0.6833 0.6883
1552.000000 0.6960 0.7019 0.7049 0.7046 0.7039
1547.000000 0.7037 0.7062 0.7070 0.7088 0.7105
1542.000000 0.7150 0.7181 0.7230 0.7247 0.7219
1537.000000 0.7200 0.7221 0.7218 0.7141 0.7056
1532.000000 0.6981 0.6876 0.6738 0.6537 0.6466
1527.000000 0.6406 0.6944 0.7494 0.7664 0.7762
1522.000000 0.7841 0.7876 0.7920 0.7954 0.7975
1517.000000 0.8006 0.8035 0.8057 0.8083 0.8093
1512.000000 0.8108 0.8112 0.8118 0.8114 0.8090
1507.000000 0.8059 0.8023 0.7972 0.7919 0.7848
1502.000000 0.7636 0.7134 0.6638 0.6147 0.5651
1497.000000 0.4977 0.4948 0.5133 0.5505 0.5883
1492.000000 0.6258 0.6631 0.7002 0.7374 0.7563
1487.000000 0.7558 0.7552 0.7540 0.7534 0.7535
1482.000000 0.7540 0.7540 0.7522 0.7482 0.7439
1477.000000 0.7380 0.7307 0.7207 0.7103 0.7014
1472.000000 0.6921 0.6827 0.6734 0.6588 0.6308
1467.000000 0.5435 0.4132 0.3240 0.3215 0.3613
1462.000000 0.4176 0.4748 0.5317 0.5885 0.6448
1457.000000 0.6761 0.6762 0.6755 0.6746 0.6734
1452.000000 0.6715 0.6697 0.6675 0.6665 0.6665
1447.000000 0.6683 0.6714 0.6771 0.6827 0.6884
1442.000000 0.6978 0.7073 0.7169 0.7268 0.7343
1437.000000 0.7402 0.7449 0.7464 0.7476 0.7490
1432.000000 0.7509 0.7533 0.7557 0.7580 0.7604
1427.000000 0.7631 0.7707 0.7717 0.7715 0.7718
1422.000000 0.7789 0.7882 0.8007 0.8134 0.8269
1417.000000 0.8423 0.8563 0.8621 0.8661 0.8670
1412.000000 0.8675 0.8680 0.8684 0.8689 0.8692
1407.000000 0.8696 0.8700 0.8703 0.8707 0.8726
1402.000000 0.8712 0.8715 0.8715 0.8719 0.8726
1397.000000 0.8734 0.8736 0.8736 0.8736 0.8739
1392.000000 0.8740 0.8740 0.8750 0.8762 0.8764
1387.000000 0.8786 0.8806 0.8813 0.8724 0.8610
1382.000000 0.8497 0.8348 0.8353 0.8362 0.8461
1377.000000 0.8562 0.8659 0.8737 0.8803 0.8846
1372.000000 0.8884 0.8907 0.8925 0.8932 0.8939
1367.000000 0.8946 0.8953 0.8959 0.8960 0.8962
1362.000000 0.8963 0.8963 0.8964 0.8957 0.8940
1357.000000 0.8912 0.8869 0.8829 0.8777 0.8722
1352.000000 0.8663 0.8558 0.8483 0.8443 0.8427
1347.000000 0.8423 0.8419 0.8459 0.8496 0.8530
1342.000000 0.8558 0.8593 0.8626 0.8667 0.8713
1337.000000 0.8759 0.8802 0.8842 0.8881 0.8910
1332.000000 0.8935 0.8961 0.8983 0.8989 0.8996
1327.000000 0.9003 0.9008 0.9005 0.9012 0.9011
1322.000000 0.9008 0.8999 0.8992 0.8986 0.8975
1317.000000 0.8959 0.8938 0.8897 0.8855 0.8801
1312.000000 0.8747 0.8667 0.8544 0.8464 0.8412
1307.000000 0.8410 0.8408 0.8404 0.8369 0.8325
1302.000000 0.8255 0.8214 0.8207 0.8203 0.8451
1297.000000 0.8756 0.8890 0.8981 0.9029 0.9077
1292.000000 0.9133 0.9176 0.9197 0.9214 0.9224
1287.000000 0.9223 0.9219 0.9213 0.9209 0.9196
1282.000000 0.9180 0.9155 0.9117 0.9080 0.9061
1277.000000 0.9046 0.9054 0.9051 0.9051 0.9060
1272.000000 0.9077 0.9095 0.9115 0.9136 0.9154
1267.000000 0.9157 0.9189 0.9162 0.9150 0.9131
1262.000000 0.9106 0.9065 0.9018 0.8864 0.8724
1257.000000 0.8606 0.8382 0.8224 0.8054 0.7869
1252.000000 0.6886 0.6830 0.6764 0.6699 0.6633
1247.000000 0.6567 0.6519 0.6505 0.6490 0.6516
1242.000000 0.6786 0.7077 0.7368 0.7663 0.7962
1237.000000 0.8253 0.8545 0.8676 0.8660 0.8659
1232.000000 0.8647 0.8404 0.8136 0.7882 0.7861
1227.000000 0.7755 0.7567 0.7379 0.7343 0.7345
1222.000000 0.7759 0.8108 0.8455 0.8805 0.9129
1217.000000 0.9132 0.9125 0.9117 0.9107 0.9095
1212.000000 0.9087 0.9066 0.9035 0.9005 0.8962
1207.000000 0.8918 0.8869 0.8796 0.8737 0.8696
1202.000000 0.8679 0.8672 0.8661 0.8633 0.8496
1197.000000 0.8368 0.8242 0.8160 0.8166 0.8342
1192.000000 0.8507 0.8672 0.8837 0.8994 0.9055
1187.000000 0.9070 0.9112 0.9077 0.9079 0.9076
1182.000000 0.9057 0.9041 0.9038 0.9034 0.9007
1177.000000 0.8975 0.8918 0.8844 0.8706 0.8572
1172.000000 0.8460 0.8345 0.8232 0.8053 0.8023
1167.000000 0.8138 0.8245 0.8351 0.8413 0.8385
1162.000000 0.8364 0.8347 0.8342 0.8381 0.8420
1157.000000 0.8459 0.8493 0.8525 0.8555 0.8587
1152.000000 0.8620 0.8627 0.8641 0.8649 0.8667
1147.000000 0.8540 0.8460 0.8380 0.8299 0.8213
1142.000000 0.8238 0.8288 0.8466 0.8588 0.8685
1137.000000 0.8762 0.8831 0.8886 0.8929 0.8963
1132.000000 0.9001 0.9039 0.9074 0.9101 0.9124
1127.000000 0.9143 0.9161 0.9179 0.9186 0.9193
1122.000000 0.9208 0.9225 0.9215 0.9214 0.9212
1117.000000 0.9211 0.9221 0.9220 0.9217 0.9214
1112.000000 0.9210 0.9207 0.9205 0.9198 0.9184
1107.000000 0.9186 0.9166 0.9156 0.9142 0.9126
1102.000000 0.9102 0.9064 0.8919 0.8595 0.8271
1097.000000 0.8125 0.8200 0.8420 0.8637 0.8856
1092.000000 0.9061 0.9131 0.9159 0.9188 0.9206
1087.000000 0.9216 0.9227 0.9231 0.9232 0.9233
1082.000000 0.9231 0.9221 0.9218 0.9212 0.9198
1077.000000 0.9191 0.9179 0.9175 0.9171 0.9172
1072.000000 0.9171 0.9188 0.9160 0.9155 0.9149
1067.000000 0.9138 0.9128 0.9118 0.9108 0.9093
1062.000000 0.9088 0.9073 0.9057 0.9029 0.9026
1057.000000 0.9006 0.8971 0.8949 0.8926 0.8904
1052.000000 0.8871 0.8828 0.8791 0.8746 0.8664
1047.000000 0.8577 0.8495 0.8412 0.8326 0.8238
1042.000000 0.8103 0.7934 0.7276 0.6588 0.6389
1037.000000 0.6514 0.6747 0.6981 0.7215 0.7448
1032.000000 0.7681 0.7897 0.7979 0.8095 0.8236
1027.000000 0.8330 0.8392 0.8449 0.8515 0.8569
1022.000000 0.8622 0.8679 0.8735 0.8785 0.8824
1017.000000 0.8812 0.8812 0.8794 0.8759 0.8719
1012.000000 0.8636 0.8552 0.8431 0.8339 0.8237
1007.000000 0.8143 0.8051 0.7958 0.7856 0.7780
1002.000000 0.7732 0.7698 0.7702 0.7715 0.8155
997.000000 0.8345 0.8543 0.8742 0.8883 0.8921
992.000000 0.8964 0.8997 0.9022 0.9036 0.9049
987.000000 0.9080 0.9066 0.9070 0.9069 0.9069
982.000000 0.9069 0.9066 0.9037 0.8992 0.8957
977.000000 0.8929 0.8915 0.8902 0.8888 0.8882
972.000000 0.8873 0.8881 0.8878 0.8874 0.8864
967.000000 0.8852 0.8839 0.8818 0.8798 0.8778
962.000000 0.8758 0.8724 0.8688 0.8651 0.8604
957.000000 0.8560 0.8512 0.8454 0.8392 0.8282
952.000000 0.8155 0.7433 0.7441 0.7539 0.7735
947.000000 0.7928 0.8121 0.8143 0.7949 0.7749
942.000000 0.7548 0.7347 0.7275 0.7567 0.8233
937.000000 0.8680 0.8804 0.8893 0.8943 0.8958
932.000000 0.8960 0.8962 0.8963 0.8969 0.8973
927.000000 0.8977 0.8987 0.9002 0.9017 0.9033
922.000000 0.9049 0.9066 0.9078 0.9094 0.9114
917.000000 0.9109 0.9127 0.9123 0.9119 0.9111
912.000000 0.9110 0.9110 0.9093 0.9077 0.9068
907.000000 0.9056 0.9028 0.9001 0.8969 0.8934
902.000000 0.8908 0.8865 0.8827 0.8782 0.8746
897.000000 0.8711 0.8664 0.8611 0.8570 0.8516
892.000000 0.8442 0.8366 0.8281 0.8174 0.8061
887.000000 0.7922 0.7658 0.6534 0.5109 0.3669
882.000000 0.2216 0.1800 0.1788 0.2429 0.3182
877.000000 0.3941 0.4704 0.5471 0.6241 0.7017
872.000000 0.7692 0.7780 0.7806 0.7834 0.7837
867.000000 0.7308 0.6687 0.6064 0.5445 0.5132
862.000000 0.5130 0.5157 0.5882 0.7110 0.8029
857.000000 0.8160 0.8253 0.8328 0.8387 0.8439
852.000000 0.8480 0.8530 0.8574 0.8612 0.8662
847.000000 0.8705 0.8744 0.8791 0.8809 0.8829
842.000000 0.8847 0.8862 0.8879 0.8860 0.8853
837.000000 0.8804 0.8774 0.8742 0.8710 0.8670
832.000000 0.8621 0.8571 0.8518 0.8432 0.8340
827.000000 0.8210 0.8051 0.7853 0.7670 0.7526
822.000000 0.7265 0.7082 0.5487 0.1119 0.1126
817.000000 0.1126 0.1808 0.2515 0.3120 0.3111
812.000000 0.2881 0.2061 0.1237 0.0414 0.0284
807.000000 0.0284 0.0898 0.1748 0.2598 0.3446
802.000000 0.4349 0.5332 0.6317 0.7301 0.8186
797.000000 0.8295 0.8443 0.8542 0.8613 0.8656
792.000000 0.8670 0.8694 0.8692 0.8709 0.8704
787.000000 0.8703 0.8702 0.8700 0.8695 0.8680
782.000000 0.8657 0.8628 0.8551 0.8430 0.8252
777.000000 0.7382 0.6368 0.5354 0.4340 0.4247
772.000000 0.4227 0.4239 0.5157 0.6116 0.7076
767.000000 0.8039 0.8247 0.8336 0.8393 0.8427
762.000000 0.8442 0.8475 0.8482 0.8464 0.8427
757.000000 0.8389 0.8295 0.8196 0.8092 0.7948
752.000000 0.7796 0.7583 0.7026 0.5752 0.4478
747.000000 0.3203 0.1928 0.0655 0.0210 0.0225
742.000000 0.0191 0.0207 0.0752 0.1990 0.3229
737.000000 0.4466 0.5704 0.6942 0.7408 0.7616
732.000000 0.8055 0.8244 0.8442 0.8622 0.8762
727.000000 0.8842 0.8852 0.8866 0.8873 0.8907
722.000000 0.8942 0.8976 0.8993 0.8983 0.8999
717.000000 0.8991 0.8952 0.8887 0.8803 0.8644
712.000000 0.8396 0.6797 0.4926 0.3055 0.2984
707.000000 0.3011 0.3704 0.4576 0.5449 0.6331
702.000000 0.7205 0.8082 0.8909 0.9066 0.9177
697.000000 0.9263 0.9295 0.9332 0.9351 0.9361
692.000000 0.9371 0.9380 0.9387 0.9387 0.9395
687.000000 0.9386 0.9372 0.9358 0.9335 0.9303
682.000000 0.9261 0.9160 0.8999 0.7859 0.6735
677.000000 0.6439 0.6457 0.6952 0.8368 0.8858
672.000000 0.8859 0.8882 0.8941 0.9107 0.9260
667.000000 0.9320 0.9231 0.9244 0.9260 0.9271
662.000000 0.9280 0.9290 0.9233 0.9110 0.9014
657.000000 0.8972 0.8961 0.8929 0.8950 0.8948
652.000000 0.8971 0.9010 0.9036 0.9062 0.9090
647.000000 0.9119 0.9141 0.9170 0.9199 0.9217
642.000000 0.9242 0.9261 0.9279 0.9303 0.9321
637.000000 0.9328 0.9347 0.9365 0.9367 0.9384
632.000000 0.9390 0.9385 0.9389 0.9400 0.9393
627.000000 0.9392 0.9382 0.9383 0.9384 0.9379
622.000000 0.9375 0.9375 0.9375 0.9377 0.9387
617.000000 0.9384 0.9375 0.9368 0.9358 0.9345
612.000000 0.9338 0.9322 0.9302 0.9248 0.9163
607.000000 0.8864 0.8468 0.8075 0.7683 0.7292
602.000000 0.6718 0.6657 0.6670 0.6844 0.7550
597.000000 0.8256 0.8961 0.9154 0.9242 0.9310
592.000000 0.9365 0.9380 0.9396 0.9409 0.9417
587.000000 0.9418 0.9415 0.9413 0.9401 0.9397
582.000000 0.9392 0.9366 0.9334 0.9296 0.9234
577.000000 0.9015 0.8735 0.8458 0.8191 0.7931
572.000000 0.7935 0.8243 0.8561 0.8880 0.9198
567.000000 0.9349 0.9376 0.9400 0.9403 0.9395
562.000000 0.9395 0.9394 0.9375 0.9354 0.9329
557.000000 0.9288 0.9244 0.9213 0.9195 0.9183
552.000000 0.9167 0.9184 0.9213 0.9238 0.9259
547.000000 0.9277 0.9283 0.9304 0.9294 0.9296
542.000000 0.9288 0.9281 0.9273 0.9270 0.9276
537.000000 0.9275 0.9280 0.9272 0.9263 0.9267
532.000000 0.9264 0.9260 0.9257 0.9255 0.9252
527.000000 0.9250 0.9254 0.9257 0.9253 0.9249
522.000000 0.9244 0.9238 0.9192 0.9121 0.9042
517.000000 0.8973 0.8897 0.8822 0.8782 0.8776
512.000000 0.8776 0.8778 0.8856 0.8967 0.8991
507.000000 0.8986 0.8982 0.8978 0.8969 0.8954
502.000000 0.8943 0.8824 0.8600 0.8375 0.8330
497.000000 0.8334 0.8357 0.8416 0.8501 0.8603
492.000000 0.8682 0.8726 0.8769 0.8782 0.8780
487.000000 0.8773 0.8768 0.8754 0.8736 0.8718
482.000000 0.8700 0.8666 0.8634 0.8593 0.8538
477.000000 0.8482 0.8424 0.8343 0.8261 0.8175
472.000000 0.8086 0.7996 0.7915 0.7834 0.7731
467.000000 0.7630 0.7534 0.7437 0.7341 0.7243
462.000000 0.7146 0.7083 0.7103 0.7204 0.7298
457.000000 0.7387 0.7437 0.7437 0.7429 0.7414
452.000000 0.7399 0.7351 0.7274 0.7188 0.7077
447.000000 0.6967 0.6844 0.6708 0.6573 0.6383
442.000000 0.6169 0.5954 0.5688 0.5246 0.4599
437.000000 0.4223 0.3846 0.3424 0.3412 0.3634
432.000000 0.3922 0.4208 0.4496 0.4748 0.4748
427.000000 0.4748 0.4722 0.4682 0.4636 0.4559
422.000000 0.4483 0.4434 0.4414 0.4396 0.4384
417.000000 0.4376 0.4374 0.4370 0.4376 0.4398
412.000000 0.4432 0.4541 0.4688 0.4826 0.4920
407.000000 0.5004 0.5084 0.5156 0.5228 0.5309
##END=
