##TITLE=2-METHYL-PHENANTHRENE
##JCAMP-DX=4.24
##DATA TYPE=INFRARED SPECTRUM
##CLASS=COBLENTZ
##ORIGIN=CENTRE D'ETUDES NUCLEAIRES DE GRENOBLE
##OWNER=COBLENTZ SOCIETY
Collection (C) 2018 copyright by the U.S. Secretary of Commerce
on behalf of the United States of America. All rights reserved.
##DATE=Not specified, most likely prior to 1970
##NAMES=2-methylphenanthrene
##CAS REGISTRY NO=2531-84-2
##MOLFORM=C15 H12
##SOURCE REFERENCE=COBLENTZ NO. 4251
##$NIST SOURCE=COBLENTZ
##$NIST IMAGE=cob4251
##SPECTROMETER/DATA SYSTEM=Not specified, most likely a prism, grating, or hybrid spectrometer.
##STATE=SOLUTION (SATURATED IN BENZENE)
##PATH LENGTH=0.05 CM
$$PURITY 99.9%
##SAMPLING PROCEDURE=TRANSMISSION
##RESOLUTION=4
##DATA PROCESSING=DIGITIZED BY NIST FROM HARD COPY
##XUNITS=MICROMETERS
##YUNITS=TRANSMITTANCE
##XFACTOR=1.000000
##YFACTOR=1
##DELTAX=000.011157
##FIRSTX=15.353
##LASTX=35.0336
##FIRSTY=0.576
##MAXX=35.0336
##MINX=15.353
##MAXY=0.952
##MINY=0.02
##NPOINTS=1765
##XYDATA=(X++(Y..Y))
15.353000 0.5760 0.5780 0.5930 0.5980 0.6130
15.408816 0.6250 0.6330 0.6430 0.6580 0.6800
15.464000 0.7050 0.7210 0.7360 0.7510 0.7760
15.519816 0.8150 0.8160 0.8310 0.8520 0.8730
15.576000 0.8870 0.8990 0.9050 0.9140 0.9210
15.631816 0.9220 0.9240 0.9260 0.9310 0.9410
15.688000 0.9420 0.9440 0.9460 0.9460 0.9470
15.743816 0.9470 0.9490 0.9510 0.9510 0.9520
15.799000 0.9520 0.9520 0.9520 0.9520 0.9520
15.854816 0.9520 0.9520 0.9520 0.9520 0.9510
15.911000 0.9470 0.9440 0.9420 0.9390 0.9360
15.966816 0.9260 0.9190 0.9140 0.9070 0.9040
16.022000 0.8970 0.8890 0.8730 0.8700 0.8550
16.077816 0.8400 0.8230 0.8080 0.7940 0.7880
16.134000 0.7860 0.7840 0.7790 0.7710 0.7610
16.189816 0.7490 0.7320 0.7120 0.7100 0.6970
16.245000 0.6750 0.6520 0.6280 0.6200 0.6080
16.300816 0.5910 0.5710 0.5470 0.5240 0.4970
16.357000 0.4700 0.4420 0.4130 0.3860 0.3590
16.412816 0.3340 0.3150 0.2780 0.2450 0.2360
16.469000 0.2230 0.1940 0.1790 0.1660 0.1490
16.524816 0.1390 0.1310 0.1270 0.1260 0.1240
16.580000 0.1240 0.1260 0.1270 0.1340 0.1370
16.635816 0.1510 0.1710 0.1930 0.2100 0.2260
16.692000 0.2580 0.2900 0.3190 0.3440 0.3680
16.747816 0.3890 0.4100 0.4260 0.4450 0.4620
16.803000 0.4820 0.5020 0.5210 0.5370 0.5540
16.858816 0.5680 0.5790 0.5860 0.6030 0.6100
16.915000 0.6280 0.6310 0.6330 0.6360 0.6400
16.970816 0.6450 0.6480 0.6500 0.6520 0.6530
17.026000 0.6550 0.6570 0.6580 0.6620 0.6630
17.081816 0.6650 0.6650 0.6650 0.6630 0.6600
17.138000 0.6550 0.6520 0.6500 0.6470 0.6420
17.193816 0.6330 0.6200 0.6000 0.5710 0.5520
17.250000 0.5420 0.5120 0.5000 0.4650 0.4360
17.305816 0.4110 0.3890 0.3730 0.3560 0.3420
17.361000 0.3270 0.3150 0.3000 0.2940 0.2870
17.416816 0.2850 0.2870 0.3050 0.3100 0.3140
17.473000 0.3390 0.3640 0.3840 0.4050 0.4210
17.528816 0.4360 0.4470 0.4870 0.5170 0.5360
17.584000 0.5520 0.5680 0.5830 0.5960 0.6100
17.639816 0.6250 0.6400 0.6550 0.6700 0.6700
17.696000 0.6750 0.6780 0.6850 0.6900 0.6950
17.751816 0.7020 0.7050 0.7090 0.7100 0.7090
17.807000 0.7050 0.6970 0.6940 0.6900 0.6750
17.862816 0.6720 0.6700 0.6580 0.6400 0.6230
17.919000 0.6100 0.6000 0.5880 0.5780 0.5680
17.974816 0.5560 0.5420 0.5360 0.5270 0.5260
18.031000 0.5260 0.5270 0.5270 0.5310 0.5360
18.086816 0.5440 0.5520 0.5640 0.5760 0.5890
18.142000 0.6030 0.6150 0.6280 0.6420 0.6520
18.197816 0.6620 0.6700 0.6800 0.6890 0.6970
18.254000 0.7020 0.7090 0.7140 0.7170 0.7210
18.309816 0.7260 0.7290 0.7320 0.7360 0.7370
18.365000 0.7390 0.7410 0.7410 0.7390 0.7390
18.420816 0.7370 0.7360 0.7340 0.7320 0.7290
18.477000 0.7270 0.7260 0.7220 0.7210 0.7150
18.532816 0.7040 0.6990 0.6950 0.6940 0.6870
18.588000 0.6820 0.6800 0.6770 0.6730 0.6670
18.643816 0.6650 0.6620 0.6600 0.6580 0.6570
18.700000 0.6570 0.6570 0.6580 0.6580 0.6620
18.755816 0.6630 0.6650 0.6670 0.6700 0.6750
18.812000 0.6780 0.6820 0.6850 0.6900 0.6940
18.867816 0.7000 0.7050 0.7090 0.7100 0.7120
18.923000 0.7120 0.7140 0.7150 0.7150 0.7150
18.978816 0.7150 0.7140 0.7120 0.7100 0.7100
19.035000 0.7100 0.7090 0.7070 0.7050 0.7020
19.090816 0.6990 0.6900 0.6820 0.6730 0.6670
19.146000 0.6580 0.6520 0.6420 0.6310 0.6200
19.201816 0.6050 0.5880 0.5690 0.5460 0.5170
19.258000 0.4850 0.4570 0.4360 0.4330 0.4260
19.313816 0.4180 0.4080 0.4010 0.3940 0.3880
19.369000 0.3860 0.3880 0.3910 0.3960 0.4050
19.424816 0.4110 0.4150 0.4260 0.4280 0.4420
19.481000 0.4520 0.4720 0.4900 0.5120 0.5290
19.536816 0.5460 0.5560 0.5630 0.5680 0.5810
19.592000 0.5980 0.6110 0.6210 0.6300 0.6380
19.647816 0.6430 0.6480 0.6500 0.6530 0.6550
19.704000 0.6570 0.6580 0.6620 0.6630 0.6680
19.759816 0.6700 0.6700 0.6680 0.6580 0.6550
19.816000 0.6480 0.6430 0.6330 0.6180 0.6130
19.871816 0.6030 0.5890 0.5710 0.5510 0.5270
19.927000 0.5000 0.4820 0.4630 0.4450 0.4260
19.982816 0.4080 0.3930 0.3780 0.3640 0.3540
20.039000 0.3470 0.3410 0.3370 0.3360 0.3370
20.094816 0.3420 0.3470 0.3510 0.3610 0.3780
20.150000 0.3960 0.4110 0.4380 0.4600 0.4800
20.205816 0.4990 0.5170 0.5340 0.5510 0.5660
20.262000 0.5840 0.6030 0.6210 0.6430 0.6550
20.317816 0.6630 0.6890 0.6970 0.7040 0.7100
20.373000 0.7190 0.7270 0.7340 0.7410 0.7470
20.428816 0.7540 0.7570 0.7630 0.7640 0.7640
20.485000 0.7660 0.7660 0.7680 0.7680 0.7680
20.540816 0.7690 0.7690 0.7690 0.7690 0.7710
20.597000 0.7710 0.7710 0.7710 0.7710 0.7710
20.652816 0.7710 0.7690 0.7690 0.7680 0.7640
20.708000 0.7640 0.7630 0.7630 0.7610 0.7590
20.763816 0.7570 0.7560 0.7520 0.7460 0.7440
20.820000 0.7390 0.7360 0.7290 0.7240 0.7190
20.875816 0.7120 0.7070 0.7020 0.7020 0.7000
20.931000 0.6950 0.6820 0.6570 0.6530 0.6520
20.986816 0.6500 0.6500 0.6500 0.6480 0.6450
21.043000 0.6300 0.6130 0.6050 0.6030 0.5960
21.098816 0.5880 0.5780 0.5690 0.5590 0.5490
21.154000 0.5410 0.5310 0.5210 0.5170 0.5070
21.209816 0.5000 0.4940 0.4890 0.4850 0.4800
21.266000 0.4750 0.4680 0.4580 0.4450 0.4260
21.321816 0.4230 0.4110 0.3930 0.3730 0.3540
21.378000 0.3410 0.3360 0.3310 0.3240 0.3020
21.433816 0.2890 0.2650 0.2600 0.2480 0.2330
21.489000 0.2200 0.2110 0.1710 0.1510 0.1490
21.544816 0.1440 0.1410 0.1390 0.1360 0.1310
21.601000 0.1210 0.1140 0.1100 0.1100 0.1050
21.656816 0.1050 0.1040 0.1040 0.1050 0.1090
21.712000 0.1120 0.1150 0.1310 0.1470 0.1570
21.767816 0.1640 0.1730 0.1860 0.2060 0.2380
21.824000 0.2480 0.2580 0.2700 0.2820 0.2940
21.879816 0.3070 0.3210 0.3220 0.3270 0.3370
21.935000 0.3490 0.3630 0.3760 0.3810 0.3840
21.990816 0.3890 0.3930 0.3980 0.4010 0.4060
22.047000 0.4100 0.4150 0.4200 0.4230 0.4250
22.102816 0.4260 0.4280 0.4280 0.4260 0.4260
22.159000 0.4230 0.4210 0.4200 0.4150 0.4130
22.214816 0.4100 0.4080 0.4060 0.4010 0.3980
22.270000 0.3940 0.3910 0.3860 0.3790 0.3640
22.325816 0.3590 0.3560 0.3510 0.3410 0.3220
22.382000 0.3190 0.3100 0.3070 0.3000 0.2900
22.437816 0.2780 0.2680 0.2630 0.2580 0.2550
22.493000 0.2500 0.2200 0.2100 0.1960 0.1930
22.548816 0.1880 0.1790 0.1730 0.1680 0.1640
22.605000 0.1560 0.1440 0.1340 0.1270 0.1210
22.660816 0.1150 0.1100 0.1040 0.0990 0.0900
22.716000 0.0800 0.0750 0.0720 0.0680 0.0620
22.771816 0.0550 0.0550 0.0520 0.0500 0.0470
22.828000 0.0430 0.0430 0.0420 0.0400 0.0380
22.883816 0.0360 0.0350 0.0330 0.0310 0.0310
22.940000 0.0300 0.0300 0.0300 0.0280 0.0280
22.995816 0.0280 0.0260 0.0260 0.0260 0.0250
23.051000 0.0250 0.0250 0.0250 0.0250 0.0230
23.106816 0.0230 0.0210 0.0210 0.0210 0.0200
23.163000 0.0200 0.0200 0.0210 0.0210 0.0230
23.218816 0.0250 0.0250 0.0260 0.0260 0.0280
23.274000 0.0280 0.0310 0.0310 0.0350 0.0400
23.329816 0.0420 0.0480 0.0580 0.0630 0.0720
23.386000 0.0750 0.0800 0.0850 0.0940 0.1050
23.441816 0.1070 0.1070 0.1100 0.1140 0.1240
23.497000 0.1440 0.1540 0.1680 0.1780 0.1790
23.552816 0.1890 0.1940 0.1980 0.2030 0.2130
23.609000 0.2300 0.2530 0.2600 0.2680 0.2750
23.664816 0.2780 0.2820 0.2900 0.3040 0.3240
23.720000 0.3560 0.3610 0.3640 0.3710 0.3760
23.775816 0.3840 0.3940 0.4050 0.4160 0.4280
23.832000 0.4350 0.4430 0.4520 0.4620 0.4700
23.887816 0.4780 0.4870 0.4920 0.4950 0.5040
23.944000 0.5070 0.5120 0.5140 0.5220 0.5310
23.999816 0.5420 0.5510 0.5590 0.5660 0.5730
24.055000 0.5780 0.5830 0.5860 0.5910 0.5960
24.110816 0.6000 0.6050 0.6080 0.6130 0.6180
24.167000 0.6200 0.6210 0.6260 0.6300 0.6350
24.222816 0.6380 0.6380 0.6400 0.6430 0.6470
24.278000 0.6500 0.6550 0.6570 0.6580 0.6620
24.333816 0.6630 0.6670 0.6680 0.6680 0.6700
24.390000 0.6700 0.6700 0.6720 0.6720 0.6720
24.445816 0.6730 0.6730 0.6750 0.6750 0.6780
24.501000 0.6780 0.6800 0.6800 0.6820 0.6820
24.556816 0.6820 0.6820 0.6820 0.6800 0.6780
24.613000 0.6770 0.6750 0.6750 0.6730 0.6730
24.668816 0.6680 0.6670 0.6650 0.6650 0.6650
24.725000 0.6650 0.6670 0.6670 0.6680 0.6700
24.780816 0.6720 0.6720 0.6730 0.6780 0.6800
24.836000 0.6820 0.6820 0.6820 0.6840 0.6840
24.891816 0.6840 0.6840 0.6840 0.6840 0.6840
24.948000 0.6840 0.6840 0.6850 0.6850 0.6870
25.003816 0.6870 0.6890 0.6890 0.6870 0.6870
25.059000 0.6870 0.6850 0.6850 0.6840 0.6840
25.114816 0.6820 0.6820 0.6820 0.6800 0.6800
25.171000 0.6780 0.6780 0.6750 0.6730 0.6730
25.226816 0.6720 0.6700 0.6650 0.6630 0.6620
25.282000 0.6600 0.6580 0.6570 0.6550 0.6520
25.337816 0.6480 0.6450 0.6420 0.6360 0.6360
25.394000 0.6350 0.6300 0.6260 0.6210 0.6200
25.449816 0.6160 0.6150 0.6130 0.6130 0.6130
25.506000 0.6130 0.6130 0.6150 0.6150 0.6150
25.561816 0.6160 0.6160 0.6180 0.6180 0.6180
25.617000 0.6200 0.6230 0.6310 0.6360 0.6400
25.672816 0.6430 0.6450 0.6470 0.6500 0.6600
25.729000 0.6750 0.6800 0.6820 0.6850 0.6940
25.784816 0.6990 0.7020 0.7120 0.7260 0.7370
25.840000 0.7460 0.7490 0.7520 0.7560 0.7590
25.895816 0.7640 0.7730 0.7730 0.7740 0.7760
25.952000 0.7780 0.7810 0.7840 0.7880 0.7910
26.007816 0.7940 0.8000 0.8030 0.8060 0.8100
26.063000 0.8100 0.8130 0.8150 0.8160 0.8180
26.118816 0.8200 0.8230 0.8250 0.8280 0.8280
26.175000 0.8300 0.8310 0.8380 0.8430 0.8430
26.230816 0.8450 0.8450 0.8450 0.8470 0.8470
26.287000 0.8480 0.8480 0.8500 0.8520 0.8530
26.342816 0.8550 0.8570 0.8580 0.8600 0.8620
26.398000 0.8620 0.8620 0.8620 0.8630 0.8630
26.453816 0.8630 0.8630 0.8650 0.8650 0.8670
26.510000 0.8670 0.8700 0.8720 0.8730 0.8750
26.565816 0.8770 0.8780 0.8800 0.8800 0.8820
26.621000 0.8820 0.8820 0.8820 0.8820 0.8820
26.676816 0.8840 0.8840 0.8850 0.8850 0.8870
26.733000 0.8890 0.8890 0.8900 0.8900 0.8920
26.788816 0.8920 0.8920 0.8940 0.8940 0.8940
26.844000 0.8940 0.8950 0.8950 0.8950 0.8950
26.899816 0.8950 0.8950 0.8950 0.8950 0.8950
26.956000 0.8950 0.8950 0.8950 0.8950 0.8970
27.011816 0.8970 0.8970 0.8990 0.8990 0.8990
27.068000 0.9000 0.9020 0.9020 0.9020 0.9040
27.123816 0.9040 0.9040 0.9040 0.9050 0.9050
27.179000 0.9050 0.9050 0.9050 0.9070 0.9070
27.234816 0.9070 0.9090 0.9090 0.9090 0.9090
27.291000 0.9090 0.9100 0.9100 0.9100 0.9100
27.346816 0.9100 0.9120 0.9120 0.9120 0.9120
27.402000 0.9120 0.9140 0.9140 0.9140 0.9150
27.457816 0.9150 0.9150 0.9150 0.9150 0.9150
27.514000 0.9150 0.9150 0.9170 0.9170 0.9170
27.569816 0.9170 0.9170 0.9190 0.9190 0.9190
27.625000 0.9190 0.9190 0.9190 0.9190 0.9190
27.680816 0.9190 0.9190 0.9190 0.9190 0.9190
27.737000 0.9190 0.9190 0.9190 0.9210 0.9210
27.792816 0.9210 0.9210 0.9210 0.9210 0.9210
27.849000 0.9210 0.9210 0.9210 0.9210 0.9210
27.904816 0.9210 0.9210 0.9210 0.9210 0.9210
27.960000 0.9220 0.9220 0.9240 0.9240 0.9260
28.015816 0.9260 0.9260 0.9260 0.9270 0.9270
28.072000 0.9270 0.9270 0.9270 0.9270 0.9270
28.127816 0.9270 0.9270 0.9270 0.9260 0.9260
28.183000 0.9260 0.9260 0.9260 0.9260 0.9260
28.238816 0.9260 0.9260 0.9260 0.9260 0.9240
28.295000 0.9240 0.9240 0.9240 0.9240 0.9240
28.350816 0.9240 0.9240 0.9220 0.9220 0.9220
28.406000 0.9220 0.9210 0.9210 0.9210 0.9210
28.461816 0.9190 0.9190 0.9190 0.9190 0.9170
28.518000 0.9170 0.9170 0.9170 0.9170 0.9150
28.573816 0.9150 0.9150 0.9150 0.9150 0.9150
28.629000 0.9150 0.9150 0.9150 0.9150 0.9150
28.684816 0.9150 0.9170 0.9170 0.9170 0.9190
28.741000 0.9190 0.9190 0.9190 0.9210 0.9210
28.796816 0.9190 0.9190 0.9190 0.9170 0.9170
28.853000 0.9170 0.9150 0.9150 0.9150 0.9140
28.908816 0.9140 0.9140 0.9120 0.9120 0.9120
28.964000 0.9120 0.9120 0.9120 0.9120 0.9120
29.019816 0.9100 0.9100 0.9100 0.9100 0.9100
29.076000 0.9100 0.9090 0.9090 0.9090 0.9090
29.131816 0.9090 0.9090 0.9090 0.9100 0.9100
29.187000 0.9100 0.9100 0.9100 0.9100 0.9100
29.242816 0.9100 0.9100 0.9100 0.9100 0.9100
29.299000 0.9100 0.9100 0.9100 0.9090 0.9090
29.354816 0.9090 0.9070 0.9070 0.9070 0.9050
29.410000 0.9050 0.9040 0.9020 0.9020 0.9000
29.465816 0.8990 0.8990 0.8970 0.8970 0.8970
29.522000 0.8950 0.8950 0.8950 0.8950 0.8950
29.577816 0.8950 0.8950 0.8950 0.8950 0.8940
29.634000 0.8940 0.8940 0.8940 0.8940 0.8940
29.689816 0.8920 0.8920 0.8920 0.8920 0.8920
29.745000 0.8920 0.8900 0.8900 0.8900 0.8900
29.800816 0.8890 0.8890 0.8890 0.8890 0.8870
29.857000 0.8870 0.8850 0.8840 0.8840 0.8820
29.912816 0.8800 0.8800 0.8780 0.8780 0.8780
29.968000 0.8780 0.8780 0.8770 0.8770 0.8770
30.023816 0.8770 0.8770 0.8750 0.8750 0.8730
30.080000 0.8720 0.8700 0.8680 0.8670 0.8620
30.135816 0.8600 0.8600 0.8580 0.8570 0.8570
30.191000 0.8570 0.8550 0.8550 0.8550 0.8530
30.246816 0.8530 0.8520 0.8520 0.8500 0.8480
30.303000 0.8470 0.8450 0.8430 0.8400 0.8360
30.358816 0.8330 0.8310 0.8300 0.8300 0.8280
30.415000 0.8280 0.8260 0.8260 0.8260 0.8250
30.470816 0.8230 0.8200 0.8180 0.8150 0.8110
30.526000 0.8080 0.8080 0.8060 0.8050 0.8010
30.581816 0.8010 0.8000 0.7980 0.7960 0.7940
30.638000 0.7930 0.7880 0.7810 0.7780 0.7740
30.693816 0.7730 0.7710 0.7690 0.7680 0.7640
30.749000 0.7570 0.7470 0.7410 0.7370 0.7370
30.804816 0.7360 0.7320 0.7240 0.7090 0.7090
30.861000 0.7050 0.7020 0.6990 0.6970 0.6950
30.916816 0.6940 0.6870 0.6840 0.6800 0.6730
30.972000 0.6670 0.6600 0.6530 0.6450 0.6380
31.027816 0.6300 0.6230 0.6180 0.6130 0.6080
31.084000 0.6050 0.6010 0.5890 0.5780 0.5690
31.139816 0.5590 0.5490 0.5390 0.5390 0.5360
31.196000 0.5320 0.5190 0.5100 0.5000 0.4950
31.251816 0.4940 0.4900 0.4840 0.4680 0.4600
31.307000 0.4580 0.4530 0.4470 0.4430 0.4360
31.362816 0.4280 0.4210 0.4130 0.4050 0.3980
31.419000 0.3930 0.3880 0.3830 0.3710 0.3610
31.474816 0.3520 0.3470 0.3460 0.3440 0.3410
31.530000 0.3320 0.3290 0.3260 0.3190 0.3100
31.585816 0.3070 0.3050 0.3040 0.3040 0.3040
31.642000 0.3040 0.3040 0.3020 0.3020 0.3020
31.697816 0.3000 0.2970 0.2950 0.2940 0.2920
31.753000 0.2920 0.2900 0.2900 0.2920 0.2940
31.808816 0.2970 0.2990 0.3020 0.3070 0.3070
31.865000 0.3090 0.3090 0.3120 0.3140 0.3170
31.920816 0.3210 0.3270 0.3340 0.3410 0.3470
31.977000 0.3520 0.3540 0.3570 0.3630 0.3690
32.032816 0.3760 0.3830 0.3890 0.3960 0.4030
32.088000 0.4100 0.4130 0.4160 0.4230 0.4300
32.143816 0.4400 0.4500 0.4600 0.4700 0.4780
32.200000 0.4840 0.4870 0.4920 0.4970 0.5040
32.255816 0.5100 0.5170 0.5260 0.5340 0.5410
32.311000 0.5470 0.5520 0.5560 0.5590 0.5680
32.366816 0.5780 0.5940 0.6030 0.6050 0.6130
32.423000 0.6180 0.6200 0.6210 0.6230 0.6250
32.478816 0.6260 0.6310 0.6400 0.6500 0.6620
32.534000 0.6680 0.6720 0.6730 0.6730 0.6750
32.589816 0.6780 0.6840 0.6850 0.6900 0.6940
32.646000 0.6970 0.6990 0.7000 0.7040 0.7070
32.701816 0.7140 0.7210 0.7290 0.7360 0.7410
32.757000 0.7440 0.7460 0.7460 0.7470 0.7490
32.812816 0.7490 0.7510 0.7560 0.7630 0.7660
32.869000 0.7680 0.7680 0.7690 0.7710 0.7710
32.924816 0.7710 0.7730 0.7730 0.7760 0.7780
32.981000 0.7810 0.7840 0.7880 0.7910 0.7960
33.036816 0.7980 0.7980 0.8000 0.8000 0.8010
33.092000 0.8010 0.8030 0.8080 0.8150 0.8210
33.147816 0.8280 0.8300 0.8300 0.8310 0.8330
33.204000 0.8330 0.8330 0.8330 0.8330 0.8350
33.259816 0.8350 0.8350 0.8350 0.8350 0.8350
33.315000 0.8360 0.8360 0.8360 0.8360 0.8360
33.370816 0.8360 0.8380 0.8380 0.8380 0.8380
33.427000 0.8380 0.8380 0.8380 0.8400 0.8400
33.482816 0.8400 0.8400 0.8400 0.8420 0.8420
33.538000 0.8430 0.8470 0.8500 0.8530 0.8530
33.593816 0.8550 0.8550 0.8550 0.8570 0.8570
33.650000 0.8570 0.8570 0.8580 0.8580 0.8580
33.705816 0.8580 0.8580 0.8580 0.8580 0.8580
33.762000 0.8580 0.8580 0.8580 0.8580 0.8580
33.817816 0.8580 0.8580 0.8580 0.8580 0.8580
33.873000 0.8580 0.8580 0.8580 0.8580 0.8580
33.928816 0.8580 0.8580 0.8580 0.8580 0.8580
33.985000 0.8580 0.8580 0.8600 0.8600 0.8600
34.040816 0.8600 0.8600 0.8620 0.8620 0.8620
34.096000 0.8620 0.8620 0.8620 0.8630 0.8630
34.151816 0.8630 0.8630 0.8630 0.8630 0.8630
34.208000 0.8630 0.8630 0.8630 0.8630 0.8630
34.263816 0.8630 0.8630 0.8620 0.8620 0.8620
34.319000 0.8620 0.8600 0.8600 0.8600 0.8600
34.374816 0.8580 0.8580 0.8580 0.8580 0.8580
34.431000 0.8600 0.8600 0.8600 0.8600 0.8600
34.486816 0.8620 0.8620 0.8620 0.8620 0.8620
34.543000 0.8620 0.8620 0.8620 0.8620 0.8600
34.598816 0.8600 0.8600 0.8600 0.8600 0.8580
34.654000 0.8580 0.8580 0.8580 0.8580 0.8580
34.709816 0.8580 0.8570 0.8570 0.8570 0.8550
34.766000 0.8550 0.8550 0.8530 0.8530 0.8520
34.821816 0.8500 0.8500 0.8500 0.8480 0.8480
34.877000 0.8470 0.8470 0.8470 0.8450 0.8450
34.932816 0.8430 0.8430 0.8430 0.8420 0.8420
34.989000 0.8400 0.8400 0.8360 0.8330 0.8300
##END=
