##TITLE=Polypropylene glycol
##JCAMP-DX=4.24
$$ By DXEDIT 1.05 (RS McDonald)
##DATA TYPE=INFRARED SPECTRUM
##CLASS=COBLENTZ III
##ORIGIN=DOW CHEMICAL COMPANY
##OWNER=COPYRIGHT (C) 1988 by COBLENTZ SOCIETY INC.
Collection (C) 2018 copyright by the U.S. Secretary of Commerce
on behalf of the United States of America. All rights reserved.
##DATE=1961/09/29
##NAMES=Polyglycol P-1200 (Dow)
##CAS REGISTRY NO=25322-69-4
##MOLFORM=C6 H14 O3
##SOURCE REFERENCE=COBLENTZ NO. 09519
##$NIST SOURCE=COBLENTZ
##$NIST IMAGE=cob9519
##SPECTROMETER/DATA SYSTEM=DOW KBr FOREPRISM-GRATING
##INSTRUMENT PARAMETERS=BLAZED AT 3.5, 12.0, 20.0 MICRON AND CHANGED AT 5.0, 7.5, 14.9 MICRON
##STATE=SOLUTION (10% CCl4 FOR 2.5-7.5, 10% CS2 FOR 7.5-26 MICRON)
##PATH LENGTH=0.011 CM, 0.011 CM
##SAMPLING PROCEDURE=TRANSMISSION
##RESOLUTION=2
##DATA PROCESSING=DIGITIZED BY COBLENTZ SOCIETY (BATCH I) FROM HARD COPY
##XUNITS=1/CM
##YUNITS=TRANSMITTANCE
##XFACTOR=1
##YFACTOR=1
##DELTAX=1
##FIRSTX=3800
##LASTX=394
##FIRSTY=0.8494
##MAXX=3800
##MINX=394
##MAXY=0.8877
##MINY=0.0007
##NPOINTS=3407
##XYDATA=(X++(Y..Y))
3800.000000 0.8494 0.8494 0.8495 0.8495 0.8495
3795.000000 0.8495 0.8495 0.8495 0.8496 0.8496
3790.000000 0.8496 0.8496 0.8497 0.8497 0.8497
3785.000000 0.8497 0.8497 0.8497 0.8498 0.8498
3780.000000 0.8498 0.8498 0.8499 0.8499 0.8499
3775.000000 0.8499 0.8499 0.8499 0.8500 0.8500
3770.000000 0.8500 0.8500 0.8500 0.8500 0.8501
3765.000000 0.8501 0.8501 0.8501 0.8502 0.8502
3760.000000 0.8502 0.8502 0.8502 0.8502 0.8502
3755.000000 0.8502 0.8502 0.8502 0.8502 0.8502
3750.000000 0.8502 0.8502 0.8502 0.8502 0.8502
3745.000000 0.8501 0.8501 0.8501 0.8501 0.8501
3740.000000 0.8501 0.8501 0.8501 0.8501 0.8502
3735.000000 0.8502 0.8502 0.8502 0.8502 0.8502
3730.000000 0.8502 0.8502 0.8503 0.8503 0.8503
3725.000000 0.8503 0.8503 0.8503 0.8504 0.8504
3720.000000 0.8505 0.8505 0.8506 0.8506 0.8507
3715.000000 0.8507 0.8508 0.8508 0.8509 0.8509
3710.000000 0.8510 0.8510 0.8511 0.8511 0.8512
3705.000000 0.8512 0.8513 0.8513 0.8513 0.8513
3700.000000 0.8514 0.8514 0.8514 0.8514 0.8514
3695.000000 0.8514 0.8515 0.8515 0.8515 0.8515
3690.000000 0.8516 0.8516 0.8516 0.8516 0.8517
3685.000000 0.8517 0.8517 0.8517 0.8517 0.8516
3680.000000 0.8514 0.8509 0.8504 0.8498 0.8492
3675.000000 0.8485 0.8478 0.8471 0.8464 0.8461
3670.000000 0.8458 0.8456 0.8454 0.8454 0.8454
3665.000000 0.8454 0.8454 0.8454 0.8454 0.8453
3660.000000 0.8453 0.8457 0.8461 0.8465 0.8468
3655.000000 0.8473 0.8478 0.8482 0.8486 0.8489
3650.000000 0.8493 0.8495 0.8497 0.8499 0.8501
3645.000000 0.8503 0.8505 0.8505 0.8505 0.8505
3640.000000 0.8505 0.8505 0.8505 0.8505 0.8505
3635.000000 0.8504 0.8504 0.8503 0.8502 0.8501
3630.000000 0.8500 0.8499 0.8499 0.8498 0.8497
3625.000000 0.8496 0.8495 0.8493 0.8492 0.8488
3620.000000 0.8485 0.8481 0.8478 0.8474 0.8471
3615.000000 0.8467 0.8464 0.8460 0.8457 0.8450
3610.000000 0.8443 0.8433 0.8424 0.8414 0.8405
3605.000000 0.8388 0.8371 0.8354 0.8336 0.8317
3600.000000 0.8299 0.8278 0.8260 0.8240 0.8221
3595.000000 0.8201 0.8181 0.8161 0.8141 0.8119
3590.000000 0.8100 0.8076 0.8054 0.8017 0.7980
3585.000000 0.7935 0.7891 0.7869 0.7850 0.7843
3580.000000 0.7836 0.7834 0.7832 0.7832 0.7832
3575.000000 0.7832 0.7833 0.7835 0.7837 0.7845
3570.000000 0.7853 0.7868 0.7883 0.7898 0.7912
3565.000000 0.7926 0.7942 0.7956 0.7971 0.7984
3560.000000 0.7997 0.8004 0.8011 0.8018 0.8025
3555.000000 0.8033 0.8040 0.8046 0.8051 0.8057
3550.000000 0.8061 0.8065 0.8071 0.8075 0.8081
3545.000000 0.8083 0.8110 0.8086 0.8088 0.8090
3540.000000 0.8092 0.8093 0.8093 0.8093 0.8091
3535.000000 0.8089 0.8087 0.8081 0.8075 0.8068
3530.000000 0.8061 0.8051 0.8041 0.8025 0.8011
3525.000000 0.7997 0.7982 0.7967 0.7953 0.7937
3520.000000 0.7921 0.7906 0.7891 0.7875 0.7861
3515.000000 0.7845 0.7830 0.7814 0.7799 0.7783
3510.000000 0.7767 0.7751 0.7735 0.7718 0.7701
3505.000000 0.7686 0.7669 0.7654 0.7639 0.7628
3500.000000 0.7618 0.7607 0.7596 0.7585 0.7574
3495.000000 0.7562 0.7551 0.7544 0.7536 0.7530
3490.000000 0.7524 0.7518 0.7511 0.7506 0.7501
3485.000000 0.7495 0.7489 0.7484 0.7478 0.7475
3480.000000 0.7472 0.7468 0.7465 0.7461 0.7458
3475.000000 0.7456 0.7453 0.7448 0.7444 0.7439
3470.000000 0.7435 0.7430 0.7425 0.7421 0.7418
3465.000000 0.7418 0.7418 0.7418 0.7418 0.7418
3460.000000 0.7418 0.7418 0.7419 0.7422 0.7425
3455.000000 0.7428 0.7431 0.7433 0.7436 0.7439
3450.000000 0.7443 0.7449 0.7455 0.7461 0.7467
3445.000000 0.7472 0.7478 0.7486 0.7493 0.7504
3440.000000 0.7515 0.7525 0.7537 0.7547 0.7558
3435.000000 0.7568 0.7580 0.7591 0.7601 0.7612
3430.000000 0.7625 0.7640 0.7655 0.7668 0.7684
3425.000000 0.7699 0.7714 0.7728 0.7743 0.7758
3420.000000 0.7772 0.7787 0.7801 0.7817 0.7833
3415.000000 0.7848 0.7864 0.7880 0.7896 0.7911
3410.000000 0.7928 0.7943 0.7958 0.7975 0.7991
3405.000000 0.8007 0.8022 0.8039 0.8055 0.8068
3400.000000 0.8082 0.8093 0.8105 0.8115 0.8128
3395.000000 0.8140 0.8151 0.8162 0.8175 0.8186
3390.000000 0.8198 0.8209 0.8221 0.8233 0.8245
3385.000000 0.8256 0.8268 0.8278 0.8291 0.8302
3380.000000 0.8313 0.8324 0.8335 0.8345 0.8356
3375.000000 0.8367 0.8378 0.8388 0.8399 0.8409
3370.000000 0.8420 0.8428 0.8436 0.8444 0.8453
3365.000000 0.8461 0.8470 0.8478 0.8487 0.8495
3360.000000 0.8503 0.8511 0.8520 0.8527 0.8534
3355.000000 0.8541 0.8548 0.8554 0.8561 0.8567
3350.000000 0.8574 0.8580 0.8587 0.8594 0.8601
3345.000000 0.8607 0.8614 0.8620 0.8627 0.8633
3340.000000 0.8640 0.8647 0.8654 0.8660 0.8667
3335.000000 0.8673 0.8680 0.8686 0.8692 0.8696
3330.000000 0.8700 0.8704 0.8708 0.8712 0.8716
3325.000000 0.8720 0.8725 0.8728 0.8733 0.8737
3320.000000 0.8741 0.8745 0.8749 0.8752 0.8755
3315.000000 0.8758 0.8761 0.8764 0.8767 0.8770
3310.000000 0.8773 0.8775 0.8778 0.8782 0.8785
3305.000000 0.8788 0.8792 0.8795 0.8798 0.8800
3300.000000 0.8802 0.8804 0.8807 0.8809 0.8811
3295.000000 0.8813 0.8816 0.8818 0.8820 0.8821
3290.000000 0.8825 0.8827 0.8830 0.8832 0.8834
3285.000000 0.8836 0.8839 0.8840 0.8842 0.8843
3280.000000 0.8844 0.8845 0.8847 0.8848 0.8850
3275.000000 0.8851 0.8853 0.8854 0.8856 0.8857
3270.000000 0.8859 0.8860 0.8861 0.8862 0.8864
3265.000000 0.8865 0.8866 0.8867 0.8868 0.8868
3260.000000 0.8868 0.8868 0.8870 0.8871 0.8871
3255.000000 0.8871 0.8873 0.8873 0.8874 0.8874
3250.000000 0.8875 0.8875 0.8875 0.8875 0.8875
3245.000000 0.8875 0.8875 0.8875 0.8875 0.8875
3240.000000 0.8877 0.8877 0.8877 0.8877 0.8877
3235.000000 0.8877 0.8877 0.8877 0.8875 0.8875
3230.000000 0.8875 0.8873 0.8871 0.8871 0.8870
3225.000000 0.8868 0.8867 0.8866 0.8865 0.8863
3220.000000 0.8862 0.8861 0.8860 0.8858 0.8857
3215.000000 0.8856 0.8855 0.8853 0.8852 0.8848
3210.000000 0.8845 0.8841 0.8838 0.8834 0.8830
3205.000000 0.8825 0.8823 0.8818 0.8814 0.8809
3200.000000 0.8804 0.8799 0.8795 0.8790 0.8786
3195.000000 0.8781 0.8777 0.8771 0.8768 0.8764
3190.000000 0.8760 0.8756 0.8753 0.8749 0.8758
3185.000000 0.8742 0.8740 0.8740 0.8740 0.8740
3180.000000 0.8740 0.8740 0.8740 0.8740 0.8740
3175.000000 0.8739 0.8739 0.8739 0.8739 0.8739
3170.000000 0.8739 0.8739 0.8739 0.8739 0.8739
3165.000000 0.8739 0.8739 0.8739 0.8739 0.8738
3160.000000 0.8738 0.8738 0.8738 0.8738 0.8739
3155.000000 0.8739 0.8740 0.8740 0.8741 0.8741
3150.000000 0.8742 0.8742 0.8743 0.8743 0.8744
3145.000000 0.8744 0.8745 0.8745 0.8745 0.8745
3140.000000 0.8746 0.8746 0.8747 0.8747 0.8748
3135.000000 0.8749 0.8750 0.8750 0.8751 0.8751
3130.000000 0.8752 0.8752 0.8753 0.8753 0.8754
3125.000000 0.8754 0.8755 0.8755 0.8756 0.8756
3120.000000 0.8757 0.8757 0.8758 0.8758 0.8759
3115.000000 0.8759 0.8759 0.8759 0.8760 0.8760
3110.000000 0.8761 0.8761 0.8761 0.8761 0.8762
3105.000000 0.8762 0.8762 0.8762 0.8762 0.8761
3100.000000 0.8760 0.8758 0.8757 0.8756 0.8755
3095.000000 0.8753 0.8752 0.8751 0.8750 0.8749
3090.000000 0.8748 0.8746 0.8745 0.8743 0.8741
3085.000000 0.8738 0.8735 0.8732 0.8728 0.8725
3080.000000 0.8723 0.8720 0.8717 0.8713 0.8710
3075.000000 0.8706 0.8703 0.8698 0.8694 0.8689
3070.000000 0.8685 0.8680 0.8675 0.8671 0.8667
3065.000000 0.8663 0.8659 0.8653 0.8648 0.8641
3060.000000 0.8635 0.8628 0.8621 0.8615 0.8608
3055.000000 0.8601 0.8595 0.8588 0.8582 0.8575
3050.000000 0.8568 0.8561 0.8554 0.8544 0.8534
3045.000000 0.8524 0.8515 0.8505 0.8496 0.8486
3040.000000 0.8475 0.8466 0.8456 0.8441 0.8427
3035.000000 0.8412 0.8398 0.8383 0.8368 0.8353
3030.000000 0.8338 0.8320 0.8302 0.8284 0.8267
3025.000000 0.8249 0.8231 0.8206 0.8182 0.8140
3020.000000 0.8098 0.8061 0.8024 0.7987 0.7950
3015.000000 0.7908 0.7865 0.7815 0.7765 0.7704
3010.000000 0.7643 0.7568 0.7494 0.7328 0.7165
3005.000000 0.7091 0.7018 0.6885 0.6751 0.6675
3000.000000 0.6599 0.5985 0.5372 0.4645 0.3918
2995.000000 0.3193 0.2467 0.1944 0.1422 0.1294
2990.000000 0.1166 0.1098 0.1030 0.0963 0.0896
2985.000000 0.0846 0.0798 0.0758 0.0719 0.0674
2980.000000 0.0599 0.0618 0.0606 0.0600 0.0595
2975.000000 0.0595 0.0596 0.0711 0.0826 0.1022
2970.000000 0.1221 0.1418 0.1616 0.1813 0.2011
2965.000000 0.2208 0.2406 0.2603 0.2801 0.2998
2960.000000 0.3196 0.3314 0.3434 0.3441 0.3455
2955.000000 0.3446 0.3445 0.3437 0.3430 0.3404
2950.000000 0.3379 0.3306 0.3234 0.2950 0.2667
2945.000000 0.2384 0.2101 0.1817 0.1534 0.1332
2940.000000 0.1131 0.1127 0.1109 0.1124 0.1125
2935.000000 0.1128 0.1131 0.1146 0.1161 0.1192
2930.000000 0.1225 0.1261 0.1298 0.1332 0.1366
2925.000000 0.1386 0.1407 0.1422 0.1437 0.1438
2920.000000 0.1438 0.1438 0.1451 0.1424 0.1412
2915.000000 0.1381 0.1351 0.1313 0.1275 0.1235
2910.000000 0.1195 0.1158 0.1122 0.1064 0.1006
2905.000000 0.0974 0.0942 0.0935 0.0880 0.0921
2900.000000 0.0915 0.0913 0.0911 0.0911 0.0910
2895.000000 0.0911 0.0914 0.0921 0.0928 0.0935
2890.000000 0.0942 0.0947 0.0953 0.0958 0.0963
2885.000000 0.0963 0.0964 0.0964 0.0999 0.0960
2880.000000 0.0957 0.0946 0.0936 0.0922 0.0910
2875.000000 0.0900 0.0889 0.0883 0.0876 0.0872
2870.000000 0.0850 0.0866 0.0865 0.0865 0.0866
2865.000000 0.0869 0.0872 0.0879 0.0886 0.0897
2860.000000 0.0911 0.0942 0.0976 0.1022 0.1071
2855.000000 0.1182 0.1294 0.1489 0.1684 0.1878
2850.000000 0.2073 0.2267 0.2462 0.2656 0.2851
2845.000000 0.3045 0.3240 0.3434 0.3629 0.4006
2840.000000 0.4383 0.4446 0.4510 0.4574 0.4639
2835.000000 0.4736 0.4834 0.4955 0.5076 0.5227
2830.000000 0.5378 0.5447 0.5516 0.5615 0.5715
2825.000000 0.5775 0.5835 0.5879 0.5923 0.5956
2820.000000 0.5990 0.6019 0.6049 0.6078 0.6107
2815.000000 0.6136 0.6166 0.6195 0.6225 0.6252
2810.000000 0.6279 0.6299 0.6320 0.6339 0.6358
2805.000000 0.6373 0.6388 0.6399 0.6410 0.6414
2800.000000 0.6418 0.6421 0.6425 0.6428 0.6432
2795.000000 0.6434 0.6437 0.6439 0.6442 0.6446
2790.000000 0.6450 0.6454 0.6458 0.6464 0.6469
2785.000000 0.6475 0.6483 0.6490 0.6497 0.6503
2780.000000 0.6510 0.6522 0.6536 0.6551 0.6565
2775.000000 0.6581 0.6596 0.6611 0.6625 0.6641
2770.000000 0.6657 0.6678 0.6701 0.6728 0.6758
2765.000000 0.6786 0.6814 0.6853 0.6893 0.6925
2760.000000 0.6960 0.6989 0.7018 0.7047 0.7076
2755.000000 0.7108 0.7141 0.7174 0.7207 0.7240
2750.000000 0.7272 0.7298 0.7324 0.7344 0.7365
2745.000000 0.7385 0.7405 0.7425 0.7446 0.7465
2740.000000 0.7485 0.7496 0.7507 0.7517 0.7528
2735.000000 0.7539 0.7550 0.7560 0.7571 0.7582
2730.000000 0.7593 0.7603 0.7614 0.7624 0.7634
2725.000000 0.7644 0.7655 0.7665 0.7675 0.7685
2720.000000 0.7696 0.7706 0.7715 0.7725 0.7737
2715.000000 0.7746 0.7756 0.7765 0.7775 0.7784
2710.000000 0.7793 0.7801 0.7811 0.7821 0.7831
2705.000000 0.7840 0.7850 0.7858 0.7868 0.7875
2700.000000 0.7884 0.7890 0.7896 0.7901 0.7908
2695.000000 0.7914 0.7921 0.7926 0.7933 0.7939
2690.000000 0.7945 0.7948 0.7951 0.7955 0.7958
2685.000000 0.7961 0.7965 0.7968 0.7971 0.7974
2680.000000 0.7978 0.7978 0.7978 0.7978 0.7980
2675.000000 0.7981 0.7982 0.7982 0.7983 0.7984
2670.000000 0.7985 0.7988 0.7991 0.7994 0.7997
2665.000000 0.7999 0.8001 0.8005 0.8008 0.8014
2660.000000 0.8019 0.8025 0.8032 0.8038 0.8044
2655.000000 0.8050 0.8056 0.8061 0.8067 0.8071
2650.000000 0.8075 0.8078 0.8083 0.8087 0.8092
2645.000000 0.8096 0.8100 0.8104 0.8108 0.8111
2640.000000 0.8115 0.8117 0.8119 0.8121 0.8125
2635.000000 0.8126 0.8130 0.8132 0.8135 0.8138
2630.000000 0.8141 0.8144 0.8148 0.8151 0.8155
2625.000000 0.8158 0.8164 0.8171 0.8180 0.8188
2620.000000 0.8197 0.8205 0.8213 0.8223 0.8233
2615.000000 0.8243 0.8254 0.8264 0.8274 0.8284
2610.000000 0.8295 0.8304 0.8313 0.8318 0.8323
2605.000000 0.8328 0.8334 0.8339 0.8344 0.8346
2600.000000 0.8349 0.8350 0.8351 0.8352 0.8353
2595.000000 0.8354 0.8355 0.8356 0.8358 0.8359
2590.000000 0.8360 0.8361 0.8362 0.8363 0.8364
2585.000000 0.8364 0.8364 0.8364 0.8364 0.8368
2580.000000 0.8375 0.8383 0.8391 0.8399 0.8407
2575.000000 0.8413 0.8420 0.8425 0.8433 0.8439
2570.000000 0.8446 0.8452 0.8459 0.8465 0.8471
2565.000000 0.8478 0.8485 0.8492 0.8499 0.8505
2560.000000 0.8512 0.8518 0.8527 0.8535 0.8543
2555.000000 0.8550 0.8558 0.8565 0.8571 0.8577
2550.000000 0.8582 0.8587 0.8593 0.8598 0.8603
2545.000000 0.8608 0.8613 0.8618 0.8623 0.8628
2540.000000 0.8633 0.8635 0.8638 0.8640 0.8643
2535.000000 0.8645 0.8647 0.8649 0.8652 0.8654
2530.000000 0.8657 0.8659 0.8661 0.8661 0.8662
2525.000000 0.8662 0.8663 0.8663 0.8664 0.8664
2520.000000 0.8665 0.8665 0.8666 0.8666 0.8667
2515.000000 0.8667 0.8668 0.8668 0.8668 0.8668
2510.000000 0.8670 0.8670 0.8671 0.8671 0.8671
2505.000000 0.8673 0.8674 0.8674 0.8675 0.8675
2500.000000 0.8675 0.8677 0.8678 0.8678 0.8678
2495.000000 0.8678 0.8680 0.8681 0.8682 0.8682
2490.000000 0.8683 0.8683 0.8683 0.8682 0.8682
2485.000000 0.8681 0.8681 0.8680 0.8680 0.8678
2480.000000 0.8678 0.8678 0.8678 0.8677 0.8677
2475.000000 0.8675 0.8675 0.8675 0.8675 0.8675
2470.000000 0.8677 0.8677 0.8678 0.8678 0.8678
2465.000000 0.8678 0.8680 0.8680 0.8681 0.8683
2460.000000 0.8685 0.8687 0.8690 0.8692 0.8695
2455.000000 0.8698 0.8701 0.8703 0.8706 0.8708
2450.000000 0.8711 0.8713 0.8716 0.8718 0.8721
2445.000000 0.8724 0.8727 0.8728 0.8732 0.8734
2440.000000 0.8737 0.8740 0.8743 0.8745 0.8748
2435.000000 0.8750 0.8753 0.8755 0.8758 0.8758
2430.000000 0.8759 0.8759 0.8760 0.8760 0.8761
2425.000000 0.8762 0.8763 0.8763 0.8764 0.8764
2420.000000 0.8765 0.8765 0.8766 0.8766 0.8766
2415.000000 0.8765 0.8764 0.8762 0.8761 0.8760
2410.000000 0.8759 0.8758 0.8757 0.8755 0.8754
2405.000000 0.8752 0.8751 0.8749 0.8748 0.8746
2400.000000 0.8744 0.8742 0.8741 0.8737 0.8733
2395.000000 0.8728 0.8725 0.8724 0.8723 0.8721
2390.000000 0.8721 0.8721 0.8721 0.8721 0.8721
2385.000000 0.8720 0.8720 0.8720 0.8720 0.8718
2380.000000 0.8718 0.8718 0.8718 0.8718 0.8718
2375.000000 0.8720 0.8721 0.8721 0.8724 0.8725
2370.000000 0.8725 0.8727 0.8728 0.8730 0.8731
2365.000000 0.8732 0.8734 0.8735 0.8736 0.8737
2360.000000 0.8738 0.8739 0.8740 0.8741 0.8742
2355.000000 0.8743 0.8744 0.8745 0.8746 0.8747
2350.000000 0.8748 0.8749 0.8750 0.8751 0.8752
2345.000000 0.8753 0.8754 0.8754 0.8755 0.8755
2340.000000 0.8756 0.8756 0.8756 0.8756 0.8757
2335.000000 0.8757 0.8757 0.8757 0.8757 0.8757
2330.000000 0.8757 0.8757 0.8757 0.8757 0.8757
2325.000000 0.8754 0.8752 0.8747 0.8743 0.8738
2320.000000 0.8734 0.8721 0.8711 0.8701 0.8692
2315.000000 0.8690 0.8688 0.8686 0.8684 0.8682
2310.000000 0.8681 0.8680 0.8678 0.8673 0.8667
2305.000000 0.8653 0.8639 0.8630 0.8621 0.8618
2300.000000 0.8616 0.8615 0.8614 0.8613 0.8613
2295.000000 0.8612 0.8611 0.8610 0.8609 0.8608
2290.000000 0.8607 0.8606 0.8606 0.8605 0.8605
2285.000000 0.8605 0.8605 0.8604 0.8604 0.8603
2280.000000 0.8603 0.8603 0.8603 0.8602 0.8602
2275.000000 0.8601 0.8601 0.8601 0.8601 0.8600
2270.000000 0.8600 0.8599 0.8599 0.8599 0.8599
2265.000000 0.8598 0.8598 0.8598 0.8598 0.8598
2260.000000 0.8598 0.8598 0.8599 0.8599 0.8600
2255.000000 0.8600 0.8600 0.8600 0.8601 0.8601
2250.000000 0.8601 0.8601 0.8602 0.8602 0.8603
2245.000000 0.8603 0.8603 0.8603 0.8604 0.8604
2240.000000 0.8604 0.8604 0.8605 0.8605 0.8606
2235.000000 0.8606 0.8606 0.8606 0.8607 0.8608
2230.000000 0.8609 0.8609 0.8610 0.8610 0.8611
2225.000000 0.8611 0.8612 0.8612 0.8613 0.8614
2220.000000 0.8615 0.8615 0.8616 0.8616 0.8617
2215.000000 0.8617 0.8618 0.8618 0.8618 0.8618
2210.000000 0.8618 0.8618 0.8618 0.8618 0.8618
2205.000000 0.8618 0.8618 0.8618 0.8618 0.8618
2200.000000 0.8620 0.8620 0.8621 0.8621 0.8623
2195.000000 0.8623 0.8624 0.8625 0.8625 0.8625
2190.000000 0.8627 0.8628 0.8628 0.8630 0.8632
2185.000000 0.8633 0.8634 0.8640 0.8647 0.8655
2180.000000 0.8664 0.8675 0.8686 0.8694 0.8695
2175.000000 0.8696 0.8689 0.8682 0.8675 0.8670
2170.000000 0.8664 0.8658 0.8653 0.8649 0.8646
2165.000000 0.8645 0.8644 0.8642 0.8641 0.8639
2160.000000 0.8638 0.8637 0.8636 0.8634 0.8633
2155.000000 0.8632 0.8631 0.8630 0.8630 0.8632
2150.000000 0.8634 0.8635 0.8637 0.8638 0.8640
2145.000000 0.8641 0.8643 0.8644 0.8646 0.8648
2140.000000 0.8650 0.8651 0.8653 0.8654 0.8656
2135.000000 0.8657 0.8659 0.8660 0.8661 0.8662
2130.000000 0.8663 0.8663 0.8664 0.8665 0.8666
2125.000000 0.8666 0.8667 0.8668 0.8668 0.8668
2120.000000 0.8670 0.8671 0.8671 0.8671 0.8671
2115.000000 0.8671 0.8671 0.8670 0.8668 0.8668
2110.000000 0.8668 0.8667 0.8666 0.8665 0.8665
2105.000000 0.8664 0.8663 0.8662 0.8662 0.8661
2100.000000 0.8660 0.8659 0.8658 0.8657 0.8657
2095.000000 0.8656 0.8655 0.8654 0.8653 0.8652
2090.000000 0.8651 0.8650 0.8649 0.8648 0.8647
2085.000000 0.8646 0.8645 0.8644 0.8643 0.8642
2080.000000 0.8641 0.8640 0.8639 0.8638 0.8637
2075.000000 0.8634 0.8632 0.8630 0.8628 0.8625
2070.000000 0.8624 0.8621 0.8618 0.8617 0.8615
2065.000000 0.8613 0.8611 0.8609 0.8607 0.8604
2060.000000 0.8601 0.8598 0.8595 0.8592 0.8589
2055.000000 0.8586 0.8583 0.8580 0.8578 0.8575
2050.000000 0.8571 0.8568 0.8566 0.8563 0.8561
2045.000000 0.8558 0.8555 0.8552 0.8550 0.8547
2040.000000 0.8544 0.8541 0.8539 0.8536 0.8533
2035.000000 0.8531 0.8528 0.8527 0.8525 0.8524
2030.000000 0.8521 0.8520 0.8518 0.8516 0.8515
2025.000000 0.8513 0.8511 0.8509 0.8507 0.8504
2020.000000 0.8501 0.8498 0.8496 0.8493 0.8491
2015.000000 0.8489 0.8488 0.8487 0.8487 0.8489
2010.000000 0.8491 0.8493 0.8495 0.8497 0.8499
2005.000000 0.8501 0.8503 0.8505 0.8507 0.8510
2000.000000 0.8514 0.8517 0.8518 0.8515 0.8513
1995.000000 0.8510 0.8507 0.8504 0.8501 0.8498
1990.000000 0.8497 0.8497 0.8502 0.8508 0.8511
1985.000000 0.8512 0.8513 0.8514 0.8515 0.8517
1980.000000 0.8518 0.8520 0.8521 0.8524 0.8525
1975.000000 0.8528 0.8530 0.8531 0.8533 0.8535
1970.000000 0.8537 0.8539 0.8541 0.8542 0.8544
1965.000000 0.8547 0.8549 0.8552 0.8554 0.8556
1960.000000 0.8559 0.8561 0.8563 0.8566 0.8568
1955.000000 0.8571 0.8573 0.8575 0.8578 0.8580
1950.000000 0.8582 0.8585 0.8587 0.8590 0.8592
1945.000000 0.8594 0.8596 0.8598 0.8600 0.8602
1940.000000 0.8604 0.8606 0.8608 0.8610 0.8612
1935.000000 0.8614 0.8616 0.8618 0.8620 0.8621
1930.000000 0.8624 0.8625 0.8628 0.8630 0.8631
1925.000000 0.8631 0.8632 0.8632 0.8633 0.8633
1920.000000 0.8634 0.8635 0.8635 0.8636 0.8636
1915.000000 0.8637 0.8637 0.8638 0.8638 0.8640
1910.000000 0.8643 0.8646 0.8649 0.8651 0.8654
1905.000000 0.8657 0.8660 0.8663 0.8666 0.8668
1900.000000 0.8671 0.8675 0.8678 0.8681 0.8684
1895.000000 0.8686 0.8688 0.8689 0.8691 0.8692
1890.000000 0.8693 0.8695 0.8696 0.8698 0.8699
1885.000000 0.8701 0.8702 0.8703 0.8705 0.8706
1880.000000 0.8708 0.8709 0.8710 0.8716 0.8713
1875.000000 0.8714 0.8716 0.8717 0.8718 0.8718
1870.000000 0.8720 0.8721 0.8723 0.8724 0.8725
1865.000000 0.8727 0.8728 0.8728 0.8730 0.8732
1860.000000 0.8733 0.8734 0.8735 0.8737 0.8738
1855.000000 0.8739 0.8741 0.8742 0.8744 0.8745
1850.000000 0.8746 0.8748 0.8749 0.8750 0.8752
1845.000000 0.8753 0.8755 0.8756 0.8757 0.8759
1840.000000 0.8760 0.8761 0.8761 0.8761 0.8762
1835.000000 0.8762 0.8762 0.8763 0.8763 0.8763
1830.000000 0.8764 0.8764 0.8764 0.8765 0.8765
1825.000000 0.8765 0.8766 0.8766 0.8766 0.8767
1820.000000 0.8767 0.8767 0.8768 0.8768 0.8768
1815.000000 0.8768 0.8768 0.8768 0.8768 0.8768
1810.000000 0.8768 0.8768 0.8768 0.8768 0.8768
1805.000000 0.8768 0.8768 0.8768 0.8768 0.8768
1800.000000 0.8768 0.8768 0.8768 0.8768 0.8768
1795.000000 0.8768 0.8768 0.8768 0.8767 0.8767
1790.000000 0.8766 0.8766 0.8766 0.8765 0.8765
1785.000000 0.8764 0.8764 0.8763 0.8763 0.8762
1780.000000 0.8762 0.8762 0.8761 0.8761 0.8760
1775.000000 0.8760 0.8759 0.8759 0.8758 0.8757
1770.000000 0.8756 0.8755 0.8753 0.8752 0.8751
1765.000000 0.8749 0.8748 0.8747 0.8745 0.8744
1760.000000 0.8743 0.8741 0.8740 0.8739 0.8738
1755.000000 0.8736 0.8735 0.8731 0.8727 0.8723
1750.000000 0.8718 0.8715 0.8711 0.8707 0.8694
1745.000000 0.8678 0.8662 0.8646 0.8630 0.8615
1740.000000 0.8602 0.8590 0.8578 0.8566 0.8555
1735.000000 0.8549 0.8542 0.8537 0.8537 0.8537
1730.000000 0.8537 0.8537 0.8537 0.8537 0.8540
1725.000000 0.8545 0.8550 0.8555 0.8560 0.8565
1720.000000 0.8575 0.8585 0.8595 0.8605 0.8615
1715.000000 0.8623 0.8631 0.8639 0.8646 0.8654
1710.000000 0.8661 0.8667 0.8670 0.8673 0.8675
1705.000000 0.8678 0.8681 0.8684 0.8687 0.8690
1700.000000 0.8693 0.8695 0.8695 0.8694 0.8694
1695.000000 0.8693 0.8692 0.8691 0.8690 0.8690
1690.000000 0.8689 0.8688 0.8688 0.8686 0.8684
1685.000000 0.8681 0.8678 0.8675 0.8668 0.8658
1680.000000 0.8648 0.8637 0.8625 0.8613 0.8601
1675.000000 0.8575 0.8539 0.8500 0.8455 0.8395
1670.000000 0.8299 0.8187 0.8075 0.7971 0.7958
1665.000000 0.7948 0.7953 0.7978 0.8037 0.8104
1660.000000 0.8174 0.8237 0.8280 0.8309 0.8333
1655.000000 0.8356 0.8368 0.8378 0.8389 0.8398
1650.000000 0.8408 0.8410 0.8410 0.8411 0.8411
1645.000000 0.8412 0.8412 0.8412 0.8413 0.8413
1640.000000 0.8414 0.8414 0.8415 0.8415 0.8416
1635.000000 0.8417 0.8418 0.8420 0.8421 0.8421
1630.000000 0.8423 0.8424 0.8425 0.8428 0.8430
1625.000000 0.8432 0.8434 0.8435 0.8437 0.8439
1620.000000 0.8441 0.8443 0.8445 0.8447 0.8450
1615.000000 0.8452 0.8454 0.8457 0.8459 0.8462
1610.000000 0.8464 0.8468 0.8473 0.8477 0.8482
1605.000000 0.8487 0.8491 0.8496 0.8500 0.8505
1600.000000 0.8509 0.8514 0.8518 0.8521 0.8527
1595.000000 0.8531 0.8535 0.8539 0.8543 0.8547
1590.000000 0.8550 0.8551 0.8551 0.8551 0.8552
1585.000000 0.8552 0.8552 0.8552 0.8552 0.8552
1580.000000 0.8552 0.8551 0.8551 0.8551 0.8550
1575.000000 0.8550 0.8549 0.8549 0.8549 0.8548
1570.000000 0.8548 0.8547 0.8552 0.8556 0.8561
1565.000000 0.8565 0.8570 0.8575 0.8578 0.8584
1560.000000 0.8589 0.8594 0.8599 0.8604 0.8609
1555.000000 0.8614 0.8618 0.8625 0.8630 0.8631
1550.000000 0.8632 0.8634 0.8635 0.8636 0.8638
1545.000000 0.8639 0.8640 0.8641 0.8641 0.8641
1540.000000 0.8657 0.8638 0.8637 0.8635 0.8632
1535.000000 0.8628 0.8625 0.8621 0.8618 0.8616
1530.000000 0.8612 0.8609 0.8605 0.8601 0.8597
1525.000000 0.8593 0.8590 0.8583 0.8571 0.8562
1520.000000 0.8551 0.8538 0.8525 0.8514 0.8501
1515.000000 0.8489 0.8477 0.8465 0.8451 0.8436
1510.000000 0.8421 0.8407 0.8392 0.8378 0.8358
1505.000000 0.8336 0.8314 0.8292 0.8270 0.8248
1500.000000 0.8221 0.8194 0.8165 0.8139 0.8111
1495.000000 0.8083 0.8051 0.8018 0.7986 0.7938
1490.000000 0.7878 0.7815 0.7725 0.7636 0.7511
1485.000000 0.7371 0.7237 0.7115 0.6932 0.6741
1480.000000 0.5043 0.5048 0.5084 0.5134 0.5184
1475.000000 0.5235 0.5252 0.5256 0.5201 0.4867
1470.000000 0.4533 0.4298 0.4176 0.4099 0.4023
1465.000000 0.3942 0.3857 0.3802 0.3750 0.3708
1460.000000 0.3668 0.3630 0.3597 0.3566 0.3540
1455.000000 0.3496 0.3512 0.3512 0.3514 0.3541
1450.000000 0.3599 0.3690 0.3994 0.4319 0.4643
1445.000000 0.4967 0.5292 0.5616 0.5899 0.5993
1440.000000 0.6090 0.6187 0.6287 0.6425 0.6553
1435.000000 0.6672 0.6812 0.6928 0.7001 0.7058
1430.000000 0.7110 0.7156 0.7178 0.7188 0.7194
1425.000000 0.7201 0.7188 0.7174 0.7156 0.7108
1420.000000 0.7032 0.6901 0.6811 0.6726 0.6598
1415.000000 0.6451 0.6300 0.6138 0.5962 0.5782
1410.000000 0.5546 0.5440 0.5346 0.5327 0.5309
1405.000000 0.5291 0.5266 0.5229 0.5193 0.5157
1400.000000 0.5112 0.5055 0.4998 0.4941 0.4883
1395.000000 0.4825 0.4768 0.4669 0.4567 0.4457
1390.000000 0.4340 0.4210 0.4078 0.3557 0.3456
1385.000000 0.3366 0.3297 0.2862 0.2397 0.1931
1380.000000 0.1466 0.0911 0.0935 0.0933 0.0938
1375.000000 0.0951 0.1014 0.1492 0.1990 0.2524
1370.000000 0.3058 0.3592 0.4126 0.4372 0.4512
1365.000000 0.4654 0.4796 0.4937 0.5078 0.5149
1360.000000 0.5138 0.5138 0.5092 0.4938 0.4785
1355.000000 0.4632 0.4478 0.4325 0.4172 0.4018
1350.000000 0.3864 0.3775 0.3740 0.3750 0.3748
1345.000000 0.3760 0.3832 0.3884 0.3977 0.4073
1340.000000 0.4168 0.4262 0.4358 0.4454 0.4549
1335.000000 0.4644 0.4739 0.4835 0.4930 0.5025
1330.000000 0.5120 0.5216 0.5267 0.5299 0.5318
1325.000000 0.5353 0.5338 0.5333 0.5328 0.5307
1320.000000 0.5284 0.5260 0.5238 0.5212 0.5187
1315.000000 0.5160 0.5135 0.5108 0.5077 0.5046
1310.000000 0.5012 0.4969 0.4927 0.4856 0.4765
1305.000000 0.4675 0.4584 0.4494 0.4403 0.4312
1300.000000 0.4222 0.4132 0.4091 0.4064 0.4086
1295.000000 0.4095 0.4105 0.4182 0.4610 0.4730
1290.000000 0.4852 0.4982 0.5106 0.5154 0.5202
1285.000000 0.5241 0.5267 0.5280 0.5274 0.5275
1280.000000 0.5275 0.5274 0.5272 0.5270 0.5268
1275.000000 0.5266 0.5262 0.5256 0.5248 0.5241
1270.000000 0.5221 0.5201 0.5177 0.5127 0.5077
1265.000000 0.5023 0.4967 0.4907 0.4841 0.4792
1260.000000 0.4747 0.4699 0.4682 0.4671 0.4667
1255.000000 0.4667 0.4668 0.4688 0.4739 0.4808
1250.000000 0.4860 0.4914 0.4954 0.4989 0.5025
1245.000000 0.5071 0.5124 0.5177 0.5255 0.5343
1240.000000 0.5449 0.5555 0.5627 0.5704 0.5800
1235.000000 0.5910 0.6021 0.6131 0.6241 0.6351
1230.000000 0.6461 0.6571 0.6682 0.6755 0.6791
1225.000000 0.6828 0.6864 0.6915 0.6969 0.7001
1220.000000 0.7032 0.7061 0.7081 0.7097 0.7111
1215.000000 0.7121 0.7132 0.7145 0.7144 0.7144
1210.000000 0.7144 0.7138 0.7132 0.7126 0.7121
1205.000000 0.7112 0.7094 0.7075 0.7057 0.7038
1200.000000 0.7018 0.6978 0.6933 0.6887 0.6837
1195.000000 0.6750 0.6661 0.6517 0.6222 0.6033
1190.000000 0.5854 0.5673 0.5465 0.5256 0.5047
1185.000000 0.4838 0.4629 0.4358 0.4127 0.3950
1180.000000 0.3809 0.3668 0.3507 0.3354 0.3229
1175.000000 0.3105 0.2988 0.2873 0.2734 0.2445
1170.000000 0.2277 0.2188 0.2099 0.1944 0.1782
1165.000000 0.1718 0.1645 0.1470 0.1417 0.1368
1160.000000 0.1319 0.1271 0.1231 0.1192 0.1153
1155.000000 0.1113 0.1074 0.1042 0.1012 0.0981
1150.000000 0.0949 0.0918 0.0886 0.0855 0.0822
1145.000000 0.0795 0.0768 0.0741 0.0714 0.0692
1140.000000 0.0670 0.0648 0.0625 0.0603 0.0578
1135.000000 0.0552 0.0526 0.0500 0.0473 0.0447
1130.000000 0.0419 0.0392 0.0366 0.0341 0.0316
1125.000000 0.0292 0.0267 0.0246 0.0227 0.0208
1120.000000 0.0182 0.0159 0.0143 0.0127 0.0112
1115.000000 0.0095 0.0081 0.0071 0.0061 0.0051
1110.000000 0.0042 0.0035 0.0028 0.0022 0.0019
1105.000000 0.0016 0.0013 0.0009 0.0007 0.0013
1100.000000 0.0016 0.0019 0.0022 0.0025 0.0029
1095.000000 0.0032 0.0039 0.0047 0.0055 0.0064
1090.000000 0.0073 0.0082 0.0095 0.0117 0.0138
1085.000000 0.0159 0.0189 0.0223 0.0257 0.0298
1080.000000 0.0345 0.0395 0.0458 0.0520 0.0632
1075.000000 0.0945 0.1096 0.1211 0.1302 0.1392
1070.000000 0.1484 0.1559 0.1634 0.1709 0.1783
1065.000000 0.1854 0.1923 0.1991 0.2059 0.2127
1060.000000 0.2189 0.2250 0.2312 0.2374 0.2435
1055.000000 0.2496 0.2556 0.2626 0.2699 0.2817
1050.000000 0.3015 0.3212 0.3409 0.3606 0.3803
1045.000000 0.4000 0.4198 0.4395 0.4592 0.4789
1040.000000 0.4927 0.5084 0.5236 0.5317 0.5383
1035.000000 0.5450 0.5514 0.5560 0.5580 0.5589
1030.000000 0.5576 0.5579 0.5567 0.5529 0.5484
1025.000000 0.5410 0.5283 0.5104 0.4902 0.4728
1020.000000 0.4595 0.4479 0.4395 0.4312 0.4192
1015.000000 0.4123 0.4059 0.4048 0.4049 0.4049
1010.000000 0.4068 0.4157 0.4307 0.4416 0.4569
1005.000000 0.4722 0.4876 0.5029 0.5182 0.5335
1000.000000 0.5488 0.5641 0.5795 0.5948 0.6101
995.000000 0.6254 0.6407 0.6560 0.6628 0.6697
990.000000 0.6765 0.6834 0.6901 0.6960 0.7019
985.000000 0.7078 0.7118 0.7158 0.7197 0.7225
980.000000 0.7253 0.7281 0.7299 0.7311 0.7324
975.000000 0.7337 0.7333 0.7333 0.7334 0.7322
970.000000 0.7308 0.7293 0.7283 0.7283 0.7282
965.000000 0.7282 0.7282 0.7282 0.7280 0.7271
960.000000 0.7261 0.7253 0.7232 0.7204 0.7175
955.000000 0.7128 0.7080 0.7031 0.6982 0.6897
950.000000 0.6808 0.6624 0.6421 0.6199 0.5969
945.000000 0.5739 0.5508 0.5278 0.5048 0.4920
940.000000 0.4833 0.4731 0.4604 0.4520 0.4458
935.000000 0.4423 0.4387 0.4369 0.4352 0.4335
930.000000 0.4321 0.4314 0.4306 0.4303 0.4312
925.000000 0.4318 0.4355 0.4400 0.4457 0.4534
920.000000 0.4635 0.4745 0.4835 0.4921 0.4980
915.000000 0.5039 0.5080 0.5120 0.5141 0.5159
910.000000 0.5177 0.5195 0.5212 0.5231 0.5250
905.000000 0.5268 0.5315 0.5385 0.5540 0.5820
900.000000 0.6101 0.6381 0.6661 0.6900 0.7039
895.000000 0.7128 0.7211 0.7294 0.7372 0.7451
890.000000 0.7511 0.7553 0.7575 0.7588 0.7599
885.000000 0.7604 0.7605 0.7606 0.7595 0.7584
880.000000 0.7540 0.7482 0.7358 0.7295 0.7193
875.000000 0.7074 0.6954 0.6835 0.6715 0.6597
870.000000 0.6476 0.6376 0.6330 0.6315 0.6309
865.000000 0.6309 0.6308 0.6317 0.6327 0.6352
860.000000 0.6397 0.6434 0.6471 0.6508 0.6545
855.000000 0.6578 0.6608 0.6637 0.6664 0.6684
850.000000 0.6705 0.6724 0.6740 0.6753 0.6764
845.000000 0.6778 0.6775 0.6771 0.6749 0.6724
840.000000 0.6699 0.6668 0.6640 0.6608 0.6578
835.000000 0.6568 0.6561 0.6571 0.6584 0.6601
830.000000 0.6619 0.6639 0.6669 0.6708 0.6746
825.000000 0.6785 0.6876 0.6971 0.7032 0.7093
820.000000 0.7154 0.7211 0.7258 0.7307 0.7354
815.000000 0.7401 0.7445 0.7485 0.7525 0.7565
810.000000 0.7605 0.7645 0.7683 0.7717 0.7751
805.000000 0.7786 0.7819 0.7855 0.7889 0.7922
800.000000 0.7950 0.7975 0.8001 0.8028 0.8055
795.000000 0.8082 0.8105 0.8118 0.8133 0.8147
790.000000 0.8161 0.8175 0.8189 0.8203 0.8215
785.000000 0.8225 0.8235 0.8244 0.8254 0.8264
780.000000 0.8274 0.8284 0.8294 0.8302 0.8308
775.000000 0.8314 0.8320 0.8327 0.8333 0.8339
770.000000 0.8346 0.8350 0.8353 0.8356 0.8359
765.000000 0.8360 0.8361 0.8363 0.8364 0.8365
760.000000 0.8366 0.8367 0.8367 0.8368 0.8368
755.000000 0.8370 0.8371 0.8371 0.8371 0.8373
750.000000 0.8374 0.8375 0.8375 0.8377 0.8377
745.000000 0.8377 0.8375 0.8374 0.8371 0.8371
740.000000 0.8368 0.8368 0.8365 0.8355 0.8345
735.000000 0.8336 0.8325 0.8316 0.8306 0.8297
730.000000 0.8292 0.8288 0.8283 0.8278 0.8271
725.000000 0.8266 0.8260 0.8253 0.8247 0.8268
720.000000 0.8251 0.8256 0.8260 0.8265 0.8270
715.000000 0.8274 0.8278 0.8284 0.8287 0.8289
710.000000 0.8291 0.8294 0.8296 0.8298 0.8301
705.000000 0.8302 0.8302 0.8301 0.8301 0.8301
700.000000 0.8301 0.8301 0.8301 0.8300 0.8297
695.000000 0.8294 0.8290 0.8287 0.8283 0.8278
690.000000 0.8271 0.8265 0.8259 0.8252 0.8246
685.000000 0.8239 0.8233 0.8225 0.8217 0.8209
680.000000 0.8201 0.8192 0.8183 0.8169 0.8158
675.000000 0.8145 0.8132 0.8118 0.8105 0.8093
670.000000 0.8082 0.8082 0.8082 0.8087 0.8093
665.000000 0.8099 0.8101 0.8101 0.8103 0.8101
660.000000 0.8097 0.8093 0.8093 0.8092 0.8093
655.000000 0.8093 0.8094 0.8095 0.8096 0.8097
650.000000 0.8098 0.8100 0.8101 0.8101 0.8103
645.000000 0.8104 0.8105 0.8107 0.8108 0.8108
640.000000 0.8108 0.8107 0.8106 0.8105 0.8104
635.000000 0.8101 0.8101 0.8100 0.8099 0.8097
630.000000 0.8096 0.8094 0.8093 0.8091 0.8090
625.000000 0.8088 0.8086 0.8084 0.8080 0.8076
620.000000 0.8072 0.8068 0.8065 0.8060 0.8050
615.000000 0.8040 0.8030 0.8019 0.8011 0.8001
610.000000 0.7991 0.7978 0.7964 0.7950 0.7936
605.000000 0.7921 0.7907 0.7893 0.7878 0.7862
600.000000 0.7848 0.7832 0.7817 0.7801 0.7786
595.000000 0.7769 0.7754 0.7738 0.7722 0.7707
590.000000 0.7691 0.7675 0.7660 0.7644 0.7628
585.000000 0.7611 0.7601 0.7592 0.7583 0.7572
580.000000 0.7562 0.7554 0.7544 0.7535 0.7525
575.000000 0.7515 0.7506 0.7496 0.7486 0.7476
570.000000 0.7468 0.7460 0.7453 0.7445 0.7437
565.000000 0.7430 0.7421 0.7415 0.7407 0.7400
560.000000 0.7392 0.7384 0.7376 0.7369 0.7361
555.000000 0.7355 0.7347 0.7340 0.7332 0.7326
550.000000 0.7321 0.7317 0.7311 0.7306 0.7300
545.000000 0.7294 0.7287 0.7280 0.7274 0.7267
540.000000 0.7253 0.7236 0.7218 0.7204 0.7188
535.000000 0.7169 0.7151 0.7135 0.7118 0.7106
530.000000 0.7094 0.7082 0.7075 0.7071 0.7068
525.000000 0.7064 0.7060 0.7058 0.7057 0.7055
520.000000 0.7054 0.7054 0.7054 0.7054 0.7054
515.000000 0.7054 0.7054 0.7055 0.7055 0.7055
510.000000 0.7055 0.7055 0.7057 0.7058 0.7060
505.000000 0.7061 0.7062 0.7065 0.7067 0.7068
500.000000 0.7069 0.7071 0.7072 0.7074 0.7075
495.000000 0.7075 0.7075 0.7076 0.7078 0.7078
490.000000 0.7078 0.7078 0.7078 0.7076 0.7075
485.000000 0.7072 0.7071 0.7069 0.7068 0.7065
480.000000 0.7064 0.7061 0.7060 0.7058 0.7056
475.000000 0.7054 0.7051 0.7050 0.7049 0.7048
470.000000 0.7047 0.7046 0.7045 0.7045 0.7044
465.000000 0.7043 0.7042 0.7041 0.7040 0.7039
460.000000 0.7038 0.7037 0.7036 0.7035 0.7034
455.000000 0.7033 0.7032 0.7031 0.7031 0.7031
450.000000 0.7032 0.7033 0.7033 0.7034 0.7035
445.000000 0.7035 0.7036 0.7037 0.7037 0.7038
440.000000 0.7039 0.7039 0.7040 0.7041 0.7041
435.000000 0.7042 0.7044 0.7045 0.7047 0.7049
430.000000 0.7050 0.7051 0.7054 0.7055 0.7057
425.000000 0.7058 0.7060 0.7061 0.7064 0.7065
420.000000 0.7067 0.7068 0.7071 0.7071 0.7074
415.000000 0.7075 0.7078 0.7080 0.7081 0.7083
410.000000 0.7085 0.7087 0.7089 0.7091 0.7093
405.000000 0.7095 0.7098 0.7101 0.7103 0.7106
400.000000 0.7108 0.7108 0.7110 0.7110 0.7111
395.000000 0.7112 0.7118
##END=
