##TITLE=SILANE, TRIMETHOXY-[3(2-METHYLPROPENOYLOXY)PROPYL]-
##JCAMP-DX=4.24
##DATA TYPE=INFRARED SPECTRUM
##CLASS=COBLENTZ
##ORIGIN=DOW CORNING CORP.
##OWNER=COBLENTZ SOCIETY
Collection (C) 2018 copyright by the U.S. Secretary of Commerce
on behalf of the United States of America. All rights reserved.
##DATE=1974/10/03
##NAMES=3-(trimethoxysilyl)propyl 2-methylacrylate
Z-6030 CURING AGENT - DOW CORNING
##CAS REGISTRY NO=2530-85-0
##MOLFORM=C10 H20 O5 Si
##SOURCE REFERENCE=COBLENTZ NO. 10111
##$NIST SOURCE=COBLENTZ
##$NIST IMAGE=cob10111
##SPECTROMETER/DATA SYSTEM=PERKIN-ELMER 521 (GRATING)
##INSTRUMENT PARAMETERS=FILTERS AT 3150, 2500, 2000, 1150, 700, 410 AND GRATING CHANGES AT 2000, 630 CM^-^1
##STATE=SOLUTION (10% IN CCl4 FOR 3800-1300, 2.6% IN CS2 FOR 1300-700, AND 10% IN CCl4 FOR 700-250 CM^-^1) VS. SOLVENT
##PATH LENGTH=0.011, 0.011, AND 0.010 CM (CsBr CELL)
##SAMPLING PROCEDURE=TRANSMISSION
##RESOLUTION=4
##DATA PROCESSING=DIGITIZED BY NIST FROM HARD COPY (FROM TWO SEGMENTS)
##XUNITS=1/CM
##YUNITS=TRANSMITTANCE
##XFACTOR=1.000000
##YFACTOR=1
##DELTAX=0.920071
##FIRSTX=245.428
##LASTX=3797.82
##FIRSTY=0.694
##MAXX=3797.82
##MINX=245.428
##MAXY=0.9
##MINY=0.007
##NPOINTS=3862
##XYDATA=(X++(Y..Y))
245.428000 0.6940 0.6940 0.6940 0.6940 0.6940
250.028354 0.6940 0.6940 0.6940 0.6940 0.6940
254.628707 0.6940 0.6940 0.6940 0.6940 0.6940
259.229061 0.6940 0.6940 0.6940 0.6960 0.6940
263.829414 0.6940 0.6940 0.6940 0.6940 0.6930
268.429768 0.6940 0.6940 0.6940 0.6940 0.6940
273.030122 0.6930 0.6930 0.6930 0.6930 0.6930
277.630475 0.6920 0.6920 0.6920 0.6920 0.6920
282.230829 0.6920 0.6910 0.6890 0.6880 0.6880
286.831182 0.6880 0.6870 0.6870 0.6870 0.6860
291.431536 0.6860 0.6860 0.6860 0.6860 0.6860
296.031890 0.6840 0.6840 0.6830 0.6810 0.6790
300.632243 0.6780 0.6760 0.6720 0.6670 0.6650
305.232597 0.6620 0.6610 0.6600 0.6580 0.6550
309.832950 0.6550 0.6530 0.6520 0.6500 0.6480
314.433304 0.6480 0.6470 0.6450 0.6430 0.6410
319.033658 0.6400 0.6380 0.6360 0.6350 0.6330
323.634011 0.6320 0.6300 0.6270 0.6250 0.6220
328.234365 0.6180 0.6150 0.6110 0.6070 0.6060
332.834718 0.6030 0.6020 0.5970 0.5940 0.5890
337.435072 0.5850 0.5800 0.5760 0.5720 0.5700
342.035426 0.5660 0.5650 0.5620 0.5610 0.5600
346.635779 0.5600 0.5590 0.5590 0.5570 0.5570
351.236133 0.5570 0.5570 0.5560 0.5560 0.5560
355.836486 0.5560 0.5570 0.5570 0.5570 0.5570
360.436840 0.5570 0.5570 0.5570 0.5570 0.5570
365.037194 0.5590 0.5590 0.5590 0.5590 0.5590
369.637547 0.5590 0.5590 0.5600 0.5600 0.5600
374.237901 0.5610 0.5610 0.5620 0.5620 0.5650
378.838254 0.5660 0.5670 0.5690 0.5720 0.5760
383.438608 0.5810 0.5840 0.5870 0.5920 0.5960
388.038962 0.6000 0.6050 0.6110 0.6160 0.6170
392.639315 0.6170 0.6180 0.6180 0.6200 0.6200
397.239669 0.6200 0.6180 0.6160 0.6160 0.6160
401.840022 0.6150 0.6120 0.6110 0.6080 0.6030
406.440376 0.6010 0.5970 0.5920 0.5890 0.5860
411.040730 0.5840 0.5820 0.5820 0.5820 0.5840
415.641083 0.5850 0.5860 0.5870 0.5890 0.5910
420.241437 0.5910 0.5920 0.5920 0.5940 0.5950
424.841790 0.5960 0.5990 0.6010 0.6010 0.6020
429.442144 0.6030 0.6030 0.6060 0.6060 0.6070
434.042497 0.6080 0.6110 0.6120 0.6120 0.6130
438.642851 0.6160 0.6170 0.6200 0.6200 0.6210
443.243205 0.6210 0.6210 0.6200 0.6200 0.6170
447.843558 0.6150 0.6130 0.6120 0.6110 0.6080
452.443912 0.6060 0.6050 0.6020 0.6010 0.6010
457.044265 0.6000 0.6000 0.6000 0.6010 0.6010
461.644619 0.6030 0.6050 0.6100 0.6150 0.6180
466.244973 0.6250 0.6300 0.6350 0.6400 0.6410
470.845326 0.6430 0.6460 0.6470 0.6470 0.6480
475.445680 0.6480 0.6480 0.6480 0.6480 0.6470
480.046033 0.6470 0.6470 0.6470 0.6480 0.6500
484.646387 0.6530 0.6550 0.6570 0.6600 0.6690
489.246741 0.6770 0.6860 0.6920 0.6990 0.7060
493.847094 0.7110 0.7160 0.7210 0.7260 0.7290
498.447448 0.7350 0.7380 0.7390 0.7390 0.7400
503.047801 0.7400 0.7400 0.7400 0.7400 0.7400
507.648155 0.7400 0.7400 0.7390 0.7390 0.7390
512.248509 0.7380 0.7370 0.7350 0.7330 0.7290
516.848862 0.7280 0.7270 0.7260 0.7240 0.7230
521.449216 0.7230 0.7220 0.7210 0.7190 0.7160
526.049569 0.7120 0.7110 0.7070 0.7020 0.6990
530.649923 0.6960 0.6920 0.6910 0.6890 0.6910
535.250277 0.6920 0.6960 0.7020 0.7090 0.7180
539.850630 0.7240 0.7310 0.7330 0.7340 0.7350
544.450984 0.7370 0.7380 0.7380 0.7400 0.7420
549.051337 0.7440 0.7450 0.7470 0.7470 0.7480
553.651691 0.7500 0.7520 0.7530 0.7530 0.7540
558.252045 0.7540 0.7540 0.7540 0.7540 0.7540
562.852398 0.7540 0.7540 0.7530 0.7530 0.7530
567.452752 0.7530 0.7520 0.7520 0.7500 0.7500
572.053105 0.7480 0.7450 0.7450 0.7440 0.7440
576.653459 0.7430 0.7420 0.7400 0.7390 0.7370
581.253813 0.7350 0.7330 0.7290 0.7260 0.7180
585.854166 0.7130 0.7110 0.7070 0.7060 0.7060
590.454520 0.7040 0.7020 0.7020 0.6970 0.6940
595.054873 0.6920 0.6920 0.6890 0.6890 0.6910
599.655227 0.6920 0.6930 0.7010 0.7080 0.7110
604.255581 0.7130 0.7140 0.7160 0.7170 0.7190
608.855934 0.7220 0.7230 0.7240 0.7260 0.7290
613.456288 0.7330 0.7340 0.7350 0.7380 0.7390
618.056641 0.7400 0.7400 0.7400 0.7390 0.7380
622.656995 0.7370 0.7340 0.7320 0.7280 0.7260
627.257349 0.7240 0.7210 0.7160 0.7110 0.7060
631.857702 0.7010 0.6960 0.6930 0.6890 0.6870
636.458056 0.6770 0.6670 0.6580 0.6510 0.6420
641.058409 0.6320 0.6220 0.6100 0.5950 0.5890
645.658763 0.5860 0.5860 0.5870 0.5910 0.5950
650.259117 0.6010 0.6020 0.6060 0.6100 0.6120
654.859470 0.6150 0.6170 0.6210 0.6270 0.6360
659.459824 0.6480 0.6610 0.6720 0.6770 0.6830
664.060177 0.6860 0.6930 0.6930 0.6940 0.6940
668.660531 0.6910 0.6910 0.6890 0.6860 0.6840
673.260885 0.6840 0.6840 0.6860 0.6880 0.6880
677.861238 0.6910 0.6940 0.7010 0.7060 0.7120
682.461592 0.7160 0.7190 0.7190 0.7210 0.7210
687.061945 0.7220 0.7220 0.7230 0.7230 0.7230
691.662299 0.7230 0.7230 0.7230 0.7230 0.7230
696.262653 0.7230 0.7230 0.7230 0.7230 0.7230
700.863006 0.7230 0.7230 0.7230 0.7230 0.7230
705.463360 0.7230 0.7230 0.7230 0.7230 0.7230
710.063713 0.7230 0.7230 0.7230 0.7230 0.7230
714.664067 0.7230 0.7230 0.7230 0.7230 0.7230
719.264421 0.7230 0.7230 0.7230 0.7230 0.7230
723.864774 0.7230 0.7230 0.7230 0.7230 0.7230
728.465128 0.7230 0.7230 0.7230 0.7230 0.7230
733.065481 0.7230 0.7230 0.7230 0.7230 0.7230
737.665835 0.7230 0.7230 0.7230 0.7230 0.7230
742.266189 0.7230 0.7230 0.7230 0.7230 0.7130
746.866542 0.7090 0.6990 0.6930 0.6820 0.6691
751.466896 0.6570 0.6480 0.6430 0.6370 0.6360
756.067249 0.6360 0.6360 0.6350 0.6350 0.6330
760.667603 0.6320 0.6310 0.6270 0.6210 0.6150
765.267957 0.6060 0.5960 0.5940 0.5820 0.5760
769.868310 0.5660 0.5600 0.5560 0.5540 0.5520
774.468664 0.5520 0.5510 0.5500 0.5490 0.5470
779.069017 0.5460 0.5450 0.5440 0.5410 0.5370
783.669371 0.5330 0.5280 0.5230 0.5190 0.5160
788.269725 0.5110 0.5060 0.5010 0.4980 0.4940
792.870078 0.4900 0.4860 0.4830 0.4800 0.4780
797.470432 0.4740 0.4710 0.4690 0.4660 0.4630
802.070785 0.4620 0.4570 0.4500 0.4420 0.4330
806.671139 0.4230 0.4120 0.4000 0.3890 0.3780
811.271492 0.3680 0.3570 0.3530 0.3510 0.3510
815.871846 0.3520 0.3530 0.3540 0.3570 0.3620
820.472200 0.3670 0.3740 0.3810 0.3890 0.3990
825.072553 0.4090 0.4190 0.4320 0.4440 0.4570
829.672907 0.4700 0.4959 0.5030 0.5299 0.5619
834.273260 0.5720 0.5790 0.5850 0.5900 0.5920
838.873614 0.5940 0.5940 0.5950 0.5950 0.5950
843.473968 0.5950 0.5960 0.5990 0.6020 0.6160
848.074321 0.6250 0.6320 0.6400 0.6550 0.6660
852.674675 0.6730 0.6790 0.6830 0.6860 0.6880
857.275028 0.6890 0.6910 0.6920 0.6930 0.6930
861.875382 0.6940 0.6960 0.6960 0.6980 0.7030
866.475736 0.7090 0.7140 0.7309 0.7390 0.7480
871.076089 0.7490 0.7570 0.7620 0.7700 0.7770
875.676443 0.7790 0.7800 0.7830 0.7840 0.7840
880.276796 0.7830 0.7830 0.7830 0.7830 0.7830
884.877150 0.7830 0.7830 0.7830 0.7830 0.7830
889.477504 0.7830 0.7830 0.7830 0.7830 0.7830
894.077857 0.7830 0.7830 0.7830 0.7840 0.7840
898.678211 0.7850 0.7870 0.7880 0.7880 0.7900
903.278564 0.7920 0.7920 0.7920 0.7930 0.7930
907.878918 0.7930 0.7930 0.7940 0.7940 0.7930
912.479272 0.7930 0.7920 0.7890 0.7890 0.7890
917.079625 0.7880 0.7840 0.7800 0.7750 0.7730
921.679979 0.7700 0.7670 0.7620 0.7580 0.7490
926.280332 0.7340 0.7230 0.7020 0.6770 0.6520
930.880686 0.6330 0.6220 0.6110 0.5571 0.5550
935.481040 0.5570 0.5770 0.5960 0.6150 0.6330
940.081393 0.6470 0.6789 0.7069 0.7309 0.7479
944.681747 0.7600 0.7670 0.7730 0.7750 0.7850
949.282100 0.7900 0.7930 0.7940 0.7950 0.7950
953.882454 0.7950 0.7950 0.7950 0.7950 0.7950
958.482808 0.7950 0.7940 0.7930 0.7920 0.7920
963.083161 0.7900 0.7880 0.7850 0.7850 0.7830
967.683515 0.7820 0.7770 0.7730 0.7670 0.7630
972.283868 0.7540 0.7450 0.7430 0.7350 0.7330
976.884222 0.7330 0.7340 0.7370 0.7390 0.7400
981.484576 0.7400 0.7420 0.7420 0.7420 0.7430
986.084929 0.7440 0.7440 0.7440 0.7440 0.7440
990.685283 0.7440 0.7430 0.7430 0.7420 0.7400
995.285636 0.7380 0.7350 0.7320 0.7280 0.7180
999.885990 0.7070 0.6970 0.6860 0.6740 0.6620
1004.486344 0.6500 0.6350 0.6220 0.6210 0.6220
1009.086697 0.6270 0.6410 0.6460 0.6520 0.6570
1013.687051 0.6600 0.6620 0.6660 0.6690 0.6720
1018.287404 0.6730 0.6760 0.6770 0.6770 0.6760
1022.887758 0.6760 0.6740 0.6730 0.6730 0.6720
1027.488112 0.6710 0.6690 0.6670 0.6600 0.6570
1032.088465 0.6520 0.6480 0.6460 0.6450 0.6450
1036.688819 0.6430 0.6430 0.6430 0.6420 0.6420
1041.289172 0.6420 0.6410 0.6410 0.6400 0.6380
1045.889526 0.6370 0.6350 0.6350 0.6320 0.6300
1050.489880 0.6250 0.6180 0.6110 0.6030 0.5940
1055.090233 0.5820 0.5750 0.5700 0.5660 0.5560
1059.690587 0.5500 0.5440 0.5300 0.5180 0.5080
1064.290940 0.5010 0.4960 0.4850 0.4710 0.4570
1068.891294 0.4420 0.4230 0.4041 0.3841 0.3631
1073.491648 0.3410 0.3170 0.2910 0.2650 0.2370
1078.092001 0.2090 0.1780 0.1580 0.1321 0.1220
1082.692355 0.1050 0.1000 0.0940 0.0790 0.0730
1087.292708 0.0720 0.0730 0.0740 0.0770 0.0790
1091.893062 0.0900 0.1020 0.1100 0.1230 0.1340
1096.493416 0.1450 0.1510 0.1630 0.1750 0.1860
1101.093769 0.1910 0.1960 0.2010 0.2090 0.2170
1105.694123 0.2260 0.2360 0.2470 0.2590 0.2710
1110.294476 0.2860 0.3000 0.3160 0.3320 0.3490
1114.894830 0.3630 0.3760 0.3890 0.4040 0.4180
1119.495184 0.4320 0.4450 0.4580 0.4680 0.4760
1124.095537 0.4840 0.4890 0.5010 0.5100 0.5110
1128.695891 0.5140 0.5160 0.5180 0.5180 0.5180
1133.296244 0.5180 0.5180 0.5160 0.5160 0.5150
1137.896598 0.5130 0.5080 0.5000 0.4930 0.4830
1142.496952 0.4710 0.4570 0.4430 0.4270 0.4071
1147.097305 0.3980 0.3810 0.3570 0.3280 0.2980
1151.697659 0.2660 0.2560 0.2450 0.2350 0.2260
1156.298012 0.2200 0.2160 0.2140 0.2120 0.2110
1160.898366 0.2120 0.2190 0.2210 0.2260 0.2409
1165.498720 0.2540 0.2660 0.2770 0.2880 0.2960
1170.099073 0.3130 0.3270 0.3380 0.3480 0.3540
1174.699427 0.3580 0.3620 0.3630 0.3630 0.3630
1179.299780 0.3620 0.3590 0.3570 0.3540 0.3530
1183.900134 0.3520 0.3490 0.3490 0.3510 0.3520
1188.500487 0.3530 0.3540 0.3570 0.3580 0.3610
1193.100841 0.3610 0.3670 0.3760 0.3810 0.3880
1197.701195 0.4000 0.4140 0.4300 0.4490 0.4689
1202.301548 0.4880 0.5080 0.5260 0.5610 0.5750
1206.901902 0.5860 0.5920 0.6199 0.6330 0.6470
1211.502255 0.6530 0.6610 0.6650 0.6730 0.6790
1216.102609 0.6860 0.6910 0.6960 0.7060 0.7080
1220.702963 0.7120 0.7140 0.7180 0.7220 0.7240
1225.303316 0.7290 0.7340 0.7370 0.7380 0.7390
1229.903670 0.7400 0.7400 0.7400 0.7400 0.7400
1234.504023 0.7400 0.7400 0.7400 0.7400 0.7400
1239.104377 0.7400 0.7390 0.7390 0.7380 0.7370
1243.704731 0.7350 0.7330 0.7320 0.7310 0.7270
1248.305084 0.7240 0.7160 0.7060 0.6980 0.6920
1252.905438 0.6880 0.6780 0.6730 0.6730 0.6740
1257.505791 0.6820 0.6890 0.6960 0.7080 0.7110
1262.106145 0.7220 0.7260 0.7260 0.7270 0.7270
1266.706499 0.7260 0.7260 0.7240 0.7240 0.7230
1271.306852 0.7230 0.7230 0.7220 0.7210 0.7190
1275.907206 0.7180 0.7140 0.7060 0.7020 0.6990
1280.507559 0.6920 0.6890 0.6820 0.6680 0.6521
1285.107913 0.6299 0.6010 0.5690 0.5500 0.5310
1289.708267 0.4860 0.4620 0.2653 0.0674 0.0640
1294.308620 0.0660 0.0800 0.1080 0.1170 0.1190
1298.908974 0.1660 0.2399 0.2749 0.3079 0.3100
1303.509327 0.3080 0.2880 0.2680 0.2410 0.2400
1308.109681 0.2390 0.2370 0.2360 0.2350 0.2270
1312.710035 0.2139 0.1849 0.1510 0.1380 0.1300
1317.310388 0.1290 0.1320 0.1440 0.1640 0.1840
1321.910742 0.2020 0.2110 0.2160 0.2160 0.2190
1326.511095 0.2240 0.2370 0.2590 0.3059 0.3479
1331.111449 0.4281 0.4630 0.4950 0.5690 0.5950
1335.711803 0.6160 0.6270 0.6330 0.6450 0.6470
1340.312156 0.6470 0.6460 0.6430 0.6350 0.6280
1344.912510 0.6230 0.6160 0.6100 0.6100 0.6110
1349.512863 0.6220 0.6300 0.6410 0.6530 0.6630
1354.113217 0.6730 0.6790 0.6880 0.6930 0.6940
1358.713571 0.6940 0.6930 0.6930 0.6920 0.6890
1363.313924 0.6840 0.6790 0.6730 0.6670 0.6620
1367.914278 0.6520 0.6370 0.6130 0.5810 0.5490
1372.514631 0.5420 0.5420 0.5769 0.5959 0.6070
1377.114985 0.6120 0.6130 0.6100 0.6010 0.5850
1381.715339 0.5720 0.5610 0.5510 0.5500 0.5490
1386.315692 0.5590 0.5650 0.5740 0.5750 0.5740
1390.916046 0.5740 0.5690 0.5650 0.5550 0.5400
1395.516399 0.5250 0.4940 0.4780 0.4580 0.4570
1400.116753 0.4580 0.4630 0.4660 0.4740 0.4890
1404.717107 0.4910 0.4910 0.4910 0.4900 0.4730
1409.317460 0.4620 0.4590 0.4590 0.4710 0.4890
1413.917814 0.5101 0.5520 0.5690 0.5810 0.5900
1418.518167 0.5910 0.5910 0.5900 0.5900 0.5890
1423.118521 0.5860 0.5840 0.5770 0.5710 0.5640
1427.718875 0.5550 0.5490 0.5410 0.5250 0.5011
1432.319228 0.4900 0.4740 0.4540 0.4420 0.4340
1436.919582 0.4320 0.4300 0.4300 0.4300 0.4290
1441.519935 0.4280 0.4250 0.4180 0.4070 0.3960
1446.120289 0.3770 0.3580 0.3360 0.2881 0.2820
1450.720643 0.2820 0.2850 0.2880 0.3080 0.3170
1455.320996 0.3340 0.3490 0.3640 0.3740 0.3770
1459.921350 0.3780 0.3780 0.3780 0.3780 0.3780
1464.521703 0.3780 0.3790 0.3790 0.3810 0.3830
1469.122057 0.3910 0.4030 0.4120 0.4270 0.4340
1473.722411 0.4500 0.4710 0.4980 0.5190 0.5589
1478.322764 0.5770 0.5950 0.6100 0.6250 0.6370
1482.923118 0.6460 0.6550 0.6610 0.6670 0.6730
1487.523471 0.6780 0.6840 0.6880 0.6930 0.6970
1492.123825 0.7020 0.7040 0.7080 0.7120 0.7160
1496.724179 0.7180 0.7190 0.7190 0.7190 0.7190
1501.324532 0.7210 0.7210 0.7230 0.7270 0.7320
1505.924886 0.7380 0.7400 0.7420 0.7470 0.7500
1510.525239 0.7540 0.7570 0.7580 0.7580 0.7600
1515.125593 0.7600 0.7600 0.7630 0.7630 0.7650
1519.725947 0.7670 0.7680 0.7680 0.7680 0.7690
1524.326300 0.7690 0.7690 0.7700 0.7700 0.7720
1528.926654 0.7720 0.7730 0.7740 0.7740 0.7750
1533.527007 0.7750 0.7750 0.7740 0.7740 0.7740
1538.127361 0.7740 0.7750 0.7770 0.7770 0.7770
1542.727715 0.7780 0.7780 0.7780 0.7780 0.7780
1547.328068 0.7780 0.7790 0.7790 0.7790 0.7790
1551.928422 0.7790 0.7780 0.7790 0.7790 0.7790
1556.528775 0.7790 0.7790 0.7790 0.7800 0.7790
1561.129129 0.7790 0.7790 0.7790 0.7790 0.7790
1565.729482 0.7790 0.7790 0.7790 0.7790 0.7790
1570.329836 0.7790 0.7790 0.7790 0.7790 0.7800
1574.930190 0.7800 0.7800 0.7800 0.7800 0.7800
1579.530543 0.7800 0.7800 0.7800 0.7800 0.7790
1584.130897 0.7790 0.7800 0.7800 0.7790 0.7790
1588.731250 0.7790 0.7790 0.7790 0.7780 0.7780
1593.331604 0.7780 0.7770 0.7770 0.7770 0.7770
1597.931958 0.7750 0.7740 0.7720 0.7700 0.7690
1602.532311 0.7680 0.7670 0.7640 0.7620 0.7580
1607.132665 0.7550 0.7540 0.7520 0.7480 0.7440
1611.733018 0.7430 0.7390 0.7350 0.7320 0.7240
1616.333372 0.7180 0.7110 0.7030 0.6930 0.6830
1620.933726 0.6690 0.6560 0.6410 0.6260 0.6100
1625.534079 0.5910 0.5710 0.5570 0.5510 0.5440
1630.134433 0.5310 0.5180 0.5030 0.4860 0.4690
1634.734786 0.4500 0.4270 0.3930 0.3530 0.3510
1639.335140 0.3520 0.3770 0.4119 0.4499 0.4929
1643.935494 0.5861 0.6311 0.6711 0.7040 0.7280
1648.535847 0.7380 0.7570 0.7630 0.7690 0.7720
1653.136201 0.7720 0.7730 0.7730 0.7720 0.7720
1657.736554 0.7720 0.7720 0.7700 0.7690 0.7680
1662.336908 0.7670 0.7650 0.7630 0.7590 0.7580
1666.937262 0.7570 0.7540 0.7490 0.7450 0.7400
1671.537615 0.7350 0.7290 0.7240 0.7180 0.7120
1676.137969 0.7060 0.6990 0.6930 0.6870 0.6840
1680.738322 0.6810 0.6780 0.6760 0.6740 0.6730
1685.338676 0.6690 0.6660 0.6630 0.6600 0.6550
1689.939030 0.6450 0.6320 0.6270 0.6150 0.6030
1694.539383 0.5940 0.5850 0.5740 0.5590 0.5490
1699.139737 0.5389 0.5179 0.4940 0.4680 0.4430
1703.740090 0.4180 0.3930 0.3620 0.3300 0.2961
1708.340444 0.2659 0.2419 0.1749 0.1030 0.0900
1712.940798 0.0770 0.0430 0.0230 0.0080 0.0070
1717.541151 0.0070 0.0070 0.0070 0.0070 0.0070
1722.141505 0.0070 0.0080 0.0080 0.0090 0.0130
1726.741858 0.0180 0.0210 0.0270 0.0380 0.0620
1731.342212 0.1280 0.1610 0.1999 0.2409 0.2849
1735.942566 0.3301 0.3731 0.4151 0.4550 0.4910
1740.542919 0.5230 0.5560 0.5820 0.6060 0.6260
1745.143273 0.6400 0.6480 0.6560 0.6610 0.6660
1749.743626 0.6730 0.6840 0.6990 0.7060 0.7120
1754.343980 0.7210 0.7230 0.7280 0.7340 0.7380
1758.944334 0.7400 0.7450 0.7540 0.7570 0.7580
1763.544687 0.7600 0.7620 0.7630 0.7640 0.7680
1768.145041 0.7690 0.7730 0.7750 0.7780 0.7790
1772.745394 0.7820 0.7840 0.7850 0.7870 0.7880
1777.345748 0.7890 0.7900 0.7920 0.7920 0.7940
1781.946102 0.7940 0.7950 0.7950 0.7970 0.7990
1786.546455 0.8000 0.8000 0.8000 0.8010 0.8030
1791.146809 0.8030 0.8040 0.8040 0.8050 0.8060
1795.747162 0.8080 0.8090 0.8090 0.8110 0.8130
1800.347516 0.8140 0.8140 0.8150 0.8150 0.8160
1804.947870 0.8160 0.8180 0.8180 0.8180 0.8180
1809.548223 0.8190 0.8190 0.8190 0.8190 0.8190
1814.148577 0.8190 0.8190 0.8190 0.8190 0.8190
1818.748930 0.8190 0.8190 0.8190 0.8190 0.8190
1823.349284 0.8190 0.8190 0.8190 0.8190 0.8180
1827.949638 0.8180 0.8180 0.8180 0.8180 0.8180
1832.549991 0.8180 0.8160 0.8160 0.8160 0.8160
1837.150345 0.8150 0.8150 0.8140 0.8150 0.8150
1841.750698 0.8140 0.8140 0.8140 0.8130 0.8130
1846.351052 0.8130 0.8130 0.8130 0.8130 0.8130
1850.951406 0.8110 0.8110 0.8100 0.8100 0.8080
1855.551759 0.8080 0.8050 0.8040 0.8040 0.8040
1860.152113 0.8030 0.8010 0.8000 0.7970 0.7950
1864.752466 0.7940 0.7940 0.7930 0.7920 0.7890
1869.352820 0.7880 0.7870 0.7840 0.7830 0.7740
1873.953174 0.7730 0.7730 0.7720 0.7720 0.7700
1878.553527 0.7700 0.7700 0.7720 0.7720 0.7720
1883.153881 0.7720 0.7730 0.7730 0.7730 0.7740
1887.754234 0.7750 0.7750 0.7780 0.7790 0.7800
1892.354588 0.7820 0.7850 0.7870 0.7870 0.7890
1896.954942 0.7900 0.7900 0.7920 0.7920 0.7920
1901.555295 0.7920 0.7920 0.7930 0.7930 0.7940
1906.155649 0.7940 0.7940 0.7950 0.7950 0.7950
1910.756002 0.7950 0.7970 0.7970 0.7970 0.7970
1915.356356 0.7980 0.7990 0.8000 0.8010 0.8010
1919.956710 0.8010 0.8030 0.8040 0.8040 0.8040
1924.557063 0.8050 0.8050 0.8060 0.8080 0.8090
1929.157417 0.8100 0.8110 0.8130 0.8140 0.8150
1933.757770 0.8180 0.8200 0.8230 0.8240 0.8240
1938.358124 0.8240 0.8250 0.8250 0.8260 0.8260
1942.958477 0.8260 0.8260 0.8260 0.8260 0.8260
1947.558831 0.8260 0.8260 0.8260 0.8260 0.8260
1952.159185 0.8260 0.8260 0.8260 0.8260 0.8260
1956.759538 0.8260 0.8260 0.8260 0.8250 0.8260
1961.359892 0.8260 0.8260 0.8260 0.8260 0.8280
1965.960245 0.8280 0.8280 0.8280 0.8290 0.8290
1970.560599 0.8290 0.8290 0.8280 0.8280 0.8290
1975.160953 0.8280 0.8280 0.8280 0.8280 0.8280
1979.761306 0.8280 0.8290 0.8290 0.8290 0.8280
1984.361660 0.8280 0.8280 0.8280 0.8280 0.8280
1988.962013 0.8280 0.8290 0.8290 0.8290 0.8290
1993.562367 0.8290 0.8300 0.8300 0.8310 0.8310
1998.162721 0.8350 0.8360 0.8360 0.8370 0.8380
2002.763074 0.8380 0.8380 0.8385 0.8390 0.8390
2007.363428 0.8390 0.8390 0.8390 0.8390 0.8390
2011.963781 0.8395 0.8400 0.8415 0.8430 0.8435
2016.564135 0.8440 0.8445 0.8450 0.8455 0.8460
2021.164489 0.8460 0.8460 0.8460 0.8460 0.8460
2025.764842 0.8460 0.8470 0.8480 0.8490 0.8500
2030.365196 0.8500 0.8500 0.8500 0.8500 0.8500
2034.965549 0.8500 0.8500 0.8500 0.8500 0.8500
2039.565903 0.8500 0.8500 0.8500 0.8500 0.8500
2044.166257 0.8500 0.8500 0.8500 0.8500 0.8500
2048.766610 0.8500 0.8500 0.8500 0.8500 0.8500
2053.366964 0.8500 0.8500 0.8500 0.8500 0.8500
2057.967317 0.8500 0.8500 0.8500 0.8500 0.8500
2062.567671 0.8500 0.8500 0.8500 0.8500 0.8500
2067.168025 0.8500 0.8500 0.8500 0.8500 0.8500
2071.768378 0.8500 0.8500 0.8500 0.8500 0.8500
2076.368732 0.8500 0.8500 0.8500 0.8500 0.8500
2080.969085 0.8500 0.8500 0.8500 0.8500 0.8500
2085.569439 0.8500 0.8500 0.8500 0.8500 0.8500
2090.169793 0.8500 0.8500 0.8500 0.8495 0.8490
2094.770146 0.8490 0.8490 0.8490 0.8490 0.8490
2099.370500 0.8490 0.8490 0.8490 0.8485 0.8479
2103.970853 0.8469 0.8460 0.8460 0.8460 0.8460
2108.571207 0.8460 0.8460 0.8460 0.8460 0.8460
2113.171561 0.8460 0.8459 0.8454 0.8450 0.8450
2117.771914 0.8450 0.8445 0.8440 0.8435 0.8429
2122.372268 0.8419 0.8410 0.8410 0.8410 0.8405
2126.972621 0.8400 0.8400 0.8399 0.8394 0.8389
2131.572975 0.8384 0.8380 0.8380 0.8380 0.8380
2136.173329 0.8379 0.8369 0.8360 0.8360 0.8359
2140.773682 0.8354 0.8350 0.8350 0.8349 0.8344
2145.374036 0.8340 0.8340 0.8340 0.8340 0.8339
2149.974389 0.8334 0.8330 0.8330 0.8330 0.8330
2154.574743 0.8330 0.8330 0.8330 0.8330 0.8330
2159.175097 0.8330 0.8330 0.8330 0.8330 0.8330
2163.775450 0.8331 0.8336 0.8340 0.8340 0.8340
2168.375804 0.8340 0.8341 0.8346 0.8350 0.8350
2172.976157 0.8350 0.8350 0.8351 0.8356 0.8361
2177.576511 0.8371 0.8381 0.8386 0.8391 0.8396
2182.176865 0.8400 0.8400 0.8403 0.8418 0.8431
2186.777218 0.8436 0.8440 0.8440 0.8441 0.8446
2191.377572 0.8451 0.8456 0.8463 0.8478 0.8490
2195.977925 0.8490 0.8491 0.8496 0.8500 0.8500
2200.578279 0.8500 0.8500 0.8500 0.8500 0.8500
2205.178633 0.8500 0.8500 0.8500 0.8501 0.8506
2209.778986 0.8510 0.8510 0.8510 0.8510 0.8510
2214.379340 0.8510 0.8509 0.8504 0.8501 0.8506
2218.979693 0.8510 0.8510 0.8512 0.8522 0.8530
2223.580047 0.8530 0.8530 0.8530 0.8530 0.8530
2228.180401 0.8530 0.8530 0.8530 0.8530 0.8531
2232.780754 0.8536 0.8540 0.8540 0.8540 0.8540
2237.381108 0.8540 0.8540 0.8540 0.8540 0.8540
2241.981461 0.8540 0.8539 0.8534 0.8530 0.8530
2246.581815 0.8531 0.8536 0.8540 0.8540 0.8540
2251.182169 0.8540 0.8540 0.8540 0.8541 0.8546
2255.782522 0.8550 0.8550 0.8550 0.8550 0.8550
2260.382876 0.8550 0.8550 0.8550 0.8550 0.8550
2264.983229 0.8550 0.8550 0.8550 0.8550 0.8550
2269.583583 0.8550 0.8550 0.8550 0.8550 0.8550
2274.183937 0.8550 0.8550 0.8550 0.8550 0.8550
2278.784290 0.8550 0.8550 0.8550 0.8550 0.8550
2283.384644 0.8550 0.8550 0.8550 0.8550 0.8550
2287.984997 0.8550 0.8549 0.8544 0.8540 0.8540
2292.585351 0.8540 0.8540 0.8540 0.8540 0.8540
2297.185704 0.8540 0.8540 0.8540 0.8540 0.8540
2301.786058 0.8540 0.8540 0.8540 0.8540 0.8543
2306.386412 0.8553 0.8560 0.8560 0.8560 0.8560
2310.986765 0.8560 0.8560 0.8560 0.8560 0.8560
2315.587119 0.8560 0.8563 0.8573 0.8580 0.8580
2320.187472 0.8580 0.8580 0.8580 0.8580 0.8580
2324.787826 0.8580 0.8580 0.8580 0.8580 0.8580
2329.388180 0.8580 0.8580 0.8580 0.8580 0.8580
2333.988533 0.8580 0.8580 0.8580 0.8580 0.8580
2338.588887 0.8580 0.8580 0.8580 0.8580 0.8580
2343.189240 0.8580 0.8580 0.8580 0.8580 0.8580
2347.789594 0.8580 0.8580 0.8580 0.8580 0.8580
2352.389948 0.8580 0.8580 0.8580 0.8577 0.8567
2356.990301 0.8560 0.8560 0.8560 0.8560 0.8560
2361.590655 0.8560 0.8560 0.8560 0.8560 0.8560
2366.191008 0.8560 0.8560 0.8560 0.8560 0.8560
2370.791362 0.8560 0.8560 0.8560 0.8560 0.8560
2375.391716 0.8560 0.8560 0.8560 0.8560 0.8560
2379.992069 0.8560 0.8560 0.8560 0.8560 0.8560
2384.592423 0.8560 0.8560 0.8560 0.8560 0.8560
2389.192776 0.8560 0.8560 0.8560 0.8564 0.8574
2393.793130 0.8580 0.8580 0.8580 0.8580 0.8580
2398.393484 0.8580 0.8577 0.8567 0.8560 0.8560
2402.993837 0.8560 0.8560 0.8560 0.8560 0.8560
2407.594191 0.8560 0.8560 0.8560 0.8560 0.8560
2412.194544 0.8560 0.8560 0.8560 0.8560 0.8560
2416.794898 0.8560 0.8560 0.8560 0.8558 0.8553
2421.395252 0.8550 0.8550 0.8550 0.8550 0.8550
2425.995605 0.8550 0.8550 0.8550 0.8550 0.8550
2430.595959 0.8550 0.8550 0.8548 0.8543 0.8540
2435.196312 0.8540 0.8540 0.8540 0.8540 0.8540
2439.796666 0.8542 0.8547 0.8550 0.8550 0.8550
2444.397020 0.8550 0.8548 0.8543 0.8540 0.8540
2448.997373 0.8542 0.8547 0.8550 0.8550 0.8550
2453.597727 0.8550 0.8548 0.8543 0.8540 0.8540
2458.198080 0.8540 0.8540 0.8540 0.8540 0.8540
2462.798434 0.8540 0.8540 0.8540 0.8540 0.8540
2467.398788 0.8540 0.8540 0.8540 0.8540 0.8540
2471.999141 0.8540 0.8540 0.8540 0.8540 0.8540
2476.599495 0.8540 0.8540 0.8540 0.8540 0.8540
2481.199848 0.8540 0.8540 0.8540 0.8540 0.8540
2485.800202 0.8540 0.8540 0.8540 0.8540 0.8542
2490.400556 0.8547 0.8550 0.8550 0.8550 0.8550
2495.000909 0.8548 0.8543 0.8540 0.8540 0.8540
2499.601263 0.8540 0.8540 0.8540 0.8540 0.8540
2504.201616 0.8540 0.8540 0.8540 0.8540 0.8540
2508.801970 0.8540 0.8540 0.8540 0.8540 0.8540
2513.402324 0.8540 0.8540 0.8542 0.8547 0.8548
2518.002677 0.8543 0.8540 0.8540 0.8538 0.8533
2522.603031 0.8530 0.8530 0.8530 0.8530 0.8530
2527.203384 0.8530 0.8530 0.8530 0.8530 0.8530
2531.803738 0.8530 0.8530 0.8525 0.8515 0.8515
2536.404092 0.8525 0.8530 0.8530 0.8525 0.8515
2541.004445 0.8510 0.8510 0.8510 0.8510 0.8510
2545.604799 0.8510 0.8508 0.8503 0.8498 0.8493
2550.205152 0.8490 0.8490 0.8493 0.8498 0.8500
2554.805506 0.8500 0.8497 0.8492 0.8490 0.8490
2559.405860 0.8490 0.8490 0.8490 0.8490 0.8490
2564.006213 0.8490 0.8490 0.8490 0.8490 0.8490
2568.606567 0.8490 0.8490 0.8490 0.8490 0.8490
2573.206920 0.8490 0.8487 0.8482 0.8475 0.8465
2577.807274 0.8465 0.8475 0.8475 0.8465 0.8460
2582.407628 0.8460 0.8457 0.8452 0.8450 0.8450
2587.007981 0.8450 0.8450 0.8450 0.8450 0.8450
2591.608335 0.8450 0.8450 0.8450 0.8447 0.8442
2596.208688 0.8440 0.8440 0.8440 0.8440 0.8440
2600.809042 0.8440 0.8440 0.8440 0.8440 0.8440
2605.409396 0.8440 0.8440 0.8440 0.8440 0.8440
2610.009749 0.8440 0.8440 0.8440 0.8440 0.8440
2614.610103 0.8440 0.8440 0.8440 0.8440 0.8440
2619.210456 0.8440 0.8440 0.8440 0.8440 0.8440
2623.810810 0.8440 0.8440 0.8440 0.8440 0.8440
2628.411164 0.8440 0.8443 0.8448 0.8450 0.8450
2633.011517 0.8453 0.8458 0.8460 0.8460 0.8460
2637.611871 0.8460 0.8466 0.8476 0.8480 0.8480
2642.212224 0.8474 0.8464 0.8460 0.8460 0.8466
2646.812578 0.8476 0.8480 0.8480 0.8480 0.8480
2651.412932 0.8480 0.8480 0.8480 0.8480 0.8480
2656.013285 0.8480 0.8483 0.8488 0.8490 0.8490
2660.613639 0.8487 0.8482 0.8480 0.8480 0.8480
2665.213992 0.8480 0.8480 0.8480 0.8480 0.8480
2669.814346 0.8480 0.8480 0.8480 0.8480 0.8480
2674.414699 0.8480 0.8480 0.8480 0.8480 0.8480
2679.015053 0.8480 0.8480 0.8480 0.8480 0.8480
2683.615407 0.8480 0.8474 0.8464 0.8466 0.8476
2688.215760 0.8480 0.8480 0.8480 0.8480 0.8480
2692.816114 0.8480 0.8480 0.8480 0.8480 0.8480
2697.416467 0.8480 0.8480 0.8480 0.8480 0.8474
2702.016821 0.8464 0.8460 0.8460 0.8457 0.8452
2706.617175 0.8450 0.8450 0.8447 0.8442 0.8437
2711.217528 0.8432 0.8430 0.8430 0.8424 0.8414
2715.817882 0.8407 0.8402 0.8393 0.8383 0.8373
2720.418235 0.8363 0.8357 0.8352 0.8347 0.8342
2725.018589 0.8337 0.8332 0.8324 0.8314 0.8310
2729.618943 0.8310 0.8307 0.8302 0.8300 0.8300
2734.219296 0.8300 0.8300 0.8297 0.8292 0.8293
2738.819650 0.8298 0.8300 0.8300 0.8293 0.8283
2743.420003 0.8273 0.8263 0.8253 0.8243 0.8237
2748.020357 0.8232 0.8220 0.8205 0.8200 0.8200
2752.620711 0.8197 0.8192 0.8190 0.8190 0.8190
2757.221064 0.8190 0.8190 0.8190 0.8187 0.8182
2761.821418 0.8173 0.8163 0.8160 0.8160 0.8153
2766.421771 0.8143 0.8130 0.8115 0.8110 0.8110
2771.022125 0.8100 0.8085 0.8073 0.8063 0.8056
2775.622479 0.8052 0.8050 0.8050 0.8029 0.7999
2780.222832 0.7983 0.7973 0.7963 0.7953 0.7947
2784.823186 0.7942 0.7933 0.7923 0.7885 0.7835
2789.423539 0.7795 0.7760 0.7732 0.7707 0.7678
2794.023893 0.7648 0.7633 0.7623 0.7602 0.7577
2798.624247 0.7541 0.7501 0.7465 0.7430 0.7388
2803.224600 0.7343 0.7312 0.7287 0.7266 0.7246
2807.824954 0.7215 0.7179 0.7141 0.7101 0.7079
2812.425307 0.7064 0.7027 0.6982 0.6904 0.6814
2817.025661 0.6728 0.6643 0.6558 0.6473 0.6362
2821.626015 0.6242 0.6093 0.5933 0.5810 0.5700
2826.226368 0.5589 0.5478 0.5228 0.4933 0.4571
2830.826722 0.4186 0.3711 0.3206 0.2656 0.2091
2835.427075 0.1740 0.1460 0.1176 0.0891 0.0813
2840.027429 0.0803 0.0957 0.1167 0.1411 0.1666
2844.627783 0.1968 0.2286 0.2625 0.2970 0.3307
2849.228136 0.3642 0.3943 0.4233 0.4473 0.4698
2853.828490 0.4842 0.4962 0.5047 0.5122 0.5182
2858.428843 0.5237 0.5330 0.5435 0.5475 0.5495
2863.029197 0.5500 0.5500 0.5496 0.5491 0.5470
2867.629551 0.5445 0.5413 0.5378 0.5327 0.5272
2872.229904 0.5193 0.5108 0.5039 0.4974 0.4913
2876.830258 0.4853 0.4797 0.4742 0.4621 0.4481
2881.430611 0.4343 0.4207 0.4136 0.4081 0.4006
2886.030965 0.3926 0.3802 0.3667 0.3576 0.3496
2890.631319 0.3444 0.3399 0.3386 0.3381 0.3376
2895.231672 0.3371 0.3366 0.3361 0.3352 0.3342
2899.832026 0.3324 0.3304 0.3267 0.3227 0.3191
2904.432379 0.3156 0.3113 0.3068 0.3023 0.2978
2909.032733 0.2929 0.2879 0.2841 0.2806 0.2763
2913.633087 0.2718 0.2665 0.2610 0.2567 0.2527
2918.233440 0.2466 0.2401 0.2352 0.2307 0.2212
2922.833794 0.2107 0.2032 0.1962 0.1900 0.1840
2927.434147 0.1776 0.1711 0.1654 0.1599 0.1486
2932.034501 0.1361 0.1228 0.1093 0.1008 0.0933
2936.634855 0.0849 0.0763 0.0729 0.0704 0.0700
2941.235208 0.0700 0.0713 0.0728 0.0739 0.0749
2945.835562 0.0788 0.0833 0.0857 0.0877 0.0931
2950.435915 0.0991 0.1008 0.1018 0.1041 0.1066
2955.036269 0.1091 0.1117 0.1163 0.1213 0.1246
2959.636623 0.1276 0.1332 0.1392 0.1422 0.1447
2964.236976 0.1506 0.1571 0.1623 0.1673 0.1702
2968.837330 0.1727 0.1756 0.1786 0.1820 0.1855
2973.437683 0.1899 0.1945 0.1954 0.1959 0.1987
2978.038037 0.2017 0.2077 0.2142 0.2260 0.2385
2982.638391 0.2449 0.2504 0.2603 0.2708 0.2843
2987.238744 0.2983 0.3115 0.3245 0.3370 0.3495
2991.839098 0.3590 0.3681 0.3794 0.3909 0.4033
2996.439451 0.4158 0.4296 0.4436 0.4576 0.4716
3001.039805 0.4842 0.4967 0.5083 0.5198 0.5291
3005.640159 0.5381 0.5484 0.5589 0.5640 0.5685
3010.240512 0.5726 0.5767 0.5788 0.5808 0.5833
3014.840866 0.5858 0.5897 0.5937 0.6018 0.6103
3019.441219 0.6156 0.6206 0.6283 0.6363 0.6388
3024.041573 0.6408 0.6488 0.6573 0.6612 0.6647
3028.641927 0.6659 0.6669 0.6703 0.6738 0.6782
3033.242280 0.6827 0.6858 0.6888 0.6899 0.6909
3037.842634 0.6938 0.6968 0.6998 0.7028 0.7058
3042.442987 0.7088 0.7104 0.7119 0.7176 0.7236
3047.043341 0.7301 0.7367 0.7394 0.7419 0.7444
3051.643694 0.7469 0.7503 0.7538 0.7569 0.7599
3056.244048 0.7619 0.7639 0.7678 0.7718 0.7748
3060.844402 0.7778 0.7823 0.7868 0.7894 0.7919
3065.444755 0.7934 0.7950 0.7965 0.7980 0.7990
3070.045109 0.8000 0.8005 0.8010 0.8020 0.8030
3074.645462 0.8035 0.8040 0.8040 0.8040 0.8040
3079.245816 0.8040 0.8040 0.8040 0.8040 0.8040
3083.846170 0.8040 0.8040 0.8040 0.8040 0.8035
3088.446523 0.8030 0.8030 0.8030 0.8020 0.8010
3093.046877 0.8010 0.8010 0.8005 0.8000 0.8000
3097.647230 0.8000 0.8005 0.8010 0.8030 0.8050
3102.247584 0.8065 0.8080 0.8095 0.8110 0.8150
3106.847938 0.8190 0.8245 0.8300 0.8350 0.8400
3111.448291 0.8455 0.8510 0.8530 0.8550 0.8555
3116.048645 0.8560 0.8570 0.8580 0.8580 0.8580
3120.648998 0.8580 0.8580 0.8585 0.8590 0.8595
3125.249352 0.8600 0.8605 0.8610 0.8620 0.8630
3129.849706 0.8635 0.8640 0.8640 0.8640 0.8645
3134.450059 0.8650 0.8650 0.8650 0.8650 0.8650
3139.050413 0.8650 0.8650 0.8655 0.8660 0.8660
3143.650766 0.8660 0.8675 0.8690 0.8695 0.8700
3148.251120 0.8705 0.8710 0.8710 0.8710 0.8710
3152.851474 0.8710 0.8710 0.8710 0.8710 0.8710
3157.451827 0.8710 0.8710 0.8715 0.8720 0.8715
3162.052181 0.8710 0.8715 0.8720 0.8720 0.8720
3166.652534 0.8720 0.8720 0.8720 0.8720 0.8720
3171.252888 0.8720 0.8730 0.8740 0.8740 0.8740
3175.853242 0.8740 0.8740 0.8740 0.8739 0.8729
3180.453595 0.8721 0.8736 0.8750 0.8750 0.8750
3185.053949 0.8750 0.8750 0.8750 0.8750 0.8745
3189.654302 0.8740 0.8745 0.8750 0.8750 0.8750
3194.254656 0.8755 0.8760 0.8760 0.8760 0.8760
3198.855010 0.8760 0.8760 0.8760 0.8760 0.8760
3203.455363 0.8760 0.8760 0.8765 0.8770 0.8770
3208.055717 0.8770 0.8770 0.8770 0.8770 0.8770
3212.656070 0.8770 0.8771 0.8781 0.8789 0.8779
3217.256424 0.8771 0.8781 0.8790 0.8790 0.8790
3221.856778 0.8790 0.8790 0.8790 0.8790 0.8790
3226.457131 0.8790 0.8790 0.8790 0.8790 0.8790
3231.057485 0.8790 0.8790 0.8790 0.8790 0.8790
3235.657838 0.8790 0.8790 0.8790 0.8790 0.8790
3240.258192 0.8790 0.8790 0.8790 0.8790 0.8790
3244.858546 0.8790 0.8790 0.8790 0.8790 0.8790
3249.458899 0.8790 0.8790 0.8790 0.8790 0.8790
3254.059253 0.8790 0.8790 0.8790 0.8790 0.8791
3258.659606 0.8796 0.8800 0.8800 0.8800 0.8800
3263.259960 0.8800 0.8800 0.8800 0.8800 0.8800
3267.860314 0.8800 0.8800 0.8800 0.8800 0.8800
3272.460667 0.8800 0.8800 0.8800 0.8800 0.8800
3277.061021 0.8800 0.8800 0.8800 0.8800 0.8800
3281.661374 0.8800 0.8800 0.8800 0.8800 0.8800
3286.261728 0.8800 0.8800 0.8800 0.8800 0.8800
3290.862082 0.8800 0.8800 0.8800 0.8800 0.8800
3295.462435 0.8800 0.8800 0.8800 0.8800 0.8800
3300.062789 0.8799 0.8794 0.8788 0.8778 0.8772
3304.663142 0.8782 0.8790 0.8790 0.8790 0.8790
3309.263496 0.8790 0.8790 0.8790 0.8790 0.8790
3313.863850 0.8790 0.8790 0.8790 0.8790 0.8790
3318.464203 0.8788 0.8778 0.8770 0.8770 0.8770
3323.064557 0.8770 0.8770 0.8770 0.8770 0.8770
3327.664910 0.8770 0.8770 0.8769 0.8764 0.8760
3332.265264 0.8760 0.8760 0.8760 0.8760 0.8760
3336.865618 0.8760 0.8760 0.8760 0.8760 0.8760
3341.465971 0.8760 0.8760 0.8760 0.8760 0.8760
3346.066325 0.8760 0.8760 0.8761 0.8766 0.8770
3350.666678 0.8770 0.8770 0.8770 0.8772 0.8782
3355.267032 0.8790 0.8790 0.8790 0.8790 0.8791
3359.867386 0.8796 0.8801 0.8806 0.8810 0.8810
3364.467739 0.8810 0.8810 0.8810 0.8810 0.8810
3369.068093 0.8810 0.8810 0.8810 0.8810 0.8810
3373.668446 0.8810 0.8810 0.8810 0.8810 0.8809
3378.268800 0.8804 0.8800 0.8800 0.8799 0.8794
3382.869154 0.8790 0.8790 0.8790 0.8790 0.8790
3387.469507 0.8790 0.8788 0.8778 0.8769 0.8764
3392.069861 0.8759 0.8754 0.8750 0.8750 0.8749
3396.670214 0.8744 0.8736 0.8721 0.8707 0.8697
3401.270568 0.8687 0.8677 0.8669 0.8664 0.8659
3405.870922 0.8654 0.8645 0.8625 0.8609 0.8604
3410.471275 0.8599 0.8594 0.8589 0.8584 0.8580
3415.071629 0.8580 0.8580 0.8580 0.8581 0.8586
3419.671982 0.8591 0.8596 0.8604 0.8619 0.8631
3424.272336 0.8636 0.8641 0.8646 0.8651 0.8656
3428.872689 0.8664 0.8679 0.8691 0.8696 0.8706
3433.473043 0.8726 0.8743 0.8753 0.8765 0.8780
3438.073397 0.8793 0.8803 0.8811 0.8817 0.8820
3442.673750 0.8820 0.8820 0.8820 0.8823 0.8833
3447.274104 0.8841 0.8846 0.8850 0.8850 0.8850
3451.874457 0.8850 0.8850 0.8850 0.8850 0.8850
3456.474811 0.8850 0.8850 0.8852 0.8857 0.8860
3461.075165 0.8860 0.8860 0.8860 0.8860 0.8860
3465.675518 0.8858 0.8853 0.8850 0.8850 0.8850
3470.275872 0.8850 0.8850 0.8850 0.8850 0.8850
3474.876225 0.8850 0.8850 0.8850 0.8850 0.8848
3479.476579 0.8843 0.8842 0.8847 0.8848 0.8843
3484.076933 0.8840 0.8840 0.8837 0.8827 0.8820
3488.677286 0.8820 0.8820 0.8820 0.8820 0.8820
3493.277640 0.8820 0.8820 0.8820 0.8820 0.8820
3497.877993 0.8820 0.8818 0.8813 0.8810 0.8810
3502.478347 0.8812 0.8817 0.8818 0.8813 0.8810
3507.078701 0.8810 0.8810 0.8810 0.8810 0.8810
3511.679054 0.8810 0.8810 0.8810 0.8810 0.8810
3516.279408 0.8810 0.8810 0.8810 0.8810 0.8810
3520.879761 0.8810 0.8810 0.8808 0.8803 0.8800
3525.480115 0.8800 0.8800 0.8800 0.8800 0.8800
3530.080469 0.8800 0.8800 0.8800 0.8800 0.8800
3534.680822 0.8800 0.8800 0.8800 0.8800 0.8800
3539.281176 0.8800 0.8800 0.8800 0.8800 0.8800
3543.881529 0.8800 0.8800 0.8800 0.8802 0.8807
3548.481883 0.8810 0.8810 0.8810 0.8810 0.8810
3553.082237 0.8810 0.8810 0.8810 0.8810 0.8810
3557.682590 0.8810 0.8810 0.8812 0.8817 0.8818
3562.282944 0.8813 0.8810 0.8810 0.8810 0.8810
3566.883297 0.8810 0.8810 0.8810 0.8810 0.8810
3571.483651 0.8810 0.8810 0.8810 0.8810 0.8810
3576.084005 0.8810 0.8810 0.8810 0.8810 0.8812
3580.684358 0.8817 0.8827 0.8842 0.8852 0.8857
3585.284712 0.8869 0.8889 0.8902 0.8907 0.8910
3589.885065 0.8910 0.8910 0.8910 0.8912 0.8917
3594.485419 0.8920 0.8920 0.8924 0.8934 0.8940
3599.085773 0.8940 0.8940 0.8940 0.8940 0.8940
3603.686126 0.8940 0.8940 0.8940 0.8940 0.8940
3608.286480 0.8940 0.8940 0.8940 0.8940 0.8940
3612.886833 0.8940 0.8940 0.8940 0.8940 0.8940
3617.487187 0.8940 0.8940 0.8940 0.8940 0.8940
3622.087541 0.8940 0.8940 0.8940 0.8940 0.8940
3626.687894 0.8940 0.8940 0.8940 0.8940 0.8940
3631.288248 0.8935 0.8925 0.8920 0.8920 0.8920
3635.888601 0.8920 0.8920 0.8920 0.8920 0.8920
3640.488955 0.8920 0.8920 0.8925 0.8935 0.8940
3645.089309 0.8940 0.8940 0.8940 0.8940 0.8940
3649.689662 0.8940 0.8940 0.8940 0.8940 0.8940
3654.290016 0.8940 0.8940 0.8940 0.8942 0.8948
3658.890369 0.8950 0.8950 0.8952 0.8957 0.8960
3663.490723 0.8960 0.8960 0.8960 0.8962 0.8967
3668.091077 0.8968 0.8963 0.8960 0.8960 0.8955
3672.691430 0.8945 0.8940 0.8940 0.8943 0.8948
3677.291784 0.8950 0.8950 0.8947 0.8942 0.8940
3681.892137 0.8940 0.8940 0.8940 0.8943 0.8948
3686.492491 0.8950 0.8950 0.8950 0.8950 0.8950
3691.092845 0.8950 0.8953 0.8958 0.8960 0.8960
3695.693198 0.8960 0.8960 0.8960 0.8960 0.8960
3700.293552 0.8960 0.8963 0.8968 0.8970 0.8970
3704.893905 0.8970 0.8970 0.8970 0.8970 0.8970
3709.494259 0.8970 0.8970 0.8970 0.8970 0.8970
3714.094613 0.8970 0.8970 0.8970 0.8970 0.8975
3718.694966 0.8985 0.8982 0.8967 0.8960 0.8960
3723.295320 0.8963 0.8968 0.8970 0.8970 0.8970
3727.895673 0.8970 0.8970 0.8970 0.8970 0.8970
3732.496027 0.8970 0.8970 0.8970 0.8970 0.8976
3737.096381 0.8986 0.8990 0.8990 0.8990 0.8990
3741.696734 0.8993 0.8998 0.9000 0.9000 0.9000
3746.297088 0.9000 0.8997 0.8992 0.8984 0.8974
3750.897441 0.8970 0.8970 0.8970 0.8970 0.8970
3755.497795 0.8970 0.8970 0.8970 0.8970 0.8970
3760.098149 0.8970 0.8970 0.8970 0.8970 0.8970
3764.698502 0.8970 0.8970 0.8970 0.8970 0.8970
3769.298856 0.8970 0.8970 0.8970 0.8970 0.8970
3773.899209 0.8970 0.8970 0.8970 0.8970 0.8970
3778.499563 0.8970 0.8970 0.8970 0.8970 0.8970
3783.099916 0.8970 0.8970 0.8970 0.8970 0.8970
3787.700270 0.8970 0.8970 0.8970 0.8970 0.8970
3792.300624 0.8970 0.8976 0.8986 0.8990 0.8990
3796.900977 0.8990 0.8990
##END=
