##TITLE=NORBORNANE, 2-BROMO-, EXO
##JCAMP-DX=4.24
##DATA TYPE=INFRARED SPECTRUM
##CLASS=COBLENTZ III
##ORIGIN=DOW CHEMICAL COMPANY
##OWNER=COBLENTZ SOCIETY
Collection (C) 2018 copyright by the U.S. Secretary of Commerce
on behalf of the United States of America. All rights reserved.
##DATE=1966/02/03
##NAMES=2-bromobicyclo[2.2.1]heptane
BICYCLO[2.2.1]HEPTANE, 2-BROMO-
##CAS REGISTRY NO=2534-77-2
##MOLFORM=C7 H11 Br
##SOURCE REFERENCE=COBLENTZ NO. 10032
##$NIST SOURCE=COBLENTZ
##$NIST IMAGE=cob10032
##SPECTROMETER/DATA SYSTEM=BECKMAN IR-9 (GRATING)
##INSTRUMENT PARAMETERS=ORDER CHANGES AT 670, 1200, 2000 CM^-^1
##STATE=SOLUTION (10% IN CCl4 FOR 3800-1330, AND 10% IN CS2 FOR 1330-400 CM^-^1)
##PATH LENGTH=0.011, 0.011 CM
$$SPECTRAL FEATURE AROUND 3625 CM^-^1 IS DUE TO AN UNKNOWN
##SAMPLING PROCEDURE=TRANSMISSION
##RESOLUTION=4
##DATA PROCESSING=DIGITIZED BY NIST FROM HARD COPY (FROM TWO SEGMENTS)
##XUNITS=1/CM
##YUNITS=TRANSMITTANCE
##XFACTOR=1.000000
##YFACTOR=1
##DELTAX=0.869566
##FIRSTX=395.652
##LASTX=3795.66
##FIRSTY=1.001
##MAXX=3795.66
##MINX=395.652
##MAXY=1.009
##MINY=0.047
##NPOINTS=3911
##XYDATA=(X++(Y..Y))
395.652000 1.0010 1.0010 1.0010 1.0010 1.0010
399.999832 1.0010 1.0020 1.0020 1.0020 1.0020
404.347665 1.0020 1.0020 1.0020 1.0020 1.0020
408.695497 1.0020 1.0010 1.0010 1.0010 1.0010
413.043330 1.0010 1.0010 1.0000 1.0000 0.9980
417.391162 0.9950 0.9940 0.9910 0.9890 0.9870
421.738995 0.9840 0.9840 0.9830 0.9830 0.9830
426.086827 0.9830 0.9820 0.9820 0.9820 0.9820
430.434660 0.9820 0.9820 0.9820 0.9820 0.9800
434.782492 0.9800 0.9800 0.9800 0.9800 0.9800
439.130325 0.9790 0.9790 0.9790 0.9790 0.9790
443.478157 0.9790 0.9790 0.9780 0.9780 0.9780
447.825990 0.9780 0.9780 0.9780 0.9760 0.9760
452.173822 0.9740 0.9740 0.9720 0.9710 0.9710
456.521655 0.9710 0.9720 0.9750 0.9800 0.9840
460.869487 0.9860 0.9870 0.9890 0.9890 0.9890
465.217320 0.9890 0.9890 0.9900 0.9910 0.9910
469.565152 0.9900 0.9890 0.9890 0.9870 0.9870
473.912985 0.9870 0.9870 0.9870 0.9870 0.9870
478.260817 0.9870 0.9860 0.9840 0.9840 0.9830
482.608650 0.9830 0.9820 0.9800 0.9800 0.9800
486.956482 0.9790 0.9760 0.9720 0.9690 0.9680
491.304314 0.9670 0.9670 0.9640 0.9600 0.9570
495.652147 0.9560 0.9560 0.9540 0.9540 0.9540
499.999979 0.9560 0.9560 0.9560 0.9560 0.9570
504.347812 0.9570 0.9570 0.9570 0.9570 0.9590
508.695644 0.9600 0.9600 0.9600 0.9600 0.9600
513.043477 0.9600 0.9590 0.9590 0.9590 0.9590
517.391309 0.9590 0.9590 0.9590 0.9590 0.9590
521.739142 0.9590 0.9590 0.9590 0.9600 0.9600
526.086974 0.9600 0.9630 0.9630 0.9640 0.9650
530.434807 0.9670 0.9670 0.9670 0.9680 0.9690
534.782639 0.9710 0.9710 0.9720 0.9740 0.9750
539.130472 0.9750 0.9760 0.9780 0.9780 0.9760
543.478304 0.9760 0.9780 0.9780 0.9780 0.9780
547.826137 0.9780 0.9790 0.9800 0.9800 0.9820
552.173969 0.9820 0.9800 0.9790 0.9790 0.9790
556.521802 0.9800 0.9800 0.9820 0.9820 0.9800
560.869634 0.9800 0.9790 0.9780 0.9720 0.9650
565.217467 0.9530 0.9311 0.9051 0.8632 0.8133
569.565299 0.8000 0.7730 0.7270 0.7330 0.8039
573.913132 0.8539 0.8889 0.9030 0.9229 0.9330
578.260964 0.9460 0.9560 0.9590 0.9590 0.9640
582.608796 0.9680 0.9710 0.9780 0.9790 0.9800
586.956629 0.9820 0.9820 0.9830 0.9830 0.9840
591.304461 0.9840 0.9830 0.9830 0.9820 0.9800
595.652294 0.9780 0.9740 0.9680 0.9630 0.9570
600.000126 0.9540 0.9530 0.9490 0.9420 0.9370
604.347959 0.9340 0.9240 0.9160 0.9110 0.8930
608.695791 0.8741 0.8551 0.8301 0.8021 0.7662
613.043624 0.7280 0.6630 0.6050 0.5061 0.4171
617.391456 0.3451 0.2941 0.2940 0.3897 0.4049
621.739289 0.4470 0.4770 0.5659 0.6499 0.7019
626.087121 0.7429 0.7839 0.8109 0.8469 0.8709
630.434954 0.8920 0.9010 0.9150 0.9330 0.9350
634.782786 0.9410 0.9460 0.9500 0.9530 0.9570
639.130619 0.9600 0.9630 0.9640 0.9650 0.9650
643.478451 0.9640 0.9640 0.9650 0.9670 0.9680
647.826284 0.9710 0.9790 0.9800 0.9800 0.9800
652.174116 0.9790 0.9790 0.9790 0.9780 0.9780
656.521949 0.9800 0.9830 0.9870 0.9900 0.9950
660.869781 0.9950 0.9980 1.0000 1.0010 1.0010
665.217614 1.0020 1.0020 1.0020 1.0020 1.0020
669.565446 1.0010 1.0010 0.9970 0.9950 0.9940
673.913279 0.9950 0.9970 1.0010 1.0010 1.0020
678.261111 1.0020 1.0050 1.0060 1.0060 1.0080
682.608943 1.0080 1.0090 1.0090 1.0090 1.0090
686.956776 1.0090 1.0090 1.0090 1.0090 1.0080
691.304608 1.0080 1.0060 1.0050 1.0050 1.0040
695.652441 1.0040 1.0020 1.0020 1.0010 0.9980
700.000273 0.9940 0.9910 0.9930 0.9970 0.9980
704.348106 1.0000 1.0000 1.0010 1.0010 1.0020
708.695938 1.0020 1.0040 1.0040 1.0040 1.0040
713.043771 1.0020 1.0020 1.0020 1.0020 1.0020
717.391603 1.0020 1.0020 1.0040 1.0020 1.0020
721.739436 1.0010 0.9980 0.9980 1.0000 1.0000
726.087268 0.9980 0.9980 0.9970 0.9950 0.9970
730.435101 0.9980 1.0000 1.0000 1.0000 1.0010
734.782933 1.0010 1.0010 1.0010 1.0010 1.0000
739.130766 1.0000 1.0000 1.0000 1.0000 0.9980
743.478598 0.9970 0.9970 0.9950 0.9940 0.9940
747.826431 0.9930 0.9910 0.9900 0.9870 0.9830
752.174263 0.9800 0.9780 0.9670 0.9590 0.9560
756.522096 0.9390 0.9240 0.8861 0.8342 0.7962
760.869928 0.7620 0.7610 0.7550 0.7310 0.6751
765.217761 0.6750 0.7099 0.7548 0.7918 0.8179
769.565593 0.8640 0.9260 0.9380 0.9450 0.9570
773.913425 0.9630 0.9690 0.9710 0.9790 0.9820
778.261258 0.9830 0.9830 0.9830 0.9820 0.9820
782.609090 0.9800 0.9790 0.9780 0.9760 0.9760
786.956923 0.9790 0.9790 0.9780 0.9740 0.9720
791.304755 0.9650 0.9600 0.9560 0.9490 0.9410
795.652588 0.9380 0.9370 0.9350 0.9340 0.9330
800.000420 0.9330 0.9330 0.9330 0.9300 0.9270
804.348253 0.9180 0.9110 0.8750 0.8640 0.8450
808.696085 0.8430 0.8440 0.8619 0.8749 0.8810
813.043918 0.8930 0.9180 0.9340 0.9370 0.9420
817.391750 0.9450 0.9500 0.9570 0.9610 0.9640
821.739583 0.9650 0.9670 0.9680 0.9680 0.9680
826.087415 0.9670 0.9670 0.9650 0.9570 0.9450
830.435248 0.9040 0.8770 0.8600 0.8330 0.7961
834.783080 0.7950 0.8339 0.8639 0.8769 0.9049
839.130913 0.9330 0.9600 0.9640 0.9690 0.9800
843.478745 0.9830 0.9870 0.9900 0.9930 0.9980
847.826578 1.0000 1.0000 1.0010 1.0010 1.0010
852.174410 1.0020 1.0020 1.0020 1.0020 1.0020
856.522243 1.0010 1.0010 1.0000 0.9950 0.9930
860.870075 0.9910 0.9910 0.9890 0.9840 0.9711
865.217907 0.9650 0.9600 0.9560 0.9500 0.9300
869.565740 0.9120 0.8960 0.8641 0.8490 0.8360
873.913572 0.8190 0.8030 0.8030 0.8340 0.8640
878.261405 0.8919 0.9080 0.9259 0.9370 0.9380
882.609237 0.9380 0.9370 0.9350 0.9290 0.9150
886.957070 0.8751 0.8640 0.8032 0.7253 0.6693
891.304902 0.6180 0.6110 0.6830 0.6860 0.7499
895.652735 0.8169 0.8579 0.8730 0.8989 0.9199
900.000567 0.9310 0.9390 0.9410 0.9410 0.9420
904.348400 0.9420 0.9420 0.9410 0.9390 0.9380
908.696232 0.9350 0.9260 0.9110 0.9050 0.8781
913.044065 0.8660 0.8520 0.8390 0.8370 0.8390
917.391897 0.8400 0.8450 0.8540 0.8560 0.8580
921.739730 0.8580 0.8590 0.8600 0.8730 0.9148
926.087562 0.9240 0.9350 0.9370 0.9380 0.9390
930.435395 0.9390 0.9380 0.9370 0.9350 0.9340
934.783227 0.9290 0.9230 0.9150 0.9010 0.8711
939.131060 0.8361 0.7702 0.7022 0.6482 0.5624
943.478892 0.4589 0.3760 0.2940 0.2410 0.2410
947.826725 0.4157 0.5776 0.6727 0.7537 0.7779
952.174557 0.8140 0.8430 0.8750 0.8920 0.9030
956.522389 0.9190 0.9260 0.9330 0.9370 0.9410
960.870222 0.9440 0.9450 0.9480 0.9500 0.9570
965.218054 0.9570 0.9600 0.9640 0.9650 0.9670
969.565887 0.9690 0.9710 0.9710 0.9720 0.9750
973.913719 0.9750 0.9780 0.9790 0.9790 0.9800
978.261552 0.9830 0.9840 0.9820 0.9800 0.9800
982.609384 0.9820 0.9830 0.9830 0.9830 0.9840
986.957217 0.9840 0.9840 0.9830 0.9790 0.9780
991.305049 0.9780 0.9740 0.9710 0.9670 0.9610
995.652882 0.9560 0.9490 0.9390 0.9310 0.9160
1000.000714 0.9120 0.9080 0.9070 0.9070 0.9070
1004.348547 0.9070 0.9070 0.9080 0.9090 0.9110
1008.696379 0.9200 0.9370 0.9480 0.9480 0.9500
1013.044212 0.9520 0.9570 0.9590 0.9600 0.9600
1017.392044 0.9610 0.9610 0.9610 0.9610 0.9600
1021.739877 0.9600 0.9600 0.9600 0.9590 0.9570
1026.087709 0.9570 0.9560 0.9540 0.9500 0.9460
1030.435542 0.9420 0.9350 0.9330 0.9240 0.9220
1034.783374 0.9220 0.9200 0.9190 0.9160 0.8991
1039.131207 0.8779 0.8400 0.8040 0.7740 0.7540
1043.479039 0.7540 0.7760 0.8339 0.8579 0.8849
1047.826871 0.8970 0.9150 0.9270 0.9330 0.9350
1052.174704 0.9380 0.9390 0.9410 0.9420 0.9440
1056.522536 0.9460 0.9520 0.9560 0.9590 0.9610
1060.870369 0.9630 0.9640 0.9670 0.9680 0.9680
1065.218201 0.9680 0.9680 0.9680 0.9680 0.9680
1069.566034 0.9670 0.9670 0.9650 0.9650 0.9640
1073.913866 0.9630 0.9610 0.9590 0.9570 0.9570
1078.261699 0.9520 0.9450 0.9380 0.9340 0.9290
1082.609531 0.9240 0.9220 0.9220 0.9230 0.9240
1086.957364 0.9310 0.9340 0.9370 0.9390 0.9410
1091.305196 0.9420 0.9420 0.9420 0.9440 0.9440
1095.653029 0.9440 0.9440 0.9440 0.9440 0.9440
1100.000861 0.9440 0.9420 0.9420 0.9410 0.9410
1104.348694 0.9410 0.9390 0.9390 0.9380 0.9370
1108.696526 0.9310 0.9240 0.9180 0.9140 0.9050
1113.044359 0.8930 0.8731 0.8590 0.8470 0.8321
1117.392191 0.8330 0.8520 0.8590 0.8700 0.8710
1121.740024 0.8710 0.8690 0.8660 0.8620 0.8540
1126.087856 0.8360 0.8300 0.8100 0.7700 0.7480
1130.435689 0.7210 0.7100 0.7080 0.7050 0.7050
1134.783521 0.6910 0.6910 0.7280 0.7720 0.8189
1139.131353 0.8430 0.8550 0.8739 0.8810 0.8850
1143.479186 0.8940 0.8960 0.8970 0.8990 0.9000
1147.827018 0.9000 0.9010 0.9010 0.9040 0.9040
1152.174851 0.9050 0.9050 0.9070 0.9080 0.9090
1156.522683 0.9090 0.9110 0.9120 0.9140 0.9140
1160.870516 0.9140 0.9120 0.9110 0.9080 0.9050
1165.218348 0.9010 0.8960 0.8930 0.8890 0.8880
1169.566181 0.8880 0.8920 0.8990 0.9000 0.9030
1173.914013 0.9040 0.9070 0.9070 0.9050 0.9040
1178.261846 0.9030 0.9000 0.8960 0.8900 0.8820
1182.609678 0.8620 0.8061 0.7611 0.7092 0.6343
1186.957511 0.5530 0.4780 0.4070 0.4070 0.5697
1191.305343 0.5830 0.6219 0.6579 0.7277 0.7688
1195.653176 0.7780 0.7960 0.8190 0.8390 0.8480
1200.001008 0.8490 0.8510 0.8540 0.8590 0.8620
1204.348841 0.8630 0.8660 0.8640 0.8620 0.8590
1208.696673 0.8470 0.8330 0.7961 0.7741 0.7650
1213.044506 0.7650 0.7700 0.7720 0.7720 0.7720
1217.392338 0.7700 0.7700 0.7650 0.7610 0.7480
1221.740171 0.7399 0.6790 0.6180 0.5640 0.4691
1226.088003 0.3661 0.3211 0.2183 0.1582 0.1580
1230.435836 0.1782 0.4140 0.4810 0.5520 0.6079
1234.783668 0.6479 0.6709 0.6909 0.7079 0.7090
1239.131500 0.7090 0.7010 0.6750 0.6630 0.6460
1243.479333 0.6200 0.5890 0.5471 0.5001 0.4910
1247.827165 0.4911 0.5781 0.6650 0.7240 0.7740
1252.174998 0.7950 0.8040 0.8210 0.8260 0.8320
1256.522830 0.8320 0.8140 0.7910 0.7630 0.7161
1260.870663 0.7160 0.7499 0.7959 0.8219 0.8439
1265.218495 0.8590 0.8660 0.8750 0.8780 0.8780
1269.566328 0.8700 0.8690 0.8710 0.8810 0.8940
1273.914160 0.9030 0.9070 0.9080 0.9140 0.9160
1278.261993 0.9180 0.9190 0.9160 0.9090 0.9070
1282.609825 0.8960 0.8900 0.8540 0.8330 0.8020
1286.957658 0.7850 0.7700 0.7700 0.7770 0.7929
1291.305490 0.7990 0.8020 0.8020 0.8020 0.8000
1295.653323 0.8020 0.8030 0.8040 0.8040 0.8000
1300.001155 0.7759 0.7210 0.6800 0.6540 0.6500
1304.348988 0.5971 0.6010 0.6628 0.6869 0.7089
1308.696820 0.7090 0.6840 0.5960 0.4591 0.4510
1313.044653 0.4360 0.4170 0.4170 0.4808 0.5766
1317.392485 0.6631 0.7091 0.8040 0.8520 0.8780
1321.740318 0.8850 0.8930 0.8990 0.9030 0.9120
1326.088150 0.9140 0.9180 0.9240 0.9310 0.9340
1330.435982 0.9350 0.9350 0.9370 0.9380 0.9390
1334.783815 0.9390 0.9410 0.9440 0.9450 0.9460
1339.131647 0.9490 0.9530 0.9570 0.9570 0.9600
1343.479480 0.9630 0.9650 0.9650 0.9680 0.9690
1347.827312 0.9690 0.9690 0.9710 0.9710 0.9710
1352.175145 0.9710 0.9710 0.9720 0.9720 0.9740
1356.522977 0.9780 0.9790 0.9800 0.9830 0.9860
1360.870810 0.9870 0.9870 0.9860 0.9790 0.9760
1365.218642 0.9760 0.9780 0.9780 0.9780 0.9780
1369.566475 0.9760 0.9760 0.9760 0.9760 0.9760
1373.914307 0.9760 0.9760 0.9760 0.9760 0.9760
1378.262140 0.9780 0.9790 0.9790 0.9790 0.9790
1382.609972 0.9790 0.9790 0.9790 0.9780 0.9780
1386.957805 0.9790 0.9790 0.9800 0.9800 0.9790
1391.305637 0.9790 0.9790 0.9790 0.9790 0.9790
1395.653470 0.9790 0.9790 0.9780 0.9780 0.9760
1400.001302 0.9740 0.9720 0.9720 0.9720 0.9720
1404.349135 0.9710 0.9710 0.9710 0.9720 0.9740
1408.696967 0.9740 0.9740 0.9750 0.9760 0.9780
1413.044800 0.9780 0.9780 0.9790 0.9790 0.9800
1417.392632 0.9800 0.9800 0.9790 0.9780 0.9780
1421.740464 0.9780 0.9760 0.9750 0.9750 0.9740
1426.088297 0.9740 0.9720 0.9720 0.9710 0.9680
1430.436129 0.9650 0.9590 0.9570 0.9560 0.9490
1434.783962 0.9420 0.9350 0.9240 0.9140 0.8751
1439.131794 0.8519 0.7959 0.7270 0.6800 0.6410
1443.479627 0.5820 0.5820 0.6609 0.7318 0.7390
1447.827459 0.7650 0.7650 0.7609 0.6490 0.5630
1452.175292 0.5230 0.4431 0.4091 0.4090 0.4808
1456.523124 0.5401 0.6220 0.6540 0.7290 0.7850
1460.870957 0.8249 0.8390 0.8510 0.8590 0.8660
1465.218789 0.8740 0.8780 0.8810 0.8820 0.8900
1469.566622 0.8940 0.9000 0.9040 0.9050 0.9050
1473.914454 0.9040 0.8740 0.8390 0.8360 0.7650
1478.262287 0.7650 0.8489 0.8919 0.9040 0.9160
1482.610119 0.9260 0.9330 0.9340 0.9350 0.9370
1486.957952 0.9380 0.9390 0.9410 0.9420 0.9490
1491.305784 0.9500 0.9500 0.9500 0.9500 0.9520
1495.653617 0.9540 0.9560 0.9570 0.9600 0.9610
1500.001449 0.9640 0.9670 0.9680 0.9680 0.9710
1504.349282 0.9720 0.9750 0.9760 0.9760 0.9780
1508.697114 0.9780 0.9780 0.9780 0.9780 0.9790
1513.044946 0.9790 0.9790 0.9790 0.9800 0.9800
1517.392779 0.9800 0.9820 0.9820 0.9820 0.9830
1521.740611 0.9830 0.9840 0.9840 0.9840 0.9840
1526.088444 0.9840 0.9840 0.9840 0.9830 0.9820
1530.436276 0.9820 0.9800 0.9790 0.9780 0.9740
1534.784109 0.9720 0.9710 0.9680 0.9680 0.9670
1539.131941 0.9670 0.9670 0.9650 0.9640 0.9640
1543.479774 0.9640 0.9640 0.9630 0.9630 0.9610
1547.827606 0.9610 0.9610 0.9630 0.9630 0.9630
1552.175439 0.9640 0.9640 0.9650 0.9680 0.9690
1556.523271 0.9710 0.9710 0.9710 0.9710 0.9720
1560.871104 0.9750 0.9780 0.9780 0.9780 0.9780
1565.218936 0.9790 0.9790 0.9790 0.9800 0.9800
1569.566769 0.9820 0.9820 0.9800 0.9800 0.9800
1573.914601 0.9820 0.9820 0.9820 0.9820 0.9820
1578.262434 0.9820 0.9830 0.9830 0.9820 0.9800
1582.610266 0.9800 0.9800 0.9820 0.9820 0.9820
1586.958099 0.9820 0.9820 0.9830 0.9830 0.9840
1591.305931 0.9840 0.9840 0.9840 0.9840 0.9840
1595.653764 0.9840 0.9840 0.9840 0.9840 0.9840
1600.001596 0.9830 0.9830 0.9820 0.9800 0.9800
1604.349428 0.9790 0.9790 0.9780 0.9780 0.9780
1608.697261 0.9780 0.9760 0.9760 0.9760 0.9760
1613.045093 0.9760 0.9760 0.9760 0.9760 0.9760
1617.392926 0.9760 0.9780 0.9780 0.9780 0.9780
1621.740758 0.9780 0.9780 0.9760 0.9760 0.9780
1626.088591 0.9780 0.9780 0.9780 0.9790 0.9790
1630.436423 0.9780 0.9790 0.9780 0.9780 0.9780
1634.784256 0.9780 0.9780 0.9760 0.9760 0.9760
1639.132088 0.9780 0.9790 0.9790 0.9790 0.9780
1643.479921 0.9780 0.9790 0.9800 0.9800 0.9790
1647.827753 0.9780 0.9780 0.9820 0.9820 0.9800
1652.175586 0.9790 0.9790 0.9790 0.9780 0.9780
1656.523418 0.9780 0.9790 0.9800 0.9800 0.9800
1660.871251 0.9800 0.9800 0.9800 0.9800 0.9790
1665.219083 0.9790 0.9790 0.9790 0.9790 0.9790
1669.566916 0.9790 0.9790 0.9790 0.9790 0.9790
1673.914748 0.9790 0.9790 0.9790 0.9790 0.9790
1678.262581 0.9800 0.9820 0.9800 0.9820 0.9820
1682.610413 0.9820 0.9800 0.9800 0.9800 0.9820
1686.958246 0.9830 0.9820 0.9830 0.9830 0.9840
1691.306078 0.9840 0.9830 0.9830 0.9830 0.9830
1695.653911 0.9830 0.9820 0.9820 0.9820 0.9820
1700.001743 0.9820 0.9820 0.9820 0.9820 0.9800
1704.349575 0.9800 0.9800 0.9800 0.9800 0.9800
1708.697408 0.9800 0.9800 0.9800 0.9800 0.9800
1713.045240 0.9800 0.9800 0.9800 0.9800 0.9800
1717.393073 0.9800 0.9820 0.9800 0.9800 0.9800
1721.740905 0.9820 0.9820 0.9820 0.9820 0.9820
1726.088738 0.9820 0.9820 0.9830 0.9830 0.9830
1730.436570 0.9830 0.9830 0.9830 0.9830 0.9840
1734.784403 0.9840 0.9840 0.9840 0.9840 0.9840
1739.132235 0.9840 0.9830 0.9830 0.9830 0.9830
1743.480068 0.9830 0.9840 0.9840 0.9860 0.9860
1747.827900 0.9860 0.9890 0.9910 0.9930 0.9930
1752.175733 0.9940 0.9940 0.9950 0.9950 0.9950
1756.523565 0.9950 0.9970 0.9980 0.9980 0.9980
1760.871398 0.9980 0.9980 0.9980 0.9980 1.0000
1765.219230 1.0000 1.0000 1.0000 1.0010 1.0010
1769.567063 1.0010 1.0000 1.0000 1.0000 1.0000
1773.914895 1.0000 1.0000 1.0000 1.0000 1.0000
1778.262728 1.0000 1.0020 1.0020 1.0010 1.0010
1782.610560 1.0010 1.0010 1.0010 1.0010 1.0010
1786.958393 1.0010 1.0010 1.0010 1.0020 1.0010
1791.306225 1.0000 1.0000 1.0020 1.0020 1.0020
1795.654057 1.0020 1.0020 1.0020 1.0020 1.0040
1800.001890 1.0050 1.0050 1.0040 1.0040 1.0040
1804.349722 1.0040 1.0040 1.0040 1.0040 1.0050
1808.697555 1.0050 1.0050 1.0050 1.0050 1.0050
1813.045387 1.0040 1.0040 1.0040 1.0040 1.0040
1817.393220 1.0040 1.0020 1.0020 1.0020 1.0040
1821.741052 1.0040 1.0040 1.0040 1.0040 1.0020
1826.088885 1.0020 1.0020 1.0020 1.0040 1.0050
1830.436717 1.0040 1.0040 1.0040 1.0040 1.0020
1834.784550 1.0020 1.0020 1.0020 1.0020 1.0010
1839.132382 1.0010 1.0010 1.0010 1.0010 1.0000
1843.480215 1.0000 1.0010 1.0010 1.0010 1.0000
1847.828047 1.0000 1.0010 1.0010 1.0010 1.0010
1852.175880 1.0010 1.0020 1.0020 1.0020 1.0020
1856.523712 1.0020 1.0040 1.0040 1.0050 1.0050
1860.871545 1.0040 1.0040 1.0050 1.0050 1.0040
1865.219377 1.0040 1.0040 1.0020 1.0020 1.0020
1869.567210 1.0040 1.0040 1.0020 1.0020 1.0020
1873.915042 1.0020 1.0020 1.0010 1.0020 1.0020
1878.262875 1.0020 1.0020 1.0020 1.0020 1.0020
1882.610707 1.0020 1.0020 1.0020 1.0020 1.0040
1886.958539 1.0040 1.0040 1.0040 1.0050 1.0050
1891.306372 1.0040 1.0040 1.0020 1.0020 1.0040
1895.654204 1.0040 1.0040 1.0040 1.0040 1.0040
1900.002037 1.0040 1.0040 1.0040 1.0020 1.0020
1904.349869 1.0020 1.0020 1.0020 1.0020 1.0020
1908.697702 1.0020 1.0020 1.0020 1.0020 1.0020
1913.045534 1.0040 1.0020 1.0020 1.0020 1.0020
1917.393367 1.0020 1.0020 1.0020 1.0040 1.0040
1921.741199 1.0040 1.0050 1.0050 1.0050 1.0040
1926.089032 1.0040 1.0040 1.0020 1.0040 1.0040
1930.436864 1.0020 1.0020 1.0010 1.0010 1.0010
1934.784697 1.0020 1.0020 1.0010 1.0020 1.0020
1939.132529 1.0020 1.0010 1.0020 1.0020 1.0010
1943.480362 1.0010 1.0010 1.0010 1.0010 1.0010
1947.828194 1.0020 1.0020 1.0020 1.0020 1.0020
1952.176027 1.0020 1.0020 1.0020 1.0010 1.0010
1956.523859 1.0010 1.0010 1.0010 1.0010 1.0010
1960.871692 1.0020 1.0020 1.0020 1.0020 1.0020
1965.219524 1.0020 1.0020 1.0020 1.0020 1.0020
1969.567357 1.0020 1.0020 1.0020 1.0010 1.0010
1973.915189 1.0010 1.0010 1.0010 1.0010 1.0010
1978.263021 1.0010 1.0010 1.0010 1.0020 1.0040
1982.610854 1.0040 1.0040 1.0020 1.0020 1.0020
1986.958686 1.0040 1.0040 1.0040 1.0040 1.0040
1991.306519 1.0040 1.0020 1.0020 1.0020 1.0020
1995.654351 1.0020 1.0040 1.0050 1.0050 1.0050
2000.002184 1.0050 1.0050 1.0050 1.0045 1.0040
2004.350016 1.0045 1.0050 1.0050 1.0050 1.0050
2008.697849 1.0050 1.0050 1.0050 1.0050 1.0050
2013.045681 1.0050 1.0050 1.0055 1.0060 1.0055
2017.393514 1.0050 1.0055 1.0060 1.0060 1.0060
2021.741346 1.0070 1.0080 1.0080 1.0080 1.0080
2026.089179 1.0080 1.0080 1.0080 1.0080 1.0080
2030.437011 1.0071 1.0060 1.0055 1.0050 1.0050
2034.784844 1.0050 1.0050 1.0050 1.0045 1.0040
2039.132676 1.0040 1.0040 1.0040 1.0040 1.0040
2043.480509 1.0040 1.0040 1.0040 1.0040 1.0040
2047.828341 1.0040 1.0040 1.0040 1.0040 1.0040
2052.176174 1.0040 1.0031 1.0021 1.0020 1.0020
2056.524006 1.0020 1.0020 1.0020 1.0020 1.0015
2060.871839 1.0010 1.0005 1.0000 1.0000 1.0000
2065.219671 1.0005 1.0010 1.0010 1.0010 1.0005
2069.567503 1.0000 1.0000 1.0000 1.0000 1.0000
2073.915336 0.9991 0.9981 0.9975 0.9970 0.9970
2078.263168 0.9970 0.9970 0.9970 0.9970 0.9970
2082.611001 0.9970 0.9970 0.9974 0.9979 0.9980
2086.958833 0.9980 0.9975 0.9970 0.9970 0.9970
2091.306666 0.9970 0.9970 0.9970 0.9970 0.9970
2095.654498 0.9970 0.9970 0.9970 0.9970 0.9970
2100.002331 0.9970 0.9970 0.9970 0.9970 0.9974
2104.350163 0.9979 0.9980 0.9980 0.9980 0.9980
2108.697996 0.9980 0.9980 0.9989 0.9999 1.0000
2113.045828 1.0000 1.0000 1.0000 1.0004 1.0009
2117.393661 1.0010 1.0010 1.0010 1.0010 1.0010
2121.741493 1.0010 1.0010 1.0010 1.0010 1.0010
2126.089326 1.0006 1.0001 1.0000 1.0000 1.0000
2130.437158 1.0000 1.0000 1.0000 0.9992 0.9982
2134.784991 0.9980 0.9980 0.9980 0.9980 0.9980
2139.132823 0.9980 0.9980 0.9980 0.9980 0.9980
2143.480656 0.9976 0.9971 0.9970 0.9970 0.9970
2147.828488 0.9970 0.9970 0.9970 0.9970 0.9970
2152.176321 0.9970 0.9970 0.9962 0.9952 0.9950
2156.524153 0.9950 0.9950 0.9950 0.9950 0.9950
2160.871985 0.9950 0.9950 0.9946 0.9941 0.9940
2165.219818 0.9940 0.9940 0.9940 0.9944 0.9949
2169.567650 0.9950 0.9950 0.9946 0.9941 0.9940
2173.915483 0.9940 0.9940 0.9940 0.9940 0.9940
2178.263315 0.9940 0.9940 0.9936 0.9931 0.9930
2182.611148 0.9930 0.9930 0.9930 0.9930 0.9930
2186.958980 0.9922 0.9912 0.9910 0.9910 0.9918
2191.306813 0.9928 0.9930 0.9930 0.9922 0.9912
2195.654645 0.9910 0.9910 0.9910 0.9910 0.9910
2200.002478 0.9910 0.9910 0.9910 0.9910 0.9910
2204.350310 0.9918 0.9928 0.9922 0.9912 0.9910
2208.698143 0.9910 0.9910 0.9910 0.9906 0.9901
2213.045975 0.9900 0.9900 0.9900 0.9900 0.9900
2217.393808 0.9900 0.9900 0.9900 0.9911 0.9926
2221.741640 0.9930 0.9930 0.9930 0.9930 0.9923
2226.089473 0.9913 0.9910 0.9910 0.9917 0.9927
2230.437305 0.9930 0.9930 0.9919 0.9904 0.9896
2234.785138 0.9891 0.9883 0.9873 0.9870 0.9870
2239.132970 0.9877 0.9887 0.9894 0.9899 0.9900
2243.480803 0.9900 0.9904 0.9909 0.9910 0.9910
2247.828635 0.9917 0.9927 0.9930 0.9930 0.9919
2252.176468 0.9904 0.9900 0.9900 0.9900 0.9900
2256.524300 0.9900 0.9900 0.9900 0.9900 0.9900
2260.872132 0.9900 0.9900 0.9900 0.9904 0.9909
2265.219965 0.9910 0.9910 0.9910 0.9910 0.9917
2269.567797 0.9927 0.9930 0.9930 0.9923 0.9913
2273.915630 0.9910 0.9910 0.9910 0.9910 0.9910
2278.263462 0.9910 0.9910 0.9910 0.9910 0.9910
2282.611295 0.9910 0.9910 0.9910 0.9910 0.9910
2286.959127 0.9910 0.9910 0.9910 0.9910 0.9910
2291.306960 0.9910 0.9910 0.9910 0.9910 0.9910
2295.654792 0.9910 0.9910 0.9910 0.9910 0.9910
2300.002625 0.9910 0.9910 0.9907 0.9902 0.9900
2304.350457 0.9900 0.9900 0.9900 0.9900 0.9900
2308.698290 0.9897 0.9892 0.9890 0.9890 0.9890
2313.046122 0.9890 0.9890 0.9890 0.9893 0.9898
2317.393955 0.9900 0.9900 0.9897 0.9892 0.9884
2321.741787 0.9874 0.9870 0.9870 0.9870 0.9870
2326.089620 0.9870 0.9870 0.9870 0.9870 0.9870
2330.437452 0.9870 0.9870 0.9870 0.9870 0.9870
2334.785285 0.9870 0.9870 0.9867 0.9862 0.9860
2339.133117 0.9860 0.9860 0.9860 0.9860 0.9860
2343.480950 0.9854 0.9844 0.9840 0.9840 0.9837
2347.828782 0.9832 0.9830 0.9830 0.9830 0.9830
2352.176614 0.9830 0.9830 0.9827 0.9822 0.9820
2356.524447 0.9820 0.9820 0.9820 0.9820 0.9820
2360.872279 0.9820 0.9820 0.9814 0.9804 0.9800
2365.220112 0.9800 0.9800 0.9800 0.9800 0.9800
2369.567944 0.9800 0.9800 0.9800 0.9800 0.9800
2373.915777 0.9800 0.9806 0.9816 0.9820 0.9820
2378.263609 0.9823 0.9828 0.9833 0.9838 0.9846
2382.611442 0.9856 0.9863 0.9868 0.9870 0.9870
2386.959274 0.9879 0.9894 0.9903 0.9908 0.9910
2391.307107 0.9910 0.9907 0.9902 0.9900 0.9900
2395.654939 0.9900 0.9900 0.9900 0.9900 0.9897
2400.002772 0.9892 0.9890 0.9890 0.9890 0.9890
2404.350604 0.9890 0.9890 0.9890 0.9890 0.9893
2408.698437 0.9898 0.9903 0.9908 0.9910 0.9910
2413.046269 0.9907 0.9902 0.9900 0.9900 0.9900
2417.394102 0.9900 0.9903 0.9908 0.9910 0.9910
2421.741934 0.9905 0.9895 0.9890 0.9890 0.9890
2426.089767 0.9890 0.9890 0.9890 0.9890 0.9890
2430.437599 0.9893 0.9898 0.9900 0.9900 0.9900
2434.785432 0.9900 0.9900 0.9900 0.9900 0.9900
2439.133264 0.9900 0.9900 0.9900 0.9900 0.9897
2443.481096 0.9892 0.9890 0.9890 0.9890 0.9890
2447.828929 0.9890 0.9890 0.9890 0.9890 0.9890
2452.176761 0.9890 0.9890 0.9890 0.9892 0.9897
2456.524594 0.9900 0.9900 0.9902 0.9907 0.9910
2460.872426 0.9910 0.9908 0.9903 0.9900 0.9900
2465.220259 0.9900 0.9900 0.9902 0.9907 0.9910
2469.568091 0.9910 0.9910 0.9910 0.9910 0.9910
2473.915924 0.9910 0.9910 0.9908 0.9903 0.9900
2478.263756 0.9900 0.9900 0.9900 0.9898 0.9893
2482.611589 0.9890 0.9890 0.9890 0.9890 0.9890
2486.959421 0.9890 0.9892 0.9897 0.9900 0.9900
2491.307254 0.9900 0.9900 0.9900 0.9900 0.9898
2495.655086 0.9893 0.9890 0.9890 0.9892 0.9897
2500.002919 0.9902 0.9907 0.9910 0.9910 0.9908
2504.350751 0.9903 0.9900 0.9900 0.9900 0.9900
2508.698584 0.9900 0.9900 0.9900 0.9900 0.9900
2513.046416 0.9900 0.9900 0.9900 0.9900 0.9900
2517.394249 0.9902 0.9907 0.9910 0.9910 0.9906
2521.742081 0.9896 0.9890 0.9890 0.9892 0.9897
2526.089914 0.9900 0.9900 0.9906 0.9921 0.9930
2530.437746 0.9930 0.9926 0.9916 0.9910 0.9910
2534.785578 0.9910 0.9910 0.9910 0.9910 0.9908
2539.133411 0.9903 0.9900 0.9900 0.9900 0.9900
2543.481243 0.9900 0.9900 0.9900 0.9900 0.9900
2547.829076 0.9900 0.9902 0.9907 0.9908 0.9903
2552.176908 0.9900 0.9900 0.9900 0.9900 0.9900
2556.524741 0.9900 0.9900 0.9900 0.9898 0.9893
2560.872573 0.9892 0.9897 0.9898 0.9893 0.9890
2565.220406 0.9890 0.9886 0.9876 0.9870 0.9870
2569.568238 0.9868 0.9863 0.9856 0.9846 0.9840
2573.916071 0.9840 0.9844 0.9854 0.9860 0.9860
2578.263903 0.9860 0.9860 0.9862 0.9867 0.9870
2582.611736 0.9870 0.9870 0.9870 0.9875 0.9890
2586.959568 0.9902 0.9907 0.9910 0.9910 0.9907
2591.307401 0.9897 0.9890 0.9890 0.9892 0.9897
2595.655233 0.9900 0.9900 0.9900 0.9900 0.9898
2600.003066 0.9893 0.9887 0.9877 0.9868 0.9863
2604.350898 0.9860 0.9860 0.9860 0.9860 0.9860
2608.698731 0.9860 0.9860 0.9860 0.9860 0.9860
2613.046563 0.9860 0.9860 0.9862 0.9867 0.9870
2617.394396 0.9870 0.9873 0.9883 0.9892 0.9897
2621.742228 0.9900 0.9900 0.9900 0.9900 0.9900
2626.090060 0.9900 0.9900 0.9900 0.9900 0.9900
2630.437893 0.9900 0.9900 0.9900 0.9900 0.9900
2634.785725 0.9900 0.9899 0.9894 0.9890 0.9890
2639.133558 0.9891 0.9896 0.9900 0.9900 0.9900
2643.481390 0.9900 0.9900 0.9900 0.9900 0.9900
2647.829223 0.9900 0.9900 0.9900 0.9900 0.9900
2652.177055 0.9900 0.9900 0.9900 0.9900 0.9900
2656.524888 0.9900 0.9900 0.9900 0.9900 0.9900
2660.872720 0.9900 0.9900 0.9900 0.9900 0.9900
2665.220553 0.9900 0.9900 0.9900 0.9900 0.9901
2669.568385 0.9906 0.9910 0.9910 0.9909 0.9904
2673.916218 0.9900 0.9900 0.9900 0.9900 0.9900
2678.264050 0.9900 0.9900 0.9900 0.9899 0.9894
2682.611883 0.9890 0.9890 0.9890 0.9890 0.9890
2686.959715 0.9890 0.9890 0.9890 0.9890 0.9890
2691.307548 0.9890 0.9890 0.9890 0.9890 0.9890
2695.655380 0.9890 0.9890 0.9890 0.9890 0.9890
2700.003213 0.9890 0.9890 0.9890 0.9890 0.9890
2704.351045 0.9890 0.9890 0.9890 0.9888 0.9878
2708.698878 0.9869 0.9864 0.9857 0.9842 0.9829
2713.046710 0.9824 0.9818 0.9808 0.9800 0.9800
2717.394543 0.9802 0.9812 0.9821 0.9826 0.9831
2721.742375 0.9836 0.9840 0.9840 0.9842 0.9852
2726.090207 0.9860 0.9860 0.9860 0.9860 0.9861
2730.438040 0.9866 0.9870 0.9870 0.9870 0.9870
2734.785872 0.9869 0.9864 0.9860 0.9860 0.9858
2739.133705 0.9848 0.9839 0.9834 0.9829 0.9824
2743.481537 0.9820 0.9820 0.9818 0.9808 0.9802
2747.829370 0.9812 0.9820 0.9820 0.9818 0.9808
2752.177202 0.9799 0.9794 0.9789 0.9784 0.9778
2756.525035 0.9768 0.9760 0.9760 0.9760 0.9760
2760.872867 0.9759 0.9749 0.9739 0.9729 0.9718
2765.220700 0.9703 0.9689 0.9684 0.9680 0.9680
2769.568532 0.9681 0.9686 0.9692 0.9707 0.9721
2773.916365 0.9731 0.9740 0.9740 0.9741 0.9746
2778.264197 0.9751 0.9756 0.9760 0.9760 0.9759
2782.612030 0.9749 0.9740 0.9740 0.9740 0.9740
2786.959862 0.9740 0.9740 0.9739 0.9729 0.9720
2791.307695 0.9720 0.9721 0.9731 0.9740 0.9740
2795.655527 0.9741 0.9746 0.9752 0.9767 0.9780
2800.003360 0.9780 0.9780 0.9780 0.9780 0.9780
2804.351192 0.9781 0.9786 0.9790 0.9790 0.9790
2808.699025 0.9790 0.9790 0.9790 0.9790 0.9785
2813.046857 0.9780 0.9780 0.9780 0.9780 0.9780
2817.394689 0.9780 0.9779 0.9769 0.9759 0.9749
2821.742522 0.9739 0.9724 0.9710 0.9710 0.9709
2826.090354 0.9699 0.9690 0.9690 0.9689 0.9669
2830.438187 0.9650 0.9645 0.9640 0.9635 0.9629
2834.786019 0.9619 0.9609 0.9599 0.9589 0.9574
2839.133852 0.9558 0.9528 0.9498 0.9473 0.9448
2843.481684 0.9413 0.9379 0.9354 0.9329 0.9309
2847.829517 0.9288 0.9238 0.9187 0.9127 0.9065
2852.177349 0.8955 0.8841 0.8687 0.8535 0.8430
2856.525182 0.8329 0.8304 0.8263 0.7879 0.7489
2860.873014 0.6980 0.6470 0.5936 0.5415 0.5265
2865.220847 0.5116 0.4992 0.4863 0.4573 0.4284
2869.568679 0.3981 0.3664 0.2955 0.2270 0.2270
2873.916512 0.2276 0.2475 0.2671 0.2690 0.2715
2878.264344 0.2934 0.3152 0.3267 0.3387 0.3911
2882.612177 0.4435 0.4959 0.5482 0.5756 0.6030
2886.960009 0.6227 0.6423 0.6608 0.6792 0.6901
2891.307842 0.7010 0.7035 0.7060 0.7120 0.7180
2895.655674 0.7180 0.7180 0.7170 0.7160 0.7140
2900.003507 0.7120 0.7056 0.6991 0.6857 0.6722
2904.351339 0.6631 0.6540 0.6460 0.6380 0.5809
2908.699171 0.5235 0.5205 0.5180 0.5126 0.5071
2913.047004 0.4982 0.4892 0.4885 0.4880 0.4885
2917.394836 0.4890 0.4972 0.5057 0.5113 0.5168
2921.742669 0.5291 0.5417 0.5420 0.5420 0.5362
2926.090501 0.5302 0.5169 0.5034 0.4673 0.4304
2930.438334 0.4131 0.3967 0.3883 0.3804 0.3757
2934.786166 0.3712 0.3663 0.3613 0.3468 0.3318
2939.133999 0.2991 0.2654 0.2444 0.2239 0.2168
2943.481831 0.2103 0.2029 0.1954 0.1926 0.1901
2947.829664 0.1825 0.1745 0.1595 0.1440 0.1411
2952.177496 0.1391 0.1139 0.0869 0.0822 0.0792
2956.525329 0.0776 0.0761 0.0746 0.0731 0.0669
2960.873161 0.0604 0.0567 0.0532 0.0516 0.0501
2965.220994 0.0486 0.0471 0.0470 0.0470 0.0479
2969.568826 0.0489 0.0495 0.0500 0.0536 0.0576
2973.916659 0.0594 0.0609 0.0633 0.0658 0.0756
2978.264491 0.0861 0.0975 0.1090 0.1309 0.1538
2982.612324 0.1854 0.2178 0.2286 0.2371 0.2429
2986.960156 0.2484 0.2789 0.3123 0.3480 0.3839
2991.307989 0.4492 0.5182 0.5259 0.5269 0.5283
2995.655821 0.5298 0.5336 0.5376 0.5691 0.6040
3000.003653 0.6416 0.6795 0.6946 0.7065 0.7251
3004.351486 0.7446 0.7483 0.7498 0.7504 0.7509
3008.699318 0.7519 0.7529 0.7794 0.8094 0.8213
3013.047151 0.8308 0.8385 0.8460 0.8487 0.8507
3017.394983 0.8514 0.8519 0.8580 0.8650 0.8699
3021.742816 0.8744 0.8823 0.8907 0.8924 0.8929
3026.090648 0.8956 0.8986 0.9012 0.9036 0.9070
3030.438481 0.9105 0.9144 0.9184 0.9207 0.9227
3034.786313 0.9234 0.9239 0.9253 0.9268 0.9295
3039.134146 0.9325 0.9334 0.9339 0.9344 0.9349
3043.481978 0.9358 0.9368 0.9374 0.9379 0.9380
3047.829811 0.9380 0.9384 0.9389 0.9390 0.9390
3052.177643 0.9398 0.9408 0.9410 0.9410 0.9422
3056.525476 0.9437 0.9440 0.9440 0.9440 0.9440
3060.873308 0.9448 0.9458 0.9468 0.9478 0.9484
3065.221141 0.9489 0.9502 0.9517 0.9524 0.9529
3069.568973 0.9530 0.9530 0.9534 0.9539 0.9540
3073.916806 0.9540 0.9548 0.9558 0.9564 0.9569
3078.264638 0.9578 0.9588 0.9594 0.9599 0.9604
3082.612471 0.9609 0.9610 0.9610 0.9618 0.9628
3086.960303 0.9634 0.9639 0.9640 0.9640 0.9644
3091.308135 0.9649 0.9658 0.9668 0.9674 0.9679
3095.655968 0.9684 0.9689 0.9690 0.9690 0.9698
3100.003800 0.9708 0.9710 0.9710 0.9710 0.9710
3104.351633 0.9710 0.9710 0.9710 0.9710 0.9710
3108.699465 0.9710 0.9714 0.9719 0.9720 0.9720
3113.047298 0.9731 0.9746 0.9754 0.9759 0.9760
3117.395130 0.9760 0.9760 0.9760 0.9768 0.9778
3121.742963 0.9780 0.9780 0.9773 0.9763 0.9760
3126.090795 0.9760 0.9760 0.9760 0.9760 0.9760
3130.438628 0.9767 0.9777 0.9784 0.9789 0.9790
3134.786460 0.9790 0.9790 0.9790 0.9790 0.9790
3139.134293 0.9790 0.9790 0.9786 0.9781 0.9780
3143.482125 0.9780 0.9784 0.9789 0.9790 0.9790
3147.829958 0.9786 0.9781 0.9780 0.9780 0.9780
3152.177790 0.9780 0.9773 0.9763 0.9760 0.9760
3156.525623 0.9760 0.9760 0.9756 0.9751 0.9750
3160.873455 0.9750 0.9750 0.9750 0.9747 0.9742
3165.221288 0.9740 0.9740 0.9733 0.9723 0.9720
3169.569120 0.9720 0.9720 0.9720 0.9720 0.9720
3173.916953 0.9720 0.9720 0.9720 0.9720 0.9720
3178.264785 0.9720 0.9720 0.9720 0.9720 0.9720
3182.612617 0.9720 0.9720 0.9720 0.9720 0.9720
3186.960450 0.9720 0.9720 0.9720 0.9720 0.9720
3191.308282 0.9720 0.9720 0.9720 0.9720 0.9727
3195.656115 0.9737 0.9740 0.9740 0.9743 0.9748
3200.003947 0.9750 0.9750 0.9750 0.9750 0.9750
3204.351780 0.9750 0.9753 0.9758 0.9760 0.9760
3208.699612 0.9760 0.9760 0.9760 0.9760 0.9760
3213.047445 0.9760 0.9760 0.9760 0.9760 0.9760
3217.395277 0.9760 0.9760 0.9766 0.9776 0.9780
3221.743110 0.9780 0.9774 0.9764 0.9760 0.9760
3226.090942 0.9760 0.9760 0.9760 0.9760 0.9760
3230.438775 0.9760 0.9760 0.9760 0.9760 0.9760
3234.786607 0.9760 0.9760 0.9757 0.9752 0.9750
3239.134440 0.9750 0.9750 0.9750 0.9747 0.9742
3243.482272 0.9740 0.9740 0.9740 0.9740 0.9740
3247.830105 0.9740 0.9743 0.9748 0.9753 0.9758
3252.177937 0.9760 0.9760 0.9760 0.9760 0.9760
3256.525770 0.9760 0.9766 0.9776 0.9780 0.9780
3260.873602 0.9774 0.9764 0.9760 0.9760 0.9760
3265.221435 0.9760 0.9760 0.9760 0.9760 0.9760
3269.569267 0.9760 0.9760 0.9760 0.9760 0.9760
3273.917100 0.9760 0.9760 0.9760 0.9760 0.9760
3278.264932 0.9760 0.9760 0.9760 0.9760 0.9760
3282.612764 0.9760 0.9760 0.9760 0.9760 0.9760
3286.960597 0.9757 0.9752 0.9750 0.9750 0.9750
3291.308429 0.9750 0.9750 0.9750 0.9750 0.9750
3295.656262 0.9750 0.9750 0.9750 0.9750 0.9753
3300.004094 0.9758 0.9760 0.9760 0.9760 0.9760
3304.351927 0.9760 0.9760 0.9757 0.9752 0.9750
3308.699759 0.9750 0.9750 0.9750 0.9750 0.9750
3313.047592 0.9747 0.9742 0.9735 0.9725 0.9720
3317.395424 0.9720 0.9720 0.9720 0.9717 0.9712
3321.743257 0.9710 0.9710 0.9710 0.9710 0.9710
3326.091089 0.9710 0.9710 0.9710 0.9710 0.9710
3330.438922 0.9705 0.9695 0.9690 0.9690 0.9690
3334.786754 0.9690 0.9690 0.9690 0.9690 0.9690
3339.134587 0.9685 0.9675 0.9670 0.9670 0.9665
3343.482419 0.9655 0.9650 0.9650 0.9650 0.9650
3347.830252 0.9648 0.9643 0.9640 0.9640 0.9640
3352.178084 0.9640 0.9638 0.9633 0.9630 0.9630
3356.525917 0.9630 0.9630 0.9630 0.9630 0.9630
3360.873749 0.9630 0.9630 0.9630 0.9630 0.9630
3365.221582 0.9632 0.9637 0.9640 0.9640 0.9642
3369.569414 0.9647 0.9655 0.9665 0.9670 0.9670
3373.917246 0.9670 0.9670 0.9670 0.9670 0.9672
3378.265079 0.9677 0.9680 0.9680 0.9678 0.9673
3382.612911 0.9670 0.9670 0.9672 0.9677 0.9680
3386.960744 0.9680 0.9680 0.9680 0.9682 0.9687
3391.308576 0.9690 0.9690 0.9690 0.9690 0.9690
3395.656409 0.9690 0.9688 0.9683 0.9680 0.9680
3400.004241 0.9682 0.9687 0.9690 0.9690 0.9688
3404.352074 0.9683 0.9680 0.9680 0.9680 0.9680
3408.699906 0.9678 0.9673 0.9666 0.9656 0.9650
3413.047739 0.9650 0.9648 0.9643 0.9638 0.9633
3417.395571 0.9630 0.9630 0.9630 0.9630 0.9632
3421.743404 0.9637 0.9640 0.9640 0.9640 0.9640
3426.091236 0.9640 0.9640 0.9640 0.9640 0.9640
3430.439069 0.9640 0.9642 0.9647 0.9650 0.9650
3434.786901 0.9650 0.9650 0.9654 0.9664 0.9672
3439.134734 0.9677 0.9686 0.9701 0.9710 0.9710
3443.482566 0.9712 0.9717 0.9720 0.9720 0.9720
3447.830399 0.9720 0.9720 0.9720 0.9720 0.9720
3452.178231 0.9720 0.9720 0.9720 0.9720 0.9720
3456.526064 0.9720 0.9720 0.9720 0.9724 0.9734
3460.873896 0.9740 0.9740 0.9740 0.9740 0.9736
3465.221728 0.9726 0.9720 0.9720 0.9720 0.9720
3469.569561 0.9720 0.9720 0.9724 0.9734 0.9740
3473.917393 0.9740 0.9742 0.9747 0.9748 0.9743
3478.265226 0.9740 0.9740 0.9742 0.9747 0.9750
3482.613058 0.9750 0.9750 0.9750 0.9752 0.9757
3486.960891 0.9760 0.9760 0.9763 0.9773 0.9780
3491.308723 0.9780 0.9780 0.9780 0.9777 0.9767
3495.656556 0.9760 0.9760 0.9760 0.9760 0.9760
3500.004388 0.9760 0.9760 0.9760 0.9760 0.9760
3504.352221 0.9760 0.9760 0.9760 0.9760 0.9760
3508.700053 0.9760 0.9763 0.9773 0.9782 0.9787
3513.047886 0.9790 0.9790 0.9790 0.9790 0.9788
3517.395718 0.9783 0.9780 0.9780 0.9782 0.9787
3521.743551 0.9790 0.9790 0.9790 0.9790 0.9790
3526.091383 0.9790 0.9790 0.9790 0.9790 0.9790
3530.439216 0.9790 0.9790 0.9790 0.9790 0.9790
3534.787048 0.9790 0.9790 0.9790 0.9790 0.9790
3539.134881 0.9790 0.9790 0.9791 0.9796 0.9800
3543.482713 0.9800 0.9800 0.9800 0.9803 0.9813
3547.830546 0.9820 0.9820 0.9817 0.9807 0.9800
3552.178378 0.9800 0.9800 0.9800 0.9800 0.9800
3556.526210 0.9800 0.9800 0.9800 0.9800 0.9800
3560.874043 0.9800 0.9800 0.9800 0.9800 0.9800
3565.221875 0.9800 0.9800 0.9800 0.9800 0.9800
3569.569708 0.9800 0.9799 0.9794 0.9789 0.9784
3573.917540 0.9780 0.9780 0.9781 0.9786 0.9790
3578.265373 0.9790 0.9790 0.9790 0.9790 0.9790
3582.613205 0.9790 0.9790 0.9790 0.9790 0.9790
3586.961038 0.9790 0.9790 0.9790 0.9790 0.9790
3591.308870 0.9789 0.9784 0.9780 0.9780 0.9780
3595.656703 0.9780 0.9780 0.9780 0.9780 0.9780
3600.004535 0.9780 0.9780 0.9778 0.9768 0.9758
3604.352368 0.9748 0.9740 0.9740 0.9738 0.9728
3608.700200 0.9719 0.9714 0.9702 0.9662 0.9628
3613.048033 0.9618 0.9609 0.9604 0.9600 0.9600
3617.395865 0.9597 0.9582 0.9567 0.9552 0.9536
3621.743698 0.9516 0.9500 0.9500 0.9499 0.9494
3626.091530 0.9490 0.9490 0.9491 0.9496 0.9504
3630.439363 0.9524 0.9543 0.9558 0.9572 0.9582
3634.787195 0.9593 0.9614 0.9632 0.9642 0.9654
3639.135028 0.9674 0.9692 0.9702 0.9714 0.9739
3643.482860 0.9762 0.9772 0.9780 0.9780 0.9781
3647.830692 0.9786 0.9790 0.9790 0.9791 0.9796
3652.178525 0.9800 0.9800 0.9800 0.9800 0.9800
3656.526357 0.9800 0.9802 0.9812 0.9820 0.9820
3660.874190 0.9821 0.9826 0.9830 0.9830 0.9830
3665.222022 0.9830 0.9830 0.9830 0.9830 0.9830
3669.569855 0.9830 0.9830 0.9830 0.9830 0.9830
3673.917687 0.9830 0.9830 0.9830 0.9829 0.9824
3678.265520 0.9820 0.9820 0.9820 0.9820 0.9820
3682.613352 0.9820 0.9820 0.9820 0.9819 0.9809
3686.961185 0.9800 0.9800 0.9800 0.9800 0.9800
3691.309017 0.9800 0.9801 0.9811 0.9820 0.9820
3695.656850 0.9820 0.9820 0.9820 0.9820 0.9820
3700.004682 0.9820 0.9820 0.9820 0.9820 0.9820
3704.352515 0.9819 0.9809 0.9800 0.9800 0.9800
3708.700347 0.9800 0.9799 0.9795 0.9790 0.9790
3713.048180 0.9790 0.9785 0.9780 0.9780 0.9779
3717.396012 0.9769 0.9760 0.9760 0.9760 0.9755
3721.743845 0.9750 0.9750 0.9750 0.9745 0.9740
3726.091677 0.9740 0.9739 0.9729 0.9720 0.9720
3730.439510 0.9720 0.9720 0.9720 0.9720 0.9720
3734.787342 0.9720 0.9720 0.9715 0.9710 0.9710
3739.135175 0.9710 0.9710 0.9709 0.9699 0.9690
3743.483007 0.9690 0.9690 0.9685 0.9680 0.9680
3747.830839 0.9680 0.9680 0.9680 0.9680 0.9680
3752.178672 0.9680 0.9680 0.9675 0.9670 0.9670
3756.526504 0.9670 0.9670 0.9670 0.9675 0.9680
3760.874337 0.9685 0.9690 0.9700 0.9710 0.9710
3765.222169 0.9710 0.9715 0.9720 0.9730 0.9740
3769.570002 0.9740 0.9740 0.9740 0.9740 0.9740
3773.917834 0.9740 0.9745 0.9750 0.9750 0.9750
3778.265667 0.9750 0.9750 0.9745 0.9740 0.9740
3782.613499 0.9740 0.9730 0.9720 0.9730 0.9740
3786.961332 0.9750 0.9760 0.9760 0.9760 0.9770
3791.309164 0.9780 0.9780 0.9780 0.9780 0.9780
3795.656997 0.9780
##END=
