##TITLE=NORBORNANE, 2-BROMO-,EXO
##JCAMP-DX=4.24
$$ By DXEDIT 1.05 (RS McDonald)
##DATA TYPE=INFRARED SPECTRUM
##CLASS=COBLENTZ III
##ORIGIN=WESTERN REGIONAL RES. USDA
##OWNER=COBLENTZ SOC.
Collection (C) 2018 copyright by the U.S. Secretary of Commerce
on behalf of the United States of America. All rights reserved.
##DATE=1967/03/10
##NAMES=2-bromobicyclo[2.2.1]heptane
##CAS REGISTRY NO=2534-77-2
##MOLFORM=C7 H11 Br
##SOURCE REFERENCE=COBLENTZ NO. 05850
##$NIST SOURCE=COBLENTZ
##$NIST IMAGE=cob5850
##SPECTROMETER/DATA SYSTEM=CARY 90 (GRATING)
##INSTRUMENT PARAMETERS=ORDER CHANGES: 3000, 2000, 1200 CM^-^1
##STATE=LIQUID (NEAT)
##PATH LENGTH=0.0028 CM
##SAMPLING PROCEDURE=TRANSMISSION
##RESOLUTION=2
##DATA PROCESSING=DIGITIZED BY COBLENTZ SOCIETY (BATCH I) FROM HARD COPY
##XUNITS=1/CM
##YUNITS=TRANSMITTANCE
##XLABEL=Wavenumbers (cm-1)
##YLABEL=Transmittance
##XFACTOR=1
##YFACTOR=1
##DELTAX=1
##FIRSTX=3994
##LASTX=481
##FIRSTY=0.8712
##MAXX=3994
##MINX=481
##MAXY=0.9666
##MINY=0.0024
##NPOINTS=3514
##XYDATA=(X++(Y..Y))
3994.000000 0.8712 0.8713 0.8715 0.8727 0.8739
3989.000000 0.8751 0.8763 0.8774 0.8786 0.8834
3984.000000 0.8883 0.8918 0.8956 0.8980 0.9004
3979.000000 0.9025 0.9047 0.9064 0.9081 0.9097
3974.000000 0.9113 0.9118 0.9125 0.9133 0.9140
3969.000000 0.9143 0.9147 0.9148 0.9149 0.9150
3964.000000 0.9152 0.9153 0.9155 0.9156 0.9157
3959.000000 0.9157 0.9158 0.9158 0.9158 0.9158
3954.000000 0.9158 0.9156 0.9154 0.9152 0.9151
3949.000000 0.9149 0.9147 0.9144 0.9134 0.9135
3944.000000 0.9128 0.9120 0.9113 0.9101 0.9089
3939.000000 0.9077 0.9066 0.9054 0.9042 0.9030
3934.000000 0.9018 0.9004 0.8990 0.8975 0.8960
3929.000000 0.8945 0.8931 0.8916 0.8902 0.8887
3924.000000 0.8871 0.8857 0.8843 0.8827 0.8811
3919.000000 0.8794 0.8778 0.8762 0.8746 0.8730
3914.000000 0.8714 0.8698 0.8683 0.8668 0.8654
3909.000000 0.8640 0.8625 0.8618 0.8610 0.8602
3904.000000 0.8594 0.8586 0.8578 0.8578 0.8578
3899.000000 0.8578 0.8578 0.8578 0.8578 0.8584
3894.000000 0.8591 0.8597 0.8603 0.8609 0.8615
3889.000000 0.8621 0.8628 0.8634 0.8640 0.8646
3884.000000 0.8652 0.8658 0.8665 0.8671 0.8677
3879.000000 0.8686 0.8696 0.8705 0.8715 0.8725
3874.000000 0.8735 0.8739 0.8744 0.8747 0.8750
3869.000000 0.8752 0.8755 0.8757 0.8760 0.8763
3864.000000 0.8766 0.8768 0.8771 0.8774 0.8777
3859.000000 0.8778 0.8780 0.8781 0.8783 0.8784
3854.000000 0.8786 0.8787 0.8789 0.8790 0.8792
3849.000000 0.8793 0.8794 0.8795 0.8796 0.8796
3844.000000 0.8797 0.8798 0.8799 0.8800 0.8801
3839.000000 0.8801 0.8802 0.8803 0.8804 0.8805
3834.000000 0.8806 0.8806 0.8807 0.8808 0.8809
3829.000000 0.8810 0.8811 0.8811 0.8811 0.8809
3824.000000 0.8808 0.8806 0.8805 0.8803 0.8802
3819.000000 0.8800 0.8799 0.8797 0.8795 0.8793
3814.000000 0.8792 0.8790 0.8789 0.8787 0.8786
3809.000000 0.8784 0.8782 0.8780 0.8778 0.8777
3804.000000 0.8775 0.8774 0.8771 0.8770 0.8768
3799.000000 0.8766 0.8764 0.8760 0.8757 0.8753
3794.000000 0.8749 0.8745 0.8742 0.8738 0.8735
3789.000000 0.8731 0.8727 0.8723 0.8720 0.8716
3784.000000 0.8713 0.8709 0.8706 0.8702 0.8698
3779.000000 0.8694 0.8690 0.8685 0.8681 0.8677
3774.000000 0.8673 0.8668 0.8665 0.8661 0.8657
3769.000000 0.8653 0.8649 0.8644 0.8639 0.8631
3764.000000 0.8624 0.8616 0.8609 0.8598 0.8587
3759.000000 0.8574 0.8562 0.8549 0.8537 0.8528
3754.000000 0.8521 0.8515 0.8509 0.8502 0.8495
3749.000000 0.8493 0.8491 0.8490 0.8489 0.8489
3744.000000 0.8445 0.8492 0.8495 0.8497 0.8500
3739.000000 0.8502 0.8505 0.8507 0.8510 0.8512
3734.000000 0.8514 0.8516 0.8518 0.8525 0.8532
3729.000000 0.8540 0.8549 0.8558 0.8567 0.8575
3724.000000 0.8584 0.8592 0.8601 0.8609 0.8618
3719.000000 0.8625 0.8635 0.8644 0.8653 0.8661
3714.000000 0.8670 0.8678 0.8686 0.8693 0.8700
3709.000000 0.8706 0.8713 0.8720 0.8727 0.8733
3704.000000 0.8740 0.8747 0.8754 0.8760 0.8767
3699.000000 0.8774 0.8781 0.8787 0.8794 0.8797
3694.000000 0.8801 0.8804 0.8807 0.8810 0.8813
3689.000000 0.8816 0.8818 0.8821 0.8824 0.8825
3684.000000 0.8828 0.8831 0.8833 0.8835 0.8837
3679.000000 0.8839 0.8841 0.8843 0.8845 0.8847
3674.000000 0.8849 0.8851 0.8853 0.8855 0.8857
3669.000000 0.8859 0.8861 0.8863 0.8865 0.8867
3664.000000 0.8870 0.8871 0.8874 0.8875 0.8878
3659.000000 0.8880 0.8882 0.8883 0.8884 0.8885
3654.000000 0.8887 0.8888 0.8890 0.8891 0.8898
3649.000000 0.8894 0.8895 0.8896 0.8896 0.8897
3644.000000 0.8897 0.8896 0.8896 0.8895 0.8895
3639.000000 0.8894 0.8894 0.8891 0.8888 0.8882
3634.000000 0.8877 0.8871 0.8867 0.8862 0.8857
3629.000000 0.8851 0.8846 0.8841 0.8836 0.8824
3624.000000 0.8813 0.8799 0.8786 0.8775 0.8766
3619.000000 0.8757 0.8749 0.8740 0.8732 0.8723
3614.000000 0.8715 0.8706 0.8698 0.8685 0.8671
3609.000000 0.8658 0.8644 0.8631 0.8618 0.8609
3604.000000 0.8601 0.8592 0.8584 0.8575 0.8567
3599.000000 0.8558 0.8550 0.8541 0.8533 0.8524
3594.000000 0.8516 0.8504 0.8493 0.8474 0.8456
3589.000000 0.8444 0.8432 0.8425 0.8421 0.8415
3584.000000 0.8409 0.8405 0.8385 0.8402 0.8403
3579.000000 0.8403 0.8404 0.8405 0.8406 0.8406
3574.000000 0.8407 0.8407 0.8408 0.8409 0.8410
3569.000000 0.8411 0.8413 0.8428 0.8443 0.8458
3564.000000 0.8474 0.8489 0.8504 0.8518 0.8534
3559.000000 0.8547 0.8560 0.8571 0.8582 0.8593
3554.000000 0.8604 0.8615 0.8625 0.8637 0.8648
3549.000000 0.8658 0.8668 0.8680 0.8691 0.8702
3544.000000 0.8713 0.8723 0.8734 0.8739 0.8744
3539.000000 0.8749 0.8755 0.8760 0.8765 0.8770
3534.000000 0.8775 0.8780 0.8786 0.8791 0.8796
3529.000000 0.8801 0.8806 0.8811 0.8817 0.8821
3524.000000 0.8827 0.8832 0.8837 0.8842 0.8848
3519.000000 0.8852 0.8857 0.8860 0.8864 0.8868
3514.000000 0.8871 0.8875 0.8878 0.8882 0.8886
3509.000000 0.8890 0.8894 0.8897 0.8901 0.8904
3504.000000 0.8908 0.8911 0.8915 0.8918 0.8921
3499.000000 0.8923 0.8925 0.8927 0.8928 0.8931
3494.000000 0.8933 0.8935 0.8937 0.8939 0.8941
3489.000000 0.8943 0.8945 0.8947 0.8949 0.8951
3484.000000 0.8953 0.8955 0.8957 0.8959 0.8961
3479.000000 0.8963 0.8965 0.8967 0.8968 0.8971
3474.000000 0.8974 0.8975 0.8978 0.8978 0.8980
3469.000000 0.8980 0.8980 0.8978 0.8978 0.8978
3464.000000 0.8978 0.8978 0.8978 0.8978 0.8978
3459.000000 0.8978 0.8978 0.8977 0.8977 0.8977
3454.000000 0.8977 0.8975 0.8975 0.8975 0.8975
3449.000000 0.8970 0.8965 0.8959 0.8953 0.8947
3444.000000 0.8941 0.8935 0.8930 0.8924 0.8918
3439.000000 0.8912 0.8906 0.8900 0.8894 0.8888
3434.000000 0.8882 0.8875 0.8870 0.8865 0.8861
3429.000000 0.8856 0.8852 0.8847 0.8843 0.8838
3424.000000 0.8834 0.8828 0.8825 0.8821 0.8821
3419.000000 0.8823 0.8827 0.8830 0.8834 0.8837
3414.000000 0.8841 0.8844 0.8848 0.8851 0.8855
3409.000000 0.8858 0.8862 0.8866 0.8871 0.8875
3404.000000 0.8882 0.8887 0.8893 0.8899 0.8905
3399.000000 0.8910 0.8916 0.8921 0.8927 0.8933
3394.000000 0.8939 0.8942 0.8945 0.8947 0.8949
3389.000000 0.8950 0.8952 0.8954 0.8956 0.8957
3384.000000 0.8959 0.8960 0.8962 0.8963 0.8964
3379.000000 0.8963 0.8961 0.8958 0.8955 0.8952
3374.000000 0.8949 0.8946 0.8943 0.8940 0.8937
3369.000000 0.8931 0.8925 0.8918 0.8912 0.8905
3364.000000 0.8899 0.8892 0.8886 0.8878 0.8873
3359.000000 0.8866 0.8860 0.8859 0.8858 0.8857
3354.000000 0.8856 0.8855 0.8855 0.8854 0.8854
3349.000000 0.8853 0.8852 0.8851 0.8851 0.8850
3344.000000 0.8850 0.8849 0.8848 0.8851 0.8854
3339.000000 0.8858 0.8862 0.8866 0.8871 0.8875
3334.000000 0.8880 0.8884 0.8889 0.8893 0.8897
3329.000000 0.8901 0.8906 0.8910 0.8915 0.8918
3324.000000 0.8923 0.8927 0.8932 0.8936 0.8941
3319.000000 0.8945 0.8949 0.8953 0.8958 0.8962
3314.000000 0.8967 0.8971 0.8975 0.8978 0.8981
3309.000000 0.8983 0.8986 0.8988 0.8991 0.8993
3304.000000 0.8996 0.8998 0.9001 0.9003 0.9005
3299.000000 0.9007 0.9010 0.9012 0.9015 0.9015
3294.000000 0.9015 0.9014 0.9014 0.9013 0.9013
3289.000000 0.9012 0.9011 0.9010 0.9010 0.9009
3284.000000 0.9009 0.9008 0.9008 0.9007 0.9006
3279.000000 0.9005 0.9005 0.9004 0.9004 0.9003
3274.000000 0.9003 0.9002 0.9001 0.8999 0.8998
3269.000000 0.8996 0.8994 0.8992 0.8991 0.8989
3264.000000 0.8988 0.8986 0.8985 0.8983 0.8982
3259.000000 0.8980 0.8978 0.8975 0.8975 0.8973
3254.000000 0.8971 0.8970 0.8968 0.8967 0.8966
3249.000000 0.8964 0.8962 0.8959 0.8956 0.8951
3244.000000 0.8947 0.8942 0.8937 0.8932 0.8928
3239.000000 0.8923 0.8918 0.8915 0.8915 0.8915
3234.000000 0.8918 0.8923 0.8927 0.8931 0.8935
3229.000000 0.8938 0.8942 0.8946 0.8950 0.8954
3224.000000 0.8958 0.8961 0.8965 0.8968 0.8973
3219.000000 0.8974 0.8975 0.8975 0.8977 0.8977
3214.000000 0.8977 0.8977 0.8978 0.8978 0.8978
3209.000000 0.8978 0.8978 0.8978 0.8977 0.8968
3204.000000 0.8961 0.8953 0.8945 0.8937 0.8928
3199.000000 0.8921 0.8913 0.8905 0.8898 0.8890
3194.000000 0.8882 0.8874 0.8866 0.8858 0.8850
3189.000000 0.8843 0.8836 0.8828 0.8821 0.8815
3184.000000 0.8808 0.8801 0.8794 0.8787 0.8781
3179.000000 0.8773 0.8766 0.8756 0.8747 0.8737
3174.000000 0.8728 0.8725 0.8725 0.8723 0.8721
3169.000000 0.8720 0.8718 0.8718 0.8724 0.8723
3164.000000 0.8728 0.8732 0.8736 0.8739 0.8742
3159.000000 0.8745 0.8749 0.8752 0.8755 0.8758
3154.000000 0.8761 0.8764 0.8768 0.8771 0.8774
3149.000000 0.8777 0.8780 0.8783 0.8786 0.8789
3144.000000 0.8792 0.8795 0.8798 0.8801 0.8804
3139.000000 0.8807 0.8810 0.8813 0.8816 0.8818
3134.000000 0.8821 0.8824 0.8825 0.8827 0.8828
3129.000000 0.8828 0.8828 0.8828 0.8830 0.8831
3124.000000 0.8832 0.8832 0.8832 0.8833 0.8834
3119.000000 0.8835 0.8836 0.8836 0.8837 0.8837
3114.000000 0.8837 0.8832 0.8827 0.8821 0.8818
3109.000000 0.8813 0.8809 0.8804 0.8799 0.8792
3104.000000 0.8785 0.8778 0.8771 0.8764 0.8757
3099.000000 0.8750 0.8743 0.8736 0.8728 0.8721
3094.000000 0.8715 0.8708 0.8701 0.8694 0.8687
3089.000000 0.8680 0.8673 0.8666 0.8659 0.8648
3084.000000 0.8637 0.8625 0.8614 0.8602 0.8590
3079.000000 0.8578 0.8567 0.8555 0.8543 0.8531
3074.000000 0.8520 0.8508 0.8496 0.8484 0.8473
3069.000000 0.8461 0.8450 0.8438 0.8427 0.8415
3064.000000 0.8404 0.8393 0.8382 0.8370 0.8359
3059.000000 0.8347 0.8336 0.8325 0.8317 0.8308
3054.000000 0.8299 0.8289 0.8280 0.8271 0.8262
3049.000000 0.8252 0.8242 0.8218 0.8196 0.8172
3044.000000 0.8150 0.8126 0.8104 0.8081 0.8058
3039.000000 0.8025 0.7991 0.7950 0.7908 0.7868
3034.000000 0.7828 0.7778 0.7730 0.7660 0.7591
3029.000000 0.7522 0.7456 0.7415 0.7376 0.7338
3024.000000 0.7299 0.7258 0.7217 0.7168 0.7118
3019.000000 0.7069 0.7021 0.6947 0.6872 0.6786
3014.000000 0.6700 0.6601 0.6501 0.6383 0.6264
3009.000000 0.6056 0.5849 0.5687 0.5525 0.5432
3004.000000 0.5339 0.4979 0.4620 0.4382 0.4144
2999.000000 0.3906 0.3668 0.3430 0.3193 0.2955
2994.000000 0.2718 0.2480 0.2242 0.2004 0.1767
2989.000000 0.1529 0.1291 0.1053 0.0816 0.0565
2984.000000 0.0314 0.0250 0.0187 0.0165 0.0144
2979.000000 0.0133 0.0122 0.0114 0.0105 0.0103
2974.000000 0.0101 0.0098 0.0096 0.0094 0.0092
2969.000000 0.0090 0.0088 0.0086 0.0085 0.0083
2964.000000 0.0082 0.0080 0.0078 0.0076 0.0075
2959.000000 0.0073 0.0071 0.0069 0.0024 0.0066
2954.000000 0.0065 0.0064 0.0064 0.0064 0.0065
2949.000000 0.0065 0.0065 0.0065 0.0066 0.0067
2944.000000 0.0068 0.0070 0.0072 0.0073 0.0075
2939.000000 0.0077 0.0079 0.0081 0.0084 0.0095
2934.000000 0.0105 0.0150 0.0195 0.0231 0.0266
2929.000000 0.0304 0.0342 0.0387 0.0432 0.0466
2924.000000 0.0500 0.0531 0.0562 0.0579 0.0596
2919.000000 0.0609 0.0623 0.0634 0.0646 0.0657
2914.000000 0.0668 0.0679 0.0691 0.0703 0.0716
2909.000000 0.0771 0.0826 0.0969 0.1112 0.1254
2904.000000 0.1396 0.1539 0.1681 0.1823 0.1966
2899.000000 0.2108 0.2251 0.2393 0.2535 0.2674
2894.000000 0.2812 0.2813 0.2814 0.2814 0.2813
2889.000000 0.2812 0.2813 0.2658 0.2503 0.2312
2884.000000 0.2122 0.1931 0.1740 0.1549 0.1359
2879.000000 0.1168 0.0978 0.0787 0.0597 0.0406
2874.000000 0.0214 0.0123 0.0030 0.0031 0.0032
2869.000000 0.0032 0.0033 0.0086 0.0140 0.0204
2864.000000 0.0267 0.0332 0.0397 0.0473 0.0552
2859.000000 0.0887 0.1222 0.1722 0.2222 0.2722
2854.000000 0.3223 0.3723 0.4223 0.4723 0.5224
2849.000000 0.5699 0.6174 0.6256 0.6339 0.6471
2844.000000 0.6603 0.6921 0.7242 0.7378 0.7514
2839.000000 0.7605 0.7696 0.7741 0.7786 0.7830
2834.000000 0.7875 0.7918 0.7964 0.8012 0.8061
2829.000000 0.8111 0.8161 0.8212 0.8262 0.8312
2824.000000 0.8362 0.8405 0.8449 0.8475 0.8503
2819.000000 0.8528 0.8556 0.8584 0.8613 0.8641
2814.000000 0.8670 0.8693 0.8716 0.8734 0.8753
2809.000000 0.8768 0.8783 0.8792 0.8802 0.8811
2804.000000 0.8821 0.8828 0.8835 0.8838 0.8842
2799.000000 0.8845 0.8849 0.8852 0.8856 0.8855
2794.000000 0.8855 0.8852 0.8850 0.8848 0.8846
2789.000000 0.8842 0.8838 0.8834 0.8830 0.8825
2784.000000 0.8821 0.8816 0.8811 0.8804 0.8798
2779.000000 0.8791 0.8785 0.8778 0.8773 0.8766
2774.000000 0.8760 0.8753 0.8747 0.8741 0.8735
2769.000000 0.8728 0.8724 0.8725 0.8728 0.8731
2764.000000 0.8734 0.8737 0.8740 0.8742 0.8745
2759.000000 0.8748 0.8751 0.8775 0.8801 0.8821
2754.000000 0.8842 0.8853 0.8864 0.8875 0.8887
2749.000000 0.8898 0.8909 0.8920 0.8932 0.8943
2744.000000 0.8954 0.8964 0.8974 0.8984 0.8994
2739.000000 0.9004 0.9015 0.9025 0.9035 0.9045
2734.000000 0.9055 0.9062 0.9068 0.9075 0.9081
2729.000000 0.9085 0.9089 0.9092 0.9095 0.9098
2724.000000 0.9101 0.9103 0.9105 0.9105 0.9106
2719.000000 0.9106 0.9107 0.9107 0.9107 0.9107
2714.000000 0.9108 0.9109 0.9110 0.9111 0.9113
2709.000000 0.9114 0.9116 0.9117 0.9118 0.9120
2704.000000 0.9121 0.9123 0.9125 0.9125 0.9128
2699.000000 0.9128 0.9131 0.9132 0.9134 0.9138
2694.000000 0.9143 0.9148 0.9153 0.9157 0.9162
2689.000000 0.9166 0.9171 0.9175 0.9180 0.9184
2684.000000 0.9189 0.9190 0.9192 0.9193 0.9194
2679.000000 0.9195 0.9197 0.9198 0.9199 0.9200
2674.000000 0.9201 0.9202 0.9203 0.9204 0.9205
2669.000000 0.9206 0.9207 0.9207 0.9208 0.9208
2664.000000 0.9209 0.9209 0.9210 0.9210 0.9211
2659.000000 0.9211 0.9212 0.9212 0.9213 0.9213
2654.000000 0.9214 0.9214 0.9215 0.9215 0.9215
2649.000000 0.9214 0.9214 0.9212 0.9211 0.9210
2644.000000 0.9209 0.9208 0.9207 0.9206 0.9205
2639.000000 0.9199 0.9194 0.9187 0.9181 0.9174
2634.000000 0.9168 0.9160 0.9152 0.9142 0.9132
2629.000000 0.9121 0.9111 0.9098 0.9086 0.9071
2624.000000 0.9057 0.9042 0.9027 0.9021 0.9017
2619.000000 0.9012 0.9008 0.9004 0.9000 0.8995
2614.000000 0.8991 0.8987 0.8986 0.8986 0.8989
2609.000000 0.8991 0.8994 0.9000 0.8973 0.9016
2604.000000 0.9025 0.9034 0.9042 0.9050 0.9058
2599.000000 0.9062 0.9067 0.9068 0.9071 0.9075
2594.000000 0.9075 0.9075 0.9123 0.9071 0.9067
2589.000000 0.9063 0.9060 0.9056 0.9052 0.9048
2584.000000 0.9044 0.9037 0.9031 0.9025 0.9018
2579.000000 0.9012 0.9006 0.9000 0.8995 0.8993
2574.000000 0.8991 0.8989 0.8935 0.8985 0.8983
2569.000000 0.8981 0.8980 0.8978 0.8975 0.8984
2564.000000 0.8993 0.9004 0.9015 0.9025 0.9038
2559.000000 0.9049 0.9061 0.9073 0.9085 0.9097
2554.000000 0.9109 0.9120 0.9131 0.9132 0.9134
2549.000000 0.9135 0.9136 0.9137 0.9138 0.9139
2544.000000 0.9139 0.9139 0.9138 0.9134 0.9131
2539.000000 0.9128 0.9125 0.9121 0.9118 0.9115
2534.000000 0.9112 0.9108 0.9105 0.9102 0.9099
2529.000000 0.9095 0.9092 0.9089 0.9086 0.9084
2524.000000 0.9082 0.9080 0.9078 0.9075 0.9074
2519.000000 0.9071 0.9070 0.9068 0.9066 0.9064
2514.000000 0.9062 0.9060 0.9058 0.9057 0.9056
2509.000000 0.9055 0.9055 0.9054 0.9054 0.9053
2504.000000 0.9053 0.9053 0.9053 0.9052 0.9052
2499.000000 0.9051 0.9051 0.9050 0.9050 0.9049
2494.000000 0.9049 0.9049 0.9049 0.9049 0.9049
2489.000000 0.9049 0.9049 0.9048 0.9048 0.9052
2484.000000 0.9057 0.9062 0.9067 0.9071 0.9077
2479.000000 0.9081 0.9086 0.9091 0.9096 0.9101
2474.000000 0.9106 0.9110 0.9114 0.9117 0.9120
2469.000000 0.9123 0.9125 0.9128 0.9128 0.9128
2464.000000 0.9127 0.9125 0.9123 0.9121 0.9118
2459.000000 0.9114 0.9110 0.9103 0.9096 0.9089
2454.000000 0.9082 0.9075 0.9068 0.9060 0.9053
2449.000000 0.9044 0.9036 0.9027 0.9018 0.9016
2444.000000 0.9013 0.9011 0.9009 0.9007 0.9005
2439.000000 0.9005 0.9006 0.9008 0.9010 0.9012
2434.000000 0.9014 0.9016 0.9018 0.9020 0.9023
2429.000000 0.9025 0.9027 0.9028 0.9031 0.9033
2424.000000 0.9035 0.9036 0.9038 0.9039 0.9041
2419.000000 0.9042 0.9044 0.9045 0.9046 0.9047
2414.000000 0.9049 0.9049 0.9050 0.9049 0.9047
2409.000000 0.9044 0.9042 0.9039 0.9036 0.9033
2404.000000 0.9031 0.9028 0.9025 0.9023 0.9021
2399.000000 0.9018 0.9017 0.9015 0.9014 0.9012
2394.000000 0.9010 0.9006 0.9003 0.8996 0.8990
2389.000000 0.8984 0.8978 0.8965 0.8953 0.8941
2384.000000 0.8928 0.8916 0.8904 0.8892 0.8880
2379.000000 0.8861 0.8843 0.8824 0.8805 0.8786
2374.000000 0.8768 0.8751 0.8734 0.8717 0.8701
2369.000000 0.8684 0.8667 0.8650 0.8634 0.8618
2364.000000 0.8603 0.8587 0.8571 0.8565 0.8558
2359.000000 0.8553 0.8548 0.8544 0.8540 0.8540
2354.000000 0.8541 0.8541 0.8542 0.8543 0.8544
2349.000000 0.8548 0.8552 0.8557 0.8546 0.8585
2344.000000 0.8608 0.8625 0.8643 0.8660 0.8677
2339.000000 0.8694 0.8712 0.8728 0.8746 0.8763
2334.000000 0.8780 0.8790 0.8800 0.8810 0.8821
2329.000000 0.8831 0.8841 0.8851 0.8862 0.8871
2324.000000 0.8882 0.8892 0.8903 0.8911 0.8920
2319.000000 0.8927 0.8934 0.8941 0.8949 0.8956
2314.000000 0.8963 0.8970 0.8978 0.8985 0.8992
2309.000000 0.8999 0.9007 0.9014 0.9021 0.9030
2304.000000 0.9039 0.9048 0.9057 0.9065 0.9074
2299.000000 0.9082 0.9091 0.9099 0.9108 0.9117
2294.000000 0.9125 0.9134 0.9143 0.9151 0.9160
2289.000000 0.9168 0.9177 0.9186 0.9195 0.9204
2284.000000 0.9214 0.9221 0.9230 0.9231 0.9233
2279.000000 0.9234 0.9236 0.9237 0.9239 0.9240
2274.000000 0.9240 0.9241 0.9241 0.9239 0.9237
2269.000000 0.9235 0.9233 0.9231 0.9228 0.9227
2264.000000 0.9225 0.9223 0.9221 0.9218 0.9217
2259.000000 0.9214 0.9212 0.9209 0.9206 0.9203
2254.000000 0.9200 0.9197 0.9194 0.9191 0.9188
2249.000000 0.9185 0.9182 0.9178 0.9175 0.9173
2244.000000 0.9171 0.9168 0.9165 0.9162 0.9159
2239.000000 0.9156 0.9153 0.9150 0.9147 0.9143
2234.000000 0.9140 0.9136 0.9133 0.9133 0.9133
2229.000000 0.9134 0.9135 0.9136 0.9137 0.9138
2224.000000 0.9140 0.9141 0.9142 0.9143 0.9144
2219.000000 0.9145 0.9147 0.9148 0.9149 0.9150
2214.000000 0.9151 0.9152 0.9154 0.9155 0.9156
2209.000000 0.9157 0.9158 0.9159 0.9161 0.9162
2204.000000 0.9163 0.9164 0.9165 0.9166 0.9168
2199.000000 0.9168 0.9170 0.9171 0.9171 0.9174
2194.000000 0.9177 0.9180 0.9183 0.9185 0.9188
2189.000000 0.9191 0.9194 0.9196 0.9199 0.9201
2184.000000 0.9204 0.9207 0.9210 0.9212 0.9215
2179.000000 0.9218 0.9221 0.9223 0.9225 0.9228
2174.000000 0.9232 0.9234 0.9237 0.9239 0.9242
2169.000000 0.9245 0.9248 0.9251 0.9255 0.9259
2164.000000 0.9264 0.9268 0.9273 0.9277 0.9282
2159.000000 0.9286 0.9291 0.9296 0.9301 0.9305
2154.000000 0.9309 0.9313 0.9317 0.9321 0.9325
2149.000000 0.9328 0.9333 0.9337 0.9341 0.9346
2144.000000 0.9351 0.9357 0.9363 0.9368 0.9375
2139.000000 0.9382 0.9388 0.9394 0.9400 0.9406
2134.000000 0.9412 0.9418 0.9425 0.9430 0.9436
2129.000000 0.9439 0.9443 0.9447 0.9451 0.9454
2124.000000 0.9455 0.9456 0.9454 0.9450 0.9447
2119.000000 0.9443 0.9439 0.9435 0.9432 0.9428
2114.000000 0.9424 0.9420 0.9417 0.9413 0.9409
2109.000000 0.9405 0.9401 0.9396 0.9391 0.9386
2104.000000 0.9382 0.9377 0.9373 0.9368 0.9364
2099.000000 0.9359 0.9355 0.9350 0.9346 0.9342
2094.000000 0.9339 0.9335 0.9332 0.9328 0.9325
2089.000000 0.9321 0.9318 0.9315 0.9312 0.9308
2084.000000 0.9305 0.9302 0.9299 0.9295 0.9295
2079.000000 0.9294 0.9297 0.9300 0.9303 0.9307
2074.000000 0.9311 0.9317 0.9323 0.9328 0.9336
2069.000000 0.9346 0.9356 0.9366 0.9377 0.9387
2064.000000 0.9397 0.9407 0.9417 0.9427 0.9437
2059.000000 0.9447 0.9457 0.9467 0.9477 0.9486
2054.000000 0.9496 0.9505 0.9515 0.9524 0.9534
2049.000000 0.9543 0.9553 0.9562 0.9571 0.9578
2044.000000 0.9584 0.9589 0.9595 0.9601 0.9607
2039.000000 0.9612 0.9618 0.9623 0.9628 0.9635
2034.000000 0.9641 0.9646 0.9652 0.9652 0.9653
2029.000000 0.9653 0.9653 0.9653 0.9653 0.9652
2024.000000 0.9652 0.9652 0.9652 0.9652 0.9652
2019.000000 0.9652 0.9652 0.9652 0.9652 0.9652
2014.000000 0.9652 0.9651 0.9650 0.9649 0.9648
2009.000000 0.9646 0.9645 0.9644 0.9643 0.9641
2004.000000 0.9640 0.9639 0.9638 0.9635 0.9633
1999.000000 0.9627 0.9618 0.9615 0.9616 0.9618
1994.000000 0.9618 0.9620 0.9625 0.9633 0.9639
1989.000000 0.9646 0.9652 0.9657 0.9660 0.9662
1984.000000 0.9664 0.9664 0.9665 0.9663 0.9661
1979.000000 0.9658 0.9656 0.9654 0.9652 0.9649
1974.000000 0.9647 0.9666 0.9643 0.9640 0.9638
1969.000000 0.9636 0.9634 0.9630 0.9621 0.9611
1964.000000 0.9602 0.9593 0.9583 0.9574 0.9564
1959.000000 0.9561 0.9560 0.9559 0.9558 0.9557
1954.000000 0.9556 0.9555 0.9554 0.9553 0.9552
1949.000000 0.9551 0.9550 0.9547 0.9545 0.9544
1944.000000 0.9542 0.9541 0.9539 0.9539 0.9539
1939.000000 0.9539 0.9542 0.9545 0.9547 0.9550
1934.000000 0.9553 0.9556 0.9559 0.9562 0.9565
1929.000000 0.9571 0.9578 0.9585 0.9592 0.9599
1924.000000 0.9604 0.9608 0.9613 0.9617 0.9621
1919.000000 0.9627 0.9628 0.9628 0.9630 0.9625
1914.000000 0.9613 0.9601 0.9589 0.9577 0.9567
1909.000000 0.9558 0.9550 0.9541 0.9533 0.9524
1904.000000 0.9521 0.9518 0.9516 0.9513 0.9511
1899.000000 0.9508 0.9506 0.9503 0.9510 0.9518
1894.000000 0.9527 0.9536 0.9544 0.9548 0.9548
1889.000000 0.9547 0.9546 0.9545 0.9544 0.9543
1884.000000 0.9542 0.9540 0.9539 0.9538 0.9531
1879.000000 0.9521 0.9514 0.9505 0.9501 0.9503
1874.000000 0.9506 0.9509 0.9512 0.9515 0.9518
1869.000000 0.9527 0.9534 0.9541 0.9548 0.9555
1864.000000 0.9562 0.9559 0.9555 0.9551 0.9547
1859.000000 0.9543 0.9539 0.9535 0.9531 0.9524
1854.000000 0.9516 0.9508 0.9500 0.9491 0.9483
1849.000000 0.9475 0.9466 0.9454 0.9441 0.9428
1844.000000 0.9416 0.9396 0.9371 0.9363 0.9366
1839.000000 0.9374 0.9381 0.9388 0.9395 0.9403
1834.000000 0.9409 0.9416 0.9421 0.9428 0.9435
1829.000000 0.9442 0.9449 0.9455 0.9462 0.9468
1824.000000 0.9477 0.9484 0.9491 0.9499 0.9506
1819.000000 0.9513 0.9520 0.9525 0.9532 0.9538
1814.000000 0.9544 0.9550 0.9556 0.9560 0.9563
1809.000000 0.9567 0.9570 0.9571 0.9568 0.9566
1804.000000 0.9564 0.9562 0.9560 0.9558 0.9555
1799.000000 0.9553 0.9551 0.9564 0.9537 0.9530
1794.000000 0.9521 0.9514 0.9504 0.9494 0.9483
1789.000000 0.9473 0.9463 0.9452 0.9442 0.9435
1784.000000 0.9428 0.9420 0.9413 0.9406 0.9406
1779.000000 0.9407 0.9407 0.9408 0.9408 0.9408
1774.000000 0.9410 0.9412 0.9415 0.9418 0.9420
1769.000000 0.9423 0.9425 0.9428 0.9431 0.9434
1764.000000 0.9435 0.9436 0.9437 0.9437 0.9431
1759.000000 0.9421 0.9412 0.9400 0.9384 0.9368
1754.000000 0.9353 0.9337 0.9320 0.9301 0.9282
1749.000000 0.9262 0.9243 0.9224 0.9206 0.9188
1744.000000 0.9171 0.9153 0.9136 0.9117 0.9099
1739.000000 0.9101 0.9104 0.9107 0.9095 0.9112
1734.000000 0.9131 0.9152 0.9173 0.9193 0.9204
1729.000000 0.9216 0.9227 0.9238 0.9250 0.9261
1724.000000 0.9271 0.9275 0.9278 0.9282 0.9285
1719.000000 0.9288 0.9292 0.9295 0.9298 0.9301
1714.000000 0.9304 0.9307 0.9310 0.9313 0.9316
1709.000000 0.9318 0.9321 0.9321 0.9321 0.9321
1704.000000 0.9320 0.9318 0.9318 0.9317 0.9317
1699.000000 0.9316 0.9315 0.9314 0.9314 0.9313
1694.000000 0.9312 0.9312 0.9311 0.9310 0.9310
1689.000000 0.9309 0.9309 0.9308 0.9307 0.9307
1684.000000 0.9306 0.9305 0.9305 0.9304 0.9303
1679.000000 0.9303 0.9302 0.9301 0.9301 0.9301
1674.000000 0.9304 0.9307 0.9310 0.9314 0.9317
1669.000000 0.9320 0.9324 0.9328 0.9334 0.9338
1664.000000 0.9342 0.9341 0.9339 0.9337 0.9336
1659.000000 0.9334 0.9332 0.9331 0.9328 0.9327
1654.000000 0.9325 0.9325 0.9324 0.9323 0.9321
1649.000000 0.9321 0.9321 0.9320 0.9318 0.9318
1644.000000 0.9318 0.9317 0.9317 0.9316 0.9316
1639.000000 0.9315 0.9315 0.9314 0.9314 0.9315
1634.000000 0.9316 0.9317 0.9318 0.9320 0.9321
1629.000000 0.9321 0.9323 0.9324 0.9325 0.9325
1624.000000 0.9325 0.9324 0.9324 0.9323 0.9321
1619.000000 0.9318 0.9313 0.9308 0.9303 0.9297
1614.000000 0.9292 0.9287 0.9282 0.9280 0.9278
1609.000000 0.9278 0.9277 0.9275 0.9274 0.9273
1604.000000 0.9271 0.9271 0.9270 0.9268 0.9267
1599.000000 0.9267 0.9266 0.9266 0.9265 0.9265
1594.000000 0.9264 0.9264 0.9263 0.9262 0.9261
1589.000000 0.9259 0.9257 0.9256 0.9254 0.9253
1584.000000 0.9251 0.9249 0.9246 0.9243 0.9240
1579.000000 0.9236 0.9233 0.9228 0.9225 0.9223
1574.000000 0.9218 0.9216 0.9213 0.9209 0.9206
1569.000000 0.9202 0.9199 0.9196 0.9193 0.9190
1564.000000 0.9187 0.9184 0.9181 0.9178 0.9175
1559.000000 0.9171 0.9168 0.9167 0.9164 0.9161
1554.000000 0.9156 0.9150 0.9145 0.9140 0.9135
1549.000000 0.9130 0.9125 0.9120 0.9115 0.9109
1544.000000 0.9102 0.9095 0.9088 0.9081 0.9074
1539.000000 0.9067 0.9060 0.9053 0.9045 0.9038
1534.000000 0.9032 0.9027 0.9021 0.9016 0.9011
1529.000000 0.8989 0.8966 0.8943 0.8920 0.8907
1524.000000 0.8894 0.8880 0.8867 0.8865 0.8874
1519.000000 0.8883 0.8893 0.8899 0.8897 0.8894
1514.000000 0.8891 0.8889 0.8880 0.8827 0.8767
1509.000000 0.8723 0.8698 0.8674 0.8649 0.8623
1504.000000 0.8595 0.8566 0.8527 0.8470 0.8414
1499.000000 0.8357 0.8301 0.8244 0.8188 0.8128
1494.000000 0.8065 0.8003 0.7950 0.7906 0.7887
1489.000000 0.7868 0.7849 0.7830 0.7803 0.7765
1484.000000 0.7728 0.7649 0.7545 0.7386 0.7186
1479.000000 0.6058 0.5367 0.4677 0.4389 0.4384
1474.000000 0.4484 0.4991 0.5497 0.6003 0.6471
1469.000000 0.6476 0.6488 0.6481 0.6110 0.5686
1464.000000 0.5260 0.4834 0.4409 0.3982 0.3558
1459.000000 0.3132 0.2706 0.2281 0.1854 0.1430
1454.000000 0.1004 0.0500 0.0477 0.0480 0.0562
1449.000000 0.1570 0.2578 0.2909 0.2901 0.2916
1444.000000 0.2592 0.2146 0.1700 0.1575 0.1575
1439.000000 0.1575 0.2029 0.2603 0.3175 0.3747
1434.000000 0.4320 0.4892 0.6306 0.6412 0.6519
1429.000000 0.6626 0.6810 0.7017 0.7401 0.7525
1424.000000 0.7618 0.7710 0.7789 0.7865 0.7933
1419.000000 0.7982 0.8028 0.8058 0.8091 0.8124
1414.000000 0.8157 0.8187 0.8212 0.8234 0.8225
1409.000000 0.8218 0.8211 0.8204 0.8196 0.8189
1404.000000 0.8182 0.8175 0.8174 0.8172 0.8183
1399.000000 0.8193 0.8202 0.8221 0.8242 0.8263
1394.000000 0.8283 0.8303 0.8327 0.8355 0.8382
1389.000000 0.8409 0.8441 0.8440 0.8439 0.8431
1384.000000 0.8432 0.8437 0.8441 0.8449 0.8465
1379.000000 0.8481 0.8498 0.8513 0.8523 0.8533
1374.000000 0.8543 0.8553 0.8564 0.8574 0.8584
1369.000000 0.8588 0.8589 0.8590 0.8590 0.8591
1364.000000 0.8592 0.8567 0.8589 0.8583 0.8575
1359.000000 0.8570 0.8564 0.8537 0.8508 0.8478
1354.000000 0.8450 0.8420 0.8391 0.8361 0.8331
1349.000000 0.8301 0.8271 0.8241 0.8211 0.8181
1344.000000 0.8151 0.8118 0.8087 0.8055 0.8024
1339.000000 0.7992 0.7960 0.7932 0.7904 0.7876
1334.000000 0.7849 0.7821 0.7793 0.7747 0.7687
1329.000000 0.7628 0.7568 0.7461 0.7353 0.7251
1324.000000 0.7164 0.7075 0.6988 0.6780 0.6546
1319.000000 0.6315 0.4380 0.3155 0.1931 0.0706
1314.000000 0.0565 0.0565 0.0565 0.1284 0.2036
1309.000000 0.2640 0.2619 0.2534 0.2207 0.1879
1304.000000 0.1601 0.1601 0.1608 0.2627 0.3992
1299.000000 0.4519 0.4519 0.4518 0.4518 0.4517
1294.000000 0.4515 0.4419 0.4322 0.4225 0.4128
1289.000000 0.4030 0.3984 0.3962 0.3962 0.3960
1284.000000 0.4410 0.4889 0.5367 0.5845 0.6323
1279.000000 0.6801 0.7258 0.7254 0.7248 0.7245
1274.000000 0.7243 0.7194 0.6974 0.6755 0.6535
1269.000000 0.6315 0.6139 0.6099 0.6062 0.6020
1264.000000 0.5706 0.4785 0.3862 0.3352 0.3352
1259.000000 0.3352 0.3734 0.4225 0.4715 0.5204
1254.000000 0.5299 0.5331 0.5331 0.5069 0.4072
1249.000000 0.3076 0.2079 0.1216 0.1192 0.1195
1244.000000 0.1320 0.1609 0.1896 0.2185 0.2475
1239.000000 0.2763 0.3010 0.3010 0.3010 0.2305
1234.000000 0.1568 0.0832 0.0096 0.0081 0.0061
1229.000000 0.0061 0.0064 0.0067 0.0072 0.0080
1224.000000 0.0484 0.1387 0.2291 0.3194 0.4097
1219.000000 0.4407 0.4415 0.4423 0.4431 0.4438
1214.000000 0.4448 0.4459 0.4470 0.4746 0.5196
1209.000000 0.5645 0.6076 0.6124 0.6149 0.6169
1204.000000 0.6183 0.6082 0.6187 0.6176 0.6145
1199.000000 0.6117 0.5457 0.4749 0.4042 0.3334
1194.000000 0.2627 0.1919 0.1211 0.0791 0.0824
1189.000000 0.0795 0.0802 0.1267 0.1968 0.2670
1184.000000 0.3372 0.4074 0.4776 0.5478 0.6180
1179.000000 0.6882 0.7530 0.7592 0.7651 0.7710
1174.000000 0.7719 0.7765 0.7768 0.7708 0.7591
1169.000000 0.7228 0.7358 0.7241 0.7215 0.7218
1164.000000 0.7358 0.7519 0.7680 0.7840 0.8001
1159.000000 0.8065 0.8065 0.8056 0.8058 0.8048
1154.000000 0.8038 0.8026 0.8015 0.8003 0.7991
1149.000000 0.7978 0.7946 0.7911 0.7833 0.7700
1144.000000 0.7551 0.7414 0.7285 0.7148 0.6803
1139.000000 0.6239 0.5674 0.5110 0.4546 0.3980
1134.000000 0.3830 0.3779 0.3778 0.3988 0.4284
1129.000000 0.4581 0.4877 0.5174 0.5470 0.5767
1124.000000 0.6062 0.6360 0.6656 0.6895 0.6904
1119.000000 0.6903 0.6865 0.6705 0.6543 0.6382
1114.000000 0.6270 0.6278 0.6304 0.6287 0.8043
1109.000000 0.8146 0.8236 0.8318 0.8406 0.8510
1104.000000 0.8613 0.8713 0.8793 0.8848 0.8877
1099.000000 0.8907 0.8933 0.8947 0.8956 0.8961
1094.000000 0.8964 0.8964 0.8965 0.8940 0.8810
1089.000000 0.8680 0.8550 0.8418 0.8289 0.8158
1084.000000 0.8028 0.7915 0.7917 0.7949 0.7951
1079.000000 0.8122 0.8293 0.8463 0.8595 0.8659
1074.000000 0.8723 0.8787 0.8862 0.8942 0.9034
1069.000000 0.9100 0.9108 0.9116 0.9121 0.9123
1064.000000 0.9125 0.9127 0.9123 0.9110 0.9084
1059.000000 0.9023 0.8960 0.8894 0.8828 0.8762
1054.000000 0.8683 0.8578 0.8473 0.8312 0.8165
1049.000000 0.7842 0.7038 0.6233 0.5429 0.4625
1044.000000 0.4217 0.4217 0.4240 0.4219 0.4903
1039.000000 0.5831 0.6760 0.7688 0.7764 0.7795
1034.000000 0.7822 0.7845 0.7867 0.7925 0.8100
1029.000000 0.8274 0.8449 0.8623 0.8798 0.8895
1024.000000 0.8928 0.8947 0.8965 0.8968 0.9021
1019.000000 0.8975 0.8966 0.8956 0.8946 0.8933
1014.000000 0.8905 0.8877 0.8797 0.8540 0.8283
1009.000000 0.8026 0.7769 0.7512 0.7318 0.7343
1004.000000 0.7336 0.7335 0.7351 0.7375 0.7408
999.000000 0.7600 0.7858 0.8118 0.8377 0.8636
994.000000 0.8713 0.8783 0.8852 0.8904 0.8954
989.000000 0.8991 0.9012 0.9033 0.9053 0.9053
984.000000 0.9050 0.9043 0.9055 0.9007 0.8989
979.000000 0.8971 0.8941 0.8911 0.8882 0.8852
974.000000 0.8823 0.8793 0.8763 0.8713 0.8659
969.000000 0.8606 0.8552 0.8499 0.8406 0.8310
964.000000 0.8215 0.8119 0.8012 0.7905 0.7797
959.000000 0.7684 0.7561 0.7440 0.7318 0.7106
954.000000 0.6875 0.5748 0.4407 0.3066 0.1725
949.000000 0.0384 0.0105 0.0104 0.0104 0.0104
944.000000 0.0105 0.0490 0.1027 0.1563 0.2100
939.000000 0.2637 0.3174 0.3709 0.4247 0.4784
934.000000 0.5321 0.5858 0.6394 0.6931 0.7468
929.000000 0.7635 0.7636 0.7553 0.7225 0.6900
924.000000 0.6574 0.6247 0.5921 0.5594 0.5516
919.000000 0.5467 0.5385 0.5225 0.5080 0.5074
914.000000 0.5110 0.5112 0.5397 0.5681 0.5966
909.000000 0.6251 0.6536 0.6821 0.7106 0.7326
904.000000 0.7341 0.7354 0.7354 0.7025 0.6335
899.000000 0.5643 0.4952 0.4260 0.3568 0.2877
894.000000 0.2185 0.1719 0.1720 0.1716 0.2373
889.000000 0.3094 0.3814 0.4536 0.5257 0.5978
884.000000 0.6699 0.7128 0.7139 0.7146 0.7135
879.000000 0.6236 0.5705 0.5174 0.4643 0.4433
874.000000 0.4393 0.4610 0.5168 0.5725 0.6282
869.000000 0.6840 0.7080 0.7210 0.7324 0.7604
864.000000 0.7836 0.8088 0.8217 0.8307 0.8392
859.000000 0.8461 0.8536 0.8593 0.8614 0.8621
854.000000 0.8628 0.8631 0.8620 0.8614 0.8590
849.000000 0.8560 0.8500 0.8440 0.8347 0.8248
844.000000 0.8117 0.7908 0.7658 0.7075 0.6474
839.000000 0.5872 0.5270 0.4668 0.4120 0.4143
834.000000 0.4128 0.4133 0.4172 0.4757 0.5342
829.000000 0.5928 0.6512 0.7098 0.7684 0.8065
824.000000 0.8078 0.8078 0.8080 0.8101 0.7937
819.000000 0.7611 0.7288 0.6964 0.6639 0.6315
814.000000 0.5991 0.5666 0.5342 0.5018 0.4898
809.000000 0.4878 0.5060 0.5343 0.5626 0.5908
804.000000 0.6190 0.6471 0.6683 0.6731 0.6772
799.000000 0.6814 0.6872 0.6940 0.7006 0.7081
794.000000 0.7212 0.7346 0.7478 0.7611 0.7743
789.000000 0.7875 0.8008 0.8060 0.8065 0.8069
784.000000 0.8075 0.8078 0.8083 0.8064 0.8091
779.000000 0.8094 0.8098 0.8100 0.8100 0.7765
774.000000 0.7176 0.6589 0.6001 0.5412 0.4824
769.000000 0.4235 0.3647 0.3059 0.2470 0.2259
764.000000 0.2252 0.2248 0.2248 0.2248 0.2713
759.000000 0.3521 0.4330 0.5138 0.5946 0.6754
754.000000 0.7195 0.7334 0.7454 0.7574 0.7695
749.000000 0.7828 0.7971 0.8068 0.8125 0.8183
744.000000 0.8233 0.8282 0.8301 0.8310 0.8311
739.000000 0.8311 0.8311 0.8312 0.8312 0.8312
734.000000 0.8313 0.8313 0.8314 0.8316 0.8318
729.000000 0.8320 0.8321 0.8324 0.8328 0.8340
724.000000 0.8352 0.8363 0.8375 0.8387 0.8399
719.000000 0.8411 0.8423 0.8436 0.8448 0.8460
714.000000 0.8470 0.8478 0.8485 0.8493 0.8501
709.000000 0.8509 0.8512 0.8514 0.8501 0.8497
704.000000 0.8485 0.8474 0.8463 0.8444 0.8421
699.000000 0.8401 0.8378 0.8357 0.8335 0.8313
694.000000 0.8290 0.8267 0.8244 0.8221 0.8204
689.000000 0.8185 0.8165 0.8147 0.8128 0.8110
684.000000 0.8091 0.8072 0.8055 0.8038 0.8019
679.000000 0.8003 0.7985 0.7967 0.7950 0.7932
674.000000 0.7915 0.7891 0.7867 0.7843 0.7818
669.000000 0.7795 0.7771 0.7748 0.7724 0.7700
664.000000 0.7668 0.7635 0.7601 0.7568 0.7535
659.000000 0.7501 0.7450 0.7397 0.7344 0.7292
654.000000 0.7239 0.7189 0.7149 0.7108 0.7068
649.000000 0.7028 0.6990 0.6956 0.6921 0.6888
644.000000 0.6854 0.6819 0.6778 0.6735 0.6691
639.000000 0.6615 0.6518 0.6358 0.6064 0.5769
634.000000 0.5475 0.5180 0.4885 0.4591 0.4324
629.000000 0.4216 0.3048 0.1768 0.0489 0.0179
624.000000 0.0169 0.0169 0.0162 0.0183 0.0252
619.000000 0.0617 0.0983 0.1348 0.1713 0.2078
614.000000 0.2444 0.2809 0.3174 0.3539 0.3905
609.000000 0.4318 0.4679 0.5162 0.5646 0.5933
604.000000 0.6034 0.6133 0.6236 0.6339 0.6441
599.000000 0.6544 0.6647 0.6749 0.6851 0.6955
594.000000 0.7057 0.7160 0.7189 0.7187 0.7207
589.000000 0.7153 0.7117 0.7076 0.7035 0.6992
584.000000 0.6933 0.6839 0.6734 0.6588 0.5353
579.000000 0.4119 0.2884 0.2478 0.2463 0.2622
574.000000 0.3194 0.3766 0.4340 0.4912 0.5485
569.000000 0.6058 0.6715 0.6838 0.6906 0.6983
564.000000 0.7060 0.7137 0.7198 0.7255 0.7299
559.000000 0.7334 0.7364 0.7387 0.7398 0.7399
554.000000 0.7399 0.7400 0.7400 0.7397 0.7394
549.000000 0.7390 0.7387 0.7383 0.7378 0.7372
544.000000 0.7322 0.7358 0.7353 0.7346 0.7339
539.000000 0.7332 0.7325 0.7318 0.7305 0.7291
534.000000 0.7276 0.7262 0.7249 0.7236 0.7221
529.000000 0.7208 0.7193 0.7178 0.7162 0.7148
524.000000 0.7134 0.7118 0.7104 0.7089 0.7072
519.000000 0.7057 0.7041 0.7025 0.7010 0.6994
514.000000 0.6978 0.6961 0.6953 0.6945 0.6937
509.000000 0.6928 0.6925 0.6934 0.6942 0.6951
504.000000 0.6965 0.6995 0.7024 0.7054 0.7087
499.000000 0.7118 0.7142 0.7158 0.7175 0.7191
494.000000 0.7198 0.7195 0.7193 0.7185 0.7165
489.000000 0.7146 0.7125 0.7106 0.7081 0.7057
484.000000 0.7032 0.7006 0.6968 0.6928
##END=
